    1C
    1UUSER                                                              
    1UDATE              11.october.2022                                 
    1UTIME              17:32:05                                        
    1UHOST                                                              
    1UPGM               CalculiX                                        
    1UVERSION           Version 2.20                             
    1UCOMPILETIME       Sun Jul 31 18:08:37 CEST 2022                    
    1UDIR                                                               
    1UDBN                                                               
    1UMAT    1MESH_MATERIAL                                             
    2C                           841                                     1
 -1         1 0.00000E+00 0.00000E+00 0.00000E+00
 -1         2 1.66667E-02 0.00000E+00 0.00000E+00
 -1         3 3.33333E-02 0.00000E+00 0.00000E+00
 -1         4 5.00000E-02 0.00000E+00 0.00000E+00
 -1         5 6.66667E-02 0.00000E+00 0.00000E+00
 -1         8 0.00000E+00 6.25000E-03 0.00000E+00
 -1         9 1.66667E-02 6.25000E-03 0.00000E+00
 -1        10 3.33333E-02 6.25000E-03 0.00000E+00
 -1        11 5.00000E-02 6.25000E-03 0.00000E+00
 -1        12 6.66667E-02 6.25000E-03 0.00000E+00
 -1        15 0.00000E+00 1.25000E-02 0.00000E+00
 -1        16 1.66667E-02 1.25000E-02 0.00000E+00
 -1        17 3.33333E-02 1.25000E-02 0.00000E+00
 -1        18 5.00000E-02 1.25000E-02 0.00000E+00
 -1        19 6.66667E-02 1.25000E-02 0.00000E+00
 -1        20 8.33333E-02 1.25000E-02 0.00000E+00
 -1        21 1.00000E-01 1.25000E-02 0.00000E+00
 -1        22 0.00000E+00 1.87500E-02 0.00000E+00
 -1        23 1.66667E-02 1.87500E-02 0.00000E+00
 -1        24 3.33333E-02 1.87500E-02 0.00000E+00
 -1        25 5.00000E-02 1.87500E-02 0.00000E+00
 -1        26 6.66667E-02 1.87500E-02 0.00000E+00
 -1        27 8.33333E-02 1.87500E-02 0.00000E+00
 -1        28 1.00000E-01 1.87500E-02 0.00000E+00
 -1        29 0.00000E+00 2.50000E-02 0.00000E+00
 -1        30 1.66667E-02 2.50000E-02 0.00000E+00
 -1        31 3.33333E-02 2.50000E-02 0.00000E+00
 -1        32 5.00000E-02 2.50000E-02 0.00000E+00
 -1        33 6.66667E-02 2.50000E-02 0.00000E+00
 -1        34 8.33333E-02 2.50000E-02 0.00000E+00
 -1        35 1.00000E-01 2.50000E-02 0.00000E+00
 -1        36 1.04167E-03 0.00000E+00 0.00000E+00
 -1        37 2.08333E-03 0.00000E+00 0.00000E+00
 -1        38 3.12500E-03 0.00000E+00 0.00000E+00
 -1        39 4.16667E-03 0.00000E+00 0.00000E+00
 -1        40 5.20833E-03 0.00000E+00 0.00000E+00
 -1        41 6.25000E-03 0.00000E+00 0.00000E+00
 -1        42 7.29167E-03 0.00000E+00 0.00000E+00
 -1        43 8.33333E-03 0.00000E+00 0.00000E+00
 -1        44 9.37500E-03 0.00000E+00 0.00000E+00
 -1        45 1.04167E-02 0.00000E+00 0.00000E+00
 -1        46 1.14583E-02 0.00000E+00 0.00000E+00
 -1        47 1.25000E-02 0.00000E+00 0.00000E+00
 -1        48 1.35417E-02 0.00000E+00 0.00000E+00
 -1        49 1.45833E-02 0.00000E+00 0.00000E+00
 -1        50 1.56250E-02 0.00000E+00 0.00000E+00
 -1        51 0.00000E+00 1.04167E-03 0.00000E+00
 -1        52 0.00000E+00 2.08333E-03 0.00000E+00
 -1        53 0.00000E+00 3.12500E-03 0.00000E+00
 -1        54 0.00000E+00 4.16667E-03 0.00000E+00
 -1        55 0.00000E+00 5.20833E-03 0.00000E+00
 -1        56 1.04167E-03 3.90630E-04 0.00000E+00
 -1        57 2.08333E-03 7.81250E-04 0.00000E+00
 -1        58 3.12500E-03 1.17188E-03 0.00000E+00
 -1        59 4.16667E-03 1.56250E-03 0.00000E+00
 -1        60 5.20833E-03 1.95312E-03 0.00000E+00
 -1        61 6.25000E-03 2.34375E-03 0.00000E+00
 -1        62 7.29167E-03 2.73438E-03 0.00000E+00
 -1        63 8.33333E-03 3.12500E-03 0.00000E+00
 -1        64 9.37500E-03 3.51563E-03 0.00000E+00
 -1        65 1.04167E-02 3.90625E-03 0.00000E+00
 -1        66 1.14583E-02 4.29688E-03 0.00000E+00
 -1        67 1.25000E-02 4.68750E-03 0.00000E+00
 -1        68 1.35417E-02 5.07813E-03 0.00000E+00
 -1        69 1.45833E-02 5.46875E-03 0.00000E+00
 -1        70 1.56250E-02 5.85938E-03 0.00000E+00
 -1        71 1.77083E-02 0.00000E+00 0.00000E+00
 -1        72 1.87500E-02 0.00000E+00 0.00000E+00
 -1        73 1.97917E-02 0.00000E+00 0.00000E+00
 -1        74 2.08333E-02 0.00000E+00 0.00000E+00
 -1        75 2.18750E-02 0.00000E+00 0.00000E+00
 -1        76 2.29167E-02 0.00000E+00 0.00000E+00
 -1        77 2.39583E-02 0.00000E+00 0.00000E+00
 -1        78 2.50000E-02 0.00000E+00 0.00000E+00
 -1        79 2.60417E-02 0.00000E+00 0.00000E+00
 -1        80 2.70833E-02 0.00000E+00 0.00000E+00
 -1        81 2.81250E-02 0.00000E+00 0.00000E+00
 -1        82 2.91667E-02 0.00000E+00 0.00000E+00
 -1        83 3.02083E-02 0.00000E+00 0.00000E+00
 -1        84 3.12500E-02 0.00000E+00 0.00000E+00
 -1        85 3.22917E-02 0.00000E+00 0.00000E+00
 -1        86 1.66667E-02 1.04167E-03 0.00000E+00
 -1        87 1.66667E-02 2.08333E-03 0.00000E+00
 -1        88 1.66667E-02 3.12500E-03 0.00000E+00
 -1        89 1.66667E-02 4.16667E-03 0.00000E+00
 -1        90 1.66667E-02 5.20833E-03 0.00000E+00
 -1        91 1.77083E-02 3.90630E-04 0.00000E+00
 -1        92 1.87500E-02 7.81250E-04 0.00000E+00
 -1        93 1.97917E-02 1.17188E-03 0.00000E+00
 -1        94 2.08333E-02 1.56250E-03 0.00000E+00
 -1        95 2.18750E-02 1.95312E-03 0.00000E+00
 -1        96 2.29167E-02 2.34375E-03 0.00000E+00
 -1        97 2.39583E-02 2.73438E-03 0.00000E+00
 -1        98 2.50000E-02 3.12500E-03 0.00000E+00
 -1        99 2.60417E-02 3.51563E-03 0.00000E+00
 -1       100 2.70833E-02 3.90625E-03 0.00000E+00
 -1       101 2.81250E-02 4.29688E-03 0.00000E+00
 -1       102 2.91667E-02 4.68750E-03 0.00000E+00
 -1       103 3.02083E-02 5.07813E-03 0.00000E+00
 -1       104 3.12500E-02 5.46875E-03 0.00000E+00
 -1       105 3.22917E-02 5.85938E-03 0.00000E+00
 -1       106 3.43750E-02 0.00000E+00 0.00000E+00
 -1       107 3.54167E-02 0.00000E+00 0.00000E+00
 -1       108 3.64583E-02 0.00000E+00 0.00000E+00
 -1       109 3.75000E-02 0.00000E+00 0.00000E+00
 -1       110 3.85417E-02 0.00000E+00 0.00000E+00
 -1       111 3.95833E-02 0.00000E+00 0.00000E+00
 -1       112 4.06250E-02 0.00000E+00 0.00000E+00
 -1       113 4.16667E-02 0.00000E+00 0.00000E+00
 -1       114 4.27083E-02 0.00000E+00 0.00000E+00
 -1       115 4.37500E-02 0.00000E+00 0.00000E+00
 -1       116 4.47917E-02 0.00000E+00 0.00000E+00
 -1       117 4.58333E-02 0.00000E+00 0.00000E+00
 -1       118 4.68750E-02 0.00000E+00 0.00000E+00
 -1       119 4.79167E-02 0.00000E+00 0.00000E+00
 -1       120 4.89583E-02 0.00000E+00 0.00000E+00
 -1       121 3.33333E-02 1.04167E-03 0.00000E+00
 -1       122 3.33333E-02 2.08333E-03 0.00000E+00
 -1       123 3.33333E-02 3.12500E-03 0.00000E+00
 -1       124 3.33333E-02 4.16667E-03 0.00000E+00
 -1       125 3.33333E-02 5.20833E-03 0.00000E+00
 -1       126 3.43750E-02 3.90630E-04 0.00000E+00
 -1       127 3.54167E-02 7.81250E-04 0.00000E+00
 -1       128 3.64583E-02 1.17188E-03 0.00000E+00
 -1       129 3.75000E-02 1.56250E-03 0.00000E+00
 -1       130 3.85417E-02 1.95312E-03 0.00000E+00
 -1       131 3.95833E-02 2.34375E-03 0.00000E+00
 -1       132 4.06250E-02 2.73438E-03 0.00000E+00
 -1       133 4.16667E-02 3.12500E-03 0.00000E+00
 -1       134 4.27083E-02 3.51563E-03 0.00000E+00
 -1       135 4.37500E-02 3.90625E-03 0.00000E+00
 -1       136 4.47917E-02 4.29688E-03 0.00000E+00
 -1       137 4.58333E-02 4.68750E-03 0.00000E+00
 -1       138 4.68750E-02 5.07813E-03 0.00000E+00
 -1       139 4.79167E-02 5.46875E-03 0.00000E+00
 -1       140 4.89583E-02 5.85938E-03 0.00000E+00
 -1       141 5.10417E-02 0.00000E+00 0.00000E+00
 -1       142 5.20833E-02 0.00000E+00 0.00000E+00
 -1       143 5.31250E-02 0.00000E+00 0.00000E+00
 -1       144 5.41667E-02 0.00000E+00 0.00000E+00
 -1       145 5.52083E-02 0.00000E+00 0.00000E+00
 -1       146 5.62500E-02 0.00000E+00 0.00000E+00
 -1       147 5.72917E-02 0.00000E+00 0.00000E+00
 -1       148 5.83333E-02 0.00000E+00 0.00000E+00
 -1       149 5.93750E-02 0.00000E+00 0.00000E+00
 -1       150 6.04167E-02 0.00000E+00 0.00000E+00
 -1       151 6.14583E-02 0.00000E+00 0.00000E+00
 -1       152 6.25000E-02 0.00000E+00 0.00000E+00
 -1       153 6.35417E-02 0.00000E+00 0.00000E+00
 -1       154 6.45833E-02 0.00000E+00 0.00000E+00
 -1       155 6.56250E-02 0.00000E+00 0.00000E+00
 -1       156 5.00000E-02 1.04167E-03 0.00000E+00
 -1       157 5.00000E-02 2.08333E-03 0.00000E+00
 -1       158 5.00000E-02 3.12500E-03 0.00000E+00
 -1       159 5.00000E-02 4.16667E-03 0.00000E+00
 -1       160 5.00000E-02 5.20833E-03 0.00000E+00
 -1       161 5.10417E-02 3.90630E-04 0.00000E+00
 -1       162 5.20833E-02 7.81250E-04 0.00000E+00
 -1       163 5.31250E-02 1.17188E-03 0.00000E+00
 -1       164 5.41667E-02 1.56250E-03 0.00000E+00
 -1       165 5.52083E-02 1.95312E-03 0.00000E+00
 -1       166 5.62500E-02 2.34375E-03 0.00000E+00
 -1       167 5.72917E-02 2.73438E-03 0.00000E+00
 -1       168 5.83333E-02 3.12500E-03 0.00000E+00
 -1       169 5.93750E-02 3.51563E-03 0.00000E+00
 -1       170 6.04167E-02 3.90625E-03 0.00000E+00
 -1       171 6.14583E-02 4.29688E-03 0.00000E+00
 -1       172 6.25000E-02 4.68750E-03 0.00000E+00
 -1       173 6.35417E-02 5.07813E-03 0.00000E+00
 -1       174 6.45833E-02 5.46875E-03 0.00000E+00
 -1       175 6.56250E-02 5.85938E-03 0.00000E+00
 -1       191 6.66667E-02 1.04167E-03 0.00000E+00
 -1       192 6.66667E-02 2.08333E-03 0.00000E+00
 -1       193 6.66667E-02 3.12500E-03 0.00000E+00
 -1       194 6.66667E-02 4.16667E-03 0.00000E+00
 -1       195 6.66667E-02 5.20833E-03 0.00000E+00
 -1       251 1.04167E-03 6.25000E-03 0.00000E+00
 -1       252 2.08333E-03 6.25000E-03 0.00000E+00
 -1       253 3.12500E-03 6.25000E-03 0.00000E+00
 -1       254 4.16667E-03 6.25000E-03 0.00000E+00
 -1       255 5.20833E-03 6.25000E-03 0.00000E+00
 -1       256 6.25000E-03 6.25000E-03 0.00000E+00
 -1       257 7.29167E-03 6.25000E-03 0.00000E+00
 -1       258 8.33333E-03 6.25000E-03 0.00000E+00
 -1       259 9.37500E-03 6.25000E-03 0.00000E+00
 -1       260 1.04167E-02 6.25000E-03 0.00000E+00
 -1       261 1.14583E-02 6.25000E-03 0.00000E+00
 -1       262 1.25000E-02 6.25000E-03 0.00000E+00
 -1       263 1.35417E-02 6.25000E-03 0.00000E+00
 -1       264 1.45833E-02 6.25000E-03 0.00000E+00
 -1       265 1.56250E-02 6.25000E-03 0.00000E+00
 -1       266 0.00000E+00 7.29167E-03 0.00000E+00
 -1       267 0.00000E+00 8.33333E-03 0.00000E+00
 -1       268 0.00000E+00 9.37500E-03 0.00000E+00
 -1       269 0.00000E+00 1.04167E-02 0.00000E+00
 -1       270 0.00000E+00 1.14583E-02 0.00000E+00
 -1       271 1.04167E-03 6.64063E-03 0.00000E+00
 -1       272 2.08333E-03 7.03125E-03 0.00000E+00
 -1       273 3.12500E-03 7.42188E-03 0.00000E+00
 -1       274 4.16667E-03 7.81250E-03 0.00000E+00
 -1       275 5.20833E-03 8.20313E-03 0.00000E+00
 -1       276 6.25000E-03 8.59375E-03 0.00000E+00
 -1       277 7.29167E-03 8.98438E-03 0.00000E+00
 -1       278 8.33333E-03 9.37500E-03 0.00000E+00
 -1       279 9.37500E-03 9.76562E-03 0.00000E+00
 -1       280 1.04167E-02 1.01562E-02 0.00000E+00
 -1       281 1.14583E-02 1.05469E-02 0.00000E+00
 -1       282 1.25000E-02 1.09375E-02 0.00000E+00
 -1       283 1.35417E-02 1.13281E-02 0.00000E+00
 -1       284 1.45833E-02 1.17188E-02 0.00000E+00
 -1       285 1.56250E-02 1.21094E-02 0.00000E+00
 -1       286 1.77083E-02 6.25000E-03 0.00000E+00
 -1       287 1.87500E-02 6.25000E-03 0.00000E+00
 -1       288 1.97917E-02 6.25000E-03 0.00000E+00
 -1       289 2.08333E-02 6.25000E-03 0.00000E+00
 -1       290 2.18750E-02 6.25000E-03 0.00000E+00
 -1       291 2.29167E-02 6.25000E-03 0.00000E+00
 -1       292 2.39583E-02 6.25000E-03 0.00000E+00
 -1       293 2.50000E-02 6.25000E-03 0.00000E+00
 -1       294 2.60417E-02 6.25000E-03 0.00000E+00
 -1       295 2.70833E-02 6.25000E-03 0.00000E+00
 -1       296 2.81250E-02 6.25000E-03 0.00000E+00
 -1       297 2.91667E-02 6.25000E-03 0.00000E+00
 -1       298 3.02083E-02 6.25000E-03 0.00000E+00
 -1       299 3.12500E-02 6.25000E-03 0.00000E+00
 -1       300 3.22917E-02 6.25000E-03 0.00000E+00
 -1       301 1.66667E-02 7.29167E-03 0.00000E+00
 -1       302 1.66667E-02 8.33333E-03 0.00000E+00
 -1       303 1.66667E-02 9.37500E-03 0.00000E+00
 -1       304 1.66667E-02 1.04167E-02 0.00000E+00
 -1       305 1.66667E-02 1.14583E-02 0.00000E+00
 -1       306 1.77083E-02 6.64063E-03 0.00000E+00
 -1       307 1.87500E-02 7.03125E-03 0.00000E+00
 -1       308 1.97917E-02 7.42188E-03 0.00000E+00
 -1       309 2.08333E-02 7.81250E-03 0.00000E+00
 -1       310 2.18750E-02 8.20313E-03 0.00000E+00
 -1       311 2.29167E-02 8.59375E-03 0.00000E+00
 -1       312 2.39583E-02 8.98438E-03 0.00000E+00
 -1       313 2.50000E-02 9.37500E-03 0.00000E+00
 -1       314 2.60417E-02 9.76562E-03 0.00000E+00
 -1       315 2.70833E-02 1.01562E-02 0.00000E+00
 -1       316 2.81250E-02 1.05469E-02 0.00000E+00
 -1       317 2.91667E-02 1.09375E-02 0.00000E+00
 -1       318 3.02083E-02 1.13281E-02 0.00000E+00
 -1       319 3.12500E-02 1.17188E-02 0.00000E+00
 -1       320 3.22917E-02 1.21094E-02 0.00000E+00
 -1       321 3.43750E-02 6.25000E-03 0.00000E+00
 -1       322 3.54167E-02 6.25000E-03 0.00000E+00
 -1       323 3.64583E-02 6.25000E-03 0.00000E+00
 -1       324 3.75000E-02 6.25000E-03 0.00000E+00
 -1       325 3.85417E-02 6.25000E-03 0.00000E+00
 -1       326 3.95833E-02 6.25000E-03 0.00000E+00
 -1       327 4.06250E-02 6.25000E-03 0.00000E+00
 -1       328 4.16667E-02 6.25000E-03 0.00000E+00
 -1       329 4.27083E-02 6.25000E-03 0.00000E+00
 -1       330 4.37500E-02 6.25000E-03 0.00000E+00
 -1       331 4.47917E-02 6.25000E-03 0.00000E+00
 -1       332 4.58333E-02 6.25000E-03 0.00000E+00
 -1       333 4.68750E-02 6.25000E-03 0.00000E+00
 -1       334 4.79167E-02 6.25000E-03 0.00000E+00
 -1       335 4.89583E-02 6.25000E-03 0.00000E+00
 -1       336 3.33333E-02 7.29167E-03 0.00000E+00
 -1       337 3.33333E-02 8.33333E-03 0.00000E+00
 -1       338 3.33333E-02 9.37500E-03 0.00000E+00
 -1       339 3.33333E-02 1.04167E-02 0.00000E+00
 -1       340 3.33333E-02 1.14583E-02 0.00000E+00
 -1       341 3.43750E-02 6.64063E-03 0.00000E+00
 -1       342 3.54167E-02 7.03125E-03 0.00000E+00
 -1       343 3.64583E-02 7.42188E-03 0.00000E+00
 -1       344 3.75000E-02 7.81250E-03 0.00000E+00
 -1       345 3.85417E-02 8.20313E-03 0.00000E+00
 -1       346 3.95833E-02 8.59375E-03 0.00000E+00
 -1       347 4.06250E-02 8.98438E-03 0.00000E+00
 -1       348 4.16667E-02 9.37500E-03 0.00000E+00
 -1       349 4.27083E-02 9.76562E-03 0.00000E+00
 -1       350 4.37500E-02 1.01562E-02 0.00000E+00
 -1       351 4.47917E-02 1.05469E-02 0.00000E+00
 -1       352 4.58333E-02 1.09375E-02 0.00000E+00
 -1       353 4.68750E-02 1.13281E-02 0.00000E+00
 -1       354 4.79167E-02 1.17188E-02 0.00000E+00
 -1       355 4.89583E-02 1.21094E-02 0.00000E+00
 -1       356 5.10417E-02 6.25000E-03 0.00000E+00
 -1       357 5.20833E-02 6.25000E-03 0.00000E+00
 -1       358 5.31250E-02 6.25000E-03 0.00000E+00
 -1       359 5.41667E-02 6.25000E-03 0.00000E+00
 -1       360 5.52083E-02 6.25000E-03 0.00000E+00
 -1       361 5.62500E-02 6.25000E-03 0.00000E+00
 -1       362 5.72917E-02 6.25000E-03 0.00000E+00
 -1       363 5.83333E-02 6.25000E-03 0.00000E+00
 -1       364 5.93750E-02 6.25000E-03 0.00000E+00
 -1       365 6.04167E-02 6.25000E-03 0.00000E+00
 -1       366 6.14583E-02 6.25000E-03 0.00000E+00
 -1       367 6.25000E-02 6.25000E-03 0.00000E+00
 -1       368 6.35417E-02 6.25000E-03 0.00000E+00
 -1       369 6.45833E-02 6.25000E-03 0.00000E+00
 -1       370 6.56250E-02 6.25000E-03 0.00000E+00
 -1       371 5.00000E-02 7.29167E-03 0.00000E+00
 -1       372 5.00000E-02 8.33333E-03 0.00000E+00
 -1       373 5.00000E-02 9.37500E-03 0.00000E+00
 -1       374 5.00000E-02 1.04167E-02 0.00000E+00
 -1       375 5.00000E-02 1.14583E-02 0.00000E+00
 -1       376 5.10417E-02 6.64063E-03 0.00000E+00
 -1       377 5.20833E-02 7.03125E-03 0.00000E+00
 -1       378 5.31250E-02 7.42188E-03 0.00000E+00
 -1       379 5.41667E-02 7.81250E-03 0.00000E+00
 -1       380 5.52083E-02 8.20313E-03 0.00000E+00
 -1       381 5.62500E-02 8.59375E-03 0.00000E+00
 -1       382 5.72917E-02 8.98438E-03 0.00000E+00
 -1       383 5.83333E-02 9.37500E-03 0.00000E+00
 -1       384 5.93750E-02 9.76562E-03 0.00000E+00
 -1       385 6.04167E-02 1.01562E-02 0.00000E+00
 -1       386 6.14583E-02 1.05469E-02 0.00000E+00
 -1       387 6.25000E-02 1.09375E-02 0.00000E+00
 -1       388 6.35417E-02 1.13281E-02 0.00000E+00
 -1       389 6.45833E-02 1.17188E-02 0.00000E+00
 -1       390 6.56250E-02 1.21094E-02 0.00000E+00
 -1       406 6.66667E-02 7.29167E-03 0.00000E+00
 -1       407 6.66667E-02 8.33333E-03 0.00000E+00
 -1       408 6.66667E-02 9.37500E-03 0.00000E+00
 -1       409 6.66667E-02 1.04167E-02 0.00000E+00
 -1       410 6.66667E-02 1.14583E-02 0.00000E+00
 -1       466 1.04167E-03 1.25000E-02 0.00000E+00
 -1       467 2.08333E-03 1.25000E-02 0.00000E+00
 -1       468 3.12500E-03 1.25000E-02 0.00000E+00
 -1       469 4.16667E-03 1.25000E-02 0.00000E+00
 -1       470 5.20833E-03 1.25000E-02 0.00000E+00
 -1       471 6.25000E-03 1.25000E-02 0.00000E+00
 -1       472 7.29167E-03 1.25000E-02 0.00000E+00
 -1       473 8.33333E-03 1.25000E-02 0.00000E+00
 -1       474 9.37500E-03 1.25000E-02 0.00000E+00
 -1       475 1.04167E-02 1.25000E-02 0.00000E+00
 -1       476 1.14583E-02 1.25000E-02 0.00000E+00
 -1       477 1.25000E-02 1.25000E-02 0.00000E+00
 -1       478 1.35417E-02 1.25000E-02 0.00000E+00
 -1       479 1.45833E-02 1.25000E-02 0.00000E+00
 -1       480 1.56250E-02 1.25000E-02 0.00000E+00
 -1       481 0.00000E+00 1.35417E-02 0.00000E+00
 -1       482 0.00000E+00 1.45833E-02 0.00000E+00
 -1       483 0.00000E+00 1.56250E-02 0.00000E+00
 -1       484 0.00000E+00 1.66667E-02 0.00000E+00
 -1       485 0.00000E+00 1.77083E-02 0.00000E+00
 -1       486 1.04167E-03 1.28906E-02 0.00000E+00
 -1       487 2.08333E-03 1.32813E-02 0.00000E+00
 -1       488 3.12500E-03 1.36719E-02 0.00000E+00
 -1       489 4.16667E-03 1.40625E-02 0.00000E+00
 -1       490 5.20833E-03 1.44531E-02 0.00000E+00
 -1       491 6.25000E-03 1.48437E-02 0.00000E+00
 -1       492 7.29167E-03 1.52344E-02 0.00000E+00
 -1       493 8.33333E-03 1.56250E-02 0.00000E+00
 -1       494 9.37500E-03 1.60156E-02 0.00000E+00
 -1       495 1.04167E-02 1.64062E-02 0.00000E+00
 -1       496 1.14583E-02 1.67969E-02 0.00000E+00
 -1       497 1.25000E-02 1.71875E-02 0.00000E+00
 -1       498 1.35417E-02 1.75781E-02 0.00000E+00
 -1       499 1.45833E-02 1.79687E-02 0.00000E+00
 -1       500 1.56250E-02 1.83594E-02 0.00000E+00
 -1       501 1.77083E-02 1.25000E-02 0.00000E+00
 -1       502 1.87500E-02 1.25000E-02 0.00000E+00
 -1       503 1.97917E-02 1.25000E-02 0.00000E+00
 -1       504 2.08333E-02 1.25000E-02 0.00000E+00
 -1       505 2.18750E-02 1.25000E-02 0.00000E+00
 -1       506 2.29167E-02 1.25000E-02 0.00000E+00
 -1       507 2.39583E-02 1.25000E-02 0.00000E+00
 -1       508 2.50000E-02 1.25000E-02 0.00000E+00
 -1       509 2.60417E-02 1.25000E-02 0.00000E+00
 -1       510 2.70833E-02 1.25000E-02 0.00000E+00
 -1       511 2.81250E-02 1.25000E-02 0.00000E+00
 -1       512 2.91667E-02 1.25000E-02 0.00000E+00
 -1       513 3.02083E-02 1.25000E-02 0.00000E+00
 -1       514 3.12500E-02 1.25000E-02 0.00000E+00
 -1       515 3.22917E-02 1.25000E-02 0.00000E+00
 -1       516 1.66667E-02 1.35417E-02 0.00000E+00
 -1       517 1.66667E-02 1.45833E-02 0.00000E+00
 -1       518 1.66667E-02 1.56250E-02 0.00000E+00
 -1       519 1.66667E-02 1.66667E-02 0.00000E+00
 -1       520 1.66667E-02 1.77083E-02 0.00000E+00
 -1       521 1.77083E-02 1.28906E-02 0.00000E+00
 -1       522 1.87500E-02 1.32813E-02 0.00000E+00
 -1       523 1.97917E-02 1.36719E-02 0.00000E+00
 -1       524 2.08333E-02 1.40625E-02 0.00000E+00
 -1       525 2.18750E-02 1.44531E-02 0.00000E+00
 -1       526 2.29167E-02 1.48437E-02 0.00000E+00
 -1       527 2.39583E-02 1.52344E-02 0.00000E+00
 -1       528 2.50000E-02 1.56250E-02 0.00000E+00
 -1       529 2.60417E-02 1.60156E-02 0.00000E+00
 -1       530 2.70833E-02 1.64062E-02 0.00000E+00
 -1       531 2.81250E-02 1.67969E-02 0.00000E+00
 -1       532 2.91667E-02 1.71875E-02 0.00000E+00
 -1       533 3.02083E-02 1.75781E-02 0.00000E+00
 -1       534 3.12500E-02 1.79687E-02 0.00000E+00
 -1       535 3.22917E-02 1.83594E-02 0.00000E+00
 -1       536 3.43750E-02 1.25000E-02 0.00000E+00
 -1       537 3.54167E-02 1.25000E-02 0.00000E+00
 -1       538 3.64583E-02 1.25000E-02 0.00000E+00
 -1       539 3.75000E-02 1.25000E-02 0.00000E+00
 -1       540 3.85417E-02 1.25000E-02 0.00000E+00
 -1       541 3.95833E-02 1.25000E-02 0.00000E+00
 -1       542 4.06250E-02 1.25000E-02 0.00000E+00
 -1       543 4.16667E-02 1.25000E-02 0.00000E+00
 -1       544 4.27083E-02 1.25000E-02 0.00000E+00
 -1       545 4.37500E-02 1.25000E-02 0.00000E+00
 -1       546 4.47917E-02 1.25000E-02 0.00000E+00
 -1       547 4.58333E-02 1.25000E-02 0.00000E+00
 -1       548 4.68750E-02 1.25000E-02 0.00000E+00
 -1       549 4.79167E-02 1.25000E-02 0.00000E+00
 -1       550 4.89583E-02 1.25000E-02 0.00000E+00
 -1       551 3.33333E-02 1.35417E-02 0.00000E+00
 -1       552 3.33333E-02 1.45833E-02 0.00000E+00
 -1       553 3.33333E-02 1.56250E-02 0.00000E+00
 -1       554 3.33333E-02 1.66667E-02 0.00000E+00
 -1       555 3.33333E-02 1.77083E-02 0.00000E+00
 -1       556 3.43750E-02 1.28906E-02 0.00000E+00
 -1       557 3.54167E-02 1.32813E-02 0.00000E+00
 -1       558 3.64583E-02 1.36719E-02 0.00000E+00
 -1       559 3.75000E-02 1.40625E-02 0.00000E+00
 -1       560 3.85417E-02 1.44531E-02 0.00000E+00
 -1       561 3.95833E-02 1.48437E-02 0.00000E+00
 -1       562 4.06250E-02 1.52344E-02 0.00000E+00
 -1       563 4.16667E-02 1.56250E-02 0.00000E+00
 -1       564 4.27083E-02 1.60156E-02 0.00000E+00
 -1       565 4.37500E-02 1.64062E-02 0.00000E+00
 -1       566 4.47917E-02 1.67969E-02 0.00000E+00
 -1       567 4.58333E-02 1.71875E-02 0.00000E+00
 -1       568 4.68750E-02 1.75781E-02 0.00000E+00
 -1       569 4.79167E-02 1.79687E-02 0.00000E+00
 -1       570 4.89583E-02 1.83594E-02 0.00000E+00
 -1       571 5.10417E-02 1.25000E-02 0.00000E+00
 -1       572 5.20833E-02 1.25000E-02 0.00000E+00
 -1       573 5.31250E-02 1.25000E-02 0.00000E+00
 -1       574 5.41667E-02 1.25000E-02 0.00000E+00
 -1       575 5.52083E-02 1.25000E-02 0.00000E+00
 -1       576 5.62500E-02 1.25000E-02 0.00000E+00
 -1       577 5.72917E-02 1.25000E-02 0.00000E+00
 -1       578 5.83333E-02 1.25000E-02 0.00000E+00
 -1       579 5.93750E-02 1.25000E-02 0.00000E+00
 -1       580 6.04167E-02 1.25000E-02 0.00000E+00
 -1       581 6.14583E-02 1.25000E-02 0.00000E+00
 -1       582 6.25000E-02 1.25000E-02 0.00000E+00
 -1       583 6.35417E-02 1.25000E-02 0.00000E+00
 -1       584 6.45833E-02 1.25000E-02 0.00000E+00
 -1       585 6.56250E-02 1.25000E-02 0.00000E+00
 -1       586 5.00000E-02 1.35417E-02 0.00000E+00
 -1       587 5.00000E-02 1.45833E-02 0.00000E+00
 -1       588 5.00000E-02 1.56250E-02 0.00000E+00
 -1       589 5.00000E-02 1.66667E-02 0.00000E+00
 -1       590 5.00000E-02 1.77083E-02 0.00000E+00
 -1       591 5.10417E-02 1.28906E-02 0.00000E+00
 -1       592 5.20833E-02 1.32813E-02 0.00000E+00
 -1       593 5.31250E-02 1.36719E-02 0.00000E+00
 -1       594 5.41667E-02 1.40625E-02 0.00000E+00
 -1       595 5.52083E-02 1.44531E-02 0.00000E+00
 -1       596 5.62500E-02 1.48437E-02 0.00000E+00
 -1       597 5.72917E-02 1.52344E-02 0.00000E+00
 -1       598 5.83333E-02 1.56250E-02 0.00000E+00
 -1       599 5.93750E-02 1.60156E-02 0.00000E+00
 -1       600 6.04167E-02 1.64062E-02 0.00000E+00
 -1       601 6.14583E-02 1.67969E-02 0.00000E+00
 -1       602 6.25000E-02 1.71875E-02 0.00000E+00
 -1       603 6.35417E-02 1.75781E-02 0.00000E+00
 -1       604 6.45833E-02 1.79687E-02 0.00000E+00
 -1       605 6.56250E-02 1.83594E-02 0.00000E+00
 -1       606 6.77083E-02 1.25000E-02 0.00000E+00
 -1       607 6.87500E-02 1.25000E-02 0.00000E+00
 -1       608 6.97917E-02 1.25000E-02 0.00000E+00
 -1       609 7.08333E-02 1.25000E-02 0.00000E+00
 -1       610 7.18750E-02 1.25000E-02 0.00000E+00
 -1       611 7.29167E-02 1.25000E-02 0.00000E+00
 -1       612 7.39583E-02 1.25000E-02 0.00000E+00
 -1       613 7.50000E-02 1.25000E-02 0.00000E+00
 -1       614 7.60417E-02 1.25000E-02 0.00000E+00
 -1       615 7.70833E-02 1.25000E-02 0.00000E+00
 -1       616 7.81250E-02 1.25000E-02 0.00000E+00
 -1       617 7.91667E-02 1.25000E-02 0.00000E+00
 -1       618 8.02083E-02 1.25000E-02 0.00000E+00
 -1       619 8.12500E-02 1.25000E-02 0.00000E+00
 -1       620 8.22917E-02 1.25000E-02 0.00000E+00
 -1       621 6.66667E-02 1.35417E-02 0.00000E+00
 -1       622 6.66667E-02 1.45833E-02 0.00000E+00
 -1       623 6.66667E-02 1.56250E-02 0.00000E+00
 -1       624 6.66667E-02 1.66667E-02 0.00000E+00
 -1       625 6.66667E-02 1.77083E-02 0.00000E+00
 -1       626 6.77083E-02 1.28906E-02 0.00000E+00
 -1       627 6.87500E-02 1.32813E-02 0.00000E+00
 -1       628 6.97917E-02 1.36719E-02 0.00000E+00
 -1       629 7.08333E-02 1.40625E-02 0.00000E+00
 -1       630 7.18750E-02 1.44531E-02 0.00000E+00
 -1       631 7.29167E-02 1.48437E-02 0.00000E+00
 -1       632 7.39583E-02 1.52344E-02 0.00000E+00
 -1       633 7.50000E-02 1.56250E-02 0.00000E+00
 -1       634 7.60417E-02 1.60156E-02 0.00000E+00
 -1       635 7.70833E-02 1.64062E-02 0.00000E+00
 -1       636 7.81250E-02 1.67969E-02 0.00000E+00
 -1       637 7.91667E-02 1.71875E-02 0.00000E+00
 -1       638 8.02083E-02 1.75781E-02 0.00000E+00
 -1       639 8.12500E-02 1.79687E-02 0.00000E+00
 -1       640 8.22917E-02 1.83594E-02 0.00000E+00
 -1       641 8.43750E-02 1.25000E-02 0.00000E+00
 -1       642 8.54167E-02 1.25000E-02 0.00000E+00
 -1       643 8.64583E-02 1.25000E-02 0.00000E+00
 -1       644 8.75000E-02 1.25000E-02 0.00000E+00
 -1       645 8.85417E-02 1.25000E-02 0.00000E+00
 -1       646 8.95833E-02 1.25000E-02 0.00000E+00
 -1       647 9.06250E-02 1.25000E-02 0.00000E+00
 -1       648 9.16667E-02 1.25000E-02 0.00000E+00
 -1       649 9.27083E-02 1.25000E-02 0.00000E+00
 -1       650 9.37500E-02 1.25000E-02 0.00000E+00
 -1       651 9.47917E-02 1.25000E-02 0.00000E+00
 -1       652 9.58333E-02 1.25000E-02 0.00000E+00
 -1       653 9.68750E-02 1.25000E-02 0.00000E+00
 -1       654 9.79167E-02 1.25000E-02 0.00000E+00
 -1       655 9.89583E-02 1.25000E-02 0.00000E+00
 -1       656 8.33333E-02 1.35417E-02 0.00000E+00
 -1       657 8.33333E-02 1.45833E-02 0.00000E+00
 -1       658 8.33333E-02 1.56250E-02 0.00000E+00
 -1       659 8.33333E-02 1.66667E-02 0.00000E+00
 -1       660 8.33333E-02 1.77083E-02 0.00000E+00
 -1       661 8.43750E-02 1.28906E-02 0.00000E+00
 -1       662 8.54167E-02 1.32813E-02 0.00000E+00
 -1       663 8.64583E-02 1.36719E-02 0.00000E+00
 -1       664 8.75000E-02 1.40625E-02 0.00000E+00
 -1       665 8.85417E-02 1.44531E-02 0.00000E+00
 -1       666 8.95833E-02 1.48437E-02 0.00000E+00
 -1       667 9.06250E-02 1.52344E-02 0.00000E+00
 -1       668 9.16667E-02 1.56250E-02 0.00000E+00
 -1       669 9.27083E-02 1.60156E-02 0.00000E+00
 -1       670 9.37500E-02 1.64062E-02 0.00000E+00
 -1       671 9.47917E-02 1.67969E-02 0.00000E+00
 -1       672 9.58333E-02 1.71875E-02 0.00000E+00
 -1       673 9.68750E-02 1.75781E-02 0.00000E+00
 -1       674 9.79167E-02 1.79687E-02 0.00000E+00
 -1       675 9.89583E-02 1.83594E-02 0.00000E+00
 -1       676 1.00000E-01 1.35417E-02 0.00000E+00
 -1       677 1.00000E-01 1.45833E-02 0.00000E+00
 -1       678 1.00000E-01 1.56250E-02 0.00000E+00
 -1       679 1.00000E-01 1.66667E-02 0.00000E+00
 -1       680 1.00000E-01 1.77083E-02 0.00000E+00
 -1       681 1.04167E-03 1.87500E-02 0.00000E+00
 -1       682 2.08333E-03 1.87500E-02 0.00000E+00
 -1       683 3.12500E-03 1.87500E-02 0.00000E+00
 -1       684 4.16667E-03 1.87500E-02 0.00000E+00
 -1       685 5.20833E-03 1.87500E-02 0.00000E+00
 -1       686 6.25000E-03 1.87500E-02 0.00000E+00
 -1       687 7.29167E-03 1.87500E-02 0.00000E+00
 -1       688 8.33333E-03 1.87500E-02 0.00000E+00
 -1       689 9.37500E-03 1.87500E-02 0.00000E+00
 -1       690 1.04167E-02 1.87500E-02 0.00000E+00
 -1       691 1.14583E-02 1.87500E-02 0.00000E+00
 -1       692 1.25000E-02 1.87500E-02 0.00000E+00
 -1       693 1.35417E-02 1.87500E-02 0.00000E+00
 -1       694 1.45833E-02 1.87500E-02 0.00000E+00
 -1       695 1.56250E-02 1.87500E-02 0.00000E+00
 -1       696 0.00000E+00 1.97917E-02 0.00000E+00
 -1       697 0.00000E+00 2.08333E-02 0.00000E+00
 -1       698 0.00000E+00 2.18750E-02 0.00000E+00
 -1       699 0.00000E+00 2.29167E-02 0.00000E+00
 -1       700 0.00000E+00 2.39583E-02 0.00000E+00
 -1       701 1.04167E-03 1.91406E-02 0.00000E+00
 -1       702 2.08333E-03 1.95312E-02 0.00000E+00
 -1       703 3.12500E-03 1.99219E-02 0.00000E+00
 -1       704 4.16667E-03 2.03125E-02 0.00000E+00
 -1       705 5.20833E-03 2.07031E-02 0.00000E+00
 -1       706 6.25000E-03 2.10938E-02 0.00000E+00
 -1       707 7.29167E-03 2.14844E-02 0.00000E+00
 -1       708 8.33333E-03 2.18750E-02 0.00000E+00
 -1       709 9.37500E-03 2.22656E-02 0.00000E+00
 -1       710 1.04167E-02 2.26563E-02 0.00000E+00
 -1       711 1.14583E-02 2.30469E-02 0.00000E+00
 -1       712 1.25000E-02 2.34375E-02 0.00000E+00
 -1       713 1.35417E-02 2.38281E-02 0.00000E+00
 -1       714 1.45833E-02 2.42187E-02 0.00000E+00
 -1       715 1.56250E-02 2.46094E-02 0.00000E+00
 -1       716 1.77083E-02 1.87500E-02 0.00000E+00
 -1       717 1.87500E-02 1.87500E-02 0.00000E+00
 -1       718 1.97917E-02 1.87500E-02 0.00000E+00
 -1       719 2.08333E-02 1.87500E-02 0.00000E+00
 -1       720 2.18750E-02 1.87500E-02 0.00000E+00
 -1       721 2.29167E-02 1.87500E-02 0.00000E+00
 -1       722 2.39583E-02 1.87500E-02 0.00000E+00
 -1       723 2.50000E-02 1.87500E-02 0.00000E+00
 -1       724 2.60417E-02 1.87500E-02 0.00000E+00
 -1       725 2.70833E-02 1.87500E-02 0.00000E+00
 -1       726 2.81250E-02 1.87500E-02 0.00000E+00
 -1       727 2.91667E-02 1.87500E-02 0.00000E+00
 -1       728 3.02083E-02 1.87500E-02 0.00000E+00
 -1       729 3.12500E-02 1.87500E-02 0.00000E+00
 -1       730 3.22917E-02 1.87500E-02 0.00000E+00
 -1       731 1.66667E-02 1.97917E-02 0.00000E+00
 -1       732 1.66667E-02 2.08333E-02 0.00000E+00
 -1       733 1.66667E-02 2.18750E-02 0.00000E+00
 -1       734 1.66667E-02 2.29167E-02 0.00000E+00
 -1       735 1.66667E-02 2.39583E-02 0.00000E+00
 -1       736 1.77083E-02 1.91406E-02 0.00000E+00
 -1       737 1.87500E-02 1.95312E-02 0.00000E+00
 -1       738 1.97917E-02 1.99219E-02 0.00000E+00
 -1       739 2.08333E-02 2.03125E-02 0.00000E+00
 -1       740 2.18750E-02 2.07031E-02 0.00000E+00
 -1       741 2.29167E-02 2.10938E-02 0.00000E+00
 -1       742 2.39583E-02 2.14844E-02 0.00000E+00
 -1       743 2.50000E-02 2.18750E-02 0.00000E+00
 -1       744 2.60417E-02 2.22656E-02 0.00000E+00
 -1       745 2.70833E-02 2.26563E-02 0.00000E+00
 -1       746 2.81250E-02 2.30469E-02 0.00000E+00
 -1       747 2.91667E-02 2.34375E-02 0.00000E+00
 -1       748 3.02083E-02 2.38281E-02 0.00000E+00
 -1       749 3.12500E-02 2.42187E-02 0.00000E+00
 -1       750 3.22917E-02 2.46094E-02 0.00000E+00
 -1       751 3.43750E-02 1.87500E-02 0.00000E+00
 -1       752 3.54167E-02 1.87500E-02 0.00000E+00
 -1       753 3.64583E-02 1.87500E-02 0.00000E+00
 -1       754 3.75000E-02 1.87500E-02 0.00000E+00
 -1       755 3.85417E-02 1.87500E-02 0.00000E+00
 -1       756 3.95833E-02 1.87500E-02 0.00000E+00
 -1       757 4.06250E-02 1.87500E-02 0.00000E+00
 -1       758 4.16667E-02 1.87500E-02 0.00000E+00
 -1       759 4.27083E-02 1.87500E-02 0.00000E+00
 -1       760 4.37500E-02 1.87500E-02 0.00000E+00
 -1       761 4.47917E-02 1.87500E-02 0.00000E+00
 -1       762 4.58333E-02 1.87500E-02 0.00000E+00
 -1       763 4.68750E-02 1.87500E-02 0.00000E+00
 -1       764 4.79167E-02 1.87500E-02 0.00000E+00
 -1       765 4.89583E-02 1.87500E-02 0.00000E+00
 -1       766 3.33333E-02 1.97917E-02 0.00000E+00
 -1       767 3.33333E-02 2.08333E-02 0.00000E+00
 -1       768 3.33333E-02 2.18750E-02 0.00000E+00
 -1       769 3.33333E-02 2.29167E-02 0.00000E+00
 -1       770 3.33333E-02 2.39583E-02 0.00000E+00
 -1       771 3.43750E-02 1.91406E-02 0.00000E+00
 -1       772 3.54167E-02 1.95312E-02 0.00000E+00
 -1       773 3.64583E-02 1.99219E-02 0.00000E+00
 -1       774 3.75000E-02 2.03125E-02 0.00000E+00
 -1       775 3.85417E-02 2.07031E-02 0.00000E+00
 -1       776 3.95833E-02 2.10938E-02 0.00000E+00
 -1       777 4.06250E-02 2.14844E-02 0.00000E+00
 -1       778 4.16667E-02 2.18750E-02 0.00000E+00
 -1       779 4.27083E-02 2.22656E-02 0.00000E+00
 -1       780 4.37500E-02 2.26563E-02 0.00000E+00
 -1       781 4.47917E-02 2.30469E-02 0.00000E+00
 -1       782 4.58333E-02 2.34375E-02 0.00000E+00
 -1       783 4.68750E-02 2.38281E-02 0.00000E+00
 -1       784 4.79167E-02 2.42187E-02 0.00000E+00
 -1       785 4.89583E-02 2.46094E-02 0.00000E+00
 -1       786 5.10417E-02 1.87500E-02 0.00000E+00
 -1       787 5.20833E-02 1.87500E-02 0.00000E+00
 -1       788 5.31250E-02 1.87500E-02 0.00000E+00
 -1       789 5.41667E-02 1.87500E-02 0.00000E+00
 -1       790 5.52083E-02 1.87500E-02 0.00000E+00
 -1       791 5.62500E-02 1.87500E-02 0.00000E+00
 -1       792 5.72917E-02 1.87500E-02 0.00000E+00
 -1       793 5.83333E-02 1.87500E-02 0.00000E+00
 -1       794 5.93750E-02 1.87500E-02 0.00000E+00
 -1       795 6.04167E-02 1.87500E-02 0.00000E+00
 -1       796 6.14583E-02 1.87500E-02 0.00000E+00
 -1       797 6.25000E-02 1.87500E-02 0.00000E+00
 -1       798 6.35417E-02 1.87500E-02 0.00000E+00
 -1       799 6.45833E-02 1.87500E-02 0.00000E+00
 -1       800 6.56250E-02 1.87500E-02 0.00000E+00
 -1       801 5.00000E-02 1.97917E-02 0.00000E+00
 -1       802 5.00000E-02 2.08333E-02 0.00000E+00
 -1       803 5.00000E-02 2.18750E-02 0.00000E+00
 -1       804 5.00000E-02 2.29167E-02 0.00000E+00
 -1       805 5.00000E-02 2.39583E-02 0.00000E+00
 -1       806 5.10417E-02 1.91406E-02 0.00000E+00
 -1       807 5.20833E-02 1.95312E-02 0.00000E+00
 -1       808 5.31250E-02 1.99219E-02 0.00000E+00
 -1       809 5.41667E-02 2.03125E-02 0.00000E+00
 -1       810 5.52083E-02 2.07031E-02 0.00000E+00
 -1       811 5.62500E-02 2.10938E-02 0.00000E+00
 -1       812 5.72917E-02 2.14844E-02 0.00000E+00
 -1       813 5.83333E-02 2.18750E-02 0.00000E+00
 -1       814 5.93750E-02 2.22656E-02 0.00000E+00
 -1       815 6.04167E-02 2.26563E-02 0.00000E+00
 -1       816 6.14583E-02 2.30469E-02 0.00000E+00
 -1       817 6.25000E-02 2.34375E-02 0.00000E+00
 -1       818 6.35417E-02 2.38281E-02 0.00000E+00
 -1       819 6.45833E-02 2.42187E-02 0.00000E+00
 -1       820 6.56250E-02 2.46094E-02 0.00000E+00
 -1       821 6.77083E-02 1.87500E-02 0.00000E+00
 -1       822 6.87500E-02 1.87500E-02 0.00000E+00
 -1       823 6.97917E-02 1.87500E-02 0.00000E+00
 -1       824 7.08333E-02 1.87500E-02 0.00000E+00
 -1       825 7.18750E-02 1.87500E-02 0.00000E+00
 -1       826 7.29167E-02 1.87500E-02 0.00000E+00
 -1       827 7.39583E-02 1.87500E-02 0.00000E+00
 -1       828 7.50000E-02 1.87500E-02 0.00000E+00
 -1       829 7.60417E-02 1.87500E-02 0.00000E+00
 -1       830 7.70833E-02 1.87500E-02 0.00000E+00
 -1       831 7.81250E-02 1.87500E-02 0.00000E+00
 -1       832 7.91667E-02 1.87500E-02 0.00000E+00
 -1       833 8.02083E-02 1.87500E-02 0.00000E+00
 -1       834 8.12500E-02 1.87500E-02 0.00000E+00
 -1       835 8.22917E-02 1.87500E-02 0.00000E+00
 -1       836 6.66667E-02 1.97917E-02 0.00000E+00
 -1       837 6.66667E-02 2.08333E-02 0.00000E+00
 -1       838 6.66667E-02 2.18750E-02 0.00000E+00
 -1       839 6.66667E-02 2.29167E-02 0.00000E+00
 -1       840 6.66667E-02 2.39583E-02 0.00000E+00
 -1       841 6.77083E-02 1.91406E-02 0.00000E+00
 -1       842 6.87500E-02 1.95312E-02 0.00000E+00
 -1       843 6.97917E-02 1.99219E-02 0.00000E+00
 -1       844 7.08333E-02 2.03125E-02 0.00000E+00
 -1       845 7.18750E-02 2.07031E-02 0.00000E+00
 -1       846 7.29167E-02 2.10938E-02 0.00000E+00
 -1       847 7.39583E-02 2.14844E-02 0.00000E+00
 -1       848 7.50000E-02 2.18750E-02 0.00000E+00
 -1       849 7.60417E-02 2.22656E-02 0.00000E+00
 -1       850 7.70833E-02 2.26563E-02 0.00000E+00
 -1       851 7.81250E-02 2.30469E-02 0.00000E+00
 -1       852 7.91667E-02 2.34375E-02 0.00000E+00
 -1       853 8.02083E-02 2.38281E-02 0.00000E+00
 -1       854 8.12500E-02 2.42187E-02 0.00000E+00
 -1       855 8.22917E-02 2.46094E-02 0.00000E+00
 -1       856 8.43750E-02 1.87500E-02 0.00000E+00
 -1       857 8.54167E-02 1.87500E-02 0.00000E+00
 -1       858 8.64583E-02 1.87500E-02 0.00000E+00
 -1       859 8.75000E-02 1.87500E-02 0.00000E+00
 -1       860 8.85417E-02 1.87500E-02 0.00000E+00
 -1       861 8.95833E-02 1.87500E-02 0.00000E+00
 -1       862 9.06250E-02 1.87500E-02 0.00000E+00
 -1       863 9.16667E-02 1.87500E-02 0.00000E+00
 -1       864 9.27083E-02 1.87500E-02 0.00000E+00
 -1       865 9.37500E-02 1.87500E-02 0.00000E+00
 -1       866 9.47917E-02 1.87500E-02 0.00000E+00
 -1       867 9.58333E-02 1.87500E-02 0.00000E+00
 -1       868 9.68750E-02 1.87500E-02 0.00000E+00
 -1       869 9.79167E-02 1.87500E-02 0.00000E+00
 -1       870 9.89583E-02 1.87500E-02 0.00000E+00
 -1       871 8.33333E-02 1.97917E-02 0.00000E+00
 -1       872 8.33333E-02 2.08333E-02 0.00000E+00
 -1       873 8.33333E-02 2.18750E-02 0.00000E+00
 -1       874 8.33333E-02 2.29167E-02 0.00000E+00
 -1       875 8.33333E-02 2.39583E-02 0.00000E+00
 -1       876 8.43750E-02 1.91406E-02 0.00000E+00
 -1       877 8.54167E-02 1.95312E-02 0.00000E+00
 -1       878 8.64583E-02 1.99219E-02 0.00000E+00
 -1       879 8.75000E-02 2.03125E-02 0.00000E+00
 -1       880 8.85417E-02 2.07031E-02 0.00000E+00
 -1       881 8.95833E-02 2.10938E-02 0.00000E+00
 -1       882 9.06250E-02 2.14844E-02 0.00000E+00
 -1       883 9.16667E-02 2.18750E-02 0.00000E+00
 -1       884 9.27083E-02 2.22656E-02 0.00000E+00
 -1       885 9.37500E-02 2.26563E-02 0.00000E+00
 -1       886 9.47917E-02 2.30469E-02 0.00000E+00
 -1       887 9.58333E-02 2.34375E-02 0.00000E+00
 -1       888 9.68750E-02 2.38281E-02 0.00000E+00
 -1       889 9.79167E-02 2.42187E-02 0.00000E+00
 -1       890 9.89583E-02 2.46094E-02 0.00000E+00
 -1       891 1.00000E-01 1.97917E-02 0.00000E+00
 -1       892 1.00000E-01 2.08333E-02 0.00000E+00
 -1       893 1.00000E-01 2.18750E-02 0.00000E+00
 -1       894 1.00000E-01 2.29167E-02 0.00000E+00
 -1       895 1.00000E-01 2.39583E-02 0.00000E+00
 -1       896 1.04167E-03 2.50000E-02 0.00000E+00
 -1       897 2.08333E-03 2.50000E-02 0.00000E+00
 -1       898 3.12500E-03 2.50000E-02 0.00000E+00
 -1       899 4.16667E-03 2.50000E-02 0.00000E+00
 -1       900 5.20833E-03 2.50000E-02 0.00000E+00
 -1       901 6.25000E-03 2.50000E-02 0.00000E+00
 -1       902 7.29167E-03 2.50000E-02 0.00000E+00
 -1       903 8.33333E-03 2.50000E-02 0.00000E+00
 -1       904 9.37500E-03 2.50000E-02 0.00000E+00
 -1       905 1.04167E-02 2.50000E-02 0.00000E+00
 -1       906 1.14583E-02 2.50000E-02 0.00000E+00
 -1       907 1.25000E-02 2.50000E-02 0.00000E+00
 -1       908 1.35417E-02 2.50000E-02 0.00000E+00
 -1       909 1.45833E-02 2.50000E-02 0.00000E+00
 -1       910 1.56250E-02 2.50000E-02 0.00000E+00
 -1       911 1.77083E-02 2.50000E-02 0.00000E+00
 -1       912 1.87500E-02 2.50000E-02 0.00000E+00
 -1       913 1.97917E-02 2.50000E-02 0.00000E+00
 -1       914 2.08333E-02 2.50000E-02 0.00000E+00
 -1       915 2.18750E-02 2.50000E-02 0.00000E+00
 -1       916 2.29167E-02 2.50000E-02 0.00000E+00
 -1       917 2.39583E-02 2.50000E-02 0.00000E+00
 -1       918 2.50000E-02 2.50000E-02 0.00000E+00
 -1       919 2.60417E-02 2.50000E-02 0.00000E+00
 -1       920 2.70833E-02 2.50000E-02 0.00000E+00
 -1       921 2.81250E-02 2.50000E-02 0.00000E+00
 -1       922 2.91667E-02 2.50000E-02 0.00000E+00
 -1       923 3.02083E-02 2.50000E-02 0.00000E+00
 -1       924 3.12500E-02 2.50000E-02 0.00000E+00
 -1       925 3.22917E-02 2.50000E-02 0.00000E+00
 -1       926 3.43750E-02 2.50000E-02 0.00000E+00
 -1       927 3.54167E-02 2.50000E-02 0.00000E+00
 -1       928 3.64583E-02 2.50000E-02 0.00000E+00
 -1       929 3.75000E-02 2.50000E-02 0.00000E+00
 -1       930 3.85417E-02 2.50000E-02 0.00000E+00
 -1       931 3.95833E-02 2.50000E-02 0.00000E+00
 -1       932 4.06250E-02 2.50000E-02 0.00000E+00
 -1       933 4.16667E-02 2.50000E-02 0.00000E+00
 -1       934 4.27083E-02 2.50000E-02 0.00000E+00
 -1       935 4.37500E-02 2.50000E-02 0.00000E+00
 -1       936 4.47917E-02 2.50000E-02 0.00000E+00
 -1       937 4.58333E-02 2.50000E-02 0.00000E+00
 -1       938 4.68750E-02 2.50000E-02 0.00000E+00
 -1       939 4.79167E-02 2.50000E-02 0.00000E+00
 -1       940 4.89583E-02 2.50000E-02 0.00000E+00
 -1       941 5.10417E-02 2.50000E-02 0.00000E+00
 -1       942 5.20833E-02 2.50000E-02 0.00000E+00
 -1       943 5.31250E-02 2.50000E-02 0.00000E+00
 -1       944 5.41667E-02 2.50000E-02 0.00000E+00
 -1       945 5.52083E-02 2.50000E-02 0.00000E+00
 -1       946 5.62500E-02 2.50000E-02 0.00000E+00
 -1       947 5.72917E-02 2.50000E-02 0.00000E+00
 -1       948 5.83333E-02 2.50000E-02 0.00000E+00
 -1       949 5.93750E-02 2.50000E-02 0.00000E+00
 -1       950 6.04167E-02 2.50000E-02 0.00000E+00
 -1       951 6.14583E-02 2.50000E-02 0.00000E+00
 -1       952 6.25000E-02 2.50000E-02 0.00000E+00
 -1       953 6.35417E-02 2.50000E-02 0.00000E+00
 -1       954 6.45833E-02 2.50000E-02 0.00000E+00
 -1       955 6.56250E-02 2.50000E-02 0.00000E+00
 -1       956 6.77083E-02 2.50000E-02 0.00000E+00
 -1       957 6.87500E-02 2.50000E-02 0.00000E+00
 -1       958 6.97917E-02 2.50000E-02 0.00000E+00
 -1       959 7.08333E-02 2.50000E-02 0.00000E+00
 -1       960 7.18750E-02 2.50000E-02 0.00000E+00
 -1       961 7.29167E-02 2.50000E-02 0.00000E+00
 -1       962 7.39583E-02 2.50000E-02 0.00000E+00
 -1       963 7.50000E-02 2.50000E-02 0.00000E+00
 -1       964 7.60417E-02 2.50000E-02 0.00000E+00
 -1       965 7.70833E-02 2.50000E-02 0.00000E+00
 -1       966 7.81250E-02 2.50000E-02 0.00000E+00
 -1       967 7.91667E-02 2.50000E-02 0.00000E+00
 -1       968 8.02083E-02 2.50000E-02 0.00000E+00
 -1       969 8.12500E-02 2.50000E-02 0.00000E+00
 -1       970 8.22917E-02 2.50000E-02 0.00000E+00
 -1       971 8.43750E-02 2.50000E-02 0.00000E+00
 -1       972 8.54167E-02 2.50000E-02 0.00000E+00
 -1       973 8.64583E-02 2.50000E-02 0.00000E+00
 -1       974 8.75000E-02 2.50000E-02 0.00000E+00
 -1       975 8.85417E-02 2.50000E-02 0.00000E+00
 -1       976 8.95833E-02 2.50000E-02 0.00000E+00
 -1       977 9.06250E-02 2.50000E-02 0.00000E+00
 -1       978 9.16667E-02 2.50000E-02 0.00000E+00
 -1       979 9.27083E-02 2.50000E-02 0.00000E+00
 -1       980 9.37500E-02 2.50000E-02 0.00000E+00
 -1       981 9.47917E-02 2.50000E-02 0.00000E+00
 -1       982 9.58333E-02 2.50000E-02 0.00000E+00
 -1       983 9.68750E-02 2.50000E-02 0.00000E+00
 -1       984 9.79167E-02 2.50000E-02 0.00000E+00
 -1       985 9.89583E-02 2.50000E-02 0.00000E+00
 -3
    3C                           440                                     1
 -1         1   12    0    1
 -2         1        37        36
 -1         2   12    0    1
 -2        37        39        38
 -1         3   12    0    1
 -2        39        41        40
 -1         4   12    0    1
 -2        41        43        42
 -1         5   12    0    1
 -2        43        45        44
 -1         6   12    0    1
 -2        45        47        46
 -1         7   12    0    1
 -2        47        49        48
 -1         8   12    0    1
 -2        49         2        50
 -1         9   12    0    1
 -2         1        52        51
 -1        10   12    0    1
 -2        52        54        53
 -1        11   12    0    1
 -2        54         8        55
 -1        12   12    0    1
 -2         1        57        56
 -1        13   12    0    1
 -2        57        59        58
 -1        14   12    0    1
 -2        59        61        60
 -1        15   12    0    1
 -2        61        63        62
 -1        16   12    0    1
 -2        63        65        64
 -1        17   12    0    1
 -2        65        67        66
 -1        18   12    0    1
 -2        67        69        68
 -1        19   12    0    1
 -2        69         9        70
 -1        20   12    0    1
 -2         2        72        71
 -1        21   12    0    1
 -2        72        74        73
 -1        22   12    0    1
 -2        74        76        75
 -1        23   12    0    1
 -2        76        78        77
 -1        24   12    0    1
 -2        78        80        79
 -1        25   12    0    1
 -2        80        82        81
 -1        26   12    0    1
 -2        82        84        83
 -1        27   12    0    1
 -2        84         3        85
 -1        28   12    0    1
 -2         2        87        86
 -1        29   12    0    1
 -2        87        89        88
 -1        30   12    0    1
 -2        89         9        90
 -1        31   12    0    1
 -2         2        92        91
 -1        32   12    0    1
 -2        92        94        93
 -1        33   12    0    1
 -2        94        96        95
 -1        34   12    0    1
 -2        96        98        97
 -1        35   12    0    1
 -2        98       100        99
 -1        36   12    0    1
 -2       100       102       101
 -1        37   12    0    1
 -2       102       104       103
 -1        38   12    0    1
 -2       104        10       105
 -1        39   12    0    1
 -2         3       107       106
 -1        40   12    0    1
 -2       107       109       108
 -1        41   12    0    1
 -2       109       111       110
 -1        42   12    0    1
 -2       111       113       112
 -1        43   12    0    1
 -2       113       115       114
 -1        44   12    0    1
 -2       115       117       116
 -1        45   12    0    1
 -2       117       119       118
 -1        46   12    0    1
 -2       119         4       120
 -1        47   12    0    1
 -2         3       122       121
 -1        48   12    0    1
 -2       122       124       123
 -1        49   12    0    1
 -2       124        10       125
 -1        50   12    0    1
 -2         3       127       126
 -1        51   12    0    1
 -2       127       129       128
 -1        52   12    0    1
 -2       129       131       130
 -1        53   12    0    1
 -2       131       133       132
 -1        54   12    0    1
 -2       133       135       134
 -1        55   12    0    1
 -2       135       137       136
 -1        56   12    0    1
 -2       137       139       138
 -1        57   12    0    1
 -2       139        11       140
 -1        58   12    0    1
 -2         4       142       141
 -1        59   12    0    1
 -2       142       144       143
 -1        60   12    0    1
 -2       144       146       145
 -1        61   12    0    1
 -2       146       148       147
 -1        62   12    0    1
 -2       148       150       149
 -1        63   12    0    1
 -2       150       152       151
 -1        64   12    0    1
 -2       152       154       153
 -1        65   12    0    1
 -2       154         5       155
 -1        66   12    0    1
 -2         4       157       156
 -1        67   12    0    1
 -2       157       159       158
 -1        68   12    0    1
 -2       159        11       160
 -1        69   12    0    1
 -2         4       162       161
 -1        70   12    0    1
 -2       162       164       163
 -1        71   12    0    1
 -2       164       166       165
 -1        72   12    0    1
 -2       166       168       167
 -1        73   12    0    1
 -2       168       170       169
 -1        74   12    0    1
 -2       170       172       171
 -1        75   12    0    1
 -2       172       174       173
 -1        76   12    0    1
 -2       174        12       175
 -1        77   12    0    1
 -2         5       192       191
 -1        78   12    0    1
 -2       192       194       193
 -1        79   12    0    1
 -2       194        12       195
 -1        80   12    0    1
 -2         8       252       251
 -1        81   12    0    1
 -2       252       254       253
 -1        82   12    0    1
 -2       254       256       255
 -1        83   12    0    1
 -2       256       258       257
 -1        84   12    0    1
 -2       258       260       259
 -1        85   12    0    1
 -2       260       262       261
 -1        86   12    0    1
 -2       262       264       263
 -1        87   12    0    1
 -2       264         9       265
 -1        88   12    0    1
 -2         8       267       266
 -1        89   12    0    1
 -2       267       269       268
 -1        90   12    0    1
 -2       269        15       270
 -1        91   12    0    1
 -2         8       272       271
 -1        92   12    0    1
 -2       272       274       273
 -1        93   12    0    1
 -2       274       276       275
 -1        94   12    0    1
 -2       276       278       277
 -1        95   12    0    1
 -2       278       280       279
 -1        96   12    0    1
 -2       280       282       281
 -1        97   12    0    1
 -2       282       284       283
 -1        98   12    0    1
 -2       284        16       285
 -1        99   12    0    1
 -2         9       287       286
 -1       100   12    0    1
 -2       287       289       288
 -1       101   12    0    1
 -2       289       291       290
 -1       102   12    0    1
 -2       291       293       292
 -1       103   12    0    1
 -2       293       295       294
 -1       104   12    0    1
 -2       295       297       296
 -1       105   12    0    1
 -2       297       299       298
 -1       106   12    0    1
 -2       299        10       300
 -1       107   12    0    1
 -2         9       302       301
 -1       108   12    0    1
 -2       302       304       303
 -1       109   12    0    1
 -2       304        16       305
 -1       110   12    0    1
 -2         9       307       306
 -1       111   12    0    1
 -2       307       309       308
 -1       112   12    0    1
 -2       309       311       310
 -1       113   12    0    1
 -2       311       313       312
 -1       114   12    0    1
 -2       313       315       314
 -1       115   12    0    1
 -2       315       317       316
 -1       116   12    0    1
 -2       317       319       318
 -1       117   12    0    1
 -2       319        17       320
 -1       118   12    0    1
 -2        10       322       321
 -1       119   12    0    1
 -2       322       324       323
 -1       120   12    0    1
 -2       324       326       325
 -1       121   12    0    1
 -2       326       328       327
 -1       122   12    0    1
 -2       328       330       329
 -1       123   12    0    1
 -2       330       332       331
 -1       124   12    0    1
 -2       332       334       333
 -1       125   12    0    1
 -2       334        11       335
 -1       126   12    0    1
 -2        10       337       336
 -1       127   12    0    1
 -2       337       339       338
 -1       128   12    0    1
 -2       339        17       340
 -1       129   12    0    1
 -2        10       342       341
 -1       130   12    0    1
 -2       342       344       343
 -1       131   12    0    1
 -2       344       346       345
 -1       132   12    0    1
 -2       346       348       347
 -1       133   12    0    1
 -2       348       350       349
 -1       134   12    0    1
 -2       350       352       351
 -1       135   12    0    1
 -2       352       354       353
 -1       136   12    0    1
 -2       354        18       355
 -1       137   12    0    1
 -2        11       357       356
 -1       138   12    0    1
 -2       357       359       358
 -1       139   12    0    1
 -2       359       361       360
 -1       140   12    0    1
 -2       361       363       362
 -1       141   12    0    1
 -2       363       365       364
 -1       142   12    0    1
 -2       365       367       366
 -1       143   12    0    1
 -2       367       369       368
 -1       144   12    0    1
 -2       369        12       370
 -1       145   12    0    1
 -2        11       372       371
 -1       146   12    0    1
 -2       372       374       373
 -1       147   12    0    1
 -2       374        18       375
 -1       148   12    0    1
 -2        11       377       376
 -1       149   12    0    1
 -2       377       379       378
 -1       150   12    0    1
 -2       379       381       380
 -1       151   12    0    1
 -2       381       383       382
 -1       152   12    0    1
 -2       383       385       384
 -1       153   12    0    1
 -2       385       387       386
 -1       154   12    0    1
 -2       387       389       388
 -1       155   12    0    1
 -2       389        19       390
 -1       156   12    0    1
 -2        12       407       406
 -1       157   12    0    1
 -2       407       409       408
 -1       158   12    0    1
 -2       409        19       410
 -1       159   12    0    1
 -2        15       467       466
 -1       160   12    0    1
 -2       467       469       468
 -1       161   12    0    1
 -2       469       471       470
 -1       162   12    0    1
 -2       471       473       472
 -1       163   12    0    1
 -2       473       475       474
 -1       164   12    0    1
 -2       475       477       476
 -1       165   12    0    1
 -2       477       479       478
 -1       166   12    0    1
 -2       479        16       480
 -1       167   12    0    1
 -2        15       482       481
 -1       168   12    0    1
 -2       482       484       483
 -1       169   12    0    1
 -2       484        22       485
 -1       170   12    0    1
 -2        15       487       486
 -1       171   12    0    1
 -2       487       489       488
 -1       172   12    0    1
 -2       489       491       490
 -1       173   12    0    1
 -2       491       493       492
 -1       174   12    0    1
 -2       493       495       494
 -1       175   12    0    1
 -2       495       497       496
 -1       176   12    0    1
 -2       497       499       498
 -1       177   12    0    1
 -2       499        23       500
 -1       178   12    0    1
 -2        16       502       501
 -1       179   12    0    1
 -2       502       504       503
 -1       180   12    0    1
 -2       504       506       505
 -1       181   12    0    1
 -2       506       508       507
 -1       182   12    0    1
 -2       508       510       509
 -1       183   12    0    1
 -2       510       512       511
 -1       184   12    0    1
 -2       512       514       513
 -1       185   12    0    1
 -2       514        17       515
 -1       186   12    0    1
 -2        16       517       516
 -1       187   12    0    1
 -2       517       519       518
 -1       188   12    0    1
 -2       519        23       520
 -1       189   12    0    1
 -2        16       522       521
 -1       190   12    0    1
 -2       522       524       523
 -1       191   12    0    1
 -2       524       526       525
 -1       192   12    0    1
 -2       526       528       527
 -1       193   12    0    1
 -2       528       530       529
 -1       194   12    0    1
 -2       530       532       531
 -1       195   12    0    1
 -2       532       534       533
 -1       196   12    0    1
 -2       534        24       535
 -1       197   12    0    1
 -2        17       537       536
 -1       198   12    0    1
 -2       537       539       538
 -1       199   12    0    1
 -2       539       541       540
 -1       200   12    0    1
 -2       541       543       542
 -1       201   12    0    1
 -2       543       545       544
 -1       202   12    0    1
 -2       545       547       546
 -1       203   12    0    1
 -2       547       549       548
 -1       204   12    0    1
 -2       549        18       550
 -1       205   12    0    1
 -2        17       552       551
 -1       206   12    0    1
 -2       552       554       553
 -1       207   12    0    1
 -2       554        24       555
 -1       208   12    0    1
 -2        17       557       556
 -1       209   12    0    1
 -2       557       559       558
 -1       210   12    0    1
 -2       559       561       560
 -1       211   12    0    1
 -2       561       563       562
 -1       212   12    0    1
 -2       563       565       564
 -1       213   12    0    1
 -2       565       567       566
 -1       214   12    0    1
 -2       567       569       568
 -1       215   12    0    1
 -2       569        25       570
 -1       216   12    0    1
 -2        18       572       571
 -1       217   12    0    1
 -2       572       574       573
 -1       218   12    0    1
 -2       574       576       575
 -1       219   12    0    1
 -2       576       578       577
 -1       220   12    0    1
 -2       578       580       579
 -1       221   12    0    1
 -2       580       582       581
 -1       222   12    0    1
 -2       582       584       583
 -1       223   12    0    1
 -2       584        19       585
 -1       224   12    0    1
 -2        18       587       586
 -1       225   12    0    1
 -2       587       589       588
 -1       226   12    0    1
 -2       589        25       590
 -1       227   12    0    1
 -2        18       592       591
 -1       228   12    0    1
 -2       592       594       593
 -1       229   12    0    1
 -2       594       596       595
 -1       230   12    0    1
 -2       596       598       597
 -1       231   12    0    1
 -2       598       600       599
 -1       232   12    0    1
 -2       600       602       601
 -1       233   12    0    1
 -2       602       604       603
 -1       234   12    0    1
 -2       604        26       605
 -1       235   12    0    1
 -2        19       607       606
 -1       236   12    0    1
 -2       607       609       608
 -1       237   12    0    1
 -2       609       611       610
 -1       238   12    0    1
 -2       611       613       612
 -1       239   12    0    1
 -2       613       615       614
 -1       240   12    0    1
 -2       615       617       616
 -1       241   12    0    1
 -2       617       619       618
 -1       242   12    0    1
 -2       619        20       620
 -1       243   12    0    1
 -2        19       622       621
 -1       244   12    0    1
 -2       622       624       623
 -1       245   12    0    1
 -2       624        26       625
 -1       246   12    0    1
 -2        19       627       626
 -1       247   12    0    1
 -2       627       629       628
 -1       248   12    0    1
 -2       629       631       630
 -1       249   12    0    1
 -2       631       633       632
 -1       250   12    0    1
 -2       633       635       634
 -1       251   12    0    1
 -2       635       637       636
 -1       252   12    0    1
 -2       637       639       638
 -1       253   12    0    1
 -2       639        27       640
 -1       254   12    0    1
 -2        20       642       641
 -1       255   12    0    1
 -2       642       644       643
 -1       256   12    0    1
 -2       644       646       645
 -1       257   12    0    1
 -2       646       648       647
 -1       258   12    0    1
 -2       648       650       649
 -1       259   12    0    1
 -2       650       652       651
 -1       260   12    0    1
 -2       652       654       653
 -1       261   12    0    1
 -2       654        21       655
 -1       262   12    0    1
 -2        20       657       656
 -1       263   12    0    1
 -2       657       659       658
 -1       264   12    0    1
 -2       659        27       660
 -1       265   12    0    1
 -2        20       662       661
 -1       266   12    0    1
 -2       662       664       663
 -1       267   12    0    1
 -2       664       666       665
 -1       268   12    0    1
 -2       666       668       667
 -1       269   12    0    1
 -2       668       670       669
 -1       270   12    0    1
 -2       670       672       671
 -1       271   12    0    1
 -2       672       674       673
 -1       272   12    0    1
 -2       674        28       675
 -1       273   12    0    1
 -2        21       677       676
 -1       274   12    0    1
 -2       677       679       678
 -1       275   12    0    1
 -2       679        28       680
 -1       276   12    0    1
 -2        22       682       681
 -1       277   12    0    1
 -2       682       684       683
 -1       278   12    0    1
 -2       684       686       685
 -1       279   12    0    1
 -2       686       688       687
 -1       280   12    0    1
 -2       688       690       689
 -1       281   12    0    1
 -2       690       692       691
 -1       282   12    0    1
 -2       692       694       693
 -1       283   12    0    1
 -2       694        23       695
 -1       284   12    0    1
 -2        22       697       696
 -1       285   12    0    1
 -2       697       699       698
 -1       286   12    0    1
 -2       699        29       700
 -1       287   12    0    1
 -2        22       702       701
 -1       288   12    0    1
 -2       702       704       703
 -1       289   12    0    1
 -2       704       706       705
 -1       290   12    0    1
 -2       706       708       707
 -1       291   12    0    1
 -2       708       710       709
 -1       292   12    0    1
 -2       710       712       711
 -1       293   12    0    1
 -2       712       714       713
 -1       294   12    0    1
 -2       714        30       715
 -1       295   12    0    1
 -2        23       717       716
 -1       296   12    0    1
 -2       717       719       718
 -1       297   12    0    1
 -2       719       721       720
 -1       298   12    0    1
 -2       721       723       722
 -1       299   12    0    1
 -2       723       725       724
 -1       300   12    0    1
 -2       725       727       726
 -1       301   12    0    1
 -2       727       729       728
 -1       302   12    0    1
 -2       729        24       730
 -1       303   12    0    1
 -2        23       732       731
 -1       304   12    0    1
 -2       732       734       733
 -1       305   12    0    1
 -2       734        30       735
 -1       306   12    0    1
 -2        23       737       736
 -1       307   12    0    1
 -2       737       739       738
 -1       308   12    0    1
 -2       739       741       740
 -1       309   12    0    1
 -2       741       743       742
 -1       310   12    0    1
 -2       743       745       744
 -1       311   12    0    1
 -2       745       747       746
 -1       312   12    0    1
 -2       747       749       748
 -1       313   12    0    1
 -2       749        31       750
 -1       314   12    0    1
 -2        24       752       751
 -1       315   12    0    1
 -2       752       754       753
 -1       316   12    0    1
 -2       754       756       755
 -1       317   12    0    1
 -2       756       758       757
 -1       318   12    0    1
 -2       758       760       759
 -1       319   12    0    1
 -2       760       762       761
 -1       320   12    0    1
 -2       762       764       763
 -1       321   12    0    1
 -2       764        25       765
 -1       322   12    0    1
 -2        24       767       766
 -1       323   12    0    1
 -2       767       769       768
 -1       324   12    0    1
 -2       769        31       770
 -1       325   12    0    1
 -2        24       772       771
 -1       326   12    0    1
 -2       772       774       773
 -1       327   12    0    1
 -2       774       776       775
 -1       328   12    0    1
 -2       776       778       777
 -1       329   12    0    1
 -2       778       780       779
 -1       330   12    0    1
 -2       780       782       781
 -1       331   12    0    1
 -2       782       784       783
 -1       332   12    0    1
 -2       784        32       785
 -1       333   12    0    1
 -2        25       787       786
 -1       334   12    0    1
 -2       787       789       788
 -1       335   12    0    1
 -2       789       791       790
 -1       336   12    0    1
 -2       791       793       792
 -1       337   12    0    1
 -2       793       795       794
 -1       338   12    0    1
 -2       795       797       796
 -1       339   12    0    1
 -2       797       799       798
 -1       340   12    0    1
 -2       799        26       800
 -1       341   12    0    1
 -2        25       802       801
 -1       342   12    0    1
 -2       802       804       803
 -1       343   12    0    1
 -2       804        32       805
 -1       344   12    0    1
 -2        25       807       806
 -1       345   12    0    1
 -2       807       809       808
 -1       346   12    0    1
 -2       809       811       810
 -1       347   12    0    1
 -2       811       813       812
 -1       348   12    0    1
 -2       813       815       814
 -1       349   12    0    1
 -2       815       817       816
 -1       350   12    0    1
 -2       817       819       818
 -1       351   12    0    1
 -2       819        33       820
 -1       352   12    0    1
 -2        26       822       821
 -1       353   12    0    1
 -2       822       824       823
 -1       354   12    0    1
 -2       824       826       825
 -1       355   12    0    1
 -2       826       828       827
 -1       356   12    0    1
 -2       828       830       829
 -1       357   12    0    1
 -2       830       832       831
 -1       358   12    0    1
 -2       832       834       833
 -1       359   12    0    1
 -2       834        27       835
 -1       360   12    0    1
 -2        26       837       836
 -1       361   12    0    1
 -2       837       839       838
 -1       362   12    0    1
 -2       839        33       840
 -1       363   12    0    1
 -2        26       842       841
 -1       364   12    0    1
 -2       842       844       843
 -1       365   12    0    1
 -2       844       846       845
 -1       366   12    0    1
 -2       846       848       847
 -1       367   12    0    1
 -2       848       850       849
 -1       368   12    0    1
 -2       850       852       851
 -1       369   12    0    1
 -2       852       854       853
 -1       370   12    0    1
 -2       854        34       855
 -1       371   12    0    1
 -2        27       857       856
 -1       372   12    0    1
 -2       857       859       858
 -1       373   12    0    1
 -2       859       861       860
 -1       374   12    0    1
 -2       861       863       862
 -1       375   12    0    1
 -2       863       865       864
 -1       376   12    0    1
 -2       865       867       866
 -1       377   12    0    1
 -2       867       869       868
 -1       378   12    0    1
 -2       869        28       870
 -1       379   12    0    1
 -2        27       872       871
 -1       380   12    0    1
 -2       872       874       873
 -1       381   12    0    1
 -2       874        34       875
 -1       382   12    0    1
 -2        27       877       876
 -1       383   12    0    1
 -2       877       879       878
 -1       384   12    0    1
 -2       879       881       880
 -1       385   12    0    1
 -2       881       883       882
 -1       386   12    0    1
 -2       883       885       884
 -1       387   12    0    1
 -2       885       887       886
 -1       388   12    0    1
 -2       887       889       888
 -1       389   12    0    1
 -2       889        35       890
 -1       390   12    0    1
 -2        28       892       891
 -1       391   12    0    1
 -2       892       894       893
 -1       392   12    0    1
 -2       894        35       895
 -1       393   12    0    1
 -2        29       897       896
 -1       394   12    0    1
 -2       897       899       898
 -1       395   12    0    1
 -2       899       901       900
 -1       396   12    0    1
 -2       901       903       902
 -1       397   12    0    1
 -2       903       905       904
 -1       398   12    0    1
 -2       905       907       906
 -1       399   12    0    1
 -2       907       909       908
 -1       400   12    0    1
 -2       909        30       910
 -1       401   12    0    1
 -2        30       912       911
 -1       402   12    0    1
 -2       912       914       913
 -1       403   12    0    1
 -2       914       916       915
 -1       404   12    0    1
 -2       916       918       917
 -1       405   12    0    1
 -2       918       920       919
 -1       406   12    0    1
 -2       920       922       921
 -1       407   12    0    1
 -2       922       924       923
 -1       408   12    0    1
 -2       924        31       925
 -1       409   12    0    1
 -2        31       927       926
 -1       410   12    0    1
 -2       927       929       928
 -1       411   12    0    1
 -2       929       931       930
 -1       412   12    0    1
 -2       931       933       932
 -1       413   12    0    1
 -2       933       935       934
 -1       414   12    0    1
 -2       935       937       936
 -1       415   12    0    1
 -2       937       939       938
 -1       416   12    0    1
 -2       939        32       940
 -1       417   12    0    1
 -2        32       942       941
 -1       418   12    0    1
 -2       942       944       943
 -1       419   12    0    1
 -2       944       946       945
 -1       420   12    0    1
 -2       946       948       947
 -1       421   12    0    1
 -2       948       950       949
 -1       422   12    0    1
 -2       950       952       951
 -1       423   12    0    1
 -2       952       954       953
 -1       424   12    0    1
 -2       954        33       955
 -1       425   12    0    1
 -2        33       957       956
 -1       426   12    0    1
 -2       957       959       958
 -1       427   12    0    1
 -2       959       961       960
 -1       428   12    0    1
 -2       961       963       962
 -1       429   12    0    1
 -2       963       965       964
 -1       430   12    0    1
 -2       965       967       966
 -1       431   12    0    1
 -2       967       969       968
 -1       432   12    0    1
 -2       969        34       970
 -1       433   12    0    1
 -2        34       972       971
 -1       434   12    0    1
 -2       972       974       973
 -1       435   12    0    1
 -2       974       976       975
 -1       436   12    0    1
 -2       976       978       977
 -1       437   12    0    1
 -2       978       980       979
 -1       438   12    0    1
 -2       980       982       981
 -1       439   12    0    1
 -2       982       984       983
 -1       440   12    0    1
 -2       984        35       985
 -3
    1PSTEP                         1           1           1          
  100CL  101 1.000000000         841                     0    1           1
 -4  DISP        4    1
 -5  D1          1    2    1    0
 -5  D2          1    2    2    0
 -5  D3          1    2    3    0
 -5  ALL         1    2    0    0    1ALL
 -1         1 6.22649E-05 0.00000E+00 0.00000E+00
 -1         2 5.00570E-05 0.00000E+00 0.00000E+00
 -1         3 4.58541E-05 0.00000E+00 0.00000E+00
 -1         4 4.51146E-05 0.00000E+00 0.00000E+00
 -1         5 4.51073E-05 0.00000E+00 0.00000E+00
 -1         8 3.88156E-05-1.38870E-06 0.00000E+00
 -1         9 4.11913E-05 1.16372E-06 0.00000E+00
 -1        10 4.12425E-05-5.05226E-07 0.00000E+00
 -1        11 4.21872E-05-1.10148E-07 0.00000E+00
 -1        12 4.33225E-05 3.24725E-06 0.00000E+00
 -1        15 1.93357E-05-1.75528E-06 0.00000E+00
 -1        16 2.48025E-05 1.39413E-06 0.00000E+00
 -1        17 2.75965E-05-1.06162E-06 0.00000E+00
 -1        18 3.22647E-05-2.97774E-07 0.00000E+00
 -1        19 3.67650E-05 6.41981E-06 0.00000E+00
 -1        20 3.81291E-05 5.91365E-05 0.00000E+00
 -1        21 3.80863E-05 1.16185E-04 0.00000E+00
 -1        22 8.65995E-06-1.11951E-06 0.00000E+00
 -1        23 1.11883E-05 1.74980E-06 0.00000E+00
 -1        24 1.33287E-05-1.34355E-06 0.00000E+00
 -1        25 1.92894E-05-1.29502E-07 0.00000E+00
 -1        26 2.37152E-05 8.46087E-06 0.00000E+00
 -1        27 2.07519E-05 5.83505E-05 0.00000E+00
 -1        28 1.91571E-05 1.15468E-04 0.00000E+00
 -1        29 0.00000E+00 0.00000E+00 0.00000E+00
 -1        30 4.24634E-06 2.14746E-06 0.00000E+00
 -1        31 5.21111E-06-5.67434E-07 0.00000E+00
 -1        32 0.00000E+00 0.00000E+00 0.00000E+00
 -1        33 7.46946E-06 1.04576E-05 0.00000E+00
 -1        34 4.94047E-06 5.82088E-05 0.00000E+00
 -1        35 2.16687E-06 1.15062E-04 0.00000E+00
 -1        36 6.15082E-05 2.11758E-21 0.00000E+00
 -1        37 6.07440E-05 5.44616E-21 1.32349E-23
 -1        38 5.99795E-05 1.73311E-20 0.00000E+00
 -1        39 5.92140E-05 3.19292E-20 0.00000E+00
 -1        40 5.84483E-05 3.78121E-20 0.00000E+00
 -1        41 5.76825E-05 4.10679E-20 0.00000E+00
 -1        42 5.69166E-05 4.51574E-20 2.64698E-23
 -1        43 5.61506E-05 4.22392E-20 0.00000E+00
 -1        44 5.53847E-05 3.25512E-20 0.00000E+00
 -1        45 5.46189E-05 2.41537E-20 1.32349E-23
 -1        46 5.38532E-05 2.01964E-20-2.64698E-23
 -1        47 5.30880E-05 9.72103E-21-1.32349E-23
 -1        48 5.23234E-05 4.63883E-21 2.64698E-23
 -1        49 5.15611E-05 1.56833E-21-1.32349E-23
 -1        50 5.07996E-05 6.74979E-22 0.00000E+00
 -1        51 6.06789E-05-2.43941E-07-9.92617E-24
 -1        52 5.76652E-05-4.72953E-07 0.00000E+00
 -1        53 5.35934E-05-7.01657E-07 0.00000E+00
 -1        54 4.88423E-05-9.30699E-07 8.27181E-25
 -1        55 4.37906E-05-1.16014E-06-6.61744E-24
 -1        56 6.11715E-05-4.56331E-07-2.64698E-23
 -1        57 6.00686E-05-9.59524E-07 0.00000E+00
 -1        58 5.89702E-05-1.47694E-06 0.00000E+00
 -1        59 5.78651E-05-1.98519E-06 0.00000E+00
 -1        60 5.67465E-05-2.45930E-06 2.64698E-23
 -1        61 5.56055E-05-2.87525E-06-1.32349E-23
 -1        62 5.44337E-05-3.20917E-06 0.00000E+00
 -1        63 5.32222E-05-3.43770E-06 0.00000E+00
 -1        64 5.19625E-05-3.53786E-06 0.00000E+00
 -1        65 5.06465E-05-3.48730E-06 0.00000E+00
 -1        66 4.92659E-05-3.26419E-06 0.00000E+00
 -1        67 4.78135E-05-2.84746E-06 0.00000E+00
 -1        68 4.62818E-05-2.21681E-06-2.64698E-23
 -1        69 4.46674E-05-1.35175E-06 1.32349E-23
 -1        70 4.29597E-05-2.35271E-07 0.00000E+00
 -1        71 4.97904E-05 5.27741E-22-6.61744E-24
 -1        72 4.95268E-05 3.06553E-21 0.00000E+00
 -1        73 4.92633E-05 4.65703E-21 0.00000E+00
 -1        74 4.90002E-05 8.09644E-21 0.00000E+00
 -1        75 4.87371E-05 1.59199E-20 0.00000E+00
 -1        76 4.84742E-05 2.20725E-20 0.00000E+00
 -1        77 4.82112E-05 2.55615E-20-6.61744E-24
 -1        78 4.79483E-05 2.40097E-20 3.30872E-24
 -1        79 4.76854E-05 1.76917E-20-6.61744E-24
 -1        80 4.74226E-05 7.90123E-21 3.30872E-24
 -1        81 4.71597E-05 4.72982E-21 0.00000E+00
 -1        82 4.68970E-05 2.95138E-21-3.30872E-24
 -1        83 4.66345E-05 5.53715E-21-6.61744E-24
 -1        84 4.63725E-05 9.69290E-21 0.00000E+00
 -1        85 4.61108E-05 6.18235E-21 6.61744E-24
 -1        86 4.96218E-05 1.78227E-07-4.13590E-25
 -1        87 4.85886E-05 3.78993E-07 0.00000E+00
 -1        88 4.70927E-05 5.79735E-07-3.30872E-24
 -1        89 4.52705E-05 7.80611E-07 1.65436E-24
 -1        90 4.32581E-05 9.81106E-07 0.00000E+00
 -1        91 4.95811E-05-2.11775E-07 0.00000E+00
 -1        92 4.91112E-05-4.61516E-07 0.00000E+00
 -1        93 4.86496E-05-7.33868E-07 0.00000E+00
 -1        94 4.81907E-05-1.01617E-06 0.00000E+00
 -1        95 4.77304E-05-1.29527E-06 0.00000E+00
 -1        96 4.72638E-05-1.55824E-06 0.00000E+00
 -1        97 4.67864E-05-1.79217E-06 0.00000E+00
 -1        98 4.62932E-05-1.98427E-06 0.00000E+00
 -1        99 4.57796E-05-2.12177E-06-1.32349E-23
 -1       100 4.52408E-05-2.19203E-06 0.00000E+00
 -1       101 4.46722E-05-2.18253E-06 1.32349E-23
 -1       102 4.40693E-05-2.08085E-06-6.61744E-24
 -1       103 4.34277E-05-1.87476E-06 1.32349E-23
 -1       104 4.27440E-05-1.55183E-06 6.61744E-24
 -1       105 4.20126E-05-1.10071E-06 0.00000E+00
 -1       106 4.58027E-05-1.53545E-21 0.00000E+00
 -1       107 4.57558E-05-5.75883E-21 8.27181E-25
 -1       108 4.57091E-05-9.28014E-21 0.00000E+00
 -1       109 4.56629E-05-1.60258E-20-8.27181E-25
 -1       110 4.56169E-05-2.62861E-20 1.65436E-24
 -1       111 4.55711E-05-3.29880E-20-8.27181E-25
 -1       112 4.55252E-05-3.74858E-20-1.65436E-24
 -1       113 4.54794E-05-3.86864E-20 8.27181E-25
 -1       114 4.54336E-05-4.01753E-20 1.65436E-24
 -1       115 4.53878E-05-3.43536E-20 0.00000E+00
 -1       116 4.53420E-05-2.77176E-20 1.65436E-24
 -1       117 4.52962E-05-2.18694E-20 0.00000E+00
 -1       118 4.52505E-05-1.54265E-20 1.65436E-24
 -1       119 4.52048E-05-4.44982E-21 8.27181E-25
 -1       120 4.51592E-05-4.53295E-22-8.27181E-25
 -1       121 4.55972E-05-8.54551E-08-3.30872E-24
 -1       122 4.50120E-05-1.68202E-07 8.27181E-25
 -1       123 4.41906E-05-2.51098E-07 0.00000E+00
 -1       124 4.32264E-05-3.34285E-07 0.00000E+00
 -1       125 4.22127E-05-4.17618E-07 3.30872E-24
 -1       126 4.56646E-05-1.06956E-07-6.61744E-24
 -1       127 4.54884E-05-2.56460E-07-3.30872E-24
 -1       128 4.53233E-05-4.35925E-07-6.61744E-24
 -1       129 4.51647E-05-6.33579E-07 0.00000E+00
 -1       130 4.50084E-05-8.37483E-07-6.61744E-24
 -1       131 4.48499E-05-1.03577E-06 0.00000E+00
 -1       132 4.46849E-05-1.21656E-06 0.00000E+00
 -1       133 4.45088E-05-1.36802E-06 0.00000E+00
 -1       134 4.43174E-05-1.47832E-06-6.61744E-24
 -1       135 4.41061E-05-1.53567E-06 0.00000E+00
 -1       136 4.38705E-05-1.52831E-06 6.61744E-24
 -1       137 4.36065E-05-1.44451E-06-3.30872E-24
 -1       138 4.33096E-05-1.27262E-06 6.61744E-24
 -1       139 4.29762E-05-1.00084E-06-3.30872E-24
 -1       140 4.26012E-05-6.17893E-07 0.00000E+00
 -1       141 4.51112E-05 9.22819E-22 0.00000E+00
 -1       142 4.51088E-05-5.81142E-21-1.03398E-25
 -1       143 4.51065E-05-8.91573E-21-2.06795E-25
 -1       144 4.51043E-05-9.33215E-21-5.16988E-26
 -1       145 4.51022E-05-1.32398E-20 1.03398E-25
 -1       146 4.51000E-05-1.90472E-20 0.00000E+00
 -1       147 4.50979E-05-2.93407E-20 0.00000E+00
 -1       148 4.50958E-05-3.67104E-20 0.00000E+00
 -1       149 4.50938E-05-3.71553E-20 0.00000E+00
 -1       150 4.50918E-05-3.56787E-20 5.16988E-26
 -1       151 4.50900E-05-3.32553E-20-2.06795E-25
 -1       152 4.50885E-05-2.72346E-20 0.00000E+00
 -1       153 4.50875E-05-1.69315E-20 1.65436E-24
 -1       154 4.50885E-05-8.24658E-21 1.65436E-24
 -1       155 4.50901E-05-3.40364E-21-6.61744E-24
 -1       156 4.49723E-05-1.81638E-08-6.20385E-25
 -1       157 4.46331E-05-3.60895E-08 2.58494E-26
 -1       158 4.41408E-05-5.40990E-08 6.20385E-25
 -1       159 4.35396E-05-7.22854E-08 2.06795E-25
 -1       160 4.28737E-05-9.05581E-08-8.27181E-25
 -1       161 4.50806E-05-9.54011E-09 8.27181E-25
 -1       162 4.50419E-05-7.25082E-09 0.00000E+00
 -1       163 4.49973E-05 1.05168E-08 0.00000E+00
 -1       164 4.49455E-05 4.72454E-08 4.13590E-25
 -1       165 4.48853E-05 1.06443E-07-8.27181E-25
 -1       166 4.48154E-05 1.91604E-07 0.00000E+00
 -1       167 4.47344E-05 3.06220E-07 0.00000E+00
 -1       168 4.46411E-05 4.53774E-07 0.00000E+00
 -1       169 4.45342E-05 6.37758E-07 0.00000E+00
 -1       170 4.44123E-05 8.61658E-07 0.00000E+00
 -1       171 4.42743E-05 1.12896E-06 4.13590E-25
 -1       172 4.41191E-05 1.44323E-06-1.03398E-25
 -1       173 4.39454E-05 1.80794E-06 0.00000E+00
 -1       174 4.37537E-05 2.22715E-06 0.00000E+00
 -1       175 4.35409E-05 2.70374E-06-6.61744E-24
 -1       191 4.50545E-05 5.35429E-07 0.00000E+00
 -1       192 4.49023E-05 1.07902E-06-6.61744E-24
 -1       193 4.46517E-05 1.62366E-06-1.32349E-23
 -1       194 4.43039E-05 2.16828E-06 0.00000E+00
 -1       195 4.38603E-05 2.71182E-06 0.00000E+00
 -1       251 3.89429E-05 2.02124E-06 0.00000E+00
 -1       252 3.90891E-05 4.39278E-06 0.00000E+00
 -1       253 3.92379E-05 5.85473E-06-1.29247E-24
 -1       254 3.93894E-05 6.53777E-06 8.27181E-25
 -1       255 3.95419E-05 6.57204E-06-3.30872E-24
 -1       256 3.96946E-05 6.08738E-06 0.00000E+00
 -1       257 3.98472E-05 5.21340E-06-3.30872E-24
 -1       258 3.99997E-05 4.07949E-06-1.65436E-24
 -1       259 4.01521E-05 2.81492E-06 0.00000E+00
 -1       260 4.03044E-05 1.54888E-06 0.00000E+00
 -1       261 4.04567E-05 4.10602E-07 0.00000E+00
 -1       262 4.06088E-05-4.70679E-07 0.00000E+00
 -1       263 4.07606E-05-9.65563E-07-6.61744E-24
 -1       264 4.09106E-05-9.44511E-07 0.00000E+00
 -1       265 4.10594E-05-2.77564E-07 0.00000E+00
 -1       266 3.47443E-05-1.45959E-06-6.61744E-24
 -1       267 3.08609E-05-1.52283E-06 0.00000E+00
 -1       268 2.72721E-05-1.58464E-06 0.00000E+00
 -1       269 2.40842E-05-1.64402E-06 0.00000E+00
 -1       270 2.14038E-05-1.70168E-06 0.00000E+00
 -1       271 3.68140E-05 1.83611E-06-1.32349E-23
 -1       272 3.51484E-05 4.10678E-06 0.00000E+00
 -1       273 3.37982E-05 5.54003E-06 0.00000E+00
 -1       274 3.27177E-05 6.24891E-06-1.32349E-23
 -1       275 3.18653E-05 6.34936E-06 0.00000E+00
 -1       276 3.11966E-05 5.95872E-06 0.00000E+00
 -1       277 3.06675E-05 5.19553E-06-2.64698E-23
 -1       278 3.02329E-05 4.17950E-06 0.00000E+00
 -1       279 2.98479E-05 3.03092E-06 2.64698E-23
 -1       280 2.94675E-05 1.87054E-06 0.00000E+00
 -1       281 2.90465E-05 8.19119E-07-2.64698E-23
 -1       282 2.85402E-05-2.86221E-09 0.00000E+00
 -1       283 2.79038E-05-4.75493E-07 1.32349E-23
 -1       284 2.70951E-05-4.79245E-07 6.61744E-24
 -1       285 2.60672E-05 1.02743E-07 1.32349E-23
 -1       286 4.11835E-05 2.77882E-06 0.00000E+00
 -1       287 4.11860E-05 3.84476E-06 0.00000E+00
 -1       288 4.11894E-05 4.42908E-06 0.00000E+00
 -1       289 4.11941E-05 4.60069E-06 0.00000E+00
 -1       290 4.11992E-05 4.42829E-06 0.00000E+00
 -1       291 4.12045E-05 3.98068E-06 0.00000E+00
 -1       292 4.12097E-05 3.32662E-06 0.00000E+00
 -1       293 4.12149E-05 2.53487E-06 0.00000E+00
 -1       294 4.12200E-05 1.67419E-06-1.03398E-25
 -1       295 4.12251E-05 8.13364E-07 0.00000E+00
 -1       296 4.12302E-05 2.11259E-08 0.00000E+00
 -1       297 4.12352E-05-6.33751E-07 0.00000E+00
 -1       298 4.12400E-05-1.08249E-06 0.00000E+00
 -1       299 4.12439E-05-1.25639E-06 6.72084E-25
 -1       300 4.12474E-05-1.08657E-06 1.65436E-24
 -1       301 3.87291E-05 1.19305E-06 1.65436E-24
 -1       302 3.59589E-05 1.23325E-06 0.00000E+00
 -1       303 3.30300E-05 1.27474E-06 0.00000E+00
 -1       304 3.00937E-05 1.31674E-06 0.00000E+00
 -1       305 2.73015E-05 1.35840E-06 0.00000E+00
 -1       306 3.98108E-05 2.51248E-06 1.32349E-23
 -1       307 3.86017E-05 3.32948E-06-1.32349E-23
 -1       308 3.75636E-05 3.68963E-06 0.00000E+00
 -1       309 3.66681E-05 3.66072E-06 1.32349E-23
 -1       310 3.58915E-05 3.31310E-06 2.64698E-23
 -1       311 3.52072E-05 2.71749E-06 1.32349E-23
 -1       312 3.45889E-05 1.94534E-06-2.64698E-23
 -1       313 3.40097E-05 1.06859E-06 0.00000E+00
 -1       314 3.34426E-05 1.59497E-07 0.00000E+00
 -1       315 3.28606E-05-7.09557E-07 0.00000E+00
 -1       316 3.22368E-05-1.46634E-06 0.00000E+00
 -1       317 3.15446E-05-2.03892E-06 0.00000E+00
 -1       318 3.07573E-05-2.35586E-06-2.64698E-23
 -1       319 2.98511E-05-2.34586E-06-6.61744E-24
 -1       320 2.87971E-05-1.94012E-06-1.32349E-23
 -1       321 4.12900E-05 1.94801E-07 3.30872E-24
 -1       322 4.13482E-05 6.50214E-07 0.00000E+00
 -1       323 4.14069E-05 8.93773E-07-2.06795E-25
 -1       324 4.14669E-05 9.58787E-07 8.27181E-25
 -1       325 4.15273E-05 8.78464E-07 1.65436E-24
 -1       326 4.15880E-05 6.86004E-07 0.00000E+00
 -1       327 4.16487E-05 4.14582E-07 1.65436E-24
 -1       328 4.17094E-05 9.73625E-08 8.27181E-25
 -1       329 4.17702E-05-2.32499E-07-1.65436E-24
 -1       330 4.18309E-05-5.41859E-07-8.27181E-25
 -1       331 4.18916E-05-7.97560E-07 0.00000E+00
 -1       332 4.19523E-05-9.66435E-07 0.00000E+00
 -1       333 4.20128E-05-1.01530E-06 0.00000E+00
 -1       334 4.20727E-05-9.10978E-07 0.00000E+00
 -1       335 4.21323E-05-6.20186E-07 0.00000E+00
 -1       336 3.97279E-05-5.99571E-07-3.30872E-24
 -1       337 3.75031E-05-6.90951E-07-1.65436E-24
 -1       338 3.48717E-05-7.83069E-07 0.00000E+00
 -1       339 3.21397E-05-8.75354E-07-1.65436E-24
 -1       340 2.96133E-05-9.67217E-07-6.61744E-24
 -1       341 4.05027E-05 2.20820E-08-1.32349E-23
 -1       342 3.98381E-05 3.08437E-07-6.61744E-24
 -1       343 3.92486E-05 3.93555E-07 0.00000E+00
 -1       344 3.87194E-05 3.12837E-07-6.61744E-24
 -1       345 3.82384E-05 1.02783E-07 0.00000E+00
 -1       346 3.77919E-05-2.00224E-07 0.00000E+00
 -1       347 3.73665E-05-5.59639E-07 0.00000E+00
 -1       348 3.69484E-05-9.38825E-07 0.00000E+00
 -1       349 3.65241E-05-1.30111E-06 1.32349E-23
 -1       350 3.60797E-05-1.60987E-06 0.00000E+00
 -1       351 3.56017E-05-1.82854E-06 0.00000E+00
 -1       352 3.50767E-05-1.92073E-06 0.00000E+00
 -1       353 3.44914E-05-1.85024E-06 0.00000E+00
 -1       354 3.38340E-05-1.58063E-06 0.00000E+00
 -1       355 3.30895E-05-1.07708E-06-6.61744E-24
 -1       356 4.22508E-05 4.57093E-07 3.10193E-25
 -1       357 4.23196E-05 8.90345E-07-4.13590E-25
 -1       358 4.23887E-05 1.20792E-06-1.65436E-24
 -1       359 4.24584E-05 1.42843E-06 8.27181E-25
 -1       360 4.25283E-05 1.57040E-06-1.65436E-24
 -1       361 4.25984E-05 1.65239E-06 0.00000E+00
 -1       362 4.26685E-05 1.69292E-06 1.65436E-24
 -1       363 4.27387E-05 1.71051E-06 0.00000E+00
 -1       364 4.28089E-05 1.72367E-06 0.00000E+00
 -1       365 4.28791E-05 1.75090E-06 0.00000E+00
 -1       366 4.29495E-05 1.81073E-06-3.30872E-24
 -1       367 4.30202E-05 1.92167E-06 0.00000E+00
 -1       368 4.30913E-05 2.10227E-06 0.00000E+00
 -1       369 4.31638E-05 2.37104E-06 0.00000E+00
 -1       370 4.32369E-05 2.74660E-06 0.00000E+00
 -1       371 4.10773E-05-1.41623E-07 0.00000E+00
 -1       372 3.94710E-05-1.72843E-07 2.58494E-25
 -1       373 3.75767E-05-2.04428E-07-8.27181E-25
 -1       374 3.56045E-05-2.36001E-07-8.27181E-25
 -1       375 3.37642E-05-2.67319E-07 1.65436E-24
 -1       376 4.18288E-05 3.61549E-07 0.00000E+00
 -1       377 4.15318E-05 6.54110E-07-3.30872E-24
 -1       378 4.12878E-05 8.05134E-07 6.61744E-24
 -1       379 4.10826E-05 8.50745E-07 0.00000E+00
 -1       380 4.09032E-05 8.27421E-07 0.00000E+00
 -1       381 4.07358E-05 7.71542E-07 3.30872E-24
 -1       382 4.05670E-05 7.19521E-07 0.00000E+00
 -1       383 4.03830E-05 7.07751E-07 0.00000E+00
 -1       384 4.01704E-05 7.72606E-07 3.30872E-24
 -1       385 3.99154E-05 9.50406E-07 0.00000E+00
 -1       386 3.96046E-05 1.27741E-06-3.30872E-24
 -1       387 3.92245E-05 1.78983E-06-1.65436E-24
 -1       388 3.87618E-05 2.52372E-06 3.30872E-24
 -1       389 3.82045E-05 3.51554E-06 0.00000E+00
 -1       390 3.75375E-05 4.80047E-06 0.00000E+00
 -1       406 4.27221E-05 3.77272E-06-1.32349E-23
 -1       407 4.19607E-05 4.30555E-06 0.00000E+00
 -1       408 4.10110E-05 4.83901E-06-1.32349E-23
 -1       409 3.98461E-05 5.37169E-06 0.00000E+00
 -1       410 3.84393E-05 5.90224E-06-1.32349E-23
 -1       466 1.96622E-05-4.22426E-07-3.30872E-24
 -1       467 2.00041E-05 4.12462E-07-3.30872E-24
 -1       468 2.03470E-05 8.23684E-07 0.00000E+00
 -1       469 2.06918E-05 8.86145E-07 0.00000E+00
 -1       470 2.10371E-05 6.74316E-07 6.61744E-24
 -1       471 2.13826E-05 2.62330E-07 6.61744E-24
 -1       472 2.17283E-05-2.75859E-07-1.32349E-23
 -1       473 2.20739E-05-8.66468E-07 0.00000E+00
 -1       474 2.24196E-05-1.43578E-06 0.00000E+00
 -1       475 2.27652E-05-1.91002E-06 6.61744E-24
 -1       476 2.31107E-05-2.21534E-06 1.32349E-23
 -1       477 2.34558E-05-2.27768E-06 0.00000E+00
 -1       478 2.38002E-05-2.02272E-06 0.00000E+00
 -1       479 2.41420E-05-1.37579E-06 0.00000E+00
 -1       480 2.44825E-05-2.61674E-07 0.00000E+00
 -1       481 1.75296E-05-1.65315E-06 0.00000E+00
 -1       482 1.56106E-05-1.54669E-06-1.65436E-24
 -1       483 1.36712E-05-1.44011E-06 3.30872E-24
 -1       484 1.18044E-05-1.33306E-06 1.65436E-24
 -1       485 1.01032E-05-1.22566E-06 3.30872E-24
 -1       486 1.84322E-05-4.36213E-07 0.00000E+00
 -1       487 1.76380E-05 5.41879E-07 0.00000E+00
 -1       488 1.69546E-05 1.22397E-06 0.00000E+00
 -1       489 1.63652E-05 1.64970E-06 6.61744E-24
 -1       490 1.58563E-05 1.86007E-06 0.00000E+00
 -1       491 1.54125E-05 1.89593E-06 0.00000E+00
 -1       492 1.50186E-05 1.79839E-06-1.32349E-23
 -1       493 1.46591E-05 1.60873E-06 0.00000E+00
 -1       494 1.43187E-05 1.36834E-06 1.32349E-23
 -1       495 1.39818E-05 1.11869E-06 6.61744E-24
 -1       496 1.36330E-05 9.01280E-07-1.32349E-23
 -1       497 1.32568E-05 7.57582E-07-6.61744E-24
 -1       498 1.28378E-05 7.28956E-07 0.00000E+00
 -1       499 1.23620E-05 8.56997E-07 0.00000E+00
 -1       500 1.18126E-05 1.18222E-06 0.00000E+00
 -1       501 2.49638E-05 2.99330E-06 0.00000E+00
 -1       502 2.51384E-05 3.95908E-06 1.65436E-24
 -1       503 2.53140E-05 4.37663E-06 3.30872E-24
 -1       504 2.54912E-05 4.33227E-06 0.00000E+00
 -1       505 2.56687E-05 3.91193E-06 6.61744E-24
 -1       506 2.58464E-05 3.20135E-06 0.00000E+00
 -1       507 2.60240E-05 2.28612E-06-6.61744E-24
 -1       508 2.62016E-05 1.25168E-06 0.00000E+00
 -1       509 2.63792E-05 1.83419E-07-6.61744E-24
 -1       510 2.65567E-05-8.33279E-07 3.30872E-24
 -1       511 2.67342E-05-1.71305E-06 0.00000E+00
 -1       512 2.69116E-05-2.37038E-06 0.00000E+00
 -1       513 2.70885E-05-2.71969E-06 0.00000E+00
 -1       514 2.72636E-05-2.67522E-06 0.00000E+00
 -1       515 2.74379E-05-2.15088E-06 0.00000E+00
 -1       516 2.24383E-05 1.44776E-06-2.06795E-25
 -1       517 1.98070E-05 1.50818E-06-2.06795E-25
 -1       518 1.71371E-05 1.56867E-06 1.03398E-25
 -1       519 1.46579E-05 1.62988E-06-4.13590E-25
 -1       520 1.25991E-05 1.69190E-06 0.00000E+00
 -1       521 2.35187E-05 2.80867E-06-1.32349E-23
 -1       522 2.24172E-05 3.66198E-06-6.61744E-24
 -1       523 2.14964E-05 4.03271E-06 0.00000E+00
 -1       524 2.07265E-05 3.99229E-06-1.32349E-23
 -1       525 2.00823E-05 3.61461E-06-2.64698E-23
 -1       526 1.95362E-05 2.97387E-06 0.00000E+00
 -1       527 1.90604E-05 2.14491E-06 2.64698E-23
 -1       528 1.86267E-05 1.20306E-06 0.00000E+00
 -1       529 1.82070E-05 2.23898E-07-2.64698E-23
 -1       530 1.77730E-05-7.16849E-07 0.00000E+00
 -1       531 1.72965E-05-1.54359E-06 2.64698E-23
 -1       532 1.67496E-05-2.18097E-06 1.32349E-23
 -1       533 1.61042E-05-2.55412E-06 0.00000E+00
 -1       534 1.53347E-05-2.58837E-06-6.61744E-24
 -1       535 1.44114E-05-2.21111E-06 1.32349E-23
 -1       536 2.78664E-05 1.30656E-07-1.24077E-24
 -1       537 2.81570E-05 9.06507E-07 1.65436E-24
 -1       538 2.84487E-05 1.32245E-06-6.61744E-24
 -1       539 2.87430E-05 1.43559E-06-3.30872E-24
 -1       540 2.90379E-05 1.30267E-06-6.61744E-24
 -1       541 2.93333E-05 9.80200E-07 0.00000E+00
 -1       542 2.96288E-05 5.24518E-07-6.61744E-24
 -1       543 2.99244E-05-8.17660E-09-3.30872E-24
 -1       544 3.02200E-05-5.61744E-07 0.00000E+00
 -1       545 3.05155E-05-1.08008E-06 3.30872E-24
 -1       546 3.08110E-05-1.50706E-06-6.61744E-24
 -1       547 3.11062E-05-1.78641E-06 3.30872E-24
 -1       548 3.14010E-05-1.86179E-06 0.00000E+00
 -1       549 3.16941E-05-1.67664E-06-3.30872E-24
 -1       550 3.19864E-05-1.17407E-06-6.61744E-24
 -1       551 2.55170E-05-1.11182E-06-2.48154E-24
 -1       552 2.30681E-05-1.15704E-06-1.52511E-24
 -1       553 2.04361E-05-1.20191E-06 0.00000E+00
 -1       554 1.78100E-05-1.24686E-06 0.00000E+00
 -1       555 1.53788E-05-1.29230E-06-6.61744E-24
 -1       556 2.67352E-05-5.54620E-08 0.00000E+00
 -1       557 2.60011E-05 5.76531E-07-6.61744E-24
 -1       558 2.53855E-05 8.88238E-07-1.32349E-23
 -1       559 2.48691E-05 9.32292E-07-6.61744E-24
 -1       560 2.44328E-05 7.61558E-07 0.00000E+00
 -1       561 2.40569E-05 4.28973E-07 0.00000E+00
 -1       562 2.37218E-05-1.24767E-08 1.32349E-23
 -1       563 2.34076E-05-5.09731E-07 0.00000E+00
 -1       564 2.30944E-05-1.00970E-06-1.32349E-23
 -1       565 2.27623E-05-1.45932E-06 0.00000E+00
 -1       566 2.23917E-05-1.80550E-06 0.00000E+00
 -1       567 2.19626E-05-1.99524E-06-6.61744E-24
 -1       568 2.14555E-05-1.97558E-06 0.00000E+00
 -1       569 2.08516E-05-1.69356E-06 6.61744E-24
 -1       570 2.01316E-05-1.09649E-06 3.30872E-24
 -1       571 3.25295E-05 5.77988E-07 0.00000E+00
 -1       572 3.28081E-05 1.17876E-06-1.65436E-24
 -1       573 3.30889E-05 1.54921E-06-6.61744E-24
 -1       574 3.33713E-05 1.73553E-06 0.00000E+00
 -1       575 3.36542E-05 1.78384E-06 6.61744E-24
 -1       576 3.39374E-05 1.74037E-06-3.30872E-24
 -1       577 3.42207E-05 1.65129E-06 6.61744E-24
 -1       578 3.45041E-05 1.56279E-06 3.30872E-24
 -1       579 3.47875E-05 1.52104E-06 1.32349E-23
 -1       580 3.50709E-05 1.57225E-06 6.61744E-24
 -1       581 3.53543E-05 1.76262E-06 0.00000E+00
 -1       582 3.56375E-05 2.13843E-06 0.00000E+00
 -1       583 3.59206E-05 2.74598E-06 0.00000E+00
 -1       584 3.62032E-05 3.63151E-06 0.00000E+00
 -1       585 3.64852E-05 4.84134E-06 0.00000E+00
 -1       586 3.05237E-05-2.69588E-07 0.00000E+00
 -1       587 2.83757E-05-2.39707E-07 0.00000E+00
 -1       588 2.59982E-05-2.10043E-07-8.27181E-25
 -1       589 2.35715E-05-1.80879E-07 0.00000E+00
 -1       590 2.12759E-05-1.52399E-07 0.00000E+00
 -1       591 3.16369E-05 5.35973E-07 0.00000E+00
 -1       592 3.10765E-05 1.15382E-06 0.00000E+00
 -1       593 3.05804E-05 1.59570E-06-1.32349E-23
 -1       594 3.01349E-05 1.89921E-06 0.00000E+00
 -1       595 2.97267E-05 2.10214E-06 0.00000E+00
 -1       596 2.93419E-05 2.24212E-06 0.00000E+00
 -1       597 2.89665E-05 2.35682E-06 6.61744E-24
 -1       598 2.85864E-05 2.48390E-06 3.30872E-24
 -1       599 2.81876E-05 2.66098E-06 0.00000E+00
 -1       600 2.77559E-05 2.92570E-06 3.30872E-24
 -1       601 2.72773E-05 3.31563E-06 0.00000E+00
 -1       602 2.67379E-05 3.86835E-06 3.30872E-24
 -1       603 2.61237E-05 4.62139E-06-6.61744E-24
 -1       604 2.54219E-05 5.61238E-06-1.65436E-24
 -1       605 2.46189E-05 6.87874E-06 4.13590E-25
 -1       606 3.68622E-05 8.48204E-06 0.00000E+00
 -1       607 3.69519E-05 1.08190E-05 0.00000E+00
 -1       608 3.70399E-05 1.34083E-05 6.61744E-24
 -1       609 3.71267E-05 1.62259E-05 0.00000E+00
 -1       610 3.72126E-05 1.92480E-05 6.61744E-24
 -1       611 3.72978E-05 2.24507E-05 0.00000E+00
 -1       612 3.73825E-05 2.58098E-05 0.00000E+00
 -1       613 3.74667E-05 2.93016E-05 1.65436E-24
 -1       614 3.75506E-05 3.29019E-05 3.30872E-24
 -1       615 3.76341E-05 3.65869E-05-1.65436E-24
 -1       616 3.77174E-05 4.03328E-05-3.30872E-24
 -1       617 3.78006E-05 4.41154E-05 1.65436E-24
 -1       618 3.78835E-05 4.79109E-05-3.30872E-24
 -1       619 3.79663E-05 5.16955E-05 0.00000E+00
 -1       620 3.80488E-05 5.54452E-05 0.00000E+00
 -1       621 3.47031E-05 6.75961E-06 1.32349E-23
 -1       622 3.25209E-05 7.10338E-06 6.61744E-24
 -1       623 3.02745E-05 7.44728E-06 0.00000E+00
 -1       624 2.80203E-05 7.79031E-06-3.30872E-24
 -1       625 2.58153E-05 8.13158E-06 0.00000E+00
 -1       626 3.61804E-05 8.57509E-06 0.00000E+00
 -1       627 3.54832E-05 1.10219E-05 0.00000E+00
 -1       628 3.46867E-05 1.37306E-05 0.00000E+00
 -1       629 3.38030E-05 1.66694E-05 0.00000E+00
 -1       630 3.28442E-05 1.98068E-05 0.00000E+00
 -1       631 3.18222E-05 2.31109E-05-3.30872E-24
 -1       632 3.07490E-05 2.65500E-05 0.00000E+00
 -1       633 2.96368E-05 3.00925E-05 0.00000E+00
 -1       634 2.84974E-05 3.37066E-05-6.61744E-24
 -1       635 2.73428E-05 3.73607E-05-3.30872E-24
 -1       636 2.61849E-05 4.10233E-05-6.61744E-24
 -1       637 2.50357E-05 4.46625E-05-3.30872E-24
 -1       638 2.39070E-05 4.82468E-05 3.30872E-24
 -1       639 2.28102E-05 5.17443E-05 0.00000E+00
 -1       640 2.17570E-05 5.51234E-05-1.65436E-24
 -1       641 3.81281E-05 6.27575E-05-8.27181E-25
 -1       642 3.81256E-05 6.63964E-05 2.06795E-25
 -1       643 3.81231E-05 7.00477E-05 0.00000E+00
 -1       644 3.81203E-05 7.37061E-05 1.03398E-25
 -1       645 3.81175E-05 7.73662E-05-1.03398E-25
 -1       646 3.81147E-05 8.10224E-05 0.00000E+00
 -1       647 3.81119E-05 8.46695E-05-1.03398E-25
 -1       648 3.81091E-05 8.83019E-05 2.58494E-26
 -1       649 3.81064E-05 9.19143E-05-3.87741E-26
 -1       650 3.81038E-05 9.55013E-05-2.58494E-26
 -1       651 3.81012E-05 9.90574E-05 0.00000E+00
 -1       652 3.80987E-05 1.02577E-04 0.00000E+00
 -1       653 3.80963E-05 1.06055E-04 0.00000E+00
 -1       654 3.80937E-05 1.09486E-04 0.00000E+00
 -1       655 3.80912E-05 1.12865E-04 0.00000E+00
 -1       656 3.47985E-05 5.90092E-05 0.00000E+00
 -1       657 3.17929E-05 5.88759E-05 4.96308E-24
 -1       658 2.89994E-05 5.87430E-05 0.00000E+00
 -1       659 2.63040E-05 5.86103E-05-1.65436E-24
 -1       660 2.35926E-05 5.84776E-05 0.00000E+00
 -1       661 3.68872E-05 6.27947E-05 0.00000E+00
 -1       662 3.56467E-05 6.64613E-05 0.00000E+00
 -1       663 3.44056E-05 7.01293E-05-3.30872E-24
 -1       664 3.31666E-05 7.37936E-05 0.00000E+00
 -1       665 3.19312E-05 7.74485E-05-3.30872E-24
 -1       666 3.07015E-05 8.10886E-05 0.00000E+00
 -1       667 2.94795E-05 8.47086E-05 0.00000E+00
 -1       668 2.82672E-05 8.83028E-05 1.65436E-24
 -1       669 2.70668E-05 9.18659E-05 0.00000E+00
 -1       670 2.58802E-05 9.53923E-05-1.65436E-24
 -1       671 2.47095E-05 9.88766E-05 0.00000E+00
 -1       672 2.35567E-05 1.02313E-04 0.00000E+00
 -1       673 2.24238E-05 1.05697E-04-3.30872E-24
 -1       674 2.13124E-05 1.09021E-04 1.65436E-24
 -1       675 2.02250E-05 1.12281E-04 1.65436E-24
 -1       676 3.48375E-05 1.16067E-04-3.30872E-24
 -1       677 3.16409E-05 1.15946E-04 1.65436E-24
 -1       678 2.84857E-05 1.15826E-04 0.00000E+00
 -1       679 2.53607E-05 1.15705E-04 0.00000E+00
 -1       680 2.22549E-05 1.15585E-04 0.00000E+00
 -1       681 8.81416E-06-8.55763E-08 0.00000E+00
 -1       682 8.97255E-06 6.51764E-07 1.65436E-24
 -1       683 9.13129E-06 1.13141E-06-3.30872E-24
 -1       684 9.29059E-06 1.39279E-06 1.65436E-24
 -1       685 9.45005E-06 1.47518E-06-6.61744E-24
 -1       686 9.60960E-06 1.41776E-06 1.65436E-24
 -1       687 9.76918E-06 1.25966E-06-6.61744E-24
 -1       688 9.92876E-06 1.03993E-06 0.00000E+00
 -1       689 1.00883E-05 7.97623E-07 6.61744E-24
 -1       690 1.02478E-05 5.71744E-07 0.00000E+00
 -1       691 1.04073E-05 4.01326E-07 6.61744E-24
 -1       692 1.05665E-05 3.25429E-07 3.30872E-24
 -1       693 1.07255E-05 3.83157E-07 0.00000E+00
 -1       694 1.08832E-05 6.13672E-07 1.65436E-24
 -1       695 1.10405E-05 1.05628E-06-3.30872E-24
 -1       696 7.29050E-06-9.38177E-07 3.30872E-24
 -1       697 5.78514E-06-7.51803E-07 0.00000E+00
 -1       698 4.22345E-06-5.65208E-07 6.61744E-24
 -1       699 2.68543E-06-3.77735E-07 0.00000E+00
 -1       700 1.25111E-06-1.89871E-07 6.61744E-24
 -1       701 8.08739E-06-9.28981E-08 0.00000E+00
 -1       702 7.58785E-06 7.06978E-07 0.00000E+00
 -1       703 7.16281E-06 1.30766E-06 0.00000E+00
 -1       704 6.80214E-06 1.73310E-06 3.30872E-24
 -1       705 6.49768E-06 2.00798E-06 6.61744E-24
 -1       706 6.24028E-06 2.15684E-06 0.00000E+00
 -1       707 6.02085E-06 2.20426E-06 6.61744E-24
 -1       708 5.83019E-06 2.17490E-06 0.00000E+00
 -1       709 5.65906E-06 2.09344E-06-6.61744E-24
 -1       710 5.49823E-06 1.98463E-06 0.00000E+00
 -1       711 5.33845E-06 1.87321E-06 0.00000E+00
 -1       712 5.17058E-06 1.78397E-06 0.00000E+00
 -1       713 4.98541E-06 1.74167E-06 0.00000E+00
 -1       714 4.77463E-06 1.77132E-06 0.00000E+00
 -1       715 4.52805E-06 1.89726E-06 0.00000E+00
 -1       716 1.13142E-05 2.35290E-06 4.13590E-25
 -1       717 1.14487E-05 2.56721E-06 8.27181E-25
 -1       718 1.15836E-05 2.45285E-06 3.30872E-24
 -1       719 1.17195E-05 2.07072E-06 0.00000E+00
 -1       720 1.18555E-05 1.48148E-06 3.30872E-24
 -1       721 1.19917E-05 7.45774E-07 0.00000E+00
 -1       722 1.21278E-05-7.58438E-08 0.00000E+00
 -1       723 1.22640E-05-9.22869E-07 0.00000E+00
 -1       724 1.24002E-05-1.73479E-06 0.00000E+00
 -1       725 1.25363E-05-2.45107E-06-1.65436E-24
 -1       726 1.26725E-05-3.01117E-06-6.61744E-24
 -1       727 1.28084E-05-3.35444E-06-1.65436E-24
 -1       728 1.29439E-05-3.42015E-06 0.00000E+00
 -1       729 1.30776E-05-3.14747E-06 0.00000E+00
 -1       730 1.32104E-05-2.47533E-06 8.27181E-25
 -1       731 1.00793E-05 1.81125E-06 0.00000E+00
 -1       732 8.75821E-06 1.87786E-06 0.00000E+00
 -1       733 7.36934E-06 1.94462E-06-1.65436E-24
 -1       734 6.05779E-06 2.01206E-06-8.27181E-25
 -1       735 4.96875E-06 2.07987E-06-4.13590E-25
 -1       736 1.05567E-05 2.33588E-06 0.00000E+00
 -1       737 9.99549E-06 2.69191E-06 0.00000E+00
 -1       738 9.50838E-06 2.84937E-06 1.32349E-23
 -1       739 9.08381E-06 2.83507E-06 0.00000E+00
 -1       740 8.71279E-06 2.67689E-06 1.32349E-23
 -1       741 8.38500E-06 2.40254E-06 0.00000E+00
 -1       742 8.09021E-06 2.03990E-06 0.00000E+00
 -1       743 7.81796E-06 1.61693E-06 0.00000E+00
 -1       744 7.55780E-06 1.16168E-06 1.32349E-23
 -1       745 7.29924E-06 7.02269E-07 0.00000E+00
 -1       746 7.03180E-06 2.66783E-07-1.32349E-23
 -1       747 6.74510E-06-1.16668E-07 0.00000E+00
 -1       748 6.42873E-06-4.20066E-07-1.32349E-23
 -1       749 6.07325E-06-6.15204E-07-3.30872E-24
 -1       750 5.66725E-06-6.74685E-07 0.00000E+00
 -1       751 1.36753E-05-1.97100E-07-3.30872E-24
 -1       752 1.40470E-05 5.21309E-07 0.00000E+00
 -1       753 1.44200E-05 8.72966E-07 6.61744E-24
 -1       754 1.47961E-05 9.19644E-07-6.61744E-24
 -1       755 1.51730E-05 7.22692E-07 0.00000E+00
 -1       756 1.55505E-05 3.43142E-07 6.61744E-24
 -1       757 1.59280E-05-1.58168E-07-1.32349E-23
 -1       758 1.63057E-05-7.20574E-07 0.00000E+00
 -1       759 1.66834E-05-1.28347E-06 1.32349E-23
 -1       760 1.70610E-05-1.78627E-06 0.00000E+00
 -1       761 1.74385E-05-2.16830E-06-1.32349E-23
 -1       762 1.78155E-05-2.36873E-06 0.00000E+00
 -1       763 1.81919E-05-2.32652E-06 1.32349E-23
 -1       764 1.85656E-05-1.98035E-06 0.00000E+00
 -1       765 1.89382E-05-1.26844E-06 6.61744E-24
 -1       766 1.17410E-05-1.22448E-06 8.27181E-25
 -1       767 1.00776E-05-1.09162E-06 4.13590E-25
 -1       768 8.46541E-06-9.58431E-07 0.00000E+00
 -1       769 7.03200E-06-8.24669E-07-6.20385E-25
 -1       770 5.90502E-06-6.90631E-07 0.00000E+00
 -1       771 1.21983E-05-3.93161E-07-1.32349E-23
 -1       772 1.11522E-05 2.63447E-07 0.00000E+00
 -1       773 1.01971E-05 6.68397E-07-2.64698E-23
 -1       774 9.31993E-06 8.58671E-07 0.00000E+00
 -1       775 8.50853E-06 8.71654E-07 2.64698E-23
 -1       776 7.74926E-06 7.44574E-07 0.00000E+00
 -1       777 7.02835E-06 5.14729E-07-2.64698E-23
 -1       778 6.33190E-06 2.19490E-07 1.32349E-23
 -1       779 5.64594E-06-1.03725E-07 0.00000E+00
 -1       780 4.95650E-06-4.17480E-07 1.32349E-23
 -1       781 4.24962E-06-6.84326E-07-2.64698E-23
 -1       782 3.51151E-06-8.66825E-07 1.32349E-23
 -1       783 2.72845E-06-9.27584E-07-2.64698E-23
 -1       784 1.88798E-06-8.28997E-07 0.00000E+00
 -1       785 9.76961E-07-5.33821E-07 0.00000E+00
 -1       786 1.95477E-05 1.06961E-06 1.65436E-24
 -1       787 1.98231E-05 1.94128E-06-3.30872E-24
 -1       788 2.00995E-05 2.53666E-06 0.00000E+00
 -1       789 2.03781E-05 2.90734E-06 0.00000E+00
 -1       790 2.06572E-05 3.10468E-06 6.61744E-24
 -1       791 2.09367E-05 3.17990E-06 0.00000E+00
 -1       792 2.12164E-05 3.18408E-06 0.00000E+00
 -1       793 2.14962E-05 3.16827E-06 0.00000E+00
 -1       794 2.17760E-05 3.18348E-06 6.61744E-24
 -1       795 2.20558E-05 3.28075E-06 0.00000E+00
 -1       796 2.23354E-05 3.51121E-06 0.00000E+00
 -1       797 2.26148E-05 3.92610E-06 0.00000E+00
 -1       798 2.28938E-05 4.57682E-06-6.61744E-24
 -1       799 2.31714E-05 5.51498E-06 0.00000E+00
 -1       800 2.34482E-05 6.79255E-06 0.00000E+00
 -1       801 1.68111E-05-1.08296E-07 0.00000E+00
 -1       802 1.33047E-05-8.38295E-08 0.00000E+00
 -1       803 9.31885E-06-6.09104E-08 0.00000E+00
 -1       804 5.40544E-06-3.84731E-08 0.00000E+00
 -1       805 2.11636E-06-1.46187E-08 0.00000E+00
 -1       806 1.84146E-05 9.40378E-07-1.32349E-23
 -1       807 1.76100E-05 1.77938E-06 0.00000E+00
 -1       808 1.68749E-05 2.42767E-06 0.00000E+00
 -1       809 1.61958E-05 2.92243E-06-6.61744E-24
 -1       810 1.55598E-05 3.30102E-06 0.00000E+00
 -1       811 1.49532E-05 3.60074E-06 6.61744E-24
 -1       812 1.43620E-05 3.85884E-06 1.32349E-23
 -1       813 1.37725E-05 4.11261E-06-6.61744E-24
 -1       814 1.31706E-05 4.39933E-06-1.32349E-23
 -1       815 1.25424E-05 4.75626E-06-6.61744E-24
 -1       816 1.18739E-05 5.22061E-06-1.32349E-23
 -1       817 1.11514E-05 5.82958E-06 0.00000E+00
 -1       818 1.03612E-05 6.62030E-06-1.32349E-23
 -1       819 9.49056E-06 7.63000E-06 0.00000E+00
 -1       820 8.52618E-06 8.89567E-06 3.30872E-24
 -1       821 2.35440E-05 1.05421E-05-8.27181E-25
 -1       822 2.33613E-05 1.28985E-05 0.00000E+00
 -1       823 2.31775E-05 1.55016E-05-3.30872E-24
 -1       824 2.29918E-05 1.83221E-05 0.00000E+00
 -1       825 2.28052E-05 2.13307E-05 0.00000E+00
 -1       826 2.26179E-05 2.44978E-05 3.30872E-24
 -1       827 2.24302E-05 2.77938E-05 0.00000E+00
 -1       828 2.22421E-05 3.11891E-05 0.00000E+00
 -1       829 2.20537E-05 3.46538E-05-6.61744E-24
 -1       830 2.18653E-05 3.81583E-05 3.30872E-24
 -1       831 2.16768E-05 4.16726E-05-6.61744E-24
 -1       832 2.14887E-05 4.51671E-05 3.30872E-24
 -1       833 2.13010E-05 4.86118E-05 6.61744E-24
 -1       834 2.11145E-05 5.19770E-05 1.65436E-24
 -1       835 2.09288E-05 5.52330E-05 3.30872E-24
 -1       836 2.13714E-05 8.78820E-06 0.00000E+00
 -1       837 1.85984E-05 9.12609E-06 0.00000E+00
 -1       838 1.56087E-05 9.46340E-06 6.61744E-24
 -1       839 1.26153E-05 9.80005E-06 0.00000E+00
 -1       840 9.83146E-06 1.01368E-05 3.30872E-24
 -1       841 2.29335E-05 1.05450E-05-1.65436E-24
 -1       842 2.20425E-05 1.29094E-05 0.00000E+00
 -1       843 2.10566E-05 1.55247E-05 0.00000E+00
 -1       844 1.99873E-05 1.83597E-05 0.00000E+00
 -1       845 1.88465E-05 2.13835E-05 0.00000E+00
 -1       846 1.76461E-05 2.45648E-05 0.00000E+00
 -1       847 1.63976E-05 2.78727E-05 0.00000E+00
 -1       848 1.51131E-05 3.12761E-05 0.00000E+00
 -1       849 1.38041E-05 3.47438E-05 5.16988E-26
 -1       850 1.24825E-05 3.82449E-05-2.58494E-26
 -1       851 1.11600E-05 4.17482E-05 0.00000E+00
 -1       852 9.84833E-06 4.52227E-05 2.06795E-25
 -1       853 8.55926E-06 4.86372E-05 0.00000E+00
 -1       854 7.30422E-06 5.19605E-05 0.00000E+00
 -1       855 6.09526E-06 5.51618E-05-1.65436E-24
 -1       856 2.06585E-05 6.14757E-05 1.65436E-24
 -1       857 2.05601E-05 6.47676E-05-8.27181E-25
 -1       858 2.04610E-05 6.82036E-05 1.65436E-24
 -1       859 2.03609E-05 7.17607E-05 0.00000E+00
 -1       860 2.02603E-05 7.54157E-05 0.00000E+00
 -1       861 2.01594E-05 7.91455E-05 0.00000E+00
 -1       862 2.00582E-05 8.29271E-05 0.00000E+00
 -1       863 1.99570E-05 8.67373E-05 0.00000E+00
 -1       864 1.98557E-05 9.05528E-05 3.30872E-24
 -1       865 1.97544E-05 9.43505E-05 0.00000E+00
 -1       866 1.96534E-05 9.81073E-05 3.30872E-24
 -1       867 1.95526E-05 1.01800E-04 0.00000E+00
 -1       868 1.94522E-05 1.05406E-04 3.30872E-24
 -1       869 1.93524E-05 1.08901E-04 0.00000E+00
 -1       870 1.92533E-05 1.12263E-04 0.00000E+00
 -1       871 1.79702E-05 5.83288E-05 0.00000E+00
 -1       872 1.53397E-05 5.83061E-05 0.00000E+00
 -1       873 1.27914E-05 5.82833E-05 0.00000E+00
 -1       874 1.02552E-05 5.82600E-05-2.06795E-25
 -1       875 7.66132E-06 5.82361E-05-4.13590E-25
 -1       876 1.97308E-05 6.15057E-05 3.30872E-24
 -1       877 1.86659E-05 6.47958E-05 0.00000E+00
 -1       878 1.75575E-05 6.82010E-05 0.00000E+00
 -1       879 1.64129E-05 7.17043E-05 0.00000E+00
 -1       880 1.52379E-05 7.52880E-05 0.00000E+00
 -1       881 1.40393E-05 7.89347E-05 0.00000E+00
 -1       882 1.28233E-05 8.26272E-05 0.00000E+00
 -1       883 1.15967E-05 8.63481E-05-1.65436E-24
 -1       884 1.03657E-05 9.00802E-05 0.00000E+00
 -1       885 9.13706E-06 9.38062E-05-1.65436E-24
 -1       886 7.91717E-06 9.75089E-05 3.30872E-24
 -1       887 6.71254E-06 1.01171E-04 0.00000E+00
 -1       888 5.52959E-06 1.04775E-04-3.30872E-24
 -1       889 4.37423E-06 1.08303E-04-1.65436E-24
 -1       890 3.25368E-06 1.11739E-04-1.65436E-24
 -1       891 1.62189E-05 1.15401E-04 3.30872E-24
 -1       892 1.34399E-05 1.15333E-04 0.00000E+00
 -1       893 1.07328E-05 1.15265E-04 0.00000E+00
 -1       894 8.00993E-06 1.15197E-04 8.27181E-25
 -1       895 5.18368E-06 1.15129E-04 1.65436E-24
 -1       896 2.64102E-07 9.34107E-07-6.61744E-24
 -1       897 5.30141E-07 1.63310E-06-3.30872E-24
 -1       898 7.96388E-07 2.12451E-06-6.61744E-24
 -1       899 1.06292E-06 2.43620E-06 0.00000E+00
 -1       900 1.32955E-06 2.59584E-06-6.61744E-24
 -1       901 1.59623E-06 2.63098E-06 0.00000E+00
 -1       902 1.86292E-06 2.56905E-06 0.00000E+00
 -1       903 2.12960E-06 2.43741E-06 0.00000E+00
 -1       904 2.39627E-06 2.26335E-06 0.00000E+00
 -1       905 2.66288E-06 2.07412E-06 0.00000E+00
 -1       906 2.92941E-06 1.89696E-06 6.61744E-24
 -1       907 3.19574E-06 1.75913E-06-3.30872E-24
 -1       908 3.46177E-06 1.68791E-06-6.61744E-24
 -1       909 3.72667E-06 1.71064E-06 3.30872E-24
 -1       910 3.99114E-06 1.85475E-06-6.61744E-24
 -1       911 4.30721E-06 2.42977E-06 1.65436E-24
 -1       912 4.36844E-06 2.53698E-06 0.00000E+00
 -1       913 4.42969E-06 2.49344E-06 0.00000E+00
 -1       914 4.49097E-06 2.32388E-06-8.27181E-25
 -1       915 4.55224E-06 2.05296E-06 1.65436E-24
 -1       916 4.61350E-06 1.70536E-06 0.00000E+00
 -1       917 4.67474E-06 1.30573E-06 1.65436E-24
 -1       918 4.73596E-06 8.78686E-07-8.27181E-25
 -1       919 4.79716E-06 4.48878E-07 0.00000E+00
 -1       920 4.85832E-06 4.09373E-08-8.27181E-25
 -1       921 4.91942E-06-3.20509E-07 1.65436E-24
 -1       922 4.98036E-06-6.10809E-07 0.00000E+00
 -1       923 5.04105E-06-8.05304E-07 0.00000E+00
 -1       924 5.10075E-06-8.79331E-07 0.00000E+00
 -1       925 5.16006E-06-8.08157E-07 4.13590E-25
 -1       926 4.89471E-06-3.26119E-07 0.00000E+00
 -1       927 4.56973E-06-2.45922E-07 0.00000E+00
 -1       928 4.24436E-06-2.98753E-07 0.00000E+00
 -1       929 3.91793E-06-4.55934E-07-6.61744E-24
 -1       930 3.59121E-06-6.88742E-07 0.00000E+00
 -1       931 3.26429E-06-9.68339E-07 0.00000E+00
 -1       932 2.93728E-06-1.26585E-06 1.32349E-23
 -1       933 2.61024E-06-1.55238E-06-6.61744E-24
 -1       934 2.28319E-06-1.79903E-06 0.00000E+00
 -1       935 1.95616E-06-1.97696E-06-6.61744E-24
 -1       936 1.62918E-06-2.05740E-06 1.32349E-23
 -1       937 1.30227E-06-2.01170E-06-6.61744E-24
 -1       938 9.75464E-07-1.81130E-06 0.00000E+00
 -1       939 6.49061E-07-1.42789E-06 3.30872E-24
 -1       940 3.22728E-07-8.33252E-07 0.00000E+00
 -1       941 4.34519E-07 8.45787E-07 0.00000E+00
 -1       942 9.00114E-07 1.49596E-06 0.00000E+00
 -1       943 1.36724E-06 1.98698E-06 0.00000E+00
 -1       944 1.83821E-06 2.35546E-06 6.61744E-24
 -1       945 2.31018E-06 2.63783E-06 1.32349E-23
 -1       946 2.78289E-06 2.87039E-06 0.00000E+00
 -1       947 3.25586E-06 3.08935E-06 1.32349E-23
 -1       948 3.72896E-06 3.33090E-06 0.00000E+00
 -1       949 4.20206E-06 3.63128E-06 0.00000E+00
 -1       950 4.67505E-06 4.02682E-06 6.61744E-24
 -1       951 5.14778E-06 4.55397E-06-1.32349E-23
 -1       952 5.61989E-06 5.24943E-06 6.61744E-24
 -1       953 6.09111E-06 6.15013E-06-1.32349E-23
 -1       954 6.55929E-06 7.29332E-06 0.00000E+00
 -1       955 7.02605E-06 8.71667E-06 0.00000E+00
 -1       956 7.31860E-06 1.25601E-05-2.48154E-24
 -1       957 7.16283E-06 1.48879E-05 1.24077E-24
 -1       958 7.00587E-06 1.74189E-05-1.65436E-24
 -1       959 6.84800E-06 2.01300E-05-8.27181E-25
 -1       960 6.68954E-06 2.29980E-05-3.30872E-24
 -1       961 6.53063E-06 2.59994E-05 0.00000E+00
 -1       962 6.37137E-06 2.91111E-05 0.00000E+00
 -1       963 6.21183E-06 3.23094E-05 1.65436E-24
 -1       964 6.05210E-06 3.55711E-05 0.00000E+00
 -1       965 5.89225E-06 3.88727E-05 0.00000E+00
 -1       966 5.73238E-06 4.21907E-05 6.61744E-24
 -1       967 5.57259E-06 4.55018E-05-3.30872E-24
 -1       968 5.41300E-06 4.87824E-05 6.61744E-24
 -1       969 5.25391E-06 5.20093E-05-3.30872E-24
 -1       970 5.09554E-06 5.51590E-05 0.00000E+00
 -1       971 4.77204E-06 6.12603E-05 0.00000E+00
 -1       972 4.59953E-06 6.44803E-05 1.65436E-24
 -1       973 4.42640E-06 6.78475E-05 0.00000E+00
 -1       974 4.25242E-06 7.13401E-05-1.65436E-24
 -1       975 4.07798E-06 7.49363E-05-3.30872E-24
 -1       976 3.90318E-06 7.86142E-05 0.00000E+00
 -1       977 3.72813E-06 8.23520E-05-6.61744E-24
 -1       978 3.55294E-06 8.61277E-05 0.00000E+00
 -1       979 3.37769E-06 8.99192E-05-6.61744E-24
 -1       980 3.20250E-06 9.37048E-05 0.00000E+00
 -1       981 3.02746E-06 9.74623E-05 0.00000E+00
 -1       982 2.85274E-06 1.01170E-04 0.00000E+00
 -1       983 2.67847E-06 1.04805E-04 0.00000E+00
 -1       984 2.50528E-06 1.08347E-04 0.00000E+00
 -1       985 2.33276E-06 1.11773E-04-3.30872E-24
 -3
    1PSTEP                         2           1           1          
  100CL  101 1.000000000         841                     0    1           1
 -4  STRESS      6    1
 -5  SXX         1    4    1    1
 -5  SYY         1    4    2    2
 -5  SZZ         1    4    3    3
 -5  SXY         1    4    1    2
 -5  SYZ         1    4    2    3
 -5  SZX         1    4    3    1
 -1         1-1.61659E+06-4.92794E+05-8.64648E+04-6.69987E+05-9.82254E-11 8.05206E-10
 -1         2-9.57957E+05 1.95919E+04 1.72562E+03-1.50871E+05-1.08230E-10-3.63798E-10
 -1         3-3.36575E+05-8.78884E+04 4.45612E+02-7.50102E+04 5.51381E-11 1.42336E-10
 -1         4-5.35244E+04-1.70839E+04 1.23199E+02-2.11763E+04-2.16005E-12 2.39697E-09
 -1         5 5.27172E+04 6.57057E+05-6.19157E+04-1.90949E+03 6.80302E-10 5.34101E-10
 -1         8-2.98087E+05-2.91454E+05 2.94550E+03-4.94763E+05 1.54614E-10 1.93540E-09
 -1         9-6.67793E+05-8.49160E+04-2.68301E+04-3.96639E+05 2.42532E-10 3.63798E-12
 -1        10-3.61615E+05-1.56390E+05 7.78349E+02-2.37690E+05-9.55424E-10 1.02167E-09
 -1        11-8.45921E+04-5.12733E+04 1.71084E+02-1.14991E+05 4.22384E-10-3.39393E-10
 -1        12 7.53365E+04 6.60322E+05-5.81260E+04 2.43742E+04 1.13164E-09-5.47882E-09
 -1        15 1.84403E+04 2.81853E+02 1.13686E+03-1.57557E+05-5.09317E-11 1.15870E-09
 -1        16-2.95188E+05-8.62310E+04-1.53644E+04-3.49423E+05-2.93160E-10 7.22745E-10
 -1        17-2.52951E+05-1.50510E+05 1.65865E+04-3.61996E+05 2.91645E-10 3.01467E-09
 -1        18-4.22339E+04-6.25615E+04-9.09804E+03-2.69031E+05 4.49897E-10 1.01985E-09
 -1        19 2.21186E+05 3.67578E+05-2.31004E+04 2.09061E+03-1.56615E-09 2.81337E-10
 -1        20 1.17089E+05-6.54161E+04-9.93622E+03 7.80717E+04 1.83604E-09-4.00632E-10
 -1        21-1.50365E+04-1.47238E+05-6.37016E+02 1.01400E+04 3.06154E-08-3.83247E-09
 -1        22 2.89528E+04 1.72652E+05 5.32706E+02-9.65089E+04 4.68390E-11-1.30422E-09
 -1        23-1.47935E+05-5.28319E+03 9.11209E+02-1.98371E+05 4.26553E-10-9.60426E-10
 -1        24-2.74970E+05-4.92802E+04 4.31195E+04-3.39325E+05-1.38243E-10-2.13913E-09
 -1        25 3.48016E+03-5.21461E+03 5.95013E+04-3.54552E+05-1.98997E-09-8.34310E-10
 -1        26-1.23396E+04 2.62075E+05 1.06563E+04-1.11142E+05-2.00809E-10-2.05739E-09
 -1        27-1.37808E+04-4.31025E+04-1.77552E+04 1.20285E+05 1.88235E-09-5.68070E-09
 -1        28-4.80060E+03-1.03383E+05-6.31082E+02 5.82131E+04 1.12350E-08-5.50756E-09
 -1        29 3.69620E+05 2.83265E+05 9.28632E+02-6.42579E+04 1.25567E-10 3.63798E-11
 -1        30 1.25983E+05 3.23511E+04 7.40182E+02-9.27219E+04 5.48461E-10-2.20098E-10
 -1        31-3.82935E+05 2.36010E+04 1.53697E+03-1.34633E+05-3.39782E-11 1.81899E-10
 -1        32-2.77842E+05-8.18274E+03 7.92449E+04-3.40608E+05-2.35602E-10 1.22418E-09
 -1        33 4.02913E+04 2.18452E+05 8.22207E+04-1.57258E+05 1.19343E-09-3.74712E-10
 -1        34-2.24985E+05-2.11257E+04-1.44379E+01 7.14876E+04 2.59475E-09-4.32647E-09
 -1        35-3.96925E+04-3.55483E+04-5.01143E+02 8.34180E+04 1.91566E-08 5.97841E-10
 -1        36-2.18177E+06 9.41864E+02-4.73001E+04-1.20963E-10-8.95431E-10-1.34787E-09
 -1        37-2.19560E+06-8.89458E+03-2.76630E+04-3.41515E-10 5.47905E-10-2.69256E-09
 -1        38-2.18792E+06 1.85012E+02-1.19729E+04-8.27305E-09 8.66183E-10 8.44466E-10
 -1        39-2.18893E+06-5.02987E+02-6.32938E+03 8.47993E-09-1.60918E-10 4.14548E-09
 -1        40-2.18840E+06 4.45409E+01-3.09149E+03 3.92535E-09-1.16702E-09 4.33567E-09
 -1        41-2.18838E+06-2.28678E+01-1.75474E+03-1.52825E-08 5.32952E-10-2.47209E-09
 -1        42-2.18846E+06 1.69713E+01-1.19922E+03 1.19191E-09 1.01536E-09-1.22640E-11
 -1        43-2.18835E+06 3.04676E-01-1.31506E+03-8.67213E-09-2.03551E-11-2.66476E-09
 -1        44-2.18844E+06 2.88121E+01-2.03348E+03-4.51675E-09-4.74442E-10-3.99018E-09
 -1        45-2.18851E+06-5.91563E+01-3.89781E+03 6.84130E-09-1.27336E-10-1.56962E-09
 -1        46-2.18830E+06 1.07989E+02-7.48916E+03-6.10714E-09-4.40115E-11-8.67203E-10
 -1        47-2.18989E+06-1.25808E+03-1.57021E+04 5.65592E-09 2.67483E-10-3.30397E-09
 -1        48-2.18708E+06 4.61820E+02-2.98713E+04 1.50907E-08-2.60382E-10 6.07542E-10
 -1        49-2.20657E+06-2.22362E+04-6.91257E+04 1.77752E-08-4.97020E-11 4.46653E-09
 -1        50-2.17170E+06 2.36181E+03-1.18205E+05-5.63159E-09-2.28908E-10 9.60426E-10
 -1        51 3.33591E+04-6.21792E+05 1.05736E+05-8.30010E+05-2.61934E-10 3.89991E-09
 -1        52 1.81682E+04-6.04901E+05 5.59111E+04-1.04232E+06 3.78350E-10-1.99361E-09
 -1        53 6.22941E+03-6.23522E+05 2.45552E+04-8.27049E+05-1.52795E-10 1.78261E-09
 -1        54 1.01265E+04-6.26388E+05 1.19335E+04-1.04467E+06-8.14907E-10 1.76078E-09
 -1        55 7.38471E+03-6.26253E+05 3.59873E+03-8.27495E+05 4.00178E-11-1.14005E-09
 -1        56-2.81819E+06-3.98798E+05-1.39873E+05-1.07295E+06 3.01952E-10 3.31784E-09
 -1        57-2.85437E+06-4.46704E+05-8.05592E+04-1.08486E+06 6.65750E-10 2.70211E-09
 -1        58-2.83667E+06-4.07834E+05-3.23837E+04-1.07699E+06 7.09406E-11-3.36877E-09
 -1        59-2.83179E+06-4.19196E+05-1.65789E+04-1.08702E+06-1.92574E-09-7.16614E-09
 -1        60-2.83816E+06-4.08724E+05-7.50331E+03-1.07732E+06-1.48702E-10-4.68765E-09
 -1        61-2.83004E+06-4.17295E+05-3.93018E+03-1.08685E+06 1.12868E-09 3.49178E-09
 -1        62-2.83823E+06-4.08924E+05-2.30532E+03-1.07743E+06 1.12323E-10 2.58547E-09
 -1        63-2.83007E+06-4.16990E+05-2.18204E+03-1.08657E+06-3.03771E-10-3.22871E-09
 -1        64-2.83807E+06-4.09053E+05-3.19722E+03-1.07756E+06-1.01863E-10-1.37516E-09
 -1        65-2.83066E+06-4.16896E+05-6.29986E+03-1.08625E+06 1.70076E-10 1.25328E-09
 -1        66-2.83758E+06-4.09053E+05-1.25215E+04-1.07770E+06-9.34961E-10-2.28283E-10
 -1        67-2.83413E+06-4.19541E+05-2.79175E+04-1.08581E+06 4.54293E-10 1.12777E-10
 -1        68-2.83474E+06-4.07855E+05-5.46547E+04-1.07744E+06 6.27779E-10 2.52476E-09
 -1        69-2.87278E+06-4.65414E+05-1.35990E+05-1.08147E+06-1.79136E-09 8.58199E-09
 -1        70-2.80323E+06-3.92856E+05-2.36076E+05-1.07089E+06-9.93168E-10 1.39698E-09
 -1        71-7.54468E+05-3.64541E+02 1.86956E+04-1.31140E-08-5.55600E-10 1.35060E-09
 -1        72-7.48858E+05 3.51113E+03 1.09257E+04-2.15755E-09 4.80681E-10 7.83234E-09
 -1        73-7.52034E+05-7.24967E+01 4.71735E+03 6.23831E-09 3.82237E-10 2.72826E-09
 -1        74-7.51492E+05 1.98553E+02 2.46609E+03-2.24316E-08-6.59675E-10-1.67802E-10
 -1        75-7.51840E+05-1.65450E+01 1.14865E+03-1.82169E-08-1.33297E-10-7.88646E-10
 -1        76-7.51711E+05 9.61847E+00 5.41454E+02 1.87445E-09 5.99818E-10 1.00572E-09
 -1        77-7.51815E+05-2.45062E+00 1.72555E+02 1.63002E-08-4.25187E-10-3.84148E-10
 -1        78-7.51749E+05 2.63425E-02-9.75348E+01 3.41642E-08-6.67431E-10-5.04665E-09
 -1        79-7.51804E+05 5.84475E+00-4.12270E+02 5.02910E-09 5.15956E-10 2.38475E-09
 -1        80-7.51801E+05-1.56577E+01-9.60389E+02-1.63765E-08 6.62768E-11 5.86155E-10
 -1        81-7.51764E+05 2.78296E+01-1.93253E+03 4.50069E-09 1.68092E-11-2.75725E-09
 -1        82-7.52162E+05-3.28549E+02-4.09745E+03 1.42404E-09-9.27855E-10-1.35498E-09
 -1        83-7.51444E+05 1.20129E+02-7.81494E+03-1.17623E-10 8.55840E-11 2.40607E-09
 -1        84-7.56521E+05-5.81115E+03-1.80863E+04 2.30320E-08 9.28592E-10 8.57199E-11
 -1        85-7.47413E+05 6.04734E+02-3.09384E+04 2.47501E-08-2.67874E-10 5.02223E-09
 -1        86-3.19634E+03 5.74087E+05 1.52112E+05-8.96375E+04 5.89353E-10 1.20781E-09
 -1        87 2.89993E+04 6.19116E+05 1.00034E+05-1.62938E+05-8.73115E-11 4.02997E-09
 -1        88-8.48822E+02 5.91482E+05 6.53618E+04-8.92376E+04 1.13505E-09 2.99224E-09
 -1        89 2.38452E+04 6.13961E+05 8.58122E+04-1.63241E+05 2.59206E-10 1.20781E-09
 -1        90-1.96756E+03 5.77710E+05 1.22680E+05-8.92894E+04 1.20781E-09-4.38013E-09
 -1        91-1.23118E+06-1.76208E+05-4.21129E+04-4.69606E+05-6.43013E-10-3.91083E-09
 -1        92-1.24008E+06-1.92539E+05-2.42484E+04-4.75430E+05-2.02772E-09 1.74396E-10
 -1        93-1.23676E+06-1.78890E+05-9.75794E+03-4.70814E+05-3.52998E-10-1.47702E-09
 -1        94-1.23327E+06-1.84301E+05-4.99874E+03-4.76113E+05 9.59517E-11-2.28556E-09
 -1        95-1.23723E+06-1.79147E+05-2.26833E+03-4.70904E+05 2.41812E-10-4.75566E-10
 -1        96-1.23272E+06-1.83751E+05-1.19804E+03-4.76089E+05-2.46416E-09-5.84919E-09
 -1        97-1.23726E+06-1.79193E+05-7.20228E+02-4.70925E+05 1.33400E-09 3.16822E-09
 -1        98-1.23271E+06-1.83686E+05-7.12555E+02-4.76037E+05-6.61203E-10 7.30495E-10
 -1        99-1.23723E+06-1.79215E+05-1.07432E+03-4.70949E+05 2.09866E-10-3.84034E-10
 -1       100-1.23287E+06-1.83696E+05-2.13897E+03-4.75982E+05 6.38465E-10 1.29944E-10
 -1       101-1.23708E+06-1.79189E+05-4.25987E+03-4.70969E+05-8.87667E-10 3.67891E-10
 -1       102-1.23400E+06-1.84644E+05-9.49958E+03-4.75893E+05 1.40449E-09 2.92130E-09
 -1       103-1.23614E+06-1.78755E+05-1.85942E+04-4.70846E+05-5.97765E-10-2.17551E-09
 -1       104-1.24709E+06-2.00244E+05-4.62276E+04-4.74456E+05 1.07411E-09-1.14596E-09
 -1       105-1.22542E+06-1.73699E+05-8.02870E+04-4.68603E+05-8.70386E-10 2.07729E-09
 -1       106-1.35047E+05-5.45249E+02 2.81810E+04-1.47338E-10 2.56793E-10 2.84126E-09
 -1       107-1.26679E+05 5.28930E+03 1.64728E+04 4.89558E-09 5.12808E-10-3.43221E-09
 -1       108-1.31374E+05-1.09164E+02 7.12204E+03 3.81193E-09-8.07930E-10 3.56067E-10
 -1       109-1.30646E+05 2.98887E+02 3.73849E+03 7.29381E-09-9.69866E-11-3.97387E-09
 -1       110-1.31083E+05-2.54954E+01 1.77199E+03 1.06670E-08 5.32050E-10-1.56695E-09
 -1       111-1.30974E+05 1.41414E+01 8.97682E+02 1.35875E-09 5.71505E-10 1.04188E-09
 -1       112-1.31047E+05-5.94982E+00 4.20009E+02 1.25195E-08-2.62980E-10-1.53673E-09
 -1       113-1.31018E+05-5.03357E-02 1.79314E+02-2.42415E-09-2.47735E-10 2.59405E-09
 -1       114-1.31039E+05-2.86604E-01 2.06651E+01-3.70002E-09-1.41328E-10 2.92316E-09
 -1       115-1.31035E+05-3.07193E+00-1.27717E+02 4.70336E-09-9.98058E-10-6.93809E-10
 -1       116-1.31030E+05 4.77739E+00-3.31492E+02-3.68160E-10-4.25565E-11 1.69058E-09
 -1       117-1.31103E+05-6.03976E+01-7.41373E+02-1.29833E-09 1.09939E-09 3.98272E-09
 -1       118-1.30971E+05 2.19510E+01-1.43113E+03 2.15451E-09 9.01830E-11-4.37808E-10
 -1       119-1.31904E+05-1.06766E+03-3.32193E+03-4.62620E-09 3.12237E-10-5.05679E-10
 -1       120-1.30229E+05 1.10220E+02-5.68640E+03 8.41248E-09 4.06043E-10 3.73188E-09
 -1       121-4.60309E+02-2.36135E+05 1.96330E+04-6.05082E+04-1.12777E-10 4.09273E-10
 -1       122 3.85578E+03-2.30339E+05 1.41661E+04-1.10627E+05-5.79348E-10 2.72166E-09
 -1       123-9.75218E+01-2.34212E+05 1.14400E+04-6.02146E+04-3.91537E-10-2.55659E-09
 -1       124 5.58642E+03-2.29274E+05 1.83751E+04-1.10847E+05-8.33097E-10-3.70255E-09
 -1       125-4.34316E+02-2.37655E+05 2.84304E+04-6.02839E+04-5.91172E-10-1.40449E-09
 -1       126-5.05583E+05-7.52286E+04-1.40997E+04-1.96372E+05-3.41856E-10-6.28006E-09
 -1       127-5.05928E+05-8.33128E+04-8.11821E+03-2.01330E+05-2.89617E-10-9.08472E-10
 -1       128-5.07474E+05-7.61055E+04-3.27001E+03-1.96760E+05 4.69811E-10 5.90717E-10
 -1       129-5.03632E+05-8.05759E+04-1.67809E+03-2.01582E+05 4.38263E-11 2.72635E-10
 -1       130-5.07632E+05-7.61882E+04-7.68073E+02-1.96788E+05 8.48416E-10 3.68885E-09
 -1       131-5.03448E+05-8.03960E+04-4.18807E+02-2.01579E+05-2.80372E-09 5.61215E-10
 -1       132-5.07643E+05-7.62023E+04-2.77317E+02-1.96793E+05 6.70752E-11-2.17551E-09
 -1       133-5.03444E+05-8.03781E+04-3.16254E+02-2.01564E+05-1.57343E-10-2.82813E-09
 -1       134-5.07627E+05-7.62080E+04-5.18737E+02-1.96799E+05-1.79170E-10 4.10864E-10
 -1       135-5.03513E+05-8.03942E+04-1.06102E+03-2.01546E+05-7.69887E-10-1.74168E-10
 -1       136-5.07560E+05-7.61914E+04-2.12698E+03-1.96801E+05-9.65429E-10-2.62980E-09
 -1       137-5.04061E+05-8.08796E+04-4.74741E+03-2.01512E+05 2.54545E-09-5.90717E-10
 -1       138-5.07092E+05-7.59703E+04-9.29610E+03-1.96730E+05-4.91582E-10-3.73802E-10
 -1       139-5.10601E+05-8.86632E+04-2.31011E+04-2.00781E+05-5.97538E-10 5.21368E-09
 -1       140-5.01711E+05-7.34692E+04-4.01264E+04-1.95621E+05 1.48134E-10 1.76624E-09
 -1       141-6.96456E+03-1.20023E+02 6.20453E+03-4.09409E-09 9.02014E-11-6.02768E-10
 -1       142-5.12285E+03 1.16537E+03 3.61860E+03-1.60384E-08 4.21602E-10 1.11004E-09
 -1       143-6.15448E+03-2.37264E+01 1.54647E+03-6.55594E-09 5.77729E-11 3.46455E-09
 -1       144-5.99858E+03 6.60807E+01 7.76604E+02-1.87167E-09 8.37200E-10 1.30717E-09
 -1       145-6.08890E+03-4.30163E+00 2.97145E+02 9.66165E-09-6.80651E-10 1.87248E-09
 -1       146-6.07733E+03 3.89118E+00 7.18039E+00 8.39075E-09 2.63591E-10 2.04989E-09
 -1       147-6.07573E+03 3.99242E+00-2.83309E+02-5.47138E-09 2.14551E-10 1.33545E-09
 -1       148-6.11512E+03 2.07319E-01-7.28669E+02-1.56885E-08-1.01505E-09-3.53154E-10
 -1       149-6.05111E+03 2.13517E+01-1.50739E+03-6.28041E-09-1.84554E-10 1.39227E-09
 -1       150-6.26364E+03-4.88473E+01-3.13584E+03-5.39359E-10 5.82132E-10 3.53793E-10
 -1       151-5.92718E+03 8.84908E+01-6.15010E+03-1.27531E-08 2.55059E-10 1.14869E-09
 -1       152-7.39791E+03-1.03488E+03-1.29539E+04 5.07680E-09-6.92345E-10-7.50333E-11
 -1       153-4.91609E+03 3.78181E+02-2.46656E+04 3.54595E-09 7.20748E-11-7.75799E-10
 -1       154-2.11347E+04-1.83147E+04-5.70449E+04 7.71797E-09 9.50753E-11-3.84171E-09
 -1       155 7.82497E+03 1.89624E+03-9.75447E+04-6.75391E-09 6.98695E-10 5.31145E-10
 -1       156-7.81635E+01-5.09628E+04 2.32194E+03-2.87581E+04 3.38332E-10 1.55978E-09
 -1       157 4.77266E+02-5.02712E+04 2.16653E+03-5.24666E+04 4.48836E-10-3.44016E-09
 -1       158-2.34504E+01-5.08516E+04 2.53308E+03-2.86003E+04 8.58790E-10-2.69210E-09
 -1       159 1.62812E+03-4.94679E+04 5.04636E+03-5.26171E+04 7.12589E-10 3.01952E-09
 -1       160-1.24063E+02-5.19308E+04 8.32530E+03-2.86067E+04 1.08685E-09 2.30489E-09
 -1       161-8.19907E+04-1.28538E+04-2.15935E+03-3.27058E+04 3.72779E-10 3.66697E-10
 -1       162-8.14310E+04-1.47033E+04-1.24820E+03-3.41658E+04-6.58758E-10 2.95938E-09
 -1       163-8.22711E+04-1.29962E+04-5.13415E+02-3.27740E+04-5.85828E-10-1.25283E-10
 -1       164-8.10886E+04-1.42759E+04-2.84978E+02-3.41934E+04 1.86446E-11-1.77920E-09
 -1       165-8.22935E+04-1.30100E+04-1.75954E+02-3.27792E+04-1.88152E-09-8.16118E-09
 -1       166-8.10656E+04-1.42474E+04-1.88701E+02-3.41920E+04 1.51675E-09-2.64436E-10
 -1       167-8.22895E+04-1.30098E+04-2.99093E+02-3.27799E+04 3.14753E-09 1.19118E-08
 -1       168-8.10878E+04-1.42504E+04-6.00165E+02-3.41962E+04 5.41718E-10 2.83734E-09
 -1       169-8.22666E+04-1.29963E+04-1.21147E+03-3.27777E+04 2.22826E-10-5.73323E-10
 -1       170-8.12381E+04-1.43344E+04-2.62019E+03-3.42208E+04 1.55376E-09 4.63842E-10
 -1       171-8.21342E+04-1.29146E+04-5.31536E+03-3.27581E+04 1.78147E-10-1.32786E-09
 -1       172-8.25678E+04-1.56145E+04-1.19067E+04-3.42341E+04-6.06349E-10 4.16480E-09
 -1       173-8.10160E+04-1.23070E+04-2.33205E+04-3.25410E+04 3.69027E-10-9.73159E-10
 -1       174-9.88022E+04-3.53301E+04-5.79669E+04-3.26513E+04-2.23281E-09-4.78849E-09
 -1       175-6.76701E+04-5.85865E+03-1.00655E+05-2.95778E+04-9.85892E-10-7.67614E-10
 -1       191 1.82067E+04 1.56031E+06 5.76281E+04-3.46567E+03 1.78261E-10 3.00315E-09
 -1       192 7.16878E+03 1.57252E+06 3.49094E+04-3.93307E+03 1.50067E-11 1.69484E-09
 -1       193 8.22897E+02 1.56516E+06 2.54224E+04-3.32008E+03 4.84221E-10-4.06635E-09
 -1       194 7.08570E+03 1.57244E+06 3.46259E+04-4.20551E+03-5.49790E-10-2.91038E-10
 -1       195 1.79804E+04 1.56038E+06 5.69633E+04-3.17285E+03 7.23958E-10 8.51287E-10
 -1       251 4.26533E+05-3.71309E+03 9.90086E+04-8.47328E+04 4.32919E-10-2.11003E-10
 -1       252 4.57079E+05 1.73764E+04 5.81407E+04-1.54312E+05 5.23869E-10-5.71163E-10
 -1       253 4.38528E+05-1.30040E+03 2.49370E+04-8.40612E+04-2.54659E-11 2.19006E-09
 -1       254 4.41311E+05 5.41779E+02 1.32528E+04-1.54840E+05 5.47516E-10-2.26964E-09
 -1       255 4.38819E+05-3.84649E+02 6.28395E+03-8.41517E+04-6.33008E-10-3.48336E-09
 -1       256 4.39025E+05 1.07280E+02 3.42576E+03-1.54689E+05 4.84761E-10 1.94632E-10
 -1       257 4.38496E+05 5.11149E+01 1.94907E+03-8.42185E+04 6.07542E-10-9.87711E-10
 -1       258 4.38339E+05 3.45219E+02 1.62516E+03-1.54597E+05-6.33008E-10-1.45792E-09
 -1       259 4.38346E+05 1.75450E+02 1.99259E+03-8.42435E+04-1.38112E-09 2.44654E-10
 -1       260 4.38458E+05 3.97003E+02 3.47673E+03-1.54595E+05 3.25144E-10 5.51336E-09
 -1       261 4.38369E+05-1.12241E+01 6.44992E+03-8.42198E+04 1.55705E-09 1.29285E-09
 -1       262 4.40183E+05 1.13420E+03 1.34485E+04-1.54659E+05-6.62112E-10-1.54364E-09
 -1       263 4.37764E+05-6.77598E+02 2.54116E+04-8.41783E+04-4.91127E-10 1.89357E-09
 -1       264 4.55528E+05 1.84576E+04 5.89303E+04-1.54213E+05-7.40329E-10 1.04319E-09
 -1       265 4.25319E+05-2.84461E+03 1.00540E+05-8.46995E+04-1.41881E-10 3.15049E-09
 -1       266-3.41441E+02-1.62197E+05 4.23116E+04-6.83027E+04 6.91216E-11-6.39375E-10
 -1       267 8.75274E+03-1.49795E+05 2.31288E+04-1.26355E+05 1.84627E-10-3.89628E-09
 -1       268 1.46660E+02-1.56133E+05 6.68771E+03-6.84200E+04 2.44881E-10-2.30102E-09
 -1       269-2.05024E+03-1.57391E+05-3.94545E+03-1.25776E+05 4.04270E-10 1.36970E-09
 -1       270 1.31267E+02-1.53146E+05-1.41222E+04-6.89184E+04-9.82254E-11 4.39104E-09
 -1       271-1.72705E+06-2.87403E+05-1.29414E+05-7.16708E+05 2.51930E-10 2.40107E-09
 -1       272-1.72878E+06-3.61895E+05-7.43201E+04-7.62778E+05-8.65839E-10-3.25417E-09
 -1       273-1.74547E+06-2.94371E+05-3.00790E+04-7.19885E+05-3.52884E-10-3.06500E-09
 -1       274-1.70768E+06-3.37582E+05-1.52877E+04-7.66941E+05 8.80391E-10-2.47837E-10
 -1       275-1.74769E+06-2.94421E+05-6.97350E+03-7.20020E+05-1.14596E-09-3.37877E-09
 -1       276-1.70607E+06-3.36308E+05-3.53798E+03-7.68092E+05-4.97494E-10-1.30581E-09
 -1       277-1.74834E+06-2.94073E+05-1.97226E+03-7.19968E+05 1.05501E-09-7.45388E-10
 -1       278-1.70598E+06-3.36388E+05-1.63918E+03-7.68670E+05-7.11225E-10 4.15264E-09
 -1       279-1.74850E+06-2.93908E+05-2.19627E+03-7.19943E+05-4.07454E-10 5.02041E-10
 -1       280-1.70619E+06-3.36522E+05-4.19777E+03-7.68730E+05 4.44743E-10 4.71118E-10
 -1       281-1.74816E+06-2.93913E+05-8.30287E+03-7.19934E+05-2.00089E-11 1.23418E-09
 -1       282-1.70821E+06-3.38338E+05-1.84590E+04-7.68199E+05-1.81899E-11-1.12050E-09
 -1       283-1.74598E+06-2.93402E+05-3.62006E+04-7.19687E+05 4.14730E-10 1.01863E-10
 -1       284-1.73359E+06-3.68282E+05-8.98485E+04-7.64317E+05 3.52884E-10 1.14960E-09
 -1       285-1.72435E+06-2.84303E+05-1.56206E+05-7.15552E+05-1.48248E-10 2.53931E-09
 -1       286 7.86325E+03-1.65748E+03 6.04840E+04-4.49868E+04 1.58252E-09-9.69521E-10
 -1       287 2.61269E+04 1.10450E+04 3.54315E+04-8.15260E+04 8.36735E-11-3.78350E-09
 -1       288 1.54918E+04-4.75483E+02 1.52674E+04-4.45569E+04 4.23825E-10-3.16959E-09
 -1       289 1.71009E+04 5.28681E+02 8.07051E+03-8.19505E+04-1.22782E-10 1.37879E-09
 -1       290 1.59114E+04-1.21815E+02 3.84753E+03-4.45436E+04 4.71118E-10 3.48518E-09
 -1       291 1.60805E+04 7.63526E+01 2.06116E+03-8.19634E+04 1.61435E-10 3.48155E-09
 -1       292 1.58604E+04 2.22112E+01 1.14960E+03-4.45451E+04 4.50200E-10 2.17187E-09
 -1       293 1.58449E+04 1.27120E+02 9.00087E+02-8.19622E+04 1.69257E-09 7.95808E-10
 -1       294 1.58208E+04 5.86952E+01 1.04772E+03-4.45449E+04 5.48994E-10-3.15754E-09
 -1       295 1.59042E+04 1.52683E+02 1.78252E+03-8.19624E+04 1.70803E-09-4.90536E-09
 -1       296 1.58007E+04-8.70596E+00 3.29306E+03-4.45448E+04 3.27418E-10 2.47519E-09
 -1       297 1.66558E+04 5.91491E+02 6.84549E+03-8.19510E+04 1.72076E-09 3.29993E-09
 -1       298 1.53946E+04-2.64729E+02 1.29564E+04-4.45558E+04 4.60204E-10-1.55069E-09
 -1       299 2.42054E+04 9.52971E+03 2.99978E+04-8.16213E+04-5.20231E-10-5.30576E-09
 -1       300 8.90276E+03-1.23166E+03 5.12337E+04-4.48827E+04-4.00178E-10 7.05768E-10
 -1       301 2.67521E+04 1.29223E+05 7.86852E+04-3.32796E+05-8.54925E-10-9.91349E-10
 -1       302 1.21848E+04 1.45116E+05 4.50972E+04-4.18746E+05-3.17777E-09-4.53838E-10
 -1       303 2.79021E+03 1.35445E+05 2.82281E+04-3.32192E+05-1.42427E-09-8.85166E-10
 -1       304 8.28415E+03 1.41842E+05 3.21410E+04-4.18776E+05-3.00497E-09-5.45697E-11
 -1       305 1.62475E+04 1.32381E+05 4.82777E+04-3.32790E+05-1.28784E-09 3.86171E-09
 -1       306-1.94586E+06-2.96007E+05-1.48718E+05-7.72461E+05-1.09139E-10 5.09317E-11
 -1       307-1.96984E+06-3.61015E+05-8.55889E+04-8.01499E+05 4.56566E-09 6.25187E-09
 -1       308-1.96617E+06-3.04937E+05-3.44671E+04-7.76351E+05 1.65710E-09 3.34694E-09
 -1       309-1.94542E+06-3.32502E+05-1.75994E+04-8.04900E+05 7.53062E-10-3.36649E-09
 -1       310-1.96816E+06-3.05502E+05-7.94395E+03-7.76499E+05-1.43791E-09-6.85759E-10
 -1       311-1.94332E+06-3.30877E+05-4.05718E+03-8.05418E+05-1.06957E-09-5.17389E-10
 -1       312-1.96854E+06-3.05436E+05-2.20579E+03-7.76441E+05 3.53339E-10 3.04135E-09
 -1       313-1.94309E+06-3.30872E+05-1.78910E+03-8.05616E+05-8.90736E-10-1.19735E-09
 -1       314-1.96857E+06-3.05400E+05-2.31136E+03-7.76425E+05-4.99085E-11 1.91130E-09
 -1       315-1.94331E+06-3.30958E+05-4.34917E+03-8.05563E+05 2.53658E-09 2.16733E-09
 -1       316-1.96825E+06-3.05387E+05-8.54934E+03-7.76449E+05 1.13414E-09-1.51977E-09
 -1       317-1.94554E+06-3.32806E+05-1.89969E+04-8.05186E+05 4.54747E-11 2.66300E-09
 -1       318-1.96619E+06-3.04686E+05-3.71908E+04-7.76242E+05 2.49202E-10 1.08048E-09
 -1       319-1.97181E+06-3.63751E+05-9.24186E+04-8.01763E+05 2.80124E-10-2.89583E-09
 -1       320-1.94439E+06-2.94901E+05-1.60540E+05-7.71946E+05-3.71074E-10-7.27596E-12
 -1       321 1.64795E+05-1.37562E+03 6.63722E+04-2.16967E+04-8.18545E-12-2.25555E-09
 -1       322 1.84521E+05 1.23923E+04 3.88117E+04-3.94177E+04-8.04903E-10-2.03363E-09
 -1       323 1.73392E+05-3.02368E+02 1.67789E+04-2.15192E+04-1.66438E-10-4.02997E-09
 -1       324 1.75074E+05 6.84074E+02 8.83001E+03-3.95842E+04 4.38376E-10-7.30324E-10
 -1       325 1.74037E+05-7.04040E+01 4.21357E+03-2.15203E+04-5.36602E-11-1.93268E-10
 -1       326 1.74242E+05 4.48514E+01 2.20207E+03-3.95775E+04-1.87356E-10-1.43223E-09
 -1       327 1.74096E+05-6.84344E+00 1.15842E+03-2.15263E+04-3.63798E-12 1.95405E-09
 -1       328 1.74126E+05 2.46669E+01 7.67797E+02-3.95707E+04 3.60387E-10 5.28462E-09
 -1       329 1.74101E+05 2.39343E+00 7.25588E+02-2.15272E+04 3.75167E-12 5.34044E-09
 -1       330 1.74162E+05 3.33602E+01 1.08925E+03-3.95729E+04-8.67885E-10-4.06999E-10
 -1       331 1.74083E+05-2.82770E+01 1.93240E+03-2.15241E+04 6.49834E-10-4.55304E-09
 -1       332 1.74551E+05 3.08709E+02 3.96831E+03-3.95778E+04-4.58840E-10-4.79619E-09
 -1       333 1.73812E+05-1.44801E+02 7.49914E+03-2.15221E+04-4.21096E-10-4.21596E-09
 -1       334 1.78809E+05 5.51643E+03 1.73315E+04-3.94293E+04 5.15229E-10 3.19460E-11
 -1       335 1.69998E+05-6.47501E+02 2.96168E+04-2.16761E+04-1.97360E-10 1.32422E-09
 -1       336-4.33413E+02-2.54420E+05 2.66345E+04-1.98149E+05-7.87622E-10-8.36735E-11
 -1       337 6.73654E+03-2.47495E+05 1.79719E+04-3.63059E+05-1.90994E-09-8.90395E-10
 -1       338 8.17811E+02-2.52327E+05 1.21172E+04-1.97466E+05-1.39971E-09 1.06502E-09
 -1       339 6.40839E+03-2.48481E+05 1.65106E+04-3.63215E+05-1.93359E-09 1.61208E-09
 -1       340 8.22244E+01-2.54487E+05 2.37051E+04-1.97988E+05-1.22054E-09 3.11047E-09
 -1       341-1.20625E+06-1.80791E+05-7.92029E+04-4.74282E+05-2.25828E-09 1.38243E-10
 -1       342-1.21920E+06-2.15330E+05-4.55959E+04-4.89658E+05 1.48407E-09-3.98768E-09
 -1       343-1.21693E+06-1.85672E+05-1.83557E+04-4.76429E+05 2.76032E-10-2.20098E-10
 -1       344-1.20626E+06-2.00019E+05-9.39031E+03-4.91219E+05-2.70052E-09-3.89264E-09
 -1       345-1.21789E+06-1.86067E+05-4.24907E+03-4.76549E+05-9.42237E-10-2.38174E-09
 -1       346-1.20517E+06-1.99080E+05-2.21163E+03-4.91331E+05 2.06671E-09 4.23839E-10
 -1       347-1.21802E+06-1.86094E+05-1.27100E+03-4.76545E+05 6.69615E-10 1.52136E-09
 -1       348-1.20508E+06-1.99034E+05-1.16143E+03-4.91344E+05-1.61424E-09 1.05865E-09
 -1       349-1.21800E+06-1.86099E+05-1.65565E+03-4.76549E+05-9.46329E-10-2.52021E-09
 -1       350-1.20526E+06-1.99093E+05-3.23454E+03-4.91302E+05 1.63709E-10 3.82897E-10
 -1       351-1.21779E+06-1.86056E+05-6.41356E+03-4.76557E+05-5.59794E-10 7.54881E-11
 -1       352-1.20691E+06-2.00541E+05-1.42835E+04-4.91157E+05 4.21778E-10-9.05857E-10
 -1       353-1.21635E+06-1.85426E+05-2.79597E+04-4.76358E+05-5.45697E-11 1.58616E-09
 -1       354-1.22657E+06-2.23967E+05-6.94922E+04-4.88906E+05 3.14685E-10 2.51748E-09
 -1       355-1.20015E+06-1.77887E+05-1.20686E+05-4.73004E+05 3.05590E-10 1.73895E-09
 -1       356 1.96183E+05-6.53697E+02 3.21623E+04-1.20744E+04 1.05410E-09 2.91038E-10
 -1       357 2.05727E+05 6.00963E+03 1.87986E+04-2.19851E+04 8.45148E-10-2.84672E-09
 -1       358 2.00362E+05-1.41992E+02 8.11163E+03-1.19817E+04-5.08408E-10 1.37607E-09
 -1       359 2.01166E+05 3.27676E+02 4.23378E+03-2.20718E+04 2.29420E-10 6.08804E-09
 -1       360 2.00683E+05-3.51037E+01 1.95278E+03-1.19842E+04 3.14685E-10 3.01338E-09
 -1       361 2.00768E+05 1.25617E+01 8.83024E+02-2.20665E+04-3.59250E-10 3.02771E-09
 -1       362 2.00722E+05-4.14890E+00 1.98674E+02-1.19871E+04-1.87924E-10 1.30728E-09
 -1       363 2.00690E+05-4.10496E-01-3.69450E+02-2.20632E+04-5.47971E-11-3.58818E-09
 -1       364 2.00747E+05 1.49782E+01-1.10743E+03-1.19876E+04-4.61057E-10 1.04149E-09
 -1       365 2.00567E+05-4.22601E+01-2.47074E+03-2.20656E+04 8.65498E-10 3.31693E-09
 -1       366 2.00854E+05 6.56963E+01-4.92629E+03-1.19848E+04-4.67480E-10-1.35924E-09
 -1       367 1.99668E+05-8.43658E+02-1.04160E+04-2.20696E+04-3.34467E-10-1.04319E-09
 -1       368 2.01680E+05 2.89418E+02-1.98550E+04-1.19837E+04 8.36735E-11-5.92081E-10
 -1       369 1.88640E+05-1.47643E+04-4.59197E+04-2.19892E+04-1.47065E-09 3.34876E-09
 -1       370 2.11955E+05 1.49172E+03-7.85361E+04-1.20574E+04 1.73577E-09 4.16912E-09
 -1       371-4.57965E+01-8.56575E+04 4.68676E+03-1.36268E+05 2.08638E-09-4.94765E-10
 -1       372 1.71189E+03-8.47505E+04 2.62561E+03-2.49481E+05 1.89721E-09-2.17369E-09
 -1       373 4.85551E+02-8.54951E+04 6.77391E+02-1.35817E+05 3.00224E-09-8.52197E-10
 -1       374 5.59856E+02-8.60542E+04-6.79532E+02-2.49591E+05 2.11367E-09-2.17756E-09
 -1       375 3.31899E+02-8.49151E+04-2.12564E+03-1.36157E+05 2.68528E-09 2.30102E-09
 -1       376-3.96547E+05-6.93509E+04-3.01279E+04-1.69461E+05 2.27146E-09 1.66801E-09
 -1       377-3.93547E+05-9.03935E+04-1.73420E+04-1.84397E+05-2.03045E-10-6.64386E-10
 -1       378-4.00660E+05-7.11545E+04-6.99125E+03-1.70253E+05 5.73436E-10-1.72304E-09
 -1       379-3.88626E+05-8.45931E+04-3.58936E+03-1.85029E+05 1.51522E-09-3.49331E-10
 -1       380-4.01020E+05-7.13110E+04-1.65250E+03-1.70314E+05-7.17819E-10 2.14924E-09
 -1       381-3.88237E+05-8.42179E+04-9.19496E+02-1.85050E+05-1.89908E-09 5.33873E-09
 -1       382-4.01052E+05-7.13333E+04-6.45385E+02-1.70319E+05 9.41100E-10 2.70552E-09
 -1       383-3.88210E+05-8.41935E+04-7.89197E+02-1.85026E+05 1.39698E-09-5.88375E-09
 -1       384-4.01012E+05-7.13474E+04-1.34871E+03-1.70317E+05 3.37877E-10-1.98725E-09
 -1       385-3.88343E+05-8.42695E+04-2.78214E+03-1.84984E+05 2.02090E-09 1.11845E-09
 -1       386-4.00818E+05-7.13049E+04-5.59831E+03-1.70296E+05-6.20275E-10-1.91540E-09
 -1       387-3.89717E+05-8.55856E+04-1.24917E+04-1.84883E+05 1.46611E-09 6.85304E-10
 -1       388-3.99569E+05-7.07438E+04-2.44754E+04-1.70077E+05-1.46974E-09-5.70071E-09
 -1       389-4.06826E+05-1.06100E+05-6.07848E+04-1.82927E+05-7.04222E-09-1.20881E-08
 -1       390-3.85376E+05-6.41719E+04-1.05586E+05-1.67100E+05-3.43152E-09-1.14596E-09
 -1       406 1.68107E+04 1.53074E+06 5.51637E+04 5.70919E+04 1.57524E-09-1.87902E-09
 -1       407 6.60043E+03 1.54259E+06 3.62966E+04 7.29332E+04-6.63022E-10 1.72804E-09
 -1       408 7.84963E+02 1.53518E+06 3.13886E+04 5.72831E+04 1.56115E-09 2.48838E-09
 -1       409 1.05117E+04 1.54613E+06 4.96003E+04 7.23243E+04-1.65869E-09 4.08181E-09
 -1       410 2.74291E+04 1.52776E+06 8.63677E+04 5.77732E+04 2.77942E-09 4.15275E-09
 -1       466 9.77609E+05-2.18012E+03 9.30055E+04-4.84358E+04 1.81899E-12 6.94854E-10
 -1       467 1.00534E+06 1.71972E+04 5.44355E+04-8.86106E+04 3.23780E-10 1.62891E-09
 -1       468 9.89497E+05-5.30524E+02 2.35288E+04-4.82041E+04-7.27596E-12 2.12094E-09
 -1       469 9.91792E+05 9.26994E+02 1.24314E+04-8.87174E+04-1.81899E-11 1.33878E-09
 -1       470 9.90284E+05-1.06446E+02 5.98848E+03-4.83029E+04 2.90129E-10-6.36646E-11
 -1       471 9.90470E+05 1.12586E+02 3.25948E+03-8.85693E+04 2.18279E-10-3.52611E-09
 -1       472 9.90314E+05 2.10230E+01 1.95178E+03-4.83535E+04 7.34417E-11-8.88576E-10
 -1       473 9.90301E+05 9.96635E+01 1.73904E+03-8.85276E+04-1.06411E-10 2.33422E-09
 -1       474 9.90320E+05 4.33574E+00 2.30763E+03-4.83448E+04-3.44698E-10 9.19272E-10
 -1       475 9.90577E+05 1.01020E+02 4.17865E+03-8.86069E+04 9.38599E-10 1.63550E-09
 -1       476 9.90278E+05-1.68584E+02 7.86792E+03-4.82739E+04-1.09139E-11 1.79170E-09
 -1       477 9.92307E+05 1.19420E+03 1.64473E+04-8.87867E+04-2.28283E-10 4.07454E-10
 -1       478 9.89204E+05-7.06473E+02 3.11864E+04-4.81630E+04-5.29326E-10 2.38288E-09
 -1       479 1.01018E+06 2.28102E+04 7.21758E+04-8.86763E+04-1.92085E-09 2.65572E-09
 -1       480 9.73387E+05-2.83896E+03 1.23359E+05-4.84255E+04-9.74978E-10 3.34694E-10
 -1       481-3.58477E+02 3.08766E+05 2.91744E+04-6.09280E+04 2.18279E-11 1.38880E-09
 -1       482 5.91546E+03 3.17200E+05 1.80844E+04-1.11237E+05-1.85310E-10 1.51823E-09
 -1       483 6.34544E+01 3.12380E+05 9.85637E+03-6.08116E+04-9.09495E-13 1.58479E-09
 -1       484 2.71238E+03 3.14808E+05 9.93449E+03-1.11161E+05 1.58252E-10 1.57797E-09
 -1       485-1.28678E+02 3.11391E+05 1.22072E+04-6.10107E+04 1.21076E-10-1.33787E-09
 -1       486-9.16756E+05-1.41411E+05-9.80670E+04-3.69051E+05 1.45246E-09 3.75439E-09
 -1       487-9.34260E+05-1.82687E+05-5.64491E+04-3.86400E+05-1.09139E-11 2.48110E-09
 -1       488-9.30007E+05-1.47434E+05-2.27317E+04-3.71728E+05 1.63709E-10-2.43745E-10
 -1       489-9.18270E+05-1.63733E+05-1.16093E+04-3.88361E+05 1.30058E-10-9.34506E-11
 -1       490-9.31216E+05-1.47911E+05-5.22983E+03-3.71890E+05 9.54969E-11 9.82254E-11
 -1       491-9.16947E+05-1.62573E+05-2.65190E+03-3.88540E+05 2.58296E-10-1.61469E-09
 -1       492-9.31413E+05-1.47916E+05-1.39692E+03-3.71881E+05-1.56888E-10 2.10093E-10
 -1       493-9.16807E+05-1.62540E+05-1.05041E+03-3.88620E+05-8.74252E-11 1.24322E-09
 -1       494-9.31445E+05-1.47892E+05-1.25201E+03-3.71871E+05-3.01156E-10-4.68390E-11
 -1       495-9.16907E+05-1.62609E+05-2.27403E+03-3.88646E+05 1.41256E-11-1.35446E-09
 -1       496-9.31323E+05-1.47844E+05-4.42057E+03-3.71862E+05-1.20963E-10-1.19599E-10
 -1       497-9.18014E+05-1.63623E+05-9.80225E+03-3.88574E+05 5.59339E-11-5.09772E-10
 -1       498-9.30341E+05-1.47409E+05-1.91690E+04-3.71713E+05-9.73159E-11-4.78394E-10
 -1       499-9.31477E+05-1.79660E+05-4.76241E+04-3.86999E+05-2.25782E-10 1.12777E-09
 -1       500-9.19199E+05-1.42290E+05-8.27221E+04-3.69431E+05-9.66338E-11 1.30967E-09
 -1       501 4.99695E+05-2.12364E+03 7.75532E+04-5.61156E+04 9.67702E-10-1.32422E-09
 -1       502 5.23045E+05 1.41852E+04 4.54384E+04-1.02167E+05 1.63709E-10-8.72205E-10
 -1       503 5.09443E+05-5.81733E+02 1.95918E+04-5.57214E+04 8.18545E-11-3.41970E-10
 -1       504 5.11417E+05 7.33744E+02 1.03691E+04-1.02473E+05-2.54659E-10 1.93450E-09
 -1       505 5.09965E+05-1.14537E+02 4.97135E+03-5.57837E+04 1.13869E-09 1.25510E-10
 -1       506 5.10102E+05 1.59123E+02 2.70581E+03-1.02369E+05 2.97860E-10 6.90761E-10
 -1       507 5.09904E+05 6.38800E+01 1.59539E+03-5.58276E+04 7.49424E-10-6.28461E-10
 -1       508 5.09841E+05 2.07643E+02 1.39129E+03-1.02318E+05 1.40881E-09-1.49930E-09
 -1       509 5.09875E+05 8.22839E+01 1.80476E+03-5.58344E+04 7.08496E-10-1.65255E-09
 -1       510 5.10035E+05 2.17334E+02 3.23294E+03-1.02340E+05 2.05864E-09 8.39918E-10
 -1       511 5.09861E+05-6.59289E+01 6.06313E+03-5.58053E+04 4.80213E-10 1.24737E-09
 -1       512 5.11455E+05 1.01642E+03 1.26668E+04-1.02417E+05 9.00400E-10-2.04295E-10
 -1       513 5.09108E+05-5.41145E+02 2.39959E+04-5.57559E+04 5.03860E-10-1.94996E-09
 -1       514 5.25418E+05 1.75801E+04 5.55747E+04-1.02127E+05-9.60426E-10-7.55335E-10
 -1       515 4.97054E+05-2.30088E+03 9.49346E+04-5.61204E+04-3.96540E-10-7.27596E-11
 -1       516-3.05555E+02 1.80875E+05 4.86462E+04-1.49385E+05 1.78807E-09 1.64800E-09
 -1       517 1.06306E+04 1.94603E+05 3.16475E+04-2.73525E+05 6.03904E-10 3.97091E-09
 -1       518 3.83855E+02 1.86611E+05 1.99631E+04-1.49097E+05 1.52795E-09 2.13186E-09
 -1       519 7.77812E+03 1.93363E+05 2.51428E+04-2.73300E+05 1.15142E-09-2.76486E-10
 -1       520-6.92316E+02 1.83616E+05 3.49663E+04-1.49625E+05 8.49468E-10-1.99361E-09
 -1       521-1.67867E+06-2.59739E+05-1.49658E+05-6.74011E+05 4.52019E-10-2.96859E-09
 -1       522-1.70164E+06-3.26278E+05-8.61228E+04-7.04571E+05 1.51704E-09-1.95178E-09
 -1       523-1.69911E+06-2.68718E+05-3.46895E+04-6.77968E+05-4.36557E-11-1.30240E-09
 -1       524-1.67716E+06-2.97546E+05-1.77032E+04-7.07972E+05-7.48514E-10-1.58070E-09
 -1       525-1.70112E+06-2.69296E+05-7.97846E+03-6.78152E+05-6.54836E-10-8.24457E-10
 -1       526-1.67510E+06-2.95872E+05-4.04063E+03-7.08472E+05-1.47338E-10-2.44387E-09
 -1       527-1.70150E+06-2.69234E+05-2.13163E+03-6.78112E+05 8.21274E-10 2.69981E-09
 -1       528-1.67488E+06-2.95851E+05-1.60887E+03-7.08663E+05-4.07488E-09-6.11612E-09
 -1       529-1.70154E+06-2.69200E+05-1.93213E+03-6.78098E+05-4.21778E-10 8.75389E-10
 -1       530-1.67505E+06-2.95919E+05-3.52148E+03-7.08613E+05 8.93579E-11 1.02500E-09
 -1       531-1.70126E+06-2.69209E+05-6.86688E+03-6.78115E+05 4.26553E-10-5.45697E-12
 -1       532-1.67681E+06-2.97388E+05-1.52183E+04-7.08253E+05 1.47338E-10 1.57343E-10
 -1       533-1.69956E+06-2.68690E+05-2.97908E+04-6.77948E+05 8.09450E-11 5.29326E-10
 -1       534-1.69785E+06-3.22079E+05-7.39842E+04-7.05348E+05 1.56433E-10 8.89486E-10
 -1       535-1.68199E+06-2.60991E+05-1.28554E+05-6.74562E+05-4.59750E-10 8.73115E-10
 -1       536 8.29079E+05-2.70427E+03 1.27105E+05-3.69127E+04 1.54614E-10 9.24047E-10
 -1       537 8.66863E+05 2.36535E+04 7.43319E+04-6.74364E+04-1.43700E-09-1.45519E-10
 -1       538 8.45493E+05-6.21883E+02 3.21392E+04-3.66895E+04-1.45519E-10-1.55342E-09
 -1       539 8.48679E+05 1.28950E+03 1.69319E+04-6.75563E+04-1.02773E-10-1.46429E-09
 -1       540 8.46690E+05-1.44490E+02 8.09987E+03-3.67608E+04 3.41061E-10 2.10093E-10
 -1       541 8.47030E+05 9.67418E+01 4.28067E+03-6.74386E+04-3.45608E-11 2.29738E-09
 -1       542 8.46781E+05-5.66026E+00 2.33719E+03-3.68087E+04-6.62112E-10-1.73713E-10
 -1       543 8.46792E+05 7.04794E+01 1.71058E+03-6.73837E+04-4.49290E-10 2.06592E-09
 -1       544 8.46781E+05 9.81140E+00 1.85803E+03-3.68161E+04 4.44061E-10-2.35218E-09
 -1       545 8.46918E+05 9.61687E+01 3.04639E+03-6.74073E+04-4.85670E-10-6.83713E-10
 -1       546 8.46723E+05-8.19962E+01 5.57257E+03-3.67849E+04 2.87400E-10-2.14419E-09
 -1       547 8.48051E+05 8.98273E+02 1.15402E+04-6.74986E+04-1.65983E-10 1.54074E-09
 -1       548 8.45928E+05-4.20938E+02 2.18525E+04-3.67239E+04-1.32786E-10 7.38510E-10
 -1       549 8.60459E+05 1.60705E+04 5.05162E+04-6.73862E+04 2.22826E-10-2.92721E-09
 -1       550 8.34804E+05-1.86926E+03 8.63466E+04-3.69144E+04-9.51331E-10 1.48793E-09
 -1       551 1.38729E+04-1.19065E+05 3.95904E+04-4.14657E+05-7.45786E-10 5.71163E-10
 -1       552 7.50621E+03-1.11732E+05 2.46489E+04-5.21951E+05-1.33514E-09 1.90630E-09
 -1       553 2.68334E+03-1.16821E+05 1.88065E+04-4.13881E+05-9.74978E-10 1.67233E-09
 -1       554 8.14289E+03-1.11144E+05 2.68265E+04-5.21930E+05-1.50976E-09-3.38332E-10
 -1       555 1.56027E+04-1.19541E+05 4.46966E+04-4.14676E+05-5.72072E-10-3.53975E-09
 -1       556-1.02855E+06-2.39151E+05-7.33360E+04-4.78130E+05 1.47429E-09-1.52795E-09
 -1       557-1.02338E+06-2.49583E+05-3.73147E+04-5.09466E+05-8.44011E-10-6.14500E-09
 -1       558-1.03353E+06-2.20985E+05-1.58466E+04-4.87377E+05-2.09184E-09-8.15726E-09
 -1       559-1.01480E+06-2.40725E+05-7.78504E+03-5.10640E+05-1.31331E-09-1.79557E-09
 -1       560-1.03424E+06-2.20381E+05-3.61065E+03-4.87824E+05-4.26189E-09-5.10727E-09
 -1       561-1.01440E+06-2.40368E+05-1.83502E+03-5.10780E+05-7.00311E-10 2.52271E-09
 -1       562-1.03444E+06-2.20351E+05-1.02726E+03-4.87892E+05 1.42245E-09 5.75710E-10
 -1       563-1.01442E+06-2.40346E+05-8.69351E+02-5.10830E+05 5.15320E-09 5.06498E-09
 -1       564-1.03444E+06-2.20343E+05-1.17757E+03-4.87894E+05 2.06910E-09 1.54614E-11
 -1       565-1.01444E+06-2.40363E+05-2.23416E+03-5.10795E+05 2.01908E-10 1.29785E-09
 -1       566-1.03422E+06-2.20354E+05-4.46278E+03-4.87832E+05-1.38971E-09 9.36780E-10
 -1       567-1.01498E+06-2.40798E+05-9.66636E+03-5.10692E+05-4.70391E-09-5.46788E-09
 -1       568-1.03342E+06-2.21042E+05-1.96787E+04-4.87299E+05 2.69210E-10-1.29876E-09
 -1       569-1.02564E+06-2.51915E+05-4.63830E+04-5.09459E+05 3.57068E-09 1.96633E-09
 -1       570-1.02742E+06-2.43447E+05-9.11174E+04-4.75728E+05-2.11367E-09 1.36788E-09
 -1       571 8.02883E+05 2.88328E+04 8.82526E+04-1.01636E+05 1.08957E-09 3.45608E-10
 -1       572 8.21579E+05 1.09322E+04 4.60621E+04-1.27251E+05-2.91038E-10-2.28465E-09
 -1       573 8.10912E+05 5.05910E+02 2.07242E+04-1.01114E+05-4.85670E-10 1.32241E-09
 -1       574 8.12302E+05 2.04965E+02 1.06055E+04-1.27737E+05-6.43922E-10 7.05768E-10
 -1       575 8.11324E+05-1.68316E+02 5.12561E+03-1.01095E+05 3.02862E-10 1.01954E-09
 -1       576 8.11443E+05-3.11476E+01 2.63100E+03-1.27755E+05 1.06070E-09 2.38651E-09
 -1       577 8.11342E+05-3.54511E+01 1.31906E+03-1.01098E+05-9.49257E-10 1.66165E-09
 -1       578 8.11346E+05-5.13051E+00 7.35626E+02-1.27759E+05-2.91925E-09 3.75621E-10
 -1       579 8.11426E+05-5.01157E+01 4.75402E+02-1.01092E+05-5.34783E-10-7.78527E-10
 -1       580 8.11507E+05-9.20848E+01 4.85516E+02-1.27779E+05 1.92085E-09 3.27782E-09
 -1       581 8.11622E+05-1.88501E+02 6.93656E+02-1.01077E+05-7.96717E-10 6.73026E-11
 -1       582 8.11929E+05-2.38269E+02 1.33956E+03-1.27772E+05-1.25874E-09 3.33966E-09
 -1       583 8.11884E+05-3.13191E+02 2.52886E+03-1.01098E+05 2.43745E-10 1.29057E-09
 -1       584 8.13550E+05 8.41804E+02 5.66266E+03-1.27163E+05-4.60568E-09 4.92946E-10
 -1       585 8.11292E+05 2.92817E+03 1.07728E+04-1.01694E+05 1.70621E-09 4.91491E-09
 -1       586 6.15705E+03 9.33235E+04 1.73162E+04-3.96324E+05 1.55887E-09 3.95812E-09
 -1       587 4.25054E+03 9.59310E+04 1.27915E+04-4.98546E+05-7.56336E-09 1.95359E-09
 -1       588 2.21830E+03 9.32962E+04 1.29964E+04-3.95494E+05 1.98997E-09 3.05181E-09
 -1       589 7.45989E+03 9.80584E+04 2.27870E+04-4.98698E+05-7.52698E-09-6.74845E-10
 -1       590 1.46301E+04 9.03027E+04 4.08115E+04-3.96153E+05 2.32103E-09-2.42107E-09
 -1       591-6.78459E+05-1.68097E+05-7.38197E+04-3.17973E+05 1.45428E-09-3.71074E-10
 -1       592-6.78749E+05-1.73285E+05-3.75896E+04-3.43320E+05-1.31058E-09-8.36644E-09
 -1       593-6.83092E+05-1.50096E+05-1.59403E+04-3.27374E+05 1.43882E-09-2.06001E-09
 -1       594-6.70068E+05-1.64220E+05-7.84458E+03-3.44069E+05-3.60160E-10 1.52795E-09
 -1       595-6.83609E+05-1.49625E+05-3.63406E+03-3.27753E+05-4.22006E-09-5.58475E-09
 -1       596-6.69537E+05-1.63891E+05-1.85977E+03-3.44040E+05 2.23099E-09 5.72254E-09
 -1       597-6.83696E+05-1.49669E+05-1.05348E+03-3.27764E+05 8.41453E-10-3.97677E-09
 -1       598-6.69473E+05-1.63894E+05-9.17074E+02-3.44008E+05 7.48742E-10-6.42103E-10
 -1       599-6.83645E+05-1.49691E+05-1.26592E+03-3.27742E+05 2.79215E-10-9.66793E-10
 -1       600-6.69481E+05-1.63920E+05-2.41436E+03-3.43964E+05-2.54659E-10-2.37742E-09
 -1       601-6.83439E+05-1.49678E+05-4.82033E+03-3.27686E+05-1.58252E-09 3.01588E-09
 -1       602-6.70126E+05-1.64377E+05-1.04436E+04-3.43931E+05-3.13776E-10 7.74889E-10
 -1       603-6.82692E+05-1.50348E+05-2.12454E+04-3.27155E+05-4.05817E-09-1.07575E-08
 -1       604-6.81657E+05-1.76446E+05-5.00800E+04-3.42869E+05 1.50612E-09-1.26965E-09
 -1       605-6.76486E+05-1.74319E+05-9.83465E+04-3.14603E+05-1.34605E-10 7.71252E-09
 -1       606 2.62588E+05-1.49044E+04-4.51805E+04 5.37154E+04-1.47993E-08-1.52090E-09
 -1       607 2.52907E+05-5.57956E+03-2.35602E+04 6.65733E+04-5.21504E-09 6.76209E-10
 -1       608 2.58154E+05-2.35728E+02-1.06262E+04 5.32524E+04 1.13469E-08 2.10093E-09
 -1       609 2.57250E+05 1.07786E+02-5.41680E+03 6.70324E+04-4.56930E-09 1.87219E-09
 -1       610 2.57689E+05 2.80055E+02-2.61799E+03 5.32247E+04-1.78170E-08-6.59793E-09
 -1       611 2.57432E+05 3.71615E+02-1.30521E+03 6.70524E+04-3.49937E-08-5.49198E-09
 -1       612 2.57527E+05 3.12600E+02-6.02983E+02 5.32283E+04-1.26893E-08 1.45974E-09
 -1       613 2.57362E+05 4.25762E+02-2.15482E+02 6.70446E+04-1.94195E-08 1.39471E-09
 -1       614 2.57433E+05 3.43359E+02 6.35317E+01 5.32309E+04-3.24235E-09 6.83940E-10
 -1       615 2.57311E+05 4.59650E+02 3.86159E+02 6.70377E+04 2.26264E-08 1.19599E-09
 -1       616 2.57370E+05 3.53450E+02 8.78775E+02 5.32342E+04-9.97443E-09-3.64707E-10
 -1       617 2.57404E+05 5.36769E+02 1.88482E+03 6.70242E+04-2.64936E-09-4.56839E-09
 -1       618 2.57250E+05 5.04088E+02 3.71597E+03 5.32432E+04-9.66565E-10 1.61299E-09
 -1       619 2.59022E+05 2.48951E+03 8.27233E+03 6.68894E+04 4.09887E-09 2.50566E-09
 -1       620 2.55776E+05 5.61015E+03 1.58572E+04 5.33444E+04 8.49332E-09 4.68845E-10
 -1       621 1.01981E+04 9.92875E+05 3.31637E+04-1.26780E+05 4.03088E-09-3.44698E-09
 -1       622 4.70696E+03 9.99714E+05 2.45766E+04-1.59006E+05-1.36242E-09 2.44381E-09
 -1       623 1.39613E+03 9.94997E+05 2.56274E+04-1.26557E+05 3.47427E-09 2.27578E-09
 -1       624 1.10572E+04 1.00491E+06 4.55188E+04-1.59023E+05-7.32143E-10-3.24462E-10
 -1       625 2.72717E+04 9.87620E+05 8.23211E+04-1.26720E+05 5.32964E-09 1.54614E-10
 -1       626 4.50072E+05 1.06640E+05-1.38541E+04 2.32682E+05-5.50426E-09-1.05865E-09
 -1       627 4.36002E+05 1.19693E+05-7.03878E+03 2.43762E+05 3.84898E-09 6.88942E-10
 -1       628 4.49410E+05 1.09716E+05-3.00180E+03 2.30414E+05 8.06176E-09 4.62251E-09
 -1       629 4.37067E+05 1.21836E+05-1.45526E+03 2.43933E+05 1.50612E-09-4.20539E-09
 -1       630 4.49207E+05 1.09863E+05-6.54885E+02 2.30243E+05 2.74122E-09-5.45197E-09
 -1       631 4.37020E+05 1.21961E+05-2.67566E+02 2.43858E+05-1.48229E-08-7.79011E-10
 -1       632 4.49092E+05 1.09910E+05-2.92666E+01 2.30187E+05-6.53017E-10-1.00857E-09
 -1       633 4.36964E+05 1.21989E+05 1.97871E+02 2.43796E+05-9.02810E-09-2.00305E-09
 -1       634 4.49024E+05 1.09923E+05 5.21400E+02 2.30160E+05 4.51746E-09-6.03995E-09
 -1       635 4.36985E+05 1.21997E+05 1.17903E+03 2.43791E+05 2.52737E-08 4.11637E-09
 -1       636 4.48969E+05 1.09880E+05 2.43894E+03 2.30157E+05 3.89193E-09 5.17412E-09
 -1       637 4.37410E+05 1.22202E+05 5.33947E+03 2.43867E+05 4.99131E-09 4.21096E-10
 -1       638 4.48714E+05 1.10134E+05 1.08621E+04 2.29950E+05 2.97496E-09 2.28374E-09
 -1       639 4.43501E+05 1.28314E+05 2.56387E+04 2.43479E+05-8.84893E-09 2.75759E-09
 -1       640 4.45730E+05 1.22319E+05 5.03338E+04 2.23618E+05 1.95996E-09-1.05501E-10
 -1       641 1.14183E+04 1.91977E+02-8.65114E+03 3.56469E+03-1.78325E-08-4.29918E-09
 -1       642 8.83031E+03-1.57852E+03-5.05621E+03 6.47890E+03-1.35800E-08-2.92243E-09
 -1       643 1.02892E+04 5.84009E+01-2.18344E+03 3.54635E+03-2.20157E-09-9.53833E-11
 -1       644 1.00478E+04-4.60394E+01-1.14087E+03 6.49339E+03 2.20750E-09-4.06033E-09
 -1       645 1.01993E+04 3.26311E+01-5.30166E+02 3.54544E+03 2.62739E-09-2.82319E-09
 -1       646 1.01498E+04 4.11191E+01-2.47152E+02 6.49421E+03-1.52909E-08-1.44493E-09
 -1       647 1.01879E+04 2.56605E+01-7.29154E+01 3.54532E+03 1.14146E-08 1.28239E-10
 -1       648 1.01688E+04 4.48743E+01 5.96191E+01 6.49455E+03 4.17087E-08-2.50827E-09
 -1       649 1.01830E+04 2.07045E+01 2.19090E+02 3.54511E+03 2.88479E-08-3.95818E-09
 -1       650 1.01979E+04 5.18289E+01 5.03001E+02 6.49455E+03 1.94609E-08-2.47087E-09
 -1       651 1.01635E+04 8.05230E+00 1.00826E+03 3.54534E+03-7.89009E-09 1.12976E-09
 -1       652 1.03891E+04 2.12987E+02 2.13641E+03 6.49289E+03 8.34007E-10 7.74548E-10
 -1       653 9.99845E+03-4.15345E+01 4.07286E+03 3.54641E+03 5.87966E-09-1.19849E-09
 -1       654 1.26636E+04 3.06562E+03 9.42410E+03 6.44883E+03-9.46977E-09-1.17893E-09
 -1       655 7.89802E+03-2.92609E+02 1.61209E+04 3.58146E+03 1.15970E-08-9.15861E-10
 -1       656 3.23781E+02-3.67402E+05-4.71496E+04 7.50562E+04-4.75848E-09-3.39060E-09
 -1       657-9.69812E+03-3.81055E+05-3.12155E+04 1.36395E+05-1.17323E-08 5.69162E-09
 -1       658-8.23789E+01-3.73108E+05-2.08980E+04 7.47732E+04 5.54337E-10 2.50566E-09
 -1       659-8.43647E+03-3.80311E+05-2.81736E+04 1.36556E+05-5.36784E-09 7.02931E-09
 -1       660 3.65503E+02-3.68529E+05-4.07893E+04 7.49055E+04-6.65750E-10-2.16460E-09
 -1       661 3.07307E+05 4.52315E+04 2.30282E+04 1.19960E+05-2.54522E-09-5.39876E-09
 -1       662 3.12735E+05 5.36223E+04 1.32582E+04 1.22528E+05 1.22834E-08-9.09267E-10
 -1       663 3.10351E+05 4.67064E+04 5.33981E+03 1.20644E+05 7.86918E-09 1.15074E-09
 -1       664 3.09023E+05 4.91172E+04 2.73574E+03 1.22892E+05-1.18940E-08 2.58495E-10
 -1       665 3.10607E+05 4.68447E+04 1.24110E+03 1.20694E+05 1.03729E-08 2.19581E-09
 -1       666 3.08719E+05 4.88273E+04 6.53658E+02 1.22893E+05 4.03759E-10 8.93488E-09
 -1       667 3.10638E+05 4.68595E+04 3.88284E+02 1.20696E+05 2.11272E-08 3.74519E-09
 -1       668 3.08691E+05 4.88158E+04 3.77268E+02 1.22898E+05 1.70208E-08-4.30657E-09
 -1       669 3.10638E+05 4.68522E+04 5.59551E+02 1.20692E+05 7.09292E-09 3.62320E-10
 -1       670 3.08742E+05 4.88564E+04 1.11104E+03 1.22918E+05 3.50601E-08 4.29998E-09
 -1       671 3.10592E+05 4.68132E+04 2.20704E+03 1.20680E+05-1.80762E-09 2.92289E-09
 -1       672 3.09282E+05 4.93934E+04 4.92130E+03 1.22938E+05-1.56833E-08 2.43620E-09
 -1       673 3.10138E+05 4.65543E+04 9.62779E+03 1.20585E+05 4.79872E-09-2.65891E-09
 -1       674 3.15997E+05 5.75139E+04 2.39230E+04 1.22275E+05 3.14941E-08 4.31100E-10
 -1       675 3.04629E+05 4.39084E+04 4.15560E+04 1.19371E+05-4.39013E-09-5.27325E-09
 -1       676 2.86235E+02-3.30901E+05-1.76065E+04 8.22448E+03 1.90666E-08 2.12094E-09
 -1       677-3.42952E+03-3.36065E+05-1.23785E+04 1.41633E+04 4.72033E-09 8.90395E-10
 -1       678 9.92103E+01-3.32839E+05-9.53754E+03 8.18407E+03 1.54139E-08 3.19369E-09
 -1       679-4.33712E+03-3.36796E+05-1.47308E+04 1.42113E+04 1.54207E-08 2.16642E-09
 -1       680 3.87864E+02-3.30182E+05-2.24940E+04 8.17465E+03 1.06065E-08 1.05194E-09
 -1       681 4.53545E+05-6.24758E+02 2.45350E+04-2.55134E+04 1.21872E-10-2.06273E-09
 -1       682 4.60883E+05 4.49814E+03 1.43703E+04-4.65575E+04-4.57476E-10-1.47793E-09
 -1       683 4.56668E+05-1.71577E+02 6.20853E+03-2.53400E+04-1.51886E-10-9.94532E-10
 -1       684 4.57276E+05 2.14119E+02 3.29216E+03-4.67007E+04-7.68523E-11-1.00169E-09
 -1       685 4.56861E+05-4.76232E+01 1.60146E+03-2.53654E+04 7.18501E-11-4.67708E-10
 -1       686 4.56902E+05 1.20565E+01 9.10981E+02-4.66577E+04 3.86535E-11-8.13316E-10
 -1       687 4.56854E+05-4.19602E+00 6.15198E+02-2.53833E+04 8.18545E-11-3.78350E-10
 -1       688 4.56842E+05 2.06263E+01 6.66397E+02-4.66352E+04-3.41629E-11-1.12777E-10
 -1       689 4.56838E+05-3.38975E+00 1.01829E+03-2.53879E+04 8.99263E-10-2.97746E-10
 -1       690 4.56934E+05 4.44175E+01 1.94271E+03-4.66413E+04-1.31649E-10 1.10686E-09
 -1       691 4.56784E+05-5.84894E+01 3.72093E+03-2.53771E+04-1.96860E-09 9.75348E-10
 -1       692 4.57675E+05 6.05056E+02 7.79694E+03-4.66676E+04-8.23093E-11 1.86765E-09
 -1       693 4.56222E+05-2.70248E+02 1.48141E+04-2.53613E+04 8.15817E-10 7.14408E-10
 -1       694 4.66039E+05 1.09268E+04 3.42646E+04-4.65333E+04-2.22826E-10-1.35924E-09
 -1       695 4.48646E+05-1.23015E+03 5.85878E+04-2.55202E+04-1.70076E-10-1.98997E-09
 -1       696-4.94593E+02 5.35207E+05 3.19709E+04-5.27644E+04 7.82165E-11-3.70164E-10
 -1       697 6.27079E+03 5.44500E+05 1.76559E+04-9.60263E+04 2.62617E-10-2.36355E-10
 -1       698 6.99474E+01 5.39521E+05 5.53270E+03-5.26480E+04-3.45608E-11 1.77897E-09
 -1       699-1.31555E+03 5.38501E+05-1.93159E+03-9.60091E+04-2.47610E-10 2.07001E-09
 -1       700 2.68677E+02 5.41279E+05-8.75512E+03-5.27890E+04-1.59162E-10 1.67347E-09
 -1       701-4.25169E+05-6.69716E+04-6.32817E+04-1.74608E+05-5.45697E-11-9.74978E-10
 -1       702-4.37040E+05-9.30648E+04-3.64285E+04-1.85202E+05-4.07908E-10-2.67391E-10
 -1       703-4.33681E+05-7.08903E+04-1.46704E+04-1.76359E+05-2.70120E-10-3.86535E-10
 -1       704-4.26748E+05-8.07963E+04-7.49634E+03-1.86389E+05 2.27374E-11-3.86308E-10
 -1       705-4.34429E+05-7.12297E+04-3.37966E+03-1.76482E+05-1.93722E-10-2.53976E-10
 -1       706-4.25911E+05-8.00201E+04-1.72089E+03-1.86452E+05-5.45697E-12-2.61025E-10
 -1       707-4.34537E+05-7.12510E+04-9.18974E+02-1.76486E+05 2.03727E-10-4.59863E-10
 -1       708-4.25832E+05-7.99863E+04-7.13682E+02-1.86482E+05 2.69665E-10 2.35531E-10
 -1       709-4.34553E+05-7.12376E+04-8.80191E+02-1.76482E+05-9.75433E-11 5.07669E-10
 -1       710-4.25905E+05-8.00378E+04-1.62251E+03-1.86509E+05-2.41187E-10 6.85816E-10
 -1       711-4.34480E+05-7.11898E+04-3.16543E+03-1.76471E+05-2.30202E-10 3.69482E-10
 -1       712-4.26689E+05-8.07861E+04-7.02637E+03-1.86503E+05 6.95763E-11-2.84672E-10
 -1       713-4.33808E+05-7.08462E+04-1.37379E+04-1.76349E+05-1.81899E-11 5.82077E-11
 -1       714-4.36296E+05-9.23391E+04-3.41339E+04-1.85482E+05 5.25375E-11-1.87811E-10
 -1       715-4.25887E+05-6.71163E+04-5.92818E+04-1.74665E+05 6.18456E-11-8.00355E-11
 -1       716 3.83682E+05-1.22266E+03 5.22499E+04-3.97366E+04 4.47471E-10 1.20053E-10
 -1       717 3.99255E+05 9.71564E+03 3.05893E+04-7.22792E+04-3.96540E-10-1.12777E-10
 -1       718 3.90340E+05-2.71592E+02 1.32206E+04-3.94813E+04-3.87445E-10 8.13088E-10
 -1       719 3.91612E+05 5.81475E+02 6.99300E+03-7.25037E+04-3.20142E-10 1.30422E-09
 -1       720 3.90771E+05-2.49290E+01 3.38284E+03-3.95037E+04 4.61114E-10-3.94721E-10
 -1       721 3.90860E+05 1.27828E+02 1.86966E+03-7.24679E+04 7.04404E-10 9.49967E-10
 -1       722 3.90786E+05 4.55941E+01 1.17252E+03-3.95176E+04 8.73456E-10 1.63209E-09
 -1       723 3.90782E+05 1.15188E+02 1.13191E+03-7.24596E+04 8.85507E-10 1.66597E-09
 -1       724 3.90796E+05 2.38243E+01 1.59919E+03-3.95122E+04 4.43379E-10 9.86347E-10
 -1       725 3.90997E+05 1.09977E+02 2.97273E+03-7.24906E+04 1.17052E-09 1.98634E-09
 -1       726 3.90770E+05-1.04630E+02 5.63778E+03-3.94864E+04 6.23913E-10 9.86745E-10
 -1       727 3.92247E+05 8.95192E+02 1.18144E+04-7.25474E+04 7.76708E-10 7.29102E-10
 -1       728 3.89998E+05-4.91342E+02 2.24131E+04-3.94541E+04-4.00178E-11-6.11180E-10
 -1       729 4.05097E+05 1.64507E+04 5.18963E+04-7.22924E+04-1.48884E-09 9.50422E-11
 -1       730 3.78625E+05-2.03184E+03 8.86959E+04-3.97632E+04-2.49202E-10-2.36469E-09
 -1       731-4.91466E+02 1.91866E+05 3.40052E+04-9.44777E+04 9.60426E-10-2.07365E-10
 -1       732 6.86105E+03 2.01692E+05 2.02574E+04-1.72944E+05 7.63976E-11-4.72141E-10
 -1       733 9.14081E+01 1.96161E+05 9.44474E+03-9.42676E+04 7.68750E-10 1.95996E-09
 -1       734 1.49282E+03 1.97680E+05 6.59728E+03-1.72856E+05 4.02906E-10 1.64982E-09
 -1       735-1.04277E+02 1.96264E+05 5.56694E+03-9.45700E+04 2.77396E-10 1.30967E-09
 -1       736-9.24691E+05-1.37430E+05-8.27762E+04-3.64005E+05 2.10093E-10-6.94854E-10
 -1       737-9.41793E+05-1.69996E+05-4.76541E+04-3.76042E+05 2.00998E-10-1.69985E-09
 -1       738-9.35813E+05-1.42571E+05-1.91798E+04-3.66284E+05-2.16914E-10-1.16052E-09
 -1       739-9.28301E+05-1.53956E+05-9.79973E+03-3.77605E+05-1.63709E-10-1.53932E-10
 -1       740-9.36802E+05-1.43003E+05-4.40715E+03-3.66421E+05-2.10548E-10 4.79758E-11
 -1       741-9.27168E+05-1.52966E+05-2.23158E+03-3.77708E+05-4.13593E-10-1.09708E-10
 -1       742-9.36948E+05-1.43029E+05-1.16310E+03-3.66414E+05 1.74623E-10-9.00684E-10
 -1       743-9.27042E+05-1.52932E+05-8.53614E+02-3.77749E+05-4.21551E-10-1.51704E-09
 -1       744-9.36967E+05-1.43016E+05-9.88120E+02-3.66406E+05-1.54955E-10-2.08161E-10
 -1       745-9.27117E+05-1.52984E+05-1.76962E+03-3.77765E+05 3.44727E-10 2.19643E-10
 -1       746-9.36877E+05-1.42976E+05-3.42558E+03-3.66400E+05 4.72255E-10 9.41327E-10
 -1       747-9.27980E+05-1.53770E+05-7.58922E+03-3.77722E+05 1.70076E-10 4.84079E-10
 -1       748-9.36127E+05-1.42628E+05-1.48342E+04-3.66286E+05 3.60842E-10 4.50200E-10
 -1       749-9.38407E+05-1.66193E+05-3.68599E+04-3.76538E+05-2.20780E-10-2.32831E-10
 -1       750-9.27532E+05-1.38645E+05-6.40208E+04-3.64519E+05 2.09184E-11 7.02130E-10
 -1       751 1.06048E+06-3.22754E+03 1.54543E+05-3.99204E+04-1.05501E-10-5.67525E-10
 -1       752 1.10637E+06 2.87875E+04 9.03671E+04-7.30158E+04-1.68620E-09-5.65706E-10
 -1       753 1.08045E+06-7.25488E+02 3.90891E+04-3.97150E+04-4.92946E-10-9.64064E-11
 -1       754 1.08431E+06 1.58984E+03 2.06004E+04-7.30888E+04-3.56522E-10 7.49424E-10
 -1       755 1.08193E+06-1.60914E+02 9.87910E+03-3.98090E+04 5.54792E-11-8.43102E-10
 -1       756 1.08234E+06 1.24364E+02 5.25871E+03-7.29407E+04-2.54204E-10 3.70846E-10
 -1       757 1.08205E+06-5.89795E+00 2.94814E+03-3.98649E+04-7.30779E-10 2.44472E-09
 -1       758 1.08208E+06 7.93523E+01 2.29384E+03-7.28852E+04-3.11619E-10 2.63071E-09
 -1       759 1.08206E+06-1.86785E+00 2.67910E+03-3.98650E+04 5.25688E-10 8.07859E-10
 -1       760 1.08230E+06 1.13330E+02 4.56797E+03-7.29381E+04-6.21185E-10 1.19007E-09
 -1       761 1.08196E+06-1.39893E+02 8.46254E+03-3.98117E+04 1.50976E-10-1.13801E-10
 -1       762 1.08400E+06 1.34966E+03 1.75844E+04-7.30871E+04 3.20142E-10 1.56660E-10
 -1       763 1.08073E+06-6.36697E+02 3.33310E+04-3.97144E+04-4.07454E-10 5.85715E-10
 -1       764 1.10286E+06 2.45170E+04 7.70497E+04-7.30205E+04 7.67614E-10-1.84082E-09
 -1       765 1.06372E+06-2.79707E+03 1.31739E+05-3.99108E+04-1.96633E-09-2.45927E-09
 -1       766-1.50776E+03 3.82048E+05 9.26031E+04-8.33471E+04-9.42237E-10-1.29603E-10
 -1       767 1.79935E+04 4.09302E+05 6.10642E+04-1.52465E+05-1.18189E-09 3.59933E-10
 -1       768-4.14168E+02 3.92974E+05 4.02821E+04-8.32340E+04-8.17181E-10 2.19097E-09
 -1       769 1.48728E+04 4.07354E+05 5.34463E+04-1.52279E+05-9.45874E-10 2.04909E-09
 -1       770-1.54043E+03 3.84777E+05 7.66779E+04-8.35525E+04-8.54925E-10 7.13044E-10
 -1       771-1.71657E+06-3.30832E+05-1.41550E+05-6.99178E+05 1.13141E-09 9.38599E-10
 -1       772-1.73001E+06-3.27874E+05-7.20872E+04-7.32878E+05 5.60249E-10 2.00089E-10
 -1       773-1.72521E+06-2.96539E+05-3.05546E+04-7.17302E+05 5.91172E-10 1.57524E-09
 -1       774-1.71341E+06-3.10388E+05-1.50240E+04-7.34137E+05 3.63798E-11 3.63798E-12
 -1       775-1.72619E+06-2.95628E+05-6.93562E+03-7.17998E+05-2.56478E-10-1.61890E-09
 -1       776-1.71237E+06-3.09780E+05-3.49435E+03-7.34127E+05-1.81990E-09-7.51768E-09
 -1       777-1.72642E+06-2.95675E+05-1.87040E+03-7.18028E+05-1.64619E-10-1.42995E-09
 -1       778-1.71229E+06-3.09779E+05-1.43331E+03-7.34158E+05 1.02318E-10 7.85349E-10
 -1       779-1.72646E+06-2.95659E+05-1.75056E+03-7.18036E+05 3.22416E-10 3.69255E-10
 -1       780-1.71239E+06-3.09780E+05-3.18318E+03-7.34187E+05-6.14591E-10-7.64885E-10
 -1       781-1.72629E+06-2.95587E+05-6.26761E+03-7.18022E+05-3.11047E-10-5.19321E-10
 -1       782-1.71335E+06-3.10332E+05-1.35625E+04-7.34248E+05-2.72848E-10-4.10182E-10
 -1       783-1.72545E+06-2.96377E+05-2.75655E+04-7.17401E+05 1.10049E-10-2.06637E-09
 -1       784-1.72834E+06-3.26145E+05-6.50554E+04-7.33181E+05-7.23048E-11-1.26965E-09
 -1       785-1.71767E+06-3.27299E+05-1.27726E+05-7.01045E+05-9.46329E-10 1.11686E-09
 -1       786 7.86402E+05-2.20168E+03 1.05030E+05-3.31899E+04 1.01136E-09-1.22236E-09
 -1       787 8.17588E+05 1.95502E+04 6.14179E+04-6.08397E+04-1.99361E-09-4.42651E-09
 -1       788 7.99988E+05-4.98395E+02 2.65618E+04-3.30059E+04-6.63022E-10-1.58070E-09
 -1       789 8.02610E+05 1.05095E+03 1.39846E+04-6.09506E+04-3.61524E-10-1.60435E-09
 -1       790 8.01001E+05-1.23073E+02 6.68513E+03-3.30538E+04 2.18279E-10-3.81988E-11
 -1       791 8.01289E+05 4.34359E+01 3.51026E+03-6.08807E+04 3.55612E-10 9.62700E-10
 -1       792 8.01100E+05-2.67686E+01 1.87907E+03-3.30766E+04-3.66299E-10-5.43878E-10
 -1       793 8.01132E+05-1.73272E-01 1.30333E+03-6.08685E+04 4.68390E-10 7.98082E-11
 -1       794 8.01125E+05-3.05026E+01 1.31649E+03-3.30662E+04-1.12323E-10-8.43556E-11
 -1       795 8.01258E+05-7.74591E+00 2.07172E+03-6.09240E+04 1.25692E-09-2.68460E-09
 -1       796 8.01117E+05-1.15864E+02 3.72869E+03-3.30210E+04-7.78527E-10-3.47143E-09
 -1       797 8.02079E+05 4.94014E+02 7.70520E+03-6.10325E+04-2.18279E-09-4.68958E-11
 -1       798 8.00627E+05-3.74640E+02 1.45638E+04-3.29570E+04-1.48066E-09-7.63976E-11
 -1       799 8.10442E+05 1.05760E+04 3.36924E+04-6.09201E+04-4.51109E-09 1.12937E-09
 -1       800 7.93252E+05-1.38491E+03 5.75577E+04-3.31509E+04 1.16779E-09-5.63887E-10
 -1       801-3.78331E+01 8.76375E+04 4.04260E+04-3.58763E+05 3.80533E-09 6.33008E-10
 -1       802 1.26365E+04 9.67147E+04 3.13955E+04-6.56786E+05 4.35830E-09-2.96950E-09
 -1       803 2.27006E+03 8.95486E+04 2.79319E+04-3.57788E+05 6.02085E-09 4.84943E-09
 -1       804 1.87847E+04 1.02555E+05 4.80917E+04-6.56681E+05 3.58705E-09-4.80213E-09
 -1       805-1.30697E+03 8.31725E+04 7.50039E+04-3.58874E+05 3.87809E-09 2.48110E-09
 -1       806-1.03319E+06-2.21697E+05-8.95062E+04-4.48872E+05 3.67947E-09-2.08092E-09
 -1       807-1.03662E+06-2.24908E+05-4.55805E+04-4.76030E+05 1.44064E-09-2.05091E-09
 -1       808-1.03875E+06-1.99932E+05-1.93242E+04-4.60300E+05 2.09366E-09 7.23048E-10
 -1       809-1.02610E+06-2.13889E+05-9.50681E+03-4.76890E+05 1.14596E-10-5.60135E-10
 -1       810-1.03937E+06-1.99362E+05-4.39757E+03-4.60753E+05-6.28461E-10-1.65528E-09
 -1       811-1.02545E+06-2.13495E+05-2.23638E+03-4.76862E+05-2.61934E-10-6.28461E-10
 -1       812-1.03949E+06-1.99409E+05-1.23854E+03-4.60768E+05 5.28644E-10-8.00355E-11
 -1       813-1.02539E+06-2.13494E+05-1.02896E+03-4.76839E+05 1.62004E-10 1.80989E-09
 -1       814-1.03945E+06-1.99425E+05-1.36209E+03-4.60756E+05-1.26101E-09 6.90306E-10
 -1       815-1.02542E+06-2.13508E+05-2.55889E+03-4.76805E+05-3.12866E-10-1.93722E-09
 -1       816-1.03926E+06-1.99403E+05-5.08627E+03-4.60713E+05-2.06455E-09 1.81899E-10
 -1       817-1.02614E+06-2.13972E+05-1.10164E+04-4.76783E+05 8.10360E-10 1.51522E-09
 -1       818-1.03849E+06-2.00098E+05-2.24046E+04-4.60175E+05-1.31149E-09-1.92631E-09
 -1       819-1.03832E+06-2.26720E+05-5.28314E+04-4.75719E+05 5.25961E-09 6.07542E-09
 -1       820-1.03201E+06-2.25336E+05-1.03745E+05-4.46924E+05 1.64255E-09-1.87720E-09
 -1       821-5.12631E+05 1.31949E+03-6.83765E+04 1.78928E+04-1.07830E-08-1.18598E-09
 -1       822-5.32868E+05-1.27267E+04-3.99684E+04 3.33214E+04-3.06773E-09-2.69483E-09
 -1       823-5.21601E+05 3.03259E+02-1.73071E+04 1.76340E+04 1.09267E-08-3.65526E-09
 -1       824-5.23355E+05-5.67377E+02-9.10077E+03 3.36118E+04-6.64659E-09-7.92443E-09
 -1       825-5.22355E+05 1.41063E+02-4.37064E+03 1.75835E+04-1.75005E-08-4.31328E-09
 -1       826-5.22643E+05 1.64323E+02-2.30807E+03 3.36884E+04-3.02630E-08-1.93995E-09
 -1       827-5.22471E+05 1.24389E+02-1.28062E+03 1.75550E+04-1.57520E-08-3.04340E-09
 -1       828-5.22605E+05 2.23896E+02-9.63786E+02 3.37323E+04-2.14020E-08-4.43492E-09
 -1       829-5.22493E+05 1.36930E+02-1.09325E+03 1.75388E+04-4.56930E-09-6.71230E-09
 -1       830-5.22684E+05 2.08016E+02-1.83435E+03 3.37499E+04 1.49286E-08-7.93239E-09
 -1       831-5.22433E+05 1.72428E+02-3.39142E+03 1.75371E+04-1.01720E-08-4.26448E-09
 -1       832-5.23283E+05-3.30859E+02-7.03423E+03 3.37362E+04-1.73065E-09-7.13086E-09
 -1       833-5.21876E+05 3.17789E+02-1.33498E+04 1.75539E+04-3.46290E-09-4.48154E-09
 -1       834-5.30669E+05-9.69530E+03-3.08448E+04 3.35954E+04-2.35286E-09-7.45604E-09
 -1       835-5.14973E+05 1.11867E+03-5.27530E+04 1.77020E+04 5.42059E-09-6.61385E-09
 -1       836-1.05181E+03 9.76960E+05 8.04232E+04-1.41377E+05-4.30737E-09-3.70892E-09
 -1       837 1.67070E+04 1.00001E+06 5.75603E+04-2.56719E+05-2.49247E-09-4.85261E-09
 -1       838 9.98648E+01 9.85268E+05 4.58717E+04-1.41067E+05-4.64570E-09 1.47418E-09
 -1       839 2.25958E+04 1.00468E+06 7.27845E+04-2.56714E+05-4.20550E-09 5.17048E-10
 -1       840-1.64703E+03 9.72256E+05 1.12093E+05-1.41373E+05-4.20914E-09 2.96495E-09
 -1       841-1.30221E+04 1.20018E+04-1.80323E+04 1.19552E+04-1.73895E-09-2.20825E-09
 -1       842-2.95118E+04 1.77643E+04-1.03644E+04 2.38770E+04 4.78394E-09-1.99418E-09
 -1       843-1.53132E+04 1.07472E+04-4.18441E+03 1.12331E+04 8.71569E-09 4.25416E-10
 -1       844-2.68381E+04 2.14602E+04-2.12309E+03 2.37058E+04 4.16867E-09-3.85910E-09
 -1       845-1.55392E+04 1.06603E+04-9.44936E+02 1.11606E+04 4.71573E-09-4.54293E-09
 -1       846-2.66681E+04 2.17173E+04-4.39649E+02 2.36787E+04-9.46420E-09-9.15338E-09
 -1       847-1.55855E+04 1.06632E+04-1.58809E+02 1.11387E+04-1.73477E-08 8.87326E-11
 -1       848-2.66722E+04 2.17491E+04 2.22597E+01 2.36638E+04-1.60981E-09 5.55778E-09
 -1       849-1.56062E+04 1.06656E+04 2.11263E+02 1.11277E+04 1.97242E-08 3.71813E-09
 -1       850-2.66476E+04 2.17741E+04 5.41135E+02 2.36639E+04 1.69887E-08-2.87855E-09
 -1       851-1.56360E+04 1.06475E+04 1.13367E+03 1.11231E+04 4.27229E-09-4.71437E-09
 -1       852-2.63444E+04 2.20432E+04 2.55970E+03 2.36713E+04 2.21446E-08-3.93004E-09
 -1       853-1.58698E+04 1.05097E+04 5.01621E+03 1.10875E+04 1.08655E-08 2.04773E-09
 -1       854-2.27328E+04 2.61984E+04 1.24811E+04 2.32642E+04 1.66415E-09-2.98860E-09
 -1       855-1.87903E+04 9.17691E+03 2.16715E+04 1.05475E+04 8.96944E-09-2.86036E-09
 -1       856-2.65821E+05 6.13466E+02-2.87133E+04 1.41816E+04-1.09258E-08-5.30872E-09
 -1       857-2.74371E+05-5.23245E+03-1.67819E+04 2.64324E+04-1.25124E-08-5.21686E-09
 -1       858-2.69590E+05 1.90913E+02-7.26455E+03 1.40358E+04-1.53141E-08-6.05178E-09
 -1       859-2.70379E+05-1.26088E+02-3.81816E+03 2.65833E+04-4.38376E-10-7.86281E-09
 -1       860-2.69906E+05 1.22433E+02-1.82717E+03 1.40174E+04 5.23551E-09-6.95582E-09
 -1       861-2.70076E+05 1.79000E+02-9.56014E+02 2.66065E+04-1.93110E-08-7.74116E-09
 -1       862-2.69952E+05 1.12211E+02-5.11122E+02 1.40115E+04 1.11964E-08-7.28971E-09
 -1       863-2.70048E+05 1.99046E+02-3.52865E+02 2.66130E+04 4.09464E-08-8.66180E-09
 -1       864-2.69956E+05 1.10952E+02-3.57439E+02 1.40108E+04 1.56017E-08-8.32074E-09
 -1       865-2.70056E+05 1.87771E+02-5.61837E+02 2.66083E+04 1.88397E-08-9.29310E-09
 -1       866-2.69930E+05 1.13547E+02-1.01811E+03 1.40162E+04 3.58887E-09-5.30264E-09
 -1       867-2.70212E+05 1.63320E+01-2.09614E+03 2.65885E+04-7.38578E-09-4.51956E-09
 -1       868-2.69750E+05 1.45037E+02-3.97614E+03 1.40314E+04 8.99445E-09-5.49392E-09
 -1       869-2.72375E+05-2.78243E+03-9.17311E+03 2.64464E+04-1.10326E-08-7.84036E-09
 -1       870-2.67681E+05 3.66677E+02-1.56966E+04 1.41659E+04 1.85755E-08-7.91260E-09
 -1       871-3.83498E+03-5.46021E+04-8.10840E+03 1.53882E+05 3.71710E-09 8.00355E-11
 -1       872-2.03274E+03-5.62093E+04-2.46591E+03 1.93599E+05-1.19062E-08-3.80351E-09
 -1       873-6.74741E+02-5.57540E+04 2.38820E+03 1.53585E+05 3.52793E-09 2.35650E-09
 -1       874 1.45824E+03-5.33858E+04 9.00286E+03 1.93639E+05 2.28101E-09-1.83900E-09
 -1       875 5.52866E+03-5.75104E+04 1.88063E+04 1.53881E+05 8.41646E-09 5.19685E-09
 -1       876 3.74583E+05 5.91392E+04 3.68234E+04 1.52327E+05-1.14005E-09-2.82307E-09
 -1       877 3.80261E+05 7.55910E+04 2.12018E+04 1.59862E+05 1.25601E-08-1.78602E-09
 -1       878 3.79483E+05 6.14650E+04 8.53453E+03 1.53365E+05 2.18597E-09 6.77574E-10
 -1       879 3.74273E+05 6.84241E+04 4.36908E+03 1.60464E+05-2.33874E-08-3.12184E-09
 -1       880 3.79873E+05 6.17024E+04 1.97151E+03 1.53449E+05-3.96426E-09 6.36419E-10
 -1       881 3.73791E+05 6.79467E+04 1.01893E+03 1.60434E+05-9.15679E-09 2.09184E-10
 -1       882 3.79908E+05 6.17417E+04 5.66614E+02 1.53460E+05 1.89489E-08 5.81859E-09
 -1       883 3.73750E+05 6.79125E+04 4.85282E+02 1.60415E+05 8.60706E-09 8.31744E-09
 -1       884 3.79903E+05 6.17428E+04 6.53811E+02 1.53460E+05-1.64847E-09 2.70347E-09
 -1       885 3.73810E+05 6.79503E+04 1.25095E+03 1.60427E+05 3.91310E-08-2.18665E-09
 -1       886 3.79850E+05 6.17007E+04 2.46237E+03 1.53450E+05-2.15550E-10-3.33057E-09
 -1       887 3.74417E+05 6.85442E+04 5.47747E+03 1.60451E+05-2.41417E-08 2.60229E-09
 -1       888 3.79349E+05 6.14092E+04 1.07096E+04 1.53345E+05 7.13453E-09 1.45064E-09
 -1       889 3.81911E+05 7.75581E+04 2.66084E+04 1.59706E+05 2.21939E-08 6.16774E-09
 -1       890 3.73214E+05 5.84749E+04 4.62166E+04 1.52017E+05-1.04842E-08-6.31189E-10
 -1       891-1.90814E+02-1.83467E+05-8.11047E+03 5.74162E+04 5.88898E-09-1.46429E-10
 -1       892-2.08698E+03-1.85631E+05-5.75094E+03 1.04760E+05-1.44200E-09-2.53226E-09
 -1       893-2.27932E+02-1.84398E+05-4.54206E+03 5.72630E+04 1.50885E-09-4.84306E-10
 -1       894-2.64104E+03-1.86040E+05-7.15639E+03 1.04736E+05-4.63751E-09 2.26828E-09
 -1       895-1.54000E+02-1.83010E+05-1.10366E+04 5.74380E+04 9.10313E-09 2.37196E-09
 -1       896 7.62007E+05-3.07046E+02 1.09539E+04-1.78127E+04-1.50976E-10 2.98883E-10
 -1       897 7.65258E+05 1.98372E+03 6.42269E+03-3.26956E+04 1.30967E-10 5.97538E-10
 -1       898 7.63393E+05-9.58307E+01 2.77692E+03-1.77075E+04-2.74667E-10 1.03910E-10
 -1       899 7.63628E+05 7.89348E+01 1.48603E+03-3.27571E+04 4.41105E-11 3.98472E-10
 -1       900 7.63470E+05-3.30092E+01 7.43804E+02-1.77493E+04-1.57343E-10 3.77440E-11
 -1       901 7.63446E+05-3.16630E+00 4.69889E+02-3.26856E+04 2.48747E-10-3.35376E-11
 -1       902 7.63457E+05-8.29433E+00 3.98017E+02-1.77791E+04 1.23691E-10-1.10504E-10
 -1       903 7.63414E+05 7.93501E+00 5.51755E+02-3.26419E+04 1.70189E-10-2.32717E-10
 -1       904 7.63436E+05-7.63098E+00 9.54820E+02-1.77931E+04 4.22915E-11-1.29717E-10
 -1       905 7.63491E+05 4.04714E+01 1.89517E+03-3.26318E+04-8.93579E-11-1.62231E-10
 -1       906 7.63365E+05-4.93183E+01 3.67138E+03-1.77892E+04 9.41327E-11 5.16707E-11
 -1       907 7.64181E+05 6.16653E+02 7.70824E+03-3.26510E+04 4.38831E-11 2.61934E-10
 -1       908 7.62779E+05-2.33968E+02 1.46624E+04-1.77736E+04 1.99179E-10 2.05546E-10
 -1       909 7.72382E+05 1.08568E+04 3.38970E+04-3.25895E+04 1.76897E-10-1.55978E-10
 -1       910 7.55239E+05-1.14283E+03 5.79774E+04-1.78549E+04-9.91349E-11-9.82254E-11
 -1       911 1.75241E+05-8.30308E+01 2.00935E+03-1.61407E+04 1.91903E-10-4.61569E-11
 -1       912 1.75847E+05 3.58047E+02 1.18712E+03-2.93255E+04 1.04592E-11-4.12911E-10
 -1       913 1.75474E+05-2.41493E+01 5.17161E+02-1.60206E+04-2.11912E-10-8.87894E-11
 -1       914 1.75509E+05 2.39689E+01 2.93876E+02-2.94431E+04 1.06184E-10-1.66210E-10
 -1       915 1.75472E+05-2.44113E-01 1.75947E+02-1.60229E+04 4.09273E-10-1.35287E-10
 -1       916 1.75457E+05 1.92686E+01 1.68389E+02-2.94370E+04 2.84217E-10 2.13504E-10
 -1       917 1.75461E+05 8.45400E+00 2.34028E+02-1.60267E+04 6.18229E-10-3.90060E-10
 -1       918 1.75458E+05 2.43155E+01 4.29638E+02-2.94331E+04 2.31033E-10-3.90628E-10
 -1       919 1.75448E+05 6.46245E-01 8.20282E+02-1.60269E+04 3.16277E-10 4.54747E-13
 -1       920 1.75544E+05 4.56658E+01 1.67336E+03-2.94362E+04 6.28916E-10-2.18336E-10
 -1       921 1.75393E+05-4.31448E+01 3.26333E+03-1.60235E+04 3.19233E-10-2.63441E-10
 -1       922 1.76174E+05 5.53163E+02 6.86784E+03-2.94414E+04 6.62794E-10 4.52133E-10
 -1       923 1.74878E+05-2.13783E+02 1.30685E+04-1.60214E+04 2.11003E-10-1.39153E-10
 -1       924 1.83504E+05 9.68526E+03 3.02294E+04-2.93242E+04-1.13687E-10-4.07454E-10
 -1       925 1.68165E+05-1.03576E+03 5.17038E+04-1.61442E+04 9.18590E-11 2.94676E-10
 -1       926-9.27398E+05 1.02249E+03-5.40603E+04-1.86424E+04 2.85581E-10 2.76486E-10
 -1       927-9.43334E+05-1.01695E+04-3.16032E+04-3.38866E+04 5.45697E-11 3.85626E-10
 -1       928-9.34472E+05 2.00590E+02-1.36688E+04-1.84746E+04-1.49157E-10-3.80624E-10
 -1       929-9.35770E+05-5.66376E+02-7.18423E+03-3.40942E+04-6.20275E-10-1.14409E-09
 -1       930-9.35048E+05 5.58170E+01-3.42999E+03-1.84385E+04 6.82121E-13-1.80819E-10
 -1       931-9.35165E+05-7.87051E+00-1.78745E+03-3.41370E+04-2.74611E-10-1.84627E-10
 -1       932-9.35119E+05 2.35394E+01-9.38610E+02-1.84314E+04-7.36691E-11-3.78009E-10
 -1       933-9.35085E+05 1.64875E+01-6.17912E+02-3.41288E+04 2.23849E-10-5.13410E-10
 -1       934-9.35116E+05 1.00112E+01-5.83141E+02-1.84468E+04 1.98725E-10-3.00247E-10
 -1       935-9.35071E+05-1.20405E+01-8.70411E+02-3.40738E+04-5.11136E-10-4.27008E-10
 -1       936-9.35065E+05 3.45763E+00-1.55267E+03-1.84865E+04 2.18279E-11 2.74213E-10
 -1       937-9.35283E+05-2.82801E+02-3.17420E+03-3.39664E+04 2.93767E-10-7.78641E-10
 -1       938-9.34783E+05 4.11427E+01-6.01875E+03-1.85542E+04 3.31966E-10-5.07043E-10
 -1       939-9.38534E+05-4.52474E+03-1.38713E+04-3.36460E+04 1.21645E-09 1.12777E-10
 -1       940-9.31646E+05 3.68891E+02-2.37421E+04-1.88027E+04-6.80302E-10 1.45246E-09
 -1       941 1.32777E+06-3.74412E+03 1.94434E+05-2.32357E+04 9.88621E-10 1.28784E-09
 -1       942 1.38531E+06 3.63585E+04 1.13630E+05-4.29435E+04 3.04681E-11-1.26238E-09
 -1       943 1.35307E+06-7.86828E+02 4.91921E+04-2.31372E+04-1.96451E-10 1.30967E-10
 -1       944 1.35791E+06 2.02233E+03 2.58963E+04-4.29675E+04-3.86535E-10-8.25366E-10
 -1       945 1.35506E+06-1.92881E+02 1.24162E+04-2.31794E+04 5.62977E-10 9.02219E-10
 -1       946 1.35564E+06 7.73151E+01 6.56653E+03-4.29185E+04 1.20610E-09 2.52658E-09
 -1       947 1.35530E+06-6.21767E+01 3.61964E+03-2.31868E+04 5.07725E-10 1.34605E-09
 -1       948 1.35540E+06-2.61427E+01 2.70313E+03-4.29449E+04 3.50155E-10 1.14505E-09
 -1       949 1.35533E+06-6.93907E+01 3.01672E+03-2.31531E+04-1.01909E-09-2.00384E-09
 -1       950 1.35562E+06 1.49466E+01 5.02660E+03-4.30537E+04 1.15551E-09 1.88966E-09
 -1       951 1.35520E+06-1.95049E+02 9.24990E+03-2.30776E+04-2.09093E-09-9.05857E-10
 -1       952 1.35737E+06 1.41128E+03 1.91767E+04-4.32319E+04-1.15733E-09 4.38831E-11
 -1       953 1.35378E+06-6.72091E+02 3.63496E+04-2.29740E+04-1.08230E-09 4.92946E-10
 -1       954 1.37772E+06 2.67402E+04 8.39702E+04-4.32584E+04-5.59976E-09-7.01220E-10
 -1       955 1.33512E+06-2.91083E+03 1.43617E+05-2.30967E+04 8.91305E-10 1.69530E-09
 -1       956-4.39245E+05-9.59247E+03-2.92905E+04 5.02617E+04-1.49394E-08-7.53516E-10
 -1       957-4.45491E+05-3.52386E+03-1.52731E+04 6.28232E+04-2.36832E-09-6.54472E-09
 -1       958-4.42136E+05-7.22074E+01-6.89099E+03 4.98556E+04 1.09212E-08-3.16186E-09
 -1       959-4.42700E+05 1.77584E+02-3.52170E+03 6.32470E+04-4.05271E-09-6.08588E-09
 -1       960-4.42450E+05 2.72634E+02-1.72012E+03 4.98154E+04-1.61090E-08-2.54204E-09
 -1       961-4.42596E+05 3.56815E+02-8.98449E+02 6.32943E+04-3.13048E-08-6.22094E-09
 -1       962-4.42558E+05 2.99924E+02-4.95588E+02 4.98057E+04-1.36088E-08-2.19325E-09
 -1       963-4.42648E+05 3.95507E+02-3.58262E+02 6.33084E+04-1.59380E-08-6.37010E-09
 -1       964-4.42606E+05 3.27652E+02-3.90258E+02 4.98003E+04-2.37924E-09-2.62571E-09
 -1       965-4.42701E+05 4.18661E+02-6.35678E+02 6.33131E+04 1.49271E-08-7.82484E-09
 -1       966-4.42601E+05 3.52793E+02-1.17367E+03 4.98004E+04-5.60124E-09-1.96542E-09
 -1       967-4.42848E+05 3.39813E+02-2.39291E+03 6.32968E+04-1.14119E-09-7.13908E-09
 -1       968-4.42443E+05 1.55640E+02-4.66894E+03 4.98176E+04-1.26693E-09-2.51111E-09
 -1       969-4.44808E+05-2.14119E+03-1.03639E+04 6.30912E+04-1.97906E-09-7.64646E-09
 -1       970-4.40519E+05-6.28602E+03-1.98679E+04 5.00312E+04 3.89809E-09-3.03953E-09
 -1       971-4.78432E+05 4.82193E+02-2.24209E+04 1.26736E+04-1.38389E-08 2.43381E-09
 -1       972-4.85087E+05-4.06808E+03-1.31045E+04 2.41934E+04-2.00325E-08 3.03135E-09
 -1       973-4.81378E+05 1.55695E+02-5.67884E+03 1.25160E+04-1.93777E-08 1.88811E-09
 -1       974-4.81980E+05-7.63551E+01-2.99359E+03 2.43690E+04-5.17684E-09 2.10866E-09
 -1       975-4.81628E+05 1.06022E+02-1.45283E+03 1.24878E+04 5.39831E-09 8.78572E-10
 -1       976-4.81752E+05 1.65903E+02-7.98882E+02 2.44083E+04-8.27458E-09 3.93516E-09
 -1       977-4.81666E+05 1.01879E+02-5.03089E+02 1.24757E+04 8.33279E-09 1.36345E-09
 -1       978-4.81744E+05 1.84178E+02-4.87763E+02 2.44234E+04 4.53390E-08 9.28139E-10
 -1       979-4.81665E+05 1.07200E+02-6.97032E+02 1.24725E+04 1.80413E-08 1.08389E-09
 -1       980-4.81794E+05 1.63581E+02-1.29817E+03 2.44204E+04 1.94374E-08 1.53466E-09
 -1       981-4.81612E+05 1.28441E+02-2.47587E+03 1.24788E+04-1.61026E-09 2.18328E-09
 -1       982-4.82226E+05-2.39498E+02-5.17590E+03 2.43954E+04-5.86624E-11 2.89745E-09
 -1       983-4.81196E+05 2.32400E+02-9.84336E+03 1.24987E+04 1.35174E-08 2.46018E-10
 -1       984-4.87670E+05-7.14977E+03-2.27508E+04 2.42576E+04-1.64139E-08 1.81626E-09
 -1       985-4.76104E+05 8.21943E+02-3.89169E+04 1.26354E+04 1.52986E-08 1.15324E-09
 -3
 9999
