
 stresses (elem, integ.pnt.,sxx,syy,szz,sxy,sxz,syz) for set ELALL and time  0.1000000E+01

         1   1 -2.193861E+06 -8.646235E+04 -1.041149E+05 -4.039120E+04 -7.144251E+04  4.663760E+00
         1   2 -2.181667E+06  9.410336E+02 -4.730104E+04 -1.394270E+04 -4.637013E+04  1.044898E+00
         1   3 -2.193766E+06  4.347112E+03 -2.785105E+04  1.250690E+04 -2.129749E+04 -4.305023E-01
         1   4 -2.193863E+06 -8.646543E+04 -1.041153E+05  6.701905E-09 -7.144251E+04 -1.864614E-10
         1   5 -2.181668E+06  9.406670E+02 -4.730109E+04 -2.182238E-09 -4.637013E+04  9.902459E-11
         1   6 -2.193766E+06  4.346817E+03 -2.785109E+04 -5.542213E-10 -2.129749E+04  1.634121E-09
         1   7 -2.193861E+06 -8.646235E+04 -1.041149E+05  4.039120E+04 -7.144251E+04 -4.663760E+00
         1   8 -2.181667E+06  9.410336E+02 -4.730104E+04  1.394270E+04 -4.637013E+04 -1.044898E+00
         1   9 -2.193766E+06  4.347112E+03 -2.785105E+04 -1.250690E+04 -2.129749E+04  4.305024E-01
         1  10 -2.193867E+06 -8.646373E+04 -1.041245E+05 -4.039120E+04 -1.686330E-09 -5.916355E-10
         1  11 -2.181670E+06  9.404538E+02 -4.730510E+04 -1.394270E+04 -4.327455E-10 -1.187755E-09
         1  12 -2.193766E+06  4.346989E+03 -2.785191E+04  1.250690E+04 -1.617866E-09  1.500531E-10
         1  13 -2.193869E+06 -8.646680E+04 -1.041249E+05  2.124958E-09 -1.059171E-09 -4.126824E-10
         1  14 -2.181670E+06  9.400873E+02 -4.730515E+04  7.558894E-09 -1.626251E-09 -8.755104E-10
         1  15 -2.193767E+06  4.346694E+03 -2.785195E+04  2.745073E-09 -4.493287E-10  5.539142E-11
         1  16 -2.193867E+06 -8.646373E+04 -1.041245E+05  4.039120E+04 -2.003712E-11 -1.979056E-10
         1  17 -2.181670E+06  9.404538E+02 -4.730510E+04  1.394270E+04  1.258880E-09 -5.279397E-10
         1  18 -2.193766E+06  4.346989E+03 -2.785191E+04 -1.250690E+04  2.335390E-09 -1.572270E-10
         1  19 -2.193861E+06 -8.646235E+04 -1.041149E+05 -4.039120E+04  7.144251E+04 -4.663760E+00
         1  20 -2.181667E+06  9.410336E+02 -4.730104E+04 -1.394270E+04  4.637013E+04 -1.044898E+00
         1  21 -2.193766E+06  4.347112E+03 -2.785105E+04  1.250690E+04  2.129749E+04  4.305024E-01
         1  22 -2.193863E+06 -8.646543E+04 -1.041153E+05  1.051028E-08  7.144251E+04 -6.461893E-10
         1  23 -2.181668E+06  9.406670E+02 -4.730109E+04  8.681068E-09  4.637013E+04 -1.887871E-09
         1  24 -2.193766E+06  4.346817E+03 -2.785109E+04  4.169647E-09  2.129749E+04 -1.514239E-09
         1  25 -2.193861E+06 -8.646235E+04 -1.041149E+05  4.039120E+04  7.144251E+04  4.663760E+00
         1  26 -2.181667E+06  9.410336E+02 -4.730104E+04  1.394270E+04  4.637013E+04  1.044898E+00
         1  27 -2.193766E+06  4.347112E+03 -2.785105E+04 -1.250690E+04  2.129749E+04 -4.305024E-01
         2   1 -2.188837E+06 -4.923170E+03 -2.217720E+04 -1.714566E+03 -1.733585E+04  4.803894E-02
         2   2 -2.187812E+06  1.850212E+02 -1.197246E+04 -3.990481E+02 -1.132457E+04  7.303665E-03
         2   3 -2.188825E+06  2.858478E+02 -6.943352E+03  9.164649E+02 -5.313246E+03 -7.869923E-03
         2   4 -2.188837E+06 -4.923175E+03 -2.217720E+04  6.688353E-09 -1.733585E+04  1.859996E-09
         2   5 -2.187812E+06  1.850209E+02 -1.197246E+04  1.833352E-09 -1.132457E+04  3.488647E-10
         2   6 -2.188825E+06  2.858462E+02 -6.943352E+03  1.741867E-08 -5.313246E+03 -1.442630E-09
         2   7 -2.188837E+06 -4.923170E+03 -2.217720E+04  1.714566E+03 -1.733585E+04 -4.803894E-02
         2   8 -2.187812E+06  1.850212E+02 -1.197246E+04  3.990481E+02 -1.132457E+04 -7.303665E-03
         2   9 -2.188825E+06  2.858478E+02 -6.943352E+03 -9.164649E+02 -5.313246E+03  7.869921E-03
         2  10 -2.188837E+06 -4.923251E+03 -2.217777E+04 -1.714566E+03  5.968615E-10  1.028709E-09
         2  11 -2.187812E+06  1.849866E+02 -1.197270E+04 -3.990481E+02  1.966590E-09  9.258076E-10
         2  12 -2.188825E+06  2.858402E+02 -6.943405E+03  9.164649E+02 -4.330211E-10  8.374921E-10
         2  13 -2.188837E+06 -4.923256E+03 -2.217777E+04  3.329933E-10 -1.161001E-09  8.145515E-10
         2  14 -2.187812E+06  1.849863E+02 -1.197270E+04  1.574825E-08 -9.525416E-10  8.143453E-10
         2  15 -2.188825E+06  2.858386E+02 -6.943406E+03  1.234137E-08  8.279030E-10  1.384645E-10
         2  16 -2.188837E+06 -4.923251E+03 -2.217777E+04  1.714566E+03  1.487959E-09  4.901313E-10
         2  17 -2.187812E+06  1.849866E+02 -1.197270E+04  3.990481E+02 -1.547697E-09  8.414310E-10
         2  18 -2.188825E+06  2.858402E+02 -6.943405E+03 -9.164649E+02 -1.566649E-09 -5.796666E-10
         2  19 -2.188837E+06 -4.923170E+03 -2.217720E+04 -1.714566E+03  1.733585E+04 -4.803894E-02
         2  20 -2.187812E+06  1.850212E+02 -1.197246E+04 -3.990481E+02  1.132457E+04 -7.303663E-03
         2  21 -2.188825E+06  2.858478E+02 -6.943352E+03  9.164649E+02  5.313246E+03  7.869926E-03
         2  22 -2.188837E+06 -4.923175E+03 -2.217720E+04  2.577436E-09  1.733585E+04 -3.630312E-10
         2  23 -2.187812E+06  1.850209E+02 -1.197246E+04  3.846842E-09  1.132457E+04  1.332386E-09
         2  24 -2.188825E+06  2.858462E+02 -6.943352E+03  2.338769E-08  5.313246E+03  1.675652E-09
         2  25 -2.188837E+06 -4.923170E+03 -2.217720E+04  1.714566E+03  1.733585E+04  4.803894E-02
         2  26 -2.187812E+06  1.850212E+02 -1.197246E+04  3.990481E+02  1.132457E+04  7.303666E-03
         2  27 -2.188825E+06  2.858478E+02 -6.943352E+03 -9.164649E+02  5.313246E+03 -7.869922E-03
         3   1 -2.188434E+06 -2.406506E+02 -5.348482E+03  6.536797E+01 -4.232878E+03 -4.471943E-04
         3   2 -2.188295E+06  4.453994E+01 -3.091334E+03  7.764771E+01 -2.701110E+03 -3.389748E-04
         3   3 -2.188432E+06  2.612582E+01 -1.909941E+03  8.992726E+01 -1.169361E+03 -1.699559E-04
         3   4 -2.188434E+06 -2.406506E+02 -5.348482E+03  1.021933E-08 -4.232878E+03 -2.066571E-09
         3   5 -2.188295E+06  4.453993E+01 -3.091334E+03  1.083881E-09 -2.701110E+03 -1.763550E-09
         3   6 -2.188432E+06  2.612581E+01 -1.909941E+03 -7.498851E-09 -1.169361E+03 -2.977255E-10
         3   7 -2.188434E+06 -2.406506E+02 -5.348482E+03 -6.536797E+01 -4.232878E+03  4.471904E-04
         3   8 -2.188295E+06  4.453994E+01 -3.091334E+03 -7.764771E+01 -2.701110E+03  3.389709E-04
         3   9 -2.188432E+06  2.612582E+01 -1.909941E+03 -8.992726E+01 -1.169361E+03  1.699554E-04
         3  10 -2.188434E+06 -2.406554E+02 -5.348516E+03  6.536797E+01 -5.255896E-10  2.222145E-10
         3  11 -2.188295E+06  4.453797E+01 -3.091348E+03  7.764771E+01 -2.375899E-09 -1.022064E-09
         3  12 -2.188432E+06  2.612546E+01 -1.909944E+03  8.992726E+01 -5.971383E-10 -5.805831E-10
         3  13 -2.188434E+06 -2.406554E+02 -5.348516E+03  3.548996E-09  1.584401E-11 -6.449916E-10
         3  14 -2.188295E+06  4.453796E+01 -3.091348E+03  5.434174E-09  5.380107E-10 -1.134170E-09
         3  15 -2.188432E+06  2.612544E+01 -1.909944E+03 -7.744997E-09 -4.708190E-10 -1.471979E-10
         3  16 -2.188434E+06 -2.406554E+02 -5.348516E+03 -6.536797E+01 -8.131803E-10 -1.525474E-09
         3  17 -2.188295E+06  4.453797E+01 -3.091348E+03 -7.764771E+01  7.168656E-10 -1.335855E-09
         3  18 -2.188432E+06  2.612546E+01 -1.909944E+03 -8.992726E+01  1.587101E-10  1.308346E-10
         3  19 -2.188434E+06 -2.406506E+02 -5.348482E+03  6.536797E+01  4.232878E+03  4.471949E-04
         3  20 -2.188295E+06  4.453994E+01 -3.091334E+03  7.764771E+01  2.701110E+03  3.389730E-04
         3  21 -2.188432E+06  2.612582E+01 -1.909941E+03  8.992726E+01  1.169361E+03  1.699551E-04
         3  22 -2.188434E+06 -2.406506E+02 -5.348482E+03  1.842229E-08  4.232878E+03  8.114125E-10
         3  23 -2.188295E+06  4.453993E+01 -3.091334E+03  3.336716E-09  2.701110E+03 -4.011995E-10
         3  24 -2.188432E+06  2.612581E+01 -1.909941E+03 -7.161028E-09  1.169361E+03  2.529106E-11
         3  25 -2.188434E+06 -2.406506E+02 -5.348482E+03 -6.536797E+01  4.232878E+03 -4.471935E-04
         3  26 -2.188295E+06  4.453994E+01 -3.091334E+03 -7.764771E+01  2.701110E+03 -3.389741E-04
         3  27 -2.188432E+06  2.612582E+01 -1.909941E+03 -8.992726E+01  1.169361E+03 -1.699548E-04
         4   1 -2.188389E+06 -1.194533E-01 -1.562114E+03  3.679078E+01 -8.565935E+02 -5.093365E-05
         4   2 -2.188347E+06  1.697061E+01 -1.199160E+03  1.030461E+01 -2.643554E+02 -4.401777E-06
         4   3 -2.188389E+06  1.071758E+01 -1.228638E+03 -1.618194E+01  3.278917E+02 -8.575807E-06
         4   4 -2.188389E+06 -1.194558E-01 -1.562114E+03  2.732185E-09 -8.565935E+02  7.175540E-10
         4   5 -2.188347E+06  1.697061E+01 -1.199160E+03  2.880664E-09 -2.643554E+02  1.351565E-09
         4   6 -2.188389E+06  1.071757E+01 -1.228638E+03  6.830926E-09  3.278917E+02  5.428766E-10
         4   7 -2.188389E+06 -1.194533E-01 -1.562114E+03 -3.679078E+01 -8.565935E+02  5.093521E-05
         4   8 -2.188347E+06  1.697061E+01 -1.199160E+03 -1.030461E+01 -2.643554E+02  4.403915E-06
         4   9 -2.188389E+06  1.071758E+01 -1.228638E+03  1.618194E+01  3.278917E+02  8.577040E-06
         4  10 -2.188389E+06 -1.196511E-01 -1.562115E+03  3.679078E+01 -6.161843E-10  1.585046E-10
         4  11 -2.188347E+06  1.697059E+01 -1.199160E+03  1.030461E+01 -1.102386E-09  6.873477E-10
         4  12 -2.188389E+06  1.071755E+01 -1.228638E+03 -1.618194E+01 -9.661669E-10 -7.428753E-10
         4  13 -2.188389E+06 -1.196536E-01 -1.562115E+03 -5.756326E-09 -2.217347E-09  6.375693E-10
         4  14 -2.188347E+06  1.697059E+01 -1.199160E+03  2.840769E-09  6.369104E-10  9.337646E-10
         4  15 -2.188389E+06  1.071755E+01 -1.228638E+03 -1.987246E-09 -9.983569E-10  3.367388E-10
         4  16 -2.188389E+06 -1.196511E-01 -1.562115E+03 -3.679078E+01  1.181283E-09  9.462647E-10
         4  17 -2.188347E+06  1.697059E+01 -1.199160E+03 -1.030461E+01 -1.305306E-09  1.254109E-09
         4  18 -2.188389E+06  1.071755E+01 -1.228638E+03  1.618194E+01 -1.066758E-09  1.372662E-09
         4  19 -2.188389E+06 -1.194533E-01 -1.562114E+03  3.679078E+01  8.565935E+02  5.093461E-05
         4  20 -2.188347E+06  1.697061E+01 -1.199160E+03  1.030461E+01  2.643554E+02  4.403511E-06
         4  21 -2.188389E+06  1.071758E+01 -1.228638E+03 -1.618194E+01 -3.278917E+02  8.574658E-06
         4  22 -2.188389E+06 -1.194558E-01 -1.562114E+03 -1.294745E-09  8.565935E+02  6.020790E-10
         4  23 -2.188347E+06  1.697061E+01 -1.199160E+03 -5.794724E-09  2.643554E+02  6.253717E-10
         4  24 -2.188389E+06  1.071757E+01 -1.228638E+03  1.203281E-08 -3.278917E+02  1.725394E-10
         4  25 -2.188389E+06 -1.194532E-01 -1.562114E+03 -3.679078E+01  8.565935E+02 -5.093337E-05
         4  26 -2.188347E+06  1.697061E+01 -1.199160E+03 -1.030461E+01  2.643554E+02 -4.401856E-06
         4  27 -2.188389E+06  1.071758E+01 -1.228638E+03  1.618194E+01 -3.278917E+02 -8.574323E-06
         5   1 -2.188402E+06  1.078906E+01 -1.383061E+03 -2.864954E+01  5.642544E+02 -2.612739E-05
         5   2 -2.188331E+06  2.881049E+01 -2.033378E+03 -7.001568E+01  1.568729E+03 -1.775151E-04
         5   3 -2.188404E+06 -3.466100E+00 -3.351955E+03 -1.113819E+02  2.573202E+03 -4.632148E-04
         5   4 -2.188402E+06  1.078906E+01 -1.383061E+03  3.169225E-09  5.642544E+02  2.194358E-10
         5   5 -2.188331E+06  2.881048E+01 -2.033378E+03  3.239668E-09  1.568729E+03  2.469278E-10
         5   6 -2.188404E+06 -3.466123E+00 -3.351955E+03  5.822523E-10  2.573202E+03 -2.159454E-10
         5   7 -2.188402E+06  1.078906E+01 -1.383061E+03  2.864954E+01  5.642544E+02  2.612779E-05
         5   8 -2.188331E+06  2.881049E+01 -2.033378E+03  7.001568E+01  1.568729E+03  1.775155E-04
         5   9 -2.188404E+06 -3.466100E+00 -3.351955E+03  1.113819E+02  2.573202E+03  4.632146E-04
         5  10 -2.188402E+06  1.078898E+01 -1.383061E+03 -2.864954E+01 -1.658104E-09 -9.495076E-10
         5  11 -2.188331E+06  2.880983E+01 -2.033383E+03 -7.001568E+01 -2.103251E-09  1.014721E-10
         5  12 -2.188404E+06 -3.467885E+00 -3.351968E+03 -1.113819E+02 -1.159962E-09  3.272439E-10
         5  13 -2.188402E+06  1.078898E+01 -1.383061E+03 -3.343616E-09  1.273804E-09 -1.562984E-10
         5  14 -2.188331E+06  2.880982E+01 -2.033383E+03  4.296795E-09 -1.548739E-09 -4.193589E-10
         5  15 -2.188404E+06 -3.467909E+00 -3.351968E+03 -8.482073E-09 -1.058700E-09 -2.721902E-10
         5  16 -2.188402E+06  1.078898E+01 -1.383061E+03  2.864954E+01 -1.594213E-09  6.310422E-10
         5  17 -2.188331E+06  2.880983E+01 -2.033383E+03  7.001568E+01 -8.310878E-10 -1.015495E-09
         5  18 -2.188404E+06 -3.467885E+00 -3.351968E+03  1.113819E+02 -1.101386E-09 -1.040730E-09
         5  19 -2.188402E+06  1.078906E+01 -1.383061E+03 -2.864954E+01 -5.642544E+02  2.612554E-05
         5  20 -2.188331E+06  2.881049E+01 -2.033378E+03 -7.001568E+01 -1.568729E+03  1.775155E-04
         5  21 -2.188404E+06 -3.466100E+00 -3.351955E+03 -1.113819E+02 -2.573202E+03  4.632156E-04
         5  22 -2.188402E+06  1.078906E+01 -1.383061E+03  7.378834E-09 -5.642544E+02 -5.525136E-10
         5  23 -2.188331E+06  2.881048E+01 -2.033378E+03  5.381220E-09 -1.568729E+03 -1.096424E-09
         5  24 -2.188404E+06 -3.466123E+00 -3.351955E+03  3.139795E-09 -2.573202E+03 -3.324463E-10
         5  25 -2.188402E+06  1.078906E+01 -1.383061E+03  2.864954E+01 -5.642544E+02 -2.612668E-05
         5  26 -2.188331E+06  2.881049E+01 -2.033378E+03  7.001568E+01 -1.568729E+03 -1.775180E-04
         5  27 -2.188404E+06 -3.466100E+00 -3.351955E+03  1.113819E+02 -2.573202E+03 -4.632163E-04
         6   1 -2.188522E+06  6.026465E+01 -4.355912E+03 -2.425176E+02  3.266953E+03 -1.280503E-03
         6   2 -2.188187E+06  1.079794E+02 -7.488838E+03 -2.053067E+02  6.978227E+03 -2.315488E-03
         6   3 -2.188527E+06 -6.023700E+02 -1.323381E+04 -1.680963E+02  1.068943E+04 -2.904069E-03
         6   4 -2.188522E+06  6.026454E+01 -4.355912E+03 -4.663477E-10  3.266953E+03 -1.516048E-10
         6   5 -2.188187E+06  1.079793E+02 -7.488838E+03 -3.254082E-09  6.978227E+03  4.239235E-10
         6   6 -2.188527E+06 -6.023700E+02 -1.323381E+04  1.789282E-10  1.068943E+04 -4.588695E-10
         6   7 -2.188522E+06  6.026465E+01 -4.355912E+03  2.425176E+02  3.266953E+03  1.280503E-03
         6   8 -2.188187E+06  1.079794E+02 -7.488838E+03  2.053067E+02  6.978227E+03  2.315488E-03
         6   9 -2.188527E+06 -6.023700E+02 -1.323381E+04  1.680963E+02  1.068943E+04  2.904068E-03
         6  10 -2.188522E+06  6.026178E+01 -4.355932E+03 -2.425176E+02 -8.581961E-10 -6.801253E-11
         6  11 -2.188187E+06  1.079663E+02 -7.488930E+03 -2.053067E+02  1.100429E-09 -4.936387E-11
         6  12 -2.188527E+06 -6.024008E+02 -1.323402E+04 -1.680963E+02 -4.785438E-10  3.357013E-10
         6  13 -2.188522E+06  6.026167E+01 -4.355932E+03  1.700403E-09 -2.349712E-09 -9.472041E-11
         6  14 -2.188187E+06  1.079662E+02 -7.488930E+03 -4.296515E-09 -1.976700E-10  8.354071E-11
         6  15 -2.188527E+06 -6.024008E+02 -1.323402E+04 -7.073766E-09 -8.207586E-10  3.454870E-10
         6  16 -2.188522E+06  6.026178E+01 -4.355932E+03  2.425176E+02 -3.922511E-10 -2.264390E-10
         6  17 -2.188187E+06  1.079663E+02 -7.488930E+03  2.053067E+02 -4.910858E-10  2.842777E-10
         6  18 -2.188527E+06 -6.024008E+02 -1.323402E+04  1.680963E+02  2.088908E-09  5.677348E-10
         6  19 -2.188522E+06  6.026465E+01 -4.355912E+03 -2.425176E+02 -3.266953E+03  1.280503E-03
         6  20 -2.188187E+06  1.079794E+02 -7.488838E+03 -2.053067E+02 -6.978227E+03  2.315488E-03
         6  21 -2.188527E+06 -6.023700E+02 -1.323381E+04 -1.680963E+02 -1.068943E+04  2.904069E-03
         6  22 -2.188522E+06  6.026454E+01 -4.355912E+03  1.037790E-08 -3.266953E+03 -5.678551E-11
         6  23 -2.188187E+06  1.079793E+02 -7.488838E+03 -4.260818E-09 -6.978227E+03 -2.622915E-10
         6  24 -2.188527E+06 -6.023700E+02 -1.323381E+04  8.003231E-09 -1.068943E+04  1.177340E-09
         6  25 -2.188522E+06  6.026465E+01 -4.355912E+03  2.425176E+02 -3.266953E+03 -1.280503E-03
         6  26 -2.188187E+06  1.079794E+02 -7.488838E+03  2.053067E+02 -6.978227E+03 -2.315488E-03
         6  27 -2.188527E+06 -6.023700E+02 -1.323381E+04  1.680963E+02 -1.068943E+04 -2.904067E-03
         7   1 -2.189508E+06  7.133459E+02 -1.725434E+04 -2.295625E+03  1.336862E+04 -4.960009E-02
         7   2 -2.186976E+06  4.617221E+02 -2.987100E+04  9.948945E+02  2.836764E+04  4.561346E-02
         7   3 -2.189537E+06 -1.230834E+04 -5.540665E+04  4.285492E+03  4.336660E+04  3.003651E-01
         7   4 -2.189508E+06  7.133360E+02 -1.725434E+04  4.127139E-09  1.336862E+04 -7.289822E-10
         7   5 -2.186976E+06  4.617202E+02 -2.987100E+04 -1.586691E-09  2.836764E+04 -1.037759E-10
         7   6 -2.189537E+06 -1.230838E+04 -5.540666E+04  7.494964E-09  4.336660E+04  1.445477E-10
         7   7 -2.189508E+06  7.133459E+02 -1.725434E+04  2.295625E+03  1.336862E+04  4.960009E-02
         7   8 -2.186976E+06  4.617221E+02 -2.987100E+04 -9.948945E+02  2.836764E+04 -4.561346E-02
         7   9 -2.189537E+06 -1.230834E+04 -5.540665E+04 -4.285492E+03  4.336660E+04 -3.003651E-01
         7  10 -2.189508E+06  7.132977E+02 -1.725467E+04 -2.295625E+03 -1.040887E-09  2.260936E-10
         7  11 -2.186977E+06  4.615051E+02 -2.987251E+04  9.948945E+02 -1.225851E-09  2.050003E-10
         7  12 -2.189539E+06 -1.230885E+04 -5.541020E+04  4.285492E+03  2.834322E-10 -2.411084E-10
         7  13 -2.189508E+06  7.132878E+02 -1.725467E+04  6.184721E-09 -9.124460E-10  2.575593E-10
         7  14 -2.186977E+06  4.615032E+02 -2.987252E+04 -5.505471E-10 -1.712577E-09 -1.176474E-10
         7  15 -2.189539E+06 -1.230888E+04 -5.541021E+04 -3.544917E-09  2.006189E-09 -2.077906E-10
         7  16 -2.189508E+06  7.132977E+02 -1.725467E+04  2.295625E+03  4.608881E-10  1.871223E-10
         7  17 -2.186977E+06  4.615051E+02 -2.987251E+04 -9.948945E+02  1.273002E-10 -4.669247E-10
         7  18 -2.189539E+06 -1.230885E+04 -5.541020E+04 -4.285492E+03  1.223389E-09 -2.314842E-10
         7  19 -2.189508E+06  7.133459E+02 -1.725434E+04 -2.295625E+03 -1.336862E+04  4.960009E-02
         7  20 -2.186976E+06  4.617221E+02 -2.987100E+04  9.948945E+02 -2.836764E+04 -4.561346E-02
         7  21 -2.189537E+06 -1.230834E+04 -5.540665E+04  4.285492E+03 -4.336660E+04 -3.003651E-01
         7  22 -2.189508E+06  7.133360E+02 -1.725434E+04  1.043004E-08 -1.336862E+04  1.232539E-09
         7  23 -2.186976E+06  4.617202E+02 -2.987100E+04  3.709514E-09 -2.836764E+04 -2.135210E-10
         7  24 -2.189537E+06 -1.230838E+04 -5.540666E+04  1.097950E-08 -4.336660E+04 -5.296555E-10
         7  25 -2.189508E+06  7.133459E+02 -1.725434E+04  2.295625E+03 -1.336862E+04 -4.960009E-02
         7  26 -2.186976E+06  4.617221E+02 -2.987100E+04 -9.948945E+02 -2.836764E+04  4.561346E-02
         7  27 -2.189537E+06 -1.230834E+04 -5.540665E+04 -4.285492E+03 -4.336660E+04  3.003651E-01
         8   1 -2.201858E+06  1.086895E+04 -6.959747E+04 -3.126837E+04  5.326396E+04 -2.691787E+00
         8   2 -2.171612E+06  2.353648E+03 -1.182213E+05  3.485713E+04  1.159413E+05  6.531455E+00
         8   3 -2.202086E+06 -2.161392E+05 -2.602394E+05  1.009783E+05  1.786194E+05  2.915054E+01
         8   4 -2.201859E+06  1.086710E+04 -6.959773E+04  5.274152E-09  5.326396E+04 -1.482848E-10
         8   5 -2.171613E+06  2.351357E+03 -1.182216E+05 -3.086669E-09  1.159413E+05 -5.420537E-10
         8   6 -2.202097E+06 -2.161584E+05 -2.602422E+05  2.276374E-09  1.786194E+05 -3.118271E-10
         8   7 -2.201858E+06  1.086895E+04 -6.959747E+04  3.126837E+04  5.326396E+04  2.691787E+00
         8   8 -2.171612E+06  2.353648E+03 -1.182213E+05 -3.485713E+04  1.159413E+05 -6.531455E+00
         8   9 -2.202086E+06 -2.161392E+05 -2.602394E+05 -1.009783E+05  1.786194E+05 -2.915054E+01
         8  10 -2.201861E+06  1.086818E+04 -6.960282E+04 -3.126837E+04  1.905283E-10 -3.013215E-10
         8  11 -2.171626E+06  2.350023E+03 -1.182466E+05  3.485713E+04  9.037999E-10  1.760783E-10
         8  12 -2.202120E+06 -2.161478E+05 -2.602996E+05  1.009783E+05 -8.829107E-10  9.819413E-11
         8  13 -2.201862E+06  1.086634E+04 -6.960308E+04 -1.117094E-09 -1.059156E-09 -8.564872E-11
         8  14 -2.171627E+06  2.347732E+03 -1.182469E+05 -5.219888E-09  1.710986E-09  7.679552E-11
         8  15 -2.202131E+06 -2.161670E+05 -2.603023E+05  8.999936E-10 -2.428514E-10  2.616127E-11
         8  16 -2.201861E+06  1.086818E+04 -6.960282E+04  3.126837E+04  4.408166E-11  4.832266E-11
         8  17 -2.171626E+06  2.350023E+03 -1.182466E+05 -3.485713E+04 -2.808964E-09 -1.877537E-10
         8  18 -2.202120E+06 -2.161478E+05 -2.602996E+05 -1.009783E+05 -2.067427E-09 -6.006013E-11
         8  19 -2.201858E+06  1.086895E+04 -6.959747E+04 -3.126837E+04 -5.326396E+04  2.691787E+00
         8  20 -2.171612E+06  2.353648E+03 -1.182213E+05  3.485713E+04 -1.159413E+05 -6.531455E+00
         8  21 -2.202086E+06 -2.161392E+05 -2.602394E+05  1.009783E+05 -1.786194E+05 -2.915054E+01
         8  22 -2.201859E+06  1.086710E+04 -6.959773E+04  5.395948E-09 -5.326396E+04 -3.008126E-11
         8  23 -2.171613E+06  2.351357E+03 -1.182216E+05 -1.987494E-09 -1.159413E+05  6.311052E-10
         8  24 -2.202097E+06 -2.161584E+05 -2.602422E+05  2.200775E-09 -1.786194E+05  3.645309E-10
         8  25 -2.201858E+06  1.086895E+04 -6.959747E+04  3.126837E+04 -5.326396E+04 -2.691787E+00
         8  26 -2.171612E+06  2.353648E+03 -1.182213E+05 -3.485713E+04 -1.159413E+05  6.531455E+00
         8  27 -2.202086E+06 -2.161392E+05 -2.602394E+05 -1.009783E+05 -1.786194E+05  2.915054E+01
         9   1  1.759222E+06  5.696461E+06  1.720313E+06 -1.085398E+06  7.909530E+04  5.400265E+05
         9   2  1.296044E+06  4.611501E+06  1.168737E+06 -8.919016E+05  2.520106E+05  2.418876E+05
         9   3  1.008893E+06  3.612716E+06  8.547059E+05 -9.503174E+05  2.656332E+05 -5.571789E+04
         9   4  1.994616E+05 -6.237851E+05  2.238289E+05 -9.552005E+05  7.998933E+04  1.557146E+05
         9   5  3.479269E+04 -6.439389E+05  1.068068E+05 -8.295198E+05  2.526042E+05  1.009266E+05
         9   6  4.951582E+03 -6.203706E+05  5.970465E+04 -9.557327E+05  2.653752E+05  4.612507E+04
         9   7 -1.363025E+06 -6.907179E+06 -1.274874E+06 -8.262831E+05  8.073031E+04 -2.247380E+05
         9   8 -1.228147E+06 -5.873134E+06 -9.564763E+05 -7.676392E+05  2.531732E+05 -3.887316E+04
         9   9 -1.000023E+06 -4.836173E+06 -7.360385E+05 -9.610815E+05  2.651143E+05  1.472930E+05
         9  10  1.759138E+06  5.696148E+06  1.719758E+06 -1.085432E+06  9.090400E-11 -2.193504E-08
         9  11  1.295960E+06  4.611422E+06  1.168508E+06 -8.919506E+05 -2.354336E-10  1.197096E-10
         9  12  1.008817E+06  3.612694E+06  8.545677E+05 -9.503055E+05 -1.814094E-09  2.285743E-08
         9  13  1.994482E+05 -6.238129E+05  2.237712E+05 -9.552106E+05 -5.035090E-10  4.902366E-11
         9  14  3.472141E+04 -6.439670E+05  1.066676E+05 -8.295404E+05 -7.649268E-11 -9.018313E-11
         9  15  4.875384E+03 -6.203918E+05  5.956826E+04 -9.557426E+05 -1.699299E-09 -5.765313E-11
         9  16 -1.363046E+06 -6.907235E+06 -1.274982E+06 -8.262685E+05  5.340153E-10  2.161693E-08
         9  17 -1.228216E+06 -5.873153E+06 -9.565995E+05 -7.676312E+05  2.905065E-09 -2.524632E-10
         9  18 -1.000104E+06 -4.836215E+06 -7.362119E+05 -9.611131E+05  2.098498E-10 -2.275790E-08
         9  19  1.759222E+06  5.696461E+06  1.720313E+06 -1.085398E+06 -7.909530E+04 -5.400265E+05
         9  20  1.296044E+06  4.611501E+06  1.168737E+06 -8.919016E+05 -2.520106E+05 -2.418876E+05
         9  21  1.008893E+06  3.612716E+06  8.547059E+05 -9.503174E+05 -2.656332E+05  5.571789E+04
         9  22  1.994616E+05 -6.237851E+05  2.238289E+05 -9.552005E+05 -7.998933E+04 -1.557146E+05
         9  23  3.479269E+04 -6.439389E+05  1.068068E+05 -8.295198E+05 -2.526042E+05 -1.009266E+05
         9  24  4.951582E+03 -6.203706E+05  5.970465E+04 -9.557327E+05 -2.653752E+05 -4.612507E+04
         9  25 -1.363025E+06 -6.907179E+06 -1.274874E+06 -8.262831E+05 -8.073031E+04  2.247380E+05
         9  26 -1.228147E+06 -5.873134E+06 -9.564763E+05 -7.676392E+05 -2.531732E+05  3.887316E+04
         9  27 -1.000023E+06 -4.836173E+06 -7.360385E+05 -9.610815E+05 -2.651143E+05 -1.472930E+05
        10   1  8.494727E+05  2.900382E+06  7.053399E+05 -9.709760E+05  2.248737E+05 -3.888047E+04
        10   2  5.940728E+05  1.856496E+06  4.789064E+05 -8.355442E+05  1.696249E+05 -6.525280E+04
        10   3  3.490318E+05  8.184419E+05  2.717922E+05 -9.618451E+05  1.052089E+05 -9.173923E+04
        10   4  1.267865E+04 -6.284867E+05  4.557186E+04 -9.578648E+05  2.246349E+05  3.804269E+04
        10   5  6.516673E+03 -6.288513E+05  2.471439E+04 -8.269852E+05  1.692378E+05  2.558430E+04
        10   6  8.381137E+03 -6.268108E+05  1.359219E+04 -9.578977E+05  1.046531E+05  1.296941E+04
        10   7 -8.248310E+05 -4.145327E+06 -6.147103E+05 -9.448082E+05  2.243985E+05  1.145407E+05
        10   8 -5.813844E+05 -3.108188E+06 -4.296970E+05 -8.184506E+05  1.688521E+05  1.160682E+05
        10   9 -3.323794E+05 -2.070003E+06 -2.446461E+05 -9.539556E+05  1.040978E+05  1.174414E+05
        10  10  8.494181E+05  2.900367E+06  7.052422E+05 -9.709690E+05 -2.860027E-09  4.637718E-09
        10  11  5.940408E+05  1.856483E+06  4.788444E+05 -8.355353E+05 -1.391274E-09  1.948876E-09
        10  12  3.490177E+05  8.184300E+05  2.717556E+05 -9.618374E+05 -2.019551E-09  1.765056E-11
        10  13  1.262407E+04 -6.285018E+05  4.547428E+04 -9.578717E+05 -3.113458E-09 -7.902048E-11
        10  14  6.485742E+03 -6.288597E+05  2.465933E+04 -8.269887E+05  1.649674E-10 -7.444902E-11
        10  15  8.369331E+03 -6.268139E+05  1.357129E+04 -9.578988E+05 -1.115208E-09  6.038009E-11
        10  16 -8.248887E+05 -4.145354E+06 -6.148299E+05 -9.448290E+05 -6.873813E-10 -4.658705E-09
        10  17 -5.814187E+05 -3.108210E+06 -4.297761E+05 -8.184664E+05  1.224194E-09 -1.895559E-09
        10  18 -3.323948E+05 -2.070021E+06 -2.446925E+05 -9.539655E+05 -4.269068E-11 -7.426336E-11
        10  19  8.494727E+05  2.900382E+06  7.053399E+05 -9.709760E+05 -2.248737E+05  3.888047E+04
        10  20  5.940728E+05  1.856496E+06  4.789064E+05 -8.355442E+05 -1.696249E+05  6.525280E+04
        10  21  3.490318E+05  8.184419E+05  2.717922E+05 -9.618451E+05 -1.052089E+05  9.173923E+04
        10  22  1.267865E+04 -6.284867E+05  4.557186E+04 -9.578648E+05 -2.246349E+05 -3.804269E+04
        10  23  6.516673E+03 -6.288513E+05  2.471439E+04 -8.269852E+05 -1.692378E+05 -2.558430E+04
        10  24  8.381137E+03 -6.268108E+05  1.359219E+04 -9.578977E+05 -1.046531E+05 -1.296941E+04
        10  25 -8.248310E+05 -4.145327E+06 -6.147103E+05 -9.448082E+05 -2.243985E+05 -1.145407E+05
        10  26 -5.813844E+05 -3.108188E+06 -4.296970E+05 -8.184506E+05 -1.688521E+05 -1.160682E+05
        10  27 -3.323794E+05 -2.070003E+06 -2.446461E+05 -9.539556E+05 -1.040978E+05 -1.174414E+05
        11   1  1.838913E+05  1.198069E+05  1.360366E+05 -9.594435E+05  6.204441E+04 -9.852674E+04
        11   2 -6.639155E+04 -9.144106E+05 -7.733640E+04 -8.262916E+05  9.305569E+03 -4.058470E+04
        11   3 -3.259749E+05 -1.959845E+06 -3.315094E+05 -9.533301E+05 -3.813022E+03  1.739033E+04
        11   4  9.129738E+03 -6.274531E+05  9.684797E+03 -9.575294E+05  6.143510E+04  1.064186E+04
        11   5  7.411515E+03 -6.266276E+05  3.610643E+03 -8.274501E+05  9.035288E+03  8.667302E+03
        11   6  6.861455E+03 -6.276456E+05 -1.615933E+03 -9.575416E+05 -3.754014E+03  6.822096E+03
        11   7 -1.656549E+05 -1.374137E+06 -1.166401E+05 -9.556167E+05  6.082599E+04  1.196833E+05
        11   8  8.120890E+04 -3.387667E+05  8.455950E+04 -8.286090E+05  8.764894E+03  5.794244E+04
        11   9  3.395648E+05  7.061703E+05  3.281458E+05 -9.617587E+05 -3.694940E+03 -3.768859E+03
        11  10  1.838845E+05  1.197955E+05  1.360111E+05 -9.594386E+05 -8.247848E-10  5.116513E-09
        11  11 -6.639209E+04 -9.144124E+05 -7.733966E+04 -8.262913E+05 -9.785217E-10  1.243048E-09
        11  12 -3.259750E+05 -1.959845E+06 -3.315100E+05 -9.533300E+05  3.881216E-10 -2.788003E-09
        11  13  9.125654E+03 -6.274542E+05  9.677489E+03 -9.575299E+05 -2.042692E-09  9.121315E-11
        11  14  7.411407E+03 -6.266277E+05  3.610348E+03 -8.274501E+05 -2.027492E-10  1.574010E-10
        11  15  6.861428E+03 -6.276457E+05 -1.616046E+03 -9.575415E+05  9.339519E-10 -2.540849E-11
        11  16 -1.656627E+05 -1.374154E+06 -1.166741E+05 -9.556225E+05  5.158474E-10 -5.237431E-09
        11  17  8.120791E+04 -3.387703E+05  8.455304E+04 -8.286094E+05  1.703685E-10 -1.049686E-09
        11  18  3.395648E+05  7.061703E+05  3.281457E+05 -9.617587E+05  9.758516E-10  2.847036E-09
        11  19  1.838913E+05  1.198069E+05  1.360366E+05 -9.594435E+05 -6.204441E+04  9.852674E+04
        11  20 -6.639155E+04 -9.144106E+05 -7.733640E+04 -8.262916E+05 -9.305569E+03  4.058470E+04
        11  21 -3.259749E+05 -1.959845E+06 -3.315094E+05 -9.533301E+05  3.813022E+03 -1.739033E+04
        11  22  9.129738E+03 -6.274531E+05  9.684797E+03 -9.575294E+05 -6.143510E+04 -1.064186E+04
        11  23  7.411515E+03 -6.266276E+05  3.610643E+03 -8.274501E+05 -9.035288E+03 -8.667302E+03
        11  24  6.861455E+03 -6.276456E+05 -1.615933E+03 -9.575416E+05  3.754014E+03 -6.822096E+03
        11  25 -1.656549E+05 -1.374137E+06 -1.166401E+05 -9.556167E+05 -6.082599E+04 -1.196833E+05
        11  26  8.120890E+04 -3.387667E+05  8.455950E+04 -8.286090E+05 -8.764894E+03 -5.794244E+04
        11  27  3.395648E+05  7.061703E+05  3.281458E+05 -9.617587E+05  3.694940E+03  3.768859E+03
        12   1 -2.903850E+06 -7.690764E+05 -3.511207E+05 -1.118496E+06 -2.096714E+05 -7.724184E+04
        12   2 -2.861096E+06 -4.513980E+05 -1.572160E+05 -1.122414E+06 -1.326265E+05 -4.612408E+04
        12   3 -2.911786E+06 -3.923640E+05 -8.936147E+04 -1.074564E+06 -5.440912E+04 -1.811854E+04
        12   4 -2.882189E+06 -6.520833E+05 -3.239908E+05 -1.000530E+06 -2.067351E+05 -7.618731E+04
        12   5 -2.818072E+06 -3.987976E+05 -1.398988E+05 -1.072901E+06 -1.322849E+05 -4.600584E+04
        12   6 -2.846876E+06 -4.036524E+05 -7.979063E+04 -1.093511E+06 -5.665884E+04 -1.895804E+04
        12   7 -2.860498E+06 -5.350247E+05 -2.968543E+05 -8.825529E+05 -2.037987E+05 -7.513146E+04
        12   8 -2.775042E+06 -3.461879E+05 -1.225811E+05 -1.023382E+06 -1.319432E+05 -4.588755E+04
        12   9 -2.781959E+06 -4.149369E+05 -7.021901E+04 -1.112459E+06 -5.890883E+04 -1.979731E+04
        12  10 -2.903899E+06 -7.690947E+05 -3.512150E+05 -1.118509E+06 -1.354289E-09  2.525884E-11
        12  11 -2.861116E+06 -4.514050E+05 -1.572533E+05 -1.122419E+06  1.523978E-09  5.696523E-10
        12  12 -2.911789E+06 -3.923652E+05 -8.936768E+04 -1.074565E+06 -5.900713E-10  3.966706E-10
        12  13 -2.882236E+06 -6.521011E+05 -3.240825E+05 -1.000543E+06  1.181446E-09  1.324891E-10
        12  14 -2.818091E+06 -3.988046E+05 -1.399358E+05 -1.072905E+06  9.080719E-10  4.154264E-10
        12  15 -2.846880E+06 -4.036536E+05 -7.979737E+04 -1.093511E+06 -1.141999E-09  5.916393E-10
        12  16 -2.860544E+06 -5.350420E+05 -2.969434E+05 -8.825652E+05  1.363237E-09  2.779452E-10
        12  17 -2.775061E+06 -3.461949E+05 -1.226179E+05 -1.023387E+06 -2.176708E-09  4.159410E-10
        12  18 -2.781963E+06 -4.149383E+05 -7.022631E+04 -1.112460E+06 -6.382312E-11  9.631615E-10
        12  19 -2.903850E+06 -7.690764E+05 -3.511207E+05 -1.118496E+06  2.096714E+05  7.724184E+04
        12  20 -2.861096E+06 -4.513980E+05 -1.572160E+05 -1.122414E+06  1.326265E+05  4.612408E+04
        12  21 -2.911786E+06 -3.923640E+05 -8.936147E+04 -1.074564E+06  5.440912E+04  1.811854E+04
        12  22 -2.882189E+06 -6.520833E+05 -3.239908E+05 -1.000530E+06  2.067351E+05  7.618731E+04
        12  23 -2.818072E+06 -3.987976E+05 -1.398988E+05 -1.072901E+06  1.322849E+05  4.600584E+04
        12  24 -2.846876E+06 -4.036524E+05 -7.979063E+04 -1.093511E+06  5.665884E+04  1.895804E+04
        12  25 -2.860498E+06 -5.350247E+05 -2.968543E+05 -8.825529E+05  2.037987E+05  7.513146E+04
        12  26 -2.775042E+06 -3.461879E+05 -1.225811E+05 -1.023382E+06  1.319432E+05  4.588755E+04
        12  27 -2.781959E+06 -4.149369E+05 -7.021901E+04 -1.112459E+06  5.890883E+04  1.979731E+04
        13   1 -2.844917E+06 -4.372538E+05 -6.636956E+04 -1.085930E+06 -4.460072E+04 -1.600342E+04
        13   2 -2.816802E+06 -4.018119E+05 -2.782431E+04 -1.072929E+06 -2.740914E+04 -1.143215E+04
        13   3 -2.786658E+06 -3.928405E+05 -6.028316E+03 -1.068124E+06 -1.016422E+04 -6.998888E+03
        13   4 -2.836618E+06 -4.288102E+05 -6.338277E+04 -1.078127E+06 -4.590315E+04 -1.649216E+04
        13   5 -2.836528E+06 -4.078134E+05 -3.238358E+04 -1.076934E+06 -2.882612E+04 -1.196344E+04
        13   6 -2.834387E+06 -4.132645E+05 -1.804162E+04 -1.083935E+06 -1.169662E+04 -7.573323E+03
        13   7 -2.828318E+06 -4.203663E+05 -6.039598E+04 -1.070324E+06 -4.720560E+04 -1.698093E+04
        13   8 -2.856253E+06 -4.138149E+05 -3.694283E+04 -1.080938E+06 -3.024305E+04 -1.249472E+04
        13   9 -2.882112E+06 -4.336880E+05 -3.005497E+04 -1.099746E+06 -1.322887E+04 -8.147688E+03
        13  10 -2.844919E+06 -4.372547E+05 -6.637380E+04 -1.085931E+06 -8.074559E-10  3.648778E-10
        13  11 -2.816803E+06 -4.018122E+05 -2.782598E+04 -1.072930E+06 -3.480419E-10  4.433671E-11
        13  12 -2.786659E+06 -3.928406E+05 -6.028604E+03 -1.068124E+06  1.911598E-09 -1.475177E-09
        13  13 -2.836620E+06 -4.288110E+05 -6.338726E+04 -1.078128E+06 -7.339542E-11  6.995362E-10
        13  14 -2.836528E+06 -4.078138E+05 -3.238542E+04 -1.076934E+06 -3.229245E-09  1.436642E-10
        13  15 -2.834387E+06 -4.132646E+05 -1.804199E+04 -1.083935E+06  3.605823E-09 -1.187554E-09
        13  16 -2.828321E+06 -4.203672E+05 -6.040073E+04 -1.070325E+06  8.267097E-10  9.707719E-10
        13  17 -2.856254E+06 -4.138153E+05 -3.694485E+04 -1.080938E+06 -1.841360E-10  2.390293E-10
        13  18 -2.882113E+06 -4.336881E+05 -3.005543E+04 -1.099746E+06 -6.371294E-10 -9.739037E-10
        13  19 -2.844917E+06 -4.372538E+05 -6.636956E+04 -1.085930E+06  4.460072E+04  1.600342E+04
        13  20 -2.816802E+06 -4.018119E+05 -2.782431E+04 -1.072929E+06  2.740914E+04  1.143215E+04
        13  21 -2.786658E+06 -3.928405E+05 -6.028316E+03 -1.068124E+06  1.016422E+04  6.998888E+03
        13  22 -2.836618E+06 -4.288102E+05 -6.338277E+04 -1.078127E+06  4.590315E+04  1.649216E+04
        13  23 -2.836528E+06 -4.078134E+05 -3.238358E+04 -1.076934E+06  2.882612E+04  1.196344E+04
        13  24 -2.834387E+06 -4.132645E+05 -1.804162E+04 -1.083935E+06  1.169662E+04  7.573323E+03
        13  25 -2.828318E+06 -4.203663E+05 -6.039598E+04 -1.070324E+06  4.720560E+04  1.698093E+04
        13  26 -2.856253E+06 -4.138149E+05 -3.694283E+04 -1.080938E+06  3.024305E+04  1.249472E+04
        13  27 -2.882112E+06 -4.336880E+05 -3.005497E+04 -1.099746E+06  1.322887E+04  8.147688E+03
        14   1 -2.757086E+06 -3.862302E+05  4.992260E+03 -1.061915E+06 -7.275044E+03 -7.131945E+03
        14   2 -2.731177E+06 -3.687404E+05  1.859641E+04 -1.047884E+06 -2.857828E+03 -7.515756E+03
        14   3 -2.696043E+06 -3.624448E+05  2.912538E+04 -1.045325E+06  1.556929E+03 -7.891580E+03
        14   4 -2.833481E+06 -4.147466E+05 -1.376188E+04 -1.082839E+06 -8.758549E+03 -7.688161E+03
        14   5 -2.838027E+06 -4.087040E+05 -7.502100E+03 -1.077268E+06 -4.335274E+03 -8.069840E+03
        14   6 -2.833350E+06 -4.138571E+05 -4.322164E+03 -1.083170E+06  8.533276E+01 -8.443604E+03
        14   7 -2.909872E+06 -4.432630E+05 -3.251668E+04 -1.103760E+06 -1.024187E+04 -8.244308E+03
        14   8 -2.944867E+06 -4.486672E+05 -3.360171E+04 -1.106648E+06 -5.812454E+03 -8.623823E+03
        14   9 -2.970640E+06 -4.652684E+05 -3.777134E+04 -1.121007E+06 -1.385916E+03 -8.995495E+03
        14  10 -2.757086E+06 -3.862303E+05  4.992064E+03 -1.061915E+06  2.952538E-10 -2.087558E-09
        14  11 -2.731177E+06 -3.687404E+05  1.859629E+04 -1.047884E+06 -2.106684E-09  1.383114E-10
        14  12 -2.696043E+06 -3.624449E+05  2.912526E+04 -1.045325E+06 -1.865577E-09  1.397804E-09
        14  13 -2.833481E+06 -4.147467E+05 -1.376214E+04 -1.082839E+06  1.326904E-09 -1.433345E-09
        14  14 -2.838027E+06 -4.087041E+05 -7.502258E+03 -1.077268E+06  1.581956E-09  1.870278E-11
        14  15 -2.833351E+06 -4.138572E+05 -4.322298E+03 -1.083170E+06 -1.694485E-09  1.100494E-09
        14  16 -2.909872E+06 -4.432631E+05 -3.251701E+04 -1.103760E+06  8.983846E-10 -5.471221E-10
        14  17 -2.944868E+06 -4.486673E+05 -3.360191E+04 -1.106648E+06 -1.626686E-09 -4.392630E-10
        14  18 -2.970640E+06 -4.652685E+05 -3.777150E+04 -1.121007E+06  1.495807E-09  6.248998E-10
        14  19 -2.757086E+06 -3.862302E+05  4.992260E+03 -1.061915E+06  7.275044E+03  7.131945E+03
        14  20 -2.731177E+06 -3.687404E+05  1.859641E+04 -1.047884E+06  2.857828E+03  7.515756E+03
        14  21 -2.696043E+06 -3.624448E+05  2.912538E+04 -1.045325E+06 -1.556929E+03  7.891580E+03
        14  22 -2.833481E+06 -4.147466E+05 -1.376188E+04 -1.082839E+06  8.758549E+03  7.688161E+03
        14  23 -2.838027E+06 -4.087040E+05 -7.502100E+03 -1.077268E+06  4.335274E+03  8.069840E+03
        14  24 -2.833350E+06 -4.138571E+05 -4.322164E+03 -1.083170E+06 -8.533276E+01  8.443604E+03
        14  25 -2.909872E+06 -4.432630E+05 -3.251668E+04 -1.103760E+06  1.024187E+04  8.244308E+03
        14  26 -2.944867E+06 -4.486672E+05 -3.360171E+04 -1.106648E+06  5.812454E+03  8.623823E+03
        14  27 -2.970640E+06 -4.652684E+05 -3.777134E+04 -1.121007E+06  1.385916E+03  8.995495E+03
        15   1 -2.669750E+06 -3.527997E+05  3.663689E+04 -1.038169E+06  2.562593E+03 -8.688487E+03
        15   2 -2.644914E+06 -3.368328E+05  4.485330E+04 -1.024450E+06  4.345700E+03 -1.001194E+04
        15   3 -2.610437E+06 -3.307539E+05  5.221341E+04 -1.021982E+06  6.120879E+03 -1.131251E+04
        15   4 -2.833303E+06 -4.138649E+05 -3.400211E+03 -1.083010E+06  1.106884E+03 -9.234664E+03
        15   5 -2.838121E+06 -4.089063E+05 -2.303108E+03 -1.077390E+06  2.908487E+03 -1.055140E+04
        15   6 -2.833302E+06 -4.138396E+05 -2.077171E+03 -1.083021E+06  4.702109E+03 -1.184527E+04
        15   7 -2.996828E+06 -4.749277E+05 -4.343893E+04 -1.127841E+06 -3.483907E+02 -9.780678E+03
        15   8 -3.031290E+06 -4.809770E+05 -4.946217E+04 -1.130314E+06  1.471768E+03 -1.109067E+04
        15   9 -3.056118E+06 -4.969221E+05 -5.637167E+04 -1.144040E+06  3.283892E+03 -1.237783E+04
        15  10 -2.669750E+06 -3.527998E+05  3.663674E+04 -1.038169E+06  1.277905E-09  1.632788E-09
        15  11 -2.644914E+06 -3.368329E+05  4.485308E+04 -1.024449E+06  5.639390E-09  1.633035E-10
        15  12 -2.610437E+06 -3.307541E+05  5.221310E+04 -1.021982E+06  3.815374E-09 -5.433206E-10
        15  13 -2.833303E+06 -4.138650E+05 -3.400374E+03 -1.083010E+06  1.786772E-09  1.109639E-09
        15  14 -2.838121E+06 -4.089064E+05 -2.303333E+03 -1.077390E+06  3.714427E-09  2.382357E-10
        15  15 -2.833302E+06 -4.138398E+05 -2.077476E+03 -1.083021E+06  3.573142E-09 -2.091944E-10
        15  16 -2.996828E+06 -4.749278E+05 -4.343911E+04 -1.127841E+06  1.113783E-09  7.160643E-10
        15  17 -3.031290E+06 -4.809771E+05 -4.946240E+04 -1.130314E+06  3.718988E-09  8.268061E-10
        15  18 -3.056118E+06 -4.969223E+05 -5.637198E+04 -1.144040E+06  5.642782E-10 -1.262455E-10
        15  19 -2.669750E+06 -3.527997E+05  3.663689E+04 -1.038169E+06 -2.562593E+03  8.688487E+03
        15  20 -2.644914E+06 -3.368328E+05  4.485330E+04 -1.024450E+06 -4.345700E+03  1.001194E+04
        15  21 -2.610437E+06 -3.307539E+05  5.221341E+04 -1.021982E+06 -6.120879E+03  1.131251E+04
        15  22 -2.833303E+06 -4.138649E+05 -3.400211E+03 -1.083010E+06 -1.106884E+03  9.234664E+03
        15  23 -2.838121E+06 -4.089063E+05 -2.303108E+03 -1.077390E+06 -2.908487E+03  1.055140E+04
        15  24 -2.833302E+06 -4.138396E+05 -2.077171E+03 -1.083021E+06 -4.702109E+03  1.184527E+04
        15  25 -2.996828E+06 -4.749277E+05 -4.343893E+04 -1.127841E+06  3.483907E+02  9.780678E+03
        15  26 -3.031290E+06 -4.809770E+05 -4.946217E+04 -1.130314E+06 -1.471768E+03  1.109067E+04
        15  27 -3.056118E+06 -4.969221E+05 -5.637167E+04 -1.144040E+06 -3.283892E+03  1.237783E+04
        16   1 -2.585399E+06 -3.212580E+05  5.839742E+04 -1.015016E+06  6.828058E+03 -1.217598E+04
        16   2 -2.561723E+06 -3.060680E+05  6.421739E+04 -1.001922E+06  9.016057E+03 -1.325881E+04
        16   3 -2.528920E+06 -3.003520E+05  6.885127E+04 -9.995500E+05  1.119188E+04 -1.430691E+04
        16   4 -2.833418E+06 -4.137373E+05 -2.234653E+03 -1.082908E+06  5.431036E+03 -1.270075E+04
        16   5 -2.837987E+06 -4.090366E+05 -3.192546E+03 -1.077534E+06  7.646952E+03 -1.377341E+04
        16   6 -2.833436E+06 -4.138156E+05 -5.359036E+03 -1.082882E+06  9.850618E+03 -1.481136E+04
        16   7 -3.081375E+06 -5.062120E+05 -6.287103E+04 -1.150776E+06  4.034632E+03 -1.322529E+04
        16   8 -3.114175E+06 -5.119999E+05 -7.060822E+04 -1.153116E+06  6.278513E+03 -1.428776E+04
        16   9 -3.137860E+06 -5.272734E+05 -7.957671E+04 -1.166177E+06  8.510071E+03 -1.531554E+04
        16  10 -2.585399E+06 -3.212581E+05  5.839705E+04 -1.015016E+06  6.913431E-11 -5.734129E-10
        16  11 -2.561723E+06 -3.060682E+05  6.421691E+04 -1.001922E+06 -1.652369E-10 -1.009661E-10
        16  12 -2.528920E+06 -3.003523E+05  6.885066E+04 -9.995498E+05  8.572728E-10  3.169901E-10
        16  13 -2.833418E+06 -4.137375E+05 -2.235011E+03 -1.082908E+06  3.484401E-09 -1.808543E-10
        16  14 -2.837987E+06 -4.090368E+05 -3.193012E+03 -1.077534E+06  6.334776E-10  1.315230E-10
        16  15 -2.833436E+06 -4.138159E+05 -5.359630E+03 -1.082882E+06 -1.391268E-09 -1.117171E-10
        16  16 -3.081375E+06 -5.062122E+05 -6.287139E+04 -1.150776E+06  6.865948E-10 -1.518329E-10
        16  17 -3.114176E+06 -5.120001E+05 -7.060868E+04 -1.153116E+06 -1.689226E-09 -1.023420E-10
        16  18 -3.137861E+06 -5.272736E+05 -7.957728E+04 -1.166177E+06  5.499142E-11 -3.214393E-10
        16  19 -2.585399E+06 -3.212580E+05  5.839742E+04 -1.015016E+06 -6.828058E+03  1.217598E+04
        16  20 -2.561723E+06 -3.060680E+05  6.421739E+04 -1.001922E+06 -9.016057E+03  1.325881E+04
        16  21 -2.528920E+06 -3.003520E+05  6.885127E+04 -9.995500E+05 -1.119188E+04  1.430691E+04
        16  22 -2.833418E+06 -4.137373E+05 -2.234653E+03 -1.082908E+06 -5.431036E+03  1.270075E+04
        16  23 -2.837987E+06 -4.090366E+05 -3.192546E+03 -1.077534E+06 -7.646952E+03  1.377341E+04
        16  24 -2.833436E+06 -4.138156E+05 -5.359036E+03 -1.082882E+06 -9.850618E+03  1.481136E+04
        16  25 -3.081375E+06 -5.062120E+05 -6.287103E+04 -1.150776E+06 -4.034632E+03  1.322529E+04
        16  26 -3.114175E+06 -5.119999E+05 -7.060822E+04 -1.153116E+06 -6.278513E+03  1.428776E+04
        16  27 -3.137860E+06 -5.272734E+05 -7.957671E+04 -1.166177E+06 -8.510071E+03  1.531554E+04
        17   1 -2.505364E+06 -2.914116E+05  7.317751E+04 -9.932723E+05  1.253951E+04 -1.486795E+04
        17   2 -2.482982E+06 -2.769296E+05  7.399210E+04 -9.806849E+05  1.932582E+04 -1.409306E+04
        17   3 -2.453296E+06 -2.729927E+05  6.972268E+04 -9.778728E+05  2.608585E+04 -1.324526E+04
        17   4 -2.833775E+06 -4.135526E+05 -7.009598E+03 -1.082862E+06  1.121925E+04 -1.536473E+04
        17   5 -2.837539E+06 -4.090401E+05 -1.251385E+04 -1.077691E+06  1.806226E+04 -1.456890E+04
        17   6 -2.834010E+06 -4.150854E+05 -2.314937E+04 -1.082295E+06  2.487870E+04 -1.370025E+04
        17   7 -3.162079E+06 -5.356863E+05 -8.720481E+04 -1.172409E+06  9.899748E+03 -1.586122E+04
        17   8 -3.191969E+06 -5.411416E+05 -9.902900E+04 -1.174645E+06  1.679950E+04 -1.504444E+04
        17   9 -3.214579E+06 -5.571674E+05 -1.160318E+05 -1.186658E+06  2.367235E+04 -1.415494E+04
        17  10 -2.505364E+06 -2.914119E+05  7.317680E+04 -9.932721E+05  2.327540E-09 -3.236631E-10
        17  11 -2.482983E+06 -2.769299E+05  7.399103E+04 -9.806847E+05 -1.607303E-09 -5.050923E-10
        17  12 -2.453297E+06 -2.729931E+05  6.972107E+04 -9.778726E+05  1.034602E-10 -7.868412E-10
        17  13 -2.833775E+06 -4.135529E+05 -7.010277E+03 -1.082862E+06 -9.545700E-10 -2.393274E-10
        17  14 -2.837539E+06 -4.090404E+05 -1.251486E+04 -1.077690E+06 -7.326910E-10 -5.215365E-10
        17  15 -2.834011E+06 -4.150858E+05 -2.315089E+04 -1.082294E+06 -7.389876E-10  2.053678E-10
        17  16 -3.162079E+06 -5.356866E+05 -8.720547E+04 -1.172409E+06 -1.666012E-09 -6.768908E-10
        17  17 -3.191970E+06 -5.411419E+05 -9.902996E+04 -1.174645E+06 -1.710743E-10 -5.829606E-10
        17  18 -3.214579E+06 -5.571677E+05 -1.160332E+05 -1.186657E+06  2.190585E-09  5.433318E-10
        17  19 -2.505364E+06 -2.914116E+05  7.317751E+04 -9.932723E+05 -1.253951E+04  1.486795E+04
        17  20 -2.482982E+06 -2.769296E+05  7.399210E+04 -9.806849E+05 -1.932582E+04  1.409306E+04
        17  21 -2.453296E+06 -2.729927E+05  6.972268E+04 -9.778728E+05 -2.608585E+04  1.324526E+04
        17  22 -2.833775E+06 -4.135526E+05 -7.009598E+03 -1.082862E+06 -1.121925E+04  1.536473E+04
        17  23 -2.837539E+06 -4.090401E+05 -1.251385E+04 -1.077691E+06 -1.806226E+04  1.456890E+04
        17  24 -2.834010E+06 -4.150854E+05 -2.314937E+04 -1.082295E+06 -2.487870E+04  1.370025E+04
        17  25 -3.162079E+06 -5.356863E+05 -8.720481E+04 -1.172409E+06 -9.899748E+03  1.586122E+04
        17  26 -3.191969E+06 -5.411416E+05 -9.902900E+04 -1.174645E+06 -1.679950E+04  1.504444E+04
        17  27 -3.214579E+06 -5.571674E+05 -1.160318E+05 -1.186658E+06 -2.367235E+04  1.415494E+04
        18   1 -2.429936E+06 -2.653001E+05  6.796016E+04 -9.771529E+05  3.086700E+04 -1.250312E+04
        18   2 -2.409995E+06 -2.468770E+05  4.952751E+04 -9.584568E+05  5.855244E+04 -3.558059E+03
        18   3 -2.395731E+06 -2.636029E+05  3.474958E+03 -9.428122E+05  8.597333E+04  6.094586E+03
        18   4 -2.835754E+06 -4.123623E+05 -3.039311E+04 -1.083891E+06  2.949835E+04 -1.301889E+04
        18   5 -2.834754E+06 -4.078464E+05 -5.464526E+04 -1.077445E+06  5.775051E+04 -3.861462E+03
        18   6 -2.839554E+06 -4.386065E+05 -1.069829E+05 -1.074051E+06  8.573707E+04  6.002674E+03
        18   7 -3.241412E+06 -5.594164E+05 -1.287591E+05 -1.190566E+06  2.813067E+04 -1.353431E+04
        18   8 -3.259336E+06 -5.688023E+05 -1.588321E+05 -1.196359E+06  5.694917E+04 -4.164638E+03
        18   9 -3.283182E+06 -6.135903E+05 -2.174562E+05 -1.205202E+06  8.550098E+04  5.910832E+03
        18  10 -2.429937E+06 -2.653005E+05  6.795807E+04 -9.771526E+05  2.250662E-10  2.068532E-10
        18  11 -2.409998E+06 -2.468780E+05  4.952103E+04 -9.584566E+05 -8.013381E-10 -4.876456E-10
        18  12 -2.395739E+06 -2.636049E+05  3.460943E+03 -9.428126E+05  7.890473E-10 -7.959274E-10
        18  13 -2.835755E+06 -4.123628E+05 -3.039506E+04 -1.083890E+06 -2.926769E-09 -2.896632E-11
        18  14 -2.834758E+06 -4.078473E+05 -5.465158E+04 -1.077445E+06 -1.723534E-09 -3.813254E-10
        18  15 -2.839562E+06 -4.386085E+05 -1.069969E+05 -1.074052E+06 -1.851601E-10 -1.410796E-09
        18  16 -3.241413E+06 -5.594168E+05 -1.287610E+05 -1.190566E+06 -1.691910E-09  3.995700E-10
        18  17 -3.259339E+06 -5.688031E+05 -1.588382E+05 -1.196358E+06 -4.210626E-10 -9.493536E-12
        18  18 -3.283190E+06 -6.135923E+05 -2.174700E+05 -1.205203E+06  1.513645E-10 -9.732585E-10
        18  19 -2.429936E+06 -2.653001E+05  6.796016E+04 -9.771529E+05 -3.086700E+04  1.250312E+04
        18  20 -2.409995E+06 -2.468770E+05  4.952751E+04 -9.584568E+05 -5.855244E+04  3.558059E+03
        18  21 -2.395731E+06 -2.636029E+05  3.474958E+03 -9.428122E+05 -8.597333E+04 -6.094586E+03
        18  22 -2.835754E+06 -4.123623E+05 -3.039311E+04 -1.083891E+06 -2.949835E+04  1.301889E+04
        18  23 -2.834754E+06 -4.078464E+05 -5.464526E+04 -1.077445E+06 -5.775051E+04  3.861462E+03
        18  24 -2.839554E+06 -4.386065E+05 -1.069829E+05 -1.074051E+06 -8.573707E+04 -6.002674E+03
        18  25 -3.241412E+06 -5.594164E+05 -1.287591E+05 -1.190566E+06 -2.813067E+04  1.353431E+04
        18  26 -3.259336E+06 -5.688023E+05 -1.588321E+05 -1.196359E+06 -5.694917E+04  4.164638E+03
        18  27 -3.283182E+06 -6.135903E+05 -2.174562E+05 -1.205202E+06 -8.550098E+04 -5.910832E+03
        19   1 -2.342891E+06 -2.640126E+05 -2.007603E+04 -1.020470E+06  1.084000E+05  1.198391E+04
        19   2 -2.357853E+06 -1.641569E+05 -1.148693E+05 -8.848336E+05  2.227564E+05  5.713250E+04
        19   3 -2.537849E+06 -4.866048E+05 -4.093693E+05 -6.493959E+05  3.316691E+05  1.167472E+05
        19   4 -2.857040E+06 -3.959632E+05 -1.346823E+05 -1.099824E+06  1.038485E+05  1.028018E+04
        19   5 -2.803325E+06 -3.929334E+05 -2.361461E+05 -1.070961E+06  2.300691E+05  5.985943E+04
        19   6 -2.917179E+06 -8.148224E+05 -5.468649E+05 -9.422441E+05  3.508551E+05  1.238574E+05
        19   7 -3.370919E+06 -5.279191E+05 -2.493020E+05 -1.179132E+06  9.930106E+04  8.576900E+03
        19   8 -3.248588E+06 -6.216366E+05 -3.574386E+05 -1.256949E+06  2.373761E+05  6.258231E+04
        19   9 -3.296281E+06 -1.142755E+06 -6.843605E+05 -1.234871E+06  3.700284E+05  1.309483E+05
        19  10 -2.342904E+06 -2.640159E+05 -2.009847E+04 -1.020471E+06 -1.329693E-10 -1.040474E-09
        19  11 -2.357908E+06 -1.641738E+05 -1.149691E+05 -8.848438E+05 -1.321254E-09 -1.057040E-09
        19  12 -2.537972E+06 -4.866492E+05 -4.096027E+05 -6.494271E+05 -1.812333E-09 -1.042590E-09
        19  13 -2.857052E+06 -3.959662E+05 -1.347028E+05 -1.099825E+06 -4.129504E-10 -1.319959E-09
        19  14 -2.803383E+06 -3.929515E+05 -2.362528E+05 -1.070972E+06 -1.252993E-09 -6.829249E-11
        19  15 -2.917316E+06 -8.148722E+05 -5.471264E+05 -9.422793E+05 -2.633038E-10 -3.067098E-10
        19  16 -3.370930E+06 -5.279218E+05 -2.493208E+05 -1.179133E+06 -1.232007E-09 -1.100899E-09
        19  17 -3.248650E+06 -6.216561E+05 -3.575526E+05 -1.256961E+06 -4.446745E-10 -6.073619E-10
        19  18 -3.296433E+06 -1.142810E+06 -6.846518E+05 -1.234910E+06  1.687335E-09  1.048487E-10
        19  19 -2.342891E+06 -2.640126E+05 -2.007603E+04 -1.020470E+06 -1.084000E+05 -1.198391E+04
        19  20 -2.357853E+06 -1.641569E+05 -1.148693E+05 -8.848336E+05 -2.227564E+05 -5.713250E+04
        19  21 -2.537849E+06 -4.866048E+05 -4.093693E+05 -6.493959E+05 -3.316691E+05 -1.167472E+05
        19  22 -2.857040E+06 -3.959632E+05 -1.346823E+05 -1.099824E+06 -1.038485E+05 -1.028018E+04
        19  23 -2.803325E+06 -3.929334E+05 -2.361461E+05 -1.070961E+06 -2.300691E+05 -5.985943E+04
        19  24 -2.917179E+06 -8.148224E+05 -5.468649E+05 -9.422441E+05 -3.508551E+05 -1.238574E+05
        19  25 -3.370919E+06 -5.279191E+05 -2.493020E+05 -1.179132E+06 -9.930106E+04 -8.576900E+03
        19  26 -3.248588E+06 -6.216366E+05 -3.574386E+05 -1.256949E+06 -2.373761E+05 -6.258231E+04
        19  27 -3.296281E+06 -1.142755E+06 -6.843605E+05 -1.234871E+06 -3.700284E+05 -1.309483E+05
        20   1 -7.496298E+05  3.416005E+04  4.113728E+04  1.598099E+04  2.826157E+04  7.283327E-01
        20   2 -7.544308E+05 -3.651077E+02  1.869399E+04  5.517192E+03  1.834969E+04  1.632595E-01
        20   3 -7.496436E+05 -1.716437E+03  1.100326E+04 -4.946339E+03  8.437946E+03 -6.730521E-02
        20   4 -7.496301E+05  3.415957E+04  4.113721E+04  2.267894E-09  2.826157E+04  1.320587E-10
        20   5 -7.544309E+05 -3.651650E+02  1.869398E+04 -3.593189E-09  1.834969E+04  3.442242E-10
        20   6 -7.496436E+05 -1.716483E+03  1.100325E+04 -8.400680E-10  8.437946E+03  1.601010E-10
        20   7 -7.496298E+05  3.416005E+04  4.113728E+04 -1.598099E+04  2.826157E+04 -7.283327E-01
        20   8 -7.544308E+05 -3.651077E+02  1.869399E+04 -5.517192E+03  1.834969E+04 -1.632595E-01
        20   9 -7.496436E+05 -1.716437E+03  1.100326E+04  4.946339E+03  8.437946E+03  6.730521E-02
        20  10 -7.496307E+05  3.415984E+04  4.113578E+04  1.598099E+04  6.207273E-10 -3.163676E-10
        20  11 -7.544312E+05 -3.651982E+02  1.869336E+04  5.517192E+03  1.266590E-09 -4.485970E-10
        20  12 -7.496436E+05 -1.716456E+03  1.100312E+04 -4.946339E+03 -1.603065E-09  5.077706E-10
        20  13 -7.496310E+05  3.415935E+04  4.113571E+04 -4.336074E-09  1.161996E-09 -2.489249E-10
        20  14 -7.544312E+05 -3.652555E+02  1.869335E+04 -3.222862E-10 -1.076663E-09 -5.058468E-10
        20  15 -7.496437E+05 -1.716502E+03  1.100312E+04 -1.695982E-09 -4.306019E-09  1.362428E-10
        20  16 -7.496307E+05  3.415984E+04  4.113578E+04 -1.598099E+04 -7.619501E-10 -2.112492E-10
        20  17 -7.544312E+05 -3.651982E+02  1.869336E+04 -5.517192E+03 -8.432815E-10 -5.563492E-10
        20  18 -7.496436E+05 -1.716456E+03  1.100312E+04  4.946339E+03 -6.133929E-11 -2.076057E-10
        20  19 -7.496298E+05  3.416005E+04  4.113728E+04  1.598099E+04 -2.826157E+04 -7.283327E-01
        20  20 -7.544308E+05 -3.651077E+02  1.869399E+04  5.517192E+03 -1.834969E+04 -1.632595E-01
        20  21 -7.496436E+05 -1.716437E+03  1.100326E+04 -4.946339E+03 -8.437946E+03  6.730521E-02
        20  22 -7.496301E+05  3.415957E+04  4.113721E+04  4.138482E-09 -2.826157E+04 -6.264532E-10
        20  23 -7.544309E+05 -3.651650E+02  1.869398E+04 -3.515393E-09 -1.834969E+04 -1.392676E-09
        20  24 -7.496436E+05 -1.716483E+03  1.100325E+04 -2.827364E-09 -8.437946E+03  1.258848E-10
        20  25 -7.496298E+05  3.416005E+04  4.113728E+04 -1.598099E+04 -2.826157E+04  7.283327E-01
        20  26 -7.544308E+05 -3.651077E+02  1.869399E+04 -5.517192E+03 -1.834969E+04  1.632595E-01
        20  27 -7.496436E+05 -1.716437E+03  1.100326E+04  4.946339E+03 -8.437946E+03 -6.730521E-02
        21   1 -7.515936E+05  1.943524E+03  8.757701E+03  6.770816E+02  6.871008E+03  7.502240E-03
        21   2 -7.519959E+05 -7.251786E+01  4.717061E+03  1.566384E+02  4.501408E+03  1.137041E-03
        21   3 -7.515952E+05 -1.124557E+02  2.714621E+03 -3.638134E+02  2.131779E+03 -1.250690E-03
        21   4 -7.515936E+05  1.943523E+03  8.757701E+03 -8.804178E-10  6.871008E+03  1.114204E-10
        21   5 -7.519959E+05 -7.251790E+01  4.717061E+03  3.080756E-09  4.501408E+03  3.254193E-10
        21   6 -7.515952E+05 -1.124560E+02  2.714621E+03  1.107516E-08  2.131779E+03  4.427857E-10
        21   7 -7.515936E+05  1.943524E+03  8.757701E+03 -6.770816E+02  6.871008E+03 -7.502240E-03
        21   8 -7.519959E+05 -7.251786E+01  4.717061E+03 -1.566384E+02  4.501408E+03 -1.137041E-03
        21   9 -7.515952E+05 -1.124557E+02  2.714621E+03  3.638134E+02  2.131779E+03  1.250691E-03
        21  10 -7.515936E+05  1.943511E+03  8.757612E+03  6.770816E+02 -1.694270E-09  9.913004E-10
        21  11 -7.519960E+05 -7.252330E+01  4.717023E+03  1.566384E+02 -1.030464E-09  7.118378E-10
        21  12 -7.515952E+05 -1.124570E+02  2.714612E+03 -3.638134E+02  8.383116E-10  6.923556E-11
        21  13 -7.515936E+05  1.943510E+03  8.757612E+03 -3.015842E-09 -3.119113E-09  5.567954E-10
        21  14 -7.519960E+05 -7.252335E+01  4.717023E+03  2.995616E-09  2.661690E-10  3.797811E-10
        21  15 -7.515952E+05 -1.124572E+02  2.714612E+03  9.011287E-09 -6.811230E-10 -3.075385E-10
        21  16 -7.515936E+05  1.943511E+03  8.757612E+03 -6.770816E+02 -1.523081E-09  1.541384E-10
        21  17 -7.519960E+05 -7.252330E+01  4.717023E+03 -1.566384E+02 -6.695627E-10  1.308482E-10
        21  18 -7.515952E+05 -1.124570E+02  2.714612E+03  3.638134E+02 -2.578261E-10 -7.263035E-10
        21  19 -7.515936E+05  1.943524E+03  8.757701E+03  6.770816E+02 -6.871008E+03 -7.502238E-03
        21  20 -7.519959E+05 -7.251786E+01  4.717061E+03  1.566384E+02 -4.501408E+03 -1.137040E-03
        21  21 -7.515952E+05 -1.124557E+02  2.714621E+03 -3.638134E+02 -2.131779E+03  1.250690E-03
        21  22 -7.515936E+05  1.943523E+03  8.757701E+03 -8.467891E-10 -6.871008E+03  1.021265E-09
        21  23 -7.519959E+05 -7.251790E+01  4.717061E+03  2.912578E-09 -4.501408E+03  4.471910E-10
        21  24 -7.515952E+05 -1.124560E+02  2.714621E+03  1.259246E-08 -2.131779E+03 -1.061686E-09
        21  25 -7.515936E+05  1.943524E+03  8.757701E+03 -6.770816E+02 -6.871008E+03  7.502240E-03
        21  26 -7.519959E+05 -7.251786E+01  4.717061E+03 -1.566384E+02 -4.501408E+03  1.137041E-03
        21  27 -7.515952E+05 -1.124557E+02  2.714621E+03  3.638134E+02 -2.131779E+03 -1.250693E-03
        22   1 -7.517505E+05  9.510463E+01  2.073289E+03 -2.753070E+01  1.710623E+03 -7.594528E-05
        22   2 -7.518027E+05 -1.654570E+01  1.148588E+03 -3.434379E+01  1.141066E+03 -6.319766E-05
        22   3 -7.517508E+05 -8.745943E+00  6.248947E+02 -4.115688E+01  5.715090E+02 -3.793144E-05
        22   4 -7.517505E+05  9.510462E+01  2.073289E+03  7.653420E-09  1.710623E+03 -2.483546E-10
        22   5 -7.518027E+05 -1.654570E+01  1.148588E+03 -5.764241E-09  1.141066E+03 -1.078243E-09
        22   6 -7.517508E+05 -8.745946E+00  6.248947E+02  8.541772E-09  5.715090E+02  5.660808E-10
        22   7 -7.517505E+05  9.510463E+01  2.073289E+03  2.753070E+01  1.710623E+03  7.594484E-05
        22   8 -7.518027E+05 -1.654570E+01  1.148588E+03  3.434379E+01  1.141066E+03  6.319543E-05
        22   9 -7.517508E+05 -8.745943E+00  6.248947E+02  4.115688E+01  5.715090E+02  3.793255E-05
        22  10 -7.517505E+05  9.510384E+01  2.073283E+03 -2.753070E+01 -8.832237E-10 -3.838881E-10
        22  11 -7.518027E+05 -1.654605E+01  1.148585E+03 -3.434379E+01 -2.005776E-09 -9.159006E-10
        22  12 -7.517508E+05 -8.746031E+00  6.248941E+02 -4.115688E+01  7.550832E-11 -5.926893E-10
        22  13 -7.517505E+05  9.510384E+01  2.073283E+03  9.852963E-09 -8.408772E-12 -5.176710E-10
        22  14 -7.518027E+05 -1.654605E+01  1.148585E+03 -6.754698E-09  7.421986E-10 -1.097613E-10
        22  15 -7.517508E+05 -8.746034E+00  6.248941E+02  7.852009E-09 -1.267765E-09  4.094341E-10
        22  16 -7.517505E+05  9.510384E+01  2.073283E+03  2.753070E+01  1.425409E-09 -6.858108E-10
        22  17 -7.518027E+05 -1.654605E+01  1.148585E+03  3.434379E+01 -1.224170E-09  6.789299E-10
        22  18 -7.517508E+05 -8.746031E+00  6.248941E+02  4.115688E+01 -6.314035E-10  1.442323E-09
        22  19 -7.517505E+05  9.510463E+01  2.073289E+03 -2.753070E+01 -1.710623E+03  7.594462E-05
        22  20 -7.518027E+05 -1.654570E+01  1.148588E+03 -3.434379E+01 -1.141066E+03  6.319591E-05
        22  21 -7.517508E+05 -8.745943E+00  6.248947E+02 -4.115688E+01 -5.715090E+02  3.793038E-05
        22  22 -7.517505E+05  9.510462E+01  2.073289E+03  1.206617E-08 -1.710623E+03 -7.947343E-10
        22  23 -7.518027E+05 -1.654570E+01  1.148588E+03 -5.588708E-09 -1.141066E+03  8.446884E-10
        22  24 -7.517508E+05 -8.745946E+00  6.248947E+02  8.510157E-09 -5.715090E+02  2.662119E-10
        22  25 -7.517505E+05  9.510463E+01  2.073289E+03  2.753070E+01 -1.710623E+03 -7.594631E-05
        22  26 -7.518027E+05 -1.654570E+01  1.148588E+03  3.434379E+01 -1.141066E+03 -6.319423E-05
        22  27 -7.517508E+05 -8.745943E+00  6.248947E+02  4.115688E+01 -5.715090E+02 -3.792976E-05
        23   1 -7.517711E+05  1.013012E+00  4.450795E+02 -2.069461E+01  4.751768E+02 -1.585673E-05
        23   2 -7.517775E+05 -2.450590E+00  1.725457E+02 -1.798713E+01  3.898474E+02 -1.130669E-05
        23   3 -7.517712E+05  7.750496E-01 -4.271494E+01 -1.527968E+01  3.045194E+02 -7.503685E-06
        23   4 -7.517711E+05  1.013011E+00  4.450795E+02  1.028102E-08  4.751768E+02  1.269546E-09
        23   5 -7.517775E+05 -2.450591E+00  1.725457E+02  3.397793E-09  3.898474E+02  4.256142E-10
        23   6 -7.517712E+05  7.750492E-01 -4.271494E+01  1.086116E-09  3.045194E+02 -4.496796E-10
        23   7 -7.517711E+05  1.013012E+00  4.450795E+02  2.069461E+01  4.751768E+02  1.585935E-05
        23   8 -7.517775E+05 -2.450590E+00  1.725457E+02  1.798713E+01  3.898474E+02  1.130751E-05
        23   9 -7.517712E+05  7.750496E-01 -4.271494E+01  1.527968E+01  3.045194E+02  7.502639E-06
        23  10 -7.517711E+05  1.012951E+00  4.450791E+02 -2.069461E+01  2.963310E-09  5.354316E-11
        23  11 -7.517775E+05 -2.450631E+00  1.725454E+02 -1.798713E+01  4.186676E-10  5.142763E-10
        23  12 -7.517712E+05  7.750247E-01 -4.271512E+01 -1.527968E+01 -9.657808E-10 -4.166807E-10
        23  13 -7.517711E+05  1.012951E+00  4.450791E+02  1.011705E-08 -1.190602E-10  3.104205E-10
        23  14 -7.517775E+05 -2.450632E+00  1.725454E+02 -1.001295E-09  1.358766E-10 -3.739494E-10
        23  15 -7.517712E+05  7.750243E-01 -4.271512E+01 -7.808843E-09  3.527896E-10 -6.123854E-10
        23  16 -7.517711E+05  1.012951E+00  4.450791E+02  2.069461E+01 -1.484240E-10  6.261272E-10
        23  17 -7.517775E+05 -2.450631E+00  1.725454E+02  1.798713E+01 -9.424526E-12 -1.226957E-09
        23  18 -7.517712E+05  7.750247E-01 -4.271512E+01  1.527968E+01  1.025732E-10 -8.408407E-10
        23  19 -7.517711E+05  1.013012E+00  4.450795E+02 -2.069461E+01 -4.751768E+02  1.585678E-05
        23  20 -7.517775E+05 -2.450590E+00  1.725457E+02 -1.798713E+01 -3.898474E+02  1.130765E-05
        23  21 -7.517712E+05  7.750496E-01 -4.271494E+01 -1.527968E+01 -3.045194E+02  7.502776E-06
        23  22 -7.517711E+05  1.013011E+00  4.450795E+02  5.640178E-09 -4.751768E+02 -6.692146E-10
        23  23 -7.517775E+05 -2.450591E+00  1.725457E+02  4.296806E-09 -3.898474E+02 -1.182655E-09
        23  24 -7.517712E+05  7.750492E-01 -4.271494E+01  5.642951E-09 -3.045194E+02 -7.700847E-10
        23  25 -7.517711E+05  1.013012E+00  4.450795E+02  2.069461E+01 -4.751768E+02 -1.585822E-05
        23  26 -7.517775E+05 -2.450590E+00  1.725457E+02  1.798713E+01 -3.898474E+02 -1.131005E-05
        23  27 -7.517712E+05  7.750496E-01 -4.271494E+01  1.527968E+01 -3.045194E+02 -7.504414E-06
        24   1 -7.517806E+05  8.219193E-01 -1.509948E+02 -1.620338E+01  3.220733E+02 -8.416275E-06
        24   2 -7.517659E+05  5.844518E+00 -4.122489E+02 -2.395034E+01  5.258628E+02 -2.030963E-05
        24   3 -7.517808E+05 -1.259495E+00 -8.093284E+02 -3.169743E+01  7.296553E+02 -3.729604E-05
        24   4 -7.517806E+05  8.219189E-01 -1.509948E+02 -4.493833E-09  3.220733E+02 -3.485884E-10
        24   5 -7.517659E+05  5.844517E+00 -4.122489E+02 -1.042181E-09  5.258628E+02  4.687702E-10
        24   6 -7.517808E+05 -1.259497E+00 -8.093284E+02 -2.439649E-09  7.296553E+02  5.329118E-10
        24   7 -7.517806E+05  8.219194E-01 -1.509948E+02  1.620338E+01  3.220733E+02  8.415470E-06
        24   8 -7.517659E+05  5.844518E+00 -4.122489E+02  2.395034E+01  5.258628E+02  2.031034E-05
        24   9 -7.517808E+05 -1.259495E+00 -8.093284E+02  3.169743E+01  7.296553E+02  3.729712E-05
        24  10 -7.517806E+05  8.218915E-01 -1.509950E+02 -1.620338E+01  5.293975E-11 -4.001573E-10
        24  11 -7.517659E+05  5.844444E+00 -4.122494E+02 -2.395034E+01  1.652736E-09  6.856320E-10
        24  12 -7.517808E+05 -1.259638E+00 -8.093294E+02 -3.169743E+01  1.043221E-09  4.171680E-10
        24  13 -7.517806E+05  8.218910E-01 -1.509950E+02 -6.399071E-09  3.363506E-11 -1.890415E-10
        24  14 -7.517659E+05  5.844443E+00 -4.122494E+02 -3.138718E-09  3.345434E-10  5.835221E-10
        24  15 -7.517808E+05 -1.259640E+00 -8.093294E+02 -1.280655E-08 -8.403397E-10  3.743184E-10
        24  16 -7.517806E+05  8.218914E-01 -1.509950E+02  1.620338E+01  1.676863E-09  3.907630E-11
        24  17 -7.517659E+05  5.844444E+00 -4.122494E+02  2.395034E+01  1.022930E-10  4.435689E-10
        24  18 -7.517808E+05 -1.259638E+00 -8.093294E+02  3.169743E+01 -1.228891E-09  3.113847E-10
        24  19 -7.517806E+05  8.219193E-01 -1.509948E+02 -1.620338E+01 -3.220733E+02  8.415540E-06
        24  20 -7.517659E+05  5.844518E+00 -4.122489E+02 -2.395034E+01 -5.258628E+02  2.031104E-05
        24  21 -7.517808E+05 -1.259495E+00 -8.093284E+02 -3.169743E+01 -7.296553E+02  3.729706E-05
        24  22 -7.517806E+05  8.219188E-01 -1.509948E+02 -4.005074E-09 -3.220733E+02 -4.259500E-11
        24  23 -7.517659E+05  5.844517E+00 -4.122489E+02 -9.547104E-09 -5.258628E+02  6.828976E-10
        24  24 -7.517808E+05 -1.259497E+00 -8.093284E+02 -1.563797E-08 -7.296553E+02  2.004849E-10
        24  25 -7.517806E+05  8.219193E-01 -1.509948E+02  1.620338E+01 -3.220733E+02 -8.415549E-06
        24  26 -7.517659E+05  5.844518E+00 -4.122489E+02  2.395034E+01 -5.258628E+02 -2.030964E-05
        24  27 -7.517808E+05 -1.259495E+00 -8.093284E+02  3.169743E+01 -7.296553E+02 -3.729673E-05
        25   1 -7.518130E+05  1.513981E+01 -1.089279E+03 -6.579001E+01  9.006811E+02 -9.555585E-05
        25   2 -7.517260E+05  2.782938E+01 -1.932437E+03 -5.536745E+01  1.858872E+03 -1.659709E-04
        25   3 -7.518135E+05 -1.573127E+02 -3.449437E+03 -4.494488E+01  2.817062E+03 -2.041771E-04
        25   4 -7.518130E+05  1.513980E+01 -1.089279E+03  6.331955E-11  9.006811E+02  7.335116E-10
        25   5 -7.517260E+05  2.782938E+01 -1.932437E+03 -1.786537E-09  1.858872E+03  7.915046E-10
        25   6 -7.518135E+05 -1.573127E+02 -3.449437E+03  3.374436E-09  2.817062E+03 -6.246719E-10
        25   7 -7.518130E+05  1.513981E+01 -1.089279E+03  6.579001E+01  9.006811E+02  9.555733E-05
        25   8 -7.517260E+05  2.782938E+01 -1.932437E+03  5.536745E+01  1.858872E+03  1.659725E-04
        25   9 -7.518135E+05 -1.573127E+02 -3.449437E+03  4.494488E+01  2.817062E+03  2.041760E-04
        25  10 -7.518130E+05  1.513959E+01 -1.089281E+03 -6.579001E+01 -2.693354E-10  3.624425E-11
        25  11 -7.517260E+05  2.782846E+01 -1.932443E+03 -5.536745E+01  5.105523E-11 -3.630425E-10
        25  12 -7.518135E+05 -1.573148E+02 -3.449452E+03 -4.494488E+01  1.648771E-09 -7.469893E-10
        25  13 -7.518130E+05  1.513958E+01 -1.089281E+03 -4.229611E-09  1.246074E-09  1.769158E-10
        25  14 -7.517260E+05  2.782845E+01 -1.932443E+03 -7.897725E-10  4.025311E-10  1.637215E-11
        25  15 -7.518135E+05 -1.573148E+02 -3.449452E+03 -7.582305E-09 -1.061781E-09 -6.621201E-10
        25  16 -7.518130E+05  1.513959E+01 -1.089281E+03  6.579001E+01  1.859080E-09  3.359597E-10
        25  17 -7.517260E+05  2.782846E+01 -1.932443E+03  5.536745E+01  1.835498E-09  4.596624E-10
        25  18 -7.518135E+05 -1.573148E+02 -3.449452E+03  4.494488E+01 -2.348033E-09 -6.212369E-10
        25  19 -7.518130E+05  1.513981E+01 -1.089279E+03 -6.579001E+01 -9.006811E+02  9.555589E-05
        25  20 -7.517260E+05  2.782938E+01 -1.932437E+03 -5.536745E+01 -1.858872E+03  1.659704E-04
        25  21 -7.518135E+05 -1.573127E+02 -3.449437E+03 -4.494488E+01 -2.817062E+03  2.041758E-04
        25  22 -7.518130E+05  1.513980E+01 -1.089279E+03  8.854559E-11 -9.006811E+02 -3.696471E-10
        25  23 -7.517260E+05  2.782938E+01 -1.932437E+03  4.512539E-09 -1.858872E+03 -7.592130E-10
        25  24 -7.518135E+05 -1.573127E+02 -3.449437E+03 -1.282174E-09 -2.817062E+03 -6.724192E-10
        25  25 -7.518130E+05  1.513981E+01 -1.089279E+03  6.579001E+01 -9.006811E+02 -9.555681E-05
        25  26 -7.517260E+05  2.782938E+01 -1.932437E+03  5.536745E+01 -1.858872E+03 -1.659718E-04
        25  27 -7.518135E+05 -1.573127E+02 -3.449437E+03  4.494488E+01 -2.817062E+03 -2.041773E-04
        26   1 -7.520701E+05  1.863059E+02 -4.506465E+03 -6.015671E+02  3.516969E+03 -3.411788E-03
        26   2 -7.514066E+05  1.201423E+02 -7.814606E+03  2.596373E+02  7.442710E+03  3.116212E-03
        26   3 -7.520727E+05 -3.216729E+03 -1.449849E+04  1.120831E+03  1.136837E+04  2.054790E-02
        26   4 -7.520701E+05  1.863053E+02 -4.506465E+03  6.707303E-09  3.516969E+03 -1.281007E-09
        26   5 -7.514066E+05  1.201422E+02 -7.814606E+03  7.106405E-09  7.442710E+03 -7.476842E-10
        26   6 -7.520727E+05 -3.216731E+03 -1.449849E+04  1.396857E-08  1.136837E+04  4.826900E-10
        26   7 -7.520701E+05  1.863059E+02 -4.506465E+03  6.015671E+02  3.516969E+03  3.411785E-03
        26   8 -7.514066E+05  1.201423E+02 -7.814606E+03 -2.596373E+02  7.442710E+03 -3.116213E-03
        26   9 -7.520727E+05 -3.216729E+03 -1.449849E+04 -1.120831E+03  1.136837E+04 -2.054790E-02
        26  10 -7.520701E+05  1.863026E+02 -4.506488E+03 -6.015671E+02  2.077263E-09 -6.020242E-10
        26  11 -7.514066E+05  1.201274E+02 -7.814711E+03  2.596373E+02  1.608526E-09  2.198670E-10
        26  12 -7.520729E+05 -3.216763E+03 -1.449873E+04  1.120831E+03  4.197249E-10  1.249445E-09
        26  13 -7.520701E+05  1.863019E+02 -4.506488E+03 -6.042216E-09  1.051418E-09 -6.991025E-10
        26  14 -7.514066E+05  1.201273E+02 -7.814711E+03  6.170605E-09  8.093691E-10  8.774807E-11
        26  15 -7.520729E+05 -3.216766E+03 -1.449873E+04  4.921089E-09  1.732594E-09  7.555306E-10
        26  16 -7.520701E+05  1.863026E+02 -4.506488E+03  6.015671E+02 -2.569337E-09 -7.798079E-10
        26  17 -7.514066E+05  1.201274E+02 -7.814711E+03 -2.596373E+02  5.767495E-10 -1.094024E-11
        26  18 -7.520729E+05 -3.216763E+03 -1.449873E+04 -1.120831E+03  1.708220E-09  2.933263E-10
        26  19 -7.520701E+05  1.863059E+02 -4.506465E+03 -6.015671E+02 -3.516969E+03  3.411787E-03
        26  20 -7.514066E+05  1.201423E+02 -7.814606E+03  2.596373E+02 -7.442710E+03 -3.116211E-03
        26  21 -7.520727E+05 -3.216729E+03 -1.449849E+04  1.120831E+03 -1.136837E+04 -2.054790E-02
        26  22 -7.520701E+05  1.863053E+02 -4.506465E+03  5.816558E-10 -3.516969E+03 -1.249648E-10
        26  23 -7.514066E+05  1.201422E+02 -7.814606E+03  4.157092E-09 -7.442710E+03  9.217999E-10
        26  24 -7.520727E+05 -3.216731E+03 -1.449849E+04  1.312210E-08 -1.136837E+04  1.005977E-09
        26  25 -7.520701E+05  1.863059E+02 -4.506465E+03  6.015671E+02 -3.516969E+03 -3.411787E-03
        26  26 -7.514066E+05  1.201423E+02 -7.814606E+03 -2.596373E+02 -7.442710E+03  3.116213E-03
        26  27 -7.520727E+05 -3.216729E+03 -1.449849E+04 -1.120831E+03 -1.136837E+04  2.054790E-02
        27   1 -7.552997E+05  2.841208E+03 -1.821348E+04 -8.186582E+03  1.396217E+04 -1.843260E-01
        27   2 -7.473762E+05  6.045589E+02 -3.093816E+04  9.131883E+03  3.036810E+04  4.472016E-01
        27   3 -7.553206E+05 -5.653524E+04 -6.807821E+04  2.645031E+04  4.677431E+04  1.995107E+00
        27   4 -7.552998E+05  2.841082E+03 -1.821350E+04 -9.306095E-10  1.396217E+04  7.883000E-10
        27   5 -7.473763E+05  6.044021E+02 -3.093818E+04 -1.398777E-09  3.036810E+04  2.981212E-10
        27   6 -7.553214E+05 -5.653656E+04 -6.807840E+04 -2.395887E-09  4.677431E+04 -1.794789E-11
        27   7 -7.552997E+05  2.841208E+03 -1.821348E+04  8.186582E+03  1.396217E+04  1.843260E-01
        27   8 -7.473762E+05  6.045589E+02 -3.093816E+04 -9.131883E+03  3.036810E+04 -4.472016E-01
        27   9 -7.553206E+05 -5.653524E+04 -6.807821E+04 -2.645031E+04  4.677431E+04 -1.995107E+00
        27  10 -7.552999E+05  2.841156E+03 -1.821384E+04 -8.186582E+03  3.371611E-10  7.006346E-10
        27  11 -7.473772E+05  6.043110E+02 -3.093989E+04  9.131883E+03  9.703308E-11 -7.461177E-10
        27  12 -7.553230E+05 -5.653583E+04 -6.808233E+04  2.645031E+04  5.177323E-10 -4.394636E-10
        27  13 -7.553000E+05  2.841030E+03 -1.821386E+04  9.977596E-10  1.893719E-09  5.608371E-10
        27  14 -7.473773E+05  6.041541E+02 -3.093992E+04 -1.468158E-09  1.213011E-09 -1.801289E-10
        27  15 -7.553237E+05 -5.653715E+04 -6.808252E+04 -5.549037E-09 -1.892621E-09 -1.493826E-10
        27  16 -7.552999E+05  2.841156E+03 -1.821384E+04  8.186582E+03  1.089433E-09  3.647685E-10
        27  17 -7.473772E+05  6.043110E+02 -3.093989E+04 -9.131883E+03  9.460874E-10  4.476851E-10
        27  18 -7.553230E+05 -5.653583E+04 -6.808233E+04 -2.645031E+04  7.853036E-10  1.358246E-10
        27  19 -7.552997E+05  2.841208E+03 -1.821348E+04 -8.186582E+03 -1.396217E+04  1.843260E-01
        27  20 -7.473762E+05  6.045589E+02 -3.093816E+04  9.131883E+03 -3.036810E+04 -4.472016E-01
        27  21 -7.553206E+05 -5.653524E+04 -6.807821E+04  2.645031E+04 -4.677431E+04 -1.995107E+00
        27  22 -7.552998E+05  2.841082E+03 -1.821350E+04  5.087856E-09 -1.396217E+04  3.346171E-10
        27  23 -7.473763E+05  6.044021E+02 -3.093818E+04  7.076846E-09 -3.036810E+04 -6.264752E-10
        27  24 -7.553214E+05 -5.653656E+04 -6.807840E+04 -8.495762E-11 -4.677431E+04 -2.748545E-10
        27  25 -7.552997E+05  2.841208E+03 -1.821348E+04  8.186582E+03 -1.396217E+04 -1.843260E-01
        27  26 -7.473762E+05  6.045589E+02 -3.093816E+04 -9.131883E+03 -3.036810E+04  4.472016E-01
        27  27 -7.553206E+05 -5.653524E+04 -6.807821E+04 -2.645031E+04 -4.677431E+04  1.995107E+00
        28   1  6.438347E+05  2.124610E+06  6.910108E+05 -2.598837E+05  1.864900E+04  2.688317E+05
        28   2  3.149460E+05  1.873018E+06  4.436009E+05 -1.339718E+05  5.724353E+04  1.523549E+05
        28   3  2.535575E+05  1.703869E+06  3.388278E+05 -9.570591E+04  5.559161E+04  3.590887E+04
        28   4  2.680618E+05  6.107699E+05  3.240206E+05 -1.332703E+05  1.872571E+04  2.163110E+05
        28   5 -3.120520E+03  5.727105E+05  1.521577E+05 -8.954723E+04  5.727560E+04  1.358293E+05
        28   6 -1.274893E+04  6.109974E+05  9.817668E+04 -1.334472E+05  5.557208E+04  5.533362E+04
        28   7 -1.078177E+05 -9.009423E+05 -4.311594E+04 -6.965272E+03  1.878120E+04  1.639171E+05
        28   8 -3.212948E+05 -7.260215E+05 -1.393904E+05 -4.521598E+04  5.730536E+04  1.193376E+05
        28   9 -2.791297E+05 -4.807562E+05 -1.425454E+05 -1.711209E+05  5.555018E+04  7.472459E+04
        28  10  6.438150E+05  2.124532E+06  6.908748E+05 -2.598878E+05 -7.290966E-10  1.065602E-09
        28  11  3.149363E+05  1.872992E+06  4.435512E+05 -1.339789E+05 -1.081419E-09  4.841680E-10
        28  12  2.535538E+05  1.703867E+06  3.388195E+05 -9.570752E+04  7.080592E-10  3.203456E-10
        28  13  2.680489E+05  6.107197E+05  3.239321E+05 -1.332736E+05  3.732321E-10  4.960158E-11
        28  14 -3.128991E+03  5.726899E+05  1.521169E+05 -8.955349E+04  3.185833E-09 -1.511381E-10
        28  15 -1.275306E+04  6.109933E+05  9.816512E+04 -1.334496E+05  5.306552E-10  2.076634E-10
        28  16 -1.078253E+05 -9.009713E+05 -4.316716E+04 -6.967752E+03  3.524016E-10 -1.052743E-09
        28  17 -3.213022E+05 -7.260377E+05 -1.394234E+05 -4.522150E+04  7.881060E-10 -6.217090E-10
        28  18 -2.791345E+05 -4.807630E+05 -1.425617E+05 -1.711242E+05  9.404197E-10 -3.325206E-10
        28  19  6.438347E+05  2.124610E+06  6.910108E+05 -2.598837E+05 -1.864900E+04 -2.688317E+05
        28  20  3.149460E+05  1.873018E+06  4.436009E+05 -1.339718E+05 -5.724353E+04 -1.523549E+05
        28  21  2.535575E+05  1.703869E+06  3.388278E+05 -9.570591E+04 -5.559161E+04 -3.590887E+04
        28  22  2.680618E+05  6.107699E+05  3.240206E+05 -1.332703E+05 -1.872571E+04 -2.163110E+05
        28  23 -3.120520E+03  5.727105E+05  1.521577E+05 -8.954723E+04 -5.727560E+04 -1.358293E+05
        28  24 -1.274893E+04  6.109974E+05  9.817668E+04 -1.334472E+05 -5.557208E+04 -5.533362E+04
        28  25 -1.078177E+05 -9.009423E+05 -4.311594E+04 -6.965272E+03 -1.878120E+04 -1.639171E+05
        28  26 -3.212948E+05 -7.260215E+05 -1.393904E+05 -4.521598E+04 -5.730536E+04 -1.193376E+05
        28  27 -2.791297E+05 -4.807562E+05 -1.425454E+05 -1.711209E+05 -5.555018E+04 -7.472459E+04
        29   1  2.387859E+05  1.514626E+06  2.877760E+05 -1.422117E+05  4.508031E+04  3.295878E+04
        29   2  1.720435E+05  1.299800E+06  2.217043E+05 -9.032387E+04  3.575113E+04 -1.354893E+03
        29   3  1.335220E+05  1.096385E+06  1.849596E+05 -1.273152E+05  2.484685E+04 -3.566943E+04
        29   4  1.474287E+04  5.965710E+05  8.463740E+04 -1.336701E+05  4.507446E+04  4.056402E+04
        29   5 -8.212023E+02  5.910467E+05  6.538157E+04 -8.923092E+04  3.573905E+04  7.689320E+03
        29   6  1.160864E+04  5.966585E+05  7.448292E+04 -1.336747E+05  2.482837E+04 -2.519745E+04
        29   7 -2.093567E+05 -3.206984E+05 -1.185531E+05 -1.251409E+05  4.506880E+04  4.815813E+04
        29   8 -1.737196E+05 -1.172375E+05 -9.097175E+04 -8.813901E+04  3.572699E+04  1.672334E+04
        29   9 -1.103213E+05  9.716515E+04 -3.600876E+04 -1.400288E+05  2.480967E+04 -1.473378E+04
        29  10  2.387835E+05  1.514624E+06  2.877702E+05 -1.422129E+05 -2.756642E-10 -4.287375E-10
        29  11  1.720422E+05  1.299799E+06  2.217019E+05 -9.032383E+04 -1.188393E-10  6.947013E-09
        29  12  1.335210E+05  1.096384E+06  1.849561E+05 -1.273145E+05 -1.101991E-09  1.247197E-08
        29  13  1.474025E+04  5.965687E+05  8.463049E+04 -1.336716E+05 -2.330092E-09  3.467664E-10
        29  14 -8.225901E+02  5.910463E+05  6.537906E+04 -8.923114E+04 -3.122668E-10 -3.655849E-10
        29  15  1.160781E+04  5.966577E+05  7.448057E+04 -1.336742E+05 -1.105190E-09  4.457904E-10
        29  16 -2.093595E+05 -3.207014E+05 -1.185613E+05 -1.251427E+05 -1.885366E-09  5.881313E-10
        29  17 -1.737211E+05 -1.172381E+05 -9.097468E+04 -8.813949E+04 -1.522347E-10 -7.222637E-09
        29  18 -1.103221E+05  9.716475E+04 -3.601033E+04 -1.400285E+05 -2.894974E-09 -1.233180E-08
        29  19  2.387859E+05  1.514626E+06  2.877760E+05 -1.422117E+05 -4.508031E+04 -3.295878E+04
        29  20  1.720435E+05  1.299800E+06  2.217043E+05 -9.032387E+04 -3.575113E+04  1.354893E+03
        29  21  1.335220E+05  1.096385E+06  1.849596E+05 -1.273152E+05 -2.484685E+04  3.566943E+04
        29  22  1.474287E+04  5.965710E+05  8.463740E+04 -1.336701E+05 -4.507446E+04 -4.056402E+04
        29  23 -8.212023E+02  5.910467E+05  6.538157E+04 -8.923092E+04 -3.573905E+04 -7.689320E+03
        29  24  1.160864E+04  5.966585E+05  7.448292E+04 -1.336747E+05 -2.482837E+04  2.519745E+04
        29  25 -2.093567E+05 -3.206984E+05 -1.185531E+05 -1.251409E+05 -4.506880E+04 -4.815813E+04
        29  26 -1.737196E+05 -1.172375E+05 -9.097175E+04 -8.813901E+04 -3.572699E+04 -1.672334E+04
        29  27 -1.103213E+05  9.716515E+04 -3.600876E+04 -1.400288E+05 -2.480967E+04  1.473378E+04
        30   1  7.024208E+04  9.337461E+05  1.545547E+05 -1.645295E+05  1.752149E+04 -4.927786E+04
        30   2  2.655636E+04  6.957763E+05  1.481037E+05 -5.489748E+04  7.191224E+03 -1.101943E+05
        30   3  1.886289E+05  5.168351E+05  2.326469E+05 -3.362414E+04  1.264071E+03 -1.710832E+05
        30   4 -9.392168E+03  6.074803E+05  8.310452E+04 -1.336683E+05  1.749698E+04 -3.802456E+04
        30   5 -1.979579E+03  5.776408E+05  1.226546E+05 -8.928202E+04  7.182570E+03 -1.028577E+05
        30   6  2.118687E+05  6.074386E+05  2.559122E+05 -1.332367E+05  1.284296E+03 -1.676829E+05
        30   7 -8.902993E+04  2.813163E+05  1.164889E+04 -1.028235E+05  1.747357E+04 -2.677709E+04
        30   8 -3.051195E+04  4.595210E+05  9.720552E+04 -1.236599E+05  7.173103E+03 -9.552252E+04
        30   9  2.351451E+05  6.980707E+05  2.791821E+05 -2.328638E+05  1.303427E+03 -1.642821E+05
        30  10  7.024110E+04  9.337434E+05  1.545495E+05 -1.645288E+05 -2.507532E-09 -1.259391E-08
        30  11  2.655305E+04  6.957633E+05  1.480808E+05 -5.489684E+04  2.483508E-11 -6.330754E-09
        30  12  1.886211E+05  5.168037E+05  2.325920E+05 -3.362397E+04  1.055917E-09  2.651537E-09
        30  13 -9.392884E+03  6.074787E+05  8.310123E+04 -1.336678E+05 -1.523695E-09  5.128616E-10
        30  14 -1.982471E+03  5.776294E+05  1.226346E+05 -8.928142E+04 -2.042404E-09 -5.012021E-10
        30  15  2.118612E+05  6.074084E+05  2.558594E+05 -1.332366E+05 -1.314333E-10  3.431920E-10
        30  16 -8.903045E+04  2.813154E+05  1.164697E+04 -1.028231E+05 -2.151631E-09  1.282910E-08
        30  17 -3.051445E+04  4.595112E+05  9.718829E+04 -1.236594E+05  3.209166E-11  5.795184E-09
        30  18  2.351378E+05  6.980417E+05  2.791314E+05 -2.328637E+05  3.682190E-10 -2.726787E-09
        30  19  7.024208E+04  9.337461E+05  1.545547E+05 -1.645295E+05 -1.752149E+04  4.927786E+04
        30  20  2.655636E+04  6.957763E+05  1.481037E+05 -5.489748E+04 -7.191224E+03  1.101943E+05
        30  21  1.886289E+05  5.168351E+05  2.326469E+05 -3.362414E+04 -1.264071E+03  1.710832E+05
        30  22 -9.392168E+03  6.074803E+05  8.310452E+04 -1.336683E+05 -1.749698E+04  3.802456E+04
        30  23 -1.979579E+03  5.776408E+05  1.226546E+05 -8.928202E+04 -7.182570E+03  1.028577E+05
        30  24  2.118687E+05  6.074386E+05  2.559122E+05 -1.332367E+05 -1.284296E+03  1.676829E+05
        30  25 -8.902993E+04  2.813163E+05  1.164889E+04 -1.028235E+05 -1.747357E+04  2.677709E+04
        30  26 -3.051195E+04  4.595210E+05  9.720552E+04 -1.236599E+05 -7.173103E+03  9.552252E+04
        30  27  2.351451E+05  6.980707E+05  2.791821E+05 -2.328638E+05 -1.303427E+03  1.642821E+05
        31   1 -1.306980E+06 -3.080641E+05 -1.193557E+05 -4.986398E+05 -6.517806E+04 -2.325944E+04
        31   2 -1.288014E+06 -2.084268E+05 -5.817703E+04 -4.965320E+05 -4.126343E+04 -1.203793E+04
        31   3 -1.295045E+06 -1.891240E+05 -3.586830E+04 -4.815183E+05 -1.643806E+04 -3.244154E+03
        31   4 -1.249194E+06 -2.535234E+05 -9.747163E+04 -4.491363E+05 -6.253128E+04 -2.227129E+04
        31   5 -1.231119E+06 -1.762010E+05 -4.211308E+04 -4.695851E+05 -4.063127E+04 -1.180183E+04
        31   6 -1.238638E+06 -1.788102E+05 -2.402334E+04 -4.771290E+05 -1.782044E+04 -3.762097E+03
        31   7 -1.191403E+06 -1.989751E+05 -7.558784E+04 -3.996278E+05 -5.988428E+04 -2.128270E+04
        31   8 -1.174221E+06 -1.439737E+05 -2.604955E+04 -4.426357E+05 -3.999905E+04 -1.156569E+04
        31   9 -1.182228E+06 -1.684964E+05 -1.217849E+04 -4.727397E+05 -1.920296E+04 -4.280031E+03
        31  10 -1.306984E+06 -3.080658E+05 -1.193647E+05 -4.986410E+05 -9.702846E-10  1.125697E-11
        31  11 -1.288016E+06 -2.084274E+05 -5.818051E+04 -4.965324E+05 -2.589440E-09  1.416059E-10
        31  12 -1.295046E+06 -1.891241E+05 -3.586883E+04 -4.815183E+05  3.707650E-11 -4.106636E-10
        31  13 -1.249198E+06 -2.535250E+05 -9.747993E+04 -4.491374E+05  1.762085E-10  8.404385E-11
        31  14 -1.231121E+06 -1.762016E+05 -4.211645E+04 -4.695855E+05  4.205451E-10 -8.872214E-11
        31  15 -1.238638E+06 -1.788103E+05 -2.402397E+04 -4.771291E+05  4.150230E-10 -8.701097E-10
        31  16 -1.191407E+06 -1.989765E+05 -7.559544E+04 -3.996288E+05  1.043730E-09 -9.534589E-11
        31  17 -1.174223E+06 -1.439743E+05 -2.605281E+04 -4.426361E+05 -7.911398E-10 -6.238497E-10
        31  18 -1.182228E+06 -1.684965E+05 -1.217922E+04 -4.727398E+05 -1.856250E-09 -1.452205E-09
        31  19 -1.306980E+06 -3.080641E+05 -1.193557E+05 -4.986398E+05  6.517806E+04  2.325944E+04
        31  20 -1.288014E+06 -2.084268E+05 -5.817703E+04 -4.965320E+05  4.126343E+04  1.203793E+04
        31  21 -1.295045E+06 -1.891240E+05 -3.586830E+04 -4.815183E+05  1.643806E+04  3.244154E+03
        31  22 -1.249194E+06 -2.535234E+05 -9.747163E+04 -4.491363E+05  6.253128E+04  2.227129E+04
        31  23 -1.231119E+06 -1.762010E+05 -4.211308E+04 -4.695851E+05  4.063127E+04  1.180183E+04
        31  24 -1.238638E+06 -1.788102E+05 -2.402334E+04 -4.771290E+05  1.782044E+04  3.762097E+03
        31  25 -1.191403E+06 -1.989751E+05 -7.558784E+04 -3.996278E+05  5.988428E+04  2.128270E+04
        31  26 -1.174221E+06 -1.439737E+05 -2.604955E+04 -4.426357E+05  3.999905E+04  1.156569E+04
        31  27 -1.182228E+06 -1.684964E+05 -1.217849E+04 -4.727397E+05  1.920296E+04  4.280031E+03
        32   1 -1.268625E+06 -2.003196E+05 -2.746520E+04 -4.832425E+05 -1.377936E+04 -3.170036E+03
        32   2 -1.254113E+06 -1.857692E+05 -1.408104E+04 -4.759761E+05 -8.412156E+03 -2.110272E+03
        32   3 -1.236609E+06 -1.815732E+05 -5.778765E+03 -4.739128E+05 -3.003165E+03 -1.161091E+03
        32   4 -1.235530E+06 -1.863851E+05 -1.908423E+04 -4.725178E+05 -1.442692E+04 -3.412857E+03
        32   5 -1.236703E+06 -1.788814E+05 -9.757534E+03 -4.707904E+05 -9.151312E+03 -2.387386E+03
        32   6 -1.234868E+06 -1.817138E+05 -5.439813E+03 -4.742663E+05 -3.834110E+03 -1.472587E+03
        32   7 -1.202434E+06 -1.724504E+05 -1.070326E+04 -4.617925E+05 -1.507453E+04 -3.655698E+03
        32   8 -1.219294E+06 -1.719936E+05 -5.434067E+03 -4.656046E+05 -9.890489E+03 -2.664509E+03
        32   9 -1.233126E+06 -1.818545E+05 -5.100862E+03 -4.746198E+05 -4.665047E+03 -1.784078E+03
        32  10 -1.268625E+06 -2.003197E+05 -2.746558E+04 -4.832425E+05 -2.309390E-10 -1.128736E-09
        32  11 -1.254113E+06 -1.857693E+05 -1.408118E+04 -4.759761E+05 -2.282928E-09 -5.861283E-10
        32  12 -1.236609E+06 -1.815732E+05 -5.778785E+03 -4.739128E+05  1.534280E-09 -1.026641E-10
        32  13 -1.235531E+06 -1.863852E+05 -1.908464E+04 -4.725178E+05 -7.469496E-10 -8.357961E-10
        32  14 -1.236703E+06 -1.788814E+05 -9.757703E+03 -4.707904E+05 -2.269219E-10  2.498329E-10
        32  15 -1.234868E+06 -1.817138E+05 -5.439845E+03 -4.742663E+05 -1.017761E-09 -1.560126E-10
        32  16 -1.202435E+06 -1.724505E+05 -1.070372E+04 -4.617925E+05 -8.038194E-10 -3.899251E-10
        32  17 -1.219294E+06 -1.719936E+05 -5.434265E+03 -4.656046E+05  1.641412E-09  4.860103E-10
        32  18 -1.233126E+06 -1.818545E+05 -5.100909E+03 -4.746198E+05 -5.569439E-10 -1.348378E-10
        32  19 -1.268625E+06 -2.003196E+05 -2.746520E+04 -4.832425E+05  1.377936E+04  3.170036E+03
        32  20 -1.254113E+06 -1.857692E+05 -1.408104E+04 -4.759761E+05  8.412156E+03  2.110272E+03
        32  21 -1.236609E+06 -1.815732E+05 -5.778765E+03 -4.739128E+05  3.003165E+03  1.161091E+03
        32  22 -1.235530E+06 -1.863851E+05 -1.908423E+04 -4.725178E+05  1.442692E+04  3.412857E+03
        32  23 -1.236703E+06 -1.788814E+05 -9.757534E+03 -4.707904E+05  9.151312E+03  2.387386E+03
        32  24 -1.234868E+06 -1.817138E+05 -5.439813E+03 -4.742663E+05  3.834110E+03  1.472587E+03
        32  25 -1.202434E+06 -1.724504E+05 -1.070326E+04 -4.617925E+05  1.507453E+04  3.655698E+03
        32  26 -1.219294E+06 -1.719936E+05 -5.434067E+03 -4.656046E+05  9.890489E+03  2.664509E+03
        32  27 -1.233126E+06 -1.818545E+05 -5.100862E+03 -4.746198E+05  4.665047E+03  1.784078E+03
        33   1 -1.221394E+06 -1.772388E+05 -8.817537E+02 -4.703293E+05 -2.053821E+03 -1.461586E+03
        33   2 -1.207457E+06 -1.680374E+05  4.974340E+03 -4.627033E+05 -5.554560E+02 -1.997528E+03
        33   3 -1.188323E+06 -1.646274E+05  9.899001E+03 -4.613073E+05  9.440466E+02 -2.536259E+03
        33   4 -1.234588E+06 -1.821670E+05 -4.151220E+03 -4.739461E+05 -2.851417E+03 -1.760586E+03
        33   5 -1.237167E+06 -1.791375E+05 -2.268075E+03 -4.708811E+05 -1.355421E+03 -2.297440E+03
        33   6 -1.234549E+06 -1.818990E+05 -1.314404E+03 -4.740462E+05  1.416858E+02 -2.837096E+03
        33   7 -1.247781E+06 -1.870952E+05 -7.420720E+03 -4.775629E+05 -3.649000E+03 -2.059581E+03
        33   8 -1.266876E+06 -1.902377E+05 -9.510643E+03 -4.790586E+05 -2.155353E+03 -2.597341E+03
        33   9 -1.280773E+06 -1.991707E+05 -1.252817E+04 -4.867844E+05 -6.606223E+02 -3.137913E+03
        33  10 -1.221394E+06 -1.772388E+05 -8.817657E+02 -4.703293E+05  4.803051E-10 -2.549738E-10
        33  11 -1.207457E+06 -1.680374E+05  4.974332E+03 -4.627033E+05  7.101120E-10 -1.361612E-11
        33  12 -1.188323E+06 -1.646274E+05  9.898987E+03 -4.613073E+05 -2.677545E-09 -9.015568E-10
        33  13 -1.234588E+06 -1.821670E+05 -4.151241E+03 -4.739462E+05  8.170266E-12 -9.623893E-11
        33  14 -1.237167E+06 -1.791375E+05 -2.268088E+03 -4.708811E+05 -5.909047E-10 -1.217454E-10
        33  15 -1.234549E+06 -1.818990E+05 -1.314419E+03 -4.740462E+05 -2.701837E-09 -1.595425E-09
        33  16 -1.247781E+06 -1.870952E+05 -7.420753E+03 -4.775630E+05  5.092309E-10  2.167937E-10
        33  17 -1.266876E+06 -1.902377E+05 -9.510664E+03 -4.790586E+05  2.666199E-09 -2.809884E-10
        33  18 -1.280773E+06 -1.991707E+05 -1.252818E+04 -4.867844E+05 -3.020354E-09 -2.443824E-09
        33  19 -1.221394E+06 -1.772388E+05 -8.817537E+02 -4.703293E+05  2.053821E+03  1.461586E+03
        33  20 -1.207457E+06 -1.680374E+05  4.974340E+03 -4.627033E+05  5.554560E+02  1.997528E+03
        33  21 -1.188323E+06 -1.646274E+05  9.899001E+03 -4.613073E+05 -9.440466E+02  2.536259E+03
        33  22 -1.234588E+06 -1.821670E+05 -4.151220E+03 -4.739461E+05  2.851417E+03  1.760586E+03
        33  23 -1.237167E+06 -1.791375E+05 -2.268075E+03 -4.708811E+05  1.355421E+03  2.297440E+03
        33  24 -1.234549E+06 -1.818990E+05 -1.314404E+03 -4.740462E+05 -1.416858E+02  2.837096E+03
        33  25 -1.247781E+06 -1.870952E+05 -7.420720E+03 -4.775629E+05  3.649000E+03  2.059581E+03
        33  26 -1.266876E+06 -1.902377E+05 -9.510643E+03 -4.790586E+05  2.155353E+03  2.597341E+03
        33  27 -1.280773E+06 -1.991707E+05 -1.252817E+04 -4.867844E+05  6.606223E+02  3.137913E+03
        34   1 -1.174013E+06 -1.593521E+05  1.376027E+04 -4.574191E+05  1.344968E+03 -3.026407E+03
        34   2 -1.160288E+06 -1.505396E+05  1.801459E+04 -4.498275E+05  2.060898E+03 -3.853398E+03
        34   3 -1.141202E+06 -1.471707E+05  2.199819E+04 -4.484512E+05  2.775644E+03 -4.676920E+03
        34   4 -1.234526E+06 -1.819111E+05 -1.040055E+03 -4.740097E+05  5.463468E+02 -3.325864E+03
        34   5 -1.237205E+06 -1.791846E+05 -7.199732E+02 -4.709040E+05  1.265097E+03 -4.151841E+03
        34   6 -1.234525E+06 -1.819021E+05 -6.727736E+02 -4.740133E+05  1.982655E+03 -4.974355E+03
        34   7 -1.295035E+06 -2.044695E+05 -1.584042E+04 -4.905987E+05 -2.521780E+02 -3.625284E+03
        34   8 -1.314117E+06 -2.078289E+05 -1.945481E+04 -4.919778E+05  4.694097E+02 -4.450242E+03
        34   9 -1.327839E+06 -2.166329E+05 -2.334434E+04 -4.995719E+05  1.189797E+03 -5.271740E+03
        34  10 -1.174013E+06 -1.593522E+05  1.376025E+04 -4.574190E+05 -4.353781E-09 -1.787522E-09
        34  11 -1.160288E+06 -1.505396E+05  1.801455E+04 -4.498275E+05  1.805108E-09  1.622325E-09
        34  12 -1.141202E+06 -1.471707E+05  2.199814E+04 -4.484512E+05  5.319257E-09  1.102410E-09
        34  13 -1.234526E+06 -1.819111E+05 -1.040076E+03 -4.740097E+05  3.480535E-10 -9.212685E-10
        34  14 -1.237205E+06 -1.791846E+05 -7.200086E+02 -4.709040E+05  3.387566E-09  1.407894E-09
        34  15 -1.234525E+06 -1.819021E+05 -6.728274E+02 -4.740133E+05  1.391933E-10  3.840441E-10
        34  16 -1.295035E+06 -2.044695E+05 -1.584044E+04 -4.905987E+05  3.269794E-09 -4.148699E-10
        34  17 -1.314117E+06 -2.078290E+05 -1.945484E+04 -4.919778E+05  2.441563E-09  8.049052E-10
        34  18 -1.327839E+06 -2.166329E+05 -2.334439E+04 -4.995719E+05 -1.451352E-09 -6.726607E-10
        34  19 -1.174013E+06 -1.593521E+05  1.376027E+04 -4.574191E+05 -1.344968E+03  3.026407E+03
        34  20 -1.160288E+06 -1.505396E+05  1.801459E+04 -4.498275E+05 -2.060898E+03  3.853398E+03
        34  21 -1.141202E+06 -1.471707E+05  2.199819E+04 -4.484512E+05 -2.775644E+03  4.676920E+03
        34  22 -1.234526E+06 -1.819111E+05 -1.040055E+03 -4.740097E+05 -5.463468E+02  3.325864E+03
        34  23 -1.237205E+06 -1.791846E+05 -7.199732E+02 -4.709040E+05 -1.265097E+03  4.151841E+03
        34  24 -1.234525E+06 -1.819021E+05 -6.727736E+02 -4.740133E+05 -1.982655E+03  4.974355E+03
        34  25 -1.295035E+06 -2.044695E+05 -1.584042E+04 -4.905987E+05  2.521780E+02  3.625284E+03
        34  26 -1.314117E+06 -2.078289E+05 -1.945481E+04 -4.919778E+05 -4.694097E+02  4.450242E+03
        34  27 -1.327839E+06 -2.166329E+05 -2.334434E+04 -4.995719E+05 -1.189797E+03  5.271740E+03
        35   1 -1.127116E+06 -1.418864E+05  2.548633E+04 -4.445822E+05  3.096633E+03 -5.189228E+03
        35   2 -1.113600E+06 -1.332227E+05  2.901863E+04 -4.371059E+05  3.980537E+03 -5.937606E+03
        35   3 -1.094834E+06 -1.299330E+05  3.214873E+04 -4.357452E+05  4.861922E+03 -6.678672E+03
        35   4 -1.234550E+06 -1.818828E+05 -7.354678E+02 -4.739930E+05  2.307688E+03 -5.485187E+03
        35   5 -1.237177E+06 -1.792073E+05 -1.073299E+03 -4.709308E+05  3.197509E+03 -6.231427E+03
        35   6 -1.234555E+06 -1.819074E+05 -1.818166E+03 -4.739845E+05  4.084793E+03 -6.970357E+03
        35   7 -1.341972E+06 -2.218786E+05 -2.695828E+04 -5.033994E+05  1.518889E+03 -5.781091E+03
        35   8 -1.360738E+06 -2.251910E+05 -3.116646E+04 -5.047498E+05  2.414648E+03 -6.525184E+03
        35   9 -1.374256E+06 -2.338804E+05 -3.578653E+04 -5.122161E+05  3.307854E+03 -7.261971E+03
        35  10 -1.127116E+06 -1.418864E+05  2.548626E+04 -4.445821E+05  5.554045E-11 -1.043554E-09
        35  11 -1.113600E+06 -1.332227E+05  2.901854E+04 -4.371059E+05 -8.261805E-10 -3.353292E-10
        35  12 -1.094834E+06 -1.299331E+05  3.214860E+04 -4.357451E+05  2.293856E-09  4.801334E-10
        35  13 -1.234550E+06 -1.818828E+05 -7.355343E+02 -4.739930E+05  8.617023E-10 -4.318844E-10
        35  14 -1.237177E+06 -1.792073E+05 -1.073391E+03 -4.709308E+05 -1.239972E-09  3.935959E-10
        35  15 -1.234555E+06 -1.819075E+05 -1.818288E+03 -4.739845E+05  4.214093E-09  3.083505E-10
        35  16 -1.341972E+06 -2.218786E+05 -2.695834E+04 -5.033994E+05 -2.639903E-09  3.587296E-10
        35  17 -1.360738E+06 -2.251910E+05 -3.116655E+04 -5.047497E+05  1.591532E-09  6.103317E-10
        35  18 -1.374256E+06 -2.338805E+05 -3.578664E+04 -5.122161E+05  3.302044E-09  3.351587E-10
        35  19 -1.127116E+06 -1.418864E+05  2.548633E+04 -4.445822E+05 -3.096633E+03  5.189228E+03
        35  20 -1.113600E+06 -1.332227E+05  2.901863E+04 -4.371059E+05 -3.980537E+03  5.937606E+03
        35  21 -1.094834E+06 -1.299330E+05  3.214873E+04 -4.357452E+05 -4.861922E+03  6.678672E+03
        35  22 -1.234550E+06 -1.818828E+05 -7.354678E+02 -4.739930E+05 -2.307688E+03  5.485187E+03
        35  23 -1.237177E+06 -1.792073E+05 -1.073299E+03 -4.709308E+05 -3.197509E+03  6.231427E+03
        35  24 -1.234555E+06 -1.819074E+05 -1.818166E+03 -4.739845E+05 -4.084793E+03  6.970357E+03
        35  25 -1.341972E+06 -2.218786E+05 -2.695828E+04 -5.033994E+05 -1.518889E+03  5.781091E+03
        35  26 -1.360738E+06 -2.251910E+05 -3.116646E+04 -5.047498E+05 -2.414648E+03  6.525184E+03
        35  27 -1.374256E+06 -2.338804E+05 -3.578653E+04 -5.122161E+05 -3.307854E+03  7.261971E+03
        36   1 -1.081046E+06 -1.247686E+05  3.506130E+04 -4.320618E+05  5.411383E+03 -7.094186E+03
        36   2 -1.067743E+06 -1.162021E+05  3.696579E+04 -4.246335E+05  7.868785E+03 -7.224118E+03
        36   3 -1.049720E+06 -1.134619E+05  3.714155E+04 -4.231031E+05  1.031726E+04 -7.329426E+03
        36   4 -1.234651E+06 -1.818380E+05 -2.382556E+03 -4.740006E+05  4.635380E+03 -7.385506E+03
        36   5 -1.237046E+06 -1.791821E+05 -4.257984E+03 -4.709550E+05  7.112586E+03 -7.508110E+03
        36   6 -1.234727E+06 -1.823565E+05 -7.878214E+03 -4.738074E+05  9.580819E+03 -7.606107E+03
        36   7 -1.388232E+06 -2.389056E+05 -3.982798E+04 -5.159298E+05  3.859590E+03 -7.676745E+03
        36   8 -1.406321E+06 -2.421601E+05 -4.548391E+04 -5.172651E+05  6.356613E+03 -7.792018E+03
        36   9 -1.419701E+06 -2.512491E+05 -5.290078E+04 -5.244982E+05  8.844613E+03 -7.882699E+03
        36  10 -1.081046E+06 -1.247686E+05  3.506115E+04 -4.320618E+05  3.783062E-09  4.747133E-10
        36  11 -1.067743E+06 -1.162021E+05  3.696558E+04 -4.246334E+05  2.026682E-09 -8.113434E-10
        36  12 -1.049720E+06 -1.134620E+05  3.714124E+04 -4.231030E+05 -3.112448E-09  1.129556E-10
        36  13 -1.234651E+06 -1.818381E+05 -2.382699E+03 -4.740006E+05  3.495479E-09 -8.792755E-11
        36  14 -1.237046E+06 -1.791821E+05 -4.258185E+03 -4.709550E+05 -2.709832E-09 -6.074305E-10
        36  15 -1.234727E+06 -1.823566E+05 -7.878495E+03 -4.738073E+05 -2.237295E-09  8.700368E-10
        36  16 -1.388232E+06 -2.389057E+05 -3.982812E+04 -5.159298E+05  4.558402E-10 -6.264436E-10
        36  17 -1.406321E+06 -2.421602E+05 -4.548410E+04 -5.172650E+05 -1.655444E-09 -4.299457E-10
        36  18 -1.419701E+06 -2.512492E+05 -5.290104E+04 -5.244982E+05  7.574253E-10  1.214561E-09
        36  19 -1.081046E+06 -1.247686E+05  3.506130E+04 -4.320618E+05 -5.411383E+03  7.094186E+03
        36  20 -1.067743E+06 -1.162021E+05  3.696579E+04 -4.246335E+05 -7.868785E+03  7.224118E+03
        36  21 -1.049720E+06 -1.134619E+05  3.714155E+04 -4.231031E+05 -1.031726E+04  7.329426E+03
        36  22 -1.234651E+06 -1.818380E+05 -2.382556E+03 -4.740006E+05 -4.635380E+03  7.385506E+03
        36  23 -1.237046E+06 -1.791821E+05 -4.257984E+03 -4.709550E+05 -7.112586E+03  7.508110E+03
        36  24 -1.234727E+06 -1.823565E+05 -7.878214E+03 -4.738074E+05 -9.580819E+03  7.606107E+03
        36  25 -1.388232E+06 -2.389056E+05 -3.982798E+04 -5.159298E+05 -3.859590E+03  7.676745E+03
        36  26 -1.406321E+06 -2.421601E+05 -4.548391E+04 -5.172651E+05 -6.356613E+03  7.792018E+03
        36  27 -1.419701E+06 -2.512491E+05 -5.290078E+04 -5.244982E+05 -8.844613E+03  7.882699E+03
        37   1 -1.035759E+06 -1.086338E+05  3.803771E+04 -4.212440E+05  1.208225E+04 -7.309349E+03
        37   2 -1.023038E+06 -9.857381E+04  3.348544E+04 -4.116042E+05  2.155326E+04 -4.693354E+03
        37   3 -1.009888E+06 -1.027708E+05  1.962720E+04 -4.056954E+05  3.089091E+04 -1.721231E+03
        37   4 -1.235300E+06 -1.814540E+05 -1.034402E+04 -4.743732E+05  1.124907E+04 -7.622394E+03
        37   5 -1.236120E+06 -1.787494E+05 -1.859112E+04 -4.708381E+05  2.101247E+04 -4.896795E+03
        37   6 -1.236570E+06 -1.903623E+05 -3.637870E+04 -4.710341E+05  3.064225E+04 -1.815183E+03
        37   7 -1.434802E+06 -2.542719E+05 -5.872868E+04 -5.274869E+05  1.041618E+04 -7.935333E+03
        37   8 -1.449156E+06 -2.589215E+05 -7.067095E+04 -5.300532E+05  2.047189E+04 -5.100158E+03
        37   9 -1.463200E+06 -2.779488E+05 -9.238824E+04 -5.363504E+05  3.039368E+04 -1.909095E+03
        37  10 -1.035760E+06 -1.086339E+05  3.803733E+04 -4.212439E+05 -8.924265E-10  1.549212E-09
        37  11 -1.023039E+06 -9.857396E+04  3.348453E+04 -4.116042E+05 -8.112834E-10 -2.659844E-10
        37  12 -1.009889E+06 -1.027711E+05  1.962539E+04 -4.056953E+05  6.584905E-10 -9.583070E-10
        37  13 -1.235300E+06 -1.814541E+05 -1.034436E+04 -4.743731E+05 -2.301222E-10  8.482443E-10
        37  14 -1.236120E+06 -1.787496E+05 -1.859199E+04 -4.708380E+05  1.091864E-09 -7.455319E-10
        37  15 -1.236571E+06 -1.903626E+05 -3.638047E+04 -4.710340E+05 -9.931306E-10 -9.688263E-11
        37  16 -1.434802E+06 -2.542720E+05 -5.872901E+04 -5.274869E+05 -1.398792E-09 -2.686739E-11
        37  17 -1.449156E+06 -2.589216E+05 -7.067179E+04 -5.300531E+05 -2.217236E-09 -7.435449E-10
        37  18 -1.463201E+06 -2.779490E+05 -9.238998E+04 -5.363503E+05 -7.370183E-10 -7.228122E-11
        37  19 -1.035759E+06 -1.086338E+05  3.803771E+04 -4.212440E+05 -1.208225E+04  7.309349E+03
        37  20 -1.023038E+06 -9.857381E+04  3.348544E+04 -4.116042E+05 -2.155326E+04  4.693354E+03
        37  21 -1.009888E+06 -1.027708E+05  1.962720E+04 -4.056954E+05 -3.089091E+04  1.721231E+03
        37  22 -1.235300E+06 -1.814540E+05 -1.034402E+04 -4.743732E+05 -1.124907E+04  7.622394E+03
        37  23 -1.236120E+06 -1.787494E+05 -1.859112E+04 -4.708381E+05 -2.101247E+04  4.896795E+03
        37  24 -1.236570E+06 -1.903623E+05 -3.637870E+04 -4.710341E+05 -3.064225E+04  1.815183E+03
        37  25 -1.434802E+06 -2.542719E+05 -5.872868E+04 -5.274869E+05 -1.041618E+04  7.935333E+03
        37  26 -1.449156E+06 -2.589215E+05 -7.067095E+04 -5.300532E+05 -2.047189E+04  5.100158E+03
        37  27 -1.463200E+06 -2.779488E+05 -9.238824E+04 -5.363504E+05 -3.039368E+04  1.909095E+03
        38   1 -9.856403E+05 -1.005673E+05  1.303947E+04 -4.303716E+05  3.956106E+04  7.123811E+01
        38   2 -9.845648E+05 -6.276132E+04 -1.709126E+04 -3.808627E+05  7.613102E+04  1.467159E+04
        38   3 -1.036647E+06 -1.703790E+05 -1.132417E+05 -3.002420E+05  1.098383E+05  3.689532E+04
        38   4 -1.242534E+06 -1.758804E+05 -4.579699E+04 -4.797793E+05  3.701256E+04 -8.851122E+02
        38   5 -1.225417E+06 -1.737048E+05 -8.028951E+04 -4.686090E+05  7.989247E+04  1.608150E+04
        38   6 -1.262738E+06 -3.182482E+05 -1.858287E+05 -4.263203E+05  1.199095E+05  4.066701E+04
        38   7 -1.499362E+06 -2.511945E+05 -1.046379E+05 -5.291714E+05  3.446521E+04 -1.841246E+03
        38   8 -1.466210E+06 -2.846351E+05 -1.434926E+05 -5.563214E+05  8.365234E+04  1.749049E+04
        38   9 -1.488767E+06 -4.660740E+05 -2.584192E+05 -5.523467E+05  1.299767E+05  4.443462E+04
        38  10 -9.856420E+05 -1.005678E+05  1.303653E+04 -4.303716E+05  1.071445E-09 -3.676382E-10
        38  11 -9.845710E+05 -6.276311E+04 -1.710258E+04 -3.808636E+05  1.371521E-10  3.590957E-10
        38  12 -1.036661E+06 -1.703837E+05 -1.132670E+05 -3.002452E+05 -4.185574E-10  5.407147E-10
        38  13 -1.242535E+06 -1.758808E+05 -4.579957E+04 -4.797793E+05 -1.928665E-10  8.768769E-11
        38  14 -1.225424E+06 -1.737068E+05 -8.030201E+04 -4.686101E+05 -8.498453E-10 -9.501426E-10
        38  15 -1.262753E+06 -3.182539E+05 -1.858589E+05 -4.263242E+05  1.011968E-09 -3.341159E-10
        38  16 -1.499364E+06 -2.511948E+05 -1.046401E+05 -5.291713E+05 -1.539770E-09  1.045059E-10
        38  17 -1.466218E+06 -2.846373E+05 -1.435064E+05 -5.563226E+05  1.866707E-09  4.799038E-10
        38  18 -1.488786E+06 -4.660806E+05 -2.584547E+05 -5.523514E+05 -2.670935E-10  1.167888E-10
        38  19 -9.856403E+05 -1.005673E+05  1.303947E+04 -4.303716E+05 -3.956106E+04 -7.123811E+01
        38  20 -9.845648E+05 -6.276132E+04 -1.709126E+04 -3.808627E+05 -7.613102E+04 -1.467159E+04
        38  21 -1.036647E+06 -1.703790E+05 -1.132417E+05 -3.002420E+05 -1.098383E+05 -3.689532E+04
        38  22 -1.242534E+06 -1.758804E+05 -4.579699E+04 -4.797793E+05 -3.701256E+04  8.851122E+02
        38  23 -1.225417E+06 -1.737048E+05 -8.028951E+04 -4.686090E+05 -7.989247E+04 -1.608150E+04
        38  24 -1.262738E+06 -3.182482E+05 -1.858287E+05 -4.263203E+05 -1.199095E+05 -4.066701E+04
        38  25 -1.499362E+06 -2.511945E+05 -1.046379E+05 -5.291714E+05 -3.446521E+04  1.841246E+03
        38  26 -1.466210E+06 -2.846351E+05 -1.434926E+05 -5.563214E+05 -8.365234E+04 -1.749049E+04
        38  27 -1.488767E+06 -4.660740E+05 -2.584192E+05 -5.523467E+05 -1.299767E+05 -4.443462E+04
        39   1 -1.278178E+05  5.147777E+04  6.199320E+04  2.409805E+04  4.260850E+04  1.654216E+00
        39   2 -1.350417E+05 -5.462967E+02  2.817804E+04  8.320340E+03  2.766547E+04  3.708476E-01
        39   3 -1.278223E+05 -2.586229E+03  1.658982E+04 -7.457130E+03  1.272240E+04 -1.528452E-01
        39   4 -1.278184E+05  5.147668E+04  6.199305E+04  1.128559E-09  4.260850E+04  4.523082E-10
        39   5 -1.350418E+05 -5.464269E+02  2.817802E+04  5.144427E-09  2.766547E+04  1.326693E-09
        39   6 -1.278223E+05 -2.586333E+03  1.658981E+04  2.699941E-09  1.272240E+04  7.654133E-10
        39   7 -1.278178E+05  5.147777E+04  6.199320E+04 -2.409805E+04  4.260850E+04 -1.654216E+00
        39   8 -1.350417E+05 -5.462967E+02  2.817804E+04 -8.320340E+03  2.766547E+04 -3.708476E-01
        39   9 -1.278223E+05 -2.586229E+03  1.658982E+04  7.457130E+03  1.272240E+04  1.528452E-01
        39  10 -1.278198E+05  5.147728E+04  6.198979E+04  2.409805E+04 -8.594463E-10 -5.341767E-11
        39  11 -1.350425E+05 -5.465023E+02  2.817660E+04  8.320340E+03  1.240145E-09 -5.980530E-11
        39  12 -1.278224E+05 -2.586272E+03  1.658952E+04 -7.457130E+03 -5.601784E-10  1.210517E-10
        39  13 -1.278204E+05  5.147619E+04  6.198964E+04  3.357082E-09 -4.206515E-12  1.194105E-10
        39  14 -1.350426E+05 -5.466324E+02  2.817658E+04  3.030027E-09  1.153147E-09  3.972120E-10
        39  15 -1.278225E+05 -2.586376E+03  1.658951E+04 -3.759419E-09 -6.804657E-10  5.175946E-10
        39  16 -1.278198E+05  5.147728E+04  6.198979E+04 -2.409805E+04  3.062423E-10  2.609979E-10
        39  17 -1.350425E+05 -5.465023E+02  2.817660E+04 -8.320340E+03 -1.060553E-10  8.292368E-10
        39  18 -1.278224E+05 -2.586272E+03  1.658952E+04  7.457130E+03 -3.814964E-10  9.274787E-10
        39  19 -1.278178E+05  5.147777E+04  6.199320E+04  2.409805E+04 -4.260850E+04 -1.654216E+00
        39  20 -1.350417E+05 -5.462967E+02  2.817804E+04  8.320340E+03 -2.766547E+04 -3.708476E-01
        39  21 -1.278223E+05 -2.586229E+03  1.658982E+04 -7.457130E+03 -1.272240E+04  1.528452E-01
        39  22 -1.278184E+05  5.147668E+04  6.199305E+04  3.434909E-09 -4.260850E+04 -2.215873E-10
        39  23 -1.350418E+05 -5.464269E+02  2.817802E+04  5.222754E-09 -2.766547E+04 -5.314885E-10
        39  24 -1.278223E+05 -2.586333E+03  1.658981E+04  2.705189E-09 -1.272240E+04  2.694398E-10
        39  25 -1.278178E+05  5.147777E+04  6.199320E+04 -2.409805E+04 -4.260850E+04  1.654216E+00
        39  26 -1.350417E+05 -5.462967E+02  2.817804E+04 -8.320340E+03 -2.766547E+04  3.708476E-01
        39  27 -1.278223E+05 -2.586229E+03  1.658982E+04  7.457130E+03 -1.272240E+04 -1.528452E-01
        40   1 -1.307624E+05  2.927857E+03  1.320678E+04  1.020651E+03  1.035841E+04  1.703270E-02
        40   2 -1.313677E+05 -1.091994E+02  7.121583E+03  2.364488E+02  6.780224E+03  2.582821E-03
        40   3 -1.307628E+05 -1.696481E+02  4.110465E+03 -5.477437E+02  3.202108E+03 -2.825701E-03
        40   4 -1.307624E+05  2.927855E+03  1.320678E+04  5.758072E-09  1.035841E+04  2.849563E-10
        40   5 -1.313677E+05 -1.091995E+02  7.121583E+03 -2.840909E-09  6.780224E+03 -2.251499E-10
        40   6 -1.307628E+05 -1.696486E+02  4.110465E+03  3.636653E-09  3.202108E+03 -1.004830E-09
        40   7 -1.307624E+05  2.927857E+03  1.320678E+04 -1.020651E+03  1.035841E+04 -1.703270E-02
        40   8 -1.313677E+05 -1.091994E+02  7.121583E+03 -2.364488E+02  6.780224E+03 -2.582822E-03
        40   9 -1.307628E+05 -1.696481E+02  4.110465E+03  5.477437E+02  3.202108E+03  2.825699E-03
        40  10 -1.307625E+05  2.927828E+03  1.320658E+04  1.020651E+03  1.231107E-09 -3.714759E-11
        40  11 -1.313677E+05 -1.092117E+02  7.121497E+03  2.364488E+02  9.717863E-10 -5.588002E-10
        40  12 -1.307628E+05 -1.696508E+02  4.110446E+03 -5.477437E+02 -1.932322E-10 -7.023193E-10
        40  13 -1.307625E+05  2.927826E+03  1.320658E+04  9.781264E-09 -2.158062E-09  4.484989E-11
        40  14 -1.313677E+05 -1.092118E+02  7.121497E+03  3.431691E-10 -1.617488E-09 -8.025720E-10
        40  15 -1.307628E+05 -1.696514E+02  4.110446E+03  5.973041E-10  9.680898E-10 -4.289849E-10
        40  16 -1.307625E+05  2.927828E+03  1.320658E+04 -1.020651E+03 -2.320031E-09  1.303738E-10
        40  17 -1.313677E+05 -1.092117E+02  7.121497E+03 -2.364488E+02  1.171334E-10 -1.048627E-09
        40  18 -1.307628E+05 -1.696508E+02  4.110446E+03  5.477437E+02 -5.419123E-10 -1.564060E-10
        40  19 -1.307624E+05  2.927857E+03  1.320678E+04  1.020651E+03 -1.035841E+04 -1.703270E-02
        40  20 -1.313677E+05 -1.091994E+02  7.121583E+03  2.364488E+02 -6.780224E+03 -2.582822E-03
        40  21 -1.307628E+05 -1.696481E+02  4.110465E+03 -5.477437E+02 -3.202108E+03  2.825700E-03
        40  22 -1.307624E+05  2.927855E+03  1.320678E+04  1.165234E-08 -1.035841E+04 -1.959957E-10
        40  23 -1.313677E+05 -1.091995E+02  7.121583E+03 -2.933574E-09 -6.780224E+03 -1.377683E-09
        40  24 -1.307628E+05 -1.696486E+02  4.110465E+03 -4.596799E-09 -3.202108E+03  1.466397E-10
        40  25 -1.307624E+05  2.927857E+03  1.320678E+04 -1.020651E+03 -1.035841E+04  1.703270E-02
        40  26 -1.313677E+05 -1.091994E+02  7.121583E+03 -2.364488E+02 -6.780224E+03  2.582819E-03
        40  27 -1.307628E+05 -1.696481E+02  4.110465E+03  5.477437E+02 -3.202108E+03 -2.825700E-03
        41   1 -1.309963E+05  1.430729E+02  3.149058E+03 -4.085927E+01  2.563027E+03 -1.687169E-04
        41   2 -1.310761E+05 -2.549662E+01  1.771891E+03 -5.000234E+01  1.684288E+03 -1.356801E-04
        41   3 -1.309964E+05 -1.401912E+01  1.011938E+03 -5.914556E+01  8.055385E+02 -7.675746E-05
        41   4 -1.309963E+05  1.430729E+02  3.149058E+03  8.022502E-09  2.563027E+03 -3.882892E-10
        41   5 -1.310761E+05 -2.549663E+01  1.771891E+03  3.841391E-09  1.684288E+03  1.180813E-09
        41   6 -1.309964E+05 -1.401913E+01  1.011938E+03 -2.495664E-09  8.055385E+02  3.957548E-10
        41   7 -1.309963E+05  1.430729E+02  3.149058E+03  4.085927E+01  2.563027E+03  1.687161E-04
        41   8 -1.310761E+05 -2.549662E+01  1.771891E+03  5.000234E+01  1.684288E+03  1.356824E-04
        41   9 -1.309964E+05 -1.401912E+01  1.011938E+03  5.914556E+01  8.055385E+02  7.675827E-05
        41  10 -1.309963E+05  1.430711E+02  3.149045E+03 -4.085927E+01  1.068151E-09 -2.574889E-10
        41  11 -1.310761E+05 -2.549739E+01  1.771886E+03 -5.000234E+01  1.130793E-09  5.399856E-10
        41  12 -1.309964E+05 -1.401929E+01  1.011937E+03 -5.914556E+01 -1.147726E-09  3.284369E-10
        41  13 -1.309963E+05  1.430711E+02  3.149045E+03 -4.720209E-10 -3.234967E-09  1.038425E-10
        41  14 -1.310761E+05 -2.549739E+01  1.771886E+03  9.275267E-09 -2.374938E-11  5.429492E-10
        41  15 -1.309964E+05 -1.401930E+01  1.011937E+03  1.094568E-08 -1.080380E-09  6.138473E-10
        41  16 -1.309963E+05  1.430711E+02  3.149045E+03  4.085927E+01 -1.626154E-09  4.711682E-10
        41  17 -1.310761E+05 -2.549739E+01  1.771886E+03  5.000234E+01 -8.734378E-10  5.442822E-10
        41  18 -1.309964E+05 -1.401929E+01  1.011937E+03  5.914556E+01  2.678909E-10  8.964191E-10
        41  19 -1.309963E+05  1.430729E+02  3.149058E+03 -4.085927E+01 -2.563027E+03  1.687164E-04
        41  20 -1.310761E+05 -2.549662E+01  1.771891E+03 -5.000234E+01 -1.684288E+03  1.356812E-04
        41  21 -1.309964E+05 -1.401912E+01  1.011938E+03 -5.914556E+01 -8.055385E+02  7.675814E-05
        41  22 -1.309963E+05  1.430729E+02  3.149058E+03 -4.658093E-09 -2.563027E+03  5.934323E-10
        41  23 -1.310761E+05 -2.549663E+01  1.771891E+03  1.786540E-09 -1.684288E+03 -8.907100E-11
        41  24 -1.309964E+05 -1.401913E+01  1.011938E+03  9.578111E-09 -8.055385E+02  8.322711E-10
        41  25 -1.309963E+05  1.430729E+02  3.149058E+03  4.085927E+01 -2.563027E+03 -1.687152E-04
        41  26 -1.310761E+05 -2.549662E+01  1.771891E+03  5.000234E+01 -1.684288E+03 -1.356813E-04
        41  27 -1.309964E+05 -1.401912E+01  1.011938E+03  5.914556E+01 -8.055385E+02 -7.675650E-05
        42   1 -1.310252E+05  9.849434E-01  7.629914E+02 -2.802265E+01  6.455400E+02 -2.914423E-05
        42   2 -1.310401E+05 -5.949683E+00  4.199868E+02 -1.981423E+01  4.378960E+02 -1.397855E-05
        42   3 -1.310252E+05 -1.483071E+00  2.150394E+02 -1.160581E+01  2.302521E+02 -4.305355E-06
        42   4 -1.310252E+05  9.849420E-01  7.629914E+02  4.491122E-09  6.455400E+02 -2.536310E-10
        42   5 -1.310401E+05 -5.949684E+00  4.199868E+02 -1.180463E-09  4.378960E+02 -1.769601E-10
        42   6 -1.310252E+05 -1.483071E+00  2.150394E+02  3.647368E-09  2.302521E+02 -7.242564E-11
        42   7 -1.310252E+05  9.849435E-01  7.629914E+02  2.802265E+01  6.455400E+02  2.914375E-05
        42   8 -1.310401E+05 -5.949683E+00  4.199868E+02  1.981423E+01  4.378960E+02  1.397819E-05
        42   9 -1.310252E+05 -1.483071E+00  2.150394E+02  1.160581E+01  2.302521E+02  4.305219E-06
        42  10 -1.310252E+05  9.848316E-01  7.629906E+02 -2.802265E+01  1.803005E-10  4.652509E-11
        42  11 -1.310401E+05 -5.949735E+00  4.199864E+02 -1.981423E+01 -7.874662E-10 -1.395517E-10
        42  12 -1.310252E+05 -1.483085E+00  2.150393E+02 -1.160581E+01 -1.771094E-09 -4.300708E-10
        42  13 -1.310252E+05  9.848301E-01  7.629906E+02  2.175733E-09  4.738942E-11  3.005843E-10
        42  14 -1.310401E+05 -5.949736E+00  4.199864E+02  5.220703E-09 -4.331365E-09 -2.773198E-10
        42  15 -1.310252E+05 -1.483085E+00  2.150393E+02 -3.043009E-09  1.595888E-09 -3.296313E-10
        42  16 -1.310252E+05  9.848315E-01  7.629906E+02  2.802265E+01 -1.289606E-09  5.485525E-10
        42  17 -1.310401E+05 -5.949735E+00  4.199864E+02  1.981423E+01 -1.049750E-09 -4.019941E-10
        42  18 -1.310252E+05 -1.483085E+00  2.150393E+02  1.160581E+01 -1.593728E-12 -2.348285E-10
        42  19 -1.310252E+05  9.849435E-01  7.629914E+02 -2.802265E+01 -6.455400E+02  2.914435E-05
        42  20 -1.310401E+05 -5.949683E+00  4.199868E+02 -1.981423E+01 -4.378960E+02  1.397832E-05
        42  21 -1.310252E+05 -1.483071E+00  2.150394E+02 -1.160581E+01 -2.302521E+02  4.304489E-06
        42  22 -1.310252E+05  9.849420E-01  7.629914E+02  1.278427E-08 -6.455400E+02  8.581465E-10
        42  23 -1.310401E+05 -5.949684E+00  4.199868E+02 -1.302845E-09 -4.378960E+02 -3.751852E-10
        42  24 -1.310252E+05 -1.483071E+00  2.150394E+02  8.032463E-09 -2.302521E+02 -5.848002E-10
        42  25 -1.310252E+05  9.849435E-01  7.629914E+02  2.802265E+01 -6.455400E+02 -2.914265E-05
        42  26 -1.310401E+05 -5.949683E+00  4.199868E+02  1.981423E+01 -4.378960E+02 -1.397902E-05
        42  27 -1.310252E+05 -1.483071E+00  2.150394E+02  1.160581E+01 -2.302521E+02 -4.305678E-06
        43   1 -1.310316E+05 -1.452228E+00  1.410939E+02 -9.908705E+00  1.979644E+02 -3.160522E-06
        43   2 -1.310321E+05 -2.865818E-01  2.066392E+01 -8.846149E+00  1.877892E+02 -2.676756E-06
        43   3 -1.310316E+05 -5.456252E-01 -9.349773E+01 -7.783607E+00  1.776142E+02 -2.228145E-06
        43   4 -1.310316E+05 -1.452228E+00  1.410939E+02  6.543757E-09  1.979644E+02 -1.671930E-10
        43   5 -1.310321E+05 -2.865819E-01  2.066392E+01 -3.822591E-09  1.877892E+02 -4.903715E-10
        43   6 -1.310316E+05 -5.456253E-01 -9.349773E+01  2.771325E-09  1.776142E+02 -6.436871E-10
        43   7 -1.310316E+05 -1.452228E+00  1.410939E+02  9.908705E+00  1.979644E+02  3.160178E-06
        43   8 -1.310321E+05 -2.865818E-01  2.066392E+01  8.846149E+00  1.877892E+02  2.675740E-06
        43   9 -1.310316E+05 -5.456252E-01 -9.349773E+01  7.783607E+00  1.776142E+02  2.226879E-06
        43  10 -1.310316E+05 -1.452238E+00  1.410938E+02 -9.908705E+00 -2.286811E-10 -2.761054E-10
        43  11 -1.310321E+05 -2.865912E-01  2.066385E+01 -8.846149E+00  1.335661E-09 -9.189032E-11
        43  12 -1.310316E+05 -5.456337E-01 -9.349779E+01 -7.783607E+00 -1.222021E-12 -9.763660E-10
        43  13 -1.310316E+05 -1.452238E+00  1.410938E+02  1.379897E-10  4.946164E-11 -1.394462E-10
        43  14 -1.310321E+05 -2.865914E-01  2.066385E+01 -3.880825E-09  4.525479E-11 -1.394790E-10
        43  15 -1.310316E+05 -5.456338E-01 -9.349779E+01  3.406942E-09 -1.955642E-09 -7.268368E-10
        43  16 -1.310316E+05 -1.452238E+00  1.410938E+02  9.908705E+00  1.315589E-09  3.266610E-12
        43  17 -1.310321E+05 -2.865913E-01  2.066385E+01  8.846149E+00 -2.361162E-10 -2.019416E-10
        43  18 -1.310316E+05 -5.456336E-01 -9.349779E+01  7.783607E+00 -1.038512E-09 -4.760233E-10
        43  19 -1.310316E+05 -1.452228E+00  1.410939E+02 -9.908705E+00 -1.979644E+02  3.159974E-06
        43  20 -1.310321E+05 -2.865818E-01  2.066392E+01 -8.846149E+00 -1.877892E+02  2.676616E-06
        43  21 -1.310316E+05 -5.456252E-01 -9.349773E+01 -7.783607E+00 -1.776142E+02  2.226214E-06
        43  22 -1.310316E+05 -1.452228E+00  1.410939E+02  1.311792E-08 -1.979644E+02 -1.099819E-10
        43  23 -1.310321E+05 -2.865819E-01  2.066392E+01 -1.784303E-09 -1.877892E+02  2.134063E-10
        43  24 -1.310316E+05 -5.456253E-01 -9.349773E+01  6.736429E-09 -1.776142E+02 -8.089804E-10
        43  25 -1.310316E+05 -1.452228E+00  1.410939E+02  9.908705E+00 -1.979644E+02 -3.160175E-06
        43  26 -1.310321E+05 -2.865818E-01  2.066392E+01  8.846149E+00 -1.877892E+02 -2.676178E-06
        43  27 -1.310316E+05 -5.456252E-01 -9.349773E+01  7.783607E+00 -1.776142E+02 -2.227835E-06
        44   1 -1.310386E+05  2.278157E+00 -1.584447E+02 -1.387838E+01  2.002590E+02 -4.478347E-06
        44   2 -1.310234E+05  4.777485E+00 -3.314748E+02 -1.132022E+01  3.647006E+02 -6.651014E-06
        44   3 -1.310387E+05 -2.895974E+01 -6.206379E+02 -8.762026E+00  5.291445E+02 -7.468437E-06
        44   4 -1.310386E+05  2.278156E+00 -1.584447E+02  1.224615E-08  2.002590E+02 -5.817543E-10
        44   5 -1.310234E+05  4.777485E+00 -3.314748E+02 -3.240910E-09  3.647006E+02  7.047327E-11
        44   6 -1.310387E+05 -2.895974E+01 -6.206379E+02 -3.057499E-08  5.291445E+02  1.327081E-09
        44   7 -1.310386E+05  2.278157E+00 -1.584447E+02  1.387838E+01  2.002590E+02  4.477190E-06
        44   8 -1.310234E+05  4.777485E+00 -3.314748E+02  1.132022E+01  3.647006E+02  6.651142E-06
        44   9 -1.310387E+05 -2.895974E+01 -6.206379E+02  8.762026E+00  5.291445E+02  7.471091E-06
        44  10 -1.310386E+05  2.278146E+00 -1.584447E+02 -1.387838E+01 -2.045891E-09 -9.766715E-10
        44  11 -1.310234E+05  4.777450E+00 -3.314751E+02 -1.132022E+01  4.932569E-09  1.444347E-10
        44  12 -1.310387E+05 -2.895982E+01 -6.206385E+02 -8.762026E+00  5.071392E-09  5.534365E-10
        44  13 -1.310386E+05  2.278146E+00 -1.584447E+02  3.859224E-09 -1.126350E-09 -8.046310E-10
        44  14 -1.310234E+05  4.777450E+00 -3.314751E+02  9.781931E-10 -1.688473E-09 -4.714851E-11
        44  15 -1.310387E+05 -2.895982E+01 -6.206385E+02 -2.879879E-10 -1.595523E-09  8.267340E-10
        44  16 -1.310386E+05  2.278146E+00 -1.584447E+02  1.387838E+01  1.557129E-09 -6.220186E-10
        44  17 -1.310234E+05  4.777450E+00 -3.314751E+02  1.132022E+01 -4.746167E-09 -2.197996E-10
        44  18 -1.310387E+05 -2.895982E+01 -6.206385E+02  8.762026E+00 -7.441412E-09  1.096539E-09
        44  19 -1.310386E+05  2.278157E+00 -1.584447E+02 -1.387838E+01 -2.002590E+02  4.476386E-06
        44  20 -1.310234E+05  4.777485E+00 -3.314748E+02 -1.132022E+01 -3.647006E+02  6.651298E-06
        44  21 -1.310387E+05 -2.895974E+01 -6.206379E+02 -8.762026E+00 -5.291445E+02  7.469574E-06
        44  22 -1.310386E+05  2.278156E+00 -1.584447E+02  1.932618E-09 -2.002590E+02 -1.026124E-09
        44  23 -1.310234E+05  4.777485E+00 -3.314748E+02  5.196770E-09 -3.647006E+02 -1.512905E-10
        44  24 -1.310387E+05 -2.895974E+01 -6.206379E+02  1.815318E-08 -5.291445E+02  3.242675E-10
        44  25 -1.310386E+05  2.278157E+00 -1.584447E+02  1.387838E+01 -2.002590E+02 -4.478428E-06
        44  26 -1.310234E+05  4.777485E+00 -3.314748E+02  1.132022E+01 -3.647006E+02 -6.651611E-06
        44  27 -1.310387E+05 -2.895974E+01 -6.206379E+02  8.762026E+00 -5.291445E+02 -7.468918E-06
        45   1 -1.310861E+05  3.410082E+01 -8.183605E+02 -1.110516E+02  6.557426E+02 -1.173190E-04
        45   2 -1.309642E+05  2.195544E+01 -1.431056E+03  4.741672E+01  1.374832E+03  1.050250E-04
        45   3 -1.310862E+05 -5.910097E+02 -2.662187E+03  2.058852E+02  2.093922E+03  6.945412E-04
        45   4 -1.310861E+05  3.410079E+01 -8.183605E+02  2.950409E-08  6.557426E+02  8.320914E-10
        45   5 -1.309642E+05  2.195544E+01 -1.431056E+03  5.885865E-09  1.374832E+03 -8.792741E-10
        45   6 -1.310862E+05 -5.910098E+02 -2.662187E+03 -1.844938E-09  2.093922E+03 -4.174152E-11
        45   7 -1.310861E+05  3.410082E+01 -8.183605E+02  1.110516E+02  6.557426E+02  1.173207E-04
        45   8 -1.309642E+05  2.195544E+01 -1.431056E+03 -4.741672E+01  1.374832E+03 -1.050268E-04
        45   9 -1.310862E+05 -5.910097E+02 -2.662187E+03 -2.058852E+02  2.093922E+03 -6.945412E-04
        45  10 -1.310861E+05  3.410070E+01 -8.183613E+02 -1.110516E+02 -6.514146E-09  6.921547E-10
        45  11 -1.309642E+05  2.195494E+01 -1.431060E+03  4.741672E+01 -3.207429E-09  6.521056E-10
        45  12 -1.310862E+05 -5.910109E+02 -2.662195E+03  2.058852E+02  2.023540E-09 -2.182231E-10
        45  13 -1.310861E+05  3.410068E+01 -8.183613E+02  1.889537E-09 -3.234956E-09  7.665961E-10
        45  14 -1.309642E+05  2.195493E+01 -1.431060E+03  6.074995E-09 -1.636886E-09  9.711178E-11
        45  15 -1.310862E+05 -5.910110E+02 -2.662195E+03  4.338982E-09  2.911466E-10  1.538002E-10
        45  16 -1.310861E+05  3.410070E+01 -8.183613E+02  1.110516E+02  4.326228E-09  8.393626E-10
        45  17 -1.309642E+05  2.195494E+01 -1.431060E+03 -4.741672E+01  5.899720E-09 -4.621188E-10
        45  18 -1.310862E+05 -5.910109E+02 -2.662195E+03 -2.058852E+02  4.696584E-10  5.319909E-10
        45  19 -1.310861E+05  3.410082E+01 -8.183605E+02 -1.110516E+02 -6.557426E+02  1.173204E-04
        45  20 -1.309642E+05  2.195544E+01 -1.431056E+03  4.741672E+01 -1.374832E+03 -1.050237E-04
        45  21 -1.310862E+05 -5.910097E+02 -2.662187E+03  2.058852E+02 -2.093922E+03 -6.945416E-04
        45  22 -1.310861E+05  3.410079E+01 -8.183605E+02 -3.003466E-08 -6.557426E+02  7.035451E-10
        45  23 -1.309642E+05  2.195544E+01 -1.431056E+03 -1.981752E-10 -1.374832E+03  1.067950E-09
        45  24 -1.310862E+05 -5.910098E+02 -2.662187E+03  1.752405E-08 -2.093922E+03  3.485641E-10
        45  25 -1.310861E+05  3.410082E+01 -8.183605E+02  1.110516E+02 -6.557426E+02 -1.173190E-04
        45  26 -1.309642E+05  2.195544E+01 -1.431056E+03 -4.741672E+01 -1.374832E+03  1.050258E-04
        45  27 -1.310862E+05 -5.910097E+02 -2.662187E+03 -2.058852E+02 -2.093922E+03  6.945423E-04
        46   1 -1.316797E+05  5.220429E+02 -3.345969E+03 -1.505391E+03  2.570496E+03 -6.234182E-03
        46   2 -1.302224E+05  1.102919E+02 -5.686119E+03  1.679429E+03  5.586238E+03  1.511448E-02
        46   3 -1.316803E+05 -1.039053E+04 -1.251220E+04  4.864191E+03  8.601937E+03  6.740924E-02
        46   4 -1.316797E+05  5.220387E+02 -3.345970E+03  3.734593E-09  2.570496E+03  7.431353E-10
        46   5 -1.302224E+05  1.102866E+02 -5.686120E+03 -5.558187E-10  5.586238E+03  6.830055E-10
        46   6 -1.316803E+05 -1.039057E+04 -1.251221E+04  2.682045E-10  8.601937E+03  2.033485E-10
        46   7 -1.316797E+05  5.220429E+02 -3.345969E+03  1.505391E+03  2.570496E+03  6.234184E-03
        46   8 -1.302224E+05  1.102919E+02 -5.686119E+03 -1.679429E+03  5.586238E+03 -1.511448E-02
        46   9 -1.316803E+05 -1.039053E+04 -1.251220E+04 -4.864191E+03  8.601937E+03 -6.740924E-02
        46  10 -1.316797E+05  5.220411E+02 -3.345982E+03 -1.505391E+03  4.212464E-10 -2.085381E-10
        46  11 -1.302224E+05  1.102835E+02 -5.686178E+03  1.679429E+03 -4.259858E-10  5.668568E-10
        46  12 -1.316804E+05 -1.039055E+04 -1.251234E+04  4.864191E+03 -7.077434E-11  2.783949E-10
        46  13 -1.316797E+05  5.220369E+02 -3.345982E+03 -2.693664E-09 -2.059454E-09  3.732849E-10
        46  14 -1.302224E+05  1.102782E+02 -5.686179E+03  4.967796E-10  4.307651E-09  4.011878E-10
        46  15 -1.316804E+05 -1.039059E+04 -1.251235E+04  1.532844E-09  1.367842E-09  1.334437E-10
        46  16 -1.316797E+05  5.220411E+02 -3.345982E+03  1.505391E+03  2.303309E-09  9.526004E-10
        46  17 -1.302224E+05  1.102835E+02 -5.686178E+03 -1.679429E+03 -7.747460E-11  2.386150E-10
        46  18 -1.316804E+05 -1.039055E+04 -1.251234E+04 -4.864191E+03  1.162500E-09 -2.218999E-11
        46  19 -1.316797E+05  5.220429E+02 -3.345969E+03 -1.505391E+03 -2.570496E+03  6.234182E-03
        46  20 -1.302224E+05  1.102919E+02 -5.686119E+03  1.679429E+03 -5.586238E+03 -1.511448E-02
        46  21 -1.316803E+05 -1.039053E+04 -1.251220E+04  4.864191E+03 -8.601937E+03 -6.740924E-02
        46  22 -1.316797E+05  5.220387E+02 -3.345970E+03  8.111149E-09 -2.570496E+03  2.276656E-12
        46  23 -1.302224E+05  1.102866E+02 -5.686120E+03  5.858376E-09 -5.586238E+03  1.165714E-10
        46  24 -1.316803E+05 -1.039057E+04 -1.251221E+04  3.876370E-09 -8.601937E+03  6.267286E-11
        46  25 -1.316797E+05  5.220429E+02 -3.345969E+03  1.505391E+03 -2.570496E+03 -6.234182E-03
        46  26 -1.302224E+05  1.102919E+02 -5.686119E+03 -1.679429E+03 -5.586238E+03  1.511448E-02
        46  27 -1.316803E+05 -1.039053E+04 -1.251220E+04 -4.864191E+03 -8.601937E+03  6.740924E-02
        47   1  2.468663E+05  6.265165E+05  2.491635E+05 -1.063815E+05  1.041160E+04  5.527694E+04
        47   2  1.742530E+05  4.767902E+05  1.798536E+05 -6.622501E+04  3.130269E+04  2.433102E+04
        47   3  1.381430E+05  3.403677E+05  1.398319E+05 -8.587393E+04  2.906361E+04 -6.612223E+03
        47   4  3.357164E+04 -2.316852E+05  4.069553E+04 -9.039570E+04  1.042066E+04  2.642045E+04
        47   5 -4.313092E+02 -2.365241E+05  1.965825E+04 -6.049850E+04  3.130923E+04  1.604595E+04
        47   6 -1.476331E+03 -2.316306E+05  1.364663E+04 -9.040834E+04  2.905675E+04  5.666825E+03
        47   7 -1.797757E+05 -1.089213E+06 -1.678225E+05 -7.443193E+04  1.042824E+04 -2.396317E+03
        47   8 -1.751503E+05 -9.493647E+05 -1.405691E+05 -5.477856E+04  3.131561E+04  7.770289E+03
        47   9 -1.411175E+05 -8.033228E+05 -1.125582E+05 -9.493845E+04  2.904971E+04  1.793470E+04
        47  10  2.468653E+05  6.265132E+05  2.491576E+05 -1.063820E+05  1.197433E-09  3.145892E-10
        47  11  1.742518E+05  4.767893E+05  1.798506E+05 -6.622562E+04 -7.953726E-10 -5.154547E-10
        47  12  1.381420E+05  3.403675E+05  1.398302E+05 -8.587377E+04 -1.912136E-09 -2.573434E-10
        47  13  3.357133E+04 -2.316860E+05  4.069401E+04 -9.039592E+04  1.279821E-10  4.207987E-12
        47  14 -4.324309E+02 -2.365246E+05  1.965593E+04 -6.049890E+04 -2.132988E-09  1.799232E-10
        47  15 -1.477246E+03 -2.316308E+05  1.364499E+04 -9.040847E+04 -9.866850E-10 -5.164082E-11
        47  16 -1.797759E+05 -1.089213E+06 -1.678227E+05 -7.443191E+04  1.258176E-10 -3.464890E-10
        47  17 -1.751513E+05 -9.493650E+05 -1.405711E+05 -5.477875E+04 -1.583776E-09 -2.614022E-10
        47  18 -1.411185E+05 -8.033234E+05 -1.125603E+05 -9.493887E+04  8.553281E-10  2.003910E-10
        47  19  2.468663E+05  6.265165E+05  2.491635E+05 -1.063815E+05 -1.041160E+04 -5.527694E+04
        47  20  1.742530E+05  4.767902E+05  1.798536E+05 -6.622501E+04 -3.130269E+04 -2.433102E+04
        47  21  1.381430E+05  3.403677E+05  1.398319E+05 -8.587393E+04 -2.906361E+04  6.612223E+03
        47  22  3.357164E+04 -2.316852E+05  4.069553E+04 -9.039570E+04 -1.042066E+04 -2.642045E+04
        47  23 -4.313092E+02 -2.365241E+05  1.965825E+04 -6.049850E+04 -3.130923E+04 -1.604595E+04
        47  24 -1.476331E+03 -2.316306E+05  1.364663E+04 -9.040834E+04 -2.905675E+04 -5.666825E+03
        47  25 -1.797757E+05 -1.089213E+06 -1.678225E+05 -7.443193E+04 -1.042824E+04  2.396317E+03
        47  26 -1.751503E+05 -9.493647E+05 -1.405691E+05 -5.477856E+04 -3.131561E+04 -7.770289E+03
        47  27 -1.411175E+05 -8.033228E+05 -1.125582E+05 -9.493845E+04 -2.904971E+04 -1.793470E+04
        48   1  1.124696E+05  2.194802E+05  1.127541E+05 -9.210534E+04  2.226276E+04 -2.031632E+03
        48   2  7.553486E+04  7.543663E+04  7.983630E+04 -6.033143E+04  1.564945E+04 -8.409813E+03
        48   3  4.365593E+04 -6.657376E+04  5.231419E+04 -8.940639E+04  8.337292E+03 -1.479009E+04
        48   4  1.837047E+03 -2.333413E+05  1.242008E+04 -9.063654E+04  2.225935E+04  3.534939E+03
        48   5 -9.194873E+01 -2.342816E+05  1.144420E+04 -6.021082E+04  1.564441E+04 -2.220107E+03
        48   6  2.929392E+03 -2.333153E+05  1.543391E+04 -9.063552E+04  8.330427E+03 -7.978671E+03
        48   7 -1.088094E+05 -6.859713E+05 -8.792655E+04 -8.916878E+04  2.225596E+04  9.097496E+03
        48   8 -7.572520E+04 -5.439101E+05 -5.695367E+04 -6.009025E+04  1.563938E+04  3.966547E+03
        48   9 -3.779899E+04 -4.000307E+05 -2.144791E+04 -9.186432E+04  8.323533E+03 -1.169064E+03
        48  10  1.124691E+05  2.194801E+05  1.127532E+05 -9.210530E+04 -4.877836E-10  2.462672E-09
        48  11  7.553458E+04  7.543648E+04  7.983571E+04 -6.033132E+04 -4.924118E-11 -6.243598E-10
        48  12  4.365579E+04 -6.657402E+04  5.231365E+04 -8.940629E+04 -6.811007E-10 -4.427715E-11
        48  13  1.836512E+03 -2.333414E+05  1.241913E+04 -9.063661E+04 -2.572904E-09  2.205555E-11
        48  14 -9.221283E+01 -2.342816E+05  1.144373E+04 -6.021079E+04  1.106835E-09  4.232645E-10
        48  15  2.929300E+03 -2.333154E+05  1.543366E+04 -9.063547E+04  5.631265E-10 -8.658839E-11
        48  16 -1.088099E+05 -6.859715E+05 -8.792764E+04 -8.916895E+04  1.152452E-09 -2.692298E-09
        48  17 -7.572546E+04 -5.439101E+05 -5.695416E+04 -6.009030E+04  7.587221E-10 -1.102060E-09
        48  18 -3.779906E+04 -4.000307E+05 -2.144805E+04 -9.186431E+04  1.853076E-09 -7.354289E-11
        48  19  1.124696E+05  2.194802E+05  1.127541E+05 -9.210534E+04 -2.226276E+04  2.031632E+03
        48  20  7.553486E+04  7.543663E+04  7.983630E+04 -6.033143E+04 -1.564945E+04  8.409813E+03
        48  21  4.365593E+04 -6.657376E+04  5.231419E+04 -8.940639E+04 -8.337292E+03  1.479009E+04
        48  22  1.837047E+03 -2.333413E+05  1.242008E+04 -9.063654E+04 -2.225935E+04 -3.534939E+03
        48  23 -9.194873E+01 -2.342816E+05  1.144420E+04 -6.021082E+04 -1.564441E+04  2.220107E+03
        48  24  2.929392E+03 -2.333153E+05  1.543391E+04 -9.063552E+04 -8.330427E+03  7.978671E+03
        48  25 -1.088094E+05 -6.859713E+05 -8.792655E+04 -8.916878E+04 -2.225596E+04 -9.097496E+03
        48  26 -7.572520E+04 -5.439101E+05 -5.695367E+04 -6.009025E+04 -1.563938E+04 -3.966547E+03
        48  27 -3.779899E+04 -4.000307E+05 -2.144791E+04 -9.186432E+04 -8.323533E+03  1.169064E+03
        49   1  9.384165E+03 -1.827616E+05  2.838639E+04 -9.788451E+04  2.907166E+03 -1.940046E+04
        49   2 -2.375796E+04 -3.323189E+05  6.600523E+03 -5.202447E+04 -3.169747E+03 -2.781545E+04
        49   3 -8.911459E+03 -4.688816E+05  2.263914E+03 -6.673493E+04 -1.773488E+03 -3.622183E+04
        49   4 -2.262394E+03 -2.305965E+05  1.808999E+04 -9.058597E+04  2.897732E+03 -1.068187E+04
        49   5 -4.344314E+02 -2.376569E+05  2.842849E+04 -6.027804E+04 -3.171430E+03 -2.573382E+04
        49   6  5.052927E+04 -2.305980E+05  6.082252E+04 -9.053637E+04 -1.767539E+03 -4.077901E+04
        49   7 -1.390886E+04 -2.784290E+05  7.793768E+03 -8.328800E+04  2.888504E+03 -1.963941E+03
        49   8  2.288873E+04 -1.429864E+05  5.025591E+04 -6.853287E+04 -3.173169E+03 -2.365187E+04
        49   9  1.099679E+05  7.738666E+03  1.193773E+05 -1.143470E+05 -1.761242E+03 -4.533794E+04
        49  10  9.384055E+03 -1.827620E+05  2.838567E+04 -9.788446E+04  1.155445E-10  1.944048E-09
        49  11 -2.375818E+04 -3.323198E+05  6.599049E+03 -5.202454E+04 -6.801098E-10 -8.873962E-10
        49  12 -8.911815E+03 -4.688830E+05  2.261441E+03 -6.673498E+04 -2.392371E-10 -8.650365E-10
        49  13 -2.262434E+03 -2.305966E+05  1.808976E+04 -9.058594E+04  1.434295E-09 -2.375992E-11
        49  14 -4.346200E+02 -2.376576E+05  2.842723E+04 -6.027810E+04  2.295709E-10  5.200017E-10
        49  15  5.052882E+04 -2.305998E+05  6.081938E+04 -9.053643E+04  4.313000E-10 -5.357843E-11
        49  16 -1.390887E+04 -2.784290E+05  7.793745E+03 -8.328799E+04 -2.103229E-10 -2.144104E-09
        49  17  2.288857E+04 -1.429870E+05  5.025484E+04 -6.853293E+04  1.499913E-10 -9.814167E-10
        49  18  1.099674E+05  7.736458E+03  1.193734E+05 -1.143470E+05  1.925701E-10  7.666870E-10
        49  19  9.384165E+03 -1.827616E+05  2.838639E+04 -9.788451E+04 -2.907166E+03  1.940046E+04
        49  20 -2.375796E+04 -3.323189E+05  6.600523E+03 -5.202447E+04  3.169747E+03  2.781545E+04
        49  21 -8.911459E+03 -4.688816E+05  2.263914E+03 -6.673493E+04  1.773488E+03  3.622183E+04
        49  22 -2.262394E+03 -2.305965E+05  1.808999E+04 -9.058597E+04 -2.897732E+03  1.068187E+04
        49  23 -4.344314E+02 -2.376569E+05  2.842849E+04 -6.027804E+04  3.171430E+03  2.573382E+04
        49  24  5.052927E+04 -2.305980E+05  6.082252E+04 -9.053637E+04  1.767539E+03  4.077901E+04
        49  25 -1.390886E+04 -2.784290E+05  7.793768E+03 -8.328800E+04 -2.888504E+03  1.963941E+03
        49  26  2.288873E+04 -1.429864E+05  5.025591E+04 -6.853287E+04  3.173169E+03  2.365187E+04
        49  27  1.099679E+05  7.738666E+03  1.193773E+05 -1.143470E+05  1.761242E+03  4.533794E+04
        50   1 -5.942266E+05 -1.453137E+05 -5.729352E+04 -2.255439E+05 -2.435981E+04 -7.765168E+03
        50   2 -5.795979E+05 -1.065047E+05 -3.305081E+04 -2.204400E+05 -1.543062E+04 -1.699958E+03
        50   3 -5.708429E+05 -9.801473E+04 -2.305404E+04 -2.146033E+05 -5.489341E+03  1.666907E+03
        50   4 -5.100372E+05 -1.026634E+05 -3.262218E+04 -1.913128E+05 -2.126150E+04 -6.603930E+03
        50   5 -5.055618E+05 -7.522527E+04 -1.409878E+04 -1.963650E+05 -1.457324E+04 -1.378644E+03
        50   6 -5.065146E+05 -7.766020E+04 -8.043652E+03 -2.006848E+05 -6.873083E+03  1.148146E+03
        50   7 -4.258417E+05 -6.001150E+04 -7.951848E+03 -1.570775E+05 -1.816277E+04 -5.442398E+03
        50   8 -4.315206E+05 -4.394509E+04  4.852725E+03 -1.722872E+05 -1.371576E+04 -1.057276E+03
        50   9 -4.421818E+05 -5.730550E+04  6.966585E+03 -1.867651E+05 -8.256992E+03  6.293436E+02
        50  10 -5.942272E+05 -1.453139E+05 -5.729475E+04 -2.255440E+05 -1.346943E-09 -1.062113E-10
        50  11 -5.795982E+05 -1.065048E+05 -3.305126E+04 -2.204400E+05 -2.821027E-09 -3.626405E-10
        50  12 -5.708430E+05 -9.801474E+04 -2.305410E+04 -2.146033E+05 -2.767464E-09 -3.805468E-10
        50  13 -5.100376E+05 -1.026636E+05 -3.262312E+04 -1.913129E+05 -2.113489E-09 -1.169786E-10
        50  14 -5.055621E+05 -7.522532E+04 -1.409918E+04 -1.963650E+05 -2.623725E-09 -5.065275E-10
        50  15 -5.065147E+05 -7.766021E+04 -8.043743E+03 -2.006848E+05  7.552777E-10 -6.516211E-10
        50  16 -4.258421E+05 -6.001162E+04 -7.952524E+03 -1.570775E+05 -1.409003E-09 -2.380904E-10
        50  17 -4.315208E+05 -4.394515E+04  4.852369E+03 -1.722873E+05 -4.304734E-09 -4.082257E-10
        50  18 -4.421819E+05 -5.730551E+04  6.966456E+03 -1.867651E+05  1.010598E-09 -7.795263E-10
        50  19 -5.942266E+05 -1.453137E+05 -5.729352E+04 -2.255439E+05  2.435981E+04  7.765168E+03
        50  20 -5.795979E+05 -1.065047E+05 -3.305081E+04 -2.204400E+05  1.543062E+04  1.699958E+03
        50  21 -5.708429E+05 -9.801473E+04 -2.305404E+04 -2.146033E+05  5.489341E+03 -1.666907E+03
        50  22 -5.100372E+05 -1.026634E+05 -3.262218E+04 -1.913128E+05  2.126150E+04  6.603930E+03
        50  23 -5.055618E+05 -7.522527E+04 -1.409878E+04 -1.963650E+05  1.457324E+04  1.378644E+03
        50  24 -5.065146E+05 -7.766020E+04 -8.043652E+03 -2.006848E+05  6.873083E+03 -1.148146E+03
        50  25 -4.258417E+05 -6.001150E+04 -7.951848E+03 -1.570775E+05  1.816277E+04  5.442398E+03
        50  26 -4.315206E+05 -4.394509E+04  4.852725E+03 -1.722872E+05  1.371576E+04  1.057276E+03
        50  27 -4.421818E+05 -5.730550E+04  6.966585E+03 -1.867651E+05  8.256992E+03 -6.293436E+02
        51   1 -5.535838E+05 -9.865962E+04 -1.824650E+04 -2.128933E+05 -4.975282E+03  9.568735E+02
        51   2 -5.406295E+05 -8.858350E+04 -1.138029E+04 -2.059778E+05 -2.931865E+03  8.768503E+02
        51   3 -5.234945E+05 -8.517770E+04 -6.271403E+03 -2.044630E+05 -8.423854E+02  6.739532E+02
        51   4 -5.054594E+05 -8.020832E+04 -6.390523E+03 -1.991576E+05 -5.540798E+03  7.448478E+02
        51   5 -5.074493E+05 -7.610160E+04 -3.269734E+03 -1.967501E+05 -3.599329E+03  6.266277E+02
        51   6 -5.052385E+05 -7.864483E+04 -1.825322E+03 -1.997432E+05 -1.611865E+03  3.855166E+02
        51   7 -4.573326E+05 -6.175678E+04  5.465318E+03 -1.854209E+05 -6.106363E+03  5.328023E+02
        51   8 -4.742682E+05 -6.361973E+04  4.840664E+03 -1.875220E+05 -4.266826E+03  3.763922E+02
        51   9 -4.869825E+05 -7.211208E+04  2.620643E+03 -1.950234E+05 -2.381354E+03  9.707704E+01
        51  10 -5.535839E+05 -9.865963E+04 -1.824655E+04 -2.128933E+05 -1.069482E-09 -4.436443E-10
        51  11 -5.406296E+05 -8.858350E+04 -1.138030E+04 -2.059778E+05  4.789088E-10  8.049321E-10
        51  12 -5.234945E+05 -8.517770E+04 -6.271405E+03 -2.044630E+05  1.458730E-09  8.211838E-10
        51  13 -5.054594E+05 -8.020833E+04 -6.390582E+03 -1.991576E+05  9.121288E-11 -2.729480E-10
        51  14 -5.074493E+05 -7.610161E+04 -3.269759E+03 -1.967501E+05 -2.051104E-10  5.558218E-10
        51  15 -5.052385E+05 -7.864484E+04 -1.825327E+03 -1.997432E+05 -9.323715E-10  2.820974E-10
        51  16 -4.573326E+05 -6.175679E+04  5.465247E+03 -1.854209E+05  2.301089E-09 -1.023260E-10
        51  17 -4.742683E+05 -6.361974E+04  4.840629E+03 -1.875220E+05  6.303385E-11  2.359901E-10
        51  18 -4.869825E+05 -7.211208E+04  2.620632E+03 -1.950234E+05  3.493680E-10 -5.102552E-12
        51  19 -5.535838E+05 -9.865962E+04 -1.824650E+04 -2.128933E+05  4.975282E+03 -9.568735E+02
        51  20 -5.406295E+05 -8.858350E+04 -1.138029E+04 -2.059778E+05  2.931865E+03 -8.768503E+02
        51  21 -5.234945E+05 -8.517770E+04 -6.271403E+03 -2.044630E+05  8.423854E+02 -6.739532E+02
        51  22 -5.054594E+05 -8.020832E+04 -6.390523E+03 -1.991576E+05  5.540798E+03 -7.448478E+02
        51  23 -5.074493E+05 -7.610160E+04 -3.269734E+03 -1.967501E+05  3.599329E+03 -6.266277E+02
        51  24 -5.052385E+05 -7.864483E+04 -1.825322E+03 -1.997432E+05  1.611865E+03 -3.855166E+02
        51  25 -4.573326E+05 -6.175678E+04  5.465318E+03 -1.854209E+05  6.106363E+03 -5.328023E+02
        51  26 -4.742682E+05 -6.361973E+04  4.840664E+03 -1.875220E+05  4.266826E+03 -3.763922E+02
        51  27 -4.869825E+05 -7.211208E+04  2.620643E+03 -1.950234E+05  2.381354E+03 -9.707704E+01
        52   1 -5.100076E+05 -8.059690E+04 -2.528680E+03 -2.009715E+05 -4.223717E+02  2.256982E+02
        52   2 -4.972394E+05 -7.231440E+04  1.756297E+03 -1.939248E+05  2.977468E+02 -5.129090E+02
        52   3 -4.795330E+05 -6.917076E+04  5.723805E+03 -1.926318E+05  1.019787E+03 -1.256506E+03
        52   4 -5.051434E+05 -7.879823E+04 -1.394965E+03 -1.996384E+05 -1.155023E+03 -4.892890E+01
        52   5 -5.076063E+05 -7.618433E+04 -7.679944E+02 -1.967781E+05 -4.390694E+02 -7.891115E+02
        52   6 -5.051305E+05 -7.870861E+04 -4.552115E+02 -1.996718E+05  2.787936E+02 -1.534286E+03
        52   7 -5.002791E+05 -7.699952E+04 -2.612282E+02 -1.983052E+05 -1.887692E+03 -3.235627E+02
        52   8 -5.179732E+05 -8.005429E+04 -3.292330E+03 -1.996315E+05 -1.175882E+03 -1.065313E+03
        52   9 -5.307277E+05 -8.824652E+04 -6.634352E+03 -2.067117E+05 -4.621745E+02 -1.812057E+03
        52  10 -5.100076E+05 -8.059690E+04 -2.528680E+03 -2.009715E+05 -6.921525E-10  1.727269E-10
        52  11 -4.972394E+05 -7.231440E+04  1.756296E+03 -1.939248E+05  1.275819E-09  5.850971E-10
        52  12 -4.795330E+05 -6.917076E+04  5.723800E+03 -1.926318E+05  3.292441E-10 -8.579369E-10
        52  13 -5.051434E+05 -7.879823E+04 -1.394968E+03 -1.996384E+05  8.416535E-10  6.374860E-10
        52  14 -5.076063E+05 -7.618433E+04 -7.679959E+02 -1.967781E+05  2.866743E-09  6.738441E-10
        52  15 -5.051305E+05 -7.870861E+04 -4.552161E+02 -1.996718E+05 -1.916267E-09 -1.333054E-09
        52  16 -5.002791E+05 -7.699952E+04 -2.612351E+02 -1.983052E+05  2.806539E-09  9.518866E-10
        52  17 -5.179732E+05 -8.005430E+04 -3.292334E+03 -1.996315E+05  1.618620E-09  9.870978E-10
        52  18 -5.307277E+05 -8.824652E+04 -6.634359E+03 -2.067117E+05 -4.557250E-09 -1.588100E-09
        52  19 -5.100076E+05 -8.059690E+04 -2.528680E+03 -2.009715E+05  4.223717E+02 -2.256982E+02
        52  20 -4.972394E+05 -7.231440E+04  1.756297E+03 -1.939248E+05 -2.977468E+02  5.129090E+02
        52  21 -4.795330E+05 -6.917076E+04  5.723805E+03 -1.926318E+05 -1.019787E+03  1.256506E+03
        52  22 -5.051434E+05 -7.879823E+04 -1.394965E+03 -1.996384E+05  1.155023E+03  4.892890E+01
        52  23 -5.076063E+05 -7.618433E+04 -7.679944E+02 -1.967781E+05  4.390694E+02  7.891115E+02
        52  24 -5.051305E+05 -7.870861E+04 -4.552115E+02 -1.996718E+05 -2.787936E+02  1.534286E+03
        52  25 -5.002791E+05 -7.699952E+04 -2.612282E+02 -1.983052E+05  1.887692E+03  3.235627E+02
        52  26 -5.179732E+05 -8.005429E+04 -3.292330E+03 -1.996315E+05  1.175882E+03  1.065313E+03
        52  27 -5.307277E+05 -8.824652E+04 -6.634352E+03 -2.067117E+05  4.621745E+02  1.812057E+03
        53   1 -4.663453E+05 -6.427234E+04  9.121816E+03 -1.890368E+05  1.280021E+03 -1.750341E+03
        53   2 -4.536348E+05 -5.611227E+04  1.285879E+04 -1.819941E+05  1.750662E+03 -2.587649E+03
        53   3 -4.359274E+05 -5.298025E+04  1.649143E+04 -1.807065E+05  2.221057E+03 -3.424103E+03
        53   4 -5.051224E+05 -7.871386E+04 -3.682788E+02 -1.996611E+05  5.411386E+02 -2.027341E+03
        53   5 -5.076206E+05 -7.619867E+04 -2.771786E+02 -1.967842E+05  1.012458E+03 -2.864421E+03
        53   6 -5.051222E+05 -7.871152E+04 -2.909022E+02 -1.996621E+05  1.483531E+03 -3.700652E+03
        53   7 -5.438972E+05 -9.315500E+04 -9.858285E+03 -2.102847E+05 -1.976794E+02 -2.304316E+03
        53   8 -5.616032E+05 -9.628476E+04 -1.341328E+04 -2.115729E+05  2.743279E+02 -3.141165E+03
        53   9 -5.743129E+05 -1.044427E+05 -1.707374E+04 -2.186160E+05  7.460885E+02 -3.977170E+03
        53  10 -4.663453E+05 -6.427234E+04  9.121807E+03 -1.890368E+05 -5.636653E-09 -2.260254E-09
        53  11 -4.536348E+05 -5.611228E+04  1.285877E+04 -1.819941E+05 -8.025105E-10  3.366321E-10
        53  12 -4.359274E+05 -5.298027E+04  1.649140E+04 -1.807065E+05  2.460495E-09  3.327197E-11
        53  13 -5.051224E+05 -7.871386E+04 -3.682871E+02 -1.996611E+05 -2.570145E-09 -1.256780E-09
        53  14 -5.076206E+05 -7.619868E+04 -2.771960E+02 -1.967842E+05  6.146955E-10  1.208276E-10
        53  15 -5.051222E+05 -7.871153E+04 -2.909320E+02 -1.996621E+05  7.297030E-10 -3.277399E-11
        53  16 -5.438972E+05 -9.315501E+04 -9.858295E+03 -2.102847E+05  8.777920E-10 -6.417791E-10
        53  17 -5.616032E+05 -9.628477E+04 -1.341330E+04 -2.115729E+05  1.271989E-09 -3.942488E-10
        53  18 -5.743129E+05 -1.044427E+05 -1.707377E+04 -2.186160E+05 -4.855136E-10 -1.457694E-10
        53  19 -4.663453E+05 -6.427234E+04  9.121816E+03 -1.890368E+05 -1.280021E+03  1.750341E+03
        53  20 -4.536348E+05 -5.611227E+04  1.285879E+04 -1.819941E+05 -1.750662E+03  2.587649E+03
        53  21 -4.359274E+05 -5.298025E+04  1.649143E+04 -1.807065E+05 -2.221057E+03  3.424103E+03
        53  22 -5.051224E+05 -7.871386E+04 -3.682788E+02 -1.996611E+05 -5.411386E+02  2.027341E+03
        53  23 -5.076206E+05 -7.619867E+04 -2.771786E+02 -1.967842E+05 -1.012458E+03  2.864421E+03
        53  24 -5.051222E+05 -7.871152E+04 -2.909022E+02 -1.996621E+05 -1.483531E+03  3.700652E+03
        53  25 -5.438972E+05 -9.315500E+04 -9.858285E+03 -2.102847E+05  1.976794E+02  2.304316E+03
        53  26 -5.616032E+05 -9.628476E+04 -1.341328E+04 -2.115729E+05 -2.743279E+02  3.141165E+03
        53  27 -5.743129E+05 -1.044427E+05 -1.707374E+04 -2.186160E+05 -7.460885E+02  3.977170E+03
        54   1 -4.228102E+05 -4.807588E+04  1.974931E+04 -1.771161E+05  2.465308E+03 -3.921269E+03
        54   2 -4.101614E+05 -3.996117E+04  2.319032E+04 -1.701083E+05  3.053178E+03 -4.709923E+03
        54   3 -3.925598E+05 -3.686103E+04  2.643629E+04 -1.688256E+05  3.640178E+03 -5.495886E+03
        54   4 -5.051322E+05 -7.870577E+04 -3.338238E+02 -1.996568E+05  1.729037E+03 -4.197378E+03
        54   5 -5.076099E+05 -7.620480E+04 -5.182139E+02 -1.967920E+05  2.319078E+03 -4.985274E+03
        54   6 -5.051352E+05 -7.871890E+04 -8.993533E+02 -1.996524E+05  2.908242E+03 -5.770481E+03
        54   7 -5.874476E+05 -1.093352E+05 -2.041746E+04 -2.221949E+05  9.928719E+02 -4.473446E+03
        54   8 -6.050487E+05 -1.124477E+05 -2.422739E+04 -2.234718E+05  1.585106E+03 -5.260578E+03
        54   9 -6.176975E+05 -1.205757E+05 -2.823578E+04 -2.304740E+05  2.176454E+03 -6.045021E+03
        54  10 -4.228102E+05 -4.807590E+04  1.974927E+04 -1.771161E+05 -1.232829E-09 -8.470765E-10
        54  11 -4.101615E+05 -3.996119E+04  2.319026E+04 -1.701083E+05 -5.757444E-10 -2.487323E-10
        54  12 -3.925599E+05 -3.686107E+04  2.643620E+04 -1.688256E+05  1.038768E-09 -1.040985E-09
        54  13 -5.051322E+05 -7.870579E+04 -3.338625E+02 -1.996568E+05  9.694386E-11 -3.331250E-10
        54  14 -5.076099E+05 -7.620483E+04 -5.182707E+02 -1.967920E+05  1.727360E-10 -2.028141E-10
        54  15 -5.051352E+05 -7.871894E+04 -8.994318E+02 -1.996524E+05  5.227530E-10 -7.122507E-10
        54  16 -5.874476E+05 -1.093352E+05 -2.041750E+04 -2.221949E+05  5.145168E-10  3.261234E-10
        54  17 -6.050487E+05 -1.124477E+05 -2.422745E+04 -2.234718E+05 -5.576647E-10 -1.394472E-10
        54  18 -6.176975E+05 -1.205757E+05 -2.823586E+04 -2.304740E+05 -1.522525E-09 -3.964609E-10
        54  19 -4.228102E+05 -4.807588E+04  1.974931E+04 -1.771161E+05 -2.465308E+03  3.921269E+03
        54  20 -4.101614E+05 -3.996117E+04  2.319032E+04 -1.701083E+05 -3.053178E+03  4.709923E+03
        54  21 -3.925598E+05 -3.686103E+04  2.643629E+04 -1.688256E+05 -3.640178E+03  5.495886E+03
        54  22 -5.051322E+05 -7.870577E+04 -3.338238E+02 -1.996568E+05 -1.729037E+03  4.197378E+03
        54  23 -5.076099E+05 -7.620480E+04 -5.182139E+02 -1.967920E+05 -2.319078E+03  4.985274E+03
        54  24 -5.051352E+05 -7.871890E+04 -8.993533E+02 -1.996524E+05 -2.908242E+03  5.770481E+03
        54  25 -5.874476E+05 -1.093352E+05 -2.041746E+04 -2.221949E+05 -9.928719E+02  4.473446E+03
        54  26 -6.050487E+05 -1.124477E+05 -2.422739E+04 -2.234718E+05 -1.585106E+03  5.260578E+03
        54  27 -6.176975E+05 -1.205757E+05 -2.823578E+04 -2.304740E+05 -2.176454E+03  6.045021E+03
        55   1 -3.795321E+05 -3.199525E+04  2.942968E+04 -1.653115E+05  4.006956E+03 -5.944533E+03
        55   2 -3.669392E+05 -2.389654E+04  3.208383E+04 -1.582995E+05  5.385522E+03 -6.425370E+03
        55   3 -3.496365E+05 -2.105454E+04  3.387950E+04 -1.569235E+05  6.757966E+03 -6.889198E+03
        55   4 -5.051783E+05 -7.868837E+04 -1.183964E+03 -1.996647E+05  3.272822E+03 -6.219996E+03
        55   5 -5.075508E+05 -7.618863E+04 -2.125639E+03 -1.967981E+05  4.665229E+03 -6.695726E+03
        55   6 -5.052168E+05 -7.894868E+04 -3.936982E+03 -1.995679E+05  6.051483E+03 -7.154454E+03
        55   7 -6.308096E+05 -1.253807E+05 -3.179896E+04 -2.340118E+05  2.538847E+03 -6.495400E+03
        55   8 -6.481433E+05 -1.284795E+05 -3.633668E+04 -2.352888E+05  3.945112E+03 -6.966016E+03
        55   9 -6.607731E+05 -1.368412E+05 -4.175527E+04 -2.422025E+05  5.345192E+03 -7.419638E+03
        55  10 -3.795321E+05 -3.199529E+04  2.942958E+04 -1.653115E+05 -3.502885E-09 -2.103626E-09
        55  11 -3.669392E+05 -2.389659E+04  3.208369E+04 -1.582994E+05  8.247581E-10  1.574663E-09
        55  12 -3.496366E+05 -2.105461E+04  3.387932E+04 -1.569235E+05  8.765065E-09  6.054206E-09
        55  13 -5.051784E+05 -7.868841E+04 -1.184057E+03 -1.996647E+05 -3.316710E-09 -1.230073E-09
        55  14 -5.075508E+05 -7.618868E+04 -2.125764E+03 -1.967980E+05 -5.352651E-09 -7.581599E-10
        55  15 -5.052168E+05 -7.894875E+04 -3.937147E+03 -1.995678E+05 -3.212414E-09  1.821244E-09
        55  16 -6.308096E+05 -1.253807E+05 -3.179905E+04 -2.340118E+05  1.207578E-09 -1.881897E-10
        55  17 -6.481433E+05 -1.284796E+05 -3.633680E+04 -2.352888E+05 -9.798182E-09 -3.047289E-09
        55  18 -6.607731E+05 -1.368412E+05 -4.175543E+04 -2.422024E+05 -1.051616E-08 -2.455259E-09
        55  19 -3.795321E+05 -3.199525E+04  2.942968E+04 -1.653115E+05 -4.006956E+03  5.944533E+03
        55  20 -3.669392E+05 -2.389654E+04  3.208383E+04 -1.582995E+05 -5.385522E+03  6.425370E+03
        55  21 -3.496365E+05 -2.105454E+04  3.387950E+04 -1.569235E+05 -6.757966E+03  6.889198E+03
        55  22 -5.051783E+05 -7.868837E+04 -1.183964E+03 -1.996647E+05 -3.272822E+03  6.219996E+03
        55  23 -5.075508E+05 -7.618863E+04 -2.125639E+03 -1.967981E+05 -4.665229E+03  6.695726E+03
        55  24 -5.052168E+05 -7.894868E+04 -3.936982E+03 -1.995679E+05 -6.051483E+03  7.154454E+03
        55  25 -6.308096E+05 -1.253807E+05 -3.179896E+04 -2.340118E+05 -2.538847E+03  6.495400E+03
        55  26 -6.481433E+05 -1.284795E+05 -3.633668E+04 -2.352888E+05 -3.945112E+03  6.966016E+03
        55  27 -6.607731E+05 -1.368412E+05 -4.175527E+04 -2.422025E+05 -5.345192E+03  7.419638E+03
        56   1 -3.364636E+05 -1.633664E+04  3.587375E+04 -1.543049E+05  7.778799E+03 -7.120179E+03
        56   2 -3.241033E+05 -7.450203E+03  3.533706E+04 -1.461540E+05  1.255196E+04 -6.245081E+03
        56   3 -3.091289E+05 -8.032249E+03  3.024031E+04 -1.425826E+05  1.720930E+04 -5.060486E+03
        56   4 -5.054982E+05 -7.850311E+04 -5.170230E+03 -1.998560E+05  6.982219E+03 -7.419294E+03
        56   5 -5.070947E+05 -7.596850E+04 -9.293739E+03 -1.967318E+05  1.201115E+04 -6.448328E+03
        56   6 -5.061288E+05 -8.295401E+04 -1.818108E+04 -1.981869E+05  1.692413E+04 -5.167872E+03
        56   7 -6.745039E+05 -1.406675E+05 -4.621612E+04 -2.453957E+05  6.185879E+03 -7.718321E+03
        56   8 -6.900530E+05 -1.444844E+05 -5.392705E+04 -2.472959E+05  1.147050E+04 -6.651508E+03
        56   9 -7.030912E+05 -1.578730E+05 -6.660569E+04 -2.537753E+05  1.663907E+04 -5.275221E+03
        56  10 -3.364637E+05 -1.633671E+04  3.587354E+04 -1.543048E+05 -1.133257E-08 -2.278358E-09
        56  11 -3.241034E+05 -7.450287E+03  3.533669E+04 -1.461540E+05 -8.533550E-09 -2.179807E-09
        56  12 -3.091293E+05 -8.032356E+03  3.023970E+04 -1.425825E+05 -3.395508E-11  2.430716E-10
        56  13 -5.054983E+05 -7.850318E+04 -5.170425E+03 -1.998559E+05  1.098304E-10  1.823749E-09
        56  14 -5.070948E+05 -7.596859E+04 -9.294088E+03 -1.967317E+05 -3.551588E-09 -3.886954E-10
        56  15 -5.061291E+05 -8.295411E+04 -1.818167E+04 -1.981868E+05 -1.426371E-09 -2.836941E-10
        56  16 -6.745039E+05 -1.406676E+05 -4.621630E+04 -2.453956E+05  9.782814E-09  5.710856E-09
        56  17 -6.900532E+05 -1.444845E+05 -5.392738E+04 -2.472958E+05  6.350351E-09  1.811128E-09
        56  18 -7.030915E+05 -1.578731E+05 -6.660627E+04 -2.537752E+05 -5.243376E-10 -4.668463E-10
        56  19 -3.364636E+05 -1.633664E+04  3.587375E+04 -1.543049E+05 -7.778799E+03  7.120179E+03
        56  20 -3.241033E+05 -7.450203E+03  3.533706E+04 -1.461540E+05 -1.255196E+04  6.245081E+03
        56  21 -3.091289E+05 -8.032249E+03  3.024031E+04 -1.425826E+05 -1.720930E+04  5.060486E+03
        56  22 -5.054982E+05 -7.850311E+04 -5.170230E+03 -1.998560E+05 -6.982219E+03  7.419294E+03
        56  23 -5.070947E+05 -7.596850E+04 -9.293739E+03 -1.967318E+05 -1.201115E+04  6.448328E+03
        56  24 -5.061288E+05 -8.295401E+04 -1.818108E+04 -1.981869E+05 -1.692413E+04  5.167872E+03
        56  25 -6.745039E+05 -1.406675E+05 -4.621612E+04 -2.453957E+05 -6.185879E+03  7.718321E+03
        56  26 -6.900530E+05 -1.444844E+05 -5.392705E+04 -2.472959E+05 -1.147050E+04  6.651508E+03
        56  27 -7.030912E+05 -1.578730E+05 -6.660569E+04 -2.537753E+05 -1.663907E+04  5.275221E+03
        57   1 -2.907190E+05 -4.592801E+03  2.835190E+04 -1.531583E+05  2.264558E+04 -4.372909E+03
        57   2 -2.842333E+05  1.815638E+04  1.537543E+04 -1.251503E+05  3.840356E+04  2.200928E+03
        57   3 -3.014811E+05 -3.356660E+04 -2.863387E+04 -8.425721E+04  5.162713E+04  1.552301E+04
        57   4 -5.091263E+05 -7.570855E+04 -2.288798E+04 -2.025400E+05  2.031514E+04 -5.247865E+03
        57   5 -5.017268E+05 -7.347208E+04 -4.012386E+04 -1.956314E+05  4.167421E+04  3.428186E+03
        57   6 -5.191818E+05 -1.468351E+05 -9.284095E+04 -1.758351E+05  6.049810E+04  1.885219E+04
        57   7 -7.274865E+05 -1.468236E+05 -7.413107E+04 -2.519072E+05  1.798559E+04 -6.122582E+03
        57   8 -7.191726E+05 -1.650933E+05 -9.562674E+04 -2.660886E+05  4.494362E+04  4.654829E+03
        57   9 -7.368324E+05 -2.600855E+05 -1.570518E+05 -2.673792E+05  6.936562E+04  2.217895E+04
        57  10 -2.907196E+05 -4.592959E+03  2.835090E+04 -1.531582E+05 -5.503307E-11  7.037715E-11
        57  11 -2.842349E+05  1.815597E+04  1.537264E+04 -1.251504E+05  1.816311E-09  5.027283E-10
        57  12 -3.014841E+05 -3.356758E+04 -2.863934E+04 -8.425786E+04 -1.611078E-09  5.678043E-10
        57  13 -5.091268E+05 -7.570869E+04 -2.288881E+04 -2.025399E+05  1.218002E-09 -1.942327E-10
        57  14 -5.017287E+05 -7.347256E+04 -4.012714E+04 -1.956316E+05  2.891575E-09  2.032368E-10
        57  15 -5.191858E+05 -1.468365E+05 -9.284850E+04 -1.758360E+05 -1.428255E-09  4.472265E-11
        57  16 -7.274869E+05 -1.468237E+05 -7.413175E+04 -2.519071E+05 -9.430148E-10  6.964856E-11
        57  17 -7.191748E+05 -1.650938E+05 -9.563058E+04 -2.660888E+05  1.228008E-09  1.710632E-10
        57  18 -7.368377E+05 -2.600874E+05 -1.570618E+05 -2.673804E+05  3.918086E-10  1.010761E-10
        57  19 -2.907190E+05 -4.592801E+03  2.835190E+04 -1.531583E+05 -2.264558E+04  4.372909E+03
        57  20 -2.842333E+05  1.815638E+04  1.537543E+04 -1.251503E+05 -3.840356E+04 -2.200928E+03
        57  21 -3.014811E+05 -3.356660E+04 -2.863387E+04 -8.425721E+04 -5.162713E+04 -1.552301E+04
        57  22 -5.091263E+05 -7.570855E+04 -2.288798E+04 -2.025400E+05 -2.031514E+04  5.247865E+03
        57  23 -5.017268E+05 -7.347208E+04 -4.012386E+04 -1.956314E+05 -4.167421E+04 -3.428186E+03
        57  24 -5.191818E+05 -1.468351E+05 -9.284095E+04 -1.758351E+05 -6.049810E+04 -1.885219E+04
        57  25 -7.274865E+05 -1.468236E+05 -7.413107E+04 -2.519072E+05 -1.798559E+04  6.122582E+03
        57  26 -7.191726E+05 -1.650933E+05 -9.562674E+04 -2.660886E+05 -4.494362E+04 -4.654829E+03
        57  27 -7.368324E+05 -2.600855E+05 -1.570518E+05 -2.673792E+05 -6.936562E+04 -2.217895E+04
        58   1 -5.373411E+03  1.134198E+04  1.365762E+04  5.310080E+03  9.393697E+03  8.034649E-02
        58   2 -6.964292E+03 -1.201549E+02  6.204111E+03  1.833218E+03  6.103145E+03  1.802177E-02
        58   3 -5.373493E+03 -5.697222E+02  3.646139E+03 -1.643685E+03  2.812543E+03 -7.446399E-03
        58   4 -5.373441E+03  1.134193E+04  1.365761E+04  3.607423E-09  9.393697E+03 -4.877977E-11
        58   5 -6.964295E+03 -1.201612E+02  6.204110E+03 -7.801832E-09  6.103145E+03  6.880313E-11
        58   6 -5.373496E+03 -5.697273E+02  3.646138E+03 -4.133796E-09  2.812543E+03  4.741498E-10
        58   7 -5.373411E+03  1.134198E+04  1.365762E+04 -5.310080E+03  9.393697E+03 -8.034649E-02
        58   8 -6.964292E+03 -1.201549E+02  6.204111E+03 -1.833218E+03  6.103145E+03 -1.802177E-02
        58   9 -5.373493E+03 -5.697222E+02  3.646139E+03  1.643685E+03  2.812543E+03  7.446400E-03
        58  10 -5.373505E+03  1.134196E+04  1.365745E+04  5.310080E+03  5.459977E-10 -1.364793E-10
        58  11 -6.964332E+03 -1.201649E+02  6.204041E+03  1.833218E+03  1.330617E-10 -2.865130E-10
        58  12 -5.373501E+03 -5.697243E+02  3.646124E+03 -1.643685E+03 -1.547878E-09  2.979819E-11
        58  13 -5.373536E+03  1.134191E+04  1.365744E+04 -7.012680E-10 -1.079935E-09 -8.265856E-12
        58  14 -6.964335E+03 -1.201712E+02  6.204040E+03 -5.617527E-09 -2.956680E-12  6.611005E-11
        58  15 -5.373504E+03 -5.697294E+02  3.646123E+03 -5.148452E-09 -1.474359E-09  3.037709E-10
        58  16 -5.373505E+03  1.134196E+04  1.365745E+04 -5.310080E+03  5.318681E-10  1.140968E-10
        58  17 -6.964332E+03 -1.201649E+02  6.204041E+03 -1.833218E+03 -1.217431E-09  4.184177E-10
        58  18 -5.373501E+03 -5.697243E+02  3.646124E+03  1.643685E+03 -1.685030E-09  5.820442E-10
        58  19 -5.373411E+03  1.134198E+04  1.365762E+04  5.310080E+03 -9.393697E+03 -8.034649E-02
        58  20 -6.964292E+03 -1.201549E+02  6.204111E+03  1.833218E+03 -6.103145E+03 -1.802178E-02
        58  21 -5.373493E+03 -5.697222E+02  3.646139E+03 -1.643685E+03 -2.812543E+03  7.446399E-03
        58  22 -5.373441E+03  1.134193E+04  1.365761E+04  1.451303E-09 -9.393697E+03  3.025147E-11
        58  23 -6.964295E+03 -1.201612E+02  6.204110E+03 -5.586896E-09 -6.103145E+03  6.318416E-11
        58  24 -5.373496E+03 -5.697273E+02  3.646138E+03 -4.009497E-09 -2.812543E+03  1.345959E-10
        58  25 -5.373411E+03  1.134198E+04  1.365762E+04 -5.310080E+03 -9.393697E+03  8.034649E-02
        58  26 -6.964292E+03 -1.201549E+02  6.204111E+03 -1.833218E+03 -6.103145E+03  1.802178E-02
        58  27 -5.373493E+03 -5.697222E+02  3.646139E+03  1.643685E+03 -2.812543E+03 -7.446399E-03
        59   1 -6.021608E+03  6.451215E+02  2.897319E+03  2.244061E+02  2.293616E+03  8.290573E-04
        59   2 -6.154177E+03 -2.373237E+01  1.546382E+03  5.098546E+01  1.516412E+03  1.245354E-04
        59   3 -6.021614E+03 -3.686513E+01  8.653759E+02 -1.224353E+02  7.392097E+02 -1.457817E-04
        59   4 -6.021608E+03  6.451214E+02  2.897319E+03 -1.721999E-10  2.293616E+03  2.738907E-10
        59   5 -6.154177E+03 -2.373237E+01  1.546382E+03 -5.362229E-09  1.516412E+03 -3.229582E-10
        59   6 -6.021614E+03 -3.686516E+01  8.653759E+02  5.602292E-09  7.392097E+02  1.159527E-10
        59   7 -6.021608E+03  6.451215E+02  2.897319E+03 -2.244061E+02  2.293616E+03 -8.290567E-04
        59   8 -6.154177E+03 -2.373237E+01  1.546382E+03 -5.098546E+01  1.516412E+03 -1.245360E-04
        59   9 -6.021614E+03 -3.686513E+01  8.653759E+02  1.224353E+02  7.392097E+02  1.457819E-04
        59  10 -6.021613E+03  6.451201E+02  2.897310E+03  2.244061E+02 -1.181091E-09  2.552599E-10
        59  11 -6.154179E+03 -2.373299E+01  1.546378E+03  5.098546E+01 -4.135387E-10  4.072726E-10
        59  12 -6.021615E+03 -3.686528E+01  8.653748E+02 -1.224353E+02 -1.795587E-09  5.520319E-10
        59  13 -6.021613E+03  6.451200E+02  2.897310E+03 -2.724842E-10 -1.079308E-09  2.251138E-10
        59  14 -6.154179E+03 -2.373299E+01  1.546378E+03  5.535243E-11 -1.080474E-09  5.233939E-11
        59  15 -6.021615E+03 -3.686531E+01  8.653748E+02  5.767964E-09 -6.710364E-10  5.617256E-10
        59  16 -6.021613E+03  6.451201E+02  2.897310E+03 -2.244061E+02  1.052842E-10  1.954626E-10
        59  17 -6.154179E+03 -2.373299E+01  1.546378E+03 -5.098546E+01  1.756253E-09 -3.036596E-10
        59  18 -6.021615E+03 -3.686528E+01  8.653748E+02  1.224353E+02  1.324075E-09  5.706907E-10
        59  19 -6.021608E+03  6.451215E+02  2.897319E+03  2.244061E+02 -2.293616E+03 -8.290568E-04
        59  20 -6.154177E+03 -2.373237E+01  1.546382E+03  5.098546E+01 -1.516412E+03 -1.245346E-04
        59  21 -6.021614E+03 -3.686513E+01  8.653759E+02 -1.224353E+02 -7.392097E+02  1.457827E-04
        59  22 -6.021608E+03  6.451214E+02  2.897319E+03  6.089295E-09 -2.293616E+03  1.762026E-10
        59  23 -6.154177E+03 -2.373237E+01  1.546382E+03  9.780923E-09 -1.516412E+03  4.269456E-10
        59  24 -6.021614E+03 -3.686516E+01  8.653759E+02  1.239558E-08 -7.392097E+02  1.007672E-09
        59  25 -6.021608E+03  6.451215E+02  2.897319E+03 -2.244061E+02 -2.293616E+03  8.290571E-04
        59  26 -6.154177E+03 -2.373237E+01  1.546382E+03 -5.098546E+01 -1.516412E+03  1.245354E-04
        59  27 -6.021614E+03 -3.686513E+01  8.653759E+02  1.224353E+02 -7.392097E+02 -1.457807E-04
        60   1 -6.074081E+03  3.180401E+01  6.404575E+02 -1.084520E+01  6.069014E+02 -1.060229E-05
        60   2 -6.088597E+03 -4.301845E+00  2.971285E+02 -1.539742E+01  4.593505E+02 -1.139360E-05
        60   3 -6.074082E+03 -1.121460E+00  5.968045E+01 -1.994957E+01  3.118018E+02 -1.001929E-05
        60   4 -6.074081E+03  3.180401E+01  6.404575E+02  2.757858E-09  6.069014E+02  1.678107E-11
        60   5 -6.088597E+03 -4.301846E+00  2.971285E+02  1.792071E-09  4.593505E+02 -5.681551E-10
        60   6 -6.074082E+03 -1.121461E+00  5.968045E+01  1.078829E-08  3.118018E+02  1.929238E-10
        60   7 -6.074081E+03  3.180401E+01  6.404575E+02  1.084520E+01  6.069014E+02  1.060233E-05
        60   8 -6.088597E+03 -4.301845E+00  2.971285E+02  1.539742E+01  4.593505E+02  1.139247E-05
        60   9 -6.074082E+03 -1.121460E+00  5.968045E+01  1.994957E+01  3.118018E+02  1.001968E-05
        60  10 -6.074081E+03  3.180391E+01  6.404568E+02 -1.084520E+01  1.437748E-09 -8.925673E-11
        60  11 -6.088598E+03 -4.301902E+00  2.971281E+02 -1.539742E+01 -7.771148E-11 -1.158298E-09
        60  12 -6.074082E+03 -1.121487E+00  5.968027E+01 -1.994957E+01 -6.569744E-10 -2.545705E-10
        60  13 -6.074081E+03  3.180391E+01  6.404568E+02 -4.036069E-09  1.078931E-09  2.799512E-10
        60  14 -6.088598E+03 -4.301902E+00  2.971281E+02 -5.790137E-09  5.386174E-10 -6.832469E-10
        60  15 -6.074082E+03 -1.121487E+00  5.968027E+01  9.687388E-09  2.735546E-10 -1.651897E-10
        60  16 -6.074081E+03  3.180391E+01  6.404568E+02  1.084520E+01 -2.510796E-09  6.487614E-10
        60  17 -6.088598E+03 -4.301902E+00  2.971281E+02  1.539742E+01 -2.069012E-09 -2.087491E-10
        60  18 -6.074082E+03 -1.121487E+00  5.968027E+01  1.994957E+01 -2.845574E-10 -7.630910E-11
        60  19 -6.074081E+03  3.180401E+01  6.404575E+02 -1.084520E+01 -6.069014E+02  1.060212E-05
        60  20 -6.088597E+03 -4.301845E+00  2.971285E+02 -1.539742E+01 -4.593505E+02  1.139129E-05
        60  21 -6.074082E+03 -1.121460E+00  5.968045E+01 -1.994957E+01 -3.118018E+02  1.001879E-05
        60  22 -6.074081E+03  3.180401E+01  6.404575E+02  6.401470E-09 -6.069014E+02  5.431685E-10
        60  23 -6.088597E+03 -4.301846E+00  2.971285E+02 -5.833496E-09 -4.593505E+02 -7.980261E-10
        60  24 -6.074082E+03 -1.121461E+00  5.968045E+01  1.370216E-08 -3.118018E+02 -5.233450E-10
        60  25 -6.074081E+03  3.180401E+01  6.404575E+02  1.084520E+01 -6.069014E+02 -1.060102E-05
        60  26 -6.088597E+03 -4.301845E+00  2.971285E+02  1.539742E+01 -4.593505E+02 -1.139289E-05
        60  27 -6.074082E+03 -1.121460E+00  5.968045E+01  1.994957E+01 -3.118018E+02 -1.001983E-05
        61   1 -6.084616E+03  1.453428E+00 -4.756711E+01 -1.376077E+01  3.109516E+02 -6.891374E-06
        61   2 -6.075431E+03  3.992190E+00 -2.832942E+02 -2.164578E+01  4.508727E+02 -1.571938E-05
        61   3 -6.084617E+03  5.918147E+00 -6.102677E+02 -2.953091E+01  5.907958E+02 -2.810287E-05
        61   4 -6.084616E+03  1.453427E+00 -4.756711E+01  3.963042E-09  3.109516E+02  5.874569E-10
        61   5 -6.075431E+03  3.992189E+00 -2.832942E+02  1.415958E-09  4.508727E+02  2.103250E-10
        61   6 -6.084617E+03  5.918146E+00 -6.102677E+02 -2.477217E-09  5.907958E+02 -3.306108E-10
        61   7 -6.084616E+03  1.453428E+00 -4.756711E+01  1.376077E+01  3.109516E+02  6.892546E-06
        61   8 -6.075431E+03  3.992190E+00 -2.832942E+02  2.164578E+01  4.508727E+02  1.571979E-05
        61   9 -6.084617E+03  5.918147E+00 -6.102677E+02  2.953091E+01  5.907958E+02  2.810221E-05
        61  10 -6.084616E+03  1.453402E+00 -4.756729E+01 -1.376077E+01 -1.795718E-09  6.983701E-10
        61  11 -6.075431E+03  3.992136E+00 -2.832946E+02 -2.164578E+01  4.188534E-10  7.655136E-10
        61  12 -6.084617E+03  5.918054E+00 -6.102683E+02 -2.953091E+01  2.564655E-09 -7.645571E-10
        61  13 -6.084616E+03  1.453401E+00 -4.756729E+01 -3.031781E-10 -3.230980E-09  3.559028E-10
        61  14 -6.075431E+03  3.992135E+00 -2.832946E+02  4.550402E-09 -2.691406E-09  2.152541E-10
        61  15 -6.084617E+03  5.918052E+00 -6.102683E+02 -4.058197E-09 -1.483348E-09 -6.340788E-10
        61  16 -6.084616E+03  1.453402E+00 -4.756729E+01  1.376077E+01  1.794033E-10  1.312739E-11
        61  17 -6.075431E+03  3.992136E+00 -2.832946E+02  2.164578E+01 -1.474352E-10 -3.347449E-10
        61  18 -6.084617E+03  5.918054E+00 -6.102683E+02  2.953091E+01 -2.083972E-10 -5.037030E-10
        61  19 -6.084616E+03  1.453428E+00 -4.756711E+01 -1.376077E+01 -3.109516E+02  6.892772E-06
        61  20 -6.075431E+03  3.992190E+00 -2.832942E+02 -2.164578E+01 -4.508727E+02  1.572091E-05
        61  21 -6.084617E+03  5.918147E+00 -6.102677E+02 -2.953091E+01 -5.907958E+02  2.810134E-05
        61  22 -6.084616E+03  1.453427E+00 -4.756711E+01 -2.614130E-10 -3.109516E+02  1.244475E-10
        61  23 -6.075431E+03  3.992189E+00 -2.832942E+02 -9.309442E-10 -4.508727E+02  2.204718E-10
        61  24 -6.084617E+03  5.918146E+00 -6.102677E+02 -7.926639E-10 -5.907958E+02 -9.375091E-10
        61  25 -6.084616E+03  1.453428E+00 -4.756711E+01  1.376077E+01 -3.109516E+02 -6.892524E-06
        61  26 -6.075431E+03  3.992190E+00 -2.832942E+02  2.164578E+01 -4.508727E+02 -1.572047E-05
        61  27 -6.084617E+03  5.918147E+00 -6.102677E+02  2.953091E+01 -5.907958E+02 -2.810321E-05
        62   1 -6.104316E+03  6.012513E+00 -8.369342E+02 -3.642718E+01  7.220156E+02 -4.236473E-05
        62   2 -6.050808E+03  2.135055E+01 -1.507317E+03 -6.621967E+01  1.467258E+03 -1.565020E-04
        62   3 -6.104317E+03 -3.227072E+00 -2.672864E+03 -9.601219E+01  2.212500E+03 -3.421669E-04
        62   4 -6.104316E+03  6.012511E+00 -8.369342E+02  9.480284E-09  7.220156E+02 -3.008455E-11
        62   5 -6.050808E+03  2.135054E+01 -1.507317E+03  5.878065E-09  1.467258E+03  9.758992E-10
        62   6 -6.104317E+03 -3.227089E+00 -2.672864E+03  6.583644E-09  2.212500E+03  9.257993E-10
        62   7 -6.104316E+03  6.012513E+00 -8.369342E+02  3.642718E+01  7.220156E+02  4.236467E-05
        62   8 -6.050808E+03  2.135055E+01 -1.507317E+03  6.621967E+01  1.467258E+03  1.565039E-04
        62   9 -6.104317E+03 -3.227072E+00 -2.672864E+03  9.601219E+01  2.212500E+03  3.421687E-04
        62  10 -6.104316E+03  6.012373E+00 -8.369352E+02 -3.642718E+01 -5.600732E-10 -1.095282E-09
        62  11 -6.050811E+03  2.134997E+01 -1.507321E+03 -6.621967E+01  1.627142E-09 -1.354667E-10
        62  12 -6.104322E+03 -3.228386E+00 -2.672873E+03 -9.601219E+01  7.223881E-10  1.063609E-10
        62  13 -6.104316E+03  6.012371E+00 -8.369352E+02  3.148506E-09 -4.355923E-12 -8.184961E-10
        62  14 -6.050811E+03  2.134996E+01 -1.507321E+03 -1.539078E-09  2.149815E-09 -1.728757E-10
        62  15 -6.104322E+03 -3.228403E+00 -2.672873E+03  1.850712E-09 -2.154784E-09  4.300310E-10
        62  16 -6.104316E+03  6.012373E+00 -8.369352E+02  3.642718E+01  2.054812E-11 -5.415494E-10
        62  17 -6.050811E+03  2.134997E+01 -1.507321E+03  6.621967E+01 -1.280843E-11 -2.106781E-10
        62  18 -6.104322E+03 -3.228386E+00 -2.672873E+03  9.601219E+01 -4.520763E-10  7.540484E-10
        62  19 -6.104316E+03  6.012513E+00 -8.369342E+02 -3.642718E+01 -7.220156E+02  4.236253E-05
        62  20 -6.050808E+03  2.135055E+01 -1.507317E+03 -6.621967E+01 -1.467258E+03  1.565017E-04
        62  21 -6.104317E+03 -3.227072E+00 -2.672864E+03 -9.601219E+01 -2.212500E+03  3.421671E-04
        62  22 -6.104316E+03  6.012511E+00 -8.369342E+02  5.432470E-09 -7.220156E+02 -1.606854E-09
        62  23 -6.050808E+03  2.135054E+01 -1.507317E+03 -2.494319E-09 -1.467258E+03 -1.321563E-09
        62  24 -6.104317E+03 -3.227089E+00 -2.672864E+03  4.925793E-09 -2.212500E+03 -6.993646E-11
        62  25 -6.104316E+03  6.012513E+00 -8.369342E+02  3.642718E+01 -7.220156E+02 -4.236577E-05
        62  26 -6.050808E+03  2.135055E+01 -1.507317E+03  6.621967E+01 -1.467258E+03 -1.565044E-04
        62  27 -6.104317E+03 -3.227072E+00 -2.672864E+03  9.601219E+01 -2.212500E+03 -3.421672E-04
        63   1 -6.203430E+03  4.882995E+01 -3.527735E+03 -2.038911E+02  2.771539E+03 -9.102236E-04
        63   2 -5.926909E+03  8.848487E+01 -6.149822E+03 -1.726043E+02  5.821638E+03 -1.618547E-03
        63   3 -6.203409E+03 -4.953484E+02 -1.091349E+04 -1.413178E+02  8.871677E+03 -2.019444E-03
        63   4 -6.203430E+03  4.882987E+01 -3.527735E+03  1.734771E-09  2.771539E+03  6.926846E-10
        63   5 -5.926909E+03  8.848481E+01 -6.149822E+03 -3.486415E-09  5.821638E+03  1.951414E-10
        63   6 -6.203409E+03 -4.953485E+02 -1.091349E+04  4.466398E-10  8.871677E+03 -1.002216E-09
        63   7 -6.203430E+03  4.882995E+01 -3.527735E+03  2.038911E+02  2.771539E+03  9.102250E-04
        63   8 -5.926909E+03  8.848487E+01 -6.149822E+03  1.726043E+02  5.821638E+03  1.618548E-03
        63   9 -6.203409E+03 -4.953484E+02 -1.091349E+04  1.413178E+02  8.871677E+03  2.019442E-03
        63  10 -6.203438E+03  4.882789E+01 -3.527749E+03 -2.038911E+02 -4.337048E-10  3.303331E-10
        63  11 -5.926946E+03  8.847577E+01 -6.149885E+03 -1.726043E+02  2.307007E-09  4.304659E-10
        63  12 -6.203494E+03 -4.953696E+02 -1.091364E+04 -1.413178E+02  1.674506E-09 -8.507922E-10
        63  13 -6.203438E+03  4.882781E+01 -3.527749E+03  1.711064E-09 -1.074339E-09  5.773860E-10
        63  14 -5.926946E+03  8.847571E+01 -6.149885E+03 -5.737181E-09  5.395297E-10  2.681539E-10
        63  15 -6.203494E+03 -4.953696E+02 -1.091364E+04  1.892149E-09 -8.070012E-10 -4.144743E-10
        63  16 -6.203438E+03  4.882789E+01 -3.527749E+03  2.038911E+02 -1.014953E-10  8.249383E-10
        63  17 -5.926946E+03  8.847577E+01 -6.149885E+03  1.726043E+02 -6.864458E-10  1.063293E-10
        63  18 -6.203494E+03 -4.953696E+02 -1.091364E+04  1.413178E+02 -8.683591E-10  2.513608E-11
        63  19 -6.203430E+03  4.882995E+01 -3.527735E+03 -2.038911E+02 -2.771539E+03  9.102243E-04
        63  20 -5.926909E+03  8.848487E+01 -6.149822E+03 -1.726043E+02 -5.821638E+03  1.618548E-03
        63  21 -6.203409E+03 -4.953484E+02 -1.091349E+04 -1.413178E+02 -8.871677E+03  2.019443E-03
        63  22 -6.203430E+03  4.882987E+01 -3.527735E+03  3.841197E-09 -2.771539E+03  4.623423E-10
        63  23 -5.926909E+03  8.848481E+01 -6.149822E+03 -5.833950E-09 -5.821638E+03  3.404454E-10
        63  24 -6.203409E+03 -4.953485E+02 -1.091349E+04  1.453320E-09 -8.871677E+03  1.895499E-10
        63  25 -6.203430E+03  4.882995E+01 -3.527735E+03  2.038911E+02 -2.771539E+03 -9.102234E-04
        63  26 -5.926909E+03  8.848487E+01 -6.149822E+03  1.726043E+02 -5.821638E+03 -1.618548E-03
        63  27 -6.203409E+03 -4.953484E+02 -1.091349E+04  1.413178E+02 -8.871677E+03 -2.019442E-03
        64   1 -7.011687E+03  5.875919E+02 -1.424105E+04 -1.896790E+03  1.108638E+04 -3.387181E-02
        64   2 -4.916317E+03  3.781292E+02 -2.466519E+04  8.190220E+02  2.348041E+04  3.097624E-02
        64   3 -7.011207E+03 -1.013867E+04 -4.573423E+04  3.534894E+03  3.587443E+04  2.042629E-01
        64   4 -7.011691E+03  5.875851E+02 -1.424105E+04  6.256516E-09  1.108638E+04 -1.041381E-09
        64   5 -4.916317E+03  3.781280E+02 -2.466519E+04  2.640947E-09  2.348041E+04 -1.482901E-11
        64   6 -7.011220E+03 -1.013870E+04 -4.573423E+04  6.833618E-09  3.587443E+04  1.578577E-10
        64   7 -7.011687E+03  5.875919E+02 -1.424105E+04  1.896790E+03  1.108638E+04  3.387181E-02
        64   8 -4.916317E+03  3.781292E+02 -2.466519E+04 -8.190220E+02  2.348041E+04 -3.097624E-02
        64   9 -7.011207E+03 -1.013867E+04 -4.573423E+04 -3.534894E+03  3.587443E+04 -2.042629E-01
        64  10 -7.011819E+03  5.875589E+02 -1.424128E+04 -1.896790E+03  6.765485E-10 -1.211888E-09
        64  11 -4.916909E+03  3.779812E+02 -2.466623E+04  8.190220E+02  3.176013E-12 -4.953097E-10
        64  12 -7.012589E+03 -1.013902E+04 -4.573665E+04  3.534894E+03 -6.007552E-10 -1.221695E-10
        64  13 -7.011823E+03  5.875521E+02 -1.424128E+04  4.197538E-09  1.072752E-09 -5.380374E-10
        64  14 -4.916909E+03  3.779800E+02 -2.466623E+04 -3.758454E-09 -5.416304E-10 -1.384754E-10
        64  15 -7.012602E+03 -1.013904E+04 -4.573665E+04 -3.098612E-09 -1.481323E-09  9.228836E-11
        64  16 -7.011819E+03  5.875589E+02 -1.424128E+04  1.896790E+03 -6.847080E-10  1.305673E-10
        64  17 -4.916909E+03  3.779812E+02 -2.466623E+04 -8.190220E+02 -2.737822E-10  2.087664E-10
        64  18 -7.012589E+03 -1.013902E+04 -4.573665E+04 -3.534894E+03 -2.732341E-10  2.943470E-10
        64  19 -7.011687E+03  5.875919E+02 -1.424105E+04 -1.896790E+03 -1.108638E+04  3.387181E-02
        64  20 -4.916317E+03  3.781292E+02 -2.466519E+04  8.190220E+02 -2.348041E+04 -3.097624E-02
        64  21 -7.011207E+03 -1.013867E+04 -4.573423E+04  3.534894E+03 -3.587443E+04 -2.042629E-01
        64  22 -7.011691E+03  5.875851E+02 -1.424105E+04 -1.666975E-11 -1.108638E+04 -3.636202E-11
        64  23 -4.916317E+03  3.781280E+02 -2.466519E+04  2.764729E-09 -2.348041E+04 -2.721444E-10
        64  24 -7.011220E+03 -1.013870E+04 -4.573423E+04  1.614211E-10 -3.587443E+04  2.210446E-11
        64  25 -7.011687E+03  5.875919E+02 -1.424105E+04  1.896790E+03 -1.108638E+04 -3.387181E-02
        64  26 -4.916317E+03  3.781292E+02 -2.466519E+04 -8.190220E+02 -2.348041E+04  3.097624E-02
        64  27 -7.011207E+03 -1.013867E+04 -4.573423E+04 -3.534894E+03 -3.587443E+04  2.042629E-01
        65   1 -1.719100E+04  8.958163E+03 -5.744581E+04 -2.582666E+04  4.406006E+04 -1.832941E+00
        65   2  7.813854E+03  1.890972E+03 -9.755459E+04  2.881973E+04  9.581419E+04  4.447712E+00
        65   3 -1.718012E+04 -1.782425E+05 -2.146150E+05  8.346318E+04  1.475688E+05  1.983876E+01
        65   4 -1.719172E+04  8.956910E+03 -5.744599E+04  6.222879E-09  4.406006E+04  2.590542E-10
        65   5  7.812962E+03  1.889411E+03 -9.755481E+04  2.769520E-09  9.581419E+04  5.551378E-10
        65   6 -1.718760E+04 -1.782556E+05 -2.146168E+05  1.089121E-08  1.475688E+05 -4.132827E-10
        65   7 -1.719100E+04  8.958163E+03 -5.744581E+04  2.582666E+04  4.406006E+04  1.832941E+00
        65   8  7.813854E+03  1.890972E+03 -9.755459E+04 -2.881973E+04  9.581419E+04 -4.447712E+00
        65   9 -1.718012E+04 -1.782425E+05 -2.146150E+05 -8.346318E+04  1.475688E+05 -1.983876E+01
        65  10 -1.719309E+04  8.957642E+03 -5.744946E+04 -2.582666E+04 -6.450679E-11  1.272801E-10
        65  11  7.803995E+03  1.888507E+03 -9.757184E+04  2.881973E+04 -1.589989E-09  3.575162E-10
        65  12 -1.720351E+04 -1.782484E+05 -2.146559E+05  8.346318E+04 -4.486466E-10  1.784135E-10
        65  13 -1.719380E+04  8.956389E+03 -5.744964E+04 -2.374342E-09 -2.500074E-11  1.651460E-10
        65  14  7.803103E+03  1.886947E+03 -9.757206E+04 -1.549653E-09 -2.128784E-09  1.790379E-10
        65  15 -1.721099E+04 -1.782615E+05 -2.146577E+05  3.043127E-09 -5.137441E-10  6.259308E-11
        65  16 -1.719309E+04  8.957642E+03 -5.744946E+04  2.582666E+04  7.148040E-11  2.383498E-10
        65  17  7.803995E+03  1.888507E+03 -9.757184E+04 -2.881973E+04 -2.900845E-10 -7.941718E-11
        65  18 -1.720351E+04 -1.782484E+05 -2.146559E+05 -8.346318E+04 -1.037384E-09 -3.671735E-12
        65  19 -1.719100E+04  8.958163E+03 -5.744581E+04 -2.582666E+04 -4.406006E+04  1.832941E+00
        65  20  7.813854E+03  1.890972E+03 -9.755459E+04  2.881973E+04 -9.581419E+04 -4.447712E+00
        65  21 -1.718012E+04 -1.782425E+05 -2.146150E+05  8.346318E+04 -1.475688E+05 -1.983876E+01
        65  22 -1.719172E+04  8.956910E+03 -5.744599E+04 -2.357221E-09 -4.406006E+04  7.151657E-11
        65  23  7.812962E+03  1.889411E+03 -9.755481E+04 -4.789561E-09 -9.581419E+04 -1.854595E-10
        65  24 -1.718760E+04 -1.782556E+05 -2.146168E+05  5.162183E-09 -1.475688E+05  2.610716E-10
        65  25 -1.719100E+04  8.958163E+03 -5.744581E+04  2.582666E+04 -4.406006E+04 -1.832941E+00
        65  26  7.813854E+03  1.890972E+03 -9.755459E+04 -2.881973E+04 -9.581419E+04  4.447712E+00
        65  27 -1.718012E+04 -1.782425E+05 -2.146150E+05 -8.346318E+04 -1.475688E+05  1.983876E+01
        66   1  1.269153E+05  4.458616E+05  1.248631E+05 -4.463457E+04  6.184799E+03  1.971165E+04
        66   2  1.046036E+05  3.764101E+05  9.825839E+04 -2.943074E+04  1.890387E+04  6.731631E+03
        66   3  8.789669E+04  3.101056E+05  8.151324E+04 -4.249129E+04  1.839056E+04 -6.248309E+03
        66   4  3.555416E+03 -5.055923E+04  4.364631E+03 -4.288830E+04  6.187223E+03  2.533360E+03
        66   5 -6.766774E+01 -5.110321E+04  2.331334E+03 -2.875601E+04  1.890618E+04  1.312310E+03
        66   6 -1.242654E+02 -5.054267E+04  1.996380E+03 -4.288905E+04  1.838873E+04  9.002249E+01
        66   7 -1.198224E+05 -5.467545E+05 -1.161505E+05 -4.114341E+04  6.189552E+03 -1.463124E+04
        66   8 -1.047514E+05 -4.784464E+05 -9.360720E+04 -2.808173E+04  1.890849E+04 -4.103320E+03
        66   9 -8.815393E+04 -4.110693E+05 -7.752832E+04 -4.328656E+04  1.838689E+04  6.424717E+03
        66  10  1.269151E+05  4.458612E+05  1.248623E+05 -4.463467E+04  2.028663E-09  1.043139E-09
        66  11  1.046032E+05  3.764099E+05  9.825764E+04 -2.943084E+04  2.791089E-09 -3.443552E-10
        66  12  8.789631E+04  3.101054E+05  8.151253E+04 -4.249119E+04  1.760531E-09 -1.317368E-09
        66  13  3.555373E+03 -5.055925E+04  4.364547E+03 -4.288831E+04  1.494406E-09 -6.049534E-12
        66  14 -6.805203E+01 -5.110331E+04  2.330659E+03 -2.875603E+04 -2.329164E-09  1.206333E-10
        66  15 -1.246285E+02 -5.054276E+04  1.995745E+03 -4.288905E+04  2.776517E-09 -5.927632E-10
        66  16 -1.198225E+05 -5.467548E+05 -1.161510E+05 -4.114334E+04  4.102301E-10 -1.044279E-09
        66  17 -1.047518E+05 -4.784465E+05 -9.360791E+04 -2.808167E+04  8.953082E-10  2.293220E-10
        66  18 -8.815431E+04 -4.110694E+05 -7.752903E+04 -4.328666E+04 -7.927288E-10  1.028777E-09
        66  19  1.269153E+05  4.458616E+05  1.248631E+05 -4.463457E+04 -6.184799E+03 -1.971165E+04
        66  20  1.046036E+05  3.764101E+05  9.825839E+04 -2.943074E+04 -1.890387E+04 -6.731631E+03
        66  21  8.789669E+04  3.101056E+05  8.151324E+04 -4.249129E+04 -1.839056E+04  6.248309E+03
        66  22  3.555416E+03 -5.055923E+04  4.364631E+03 -4.288830E+04 -6.187223E+03 -2.533360E+03
        66  23 -6.766774E+01 -5.110321E+04  2.331334E+03 -2.875601E+04 -1.890618E+04 -1.312310E+03
        66  24 -1.242654E+02 -5.054267E+04  1.996380E+03 -4.288905E+04 -1.838873E+04 -9.002249E+01
        66  25 -1.198224E+05 -5.467545E+05 -1.161505E+05 -4.114341E+04 -6.189552E+03  1.463124E+04
        66  26 -1.047514E+05 -4.784464E+05 -9.360720E+04 -2.808173E+04 -1.890849E+04  4.103320E+03
        66  27 -8.815393E+04 -4.110693E+05 -7.752832E+04 -4.328656E+04 -1.838689E+04 -6.424717E+03
        67   1  7.446374E+04  2.534398E+05  6.942515E+04 -4.335116E+04  1.496938E+04 -2.710084E+03
        67   2  5.767049E+04  1.854085E+05  5.470764E+04 -2.863904E+04  1.193509E+04 -4.459222E+03
        67   3  4.206583E+04  1.178923E+05  4.142235E+04 -4.275846E+04  8.367725E+03 -6.209509E+03
        67   4  1.727321E+02 -5.068433E+04  2.057198E+03 -4.301487E+04  1.496873E+04 -2.507739E+02
        67   5 -2.033295E+01 -5.089399E+04  2.535696E+03 -2.859858E+04  1.193381E+04 -1.526081E+03
        67   6  8.934519E+02 -5.067499E+04  4.117836E+03 -4.301447E+04  8.365711E+03 -2.802722E+03
        67   7 -7.412451E+04 -3.547221E+05 -6.531646E+04 -4.267873E+04  1.496809E+04  2.207345E+03
        67   8 -5.771491E+04 -2.871443E+05 -4.963965E+04 -2.855813E+04  1.193253E+04  1.405957E+03
        67   9 -4.028084E+04 -2.192157E+05 -3.318839E+04 -4.327041E+04  8.363694E+03  6.031513E+02
        67  10  7.446350E+04  2.534397E+05  6.942471E+04 -4.335113E+04  2.959628E-10  1.177064E-09
        67  11  5.767033E+04  1.854084E+05  5.470734E+04 -2.863900E+04  2.907340E-09 -1.602914E-10
        67  12  4.206575E+04  1.178922E+05  4.142214E+04 -4.275841E+04 -1.070403E-09 -1.004532E-09
        67  13  1.724915E+02 -5.068439E+04  2.056777E+03 -4.301487E+04  8.688499E-10  1.576364E-11
        67  14 -2.048650E+01 -5.089403E+04  2.535424E+03 -2.859857E+04 -2.948820E-10  2.738563E-10
        67  15  8.933746E+02 -5.067502E+04  4.117690E+03 -4.301445E+04 -1.177829E-09 -9.923141E-10
        67  16 -7.412476E+04 -3.547222E+05 -6.531689E+04 -4.267876E+04 -1.318671E-09 -1.161983E-09
        67  17 -5.771506E+04 -2.871443E+05 -4.963993E+04 -2.855814E+04 -1.411249E-09 -9.954032E-11
        67  18 -4.028091E+04 -2.192157E+05 -3.318852E+04 -4.327042E+04 -2.523431E-09  5.000981E-10
        67  19  7.446374E+04  2.534398E+05  6.942515E+04 -4.335116E+04 -1.496938E+04  2.710084E+03
        67  20  5.767049E+04  1.854085E+05  5.470764E+04 -2.863904E+04 -1.193509E+04  4.459222E+03
        67  21  4.206583E+04  1.178923E+05  4.142235E+04 -4.275846E+04 -8.367725E+03  6.209509E+03
        67  22  1.727321E+02 -5.068433E+04  2.057198E+03 -4.301487E+04 -1.496873E+04  2.507739E+02
        67  23 -2.033295E+01 -5.089399E+04  2.535696E+03 -2.859858E+04 -1.193381E+04  1.526081E+03
        67  24  8.934519E+02 -5.067499E+04  4.117836E+03 -4.301447E+04 -8.365711E+03  2.802722E+03
        67  25 -7.412451E+04 -3.547221E+05 -6.531646E+04 -4.267873E+04 -1.496809E+04 -2.207345E+03
        67  26 -5.771491E+04 -2.871443E+05 -4.963965E+04 -2.855813E+04 -1.193253E+04 -1.405957E+03
        67  27 -4.028084E+04 -2.192157E+05 -3.318839E+04 -4.327041E+04 -8.363694E+03 -6.031513E+02
        68   1  2.668762E+04  6.245541E+04  2.965083E+04 -4.524115E+04  5.991519E+03 -7.149737E+03
        68   2  1.072867E+04 -7.325221E+03  1.800037E+04 -2.618910E+04  2.559402E+03 -1.043402E+04
        68   3  9.231130E+03 -7.309975E+04  1.209364E+04 -3.593772E+04  3.996751E+02 -1.371738E+04
        68   4 -6.958378E+02 -4.983416E+04  5.039198E+03 -4.301022E+04  5.989157E+03 -3.534724E+03
        68   5 -1.240664E+02 -5.193131E+04  8.324856E+03 -2.860499E+04  2.557786E+03 -7.948927E+03
        68   6  1.510557E+04 -4.983197E+04  1.813872E+04 -4.299999E+04  3.988828E+02 -1.236253E+04
        68   7 -2.808012E+04 -1.621119E+05 -1.957315E+04 -4.077969E+04  5.986820E+03  7.964417E+01
        68   8 -1.097691E+04 -9.653551E+04 -1.350752E+03 -3.102070E+04  2.556150E+03 -5.464011E+03
        68   9  2.098016E+04 -2.656360E+04  2.418379E+04 -5.006252E+04  3.980596E+02 -1.100763E+04
        68  10  2.668757E+04  6.245534E+04  2.965067E+04 -4.524112E+04 -2.589298E-09  7.283075E-10
        68  11  1.072863E+04 -7.325340E+03  1.800015E+04 -2.618907E+04  4.051355E-11 -6.228179E-12
        68  12  9.231079E+03 -7.309995E+04  1.209329E+04 -3.593771E+04  5.049515E-10  2.290531E-10
        68  13 -6.958796E+02 -4.983418E+04  5.039107E+03 -4.301020E+04 -9.922196E-10 -4.621531E-12
        68  14 -1.240904E+02 -5.193138E+04  8.324725E+03 -2.860497E+04 -2.620501E-09  3.475494E-10
        68  15  1.510553E+04 -4.983214E+04  1.813843E+04 -4.299998E+04  4.018604E-11 -1.103235E-09
        68  16 -2.808015E+04 -1.621119E+05 -1.957322E+04 -4.077969E+04 -1.820052E-09 -7.564019E-10
        68  17 -1.097692E+04 -9.653555E+04 -1.350820E+03 -3.102069E+04 -1.838024E-09 -3.131384E-10
        68  18  2.098012E+04 -2.656373E+04  2.418356E+04 -5.006251E+04  1.041265E-09 -7.977460E-10
        68  19  2.668762E+04  6.245541E+04  2.965083E+04 -4.524115E+04 -5.991519E+03  7.149737E+03
        68  20  1.072867E+04 -7.325221E+03  1.800037E+04 -2.618910E+04 -2.559402E+03  1.043402E+04
        68  21  9.231130E+03 -7.309975E+04  1.209364E+04 -3.593772E+04 -3.996751E+02  1.371738E+04
        68  22 -6.958378E+02 -4.983416E+04  5.039198E+03 -4.301022E+04 -5.989157E+03  3.534724E+03
        68  23 -1.240664E+02 -5.193131E+04  8.324856E+03 -2.860499E+04 -2.557786E+03  7.948927E+03
        68  24  1.510557E+04 -4.983197E+04  1.813872E+04 -4.299999E+04 -3.988828E+02  1.236253E+04
        68  25 -2.808012E+04 -1.621119E+05 -1.957315E+04 -4.077969E+04 -5.986820E+03 -7.964417E+01
        68  26 -1.097691E+04 -9.653551E+04 -1.350752E+03 -3.102070E+04 -2.556150E+03  5.464011E+03
        68  27  2.098016E+04 -2.656360E+04  2.418379E+04 -5.006252E+04 -3.980596E+02  1.100763E+04
        69   1 -6.348148E+04 -1.203492E+04 -3.314714E+02 -2.896339E+04 -2.240641E+03 -1.190927E+03
        69   2 -5.952466E+04 -5.054127E+03  3.248502E+03 -2.713565E+04 -1.141943E+03 -1.669464E+03
        69   3 -5.558300E+04 -3.317418E+03  5.202039E+03 -2.604959E+04 -2.034758E+02 -1.720665E+03
        69   4 -8.229885E+04 -1.742236E+04 -4.990554E+03 -3.235824E+04 -3.067295E+03 -1.500932E+03
        69   5 -8.198706E+04 -1.285315E+04 -2.159214E+03 -3.270436E+04 -1.613362E+03 -1.846255E+03
        69   6 -8.176091E+04 -1.359846E+04 -1.235774E+03 -3.379217E+04 -3.196542E+02 -1.764238E+03
        69   7 -1.011157E+05 -2.280975E+04 -9.649615E+03 -3.575297E+04 -3.893913E+03 -1.810929E+03
        69   8 -1.044489E+05 -2.065213E+04 -7.566947E+03 -3.827288E+04 -2.084761E+03 -2.023040E+03
        69   9 -1.079382E+05 -2.387947E+04 -7.673663E+03 -4.153448E+04 -4.358276E+02 -1.807810E+03
        69  10 -6.348149E+04 -1.203492E+04 -3.314835E+02 -2.896339E+04  1.094150E-09 -3.980805E-12
        69  11 -5.952466E+04 -5.054130E+03  3.248494E+03 -2.713565E+04  1.954730E-09  2.725343E-10
        69  12 -5.558300E+04 -3.317421E+03  5.202034E+03 -2.604959E+04 -1.023266E-09 -2.602242E-10
        69  13 -8.229886E+04 -1.742236E+04 -4.990576E+03 -3.235824E+04  1.001944E-09  2.066774E-10
        69  14 -8.198706E+04 -1.285315E+04 -2.159225E+03 -3.270436E+04 -6.538996E-10  3.630564E-10
        69  15 -8.176091E+04 -1.359846E+04 -1.235780E+03 -3.379217E+04 -1.586643E-09 -3.447662E-10
        69  16 -1.011157E+05 -2.280976E+04 -9.649650E+03 -3.575298E+04  9.042114E-10  4.114359E-10
        69  17 -1.044489E+05 -2.065213E+04 -7.566963E+03 -3.827288E+04 -8.108837E-10  4.620146E-10
        69  18 -1.079382E+05 -2.387947E+04 -7.673670E+03 -4.153448E+04 -8.865735E-10 -4.079111E-10
        69  19 -6.348148E+04 -1.203492E+04 -3.314714E+02 -2.896339E+04  2.240641E+03  1.190927E+03
        69  20 -5.952466E+04 -5.054127E+03  3.248502E+03 -2.713565E+04  1.141943E+03  1.669464E+03
        69  21 -5.558300E+04 -3.317418E+03  5.202039E+03 -2.604959E+04  2.034758E+02  1.720665E+03
        69  22 -8.229885E+04 -1.742236E+04 -4.990554E+03 -3.235824E+04  3.067295E+03  1.500932E+03
        69  23 -8.198706E+04 -1.285315E+04 -2.159214E+03 -3.270436E+04  1.613362E+03  1.846255E+03
        69  24 -8.176091E+04 -1.359846E+04 -1.235774E+03 -3.379217E+04  3.196542E+02  1.764238E+03
        69  25 -1.011157E+05 -2.280975E+04 -9.649615E+03 -3.575297E+04  3.893913E+03  1.810929E+03
        69  26 -1.044489E+05 -2.065213E+04 -7.566947E+03 -3.827288E+04  2.084761E+03  2.023040E+03
        69  27 -1.079382E+05 -2.387947E+04 -7.673663E+03 -4.153448E+04  4.358276E+02  1.807810E+03
        70   1 -5.108791E+04 -2.706121E+03  6.455188E+03 -2.527494E+04  1.268624E+02 -1.721663E+03
        70   2 -4.730180E+04 -8.888348E+00  7.988915E+03 -2.321167E+04  4.790552E+02 -1.915922E+03
        70   3 -4.215509E+04  9.583439E+02  9.274163E+03 -2.279438E+04  8.239730E+02 -2.090739E+03
        70   4 -8.160617E+04 -1.398164E+04 -9.847500E+02 -3.355103E+04 -1.190529E+02 -1.813895E+03
        70   5 -8.226814E+04 -1.299562E+04 -5.133608E+02 -3.277284E+04  2.492898E+02 -2.002103E+03
        70   6 -8.157275E+04 -1.374285E+04 -3.032605E+02 -3.364066E+04  6.103544E+02 -2.170869E+03
        70   7 -1.121235E+05 -2.525708E+04 -8.424743E+03 -4.182674E+04 -3.649545E+02 -1.906121E+03
        70   8 -1.172331E+05 -2.598221E+04 -9.015675E+03 -4.233346E+04  1.953983E+01 -2.088278E+03
        70   9 -1.209885E+05 -2.844380E+04 -9.880700E+03 -4.448621E+04  3.967526E+02 -2.250992E+03
        70  10 -5.108791E+04 -2.706124E+03  6.455182E+03 -2.527494E+04 -4.125250E-10 -8.141360E-10
        70  11 -4.730180E+04 -8.892351E+00  7.988908E+03 -2.321167E+04 -3.510072E-10 -3.663897E-10
        70  12 -4.215509E+04  9.583390E+02  9.274154E+03 -2.279438E+04 -1.832908E-09 -2.281431E-10
        70  13 -8.160617E+04 -1.398164E+04 -9.847562E+02 -3.355103E+04 -8.070366E-10 -6.808454E-10
        70  14 -8.226814E+04 -1.299563E+04 -5.133685E+02 -3.277284E+04 -8.685680E-10 -4.985867E-10
        70  15 -8.157275E+04 -1.374286E+04 -3.032701E+02 -3.364066E+04  2.019813E-09 -2.710571E-11
        70  16 -1.121235E+05 -2.525708E+04 -8.424750E+03 -4.182674E+04  1.418561E-09 -5.122603E-10
        70  17 -1.172331E+05 -2.598221E+04 -9.015684E+03 -4.233346E+04 -1.551702E-10 -5.083674E-10
        70  18 -1.209885E+05 -2.844381E+04 -9.880710E+03 -4.448621E+04  7.654279E-11  8.393132E-11
        70  19 -5.108791E+04 -2.706121E+03  6.455188E+03 -2.527494E+04 -1.268624E+02  1.721663E+03
        70  20 -4.730180E+04 -8.888348E+00  7.988915E+03 -2.321167E+04 -4.790552E+02  1.915922E+03
        70  21 -4.215509E+04  9.583439E+02  9.274163E+03 -2.279438E+04 -8.239730E+02  2.090739E+03
        70  22 -8.160617E+04 -1.398164E+04 -9.847500E+02 -3.355103E+04  1.190529E+02  1.813895E+03
        70  23 -8.226814E+04 -1.299562E+04 -5.133608E+02 -3.277284E+04 -2.492898E+02  2.002103E+03
        70  24 -8.157275E+04 -1.374285E+04 -3.032605E+02 -3.364066E+04 -6.103544E+02  2.170869E+03
        70  25 -1.121235E+05 -2.525708E+04 -8.424743E+03 -4.182674E+04  3.649545E+02  1.906121E+03
        70  26 -1.172331E+05 -2.598221E+04 -9.015675E+03 -4.233346E+04 -1.953983E+01  2.088278E+03
        70  27 -1.209885E+05 -2.844380E+04 -9.880700E+03 -4.448621E+04 -3.967526E+02  2.250992E+03
        71   1 -3.822732E+04  2.356944E+03  1.030988E+04 -2.174854E+04  9.303964E+02 -2.222809E+03
        71   2 -3.447259E+04  4.780474E+03  1.145419E+04 -1.967120E+04  1.116077E+03 -2.453534E+03
        71   3 -2.925244E+04  5.705931E+03  1.253004E+04 -1.928998E+04  1.301375E+03 -2.683179E+03
        71   4 -8.155917E+04 -1.376565E+04 -2.453271E+02 -3.362361E+04  7.110266E+02 -2.305100E+03
        71   5 -8.229091E+04 -1.300938E+04 -1.757204E+02 -3.277824E+04  8.975970E+02 -2.535502E+03
        71   6 -8.155731E+04 -1.375138E+04 -1.752637E+02 -3.362902E+04  1.083785E+03 -2.764823E+03
        71   7 -1.248896E+05 -2.988829E+04 -1.080081E+04 -4.549805E+04  4.916711E+02 -2.387387E+03
        71   8 -1.301074E+05 -3.079924E+04 -1.180591E+04 -4.588446E+04  6.791339E+02 -2.617464E+03
        71   9 -1.338598E+05 -3.320863E+04 -1.288085E+04 -4.796704E+04  8.662128E+02 -2.846459E+03
        71  10 -3.822733E+04  2.356939E+03  1.030987E+04 -2.174854E+04  1.072537E-09 -1.799783E-10
        71  11 -3.447260E+04  4.780468E+03  1.145418E+04 -1.967120E+04 -2.317650E-09 -1.827899E-09
        71  12 -2.925244E+04  5.705923E+03  1.253002E+04 -1.928998E+04 -1.878359E-09 -4.718336E-11
        71  13 -8.155918E+04 -1.376565E+04 -2.453380E+02 -3.362360E+04 -8.112346E-10 -7.377578E-10
        71  14 -8.229091E+04 -1.300939E+04 -1.757340E+02 -3.277823E+04 -6.915877E-09 -1.763986E-09
        71  15 -8.155731E+04 -1.375139E+04 -1.752802E+02 -3.362901E+04  6.177809E-10 -3.131802E-10
        71  16 -1.248896E+05 -2.988829E+04 -1.080082E+04 -4.549805E+04 -3.292469E-09 -1.252984E-09
        71  17 -1.301074E+05 -3.079924E+04 -1.180593E+04 -4.588446E+04 -3.603987E-09 -1.939280E-09
        71  18 -1.338598E+05 -3.320864E+04 -1.288087E+04 -4.796704E+04  6.749705E-10  7.615320E-11
        71  19 -3.822732E+04  2.356944E+03  1.030988E+04 -2.174854E+04 -9.303964E+02  2.222809E+03
        71  20 -3.447259E+04  4.780474E+03  1.145419E+04 -1.967120E+04 -1.116077E+03  2.453534E+03
        71  21 -2.925244E+04  5.705931E+03  1.253004E+04 -1.928998E+04 -1.301375E+03  2.683179E+03
        71  22 -8.155917E+04 -1.376565E+04 -2.453271E+02 -3.362361E+04 -7.110266E+02  2.305100E+03
        71  23 -8.229091E+04 -1.300938E+04 -1.757204E+02 -3.277824E+04 -8.975970E+02  2.535502E+03
        71  24 -8.155731E+04 -1.375138E+04 -1.752637E+02 -3.362902E+04 -1.083785E+03  2.764823E+03
        71  25 -1.248896E+05 -2.988829E+04 -1.080081E+04 -4.549805E+04 -4.916711E+02  2.387387E+03
        71  26 -1.301074E+05 -3.079924E+04 -1.180591E+04 -4.588446E+04 -6.791339E+02  2.617464E+03
        71  27 -1.338598E+05 -3.320863E+04 -1.288085E+04 -4.796704E+04 -8.662128E+02  2.846459E+03
        72   1 -2.537653E+04  7.150337E+03  1.348229E+04 -1.823063E+04  1.389642E+03 -2.823831E+03
        72   2 -2.162325E+04  9.552678E+03  1.445405E+04 -1.615839E+04  1.636459E+03 -3.029818E+03
        72   3 -1.641230E+04  1.047086E+04  1.531457E+04 -1.578376E+04  1.883203E+03 -3.235531E+03
        72   4 -8.155999E+04 -1.375263E+04 -1.975899E+02 -3.362783E+04  1.171914E+03 -2.905531E+03
        72   5 -8.228857E+04 -1.300939E+04 -2.989002E+02 -3.277948E+04  1.418937E+03 -3.111451E+03
        72   6 -8.155965E+04 -1.375031E+04 -5.116201E+02 -3.362870E+04  1.665887E+03 -3.317098E+03
        72   7 -1.377398E+05 -3.465519E+04 -1.387757E+04 -4.902363E+04  9.542106E+02 -2.987223E+03
        72   8 -1.429501E+05 -3.557113E+04 -1.505207E+04 -4.939905E+04  1.201440E+03 -3.193075E+03
        72   9 -1.467030E+05 -3.797127E+04 -1.633819E+04 -5.147200E+04  1.448595E+03 -3.398655E+03
        72  10 -2.537653E+04  7.150328E+03  1.348227E+04 -1.823063E+04  1.003814E-08  4.677028E-09
        72  11 -2.162326E+04  9.552668E+03  1.445402E+04 -1.615839E+04  3.958421E-09  2.378379E-09
        72  12 -1.641231E+04  1.047085E+04  1.531455E+04 -1.578375E+04 -4.978294E-09 -2.032697E-09
        72  13 -8.156000E+04 -1.375264E+04 -1.976083E+02 -3.362783E+04  5.964051E-10  1.653088E-09
        72  14 -8.228858E+04 -1.300940E+04 -2.989221E+02 -3.277948E+04  8.031110E-09  2.120939E-09
        72  15 -8.155966E+04 -1.375032E+04 -5.116460E+02 -3.362869E+04  1.103233E-09  9.394994E-10
        72  16 -1.377398E+05 -3.465520E+04 -1.387759E+04 -4.902363E+04 -6.663470E-09 -1.556641E-09
        72  17 -1.429501E+05 -3.557114E+04 -1.505209E+04 -4.939905E+04  6.086792E-09  2.419032E-09
        72  18 -1.467030E+05 -3.797128E+04 -1.633821E+04 -5.147199E+04  7.924770E-09  3.973618E-09
        72  19 -2.537653E+04  7.150337E+03  1.348229E+04 -1.823063E+04 -1.389642E+03  2.823831E+03
        72  20 -2.162325E+04  9.552678E+03  1.445405E+04 -1.615839E+04 -1.636459E+03  3.029818E+03
        72  21 -1.641230E+04  1.047086E+04  1.531457E+04 -1.578376E+04 -1.883203E+03  3.235531E+03
        72  22 -8.155999E+04 -1.375263E+04 -1.975899E+02 -3.362783E+04 -1.171914E+03  2.905531E+03
        72  23 -8.228857E+04 -1.300939E+04 -2.989002E+02 -3.277948E+04 -1.418937E+03  3.111451E+03
        72  24 -8.155965E+04 -1.375031E+04 -5.116201E+02 -3.362870E+04 -1.665887E+03  3.317098E+03
        72  25 -1.377398E+05 -3.465519E+04 -1.387757E+04 -4.902363E+04 -9.542106E+02  2.987223E+03
        72  26 -1.429501E+05 -3.557113E+04 -1.505207E+04 -4.939905E+04 -1.201440E+03  3.193075E+03
        72  27 -1.467030E+05 -3.797127E+04 -1.633819E+04 -5.147200E+04 -1.448595E+03  3.398655E+03
        73   1 -1.255576E+04  1.191016E+04  1.612360E+04 -1.473708E+04  2.038888E+03 -3.350613E+03
        73   2 -8.768591E+03  1.431127E+04  1.665770E+04 -1.266907E+04  2.740118E+03 -3.385203E+03
        73   3 -3.602531E+03  1.517939E+04  1.673089E+04 -1.230470E+04  3.441159E+03 -3.419198E+03
        73   4 -8.157589E+04 -1.375026E+04 -6.748546E+02 -3.363425E+04  1.821646E+03 -3.432159E+03
        73   5 -8.226700E+04 -1.299598E+04 -1.211088E+03 -3.277787E+04  2.523293E+03 -3.466605E+03
        73   6 -8.157938E+04 -1.377475E+04 -2.208596E+03 -3.362508E+04  3.224749E+03 -3.500458E+03
        73   7 -1.505910E+05 -3.941022E+04 -1.747358E+04 -5.252943E+04  1.604431E+03 -3.513694E+03
        73   8 -1.557601E+05 -4.030287E+04 -1.908028E+04 -5.288450E+04  2.306495E+03 -3.547996E+03
        73   9 -1.595506E+05 -4.272863E+04 -2.114863E+04 -5.494313E+04  3.008367E+03 -3.581706E+03
        73  10 -1.255577E+04  1.191015E+04  1.612357E+04 -1.473707E+04 -9.318206E-10 -6.240585E-10
        73  11 -8.768603E+03  1.431126E+04  1.665766E+04 -1.266906E+04  2.611882E-10  2.302670E-10
        73  12 -3.602547E+03  1.517938E+04  1.673084E+04 -1.230470E+04  2.970456E-09  7.037231E-10
        73  13 -8.157590E+04 -1.375027E+04 -6.748829E+02 -3.363425E+04  7.919684E-12 -8.081074E-11
        73  14 -8.226701E+04 -1.299600E+04 -1.211122E+03 -3.277786E+04 -5.492476E-10 -6.881123E-11
        73  15 -8.157940E+04 -1.377477E+04 -2.208638E+03 -3.362507E+04  4.226009E-09  7.397543E-10
        73  16 -1.505910E+05 -3.941024E+04 -1.747360E+04 -5.252943E+04  4.490290E-10  5.777106E-10
        73  17 -1.557601E+05 -4.030289E+04 -1.908031E+04 -5.288450E+04  1.428919E-09  4.596753E-10
        73  18 -1.595506E+05 -4.272864E+04 -2.114867E+04 -5.494312E+04  2.593966E-09  1.687533E-09
        73  19 -1.255576E+04  1.191016E+04  1.612360E+04 -1.473708E+04 -2.038888E+03  3.350613E+03
        73  20 -8.768591E+03  1.431127E+04  1.665770E+04 -1.266907E+04 -2.740118E+03  3.385203E+03
        73  21 -3.602531E+03  1.517939E+04  1.673089E+04 -1.230470E+04 -3.441159E+03  3.419198E+03
        73  22 -8.157589E+04 -1.375026E+04 -6.748546E+02 -3.363425E+04 -1.821646E+03  3.432159E+03
        73  23 -8.226700E+04 -1.299598E+04 -1.211088E+03 -3.277787E+04 -2.523293E+03  3.466605E+03
        73  24 -8.157938E+04 -1.377475E+04 -2.208596E+03 -3.362508E+04 -3.224749E+03  3.500458E+03
        73  25 -1.505910E+05 -3.941022E+04 -1.747358E+04 -5.252943E+04 -1.604431E+03  3.513694E+03
        73  26 -1.557601E+05 -4.030287E+04 -1.908028E+04 -5.288450E+04 -2.306495E+03  3.547996E+03
        73  27 -1.595506E+05 -4.272863E+04 -2.114863E+04 -5.494313E+04 -3.008367E+03  3.581706E+03
        74   1  2.529155E+02  1.658513E+04  1.697176E+04 -1.140881E+04  3.924538E+03 -3.411507E+03
        74   2  4.175210E+03  1.910740E+04  1.566154E+04 -9.192008E+03  6.677442E+03 -2.673505E+03
        74   3  8.945024E+03  1.937438E+04  1.217637E+04 -8.586228E+03  9.427727E+03 -1.928453E+03
        74   4 -8.166788E+04 -1.372220E+04 -2.936868E+03 -3.368470E+04  3.706301E+03 -3.493460E+03
        74   5 -8.213646E+04 -1.291442E+04 -5.314729E+03 -3.275898E+04  6.464709E+03 -2.753408E+03
        74   6 -8.175867E+04 -1.436315E+04 -9.872118E+03 -3.344434E+04  9.220471E+03 -2.006314E+03
        74   7 -1.635820E+05 -4.402907E+04 -2.284599E+04 -5.595791E+04  3.488095E+03 -3.575402E+03
        74   8 -1.684406E+05 -4.493565E+04 -2.629149E+04 -5.632292E+04  6.252009E+03 -2.833297E+03
        74   9 -1.724538E+05 -4.809995E+04 -3.192109E+04 -5.829904E+04  9.013250E+03 -2.084162E+03
        74  10  2.528959E+02  1.658511E+04  1.697171E+04 -1.140880E+04  2.578386E-09  1.227943E-09
        74  11  4.175160E+03  1.910738E+04  1.566144E+04 -9.191994E+03  2.000883E-09  8.712452E-10
        74  12  8.944927E+03  1.937435E+04  1.217619E+04 -8.586213E+03  1.710923E-09  2.814472E-10
        74  13 -8.166790E+04 -1.372221E+04 -2.936917E+03 -3.368468E+04  3.683881E-09  2.149682E-09
        74  14 -8.213650E+04 -1.291444E+04 -5.314822E+03 -3.275896E+04  1.173424E-09  8.467153E-10
        74  15 -8.175876E+04 -1.436318E+04 -9.872286E+03 -3.344433E+04  3.153700E-10 -8.994808E-10
        74  16 -1.635821E+05 -4.402909E+04 -2.284604E+04 -5.595790E+04  4.992062E-10  2.306520E-09
        74  17 -1.684406E+05 -4.493567E+04 -2.629158E+04 -5.632290E+04 -1.390800E-10  1.089263E-09
        74  18 -1.724539E+05 -4.809998E+04 -3.192125E+04 -5.829902E+04 -2.268516E-09 -1.187655E-09
        74  19  2.529155E+02  1.658513E+04  1.697176E+04 -1.140881E+04 -3.924538E+03  3.411507E+03
        74  20  4.175210E+03  1.910740E+04  1.566154E+04 -9.192008E+03 -6.677442E+03  2.673505E+03
        74  21  8.945024E+03  1.937438E+04  1.217637E+04 -8.586228E+03 -9.427727E+03  1.928453E+03
        74  22 -8.166788E+04 -1.372220E+04 -2.936868E+03 -3.368470E+04 -3.706301E+03  3.493460E+03
        74  23 -8.213646E+04 -1.291442E+04 -5.314729E+03 -3.275898E+04 -6.464709E+03  2.753408E+03
        74  24 -8.175867E+04 -1.436315E+04 -9.872118E+03 -3.344434E+04 -9.220471E+03  2.006314E+03
        74  25 -1.635820E+05 -4.402907E+04 -2.284599E+04 -5.595791E+04 -3.488095E+03  3.575402E+03
        74  26 -1.684406E+05 -4.493565E+04 -2.629149E+04 -5.632292E+04 -6.252009E+03  2.833297E+03
        74  27 -1.724538E+05 -4.809995E+04 -3.192109E+04 -5.829904E+04 -9.013250E+03  2.084162E+03
        75   1  1.349653E+04  2.051578E+04  1.003511E+04 -9.871267E+03  1.136309E+04 -1.391197E+03
        75   2  1.723136E+04  2.523897E+04  7.665081E+02 -4.587622E+03  2.319179E+04  2.789534E+03
        75   3  1.659699E+04  1.689268E+04 -2.036139E+04  1.554056E+03  3.496537E+04  7.117619E+03
        75   4 -8.243088E+04 -1.327962E+04 -1.297133E+04 -3.420664E+04  1.111150E+04 -1.485674E+03
        75   5 -8.102014E+04 -1.230697E+04 -2.331943E+04 -3.254277E+04  2.306072E+04  2.740210E+03
        75   6 -8.400347E+04 -2.442916E+04 -4.562378E+04 -3.002093E+04  3.495476E+04  7.113294E+03
        75   7 -1.783497E+05 -4.707480E+04 -3.597857E+04 -5.853881E+04  1.085996E+04 -1.580136E+03
        75   8 -1.792624E+05 -4.985221E+04 -4.740617E+04 -6.049393E+04  2.292968E+04  2.690896E+03
        75   9 -1.845939E+05 -6.574970E+04 -7.088697E+04 -6.159105E+04  3.494415E+04  7.108971E+03
        75  10  1.349639E+04  2.051574E+04  1.003486E+04 -9.871255E+03 -2.034564E-09 -7.627467E-10
        75  11  1.723078E+04  2.523882E+04  7.654828E+02 -4.587674E+03 -1.447411E-10  8.692590E-10
        75  12  1.659567E+04  1.689230E+04 -2.036378E+04  1.553855E+03 -1.224251E-09  1.084796E-09
        75  13 -8.243101E+04 -1.327965E+04 -1.297157E+04 -3.420662E+04  1.899869E-10 -7.477480E-10
        75  14 -8.102071E+04 -1.230712E+04 -2.332045E+04 -3.254282E+04  2.087383E-10  7.671492E-10
        75  15 -8.400480E+04 -2.442955E+04 -4.562617E+04 -3.002113E+04 -2.673878E-09 -2.471477E-10
        75  16 -1.783498E+05 -4.707483E+04 -3.597879E+04 -5.853880E+04  2.327883E-09 -9.829042E-11
        75  17 -1.792629E+05 -4.985236E+04 -4.740718E+04 -6.049398E+04  6.474637E-10  1.627754E-09
        75  18 -1.845952E+05 -6.575008E+04 -7.088936E+04 -6.159125E+04 -3.569755E-09 -6.824855E-10
        75  19  1.349653E+04  2.051578E+04  1.003511E+04 -9.871267E+03 -1.136309E+04  1.391197E+03
        75  20  1.723136E+04  2.523897E+04  7.665081E+02 -4.587622E+03 -2.319179E+04 -2.789534E+03
        75  21  1.659699E+04  1.689268E+04 -2.036139E+04  1.554056E+03 -3.496537E+04 -7.117619E+03
        75  22 -8.243088E+04 -1.327962E+04 -1.297133E+04 -3.420664E+04 -1.111150E+04  1.485674E+03
        75  23 -8.102014E+04 -1.230697E+04 -2.331943E+04 -3.254277E+04 -2.306072E+04 -2.740210E+03
        75  24 -8.400347E+04 -2.442916E+04 -4.562378E+04 -3.002093E+04 -3.495476E+04 -7.113294E+03
        75  25 -1.783497E+05 -4.707480E+04 -3.597857E+04 -5.853881E+04 -1.085996E+04  1.580136E+03
        75  26 -1.792624E+05 -4.985221E+04 -4.740617E+04 -6.049393E+04 -2.292968E+04 -2.690896E+03
        75  27 -1.845939E+05 -6.574970E+04 -7.088697E+04 -6.159105E+04 -3.494415E+04 -7.108971E+03
        76   1  3.455361E+04  1.490444E+04 -3.139362E+04 -3.298356E+04  4.352293E+04  9.782671E+03
        76   2  2.460897E+04  5.492531E+04 -7.320285E+04  2.296879E+04  9.482611E+04  2.954467E+04
        76   3 -5.738418E+04 -8.397545E+04 -2.018907E+05  1.229175E+05  1.449133E+05  5.254897E+04
        76   4 -9.139857E+04 -6.381999E+03 -5.743554E+04 -4.109595E+04  4.252955E+04  9.411705E+03
        76   5 -6.768654E+04 -5.870676E+03 -1.006666E+05 -2.958635E+04  9.651381E+04  3.017345E+04
        76   6 -1.165744E+05 -1.848402E+05 -2.329111E+05  2.592568E+04  1.492845E+05  5.416780E+04
        76   7 -2.173338E+05 -2.766836E+04 -8.347786E+04 -4.920825E+04  4.153639E+04  9.040719E+03
        76   8 -1.599710E+05 -6.665851E+04 -1.281306E+05 -8.213220E+04  9.820124E+04  3.080194E+04
        76   9 -1.757451E+05 -2.856643E+05 -2.639281E+05 -7.104994E+04  1.536552E+05  5.578505E+04
        76  10  3.455155E+04  1.490383E+04 -3.139736E+04 -3.298390E+04 -1.445820E-09 -5.979544E-10
        76  11  2.459908E+04  5.492196E+04 -7.322139E+04  2.296654E+04 -5.598775E-10 -1.065949E-09
        76  12 -5.740748E+04 -8.398405E+04 -2.019353E+05  1.229113E+05  9.168865E-10 -5.334029E-10
        76  13 -9.140054E+04 -6.382580E+03 -5.743911E+04 -4.109627E+04 -2.831898E-09 -2.109146E-09
        76  14 -6.769679E+04 -5.874155E+03 -1.006858E+05 -2.958869E+04  5.153653E-10  2.672112E-09
        76  15 -1.165992E+05 -1.848494E+05 -2.329585E+05  2.591917E+04  1.450814E-09  6.711640E-11
        76  16 -2.173357E+05 -2.766891E+04 -8.348126E+04 -4.920855E+04 -3.424510E-09 -9.739891E-10
        76  17 -1.599816E+05 -6.666212E+04 -1.281505E+05 -8.213463E+04  1.654395E-09  1.196011E-09
        76  18 -1.757713E+05 -2.856740E+05 -2.639784E+05 -7.105685E+04  3.034885E-10  3.650675E-10
        76  19  3.455361E+04  1.490444E+04 -3.139362E+04 -3.298356E+04 -4.352293E+04 -9.782671E+03
        76  20  2.460897E+04  5.492531E+04 -7.320285E+04  2.296879E+04 -9.482611E+04 -2.954467E+04
        76  21 -5.738418E+04 -8.397545E+04 -2.018907E+05  1.229175E+05 -1.449133E+05 -5.254897E+04
        76  22 -9.139857E+04 -6.381999E+03 -5.743554E+04 -4.109595E+04 -4.252955E+04 -9.411705E+03
        76  23 -6.768654E+04 -5.870676E+03 -1.006666E+05 -2.958635E+04 -9.651381E+04 -3.017345E+04
        76  24 -1.165744E+05 -1.848402E+05 -2.329111E+05  2.592568E+04 -1.492845E+05 -5.416780E+04
        76  25 -2.173338E+05 -2.766836E+04 -8.347786E+04 -4.920825E+04 -4.153639E+04 -9.040719E+03
        76  26 -1.599710E+05 -6.665851E+04 -1.281306E+05 -8.213220E+04 -9.820124E+04 -3.080194E+04
        76  27 -1.757451E+05 -2.856643E+05 -2.639281E+05 -7.104994E+04 -1.536552E+05 -5.578505E+04
        77   1  1.936863E+05  1.941213E+06  2.026046E+05 -6.559073E+04  5.617232E+03  1.049822E+05
        77   2  1.056742E+05  1.925793E+06  1.299771E+05 -3.043619E+04  1.917630E+04  6.153225E+04
        77   3  8.673513E+04  1.933288E+06  1.028512E+05  4.309234E+03  2.376319E+04  1.808360E+04
        77   4  1.022597E+05  1.570370E+06  1.156142E+05 -3.649487E+03  5.628651E+03  7.762012E+04
        77   5  1.820733E+04  1.560124E+06  5.762482E+04 -3.452247E+03  1.918126E+04  4.777735E+04
        77   6  8.879573E+02  1.570446E+06  3.571911E+04 -3.663271E+03  2.376416E+04  1.793458E+04
        77   7  1.083814E+04  1.199662E+06  2.861927E+04  5.825463E+04  5.634631E+03  5.027427E+04
        77   8 -6.926479E+04  1.194585E+06 -1.473292E+04  2.351553E+04  1.918503E+04  3.403036E+04
        77   9 -8.496649E+04  1.207732E+06 -3.141851E+04 -1.163100E+04  2.376514E+04  1.778564E+04
        77  10  1.936833E+05  1.941201E+06  2.025839E+05 -6.559120E+04  1.862767E-09  1.365254E-09
        77  11  1.056728E+05  1.925789E+06  1.299693E+05 -3.043714E+04  1.834446E-09 -6.986099E-10
        77  12  8.673444E+04  1.933287E+06  1.028496E+05  4.308889E+03 -1.692068E-09 -2.607136E-09
        77  13  1.022581E+05  1.570363E+06  1.156029E+05 -3.649839E+03  3.727960E-10 -3.399879E-11
        77  14  1.820632E+04  1.560122E+06  5.761985E+04 -3.452985E+03  9.648750E-11 -8.563309E-11
        77  15  8.872644E+02  1.570446E+06  3.571744E+04 -3.663614E+03  1.515911E-10  2.084748E-11
        77  16  1.083742E+04  1.199660E+06  2.861447E+04  5.825440E+04  1.339288E-09 -1.324407E-09
        77  17 -6.926550E+04  1.194584E+06 -1.473578E+04  2.351500E+04 -4.973333E-10  3.715704E-10
        77  18 -8.496718E+04  1.207731E+06 -3.142016E+04 -1.163135E+04 -3.786182E-10  2.770907E-09
        77  19  1.936863E+05  1.941213E+06  2.026046E+05 -6.559073E+04 -5.617232E+03 -1.049822E+05
        77  20  1.056742E+05  1.925793E+06  1.299771E+05 -3.043619E+04 -1.917630E+04 -6.153225E+04
        77  21  8.673513E+04  1.933288E+06  1.028512E+05  4.309234E+03 -2.376319E+04 -1.808360E+04
        77  22  1.022597E+05  1.570370E+06  1.156142E+05 -3.649487E+03 -5.628651E+03 -7.762012E+04
        77  23  1.820733E+04  1.560124E+06  5.762482E+04 -3.452247E+03 -1.918126E+04 -4.777735E+04
        77  24  8.879573E+02  1.570446E+06  3.571911E+04 -3.663271E+03 -2.376416E+04 -1.793458E+04
        77  25  1.083814E+04  1.199662E+06  2.861927E+04  5.825463E+04 -5.634631E+03 -5.027427E+04
        77  26 -6.926479E+04  1.194585E+06 -1.473292E+04  2.351553E+04 -1.918503E+04 -3.403036E+04
        77  27 -8.496649E+04  1.207732E+06 -3.141851E+04 -1.163100E+04 -2.376514E+04 -1.778564E+04
        78   1  8.904531E+04  1.926531E+06  9.680826E+04 -6.065638E+03  2.378692E+04  1.452657E+04
        78   2  8.492516E+04  1.921163E+06  9.043282E+04 -3.401631E+03  2.423764E+04 -1.503375E+02
        78   3  8.727701E+04  1.919333E+06  9.521413E+04 -1.642037E+03  2.338073E+04 -1.482759E+04
        78   4  3.918695E+03  1.566579E+06  3.041873E+04 -3.771898E+03  2.378851E+04  1.285235E+04
        78   5  8.283411E+02  1.564981E+06  2.542446E+04 -3.319867E+03  2.423874E+04  1.638537E+02
        78   6  3.867783E+03  1.566580E+06  3.021277E+04 -3.772269E+03  2.338108E+04 -1.252507E+04
        78   7 -8.121527E+04  1.206752E+06 -3.597616E+04 -1.479511E+03  2.379009E+04  1.117907E+04
        78   8 -8.327563E+04  1.208923E+06 -3.958903E+04 -3.238142E+03  2.423984E+04  4.778699E+02
        78   9 -7.954850E+04  1.213947E+06 -3.479372E+04 -5.901251E+03  2.338141E+04 -1.022382E+04
        78  10  8.904464E+04  1.926531E+06  9.680680E+04 -6.065916E+03 -1.461607E-09 -5.034776E-10
        78  11  8.492453E+04  1.921163E+06  9.043171E+04 -3.401628E+03  1.587549E-09 -1.436515E-09
        78  12  8.727636E+04  1.919333E+06  9.521269E+04 -1.641758E+03  1.231302E-10 -9.340061E-10
        78  13  3.918043E+03  1.566578E+06  3.041736E+04 -3.772144E+03  2.906573E-10 -3.311026E-10
        78  14  8.277097E+02  1.564981E+06  2.542335E+04 -3.319870E+03  1.694216E-09 -4.449441E-10
        78  15  3.867153E+03  1.566579E+06  3.021145E+04 -3.772033E+03  3.174029E-09 -4.415832E-12
        78  16 -8.121591E+04  1.206751E+06 -3.597746E+04 -1.479725E+03  5.192531E-11  7.312504E-10
        78  17 -8.327626E+04  1.208923E+06 -3.959013E+04 -3.238151E+03  1.086162E-09  3.799844E-10
        78  18 -7.954911E+04  1.213947E+06 -3.479495E+04 -5.901058E+03  1.710522E-09  1.317859E-09
        78  19  8.904531E+04  1.926531E+06  9.680826E+04 -6.065638E+03 -2.378692E+04 -1.452657E+04
        78  20  8.492516E+04  1.921163E+06  9.043282E+04 -3.401631E+03 -2.423764E+04  1.503375E+02
        78  21  8.727701E+04  1.919333E+06  9.521413E+04 -1.642037E+03 -2.338073E+04  1.482759E+04
        78  22  3.918695E+03  1.566579E+06  3.041873E+04 -3.771898E+03 -2.378851E+04 -1.285235E+04
        78  23  8.283411E+02  1.564981E+06  2.542446E+04 -3.319867E+03 -2.423874E+04 -1.638537E+02
        78  24  3.867783E+03  1.566580E+06  3.021277E+04 -3.772269E+03 -2.338108E+04  1.252507E+04
        78  25 -8.121527E+04  1.206752E+06 -3.597616E+04 -1.479511E+03 -2.379009E+04 -1.117907E+04
        78  26 -8.327563E+04  1.208923E+06 -3.958903E+04 -3.238142E+03 -2.423984E+04 -4.778699E+02
        78  27 -7.954850E+04  1.213947E+06 -3.479372E+04 -5.901251E+03 -2.338141E+04  1.022382E+04
        79   1  8.387070E+04  1.921177E+06  1.002200E+05 -1.189521E+04  2.306900E+04 -1.844932E+04
        79   2  1.008003E+05  1.906727E+06  1.253586E+05  2.331411E+04  1.836911E+04 -6.050975E+04
        79   3  1.857856E+05  1.914754E+06  1.948409E+05  5.718387E+04  5.386072E+03 -1.025755E+05
        79   4  8.804100E+02  1.570391E+06  3.539886E+04 -3.876679E+03  2.306952E+04 -1.757032E+04
        79   5  1.798049E+04  1.560199E+06  5.695962E+04 -3.184888E+03  1.836617E+04 -4.707018E+04
        79   6  1.009759E+05  1.570317E+06  1.141694E+05 -3.833118E+03  5.382224E+03 -7.657468E+04
        79   7 -8.211666E+04  1.219723E+06 -2.942743E+04  4.137225E+03  2.307006E+04 -1.669180E+04
        79   8 -6.484382E+04  1.213787E+06 -1.144417E+04 -2.966882E+04  1.836208E+04 -3.363793E+04
        79   9  1.617207E+04  1.225998E+06  3.349432E+04 -6.481613E+04  5.373279E+03 -5.058812E+04
        79  10  8.387004E+04  1.921177E+06  1.002184E+05 -1.189486E+04  9.698636E-11 -2.703546E-08
        79  11  1.007989E+05  1.906723E+06  1.253511E+05  2.331501E+04  7.562249E-10 -3.199626E-09
        79  12  1.857828E+05  1.914742E+06  1.948211E+05  5.718431E+04 -4.772523E-10  2.323396E-08
        79  13  8.797555E+02  1.570390E+06  3.539728E+04 -3.876352E+03  1.837959E-09 -4.149999E-10
        79  14  1.797953E+04  1.560196E+06  5.695484E+04 -3.184192E+03  1.756089E-09 -5.439556E-10
        79  15  1.009743E+05  1.570310E+06  1.141583E+05 -3.832786E+03  1.001046E-09 -1.631451E-11
        79  16 -8.211730E+04  1.219723E+06 -2.942895E+04  4.137535E+03  3.311447E-09  2.744503E-08
        79  17 -6.484449E+04  1.213786E+06 -1.144692E+04 -2.966832E+04  1.664207E-09  1.508859E-09
        79  18  1.617135E+04  1.225995E+06  3.348947E+04 -6.481591E+04  3.681364E-10 -2.290043E-08
        79  19  8.387070E+04  1.921177E+06  1.002200E+05 -1.189521E+04 -2.306900E+04  1.844932E+04
        79  20  1.008003E+05  1.906727E+06  1.253586E+05  2.331411E+04 -1.836911E+04  6.050975E+04
        79  21  1.857856E+05  1.914754E+06  1.948409E+05  5.718387E+04 -5.386072E+03  1.025755E+05
        79  22  8.804100E+02  1.570391E+06  3.539886E+04 -3.876679E+03 -2.306952E+04  1.757032E+04
        79  23  1.798049E+04  1.560199E+06  5.695962E+04 -3.184888E+03 -1.836617E+04  4.707018E+04
        79  24  1.009759E+05  1.570317E+06  1.141694E+05 -3.833118E+03 -5.382224E+03  7.657468E+04
        79  25 -8.211666E+04  1.219723E+06 -2.942743E+04  4.137225E+03 -2.307006E+04  1.669180E+04
        79  26 -6.484382E+04  1.213787E+06 -1.144417E+04 -2.966882E+04 -1.836208E+04  3.363793E+04
        79  27  1.617207E+04  1.225998E+06  3.349432E+04 -6.481613E+04 -5.373279E+03  5.058812E+04
        80   1 -2.011609E+06 -4.307894E+05 -3.781828E+05 -4.781294E+04  6.049036E+04  3.232323E+04
        80   2 -1.831473E+06 -5.555813E+05 -4.063366E+05 -5.991941E+04  6.469705E+04  1.011334E+05
        80   3 -1.607461E+06 -5.128824E+05 -3.949598E+05 -1.554834E+05  6.913409E+04  1.057055E+05
        80   4  4.491801E+05  1.805344E+05  2.188890E+05 -1.266381E+05  1.502890E+05  3.261587E+04
        80   5  4.225402E+05 -3.433630E+03  9.924675E+04 -8.464656E+04  9.744584E+04  1.011927E+05
        80   6  4.494740E+05 -1.033808E+04  5.862737E+04 -1.260838E+05  4.483584E+04  1.056368E+05
        80   7  2.915541E+06  7.914431E+05  8.155582E+05 -2.057816E+05  2.404424E+05  3.288514E+04
        80   8  2.681294E+06  5.483704E+05  6.045128E+05 -1.094675E+05  1.303121E+05  1.012493E+05
        80   9  2.510371E+06  4.919252E+05  5.119574E+05 -9.658695E+04  2.045770E+04  1.055659E+05
        80  10 -2.011613E+06 -4.307915E+05 -3.781916E+05 -4.781451E+04 -9.173240E-10  2.732615E-10
        80  11 -1.831480E+06 -5.555934E+05 -4.063637E+05 -5.992468E+04 -5.024606E-10  5.401779E-10
        80  12 -1.607469E+06 -5.128957E+05 -3.949898E+05 -1.554893E+05  9.421063E-10  6.108869E-10
        80  13  4.491555E+05  1.805272E+05  2.188446E+05 -1.266420E+05  1.634181E-11  9.847141E-11
        80  14  4.225273E+05 -3.447176E+03  9.920966E+04 -8.465450E+04  9.261410E-13  3.712193E-10
        80  15  4.494688E+05 -1.035060E+04  5.860262E+04 -1.260877E+05  1.655380E-09  5.381484E-10
        80  16  2.915479E+06  7.914265E+05  8.154480E+05 -2.057879E+05 -1.437537E-10  2.097368E-11
        80  17  2.681273E+06  5.483549E+05  6.044618E+05 -1.094781E+05 -5.381796E-11  3.811851E-10
        80  18  2.510368E+06  4.919132E+05  5.119356E+05 -9.658868E+04  4.404146E-10  7.619644E-10
        80  19 -2.011609E+06 -4.307894E+05 -3.781828E+05 -4.781294E+04 -6.049036E+04 -3.232323E+04
        80  20 -1.831473E+06 -5.555813E+05 -4.063366E+05 -5.991941E+04 -6.469705E+04 -1.011334E+05
        80  21 -1.607461E+06 -5.128824E+05 -3.949598E+05 -1.554834E+05 -6.913409E+04 -1.057055E+05
        80  22  4.491801E+05  1.805344E+05  2.188890E+05 -1.266381E+05 -1.502890E+05 -3.261587E+04
        80  23  4.225402E+05 -3.433630E+03  9.924675E+04 -8.464656E+04 -9.744584E+04 -1.011927E+05
        80  24  4.494740E+05 -1.033808E+04  5.862737E+04 -1.260838E+05 -4.483584E+04 -1.056368E+05
        80  25  2.915541E+06  7.914431E+05  8.155582E+05 -2.057816E+05 -2.404424E+05 -3.288514E+04
        80  26  2.681294E+06  5.483704E+05  6.045128E+05 -1.094675E+05 -1.303121E+05 -1.012493E+05
        80  27  2.510371E+06  4.919252E+05  5.119574E+05 -9.658695E+04 -2.045770E+04 -1.055659E+05
        81   1 -1.450589E+06 -4.526497E+05 -3.721681E+05 -1.252750E+05  4.191320E+04  9.324516E+04
        81   2 -1.253319E+06 -4.138721E+05 -3.480701E+05 -8.457141E+04  3.188920E+04  8.560444E+04
        81   3 -1.050880E+06 -3.650228E+05 -3.146175E+05 -1.289467E+05  2.184354E+04  7.512472E+04
        81   4  4.389471E+05  9.257456E+03  4.663991E+04 -1.265955E+05  3.648727E+04  9.321619E+04
        81   5  4.362672E+05 -1.144611E+03  2.507314E+04 -8.405790E+04  2.391156E+04  8.557979E+04
        81   6  4.391476E+05 -1.046356E+03  1.461198E+04 -1.265843E+05  1.131737E+04  7.510802E+04
        81   7  2.331820E+06  4.709235E+05  4.652267E+05 -1.279210E+05  3.104486E+04  9.318730E+04
        81   8  2.128523E+06  4.113908E+05  3.980408E+05 -8.354344E+04  1.591235E+04  8.555517E+04
        81   9  1.931251E+06  3.627807E+05  3.437051E+05 -1.242163E+05  7.661653E+02  7.509126E+04
        81  10 -1.450593E+06 -4.526595E+05 -3.721877E+05 -1.252782E+05 -1.084832E-10  1.281049E-10
        81  11 -1.253322E+06 -4.138802E+05 -3.480857E+05 -8.457361E+04  9.985868E-10 -3.222519E-10
        81  12 -1.050882E+06 -3.650290E+05 -3.146290E+05 -1.289480E+05  3.953953E-10  4.836275E-10
        81  13  4.389433E+05  9.247766E+03  4.662107E+04 -1.265982E+05 -2.181527E-09  6.767175E-11
        81  14  4.362647E+05 -1.152631E+03  2.505830E+04 -8.405955E+04 -5.629047E-10  6.994748E-11
        81  15  4.391460E+05 -1.052449E+03  1.460114E+04 -1.265850E+05 -3.770351E-10  4.135239E-10
        81  16  2.331817E+06  4.709140E+05  4.652086E+05 -1.279233E+05  1.342592E-10  5.047388E-10
        81  17  2.128521E+06  4.113829E+05  3.980266E+05 -8.354453E+04  9.839077E-11 -4.145958E-11
        81  18  1.931250E+06  3.627747E+05  3.436945E+05 -1.242163E+05  5.580195E-10  5.079595E-10
        81  19 -1.450589E+06 -4.526497E+05 -3.721681E+05 -1.252750E+05 -4.191320E+04 -9.324516E+04
        81  20 -1.253319E+06 -4.138721E+05 -3.480701E+05 -8.457141E+04 -3.188920E+04 -8.560444E+04
        81  21 -1.050880E+06 -3.650228E+05 -3.146175E+05 -1.289467E+05 -2.184354E+04 -7.512472E+04
        81  22  4.389471E+05  9.257456E+03  4.663991E+04 -1.265955E+05 -3.648727E+04 -9.321619E+04
        81  23  4.362672E+05 -1.144611E+03  2.507314E+04 -8.405790E+04 -2.391156E+04 -8.557979E+04
        81  24  4.391476E+05 -1.046356E+03  1.461198E+04 -1.265843E+05 -1.131737E+04 -7.510802E+04
        81  25  2.331820E+06  4.709235E+05  4.652267E+05 -1.279210E+05 -3.104486E+04 -9.318730E+04
        81  26  2.128523E+06  4.113908E+05  3.980408E+05 -8.354344E+04 -1.591235E+04 -8.555517E+04
        81  27  1.931251E+06  3.627807E+05  3.437051E+05 -1.242163E+05 -7.661653E+02 -7.509126E+04
        82   1 -8.864890E+05 -3.232917E+05 -2.805660E+05 -1.268254E+05  1.871866E+04  6.836970E+04
        82   2 -6.881214E+05 -2.752115E+05 -2.420028E+05 -8.416309E+04  1.568751E+04  5.739536E+04
        82   3 -4.887023E+05 -2.264464E+05 -2.011904E+05 -1.262443E+05  1.263912E+04  4.630912E+04
        82   4  4.382477E+05  9.027974E+01  1.119313E+04 -1.265141E+05  9.046461E+03  6.835841E+04
        82   5  4.377962E+05 -3.152675E+02  6.344672E+03 -8.414707E+04  5.908579E+03  5.739057E+04
        82   6  4.383787E+05 -1.542740E+01  3.817692E+03 -1.265143E+05  2.754414E+03  4.631106E+04
        82   7  1.764626E+06  3.233546E+05  3.028451E+05 -1.262020E+05 -6.461657E+02  6.834713E+04
        82   8  1.564899E+06  2.744958E+05  2.546146E+05 -8.413087E+04 -3.887900E+03  5.738578E+04
        82   9  1.366263E+06  2.263577E+05  2.087731E+05 -1.267845E+05 -7.144896E+03  4.631300E+04
        82  10 -8.864907E+05 -3.232969E+05 -2.805754E+05 -1.268265E+05  2.349620E-09  5.551862E-10
        82  11 -6.881225E+05 -2.752151E+05 -2.420094E+05 -8.416381E+04  8.114234E-10 -3.677747E-10
        82  12 -4.887031E+05 -2.264488E+05 -2.011947E+05 -1.262448E+05  6.807765E-10 -5.699358E-10
        82  13  4.382464E+05  8.523877E+01  1.118419E+04 -1.265146E+05 -1.419329E-11  3.452138E-10
        82  14  4.377953E+05 -3.188144E+02  6.338416E+03 -8.414734E+04  5.427572E-10 -3.224652E-10
        82  15  4.383782E+05 -1.773299E+01  3.813646E+03 -1.265144E+05 -1.745939E-09 -1.749496E-10
        82  16  1.764625E+06  3.233496E+05  3.028363E+05 -1.262020E+05 -1.592168E-09  2.881718E-10
        82  17  1.564898E+06  2.744923E+05  2.546083E+05 -8.413069E+04 -1.593678E-09 -7.274531E-10
        82  18  1.366262E+06  2.263554E+05  2.087690E+05 -1.267842E+05 -1.794773E-09 -7.719821E-12
        82  19 -8.864890E+05 -3.232917E+05 -2.805660E+05 -1.268254E+05 -1.871866E+04 -6.836970E+04
        82  20 -6.881214E+05 -2.752115E+05 -2.420028E+05 -8.416309E+04 -1.568751E+04 -5.739536E+04
        82  21 -4.887023E+05 -2.264464E+05 -2.011904E+05 -1.262443E+05 -1.263912E+04 -4.630912E+04
        82  22  4.382477E+05  9.027974E+01  1.119313E+04 -1.265141E+05 -9.046461E+03 -6.835841E+04
        82  23  4.377962E+05 -3.152675E+02  6.344672E+03 -8.414707E+04 -5.908579E+03 -5.739057E+04
        82  24  4.383787E+05 -1.542740E+01  3.817692E+03 -1.265143E+05 -2.754414E+03 -4.631106E+04
        82  25  1.764626E+06  3.233546E+05  3.028451E+05 -1.262020E+05  6.461657E+02 -6.834713E+04
        82  26  1.564899E+06  2.744958E+05  2.546146E+05 -8.413087E+04  3.887900E+03 -5.738578E+04
        82  27  1.366263E+06  2.263577E+05  2.087731E+05 -1.267845E+05  7.144896E+03 -4.631300E+04
        83   1 -3.241852E+05 -1.859383E+05 -1.645843E+05 -1.261072E+05  1.197433E+04  3.983570E+04
        83   2 -1.259066E+05 -1.376145E+05 -1.224155E+05 -8.386538E+04  1.099861E+04  2.875152E+04
        83   3  7.252639E+04 -8.910911E+04 -7.958230E+04 -1.261243E+05  1.001437E+04  1.766951E+04
        83   4  4.382378E+05  5.482566E+01  2.979236E+03 -1.264614E+05  2.135087E+03  3.984071E+04
        83   5  4.382133E+05  6.906278E+01  1.964522E+03 -8.421327E+04  1.158743E+03  2.875977E+04
        83   6  4.383029E+05  2.664019E+02  1.614588E+03 -1.264613E+05  1.741864E+02  1.768114E+04
        83   7  1.201205E+06  1.860090E+05  1.705076E+05 -1.268158E+05 -7.716100E+03  3.984572E+04
        83   8  1.002631E+06  1.377313E+05  1.263254E+05 -8.456139E+04 -8.689959E+03  2.876802E+04
        83   9  8.042044E+05  8.963292E+04  8.280352E+04 -1.267984E+05 -9.671726E+03  1.769277E+04
        83  10 -3.241858E+05 -1.859400E+05 -1.645875E+05 -1.261076E+05 -2.412110E-09 -1.048069E-10
        83  11 -1.259069E+05 -1.376154E+05 -1.224173E+05 -8.386563E+04 -2.295337E-10  6.864396E-10
        83  12  7.252619E+04 -8.910947E+04 -7.958307E+04 -1.261244E+05 -6.421418E-10 -5.063015E-10
        83  13  4.382373E+05  5.311960E+01  2.976244E+03 -1.264614E+05 -2.125928E-09  1.593376E-10
        83  14  4.382131E+05  6.817405E+01  1.962965E+03 -8.421330E+04  1.596869E-09  1.374563E-09
        83  15  4.383028E+05  2.660661E+02  1.614001E+03 -1.264613E+05 -2.072037E-09 -9.513334E-11
        83  16  1.201204E+06  1.860073E+05  1.705045E+05 -1.268155E+05  4.066882E-10  6.834555E-10
        83  17  1.002630E+06  1.377303E+05  1.263237E+05 -8.456119E+04  1.514025E-09  1.077597E-09
        83  18  8.042042E+05  8.963256E+04  8.280275E+04 -1.267982E+05 -7.466445E-11  7.507034E-11
        83  19 -3.241852E+05 -1.859383E+05 -1.645843E+05 -1.261072E+05 -1.197433E+04 -3.983570E+04
        83  20 -1.259066E+05 -1.376145E+05 -1.224155E+05 -8.386538E+04 -1.099861E+04 -2.875152E+04
        83  21  7.252639E+04 -8.910911E+04 -7.958230E+04 -1.261243E+05 -1.001437E+04 -1.766951E+04
        83  22  4.382378E+05  5.482566E+01  2.979236E+03 -1.264614E+05 -2.135087E+03 -3.984071E+04
        83  23  4.382133E+05  6.906278E+01  1.964522E+03 -8.421327E+04 -1.158743E+03 -2.875977E+04
        83  24  4.383029E+05  2.664019E+02  1.614588E+03 -1.264613E+05 -1.741864E+02 -1.768114E+04
        83  25  1.201205E+06  1.860090E+05  1.705076E+05 -1.268158E+05  7.716100E+03 -3.984572E+04
        83  26  1.002631E+06  1.377313E+05  1.263254E+05 -8.456139E+04  8.689959E+03 -2.876802E+04
        83  27  8.042044E+05  8.963292E+04  8.280352E+04 -1.267984E+05  9.671726E+03 -1.769277E+04
        84   1  2.369150E+05 -4.875417E+04 -4.222030E+04 -1.262565E+05  9.709450E+03  1.122230E+04
        84   2  4.351458E+05 -5.963978E+02  1.295552E+03 -8.418623E+04  8.709356E+03  1.511725E+02
        84   3  6.333665E+05  4.776698E+04  4.545467E+04 -1.265212E+05  7.708911E+03 -1.091572E+04
        84   4  4.382882E+05  2.717619E+02  1.609004E+03 -1.264411E+05 -1.284177E+02  1.123496E+04
        84   5  4.383121E+05  1.761744E+02  1.992793E+03 -8.423847E+04 -1.126214E+03  1.637799E+02
        84   6  4.382884E+05  2.881672E+02  3.019613E+03 -1.264410E+05 -2.124053E+03 -1.090302E+04
        84   7  6.396997E+05  4.929506E+04  4.543624E+04 -1.266257E+05 -9.969434E+03  1.124763E+04
        84   8  4.414786E+05  9.487979E+02  2.690396E+03 -8.429071E+04 -1.096183E+04  1.763889E+02
        84   9  2.432463E+05 -4.719312E+04 -3.941736E+04 -1.263609E+05 -1.195397E+04 -1.089033E+04
        84  10  2.369149E+05 -4.875433E+04 -4.222071E+04 -1.262566E+05 -8.806619E-09 -8.524550E-10
        84  11  4.351457E+05 -5.964181E+02  1.295409E+03 -8.418623E+04 -1.111559E-09 -4.544196E-10
        84  12  6.333664E+05  4.776684E+04  4.545433E+04 -1.265211E+05  9.120799E-09  2.527591E-10
        84  13  4.382882E+05  2.716263E+02  1.608767E+03 -1.264411E+05 -1.118298E-09 -5.423935E-10
        84  14  4.383121E+05  1.761741E+02  1.992790E+03 -8.423847E+04 -3.243202E-09 -7.266589E-10
        84  15  4.382884E+05  2.880383E+02  3.019381E+03 -1.264410E+05  1.307144E-09  2.119388E-10
        84  16  6.396995E+05  4.929490E+04  4.543582E+04 -1.266256E+05  1.005032E-08 -1.073434E-09
        84  17  4.414785E+05  9.487656E+02  2.690171E+03 -8.429071E+04  1.612115E-09 -1.283172E-09
        84  18  2.432461E+05 -4.719328E+04 -3.941785E+04 -1.263610E+05 -7.630270E-09 -3.992062E-10
        84  19  2.369150E+05 -4.875417E+04 -4.222030E+04 -1.262565E+05 -9.709450E+03 -1.122230E+04
        84  20  4.351458E+05 -5.963978E+02  1.295552E+03 -8.418623E+04 -8.709356E+03 -1.511725E+02
        84  21  6.333665E+05  4.776698E+04  4.545467E+04 -1.265212E+05 -7.708911E+03  1.091572E+04
        84  22  4.382882E+05  2.717619E+02  1.609004E+03 -1.264411E+05  1.284177E+02 -1.123496E+04
        84  23  4.383121E+05  1.761744E+02  1.992793E+03 -8.423847E+04  1.126214E+03 -1.637799E+02
        84  24  4.382884E+05  2.881672E+02  3.019613E+03 -1.264410E+05  2.124053E+03  1.090302E+04
        84  25  6.396997E+05  4.929506E+04  4.543624E+04 -1.266257E+05  9.969434E+03 -1.124763E+04
        84  26  4.414786E+05  9.487979E+02  2.690396E+03 -8.429071E+04  1.096183E+04 -1.763889E+02
        84  27  2.432463E+05 -4.719312E+04 -3.941736E+04 -1.263609E+05  1.195397E+04  1.089033E+04
        85   1  7.979680E+05  8.804912E+04  8.364536E+04 -1.265961E+05  7.111728E+03 -1.736865E+04
        85   2  9.961631E+05  1.361232E+05  1.294393E+05 -8.443581E+04  3.809672E+03 -2.841876E+04
        85   3  1.194957E+06  1.849929E+05  1.775552E+05 -1.267607E+05  5.147689E+02 -3.937778E+04
        85   4  4.384008E+05  2.281951E+02  3.853283E+03 -1.264600E+05 -2.754472E+03 -1.735693E+04
        85   5  4.380924E+05  6.336751E+00  6.464751E+03 -8.421479E+04 -5.974234E+03 -2.841047E+04
        85   6  4.383356E+05  5.695891E+02  1.134517E+04 -1.264594E+05 -9.185816E+03 -3.937275E+04
        85   7  7.895422E+04 -8.760141E+04 -7.594647E+04 -1.263239E+05 -1.261503E+04 -1.734521E+04
        85   8 -1.196874E+05 -1.361314E+05 -1.165286E+05 -8.399387E+04 -1.574946E+04 -2.840219E+04
        85   9 -3.177508E+05 -1.838919E+05 -1.548995E+05 -1.261583E+05 -1.887473E+04 -3.936772E+04
        85  10  7.979679E+05  8.804879E+04  8.364470E+04 -1.265960E+05  1.372916E-09  2.690556E-10
        85  11  9.961628E+05  1.361223E+05  1.294378E+05 -8.443573E+04  2.804021E-09  3.332975E-10
        85  12  1.194956E+06  1.849912E+05  1.775523E+05 -1.267607E+05  1.214919E-09 -5.746589E-10
        85  13  4.384007E+05  2.278695E+02  3.852703E+03 -1.264600E+05  3.979114E-11  9.616217E-11
        85  14  4.380921E+05  5.460225E+00  6.463167E+03 -8.421492E+04 -4.988298E-10  2.747517E-10
        85  15  4.383351E+05  5.679013E+02  1.134210E+04 -1.264597E+05 -1.071420E-09 -4.230531E-10
        85  16  7.895397E+04 -8.760178E+04 -7.594733E+04 -1.263241E+05  1.862512E-10  4.534415E-10
        85  17 -1.196878E+05 -1.361323E+05 -1.165305E+05 -8.399423E+04 -2.076043E-09  3.784000E-10
        85  18 -3.177516E+05 -1.838937E+05 -1.549030E+05 -1.261589E+05 -1.778445E-09  2.274448E-10
        85  19  7.979680E+05  8.804912E+04  8.364536E+04 -1.265961E+05 -7.111728E+03  1.736865E+04
        85  20  9.961631E+05  1.361232E+05  1.294393E+05 -8.443581E+04 -3.809672E+03  2.841876E+04
        85  21  1.194957E+06  1.849929E+05  1.775552E+05 -1.267607E+05 -5.147689E+02  3.937778E+04
        85  22  4.384008E+05  2.281951E+02  3.853283E+03 -1.264600E+05  2.754472E+03  1.735693E+04
        85  23  4.380924E+05  6.336751E+00  6.464751E+03 -8.421479E+04  5.974234E+03  2.841047E+04
        85  24  4.383356E+05  5.695891E+02  1.134517E+04 -1.264594E+05  9.185816E+03  3.937275E+04
        85  25  7.895422E+04 -8.760141E+04 -7.594647E+04 -1.263239E+05  1.261503E+04  1.734521E+04
        85  26 -1.196874E+05 -1.361314E+05 -1.165286E+05 -8.399387E+04  1.574946E+04  2.840219E+04
        85  27 -3.177508E+05 -1.838919E+05 -1.548995E+05 -1.261583E+05  1.887473E+04  3.936772E+04
        86   1  1.360793E+06  2.242595E+05  2.183282E+05 -1.250046E+05 -1.132567E+03 -4.603584E+04
        86   2  1.557396E+06  2.726825E+05  2.725818E+05 -8.518958E+04 -1.591190E+04 -5.659046E+04
        86   3  1.759160E+06  3.321729E+05  3.392961E+05 -1.300059E+05 -3.068127E+04 -6.494930E+04
        86   4  4.392148E+05 -5.680188E+02  1.479214E+04 -1.264936E+05 -1.149476E+04 -4.603340E+04
        86   5  4.367528E+05 -6.089086E+02  2.547028E+04 -8.417236E+04 -2.430044E+04 -5.659542E+04
        86   6  4.390811E+05  1.008941E+04  4.725728E+04 -1.264910E+05 -3.709148E+04 -6.495980E+04
        86   7 -4.815711E+05 -2.254525E+05 -1.887959E+05 -1.279801E+05 -2.184176E+04 -4.603092E+04
        86   8 -6.827188E+05 -2.739846E+05 -2.217182E+05 -8.315683E+04 -3.267401E+04 -5.660041E+04
        86   9 -8.793739E+05 -3.121113E+05 -2.448891E+05 -1.229836E+05 -4.348818E+04 -6.497040E+04
        86  10  1.360792E+06  2.242572E+05  2.183243E+05 -1.250046E+05  1.123907E-10 -9.240610E-10
        86  11  1.557395E+06  2.726790E+05  2.725753E+05 -8.519030E+04  3.852877E-10 -3.647111E-10
        86  12  1.759158E+06  3.321681E+05  3.392864E+05 -1.300075E+05 -6.074786E-10 -7.801888E-11
        86  13  4.392141E+05 -5.703304E+02  1.478790E+04 -1.264940E+05 -4.340897E-11 -2.791393E-10
        86  14  4.367513E+05 -6.125074E+02  2.546315E+04 -8.417347E+04  1.949519E-11 -1.674325E-10
        86  15  4.390784E+05  1.008451E+04  4.724676E+04 -1.264930E+05 -4.361592E-10 -2.394342E-10
        86  16 -4.815722E+05 -2.254549E+05 -1.888008E+05 -1.279809E+05 -8.486555E-10 -7.076806E-11
        86  17 -6.827208E+05 -2.739883E+05 -2.217262E+05 -8.315832E+04  2.918473E-10  1.846309E-10
        86  18 -8.793771E+05 -3.121164E+05 -2.449006E+05 -1.229858E+05  4.756866E-10 -3.028981E-10
        86  19  1.360793E+06  2.242595E+05  2.183282E+05 -1.250046E+05  1.132567E+03  4.603584E+04
        86  20  1.557396E+06  2.726825E+05  2.725818E+05 -8.518958E+04  1.591190E+04  5.659046E+04
        86  21  1.759160E+06  3.321729E+05  3.392961E+05 -1.300059E+05  3.068127E+04  6.494930E+04
        86  22  4.392148E+05 -5.680188E+02  1.479214E+04 -1.264936E+05  1.149476E+04  4.603340E+04
        86  23  4.367528E+05 -6.089086E+02  2.547028E+04 -8.417236E+04  2.430044E+04  5.659542E+04
        86  24  4.390811E+05  1.008941E+04  4.725728E+04 -1.264910E+05  3.709148E+04  6.495980E+04
        86  25 -4.815711E+05 -2.254525E+05 -1.887959E+05 -1.279801E+05  2.184176E+04  4.603092E+04
        86  26 -6.827188E+05 -2.739846E+05 -2.217182E+05 -8.315683E+04  3.267401E+04  5.660041E+04
        86  27 -8.793739E+05 -3.121113E+05 -2.448891E+05 -1.229836E+05  4.348818E+04  6.497040E+04
        87   1  1.936472E+06  3.527062E+05  3.866369E+05 -9.892712E+04 -2.451720E+04 -7.597542E+04
        87   2  2.106964E+06  4.089275E+05  4.777021E+05 -1.132123E+05 -1.221374E+05 -7.496922E+04
        87   3  2.338020E+06  6.517470E+05  6.790942E+05 -2.107073E+05 -2.198745E+05 -2.439880E+04
        87   4  4.496984E+05 -9.711410E+03  5.938796E+04 -1.261186E+05 -4.556468E+04 -7.599462E+04
        87   5  4.230786E+05 -2.693412E+03  1.006631E+05 -8.462510E+04 -9.892946E+04 -7.496765E+04
        87   6  4.494691E+05  1.835163E+05  2.217365E+05 -1.263325E+05 -1.523740E+05 -2.433379E+04
        87   7 -1.035011E+06 -3.722742E+05 -2.679943E+05 -1.532444E+05 -6.656236E+04 -7.601200E+04
        87   8 -1.258170E+06 -4.145039E+05 -2.765525E+05 -5.611651E+04 -7.578341E+04 -7.496396E+04
        87   9 -1.435807E+06 -2.849458E+05 -2.358568E+05 -4.221523E+04 -8.507696E+04 -2.425042E+04
        87  10  1.936470E+06  3.526998E+05  3.866249E+05 -9.892862E+04 -6.239705E-10  3.129438E-10
        87  11  2.106947E+06  4.089175E+05  4.776636E+05 -1.132196E+05 -3.027160E-10  6.844523E-10
        87  12  2.337968E+06  6.517334E+05  6.790026E+05 -2.107116E+05  6.488136E-10 -1.025970E-12
        87  13  4.496947E+05 -9.718171E+03  5.937320E+04 -1.261214E+05  1.066646E-09  1.044637E-10
        87  14  4.230665E+05 -2.702074E+03  1.006342E+05 -8.463107E+04 -1.679265E-11  5.390696E-10
        87  15  4.494440E+05  1.835094E+05  2.216918E+05 -1.263355E+05 -5.079166E-10  3.704037E-10
        87  16 -1.035017E+06 -3.722816E+05 -2.680135E+05 -1.532485E+05 -2.285390E-10 -5.847310E-11
        87  17 -1.258178E+06 -4.145115E+05 -2.765739E+05 -5.612109E+04  2.405587E-10  1.091459E-09
        87  18 -1.435815E+06 -2.849484E+05 -2.358715E+05 -4.221690E+04 -9.850759E-10  3.312280E-10
        87  19  1.936472E+06  3.527062E+05  3.866369E+05 -9.892712E+04  2.451720E+04  7.597542E+04
        87  20  2.106964E+06  4.089275E+05  4.777021E+05 -1.132123E+05  1.221374E+05  7.496922E+04
        87  21  2.338020E+06  6.517470E+05  6.790942E+05 -2.107073E+05  2.198745E+05  2.439880E+04
        87  22  4.496984E+05 -9.711410E+03  5.938796E+04 -1.261186E+05  4.556468E+04  7.599462E+04
        87  23  4.230786E+05 -2.693412E+03  1.006631E+05 -8.462510E+04  9.892946E+04  7.496765E+04
        87  24  4.494691E+05  1.835163E+05  2.217365E+05 -1.263325E+05  1.523740E+05  2.433379E+04
        87  25 -1.035011E+06 -3.722742E+05 -2.679943E+05 -1.532444E+05  6.656236E+04  7.601200E+04
        87  26 -1.258170E+06 -4.145039E+05 -2.765525E+05 -5.611651E+04  7.578341E+04  7.496396E+04
        87  27 -1.435807E+06 -2.849458E+05 -2.358568E+05 -4.221523E+04  8.507696E+04  2.425042E+04
        88   1  1.926258E+04 -3.965546E+05  3.644992E+04 -1.389787E+05 -5.333338E+03  5.092462E+04
        88   2 -9.989801E+04 -5.700346E+05 -4.818561E+04 -7.981909E+04 -1.992604E+04  3.243651E+04
        88   3 -1.428468E+05 -7.226221E+05 -1.018852E+05 -9.020740E+04 -2.998294E+04  1.397449E+04
        88   4  7.957825E+04 -1.515226E+05  9.469468E+04 -1.029131E+05 -5.391033E+03  6.598024E+04
        88   5 -3.342296E+02 -1.623293E+05  4.231411E+04 -6.830265E+04 -1.996713E+04  4.345805E+04
        88   6 -3.357153E+03 -1.515701E+05  2.366837E+04 -1.032306E+05 -3.000745E+04  2.095770E+04
        88   7  1.398947E+05  9.356802E+04  1.529368E+05 -6.683305E+04 -5.446966E+03  8.104178E+04
        88   8  9.921892E+04  2.455318E+05  1.328040E+05 -5.677841E+04 -2.000780E+04  5.448676E+04
        88   9  1.361113E+05  4.197876E+05  1.492022E+05 -1.162656E+05 -3.003225E+04  2.794725E+04
        88  10  1.926185E+04 -3.965574E+05  3.644499E+04 -1.389785E+05  5.257989E-10  3.275753E-10
        88  11 -9.989872E+04 -5.700358E+05 -4.818833E+04 -7.981857E+04  1.797553E-09 -1.232675E-09
        88  12 -1.428479E+05 -7.226225E+05 -1.018872E+05 -9.020707E+04 -1.039069E-09 -1.777409E-09
        88  13  7.957705E+04 -1.515272E+05  9.468644E+04 -1.029128E+05 -3.093285E-10  6.787510E-11
        88  14 -3.351646E+02 -1.623314E+05  4.230981E+04 -6.830195E+04  1.575155E-09  9.265565E-11
        88  15 -3.358238E+03 -1.515708E+05  2.366586E+04 -1.032301E+05  6.490964E-10 -1.316898E-11
        88  16  1.398929E+05  9.356096E+04  1.529244E+05 -6.683270E+04 -4.142984E-11 -3.639698E-10
        88  17  9.921769E+04  2.455286E+05  1.327977E+05 -5.677753E+04 -5.403805E-10  1.031883E-09
        88  18  1.361101E+05  4.197865E+05  1.491991E+05 -1.162649E+05 -1.453215E-09  1.700295E-09
        88  19  1.926258E+04 -3.965546E+05  3.644992E+04 -1.389787E+05  5.333338E+03 -5.092462E+04
        88  20 -9.989801E+04 -5.700346E+05 -4.818561E+04 -7.981909E+04  1.992604E+04 -3.243651E+04
        88  21 -1.428468E+05 -7.226221E+05 -1.018852E+05 -9.020740E+04  2.998294E+04 -1.397449E+04
        88  22  7.957825E+04 -1.515226E+05  9.469468E+04 -1.029131E+05  5.391033E+03 -6.598024E+04
        88  23 -3.342296E+02 -1.623293E+05  4.231411E+04 -6.830265E+04  1.996713E+04 -4.345805E+04
        88  24 -3.357153E+03 -1.515701E+05  2.366837E+04 -1.032306E+05  3.000745E+04 -2.095770E+04
        88  25  1.398947E+05  9.356802E+04  1.529368E+05 -6.683305E+04  5.446966E+03 -8.104178E+04
        88  26  9.921892E+04  2.455318E+05  1.328040E+05 -5.677841E+04  2.000780E+04 -5.448676E+04
        88  27  1.361113E+05  4.197876E+05  1.492022E+05 -1.162656E+05  3.003225E+04 -2.794725E+04
        89   1 -1.674272E+05 -8.626292E+05 -1.385824E+05 -1.024298E+05 -3.502745E+04  8.863854E+03
        89   2 -2.122218E+05 -1.026054E+06 -1.853633E+05 -6.677677E+04 -4.395587E+04  7.197359E+03
        89   3 -2.539702E+05 -1.188747E+06 -2.303696E+05 -1.005464E+05 -5.092075E+04  5.547007E+03
        89   4  5.243222E+03 -1.561763E+05  1.790406E+04 -1.031112E+05 -3.505657E+04  1.767440E+04
        89   5  1.882573E+02 -1.567230E+05  6.723983E+03 -6.841406E+04 -4.397476E+04  1.426329E+04
        89   6 -1.516982E+03 -1.562600E+05 -1.467883E+03 -1.031334E+05 -5.093077E+04  1.086793E+04
        89   7  1.778800E+05  5.507434E+05  1.743599E+05 -1.037928E+05 -3.508568E+04  2.649485E+04
        89   8  2.125474E+05  7.133146E+05  1.987649E+05 -7.005306E+04 -4.399368E+04  2.133900E+04
        89   9  2.508642E+05  8.772240E+05  2.273678E+05 -1.057240E+05 -5.094083E+04  1.619760E+04
        89  10 -1.674285E+05 -8.626297E+05 -1.385848E+05 -1.024296E+05 -1.535523E-09  3.010064E-09
        89  11 -2.122239E+05 -1.026054E+06 -1.853671E+05 -6.677652E+04 -1.264062E-09 -2.621484E-09
        89  12 -2.539730E+05 -1.188748E+06 -2.303745E+05 -1.005461E+05 -4.697842E-10 -6.813112E-09
        89  13  5.241818E+03 -1.561769E+05  1.790116E+04 -1.031107E+05 -1.467207E-09  1.560092E-11
        89  14  1.861264E+02 -1.567238E+05  6.719968E+03 -6.841355E+04 -1.114820E-09  3.916425E-11
        89  15 -1.519799E+03 -1.562608E+05 -1.472979E+03 -1.031330E+05 -9.363359E-11  7.425607E-11
        89  16  1.778785E+05  5.507423E+05  1.743563E+05 -1.037921E+05 -2.011046E-09 -3.070465E-09
        89  17  2.125452E+05  7.133136E+05  1.987604E+05 -7.005230E+04 -7.633292E-10  2.712532E-09
        89  18  2.508614E+05  8.772230E+05  2.273624E+05 -1.057233E+05 -1.090402E-09  7.035510E-09
        89  19 -1.674272E+05 -8.626292E+05 -1.385824E+05 -1.024298E+05  3.502745E+04 -8.863854E+03
        89  20 -2.122218E+05 -1.026054E+06 -1.853633E+05 -6.677677E+04  4.395587E+04 -7.197359E+03
        89  21 -2.539702E+05 -1.188747E+06 -2.303696E+05 -1.005464E+05  5.092075E+04 -5.547007E+03
        89  22  5.243222E+03 -1.561763E+05  1.790406E+04 -1.031112E+05  3.505657E+04 -1.767440E+04
        89  23  1.882573E+02 -1.567230E+05  6.723983E+03 -6.841406E+04  4.397476E+04 -1.426329E+04
        89  24 -1.516982E+03 -1.562600E+05 -1.467883E+03 -1.031334E+05  5.093077E+04 -1.086793E+04
        89  25  1.778800E+05  5.507434E+05  1.743599E+05 -1.037928E+05  3.508568E+04 -2.649485E+04
        89  26  2.125474E+05  7.133146E+05  1.987649E+05 -7.005306E+04  4.399368E+04 -2.133900E+04
        89  27  2.508642E+05  8.772240E+05  2.273678E+05 -1.057240E+05  5.094083E+04 -1.619760E+04
        90   1 -2.834652E+05 -1.326703E+06 -2.627507E+05 -9.598973E+04 -5.978742E+04 -5.723557E+03
        90   2 -3.253617E+05 -1.483052E+06 -3.122658E+05 -7.120930E+04 -5.927711E+04  3.681157E+04
        90   3 -4.007930E+05 -1.653040E+06 -3.978345E+05 -1.141005E+05 -1.924017E+04  7.940513E+04
        90   4  2.034520E+03 -1.582303E+05 -4.939898E+03 -1.027189E+05 -5.982701E+04  1.125494E+04
        90   5  2.324870E+02 -1.545172E+05 -1.403058E+04 -6.891977E+04 -5.922565E+04  1.877864E+04
        90   6 -2.897976E+04 -1.583570E+05 -3.480966E+04 -1.027873E+05 -1.913431E+04  2.637361E+04
        90   7  2.874427E+05  1.011521E+06  2.527881E+05 -1.094599E+05 -5.986694E+04  2.826505E+04
        90   8  3.257062E+05  1.175664E+06  2.840939E+05 -6.662424E+04 -5.917439E+04  7.074181E+02
        90   9  3.426713E+05  1.338375E+06  3.280644E+05 -9.144569E+04 -1.903052E+04 -2.678554E+04
        90  10 -2.834691E+05 -1.326704E+06 -2.627575E+05 -9.599000E+04 -3.964483E-10  7.581981E-09
        90  11 -3.253658E+05 -1.483055E+06 -3.122749E+05 -7.120754E+04 -1.650234E-10  4.001506E-09
        90  12 -4.007951E+05 -1.653046E+06 -3.978471E+05 -1.140992E+05  4.157730E-10 -8.433648E-10
        90  13  2.030643E+03 -1.582314E+05 -4.946862E+03 -1.027184E+05 -8.307564E-10 -1.818728E-12
        90  14  2.286261E+02 -1.545185E+05 -1.403784E+04 -6.891887E+04 -1.018200E-09  8.423412E-11
        90  15 -2.898034E+04 -1.583579E+05 -3.481165E+04 -1.027869E+05  2.572604E-10  1.767049E-11
        90  16  2.874386E+05  1.011519E+06  2.527798E+05 -1.094586E+05 -3.485642E-10 -7.528973E-09
        90  17  3.257025E+05  1.175663E+06  2.840873E+05 -6.662421E+04 -3.149048E-10 -3.944444E-09
        90  18  3.426707E+05  1.338374E+06  3.280624E+05 -9.144610E+04 -1.301203E-10  7.520573E-10
        90  19 -2.834652E+05 -1.326703E+06 -2.627507E+05 -9.598973E+04  5.978742E+04  5.723557E+03
        90  20 -3.253617E+05 -1.483052E+06 -3.122658E+05 -7.120930E+04  5.927711E+04 -3.681157E+04
        90  21 -4.007930E+05 -1.653040E+06 -3.978345E+05 -1.141005E+05  1.924017E+04 -7.940513E+04
        90  22  2.034520E+03 -1.582303E+05 -4.939898E+03 -1.027189E+05  5.982701E+04 -1.125494E+04
        90  23  2.324870E+02 -1.545172E+05 -1.403058E+04 -6.891977E+04  5.922565E+04 -1.877864E+04
        90  24 -2.897976E+04 -1.583570E+05 -3.480966E+04 -1.027873E+05  1.913431E+04 -2.637361E+04
        90  25  2.874427E+05  1.011521E+06  2.527881E+05 -1.094599E+05  5.986694E+04 -2.826505E+04
        90  26  3.257062E+05  1.175664E+06  2.840939E+05 -6.662424E+04  5.917439E+04 -7.074181E+02
        90  27  3.426713E+05  1.338375E+06  3.280644E+05 -9.144569E+04  1.903052E+04  2.678554E+04
        91   1 -3.578988E+06 -1.325610E+06 -8.037942E+05 -1.270514E+06 -2.686082E+05 -7.156776E+04
        91   2 -3.440985E+06 -9.641408E+05 -5.591203E+05 -1.224412E+06 -1.765175E+05  2.779173E+04
        91   3 -3.360412E+06 -8.843655E+05 -4.635842E+05 -1.170349E+06 -6.410576E+04  7.367325E+04
        91   4 -1.770147E+06 -5.381579E+05 -2.987183E+05 -6.706679E+05 -2.002155E+05 -4.570474E+04
        91   5 -1.729400E+06 -2.876431E+05 -1.292462E+05 -7.177691E+05 -1.521694E+05  3.697019E+04
        91   6 -1.737059E+06 -3.096699E+05 -7.357846E+04 -7.569889E+05 -8.385754E+04  6.620039E+04
        91   7  4.189773E+04  2.498024E+05  2.060668E+05 -6.913064E+04 -1.316024E+05 -1.973002E+04
        91   8 -1.491229E+04  3.891464E+05  3.003970E+05 -2.098179E+05 -1.277473E+05  4.618008E+04
        91   9 -1.110880E+05  2.651445E+05  3.162388E+05 -3.426686E+05 -1.036659E+05  5.870886E+04
        91  10 -3.579067E+06 -1.325635E+06 -8.039403E+05 -1.270530E+06  2.639535E-10  2.228955E-11
        91  11 -3.441019E+06 -9.641500E+05 -5.591806E+05 -1.224408E+06  1.401652E-09  4.689691E-10
        91  12 -3.360418E+06 -8.843724E+05 -4.636021E+05 -1.170345E+06 -4.366708E-10  2.268707E-10
        91  13 -1.770191E+06 -5.381709E+05 -2.987978E+05 -6.706753E+05 -1.143477E-10  2.325354E-10
        91  14 -1.729425E+06 -2.876508E+05 -1.292923E+05 -7.177646E+05  2.269456E-09  4.800778E-10
        91  15 -1.737067E+06 -3.096765E+05 -7.359991E+04 -7.569844E+05  3.289796E-10  1.613346E-10
        91  16  4.187904E+04  2.497974E+05  2.060336E+05 -6.913273E+04 -4.258749E-11  3.215017E-10
        91  17 -1.493038E+04  3.891397E+05  3.003623E+05 -2.098132E+05 -3.977510E-10  3.974032E-10
        91  18 -1.111004E+05  2.651379E+05  3.162121E+05 -3.426637E+05  8.287676E-10 -2.184199E-10
        91  19 -3.578988E+06 -1.325610E+06 -8.037942E+05 -1.270514E+06  2.686082E+05  7.156776E+04
        91  20 -3.440985E+06 -9.641408E+05 -5.591203E+05 -1.224412E+06  1.765175E+05 -2.779173E+04
        91  21 -3.360412E+06 -8.843655E+05 -4.635842E+05 -1.170349E+06  6.410576E+04 -7.367325E+04
        91  22 -1.770147E+06 -5.381579E+05 -2.987183E+05 -6.706679E+05  2.002155E+05  4.570474E+04
        91  23 -1.729400E+06 -2.876431E+05 -1.292462E+05 -7.177691E+05  1.521694E+05 -3.697019E+04
        91  24 -1.737059E+06 -3.096699E+05 -7.357846E+04 -7.569889E+05  8.385754E+04 -6.620039E+04
        91  25  4.189773E+04  2.498024E+05  2.060668E+05 -6.913064E+04  1.316024E+05  1.973002E+04
        91  26 -1.491229E+04  3.891464E+05  3.003970E+05 -2.098179E+05  1.277473E+05 -4.618008E+04
        91  27 -1.110880E+05  2.651445E+05  3.162388E+05 -3.426686E+05  1.036659E+05 -5.870886E+04
        92   1 -3.197287E+06 -8.887005E+05 -4.199852E+05 -1.153191E+06 -6.683906E+04  6.083484E+04
        92   2 -3.073266E+06 -7.913793E+05 -3.542456E+05 -1.086157E+06 -4.742697E+04  6.172458E+04
        92   3 -2.907669E+06 -7.578243E+05 -3.053081E+05 -1.071043E+06 -2.707537E+04  6.008644E+04
        92   4 -1.726972E+06 -3.334924E+05 -5.847907E+04 -7.436651E+05 -7.052092E+04  5.942996E+04
        92   5 -1.746848E+06 -2.944631E+05 -2.997409E+04 -7.204455E+05 -5.316349E+04  5.955150E+04
        92   6 -1.724745E+06 -3.187633E+05 -1.660652E+04 -7.491497E+05 -3.487189E+04  5.714604E+04
        92   7 -2.545217E+05  2.218748E+05  3.028602E+05 -3.332505E+05 -7.421223E+04  5.802147E+04
        92   8 -4.186863E+05  2.025783E+05  2.941647E+05 -3.540190E+05 -5.891340E+04  5.737336E+04
        92   9 -5.404295E+05  1.203925E+05  2.719916E+05 -4.266966E+05 -4.268471E+04  5.419962E+04
        92  10 -3.197293E+06 -8.887057E+05 -4.200005E+05 -1.153188E+06 -6.841293E-10 -3.187960E-10
        92  11 -3.073270E+06 -7.913840E+05 -3.542569E+05 -1.086155E+06  6.418736E-10 -7.005528E-10
        92  12 -2.907671E+06 -7.578283E+05 -3.053163E+05 -1.071042E+06 -1.215736E-10 -8.271053E-10
        92  13 -1.726979E+06 -3.334975E+05 -5.849505E+04 -7.436617E+05  7.054953E-10 -3.718163E-10
        92  14 -1.746852E+06 -2.944676E+05 -2.998606E+04 -7.204429E+05 -3.174927E-10 -4.336017E-10
        92  15 -1.724747E+06 -3.187672E+05 -1.661494E+04 -7.491481E+05 -3.448976E-09 -2.567083E-10
        92  16 -2.545285E+05  2.218697E+05  3.028435E+05 -3.332471E+05  1.230963E-09 -5.330262E-10
        92  17 -4.186909E+05  2.025739E+05  2.941520E+05 -3.540163E+05 -5.463119E-10 -5.907780E-10
        92  18 -5.404323E+05  1.203889E+05  2.719827E+05 -4.266948E+05 -5.796417E-10  7.770473E-10
        92  19 -3.197287E+06 -8.887005E+05 -4.199852E+05 -1.153191E+06  6.683906E+04 -6.083484E+04
        92  20 -3.073266E+06 -7.913793E+05 -3.542456E+05 -1.086157E+06  4.742697E+04 -6.172458E+04
        92  21 -2.907669E+06 -7.578243E+05 -3.053081E+05 -1.071043E+06  2.707537E+04 -6.008644E+04
        92  22 -1.726972E+06 -3.334924E+05 -5.847907E+04 -7.436651E+05  7.052092E+04 -5.942996E+04
        92  23 -1.746848E+06 -2.944631E+05 -2.997409E+04 -7.204455E+05  5.316349E+04 -5.955150E+04
        92  24 -1.724745E+06 -3.187633E+05 -1.660652E+04 -7.491497E+05  3.487189E+04 -5.714604E+04
        92  25 -2.545217E+05  2.218748E+05  3.028602E+05 -3.332505E+05  7.421223E+04 -5.802147E+04
        92  26 -4.186863E+05  2.025783E+05  2.941647E+05 -3.540190E+05  5.891340E+04 -5.737336E+04
        92  27 -5.404295E+05  1.203925E+05  2.719916E+05 -4.266966E+05  4.268471E+04 -5.419962E+04
        93   1 -2.775656E+06 -7.127850E+05 -2.689144E+05 -1.036973E+06 -2.339887E+04  5.537773E+04
        93   2 -2.649485E+06 -6.302256E+05 -2.267084E+05 -9.669523E+05 -1.652468E+04  4.804555E+04
        93   3 -2.473743E+06 -5.985970E+05 -1.873526E+05 -9.539338E+05 -9.594992E+03  4.053081E+04
        93   4 -1.723621E+06 -3.204729E+05 -1.268513E+04 -7.485647E+05 -3.052943E+04  5.269169E+04
        93   5 -1.748284E+06 -2.944534E+05 -6.924777E+03 -7.202577E+05 -2.379955E+04  4.531055E+04
        93   6 -1.723374E+06 -3.193302E+05 -3.895773E+03 -7.489555E+05 -1.701523E+04  3.774674E+04
        93   7 -6.704885E+05  7.191575E+04  2.434613E+05 -4.597102E+05 -3.767320E+04  5.000070E+04
        93   8 -8.462816E+05  4.137383E+04  2.127973E+05 -4.732370E+05 -3.108596E+04  4.257124E+04
        93   9 -9.724510E+05 -4.002666E+04  1.795177E+05 -5.437523E+05 -2.444525E+04  3.495901E+04
        93  10 -2.775657E+06 -7.127884E+05 -2.689212E+05 -1.036972E+06 -3.655596E-10 -5.981072E-10
        93  11 -2.649486E+06 -6.302282E+05 -2.267132E+05 -9.669517E+05 -1.887831E-09 -7.839739E-10
        93  12 -2.473744E+06 -5.985988E+05 -1.873558E+05 -9.539335E+05 -2.732739E-11 -2.816890E-10
        93  13 -1.723622E+06 -3.204762E+05 -1.269209E+04 -7.485634E+05 -1.213138E-09 -5.658923E-10
        93  14 -1.748285E+06 -2.944557E+05 -6.929695E+03 -7.202569E+05  7.374718E-10 -6.304636E-10
        93  15 -1.723374E+06 -3.193318E+05 -3.898991E+03 -7.489550E+05 -1.599699E-09 -6.846304E-10
        93  16 -6.704907E+05  7.191269E+04  2.434540E+05 -4.597087E+05 -2.137665E-09  1.767647E-10
        93  17 -8.462831E+05  4.137163E+04  2.127921E+05 -4.732360E+05 -2.420531E-09 -1.122916E-09
        93  18 -9.724520E+05 -4.002813E+04  1.795143E+05 -5.437517E+05 -1.510089E-09 -4.068408E-10
        93  19 -2.775656E+06 -7.127850E+05 -2.689144E+05 -1.036973E+06  2.339887E+04 -5.537773E+04
        93  20 -2.649485E+06 -6.302256E+05 -2.267084E+05 -9.669523E+05  1.652468E+04 -4.804555E+04
        93  21 -2.473743E+06 -5.985970E+05 -1.873526E+05 -9.539338E+05  9.594992E+03 -4.053081E+04
        93  22 -1.723621E+06 -3.204729E+05 -1.268513E+04 -7.485647E+05  3.052943E+04 -5.269169E+04
        93  23 -1.748284E+06 -2.944534E+05 -6.924777E+03 -7.202577E+05  2.379955E+04 -4.531055E+04
        93  24 -1.723374E+06 -3.193302E+05 -3.895773E+03 -7.489555E+05  1.701523E+04 -3.774674E+04
        93  25 -6.704885E+05  7.191575E+04  2.434613E+05 -4.597102E+05  3.767320E+04 -5.000070E+04
        93  26 -8.462816E+05  4.137383E+04  2.127973E+05 -4.732370E+05  3.108596E+04 -4.257124E+04
        93  27 -9.724510E+05 -4.002666E+04  1.795177E+05 -5.437523E+05  2.444525E+04 -3.495901E+04
        94   1 -2.341117E+06 -5.494872E+05 -1.531538E+05 -9.180873E+05 -7.061588E+03  3.552692E+04
        94   2 -2.212680E+06 -4.667857E+05 -1.151009E+05 -8.468717E+05 -2.685548E+03  2.692237E+04
        94   3 -2.033503E+06 -4.349272E+05 -7.779635E+04 -8.339257E+05  1.699262E+03  1.827553E+04
        94   4 -1.723116E+06 -3.195898E+05 -3.044771E+03 -7.491172E+05 -1.449035E+04  3.274224E+04
        94   5 -1.748437E+06 -2.940706E+05 -1.959120E+03 -7.200069E+05 -1.014839E+04  2.412765E+04
        94   6 -1.723042E+06 -3.193878E+05 -1.595178E+03 -7.491729E+05 -5.797999E+03  1.547082E+04
        94   7 -1.104732E+06 -8.966430E+04  1.470374E+05 -5.799923E+05 -2.192726E+04  2.995451E+04
        94   8 -1.283981E+06 -1.213414E+05  1.111663E+05 -5.930560E+05 -1.761731E+04  2.133065E+04
        94   9 -1.412491E+06 -2.038434E+05  7.459772E+04 -6.643826E+05 -1.329926E+04  1.266462E+04
        94  10 -2.341118E+06 -5.494886E+05 -1.531563E+05 -9.180871E+05 -5.878163E-10 -9.340388E-13
        94  11 -2.212680E+06 -4.667864E+05 -1.151023E+05 -8.468716E+05  1.668268E-10  3.890830E-10
        94  12 -2.033503E+06 -4.349276E+05 -7.779698E+04 -8.339257E+05  1.813401E-10 -1.209957E-11
        94  13 -1.723117E+06 -3.195910E+05 -3.047178E+03 -7.491168E+05 -1.290281E-09  2.340221E-11
        94  14 -1.748437E+06 -2.940713E+05 -1.960406E+03 -7.200067E+05 -1.926674E-09  3.428035E-10
        94  15 -1.723043E+06 -3.193880E+05 -1.595691E+03 -7.491728E+05  5.608461E-10 -1.764679E-10
        94  16 -1.104733E+06 -8.966539E+04  1.470348E+05 -5.799918E+05 -8.045201E-10  9.129612E-11
        94  17 -1.283982E+06 -1.213419E+05  1.111649E+05 -5.930557E+05 -1.911608E-09  3.806211E-10
        94  18 -1.412491E+06 -2.038436E+05  7.459709E+04 -6.643824E+05 -1.695730E-09 -5.156629E-10
        94  19 -2.341117E+06 -5.494872E+05 -1.531538E+05 -9.180873E+05  7.061588E+03 -3.552692E+04
        94  20 -2.212680E+06 -4.667857E+05 -1.151009E+05 -8.468717E+05  2.685548E+03 -2.692237E+04
        94  21 -2.033503E+06 -4.349272E+05 -7.779635E+04 -8.339257E+05 -1.699262E+03 -1.827553E+04
        94  22 -1.723116E+06 -3.195898E+05 -3.044771E+03 -7.491172E+05  1.449035E+04 -3.274224E+04
        94  23 -1.748437E+06 -2.940706E+05 -1.959120E+03 -7.200069E+05  1.014839E+04 -2.412765E+04
        94  24 -1.723042E+06 -3.193878E+05 -1.595178E+03 -7.491729E+05  5.797999E+03 -1.547082E+04
        94  25 -1.104732E+06 -8.966430E+04  1.470374E+05 -5.799923E+05  2.192726E+04 -2.995451E+04
        94  26 -1.283981E+06 -1.213414E+05  1.111663E+05 -5.930560E+05  1.761731E+04 -2.133065E+04
        94  27 -1.412491E+06 -2.038434E+05  7.459772E+04 -6.643826E+05  1.329926E+04 -1.266462E+04
        95   1 -1.899524E+06 -3.850299E+05 -4.411535E+04 -7.975417E+05  3.953065E+03  1.311131E+04
        95   2 -1.770125E+06 -3.020160E+05 -7.491150E+03 -7.258930E+05  8.434917E+03  4.462402E+03
        95   3 -1.589846E+06 -2.701549E+05  2.828830E+04 -7.129184E+05  1.291595E+04 -4.184012E+03
        95   4 -1.722996E+06 -3.194546E+05 -1.648319E+03 -7.492588E+05 -3.559689E+03  1.030176E+04
        95   5 -1.748426E+06 -2.938939E+05 -2.195860E+03 -7.199099E+05  9.233336E+02  1.653313E+03
        95   6 -1.722997E+06 -3.194880E+05 -3.587783E+03 -7.492449E+05  5.405214E+03 -6.992661E+03
        95   7 -1.546436E+06 -2.538767E+05  4.081697E+04 -7.009630E+05 -1.107482E+04  7.491310E+03
        95   8 -1.726725E+06 -2.857717E+05  3.099702E+03 -7.139266E+05 -6.588618E+03 -1.155915E+03
        95   9 -1.856133E+06 -3.688207E+05 -3.546549E+04 -7.855649E+05 -2.103878E+03 -9.800699E+03
        95  10 -1.899524E+06 -3.850301E+05 -4.411570E+04 -7.975417E+05 -9.068865E-10 -1.051807E-09
        95  11 -1.770125E+06 -3.020161E+05 -7.491322E+03 -7.258930E+05 -2.596152E-10 -4.696856E-11
        95  12 -1.589847E+06 -2.701550E+05  2.828795E+04 -7.129183E+05 -8.794265E-10  3.534053E-10
        95  13 -1.722996E+06 -3.194548E+05 -1.648542E+03 -7.492588E+05  1.405582E-10 -1.449747E-10
        95  14 -1.748426E+06 -2.938939E+05 -2.195867E+03 -7.199099E+05  1.783781E-09  2.346127E-10
        95  15 -1.722997E+06 -3.194881E+05 -3.587930E+03 -7.492449E+05 -1.379107E-10  3.669910E-10
        95  16 -1.546436E+06 -2.538768E+05  4.081663E+04 -7.009630E+05  1.393610E-09  4.877301E-11
        95  17 -1.726726E+06 -2.857717E+05  3.099618E+03 -7.139266E+05  1.301803E-09  5.445056E-10
        95  18 -1.856133E+06 -3.688208E+05 -3.546568E+04 -7.855650E+05  7.622243E-11  4.580492E-10
        95  19 -1.899524E+06 -3.850299E+05 -4.411535E+04 -7.975417E+05 -3.953065E+03 -1.311131E+04
        95  20 -1.770125E+06 -3.020160E+05 -7.491150E+03 -7.258930E+05 -8.434917E+03 -4.462402E+03
        95  21 -1.589846E+06 -2.701549E+05  2.828830E+04 -7.129184E+05 -1.291595E+04  4.184012E+03
        95  22 -1.722996E+06 -3.194546E+05 -1.648319E+03 -7.492588E+05  3.559689E+03 -1.030176E+04
        95  23 -1.748426E+06 -2.938939E+05 -2.195860E+03 -7.199099E+05 -9.233336E+02 -1.653313E+03
        95  24 -1.722997E+06 -3.194880E+05 -3.587783E+03 -7.492449E+05 -5.405214E+03  6.992661E+03
        95  25 -1.546436E+06 -2.538767E+05  4.081697E+04 -7.009630E+05  1.107482E+04 -7.491310E+03
        95  26 -1.726725E+06 -2.857717E+05  3.099702E+03 -7.139266E+05  6.588618E+03  1.155915E+03
        95  27 -1.856133E+06 -3.688207E+05 -3.546549E+04 -7.855649E+05  2.103878E+03  9.800699E+03
        96   1 -1.455894E+06 -2.201702E+05  6.094269E+04 -6.765889E+05  1.558259E+04 -9.202974E+03
        96   2 -1.326995E+06 -1.373823E+05  9.429419E+04 -6.049622E+05  2.301195E+04 -1.669406E+04
        96   3 -1.148152E+06 -1.066035E+05  1.243274E+05 -5.915335E+05  3.040484E+04 -2.406751E+04
        96   4 -1.723178E+06 -3.193512E+05 -4.661483E+03 -7.492699E+05  8.057217E+03 -1.201786E+04
        96   5 -1.748232E+06 -2.939098E+05 -8.292563E+03 -7.199604E+05  1.557925E+04 -1.947681E+04
        96   6 -1.723383E+06 -3.204994E+05 -1.531566E+04 -7.488598E+05  2.306372E+04 -2.681842E+04
        96   7 -1.990387E+06 -4.185261E+05 -7.026981E+04 -8.219214E+05  5.354891E+02 -1.483139E+04
        96   8 -2.169290E+06 -4.504240E+05 -1.108914E+05 -8.348867E+05  8.152121E+03 -2.225748E+04
        96   9 -2.298285E+06 -5.343721E+05 -1.549829E+05 -9.060531E+05  1.573004E+04 -2.956654E+04
        96  10 -1.455895E+06 -2.201704E+05  6.094208E+04 -6.765888E+05  9.883435E-10  5.171664E-10
        96  11 -1.326996E+06 -1.373827E+05  9.429267E+04 -6.049619E+05  4.107458E-11 -5.698097E-10
        96  12 -1.148154E+06 -1.066043E+05  1.243246E+05 -5.915329E+05 -5.147789E-10 -1.472092E-10
        96  13 -1.723178E+06 -3.193514E+05 -4.661876E+03 -7.492698E+05 -8.033812E-10 -2.002187E-10
        96  14 -1.748233E+06 -2.939103E+05 -8.293731E+03 -7.199602E+05 -2.027021E-09 -4.993859E-11
        96  15 -1.723384E+06 -3.205003E+05 -1.531801E+04 -7.488593E+05  2.901298E-10 -8.133826E-11
        96  16 -1.990387E+06 -4.185264E+05 -7.027022E+04 -8.219214E+05 -3.803074E-10 -3.750771E-11
        96  17 -2.169291E+06 -4.504245E+05 -1.108925E+05 -8.348865E+05  1.049991E-09 -8.796785E-10
        96  18 -2.298285E+06 -5.343731E+05 -1.549850E+05 -9.060527E+05  1.291515E-09  5.739803E-10
        96  19 -1.455894E+06 -2.201702E+05  6.094269E+04 -6.765889E+05 -1.558259E+04  9.202974E+03
        96  20 -1.326995E+06 -1.373823E+05  9.429419E+04 -6.049622E+05 -2.301195E+04  1.669406E+04
        96  21 -1.148152E+06 -1.066035E+05  1.243274E+05 -5.915335E+05 -3.040484E+04  2.406751E+04
        96  22 -1.723178E+06 -3.193512E+05 -4.661483E+03 -7.492699E+05 -8.057217E+03  1.201786E+04
        96  23 -1.748232E+06 -2.939098E+05 -8.292563E+03 -7.199604E+05 -1.557925E+04  1.947681E+04
        96  24 -1.723383E+06 -3.204994E+05 -1.531566E+04 -7.488598E+05 -2.306372E+04  2.681842E+04
        96  25 -1.990387E+06 -4.185261E+05 -7.026981E+04 -8.219214E+05 -5.354891E+02  1.483139E+04
        96  26 -2.169290E+06 -4.504240E+05 -1.108914E+05 -8.348867E+05 -8.152121E+03  2.225748E+04
        96  27 -2.298285E+06 -5.343721E+05 -1.549829E+05 -9.060531E+05 -1.573004E+04  2.956654E+04
        97   1 -1.014537E+06 -5.730765E+04  1.528467E+05 -5.586570E+05  3.578592E+04 -2.821198E+04
        97   2 -8.883181E+05  2.767833E+04  1.733596E+05 -4.832802E+05  5.577994E+04 -3.041282E+04
        97   3 -7.204834E+05  4.501125E+04  1.766712E+05 -4.611478E+05  7.506483E+04 -3.067801E+04
        97   4 -1.724579E+06 -3.186288E+05 -2.008325E+04 -7.498084E+05  2.791536E+04 -3.116348E+04
        97   5 -1.746505E+06 -2.934321E+05 -3.615618E+04 -7.199016E+05  4.948763E+04 -3.277811E+04
        97   6 -1.727165E+06 -3.362292E+05 -7.070354E+04 -7.432554E+05  7.034588E+04 -3.245758E+04
        97   7 -2.434125E+06 -5.799198E+05 -1.930517E+05 -9.407629E+05  2.005459E+04 -3.411142E+04
        97   8 -2.603965E+06 -6.144910E+05 -2.457279E+05 -9.562250E+05  4.320477E+04 -3.513983E+04
        97   9 -2.732844E+06 -7.173915E+05 -3.181555E+05 -1.024943E+06  6.563522E+04 -3.423394E+04
        97  10 -1.014539E+06 -5.730885E+04  1.528428E+05 -5.586562E+05  2.177918E-11  5.666521E-10
        97  11 -8.883217E+05  2.767650E+04  1.733521E+05 -4.832789E+05 -5.210554E-10  6.419153E-10
        97  12 -7.204897E+05  4.500873E+04  1.766588E+05 -4.611459E+05 -8.346223E-10 -2.208840E-11
        97  13 -1.724580E+06 -3.186300E+05 -2.008654E+04 -7.498077E+05 -1.664516E-09  5.867247E-10
        97  14 -1.746508E+06 -2.934339E+05 -3.616280E+04 -7.199003E+05 -9.029491E-10  3.873409E-10
        97  15 -1.727170E+06 -3.362316E+05 -7.071483E+04 -7.432536E+05 -2.014720E-09 -7.050341E-12
        97  16 -2.434126E+06 -5.799212E+05 -1.930546E+05 -9.407624E+05  1.315253E-10  2.254483E-10
        97  17 -2.603968E+06 -6.144928E+05 -2.457338E+05 -9.562237E+05 -3.993606E-10  1.660779E-10
        97  18 -2.732849E+06 -7.173939E+05 -3.181658E+05 -1.024941E+06  4.500551E-10  1.309489E-10
        97  19 -1.014537E+06 -5.730765E+04  1.528467E+05 -5.586570E+05 -3.578592E+04  2.821198E+04
        97  20 -8.883181E+05  2.767833E+04  1.733596E+05 -4.832802E+05 -5.577994E+04  3.041282E+04
        97  21 -7.204834E+05  4.501125E+04  1.766712E+05 -4.611478E+05 -7.506483E+04  3.067801E+04
        97  22 -1.724579E+06 -3.186288E+05 -2.008325E+04 -7.498084E+05 -2.791536E+04  3.116348E+04
        97  23 -1.746505E+06 -2.934321E+05 -3.615618E+04 -7.199016E+05 -4.948763E+04  3.277811E+04
        97  24 -1.727165E+06 -3.362292E+05 -7.070354E+04 -7.432554E+05 -7.034588E+04  3.245758E+04
        97  25 -2.434125E+06 -5.799198E+05 -1.930517E+05 -9.407629E+05 -2.005459E+04  3.411142E+04
        97  26 -2.603965E+06 -6.144910E+05 -2.457279E+05 -9.562250E+05 -4.320477E+04  3.513983E+04
        97  27 -2.732844E+06 -7.173915E+05 -3.181555E+05 -1.024943E+06 -6.563522E+04  3.423394E+04
        98   1 -5.685728E+05  8.884841E+04  1.887510E+05 -4.795721E+05  1.024172E+05 -3.099842E+04
        98   2 -4.691273E+05  2.259976E+05  1.615793E+05 -3.289998E+05  1.522440E+05 -1.218410E+04
        98   3 -4.292251E+05  4.704070E+04  2.374089E+04 -1.616834E+05  1.865590E+05  4.784927E+04
        98   4 -1.739081E+06 -3.077129E+05 -8.897997E+04 -7.597703E+05  8.525770E+04 -3.744788E+04
        98   5 -1.725597E+06 -2.844640E+05 -1.561356E+05 -7.161462E+05  1.691753E+05 -5.835856E+03
        98   6 -1.778675E+06 -5.844809E+05 -3.612065E+05 -6.557454E+05  2.375517E+05  6.701613E+04
        98   7 -2.908229E+06 -7.042344E+05 -3.668047E+05 -1.039511E+06  6.813355E+04 -4.388685E+04
        98   8 -2.980499E+06 -7.947364E+05 -4.739756E+05 -1.102550E+06  1.860690E+05  4.953515E+02
        98   9 -3.126316E+06 -1.215588E+06 -7.463168E+05 -1.148738E+06  2.884224E+05  8.611169E+04
        98  10 -5.685843E+05  8.884456E+04  1.887295E+05 -4.795695E+05  4.812884E-10 -5.933692E-10
        98  11 -4.691523E+05  2.259912E+05  1.615355E+05 -3.289983E+05  9.668151E-10 -1.160690E-09
        98  12 -4.292631E+05  4.702889E+04  2.367112E+04 -1.616906E+05 -6.800671E-11 -1.032681E-09
        98  13 -1.739089E+06 -3.077164E+05 -8.899628E+04 -7.597678E+05  4.370637E-10 -4.032134E-10
        98  14 -1.725627E+06 -2.844718E+05 -1.561896E+05 -7.161454E+05  4.702807E-11 -1.004006E-09
        98  15 -1.778736E+06 -5.845009E+05 -3.613214E+05 -6.557582E+05  3.012595E-10 -2.196648E-10
        98  16 -2.908235E+06 -7.042378E+05 -3.668171E+05 -1.039509E+06 -9.640024E-10 -7.076993E-11
        98  17 -2.980537E+06 -7.947458E+05 -4.740409E+05 -1.102550E+06 -1.182748E-09 -4.617115E-11
        98  18 -3.126408E+06 -1.215618E+06 -7.464881E+05 -1.148758E+06  3.717843E-10  3.931850E-10
        98  19 -5.685728E+05  8.884841E+04  1.887510E+05 -4.795721E+05 -1.024172E+05  3.099842E+04
        98  20 -4.691273E+05  2.259976E+05  1.615793E+05 -3.289998E+05 -1.522440E+05  1.218410E+04
        98  21 -4.292251E+05  4.704070E+04  2.374089E+04 -1.616834E+05 -1.865590E+05 -4.784927E+04
        98  22 -1.739081E+06 -3.077129E+05 -8.897997E+04 -7.597703E+05 -8.525770E+04  3.744788E+04
        98  23 -1.725597E+06 -2.844640E+05 -1.561356E+05 -7.161462E+05 -1.691753E+05  5.835856E+03
        98  24 -1.778675E+06 -5.844809E+05 -3.612065E+05 -6.557454E+05 -2.375517E+05 -6.701613E+04
        98  25 -2.908229E+06 -7.042344E+05 -3.668047E+05 -1.039511E+06 -6.813355E+04  4.388685E+04
        98  26 -2.980499E+06 -7.947364E+05 -4.739756E+05 -1.102550E+06 -1.860690E+05 -4.953515E+02
        98  27 -3.126316E+06 -1.215588E+06 -7.463168E+05 -1.148738E+06 -2.884224E+05 -8.611169E+04
        99   1 -1.277651E+06 -2.126974E+05 -1.820868E+05 -1.656074E+04  4.415907E+04  1.705115E+04
        99   2 -1.185127E+06 -2.935346E+05 -2.067500E+05 -2.819987E+04  4.213994E+04  5.344649E+04
        99   3 -1.066000E+06 -2.717927E+05 -2.043387E+05 -8.340505E+04  4.017800E+04  5.590248E+04
        99   4  2.260337E+04  1.104202E+05  1.333590E+05 -6.681353E+04  9.160859E+04  1.712303E+04
        99   5  6.751541E+03 -1.580764E+03  6.054720E+04 -4.495572E+04  5.944828E+04  5.345958E+04
        99   6  2.267404E+04 -5.876911E+03  3.570314E+04 -6.665627E+04  2.734771E+04  5.588579E+04
        99   7  1.324414E+06  4.334247E+05  4.486928E+05 -1.171726E+05  1.391572E+05  1.718715E+04
        99   8  1.199956E+06  2.902774E+05  3.277558E+05 -6.174450E+04  7.678948E+04  5.347172E+04
        99   9  1.112458E+06  2.599604E+05  2.756730E+05 -4.987790E+04  1.449513E+04  5.586843E+04
        99  10 -1.277653E+06 -2.126982E+05 -1.820911E+05 -1.656134E+04 -9.397575E-10 -4.367075E-11
        99  11 -1.185130E+06 -2.935382E+05 -2.067587E+05 -2.820168E+04  1.438095E-09 -9.534374E-10
        99  12 -1.066002E+06 -2.717965E+05 -2.043476E+05 -8.340687E+04 -1.334109E-09  1.230410E-11
        99  13  2.259428E+04  1.104177E+05  1.333427E+05 -6.681480E+04 -7.505522E-12 -5.546155E-10
        99  14  6.746979E+03 -1.584782E+03  6.053519E+04 -4.495828E+04 -5.381016E-10 -3.860726E-10
        99  15  2.267240E+04 -5.880466E+03  3.569586E+04 -6.665751E+04 -3.206162E-09 -4.096171E-10
        99  16  1.324394E+06  4.334192E+05  4.486560E+05 -1.171745E+05  8.695365E-12  7.318245E-10
        99  17  1.199949E+06  2.902727E+05  3.277393E+05 -6.174780E+04 -2.490244E-09 -3.267492E-10
        99  18  1.112457E+06  2.599569E+05  2.756667E+05 -4.987856E+04 -1.867894E-09 -6.056888E-10
        99  19 -1.277651E+06 -2.126974E+05 -1.820868E+05 -1.656074E+04 -4.415907E+04 -1.705115E+04
        99  20 -1.185127E+06 -2.935346E+05 -2.067500E+05 -2.819987E+04 -4.213994E+04 -5.344649E+04
        99  21 -1.066000E+06 -2.717927E+05 -2.043387E+05 -8.340505E+04 -4.017800E+04 -5.590248E+04
        99  22  2.260337E+04  1.104202E+05  1.333590E+05 -6.681353E+04 -9.160859E+04 -1.712303E+04
        99  23  6.751541E+03 -1.580764E+03  6.054720E+04 -4.495572E+04 -5.944828E+04 -5.345958E+04
        99  24  2.267404E+04 -5.876911E+03  3.570314E+04 -6.665627E+04 -2.734771E+04 -5.588579E+04
        99  25  1.324414E+06  4.334247E+05  4.486928E+05 -1.171726E+05 -1.391572E+05 -1.718715E+04
        99  26  1.199956E+06  2.902774E+05  3.277558E+05 -6.174450E+04 -7.678948E+04 -5.347172E+04
        99  27  1.112458E+06  2.599604E+05  2.756730E+05 -4.987790E+04 -1.449513E+04 -5.586843E+04
       100   1 -9.842310E+05 -2.385533E+05 -1.933400E+05 -6.529552E+04  2.512200E+04  4.935219E+04
       100   2 -8.801771E+05 -2.190674E+05 -1.823625E+05 -4.430012E+04  1.879080E+04  4.533837E+04
       100   3 -7.733928E+05 -1.933932E+05 -1.656313E+05 -6.817479E+04  1.245303E+04  3.981207E+04
       100   4  1.630978E+04  6.020645E+03  2.841496E+04 -6.698830E+04  2.226047E+04  4.934457E+04
       100   5  1.486276E+04 -4.317933E+02  1.530510E+04 -4.455417E+04  1.457641E+04  4.533222E+04
       100   6  1.636446E+04 -4.662960E+02  8.881326E+03 -6.698587E+04  6.886819E+03  3.980840E+04
       100   7  1.017786E+06  2.505270E+05  2.501079E+05 -6.868394E+04  1.939436E+04  4.933698E+04
       100   8  9.106518E+05  2.181499E+05  2.129234E+05 -4.480863E+04  1.035600E+04  4.532608E+04
       100   9  8.067050E+05  1.924186E+05  1.833556E+05 -6.579539E+04  1.313603E+03  3.980471E+04
       100  10 -9.842324E+05 -2.385561E+05 -1.933458E+05 -6.529652E+04 -1.306453E-09  6.261517E-10
       100  11 -8.801780E+05 -2.190697E+05 -1.823670E+05 -4.430081E+04  9.461340E-10  9.079549E-10
       100  12 -7.733934E+05 -1.933949E+05 -1.656346E+05 -6.817519E+04  2.607908E-09  7.212382E-11
       100  13  1.630860E+04  6.017897E+03  2.840945E+04 -6.698919E+04 -3.235271E-09 -2.391726E-10
       100  14  1.486198E+04 -4.340571E+02  1.530084E+04 -4.455470E+04 -2.147904E-09  6.091875E-10
       100  15  1.636399E+04 -4.680105E+02  8.878259E+03 -6.698609E+04 -1.338158E-09 -5.467681E-12
       100  16  1.017785E+06  2.505243E+05  2.501026E+05 -6.868471E+04 -6.862173E-10 -3.405687E-10
       100  17  9.106512E+05  2.181477E+05  2.129194E+05 -4.480901E+04 -5.128528E-10  3.532387E-10
       100  18  8.067045E+05  1.924169E+05  1.833526E+05 -6.579543E+04 -1.342732E-09  3.995361E-10
       100  19 -9.842310E+05 -2.385533E+05 -1.933400E+05 -6.529552E+04 -2.512200E+04 -4.935219E+04
       100  20 -8.801771E+05 -2.190674E+05 -1.823625E+05 -4.430012E+04 -1.879080E+04 -4.533837E+04
       100  21 -7.733928E+05 -1.933932E+05 -1.656313E+05 -6.817479E+04 -1.245303E+04 -3.981207E+04
       100  22  1.630978E+04  6.020645E+03  2.841496E+04 -6.698830E+04 -2.226047E+04 -4.934457E+04
       100  23  1.486276E+04 -4.317933E+02  1.530510E+04 -4.455417E+04 -1.457641E+04 -4.533222E+04
       100  24  1.636446E+04 -4.662960E+02  8.881326E+03 -6.698587E+04 -6.886819E+03 -3.980840E+04
       100  25  1.017786E+06  2.505270E+05  2.501079E+05 -6.868394E+04 -1.939436E+04 -4.933698E+04
       100  26  9.106518E+05  2.181499E+05  2.129234E+05 -4.480863E+04 -1.035600E+04 -4.532608E+04
       100  27  8.067050E+05  1.924186E+05  1.833556E+05 -6.579539E+04 -1.313603E+03 -3.980471E+04
       101   1 -6.864479E+05 -1.712375E+05 -1.478793E+05 -6.703373E+04  1.062713E+04  3.624155E+04
       101   2 -5.812694E+05 -1.458593E+05 -1.278165E+05 -4.451948E+04  8.773919E+03  3.043083E+04
       101   3 -4.756296E+05 -1.200685E+05 -1.064187E+05 -6.691926E+04  6.915803E+03  2.455311E+04
       101   4  1.584137E+04  2.156884E+02  6.810607E+03 -6.699663E+04  5.505120E+03  3.623931E+04
       101   5  1.562921E+04 -1.023046E+02  3.864489E+03 -4.454099E+04  3.590084E+03  3.043043E+04
       101   6  1.587796E+04  3.330739E+00  2.295297E+03 -6.699676E+04  1.670448E+03  2.455461E+04
       101   7  7.185921E+05  1.716357E+05  1.614704E+05 -6.695944E+04  3.773799E+02  3.623707E+04
       101   8  6.128610E+05  1.456307E+05  1.355236E+05 -4.456248E+04 -1.598682E+03  3.043003E+04
       101   9  5.076113E+05  1.200589E+05  1.109945E+05 -6.707428E+04 -3.579015E+03  2.455612E+04
       101  10 -6.864483E+05 -1.712389E+05 -1.478820E+05 -6.703404E+04  7.793765E-10 -3.963823E-10
       101  11 -5.812697E+05 -1.458603E+05 -1.278183E+05 -4.451969E+04 -3.218376E-09 -1.352541E-10
       101  12 -4.756298E+05 -1.200691E+05 -1.064199E+05 -6.691939E+04 -4.730891E-09 -2.485404E-10
       101  13  1.584099E+04  2.142700E+02  6.808082E+03 -6.699679E+04 -2.893781E-13  1.314177E-11
       101  14  1.562895E+04 -1.033025E+02  3.862724E+03 -4.454108E+04  1.073751E-09  1.224015E-10
       101  15  1.587779E+04  2.682539E+00  2.294159E+03 -6.699679E+04  1.245032E-10 -9.917347E-12
       101  16  7.185917E+05  1.716343E+05  1.614679E+05 -6.695945E+04 -1.884781E-09  2.793287E-10
       101  17  6.128608E+05  1.456297E+05  1.355219E+05 -4.456244E+04  3.268287E-09  9.803716E-11
       101  18  5.076112E+05  1.200582E+05  1.109933E+05 -6.707420E+04  5.681836E-09 -9.567385E-10
       101  19 -6.864479E+05 -1.712375E+05 -1.478793E+05 -6.703373E+04 -1.062713E+04 -3.624155E+04
       101  20 -5.812694E+05 -1.458593E+05 -1.278165E+05 -4.451948E+04 -8.773919E+03 -3.043083E+04
       101  21 -4.756296E+05 -1.200685E+05 -1.064187E+05 -6.691926E+04 -6.915803E+03 -2.455311E+04
       101  22  1.584137E+04  2.156884E+02  6.810607E+03 -6.699663E+04 -5.505120E+03 -3.623931E+04
       101  23  1.562921E+04 -1.023046E+02  3.864489E+03 -4.454099E+04 -3.590084E+03 -3.043043E+04
       101  24  1.587796E+04  3.330739E+00  2.295297E+03 -6.699676E+04 -1.670448E+03 -2.455461E+04
       101  25  7.185921E+05  1.716357E+05  1.614704E+05 -6.695944E+04 -3.773799E+02 -3.623707E+04
       101  26  6.128610E+05  1.456307E+05  1.355236E+05 -4.456248E+04  1.598682E+03 -3.043003E+04
       101  27  5.076113E+05  1.200589E+05  1.109945E+05 -6.707428E+04  3.579015E+03 -2.455612E+04
       102   1 -3.882551E+05 -9.855542E+04 -8.704023E+04 -6.687027E+04  6.525840E+03  2.111669E+04
       102   2 -2.828705E+05 -7.288807E+04 -6.471657E+04 -4.442115E+04  5.956075E+03  1.522740E+04
       102   3 -1.774197E+05 -4.714014E+04 -4.201160E+04 -6.687962E+04  5.383915E+03  9.335313E+03
       102   4  1.580622E+04  4.075161E+01  1.787317E+03 -6.699559E+04  1.299908E+03  2.111906E+04
       102   5  1.578651E+04  2.724717E+01  1.153902E+03 -4.454244E+04  7.269696E+02  1.523068E+04
       102   6  1.582453E+04  9.589952E+01  9.045782E+02 -6.699558E+04  1.517310E+02  9.339552E+03
       102   7  4.200204E+05  9.862600E+04  9.060499E+04 -6.712096E+04 -3.929387E+03  2.112143E+04
       102   8  3.145270E+05  7.293659E+04  6.701900E+04 -4.466378E+04 -4.504623E+03  1.523397E+04
       102   9  2.091037E+05  4.732943E+04  4.381854E+04 -6.711156E+04 -5.082064E+03  9.343792E+03
       102  10 -3.882553E+05 -9.855591E+04 -8.704114E+04 -6.687038E+04  9.097029E-09 -1.230002E-10
       102  11 -2.828706E+05 -7.288833E+04 -6.471707E+04 -4.442122E+04  3.054463E-09 -4.051890E-11
       102  12 -1.774198E+05 -4.714024E+04 -4.201182E+04 -6.687966E+04 -1.553009E-09  4.178669E-10
       102  13  1.580610E+04  4.027221E+01  1.786475E+03 -6.699561E+04 -1.072173E-09 -1.285399E-09
       102  14  1.578645E+04  2.699793E+01  1.153465E+03 -4.454245E+04 -1.619057E-09 -2.627579E-10
       102  15  1.582451E+04  9.580585E+01  9.044142E+02 -6.699558E+04  1.601250E-09  2.922453E-10
       102  16  4.200203E+05  9.862551E+04  9.060412E+04 -6.712089E+04 -9.840070E-09 -1.259039E-09
       102  17  3.145269E+05  7.293633E+04  6.701852E+04 -4.466373E+04 -3.226105E-09 -8.102777E-10
       102  18  2.091037E+05  4.732933E+04  4.381832E+04 -6.711152E+04  1.567099E-09 -1.100489E-10
       102  19 -3.882551E+05 -9.855542E+04 -8.704023E+04 -6.687027E+04 -6.525840E+03 -2.111669E+04
       102  20 -2.828705E+05 -7.288807E+04 -6.471657E+04 -4.442115E+04 -5.956075E+03 -1.522740E+04
       102  21 -1.774197E+05 -4.714014E+04 -4.201160E+04 -6.687962E+04 -5.383915E+03 -9.335313E+03
       102  22  1.580622E+04  4.075161E+01  1.787317E+03 -6.699559E+04 -1.299908E+03 -2.111906E+04
       102  23  1.578651E+04  2.724717E+01  1.153902E+03 -4.454244E+04 -7.269696E+02 -1.523068E+04
       102  24  1.582453E+04  9.589952E+01  9.045782E+02 -6.699558E+04 -1.517310E+02 -9.339552E+03
       102  25  4.200204E+05  9.862600E+04  9.060499E+04 -6.712096E+04  3.929387E+03 -2.112143E+04
       102  26  3.145270E+05  7.293659E+04  6.701900E+04 -4.466378E+04  4.504623E+03 -1.523397E+04
       102  27  2.091037E+05  4.732943E+04  4.381854E+04 -6.711156E+04  5.082064E+03 -9.343792E+03
       103   1 -8.996058E+04 -2.566529E+04 -2.214736E+04 -6.693076E+04  5.218524E+03  5.905402E+03
       103   2  1.546470E+04 -2.697768E+01  9.704611E+02 -4.451861E+04  4.694454E+03  1.435915E+01
       103   3  1.209064E+05  2.569670E+04  2.442972E+04 -6.701368E+04  4.170289E+03 -5.874446E+03
       103   4  1.581858E+04  9.743863E+01  8.818883E+02 -6.699579E+04 -1.377214E+01  5.909933E+03
       103   5  1.581653E+04  5.889942E+01  1.047750E+03 -4.454218E+04 -5.363105E+02  1.886884E+01
       103   6  1.581860E+04  1.057250E+02  1.553944E+03 -6.699577E+04 -1.058858E+03 -5.869916E+03
       103   7  1.216083E+05  2.585944E+04  2.391057E+04 -6.706082E+04 -5.246948E+03  5.914464E+03
       103   8  1.616841E+04  1.447912E+02  1.125141E+03 -4.456574E+04 -5.767078E+03  2.337892E+01
       103   9 -8.925882E+04 -2.548597E+04 -2.132240E+04 -6.697786E+04 -6.287131E+03 -5.865386E+03
       103  10 -8.996062E+04 -2.566534E+04 -2.214748E+04 -6.693078E+04  2.930878E-10  1.154565E-09
       103  11  1.546467E+04 -2.698359E+01  9.704197E+02 -4.451861E+04  1.127252E-09  1.699603E-09
       103  12  1.209064E+05  2.569666E+04  2.442963E+04 -6.701366E+04  6.955968E-10 -4.646855E-10
       103  13  1.581857E+04  9.740112E+01  8.818227E+02 -6.699578E+04 -1.076315E-09  5.621720E-10
       103  14  1.581653E+04  5.889935E+01  1.047749E+03 -4.454218E+04  4.467158E-12 -4.298448E-10
       103  15  1.581859E+04  1.056877E+02  1.553877E+03 -6.699577E+04 -1.437270E-11  2.000296E-10
       103  16  1.216082E+05  2.585940E+04  2.391045E+04 -6.706080E+04 -1.929230E-10  4.976519E-10
       103  17  1.616838E+04  1.447823E+02  1.125079E+03 -4.456574E+04  9.091772E-10 -6.285307E-10
       103  18 -8.925887E+04 -2.548602E+04 -2.132253E+04 -6.697789E+04 -8.799600E-10  1.244868E-10
       103  19 -8.996058E+04 -2.566529E+04 -2.214736E+04 -6.693076E+04 -5.218524E+03 -5.905402E+03
       103  20  1.546470E+04 -2.697768E+01  9.704611E+02 -4.451861E+04 -4.694454E+03 -1.435915E+01
       103  21  1.209064E+05  2.569670E+04  2.442972E+04 -6.701368E+04 -4.170289E+03  5.874446E+03
       103  22  1.581858E+04  9.743863E+01  8.818883E+02 -6.699579E+04  1.377214E+01 -5.909933E+03
       103  23  1.581653E+04  5.889942E+01  1.047750E+03 -4.454218E+04  5.363105E+02 -1.886884E+01
       103  24  1.581860E+04  1.057250E+02  1.553944E+03 -6.699577E+04  1.058858E+03  5.869916E+03
       103  25  1.216083E+05  2.585944E+04  2.391057E+04 -6.706082E+04  5.246948E+03 -5.914464E+03
       103  26  1.616841E+04  1.447912E+02  1.125141E+03 -4.456574E+04  5.767078E+03 -2.337892E+01
       103  27 -8.925882E+04 -2.548597E+04 -2.132240E+04 -6.697786E+04  6.287131E+03  5.865386E+03
       104   1  2.084486E+05  4.713801E+04  4.472927E+04 -6.701589E+04  3.864533E+03 -9.307977E+03
       104   2  3.137620E+05  7.273463E+04  6.901298E+04 -4.460678E+04  2.177782E+03 -1.518530E+04
       104   3  4.193653E+05  9.872261E+04  9.448099E+04 -6.710335E+04  4.930712E+02 -2.101030E+04
       104   4  1.587211E+04  7.629602E+01  1.970926E+03 -6.699578E+04 -1.380344E+03 -9.303725E+03
       104   5  1.572716E+04 -3.693810E+00  3.297216E+03 -4.454217E+04 -3.020304E+03 -1.518203E+04
       104   6  1.585385E+04  3.004067E+02  5.776214E+03 -6.699556E+04 -4.657942E+03 -2.100797E+04
       104   7 -1.766697E+05 -4.698791E+04 -4.078962E+04 -6.697567E+04 -6.623614E+03 -9.299472E+03
       104   8 -2.822246E+05 -7.274797E+04 -6.242390E+04 -4.447758E+04 -8.215923E+03 -1.517876E+04
       104   9 -3.875053E+05 -9.813269E+04 -8.293841E+04 -6.688781E+04 -9.805649E+03 -2.100564E+04
       104  10  2.084485E+05  4.713791E+04  4.472908E+04 -6.701586E+04  6.768306E-10 -8.592339E-10
       104  11  3.137619E+05  7.273438E+04  6.901254E+04 -4.460675E+04  1.094032E-09 -2.712168E-10
       104  12  4.193652E+05  9.872213E+04  9.448016E+04 -6.710334E+04 -2.305557E-10  1.104101E-10
       104  13  1.587209E+04  7.620256E+01  1.970760E+03 -6.699579E+04 -3.084727E-12  8.981192E-11
       104  14  1.572709E+04 -3.943776E+00  3.296765E+03 -4.454221E+04  1.079559E-09 -7.001549E-10
       104  15  1.585370E+04  2.999270E+02  5.775344E+03 -6.699564E+04 -1.081123E-09 -8.604612E-11
       104  16 -1.766698E+05 -4.698801E+04 -4.078987E+04 -6.697572E+04 -2.142895E-10  2.587878E-10
       104  17 -2.822247E+05 -7.274824E+04 -6.242446E+04 -4.447768E+04 -3.122069E-10  4.053591E-10
       104  18 -3.875055E+05 -9.813319E+04 -8.293942E+04 -6.688797E+04  6.422693E-10  4.267665E-10
       104  19  2.084486E+05  4.713801E+04  4.472927E+04 -6.701589E+04 -3.864533E+03  9.307977E+03
       104  20  3.137620E+05  7.273463E+04  6.901298E+04 -4.460678E+04 -2.177782E+03  1.518530E+04
       104  21  4.193653E+05  9.872261E+04  9.448099E+04 -6.710335E+04 -4.930712E+02  2.101030E+04
       104  22  1.587211E+04  7.629602E+01  1.970926E+03 -6.699578E+04  1.380344E+03  9.303725E+03
       104  23  1.572716E+04 -3.693810E+00  3.297216E+03 -4.454217E+04  3.020304E+03  1.518203E+04
       104  24  1.585385E+04  3.004067E+02  5.776214E+03 -6.699556E+04  4.657942E+03  2.100797E+04
       104  25 -1.766697E+05 -4.698791E+04 -4.078962E+04 -6.697567E+04  6.623614E+03  9.299472E+03
       104  26 -2.822246E+05 -7.274797E+04 -6.242390E+04 -4.447758E+04  8.215923E+03  1.517876E+04
       104  27 -3.875053E+05 -9.813269E+04 -8.293841E+04 -6.688781E+04  9.805649E+03  2.100564E+04
       105   1  5.073484E+05  1.196117E+05  1.160577E+05 -6.619004E+04 -3.340284E+02 -2.454643E+04
       105   2  6.115921E+05  1.453328E+05  1.446061E+05 -4.511263E+04 -7.905082E+03 -3.014503E+04
       105   3  7.183432E+05  1.766943E+05  1.795105E+05 -6.889970E+04 -1.547288E+04 -3.456835E+04
       105   4  1.629108E+04 -2.745968E+02  7.523701E+03 -6.698719E+04 -5.831490E+03 -2.454477E+04
       105   5  1.511314E+04 -2.452572E+02  1.297276E+04 -4.455288E+04 -1.235260E+04 -3.014566E+04
       105   6  1.625464E+04  5.246732E+03  2.405426E+04 -6.698549E+04 -1.886921E+04 -3.457072E+04
       105   7 -4.745410E+05 -1.201771E+05 -1.010250E+05 -6.778366E+04 -1.132465E+04 -2.454310E+04
       105   8 -5.810335E+05 -1.458472E+05 -1.186824E+05 -4.399363E+04 -1.679589E+04 -3.014629E+04
       105   9 -6.853740E+05 -1.662341E+05 -1.314325E+05 -6.507342E+04 -2.226173E+04 -3.457311E+04
       105  10  5.073482E+05  1.196110E+05  1.160565E+05 -6.619004E+04 -5.953689E-10  5.379295E-10
       105  11  6.115918E+05  1.453318E+05  1.446043E+05 -4.511282E+04 -7.795341E-10 -2.556721E-10
       105  12  7.183427E+05  1.766930E+05  1.795078E+05 -6.890013E+04  4.010621E-10 -8.771588E-10
       105  13  1.629088E+04 -2.752528E+02  7.522505E+03 -6.698730E+04 -1.084389E-09  6.050080E-10
       105  14  1.511273E+04 -2.462740E+02  1.297076E+04 -4.455318E+04  1.071966E-09  3.122195E-10
       105  15  1.625393E+04  5.245353E+03  2.405134E+04 -6.698601E+04 -9.441430E-10 -3.875257E-10
       105  16 -4.745413E+05 -1.201778E+05 -1.010264E+05 -6.778389E+04  2.850219E-10  6.346687E-10
       105  17 -5.810341E+05 -1.458483E+05 -1.186846E+05 -4.399404E+04 -1.243216E-10  6.431672E-11
       105  18 -6.853749E+05 -1.662355E+05 -1.314357E+05 -6.507404E+04 -1.523761E-09  9.800791E-11
       105  19  5.073484E+05  1.196117E+05  1.160577E+05 -6.619004E+04  3.340284E+02  2.454643E+04
       105  20  6.115921E+05  1.453328E+05  1.446061E+05 -4.511263E+04  7.905082E+03  3.014503E+04
       105  21  7.183432E+05  1.766943E+05  1.795105E+05 -6.889970E+04  1.547288E+04  3.456835E+04
       105  22  1.629108E+04 -2.745968E+02  7.523701E+03 -6.698719E+04  5.831490E+03  2.454477E+04
       105  23  1.511314E+04 -2.452572E+02  1.297276E+04 -4.455288E+04  1.235260E+04  3.014566E+04
       105  24  1.625464E+04  5.246732E+03  2.405426E+04 -6.698549E+04  1.886921E+04  3.457072E+04
       105  25 -4.745410E+05 -1.201771E+05 -1.010250E+05 -6.778366E+04  1.132465E+04  2.454310E+04
       105  26 -5.810335E+05 -1.458472E+05 -1.186824E+05 -4.399363E+04  1.679589E+04  3.014629E+04
       105  27 -6.853740E+05 -1.662341E+05 -1.314325E+05 -6.507342E+04  2.226173E+04  3.457311E+04
       106   1  8.118556E+05  1.879691E+05  2.043112E+05 -5.312239E+04 -1.202166E+04 -4.041128E+04
       106   2  9.023013E+05  2.175807E+05  2.516374E+05 -5.979573E+04 -6.266277E+04 -3.981549E+04
       106   3  1.023452E+06  3.423329E+05  3.557586E+05 -1.102669E+05 -1.133327E+05 -1.287036E+04
       106   4  2.163514E+04 -4.815841E+03  3.022067E+04 -6.673825E+04 -2.317938E+04 -4.041477E+04
       106   5  8.276153E+03 -1.189170E+03  5.126755E+04 -4.486087E+04 -5.036122E+04 -3.981712E+04
       106   6  2.158165E+04  9.357923E+04  1.128696E+05 -6.677860E+04 -7.756133E+04 -1.285778E+04
       106   7 -7.680014E+05 -1.976420E+05 -1.439076E+05 -8.033656E+04 -3.432306E+04 -4.041778E+04
       106   8 -8.850047E+05 -2.200126E+05 -1.491522E+05 -2.994774E+04 -3.807715E+04 -3.981816E+04
       106   9 -9.793658E+05 -1.552402E+05 -1.300859E+05 -2.336068E+04 -4.184737E+04 -1.284021E+04
       106  10  8.118550E+05  1.879673E+05  2.043078E+05 -5.312278E+04 -8.492757E-10 -7.301057E-10
       106  11  9.022967E+05  2.175780E+05  2.516270E+05 -5.979774E+04 -7.876224E-10 -8.585171E-13
       106  12  1.023438E+06  3.423293E+05  3.557341E+05 -1.102681E+05 -1.817146E-09 -2.314301E-11
       106  13  2.163413E+04 -4.817739E+03  3.021659E+04 -6.673900E+04 -2.141003E-09 -3.453855E-10
       106  14  8.273004E+03 -1.191553E+03  5.125981E+04 -4.486248E+04 -9.778998E-13  2.718398E-10
       106  15  2.157515E+04  9.357744E+04  1.128580E+05 -6.677941E+04 -1.327525E-09 -1.496397E-10
       106  16 -7.680031E+05 -1.976440E+05 -1.439128E+05 -8.033768E+04 -1.372261E-09 -1.142205E-10
       106  17 -8.850066E+05 -2.200147E+05 -1.491579E+05 -2.994896E+04 -2.065241E-11 -5.273557E-10
       106  18 -9.793677E+05 -1.552409E+05 -1.300895E+05 -2.336111E+04  2.878492E-10 -5.306618E-10
       106  19  8.118556E+05  1.879691E+05  2.043112E+05 -5.312239E+04  1.202166E+04  4.041128E+04
       106  20  9.023013E+05  2.175807E+05  2.516374E+05 -5.979573E+04  6.266277E+04  3.981549E+04
       106  21  1.023452E+06  3.423329E+05  3.557586E+05 -1.102669E+05  1.133327E+05  1.287036E+04
       106  22  2.163514E+04 -4.815841E+03  3.022067E+04 -6.673825E+04  2.317938E+04  4.041477E+04
       106  23  8.276153E+03 -1.189170E+03  5.126755E+04 -4.486087E+04  5.036122E+04  3.981712E+04
       106  24  2.158165E+04  9.357923E+04  1.128696E+05 -6.677860E+04  7.756133E+04  1.285778E+04
       106  25 -7.680014E+05 -1.976420E+05 -1.439076E+05 -8.033656E+04  3.432306E+04  4.041778E+04
       106  26 -8.850047E+05 -2.200126E+05 -1.491522E+05 -2.994774E+04  3.807715E+04  3.981816E+04
       106  27 -9.793658E+05 -1.552402E+05 -1.300859E+05 -2.336068E+04  4.184737E+04  1.284021E+04
       107   1  5.293949E+05  1.697522E+06  5.320619E+05 -4.725415E+05  1.668077E+04  1.899859E+05
       107   2  3.003960E+05  1.261868E+06  3.126106E+05 -3.722440E+05  4.988744E+04  8.784192E+04
       107   3  1.753822E+05  8.652409E+05  1.854774E+05 -3.742345E+05  4.259260E+04 -1.431003E+04
       107   4  1.438330E+05  1.421415E+05  1.604732E+05 -3.836577E+05  1.691889E+04  1.092877E+05
       107   5  2.681416E+04  1.281421E+05  7.872997E+04 -3.327087E+05  4.995327E+04  6.859423E+04
       107   6  3.247610E+03  1.424519E+05  4.679117E+04 -3.840250E+05  4.246849E+04  2.782089E+04
       107   7 -2.418718E+05 -1.410995E+06 -2.112576E+05 -2.949951E+05  1.713432E+04  2.879013E+04
       107   8 -2.468431E+05 -1.004363E+06 -1.552179E+05 -2.932456E+05  5.001673E+04  4.938094E+04
       107   9 -1.689165E+05 -5.798307E+05 -9.191230E+04 -3.938035E+05  4.234296E+04  6.990395E+04
       107  10  5.293849E+05  1.697483E+06  5.319937E+05 -4.725441E+05 -4.942011E-10 -1.060987E-09
       107  11  3.003912E+05  1.261859E+06  3.125915E+05 -3.722475E+05 -7.452773E-10 -7.881660E-10
       107  12  1.753802E+05  8.652402E+05  1.854736E+05 -3.742340E+05 -1.676825E-09 -2.067983E-09
       107  13  1.438294E+05  1.421286E+05  1.604502E+05 -3.836592E+05 -1.463143E-09  4.868146E-10
       107  14  2.681022E+04  1.281364E+05  7.871643E+04 -3.327115E+05 -6.980965E-10 -5.591154E-11
       107  15  3.245464E+03  1.424506E+05  4.678632E+04 -3.840260E+05 -6.868575E-12  1.829964E-10
       107  16 -2.418723E+05 -1.410996E+06 -2.112597E+05 -2.949955E+05  5.724830E-10  7.636340E-10
       107  17 -2.468464E+05 -1.004366E+06 -1.552272E+05 -2.932476E+05  2.657036E-09  2.516531E-09
       107  18 -1.689198E+05 -5.798364E+05 -9.192487E+04 -3.938058E+05 -7.055766E-10  1.933987E-09
       107  19  5.293949E+05  1.697522E+06  5.320619E+05 -4.725415E+05 -1.668077E+04 -1.899859E+05
       107  20  3.003960E+05  1.261868E+06  3.126106E+05 -3.722440E+05 -4.988744E+04 -8.784192E+04
       107  21  1.753822E+05  8.652409E+05  1.854774E+05 -3.742345E+05 -4.259260E+04  1.431003E+04
       107  22  1.438330E+05  1.421415E+05  1.604732E+05 -3.836577E+05 -1.691889E+04 -1.092877E+05
       107  23  2.681416E+04  1.281421E+05  7.872997E+04 -3.327087E+05 -4.995327E+04 -6.859423E+04
       107  24  3.247610E+03  1.424519E+05  4.679117E+04 -3.840250E+05 -4.246849E+04 -2.782089E+04
       107  25 -2.418718E+05 -1.410995E+06 -2.112576E+05 -2.949951E+05 -1.713432E+04 -2.879013E+04
       107  26 -2.468431E+05 -1.004363E+06 -1.552179E+05 -2.932456E+05 -5.001673E+04 -4.938094E+04
       107  27 -1.689165E+05 -5.798307E+05 -9.191230E+04 -3.938035E+05 -4.234296E+04 -6.990395E+04
       108   1  1.132537E+05  5.796899E+05  1.236348E+05 -3.880924E+05  2.582680E+04 -1.484707E+04
       108   2  9.159200E+03  1.622897E+05  3.314655E+04 -3.323996E+05  1.923675E+03 -2.913977E+04
       108   3 -8.759012E+04 -2.518685E+05 -4.638376E+04 -3.813734E+05 -2.207972E+04 -4.342412E+04
       108   4  7.656188E+03  1.369014E+05  3.836085E+04 -3.845028E+05  2.571553E+04  2.129726E+04
       108   5  2.792363E+03  1.353794E+05  2.822389E+04 -3.321742E+05  1.811813E+03  7.151402E+03
       108   6  5.258351E+03  1.369089E+05  2.894887E+04 -3.845103E+05 -2.219245E+04 -6.995174E+03
       108   7 -9.795222E+04 -3.056957E+05 -4.691725E+04 -3.809157E+05  2.560462E+04  5.741641E+04
       108   8 -3.573807E+03  1.084726E+05  2.330615E+04 -3.319488E+05  1.699974E+03  4.344104E+04
       108   9  9.809855E+04  5.258344E+05  1.042794E+05 -3.876491E+05 -2.230550E+04  2.945608E+04
       108  10  1.132529E+05  5.796895E+05  1.236331E+05 -3.880921E+05 -7.606214E-10  5.775839E-09
       108  11  9.158968E+03  1.622888E+05  3.314495E+04 -3.323995E+05 -4.938689E-10 -8.028774E-09
       108  12 -8.759115E+04 -2.518706E+05 -4.638822E+04 -3.813742E+05  4.705289E-10 -2.228004E-08
       108  13  7.655355E+03  1.369008E+05  3.835875E+04 -3.845033E+05 -2.526100E-10  6.572461E-10
       108  14  2.792346E+03  1.353793E+05  2.822379E+04 -3.321742E+05  8.112752E-10 -1.931058E-10
       108  15  5.257809E+03  1.369087E+05  2.894785E+04 -3.845105E+05  1.129468E-09  1.071428E-10
       108  16 -9.795381E+04 -3.056995E+05 -4.692468E+04 -3.809169E+05 -1.444143E-09 -6.089552E-09
       108  17 -3.574317E+03  1.084706E+05  2.330260E+04 -3.319488E+05  1.037973E-09  9.860797E-09
       108  18  9.809778E+04  5.258334E+05  1.042768E+05 -3.876486E+05 -3.056863E-10  2.200307E-08
       108  19  1.132537E+05  5.796899E+05  1.236348E+05 -3.880924E+05 -2.582680E+04  1.484707E+04
       108  20  9.159200E+03  1.622897E+05  3.314655E+04 -3.323996E+05 -1.923675E+03  2.913977E+04
       108  21 -8.759012E+04 -2.518685E+05 -4.638376E+04 -3.813734E+05  2.207972E+04  4.342412E+04
       108  22  7.656188E+03  1.369014E+05  3.836085E+04 -3.845028E+05 -2.571553E+04 -2.129726E+04
       108  23  2.792363E+03  1.353794E+05  2.822389E+04 -3.321742E+05 -1.811813E+03 -7.151402E+03
       108  24  5.258351E+03  1.369089E+05  2.894887E+04 -3.845103E+05  2.219245E+04  6.995174E+03
       108  25 -9.795222E+04 -3.056957E+05 -4.691725E+04 -3.809157E+05 -2.560462E+04 -5.741641E+04
       108  26 -3.573807E+03  1.084726E+05  2.330615E+04 -3.319488E+05 -1.699974E+03 -4.344104E+04
       108  27  9.809855E+04  5.258344E+05  1.042794E+05 -3.876491E+05  2.230550E+04 -2.945608E+04
       109   1 -1.566201E+05 -5.285249E+05 -9.655605E+04 -3.889404E+05 -3.885116E+04 -5.400684E+04
       109   2 -2.443896E+05 -9.474999E+05 -1.749800E+05 -3.084964E+05 -4.726148E+04 -1.966962E+04
       109   3 -2.872429E+05 -1.359916E+06 -2.646484E+05 -3.304770E+05 -1.641328E+04  1.472341E+04
       109   4  2.797776E+03  1.398759E+05  3.216298E+04 -3.840369E+05 -3.897761E+04 -1.182729E+04
       109   5  1.630995E+04  1.313995E+05  4.832575E+04 -3.327311E+05 -4.720630E+04 -3.680572E+04
       109   6  8.499834E+04  1.395829E+05  9.443216E+04 -3.838203E+05 -1.621080E+04 -6.170546E+04
       109   7  1.621903E+05  8.087106E+05  1.608681E+05 -3.791275E+05 -3.910331E+04  3.039665E+04
       109   8  2.769378E+05  1.211405E+06  2.715696E+05 -3.570076E+05 -4.714983E+04 -5.397108E+04
       109   9  4.570897E+05  1.641163E+06  4.533771E+05 -4.372913E+05 -1.599547E+04 -1.383183E+05
       109  10 -1.566226E+05 -5.285285E+05 -9.656438E+04 -3.889421E+05 -5.265796E-10  2.311864E-08
       109  11 -2.443921E+05 -9.475009E+05 -1.749849E+05 -3.084972E+05 -7.007637E-10  1.010231E-08
       109  12 -2.872432E+05 -1.359916E+06 -2.646493E+05 -3.304768E+05  7.683648E-10 -5.996144E-09
       109  13  2.796106E+03  1.398754E+05  3.215986E+04 -3.840372E+05  1.005262E-10  5.755698E-10
       109  14  1.630719E+04  1.313974E+05  4.831901E+04 -3.327325E+05  9.533290E-10 -1.098537E-10
       109  15  8.499703E+04  1.395788E+05  9.442451E+04 -3.838211E+05  9.290356E-10  1.446799E-10
       109  16  1.621884E+05  8.087092E+05  1.608635E+05 -3.791266E+05  9.552771E-10 -2.352324E-08
       109  17  2.769347E+05  1.211401E+06  2.715600E+05 -3.570096E+05  1.958104E-09 -8.376810E-09
       109  18  4.570843E+05  1.641143E+06  4.533407E+05 -4.372931E+05  1.086782E-09  5.793182E-09
       109  19 -1.566201E+05 -5.285249E+05 -9.655605E+04 -3.889404E+05  3.885116E+04  5.400684E+04
       109  20 -2.443896E+05 -9.474999E+05 -1.749800E+05 -3.084964E+05  4.726148E+04  1.966962E+04
       109  21 -2.872429E+05 -1.359916E+06 -2.646484E+05 -3.304770E+05  1.641328E+04 -1.472341E+04
       109  22  2.797776E+03  1.398759E+05  3.216298E+04 -3.840369E+05  3.897761E+04  1.182729E+04
       109  23  1.630995E+04  1.313995E+05  4.832575E+04 -3.327311E+05  4.720630E+04  3.680572E+04
       109  24  8.499834E+04  1.395829E+05  9.443216E+04 -3.838203E+05  1.621080E+04  6.170546E+04
       109  25  1.621903E+05  8.087106E+05  1.608681E+05 -3.791275E+05  3.910331E+04 -3.039665E+04
       109  26  2.769378E+05  1.211405E+06  2.715696E+05 -3.570076E+05  4.714983E+04  5.397108E+04
       109  27  4.570897E+05  1.641163E+06  4.533771E+05 -4.372913E+05  1.599547E+04  1.383183E+05
       110   1 -2.968931E+06 -1.052861E+06 -6.247130E+05 -1.086952E+06 -2.624933E+05 -8.219322E+04
       110   2 -2.877137E+06 -6.832814E+05 -3.858835E+05 -1.068349E+06 -1.697297E+05 -1.180314E+04
       110   3 -2.872205E+06 -6.089106E+05 -2.982319E+05 -1.013135E+06 -6.571188E+04  2.879362E+04
       110   4 -2.006273E+06 -5.729306E+05 -3.440961E+05 -7.049471E+05 -2.246735E+05 -6.800161E+04
       110   5 -1.946508E+06 -2.961049E+05 -1.486904E+05 -7.727832E+05 -1.564790E+05 -6.833143E+03
       110   6 -1.968562E+06 -3.093785E+05 -8.476858E+04 -8.040573E+05 -7.704922E+04  2.452827E+04
       110   7 -1.042672E+06 -9.271701E+04 -6.356090E+04 -3.223339E+05 -1.867889E+05 -5.376763E+04
       110   8 -1.015017E+06  9.118939E+04  8.843286E+04 -4.767925E+05 -1.432065E+05 -1.852790E+03
       110   9 -1.064113E+06 -9.831625E+03  1.286374E+05 -5.947212E+05 -8.840454E+04  2.025791E+04
       110  10 -2.969007E+06 -1.052887E+06 -6.248560E+05 -1.086969E+06 -6.443442E-10  7.630051E-11
       110  11 -2.877168E+06 -6.832893E+05 -3.859382E+05 -1.068350E+06 -1.078236E-09 -5.744391E-10
       110  12 -2.872210E+06 -6.089127E+05 -2.982416E+05 -1.013133E+06  1.132491E-09  1.924643E-09
       110  13 -2.006328E+06 -5.729492E+05 -3.442000E+05 -7.049594E+05 -1.594539E-09 -1.431231E-09
       110  14 -1.946534E+06 -2.961115E+05 -1.487367E+05 -7.727841E+05  1.171359E-09 -1.471625E-09
       110  15 -1.968568E+06 -3.093808E+05 -8.478089E+04 -8.040558E+05  5.791125E-09  1.999088E-09
       110  16 -1.042710E+06 -9.272951E+04 -6.363203E+04 -3.223420E+05 -1.661465E-09 -9.016824E-10
       110  17 -1.015039E+06  9.118387E+04  8.839425E+04 -4.767927E+05  3.831005E-09 -8.731537E-10
       110  18 -1.064122E+06 -9.834165E+03  1.286219E+05 -5.947198E+05  7.366040E-09  2.764107E-09
       110  19 -2.968931E+06 -1.052861E+06 -6.247130E+05 -1.086952E+06  2.624933E+05  8.219322E+04
       110  20 -2.877137E+06 -6.832814E+05 -3.858835E+05 -1.068349E+06  1.697297E+05  1.180314E+04
       110  21 -2.872205E+06 -6.089106E+05 -2.982319E+05 -1.013135E+06  6.571188E+04 -2.879362E+04
       110  22 -2.006273E+06 -5.729306E+05 -3.440961E+05 -7.049471E+05  2.246735E+05  6.800161E+04
       110  23 -1.946508E+06 -2.961049E+05 -1.486904E+05 -7.727832E+05  1.564790E+05  6.833143E+03
       110  24 -1.968562E+06 -3.093785E+05 -8.476858E+04 -8.040573E+05  7.704922E+04 -2.452827E+04
       110  25 -1.042672E+06 -9.271701E+04 -6.356090E+04 -3.223339E+05  1.867889E+05  5.376763E+04
       110  26 -1.015017E+06  9.118939E+04  8.843286E+04 -4.767925E+05  1.432065E+05  1.852790E+03
       110  27 -1.064113E+06 -9.831625E+03  1.286374E+05 -5.947212E+05  8.840454E+04 -2.025791E+04
       111   1 -2.753501E+06 -6.394470E+05 -2.634969E+05 -1.012420E+06 -6.153753E+04  2.353833E+04
       111   2 -2.677309E+06 -5.715312E+05 -2.082465E+05 -9.727978E+05 -4.156104E+04  2.702378E+04
       111   3 -2.580517E+06 -5.502577E+05 -1.715472E+05 -9.628115E+05 -2.105657E+04  2.909906E+04
       111   4 -1.957288E+06 -3.364677E+05 -6.734775E+04 -7.881968E+05 -6.391598E+04  2.263917E+04
       111   5 -1.966494E+06 -3.049530E+05 -3.443739E+04 -7.764843E+05 -4.508530E+04  2.569648E+04
       111   6 -1.954870E+06 -3.198375E+05 -1.914870E+04 -7.944102E+05 -2.572980E+04  2.734307E+04
       111   7 -1.160442E+06 -3.343663E+04  1.287539E+05 -5.637070E+05 -6.629775E+04  2.173871E+04
       111   8 -1.255176E+06 -3.833785E+04  1.393341E+05 -5.799645E+05 -4.861396E+04  2.436751E+04
       111   9 -1.328835E+06 -8.939272E+04  1.332206E+05 -6.258551E+05 -3.040818E+04  2.558521E+04
       111  10 -2.753505E+06 -6.394486E+05 -2.635051E+05 -1.012419E+06  1.586308E-08  7.358983E-09
       111  11 -2.677311E+06 -5.715325E+05 -2.082511E+05 -9.727969E+05  3.467205E-09  1.821371E-09
       111  12 -2.580517E+06 -5.502588E+05 -1.715496E+05 -9.628110E+05 -9.179526E-09 -2.628454E-09
       111  13 -1.957292E+06 -3.364693E+05 -6.735640E+04 -7.881956E+05  5.534691E-09  2.843210E-09
       111  14 -1.966496E+06 -3.049543E+05 -3.444246E+04 -7.764833E+05  3.622791E-09  1.468269E-09
       111  15 -1.954870E+06 -3.198384E+05 -1.915135E+04 -7.944097E+05  1.696948E-09  1.085614E-09
       111  16 -1.160447E+06 -3.343831E+04  1.287448E+05 -5.637058E+05 -4.245274E-09 -1.304640E-09
       111  17 -1.255178E+06 -3.833912E+04  1.393285E+05 -5.799635E+05  8.668777E-10  1.069805E-09
       111  18 -1.328836E+06 -8.939367E+04  1.332176E+05 -6.258545E+05  7.566873E-09  4.526492E-09
       111  19 -2.753501E+06 -6.394470E+05 -2.634969E+05 -1.012420E+06  6.153753E+04 -2.353833E+04
       111  20 -2.677309E+06 -5.715312E+05 -2.082465E+05 -9.727978E+05  4.156104E+04 -2.702378E+04
       111  21 -2.580517E+06 -5.502577E+05 -1.715472E+05 -9.628115E+05  2.105657E+04 -2.909906E+04
       111  22 -1.957288E+06 -3.364677E+05 -6.734775E+04 -7.881968E+05  6.391598E+04 -2.263917E+04
       111  23 -1.966494E+06 -3.049530E+05 -3.443739E+04 -7.764843E+05  4.508530E+04 -2.569648E+04
       111  24 -1.954870E+06 -3.198375E+05 -1.914870E+04 -7.944102E+05  2.572980E+04 -2.734307E+04
       111  25 -1.160442E+06 -3.343663E+04  1.287539E+05 -5.637070E+05  6.629775E+04 -2.173871E+04
       111  26 -1.255176E+06 -3.833785E+04  1.393341E+05 -5.799645E+05  4.861396E+04 -2.436751E+04
       111  27 -1.328835E+06 -8.939272E+04  1.332206E+05 -6.258551E+05  3.040818E+04 -2.558521E+04
       112   1 -2.499460E+06 -5.249168E+05 -1.474369E+05 -9.429101E+05 -1.752997E+04  2.676866E+04
       112   2 -2.423137E+06 -4.747983E+05 -1.188353E+05 -9.008658E+05 -1.151723E+04  2.305084E+04
       112   3 -2.317585E+06 -4.559052E+05 -9.352856E+04 -8.931471E+05 -5.470345E+03  1.923248E+04
       112   4 -1.953709E+06 -3.216265E+05 -1.460262E+04 -7.935042E+05 -2.183325E+04  2.515271E+04
       112   5 -1.968239E+06 -3.054984E+05 -7.931342E+03 -7.765304E+05 -1.590021E+04  2.140660E+04
       112   6 -1.953532E+06 -3.205783E+05 -4.488944E+03 -7.938841E+05 -9.933667E+03  1.755976E+04
       112   7 -1.407665E+06 -1.183166E+05  1.182087E+05 -6.439791E+05 -2.614066E+04  2.353521E+04
       112   8 -1.513137E+06 -1.361844E+05  1.029572E+05 -6.521118E+05 -2.028671E+04  1.976104E+04
       112   9 -1.589347E+06 -1.852420E+05  8.454122E+04 -6.945676E+05 -1.439987E+04  1.588598E+04
       112  10 -2.499461E+06 -5.249177E+05 -1.474388E+05 -9.429097E+05  1.968525E-10  5.491591E-10
       112  11 -2.423137E+06 -4.747989E+05 -1.188366E+05 -9.008656E+05 -1.350741E-09 -7.188933E-10
       112  12 -2.317585E+06 -4.559056E+05 -9.352931E+04 -8.931470E+05 -3.096210E-09 -1.524641E-09
       112  13 -1.953710E+06 -3.216273E+05 -1.460470E+04 -7.935037E+05  8.619921E-10  7.133316E-10
       112  14 -1.968240E+06 -3.054990E+05 -7.932677E+03 -7.765301E+05  1.388193E-09  2.258942E-10
       112  15 -1.953533E+06 -3.205787E+05 -4.489708E+03 -7.938839E+05 -2.882416E-09 -4.433440E-10
       112  16 -1.407666E+06 -1.183174E+05  1.182064E+05 -6.439786E+05 -7.074950E-10  4.972257E-10
       112  17 -1.513137E+06 -1.361849E+05  1.029557E+05 -6.521115E+05 -5.461724E-10 -7.258619E-10
       112  18 -1.589348E+06 -1.852423E+05  8.454036E+04 -6.945674E+05 -1.457703E-09 -8.802772E-10
       112  19 -2.499460E+06 -5.249168E+05 -1.474369E+05 -9.429101E+05  1.752997E+04 -2.676866E+04
       112  20 -2.423137E+06 -4.747983E+05 -1.188353E+05 -9.008658E+05  1.151723E+04 -2.305084E+04
       112  21 -2.317585E+06 -4.559052E+05 -9.352856E+04 -8.931471E+05  5.470345E+03 -1.923248E+04
       112  22 -1.953709E+06 -3.216265E+05 -1.460262E+04 -7.935042E+05  2.183325E+04 -2.515271E+04
       112  23 -1.968239E+06 -3.054984E+05 -7.931342E+03 -7.765304E+05  1.590021E+04 -2.140660E+04
       112  24 -1.953532E+06 -3.205783E+05 -4.488944E+03 -7.938841E+05  9.933667E+03 -1.755976E+04
       112  25 -1.407665E+06 -1.183166E+05  1.182087E+05 -6.439791E+05  2.614066E+04 -2.353521E+04
       112  26 -1.513137E+06 -1.361844E+05  1.029572E+05 -6.521118E+05  2.028671E+04 -1.976104E+04
       112  27 -1.589347E+06 -1.852420E+05  8.454122E+04 -6.945676E+05  1.439987E+04 -1.588598E+04
       113   1 -2.237681E+06 -4.264749E+05 -7.246885E+04 -8.716115E+05 -3.636583E+03  1.634098E+04
       113   2 -2.160447E+06 -3.768272E+05 -4.898934E+04 -8.288546E+05 -5.012875E+02  1.136080E+04
       113   3 -2.052870E+06 -3.577684E+05 -2.635751E+04 -8.211188E+05  2.639749E+03  6.360695E+03
       113   4 -1.953319E+06 -3.207560E+05 -3.481497E+03 -7.939144E+05 -8.102867E+03  1.466789E+04
       113   5 -1.968476E+06 -3.054227E+05 -2.203164E+03 -7.764154E+05 -4.983663E+03  9.682359E+03
       113   6 -1.953296E+06 -3.206747E+05 -1.759267E+03 -7.939397E+05 -1.858935E+03  4.676910E+03
       113   7 -1.668876E+06 -2.150312E+05  6.550014E+04 -7.161846E+05 -1.257140E+04  1.299395E+04
       113   8 -1.776470E+06 -2.340163E+05  4.457990E+04 -7.239619E+05 -9.467518E+03  8.003369E+03
       113   9 -1.853714E+06 -2.835810E+05  2.283779E+04 -7.667571E+05 -6.358324E+03  2.992860E+03
       113  10 -2.237681E+06 -4.264752E+05 -7.246937E+04 -8.716115E+05 -4.095583E-09 -9.845738E-10
       113  11 -2.160447E+06 -3.768274E+05 -4.898958E+04 -8.288546E+05 -8.927515E-10 -3.523184E-10
       113  12 -2.052870E+06 -3.577685E+05 -2.635760E+04 -8.211188E+05  5.553908E-10 -4.216969E-10
       113  13 -1.953319E+06 -3.207562E+05 -3.482024E+03 -7.939143E+05 -3.534674E-09 -6.848855E-10
       113  14 -1.968476E+06 -3.054229E+05 -2.203387E+03 -7.764154E+05  7.366898E-10  1.595243E-10
       113  15 -1.953296E+06 -3.206747E+05 -1.759314E+03 -7.939397E+05  1.066464E-09 -2.350246E-10
       113  16 -1.668876E+06 -2.150314E+05  6.549953E+04 -7.161845E+05 -1.106389E-10 -4.453163E-10
       113  17 -1.776470E+06 -2.340164E+05  4.457961E+04 -7.239618E+05 -2.351883E-10  2.855122E-10
       113  18 -1.853714E+06 -2.835810E+05  2.283769E+04 -7.667571E+05  1.874032E-10 -8.368045E-10
       113  19 -2.237681E+06 -4.264749E+05 -7.246885E+04 -8.716115E+05  3.636583E+03 -1.634098E+04
       113  20 -2.160447E+06 -3.768272E+05 -4.898934E+04 -8.288546E+05  5.012875E+02 -1.136080E+04
       113  21 -2.052870E+06 -3.577684E+05 -2.635751E+04 -8.211188E+05 -2.639749E+03 -6.360695E+03
       113  22 -1.953319E+06 -3.207560E+05 -3.481497E+03 -7.939144E+05  8.102867E+03 -1.466789E+04
       113  23 -1.968476E+06 -3.054227E+05 -2.203164E+03 -7.764154E+05  4.983663E+03 -9.682359E+03
       113  24 -1.953296E+06 -3.206747E+05 -1.759267E+03 -7.939397E+05  1.858935E+03 -4.676910E+03
       113  25 -1.668876E+06 -2.150312E+05  6.550014E+04 -7.161846E+05  1.257140E+04 -1.299395E+04
       113  26 -1.776470E+06 -2.340163E+05  4.457990E+04 -7.239619E+05  9.467518E+03 -8.003369E+03
       113  27 -1.853714E+06 -2.835810E+05  2.283779E+04 -7.667571E+05  6.358324E+03 -2.992860E+03
       114   1 -1.972492E+06 -3.278026E+05 -6.135130E+03 -7.992552E+05  4.120086E+03  3.311443E+03
       114   2 -1.895018E+06 -2.781003E+05  1.558429E+04 -7.563591E+05  7.294747E+03 -1.686042E+03
       114   3 -1.787144E+06 -2.590702E+05  3.642864E+04 -7.485870E+05  1.046677E+04 -6.673727E+03
       114   4 -1.953283E+06 -3.206932E+05 -1.780280E+03 -7.939629E+05 -3.828423E+02  1.626209E+03
       114   5 -1.968483E+06 -3.053847E+05 -2.310627E+03 -7.763886E+05  2.799303E+03 -3.368806E+03
       114   6 -1.953294E+06 -3.207518E+05 -3.721991E+03 -7.939426E+05  5.978605E+03 -8.354047E+03
       114   7 -1.934073E+06 -3.135836E+05  2.574719E+03 -7.886705E+05 -4.885993E+03 -5.910829E+01
       114   8 -2.041944E+06 -3.326692E+05 -2.020614E+04 -7.964161E+05 -1.695620E+03 -5.051375E+03
       114   9 -2.119419E+06 -3.824322E+05 -4.387508E+04 -8.392877E+05  1.491705E+03 -1.003390E+04
       114  10 -1.972492E+06 -3.278026E+05 -6.135183E+03 -7.992552E+05 -5.084758E-10  1.966315E-10
       114  11 -1.895018E+06 -2.781003E+05  1.558419E+04 -7.563591E+05 -8.877477E-10 -7.321326E-10
       114  12 -1.787144E+06 -2.590703E+05  3.642835E+04 -7.485870E+05  1.651466E-10 -3.790133E-11
       114  13 -1.953283E+06 -3.206932E+05 -1.780285E+03 -7.939629E+05  1.479095E-09 -8.676899E-10
       114  14 -1.968483E+06 -3.053848E+05 -2.310663E+03 -7.763886E+05  1.343546E-09  5.784790E-10
       114  15 -1.953294E+06 -3.207519E+05 -3.722189E+03 -7.939426E+05 -1.943748E-09  2.186383E-10
       114  16 -1.934073E+06 -3.135836E+05  2.574674E+03 -7.886705E+05 -4.656244E-10 -5.800183E-10
       114  17 -2.041944E+06 -3.326692E+05 -2.020619E+04 -7.964161E+05  1.853670E-09  4.690529E-10
       114  18 -2.119419E+06 -3.824324E+05 -4.387527E+04 -8.392876E+05 -8.081792E-10  1.338147E-10
       114  19 -1.972492E+06 -3.278026E+05 -6.135130E+03 -7.992552E+05 -4.120086E+03 -3.311443E+03
       114  20 -1.895018E+06 -2.781003E+05  1.558429E+04 -7.563591E+05 -7.294747E+03  1.686042E+03
       114  21 -1.787144E+06 -2.590702E+05  3.642864E+04 -7.485870E+05 -1.046677E+04  6.673727E+03
       114  22 -1.953283E+06 -3.206932E+05 -1.780280E+03 -7.939629E+05  3.828423E+02 -1.626209E+03
       114  23 -1.968483E+06 -3.053847E+05 -2.310627E+03 -7.763886E+05 -2.799303E+03  3.368806E+03
       114  24 -1.953294E+06 -3.207518E+05 -3.721991E+03 -7.939426E+05 -5.978605E+03  8.354047E+03
       114  25 -1.934073E+06 -3.135836E+05  2.574719E+03 -7.886705E+05  4.885993E+03  5.910829E+01
       114  26 -2.041944E+06 -3.326692E+05 -2.020614E+04 -7.964161E+05  1.695620E+03  5.051375E+03
       114  27 -2.119419E+06 -3.824322E+05 -4.387508E+04 -8.392877E+05 -1.491705E+03  1.003390E+04
       115   1 -1.707183E+06 -2.291839E+05  5.547849E+04 -7.269409E+05  1.235429E+04 -9.562194E+03
       115   2 -1.630264E+06 -1.797275E+05  7.379965E+04 -6.841516E+05  1.857514E+04 -1.335857E+04
       115   3 -1.523983E+06 -1.618068E+05  8.867728E+04 -6.759865E+05  2.476826E+04 -1.707085E+04
       115   4 -1.953490E+06 -3.206046E+05 -4.822656E+03 -7.939638E+05  7.862320E+03 -1.124440E+04
       115   5 -1.968248E+06 -3.053791E+05 -8.542517E+03 -7.764491E+05  1.414962E+04 -1.501708E+04
       115   6 -1.953667E+06 -3.217039E+05 -1.575963E+04 -7.935622E+05  2.040857E+04 -1.870589E+04
       115   7 -2.199732E+06 -4.120196E+05 -6.512704E+04 -8.609613E+05  3.372386E+03 -1.292584E+04
       115   8 -2.306118E+06 -4.310224E+05 -9.089266E+04 -8.687003E+05  9.726760E+03 -1.667461E+04
       115   9 -2.383172E+06 -4.815897E+05 -1.202112E+05 -9.110647E+05  1.605214E+04 -2.033972E+04
       115  10 -1.707183E+06 -2.291840E+05  5.547803E+04 -7.269408E+05  4.485462E-10  1.353010E-10
       115  11 -1.630264E+06 -1.797277E+05  7.379867E+04 -6.841514E+05 -1.911203E-10  5.143584E-10
       115  12 -1.523984E+06 -1.618072E+05  8.867558E+04 -6.759862E+05  1.121676E-09  3.435359E-10
       115  13 -1.953490E+06 -3.206047E+05 -4.823010E+03 -7.939637E+05  2.021348E-10  1.038021E-09
       115  14 -1.968249E+06 -3.053794E+05 -8.543317E+03 -7.764489E+05 -1.626414E-09  3.218358E-10
       115  15 -1.953668E+06 -3.217044E+05 -1.576107E+04 -7.935619E+05 -7.447779E-10 -4.891230E-10
       115  16 -2.199732E+06 -4.120197E+05 -6.512738E+04 -8.609612E+05 -2.385692E-09  5.522771E-10
       115  17 -2.306118E+06 -4.310227E+05 -9.089336E+04 -8.687002E+05 -1.582675E-09  7.136737E-10
       115  18 -2.383172E+06 -4.815902E+05 -1.202124E+05 -9.110644E+05 -9.738811E-10 -7.567636E-10
       115  19 -1.707183E+06 -2.291839E+05  5.547849E+04 -7.269409E+05 -1.235429E+04  9.562194E+03
       115  20 -1.630264E+06 -1.797275E+05  7.379965E+04 -6.841516E+05 -1.857514E+04  1.335857E+04
       115  21 -1.523983E+06 -1.618068E+05  8.867728E+04 -6.759865E+05 -2.476826E+04  1.707085E+04
       115  22 -1.953490E+06 -3.206046E+05 -4.822656E+03 -7.939638E+05 -7.862320E+03  1.124440E+04
       115  23 -1.968248E+06 -3.053791E+05 -8.542517E+03 -7.764491E+05 -1.414962E+04  1.501708E+04
       115  24 -1.953667E+06 -3.217039E+05 -1.575963E+04 -7.935622E+05 -2.040857E+04  1.870589E+04
       115  25 -2.199732E+06 -4.120196E+05 -6.512704E+04 -8.609613E+05 -3.372386E+03  1.292584E+04
       115  26 -2.306118E+06 -4.310224E+05 -9.089266E+04 -8.687003E+05 -9.726760E+03  1.667461E+04
       115  27 -2.383172E+06 -4.815897E+05 -1.202112E+05 -9.110647E+05 -1.605214E+04  2.033972E+04
       116   1 -1.444171E+06 -1.326549E+05  1.035451E+05 -6.579796E+05  2.922444E+04 -1.907456E+04
       116   2 -1.369367E+06 -8.069967E+04  1.087364E+05 -6.111728E+05  4.897458E+04 -1.739296E+04
       116   3 -1.273902E+06 -7.671477E+04  9.570737E+04 -5.942165E+05  6.825658E+04 -1.444387E+04
       116   4 -1.954876E+06 -3.198233E+05 -2.067390E+04 -7.946015E+05  2.452666E+04 -2.083727E+04
       116   5 -1.966392E+06 -3.046930E+05 -3.717001E+04 -7.763251E+05  4.530888E+04 -1.877095E+04
       116   6 -1.957470E+06 -3.377542E+05 -7.272020E+04 -7.879047E+05  6.561997E+04 -1.543786E+04
       116   7 -2.465323E+06 -5.069759E+05 -1.449123E+05 -9.311219E+05  1.983310E+04 -2.259846E+04
       116   8 -2.563064E+06 -5.286601E+05 -1.831028E+05 -9.413318E+05  4.164702E+04 -2.014748E+04
       116   9 -2.640572E+06 -5.987541E+05 -2.411826E+05 -9.813954E+05  6.298651E+04 -1.643059E+04
       116  10 -1.444172E+06 -1.326555E+05  1.035428E+05 -6.579792E+05  7.324295E-10 -3.069899E-10
       116  11 -1.369369E+06 -8.070064E+04  1.087313E+05 -6.111721E+05 -8.787537E-10 -2.283920E-10
       116  12 -1.273907E+06 -7.671625E+04  9.569821E+04 -5.942157E+05 -1.554339E-09  1.673510E-10
       116  13 -1.954877E+06 -3.198239E+05 -2.067585E+04 -7.946011E+05  5.979276E-10 -2.942152E-10
       116  14 -1.966395E+06 -3.046940E+05 -3.717453E+04 -7.763244E+05 -1.194181E-10  2.065653E-10
       116  15 -1.957475E+06 -3.377556E+05 -7.272876E+04 -7.879039E+05 -1.804242E-09  1.203445E-10
       116  16 -2.465324E+06 -5.069766E+05 -1.449140E+05 -9.311215E+05 -7.400702E-10 -2.607397E-10
       116  17 -2.563066E+06 -5.286610E+05 -1.831068E+05 -9.413311E+05  5.787296E-10  5.316508E-10
       116  18 -2.640576E+06 -5.987555E+05 -2.411906E+05 -9.813945E+05  7.442918E-10 -2.718658E-10
       116  19 -1.444171E+06 -1.326549E+05  1.035451E+05 -6.579796E+05 -2.922444E+04  1.907456E+04
       116  20 -1.369367E+06 -8.069967E+04  1.087364E+05 -6.111728E+05 -4.897458E+04  1.739296E+04
       116  21 -1.273902E+06 -7.671477E+04  9.570737E+04 -5.942165E+05 -6.825658E+04  1.444387E+04
       116  22 -1.954876E+06 -3.198233E+05 -2.067390E+04 -7.946015E+05 -2.452666E+04  2.083727E+04
       116  23 -1.966392E+06 -3.046930E+05 -3.717001E+04 -7.763251E+05 -4.530888E+04  1.877095E+04
       116  24 -1.957470E+06 -3.377542E+05 -7.272020E+04 -7.879047E+05 -6.561997E+04  1.543786E+04
       116  25 -2.465323E+06 -5.069759E+05 -1.449123E+05 -9.311219E+05 -1.983310E+04  2.259846E+04
       116  26 -2.563064E+06 -5.286601E+05 -1.831028E+05 -9.413318E+05 -4.164702E+04  2.014748E+04
       116  27 -2.640572E+06 -5.987541E+05 -2.411826E+05 -9.813954E+05 -6.298651E+04  1.643059E+04
       117   1 -1.174662E+06 -5.307317E+04  9.468594E+04 -6.292292E+05  9.025242E+04 -1.272974E+04
       117   2 -1.125394E+06  5.324824E+04  4.948954E+04 -5.040389E+05  1.541527E+05  1.195558E+04
       117   3 -1.161544E+06 -1.476163E+05 -1.199832E+05 -3.378048E+05  2.079616E+05  6.350068E+04
       117   4 -1.969573E+06 -3.085784E+05 -9.153448E+04 -8.051262E+05  7.952884E+04 -1.675567E+04
       117   5 -1.944885E+06 -2.949907E+05 -1.605311E+05 -7.722016E+05  1.656084E+05  1.624590E+04
       117   6 -2.010195E+06 -5.932702E+05 -3.715497E+05 -6.982056E+05  2.415826E+05  7.610096E+04
       117   7 -2.763864E+06 -5.640786E+05 -2.777987E+05 -9.808364E+05  6.882016E+04 -2.077778E+04
       117   8 -2.763705E+06 -6.431253E+05 -3.706054E+05 -1.040021E+06  1.770475E+05  2.052798E+04
       117   9 -2.858092E+06 -1.038645E+06 -6.231763E+05 -1.058088E+06  2.751526E+05  8.866489E+04
       117  10 -1.174670E+06 -5.307554E+04  9.467031E+04 -6.292283E+05 -1.802035E-09  4.598058E-11
       117  11 -1.125419E+06  5.324169E+04  4.944453E+04 -5.040404E+05 -2.237911E-10 -1.222734E-10
       117  12 -1.161591E+06 -1.476323E+05 -1.200722E+05 -3.378154E+05  7.064927E-10 -8.698839E-11
       117  13 -1.969580E+06 -3.085804E+05 -9.154693E+04 -8.051251E+05  1.553862E-10  8.007894E-11
       117  14 -1.944915E+06 -2.949984E+05 -1.605833E+05 -7.722038E+05  3.561411E-10 -1.144020E-09
       117  15 -2.010260E+06 -5.932922E+05 -3.716707E+05 -6.982204E+05  2.857390E-10 -6.368827E-10
       117  16 -2.763869E+06 -5.640803E+05 -2.778084E+05 -9.808353E+05  1.032740E-09  4.351120E-11
       117  17 -2.763739E+06 -6.431342E+05 -3.706654E+05 -1.040024E+06  2.124475E-10  1.091718E-09
       117  18 -2.858176E+06 -1.038674E+06 -6.233341E+05 -1.058107E+06  3.939403E-10  6.629519E-11
       117  19 -1.174662E+06 -5.307317E+04  9.468594E+04 -6.292292E+05 -9.025242E+04  1.272974E+04
       117  20 -1.125394E+06  5.324824E+04  4.948954E+04 -5.040389E+05 -1.541527E+05 -1.195558E+04
       117  21 -1.161544E+06 -1.476163E+05 -1.199832E+05 -3.378048E+05 -2.079616E+05 -6.350068E+04
       117  22 -1.969573E+06 -3.085784E+05 -9.153448E+04 -8.051262E+05 -7.952884E+04  1.675567E+04
       117  23 -1.944885E+06 -2.949907E+05 -1.605311E+05 -7.722016E+05 -1.656084E+05 -1.624590E+04
       117  24 -2.010195E+06 -5.932702E+05 -3.715497E+05 -6.982056E+05 -2.415826E+05 -7.610096E+04
       117  25 -2.763864E+06 -5.640786E+05 -2.777987E+05 -9.808364E+05 -6.882016E+04  2.077778E+04
       117  26 -2.763705E+06 -6.431253E+05 -3.706054E+05 -1.040021E+06 -1.770475E+05 -2.052798E+04
       117  27 -2.858092E+06 -1.038645E+06 -6.231763E+05 -1.058088E+06 -2.751526E+05 -8.866489E+04
       118   1 -4.019919E+05 -2.374075E+04  4.521029E+03  2.415948E+04  7.920289E+04  7.638220E+03
       118   2 -3.666191E+05 -1.314049E+05 -5.269957E+04 -2.299305E+03  5.756140E+04  2.378168E+04
       118   3 -2.994088E+05 -1.235941E+05 -6.692702E+04 -4.992271E+04  3.592848E+04  2.467226E+04
       118   4  1.816285E+05  1.211964E+05  1.460451E+05 -3.229906E+04  1.003826E+05  7.645556E+03
       118   5  1.645614E+05 -1.364554E+03  6.637551E+04 -2.168083E+04  6.517338E+04  2.378249E+04
       118   6  1.816527E+05 -6.153993E+03  3.909226E+04 -3.222479E+04  2.997546E+04  2.466982E+04
       118   7  7.655679E+05  2.661209E+05  2.875480E+05 -8.881090E+04  1.215822E+05  7.649038E+03
       118   8  6.960056E+05  1.286580E+05  1.854332E+05 -4.107915E+04  7.279180E+04  2.378283E+04
       118   9  6.629314E+05  1.112717E+05  1.450976E+05 -1.451300E+04  2.401788E+04  2.466704E+04
       118  10 -4.019987E+05 -2.374250E+04  4.509124E+03  2.415899E+04 -8.228638E-11  2.365932E-10
       118  11 -3.666228E+05 -1.314064E+05 -5.270686E+04 -2.300407E+03  6.491057E-10 -1.046047E-10
       118  12 -2.994104E+05 -1.235951E+05 -6.693059E+04 -4.992343E+04  7.867995E-10  2.206933E-10
       118  13  1.816176E+05  1.211937E+05  1.460261E+05 -3.229967E+04  1.077116E-09  1.384723E-11
       118  14  1.645567E+05 -1.366302E+03  6.636646E+04 -2.168208E+04  4.482414E-10 -8.726726E-10
       118  15  1.816516E+05 -6.154888E+03  3.908943E+04 -3.222538E+04  2.290616E-09  1.895584E-11
       118  16  7.655521E+05  2.661169E+05  2.875202E+05 -8.881165E+04 -5.535132E-10 -2.219154E-10
       118  17  6.959998E+05  1.286560E+05  1.854221E+05 -4.108054E+04  2.180196E-10 -5.234270E-10
       118  18  6.629306E+05  1.112709E+05  1.450954E+05 -1.451347E+04 -1.271369E-09 -3.664161E-10
       118  19 -4.019919E+05 -2.374075E+04  4.521029E+03  2.415948E+04 -7.920289E+04 -7.638220E+03
       118  20 -3.666191E+05 -1.314049E+05 -5.269957E+04 -2.299305E+03 -5.756140E+04 -2.378168E+04
       118  21 -2.994088E+05 -1.235941E+05 -6.692702E+04 -4.992271E+04 -3.592848E+04 -2.467226E+04
       118  22  1.816285E+05  1.211964E+05  1.460451E+05 -3.229906E+04 -1.003826E+05 -7.645556E+03
       118  23  1.645614E+05 -1.364554E+03  6.637551E+04 -2.168083E+04 -6.517338E+04 -2.378249E+04
       118  24  1.816527E+05 -6.153993E+03  3.909226E+04 -3.222479E+04 -2.997546E+04 -2.466982E+04
       118  25  7.655679E+05  2.661209E+05  2.875480E+05 -8.881090E+04 -1.215822E+05 -7.649038E+03
       118  26  6.960056E+05  1.286580E+05  1.854332E+05 -4.107915E+04 -7.279180E+04 -2.378283E+04
       118  27  6.629314E+05  1.112717E+05  1.450976E+05 -1.451300E+04 -2.401788E+04 -2.466704E+04
       119   1 -2.636986E+05 -1.002702E+05 -6.599805E+04 -3.004851E+04  2.586801E+04  2.161225E+04
       119   2 -2.141204E+05 -9.487748E+04 -6.872985E+04 -2.100593E+04  1.804265E+04  1.960808E+04
       119   3 -1.617276E+05 -8.257525E+04 -6.462275E+04 -3.364836E+04  1.021568E+04  1.692578E+04
       119   4  1.747168E+05  6.841328E+03  3.112061E+04 -3.236033E+04  2.440317E+04  2.161068E+04
       119   5  1.732651E+05 -2.942812E+02  1.678488E+04 -2.151777E+04  1.597032E+04  1.960690E+04
       119   6  1.747293E+05 -4.174059E+02  9.706377E+03 -3.235925E+04  7.536516E+03  1.692516E+04
       119   7  6.133116E+05  1.139399E+05  1.282274E+05 -3.467381E+04  2.293731E+04  2.160911E+04
       119   8  5.607908E+05  9.427883E+04  1.022904E+05 -2.202994E+04  1.389672E+04  1.960573E+04
       119   9  5.112920E+05  8.173283E+04  8.402855E+04 -3.106944E+04  4.855912E+03  1.692453E+04
       119  10 -2.636995E+05 -1.002709E+05 -6.600019E+04 -3.004896E+04 -1.285122E-10 -1.863581E-10
       119  11 -2.141208E+05 -9.487798E+04 -6.873118E+04 -2.100622E+04 -1.252029E-09 -1.109408E-10
       119  12 -1.617278E+05 -8.257559E+04 -6.462348E+04 -3.364850E+04 -2.417824E-10  2.894264E-10
       119  13  1.747160E+05  6.840667E+03  3.111862E+04 -3.236075E+04 -5.335826E-12 -5.127126E-11
       119  14  1.732647E+05 -2.947625E+02  1.678368E+04 -2.151803E+04  1.615117E-09 -4.047488E-11
       119  15  1.747292E+05 -4.177287E+02  9.705732E+03 -3.235936E+04 -7.126998E-10  1.921556E-10
       119  16  6.133109E+05  1.139392E+05  1.282255E+05 -3.467420E+04 -1.952187E-09  7.261746E-11
       119  17  5.607905E+05  9.427836E+04  1.022893E+05 -2.203016E+04 -6.354308E-10 -1.031365E-10
       119  18  5.112919E+05  8.173252E+04  8.402797E+04 -3.106951E+04 -2.581462E-11  8.839579E-11
       119  19 -2.636986E+05 -1.002702E+05 -6.599805E+04 -3.004851E+04 -2.586801E+04 -2.161225E+04
       119  20 -2.141204E+05 -9.487748E+04 -6.872985E+04 -2.100593E+04 -1.804265E+04 -1.960808E+04
       119  21 -1.617276E+05 -8.257525E+04 -6.462275E+04 -3.364836E+04 -1.021568E+04 -1.692578E+04
       119  22  1.747168E+05  6.841328E+03  3.112061E+04 -3.236033E+04 -2.440317E+04 -2.161068E+04
       119  23  1.732651E+05 -2.942812E+02  1.678488E+04 -2.151777E+04 -1.597032E+04 -1.960690E+04
       119  24  1.747293E+05 -4.174059E+02  9.706377E+03 -3.235925E+04 -7.536516E+03 -1.692516E+04
       119  25  6.133116E+05  1.139399E+05  1.282274E+05 -3.467381E+04 -2.293731E+04 -2.160911E+04
       119  26  5.607908E+05  9.427883E+04  1.022904E+05 -2.202994E+04 -1.389672E+04 -1.960573E+04
       119  27  5.112920E+05  8.173283E+04  8.402855E+04 -3.106944E+04 -4.855912E+03 -1.692453E+04
       120   1 -1.200200E+05 -7.146824E+04 -5.731106E+04 -3.244325E+04  8.503943E+03  1.520642E+04
       120   2 -6.932475E+04 -5.945688E+04 -4.943834E+04 -2.161249E+04  6.439871E+03  1.239918E+04
       120   3 -1.823421E+04 -4.701931E+04 -4.011109E+04 -3.246092E+04  4.374703E+03  9.562965E+03
       120   4  1.741754E+05  3.210339E+02  7.444636E+03 -3.235834E+04  6.026052E+03  1.520608E+04
       120   5  1.739810E+05 -6.715496E+01  4.216180E+03 -2.151905E+04  3.935233E+03  1.239920E+04
       120   6  1.741829E+05 -2.472916E+01  2.460099E+03 -3.235843E+04  1.843483E+03  9.563359E+03
       120   7  4.684518E+05  7.210451E+04  7.219505E+04 -3.227340E+04  3.547001E+03  1.520574E+04
       120   8  4.173420E+05  5.931860E+04  5.786708E+04 -2.142557E+04  1.429625E+03  1.239922E+04
       120   9  3.666345E+05  4.696736E+04  4.502902E+04 -3.225590E+04 -6.885118E+02  9.563752E+03
       120  10 -1.200202E+05 -7.146851E+04 -5.731163E+04 -3.244335E+04  1.626141E-10  2.382250E-10
       120  11 -6.932483E+04 -5.945706E+04 -4.943870E+04 -2.161256E+04 -9.348061E-10 -2.947915E-10
       120  12 -1.823425E+04 -4.701941E+04 -4.011130E+04 -3.246096E+04 -3.196400E-11  1.474454E-10
       120  13  1.741753E+05  3.207758E+02  7.444133E+03 -3.235842E+04 -1.077058E-09  2.149823E-10
       120  14  1.739809E+05 -6.732422E+01  4.215862E+03 -2.151909E+04 -1.045784E-09 -2.122221E-10
       120  15  1.741828E+05 -2.482829E+01  2.459921E+03 -3.235844E+04  1.491393E-09 -2.079756E-10
       120  16  4.684518E+05  7.210426E+04  7.219460E+04 -3.227344E+04 -2.866984E-09  6.489848E-11
       120  17  4.173420E+05  5.931843E+04  5.786679E+04 -2.142559E+04 -8.944945E-10 -5.945204E-11
       120  18  3.666345E+05  4.696726E+04  4.502885E+04 -3.225589E+04 -5.432622E-10 -1.526839E-10
       120  19 -1.200200E+05 -7.146824E+04 -5.731106E+04 -3.244325E+04 -8.503943E+03 -1.520642E+04
       120  20 -6.932475E+04 -5.945688E+04 -4.943834E+04 -2.161249E+04 -6.439871E+03 -1.239918E+04
       120  21 -1.823421E+04 -4.701931E+04 -4.011109E+04 -3.246092E+04 -4.374703E+03 -9.562965E+03
       120  22  1.741754E+05  3.210339E+02  7.444636E+03 -3.235834E+04 -6.026052E+03 -1.520608E+04
       120  23  1.739810E+05 -6.715496E+01  4.216180E+03 -2.151905E+04 -3.935233E+03 -1.239920E+04
       120  24  1.741829E+05 -2.472916E+01  2.460099E+03 -3.235843E+04 -1.843483E+03 -9.563359E+03
       120  25  4.684518E+05  7.210451E+04  7.219505E+04 -3.227340E+04 -3.547001E+03 -1.520574E+04
       120  26  4.173420E+05  5.931860E+04  5.786708E+04 -2.142557E+04 -1.429625E+03 -1.239922E+04
       120  27  3.666345E+05  4.696736E+04  4.502902E+04 -3.225590E+04  6.885118E+02 -9.563752E+03
       121   1  2.389281E+04 -3.662549E+04 -3.108473E+04 -3.238823E+04  3.971802E+03  7.905805E+03
       121   2  7.470379E+04 -2.426083E+04 -2.075234E+04 -2.154346E+04  3.399232E+03  5.065723E+03
       121   3  1.255915E+05 -1.185818E+04 -1.004022E+04 -3.235615E+04  2.826247E+03  2.224866E+03
       121   4  1.741146E+05  1.178467E+01  1.895563E+03 -3.235365E+04  1.450123E+03  7.906358E+03
       121   5  1.740789E+05 -6.260857E+00  1.158848E+03 -2.152503E+04  8.766452E+02  5.066421E+03
       121   6  1.741176E+05  1.397534E+01  8.024782E+02 -3.235366E+04  3.027975E+02  2.225718E+03
       121   7  3.243575E+05  3.664755E+04  3.487451E+04 -3.231906E+04 -1.072159E+03  7.906910E+03
       121   8  2.734633E+05  2.424765E+04  2.306945E+04 -2.150660E+04 -1.646341E+03  5.067118E+03
       121   9  2.226459E+05  1.188597E+04  1.164505E+04 -3.235117E+04 -2.220847E+03  2.226570E+03
       121  10  2.389278E+04 -3.662556E+04 -3.108488E+04 -3.238825E+04  1.377770E-10  3.255685E-10
       121  11  7.470377E+04 -2.426086E+04 -2.075241E+04 -2.154348E+04 -1.515542E-09  5.859215E-10
       121  12  1.255915E+05 -1.185819E+04 -1.004024E+04 -3.235615E+04 -1.403828E-09  6.364694E-10
       121  13  1.741146E+05  1.171697E+01  1.895442E+03 -3.235366E+04 -5.859278E-11  2.463922E-10
       121  14  1.740789E+05 -6.288630E+00  1.158798E+03 -2.152504E+04 -5.070917E-10 -3.103849E-11
       121  15  1.741176E+05  1.396999E+01  8.024687E+02 -3.235366E+04  1.513957E-09  1.992388E-10
       121  16  3.243575E+05  3.664748E+04  3.487439E+04 -3.231905E+04 -3.100751E-10 -5.974593E-10
       121  17  2.734633E+05  2.424762E+04  2.306940E+04 -2.150659E+04  1.572286E-10  1.286401E-11
       121  18  2.226459E+05  1.188597E+04  1.164503E+04 -3.235117E+04  9.714279E-10  1.821242E-11
       121  19  2.389281E+04 -3.662549E+04 -3.108473E+04 -3.238823E+04 -3.971802E+03 -7.905805E+03
       121  20  7.470379E+04 -2.426083E+04 -2.075234E+04 -2.154346E+04 -3.399232E+03 -5.065723E+03
       121  21  1.255915E+05 -1.185818E+04 -1.004022E+04 -3.235615E+04 -2.826247E+03 -2.224866E+03
       121  22  1.741146E+05  1.178467E+01  1.895563E+03 -3.235365E+04 -1.450123E+03 -7.906358E+03
       121  23  1.740789E+05 -6.260857E+00  1.158848E+03 -2.152503E+04 -8.766452E+02 -5.066421E+03
       121  24  1.741176E+05  1.397534E+01  8.024782E+02 -3.235366E+04 -3.027975E+02 -2.225718E+03
       121  25  3.243575E+05  3.664755E+04  3.487451E+04 -3.231906E+04  1.072159E+03 -7.906910E+03
       121  26  2.734633E+05  2.424765E+04  2.306945E+04 -2.150660E+04  1.646341E+03 -5.067118E+03
       121  27  2.226459E+05  1.188597E+04  1.164505E+04 -3.235117E+04  2.220847E+03 -2.226570E+03
       122   1  1.677606E+05 -1.506801E+03 -5.342910E+02 -3.236028E+04  2.687240E+03  5.712939E+02
       122   2  2.185861E+05  1.086180E+04  1.053582E+04 -2.152806E+04  2.326896E+03 -2.269100E+03
       122   3  2.694524E+05  2.325516E+04  2.184280E+04 -3.234986E+04  1.966694E+03 -5.108581E+03
       122   4  1.741102E+05  1.414261E+01  7.219899E+02 -3.235296E+04  1.638467E+02  5.721717E+02
       122   5  1.740901E+05  2.548542E+00  7.256641E+02 -2.152591E+04 -1.957486E+02 -2.268294E+03
       122   6  1.741089E+05  1.592091E+01  9.659876E+02 -3.235296E+04 -5.551725E+02 -5.107837E+03
       122   7  1.804600E+05  1.535087E+03  1.978293E+03 -3.234564E+04 -2.359572E+03  5.730495E+02
       122   8  1.295960E+05 -1.085684E+04 -9.084587E+03 -2.152375E+04 -2.718214E+03 -2.267488E+03
       122   9  7.877394E+04 -2.322392E+04 -1.991135E+04 -3.235606E+04 -3.076656E+03 -5.107094E+03
       122  10  1.677606E+05 -1.506803E+03 -5.343052E+02 -3.236028E+04 -1.271192E-10  8.194452E-11
       122  11  2.185861E+05  1.086180E+04  1.053580E+04 -2.152806E+04  8.320651E-10 -8.598151E-10
       122  12  2.694524E+05  2.325513E+04  2.184274E+04 -3.234985E+04 -7.731779E-10 -7.375577E-10
       122  13  1.741102E+05  1.414225E+01  7.219892E+02 -3.235296E+04 -2.216849E-09  6.472928E-10
       122  14  1.740901E+05  2.543006E+00  7.256543E+02 -2.152591E+04 -6.013780E-10  2.055192E-10
       122  15  1.741089E+05  1.589281E+01  9.659380E+02 -3.235296E+04 -8.484353E-10 -8.730108E-10
       122  16  1.804600E+05  1.535085E+03  1.978282E+03 -3.234564E+04 -1.191469E-09  5.164717E-10
       122  17  1.295960E+05 -1.085684E+04 -9.084611E+03 -2.152375E+04 -8.069089E-10  7.665185E-10
       122  18  7.877393E+04 -2.322395E+04 -1.991142E+04 -3.235607E+04 -3.785727E-10 -2.500276E-10
       122  19  1.677606E+05 -1.506801E+03 -5.342910E+02 -3.236028E+04 -2.687240E+03 -5.712939E+02
       122  20  2.185861E+05  1.086180E+04  1.053582E+04 -2.152806E+04 -2.326896E+03  2.269100E+03
       122  21  2.694524E+05  2.325516E+04  2.184280E+04 -3.234986E+04 -1.966694E+03  5.108581E+03
       122  22  1.741102E+05  1.414261E+01  7.219899E+02 -3.235296E+04 -1.638467E+02 -5.721717E+02
       122  23  1.740901E+05  2.548542E+00  7.256641E+02 -2.152591E+04  1.957486E+02  2.268294E+03
       122  24  1.741089E+05  1.592091E+01  9.659876E+02 -3.235296E+04  5.551725E+02  5.107837E+03
       122  25  1.804600E+05  1.535087E+03  1.978293E+03 -3.234564E+04  2.359572E+03 -5.730495E+02
       122  26  1.295960E+05 -1.085684E+04 -9.084587E+03 -2.152375E+04  2.718214E+03  2.267488E+03
       122  27  7.877394E+04 -2.322392E+04 -1.991135E+04 -3.235606E+04  3.076656E+03  5.107094E+03
       123   1  3.116751E+05  3.359169E+04  3.165361E+04 -3.232827E+04  1.780250E+03 -6.764739E+03
       123   2  3.624668E+05  4.595445E+04  4.347487E+04 -2.150130E+04  7.965754E+02 -9.599890E+03
       123   3  4.134439E+05  5.851910E+04  5.598712E+04 -3.233897E+04 -1.864899E+02 -1.240845E+04
       123   4  1.741376E+05 -9.870492E-01  1.189378E+03 -3.235540E+04 -7.503329E+02 -6.764103E+03
       123   5  1.740457E+05 -2.630840E+01  1.934011E+03 -2.152285E+04 -1.710230E+03 -9.599548E+03
       123   6  1.741319E+05  1.461543E+02  3.353193E+03 -3.235535E+04 -2.669438E+03 -1.240839E+04
       123   7  3.661780E+04 -3.359493E+04 -2.927600E+04 -3.238252E+04 -3.280361E+03 -6.763466E+03
       123   8 -1.434224E+04 -4.600945E+04 -3.960901E+04 -2.154440E+04 -4.216283E+03 -9.599206E+03
       123   9 -6.512651E+04 -5.823063E+04 -4.928422E+04 -3.237172E+04 -5.151441E+03 -1.240832E+04
       123  10  3.116751E+05  3.359164E+04  3.165352E+04 -3.232826E+04 -2.487440E-09  3.059079E-10
       123  11  3.624668E+05  4.595435E+04  4.347470E+04 -2.150129E+04 -4.646517E-10  7.989697E-10
       123  12  4.134439E+05  5.851893E+04  5.598684E+04 -3.233897E+04 -5.718610E-11  2.183754E-10
       123  13  1.741376E+05 -1.036336E+00  1.189291E+03 -3.235540E+04  5.853626E-11 -3.348158E-10
       123  14  1.740457E+05 -2.640815E+01  1.933832E+03 -2.152287E+04 -2.057784E-09  2.312480E-10
       123  15  1.741319E+05  1.459870E+02  3.352890E+03 -3.235538E+04  3.806615E-10 -1.920451E-11
       123  16  3.661778E+04 -3.359498E+04 -2.927611E+04 -3.238254E+04  1.080859E-09 -2.721488E-11
       123  17 -1.434228E+04 -4.600955E+04 -3.960921E+04 -2.154443E+04  1.371730E-09 -2.484133E-11
       123  18 -6.512658E+04 -5.823080E+04 -4.928456E+04 -3.237178E+04 -2.447209E-10 -3.896796E-10
       123  19  3.116751E+05  3.359169E+04  3.165361E+04 -3.232827E+04 -1.780250E+03  6.764739E+03
       123  20  3.624668E+05  4.595445E+04  4.347487E+04 -2.150130E+04 -7.965754E+02  9.599890E+03
       123  21  4.134439E+05  5.851910E+04  5.598712E+04 -3.233897E+04  1.864899E+02  1.240845E+04
       123  22  1.741376E+05 -9.870492E-01  1.189378E+03 -3.235540E+04  7.503329E+02  6.764103E+03
       123  23  1.740457E+05 -2.630840E+01  1.934011E+03 -2.152285E+04  1.710230E+03  9.599548E+03
       123  24  1.741319E+05  1.461543E+02  3.353193E+03 -3.235535E+04  2.669438E+03  1.240839E+04
       123  25  3.661780E+04 -3.359493E+04 -2.927600E+04 -3.238252E+04  3.280361E+03  6.763466E+03
       123  26 -1.434224E+04 -4.600945E+04 -3.960901E+04 -2.154440E+04  4.216283E+03  9.599206E+03
       123  27 -6.512651E+04 -5.823063E+04 -4.928422E+04 -3.237172E+04  5.151441E+03  1.240832E+04
       124   1  4.559483E+05  6.854913E+04  6.655917E+04 -3.180412E+04 -6.825128E+02 -1.412039E+04
       124   2  5.062091E+05  8.100758E+04  8.087380E+04 -2.176184E+04 -5.003197E+03 -1.681354E+04
       124   3  5.578850E+05  9.669449E+04  9.881606E+04 -3.339150E+04 -9.323164E+03 -1.888986E+04
       124   4  1.743803E+05 -1.843376E+02  4.356455E+03 -3.235702E+04 -3.348764E+03 -1.412055E+04
       124   5  1.737160E+05 -1.387822E+02  7.504023E+03 -2.152076E+04 -7.119578E+03 -1.681422E+04
       124   6  1.743699E+05  3.041065E+03  1.389903E+04 -3.235709E+04 -1.088933E+04 -1.889090E+04
       124   7 -1.071136E+05 -6.892314E+04 -5.785112E+04 -3.290966E+04 -6.013821E+03 -1.412071E+04
       124   8 -1.586738E+05 -8.129257E+04 -6.587253E+04 -2.127981E+04 -9.234840E+03 -1.681490E+04
       124   9 -2.090079E+05 -9.062227E+04 -7.102710E+04 -3.132333E+04 -1.245453E+04 -1.889195E+04
       124  10  4.559482E+05  6.854892E+04  6.655879E+04 -3.180412E+04 -1.130165E-09 -3.862520E-10
       124  11  5.062090E+05  8.100727E+04  8.087322E+04 -2.176191E+04  1.279809E-09 -3.674587E-10
       124  12  5.578848E+05  9.669409E+04  9.881522E+04 -3.339164E+04 -6.179167E-10 -4.090369E-10
       124  13  1.743802E+05 -1.845547E+02  4.356059E+03 -3.235705E+04 -2.118381E-12 -5.616715E-10
       124  14  1.737159E+05 -1.390994E+02  7.503396E+03 -2.152086E+04 -1.045907E-09 -4.548181E-10
       124  15  1.743697E+05  3.040650E+03  1.389813E+04 -3.235726E+04  1.182825E-09 -1.662690E-11
       124  16 -1.071137E+05 -6.892336E+04 -5.785156E+04 -3.290973E+04  3.950234E-10 -7.226297E-10
       124  17 -1.586740E+05 -8.129290E+04 -6.587323E+04 -2.127994E+04  4.854444E-10 -5.162603E-10
       124  18 -2.090082E+05 -9.062270E+04 -7.102806E+04 -3.132352E+04  2.116805E-09  5.519805E-10
       124  19  4.559483E+05  6.854913E+04  6.655917E+04 -3.180412E+04  6.825128E+02  1.412039E+04
       124  20  5.062091E+05  8.100758E+04  8.087380E+04 -2.176184E+04  5.003197E+03  1.681354E+04
       124  21  5.578850E+05  9.669449E+04  9.881606E+04 -3.339150E+04  9.323164E+03  1.888986E+04
       124  22  1.743803E+05 -1.843376E+02  4.356455E+03 -3.235702E+04  3.348764E+03  1.412055E+04
       124  23  1.737160E+05 -1.387822E+02  7.504023E+03 -2.152076E+04  7.119578E+03  1.681422E+04
       124  24  1.743699E+05  3.041065E+03  1.389903E+04 -3.235709E+04  1.088933E+04  1.889090E+04
       124  25 -1.071136E+05 -6.892314E+04 -5.785112E+04 -3.290966E+04  6.013821E+03  1.412071E+04
       124  26 -1.586738E+05 -8.129257E+04 -6.587253E+04 -2.127981E+04  9.234840E+03  1.681490E+04
       124  27 -2.090079E+05 -9.062227E+04 -7.102710E+04 -3.132333E+04  1.245453E+04  1.889195E+04
       125   1  6.036142E+05  1.012061E+05  1.113320E+05 -2.432050E+04 -7.728071E+03 -2.181715E+04
       125   2  6.461270E+05  1.159217E+05  1.363621E+05 -3.029175E+04 -3.576804E+04 -2.125800E+04
       125   3  7.060655E+05  1.853453E+05  1.933336E+05 -5.742341E+04 -6.381812E+04 -6.837648E+03
       125   4  1.774695E+05 -2.763395E+03  1.745664E+04 -3.223718E+04 -1.337806E+04 -2.181925E+04
       125   5  1.698116E+05 -6.358343E+02  2.962531E+04 -2.166890E+04 -2.908885E+04 -2.125721E+04
       125   6  1.774511E+05  5.408232E+04  6.519080E+04 -3.226051E+04 -4.480714E+04 -6.830718E+03
       125   7 -2.485055E+05 -1.067448E+05 -7.642969E+04 -4.014837E+04 -1.902421E+04 -2.182120E+04
       125   8 -3.062925E+05 -1.172086E+05 -7.712560E+04 -1.305275E+04 -2.241473E+04 -2.125625E+04
       125   9 -3.509061E+05 -7.719859E+04 -6.297042E+04 -7.119103E+03 -2.581228E+04 -6.822246E+03
       125  10  6.036140E+05  1.012056E+05  1.113310E+05 -2.432064E+04  9.165352E-10 -1.922820E-10
       125  11  6.461255E+05  1.159209E+05  1.363588E+05 -3.029236E+04  1.636881E-09  2.553076E-10
       125  12  7.060611E+05  1.853442E+05  1.933259E+05 -5.742376E+04  1.802540E-09  3.916168E-10
       125  13  1.774691E+05 -2.763955E+03  1.745541E+04 -3.223742E+04 -1.195285E-10 -8.628529E-12
       125  14  1.698106E+05 -6.365467E+02  2.962287E+04 -2.166940E+04 -1.079398E-09  5.664088E-10
       125  15  1.774489E+05  5.408173E+04  6.518694E+04 -3.226076E+04  1.471592E-09 -2.885176E-11
       125  16 -2.485060E+05 -1.067454E+05 -7.643126E+04 -4.014870E+04 -1.060178E-09  9.450444E-10
       125  17 -3.062931E+05 -1.172092E+05 -7.712740E+04 -1.305314E+04  1.600859E-10  5.331121E-10
       125  18 -3.509068E+05 -7.719882E+04 -6.297176E+04 -7.119245E+03 -7.583665E-10  6.707761E-10
       125  19  6.036142E+05  1.012061E+05  1.113320E+05 -2.432050E+04  7.728071E+03  2.181715E+04
       125  20  6.461270E+05  1.159217E+05  1.363621E+05 -3.029175E+04  3.576804E+04  2.125800E+04
       125  21  7.060655E+05  1.853453E+05  1.933336E+05 -5.742341E+04  6.381812E+04  6.837648E+03
       125  22  1.774695E+05 -2.763395E+03  1.745664E+04 -3.223718E+04  1.337806E+04  2.181925E+04
       125  23  1.698116E+05 -6.358343E+02  2.962531E+04 -2.166890E+04  2.908885E+04  2.125721E+04
       125  24  1.774511E+05  5.408232E+04  6.519080E+04 -3.226051E+04  4.480714E+04  6.830718E+03
       125  25 -2.485055E+05 -1.067448E+05 -7.642969E+04 -4.014837E+04  1.902421E+04  2.182120E+04
       125  26 -3.062925E+05 -1.172086E+05 -7.712560E+04 -1.305275E+04  2.241473E+04  2.125625E+04
       125  27 -3.509061E+05 -7.719859E+04 -6.297042E+04 -7.119103E+03  2.581228E+04  6.822246E+03
       126   1  5.488854E+05  1.767538E+06  5.474416E+05 -3.210930E+05  2.293277E+04  1.013672E+05
       126   2  3.775959E+05  1.286811E+06  3.738681E+05 -2.079356E+05  6.639959E+04  3.770266E+04
       126   3  2.620316E+05  8.286081E+05  2.556252E+05 -2.918586E+05  5.421985E+04 -2.599113E+04
       126   4  4.766440E+04 -2.496261E+05  5.695821E+04 -2.966226E+05  2.303673E+04  3.795250E+04
       126   5 -2.920417E+02 -2.563160E+05  2.676189E+04 -1.981146E+05  6.643885E+04  2.386700E+04
       126   6 -1.026228E+03 -2.492153E+05  1.758475E+04 -2.967055E+05  5.413549E+04  9.703219E+03
       126   7 -4.538517E+05 -2.263073E+06 -4.338046E+05 -2.722296E+05  2.313590E+04 -2.525727E+04
       126   8 -3.783426E+05 -1.797230E+06 -3.204953E+05 -1.883169E+05  6.647773E+04  1.006527E+04
       126   9 -2.641614E+05 -1.325951E+06 -2.205225E+05 -3.015429E+05  5.405050E+04  4.533637E+04
       126  10  5.488821E+05  1.767527E+06  5.474214E+05 -3.210949E+05  2.333746E-10  1.267707E-09
       126  11  3.775908E+05  1.286808E+06  3.738571E+05 -2.079376E+05 -5.199542E-10 -2.462141E-09
       126  12  2.620283E+05  8.286065E+05  2.556184E+05 -2.918575E+05 -1.186248E-09 -1.635741E-09
       126  13  4.766345E+04 -2.496278E+05  5.695450E+04 -2.966233E+05  4.329442E-10  3.065246E-11
       126  14 -2.969348E+02 -2.563178E+05  2.675252E+04 -1.981159E+05  2.264944E-09  8.400959E-10
       126  15 -1.029400E+03 -2.492161E+05  1.757906E+04 -2.967059E+05 -2.274615E-10 -1.485768E-10
       126  16 -4.538524E+05 -2.263074E+06 -4.338068E+05 -2.722292E+05  5.611920E-11 -1.549090E-09
       126  17 -3.783474E+05 -1.797231E+06 -3.205038E+05 -1.883174E+05 -4.254832E-10 -1.091395E-09
       126  18 -2.641651E+05 -1.325954E+06 -2.205318E+05 -3.015448E+05 -1.321141E-09  1.382711E-09
       126  19  5.488854E+05  1.767538E+06  5.474416E+05 -3.210930E+05 -2.293277E+04 -1.013672E+05
       126  20  3.775959E+05  1.286811E+06  3.738681E+05 -2.079356E+05 -6.639959E+04 -3.770266E+04
       126  21  2.620316E+05  8.286081E+05  2.556252E+05 -2.918586E+05 -5.421985E+04  2.599113E+04
       126  22  4.766440E+04 -2.496261E+05  5.695821E+04 -2.966226E+05 -2.303673E+04 -3.795250E+04
       126  23 -2.920417E+02 -2.563160E+05  2.676189E+04 -1.981146E+05 -6.643885E+04 -2.386700E+04
       126  24 -1.026228E+03 -2.492153E+05  1.758475E+04 -2.967055E+05 -5.413549E+04 -9.703219E+03
       126  25 -4.538517E+05 -2.263073E+06 -4.338046E+05 -2.722296E+05 -2.313590E+04  2.525727E+04
       126  26 -3.783426E+05 -1.797230E+06 -3.204953E+05 -1.883169E+05 -6.647773E+04 -1.006527E+04
       126  27 -2.641614E+05 -1.325951E+06 -2.205225E+05 -3.015429E+05 -5.405050E+04 -4.533637E+04
       127   1  1.717903E+05  4.353170E+05  1.675824E+05 -2.998929E+05  3.365439E+04 -1.288232E+04
       127   2  5.406640E+04 -3.439965E+04  6.026925E+04 -1.978934E+05  1.106483E+04 -1.945882E+04
       127   3 -5.761981E+04 -5.026542E+05 -4.153903E+04 -2.954337E+05 -1.201639E+04 -2.603850E+04
       127   4  3.893547E+03 -2.518598E+05  1.524593E+04 -2.972244E+05  3.360265E+04  6.977007E+03
       127   5  8.246713E+02 -2.524209E+05  1.212127E+04 -1.974535E+05  1.100963E+04  8.346970E+02
       127   6  3.733224E+03 -2.518005E+05  1.421148E+04 -2.972250E+05 -1.207587E+04 -5.315597E+03
       127   7 -1.640349E+05 -9.385951E+05 -1.371183E+05 -2.945586E+05  3.355104E+04  2.681461E+04
       127   8 -5.242003E+04 -4.703968E+05 -3.602808E+04 -1.970136E+05  1.095444E+04  2.112117E+04
       127   9  6.508223E+04 -8.871753E+02  6.995968E+04 -2.990170E+05 -1.213544E+04  1.541560E+04
       127  10  1.717890E+05  4.353165E+05  1.675799E+05 -2.998925E+05 -1.604162E-09  1.378916E-09
       127  11  5.406617E+04 -3.440009E+04  6.026831E+04 -1.978932E+05 -1.357827E-09 -3.165137E-09
       127  12 -5.762014E+04 -5.026550E+05 -4.154058E+04 -2.954339E+05 -1.853958E-09 -9.804884E-10
       127  13  3.892321E+03 -2.518602E+05  1.524372E+04 -2.972246E+05 -9.083575E-10  3.127575E-11
       127  14  8.245410E+02 -2.524209E+05  1.212104E+04 -1.974535E+05  8.847253E-10  1.282075E-09
       127  15  3.733060E+03 -2.518006E+05  1.421115E+04 -2.972251E+05 -8.338673E-10 -1.185581E-10
       127  16 -1.640363E+05 -9.385962E+05 -1.371218E+05 -2.945593E+05 -7.234593E-10 -1.979376E-09
       127  17 -5.242028E+04 -4.703974E+05 -3.602915E+04 -1.970138E+05 -1.835749E-10 -1.881372E-09
       127  18  6.508201E+04 -8.874698E+02  6.995896E+04 -2.990169E+05 -1.085918E-09  7.188276E-10
       127  19  1.717903E+05  4.353170E+05  1.675824E+05 -2.998929E+05 -3.365439E+04  1.288232E+04
       127  20  5.406640E+04 -3.439965E+04  6.026925E+04 -1.978934E+05 -1.106483E+04  1.945882E+04
       127  21 -5.761981E+04 -5.026542E+05 -4.153903E+04 -2.954337E+05  1.201639E+04  2.603850E+04
       127  22  3.893547E+03 -2.518598E+05  1.524593E+04 -2.972244E+05 -3.360265E+04 -6.977007E+03
       127  23  8.246713E+02 -2.524209E+05  1.212127E+04 -1.974535E+05 -1.100963E+04 -8.346970E+02
       127  24  3.733224E+03 -2.518005E+05  1.421148E+04 -2.972250E+05  1.207587E+04  5.315597E+03
       127  25 -1.640349E+05 -9.385951E+05 -1.371183E+05 -2.945586E+05 -3.355104E+04 -2.681461E+04
       127  26 -5.242003E+04 -4.703968E+05 -3.602808E+04 -1.970136E+05 -1.095444E+04 -2.112117E+04
       127  27  6.508223E+04 -8.871753E+02  6.995968E+04 -2.990170E+05  1.213544E+04 -1.541560E+04
       128   1 -1.570978E+05 -8.904385E+05 -1.259789E+05 -3.014702E+05 -3.155836E+04 -4.098804E+04
       128   2 -2.712836E+05 -1.361624E+06 -2.260322E+05 -1.893839E+05 -4.666521E+04 -1.391787E+04
       128   3 -3.509218E+05 -1.827951E+06 -3.352345E+05 -2.749744E+05 -1.705623E+04  1.321724E+04
       128   4 -4.754035E+02 -2.495834E+05  1.602031E+04 -2.968283E+05 -3.164918E+04 -7.840410E+03
       128   5  1.578056E+02 -2.554898E+05  2.377306E+04 -1.979607E+05 -4.664390E+04 -2.043026E+04
       128   6  4.220661E+04 -2.498778E+05  4.993437E+04 -2.967383E+05 -1.695962E+04 -3.293453E+04
       128   7  1.561200E+05  3.916580E+05  1.579983E+05 -2.921813E+05 -3.173946E+04  2.534109E+04
       128   8  2.715154E+05  8.517835E+05  2.735001E+05 -2.065521E+05 -4.662243E+04 -2.695413E+04
       128   9  4.351537E+05  1.330476E+06  4.349301E+05 -3.185561E+05 -1.685992E+04 -7.920351E+04
       128  10 -1.570993E+05 -8.904406E+05 -1.259840E+05 -3.014712E+05 -1.532696E-09  1.236682E-09
       128  11 -2.712860E+05 -1.361624E+06 -2.260367E+05 -1.893845E+05 -1.549830E-09 -2.485009E-09
       128  12 -3.509221E+05 -1.827951E+06 -3.352354E+05 -2.749742E+05 -3.250518E-10 -4.411262E-10
       128  13 -4.764957E+02 -2.495838E+05  1.601832E+04 -2.968285E+05 -2.520632E-09  6.163386E-11
       128  14  1.553570E+02 -2.554908E+05  2.376818E+04 -1.979615E+05 -8.790212E-10  1.110041E-09
       128  15  4.220601E+04 -2.498790E+05  4.993179E+04 -2.967387E+05  4.064261E-10 -1.365076E-10
       128  16  1.561187E+05  3.916570E+05  1.579952E+05 -2.921806E+05 -7.137417E-10 -1.815984E-09
       128  17  2.715128E+05  8.517822E+05  2.734946E+05 -2.065531E+05  8.734840E-10 -1.778743E-09
       128  18  4.351517E+05  1.330470E+06  4.349178E+05 -3.185572E+05  1.241568E-10  1.843078E-10
       128  19 -1.570978E+05 -8.904385E+05 -1.259789E+05 -3.014702E+05  3.155836E+04  4.098804E+04
       128  20 -2.712836E+05 -1.361624E+06 -2.260322E+05 -1.893839E+05  4.666521E+04  1.391787E+04
       128  21 -3.509218E+05 -1.827951E+06 -3.352345E+05 -2.749744E+05  1.705623E+04 -1.321724E+04
       128  22 -4.754035E+02 -2.495834E+05  1.602031E+04 -2.968283E+05  3.164918E+04  7.840410E+03
       128  23  1.578056E+02 -2.554898E+05  2.377306E+04 -1.979607E+05  4.664390E+04  2.043026E+04
       128  24  4.220661E+04 -2.498778E+05  4.993437E+04 -2.967383E+05  1.695962E+04  3.293453E+04
       128  25  1.561200E+05  3.916580E+05  1.579983E+05 -2.921813E+05  3.173946E+04 -2.534109E+04
       128  26  2.715154E+05  8.517835E+05  2.735001E+05 -2.065521E+05  4.662243E+04  2.695413E+04
       128  27  4.351537E+05  1.330476E+06  4.349301E+05 -3.185561E+05  1.685992E+04  7.920351E+04
       129   1 -1.673699E+06 -5.542725E+05 -3.118539E+05 -6.205698E+05 -1.365199E+05 -4.372894E+04
       129   2 -1.625119E+06 -3.578805E+05 -1.863598E+05 -6.104979E+05 -8.784386E+04 -9.532983E+03
       129   3 -1.622472E+06 -3.184244E+05 -1.399586E+05 -5.811089E+05 -3.401223E+04  1.096211E+04
       129   4 -1.238124E+06 -3.283400E+05 -1.832768E+05 -4.383254E+05 -1.193246E+05 -3.728393E+04
       129   5 -1.206340E+06 -1.808071E+05 -7.919750E+04 -4.743345E+05 -8.199110E+04 -7.339231E+03
       129   6 -1.218199E+06 -1.879070E+05 -4.516975E+04 -4.910391E+05 -3.950613E+04  8.899485E+03
       129   7 -8.023557E+05 -1.023396E+05 -5.471677E+04 -2.559487E+05 -1.021162E+05 -3.082964E+04
       129   8 -7.873860E+05 -3.707180E+03  2.795074E+04 -3.380823E+05 -7.613401E+04 -5.143356E+03
       129   9 -8.137626E+05 -5.738704E+04  4.960861E+04 -4.009199E+05 -4.500397E+04  6.835832E+03
       129  10 -1.673719E+06 -5.542796E+05 -3.118927E+05 -6.205746E+05 -2.891428E-10 -3.079526E-10
       129  11 -1.625127E+06 -3.578827E+05 -1.863745E+05 -6.104986E+05 -2.886105E-09 -1.618656E-09
       129  12 -1.622473E+06 -3.184248E+05 -1.399610E+05 -5.811086E+05 -2.125772E-09  1.867178E-10
       129  13 -1.238140E+06 -3.283453E+05 -1.833062E+05 -4.383290E+05 -2.002454E-09 -4.923261E-10
       129  14 -1.206347E+06 -1.808089E+05 -7.921026E+04 -4.743350E+05 -1.871864E-09 -7.670609E-10
       129  15 -1.218201E+06 -1.879075E+05 -4.517284E+04 -4.910389E+05 -1.746263E-09  4.524725E-10
       129  16 -8.023671E+05 -1.023434E+05 -5.473818E+04 -2.559513E+05 -2.303351E-09 -2.640924E-10
       129  17 -7.873922E+05 -3.708767E+03  2.793979E+04 -3.380826E+05 -1.975028E-09 -1.009096E-09
       129  18 -8.137648E+05 -5.738763E+04  4.960471E+04 -4.009197E+05 -5.395307E-11  5.982824E-10
       129  19 -1.673699E+06 -5.542725E+05 -3.118539E+05 -6.205698E+05  1.365199E+05  4.372894E+04
       129  20 -1.625119E+06 -3.578805E+05 -1.863598E+05 -6.104979E+05  8.784386E+04  9.532983E+03
       129  21 -1.622472E+06 -3.184244E+05 -1.399586E+05 -5.811089E+05  3.401223E+04 -1.096211E+04
       129  22 -1.238124E+06 -3.283400E+05 -1.832768E+05 -4.383254E+05  1.193246E+05  3.728393E+04
       129  23 -1.206340E+06 -1.808071E+05 -7.919750E+04 -4.743345E+05  8.199110E+04  7.339231E+03
       129  24 -1.218199E+06 -1.879070E+05 -4.516975E+04 -4.910391E+05  3.950613E+04 -8.899485E+03
       129  25 -8.023557E+05 -1.023396E+05 -5.471677E+04 -2.559487E+05  1.021162E+05  3.082964E+04
       129  26 -7.873860E+05 -3.707180E+03  2.795074E+04 -3.380823E+05  7.613401E+04  5.143356E+03
       129  27 -8.137626E+05 -5.738704E+04  4.960861E+04 -4.009199E+05  4.500397E+04 -6.835832E+03
       130   1 -1.559877E+06 -3.348684E+05 -1.214906E+05 -5.808863E+05 -3.123672E+04  8.643125E+03
       130   2 -1.520076E+06 -2.993551E+05 -9.240059E+04 -5.602842E+05 -2.065471E+04  1.040170E+04
       130   3 -1.469726E+06 -2.883164E+05 -7.313475E+04 -5.550994E+05 -9.834429E+03  1.152427E+04
       130   4 -1.212252E+06 -2.022568E+05 -3.588464E+04 -4.824964E+05 -3.259242E+04  8.133238E+03
       130   5 -1.216948E+06 -1.856676E+05 -1.834952E+04 -4.764364E+05 -2.253288E+04  9.696297E+03
       130   6 -1.210991E+06 -1.934453E+05 -1.021919E+04 -4.857940E+05 -1.223592E+04  1.062314E+04
       130   7 -8.645075E+05 -6.963550E+04  4.971202E+04 -3.840557E+05 -3.394893E+04  7.623025E+03
       130   8 -9.137304E+05 -7.197370E+04  5.569442E+04 -3.925513E+05 -2.441205E+04  8.990516E+03
       130   9 -9.521919E+05 -9.857054E+04  5.269105E+04 -4.164628E+05 -1.463850E+04  9.721621E+03
       130  10 -1.559878E+06 -3.348687E+05 -1.214925E+05 -5.808861E+05  2.370838E-09  2.104471E-09
       130  11 -1.520076E+06 -2.993553E+05 -9.240160E+04 -5.602840E+05 -4.148282E-09 -8.034491E-10
       130  12 -1.469726E+06 -2.883166E+05 -7.313518E+04 -5.550993E+05 -4.750035E-09 -3.237534E-09
       130  13 -1.212253E+06 -2.022572E+05 -3.588676E+04 -4.824962E+05 -1.195747E-10  1.206759E-09
       130  14 -1.216949E+06 -1.856678E+05 -1.835065E+04 -4.764362E+05  1.552233E-09  4.339246E-10
       130  15 -1.210992E+06 -1.934454E+05 -1.021968E+04 -4.857939E+05 -2.569389E-09 -1.662103E-09
       130  16 -8.645087E+05 -6.963587E+04  4.970974E+04 -3.840555E+05 -2.033834E-09  5.025074E-10
       130  17 -9.137311E+05 -7.197395E+04  5.569315E+04 -3.925511E+05  3.890311E-09  1.784634E-09
       130  18 -9.521921E+05 -9.857070E+04  5.269047E+04 -4.164626E+05  3.431804E-09 -2.562876E-11
       130  19 -1.559877E+06 -3.348684E+05 -1.214906E+05 -5.808863E+05  3.123672E+04 -8.643125E+03
       130  20 -1.520076E+06 -2.993551E+05 -9.240059E+04 -5.602842E+05  2.065471E+04 -1.040170E+04
       130  21 -1.469726E+06 -2.883164E+05 -7.313475E+04 -5.550994E+05  9.834429E+03 -1.152427E+04
       130  22 -1.212252E+06 -2.022568E+05 -3.588464E+04 -4.824964E+05  3.259242E+04 -8.133238E+03
       130  23 -1.216948E+06 -1.856676E+05 -1.834952E+04 -4.764364E+05  2.253288E+04 -9.696297E+03
       130  24 -1.210991E+06 -1.934453E+05 -1.021919E+04 -4.857940E+05  1.223592E+04 -1.062314E+04
       130  25 -8.645075E+05 -6.963550E+04  4.971202E+04 -3.840557E+05  3.394893E+04 -7.623025E+03
       130  26 -9.137304E+05 -7.197370E+04  5.569442E+04 -3.925513E+05  2.441205E+04 -8.990516E+03
       130  27 -9.521919E+05 -9.857054E+04  5.269105E+04 -4.164628E+05  1.463850E+04 -9.721621E+03
       131   1 -1.427825E+06 -2.752583E+05 -6.061244E+04 -5.447895E+05 -7.955242E+03  1.035163E+04
       131   2 -1.388580E+06 -2.495428E+05 -4.582098E+04 -5.232066E+05 -4.788478E+03  8.464166E+03
       131   3 -1.334388E+06 -2.398843E+05 -3.279150E+04 -5.192497E+05 -1.608451E+03  6.539783E+03
       131   4 -1.210420E+06 -1.943475E+05 -7.796148E+03 -4.852516E+05 -1.017832E+04  9.517666E+03
       131   5 -1.217855E+06 -1.860596E+05 -4.247248E+03 -4.765350E+05 -7.041482E+03  7.619281E+03
       131   6 -1.210339E+06 -1.938229E+05 -2.436237E+03 -4.854452E+05 -3.891571E+03  5.683923E+03
       131   7 -9.929678E+05 -1.134330E+05  4.501693E+04 -4.256945E+05 -1.240225E+04  8.683382E+03
       131   8 -1.047101E+06 -1.225743E+05  3.732444E+04 -4.298517E+05 -9.295170E+03  6.774141E+03
       131   9 -1.086276E+06 -1.477604E+05  2.791789E+04 -4.516346E+05 -6.175190E+03  4.827877E+03
       131  10 -1.427825E+06 -2.752585E+05 -6.061276E+04 -5.447894E+05  3.911365E-09  7.456422E-10
       131  11 -1.388580E+06 -2.495428E+05 -4.582116E+04 -5.232066E+05  8.794817E-10  3.478513E-10
       131  12 -1.334388E+06 -2.398844E+05 -3.279159E+04 -5.192497E+05 -1.458061E-09  9.837211E-10
       131  13 -1.210420E+06 -1.943476E+05 -7.796513E+03 -4.852516E+05 -9.163980E-10 -1.940797E-09
       131  14 -1.217855E+06 -1.860597E+05 -4.247450E+03 -4.765350E+05 -2.596230E-10 -8.260388E-10
       131  15 -1.210340E+06 -1.938229E+05 -2.436327E+03 -4.854452E+05  2.052448E-09  1.464809E-09
       131  16 -9.929680E+05 -1.134331E+05  4.501650E+04 -4.256944E+05 -8.037234E-09 -4.664256E-09
       131  17 -1.047101E+06 -1.225743E+05  3.732419E+04 -4.298516E+05 -4.862270E-10 -1.541007E-09
       131  18 -1.086276E+06 -1.477605E+05  2.791778E+04 -4.516345E+05  6.607703E-09  2.470416E-09
       131  19 -1.427825E+06 -2.752583E+05 -6.061244E+04 -5.447895E+05  7.955242E+03 -1.035163E+04
       131  20 -1.388580E+06 -2.495428E+05 -4.582098E+04 -5.232066E+05  4.788478E+03 -8.464166E+03
       131  21 -1.334388E+06 -2.398843E+05 -3.279150E+04 -5.192497E+05  1.608451E+03 -6.539783E+03
       131  22 -1.210420E+06 -1.943475E+05 -7.796148E+03 -4.852516E+05  1.017832E+04 -9.517666E+03
       131  23 -1.217855E+06 -1.860596E+05 -4.247248E+03 -4.765350E+05  7.041482E+03 -7.619281E+03
       131  24 -1.210339E+06 -1.938229E+05 -2.436237E+03 -4.854452E+05  3.891571E+03 -5.683923E+03
       131  25 -9.929678E+05 -1.134330E+05  4.501693E+04 -4.256945E+05  1.240225E+04 -8.683382E+03
       131  26 -1.047101E+06 -1.225743E+05  3.732444E+04 -4.298517E+05  9.295170E+03 -6.774141E+03
       131  27 -1.086276E+06 -1.477604E+05  2.791789E+04 -4.516346E+05  6.175190E+03 -4.827877E+03
       132   1 -1.293614E+06 -2.248404E+05 -2.203947E+04 -5.082105E+05 -6.544602E+02  5.071544E+03
       132   2 -1.254296E+06 -1.995863E+05 -1.011530E+04 -4.864458E+05  1.011256E+03  2.562473E+03
       132   3 -1.199554E+06 -1.899060E+05  1.323849E+03 -4.824915E+05  2.678088E+03  5.002666E+01
       132   4 -1.210256E+06 -1.938847E+05 -1.909989E+03 -4.854223E+05 -2.933447E+03  4.217353E+03
       132   5 -1.217965E+06 -1.860851E+05 -1.270803E+03 -4.765213E+05 -1.270527E+03  1.707302E+03
       132   6 -1.210252E+06 -1.938589E+05 -1.114397E+03 -4.854315E+05  3.934492E+02 -8.061315E+02
       132   7 -1.126892E+06 -1.629287E+05  1.821896E+04 -4.626313E+05 -5.212764E+03  3.363039E+03
       132   8 -1.181632E+06 -1.725839E+05  7.573566E+03 -4.665963E+05 -3.552443E+03  8.520806E+02
       132   9 -1.220949E+06 -1.978116E+05 -3.552600E+03 -4.883714E+05 -1.891126E+03 -1.662266E+03
       132  10 -1.293614E+06 -2.248404E+05 -2.203952E+04 -5.082105E+05  4.124625E-09  2.708590E-09
       132  11 -1.254296E+06 -1.995863E+05 -1.011532E+04 -4.864458E+05  3.568650E-09  6.436679E-10
       132  12 -1.199554E+06 -1.899061E+05  1.323835E+03 -4.824915E+05 -1.821805E-09 -4.931992E-10
       132  13 -1.210256E+06 -1.938847E+05 -1.910039E+03 -4.854223E+05  5.651755E-09  2.103296E-09
       132  14 -1.217965E+06 -1.860851E+05 -1.270811E+03 -4.765213E+05  2.641081E-09  9.570672E-10
       132  15 -1.210252E+06 -1.938589E+05 -1.114398E+03 -4.854315E+05 -1.968728E-09 -1.104846E-09
       132  16 -1.126892E+06 -1.629287E+05  1.821889E+04 -4.626313E+05  2.825917E-09  1.705415E-09
       132  17 -1.181632E+06 -1.725839E+05  7.573541E+03 -4.665963E+05 -1.264765E-09  6.439777E-10
       132  18 -1.220949E+06 -1.978116E+05 -3.552612E+03 -4.883714E+05 -5.934140E-09 -1.233140E-09
       132  19 -1.293614E+06 -2.248404E+05 -2.203947E+04 -5.082105E+05  6.544602E+02 -5.071544E+03
       132  20 -1.254296E+06 -1.995863E+05 -1.011530E+04 -4.864458E+05 -1.011256E+03 -2.562473E+03
       132  21 -1.199554E+06 -1.899060E+05  1.323849E+03 -4.824915E+05 -2.678088E+03 -5.002666E+01
       132  22 -1.210256E+06 -1.938847E+05 -1.909989E+03 -4.854223E+05  2.933447E+03 -4.217353E+03
       132  23 -1.217965E+06 -1.860851E+05 -1.270803E+03 -4.765213E+05  1.270527E+03 -1.707302E+03
       132  24 -1.210252E+06 -1.938589E+05 -1.114397E+03 -4.854315E+05 -3.934492E+02  8.061315E+02
       132  25 -1.126892E+06 -1.629287E+05  1.821896E+04 -4.626313E+05  5.212764E+03 -3.363039E+03
       132  26 -1.181632E+06 -1.725839E+05  7.573566E+03 -4.665963E+05  3.552443E+03 -8.520806E+02
       132  27 -1.220949E+06 -1.978116E+05 -3.552600E+03 -4.883714E+05  1.891126E+03  1.662266E+03
       133   1 -1.158826E+06 -1.746996E+05  1.150803E+04 -4.713760E+05  3.467813E+03 -1.480761E+03
       133   2 -1.119566E+06 -1.495147E+05  2.229689E+04 -4.496358E+05  5.316415E+03 -3.920980E+03
       133   3 -1.064936E+06 -1.398962E+05  3.246093E+04 -4.456764E+05  7.162951E+03 -6.354196E+03
       133   4 -1.210264E+06 -1.938531E+05 -1.182650E+03 -4.854269E+05  1.184392E+03 -2.336499E+03
       133   5 -1.217952E+06 -1.860900E+05 -1.654797E+03 -4.765288E+05  3.038531E+03 -4.774843E+03
       133   6 -1.210272E+06 -1.938947E+05 -2.755883E+03 -4.854126E+05  4.890529E+03 -7.206197E+03
       133   7 -1.261699E+06 -2.130066E+05 -1.387367E+04 -4.994768E+05 -1.098846E+03 -3.192170E+03
       133   8 -1.316329E+06 -2.226650E+05 -2.560741E+04 -5.034181E+05  7.610217E+02 -5.628567E+03
       133   9 -1.355589E+06 -2.478920E+05 -3.797448E+04 -5.251405E+05  2.618675E+03 -8.057987E+03
       133  10 -1.158826E+06 -1.746996E+05  1.150801E+04 -4.713760E+05 -4.899113E-09 -1.257912E-09
       133  11 -1.119566E+06 -1.495147E+05  2.229680E+04 -4.496358E+05 -2.015287E-09  2.152260E-10
       133  12 -1.064936E+06 -1.398963E+05  3.246076E+04 -4.456764E+05  1.195209E-09 -2.167788E-10
       133  13 -1.210264E+06 -1.938531E+05 -1.182663E+03 -4.854269E+05 -2.859681E-09 -8.356632E-10
       133  14 -1.217952E+06 -1.860900E+05 -1.654857E+03 -4.765288E+05 -1.987236E-09  2.771143E-10
       133  15 -1.210272E+06 -1.938947E+05 -2.756025E+03 -4.854126E+05  1.154242E-09  1.808008E-11
       133  16 -1.261699E+06 -2.130067E+05 -1.387369E+04 -4.994768E+05 -1.024167E-09 -1.658284E-10
       133  17 -1.316329E+06 -2.226650E+05 -2.560747E+04 -5.034181E+05 -2.349609E-09  2.263234E-10
       133  18 -1.355589E+06 -2.478921E+05 -3.797462E+04 -5.251405E+05 -1.978324E-09  1.675369E-11
       133  19 -1.158826E+06 -1.746996E+05  1.150803E+04 -4.713760E+05 -3.467813E+03  1.480761E+03
       133  20 -1.119566E+06 -1.495147E+05  2.229689E+04 -4.496358E+05 -5.316415E+03  3.920980E+03
       133  21 -1.064936E+06 -1.398962E+05  3.246093E+04 -4.456764E+05 -7.162951E+03  6.354196E+03
       133  22 -1.210264E+06 -1.938531E+05 -1.182650E+03 -4.854269E+05 -1.184392E+03  2.336499E+03
       133  23 -1.217952E+06 -1.860900E+05 -1.654797E+03 -4.765288E+05 -3.038531E+03  4.774843E+03
       133  24 -1.210272E+06 -1.938947E+05 -2.755883E+03 -4.854126E+05 -4.890529E+03  7.206197E+03
       133  25 -1.261699E+06 -2.130066E+05 -1.387367E+04 -4.994768E+05  1.098846E+03  3.192170E+03
       133  26 -1.316329E+06 -2.226650E+05 -2.560741E+04 -5.034181E+05 -7.610217E+02  5.628567E+03
       133  27 -1.355589E+06 -2.478920E+05 -3.797448E+04 -5.251405E+05 -2.618675E+03  8.057987E+03
       134   1 -1.024483E+06 -1.247832E+05  4.180661E+04 -4.347685E+05  8.287504E+03 -7.752049E+03
       134   2 -9.854357E+05 -9.966758E+04  5.015286E+04 -4.130276E+05  1.248047E+04 -9.280274E+03
       134   3 -9.317559E+05 -9.083846E+04  5.590264E+04 -4.087819E+05  1.665840E+04 -1.076469E+04
       134   4 -1.210406E+06 -1.937998E+05 -3.597615E+03 -4.854471E+05  6.012071E+03 -8.605367E+03
       134   5 -1.217777E+06 -1.860503E+05 -6.410218E+03 -4.765516E+05  1.023987E+04 -1.012095E+04
       134   6 -1.210526E+06 -1.945951E+05 -1.184778E+04 -4.851527E+05  1.445239E+04 -1.159281E+04
       134   7 -1.396293E+06 -2.628134E+05 -4.900396E+04 -5.361114E+05  3.737403E+03 -9.458400E+03
       134   8 -1.450065E+06 -2.724291E+05 -6.297713E+04 -5.400539E+05  8.000191E+03 -1.096128E+04
       134   9 -1.489221E+06 -2.983468E+05 -7.960424E+04 -5.614924E+05  1.224746E+04 -1.242052E+04
       134  10 -1.024483E+06 -1.247833E+05  4.180637E+04 -4.347685E+05 -6.078819E-10 -9.121283E-10
       134  11 -9.854358E+05 -9.966771E+04  5.015241E+04 -4.130275E+05 -3.096566E-09 -1.571457E-09
       134  12 -9.317562E+05 -9.083865E+04  5.590190E+04 -4.087818E+05 -4.682379E-09 -4.101992E-10
       134  13 -1.210406E+06 -1.937999E+05 -3.597822E+03 -4.854470E+05  1.651816E-10 -7.931215E-10
       134  14 -1.217778E+06 -1.860504E+05 -6.410608E+03 -4.765516E+05 -1.693492E-09 -7.572750E-10
       134  15 -1.210527E+06 -1.945953E+05 -1.184843E+04 -4.851525E+05 -9.214653E-10 -2.799657E-10
       134  16 -1.396293E+06 -2.628135E+05 -4.900415E+04 -5.361113E+05 -1.367371E-09 -4.978320E-10
       134  17 -1.450065E+06 -2.724293E+05 -6.297748E+04 -5.400538E+05 -2.683606E-09 -1.293398E-09
       134  18 -1.489221E+06 -2.983470E+05 -7.960481E+04 -5.614923E+05  1.305506E-09  4.736444E-12
       134  19 -1.024483E+06 -1.247832E+05  4.180661E+04 -4.347685E+05 -8.287504E+03  7.752049E+03
       134  20 -9.854357E+05 -9.966758E+04  5.015286E+04 -4.130276E+05 -1.248047E+04  9.280274E+03
       134  21 -9.317559E+05 -9.083846E+04  5.590264E+04 -4.087819E+05 -1.665840E+04  1.076469E+04
       134  22 -1.210406E+06 -1.937998E+05 -3.597615E+03 -4.854471E+05 -6.012071E+03  8.605367E+03
       134  23 -1.217777E+06 -1.860503E+05 -6.410218E+03 -4.765516E+05 -1.023987E+04  1.012095E+04
       134  24 -1.210526E+06 -1.945951E+05 -1.184778E+04 -4.851527E+05 -1.445239E+04  1.159281E+04
       134  25 -1.396293E+06 -2.628134E+05 -4.900396E+04 -5.361114E+05 -3.737403E+03  9.458400E+03
       134  26 -1.450065E+06 -2.724291E+05 -6.297713E+04 -5.400539E+05 -8.000191E+03  1.096128E+04
       134  27 -1.489221E+06 -2.983468E+05 -7.960424E+04 -5.614924E+05 -1.224746E+04  1.242052E+04
       135   1 -8.909902E+05 -7.618816E+04  6.221995E+04 -4.005736E+05  1.966362E+04 -1.150982E+04
       135   2 -8.528657E+05 -4.882601E+04  6.086527E+04 -3.755032E+05  3.424634E+04 -8.928943E+03
       135   3 -8.065047E+05 -5.038207E+04  4.564643E+04 -3.646464E+05  4.856363E+04 -5.634500E+03
       135   4 -1.211387E+06 -1.932360E+05 -1.555118E+04 -4.859991E+05  1.725890E+04 -1.241277E+04
       135   5 -1.216403E+06 -1.854248E+05 -2.795145E+04 -4.763788E+05  3.242529E+04 -9.613601E+03
       135   6 -1.213304E+06 -2.066542E+05 -5.468555E+04 -4.809731E+05  4.732520E+04 -6.101212E+03
       135   7 -1.531682E+06 -3.102773E+05 -9.332950E+04 -5.713844E+05  1.485556E+04 -1.331522E+04
       135   8 -1.579810E+06 -3.220140E+05 -1.167781E+05 -5.772003E+05  3.060540E+04 -1.029782E+04
       135   9 -1.619942E+06 -3.629130E+05 -1.550308E+05 -5.972300E+05  4.608765E+04 -6.567574E+03
       135  10 -8.909906E+05 -7.618841E+04  6.221898E+04 -4.005734E+05 -2.155811E-09  8.153065E-10
       135  11 -8.528670E+05 -4.882641E+04  6.086292E+04 -3.755030E+05 -1.045576E-09  2.949102E-10
       135  12 -8.065072E+05 -5.038274E+04  4.564194E+04 -3.646462E+05 -1.196380E-09 -5.761411E-10
       135  13 -1.211388E+06 -1.932362E+05 -1.555203E+04 -4.859989E+05  4.388496E-10  2.688436E-10
       135  14 -1.216404E+06 -1.854252E+05 -2.795360E+04 -4.763785E+05  7.623893E-10 -1.308325E-10
       135  15 -1.213307E+06 -2.066549E+05 -5.468983E+04 -4.809729E+05  6.880699E-10 -6.170149E-10
       135  16 -1.531682E+06 -3.102775E+05 -9.333025E+04 -5.713843E+05  1.123414E-09 -1.690515E-10
       135  17 -1.579811E+06 -3.220143E+05 -1.167801E+05 -5.772001E+05  1.309722E-09  9.830622E-11
       135  18 -1.619945E+06 -3.629137E+05 -1.550348E+05 -5.972298E+05  2.219381E-10 -3.990353E-12
       135  19 -8.909902E+05 -7.618816E+04  6.221995E+04 -4.005736E+05 -1.966362E+04  1.150982E+04
       135  20 -8.528657E+05 -4.882601E+04  6.086527E+04 -3.755032E+05 -3.424634E+04  8.928943E+03
       135  21 -8.065047E+05 -5.038207E+04  4.564643E+04 -3.646464E+05 -4.856363E+04  5.634500E+03
       135  22 -1.211387E+06 -1.932360E+05 -1.555118E+04 -4.859991E+05 -1.725890E+04  1.241277E+04
       135  23 -1.216403E+06 -1.854248E+05 -2.795145E+04 -4.763788E+05 -3.242529E+04  9.613601E+03
       135  24 -1.213304E+06 -2.066542E+05 -5.468555E+04 -4.809731E+05 -4.732520E+04  6.101212E+03
       135  25 -1.531682E+06 -3.102773E+05 -9.332950E+04 -5.713844E+05 -1.485556E+04  1.331522E+04
       135  26 -1.579810E+06 -3.220140E+05 -1.167781E+05 -5.772003E+05 -3.060540E+04  1.029782E+04
       135  27 -1.619942E+06 -3.629130E+05 -1.550308E+05 -5.972300E+05 -4.608765E+04  6.567574E+03
       136   1 -7.503415E+05 -3.967721E+04  4.048100E+04 -3.962555E+05  6.320507E+04 -3.666981E+03
       136   2 -7.301165E+05  2.925772E+04  1.041310E+03 -3.114860E+05  1.151807E+05  1.658724E+04
       136   3 -7.817180E+05 -1.270190E+05 -1.350555E+05 -1.883216E+05  1.613983E+05  5.217055E+04
       136   4 -1.222305E+06 -1.848487E+05 -6.883980E+04 -4.940710E+05  5.733694E+04 -5.869536E+03
       136   5 -1.200296E+06 -1.779228E+05 -1.206909E+05 -4.730856E+05  1.219913E+05  1.913867E+04
       136   6 -1.252705E+06 -3.988443E+05 -2.793164E+05 -4.136900E+05  1.808829E+05  5.946766E+04
       136   7 -1.694049E+06 -3.300206E+05 -1.781753E+05 -5.918267E+05  5.147365E+04 -8.071001E+03
       136   8 -1.670249E+06 -3.850602E+05 -2.424399E+05 -6.345634E+05  1.287961E+05  2.168706E+04
       136   9 -1.723443E+06 -6.705426E+05 -4.235926E+05 -6.388693E+05  2.003509E+05  6.675106E+04
       136  10 -7.503458E+05 -3.967829E+04  4.047346E+04 -3.962553E+05 -4.456989E-10 -9.709399E-10
       136  11 -7.301309E+05  2.925386E+04  1.015828E+03 -3.114876E+05  3.761451E-10  5.274880E-10
       136  12 -7.817468E+05 -1.270289E+05 -1.351097E+05 -1.883284E+05 -9.684435E-10  1.019028E-09
       136  13 -1.222309E+06 -1.848497E+05 -6.884606E+04 -4.940707E+05 -4.007988E-10 -9.977301E-10
       136  14 -1.200312E+06 -1.779272E+05 -1.207196E+05 -4.730874E+05 -1.711688E-09  5.360413E-11
       136  15 -1.252741E+06 -3.988569E+05 -2.793847E+05 -4.136987E+05  1.302606E-10  5.415517E-11
       136  16 -1.694052E+06 -3.300214E+05 -1.781804E+05 -5.918264E+05  1.402991E-09 -1.897651E-10
       136  17 -1.670267E+06 -3.850652E+05 -2.424720E+05 -6.345657E+05 -1.506148E-09 -9.845931E-11
       136  18 -1.723487E+06 -6.705582E+05 -4.236767E+05 -6.388801E+05 -1.924476E-10  1.181918E-10
       136  19 -7.503415E+05 -3.967721E+04  4.048100E+04 -3.962555E+05 -6.320507E+04  3.666981E+03
       136  20 -7.301165E+05  2.925772E+04  1.041310E+03 -3.114860E+05 -1.151807E+05 -1.658724E+04
       136  21 -7.817180E+05 -1.270190E+05 -1.350555E+05 -1.883216E+05 -1.613983E+05 -5.217055E+04
       136  22 -1.222305E+06 -1.848487E+05 -6.883980E+04 -4.940710E+05 -5.733694E+04  5.869536E+03
       136  23 -1.200296E+06 -1.779228E+05 -1.206909E+05 -4.730856E+05 -1.219913E+05 -1.913867E+04
       136  24 -1.252705E+06 -3.988443E+05 -2.793164E+05 -4.136900E+05 -1.808829E+05 -5.946766E+04
       136  25 -1.694049E+06 -3.300206E+05 -1.781753E+05 -5.918267E+05 -5.147365E+04  8.071001E+03
       136  26 -1.670249E+06 -3.850602E+05 -2.424399E+05 -6.345634E+05 -1.287961E+05 -2.168706E+04
       136  27 -1.723443E+06 -6.705426E+05 -4.235926E+05 -6.388693E+05 -2.003509E+05 -6.675106E+04
       137   1 -1.159249E+05 -2.080907E+04 -6.891514E+03  9.384677E+03  3.705858E+04  4.173688E+03
       137   2 -9.488993E+04 -7.188108E+04 -3.306101E+04 -2.673904E+03  2.744309E+04  1.301852E+04
       137   3 -5.860703E+04 -6.716805E+04 -3.901491E+04 -2.655370E+04  1.783165E+04  1.348449E+04
       137   4  2.043661E+05  5.873880E+04  7.076992E+04 -1.799523E+04  4.865418E+04  4.178460E+03
       137   5  1.961058E+05 -6.503274E+02  3.216308E+04 -1.206982E+04  3.159163E+04  1.301961E+04
       137   6  2.043765E+05 -2.977257E+03  1.893516E+04 -1.796462E+04  1.453374E+04  1.348311E+04
       137   7  5.247528E+05  1.382821E+05  1.484249E+05 -4.538931E+04  6.025574E+04  4.182209E+03
       137   8  4.871806E+05  7.057499E+04  9.738192E+04 -2.147019E+04  3.574210E+04  1.302058E+04
       137   9  4.674248E+05  6.120917E+04  7.688106E+04 -9.371864E+03  1.123444E+04  1.348164E+04
       137  10 -1.159264E+05 -2.080946E+04 -6.894128E+03  9.384552E+03  4.634174E-11 -5.008255E-10
       137  11 -9.489078E+04 -7.188146E+04 -3.306275E+04 -2.674192E+03  3.598989E-09  7.277585E-10
       137  12 -5.860742E+04 -6.716833E+04 -3.901585E+04 -2.655389E+04  5.472516E-09  1.050347E-09
       137  13  2.043636E+05  5.873815E+04  7.076544E+04 -1.799539E+04  1.141006E-09  5.255001E-10
       137  14  1.961047E+05 -6.507773E+02  3.216088E+04 -1.207015E+04  1.147583E-09  6.368736E-10
       137  15  2.043762E+05 -2.977509E+03  1.893442E+04 -1.796478E+04 -6.051665E-10  9.126548E-10
       137  16  5.247489E+05  1.382811E+05  1.484180E+05 -4.538951E+04  3.266120E-10  5.636710E-10
       137  17  4.871792E+05  7.057447E+04  9.737921E+04 -2.147057E+04 -4.384450E-09  8.725274E-10
       137  18  4.674247E+05  6.120895E+04  7.688048E+04 -9.371986E+03 -6.383724E-09  2.065733E-09
       137  19 -1.159249E+05 -2.080907E+04 -6.891514E+03  9.384677E+03 -3.705858E+04 -4.173688E+03
       137  20 -9.488993E+04 -7.188108E+04 -3.306101E+04 -2.673904E+03 -2.744309E+04 -1.301852E+04
       137  21 -5.860703E+04 -6.716805E+04 -3.901491E+04 -2.655370E+04 -1.783165E+04 -1.348449E+04
       137  22  2.043661E+05  5.873880E+04  7.076992E+04 -1.799523E+04 -4.865418E+04 -4.178460E+03
       137  23  1.961058E+05 -6.503274E+02  3.216308E+04 -1.206982E+04 -3.159163E+04 -1.301961E+04
       137  24  2.043765E+05 -2.977257E+03  1.893516E+04 -1.796462E+04 -1.453374E+04 -1.348311E+04
       137  25  5.247528E+05  1.382821E+05  1.484249E+05 -4.538931E+04 -6.025574E+04 -4.182209E+03
       137  26  4.871806E+05  7.057499E+04  9.738192E+04 -2.147019E+04 -3.574210E+04 -1.302058E+04
       137  27  4.674248E+05  6.120917E+04  7.688106E+04 -9.371864E+03 -1.123444E+04 -1.348164E+04
       138   1 -3.813721E+04 -5.510101E+04 -3.790079E+04 -1.693304E+04  1.266697E+04  1.178834E+04
       138   2 -1.032892E+04 -5.156333E+04 -3.838057E+04 -1.175366E+04  8.922819E+03  1.066119E+04
       138   3  1.882679E+04 -4.468916E+04 -3.558271E+04 -1.868837E+04  5.178230E+03  9.161442E+03
       138   4  2.010165E+05  3.319074E+03  1.506938E+04 -1.803828E+04  1.183565E+04  1.178772E+04
       138   5  2.003167E+05 -1.396072E+02  8.113248E+03 -1.198092E+04  7.759184E+03  1.066064E+04
       138   6  2.010207E+05 -2.048201E+02  4.664511E+03 -1.803737E+04  3.682452E+03  9.160995E+03
       138   7  4.402236E+05  6.173530E+04  6.803601E+04 -1.914396E+04  1.100400E+04  1.178711E+04
       138   8  4.110038E+05  5.128113E+04  5.460434E+04 -1.220827E+04  6.595158E+03  1.066008E+04
       138   9  3.832456E+05  4.427729E+04  4.490970E+04 -1.738617E+04  2.186241E+03  9.160545E+03
       138  10 -3.813742E+04 -5.510120E+04 -3.790135E+04 -1.693316E+04 -4.968729E-09  7.570909E-10
       138  11 -1.032904E+04 -5.156347E+04 -3.838093E+04 -1.175373E+04 -4.039360E-09 -4.425643E-10
       138  12  1.882674E+04 -4.468926E+04 -3.558292E+04 -1.868841E+04 -3.829267E-10 -4.572982E-10
       138  13  2.010163E+05  3.318887E+03  1.506885E+04 -1.803839E+04 -2.071428E-09  1.432332E-09
       138  14  2.003166E+05 -1.397454E+02  8.112921E+03 -1.198099E+04 -9.671636E-10 -1.907961E-10
       138  15  2.010206E+05 -2.049139E+02  4.664328E+03 -1.803740E+04 -1.417925E-09 -4.206473E-10
       138  16  4.402234E+05  6.173512E+04  6.803552E+04 -1.914406E+04  5.197733E-09  1.244078E-09
       138  17  4.110038E+05  5.128100E+04  5.460404E+04 -1.220832E+04  2.443411E-09 -1.590342E-10
       138  18  3.832455E+05  4.427720E+04  4.490953E+04 -1.738619E+04 -1.075768E-10  9.438281E-12
       138  19 -3.813721E+04 -5.510101E+04 -3.790079E+04 -1.693304E+04 -1.266697E+04 -1.178834E+04
       138  20 -1.032892E+04 -5.156333E+04 -3.838057E+04 -1.175366E+04 -8.922819E+03 -1.066119E+04
       138  21  1.882679E+04 -4.468916E+04 -3.558271E+04 -1.868837E+04 -5.178230E+03 -9.161442E+03
       138  22  2.010165E+05  3.319074E+03  1.506938E+04 -1.803828E+04 -1.183565E+04 -1.178772E+04
       138  23  2.003167E+05 -1.396072E+02  8.113248E+03 -1.198092E+04 -7.759184E+03 -1.066064E+04
       138  24  2.010207E+05 -2.048201E+02  4.664511E+03 -1.803737E+04 -3.682452E+03 -9.160995E+03
       138  25  4.402236E+05  6.173530E+04  6.803601E+04 -1.914396E+04 -1.100400E+04 -1.178711E+04
       138  26  4.110038E+05  5.128113E+04  5.460434E+04 -1.220827E+04 -6.595158E+03 -1.066008E+04
       138  27  3.832456E+05  4.427729E+04  4.490970E+04 -1.738617E+04 -2.186241E+03 -9.160545E+03
       139   1  4.216275E+04 -3.854150E+04 -3.134459E+04 -1.810173E+04  4.343888E+03  8.201787E+03
       139   2  7.049403E+04 -3.180391E+04 -2.674829E+04 -1.205495E+04  3.389533E+03  6.633623E+03
       139   3  9.901010E+04 -2.486617E+04 -2.147843E+04 -1.811220E+04  2.434883E+03  5.049577E+03
       139   4  2.007521E+05  1.524760E+02  3.556238E+03 -1.803543E+04  2.958926E+03  8.201444E+03
       139   5  2.006598E+05 -3.417257E+01  1.953490E+03 -1.198349E+04  1.990219E+03  6.633385E+03
       139   6  2.007544E+05 -1.808819E+01  1.034243E+03 -1.803542E+04  1.021261E+03  5.049449E+03
       139   7  3.593649E+05  3.884477E+04  3.845553E+04 -1.796910E+04  1.573615E+03  8.201101E+03
       139   8  3.308414E+05  3.173442E+04  3.065423E+04 -1.191201E+04  5.906160E+02  6.633147E+03
       139   9  3.025083E+05  2.482930E+04  2.354629E+04 -1.795862E+04 -3.925906E+02  5.049321E+03
       139  10  4.216271E+04 -3.854158E+04 -3.134475E+04 -1.810176E+04 -1.935163E-09 -1.689706E-11
       139  11  7.049401E+04 -3.180396E+04 -2.674839E+04 -1.205497E+04 -3.560573E-09 -7.051712E-11
       139  12  9.901009E+04 -2.486620E+04 -2.147849E+04 -1.811221E+04 -1.519860E-09 -4.324010E-10
       139  13  2.007520E+05  1.524014E+02  3.556095E+03 -1.803545E+04 -1.157893E-09  4.388538E-11
       139  14  2.006598E+05 -3.422089E+01  1.953400E+03 -1.198350E+04  5.385159E-10  1.688787E-10
       139  15  2.007543E+05 -1.811585E+01  1.034193E+03 -1.803542E+04 -1.475532E-10 -4.784899E-10
       139  16  3.593649E+05  3.884470E+04  3.845540E+04 -1.796911E+04  7.033467E-10  3.373407E-10
       139  17  3.308413E+05  3.173438E+04  3.065415E+04 -1.191201E+04  6.182934E-10 -3.015616E-11
       139  18  3.025083E+05  2.482927E+04  2.354624E+04 -1.795862E+04 -3.813717E-10 -2.845717E-10
       139  19  4.216275E+04 -3.854150E+04 -3.134459E+04 -1.810173E+04 -4.343888E+03 -8.201787E+03
       139  20  7.049403E+04 -3.180391E+04 -2.674829E+04 -1.205495E+04 -3.389533E+03 -6.633623E+03
       139  21  9.901010E+04 -2.486617E+04 -2.147843E+04 -1.811220E+04 -2.434883E+03 -5.049577E+03
       139  22  2.007521E+05  1.524760E+02  3.556238E+03 -1.803543E+04 -2.958926E+03 -8.201444E+03
       139  23  2.006598E+05 -3.417257E+01  1.953490E+03 -1.198349E+04 -1.990219E+03 -6.633385E+03
       139  24  2.007544E+05 -1.808819E+01  1.034243E+03 -1.803542E+04 -1.021261E+03 -5.049449E+03
       139  25  3.593649E+05  3.884477E+04  3.845553E+04 -1.796910E+04 -1.573615E+03 -8.201101E+03
       139  26  3.308414E+05  3.173442E+04  3.065423E+04 -1.191201E+04 -5.906160E+02 -6.633147E+03
       139  27  3.025083E+05  2.482930E+04  2.354629E+04 -1.795862E+04  3.925906E+02 -5.049321E+03
       140   1  1.225374E+05 -1.906600E+04 -1.644696E+04 -1.807353E+04  2.272410E+03  4.124228E+03
       140   2  1.509232E+05 -1.215463E+04 -1.077790E+04 -1.202317E+04  2.174558E+03  2.538284E+03
       140   3  1.793276E+05 -5.233995E+03 -5.042253E+03 -1.806641E+04  2.076597E+03  9.519233E+02
       140   4  2.007177E+05 -1.260466E+00  7.103391E+02 -1.803313E+04  8.641295E+02  4.124148E+03
       140   5  2.007094E+05 -3.999688E+00  1.987875E+02 -1.198636E+04  7.658475E+02  2.538244E+03
       140   6  2.007186E+05  2.539599E+00 -2.459915E+02 -1.803313E+04  6.674605E+02  9.519263E+02
       140   7  2.789037E+05  1.906307E+04  1.786727E+04 -1.799272E+04 -5.443261E+02  4.124067E+03
       140   8  2.504979E+05  1.214647E+04  1.117533E+04 -1.194955E+04 -6.429748E+02  2.538204E+03
       140   9  2.221099E+05  5.239044E+03  4.550248E+03 -1.799986E+04 -7.417241E+02  9.519291E+02
       140  10  1.225374E+05 -1.906602E+04 -1.644700E+04 -1.807354E+04 -2.541937E-10 -6.691060E-10
       140  11  1.509232E+05 -1.215464E+04 -1.077792E+04 -1.202317E+04  1.622193E-09 -3.489057E-10
       140  12  1.793276E+05 -5.233997E+03 -5.042263E+03 -1.806641E+04  4.291305E-10  4.581401E-10
       140  13  2.007177E+05 -1.278933E+00  7.103057E+02 -1.803313E+04 -2.158296E-09 -4.967324E-10
       140  14  2.007094E+05 -4.006765E+00  1.987743E+02 -1.198636E+04 -5.747798E-10 -2.500308E-10
       140  15  2.007186E+05  2.538506E+00 -2.459940E+02 -1.803313E+04 -5.889950E-10 -7.620754E-12
       140  16  2.789036E+05  1.906305E+04  1.786724E+04 -1.799272E+04 -1.321177E-09 -2.754297E-10
       140  17  2.504979E+05  1.214646E+04  1.117532E+04 -1.194955E+04 -8.869597E-10 -1.034231E-10
       140  18  2.221099E+05  5.239043E+03  4.550246E+03 -1.799986E+04 -1.126579E-09 -3.497484E-10
       140  19  1.225374E+05 -1.906600E+04 -1.644696E+04 -1.807353E+04 -2.272410E+03 -4.124228E+03
       140  20  1.509232E+05 -1.215463E+04 -1.077790E+04 -1.202317E+04 -2.174558E+03 -2.538284E+03
       140  21  1.793276E+05 -5.233995E+03 -5.042253E+03 -1.806641E+04 -2.076597E+03 -9.519233E+02
       140  22  2.007177E+05 -1.260466E+00  7.103391E+02 -1.803313E+04 -8.641295E+02 -4.124148E+03
       140  23  2.007094E+05 -3.999688E+00  1.987875E+02 -1.198636E+04 -7.658475E+02 -2.538244E+03
       140  24  2.007186E+05  2.539599E+00 -2.459915E+02 -1.803313E+04 -6.674605E+02 -9.519263E+02
       140  25  2.789037E+05  1.906307E+04  1.786727E+04 -1.799272E+04  5.443261E+02 -4.124067E+03
       140  26  2.504979E+05  1.214647E+04  1.117533E+04 -1.194955E+04  6.429748E+02 -2.538204E+03
       140  27  2.221099E+05  5.239044E+03  4.550248E+03 -1.799986E+04  7.417241E+02 -9.519291E+02
       141   1  2.028580E+05  5.459884E+02  6.862711E+01 -1.806998E+04  2.143073E+03  2.856919E+01
       141   2  2.312902E+05  7.471584E+03  5.628828E+03 -1.204448E+04  2.690306E+03 -1.557599E+03
       141   3  2.596454E+05  1.436468E+04  1.082497E+04 -1.811083E+04  3.237626E+03 -3.143310E+03
       141   4  2.006975E+05  2.665456E+00 -4.879209E+02 -1.803276E+04  7.339716E+02  2.857722E+01
       141   5  2.007362E+05  1.504305E+01 -1.107326E+03 -1.198683E+04  1.281551E+03 -1.557618E+03
       141   6  2.006971E+05 -5.099059E+00 -2.091037E+03 -1.803277E+04  1.829194E+03 -3.143353E+03
       141   7  1.985369E+05 -5.406568E+02 -1.044462E+03 -1.799555E+04 -6.751252E+02  2.858509E+01
       141   8  1.701831E+05 -7.441559E+03 -7.843529E+03 -1.192918E+04 -1.271343E+02 -1.557637E+03
       141   9  1.417520E+05 -1.437511E+04 -1.500725E+04 -1.795472E+04  4.208950E+02 -3.143396E+03
       141  10  2.028580E+05  5.459872E+02  6.861848E+01 -1.806998E+04  7.125407E-10  2.212876E-10
       141  11  2.312902E+05  7.471579E+03  5.628810E+03 -1.204448E+04 -4.649860E-10 -5.382696E-10
       141  12  2.596453E+05  1.436467E+04  1.082493E+04 -1.811082E+04 -1.106409E-09  4.481090E-10
       141  13  2.006975E+05  2.665310E+00 -4.879219E+02 -1.803276E+04  1.224411E-09 -1.138094E-10
       141  14  2.007362E+05  1.504001E+01 -1.107333E+03 -1.198683E+04 -2.547397E-09 -1.841364E-10
       141  15  2.006971E+05 -5.110568E+00 -2.091062E+03 -1.803277E+04 -1.985162E-09  3.979412E-10
       141  16  1.985369E+05 -5.406569E+02 -1.044463E+03 -1.799555E+04 -2.065899E-09 -4.499937E-10
       141  17  1.701831E+05 -7.441562E+03 -7.843534E+03 -1.192918E+04 -2.198811E-09 -1.815627E-10
       141  18  1.417520E+05 -1.437512E+04 -1.500727E+04 -1.795472E+04  3.711106E-10  2.931558E-10
       141  19  2.028580E+05  5.459884E+02  6.862711E+01 -1.806998E+04 -2.143073E+03 -2.856919E+01
       141  20  2.312902E+05  7.471584E+03  5.628828E+03 -1.204448E+04 -2.690306E+03  1.557599E+03
       141  21  2.596454E+05  1.436468E+04  1.082497E+04 -1.811083E+04 -3.237626E+03  3.143310E+03
       141  22  2.006975E+05  2.665456E+00 -4.879209E+02 -1.803276E+04 -7.339716E+02 -2.857722E+01
       141  23  2.007362E+05  1.504305E+01 -1.107326E+03 -1.198683E+04 -1.281551E+03  1.557618E+03
       141  24  2.006971E+05 -5.099059E+00 -2.091037E+03 -1.803277E+04 -1.829194E+03  3.143353E+03
       141  25  1.985369E+05 -5.406568E+02 -1.044462E+03 -1.799555E+04  6.751252E+02 -2.858509E+01
       141  26  1.701831E+05 -7.441559E+03 -7.843529E+03 -1.192918E+04  1.271343E+02  1.557637E+03
       141  27  1.417520E+05 -1.437511E+04 -1.500725E+04 -1.795472E+04 -4.208950E+02  3.143396E+03
       142   1  2.831270E+05  2.018790E+04  1.547611E+04 -1.819908E+04  3.683117E+03 -4.068231E+03
       142   2  3.117622E+05  2.713678E+04  1.953104E+04 -1.211705E+04  6.113262E+03 -5.651498E+03
       142   3  3.399639E+05  3.358412E+04  2.188060E+04 -1.813683E+04  8.543697E+03 -7.219667E+03
       142   4  2.006167E+05  3.638643E+01 -2.793853E+03 -1.803502E+04  2.269608E+03 -4.068311E+03
       142   5  2.008341E+05  6.637397E+01 -4.925465E+03 -1.198404E+04  4.712748E+03 -5.651672E+03
       142   6  2.006152E+05 -4.073953E+02 -8.771608E+03 -1.803501E+04  7.156070E+03 -7.219930E+03
       142   7  1.181127E+05 -2.011558E+04 -2.106422E+04 -1.787099E+04  8.562847E+02 -4.068391E+03
       142   8  8.991747E+04 -2.700486E+04 -2.938272E+04 -1.185106E+04  3.312482E+03 -5.651846E+03
       142   9  6.128466E+04 -3.440021E+04 -3.942500E+04 -1.793321E+04  5.768751E+03 -7.220194E+03
       142  10  2.831270E+05  2.018788E+04  1.547605E+04 -1.819907E+04  1.391234E-09  8.189108E-10
       142  11  3.117622E+05  2.713674E+04  1.953091E+04 -1.211702E+04 -3.713035E-09 -1.966220E-10
       142  12  3.399638E+05  3.358404E+04  2.188037E+04 -1.813678E+04 -7.035310E-09 -3.050602E-10
       142  13  2.006166E+05  3.636727E+01 -2.793894E+03 -1.803501E+04 -2.143593E-09  4.980581E-10
       142  14  2.008341E+05  6.633371E+01 -4.925566E+03 -1.198402E+04 -1.149970E-09 -2.720660E-10
       142  15  2.006151E+05 -4.074651E+02 -8.771802E+03 -1.803497E+04  3.774862E-10 -3.477664E-10
       142  16  1.181127E+05 -2.011560E+04 -2.106426E+04 -1.787098E+04 -4.345139E-09  1.899690E-10
       142  17  8.991745E+04 -2.700490E+04 -2.938280E+04 -1.185104E+04  1.785383E-09 -2.902082E-10
       142  18  6.128461E+04 -3.440027E+04 -3.942516E+04 -1.793318E+04  7.049485E-09 -1.971481E-10
       142  19  2.831270E+05  2.018790E+04  1.547611E+04 -1.819908E+04 -3.683117E+03  4.068231E+03
       142  20  3.117622E+05  2.713678E+04  1.953104E+04 -1.211705E+04 -6.113262E+03  5.651498E+03
       142  21  3.399639E+05  3.358412E+04  2.188060E+04 -1.813683E+04 -8.543697E+03  7.219667E+03
       142  22  2.006167E+05  3.638643E+01 -2.793853E+03 -1.803502E+04 -2.269608E+03  4.068311E+03
       142  23  2.008341E+05  6.637397E+01 -4.925465E+03 -1.198404E+04 -4.712748E+03  5.651672E+03
       142  24  2.006152E+05 -4.073953E+02 -8.771608E+03 -1.803501E+04 -7.156070E+03  7.219930E+03
       142  25  1.181127E+05 -2.011558E+04 -2.106422E+04 -1.787099E+04 -8.562847E+02  4.068391E+03
       142  26  8.991747E+04 -2.700486E+04 -2.938272E+04 -1.185106E+04 -3.312482E+03  5.651846E+03
       142  27  6.128466E+04 -3.440021E+04 -3.942500E+04 -1.793321E+04 -5.768751E+03  7.220194E+03
       143   1  3.629168E+05  4.024221E+04  2.454346E+04 -1.954637E+04  1.042975E+04 -8.176226E+03
       143   2  3.930390E+05  4.700550E+04  2.238426E+04 -1.129234E+04  2.009635E+04 -9.676792E+03
       143   3  4.198652E+05  4.552542E+04  1.187923E+04 -1.514191E+04  2.976369E+04 -1.082514E+04
       143   4  1.999655E+05  4.635916E+02 -1.145371E+04 -1.803600E+04  8.937150E+03 -8.176559E+03
       143   5  2.016412E+05  2.914033E+02 -1.985269E+04 -1.198309E+04  1.891379E+04 -9.677274E+03
       143   6  1.999645E+05 -8.179684E+03 -3.681485E+04 -1.803415E+04  2.889073E+04 -1.082579E+04
       143   7  3.703902E+04 -3.931680E+04 -4.745251E+04 -1.652603E+04  7.444939E+03 -8.176898E+03
       143   8  1.027760E+04 -4.642516E+04 -6.209188E+04 -1.267362E+04  1.773158E+04 -9.677753E+03
       143   9 -1.989106E+04 -6.188802E+04 -8.551191E+04 -2.092535E+04  2.801807E+04 -1.082643E+04
       143  10  3.629166E+05  4.024211E+04  2.454313E+04 -1.954630E+04  7.050839E-09 -4.091820E-10
       143  11  3.930385E+05  4.700529E+04  2.238332E+04 -1.129219E+04  2.320234E-09 -4.889918E-10
       143  12  4.198642E+05  4.552506E+04  1.187734E+04 -1.514165E+04  1.435878E-10 -1.691540E-10
       143  13  1.999654E+05  4.634984E+02 -1.145398E+04 -1.803594E+04  1.076203E-09 -2.505670E-10
       143  14  2.016408E+05  2.912067E+02 -1.985354E+04 -1.198294E+04  5.343576E-10 -1.669397E-10
       143  15  1.999636E+05 -8.180034E+03 -3.681664E+04 -1.803389E+04 -8.793883E-11 -3.505958E-10
       143  16  3.703894E+04 -3.931689E+04 -4.745274E+04 -1.652598E+04 -5.918428E-09  2.559646E-12
       143  17  1.027724E+04 -4.642534E+04 -6.209265E+04 -1.267348E+04 -3.859064E-09  7.282975E-10
       143  18 -1.989194E+04 -6.188835E+04 -8.551361E+04 -2.092511E+04 -5.356882E-11 -2.155080E-10
       143  19  3.629168E+05  4.024221E+04  2.454346E+04 -1.954637E+04 -1.042975E+04  8.176226E+03
       143  20  3.930390E+05  4.700550E+04  2.238426E+04 -1.129234E+04 -2.009635E+04  9.676792E+03
       143  21  4.198652E+05  4.552542E+04  1.187923E+04 -1.514191E+04 -2.976369E+04  1.082514E+04
       143  22  1.999655E+05  4.635916E+02 -1.145371E+04 -1.803600E+04 -8.937150E+03  8.176559E+03
       143  23  2.016412E+05  2.914033E+02 -1.985269E+04 -1.198309E+04 -1.891379E+04  9.677274E+03
       143  24  1.999645E+05 -8.179684E+03 -3.681485E+04 -1.803415E+04 -2.889073E+04  1.082579E+04
       143  25  3.703902E+04 -3.931680E+04 -4.745251E+04 -1.652603E+04 -7.444939E+03  8.176898E+03
       143  26  1.027760E+04 -4.642516E+04 -6.209188E+04 -1.267362E+04 -1.773158E+04  9.677753E+03
       143  27 -1.989106E+04 -6.188802E+04 -8.551191E+04 -2.092535E+04 -2.801807E+04  1.082643E+04
       144   1  4.355160E+05  6.664294E+04  7.452345E+03 -3.870991E+04  3.868291E+04 -1.247249E+04
       144   2  4.836054E+05  6.801823E+04 -1.764010E+04  1.122817E+04  7.334422E+04 -1.209779E+04
       144   3  4.927280E+05 -6.865752E+04 -9.978334E+04  4.941639E+04  1.080040E+05 -3.816893E+03
       144   4  1.917702E+05  7.187976E+03 -4.624344E+04 -1.797350E+04  3.548162E+04 -1.247255E+04
       144   5  2.118797E+05  1.491753E+03 -7.853794E+04 -1.206563E+04  7.714801E+04 -1.209935E+04
       144   6  1.917837E+05 -1.435114E+05 -1.727641E+05 -1.790791E+04  1.188106E+05 -3.823306E+03
       144   7 -5.191905E+04 -5.226935E+04 -9.994259E+04  2.754677E+03  3.228157E+04 -1.247283E+04
       144   8 -5.977606E+04 -6.503771E+04 -1.394401E+05 -3.534915E+04  8.095015E+04 -1.210119E+04
       144   9 -1.090679E+05 -2.183548E+05 -2.457486E+05 -8.519951E+04  1.296120E+05 -3.832066E+03
       144  10  4.355143E+05  6.664237E+04  7.449243E+03 -3.870952E+04 -9.096474E-10 -3.907162E-11
       144  11  4.835996E+05  6.801663E+04 -1.765048E+04  1.122888E+04 -1.220229E-09 -5.736550E-10
       144  12  4.927155E+05 -6.866066E+04 -9.980527E+04  4.941672E+04  3.126138E-10 -1.078890E-10
       144  13  1.917688E+05  7.187471E+03 -4.624609E+04 -1.797314E+04 -2.543970E-10 -1.366774E-09
       144  14  2.118733E+05  1.489999E+03 -7.854940E+04 -1.206488E+04  1.882542E-09  1.617988E-09
       144  15  1.917686E+05 -1.435152E+05 -1.727907E+05 -1.790755E+04  1.616393E-10  2.847395E-10
       144  16 -5.192021E+04 -5.226980E+04 -9.994484E+04  2.755002E+03 -1.302594E-09 -3.944203E-10
       144  17 -5.978314E+04 -6.503963E+04 -1.394527E+05 -3.534836E+04 -1.249671E-09  1.350431E-09
       144  18 -1.090860E+05 -2.183593E+05 -2.457802E+05 -8.519911E+04  1.257902E-09  4.656514E-11
       144  19  4.355160E+05  6.664294E+04  7.452345E+03 -3.870991E+04 -3.868291E+04  1.247249E+04
       144  20  4.836054E+05  6.801823E+04 -1.764010E+04  1.122817E+04 -7.334422E+04  1.209779E+04
       144  21  4.927280E+05 -6.865752E+04 -9.978334E+04  4.941639E+04 -1.080040E+05  3.816893E+03
       144  22  1.917702E+05  7.187976E+03 -4.624344E+04 -1.797350E+04 -3.548162E+04  1.247255E+04
       144  23  2.118797E+05  1.491753E+03 -7.853794E+04 -1.206563E+04 -7.714801E+04  1.209935E+04
       144  24  1.917837E+05 -1.435114E+05 -1.727641E+05 -1.790791E+04 -1.188106E+05  3.823306E+03
       144  25 -5.191905E+04 -5.226935E+04 -9.994259E+04  2.754677E+03 -3.228157E+04  1.247283E+04
       144  26 -5.977606E+04 -6.503771E+04 -1.394401E+05 -3.534915E+04 -8.095015E+04  1.210119E+04
       144  27 -1.090679E+05 -2.183548E+05 -2.457486E+05 -8.519951E+04 -1.296120E+05  3.832066E+03
       145   1  3.581660E+05  1.318819E+06  3.522337E+05 -2.092837E+05  1.606348E+04  5.182774E+04
       145   2  2.641708E+05  9.920898E+05  2.473774E+05 -1.387869E+05  4.649561E+04  1.489723E+04
       145   3  1.854705E+05  6.741331E+05  1.703699E+05 -2.036108E+05  3.821813E+04 -2.205401E+04
       145   4  9.247180E+03 -8.532399E+04  1.077735E+04 -2.039175E+05  1.611481E+04  7.578723E+03
       145   5  2.357921E+01 -8.658465E+04  4.749841E+03 -1.362566E+05  4.651526E+04  5.091763E+03
       145   6  1.432170E+02 -8.512415E+04  2.696146E+03 -2.039289E+05  3.817633E+04  2.564990E+03
       145   7 -3.398155E+05 -1.487666E+06 -3.308145E+05 -1.985627E+05  1.616545E+04 -3.657066E+04
       145   8 -2.642032E+05 -1.164178E+06 -2.379514E+05 -1.337301E+05  4.653484E+04 -4.696864E+03
       145   9 -1.852225E+05 -8.438419E+05 -1.650109E+05 -2.042463E+05  3.813449E+04  2.715425E+04
       145  10  3.581650E+05  1.318816E+06  3.522282E+05 -2.092844E+05  1.248188E-09  1.123133E-09
       145  11  2.641685E+05  9.920890E+05  2.473729E+05 -1.387875E+05  2.003459E-09 -1.697343E-09
       145  12  1.854688E+05  6.741322E+05  1.703663E+05 -2.036101E+05 -2.207182E-10 -2.230352E-09
       145  13  9.246886E+03 -8.532412E+04  1.077675E+04 -2.039176E+05 -1.797065E-09  1.768795E-11
       145  14  2.124887E+01 -8.658526E+04  4.745726E+03 -1.362568E+05 -5.212136E-10  6.370667E-10
       145  15  1.416503E+02 -8.512455E+04  2.693395E+03 -2.039290E+05 -1.832332E-09 -2.630687E-09
       145  16 -3.398161E+05 -1.487668E+06 -3.308175E+05 -1.985622E+05 -6.334585E-10 -1.103275E-09
       145  17 -2.642055E+05 -1.164178E+06 -2.379555E+05 -1.337300E+05 -6.074121E-10  1.023950E-09
       145  18 -1.852243E+05 -8.438431E+05 -1.650150E+05 -2.042471E+05 -2.255905E-09  9.006942E-10
       145  19  3.581660E+05  1.318819E+06  3.522337E+05 -2.092837E+05 -1.606348E+04 -5.182774E+04
       145  20  2.641708E+05  9.920898E+05  2.473774E+05 -1.387869E+05 -4.649561E+04 -1.489723E+04
       145  21  1.854705E+05  6.741331E+05  1.703699E+05 -2.036108E+05 -3.821813E+04  2.205401E+04
       145  22  9.247180E+03 -8.532399E+04  1.077735E+04 -2.039175E+05 -1.611481E+04 -7.578723E+03
       145  23  2.357921E+01 -8.658465E+04  4.749841E+03 -1.362566E+05 -4.651526E+04 -5.091763E+03
       145  24  1.432170E+02 -8.512415E+04  2.696146E+03 -2.039289E+05 -3.817633E+04 -2.564990E+03
       145  25 -3.398155E+05 -1.487666E+06 -3.308145E+05 -1.985627E+05 -1.616545E+04  3.657066E+04
       145  26 -2.642032E+05 -1.164178E+06 -2.379514E+05 -1.337301E+05 -4.653484E+04  4.696864E+03
       145  27 -1.852225E+05 -8.438419E+05 -1.650109E+05 -2.042463E+05 -3.813449E+04 -2.715425E+04
       146   1  1.211822E+05  4.054588E+05  1.108722E+05 -2.050812E+05  2.406071E+04 -1.143270E+04
       146   2  4.179881E+04  8.364259E+04  3.803745E+04 -1.361002E+05  8.568107E+03 -1.213596E+04
       146   3 -3.682638E+04 -2.383468E+05 -3.429091E+04 -2.040705E+05 -7.306436E+03 -1.284317E+04
       146   4  1.188188E+03 -8.572569E+04  1.997371E+03 -2.042852E+05  2.403540E+04  2.160328E+03
       146   5  4.891410E+02 -8.554576E+04  6.799238E+02 -1.358092E+05  8.540897E+03  1.793591E+03
       146   6  4.965360E+02 -8.569415E+04 -3.602281E+02 -2.042866E+05 -7.335960E+03  1.422566E+03
       146   7 -1.188220E+05 -5.766847E+05 -1.068917E+05 -2.034896E+05  2.401012E+04  1.574273E+04
       146   8 -4.082235E+04 -2.547069E+05 -3.667864E+04 -1.355183E+05  8.513696E+03  1.571939E+04
       146   9  3.781798E+04  6.698064E+04  3.356977E+04 -2.045027E+05 -7.365490E+03  1.569177E+04
       146  10  1.211816E+05  4.054585E+05  1.108708E+05 -2.050810E+05 -2.247780E-09  2.427786E-09
       146  11  4.179869E+04  8.364242E+04  3.803704E+04 -1.361001E+05 -1.143979E-09 -1.027397E-09
       146  12 -3.682648E+04 -2.383470E+05 -3.429132E+04 -2.040706E+05 -6.797476E-10 -1.779275E-09
       146  13  1.187566E+03 -8.572585E+04  1.996276E+03 -2.042852E+05 -6.533083E-10  1.127946E-12
       146  14  4.890618E+02 -8.554578E+04  6.797806E+02 -1.358092E+05 -3.513187E-10  9.370103E-10
       146  15  4.964777E+02 -8.569417E+04 -3.603330E+02 -2.042866E+05 -2.273839E-09 -3.035182E-09
       146  16 -1.188227E+05 -5.766851E+05 -1.068932E+05 -2.034900E+05 -1.546230E-09 -2.472738E-09
       146  17 -4.082249E+04 -2.547072E+05 -3.667924E+04 -1.355184E+05  2.624903E-10  1.337171E-10
       146  18  3.781786E+04  6.698036E+04  3.356921E+04 -2.045026E+05 -1.408403E-09  3.101906E-10
       146  19  1.211822E+05  4.054588E+05  1.108722E+05 -2.050812E+05 -2.406071E+04  1.143270E+04
       146  20  4.179881E+04  8.364259E+04  3.803745E+04 -1.361002E+05 -8.568107E+03  1.213596E+04
       146  21 -3.682638E+04 -2.383468E+05 -3.429091E+04 -2.040705E+05  7.306436E+03  1.284317E+04
       146  22  1.188188E+03 -8.572569E+04  1.997371E+03 -2.042852E+05 -2.403540E+04 -2.160328E+03
       146  23  4.891410E+02 -8.554576E+04  6.799238E+02 -1.358092E+05 -8.540897E+03 -1.793591E+03
       146  24  4.965360E+02 -8.569415E+04 -3.602281E+02 -2.042866E+05  7.335960E+03 -1.422566E+03
       146  25 -1.188220E+05 -5.766847E+05 -1.068917E+05 -2.034896E+05 -2.401012E+04 -1.574273E+04
       146  26 -4.082235E+04 -2.547069E+05 -3.667864E+04 -1.355183E+05 -8.513696E+03 -1.571939E+04
       146  27  3.781798E+04  6.698064E+04  3.356977E+04 -2.045027E+05  7.365490E+03 -1.569177E+04
       147   1 -1.017552E+05 -5.062712E+05 -9.394428E+04 -2.027788E+05 -2.068662E+04 -2.118212E+04
       147   2 -1.811139E+05 -8.253015E+05 -1.691629E+05 -1.359122E+05 -3.117308E+04  6.706177E+03
       147   3 -2.686399E+05 -1.150182E+06 -2.646734E+05 -2.047912E+05 -1.146757E+04  3.462237E+04
       147   4  9.712710E+02 -8.594306E+04 -8.095329E+02 -2.040139E+05 -2.073136E+04  1.468996E+03
       147   5  3.662659E+02 -8.536611E+04 -2.094025E+03 -1.361493E+05 -3.116336E+04  2.574922E+03
       147   6 -3.742615E+03 -8.608096E+04 -5.053181E+03 -2.040210E+05 -1.141940E+04  3.723737E+03
       147   7  1.036861E+05  3.345513E+05  9.231620E+04 -2.052496E+05 -2.077617E+04  2.413529E+04
       147   8  1.818088E+05  6.550787E+05  1.649398E+05 -1.363865E+05 -3.115364E+04 -1.561216E+03
       147   9  2.610716E+05  9.790556E+05  2.544882E+05 -2.032490E+05 -1.137136E+04 -2.722781E+04
       147  10 -1.017558E+05 -5.062718E+05 -9.394593E+04 -2.027792E+05 -1.747522E-09  3.517576E-09
       147  11 -1.811150E+05 -8.253018E+05 -1.691648E+05 -1.359120E+05  2.224176E-09 -5.658925E-10
       147  12 -2.686404E+05 -1.150183E+06 -2.646759E+05 -2.047908E+05  9.200270E-10 -2.087042E-09
       147  13  9.708089E+02 -8.594317E+04 -8.103446E+02 -2.040138E+05 -1.899312E-09 -1.369961E-11
       147  14  3.652213E+02 -8.536638E+04 -2.095862E+03 -1.361493E+05  1.958100E-11  7.420263E-10
       147  15 -3.742758E+03 -8.608101E+04 -5.053452E+03 -2.040210E+05  1.271149E-09 -2.098939E-09
       147  16  1.036855E+05  3.345505E+05  9.231429E+04 -2.052492E+05 -2.271809E-09 -3.514467E-09
       147  17  1.818078E+05  6.550785E+05  1.649380E+05 -1.363865E+05  6.620298E-10 -2.659438E-10
       147  18  2.610713E+05  9.790548E+05  2.544866E+05 -2.032492E+05  7.082532E-10  1.110180E-09
       147  19 -1.017552E+05 -5.062712E+05 -9.394428E+04 -2.027788E+05  2.068662E+04  2.118212E+04
       147  20 -1.811139E+05 -8.253015E+05 -1.691629E+05 -1.359122E+05  3.117308E+04 -6.706177E+03
       147  21 -2.686399E+05 -1.150182E+06 -2.646734E+05 -2.047912E+05  1.146757E+04 -3.462237E+04
       147  22  9.712710E+02 -8.594306E+04 -8.095329E+02 -2.040139E+05  2.073136E+04 -1.468996E+03
       147  23  3.662659E+02 -8.536611E+04 -2.094025E+03 -1.361493E+05  3.116336E+04 -2.574922E+03
       147  24 -3.742615E+03 -8.608096E+04 -5.053181E+03 -2.040210E+05  1.141940E+04 -3.723737E+03
       147  25  1.036861E+05  3.345513E+05  9.231620E+04 -2.052496E+05  2.077617E+04 -2.413529E+04
       147  26  1.818088E+05  6.550787E+05  1.649398E+05 -1.363865E+05  3.115364E+04  1.561216E+03
       147  27  2.610716E+05  9.790556E+05  2.544882E+05 -2.032490E+05  1.137136E+04  2.722781E+04
       148   1 -7.607737E+05 -2.880339E+05 -1.697020E+05 -2.826736E+05 -5.937977E+04 -1.656176E+04
       148   2 -7.172907E+05 -1.968589E+05 -1.107034E+05 -2.655174E+05 -3.812827E+04  3.214047E+03
       148   3 -6.826616E+05 -1.757155E+05 -8.542022E+04 -2.518715E+05 -1.282729E+04  1.221805E+04
       148   4 -4.039250E+05 -1.301754E+05 -6.967733E+04 -1.612293E+05 -4.633752E+04 -1.166602E+04
       148   5 -3.966138E+05 -6.935698E+04 -3.012122E+04 -1.694924E+05 -3.402437E+04  4.753679E+03
       148   6 -3.963745E+05 -7.678226E+04 -1.718095E+04 -1.812700E+05 -1.766489E+04  1.040195E+04
       148   7 -4.694927E+04  2.770606E+04  3.033666E+04 -3.971643E+04 -3.328697E+04 -6.765919E+03
       148   8 -7.583430E+04  5.815610E+04  5.045311E+04 -7.342067E+04 -2.991814E+04  6.294317E+03
       148   9 -1.100064E+05  2.215393E+04  5.105260E+04 -1.106401E+05 -2.250493E+04  8.585093E+03
       148  10 -7.607776E+05 -2.880352E+05 -1.697091E+05 -2.826744E+05 -9.029577E-10 -1.617606E-10
       148  11 -7.172923E+05 -1.968593E+05 -1.107061E+05 -2.655173E+05  3.015499E-09  1.322061E-09
       148  12 -6.826619E+05 -1.757157E+05 -8.542081E+04 -2.518714E+05  2.830474E-09  9.947796E-10
       148  13 -4.039273E+05 -1.301761E+05 -6.968162E+04 -1.612298E+05 -1.281833E-10  3.511957E-10
       148  14 -3.966150E+05 -6.935732E+04 -3.012344E+04 -1.694923E+05  4.183697E-10  6.937234E-10
       148  15 -3.963749E+05 -7.678246E+04 -1.718174E+04 -1.812699E+05  8.489546E-12 -1.004132E-10
       148  16 -4.695047E+04  2.770572E+04  3.033449E+04 -3.971662E+04  2.027262E-09  9.056272E-10
       148  17 -7.583527E+04  5.815581E+04  5.045136E+04 -7.342052E+04  3.445301E-09 -1.821769E-10
       148  18 -1.100070E+05  2.215371E+04  5.105151E+04 -1.106400E+05 -5.572479E-10  6.799986E-11
       148  19 -7.607737E+05 -2.880339E+05 -1.697020E+05 -2.826736E+05  5.937977E+04  1.656176E+04
       148  20 -7.172907E+05 -1.968589E+05 -1.107034E+05 -2.655174E+05  3.812827E+04 -3.214047E+03
       148  21 -6.826616E+05 -1.757155E+05 -8.542022E+04 -2.518715E+05  1.282729E+04 -1.221805E+04
       148  22 -4.039250E+05 -1.301754E+05 -6.967733E+04 -1.612293E+05  4.633752E+04  1.166602E+04
       148  23 -3.966138E+05 -6.935698E+04 -3.012122E+04 -1.694924E+05  3.402437E+04 -4.753679E+03
       148  24 -3.963745E+05 -7.678226E+04 -1.718095E+04 -1.812700E+05  1.766489E+04 -1.040195E+04
       148  25 -4.694927E+04  2.770606E+04  3.033666E+04 -3.971643E+04  3.328697E+04  6.765919E+03
       148  26 -7.583430E+04  5.815610E+04  5.045311E+04 -7.342067E+04  2.991814E+04 -6.294317E+03
       148  27 -1.100064E+05  2.215393E+04  5.105260E+04 -1.106401E+05  2.250493E+04 -8.585093E+03
       149   1 -6.335119E+05 -1.725891E+05 -7.237762E+04 -2.448689E+05 -1.287707E+04  9.144221E+03
       149   2 -5.940572E+05 -1.434352E+05 -5.415333E+04 -2.235632E+05 -8.114826E+03  8.496758E+03
       149   3 -5.410306E+05 -1.332227E+05 -3.982981E+04 -2.191090E+05 -3.168928E+03  7.358485E+03
       149   4 -3.940857E+05 -8.226104E+04 -1.365208E+04 -1.780551E+05 -1.444849E+04  8.554115E+03
       149   5 -4.006719E+05 -7.115305E+04 -6.988680E+03 -1.702572E+05 -1.009261E+04  7.754490E+03
       149   6 -3.936070E+05 -7.890497E+04 -3.902624E+03 -1.793115E+05 -5.553401E+03  6.464009E+03
       149   7 -1.546042E+05  8.070882E+03  4.506880E+04 -1.112180E+05 -1.602056E+04  7.963756E+03
       149   8 -2.072497E+05  1.131773E+03  4.017318E+04 -1.169360E+05 -1.207106E+04  7.011967E+03
       149   9 -2.461613E+05 -2.458567E+04  3.202315E+04 -1.395052E+05 -7.938503E+03  5.569303E+03
       149  10 -6.335121E+05 -1.725892E+05 -7.237808E+04 -2.448688E+05  6.053852E-10  3.584207E-10
       149  11 -5.940573E+05 -1.434353E+05 -5.415359E+04 -2.235631E+05 -1.372753E-09  7.888297E-10
       149  12 -5.410306E+05 -1.332227E+05 -3.982993E+04 -2.191090E+05 -1.399642E-09  9.963940E-10
       149  13 -3.940860E+05 -8.226118E+04 -1.365261E+04 -1.780550E+05 -9.959887E-10 -4.709318E-11
       149  14 -4.006720E+05 -7.115314E+04 -6.988984E+03 -1.702571E+05 -2.940692E-11  5.163830E-10
       149  15 -3.936071E+05 -7.890503E+04 -3.902760E+03 -1.793114E+05  1.327347E-09  1.388074E-09
       149  16 -1.546045E+05  8.070745E+03  4.506820E+04 -1.112179E+05 -1.094477E-09  1.708971E-11
       149  17 -2.072498E+05  1.131682E+03  4.017281E+04 -1.169359E+05 -1.361142E-09  6.279222E-10
       149  18 -2.461614E+05 -2.458572E+04  3.202298E+04 -1.395052E+05  4.299542E-10  1.724110E-09
       149  19 -6.335119E+05 -1.725891E+05 -7.237762E+04 -2.448689E+05  1.287707E+04 -9.144221E+03
       149  20 -5.940572E+05 -1.434352E+05 -5.415333E+04 -2.235632E+05  8.114826E+03 -8.496758E+03
       149  21 -5.410306E+05 -1.332227E+05 -3.982981E+04 -2.191090E+05  3.168928E+03 -7.358485E+03
       149  22 -3.940857E+05 -8.226104E+04 -1.365208E+04 -1.780551E+05  1.444849E+04 -8.554115E+03
       149  23 -4.006719E+05 -7.115305E+04 -6.988680E+03 -1.702572E+05  1.009261E+04 -7.754490E+03
       149  24 -3.936070E+05 -7.890497E+04 -3.902624E+03 -1.793115E+05  5.553401E+03 -6.464009E+03
       149  25 -1.546042E+05  8.070882E+03  4.506880E+04 -1.112180E+05  1.602056E+04 -7.963756E+03
       149  26 -2.072497E+05  1.131773E+03  4.017318E+04 -1.169360E+05  1.207106E+04 -7.011967E+03
       149  27 -2.461613E+05 -2.458567E+04  3.202315E+04 -1.395052E+05  7.938503E+03 -5.569303E+03
       150   1 -4.999983E+05 -1.188795E+05 -2.877798E+04 -2.083135E+05 -2.149330E+03  5.871760E+03
       150   2 -4.608747E+05 -9.355878E+04 -1.621745E+04 -1.866834E+05 -2.884709E+02  3.484019E+03
       150   3 -4.065126E+05 -8.390773E+04 -4.347637E+03 -1.827069E+05  1.580817E+03  1.073094E+03
       150   4 -3.933983E+05 -7.924002E+04 -2.986093E+03 -1.790965E+05 -4.387607E+03  5.032258E+03
       150   5 -4.010034E+05 -7.130750E+04 -1.652154E+03 -1.703064E+05 -2.545899E+03  2.637440E+03
       150   6 -3.933684E+05 -7.904068E+04 -9.934583E+02 -1.791704E+05 -6.958380E+02  2.194251E+02
       150   7 -2.867870E+05 -3.959980E+04  2.280497E+04 -1.498749E+05 -6.626303E+03  4.192600E+03
       150   8 -3.411288E+05 -4.905604E+04  1.291286E+04 -1.539280E+05 -4.803559E+03  1.790775E+03
       150   9 -3.802241E+05 -7.417365E+04  2.360711E+03 -1.756340E+05 -2.972535E+03 -6.342587E+02
       150  10 -4.999983E+05 -1.188795E+05 -2.877805E+04 -2.083135E+05  2.653795E-09  2.019286E-09
       150  11 -4.608747E+05 -9.355879E+04 -1.621748E+04 -1.866834E+05 -7.922501E-09 -3.023103E-09
       150  12 -4.065126E+05 -8.390773E+04 -4.347644E+03 -1.827069E+05 -1.115294E-08 -6.099524E-09
       150  13 -3.933983E+05 -7.924006E+04 -2.986177E+03 -1.790965E+05  2.527427E-10  9.972435E-10
       150  14 -4.010035E+05 -7.130751E+04 -1.652179E+03 -1.703064E+05  4.139794E-10 -7.543892E-10
       150  15 -3.933684E+05 -7.904068E+04 -9.934593E+02 -1.791704E+05  2.313697E-09 -1.604169E-09
       150  16 -2.867871E+05 -3.959983E+04  2.280485E+04 -1.498749E+05 -3.332262E-09 -4.061397E-12
       150  17 -3.411288E+05 -4.905605E+04  1.291281E+04 -1.539280E+05  7.490550E-09  1.654250E-09
       150  18 -3.802241E+05 -7.417365E+04  2.360693E+03 -1.756340E+05  1.405411E-08  2.665147E-09
       150  19 -4.999983E+05 -1.188795E+05 -2.877798E+04 -2.083135E+05  2.149330E+03 -5.871760E+03
       150  20 -4.608747E+05 -9.355878E+04 -1.621745E+04 -1.866834E+05  2.884709E+02 -3.484019E+03
       150  21 -4.065126E+05 -8.390773E+04 -4.347637E+03 -1.827069E+05 -1.580817E+03 -1.073094E+03
       150  22 -3.933983E+05 -7.924002E+04 -2.986093E+03 -1.790965E+05  4.387607E+03 -5.032258E+03
       150  23 -4.010034E+05 -7.130750E+04 -1.652154E+03 -1.703064E+05  2.545899E+03 -2.637440E+03
       150  24 -3.933684E+05 -7.904068E+04 -9.934583E+02 -1.791704E+05  6.958380E+02 -2.194251E+02
       150  25 -2.867870E+05 -3.959980E+04  2.280497E+04 -1.498749E+05  6.626303E+03 -4.192600E+03
       150  26 -3.411288E+05 -4.905604E+04  1.291286E+04 -1.539280E+05  4.803559E+03 -1.790775E+03
       150  27 -3.802241E+05 -7.417365E+04  2.360711E+03 -1.756340E+05  2.972535E+03  6.342587E+02
       151   1 -3.660039E+05 -6.884328E+04  6.004423E+03 -1.716598E+05  2.320677E+03 -4.665757E+02
       151   2 -3.269439E+05 -4.375890E+04  1.738207E+04 -1.500068E+05  3.666131E+03 -3.077387E+03
       151   3 -2.725004E+05 -3.412565E+04  2.851630E+04 -1.460351E+05  5.011790E+03 -5.687759E+03
       151   4 -3.933463E+05 -7.905700E+04 -8.152158E+02 -1.791529E+05  5.075823E+01 -1.317728E+03
       151   5 -4.010376E+05 -7.133008E+04 -6.451029E+02 -1.703124E+05  1.396397E+03 -3.928614E+03
       151   6 -3.933487E+05 -7.905522E+04 -7.188251E+02 -1.791547E+05  2.742203E+03 -6.539048E+03
       151   7 -4.206882E+05 -8.927074E+04 -7.634951E+03 -1.866457E+05 -2.219069E+03 -2.168847E+03
       151   8 -4.751256E+05 -9.890080E+04 -1.867260E+04 -1.906158E+05 -8.730346E+02 -4.779728E+03
       151   9 -5.141808E+05 -1.239832E+05 -2.995455E+04 -2.122680E+05  4.731279E+02 -7.390145E+03
       151  10 -3.660039E+05 -6.884328E+04  6.004413E+03 -1.716598E+05  1.567020E-08  3.933835E-09
       151  11 -3.269439E+05 -4.375891E+04  1.738202E+04 -1.500068E+05  1.292980E-08  3.276663E-09
       151  12 -2.725004E+05 -3.412569E+04  2.851619E+04 -1.460350E+05  2.773388E-10  3.665742E-10
       151  13 -3.933463E+05 -7.905700E+04 -8.152191E+02 -1.791529E+05  3.869016E-09 -9.718824E-10
       151  14 -4.010376E+05 -7.133010E+04 -6.451355E+02 -1.703124E+05  4.811911E-09  1.019294E-09
       151  15 -3.933487E+05 -7.905527E+04 -7.189195E+02 -1.791547E+05  1.270347E-09  1.545457E-09
       151  16 -4.206882E+05 -8.927075E+04 -7.634969E+03 -1.866457E+05 -8.640532E-09 -5.858812E-09
       151  17 -4.751256E+05 -9.890082E+04 -1.867265E+04 -1.906158E+05 -1.657687E-09 -1.332094E-09
       151  18 -5.141808E+05 -1.239832E+05 -2.995466E+04 -2.122680E+05  6.973683E-10  2.660680E-09
       151  19 -3.660039E+05 -6.884328E+04  6.004423E+03 -1.716598E+05 -2.320677E+03  4.665757E+02
       151  20 -3.269439E+05 -4.375890E+04  1.738207E+04 -1.500068E+05 -3.666131E+03  3.077387E+03
       151  21 -2.725004E+05 -3.412565E+04  2.851630E+04 -1.460351E+05 -5.011790E+03  5.687759E+03
       151  22 -3.933463E+05 -7.905700E+04 -8.152158E+02 -1.791529E+05 -5.075823E+01  1.317728E+03
       151  23 -4.010376E+05 -7.133008E+04 -6.451029E+02 -1.703124E+05 -1.396397E+03  3.928614E+03
       151  24 -3.933487E+05 -7.905522E+04 -7.188251E+02 -1.791547E+05 -2.742203E+03  6.539048E+03
       151  25 -4.206882E+05 -8.927074E+04 -7.634951E+03 -1.866457E+05  2.219069E+03  2.168847E+03
       151  26 -4.751256E+05 -9.890080E+04 -1.867260E+04 -1.906158E+05  8.730346E+02  4.779728E+03
       151  27 -5.141808E+05 -1.239832E+05 -2.995455E+04 -2.122680E+05 -4.731279E+02  7.390145E+03
       152   1 -2.321028E+05 -1.903378E+04  3.855388E+04 -1.349860E+05  5.735686E+03 -7.228566E+03
       152   2 -1.931354E+05  5.986270E+03  4.922682E+04 -1.133713E+05  7.424392E+03 -9.704360E+03
       152   3 -1.388556E+05  1.555628E+04  5.939682E+04 -1.093903E+05  9.112003E+03 -1.217434E+04
       152   4 -3.933653E+05 -7.904678E+04 -8.420079E+02 -1.791482E+05  3.467742E+03 -8.079396E+03
       152   5 -4.010262E+05 -7.134558E+04 -1.345552E+03 -1.703226E+05  5.160810E+03 -1.055395E+04
       152   6 -3.933770E+05 -7.909566E+04 -2.355320E+03 -1.791319E+05  6.852731E+03 -1.302271E+04
       152   7 -5.546033E+05 -1.390584E+05 -4.024011E+04 -2.233001E+05  1.200427E+03 -8.929990E+03
       152   8 -6.088767E+05 -1.486753E+05 -5.192176E+04 -2.272572E+05  2.898031E+03 -1.140324E+04
       152   9 -6.478384E+05 -1.737447E+05 -6.411336E+04 -2.488487E+05  4.594434E+03 -1.387070E+04
       152  10 -2.321028E+05 -1.903385E+04  3.855372E+04 -1.349860E+05  2.351660E-09  1.241491E-09
       152  11 -1.931355E+05  5.986155E+03  4.922654E+04 -1.133712E+05  1.126876E-09  8.980842E-10
       152  12 -1.388558E+05  1.555610E+04  5.939638E+04 -1.093902E+05 -1.439263E-09  7.716438E-10
       152  13 -3.933654E+05 -7.904685E+04 -8.421532E+02 -1.791481E+05  6.975804E-10  9.354716E-10
       152  14 -4.010263E+05 -7.134571E+04 -1.345812E+03 -1.703225E+05  2.125566E-09  1.275938E-10
       152  15 -3.933771E+05 -7.909586E+04 -2.355727E+03 -1.791318E+05 -2.470316E-10  7.237941E-10
       152  16 -5.546033E+05 -1.390585E+05 -4.024026E+04 -2.233001E+05 -3.106061E-09  6.559785E-10
       152  17 -6.088767E+05 -1.486755E+05 -5.192202E+04 -2.272572E+05 -1.637705E-09 -2.528303E-10
       152  18 -6.478384E+05 -1.737449E+05 -6.411376E+04 -2.488486E+05  2.189823E-09  1.462473E-09
       152  19 -2.321028E+05 -1.903378E+04  3.855388E+04 -1.349860E+05 -5.735686E+03  7.228566E+03
       152  20 -1.931354E+05  5.986270E+03  4.922682E+04 -1.133713E+05 -7.424392E+03  9.704360E+03
       152  21 -1.388556E+05  1.555628E+04  5.939682E+04 -1.093903E+05 -9.112003E+03  1.217434E+04
       152  22 -3.933653E+05 -7.904678E+04 -8.420079E+02 -1.791482E+05 -3.467742E+03  8.079396E+03
       152  23 -4.010262E+05 -7.134558E+04 -1.345552E+03 -1.703226E+05 -5.160810E+03  1.055395E+04
       152  24 -3.933770E+05 -7.909566E+04 -2.355320E+03 -1.791319E+05 -6.852731E+03  1.302271E+04
       152  25 -5.546033E+05 -1.390584E+05 -4.024011E+04 -2.233001E+05 -1.200427E+03  8.929990E+03
       152  26 -6.088767E+05 -1.486753E+05 -5.192176E+04 -2.272572E+05 -2.898031E+03  1.140324E+04
       152  27 -6.478384E+05 -1.737447E+05 -6.411336E+04 -2.488487E+05 -4.594434E+03  1.387070E+04
       153   1 -9.863348E+04  3.057633E+04  6.876283E+04 -9.851761E+04  1.016533E+04 -1.358802E+04
       153   2 -5.975385E+04  5.562115E+04  7.739914E+04 -7.683060E+04  1.394520E+04 -1.525448E+04
       153   3 -6.152193E+03  6.453439E+04  8.378274E+04 -7.257647E+04  1.771019E+04 -1.687666E+04
       153   4 -3.934856E+05 -7.902412E+04 -3.106510E+03 -1.791748E+05  7.898252E+03 -1.443962E+04
       153   5 -4.008969E+05 -7.130890E+04 -5.591840E+03 -1.703270E+05  1.171308E+04 -1.609357E+04
       153   6 -3.935951E+05 -7.973266E+04 -1.035822E+04 -1.789129E+05  1.551282E+04 -1.770329E+04
       153   7 -6.882477E+05 -1.886171E+05 -7.498121E+04 -2.597960E+05  5.632381E+03 -1.529078E+04
       153   8 -7.419224E+05 -1.982299E+05 -8.859075E+04 -2.637760E+05  9.482317E+03 -1.693215E+04
       153   9 -7.808890E+05 -2.239890E+05 -1.045102E+05 -2.851889E+05  1.331694E+04 -1.852936E+04
       153  10 -9.863364E+04  3.057610E+04  6.876229E+04 -9.851750E+04 -2.654065E-09  1.366455E-09
       153  11 -5.975412E+04  5.562085E+04  7.739834E+04 -7.683043E+04 -5.831840E-09 -1.279200E-10
       153  12 -6.152606E+03  6.453400E+04  8.378161E+04 -7.257622E+04 -2.513078E-09  3.591961E-10
       153  13 -3.934857E+05 -7.902436E+04 -3.107019E+03 -1.791747E+05 -4.159017E-09  1.699169E-09
       153  14 -4.008971E+05 -7.130921E+04 -5.592585E+03 -1.703268E+05 -1.389348E-09 -2.889222E-10
       153  15 -3.935954E+05 -7.973306E+04 -1.035926E+04 -1.789127E+05 -4.434186E-10 -8.811383E-10
       153  16 -6.882478E+05 -1.886174E+05 -7.498171E+04 -2.597960E+05 -3.458252E-09  1.205449E-09
       153  17 -7.419225E+05 -1.982303E+05 -8.859146E+04 -2.637758E+05 -2.927537E-09 -1.838609E-11
       153  18 -7.808892E+05 -2.239895E+05 -1.045111E+05 -2.851887E+05  3.175928E-10  1.021951E-10
       153  19 -9.863348E+04  3.057633E+04  6.876283E+04 -9.851761E+04 -1.016533E+04  1.358802E+04
       153  20 -5.975385E+04  5.562115E+04  7.739914E+04 -7.683060E+04 -1.394520E+04  1.525448E+04
       153  21 -6.152193E+03  6.453439E+04  8.378274E+04 -7.257647E+04 -1.771019E+04  1.687666E+04
       153  22 -3.934856E+05 -7.902412E+04 -3.106510E+03 -1.791748E+05 -7.898252E+03  1.443962E+04
       153  23 -4.008969E+05 -7.130890E+04 -5.591840E+03 -1.703270E+05 -1.171308E+04  1.609357E+04
       153  24 -3.935951E+05 -7.973266E+04 -1.035822E+04 -1.789129E+05 -1.551282E+04  1.770329E+04
       153  25 -6.882477E+05 -1.886171E+05 -7.498121E+04 -2.597960E+05 -5.632381E+03  1.529078E+04
       153  26 -7.419224E+05 -1.982299E+05 -8.859075E+04 -2.637760E+05 -9.482317E+03  1.693215E+04
       153  27 -7.808890E+05 -2.239890E+05 -1.045102E+05 -2.851889E+05 -1.331694E+04  1.852936E+04
       154   1  3.455594E+04  7.921680E+04  9.054855E+04 -6.400865E+04  2.049699E+04 -1.771879E+04
       154   2  7.286129E+04  1.064054E+05  9.081294E+04 -3.926476E+04  3.319359E+04 -1.581637E+04
       154   3  1.204555E+05  1.063773E+05  7.911542E+04 -2.917587E+04  4.557671E+04 -1.307220E+04
       154   4 -3.943218E+05 -7.856642E+04 -1.360075E+04 -1.796750E+05  1.805222E+04 -1.863880E+04
       154   5 -3.997331E+05 -7.075353E+04 -2.446152E+04 -1.701438E+05  3.143871E+04 -1.647798E+04
       154   6 -3.959994E+05 -9.030236E+04 -4.783852E+04 -1.752697E+05  4.451069E+04 -1.347556E+04
       154   7 -8.230203E+05 -2.363389E+05 -1.177643E+05 -2.952698E+05  1.560928E+04 -1.955814E+04
       154   8 -8.721082E+05 -2.478967E+05 -1.397531E+05 -3.009324E+05  2.968529E+04 -1.713903E+04
       154   9 -9.121911E+05 -2.869606E+05 -1.748128E+05 -3.212520E+05  4.344563E+04 -1.387854E+04
       154  10  3.455541E+04  7.921635E+04  9.054717E+04 -6.400836E+04 -2.232670E-09 -4.049673E-10
       154  11  7.286004E+04  1.064048E+05  9.081040E+04 -3.926434E+04 -2.741728E-09 -2.705627E-10
       154  12  1.204532E+05  1.063765E+05  7.911120E+04 -2.917539E+04 -4.610903E-09  3.081496E-11
       154  13 -3.943223E+05 -7.856688E+04 -1.360201E+04 -1.796747E+05 -9.654145E-10 -5.578280E-10
       154  14 -3.997342E+05 -7.075409E+04 -2.446389E+04 -1.701434E+05 -5.537201E-09  7.496678E-11
       154  15 -3.960016E+05 -9.030309E+04 -4.784259E+04 -1.752692E+05 -6.658349E-09 -2.163286E-09
       154  16 -8.230207E+05 -2.363394E+05 -1.177655E+05 -2.952695E+05  1.744224E-09  8.178514E-10
       154  17 -8.721092E+05 -2.478973E+05 -1.397553E+05 -3.009320E+05 -6.799548E-09  2.353630E-09
       154  18 -9.121932E+05 -2.869613E+05 -1.748167E+05 -3.212515E+05 -8.124080E-09 -2.686850E-09
       154  19  3.455594E+04  7.921680E+04  9.054855E+04 -6.400865E+04 -2.049699E+04  1.771879E+04
       154  20  7.286129E+04  1.064054E+05  9.081294E+04 -3.926476E+04 -3.319359E+04  1.581637E+04
       154  21  1.204555E+05  1.063773E+05  7.911542E+04 -2.917587E+04 -4.557671E+04  1.307220E+04
       154  22 -3.943218E+05 -7.856642E+04 -1.360075E+04 -1.796750E+05 -1.805222E+04  1.863880E+04
       154  23 -3.997331E+05 -7.075353E+04 -2.446152E+04 -1.701438E+05 -3.143871E+04  1.647798E+04
       154  24 -3.959994E+05 -9.030236E+04 -4.783852E+04 -1.752697E+05 -4.451069E+04  1.347556E+04
       154  25 -8.230203E+05 -2.363389E+05 -1.177643E+05 -2.952698E+05 -1.560928E+04  1.955814E+04
       154  26 -8.721082E+05 -2.478967E+05 -1.397531E+05 -3.009324E+05 -2.968529E+04  1.713903E+04
       154  27 -9.121911E+05 -2.869606E+05 -1.748128E+05 -3.212520E+05 -4.344563E+04  1.387854E+04
       155   1  1.750996E+05  1.176866E+05  7.566073E+04 -5.525833E+04  6.018225E+04 -1.148284E+04
       155   2  1.978483E+05  1.815164E+05  4.328133E+04  2.174120E+04  1.012656E+05  5.397526E+03
       155   3  1.606873E+05  4.739022E+04 -7.028523E+04  1.301398E+05  1.354342E+05  4.064046E+04
       155   4 -4.038591E+05 -7.126357E+04 -6.021933E+04 -1.867417E+05  5.354521E+04 -1.398049E+04
       155   5 -3.856544E+05 -6.421856E+04 -1.055778E+05 -1.672384E+05  1.098465E+05  8.621791E+03
       155   6 -4.304526E+05 -2.582696E+05 -2.442466E+05 -1.163201E+05  1.592273E+05  4.958513E+04
       155   7 -9.824864E+05 -2.602082E+05 -1.961219E+05 -3.181220E+05  4.691492E+04 -1.647632E+04
       155   8 -9.688141E+05 -3.099015E+05 -2.544629E+05 -3.560457E+05  1.184186E+05  1.184174E+04
       155   9 -1.021226E+06 -5.638004E+05 -4.182360E+05 -3.625335E+05  1.829953E+05  5.851234E+04
       155  10  1.750956E+05  1.176854E+05  7.565368E+04 -5.525777E+04 -8.411776E-09 -2.529554E-09
       155  11  1.978373E+05  1.815136E+05  4.326201E+04  2.174076E+04 -1.106003E-09 -5.700939E-10
       155  12  1.606672E+05  4.738353E+04 -7.032279E+04  1.301354E+05  1.095424E-09 -3.955815E-10
       155  13 -4.038622E+05 -7.126455E+04 -6.022509E+04 -1.867411E+05 -4.343691E-09 -5.774336E-09
       155  14 -3.856674E+05 -6.422188E+04 -1.056007E+05 -1.672391E+05 -1.573309E-09  8.560436E-09
       155  15 -4.304805E+05 -2.582791E+05 -2.442989E+05 -1.163264E+05  5.097362E-10  7.048654E-10
       155  16 -9.824889E+05 -2.602091E+05 -1.961266E+05 -3.181213E+05 -2.124001E-09 -2.183309E-09
       155  17 -9.688292E+05 -3.099054E+05 -2.544896E+05 -3.560469E+05 -2.407905E-10  3.386425E-09
       155  18 -1.021263E+06 -5.638131E+05 -4.183055E+05 -3.625421E+05 -2.255169E-10  9.330879E-10
       155  19  1.750996E+05  1.176866E+05  7.566073E+04 -5.525833E+04 -6.018225E+04  1.148284E+04
       155  20  1.978483E+05  1.815164E+05  4.328133E+04  2.174120E+04 -1.012656E+05 -5.397526E+03
       155  21  1.606873E+05  4.739022E+04 -7.028523E+04  1.301398E+05 -1.354342E+05 -4.064046E+04
       155  22 -4.038591E+05 -7.126357E+04 -6.021933E+04 -1.867417E+05 -5.354521E+04  1.398049E+04
       155  23 -3.856544E+05 -6.421856E+04 -1.055778E+05 -1.672384E+05 -1.098465E+05 -8.621791E+03
       155  24 -4.304526E+05 -2.582696E+05 -2.442466E+05 -1.163201E+05 -1.592273E+05 -4.958513E+04
       155  25 -9.824864E+05 -2.602082E+05 -1.961219E+05 -3.181220E+05 -4.691492E+04  1.647632E+04
       155  26 -9.688141E+05 -3.099015E+05 -2.544629E+05 -3.560457E+05 -1.184186E+05 -1.184174E+04
       155  27 -1.021226E+06 -5.638004E+05 -4.182360E+05 -3.625335E+05 -1.829953E+05 -5.851234E+04
       156   1  2.234011E+05  2.060630E+06  2.289325E+05  8.665141E+03  9.107776E+03  1.159355E+05
       156   2  1.581081E+05  2.122518E+06  1.704966E+05  3.150016E+04  3.287740E+04  6.915164E+04
       156   3  1.582378E+05  2.206916E+06  1.588394E+05  7.360014E+04  4.460908E+04  2.235972E+04
       156   4  9.524776E+04  1.540031E+06  1.080520E+05  6.677342E+04  9.140727E+03  7.078829E+04
       156   5  1.682208E+04  1.530376E+06  5.516706E+04  5.710779E+04  3.289908E+04  4.226630E+04
       156   6  6.824577E+02  1.540071E+06  3.641905E+04  6.670539E+04  4.461910E+04  1.373990E+04
       156   7 -3.291093E+04  1.019693E+06 -1.283726E+04  1.248328E+05  9.165267E+03  2.567858E+04
       156   8 -1.244821E+05  9.385717E+05 -6.017607E+04  8.269057E+04  3.291856E+04  1.540595E+04
       156   9 -1.568979E+05  8.736557E+05 -8.601926E+04  5.981827E+04  4.462931E+04  5.129058E+03
       156  10  2.233974E+05  2.060616E+06  2.289071E+05  8.664291E+03  4.766179E-10  1.368548E-09
       156  11  1.581057E+05  2.122513E+06  1.704856E+05  3.149833E+04 -4.611346E-10 -2.803435E-09
       156  12  1.582356E+05  2.206915E+06  1.588347E+05  7.359934E+04 -3.908982E-10 -3.027376E-09
       156  13  9.524633E+04  1.540026E+06  1.080424E+05  6.677290E+04 -8.150676E-10 -5.707050E-10
       156  14  1.682043E+04  1.530374E+06  5.516167E+04  5.710667E+04  2.866840E-09 -8.699143E-10
       156  15  6.802680E+02  1.540070E+06  3.641495E+04  6.670490E+04  6.911009E-10 -2.988511E-10
       156  16 -3.291120E+04  1.019693E+06 -1.283866E+04  1.248326E+05 -8.986694E-10 -7.523363E-10
       156  17 -1.244834E+05  9.385712E+05 -6.017855E+04  8.269017E+04 -1.862478E-09  6.812772E-10
       156  18 -1.569000E+05  8.736551E+05 -8.602306E+04  5.981809E+04  1.689720E-09  3.593580E-09
       156  19  2.234011E+05  2.060630E+06  2.289325E+05  8.665141E+03 -9.107776E+03 -1.159355E+05
       156  20  1.581081E+05  2.122518E+06  1.704966E+05  3.150016E+04 -3.287740E+04 -6.915164E+04
       156  21  1.582378E+05  2.206916E+06  1.588394E+05  7.360014E+04 -4.460908E+04 -2.235972E+04
       156  22  9.524776E+04  1.540031E+06  1.080520E+05  6.677342E+04 -9.140727E+03 -7.078829E+04
       156  23  1.682208E+04  1.530376E+06  5.516706E+04  5.710779E+04 -3.289908E+04 -4.226630E+04
       156  24  6.824577E+02  1.540071E+06  3.641905E+04  6.670539E+04 -4.461910E+04 -1.373990E+04
       156  25 -3.291093E+04  1.019693E+06 -1.283726E+04  1.248328E+05 -9.165267E+03 -2.567858E+04
       156  26 -1.244821E+05  9.385717E+05 -6.017607E+04  8.269057E+04 -3.291856E+04 -1.540595E+04
       156  27 -1.568979E+05  8.736557E+05 -8.601926E+04  5.981827E+04 -4.462931E+04 -5.129058E+03
       157   1  1.724302E+05  2.252115E+06  1.638766E+05  6.351372E+04  4.795619E+04  1.920009E+04
       157   2  1.870387E+05  2.323519E+06  1.753612E+05  5.684065E+04  5.367143E+04 -8.713961E+02
       157   3  2.099537E+05  2.399738E+06  2.019902E+05  6.872382E+04  5.649236E+04 -2.094554E+04
       157   4  3.391115E+03  1.536652E+06  3.262222E+04  6.655858E+04  4.796966E+04  8.357416E+03
       157   5  8.122342E+02  1.534603E+06  3.140414E+04  5.728058E+04  5.368350E+04 -7.307904E+03
       157   6  5.783416E+03  1.536609E+06  4.228820E+04  6.655997E+04  5.650138E+04 -2.297360E+04
       157   7 -1.656769E+05  8.216831E+05 -9.865267E+04  6.959993E+04  4.798303E+04 -2.473132E+03
       157   8 -1.854492E+05  7.462906E+05 -1.125779E+05  5.772006E+04  5.369556E+04 -1.373647E+04
       157   9 -1.984294E+05  6.741989E+05 -1.174450E+05  6.439935E+04  5.651042E+04 -2.499890E+04
       157  10  1.724276E+05  2.252114E+06  1.638716E+05  6.351298E+04 -9.964622E-10  8.202809E-10
       157  11  1.870356E+05  2.323518E+06  1.753557E+05  5.684069E+04 -7.626473E-11 -4.637303E-09
       157  12  2.099502E+05  2.399737E+06  2.019834E+05  6.872477E+04 -2.091678E-09 -3.757009E-09
       157  13  3.388624E+03  1.536651E+06  3.261776E+04  6.655826E+04 -2.935874E-10 -1.153876E-09
       157  14  8.091230E+02  1.534603E+06  3.139862E+04  5.728090E+04 -1.206605E-09 -1.428507E-09
       157  15  5.779844E+03  1.536608E+06  4.228120E+04  6.656101E+04 -1.469445E-09 -1.248110E-10
       157  16 -1.656793E+05  8.216825E+05 -9.865702E+04  6.960002E+04  9.586297E-10 -3.833073E-10
       157  17 -1.854524E+05  7.462897E+05 -1.125836E+05  5.772065E+04  2.605811E-10  7.664160E-10
       157  18 -1.984330E+05  6.741974E+05 -1.174522E+05  6.440049E+04 -6.044087E-10  4.138826E-09
       157  19  1.724302E+05  2.252115E+06  1.638766E+05  6.351372E+04 -4.795619E+04 -1.920009E+04
       157  20  1.870387E+05  2.323519E+06  1.753612E+05  5.684065E+04 -5.367143E+04  8.713961E+02
       157  21  2.099537E+05  2.399738E+06  2.019902E+05  6.872382E+04 -5.649236E+04  2.094554E+04
       157  22  3.391115E+03  1.536652E+06  3.262222E+04  6.655858E+04 -4.796966E+04 -8.357416E+03
       157  23  8.122342E+02  1.534603E+06  3.140414E+04  5.728058E+04 -5.368350E+04  7.307904E+03
       157  24  5.783416E+03  1.536609E+06  4.228820E+04  6.655997E+04 -5.650138E+04  2.297360E+04
       157  25 -1.656769E+05  8.216831E+05 -9.865267E+04  6.959993E+04 -4.798303E+04  2.473132E+03
       157  26 -1.854492E+05  7.462906E+05 -1.125779E+05  5.772006E+04 -5.369556E+04  1.373647E+04
       157  27 -1.984294E+05  6.741989E+05 -1.174450E+05  6.439935E+04 -5.651042E+04  2.499890E+04
       158   1  2.173788E+05  2.456453E+06  2.212267E+05  5.293176E+04  5.909499E+04 -2.376487E+04
       158   2  2.632096E+05  2.512250E+06  2.827319E+05  9.756347E+04  5.032350E+04 -1.082360E+05
       158   3  4.174598E+05  2.606275E+06  4.262306E+05  1.594431E+05  1.540265E+04 -1.927700E+05
       158   4  1.047715E+03  1.542679E+06  5.144869E+04  6.622904E+04  5.910961E+04 -3.009716E+04
       158   5  2.746549E+04  1.526901E+06  8.638659E+04  5.771551E+04  5.028923E+04 -7.486256E+04
       158   6  1.555092E+05  1.542520E+06  1.758627E+05  6.644252E+04  1.531501E+04 -1.196761E+05
       158   7 -2.153305E+05  6.297118E+05 -1.183645E+05  7.950650E+04  5.912397E+04 -3.642038E+04
       158   8 -2.083312E+05  5.424811E+05 -1.100023E+05  1.793212E+04  5.025067E+04 -4.154079E+04
       158   9 -1.064863E+05  4.798319E+05 -7.455825E+04 -2.639809E+04  1.520550E+04 -4.670625E+04
       158  10  2.173749E+05  2.456451E+06  2.212191E+05  5.293289E+04 -1.573200E-09  1.539901E-09
       158  11  2.632038E+05  2.512237E+06  2.827052E+05  9.756785E+04  5.116845E-10 -4.338142E-09
       158  12  4.174496E+05  2.606235E+06  4.261606E+05  1.594455E+05  4.491382E-10 -9.332457E-10
       158  13  1.043718E+03  1.542678E+06  5.144042E+04  6.623047E+04 -4.249133E-09 -1.594680E-09
       158  14  2.746127E+04  1.526894E+06  8.637133E+04  5.771854E+04 -1.740648E-09 -1.723584E-09
       158  15  1.555051E+05  1.542504E+06  1.758354E+05  6.644399E+04  1.560643E-10  3.636896E-11
       158  16 -2.153347E+05  6.297094E+05 -1.183736E+05  7.950824E+04 -1.120919E-09 -1.281696E-10
       158  17 -2.083344E+05  5.424785E+05 -1.100102E+05  1.793380E+04 -5.572318E-10 -8.423250E-10
       158  18 -1.064871E+05  4.798295E+05 -7.456278E+04 -2.639751E+04 -1.407137E-10  1.814816E-09
       158  19  2.173788E+05  2.456453E+06  2.212267E+05  5.293176E+04 -5.909499E+04  2.376487E+04
       158  20  2.632096E+05  2.512250E+06  2.827319E+05  9.756347E+04 -5.032350E+04  1.082360E+05
       158  21  4.174598E+05  2.606275E+06  4.262306E+05  1.594431E+05 -1.540265E+04  1.927700E+05
       158  22  1.047715E+03  1.542679E+06  5.144869E+04  6.622904E+04 -5.910961E+04  3.009716E+04
       158  23  2.746549E+04  1.526901E+06  8.638659E+04  5.771551E+04 -5.028923E+04  7.486256E+04
       158  24  1.555092E+05  1.542520E+06  1.758627E+05  6.644252E+04 -1.531501E+04  1.196761E+05
       158  25 -2.153305E+05  6.297118E+05 -1.183645E+05  7.950650E+04 -5.912397E+04  3.642038E+04
       158  26 -2.083312E+05  5.424811E+05 -1.100023E+05  1.793212E+04 -5.025067E+04  4.154079E+04
       158  27 -1.064863E+05  4.798319E+05 -7.455825E+04 -2.639809E+04 -1.520550E+04  4.670625E+04
       159   1 -2.005142E+05 -1.283708E+05 -8.642000E+04  5.826063E+03  9.755132E+04  1.560700E+04
       159   2 -1.057659E+05 -2.669548E+05 -1.495111E+05 -2.172739E+04  7.617832E+04  4.834340E+04
       159   3  3.248596E+04 -2.450556E+05 -1.584554E+05 -9.752332E+04  5.484324E+04  4.961073E+04
       159   4  1.000689E+06  1.697248E+05  2.047600E+05 -7.260522E+04  1.407992E+05  1.565097E+04
       159   5  9.766366E+05 -2.122519E+03  9.304589E+04 -4.839160E+04  9.140898E+04  4.834925E+04
       159   6  1.000844E+06 -8.788650E+03  5.484177E+04 -7.240886E+04  4.206298E+04  4.959947E+04
       159   7  2.203228E+06  4.677391E+05  4.958465E+05 -1.511891E+05  1.841302E+05  1.568398E+04
       159   8  2.060131E+06  2.626328E+05  3.355301E+05 -7.510300E+04  1.066658E+05  4.835380E+04
       159   9  1.970080E+06  2.274179E+05  2.680824E+05 -4.725486E+04  2.926298E+04  4.958719E+04
       159  10 -2.005245E+05 -1.283737E+05 -8.643834E+04  5.824837E+03 -2.776284E-10 -1.818263E-11
       159  11 -1.057728E+05 -2.669589E+05 -1.495264E+05 -2.173036E+04  3.501169E-10 -9.371474E-11
       159  12  3.248207E+04 -2.450591E+05 -1.584657E+05 -9.752551E+04 -4.521192E-11  1.137094E-10
       159  13  1.000668E+06  1.697192E+05  2.047223E+05 -7.260699E+04 -1.016606E-10 -7.960468E-11
       159  14  9.766271E+05 -2.127269E+03  9.302581E+04 -4.839516E+04  6.886082E-10 -5.642149E-11
       159  15  1.000842E+06 -8.791767E+03  5.483382E+04 -7.241054E+04  1.122815E-09  1.571068E-10
       159  16  2.203191E+06  4.677298E+05  4.957825E+05 -1.511914E+05  1.581032E-10 -5.800957E-11
       159  17  2.060119E+06  2.626273E+05  3.355044E+05 -7.510715E+04 -1.797714E-10 -8.752838E-11
       159  18  1.970078E+06  2.274150E+05  2.680762E+05 -4.725603E+04  6.921057E-10  7.479932E-11
       159  19 -2.005142E+05 -1.283708E+05 -8.642000E+04  5.826063E+03 -9.755132E+04 -1.560700E+04
       159  20 -1.057659E+05 -2.669548E+05 -1.495111E+05 -2.172739E+04 -7.617832E+04 -4.834340E+04
       159  21  3.248596E+04 -2.450556E+05 -1.584554E+05 -9.752332E+04 -5.484324E+04 -4.961073E+04
       159  22  1.000689E+06  1.697248E+05  2.047600E+05 -7.260522E+04 -1.407992E+05 -1.565097E+04
       159  23  9.766366E+05 -2.122519E+03  9.304589E+04 -4.839160E+04 -9.140898E+04 -4.834925E+04
       159  24  1.000844E+06 -8.788650E+03  5.484177E+04 -7.240886E+04 -4.206298E+04 -4.959947E+04
       159  25  2.203228E+06  4.677391E+05  4.958465E+05 -1.511891E+05 -1.841302E+05 -1.568398E+04
       159  26  2.060131E+06  2.626328E+05  3.355301E+05 -7.510300E+04 -1.066658E+05 -4.835380E+04
       159  27  1.970080E+06  2.274179E+05  2.680824E+05 -4.725486E+04 -2.926298E+04 -4.958719E+04
       160   1  1.189025E+05 -2.035016E+05 -1.494237E+05 -6.952036E+04  3.773670E+04  4.297060E+04
       160   2  2.315010E+05 -1.853220E+05 -1.435534E+05 -4.755835E+04  2.714496E+04  3.830191E+04
       160   3  3.481469E+05 -1.575198E+05 -1.283245E+05 -7.434586E+04  1.654616E+04  3.225239E+04
       160   4  9.910876E+05  9.447067E+03  4.365715E+04 -7.257468E+04  3.423950E+04  4.296454E+04
       160   5  9.889960E+05 -4.993334E+02  2.355452E+04 -4.820084E+04  2.240592E+04  3.829760E+04
       160   6  9.911481E+05 -6.148285E+02  1.366186E+04 -7.257242E+04  1.056721E+04  3.225056E+04
       160   7  1.863982E+06  2.223445E+05  2.366910E+05 -7.563337E+04  3.073742E+04  4.295852E+04
       160   8  1.747027E+06  1.842848E+05  1.906272E+05 -4.884413E+04  1.766117E+04  3.829329E+04
       160   9  1.634535E+06  1.562624E+05  1.556229E+05 -7.079708E+04  4.582141E+03  3.224869E+04
       160  10  1.189005E+05 -2.035040E+05 -1.494298E+05 -6.952167E+04 -4.580038E-10  1.267625E-10
       160  11  2.314999E+05 -1.853237E+05 -1.435575E+05 -4.755919E+04  8.267490E-10 -9.038476E-11
       160  12  3.481464E+05 -1.575210E+05 -1.283270E+05 -7.434629E+04 -2.142036E-10 -1.805582E-10
       160  13  9.910858E+05  9.444769E+03  4.365148E+04 -7.257586E+04  1.112569E-10  1.527332E-10
       160  14  9.889951E+05 -5.010437E+02  2.355082E+04 -4.820153E+04 -1.101134E-09 -1.161796E-10
       160  15  9.911477E+05 -6.159759E+02  1.365970E+04 -7.257269E+04 -4.225823E-10 -7.503691E-11
       160  16  1.863981E+06  2.223423E+05  2.366858E+05 -7.563444E+04  7.486779E-10  9.282655E-11
       160  17  1.747026E+06  1.842831E+05  1.906239E+05 -4.884467E+04 -4.362062E-10 -8.736344E-11
       160  18  1.634535E+06  1.562613E+05  1.556209E+05 -7.079720E+04 -2.083665E-10  1.049460E-12
       160  19  1.189025E+05 -2.035016E+05 -1.494237E+05 -6.952036E+04 -3.773670E+04 -4.297060E+04
       160  20  2.315010E+05 -1.853220E+05 -1.435534E+05 -4.755835E+04 -2.714496E+04 -3.830191E+04
       160  21  3.481469E+05 -1.575198E+05 -1.283245E+05 -7.434586E+04 -1.654616E+04 -3.225239E+04
       160  22  9.910876E+05  9.447067E+03  4.365715E+04 -7.257468E+04 -3.423950E+04 -4.296454E+04
       160  23  9.889960E+05 -4.993334E+02  2.355452E+04 -4.820084E+04 -2.240592E+04 -3.829760E+04
       160  24  9.911481E+05 -6.148285E+02  1.366186E+04 -7.257242E+04 -1.056721E+04 -3.225056E+04
       160  25  1.863982E+06  2.223445E+05  2.366910E+05 -7.563337E+04 -3.073742E+04 -4.295852E+04
       160  26  1.747027E+06  1.842848E+05  1.906272E+05 -4.884413E+04 -1.766117E+04 -3.829329E+04
       160  27  1.634535E+06  1.562624E+05  1.556229E+05 -7.079708E+04 -4.582141E+03 -3.224869E+04
       161   1  4.419349E+05 -1.332888E+05 -1.100761E+05 -7.256342E+04  1.398914E+04  2.841508E+04
       161   2  5.553077E+05 -1.061379E+05 -8.980398E+04 -4.836728E+04  1.106124E+04  2.213739E+04
       161   3  6.692682E+05 -7.837482E+04 -6.746477E+04 -7.255975E+04  8.129264E+03  1.581035E+04
       161   4  9.903601E+05  4.251424E+02  1.049366E+04 -7.249327E+04  8.437546E+03  2.841442E+04
       161   5  9.900832E+05 -9.599876E+01  5.997261E+03 -4.830012E+04  5.462977E+03  2.213815E+04
       161   6  9.903907E+05  3.830453E+00  3.599566E+03 -7.249351E+04  2.484853E+03  1.581262E+04
       161   7  1.539066E+06  1.341190E+05  1.310452E+05 -7.242302E+04  2.881107E+03  2.841375E+04
       161   8  1.425035E+06  1.059333E+05  1.017870E+05 -4.823288E+04 -1.391593E+02  2.213892E+04
       161   9  1.311609E+06  7.837556E+04  7.465765E+04 -7.242722E+04 -3.162441E+03  1.581489E+04
       161  10  4.419345E+05 -1.332897E+05 -1.100780E+05 -7.256374E+04 -1.009763E-09 -1.262830E-10
       161  11  5.553075E+05 -1.061385E+05 -8.980513E+04 -4.836748E+04 -1.151491E-11  5.816566E-11
       161  12  6.692680E+05 -7.837511E+04 -6.746536E+04 -7.255986E+04 -5.262451E-10 -8.526521E-11
       161  13  9.903598E+05  4.242559E+02  1.049201E+04 -7.249346E+04 -1.163209E-09  7.746473E-11
       161  14  9.900830E+05 -9.653329E+01  5.996283E+03 -4.830022E+04 -1.377448E-09  2.112080E-10
       161  15  9.903906E+05  3.560169E+00  3.599084E+03 -7.249355E+04 -1.251447E-09  8.449970E-12
       161  16  1.539066E+06  1.341181E+05  1.310436E+05 -7.242309E+04 -3.640529E-10  2.318909E-10
       161  17  1.425035E+06  1.059327E+05  1.017861E+05 -4.823288E+04 -6.823376E-10  3.693276E-10
       161  18  1.311609E+06  7.837528E+04  7.465716E+04 -7.242718E+04 -1.684512E-09  5.859788E-11
       161  19  4.419349E+05 -1.332888E+05 -1.100761E+05 -7.256342E+04 -1.398914E+04 -2.841508E+04
       161  20  5.553077E+05 -1.061379E+05 -8.980398E+04 -4.836728E+04 -1.106124E+04 -2.213739E+04
       161  21  6.692682E+05 -7.837482E+04 -6.746477E+04 -7.255975E+04 -8.129264E+03 -1.581035E+04
       161  22  9.903601E+05  4.251424E+02  1.049366E+04 -7.249327E+04 -8.437546E+03 -2.841442E+04
       161  23  9.900832E+05 -9.599876E+01  5.997261E+03 -4.830012E+04 -5.462977E+03 -2.213815E+04
       161  24  9.903907E+05  3.830453E+00  3.599566E+03 -7.249351E+04 -2.484853E+03 -1.581262E+04
       161  25  1.539066E+06  1.341190E+05  1.310452E+05 -7.242302E+04 -2.881107E+03 -2.841375E+04
       161  26  1.425035E+06  1.059333E+05  1.017870E+05 -4.823288E+04  1.391593E+02 -2.213892E+04
       161  27  1.311609E+06  7.837556E+04  7.465765E+04 -7.242722E+04  3.162441E+03 -1.581489E+04
       162   1  7.631661E+05 -5.526747E+04 -4.686818E+04 -7.244985E+04  7.519526E+03  1.211996E+04
       162   2  8.763561E+05 -2.775113E+04 -2.313716E+04 -4.834575E+04  6.551577E+03  5.798284E+03
       162   3  9.896545E+05 -1.536313E+02  1.230630E+03 -7.244714E+04  5.582499E+03 -5.226272E+02
       162   4  9.902937E+05  5.738966E+01  2.849130E+03 -7.245311E+04  1.900058E+03  1.212279E+04
       162   5  9.902502E+05  2.196071E+01  1.952393E+03 -4.835064E+04  9.319937E+02  5.801467E+03
       162   6  9.903015E+05  6.797892E+01  1.692250E+03 -7.245313E+04 -3.702812E+01 -5.190396E+02
       162   7  1.217470E+06  5.537883E+04  5.256343E+04 -7.245636E+04 -3.721438E+03  1.212562E+04
       162   8  1.104157E+06  2.779420E+04  2.704127E+04 -4.835554E+04 -4.688607E+03  5.804650E+03
       162   9  9.909485E+05  2.896060E+02  2.153988E+03 -7.245913E+04 -5.656562E+03 -5.154519E+02
       162  10  7.631660E+05 -5.526765E+04 -4.686856E+04 -7.244993E+04 -6.201147E-10  4.919503E-12
       162  11  8.763560E+05 -2.775118E+04 -2.313730E+04 -4.834578E+04  2.464347E-10  7.143917E-11
       162  12  9.896545E+05 -1.536399E+02  1.230571E+03 -7.244714E+04 -1.687886E-10 -1.491746E-10
       162  13  9.902936E+05  5.723081E+01  2.848847E+03 -7.245313E+04 -1.149064E-09 -2.001568E-10
       162  14  9.902502E+05  2.192432E+01  1.952328E+03 -4.835065E+04 -6.468245E-10  1.416292E-11
       162  15  9.903015E+05  6.797863E+01  1.692250E+03 -7.245313E+04 -3.602960E-10 -4.393314E-11
       162  16  1.217469E+06  5.537867E+04  5.256313E+04 -7.245633E+04 -2.063831E-10 -3.526781E-10
       162  17  1.104157E+06  2.779416E+04  2.704117E+04 -4.835551E+04  4.411687E-10 -4.259575E-10
       162  18  9.909484E+05  2.895971E+02  2.153928E+03 -7.245913E+04 -3.535913E-10 -1.866363E-10
       162  19  7.631661E+05 -5.526747E+04 -4.686818E+04 -7.244985E+04 -7.519526E+03 -1.211996E+04
       162  20  8.763561E+05 -2.775113E+04 -2.313716E+04 -4.834575E+04 -6.551577E+03 -5.798284E+03
       162  21  9.896545E+05 -1.536313E+02  1.230630E+03 -7.244714E+04 -5.582499E+03  5.226272E+02
       162  22  9.902937E+05  5.738966E+01  2.849130E+03 -7.245311E+04 -1.900058E+03 -1.212279E+04
       162  23  9.902502E+05  2.196071E+01  1.952393E+03 -4.835064E+04 -9.319937E+02 -5.801467E+03
       162  24  9.903015E+05  6.797892E+01  1.692250E+03 -7.245313E+04  3.702812E+01  5.190396E+02
       162  25  1.217470E+06  5.537883E+04  5.256343E+04 -7.245636E+04  3.721438E+03 -1.212562E+04
       162  26  1.104157E+06  2.779420E+04  2.704127E+04 -4.835554E+04  4.688607E+03 -5.804650E+03
       162  27  9.909485E+05  2.896060E+02  2.153988E+03 -7.245913E+04  5.656562E+03  5.154519E+02
       163   1  1.083529E+06  2.286006E+04  2.261054E+04 -7.248825E+04  5.267910E+03 -4.201157E+03
       163   2  1.196798E+06  5.036778E+04  4.780438E+04 -4.835123E+04  4.125327E+03 -1.052368E+04
       163   3  1.310214E+06  7.796480E+04  7.375259E+04 -7.244952E+04  2.984250E+03 -1.684968E+04
       163   4  9.903086E+05  6.746111E+01  1.759426E+03 -7.246010E+04 -3.532554E+02 -4.197665E+03
       163   5  9.902337E+05  6.877079E+00  2.309646E+03 -4.834193E+04 -1.499078E+03 -1.052090E+04
       163   6  9.902945E+05  3.697321E+01  3.617134E+03 -7.246007E+04 -2.643191E+03 -1.684757E+04
       163   7  8.970966E+05 -2.272571E+04 -1.909212E+04 -7.243196E+04 -5.973587E+03 -4.194174E+03
       163   8  7.837093E+05 -5.035687E+04 -4.318759E+04 -4.833264E+04 -7.121637E+03 -1.051812E+04
       163   9  6.704703E+05 -7.789767E+04 -6.652442E+04 -7.247059E+04 -8.267773E+03 -1.684546E+04
       163  10  1.083529E+06  2.286003E+04  2.261046E+04 -7.248823E+04  3.647215E-10 -3.029488E-10
       163  11  1.196798E+06  5.036766E+04  4.780414E+04 -4.835119E+04 -2.534753E-11 -1.900226E-10
       163  12  1.310214E+06  7.796449E+04  7.375204E+04 -7.244948E+04 -1.053644E-09  6.813149E-10
       163  13  9.903086E+05  6.744215E+01  1.759393E+03 -7.246010E+04 -1.906405E-10 -1.375041E-10
       163  14  9.902337E+05  6.757559E+00  2.309434E+03 -4.834195E+04 -1.163214E-09 -9.360542E-11
       163  15  9.902945E+05  3.666639E+01  3.616588E+03 -7.246011E+04 -4.048875E-10  6.671845E-10
       163  16  8.970966E+05 -2.272574E+04 -1.909222E+04 -7.243198E+04  1.245556E-10 -2.187504E-10
       163  17  7.837092E+05 -5.035700E+04 -4.318789E+04 -4.833270E+04 -2.054005E-10 -1.911918E-10
       163  18  6.704702E+05 -7.789799E+04 -6.652509E+04 -7.247071E+04 -1.718666E-10  4.563995E-10
       163  19  1.083529E+06  2.286006E+04  2.261054E+04 -7.248825E+04 -5.267910E+03  4.201157E+03
       163  20  1.196798E+06  5.036778E+04  4.780438E+04 -4.835123E+04 -4.125327E+03  1.052368E+04
       163  21  1.310214E+06  7.796480E+04  7.375259E+04 -7.244952E+04 -2.984250E+03  1.684968E+04
       163  22  9.903086E+05  6.746111E+01  1.759426E+03 -7.246010E+04  3.532554E+02  4.197665E+03
       163  23  9.902337E+05  6.877079E+00  2.309646E+03 -4.834193E+04  1.499078E+03  1.052090E+04
       163  24  9.902945E+05  3.697321E+01  3.617134E+03 -7.246007E+04  2.643191E+03  1.684757E+04
       163  25  8.970966E+05 -2.272571E+04 -1.909212E+04 -7.243196E+04  5.973587E+03  4.194174E+03
       163  26  7.837093E+05 -5.035687E+04 -4.318759E+04 -4.833264E+04  7.121637E+03  1.051812E+04
       163  27  6.704703E+05 -7.789767E+04 -6.652442E+04 -7.247059E+04  8.267773E+03  1.684546E+04
       164   1  1.404521E+06  1.009742E+05  9.615725E+04 -7.239001E+04  2.265270E+03 -2.054408E+04
       164   2  1.518070E+06  1.285663E+05  1.241687E+05 -4.811938E+04 -1.694714E+03 -2.687798E+04
       164   3  1.632437E+06  1.569726E+05  1.549741E+05 -7.233681E+04 -5.650985E+03 -3.316103E+04
       164   4  9.904264E+05 -3.354095E+01  4.650812E+03 -7.251661E+04 -3.391640E+03 -2.054273E+04
       164   5  9.900075E+05 -1.533006E+02  7.880852E+03 -4.827120E+04 -7.303802E+03 -2.687843E+04
       164   6  9.903890E+05  5.347305E+02  1.387450E+04 -7.251636E+04 -1.121154E+04 -3.316323E+04
       164   7  5.764919E+05 -1.010528E+05 -8.686607E+04 -7.264311E+04 -9.044827E+03 -2.054137E+04
       164   8  4.622053E+05 -1.288916E+05 -1.084240E+05 -4.842287E+04 -1.290818E+04 -2.687888E+04
       164   9  3.487257E+05 -1.559307E+05 -1.272501E+05 -7.269570E+04 -1.676643E+04 -3.316541E+04
       164  10  1.404521E+06  1.009737E+05  9.615644E+04 -7.238997E+04  2.072242E-10  6.363182E-10
       164  11  1.518070E+06  1.285655E+05  1.241674E+05 -4.811942E+04 -4.415696E-10  1.922920E-10
       164  12  1.632437E+06  1.569714E+05  1.549720E+05 -7.233696E+04 -9.190494E-11 -2.201212E-10
       164  13  9.904263E+05 -3.399741E+01  4.649997E+03 -7.251667E+04 -5.599857E-10  5.811660E-10
       164  14  9.900073E+05 -1.540911E+02  7.879393E+03 -4.827136E+04  3.444744E-10 -1.085330E-10
       164  15  9.903885E+05  5.335152E+02  1.387220E+04 -7.251666E+04  1.877833E-10 -1.501368E-10
       164  16  5.764917E+05 -1.010532E+05 -8.686702E+04 -7.264326E+04 -1.188734E-09  4.350669E-10
       164  17  4.622050E+05 -1.288924E+05 -1.084257E+05 -4.842315E+04 -7.239035E-10 -4.084124E-10
       164  18  3.487251E+05 -1.559320E+05 -1.272527E+05 -7.269615E+04  2.491552E-10 -3.608923E-10
       164  19  1.404521E+06  1.009742E+05  9.615725E+04 -7.239001E+04 -2.265270E+03  2.054408E+04
       164  20  1.518070E+06  1.285663E+05  1.241687E+05 -4.811938E+04  1.694714E+03  2.687798E+04
       164  21  1.632437E+06  1.569726E+05  1.549741E+05 -7.233681E+04  5.650985E+03  3.316103E+04
       164  22  9.904264E+05 -3.354095E+01  4.650812E+03 -7.251661E+04  3.391640E+03  2.054273E+04
       164  23  9.900075E+05 -1.533006E+02  7.880852E+03 -4.827120E+04  7.303802E+03  2.687843E+04
       164  24  9.903890E+05  5.347305E+02  1.387450E+04 -7.251636E+04  1.121154E+04  3.316323E+04
       164  25  5.764919E+05 -1.010528E+05 -8.686607E+04 -7.264311E+04  9.044827E+03  2.054137E+04
       164  26  4.622053E+05 -1.288916E+05 -1.084240E+05 -4.842287E+04  1.290818E+04  2.687888E+04
       164  27  3.487257E+05 -1.559307E+05 -1.272501E+05 -7.269570E+04  1.676643E+04  3.316541E+04
       165   1  1.728422E+06  1.788396E+05  1.806444E+05 -7.014696E+04 -8.005311E+03 -3.701611E+04
       165   2  1.840600E+06  2.070136E+05  2.189862E+05 -4.890779E+04 -2.503271E+04 -4.305821E+04
       165   3  1.958637E+06  2.484314E+05  2.717720E+05 -7.656130E+04 -4.205811E+04 -4.761800E+04
       165   4  9.914315E+05 -8.428581E+02  1.808387E+04 -7.260491E+04 -1.402809E+04 -3.701976E+04
       165   5  9.885850E+05 -6.672109E+02  3.121835E+04 -4.815972E+04 -2.971710E+04 -4.306438E+04
       165   6  9.913614E+05  1.253199E+04  5.788346E+04 -7.261072E+04 -4.540098E+04 -4.762588E+04
       165   7  2.549476E+05 -1.805617E+05 -1.445099E+05 -7.505989E+04 -2.004381E+04 -3.702337E+04
       165   8  1.372469E+05 -2.083967E+05 -1.565940E+05 -4.741272E+04 -3.439512E+04 -4.307056E+04
       165   9  2.495714E+04 -2.234303E+05 -1.560628E+05 -6.866645E+04 -4.873867E+04 -4.763381E+04
       165  10  1.728421E+06  1.788381E+05  1.806417E+05 -7.014720E+04  3.290276E-10 -5.421691E-10
       165  11  1.840599E+06  2.070114E+05  2.189815E+05 -4.890865E+04  4.347528E-10 -4.545379E-10
       165  12  1.958635E+06  2.484285E+05  2.717645E+05 -7.656291E+04  2.508319E-10 -9.855605E-11
       165  13  9.914309E+05 -8.443832E+02  1.808092E+04 -7.260533E+04  5.664000E-10 -3.631570E-10
       165  14  9.885836E+05 -6.694400E+02  3.121320E+04 -4.816075E+04 -9.565643E-10 -2.010416E-10
       165  15  9.913586E+05  1.252900E+04  5.787533E+04 -7.261246E+04  1.036057E-10 -1.627639E-10
       165  16  2.549468E+05 -1.805633E+05 -1.445132E+05 -7.506049E+04  4.791664E-10 -1.385460E-10
       165  17  1.372451E+05 -2.083990E+05 -1.565997E+05 -4.741392E+04  8.304263E-10 -4.160520E-10
       165  18  2.495398E+04 -2.234333E+05 -1.560715E+05 -6.866832E+04  3.702325E-11 -1.981783E-10
       165  19  1.728422E+06  1.788396E+05  1.806444E+05 -7.014696E+04  8.005311E+03  3.701611E+04
       165  20  1.840600E+06  2.070136E+05  2.189862E+05 -4.890779E+04  2.503271E+04  4.305821E+04
       165  21  1.958637E+06  2.484314E+05  2.717720E+05 -7.656130E+04  4.205811E+04  4.761800E+04
       165  22  9.914315E+05 -8.428581E+02  1.808387E+04 -7.260491E+04  1.402809E+04  3.701976E+04
       165  23  9.885850E+05 -6.672109E+02  3.121835E+04 -4.815972E+04  2.971710E+04  4.306438E+04
       165  24  9.913614E+05  1.253199E+04  5.788346E+04 -7.261072E+04  4.540098E+04  4.762588E+04
       165  25  2.549476E+05 -1.805617E+05 -1.445099E+05 -7.505989E+04  2.004381E+04  3.702337E+04
       165  26  1.372469E+05 -2.083967E+05 -1.565940E+05 -4.741272E+04  3.439512E+04  4.307056E+04
       165  27  2.495714E+04 -2.234303E+05 -1.560628E+05 -6.866645E+04  4.873867E+04  4.763381E+04
       166   1  2.068300E+06  2.476715E+05  3.067760E+05 -3.897058E+04 -4.242214E+04 -5.448554E+04
       166   2  2.150965E+06  2.851853E+05  3.871293E+05 -8.372806E+04 -1.380871E+05 -5.272906E+04
       166   3  2.302676E+06  5.467289E+05  5.857699E+05 -1.769492E+05 -2.338342E+05 -1.713337E+04
       166   4  1.004292E+06 -1.164288E+04  7.271560E+04 -7.242401E+04 -5.577302E+04 -5.450166E+04
       166   5  9.722395E+05 -2.775494E+03  1.233978E+05 -4.836346E+04 -1.212118E+05 -5.272251E+04
       166   6  1.004106E+06  2.250973E+05  2.715414E+05 -7.275395E+04 -1.867100E+05 -1.709656E+04
       166   7 -5.865811E+04 -2.710288E+05 -1.614128E+05 -1.058198E+05 -6.910130E+04 -5.451636E+04
       166   8 -2.051923E+05 -2.908258E+05 -1.404196E+05 -1.306687E+04 -1.043680E+05 -5.271405E+04
       166   9 -2.929007E+05 -9.661518E+04 -4.279387E+04  3.122281E+04 -1.396835E+05 -1.704397E+04
       166  10  2.068297E+06  2.476678E+05  3.067671E+05 -3.897244E+04  5.921939E-11  4.785383E-10
       166  11  2.150944E+06  2.851772E+05  3.870884E+05 -8.373392E+04  2.751023E-10  3.219506E-10
       166  12  2.302618E+06  5.467140E+05  5.856670E+05 -1.769524E+05  6.417392E-11 -1.281474E-10
       166  13  1.004288E+06 -1.164691E+04  7.270418E+04 -7.242646E+04 -2.783267E-10  8.108435E-11
       166  14  9.722230E+05 -2.782416E+03  1.233650E+05 -4.836861E+04  1.231594E-09  1.181578E-10
       166  15  1.004068E+06  2.250876E+05  2.714755E+05 -7.275652E+04  8.739578E-10  1.476807E-10
       166  16 -5.866403E+04 -2.710333E+05 -1.614273E+05 -1.058228E+05 -4.916449E-10 -5.130927E-11
       166  17 -2.052048E+05 -2.908317E+05 -1.404453E+05 -1.307130E+04 -1.095891E-09  8.223551E-10
       166  18 -2.929217E+05 -9.662073E+04 -4.283110E+04  3.122090E+04  4.240220E-10  2.108187E-10
       166  19  2.068300E+06  2.476715E+05  3.067760E+05 -3.897058E+04  4.242214E+04  5.448554E+04
       166  20  2.150965E+06  2.851853E+05  3.871293E+05 -8.372806E+04  1.380871E+05  5.272906E+04
       166  21  2.302676E+06  5.467289E+05  5.857699E+05 -1.769492E+05  2.338342E+05  1.713337E+04
       166  22  1.004292E+06 -1.164288E+04  7.271560E+04 -7.242401E+04  5.577302E+04  5.450166E+04
       166  23  9.722395E+05 -2.775494E+03  1.233978E+05 -4.836346E+04  1.212118E+05  5.272251E+04
       166  24  1.004106E+06  2.250973E+05  2.715414E+05 -7.275395E+04  1.867100E+05  1.709656E+04
       166  25 -5.865811E+04 -2.710288E+05 -1.614128E+05 -1.058198E+05  6.910130E+04  5.451636E+04
       166  26 -2.051923E+05 -2.908258E+05 -1.404196E+05 -1.306687E+04  1.043680E+05  5.271405E+04
       166  27 -2.929007E+05 -9.661518E+04 -4.279387E+04  3.122281E+04  1.396835E+05  1.704397E+04
       167   1  1.495335E+05  7.049772E+05  1.581372E+05 -1.160484E+05  3.807730E+03  5.333286E+04
       167   2  5.984952E+04  5.541273E+05  8.470086E+04 -6.975198E+04  9.995297E+03  2.786319E+04
       167   3  2.304529E+04  4.195888E+05  4.100761E+04 -8.363233E+04  4.914053E+03  2.379711E+03
       167   4  5.268167E+04  3.159661E+05  6.317932E+04 -9.095898E+04  3.828615E+03  4.285357E+04
       167   5 -3.556944E+02  3.086968E+05  2.917508E+04 -6.092027E+04  9.996795E+03  2.740734E+04
       167   6 -2.238088E+03  3.159941E+05  1.797051E+04 -9.105612E+04  4.895489E+03  1.194143E+04
       167   7 -4.417895E+04 -7.290572E+04 -3.178890E+04 -6.588522E+04  3.848661E+03  3.238082E+04
       167   8 -6.056477E+04  6.332227E+04 -2.635454E+04 -5.209205E+04  9.998281E+03  2.695166E+04
       167   9 -2.752193E+04  2.124098E+05 -5.066887E+03 -9.847866E+04  4.876694E+03  2.150158E+04
       167  10  1.495327E+05  7.049742E+05  1.581319E+05 -1.160486E+05  1.293721E-10  3.351118E-10
       167  11  5.984921E+04  5.541265E+05  8.469921E+04 -6.975220E+04 -2.856770E-10 -1.474778E-10
       167  12  2.304526E+04  4.195888E+05  4.100755E+04 -8.363234E+04 -4.106866E-10 -9.819199E-10
       167  13  5.268116E+04  3.159641E+05  6.317584E+04 -9.095911E+04  1.148711E-09 -1.763029E-11
       167  14 -3.560033E+02  3.086959E+05  2.917348E+04 -6.092049E+04 -8.116915E-11 -4.120031E-12
       167  15 -2.238152E+03  3.159940E+05  1.797020E+04 -9.105617E+04 -8.097704E-11 -6.170099E-11
       167  16 -4.417925E+04 -7.290685E+04 -3.179090E+04 -6.588532E+04  3.997206E-10 -3.487723E-10
       167  17 -6.056507E+04  6.332147E+04 -2.635609E+04 -5.209227E+04  2.410875E-09  1.698439E-10
       167  18 -2.752208E+04  2.124093E+05 -5.067800E+03 -9.847875E+04  2.653100E-10  9.408579E-10
       167  19  1.495335E+05  7.049772E+05  1.581372E+05 -1.160484E+05 -3.807730E+03 -5.333286E+04
       167  20  5.984952E+04  5.541273E+05  8.470086E+04 -6.975198E+04 -9.995297E+03 -2.786319E+04
       167  21  2.304529E+04  4.195888E+05  4.100761E+04 -8.363233E+04 -4.914053E+03 -2.379711E+03
       167  22  5.268167E+04  3.159661E+05  6.317932E+04 -9.095898E+04 -3.828615E+03 -4.285357E+04
       167  23 -3.556944E+02  3.086968E+05  2.917508E+04 -6.092027E+04 -9.996795E+03 -2.740734E+04
       167  24 -2.238088E+03  3.159941E+05  1.797051E+04 -9.105612E+04 -4.895489E+03 -1.194143E+04
       167  25 -4.417895E+04 -7.290572E+04 -3.178890E+04 -6.588522E+04 -3.848661E+03 -3.238082E+04
       167  26 -6.056477E+04  6.332227E+04 -2.635454E+04 -5.209205E+04 -9.998281E+03 -2.695166E+04
       167  27 -2.752193E+04  2.124098E+05 -5.066887E+03 -9.847866E+04 -4.876694E+03 -2.150158E+04
       168   1 -3.867648E+02  2.981059E+05  1.164261E+04 -9.236074E+04 -8.358668E+02  2.811925E+03
       168   2 -3.839376E+04  1.547830E+05 -2.492260E+04 -6.073868E+04 -7.951333E+03 -1.841061E+03
       168   3 -7.207186E+04  1.291208E+04 -5.743957E+04 -8.977838E+04 -1.471311E+04 -6.490880E+03
       168   4  3.255685E+03  3.130887E+05  1.490595E+04 -9.113626E+04 -8.485313E+02  9.298063E+03
       168   5  6.515186E+01  3.123386E+05  9.857216E+03 -6.080787E+04 -7.962760E+03  4.330023E+03
       168   6  1.259133E+03  3.130762E+05  9.076445E+03 -9.114000E+04 -1.472339E+04 -6.358805E+02
       168   7  6.898149E+03  3.280717E+05  1.816944E+04 -8.991176E+04 -8.611701E+02  1.578436E+04
       168   8  3.852242E+04  4.699174E+05  4.463564E+04 -6.087707E+04 -7.974186E+03  1.050266E+04
       168   9  7.458407E+04  6.133246E+05  7.558701E+04 -9.250225E+04 -1.473370E+04  5.221917E+03
       168  10 -3.867676E+02  2.981059E+05  1.164260E+04 -9.236074E+04 -6.840502E-10  1.838056E-10
       168  11 -3.839383E+04  1.547830E+05 -2.492272E+04 -6.073869E+04  7.023540E-10 -1.918217E-10
       168  12 -7.207210E+04  1.291197E+04 -5.744006E+04 -8.977845E+04 -2.153786E-11 -5.653613E-10
       168  13  3.255661E+03  3.130886E+05  1.490579E+04 -9.113626E+04 -2.983534E-11  5.286641E-12
       168  14  6.507874E+01  3.123385E+05  9.857061E+03 -6.080784E+04 -6.316108E-10 -2.676121E-11
       168  15  1.258900E+03  3.130762E+05  9.076037E+03 -9.114001E+04 -4.982850E-10  9.847814E-13
       168  16  6.898081E+03  3.280715E+05  1.816897E+04 -8.991175E+04 -2.699610E-10 -2.726196E-10
       168  17  3.852232E+04  4.699173E+05  4.463532E+04 -6.087700E+04 -6.970126E-10  2.124197E-10
       168  18  7.458383E+04  6.133245E+05  7.558655E+04 -9.250219E+04  1.820416E-10  5.232663E-10
       168  19 -3.867648E+02  2.981059E+05  1.164261E+04 -9.236074E+04  8.358668E+02 -2.811925E+03
       168  20 -3.839376E+04  1.547830E+05 -2.492260E+04 -6.073868E+04  7.951333E+03  1.841061E+03
       168  21 -7.207186E+04  1.291208E+04 -5.743957E+04 -8.977838E+04  1.471311E+04  6.490880E+03
       168  22  3.255685E+03  3.130887E+05  1.490595E+04 -9.113626E+04  8.485313E+02 -9.298063E+03
       168  23  6.515186E+01  3.123386E+05  9.857216E+03 -6.080787E+04  7.962760E+03 -4.330023E+03
       168  24  1.259133E+03  3.130762E+05  9.076445E+03 -9.114000E+04  1.472339E+04  6.358805E+02
       168  25  6.898149E+03  3.280717E+05  1.816944E+04 -8.991176E+04  8.611701E+02 -1.578436E+04
       168  26  3.852242E+04  4.699174E+05  4.463564E+04 -6.087707E+04  7.974186E+03 -1.050266E+04
       168  27  7.458407E+04  6.133246E+05  7.558701E+04 -9.250225E+04  1.473370E+04 -5.221917E+03
       169   1 -1.028260E+05 -1.049275E+05 -8.311965E+04 -9.327176E+04 -2.115017E+04 -1.355339E+04
       169   2 -1.373878E+05 -2.492012E+05 -1.137740E+05 -5.707575E+04 -2.435927E+04 -2.889804E+03
       169   3 -1.551761E+05 -3.907446E+05 -1.472013E+05 -8.081923E+04 -8.304772E+03  7.797393E+03
       169   4 -5.669629E+02  3.139876E+05  9.354574E+03 -9.098638E+04 -2.116939E+04 -2.171366E+03
       169   5 -1.104550E+02  3.111262E+05  1.222319E+04 -6.100371E+04 -2.434877E+04 -8.611887E+03
       169   6  2.008101E+04  3.139386E+05  2.419275E+04 -9.095594E+04 -8.272548E+03 -1.502617E+04
       169   7  1.016804E+05  7.330670E+05  1.018185E+05 -8.869936E+04 -2.118851E+04  9.218250E+03
       169   8  1.371455E+05  8.717457E+05  1.382005E+05 -6.493513E+04 -2.433821E+04 -1.433908E+04
       169   9  1.953022E+05  1.019076E+06  1.955528E+05 -1.011040E+05 -8.239598E+03 -3.787557E+04
       169  10 -1.028265E+05 -1.049278E+05 -8.312083E+04 -9.327199E+04 -3.360211E-10  3.271609E-10
       169  11 -1.373885E+05 -2.492014E+05 -1.137751E+05 -5.707580E+04  6.204276E-10  1.439740E-10
       169  12 -1.551762E+05 -3.907447E+05 -1.472015E+05 -8.081918E+04  5.047544E-10 -2.563255E-10
       169  13 -5.674454E+02  3.139875E+05  9.353723E+03 -9.098642E+04  5.580039E-10 -3.625093E-11
       169  14 -1.111117E+02  3.111259E+05  1.222193E+04 -6.100388E+04  5.164085E-10  3.357324E-13
       169  15  2.008087E+04  3.139384E+05  2.419220E+04 -9.095604E+04  3.938066E-10 -3.471402E-11
       169  16  1.016799E+05  7.330667E+05  1.018175E+05 -8.869921E+04 -4.643816E-10 -2.883584E-10
       169  17  1.371448E+05  8.717454E+05  1.381990E+05 -6.493541E+04  7.268959E-10 -2.084717E-10
       169  18  1.953018E+05  1.019075E+06  1.955500E+05 -1.011043E+05  5.566375E-10  1.455567E-10
       169  19 -1.028260E+05 -1.049275E+05 -8.311965E+04 -9.327176E+04  2.115017E+04  1.355339E+04
       169  20 -1.373878E+05 -2.492012E+05 -1.137740E+05 -5.707575E+04  2.435927E+04  2.889804E+03
       169  21 -1.551761E+05 -3.907446E+05 -1.472013E+05 -8.081923E+04  8.304772E+03 -7.797393E+03
       169  22 -5.669629E+02  3.139876E+05  9.354574E+03 -9.098638E+04  2.116939E+04  2.171366E+03
       169  23 -1.104550E+02  3.111262E+05  1.222319E+04 -6.100371E+04  2.434877E+04  8.611887E+03
       169  24  2.008101E+04  3.139386E+05  2.419275E+04 -9.095594E+04  8.272548E+03  1.502617E+04
       169  25  1.016804E+05  7.330670E+05  1.018185E+05 -8.869936E+04  2.118851E+04 -9.218250E+03
       169  26  1.371455E+05  8.717457E+05  1.382005E+05 -6.493513E+04  2.433821E+04  1.433908E+04
       169  27  1.953022E+05  1.019076E+06  1.955528E+05 -1.011040E+05  8.239598E+03  3.787557E+04
       170   1 -1.569974E+06 -6.309405E+05 -4.056915E+05 -5.694714E+05 -1.724503E+05 -5.426068E+04
       170   2 -1.514057E+06 -3.903193E+05 -2.501056E+05 -5.596167E+05 -1.116036E+05 -8.590064E+03
       170   3 -1.517084E+06 -3.424297E+05 -1.936936E+05 -5.236839E+05 -4.362059E+04  1.816397E+04
       170   4 -9.572648E+05 -3.230869E+05 -2.268716E+05 -3.234711E+05 -1.481568E+05 -4.513722E+04
       170   5 -9.170153E+05 -1.414503E+05 -9.805420E+04 -3.691812E+05 -1.029626E+05 -5.345581E+03
       170   6 -9.325365E+05 -1.493459E+05 -5.592045E+04 -3.888355E+05 -5.063918E+04  1.552341E+04
       170   7 -3.441789E+05 -1.511708E+04 -4.808622E+04 -7.722352E+04 -1.238371E+05 -3.599632E+04
       170   8 -3.196201E+05  1.074675E+05  5.396835E+04 -1.785703E+05 -9.431255E+04 -2.096764E+03
       170   9 -3.476488E+05  4.374513E+04  8.182981E+04 -2.538789E+05 -5.766500E+04  1.288084E+04
       170  10 -1.570007E+06 -6.309516E+05 -4.057531E+05 -5.694790E+05 -5.661672E-10  8.099596E-11
       170  11 -1.514071E+06 -3.903228E+05 -2.501292E+05 -5.596175E+05  3.745454E-09  1.335202E-09
       170  12 -1.517087E+06 -3.424306E+05 -1.936978E+05 -5.236833E+05  3.211867E-09  8.545287E-10
       170  13 -9.572890E+05 -3.230950E+05 -2.269168E+05 -3.234765E+05  1.283876E-09  5.316814E-10
       170  14 -9.170267E+05 -1.414532E+05 -9.807421E+04 -3.691816E+05  3.586966E-09  1.373134E-09
       170  15 -9.325393E+05 -1.493468E+05 -5.592573E+04 -3.888348E+05  5.073206E-10  6.110493E-10
       170  16 -3.441958E+05 -1.512260E+04 -4.811749E+04 -7.722712E+04  2.593711E-09  1.007360E-09
       170  17 -3.196296E+05  1.074651E+05  5.395162E+04 -1.785705E+05  3.010044E-09  1.403544E-09
       170  18 -3.476525E+05  4.374406E+04  8.182324E+04 -2.538783E+05 -8.043476E-10  2.838104E-10
       170  19 -1.569974E+06 -6.309405E+05 -4.056915E+05 -5.694714E+05  1.724503E+05  5.426068E+04
       170  20 -1.514057E+06 -3.903193E+05 -2.501056E+05 -5.596167E+05  1.116036E+05  8.590064E+03
       170  21 -1.517084E+06 -3.424297E+05 -1.936936E+05 -5.236839E+05  4.362059E+04 -1.816397E+04
       170  22 -9.572648E+05 -3.230869E+05 -2.268716E+05 -3.234711E+05  1.481568E+05  4.513722E+04
       170  23 -9.170153E+05 -1.414503E+05 -9.805420E+04 -3.691812E+05  1.029626E+05  5.345581E+03
       170  24 -9.325365E+05 -1.493459E+05 -5.592045E+04 -3.888355E+05  5.063918E+04 -1.552341E+04
       170  25 -3.441789E+05 -1.511708E+04 -4.808622E+04 -7.722352E+04  1.238371E+05  3.599632E+04
       170  26 -3.196201E+05  1.074675E+05  5.396835E+04 -1.785703E+05  9.431255E+04  2.096764E+03
       170  27 -3.476488E+05  4.374513E+04  8.182981E+04 -2.538789E+05  5.766500E+04 -1.288084E+04
       171   1 -1.444153E+06 -3.644981E+05 -1.720988E+05 -5.245799E+05 -4.077185E+04  1.505399E+04
       171   2 -1.399388E+06 -3.233381E+05 -1.372995E+05 -5.015272E+05 -2.775717E+04  1.768547E+04
       171   3 -1.343274E+06 -3.107289E+05 -1.147038E+05 -4.955073E+05 -1.441397E+04  1.944069E+04
       171   4 -9.251792E+05 -1.670994E+05 -4.442505E+04 -3.782549E+05 -4.207129E+04  1.456318E+04
       171   5 -9.301435E+05 -1.474399E+05 -2.271814E+04 -3.717839E+05 -2.977415E+04  1.692586E+04
       171   6 -9.236137E+05 -1.561824E+05 -1.263733E+04 -3.823468E+05 -1.714964E+04  1.841209E+04
       171   7 -4.059415E+05  3.031978E+04  8.322743E+04 -2.318181E+05 -4.337190E+04  1.407192E+04
       171   8 -4.606812E+05  2.847416E+04  9.184665E+04 -2.419510E+05 -3.179280E+04  1.616562E+04
       171   9 -5.037775E+05 -1.624140E+03  8.941659E+04 -2.691166E+05 -1.988734E+04  1.738275E+04
       171  10 -1.444155E+06 -3.644988E+05 -1.721023E+05 -5.245794E+05  7.916310E-10 -6.167725E-11
       171  11 -1.399389E+06 -3.233386E+05 -1.373015E+05 -5.015268E+05  6.329917E-10  6.185122E-10
       171  12 -1.343274E+06 -3.107294E+05 -1.147049E+05 -4.955071E+05  4.957237E-10  2.817231E-10
       171  13 -9.251811E+05 -1.671001E+05 -4.442878E+04 -3.782544E+05 -9.572535E-11  8.090191E-11
       171  14 -9.301446E+05 -1.474404E+05 -2.272035E+04 -3.717835E+05 -1.521460E-09  2.443865E-10
       171  15 -9.236141E+05 -1.561829E+05 -1.263852E+04 -3.823466E+05 -3.979266E-10  1.684602E-10
       171  16 -4.059436E+05  3.031907E+04  8.322352E+04 -2.318176E+05 -2.673218E-10  3.347318E-10
       171  17 -4.606823E+05  2.847361E+04  9.184426E+04 -2.419506E+05 -3.959368E-10  8.746968E-11
       171  18 -5.037781E+05 -1.624571E+03  8.941528E+04 -2.691164E+05 -3.584401E-10  1.073938E-10
       171  19 -1.444153E+06 -3.644981E+05 -1.720988E+05 -5.245799E+05  4.077185E+04 -1.505399E+04
       171  20 -1.399388E+06 -3.233381E+05 -1.372995E+05 -5.015272E+05  2.775717E+04 -1.768547E+04
       171  21 -1.343274E+06 -3.107289E+05 -1.147038E+05 -4.955073E+05  1.441397E+04 -1.944069E+04
       171  22 -9.251792E+05 -1.670994E+05 -4.442505E+04 -3.782549E+05  4.207129E+04 -1.456318E+04
       171  23 -9.301435E+05 -1.474399E+05 -2.271814E+04 -3.717839E+05  2.977415E+04 -1.692586E+04
       171  24 -9.236137E+05 -1.561824E+05 -1.263733E+04 -3.823468E+05  1.714964E+04 -1.841209E+04
       171  25 -4.059415E+05  3.031978E+04  8.322743E+04 -2.318181E+05  4.337190E+04 -1.407192E+04
       171  26 -4.606812E+05  2.847416E+04  9.184665E+04 -2.419510E+05  3.179280E+04 -1.616562E+04
       171  27 -5.037775E+05 -1.624140E+03  8.941659E+04 -2.691166E+05  1.988734E+04 -1.738275E+04
       172   1 -1.296062E+06 -2.962843E+05 -1.003734E+05 -4.839902E+05 -1.218119E+04  1.815232E+04
       172   2 -1.251953E+06 -2.672654E+05 -8.331809E+04 -4.597143E+05 -8.390933E+03  1.612913E+04
       172   3 -1.191045E+06 -2.563716E+05 -6.842435E+04 -4.552237E+05 -4.582569E+03  1.405368E+04
       172   4 -9.229054E+05 -1.572991E+05 -9.632131E+03 -3.816761E+05 -1.466926E+04  1.721718E+04
       172   5 -9.312548E+05 -1.479089E+05 -5.223363E+03 -3.719055E+05 -1.092069E+04  1.517899E+04
       172   6 -9.227997E+05 -1.566345E+05 -2.941896E+03 -3.819202E+05 -7.154272E+03  1.308847E+04
       172   7 -5.496106E+05 -1.830428E+04  8.109875E+04 -2.793060E+05 -1.715895E+04  1.628143E+04
       172   8 -6.104558E+05 -2.854570E+04  7.286346E+04 -2.840556E+05 -1.345186E+04  1.422832E+04
       172   9 -6.544852E+05 -5.689304E+04  6.253481E+04 -3.085883E+05 -9.727176E+03  1.212281E+04
       172  10 -1.296063E+06 -2.962847E+05 -1.003743E+05 -4.839900E+05  9.535792E-10  6.605260E-12
       172  11 -1.251953E+06 -2.672657E+05 -8.331871E+04 -4.597142E+05  1.556341E-10 -7.575228E-13
       172  12 -1.191045E+06 -2.563718E+05 -6.842476E+04 -4.552236E+05 -4.760426E-11  1.069431E-10
       172  13 -9.229057E+05 -1.572995E+05 -9.633092E+03 -3.816759E+05  3.423503E-10 -7.819348E-11
       172  14 -9.312550E+05 -1.479092E+05 -5.224020E+03 -3.719053E+05  6.877711E-11  1.206839E-11
       172  15 -9.227998E+05 -1.566347E+05 -2.942314E+03 -3.819201E+05 -5.077143E-10  1.906319E-10
       172  16 -5.496110E+05 -1.830465E+04  8.109770E+04 -2.793058E+05 -5.091840E-10  8.645341E-11
       172  17 -6.104560E+05 -2.854597E+04  7.286274E+04 -2.840554E+05 -1.268162E-09  1.451856E-10
       172  18 -6.544853E+05 -5.689322E+04  6.253435E+04 -3.085882E+05 -7.990591E-10  4.320148E-10
       172  19 -1.296062E+06 -2.962843E+05 -1.003734E+05 -4.839902E+05  1.218119E+04 -1.815232E+04
       172  20 -1.251953E+06 -2.672654E+05 -8.331809E+04 -4.597143E+05  8.390933E+03 -1.612913E+04
       172  21 -1.191045E+06 -2.563716E+05 -6.842435E+04 -4.552237E+05  4.582569E+03 -1.405368E+04
       172  22 -9.229054E+05 -1.572991E+05 -9.632131E+03 -3.816761E+05  1.466926E+04 -1.721718E+04
       172  23 -9.312548E+05 -1.479089E+05 -5.223363E+03 -3.719055E+05  1.092069E+04 -1.517899E+04
       172  24 -9.227997E+05 -1.566345E+05 -2.941896E+03 -3.819202E+05  7.154272E+03 -1.308847E+04
       172  25 -5.496106E+05 -1.830428E+04  8.109875E+04 -2.793060E+05  1.715895E+04 -1.628143E+04
       172  26 -6.104558E+05 -2.854570E+04  7.286346E+04 -2.840556E+05  1.345186E+04 -1.422832E+04
       172  27 -6.544852E+05 -5.689304E+04  6.253481E+04 -3.085883E+05  9.727176E+03 -1.212281E+04
       173   1 -1.145112E+06 -2.394474E+05 -5.623642E+04 -4.427996E+05 -3.481091E+03  1.240986E+04
       173   2 -1.100769E+06 -2.109306E+05 -4.263257E+04 -4.182350E+05 -1.617268E+03  9.576255E+03
       173   3 -1.039001E+06 -1.999923E+05 -2.956128E+04 -4.137534E+05  2.489200E+02  6.734049E+03
       173   4 -9.226868E+05 -1.567226E+05 -2.266946E+03 -3.819065E+05 -6.048800E+03  1.144647E+04
       173   5 -9.313917E+05 -1.479108E+05 -1.395250E+03 -3.718718E+05 -4.191883E+03  8.610608E+03
       173   6 -9.226743E+05 -1.566765E+05 -1.050762E+03 -3.819211E+05 -2.332672E+03  5.766142E+03
       173   7 -7.002113E+05 -7.399403E+04  5.169918E+04 -3.209932E+05 -8.617527E+03  1.048269E+04
       173   8 -7.619852E+05 -8.488892E+04  3.984007E+04 -3.254970E+05 -6.767270E+03  7.644672E+03
       173   9 -8.063339E+05 -1.133597E+05  2.745877E+04 -3.500834E+05 -4.914793E+03  4.798036E+03
       173  10 -1.145112E+06 -2.394476E+05 -5.623673E+04 -4.427996E+05  4.437134E-10  2.935235E-10
       173  11 -1.100769E+06 -2.109307E+05 -4.263275E+04 -4.182350E+05 -4.927342E-11 -1.201573E-10
       173  12 -1.039001E+06 -1.999924E+05 -2.956137E+04 -4.137534E+05 -1.795074E-10 -2.399437E-10
       173  13 -9.226869E+05 -1.567228E+05 -2.267261E+03 -3.819064E+05 -1.005559E-09  1.753469E-10
       173  14 -9.313917E+05 -1.479109E+05 -1.395422E+03 -3.718718E+05 -8.388769E-10 -1.689998E-10
       173  15 -9.226743E+05 -1.566765E+05 -1.050835E+03 -3.819211E+05 -3.518374E-10 -2.062106E-10
       173  16 -7.002114E+05 -7.399417E+04  5.169883E+04 -3.209931E+05 -2.500376E-10  1.488655E-10
       173  17 -7.619853E+05 -8.488900E+04  3.983987E+04 -3.254969E+05  2.796157E-10  6.492250E-11
       173  18 -8.063340E+05 -1.133598E+05  2.745868E+04 -3.500834E+05 -3.540575E-12 -3.780225E-10
       173  19 -1.145112E+06 -2.394474E+05 -5.623642E+04 -4.427996E+05  3.481091E+03 -1.240986E+04
       173  20 -1.100769E+06 -2.109306E+05 -4.263257E+04 -4.182350E+05  1.617268E+03 -9.576255E+03
       173  21 -1.039001E+06 -1.999923E+05 -2.956128E+04 -4.137534E+05 -2.489200E+02 -6.734049E+03
       173  22 -9.226868E+05 -1.567226E+05 -2.266946E+03 -3.819065E+05  6.048800E+03 -1.144647E+04
       173  23 -9.313917E+05 -1.479108E+05 -1.395250E+03 -3.718718E+05  4.191883E+03 -8.610608E+03
       173  24 -9.226743E+05 -1.566765E+05 -1.050762E+03 -3.819211E+05  2.332672E+03 -5.766142E+03
       173  25 -7.002113E+05 -7.399403E+04  5.169918E+04 -3.209932E+05  8.617527E+03 -1.048269E+04
       173  26 -7.619852E+05 -8.488892E+04  3.984007E+04 -3.254970E+05  6.767270E+03 -7.644672E+03
       173  27 -8.063339E+05 -1.133597E+05  2.745877E+04 -3.500834E+05  4.914793E+03 -4.798036E+03
       174   1 -9.929456E+05 -1.828211E+05 -1.795164E+04 -4.012028E+05  1.103238E+03  4.988739E+03
       174   2 -9.484315E+05 -1.542482E+05 -5.402710E+03 -3.765428E+05  2.893639E+03  2.109948E+03
       174   3 -8.864379E+05 -1.433057E+05  6.669926E+03 -3.720424E+05  4.683783E+03 -7.683557E+02
       174   4 -9.226604E+05 -1.566901E+05 -1.026547E+03 -3.819366E+05 -1.481377E+03  4.019824E+03
       174   5 -9.313999E+05 -1.478845E+05 -1.251877E+03 -3.718525E+05  3.093456E+02  1.141186E+03
       174   6 -9.226629E+05 -1.567097E+05 -1.953656E+03 -3.819291E+05  2.099755E+03 -1.736980E+03
       174   7 -8.523706E+05 -1.305588E+05  1.589811E+04 -3.626684E+05 -4.066298E+03  3.050793E+03
       174   8 -9.143680E+05 -1.415209E+05  2.898962E+03 -3.671621E+05 -2.275025E+03  1.723948E+02
       174   9 -9.588867E+05 -1.701137E+05 -1.057735E+04 -3.918154E+05 -4.841212E+02 -2.705548E+03
       174  10 -9.929456E+05 -1.828212E+05 -1.795168E+04 -4.012028E+05  4.999472E-10 -1.362745E-10
       174  11 -9.484315E+05 -1.542482E+05 -5.402734E+03 -3.765429E+05  5.856425E-10 -2.435225E-10
       174  12 -8.864380E+05 -1.433057E+05  6.669884E+03 -3.720424E+05 -4.127729E-10 -1.961581E-10
       174  13 -9.226604E+05 -1.566901E+05 -1.026582E+03 -3.819366E+05  1.360577E-10 -3.146393E-10
       174  14 -9.313999E+05 -1.478845E+05 -1.251880E+03 -3.718525E+05  1.724059E-10 -2.792498E-10
       174  15 -9.226629E+05 -1.567097E+05 -1.953670E+03 -3.819291E+05  1.622765E-10 -2.482819E-12
       174  16 -8.523707E+05 -1.305588E+05  1.589807E+04 -3.626684E+05 -6.087152E-10 -4.857932E-10
       174  17 -9.143680E+05 -1.415209E+05  2.898953E+03 -3.671621E+05  3.685921E-10 -4.895281E-10
       174  18 -9.588867E+05 -1.701137E+05 -1.057737E+04 -3.918154E+05 -2.947928E-10  2.138506E-10
       174  19 -9.929456E+05 -1.828211E+05 -1.795164E+04 -4.012028E+05 -1.103238E+03 -4.988739E+03
       174  20 -9.484315E+05 -1.542482E+05 -5.402710E+03 -3.765428E+05 -2.893639E+03 -2.109948E+03
       174  21 -8.864379E+05 -1.433057E+05  6.669926E+03 -3.720424E+05 -4.683783E+03  7.683557E+02
       174  22 -9.226604E+05 -1.566901E+05 -1.026547E+03 -3.819366E+05  1.481377E+03 -4.019824E+03
       174  23 -9.313999E+05 -1.478845E+05 -1.251877E+03 -3.718525E+05 -3.093456E+02 -1.141186E+03
       174  24 -9.226629E+05 -1.567097E+05 -1.953656E+03 -3.819291E+05 -2.099755E+03  1.736980E+03
       174  25 -8.523706E+05 -1.305588E+05  1.589811E+04 -3.626684E+05  4.066298E+03 -3.050793E+03
       174  26 -9.143680E+05 -1.415209E+05  2.898962E+03 -3.671621E+05  2.275025E+03 -1.723948E+02
       174  27 -9.588867E+05 -1.701137E+05 -1.057735E+04 -3.918154E+05  4.841212E+02  2.705548E+03
       175   1 -8.403729E+05 -1.261211E+05  1.769974E+04 -3.595765E+05  5.739172E+03 -2.442384E+03
       175   2 -7.958562E+05 -9.750989E+04  2.854075E+04 -3.348345E+05  9.086998E+03 -4.725764E+03
       175   3 -7.343077E+05 -8.707755E+04  3.759234E+04 -3.301258E+05  1.242288E+04 -6.974943E+03
       175   4 -9.227402E+05 -1.566577E+05 -2.514681E+03 -3.819674E+05  3.148269E+03 -3.413665E+03
       175   5 -9.312934E+05 -1.478374E+05 -4.419346E+03 -3.718493E+05  6.523777E+03 -5.686952E+03
       175   6 -9.228228E+05 -1.572021E+05 -8.135527E+03 -3.817660E+05  9.887122E+03 -7.926097E+03
       175   7 -1.005101E+06 -1.871938E+05 -2.272959E+04 -4.043556E+05  5.577423E+02 -4.384807E+03
       175   8 -1.066712E+06 -1.981636E+05 -3.738069E+04 -4.088568E+05  3.961172E+03 -6.647909E+03
       175   9 -1.111302E+06 -2.273239E+05 -5.386576E+04 -4.333916E+05  7.352221E+03 -8.876931E+03
       175  10 -8.403730E+05 -1.261211E+05  1.769967E+04 -3.595764E+05  7.514851E-10  2.836319E-10
       175  11 -7.958563E+05 -9.750994E+04  2.854055E+04 -3.348345E+05 -3.323597E-10 -1.395843E-10
       175  12 -7.343078E+05 -8.707765E+04  3.759196E+04 -3.301257E+05 -1.738862E-10 -4.862684E-11
       175  13 -9.227402E+05 -1.566577E+05 -2.514722E+03 -3.819674E+05  2.034100E-10  5.160044E-11
       175  14 -9.312934E+05 -1.478375E+05 -4.419486E+03 -3.718493E+05  2.585198E-10 -2.071201E-10
       175  15 -9.228230E+05 -1.572022E+05 -8.135828E+03 -3.817659E+05  9.318020E-11 -7.335764E-11
       175  16 -1.005101E+06 -1.871938E+05 -2.272962E+04 -4.043556E+05 -1.126911E-09 -4.052040E-11
       175  17 -1.066712E+06 -1.981636E+05 -3.738080E+04 -4.088567E+05  2.057186E-10 -2.534362E-10
       175  18 -1.111302E+06 -2.273240E+05 -5.386601E+04 -4.333916E+05 -4.748123E-10  4.618320E-11
       175  19 -8.403729E+05 -1.261211E+05  1.769974E+04 -3.595765E+05 -5.739172E+03  2.442384E+03
       175  20 -7.958562E+05 -9.750989E+04  2.854075E+04 -3.348345E+05 -9.086998E+03  4.725764E+03
       175  21 -7.343077E+05 -8.707755E+04  3.759234E+04 -3.301258E+05 -1.242288E+04  6.974943E+03
       175  22 -9.227402E+05 -1.566577E+05 -2.514681E+03 -3.819674E+05 -3.148269E+03  3.413665E+03
       175  23 -9.312934E+05 -1.478374E+05 -4.419346E+03 -3.718493E+05 -6.523777E+03  5.686952E+03
       175  24 -9.228228E+05 -1.572021E+05 -8.135527E+03 -3.817660E+05 -9.887122E+03  7.926097E+03
       175  25 -1.005101E+06 -1.871938E+05 -2.272959E+04 -4.043556E+05 -5.577423E+02  4.384807E+03
       175  26 -1.066712E+06 -1.981636E+05 -3.738069E+04 -4.088568E+05 -3.961172E+03  6.647909E+03
       175  27 -1.111302E+06 -2.273239E+05 -5.386576E+04 -4.333916E+05 -7.352221E+03  8.876931E+03
       176   1 -6.879041E+05 -7.015674E+04  4.655723E+04 -3.194640E+05  1.481350E+04 -8.207622E+03
       176   2 -6.439408E+05 -3.995489E+04  5.077377E+04 -2.923941E+05  2.513523E+04 -7.702428E+03
       176   3 -5.872628E+05 -3.658557E+04  4.559238E+04 -2.831361E+05  3.521660E+04 -6.550217E+03
       176   4 -9.234045E+05 -1.562770E+05 -1.066965E+04 -3.823514E+05  1.209141E+04 -9.228904E+03
       176   5 -9.303630E+05 -1.474064E+05 -1.916348E+04 -3.717219E+05  2.294551E+04 -8.524655E+03
       176   6 -9.247182E+05 -1.654786E+05 -3.748141E+04 -3.789067E+05  3.355836E+04 -7.173623E+03
       176   7 -1.158851E+06 -2.423944E+05 -6.790095E+04 -4.452176E+05  9.370434E+03 -1.024979E+04
       176   8 -1.216705E+06 -2.548522E+05 -8.910710E+04 -4.510165E+05  2.075689E+04 -9.346465E+03
       176   9 -1.262061E+06 -2.943624E+05 -1.205639E+05 -4.746294E+05  3.190110E+04 -7.796640E+03
       176  10 -6.879043E+05 -7.015687E+04  4.655669E+04 -3.194639E+05  2.266419E-10  4.261443E-11
       176  11 -6.439415E+05 -3.995513E+04  5.077247E+04 -2.923939E+05 -7.850777E-10 -1.764323E-10
       176  12 -5.872642E+05 -3.658595E+04  4.558996E+04 -2.831359E+05 -4.896833E-10 -2.125718E-10
       176  13 -9.234047E+05 -1.562771E+05 -1.067008E+04 -3.823513E+05  5.497608E-10  8.554651E-12
       176  14 -9.303636E+05 -1.474066E+05 -1.916461E+04 -3.717218E+05  2.499335E-10 -8.910004E-11
       176  15 -9.247194E+05 -1.654790E+05 -3.748363E+04 -3.789065E+05  5.227859E-10 -1.508942E-10
       176  16 -1.158852E+06 -2.423946E+05 -6.790131E+04 -4.452175E+05 -5.364501E-10 -3.600533E-12
       176  17 -1.216705E+06 -2.548524E+05 -8.910807E+04 -4.510164E+05  1.464676E-10  4.191494E-11
       176  18 -1.262062E+06 -2.943627E+05 -1.205659E+05 -4.746292E+05  4.410628E-11  1.646978E-10
       176  19 -6.879041E+05 -7.015674E+04  4.655723E+04 -3.194640E+05 -1.481350E+04  8.207622E+03
       176  20 -6.439408E+05 -3.995489E+04  5.077377E+04 -2.923941E+05 -2.513523E+04  7.702428E+03
       176  21 -5.872628E+05 -3.658557E+04  4.559238E+04 -2.831361E+05 -3.521660E+04  6.550217E+03
       176  22 -9.234045E+05 -1.562770E+05 -1.066965E+04 -3.823514E+05 -1.209141E+04  9.228904E+03
       176  23 -9.303630E+05 -1.474064E+05 -1.916348E+04 -3.717219E+05 -2.294551E+04  8.524655E+03
       176  24 -9.247182E+05 -1.654786E+05 -3.748141E+04 -3.789067E+05 -3.355836E+04  7.173623E+03
       176  25 -1.158851E+06 -2.423944E+05 -6.790095E+04 -4.452176E+05 -9.370434E+03  1.024979E+04
       176  26 -1.216705E+06 -2.548522E+05 -8.910710E+04 -4.510165E+05 -2.075689E+04  9.346465E+03
       176  27 -1.262061E+06 -2.943624E+05 -1.205639E+05 -4.746294E+05 -3.190110E+04  7.796640E+03
       177   1 -5.302246E+05 -2.232175E+04  4.650701E+04 -2.996804E+05  4.673547E+04 -5.886222E+03
       177   2 -4.986441E+05  3.632467E+04  2.500889E+04 -2.317979E+05  7.961110E+04  6.379153E+03
       177   3 -5.087026E+05 -6.572977E+04 -6.038574E+04 -1.455882E+05  1.072177E+05  3.267770E+04
       177   4 -9.309104E+05 -1.505167E+05 -4.718017E+04 -3.878541E+05  4.083062E+04 -8.102449E+03
       177   5 -9.193077E+05 -1.423098E+05 -8.271736E+04 -3.694904E+05  8.533459E+04  8.524520E+03
       177   6 -9.516972E+05 -2.971825E+05 -1.914084E+05 -3.327916E+05  1.245656E+05  3.918307E+04
       177   7 -1.331436E+06 -2.787095E+05 -1.408775E+05 -4.759802E+05  3.492995E+04 -1.031761E+04
       177   8 -1.339795E+06 -3.209169E+05 -1.904578E+05 -5.070926E+05  9.105384E+04  1.066778E+04
       177   9 -1.394491E+06 -5.285628E+05 -3.224487E+05 -5.198567E+05  1.419000E+05  4.567880E+04
       177  10 -5.302270E+05 -2.232237E+04  4.650284E+04 -2.996802E+05  3.161965E-10 -1.149648E-10
       177  11 -4.986510E+05  3.632292E+04  2.499690E+04 -2.317983E+05  3.148914E-10  3.954847E-11
       177  12 -5.087153E+05 -6.573400E+04 -6.040937E+04 -1.455910E+05  8.315294E-11  4.040390E-11
       177  13 -9.309122E+05 -1.505172E+05 -4.718343E+04 -3.878539E+05  2.795427E-11 -1.094804E-10
       177  14 -9.193155E+05 -1.423118E+05 -8.273120E+04 -3.694909E+05 -6.754788E-10  3.617554E-10
       177  15 -9.517143E+05 -2.971883E+05 -1.914405E+05 -3.327955E+05 -1.574778E-10 -3.458815E-11
       177  16 -1.331437E+06 -2.787099E+05 -1.408800E+05 -4.759799E+05  6.014778E-11  5.029073E-11
       177  17 -1.339804E+06 -3.209192E+05 -1.904736E+05 -5.070934E+05 -6.060704E-11 -2.176784E-11
       177  18 -1.394513E+06 -5.285705E+05 -3.224906E+05 -5.198619E+05 -2.424980E-10  4.546087E-11
       177  19 -5.302246E+05 -2.232175E+04  4.650701E+04 -2.996804E+05 -4.673547E+04  5.886222E+03
       177  20 -4.986441E+05  3.632467E+04  2.500889E+04 -2.317979E+05 -7.961110E+04 -6.379153E+03
       177  21 -5.087026E+05 -6.572977E+04 -6.038574E+04 -1.455882E+05 -1.072177E+05 -3.267770E+04
       177  22 -9.309104E+05 -1.505167E+05 -4.718017E+04 -3.878541E+05 -4.083062E+04  8.102449E+03
       177  23 -9.193077E+05 -1.423098E+05 -8.271736E+04 -3.694904E+05 -8.533459E+04 -8.524520E+03
       177  24 -9.516972E+05 -2.971825E+05 -1.914084E+05 -3.327916E+05 -1.245656E+05 -3.918307E+04
       177  25 -1.331436E+06 -2.787095E+05 -1.408775E+05 -4.759802E+05 -3.492995E+04  1.031761E+04
       177  26 -1.339795E+06 -3.209169E+05 -1.904578E+05 -5.070926E+05 -9.105384E+04 -1.066778E+04
       177  27 -1.394491E+06 -5.285628E+05 -3.224487E+05 -5.198567E+05 -1.419000E+05 -4.567880E+04
       178   1 -9.935328E+05 -2.340048E+05 -1.957472E+05 -1.906437E+04  6.264700E+04  1.972768E+04
       178   2 -8.774177E+05 -3.388400E+05 -2.307820E+05 -3.437104E+04  5.655689E+04  6.156992E+04
       178   3 -7.265550E+05 -3.115200E+05 -2.286522E+05 -1.047835E+05  5.053201E+04  6.387477E+04
       178   4  5.184929E+05  1.415606E+05  1.709772E+05 -8.371391E+04  1.174972E+05  1.980747E+04
       178   5  4.981888E+05 -2.022377E+03  7.763573E+04 -5.606967E+04  7.626397E+04  6.158143E+04
       178   6  5.186319E+05 -7.513321E+03  4.578878E+04 -8.351907E+04  3.510044E+04  6.385643E+04
       178   7  2.032624E+06  5.169760E+05  5.375505E+05 -1.485223E+05  1.724805E+05  1.987575E+04
       178   8  1.875560E+06  3.346682E+05  3.859355E+05 -7.781737E+04  9.601417E+04  6.159157E+04
       178   9  1.765270E+06  2.963911E+05  3.201358E+05 -6.221157E+04  1.963819E+04  6.383706E+04
       178  10 -9.935371E+05 -2.340063E+05 -1.957553E+05 -1.906536E+04  8.854823E-10  9.675702E-11
       178  11 -8.774221E+05 -3.388449E+05 -2.307952E+05 -3.437384E+04  8.411988E-10 -9.908795E-10
       178  12 -7.265589E+05 -3.115251E+05 -2.286647E+05 -1.047861E+05  7.444366E-10 -6.121289E-10
       178  13  5.184780E+05  1.415565E+05  1.709506E+05 -8.371578E+04  9.761283E-10 -5.375086E-10
       178  14  4.981816E+05 -2.028010E+03  7.761768E+04 -5.607345E+04  7.203329E-10 -4.555616E-10
       178  15  5.186295E+05 -7.518032E+03  4.577880E+04 -8.352088E+04 -9.472438E-11 -7.230863E-10
       178  16  2.032592E+06  5.169676E+05  5.374940E+05 -1.485250E+05 -6.765994E-10  6.191878E-10
       178  17  1.875549E+06  3.346616E+05  3.859111E+05 -7.782213E+04 -9.127330E-10 -6.968964E-10
       178  18  1.765269E+06  2.963866E+05  3.201274E+05 -6.221258E+04 -1.005307E-09 -8.774204E-10
       178  19 -9.935328E+05 -2.340048E+05 -1.957472E+05 -1.906437E+04 -6.264700E+04 -1.972768E+04
       178  20 -8.774177E+05 -3.388400E+05 -2.307820E+05 -3.437104E+04 -5.655689E+04 -6.156992E+04
       178  21 -7.265550E+05 -3.115200E+05 -2.286522E+05 -1.047835E+05 -5.053201E+04 -6.387477E+04
       178  22  5.184929E+05  1.415606E+05  1.709772E+05 -8.371391E+04 -1.174972E+05 -1.980747E+04
       178  23  4.981888E+05 -2.022377E+03  7.763573E+04 -5.606967E+04 -7.626397E+04 -6.158143E+04
       178  24  5.186319E+05 -7.513321E+03  4.578878E+04 -8.351907E+04 -3.510044E+04 -6.385643E+04
       178  25  2.032624E+06  5.169760E+05  5.375505E+05 -1.485223E+05 -1.724805E+05 -1.987575E+04
       178  26  1.875560E+06  3.346682E+05  3.859355E+05 -7.781737E+04 -9.601417E+04 -6.159157E+04
       178  27  1.765270E+06  2.963911E+05  3.201358E+05 -6.221157E+04 -1.963819E+04 -6.383706E+04
       179   1 -6.240773E+05 -2.694578E+05 -2.148923E+05 -8.144001E+04  3.236811E+04  5.593180E+04
       179   2 -4.937791E+05 -2.452721E+05 -2.016397E+05 -5.521430E+04  2.407324E+04  5.073556E+04
       179   3 -3.599768E+05 -2.131079E+05 -1.808930E+05 -8.518296E+04  1.576842E+04  4.379212E+04
       179   4  5.104636E+05  7.740794E+03  3.644244E+04 -8.381274E+04  2.857094E+04  5.592253E+04
       179   5  5.086286E+05 -5.269466E+02  1.963887E+04 -5.571778E+04  1.870905E+04  5.072886E+04
       179   6  5.105446E+05 -5.519282E+02  1.140640E+04 -8.381120E+04  8.838928E+03  4.378930E+04
       179   7  1.646207E+06  2.848526E+05  2.876975E+05 -8.618992E+04  2.476686E+04  5.591330E+04
       179   8  1.511975E+06  2.441506E+05  2.408557E+05 -5.622208E+04  1.333627E+04  5.072217E+04
       179   9  1.381774E+06  2.119531E+05  2.036593E+05 -8.243741E+04  1.899822E+03  4.378646E+04
       179  10 -6.240793E+05 -2.694614E+05 -2.149002E+05 -8.144147E+04 -8.895125E-10 -5.008018E-10
       179  11 -4.937805E+05 -2.452750E+05 -2.016456E+05 -5.521529E+04 -1.303995E-09 -1.920050E-10
       179  12 -3.599775E+05 -2.131100E+05 -1.808971E+05 -8.518352E+04 -5.400437E-11  5.182987E-10
       179  13  5.104619E+05  7.737216E+03  3.643502E+04 -8.381403E+04 -1.526892E-09 -8.359087E-10
       179  14  5.086276E+05 -5.298046E+02  1.963338E+04 -5.571855E+04 -3.209857E-10  2.146964E-10
       179  15  5.105440E+05 -5.540088E+02  1.140265E+04 -8.381151E+04 -1.937514E-09 -2.512161E-10
       179  16  1.646205E+06  2.848490E+05  2.876905E+05 -8.619104E+04  6.199150E-10 -2.982518E-10
       179  17  1.511975E+06  2.441478E+05  2.408505E+05 -5.622263E+04  4.495493E-10  4.029364E-10
       179  18  1.381774E+06  2.119510E+05  2.036557E+05 -8.243747E+04 -6.591167E-10 -5.575576E-10
       179  19 -6.240773E+05 -2.694578E+05 -2.148923E+05 -8.144001E+04 -3.236811E+04 -5.593180E+04
       179  20 -4.937791E+05 -2.452721E+05 -2.016397E+05 -5.521430E+04 -2.407324E+04 -5.073556E+04
       179  21 -3.599768E+05 -2.131079E+05 -1.808930E+05 -8.518296E+04 -1.576842E+04 -4.379212E+04
       179  22  5.104636E+05  7.740794E+03  3.644244E+04 -8.381274E+04 -2.857094E+04 -5.592253E+04
       179  23  5.086286E+05 -5.269466E+02  1.963887E+04 -5.571778E+04 -1.870905E+04 -5.072886E+04
       179  24  5.105446E+05 -5.519282E+02  1.140640E+04 -8.381120E+04 -8.838928E+03 -4.378930E+04
       179  25  1.646207E+06  2.848526E+05  2.876975E+05 -8.618992E+04 -2.476686E+04 -5.591330E+04
       179  26  1.511975E+06  2.441506E+05  2.408557E+05 -5.622208E+04 -1.333627E+04 -5.072217E+04
       179  27  1.381774E+06  2.119531E+05  2.036593E+05 -8.243741E+04 -1.899822E+03 -4.378646E+04
       180   1 -2.514348E+05 -1.854330E+05 -1.588010E+05 -8.368323E+04  1.346314E+04  3.934621E+04
       180   2 -1.203220E+05 -1.538377E+05 -1.339071E+05 -5.566569E+04  1.105242E+04  3.209545E+04
       180   3  1.134163E+04 -1.216915E+05 -1.072870E+05 -8.361336E+04  8.635148E+03  2.477616E+04
       180   4  5.098726E+05  3.227640E+02  8.753618E+03 -8.376118E+04  7.061616E+03  3.934522E+04
       180   5  5.096246E+05 -9.274582E+01  4.990210E+03 -5.578043E+04  4.586667E+03  3.209689E+04
       180   6  5.099215E+05  5.437163E+01  2.996247E+03 -8.376145E+04  2.105662E+03  2.478012E+04
       180   7  1.271722E+06  1.860397E+05  1.762729E+05 -8.383913E+04  6.523263E+02  3.934423E+04
       180   8  1.139942E+06  1.536256E+05  1.438633E+05 -5.589522E+04 -1.885575E+03  3.209832E+04
       180   9  1.008733E+06  1.217835E+05  1.132643E+05 -8.390959E+04 -4.429008E+03  2.478407E+04
       180  10 -2.514355E+05 -1.854347E+05 -1.588043E+05 -8.368366E+04  1.074903E-10  5.185583E-10
       180  11 -1.203224E+05 -1.538389E+05 -1.339092E+05 -5.566598E+04  4.880891E-12  5.051034E-10
       180  12  1.134139E+04 -1.216921E+05 -1.072883E+05 -8.361353E+04  9.583681E-10 -5.522057E-10
       180  13  5.098721E+05  3.210879E+02  8.750614E+03 -8.376140E+04 -6.044894E-10  3.292665E-11
       180  14  5.096243E+05 -9.385801E+01  4.988234E+03 -5.578055E+04 -1.996623E-10  9.908249E-10
       180  15  5.099213E+05  5.371089E+01  2.995085E+03 -8.376149E+04  1.448020E-09  5.117044E-10
       180  16  1.271722E+06  1.860380E+05  1.762700E+05 -8.383915E+04 -9.309463E-10 -5.191667E-10
       180  17  1.139942E+06  1.536245E+05  1.438613E+05 -5.589517E+04 -2.345157E-10  2.121435E-10
       180  18  1.008733E+06  1.217828E+05  1.132631E+05 -8.390950E+04 -6.754725E-10 -3.216895E-10
       180  19 -2.514348E+05 -1.854330E+05 -1.588010E+05 -8.368323E+04 -1.346314E+04 -3.934621E+04
       180  20 -1.203220E+05 -1.538377E+05 -1.339071E+05 -5.566569E+04 -1.105242E+04 -3.209545E+04
       180  21  1.134163E+04 -1.216915E+05 -1.072870E+05 -8.361336E+04 -8.635148E+03 -2.477616E+04
       180  22  5.098726E+05  3.227640E+02  8.753618E+03 -8.376118E+04 -7.061616E+03 -3.934522E+04
       180  23  5.096246E+05 -9.274582E+01  4.990210E+03 -5.578043E+04 -4.586667E+03 -3.209689E+04
       180  24  5.099215E+05  5.437163E+01  2.996247E+03 -8.376145E+04 -2.105662E+03 -2.478012E+04
       180  25  1.271722E+06  1.860397E+05  1.762729E+05 -8.383913E+04 -6.523263E+02 -3.934423E+04
       180  26  1.139942E+06  1.536256E+05  1.438633E+05 -5.589522E+04  1.885575E+03 -3.209832E+04
       180  27  1.008733E+06  1.217835E+05  1.132643E+05 -8.390959E+04  4.429008E+03 -2.478407E+04
       181   1  1.200288E+05 -9.494439E+04 -8.319938E+04 -8.354628E+04  8.119200E+03  2.050296E+04
       181   2  2.510498E+05 -6.307316E+04 -5.544143E+04 -5.568044E+04  7.324147E+03  1.318343E+04
       181   3  3.821258E+05 -3.107857E+04 -2.715910E+04 -8.362048E+04  6.526459E+03  5.864528E+03
       181   4  5.098314E+05  1.022205E+02  2.360859E+03 -8.372643E+04  1.617909E+03  2.050797E+04
       181   5  5.098211E+05  6.781755E+01  1.598649E+03 -5.582419E+04  8.224268E+02  1.318940E+04
       181   6  5.098513E+05  1.583037E+02  1.361926E+03 -8.372642E+04  2.447375E+01  5.871536E+03
       181   7  8.997763E+05  9.513869E+04  8.791200E+04 -8.390665E+04 -4.887414E+03  2.051297E+04
       181   8  7.686549E+05  6.320432E+04  5.863478E+04 -5.596798E+04 -5.681970E+03  1.319537E+04
       181   9  6.375920E+05  3.139409E+04  2.988208E+04 -8.383236E+04 -6.478835E+03  5.878547E+03
       181  10  1.200286E+05 -9.494486E+04 -8.320029E+04 -8.354641E+04  1.177143E-10 -2.857263E-10
       181  11  2.510497E+05 -6.307336E+04 -5.544186E+04 -5.568052E+04  1.180003E-09 -2.999272E-11
       181  12  3.821257E+05 -3.107861E+04 -2.715924E+04 -8.362051E+04  1.087326E-10  1.926998E-10
       181  13  5.098313E+05  1.017680E+02  2.360063E+03 -8.372645E+04  2.048279E-09 -9.061876E-10
       181  14  5.098210E+05  6.763052E+01  1.598321E+03 -5.582420E+04  6.221706E-11  1.098278E-10
       181  15  5.098513E+05  1.582666E+02  1.361861E+03 -8.372642E+04 -4.801749E-10 -1.238382E-10
       181  16  8.997762E+05  9.513823E+04  8.791116E+04 -8.390657E+04 -2.230306E-10 -4.540977E-10
       181  17  7.686548E+05  6.320412E+04  5.863439E+04 -5.596792E+04 -7.929776E-10 -1.135187E-10
       181  18  6.375920E+05  3.139404E+04  2.988194E+04 -8.383233E+04 -5.332692E-10 -6.426256E-10
       181  19  1.200288E+05 -9.494439E+04 -8.319938E+04 -8.354628E+04 -8.119200E+03 -2.050296E+04
       181  20  2.510498E+05 -6.307316E+04 -5.544143E+04 -5.568044E+04 -7.324147E+03 -1.318343E+04
       181  21  3.821258E+05 -3.107857E+04 -2.715910E+04 -8.362048E+04 -6.526459E+03 -5.864528E+03
       181  22  5.098314E+05  1.022205E+02  2.360859E+03 -8.372643E+04 -1.617909E+03 -2.050797E+04
       181  23  5.098211E+05  6.781755E+01  1.598649E+03 -5.582419E+04 -8.224268E+02 -1.318940E+04
       181  24  5.098513E+05  1.583037E+02  1.361926E+03 -8.372642E+04 -2.447375E+01 -5.871536E+03
       181  25  8.997763E+05  9.513869E+04  8.791200E+04 -8.390665E+04  4.887414E+03 -2.051297E+04
       181  26  7.686549E+05  6.320432E+04  5.863478E+04 -5.596798E+04  5.681970E+03 -1.319537E+04
       181  27  6.375920E+05  3.139409E+04  2.988208E+04 -8.383236E+04  6.478835E+03 -5.878547E+03
       182   1  4.907633E+05 -4.423858E+03 -2.438726E+03 -8.369915E+04  6.269972E+03  1.605760E+03
       182   2  6.217585E+05  2.738709E+04  2.647131E+04 -5.586428E+04  5.369288E+03 -5.709283E+03
       182   3  7.527996E+05  5.933311E+04  5.596996E+04 -8.380845E+04  4.469480E+03 -1.302304E+04
       182   4  5.098520E+05  1.592013E+02  1.398366E+03 -8.372091E+04 -2.314958E+02  1.612946E+03
       182   5  5.098339E+05  8.327615E+01  1.805400E+03 -5.583107E+04 -1.131582E+03 -5.702564E+03
       182   6  5.098433E+05  1.428892E+02  2.800801E+03 -8.372088E+04 -2.030608E+03 -1.301673E+04
       182   7  5.289411E+05  4.742261E+03  5.235597E+03 -8.374266E+04 -6.733160E+03  1.620133E+03
       182   8  3.979210E+05 -2.722135E+04 -2.286112E+04 -5.579786E+04 -7.631296E+03 -5.695845E+03
       182   9  2.669423E+05 -5.905125E+04 -5.037177E+04 -8.363334E+04 -8.528187E+03 -1.301041E+04
       182  10  4.907633E+05 -4.423872E+03 -2.438805E+03 -8.369916E+04  9.683157E-10  9.074182E-10
       182  11  6.217585E+05  2.738705E+04  2.647119E+04 -5.586425E+04 -3.018408E-10  1.260689E-09
       182  12  7.527995E+05  5.933293E+04  5.596960E+04 -8.380840E+04  2.782882E-10 -9.041019E-10
       182  13  5.098520E+05  1.591985E+02  1.398361E+03 -8.372091E+04 -1.368417E-09  1.785468E-10
       182  14  5.098338E+05  8.324088E+01  1.805337E+03 -5.583107E+04  1.418281E-11 -6.569000E-10
       182  15  5.098433E+05  1.427061E+02  2.800475E+03 -8.372090E+04 -2.118797E-09  2.787705E-10
       182  16  5.289411E+05  4.742246E+03  5.235507E+03 -8.374265E+04  2.698139E-10  6.615914E-11
       182  17  3.979209E+05 -2.722140E+04 -2.286129E+04 -5.579790E+04 -1.649234E-10 -4.129846E-10
       182  18  2.669422E+05 -5.905145E+04 -5.037223E+04 -8.363343E+04 -1.527497E-09  5.327311E-10
       182  19  4.907633E+05 -4.423858E+03 -2.438726E+03 -8.369915E+04 -6.269972E+03 -1.605760E+03
       182  20  6.217585E+05  2.738709E+04  2.647131E+04 -5.586428E+04 -5.369288E+03  5.709283E+03
       182  21  7.527996E+05  5.933311E+04  5.596996E+04 -8.380845E+04 -4.469480E+03  1.302304E+04
       182  22  5.098520E+05  1.592013E+02  1.398366E+03 -8.372091E+04  2.314958E+02 -1.612946E+03
       182  23  5.098339E+05  8.327615E+01  1.805400E+03 -5.583107E+04  1.131582E+03  5.702564E+03
       182  24  5.098433E+05  1.428892E+02  2.800801E+03 -8.372088E+04  2.030608E+03  1.301673E+04
       182  25  5.289411E+05  4.742261E+03  5.235597E+03 -8.374266E+04  6.733160E+03 -1.620133E+03
       182  26  3.979210E+05 -2.722135E+04 -2.286112E+04 -5.579786E+04  7.631296E+03  5.695845E+03
       182  27  2.669423E+05 -5.905125E+04 -5.037177E+04 -8.363334E+04  8.528187E+03  1.301041E+04
       183   1  8.616534E+05  8.594690E+04  8.145847E+04 -8.380475E+04  3.912601E+03 -1.728965E+04
       183   2  9.926591E+05  1.177517E+05  1.125030E+05 -5.589865E+04  8.351171E+02 -2.459629E+04
       183   3  1.124249E+06  1.502504E+05  1.457165E+05 -8.387361E+04 -2.238353E+03 -3.183963E+04
       183   4  5.099465E+05  8.779265E+01  3.594063E+03 -8.374413E+04 -2.612658E+03 -1.728403E+04
       183   5  5.096484E+05 -5.300587E+01  6.074068E+03 -5.580204E+04 -5.632343E+03 -2.459262E+04
       183   6  5.099087E+05  4.915849E+02  1.068503E+04 -8.374367E+04 -8.647381E+03 -3.183782E+04
       183   7  1.583550E+05 -8.577963E+04 -7.427783E+04 -8.368351E+04 -9.134266E+03 -1.727840E+04
       183   8  2.685560E+04 -1.178733E+05 -1.003690E+05 -5.570546E+04 -1.209484E+04 -2.458895E+04
       183   9 -1.040786E+05 -1.492924E+05 -1.243693E+05 -8.361378E+04 -1.505015E+04 -3.183602E+04
       183  10  8.616533E+05  8.594657E+04  8.145787E+04 -8.380469E+04  3.926104E-10 -8.239995E-10
       183  11  9.926590E+05  1.177510E+05  1.125018E+05 -5.589863E+04  7.949093E-10 -2.893744E-11
       183  12  1.124248E+06  1.502493E+05  1.457145E+05 -8.387366E+04 -2.421981E-10 -2.597028E-10
       183  13  5.099464E+05  8.746995E+01  3.593489E+03 -8.374416E+04 -1.423844E-09  4.046806E-10
       183  14  5.096482E+05 -5.366400E+01  6.072872E+03 -5.580216E+04 -2.742915E-10 -5.403118E-10
       183  15  5.099083E+05  4.904760E+02  1.068298E+04 -8.374389E+04  4.620152E-12 -5.371534E-10
       183  16  1.583548E+05 -8.577997E+04 -7.427855E+04 -8.368363E+04 -7.961485E-10  5.508819E-10
       183  17  2.685528E+04 -1.178740E+05 -1.003704E+05 -5.570570E+04 -7.802358E-10  5.491448E-10
       183  18 -1.040792E+05 -1.492936E+05 -1.243716E+05 -8.361417E+04 -7.102302E-10  2.935197E-11
       183  19  8.616534E+05  8.594690E+04  8.145847E+04 -8.380475E+04 -3.912601E+03  1.728965E+04
       183  20  9.926591E+05  1.177517E+05  1.125030E+05 -5.589865E+04 -8.351171E+02  2.459629E+04
       183  21  1.124249E+06  1.502504E+05  1.457165E+05 -8.387361E+04  2.238353E+03  3.183963E+04
       183  22  5.099465E+05  8.779265E+01  3.594063E+03 -8.374413E+04  2.612658E+03  1.728403E+04
       183  23  5.096484E+05 -5.300587E+01  6.074068E+03 -5.580204E+04  5.632343E+03  2.459262E+04
       183  24  5.099087E+05  4.915849E+02  1.068503E+04 -8.374367E+04  8.647381E+03  3.183782E+04
       183  25  1.583550E+05 -8.577963E+04 -7.427783E+04 -8.368351E+04  9.134266E+03  1.727840E+04
       183  26  2.685560E+04 -1.178733E+05 -1.003690E+05 -5.570546E+04  1.209484E+04  2.458895E+04
       183  27 -1.040786E+05 -1.492924E+05 -1.243693E+05 -8.361378E+04  1.505015E+04  3.183602E+04
       184   1  1.234217E+06  1.759247E+05  1.736561E+05 -8.219962E+04 -3.931379E+03 -3.625823E+04
       184   2  1.363807E+06  2.080950E+05  2.126333E+05 -5.663385E+04 -1.742872E+04 -4.321610E+04
       184   3  1.498003E+06  2.505904E+05  2.630188E+05 -8.712614E+04 -3.092130E+04 -4.859539E+04
       184   4  5.107190E+05 -5.729551E+02  1.392842E+04 -8.378393E+04 -1.081838E+04 -3.625779E+04
       184   5  5.085072E+05 -5.013287E+02  2.402924E+04 -5.575199E+04 -2.289679E+04 -4.321940E+04
       184   6  5.106486E+05  9.659909E+03  4.456678E+04 -8.378238E+04 -3.496767E+04 -4.860147E+04
       184   7 -2.122907E+05 -1.771058E+05 -1.458313E+05 -8.536627E+04 -1.769745E+04 -3.625732E+04
       184   8 -3.461104E+05 -2.091467E+05 -1.646197E+05 -5.487129E+04 -2.835742E+04 -4.322272E+04
       184   9 -4.757973E+05 -2.313362E+05 -1.739455E+05 -8.044393E+04 -3.900766E+04 -4.860759E+04
       184  10  1.234217E+06  1.759233E+05  1.736536E+05 -8.219974E+04  8.289704E-10 -1.994680E-10
       184  11  1.363806E+06  2.080929E+05  2.126292E+05 -5.663446E+04 -1.989473E-10 -1.279894E-11
       184  12  1.498002E+06  2.505876E+05  2.630126E+05 -8.712735E+04  2.443781E-10  1.884457E-10
       184  13  5.107186E+05 -5.743986E+02  1.392573E+04 -8.378424E+04 -6.641184E-10  1.383854E-10
       184  14  5.085061E+05 -5.034756E+02  2.402475E+04 -5.575278E+04 -7.292627E-10  2.906519E-10
       184  15  5.106467E+05  9.657043E+03  4.456004E+04 -8.378374E+04 -2.895064E-10 -3.367892E-10
       184  16 -2.122914E+05 -1.771073E+05 -1.458343E+05 -8.536679E+04  1.020683E-10  2.769001E-10
       184  17 -3.461118E+05 -2.091489E+05 -1.646247E+05 -5.487227E+04 -1.527485E-10  1.383629E-10
       184  18 -4.757996E+05 -2.313391E+05 -1.739528E+05 -8.044546E+04  4.226900E-10 -6.964621E-10
       184  19  1.234217E+06  1.759247E+05  1.736561E+05 -8.219962E+04  3.931379E+03  3.625823E+04
       184  20  1.363807E+06  2.080950E+05  2.126333E+05 -5.663385E+04  1.742872E+04  4.321610E+04
       184  21  1.498003E+06  2.505904E+05  2.630188E+05 -8.712614E+04  3.092130E+04  4.859539E+04
       184  22  5.107190E+05 -5.729551E+02  1.392842E+04 -8.378393E+04  1.081838E+04  3.625779E+04
       184  23  5.085072E+05 -5.013287E+02  2.402924E+04 -5.575199E+04  2.289679E+04  4.321940E+04
       184  24  5.106486E+05  9.659909E+03  4.456678E+04 -8.378238E+04  3.496767E+04  4.860147E+04
       184  25 -2.122907E+05 -1.771058E+05 -1.458313E+05 -8.536627E+04  1.769745E+04  3.625732E+04
       184  26 -3.461104E+05 -2.091467E+05 -1.646197E+05 -5.487129E+04  2.835742E+04  4.322272E+04
       184  27 -4.757973E+05 -2.313362E+05 -1.739455E+05 -8.044393E+04  3.900766E+04  4.860759E+04
       185   1  1.618475E+06  2.586760E+05  2.976461E+05 -5.804808E+04 -2.836879E+04 -5.616522E+04
       185   2  1.724215E+06  2.980934E+05  3.700302E+05 -8.349209E+04 -1.105886E+05 -5.479899E+04
       185   3  1.884809E+06  5.116506E+05  5.395198E+05 -1.640036E+05 -1.928745E+05 -1.773197E+04
       185   4  5.206184E+05 -8.975501E+03  5.599283E+04 -8.352146E+04 -4.295500E+04 -5.617547E+04
       185   5  4.958438E+05 -2.224491E+03  9.499159E+04 -5.606899E+04 -9.332157E+04 -5.479911E+04
       185   6  5.204839E+05  1.733204E+05  2.091089E+05 -8.367496E+04 -1.437323E+05 -1.770433E+04
       185   7 -5.761116E+05 -2.767052E+05 -1.857331E+05 -1.089494E+05 -5.751573E+04 -5.618454E+04
       185   8 -7.311232E+05 -3.026420E+05 -1.801408E+05 -2.870079E+04 -7.608818E+04 -5.479773E+04
       185   9 -8.421250E+05 -1.651202E+05 -1.214234E+05 -3.523350E+03 -9.469730E+04 -1.766401E+04
       185  10  1.618473E+06  2.586724E+05  2.976386E+05 -5.804937E+04 -2.256527E-10  2.683353E-10
       185  11  1.724201E+06  2.980869E+05  3.700016E+05 -8.349696E+04  2.908120E-10 -9.526825E-11
       185  12  1.884769E+06  5.116403E+05  5.394495E+05 -1.640063E+05 -2.280182E-10 -3.028181E-10
       185  13  5.206156E+05 -8.979385E+03  5.598343E+04 -8.352341E+04 -7.832562E-10  1.677520E-10
       185  14  4.958336E+05 -2.230052E+03  9.496959E+04 -5.607311E+04 -1.511735E-09  1.162486E-09
       185  15  5.204616E+05  1.733146E+05  2.090695E+05 -8.367701E+04  6.834135E-10 -1.319966E-10
       185  16 -5.761160E+05 -2.767095E+05 -1.857452E+05 -1.089520E+05 -5.682276E-10 -4.891253E-10
       185  17 -7.311302E+05 -3.026468E+05 -1.801573E+05 -2.870415E+04 -8.929198E-10  2.146407E-10
       185  18 -8.421347E+05 -1.651229E+05 -1.214408E+05 -3.524698E+03  4.101933E-10 -3.470622E-10
       185  19  1.618475E+06  2.586760E+05  2.976461E+05 -5.804808E+04  2.836879E+04  5.616522E+04
       185  20  1.724215E+06  2.980934E+05  3.700302E+05 -8.349209E+04  1.105886E+05  5.479899E+04
       185  21  1.884809E+06  5.116506E+05  5.395198E+05 -1.640036E+05  1.928745E+05  1.773197E+04
       185  22  5.206184E+05 -8.975501E+03  5.599283E+04 -8.352146E+04  4.295500E+04  5.617547E+04
       185  23  4.958438E+05 -2.224491E+03  9.499159E+04 -5.606899E+04  9.332157E+04  5.479911E+04
       185  24  5.204839E+05  1.733204E+05  2.091089E+05 -8.367496E+04  1.437323E+05  1.770433E+04
       185  25 -5.761116E+05 -2.767052E+05 -1.857331E+05 -1.089494E+05  5.751573E+04  5.618454E+04
       185  26 -7.311232E+05 -3.026420E+05 -1.801408E+05 -2.870079E+04  7.608818E+04  5.479773E+04
       185  27 -8.421250E+05 -1.651202E+05 -1.214234E+05 -3.523350E+03  9.469730E+04  1.766401E+04
       186   1  3.196718E+05  1.127154E+06  3.321359E+05 -2.655964E+05  9.052404E+03  9.456071E+04
       186   2  1.420991E+05  7.610006E+05  1.800331E+05 -1.644261E+05  2.353160E+04  4.465512E+04
       186   3  5.323181E+04  4.229225E+05  8.241109E+04 -2.117822E+05  1.085092E+04 -5.283196E+03
       186   4  8.700873E+04  1.924106E+05  1.039604E+05 -2.235136E+05  9.118662E+03  6.966594E+04
       186   5 -2.856806E+02  1.805653E+05  4.866089E+04 -1.493596E+05  2.353595E+04  4.394498E+04
       186   6 -3.009545E+03  1.925354E+05  3.111562E+04 -2.237253E+05  1.078623E+04  1.816278E+04
       186   7 -1.457121E+05 -7.415318E+05 -1.242755E+05 -1.814936E+05  9.181608E+03  4.480845E+04
       186   8 -1.426928E+05 -3.995569E+05 -8.273288E+04 -1.343071E+05  2.354027E+04  4.323548E+04
       186   9 -5.925364E+04 -3.780065E+04 -2.018102E+04 -2.356639E+05  1.072063E+04  4.160015E+04
       186  10  3.196694E+05  1.127144E+06  3.321189E+05 -2.655970E+05  3.136899E-10  1.198468E-09
       186  11  1.420979E+05  7.609983E+05  1.800283E+05 -1.644270E+05 -6.427275E-11  4.448471E-10
       186  12  5.323168E+04  4.229224E+05  8.241082E+04 -2.117822E+05 -5.583274E-10 -7.802538E-10
       186  13  8.700734E+04  1.924054E+05  1.039511E+05 -2.235141E+05  1.497542E-09  5.186469E-10
       186  14 -2.867941E+02  1.805631E+05  4.865622E+04 -1.493605E+05 -1.268257E-09 -5.774389E-10
       186  15 -3.009758E+03  1.925350E+05  3.111478E+04 -2.237255E+05  3.382826E-10  4.789500E-10
       186  16 -1.457128E+05 -7.415340E+05 -1.242794E+05 -1.814939E+05  3.028782E-10 -9.251650E-10
       186  17 -1.426939E+05 -3.995591E+05 -8.273744E+04 -1.343079E+05  2.728964E-09 -6.914423E-10
       186  18 -5.925423E+04 -3.780254E+04 -2.018449E+04 -2.356643E+05 -3.997664E-10  7.334173E-10
       186  19  3.196718E+05  1.127154E+06  3.321359E+05 -2.655964E+05 -9.052404E+03 -9.456071E+04
       186  20  1.420991E+05  7.610006E+05  1.800331E+05 -1.644261E+05 -2.353160E+04 -4.465512E+04
       186  21  5.323181E+04  4.229225E+05  8.241109E+04 -2.117822E+05 -1.085092E+04  5.283196E+03
       186  22  8.700873E+04  1.924106E+05  1.039604E+05 -2.235136E+05 -9.118662E+03 -6.966594E+04
       186  23 -2.856806E+02  1.805653E+05  4.866089E+04 -1.493596E+05 -2.353595E+04 -4.394498E+04
       186  24 -3.009545E+03  1.925354E+05  3.111562E+04 -2.237253E+05 -1.078623E+04 -1.816278E+04
       186  25 -1.457121E+05 -7.415318E+05 -1.242755E+05 -1.814936E+05 -9.181608E+03 -4.480845E+04
       186  26 -1.426928E+05 -3.995569E+05 -8.273288E+04 -1.343071E+05 -2.354027E+04 -4.323548E+04
       186  27 -5.925364E+04 -3.780065E+04 -2.018102E+04 -2.356639E+05 -1.072063E+04 -4.160015E+04
       187   1 -9.283233E+03  1.256794E+05  1.298691E+04 -2.261197E+05 -3.286608E+03 -2.587656E+03
       187   2 -1.006695E+05 -2.274751E+05 -7.142344E+04 -1.484458E+05 -2.087212E+04 -1.183962E+04
       187   3 -1.830928E+05 -5.778440E+05 -1.477704E+05 -2.204556E+05 -3.752797E+04 -2.107464E+04
       187   4  5.867449E+03  1.878780E+05  2.662695E+04 -2.239232E+05 -3.331433E+03  1.346561E+04
       187   5  3.954986E+02  1.864293E+05  1.997154E+04 -1.490874E+05 -2.091055E+04  3.381677E+03
       187   6  4.036206E+03  1.877937E+05  2.196125E+04 -2.239278E+05 -3.756064E+04 -6.690368E+03
       187   7  2.101803E+04  2.500807E+05  4.026773E+04 -2.217264E+05 -3.376142E+03  2.952046E+04
       187   8  1.014491E+05  6.004942E+05  1.113568E+05 -1.497294E+05 -2.094900E+04  1.861301E+04
       187   9  1.911258E+05  9.539792E+05  1.916573E+05 -2.274039E+05 -3.759345E+04  7.711462E+03
       187  10 -9.283246E+03  1.256794E+05  1.298688E+04 -2.261198E+05 -5.434813E-10  3.403736E-10
       187  11 -1.006700E+05 -2.274753E+05 -7.142452E+04 -1.484460E+05  5.156540E-10 -5.852009E-11
       187  12 -1.830944E+05 -5.778448E+05 -1.477739E+05 -2.204562E+05  3.089654E-10 -1.345664E-11
       187  13  5.867388E+03  1.878778E+05  2.662659E+04 -2.239231E+05 -3.510515E-10  7.114461E-10
       187  14  3.950260E+02  1.864291E+05  1.997070E+04 -1.490874E+05  7.560861E-10 -6.827860E-10
       187  15  4.034679E+03  1.877932E+05  2.195851E+04 -2.239280E+05 -6.177370E-10  3.670194E-10
       187  16  2.101778E+04  2.500798E+05  4.026607E+04 -2.217263E+05 -1.220874E-09  3.665117E-11
       187  17  1.014485E+05  6.004937E+05  1.113554E+05 -1.497290E+05 -1.615883E-09 -3.638188E-10
       187  18  1.911242E+05  9.539788E+05  1.916545E+05 -2.274036E+05 -3.735097E-10 -1.265015E-11
       187  19 -9.283233E+03  1.256794E+05  1.298691E+04 -2.261197E+05  3.286608E+03  2.587656E+03
       187  20 -1.006695E+05 -2.274751E+05 -7.142344E+04 -1.484458E+05  2.087212E+04  1.183962E+04
       187  21 -1.830928E+05 -5.778440E+05 -1.477704E+05 -2.204556E+05  3.752797E+04  2.107464E+04
       187  22  5.867449E+03  1.878780E+05  2.662695E+04 -2.239232E+05  3.331433E+03 -1.346561E+04
       187  23  3.954986E+02  1.864293E+05  1.997154E+04 -1.490874E+05  2.091055E+04 -3.381677E+03
       187  24  4.036206E+03  1.877937E+05  2.196125E+04 -2.239278E+05  3.756064E+04  6.690368E+03
       187  25  2.101803E+04  2.500807E+05  4.026773E+04 -2.217264E+05  3.376142E+03 -2.952046E+04
       187  26  1.014491E+05  6.004942E+05  1.113568E+05 -1.497294E+05  2.094900E+04 -1.861301E+04
       187  27  1.911258E+05  9.539792E+05  1.916573E+05 -2.274039E+05  3.759345E+04 -7.711462E+03
       188   1 -2.604724E+05 -8.675270E+05 -2.094972E+05 -2.304155E+05 -5.345748E+04 -3.870334E+04
       188   2 -3.454939E+05 -1.224870E+06 -2.814715E+05 -1.379517E+05 -6.123469E+04 -1.448156E+04
       188   3 -3.781821E+05 -1.571952E+06 -3.561189E+05 -1.933076E+05 -2.082938E+04  9.788607E+03
       188   4 -1.977277E+03  1.909439E+05  2.426251E+04 -2.235362E+05 -5.351700E+04 -1.050707E+04
       188   5 -5.771248E+02  1.820330E+05  3.506899E+04 -1.495918E+05 -6.119858E+04 -2.903278E+04
       188   6  6.052122E+04  1.906531E+05  7.287949E+04 -2.234375E+05 -2.074789E+04 -4.749647E+04
       188   7  2.564431E+05  1.250464E+06  2.579563E+05 -2.166443E+05 -5.357583E+04  1.773677E+04
       188   8  3.442047E+05  1.590780E+06  3.514843E+05 -1.612576E+05 -6.116197E+04 -4.361663E+04
       188   9  4.990007E+05  1.956106E+06  5.016654E+05 -2.536519E+05 -2.066097E+04 -1.049439E+05
       188  10 -2.604759E+05 -8.675294E+05 -2.095054E+05 -2.304172E+05  8.025402E-11  4.704979E-10
       188  11 -3.454980E+05 -1.224871E+06 -2.814790E+05 -1.379524E+05  1.488378E-09  4.664715E-10
       188  12 -3.781826E+05 -1.571952E+06 -3.561199E+05 -1.933075E+05  3.479044E-10  2.115026E-10
       188  13 -1.980383E+03  1.909430E+05  2.425692E+04 -2.235367E+05  2.098086E-10  4.694465E-10
       188  14 -5.813736E+02  1.820311E+05  3.506036E+04 -1.495932E+05  5.853241E-10 -4.566578E-10
       188  15  6.052015E+04  1.906506E+05  7.287444E+04 -2.234383E+05  2.463794E-10  1.595938E-10
       188  16  2.564400E+05  1.250463E+06  2.579503E+05 -2.166435E+05 -1.045554E-09 -7.230394E-11
       188  17  3.442001E+05  1.590777E+06  3.514737E+05 -1.612597E+05 -1.666760E-10 -8.217833E-10
       188  18  4.989973E+05  1.956094E+06  5.016439E+05 -2.536536E+05  1.084248E-10 -3.804496E-10
       188  19 -2.604724E+05 -8.675270E+05 -2.094972E+05 -2.304155E+05  5.345748E+04  3.870334E+04
       188  20 -3.454939E+05 -1.224870E+06 -2.814715E+05 -1.379517E+05  6.123469E+04  1.448156E+04
       188  21 -3.781821E+05 -1.571952E+06 -3.561189E+05 -1.933076E+05  2.082938E+04 -9.788607E+03
       188  22 -1.977277E+03  1.909439E+05  2.426251E+04 -2.235362E+05  5.351700E+04  1.050707E+04
       188  23 -5.771248E+02  1.820330E+05  3.506899E+04 -1.495918E+05  6.119858E+04  2.903278E+04
       188  24  6.052122E+04  1.906531E+05  7.287949E+04 -2.234375E+05  2.074789E+04  4.749647E+04
       188  25  2.564431E+05  1.250464E+06  2.579563E+05 -2.166443E+05  5.357583E+04 -1.773677E+04
       188  26  3.442047E+05  1.590780E+06  3.514843E+05 -1.612576E+05  6.116197E+04  4.361663E+04
       188  27  4.990007E+05  1.956106E+06  5.016654E+05 -2.536519E+05  2.066097E+04  1.049439E+05
       189   1 -2.760458E+06 -1.041977E+06 -6.427080E+05 -1.005855E+06 -2.663512E+05 -8.271391E+04
       189   2 -2.664318E+06 -6.675214E+05 -4.002144E+05 -9.851365E+05 -1.723491E+05 -9.851315E+03
       189   3 -2.654345E+06 -5.917031E+05 -3.107856E+05 -9.291737E+05 -6.645590E+04  3.153660E+04
       189   4 -1.738794E+06 -5.390476E+05 -3.462089E+05 -6.069130E+05 -2.263878E+05 -6.771444E+04
       189   5 -1.679419E+06 -2.598478E+05 -1.496239E+05 -6.743770E+05 -1.583460E+05 -4.598889E+03
       189   6 -1.700883E+06 -2.738849E+05 -8.529883E+04 -7.066485E+05 -7.843448E+04  2.702963E+04
       189   7 -7.160734E+05 -3.581635E+04 -4.980188E+04 -2.073004E+05 -1.863516E+05 -5.266852E+04
       189   8 -6.935563E+05  1.479541E+05  1.008885E+05 -3.631457E+05 -1.443186E+05  6.650052E+02
       189   9 -7.465250E+05  4.395162E+04  1.401240E+05 -4.838321E+05 -9.043310E+04  2.251698E+04
       189  10 -2.760536E+06 -1.042003E+06 -6.428549E+05 -1.005873E+06  2.307663E-10  1.686514E-12
       189  11 -2.664350E+06 -6.675295E+05 -4.002706E+05 -9.851379E+05 -6.756176E-10 -5.280830E-10
       189  12 -2.654350E+06 -5.917053E+05 -3.107958E+05 -9.291720E+05 -4.873450E-10  2.222894E-10
       189  13 -1.738851E+06 -5.390664E+05 -3.463141E+05 -6.069254E+05  2.626562E-10 -8.571482E-10
       189  14 -1.679446E+06 -2.598546E+05 -1.496712E+05 -6.743776E+05 -1.034866E-09 -1.021994E-09
       189  15 -1.700890E+06 -2.738873E+05 -8.531178E+04 -7.066468E+05  1.075950E-09  9.442434E-11
       189  16 -7.161115E+05 -3.582867E+04 -4.987244E+04 -2.073083E+05 -1.556432E-10  3.692855E-11
       189  17 -6.935787E+05  1.479485E+05  1.008493E+05 -3.631457E+05 -1.073506E-09  4.349700E-11
       189  18 -7.465339E+05  4.394888E+04  1.401076E+05 -4.838305E+05 -1.025538E-09  6.412224E-10
       189  19 -2.760458E+06 -1.041977E+06 -6.427080E+05 -1.005855E+06  2.663512E+05  8.271391E+04
       189  20 -2.664318E+06 -6.675214E+05 -4.002144E+05 -9.851365E+05  1.723491E+05  9.851315E+03
       189  21 -2.654345E+06 -5.917031E+05 -3.107856E+05 -9.291737E+05  6.645590E+04 -3.153660E+04
       189  22 -1.738794E+06 -5.390476E+05 -3.462089E+05 -6.069130E+05  2.263878E+05  6.771444E+04
       189  23 -1.679419E+06 -2.598478E+05 -1.496239E+05 -6.743770E+05  1.583460E+05  4.598889E+03
       189  24 -1.700883E+06 -2.738849E+05 -8.529883E+04 -7.066485E+05  7.843448E+04 -2.702963E+04
       189  25 -7.160734E+05 -3.581635E+04 -4.980188E+04 -2.073004E+05  1.863516E+05  5.266852E+04
       189  26 -6.935563E+05  1.479541E+05  1.008885E+05 -3.631457E+05  1.443186E+05 -6.650052E+02
       189  27 -7.465250E+05  4.395162E+04  1.401240E+05 -4.838321E+05  9.043310E+04 -2.251698E+04
       190   1 -2.531241E+06 -6.210430E+05 -2.750040E+05 -9.274208E+05 -6.260308E+04  2.578040E+04
       190   2 -2.451176E+06 -5.504931E+05 -2.183827E+05 -8.856492E+05 -4.238697E+04  2.914904E+04
       190   3 -2.349016E+06 -5.282191E+05 -1.804585E+05 -8.752341E+05 -2.161639E+04  3.103563E+04
       190   4 -1.689551E+06 -3.011224E+05 -6.776988E+04 -6.906782E+05 -6.510508E+04  2.483432E+04
       190   5 -1.699502E+06 -2.687403E+05 -3.465633E+04 -6.781265E+05 -4.609319E+04  2.775313E+04
       190   6 -1.687118E+06 -2.843782E+05 -1.926320E+04 -6.969338E+05 -2.653021E+04  2.918936E+04
       190   7 -8.471551E+05  1.885566E+04  1.394112E+05 -4.536389E+05 -6.761076E+04  2.388681E+04
       190   8 -9.472666E+05  1.305384E+04  1.490279E+05 -4.703735E+05 -4.980431E+04  2.635536E+04
       190   9 -1.024786E+06 -4.050986E+04  1.418995E+05 -5.184612E+05 -3.144975E+04  2.734100E+04
       190  10 -2.531246E+06 -6.210448E+05 -2.750126E+05 -9.274195E+05  8.394270E-10  6.199097E-10
       190  11 -2.451178E+06 -5.504945E+05 -2.183876E+05 -8.856482E+05  5.388506E-10 -3.039989E-10
       190  12 -2.349017E+06 -5.282203E+05 -1.804612E+05 -8.752336E+05 -5.115355E-10 -5.368799E-10
       190  13 -1.689556E+06 -3.011242E+05 -6.777902E+04 -6.906769E+05  7.863435E-11  3.512801E-10
       190  14 -1.699505E+06 -2.687417E+05 -3.466178E+04 -6.781255E+05 -5.953167E-10 -4.605779E-10
       190  15 -1.687119E+06 -2.843793E+05 -1.926612E+04 -6.969332E+05  3.318389E-10 -5.159643E-10
       190  16 -8.471601E+05  1.885382E+04  1.394015E+05 -4.536376E+05 -1.628281E-09 -6.399397E-11
       190  17 -9.472694E+05  1.305243E+04  1.490220E+05 -4.703725E+05 -8.324648E-10 -1.091831E-10
       190  18 -1.024787E+06 -4.051093E+04  1.418962E+05 -5.184605E+05  1.351161E-09 -1.325110E-10
       190  19 -2.531241E+06 -6.210430E+05 -2.750040E+05 -9.274208E+05  6.260308E+04 -2.578040E+04
       190  20 -2.451176E+06 -5.504931E+05 -2.183827E+05 -8.856492E+05  4.238697E+04 -2.914904E+04
       190  21 -2.349016E+06 -5.282191E+05 -1.804585E+05 -8.752341E+05  2.161639E+04 -3.103563E+04
       190  22 -1.689551E+06 -3.011224E+05 -6.776988E+04 -6.906782E+05  6.510508E+04 -2.483432E+04
       190  23 -1.699502E+06 -2.687403E+05 -3.465633E+04 -6.781265E+05  4.609319E+04 -2.775313E+04
       190  24 -1.687118E+06 -2.843782E+05 -1.926320E+04 -6.969338E+05  2.653021E+04 -2.918936E+04
       190  25 -8.471551E+05  1.885566E+04  1.394112E+05 -4.536389E+05  6.761076E+04 -2.388681E+04
       190  26 -9.472666E+05  1.305384E+04  1.490279E+05 -4.703735E+05  4.980431E+04 -2.635536E+04
       190  27 -1.024786E+06 -4.050986E+04  1.418995E+05 -5.184612E+05  3.144975E+04 -2.734100E+04
       191   1 -2.264053E+06 -5.014290E+05 -1.553433E+05 -8.542538E+05 -1.803936E+04  2.854002E+04
       191   2 -2.184022E+06 -4.489230E+05 -1.256286E+05 -8.101514E+05 -1.191346E+04  2.457198E+04
       191   3 -2.073296E+06 -4.291031E+05 -9.921901E+04 -8.020500E+05 -5.753649E+03  2.050283E+04
       191   4 -1.685967E+06 -2.861620E+05 -1.468621E+04 -6.960054E+05 -2.255679E+04  2.684383E+04
       191   5 -1.701228E+06 -2.692956E+05 -7.964320E+03 -6.781963E+05 -1.651082E+04  2.284759E+04
       191   6 -1.685787E+06 -2.850978E+05 -4.481198E+03 -6.963904E+05 -1.043162E+04  1.875006E+04
       191   7 -1.107553E+06 -7.087297E+04  1.259451E+05 -5.376233E+05 -2.707878E+04  2.514592E+04
       191   8 -1.218204E+06 -8.965227E+04  1.096826E+05 -5.461478E+05 -2.111208E+04  2.112174E+04
       191   9 -1.298127E+06 -1.410817E+05  9.024588E+04 -5.906702E+05 -1.511280E+04  1.699609E+04
       191  10 -2.264053E+06 -5.014300E+05 -1.553454E+05 -8.542534E+05 -7.260049E-10 -3.083463E-10
       191  11 -2.184022E+06 -4.489237E+05 -1.256300E+05 -8.101512E+05  4.589963E-10 -9.108089E-11
       191  12 -2.073296E+06 -4.291036E+05 -9.921986E+04 -8.020499E+05 -3.964574E-10  2.356598E-10
       191  13 -1.685968E+06 -2.861629E+05 -1.468852E+04 -6.960049E+05  8.588075E-11 -3.130167E-10
       191  14 -1.701229E+06 -2.692962E+05 -7.965812E+03 -6.781960E+05  1.450955E-09  5.401609E-10
       191  15 -1.685787E+06 -2.850982E+05 -4.482062E+03 -6.963902E+05  1.595611E-10  7.893729E-10
       191  16 -1.107554E+06 -7.087384E+04  1.259426E+05 -5.376228E+05  5.704815E-10 -4.960187E-10
       191  17 -1.218204E+06 -8.965286E+04  1.096809E+05 -5.461474E+05 -8.630893E-10 -4.657094E-10
       191  18 -1.298128E+06 -1.410821E+05  9.024491E+04 -5.906700E+05 -2.178076E-10 -6.039243E-10
       191  19 -2.264053E+06 -5.014290E+05 -1.553433E+05 -8.542538E+05  1.803936E+04 -2.854002E+04
       191  20 -2.184022E+06 -4.489230E+05 -1.256286E+05 -8.101514E+05  1.191346E+04 -2.457198E+04
       191  21 -2.073296E+06 -4.291031E+05 -9.921901E+04 -8.020500E+05  5.753649E+03 -2.050283E+04
       191  22 -1.685967E+06 -2.861620E+05 -1.468621E+04 -6.960054E+05  2.255679E+04 -2.684383E+04
       191  23 -1.701228E+06 -2.692956E+05 -7.964320E+03 -6.781963E+05  1.651082E+04 -2.284759E+04
       191  24 -1.685787E+06 -2.850978E+05 -4.481198E+03 -6.963904E+05  1.043162E+04 -1.875006E+04
       191  25 -1.107553E+06 -7.087297E+04  1.259451E+05 -5.376233E+05  2.707878E+04 -2.514592E+04
       191  26 -1.218204E+06 -8.965227E+04  1.096826E+05 -5.461478E+05  2.111208E+04 -2.112174E+04
       191  27 -1.298127E+06 -1.410817E+05  9.024588E+04 -5.906702E+05  1.511280E+04 -1.699609E+04
       192   1 -1.989623E+06 -3.982654E+05 -7.719709E+04 -7.794776E+05 -3.869670E+03  1.746053E+04
       192   2 -1.908757E+06 -3.463010E+05 -5.263326E+04 -7.347121E+05 -6.779590E+02  1.221273E+04
       192   3 -1.796119E+06 -3.263446E+05 -2.888820E+04 -7.266084E+05  2.518763E+03  6.946290E+03
       192   4 -1.685580E+06 -2.852682E+05 -3.455505E+03 -6.964117E+05 -8.548126E+03  1.570840E+04
       192   5 -1.701450E+06 -2.692229E+05 -2.128801E+03 -6.780928E+05 -5.371430E+03  1.045574E+04
       192   6 -1.685555E+06 -2.851822E+05 -1.608205E+03 -6.964382E+05 -2.189926E+03  5.184424E+03
       192   7 -1.381446E+06 -1.722648E+05  7.027928E+04 -6.133087E+05 -1.322908E+04  1.395533E+04
       192   8 -1.494102E+06 -1.921421E+05  4.837238E+04 -6.214564E+05 -1.006660E+04  8.698116E+03
       192   9 -1.574980E+06 -2.440192E+05  2.567080E+04 -6.662633E+05 -6.899509E+03  3.422223E+03
       192  10 -1.989623E+06 -3.982657E+05 -7.719769E+04 -7.794775E+05  7.882358E-10  4.116695E-10
       192  11 -1.908757E+06 -3.463011E+05 -5.263354E+04 -7.347121E+05  3.938771E-09  1.005422E-09
       192  12 -1.796119E+06 -3.263447E+05 -2.888830E+04 -7.266084E+05  2.168884E-09  3.386494E-10
       192  13 -1.685580E+06 -2.852685E+05 -3.456106E+03 -6.964116E+05  1.852506E-09  5.631873E-10
       192  14 -1.701450E+06 -2.692230E+05 -2.129060E+03 -6.780928E+05  4.016896E-09  5.804450E-10
       192  15 -1.685555E+06 -2.851823E+05 -1.608265E+03 -6.964382E+05 -8.054395E-10 -3.747281E-10
       192  16 -1.381446E+06 -1.722650E+05  7.027858E+04 -6.133085E+05  2.608673E-09  5.760259E-10
       192  17 -1.494102E+06 -1.921423E+05  4.837205E+04 -6.214564E+05  4.343707E-09  1.493556E-09
       192  18 -1.574980E+06 -2.440193E+05  2.567069E+04 -6.662633E+05 -4.849650E-09 -2.226945E-09
       192  19 -1.989623E+06 -3.982654E+05 -7.719709E+04 -7.794776E+05  3.869670E+03 -1.746053E+04
       192  20 -1.908757E+06 -3.463010E+05 -5.263326E+04 -7.347121E+05  6.779590E+02 -1.221273E+04
       192  21 -1.796119E+06 -3.263446E+05 -2.888820E+04 -7.266084E+05 -2.518763E+03 -6.946290E+03
       192  22 -1.685580E+06 -2.852682E+05 -3.455505E+03 -6.964117E+05  8.548126E+03 -1.570840E+04
       192  23 -1.701450E+06 -2.692229E+05 -2.128801E+03 -6.780928E+05  5.371430E+03 -1.045574E+04
       192  24 -1.685555E+06 -2.851822E+05 -1.608205E+03 -6.964382E+05  2.189926E+03 -5.184424E+03
       192  25 -1.381446E+06 -1.722648E+05  7.027928E+04 -6.133087E+05  1.322908E+04 -1.395533E+04
       192  26 -1.494102E+06 -1.921421E+05  4.837238E+04 -6.214564E+05  1.006660E+04 -8.698116E+03
       192  27 -1.574980E+06 -2.440192E+05  2.567080E+04 -6.662633E+05  6.899509E+03 -3.422223E+03
       193   1 -1.712037E+06 -2.950087E+05 -7.688314E+03 -7.037361E+05  4.023762E+03  3.739826E+03
       193   2 -1.630941E+06 -2.429958E+05  1.524128E+04 -6.588316E+05  7.105024E+03 -1.579874E+03
       193   3 -1.517996E+06 -2.230572E+05  3.743876E+04 -6.506908E+05  1.018417E+04 -6.891647E+03
       193   4 -1.685537E+06 -2.852008E+05 -1.575131E+03 -6.964593E+05 -6.891041E+02  1.976561E+03
       193   5 -1.701461E+06 -2.691872E+05 -1.931622E+03 -6.780667E+05  2.398110E+03 -3.341213E+03
       193   6 -1.685549E+06 -2.852509E+05 -3.025181E+03 -6.964426E+05  5.483029E+03 -8.651075E+03
       193   7 -1.659036E+06 -2.753928E+05  4.538138E+03 -6.891822E+05 -5.402212E+03  2.132059E+02
       193   8 -1.771977E+06 -2.953784E+05 -1.910485E+04 -6.972999E+05 -2.308232E+03 -5.102339E+03
       193   9 -1.853074E+06 -3.474428E+05 -4.349111E+04 -7.421830E+05  7.832692E+02 -1.040999E+04
       193  10 -1.712037E+06 -2.950088E+05 -7.688371E+03 -7.037361E+05 -2.506554E-09 -7.525400E-10
       193  11 -1.630941E+06 -2.429958E+05  1.524118E+04 -6.588316E+05 -1.530707E-09 -5.232809E-10
       193  12 -1.517996E+06 -2.230572E+05  3.743848E+04 -6.506907E+05  1.180029E-10  5.926487E-11
       193  13 -1.685537E+06 -2.852009E+05 -1.575139E+03 -6.964593E+05 -2.121781E-09 -1.470682E-09
       193  14 -1.701461E+06 -2.691872E+05 -1.931653E+03 -6.780667E+05  6.581582E-10  9.110937E-10
       193  15 -1.685549E+06 -2.852510E+05 -3.025378E+03 -6.964425E+05 -7.621313E-11  5.482750E-10
       193  16 -1.659036E+06 -2.753928E+05  4.538083E+03 -6.891822E+05 -3.010672E-09 -1.488441E-09
       193  17 -1.771977E+06 -2.953784E+05 -1.910491E+04 -6.972999E+05  1.373185E-10 -3.753012E-11
       193  18 -1.853074E+06 -3.474429E+05 -4.349132E+04 -7.421830E+05  5.493906E-10  6.084167E-10
       193  19 -1.712037E+06 -2.950087E+05 -7.688314E+03 -7.037361E+05 -4.023762E+03 -3.739826E+03
       193  20 -1.630941E+06 -2.429958E+05  1.524128E+04 -6.588316E+05 -7.105024E+03  1.579874E+03
       193  21 -1.517996E+06 -2.230572E+05  3.743876E+04 -6.506908E+05 -1.018417E+04  6.891647E+03
       193  22 -1.685537E+06 -2.852008E+05 -1.575131E+03 -6.964593E+05  6.891041E+02 -1.976561E+03
       193  23 -1.701461E+06 -2.691872E+05 -1.931622E+03 -6.780667E+05 -2.398110E+03  3.341213E+03
       193  24 -1.685549E+06 -2.852509E+05 -3.025181E+03 -6.964426E+05 -5.483029E+03  8.651075E+03
       193  25 -1.659036E+06 -2.753928E+05  4.538138E+03 -6.891822E+05  5.402212E+03 -2.132059E+02
       193  26 -1.771977E+06 -2.953784E+05 -1.910485E+04 -6.972999E+05  2.308232E+03  5.102339E+03
       193  27 -1.853074E+06 -3.474428E+05 -4.349111E+04 -7.421830E+05 -7.832692E+02  1.040999E+04
       194   1 -1.434213E+06 -1.917570E+05  5.767216E+04 -6.279651E+05  1.199556E+04 -9.978538E+03
       194   2 -1.353636E+06 -1.399770E+05  7.780896E+04 -5.831651E+05  1.747006E+04 -1.434818E+04
       194   3 -1.242040E+06 -1.209329E+05  9.519597E+04 -5.746931E+05  2.291713E+04 -1.863402E+04
       194   4 -1.685706E+06 -2.851280E+05 -3.893801E+03 -6.964519E+05  7.288525E+03 -1.174067E+04
       194   5 -1.701279E+06 -2.692022E+05 -6.859353E+03 -6.781222E+05  1.282964E+04 -1.608669E+04
       194   6 -1.685856E+06 -2.860279E+05 -1.262839E+04 -6.961252E+05  1.834275E+04 -2.034907E+04
       194   7 -1.937136E+06 -3.784942E+05 -6.546413E+04 -7.649131E+05  2.583591E+03 -1.350201E+04
       194   8 -2.048803E+06 -3.984192E+05 -9.153664E+04 -7.730308E+05  8.192054E+03 -1.782414E+04
       194   9 -2.129479E+06 -4.511102E+05 -1.204680E+05 -8.174789E+05  1.377193E+04 -2.206280E+04
       194  10 -1.434213E+06 -1.917572E+05  5.767171E+04 -6.279650E+05  1.275275E-09 -2.955345E-10
       194  11 -1.353636E+06 -1.399773E+05  7.780800E+04 -5.831649E+05  5.292090E-10  1.777441E-10
       194  12 -1.242040E+06 -1.209334E+05  9.519433E+04 -5.746927E+05 -5.828493E-10 -2.107430E-10
       194  13 -1.685706E+06 -2.851281E+05 -3.894159E+03 -6.964518E+05  3.605802E-10  1.773601E-09
       194  14 -1.701280E+06 -2.692025E+05 -6.860148E+03 -6.781220E+05 -1.375336E-09 -5.989796E-10
       194  15 -1.685856E+06 -2.860284E+05 -1.262980E+04 -6.961249E+05 -5.265781E-10 -2.404425E-10
       194  16 -1.937136E+06 -3.784944E+05 -6.546448E+04 -7.649131E+05 -1.796104E-09 -1.237154E-11
       194  17 -2.048804E+06 -3.984195E+05 -9.153736E+04 -7.730307E+05 -2.238951E-10  6.810189E-12
       194  18 -2.129480E+06 -4.511107E+05 -1.204692E+05 -8.174787E+05  6.867178E-11 -4.667890E-10
       194  19 -1.434213E+06 -1.917570E+05  5.767216E+04 -6.279651E+05 -1.199556E+04  9.978538E+03
       194  20 -1.353636E+06 -1.399770E+05  7.780896E+04 -5.831651E+05 -1.747006E+04  1.434818E+04
       194  21 -1.242040E+06 -1.209329E+05  9.519597E+04 -5.746931E+05 -2.291713E+04  1.863402E+04
       194  22 -1.685706E+06 -2.851280E+05 -3.893801E+03 -6.964519E+05 -7.288525E+03  1.174067E+04
       194  23 -1.701279E+06 -2.692022E+05 -6.859353E+03 -6.781222E+05 -1.282964E+04  1.608669E+04
       194  24 -1.685856E+06 -2.860279E+05 -1.262839E+04 -6.961252E+05 -1.834275E+04  2.034907E+04
       194  25 -1.937136E+06 -3.784942E+05 -6.546413E+04 -7.649131E+05 -2.583591E+03  1.350201E+04
       194  26 -2.048803E+06 -3.984192E+05 -9.153664E+04 -7.730308E+05 -8.192054E+03  1.782414E+04
       194  27 -2.129479E+06 -4.511102E+05 -1.204680E+05 -8.174789E+05 -1.377193E+04  2.206280E+04
       195   1 -1.158521E+06 -9.025201E+04  1.120227E+05 -5.548884E+05  2.687371E+04 -2.100650E+04
       195   2 -1.079846E+06 -3.656240E+04  1.216175E+05 -5.069498E+05  4.291489E+04 -2.101092E+04
       195   3 -9.770974E+05 -2.864298E+04  1.168358E+05 -4.914208E+05  5.847039E+04 -1.970052E+04
       195   4 -1.686835E+06 -2.845078E+05 -1.655810E+04 -6.969367E+05  2.194195E+04 -2.285654E+04
       195   5 -1.699801E+06 -2.687010E+05 -2.976800E+04 -6.780448E+05  3.905808E+04 -2.246038E+04
       195   6 -1.688921E+06 -2.988916E+05 -5.821914E+04 -6.915685E+05  5.568598E+04 -2.074977E+04
       195   7 -2.214874E+06 -4.787463E+05 -1.451596E+05 -8.388756E+05  1.701477E+04 -2.470491E+04
       195   8 -2.319374E+06 -5.008115E+05 -1.811819E+05 -8.489833E+05  3.520547E+04 -2.390825E+04
       195   9 -2.400239E+06 -5.690991E+05 -2.333118E+05 -8.915043E+05  5.290505E+04 -2.179767E+04
       195  10 -1.158522E+06 -9.025268E+04  1.120205E+05 -5.548880E+05  1.994231E-10 -3.921785E-10
       195  11 -1.079848E+06 -3.656337E+04  1.216132E+05 -5.069491E+05  4.693002E-11 -3.319440E-10
       195  12 -9.771012E+05 -2.864432E+04  1.168286E+05 -4.914198E+05  3.800395E-10 -1.091410E-10
       195  13 -1.686836E+06 -2.845085E+05 -1.655999E+04 -6.969363E+05  4.045697E-10 -1.537227E-10
       195  14 -1.699803E+06 -2.687019E+05 -2.977182E+04 -6.780441E+05  8.206852E-10  2.083434E-11
       195  15 -1.688924E+06 -2.988929E+05 -5.822578E+04 -6.915675E+05 -4.746832E-10 -2.166236E-10
       195  16 -2.214875E+06 -4.787471E+05 -1.451613E+05 -8.388752E+05 -9.313906E-11 -3.024882E-10
       195  17 -2.319375E+06 -5.008124E+05 -1.811853E+05 -8.489826E+05 -3.073696E-10 -5.552280E-11
       195  18 -2.400242E+06 -5.691004E+05 -2.333179E+05 -8.915034E+05 -4.747258E-10 -6.694114E-10
       195  19 -1.158521E+06 -9.025201E+04  1.120227E+05 -5.548884E+05 -2.687371E+04  2.100650E+04
       195  20 -1.079846E+06 -3.656240E+04  1.216175E+05 -5.069498E+05 -4.291489E+04  2.101092E+04
       195  21 -9.770974E+05 -2.864298E+04  1.168358E+05 -4.914208E+05 -5.847039E+04  1.970052E+04
       195  22 -1.686835E+06 -2.845078E+05 -1.655810E+04 -6.969367E+05 -2.194195E+04  2.285654E+04
       195  23 -1.699801E+06 -2.687010E+05 -2.976800E+04 -6.780448E+05 -3.905808E+04  2.246038E+04
       195  24 -1.688921E+06 -2.988916E+05 -5.821914E+04 -6.915685E+05 -5.568598E+04  2.074977E+04
       195  25 -2.214874E+06 -4.787463E+05 -1.451596E+05 -8.388756E+05 -1.701477E+04  2.470491E+04
       195  26 -2.319374E+06 -5.008115E+05 -1.811819E+05 -8.489833E+05 -3.520547E+04  2.390825E+04
       195  27 -2.400239E+06 -5.690991E+05 -2.333118E+05 -8.915043E+05 -5.290505E+04  2.179767E+04
       196   1 -8.781880E+05 -2.405433E+03  1.205332E+05 -5.139695E+05  7.859225E+04 -1.901139E+04
       196   2 -8.205525E+05  9.454683E+04  9.040683E+04 -4.036657E+05  1.243124E+05 -1.211310E+03
       196   3 -8.229257E+05 -6.037298E+04 -3.485305E+04 -2.686691E+05  1.595036E+05  4.460285E+04
       196   4 -1.698672E+06 -2.754786E+05 -7.327690E+04 -7.052686E+05  6.735882E+04 -2.323031E+04
       196   5 -1.682541E+06 -2.610708E+05 -1.285268E+05 -6.748347E+05  1.362515E+05  3.263999E+03
       196   6 -1.731161E+06 -5.033614E+05 -2.974134E+05 -6.196894E+05  1.946009E+05  5.777708E+04
       196   7 -2.518497E+06 -5.485392E+05 -2.671348E+05 -8.963532E+05  5.614151E+04 -2.744467E+04
       196   8 -2.543790E+06 -6.165903E+05 -3.475193E+05 -9.456437E+05  1.481724E+05  7.730806E+03
       196   9 -2.638555E+06 -9.461159E+05 -5.600440E+05 -9.701847E+05  2.296413E+05  7.091555E+04
       196  10 -8.781948E+05 -2.407480E+03  1.205209E+05 -5.139683E+05 -7.680696E-10 -1.834445E-10
       196  11 -8.205691E+05  9.454267E+04  9.037775E+04 -4.036655E+05 -1.207788E-09  5.911548E-10
       196  12 -8.229536E+05 -6.038196E+04 -3.490467E+04 -2.686749E+05 -7.150843E-11  4.298141E-10
       196  13 -1.698677E+06 -2.754804E+05 -7.328645E+04 -7.052673E+05  5.895508E-10  5.374936E-11
       196  14 -1.682561E+06 -2.610758E+05 -1.285618E+05 -6.748351E+05  3.580716E-09 -8.265633E-10
       196  15 -1.731202E+06 -5.033752E+05 -2.974911E+05 -6.196985E+05  6.409170E-10 -3.176602E-10
       196  16 -2.518501E+06 -5.485408E+05 -2.671422E+05 -8.963519E+05  3.803615E-10  1.034489E-11
       196  17 -2.543813E+06 -6.165963E+05 -3.475608E+05 -9.456446E+05 -7.836586E-10  1.047088E-09
       196  18 -2.638613E+06 -9.461355E+05 -5.601530E+05 -9.701979E+05 -4.065225E-10 -7.060639E-11
       196  19 -8.781880E+05 -2.405433E+03  1.205332E+05 -5.139695E+05 -7.859225E+04  1.901139E+04
       196  20 -8.205525E+05  9.454683E+04  9.040683E+04 -4.036657E+05 -1.243124E+05  1.211310E+03
       196  21 -8.229257E+05 -6.037298E+04 -3.485305E+04 -2.686691E+05 -1.595036E+05 -4.460285E+04
       196  22 -1.698672E+06 -2.754786E+05 -7.327690E+04 -7.052686E+05 -6.735882E+04  2.323031E+04
       196  23 -1.682541E+06 -2.610708E+05 -1.285268E+05 -6.748347E+05 -1.362515E+05 -3.263999E+03
       196  24 -1.731161E+06 -5.033614E+05 -2.974134E+05 -6.196894E+05 -1.946009E+05 -5.777708E+04
       196  25 -2.518497E+06 -5.485392E+05 -2.671348E+05 -8.963532E+05 -5.614151E+04  2.744467E+04
       196  26 -2.543790E+06 -6.165903E+05 -3.475193E+05 -9.456437E+05 -1.481724E+05 -7.730806E+03
       196  27 -2.638555E+06 -9.461159E+05 -5.600440E+05 -9.701847E+05 -2.296413E+05 -7.091555E+04
       197   1 -1.346582E+05 -1.499437E+04  3.835183E+04  5.249935E+04  1.561408E+05  1.311562E+04
       197   2 -7.666643E+04 -2.240881E+05 -7.566704E+04  4.881700E+01  1.118678E+05  4.053003E+04
       197   3  4.293594E+04 -2.115163E+05 -1.053554E+05 -8.912349E+04  6.761801E+04  4.196260E+04
       197   4  8.610672E+05  2.319835E+05  2.796597E+05 -5.534152E+04  1.922898E+05  1.313062E+04
       197   5  8.283794E+05 -2.674048E+03  1.271130E+05 -3.686315E+04  1.248491E+05  4.053092E+04
       197   6  8.612068E+05 -1.184161E+04  7.487908E+04 -5.509926E+04  5.744099E+04  4.195624E+04
       197   7  1.857726E+06  4.789335E+05  5.209074E+05 -1.633561E+05  2.284965E+05  1.313307E+04
       197   8  1.734191E+06  2.186895E+05  3.298427E+05 -7.382964E+04  1.378489E+05  4.053028E+04
       197   9  1.680106E+06  1.877925E+05  2.550736E+05 -2.102973E+04  4.725067E+04  4.194877E+04
       197  10 -1.346844E+05 -1.500110E+04  3.830568E+04  5.249770E+04 -3.428891E-10  4.002251E-10
       197  11 -7.668031E+04 -2.240933E+05 -7.569364E+04  4.516477E+01  1.319680E-10 -4.140722E-10
       197  12  4.293055E+04 -2.115194E+05 -1.053673E+05 -8.912578E+04 -1.423544E-11 -8.061609E-11
       197  13  8.610275E+05  2.319734E+05  2.795900E+05 -5.534355E+04  3.440230E-10  1.420488E-10
       197  14  8.283623E+05 -2.679990E+03  1.270807E+05 -3.686723E+04  2.382837E-10 -1.236339E-09
       197  15  8.612028E+05 -1.184438E+04  7.486958E+04 -5.510120E+04 -3.311775E-11  7.498455E-11
       197  16  1.857670E+06  4.789194E+05  5.208093E+05 -1.633585E+05  3.452098E-10 -9.537960E-11
       197  17  1.734170E+06  2.186827E+05  3.298040E+05 -7.383414E+04  2.813219E-10 -1.297995E-10
       197  18  1.680103E+06  1.877900E+05  2.550661E+05 -2.103132E+04 -5.510764E-10 -1.914047E-10
       197  19 -1.346582E+05 -1.499437E+04  3.835183E+04  5.249935E+04 -1.561408E+05 -1.311562E+04
       197  20 -7.666643E+04 -2.240881E+05 -7.566704E+04  4.881700E+01 -1.118678E+05 -4.053003E+04
       197  21  4.293594E+04 -2.115163E+05 -1.053554E+05 -8.912349E+04 -6.761801E+04 -4.196260E+04
       197  22  8.610672E+05  2.319835E+05  2.796597E+05 -5.534152E+04 -1.922898E+05 -1.313062E+04
       197  23  8.283794E+05 -2.674048E+03  1.271130E+05 -3.686315E+04 -1.248491E+05 -4.053092E+04
       197  24  8.612068E+05 -1.184161E+04  7.487908E+04 -5.509926E+04 -5.744099E+04 -4.195624E+04
       197  25  1.857726E+06  4.789335E+05  5.209074E+05 -1.633561E+05 -2.284965E+05 -1.313307E+04
       197  26  1.734191E+06  2.186895E+05  3.298427E+05 -7.382964E+04 -1.378489E+05 -4.053028E+04
       197  27  1.680106E+06  1.877925E+05  2.550736E+05 -2.102973E+04 -4.725067E+04 -4.194877E+04
       198   1  1.029301E+05 -1.688633E+05 -1.053214E+05 -5.092178E+04  4.927341E+04  3.671674E+04
       198   2  1.875340E+05 -1.610565E+05 -1.129156E+05 -3.575240E+04  3.414694E+04  3.326763E+04
       198   3  2.776164E+05 -1.399989E+05 -1.073056E+05 -5.772249E+04  1.901551E+04  2.867747E+04
       198   4  8.479098E+05  1.304020E+04  5.960979E+04 -5.525695E+04  4.676030E+04  3.671210E+04
       198   5  8.451105E+05 -5.986080E+02  3.215689E+04 -3.668689E+04  3.060253E+04  3.326422E+04
       198   6  8.479547E+05 -8.162067E+02  1.861201E+04 -5.525342E+04  1.444191E+04  2.867571E+04
       198   7  1.593407E+06  1.949064E+05  2.245067E+05 -5.959740E+04  4.424418E+04  3.670750E+04
       198   8  1.503091E+06  1.598302E+05  1.772028E+05 -3.762239E+04  2.705439E+04  3.326083E+04
       198   9  1.418597E+06  1.383447E+05  1.445097E+05 -5.278205E+04  9.864146E+03  2.867391E+04
       198  10  1.029271E+05 -1.688654E+05 -1.053285E+05 -5.092324E+04  2.566208E-10 -3.140377E-10
       198  11  1.875325E+05 -1.610580E+05 -1.129198E+05 -3.575331E+04 -8.389313E-10  3.989087E-10
       198  12  2.776158E+05 -1.399999E+05 -1.073078E+05 -5.772293E+04 -5.963293E-10  4.733459E-11
       198  13  8.479071E+05  1.303817E+04  5.960315E+04 -5.525833E+04  1.017195E-10 -1.126052E-10
       198  14  8.451092E+05 -6.000477E+02  3.215305E+04 -3.668771E+04  5.802110E-10  1.074513E-10
       198  15  8.479543E+05 -8.171460E+02  1.861007E+04 -5.525376E+04 -1.123723E-09 -3.258365E-13
       198  16  1.593405E+06  1.949044E+05  2.245004E+05 -5.959871E+04 -2.268723E-12  2.696089E-10
       198  17  1.503090E+06  1.598288E+05  1.771994E+05 -3.762311E+04 -7.678861E-10 -3.346886E-10
       198  18  1.418596E+06  1.383437E+05  1.445079E+05 -5.278228E+04 -1.935011E-11 -7.612729E-11
       198  19  1.029301E+05 -1.688633E+05 -1.053214E+05 -5.092178E+04 -4.927341E+04 -3.671674E+04
       198  20  1.875340E+05 -1.610565E+05 -1.129156E+05 -3.575240E+04 -3.414694E+04 -3.326763E+04
       198  21  2.776164E+05 -1.399989E+05 -1.073056E+05 -5.772249E+04 -1.901551E+04 -2.867747E+04
       198  22  8.479098E+05  1.304020E+04  5.960979E+04 -5.525695E+04 -4.676030E+04 -3.671210E+04
       198  23  8.451105E+05 -5.986080E+02  3.215689E+04 -3.668689E+04 -3.060253E+04 -3.326422E+04
       198  24  8.479547E+05 -8.162067E+02  1.861201E+04 -5.525342E+04 -1.444191E+04 -2.867571E+04
       198  25  1.593407E+06  1.949064E+05  2.245067E+05 -5.959740E+04 -4.424418E+04 -3.670750E+04
       198  26  1.503091E+06  1.598302E+05  1.772028E+05 -3.762239E+04 -2.705439E+04 -3.326083E+04
       198  27  1.418597E+06  1.383447E+05  1.445097E+05 -5.278205E+04 -9.864146E+03 -2.867391E+04
       199   1  3.486328E+05 -1.209083E+05 -9.531724E+04 -5.534993E+04  1.576499E+04  2.574449E+04
       199   2  4.348442E+05 -1.005560E+05 -8.261482E+04 -3.691642E+04  1.178323E+04  2.096563E+04
       199   3  5.218360E+05 -7.938020E+04 -6.710408E+04 -5.535973E+04  7.798299E+03  1.614606E+04
       199   4  8.468904E+05  5.986628E+02  1.428093E+04 -5.519630E+04  1.154317E+04  2.574351E+04
       199   5  8.465130E+05 -1.352046E+02  8.107523E+03 -3.675876E+04  7.522009E+03  2.096568E+04
       199   6  8.469134E+05 -3.928026E+01  4.767717E+03 -5.519656E+04  3.498210E+03  1.614719E+04
       199   7  1.345380E+06  1.220890E+05  1.238640E+05 -5.504252E+04  7.318001E+03  2.574252E+04
       199   8  1.258340E+06  1.002742E+05  9.881953E+04 -3.660098E+04  3.257993E+03  2.096573E+04
       199   9  1.172089E+06  7.929454E+04  7.663306E+04 -5.503329E+04 -8.041024E+02  1.614832E+04
       199  10  3.486324E+05 -1.209090E+05 -9.531895E+04 -5.535026E+04 -1.037461E-09 -4.801706E-11
       199  11  4.348439E+05 -1.005565E+05 -8.261590E+04 -3.691661E+04 -6.003894E-10  1.424421E-10
       199  12  5.218358E+05 -7.938050E+04 -6.710468E+04 -5.535983E+04 -2.089918E-10  2.046059E-10
       199  13  8.468901E+05  5.979152E+02  1.427944E+04 -5.519654E+04  2.136673E-12  1.367000E-11
       199  14  8.465128E+05 -1.356920E+02  8.106590E+03 -3.675888E+04 -1.216141E-09  3.467955E-11
       199  15  8.469133E+05 -3.956364E+01  4.767204E+03 -5.519661E+04  1.131413E-09  1.560111E-11
       199  16  1.345380E+06  1.220882E+05  1.238626E+05 -5.504267E+04  5.760391E-10  2.330573E-12
       199  17  1.258340E+06  1.002737E+05  9.881869E+04 -3.660103E+04 -1.216608E-09  2.066329E-10
       199  18  1.172089E+06  7.929426E+04  7.663257E+04 -5.503328E+04  2.839647E-10  3.630857E-10
       199  19  3.486328E+05 -1.209083E+05 -9.531724E+04 -5.534993E+04 -1.576499E+04 -2.574449E+04
       199  20  4.348442E+05 -1.005560E+05 -8.261482E+04 -3.691642E+04 -1.178323E+04 -2.096563E+04
       199  21  5.218360E+05 -7.938020E+04 -6.710408E+04 -5.535973E+04 -7.798299E+03 -1.614606E+04
       199  22  8.468904E+05  5.986628E+02  1.428093E+04 -5.519630E+04 -1.154317E+04 -2.574351E+04
       199  23  8.465130E+05 -1.352046E+02  8.107523E+03 -3.675876E+04 -7.522009E+03 -2.096568E+04
       199  24  8.469134E+05 -3.928026E+01  4.767717E+03 -5.519656E+04 -3.498210E+03 -1.614719E+04
       199  25  1.345380E+06  1.220890E+05  1.238640E+05 -5.504252E+04 -7.318001E+03 -2.574252E+04
       199  26  1.258340E+06  1.002742E+05  9.881953E+04 -3.660098E+04 -3.257993E+03 -2.096573E+04
       199  27  1.172089E+06  7.929454E+04  7.663306E+04 -5.503329E+04  8.041024E+02 -1.614832E+04
       200   1  5.933054E+05 -6.174500E+04 -5.190700E+04 -5.519671E+04  7.011389E+03  1.333435E+04
       200   2  6.794451E+05 -4.080052E+04 -3.451608E+04 -3.681791E+04  5.852275E+03  8.520104E+03
       200   3  7.657354E+05 -1.977274E+04 -1.635745E+04 -5.514342E+04  4.691950E+03  3.707998E+03
       200   4  8.467819E+05  3.155865E+01  3.700806E+03 -5.515837E+04  2.732429E+03  1.333592E+04
       200   5  8.467146E+05 -4.011172E+00  2.338455E+03 -3.680653E+04  1.574524E+03  8.522092E+03
       200   6  8.467907E+05  4.386925E+01  1.742910E+03 -5.515840E+04  4.155662E+02  3.710424E+03
       200   7  1.100318E+06  6.180383E+04  5.930477E+04 -5.512001E+04 -1.548254E+03  1.333750E+04
       200   8  1.014010E+06  4.079063E+04  3.919134E+04 -3.679514E+04 -2.704364E+03  8.524079E+03
       200   9  9.278522E+05  1.986004E+04  1.984293E+04 -5.517338E+04 -3.861369E+03  3.712851E+03
       200  10  5.933053E+05 -6.174520E+04 -5.190743E+04 -5.519678E+04 -3.409245E-10  5.765920E-11
       200  11  6.794450E+05 -4.080060E+04 -3.451628E+04 -3.681795E+04 -8.042913E-10  3.262409E-10
       200  12  7.657354E+05 -1.977276E+04 -1.635752E+04 -5.514343E+04 -1.032433E-09 -3.247352E-10
       200  13  8.467819E+05  3.136559E+01  3.700457E+03 -5.515840E+04 -4.119402E-10  3.342579E-10
       200  14  8.467146E+05 -4.089856E+00  2.338314E+03 -3.680654E+04  9.125050E-10 -6.846595E-10
       200  15  8.467907E+05  4.385441E+01  1.742884E+03 -5.515840E+04 -2.045069E-09 -6.079483E-10
       200  16  1.100318E+06  6.180364E+04  5.930443E+04 -5.511999E+04  3.145589E-10 -6.814699E-10
       200  17  1.014010E+06  4.079055E+04  3.919119E+04 -3.679512E+04  9.435777E-12 -6.230969E-10
       200  18  9.278522E+05  1.986002E+04  1.984287E+04 -5.517337E+04  2.802548E-10 -6.395253E-10
       200  19  5.933054E+05 -6.174500E+04 -5.190700E+04 -5.519671E+04 -7.011389E+03 -1.333435E+04
       200  20  6.794451E+05 -4.080052E+04 -3.451608E+04 -3.681791E+04 -5.852275E+03 -8.520104E+03
       200  21  7.657354E+05 -1.977274E+04 -1.635745E+04 -5.514342E+04 -4.691950E+03 -3.707998E+03
       200  22  8.467819E+05  3.155865E+01  3.700806E+03 -5.515837E+04 -2.732429E+03 -1.333592E+04
       200  23  8.467146E+05 -4.011172E+00  2.338455E+03 -3.680653E+04 -1.574524E+03 -8.522092E+03
       200  24  8.467907E+05  4.386925E+01  1.742910E+03 -5.515840E+04 -4.155662E+02 -3.710424E+03
       200  25  1.100318E+06  6.180383E+04  5.930477E+04 -5.512001E+04  1.548254E+03 -1.333750E+04
       200  26  1.014010E+06  4.079063E+04  3.919134E+04 -3.679514E+04  2.704364E+03 -8.524079E+03
       200  27  9.278522E+05  1.986004E+04  1.984293E+04 -5.517338E+04  3.861369E+03 -3.712851E+03
       201   1  8.371502E+05 -2.256054E+03 -2.257105E+02 -5.515583E+04  4.381006E+03  9.084964E+02
       201   2  9.232636E+05  1.867352E+04  1.871834E+04 -3.680786E+04  3.459821E+03 -3.900717E+03
       201   3  1.009480E+06  3.967198E+04  3.826792E+04 -5.513693E+04  2.539007E+03 -8.709959E+03
       201   4  8.467820E+05  4.427129E+01  1.653224E+03 -5.515253E+04  1.054062E+02  9.109947E+02
       201   5  8.467313E+05  1.026495E+01  1.858272E+03 -3.681386E+04 -8.159676E+02 -3.898428E+03
       201   6  8.467779E+05  4.596782E+01  2.669634E+03 -5.515251E+04 -1.736846E+03 -8.707851E+03
       201   7  8.564140E+05  2.344601E+03  3.532223E+03 -5.514924E+04 -4.170259E+03  9.134929E+02
       201   8  7.702045E+05 -1.865337E+04 -1.500208E+04 -3.681986E+04 -5.091236E+03 -3.896138E+03
       201   9  6.841006E+05 -3.958180E+04 -3.293018E+04 -5.516809E+04 -6.011594E+03 -8.705742E+03
       201  10  8.371501E+05 -2.256060E+03 -2.257480E+02 -5.515583E+04  1.303322E-11 -4.731592E-10
       201  11  9.232636E+05  1.867350E+04  1.871829E+04 -3.680785E+04  6.020030E-10 -2.389524E-11
       201  12  1.009480E+06  3.967189E+04  3.826776E+04 -5.513691E+04  1.179017E-10  2.144330E-10
       201  13  8.467820E+05  4.427039E+01  1.653223E+03 -5.515253E+04 -1.026027E-09  4.657001E-10
       201  14  8.467313E+05  1.024845E+01  1.858242E+03 -3.681386E+04 -1.175608E-09  8.130987E-10
       201  15  8.467779E+05  4.588555E+01  2.669486E+03 -5.515253E+04 -1.237097E-09 -5.067131E-10
       201  16  8.564139E+05  2.344596E+03  3.532189E+03 -5.514923E+04 -8.757611E-10  2.739560E-10
       201  17  7.702045E+05 -1.865339E+04 -1.500216E+04 -3.681988E+04 -9.822936E-10  7.481448E-10
       201  18  6.841006E+05 -3.958189E+04 -3.293039E+04 -5.516813E+04 -1.226618E-09 -1.658216E-11
       201  19  8.371502E+05 -2.256054E+03 -2.257105E+02 -5.515583E+04 -4.381006E+03 -9.084964E+02
       201  20  9.232636E+05  1.867352E+04  1.871834E+04 -3.680786E+04 -3.459821E+03  3.900717E+03
       201  21  1.009480E+06  3.967198E+04  3.826792E+04 -5.513693E+04 -2.539007E+03  8.709959E+03
       201  22  8.467820E+05  4.427129E+01  1.653224E+03 -5.515253E+04 -1.054062E+02 -9.109947E+02
       201  23  8.467313E+05  1.026495E+01  1.858272E+03 -3.681386E+04  8.159676E+02  3.898428E+03
       201  24  8.467779E+05  4.596782E+01  2.669634E+03 -5.515251E+04  1.736846E+03  8.707851E+03
       201  25  8.564140E+05  2.344601E+03  3.532223E+03 -5.514924E+04  4.170259E+03 -9.134929E+02
       201  26  7.702045E+05 -1.865337E+04 -1.500208E+04 -3.681986E+04  5.091236E+03  3.896138E+03
       201  27  6.841006E+05 -3.958180E+04 -3.293018E+04 -5.516809E+04  6.011594E+03  8.705742E+03
       202   1  1.081096E+06  5.715997E+04  5.519416E+04 -5.509145E+04  2.011467E+03 -1.151641E+04
       202   2  1.167285E+06  7.811636E+04  7.621890E+04 -3.671424E+04 -7.926934E+02 -1.632579E+04
       202   3  1.254003E+06  9.965336E+04  9.921294E+04 -5.512473E+04 -3.595257E+03 -2.109655E+04
       202   4  8.468643E+05 -2.710104E+00  3.357330E+03 -5.517735E+04 -2.282767E+03 -1.151461E+04
       202   5  8.465978E+05 -7.630916E+01  5.577216E+03 -3.678280E+04 -5.051588E+03 -1.632483E+04
       202   6  8.468467E+05  4.250183E+02  9.742687E+03 -5.517712E+04 -7.818432E+03 -2.109640E+04
       202   7  6.126835E+05 -5.716908E+04 -4.848283E+04 -5.526321E+04 -6.575401E+03 -1.151281E+04
       202   8  5.260064E+05 -7.827586E+04 -6.507070E+04 -3.685133E+04 -9.308312E+03 -1.632388E+04
       202   9  4.398448E+05 -9.881440E+04 -7.973761E+04 -5.522946E+04 -1.203887E+04 -2.109625E+04
       202  10  1.081096E+06  5.715983E+04  5.519391E+04 -5.509143E+04  1.985127E-10  8.152368E-10
       202  11  1.167285E+06  7.811608E+04  7.621840E+04 -3.671425E+04  8.394236E-10  2.533012E-10
       202  12  1.254003E+06  9.965288E+04  9.921208E+04 -5.512479E+04 -2.383683E-10 -2.514093E-10
       202  13  8.468643E+05 -2.853935E+00  3.357071E+03 -5.517737E+04 -8.865123E-10 -2.159469E-10
       202  14  8.465977E+05 -7.660229E+01  5.576667E+03 -3.678287E+04  1.227884E-09 -4.492614E-10
       202  15  8.468465E+05  4.245238E+02  9.741735E+03 -5.517725E+04  1.310360E-09 -5.780394E-11
       202  16  6.126834E+05 -5.716923E+04 -4.848316E+04 -5.526327E+04 -1.725674E-09  2.531990E-10
       202  17  5.260063E+05 -7.827617E+04 -6.507137E+04 -3.685145E+04  1.040248E-09 -5.073254E-10
       202  18  4.398445E+05 -9.881492E+04 -7.973872E+04 -5.522967E+04 -6.486944E-11 -7.942355E-11
       202  19  1.081096E+06  5.715997E+04  5.519416E+04 -5.509145E+04 -2.011467E+03  1.151641E+04
       202  20  1.167285E+06  7.811636E+04  7.621890E+04 -3.671424E+04  7.926934E+02  1.632579E+04
       202  21  1.254003E+06  9.965336E+04  9.921294E+04 -5.512473E+04  3.595257E+03  2.109655E+04
       202  22  8.468643E+05 -2.710104E+00  3.357330E+03 -5.517735E+04  2.282767E+03  1.151461E+04
       202  23  8.465978E+05 -7.630916E+01  5.577216E+03 -3.678280E+04  5.051588E+03  1.632483E+04
       202  24  8.468467E+05  4.250183E+02  9.742687E+03 -5.517712E+04  7.818432E+03  2.109640E+04
       202  25  6.126835E+05 -5.716908E+04 -4.848283E+04 -5.526321E+04  6.575401E+03  1.151281E+04
       202  26  5.260064E+05 -7.827586E+04 -6.507070E+04 -3.685133E+04  9.308312E+03  1.632388E+04
       202  27  4.398448E+05 -9.881440E+04 -7.973761E+04 -5.522946E+04  1.203887E+04  2.109625E+04
       203   1  1.326662E+06  1.163104E+05  1.184198E+05 -5.360955E+04 -5.251497E+03 -2.400966E+04
       203   2  1.411746E+06  1.376353E+05  1.466749E+05 -3.741997E+04 -1.717511E+04 -2.860218E+04
       203   3  1.500832E+06  1.682452E+05  1.850281E+05 -5.823884E+04 -2.909737E+04 -3.215518E+04
       203   4  8.475710E+05 -5.373478E+02  1.267719E+04 -5.522623E+04 -9.794929E+03 -2.401015E+04
       203   5  8.456335E+05 -4.035946E+02  2.186610E+04 -3.672135E+04 -2.078496E+04 -2.860418E+04
       203   6  8.475344E+05  8.859169E+03  4.051284E+04 -5.522669E+04 -3.177200E+04 -3.215831E+04
       203   7  3.686942E+05 -1.174005E+05 -9.307945E+04 -5.684162E+04 -1.433490E+04 -2.401061E+04
       203   8  2.798202E+05 -1.384640E+05 -1.029623E+05 -3.602336E+04 -2.439155E+04 -2.860618E+04
       203   9  1.946344E+05 -1.505555E+05 -1.040288E+05 -5.221773E+04 -3.444384E+04 -3.216146E+04
       203  10  1.326662E+06  1.163098E+05  1.184187E+05 -5.360965E+04  6.000931E-10 -5.348794E-10
       203  11  1.411745E+06  1.376343E+05  1.466728E+05 -3.742036E+04 -8.739514E-10  1.146653E-10
       203  12  1.500831E+06  1.682439E+05  1.850246E+05 -5.823960E+04  7.219445E-10 -4.196622E-10
       203  13  8.475708E+05 -5.379928E+02  1.267593E+04 -5.522642E+04  4.984725E-10 -2.699947E-10
       203  14  8.456328E+05 -4.045894E+02  2.186375E+04 -3.672182E+04  1.513150E-09 -2.449160E-10
       203  15  8.475331E+05  8.857787E+03  4.050900E+04 -5.522751E+04  2.539680E-09 -8.219475E-11
       203  16  3.686938E+05 -1.174012E+05 -9.308092E+04 -5.684190E+04  2.132150E-10 -2.146514E-10
       203  17  2.798193E+05 -1.384650E+05 -1.029650E+05 -3.602392E+04  7.097519E-10 -5.297999E-10
       203  18  1.946328E+05 -1.505570E+05 -1.040330E+05 -5.221862E+04  1.843689E-10  3.251890E-10
       203  19  1.326662E+06  1.163104E+05  1.184198E+05 -5.360955E+04  5.251497E+03  2.400966E+04
       203  20  1.411746E+06  1.376353E+05  1.466749E+05 -3.741997E+04  1.717511E+04  2.860218E+04
       203  21  1.500832E+06  1.682452E+05  1.850281E+05 -5.823884E+04  2.909737E+04  3.215518E+04
       203  22  8.475710E+05 -5.373478E+02  1.267719E+04 -5.522623E+04  9.794929E+03  2.401015E+04
       203  23  8.456335E+05 -4.035946E+02  2.186610E+04 -3.672135E+04  2.078496E+04  2.860418E+04
       203  24  8.475344E+05  8.859169E+03  4.051284E+04 -5.522669E+04  3.177200E+04  3.215831E+04
       203  25  3.686942E+05 -1.174005E+05 -9.307945E+04 -5.684162E+04  1.433490E+04  2.401061E+04
       203  26  2.798202E+05 -1.384640E+05 -1.029623E+05 -3.602336E+04  2.439155E+04  2.860618E+04
       203  27  1.946344E+05 -1.505555E+05 -1.040288E+05 -5.221773E+04  3.444384E+04  3.216146E+04
       204   1  1.582942E+06  1.690127E+05  2.107451E+05 -3.199858E+04 -2.937370E+04 -3.716459E+04
       204   2  1.647152E+06  1.968738E+05  2.683558E+05 -6.203583E+04 -9.625243E+04 -3.626513E+04
       204   3  1.759524E+06  3.815269E+05  4.086914E+05 -1.286102E+05 -1.631643E+05 -1.173215E+04
       204   4  8.565737E+05 -8.052174E+03  5.088657E+04 -5.509023E+04 -3.903123E+04 -3.716994E+04
       204   5  8.342389E+05 -1.839685E+03  8.636317E+04 -3.688307E+04 -8.483395E+04 -3.626525E+04
       204   6  8.564673E+05  1.576149E+05  1.900117E+05 -5.520721E+04 -1.306584E+05 -1.172357E+04
       204   7  1.306985E+05 -1.851504E+05 -1.090036E+05 -7.815461E+04 -4.867760E+04 -3.717458E+04
       204   8  2.194131E+04 -2.005956E+05 -9.567032E+04 -1.176358E+04 -7.343017E+04 -3.626445E+04
       204   9 -4.583275E+04 -6.633587E+04 -2.871974E+04  1.808878E+04 -9.819931E+04 -1.170732E+04
       204  10  1.582941E+06  1.690110E+05  2.107409E+05 -3.199946E+04  6.356019E-10 -3.182239E-10
       204  11  1.647142E+06  1.968699E+05  2.683360E+05 -6.203864E+04  4.449848E-10  3.148370E-10
       204  12  1.759496E+06  3.815197E+05  4.086413E+05 -1.286117E+05  1.367342E-09  6.014022E-10
       204  13  8.565717E+05 -8.054067E+03  5.088111E+04 -5.509139E+04  6.051528E-10 -4.805263E-10
       204  14  8.342308E+05 -1.843027E+03  8.634719E+04 -3.688554E+04  1.173533E-09  4.721826E-10
       204  15  8.564489E+05  1.576102E+05  1.899794E+05 -5.520845E+04  8.714767E-11 -2.060218E-10
       204  16  1.306956E+05 -1.851525E+05 -1.090106E+05 -7.815607E+04 -4.238291E-10  6.162669E-10
       204  17  2.193517E+04 -2.005985E+05 -9.568293E+04 -1.176572E+04 -5.900158E-10  8.973300E-11
       204  18 -4.584314E+04 -6.633860E+04 -2.873812E+04  1.808786E+04 -1.026003E-09  9.145754E-10
       204  19  1.582942E+06  1.690127E+05  2.107451E+05 -3.199858E+04  2.937370E+04  3.716459E+04
       204  20  1.647152E+06  1.968738E+05  2.683558E+05 -6.203583E+04  9.625243E+04  3.626513E+04
       204  21  1.759524E+06  3.815269E+05  4.086914E+05 -1.286102E+05  1.631643E+05  1.173215E+04
       204  22  8.565737E+05 -8.052174E+03  5.088657E+04 -5.509023E+04  3.903123E+04  3.716994E+04
       204  23  8.342389E+05 -1.839685E+03  8.636317E+04 -3.688307E+04  8.483395E+04  3.626525E+04
       204  24  8.564673E+05  1.576149E+05  1.900117E+05 -5.520721E+04  1.306584E+05  1.172357E+04
       204  25  1.306985E+05 -1.851504E+05 -1.090036E+05 -7.815461E+04  4.867760E+04  3.717458E+04
       204  26  2.194131E+04 -2.005956E+05 -9.567032E+04 -1.176358E+04  7.343017E+04  3.626445E+04
       204  27 -4.583275E+04 -6.633587E+04 -2.871974E+04  1.808878E+04  9.819931E+04  1.170732E+04
       205   1  5.390020E+05  1.772703E+06  5.300720E+05 -5.239672E+05  2.027246E+04  1.494060E+05
       205   2  3.421447E+05  1.239557E+06  3.207313E+05 -4.354475E+05  5.955563E+04  5.431422E+04
       205   3  2.047176E+05  7.335712E+05  1.879848E+05 -4.747549E+05  4.961371E+04 -4.076972E+04
       205   4  7.168851E+04 -1.138063E+05  7.917353E+04 -4.784240E+05  2.050726E+04  5.286145E+04
       205   5  1.397553E+04 -1.206018E+05  3.967081E+04 -4.145913E+05  5.962224E+04  3.242848E+04
       205   6  2.843774E+03 -1.133574E+05  2.506439E+04 -4.785823E+05  4.947033E+04  1.192171E+04
       205   7 -3.958703E+05 -1.997035E+06 -3.719399E+05 -4.330164E+05  2.072838E+04 -4.339181E+04
       205   8 -3.143090E+05 -1.479007E+06 -2.414879E+05 -3.937799E+05  5.968748E+04  1.058973E+04
       205   9 -1.990710E+05 -9.595904E+05 -1.378787E+05 -4.824036E+05  4.932618E+04  6.454298E+04
       205  10  5.389956E+05  1.772679E+06  5.300293E+05 -5.239696E+05  4.570520E-10 -2.576089E-10
       205  11  3.421401E+05  1.239553E+06  3.207191E+05 -4.354501E+05 -1.616214E-09 -1.015166E-09
       205  12  2.047145E+05  7.335687E+05  1.879770E+05 -4.747532E+05 -3.967967E-10 -1.158442E-09
       205  13  7.168731E+04 -1.138094E+05  7.916749E+04 -4.784248E+05  1.040312E-09  7.998470E-10
       205  14  1.397142E+04 -1.206039E+05  3.966215E+04 -4.145928E+05 -1.138699E-09 -9.338804E-10
       205  15  2.841107E+03 -1.133583E+05  2.505952E+04 -4.785827E+05  4.437195E-10  4.965328E-10
       205  16 -3.958713E+05 -1.997037E+06 -3.719443E+05 -4.330157E+05 -6.541704E-10 -5.225718E-10
       205  17 -3.143129E+05 -1.479008E+06 -2.414948E+05 -3.937804E+05  1.986206E-09  8.467437E-10
       205  18 -1.990747E+05 -9.595955E+05 -1.378911E+05 -4.824062E+05 -2.486977E-10  1.402872E-09
       205  19  5.390020E+05  1.772703E+06  5.300720E+05 -5.239672E+05 -2.027246E+04 -1.494060E+05
       205  20  3.421447E+05  1.239557E+06  3.207313E+05 -4.354475E+05 -5.955563E+04 -5.431422E+04
       205  21  2.047176E+05  7.335712E+05  1.879848E+05 -4.747549E+05 -4.961371E+04  4.076972E+04
       205  22  7.168851E+04 -1.138063E+05  7.917353E+04 -4.784240E+05 -2.050726E+04 -5.286145E+04
       205  23  1.397553E+04 -1.206018E+05  3.967081E+04 -4.145913E+05 -5.962224E+04 -3.242848E+04
       205  24  2.843774E+03 -1.133574E+05  2.506439E+04 -4.785823E+05 -4.947033E+04 -1.192171E+04
       205  25 -3.958703E+05 -1.997035E+06 -3.719399E+05 -4.330164E+05 -2.072838E+04  4.339181E+04
       205  26 -3.143090E+05 -1.479007E+06 -2.414879E+05 -3.937799E+05 -5.968748E+04 -1.058973E+04
       205  27 -1.990710E+05 -9.595904E+05 -1.378787E+05 -4.824036E+05 -4.932618E+04 -6.454298E+04
       206   1  1.237941E+05  3.815492E+05  1.179013E+05 -4.817649E+05  2.864190E+04 -3.718606E+04
       206   2 -2.405645E+03 -1.384276E+05  1.486868E+04 -4.137895E+05 -1.334751E+03 -4.650323E+04
       206   3 -1.235493E+05 -6.563045E+05 -8.102739E+04 -4.764787E+05 -3.123108E+04 -5.581234E+04
       206   4  5.038764E+03 -1.159719E+05  2.162689E+04 -4.791907E+05  2.851127E+04  8.246405E+03
       206   5  2.686873E+03 -1.169061E+05  1.880164E+04 -4.138590E+05 -1.464184E+03 -1.206778E+03
       206   6  5.427768E+03 -1.159791E+05  2.320890E+04 -4.791895E+05 -3.135990E+04 -1.065926E+04
       206   7 -1.137302E+05 -6.132506E+05 -7.465133E+04 -4.766184E+05  2.838096E+04  5.364329E+04
       206   8  7.780467E+03 -9.537978E+04  2.274229E+04 -4.139284E+05 -1.593625E+03  4.409121E+04
       206   9  1.343886E+05  4.246318E+05  1.274393E+05 -4.819025E+05 -3.148904E+04  3.453226E+04
       206  10  1.237928E+05  3.815475E+05  1.178971E+05 -4.817640E+05 -3.028950E-11 -2.489556E-08
       206  11 -2.406228E+03 -1.384299E+05  1.486462E+04 -4.137896E+05  2.935540E-09 -7.409404E-10
       206  12 -1.235512E+05 -6.563081E+05 -8.103508E+04 -4.764801E+05 -3.452478E-11  2.515021E-08
       206  13  5.037872E+03 -1.159722E+05  2.162524E+04 -4.791909E+05  9.983318E-11  1.159015E-09
       206  14  2.686871E+03 -1.169061E+05  1.880163E+04 -4.138590E+05  4.868031E-11 -1.302162E-09
       206  15  5.426681E+03 -1.159794E+05  2.320684E+04 -4.791898E+05  9.117478E-10  4.505036E-10
       206  16 -1.137318E+05 -6.132540E+05 -7.465826E+04 -4.766196E+05  5.069337E-10  2.358144E-08
       206  17  7.779943E+03 -9.538187E+04  2.273863E+04 -4.139284E+05  1.305850E-09 -1.572848E-10
       206  18  1.343872E+05  4.246302E+05  1.274352E+05 -4.819016E+05  8.999829E-10 -2.481896E-08
       206  19  1.237941E+05  3.815492E+05  1.179013E+05 -4.817649E+05 -2.864190E+04  3.718606E+04
       206  20 -2.405645E+03 -1.384276E+05  1.486868E+04 -4.137895E+05  1.334751E+03  4.650323E+04
       206  21 -1.235493E+05 -6.563045E+05 -8.102739E+04 -4.764787E+05  3.123108E+04  5.581234E+04
       206  22  5.038764E+03 -1.159719E+05  2.162689E+04 -4.791907E+05 -2.851127E+04 -8.246405E+03
       206  23  2.686873E+03 -1.169061E+05  1.880164E+04 -4.138590E+05  1.464184E+03  1.206778E+03
       206  24  5.427768E+03 -1.159791E+05  2.320890E+04 -4.791895E+05  3.135990E+04  1.065926E+04
       206  25 -1.137302E+05 -6.132506E+05 -7.465133E+04 -4.766184E+05 -2.838096E+04 -5.364329E+04
       206  26  7.780467E+03 -9.537978E+04  2.274229E+04 -4.139284E+05  1.593625E+03 -4.409121E+04
       206  27  1.343886E+05  4.246318E+05  1.274393E+05 -4.819025E+05  3.148904E+04 -3.453226E+04
       207   1 -2.092347E+05 -1.002240E+06 -1.434083E+05 -4.831546E+05 -5.215425E+04 -6.717130E+04
       207   2 -3.228879E+05 -1.522488E+06 -2.448915E+05 -3.911936E+05 -6.194960E+04 -1.429344E+04
       207   3 -3.966805E+05 -2.039636E+06 -3.709647E+05 -4.270228E+05 -2.138008E+04  3.861384E+04
       207   4  2.898395E+03 -1.129305E+05  2.752428E+04 -4.785681E+05 -5.229697E+04 -1.461883E+04
       207   5  1.571064E+04 -1.211718E+05  4.478075E+04 -4.146032E+05 -6.187987E+04 -3.777733E+04
       207   6  8.155189E+04 -1.133929E+05  9.027806E+04 -4.783887E+05 -2.115452E+04 -6.086208E+04
       207   7  2.149862E+05  7.771468E+05  1.984309E+05 -4.739741E+05 -5.243877E+04  3.800728E+04
       207   8  3.541869E+05  1.282012E+06  3.343490E+05 -4.380649E+05 -6.180847E+04 -6.131335E+04
       207   9  5.595295E+05  1.816284E+06  5.512970E+05 -5.299120E+05 -2.091292E+04 -1.606459E+05
       207  10 -2.092389E+05 -1.002245E+06 -1.434219E+05 -4.831574E+05 -1.437042E-10  1.773188E-09
       207  11 -3.228921E+05 -1.522489E+06 -2.448991E+05 -3.911944E+05  6.579143E-10  1.240665E-09
       207  12 -3.966813E+05 -2.039637E+06 -3.709684E+05 -4.270221E+05  1.898622E-10  1.580167E-09
       207  13  2.895400E+03 -1.129314E+05  2.751873E+04 -4.785687E+05  2.440844E-10  1.046051E-09
       207  14  1.570614E+04 -1.211743E+05  4.477087E+04 -4.146050E+05 -2.731554E-09 -1.032531E-09
       207  15  8.155042E+04 -1.133970E+05  9.027026E+04 -4.783897E+05 -2.460060E-10  3.616133E-10
       207  16  2.149829E+05  7.771445E+05  1.984230E+05 -4.739725E+05 -6.824949E-10 -2.615571E-09
       207  17  3.541818E+05  1.282007E+06  3.343348E+05 -4.380679E+05 -1.466410E-10 -1.960344E-09
       207  18  5.595222E+05  1.816256E+06  5.512478E+05 -5.299147E+05  3.930564E-10 -1.666966E-09
       207  19 -2.092347E+05 -1.002240E+06 -1.434083E+05 -4.831546E+05  5.215425E+04  6.717130E+04
       207  20 -3.228879E+05 -1.522488E+06 -2.448915E+05 -3.911936E+05  6.194960E+04  1.429344E+04
       207  21 -3.966805E+05 -2.039636E+06 -3.709647E+05 -4.270228E+05  2.138008E+04 -3.861384E+04
       207  22  2.898395E+03 -1.129305E+05  2.752428E+04 -4.785681E+05  5.229697E+04  1.461883E+04
       207  23  1.571064E+04 -1.211718E+05  4.478075E+04 -4.146032E+05  6.187987E+04  3.777733E+04
       207  24  8.155189E+04 -1.133929E+05  9.027806E+04 -4.783887E+05  2.115452E+04  6.086208E+04
       207  25  2.149862E+05  7.771468E+05  1.984309E+05 -4.739741E+05  5.243877E+04 -3.800728E+04
       207  26  3.541869E+05  1.282012E+06  3.343490E+05 -4.380649E+05  6.180847E+04  6.131335E+04
       207  27  5.595295E+05  1.816284E+06  5.512970E+05 -5.299120E+05  2.091292E+04  1.606459E+05
       208   1 -2.267836E+06 -8.925265E+05 -4.930422E+05 -8.677785E+05 -1.962648E+05 -5.197772E+04
       208   2 -2.155763E+06 -6.863760E+05 -3.255972E+05 -8.223647E+05 -1.245964E+05  2.426610E+04
       208   3 -2.070086E+06 -6.022267E+05 -2.506975E+05 -7.795892E+05 -3.969717E+04  6.545552E+04
       208   4 -1.046760E+06 -3.579346E+05 -1.606130E+05 -4.564296E+05 -1.107118E+05 -1.981763E+04
       208   5 -1.029579E+06 -2.392733E+05 -7.328036E+04 -4.786046E+05 -8.845058E+04  3.783797E+04
       208   6 -1.028904E+06 -2.326984E+05 -3.916126E+04 -5.034459E+05 -5.298991E+04  6.044977E+04
       208   7  1.757751E+05  1.769022E+05  1.717056E+05 -4.429805E+04 -2.497596E+04  1.243756E+04
       208   8  9.789585E+04  2.079849E+05  1.789604E+05 -1.342505E+05 -5.223392E+04  5.144117E+04
       208   9  1.340553E+04  1.369095E+05  1.723245E+05 -2.268775E+05 -6.630685E+04  5.543558E+04
       208  10 -2.267878E+06 -8.925398E+05 -4.931200E+05 -8.677867E+05 -4.184105E-10 -5.564672E-11
       208  11 -2.155780E+06 -6.863808E+05 -3.256275E+05 -8.223623E+05  8.966653E-10  5.560087E-10
       208  12 -2.070089E+06 -6.022317E+05 -2.507085E+05 -7.795872E+05 -1.058716E-09 -1.183192E-09
       208  13 -1.046774E+06 -3.579383E+05 -1.606368E+05 -4.564314E+05  1.761228E-09  9.297886E-10
       208  14 -1.029588E+06 -2.392769E+05 -7.329776E+04 -4.786019E+05  1.585167E-10 -3.741011E-10
       208  15 -1.028908E+06 -2.327031E+05 -3.917340E+04 -5.034433E+05 -5.569788E-09 -8.807598E-10
       208  16  1.757744E+05  1.769018E+05  1.717042E+05 -4.429780E+04  1.873993E-09  7.512808E-10
       208  17  9.789222E+04  2.079813E+05  1.789503E+05 -1.342484E+05 -1.304835E-09 -5.087498E-10
       208  18  1.339998E+04  1.369051E+05  1.723105E+05 -2.268745E+05 -9.352493E-09 -1.481818E-09
       208  19 -2.267836E+06 -8.925265E+05 -4.930422E+05 -8.677785E+05  1.962648E+05  5.197772E+04
       208  20 -2.155763E+06 -6.863760E+05 -3.255972E+05 -8.223647E+05  1.245964E+05 -2.426610E+04
       208  21 -2.070086E+06 -6.022267E+05 -2.506975E+05 -7.795892E+05  3.969717E+04 -6.545552E+04
       208  22 -1.046760E+06 -3.579346E+05 -1.606130E+05 -4.564296E+05  1.107118E+05  1.981763E+04
       208  23 -1.029579E+06 -2.392733E+05 -7.328036E+04 -4.786046E+05  8.845058E+04 -3.783797E+04
       208  24 -1.028904E+06 -2.326984E+05 -3.916126E+04 -5.034459E+05  5.298991E+04 -6.044977E+04
       208  25  1.757751E+05  1.769022E+05  1.717056E+05 -4.429805E+04  2.497596E+04 -1.243756E+04
       208  26  9.789585E+04  2.079849E+05  1.789604E+05 -1.342505E+05  5.223392E+04 -5.144117E+04
       208  27  1.340553E+04  1.369095E+05  1.723245E+05 -2.268775E+05  6.630685E+04 -5.543558E+04
       209   1 -1.971099E+06 -5.861008E+05 -2.239566E+05 -7.641319E+05 -3.998147E+04  5.913824E+04
       209   2 -1.860554E+06 -5.235126E+05 -1.821757E+05 -7.170840E+05 -2.651804E+04  5.764303E+04
       209   3 -1.729279E+06 -4.893751E+05 -1.500177E+05 -6.965056E+05 -1.216599E+04  5.377006E+04
       209   4 -1.023779E+06 -2.374676E+05 -2.992985E+04 -4.998837E+05 -4.642945E+04  5.670629E+04
       209   5 -1.034072E+06 -2.210247E+05 -1.582218E+04 -4.875884E+05 -3.631002E+04  5.395964E+04
       209   6 -1.022983E+06 -2.323623E+05 -8.673019E+03 -5.017655E+05 -2.530501E+04  4.883606E+04
       209   7 -7.553412E+04  1.112444E+05  1.640510E+05 -2.352613E+05 -5.288803E+04  5.427032E+04
       209   8 -2.068874E+05  8.152146E+04  1.504973E+05 -2.578103E+05 -4.611600E+04  5.027099E+04
       209   9 -3.161770E+05  2.469060E+04  1.326467E+05 -3.068219E+05 -3.846003E+04  4.389612E+04
       209  10 -1.971102E+06 -5.861050E+05 -2.239662E+05 -7.641300E+05 -6.496690E-09 -2.487132E-09
       209  11 -1.860555E+06 -5.235164E+05 -1.821832E+05 -7.170828E+05 -1.008058E-08 -2.446030E-09
       209  12 -1.729280E+06 -4.893782E+05 -1.500234E+05 -6.965050E+05 -5.579235E-09 -2.881456E-09
       209  13 -1.023782E+06 -2.374716E+05 -2.993994E+04 -4.998816E+05 -8.129043E-09 -2.617288E-09
       209  14 -1.034074E+06 -2.210282E+05 -1.583012E+04 -4.875868E+05 -7.325217E-09 -2.817230E-09
       209  15 -1.022984E+06 -2.323650E+05 -8.678701E+03 -5.017645E+05 -1.553059E-09 -1.746677E-09
       209  16 -7.553791E+04  1.112405E+05  1.640402E+05 -2.352590E+05 -8.239544E-09 -1.680070E-09
       209  17 -2.068904E+05  8.151817E+04  1.504885E+05 -2.578084E+05 -5.486378E-09 -2.670753E-09
       209  18 -3.161791E+05  2.468814E+04  1.326403E+05 -3.068205E+05  2.267051E-09 -6.418942E-10
       209  19 -1.971099E+06 -5.861008E+05 -2.239566E+05 -7.641319E+05  3.998147E+04 -5.913824E+04
       209  20 -1.860554E+06 -5.235126E+05 -1.821757E+05 -7.170840E+05  2.651804E+04 -5.764303E+04
       209  21 -1.729279E+06 -4.893751E+05 -1.500177E+05 -6.965056E+05  1.216599E+04 -5.377006E+04
       209  22 -1.023779E+06 -2.374676E+05 -2.992985E+04 -4.998837E+05  4.642945E+04 -5.670629E+04
       209  23 -1.034072E+06 -2.210247E+05 -1.582218E+04 -4.875884E+05  3.631002E+04 -5.395964E+04
       209  24 -1.022983E+06 -2.323623E+05 -8.673019E+03 -5.017655E+05  2.530501E+04 -4.883606E+04
       209  25 -7.553412E+04  1.112444E+05  1.640510E+05 -2.352613E+05  5.288803E+04 -5.427032E+04
       209  26 -2.068874E+05  8.152146E+04  1.504973E+05 -2.578103E+05  4.611600E+04 -5.027099E+04
       209  27 -3.161770E+05  2.469060E+04  1.326467E+05 -3.068219E+05  3.846003E+04 -4.389612E+04
       210   1 -1.645348E+06 -4.595782E+05 -1.305935E+05 -6.738849E+05 -9.359966E+03  4.864472E+04
       210   2 -1.535011E+06 -4.028617E+05 -1.034207E+05 -6.263583E+05 -3.919183E+03  4.033615E+04
       210   3 -1.400990E+06 -3.703469E+05 -7.780748E+04 -6.063093E+05  1.581307E+03  3.185640E+04
       210   4 -1.022588E+06 -2.325709E+05 -6.534568E+03 -5.016004E+05 -2.205630E+04  4.387942E+04
       210   5 -1.034408E+06 -2.203899E+05 -3.603480E+03 -4.878880E+05 -1.685590E+04  3.548405E+04
       210   6 -1.022514E+06 -2.323639E+05 -2.041958E+03 -5.016584E+05 -1.159628E+04  2.691745E+04
       210   7 -3.994207E+05 -5.527959E+03  1.175081E+05 -3.291543E+05 -3.476643E+04  3.910897E+04
       210   8 -5.335420E+05 -3.789554E+04  9.620307E+04 -3.493135E+05 -2.980390E+04  3.062774E+04
       210   9 -6.438899E+05 -9.436844E+04  7.371743E+04 -3.969482E+05 -2.478252E+04  2.197528E+04
       210  10 -1.645348E+06 -4.595808E+05 -1.305982E+05 -6.738846E+05 -2.294960E-08 -1.035148E-08
       210  11 -1.535012E+06 -4.028635E+05 -1.034238E+05 -6.263582E+05 -3.301719E-09 -3.405139E-09
       210  12 -1.400990E+06 -3.703480E+05 -7.780939E+04 -6.063094E+05  2.077673E-08  7.050118E-09
       210  13 -1.022589E+06 -2.325731E+05 -6.539098E+03 -5.015997E+05 -1.870713E-09 -2.459814E-09
       210  14 -1.034408E+06 -2.203913E+05 -3.606378E+03 -4.878875E+05 -5.158620E-09 -4.346531E-09
       210  15 -1.022514E+06 -2.323647E+05 -2.043571E+03 -5.016581E+05 -2.443456E-09 -2.800105E-09
       210  16 -3.994224E+05 -5.529925E+03  1.175030E+05 -3.291532E+05  1.986873E-08  5.479846E-09
       210  17 -5.335433E+05 -3.789679E+04  9.619964E+04 -3.493128E+05 -5.941685E-09 -5.164865E-09
       210  18 -6.438906E+05 -9.436912E+04  7.371537E+04 -3.969478E+05 -2.332378E-08 -1.161484E-08
       210  19 -1.645348E+06 -4.595782E+05 -1.305935E+05 -6.738849E+05  9.359966E+03 -4.864472E+04
       210  20 -1.535011E+06 -4.028617E+05 -1.034207E+05 -6.263583E+05  3.919183E+03 -4.033615E+04
       210  21 -1.400990E+06 -3.703469E+05 -7.780748E+04 -6.063093E+05 -1.581307E+03 -3.185640E+04
       210  22 -1.022588E+06 -2.325709E+05 -6.534568E+03 -5.016004E+05  2.205630E+04 -4.387942E+04
       210  23 -1.034408E+06 -2.203899E+05 -3.603480E+03 -4.878880E+05  1.685590E+04 -3.548405E+04
       210  24 -1.022514E+06 -2.323639E+05 -2.041958E+03 -5.016584E+05  1.159628E+04 -2.691745E+04
       210  25 -3.994207E+05 -5.527959E+03  1.175081E+05 -3.291543E+05  3.476643E+04 -3.910897E+04
       210  26 -5.335420E+05 -3.789554E+04  9.620307E+04 -3.493135E+05  2.980390E+04 -3.062774E+04
       210  27 -6.438899E+05 -9.436844E+04  7.371743E+04 -3.969482E+05  2.478252E+04 -2.197528E+04
       211   1 -1.317588E+06 -3.398695E+05 -6.003071E+04 -5.833211E+05  3.896487E+03  2.653095E+04
       211   2 -1.207070E+06 -2.832623E+05 -3.541516E+04 -5.356430E+05  7.920457E+03  1.741239E+04
       211   3 -1.072586E+06 -2.506893E+05 -1.119681E+04 -5.155164E+05  1.194808E+04  8.279412E+03
       211   4 -1.022453E+06 -2.323706E+05 -1.585023E+03 -5.016568E+05 -9.261039E+03  2.160093E+04
       211   5 -1.034422E+06 -2.203427E+05 -1.026719E+03 -4.878797E+05 -5.258177E+03  1.247564E+04
       211   6 -1.022436E+06 -2.323459E+05 -8.492845E+02 -5.016600E+05 -1.251762E+03  3.335906E+03
       211   7 -7.272300E+05 -1.248650E+05  5.685666E+04 -4.199570E+05 -2.242518E+04  1.666842E+04
       211   8 -8.617419E+05 -1.574204E+05  3.336105E+04 -4.401041E+05 -1.844075E+04  7.537425E+03
       211   9 -9.722818E+05 -2.140020E+05  9.498968E+03 -4.878023E+05 -1.445286E+04 -1.608070E+03
       211  10 -1.317588E+06 -3.398702E+05 -6.003206E+04 -5.833212E+05 -7.857224E-09 -1.938502E-09
       211  11 -1.207070E+06 -2.832626E+05 -3.541585E+04 -5.356431E+05  1.593439E-08  8.410115E-09
       211  12 -1.072587E+06 -2.506894E+05 -1.119720E+04 -5.155165E+05  3.933473E-08  1.802085E-08
       211  13 -1.022453E+06 -2.323712E+05 -1.586060E+03 -5.016566E+05 -8.090251E-10 -5.249063E-10
       211  14 -1.034422E+06 -2.203429E+05 -1.027063E+03 -4.878797E+05 -7.447837E-10  1.490355E-09
       211  15 -1.022436E+06 -2.323459E+05 -8.493083E+02 -5.016600E+05  3.901235E-10  3.390666E-09
       211  16 -7.272306E+05 -1.248654E+05  5.685520E+04 -4.199567E+05  7.320542E-09  1.065076E-09
       211  17 -8.617423E+05 -1.574205E+05  3.336030E+04 -4.401040E+05 -1.769991E-08 -5.683095E-09
       211  18 -9.722821E+05 -2.140021E+05  9.498570E+03 -4.878023E+05 -3.651580E-08 -1.080752E-08
       211  19 -1.317588E+06 -3.398695E+05 -6.003071E+04 -5.833211E+05 -3.896487E+03 -2.653095E+04
       211  20 -1.207070E+06 -2.832623E+05 -3.541516E+04 -5.356430E+05 -7.920457E+03 -1.741239E+04
       211  21 -1.072586E+06 -2.506893E+05 -1.119681E+04 -5.155164E+05 -1.194808E+04 -8.279412E+03
       211  22 -1.022453E+06 -2.323706E+05 -1.585023E+03 -5.016568E+05  9.261039E+03 -2.160093E+04
       211  23 -1.034422E+06 -2.203427E+05 -1.026719E+03 -4.878797E+05  5.258177E+03 -1.247564E+04
       211  24 -1.022436E+06 -2.323459E+05 -8.492845E+02 -5.016600E+05  1.251762E+03 -3.335906E+03
       211  25 -7.272300E+05 -1.248650E+05  5.685666E+04 -4.199570E+05  2.242518E+04 -1.666842E+04
       211  26 -8.617419E+05 -1.574204E+05  3.336105E+04 -4.401041E+05  1.844075E+04 -7.537425E+03
       211  27 -9.722818E+05 -2.140020E+05  9.498968E+03 -4.878023E+05  1.445286E+04  1.608070E+03
       212   1 -9.891338E+05 -2.201576E+05  6.114274E+03 -4.924815E+05  1.412887E+04  2.897732E+03
       212   2 -8.785769E+05 -1.635715E+05  2.985410E+04 -4.447888E+05  1.819303E+04 -6.219676E+03
       212   3 -7.440614E+05 -1.310166E+05  5.316950E+04 -4.246527E+05  2.225358E+04 -1.532341E+04
       212   4 -1.022438E+06 -2.323461E+05 -8.765600E+02 -5.016613E+05  9.278767E+02 -2.046182E+03
       212   5 -1.034416E+06 -2.203344E+05 -1.177491E+03 -4.878805E+05  5.009597E+03 -1.115809E+04
       212   6 -1.022454E+06 -2.323590E+05 -1.916893E+03 -5.016627E+05  9.087557E+03 -2.025632E+04
       212   7 -1.055741E+06 -2.445344E+05 -7.866704E+03 -5.108406E+05 -1.227235E+04 -6.989810E+03
       212   8 -1.190229E+06 -2.770947E+05 -3.220930E+04 -5.309618E+05 -8.170226E+03 -1.609515E+04
       212   9 -1.300764E+06 -3.336936E+05 -5.700551E+04 -5.786399E+05 -4.072013E+03 -2.518682E+04
       212  10 -9.891340E+05 -2.201576E+05  6.113883E+03 -4.924815E+05 -3.520218E-08 -1.051262E-08
       212  11 -8.785773E+05 -1.635717E+05  2.985341E+04 -4.447887E+05 -1.661484E-08 -5.358925E-09
       212  12 -7.440620E+05 -1.310170E+05  5.316812E+04 -4.246525E+05  6.583141E-09  2.625776E-09
       212  13 -1.022438E+06 -2.323461E+05 -8.765694E+02 -5.016613E+05  2.029298E-09  3.403306E-09
       212  14 -1.034416E+06 -2.203345E+05 -1.177772E+03 -4.878804E+05  1.431681E-10  1.180526E-09
       212  15 -1.022454E+06 -2.323594E+05 -1.917819E+03 -5.016626E+05  1.782692E-10  3.892808E-12
       212  16 -1.055741E+06 -2.445345E+05 -7.867079E+03 -5.108406E+05  3.931419E-08  1.762343E-08
       212  17 -1.190229E+06 -2.770950E+05 -3.220992E+04 -5.309619E+05  1.507959E-08  7.532687E-09
       212  18 -1.300764E+06 -3.336943E+05 -5.700673E+04 -5.786400E+05 -7.310086E-09 -2.985200E-09
       212  19 -9.891338E+05 -2.201576E+05  6.114274E+03 -4.924815E+05 -1.412887E+04 -2.897732E+03
       212  20 -8.785769E+05 -1.635715E+05  2.985410E+04 -4.447888E+05 -1.819303E+04  6.219676E+03
       212  21 -7.440614E+05 -1.310166E+05  5.316950E+04 -4.246527E+05 -2.225358E+04  1.532341E+04
       212  22 -1.022438E+06 -2.323461E+05 -8.765600E+02 -5.016613E+05 -9.278767E+02  2.046182E+03
       212  23 -1.034416E+06 -2.203344E+05 -1.177491E+03 -4.878805E+05 -5.009597E+03  1.115809E+04
       212  24 -1.022454E+06 -2.323590E+05 -1.916893E+03 -5.016627E+05 -9.087557E+03  2.025632E+04
       212  25 -1.055741E+06 -2.445344E+05 -7.866704E+03 -5.108406E+05  1.227235E+04  6.989810E+03
       212  26 -1.190229E+06 -2.770947E+05 -3.220930E+04 -5.309618E+05  8.170226E+03  1.609515E+04
       212  27 -1.300764E+06 -3.336936E+05 -5.700551E+04 -5.786399E+05  4.072013E+03  2.518682E+04
       213   1 -6.607130E+05 -1.005212E+05  6.990769E+04 -4.016553E+05  2.467675E+04 -2.060653E+04
       213   2 -5.502901E+05 -4.404221E+04  9.200183E+04 -3.540249E+05  3.012747E+04 -2.910117E+04
       213   3 -4.161704E+05 -1.171644E+04  1.125846E+05 -3.338810E+05  3.552003E+04 -3.742681E+04
       213   4 -1.022526E+06 -2.323498E+05 -2.499136E+03 -5.016694E+05  1.148859E+04 -2.554905E+04
       213   5 -1.034379E+06 -2.203600E+05 -4.455111E+03 -4.878890E+05  1.717392E+04 -3.395912E+04
       213   6 -1.022600E+06 -2.325743E+05 -8.110187E+03 -5.016039E+05  2.280062E+04 -4.220023E+04
       213   7 -1.384206E+06 -3.641683E+05 -7.491238E+04 -6.016302E+05 -1.691416E+03 -3.048851E+04
       213   8 -1.518227E+06 -3.966584E+05 -1.009231E+05 -6.216570E+05  4.231167E+03 -3.881304E+04
       213   9 -1.628648E+06 -4.534006E+05 -1.288218E+05 -6.691752E+05  1.009456E+04 -4.696866E+04
       213  10 -6.607138E+05 -1.005218E+05  6.990574E+04 -4.016549E+05  7.765474E-09  2.476337E-09
       213  11 -5.502913E+05 -4.404336E+04  9.199853E+04 -3.540242E+05 -1.518816E-08 -7.986499E-09
       213  12 -4.161722E+05 -1.171828E+04  1.125796E+05 -3.338799E+05 -3.944737E-08 -1.789815E-08
       213  13 -1.022526E+06 -2.323506E+05 -2.500609E+03 -5.016691E+05  5.946238E-12 -6.299530E-10
       213  14 -1.034380E+06 -2.203614E+05 -4.457831E+03 -4.878885E+05  1.200580E-10 -1.705872E-09
       213  15 -1.022601E+06 -2.325764E+05 -8.114508E+03 -5.016031E+05 -2.272980E-09 -3.013161E-09
       213  16 -1.384206E+06 -3.641693E+05 -7.491413E+04 -6.016303E+05 -6.492001E-09 -2.931145E-09
       213  17 -1.518228E+06 -3.966600E+05 -1.009260E+05 -6.216568E+05  1.637218E-08  5.664146E-09
       213  18 -1.628649E+06 -4.534030E+05 -1.288262E+05 -6.691748E+05  3.495509E-08  1.156573E-08
       213  19 -6.607130E+05 -1.005212E+05  6.990769E+04 -4.016553E+05 -2.467675E+04  2.060653E+04
       213  20 -5.502901E+05 -4.404221E+04  9.200183E+04 -3.540249E+05 -3.012747E+04  2.910117E+04
       213  21 -4.161704E+05 -1.171644E+04  1.125846E+05 -3.338810E+05 -3.552003E+04  3.742681E+04
       213  22 -1.022526E+06 -2.323498E+05 -2.499136E+03 -5.016694E+05 -1.148859E+04  2.554905E+04
       213  23 -1.034379E+06 -2.203600E+05 -4.455111E+03 -4.878890E+05 -1.717392E+04  3.395912E+04
       213  24 -1.022600E+06 -2.325743E+05 -8.110187E+03 -5.016039E+05 -2.280062E+04  4.220023E+04
       213  25 -1.384206E+06 -3.641683E+05 -7.491238E+04 -6.016302E+05  1.691416E+03  3.048851E+04
       213  26 -1.518227E+06 -3.966584E+05 -1.009231E+05 -6.216570E+05 -4.231167E+03  3.881304E+04
       213  27 -1.628648E+06 -4.534006E+05 -1.288218E+05 -6.691752E+05 -1.009456E+04  4.696866E+04
       214   1 -3.328800E+05  1.843182E+04  1.272011E+05 -3.117425E+05  3.950341E+04 -4.210678E+04
       214   2 -2.235499E+05  7.540712E+04  1.433123E+05 -2.623075E+05  4.913920E+04 -4.775885E+04
       214   3 -9.279114E+04  1.042591E+05  1.533882E+05 -2.391910E+05  5.790217E+04 -5.106492E+04
       214   4 -1.023085E+06 -2.323239E+05 -1.077483E+04 -5.018311E+05  2.634390E+04 -4.704780E+04
       214   5 -1.033942E+06 -2.210804E+05 -1.965590E+04 -4.875021E+05  3.928440E+04 -5.146517E+04
       214   6 -1.024044E+06 -2.386233E+05 -3.719999E+04 -4.994997E+05  5.135013E+04 -5.353542E+04
       214   7 -1.712792E+06 -4.830372E+05 -1.487714E+05 -6.917229E+05  1.320022E+04 -5.198294E+04
       214   8 -1.843656E+06 -5.175105E+05 -1.826558E+05 -7.124245E+05  2.944341E+04 -5.516630E+04
       214   9 -1.954413E+06 -5.814319E+05 -2.278346E+05 -7.594485E+05  4.480859E+04 -5.600193E+04
       214  10 -3.328822E+05  1.842950E+04  1.271948E+05 -3.117411E+05  3.677530E-08  1.101049E-08
       214  11 -2.235531E+05  7.540403E+04  1.433035E+05 -2.623056E+05  1.643827E-08  5.642544E-09
       214  12 -9.279544E+04  1.042554E+05  1.533770E+05 -2.391886E+05 -9.855765E-09 -1.802151E-09
       214  13 -1.023086E+06 -2.323264E+05 -1.078029E+04 -5.018301E+05 -1.552569E-09 -3.204859E-09
       214  14 -1.033944E+06 -2.210836E+05 -1.966377E+04 -4.875005E+05  7.217546E-10 -9.325083E-10
       214  15 -1.024048E+06 -2.386271E+05 -3.721033E+04 -4.994974E+05  4.353287E-11  1.553918E-09
       214  16 -1.712792E+06 -4.830402E+05 -1.487768E+05 -6.917224E+05 -3.935896E-08 -1.734916E-08
       214  17 -1.843658E+06 -5.175140E+05 -1.826631E+05 -7.124231E+05 -1.576808E-08 -7.322419E-09
       214  18 -1.954416E+06 -5.814358E+05 -2.278442E+05 -7.594465E+05  1.043311E-08  4.676511E-09
       214  19 -3.328800E+05  1.843182E+04  1.272011E+05 -3.117425E+05 -3.950341E+04  4.210678E+04
       214  20 -2.235499E+05  7.540712E+04  1.433123E+05 -2.623075E+05 -4.913920E+04  4.775885E+04
       214  21 -9.279114E+04  1.042591E+05  1.533882E+05 -2.391910E+05 -5.790217E+04  5.106492E+04
       214  22 -1.023085E+06 -2.323239E+05 -1.077483E+04 -5.018311E+05 -2.634390E+04  4.704780E+04
       214  23 -1.033942E+06 -2.210804E+05 -1.965590E+04 -4.875021E+05 -3.928440E+04  5.146517E+04
       214  24 -1.024044E+06 -2.386233E+05 -3.719999E+04 -4.994997E+05 -5.135013E+04  5.353542E+04
       214  25 -1.712792E+06 -4.830372E+05 -1.487714E+05 -6.917229E+05 -1.320022E+04  5.198294E+04
       214  26 -1.843656E+06 -5.175105E+05 -1.826558E+05 -7.124245E+05 -2.944341E+04  5.516630E+04
       214  27 -1.954413E+06 -5.814319E+05 -2.278346E+05 -7.594485E+05 -4.480859E+04  5.600193E+04
       215   1 -2.550692E+03  1.285672E+05  1.594183E+05 -2.345718E+05  7.233770E+04 -5.185106E+04
       215   2  7.688176E+04  2.031403E+05  1.575754E+05 -1.300722E+05  6.832285E+04 -4.432455E+04
       215   3  1.401408E+05  1.534860E+05  1.284001E+05 -2.281793E+04  5.129070E+04 -2.218339E+03
       215   4 -1.030316E+06 -2.327783E+05 -4.867660E+04 -5.040414E+05  5.900955E+04 -5.686814E+04
       215   5 -1.028427E+06 -2.435839E+05 -9.107050E+04 -4.762035E+05  1.039005E+05 -3.096443E+04
       215   6 -1.052501E+06 -3.884526E+05 -1.996361E+05 -4.456038E+05  1.357577E+05  2.954930E+04
       215   7 -2.056997E+06 -5.940549E+05 -2.568235E+05 -7.731076E+05  4.570512E+04 -6.187713E+04
       215   8 -2.132482E+06 -6.901375E+05 -3.397865E+05 -8.217406E+05  1.394095E+05 -1.763585E+04
       215   9 -2.243703E+06 -9.300894E+05 -5.277665E+05 -8.675797E+05  2.200463E+05  6.121759E+04
       215  10 -2.557030E+03  1.285629E+05  1.594035E+05 -2.345688E+05  1.676746E-09  3.309934E-09
       215  11  7.687623E+04  2.031370E+05  1.575629E+05 -1.300698E+05 -1.186260E-10  1.470583E-09
       215  12  1.401379E+05  1.534853E+05  1.283951E+05 -2.281783E+04 -4.004768E-10  1.437618E-09
       215  13 -1.030321E+06 -2.327827E+05 -4.868922E+04 -5.040387E+05  4.056823E-10  1.188952E-09
       215  14 -1.028439E+06 -2.435878E+05 -9.109261E+04 -4.762009E+05 -1.378370E-09 -6.837916E-10
       215  15 -1.052521E+06 -3.884585E+05 -1.996724E+05 -4.456070E+05  3.483772E-13 -1.371563E-10
       215  16 -2.057001E+06 -5.940595E+05 -2.568347E+05 -7.731053E+05 -3.077515E-09  3.946962E-10
       215  17 -2.132503E+06 -6.901430E+05 -3.398237E+05 -8.217386E+05 -7.242778E-10 -1.259486E-09
       215  18 -2.243756E+06 -9.301065E+05 -5.278649E+05 -8.675906E+05  4.193049E-10 -1.775708E-10
       215  19 -2.550692E+03  1.285672E+05  1.594183E+05 -2.345718E+05 -7.233770E+04  5.185106E+04
       215  20  7.688176E+04  2.031403E+05  1.575754E+05 -1.300722E+05 -6.832285E+04  4.432455E+04
       215  21  1.401408E+05  1.534860E+05  1.284001E+05 -2.281793E+04 -5.129070E+04  2.218339E+03
       215  22 -1.030316E+06 -2.327783E+05 -4.867660E+04 -5.040414E+05 -5.900955E+04  5.686814E+04
       215  23 -1.028427E+06 -2.435839E+05 -9.107050E+04 -4.762035E+05 -1.039005E+05  3.096443E+04
       215  24 -1.052501E+06 -3.884526E+05 -1.996361E+05 -4.456038E+05 -1.357577E+05 -2.954930E+04
       215  25 -2.056997E+06 -5.940549E+05 -2.568235E+05 -7.731076E+05 -4.570512E+04  6.187713E+04
       215  26 -2.132482E+06 -6.901375E+05 -3.397865E+05 -8.217406E+05 -1.394095E+05  1.763585E+04
       215  27 -2.243703E+06 -9.300894E+05 -5.277665E+05 -8.675797E+05 -2.200463E+05 -6.121759E+04
       216   1 -3.241746E+05 -1.191707E+05 -8.625794E+04 -1.912796E+04  5.345280E+04  1.556796E+04
       216   2 -2.092098E+05 -2.138559E+05 -1.147896E+05 -5.953726E+04  5.076815E+04  5.047118E+04
       216   3 -6.889163E+04 -2.094438E+05 -1.167701E+05 -1.303423E+05  4.811113E+04  5.688364E+04
       216   4  8.183204E+05  1.630923E+05  1.839816E+05 -1.168119E+05  1.279006E+05  1.561851E+04
       216   5  8.020125E+05  2.887167E+04  8.827333E+04 -1.015695E+05  8.209605E+04  5.048079E+04
       216   6  8.184656E+05  1.128838E+03  4.900204E+04 -1.167129E+05  3.632239E+04  5.687298E+04
       216   7  1.962047E+06  4.453009E+05  4.541566E+05 -2.146767E+05  2.024845E+05  1.564560E+04
       216   8  1.814216E+06  2.715435E+05  2.912888E+05 -1.436717E+05  1.134739E+05  5.048615E+04
       216   9  1.706585E+06  2.116569E+05  2.147410E+05 -1.030635E+05  2.451720E+04  5.686181E+04
       216  10 -3.241777E+05 -1.191717E+05 -8.626377E+04 -1.912863E+04  9.476170E-10 -9.382902E-10
       216  11 -2.092133E+05 -2.138593E+05 -1.147992E+05 -5.953932E+04 -1.482776E-09  3.856037E-10
       216  12 -6.889499E+04 -2.094479E+05 -1.167805E+05 -1.303445E+05 -2.833602E-09  2.492012E-11
       216  13  8.183028E+05  1.630877E+05  1.839504E+05 -1.168135E+05 -2.459306E-10  7.080984E-10
       216  14  8.020046E+05  2.886713E+04  8.825588E+04 -1.015729E+05  2.650317E-09  3.598122E-10
       216  15  8.184633E+05  1.125009E+03  4.899349E+04 -1.167146E+05  5.144782E-10  2.338397E-11
       216  16  1.962003E+06  4.452897E+05  4.540793E+05 -2.146793E+05  1.001546E-10  7.251078E-10
       216  17  1.814201E+06  2.715373E+05  2.912599E+05 -1.436763E+05  1.531649E-09  6.441306E-10
       216  18  1.706583E+06  2.116532E+05  2.147338E+05 -1.030646E+05  4.366002E-09  1.803124E-09
       216  19 -3.241746E+05 -1.191707E+05 -8.625794E+04 -1.912796E+04 -5.345280E+04 -1.556796E+04
       216  20 -2.092098E+05 -2.138559E+05 -1.147896E+05 -5.953726E+04 -5.076815E+04 -5.047118E+04
       216  21 -6.889163E+04 -2.094438E+05 -1.167701E+05 -1.303423E+05 -4.811113E+04 -5.688364E+04
       216  22  8.183204E+05  1.630923E+05  1.839816E+05 -1.168119E+05 -1.279006E+05 -1.561851E+04
       216  23  8.020125E+05  2.887167E+04  8.827333E+04 -1.015695E+05 -8.209605E+04 -5.048079E+04
       216  24  8.184656E+05  1.128838E+03  4.900204E+04 -1.167129E+05 -3.632239E+04 -5.687298E+04
       216  25  1.962047E+06  4.453009E+05  4.541566E+05 -2.146767E+05 -2.024845E+05 -1.564560E+04
       216  26  1.814216E+06  2.715435E+05  2.912888E+05 -1.436717E+05 -1.134739E+05 -5.048615E+04
       216  27  1.706585E+06  2.116569E+05  2.147410E+05 -1.030635E+05 -2.451720E+04 -5.686181E+04
       217   1  1.057739E+04 -1.836863E+05 -1.113589E+05 -1.150455E+05  3.715160E+04  5.208609E+04
       217   2  1.364740E+05 -1.588054E+05 -1.022396E+05 -1.007535E+05  3.011879E+04  4.616879E+04
       217   3  2.644830E+05 -1.295779E+05 -8.743017E+04 -1.184025E+05  2.308140E+04  3.807397E+04
       217   4  8.117994E+05  6.278000E+03  3.759306E+04 -1.170783E+05  2.988022E+04  5.207801E+04
       217   5  8.104977E+05  5.259586E+02  2.073510E+04 -1.011087E+05  1.954210E+04  4.616249E+04
       217   6  8.118617E+05 -3.092343E+02  1.185383E+04 -1.170776E+05  9.200821E+03  3.807063E+04
       217   7  1.613643E+06  1.962055E+05  1.865180E+05 -1.191138E+05  2.259967E+04  5.206998E+04
       217   8  1.484963E+06  1.598317E+05  1.436919E+05 -1.014643E+05  8.954230E+03  4.615621E+04
       217   9  1.359532E+06  1.289428E+05  1.111267E+05 -1.157514E+05 -4.691654E+03  3.806722E+04
       217  10  1.057518E+04 -1.836896E+05 -1.113666E+05 -1.150470E+05  1.725219E-09  5.480132E-11
       217  11  1.364725E+05 -1.588079E+05 -1.022453E+05 -1.007546E+05  6.298480E-10 -2.579621E-10
       217  12  2.644820E+05 -1.295796E+05 -8.743390E+04 -1.184032E+05 -7.560743E-10 -7.629544E-10
       217  13  8.117977E+05  6.274847E+03  3.758628E+04 -1.170795E+05 -8.117835E-10  1.170534E-09
       217  14  8.104967E+05  5.235669E+02  2.073038E+04 -1.011094E+05 -5.322503E-10  1.146852E-10
       217  15  8.118612E+05 -3.108141E+02  1.185095E+04 -1.170779E+05 -6.849227E-10 -9.814520E-10
       217  16  1.613641E+06  1.962025E+05  1.865120E+05 -1.191147E+05 -4.834097E-10  1.188920E-09
       217  17  1.484962E+06  1.598294E+05  1.436878E+05 -1.014646E+05  9.423264E-10  1.555652E-11
       217  18  1.359532E+06  1.289412E+05  1.111239E+05 -1.157513E+05  1.006671E-09 -7.579285E-10
       217  19  1.057739E+04 -1.836863E+05 -1.113589E+05 -1.150455E+05 -3.715160E+04 -5.208609E+04
       217  20  1.364740E+05 -1.588054E+05 -1.022396E+05 -1.007535E+05 -3.011879E+04 -4.616879E+04
       217  21  2.644830E+05 -1.295779E+05 -8.743017E+04 -1.184025E+05 -2.308140E+04 -3.807397E+04
       217  22  8.117994E+05  6.278000E+03  3.759306E+04 -1.170783E+05 -2.988022E+04 -5.207801E+04
       217  23  8.104977E+05  5.259586E+02  2.073510E+04 -1.011087E+05 -1.954210E+04 -4.616249E+04
       217  24  8.118617E+05 -3.092343E+02  1.185383E+04 -1.170776E+05 -9.200821E+03 -3.807063E+04
       217  25  1.613643E+06  1.962055E+05  1.865180E+05 -1.191138E+05 -2.259967E+04 -5.206998E+04
       217  26  1.484963E+06  1.598317E+05  1.436919E+05 -1.014643E+05 -8.954230E+03 -4.615621E+04
       217  27  1.359532E+06  1.289428E+05  1.111267E+05 -1.157514E+05  4.691654E+03 -3.806722E+04
       218   1  3.487990E+05 -1.091539E+05 -7.436079E+04 -1.175768E+05  2.089549E+04  3.271328E+04
       218   2  4.753212E+05 -7.940593E+04 -5.546038E+04 -1.014356E+05  1.860998E+04  2.368571E+04
       218   3  6.022275E+05 -4.947547E+04 -3.502046E+04 -1.173017E+05  1.632164E+04  1.449450E+04
       218   4  8.113780E+05 -2.363045E+01  9.005932E+03 -1.170931E+05  7.366881E+03  3.271151E+04
       218   5  8.111861E+05 -1.633155E+02  5.127745E+03 -1.010900E+05  4.830887E+03  2.368570E+04
       218   6  8.114071E+05 -7.623181E+01  2.961824E+03 -1.170933E+05  2.292506E+03  1.449633E+04
       218   7  1.274166E+06  1.090948E+05  9.236500E+04 -1.166089E+05 -6.171522E+03  3.270971E+04
       218   8  1.147161E+06  7.907310E+04  6.571218E+04 -1.007442E+05 -8.955451E+03  2.368567E+04
       218   9  1.020630E+06  4.932066E+04  4.094310E+04 -1.168848E+05 -1.174122E+04  1.449815E+04
       218  10  3.487982E+05 -1.091551E+05 -7.436362E+04 -1.175774E+05 -1.070781E-09 -5.847444E-10
       218  11  4.753207E+05 -7.940662E+04 -5.546209E+04 -1.014359E+05 -1.358667E-09  7.721483E-11
       218  12  6.022271E+05 -4.947577E+04 -3.502135E+04 -1.173019E+05 -2.307859E-09  1.005185E-09
       218  13  8.113777E+05 -2.479453E+01  9.003819E+03 -1.170933E+05 -8.312976E-10 -5.576099E-10
       218  14  8.111859E+05 -1.639244E+02  5.126647E+03 -1.010901E+05 -1.057488E-09  4.831382E-10
       218  15  8.114071E+05 -7.645897E+01  2.961419E+03 -1.170933E+05  2.270652E-10  1.186155E-09
       218  16  1.274165E+06  1.090936E+05  9.236292E+04 -1.166087E+05  1.130317E-09 -4.949025E-10
       218  17  1.147161E+06  7.907247E+04  6.571097E+04 -1.007440E+05  4.113177E-10  6.590616E-10
       218  18  1.020629E+06  4.932040E+04  4.094245E+04 -1.168846E+05  1.470838E-09  1.237511E-09
       218  19  3.487990E+05 -1.091539E+05 -7.436079E+04 -1.175768E+05 -2.089549E+04 -3.271328E+04
       218  20  4.753212E+05 -7.940593E+04 -5.546038E+04 -1.014356E+05 -1.860998E+04 -2.368571E+04
       218  21  6.022275E+05 -4.947547E+04 -3.502046E+04 -1.173017E+05 -1.632164E+04 -1.449450E+04
       218  22  8.113780E+05 -2.363045E+01  9.005932E+03 -1.170931E+05 -7.366881E+03 -3.271151E+04
       218  23  8.111861E+05 -1.633155E+02  5.127745E+03 -1.010900E+05 -4.830887E+03 -2.368570E+04
       218  24  8.114071E+05 -7.623181E+01  2.961824E+03 -1.170933E+05 -2.292506E+03 -1.449633E+04
       218  25  1.274166E+06  1.090948E+05  9.236500E+04 -1.166089E+05  6.171522E+03 -3.270971E+04
       218  26  1.147161E+06  7.907310E+04  6.571218E+04 -1.007442E+05  8.955451E+03 -2.368567E+04
       218  27  1.020630E+06  4.932066E+04  4.094310E+04 -1.168848E+05  1.174122E+04 -1.449815E+04
       219   1  6.867933E+05 -2.936910E+04 -1.989615E+04 -1.172455E+05  1.582011E+04  9.097382E+03
       219   2  8.133986E+05  4.589323E+02  1.688722E+03 -1.011965E+05  1.518714E+04 -1.603400E+02
       219   3  9.401103E+05  3.029337E+04  2.368753E+04 -1.171454E+05  1.455406E+04 -9.429761E+03
       219   4  8.113414E+05 -5.006531E+01  2.256059E+03 -1.170914E+05  1.818904E+03  9.099744E+03
       219   5  8.112955E+05 -3.531012E+01  1.318421E+03 -1.010925E+05  1.166653E+03 -1.580031E+02
       219   6  8.113415E+05 -1.071034E+01  8.070115E+02 -1.170914E+05  5.144096E+02 -9.427419E+03
       219   7  9.359050E+05  2.926822E+04  2.440842E+04 -1.169372E+05 -1.218502E+04  9.102099E+03
       219   8  8.091929E+05 -5.294474E+02  9.488565E+02 -1.009884E+05 -1.285379E+04 -1.556709E+02
       219   9  6.825893E+05 -3.031560E+04 -2.207338E+04 -1.170374E+05 -1.352242E+04 -9.425080E+03
       219  10  6.867930E+05 -2.936925E+04 -1.989677E+04 -1.172456E+05  9.416518E-09  8.288119E-10
       219  11  8.133983E+05  4.588705E+02  1.688289E+03 -1.011965E+05 -1.801571E-08 -5.489230E-10
       219  12  9.401100E+05  3.029322E+04  2.368696E+04 -1.171452E+05 -4.227438E-08 -1.947550E-09
       219  13  8.113414E+05 -5.015516E+01  2.255897E+03 -1.170914E+05  3.361538E-11  8.169641E-10
       219  14  8.112955E+05 -3.531051E+01  1.318418E+03 -1.010925E+05 -6.888236E-10 -6.073776E-10
       219  15  8.113415E+05 -1.080589E+01  8.068440E+02 -1.170914E+05  7.824103E-10 -2.328923E-09
       219  16  9.359049E+05  2.926809E+04  2.440798E+04 -1.169371E+05 -8.740264E-09  7.098168E-10
       219  17  8.091927E+05 -5.294917E+02  9.485464E+02 -1.009884E+05  1.610163E-08 -7.830850E-10
       219  18  6.825891E+05 -3.031574E+04 -2.207389E+04 -1.170375E+05  4.213688E-08 -2.362940E-09
       219  19  6.867933E+05 -2.936910E+04 -1.989615E+04 -1.172455E+05 -1.582011E+04 -9.097382E+03
       219  20  8.133986E+05  4.589323E+02  1.688722E+03 -1.011965E+05 -1.518714E+04  1.603400E+02
       219  21  9.401103E+05  3.029337E+04  2.368753E+04 -1.171454E+05 -1.455406E+04  9.429761E+03
       219  22  8.113414E+05 -5.006531E+01  2.256059E+03 -1.170914E+05 -1.818904E+03 -9.099744E+03
       219  23  8.112955E+05 -3.531012E+01  1.318421E+03 -1.010925E+05 -1.166653E+03  1.580031E+02
       219  24  8.113415E+05 -1.071034E+01  8.070115E+02 -1.170914E+05 -5.144096E+02  9.427419E+03
       219  25  9.359050E+05  2.926822E+04  2.440842E+04 -1.169372E+05  1.218502E+04 -9.102099E+03
       219  26  8.091929E+05 -5.294474E+02  9.488565E+02 -1.009884E+05  1.285379E+04  1.556709E+02
       219  27  6.825893E+05 -3.031560E+04 -2.207338E+04 -1.170374E+05  1.352242E+04  9.425080E+03
       220   1  1.024748E+06  5.036486E+04  3.935688E+04 -1.171485E+05  1.442444E+04 -1.482896E+04
       220   2  1.151481E+06  8.016380E+04  6.170989E+04 -1.010977E+05  1.417201E+04 -2.409903E+04
       220   3  1.278289E+06  1.099626E+05  8.423229E+04 -1.170649E+05  1.392206E+04 -3.335784E+04
       220   4  8.113281E+05 -1.520055E+01  6.524932E+02 -1.170961E+05  3.805327E+02 -1.482717E+04
       220   5  8.112856E+05 -4.501628E+01  4.778347E+02 -1.010866E+05  1.438973E+02 -2.409910E+04
       220   6  8.113000E+05 -7.704130E+01  4.612768E+02 -1.170961E+05 -9.021500E+01 -3.335973E+04
       220   7  5.979527E+05 -5.039771E+04 -3.805296E+04 -1.170438E+05 -1.365869E+04 -1.482539E+04
       220   8  4.712031E+05 -8.026018E+04 -6.075798E+04 -1.010755E+05 -1.387676E+04 -2.409917E+04
       220   9  3.445231E+05 -1.101287E+05 -8.331740E+04 -1.171273E+05 -1.409227E+04 -3.336163E+04
       220  10  1.024748E+06  5.036457E+04  3.935608E+04 -1.171483E+05  4.217605E-08 -2.159965E-09
       220  11  1.151481E+06  8.016313E+04  6.170842E+04 -1.010974E+05  1.890529E-08 -1.253239E-09
       220  12  1.278289E+06  1.099614E+05  8.422983E+04 -1.170646E+05 -9.187013E-09 -1.902930E-11
       220  13  8.113280E+05 -1.543675E+01  6.520797E+02 -1.170961E+05  1.132987E-09 -2.301956E-09
       220  14  8.112854E+05 -4.564017E+01  4.767429E+02 -1.010866E+05  3.308572E-09 -7.448670E-10
       220  15  8.112997E+05 -7.823679E+01  4.591847E+02 -1.170961E+05  2.943207E-10  7.341063E-10
       220  16  5.979524E+05 -5.039800E+04 -3.805372E+04 -1.170439E+05 -4.207575E-08 -2.211655E-09
       220  17  4.712027E+05 -8.026085E+04 -6.075943E+04 -1.010757E+05 -1.959040E-08 -2.640638E-10
       220  18  3.445226E+05 -1.101300E+05 -8.331986E+04 -1.171277E+05  9.175103E-09  1.485627E-09
       220  19  1.024748E+06  5.036486E+04  3.935688E+04 -1.171485E+05 -1.442444E+04  1.482896E+04
       220  20  1.151481E+06  8.016380E+04  6.170989E+04 -1.010977E+05 -1.417201E+04  2.409903E+04
       220  21  1.278289E+06  1.099626E+05  8.423229E+04 -1.170649E+05 -1.392206E+04  3.335784E+04
       220  22  8.113281E+05 -1.520055E+01  6.524932E+02 -1.170961E+05 -3.805327E+02  1.482717E+04
       220  23  8.112856E+05 -4.501628E+01  4.778347E+02 -1.010866E+05 -1.438973E+02  2.409910E+04
       220  24  8.113000E+05 -7.704130E+01  4.612768E+02 -1.170961E+05  9.021500E+01  3.335973E+04
       220  25  5.979527E+05 -5.039771E+04 -3.805296E+04 -1.170438E+05  1.365869E+04  1.482539E+04
       220  26  4.712031E+05 -8.026018E+04 -6.075798E+04 -1.010755E+05  1.387676E+04  2.409917E+04
       220  27  3.445231E+05 -1.101287E+05 -8.331740E+04 -1.171273E+05  1.409227E+04  3.336163E+04
       221   1  1.363091E+06  1.300441E+05  1.001281E+05 -1.170450E+05  1.387834E+04 -3.875895E+04
       221   2  1.490034E+06  1.598760E+05  1.230000E+05 -1.008911E+05  1.321798E+04 -4.793434E+04
       221   3  1.617188E+06  1.897780E+05  1.463404E+05 -1.168074E+05  1.256239E+04 -5.690196E+04
       221   4  8.113020E+05 -9.938533E+01  5.072326E+02 -1.171080E+05 -1.772680E+02 -3.876249E+04
       221   5  8.112025E+05 -1.685674E+02  7.052049E+02 -1.010718E+05 -5.237404E+02 -4.794149E+04
       221   6  8.112456E+05 -2.208873E+02  1.154566E+03 -1.171079E+05 -8.653215E+02 -5.691259E+04
       221   7  2.598094E+05 -1.302598E+05 -9.912481E+04 -1.171708E+05 -1.422075E+04 -3.876603E+04
       221   8  1.328193E+05 -1.602388E+05 -1.216068E+05 -1.012523E+05 -1.425089E+04 -4.794865E+04
       221   9  5.934684E+03 -1.902559E+05 -1.440559E+05 -1.174081E+05 -1.427613E+04 -5.692322E+04
       221  10  1.363090E+06  1.300425E+05  1.001249E+05 -1.170446E+05  2.464064E-09  8.189347E-10
       221  11  1.490033E+06  1.598735E+05  1.229953E+05 -1.008906E+05  9.892664E-10  1.940545E-10
       221  12  1.617187E+06  1.897745E+05  1.463341E+05 -1.168068E+05  1.040818E-09 -6.596372E-10
       221  13  8.113016E+05 -1.009994E+02  5.044080E+02 -1.171080E+05 -5.389774E-10  1.069188E-09
       221  14  8.112019E+05 -1.710364E+02  7.008836E+02 -1.010718E+05 -1.269538E-09  8.880137E-11
       221  15  8.112448E+05 -2.243670E+02  1.148475E+03 -1.171080E+05 -1.157474E-09 -7.485476E-10
       221  16  2.598088E+05 -1.302615E+05 -9.912801E+04 -1.171712E+05 -2.624376E-09  1.178554E-09
       221  17  1.328184E+05 -1.602413E+05 -1.216115E+05 -1.012528E+05 -3.086227E-09 -2.615042E-10
       221  18  5.933595E+03 -1.902594E+05 -1.440624E+05 -1.174088E+05 -1.520973E-09 -2.163659E-10
       221  19  1.363091E+06  1.300441E+05  1.001281E+05 -1.170450E+05 -1.387834E+04  3.875895E+04
       221  20  1.490034E+06  1.598760E+05  1.230000E+05 -1.008911E+05 -1.321798E+04  4.793434E+04
       221  21  1.617188E+06  1.897780E+05  1.463404E+05 -1.168074E+05 -1.256239E+04  5.690196E+04
       221  22  8.113020E+05 -9.938533E+01  5.072326E+02 -1.171080E+05  1.772680E+02  3.876249E+04
       221  23  8.112025E+05 -1.685674E+02  7.052049E+02 -1.010718E+05  5.237404E+02  4.794149E+04
       221  24  8.112456E+05 -2.208873E+02  1.154566E+03 -1.171079E+05  8.653215E+02  5.691259E+04
       221  25  2.598094E+05 -1.302598E+05 -9.912481E+04 -1.171708E+05  1.422075E+04  3.876603E+04
       221  26  1.328193E+05 -1.602388E+05 -1.216068E+05 -1.012523E+05  1.425089E+04  4.794865E+04
       221  27  5.934684E+03 -1.902559E+05 -1.440559E+05 -1.174081E+05  1.427613E+04  5.692322E+04
       222   1  1.702410E+06  2.099066E+05  1.626608E+05 -1.166039E+05  1.279553E+04 -6.225874E+04
       222   2  1.829289E+06  2.401278E+05  1.878060E+05 -1.005966E+05  7.269295E+03 -7.002318E+04
       222   3  1.957438E+06  2.716772E+05  2.169237E+05 -1.165814E+05  1.745576E+03 -7.497830E+04
       222   4  8.113003E+05 -2.881137E+02  1.498735E+03 -1.170907E+05 -1.094786E+03 -6.227223E+04
       222   5  8.109996E+05 -2.675609E+02  2.557595E+03 -1.010932E+05 -2.361850E+03 -7.003917E+04
       222   6  8.112152E+05  3.444064E+02  4.637702E+03 -1.170911E+05 -3.625241E+03 -7.499449E+04
       222   7 -7.903833E+04 -2.105272E+05 -1.596939E+05 -1.175768E+05 -1.496575E+04 -6.228571E+04
       222   8 -2.062839E+05 -2.407212E+05 -1.827320E+05 -1.015891E+05 -1.197766E+04 -7.005516E+04
       222   9 -3.337378E+05 -2.710635E+05 -2.077034E+05 -1.176000E+05 -8.986418E+03 -7.501069E+04
       222  10  1.702409E+06  2.099024E+05  1.626532E+05 -1.166033E+05 -2.166930E-09 -9.612819E-10
       222  11  1.829287E+06  2.401225E+05  1.877967E+05 -1.005962E+05  1.096695E-09 -1.031565E-10
       222  12  1.957436E+06  2.716712E+05  2.169131E+05 -1.165813E+05  1.960732E-09 -9.139613E-10
       222  13  8.112992E+05 -2.922797E+02  1.491443E+03 -1.170908E+05 -3.214812E-09 -5.898146E-10
       222  14  8.109983E+05 -2.728320E+02  2.548363E+03 -1.010934E+05 -1.942166E-09 -2.425231E-10
       222  15  8.112137E+05  3.383611E+02  4.627104E+03 -1.170913E+05 -2.088987E-10 -7.446855E-10
       222  16 -7.903961E+04 -2.105314E+05 -1.597016E+05 -1.175776E+05  5.503874E-10  7.424170E-11
       222  17 -2.062854E+05 -2.407265E+05 -1.827415E+05 -1.015898E+05 -1.729393E-09  1.754934E-09
       222  18 -3.337394E+05 -2.710695E+05 -2.077141E+05 -1.176005E+05 -1.482118E-09  3.867243E-11
       222  19  1.702410E+06  2.099066E+05  1.626608E+05 -1.166039E+05 -1.279553E+04  6.225874E+04
       222  20  1.829289E+06  2.401278E+05  1.878060E+05 -1.005966E+05 -7.269295E+03  7.002318E+04
       222  21  1.957438E+06  2.716772E+05  2.169237E+05 -1.165814E+05 -1.745576E+03  7.497830E+04
       222  22  8.113003E+05 -2.881137E+02  1.498735E+03 -1.170907E+05  1.094786E+03  6.227223E+04
       222  23  8.109996E+05 -2.675609E+02  2.557595E+03 -1.010932E+05  2.361850E+03  7.003917E+04
       222  24  8.112152E+05  3.444064E+02  4.637702E+03 -1.170911E+05  3.625241E+03  7.499449E+04
       222  25 -7.903833E+04 -2.105272E+05 -1.596939E+05 -1.175768E+05  1.496575E+04  6.228571E+04
       222  26 -2.062839E+05 -2.407212E+05 -1.827320E+05 -1.015891E+05  1.197766E+04  7.005516E+04
       222  27 -3.337378E+05 -2.710635E+05 -2.077034E+05 -1.176000E+05  8.986418E+03  7.501069E+04
       223   1  2.045293E+06  2.917913E+05  2.354826E+05 -1.139857E+05  6.818929E+03 -7.960270E+04
       223   2  2.166671E+06  3.281308E+05  2.819238E+05 -1.056408E+05 -5.457255E+04 -6.869020E+04
       223   3  2.302100E+06  3.873828E+05  3.740428E+05 -1.272049E+05 -1.160483E+05 -2.099805E+04
       223   4  8.120369E+05 -3.421403E+02  6.046071E+03 -1.166226E+05 -4.417131E+03 -7.962697E+04
       223   5  8.097835E+05  3.020979E+03  1.083859E+04 -1.016807E+05 -1.002163E+04 -6.864668E+04
       223   6  8.119201E+05  1.965494E+04  2.265878E+04 -1.166468E+05 -1.569520E+04 -2.085143E+04
       223   7 -4.197500E+05 -2.925627E+05 -2.234546E+05 -1.192543E+05 -1.563149E+04 -7.965118E+04
       223   8 -5.453471E+05 -3.222005E+05 -2.603319E+05 -9.772972E+04  3.443415E+04 -6.860256E+04
       223   9 -6.762017E+05 -3.482255E+05 -3.288405E+05 -1.061148E+05  8.441916E+04 -2.070124E+04
       223  10  2.045291E+06  2.917845E+05  2.354706E+05 -1.139852E+05  4.063462E-10 -2.366135E-09
       223  11  2.166666E+06  3.281250E+05  2.819094E+05 -1.056438E+05 -3.071114E-09 -4.828656E-09
       223  12  2.302085E+06  3.873787E+05  3.740167E+05 -1.272068E+05 -3.156952E-09 -1.427734E-09
       223  13  8.120352E+05 -3.489567E+02  6.034115E+03 -1.166228E+05 -8.605668E-10 -5.537627E-09
       223  14  8.097821E+05  3.015889E+03  1.082954E+04 -1.016812E+05 -8.923746E-10  1.882050E-09
       223  15  8.119197E+05  1.965440E+04  2.265750E+04 -1.166471E+05 -4.418255E-10 -1.021915E-10
       223  16 -4.197520E+05 -2.925696E+05 -2.234670E+05 -1.192553E+05 -6.739932E-11 -1.236649E-09
       223  17 -5.453496E+05 -3.222059E+05 -2.603430E+05 -9.772782E+04  2.015274E-10  1.677932E-09
       223  18 -6.762094E+05 -3.482279E+05 -3.288547E+05 -1.061134E+05  4.375188E-09 -1.331547E-09
       223  19  2.045293E+06  2.917913E+05  2.354826E+05 -1.139857E+05 -6.818929E+03  7.960270E+04
       223  20  2.166671E+06  3.281308E+05  2.819238E+05 -1.056408E+05  5.457255E+04  6.869020E+04
       223  21  2.302100E+06  3.873828E+05  3.740428E+05 -1.272049E+05  1.160483E+05  2.099805E+04
       223  22  8.120369E+05 -3.421403E+02  6.046071E+03 -1.166226E+05  4.417131E+03  7.962697E+04
       223  23  8.097835E+05  3.020979E+03  1.083859E+04 -1.016807E+05  1.002163E+04  6.864668E+04
       223  24  8.119201E+05  1.965494E+04  2.265878E+04 -1.166468E+05  1.569520E+04  2.085143E+04
       223  25 -4.197500E+05 -2.925627E+05 -2.234546E+05 -1.192543E+05  1.563149E+04  7.965118E+04
       223  26 -5.453471E+05 -3.222005E+05 -2.603319E+05 -9.772972E+04 -3.443415E+04  6.860256E+04
       223  27 -6.762017E+05 -3.482255E+05 -3.288405E+05 -1.061148E+05 -8.441916E+04  2.070124E+04
       224   1  5.257928E+05  2.096365E+06  5.105116E+05 -4.776570E+05  2.252067E+04  1.280733E+05
       224   2  3.673628E+05  1.590317E+06  3.252683E+05 -4.063516E+05  6.745209E+04  4.056683E+04
       224   3  2.423428E+05  1.104084E+06  2.052014E+05 -4.567523E+05  6.055729E+04 -4.692900E+04
       224   4  3.032116E+04  9.423858E+04  3.302185E+04 -4.571101E+05  2.273611E+04  2.092910E+04
       224   5  6.281642E+03  9.147145E+04  1.741400E+04 -3.962812E+05  6.752764E+04  1.203717E+04
       224   6  2.089206E+03  9.471573E+04  1.253375E+04 -4.571671E+05  6.043874E+04  3.084601E+03
       224   7 -4.654324E+05 -1.904195E+06 -4.447063E+05 -4.366265E+05  2.294493E+04 -8.587212E+04
       224   8 -3.549401E+05 -1.405244E+06 -2.905573E+05 -3.862337E+05  6.760237E+04 -1.642500E+04
       224   9 -2.382229E+05 -9.136666E+05 -1.801707E+05 -4.575803E+05  6.032000E+04  5.301892E+04
       224  10  5.257879E+05  2.096348E+06  5.104799E+05 -4.776593E+05  1.457888E-10  2.707187E-09
       224  11  3.673574E+05  1.590314E+06  3.252566E+05 -4.063538E+05  3.247575E-10  1.271841E-09
       224  12  2.423383E+05  1.104081E+06  2.051904E+05 -4.567500E+05  3.405794E-10 -4.319861E-10
       224  13  3.032048E+04  9.423797E+04  3.302005E+04 -4.571105E+05  2.265728E-09 -1.345559E-09
       224  14  6.276706E+03  9.147007E+04  1.740515E+04 -3.962819E+05  2.049607E-09 -8.866720E-10
       224  15  2.085280E+03  9.471474E+04  1.252687E+04 -4.571673E+05  1.426357E-09 -7.621912E-10
       224  16 -4.654350E+05 -1.904203E+06 -4.447212E+05 -4.366249E+05  6.958186E-10 -1.458956E-09
       224  17 -3.549450E+05 -1.405245E+06 -2.905664E+05 -3.862328E+05  4.739998E-09  5.460845E-09
       224  18 -2.382276E+05 -9.136706E+05 -1.801829E+05 -4.575829E+05 -2.185199E-10  7.048227E-10
       224  19  5.257928E+05  2.096365E+06  5.105116E+05 -4.776570E+05 -2.252067E+04 -1.280733E+05
       224  20  3.673628E+05  1.590317E+06  3.252683E+05 -4.063516E+05 -6.745209E+04 -4.056683E+04
       224  21  2.423428E+05  1.104084E+06  2.052014E+05 -4.567523E+05 -6.055729E+04  4.692900E+04
       224  22  3.032116E+04  9.423858E+04  3.302185E+04 -4.571101E+05 -2.273611E+04 -2.092910E+04
       224  23  6.281642E+03  9.147145E+04  1.741400E+04 -3.962812E+05 -6.752764E+04 -1.203717E+04
       224  24  2.089206E+03  9.471573E+04  1.253375E+04 -4.571671E+05 -6.043874E+04 -3.084601E+03
       224  25 -4.654324E+05 -1.904195E+06 -4.447063E+05 -4.366265E+05 -2.294493E+04  8.587212E+04
       224  26 -3.549401E+05 -1.405244E+06 -2.905573E+05 -3.862337E+05 -6.760237E+04  1.642500E+04
       224  27 -2.382229E+05 -9.136666E+05 -1.801707E+05 -4.575803E+05 -6.032000E+04 -5.301892E+04
       225   1  1.638868E+05  7.694025E+05  1.407918E+05 -4.600090E+05  4.063913E+04 -4.116963E+04
       225   2  4.480965E+04  2.732344E+05  4.591718E+04 -3.956582E+05  1.240212E+04 -4.870239E+04
       225   3 -7.049036E+04 -2.213146E+05 -4.327404E+04 -4.560004E+05 -1.649754E+04 -5.623509E+04
       225   4  3.032861E+03  9.375766E+04  1.186157E+04 -4.578217E+05  4.053129E+04  1.082929E+03
       225   5  2.222956E+03  9.318290E+04  1.299307E+04 -3.954724E+05  1.228896E+04 -5.460427E+03
       225   6  5.030367E+03  9.381558E+04  1.912124E+04 -4.578168E+05 -1.661666E+04 -1.200941E+04
       225   7 -1.578470E+05 -5.814439E+05 -1.170827E+05 -4.556365E+05  4.042367E+04  4.329063E+04
       225   8 -4.036457E+04 -8.683307E+04 -1.992532E+04 -3.952865E+05  1.217581E+04  3.776933E+04
       225   9  8.054610E+04  4.090450E+05  8.151896E+04 -4.596340E+05 -1.673599E+04  3.223826E+04
       225  10  1.638846E+05  7.694002E+05  1.407855E+05 -4.600076E+05  8.064952E-11  3.082583E-09
       225  11  4.480885E+04  2.732318E+05  4.591244E+04 -3.956577E+05  3.081273E-10  8.772890E-10
       225  12 -7.049150E+04 -2.213181E+05 -4.328050E+04 -4.560011E+05  9.012187E-10 -2.955752E-10
       225  13  3.031096E+03  9.375722E+04  1.185848E+04 -4.578218E+05  4.043951E-10 -2.052114E-09
       225  14  2.222785E+03  9.318283E+04  1.299273E+04 -3.954723E+05  1.249607E-09 -1.091816E-09
       225  15  5.030031E+03  9.381535E+04  1.912044E+04 -4.578169E+05 -6.563607E-10 -6.602630E-10
       225  16 -1.578493E+05 -5.814463E+05 -1.170893E+05 -4.556379E+05 -1.074110E-10 -9.554466E-10
       225  17 -4.036511E+04 -8.683464E+04 -1.992828E+04 -3.952869E+05 -1.026009E-09  7.056421E-09
       225  18  8.054552E+04  4.090438E+05  8.151649E+04 -4.596335E+05 -1.885756E-09  6.681969E-10
       225  19  1.638868E+05  7.694025E+05  1.407918E+05 -4.600090E+05 -4.063913E+04  4.116963E+04
       225  20  4.480965E+04  2.732344E+05  4.591718E+04 -3.956582E+05 -1.240212E+04  4.870239E+04
       225  21 -7.049036E+04 -2.213146E+05 -4.327404E+04 -4.560004E+05  1.649754E+04  5.623509E+04
       225  22  3.032861E+03  9.375766E+04  1.186157E+04 -4.578217E+05 -4.053129E+04 -1.082929E+03
       225  23  2.222956E+03  9.318290E+04  1.299307E+04 -3.954724E+05 -1.228896E+04  5.460427E+03
       225  24  5.030367E+03  9.381558E+04  1.912124E+04 -4.578168E+05  1.661666E+04  1.200941E+04
       225  25 -1.578470E+05 -5.814439E+05 -1.170827E+05 -4.556365E+05 -4.042367E+04 -4.329063E+04
       225  26 -4.036457E+04 -8.683307E+04 -1.992532E+04 -3.952865E+05 -1.217581E+04 -3.776933E+04
       225  27  8.054610E+04  4.090450E+05  8.151896E+04 -4.596340E+05  1.673599E+04 -3.223826E+04
       226   1 -1.521434E+05 -5.513113E+05 -1.020823E+05 -4.620968E+05 -3.656338E+04 -6.578097E+04
       226   2 -2.604055E+05 -1.048358E+06 -1.958979E+05 -3.747696E+05 -4.851178E+04 -2.171397E+04
       226   3 -3.307285E+05 -1.541699E+06 -3.090341E+05 -4.097267E+05 -1.727476E+04  2.238022E+04
       226   4  2.654734E+03  9.676682E+04  2.380437E+04 -4.572970E+05 -3.669479E+04 -1.531516E+04
       226   5  1.470267E+04  8.920030E+04  4.086832E+04 -3.960929E+05 -4.846917E+04 -3.648585E+04
       226   6  7.598738E+04  9.640164E+04  8.391929E+04 -4.571387E+05 -1.709793E+04 -5.759423E+04
       226   7  1.574293E+05  7.452541E+05  1.496808E+05 -4.524917E+05 -3.682534E+04  3.520220E+04
       226   8  2.897300E+05  1.227986E+06  2.775645E+05 -4.174549E+05 -4.842559E+04 -5.128434E+04
       226   9  4.825196E+05  1.736982E+06  4.767076E+05 -5.046744E+05 -1.690916E+04 -1.377791E+05
       226  10 -1.521460E+05 -5.513164E+05 -1.020930E+05 -4.620987E+05  1.421686E-09  4.183371E-09
       226  11 -2.604082E+05 -1.048359E+06 -1.959032E+05 -3.747705E+05  1.892951E-09  1.702025E-09
       226  12 -3.307289E+05 -1.541700E+06 -3.090356E+05 -4.097264E+05  1.139356E-09 -1.001237E-09
       226  13  2.653224E+03  9.676621E+04  2.380140E+04 -4.572975E+05 -1.804726E-10 -1.935036E-09
       226  14  1.469979E+04  8.919824E+04  4.086140E+04 -3.960943E+05  1.230268E-10 -9.519075E-10
       226  15  7.598617E+04  9.639800E+04  8.391251E+04 -4.571395E+05 -3.878813E-10 -5.474432E-10
       226  16  1.574275E+05  7.452524E+05  1.496760E+05 -4.524907E+05 -3.457084E-09 -1.825950E-09
       226  17  2.897268E+05  1.227983E+06  2.775551E+05 -4.174569E+05 -1.261068E-09  5.758971E-09
       226  18  4.825142E+05  1.736962E+06  4.766715E+05 -5.046763E+05 -3.816293E-10  1.301568E-09
       226  19 -1.521434E+05 -5.513113E+05 -1.020823E+05 -4.620968E+05  3.656338E+04  6.578097E+04
       226  20 -2.604055E+05 -1.048358E+06 -1.958979E+05 -3.747696E+05  4.851178E+04  2.171397E+04
       226  21 -3.307285E+05 -1.541699E+06 -3.090341E+05 -4.097267E+05  1.727476E+04 -2.238022E+04
       226  22  2.654734E+03  9.676682E+04  2.380437E+04 -4.572970E+05  3.669479E+04  1.531516E+04
       226  23  1.470267E+04  8.920030E+04  4.086832E+04 -3.960929E+05  4.846917E+04  3.648585E+04
       226  24  7.598738E+04  9.640164E+04  8.391929E+04 -4.571387E+05  1.709793E+04  5.759423E+04
       226  25  1.574293E+05  7.452541E+05  1.496808E+05 -4.524917E+05  3.682534E+04 -3.520220E+04
       226  26  2.897300E+05  1.227986E+06  2.775645E+05 -4.174549E+05  4.842559E+04  5.128434E+04
       226  27  4.825196E+05  1.736982E+06  4.767076E+05 -5.046744E+05  1.690916E+04  1.377791E+05
       227   1 -1.391757E+06 -6.208579E+05 -3.567201E+05 -5.596632E+05 -1.572820E+05 -4.662423E+04
       227   2 -1.313383E+06 -4.339825E+05 -2.185212E+05 -5.263162E+05 -9.848530E+04  3.205826E+03
       227   3 -1.263893E+06 -3.597742E+05 -1.571557E+05 -4.885484E+05 -3.190144E+04  3.238182E+04
       227   4 -6.992567E+05 -2.846517E+05 -1.617983E+05 -2.922368E+05 -1.084211E+05 -2.827637E+04
       227   5 -6.787742E+05 -1.681470E+05 -7.380429E+04 -3.181323E+05 -7.878143E+04  1.060213E+04
       227   6 -6.813486E+05 -1.584732E+05 -3.946146E+04 -3.396243E+05 -4.136839E+04  2.882207E+04
       227   7 -6.276583E+03  5.168523E+04  3.308719E+04 -2.450995E+04 -5.950110E+04 -9.891205E+03
       227   8 -4.375374E+04  9.775369E+04  7.088765E+04 -1.097413E+05 -5.905586E+04  1.800916E+04
       227   9 -9.845299E+04  4.284845E+04  7.821717E+04 -1.905742E+05 -5.084496E+04  2.525918E+04
       227  10 -1.391784E+06 -6.208669E+05 -3.567708E+05 -5.596691E+05  4.397225E-09  1.823458E-09
       227  11 -1.313394E+06 -4.339851E+05 -2.185395E+05 -5.263159E+05 -9.148467E-09 -2.314697E-09
       227  12 -1.263894E+06 -3.597756E+05 -1.571596E+05 -4.885476E+05 -2.241369E-08 -9.148423E-09
       227  13 -6.992695E+05 -2.846557E+05 -1.618220E+05 -2.922393E+05  5.654217E-10  9.575987E-10
       227  14 -6.787809E+05 -1.681488E+05 -7.381618E+04 -3.181317E+05 -2.503523E-09 -6.169152E-10
       227  15 -6.813507E+05 -1.584745E+05 -3.946624E+04 -3.396234E+05 -2.650066E-09 -1.663010E-09
       227  16 -6.280411E+03  5.168417E+04  3.308036E+04 -2.451043E+04 -2.851581E-09 -2.299573E-09
       227  17 -4.375757E+04  9.775240E+04  7.088049E+04 -1.097404E+05  9.347704E-09  3.011480E-09
       227  18 -9.845594E+04  4.284707E+04  7.821111E+04 -1.905732E+05  1.556731E-08  6.879292E-09
       227  19 -1.391757E+06 -6.208579E+05 -3.567201E+05 -5.596632E+05  1.572820E+05  4.662423E+04
       227  20 -1.313383E+06 -4.339825E+05 -2.185212E+05 -5.263162E+05  9.848530E+04 -3.205826E+03
       227  21 -1.263893E+06 -3.597742E+05 -1.571557E+05 -4.885484E+05  3.190144E+04 -3.238182E+04
       227  22 -6.992567E+05 -2.846517E+05 -1.617983E+05 -2.922368E+05  1.084211E+05  2.827637E+04
       227  23 -6.787742E+05 -1.681470E+05 -7.380429E+04 -3.181323E+05  7.878143E+04 -1.060213E+04
       227  24 -6.813486E+05 -1.584732E+05 -3.946146E+04 -3.396243E+05  4.136839E+04 -2.882207E+04
       227  25 -6.276583E+03  5.168523E+04  3.308719E+04 -2.450995E+04  5.950110E+04  9.891205E+03
       227  26 -4.375374E+04  9.775369E+04  7.088765E+04 -1.097413E+05  5.905586E+04 -1.800916E+04
       227  27 -9.845299E+04  4.284845E+04  7.821717E+04 -1.905742E+05  5.084496E+04 -2.525918E+04
       228   1 -1.189061E+06 -3.525663E+05 -1.353978E+05 -4.797013E+05 -2.993450E+04  2.869865E+04
       228   2 -1.110022E+06 -3.064817E+05 -1.019239E+05 -4.461882E+05 -1.825016E+04  2.792130E+04
       228   3 -1.016907E+06 -2.818318E+05 -7.705164E+04 -4.313732E+05 -6.042245E+03  2.574769E+04
       228   4 -6.763548E+05 -1.631382E+05 -3.015623E+04 -3.358339E+05 -3.535798E+04  2.665859E+04
       228   5 -6.832174E+05 -1.501025E+05 -1.593356E+04 -3.274215E+05 -2.564077E+04  2.514413E+04
       228   6 -6.756177E+05 -1.581089E+05 -8.746696E+03 -3.377096E+05 -1.540158E+04  2.223334E+04
       228   7 -1.633824E+05  2.631188E+04  7.507075E+04 -1.918574E+05 -4.078624E+04  2.461669E+04
       228   8 -2.562246E+05  6.292648E+03  7.004807E+04 -2.085791E+05 -3.303684E+04  2.236489E+04
       228   9 -3.342057E+05 -3.437520E+04  5.955376E+04 -2.439978E+05 -2.476652E+04  1.871693E+04
       228  10 -1.189062E+06 -3.525674E+05 -1.354010E+05 -4.797006E+05  1.354104E-08  5.224712E-09
       228  11 -1.110023E+06 -3.064826E+05 -1.019260E+05 -4.461878E+05  4.403499E-09  3.952614E-09
       228  12 -1.016907E+06 -2.818325E+05 -7.705295E+04 -4.313731E+05 -4.515513E-09 -2.052487E-09
       228  13 -6.763564E+05 -1.631393E+05 -3.015992E+04 -3.358332E+05 -4.098945E-09 -4.782336E-10
       228  14 -6.832183E+05 -1.501034E+05 -1.593599E+04 -3.274210E+05 -6.547977E-10 -8.657262E-10
       228  15 -6.756181E+05 -1.581094E+05 -8.748071E+03 -3.377094E+05  1.419870E-09 -7.235425E-11
       228  16 -1.633844E+05  2.631079E+04  7.506649E+04 -1.918566E+05 -2.055684E-08 -7.617570E-09
       228  17 -2.562259E+05  6.291819E+03  7.004508E+04 -2.085785E+05 -6.274971E-09 -2.269116E-09
       228  18 -3.342065E+05 -3.437574E+04  5.955195E+04 -2.439974E+05  5.229566E-09  2.360347E-09
       228  19 -1.189061E+06 -3.525663E+05 -1.353978E+05 -4.797013E+05  2.993450E+04 -2.869865E+04
       228  20 -1.110022E+06 -3.064817E+05 -1.019239E+05 -4.461882E+05  1.825016E+04 -2.792130E+04
       228  21 -1.016907E+06 -2.818318E+05 -7.705164E+04 -4.313732E+05  6.042245E+03 -2.574769E+04
       228  22 -6.763548E+05 -1.631382E+05 -3.015623E+04 -3.358339E+05  3.535798E+04 -2.665859E+04
       228  23 -6.832174E+05 -1.501025E+05 -1.593356E+04 -3.274215E+05  2.564077E+04 -2.514413E+04
       228  24 -6.756177E+05 -1.581089E+05 -8.746696E+03 -3.377096E+05  1.540158E+04 -2.223334E+04
       228  25 -1.633824E+05  2.631188E+04  7.507075E+04 -1.918574E+05  4.078624E+04 -2.461669E+04
       228  26 -2.562246E+05  6.292648E+03  7.004807E+04 -2.085791E+05  3.303684E+04 -2.236489E+04
       228  27 -3.342057E+05 -3.437520E+04  5.955376E+04 -2.439978E+05  2.476652E+04 -1.871693E+04
       229   1 -9.569202E+05 -2.608323E+05 -6.260042E+04 -4.153451E+05 -3.635233E+03  2.225581E+04
       229   2 -8.783671E+05 -2.205063E+05 -4.244935E+04 -3.815519E+05  7.441155E+02  1.650799E+04
       229   3 -7.830761E+05 -1.974584E+05 -2.379807E+04 -3.673017E+05  5.158585E+03  1.066349E+04
       229   4 -6.752459E+05 -1.583078E+05 -6.587560E+03 -3.375025E+05 -1.272805E+04  1.884238E+04
       229   5 -6.836095E+05 -1.496198E+05 -3.632762E+03 -3.277504E+05 -8.484943E+03  1.304436E+04
       229   6 -6.752160E+05 -1.581830E+05 -2.069276E+03 -3.375438E+05 -4.207021E+03  7.149600E+03
       229   7 -3.934895E+05 -5.577650E+04  4.942187E+04 -2.596272E+05 -2.182531E+04  1.542729E+04
       229   8 -4.888135E+05 -7.873044E+04  3.518214E+04 -2.739336E+05 -1.771707E+04  9.579592E+03
       229   9 -5.673447E+05 -1.189069E+05  1.965907E+04 -3.077813E+05 -1.357430E+04  3.635092E+03
       229  10 -9.569203E+05 -2.608328E+05 -6.260137E+04 -4.153450E+05 -2.366291E-08 -1.012191E-08
       229  11 -8.783672E+05 -2.205066E+05 -4.244986E+04 -3.815519E+05 -5.453152E-09 -3.852223E-09
       229  12 -7.830761E+05 -1.974586E+05 -2.379833E+04 -3.673018E+05  2.171383E-08  7.812640E-09
       229  13 -6.752462E+05 -1.583082E+05 -6.588532E+03 -3.375023E+05 -1.772600E-09 -2.052456E-09
       229  14 -6.836097E+05 -1.496200E+05 -3.633217E+03 -3.277504E+05 -5.275929E-09 -3.586436E-09
       229  15 -6.752160E+05 -1.581831E+05 -2.069406E+03 -3.375438E+05  2.438043E-09 -6.720429E-11
       229  16 -3.934901E+05 -5.577688E+04  4.942052E+04 -2.596269E+05  1.795557E-08  6.383047E-09
       229  17 -4.888138E+05 -7.873062E+04  3.518138E+04 -2.739334E+05 -4.042650E-09 -3.420804E-09
       229  18 -5.673449E+05 -1.189070E+05  1.965869E+04 -3.077813E+05 -1.551689E-08 -7.959749E-09
       229  19 -9.569202E+05 -2.608323E+05 -6.260042E+04 -4.153451E+05  3.635233E+03 -2.225581E+04
       229  20 -8.783671E+05 -2.205063E+05 -4.244935E+04 -3.815519E+05 -7.441155E+02 -1.650799E+04
       229  21 -7.830761E+05 -1.974584E+05 -2.379807E+04 -3.673017E+05 -5.158585E+03 -1.066349E+04
       229  22 -6.752459E+05 -1.583078E+05 -6.587560E+03 -3.375025E+05  1.272805E+04 -1.884238E+04
       229  23 -6.836095E+05 -1.496198E+05 -3.632762E+03 -3.277504E+05  8.484943E+03 -1.304436E+04
       229  24 -6.752160E+05 -1.581830E+05 -2.069276E+03 -3.375438E+05  4.207021E+03 -7.149600E+03
       229  25 -3.934895E+05 -5.577650E+04  4.942187E+04 -2.596272E+05  2.182531E+04 -1.542729E+04
       229  26 -4.888135E+05 -7.873044E+04  3.518214E+04 -2.739336E+05  1.771707E+04 -9.579592E+03
       229  27 -5.673447E+05 -1.189069E+05  1.965907E+04 -3.077813E+05  1.357430E+04 -3.635092E+03
       230   1 -7.238146E+05 -1.758154E+05 -1.104186E+04 -3.509452E+05  6.893747E+03  6.916976E+03
       230   2 -6.453642E+05 -1.356426E+05  6.575412E+03 -3.170807E+05  9.907393E+03  5.036525E+02
       230   3 -5.499164E+05 -1.125469E+05  2.379495E+04 -3.027588E+05  1.292320E+04 -5.914582E+03
       230   4 -6.751693E+05 -1.581904E+05 -1.609111E+03 -3.375261E+05 -2.455508E+03  3.409454E+03
       230   5 -6.836663E+05 -1.496622E+05 -1.053658E+03 -3.277493E+05  5.503838E+02 -3.006998E+03
       230   6 -6.751740E+05 -1.582112E+05 -8.904997E+02 -3.375190E+05  3.558343E+03 -9.428362E+03
       230   7 -6.265209E+05 -1.405649E+05  7.824020E+03 -3.241058E+05 -1.180563E+04 -9.838939E+01
       230   8 -7.219668E+05 -1.636816E+05 -8.682468E+03 -3.384173E+05 -8.806045E+03 -6.517429E+03
       230   9 -8.004153E+05 -2.038740E+05 -2.557630E+04 -3.722727E+05 -5.804486E+03 -1.294138E+04
       230  10 -7.238146E+05 -1.758155E+05 -1.104204E+04 -3.509452E+05  9.309583E-09  3.513019E-09
       230  11 -6.453643E+05 -1.356427E+05  6.575226E+03 -3.170807E+05  5.657487E-10  9.646137E-10
       230  12 -5.499166E+05 -1.125470E+05  2.379457E+04 -3.027588E+05 -2.269353E-09  6.508134E-10
       230  13 -6.751693E+05 -1.581904E+05 -1.609145E+03 -3.375261E+05  4.450112E-09  1.602775E-09
       230  14 -6.836663E+05 -1.496622E+05 -1.053676E+03 -3.277493E+05  1.597979E-11  9.547655E-10
       230  15 -6.751741E+05 -1.582113E+05 -8.906905E+02 -3.375190E+05 -1.532319E-09  1.279820E-09
       230  16 -6.265211E+05 -1.405649E+05  7.823757E+03 -3.241058E+05  1.269822E-09 -3.448158E-10
       230  17 -7.219669E+05 -1.636816E+05 -8.682694E+03 -3.384174E+05 -2.879473E-09  6.902950E-10
       230  18 -8.004153E+05 -2.038742E+05 -2.557668E+04 -3.722727E+05 -8.247091E-10  1.238700E-09
       230  19 -7.238146E+05 -1.758154E+05 -1.104186E+04 -3.509452E+05 -6.893747E+03 -6.916976E+03
       230  20 -6.453642E+05 -1.356426E+05  6.575412E+03 -3.170807E+05 -9.907393E+03 -5.036525E+02
       230  21 -5.499164E+05 -1.125469E+05  2.379495E+04 -3.027588E+05 -1.292320E+04  5.914582E+03
       230  22 -6.751693E+05 -1.581904E+05 -1.609111E+03 -3.375261E+05  2.455508E+03 -3.409454E+03
       230  23 -6.836663E+05 -1.496622E+05 -1.053658E+03 -3.277493E+05 -5.503838E+02  3.006998E+03
       230  24 -6.751740E+05 -1.582112E+05 -8.904997E+02 -3.375190E+05 -3.558343E+03  9.428362E+03
       230  25 -6.265209E+05 -1.405649E+05  7.824020E+03 -3.241058E+05  1.180563E+04  9.838939E+01
       230  26 -7.219668E+05 -1.636816E+05 -8.682468E+03 -3.384173E+05  8.806045E+03  6.517429E+03
       230  27 -8.004153E+05 -2.038740E+05 -2.557630E+04 -3.722727E+05  5.804486E+03  1.294138E+04
       231   1 -4.907449E+05 -9.087989E+04  3.604824E+04 -2.863879E+05  1.451886E+04 -9.711406E+03
       231   2 -4.123683E+05 -5.073592E+04  5.274844E+04 -2.525440E+05  1.761250E+04 -1.609321E+04
       231   3 -3.170100E+05 -2.765267E+04  6.899450E+04 -2.382215E+05  2.070316E+04 -2.246191E+04
       231   4 -6.751831E+05 -1.582121E+05 -9.273417E+02 -3.375148E+05  5.155991E+03 -1.322488E+04
       231   5 -6.836775E+05 -1.496891E+05 -1.263712E+03 -3.277522E+05  8.266737E+03 -1.960158E+04
       231   6 -6.752009E+05 -1.582311E+05 -2.067760E+03 -3.375143E+05  1.137441E+04 -2.596522E+04
       231   7 -8.595845E+05 -2.255407E+05 -3.790378E+04 -3.886272E+05 -4.203811E+03 -1.673721E+04
       231   8 -9.549104E+05 -2.486357E+05 -5.527899E+04 -4.029299E+05 -1.074640E+03 -2.310831E+04
       231   9 -1.033262E+06 -2.887993E+05 -7.313650E+04 -4.367549E+05  2.051374E+03 -2.946639E+04
       231  10 -4.907451E+05 -9.088005E+04  3.604766E+04 -2.863878E+05 -1.402398E-09  1.590620E-09
       231  11 -4.123687E+05 -5.073628E+04  5.274737E+04 -2.525438E+05 -4.555170E-10  9.636722E-10
       231  12 -3.170106E+05 -2.765333E+04  6.899275E+04 -2.382211E+05  1.655606E-09 -6.555801E-11
       231  13 -6.751832E+05 -1.582123E+05 -9.277201E+02 -3.375148E+05 -3.160703E-10  1.340538E-09
       231  14 -6.836777E+05 -1.496895E+05 -1.264563E+03 -3.277520E+05 -8.163856E-10  8.341291E-10
       231  15 -6.752012E+05 -1.582318E+05 -2.069270E+03 -3.375141E+05 -3.120656E-10 -2.808912E-10
       231  16 -8.595846E+05 -2.255410E+05 -3.790434E+04 -3.886273E+05 -2.713764E-10  8.759707E-10
       231  17 -9.549105E+05 -2.486363E+05 -5.528000E+04 -4.029299E+05 -2.968038E-10  6.550815E-10
       231  18 -1.033262E+06 -2.888003E+05 -7.313814E+04 -4.367549E+05 -9.913417E-10  4.047855E-10
       231  19 -4.907449E+05 -9.087989E+04  3.604824E+04 -2.863879E+05 -1.451886E+04  9.711406E+03
       231  20 -4.123683E+05 -5.073592E+04  5.274844E+04 -2.525440E+05 -1.761250E+04  1.609321E+04
       231  21 -3.170100E+05 -2.765267E+04  6.899450E+04 -2.382215E+05 -2.070316E+04  2.246191E+04
       231  22 -6.751831E+05 -1.582121E+05 -9.273417E+02 -3.375148E+05 -5.155991E+03  1.322488E+04
       231  23 -6.836775E+05 -1.496891E+05 -1.263712E+03 -3.277522E+05 -8.266737E+03  1.960158E+04
       231  24 -6.752009E+05 -1.582311E+05 -2.067760E+03 -3.375143E+05 -1.137441E+04  2.596522E+04
       231  25 -8.595845E+05 -2.255407E+05 -3.790378E+04 -3.886272E+05  4.203811E+03  1.673721E+04
       231  26 -9.549104E+05 -2.486357E+05 -5.527899E+04 -4.029299E+05  1.074640E+03  2.310831E+04
       231  27 -1.033262E+06 -2.887993E+05 -7.313650E+04 -4.367549E+05 -2.051374E+03  2.946639E+04
       232   1 -2.579718E+05 -6.030807E+03  8.063142E+04 -2.219124E+05  2.256205E+04 -2.615157E+04
       232   2 -1.796658E+05  3.404667E+04  9.556723E+04 -1.881235E+05  2.722359E+04 -3.185798E+04
       232   3 -8.466927E+04  5.689424E+04  1.088211E+05 -1.738107E+05  3.183663E+04 -3.742537E+04
       232   4 -6.752760E+05 -1.582234E+05 -2.699718E+03 -3.375290E+05  1.321476E+04 -2.966298E+04
       232   5 -6.836291E+05 -1.496904E+05 -4.812759E+03 -3.277575E+05  1.806960E+04 -3.529923E+04
       232   6 -6.753371E+05 -1.584276E+05 -8.761758E+03 -3.374665E+05  2.287557E+04 -4.079650E+04
       232   7 -1.092400E+06 -3.104008E+05 -8.603880E+04 -4.530736E+05  3.874228E+03 -3.317186E+04
       232   8 -1.187328E+06 -3.334047E+05 -1.052039E+05 -4.672861E+05  8.923631E+03 -3.873748E+04
       232   9 -1.265639E+06 -3.737174E+05 -1.263595E+05 -5.009770E+05  1.392375E+04 -4.416417E+04
       232  10 -2.579725E+05 -6.031678E+03  8.062918E+04 -2.219119E+05 -9.302115E-10 -1.142891E-09
       232  11 -1.796669E+05  3.404538E+04  9.556393E+04 -1.881228E+05 -2.432682E-09 -8.534115E-10
       232  12 -8.467073E+04  5.689247E+04  1.088166E+05 -1.738098E+05 -2.298682E-09 -2.903283E-10
       232  13 -6.752764E+05 -1.582244E+05 -2.701699E+03 -3.375286E+05  9.289853E-10 -7.763096E-11
       232  14 -6.836298E+05 -1.496918E+05 -4.815713E+03 -3.277570E+05  2.003950E-09  7.288680E-10
       232  15 -6.753381E+05 -1.584295E+05 -8.765868E+03 -3.374658E+05 -7.931069E-10 -6.510265E-11
       232  16 -1.092400E+06 -3.104020E+05 -8.604090E+04 -4.530735E+05 -3.348751E-10  1.154538E-09
       232  17 -1.187328E+06 -3.334063E+05 -1.052068E+05 -4.672859E+05  3.568411E-09 -1.380051E-11
       232  18 -1.265640E+06 -3.737195E+05 -1.263635E+05 -5.009765E+05  3.257465E-09  4.687565E-10
       232  19 -2.579718E+05 -6.030807E+03  8.063142E+04 -2.219124E+05 -2.256205E+04  2.615157E+04
       232  20 -1.796658E+05  3.404667E+04  9.556723E+04 -1.881235E+05 -2.722359E+04  3.185798E+04
       232  21 -8.466927E+04  5.689424E+04  1.088211E+05 -1.738107E+05 -3.183663E+04  3.742537E+04
       232  22 -6.752760E+05 -1.582234E+05 -2.699718E+03 -3.375290E+05 -1.321476E+04  2.966298E+04
       232  23 -6.836291E+05 -1.496904E+05 -4.812759E+03 -3.277575E+05 -1.806960E+04  3.529923E+04
       232  24 -6.753371E+05 -1.584276E+05 -8.761758E+03 -3.374665E+05 -2.287557E+04  4.079650E+04
       232  25 -1.092400E+06 -3.104008E+05 -8.603880E+04 -4.530736E+05 -3.874228E+03  3.317186E+04
       232  26 -1.187328E+06 -3.334047E+05 -1.052039E+05 -4.672861E+05 -8.923631E+03  3.873748E+04
       232  27 -1.265639E+06 -3.737174E+05 -1.263595E+05 -5.009770E+05 -1.392375E+04  4.416417E+04
       233   1 -2.558747E+04  7.815747E+04  1.181873E+05 -1.584356E+05  3.528320E+04 -4.050677E+04
       233   2  5.184100E+04  1.188567E+05  1.264594E+05 -1.226009E+05  4.532732E+04 -4.313758E+04
       233   3  1.434007E+05  1.378286E+05  1.275582E+05 -1.050683E+05  5.464352E+04 -4.381845E+04
       233   4 -6.758368E+05 -1.581608E+05 -1.164038E+04 -3.377305E+05  2.595213E+04 -4.401868E+04
       233   5 -6.831242E+05 -1.503812E+05 -2.122599E+04 -3.273244E+05  3.874272E+04 -4.562030E+04
       233   6 -6.768372E+05 -1.648815E+05 -4.017031E+04 -3.352263E+05  5.080372E+04 -4.527119E+04
       233   7 -1.325655E+06 -3.944454E+05 -1.414895E+05 -5.168536E+05  1.663149E+04 -4.752672E+04
       233   8 -1.417535E+06 -4.195728E+05 -1.689384E+05 -5.318245E+05  3.216645E+04 -4.809987E+04
       233   9 -1.496383E+06 -4.675313E+05 -2.079332E+05 -5.651024E+05  4.696937E+04 -4.672185E+04
       233  10 -2.558924E+04  7.815538E+04  1.181819E+05 -1.584345E+05 -2.365886E-08 -8.823514E-09
       233  11  5.183829E+04  1.188542E+05  1.264520E+05 -1.225994E+05 -6.791217E-09 -2.071475E-09
       233  12  1.433970E+05  1.378258E+05  1.275490E+05 -1.050664E+05  1.740163E-08  9.369875E-09
       233  13 -6.758380E+05 -1.581631E+05 -1.164528E+04 -3.377296E+05 -1.547629E-09 -9.278624E-10
       233  14 -6.831264E+05 -1.503838E+05 -2.123272E+04 -3.273230E+05 -4.388575E-09 -2.673023E-09
       233  15 -6.768405E+05 -1.648844E+05 -4.017901E+04 -3.352244E+05 -1.357989E-09  5.414855E-11
       233  16 -1.325656E+06 -3.944479E+05 -1.414943E+05 -5.168529E+05  1.904047E-08  7.529189E-09
       233  17 -1.417537E+06 -4.195755E+05 -1.689447E+05 -5.318232E+05 -4.683177E-09 -2.294715E-09
       233  18 -1.496386E+06 -4.675342E+05 -2.079414E+05 -5.651007E+05 -2.266961E-08 -9.939897E-09
       233  19 -2.558747E+04  7.815747E+04  1.181873E+05 -1.584356E+05 -3.528320E+04  4.050677E+04
       233  20  5.184100E+04  1.188567E+05  1.264594E+05 -1.226009E+05 -4.532732E+04  4.313758E+04
       233  21  1.434007E+05  1.378286E+05  1.275582E+05 -1.050683E+05 -5.464352E+04  4.381845E+04
       233  22 -6.758368E+05 -1.581608E+05 -1.164038E+04 -3.377305E+05 -2.595213E+04  4.401868E+04
       233  23 -6.831242E+05 -1.503812E+05 -2.122599E+04 -3.273244E+05 -3.874272E+04  4.562030E+04
       233  24 -6.768372E+05 -1.648815E+05 -4.017031E+04 -3.352263E+05 -5.080372E+04  4.527119E+04
       233  25 -1.325655E+06 -3.944454E+05 -1.414895E+05 -5.168536E+05 -1.663149E+04  4.752672E+04
       233  26 -1.417535E+06 -4.195728E+05 -1.689384E+05 -5.318245E+05 -3.216645E+04  4.809987E+04
       233  27 -1.496383E+06 -4.675313E+05 -2.079332E+05 -5.651024E+05 -4.696937E+04  4.672185E+04
       234   1  2.099892E+05  1.526023E+05  1.276208E+05 -1.087816E+05  6.781352E+04 -4.327449E+04
       234   2  2.561569E+05  2.123632E+05  1.127295E+05 -1.263297E+04  7.584253E+04 -3.142173E+04
       234   3  2.739752E+05  1.439167E+05  5.873132E+04  9.610069E+04  7.301824E+04  9.227026E+03
       234   4 -6.834986E+05 -1.586608E+05 -5.256524E+04 -3.402605E+05  5.832483E+04 -4.685318E+04
       234   5 -6.772182E+05 -1.744367E+05 -9.831953E+04 -3.149623E+05  1.070767E+05 -1.967179E+04
       234   6 -7.074421E+05 -3.266228E+05 -2.155235E+05 -2.770683E+05  1.449620E+05  3.632330E+04
       234   7 -1.576166E+06 -4.698746E+05 -2.327900E+05 -5.714396E+05  4.885082E+04 -5.042697E+04
       234   8 -1.609687E+06 -5.610948E+05 -3.094161E+05 -6.168461E+05  1.382598E+05 -7.946510E+03
       234   9 -1.687856E+06 -7.968936E+05 -4.898363E+05 -6.496307E+05  2.167796E+05  6.334245E+04
       234  10  2.099838E+05  1.525990E+05  1.276086E+05 -1.087792E+05 -3.084046E-09  2.190553E-09
       234  11  2.561505E+05  2.123606E+05  1.127168E+05 -1.263105E+04  6.721824E-09  2.107422E-09
       234  12  2.739695E+05  1.439152E+05  5.872115E+04  9.610014E+04  8.941382E-09  4.210056E-09
       234  13 -6.835028E+05 -1.586641E+05 -5.257576E+04 -3.402583E+05  4.333117E-09  2.231954E-09
       234  14 -6.772307E+05 -1.744402E+05 -9.834182E+04 -3.149606E+05  6.378989E-09  4.300350E-09
       234  15 -7.074650E+05 -3.266299E+05 -2.155655E+05 -2.770726E+05  2.607288E-09  6.106029E-09
       234  16 -1.576169E+06 -4.698779E+05 -2.327993E+05 -5.714376E+05  8.043245E-09  1.531187E-09
       234  17 -1.609708E+06 -5.611000E+05 -3.094522E+05 -6.168452E+05  6.187998E-09  5.797134E-09
       234  18 -1.687908E+06 -7.969106E+05 -4.899324E+05 -6.496418E+05 -3.313624E-09 -7.279113E-10
       234  19  2.099892E+05  1.526023E+05  1.276208E+05 -1.087816E+05 -6.781352E+04  4.327449E+04
       234  20  2.561569E+05  2.123632E+05  1.127295E+05 -1.263297E+04 -7.584253E+04  3.142173E+04
       234  21  2.739752E+05  1.439167E+05  5.873132E+04  9.610069E+04 -7.301824E+04 -9.227026E+03
       234  22 -6.834986E+05 -1.586608E+05 -5.256524E+04 -3.402605E+05 -5.832483E+04  4.685318E+04
       234  23 -6.772182E+05 -1.744367E+05 -9.831953E+04 -3.149623E+05 -1.070767E+05  1.967179E+04
       234  24 -7.074421E+05 -3.266228E+05 -2.155235E+05 -2.770683E+05 -1.449620E+05 -3.632330E+04
       234  25 -1.576166E+06 -4.698746E+05 -2.327900E+05 -5.714396E+05 -4.885082E+04  5.042697E+04
       234  26 -1.609687E+06 -5.610948E+05 -3.094161E+05 -6.168461E+05 -1.382598E+05  7.946510E+03
       234  27 -1.687856E+06 -7.968936E+05 -4.898363E+05 -6.496307E+05 -2.167796E+05 -6.334245E+04
       235   1  1.333551E+06  1.831515E+05  1.603911E+05  1.265280E+04  9.595913E+03 -1.552128E+04
       235   2  1.271920E+06  2.271417E+05  1.561190E+05  3.364703E+04 -6.997991E+03 -5.185416E+04
       235   3  1.200727E+06  2.239337E+05  1.508979E+05  6.962200E+04 -2.363630E+04 -6.169777E+04
       235   4  2.534704E+05 -8.333060E+04 -9.403780E+04  6.132376E+04 -6.536531E+04 -1.566896E+04
       235   5  2.617575E+05 -1.485463E+04 -4.514526E+04  5.374100E+04 -4.186089E+04 -5.193627E+04
       235   6  2.535013E+05 -5.779934E+02 -2.503946E+04  6.114075E+04 -1.840202E+04 -6.169312E+04
       235   7 -8.255218E+05 -3.498838E+05 -3.485246E+05  1.099092E+05 -1.401970E+05 -1.582850E+04
       235   8 -7.474286E+05 -2.569110E+05 -2.464558E+05  7.380112E+04 -7.666826E+04 -5.202070E+04
       235   9 -6.928565E+05 -2.251409E+05 -2.010146E+05  5.267222E+04 -1.317550E+04 -6.168860E+04
       235  10  1.333551E+06  1.831512E+05  1.603905E+05  1.265292E+04 -2.366925E-08 -8.514141E-10
       235  11  1.271920E+06  2.271388E+05  1.561139E+05  3.364674E+04  1.625609E-09 -4.922132E-09
       235  12  1.200725E+06  2.239295E+05  1.508897E+05  6.962083E+04  2.874319E-08 -4.737868E-09
       235  13  2.534657E+05 -8.333201E+04 -9.404629E+04  6.132294E+04  9.584606E-11  1.469145E-09
       235  14  2.617548E+05 -1.485800E+04 -4.515362E+04  5.373925E+04  1.069066E-09 -2.907919E-09
       235  15  2.534999E+05 -5.821717E+02 -2.504725E+04  6.113984E+04  1.675720E-09 -9.163616E-10
       235  16 -8.255430E+05 -3.498893E+05 -3.485621E+05  1.099074E+05  2.266290E-08  1.522087E-10
       235  17 -7.474356E+05 -2.569155E+05 -2.464720E+05  7.379791E+04 -1.863902E-09 -7.517010E-09
       235  18 -6.928578E+05 -2.251451E+05 -2.010221E+05  5.267156E+04 -2.802180E-08 -7.612147E-09
       235  19  1.333551E+06  1.831515E+05  1.603911E+05  1.265280E+04 -9.595913E+03  1.552128E+04
       235  20  1.271920E+06  2.271417E+05  1.561190E+05  3.364703E+04  6.997991E+03  5.185416E+04
       235  21  1.200727E+06  2.239337E+05  1.508979E+05  6.962200E+04  2.363630E+04  6.169777E+04
       235  22  2.534704E+05 -8.333060E+04 -9.403780E+04  6.132376E+04  6.536531E+04  1.566896E+04
       235  23  2.617575E+05 -1.485463E+04 -4.514526E+04  5.374100E+04  4.186089E+04  5.193627E+04
       235  24  2.535013E+05 -5.779934E+02 -2.503946E+04  6.114075E+04  1.840202E+04  6.169312E+04
       235  25 -8.255218E+05 -3.498838E+05 -3.485246E+05  1.099092E+05  1.401970E+05  1.582850E+04
       235  26 -7.474286E+05 -2.569110E+05 -2.464558E+05  7.380112E+04  7.666826E+04  5.202070E+04
       235  27 -6.928565E+05 -2.251409E+05 -2.010146E+05  5.267222E+04  1.317550E+04  6.168860E+04
       236   1  1.158885E+06  2.104411E+05  1.476150E+05  6.202820E+04 -1.613200E+04 -5.944915E+04
       236   2  1.093351E+06  1.972097E+05  1.413428E+05  5.465181E+04 -1.390468E+04 -5.776973E+04
       236   3  1.027048E+06  1.821025E+05  1.331543E+05  6.379182E+04 -1.168506E+04 -5.406247E+04
       236   4  2.569044E+05 -3.167285E+03 -1.921320E+04  6.151174E+04 -1.511697E+04 -5.945401E+04
       236   5  2.575740E+05 -2.051107E+02 -1.060635E+04  5.324806E+04 -9.825643E+03 -5.776567E+04
       236   6  2.569390E+05  3.481385E+02 -6.044998E+03  6.150221E+04 -4.541719E+03 -5.404816E+04
       236   7 -6.442891E+05 -2.168222E+05 -1.860754E+05  6.099554E+04 -1.410336E+04 -5.945888E+04
       236   8 -5.775242E+05 -1.976592E+05 -1.625834E+05  5.184579E+04 -5.751930E+03 -5.776164E+04
       236   9 -5.125930E+05 -1.814394E+05 -1.452674E+05  5.921509E+04  2.593018E+03 -5.403389E+04
       236  10  1.158884E+06  2.104373E+05  1.476078E+05  6.202742E+04 -6.024611E-09 -5.381704E-09
       236  11  1.093349E+06  1.972061E+05  1.413362E+05  5.465117E+04 -9.115977E-11  2.444300E-09
       236  12  1.027047E+06  1.820993E+05  1.331486E+05  6.379131E+04  2.735148E-10  2.834361E-09
       236  13  2.569032E+05 -3.171142E+03 -1.922027E+04  6.151102E+04  7.455155E-12 -4.028305E-09
       236  14  2.575730E+05 -2.087202E+02 -1.061281E+04  5.324760E+04  1.444647E-10  1.100988E-09
       236  15  2.569381E+05  3.449957E+02 -6.050527E+03  6.150201E+04  1.865305E-09 -2.801657E-09
       236  16 -6.442902E+05 -2.168260E+05 -1.860824E+05  6.099487E+04  5.621169E-09 -6.718302E-10
       236  17 -5.775252E+05 -1.976628E+05 -1.625897E+05  5.184552E+04  1.872021E-09  2.656990E-09
       236  18 -5.125938E+05 -1.814425E+05 -1.452729E+05  5.921521E+04  1.115427E-09  1.374860E-09
       236  19  1.158885E+06  2.104411E+05  1.476150E+05  6.202820E+04  1.613200E+04  5.944915E+04
       236  20  1.093351E+06  1.972097E+05  1.413428E+05  5.465181E+04  1.390468E+04  5.776973E+04
       236  21  1.027048E+06  1.821025E+05  1.331543E+05  6.379182E+04  1.168506E+04  5.406247E+04
       236  22  2.569044E+05 -3.167285E+03 -1.921320E+04  6.151174E+04  1.511697E+04  5.945401E+04
       236  23  2.575740E+05 -2.051107E+02 -1.060635E+04  5.324806E+04  9.825643E+03  5.776567E+04
       236  24  2.569390E+05  3.481385E+02 -6.044998E+03  6.150221E+04  4.541719E+03  5.404816E+04
       236  25 -6.442891E+05 -2.168222E+05 -1.860754E+05  6.099554E+04  1.410336E+04  5.945888E+04
       236  26 -5.775242E+05 -1.976592E+05 -1.625834E+05  5.184579E+04  5.751930E+03  5.776164E+04
       236  27 -5.125930E+05 -1.814394E+05 -1.452674E+05  5.921509E+04 -2.593018E+03  5.403389E+04
       237   1  9.832078E+05  1.715143E+05  1.263172E+05  6.334524E+04 -1.042861E+04 -5.129796E+04
       237   2  9.175300E+05  1.560517E+05  1.163734E+05  5.490240E+04 -9.378932E+03 -4.671824E+04
       237   3  8.516622E+05  1.406205E+05  1.057378E+05  6.306395E+04 -8.332302E+03 -4.198548E+04
       237   4  2.571897E+05  2.285885E+02 -4.590515E+03  6.152340E+04 -3.612881E+03 -5.128338E+04
       237   5  2.573210E+05  2.987999E+02 -2.606545E+03  5.322051E+04 -2.333198E+03 -4.670120E+04
       237   6  2.572179E+05  3.605274E+02 -1.474856E+03  6.152303E+04 -1.056454E+03 -4.196590E+04
       237   7 -4.683156E+05 -1.710865E+05 -1.355186E+05  5.970337E+04  3.195109E+03 -5.126883E+04
       237   8 -4.024638E+05 -1.554784E+05 -1.216033E+05  5.154013E+04  4.705262E+03 -4.668419E+04
       237   9 -3.368826E+05 -1.399192E+05 -1.087011E+05  5.998336E+04  6.212629E+03 -4.194633E+04
       237  10  9.832070E+05  1.715115E+05  1.263120E+05  6.334481E+04 -3.675242E-09  4.468804E-09
       237  11  9.175293E+05  1.560493E+05  1.163691E+05  5.490205E+04  8.435565E-10  3.559987E-09
       237  12  8.516617E+05  1.406186E+05  1.057343E+05  6.306367E+04  4.894017E-09 -4.827879E-10
       237  13  2.571890E+05  2.257605E+02 -4.595482E+03  6.152325E+04  8.922530E-10 -3.972751E-09
       237  14  2.573205E+05  2.964561E+02 -2.610654E+03  5.322042E+04  1.318321E-09  3.831925E-09
       237  15  2.572174E+05  3.586357E+02 -1.478168E+03  6.152300E+04 -6.402807E-10  5.622544E-09
       237  16 -4.683163E+05 -1.710894E+05 -1.355236E+05  5.970350E+04  3.677086E-09  3.006307E-09
       237  17 -4.024644E+05 -1.554807E+05 -1.216074E+05  5.154030E+04 -1.712269E-09  4.767200E-09
       237  18 -3.368831E+05 -1.399211E+05 -1.087045E+05  5.998357E+04 -4.665242E-09  7.236159E-10
       237  19  9.832078E+05  1.715143E+05  1.263172E+05  6.334524E+04  1.042861E+04  5.129796E+04
       237  20  9.175300E+05  1.560517E+05  1.163734E+05  5.490240E+04  9.378932E+03  4.671824E+04
       237  21  8.516622E+05  1.406205E+05  1.057378E+05  6.306395E+04  8.332302E+03  4.198548E+04
       237  22  2.571897E+05  2.285885E+02 -4.590515E+03  6.152340E+04  3.612881E+03  5.128338E+04
       237  23  2.573210E+05  2.987999E+02 -2.606545E+03  5.322051E+04  2.333198E+03  4.670120E+04
       237  24  2.572179E+05  3.605274E+02 -1.474856E+03  6.152303E+04  1.056454E+03  4.196590E+04
       237  25 -4.683156E+05 -1.710865E+05 -1.355186E+05  5.970337E+04 -3.195109E+03  5.126883E+04
       237  26 -4.024638E+05 -1.554784E+05 -1.216033E+05  5.154013E+04 -4.705262E+03  4.668419E+04
       237  27 -3.368826E+05 -1.399192E+05 -1.087011E+05  5.998336E+04 -6.212629E+03  4.194633E+04
       238   1  8.077673E+05  1.302008E+05  9.788955E+04  6.294856E+04 -8.078492E+03 -3.918676E+04
       238   2  7.421461E+05  1.146972E+05  8.670981E+04  5.450105E+04 -7.811231E+03 -3.439275E+04
       238   3  6.764183E+05  9.930405E+04  7.535593E+04  6.264239E+04 -7.545899E+03 -2.958899E+04
       238   4  2.572545E+05  3.624053E+02 -1.105595E+03  6.151962E+04 -8.306633E+02 -3.916630E+04
       238   5  2.573220E+05  3.226998E+02 -5.969606E+02  5.322481E+04 -5.492969E+02 -3.437089E+04
       238   6  2.572753E+05  3.908314E+02 -2.727971E+02  6.151959E+04 -2.698309E+02 -2.956572E+04
       238   7 -2.929632E+05 -1.294928E+05 -1.001123E+05  6.009174E+04  6.410926E+03 -3.914587E+04
       238   8 -2.272731E+05 -1.140649E+05 -8.791268E+04  5.194940E+04  6.707131E+03 -3.434906E+04
       238   9 -1.616967E+05 -9.853217E+04 -7.590820E+04  6.039742E+04  7.001466E+03 -2.954247E+04
       238  10  8.077669E+05  1.301991E+05  9.788654E+04  6.294830E+04  7.009161E-10  9.477228E-10
       238  11  7.421457E+05  1.146959E+05  8.670748E+04  5.450083E+04 -8.040748E-10  9.549871E-09
       238  12  6.764180E+05  9.930309E+04  7.535418E+04  6.264221E+04  7.072802E-10  7.876132E-09
       238  13  2.572541E+05  3.607577E+02 -1.108479E+03  6.151960E+04 -1.077109E-09  1.368777E-09
       238  14  2.573217E+05  3.214310E+02 -5.991814E+02  5.322479E+04  1.040424E-09  9.923388E-09
       238  15  2.572751E+05  3.898926E+02 -2.744401E+02  6.151958E+04 -1.168377E-09  1.692246E-09
       238  16 -2.929637E+05 -1.294945E+05 -1.001152E+05  6.009194E+04 -2.347646E-09  1.365968E-09
       238  17 -2.272735E+05 -1.140662E+05 -8.791498E+04  5.194958E+04 -5.169732E-10  3.278761E-09
       238  18 -1.616969E+05 -9.853312E+04 -7.590993E+04  6.039759E+04  1.776256E-09  1.469576E-09
       238  19  8.077673E+05  1.302008E+05  9.788955E+04  6.294856E+04  8.078492E+03  3.918676E+04
       238  20  7.421461E+05  1.146972E+05  8.670981E+04  5.450105E+04  7.811231E+03  3.439275E+04
       238  21  6.764183E+05  9.930405E+04  7.535593E+04  6.264239E+04  7.545899E+03  2.958899E+04
       238  22  2.572545E+05  3.624053E+02 -1.105595E+03  6.151962E+04  8.306633E+02  3.916630E+04
       238  23  2.573220E+05  3.226998E+02 -5.969606E+02  5.322481E+04  5.492969E+02  3.437089E+04
       238  24  2.572753E+05  3.908314E+02 -2.727971E+02  6.151959E+04  2.698309E+02  2.956572E+04
       238  25 -2.929632E+05 -1.294928E+05 -1.001123E+05  6.009174E+04 -6.410926E+03  3.914587E+04
       238  26 -2.272731E+05 -1.140649E+05 -8.791268E+04  5.194940E+04 -6.707131E+03  3.434906E+04
       238  27 -1.616967E+05 -9.853217E+04 -7.590820E+04  6.039742E+04 -7.001466E+03  2.954247E+04
       239   1  6.325604E+05  8.890221E+04  6.727303E+04  6.253428E+04 -7.512677E+03 -2.679079E+04
       239   2  5.670026E+05  7.340631E+04  5.582831E+04  5.408750E+04 -7.555072E+03 -2.198678E+04
       239   3  5.013515E+05  5.802729E+04  4.440454E+04  6.221908E+04 -7.598644E+03 -1.718645E+04
       239   4  2.572863E+05  3.972332E+02 -1.515251E+02  6.151721E+04 -2.403239E+02 -2.676687E+04
       239   5  2.573408E+05  3.474897E+02  6.588079E+01  5.322778E+04 -2.885735E+02 -2.196202E+04
       239   6  2.572996E+05  4.160567E+02  3.084746E+02  6.151719E+04 -3.380027E+02 -1.716083E+04
       239   7 -1.178505E+05 -8.811556E+04 -6.758132E+04  6.050066E+04  7.027760E+03 -2.674296E+04
       239   8 -5.222758E+04 -7.271666E+04 -5.570008E+04  5.236843E+04  6.974404E+03 -2.193727E+04
       239   9  1.330582E+04 -5.719848E+04 -4.378973E+04  6.081554E+04  6.919865E+03 -1.713523E+04
       239  10  6.325601E+05  8.890143E+04  6.727157E+04  6.253411E+04  1.459020E-08  2.275698E-09
       239  11  5.670024E+05  7.340578E+04  5.582729E+04  5.408736E+04  3.799667E-09 -3.297842E-09
       239  12  5.013513E+05  5.802695E+04  4.440388E+04  6.221897E+04 -8.618480E-09 -3.281223E-09
       239  13  2.572861E+05  3.964638E+02 -1.528718E+02  6.151721E+04  1.906613E-10  9.772831E-09
       239  14  2.573406E+05  3.469717E+02  6.497413E+01  5.322778E+04  2.641217E-09 -1.560395E-09
       239  15  2.572995E+05  4.157404E+02  3.079209E+02  6.151719E+04 -3.591166E-10 -3.396699E-09
       239  16 -1.178507E+05 -8.811634E+04 -6.758276E+04  6.050081E+04 -1.434143E-08  2.727398E-09
       239  17 -5.222776E+04 -7.271719E+04 -5.570107E+04  5.236855E+04 -5.113671E-09 -3.461960E-09
       239  18  1.330569E+04 -5.719881E+04 -4.379037E+04  6.081563E+04  8.885766E-09 -2.785635E-09
       239  19  6.325604E+05  8.890221E+04  6.727303E+04  6.253428E+04  7.512677E+03  2.679079E+04
       239  20  5.670026E+05  7.340631E+04  5.582831E+04  5.408750E+04  7.555072E+03  2.198678E+04
       239  21  5.013515E+05  5.802729E+04  4.440454E+04  6.221908E+04  7.598644E+03  1.718645E+04
       239  22  2.572863E+05  3.972332E+02 -1.515251E+02  6.151721E+04  2.403239E+02  2.676687E+04
       239  23  2.573408E+05  3.474897E+02  6.588079E+01  5.322778E+04  2.885735E+02  2.196202E+04
       239  24  2.572996E+05  4.160567E+02  3.084746E+02  6.151719E+04  3.380027E+02  1.716083E+04
       239  25 -1.178505E+05 -8.811556E+04 -6.758132E+04  6.050066E+04 -7.027760E+03  2.674296E+04
       239  26 -5.222758E+04 -7.271666E+04 -5.570008E+04  5.236843E+04 -6.974404E+03  2.193727E+04
       239  27  1.330582E+04 -5.719848E+04 -4.378973E+04  6.081554E+04 -6.919865E+03  1.713523E+04
       240   1  4.575365E+05  4.762691E+04  3.635492E+04  6.210953E+04 -7.683165E+03 -1.439108E+04
       240   2  3.920007E+05  3.212249E+04  2.509996E+04  5.366792E+04 -8.069151E+03 -9.611285E+03
       240   3  3.264100E+05  1.676616E+04  1.409339E+04  6.179211E+04 -8.455464E+03 -4.874875E+03
       240   4  2.573141E+05  4.168714E+02  4.579995E+02  6.151438E+04 -4.172662E+02 -1.436508E+04
       240   5  2.573408E+05  3.542447E+02  8.790491E+02  5.323133E+04 -8.691738E+02 -9.585145E+03
       240   6  2.573198E+05  4.513168E+02  1.594155E+03  6.151427E+04 -1.321446E+03 -4.848600E+03
       240   7  5.713085E+04 -4.679536E+04 -3.544027E+04  6.091940E+04  6.846357E+03 -1.433908E+04
       240   8  1.226987E+05 -3.141498E+04 -2.334237E+04  5.279482E+04  6.329286E+03 -9.559013E+03
       240   9  1.882344E+05 -1.586376E+04 -1.090508E+04  6.123646E+04  5.811801E+03 -4.822329E+03
       240  10  4.575364E+05  4.762667E+04  3.635442E+04  6.210944E+04 -1.833860E-09  2.821296E-09
       240  11  3.920006E+05  3.212237E+04  2.509967E+04  5.366785E+04 -2.215995E-09  3.026623E-09
       240  12  3.264099E+05  1.676611E+04  1.409321E+04  6.179207E+04 -3.953776E-09  3.910850E-09
       240  13  2.573140E+05  4.166497E+02  4.576114E+02  6.151438E+04 -1.105331E-09  1.951449E-09
       240  14  2.573408E+05  3.541458E+02  8.788750E+02  5.323132E+04  9.534315E-10  4.745155E-09
       240  15  2.573198E+05  4.512911E+02  1.594108E+03  6.151426E+04  3.679968E-11  5.423458E-09
       240  16  5.713075E+04 -4.679559E+04 -3.544074E+04  6.091948E+04  6.447780E-10  5.300409E-09
       240  17  1.226986E+05 -3.141509E+04 -2.334262E+04  5.279487E+04 -2.914304E-10 -8.594975E-09
       240  18  1.882343E+05 -1.586380E+04 -1.090519E+04  6.123648E+04  6.124659E-09  1.421993E-09
       240  19  4.575365E+05  4.762691E+04  3.635492E+04  6.210953E+04  7.683165E+03  1.439108E+04
       240  20  3.920007E+05  3.212249E+04  2.509996E+04  5.366792E+04  8.069151E+03  9.611285E+03
       240  21  3.264100E+05  1.676616E+04  1.409339E+04  6.179211E+04  8.455464E+03  4.874875E+03
       240  22  2.573141E+05  4.168714E+02  4.579995E+02  6.151438E+04  4.172662E+02  1.436508E+04
       240  23  2.573408E+05  3.542447E+02  8.790491E+02  5.323133E+04  8.691738E+02  9.585145E+03
       240  24  2.573198E+05  4.513168E+02  1.594155E+03  6.151427E+04  1.321446E+03  4.848600E+03
       240  25  5.713085E+04 -4.679536E+04 -3.544027E+04  6.091940E+04 -6.846357E+03  1.433908E+04
       240  26  1.226987E+05 -3.141498E+04 -2.334237E+04  5.279482E+04 -6.329286E+03  9.559013E+03
       240  27  1.882344E+05 -1.586376E+04 -1.090508E+04  6.123646E+04 -5.811801E+03  4.822329E+03
       241   1  2.826665E+05  6.314117E+03  6.396507E+03  6.180825E+04 -8.879535E+03 -2.092699E+03
       241   2  2.170145E+05 -9.069909E+03 -3.939122E+03  5.304093E+04 -9.903285E+03  2.399182E+03
       241   3  1.515660E+05 -2.359730E+04 -1.343413E+04  6.080207E+04 -1.092481E+04  6.332025E+03
       241   4  2.574079E+05  4.045133E+02  2.110902E+03  6.150674E+04 -1.657323E+03 -2.066017E+03
       241   5  2.572343E+05  5.041773E+02  3.715707E+03  5.324036E+04 -3.527099E+03  2.422633E+03
       241   6  2.574058E+05  1.607155E+03  6.747938E+03  6.150230E+04 -5.394739E+03  6.352271E+03
       241   7  2.321500E+05 -5.505096E+03 -2.174528E+03  6.120525E+04  5.564605E+03 -2.039341E+03
       241   8  2.974559E+05  1.007819E+04  1.137062E+04  5.343980E+04  2.849490E+03  2.446088E+03
       241   9  3.632564E+05  2.681096E+04  2.692962E+04  6.220264E+04  1.362512E+02  6.372528E+03
       241  10  2.826664E+05  6.314091E+03  6.396350E+03  6.180824E+04 -6.987669E-09  6.268141E-09
       241  11  2.170144E+05 -9.069941E+03 -3.939317E+03  5.304095E+04 -1.454738E-10  1.800383E-09
       241  12  1.515659E+05 -2.359737E+04 -1.343443E+04  6.080213E+04  7.271992E-09  7.231099E-09
       241  13  2.574079E+05  4.045080E+02  2.110888E+03  6.150674E+04 -1.090508E-09  4.873623E-09
       241  14  2.572343E+05  5.041677E+02  3.715673E+03  5.324037E+04  4.123062E-10  6.797651E-09
       241  15  2.574057E+05  1.607104E+03  6.747807E+03  6.150233E+04  9.398679E-10 -1.831283E-09
       241  16  2.321500E+05 -5.505109E+03 -2.174594E+03  6.120526E+04  7.317812E-09  4.345520E-09
       241  17  2.974559E+05  1.007818E+04  1.137059E+04  5.343979E+04 -1.155288E-09  7.038162E-10
       241  18  3.632564E+05  2.681092E+04  2.692954E+04  6.220264E+04 -5.288382E-09 -9.711950E-09
       241  19  2.826665E+05  6.314117E+03  6.396507E+03  6.180825E+04  8.879535E+03  2.092699E+03
       241  20  2.170145E+05 -9.069909E+03 -3.939122E+03  5.304093E+04  9.903285E+03 -2.399182E+03
       241  21  1.515660E+05 -2.359730E+04 -1.343413E+04  6.080207E+04  1.092481E+04 -6.332025E+03
       241  22  2.574079E+05  4.045133E+02  2.110902E+03  6.150674E+04  1.657323E+03  2.066017E+03
       241  23  2.572343E+05  5.041773E+02  3.715707E+03  5.324036E+04  3.527099E+03 -2.422633E+03
       241  24  2.574058E+05  1.607155E+03  6.747938E+03  6.150230E+04  5.394739E+03 -6.352271E+03
       241  25  2.321500E+05 -5.505096E+03 -2.174528E+03  6.120525E+04 -5.564605E+03  2.039341E+03
       241  26  2.974559E+05  1.007819E+04  1.137062E+04  5.343980E+04 -2.849490E+03 -2.446088E+03
       241  27  3.632564E+05  2.681096E+04  2.692962E+04  6.220264E+04 -1.362512E+02 -6.372528E+03
       242   1  1.086167E+05 -3.501146E+04 -1.981893E+04  6.338806E+04 -1.324759E+04  8.959888E+03
       242   2  4.114578E+04 -4.616938E+04 -2.816079E+04  4.511320E+04 -1.044388E+04  9.746770E+03
       242   3 -2.248894E+04 -3.999932E+04 -3.402465E+04  4.288043E+04 -7.614962E+03  3.239693E+03
       242   4  2.586039E+05  6.843227E+02  8.798331E+03  6.141165E+04 -6.560550E+03  8.984256E+03
       242   5  2.557252E+05  5.611844E+03  1.585790E+04  5.333890E+04 -1.478767E+04  9.730681E+03
       242   6  2.585916E+05  2.977861E+04  3.305280E+04  6.130712E+04 -2.298957E+04  3.184387E+03
       242   7  4.086129E+05  3.637882E+04  3.741475E+04  5.943474E+04  1.280720E+02  9.008578E+03
       242   8  4.703485E+05  5.739042E+04  5.987423E+04  6.156746E+04 -1.913294E+04  9.714479E+03
       242   9  5.397458E+05  9.955219E+04  1.001257E+05  7.974212E+04 -3.837111E+04  3.128181E+03
       242  10  1.086165E+05 -3.501159E+04 -1.981941E+04  6.338816E+04 -2.351667E-09  8.641468E-09
       242  11  4.114563E+04 -4.616951E+04 -2.816118E+04  4.511328E+04 -1.420599E-09 -2.446452E-10
       242  12 -2.248900E+04 -3.999935E+04 -3.402477E+04  4.288045E+04  1.547092E-09 -1.764884E-09
       242  13  2.586038E+05  6.842245E+02  8.798099E+03  6.141170E+04  2.318641E-09  8.194541E-09
       242  14  2.557249E+05  5.611684E+03  1.585731E+04  5.333902E+04  1.854623E-09 -8.424908E-09
       242  15  2.585910E+05  2.977846E+04  3.305179E+04  6.130717E+04  1.575383E-10  2.341029E-09
       242  16  4.086128E+05  3.637873E+04  3.741459E+04  5.943474E+04  3.654879E-09 -1.022103E-09
       242  17  4.703481E+05  5.739022E+04  5.987337E+04  6.156761E+04 -8.045560E-10  4.414934E-09
       242  18  5.397442E+05  9.955179E+04  1.001230E+05  7.974222E+04  4.872754E-11 -2.022013E-09
       242  19  1.086167E+05 -3.501146E+04 -1.981893E+04  6.338806E+04  1.324759E+04 -8.959888E+03
       242  20  4.114578E+04 -4.616938E+04 -2.816079E+04  4.511320E+04  1.044388E+04 -9.746770E+03
       242  21 -2.248894E+04 -3.999932E+04 -3.402465E+04  4.288043E+04  7.614962E+03 -3.239693E+03
       242  22  2.586039E+05  6.843227E+02  8.798331E+03  6.141165E+04  6.560550E+03 -8.984256E+03
       242  23  2.557252E+05  5.611844E+03  1.585790E+04  5.333890E+04  1.478767E+04 -9.730681E+03
       242  24  2.585916E+05  2.977861E+04  3.305280E+04  6.130712E+04  2.298957E+04 -3.184387E+03
       242  25  4.086129E+05  3.637882E+04  3.741475E+04  5.943474E+04 -1.280720E+02 -9.008578E+03
       242  26  4.703485E+05  5.739042E+04  5.987423E+04  6.156746E+04  1.913294E+04 -9.714479E+03
       242  27  5.397458E+05  9.955219E+04  1.001257E+05  7.974212E+04  3.837111E+04 -3.128181E+03
       243   1  2.043753E+05  1.599511E+06  2.059822E+05 -1.802445E+05  6.571242E+03  7.078278E+04
       243   2  1.170209E+05  1.435754E+06  1.243785E+05 -1.421820E+05  1.966793E+04  3.001131E+04
       243   3  6.987814E+04  1.287206E+06  7.930466E+04 -1.424573E+05  1.714671E+04 -1.077846E+04
       243   4  5.541662E+04  9.981778E+05  6.245302E+04 -1.458736E+05  6.640573E+03  3.922571E+04
       243   5  1.020697E+04  9.926619E+05  3.316950E+04 -1.267626E+05  1.968658E+04  2.212758E+04
       243   6  1.123997E+03  9.982467E+05  2.401849E+04 -1.459862E+05  1.711207E+04  5.000673E+03
       243   7 -9.356328E+04  3.971793E+05 -8.109730E+04 -1.115360E+05  6.706456E+03  7.698984E+03
       243   8 -9.661848E+04  5.497560E+05 -5.804969E+04 -1.113543E+05  1.970485E+04  1.424937E+04
       243   9 -6.763488E+04  7.093679E+05 -3.127055E+04 -1.495134E+05  1.707724E+04  2.077265E+04
       243  10  2.043739E+05  1.599506E+06  2.059728E+05 -1.802448E+05 -1.309532E-10  1.466968E-09
       243  11  1.170203E+05  1.435753E+06  1.243761E+05 -1.421825E+05 -3.136420E-09 -5.951971E-09
       243  12  6.987780E+04  1.287206E+06  7.930389E+04 -1.424571E+05  6.789427E-10 -2.111934E-09
       243  13  5.541616E+04  9.981761E+05  6.245005E+04 -1.458738E+05  1.840134E-09 -2.235259E-09
       243  14  1.020642E+04  9.926612E+05  3.316785E+04 -1.267630E+05  1.235216E-09 -2.097482E-09
       243  15  1.123676E+03  9.982466E+05  2.401789E+04 -1.459863E+05 -6.755446E-10 -2.738508E-10
       243  16 -9.356334E+04  3.971793E+05 -8.109749E+04 -1.115360E+05  9.487167E-10  6.137174E-10
       243  17 -9.661895E+04  5.497557E+05 -5.805081E+04 -1.113546E+05  2.866227E-09 -2.940867E-10
       243  18 -6.763531E+04  7.093674E+05 -3.127190E+04 -1.495137E+05  8.664253E-10  3.442999E-09
       243  19  2.043753E+05  1.599511E+06  2.059822E+05 -1.802445E+05 -6.571242E+03 -7.078278E+04
       243  20  1.170209E+05  1.435754E+06  1.243785E+05 -1.421820E+05 -1.966793E+04 -3.001131E+04
       243  21  6.987814E+04  1.287206E+06  7.930466E+04 -1.424573E+05 -1.714671E+04  1.077846E+04
       243  22  5.541662E+04  9.981778E+05  6.245302E+04 -1.458736E+05 -6.640573E+03 -3.922571E+04
       243  23  1.020697E+04  9.926619E+05  3.316950E+04 -1.267626E+05 -1.968658E+04 -2.212758E+04
       243  24  1.123997E+03  9.982467E+05  2.401849E+04 -1.459862E+05 -1.711207E+04 -5.000673E+03
       243  25 -9.356328E+04  3.971793E+05 -8.109730E+04 -1.115360E+05 -6.706456E+03 -7.698984E+03
       243  26 -9.661848E+04  5.497560E+05 -5.804969E+04 -1.113543E+05 -1.970485E+04 -1.424937E+04
       243  27 -6.763488E+04  7.093679E+05 -3.127055E+04 -1.495134E+05 -1.707724E+04 -2.077265E+04
       244   1  4.642011E+04  1.180432E+06  5.820711E+04 -1.484469E+05  1.087446E+04 -1.220537E+04
       244   2  8.010813E+03  1.022936E+06  3.073983E+04 -1.263247E+05  1.963875E+03 -2.516551E+04
       244   3 -2.403742E+04  8.685424E+05  1.323851E+04 -1.434323E+05 -7.048948E+03 -3.812309E+04
       244   4  2.608958E+03  9.964650E+05  2.294769E+04 -1.461691E+05  1.084414E+04  1.252073E+03
       244   5  1.396308E+03  9.949384E+05  2.562528E+04 -1.265501E+05  1.933135E+03 -1.155392E+04
       244   6  6.518983E+03  9.964631E+05  3.816159E+04 -1.461603E+05 -7.080069E+03 -2.436043E+04
       244   7 -4.120408E+04  8.125312E+05 -1.231261E+04 -1.438920E+05  1.081392E+04  1.470563E+04
       244   8 -5.218142E+03  9.669422E+05  2.051139E+04 -1.267754E+05  1.902386E+03  2.057079E+03
       244   9  3.707454E+04  1.124400E+06  6.308461E+04 -1.488888E+05 -7.111307E+03 -1.059500E+04
       244  10  4.641994E+04  1.180432E+06  5.820661E+04 -1.484468E+05 -1.595678E-10  2.756395E-10
       244  11  8.010639E+03  1.022935E+06  3.073864E+04 -1.263247E+05  1.066268E-09 -8.190853E-09
       244  12 -2.403787E+04  8.685408E+05  1.323569E+04 -1.434326E+05 -6.198977E-10 -4.853570E-09
       244  13  2.608831E+03  9.964650E+05  2.294746E+04 -1.461691E+05  2.437408E-10 -2.192339E-09
       244  14  1.396268E+03  9.949382E+05  2.562502E+04 -1.265501E+05  8.226265E-10 -2.360171E-09
       244  15  6.518770E+03  9.964624E+05  3.816039E+04 -1.461604E+05 -5.139780E-10 -6.518184E-10
       244  16 -4.120426E+04  8.125309E+05 -1.231324E+04 -1.438921E+05  4.444716E-10  1.856961E-09
       244  17 -5.218147E+03  9.669422E+05  2.051138E+04 -1.267754E+05 -1.474792E-09  2.492752E-09
       244  18  3.707445E+04  1.124400E+06  6.308430E+04 -1.488889E+05 -1.661780E-09  6.088566E-09
       244  19  4.642011E+04  1.180432E+06  5.820711E+04 -1.484469E+05 -1.087446E+04  1.220537E+04
       244  20  8.010813E+03  1.022936E+06  3.073983E+04 -1.263247E+05 -1.963875E+03  2.516551E+04
       244  21 -2.403742E+04  8.685424E+05  1.323851E+04 -1.434323E+05  7.048948E+03  3.812309E+04
       244  22  2.608958E+03  9.964650E+05  2.294769E+04 -1.461691E+05 -1.084414E+04 -1.252073E+03
       244  23  1.396308E+03  9.949384E+05  2.562528E+04 -1.265501E+05 -1.933135E+03  1.155392E+04
       244  24  6.518983E+03  9.964631E+05  3.816159E+04 -1.461603E+05  7.080069E+03  2.436043E+04
       244  25 -4.120408E+04  8.125312E+05 -1.231261E+04 -1.438920E+05 -1.081392E+04 -1.470563E+04
       244  26 -5.218142E+03  9.669422E+05  2.051139E+04 -1.267754E+05 -1.902386E+03 -2.057079E+03
       244  27  3.707454E+04  1.124400E+06  6.308461E+04 -1.488888E+05  7.111307E+03  1.059500E+04
       245   1 -5.353317E+04  7.695824E+05  2.753946E+03 -1.576777E+05 -1.333168E+04 -4.669114E+04
       245   2 -6.626737E+04  6.005657E+05  2.162292E+03 -8.685064E+04 -1.663795E+04 -6.776196E+04
       245   3  1.522598E+04  4.577212E+05  3.880514E+04 -5.437238E+04 -5.684723E+03 -8.879942E+04
       245   4  1.907104E+03  1.002420E+06  4.766199E+04 -1.460120E+05 -1.336797E+04 -3.084571E+04
       245   5  2.726855E+04  9.874357E+05  8.231320E+04 -1.266879E+05 -1.662040E+04 -7.351981E+04
       245   6  1.505595E+05  1.002311E+06  1.691636E+05 -1.456999E+05 -5.613889E+03 -1.161666E+05
       245   7  5.734483E+04  1.235311E+06  9.256854E+04 -1.343417E+05 -1.340367E+04 -1.499447E+04
       245   8  1.208009E+05  1.374451E+06  1.624569E+05 -1.665503E+05 -1.660212E+04 -7.928116E+04
       245   9  2.859029E+05  1.547190E+06  2.995083E+05 -2.371076E+05 -5.535049E+03 -1.435577E+05
       245  10 -5.353395E+04  7.695800E+05  2.749519E+03 -1.576782E+05  6.910200E-10  1.478779E-09
       245  11 -6.626890E+04  6.005607E+05  2.153151E+03 -8.685155E+04  7.856036E-10 -6.061263E-09
       245  12  1.522383E+04  4.577128E+05  3.879027E+04 -5.437279E+04  1.096470E-09 -1.106321E-09
       245  13  1.906657E+03  1.002419E+06  4.765987E+04 -1.460123E+05  1.087226E-09 -2.405015E-09
       245  14  2.726680E+04  9.874298E+05  8.230253E+04 -1.266889E+05  4.526314E-10 -2.568798E-09
       245  15  1.505558E+05  1.002296E+06  1.691382E+05 -1.457004E+05  3.370696E-10 -1.673452E-10
       245  16  5.734457E+04  1.235311E+06  9.256778E+04 -1.343419E+05 -1.202544E-09  9.980346E-10
       245  17  1.207989E+05  1.374444E+06  1.624446E+05 -1.665513E+05 -1.263273E-09 -4.572808E-10
       245  18  2.858974E+05  1.547168E+06  2.994697E+05 -2.371082E+05  3.182127E-10  2.285092E-09
       245  19 -5.353317E+04  7.695824E+05  2.753946E+03 -1.576777E+05  1.333168E+04  4.669114E+04
       245  20 -6.626737E+04  6.005657E+05  2.162292E+03 -8.685064E+04  1.663795E+04  6.776196E+04
       245  21  1.522598E+04  4.577212E+05  3.880514E+04 -5.437238E+04  5.684723E+03  8.879942E+04
       245  22  1.907104E+03  1.002420E+06  4.766199E+04 -1.460120E+05  1.336797E+04  3.084571E+04
       245  23  2.726855E+04  9.874357E+05  8.231320E+04 -1.266879E+05  1.662040E+04  7.351981E+04
       245  24  1.505595E+05  1.002311E+06  1.691636E+05 -1.456999E+05  5.613889E+03  1.161666E+05
       245  25  5.734483E+04  1.235311E+06  9.256854E+04 -1.343417E+05  1.340367E+04  1.499447E+04
       245  26  1.208009E+05  1.374451E+06  1.624569E+05 -1.665503E+05  1.660212E+04  7.928116E+04
       245  27  2.859029E+05  1.547190E+06  2.995083E+05 -2.371076E+05  5.535049E+03  1.435577E+05
       246   1  1.438184E+06  4.550396E+05  2.267595E+05  5.066733E+05  5.431955E+04  3.214995E+03
       246   2  1.365210E+06  4.387746E+05  1.853126E+05  4.805713E+05  3.650806E+04 -4.303817E+04
       246   3  1.279321E+06  4.265501E+05  1.640750E+05  4.738542E+05  8.565645E+03 -6.240381E+04
       246   4  4.373917E+05  9.306049E+04 -3.024668E+04  2.465138E+05 -1.382032E+04 -2.249268E+04
       246   5  4.493279E+05  1.065793E+05 -1.382122E+04  2.323896E+05  6.512098E+03 -5.436879E+04
       246   6  4.407903E+05  1.165823E+05 -7.377628E+03  2.376531E+05  1.670082E+04 -5.933903E+04
       246   7 -5.623908E+05 -2.688588E+05 -2.873065E+05 -1.326543E+04 -8.183780E+04 -4.815810E+04
       246   8 -4.656898E+05 -2.255499E+05 -2.129970E+05 -1.545540E+04 -2.343558E+04 -6.568193E+04
       246   9 -3.970166E+05 -1.933213E+05 -1.788654E+05  1.747404E+03  2.482419E+04 -5.627879E+04
       246  10  1.438181E+06  4.550388E+05  2.267539E+05  5.066731E+05  4.047515E-09  1.946202E-09
       246  11  1.365208E+06  4.387722E+05  1.853067E+05  4.805725E+05 -7.059293E-09 -4.649957E-09
       246  12  1.279319E+06  4.265459E+05  1.640675E+05  4.738546E+05 -1.652985E-08 -8.126863E-09
       246  13  4.373914E+05  9.305989E+04 -3.024799E+04  2.465136E+05 -9.323834E-11  2.077795E-09
       246  14  4.493271E+05  1.065761E+05 -1.382686E+04  2.323899E+05  2.051700E-10 -7.928555E-10
       246  15  4.407890E+05  1.165784E+05 -7.384770E+03  2.376539E+05 -1.187508E-09  1.877491E-09
       246  16 -5.623986E+05 -2.688631E+05 -2.873235E+05 -1.326861E+04 -2.697543E-09 -2.356955E-10
       246  17 -4.656916E+05 -2.255546E+05 -2.130062E+05 -1.545664E+04  7.855153E-09 -2.907755E-09
       246  18 -3.970181E+05 -1.933248E+05 -1.788725E+05  1.748530E+03  1.339058E-08 -2.619677E-10
       246  19  1.438184E+06  4.550396E+05  2.267595E+05  5.066733E+05 -5.431955E+04 -3.214995E+03
       246  20  1.365210E+06  4.387746E+05  1.853126E+05  4.805713E+05 -3.650806E+04  4.303817E+04
       246  21  1.279321E+06  4.265501E+05  1.640750E+05  4.738542E+05 -8.565645E+03  6.240381E+04
       246  22  4.373917E+05  9.306049E+04 -3.024668E+04  2.465138E+05  1.382032E+04  2.249268E+04
       246  23  4.493279E+05  1.065793E+05 -1.382122E+04  2.323896E+05 -6.512098E+03  5.436879E+04
       246  24  4.407903E+05  1.165823E+05 -7.377628E+03  2.376531E+05 -1.670082E+04  5.933903E+04
       246  25 -5.623908E+05 -2.688588E+05 -2.873065E+05 -1.326543E+04  8.183780E+04  4.815810E+04
       246  26 -4.656898E+05 -2.255499E+05 -2.129970E+05 -1.545540E+04  2.343558E+04  6.568193E+04
       246  27 -3.970166E+05 -1.933213E+05 -1.788654E+05  1.747404E+03 -2.482419E+04  5.627879E+04
       247   1  1.230343E+06  4.052437E+05  1.551040E+05  4.584623E+05  1.345839E+04 -5.677115E+04
       247   2  1.163547E+06  3.715766E+05  1.403937E+05  4.297781E+05  1.131054E+04 -5.426674E+04
       247   3  1.082411E+06  3.521461E+05  1.264164E+05  4.176463E+05  8.478125E+03 -4.995974E+04
       247   4  4.414345E+05  1.160288E+05 -5.638644E+03  2.386872E+05  1.630147E+04 -5.570420E+04
       247   5  4.489494E+05  1.096720E+05 -2.983714E+03  2.302262E+05  1.670939E+04 -5.223202E+04
       247   6  4.416131E+05  1.170462E+05 -1.620203E+03  2.383170E+05  1.643223E+04 -4.695612E+04
       247   7 -3.468417E+05 -1.731350E+05 -1.664147E+05  1.916739E+04  1.914069E+04 -5.463871E+04
       247   8 -2.651251E+05 -1.521888E+05 -1.463867E+05  3.088535E+04  2.210159E+04 -5.019981E+04
       247   9 -1.987611E+05 -1.180170E+05 -1.296764E+05  5.915864E+04  2.437752E+04 -4.395585E+04
       247  10  1.230342E+06  4.052402E+05  1.550976E+05  4.584629E+05  1.804239E-08  1.989015E-09
       247  11  1.163546E+06  3.715734E+05  1.403879E+05  4.297786E+05  6.420559E-09  2.798131E-09
       247  12  1.082410E+06  3.521434E+05  1.264116E+05  4.176467E+05 -1.047890E-08 -2.692636E-10
       247  13  4.414334E+05  1.160254E+05 -5.644976E+03  2.386879E+05 -1.919561E-09 -4.932255E-09
       247  14  4.489483E+05  1.096690E+05 -2.989367E+03  2.302269E+05 -3.005689E-09 -3.904296E-09
       247  15  4.416122E+05  1.170438E+05 -1.624855E+03  2.383176E+05 -1.969585E-09 -4.218606E-09
       247  16 -3.468429E+05 -1.731383E+05 -1.664210E+05  1.916823E+04 -2.146460E-08 -1.239044E-08
       247  17 -2.651263E+05 -1.521916E+05 -1.463923E+05  3.088625E+04 -4.989620E-09 -7.580811E-09
       247  18 -1.987623E+05 -1.180192E+05 -1.296811E+05  5.915951E+04  1.186276E-08  1.315849E-09
       247  19  1.230343E+06  4.052437E+05  1.551040E+05  4.584623E+05 -1.345839E+04  5.677115E+04
       247  20  1.163547E+06  3.715766E+05  1.403937E+05  4.297781E+05 -1.131054E+04  5.426674E+04
       247  21  1.082411E+06  3.521461E+05  1.264164E+05  4.176463E+05 -8.478125E+03  4.995974E+04
       247  22  4.414345E+05  1.160288E+05 -5.638644E+03  2.386872E+05 -1.630147E+04  5.570420E+04
       247  23  4.489494E+05  1.096720E+05 -2.983714E+03  2.302262E+05 -1.670939E+04  5.223202E+04
       247  24  4.416131E+05  1.170462E+05 -1.620203E+03  2.383170E+05 -1.643223E+04  4.695612E+04
       247  25 -3.468417E+05 -1.731350E+05 -1.664147E+05  1.916739E+04 -1.914069E+04  5.463871E+04
       247  26 -2.651251E+05 -1.521888E+05 -1.463867E+05  3.088535E+04 -2.210159E+04  5.019981E+04
       247  27 -1.987611E+05 -1.180170E+05 -1.296764E+05  5.915864E+04 -2.437752E+04  4.395585E+04
       248   1  1.032375E+06  3.336164E+05  1.164115E+05  4.036217E+05  7.836686E+03 -4.647551E+04
       248   2  9.661230E+05  2.995077E+05  1.023792E+05  3.748598E+05  5.949888E+03 -4.100507E+04
       248   3  8.853926E+05  2.799124E+05  8.824220E+04  3.625286E+05  4.016320E+03 -3.541899E+04
       248   4  4.416733E+05  1.170333E+05 -1.213573E+03  2.383630E+05  1.542662E+04 -4.360818E+04
       248   5  4.489524E+05  1.098360E+05 -6.465138E+02  2.301380E+05  1.370377E+04 -3.807364E+04
       248   6  4.417136E+05  1.171198E+05 -3.149960E+02  2.383426E+05  1.193413E+04 -3.242337E+04
       248   7 -1.486638E+05 -9.951673E+04 -1.188537E+05  7.325092E+04  2.300874E+04 -4.074381E+04
       248   8 -6.794205E+04 -7.981186E+04 -1.036847E+05  8.552751E+04  2.145071E+04 -3.514483E+04
       248   9 -1.765826E+03 -4.565650E+04 -8.888236E+04  1.142377E+05  1.984594E+04 -2.943002E+04
       248  10  1.032375E+06  3.336141E+05  1.164073E+05  4.036220E+05 -2.509821E-09  3.906668E-09
       248  11  9.661225E+05  2.995059E+05  1.023760E+05  3.748600E+05 -2.374951E-09  4.079644E-09
       248  12  8.853923E+05  2.799111E+05  8.823981E+04  3.625287E+05  1.813331E-09 -4.591699E-09
       248  13  4.416725E+05  1.170312E+05 -1.217595E+03  2.383635E+05 -1.280041E-09 -3.618730E-09
       248  14  4.489519E+05  1.098344E+05 -6.495916E+02  2.301384E+05  2.358200E-10 -8.051281E-09
       248  15  4.417132E+05  1.171187E+05 -3.172398E+02  2.383429E+05 -2.011164E-09 -3.503389E-09
       248  16 -1.486648E+05 -9.951866E+04 -1.188578E+05  7.325167E+04 -1.587504E-09  2.942554E-10
       248  17 -6.794288E+04 -7.981331E+04 -1.036879E+05  8.552812E+04 -5.323204E-09  9.140626E-10
       248  18 -1.766481E+03 -4.565754E+04 -8.888472E+04  1.142381E+05 -5.294719E-09  4.400079E-10
       248  19  1.032375E+06  3.336164E+05  1.164115E+05  4.036217E+05 -7.836686E+03  4.647551E+04
       248  20  9.661230E+05  2.995077E+05  1.023792E+05  3.748598E+05 -5.949888E+03  4.100507E+04
       248  21  8.853926E+05  2.799124E+05  8.824220E+04  3.625286E+05 -4.016320E+03  3.541899E+04
       248  22  4.416733E+05  1.170333E+05 -1.213573E+03  2.383630E+05 -1.542662E+04  4.360818E+04
       248  23  4.489524E+05  1.098360E+05 -6.465138E+02  2.301380E+05 -1.370377E+04  3.807364E+04
       248  24  4.417136E+05  1.171198E+05 -3.149960E+02  2.383426E+05 -1.193413E+04  3.242337E+04
       248  25 -1.486638E+05 -9.951673E+04 -1.188537E+05  7.325092E+04 -2.300874E+04  4.074381E+04
       248  26 -6.794205E+04 -7.981186E+04 -1.036847E+05  8.552751E+04 -2.145071E+04  3.514483E+04
       248  27 -1.765826E+03 -4.565650E+04 -8.888236E+04  1.142377E+05 -1.984594E+04  2.943002E+04
       249   1  8.354708E+05  2.615380E+05  7.798357E+04  3.485839E+05  2.859578E+03 -3.214225E+04
       249   2  7.694101E+05  2.274737E+05  6.377858E+04  3.198663E+05  7.598484E+02 -2.657241E+04
       249   3  6.888826E+05  2.078994E+05  4.957236E+04  3.075398E+05 -1.343238E+03 -2.099849E+04
       249   4  4.417310E+05  1.171225E+05 -2.069460E+02  2.383365E+05  1.074755E+04 -2.915689E+04
       249   5  4.489785E+05  1.098955E+05 -2.648349E+01  2.301389E+05  8.653480E+03 -2.358360E+04
       249   6  4.417516E+05  1.171568E+05  1.476440E+02  2.383304E+05  6.556058E+03 -1.800623E+04
       249   7  4.815165E+04 -2.727901E+04 -7.840448E+04  1.281538E+05  1.863014E+04 -2.617356E+04
       249   8  1.286544E+05 -7.672963E+03 -6.383577E+04  1.404547E+05  1.654270E+04 -2.059646E+04
       249   9  1.946858E+05  2.642055E+04 -4.927916E+04  1.691471E+05  1.445191E+04 -1.501527E+04
       249  10  8.354705E+05  2.615369E+05  7.798161E+04  3.485840E+05 -2.526491E-09 -1.613853E-09
       249  11  7.694099E+05  2.274730E+05  6.377725E+04  3.198663E+05  3.350644E-10  1.083618E-08
       249  12  6.888824E+05  2.078989E+05  4.957153E+04  3.075398E+05  2.596591E-09  4.600741E-09
       249  13  4.417307E+05  1.171216E+05 -2.087611E+02  2.383368E+05 -2.514074E-09  1.104579E-09
       249  14  4.489782E+05  1.098949E+05 -2.766970E+01  2.301391E+05 -1.757578E-09 -5.018722E-09
       249  15  4.417514E+05  1.171565E+05  1.469537E+02  2.383305E+05 -5.252906E-09  1.266435E-10
       249  16  4.815109E+04 -2.727984E+04 -7.840642E+04  1.281542E+05 -2.043710E-10  2.564963E-09
       249  17  1.286540E+05 -7.673493E+03 -6.383708E+04  1.404550E+05 -3.769669E-09  5.725624E-09
       249  18  1.946855E+05  2.642025E+04 -4.927998E+04  1.691473E+05 -3.731556E-09 -3.875342E-10
       249  19  8.354708E+05  2.615380E+05  7.798357E+04  3.485839E+05 -2.859578E+03  3.214225E+04
       249  20  7.694101E+05  2.274737E+05  6.377858E+04  3.198663E+05 -7.598484E+02  2.657241E+04
       249  21  6.888826E+05  2.078994E+05  4.957236E+04  3.075398E+05  1.343238E+03  2.099849E+04
       249  22  4.417310E+05  1.171225E+05 -2.069460E+02  2.383365E+05 -1.074755E+04  2.915689E+04
       249  23  4.489785E+05  1.098955E+05 -2.648349E+01  2.301389E+05 -8.653480E+03  2.358360E+04
       249  24  4.417516E+05  1.171568E+05  1.476440E+02  2.383304E+05 -6.556058E+03  1.800623E+04
       249  25  4.815165E+04 -2.727901E+04 -7.840448E+04  1.281538E+05 -1.863014E+04  2.617356E+04
       249  26  1.286544E+05 -7.672963E+03 -6.383577E+04  1.404547E+05 -1.654270E+04  2.059646E+04
       249  27  1.946858E+05  2.642055E+04 -4.927916E+04  1.691471E+05 -1.445191E+04  1.501527E+04
       250   1  6.390566E+05  1.895475E+05  3.931911E+04  2.936174E+05 -2.601023E+03 -1.776590E+04
       250   2  5.730736E+05  1.555005E+05  2.523595E+04  2.649396E+05 -4.962088E+03 -1.229216E+04
       250   3  4.926562E+05  1.359377E+05  1.134066E+04  2.526393E+05 -7.321694E+03 -6.824023E+03
       250   4  4.417659E+05  1.171593E+05  2.450874E+02  2.383288E+05  5.294152E+03 -1.477466E+04
       250   5  4.489871E+05  1.099157E+05  5.218161E+02  2.301424E+05  2.924913E+03 -9.303486E+03
       250   6  4.417712E+05  1.171580E+05  9.931176E+02  2.383317E+05  5.571028E+02 -3.837935E+03
       250   7  2.445139E+05  4.477404E+04 -3.883095E+04  1.830561E+05  1.318670E+04 -1.178441E+04
       250   8  3.249160E+05  6.433211E+04 -2.419293E+04  1.953514E+05  1.081025E+04 -6.315443E+03
       250   9  3.908890E+05  9.837867E+04 -9.354289E+03  2.240253E+05  8.435208E+03 -8.521116E+02
       250  10  6.390566E+05  1.895471E+05  3.931850E+04  2.936173E+05 -1.141693E-08 -5.823313E-09
       250  11  5.730735E+05  1.555004E+05  2.523562E+04  2.649396E+05  6.483723E-09  8.875775E-09
       250  12  4.926561E+05  1.359376E+05  1.134047E+04  2.526392E+05  2.658099E-08  5.297731E-09
       250  13  4.417658E+05  1.171591E+05  2.446244E+02  2.383289E+05 -2.953900E-09  1.134394E-08
       250  14  4.489870E+05  1.099156E+05  5.216373E+02  2.301424E+05 -4.227713E-09  7.717335E-09
       250  15  4.417712E+05  1.171580E+05  9.930893E+02  2.383317E+05  3.138323E-09  3.685065E-09
       250  16  2.445137E+05  4.477385E+04 -3.883154E+04  1.830562E+05  7.001472E-09  1.936715E-09
       250  17  3.249159E+05  6.433203E+04 -2.419323E+04  1.953514E+05 -9.827996E-09 -1.590917E-09
       250  18  3.908890E+05  9.837865E+04 -9.354424E+03  2.240253E+05 -2.110780E-08 -4.606805E-09
       250  19  6.390566E+05  1.895475E+05  3.931911E+04  2.936174E+05  2.601023E+03  1.776590E+04
       250  20  5.730736E+05  1.555005E+05  2.523595E+04  2.649396E+05  4.962088E+03  1.229216E+04
       250  21  4.926562E+05  1.359377E+05  1.134066E+04  2.526393E+05  7.321694E+03  6.824023E+03
       250  22  4.417659E+05  1.171593E+05  2.450874E+02  2.383288E+05 -5.294152E+03  1.477466E+04
       250  23  4.489871E+05  1.099157E+05  5.218161E+02  2.301424E+05 -2.924913E+03  9.303486E+03
       250  24  4.417712E+05  1.171580E+05  9.931176E+02  2.383317E+05 -5.571028E+02  3.837935E+03
       250  25  2.445139E+05  4.477404E+04 -3.883095E+04  1.830561E+05 -1.318670E+04  1.178441E+04
       250  26  3.249160E+05  6.433211E+04 -2.419293E+04  1.953514E+05 -1.081025E+04  6.315443E+03
       250  27  3.908890E+05  9.837867E+04 -9.354289E+03  2.240253E+05 -8.435208E+03  8.521116E+02
       251   1  4.428820E+05  1.176064E+05  1.339970E+03  2.387626E+05 -8.756306E+03 -3.660346E+03
       251   2  3.768204E+05  8.354441E+04 -1.194789E+04  2.101035E+05 -1.197355E+04  1.452646E+03
       251   3  2.964803E+05  6.407581E+04 -2.437582E+04  1.978322E+05 -1.516471E+04  6.498542E+03
       251   4  4.418054E+05  1.171535E+05  1.335988E+03  2.383464E+05 -8.649596E+02 -6.694453E+02
       251   5  4.489397E+05  1.098734E+05  2.438721E+03  2.301431E+05 -4.178060E+03  4.406905E+03
       251   6  4.418085E+05  1.172048E+05  4.477018E+03  2.383250E+05 -7.465238E+03  9.416143E+03
       251   7  4.407290E+05  1.167006E+05  1.332276E+03  2.379303E+05  7.026310E+03  2.321423E+03
       251   8  5.210644E+05  1.362029E+05  1.682534E+04  2.501849E+05  3.618403E+03  7.361528E+03
       251   9  5.871599E+05  1.703361E+05  3.332944E+04  2.788270E+05  2.362301E+02  1.233449E+04
       251  10  4.428819E+05  1.176063E+05  1.339801E+03  2.387626E+05 -1.561207E-08 -1.086210E-08
       251  11  3.768203E+05  8.354437E+04 -1.194816E+04  2.101035E+05 -9.772707E-09 -1.186911E-08
       251  12  2.964801E+05  6.407570E+04 -2.437633E+04  1.978323E+05  3.249625E-09 -2.711838E-09
       251  13  4.418054E+05  1.171535E+05  1.335986E+03  2.383464E+05  3.549424E-09  9.757584E-10
       251  14  4.489397E+05  1.098734E+05  2.438652E+03  2.301431E+05  4.343491E-09 -3.180779E-09
       251  15  4.418084E+05  1.172047E+05  4.476747E+03  2.383251E+05  1.321882E-10 -2.563678E-09
       251  16  4.407290E+05  1.167006E+05  1.332174E+03  2.379303E+05  2.459982E-08  9.034086E-09
       251  17  5.210644E+05  1.362028E+05  1.682521E+04  2.501848E+05  1.037863E-08 -6.904723E-09
       251  18  5.871599E+05  1.703359E+05  3.332916E+04  2.788270E+05 -4.154602E-09 -2.125082E-09
       251  19  4.428820E+05  1.176064E+05  1.339970E+03  2.387626E+05  8.756306E+03  3.660346E+03
       251  20  3.768204E+05  8.354441E+04 -1.194789E+04  2.101035E+05  1.197355E+04 -1.452646E+03
       251  21  2.964803E+05  6.407581E+04 -2.437582E+04  1.978322E+05  1.516471E+04 -6.498542E+03
       251  22  4.418054E+05  1.171535E+05  1.335988E+03  2.383464E+05  8.649596E+02  6.694453E+02
       251  23  4.489397E+05  1.098734E+05  2.438721E+03  2.301431E+05  4.178060E+03 -4.406905E+03
       251  24  4.418085E+05  1.172048E+05  4.477018E+03  2.383250E+05  7.465238E+03 -9.416143E+03
       251  25  4.407290E+05  1.167006E+05  1.332276E+03  2.379303E+05 -7.026310E+03 -2.321423E+03
       251  26  5.210644E+05  1.362029E+05  1.682534E+04  2.501849E+05 -3.618403E+03 -7.361528E+03
       251  27  5.871599E+05  1.703361E+05  3.332944E+04  2.788270E+05 -2.362301E+02 -1.233449E+04
       252   1  2.465522E+05  4.590446E+04 -3.325130E+04  1.844376E+05 -1.742934E+04  9.351137E+03
       252   2  1.806707E+05  1.142213E+04 -4.321230E+04  1.546874E+05 -2.338630E+04  1.289792E+04
       252   3  1.018243E+05 -6.109623E+03 -4.949799E+04  1.408016E+05 -2.896051E+04  1.543944E+04
       252   4  4.420523E+05  1.170676E+05  5.959275E+03  2.384796E+05 -9.530567E+03  1.234387E+04
       252   5  4.486291E+05  1.101225E+05  1.086402E+04  2.299127E+05 -1.691449E+04  1.534892E+04
       252   6  4.425172E+05  1.204086E+05  2.057349E+04  2.372072E+05 -2.391623E+04  1.734877E+04
       252   7  6.375918E+05  1.882340E+05  4.516824E+04  2.925372E+05 -1.629122E+03  1.533759E+04
       252   8  7.166605E+05  2.088289E+05  6.493665E+04  3.051677E+05 -1.043970E+04  1.780106E+04
       252   9  7.833266E+05  2.469364E+05  9.063826E+04  3.336610E+05 -1.886901E+04  1.925924E+04
       252  10  2.465519E+05  4.590428E+04 -3.325203E+04  1.844377E+05  4.551902E-09 -2.554902E-09
       252  11  1.806701E+05  1.142180E+04 -4.321364E+04  1.546877E+05  2.313635E-09 -9.958308E-10
       252  12  1.018233E+05 -6.110105E+03 -4.950002E+04  1.408020E+05 -7.954404E-10  8.981726E-10
       252  13  4.420521E+05  1.170674E+05  5.958818E+03  2.384797E+05  9.776148E-11  9.642226E-10
       252  14  4.486288E+05  1.101222E+05  1.086304E+04  2.299129E+05  4.799748E-09  7.464315E-09
       252  15  4.425165E+05  1.204081E+05  2.057185E+04  2.372075E+05  1.083032E-09 -4.182085E-09
       252  16  6.375917E+05  1.882338E+05  4.516780E+04  2.925373E+05 -2.904478E-09 -2.234318E-09
       252  17  7.166603E+05  2.088285E+05  6.493584E+04  3.051678E+05  3.305085E-10 -1.819777E-10
       252  18  7.833261E+05  2.469359E+05  9.063689E+04  3.336613E+05  4.363777E-09 -1.814470E-09
       252  19  2.465522E+05  4.590446E+04 -3.325130E+04  1.844376E+05  1.742934E+04 -9.351137E+03
       252  20  1.806707E+05  1.142213E+04 -4.321230E+04  1.546874E+05  2.338630E+04 -1.289792E+04
       252  21  1.018243E+05 -6.109623E+03 -4.949799E+04  1.408016E+05  2.896051E+04 -1.543944E+04
       252  22  4.420523E+05  1.170676E+05  5.959275E+03  2.384796E+05  9.530567E+03 -1.234387E+04
       252  23  4.486291E+05  1.101225E+05  1.086402E+04  2.299127E+05  1.691449E+04 -1.534892E+04
       252  24  4.425172E+05  1.204086E+05  2.057349E+04  2.372072E+05  2.391623E+04 -1.734877E+04
       252  25  6.375918E+05  1.882340E+05  4.516824E+04  2.925372E+05  1.629122E+03 -1.533759E+04
       252  26  7.166605E+05  2.088289E+05  6.493665E+04  3.051677E+05  1.043970E+04 -1.780106E+04
       252  27  7.833266E+05  2.469364E+05  9.063826E+04  3.336610E+05  1.886901E+04 -1.925924E+04
       253   1  4.777759E+04 -2.096281E+04 -5.365920E+04  1.371562E+05 -3.624743E+04  1.641905E+04
       253   2 -2.400521E+03 -6.546340E+04 -5.198610E+04  7.646016E+04 -4.075973E+04  1.260697E+04
       253   3 -4.376594E+04 -3.840245E+04 -3.052023E+04  1.585692E+04 -3.960665E+04 -6.175900E+03
       253   4  4.458993E+05  1.172329E+05  2.692687E+04  2.398233E+05 -2.826723E+04  1.944009E+04
       253   5  4.455331E+05  1.222825E+05  5.033686E+04  2.235195E+05 -5.398888E+04  7.595155E+03
       253   6  4.581595E+05  2.030639E+05  1.103394E+05  2.073103E+05 -7.404912E+04 -1.921614E+04
       253   7  8.441883E+05  2.554398E+05  1.075066E+05  3.425505E+05 -2.028142E+04  2.246299E+04
       253   8  8.936715E+05  3.100609E+05  1.526474E+05  3.706818E+05 -6.722831E+04  2.578277E+03
       253   9  9.603328E+05  4.445941E+05  2.511788E+05  3.989174E+05 -1.085215E+05 -3.227494E+04
       253  10  4.777611E+04 -2.096345E+04 -5.366217E+04  1.371567E+05  2.338624E-08  8.613663E-09
       253  11 -2.402348E+03 -6.546402E+04 -5.198952E+04  7.646057E+04 -2.014652E-09  5.118303E-10
       253  12 -4.376763E+04 -3.840292E+04 -3.052325E+04  1.585672E+04 -2.273252E-08 -1.482812E-08
       253  13  4.458983E+05  1.172323E+05  2.692466E+04  2.398237E+05  1.930950E-09  4.297823E-09
       253  14  4.455300E+05  1.222817E+05  5.033128E+04  2.235198E+05  9.405214E-10 -8.419113E-09
       253  15  4.581536E+05  2.030620E+05  1.103284E+05  2.073091E+05 -1.011884E-10  5.808184E-09
       253  16  8.441877E+05  2.554391E+05  1.075049E+05  3.425508E+05 -2.436039E-08 -1.461253E-08
       253  17  8.936666E+05  3.100597E+05  1.526389E+05  3.706819E+05 -3.556625E-09  5.697237E-09
       253  18  9.603199E+05  4.445898E+05  2.511548E+05  3.989145E+05  2.193175E-08  8.107007E-09
       253  19  4.777759E+04 -2.096281E+04 -5.365920E+04  1.371562E+05  3.624743E+04 -1.641905E+04
       253  20 -2.400521E+03 -6.546340E+04 -5.198610E+04  7.646016E+04  4.075973E+04 -1.260697E+04
       253  21 -4.376594E+04 -3.840245E+04 -3.052023E+04  1.585692E+04  3.960665E+04  6.175900E+03
       253  22  4.458993E+05  1.172329E+05  2.692687E+04  2.398233E+05  2.826723E+04 -1.944009E+04
       253  23  4.455331E+05  1.222825E+05  5.033686E+04  2.235195E+05  5.398888E+04 -7.595155E+03
       253  24  4.581595E+05  2.030639E+05  1.103394E+05  2.073103E+05  7.404912E+04  1.921614E+04
       253  25  8.441883E+05  2.554398E+05  1.075066E+05  3.425505E+05  2.028142E+04 -2.246299E+04
       253  26  8.936715E+05  3.100609E+05  1.526474E+05  3.706818E+05  6.722831E+04 -2.578277E+03
       253  27  9.603328E+05  4.445941E+05  2.511788E+05  3.989174E+05  1.085215E+05  3.227494E+04
       254   1  5.644467E+04 -4.083785E+03 -7.560160E+03 -1.923236E+03 -1.151225E+04 -6.087521E+02
       254   2  5.021799E+04  9.673970E+03  6.309057E+01  1.111549E+03 -8.055373E+03 -1.726533E+03
       254   3  3.973122E+04  8.308052E+03  1.651679E+03  7.666737E+03 -4.602994E+03 -1.565523E+03
       254   4  9.187508E+03 -1.576827E+04 -1.903242E+04  5.353746E+03 -1.308263E+04 -6.143503E+02
       254   5  1.141647E+04  1.921424E+02 -8.650685E+03  3.564622E+03 -8.490467E+03 -1.728091E+03
       254   6  9.187792E+03  8.311624E+02 -5.092325E+03  5.295954E+03 -3.902749E+03 -1.563059E+03
       254   7 -3.806749E+04 -2.745271E+04 -3.050480E+04  1.263017E+04 -1.465289E+04 -6.199855E+02
       254   8 -2.738364E+04 -9.289764E+03 -1.736455E+04  6.017538E+03 -8.925535E+03 -1.729653E+03
       254   9 -2.135475E+04 -6.645769E+03 -1.183638E+04  2.925288E+03 -3.202538E+03 -1.560600E+03
       254  10  5.644453E+04 -4.083821E+03 -7.560409E+03 -1.923241E+03 -1.460546E-08  2.248343E-09
       254  11  5.021792E+04  9.673949E+03  6.296304E+01  1.111538E+03  2.437304E-09  1.219374E-08
       254  12  3.973119E+04  8.308043E+03  1.651634E+03  7.666731E+03  1.268077E-08  7.867779E-09
       254  13  9.187324E+03 -1.576831E+04 -1.903274E+04  5.353740E+03  9.156066E-10 -5.223417E-09
       254  14  1.141639E+04  1.921199E+02 -8.650826E+03  3.564610E+03 -1.726394E-09 -1.223922E-08
       254  15  9.187775E+03  8.311557E+02 -5.092359E+03  5.295949E+03  1.635274E-09  6.516563E-10
       254  16 -3.806772E+04 -2.745277E+04 -3.050520E+04  1.263016E+04  1.374905E-08 -1.974888E-09
       254  17 -2.738373E+04 -9.289789E+03 -1.736471E+04  6.017526E+03 -2.145395E-09  7.572398E-09
       254  18 -2.135476E+04 -6.645774E+03 -1.183641E+04  2.925284E+03 -1.336052E-08 -4.479215E-10
       254  19  5.644467E+04 -4.083785E+03 -7.560160E+03 -1.923236E+03  1.151225E+04  6.087521E+02
       254  20  5.021799E+04  9.673970E+03  6.309057E+01  1.111549E+03  8.055373E+03  1.726533E+03
       254  21  3.973122E+04  8.308052E+03  1.651679E+03  7.666737E+03  4.602994E+03  1.565523E+03
       254  22  9.187508E+03 -1.576827E+04 -1.903242E+04  5.353746E+03  1.308263E+04  6.143503E+02
       254  23  1.141647E+04  1.921424E+02 -8.650685E+03  3.564622E+03  8.490467E+03  1.728091E+03
       254  24  9.187792E+03  8.311624E+02 -5.092325E+03  5.295954E+03  3.902749E+03  1.563059E+03
       254  25 -3.806749E+04 -2.745271E+04 -3.050480E+04  1.263017E+04  1.465289E+04  6.199855E+02
       254  26 -2.738364E+04 -9.289764E+03 -1.736455E+04  6.017538E+03  8.925535E+03  1.729653E+03
       254  27 -2.135475E+04 -6.645769E+03 -1.183638E+04  2.925288E+03  3.202538E+03  1.560600E+03
       255   1  3.372907E+04  4.910998E+03  1.184018E+03  5.066285E+03 -3.502437E+03 -1.174390E+03
       255   2  2.561078E+04  3.799567E+03  1.202608E+03  3.514326E+03 -2.457359E+03 -7.774995E+02
       255   3  1.710550E+04  1.807925E+03  3.137576E+02  5.500774E+03 -1.412518E+03 -3.235268E+02
       255   4  1.009041E+04 -8.616773E+02 -4.053178E+03  5.317017E+03 -3.178514E+03 -1.173259E+03
       255   5  1.028844E+04  5.841995E+01 -2.183312E+03  3.546137E+03 -2.082790E+03 -7.761859E+02
       255   6  1.009048E+04  8.946675E+01 -1.256120E+03  5.313674E+03 -9.872906E+02 -3.220306E+02
       255   7 -1.354773E+04 -6.634390E+03 -9.290408E+03  5.567739E+03 -2.854603E+03 -1.172128E+03
       255   8 -5.033677E+03 -3.682743E+03 -5.569245E+03  3.577946E+03 -1.708231E+03 -7.748722E+02
       255   9  3.075506E+03 -1.628994E+03 -2.826001E+03  5.126576E+03 -5.620682E+02 -3.205347E+02
       255  10  3.372905E+04  4.910994E+03  1.183993E+03  5.066282E+03 -8.615197E-10 -2.847508E-09
       255  11  2.561077E+04  3.799564E+03  1.202595E+03  3.514325E+03  5.251016E-09  5.361735E-09
       255  12  1.710550E+04  1.807924E+03  3.137537E+02  5.500773E+03  8.963889E-09  1.049130E-08
       255  13  1.009040E+04 -8.616815E+02 -4.053200E+03  5.317014E+03 -1.556823E-10  1.065525E-08
       255  14  1.028844E+04  5.841814E+01 -2.183321E+03  3.546135E+03  2.095161E-09 -1.920677E-08
       255  15  1.009048E+04  8.946638E+01 -1.256122E+03  5.313673E+03  1.681959E-09  9.093779E-09
       255  16 -1.354774E+04 -6.634394E+03 -9.290426E+03  5.567737E+03 -5.000049E-10 -6.349598E-09
       255  17 -5.033680E+03 -3.682744E+03 -5.569252E+03  3.577945E+03 -4.148532E-09 -1.675086E-09
       255  18  3.075506E+03 -1.628994E+03 -2.826002E+03  5.126575E+03 -7.967675E-09  4.945629E-09
       255  19  3.372907E+04  4.910998E+03  1.184018E+03  5.066285E+03  3.502437E+03  1.174390E+03
       255  20  2.561078E+04  3.799567E+03  1.202608E+03  3.514326E+03  2.457359E+03  7.774995E+02
       255  21  1.710550E+04  1.807925E+03  3.137576E+02  5.500774E+03  1.412518E+03  3.235268E+02
       255  22  1.009041E+04 -8.616773E+02 -4.053178E+03  5.317017E+03  3.178514E+03  1.173259E+03
       255  23  1.028844E+04  5.841995E+01 -2.183312E+03  3.546137E+03  2.082790E+03  7.761859E+02
       255  24  1.009048E+04  8.946675E+01 -1.256120E+03  5.313674E+03  9.872906E+02  3.220306E+02
       255  25 -1.354773E+04 -6.634390E+03 -9.290408E+03  5.567739E+03  2.854603E+03  1.172128E+03
       255  26 -5.033677E+03 -3.682743E+03 -5.569245E+03  3.577946E+03  1.708231E+03  7.748722E+02
       255  27  3.075506E+03 -1.628994E+03 -2.826001E+03  5.126576E+03  5.620682E+02  3.205347E+02
       256   1  1.028299E+04  1.881135E+01 -9.536582E+02  5.327949E+03 -1.201694E+03 -4.729451E+01
       256   2  2.009909E+03 -1.966157E+03 -2.335571E+03  3.539507E+03 -9.426060E+02  4.148314E+02
       256   3 -6.335684E+03 -3.981197E+03 -3.900966E+03  5.290059E+03 -6.835211E+02  8.795007E+02
       256   4  1.016230E+04 -6.495810E+00 -9.589576E+02  5.314805E+03 -7.932730E+02 -4.585729E+01
       256   5  1.019870E+04  3.263461E+01 -5.301340E+02  3.545223E+03 -5.319265E+02  4.162744E+02
       256   6  1.016226E+04  4.133564E+01 -2.863291E+02  5.314631E+03 -2.705799E+02  8.809498E+02
       256   7  1.004161E+04 -3.180288E+01 -9.642563E+02  5.301662E+03 -3.848519E+02 -4.442010E+01
       256   8  1.838755E+04  2.031422E+03  1.275299E+03  3.550939E+03 -1.212417E+02  4.177174E+02
       256   9  2.666045E+04  4.063850E+03  3.328292E+03  5.339204E+03  1.423721E+02  8.823989E+02
       256  10  1.028299E+04  1.881096E+01 -9.536609E+02  5.327949E+03 -8.007341E-09 -3.625884E-09
       256  11  2.009908E+03 -1.966157E+03 -2.335573E+03  3.539507E+03 -8.966891E-09 -7.136230E-09
       256  12 -6.335685E+03 -3.981198E+03 -3.900968E+03  5.290060E+03 -5.564679E-09 -5.130038E-09
       256  13  1.016230E+04 -6.495982E+00 -9.589587E+02  5.314805E+03  9.623043E-10 -2.508495E-09
       256  14  1.019870E+04  3.263435E+01 -5.301349E+02  3.545223E+03 -1.149783E-09 -5.520572E-09
       256  15  1.016225E+04  4.133479E+01 -2.863307E+02  5.314632E+03  2.048071E-09 -3.989115E-09
       256  16  1.004161E+04 -3.180292E+01 -9.642566E+02  5.301662E+03  8.046523E-09 -5.728454E-09
       256  17  1.838755E+04  2.031422E+03  1.275299E+03  3.550939E+03  8.442536E-09  7.099813E-10
       256  18  2.666045E+04  4.063850E+03  3.328290E+03  5.339204E+03  5.700490E-09  6.947929E-09
       256  19  1.028299E+04  1.881135E+01 -9.536582E+02  5.327949E+03  1.201694E+03  4.729451E+01
       256  20  2.009909E+03 -1.966157E+03 -2.335571E+03  3.539507E+03  9.426060E+02 -4.148314E+02
       256  21 -6.335684E+03 -3.981197E+03 -3.900966E+03  5.290059E+03  6.835211E+02 -8.795007E+02
       256  22  1.016230E+04 -6.495810E+00 -9.589576E+02  5.314805E+03  7.932730E+02  4.585729E+01
       256  23  1.019870E+04  3.263461E+01 -5.301340E+02  3.545223E+03  5.319265E+02 -4.162744E+02
       256  24  1.016226E+04  4.133564E+01 -2.863291E+02  5.314631E+03  2.705799E+02 -8.809498E+02
       256  25  1.004161E+04 -3.180288E+01 -9.642563E+02  5.301662E+03  3.848519E+02  4.442010E+01
       256  26  1.838755E+04  2.031422E+03  1.275299E+03  3.550939E+03  1.212417E+02 -4.177174E+02
       256  27  2.666045E+04  4.063850E+03  3.328292E+03  5.339204E+03 -1.423721E+02 -8.823989E+02
       257   1 -1.322009E+04 -5.678098E+03 -5.383823E+03  5.262480E+03 -6.397299E+02  1.150162E+03
       257   2 -2.151473E+04 -7.713036E+03 -7.063680E+03  3.470073E+03 -6.053902E+02  1.614546E+03
       257   3 -2.983907E+04 -9.726278E+03 -8.767628E+03  5.216977E+03 -5.710319E+02  2.079039E+03
       257   4  1.017176E+04  3.682210E+01 -2.020365E+02  5.314755E+03 -2.275350E+02  1.151605E+03
       257   5  1.018657E+04  2.571471E+01 -7.286286E+01  3.545103E+03 -1.931007E+02  1.615982E+03
       257   6  1.017160E+04  3.629099E+01  3.215569E+01  5.314751E+03 -1.586474E+02  2.080467E+03
       257   7  3.356413E+04  5.751706E+03  4.979716E+03  5.367031E+03  1.846753E+02  1.153049E+03
       257   8  4.188881E+04  7.764398E+03  6.917893E+03  3.620136E+03  2.192096E+02  1.617418E+03
       257   9  5.018377E+04  9.798753E+03  8.831842E+03  5.412530E+03  2.537634E+02  2.081896E+03
       257  10 -1.322009E+04 -5.678100E+03 -5.383826E+03  5.262481E+03  1.855802E-09 -1.003228E-08
       257  11 -2.151473E+04 -7.713039E+03 -7.063685E+03  3.470074E+03  6.820059E-11  7.727873E-11
       257  12 -2.983907E+04 -9.726283E+03 -8.767637E+03  5.216978E+03 -3.309302E-09  2.974041E-09
       257  13  1.017176E+04  3.682066E+01 -2.020391E+02  5.314755E+03 -1.637272E-10 -2.508609E-09
       257  14  1.018657E+04  2.571189E+01 -7.286784E+01  3.545103E+03  2.072763E-09 -8.794624E-09
       257  15  1.017160E+04  3.628634E+01  3.214751E+01  5.314751E+03  3.126133E-09 -2.066017E-09
       257  16  3.356413E+04  5.751704E+03  4.979714E+03  5.367031E+03 -3.254569E-09  1.782174E-10
       257  17  4.188881E+04  7.764396E+03  6.917888E+03  3.620136E+03 -2.163237E-10  7.058555E-09
       257  18  5.018377E+04  9.798749E+03  8.831834E+03  5.412529E+03  3.140572E-09  4.644386E-09
       257  19 -1.322009E+04 -5.678098E+03 -5.383823E+03  5.262480E+03  6.397299E+02 -1.150162E+03
       257  20 -2.151473E+04 -7.713036E+03 -7.063680E+03  3.470073E+03  6.053902E+02 -1.614546E+03
       257  21 -2.983907E+04 -9.726278E+03 -8.767628E+03  5.216977E+03  5.710319E+02 -2.079039E+03
       257  22  1.017176E+04  3.682210E+01 -2.020365E+02  5.314755E+03  2.275350E+02 -1.151605E+03
       257  23  1.018657E+04  2.571471E+01 -7.286286E+01  3.545103E+03  1.931007E+02 -1.615982E+03
       257  24  1.017160E+04  3.629099E+01  3.215569E+01  5.314751E+03  1.586474E+02 -2.080467E+03
       257  25  3.356413E+04  5.751706E+03  4.979716E+03  5.367031E+03 -1.846753E+02 -1.153049E+03
       257  26  4.188881E+04  7.764398E+03  6.917893E+03  3.620136E+03 -2.192096E+02 -1.617418E+03
       257  27  5.018377E+04  9.798753E+03  8.831842E+03  5.412530E+03 -2.537634E+02 -2.081896E+03
       258   1 -3.672860E+04 -1.141881E+04 -1.028086E+04  5.199805E+03 -5.827750E+02  2.349330E+03
       258   2 -4.503486E+04 -1.345811E+04 -1.195708E+04  3.413027E+03 -6.925066E+02  2.813314E+03
       258   3 -5.334853E+04 -1.546651E+04 -1.356103E+04  5.166351E+03 -8.022005E+02  3.277012E+03
       258   4  1.017640E+04  3.623224E+01  8.631447E+01  5.314930E+03 -1.703256E+02  2.350752E+03
       258   5  1.018004E+04  2.086949E+01  2.192248E+02  3.544885E+03 -2.803246E+02  2.814721E+03
       258   6  1.017612E+04  3.642228E+01  4.245663E+02  5.314923E+03 -3.902874E+02  3.278405E+03
       258   7  5.708345E+04  1.149112E+04  1.045335E+04  5.430062E+03  2.421547E+02  2.352174E+03
       258   8  6.539779E+04  1.349964E+04  1.239534E+04  3.676753E+03  1.318936E+02  2.816129E+03
       258   9  7.370454E+04  1.553909E+04  1.440991E+04  5.463508E+03  2.166730E+01  3.279798E+03
       258  10 -3.672861E+04 -1.141881E+04 -1.028087E+04  5.199806E+03  2.272758E-09  2.459259E-09
       258  11 -4.503486E+04 -1.345812E+04 -1.195710E+04  3.413028E+03 -1.870252E-09 -3.430107E-09
       258  12 -5.334854E+04 -1.546653E+04 -1.356105E+04  5.166353E+03 -1.191825E-08 -3.121975E-09
       258  13  1.017640E+04  3.622630E+01  8.630403E+01  5.314930E+03 -1.454344E-10  8.801059E-09
       258  14  1.018004E+04  2.086096E+01  2.192097E+02  3.544886E+03  1.019733E-09 -3.770737E-09
       258  15  1.017612E+04  3.641070E+01  4.245458E+02  5.314924E+03  2.023417E-09 -2.221836E-09
       258  16  5.708345E+04  1.149112E+04  1.045334E+04  5.430062E+03 -2.252888E-09  5.051616E-09
       258  17  6.539779E+04  1.349964E+04  1.239533E+04  3.676753E+03  3.955173E-09 -1.635377E-08
       258  18  7.370454E+04  1.553908E+04  1.440989E+04  5.463508E+03  1.378861E-08 -1.256369E-08
       258  19 -3.672860E+04 -1.141881E+04 -1.028086E+04  5.199805E+03  5.827750E+02 -2.349330E+03
       258  20 -4.503486E+04 -1.345811E+04 -1.195708E+04  3.413027E+03  6.925066E+02 -2.813314E+03
       258  21 -5.334853E+04 -1.546651E+04 -1.356103E+04  5.166351E+03  8.022005E+02 -3.277012E+03
       258  22  1.017640E+04  3.623224E+01  8.631447E+01  5.314930E+03  1.703256E+02 -2.350752E+03
       258  23  1.018004E+04  2.086949E+01  2.192248E+02  3.544885E+03  2.803246E+02 -2.814721E+03
       258  24  1.017612E+04  3.642228E+01  4.245662E+02  5.314923E+03  3.902874E+02 -3.278405E+03
       258  25  5.708345E+04  1.149112E+04  1.045335E+04  5.430062E+03 -2.421547E+02 -2.352174E+03
       258  26  6.539779E+04  1.349964E+04  1.239534E+04  3.676753E+03 -1.318936E+02 -2.816129E+03
       258  27  7.370454E+04  1.553909E+04  1.440991E+04  5.463508E+03 -2.166730E+01 -3.279798E+03
       259   1 -6.022691E+04 -1.716764E+04 -1.498282E+04  5.166647E+03 -8.948360E+02  3.547659E+03
       259   2 -6.857216E+04 -1.921146E+04 -1.635461E+04  3.371945E+03 -1.390408E+03  4.008787E+03
       259   3 -7.684930E+04 -2.112907E+04 -1.737873E+04  5.116299E+03 -1.885911E+03  4.463024E+03
       259   4  1.019297E+04  2.782061E+01  5.700396E+02  5.314789E+03 -4.808699E+02  3.549049E+03
       259   5  1.015816E+04  8.387323E+00  1.008499E+03  3.545120E+03 -9.826163E+02  4.010136E+03
       259   6  1.019258E+04  1.162563E+02  1.798915E+03  5.314481E+03 -1.484299E+03  4.464334E+03
       259   7  8.061749E+04  1.722294E+04  1.612259E+04  5.462944E+03 -6.685735E+01  3.550439E+03
       259   8  8.889428E+04  1.922782E+04  1.837122E+04  3.718313E+03 -5.747732E+02  4.011486E+03
       259   9  9.724153E+04  2.136108E+04  2.097609E+04  5.512685E+03 -1.082633E+03  4.465643E+03
       259  10 -6.022692E+04 -1.716765E+04 -1.498284E+04  5.166650E+03 -7.213312E-09 -1.073837E-09
       259  11 -6.857217E+04 -1.921148E+04 -1.635464E+04  3.371949E+03 -3.024327E-09 -1.182849E-08
       259  12 -7.684931E+04 -2.112910E+04 -1.737877E+04  5.116306E+03  1.298191E-09 -4.143481E-09
       259  13  1.019297E+04  2.780702E+01  5.700155E+02  5.314790E+03 -1.668150E-10 -1.064223E-09
       259  14  1.015816E+04  8.369795E+00  1.008467E+03  3.545123E+03  9.765751E-10  1.091265E-09
       259  15  1.019257E+04  1.162343E+02  1.798873E+03  5.314486E+03  1.680096E-09 -1.713540E-09
       259  16  8.061748E+04  1.722293E+04  1.612257E+04  5.462944E+03  7.506488E-09  4.102592E-09
       259  17  8.889427E+04  1.922780E+04  1.837119E+04  3.718315E+03  1.678118E-09 -7.835689E-09
       259  18  9.724153E+04  2.136106E+04  2.097605E+04  5.512689E+03 -2.703421E-09  1.813337E-09
       259  19 -6.022691E+04 -1.716764E+04 -1.498282E+04  5.166647E+03  8.948360E+02 -3.547659E+03
       259  20 -6.857216E+04 -1.921146E+04 -1.635461E+04  3.371945E+03  1.390408E+03 -4.008787E+03
       259  21 -7.684930E+04 -2.112907E+04 -1.737873E+04  5.116299E+03  1.885911E+03 -4.463024E+03
       259  22  1.019297E+04  2.782061E+01  5.700396E+02  5.314789E+03  4.808699E+02 -3.549049E+03
       259  23  1.015816E+04  8.387323E+00  1.008499E+03  3.545120E+03  9.826163E+02 -4.010136E+03
       259  24  1.019258E+04  1.162563E+02  1.798915E+03  5.314481E+03  1.484299E+03 -4.464334E+03
       259  25  8.061749E+04  1.722294E+04  1.612259E+04  5.462944E+03  6.685735E+01 -3.550439E+03
       259  26  8.889428E+04  1.922782E+04  1.837122E+04  3.718313E+03  5.747732E+02 -4.011486E+03
       259  27  9.724153E+04  2.136108E+04  2.097609E+04  5.512685E+03  1.082633E+03 -4.465643E+03
       260   1 -8.361641E+04 -2.299819E+04 -1.838821E+04  5.389664E+03 -2.297724E+03  4.746225E+03
       260   2 -9.225186E+04 -2.500591E+04 -1.849416E+04  3.154768E+03 -4.207780E+03  5.166245E+03
       260   3 -1.002382E+05 -2.531050E+04 -1.693654E+04  4.450465E+03 -6.117249E+03  5.431223E+03
       260   4  1.032641E+04 -6.272324E+01  2.349844E+03  5.314370E+03 -1.850478E+03  4.747674E+03
       260   5  9.989760E+03 -4.098446E+01  4.073123E+03  3.546158E+03 -3.898500E+03  5.167209E+03
       260   6  1.032592E+04  1.707664E+03  7.555582E+03  5.308496E+03 -5.945961E+03  5.431710E+03
       260   7  1.042775E+05  2.287215E+04  2.308736E+04  5.239059E+03 -1.403165E+03  4.749124E+03
       260   8  1.122411E+05  2.492324E+04  2.663976E+04  3.937606E+03 -3.589170E+03  5.168172E+03
       260   9  1.209015E+05  2.872501E+04  3.204695E+04  6.166672E+03 -5.774642E+03  5.432197E+03
       260  10 -8.361642E+04 -2.299822E+04 -1.838827E+04  5.389672E+03  1.496098E-08 -4.285416E-09
       260  11 -9.225188E+04 -2.500594E+04 -1.849424E+04  3.154786E+03  1.058095E-08  4.422222E-09
       260  12 -1.002383E+05 -2.531054E+04 -1.693667E+04  4.450492E+03  2.678313E-09 -4.598575E-09
       260  13  1.032640E+04 -6.274837E+01  2.349795E+03  5.314378E+03  8.918280E-10 -1.576695E-08
       260  14  9.989736E+03 -4.101721E+01  4.073044E+03  3.546174E+03  9.921506E-10  8.341166E-09
       260  15  1.032587E+04  1.707623E+03  7.555460E+03  5.308522E+03  1.942165E-09  8.369341E-09
       260  16  1.042775E+05  2.287213E+04  2.308731E+04  5.239064E+03 -1.502165E-08 -4.690578E-09
       260  17  1.122411E+05  2.492320E+04  2.663969E+04  3.937621E+03 -1.072461E-08 -8.631481E-09
       260  18  1.209015E+05  2.872496E+04  3.204683E+04  6.166697E+03 -3.746521E-09  6.394716E-09
       260  19 -8.361641E+04 -2.299819E+04 -1.838821E+04  5.389664E+03  2.297724E+03 -4.746225E+03
       260  20 -9.225186E+04 -2.500591E+04 -1.849416E+04  3.154768E+03  4.207780E+03 -5.166245E+03
       260  21 -1.002382E+05 -2.531050E+04 -1.693654E+04  4.450465E+03  6.117249E+03 -5.431223E+03
       260  22  1.032641E+04 -6.272324E+01  2.349844E+03  5.314370E+03  1.850478E+03 -4.747674E+03
       260  23  9.989760E+03 -4.098446E+01  4.073123E+03  3.546158E+03  3.898500E+03 -5.167209E+03
       260  24  1.032592E+04  1.707664E+03  7.555582E+03  5.308496E+03  5.945961E+03 -5.431710E+03
       260  25  1.042775E+05  2.287215E+04  2.308736E+04  5.239059E+03  1.403165E+03 -4.749124E+03
       260  26  1.122411E+05  2.492324E+04  2.663976E+04  3.937606E+03  3.589170E+03 -5.168172E+03
       260  27  1.209015E+05  2.872501E+04  3.204695E+04  6.166672E+03  5.774642E+03 -5.432197E+03
       261   1 -1.055612E+05 -3.010969E+04 -1.640423E+04  9.268925E+03 -8.494246E+03  6.011884E+03
       261   2 -1.177076E+05 -3.107903E+04 -1.202300E+04 -1.485492E+03 -1.395526E+04  5.602224E+03
       261   3 -1.221409E+05 -3.960966E+03  2.933040E+03 -8.915587E+03 -1.940506E+04  1.717417E+03
       261   4  1.200870E+04 -1.447467E+03  9.491398E+03  5.292073E+03 -7.300498E+03  6.015754E+03
       261   5  7.884950E+03 -2.922224E+02  1.612031E+04  3.580376E+03 -1.584855E+04  5.595942E+03
       261   6  1.200837E+04  2.948300E+04  3.546635E+04  5.192811E+03 -2.438546E+04  1.701140E+03
       261   7  1.295916E+05  2.721389E+04  3.538619E+04  1.314448E+03 -6.106526E+03  6.019608E+03
       261   8  1.334923E+05  3.049360E+04  4.426266E+04  8.647268E+03 -1.774221E+04  5.589630E+03
       261   9  1.461746E+05  6.292640E+04  6.799855E+04  1.930426E+04 -2.936694E+04  1.684638E+03
       261  10 -1.055613E+05 -3.010975E+04 -1.640443E+04  9.268967E+03 -2.043532E-08  7.909465E-10
       261  11 -1.177079E+05 -3.107912E+04 -1.202343E+04 -1.485429E+03 -9.709626E-10  6.060331E-10
       261  12 -1.221413E+05 -3.961071E+03  2.932327E+03 -8.915560E+03  1.417479E-08  8.785680E-09
       261  13  1.200863E+04 -1.447520E+03  9.491230E+03  5.292109E+03  1.960160E-09  4.090889E-09
       261  14  7.884671E+03 -2.923235E+02  1.611978E+04  3.580447E+03  3.971839E-10  4.930329E-09
       261  15  1.200773E+04  2.948284E+04  3.546523E+04  5.192845E+03  2.216071E-09  4.916669E-09
       261  16  1.295915E+05  2.721384E+04  3.538605E+04  1.314478E+03  1.906485E-08  5.000354E-09
       261  17  1.334919E+05  3.049349E+04  4.426201E+04  8.647348E+03  1.834476E-09  1.044290E-08
       261  18  1.461736E+05  6.292616E+04  6.799693E+04  1.930430E+04 -1.387710E-08 -2.422627E-09
       261  19 -1.055612E+05 -3.010969E+04 -1.640423E+04  9.268925E+03  8.494246E+03 -6.011884E+03
       261  20 -1.177076E+05 -3.107903E+04 -1.202300E+04 -1.485492E+03  1.395526E+04 -5.602224E+03
       261  21 -1.221409E+05 -3.960966E+03  2.933040E+03 -8.915587E+03  1.940506E+04 -1.717417E+03
       261  22  1.200870E+04 -1.447467E+03  9.491398E+03  5.292073E+03  7.300498E+03 -6.015754E+03
       261  23  7.884950E+03 -2.922224E+02  1.612031E+04  3.580376E+03  1.584855E+04 -5.595942E+03
       261  24  1.200837E+04  2.948300E+04  3.546635E+04  5.192811E+03  2.438546E+04 -1.701140E+03
       261  25  1.295916E+05  2.721389E+04  3.538619E+04  1.314448E+03  6.106526E+03 -6.019608E+03
       261  26  1.334923E+05  3.049360E+04  4.426266E+04  8.647268E+03  1.774221E+04 -5.589630E+03
       261  27  1.461746E+05  6.292640E+04  6.799855E+04  1.930426E+04  2.936694E+04 -1.684638E+03
       262   1 -3.031913E+05 -1.260530E+06 -3.145876E+05  1.523783E+05 -1.013444E+04 -9.524568E+04
       262   2 -1.726368E+05 -1.072935E+06 -2.058129E+05  9.013736E+04 -3.059542E+04 -4.904088E+04
       262   3 -1.267760E+05 -9.117794E+05 -1.482329E+05  1.009118E+05 -2.695408E+04 -2.743547E+03
       262   4 -8.352461E+04 -3.791866E+05 -1.000042E+05  1.114435E+05 -1.021901E+04 -6.660143E+04
       262   5  3.520148E+02 -3.677812E+05 -4.712332E+04  7.506795E+04 -3.061366E+04 -4.173347E+04
       262   6  3.297594E+03 -3.791001E+05 -3.056457E+04  1.117111E+05 -2.691437E+04 -1.678733E+04
       262   7  1.360913E+05  5.028715E+05  1.145267E+05  7.045084E+04 -1.030731E+04 -3.791651E+04
       262   8  1.733076E+05  3.378366E+05  1.115348E+05  5.998153E+04 -3.063223E+04 -3.441782E+04
       262   9  1.333526E+05  1.538453E+05  8.708710E+04  1.225201E+05 -2.687518E+04 -3.084302E+04
       262  10 -3.031939E+05 -1.260540E+06 -3.146049E+05  1.523775E+05 -4.349944E-10  3.522656E-09
       262  11 -1.726385E+05 -1.072938E+06 -2.058192E+05  9.013616E+04 -3.026885E-09 -2.390403E-10
       262  12 -1.267767E+05 -9.117796E+05 -1.482343E+05  1.009117E+05  3.663747E-10 -3.255524E-10
       262  13 -8.352592E+04 -3.791914E+05 -1.000128E+05  1.114429E+05  2.025238E-09 -2.975631E-09
       262  14  3.505409E+02 -3.677833E+05 -4.712835E+04  7.506692E+04 -2.946460E-09  1.215551E-09
       262  15  3.296741E+03 -3.791006E+05 -3.056646E+04  1.117108E+05  1.829977E-09 -3.842583E-10
       262  16  1.360908E+05  5.028699E+05  1.145238E+05  7.045052E+04 -1.514320E-09  6.461666E-09
       262  17  1.733062E+05  3.378351E+05  1.115309E+05  5.998068E+04  2.495490E-09  5.782849E-09
       262  18  1.333516E+05  1.538441E+05  8.708396E+04  1.225194E+05  2.917815E-10 -2.913748E-09
       262  19 -3.031913E+05 -1.260530E+06 -3.145876E+05  1.523783E+05  1.013444E+04  9.524568E+04
       262  20 -1.726368E+05 -1.072935E+06 -2.058129E+05  9.013736E+04  3.059542E+04  4.904088E+04
       262  21 -1.267760E+05 -9.117794E+05 -1.482329E+05  1.009118E+05  2.695408E+04  2.743547E+03
       262  22 -8.352461E+04 -3.791866E+05 -1.000042E+05  1.114435E+05  1.021901E+04  6.660143E+04
       262  23  3.520148E+02 -3.677812E+05 -4.712332E+04  7.506795E+04  3.061366E+04  4.173347E+04
       262  24  3.297594E+03 -3.791001E+05 -3.056457E+04  1.117111E+05  2.691437E+04  1.678733E+04
       262  25  1.360913E+05  5.028715E+05  1.145267E+05  7.045084E+04  1.030731E+04  3.791651E+04
       262  26  1.733076E+05  3.378366E+05  1.115348E+05  5.998153E+04  3.063223E+04  3.441782E+04
       262  27  1.333526E+05  1.538453E+05  8.708710E+04  1.225201E+05  2.687518E+04  3.084302E+04
       263   1 -9.981680E+04 -7.619809E+05 -1.123990E+05  1.151139E+05 -1.900656E+04 -5.032672E+03
       263   2 -5.202567E+04 -5.857659E+05 -6.787061E+04  7.525078E+04 -1.075998E+04  5.916077E+03
       263   3 -1.359460E+04 -4.127581E+05 -3.269873E+04  1.097007E+05 -2.030377E+03  1.686665E+04
       263   4 -5.119934E+03 -3.747252E+05 -2.651216E+04  1.119241E+05 -1.898700E+04 -1.216488E+04
       263   5 -7.924014E+01 -3.731341E+05 -2.089451E+04  7.476900E+04 -1.074024E+04 -1.640901E+03
       263   6 -4.320797E+03 -3.747033E+05 -2.433370E+04  1.119262E+05 -2.010562E+03  8.881917E+03
       263   7  8.956685E+04  1.267079E+04  5.936557E+04  1.087324E+05 -1.896738E+04 -1.930148E+04
       263   8  5.186418E+04 -1.604599E+05  2.607902E+04  7.428708E+04 -1.072051E+04 -9.200439E+03
       263   9  4.952959E+03 -3.366471E+05 -1.596852E+04  1.141518E+05 -1.990805E+03  8.966977E+02
       263  10 -9.981720E+04 -7.619810E+05 -1.123997E+05  1.151138E+05  2.535345E-10  1.972041E-10
       263  11 -5.202581E+04 -5.857660E+05 -6.787090E+04  7.525083E+04 -2.009940E-09 -6.542456E-10
       263  12 -1.359468E+04 -4.127584E+05 -3.269927E+04  1.097008E+05  8.881868E-10 -1.865705E-10
       263  13 -5.120360E+03 -3.747254E+05 -2.651311E+04  1.119239E+05  1.161675E-09 -8.218952E-09
       263  14 -7.936471E+01 -3.731341E+05 -2.089473E+04  7.476899E+04 -3.116536E-09  6.780729E-10
       263  15 -4.320822E+03 -3.747034E+05 -2.433386E+04  1.119262E+05 -3.960750E-10 -1.887028E-09
       263  16  8.956637E+04  1.267030E+04  5.936419E+04  1.087321E+05  8.419763E-10  3.199696E-09
       263  17  5.186403E+04 -1.604600E+05  2.607865E+04  7.428700E+04 -1.941258E-09  8.037156E-09
       263  18  4.952955E+03 -3.366471E+05 -1.596853E+04  1.141518E+05  1.972748E-09 -1.540351E-09
       263  19 -9.981680E+04 -7.619809E+05 -1.123990E+05  1.151139E+05  1.900656E+04  5.032672E+03
       263  20 -5.202567E+04 -5.857659E+05 -6.787061E+04  7.525078E+04  1.075998E+04 -5.916077E+03
       263  21 -1.359460E+04 -4.127581E+05 -3.269873E+04  1.097007E+05  2.030377E+03 -1.686665E+04
       263  22 -5.119934E+03 -3.747252E+05 -2.651216E+04  1.119241E+05  1.898700E+04  1.216488E+04
       263  23 -7.924014E+01 -3.731341E+05 -2.089451E+04  7.476900E+04  1.074024E+04  1.640901E+03
       263  24 -4.320797E+03 -3.747033E+05 -2.433370E+04  1.119262E+05  2.010562E+03 -8.881917E+03
       263  25  8.956685E+04  1.267079E+04  5.936557E+04  1.087324E+05  1.896738E+04  1.930148E+04
       263  26  5.186418E+04 -1.604599E+05  2.607902E+04  7.428708E+04  1.072051E+04  9.200439E+03
       263  27  4.952959E+03 -3.366471E+05 -1.596852E+04  1.141518E+05  1.990805E+03 -8.966977E+02
       264   1  2.893063E+04 -2.710577E+05 -3.434212E+03  1.217897E+05  4.956320E+03  2.469180E+04
       264   2  6.937508E+04 -8.765752E+04  2.287570E+04  6.281791E+04  1.133574E+04  3.444906E+04
       264   3  4.263888E+04  7.825545E+04  2.615653E+04  7.749685E+04  4.392947E+03  4.417263E+04
       264   4  2.740555E+03 -3.783524E+05 -2.735468E+04  1.118361E+05  4.984753E+03  1.308837E+04
       264   5  3.702114E+02 -3.685822E+05 -4.078421E+04  7.490756E+04  1.133619E+04  3.466480E+04
       264   6 -7.125106E+04 -3.783939E+05 -8.546297E+04  1.116372E+05  4.363373E+03  5.620442E+04
       264   7 -2.344985E+04 -4.856358E+05 -5.127531E+04  1.018843E+05  5.013560E+03  1.486919E+03
       264   8 -6.863957E+04 -6.494333E+05 -1.044491E+05  8.699173E+04  1.133664E+04  3.488044E+04
       264   9 -1.851521E+05 -8.348504E+05 -1.970966E+05  1.457525E+05  4.335113E+03  6.822737E+04
       264  10  2.893044E+04 -2.710584E+05 -3.435404E+03  1.217896E+05  1.693680E-09  3.338946E-09
       264  11  6.937462E+04 -8.765883E+04  2.287323E+04  6.281760E+04  1.018342E-09  5.942695E-10
       264  12  4.263834E+04  7.825335E+04  2.615283E+04  7.749670E+04 -1.719896E-10 -3.492319E-09
       264  13  2.740482E+03 -3.783526E+05 -2.735505E+04  1.118361E+05  2.869731E-09 -5.726813E-09
       264  14  3.697507E+02 -3.685835E+05 -4.078671E+04  7.490725E+04 -3.282042E-09  3.394397E-09
       264  15 -7.125193E+04 -3.783973E+05 -8.546894E+04  1.116370E+05  5.001601E-10 -3.794852E-10
       264  16 -2.344988E+04 -4.856358E+05 -5.127537E+04  1.018843E+05  1.656389E-09  5.056803E-09
       264  17 -6.864004E+04 -6.494346E+05 -1.044517E+05  8.699141E+04 -2.261319E-10  9.362235E-09
       264  18 -1.851533E+05 -8.348554E+05 -1.971054E+05  1.457523E+05  8.469271E-10  8.531566E-10
       264  19  2.893063E+04 -2.710577E+05 -3.434212E+03  1.217897E+05 -4.956320E+03 -2.469180E+04
       264  20  6.937508E+04 -8.765752E+04  2.287570E+04  6.281791E+04 -1.133574E+04 -3.444906E+04
       264  21  4.263888E+04  7.825545E+04  2.615653E+04  7.749685E+04 -4.392947E+03 -4.417263E+04
       264  22  2.740555E+03 -3.783524E+05 -2.735468E+04  1.118361E+05 -4.984753E+03 -1.308837E+04
       264  23  3.702114E+02 -3.685822E+05 -4.078421E+04  7.490756E+04 -1.133619E+04 -3.466480E+04
       264  24 -7.125106E+04 -3.783939E+05 -8.546297E+04  1.116372E+05 -4.363373E+03 -5.620442E+04
       264  25 -2.344985E+04 -4.856358E+05 -5.127531E+04  1.018843E+05 -5.013560E+03 -1.486919E+03
       264  26 -6.863957E+04 -6.494333E+05 -1.044491E+05  8.699173E+04 -1.133664E+04 -3.488044E+04
       264  27 -1.851521E+05 -8.348504E+05 -1.970966E+05  1.457525E+05 -4.335113E+03 -6.822737E+04
       265   1  3.241242E+05  1.076831E+05  5.857452E+04  1.285754E+05  3.458807E+04  1.286104E+04
       265   2  3.155502E+05  5.441458E+04  2.618037E+04  1.284603E+05  2.183406E+04  7.632281E+03
       265   3  3.217415E+05  4.421396E+04  1.454714E+04  1.204656E+05  8.844776E+03  3.025020E+03
       265   4  3.175426E+05  8.706478E+04  5.326532E+04  1.082989E+05  3.404266E+04  1.265308E+04
       265   5  3.072912E+05  4.522808E+04  2.302587E+04  1.199540E+05  2.180522E+04  7.621087E+03
       265   6  3.117031E+05  4.635635E+04  1.313809E+04  1.237294E+05  9.332429E+03  3.209933E+03
       265   7  3.109619E+05  6.644869E+04  4.795637E+04  8.802311E+04  3.349725E+04  1.244517E+04
       265   8  2.990324E+05  3.604189E+04  1.987140E+04  1.114479E+05  2.177639E+04  7.609893E+03
       265   9  3.016647E+05  4.849886E+04  1.172904E+04  1.269931E+05  9.820076E+03  3.394856E+03
       265  10  3.241228E+05  1.076826E+05  5.857196E+04  1.285750E+05  1.084745E-09 -3.642821E-10
       265  11  3.155496E+05  5.441439E+04  2.617937E+04  1.284601E+05 -2.136342E-10 -2.468673E-09
       265  12  3.217415E+05  4.421393E+04  1.454698E+04  1.204655E+05 -4.568593E-09 -2.898836E-10
       265  13  3.175413E+05  8.706429E+04  5.326284E+04  1.082985E+05 -9.676420E-10 -7.711812E-09
       265  14  3.072906E+05  4.522789E+04  2.302487E+04  1.199539E+05  5.028068E-10  6.759934E-09
       265  15  3.117030E+05  4.635632E+04  1.313791E+04  1.237293E+05  1.720965E-11 -1.388780E-09
       265  16  3.109607E+05  6.644822E+04  4.795398E+04  8.802277E+04 -4.648279E-09 -4.746731E-09
       265  17  2.990318E+05  3.604170E+04  1.987040E+04  1.114478E+05 -2.137006E-09 -7.471758E-10
       265  18  3.016646E+05  4.849882E+04  1.172884E+04  1.269931E+05  1.424317E-09 -3.767960E-10
       265  19  3.241242E+05  1.076831E+05  5.857452E+04  1.285754E+05 -3.458807E+04 -1.286104E+04
       265  20  3.155502E+05  5.441458E+04  2.618037E+04  1.284603E+05 -2.183406E+04 -7.632281E+03
       265  21  3.217415E+05  4.421396E+04  1.454714E+04  1.204656E+05 -8.844776E+03 -3.025020E+03
       265  22  3.175426E+05  8.706478E+04  5.326532E+04  1.082989E+05 -3.404266E+04 -1.265308E+04
       265  23  3.072912E+05  4.522808E+04  2.302587E+04  1.199540E+05 -2.180522E+04 -7.621087E+03
       265  24  3.117031E+05  4.635635E+04  1.313809E+04  1.237294E+05 -9.332429E+03 -3.209933E+03
       265  25  3.109619E+05  6.644869E+04  4.795637E+04  8.802311E+04 -3.349725E+04 -1.244517E+04
       265  26  2.990324E+05  3.604189E+04  1.987140E+04  1.114479E+05 -2.177639E+04 -7.609893E+03
       265  27  3.016647E+05  4.849886E+04  1.172904E+04  1.269931E+05 -9.820076E+03 -3.394856E+03
       266   1  3.090837E+05  5.099896E+04  1.036394E+04  1.218254E+05  7.228648E+03  2.756109E+03
       266   2  3.028962E+05  4.414193E+04  3.570152E+03  1.188076E+05  4.350184E+03  2.092414E+03
       266   3  2.957335E+05  4.226842E+04 -4.691331E+02  1.178329E+05  1.461084E+03  1.456996E+03
       266   4  3.100278E+05  5.046465E+04  1.043727E+04  1.211779E+05  7.527663E+03  2.869416E+03
       266   5  3.103356E+05  4.670401E+04  5.339486E+03  1.206383E+05  4.672685E+03  2.214631E+03
       266   6  3.096635E+05  4.792220E+04  2.977588E+03  1.221418E+05  1.807046E+03  1.588105E+03
       266   7  3.109719E+05  4.993034E+04  1.051061E+04  1.205304E+05  7.826678E+03  2.982723E+03
       266   8  3.177751E+05  4.926609E+04  7.108811E+03  1.224690E+05  4.995189E+03  2.336849E+03
       266   9  3.235936E+05  5.357598E+04  6.424274E+03  1.264508E+05  2.153015E+03  1.719218E+03
       266  10  3.090836E+05  5.099894E+04  1.036383E+04  1.218254E+05  1.273434E-09 -1.292745E-09
       266  11  3.028962E+05  4.414192E+04  3.570108E+03  1.188075E+05  2.520846E-09 -2.486005E-09
       266  12  2.957335E+05  4.226842E+04 -4.691411E+02  1.178329E+05  2.152066E-09  3.943466E-09
       266  13  3.100277E+05  5.046463E+04  1.043715E+04  1.211779E+05  1.445530E-10 -8.100667E-11
       266  14  3.103356E+05  4.670400E+04  5.339436E+03  1.206383E+05 -1.645340E-09  1.442425E-08
       266  15  3.096635E+05  4.792220E+04  2.977577E+03  1.221418E+05  2.302511E-09  1.802427E-09
       266  16  3.109718E+05  4.993032E+04  1.051048E+04  1.205304E+05 -2.892853E-09  3.539213E-09
       266  17  3.177750E+05  4.926608E+04  7.108754E+03  1.224690E+05 -4.465699E-10  2.069311E-09
       266  18  3.235936E+05  5.357598E+04  6.424260E+03  1.264508E+05 -1.313161E-09  7.734326E-09
       266  19  3.090837E+05  5.099896E+04  1.036394E+04  1.218254E+05 -7.228648E+03 -2.756109E+03
       266  20  3.028962E+05  4.414193E+04  3.570152E+03  1.188076E+05 -4.350184E+03 -2.092414E+03
       266  21  2.957335E+05  4.226842E+04 -4.691331E+02  1.178329E+05 -1.461084E+03 -1.456996E+03
       266  22  3.100278E+05  5.046465E+04  1.043727E+04  1.211779E+05 -7.527663E+03 -2.869416E+03
       266  23  3.103356E+05  4.670401E+04  5.339486E+03  1.206383E+05 -4.672685E+03 -2.214631E+03
       266  24  3.096635E+05  4.792220E+04  2.977588E+03  1.221418E+05 -1.807046E+03 -1.588105E+03
       266  25  3.109719E+05  4.993034E+04  1.051061E+04  1.205304E+05 -7.826678E+03 -2.982723E+03
       266  26  3.177751E+05  4.926609E+04  7.108811E+03  1.224690E+05 -4.995189E+03 -2.336849E+03
       266  27  3.235936E+05  5.357598E+04  6.424274E+03  1.264508E+05 -2.153015E+03 -1.719218E+03
       267   1  2.892267E+05  4.056424E+04 -2.692484E+03  1.163492E+05  9.583245E+02  1.541215E+03
       267   2  2.833327E+05  3.661170E+04 -5.401681E+03  1.131198E+05  1.822154E+02  1.712138E+03
       267   3  2.752570E+05  3.516650E+04 -7.601897E+03  1.125044E+05 -5.944866E+02  1.884672E+03
       267   4  3.095106E+05  4.816927E+04  2.272181E+03  1.219668E+05  1.295945E+03  1.669158E+03
       267   5  3.105910E+05  4.684230E+04  1.241065E+03  1.206876E+05  5.211563E+02  1.840575E+03
       267   6  3.094896E+05  4.802247E+04  7.179189E+02  1.220224E+05 -2.542306E+02  2.013601E+03
       267   7  3.297950E+05  5.577436E+04  7.236844E+03  1.275846E+05  1.633578E+03  1.797107E+03
       267   8  3.378501E+05  5.707298E+04  7.883774E+03  1.282558E+05  8.601143E+02  1.969018E+03
       267   9  3.437233E+05  6.087852E+04  9.037650E+03  1.315410E+05  8.604588E+01  2.142537E+03
       267  10  2.892267E+05  4.056423E+04 -2.692490E+03  1.163492E+05  8.990867E-09  6.101377E-09
       267  11  2.833327E+05  3.661170E+04 -5.401686E+03  1.131198E+05  3.090239E-09  1.174893E-08
       267  12  2.752570E+05  3.516650E+04 -7.601905E+03  1.125044E+05 -6.982789E-10 -4.734398E-09
       267  13  3.095106E+05  4.816926E+04  2.272173E+03  1.219668E+05  3.022713E-09 -9.455560E-10
       267  14  3.105910E+05  4.684230E+04  1.241058E+03  1.206876E+05  4.557866E-09  1.782186E-10
       267  15  3.094896E+05  4.802246E+04  7.179111E+02  1.220225E+05 -1.225227E-09 -7.128026E-09
       267  16  3.297950E+05  5.577436E+04  7.236833E+03  1.275846E+05 -6.967775E-09 -1.099535E-08
       267  17  3.378501E+05  5.707298E+04  7.883765E+03  1.282558E+05  4.622767E-10 -1.084475E-08
       267  18  3.437233E+05  6.087852E+04  9.037641E+03  1.315410E+05  6.586856E-09  5.529746E-09
       267  19  2.892267E+05  4.056424E+04 -2.692484E+03  1.163492E+05 -9.583245E+02 -1.541215E+03
       267  20  2.833327E+05  3.661170E+04 -5.401681E+03  1.131198E+05 -1.822154E+02 -1.712138E+03
       267  21  2.752570E+05  3.516650E+04 -7.601897E+03  1.125044E+05  5.944866E+02 -1.884672E+03
       267  22  3.095106E+05  4.816927E+04  2.272181E+03  1.219668E+05 -1.295945E+03 -1.669158E+03
       267  23  3.105910E+05  4.684230E+04  1.241065E+03  1.206876E+05 -5.211563E+02 -1.840575E+03
       267  24  3.094896E+05  4.802247E+04  7.179189E+02  1.220224E+05  2.542306E+02 -2.013601E+03
       267  25  3.297950E+05  5.577436E+04  7.236844E+03  1.275846E+05 -1.633578E+03 -1.797107E+03
       267  26  3.378501E+05  5.707298E+04  7.883774E+03  1.282558E+05 -8.601143E+02 -1.969018E+03
       267  27  3.437233E+05  6.087852E+04  9.037650E+03  1.315410E+05 -8.604588E+01 -2.142537E+03
       268   1  2.691672E+05  3.292757E+04 -9.275692E+03  1.108458E+05 -7.907258E+02  2.082614E+03
       268   2  2.633002E+05  2.913178E+04 -1.113754E+04  1.075878E+05 -1.139744E+03  2.418576E+03
       268   3  2.551294E+05  2.768801E+04 -1.285138E+04  1.069761E+05 -1.488975E+03  2.755216E+03
       268   4  3.094694E+05  4.803652E+04  5.668584E+02  1.220112E+05 -4.504345E+02  2.211549E+03
       268   5  3.106207E+05  4.685701E+04  3.883919E+02  1.206894E+05 -7.989089E+02  2.547703E+03
       268   6  3.094681E+05  4.802937E+04  3.575054E+02  1.220137E+05 -1.147601E+03  2.884536E+03
       268   7  3.497730E+05  6.314552E+04  1.040923E+04  1.331772E+05 -1.101207E+02  2.340492E+03
       268   8  3.579434E+05  6.458241E+04  1.191416E+04  1.337918E+05 -4.580458E+02  2.676841E+03
       268   9  3.638099E+05  6.837104E+04  1.356624E+04  1.370527E+05 -8.061923E+02  3.013868E+03
       268  10  2.691672E+05  3.292757E+04 -9.275701E+03  1.108458E+05 -1.215711E-09 -1.122583E-08
       268  11  2.633002E+05  2.913177E+04 -1.113756E+04  1.075878E+05  2.060037E-09  3.078387E-09
       268  12  2.551294E+05  2.768800E+04 -1.285140E+04  1.069761E+05  3.123571E-09  2.917635E-09
       268  13  3.094694E+05  4.803652E+04  5.668488E+02  1.220112E+05  1.815090E-09 -3.422299E-09
       268  14  3.106207E+05  4.685700E+04  3.883785E+02  1.206894E+05 -1.970642E-09 -1.125751E-09
       268  15  3.094681E+05  4.802936E+04  3.574873E+02  1.220137E+05 -2.471101E-09 -9.648083E-09
       268  16  3.497730E+05  6.314551E+04  1.040922E+04  1.331772E+05  6.819031E-09  4.352347E-09
       268  17  3.579433E+05  6.458240E+04  1.191414E+04  1.337918E+05  2.946932E-09 -1.388515E-08
       268  18  3.638099E+05  6.837103E+04  1.356623E+04  1.370527E+05 -1.104954E-08 -1.150623E-08
       268  19  2.691672E+05  3.292757E+04 -9.275692E+03  1.108458E+05  7.907258E+02 -2.082614E+03
       268  20  2.633002E+05  2.913178E+04 -1.113754E+04  1.075878E+05  1.139744E+03 -2.418576E+03
       268  21  2.551294E+05  2.768801E+04 -1.285138E+04  1.069761E+05  1.488975E+03 -2.755216E+03
       268  22  3.094694E+05  4.803652E+04  5.668584E+02  1.220112E+05  4.504345E+02 -2.211549E+03
       268  23  3.106207E+05  4.685701E+04  3.883919E+02  1.206894E+05  7.989089E+02 -2.547703E+03
       268  24  3.094681E+05  4.802937E+04  3.575054E+02  1.220137E+05  1.147601E+03 -2.884536E+03
       268  25  3.497730E+05  6.314552E+04  1.040923E+04  1.331772E+05  1.101207E+02 -2.340492E+03
       268  26  3.579434E+05  6.458241E+04  1.191416E+04  1.337918E+05  4.580458E+02 -2.676841E+03
       268  27  3.638099E+05  6.837104E+04  1.356624E+04  1.370527E+05  8.061923E+02 -3.013868E+03
       269   1  2.490498E+05  2.541123E+04 -1.435015E+04  1.053070E+05 -1.642211E+03  2.970574E+03
       269   2  2.431430E+05  2.160091E+04 -1.587099E+04  1.020302E+05 -2.077303E+03  3.276287E+03
       269   3  2.349362E+05  2.016523E+04 -1.717761E+04  1.014165E+05 -2.512555E+03  3.582588E+03
       269   4  3.094685E+05  4.803237E+04  3.883645E+02  1.220182E+05 -1.300191E+03  3.100129E+03
       269   5  3.106191E+05  4.684963E+04  5.598289E+02  1.206849E+05 -1.734838E+03  3.405991E+03
       269   6  3.094696E+05  4.804143E+04  9.451476E+02  1.220147E+05 -2.169648E+03  3.712441E+03
       269   7  3.698907E+05  7.065376E+04  1.512660E+04  1.387309E+05 -9.581339E+02  3.229697E+03
       269   8  3.780995E+05  7.209860E+04  1.699026E+04  1.393414E+05 -1.392333E+03  3.535711E+03
       269   9  3.840080E+05  7.591788E+04  1.906739E+04  1.426150E+05 -1.826698E+03  3.842309E+03
       269  10  2.490498E+05  2.541122E+04 -1.435017E+04  1.053070E+05 -6.162148E-09 -9.998822E-10
       269  11  2.431430E+05  2.160089E+04 -1.587102E+04  1.020302E+05 -1.200269E-09 -3.710152E-09
       269  12  2.349362E+05  2.016521E+04 -1.717764E+04  1.014165E+05  5.524119E-09 -3.837848E-09
       269  13  3.094685E+05  4.803236E+04  3.883433E+02  1.220182E+05 -4.087055E-09 -4.849312E-09
       269  14  3.106191E+05  4.684961E+04  5.598014E+02  1.206849E+05 -1.431311E-09  3.532344E-09
       269  15  3.094696E+05  4.804141E+04  9.451128E+02  1.220147E+05  5.199615E-09  6.336917E-09
       269  16  3.698907E+05  7.065375E+04  1.512658E+04  1.387309E+05 -1.715195E-09 -9.769768E-09
       269  17  3.780995E+05  7.209859E+04  1.699023E+04  1.393414E+05  2.590167E-09 -1.003143E-08
       269  18  3.840080E+05  7.591786E+04  1.906735E+04  1.426150E+05  1.413698E-09 -1.980964E-08
       269  19  2.490498E+05  2.541123E+04 -1.435015E+04  1.053070E+05  1.642211E+03 -2.970574E+03
       269  20  2.431430E+05  2.160091E+04 -1.587099E+04  1.020302E+05  2.077303E+03 -3.276287E+03
       269  21  2.349362E+05  2.016523E+04 -1.717761E+04  1.014165E+05  2.512555E+03 -3.582588E+03
       269  22  3.094685E+05  4.803237E+04  3.883645E+02  1.220182E+05  1.300191E+03 -3.100129E+03
       269  23  3.106191E+05  4.684963E+04  5.598289E+02  1.206849E+05  1.734838E+03 -3.405991E+03
       269  24  3.094696E+05  4.804143E+04  9.451476E+02  1.220147E+05  2.169648E+03 -3.712441E+03
       269  25  3.698907E+05  7.065376E+04  1.512660E+04  1.387309E+05  9.581339E+02 -3.229697E+03
       269  26  3.780995E+05  7.209860E+04  1.699026E+04  1.393414E+05  1.392333E+03 -3.535711E+03
       269  27  3.840080E+05  7.591788E+04  1.906739E+04  1.426150E+05  1.826698E+03 -3.842309E+03
       270   1  2.288138E+05  1.788618E+04 -1.842457E+04  9.979877E+04 -2.787126E+03  3.754621E+03
       270   2  2.228039E+05  1.399622E+04 -1.916035E+04  9.643545E+04 -4.041959E+03  3.751412E+03
       270   3  2.146930E+05  1.279381E+04 -1.899490E+04  9.571679E+04 -5.294231E+03  3.741587E+03
       270   4  3.095011E+05  4.802359E+04  1.237548E+03  1.220436E+05 -2.441054E+03  3.885659E+03
       270   5  3.105695E+05  4.681025E+04  2.207314E+03  1.206715E+05 -3.701547E+03  3.880282E+03
       270   6  3.095381E+05  4.828562E+04  4.082742E+03  1.219441E+05 -4.959492E+03  3.868286E+03
       270   7  3.901952E+05  7.816161E+04  2.089929E+04  1.442911E+05 -2.094931E+03  4.016716E+03
       270   8  3.983429E+05  7.962492E+04  2.357447E+04  1.449107E+05 -3.361083E+03  4.009172E+03
       270   9  4.043921E+05  8.377807E+04  2.715972E+04  1.481750E+05 -4.624697E+03  3.995006E+03
       270  10  2.288138E+05  1.788616E+04 -1.842462E+04  9.979878E+04 -8.716567E-09 -4.189948E-09
       270  11  2.228038E+05  1.399620E+04 -1.916041E+04  9.643546E+04  3.649075E-09  4.101482E-09
       270  12  2.146930E+05  1.279379E+04 -1.899498E+04  9.571681E+04  1.677266E-08  7.322722E-09
       270  13  3.095011E+05  4.802357E+04  1.237509E+03  1.220436E+05  2.289773E-09 -4.634333E-09
       270  14  3.105695E+05  4.681023E+04  2.207260E+03  1.206715E+05 -2.490554E-10 -3.829912E-10
       270  15  3.095381E+05  4.828560E+04  4.082668E+03  1.219441E+05  2.917283E-09  7.512078E-09
       270  16  3.901952E+05  7.816159E+04  2.089926E+04  1.442911E+05  1.185423E-08 -6.543612E-09
       270  17  3.983429E+05  7.962489E+04  2.357441E+04  1.449107E+05 -1.144408E-09  6.305580E-09
       270  18  4.043921E+05  8.377805E+04  2.715965E+04  1.481750E+05 -1.519493E-08 -8.336246E-09
       270  19  2.288138E+05  1.788618E+04 -1.842457E+04  9.979877E+04  2.787126E+03 -3.754621E+03
       270  20  2.228039E+05  1.399622E+04 -1.916035E+04  9.643545E+04  4.041959E+03 -3.751412E+03
       270  21  2.146930E+05  1.279381E+04 -1.899490E+04  9.571679E+04  5.294231E+03 -3.741587E+03
       270  22  3.095011E+05  4.802359E+04  1.237548E+03  1.220436E+05  2.441054E+03 -3.885659E+03
       270  23  3.105695E+05  4.681025E+04  2.207314E+03  1.206715E+05  3.701547E+03 -3.880282E+03
       270  24  3.095381E+05  4.828562E+04  4.082742E+03  1.219441E+05  4.959492E+03 -3.868286E+03
       270  25  3.901952E+05  7.816161E+04  2.089929E+04  1.442911E+05  2.094931E+03 -4.016716E+03
       270  26  3.983429E+05  7.962492E+04  2.357447E+04  1.449107E+05  3.361083E+03 -4.009172E+03
       270  27  4.043921E+05  8.377807E+04  2.715972E+04  1.481750E+05  4.624697E+03 -3.995006E+03
       271   1  2.082231E+05  1.061154E+04 -1.925917E+04  9.498460E+04 -6.201556E+03  3.695395E+03
       271   2  2.022395E+05  5.769909E+03 -1.673176E+04  9.033028E+04 -1.109672E+04  2.278363E+03
       271   3  1.962772E+05  8.076386E+03 -9.380377E+03  8.732209E+04 -1.592723E+04  6.908611E+02
       271   4  3.098095E+05  4.784539E+04  5.360435E+03  1.222664E+05 -5.813509E+03  3.842269E+03
       271   5  3.101127E+05  4.655112E+04  9.627799E+03  1.205745E+05 -1.085131E+04  2.371184E+03
       271   6  3.104649E+05  5.243250E+04  1.883156E+04  1.205286E+05 -1.582454E+04  7.295931E+02
       271   7  4.114056E+05  8.507969E+04  2.997914E+04  1.495520E+05 -5.425395E+03  3.989168E+03
       271   8  4.179973E+05  8.733322E+04  3.598648E+04  1.508235E+05 -1.060585E+04  2.464023E+03
       271   9  4.246660E+05  9.679003E+04  4.704264E+04  1.537409E+05 -1.572183E+04  7.683339E+02
       271  10  2.082231E+05  1.061151E+04 -1.925927E+04  9.498462E+04 -7.518472E-09 -4.689861E-09
       271  11  2.022394E+05  5.769871E+03 -1.673200E+04  9.033030E+04 -4.970198E-09  4.261249E-09
       271  12  1.962769E+05  8.076317E+03 -9.380854E+03  8.732210E+04  2.038625E-09 -5.007511E-09
       271  13  3.098095E+05  4.784537E+04  5.360343E+03  1.222664E+05  4.214186E-10 -6.699149E-09
       271  14  3.101125E+05  4.655108E+04  9.627567E+03  1.205745E+05  1.375167E-09  1.655945E-08
       271  15  3.104646E+05  5.243243E+04  1.883109E+04  1.205286E+05  1.286149E-09  3.860337E-09
       271  16  4.114056E+05  8.507967E+04  2.997906E+04  1.495520E+05  1.168610E-08  6.083925E-09
       271  17  4.179971E+05  8.733318E+04  3.598626E+04  1.508235E+05  6.469202E-09  5.944891E-10
       271  18  4.246658E+05  9.678996E+04  4.704218E+04  1.537409E+05 -1.874998E-09 -5.120806E-09
       271  19  2.082231E+05  1.061154E+04 -1.925917E+04  9.498460E+04  6.201556E+03 -3.695395E+03
       271  20  2.022395E+05  5.769909E+03 -1.673176E+04  9.033028E+04  1.109672E+04 -2.278363E+03
       271  21  1.962772E+05  8.076386E+03 -9.380377E+03  8.732209E+04  1.592723E+04 -6.908611E+02
       271  22  3.098095E+05  4.784539E+04  5.360435E+03  1.222664E+05  5.813509E+03 -3.842269E+03
       271  23  3.101127E+05  4.655112E+04  9.627799E+03  1.205745E+05  1.085131E+04 -2.371184E+03
       271  24  3.104649E+05  5.243250E+04  1.883156E+04  1.205286E+05  1.582454E+04 -7.295931E+02
       271  25  4.114056E+05  8.507969E+04  2.997914E+04  1.495520E+05  5.425395E+03 -3.989168E+03
       271  26  4.179973E+05  8.733322E+04  3.598648E+04  1.508235E+05  1.060585E+04 -2.464023E+03
       271  27  4.246660E+05  9.679003E+04  4.704264E+04  1.537409E+05  1.572183E+04 -7.683339E+02
       272   1  1.841095E+05  7.230605E+03 -5.854123E+03  1.002357E+05 -2.037570E+04 -2.707846E+02
       272   2  1.839070E+05 -1.229052E+04  9.818602E+03  7.478679E+04 -3.938491E+04 -7.903548E+03
       272   3  2.114083E+05  4.326314E+04  5.971627E+04  3.303183E+04 -5.695508E+04 -1.933789E+04
       272   4  3.135047E+05  4.500305E+04  2.370700E+04  1.251155E+05 -1.911554E+04  2.065228E+02
       272   5  3.045999E+05  4.390168E+04  4.155175E+04  1.193584E+05 -4.129172E+04 -8.626195E+03
       272   6  3.240190E+05  1.184913E+05  9.612691E+04  9.729774E+04 -6.202868E+04 -2.126160E+04
       272   7  4.429169E+05  8.277544E+04  5.326720E+04  1.499994E+05 -1.785508E+04  6.838862E+02
       272   8  4.253067E+05  1.000970E+05  7.328345E+04  1.639383E+05 -4.319892E+04 -9.349073E+03
       272   9  4.366427E+05  1.937296E+05  1.325360E+05  1.615757E+05 -6.710319E+04 -2.318631E+04
       272  10  1.841090E+05  7.230493E+03 -5.854903E+03  1.002357E+05 -4.767759E-09  5.460436E-09
       272  11  1.839053E+05 -1.229100E+04  9.815571E+03  7.478653E+04 -2.416856E-09  2.080266E-09
       272  12  2.114047E+05  4.326187E+04  5.970948E+04  3.303095E+04  1.987958E-09  4.463487E-09
       272  13  3.135043E+05  4.500295E+04  2.370632E+04  1.251155E+05  8.899910E-10 -3.158944E-09
       272  14  3.045981E+05  4.390115E+04  4.154841E+04  1.193581E+05 -4.175304E-09 -1.733499E-08
       272  15  3.240147E+05  1.184898E+05  9.611883E+04  9.729668E+04 -2.765693E-10  3.672609E-09
       272  16  4.429166E+05  8.277536E+04  5.326660E+04  1.499994E+05  3.123033E-09  7.405194E-09
       272  17  4.253046E+05  1.000964E+05  7.327978E+04  1.639380E+05 -1.347263E-09  7.046864E-09
       272  18  4.366377E+05  1.937278E+05  1.325265E+05  1.615744E+05 -3.929721E-09  2.819669E-09
       272  19  1.841095E+05  7.230605E+03 -5.854123E+03  1.002357E+05  2.037570E+04  2.707846E+02
       272  20  1.839070E+05 -1.229052E+04  9.818602E+03  7.478679E+04  3.938491E+04  7.903548E+03
       272  21  2.114083E+05  4.326314E+04  5.971627E+04  3.303183E+04  5.695508E+04  1.933789E+04
       272  22  3.135047E+05  4.500305E+04  2.370700E+04  1.251155E+05  1.911554E+04 -2.065228E+02
       272  23  3.045999E+05  4.390168E+04  4.155175E+04  1.193584E+05  4.129172E+04  8.626195E+03
       272  24  3.240190E+05  1.184913E+05  9.612691E+04  9.729774E+04  6.202868E+04  2.126160E+04
       272  25  4.429169E+05  8.277544E+04  5.326720E+04  1.499994E+05  1.785508E+04 -6.838862E+02
       272  26  4.253067E+05  1.000970E+05  7.328345E+04  1.639383E+05  4.319892E+04  9.349073E+03
       272  27  4.366427E+05  1.937296E+05  1.325360E+05  1.615757E+05  6.710319E+04  2.318631E+04
       273   1 -6.294809E+04 -4.657532E+05 -6.841612E+04  2.623038E+04 -1.550706E+03 -2.854247E+04
       273   2 -2.753097E+04 -4.442849E+05 -4.306684E+04  1.343845E+04 -4.977593E+03 -1.616505E+04
       273   3 -2.225142E+04 -4.319072E+05 -3.330961E+04  7.645394E+03 -4.925658E+03 -3.776166E+03
       273   4 -3.036548E+04 -3.351743E+05 -3.668160E+04  1.167535E+04 -1.564238E+03 -2.399438E+04
       273   5  2.870131E+02 -3.308945E+05 -1.760518E+04  8.224860E+03 -4.981915E+03 -1.470284E+04
       273   6  1.340642E+03 -3.351680E+05 -1.197494E+04  1.177364E+04 -4.920681E+03 -5.400283E+03
       273   7  2.216670E+03 -2.045793E+05 -4.948137E+03 -2.882728E+03 -1.577982E+03 -1.944533E+04
       273   8  2.810421E+04 -2.174920E+05  7.855676E+03  3.010312E+03 -4.986260E+03 -1.324036E+04
       273   9  2.493215E+04 -2.384199E+05  9.359182E+03  1.590255E+04 -4.915725E+03 -7.024651E+03
       273  10 -6.294832E+04 -4.657541E+05 -6.841765E+04  2.623034E+04  1.104092E-09 -1.711083E-09
       273  11 -2.753106E+04 -4.442852E+05 -4.306737E+04  1.343839E+04  3.004283E-09 -2.152814E-09
       273  12 -2.225145E+04 -4.319072E+05 -3.330969E+04  7.645379E+03  2.910046E-09 -4.648905E-09
       273  13 -3.036564E+04 -3.351749E+05 -3.668269E+04  1.167532E+04  3.279523E-09 -2.419064E-09
       273  14  2.869284E+02 -3.308947E+05 -1.760564E+04  8.224801E+03  1.342068E-09  1.077206E-10
       273  15  1.340608E+03 -3.351680E+05 -1.197504E+04  1.177362E+04  9.847545E-10 -4.068828E-09
       273  16  2.216566E+03 -2.045797E+05 -4.948853E+03 -2.882753E+03  8.266357E-10 -9.502278E-09
       273  17  2.810414E+04 -2.174922E+05  7.855300E+03  3.010259E+03  6.132925E-09  4.547656E-09
       273  18  2.493211E+04 -2.384200E+05  9.359044E+03  1.590252E+04 -3.507275E-11  1.122688E-09
       273  19 -6.294809E+04 -4.657532E+05 -6.841612E+04  2.623038E+04  1.550706E+03  2.854247E+04
       273  20 -2.753097E+04 -4.442849E+05 -4.306684E+04  1.343845E+04  4.977593E+03  1.616505E+04
       273  21 -2.225142E+04 -4.319072E+05 -3.330961E+04  7.645394E+03  4.925658E+03  3.776166E+03
       273  22 -3.036548E+04 -3.351743E+05 -3.668160E+04  1.167535E+04  1.564238E+03  2.399438E+04
       273  23  2.870131E+02 -3.308945E+05 -1.760518E+04  8.224860E+03  4.981915E+03  1.470284E+04
       273  24  1.340642E+03 -3.351680E+05 -1.197494E+04  1.177364E+04  4.920681E+03  5.400283E+03
       273  25  2.216670E+03 -2.045793E+05 -4.948137E+03 -2.882728E+03  1.577982E+03  1.944533E+04
       273  26  2.810421E+04 -2.174920E+05  7.855676E+03  3.010312E+03  4.986260E+03  1.324036E+04
       273  27  2.493215E+04 -2.384199E+05  9.359182E+03  1.590255E+04  4.915725E+03  7.024651E+03
       274   1 -2.184777E+04 -4.161655E+05 -2.905845E+04  1.301408E+04 -4.057013E+03 -2.946208E+03
       274   2 -1.591110E+04 -3.983714E+05 -2.401569E+04  8.290872E+03 -3.317570E+03  1.980212E+03
       274   3 -1.408799E+04 -3.821909E+05 -2.319731E+04  1.079274E+04 -2.429522E+03  6.907134E+03
       274   4 -1.664545E+03 -3.336211E+05 -1.076241E+04  1.179698E+04 -4.055140E+03 -3.550096E+03
       274   5  9.947997E+01 -3.328255E+05 -9.536838E+03  8.183603E+03 -3.315331E+03  1.244912E+03
       274   6 -2.226954E+03 -3.336207E+05 -1.244403E+04  1.179529E+04 -2.426910E+03  6.040291E+03
       274   7  1.851822E+04 -2.510704E+05  7.533208E+03  1.057971E+04 -4.053265E+03 -4.154064E+03
       274   8  1.610977E+04 -2.672755E+05  4.941749E+03  8.076325E+03 -3.313093E+03  5.095344E+02
       274   9  9.633928E+03 -2.850482E+05 -1.690891E+03  1.279792E+04 -2.424301E+03  5.173380E+03
       274  10 -2.184779E+04 -4.161655E+05 -2.905850E+04  1.301407E+04  1.062694E-09  9.510078E-09
       274  11 -1.591112E+04 -3.983714E+05 -2.401572E+04  8.290877E+03  9.145925E-10  7.584014E-10
       274  12 -1.408801E+04 -3.821910E+05 -2.319741E+04  1.079275E+04 -1.729982E-09 -9.143981E-09
       274  13 -1.664566E+03 -3.336211E+05 -1.076247E+04  1.179697E+04 -2.585121E-09 -8.698361E-09
       274  14  9.946775E+01 -3.328255E+05 -9.536861E+03  8.183606E+03 -9.136819E-10 -3.168685E-09
       274  15 -2.226971E+03 -3.336207E+05 -1.244411E+04  1.179530E+04 -2.594211E-09 -4.847997E-09
       274  16  1.851820E+04 -2.510704E+05  7.533144E+03  1.057970E+04 -2.450479E-09 -1.932771E-08
       274  17  1.610976E+04 -2.672755E+05  4.941728E+03  8.076326E+03 -5.718086E-09  9.165686E-10
       274  18  9.633915E+03 -2.850483E+05 -1.690953E+03  1.279793E+04 -1.036546E-09  9.789846E-09
       274  19 -2.184777E+04 -4.161655E+05 -2.905845E+04  1.301408E+04  4.057013E+03  2.946208E+03
       274  20 -1.591110E+04 -3.983714E+05 -2.401569E+04  8.290872E+03  3.317570E+03 -1.980212E+03
       274  21 -1.408799E+04 -3.821909E+05 -2.319731E+04  1.079274E+04  2.429522E+03 -6.907134E+03
       274  22 -1.664545E+03 -3.336211E+05 -1.076241E+04  1.179698E+04  4.055140E+03  3.550096E+03
       274  23  9.947997E+01 -3.328255E+05 -9.536838E+03  8.183603E+03  3.315331E+03 -1.244912E+03
       274  24 -2.226954E+03 -3.336207E+05 -1.244403E+04  1.179529E+04  2.426910E+03 -6.040291E+03
       274  25  1.851822E+04 -2.510704E+05  7.533208E+03  1.057971E+04  4.053265E+03  4.154064E+03
       274  26  1.610977E+04 -2.672755E+05  4.941749E+03  8.076325E+03  3.313093E+03 -5.095344E+02
       274  27  9.633928E+03 -2.850482E+05 -1.690891E+03  1.279792E+04  2.424301E+03 -5.173380E+03
       275   1 -6.596308E+03 -3.701558E+05 -2.202130E+04  1.761417E+04 -1.852818E+03  9.080553E+03
       275   2 -3.828021E+03 -3.476427E+05 -2.631985E+04  1.760408E+03 -9.870158E+02  2.084333E+04
       275   3 -3.971821E+04 -3.362731E+05 -4.793125E+04 -6.933815E+03 -2.826060E+02  3.260575E+04
       275   4  1.840877E+03 -3.357476E+05 -1.446276E+04  1.181582E+04 -1.850303E+03  8.209487E+03
       275   5  3.878394E+02 -3.301665E+05 -2.249341E+04  8.174133E+03 -9.846334E+02  2.011537E+04
       275   6 -3.974857E+04 -3.357543E+05 -4.793628E+04  1.169198E+04 -2.798932E+02  3.202060E+04
       275   7  1.027811E+04 -3.013382E+05 -6.904269E+03  6.017145E+03 -1.847771E+03  7.338374E+03
       275   8  4.603835E+03 -3.126899E+05 -1.866697E+04  1.458804E+04 -9.822661E+02  1.938739E+04
       275   9 -3.977762E+04 -3.352347E+05 -4.794111E+04  3.031778E+04 -2.772154E+02  3.143544E+04
       275  10 -6.596334E+03 -3.701559E+05 -2.202147E+04  1.761418E+04 -9.259195E-10 -2.176075E-09
       275  11 -3.828139E+03 -3.476432E+05 -2.632066E+04  1.760425E+03  2.788555E-09 -1.017124E-09
       275  12 -3.971850E+04 -3.362743E+05 -4.793325E+04 -6.933808E+03  6.177034E-10 -2.857681E-09
       275  13  1.840855E+03 -3.357477E+05 -1.446289E+04  1.181583E+04 -1.631886E-09 -4.269340E-09
       275  14  3.877297E+02 -3.301670E+05 -2.249417E+04  8.174149E+03 -3.820666E-10  7.524414E-09
       275  15 -3.974884E+04 -3.357554E+05 -4.793820E+04  1.169198E+04  1.467208E-09 -4.004590E-09
       275  16  1.027809E+04 -3.013383E+05 -6.904376E+03  6.017156E+03 -2.838898E-09 -4.331561E-09
       275  17  4.603733E+03 -3.126904E+05 -1.866768E+04  1.458806E+04 -8.119301E-10  5.368199E-09
       275  18 -3.977789E+04 -3.352358E+05 -4.794297E+04  3.031779E+04 -1.802231E-09 -1.313535E-09
       275  19 -6.596308E+03 -3.701558E+05 -2.202130E+04  1.761417E+04  1.852818E+03 -9.080553E+03
       275  20 -3.828021E+03 -3.476427E+05 -2.631985E+04  1.760408E+03  9.870158E+02 -2.084333E+04
       275  21 -3.971821E+04 -3.362731E+05 -4.793125E+04 -6.933815E+03  2.826060E+02 -3.260575E+04
       275  22  1.840877E+03 -3.357476E+05 -1.446276E+04  1.181582E+04  1.850303E+03 -8.209487E+03
       275  23  3.878394E+02 -3.301665E+05 -2.249341E+04  8.174133E+03  9.846334E+02 -2.011537E+04
       275  24 -3.974857E+04 -3.357543E+05 -4.793628E+04  1.169198E+04  2.798932E+02 -3.202060E+04
       275  25  1.027811E+04 -3.013382E+05 -6.904269E+03  6.017145E+03  1.847771E+03 -7.338374E+03
       275  26  4.603835E+03 -3.126899E+05 -1.866697E+04  1.458804E+04  9.822661E+02 -1.938739E+04
       275  27 -3.977762E+04 -3.352347E+05 -4.794111E+04  3.031778E+04  2.772154E+02 -3.143544E+04
       276   1 -2.470574E+05 -1.307490E+05 -1.172722E+05 -1.759797E+04  1.150187E+04  9.193355E+03
       276   2 -1.910793E+05 -1.583066E+05 -1.198357E+05 -1.865399E+04  1.486192E+04  2.882393E+04
       276   3 -1.251257E+05 -1.450656E+05 -1.143544E+05 -4.481521E+04  1.824222E+04  2.998904E+04
       276   4  4.595851E+05  4.477699E+04  5.405270E+04 -3.807777E+04  3.715019E+04  9.218948E+03
       276   5  4.531985E+05 -6.020666E+02  2.455389E+04 -2.550557E+04  2.410815E+04  2.882928E+04
       276   6  4.596178E+05 -2.359292E+03  1.447748E+04 -3.803604E+04  1.108616E+04  2.998290E+04
       276   7  1.166686E+06  2.202683E+05  2.253443E+05 -5.858106E+04  6.282759E+04  9.242836E+03
       276   8  1.097863E+06  1.570744E+05  1.689175E+05 -3.236440E+04  3.336388E+04  2.883443E+04
       276   9  1.044681E+06  1.403243E+05  1.432886E+05 -3.125044E+04  3.923435E+03  2.997659E+04
       276  10 -2.470576E+05 -1.307491E+05 -1.172726E+05 -1.759806E+04  6.389441E-11  1.821338E-10
       276  11 -1.910798E+05 -1.583075E+05 -1.198376E+05 -1.865434E+04 -3.476016E-10  2.674921E-10
       276  12 -1.251263E+05 -1.450667E+05 -1.143567E+05 -4.481565E+04 -1.405165E-11  2.056823E-11
       276  13  4.595836E+05  4.477653E+04  5.404995E+04 -3.807805E+04  8.513840E-10  1.232415E-10
       276  14  4.531977E+05 -6.031152E+02  2.455123E+04 -2.550613E+04  1.713959E-10  2.388040E-10
       276  15  4.596174E+05 -2.360290E+03  1.447556E+04 -3.803630E+04  3.560847E-10 -3.380945E-11
       276  16  1.166682E+06  2.202671E+05  2.253368E+05 -5.858153E+04  2.815973E-10  1.050178E-10
       276  17  1.097862E+06  1.570732E+05  1.689139E+05 -3.236517E+04 -1.690028E-10  2.172436E-10
       276  18  1.044681E+06  1.403233E+05  1.432869E+05 -3.125053E+04 -7.521042E-11 -7.997170E-11
       276  19 -2.470574E+05 -1.307490E+05 -1.172722E+05 -1.759797E+04 -1.150187E+04 -9.193355E+03
       276  20 -1.910793E+05 -1.583066E+05 -1.198357E+05 -1.865399E+04 -1.486192E+04 -2.882393E+04
       276  21 -1.251257E+05 -1.450656E+05 -1.143544E+05 -4.481521E+04 -1.824222E+04 -2.998904E+04
       276  22  4.595851E+05  4.477699E+04  5.405270E+04 -3.807777E+04 -3.715019E+04 -9.218948E+03
       276  23  4.531985E+05 -6.020666E+02  2.455389E+04 -2.550557E+04 -2.410815E+04 -2.882928E+04
       276  24  4.596178E+05 -2.359292E+03  1.447748E+04 -3.803604E+04 -1.108616E+04 -2.998290E+04
       276  25  1.166686E+06  2.202683E+05  2.253443E+05 -5.858106E+04 -6.282759E+04 -9.242836E+03
       276  26  1.097863E+06  1.570744E+05  1.689175E+05 -3.236440E+04 -3.336388E+04 -2.883443E+04
       276  27  1.044681E+06  1.403243E+05  1.432886E+05 -3.125044E+04 -3.923435E+03 -2.997659E+04
       277   1 -7.710444E+04 -1.280081E+05 -1.067679E+05 -3.749039E+04  1.073996E+04  2.632581E+04
       277   2 -1.726820E+04 -1.157951E+05 -9.832879E+04 -2.526195E+04  8.345365E+03  2.397602E+04
       277   3  4.360766E+04 -1.011184E+05 -8.768979E+04 -3.870271E+04  5.949005E+03  2.080865E+04
       277   4  4.570412E+05  2.458767E+03  1.152571E+04 -3.817291E+04  9.022806E+03  2.632332E+04
       277   5  4.564693E+05 -1.593457E+02  6.219011E+03 -2.533846E+04  5.899793E+03  2.397387E+04
       277   6  4.570590E+05 -1.882413E+02  3.616389E+03 -3.817196E+04  2.775247E+03  2.080713E+04
       277   7  9.914531E+05  1.329064E+05  1.298017E+05 -3.885605E+04  7.304188E+03  2.632083E+04
       277   8  9.304164E+05  1.154614E+05  1.107530E+05 -2.541505E+04  3.452376E+03  2.397172E+04
       277   9  8.706700E+05  1.007304E+05  9.491207E+04 -3.764085E+04 -4.006015E+02  2.080561E+04
       277  10 -7.710475E+04 -1.280089E+05 -1.067695E+05 -3.749062E+04 -8.171704E-10 -8.581901E-11
       277  11 -1.726842E+04 -1.157958E+05 -9.833001E+04 -2.526211E+04 -6.250862E-10 -5.520586E-11
       277  12  4.360751E+04 -1.011189E+05 -8.769067E+04 -3.870281E+04 -2.526481E-10  3.380979E-12
       277  13  4.570409E+05  2.458001E+03  1.152426E+04 -3.817310E+04  2.638357E-10 -1.130234E-10
       277  14  4.564691E+05 -1.599723E+02  6.217865E+03 -2.533858E+04 -2.662897E-10  1.011885E-12
       277  15  4.570589E+05 -1.887083E+02  3.615560E+03 -3.817201E+04 -3.282853E-10  1.235044E-10
       277  16  9.914529E+05  1.329056E+05  1.298003E+05 -3.885620E+04  6.590263E-10 -1.022140E-10
       277  17  9.304163E+05  1.154607E+05  1.107519E+05 -2.541512E+04  4.803060E-10  1.195405E-10
       277  18  8.706699E+05  1.007300E+05  9.491126E+04 -3.764085E+04  8.616939E-11  1.962176E-10
       277  19 -7.710444E+04 -1.280081E+05 -1.067679E+05 -3.749039E+04 -1.073996E+04 -2.632581E+04
       277  20 -1.726820E+04 -1.157951E+05 -9.832879E+04 -2.526195E+04 -8.345365E+03 -2.397602E+04
       277  21  4.360766E+04 -1.011184E+05 -8.768979E+04 -3.870271E+04 -5.949005E+03 -2.080865E+04
       277  22  4.570412E+05  2.458767E+03  1.152571E+04 -3.817291E+04 -9.022806E+03 -2.632332E+04
       277  23  4.564693E+05 -1.593457E+02  6.219011E+03 -2.533846E+04 -5.899793E+03 -2.397387E+04
       277  24  4.570590E+05 -1.882413E+02  3.616389E+03 -3.817196E+04 -2.775247E+03 -2.080713E+04
       277  25  9.914531E+05  1.329064E+05  1.298017E+05 -3.885605E+04 -7.304188E+03 -2.632083E+04
       277  26  9.304164E+05  1.154614E+05  1.107530E+05 -2.541505E+04 -3.452376E+03 -2.397172E+04
       277  27  8.706700E+05  1.007304E+05  9.491207E+04 -3.764085E+04  4.006015E+02 -2.080561E+04
       278   1  9.332887E+04 -8.859569E+04 -7.721616E+04 -3.821794E+04  5.138606E+03  1.877547E+04
       278   2  1.533043E+05 -7.409502E+04 -6.529509E+04 -2.540981E+04  4.372530E+03  1.546256E+04
       278   3  2.134576E+05 -5.944165E+04 -5.282884E+04 -3.817795E+04  3.605067E+03  1.211716E+04
       278   4  4.568497E+05  8.718355E+01  2.783077E+03 -3.815168E+04  2.211723E+03  1.877442E+04
       278   5  4.567650E+05 -4.257344E+01  1.605808E+03 -2.536394E+04  1.416260E+03  1.546204E+04
       278   6  4.568606E+05 -1.416566E+01  9.942022E+02 -3.815170E+04  6.194818E+02  1.211718E+04
       278   7  8.204941E+05  8.876120E+04  8.277426E+04 -3.808539E+04 -7.168524E+02  1.877337E+04
       278   8  7.603117E+05  7.400370E+04  6.850108E+04 -2.531804E+04 -1.541438E+03  1.546152E+04
       278   9  7.003188E+05  5.940933E+04  5.481362E+04 -3.812543E+04 -2.367260E+03  1.211721E+04
       278  10  9.332875E+04 -8.859607E+04 -7.721687E+04 -3.821802E+04 -3.211623E-11  7.909123E-11
       278  11  1.533042E+05 -7.409528E+04 -6.529557E+04 -2.540987E+04 -4.681317E-10  1.903801E-10
       278  12  2.134576E+05 -5.944181E+04 -5.282914E+04 -3.817798E+04 -2.026453E-10  6.343523E-11
       278  13  4.568496E+05  8.680366E+01  2.782405E+03 -3.815172E+04 -2.095374E-10  5.383752E-11
       278  14  4.567649E+05 -4.283075E+01  1.605355E+03 -2.536396E+04 -2.784383E-10  8.909217E-11
       278  15  4.568605E+05 -1.432346E+01  9.939255E+02 -3.815170E+04 -2.266665E-10  6.089216E-11
       278  16  8.204940E+05  8.876082E+04  8.277359E+04 -3.808538E+04  2.594111E-12  6.742761E-11
       278  17  7.603116E+05  7.400344E+04  6.850063E+04 -2.531802E+04 -1.667460E-10 -5.792927E-11
       278  18  7.003188E+05  5.940917E+04  5.481333E+04 -3.812541E+04 -2.688784E-10  4.281614E-11
       278  19  9.332887E+04 -8.859569E+04 -7.721616E+04 -3.821794E+04 -5.138606E+03 -1.877547E+04
       278  20  1.533043E+05 -7.409502E+04 -6.529509E+04 -2.540981E+04 -4.372530E+03 -1.546256E+04
       278  21  2.134576E+05 -5.944165E+04 -5.282884E+04 -3.817795E+04 -3.605067E+03 -1.211716E+04
       278  22  4.568497E+05  8.718355E+01  2.783077E+03 -3.815168E+04 -2.211723E+03 -1.877442E+04
       278  23  4.567650E+05 -4.257344E+01  1.605808E+03 -2.536394E+04 -1.416260E+03 -1.546204E+04
       278  24  4.568606E+05 -1.416566E+01  9.942022E+02 -3.815170E+04 -6.194818E+02 -1.211718E+04
       278  25  8.204941E+05  8.876120E+04  8.277426E+04 -3.808539E+04  7.168524E+02 -1.877337E+04
       278  26  7.603117E+05  7.400370E+04  6.850108E+04 -2.531804E+04  1.541438E+03 -1.546152E+04
       278  27  7.003188E+05  5.940933E+04  5.481362E+04 -3.812543E+04  2.367260E+03 -1.211721E+04
       279   1  2.631666E+05 -4.722201E+04 -4.171197E+04 -3.813717E+04  3.428514E+03  1.016382E+04
       279   2  3.230499E+05 -3.264195E+04 -2.886916E+04 -2.537039E+04  3.123717E+03  6.817854E+03
       279   3  3.829794E+05 -1.804342E+04 -1.582408E+04 -3.811522E+04  2.818300E+03  3.472211E+03
       279   4  4.568347E+05  6.732674E-01  8.096435E+02 -3.813743E+04  4.562308E+02  1.016408E+04
       279   5  4.568162E+05 -3.161293E+00  6.160499E+02 -2.538179E+04  1.514910E+02  6.818346E+03
       279   6  4.568394E+05  1.143635E+01  6.245157E+02 -3.813743E+04 -1.538402E+02  3.472947E+03
       279   7  6.505380E+05  4.722085E+04  4.332901E+04 -3.813768E+04 -2.516968E+03  1.016434E+04
       279   8  5.905991E+05  3.263443E+04  3.010020E+04 -2.539319E+04 -2.821368E+03  6.818839E+03
       279   9  5.307046E+05  1.806593E+04  1.707281E+04 -3.815963E+04 -3.126330E+03  3.473684E+03
       279  10  2.631666E+05 -4.722213E+04 -4.171219E+04 -3.813720E+04  7.865120E-11  7.087794E-11
       279  11  3.230499E+05 -3.264200E+04 -2.886927E+04 -2.537041E+04 -6.911486E-11  1.162091E-10
       279  12  3.829794E+05 -1.804344E+04 -1.582412E+04 -3.811523E+04 -2.770673E-10  7.620117E-11
       279  13  4.568347E+05  5.622520E-01  8.094489E+02 -3.813743E+04 -5.875642E-10  9.455936E-11
       279  14  4.568161E+05 -3.211232E+00  6.159625E+02 -2.538179E+04 -2.511653E-10  2.698538E-10
       279  15  4.568394E+05  1.142339E+01  6.244930E+02 -3.813743E+04 -4.020392E-10  7.101969E-11
       279  16  6.505379E+05  4.722074E+04  4.332880E+04 -3.813766E+04 -1.322179E-10  2.266895E-10
       279  17  5.905991E+05  3.263438E+04  3.010009E+04 -2.539317E+04  3.637533E-11  1.663494E-10
       279  18  5.307045E+05  1.806591E+04  1.707276E+04 -3.815962E+04 -5.442372E-11 -3.927363E-11
       279  19  2.631666E+05 -4.722201E+04 -4.171197E+04 -3.813717E+04 -3.428514E+03 -1.016382E+04
       279  20  3.230499E+05 -3.264195E+04 -2.886916E+04 -2.537039E+04 -3.123717E+03 -6.817854E+03
       279  21  3.829794E+05 -1.804342E+04 -1.582408E+04 -3.811522E+04 -2.818300E+03 -3.472211E+03
       279  22  4.568347E+05  6.732674E-01  8.096435E+02 -3.813743E+04 -4.562308E+02 -1.016408E+04
       279  23  4.568162E+05 -3.161293E+00  6.160499E+02 -2.538179E+04 -1.514910E+02 -6.818346E+03
       279  24  4.568394E+05  1.143635E+01  6.245157E+02 -3.813743E+04  1.538402E+02 -3.472947E+03
       279  25  6.505380E+05  4.722085E+04  4.332901E+04 -3.813768E+04  2.516968E+03 -1.016434E+04
       279  26  5.905991E+05  3.263443E+04  3.010020E+04 -2.539319E+04  2.821368E+03 -6.818839E+03
       279  27  5.307046E+05  1.806593E+04  1.707281E+04 -3.815963E+04  3.126330E+03 -3.473684E+03
       280   1  4.326432E+05 -5.859317E+03 -4.466682E+03 -3.811645E+04  2.697056E+03  1.525436E+03
       280   2  4.924870E+05  8.700213E+03  8.880980E+03 -2.535742E+04  2.192139E+03 -1.818555E+03
       280   3  5.523966E+05  2.329220E+04  2.256208E+04 -3.809305E+04  1.687330E+03 -5.161694E+03
       280   4  4.568451E+05  1.168658E+01  6.984513E+02 -3.813375E+04 -2.745365E+02  1.526226E+03
       280   5  4.568132E+05 -3.254206E+00  1.018328E+03 -2.538638E+04 -7.787998E+02 -1.817835E+03
       280   6  4.568437E+05  1.437044E+01  1.671337E+03 -3.813374E+04 -1.282907E+03 -5.161030E+03
       280   7  4.810475E+05  5.882657E+03  5.863584E+03 -3.815106E+04 -3.246243E+03  1.527017E+03
       280   8  4.211406E+05 -8.706802E+03 -6.844368E+03 -2.541533E+04 -3.749570E+03 -1.817115E+03
       280   9  3.612994E+05 -2.326406E+04 -1.921992E+04 -3.817443E+04 -4.252693E+03 -5.160366E+03
       280  10  4.326432E+05 -5.859321E+03 -4.466700E+03 -3.811645E+04 -1.450226E-09  4.559543E-10
       280  11  4.924870E+05  8.700208E+03  8.880964E+03 -2.535742E+04 -1.194284E-09  9.980340E-10
       280  12  5.523966E+05  2.329217E+04  2.256202E+04 -3.809304E+04 -1.588972E-09  4.149249E-10
       280  13  4.568451E+05  1.168406E+01  6.984468E+02 -3.813375E+04 -3.842277E-10  5.160179E-10
       280  14  4.568132E+05 -3.257918E+00  1.018321E+03 -2.538638E+04  2.997382E-11  1.049428E-09
       280  15  4.568437E+05  1.434139E+01  1.671284E+03 -3.813375E+04  1.692348E-11  3.959964E-10
       280  16  4.810475E+05  5.882651E+03  5.863560E+03 -3.815106E+04  1.471006E-09  2.763948E-10
       280  17  4.211406E+05 -8.706809E+03 -6.844400E+03 -2.541533E+04  4.765726E-10  9.972320E-10
       280  18  3.612994E+05 -2.326409E+04 -1.922000E+04 -3.817445E+04  1.589612E-09  3.231824E-10
       280  19  4.326432E+05 -5.859317E+03 -4.466682E+03 -3.811645E+04 -2.697056E+03 -1.525436E+03
       280  20  4.924870E+05  8.700213E+03  8.880980E+03 -2.535742E+04 -2.192139E+03  1.818555E+03
       280  21  5.523966E+05  2.329220E+04  2.256208E+04 -3.809305E+04 -1.687330E+03  5.161694E+03
       280  22  4.568451E+05  1.168658E+01  6.984513E+02 -3.813375E+04  2.745365E+02 -1.526226E+03
       280  23  4.568132E+05 -3.254206E+00  1.018328E+03 -2.538638E+04  7.787998E+02  1.817835E+03
       280  24  4.568437E+05  1.437044E+01  1.671337E+03 -3.813374E+04  1.282907E+03  5.161030E+03
       280  25  4.810475E+05  5.882657E+03  5.863584E+03 -3.815106E+04  3.246243E+03 -1.527017E+03
       280  26  4.211406E+05 -8.706802E+03 -6.844368E+03 -2.541533E+04  3.749570E+03  1.817115E+03
       280  27  3.612994E+05 -2.326406E+04 -1.921992E+04 -3.817443E+04  4.252693E+03  5.160366E+03
       281   1  6.021457E+05  3.544860E+04  3.434799E+04 -3.804511E+04  1.350949E+03 -7.111759E+03
       281   2  6.619420E+05  5.000645E+04  4.895130E+04 -2.528987E+04 -5.223449E+02 -1.045176E+04
       281   3  7.220907E+05  6.494730E+04  6.487035E+04 -3.806738E+04 -2.394893E+03 -1.376296E+04
       281   4  4.569039E+05 -1.779075E+01  2.170647E+03 -3.814232E+04 -1.630121E+03 -7.111226E+03
       281   5  4.567273E+05 -5.614831E+01  3.722760E+03 -2.537565E+04 -3.477366E+03 -1.045160E+04
       281   6  4.568962E+05  2.845629E+02  6.573296E+03 -3.814224E+04 -5.323690E+03 -1.376315E+04
       281   7  3.116818E+05 -3.548560E+04 -3.000797E+04 -3.823950E+04 -4.610501E+03 -7.110692E+03
       281   8  2.515519E+05 -5.012157E+04 -4.150833E+04 -2.546139E+04 -6.431423E+03 -1.045144E+04
       281   9  1.917674E+05 -6.438288E+04 -5.172803E+04 -3.821707E+04 -8.251251E+03 -1.376335E+04
       281  10  6.021456E+05  3.544855E+04  3.434790E+04 -3.804510E+04 -1.729277E-08 -8.540160E-10
       281  11  6.619420E+05  5.000633E+04  4.895110E+04 -2.528987E+04  1.055550E-10 -2.072913E-09
       281  12  7.220906E+05  6.494710E+04  6.486999E+04 -3.806741E+04  1.715121E-08 -9.210296E-10
       281  13  4.569039E+05 -1.784578E+01  2.170547E+03 -3.814233E+04 -3.924328E-11 -9.296856E-10
       281  14  4.567272E+05 -5.626888E+01  3.722532E+03 -2.537568E+04  6.028862E-10 -2.115714E-09
       281  15  4.568961E+05  2.843518E+02  6.572887E+03 -3.814230E+04  1.691664E-10 -9.345066E-10
       281  16  3.116818E+05 -3.548566E+04 -3.000811E+04 -3.823953E+04  1.729946E-08 -9.446058E-10
       281  17  2.515518E+05 -5.012170E+04 -4.150862E+04 -2.546145E+04  7.129398E-11 -2.156257E-09
       281  18  1.917673E+05 -6.438310E+04 -5.172851E+04 -3.821716E+04 -1.746120E-08 -9.612241E-10
       281  19  6.021457E+05  3.544860E+04  3.434799E+04 -3.804511E+04 -1.350949E+03  7.111759E+03
       281  20  6.619420E+05  5.000645E+04  4.895130E+04 -2.528987E+04  5.223449E+02  1.045176E+04
       281  21  7.220907E+05  6.494730E+04  6.487035E+04 -3.806738E+04  2.394893E+03  1.376296E+04
       281  22  4.569039E+05 -1.779075E+01  2.170647E+03 -3.814232E+04  1.630121E+03  7.111226E+03
       281  23  4.567273E+05 -5.614831E+01  3.722760E+03 -2.537565E+04  3.477366E+03  1.045160E+04
       281  24  4.568962E+05  2.845629E+02  6.573296E+03 -3.814224E+04  5.323690E+03  1.376315E+04
       281  25  3.116818E+05 -3.548560E+04 -3.000797E+04 -3.823950E+04  4.610501E+03  7.110692E+03
       281  26  2.515519E+05 -5.012157E+04 -4.150833E+04 -2.546139E+04  6.431423E+03  1.045144E+04
       281  27  1.917674E+05 -6.438288E+04 -5.172803E+04 -3.821707E+04  8.251251E+03  1.376335E+04
       282   1  7.724197E+05  7.651106E+04  7.815078E+04 -3.701809E+04 -3.516337E+03 -1.578025E+04
       282   2  8.312765E+05  9.127250E+04  9.758378E+04 -2.581014E+04 -1.159466E+04 -1.896459E+04
       282   3  8.928236E+05  1.123283E+05  1.238581E+05 -4.019299E+04 -1.967257E+04 -2.144342E+04
       282   4  4.573860E+05 -3.675165E+02  8.570952E+03 -3.815496E+04 -6.657870E+03 -1.578076E+04
       282   5  4.560887E+05 -2.626340E+02  1.481983E+04 -2.535960E+04 -1.410509E+04 -1.896573E+04
       282   6  4.573700E+05  6.029510E+03  2.747509E+04 -3.815583E+04 -2.155113E+04 -2.144501E+04
       282   7  1.424449E+05 -7.725276E+04 -6.101496E+04 -3.929125E+04 -9.797829E+03 -1.578125E+04
       282   8  8.103218E+04 -9.180722E+04 -6.795275E+04 -2.490934E+04 -1.661403E+04 -1.896687E+04
       282   9  2.209323E+04 -1.002820E+05 -6.891962E+04 -3.612011E+04 -2.342838E+04 -2.144663E+04
       282  10  7.724197E+05  7.651079E+04  7.815029E+04 -3.701814E+04  1.899264E-09  1.867174E-10
       282  11  8.312763E+05  9.127208E+04  9.758285E+04 -2.581031E+04  1.168255E-09  8.461167E-10
       282  12  8.928230E+05  1.123277E+05  1.238565E+05 -4.019333E+04  6.646422E-10  6.161364E-10
       282  13  4.573859E+05 -3.677959E+02  8.570400E+03 -3.815505E+04  1.407129E-11  2.419891E-10
       282  14  4.560884E+05 -2.630737E+02  1.481878E+04 -2.535981E+04 -2.286408E-11  8.915690E-10
       282  15  4.573694E+05  6.028891E+03  2.747335E+04 -3.815620E+04 -8.943308E-11  5.905720E-10
       282  16  1.424447E+05 -7.725305E+04 -6.101560E+04 -3.929137E+04 -1.320346E-09  2.648052E-10
       282  17  8.103179E+04 -9.180768E+04 -6.795394E+04 -2.490959E+04 -1.229603E-09  9.112087E-10
       282  18  2.209251E+04 -1.002827E+05 -6.892151E+04 -3.612051E+04 -4.603399E-10  6.260154E-10
       282  19  7.724197E+05  7.651106E+04  7.815078E+04 -3.701809E+04  3.516337E+03  1.578025E+04
       282  20  8.312765E+05  9.127250E+04  9.758378E+04 -2.581014E+04  1.159466E+04  1.896459E+04
       282  21  8.928236E+05  1.123283E+05  1.238581E+05 -4.019299E+04  1.967257E+04  2.144342E+04
       282  22  4.573860E+05 -3.675165E+02  8.570952E+03 -3.815496E+04  6.657870E+03  1.578076E+04
       282  23  4.560887E+05 -2.626340E+02  1.481983E+04 -2.535960E+04  1.410509E+04  1.896573E+04
       282  24  4.573700E+05  6.029510E+03  2.747509E+04 -3.815583E+04  2.155113E+04  2.144501E+04
       282  25  1.424449E+05 -7.725276E+04 -6.101496E+04 -3.929125E+04  9.797829E+03  1.578125E+04
       282  26  8.103218E+04 -9.180722E+04 -6.795275E+04 -2.490934E+04  1.661403E+04  1.896687E+04
       282  27  2.209323E+04 -1.002820E+05 -6.891962E+04 -3.612011E+04  2.342838E+04  2.144663E+04
       283   1  9.493477E+05  1.130613E+05  1.415073E+05 -2.238480E+04 -1.989536E+04 -2.486437E+04
       283   2  9.937615E+05  1.321814E+05  1.807700E+05 -4.260806E+04 -6.515440E+04 -2.432997E+04
       283   3  1.070787E+06  2.576747E+05  2.760905E+05 -8.795789E+04 -1.104306E+05 -7.865528E+03
       283   4  4.634965E+05 -5.442757E+03  3.451336E+04 -3.803476E+04 -2.647197E+04 -2.486744E+04
       283   5  4.483877E+05 -1.217208E+03  5.859403E+04 -2.550531E+04 -5.754658E+04 -2.432932E+04
       283   6  4.634539E+05  1.069682E+05  1.289184E+05 -3.809941E+04 -8.863289E+04 -7.859655E+03
       283   7 -2.213375E+04 -1.239617E+05 -7.249477E+04 -5.367236E+04 -3.304349E+04 -2.487019E+04
       283   8 -9.670879E+04 -1.346349E+05 -6.360040E+04 -8.417758E+03 -4.994534E+04 -2.432825E+04
       283   9 -1.435363E+05 -4.375581E+04 -1.827709E+04  1.171017E+04 -6.685637E+04 -7.850286E+03
       283  10  9.493471E+05  1.130605E+05  1.415054E+05 -2.238520E+04 -1.761830E-10  4.908711E-10
       283  11  9.937568E+05  1.321796E+05  1.807610E+05 -4.260933E+04 -4.827023E-10  2.678445E-10
       283  12  1.070774E+06  2.576714E+05  2.760675E+05 -8.795859E+04 -2.828096E-12 -7.108937E-11
       283  13  4.634955E+05 -5.443609E+03  3.451088E+04 -3.803529E+04  2.132525E-10  3.696677E-10
       283  14  4.483840E+05 -1.218732E+03  5.858670E+04 -2.550644E+04 -3.114398E-10  9.411128E-11
       283  15  4.634455E+05  1.069660E+05  1.289035E+05 -3.809997E+04  3.144356E-11  5.741863E-11
       283  16 -2.213509E+04 -1.239626E+05 -7.249798E+04 -5.367302E+04 -2.046662E-10  3.076740E-10
       283  17 -9.671162E+04 -1.346362E+05 -6.360621E+04 -8.418736E+03 -2.767258E-10  4.600675E-10
       283  18 -1.435411E+05 -4.375708E+04 -1.828561E+04  1.170975E+04 -1.612270E-10  7.669467E-11
       283  19  9.493477E+05  1.130613E+05  1.415073E+05 -2.238480E+04  1.989536E+04  2.486437E+04
       283  20  9.937615E+05  1.321814E+05  1.807700E+05 -4.260806E+04  6.515440E+04  2.432997E+04
       283  21  1.070787E+06  2.576747E+05  2.760905E+05 -8.795789E+04  1.104306E+05  7.865528E+03
       283  22  4.634965E+05 -5.442757E+03  3.451336E+04 -3.803476E+04  2.647197E+04  2.486744E+04
       283  23  4.483877E+05 -1.217208E+03  5.859403E+04 -2.550531E+04  5.754658E+04  2.432932E+04
       283  24  4.634539E+05  1.069682E+05  1.289184E+05 -3.809941E+04  8.863289E+04  7.859655E+03
       283  25 -2.213375E+04 -1.239617E+05 -7.249477E+04 -5.367236E+04  3.304349E+04  2.487019E+04
       283  26 -9.670879E+04 -1.346349E+05 -6.360040E+04 -8.417758E+03  4.994534E+04  2.432825E+04
       283  27 -1.435363E+05 -4.375581E+04 -1.827709E+04  1.171017E+04  6.685637E+04  7.850286E+03
       284   1  1.638441E+05  9.626818E+05  1.735046E+05 -1.067718E+05  4.446617E+03  6.202827E+04
       284   2  7.191712E+04  8.305968E+05  9.858388E+04 -6.263957E+04  1.242031E+04  3.453626E+04
       284   3  3.950531E+04  7.168333E+05  5.639551E+04 -7.023905E+04  8.564308E+03  7.034018E+03
       284   4  5.953056E+04  5.433362E+05  7.136207E+04 -7.857863E+04  4.466124E+03  4.969705E+04
       284   5 -4.906761E+02  5.351064E+05  3.197220E+04 -5.275621E+04  1.242383E+04  3.273205E+04
       284   6 -2.805152E+03  5.433732E+05  1.802559E+04 -7.866340E+04  8.550930E+03  1.575129E+04
       284   7 -4.479287E+04  1.241527E+05 -3.079227E+04 -5.040444E+04  4.484521E+03  3.737412E+04
       284   8 -7.290410E+04  2.396972E+05 -3.464501E+04 -4.287757E+04  1.242729E+04  3.092870E+04
       284   9 -4.511733E+04  3.699415E+05 -2.034586E+04 -8.708535E+04  8.537313E+03  2.446615E+04
       284  10  1.638430E+05  9.626777E+05  1.734974E+05 -1.067720E+05 -1.454153E-10 -1.907419E-10
       284  11  7.191663E+04  8.305955E+05  9.858135E+04 -6.263992E+04 -2.518888E-10  1.878949E-11
       284  12  3.950522E+04  7.168333E+05  5.639528E+04 -7.023910E+04  5.657609E-10  3.034009E-10
       284  13  5.952988E+04  5.433335E+05  7.135740E+04 -7.857881E+04  4.101485E-10 -9.937744E-11
       284  14 -4.911293E+02  5.351052E+05  3.196989E+04 -5.275654E+04 -1.592142E-09  1.858466E-10
       284  15 -2.805297E+03  5.433730E+05  1.802499E+04 -7.866350E+04 -8.390788E-12  3.058136E-12
       284  16 -4.479327E+04  1.241512E+05 -3.079493E+04 -5.040457E+04 -5.329238E-11  1.818556E-10
       284  17 -7.290452E+04  2.396962E+05 -3.464709E+04 -4.287788E+04 -6.399730E-10  1.573393E-11
       284  18 -4.511757E+04  3.699409E+05 -2.034712E+04 -8.708552E+04 -2.323539E-10 -3.149104E-10
       284  19  1.638441E+05  9.626818E+05  1.735046E+05 -1.067718E+05 -4.446617E+03 -6.202827E+04
       284  20  7.191712E+04  8.305968E+05  9.858388E+04 -6.263957E+04 -1.242031E+04 -3.453626E+04
       284  21  3.950531E+04  7.168333E+05  5.639551E+04 -7.023905E+04 -8.564308E+03 -7.034018E+03
       284  22  5.953056E+04  5.433362E+05  7.136207E+04 -7.857863E+04 -4.466124E+03 -4.969705E+04
       284  23 -4.906761E+02  5.351064E+05  3.197220E+04 -5.275621E+04 -1.242383E+04 -3.273205E+04
       284  24 -2.805152E+03  5.433732E+05  1.802559E+04 -7.866340E+04 -8.550930E+03 -1.575129E+04
       284  25 -4.479287E+04  1.241527E+05 -3.079227E+04 -5.040444E+04 -4.484521E+03 -3.737412E+04
       284  26 -7.290410E+04  2.396972E+05 -3.464501E+04 -4.287757E+04 -1.242729E+04 -3.092870E+04
       284  27 -4.511733E+04  3.699415E+05 -2.034586E+04 -8.708535E+04 -8.537313E+03 -2.446615E+04
       285   1  2.109849E+04  6.112316E+05  2.956725E+04 -7.979317E+04  3.428994E+03  7.829859E+03
       285   2 -1.247037E+04  4.880901E+05 -5.809400E+03 -5.293868E+04 -2.602110E+03  5.141463E+03
       285   3 -4.357150E+04  3.657453E+05 -3.886537E+04 -7.828893E+04 -8.518629E+03  2.454184E+03
       285   4  3.668207E+03  5.398882E+05  1.373199E+04 -7.874339E+04  3.420546E+03  1.324354E+04
       285   5  7.034047E+01  5.394871E+05  5.532556E+03 -5.264482E+04 -2.610216E+03  1.045358E+04
       285   6 -1.040894E+03  5.398871E+05 -2.739321E+02 -7.875057E+04 -8.526443E+03  7.664216E+03
       285   7 -1.376240E+04  4.685496E+05 -2.103471E+03 -7.769373E+04  3.412116E+03  1.865660E+04
       285   8  1.261088E+04  5.908866E+05  1.687446E+04 -5.235093E+04 -2.618316E+03  1.576612E+04
       285   9  4.148768E+04  7.140573E+05  3.831573E+04 -7.921233E+04 -8.534263E+03  1.287569E+04
       285  10  2.109846E+04  6.112315E+05  2.956711E+04 -7.979319E+04 -9.891830E-11 -4.691871E-10
       285  11 -1.247038E+04  4.880901E+05 -5.809462E+03 -5.293867E+04  4.786088E-11 -1.995430E-10
       285  12 -4.357158E+04  3.657453E+05 -3.886552E+04 -7.828891E+04 -5.083553E-10  2.345281E-10
       285  13  3.668147E+03  5.398880E+05  1.373164E+04 -7.874342E+04 -5.507459E-11 -3.776079E-11
       285  14  7.030385E+01  5.394870E+05  5.532338E+03 -5.264479E+04  6.779977E-10 -1.623894E-10
       285  15 -1.040988E+03  5.398871E+05 -2.741790E+02 -7.875052E+04  1.007097E-09 -1.697359E-10
       285  16 -1.376251E+04  4.685492E+05 -2.104146E+03 -7.769378E+04 -1.190286E-10  4.962853E-10
       285  17  1.261081E+04  5.908863E+05  1.687398E+04 -5.235089E+04 -6.426098E-10  1.884812E-10
       285  18  4.148756E+04  7.140571E+05  3.831528E+04 -7.921224E+04 -4.539806E-10 -2.045338E-10
       285  19  2.109849E+04  6.112316E+05  2.956725E+04 -7.979317E+04 -3.428994E+03 -7.829859E+03
       285  20 -1.247037E+04  4.880901E+05 -5.809400E+03 -5.293868E+04  2.602110E+03 -5.141463E+03
       285  21 -4.357150E+04  3.657453E+05 -3.886537E+04 -7.828893E+04  8.518629E+03 -2.454184E+03
       285  22  3.668207E+03  5.398882E+05  1.373199E+04 -7.874339E+04 -3.420546E+03 -1.324354E+04
       285  23  7.034047E+01  5.394871E+05  5.532556E+03 -5.264482E+04  2.610216E+03 -1.045358E+04
       285  24 -1.040894E+03  5.398871E+05 -2.739321E+02 -7.875057E+04  8.526443E+03 -7.664216E+03
       285  25 -1.376240E+04  4.685496E+05 -2.103471E+03 -7.769373E+04 -3.412116E+03 -1.865660E+04
       285  26  1.261088E+04  5.908866E+05  1.687446E+04 -5.235093E+04  2.618316E+03 -1.576612E+04
       285  27  4.148768E+04  7.140573E+05  3.831573E+04 -7.921233E+04  8.534263E+03 -1.287569E+04
       286   1 -6.612413E+04  2.622595E+05 -6.371142E+04 -7.554903E+04 -1.387666E+04 -1.493998E+03
       286   2 -9.725228E+04  1.428922E+05 -9.835557E+04 -5.535618E+04 -1.716471E+04  1.602220E+04
       286   3 -1.484909E+05  1.613290E+04 -1.494528E+05 -8.688052E+04 -6.006635E+03  3.355165E+04
       286   4  1.323678E+03  5.385474E+05 -2.691064E+03 -7.863315E+04 -1.389007E+04  7.822457E+03
       286   5  2.782455E+02  5.411245E+05 -8.746175E+03 -5.278756E+04 -1.715917E+04  1.251150E+04
       286   6 -1.864380E+04  5.385249E+05 -2.234523E+04 -7.865840E+04 -5.985987E+03  1.721761E+04
       286   7  6.876643E+04  8.149067E+05  5.832492E+04 -8.171864E+04 -1.390356E+04  1.714301E+04
       286   8  9.779795E+04  9.395042E+05  8.085317E+04 -5.021722E+04 -1.715368E+04  8.998564E+03
       286   9  1.111836E+05  1.061167E+06  1.047437E+05 -7.042925E+04 -5.965782E+03  8.698732E+02
       286  10 -6.612434E+04  2.622594E+05 -6.371178E+04 -7.554904E+04  1.426728E-10  4.682343E-11
       286  11 -9.725266E+04  1.428919E+05 -9.835660E+04 -5.535596E+04  2.266580E-10  5.046547E-12
       286  12 -1.484912E+05  1.613168E+04 -1.494550E+05 -8.688036E+04 -2.296397E-10  7.471733E-11
       286  13  1.323454E+03  5.385472E+05 -2.691542E+03 -7.863307E+04 -1.033449E-09  1.142738E-10
       286  14  2.778873E+02  5.411242E+05 -8.747022E+03 -5.278739E+04  4.523318E-10 -1.020577E-10
       286  15 -1.864392E+04  5.385246E+05 -2.234585E+04 -7.865831E+04 -3.017683E-10  3.555132E-11
       286  16  6.876615E+04  8.149063E+05  5.832400E+04 -8.171845E+04  2.257850E-10 -1.970335E-10
       286  17  9.779762E+04  9.395040E+05  8.085246E+04 -5.021710E+04  3.409548E-11 -1.576166E-10
       286  18  1.111836E+05  1.061167E+06  1.047436E+05 -7.042925E+04 -3.904652E-10 -1.747006E-11
       286  19 -6.612413E+04  2.622595E+05 -6.371142E+04 -7.554903E+04  1.387666E+04  1.493998E+03
       286  20 -9.725228E+04  1.428922E+05 -9.835557E+04 -5.535618E+04  1.716471E+04 -1.602220E+04
       286  21 -1.484909E+05  1.613290E+04 -1.494528E+05 -8.688052E+04  6.006635E+03 -3.355165E+04
       286  22  1.323678E+03  5.385474E+05 -2.691064E+03 -7.863315E+04  1.389007E+04 -7.822457E+03
       286  23  2.782455E+02  5.411245E+05 -8.746175E+03 -5.278756E+04  1.715917E+04 -1.251150E+04
       286  24 -1.864380E+04  5.385249E+05 -2.234523E+04 -7.865840E+04  5.985987E+03 -1.721761E+04
       286  25  6.876643E+04  8.149067E+05  5.832492E+04 -8.171864E+04  1.390356E+04 -1.714301E+04
       286  26  9.779795E+04  9.395042E+05  8.085317E+04 -5.021722E+04  1.715368E+04 -8.998564E+03
       286  27  1.111836E+05  1.061167E+06  1.047437E+05 -7.042925E+04  5.965782E+03 -8.698732E+02
       287   1 -8.578902E+05 -3.864863E+05 -2.645831E+05 -3.065669E+05 -1.118826E+05 -3.500135E+04
       287   2 -8.232846E+05 -2.321790E+05 -1.644340E+05 -3.010043E+05 -7.253260E+04 -5.027774E+03
       287   3 -8.273556E+05 -2.016645E+05 -1.284369E+05 -2.779721E+05 -2.848781E+04  1.248052E+04
       287   4 -4.515274E+05 -1.838974E+05 -1.463859E+05 -1.448576E+05 -9.570807E+04 -2.892712E+04
       287   5 -4.252818E+05 -6.698765E+04 -6.327434E+04 -1.746648E+05 -6.669218E+04 -2.834799E+03
       287   6 -4.356353E+05 -7.178192E+04 -3.609141E+04 -1.870122E+05 -3.298438E+04  1.078996E+04
       287   7 -4.500051E+04  1.874055E+04 -2.820429E+04  1.695853E+04 -7.952206E+04 -2.284532E+04
       287   8 -2.712257E+04  9.822478E+04  3.787243E+04 -4.824814E+04 -6.084767E+04 -6.398938E+02
       287   9 -4.376226E+04  5.810423E+04  5.624390E+04 -9.600330E+04 -3.748406E+04  9.098536E+03
       287  10 -8.579040E+05 -3.864910E+05 -2.646090E+05 -3.065700E+05 -5.376355E-11  2.602303E-11
       287  11 -8.232903E+05 -2.321804E+05 -1.644440E+05 -3.010046E+05 -8.453121E-10 -7.342151E-11
       287  12 -8.273565E+05 -2.016649E+05 -1.284387E+05 -2.779718E+05  3.044304E-10 -3.763274E-10
       287  13 -4.515374E+05 -1.839007E+05 -1.464047E+05 -1.448599E+05  6.149718E-10  5.305849E-11
       287  14 -4.252865E+05 -6.698885E+04 -6.328272E+04 -1.746650E+05 -5.178234E-10 -1.101261E-10
       287  15 -4.356365E+05 -7.178234E+04 -3.609368E+04 -1.870119E+05  3.742539E-10 -3.126867E-10
       287  16 -4.500744E+04  1.873829E+04 -2.821715E+04  1.695706E+04 -2.704415E-11  1.319944E-11
       287  17 -2.712654E+04  9.822379E+04  3.786547E+04 -4.824817E+04 -4.005269E-10 -7.637631E-11
       287  18 -4.376379E+04  5.810377E+04  5.624111E+04 -9.600302E+04 -6.723740E-10 -1.879759E-10
       287  19 -8.578902E+05 -3.864863E+05 -2.645831E+05 -3.065669E+05  1.118826E+05  3.500135E+04
       287  20 -8.232846E+05 -2.321790E+05 -1.644340E+05 -3.010043E+05  7.253260E+04  5.027774E+03
       287  21 -8.273556E+05 -2.016645E+05 -1.284369E+05 -2.779721E+05  2.848781E+04 -1.248052E+04
       287  22 -4.515274E+05 -1.838974E+05 -1.463859E+05 -1.448576E+05  9.570807E+04  2.892712E+04
       287  23 -4.252818E+05 -6.698765E+04 -6.327434E+04 -1.746648E+05  6.669218E+04  2.834799E+03
       287  24 -4.356353E+05 -7.178192E+04 -3.609141E+04 -1.870122E+05  3.298438E+04 -1.078996E+04
       287  25 -4.500051E+04  1.874055E+04 -2.820429E+04  1.695853E+04  7.952206E+04  2.284532E+04
       287  26 -2.712257E+04  9.822478E+04  3.787243E+04 -4.824814E+04  6.084767E+04  6.398938E+02
       287  27 -4.376226E+04  5.810423E+04  5.624390E+04 -9.600330E+04  3.748406E+04 -9.098536E+03
       288   1 -7.820271E+05 -2.165436E+05 -1.149582E+05 -2.790166E+05 -2.674879E+04  1.048294E+04
       288   2 -7.549144E+05 -1.911657E+05 -9.301705E+04 -2.651432E+05 -1.839221E+04  1.232187E+04
       288   3 -7.212141E+05 -1.834938E+05 -7.895712E+04 -2.614520E+05 -9.821517E+03  1.358991E+04
       288   4 -4.309041E+05 -8.321258E+04 -2.867167E+04 -1.801580E+05 -2.746699E+04  1.021204E+04
       288   5 -4.337450E+05 -7.089291E+04 -1.466378E+04 -1.763851E+05 -1.958037E+04  1.187475E+04
       288   6 -4.299039E+05 -7.618331E+04 -8.161001E+03 -1.827950E+05 -1.148008E+04  1.296653E+04
       288   7 -7.966095E+04  5.012754E+04  5.760500E+04 -8.124868E+04 -2.818562E+04  9.940960E+03
       288   8 -1.124737E+05  4.938729E+04  6.368174E+04 -8.758517E+04 -2.076921E+04  1.142738E+04
       288   9 -1.385085E+05  3.113302E+04  6.262918E+04 -1.041042E+05 -1.313951E+04  1.234284E+04
       288  10 -7.820279E+05 -2.165439E+05 -1.149598E+05 -2.790163E+05 -1.439002E-10 -4.612654E-10
       288  11 -7.549148E+05 -1.911660E+05 -9.301797E+04 -2.651430E+05 -4.602301E-10 -6.578656E-11
       288  12 -7.212143E+05 -1.834940E+05 -7.895765E+04 -2.614519E+05  1.996820E-10  9.005622E-12
       288  13 -4.309049E+05 -8.321289E+04 -2.867329E+04 -1.801578E+05 -1.735776E-10 -2.942743E-10
       288  14 -4.337454E+05 -7.089317E+04 -1.466476E+04 -1.763849E+05  1.155193E-10 -2.084012E-10
       288  15 -4.299040E+05 -7.618353E+04 -8.161565E+03 -1.827948E+05 -1.897409E-10  7.835806E-11
       288  16 -7.966183E+04  5.012722E+04  5.760332E+04 -8.124846E+04  1.969759E-10 -1.747385E-10
       288  17 -1.124742E+05  4.938704E+04  6.368068E+04 -8.758498E+04  4.229202E-10 -1.672635E-10
       288  18 -1.385087E+05  3.113281E+04  6.262857E+04 -1.041040E+05 -2.996767E-10  2.046744E-10
       288  19 -7.820271E+05 -2.165436E+05 -1.149582E+05 -2.790166E+05  2.674879E+04 -1.048294E+04
       288  20 -7.549144E+05 -1.911657E+05 -9.301705E+04 -2.651432E+05  1.839221E+04 -1.232187E+04
       288  21 -7.212141E+05 -1.834938E+05 -7.895712E+04 -2.614520E+05  9.821517E+03 -1.358991E+04
       288  22 -4.309041E+05 -8.321258E+04 -2.867167E+04 -1.801580E+05  2.746699E+04 -1.021204E+04
       288  23 -4.337450E+05 -7.089291E+04 -1.466378E+04 -1.763851E+05  1.958037E+04 -1.187475E+04
       288  24 -4.299039E+05 -7.618331E+04 -8.161001E+03 -1.827950E+05  1.148008E+04 -1.296653E+04
       288  25 -7.966095E+04  5.012754E+04  5.760500E+04 -8.124868E+04  2.818562E+04 -9.940960E+03
       288  26 -1.124737E+05  4.938729E+04  6.368174E+04 -8.758517E+04  2.076921E+04 -1.142738E+04
       288  27 -1.385085E+05  3.113302E+04  6.262918E+04 -1.041042E+05  1.313951E+04 -1.234284E+04
       289   1 -6.927564E+05 -1.749078E+05 -7.021711E+04 -2.545453E+05 -8.415752E+03  1.283386E+04
       289   2 -6.662900E+05 -1.574866E+05 -5.979485E+04 -2.399945E+05 -6.022166E+03  1.166874E+04
       289   3 -6.297873E+05 -1.509630E+05 -5.076784E+04 -2.372995E+05 -3.617916E+03  1.047341E+04
       289   4 -4.294634E+05 -7.688526E+04 -6.220571E+03 -1.823406E+05 -9.906993E+03  1.227351E+04
       289   5 -4.344513E+05 -7.122904E+04 -3.376214E+03 -1.764905E+05 -7.537732E+03  1.109955E+04
       289   6 -4.293992E+05 -7.646509E+04 -1.907276E+03 -1.824961E+05 -5.157909E+03  9.895331E+03
       289   7 -1.661019E+05  2.114201E+04  5.777078E+04 -1.101081E+05 -1.139892E+04  1.171290E+04
       289   8 -2.025601E+05  1.503194E+04  5.303825E+04 -1.129651E+05 -9.053912E+03  1.053012E+04
       289   9 -2.289723E+05 -1.964807E+03  4.695001E+04 -1.276769E+05 -6.698438E+03  9.317056E+03
       289  10 -6.927566E+05 -1.749080E+05 -7.021755E+04 -2.545452E+05 -7.217528E-11 -2.105634E-11
       289  11 -6.662900E+05 -1.574867E+05 -5.979518E+04 -2.399945E+05 -5.735202E-12  2.357093E-10
       289  12 -6.297874E+05 -1.509632E+05 -5.076807E+04 -2.372995E+05 -2.029451E-10 -5.670498E-11
       289  13 -4.294635E+05 -7.688545E+04 -6.221039E+03 -1.823405E+05 -2.697514E-10  3.242749E-11
       289  14 -4.344514E+05 -7.122919E+04 -3.376553E+03 -1.764905E+05  4.086498E-10  1.730638E-10
       289  15 -4.293992E+05 -7.646521E+04 -1.907510E+03 -1.824961E+05  1.773946E-11  1.296070E-10
       289  16 -1.661021E+05  2.114183E+04  5.777028E+04 -1.101080E+05 -9.263234E-11  7.770485E-11
       289  17 -2.025602E+05  1.503180E+04  5.303789E+04 -1.129650E+05  1.348504E-10  5.873841E-11
       289  18 -2.289724E+05 -1.964912E+03  4.694976E+04 -1.276768E+05  6.949522E-11  1.636999E-10
       289  19 -6.927564E+05 -1.749078E+05 -7.021711E+04 -2.545453E+05  8.415752E+03 -1.283386E+04
       289  20 -6.662900E+05 -1.574866E+05 -5.979485E+04 -2.399945E+05  6.022166E+03 -1.166874E+04
       289  21 -6.297873E+05 -1.509630E+05 -5.076784E+04 -2.372995E+05  3.617916E+03 -1.047341E+04
       289  22 -4.294634E+05 -7.688526E+04 -6.220571E+03 -1.823406E+05  9.906993E+03 -1.227351E+04
       289  23 -4.344513E+05 -7.122904E+04 -3.376214E+03 -1.764905E+05  7.537732E+03 -1.109955E+04
       289  24 -4.293992E+05 -7.646509E+04 -1.907276E+03 -1.824961E+05  5.157909E+03 -9.895331E+03
       289  25 -1.661019E+05  2.114201E+04  5.777078E+04 -1.101081E+05  1.139892E+04 -1.171290E+04
       289  26 -2.025601E+05  1.503194E+04  5.303825E+04 -1.129651E+05  9.053912E+03 -1.053012E+04
       289  27 -2.289723E+05 -1.964807E+03  4.695001E+04 -1.276769E+05  6.698438E+03 -9.317056E+03
       290   1 -6.023252E+05 -1.408452E+05 -4.345517E+04 -2.298597E+05 -2.939727E+03  9.497958E+03
       290   2 -5.758350E+05 -1.238160E+05 -3.530009E+04 -2.151859E+05 -1.785426E+03  7.821279E+03
       290   3 -5.389440E+05 -1.172866E+05 -2.749334E+04 -2.125037E+05 -6.301133E+02  6.140743E+03
       290   4 -4.293361E+05 -7.651173E+04 -1.473180E+03 -1.824752E+05 -4.474726E+03  8.921902E+03
       290   5 -4.345325E+05 -7.124865E+04 -9.178393E+02 -1.764836E+05 -3.323494E+03  7.244239E+03
       290   6 -4.293293E+05 -7.648498E+04 -7.085151E+02 -1.824839E+05 -2.171280E+03  5.562717E+03
       290   7 -2.563166E+05 -1.217588E+04  4.050683E+04 -1.350785E+05 -6.010198E+03  8.345669E+03
       290   8 -2.932099E+05 -1.867984E+04  3.346302E+04 -1.377732E+05 -4.861947E+03  6.667055E+03
       290   9 -3.197027E+05 -3.568252E+04  2.607542E+04 -1.524593E+05 -3.712744E+03  4.984579E+03
       290  10 -6.023252E+05 -1.408453E+05 -4.345536E+04 -2.298597E+05 -1.044999E-10 -6.823335E-11
       290  11 -5.758350E+05 -1.238160E+05 -3.530021E+04 -2.151859E+05 -2.857564E-10  3.289448E-11
       290  12 -5.389440E+05 -1.172867E+05 -2.749341E+04 -2.125037E+05 -3.780779E-10 -3.436879E-11
       290  13 -4.293361E+05 -7.651182E+04 -1.473367E+03 -1.824752E+05 -2.112438E-10  1.273064E-10
       290  14 -4.345325E+05 -7.124871E+04 -9.179587E+02 -1.764836E+05  2.353572E-10  1.453798E-10
       290  15 -4.293293E+05 -7.648501E+04 -7.085821E+02 -1.824839E+05  2.355271E-10  1.330241E-10
       290  16 -2.563166E+05 -1.217597E+04  4.050663E+04 -1.350784E+05  9.635079E-11  2.712843E-10
       290  17 -2.932100E+05 -1.867989E+04  3.346290E+04 -1.377732E+05  4.433834E-10  1.010766E-10
       290  18 -3.197027E+05 -3.568255E+04  2.607535E+04 -1.524593E+05  1.337012E-10  1.756991E-10
       290  19 -6.023252E+05 -1.408452E+05 -4.345517E+04 -2.298597E+05  2.939727E+03 -9.497958E+03
       290  20 -5.758350E+05 -1.238160E+05 -3.530009E+04 -2.151859E+05  1.785426E+03 -7.821279E+03
       290  21 -5.389440E+05 -1.172866E+05 -2.749334E+04 -2.125037E+05  6.301133E+02 -6.140743E+03
       290  22 -4.293361E+05 -7.651173E+04 -1.473180E+03 -1.824752E+05  4.474726E+03 -8.921902E+03
       290  23 -4.345325E+05 -7.124865E+04 -9.178393E+02 -1.764836E+05  3.323494E+03 -7.244239E+03
       290  24 -4.293293E+05 -7.648498E+04 -7.085151E+02 -1.824839E+05  2.171280E+03 -5.562717E+03
       290  25 -2.563166E+05 -1.217588E+04  4.050683E+04 -1.350785E+05  6.010198E+03 -8.345669E+03
       290  26 -2.932099E+05 -1.867984E+04  3.346302E+04 -1.377732E+05  4.861947E+03 -6.667055E+03
       290  27 -3.197027E+05 -3.568252E+04  2.607542E+04 -1.524593E+05  3.712744E+03 -4.984579E+03
       291   1 -5.114718E+05 -1.070436E+05 -2.058033E+04 -2.050114E+05 -1.064622E+02  5.105009E+03
       291   2 -4.848960E+05 -8.999150E+04 -1.313737E+04 -1.902919E+05  1.028648E+03  3.412859E+03
       291   3 -4.478986E+05 -8.346570E+04 -6.028705E+03 -1.876017E+05  2.163737E+03  1.720330E+03
       291   4 -4.293234E+05 -7.649147E+04 -7.025944E+02 -1.824915E+05 -1.648995E+03  4.526547E+03
       291   5 -4.345341E+05 -7.123412E+04 -8.799718E+02 -1.764744E+05 -5.141814E+02  2.834348E+03
       291   6 -4.293242E+05 -7.650308E+04 -1.391372E+03 -1.824869E+05  6.205882E+02  1.141761E+03
       291   7 -3.471686E+05 -4.593900E+04  1.917455E+04 -1.599691E+05 -3.191743E+03  3.948004E+03
       291   8 -3.841697E+05 -5.247655E+04  1.137725E+04 -1.626558E+05 -2.057148E+03  2.255785E+03
       291   9 -4.107494E+05 -6.954040E+04  3.245970E+03 -1.773719E+05 -9.226183E+02  5.631711E+02
       291  10 -5.114718E+05 -1.070436E+05 -2.058038E+04 -2.050114E+05 -1.326338E-10 -2.123650E-11
       291  11 -4.848960E+05 -8.999152E+04 -1.313740E+04 -1.902919E+05 -1.012084E-10 -3.348846E-11
       291  12 -4.478986E+05 -8.346571E+04 -6.028719E+03 -1.876017E+05 -6.459438E-12 -1.373558E-10
       291  13 -4.293234E+05 -7.649149E+04 -7.026380E+02 -1.824915E+05  1.357836E-10 -5.703348E-11
       291  14 -4.345341E+05 -7.123412E+04 -8.799874E+02 -1.764744E+05 -5.218813E-10 -1.644176E-10
       291  15 -4.293242E+05 -7.650308E+04 -1.391375E+03 -1.824869E+05 -4.384053E-10 -1.356925E-10
       291  16 -3.471686E+05 -4.593902E+04  1.917450E+04 -1.599691E+05 -9.630251E-12  2.573482E-12
       291  17 -3.841697E+05 -5.247656E+04  1.137723E+04 -1.626558E+05  7.527938E-11 -1.145712E-10
       291  18 -4.107494E+05 -6.954040E+04  3.245967E+03 -1.773719E+05 -1.077730E-10 -1.717518E-10
       291  19 -5.114718E+05 -1.070436E+05 -2.058033E+04 -2.050114E+05  1.064622E+02 -5.105009E+03
       291  20 -4.848960E+05 -8.999150E+04 -1.313737E+04 -1.902919E+05 -1.028648E+03 -3.412859E+03
       291  21 -4.478986E+05 -8.346570E+04 -6.028705E+03 -1.876017E+05 -2.163737E+03 -1.720330E+03
       291  22 -4.293234E+05 -7.649147E+04 -7.025944E+02 -1.824915E+05  1.648995E+03 -4.526547E+03
       291  23 -4.345341E+05 -7.123412E+04 -8.799718E+02 -1.764744E+05  5.141814E+02 -2.834348E+03
       291  24 -4.293242E+05 -7.650308E+04 -1.391372E+03 -1.824869E+05 -6.205882E+02 -1.141761E+03
       291  25 -3.471686E+05 -4.593900E+04  1.917455E+04 -1.599691E+05  3.191743E+03 -3.948004E+03
       291  26 -3.841697E+05 -5.247655E+04  1.137725E+04 -1.626558E+05  2.057148E+03 -2.255785E+03
       291  27 -4.107494E+05 -6.954040E+04  3.245970E+03 -1.773719E+05  9.226183E+02 -5.631711E+02
       292   1 -4.203917E+05 -7.321736E+04  4.821914E+02 -1.801789E+05  2.837378E+03  7.375381E+02
       292   2 -3.937306E+05 -5.609100E+04  6.735680E+03 -1.653644E+05  5.104728E+03 -5.277746E+02
       292   3 -3.569491E+05 -4.991485E+04  1.170168E+04 -1.625267E+05  7.366367E+03 -1.777386E+03
       292   4 -4.293739E+05 -7.647238E+04 -1.796810E+03 -1.825222E+05  1.289605E+03  1.572385E+02
       292   5 -4.344599E+05 -7.118634E+04 -3.165193E+03 -1.764626E+05  3.569834E+03 -1.103296E+03
       292   6 -4.294289E+05 -7.685316E+04 -5.831291E+03 -1.823800E+05  5.844260E+03 -2.348157E+03
       292   7 -4.383561E+05 -7.972739E+04 -4.075807E+03 -1.848655E+05 -2.581435E+02 -4.230525E+02
       292   8 -4.751875E+05 -8.628152E+04 -1.306615E+04 -1.875600E+05  2.035054E+03 -1.678776E+03
       292   9 -5.019031E+05 -1.037910E+05 -2.336454E+04 -2.022312E+05  4.322355E+03 -2.918854E+03
       292  10 -4.203917E+05 -7.321736E+04  4.821753E+02 -1.801789E+05  3.727862E-10 -4.693151E-11
       292  11 -3.937307E+05 -5.609101E+04  6.735630E+03 -1.653644E+05  1.753265E-10 -1.146841E-11
       292  12 -3.569491E+05 -4.991487E+04  1.170157E+04 -1.625267E+05 -1.524667E-11  1.419575E-10
       292  13 -4.293739E+05 -7.647238E+04 -1.796813E+03 -1.825222E+05  2.040803E-11 -3.704747E-11
       292  14 -4.344599E+05 -7.118634E+04 -3.165219E+03 -1.764626E+05 -2.623387E-10 -3.063033E-12
       292  15 -4.294289E+05 -7.685318E+04 -5.831365E+03 -1.823800E+05 -1.538612E-10  1.380077E-10
       292  16 -4.383561E+05 -7.972739E+04 -4.075807E+03 -1.848655E+05 -1.165304E-10 -1.115760E-10
       292  17 -4.751875E+05 -8.628153E+04 -1.306616E+04 -1.875600E+05 -8.313160E-11 -7.872076E-11
       292  18 -5.019032E+05 -1.037910E+05 -2.336459E+04 -2.022312E+05  1.212820E-10  1.698331E-10
       292  19 -4.203917E+05 -7.321736E+04  4.821914E+02 -1.801789E+05 -2.837378E+03 -7.375381E+02
       292  20 -3.937306E+05 -5.609100E+04  6.735680E+03 -1.653644E+05 -5.104728E+03  5.277746E+02
       292  21 -3.569491E+05 -4.991485E+04  1.170168E+04 -1.625267E+05 -7.366367E+03  1.777386E+03
       292  22 -4.293739E+05 -7.647238E+04 -1.796810E+03 -1.825222E+05 -1.289605E+03 -1.572385E+02
       292  23 -4.344599E+05 -7.118634E+04 -3.165193E+03 -1.764626E+05 -3.569834E+03  1.103296E+03
       292  24 -4.294289E+05 -7.685316E+04 -5.831291E+03 -1.823800E+05 -5.844260E+03  2.348157E+03
       292  25 -4.383561E+05 -7.972739E+04 -4.075807E+03 -1.848655E+05  2.581435E+02  4.230525E+02
       292  26 -4.751875E+05 -8.628152E+04 -1.306615E+04 -1.875600E+05 -2.035054E+03  1.678776E+03
       292  27 -5.019031E+05 -1.037910E+05 -2.336454E+04 -2.022312E+05 -4.322355E+03  2.918854E+03
       293   1 -3.290577E+05 -3.982081E+04  1.677388E+04 -1.563804E+05  8.962574E+03 -2.449353E+03
       293   2 -3.025845E+05 -2.144019E+04  1.832500E+04 -1.397979E+05  1.634344E+04 -1.715633E+03
       293   3 -2.690445E+05 -2.030880E+04  1.305289E+04 -1.336986E+05  2.359984E+04 -6.477155E+02
       293   4 -4.298308E+05 -7.620767E+04 -7.649919E+03 -1.828202E+05  7.340966E+03 -3.057487E+03
       293   5 -4.338010E+05 -7.084357E+04 -1.373632E+04 -1.763458E+05  1.499784E+04 -2.220455E+03
       293   6 -4.307616E+05 -8.278516E+04 -2.686618E+04 -1.803556E+05  2.252987E+04 -1.049365E+03
       293   7 -5.305943E+05 -1.125942E+05 -3.207460E+04 -2.092563E+05  5.719636E+03 -3.665524E+03
       293   8 -5.650008E+05 -1.202458E+05 -4.579903E+04 -2.128868E+05  1.365255E+04 -2.725158E+03
       293   9 -5.924528E+05 -1.452592E+05 -6.678725E+04 -2.270012E+05  2.146020E+04 -1.450892E+03
       293  10 -3.290578E+05 -3.982084E+04  1.677372E+04 -1.563803E+05  8.506061E-11  4.032877E-11
       293  11 -3.025848E+05 -2.144027E+04  1.832449E+04 -1.397979E+05 -1.104706E-10 -6.864375E-11
       293  12 -2.690451E+05 -2.030895E+04  1.305184E+04 -1.336986E+05 -5.342387E-11 -1.528219E-10
       293  13 -4.298308E+05 -7.620770E+04 -7.650038E+03 -1.828202E+05  9.048789E-11  1.239299E-10
       293  14 -4.338012E+05 -7.084363E+04 -1.373675E+04 -1.763458E+05  5.285542E-11  1.407546E-11
       293  15 -4.307621E+05 -8.278530E+04 -2.686713E+04 -1.803555E+05  4.532711E-11 -9.386792E-11
       293  16 -5.305943E+05 -1.125942E+05 -3.207468E+04 -2.092563E+05  1.847475E-10  7.791837E-11
       293  17 -5.650010E+05 -1.202458E+05 -4.579939E+04 -2.128867E+05  3.561128E-10  1.175883E-10
       293  18 -5.924533E+05 -1.452593E+05 -6.678812E+04 -2.270012E+05  1.156766E-12  7.820111E-11
       293  19 -3.290577E+05 -3.982081E+04  1.677388E+04 -1.563804E+05 -8.962574E+03  2.449353E+03
       293  20 -3.025845E+05 -2.144019E+04  1.832500E+04 -1.397979E+05 -1.634344E+04  1.715633E+03
       293  21 -2.690445E+05 -2.030880E+04  1.305289E+04 -1.336986E+05 -2.359984E+04  6.477155E+02
       293  22 -4.298308E+05 -7.620767E+04 -7.649919E+03 -1.828202E+05 -7.340966E+03  3.057487E+03
       293  23 -4.338010E+05 -7.084357E+04 -1.373632E+04 -1.763458E+05 -1.499784E+04  2.220455E+03
       293  24 -4.307616E+05 -8.278516E+04 -2.686618E+04 -1.803556E+05 -2.252987E+04  1.049365E+03
       293  25 -5.305943E+05 -1.125942E+05 -3.207460E+04 -2.092563E+05 -5.719636E+03  3.665524E+03
       293  26 -5.650008E+05 -1.202458E+05 -4.579903E+04 -2.128868E+05 -1.365255E+04  2.725158E+03
       293  27 -5.924528E+05 -1.452592E+05 -6.678725E+04 -2.270012E+05 -2.146020E+04  1.450892E+03
       294   1 -2.333140E+05 -1.205000E+04  1.256543E+04 -1.470551E+05  3.085854E+04 -1.707165E+00
       294   2 -2.152569E+05  2.692909E+04 -4.511496E+03 -1.009335E+05  5.677079E+04  9.390394E+03
       294   3 -2.293245E+05 -4.794365E+04 -6.918124E+04 -3.965327E+04  7.993498E+04  2.611048E+04
       294   4 -4.351638E+05 -7.210610E+04 -3.381938E+04 -1.868168E+05  2.756608E+04 -1.236350E+03
       294   5 -4.259073E+05 -6.712266E+04 -5.928183E+04 -1.746789E+05  5.955703E+04  1.043396E+04
       294   6 -4.499981E+05 -1.772234E+05 -1.371680E+05 -1.473803E+05  8.879854E+04  2.942992E+04
       294   7 -6.369730E+05 -1.321624E+05 -8.020667E+04 -2.265684E+05  2.427478E+04 -2.470754E+03
       294   8 -6.365115E+05 -1.611649E+05 -1.140553E+05 -2.483990E+05  6.234223E+04  1.147695E+04
       294   9 -6.706156E+05 -3.064731E+05 -2.051578E+05 -2.550643E+05  9.765854E+04  3.274636E+04
       294  10 -2.333151E+05 -1.205026E+04  1.256364E+04 -1.470551E+05 -2.614352E-10 -2.267798E-11
       294  11 -2.152604E+05  2.692813E+04 -4.517721E+03 -1.009340E+05 -4.272289E-10  9.122226E-11
       294  12 -2.293316E+05 -4.794610E+04 -6.919454E+04 -3.965495E+04 -2.605714E-10 -6.828435E-12
       294  13 -4.351646E+05 -7.210631E+04 -3.382081E+04 -1.868168E+05  3.874074E-12 -8.348362E-11
       294  14 -4.259111E+05 -6.712374E+04 -5.928871E+04 -1.746794E+05  9.218063E-11  1.235598E-10
       294  15 -4.500069E+05 -1.772264E+05 -1.371845E+05 -1.473824E+05  1.288847E-11 -8.148588E-11
       294  16 -6.369736E+05 -1.321626E+05 -8.020779E+04 -2.265683E+05  3.220546E-10  1.855959E-11
       294  17 -6.365157E+05 -1.611661E+05 -1.140629E+05 -2.483996E+05  6.748318E-10  6.250997E-11
       294  18 -6.706262E+05 -3.064768E+05 -2.051777E+05 -2.550668E+05  2.441684E-10  6.434349E-11
       294  19 -2.333140E+05 -1.205000E+04  1.256543E+04 -1.470551E+05 -3.085854E+04  1.707165E+00
       294  20 -2.152569E+05  2.692909E+04 -4.511496E+03 -1.009335E+05 -5.677079E+04 -9.390394E+03
       294  21 -2.293245E+05 -4.794365E+04 -6.918124E+04 -3.965327E+04 -7.993498E+04 -2.611048E+04
       294  22 -4.351638E+05 -7.210610E+04 -3.381938E+04 -1.868168E+05 -2.756608E+04  1.236350E+03
       294  23 -4.259073E+05 -6.712266E+04 -5.928183E+04 -1.746789E+05 -5.955703E+04 -1.043396E+04
       294  24 -4.499981E+05 -1.772234E+05 -1.371680E+05 -1.473803E+05 -8.879854E+04 -2.942992E+04
       294  25 -6.369730E+05 -1.321624E+05 -8.020667E+04 -2.265684E+05 -2.427478E+04  2.470754E+03
       294  26 -6.365115E+05 -1.611649E+05 -1.140553E+05 -2.483990E+05 -6.234223E+04 -1.147695E+04
       294  27 -6.706156E+05 -3.064731E+05 -2.051578E+05 -2.550643E+05 -9.765854E+04 -3.274636E+04
       295   1 -5.435254E+05 -1.381683E+05 -1.129946E+05 -1.485792E+04  4.537369E+04  1.211506E+04
       295   2 -4.612947E+05 -2.079337E+05 -1.370615E+05 -2.450853E+04  3.958631E+04  3.767042E+04
       295   3 -3.556993E+05 -1.885540E+05 -1.350114E+05 -7.301043E+04  3.381421E+04  3.852547E+04
       295   4  3.966374E+05  9.542061E+04  1.150704E+05 -5.916067E+04  7.909741E+04  1.213197E+04
       295   5  3.831034E+05 -1.185241E+03  5.227900E+04 -3.971581E+04  5.135775E+04  3.767002E+04
       295   6  3.967007E+05 -4.903648E+03  3.081582E+04 -5.911665E+04  2.363570E+04  3.852226E+04
       295   7  1.337614E+06  3.289527E+05  3.430769E+05 -1.035308E+05  1.128720E+05  1.214405E+04
       295   8  1.228166E+06  2.055156E+05  2.415750E+05 -5.494404E+04  6.314500E+04  3.766903E+04
       295   9  1.149631E+06  1.787095E+05  1.966087E+05 -4.520580E+04  1.344497E+04  3.851860E+04
       295  10 -5.435276E+05 -1.381690E+05 -1.129987E+05 -1.485836E+04  2.762213E-11  1.390432E-10
       295  11 -4.612968E+05 -2.079357E+05 -1.370671E+05 -2.450974E+04  1.145301E-10  1.408306E-11
       295  12 -3.557009E+05 -1.885559E+05 -1.350163E+05 -7.301148E+04 -1.194086E-10 -2.290806E-10
       295  13  3.966306E+05  9.541878E+04  1.150584E+05 -5.916144E+04  3.730657E-10 -1.162828E-10
       295  14  3.831002E+05 -1.187472E+03  5.227138E+04 -3.971737E+04  5.497862E-10  2.128305E-11
       295  15  3.966997E+05 -4.905392E+03  3.081198E+04 -5.911738E+04  9.713793E-11 -1.414846E-10
       295  16  1.337601E+06  3.289492E+05  3.430528E+05 -1.035319E+05  4.937263E-10  3.332549E-10
       295  17  1.228162E+06  2.055130E+05  2.415649E+05 -5.494596E+04 -3.290860E-11  6.169959E-13
       295  18  1.149630E+06  1.787078E+05  1.966056E+05 -4.520622E+04 -2.117274E-10 -5.490320E-11
       295  19 -5.435254E+05 -1.381683E+05 -1.129946E+05 -1.485792E+04 -4.537369E+04 -1.211506E+04
       295  20 -4.612947E+05 -2.079337E+05 -1.370615E+05 -2.450853E+04 -3.958631E+04 -3.767042E+04
       295  21 -3.556993E+05 -1.885540E+05 -1.350114E+05 -7.301043E+04 -3.381421E+04 -3.852547E+04
       295  22  3.966374E+05  9.542061E+04  1.150704E+05 -5.916067E+04 -7.909741E+04 -1.213197E+04
       295  23  3.831034E+05 -1.185241E+03  5.227900E+04 -3.971581E+04 -5.135775E+04 -3.767002E+04
       295  24  3.967007E+05 -4.903648E+03  3.081582E+04 -5.911665E+04 -2.363570E+04 -3.852226E+04
       295  25  1.337614E+06  3.289527E+05  3.430769E+05 -1.035308E+05 -1.128720E+05 -1.214405E+04
       295  26  1.228166E+06  2.055156E+05  2.415750E+05 -5.494404E+04 -6.314500E+04 -3.766903E+04
       295  27  1.149631E+06  1.787095E+05  1.966087E+05 -4.520580E+04 -1.344497E+04 -3.851860E+04
       296   1 -2.831917E+05 -1.594056E+05 -1.248545E+05 -5.739002E+04  2.214792E+04  3.322551E+04
       296   2 -1.910803E+05 -1.421264E+05 -1.150424E+05 -3.893985E+04  1.647721E+04  2.938657E+04
       296   3 -9.676454E+04 -1.194545E+05 -1.001635E+05 -6.015156E+04  1.080186E+04  2.445252E+04
       296   4  3.912182E+05  5.349864E+03  2.453110E+04 -5.930765E+04  1.923961E+04  3.322309E+04
       296   5  3.900541E+05 -2.531533E+02  1.323605E+04 -3.947866E+04  1.258998E+04  2.938561E+04
       296   6  3.912518E+05 -2.968661E+02  7.682718E+03 -5.930903E+04  5.936517E+03  2.445351E+04
       296   7  1.066053E+06  1.700747E+05  1.738886E+05 -6.122736E+04  1.632817E+04  3.322068E+04
       296   8  9.715040E+05  1.415974E+05  1.414937E+05 -4.001794E+04  8.699142E+03  2.938465E+04
       296   9  8.794906E+05  1.188448E+05  1.155143E+05 -5.846579E+04  1.067397E+03  2.445447E+04
       296  10 -2.831925E+05 -1.594070E+05 -1.248575E+05 -5.739062E+04 -1.750815E-10 -2.839340E-10
       296  11 -1.910808E+05 -1.421274E+05 -1.150445E+05 -3.894024E+04 -5.620233E-10 -1.568929E-10
       296  12 -9.676483E+04 -1.194552E+05 -1.001648E+05 -6.015177E+04 -4.260164E-10  3.455739E-10
       296  13  3.912175E+05  5.348579E+03  2.452833E+04 -5.930816E+04 -8.801420E-10 -1.907159E-10
       296  14  3.900537E+05 -2.541233E+02  1.323413E+04 -3.947895E+04  3.230893E-10 -2.800206E-10
       296  15  3.912516E+05 -2.975178E+02  7.681528E+03 -5.930914E+04 -5.643904E-10  2.440676E-10
       296  16  1.066052E+06  1.700735E+05  1.738860E+05 -6.122779E+04  7.071063E-10 -1.260622E-10
       296  17  9.715037E+05  1.415964E+05  1.414920E+05 -4.001814E+04  7.761796E-11 -1.866261E-10
       296  18  8.794905E+05  1.188441E+05  1.155132E+05 -5.846581E+04 -1.804648E-10 -1.086439E-10
       296  19 -2.831917E+05 -1.594056E+05 -1.248545E+05 -5.739002E+04 -2.214792E+04 -3.322551E+04
       296  20 -1.910803E+05 -1.421264E+05 -1.150424E+05 -3.893985E+04 -1.647721E+04 -2.938657E+04
       296  21 -9.676454E+04 -1.194545E+05 -1.001635E+05 -6.015156E+04 -1.080186E+04 -2.445252E+04
       296  22  3.912182E+05  5.349864E+03  2.453110E+04 -5.930765E+04 -1.923961E+04 -3.322309E+04
       296  23  3.900541E+05 -2.531533E+02  1.323605E+04 -3.947866E+04 -1.258998E+04 -2.938561E+04
       296  24  3.912518E+05 -2.968661E+02  7.682718E+03 -5.930903E+04 -5.936517E+03 -2.445351E+04
       296  25  1.066053E+06  1.700747E+05  1.738886E+05 -6.122736E+04 -1.632817E+04 -3.322068E+04
       296  26  9.715040E+05  1.415974E+05  1.414937E+05 -4.001794E+04 -8.699142E+03 -2.938465E+04
       296  27  8.794906E+05  1.188448E+05  1.155143E+05 -5.846579E+04 -1.067397E+03 -2.445447E+04
       297   1 -2.001763E+04 -9.993221E+04 -8.444957E+04 -5.920086E+04  9.274922E+03  2.132549E+04
       297   2  7.276869E+04 -7.760225E+04 -6.670402E+04 -3.944079E+04  7.634589E+03  1.619204E+04
       297   3  1.658508E+05 -5.489812E+04 -4.780207E+04 -5.926073E+04  5.991840E+03  1.101325E+04
       297   4  3.908081E+05  2.884240E+02  5.905140E+03 -5.929067E+04  4.737751E+03  2.132707E+04
       297   5  3.906697E+05 -1.930302E+01  3.387556E+03 -3.950139E+04  3.055822E+03  1.619449E+04
       297   6  3.908257E+05  5.464485E+01  2.054806E+03 -5.929088E+04  1.371716E+03  1.101662E+04
       297   7  8.017917E+05  1.004978E+05  9.624961E+04 -5.938051E+04  1.976134E+02  2.132865E+04
       297   8  7.086651E+05  7.755687E+04  7.347300E+04 -3.956200E+04 -1.525262E+03  1.619695E+04
       297   9  6.158479E+05  5.500400E+04  5.190863E+04 -5.932104E+04 -3.250062E+03  1.101999E+04
       297  10 -2.001784E+04 -9.993272E+04 -8.445059E+04 -5.920102E+04  2.142966E-10  1.180215E-10
       297  11  7.276856E+04 -7.760255E+04 -6.670462E+04 -3.944089E+04 -1.564061E-10  1.987266E-12
       297  12  1.658507E+05 -5.489826E+04 -4.780237E+04 -5.926078E+04 -7.017119E-11 -4.837596E-10
       297  13  3.908080E+05  2.879294E+02  5.904243E+03 -5.929075E+04 -2.524241E-10  1.857586E-10
       297  14  3.906696E+05 -1.958720E+01  3.387045E+03 -3.950143E+04 -6.275334E-10  4.228994E-10
       297  15  3.908257E+05  5.451399E+01  2.054575E+03 -5.929089E+04 -7.586613E-10  4.254171E-10
       297  16  8.017916E+05  1.004973E+05  9.624876E+04 -5.938051E+04 -5.464925E-10 -8.652575E-12
       297  17  7.086650E+05  7.755659E+04  7.347250E+04 -3.956198E+04 -1.026572E-10 -3.126240E-10
       297  18  6.158478E+05  5.500387E+04  5.190838E+04 -5.932101E+04 -2.917580E-10 -3.450782E-10
       297  19 -2.001763E+04 -9.993221E+04 -8.444957E+04 -5.920086E+04 -9.274922E+03 -2.132549E+04
       297  20  7.276869E+04 -7.760225E+04 -6.670402E+04 -3.944079E+04 -7.634589E+03 -1.619204E+04
       297  21  1.658508E+05 -5.489812E+04 -4.780207E+04 -5.926073E+04 -5.991840E+03 -1.101325E+04
       297  22  3.908081E+05  2.884240E+02  5.905140E+03 -5.929067E+04 -4.737751E+03 -2.132707E+04
       297  23  3.906697E+05 -1.930302E+01  3.387556E+03 -3.950139E+04 -3.055822E+03 -1.619449E+04
       297  24  3.908257E+05  5.464485E+01  2.054806E+03 -5.929088E+04 -1.371716E+03 -1.101662E+04
       297  25  8.017917E+05  1.004978E+05  9.624961E+04 -5.938051E+04 -1.976134E+02 -2.132865E+04
       297  26  7.086651E+05  7.755687E+04  7.347300E+04 -3.956200E+04  1.525262E+03 -1.619695E+04
       297  27  6.158479E+05  5.500400E+04  5.190863E+04 -5.932104E+04  3.250062E+03 -1.101999E+04
       298   1  2.428131E+05 -3.596759E+04 -3.071123E+04 -5.923787E+04  5.639210E+03  7.989396E+03
       298   2  3.356283E+05 -1.340699E+04 -1.098052E+04 -3.950147E+04  5.057419E+03  2.805884E+03
       298   3  4.284732E+05  9.231106E+03  9.130041E+03 -5.929456E+04  4.475177E+03 -2.379114E+03
       298   4  3.907720E+05  8.492784E+01  1.643957E+03 -5.927982E+04  1.035045E+03  7.993076E+03
       298   5  3.907618E+05  4.591649E+01  1.172671E+03 -3.951519E+04  4.515486E+02  2.809700E+03
       298   6  3.907750E+05  8.553750E+01  1.082995E+03 -5.927983E+04 -1.323145E+02 -2.375129E+03
       298   7  5.387514E+05  3.613600E+04  3.399789E+04 -5.932178E+04 -3.570203E+03  7.996755E+03
       298   8  4.458983E+05  1.349863E+04  1.332576E+04 -3.952891E+04 -4.154726E+03  2.813516E+03
       298   9  3.530782E+05 -9.060112E+03 -6.964054E+03 -5.926511E+04 -4.739531E+03 -2.371145E+03
       298  10  2.428131E+05 -3.596766E+04 -3.071141E+04 -5.923791E+04 -3.799715E-10 -1.188341E-10
       298  11  3.356282E+05 -1.340700E+04 -1.098059E+04 -3.950149E+04  1.121527E-11  8.777392E-11
       298  12  4.284732E+05  9.231094E+03  9.129992E+03 -5.929455E+04  2.359623E-10  1.594449E-10
       298  13  3.907720E+05  8.485893E+01  1.643835E+03 -5.927983E+04 -8.792379E-10 -6.975091E-10
       298  14  3.907618E+05  4.590795E+01  1.172655E+03 -3.951519E+04 -1.398482E-10  2.230840E-10
       298  15  3.907750E+05  8.553144E+01  1.082984E+03 -5.927983E+04 -2.815604E-10 -2.080651E-10
       298  16  5.387514E+05  3.613592E+04  3.399775E+04 -5.932175E+04 -7.308576E-10 -8.752947E-11
       298  17  4.458983E+05  1.349862E+04  1.332571E+04 -3.952890E+04 -7.249131E-10 -1.041457E-10
       298  18  3.530782E+05 -9.060124E+03 -6.964107E+03 -5.926512E+04 -8.139763E-10 -5.894834E-10
       298  19  2.428131E+05 -3.596759E+04 -3.071123E+04 -5.923787E+04 -5.639210E+03 -7.989396E+03
       298  20  3.356283E+05 -1.340699E+04 -1.098052E+04 -3.950147E+04 -5.057419E+03 -2.805884E+03
       298  21  4.284732E+05  9.231106E+03  9.130041E+03 -5.929456E+04 -4.475177E+03  2.379114E+03
       298  22  3.907720E+05  8.492784E+01  1.643957E+03 -5.927982E+04 -1.035045E+03 -7.993076E+03
       298  23  3.907618E+05  4.591649E+01  1.172671E+03 -3.951519E+04 -4.515486E+02 -2.809700E+03
       298  24  3.907750E+05  8.553750E+01  1.082995E+03 -5.927983E+04  1.323145E+02  2.375129E+03
       298  25  5.387514E+05  3.613600E+04  3.399789E+04 -5.932178E+04  3.570203E+03 -7.996755E+03
       298  26  4.458983E+05  1.349863E+04  1.332576E+04 -3.952891E+04  4.154726E+03 -2.813516E+03
       298  27  3.530782E+05 -9.060112E+03 -6.964054E+03 -5.926511E+04  4.739531E+03  2.371145E+03
       299   1  5.054883E+05  2.812284E+04  2.670710E+04 -5.934139E+04  4.269502E+03 -5.397392E+03
       299   2  5.983408E+05  5.067379E+04  4.735515E+04 -3.957247E+04  3.473774E+03 -1.058327E+04
       299   3  6.912777E+05  7.331392E+04  6.852988E+04 -5.935146E+04  2.679330E+03 -1.576924E+04
       299   4  3.907838E+05  8.483093E+01  1.163723E+03 -5.928415E+04 -3.391438E+02 -5.393537E+03
       299   5  3.907407E+05  2.631349E+01  1.601232E+03 -3.950979E+04 -1.135062E+03 -1.058001E+04
       299   6  3.907725E+05  5.721353E+01  2.565627E+03 -5.928414E+04 -1.929581E+03 -1.576652E+04
       299   7  2.760916E+05 -2.795406E+04 -2.438040E+04 -5.922692E+04 -4.946948E+03 -5.389683E+03
       299   8  1.831808E+05 -5.062404E+04 -4.415525E+04 -3.944713E+04 -5.742377E+03 -1.057674E+04
       299   9  9.035169E+04 -7.320552E+04 -6.340405E+04 -5.921684E+04 -6.536291E+03 -1.576381E+04
       299  10  5.054883E+05  2.812280E+04  2.670701E+04 -5.934137E+04 -3.406886E-10  6.058713E-10
       299  11  5.983408E+05  5.067366E+04  4.735492E+04 -3.957244E+04  9.085053E-11  8.326918E-10
       299  12  6.912776E+05  7.331365E+04  6.852940E+04 -5.935142E+04  6.950598E-10 -6.040664E-10
       299  13  3.907838E+05  8.479965E+01  1.163668E+03 -5.928415E+04 -3.767045E-10  4.743505E-11
       299  14  3.907406E+05  2.619292E+01  1.601020E+03 -3.950980E+04 -5.203486E-10 -5.655625E-10
       299  15  3.907724E+05  5.694554E+01  2.565153E+03 -5.928417E+04 -2.489621E-10 -1.311761E-11
       299  16  2.760916E+05 -2.795410E+04 -2.438050E+04 -5.922695E+04 -1.920017E-10  6.077575E-12
       299  17  1.831807E+05 -5.062417E+04 -4.415552E+04 -3.944718E+04 -5.761669E-10 -4.395594E-10
       299  18  9.035157E+04 -7.320580E+04 -6.340460E+04 -5.921693E+04 -1.677215E-09 -1.313334E-10
       299  19  5.054883E+05  2.812284E+04  2.670710E+04 -5.934139E+04 -4.269502E+03  5.397392E+03
       299  20  5.983408E+05  5.067379E+04  4.735515E+04 -3.957247E+04 -3.473774E+03  1.058327E+04
       299  21  6.912777E+05  7.331392E+04  6.852988E+04 -5.935146E+04 -2.679330E+03  1.576924E+04
       299  22  3.907838E+05  8.483093E+01  1.163723E+03 -5.928415E+04  3.391438E+02  5.393537E+03
       299  23  3.907407E+05  2.631349E+01  1.601232E+03 -3.950979E+04  1.135062E+03  1.058001E+04
       299  24  3.907725E+05  5.721353E+01  2.565627E+03 -5.928414E+04  1.929581E+03  1.576652E+04
       299  25  2.760916E+05 -2.795406E+04 -2.438040E+04 -5.922692E+04  4.946948E+03  5.389683E+03
       299  26  1.831808E+05 -5.062404E+04 -4.415525E+04 -3.944713E+04  5.742377E+03  1.057674E+04
       299  27  9.035169E+04 -7.320552E+04 -6.340405E+04 -5.921684E+04  6.536291E+03  1.576381E+04
       300   1  7.685081E+05  9.218024E+04  8.679799E+04 -5.930231E+04  2.166586E+03 -1.879607E+04
       300   2  8.613471E+05  1.147431E+05  1.093935E+05 -3.947819E+04 -6.849448E+02 -2.397787E+04
       300   3  9.547622E+05  1.379185E+05  1.340044E+05 -5.929300E+04 -3.533692E+03 -2.910879E+04
       300   4  3.908684E+05  6.384272E+00  3.316699E+03 -5.930467E+04 -2.462566E+03 -1.879392E+04
       300   5  3.905751E+05 -9.249169E+01  5.648116E+03 -3.948414E+04 -5.267259E+03 -2.397706E+04
       300   6  3.908423E+05  4.140095E+02  9.964010E+03 -5.930440E+04 -8.068752E+03 -2.910927E+04
       300   7  1.336183E+04 -9.217706E+04 -8.017332E+04 -5.930700E+04 -7.088938E+03 -1.879178E+04
       300   8 -7.998991E+04 -1.149429E+05 -9.811078E+04 -3.949007E+04 -9.846143E+03 -2.397625E+04
       300   9 -1.727806E+05 -1.371117E+05 -1.140958E+05 -5.931574E+04 -1.259974E+04 -2.910974E+04
       300  10  7.685080E+05  9.217986E+04  8.679732E+04 -5.930228E+04 -2.198057E-10 -5.413057E-10
       300  11  8.613470E+05  1.147425E+05  1.093924E+05 -3.947820E+04  1.321288E-10  1.083354E-10
       300  12  9.547620E+05  1.379175E+05  1.340028E+05 -5.929309E+04 -5.908754E-10  2.325273E-10
       300  13  3.908683E+05  6.003282E+00  3.316023E+03 -5.930471E+04 -1.175713E-09  7.120144E-11
       300  14  3.905750E+05 -9.311660E+01  5.646983E+03 -3.948425E+04 -5.017441E-10  4.670677E-11
       300  15  3.908420E+05  4.130820E+02  9.962295E+03 -5.930459E+04  6.207271E-11 -4.513217E-11
       300  16  1.336168E+04 -9.217745E+04 -8.017408E+04 -5.930711E+04 -5.169210E-10  1.160209E-10
       300  17 -7.999017E+04 -1.149436E+05 -9.811205E+04 -3.949026E+04 -6.350790E-10  8.986584E-10
       300  18 -1.727810E+05 -1.371127E+05 -1.140977E+05 -5.931604E+04  2.786788E-10  3.485466E-10
       300  19  7.685081E+05  9.218024E+04  8.679799E+04 -5.930231E+04 -2.166586E+03  1.879607E+04
       300  20  8.613471E+05  1.147431E+05  1.093935E+05 -3.947819E+04  6.849448E+02  2.397787E+04
       300  21  9.547622E+05  1.379185E+05  1.340044E+05 -5.929300E+04  3.533692E+03  2.910879E+04
       300  22  3.908684E+05  6.384272E+00  3.316699E+03 -5.930467E+04  2.462566E+03  1.879392E+04
       300  23  3.905751E+05 -9.249169E+01  5.648116E+03 -3.948414E+04  5.267259E+03  2.397706E+04
       300  24  3.908423E+05  4.140095E+02  9.964010E+03 -5.930440E+04  8.068752E+03  2.910927E+04
       300  25  1.336183E+04 -9.217706E+04 -8.017332E+04 -5.930700E+04  7.088938E+03  1.879178E+04
       300  26 -7.998991E+04 -1.149429E+05 -9.811078E+04 -3.949007E+04  9.846143E+03  2.397625E+04
       300  27 -1.727806E+05 -1.371117E+05 -1.140958E+05 -5.931574E+04  1.259974E+04  2.910974E+04
       301   1  1.032943E+06  1.558978E+05  1.545470E+05 -5.769372E+04 -5.175269E+03 -3.225704E+04
       301   2  1.124364E+06  1.787820E+05  1.844931E+05 -4.013498E+04 -1.758690E+04 -3.716006E+04
       301   3  1.220012E+06  2.112507E+05  2.249512E+05 -6.233303E+04 -2.999605E+04 -4.079894E+04
       301   4  3.915922E+05 -5.772231E+02  1.299186E+04 -5.933057E+04 -1.009139E+04 -3.225847E+04
       301   5  3.895555E+05 -4.620615E+02  2.243728E+04 -3.945137E+04 -2.136696E+04 -3.716353E+04
       301   6  3.915488E+05  9.048563E+03  4.161615E+04 -5.933155E+04 -3.263823E+04 -4.080383E+04
       301   7 -2.493751E+05 -1.570798E+05 -1.285885E+05 -6.096568E+04 -1.500248E+04 -3.225986E+04
       301   8 -3.447489E+05 -1.797423E+05 -1.396517E+05 -3.876858E+04 -2.514259E+04 -3.716701E+04
       301   9 -4.362745E+05 -1.931998E+05 -1.417613E+05 -5.633413E+04 -3.527691E+04 -4.080875E+04
       301  10  1.032943E+06  1.558966E+05  1.545450E+05 -5.769385E+04 -8.269243E-10  2.117370E-10
       301  11  1.124363E+06  1.787804E+05  1.844899E+05 -4.013550E+04  3.150027E-10 -1.351140E-10
       301  12  1.220011E+06  2.112487E+05  2.249464E+05 -6.233402E+04  3.265775E-10 -5.417840E-10
       301  13  3.915918E+05 -5.783681E+02  1.298971E+04 -5.933083E+04 -3.156214E-10  2.171153E-10
       301  14  3.895547E+05 -4.636674E+02  2.243383E+04 -3.945201E+04 -7.202485E-10 -2.153050E-10
       301  15  3.915472E+05  9.046489E+03  4.161102E+04 -5.933262E+04 -2.539226E-10 -3.036215E-10
       301  16 -2.493756E+05 -1.570810E+05 -1.285909E+05 -6.096607E+04  3.864576E-10  2.208325E-10
       301  17 -3.447499E+05 -1.797440E+05 -1.396554E+05 -3.876933E+04  4.073167E-10  7.261655E-11
       301  18 -4.362763E+05 -1.932019E+05 -1.417668E+05 -5.633529E+04 -1.430658E-10 -1.437210E-10
       301  19  1.032943E+06  1.558978E+05  1.545470E+05 -5.769372E+04  5.175269E+03  3.225704E+04
       301  20  1.124364E+06  1.787820E+05  1.844931E+05 -4.013498E+04  1.758690E+04  3.716006E+04
       301  21  1.220012E+06  2.112507E+05  2.249512E+05 -6.233303E+04  2.999605E+04  4.079894E+04
       301  22  3.915922E+05 -5.772231E+02  1.299186E+04 -5.933057E+04  1.009139E+04  3.225847E+04
       301  23  3.895555E+05 -4.620615E+02  2.243728E+04 -3.945137E+04  2.136696E+04  3.716353E+04
       301  24  3.915488E+05  9.048563E+03  4.161615E+04 -5.933155E+04  3.263823E+04  4.080383E+04
       301  25 -2.493751E+05 -1.570798E+05 -1.285885E+05 -6.096568E+04  1.500248E+04  3.225986E+04
       301  26 -3.447489E+05 -1.797423E+05 -1.396517E+05 -3.876858E+04  2.514259E+04  3.716701E+04
       301  27 -4.362745E+05 -1.931998E+05 -1.417613E+05 -5.633413E+04  3.527691E+04  4.080875E+04
       302   1  1.307706E+06  2.128083E+05  2.519177E+05 -3.523262E+04 -2.902579E+04 -4.646437E+04
       302   2  1.376977E+06  2.423357E+05  3.124405E+05 -6.533604E+04 -1.015389E+05 -4.471372E+04
       302   3  1.496562E+06  4.337077E+05  4.606612E+05 -1.343610E+05 -1.741025E+05 -1.440402E+04
       302   4  4.008425E+05 -8.342247E+03  5.228159E+04 -5.910344E+04 -4.009311E+04 -4.647347E+04
       302   5  3.778198E+05 -1.983514E+03  8.872878E+04 -3.972465E+04 -8.714107E+04 -4.471113E+04
       302   6  4.007600E+05  1.619353E+05  1.952852E+05 -5.926007E+04 -1.342250E+05 -1.438069E+04
       302   7 -5.052523E+05 -2.295458E+05 -1.474042E+05 -8.293909E+04 -5.114445E+04 -4.648174E+04
       302   8 -6.204076E+05 -2.463681E+05 -1.350448E+05 -1.415500E+04 -7.276599E+04 -4.470736E+04
       302   9 -6.939311E+05 -1.099028E+05 -7.016802E+04  1.570791E+04 -9.441750E+04 -1.434772E+04
       302  10  1.307705E+06  2.128058E+05  2.519121E+05 -3.523371E+04 -6.234577E-10 -6.043966E-11
       302  11  1.376965E+06  2.423308E+05  3.124174E+05 -6.533969E+04 -3.996377E-10  2.535953E-10
       302  12  1.496529E+06  4.336994E+05  4.606039E+05 -1.343630E+05 -6.456629E-11 -1.325529E-10
       302  13  4.008402E+05 -8.344998E+03  5.227452E+04 -5.910494E+04 -7.613379E-11  4.835264E-10
       302  14  3.778111E+05 -1.987698E+03  8.871076E+04 -3.972779E+04 -3.151286E-10  1.573185E-09
       302  15  4.007406E+05  1.619302E+05  1.952510E+05 -5.926163E+04  2.682361E-11 -3.071152E-11
       302  16 -5.052557E+05 -2.295488E+05 -1.474132E+05 -8.294101E+04  4.613908E-10  1.430532E-11
       302  17 -6.204138E+05 -2.463717E+05 -1.350585E+05 -1.415762E+04 -7.872523E-10  9.560122E-11
       302  18 -6.939407E+05 -1.099054E+05 -7.018518E+04  1.570682E+04 -2.327361E-10 -4.333551E-10
       302  19  1.307706E+06  2.128083E+05  2.519177E+05 -3.523262E+04  2.902579E+04  4.646437E+04
       302  20  1.376977E+06  2.423357E+05  3.124405E+05 -6.533604E+04  1.015389E+05  4.471372E+04
       302  21  1.496562E+06  4.337077E+05  4.606612E+05 -1.343610E+05  1.741025E+05  1.440402E+04
       302  22  4.008425E+05 -8.342247E+03  5.228159E+04 -5.910344E+04  4.009311E+04  4.647347E+04
       302  23  3.778198E+05 -1.983514E+03  8.872878E+04 -3.972465E+04  8.714107E+04  4.471113E+04
       302  24  4.007600E+05  1.619353E+05  1.952852E+05 -5.926007E+04  1.342250E+05  1.438069E+04
       302  25 -5.052523E+05 -2.295458E+05 -1.474042E+05 -8.293909E+04  5.114445E+04  4.648174E+04
       302  26 -6.204076E+05 -2.463681E+05 -1.350448E+05 -1.415500E+04  7.276599E+04  4.470736E+04
       302  27 -6.939311E+05 -1.099028E+05 -7.016802E+04  1.570791E+04  9.441750E+04  1.434772E+04
       303   1  2.325933E+05  8.857385E+05  2.416128E+05 -1.709217E+05  7.098699E+03  7.045770E+04
       303   2  1.125512E+05  6.527927E+05  1.381253E+05 -1.048851E+05  1.918197E+04  3.503033E+04
       303   3  5.582756E+04  4.401546E+05  7.347236E+04 -1.327379E+05  1.170387E+04 -4.050834E+02
       303   4  6.209131E+04  2.002772E+05  7.449622E+04 -1.413702E+05  7.124296E+03  5.102923E+04
       303   5 -4.795023E+02  1.916753E+05  3.401385E+04 -9.446349E+04  1.918605E+04  3.300910E+04
       303   6 -2.719703E+03  2.003421E+05  2.031365E+04 -1.414437E+05  1.168210E+04  1.496808E+04
       303   7 -1.084419E+05 -4.847535E+05 -9.265270E+04 -1.118513E+05  7.148063E+03  3.162211E+04
       303   8 -1.135244E+05 -2.692443E+05 -7.011112E+04 -8.404967E+04  1.919007E+04  3.098935E+04
       303   9 -6.127043E+04 -3.941606E+04 -3.284770E+04 -1.501460E+05  1.165990E+04  3.033538E+04
       303  10  2.325919E+05  8.857332E+05  2.416034E+05 -1.709221E+05  6.281526E-11  2.869810E-10
       303  11  1.125505E+05  6.527913E+05  1.381223E+05 -1.048856E+05 -1.408739E-10  2.865465E-10
       303  12  5.582741E+04  4.401546E+05  7.347210E+04 -1.327379E+05  7.208023E-10  2.228282E-10
       303  13  6.209056E+04  2.002744E+05  7.449123E+04 -1.413705E+05 -1.158806E-10  2.011425E-10
       303  14 -4.801901E+02  1.916741E+05  3.401111E+04 -9.446400E+04 -1.432996E-09 -1.764369E-10
       303  15 -2.719910E+03  2.003418E+05  2.031297E+04 -1.414438E+05  3.296336E-10  3.112973E-10
       303  16 -1.084422E+05 -4.847546E+05 -9.265467E+04 -1.118515E+05 -2.049996E-10 -2.158073E-10
       303  17 -1.135250E+05 -2.692455E+05 -7.011362E+04 -8.405015E+04 -6.803225E-11 -3.790782E-10
       303  18 -6.127082E+04 -3.941709E+04 -3.284969E+04 -1.501463E+05 -4.810544E-10 -3.493217E-10
       303  19  2.325933E+05  8.857385E+05  2.416128E+05 -1.709217E+05 -7.098699E+03 -7.045770E+04
       303  20  1.125512E+05  6.527927E+05  1.381253E+05 -1.048851E+05 -1.918197E+04 -3.503033E+04
       303  21  5.582756E+04  4.401546E+05  7.347236E+04 -1.327379E+05 -1.170387E+04  4.050834E+02
       303  22  6.209131E+04  2.002772E+05  7.449622E+04 -1.413702E+05 -7.124296E+03 -5.102923E+04
       303  23 -4.795023E+02  1.916753E+05  3.401385E+04 -9.446349E+04 -1.918605E+04 -3.300910E+04
       303  24 -2.719703E+03  2.003421E+05  2.031365E+04 -1.414437E+05 -1.168210E+04 -1.496808E+04
       303  25 -1.084419E+05 -4.847535E+05 -9.265270E+04 -1.118513E+05 -7.148063E+03 -3.162211E+04
       303  26 -1.135244E+05 -2.692443E+05 -7.011112E+04 -8.404967E+04 -1.919007E+04 -3.098935E+04
       303  27 -6.127043E+04 -3.941606E+04 -3.284770E+04 -1.501460E+05 -1.165990E+04 -3.033538E+04
       304   1  1.725072E+04  2.515248E+05  2.856629E+04 -1.429463E+05  2.554530E+03  2.066382E+03
       304   2 -4.087603E+04  2.829277E+04 -2.760486E+04 -9.434606E+04 -8.470968E+03 -2.360382E+03
       304   3 -9.485539E+04 -1.935423E+05 -7.992726E+04 -1.404244E+05 -1.911973E+04 -6.782649E+03
       304   4  3.871322E+03  1.968292E+05  1.637394E+04 -1.415978E+05  2.539926E+03  1.203235E+04
       304   5  9.386386E+01  1.961138E+05  9.446061E+03 -9.426180E+04 -8.484014E+03  7.269951E+03
       304   6  5.251715E+02  1.968081E+05  6.603158E+03 -1.416024E+05 -1.913142E+04  2.510512E+03
       304   7 -9.508222E+03  1.421366E+05  4.181788E+03 -1.402494E+05  2.525365E+03  2.199746E+04
       304   8  4.106192E+04  3.639613E+05  4.649559E+04 -9.417751E+04 -8.497055E+03  1.690286E+04
       304   9  9.589549E+04  5.873011E+05  9.312445E+04 -1.427810E+05 -1.914314E+04  1.180945E+04
       304  10  1.725072E+04  2.515248E+05  2.856627E+04 -1.429463E+05  4.771350E-10 -6.622969E-11
       304  11 -4.087611E+04  2.829274E+04 -2.760500E+04 -9.434608E+04  5.993012E-10 -1.431046E-10
       304  12 -9.485579E+04 -1.935425E+05 -7.992803E+04 -1.404245E+05 -3.833119E-10 -5.664149E-11
       304  13  3.871276E+03  1.968290E+05  1.637366E+04 -1.415978E+05 -2.229364E-11  2.515710E-10
       304  14  9.377240E+01  1.961137E+05  9.445826E+03 -9.426175E+04  6.369109E-10 -4.140846E-10
       304  15  5.247767E+02  1.968080E+05  6.602459E+03 -1.416023E+05  5.040874E-10  8.738291E-11
       304  16 -9.508359E+03  1.421360E+05  4.180866E+03 -1.402495E+05 -3.605065E-10  2.473550E-10
       304  17  4.106176E+04  3.639610E+05  4.649492E+04 -9.417739E+04 -7.248768E-10 -2.241125E-10
       304  18  9.589506E+04  5.873008E+05  9.312350E+04 -1.427808E+05 -4.171805E-10  4.046872E-12
       304  19  1.725072E+04  2.515248E+05  2.856629E+04 -1.429463E+05 -2.554530E+03 -2.066382E+03
       304  20 -4.087603E+04  2.829277E+04 -2.760486E+04 -9.434606E+04  8.470968E+03  2.360382E+03
       304  21 -9.485539E+04 -1.935423E+05 -7.992726E+04 -1.404244E+05  1.911973E+04  6.782649E+03
       304  22  3.871322E+03  1.968292E+05  1.637394E+04 -1.415978E+05 -2.539926E+03 -1.203235E+04
       304  23  9.386386E+01  1.961138E+05  9.446061E+03 -9.426180E+04  8.484014E+03 -7.269951E+03
       304  24  5.251715E+02  1.968081E+05  6.603158E+03 -1.416024E+05  1.913142E+04 -2.510512E+03
       304  25 -9.508222E+03  1.421366E+05  4.181788E+03 -1.402494E+05 -2.525365E+03 -2.199746E+04
       304  26  4.106192E+04  3.639613E+05  4.649559E+04 -9.417751E+04  8.497055E+03 -1.690286E+04
       304  27  9.589549E+04  5.873011E+05  9.312445E+04 -1.427810E+05  1.914314E+04 -1.180945E+04
       305   1 -1.404697E+05 -3.785878E+05 -1.212586E+05 -1.418571E+05 -2.900064E+04 -1.587493E+04
       305   2 -1.951945E+05 -6.004867E+05 -1.735772E+05 -9.275659E+04 -3.448382E+04  6.133491E+03
       305   3 -2.465830E+05 -8.243064E+05 -2.393923E+05 -1.372587E+05 -1.187685E+04  2.815213E+04
       305   4  8.239128E+01  1.969785E+05  5.872535E+03 -1.413626E+05 -2.902044E+04  1.432687E+03
       305   5 -6.667410E+01  1.957476E+05  5.600960E+03 -9.456224E+04 -3.447348E+04 -1.484740E+03
       305   6  7.448922E+03  1.968756E+05  9.148883E+03 -1.413566E+05 -1.185262E+04 -4.383578E+03
       305   7  1.406124E+05  7.728551E+05  1.329844E+05 -1.408675E+05 -2.904021E+04  1.875617E+04
       305   8  1.950178E+05  9.925721E+05  1.847390E+05 -9.637005E+04 -3.446310E+04 -9.112649E+03
       305   9  2.614046E+05  1.219012E+06  2.576184E+05 -1.454610E+05 -1.182799E+04 -3.697271E+04
       305  10 -1.404707E+05 -3.785883E+05 -1.212607E+05 -1.418575E+05 -2.027780E-11  1.802135E-10
       305  11 -1.951958E+05 -6.004871E+05 -1.735795E+05 -9.275642E+04  2.302653E-10  8.367500E-11
       305  12 -2.465833E+05 -8.243073E+05 -2.393940E+05 -1.372584E+05 -1.503591E-10  4.543720E-11
       305  13  8.148631E+01  1.969783E+05  5.870948E+03 -1.413625E+05 -6.583585E-10  3.702406E-10
       305  14 -6.795097E+01  1.957473E+05  5.598722E+03 -9.456228E+04  4.478614E-10 -3.664142E-10
       305  15  7.448766E+03  1.968756E+05  9.148583E+03 -1.413566E+05 -1.511900E-10  1.371860E-10
       305  16  1.406114E+05  7.728545E+05  1.329821E+05 -1.408670E+05  3.155636E-10 -8.070732E-11
       305  17  1.950165E+05  9.925717E+05  1.847366E+05 -9.637030E+04  2.902238E-10 -4.653327E-10
       305  18  2.614041E+05  1.219011E+06  2.576156E+05 -1.454614E+05 -1.351959E-10 -1.026421E-10
       305  19 -1.404697E+05 -3.785878E+05 -1.212586E+05 -1.418571E+05  2.900064E+04  1.587493E+04
       305  20 -1.951945E+05 -6.004867E+05 -1.735772E+05 -9.275659E+04  3.448382E+04 -6.133491E+03
       305  21 -2.465830E+05 -8.243064E+05 -2.393923E+05 -1.372587E+05  1.187685E+04 -2.815213E+04
       305  22  8.239128E+01  1.969785E+05  5.872535E+03 -1.413626E+05  2.902044E+04 -1.432687E+03
       305  23 -6.667410E+01  1.957476E+05  5.600960E+03 -9.456224E+04  3.447348E+04  1.484740E+03
       305  24  7.448922E+03  1.968756E+05  9.148883E+03 -1.413566E+05  1.185262E+04  4.383578E+03
       305  25  1.406124E+05  7.728551E+05  1.329844E+05 -1.408675E+05  2.904021E+04 -1.875617E+04
       305  26  1.950178E+05  9.925721E+05  1.847390E+05 -9.637005E+04  3.446310E+04  9.112649E+03
       305  27  2.614046E+05  1.219012E+06  2.576184E+05 -1.454610E+05  1.182799E+04  3.697271E+04
       306   1 -1.362470E+06 -5.057127E+05 -3.116820E+05 -5.001268E+05 -1.408235E+05 -4.574586E+04
       306   2 -1.322620E+06 -3.076122E+05 -1.848606E+05 -4.954777E+05 -9.082509E+04 -1.169212E+04
       306   3 -1.334707E+06 -2.690496E+05 -1.396305E+05 -4.658423E+05 -3.604379E+04  9.649530E+03
       306   4 -9.600878E+05 -2.895212E+05 -1.915360E+05 -3.240194E+05 -1.244947E+05 -3.962742E+04
       306   5 -9.247830E+05 -1.374476E+05 -8.277254E+04 -3.640564E+05 -8.502455E+04 -9.517999E+03
       306   6 -9.392900E+05 -1.427719E+05 -4.721059E+04 -3.791184E+05 -4.077454E+04  7.873425E+03
       306   7 -5.575366E+05 -7.326172E+04 -7.140378E+04 -1.477917E+05 -1.081543E+05 -3.350031E+04
       306   8 -5.267892E+05  3.274197E+04  1.930250E+04 -2.325536E+05 -7.921995E+04 -7.341834E+03
       306   9 -5.437204E+05 -1.649346E+04  4.519841E+04 -2.923492E+05 -4.550857E+04  6.096498E+03
       306  10 -1.362492E+06 -5.057203E+05 -3.117233E+05 -5.001320E+05  3.217905E-10 -1.143733E-11
       306  11 -1.322628E+06 -3.076146E+05 -1.848764E+05 -4.954786E+05  1.202538E-10 -2.910381E-10
       306  12 -1.334708E+06 -2.690500E+05 -1.396331E+05 -4.658420E+05 -9.163573E-11 -2.747047E-11
       306  13 -9.601049E+05 -2.895270E+05 -1.915681E+05 -3.240234E+05  9.070273E-10 -4.914000E-10
       306  14 -9.247908E+05 -1.374496E+05 -8.278632E+04 -3.640570E+05  1.016736E-10 -4.681061E-10
       306  15 -9.392918E+05 -1.427724E+05 -4.721384E+04 -3.791182E+05  2.860861E-10  9.596586E-11
       306  16 -5.575494E+05 -7.326607E+04 -7.142789E+04 -1.477946E+05 -7.614088E-11 -2.384647E-10
       306  17 -5.267959E+05  3.274022E+04  1.929060E+04 -2.325541E+05  1.620160E-10  4.927406E-11
       306  18 -5.437227E+05 -1.649406E+04  4.519444E+04 -2.923490E+05  1.540262E-10  2.866738E-10
       306  19 -1.362470E+06 -5.057127E+05 -3.116820E+05 -5.001268E+05  1.408235E+05  4.574586E+04
       306  20 -1.322620E+06 -3.076122E+05 -1.848606E+05 -4.954777E+05  9.082509E+04  1.169212E+04
       306  21 -1.334707E+06 -2.690496E+05 -1.396305E+05 -4.658423E+05  3.604379E+04 -9.649530E+03
       306  22 -9.600878E+05 -2.895212E+05 -1.915360E+05 -3.240194E+05  1.244947E+05  3.962742E+04
       306  23 -9.247830E+05 -1.374476E+05 -8.277254E+04 -3.640564E+05  8.502455E+04  9.517999E+03
       306  24 -9.392900E+05 -1.427719E+05 -4.721059E+04 -3.791184E+05  4.077454E+04 -7.873425E+03
       306  25 -5.575366E+05 -7.326172E+04 -7.140378E+04 -1.477917E+05  1.081543E+05  3.350031E+04
       306  26 -5.267892E+05  3.274197E+04  1.930250E+04 -2.325536E+05  7.921995E+04  7.341834E+03
       306  27 -5.437204E+05 -1.649346E+04  4.519841E+04 -2.923492E+05  4.550857E+04 -6.096498E+03
       307   1 -1.280583E+06 -2.904114E+05 -1.230703E+05 -4.686683E+05 -3.288698E+04  8.013727E+03
       307   2 -1.249941E+06 -2.603552E+05 -9.587148E+04 -4.532041E+05 -2.214610E+04  1.050595E+04
       307   3 -1.212591E+06 -2.515356E+05 -7.888614E+04 -4.488978E+05 -1.118441E+04  1.240995E+04
       307   4 -9.331024E+05 -1.577377E+05 -3.750418E+04 -3.701565E+05 -3.377348E+04  7.679884E+03
       307   5 -9.358492E+05 -1.425700E+05 -1.917366E+04 -3.662997E+05 -2.351553E+04  9.991317E+03
       307   6 -9.317912E+05 -1.485394E+05 -1.066907E+04 -3.736011E+05 -1.303746E+04  1.171435E+04
       307   7 -5.855007E+05 -2.505350E+04  4.805318E+04 -2.715935E+05 -3.466053E+04  7.345826E+03
       307   8 -6.216591E+05 -2.477728E+04  5.751696E+04 -2.793549E+05 -2.488572E+04  9.476396E+03
       307   9 -6.509137E+05 -4.553845E+04  5.754216E+04 -2.982738E+05 -1.489143E+04  1.101842E+04
       307  10 -1.280584E+06 -2.904118E+05 -1.230725E+05 -4.686681E+05  5.853866E-10  1.924036E-10
       307  11 -1.249942E+06 -2.603555E+05 -9.587261E+04 -4.532039E+05  5.254269E-11 -2.809191E-10
       307  12 -1.212591E+06 -2.515358E+05 -7.888667E+04 -4.488976E+05 -2.527124E-10 -2.503399E-10
       307  13 -9.331037E+05 -1.577381E+05 -3.750643E+04 -3.701563E+05  5.472773E-10  6.475844E-11
       307  14 -9.358499E+05 -1.425702E+05 -1.917489E+04 -3.662995E+05 -3.010314E-10 -2.469596E-10
       307  15 -9.317914E+05 -1.485396E+05 -1.066964E+04 -3.736010E+05 -2.211357E-12 -2.248878E-10
       307  16 -5.855020E+05 -2.505388E+04  4.805082E+04 -2.715933E+05 -2.980560E-10  2.203878E-11
       307  17 -6.216598E+05 -2.477755E+04  5.751563E+04 -2.793547E+05 -8.396889E-11 -2.141743E-10
       307  18 -6.509140E+05 -4.553864E+04  5.754152E+04 -2.982736E+05  1.982767E-10  3.968286E-11
       307  19 -1.280583E+06 -2.904114E+05 -1.230703E+05 -4.686683E+05  3.288698E+04 -8.013727E+03
       307  20 -1.249941E+06 -2.603552E+05 -9.587148E+04 -4.532041E+05  2.214610E+04 -1.050595E+04
       307  21 -1.212591E+06 -2.515356E+05 -7.888614E+04 -4.488978E+05  1.118441E+04 -1.240995E+04
       307  22 -9.331024E+05 -1.577377E+05 -3.750418E+04 -3.701565E+05  3.377348E+04 -7.679884E+03
       307  23 -9.358492E+05 -1.425700E+05 -1.917366E+04 -3.662997E+05  2.351553E+04 -9.991317E+03
       307  24 -9.317912E+05 -1.485394E+05 -1.066907E+04 -3.736011E+05  1.303746E+04 -1.171435E+04
       307  25 -5.855007E+05 -2.505350E+04  4.805318E+04 -2.715935E+05  3.466053E+04 -7.345826E+03
       307  26 -6.216591E+05 -2.477728E+04  5.751696E+04 -2.793549E+05  2.488572E+04 -9.476396E+03
       307  27 -6.509137E+05 -4.553845E+04  5.754216E+04 -2.982738E+05  1.489143E+04 -1.101842E+04
       308   1 -1.180247E+06 -2.421532E+05 -6.867147E+04 -4.412333E+05 -9.373664E+03  1.164854E+04
       308   2 -1.150280E+06 -2.223796E+05 -5.637553E+04 -4.248002E+05 -6.373081E+03  1.043845E+04
       308   3 -1.109051E+06 -2.150130E+05 -4.590247E+04 -4.217777E+05 -3.360090E+03  9.193559E+03
       308   4 -9.312007E+05 -1.494718E+05 -8.129865E+03 -3.730219E+05 -1.106040E+04  1.101553E+04
       308   5 -9.367927E+05 -1.429983E+05 -4.404248E+03 -3.664176E+05 -8.087795E+03  9.795242E+03
       308   6 -9.311185E+05 -1.489258E+05 -2.478707E+03 -3.732242E+05 -5.102913E+03  8.540112E+03
       308   7 -6.820938E+05 -5.678662E+04  5.240679E+04 -3.047859E+05 -1.274787E+04  1.038225E+04
       308   8 -7.232603E+05 -6.361381E+04  4.756363E+04 -3.080167E+05 -9.803153E+03  9.151794E+03
       308   9 -7.531539E+05 -8.283622E+04  4.094292E+04 -3.246578E+05 -6.846290E+03  7.886459E+03
       308  10 -1.180248E+06 -2.421533E+05 -6.867189E+04 -4.412332E+05  1.722830E-10 -1.618723E-10
       308  11 -1.150280E+06 -2.223798E+05 -5.637581E+04 -4.248001E+05  2.791056E-10  2.201420E-10
       308  12 -1.109051E+06 -2.150131E+05 -4.590265E+04 -4.217776E+05  8.607670E-11 -2.189737E-12
       308  13 -9.312009E+05 -1.494720E+05 -8.130322E+03 -3.730218E+05 -2.075417E-11 -4.394630E-11
       308  14 -9.367928E+05 -1.429984E+05 -4.404551E+03 -3.664175E+05  8.090881E-10  3.912451E-10
       308  15 -9.311185E+05 -1.489259E+05 -2.478893E+03 -3.732241E+05 -1.017564E-12  3.081564E-10
       308  16 -6.820940E+05 -5.678678E+04  5.240628E+04 -3.047858E+05 -3.163383E-10 -1.363979E-10
       308  17 -7.232604E+05 -6.361393E+04  4.756329E+04 -3.080166E+05 -1.304665E-10 -3.170618E-11
       308  18 -7.531539E+05 -8.283630E+04  4.094272E+04 -3.246578E+05 -3.152772E-10 -5.032274E-11
       308  19 -1.180247E+06 -2.421532E+05 -6.867147E+04 -4.412333E+05  9.373664E+03 -1.164854E+04
       308  20 -1.150280E+06 -2.223796E+05 -5.637553E+04 -4.248002E+05  6.373081E+03 -1.043845E+04
       308  21 -1.109051E+06 -2.150130E+05 -4.590247E+04 -4.217777E+05  3.360090E+03 -9.193559E+03
       308  22 -9.312007E+05 -1.494718E+05 -8.129865E+03 -3.730219E+05  1.106040E+04 -1.101553E+04
       308  23 -9.367927E+05 -1.429983E+05 -4.404248E+03 -3.664176E+05  8.087795E+03 -9.795242E+03
       308  24 -9.311185E+05 -1.489258E+05 -2.478707E+03 -3.732242E+05  5.102913E+03 -8.540112E+03
       308  25 -6.820938E+05 -5.678662E+04  5.240679E+04 -3.047859E+05  1.274787E+04 -1.038225E+04
       308  26 -7.232603E+05 -6.361381E+04  4.756363E+04 -3.080167E+05  9.803153E+03 -9.151794E+03
       308  27 -7.531539E+05 -8.283622E+04  4.094292E+04 -3.246578E+05  6.846290E+03 -7.886459E+03
       309   1 -1.077898E+06 -2.035754E+05 -3.753027E+04 -4.133713E+05 -2.543789E+03  8.106023E+03
       309   2 -1.047830E+06 -1.842627E+05 -2.816094E+04 -3.967334E+05 -1.173527E+03  6.226410E+03
       309   3 -1.005985E+06 -1.768619E+05 -1.923557E+04 -3.937109E+05  1.984840E+02  4.341028E+03
       309   4 -9.310270E+05 -1.489926E+05 -1.905294E+03 -3.732025E+05 -4.283759E+03  7.453787E+03
       309   5 -9.369118E+05 -1.430220E+05 -1.162245E+03 -3.663999E+05 -2.918132E+03  5.572590E+03
       309   6 -9.310201E+05 -1.489621E+05 -8.593068E+02 -3.732128E+05 -1.550797E+03  3.685620E+03
       309   7 -7.841349E+05 -9.440838E+04  3.371808E+04 -3.330252E+05 -6.024178E+03  6.801383E+03
       309   8 -8.259820E+05 -1.017805E+05  2.583546E+04 -3.360615E+05 -4.663073E+03  4.918645E+03
       309   9 -8.560501E+05 -1.210620E+05  1.751644E+04 -3.527126E+05 -3.300301E+03  3.030129E+03
       309  10 -1.077898E+06 -2.035755E+05 -3.753040E+04 -4.133712E+05 -2.965069E-11  1.341955E-10
       309  11 -1.047830E+06 -1.842628E+05 -2.816101E+04 -3.967334E+05 -1.839088E-10 -1.697236E-10
       309  12 -1.005985E+06 -1.768620E+05 -1.923561E+04 -3.937109E+05 -4.034157E-10 -1.170177E-10
       309  13 -9.310270E+05 -1.489927E+05 -1.905433E+03 -3.732025E+05  1.698934E-10  5.432159E-11
       309  14 -9.369118E+05 -1.430220E+05 -1.162319E+03 -3.663999E+05 -1.594727E-10  1.606467E-10
       309  15 -9.310201E+05 -1.489621E+05 -8.593368E+02 -3.732128E+05 -8.055306E-12  1.003643E-11
       309  16 -7.841349E+05 -9.440844E+04  3.371792E+04 -3.330252E+05 -1.489639E-11  2.803309E-11
       309  17 -8.259820E+05 -1.017806E+05  2.583538E+04 -3.360615E+05 -1.146226E-10  2.286635E-10
       309  18 -8.560501E+05 -1.210620E+05  1.751640E+04 -3.527126E+05 -2.246761E-10 -2.087436E-10
       309  19 -1.077898E+06 -2.035754E+05 -3.753027E+04 -4.133713E+05  2.543789E+03 -8.106023E+03
       309  20 -1.047830E+06 -1.842627E+05 -2.816094E+04 -3.967334E+05  1.173527E+03 -6.226410E+03
       309  21 -1.005985E+06 -1.768619E+05 -1.923557E+04 -3.937109E+05 -1.984840E+02 -4.341028E+03
       309  22 -9.310270E+05 -1.489926E+05 -1.905294E+03 -3.732025E+05  4.283759E+03 -7.453787E+03
       309  23 -9.369118E+05 -1.430220E+05 -1.162245E+03 -3.663999E+05  2.918132E+03 -5.572590E+03
       309  24 -9.310201E+05 -1.489621E+05 -8.593068E+02 -3.732128E+05  1.550797E+03 -3.685620E+03
       309  25 -7.841349E+05 -9.440838E+04  3.371808E+04 -3.330252E+05  6.024178E+03 -6.801383E+03
       309  26 -8.259820E+05 -1.017805E+05  2.583546E+04 -3.360615E+05  4.663073E+03 -4.918645E+03
       309  27 -8.560501E+05 -1.210620E+05  1.751644E+04 -3.527126E+05  3.300301E+03 -3.030129E+03
       310   1 -9.747705E+05 -1.652309E+05 -1.135477E+04 -3.852106E+05  8.001857E+02  3.167184E+03
       310   2 -9.446056E+05 -1.458859E+05 -2.861868E+03 -3.685101E+05  2.082091E+03  1.242889E+03
       310   3 -9.026177E+05 -1.384813E+05  5.255965E+03 -3.654719E+05  3.363766E+03 -6.807975E+02
       310   4 -9.310098E+05 -1.489709E+05 -8.289133E+02 -3.732222E+05 -9.509107E+02  2.511148E+03
       310   5 -9.369213E+05 -1.430087E+05 -9.880630E+02 -3.663877E+05  3.314430E+02  5.870251E+02
       310   6 -9.310120E+05 -1.489874E+05 -1.522807E+03 -3.732160E+05  1.613532E+03 -1.336494E+03
       310   7 -8.872469E+05 -1.327107E+05  9.696875E+03 -3.612330E+05 -2.702150E+03  1.855059E+03
       310   8 -9.292369E+05 -1.401314E+05  8.857562E+02 -3.642651E+05 -1.419233E+03 -6.884977E+01
       310   9 -9.594054E+05 -1.594934E+05 -8.301626E+03 -3.809598E+05 -1.366146E+02 -1.992159E+03
       310  10 -9.747705E+05 -1.652310E+05 -1.135479E+04 -3.852106E+05  6.162504E-11 -8.672891E-11
       310  11 -9.446056E+05 -1.458859E+05 -2.861879E+03 -3.685102E+05  9.864125E-11 -3.615691E-10
       310  12 -9.026177E+05 -1.384813E+05  5.255943E+03 -3.654719E+05 -4.239502E-10 -2.857268E-10
       310  13 -9.310098E+05 -1.489709E+05 -8.289269E+02 -3.732222E+05 -5.865537E-11 -3.471730E-10
       310  14 -9.369213E+05 -1.430087E+05 -9.880638E+02 -3.663877E+05  4.492947E-10  1.983360E-10
       310  15 -9.310120E+05 -1.489874E+05 -1.522816E+03 -3.732160E+05 -2.810422E-10 -5.478099E-11
       310  16 -8.872469E+05 -1.327107E+05  9.696855E+03 -3.612330E+05 -5.466333E-10 -3.547692E-10
       310  17 -9.292369E+05 -1.401314E+05  8.857524E+02 -3.642651E+05 -1.383825E-10 -8.198742E-12
       310  18 -9.594054E+05 -1.594934E+05 -8.301634E+03 -3.809598E+05  3.731573E-10  1.700683E-10
       310  19 -9.747705E+05 -1.652309E+05 -1.135477E+04 -3.852106E+05 -8.001857E+02 -3.167184E+03
       310  20 -9.446056E+05 -1.458859E+05 -2.861868E+03 -3.685101E+05 -2.082091E+03 -1.242889E+03
       310  21 -9.026177E+05 -1.384813E+05  5.255965E+03 -3.654719E+05 -3.363766E+03  6.807975E+02
       310  22 -9.310098E+05 -1.489709E+05 -8.289133E+02 -3.732222E+05  9.509107E+02 -2.511148E+03
       310  23 -9.369213E+05 -1.430087E+05 -9.880630E+02 -3.663877E+05 -3.314430E+02 -5.870251E+02
       310  24 -9.310120E+05 -1.489874E+05 -1.522807E+03 -3.732160E+05 -1.613532E+03  1.336494E+03
       310  25 -8.872469E+05 -1.327107E+05  9.696875E+03 -3.612330E+05  2.702150E+03 -1.855059E+03
       310  26 -9.292369E+05 -1.401314E+05  8.857562E+02 -3.642651E+05  1.419233E+03  6.884977E+01
       310  27 -9.594054E+05 -1.594934E+05 -8.301626E+03 -3.809598E+05  1.366146E+02  1.992159E+03
       311   1 -8.714159E+05 -1.268480E+05  1.267451E+04 -3.570453E+05  4.115687E+03 -1.800811E+03
       311   2 -8.412400E+05 -1.074670E+05  1.983668E+04 -3.402800E+05  6.598468E+03 -3.266977E+03
       311   3 -7.995872E+05 -1.004541E+05  2.561031E+04 -3.370832E+05  9.072854E+03 -4.709581E+03
       311   4 -9.310713E+05 -1.489474E+05 -1.954571E+03 -3.732464E+05  2.360717E+03 -2.458319E+03
       311   5 -9.368379E+05 -1.429698E+05 -3.424850E+03 -3.663844E+05  4.862669E+03 -3.917437E+03
       311   6 -9.311328E+05 -1.493642E+05 -6.299019E+03 -3.730916E+05  7.356127E+03 -5.353027E+03
       311   7 -9.907229E+05 -1.710466E+05 -1.658383E+04 -3.894460E+05  6.059392E+02 -3.115755E+03
       311   8 -1.032427E+06 -1.784719E+05 -2.668705E+04 -3.924852E+05  3.127161E+03 -4.567787E+03
       311   9 -1.062662E+06 -1.982734E+05 -3.820979E+04 -4.090932E+05  5.639789E+03 -5.996327E+03
       311  10 -8.714159E+05 -1.268480E+05  1.267447E+04 -3.570453E+05 -1.646734E-10 -3.878693E-10
       311  11 -8.412401E+05 -1.074670E+05  1.983658E+04 -3.402799E+05  4.605058E-10  3.997036E-10
       311  12 -7.995873E+05 -1.004541E+05  2.561011E+04 -3.370831E+05  2.032213E-10  7.510414E-11
       311  13 -9.310713E+05 -1.489474E+05 -1.954593E+03 -3.732464E+05  2.889472E-10  6.972389E-10
       311  14 -9.368379E+05 -1.429698E+05 -3.424923E+03 -3.663844E+05 -1.078439E-10 -2.412745E-10
       311  15 -9.311329E+05 -1.493643E+05 -6.299174E+03 -3.730915E+05 -2.406326E-10 -1.738606E-11
       311  16 -9.907229E+05 -1.710466E+05 -1.658385E+04 -3.894460E+05 -4.252824E-11 -2.105699E-11
       311  17 -1.032427E+06 -1.784719E+05 -2.668711E+04 -3.924852E+05 -3.955928E-10  1.076509E-10
       311  18 -1.062662E+06 -1.982734E+05 -3.820992E+04 -4.090931E+05 -3.019630E-10 -3.788194E-10
       311  19 -8.714159E+05 -1.268480E+05  1.267451E+04 -3.570453E+05 -4.115687E+03  1.800811E+03
       311  20 -8.412400E+05 -1.074670E+05  1.983668E+04 -3.402800E+05 -6.598468E+03  3.266977E+03
       311  21 -7.995872E+05 -1.004541E+05  2.561031E+04 -3.370832E+05 -9.072854E+03  4.709581E+03
       311  22 -9.310713E+05 -1.489474E+05 -1.954571E+03 -3.732464E+05 -2.360717E+03  2.458319E+03
       311  23 -9.368379E+05 -1.429698E+05 -3.424850E+03 -3.663844E+05 -4.862669E+03  3.917437E+03
       311  24 -9.311328E+05 -1.493642E+05 -6.299019E+03 -3.730916E+05 -7.356127E+03  5.353027E+03
       311  25 -9.907229E+05 -1.710466E+05 -1.658383E+04 -3.894460E+05 -6.059392E+02  3.115755E+03
       311  26 -1.032427E+06 -1.784719E+05 -2.668705E+04 -3.924852E+05 -3.127161E+03  4.567787E+03
       311  27 -1.062662E+06 -1.982734E+05 -3.820979E+04 -4.090932E+05 -5.639789E+03  5.996327E+03
       312   1 -7.681136E+05 -8.902521E+04  3.143382E+04 -3.300578E+05  1.083885E+04 -5.490007E+03
       312   2 -7.383269E+05 -6.839853E+04  3.346958E+04 -3.114791E+05  1.876718E+04 -4.796735E+03
       312   3 -7.004142E+05 -6.686540E+04  2.818915E+04 -3.047737E+05  2.653061E+04 -3.660946E+03
       312   4 -9.315823E+05 -1.486513E+05 -8.260662E+03 -3.735491E+05  8.994778E+03 -6.181291E+03
       312   5 -9.361136E+05 -1.426237E+05 -1.483149E+04 -3.662812E+05  1.728804E+04 -5.351541E+03
       312   6 -9.325935E+05 -1.557642E+05 -2.900981E+04 -3.708876E+05  2.541592E+04 -4.079418E+03
       312   7 -1.095025E+06 -2.082759E+05 -4.795711E+04 -4.170300E+05  7.151235E+03 -6.872386E+03
       312   8 -1.133861E+06 -2.168459E+05 -6.313535E+04 -4.210673E+05  1.580941E+04 -5.906149E+03
       312   9 -1.164718E+06 -2.446580E+05 -8.621257E+04 -4.369784E+05  2.430169E+04 -4.497707E+03
       312  10 -7.681138E+05 -8.902527E+04  3.143354E+04 -3.300578E+05 -3.429813E-10 -9.505217E-11
       312  11 -7.383273E+05 -6.839865E+04  3.346887E+04 -3.114790E+05 -9.347355E-11 -4.490301E-11
       312  12 -7.004149E+05 -6.686561E+04  2.818780E+04 -3.047736E+05  1.147905E-10 -7.630426E-11
       312  13 -9.315824E+05 -1.486514E+05 -8.260886E+03 -3.735490E+05 -9.594086E-11 -2.521987E-12
       312  14 -9.361139E+05 -1.426238E+05 -1.483210E+04 -3.662812E+05  4.938130E-10  3.350118E-10
       312  15 -9.325942E+05 -1.557643E+05 -2.901105E+04 -3.708876E+05 -4.823721E-10 -3.104086E-10
       312  16 -1.095025E+06 -2.082760E+05 -4.795729E+04 -4.170300E+05  6.367267E-11 -9.533992E-11
       312  17 -1.133861E+06 -2.168460E+05 -6.313589E+04 -4.210673E+05 -5.662509E-11  3.562419E-10
       312  18 -1.164719E+06 -2.446581E+05 -8.621372E+04 -4.369784E+05 -7.799545E-11 -6.166625E-11
       312  19 -7.681136E+05 -8.902521E+04  3.143382E+04 -3.300578E+05 -1.083885E+04  5.490007E+03
       312  20 -7.383269E+05 -6.839853E+04  3.346958E+04 -3.114791E+05 -1.876718E+04  4.796735E+03
       312  21 -7.004142E+05 -6.686540E+04  2.818915E+04 -3.047737E+05 -2.653061E+04  3.660946E+03
       312  22 -9.315823E+05 -1.486513E+05 -8.260662E+03 -3.735491E+05 -8.994778E+03  6.181291E+03
       312  23 -9.361136E+05 -1.426237E+05 -1.483149E+04 -3.662812E+05 -1.728804E+04  5.351541E+03
       312  24 -9.325935E+05 -1.557642E+05 -2.900981E+04 -3.708876E+05 -2.541592E+04  4.079418E+03
       312  25 -1.095025E+06 -2.082759E+05 -4.795711E+04 -4.170300E+05 -7.151235E+03  6.872386E+03
       312  26 -1.133861E+06 -2.168459E+05 -6.313535E+04 -4.210673E+05 -1.580941E+04  5.906149E+03
       312  27 -1.164718E+06 -2.446580E+05 -8.621257E+04 -4.369784E+05 -2.430169E+04  4.497707E+03
       313   1 -6.606857E+05 -5.746860E+04  2.786209E+04 -3.188219E+05  3.495360E+04 -2.992292E+03
       313   2 -6.403293E+05 -1.480752E+04  9.877197E+03 -2.685752E+05  6.142532E+04  6.907077E+03
       313   3 -6.540585E+05 -9.514742E+04 -5.839989E+04 -2.023231E+05  8.429507E+04  2.641322E+04
       313   4 -9.373788E+05 -1.441906E+05 -3.651706E+04 -3.778212E+05  3.093260E+04 -4.499805E+03
       313   5 -9.275589E+05 -1.386522E+05 -6.401882E+04 -3.645385E+05  6.536764E+04  8.383565E+03
       313   6 -9.534289E+05 -2.577341E+05 -1.481470E+05 -3.352478E+05  9.619869E+04  3.087197E+04
       313   7 -1.213998E+06 -2.309129E+05 -1.009017E+05 -4.367995E+05  2.691353E+04 -6.006861E+03
       313   8 -1.214705E+06 -2.624828E+05 -1.379214E+05 -4.604584E+05  6.930797E+04  9.859033E+03
       313   9 -1.252702E+06 -4.202799E+05 -2.379009E+05 -4.681034E+05  1.080959E+05  3.532589E+04
       313  10 -6.606870E+05 -5.746894E+04  2.785977E+04 -3.188218E+05 -3.702992E-10 -3.191605E-10
       313  11 -6.403334E+05 -1.480858E+04  9.870009E+03 -2.685755E+05  1.202921E-11 -3.284159E-11
       313  12 -6.540663E+05 -9.515008E+04 -5.841457E+04 -2.023249E+05 -2.103359E-10  7.081096E-11
       313  13 -9.373799E+05 -1.441909E+05 -3.651890E+04 -3.778211E+05  8.285805E-11 -1.819726E-10
       313  14 -9.275635E+05 -1.386534E+05 -6.402699E+04 -3.645389E+05  6.356391E-10  1.789700E-11
       313  15 -9.534391E+05 -2.577376E+05 -1.481662E+05 -3.352502E+05  6.344917E-11 -5.670192E-11
       313  16 -1.213999E+06 -2.309132E+05 -1.009032E+05 -4.367994E+05 -6.368231E-11  3.310291E-11
       313  17 -1.214711E+06 -2.624842E+05 -1.379306E+05 -4.604590E+05 -5.195433E-10  9.128361E-11
       313  18 -1.252715E+06 -4.202843E+05 -2.379253E+05 -4.681064E+05 -2.411621E-10 -2.370607E-11
       313  19 -6.606857E+05 -5.746860E+04  2.786209E+04 -3.188219E+05 -3.495360E+04  2.992292E+03
       313  20 -6.403293E+05 -1.480752E+04  9.877197E+03 -2.685752E+05 -6.142532E+04 -6.907077E+03
       313  21 -6.540585E+05 -9.514742E+04 -5.839989E+04 -2.023231E+05 -8.429507E+04 -2.641322E+04
       313  22 -9.373788E+05 -1.441906E+05 -3.651706E+04 -3.778212E+05 -3.093260E+04  4.499805E+03
       313  23 -9.275589E+05 -1.386522E+05 -6.401882E+04 -3.645385E+05 -6.536764E+04 -8.383565E+03
       313  24 -9.534289E+05 -2.577341E+05 -1.481470E+05 -3.352478E+05 -9.619869E+04 -3.087197E+04
       313  25 -1.213998E+06 -2.309129E+05 -1.009017E+05 -4.367995E+05 -2.691353E+04  6.006861E+03
       313  26 -1.214705E+06 -2.624828E+05 -1.379214E+05 -4.604584E+05 -6.930797E+04 -9.859033E+03
       313  27 -1.252702E+06 -4.202799E+05 -2.379009E+05 -4.681034E+05 -1.080959E+05 -3.532589E+04
       314   1  7.055697E+04  2.694126E+04  9.066886E+04  7.136179E+04  1.965569E+05  1.354695E+04
       314   2  1.290989E+05 -2.308118E+05 -5.394194E+04  5.173461E+03  1.385603E+05  4.163902E+04
       314   3  2.631863E+05 -2.184120E+05 -9.315908E+04 -1.009154E+05  8.058284E+04  4.286569E+04
       314   4  1.099403E+06  2.820175E+05  3.399589E+05 -5.994468E+04  2.337857E+05  1.354701E+04
       314   5  1.059723E+06 -3.201935E+03  1.545393E+05 -3.985850E+04  1.518009E+05  4.163580E+04
       314   6  1.099601E+06 -1.435717E+04  9.103310E+04 -5.966444E+04  6.984830E+04  4.286113E+04
       314   7  2.129256E+06  5.370821E+05  5.891874E+05 -1.914696E+05  2.710758E+05  1.353135E+04
       314   8  1.991157E+06  2.243567E+05  3.629676E+05 -8.495878E+04  1.650610E+05  4.163068E+04
       314   9  1.936672E+06  1.896572E+05  2.751838E+05 -1.835733E+04  5.909944E+04  4.285516E+04
       314  10  7.051544E+04  2.693070E+04  9.059592E+04  7.135965E+04 -5.169557E-10  3.849171E-10
       314  11  1.290779E+05 -2.308188E+05 -5.398126E+04  5.168814E+03 -4.573644E-10 -2.977618E-10
       314  12  2.631788E+05 -2.184158E+05 -9.317474E+04 -1.009182E+05 -3.161100E-10  1.561163E-10
       314  13  1.099345E+06  2.820026E+05  3.398561E+05 -5.994723E+04  1.249634E-09  1.491627E-10
       314  14  1.059697E+06 -3.209970E+03  1.544928E+05 -3.986359E+04 -8.315480E-10 -1.088665E-09
       314  15  1.099595E+06 -1.436045E+04  9.102049E+04 -5.966685E+04 -3.503604E-11  1.073498E-10
       314  16  2.129177E+06  5.370622E+05  5.890494E+05 -1.914725E+05  6.868093E-10 -5.893346E-11
       314  17  1.991127E+06  2.243476E+05  3.629133E+05 -8.496431E+04  3.947846E-10 -5.792637E-11
       314  18  1.936668E+06  1.896543E+05  2.751738E+05 -1.835936E+04 -1.040726E-10 -1.517598E-10
       314  19  7.055697E+04  2.694126E+04  9.066886E+04  7.136179E+04 -1.965569E+05 -1.354695E+04
       314  20  1.290989E+05 -2.308118E+05 -5.394194E+04  5.173461E+03 -1.385603E+05 -4.163902E+04
       314  21  2.631863E+05 -2.184120E+05 -9.315908E+04 -1.009154E+05 -8.058284E+04 -4.286569E+04
       314  22  1.099403E+06  2.820175E+05  3.399589E+05 -5.994468E+04 -2.337857E+05 -1.354701E+04
       314  23  1.059723E+06 -3.201935E+03  1.545393E+05 -3.985850E+04 -1.518009E+05 -4.163580E+04
       314  24  1.099601E+06 -1.435717E+04  9.103310E+04 -5.966444E+04 -6.984830E+04 -4.286113E+04
       314  25  2.129256E+06  5.370821E+05  5.891874E+05 -1.914696E+05 -2.710758E+05 -1.353135E+04
       314  26  1.991157E+06  2.243567E+05  3.629676E+05 -8.495878E+04 -1.650610E+05 -4.163068E+04
       314  27  1.936672E+06  1.896572E+05  2.751838E+05 -1.835733E+04 -5.909944E+04 -4.285516E+04
       315   1  3.263518E+05 -1.689302E+05 -9.509602E+04 -5.444205E+04  5.966105E+04  3.730215E+04
       315   2  4.175218E+05 -1.623282E+05 -1.070253E+05 -3.851761E+04  4.107620E+04  3.350166E+04
       315   3  5.153422E+05 -1.395877E+05 -1.027797E+05 -6.276977E+04  2.248551E+04  2.852555E+04
       315   4  1.083437E+06  1.588163E+04  7.247208E+04 -5.980027E+04  5.685942E+04  3.729730E+04
       315   5  1.080055E+06 -7.019802E+02  3.910602E+04 -3.971201E+04  3.720798E+04  3.349836E+04
       315   6  1.083491E+06 -9.726772E+02  2.263980E+04 -5.979709E+04  1.755349E+04  2.852418E+04
       315   7  1.841056E+06  2.006549E+05  2.400048E+05 -6.516512E+04  5.405437E+04  3.729249E+04
       315   8  1.742997E+06  1.608948E+05  1.852104E+05 -4.090770E+04  3.333566E+04  3.349509E+04
       315   9  1.651941E+06  1.376207E+05  1.480395E+05 -5.682163E+04  1.261701E+04  2.852276E+04
       315  10  3.263476E+05 -1.689326E+05 -9.510532E+04 -5.444384E+04 -1.027411E-09 -2.997745E-10
       315  11  4.175197E+05 -1.623298E+05 -1.070305E+05 -3.851872E+04 -4.597271E-10  1.280854E-10
       315  12  5.153414E+05 -1.395887E+05 -1.027822E+05 -6.277029E+04  3.448103E-10  1.508232E-10
       315  13  1.083433E+06  1.587927E+04  7.246340E+04 -5.980198E+04  2.823447E-10 -8.595427E-11
       315  14  1.080053E+06 -7.035568E+02  3.910131E+04 -3.971301E+04  2.019817E-10 -6.471765E-11
       315  15  1.083490E+06 -9.736339E+02  2.263769E+04 -5.979749E+04 -2.574240E-10  4.195786E-11
       315  16  1.841053E+06  2.006527E+05  2.399967E+05 -6.516674E+04  6.533638E-10  2.083026E-10
       315  17  1.742996E+06  1.608933E+05  1.852062E+05 -4.090860E+04 -5.263185E-10 -2.709729E-10
       315  18  1.651941E+06  1.376198E+05  1.480377E+05 -5.682192E+04  2.206567E-10 -8.426608E-11
       315  19  3.263518E+05 -1.689302E+05 -9.509602E+04 -5.444205E+04 -5.966105E+04 -3.730215E+04
       315  20  4.175218E+05 -1.623282E+05 -1.070253E+05 -3.851761E+04 -4.107620E+04 -3.350166E+04
       315  21  5.153422E+05 -1.395877E+05 -1.027797E+05 -6.276977E+04 -2.248551E+04 -2.852555E+04
       315  22  1.083437E+06  1.588163E+04  7.247208E+04 -5.980027E+04 -5.685942E+04 -3.729730E+04
       315  23  1.080055E+06 -7.019802E+02  3.910602E+04 -3.971201E+04 -3.720798E+04 -3.349836E+04
       315  24  1.083491E+06 -9.726772E+02  2.263980E+04 -5.979709E+04 -1.755349E+04 -2.852418E+04
       315  25  1.841056E+06  2.006549E+05  2.400048E+05 -6.516512E+04 -5.405437E+04 -3.729249E+04
       315  26  1.742997E+06  1.608948E+05  1.852104E+05 -4.090770E+04 -3.333566E+04 -3.349509E+04
       315  27  1.651941E+06  1.376207E+05  1.480395E+05 -5.682163E+04 -1.261701E+04 -2.852276E+04
       316   1  5.919502E+05 -1.187714E+05 -9.040633E+04 -5.989142E+04  1.859136E+04  2.536118E+04
       316   2  6.850429E+05 -9.689680E+04 -7.751517E+04 -3.999642E+04  1.372672E+04  2.019637E+04
       316   3  7.790657E+05 -7.401993E+04 -6.119988E+04 -5.993268E+04  8.858616E+03  1.499156E+04
       316   4  1.082200E+06  7.460517E+02  1.737872E+04 -5.972154E+04  1.402571E+04  2.536060E+04
       316   5  1.081749E+06 -1.522706E+02  9.886035E+03 -3.980688E+04  9.121626E+03  2.019686E+04
       316   6  1.082225E+06 -4.213198E+01  5.842344E+03 -5.972192E+04  4.214790E+03  1.499317E+04
       316   7  1.572674E+06  1.202474E+05  1.251492E+05 -5.955151E+04  9.456508E+03  2.536000E+04
       316   8  1.478602E+06  9.658172E+04  9.727767E+04 -3.961721E+04  4.513628E+03  2.019735E+04
       316   9  1.385469E+06  7.392949E+04  7.287898E+04 -5.951105E+04 -4.312754E+02  1.499478E+04
       316  10  5.919496E+05 -1.187722E+05 -9.040819E+04 -5.989179E+04  4.495197E-10  6.756997E-12
       316  11  6.850426E+05 -9.689729E+04 -7.751629E+04 -3.999665E+04  4.468594E-10 -1.476497E-10
       316  12  7.790656E+05 -7.402019E+04 -6.120045E+04 -5.993279E+04 -9.879653E-11  3.028463E-10
       316  13  1.082199E+06  7.453080E+02  1.737714E+04 -5.972183E+04  4.944271E-10  9.147893E-11
       316  14  1.081749E+06 -1.527312E+02  9.885112E+03 -3.980703E+04  5.400344E-10 -4.289154E-11
       316  15  1.082225E+06 -4.237826E+01  5.841888E+03 -5.972197E+04 -2.124406E-10  6.978574E-12
       316  16  1.572673E+06  1.202467E+05  1.251478E+05 -5.955170E+04  7.767448E-11  9.248268E-11
       316  17  1.478602E+06  9.658128E+04  9.727686E+04 -3.961728E+04 -1.570653E-10  2.264280E-10
       316  18  1.385469E+06  7.392925E+04  7.287855E+04 -5.951104E+04 -4.049306E-10  3.854265E-10
       316  19  5.919502E+05 -1.187714E+05 -9.040633E+04 -5.989142E+04 -1.859136E+04 -2.536118E+04
       316  20  6.850429E+05 -9.689680E+04 -7.751517E+04 -3.999642E+04 -1.372672E+04 -2.019637E+04
       316  21  7.790657E+05 -7.401993E+04 -6.119988E+04 -5.993268E+04 -8.858616E+03 -1.499156E+04
       316  22  1.082200E+06  7.460517E+02  1.737872E+04 -5.972154E+04 -1.402571E+04 -2.536060E+04
       316  23  1.081749E+06 -1.522706E+02  9.886035E+03 -3.980688E+04 -9.121626E+03 -2.019686E+04
       316  24  1.082225E+06 -4.213198E+01  5.842344E+03 -5.972192E+04 -4.214790E+03 -1.499317E+04
       316  25  1.572674E+06  1.202474E+05  1.251492E+05 -5.955151E+04 -9.456508E+03 -2.536000E+04
       316  26  1.478602E+06  9.658172E+04  9.727767E+04 -3.961721E+04 -4.513628E+03 -2.019735E+04
       316  27  1.385469E+06  7.392949E+04  7.287898E+04 -5.951105E+04  4.312754E+02 -1.499478E+04
       317   1  8.562211E+05 -5.497437E+04 -4.492572E+04 -5.974000E+04  7.895010E+03  1.195625E+04
       317   2  9.492342E+05 -3.237259E+04 -2.629133E+04 -3.989266E+04  6.433638E+03  6.758760E+03
       317   3  1.042433E+06 -9.671163E+03 -6.691319E+03 -5.967550E+04  4.971151E+03  1.563371E+03
       317   4  1.082068E+06  4.358727E+01  4.560497E+03 -5.967740E+04  3.273828E+03  1.195830E+04
       317   5  1.081983E+06 -4.786443E+00  2.948886E+03 -3.986258E+04  1.813541E+03  6.761160E+03
       317   6  1.082075E+06  4.671555E+01  2.302071E+03 -5.967744E+04  3.523530E+02  1.566151E+03
       317   7  1.307962E+06  5.505816E+04  5.404369E+04 -5.961476E+04 -1.349013E+03  1.196035E+04
       317   8  1.214749E+06  3.236185E+04  3.218810E+04 -3.983249E+04 -2.807531E+03  6.763560E+03
       317   9  1.121720E+06  9.764498E+03  1.129544E+04 -5.967937E+04 -4.266737E+03  1.568931E+03
       317  10  8.562210E+05 -5.497454E+04 -4.492610E+04 -5.974007E+04  9.300007E-11  1.904418E-10
       317  11  9.492341E+05 -3.237265E+04 -2.629149E+04 -3.989269E+04  1.997175E-10  3.890783E-10
       317  12  1.042433E+06 -9.671173E+03 -6.691370E+03 -5.967551E+04 -3.635703E-10  2.915844E-10
       317  13  1.082068E+06  4.343076E+01  4.560208E+03 -5.967743E+04 -6.097132E-10  5.237161E-10
       317  14  1.081983E+06 -4.836438E+00  2.948794E+03 -3.986259E+04  8.557125E-10 -5.523868E-10
       317  15  1.082075E+06  4.671288E+01  2.302066E+03 -5.967744E+04 -2.928310E-10 -3.931563E-10
       317  16  1.307962E+06  5.505800E+04  5.404342E+04 -5.961475E+04 -2.359356E-11 -6.349913E-10
       317  17  1.214749E+06  3.236180E+04  3.218800E+04 -3.983248E+04 -3.276521E-10 -3.208868E-10
       317  18  1.121720E+06  9.764490E+03  1.129540E+04 -5.967936E+04  2.681133E-10 -6.692960E-10
       317  19  8.562211E+05 -5.497437E+04 -4.492572E+04 -5.974000E+04 -7.895010E+03 -1.195625E+04
       317  20  9.492342E+05 -3.237259E+04 -2.629133E+04 -3.989266E+04 -6.433638E+03 -6.758760E+03
       317  21  1.042433E+06 -9.671163E+03 -6.691319E+03 -5.967550E+04 -4.971151E+03 -1.563371E+03
       317  22  1.082068E+06  4.358727E+01  4.560497E+03 -5.967740E+04 -3.273828E+03 -1.195830E+04
       317  23  1.081983E+06 -4.786443E+00  2.948886E+03 -3.986258E+04 -1.813541E+03 -6.761160E+03
       317  24  1.082075E+06  4.671555E+01  2.302071E+03 -5.967744E+04 -3.523530E+02 -1.566151E+03
       317  25  1.307962E+06  5.505816E+04  5.404369E+04 -5.961476E+04  1.349013E+03 -1.196035E+04
       317  26  1.214749E+06  3.236185E+04  3.218810E+04 -3.983249E+04  2.807531E+03 -6.763560E+03
       317  27  1.121720E+06  9.764498E+03  1.129544E+04 -5.967937E+04  4.266737E+03 -1.568931E+03
       318   1  1.119563E+06  9.239875E+03  1.077163E+04 -5.969295E+04  4.555833E+03 -1.459474E+03
       318   2  1.212600E+06  3.184077E+04  3.144471E+04 -3.985114E+04  3.229700E+03 -6.654064E+03
       318   3  1.305800E+06  5.453172E+04  5.299166E+04 -5.963845E+04  1.904279E+03 -1.185078E+04
       318   4  1.082071E+06  4.674326E+01  2.252219E+03 -5.967743E+04 -6.324345E+01 -1.456692E+03
       318   5  1.081989E+06 -7.867837E-01  2.679835E+03 -3.986259E+04 -1.391332E+03 -6.651657E+03
       318   6  1.082064E+06  4.299312E+01  3.983494E+03 -5.967740E+04 -2.718514E+03 -1.184871E+04
       318   7  1.044580E+06 -9.146474E+03 -6.267203E+03 -5.966190E+04 -4.682044E+03 -1.453911E+03
       318   8  9.513934E+05 -3.184347E+04 -2.608600E+04 -3.987404E+04 -6.011405E+03 -6.649249E+03
       318   9  8.583736E+05 -5.444906E+04 -4.502762E+04 -5.971632E+04 -7.339664E+03 -1.184665E+04
       318  10  1.119563E+06  9.239867E+03  1.077159E+04 -5.969295E+04 -6.508191E-10  1.323041E-10
       318  11  1.212600E+06  3.184072E+04  3.144461E+04 -3.985112E+04  2.285267E-10  5.354849E-11
       318  12  1.305800E+06  5.453157E+04  5.299139E+04 -5.963843E+04  6.750903E-10  3.146189E-11
       318  13  1.082071E+06  4.674098E+01  2.252215E+03 -5.967743E+04 -9.618055E-10  7.581773E-10
       318  14  1.081989E+06 -8.348382E-01  2.679749E+03 -3.986260E+04  9.282785E-13  9.263222E-10
       318  15  1.082063E+06  4.284031E+01  3.983217E+03 -5.967742E+04  7.028192E-11 -6.444708E-10
       318  16  1.044580E+06 -9.146482E+03 -6.267248E+03 -5.966191E+04  3.983243E-10  1.718735E-10
       318  17  9.513934E+05 -3.184353E+04 -2.608615E+04 -3.987407E+04 -4.971425E-10  9.857358E-10
       318  18  8.583735E+05 -5.444922E+04 -4.502799E+04 -5.971639E+04 -3.428713E-10  9.337692E-11
       318  19  1.119563E+06  9.239875E+03  1.077163E+04 -5.969295E+04 -4.555833E+03  1.459474E+03
       318  20  1.212600E+06  3.184077E+04  3.144471E+04 -3.985114E+04 -3.229700E+03  6.654064E+03
       318  21  1.305800E+06  5.453172E+04  5.299166E+04 -5.963845E+04 -1.904279E+03  1.185078E+04
       318  22  1.082071E+06  4.674326E+01  2.252219E+03 -5.967743E+04  6.324345E+01  1.456692E+03
       318  23  1.081989E+06 -7.867837E-01  2.679835E+03 -3.986259E+04  1.391332E+03  6.651657E+03
       318  24  1.082064E+06  4.299312E+01  3.983494E+03 -5.967740E+04  2.718514E+03  1.184871E+04
       318  25  1.044580E+06 -9.146474E+03 -6.267203E+03 -5.966190E+04  4.682044E+03  1.453911E+03
       318  26  9.513934E+05 -3.184347E+04 -2.608600E+04 -3.987404E+04  6.011405E+03  6.649249E+03
       318  27  8.583736E+05 -5.444906E+04 -4.502762E+04 -5.971632E+04  7.339664E+03  1.184665E+04
       319   1  1.383281E+06  7.341451E+04  7.161502E+04 -5.955795E+04  1.109630E+03 -1.488514E+04
       319   2  1.476473E+06  9.607492E+04  9.538438E+04 -3.966166E+04 -3.131959E+03 -2.008768E+04
       319   3  1.570478E+06  1.196044E+05  1.221337E+05 -5.958423E+04 -7.371563E+03 -2.525023E+04
       319   4  1.082196E+06 -3.074776E+01  5.053895E+03 -5.971986E+04 -3.536374E+03 -1.488351E+04
       319   5  1.081786E+06 -1.313369E+02  8.469504E+03 -3.980949E+04 -7.740322E+03 -2.008717E+04
       319   6  1.082172E+06  6.314187E+02  1.484052E+04 -5.971953E+04 -1.194166E+04 -2.525079E+04
       319   7  7.811963E+05 -7.348209E+04 -6.151274E+04 -5.988167E+04 -8.180155E+03 -1.488188E+04
       319   8  6.872433E+05 -9.634801E+04 -7.845484E+04 -3.995721E+04 -1.234579E+04 -2.008666E+04
       319   9  5.940890E+05 -1.183575E+05 -9.246714E+04 -5.985470E+04 -1.650821E+04 -2.525135E+04
       319  10  1.383281E+06  7.341428E+04  7.161460E+04 -5.955794E+04 -9.707904E-10  4.287776E-10
       319  11  1.476473E+06  9.607448E+04  9.538361E+04 -3.966171E+04  9.459398E-11  2.532871E-11
       319  12  1.570477E+06  1.196037E+05  1.221324E+05 -5.958438E+04 -4.010885E-10  4.946396E-10
       319  13  1.082196E+06 -3.098911E+01  5.053455E+03 -5.971990E+04 -1.045938E-10 -3.347492E-10
       319  14  1.081785E+06 -1.317865E+02  8.468633E+03 -3.980961E+04  9.142690E-10 -2.712298E-10
       319  15  1.082172E+06  6.306954E+02  1.483906E+04 -5.971977E+04 -1.015931E-10  3.428244E-10
       319  16  7.811961E+05 -7.348235E+04 -6.151328E+04 -5.988177E+04  2.425745E-10  3.072498E-10
       319  17  6.872431E+05 -9.634849E+04 -7.845588E+04 -3.995741E+04  5.884143E-10 -6.765041E-11
       319  18  5.940886E+05 -1.183583E+05 -9.246885E+04 -5.985504E+04  5.528096E-10 -1.370603E-10
       319  19  1.383281E+06  7.341451E+04  7.161502E+04 -5.955795E+04 -1.109630E+03  1.488514E+04
       319  20  1.476473E+06  9.607492E+04  9.538438E+04 -3.966166E+04  3.131959E+03  2.008768E+04
       319  21  1.570478E+06  1.196044E+05  1.221337E+05 -5.958423E+04  7.371563E+03  2.525023E+04
       319  22  1.082196E+06 -3.074776E+01  5.053895E+03 -5.971986E+04  3.536374E+03  1.488351E+04
       319  23  1.081786E+06 -1.313369E+02  8.469504E+03 -3.980949E+04  7.740322E+03  2.008717E+04
       319  24  1.082172E+06  6.314187E+02  1.484052E+04 -5.971953E+04  1.194166E+04  2.525079E+04
       319  25  7.811963E+05 -7.348209E+04 -6.151274E+04 -5.988167E+04  8.180155E+03  1.488188E+04
       319  26  6.872433E+05 -9.634801E+04 -7.845484E+04 -3.995721E+04  1.234579E+04  2.008666E+04
       319  27  5.940890E+05 -1.183575E+05 -9.246714E+04 -5.985470E+04  1.650821E+04  2.525135E+04
       320   1  1.649548E+06  1.372281E+05  1.442419E+05 -5.726727E+04 -1.001628E+04 -2.841239E+04
       320   2  1.741085E+06  1.604507E+05  1.789717E+05 -4.071913E+04 -2.783759E+04 -3.338400E+04
       320   3  1.838645E+06  1.977568E+05  2.288410E+05 -6.434352E+04 -4.565810E+04 -3.718231E+04
       320   4  1.083275E+06 -8.348819E+02  1.932121E+04 -5.979757E+04 -1.495315E+04 -2.841380E+04
       320   5  1.080329E+06 -6.132322E+02  3.334870E+04 -3.971157E+04 -3.171449E+04 -3.338723E+04
       320   6  1.083223E+06  1.351826E+04  6.179332E+04 -5.980021E+04 -4.847236E+04 -3.718694E+04
       320   7  5.173005E+05 -1.389194E+05 -1.056191E+05 -6.232552E+04 -1.988557E+04 -2.841516E+04
       320   8  4.199799E+05 -1.617064E+05 -1.123010E+05 -3.870510E+04 -3.558730E+04 -3.339046E+04
       320   9  3.283321E+05 -1.707586E+05 -1.052896E+05 -5.526251E+04 -5.128322E+04 -3.719163E+04
       320  10  1.649547E+06  1.372272E+05  1.442402E+05 -5.726750E+04  5.204688E-10  1.881700E-10
       320  11  1.741083E+06  1.604493E+05  1.789681E+05 -4.071988E+04 -5.654165E-10 -5.679505E-10
       320  12  1.838643E+06  1.977548E+05  2.288345E+05 -6.434489E+04 -1.097938E-09 -2.097443E-10
       320  13  1.083274E+06 -8.358093E+02  1.931928E+04 -5.979791E+04  1.038720E-11  1.552401E-11
       320  14  1.080327E+06 -6.146993E+02  3.334471E+04 -3.971242E+04 -1.582382E-10 -2.274002E-10
       320  15  1.083220E+06  1.351614E+04  6.178631E+04 -5.980167E+04  1.387516E-10 -7.308628E-11
       320  16  5.172999E+05 -1.389203E+05 -1.056214E+05 -6.232598E+04 -5.838326E-10 -2.945096E-10
       320  17  4.199782E+05 -1.617079E+05 -1.123055E+05 -3.870606E+04  2.443949E-10 -5.368680E-10
       320  18  3.283289E+05 -1.707608E+05 -1.052971E+05 -5.526405E+04  1.898390E-10  4.888403E-10
       320  19  1.649548E+06  1.372281E+05  1.442419E+05 -5.726727E+04  1.001628E+04  2.841239E+04
       320  20  1.741085E+06  1.604507E+05  1.789717E+05 -4.071913E+04  2.783759E+04  3.338400E+04
       320  21  1.838645E+06  1.977568E+05  2.288410E+05 -6.434352E+04  4.565810E+04  3.718231E+04
       320  22  1.083275E+06 -8.348819E+02  1.932121E+04 -5.979757E+04  1.495315E+04  2.841380E+04
       320  23  1.080329E+06 -6.132322E+02  3.334870E+04 -3.971157E+04  3.171449E+04  3.338723E+04
       320  24  1.083223E+06  1.351826E+04  6.179332E+04 -5.980021E+04  4.847236E+04  3.718694E+04
       320  25  5.173005E+05 -1.389194E+05 -1.056191E+05 -6.232552E+04  1.988557E+04  2.841516E+04
       320  26  4.199799E+05 -1.617064E+05 -1.123010E+05 -3.870510E+04  3.558730E+04  3.339046E+04
       320  27  3.283321E+05 -1.707586E+05 -1.052896E+05 -5.526251E+04  5.128322E+04  3.719163E+04
       321   1  1.931888E+06  1.912048E+05  2.612861E+05 -2.440040E+04 -4.880193E+04 -4.273699E+04
       321   2  1.992178E+06  2.242621E+05  3.396799E+05 -7.822671E+04 -1.426238E+05 -4.151608E+04
       321   3  2.124420E+06  4.949763E+05  5.385264E+05 -1.719219E+05 -2.364949E+05 -1.347374E+04
       321   4  1.097008E+06 -1.226680E+04  7.761719E+04 -5.966750E+04 -5.954681E+04 -4.274403E+04
       321   5  1.062973E+06 -2.765533E+03  1.317470E+05 -3.985779E+04 -1.294166E+05 -4.151813E+04
       321   6  1.096830E+06  2.404155E+05  2.898304E+05 -5.990471E+04 -1.993176E+05 -1.347504E+04
       321   7  2.627800E+05 -2.157804E+05 -1.060932E+05 -9.488679E+04 -7.027741E+04 -4.274986E+04
       321   8  1.345725E+05 -2.298462E+05 -7.623888E+04 -1.546870E+03 -1.162288E+05 -4.151855E+04
       321   9  7.023286E+04 -1.417438E+04  4.107046E+04  5.192682E+04 -1.622012E+05 -1.346298E+04
       321  10  1.931885E+06  1.912022E+05  2.612782E+05 -2.440208E+04  1.231882E-09 -8.554848E-11
       321  11  1.992156E+06  2.242548E+05  3.396385E+05 -7.823148E+04  5.244573E-10 -2.688898E-10
       321  12  2.124360E+06  4.949612E+05  5.384213E+05 -1.719244E+05  4.437030E-10  3.825965E-10
       321  13  1.097003E+06 -1.226971E+04  7.760710E+04 -5.966955E+04 -4.010102E-10 -9.678800E-10
       321  14  1.062954E+06 -2.771871E+03  1.317123E+05 -3.986211E+04 -7.938315E-10 -2.446278E-10
       321  15  1.096788E+06  2.404047E+05  2.897555E+05 -5.990687E+04  7.195500E-10 -6.119980E-10
       321  16  2.627742E+05 -2.157836E+05 -1.061060E+05 -9.488921E+04 -1.649194E-09  1.489852E-10
       321  17  1.345575E+05 -2.298517E+05 -7.626750E+04 -1.550757E+03 -5.906954E-10 -8.818171E-10
       321  18  7.020456E+04 -1.418163E+04  4.102069E+04  5.192506E+04 -1.680625E-10  8.576023E-10
       321  19  1.931888E+06  1.912048E+05  2.612861E+05 -2.440040E+04  4.880193E+04  4.273699E+04
       321  20  1.992178E+06  2.242621E+05  3.396799E+05 -7.822671E+04  1.426238E+05  4.151608E+04
       321  21  2.124420E+06  4.949763E+05  5.385264E+05 -1.719219E+05  2.364949E+05  1.347374E+04
       321  22  1.097008E+06 -1.226680E+04  7.761719E+04 -5.966750E+04  5.954681E+04  4.274403E+04
       321  23  1.062973E+06 -2.765533E+03  1.317470E+05 -3.985779E+04  1.294166E+05  4.151813E+04
       321  24  1.096830E+06  2.404155E+05  2.898304E+05 -5.990471E+04  1.993176E+05  1.347504E+04
       321  25  2.627800E+05 -2.157804E+05 -1.060932E+05 -9.488679E+04  7.027741E+04  4.274986E+04
       321  26  1.345725E+05 -2.298462E+05 -7.623888E+04 -1.546870E+03  1.162288E+05  4.151855E+04
       321  27  7.023286E+04 -1.417438E+04  4.107046E+04  5.192682E+04  1.622012E+05  1.346298E+04
       322   1  2.534736E+05  7.661501E+05  2.854488E+05 -2.014916E+05  2.723309E+03  1.389362E+05
       322   2  3.909261E+04  5.468311E+05  1.303401E+05 -1.100525E+05  5.842285E+03  8.005868E+04
       322   3 -1.473369E+04  3.750342E+05  5.360452E+04 -1.012653E+05 -2.151978E+03  2.118223E+04
       322   4  1.632511E+05  4.048634E+05  1.968504E+05 -1.245174E+05  2.752796E+03  1.312860E+05
       322   5 -1.513738E+03  3.819859E+05  9.258777E+04 -8.333099E+04  5.842158E+03  8.230455E+04
       322   6 -7.414941E+03  4.049106E+05  5.986544E+04 -1.247804E+05 -2.173582E+03  3.330566E+04
       322   7  7.304114E+04  4.370822E+04  1.082458E+05 -4.758787E+04  2.780399E+03  1.236403E+05
       322   8 -4.211931E+04  2.171674E+05  5.483410E+04 -5.661664E+04  5.842224E+03  8.454983E+04
       322   9 -9.409307E+01  4.347894E+05  6.612716E+04 -1.482967E+05 -2.196103E+03  4.542967E+04
       322  10  2.534684E+05  7.661294E+05  2.854125E+05 -2.014920E+05 -1.756910E-10 -6.479259E-10
       322  11  3.909085E+04  5.468242E+05  1.303280E+05 -1.100529E+05 -7.763082E-10 -1.577876E-09
       322  12 -1.473382E+04  3.750337E+05  5.360367E+04 -1.012652E+05  1.073295E-09  1.537305E-09
       322  13  1.632465E+05  4.048449E+05  1.968180E+05 -1.245177E+05  1.052581E-09  2.009504E-12
       322  14 -1.515592E+03  3.819786E+05  9.257499E+04 -8.333138E+04  4.296105E-10  8.503552E-10
       322  15 -7.415243E+03  4.049094E+05  5.986335E+04 -1.247803E+05  2.239636E-10 -8.274211E-11
       322  16  7.303703E+04  4.369180E+04  1.082171E+05 -4.758815E+04  6.709714E-11  2.502346E-10
       322  17 -4.212127E+04  2.171597E+05  5.482061E+04 -5.661704E+04  5.703603E-10 -1.619721E-09
       322  18 -9.465176E+01  4.347872E+05  6.612327E+04 -1.482966E+05  1.121894E-11 -1.624183E-09
       322  19  2.534736E+05  7.661501E+05  2.854488E+05 -2.014916E+05 -2.723309E+03 -1.389362E+05
       322  20  3.909261E+04  5.468311E+05  1.303401E+05 -1.100525E+05 -5.842285E+03 -8.005868E+04
       322  21 -1.473369E+04  3.750342E+05  5.360452E+04 -1.012653E+05  2.151978E+03 -2.118223E+04
       322  22  1.632511E+05  4.048634E+05  1.968504E+05 -1.245174E+05 -2.752796E+03 -1.312860E+05
       322  23 -1.513738E+03  3.819859E+05  9.258777E+04 -8.333099E+04 -5.842158E+03 -8.230455E+04
       322  24 -7.414941E+03  4.049106E+05  5.986544E+04 -1.247804E+05  2.173582E+03 -3.330566E+04
       322  25  7.304114E+04  4.370822E+04  1.082458E+05 -4.758787E+04 -2.780399E+03 -1.236403E+05
       322  26 -4.211931E+04  2.171674E+05  5.483410E+04 -5.661664E+04 -5.842224E+03 -8.454983E+04
       322  27 -9.409307E+01  4.347894E+05  6.612716E+04 -1.482967E+05  2.196103E+03 -4.542967E+04
       323   1 -3.773710E+04  2.037660E+05  9.212900E+03 -1.292453E+05 -9.647399E+03  1.504006E+04
       323   2 -9.512384E+04  4.812690E+03 -4.536904E+04 -8.294409E+04 -1.958245E+04 -4.447568E+03
       323   3 -1.353434E+05 -1.874979E+05 -8.303202E+04 -1.198718E+05 -2.865064E+04 -2.392294E+04
       323   4  9.228203E+03  3.962158E+05  5.174305E+04 -1.248390E+05 -9.662736E+03  2.428479E+04
       323   5 -4.054776E+02  3.928246E+05  4.028709E+04 -8.322852E+04 -1.959449E+04  4.018138E+03
       323   6  7.260094E+03  3.961724E+05  4.628817E+04 -1.248422E+05 -2.865949E+04 -1.624220E+04
       323   7  5.619113E+04  5.887005E+05  9.427125E+04 -1.204314E+05 -9.677939E+03  3.353234E+04
       323   8  9.430280E+04  7.809773E+05  1.259342E+05 -8.351307E+04 -1.960655E+04  1.248907E+04
       323   9  1.498407E+05  9.801608E+05  1.755875E+05 -1.298173E+05 -2.866847E+04 -8.554319E+03
       323  10 -3.773726E+04  2.037657E+05  9.212300E+03 -1.292452E+05  5.944593E-10 -3.946997E-10
       323  11 -9.512426E+04  4.812566E+03 -4.536980E+04 -8.294416E+04  2.198292E-10 -1.989650E-09
       323  12 -1.353445E+05 -1.874987E+05 -8.303464E+04 -1.198723E+05 -3.031567E-10  6.380991E-10
       323  13  9.227945E+03  3.962152E+05  5.174177E+04 -1.248388E+05  7.079051E-10  4.793055E-12
       323  14 -4.058942E+02  3.928245E+05  4.028634E+04 -8.322846E+04  1.225386E-09  6.700025E-10
       323  15  7.259141E+03  3.961719E+05  4.628613E+04 -1.248426E+05  6.715887E-10 -1.897224E-10
       323  16  5.619073E+04  5.886992E+05  9.426896E+04 -1.204311E+05  2.427873E-10  4.666393E-12
       323  17  9.430235E+04  7.809771E+05  1.259332E+05 -8.351288E+04 -5.286396E-10 -9.895031E-10
       323  18  1.498398E+05  9.801605E+05  1.755858E+05 -1.298175E+05 -3.738980E-10 -7.637701E-10
       323  19 -3.773710E+04  2.037660E+05  9.212900E+03 -1.292453E+05  9.647399E+03 -1.504006E+04
       323  20 -9.512384E+04  4.812690E+03 -4.536904E+04 -8.294409E+04  1.958245E+04  4.447568E+03
       323  21 -1.353434E+05 -1.874979E+05 -8.303202E+04 -1.198718E+05  2.865064E+04  2.392294E+04
       323  22  9.228203E+03  3.962158E+05  5.174305E+04 -1.248390E+05  9.662736E+03 -2.428479E+04
       323  23 -4.054776E+02  3.928246E+05  4.028709E+04 -8.322852E+04  1.959449E+04 -4.018138E+03
       323  24  7.260094E+03  3.961724E+05  4.628817E+04 -1.248422E+05  2.865949E+04  1.624220E+04
       323  25  5.619113E+04  5.887005E+05  9.427125E+04 -1.204314E+05  9.677939E+03 -3.353234E+04
       323  26  9.430280E+04  7.809773E+05  1.259342E+05 -8.351307E+04  1.960655E+04 -1.248907E+04
       323  27  1.498407E+05  9.801608E+05  1.755875E+05 -1.298173E+05  2.866847E+04  8.554319E+03
       324   1 -1.882253E+05 -3.437015E+05 -1.129281E+05 -1.429840E+05 -3.785950E+04 -4.082086E+04
       324   2 -2.319515E+05 -5.565133E+05 -1.346267E+05 -6.124278E+04 -4.118348E+04 -5.400623E+04
       324   3 -1.507316E+05 -7.361300E+05 -1.164538E+05 -6.162958E+04 -1.373693E+04 -6.716688E+04
       324   4 -5.982730E+03  4.030392E+05  5.182129E+04 -1.246271E+05 -3.787894E+04 -2.422856E+04
       324   5 -1.494707E+03  3.840542E+05  7.671248E+04 -8.351575E+04 -4.116702E+04 -6.476945E+04
       324   6  1.325790E+05  4.029092E+05  1.604180E+05 -1.245139E+05 -1.370368E+04 -1.052910E+05
       324   7  1.762238E+05  1.150302E+06  2.165376E+05 -1.062477E+05 -3.789739E+04 -7.616519E+03
       324   8  2.289035E+05  1.325446E+06  2.879962E+05 -1.058226E+05 -4.114980E+04 -7.554876E+04
       324   9  4.158097E+05  1.543145E+06  4.372036E+05 -1.875138E+05 -1.366275E+04 -1.434847E+05
       324  10 -1.882273E+05 -3.437037E+05 -1.129339E+05 -1.429852E+05 -1.696645E-11  4.435799E-11
       324  11 -2.319541E+05 -5.565169E+05 -1.346354E+05 -6.124457E+04  2.058585E-10 -8.473098E-10
       324  12 -1.507330E+05 -7.361349E+05 -1.164627E+05 -6.163032E+04 -1.574308E-10  1.607859E-10
       324  13 -5.984428E+03  4.030382E+05  5.181749E+04 -1.246279E+05 -6.534993E-10  1.021346E-10
       324  14 -1.497653E+03  3.840492E+05  7.670142E+04 -8.351790E+04  2.269728E-10  3.340060E-10
       324  15  1.325758E+05  4.028973E+05  1.603969E+05 -1.245151E+05 -2.156959E-10  1.951562E-13
       324  16  1.762223E+05  1.150302E+06  2.165348E+05 -1.062479E+05  1.884596E-10 -4.637032E-10
       324  17  2.289002E+05  1.325440E+06  2.879823E+05 -1.058251E+05 -2.141240E-10 -1.030032E-09
       324  18  4.158040E+05  1.543123E+06  4.371646E+05 -1.875154E+05 -3.709948E-10 -1.706741E-10
       324  19 -1.882253E+05 -3.437015E+05 -1.129281E+05 -1.429840E+05  3.785950E+04  4.082086E+04
       324  20 -2.319515E+05 -5.565133E+05 -1.346267E+05 -6.124278E+04  4.118348E+04  5.400623E+04
       324  21 -1.507316E+05 -7.361300E+05 -1.164538E+05 -6.162958E+04  1.373693E+04  6.716688E+04
       324  22 -5.982730E+03  4.030392E+05  5.182129E+04 -1.246271E+05  3.787894E+04  2.422856E+04
       324  23 -1.494707E+03  3.840542E+05  7.671248E+04 -8.351575E+04  4.116702E+04  6.476945E+04
       324  24  1.325790E+05  4.029092E+05  1.604180E+05 -1.245139E+05  1.370368E+04  1.052910E+05
       324  25  1.762238E+05  1.150302E+06  2.165376E+05 -1.062477E+05  3.789739E+04  7.616519E+03
       324  26  2.289035E+05  1.325446E+06  2.879962E+05 -1.058226E+05  4.114980E+04  7.554876E+04
       324  27  4.158097E+05  1.543145E+06  4.372036E+05 -1.875138E+05  1.366275E+04  1.434847E+05
       325   1 -2.632260E+06 -1.019048E+06 -5.641731E+05 -1.027974E+06 -2.714230E+05 -8.522144E+04
       325   2 -2.558048E+06 -7.022898E+05 -3.358452E+05 -9.948355E+05 -1.720747E+05 -9.623227E+03
       325   3 -2.551215E+06 -5.827075E+05 -2.405083E+05 -9.354936E+05 -6.264178E+04  3.926963E+04
       325   4 -1.764273E+06 -5.467737E+05 -3.104052E+05 -6.409403E+05 -2.054770E+05 -6.048432E+04
       325   5 -1.717116E+06 -3.309548E+05 -1.415397E+05 -6.994806E+05 -1.437472E+05  1.004501E+03
       325   6 -1.729762E+06 -3.047137E+05 -7.566656E+04 -7.318538E+05 -7.195065E+04  3.576520E+04
       325   7 -8.954976E+05 -7.417122E+04 -5.669137E+04 -2.533376E+05 -1.394314E+05 -3.567053E+04
       325   8 -8.754524E+05  4.052879E+04  5.272253E+04 -4.037260E+05 -1.153784E+05  1.165490E+04
       325   9 -9.076058E+05 -2.668380E+04  8.914531E+04 -5.279724E+05 -8.127291E+04  3.225664E+04
       325  10 -2.632342E+06 -1.019075E+06 -5.643259E+05 -1.027993E+06  3.204668E-10  3.440808E-10
       325  11 -2.558080E+06 -7.022979E+05 -3.359012E+05 -9.948369E+05 -2.452910E-10  6.023297E-10
       325  12 -2.551220E+06 -5.827102E+05 -2.405186E+05 -9.354917E+05  8.929555E-10  5.685069E-11
       325  13 -1.764319E+06 -5.467890E+05 -3.104917E+05 -6.409503E+05  5.804794E-10  5.064339E-10
       325  14 -1.717138E+06 -3.309603E+05 -1.415786E+05 -6.994805E+05  4.316901E-10 -9.920095E-10
       325  15 -1.729768E+06 -3.047165E+05 -7.567870E+04 -7.318517E+05 -2.962129E-10 -1.709178E-10
       325  16 -8.955189E+05 -7.417782E+04 -5.673036E+04 -2.533416E+05  4.704199E-10 -3.793129E-10
       325  17 -8.754668E+05  4.052507E+04  5.269723E+04 -4.037249E+05  5.073536E-10 -1.845376E-09
       325  18 -9.076132E+05 -2.668669E+04  8.913093E+04 -5.279703E+05 -1.750584E-11 -1.230753E-09
       325  19 -2.632260E+06 -1.019048E+06 -5.641731E+05 -1.027974E+06  2.714230E+05  8.522144E+04
       325  20 -2.558048E+06 -7.022898E+05 -3.358452E+05 -9.948355E+05  1.720747E+05  9.623227E+03
       325  21 -2.551215E+06 -5.827075E+05 -2.405083E+05 -9.354936E+05  6.264178E+04 -3.926963E+04
       325  22 -1.764273E+06 -5.467737E+05 -3.104052E+05 -6.409403E+05  2.054770E+05  6.048432E+04
       325  23 -1.717116E+06 -3.309548E+05 -1.415397E+05 -6.994806E+05  1.437472E+05 -1.004501E+03
       325  24 -1.729762E+06 -3.047137E+05 -7.566656E+04 -7.318538E+05  7.195065E+04 -3.576520E+04
       325  25 -8.954976E+05 -7.417122E+04 -5.669137E+04 -2.533376E+05  1.394314E+05  3.567053E+04
       325  26 -8.754524E+05  4.052879E+04  5.272253E+04 -4.037260E+05  1.153784E+05 -1.165490E+04
       325  27 -9.076058E+05 -2.668380E+04  8.914531E+04 -5.279724E+05  8.127291E+04 -3.225664E+04
       326   1 -2.463835E+06 -5.893428E+05 -2.104255E+05 -9.339056E+05 -5.770496E+04  3.678760E+04
       326   2 -2.385757E+06 -5.388218E+05 -1.635528E+05 -9.012481E+05 -3.837218E+04  3.972745E+04
       326   3 -2.296356E+06 -5.132526E+05 -1.322136E+05 -8.862454E+05 -1.835605E+04  4.084700E+04
       326   4 -1.720297E+06 -3.135862E+05 -5.782039E+04 -7.244524E+05 -6.180148E+04  3.524152E+04
       326   5 -1.725503E+06 -2.965565E+05 -3.053892E+04 -7.174172E+05 -4.501867E+04  3.722578E+04
       326   6 -1.718878E+06 -3.039635E+05 -1.675050E+04 -7.280380E+05 -2.755556E+04  3.738965E+04
       326   7 -9.761890E+05 -3.777887E+04  9.475630E+04 -5.147651E+05 -6.590327E+04  3.369342E+04
       326   8 -1.064800E+06 -5.425375E+04  1.024530E+05 -5.334052E+05 -5.167274E+04  3.472126E+04
       326   9 -1.141060E+06 -9.464883E+04  9.869556E+04 -5.696958E+05 -3.676422E+04  3.392894E+04
       326  10 -2.463839E+06 -5.893451E+05 -2.104343E+05 -9.339039E+05  3.712776E-10 -2.578285E-10
       326  11 -2.385759E+06 -5.388239E+05 -1.635586E+05 -9.012468E+05 -7.076937E-10  3.353972E-10
       326  12 -2.296356E+06 -5.132545E+05 -1.322174E+05 -8.862448E+05 -2.864393E-10  3.237756E-10
       326  13 -1.720302E+06 -3.135886E+05 -5.782991E+04 -7.244506E+05  6.226928E-10 -7.506752E-10
       326  14 -1.725505E+06 -2.965585E+05 -3.054533E+04 -7.174158E+05  7.566673E-10 -3.954781E-10
       326  15 -1.718879E+06 -3.039653E+05 -1.675455E+04 -7.280371E+05 -7.116905E-10 -2.347483E-11
       326  16 -9.761940E+05 -3.778125E+04  9.474600E+04 -5.147633E+05  3.791262E-10 -7.145979E-11
       326  17 -1.064803E+06 -5.425576E+04  1.024457E+05 -5.334038E+05  1.662090E-10 -1.024764E-10
       326  18 -1.141062E+06 -9.465043E+04  9.869085E+04 -5.696948E+05 -4.103253E-10 -1.610995E-10
       326  19 -2.463835E+06 -5.893428E+05 -2.104255E+05 -9.339056E+05  5.770496E+04 -3.678760E+04
       326  20 -2.385757E+06 -5.388218E+05 -1.635528E+05 -9.012481E+05  3.837218E+04 -3.972745E+04
       326  21 -2.296356E+06 -5.132526E+05 -1.322136E+05 -8.862454E+05  1.835605E+04 -4.084700E+04
       326  22 -1.720297E+06 -3.135862E+05 -5.782039E+04 -7.244524E+05  6.180148E+04 -3.524152E+04
       326  23 -1.725503E+06 -2.965565E+05 -3.053892E+04 -7.174172E+05  4.501867E+04 -3.722578E+04
       326  24 -1.718878E+06 -3.039635E+05 -1.675050E+04 -7.280380E+05  2.755556E+04 -3.738965E+04
       326  25 -9.761890E+05 -3.777887E+04  9.475630E+04 -5.147651E+05  6.590327E+04 -3.369342E+04
       326  26 -1.064800E+06 -5.425375E+04  1.024530E+05 -5.334052E+05  5.167274E+04 -3.472126E+04
       326  27 -1.141060E+06 -9.464883E+04  9.869556E+04 -5.696958E+05  3.676422E+04 -3.392894E+04
       327   1 -2.236524E+06 -4.931961E+05 -1.159497E+05 -8.707964E+05 -1.491119E+04  3.781003E+04
       327   2 -2.158868E+06 -4.532540E+05 -9.322995E+04 -8.375148E+05 -8.882025E+03  3.282681E+04
       327   3 -2.064951E+06 -4.305659E+05 -7.331462E+04 -8.235635E+05 -2.803732E+03  2.770643E+04
       327   4 -1.718158E+06 -3.043593E+05 -1.260814E+04 -7.276545E+05 -2.378269E+04  3.447734E+04
       327   5 -1.726271E+06 -2.956276E+05 -6.930015E+03 -7.180277E+05 -1.794446E+04  2.942448E+04
       327   6 -1.718093E+06 -3.041121E+05 -3.903736E+03 -7.277336E+05 -1.205767E+04  2.423434E+04
       327   7 -1.199509E+06 -1.154978E+05  9.072214E+04 -5.844005E+05 -3.266225E+04  3.114165E+04
       327   8 -1.293477E+06 -1.379844E+05  7.936185E+04 -5.984628E+05 -2.701373E+04  2.601960E+04
       327   9 -1.371110E+06 -1.776479E+05  6.550174E+04 -6.318540E+05 -2.131717E+04  2.076017E+04
       327  10 -2.236524E+06 -4.931977E+05 -1.159528E+05 -8.707959E+05  9.003611E-10 -8.731166E-11
       327  11 -2.158869E+06 -4.532552E+05 -9.323212E+04 -8.375145E+05  7.030708E-10 -5.005030E-10
       327  12 -2.064951E+06 -4.305667E+05 -7.331608E+04 -8.235634E+05 -2.337448E-09 -6.502468E-10
       327  13 -1.718159E+06 -3.043607E+05 -1.261144E+04 -7.276539E+05 -1.509316E-10  5.512193E-11
       327  14 -1.726271E+06 -2.956286E+05 -6.932246E+03 -7.180273E+05 -2.944546E-10 -1.787410E-10
       327  15 -1.718093E+06 -3.041128E+05 -3.905112E+03 -7.277334E+05 -5.769229E-09 -1.570110E-09
       327  16 -1.199511E+06 -1.154991E+05  9.071832E+04 -5.843997E+05  1.433417E-09  2.986424E-10
       327  17 -1.293478E+06 -1.379853E+05  7.935921E+04 -5.984623E+05 -1.927236E-09  2.346319E-10
       327  18 -1.371111E+06 -1.776485E+05  6.550008E+04 -6.318537E+05 -7.120286E-09 -1.897347E-09
       327  19 -2.236524E+06 -4.931961E+05 -1.159497E+05 -8.707964E+05  1.491119E+04 -3.781003E+04
       327  20 -2.158868E+06 -4.532540E+05 -9.322995E+04 -8.375148E+05  8.882025E+03 -3.282681E+04
       327  21 -2.064951E+06 -4.305659E+05 -7.331462E+04 -8.235635E+05  2.803732E+03 -2.770643E+04
       327  22 -1.718158E+06 -3.043593E+05 -1.260814E+04 -7.276545E+05  2.378269E+04 -3.447734E+04
       327  23 -1.726271E+06 -2.956276E+05 -6.930015E+03 -7.180277E+05  1.794446E+04 -2.942448E+04
       327  24 -1.718093E+06 -3.041121E+05 -3.903736E+03 -7.277336E+05  1.205767E+04 -2.423434E+04
       327  25 -1.199509E+06 -1.154978E+05  9.072214E+04 -5.844005E+05  3.266225E+04 -3.114165E+04
       327  26 -1.293477E+06 -1.379844E+05  7.936185E+04 -5.984628E+05  2.701373E+04 -2.601960E+04
       327  27 -1.371110E+06 -1.776479E+05  6.550174E+04 -6.318540E+05  2.131717E+04 -2.076017E+04
       328   1 -2.006235E+06 -4.091761E+05 -6.022690E+04 -8.074228E+05 -8.075760E+02  2.409949E+04
       328   2 -1.928436E+06 -3.693429E+05 -4.215026E+04 -7.738919E+05  2.603403E+03  1.790023E+04
       328   3 -1.833835E+06 -3.464584E+05 -2.478493E+04 -7.597718E+05  6.018830E+03  1.168547E+04
       328   4 -1.717983E+06 -3.041355E+05 -3.001573E+03 -7.277165E+05 -1.005308E+04  2.063149E+04
       328   5 -1.726376E+06 -2.956638E+05 -1.869202E+03 -7.180069E+05 -6.663957E+03  1.442503E+04
       328   6 -1.717972E+06 -3.041367E+05 -1.430839E+03 -7.277109E+05 -3.270516E+03  8.202996E+03
       328   7 -1.429648E+06 -1.990885E+05  5.421956E+04 -6.479765E+05 -1.930313E+04  1.716180E+04
       328   8 -1.524275E+06 -2.219810E+05  3.841028E+04 -6.621050E+05 -1.593456E+04  1.094860E+04
       328   9 -1.602094E+06 -2.618135E+05  2.192323E+04 -6.956440E+05 -1.256180E+04  4.719792E+03
       328  10 -2.006236E+06 -4.091767E+05 -6.022800E+04 -8.074227E+05 -7.767621E-09 -1.745125E-09
       328  11 -1.928436E+06 -3.693433E+05 -4.215088E+04 -7.738920E+05 -1.909070E-09  5.308452E-10
       328  12 -1.833835E+06 -3.464585E+05 -2.478526E+04 -7.597719E+05  1.359554E-09  5.474775E-10
       328  13 -1.717984E+06 -3.041359E+05 -3.002562E+03 -7.277163E+05 -5.008125E-09 -1.129996E-09
       328  14 -1.726377E+06 -2.956640E+05 -1.869676E+03 -7.180069E+05 -1.304273E-09 -3.340403E-10
       328  15 -1.717972E+06 -3.041368E+05 -1.430985E+03 -7.277108E+05  7.367113E-10 -7.044837E-11
       328  16 -1.429648E+06 -1.990889E+05  5.421830E+04 -6.479762E+05 -2.206665E-09 -4.530519E-10
       328  17 -1.524275E+06 -2.219812E+05  3.840958E+04 -6.621049E+05  1.324705E-09 -8.845905E-11
       328  18 -1.602094E+06 -2.618136E+05  2.192289E+04 -6.956440E+05  1.338460E-10 -4.079223E-10
       328  19 -2.006235E+06 -4.091761E+05 -6.022690E+04 -8.074228E+05  8.075760E+02 -2.409949E+04
       328  20 -1.928436E+06 -3.693429E+05 -4.215026E+04 -7.738919E+05 -2.603403E+03 -1.790023E+04
       328  21 -1.833835E+06 -3.464584E+05 -2.478493E+04 -7.597718E+05 -6.018830E+03 -1.168547E+04
       328  22 -1.717983E+06 -3.041355E+05 -3.001573E+03 -7.277165E+05  1.005308E+04 -2.063149E+04
       328  23 -1.726376E+06 -2.956638E+05 -1.869202E+03 -7.180069E+05  6.663957E+03 -1.442503E+04
       328  24 -1.717972E+06 -3.041367E+05 -1.430839E+03 -7.277109E+05  3.270516E+03 -8.202996E+03
       328  25 -1.429648E+06 -1.990885E+05  5.421956E+04 -6.479765E+05  1.930313E+04 -1.716180E+04
       328  26 -1.524275E+06 -2.219810E+05  3.841028E+04 -6.621050E+05  1.593456E+04 -1.094860E+04
       328  27 -1.602094E+06 -2.618135E+05  2.192323E+04 -6.956440E+05  1.256180E+04 -4.719792E+03
       329   1 -1.775056E+06 -3.249420E+05 -1.254057E+04 -7.435554E+05  7.695698E+03  7.945436E+03
       329   2 -1.697134E+06 -2.850502E+05  4.071023E+03 -7.099834E+05  1.102332E+04  1.691506E+03
       329   3 -1.602385E+06 -2.621215E+05  2.003765E+04 -6.958499E+05  1.434847E+04 -4.555285E+03
       329   4 -1.717965E+06 -3.041394E+05 -1.410286E+03 -7.277167E+05 -1.597746E+03  4.461666E+03
       329   5 -1.726373E+06 -2.956449E+05 -1.750781E+03 -7.180010E+05  1.739252E+03 -1.788889E+03
       329   6 -1.717964E+06 -3.041160E+05 -2.743810E+03 -7.277267E+05  5.073644E+03 -8.032324E+03
       329   7 -1.660869E+06 -2.833365E+05  9.720216E+03 -7.118765E+05 -1.089211E+04  9.775517E+02
       329   8 -1.755611E+06 -3.062394E+05 -7.572219E+03 -7.260181E+05 -7.544302E+03 -5.269095E+03
       329   9 -1.833529E+06 -3.461089E+05 -2.552524E+04 -7.595976E+05 -4.199249E+03 -1.150864E+04
       329  10 -1.775057E+06 -3.249421E+05 -1.254080E+04 -7.435554E+05 -3.889544E-10 -7.508809E-11
       329  11 -1.697134E+06 -2.850503E+05  4.070788E+03 -7.099834E+05 -3.184159E-10  5.417304E-10
       329  12 -1.602385E+06 -2.621216E+05  2.003722E+04 -6.958499E+05  2.291481E-10  2.235784E-10
       329  13 -1.717965E+06 -3.041395E+05 -1.410328E+03 -7.277166E+05 -1.675511E-10 -7.776690E-11
       329  14 -1.726373E+06 -2.956449E+05 -1.750792E+03 -7.180010E+05 -2.461526E-10  3.350934E-10
       329  15 -1.717964E+06 -3.041161E+05 -2.743979E+03 -7.277267E+05 -1.278110E-11  1.816343E-10
       329  16 -1.660869E+06 -2.833365E+05  9.719991E+03 -7.118765E+05  1.138772E-09  2.418232E-10
       329  17 -1.755611E+06 -3.062394E+05 -7.572378E+03 -7.260181E+05  1.909766E-10  9.322243E-11
       329  18 -1.833529E+06 -3.461090E+05 -2.552553E+04 -7.595977E+05 -1.456285E-10 -6.368107E-11
       329  19 -1.775056E+06 -3.249420E+05 -1.254057E+04 -7.435554E+05 -7.695698E+03 -7.945436E+03
       329  20 -1.697134E+06 -2.850502E+05  4.071023E+03 -7.099834E+05 -1.102332E+04 -1.691506E+03
       329  21 -1.602385E+06 -2.621215E+05  2.003765E+04 -6.958499E+05 -1.434847E+04  4.555285E+03
       329  22 -1.717965E+06 -3.041394E+05 -1.410286E+03 -7.277167E+05  1.597746E+03 -4.461666E+03
       329  23 -1.726373E+06 -2.956449E+05 -1.750781E+03 -7.180010E+05 -1.739252E+03  1.788889E+03
       329  24 -1.717964E+06 -3.041160E+05 -2.743810E+03 -7.277267E+05 -5.073644E+03  8.032324E+03
       329  25 -1.660869E+06 -2.833365E+05  9.720216E+03 -7.118765E+05  1.089211E+04 -9.775517E+02
       329  26 -1.755611E+06 -3.062394E+05 -7.572219E+03 -7.260181E+05  7.544302E+03  5.269095E+03
       329  27 -1.833529E+06 -3.461089E+05 -2.552524E+04 -7.595976E+05  4.199249E+03  1.150864E+04
       330   1 -1.543663E+06 -2.406292E+05  3.145254E+04 -6.796969E+05  1.631915E+04 -8.182778E+03
       330   2 -1.465708E+06 -2.008121E+05  4.568798E+04 -6.461903E+05  2.173323E+04 -1.358878E+04
       330   3 -1.371328E+06 -1.782088E+05  5.764311E+04 -6.320956E+05  2.710815E+04 -1.888427E+04
       330   4 -1.718052E+06 -3.040991E+05 -3.549484E+03 -7.277522E+05  7.030935E+03 -1.166526E+04
       330   5 -1.726268E+06 -2.955772E+05 -6.265169E+03 -7.180103E+05  1.259844E+04 -1.701501E+04
       330   6 -1.718100E+06 -3.043021E+05 -1.138454E+04 -7.276846E+05  1.812633E+04 -2.225436E+04
       330   7 -1.892411E+06 -3.675670E+05 -3.855302E+04 -7.757954E+05 -2.254552E+03 -1.514672E+04
       330   8 -1.986759E+06 -3.903370E+05 -5.822152E+04 -7.898026E+05  3.467741E+03 -2.043972E+04
       330   9 -2.064747E+06 -4.303851E+05 -8.041760E+04 -8.232243E+05  9.149907E+03 -2.562245E+04
       330  10 -1.543663E+06 -2.406294E+05  3.145191E+04 -6.796968E+05 -3.269746E-11  5.473658E-12
       330  11 -1.465708E+06 -2.008124E+05  4.568675E+04 -6.461900E+05 -1.303474E-10 -1.316548E-10
       330  12 -1.371329E+06 -1.782094E+05  5.764106E+04 -6.320952E+05 -5.610188E-10 -1.885724E-10
       330  13 -1.718052E+06 -3.040993E+05 -3.549832E+03 -7.277522E+05 -7.839353E-10 -3.587052E-10
       330  14 -1.726268E+06 -2.955776E+05 -6.266011E+03 -7.180101E+05 -1.855198E-09 -5.594571E-10
       330  15 -1.718100E+06 -3.043027E+05 -1.138609E+04 -7.276843E+05 -1.163110E-11 -2.347955E-10
       330  16 -1.892411E+06 -3.675672E+05 -3.855346E+04 -7.757955E+05  2.169458E-10 -2.190903E-11
       330  17 -1.986759E+06 -3.903374E+05 -5.822233E+04 -7.898026E+05  5.129670E-11 -9.079522E-11
       330  18 -2.064747E+06 -4.303858E+05 -8.041899E+04 -8.232241E+05  3.897243E-10 -1.934975E-10
       330  19 -1.543663E+06 -2.406292E+05  3.145254E+04 -6.796969E+05 -1.631915E+04  8.182778E+03
       330  20 -1.465708E+06 -2.008121E+05  4.568798E+04 -6.461903E+05 -2.173323E+04  1.358878E+04
       330  21 -1.371328E+06 -1.782088E+05  5.764311E+04 -6.320956E+05 -2.710815E+04  1.888427E+04
       330  22 -1.718052E+06 -3.040991E+05 -3.549484E+03 -7.277522E+05 -7.030935E+03  1.166526E+04
       330  23 -1.726268E+06 -2.955772E+05 -6.265169E+03 -7.180103E+05 -1.259844E+04  1.701501E+04
       330  24 -1.718100E+06 -3.043021E+05 -1.138454E+04 -7.276846E+05 -1.812633E+04  2.225436E+04
       330  25 -1.892411E+06 -3.675670E+05 -3.855302E+04 -7.757954E+05  2.254552E+03  1.514672E+04
       330  26 -1.986759E+06 -3.903370E+05 -5.822152E+04 -7.898026E+05 -3.467741E+03  2.043972E+04
       330  27 -2.064747E+06 -4.303851E+05 -8.041760E+04 -8.232243E+05 -9.149907E+03  2.562245E+04
       331   1 -1.312576E+06 -1.572204E+05  6.608552E+04 -6.172034E+05  3.093696E+04 -2.179876E+04
       331   2 -1.235678E+06 -1.166768E+05  7.117287E+04 -5.810077E+05  4.484795E+04 -2.318852E+04
       331   3 -1.145964E+06 -9.951841E+04  6.576509E+04 -5.627672E+05  5.819584E+04 -2.306641E+04
       331   4 -1.718745E+06 -3.039520E+05 -1.512253E+04 -7.280443E+05  2.167760E+04 -2.527397E+04
       331   5 -1.725570E+06 -2.963809E+05 -2.755698E+04 -7.174486E+05  3.771243E+04 -2.586916E+04
       331   6 -1.720013E+06 -3.126225E+05 -5.218003E+04 -7.248121E+05  5.318231E+04 -2.495254E+04
       331   7 -2.124739E+06 -4.506690E+05 -9.633723E+04 -8.388175E+05  1.242483E+04 -2.874677E+04
       331   8 -2.215213E+06 -4.760638E+05 -1.262984E+05 -8.537895E+05  3.058295E+04 -2.854751E+04
       331   9 -2.293726E+06 -5.256979E+05 -1.701434E+05 -8.867187E+05  4.817371E+04 -2.683675E+04
       331  10 -1.312577E+06 -1.572212E+05  6.608283E+04 -6.172029E+05 -7.958763E-10 -2.909123E-10
       331  11 -1.235680E+06 -1.166779E+05  7.116808E+04 -5.810068E+05 -5.143266E-10 -3.017464E-10
       331  12 -1.145968E+06 -9.951989E+04  6.575772E+04 -5.627661E+05  3.284646E-10 -1.951543E-10
       331  13 -1.718745E+06 -3.039528E+05 -1.512461E+04 -7.280439E+05  3.031230E-10 -1.138591E-10
       331  14 -1.725571E+06 -2.963820E+05 -2.756092E+04 -7.174478E+05 -1.595241E-11 -1.942373E-10
       331  15 -1.720016E+06 -3.126239E+05 -5.218652E+04 -7.248111E+05  3.431053E-10 -6.374038E-10
       331  16 -2.124740E+06 -4.506699E+05 -9.633908E+04 -8.388172E+05  1.188051E-09  5.824413E-11
       331  17 -2.215215E+06 -4.760649E+05 -1.263017E+05 -8.537888E+05 -1.593345E-10 -8.879389E-11
       331  18 -2.293729E+06 -5.256993E+05 -1.701491E+05 -8.867176E+05  6.362089E-10 -1.168483E-09
       331  19 -1.312576E+06 -1.572204E+05  6.608552E+04 -6.172034E+05 -3.093696E+04  2.179876E+04
       331  20 -1.235678E+06 -1.166768E+05  7.117287E+04 -5.810077E+05 -4.484795E+04  2.318852E+04
       331  21 -1.145964E+06 -9.951841E+04  6.576509E+04 -5.627672E+05 -5.819584E+04  2.306641E+04
       331  22 -1.718745E+06 -3.039520E+05 -1.512253E+04 -7.280443E+05 -2.167760E+04  2.527397E+04
       331  23 -1.725570E+06 -2.963809E+05 -2.755698E+04 -7.174486E+05 -3.771243E+04  2.586916E+04
       331  24 -1.720013E+06 -3.126225E+05 -5.218003E+04 -7.248121E+05 -5.318231E+04  2.495254E+04
       331  25 -2.124739E+06 -4.506690E+05 -9.633723E+04 -8.388175E+05 -1.242483E+04  2.874677E+04
       331  26 -2.215213E+06 -4.760638E+05 -1.262984E+05 -8.537895E+05 -3.058295E+04  2.854751E+04
       331  27 -2.293726E+06 -5.256979E+05 -1.701434E+05 -8.867187E+05 -4.817371E+04  2.683675E+04
       332   1 -1.078037E+06 -8.732423E+04  6.195031E+04 -5.730808E+05  7.184870E+04 -2.230580E+04
       332   2 -1.040602E+06 -2.262776E+04  2.995214E+04 -4.572810E+05  1.058840E+05 -4.349326E+03
       332   3 -1.048988E+06 -1.245715E+05 -7.004693E+04 -3.200613E+05  1.315668E+05  3.584751E+04
       332   4 -1.728533E+06 -3.046320E+05 -6.828491E+04 -7.315144E+05  6.248975E+04 -2.582217E+04
       332   5 -1.718011E+06 -3.273892E+05 -1.277255E+05 -7.012422E+05  1.278921E+05  3.903747E+03
       332   6 -1.759630E+06 -5.231534E+05 -2.801279E+05 -6.495411E+05  1.849300E+05  5.586881E+04
       332   7 -2.378599E+06 -5.219223E+05 -1.985411E+05 -8.898027E+05  5.314133E+04 -2.933540E+04
       332   8 -2.394932E+06 -6.320397E+05 -2.854277E+05 -9.449312E+05  1.498739E+05  1.214199E+04
       332   9 -2.469700E+06 -9.214665E+05 -4.902330E+05 -9.786037E+05  2.382246E+05  7.583578E+04
       332  10 -1.078042E+06 -8.732615E+04  6.193966E+04 -5.730795E+05 -2.042311E-09 -5.069718E-10
       332  11 -1.040614E+06 -2.263079E+04  2.993100E+04 -4.572807E+05  1.277671E-10  4.935986E-10
       332  12 -1.049007E+06 -1.245776E+05 -7.008194E+04 -3.200651E+05  1.210784E-09  1.410326E-09
       332  13 -1.728538E+06 -3.046337E+05 -6.829351E+04 -7.315131E+05  1.155545E-09 -4.885526E-10
       332  14 -1.718029E+06 -3.273936E+05 -1.277564E+05 -7.012426E+05  1.651754E-09 -8.863804E-11
       332  15 -1.759668E+06 -5.231660E+05 -2.801983E+05 -6.495495E+05 -2.155173E-10  2.175057E-10
       332  16 -2.378602E+06 -5.219240E+05 -1.985480E+05 -8.898015E+05  1.646021E-09  4.769876E-11
       332  17 -2.394956E+06 -6.320459E+05 -2.854704E+05 -9.449327E+05  8.124559E-10  3.038166E-10
       332  18 -2.469762E+06 -9.214880E+05 -4.903510E+05 -9.786183E+05 -1.571205E-09 -2.235206E-11
       332  19 -1.078037E+06 -8.732423E+04  6.195031E+04 -5.730808E+05 -7.184870E+04  2.230580E+04
       332  20 -1.040602E+06 -2.262776E+04  2.995214E+04 -4.572810E+05 -1.058840E+05  4.349326E+03
       332  21 -1.048988E+06 -1.245715E+05 -7.004693E+04 -3.200613E+05 -1.315668E+05 -3.584751E+04
       332  22 -1.728533E+06 -3.046320E+05 -6.828491E+04 -7.315144E+05 -6.248975E+04  2.582217E+04
       332  23 -1.718011E+06 -3.273892E+05 -1.277255E+05 -7.012422E+05 -1.278921E+05 -3.903747E+03
       332  24 -1.759630E+06 -5.231534E+05 -2.801279E+05 -6.495411E+05 -1.849300E+05 -5.586881E+04
       332  25 -2.378599E+06 -5.219223E+05 -1.985411E+05 -8.898027E+05 -5.314133E+04  2.933540E+04
       332  26 -2.394932E+06 -6.320397E+05 -2.854277E+05 -9.449312E+05 -1.498739E+05 -1.214199E+04
       332  27 -2.469700E+06 -9.214665E+05 -4.902330E+05 -9.786037E+05 -2.382246E+05 -7.583578E+04
       333   1  1.965176E+04 -5.080872E+03  3.877219E+04  3.926581E+04  1.304130E+05  1.035331E+04
       333   2  7.428680E+04 -1.762792E+05 -5.445477E+04 -2.658239E+03  9.322617E+04  3.179887E+04
       333   3  1.798575E+05 -1.642923E+05 -7.761768E+04 -7.781931E+04  5.605750E+04  3.244131E+04
       333   4  8.129375E+05  1.916806E+05  2.310632E+05 -4.987600E+04  1.588831E+05  1.036766E+04
       333   5  7.859543E+05 -2.184285E+03  1.050317E+05 -3.315678E+04  1.031565E+05  3.180122E+04
       333   6  8.130441E+05 -9.775537E+03  6.186650E+04 -4.966791E+04  4.745463E+04  3.243531E+04
       333   7  1.606817E+06  3.884265E+05  4.233162E+05 -1.391322E+05  1.873895E+05  1.037383E+04
       333   8  1.498095E+06  1.718798E+05  2.644871E+05 -6.369074E+04  1.130981E+05  3.180259E+04
       333   9  1.446607E+06  1.447173E+05  2.013268E+05 -2.148752E+04  3.884308E+04  3.242854E+04
       333  10  1.963347E+04 -5.085552E+03  3.874003E+04  3.926472E+04  1.437312E-09 -1.167251E-09
       333  11  7.427720E+04 -1.762827E+05 -5.447300E+04 -2.660627E+03 -1.250346E-09  4.692273E-10
       333  12  1.798538E+05 -1.642943E+05 -7.762556E+04 -7.782077E+04 -2.158556E-09 -6.483326E-10
       333  13  8.129104E+05  1.916737E+05  2.310156E+05 -4.987733E+04  9.739208E-10  9.290709E-10
       333  14  7.859426E+05 -2.188224E+03  1.050098E+05 -3.315942E+04 -2.692522E-10  9.638630E-11
       333  15  8.130414E+05 -9.777271E+03  6.186029E+04 -4.966915E+04 -6.564445E-10 -9.613383E-10
       333  16  1.606779E+06  3.884170E+05  4.232502E+05 -1.391337E+05 -6.421862E-10  9.057219E-10
       333  17  1.498081E+06  1.718753E+05  2.644612E+05 -6.369363E+04  1.067294E-09  4.363398E-10
       333  18  1.446605E+06  1.447158E+05  2.013220E+05 -2.148853E+04  3.143630E-09  1.493168E-09
       333  19  1.965176E+04 -5.080872E+03  3.877219E+04  3.926581E+04 -1.304130E+05 -1.035331E+04
       333  20  7.428680E+04 -1.762792E+05 -5.445477E+04 -2.658239E+03 -9.322617E+04 -3.179887E+04
       333  21  1.798575E+05 -1.642923E+05 -7.761768E+04 -7.781931E+04 -5.605750E+04 -3.244131E+04
       333  22  8.129375E+05  1.916806E+05  2.310632E+05 -4.987600E+04 -1.588831E+05 -1.036766E+04
       333  23  7.859543E+05 -2.184285E+03  1.050317E+05 -3.315678E+04 -1.031565E+05 -3.180122E+04
       333  24  8.130441E+05 -9.775537E+03  6.186650E+04 -4.966791E+04 -4.745463E+04 -3.243531E+04
       333  25  1.606817E+06  3.884265E+05  4.233162E+05 -1.391322E+05 -1.873895E+05 -1.037383E+04
       333  26  1.498095E+06  1.718798E+05  2.644871E+05 -6.369074E+04 -1.130981E+05 -3.180259E+04
       333  27  1.446607E+06  1.447173E+05  2.013268E+05 -2.148752E+04 -3.884308E+04 -3.242854E+04
       334   1  2.350475E+05 -1.276601E+05 -7.627669E+04 -4.627231E+04  4.109864E+04  2.794627E+04
       334   2  3.118054E+05 -1.195485E+05 -8.108330E+04 -3.229740E+04  2.857309E+04  2.467733E+04
       334   3  3.930646E+05 -1.005085E+05 -7.497393E+04 -5.192617E+04  1.604411E+04  2.049235E+04
       334   4  8.020615E+05  1.078034E+04  4.925116E+04 -4.980711E+04  3.863179E+04  2.794272E+04
       334   5  7.997606E+05 -4.855956E+02  2.657088E+04 -3.300364E+04  2.528118E+04  2.467444E+04
       334   6  8.020929E+05 -6.853400E+02  1.537128E+04 -4.980184E+04  1.192869E+04  2.049037E+04
       334   7  1.369375E+06  1.491991E+05  1.747592E+05 -5.334521E+04  3.616271E+04  2.793920E+04
       334   8  1.287938E+06  1.185614E+05  1.342105E+05 -3.371047E+04  2.198670E+04  2.467157E+04
       334   9  1.211277E+06  9.912658E+04  1.057062E+05 -4.767610E+04  7.810603E+03  2.048836E+04
       334  10  2.350455E+05 -1.276614E+05 -7.628133E+04 -4.627323E+04 -6.794343E-10 -5.929009E-10
       334  11  3.118044E+05 -1.195494E+05 -8.108598E+04 -3.229797E+04  2.369909E-10  2.715936E-11
       334  12  3.930642E+05 -1.005090E+05 -7.497521E+04 -5.192643E+04 -7.892252E-10 -4.728398E-10
       334  13  8.020597E+05  1.077910E+04  4.924689E+04 -4.980798E+04 -4.663208E-10  9.734272E-10
       334  14  7.997597E+05 -4.864210E+02  2.656854E+04 -3.300415E+04 -7.849327E-10  4.130082E-10
       334  15  8.020927E+05 -6.858292E+02  1.537022E+04 -4.980204E+04 -2.174142E-09 -8.524061E-10
       334  16  1.369374E+06  1.491980E+05  1.747552E+05 -5.334602E+04  1.852767E-10  7.788104E-10
       334  17  1.287937E+06  1.185606E+05  1.342084E+05 -3.371090E+04  4.454841E-11  1.896397E-10
       334  18  1.211277E+06  9.912611E+04  1.057053E+05 -4.767623E+04  2.252866E-10 -1.865063E-10
       334  19  2.350475E+05 -1.276601E+05 -7.627669E+04 -4.627231E+04 -4.109864E+04 -2.794627E+04
       334  20  3.118054E+05 -1.195485E+05 -8.108330E+04 -3.229740E+04 -2.857309E+04 -2.467733E+04
       334  21  3.930646E+05 -1.005085E+05 -7.497393E+04 -5.192617E+04 -1.604411E+04 -2.049235E+04
       334  22  8.020615E+05  1.078034E+04  4.925116E+04 -4.980711E+04 -3.863179E+04 -2.794272E+04
       334  23  7.997606E+05 -4.855956E+02  2.657088E+04 -3.300364E+04 -2.528118E+04 -2.467444E+04
       334  24  8.020929E+05 -6.853400E+02  1.537128E+04 -4.980184E+04 -1.192869E+04 -2.049037E+04
       334  25  1.369375E+06  1.491991E+05  1.747592E+05 -5.334521E+04 -3.616271E+04 -2.793920E+04
       334  26  1.287938E+06  1.185614E+05  1.342105E+05 -3.371047E+04 -2.198670E+04 -2.467157E+04
       334  27  1.211277E+06  9.912658E+04  1.057062E+05 -4.767610E+04 -7.810603E+03 -2.048836E+04
       335   1  4.574647E+05 -8.333262E+04 -6.376920E+04 -4.997286E+04  1.337091E+04  1.784724E+04
       335   2  5.356606E+05 -6.481944E+04 -5.176429E+04 -3.326414E+04  1.008760E+04  1.350913E+04
       335   3  6.144935E+05 -4.565269E+04 -3.745046E+04 -4.998016E+04  6.802444E+03  9.136119E+03
       335   4  8.012158E+05  4.827578E+02  1.179223E+04 -4.976387E+04  9.535775E+03  1.784583E+04
       335   5  8.009040E+05 -1.191639E+02  6.688125E+03 -3.305195E+04  6.219577E+03  1.350831E+04
       335   6  8.012296E+05 -6.154985E+01  3.915064E+03 -4.976389E+04  2.901934E+03  9.135923E+03
       335   7  1.145077E+06  8.429024E+04  8.734650E+04 -4.955476E+04  5.698545E+03  1.784442E+04
       335   8  1.066213E+06  6.457640E+04  6.513628E+04 -3.283966E+04  2.349921E+03  1.350749E+04
       335   9  9.879983E+05  4.552725E+04  4.527849E+04 -4.954755E+04 -9.997348E+02  9.135725E+03
       335  10  4.574644E+05 -8.333301E+04 -6.377014E+04 -4.997305E+04 -6.700696E-10 -3.948264E-10
       335  11  5.356604E+05 -6.481966E+04 -5.176482E+04 -3.326425E+04 -8.061406E-10 -3.116110E-10
       335  12  6.144934E+05 -4.565279E+04 -3.745070E+04 -4.998021E+04 -7.301259E-10  2.669891E-11
       335  13  8.012156E+05  4.823913E+02  1.179146E+04 -4.976401E+04 -1.195093E-09 -4.169274E-10
       335  14  8.009039E+05 -1.193703E+02  6.687709E+03 -3.305202E+04 -1.134239E-09  1.633035E-10
       335  15  8.012296E+05 -6.164177E+01  3.914891E+03 -4.976391E+04 -2.604150E-10  1.569554E-10
       335  16  1.145077E+06  8.428988E+04  8.734584E+04 -4.955485E+04 -7.254444E-10 -2.181338E-10
       335  17  1.066213E+06  6.457620E+04  6.513592E+04 -3.283969E+04 -4.045981E-10  3.540430E-11
       335  18  9.879983E+05  4.552716E+04  4.527833E+04 -4.954754E+04 -4.314395E-10  6.300047E-10
       335  19  4.574647E+05 -8.333262E+04 -6.376920E+04 -4.997286E+04 -1.337091E+04 -1.784724E+04
       335  20  5.356606E+05 -6.481944E+04 -5.176429E+04 -3.326414E+04 -1.008760E+04 -1.350913E+04
       335  21  6.144935E+05 -4.565269E+04 -3.745046E+04 -4.998016E+04 -6.802444E+03 -9.136119E+03
       335  22  8.012158E+05  4.827578E+02  1.179223E+04 -4.976387E+04 -9.535775E+03 -1.784583E+04
       335  23  8.009040E+05 -1.191639E+02  6.688125E+03 -3.305195E+04 -6.219577E+03 -1.350831E+04
       335  24  8.012296E+05 -6.154985E+01  3.915064E+03 -4.976389E+04 -2.901934E+03 -9.135923E+03
       335  25  1.145077E+06  8.429024E+04  8.734650E+04 -4.955476E+04 -5.698545E+03 -1.784442E+04
       335  26  1.066213E+06  6.457640E+04  6.513628E+04 -3.283966E+04 -2.349921E+03 -1.350749E+04
       335  27  9.879983E+05  4.552725E+04  4.527849E+04 -4.954755E+04  9.997348E+02 -9.135725E+03
       336   1  6.793735E+05 -2.965476E+04 -2.357784E+04 -4.984607E+04  6.160469E+03  6.584864E+03
       336   2  7.576246E+05 -1.061916E+04 -7.690094E+03 -3.313480E+04  5.232576E+03  2.212500E+03
       336   3  8.360179E+05  8.455157E+03  8.811549E+03 -4.976589E+04  4.304307E+03 -2.160611E+03
       336   4  8.011227E+05 -3.918197E+00  3.027324E+03 -4.974577E+04  2.275047E+03  6.584889E+03
       336   5  8.010562E+05 -2.655166E+01  1.879103E+03 -3.307467E+04  1.346072E+03  2.212615E+03
       336   6  8.011250E+05 -1.027113E+01  1.345263E+03 -4.974580E+04  4.168355E+02 -2.160385E+03
       336   7  9.228857E+05  2.964595E+04  2.963165E+04 -4.964546E+04 -1.611125E+03  6.584914E+03
       336   8  8.444895E+05  1.056593E+04  1.144824E+04 -3.301453E+04 -2.540700E+03  2.212728E+03
       336   9  7.662332E+05 -8.475770E+03 -6.121038E+03 -4.972570E+04 -3.470421E+03 -2.160159E+03
       336  10  6.793735E+05 -2.965482E+04 -2.357799E+04 -4.984610E+04 -2.599203E-10 -6.726109E-11
       336  11  7.576246E+05 -1.061917E+04 -7.690155E+03 -3.313481E+04 -1.075419E-09 -2.526264E-11
       336  12  8.360179E+05  8.455147E+03  8.811506E+03 -4.976589E+04 -1.028618E-09  6.384240E-11
       336  13  8.011226E+05 -3.966165E+00  3.027233E+03 -4.974579E+04 -4.988603E-10  2.416623E-10
       336  14  8.010562E+05 -2.655740E+01  1.879090E+03 -3.307467E+04  6.516465E-10 -1.341282E-10
       336  15  8.011250E+05 -1.027619E+01  1.345253E+03 -4.974579E+04 -1.044521E-09  1.706163E-10
       336  16  9.228857E+05  2.964590E+04  2.963156E+04 -4.964545E+04  8.403821E-10  4.462317E-10
       336  17  8.444895E+05  1.056593E+04  1.144822E+04 -3.301453E+04  5.180832E-10 -1.029062E-10
       336  18  7.662332E+05 -8.475778E+03 -6.121069E+03 -4.972570E+04  1.155529E-09  3.503790E-10
       336  19  6.793735E+05 -2.965476E+04 -2.357784E+04 -4.984607E+04 -6.160469E+03 -6.584864E+03
       336  20  7.576246E+05 -1.061916E+04 -7.690094E+03 -3.313480E+04 -5.232576E+03 -2.212500E+03
       336  21  8.360179E+05  8.455157E+03  8.811549E+03 -4.976589E+04 -4.304307E+03  2.160611E+03
       336  22  8.011227E+05 -3.918197E+00  3.027324E+03 -4.974577E+04 -2.275047E+03 -6.584889E+03
       336  23  8.010562E+05 -2.655166E+01  1.879103E+03 -3.307467E+04 -1.346072E+03 -2.212615E+03
       336  24  8.011250E+05 -1.027113E+01  1.345263E+03 -4.974580E+04 -4.168355E+02  2.160385E+03
       336  25  9.228857E+05  2.964595E+04  2.963165E+04 -4.964546E+04  1.611125E+03 -6.584914E+03
       336  26  8.444895E+05  1.056593E+04  1.144824E+04 -3.301453E+04  2.540700E+03 -2.212728E+03
       336  27  7.662332E+05 -8.475770E+03 -6.121038E+03 -4.972570E+04  3.470421E+03  2.160159E+03
       337   1  9.009615E+05  2.438232E+04  2.345889E+04 -4.976681E+04  4.070761E+03 -4.706188E+03
       337   2  9.793256E+05  4.344335E+04  4.058952E+04 -3.303551E+04  3.421232E+03 -9.082016E+03
       337   3  1.057805E+06  6.252231E+04  5.815060E+04 -4.968333E+04  2.772645E+03 -1.346024E+04
       337   4  8.011174E+05 -1.073300E+01  1.242355E+03 -4.975413E+04  1.816035E+02 -4.706059E+03
       337   5  8.010583E+05 -2.867015E+01  1.317988E+03 -3.306426E+04 -4.701315E+02 -9.082312E+03
       337   6  8.011092E+05 -2.791340E+01  1.825881E+03 -4.975412E+04 -1.120843E+03 -1.346093E+04
       337   7  7.012826E+05 -2.440445E+04 -2.097475E+04 -4.974144E+04 -3.706936E+03 -4.705931E+03
       337   8  6.228206E+05 -4.350281E+04 -3.795544E+04 -3.309301E+04 -4.360392E+03 -9.082608E+03
       337   9  5.444748E+05 -6.258253E+04 -5.450279E+04 -4.982487E+04 -5.012744E+03 -1.346163E+04
       337  10  9.009615E+05  2.438229E+04  2.345882E+04 -4.976680E+04  3.179356E-10 -7.082591E-11
       337  11  9.793256E+05  4.344326E+04  4.058935E+04 -3.303548E+04  7.622509E-10 -3.559483E-10
       337  12  1.057805E+06  6.252212E+04  5.815024E+04 -4.968330E+04 -8.170295E-10  2.571010E-10
       337  13  8.011174E+05 -1.075680E+01  1.242314E+03 -4.975412E+04 -4.591873E-10  2.737200E-10
       337  14  8.010582E+05 -2.875882E+01  1.317833E+03 -3.306426E+04 -5.263580E-10 -1.018613E-10
       337  15  8.011091E+05 -2.810839E+01  1.825538E+03 -4.975413E+04 -3.265663E-10  2.421119E-10
       337  16  7.012826E+05 -2.440448E+04 -2.097482E+04 -4.974145E+04 -1.155212E-09  5.911323E-10
       337  17  6.228206E+05 -4.350291E+04 -3.795563E+04 -3.309304E+04 -1.039489E-09  2.760833E-10
       337  18  5.444747E+05 -6.258273E+04 -5.450318E+04 -4.982493E+04 -4.344031E-10  1.694503E-10
       337  19  9.009615E+05  2.438232E+04  2.345889E+04 -4.976681E+04 -4.070761E+03  4.706188E+03
       337  20  9.793256E+05  4.344335E+04  4.058952E+04 -3.303551E+04 -3.421232E+03  9.082016E+03
       337  21  1.057805E+06  6.252231E+04  5.815060E+04 -4.968333E+04 -2.772645E+03  1.346024E+04
       337  22  8.011174E+05 -1.073300E+01  1.242355E+03 -4.975413E+04 -1.816035E+02  4.706059E+03
       337  23  8.010583E+05 -2.867015E+01  1.317988E+03 -3.306426E+04  4.701315E+02  9.082312E+03
       337  24  8.011092E+05 -2.791340E+01  1.825881E+03 -4.975412E+04  1.120843E+03  1.346093E+04
       337  25  7.012826E+05 -2.440445E+04 -2.097475E+04 -4.974144E+04  3.706936E+03  4.705931E+03
       337  26  6.228206E+05 -4.350281E+04 -3.795544E+04 -3.309301E+04  4.360392E+03  9.082608E+03
       337  27  5.444748E+05 -6.258253E+04 -5.450279E+04 -4.982487E+04  5.012744E+03  1.346163E+04
       338   1  1.123025E+06  7.846266E+04  7.339126E+04 -4.964220E+04  2.422868E+03 -1.601726E+04
       338   2  1.201622E+06  9.758814E+04  9.199596E+04 -3.282397E+04  5.352375E+02 -2.040024E+04
       338   3  1.280647E+06  1.170690E+05  1.119354E+05 -4.954663E+04 -1.350319E+03 -2.474487E+04
       338   4  8.011690E+05 -6.165392E+01  2.275185E+03 -4.979020E+04 -1.491041E+03 -1.601838E+04
       338   5  8.009504E+05 -1.070775E+02  3.736199E+03 -3.301911E+04 -3.343685E+03 -2.040229E+04
       338   6  8.011497E+05  1.977455E+02  6.508905E+03 -4.979024E+04 -5.194021E+03 -2.474782E+04
       338   7  4.794097E+05 -7.859293E+04 -6.884722E+04 -4.993811E+04 -5.402948E+03 -1.601950E+04
       338   8  4.004291E+05 -9.781305E+04 -8.453335E+04 -3.321413E+04 -7.220137E+03 -2.040434E+04
       338   9  3.218675E+05 -1.166889E+05 -9.893159E+04 -5.003366E+04 -9.034794E+03 -2.475077E+04
       338  10  1.123025E+06  7.846239E+04  7.339077E+04 -4.964217E+04 -5.995210E-10  9.711771E-10
       338  11  1.201621E+06  9.758770E+04  9.199518E+04 -3.282397E+04  2.644379E-10 -4.286145E-11
       338  12  1.280646E+06  1.170684E+05  1.119343E+05 -4.954666E+04  1.597389E-09 -7.476882E-10
       338  13  8.011689E+05 -6.193016E+01  2.274699E+03 -4.979021E+04 -4.277947E-10  8.526088E-10
       338  14  8.009503E+05 -1.075277E+02  3.735395E+03 -3.301917E+04 -2.540581E-09  2.319481E-10
       338  15  8.011495E+05  1.970804E+02  6.507702E+03 -4.979034E+04  4.616141E-10 -7.810670E-10
       338  16  4.794096E+05 -7.859321E+04 -6.884776E+04 -4.993818E+04 -1.426874E-09  1.466037E-10
       338  17  4.004289E+05 -9.781351E+04 -8.453423E+04 -3.321425E+04 -1.442353E-09  2.131833E-10
       338  18  3.218673E+05 -1.166896E+05 -9.893289E+04 -5.003384E+04 -1.499604E-09 -7.416710E-10
       338  19  1.123025E+06  7.846266E+04  7.339126E+04 -4.964220E+04 -2.422868E+03  1.601726E+04
       338  20  1.201622E+06  9.758814E+04  9.199596E+04 -3.282397E+04 -5.352375E+02  2.040024E+04
       338  21  1.280647E+06  1.170690E+05  1.119354E+05 -4.954663E+04  1.350319E+03  2.474487E+04
       338  22  8.011690E+05 -6.165392E+01  2.275185E+03 -4.979020E+04  1.491041E+03  1.601838E+04
       338  23  8.009504E+05 -1.070775E+02  3.736199E+03 -3.301911E+04  3.343685E+03  2.040229E+04
       338  24  8.011497E+05  1.977455E+02  6.508905E+03 -4.979024E+04  5.194021E+03  2.474782E+04
       338  25  4.794097E+05 -7.859293E+04 -6.884722E+04 -4.993811E+04  5.402948E+03  1.601950E+04
       338  26  4.004291E+05 -9.781305E+04 -8.453335E+04 -3.321413E+04  7.220137E+03  2.040434E+04
       338  27  3.218675E+05 -1.166889E+05 -9.893159E+04 -5.003366E+04  9.034794E+03  2.475077E+04
       339   1  1.346764E+06  1.325009E+05  1.287320E+05 -4.850668E+04 -2.338377E+03 -2.741430E+04
       339   2  1.424845E+06  1.519378E+05  1.522692E+05 -3.307458E+04 -1.062181E+04 -3.158131E+04
       339   3  1.505772E+06  1.775885E+05  1.827904E+05 -5.141730E+04 -1.890411E+04 -3.467919E+04
       339   4  8.016368E+05 -4.460274E+02  8.465496E+03 -4.984096E+04 -6.512426E+03 -2.741817E+04
       339   5  8.002812E+05 -3.534653E+02  1.458154E+04 -3.295500E+04 -1.383827E+04 -3.158599E+04
       339   6  8.016029E+05  5.790876E+03  2.702237E+04 -4.984575E+04 -2.116192E+04 -3.468420E+04
       339   7  2.567865E+05 -1.334129E+05 -1.118192E+05 -5.117408E+04 -1.068286E+04 -2.742201E+04
       339   8  1.760814E+05 -1.526709E+05 -1.231300E+05 -3.283560E+04 -1.705153E+04 -3.159067E+04
       339   9  9.789532E+04 -1.660401E+05 -1.287763E+05 -4.827608E+04 -2.341719E+04 -3.468923E+04
       339  10  1.346764E+06  1.325001E+05  1.287306E+05 -4.850673E+04 -2.332131E-09 -1.275651E-09
       339  11  1.424844E+06  1.519367E+05  1.522671E+05 -3.307485E+04  4.106810E-09 -1.443076E-09
       339  12  1.505772E+06  1.775871E+05  1.827875E+05 -5.141783E+04  9.014643E-09 -1.502084E-09
       339  13  8.016365E+05 -4.468464E+02  8.464003E+03 -4.984110E+04 -2.328578E-10 -1.252322E-09
       339  14  8.002807E+05 -3.545883E+02  1.457931E+04 -3.295535E+04  3.207051E-10 -1.082747E-09
       339  15  8.016021E+05  5.789463E+03  2.701927E+04 -4.984634E+04 -1.337470E-09 -8.321484E-10
       339  16  2.567861E+05 -1.334138E+05 -1.118208E+05 -5.117431E+04  2.194836E-09 -9.995907E-10
       339  17  1.760808E+05 -1.526720E+05 -1.231325E+05 -3.283603E+04 -4.226440E-09  1.470413E-09
       339  18  9.789441E+04 -1.660415E+05 -1.287796E+05 -4.827673E+04 -8.544109E-09  7.593805E-10
       339  19  1.346764E+06  1.325009E+05  1.287320E+05 -4.850668E+04  2.338377E+03  2.741430E+04
       339  20  1.424845E+06  1.519378E+05  1.522692E+05 -3.307458E+04  1.062181E+04  3.158131E+04
       339  21  1.505772E+06  1.775885E+05  1.827904E+05 -5.141730E+04  1.890411E+04  3.467919E+04
       339  22  8.016368E+05 -4.460274E+02  8.465496E+03 -4.984096E+04  6.512426E+03  2.741817E+04
       339  23  8.002812E+05 -3.534653E+02  1.458154E+04 -3.295500E+04  1.383827E+04  3.158599E+04
       339  24  8.016029E+05  5.790876E+03  2.702237E+04 -4.984575E+04  2.116192E+04  3.468420E+04
       339  25  2.567865E+05 -1.334129E+05 -1.118192E+05 -5.117408E+04  1.068286E+04  2.742201E+04
       339  26  1.760814E+05 -1.526709E+05 -1.231300E+05 -3.283560E+04  1.705153E+04  3.159067E+04
       339  27  9.789532E+04 -1.660401E+05 -1.287763E+05 -4.827608E+04  2.341719E+04  3.468923E+04
       340   1  1.578598E+06  1.824590E+05  2.035986E+05 -3.377655E+04 -1.656025E+04 -3.950002E+04
       340   2  1.642554E+06  2.063870E+05  2.478102E+05 -4.927571E+04 -6.876185E+04 -3.804416E+04
       340   3  1.740130E+06  3.362051E+05  3.524980E+05 -9.806609E+04 -1.210140E+05 -1.228652E+04
       340   4  8.076382E+05 -5.496035E+03  3.394243E+04 -4.969287E+04 -2.600030E+04 -3.951339E+04
       340   5  7.926465E+05 -1.347741E+03  5.758578E+04 -3.312936E+04 -5.654252E+04 -3.803281E+04
       340   6  8.075573E+05  1.050106E+05  1.267298E+05 -4.985425E+04 -8.712688E+04 -1.224094E+04
       340   7  3.723341E+04 -1.934899E+05 -1.357496E+05 -6.558936E+04 -3.542878E+04 -3.952629E+04
       340   8 -5.658904E+04 -2.091305E+05 -1.326835E+05 -1.700550E+04 -4.433967E+04 -3.802083E+04
       340   9 -1.242148E+05 -1.262379E+05 -9.909520E+04 -1.715173E+03 -5.329028E+04 -1.219008E+04
       340  10  1.578597E+06  1.824572E+05  2.035951E+05 -3.377708E+04  2.543181E-09 -2.113045E-09
       340  11  1.642549E+06  2.063842E+05  2.477986E+05 -4.927782E+04 -2.750497E-09 -4.173332E-09
       340  12  1.740114E+06  3.362010E+05  3.524703E+05 -9.806728E+04 -8.017172E-09 -9.243823E-10
       340  13  8.076371E+05 -5.497894E+03  3.393823E+04 -4.969370E+04 -1.277367E-09 -5.355266E-09
       340  14  7.926426E+05 -1.350152E+03  5.757706E+04 -3.313109E+04 -1.152719E-09  2.633388E-09
       340  15  8.075491E+05  1.050084E+05  1.267153E+05 -4.985511E+04 -7.895647E-10 -1.005350E-10
       340  16  3.723164E+04 -1.934919E+05 -1.357549E+05 -6.559049E+04 -2.378211E-09 -4.946575E-10
       340  17 -5.659154E+04 -2.091326E+05 -1.326899E+05 -1.700686E+04  1.342847E-09  1.510050E-09
       340  18 -1.242179E+05 -1.262388E+05 -9.910082E+04 -1.715697E+03  8.581090E-09 -1.630890E-09
       340  19  1.578598E+06  1.824590E+05  2.035986E+05 -3.377655E+04  1.656025E+04  3.950002E+04
       340  20  1.642554E+06  2.063870E+05  2.478102E+05 -4.927571E+04  6.876185E+04  3.804416E+04
       340  21  1.740130E+06  3.362051E+05  3.524980E+05 -9.806609E+04  1.210140E+05  1.228652E+04
       340  22  8.076382E+05 -5.496035E+03  3.394243E+04 -4.969287E+04  2.600030E+04  3.951339E+04
       340  23  7.926465E+05 -1.347741E+03  5.758578E+04 -3.312936E+04  5.654252E+04  3.803281E+04
       340  24  8.075573E+05  1.050106E+05  1.267298E+05 -4.985425E+04  8.712688E+04  1.224094E+04
       340  25  3.723341E+04 -1.934899E+05 -1.357496E+05 -6.558936E+04  3.542878E+04  3.952629E+04
       340  26 -5.658904E+04 -2.091305E+05 -1.326835E+05 -1.700550E+04  4.433967E+04  3.802083E+04
       340  27 -1.242148E+05 -1.262379E+05 -9.909520E+04 -1.715173E+03  5.329028E+04  1.219008E+04
       341   1  8.375588E+05  3.184325E+06  8.345426E+05 -5.749617E+05  3.361364E+04  1.459215E+05
       341   2  5.475028E+05  2.319215E+06  5.439410E+05 -3.748850E+05  9.477452E+04  4.744011E+04
       341   3  3.406617E+05  1.488064E+06  3.379517E+05 -5.312645E+05  6.950511E+04 -5.110686E+04
       341   4  7.000073E+04  9.304981E+04  8.286081E+04 -5.368456E+05  3.386807E+04  5.298488E+04
       341   5  2.662001E+02  8.355555E+04  4.070200E+04 -3.586878E+05  9.484940E+04  3.167816E+04
       341   6  6.011223E+02  9.414354E+04  2.987827E+04 -5.370356E+05  6.926788E+04  1.016965E+04
       341   7 -6.982503E+05 -2.989513E+06 -6.694802E+05 -4.989100E+05  3.411195E+04 -3.949249E+04
       341   8 -5.473115E+05 -2.147465E+06 -4.628548E+05 -3.425445E+05  9.492364E+04  1.597209E+04
       341   9 -3.395879E+05 -1.297957E+06 -2.783009E+05 -5.427911E+05  6.902920E+04  7.131040E+04
       341  10  8.375519E+05  3.184302E+06  8.345007E+05 -5.749657E+05  3.664743E-10  8.247752E-10
       341  11  5.474925E+05  2.319210E+06  5.439199E+05 -3.748886E+05  2.506219E-10 -2.542040E-09
       341  12  3.406558E+05  1.488060E+06  3.379377E+05 -5.312617E+05  6.784591E-10 -1.402767E-09
       341  13  6.999874E+04  9.304649E+04  8.285337E+04 -5.368470E+05  2.047401E-09 -1.334321E-12
       341  14  2.562675E+02  8.355205E+04  4.068320E+04 -3.586902E+05  1.627272E-09  1.386288E-09
       341  15  5.959413E+02  9.414214E+04  2.986906E+04 -5.370362E+05 -7.200809E-10 -5.582317E-09
       341  16 -6.982520E+05 -2.989515E+06 -6.694853E+05 -4.989089E+05  1.037654E-09 -8.366582E-10
       341  17 -5.473213E+05 -2.147468E+06 -4.628722E+05 -3.425457E+05  2.432180E-09  1.577027E-09
       341  18 -3.395944E+05 -1.297963E+06 -2.783194E+05 -5.427950E+05 -2.833536E-09 -1.639043E-09
       341  19  8.375588E+05  3.184325E+06  8.345426E+05 -5.749617E+05 -3.361364E+04 -1.459215E+05
       341  20  5.475028E+05  2.319215E+06  5.439410E+05 -3.748850E+05 -9.477452E+04 -4.744011E+04
       341  21  3.406617E+05  1.488064E+06  3.379517E+05 -5.312645E+05 -6.950511E+04  5.110686E+04
       341  22  7.000073E+04  9.304981E+04  8.286081E+04 -5.368456E+05 -3.386807E+04 -5.298488E+04
       341  23  2.662001E+02  8.355555E+04  4.070200E+04 -3.586878E+05 -9.484940E+04 -3.167816E+04
       341  24  6.011223E+02  9.414354E+04  2.987827E+04 -5.370356E+05 -6.926788E+04 -1.016965E+04
       341  25 -6.982503E+05 -2.989513E+06 -6.694802E+05 -4.989100E+05 -3.411195E+04  3.949249E+04
       341  26 -5.473115E+05 -2.147465E+06 -4.628548E+05 -3.425445E+05 -9.492364E+04 -1.597209E+04
       341  27 -3.395879E+05 -1.297957E+06 -2.783009E+05 -5.427911E+05 -6.902920E+04 -7.131040E+04
       342   1  1.757520E+05  7.797488E+05  1.808275E+05 -5.424761E+05  3.360234E+04 -3.172917E+04
       342   2 -3.608217E+04 -6.782183E+04 -6.750808E+03 -3.570284E+05 -7.748131E+03 -4.557985E+04
       342   3 -2.340791E+05 -9.123416E+05 -1.826237E+05 -5.315561E+05 -4.873915E+04 -5.940234E+04
       342   4  7.375402E+03  9.055346E+04  2.796031E+04 -5.377536E+05  3.344685E+04  5.215893E+03
       342   5  2.285341E+03  8.929906E+04  2.793944E+04 -3.577643E+05 -7.897294E+03 -8.974616E+03
       342   6  1.113288E+04  9.047618E+04  3.988490E+04 -5.377381E+05 -4.888431E+04 -2.315512E+04
       342   7 -1.610325E+05 -5.981960E+05 -1.249313E+05 -5.330358E+05  3.329181E+04  4.212044E+04
       342   8  4.065191E+04  2.464459E+05  6.263320E+04 -3.585003E+05 -8.046522E+03  2.763977E+04
       342   9  2.562777E+05  1.094236E+06  2.623360E+05 -5.439288E+05 -4.903005E+04  1.315008E+04
       342  10  1.757505E+05  7.797474E+05  1.808235E+05 -5.424753E+05 -5.898360E-10  4.141165E-09
       342  11 -3.608279E+04 -6.782408E+04 -6.754826E+03 -3.570287E+05  1.533124E-09 -1.782064E-09
       342  12 -2.340826E+05 -9.123461E+05 -1.826348E+05 -5.315585E+05 -1.584220E-09 -2.103316E-09
       342  13  7.374193E+03  9.055313E+04  2.795816E+04 -5.377538E+05 -7.381135E-10  3.632403E-11
       342  14  2.285253E+03  8.929895E+04  2.793917E+04 -3.577643E+05  3.645538E-09  1.851588E-09
       342  15  1.113017E+04  9.047496E+04  3.987940E+04 -5.377390E+05  2.742704E-09 -5.741692E-09
       342  16 -1.610342E+05 -5.981982E+05 -1.249367E+05 -5.330370E+05 -2.207128E-09 -4.028399E-09
       342  17  4.065164E+04  2.464451E+05  6.263164E+04 -3.585001E+05 -6.959165E-10 -1.326170E-10
       342  18  2.562751E+05  1.094235E+06  2.623311E+05 -5.439283E+05 -1.279717E-09 -8.663771E-10
       342  19  1.757520E+05  7.797488E+05  1.808275E+05 -5.424761E+05 -3.360234E+04  3.172917E+04
       342  20 -3.608217E+04 -6.782183E+04 -6.750808E+03 -3.570284E+05  7.748131E+03  4.557985E+04
       342  21 -2.340791E+05 -9.123416E+05 -1.826237E+05 -5.315561E+05  4.873915E+04  5.940234E+04
       342  22  7.375402E+03  9.055346E+04  2.796031E+04 -5.377536E+05 -3.344685E+04 -5.215893E+03
       342  23  2.285341E+03  8.929906E+04  2.793944E+04 -3.577643E+05  7.897294E+03  8.974616E+03
       342  24  1.113288E+04  9.047618E+04  3.988490E+04 -5.377381E+05  4.888431E+04  2.315512E+04
       342  25 -1.610325E+05 -5.981960E+05 -1.249313E+05 -5.330358E+05 -3.329181E+04 -4.212044E+04
       342  26  4.065191E+04  2.464459E+05  6.263320E+04 -3.585003E+05  8.046522E+03 -2.763977E+04
       342  27  2.562777E+05  1.094236E+06  2.623360E+05 -5.439288E+05  4.903005E+04 -1.315008E+04
       343   1 -4.201343E+05 -1.607916E+06 -3.298819E+05 -5.518032E+05 -8.516030E+04 -9.327933E+04
       343   2 -6.254569E+05 -2.466374E+06 -4.985032E+05 -3.317777E+05 -1.091002E+05 -4.927293E+04
       343   3 -7.103957E+05 -3.299132E+06 -6.657083E+05 -4.680419E+05 -3.837891E+04 -5.138227E+03
       343   4 -3.244966E+03  9.826914E+04  4.756281E+04 -5.369913E+05 -8.539144E+04 -3.038401E+04
       343   5 -9.214816E+02  7.792275E+04  7.534900E+04 -3.587477E+05 -1.090060E+05 -7.030328E+04
       343   6  1.361338E+05  9.702158E+04  1.627980E+05 -5.366518E+05 -3.813872E+04 -1.100367E+05
       343   7  4.134513E+05  1.807187E+06  4.248428E+05 -5.221344E+05 -8.561919E+04  3.268260E+04
       343   8  6.231718E+05  2.628256E+06  6.487891E+05 -3.858238E+05 -1.089101E+05 -9.141878E+04
       343   9  9.818334E+05  3.503763E+06  9.905087E+05 -6.056297E+05 -3.787614E+04 -2.155086E+05
       343  10 -4.201444E+05 -1.607928E+06 -3.299120E+05 -5.518097E+05 -3.257147E-10  2.460735E-09
       343  11 -6.254703E+05 -2.466380E+06 -4.985301E+05 -3.317820E+05  9.931393E-10 -5.189243E-10
       343  12 -7.103973E+05 -3.299132E+06 -6.657112E+05 -4.680420E+05  7.788059E-11 -9.157530E-10
       343  13 -3.253048E+03  9.826618E+04  4.754736E+04 -5.369934E+05 -3.091049E-09  5.972393E-11
       343  14 -9.355741E+02  7.791425E+04  7.531736E+04 -3.587539E+05  1.830065E-09  1.148074E-09
       343  15  1.361289E+05  9.700818E+04  1.627725E+05 -5.366552E+05 -1.162544E-10 -2.272374E-09
       343  16  4.134432E+05  1.807184E+06  4.248271E+05 -5.221321E+05 -1.415687E-11 -2.450675E-09
       343  17  6.231568E+05  2.628244E+06  6.487511E+05 -3.858318E+05  1.158764E-09 -9.671507E-10
       343  18  9.818195E+05  3.503713E+06  9.904191E+05 -6.056363E+05 -2.005857E-10 -2.289256E-10
       343  19 -4.201343E+05 -1.607916E+06 -3.298819E+05 -5.518032E+05  8.516030E+04  9.327933E+04
       343  20 -6.254569E+05 -2.466374E+06 -4.985032E+05 -3.317777E+05  1.091002E+05  4.927293E+04
       343  21 -7.103957E+05 -3.299132E+06 -6.657083E+05 -4.680419E+05  3.837891E+04  5.138227E+03
       343  22 -3.244966E+03  9.826914E+04  4.756281E+04 -5.369913E+05  8.539144E+04  3.038401E+04
       343  23 -9.214816E+02  7.792275E+04  7.534900E+04 -3.587477E+05  1.090060E+05  7.030328E+04
       343  24  1.361338E+05  9.702158E+04  1.627980E+05 -5.366518E+05  3.813872E+04  1.100367E+05
       343  25  4.134513E+05  1.807187E+06  4.248428E+05 -5.221344E+05  8.561919E+04 -3.268260E+04
       343  26  6.231718E+05  2.628256E+06  6.487891E+05 -3.858238E+05  1.089101E+05  9.141878E+04
       343  27  9.818334E+05  3.503763E+06  9.905087E+05 -6.056297E+05  3.787614E+04  2.155086E+05
       344   1 -1.783018E+06 -7.251808E+05 -4.021089E+05 -7.078996E+05 -1.829399E+05 -5.549061E+04
       344   2 -1.706311E+06 -5.086171E+05 -2.436179E+05 -6.748720E+05 -1.150193E+05 -1.915144E+02
       344   3 -1.667450E+06 -4.240920E+05 -1.746559E+05 -6.322237E+05 -3.887866E+04  3.333258E+04
       344   4 -1.060280E+06 -3.611983E+05 -1.962203E+05 -4.155101E+05 -1.308363E+05 -3.591703E+04
       344   5 -1.033543E+06 -2.217617E+05 -8.949340E+04 -4.490555E+05 -9.363591E+04  7.839680E+03
       344   6 -1.038502E+06 -2.082018E+05 -4.784731E+04 -4.730006E+05 -4.823133E+04  2.981260E+04
       344   7 -3.369948E+05  2.960311E+03  9.634786E+03 -1.227652E+05 -7.866584E+04 -1.629869E+04
       344   8 -3.603044E+05  6.517664E+04  6.460492E+04 -2.229965E+05 -7.222737E+04  1.588373E+04
       344   9 -4.091470E+05  7.709934E+03  7.894212E+04 -3.136334E+05 -5.759422E+04  2.628934E+04
       344  10 -1.783055E+06 -7.251932E+05 -4.021778E+05 -7.079078E+05  2.142702E-09  6.739879E-10
       344  11 -1.706325E+06 -5.086207E+05 -2.436428E+05 -6.748721E+05  8.228101E-11 -1.570961E-10
       344  12 -1.667452E+06 -4.240936E+05 -1.746608E+05 -6.322226E+05 -2.198057E-09 -1.735532E-09
       344  13 -1.060299E+06 -3.612043E+05 -1.962550E+05 -4.155139E+05 -7.955142E-11  5.140224E-10
       344  14 -1.033552E+06 -2.217642E+05 -8.951002E+04 -4.490549E+05  5.344455E-10 -2.072218E-09
       344  15 -1.038504E+06 -2.082034E+05 -4.785335E+04 -4.729994E+05 -7.885926E-10 -1.114721E-09
       344  16 -3.370015E+05  2.958363E+03  9.622651E+03 -1.227662E+05 -2.265074E-09 -2.695679E-09
       344  17 -3.603100E+05  6.517496E+04  6.459464E+04 -2.229956E+05  5.883828E-10 -1.433036E-09
       344  18 -4.091508E+05  7.708302E+03  7.893459E+04 -3.136322E+05  2.666692E-09 -9.732589E-12
       344  19 -1.783018E+06 -7.251808E+05 -4.021089E+05 -7.078996E+05  1.829399E+05  5.549061E+04
       344  20 -1.706311E+06 -5.086171E+05 -2.436179E+05 -6.748720E+05  1.150193E+05  1.915144E+02
       344  21 -1.667450E+06 -4.240920E+05 -1.746559E+05 -6.322237E+05  3.887866E+04 -3.333258E+04
       344  22 -1.060280E+06 -3.611983E+05 -1.962203E+05 -4.155101E+05  1.308363E+05  3.591703E+04
       344  23 -1.033543E+06 -2.217617E+05 -8.949340E+04 -4.490555E+05  9.363591E+04 -7.839680E+03
       344  24 -1.038502E+06 -2.082018E+05 -4.784731E+04 -4.730006E+05  4.823133E+04 -2.981260E+04
       344  25 -3.369948E+05  2.960311E+03  9.634786E+03 -1.227652E+05  7.866584E+04  1.629869E+04
       344  26 -3.603044E+05  6.517664E+04  6.460492E+04 -2.229965E+05  7.222737E+04 -1.588373E+04
       344  27 -4.091470E+05  7.709934E+03  7.894212E+04 -3.136334E+05  5.759422E+04 -2.628934E+04
       345   1 -1.590192E+06 -4.202597E+05 -1.510675E+05 -6.251749E+05 -3.617928E+04  2.997900E+04
       345   2 -1.512008E+06 -3.734535E+05 -1.146514E+05 -5.921197E+05 -2.275856E+04  3.007878E+04
       345   3 -1.420506E+06 -3.487692E+05 -8.842225E+04 -5.773636E+05 -8.784012E+03  2.870316E+04
       345   4 -1.032477E+06 -2.138377E+05 -3.656389E+04 -4.683694E+05 -4.127300E+04  2.806068E+04
       345   5 -1.038893E+06 -1.999391E+05 -1.931603E+04 -4.603551E+05 -2.992802E+04  2.738212E+04
       345   6 -1.031583E+06 -2.077471E+05 -1.060053E+04 -4.706424E+05 -1.803109E+04  2.522805E+04
       345   7 -4.744457E+05 -7.389227E+03  7.792257E+04 -3.114341E+05 -4.637160E+04  2.614049E+04
       345   8 -5.655463E+05 -2.640495E+04  7.600859E+04 -3.284974E+05 -3.710337E+04  2.468323E+04
       345   9 -6.424999E+05 -6.671126E+04  6.721514E+04 -3.638585E+05 -2.728448E+04  2.175062E+04
       345  10 -1.590194E+06 -4.202610E+05 -1.510717E+05 -6.251740E+05  8.024915E-10  2.557697E-10
       345  11 -1.512009E+06 -3.734546E+05 -1.146541E+05 -5.921191E+05 -6.680997E-10  9.203664E-10
       345  12 -1.420506E+06 -3.487701E+05 -8.842395E+04 -5.773634E+05 -7.159364E-10  6.988790E-10
       345  13 -1.032479E+06 -2.138390E+05 -3.656858E+04 -4.683684E+05  2.282381E-10 -5.817801E-10
       345  14 -1.038894E+06 -1.999401E+05 -1.931912E+04 -4.603545E+05  1.867092E-09 -1.742049E-09
       345  15 -1.031583E+06 -2.077479E+05 -1.060234E+04 -4.706420E+05  1.753005E-10 -7.929512E-11
       345  16 -4.744482E+05 -7.390538E+03  7.791725E+04 -3.114331E+05 -6.391221E-10  9.404232E-10
       345  17 -5.655480E+05 -2.640598E+04  7.600486E+04 -3.284966E+05 -8.015702E-10  9.220049E-10
       345  18 -6.425008E+05 -6.671197E+04  6.721285E+04 -3.638581E+05  3.203595E-10  4.715467E-10
       345  19 -1.590192E+06 -4.202597E+05 -1.510675E+05 -6.251749E+05  3.617928E+04 -2.997900E+04
       345  20 -1.512008E+06 -3.734535E+05 -1.146514E+05 -5.921197E+05  2.275856E+04 -3.007878E+04
       345  21 -1.420506E+06 -3.487692E+05 -8.842225E+04 -5.773636E+05  8.784012E+03 -2.870316E+04
       345  22 -1.032477E+06 -2.138377E+05 -3.656389E+04 -4.683694E+05  4.127300E+04 -2.806068E+04
       345  23 -1.038893E+06 -1.999391E+05 -1.931603E+04 -4.603551E+05  2.992802E+04 -2.738212E+04
       345  24 -1.031583E+06 -2.077471E+05 -1.060053E+04 -4.706424E+05  1.803109E+04 -2.522805E+04
       345  25 -4.744457E+05 -7.389227E+03  7.792257E+04 -3.114341E+05  4.637160E+04 -2.614049E+04
       345  26 -5.655463E+05 -2.640495E+04  7.600859E+04 -3.284974E+05  3.710337E+04 -2.468323E+04
       345  27 -6.424999E+05 -6.671126E+04  6.721514E+04 -3.638585E+05  2.728448E+04 -2.175062E+04
       346   1 -1.361030E+06 -3.281513E+05 -7.364648E+04 -5.615911E+05 -6.143736E+03  2.534850E+04
       346   2 -1.283322E+06 -2.882187E+05 -5.303545E+04 -5.281797E+05 -1.402587E+03  1.982772E+04
       346   3 -1.189115E+06 -2.654323E+05 -3.422465E+04 -5.141006E+05  3.376321E+03  1.420260E+04
       346   4 -1.031130E+06 -2.079907E+05 -7.981572E+03 -4.703927E+05 -1.511357E+04  2.197853E+04
       346   5 -1.039372E+06 -1.993563E+05 -4.395491E+03 -4.607505E+05 -1.051899E+04  1.640388E+04
       346   6 -1.031093E+06 -2.078388E+05 -2.492694E+03 -4.704427E+05 -5.887027E+03  1.072479E+04
       346   7 -7.011179E+05 -8.782077E+04  5.767849E+04 -3.791494E+05 -2.408852E+04  1.860666E+04
       346   8 -7.953615E+05 -1.104892E+05  4.424169E+04 -3.932969E+05 -1.963921E+04  1.297860E+04
       346   9 -8.730464E+05 -1.502437E+05  2.923805E+04 -4.267747E+05 -1.515284E+04  7.246051E+03
       346  10 -1.361030E+06 -3.281520E+05 -7.364776E+04 -5.615910E+05 -8.950252E-11  1.065630E-09
       346  11 -1.283322E+06 -2.882192E+05 -5.303619E+04 -5.281797E+05  8.354357E-10 -2.545162E-10
       346  12 -1.189115E+06 -2.654325E+05 -3.422505E+04 -5.141007E+05  3.320404E-10 -2.820509E-10
       346  13 -1.031131E+06 -2.079913E+05 -7.982908E+03 -4.703925E+05  6.910485E-11  5.757445E-10
       346  14 -1.039372E+06 -1.993567E+05 -4.396204E+03 -4.607503E+05  5.066888E-10  3.891716E-10
       346  15 -1.031093E+06 -2.078390E+05 -2.492976E+03 -4.704426E+05 -6.933845E-10  9.945325E-11
       346  16 -7.011186E+05 -8.782130E+04  5.767675E+04 -3.791491E+05  7.324169E-11  4.421379E-10
       346  17 -7.953620E+05 -1.104895E+05  4.424065E+04 -3.932967E+05 -6.489499E-10  4.363730E-10
       346  18 -8.730466E+05 -1.502438E+05  2.923752E+04 -4.267746E+05 -1.086926E-09  5.633612E-10
       346  19 -1.361030E+06 -3.281513E+05 -7.364648E+04 -5.615911E+05  6.143736E+03 -2.534850E+04
       346  20 -1.283322E+06 -2.882187E+05 -5.303545E+04 -5.281797E+05  1.402587E+03 -1.982772E+04
       346  21 -1.189115E+06 -2.654323E+05 -3.422465E+04 -5.141006E+05 -3.376321E+03 -1.420260E+04
       346  22 -1.031130E+06 -2.079907E+05 -7.981572E+03 -4.703927E+05  1.511357E+04 -2.197853E+04
       346  23 -1.039372E+06 -1.993563E+05 -4.395491E+03 -4.607505E+05  1.051899E+04 -1.640388E+04
       346  24 -1.031093E+06 -2.078388E+05 -2.492694E+03 -4.704427E+05  5.887027E+03 -1.072479E+04
       346  25 -7.011179E+05 -8.782077E+04  5.767849E+04 -3.791494E+05  2.408852E+04 -1.860666E+04
       346  26 -7.953615E+05 -1.104892E+05  4.424169E+04 -3.932969E+05  1.963921E+04 -1.297860E+04
       346  27 -8.730464E+05 -1.502437E+05  2.923805E+04 -4.267747E+05  1.515284E+04 -7.246051E+03
       347   1 -1.130460E+06 -2.440116E+05 -2.148728E+04 -4.979168E+05  5.160263E+03  1.051915E+04
       347   2 -1.052825E+06 -2.042337E+05 -3.901525E+03 -4.644033E+05  8.243860E+03  4.208330E+03
       347   3 -9.583703E+05 -1.813723E+05  1.321602E+04 -4.502344E+05  1.132977E+04 -2.108752E+03
       347   4 -1.031033E+06 -2.078491E+05 -1.929751E+03 -4.704240E+05 -4.087870E+03  7.047421E+03
       347   5 -1.039440E+06 -1.993995E+05 -1.238790E+03 -4.607463E+05 -1.013777E+03  7.330633E+02
       347   6 -1.031034E+06 -2.078661E+05 -1.009215E+03 -4.704169E+05  2.062528E+03 -5.587560E+03
       347   7 -9.315949E+05 -1.716853E+05  1.762792E+04 -4.429268E+05 -1.333767E+04  3.575066E+03
       347   8 -1.026054E+06 -1.945652E+05  1.424322E+03 -4.570892E+05 -1.027167E+04 -2.742297E+03
       347   9 -1.103692E+06 -2.343594E+05 -1.523433E+04 -4.905971E+05 -7.203554E+03 -9.065932E+03
       347  10 -1.130460E+06 -2.440117E+05 -2.148754E+04 -4.979168E+05 -7.351248E-10 -3.619108E-10
       347  11 -1.052825E+06 -2.042337E+05 -3.901687E+03 -4.644033E+05 -1.279581E-09  2.837117E-10
       347  12 -9.583705E+05 -1.813724E+05  1.321577E+04 -4.502344E+05 -1.224281E-09  4.680943E-10
       347  13 -1.031033E+06 -2.078491E+05 -1.929876E+03 -4.704240E+05  8.323326E-10 -2.455278E-11
       347  14 -1.039440E+06 -1.993995E+05 -1.238792E+03 -4.607463E+05  8.381455E-10  1.493418E-10
       347  15 -1.031034E+06 -2.078662E+05 -1.009281E+03 -4.704169E+05 -5.496522E-10  6.538363E-10
       347  16 -9.315951E+05 -1.716853E+05  1.762756E+04 -4.429268E+05  1.429041E-09  2.310718E-10
       347  17 -1.026054E+06 -1.945652E+05  1.424110E+03 -4.570892E+05  9.834562E-10  2.702287E-10
       347  18 -1.103693E+06 -2.343595E+05 -1.523458E+04 -4.905972E+05  6.517843E-10  4.035309E-10
       347  19 -1.130460E+06 -2.440116E+05 -2.148728E+04 -4.979168E+05 -5.160263E+03 -1.051915E+04
       347  20 -1.052825E+06 -2.042337E+05 -3.901525E+03 -4.644033E+05 -8.243860E+03 -4.208330E+03
       347  21 -9.583703E+05 -1.813723E+05  1.321602E+04 -4.502344E+05 -1.132977E+04  2.108752E+03
       347  22 -1.031033E+06 -2.078491E+05 -1.929751E+03 -4.704240E+05  4.087870E+03 -7.047421E+03
       347  23 -1.039440E+06 -1.993995E+05 -1.238790E+03 -4.607463E+05  1.013777E+03 -7.330633E+02
       347  24 -1.031034E+06 -2.078661E+05 -1.009215E+03 -4.704169E+05 -2.062528E+03  5.587560E+03
       347  25 -9.315949E+05 -1.716853E+05  1.762792E+04 -4.429268E+05  1.333767E+04 -3.575066E+03
       347  26 -1.026054E+06 -1.945652E+05  1.424322E+03 -4.570892E+05  1.027167E+04  2.742297E+03
       347  27 -1.103692E+06 -2.343594E+05 -1.523433E+04 -4.905971E+05  7.203554E+03  9.065932E+03
       348   1 -8.997999E+05 -1.599130E+05  2.536722E+04 -4.340285E+05  1.293024E+04 -5.860726E+03
       348   2 -8.222343E+05 -1.201636E+05  4.190566E+04 -4.005383E+05  1.604821E+04 -1.215909E+04
       348   3 -7.278629E+05 -9.731243E+04  5.795274E+04 -3.863724E+05  1.916276E+04 -1.844424E+04
       348   4 -1.031041E+06 -2.078656E+05 -1.030611E+03 -4.704127E+05  3.665022E+03 -9.339058E+03
       348   5 -1.039446E+06 -1.994191E+05 -1.360717E+03 -4.607498E+05  6.800382E+03 -1.563193E+04
       348   6 -1.031055E+06 -2.078752E+05 -2.195989E+03 -4.704144E+05  9.932232E+03 -2.191164E+04
       348   7 -1.162264E+06 -2.558161E+05 -2.742862E+04 -5.067895E+05 -5.598014E+03 -1.281657E+04
       348   8 -1.256608E+06 -2.786704E+05 -4.462897E+04 -5.209417E+05 -2.443966E+03 -1.910347E+04
       348   9 -1.334154E+06 -3.184308E+05 -6.234937E+04 -5.544191E+05  7.064782E+02 -2.537725E+04
       348  10 -8.998001E+05 -1.599131E+05  2.536684E+04 -4.340284E+05 -3.890494E-10  4.230739E-10
       348  11 -8.222346E+05 -1.201638E+05  4.190490E+04 -4.005381E+05 -1.859763E-10  9.192884E-11
       348  12 -7.278634E+05 -9.731289E+04  5.795141E+04 -3.863721E+05  2.429686E-11 -9.828450E-11
       348  13 -1.031041E+06 -2.078656E+05 -1.030800E+03 -4.704127E+05 -1.245262E-11  4.945649E-10
       348  14 -1.039446E+06 -1.994194E+05 -1.361262E+03 -4.607497E+05  7.262851E-10 -1.859941E-10
       348  15 -1.031055E+06 -2.078757E+05 -2.197076E+03 -4.704143E+05  3.863004E-10 -8.789132E-10
       348  16 -1.162264E+06 -2.558163E+05 -2.742899E+04 -5.067895E+05 -2.897989E-10  2.280313E-10
       348  17 -1.256608E+06 -2.786708E+05 -4.462967E+04 -5.209417E+05  6.086355E-10 -4.608372E-10
       348  18 -1.334154E+06 -3.184315E+05 -6.235058E+04 -5.544190E+05 -6.211532E-10 -2.192697E-10
       348  19 -8.997999E+05 -1.599130E+05  2.536722E+04 -4.340285E+05 -1.293024E+04  5.860726E+03
       348  20 -8.222343E+05 -1.201636E+05  4.190566E+04 -4.005383E+05 -1.604821E+04  1.215909E+04
       348  21 -7.278629E+05 -9.731243E+04  5.795274E+04 -3.863724E+05 -1.916276E+04  1.844424E+04
       348  22 -1.031041E+06 -2.078656E+05 -1.030611E+03 -4.704127E+05 -3.665022E+03  9.339058E+03
       348  23 -1.039446E+06 -1.994191E+05 -1.360717E+03 -4.607498E+05 -6.800382E+03  1.563193E+04
       348  24 -1.031055E+06 -2.078752E+05 -2.195989E+03 -4.704144E+05 -9.932232E+03  2.191164E+04
       348  25 -1.162264E+06 -2.558161E+05 -2.742862E+04 -5.067895E+05  5.598014E+03  1.281657E+04
       348  26 -1.256608E+06 -2.786704E+05 -4.462897E+04 -5.209417E+05  2.443966E+03  1.910347E+04
       348  27 -1.334154E+06 -3.184308E+05 -6.234937E+04 -5.544191E+05 -7.064782E+02  2.537725E+04
       349   1 -6.694494E+05 -7.590701E+04  6.943699E+04 -3.702381E+05  2.102740E+04 -2.208715E+04
       349   2 -5.919932E+05 -3.625667E+04  8.407947E+04 -3.368315E+05  2.580549E+04 -2.767505E+04
       349   3 -4.980577E+05 -1.367693E+04  9.692813E+04 -3.226937E+05  3.053671E+04 -3.312938E+04
       349   4 -1.031135E+06 -2.078627E+05 -2.858774E+03 -4.704280E+05  1.178186E+04 -2.556116E+04
       349   5 -1.039382E+06 -1.994088E+05 -5.080345E+03 -4.607602E+05  1.674562E+04 -3.108144E+04
       349   6 -1.031193E+06 -2.080642E+05 -9.243826E+03 -4.703653E+05  2.166213E+04 -3.646821E+04
       349   7 -1.392686E+06 -3.398069E+05 -7.516043E+04 -5.705638E+05  2.542117E+03 -2.903300E+04
       349   8 -1.486561E+06 -3.625428E+05 -9.424881E+04 -5.846057E+05  7.692808E+03 -3.448519E+04
       349   9 -1.564030E+06 -4.024251E+05 -1.154277E+05 -6.179183E+05  1.279581E+04 -3.980395E+04
       349  10 -6.694500E+05 -7.590765E+04  6.943524E+04 -3.702378E+05  8.009186E-10 -8.539341E-10
       349  11 -5.919941E+05 -3.625767E+04  8.407678E+04 -3.368309E+05 -4.682339E-10 -5.367009E-10
       349  12 -4.980590E+05 -1.367836E+04  9.692432E+04 -3.226929E+05 -2.507190E-09  1.054888E-09
       349  13 -1.031136E+06 -2.078634E+05 -2.860261E+03 -4.704278E+05  2.450235E-10 -5.347514E-10
       349  14 -1.039382E+06 -1.994099E+05 -5.082686E+03 -4.607598E+05 -1.035071E-09  6.152540E-10
       349  15 -1.031194E+06 -2.080657E+05 -9.247205E+03 -4.703647E+05 -2.820322E-10  8.811757E-10
       349  16 -1.392686E+06 -3.398078E+05 -7.516203E+04 -5.705638E+05 -9.041934E-10  3.126116E-10
       349  17 -1.486562E+06 -3.625441E+05 -9.425115E+04 -5.846055E+05  2.134218E-09 -2.961630E-10
       349  18 -1.564030E+06 -4.024268E+05 -1.154310E+05 -6.179179E+05  1.738741E-09  1.248327E-09
       349  19 -6.694494E+05 -7.590701E+04  6.943699E+04 -3.702381E+05 -2.102740E+04  2.208715E+04
       349  20 -5.919932E+05 -3.625667E+04  8.407947E+04 -3.368315E+05 -2.580549E+04  2.767505E+04
       349  21 -4.980577E+05 -1.367693E+04  9.692813E+04 -3.226937E+05 -3.053671E+04  3.312938E+04
       349  22 -1.031135E+06 -2.078627E+05 -2.858774E+03 -4.704280E+05 -1.178186E+04  2.556116E+04
       349  23 -1.039382E+06 -1.994088E+05 -5.080345E+03 -4.607602E+05 -1.674562E+04  3.108144E+04
       349  24 -1.031193E+06 -2.080642E+05 -9.243826E+03 -4.703653E+05 -2.166213E+04  3.646821E+04
       349  25 -1.392686E+06 -3.398069E+05 -7.516043E+04 -5.705638E+05 -2.542117E+03  2.903300E+04
       349  26 -1.486561E+06 -3.625428E+05 -9.424881E+04 -5.846057E+05 -7.692808E+03  3.448519E+04
       349  27 -1.564030E+06 -4.024251E+05 -1.154277E+05 -6.179183E+05 -1.279581E+04  3.980395E+04
       350   1 -4.396542E+05  7.324387E+03  1.060014E+05 -3.075673E+05  3.402959E+04 -3.614388E+04
       350   2 -3.631895E+05  4.757060E+04  1.134885E+05 -2.720331E+05  4.480609E+04 -3.847491E+04
       350   3 -2.730249E+05  6.595129E+04  1.131566E+05 -2.545215E+05  5.489581E+04 -3.896646E+04
       350   4 -1.031722E+06 -2.077776E+05 -1.227992E+04 -4.706426E+05  2.481152E+04 -3.961338E+04
       350   5 -1.038835E+06 -2.001216E+05 -2.238805E+04 -4.603094E+05  3.817691E+04 -4.097394E+04
       350   6 -1.032773E+06 -2.148526E+05 -4.237681E+04 -4.680044E+05  5.085382E+04 -4.049444E+04
       350   7 -1.623433E+06 -4.228520E+05 -1.305791E+05 -6.335757E+05  1.560282E+04 -4.307941E+04
       350   8 -1.714012E+06 -4.477747E+05 -1.582875E+05 -6.483966E+05  3.155544E+04 -4.347005E+04
       350   9 -1.791928E+06 -4.956044E+05 -1.979398E+05 -6.812448E+05  4.681714E+04 -4.202040E+04
       350  10 -4.396558E+05  7.322674E+03  1.059967E+05 -3.075663E+05  1.778526E-09  2.402421E-09
       350  11 -3.631920E+05  4.756847E+04  1.134819E+05 -2.720317E+05 -1.327283E-09  4.837096E-10
       350  12 -2.730286E+05  6.594886E+04  1.131481E+05 -2.545198E+05  1.306344E-09  8.073964E-10
       350  13 -1.031723E+06 -2.077794E+05 -1.228402E+04 -4.706418E+05 -1.503742E-09  1.340160E-09
       350  14 -1.038837E+06 -2.001238E+05 -2.239394E+04 -4.603081E+05 -2.026970E-09  1.731271E-11
       350  15 -1.032776E+06 -2.148551E+05 -4.238476E+04 -4.680028E+05  5.197157E-09  2.098975E-09
       350  16 -1.623434E+06 -4.228540E+05 -1.305830E+05 -6.335751E+05 -3.503041E-09  4.444692E-10
       350  17 -1.714013E+06 -4.477770E+05 -1.582929E+05 -6.483955E+05  1.188656E-09  3.422414E-10
       350  18 -1.791930E+06 -4.956069E+05 -1.979473E+05 -6.812433E+05  7.765297E-09  3.065419E-09
       350  19 -4.396542E+05  7.324387E+03  1.060014E+05 -3.075673E+05 -3.402959E+04  3.614388E+04
       350  20 -3.631895E+05  4.757060E+04  1.134885E+05 -2.720331E+05 -4.480609E+04  3.847491E+04
       350  21 -2.730249E+05  6.595129E+04  1.131566E+05 -2.545215E+05 -5.489581E+04  3.896646E+04
       350  22 -1.031722E+06 -2.077776E+05 -1.227992E+04 -4.706426E+05 -2.481152E+04  3.961338E+04
       350  23 -1.038835E+06 -2.001216E+05 -2.238805E+04 -4.603094E+05 -3.817691E+04  4.097394E+04
       350  24 -1.032773E+06 -2.148526E+05 -4.237681E+04 -4.680044E+05 -5.085382E+04  4.049444E+04
       350  25 -1.623433E+06 -4.228520E+05 -1.305791E+05 -6.335757E+05 -1.560282E+04  4.307941E+04
       350  26 -1.714012E+06 -4.477747E+05 -1.582875E+05 -6.483966E+05 -3.155544E+04  4.347005E+04
       350  27 -1.791928E+06 -4.956044E+05 -1.979398E+05 -6.812448E+05 -4.681714E+04  4.202040E+04
       351   1 -2.068884E+05  7.999168E+04  1.123618E+05 -2.596382E+05  6.803838E+04 -3.837350E+04
       351   2 -1.632886E+05  1.401952E+05  9.387949E+04 -1.602643E+05  8.158928E+04 -2.529744E+04
       351   3 -1.515929E+05  6.516654E+04  3.043215E+04 -4.644506E+04  8.492240E+04  1.489115E+04
       351   4 -1.039774E+06 -2.083059E+05 -5.545374E+04 -4.733488E+05  5.868575E+04 -4.190020E+04
       351   5 -1.032630E+06 -2.254442E+05 -1.037247E+05 -4.472365E+05  1.105501E+05 -1.440215E+04
       351   6 -1.065074E+06 -3.855453E+05 -2.274103E+05 -4.066686E+05  1.521839E+05  4.022185E+04
       351   7 -1.871947E+06 -4.965627E+05 -2.233029E+05 -6.868022E+05  4.934663E+04 -4.542248E+04
       351   8 -1.901183E+06 -5.909512E+05 -3.013701E+05 -7.338117E+05  1.394667E+05 -3.528811E+03
       351   9 -1.977677E+06 -8.359938E+05 -4.853024E+05 -7.663401E+05  2.193356E+05  6.548192E+04
       351  10 -2.068938E+05  7.998886E+04  1.123504E+05 -2.596361E+05  8.081028E-09  3.465499E-09
       351  11 -1.632959E+05  1.401928E+05  9.386578E+04 -1.602626E+05  1.451016E-09 -2.635377E-09
       351  12 -1.516007E+05  6.516436E+04  3.041817E+04 -4.644608E+04 -7.749730E-10 -4.440673E-10
       351  13 -1.039778E+06 -2.083087E+05 -5.546351E+04 -4.733468E+05  6.538277E-09 -1.134991E-09
       351  14 -1.032644E+06 -2.254477E+05 -1.037480E+05 -4.472352E+05  9.503344E-10  5.483705E-10
       351  15 -1.065100E+06 -3.855532E+05 -2.274570E+05 -4.066736E+05 -7.529089E-10  5.333564E-10
       351  16 -1.871950E+06 -4.965656E+05 -2.233113E+05 -6.868004E+05  2.694082E-09  3.181436E-10
       351  17 -1.901204E+06 -5.909564E+05 -3.014068E+05 -7.338113E+05 -1.644889E-09  1.974011E-09
       351  18 -1.977730E+06 -8.360113E+05 -4.854012E+05 -7.663517E+05 -1.141643E-09  1.832469E-09
       351  19 -2.068884E+05  7.999168E+04  1.123618E+05 -2.596382E+05 -6.803838E+04  3.837350E+04
       351  20 -1.632886E+05  1.401952E+05  9.387949E+04 -1.602643E+05 -8.158928E+04  2.529744E+04
       351  21 -1.515929E+05  6.516654E+04  3.043215E+04 -4.644506E+04 -8.492240E+04 -1.489115E+04
       351  22 -1.039774E+06 -2.083059E+05 -5.545374E+04 -4.733488E+05 -5.868575E+04  4.190020E+04
       351  23 -1.032630E+06 -2.254442E+05 -1.037247E+05 -4.472365E+05 -1.105501E+05  1.440215E+04
       351  24 -1.065074E+06 -3.855453E+05 -2.274103E+05 -4.066686E+05 -1.521839E+05 -4.022185E+04
       351  25 -1.871947E+06 -4.965627E+05 -2.233029E+05 -6.868022E+05 -4.934663E+04  4.542248E+04
       351  26 -1.901183E+06 -5.909512E+05 -3.013701E+05 -7.338117E+05 -1.394667E+05  3.528811E+03
       351  27 -1.977677E+06 -8.359938E+05 -4.853024E+05 -7.663401E+05 -2.193356E+05 -6.548192E+04
       352   1  1.131500E+05  3.487379E+04  5.597462E+03 -3.028380E+04 -7.966677E+04 -8.625592E+03
       352   2  8.450314E+04  1.475100E+05  6.549244E+04 -1.311066E+03 -5.819758E+04 -2.694678E+04
       352   3  2.349532E+04  1.416704E+05  8.183336E+04  4.602526E+04 -3.676323E+04 -2.853672E+04
       352   4 -5.303993E+05 -1.247977E+05 -1.503683E+05  2.722847E+04 -1.033272E+05 -8.679764E+03
       352   5 -5.128883E+05  1.336812E+03 -6.836206E+04  1.790782E+04 -6.703170E+04 -2.696948E+04
       352   6 -5.303520E+05  6.352884E+03 -4.024238E+04  2.695329E+04 -3.076857E+04 -2.852337E+04
       352   7 -1.173562E+06 -2.844868E+05 -3.063599E+05  8.468077E+04 -1.269631E+05 -8.738353E+03
       352   8 -1.109946E+06 -1.448592E+05 -2.022386E+05  3.710784E+04 -7.585738E+04 -2.699274E+04
       352   9 -1.083912E+06 -1.289839E+05 -1.623367E+05  7.898369E+03 -2.477918E+04 -2.851037E+04
       352  10  1.131431E+05  3.487200E+04  5.585397E+03 -3.028435E+04 -7.521998E-10 -1.637322E-11
       352  11  8.449931E+04  1.475083E+05  6.548472E+04 -1.312328E+03 -4.598463E-10 -2.991886E-09
       352  12  2.349365E+04  1.416692E+05  8.182929E+04  4.602441E+04  1.870843E-09 -4.097815E-09
       352  13 -5.304108E+05 -1.248007E+05 -1.503885E+05  2.722775E+04  8.599347E-10  1.813236E-09
       352  14 -5.128934E+05  1.334824E+03 -6.837188E+04  1.790636E+04 -8.290176E-10 -9.486445E-10
       352  15 -5.303533E+05  6.351756E+03 -4.024569E+04  2.695258E+04 -4.718140E-10  1.213953E-11
       352  16 -1.173579E+06 -2.844912E+05 -3.063904E+05  8.467988E+04 -2.501092E-10  1.202415E-09
       352  17 -1.109953E+06 -1.448616E+05 -2.022508E+05  3.710619E+04 -7.837615E-10 -4.797146E-09
       352  18 -1.083913E+06 -1.289850E+05 -1.623393E+05  7.897800E+03 -1.743055E-09 -5.872257E-09
       352  19  1.131500E+05  3.487379E+04  5.597462E+03 -3.028380E+04  7.966677E+04  8.625592E+03
       352  20  8.450314E+04  1.475100E+05  6.549244E+04 -1.311066E+03  5.819758E+04  2.694678E+04
       352  21  2.349532E+04  1.416704E+05  8.183336E+04  4.602526E+04  3.676323E+04  2.853672E+04
       352  22 -5.303993E+05 -1.247977E+05 -1.503683E+05  2.722847E+04  1.033272E+05  8.679764E+03
       352  23 -5.128883E+05  1.336812E+03 -6.836206E+04  1.790782E+04  6.703170E+04  2.696948E+04
       352  24 -5.303520E+05  6.352884E+03 -4.024238E+04  2.695329E+04  3.076857E+04  2.852337E+04
       352  25 -1.173562E+06 -2.844868E+05 -3.063599E+05  8.468077E+04  1.269631E+05  8.738353E+03
       352  26 -1.109946E+06 -1.448592E+05 -2.022386E+05  3.710784E+04  7.585738E+04  2.699274E+04
       352  27 -1.083912E+06 -1.289839E+05 -1.623367E+05  7.898369E+03  2.477918E+04  2.851037E+04
       353   1 -6.814984E+03  1.191661E+05  8.237666E+04  2.568336E+04 -2.612294E+04 -2.552661E+04
       353   2 -5.036786E+04  1.154337E+05  8.677867E+04  1.798341E+04 -1.810114E+04 -2.392982E+04
       353   3 -9.675295E+04  1.047098E+05  8.420215E+04  2.941168E+04 -1.008300E+04 -2.157754E+04
       353   4 -5.232329E+05 -7.017567E+03 -3.204236E+04  2.720703E+04 -2.504383E+04 -2.552559E+04
       353   5 -5.217489E+05  3.153691E+02 -1.729585E+04  1.763262E+04 -1.635773E+04 -2.392659E+04
       353   6 -5.232166E+05  5.382799E+02 -9.993584E+03  2.718744E+04 -7.674704E+03 -2.157188E+04
       353   7 -1.039402E+06 -1.332193E+05 -1.464779E+05  2.872926E+04 -2.396560E+04 -2.552456E+04
       353   8 -9.929222E+05 -1.148179E+05 -1.213840E+05  1.728196E+04 -1.461562E+04 -2.392336E+04
       353   9 -9.495102E+05 -1.036455E+05 -1.042005E+05  2.496462E+04 -5.268039E+03 -2.156623E+04
       353  10 -6.815891E+03  1.191652E+05  8.237415E+04  2.568283E+04 -4.020390E-09 -6.036316E-09
       353  11 -5.036836E+04  1.154330E+05  8.677698E+04  1.798306E+04 -3.551892E-09  1.345770E-09
       353  12 -9.675318E+04  1.047093E+05  8.420108E+04  2.941150E+04 -2.330620E-09  2.718573E-09
       353  13 -5.232337E+05 -7.018435E+03 -3.204477E+04  2.720652E+04 -2.642057E-10 -4.105839E-09
       353  14 -5.217494E+05  3.146826E+02 -1.729743E+04  1.763230E+04 -1.768631E-09 -5.572744E-10
       353  15 -5.232168E+05  5.377645E+02 -9.994569E+03  2.718731E+04 -2.701004E-10 -2.985806E-09
       353  16 -1.039402E+06 -1.332201E+05 -1.464802E+05  2.872877E+04  3.453030E-09 -1.027016E-09
       353  17 -9.929226E+05 -1.148186E+05 -1.213855E+05  1.728168E+04  2.465573E-09  1.225893E-09
       353  18 -9.495104E+05 -1.036460E+05 -1.042014E+05  2.496453E+04  3.070391E-09  2.594202E-10
       353  19 -6.814984E+03  1.191661E+05  8.237666E+04  2.568336E+04  2.612294E+04  2.552661E+04
       353  20 -5.036786E+04  1.154337E+05  8.677867E+04  1.798341E+04  1.810114E+04  2.392982E+04
       353  21 -9.675295E+04  1.047098E+05  8.420215E+04  2.941168E+04  1.008300E+04  2.157754E+04
       353  22 -5.232329E+05 -7.017567E+03 -3.204236E+04  2.720703E+04  2.504383E+04  2.552559E+04
       353  23 -5.217489E+05  3.153691E+02 -1.729585E+04  1.763262E+04  1.635773E+04  2.392659E+04
       353  24 -5.232166E+05  5.382799E+02 -9.993584E+03  2.718744E+04  7.674704E+03  2.157188E+04
       353  25 -1.039402E+06 -1.332193E+05 -1.464779E+05  2.872926E+04  2.396560E+04  2.552456E+04
       353  26 -9.929222E+05 -1.148179E+05 -1.213840E+05  1.728196E+04  1.461562E+04  2.392336E+04
       353  27 -9.495102E+05 -1.036455E+05 -1.042005E+05  2.496462E+04  5.268039E+03  2.156623E+04
       354   1 -1.336752E+05  9.475061E+04  7.803721E+04  2.816489E+04 -8.317660E+03 -2.003621E+04
       354   2 -1.787476E+05  8.407577E+04  7.145582E+04  1.846830E+04 -6.193409E+03 -1.754281E+04
       354   3 -2.242717E+05  7.308890E+04  6.339027E+04  2.806651E+04 -4.070552E+03 -1.501028E+04
       354   4 -5.226561E+05 -2.184066E+02 -7.673623E+03  2.723036E+04 -6.124096E+03 -2.003083E+04
       354   5 -5.224213E+05  1.474949E+02 -4.364743E+03  1.758202E+04 -3.966404E+03 -1.753688E+04
       354   6 -5.226462E+05  1.954067E+02 -2.563959E+03  2.722913E+04 -1.809954E+03 -1.500379E+04
       354   7 -9.114954E+05 -9.519758E+04 -9.339372E+04  2.629633E+04 -3.931890E+03 -2.002545E+04
       354   8 -8.659845E+05 -8.378872E+04 -8.019256E+04  1.669616E+04 -1.740617E+03 -1.753095E+04
       354   9 -8.209375E+05 -7.270409E+04 -6.852366E+04  2.639209E+04  4.495703E+02 -1.499729E+04
       354  10 -1.336754E+05  9.475016E+04  7.803633E+04  2.816475E+04 -4.245385E-09  5.251835E-09
       354  11 -1.787477E+05  8.407543E+04  7.145517E+04  1.846821E+04 -5.168394E-10  4.290176E-09
       354  12 -2.242718E+05  7.308866E+04  6.338981E+04  2.806646E+04  3.560891E-09 -4.427330E-10
       354  13 -5.226562E+05 -2.188474E+02 -7.674447E+03  2.723026E+04  2.883265E-10 -2.732145E-09
       354  14 -5.224214E+05  1.471605E+02 -4.365350E+03  1.758197E+04 -1.611142E-09  5.284447E-09
       354  15 -5.226463E+05  1.951642E+02 -2.564388E+03  2.722911E+04 -5.594091E-10  5.831439E-09
       354  16 -9.114955E+05 -9.519802E+04 -9.339451E+04  2.629627E+04  3.536545E-09  3.278940E-09
       354  17 -8.659845E+05 -8.378905E+04 -8.019314E+04  1.669614E+04 -1.938383E-10  5.481318E-09
       354  18 -8.209376E+05 -7.270433E+04 -6.852408E+04  2.639210E+04 -3.212332E-09  3.089964E-09
       354  19 -1.336752E+05  9.475061E+04  7.803721E+04  2.816489E+04  8.317660E+03  2.003621E+04
       354  20 -1.787476E+05  8.407577E+04  7.145582E+04  1.846830E+04  6.193409E+03  1.754281E+04
       354  21 -2.242717E+05  7.308890E+04  6.339027E+04  2.806651E+04  4.070552E+03  1.501028E+04
       354  22 -5.226561E+05 -2.184066E+02 -7.673623E+03  2.723036E+04  6.124096E+03  2.003083E+04
       354  23 -5.224213E+05  1.474949E+02 -4.364743E+03  1.758202E+04  3.966404E+03  1.753688E+04
       354  24 -5.226462E+05  1.954067E+02 -2.563959E+03  2.722913E+04  1.809954E+03  1.500379E+04
       354  25 -9.114954E+05 -9.519758E+04 -9.339372E+04  2.629633E+04  3.931890E+03  2.002545E+04
       354  26 -8.659845E+05 -8.378872E+04 -8.019256E+04  1.669616E+04  1.740617E+03  1.753095E+04
       354  27 -8.209375E+05 -7.270409E+04 -6.852366E+04  2.639209E+04 -4.495703E+02  1.499729E+04
       355   1 -2.619189E+05  6.379380E+04  5.538203E+04  2.793303E+04 -3.657749E+03 -1.352795E+04
       355   2 -3.073559E+05  5.266636E+04  4.618358E+04  1.811085E+04 -3.037687E+03 -1.098431E+04
       355   3 -3.529852E+05  4.163497E+04  3.657321E+04  2.768455E+04 -2.418412E+03 -8.435700E+03
       355   4 -5.225827E+05  1.598938E+02 -1.998332E+03  2.725193E+04 -1.403275E+03 -1.352123E+04
       355   5 -5.224819E+05  1.269289E+02 -1.278320E+03  1.755374E+04 -7.791143E+02 -1.097730E+04
       355   6 -5.225769E+05  1.892217E+02 -9.733313E+02  2.725183E+04 -1.556968E+02 -8.428378E+03
       355   7 -7.831829E+05 -6.347857E+04 -5.938284E+04  2.657106E+04  8.502644E+02 -1.351452E+04
       355   8 -7.375646E+05 -5.241561E+04 -4.874305E+04  1.699679E+04  1.478684E+03 -1.097029E+04
       355   9 -6.921417E+05 -4.125847E+04 -3.852163E+04  2.681921E+04  2.106407E+03 -8.421059E+03
       355  10 -2.619190E+05  6.379360E+04  5.538166E+04  2.793299E+04  2.388185E-09 -1.509851E-09
       355  11 -3.073559E+05  5.266623E+04  4.618333E+04  1.811083E+04  7.686416E-10  8.665834E-09
       355  12 -3.529852E+05  4.163490E+04  3.657306E+04  2.768453E+04 -1.025209E-09  8.107278E-09
       355  13 -5.225828E+05  1.596970E+02 -1.998679E+03  2.725191E+04  1.116063E-09  1.015073E-09
       355  14 -5.224819E+05  1.267994E+02 -1.278547E+03  1.755373E+04 -1.785200E-09  7.878501E-09
       355  15 -5.225769E+05  1.891454E+02 -9.734648E+02  2.725183E+04 -8.910883E-10  1.724323E-09
       355  16 -7.831830E+05 -6.347876E+04 -5.938318E+04  2.657107E+04 -2.489417E-09  2.629742E-09
       355  17 -7.375647E+05 -5.241574E+04 -4.874328E+04  1.699680E+04 -4.078945E-10 -2.801234E-10
       355  18 -6.921417E+05 -4.125855E+04 -3.852177E+04  2.681922E+04  8.850608E-10 -1.516810E-09
       355  19 -2.619189E+05  6.379380E+04  5.538203E+04  2.793303E+04  3.657749E+03  1.352795E+04
       355  20 -3.073559E+05  5.266636E+04  4.618358E+04  1.811085E+04  3.037687E+03  1.098431E+04
       355  21 -3.529852E+05  4.163497E+04  3.657321E+04  2.768455E+04  2.418412E+03  8.435700E+03
       355  22 -5.225827E+05  1.598938E+02 -1.998332E+03  2.725193E+04  1.403275E+03  1.352123E+04
       355  23 -5.224819E+05  1.269289E+02 -1.278320E+03  1.755374E+04  7.791143E+02  1.097730E+04
       355  24 -5.225769E+05  1.892217E+02 -9.733313E+02  2.725183E+04  1.556968E+02  8.428378E+03
       355  25 -7.831829E+05 -6.347857E+04 -5.938284E+04  2.657106E+04 -8.502644E+02  1.351452E+04
       355  26 -7.375646E+05 -5.241561E+04 -4.874305E+04  1.699679E+04 -1.478684E+03  1.097029E+04
       355  27 -6.921417E+05 -4.125847E+04 -3.852163E+04  2.681921E+04 -2.106407E+03  8.421059E+03
       356   1 -3.908439E+05  3.233817E+04  2.799559E+04  2.759513E+04 -2.251731E+03 -6.950774E+03
       356   2 -4.364007E+05  2.115993E+04  1.789812E+04  1.773196E+04 -1.720414E+03 -4.397311E+03
       356   3 -4.821590E+05  1.008592E+04  7.443141E+03  2.732238E+04 -1.189419E+03 -1.843183E+03
       356   4 -5.225758E+05  1.899704E+02 -9.403042E+02  2.726461E+04  1.274836E+01 -6.943320E+03
       356   5 -5.224733E+05  1.373629E+02 -1.092822E+03  1.753774E+04  5.445231E+02 -4.389742E+03
       356   6 -5.225736E+05  1.892098E+02 -1.602940E+03  2.726462E+04  1.076015E+03 -1.835492E+03
       356   7 -6.542915E+05 -3.195939E+04 -2.987723E+04  2.693415E+04  2.276753E+03 -6.935867E+03
       356   8 -6.085390E+05 -2.088570E+04 -2.008420E+04  1.734354E+04  2.809150E+03 -4.382174E+03
       356   9 -5.629867E+05 -9.707609E+03 -1.064911E+04  2.720685E+04  3.341303E+03 -1.827801E+03
       356  10 -3.908439E+05  3.233811E+04  2.799549E+04  2.759512E+04  7.381094E-09  1.329495E-09
       356  11 -4.364007E+05  2.115990E+04  1.789808E+04  1.773195E+04  5.362683E-09  5.380122E-11
       356  12 -4.821590E+05  1.008592E+04  7.443132E+03  2.732238E+04  1.451044E-09 -6.419062E-10
       356  13 -5.225758E+05  1.899186E+02 -9.403947E+02  2.726461E+04  1.358961E-09  8.705122E-09
       356  14 -5.224733E+05  1.373421E+02 -1.092858E+03  1.753774E+04 -1.616836E-09  5.606664E-10
       356  15 -5.225736E+05  1.892059E+02 -1.602949E+03  2.726462E+04 -1.161846E-10 -3.342432E-09
       356  16 -6.542915E+05 -3.195944E+04 -2.987733E+04  2.693416E+04 -6.554806E-09  2.663536E-09
       356  17 -6.085390E+05 -2.088572E+04 -2.008425E+04  1.734355E+04 -5.497652E-09 -3.576063E-09
       356  18 -5.629867E+05 -9.707616E+03 -1.064913E+04  2.720686E+04 -1.041792E-09 -4.111903E-09
       356  19 -3.908439E+05  3.233817E+04  2.799559E+04  2.759513E+04  2.251731E+03  6.950774E+03
       356  20 -4.364007E+05  2.115993E+04  1.789812E+04  1.773196E+04  1.720414E+03  4.397311E+03
       356  21 -4.821590E+05  1.008592E+04  7.443141E+03  2.732238E+04  1.189419E+03  1.843183E+03
       356  22 -5.225758E+05  1.899704E+02 -9.403042E+02  2.726461E+04 -1.274836E+01  6.943320E+03
       356  23 -5.224733E+05  1.373629E+02 -1.092822E+03  1.753774E+04 -5.445231E+02  4.389742E+03
       356  24 -5.225736E+05  1.892098E+02 -1.602940E+03  2.726462E+04 -1.076015E+03  1.835492E+03
       356  25 -6.542915E+05 -3.195939E+04 -2.987723E+04  2.693415E+04 -2.276753E+03  6.935867E+03
       356  26 -6.085390E+05 -2.088570E+04 -2.008420E+04  1.734354E+04 -2.809150E+03  4.382174E+03
       356  27 -5.629867E+05 -9.707609E+03 -1.064911E+04  2.720685E+04 -3.341303E+03  1.827801E+03
       357   1 -5.201254E+05  8.016976E+02 -1.603887E+03  2.716658E+04 -8.729998E+02 -3.537538E+02
       357   2 -5.655816E+05 -1.037421E+04 -1.292001E+04  1.733660E+04  8.166994E+02  2.201628E+03
       357   3 -6.114717E+05 -2.176189E+04 -2.542810E+04  2.696721E+04  2.506480E+03  4.737960E+03
       357   4 -5.226244E+05  2.180155E+02 -2.026029E+03  2.726578E+04  1.398066E+03 -3.460256E+02
       357   5 -5.224088E+05  1.725594E+02 -3.391146E+03  1.753605E+04  3.070900E+03  2.209237E+03
       357   6 -5.226261E+05 -8.155707E+01 -5.936313E+03  2.726681E+04  4.743937E+03  4.745458E+03
       357   7 -5.251233E+05 -3.656643E+02 -2.448153E+03  2.736499E+04  3.669122E+03 -3.382966E+02
       357   8 -4.792343E+05  1.071921E+04  6.137619E+03  1.773551E+04  5.325255E+03  2.216847E+03
       357   9 -4.337730E+05  2.159825E+04  1.355501E+04  2.756645E+04  6.981711E+03  4.752958E+03
       357  10 -5.201254E+05  8.016973E+02 -1.603889E+03  2.716658E+04 -1.206292E-08  3.645074E-09
       357  11 -5.655816E+05 -1.037422E+04 -1.292002E+04  1.733660E+04 -6.545729E-09  1.287347E-09
       357  12 -6.114718E+05 -2.176192E+04 -2.542815E+04  2.696720E+04 -2.941581E-10  6.809406E-10
       357  13 -5.226244E+05  2.180148E+02 -2.026033E+03  2.726578E+04  1.793454E-09  1.046659E-09
       357  14 -5.224088E+05  1.725516E+02 -3.391173E+03  1.753604E+04 -1.445405E-09  3.771556E-09
       357  15 -5.226261E+05 -8.158729E+01 -5.936397E+03  2.726679E+04  8.785491E-10  1.256661E-09
       357  16 -5.251233E+05 -3.656680E+02 -2.448178E+03  2.736499E+04  1.238853E-08  3.394634E-09
       357  17 -4.792343E+05  1.071920E+04  6.137557E+03  1.773550E+04  5.968658E-09 -1.016560E-08
       357  18 -4.337731E+05  2.159822E+04  1.355488E+04  2.756642E+04  1.719642E-09 -2.685475E-09
       357  19 -5.201254E+05  8.016976E+02 -1.603887E+03  2.716658E+04  8.729998E+02  3.537538E+02
       357  20 -5.655816E+05 -1.037421E+04 -1.292001E+04  1.733660E+04 -8.166994E+02 -2.201628E+03
       357  21 -6.114717E+05 -2.176189E+04 -2.542810E+04  2.696721E+04 -2.506480E+03 -4.737960E+03
       357  22 -5.226244E+05  2.180155E+02 -2.026029E+03  2.726578E+04 -1.398066E+03  3.460256E+02
       357  23 -5.224088E+05  1.725594E+02 -3.391146E+03  1.753605E+04 -3.070900E+03 -2.209237E+03
       357  24 -5.226261E+05 -8.155707E+01 -5.936313E+03  2.726681E+04 -4.743937E+03 -4.745458E+03
       357  25 -5.251233E+05 -3.656643E+02 -2.448153E+03  2.736499E+04 -3.669122E+03  3.382966E+02
       357  26 -4.792343E+05  1.071921E+04  6.137619E+03  1.773551E+04 -5.325255E+03 -2.216847E+03
       357  27 -4.337730E+05  2.159825E+04  1.355501E+04  2.756645E+04 -6.981711E+03 -4.752958E+03
       358   1 -6.497903E+05 -3.048659E+04 -3.581482E+04  2.590713E+04  3.583551E+03  6.264827E+03
       358   2 -6.941602E+05 -4.177380E+04 -5.141859E+04  1.757167E+04  1.064823E+04  8.736509E+03
       358   3 -7.409744E+05 -5.857305E+04 -7.303808E+04  2.865191E+04  1.771412E+04  1.079269E+04
       358   4 -5.230610E+05  5.036328E+02 -7.724280E+03  2.725108E+04  5.940997E+03  6.272642E+03
       358   5 -5.218738E+05  3.194464E+02 -1.334789E+04  1.755286E+04  1.263863E+04  8.742864E+03
       358   6 -5.230687E+05 -5.312007E+03 -2.473083E+04  2.727012E+04  1.933799E+04  1.079761E+04
       358   7 -3.963167E+05  3.149278E+04  2.036528E+04  2.859530E+04  8.298919E+03  6.280466E+03
       358   8 -3.495596E+05  4.241069E+04  2.472100E+04  1.753402E+04  1.462959E+04  8.749218E+03
       358   9 -3.051186E+05  4.794584E+04  2.357349E+04  2.588781E+04  2.096243E+04  1.080253E+04
       358  10 -6.497904E+05 -3.048663E+04 -3.581492E+04  2.590711E+04 -5.440179E-09  6.477137E-09
       358  11 -6.941603E+05 -4.177391E+04 -5.141895E+04  1.757159E+04 -9.609300E-10  2.122946E-09
       358  12 -7.409748E+05 -5.857326E+04 -7.303889E+04  2.865175E+04  1.401511E-09  7.267948E-09
       358  13 -5.230611E+05  5.035811E+02 -7.724420E+03  2.725105E+04  2.819621E-09  2.578946E-09
       358  14 -5.218740E+05  3.193214E+02 -1.334833E+04  1.755277E+04 -3.453131E-10  3.490286E-09
       358  15 -5.230691E+05 -5.312232E+03 -2.473175E+04  2.726995E+04 -8.692364E-11 -6.171887E-10
       358  16 -3.963167E+05  3.149272E+04  2.036508E+04  2.859526E+04  5.997880E-09 -1.196595E-09
       358  17 -3.495598E+05  4.241055E+04  2.472045E+04  1.753392E+04  8.846362E-10 -4.879666E-09
       358  18 -3.051191E+05  4.794560E+04  2.357245E+04  2.588762E+04 -2.229306E-09 -1.079934E-08
       358  19 -6.497903E+05 -3.048659E+04 -3.581482E+04  2.590713E+04 -3.583551E+03 -6.264827E+03
       358  20 -6.941602E+05 -4.177380E+04 -5.141859E+04  1.757167E+04 -1.064823E+04 -8.736509E+03
       358  21 -7.409744E+05 -5.857305E+04 -7.303808E+04  2.865191E+04 -1.771412E+04 -1.079269E+04
       358  22 -5.230610E+05  5.036328E+02 -7.724280E+03  2.725108E+04 -5.940997E+03 -6.272642E+03
       358  23 -5.218738E+05  3.194464E+02 -1.334789E+04  1.755286E+04 -1.263863E+04 -8.742864E+03
       358  24 -5.230687E+05 -5.312007E+03 -2.473083E+04  2.727012E+04 -1.933799E+04 -1.079761E+04
       358  25 -3.963167E+05  3.149278E+04  2.036528E+04  2.859530E+04 -8.298919E+03 -6.280466E+03
       358  26 -3.495596E+05  4.241069E+04  2.472100E+04  1.753402E+04 -1.462959E+04 -8.749218E+03
       358  27 -3.051186E+05  4.794584E+04  2.357349E+04  2.588781E+04 -2.096243E+04 -1.080253E+04
       359   1 -7.843354E+05 -5.758261E+04 -8.752127E+04  1.254547E+04  1.941573E+04  1.312370E+04
       359   2 -8.157180E+05 -7.245080E+04 -1.202550E+05  3.257916E+04  5.558345E+04  1.349858E+04
       359   3 -8.756596E+05 -1.822165E+05 -2.003032E+05  7.172753E+04  9.177607E+04  4.628191E+03
       359   4 -5.285660E+05  5.010002E+03 -3.105901E+04  2.711193E+04  2.375488E+04  1.313757E+04
       359   5 -5.150211E+05  1.122323E+03 -5.274989E+04  1.770755E+04  5.173035E+04  1.348487E+04
       359   6 -5.285995E+05 -9.621703E+04 -1.160477E+05  2.741984E+04  7.973374E+04  4.585473E+03
       359   7 -2.727348E+05  6.759899E+04  2.539940E+04  4.168443E+04  2.809580E+04  1.315164E+04
       359   8 -2.142393E+05  7.469014E+04  1.474965E+04  2.828578E+03  4.787539E+04  1.347135E+04
       359   9 -1.814247E+05 -1.021887E+04 -3.179922E+04 -1.691280E+04  6.768468E+04  4.544489E+03
       359  10 -7.843359E+05 -5.758290E+04 -8.752230E+04  1.254526E+04 -3.301083E-09  5.940652E-09
       359  11 -8.157214E+05 -7.245182E+04 -1.202611E+05  3.257856E+04 -5.154789E-10  1.367672E-09
       359  12 -8.756687E+05 -1.822187E+05 -2.003191E+05  7.172719E+04  1.255960E-09  7.081699E-10
       359  13 -5.285666E+05  5.009665E+03 -3.106039E+04  2.711168E+04  7.789267E-10  6.520863E-09
       359  14 -5.150240E+05  1.121408E+03 -5.275526E+04  1.770698E+04 -7.181513E-10 -7.074015E-09
       359  15 -5.286064E+05 -9.621876E+04 -1.160597E+05  2.741954E+04 -1.773821E-10  4.500164E-09
       359  16 -2.727357E+05  6.759859E+04  2.539759E+04  4.168413E+04  2.281251E-09  1.088710E-09
       359  17 -2.142419E+05  7.468933E+04  1.474500E+04  2.828059E+03 -6.783547E-11 -7.281157E-10
       359  18 -1.814296E+05 -1.022012E+04 -3.180787E+04 -1.691305E+04 -1.656437E-09 -2.735289E-09
       359  19 -7.843354E+05 -5.758261E+04 -8.752127E+04  1.254547E+04 -1.941573E+04 -1.312370E+04
       359  20 -8.157180E+05 -7.245080E+04 -1.202550E+05  3.257916E+04 -5.558345E+04 -1.349858E+04
       359  21 -8.756596E+05 -1.822165E+05 -2.003032E+05  7.172753E+04 -9.177607E+04 -4.628191E+03
       359  22 -5.285660E+05  5.010002E+03 -3.105901E+04  2.711193E+04 -2.375488E+04 -1.313757E+04
       359  23 -5.150211E+05  1.122323E+03 -5.274989E+04  1.770755E+04 -5.173035E+04 -1.348487E+04
       359  24 -5.285995E+05 -9.621703E+04 -1.160477E+05  2.741984E+04 -7.973374E+04 -4.585473E+03
       359  25 -2.727348E+05  6.759899E+04  2.539940E+04  4.168443E+04 -2.809580E+04 -1.315164E+04
       359  26 -2.142393E+05  7.469014E+04  1.474965E+04  2.828578E+03 -4.787539E+04 -1.347135E+04
       359  27 -1.814247E+05 -1.021887E+04 -3.179922E+04 -1.691280E+04 -6.768468E+04 -4.544489E+03
       360   1  4.527470E+05  2.260262E+06  4.742511E+05 -2.772118E+05  1.374586E+04  1.472943E+05
       360   2  2.275443E+05  1.909762E+06  2.904633E+05 -1.656403E+05  3.962809E+04  7.344491E+04
       360   3  1.428425E+05  1.603566E+06  1.896766E+05 -1.919744E+05  3.032740E+04 -4.434745E+02
       360   4  1.384198E+05  9.955080E+05  1.667443E+05 -2.101072E+05  1.385213E+04  1.086223E+05
       360   5 -1.005372E+03  9.761991E+05  8.045860E+04 -1.413319E+05  3.965364E+04  6.617725E+04
       360   6 -5.243950E+03  9.957489E+05  5.550952E+04 -2.104510E+05  3.025869E+04  2.365287E+04
       360   7 -1.760078E+05 -2.677788E+05 -1.408704E+05 -1.431382E+05  1.395020E+04  7.002841E+04
       360   8 -2.296125E+05  4.344614E+04 -1.296011E+05 -1.170597E+05  3.967864E+04  5.892033E+04
       360   9 -1.533535E+05  3.882785E+05 -7.867792E+04 -2.289091E+05  3.018851E+04  4.772594E+04
       360  10  4.527410E+05  2.260239E+06  4.742101E+05 -2.772135E+05 -6.669344E-10 -1.863935E-09
       360  11  2.275412E+05  1.909756E+06  2.904502E+05 -1.656427E+05 -6.784941E-10 -7.264329E-09
       360  12  1.428415E+05  1.603565E+06  1.896749E+05 -1.919744E+05  1.269506E-09 -1.613312E-09
       360  13  1.384164E+05  9.954953E+05  1.667218E+05 -2.101084E+05  1.525925E-10 -2.633384E-09
       360  14 -1.008235E+03  9.761940E+05  8.044743E+04 -1.413340E+05 -2.215442E-09  2.154199E-09
       360  15 -5.245084E+03  9.957480E+05  5.550675E+04 -2.104516E+05 -5.669282E-10 -3.248465E-11
       360  16 -1.760093E+05 -2.677841E+05 -1.408800E+05 -1.431390E+05 -1.171662E-09  1.741213E-09
       360  17 -2.296151E+05  4.344199E+04 -1.296106E+05 -1.170616E+05 -2.478670E-09 -1.164005E-09
       360  18 -1.533551E+05  3.882758E+05 -7.868391E+04 -2.289102E+05 -2.001303E-09  1.123065E-09
       360  19  4.527470E+05  2.260262E+06  4.742511E+05 -2.772118E+05 -1.374586E+04 -1.472943E+05
       360  20  2.275443E+05  1.909762E+06  2.904633E+05 -1.656403E+05 -3.962809E+04 -7.344491E+04
       360  21  1.428425E+05  1.603566E+06  1.896766E+05 -1.919744E+05 -3.032740E+04  4.434745E+02
       360  22  1.384198E+05  9.955080E+05  1.667443E+05 -2.101072E+05 -1.385213E+04 -1.086223E+05
       360  23 -1.005372E+03  9.761991E+05  8.045860E+04 -1.413319E+05 -3.965364E+04 -6.617725E+04
       360  24 -5.243950E+03  9.957489E+05  5.550952E+04 -2.104510E+05 -3.025869E+04 -2.365287E+04
       360  25 -1.760078E+05 -2.677788E+05 -1.408704E+05 -1.431382E+05 -1.395020E+04 -7.002841E+04
       360  26 -2.296125E+05  4.344614E+04 -1.296011E+05 -1.170597E+05 -3.967864E+04 -5.892033E+04
       360  27 -1.533535E+05  3.882785E+05 -7.867792E+04 -2.289091E+05 -3.018851E+04 -4.772594E+04
       361   1  9.019492E+04  1.323996E+06  1.246174E+05 -2.162197E+05  1.631734E+04  8.248390E+02
       361   2  2.023679E+03  9.930734E+05  4.760983E+04 -1.408023E+05  4.644698E+02 -2.229504E+04
       361   3 -6.602298E+04  6.693632E+05 -9.559352E+03 -2.045315E+05 -1.540442E+04 -4.540346E+04
       361   4  8.338936E+03  9.887399E+05  5.034307E+04 -2.106354E+05  1.627503E+04  1.497296E+04
       361   5  1.016478E+02  9.851847E+05  4.586964E+04 -1.410581E+05  4.222420E+02 -8.131624E+03
       361   6  1.199303E+04  9.887379E+05  6.122992E+04 -2.106245E+05 -1.544653E+04 -3.123654E+04
       361   7 -7.352441E+04  6.535887E+05 -2.393746E+04 -2.050541E+05  1.623297E+04  2.911353E+04
       361   8 -1.820279E+03  9.772965E+05  4.413020E+04 -1.413139E+05  3.800023E+02  6.031609E+03
       361   9  9.000240E+04  1.308208E+06  1.320136E+05 -2.167206E+05 -1.548891E+04 -1.706243E+04
       361  10  9.019463E+04  1.323996E+06  1.246169E+05 -2.162197E+05  9.079935E-10 -3.586937E-09
       361  11  2.023545E+03  9.930729E+05  4.760889E+04 -1.408023E+05  1.670762E-09 -1.000679E-08
       361  12 -6.602378E+04  6.693610E+05 -9.563669E+03 -2.045321E+05 -6.665406E-10 -2.591421E-09
       361  13  8.338592E+03  9.887396E+05  5.034216E+04 -2.106356E+05 -1.108795E-11 -3.417072E-09
       361  14  1.016299E+02  9.851846E+05  4.586952E+04 -1.410581E+05  1.728849E-09  3.014353E-09
       361  15  1.199251E+04  9.887368E+05  6.122764E+04 -2.106249E+05  2.894893E-09  2.400610E-10
       361  16 -7.352492E+04  6.535878E+05 -2.393954E+04 -2.050544E+05 -9.298114E-10  3.406109E-09
       361  17 -1.820289E+03  9.772965E+05  4.413013E+04 -1.413139E+05 -1.674299E-09 -4.149976E-10
       361  18  9.000206E+04  1.308208E+06  1.320127E+05 -2.167208E+05  5.659645E-10  3.132841E-09
       361  19  9.019492E+04  1.323996E+06  1.246174E+05 -2.162197E+05 -1.631734E+04 -8.248390E+02
       361  20  2.023679E+03  9.930734E+05  4.760983E+04 -1.408023E+05 -4.644698E+02  2.229504E+04
       361  21 -6.602298E+04  6.693632E+05 -9.559352E+03 -2.045315E+05  1.540442E+04  4.540346E+04
       361  22  8.338936E+03  9.887399E+05  5.034307E+04 -2.106354E+05 -1.627503E+04 -1.497296E+04
       361  23  1.016478E+02  9.851847E+05  4.586964E+04 -1.410581E+05 -4.222420E+02  8.131624E+03
       361  24  1.199303E+04  9.887379E+05  6.122992E+04 -2.106245E+05  1.544653E+04  3.123654E+04
       361  25 -7.352441E+04  6.535887E+05 -2.393746E+04 -2.050541E+05 -1.623297E+04 -2.911353E+04
       361  26 -1.820279E+03  9.772965E+05  4.413020E+04 -1.413139E+05 -3.800023E+02 -6.031609E+03
       361  27  9.000240E+04  1.308208E+06  1.320136E+05 -2.167206E+05  1.548891E+04  1.706243E+04
       362   1 -1.526597E+05  4.077790E+05 -5.909416E+04 -2.378209E+05 -2.931649E+04 -6.595992E+04
       362   2 -2.264036E+05  5.458943E+04 -9.441315E+04 -1.073257E+05 -3.886818E+04 -9.433867E+04
       362   3 -1.114325E+05 -2.480394E+05 -6.417036E+04 -1.146908E+05 -1.361720E+04 -1.226209E+05
       362   4 -8.457128E+03  9.994998E+05  7.161452E+04 -2.104726E+05 -2.938821E+04 -4.199046E+04
       362   5 -1.608322E+03  9.715101E+05  1.121154E+05 -1.413131E+05 -3.884108E+04 -1.013561E+05
       362   6  1.991626E+05  9.992333E+05  2.395916E+05 -2.099725E+05 -1.350869E+04 -1.606422E+05
       362   7  1.357252E+05  1.591550E+06  2.023042E+05 -1.830977E+05 -2.945777E+04 -1.799841E+04
       362   8  2.231335E+05  1.889214E+06  3.185911E+05 -1.753507E+05 -3.881324E+04 -1.083838E+05
       362   9  5.096773E+05  2.247946E+06  5.432509E+05 -3.054451E+05 -1.338865E+04 -1.987393E+05
       362  10 -1.526618E+05  4.077741E+05 -5.910395E+04 -2.378224E+05  9.410991E-10 -3.820195E-09
       362  11 -2.264076E+05  5.457947E+04 -9.443272E+04 -1.073287E+05  2.008825E-09 -8.675717E-09
       362  12 -1.114367E+05 -2.480556E+05 -6.419898E+04 -1.146921E+05  1.513593E-10 -3.250559E-10
       362  13 -8.458529E+03  9.994977E+05  7.160959E+04 -2.104736E+05 -4.002221E-10 -2.337062E-09
       362  14 -1.612696E+03  9.714987E+05  1.120933E+05 -1.413163E+05  1.430277E-09  2.809643E-09
       362  15  1.991555E+05  9.992056E+05  2.395429E+05 -2.099742E+05 -5.478069E-11  6.298223E-10
       362  16  1.357241E+05  1.591550E+06  2.023020E+05 -1.830981E+05  1.962520E-09  4.214876E-09
       362  17  2.231288E+05  1.889201E+06  3.185662E+05 -1.753541E+05  4.510049E-10 -5.758912E-10
       362  18  5.096666E+05  2.247904E+06  5.431765E+05 -3.054473E+05 -6.744606E-10  3.970862E-10
       362  19 -1.526597E+05  4.077790E+05 -5.909416E+04 -2.378209E+05  2.931649E+04  6.595992E+04
       362  20 -2.264036E+05  5.458943E+04 -9.441315E+04 -1.073257E+05  3.886818E+04  9.433867E+04
       362  21 -1.114325E+05 -2.480394E+05 -6.417036E+04 -1.146908E+05  1.361720E+04  1.226209E+05
       362  22 -8.457128E+03  9.994998E+05  7.161452E+04 -2.104726E+05  2.938821E+04  4.199046E+04
       362  23 -1.608322E+03  9.715101E+05  1.121154E+05 -1.413131E+05  3.884108E+04  1.013561E+05
       362  24  1.991626E+05  9.992333E+05  2.395916E+05 -2.099725E+05  1.350869E+04  1.606422E+05
       362  25  1.357252E+05  1.591550E+06  2.023042E+05 -1.830977E+05  2.945777E+04  1.799841E+04
       362  26  2.231335E+05  1.889214E+06  3.185911E+05 -1.753507E+05  3.881324E+04  1.083838E+05
       362  27  5.096773E+05  2.247946E+06  5.432509E+05 -3.054451E+05  1.338865E+04  1.987393E+05
       363   1  5.422683E+05  1.878151E+05  1.080540E+05  1.710863E+05 -3.100032E+03 -1.013136E+04
       363   2  5.090099E+05  2.025927E+05  1.099103E+05  1.508946E+05 -2.014919E+02 -2.820946E+04
       363   3  4.524913E+05  2.010023E+05  1.062911E+05  1.533883E+05 -3.251662E+03 -3.051611E+04
       363   4 -2.846163E+04 -1.343308E+04 -4.164368E+04  2.921908E+04 -2.360823E+04 -1.786850E+04
       363   5 -1.324957E+04  1.198671E+04 -1.801630E+04  1.186592E+04 -7.591992E+03 -3.100100E+04
       363   6 -2.390918E+04  1.842608E+04 -1.026581E+04  1.720199E+04  2.472942E+03 -2.835564E+04
       363   7 -5.988674E+05 -2.146677E+05 -1.913642E+05 -1.125326E+05 -4.409531E+04 -2.559884E+04
       363   8 -5.352360E+05 -1.786019E+05 -1.459619E+05 -1.270568E+05 -1.497563E+04 -3.379008E+04
       363   9 -5.000847E+05 -1.641307E+05 -1.268396E+05 -1.188880E+05  8.192754E+03 -2.619708E+04
       363  10  5.422683E+05  1.878150E+05  1.080538E+05  1.710863E+05  1.147916E-09 -1.728733E-09
       363  11  5.090097E+05  2.025918E+05  1.099088E+05  1.508946E+05  6.197761E-11 -4.379775E-09
       363  12  4.524910E+05  2.010013E+05  1.062893E+05  1.533883E+05 -1.232063E-10 -1.567835E-09
       363  13 -2.846231E+04 -1.343358E+04 -4.164533E+04  2.921874E+04  2.558821E-09  4.011508E-09
       363  14 -1.324989E+04  1.198566E+04 -1.801821E+04  1.186573E+04  2.344807E-10 -5.635436E-09
       363  15 -2.390941E+04  1.842521E+04 -1.026733E+04  1.720205E+04  1.746165E-09 -3.771195E-09
       363  16 -5.988697E+05 -2.146690E+05 -1.913691E+05 -1.125335E+05 -2.351497E-10  2.794233E-10
       363  17 -5.352365E+05 -1.786032E+05 -1.459645E+05 -1.270572E+05  3.761024E-11 -3.150040E-09
       363  18 -5.000850E+05 -1.641314E+05 -1.268410E+05 -1.188878E+05 -1.319960E-09 -1.645123E-09
       363  19  5.422683E+05  1.878151E+05  1.080540E+05  1.710863E+05  3.100032E+03  1.013136E+04
       363  20  5.090099E+05  2.025927E+05  1.099103E+05  1.508946E+05  2.014919E+02  2.820946E+04
       363  21  4.524913E+05  2.010023E+05  1.062911E+05  1.533883E+05  3.251662E+03  3.051611E+04
       363  22 -2.846163E+04 -1.343308E+04 -4.164368E+04  2.921908E+04  2.360823E+04  1.786850E+04
       363  23 -1.324957E+04  1.198671E+04 -1.801630E+04  1.186592E+04  7.591992E+03  3.100100E+04
       363  24 -2.390918E+04  1.842608E+04 -1.026581E+04  1.720199E+04 -2.472942E+03  2.835564E+04
       363  25 -5.988674E+05 -2.146677E+05 -1.913642E+05 -1.125326E+05  4.409531E+04  2.559884E+04
       363  26 -5.352360E+05 -1.786019E+05 -1.459619E+05 -1.270568E+05  1.497563E+04  3.379008E+04
       363  27 -5.000847E+05 -1.641307E+05 -1.268396E+05 -1.188880E+05 -8.192754E+03  2.619708E+04
       364   1  4.226409E+05  1.811617E+05  1.006053E+05  1.414815E+05  1.745078E+03 -2.524405E+04
       364   2  3.894536E+05  1.619570E+05  9.445023E+04  1.227914E+05  2.720093E+03 -2.319645E+04
       364   3  3.421542E+05  1.540720E+05  8.664744E+04  1.196095E+05  3.423998E+03 -2.043556E+04
       364   4 -2.271164E+04  1.532596E+04 -8.155782E+03  1.931216E+04  2.674337E+03 -2.489445E+04
       364   5 -1.544684E+04  1.073696E+04 -4.174290E+03  1.117743E+04  4.241563E+03 -2.262260E+04
       364   6 -2.241351E+04  1.735004E+04 -2.310887E+03  1.855108E+04  5.537702E+03 -1.963717E+04
       364   7 -4.678710E+05 -1.504971E+05 -1.169324E+05 -1.027784E+05  3.602874E+03 -2.454512E+04
       364   8 -4.201866E+05 -1.404720E+05 -1.028114E+05 -1.003708E+05  5.761955E+03 -2.204915E+04
       364   9 -3.868502E+05 -1.193624E+05 -9.127921E+04 -8.245339E+04  7.650054E+03 -1.883930E+04
       364  10  4.226408E+05  1.811610E+05  1.006041E+05  1.414815E+05  5.625568E-09  9.182822E-10
       364  11  3.894535E+05  1.619564E+05  9.444921E+04  1.227915E+05 -1.543506E-10 -1.122921E-09
       364  12  3.421541E+05  1.540716E+05  8.664663E+04  1.196096E+05 -4.985853E-09 -2.097574E-09
       364  13 -2.271181E+04  1.532529E+04 -8.156960E+03  1.931221E+04  2.364945E-09  9.613453E-10
       364  14 -1.544699E+04  1.073641E+04 -4.175286E+03  1.117751E+04  1.156319E-09 -3.041375E-09
       364  15 -2.241365E+04  1.734962E+04 -2.311669E+03  1.855117E+04 -1.211146E-10  9.410976E-10
       364  16 -4.678711E+05 -1.504978E+05 -1.169336E+05 -1.027783E+05 -2.961102E-09 -4.006697E-09
       364  17 -4.201867E+05 -1.404725E+05 -1.028124E+05 -1.003707E+05  1.939994E-09 -1.685746E-09
       364  18 -3.868503E+05 -1.193628E+05 -9.127998E+04 -8.245327E+04  3.131048E-09  3.561047E-09
       364  19  4.226409E+05  1.811617E+05  1.006053E+05  1.414815E+05 -1.745078E+03  2.524405E+04
       364  20  3.894536E+05  1.619570E+05  9.445023E+04  1.227914E+05 -2.720093E+03  2.319645E+04
       364  21  3.421542E+05  1.540720E+05  8.664744E+04  1.196095E+05 -3.423998E+03  2.043556E+04
       364  22 -2.271164E+04  1.532596E+04 -8.155782E+03  1.931216E+04 -2.674337E+03  2.489445E+04
       364  23 -1.544684E+04  1.073696E+04 -4.174290E+03  1.117743E+04 -4.241563E+03  2.262260E+04
       364  24 -2.241351E+04  1.735004E+04 -2.310887E+03  1.855108E+04 -5.537702E+03  1.963717E+04
       364  25 -4.678710E+05 -1.504971E+05 -1.169324E+05 -1.027784E+05 -3.602874E+03  2.454512E+04
       364  26 -4.201866E+05 -1.404720E+05 -1.028114E+05 -1.003708E+05 -5.761955E+03  2.204915E+04
       364  27 -3.868502E+05 -1.193624E+05 -9.127921E+04 -8.245339E+04 -7.650054E+03  1.883930E+04
       365   1  3.079298E+05  1.406800E+05  7.854558E+04  1.099485E+05  3.425120E+03 -1.879943E+04
       365   2  2.746363E+05  1.192734E+05  6.975156E+04  9.137023E+04  3.000996E+03 -1.633613E+04
       365   3  2.279865E+05  1.110283E+05  6.060253E+04  8.786177E+04  2.563595E+03 -1.384088E+04
       365   4 -2.230410E+04  1.716240E+04 -1.757820E+03  1.869120E+04  5.321739E+03 -1.808281E+04
       365   5 -1.560824E+04  1.065442E+04 -9.399585E+02  1.113132E+04  4.924073E+03 -1.560906E+04
       365   6 -2.227633E+04  1.730301E+04 -4.983301E+02  1.864137E+04  4.513156E+03 -1.310333E+04
       365   7 -3.524288E+05 -1.063468E+05 -8.206892E+04 -7.252159E+04  7.217248E+03 -1.736661E+04
       365   8 -3.057697E+05 -9.795861E+04 -7.163778E+04 -6.907349E+04  6.846169E+03 -1.488237E+04
       365   9 -2.724786E+05 -7.641825E+04 -6.160422E+04 -5.055400E+04  6.461868E+03 -1.236610E+04
       365  10  3.079297E+05  1.406796E+05  7.854489E+04  1.099486E+05  1.861674E-09  4.338503E-09
       365  11  2.746363E+05  1.192732E+05  6.975105E+04  9.137027E+04 -1.879374E-09 -1.472353E-09
       365  12  2.279865E+05  1.110281E+05  6.060216E+04  8.786180E+04 -5.147469E-09 -6.024405E-09
       365  13 -2.230422E+04  1.716204E+04 -1.758488E+03  1.869128E+04 -3.217801E-09 -4.458216E-09
       365  14 -1.560833E+04  1.065415E+04 -9.404619E+02  1.113139E+04  2.834187E-09 -3.932917E-09
       365  15 -2.227640E+04  1.730282E+04 -4.986910E+02  1.864142E+04 -1.386727E-09  4.733052E-09
       365  16 -3.524289E+05 -1.063472E+05 -8.206958E+04 -7.252149E+04 -4.408115E-09  4.665419E-09
       365  17 -3.057698E+05 -9.795886E+04 -7.163828E+04 -6.907341E+04  1.034801E-09 -2.061696E-09
       365  18 -2.724787E+05 -7.641843E+04 -6.160458E+04 -5.055394E+04  2.610983E-09  4.556410E-09
       365  19  3.079298E+05  1.406800E+05  7.854558E+04  1.099485E+05 -3.425120E+03  1.879943E+04
       365  20  2.746363E+05  1.192734E+05  6.975156E+04  9.137023E+04 -3.000996E+03  1.633613E+04
       365  21  2.279865E+05  1.110283E+05  6.060253E+04  8.786177E+04 -2.563595E+03  1.384088E+04
       365  22 -2.230410E+04  1.716240E+04 -1.757820E+03  1.869120E+04 -5.321739E+03  1.808281E+04
       365  23 -1.560824E+04  1.065442E+04 -9.399585E+02  1.113132E+04 -4.924073E+03  1.560906E+04
       365  24 -2.227633E+04  1.730301E+04 -4.983301E+02  1.864137E+04 -4.513156E+03  1.310333E+04
       365  25 -3.524288E+05 -1.063468E+05 -8.206892E+04 -7.252159E+04 -7.217248E+03  1.736661E+04
       365  26 -3.057697E+05 -9.795861E+04 -7.163778E+04 -6.907349E+04 -6.846169E+03  1.488237E+04
       365  27 -2.724786E+05 -7.641825E+04 -6.160422E+04 -5.055400E+04 -6.461868E+03  1.236610E+04
       366   1  1.934619E+05  9.803244E+04  5.204471E+04  7.832690E+04  2.128708E+03 -1.244853E+04
       366   2  1.601617E+05  7.647437E+04  4.266067E+04  5.975097E+04  1.322994E+03 -1.008653E+04
       366   3  1.135654E+05  6.820440E+04  3.321967E+04  5.621713E+04  5.161343E+02 -7.723309E+03
       366   4 -2.226364E+04  1.729434E+04 -3.618045E+02  1.865095E+04  4.068371E+03 -1.171449E+04
       366   5 -1.561096E+04  1.066050E+04 -1.570715E+02  1.112726E+04  3.263681E+03 -9.351840E+03
       366   6 -2.225666E+04  1.731446E+04 -1.020707E+01  1.864514E+04  2.457847E+03 -6.987954E+03
       366   7 -2.379432E+05 -6.344041E+04 -5.277177E+04 -4.100615E+04  6.007299E+03 -1.098073E+04
       366   8 -1.913527E+05 -5.515099E+04 -4.297699E+04 -3.748380E+04  5.203762E+03 -8.617376E+03
       366   9 -1.580598E+05 -3.357391E+04 -3.324128E+04 -1.891920E+04  4.399086E+03 -6.252778E+03
       366  10  1.934619E+05  9.803228E+04  5.204442E+04  7.832693E+04  6.430310E-10  6.768813E-09
       366  11  1.601617E+05  7.647426E+04  4.266048E+04  5.975098E+04 -1.409847E-09  7.247954E-09
       366  12  1.135654E+05  6.820434E+04  3.321956E+04  5.621714E+04 -2.235326E-09  4.981720E-09
       366  13 -2.226369E+04  1.729419E+04 -3.620935E+02  1.865098E+04 -8.199688E-10  2.166311E-09
       366  14 -1.561099E+04  1.066040E+04 -1.572558E+02  1.112729E+04  2.473160E-09  8.120356E-10
       366  15 -2.225668E+04  1.731441E+04 -1.031018E+01  1.864515E+04 -1.410455E-09  7.835810E-09
       366  16 -2.379432E+05 -6.344055E+04 -5.277206E+04 -4.100610E+04 -1.021100E-09  7.668035E-09
       366  17 -1.913527E+05 -5.515108E+04 -4.297718E+04 -3.748377E+04 -1.737824E-09  4.214246E-09
       366  18 -1.580599E+05 -3.357396E+04 -3.324139E+04 -1.891918E+04 -2.620909E-09  6.091894E-09
       366  19  1.934619E+05  9.803244E+04  5.204471E+04  7.832690E+04 -2.128708E+03  1.244853E+04
       366  20  1.601617E+05  7.647437E+04  4.266067E+04  5.975097E+04 -1.322994E+03  1.008653E+04
       366  21  1.135654E+05  6.820440E+04  3.321967E+04  5.621713E+04 -5.161343E+02  7.723309E+03
       366  22 -2.226364E+04  1.729434E+04 -3.618045E+02  1.865095E+04 -4.068371E+03  1.171449E+04
       366  23 -1.561096E+04  1.066050E+04 -1.570715E+02  1.112726E+04 -3.263681E+03  9.351840E+03
       366  24 -2.225666E+04  1.731446E+04 -1.020707E+01  1.864514E+04 -2.457847E+03  6.987954E+03
       366  25 -2.379432E+05 -6.344041E+04 -5.277177E+04 -4.100615E+04 -6.007299E+03  1.098073E+04
       366  26 -1.913527E+05 -5.515099E+04 -4.297699E+04 -3.748380E+04 -5.203762E+03  8.617376E+03
       366  27 -1.580598E+05 -3.357391E+04 -3.324128E+04 -1.891920E+04 -4.399086E+03  6.252778E+03
       367   1  7.902660E+04  5.522484E+04  2.458743E+04  4.668506E+04 -2.109941E+00 -6.365797E+03
       367   2  4.572643E+04  3.364492E+04  1.515603E+04  2.810617E+04 -9.908247E+02 -4.071128E+03
       367   3 -8.556432E+02  2.537636E+04  5.804593E+03  2.456859E+04 -1.979429E+03 -1.777343E+03
       367   4 -2.225148E+04  1.731535E+04  5.478240E+01  1.864772E+04  1.939310E+03 -5.630436E+03
       367   5 -1.560879E+04  1.066468E+04  2.115334E+02  1.112552E+04  9.498518E+02 -3.335952E+03
       367   6 -2.224872E+04  1.732578E+04  4.491021E+02  1.864432E+04 -3.950387E+01 -1.042350E+03
       367   7 -1.235199E+05 -2.059358E+04 -2.447875E+04 -9.385602E+03  3.880393E+03 -4.895203E+03
       367   8 -7.694043E+04 -1.231535E+04 -1.473328E+04 -5.853640E+03  2.890324E+03 -2.600853E+03
       367   9 -4.364135E+04  9.275225E+03 -4.906410E+03  1.272024E+04  1.900348E+03 -3.073849E+02
       367  10  7.902659E+04  5.522479E+04  2.458735E+04  4.668506E+04  4.271911E-09  1.056998E-08
       367  11  4.572642E+04  3.364491E+04  1.515600E+04  2.810617E+04  3.640921E-09  5.364438E-09
       367  12 -8.556483E+02  2.537636E+04  5.804580E+03  2.456859E+04  7.236848E-10 -2.830249E-09
       367  13 -2.225149E+04  1.731532E+04  5.471576E+01  1.864772E+04 -1.735153E-09  3.870257E-09
       367  14 -1.560879E+04  1.066467E+04  2.115108E+02  1.112553E+04  5.191780E-09 -1.109412E-08
       367  15 -2.224872E+04  1.732578E+04  4.491000E+02  1.864432E+04  1.672827E-10  3.596911E-09
       367  16 -1.235199E+05 -2.059361E+04 -2.447882E+04 -9.385587E+03 -7.833148E-09  3.829707E-09
       367  17 -7.694044E+04 -1.231536E+04 -1.473330E+04 -5.853634E+03 -2.566766E-09 -2.924327E-09
       367  18 -4.364135E+04  9.275224E+03 -4.906417E+03  1.272024E+04 -4.146912E-10 -5.036652E-09
       367  19  7.902660E+04  5.522484E+04  2.458743E+04  4.668506E+04  2.109941E+00  6.365797E+03
       367  20  4.572643E+04  3.364492E+04  1.515603E+04  2.810617E+04  9.908247E+02  4.071128E+03
       367  21 -8.556432E+02  2.537636E+04  5.804593E+03  2.456859E+04  1.979429E+03  1.777343E+03
       367  22 -2.225148E+04  1.731535E+04  5.478240E+01  1.864772E+04 -1.939310E+03  5.630436E+03
       367  23 -1.560879E+04  1.066468E+04  2.115334E+02  1.112552E+04 -9.498518E+02  3.335952E+03
       367  24 -2.224872E+04  1.732578E+04  4.491021E+02  1.864432E+04  3.950387E+01  1.042350E+03
       367  25 -1.235199E+05 -2.059358E+04 -2.447875E+04 -9.385602E+03 -3.880393E+03  4.895203E+03
       367  26 -7.694043E+04 -1.231535E+04 -1.473328E+04 -5.853640E+03 -2.890324E+03  2.600853E+03
       367  27 -4.364135E+04  9.275225E+03 -4.906410E+03  1.272024E+04 -1.900348E+03  3.073849E+02
       368   1 -3.539149E+04  1.240159E+04 -2.727956E+03  1.506693E+04 -2.588181E+03 -4.520460E+02
       368   2 -6.872316E+04 -9.211205E+03 -1.179780E+04 -3.541468E+03 -4.022330E+03  1.669780E+03
       368   3 -1.152205E+05 -1.735825E+04 -2.041474E+04 -7.127198E+03 -5.449012E+03  3.772671E+03
       368   4 -2.222879E+04  1.731479E+04  6.129327E+02  1.865751E+04 -6.425781E+02  2.851000E+02
       368   5 -1.563797E+04  1.064664E+04  1.133767E+03  1.112119E+04 -2.092627E+03  2.400812E+03
       368   6 -2.221119E+04  1.744713E+04  2.120148E+03  1.860675E+04 -3.535255E+03  4.497587E+03
       368   7 -9.065977E+03  2.222797E+04  3.953806E+03  2.224815E+04  1.303061E+03  1.022259E+03
       368   8  3.745001E+04  3.050468E+04  1.406514E+04  2.578499E+04 -1.627440E+02  3.131912E+03
       368   9  7.080715E+04  5.225330E+04  2.465453E+04  4.434433E+04 -1.621176E+03  5.222625E+03
       368  10 -3.539150E+04  1.240159E+04 -2.727969E+03  1.506693E+04  5.336586E-09  5.733650E-09
       368  11 -6.872318E+04 -9.211213E+03 -1.179784E+04 -3.541463E+03  4.962173E-10  5.047960E-09
       368  12 -1.152205E+05 -1.735827E+04 -2.041482E+04 -7.127181E+03 -7.395102E-09 -2.285518E-09
       368  13 -2.222879E+04  1.731479E+04  6.129317E+02  1.865752E+04  1.029860E-09 -3.429327E-09
       368  14 -1.563797E+04  1.064663E+04  1.133748E+03  1.112119E+04  3.151111E-11 -9.623096E-09
       368  15 -2.221121E+04  1.744710E+04  2.120086E+03  1.860676E+04 -2.525813E-09  1.341444E-09
       368  16 -9.065979E+03  2.222797E+04  3.953801E+03  2.224815E+04 -4.282497E-09 -8.178050E-09
       368  17  3.745001E+04  3.050467E+04  1.406512E+04  2.578499E+04  2.565898E-09 -1.686937E-08
       368  18  7.080714E+04  5.225327E+04  2.465448E+04  4.434434E+04  7.041587E-09  4.549648E-09
       368  19 -3.539149E+04  1.240159E+04 -2.727956E+03  1.506693E+04  2.588181E+03  4.520460E+02
       368  20 -6.872316E+04 -9.211205E+03 -1.179780E+04 -3.541468E+03  4.022330E+03 -1.669780E+03
       368  21 -1.152205E+05 -1.735825E+04 -2.041474E+04 -7.127198E+03  5.449012E+03 -3.772671E+03
       368  22 -2.222879E+04  1.731479E+04  6.129327E+02  1.865751E+04  6.425781E+02 -2.851000E+02
       368  23 -1.563797E+04  1.064664E+04  1.133767E+03  1.112119E+04  2.092627E+03 -2.400812E+03
       368  24 -2.221119E+04  1.744713E+04  2.120148E+03  1.860675E+04  3.535255E+03 -4.497587E+03
       368  25 -9.065977E+03  2.222797E+04  3.953806E+03  2.224815E+04 -1.303061E+03 -1.022259E+03
       368  26  3.745001E+04  3.050468E+04  1.406514E+04  2.578499E+04  1.627440E+02 -3.131912E+03
       368  27  7.080715E+04  5.225330E+04  2.465453E+04  4.434433E+04  1.621176E+03 -5.222625E+03
       369   1 -1.499133E+05 -3.027270E+04 -2.841841E+04 -1.616180E+04 -6.500088E+03  4.977124E+03
       369   2 -1.832016E+05 -5.235543E+04 -3.582715E+04 -3.540497E+04 -9.551214E+03  6.389687E+03
       369   3 -2.285606E+05 -5.871541E+04 -4.093470E+04 -4.016364E+04 -1.244268E+04  7.382867E+03
       369   4 -2.206270E+04  1.721286E+04  2.790190E+03  1.877048E+04 -4.458916E+03  5.750203E+03
       369   5 -1.589213E+04  1.050736E+04  5.017679E+03  1.107725E+04 -7.859556E+03  7.030120E+03
       369   6 -2.172500E+04  1.959295E+04  9.823034E+03  1.786754E+04 -1.110071E+04  7.890658E+03
       369   7  1.058040E+05  6.469950E+04  3.399757E+04  5.370926E+04 -2.417284E+03  6.523451E+03
       369   8  1.514445E+05  7.337203E+04  4.586029E+04  5.757076E+04 -6.167405E+03  7.670742E+03
       369   9  1.851518E+05  9.790421E+04  6.057724E+04  7.591611E+04 -9.758247E+03  8.398636E+03
       369  10 -1.499133E+05 -3.027274E+04 -2.841853E+04 -1.616178E+04  2.215323E-09 -1.267052E-09
       369  11 -1.832017E+05 -5.235550E+04 -3.582740E+04 -3.540492E+04  1.737571E-09 -3.863536E-09
       369  12 -2.285608E+05 -5.871551E+04 -4.093509E+04 -4.016357E+04 -2.060940E-09 -5.437607E-10
       369  13 -2.206273E+04  1.721282E+04  2.790091E+03  1.877050E+04 -3.300880E-09 -4.749578E-09
       369  14 -1.589221E+04  1.050729E+04  5.017470E+03  1.107730E+04 -2.944942E-09 -2.130986E-08
       369  15 -2.172515E+04  1.959285E+04  9.822685E+03  1.786761E+04  8.340662E-10  3.185965E-09
       369  16  1.058040E+05  6.469945E+04  3.399748E+04  5.370927E+04 -3.874765E-09 -1.561916E-10
       369  17  1.514445E+05  7.337196E+04  4.586011E+04  5.757080E+04 -6.840385E-10 -2.338944E-09
       369  18  1.851517E+05  9.790411E+04  6.057693E+04  7.591618E+04  2.640163E-09 -9.048182E-10
       369  19 -1.499133E+05 -3.027270E+04 -2.841841E+04 -1.616180E+04  6.500088E+03 -4.977124E+03
       369  20 -1.832016E+05 -5.235543E+04 -3.582715E+04 -3.540497E+04  9.551214E+03 -6.389687E+03
       369  21 -2.285606E+05 -5.871541E+04 -4.093470E+04 -4.016364E+04  1.244268E+04 -7.382867E+03
       369  22 -2.206270E+04  1.721286E+04  2.790190E+03  1.877048E+04  4.458916E+03 -5.750203E+03
       369  23 -1.589213E+04  1.050736E+04  5.017679E+03  1.107725E+04  7.859556E+03 -7.030120E+03
       369  24 -2.172500E+04  1.959295E+04  9.823034E+03  1.786754E+04  1.110071E+04 -7.890658E+03
       369  25  1.058040E+05  6.469950E+04  3.399757E+04  5.370926E+04  2.417284E+03 -6.523451E+03
       369  26  1.514445E+05  7.337203E+04  4.586029E+04  5.757076E+04  6.167405E+03 -7.670742E+03
       369  27  1.851518E+05  9.790421E+04  6.057724E+04  7.591611E+04  9.758247E+03 -8.398636E+03
       370   1 -2.662805E+05 -7.093986E+04 -4.655545E+04 -4.217982E+04 -1.772382E+04  8.015835E+03
       370   2 -2.962342E+05 -1.005278E+05 -4.789132E+04 -7.193047E+04 -2.179027E+04  6.898888E+03
       370   3 -3.246885E+05 -8.030766E+04 -3.616154E+04 -9.682259E+04 -2.234633E+04 -3.496188E+03
       370   4 -2.008467E+04  1.566119E+04  1.236875E+04  2.020333E+04 -1.356424E+04  9.590259E+03
       370   5 -1.885313E+04  9.169166E+03  2.167447E+04  1.051802E+04 -2.534617E+04  5.552441E+03
       370   6 -1.459965E+04  5.400390E+04  5.016019E+04  5.692431E+03 -3.361899E+04 -7.761760E+03
       370   7  2.261727E+05  1.022654E+05  7.128914E+04  8.260867E+04 -9.402825E+03  1.116528E+04
       370   8  2.586036E+05  1.188737E+05  9.123414E+04  9.300079E+04 -2.890379E+04  4.205257E+03
       370   9  2.955802E+05  1.883290E+05  1.364726E+05  1.082558E+05 -4.489773E+04 -1.203041E+04
       370  10 -2.662809E+05 -7.094002E+04 -4.655616E+04 -4.217971E+04 -7.305146E-09 -1.626560E-09
       370  11 -2.962347E+05 -1.005279E+05 -4.789231E+04 -7.193035E+04 -4.104784E-09  4.362671E-11
       370  12 -3.246890E+05 -8.030781E+04 -3.616250E+04 -9.682265E+04  3.965753E-09  4.963082E-10
       370  13 -2.008490E+04  1.566104E+04  1.236823E+04  2.020344E+04 -1.283621E-10 -2.847300E-10
       370  14 -1.885382E+04  9.168960E+03  2.167321E+04  1.051814E+04 -1.756484E-09  6.609633E-10
       370  15 -1.460088E+04  5.400353E+04  5.015795E+04  5.692221E+03 -1.177741E-09  4.339169E-10
       370  16  2.261726E+05  1.022653E+05  7.128874E+04  8.260875E+04  4.426618E-09  5.891220E-09
       370  17  2.586027E+05  1.188735E+05  9.123254E+04  9.300089E+04 -4.621871E-09  9.932724E-09
       370  18  2.955780E+05  1.883283E+05  1.364686E+05  1.082553E+05 -8.805411E-09  1.431696E-09
       370  19 -2.662805E+05 -7.093986E+04 -4.655545E+04 -4.217982E+04  1.772382E+04 -8.015835E+03
       370  20 -2.962342E+05 -1.005278E+05 -4.789132E+04 -7.193047E+04  2.179027E+04 -6.898888E+03
       370  21 -3.246885E+05 -8.030766E+04 -3.616154E+04 -9.682259E+04  2.234633E+04  3.496188E+03
       370  22 -2.008467E+04  1.566119E+04  1.236875E+04  2.020333E+04  1.356424E+04 -9.590259E+03
       370  23 -1.885313E+04  9.169166E+03  2.167447E+04  1.051802E+04  2.534617E+04 -5.552441E+03
       370  24 -1.459965E+04  5.400390E+04  5.016019E+04  5.692431E+03  3.361899E+04  7.761760E+03
       370  25  2.261727E+05  1.022654E+05  7.128914E+04  8.260867E+04  9.402825E+03 -1.116528E+04
       370  26  2.586036E+05  1.188737E+05  9.123414E+04  9.300079E+04  2.890379E+04 -4.205257E+03
       370  27  2.955802E+05  1.883290E+05  1.364726E+05  1.082558E+05  4.489773E+04  1.203041E+04
       371   1  1.249818E+05  4.648793E+04  3.341336E+04 -2.063533E+03 -2.898190E+04 -5.249854E+03
       371   2  9.611842E+04  8.920139E+04  5.243875E+04  6.552765E+03 -2.297425E+04 -1.625733E+04
       371   3  5.412406E+04  8.274004E+04  5.527081E+04  2.981419E+04 -1.699794E+04 -1.684002E+04
       371   4 -2.732917E+05 -5.231377E+04 -6.314081E+04  2.159207E+04 -4.338359E+04 -5.294052E+03
       371   5 -2.659106E+05  6.207039E+02 -2.870627E+04  1.418472E+04 -2.812537E+04 -1.627425E+04
       371   6 -2.732769E+05  2.757480E+03 -1.689813E+04  2.142355E+04 -1.289788E+04 -1.682725E+04
       371   7 -6.714187E+05 -1.511248E+05 -1.597053E+05  4.523234E+04 -5.777607E+04 -5.339363E+03
       371   8 -6.278174E+05 -8.796867E+04 -1.098594E+05  2.181209E+04 -3.327352E+04 -1.629131E+04
       371   9 -6.005775E+05 -7.723203E+04 -8.907357E+04  1.303731E+04 -8.799949E+03 -1.681458E+04
       371  10  1.249809E+05  4.648767E+04  3.341173E+04 -2.063655E+03 -6.439521E-09  2.362349E-09
       371  11  9.611778E+04  8.920096E+04  5.243726E+04  6.552464E+03 -3.616600E-10  1.217888E-08
       371  12  5.412368E+04  8.273966E+04  5.526974E+04  2.981396E+04  3.248636E-09  1.676074E-09
       371  13 -2.732938E+05 -5.231430E+04 -6.314440E+04  2.159188E+04  1.780487E-09 -3.629397E-09
       371  14 -2.659115E+05  6.202070E+02 -2.870825E+04  1.418435E+04  1.838005E-10 -1.105957E-08
       371  15 -2.732772E+05  2.757131E+03 -1.689898E+04  2.142338E+04 -9.136617E-10 -1.822793E-09
       371  16 -6.714223E+05 -1.511257E+05 -1.597116E+05  4.523209E+04  7.477777E-09  2.489738E-09
       371  17 -6.278186E+05 -8.796925E+04 -1.098620E+05  2.181165E+04 -5.555653E-10  1.083245E-08
       371  18 -6.005777E+05 -7.723236E+04 -8.907424E+04  1.303719E+04 -3.673086E-09 -1.729449E-10
       371  19  1.249818E+05  4.648793E+04  3.341336E+04 -2.063533E+03  2.898190E+04  5.249854E+03
       371  20  9.611842E+04  8.920139E+04  5.243875E+04  6.552765E+03  2.297425E+04  1.625733E+04
       371  21  5.412406E+04  8.274004E+04  5.527081E+04  2.981419E+04  1.699794E+04  1.684002E+04
       371  22 -2.732917E+05 -5.231377E+04 -6.314081E+04  2.159207E+04  4.338359E+04  5.294052E+03
       371  23 -2.659106E+05  6.207039E+02 -2.870627E+04  1.418472E+04  2.812537E+04  1.627425E+04
       371  24 -2.732769E+05  2.757480E+03 -1.689813E+04  2.142355E+04  1.289788E+04  1.682725E+04
       371  25 -6.714187E+05 -1.511248E+05 -1.597053E+05  4.523234E+04  5.777607E+04  5.339363E+03
       371  26 -6.278174E+05 -8.796867E+04 -1.098594E+05  2.181209E+04  3.327352E+04  1.629131E+04
       371  27 -6.005775E+05 -7.723203E+04 -8.907357E+04  1.303731E+04  8.799949E+03  1.681458E+04
       372   1  2.763791E+04  6.993179E+04  5.254676E+04  2.125861E+04 -1.153180E+04 -1.472068E+04
       372   2 -7.117936E+03  6.429670E+04  5.069551E+04  1.445878E+04 -8.301767E+03 -1.331516E+04
       372   3 -4.310667E+04  5.580686E+04  4.600579E+04  2.270336E+04 -5.074114E+03 -1.144188E+04
       372   4 -2.702875E+05 -2.855523E+03 -1.345465E+04  2.156259E+04 -1.049738E+04 -1.471782E+04
       372   5 -2.696307E+05  1.946918E+02 -7.260883E+03  1.403484E+04 -6.853589E+03 -1.331069E+04
       372   6 -2.702811E+05  3.174182E+02 -4.194193E+03  2.155196E+04 -3.212001E+03 -1.143573E+04
       372   7 -5.681299E+05 -7.564882E+04 -7.946155E+04  2.186635E+04 -9.463456E+03 -1.471495E+04
       372   8 -5.320791E+05 -6.391195E+04 -6.522152E+04  1.361103E+04 -5.406016E+03 -1.330623E+04
       372   9 -4.974074E+05 -5.517550E+04 -5.439734E+04  2.040094E+04 -1.350561E+03 -1.142958E+04
       372  10  2.763771E+04  6.993152E+04  5.254610E+04  2.125848E+04 -7.024032E-10 -2.436295E-09
       372  11 -7.118058E+03  6.429649E+04  5.069505E+04  1.445869E+04  2.585372E-10  4.847975E-09
       372  12 -4.310673E+04  5.580672E+04  4.600549E+04  2.270331E+04  4.547598E-09  8.337795E-09
       372  13 -2.702876E+05 -2.855786E+03 -1.345526E+04  2.156247E+04  1.534867E-09  8.793120E-09
       372  14 -2.696308E+05  1.944890E+02 -7.261304E+03  1.403477E+04 -5.512203E-10 -2.116411E-08
       372  15 -2.702812E+05  3.172751E+02 -4.194458E+03  2.155193E+04 -2.585510E-10  6.287703E-09
       372  16 -5.681301E+05 -7.564908E+04 -7.946212E+04  2.186624E+04  1.357933E-09 -1.069713E-08
       372  17 -5.320791E+05 -6.391215E+04 -6.522190E+04  1.361097E+04 -6.571878E-10 -7.681179E-09
       372  18 -4.974074E+05 -5.517564E+04 -5.439759E+04  2.040092E+04 -4.246993E-09  1.596344E-09
       372  19  2.763791E+04  6.993179E+04  5.254676E+04  2.125861E+04  1.153180E+04  1.472068E+04
       372  20 -7.117936E+03  6.429670E+04  5.069551E+04  1.445878E+04  8.301767E+03  1.331516E+04
       372  21 -4.310667E+04  5.580686E+04  4.600579E+04  2.270336E+04  5.074114E+03  1.144188E+04
       372  22 -2.702875E+05 -2.855523E+03 -1.345465E+04  2.156259E+04  1.049738E+04  1.471782E+04
       372  23 -2.696307E+05  1.946918E+02 -7.260883E+03  1.403484E+04  6.853589E+03  1.331069E+04
       372  24 -2.702811E+05  3.174182E+02 -4.194193E+03  2.155196E+04  3.212001E+03  1.143573E+04
       372  25 -5.681299E+05 -7.564882E+04 -7.946155E+04  2.186635E+04  9.463456E+03  1.471495E+04
       372  26 -5.320791E+05 -6.391195E+04 -6.522152E+04  1.361103E+04  5.406016E+03  1.330623E+04
       372  27 -4.974074E+05 -5.517550E+04 -5.439734E+04  2.040094E+04  1.350561E+03  1.142958E+04
       373   1 -7.226857E+04  4.827292E+04  4.032097E+04  2.213089E+04 -4.290068E+03 -1.024471E+04
       373   2 -1.075937E+05  3.975780E+04  3.397932E+04  1.450057E+04 -3.410680E+03 -8.286710E+03
       373   3 -1.431749E+05  3.116971E+04  2.701787E+04  2.197247E+04 -2.531826E+03 -6.306556E+03
       373   4 -2.700457E+05 -2.268753E-01 -3.218972E+03  2.156797E+04 -2.563584E+03 -1.023890E+04
       373   5 -2.699138E+05  1.238775E+02 -1.825799E+03  1.401643E+04 -1.664825E+03 -8.280657E+03
       373   6 -2.700421E+05  1.717957E+02 -1.065870E+03  2.156735E+04 -7.665488E+02 -6.300261E+03
       373   7 -4.677862E+05 -4.827600E+04 -4.676130E+04  2.100519E+04 -8.376433E+02 -1.023308E+04
       373   8 -4.322092E+05 -3.951181E+04 -3.763252E+04  1.353240E+04  8.057965E+01 -8.274606E+03
       373   9 -3.968943E+05 -3.082720E+04 -2.915059E+04  2.116231E+04  9.983714E+02 -6.293968E+03
       373  10 -7.226862E+04  4.827280E+04  4.032074E+04  2.213086E+04  1.373822E-08 -3.866801E-09
       373  11 -1.075937E+05  3.975772E+04  3.397917E+04  1.450055E+04  2.886408E-09 -9.011316E-10
       373  12 -1.431750E+05  3.116966E+04  2.701778E+04  2.197246E+04 -8.722259E-09 -1.533443E-10
       373  13 -2.700457E+05 -3.411998E-01 -3.219182E+03  2.156795E+04  1.894344E-09  9.709647E-10
       373  14 -2.699138E+05  1.238031E+02 -1.825933E+03  1.401642E+04 -8.109738E-10 -4.753663E-09
       373  15 -2.700421E+05  1.717529E+02 -1.065946E+03  2.156735E+04  7.297417E-10 -7.375177E-10
       373  16 -4.677862E+05 -4.827611E+04 -4.676150E+04  2.100519E+04 -1.316061E-08 -7.701996E-09
       373  17 -4.322092E+05 -3.951189E+04 -3.763265E+04  1.353240E+04 -2.717207E-09  3.120280E-09
       373  18 -3.968943E+05 -3.082724E+04 -2.915067E+04  2.116231E+04  9.375853E-09  1.325268E-08
       373  19 -7.226857E+04  4.827292E+04  4.032097E+04  2.213089E+04  4.290068E+03  1.024471E+04
       373  20 -1.075937E+05  3.975780E+04  3.397932E+04  1.450057E+04  3.410680E+03  8.286710E+03
       373  21 -1.431749E+05  3.116971E+04  2.701787E+04  2.197247E+04  2.531826E+03  6.306556E+03
       373  22 -2.700457E+05 -2.268753E-01 -3.218972E+03  2.156797E+04  2.563584E+03  1.023890E+04
       373  23 -2.699138E+05  1.238775E+02 -1.825799E+03  1.401643E+04  1.664825E+03  8.280657E+03
       373  24 -2.700421E+05  1.717957E+02 -1.065870E+03  2.156735E+04  7.665488E+02  6.300261E+03
       373  25 -4.677862E+05 -4.827600E+04 -4.676130E+04  2.100519E+04  8.376433E+02  1.023308E+04
       373  26 -4.322092E+05 -3.951181E+04 -3.763252E+04  1.353240E+04 -8.057965E+01  8.274606E+03
       373  27 -3.968943E+05 -3.082720E+04 -2.915059E+04  2.116231E+04 -9.983714E+02  6.293968E+03
       374   1 -1.725946E+05  2.392477E+04  2.056450E+04  2.186573E+04 -2.360242E+03 -5.149716E+03
       374   2 -2.080237E+05  1.523188E+04  1.314720E+04  1.419720E+04 -2.115946E+03 -3.165855E+03
       374   3 -2.435956E+05  6.635920E+03  5.563201E+03  2.165155E+04 -1.871831E+03 -1.180598E+03
       374   4 -2.700148E+05  1.567822E+02 -8.245870E+02  2.157210E+04 -6.003399E+02 -5.143367E+03
       374   5 -2.699421E+05  1.124359E+02 -5.109010E+02  1.401061E+04 -3.548856E+02 -3.159439E+03
       374   6 -2.700135E+05  1.648767E+02 -3.647008E+02  2.157207E+04 -1.095974E+02 -1.174110E+03
       374   7 -3.674261E+05 -2.361184E+04 -2.221424E+04  2.127852E+04  1.159289E+03 -5.137018E+03
       374   8 -3.318568E+05 -1.500727E+04 -1.416923E+04  1.382403E+04  1.406001E+03 -3.153023E+03
       374   9 -2.964307E+05 -6.306213E+03 -6.292635E+03  2.149260E+04  1.652562E+03 -1.167622E+03
       374  10 -1.725947E+05  2.392474E+04  2.056444E+04  2.186572E+04 -5.261383E-09 -3.788159E-09
       374  11 -2.080238E+05  1.523187E+04  1.314717E+04  1.419720E+04 -8.640091E-09 -2.046636E-09
       374  12 -2.435956E+05  6.635918E+03  5.563191E+03  2.165155E+04 -7.759017E-09 -2.673200E-09
       374  13 -2.700148E+05  1.567537E+02 -8.246374E+02  2.157210E+04  1.954461E-09  2.318154E-09
       374  14 -2.699421E+05  1.124251E+02 -5.109200E+02  1.401061E+04 -2.323018E-10 -9.850468E-09
       374  15 -2.700135E+05  1.648752E+02 -3.647034E+02  2.157207E+04  5.119352E-10 -6.915827E-09
       374  16 -3.674261E+05 -2.361186E+04 -2.221430E+04  2.127852E+04  5.966953E-09  3.248831E-09
       374  17 -3.318568E+05 -1.500728E+04 -1.416925E+04  1.382404E+04  6.760263E-09  7.111085E-09
       374  18 -2.964307E+05 -6.306215E+03 -6.292643E+03  2.149260E+04  8.079685E-09  5.667037E-11
       374  19 -1.725946E+05  2.392477E+04  2.056450E+04  2.186573E+04  2.360242E+03  5.149716E+03
       374  20 -2.080237E+05  1.523188E+04  1.314720E+04  1.419720E+04  2.115946E+03  3.165855E+03
       374  21 -2.435956E+05  6.635920E+03  5.563201E+03  2.165155E+04  1.871831E+03  1.180598E+03
       374  22 -2.700148E+05  1.567822E+02 -8.245870E+02  2.157210E+04  6.003399E+02  5.143367E+03
       374  23 -2.699421E+05  1.124359E+02 -5.109010E+02  1.401061E+04  3.548856E+02  3.159439E+03
       374  24 -2.700135E+05  1.648767E+02 -3.647008E+02  2.157207E+04  1.095974E+02  1.174110E+03
       374  25 -3.674261E+05 -2.361184E+04 -2.221424E+04  2.127852E+04 -1.159289E+03  5.137018E+03
       374  26 -3.318568E+05 -1.500727E+04 -1.416923E+04  1.382403E+04 -1.406001E+03  3.153023E+03
       374  27 -2.964307E+05 -6.306213E+03 -6.292635E+03  2.149260E+04 -1.652562E+03  1.167622E+03
       375   1 -2.730597E+05 -5.995923E+02 -1.109269E+03  2.156626E+04 -1.812630E+03 -2.493702E+01
       375   2 -3.084965E+05 -9.303282E+03 -8.861797E+03  1.389831E+04 -1.642195E+03  1.960354E+03
       375   3 -3.440660E+05 -1.790519E+04 -1.673201E+04  2.135579E+04 -1.471668E+03  3.944490E+03
       375   4 -2.700111E+05  1.649097E+02 -3.363450E+02  2.157261E+04 -5.036461E+01 -1.844108E+01
       375   5 -2.699444E+05  1.110493E+02 -3.573383E+02  1.400993E+04  1.189949E+02  1.966803E+03
       375   6 -2.700120E+05  1.591010E+02 -4.953611E+02  2.157263E+04  2.884562E+02  3.950897E+03
       375   7 -2.669626E+05  9.294127E+02  4.365901E+02  2.157896E+04  1.711910E+03 -1.194512E+01
       375   8 -2.313909E+05  9.525282E+03  8.147041E+03  1.412157E+04  1.880293E+03  1.973252E+03
       375   9 -1.959527E+05  1.822302E+04  1.574096E+04  2.178949E+04  2.048788E+03  3.957305E+03
       375  10 -2.730597E+05 -5.995932E+02 -1.109275E+03  2.156626E+04 -4.054470E-09  2.630854E-09
       375  11 -3.084965E+05 -9.303287E+03 -8.861810E+03  1.389831E+04 -3.532298E-09 -2.140175E-09
       375  12 -3.440660E+05 -1.790520E+04 -1.673204E+04  2.135580E+04 -7.517155E-09 -2.879729E-09
       375  13 -2.700111E+05  1.649097E+02 -3.363450E+02  2.157261E+04  2.300163E-09  3.496856E-09
       375  14 -2.699444E+05  1.110451E+02 -3.573456E+02  1.400993E+04 -1.500623E-09 -9.139684E-12
       375  15 -2.700120E+05  1.590842E+02 -4.953906E+02  2.157263E+04  5.821415E-10 -1.127101E-10
       375  16 -2.669626E+05  9.294119E+02  4.365846E+02  2.157896E+04  4.214951E-09 -2.076521E-09
       375  17 -2.313909E+05  9.525277E+03  8.147027E+03  1.412156E+04  3.119565E-09 -1.345234E-08
       375  18 -1.959528E+05  1.822301E+04  1.574093E+04  2.178948E+04  7.447219E-09 -6.688868E-09
       375  19 -2.730597E+05 -5.995923E+02 -1.109269E+03  2.156626E+04  1.812630E+03  2.493702E+01
       375  20 -3.084965E+05 -9.303282E+03 -8.861797E+03  1.389831E+04  1.642195E+03 -1.960354E+03
       375  21 -3.440660E+05 -1.790519E+04 -1.673201E+04  2.135579E+04  1.471668E+03 -3.944490E+03
       375  22 -2.700111E+05  1.649097E+02 -3.363450E+02  2.157261E+04  5.036461E+01  1.844108E+01
       375  23 -2.699444E+05  1.110493E+02 -3.573383E+02  1.400993E+04 -1.189949E+02 -1.966803E+03
       375  24 -2.700120E+05  1.591010E+02 -4.953611E+02  2.157263E+04 -2.884562E+02 -3.950897E+03
       375  25 -2.669626E+05  9.294127E+02  4.365901E+02  2.157896E+04 -1.711910E+03  1.194512E+01
       375  26 -2.313909E+05  9.525282E+03  8.147041E+03  1.412157E+04 -1.880293E+03 -1.973252E+03
       375  27 -1.959527E+05  1.822302E+04  1.574096E+04  2.178949E+04 -2.048788E+03 -3.957305E+03
       376   1 -3.735302E+05 -2.512936E+04 -2.354986E+04  2.125324E+04 -1.380774E+03  5.101414E+03
       376   2 -4.088959E+05 -3.382256E+04 -3.167608E+04  1.361394E+04 -8.652279E+02  7.081699E+03
       376   3 -4.444550E+05 -4.251167E+04 -4.016726E+04  2.108128E+04 -3.492696E+02  9.041191E+03
       376   4 -2.700257E+05  1.673452E+02 -6.161309E+02  2.156831E+04  3.844560E+02  5.107781E+03
       376   5 -2.699318E+05  1.146108E+02 -1.017120E+03  1.401527E+04  8.816164E+02  7.087852E+03
       376   6 -2.700287E+05  6.939647E+01 -1.770052E+03  2.156866E+04  1.379217E+03  9.047136E+03
       376   7 -1.665112E+05  2.546332E+04  2.231695E+04  2.188343E+04  2.149977E+03  5.114149E+03
       376   8 -1.309496E+05  3.405048E+04  2.964066E+04  1.441668E+04  2.628847E+03  7.094006E+03
       376   9 -9.557398E+04  4.264843E+04  3.662531E+04  2.205615E+04  3.108185E+03  9.053082E+03
       376  10 -3.735302E+05 -2.512938E+04 -2.354992E+04  2.125325E+04 -9.123670E-09 -3.488926E-09
       376  11 -4.088959E+05 -3.382261E+04 -3.167617E+04  1.361395E+04 -4.684936E-09 -1.042005E-08
       376  12 -4.444550E+05 -4.251176E+04 -4.016742E+04  2.108128E+04  1.153056E-09 -3.946397E-09
       376  13 -2.700257E+05  1.673171E+02 -6.161802E+02  2.156831E+04  8.628761E-10 -1.326195E-09
       376  14 -2.699318E+05  1.145566E+02 -1.017216E+03  1.401527E+04 -1.228564E-09 -2.481431E-10
       376  15 -2.700287E+05  6.930808E+01 -1.770209E+03  2.156865E+04 -6.392371E-10  2.487620E-09
       376  16 -1.665112E+05  2.546329E+04  2.231689E+04  2.188342E+04  8.842246E-09  6.411165E-09
       376  17 -1.309497E+05  3.405043E+04  2.964055E+04  1.441666E+04  3.475357E-09 -6.331128E-09
       376  18 -9.557401E+04  4.264834E+04  3.662514E+04  2.205613E+04 -1.550677E-09  2.176408E-09
       376  19 -3.735302E+05 -2.512936E+04 -2.354986E+04  2.125324E+04  1.380774E+03 -5.101414E+03
       376  20 -4.088959E+05 -3.382256E+04 -3.167608E+04  1.361394E+04  8.652279E+02 -7.081699E+03
       376  21 -4.444550E+05 -4.251167E+04 -4.016726E+04  2.108128E+04  3.492696E+02 -9.041191E+03
       376  22 -2.700257E+05  1.673452E+02 -6.161309E+02  2.156831E+04 -3.844560E+02 -5.107781E+03
       376  23 -2.699318E+05  1.146108E+02 -1.017120E+03  1.401527E+04 -8.816164E+02 -7.087852E+03
       376  24 -2.700287E+05  6.939647E+01 -1.770052E+03  2.156866E+04 -1.379217E+03 -9.047136E+03
       376  25 -1.665112E+05  2.546332E+04  2.231695E+04  2.188343E+04 -2.149977E+03 -5.114149E+03
       376  26 -1.309496E+05  3.405048E+04  2.964066E+04  1.441668E+04 -2.628847E+03 -7.094006E+03
       376  27 -9.557398E+04  4.264843E+04  3.662531E+04  2.205615E+04 -3.108185E+03 -9.053082E+03
       377   1 -4.739861E+05 -4.955799E+04 -4.736273E+04  2.071218E+04 -1.230326E+02  1.023499E+04
       377   2 -5.089595E+05 -5.827462E+04 -5.679580E+04  1.354710E+04  2.257606E+03  1.211394E+04
       377   3 -5.447543E+05 -6.861096E+04 -6.820984E+04  2.143916E+04  4.640158E+03  1.355153E+04
       377   4 -2.701564E+05  2.426803E+02 -2.299871E+03  2.155585E+04  1.733303E+03  1.024126E+04
       377   5 -2.697820E+05  1.481783E+02 -3.973162E+03  1.403040E+04  3.722940E+03  1.211861E+04
       377   6 -2.701619E+05 -1.497627E+03 -7.355174E+03  2.156176E+04  5.714625E+03  1.355469E+04
       377   7 -6.628789E+04  5.004056E+04  4.276043E+04  2.239976E+04  3.590242E+03  1.024754E+04
       377   8 -3.055104E+04  5.856712E+04  4.884596E+04  1.451385E+04  5.188833E+03  1.212328E+04
       377   9  4.500956E+03  6.561061E+04  5.349483E+04  2.168436E+04  6.789561E+03  1.355784E+04
       377  10 -4.739862E+05 -4.955810E+04 -4.736292E+04  2.071218E+04  7.330490E-09  1.131440E-09
       377  11 -5.089596E+05 -5.827477E+04 -5.679609E+04  1.354707E+04 -2.639871E-09  7.687438E-09
       377  12 -5.447544E+05 -6.861116E+04 -6.821023E+04  2.143911E+04 -6.914246E-09 -4.957375E-09
       377  13 -2.701565E+05  2.425669E+02 -2.300073E+03  2.155583E+04  1.535593E-09 -1.592018E-08
       377  14 -2.697821E+05  1.480168E+02 -3.973464E+03  1.403036E+04 -2.024573E-09  5.224701E-09
       377  15 -2.701620E+05 -1.497833E+03 -7.355581E+03  2.156170E+04 -2.681470E-10  3.197342E-09
       377  16 -6.628793E+04  5.004044E+04  4.276021E+04  2.239973E+04 -7.492095E-09 -7.949068E-09
       377  17 -3.055111E+04  5.856696E+04  4.884563E+04  1.451379E+04  1.668169E-09 -1.604632E-08
       377  18  4.500857E+03  6.561040E+04  5.349439E+04  2.168429E+04  6.847044E-09 -1.083699E-09
       377  19 -4.739861E+05 -4.955799E+04 -4.736273E+04  2.071218E+04  1.230326E+02 -1.023499E+04
       377  20 -5.089595E+05 -5.827462E+04 -5.679580E+04  1.354710E+04 -2.257606E+03 -1.211394E+04
       377  21 -5.447543E+05 -6.861096E+04 -6.820984E+04  2.143916E+04 -4.640158E+03 -1.355153E+04
       377  22 -2.701564E+05  2.426803E+02 -2.299871E+03  2.155585E+04 -1.733303E+03 -1.024126E+04
       377  23 -2.697820E+05  1.481783E+02 -3.973162E+03  1.403040E+04 -3.722940E+03 -1.211861E+04
       377  24 -2.701619E+05 -1.497627E+03 -7.355174E+03  2.156176E+04 -5.714625E+03 -1.355469E+04
       377  25 -6.628789E+04  5.004056E+04  4.276043E+04  2.239976E+04 -3.590242E+03 -1.024754E+04
       377  26 -3.055104E+04  5.856712E+04  4.884596E+04  1.451385E+04 -5.188833E+03 -1.212328E+04
       377  27  4.500956E+03  6.561061E+04  5.349483E+04  2.168436E+04 -6.789561E+03 -1.355784E+04
       378   1 -5.758818E+05 -7.272605E+04 -7.629222E+04  1.654096E+04  3.057729E+03  1.559571E+04
       378   2 -6.064839E+05 -8.256782E+04 -9.165939E+04  1.798786E+04  2.010982E+04  1.519707E+04
       378   3 -6.466893E+05 -1.216402E+05 -1.254562E+05  3.407865E+04  3.719028E+04  4.956808E+03
       378   4 -2.717937E+05  1.568013E+03 -9.235733E+03  2.144188E+04  7.023616E+03  1.560821E+04
       378   5 -2.677574E+05  3.732793E+02 -1.569023E+04  1.416694E+04  1.534704E+04  1.518125E+04
       378   6 -2.718048E+05 -2.852756E+04 -3.450471E+04  2.153617E+04  2.370014E+04  4.914606E+03
       378   7  3.238089E+04  7.585595E+04  5.781514E+04  2.634517E+04  1.099142E+04  1.562076E+04
       378   8  7.107599E+04  8.330662E+04  6.027176E+04  1.034383E+04  1.058169E+04  1.516550E+04
       378   9  1.032088E+05  6.457550E+04  5.643743E+04  8.985989E+03  1.020186E+04  4.872963E+03
       378  10 -5.758819E+05 -7.272632E+04 -7.629270E+04  1.654092E+04  1.508953E-08 -7.384935E-10
       378  11 -6.064844E+05 -8.256817E+04 -9.166058E+04  1.798762E+04  9.526967E-09  4.615370E-09
       378  12 -6.466907E+05 -1.216406E+05 -1.254589E+05  3.407850E+04 -1.529809E-10  9.580585E-09
       378  13 -2.717939E+05  1.567738E+03 -9.236284E+03  2.144180E+04  2.262590E-09  6.780650E-09
       378  14 -2.677578E+05  3.729685E+02 -1.569110E+04  1.416675E+04 -3.052384E-10  9.987137E-09
       378  15 -2.718054E+05 -2.852774E+04 -3.450581E+04  2.153608E+04  4.197370E-10  7.823462E-09
       378  16  3.238070E+04  7.585566E+04  5.781446E+04  2.634503E+04 -1.512791E-08  4.462090E-09
       378  17  7.107580E+04  8.330634E+04  6.027111E+04  1.034370E+04 -9.746016E-09  1.059865E-08
       378  18  1.032087E+05  6.457544E+04  5.643719E+04  8.985948E+03 -3.684282E-10 -1.637908E-09
       378  19 -5.758818E+05 -7.272605E+04 -7.629222E+04  1.654096E+04 -3.057729E+03 -1.559571E+04
       378  20 -6.064839E+05 -8.256782E+04 -9.165939E+04  1.798786E+04 -2.010982E+04 -1.519707E+04
       378  21 -6.466893E+05 -1.216402E+05 -1.254562E+05  3.407865E+04 -3.719028E+04 -4.956808E+03
       378  22 -2.717937E+05  1.568013E+03 -9.235733E+03  2.144188E+04 -7.023616E+03 -1.560821E+04
       378  23 -2.677574E+05  3.732793E+02 -1.569023E+04  1.416694E+04 -1.534704E+04 -1.518125E+04
       378  24 -2.718048E+05 -2.852756E+04 -3.450471E+04  2.153617E+04 -2.370014E+04 -4.914606E+03
       378  25  3.238089E+04  7.585595E+04  5.781514E+04  2.634517E+04 -1.099142E+04 -1.562076E+04
       378  26  7.107599E+04  8.330662E+04  6.027176E+04  1.034383E+04 -1.058169E+04 -1.516550E+04
       378  27  1.032088E+05  6.457550E+04  5.643743E+04  8.985989E+03 -1.020186E+04 -4.872963E+03
       379   1 -2.037243E+05 -8.071386E+05 -1.979521E+05  1.888148E+05 -8.317552E+03 -5.345522E+04
       379   2 -1.379932E+05 -6.108224E+05 -1.226403E+05  1.591533E+05 -2.484805E+04 -1.977008E+04
       379   3 -8.831598E+04 -4.225112E+05 -7.325272E+04  1.767594E+05 -2.183811E+04  1.398244E+04
       379   4 -1.752225E+04 -5.634360E+04 -1.846596E+04  1.774913E+05 -8.417667E+03 -1.386381E+04
       379   5 -3.817386E+03 -5.485503E+04 -8.094276E+03  1.538787E+05 -2.487113E+04 -9.686162E+03
       379   6 -1.030106E+03 -5.627442E+04 -3.133496E+03  1.775332E+05 -2.179149E+04 -5.452522E+03
       379   7  1.686402E+05  6.949722E+05  1.609864E+05  1.661543E+05 -8.519172E+03  2.577533E+04
       379   8  1.303391E+05  5.014061E+05  1.064355E+05  1.485994E+05 -2.489436E+04  4.066375E+02
       379   9  8.624806E+04  3.100924E+05  6.698103E+04  1.783074E+05 -2.174492E+04 -2.489869E+04
       379  10 -2.037251E+05 -8.071417E+05 -1.979576E+05  1.888145E+05  7.479709E-10 -4.835521E-09
       379  11 -1.379940E+05 -6.108230E+05 -1.226421E+05  1.591529E+05  1.697022E-09 -2.974414E-09
       379  12 -8.831654E+04 -4.225116E+05 -7.325399E+04  1.767596E+05  9.310273E-10 -1.287199E-08
       379  13 -1.752238E+04 -5.634382E+04 -1.846645E+04  1.774913E+05  2.958456E-09  1.091230E-09
       379  14 -3.818075E+03 -5.485530E+04 -8.095615E+03  1.538785E+05  2.898372E-09 -5.649867E-09
       379  15 -1.030623E+03 -5.627458E+04 -3.134444E+03  1.775331E+05  9.045812E-10 -2.631820E-09
       379  16  1.686400E+05  6.949714E+05  1.609850E+05  1.661545E+05  2.509996E-09  1.289758E-09
       379  17  1.303384E+05  5.014059E+05  1.064343E+05  1.485995E+05  5.698147E-09  6.934836E-09
       379  18  8.624738E+04  3.100916E+05  6.697898E+04  1.783070E+05 -8.979006E-10  3.106639E-09
       379  19 -2.037243E+05 -8.071386E+05 -1.979521E+05  1.888148E+05  8.317552E+03  5.345522E+04
       379  20 -1.379932E+05 -6.108224E+05 -1.226403E+05  1.591533E+05  2.484805E+04  1.977008E+04
       379  21 -8.831598E+04 -4.225112E+05 -7.325272E+04  1.767594E+05  2.183811E+04 -1.398244E+04
       379  22 -1.752225E+04 -5.634360E+04 -1.846596E+04  1.774913E+05  8.417667E+03  1.386381E+04
       379  23 -3.817386E+03 -5.485503E+04 -8.094276E+03  1.538787E+05  2.487113E+04  9.686162E+03
       379  24 -1.030106E+03 -5.627442E+04 -3.133496E+03  1.775332E+05  2.179149E+04  5.452522E+03
       379  25  1.686402E+05  6.949722E+05  1.609864E+05  1.661543E+05  8.519172E+03 -2.577533E+04
       379  26  1.303391E+05  5.014061E+05  1.064355E+05  1.485994E+05  2.489436E+04 -4.066375E+02
       379  27  8.624806E+04  3.100924E+05  6.698103E+04  1.783074E+05  2.174492E+04  2.489869E+04
       380   1 -5.804553E+04 -2.923445E+05 -4.670384E+04  1.781595E+05 -1.408690E+04  1.136956E+04
       380   2 -1.122539E+04 -1.003566E+05 -5.767823E+03  1.538081E+05 -3.065335E+03  1.045629E+04
       380   3  3.587484E+04  9.218119E+04  3.591169E+04  1.778673E+05  8.120547E+03  9.542736E+03
       380   4 -1.586570E+03 -5.548896E+04 -1.318602E+03  1.777791E+05 -1.404832E+04 -5.163696E+03
       380   5 -6.741192E+02 -5.576525E+04  2.387557E+03  1.535764E+05 -3.026431E+03 -6.327357E+03
       380   6  5.639941E+02 -5.548320E+04  7.012046E+03  1.777841E+05  8.159681E+03 -7.491014E+03
       380   7  5.486922E+04  1.814212E+05  4.406510E+04  1.773985E+05 -1.400973E+04 -2.170312E+04
       380   8  9.877187E+03 -1.117137E+04  1.054391E+04  1.533446E+05 -2.987515E+03 -2.311217E+04
       380   9 -3.474801E+04 -2.031261E+05 -2.188756E+04  1.777008E+05  8.198824E+03 -2.452080E+04
       380  10 -5.804578E+04 -2.923447E+05 -4.670446E+04  1.781596E+05  2.173526E-09 -1.573782E-09
       380  11 -1.122543E+04 -1.003567E+05 -5.768046E+03  1.538082E+05  2.638810E-09 -8.371763E-10
       380  12  3.587474E+04  9.218108E+04  3.591140E+04  1.778672E+05 -2.368644E-09 -1.368236E-08
       380  13 -1.586789E+03 -5.548904E+04 -1.319023E+03  1.777790E+05  9.000125E-10 -1.069927E-09
       380  14 -6.741398E+02 -5.576530E+04  2.387465E+03  1.535764E+05  4.740484E-09 -4.387391E-09
       380  15  5.639075E+02 -5.548327E+04  7.011815E+03  1.777841E+05  1.099300E-09  5.036167E-10
       380  16  5.486888E+04  1.814206E+05  4.406385E+04  1.773983E+05 -2.658498E-11 -3.172297E-09
       380  17  9.877034E+03 -1.117195E+04  1.054289E+04  1.533446E+05  3.101768E-09  3.377389E-09
       380  18 -3.474824E+04 -2.031267E+05 -2.188882E+04  1.777010E+05 -4.189506E-10  9.818882E-09
       380  19 -5.804553E+04 -2.923445E+05 -4.670384E+04  1.781595E+05  1.408690E+04 -1.136956E+04
       380  20 -1.122539E+04 -1.003566E+05 -5.767823E+03  1.538081E+05  3.065335E+03 -1.045629E+04
       380  21  3.587484E+04  9.218119E+04  3.591169E+04  1.778673E+05 -8.120547E+03 -9.542736E+03
       380  22 -1.586570E+03 -5.548896E+04 -1.318602E+03  1.777791E+05  1.404832E+04  5.163696E+03
       380  23 -6.741192E+02 -5.576525E+04  2.387557E+03  1.535764E+05  3.026431E+03  6.327357E+03
       380  24  5.639941E+02 -5.548320E+04  7.012046E+03  1.777841E+05 -8.159681E+03  7.491014E+03
       380  25  5.486922E+04  1.814212E+05  4.406510E+04  1.773985E+05  1.400973E+04  2.170312E+04
       380  26  9.877187E+03 -1.117137E+04  1.054391E+04  1.533446E+05  2.987515E+03  2.311217E+04
       380  27 -3.474801E+04 -2.031261E+05 -2.188756E+04  1.777008E+05 -8.198824E+03  2.452080E+04
       381   1  6.553324E+04  2.230149E+05  6.337728E+04  1.740975E+05  1.590353E+04  1.087140E+04
       381   2  1.182953E+05  4.095442E+05  1.157150E+05  1.621945E+05  2.024724E+04 -2.515057E+04
       381   3  1.985434E+05  6.080174E+05  1.984409E+05  1.977702E+05  7.228316E+03 -6.123223E+04
       381   4 -5.917570E+02 -5.398195E+04  9.811336E+03  1.775606E+05  1.594945E+04 -8.698590E+03
       381   5  5.540347E+03 -5.769147E+04  1.881481E+04  1.538661E+05  2.023252E+04 -1.844982E+04
       381   6  3.461317E+04 -5.403836E+04  3.997642E+04  1.776491E+05  7.148375E+03 -2.824947E+04
       381   7 -6.672108E+04 -3.309043E+05 -4.375675E+04  1.810221E+05  1.599516E+04 -2.826005E+04
       381   8 -1.072282E+05 -5.247201E+05 -7.809711E+04  1.455443E+05  2.021762E+04 -1.175402E+04
       381   9 -1.293466E+05 -7.156894E+05 -1.185147E+05  1.575498E+05  7.066257E+03  4.698300E+03
       381  10  6.553294E+04  2.230148E+05  6.337659E+04  1.740974E+05 -1.213868E-09  1.274377E-10
       381  11  1.182947E+05  4.095434E+05  1.157131E+05  1.621949E+05  3.220483E-09  5.188290E-09
       381  12  1.985423E+05  6.080134E+05  1.984338E+05  1.977705E+05  9.785027E-10 -8.008464E-09
       381  13 -5.920505E+02 -5.398210E+04  9.810716E+03  1.775607E+05 -2.634756E-09 -1.099107E-09
       381  14  5.539816E+03 -5.769194E+04  1.881340E+04  1.538664E+05  4.782804E-09 -1.278510E-09
       381  15  3.461290E+04 -5.403923E+04  3.997483E+04  1.776493E+05  1.146228E-09  1.456585E-09
       381  16 -6.672157E+04 -3.309052E+05 -4.375874E+04  1.810225E+05 -3.420708E-10 -4.341427E-09
       381  17 -1.072287E+05 -5.247204E+05 -7.809814E+04  1.455445E+05  4.524402E-09  1.565405E-09
       381  18 -1.293467E+05 -7.156895E+05 -1.185148E+05  1.575498E+05  1.375815E-09  6.219132E-10
       381  19  6.553324E+04  2.230149E+05  6.337728E+04  1.740975E+05 -1.590353E+04 -1.087140E+04
       381  20  1.182953E+05  4.095442E+05  1.157150E+05  1.621945E+05 -2.024724E+04  2.515057E+04
       381  21  1.985434E+05  6.080174E+05  1.984409E+05  1.977702E+05 -7.228316E+03  6.123223E+04
       381  22 -5.917570E+02 -5.398195E+04  9.811336E+03  1.775606E+05 -1.594945E+04  8.698590E+03
       381  23  5.540347E+03 -5.769147E+04  1.881481E+04  1.538661E+05 -2.023252E+04  1.844982E+04
       381  24  3.461317E+04 -5.403836E+04  3.997642E+04  1.776491E+05 -7.148375E+03  2.824947E+04
       381  25 -6.672108E+04 -3.309043E+05 -4.375675E+04  1.810221E+05 -1.599516E+04  2.826005E+04
       381  26 -1.072282E+05 -5.247201E+05 -7.809711E+04  1.455443E+05 -2.021762E+04  1.175402E+04
       381  27 -1.293466E+05 -7.156894E+05 -1.185147E+05  1.575498E+05 -7.066257E+03 -4.698300E+03
       382   1  6.356422E+05  2.499964E+05  1.566827E+05  2.329834E+05  6.542295E+04  2.052097E+04
       382   2  6.116226E+05  1.576853E+05  9.705912E+04  2.277559E+05  4.231171E+04  2.798546E+03
       382   3  6.087185E+05  1.389382E+05  7.497287E+04  2.140174E+05  1.634080E+04 -7.361354E+03
       382   4  3.891088E+05  1.278553E+05  8.518780E+04  1.357117E+05  5.572793E+04  1.684870E+04
       382   5  3.745155E+05  5.912762E+04  3.682227E+04  1.522960E+05  3.891658E+04  1.512400E+03
       382   6  3.797992E+05  6.272983E+04  2.101176E+04  1.603667E+05  1.924407E+04 -6.262340E+03
       382   7  1.426405E+05  5.734147E+03  1.368866E+04  3.848075E+04  4.603727E+04  1.317922E+04
       382   8  1.374652E+05 -3.942201E+04 -2.341877E+04  7.686393E+04  3.552288E+04  2.269251E+02
       382   9  1.509301E+05 -1.347793E+04 -3.295336E+04  1.067325E+05  2.214620E+04 -5.163651E+03
       382  10  6.356375E+05  2.499948E+05  1.566739E+05  2.329823E+05 -1.338205E-10  3.136781E-10
       382  11  6.116207E+05  1.576848E+05  9.705575E+04  2.277558E+05  8.117860E-09  2.222034E-09
       382  12  6.087182E+05  1.389381E+05  7.497227E+04  2.140175E+05  1.317657E-08  4.449474E-09
       382  13  3.891054E+05  1.278542E+05  8.518143E+04  1.357109E+05  1.029616E-09 -7.882012E-09
       382  14  3.745139E+05  5.912721E+04  3.681943E+04  1.522959E+05 -5.642076E-10  4.931473E-09
       382  15  3.797988E+05  6.272969E+04  2.101099E+04  1.603668E+05 -5.330205E-10 -3.795319E-09
       382  16  1.426382E+05  5.733392E+03  1.368436E+04  3.848026E+04  2.034189E-10 -1.119752E-09
       382  17  1.374639E+05 -3.942235E+04 -2.342114E+04  7.686392E+04 -7.216590E-09 -6.851331E-10
       382  18  1.509295E+05 -1.347809E+04 -3.295433E+04  1.067326E+05 -1.077352E-08 -8.442641E-09
       382  19  6.356422E+05  2.499964E+05  1.566827E+05  2.329834E+05 -6.542295E+04 -2.052097E+04
       382  20  6.116226E+05  1.576853E+05  9.705912E+04  2.277559E+05 -4.231171E+04 -2.798546E+03
       382  21  6.087185E+05  1.389382E+05  7.497287E+04  2.140174E+05 -1.634080E+04  7.361354E+03
       382  22  3.891088E+05  1.278553E+05  8.518780E+04  1.357117E+05 -5.572793E+04 -1.684870E+04
       382  23  3.745155E+05  5.912762E+04  3.682227E+04  1.522960E+05 -3.891658E+04 -1.512400E+03
       382  24  3.797992E+05  6.272983E+04  2.101176E+04  1.603667E+05 -1.924407E+04  6.262340E+03
       382  25  1.426405E+05  5.734147E+03  1.368866E+04  3.848075E+04 -4.603727E+04 -1.317922E+04
       382  26  1.374652E+05 -3.942201E+04 -2.341877E+04  7.686393E+04 -3.552288E+04 -2.269251E+02
       382  27  1.509301E+05 -1.347793E+04 -3.295336E+04  1.067325E+05 -2.214620E+04  5.163651E+03
       383   1  5.785270E+05  1.461762E+05  6.619709E+04  2.134803E+05  1.535746E+04 -5.980009E+03
       383   2  5.592159E+05  1.291119E+05  5.240618E+04  2.034457E+05  1.039696E+04 -6.835052E+03
       383   3  5.346770E+05  1.237958E+05  4.321582E+04  2.009018E+05  5.307989E+03 -7.351081E+03
       383   4  3.770835E+05  6.933479E+04  1.669089E+04  1.563225E+05  1.595841E+04 -5.752796E+03
       383   5  3.794364E+05  6.145958E+04  8.535765E+03  1.533465E+05  1.128138E+04 -6.500346E+03
       383   6  3.765055E+05  6.527728E+04  4.757673E+03  1.578609E+05  6.475704E+03 -6.908914E+03
       383   7  1.756802E+05 -7.503302E+03 -3.281839E+04  9.918176E+04  1.655914E+04 -5.525668E+03
       383   8  1.996893E+05 -6.190140E+03 -3.533695E+04  1.032606E+05  1.216552E+04 -6.165748E+03
       383   9  2.183593E+05  6.760700E+03 -3.370212E+04  1.148301E+05  7.643088E+03 -6.466869E+03
       383  10  5.785267E+05  1.461761E+05  6.619658E+04  2.134804E+05 -7.835637E-09 -4.547290E-09
       383  11  5.592158E+05  1.291118E+05  5.240589E+04  2.034458E+05 -5.489522E-09 -7.655362E-09
       383  12  5.346770E+05  1.237957E+05  4.321566E+04  2.009019E+05 -1.176973E-09 -1.233893E-09
       383  13  3.770833E+05  6.933469E+04  1.669035E+04  1.563226E+05  1.999584E-09  9.909414E-11
       383  14  3.794363E+05  6.145950E+04  8.535446E+03  1.533466E+05  3.139916E-09  1.531760E-08
       383  15  3.765054E+05  6.527722E+04  4.757504E+03  1.578610E+05 -2.978782E-09 -3.663885E-09
       383  16  1.756799E+05 -7.503409E+03 -3.281896E+04  9.918184E+04  1.199036E-08  2.924519E-09
       383  17  1.996891E+05 -6.190221E+03 -3.533730E+04  1.032607E+05  7.419881E-09 -2.480076E-09
       383  18  2.183593E+05  6.760639E+03 -3.370231E+04  1.148301E+05 -1.645677E-09  5.284822E-09
       383  19  5.785270E+05  1.461762E+05  6.619709E+04  2.134803E+05 -1.535746E+04  5.980009E+03
       383  20  5.592159E+05  1.291119E+05  5.240618E+04  2.034457E+05 -1.039696E+04  6.835052E+03
       383  21  5.346770E+05  1.237958E+05  4.321582E+04  2.009018E+05 -5.307989E+03  7.351081E+03
       383  22  3.770835E+05  6.933479E+04  1.669089E+04  1.563225E+05 -1.595841E+04  5.752796E+03
       383  23  3.794364E+05  6.145958E+04  8.535765E+03  1.533465E+05 -1.128138E+04  6.500346E+03
       383  24  3.765055E+05  6.527728E+04  4.757673E+03  1.578609E+05 -6.475704E+03  6.908914E+03
       383  25  1.756802E+05 -7.503302E+03 -3.281839E+04  9.918176E+04 -1.655914E+04  5.525668E+03
       383  26  1.996893E+05 -6.190140E+03 -3.533695E+04  1.032606E+05 -1.216552E+04  6.165748E+03
       383  27  2.183593E+05  6.760700E+03 -3.370212E+04  1.148301E+05 -7.643088E+03  6.466869E+03
       384   1  5.146205E+05  1.174418E+05  3.724728E+04  1.958557E+05  4.442151E+03 -6.771292E+03
       384   2  4.959410E+05  1.051306E+05  3.023752E+04  1.855308E+05  2.958111E+03 -5.865934E+03
       384   3  4.700836E+05  1.005264E+05  2.404536E+04  1.835639E+05  1.468745E+03 -4.947124E+03
       384   4  3.762684E+05  6.566479E+04  3.627231E+03  1.575721E+05  5.503997E+03 -6.369152E+03
       384   5  3.798430E+05  6.169846E+04  1.972263E+03  1.534365E+05  4.031390E+03 -5.459361E+03
       384   6  3.762373E+05  6.543711E+04  1.126130E+03  1.576590E+05  2.553421E+03 -4.536130E+03
       384   7  2.379346E+05  1.388889E+04 -2.999443E+04  1.192960E+05  6.565589E+03 -5.967108E+03
       384   8  2.637580E+05  1.826716E+04 -2.629408E+04  1.213477E+05  5.104453E+03 -5.052869E+03
       384   9  2.823997E+05  3.034844E+04 -2.179376E+04  1.317577E+05  3.637919E+03 -4.125202E+03
       384  10  5.146204E+05  1.174417E+05  3.724716E+04  1.958557E+05 -4.234999E-09  1.533082E-09
       384  11  4.959410E+05  1.051306E+05  3.023744E+04  1.855308E+05  1.815019E-09  9.017438E-09
       384  12  4.700836E+05  1.005264E+05  2.404531E+04  1.835639E+05  5.063444E-09 -2.412890E-09
       384  13  3.762684E+05  6.566473E+04  3.627098E+03  1.575721E+05 -1.926777E-09 -1.982756E-09
       384  14  3.798430E+05  6.169842E+04  1.972177E+03  1.534366E+05  2.542700E-09  6.552913E-09
       384  15  3.762373E+05  6.543709E+04  1.126079E+03  1.576591E+05  3.991407E-09 -6.882520E-09
       384  16  2.379345E+05  1.388884E+04 -2.999458E+04  1.192960E+05  4.457339E-10 -1.218751E-08
       384  17  2.637579E+05  1.826712E+04 -2.629417E+04  1.213477E+05  3.041568E-09 -1.312474E-08
       384  18  2.823997E+05  3.034842E+04 -2.179382E+04  1.317577E+05 -3.198286E-10  4.773343E-10
       384  19  5.146205E+05  1.174418E+05  3.724728E+04  1.958557E+05 -4.442151E+03  6.771292E+03
       384  20  4.959410E+05  1.051306E+05  3.023752E+04  1.855308E+05 -2.958111E+03  5.865934E+03
       384  21  4.700836E+05  1.005264E+05  2.404536E+04  1.835639E+05 -1.468745E+03  4.947124E+03
       384  22  3.762684E+05  6.566479E+04  3.627231E+03  1.575721E+05 -5.503997E+03  6.369152E+03
       384  23  3.798430E+05  6.169846E+04  1.972263E+03  1.534365E+05 -4.031390E+03  5.459361E+03
       384  24  3.762373E+05  6.543711E+04  1.126130E+03  1.576590E+05 -2.553421E+03  4.536130E+03
       384  25  2.379346E+05  1.388889E+04 -2.999443E+04  1.192960E+05 -6.565589E+03  5.967108E+03
       384  26  2.637580E+05  1.826716E+04 -2.629408E+04  1.213477E+05 -5.104453E+03  5.052869E+03
       384  27  2.823997E+05  3.034844E+04 -2.179376E+04  1.317577E+05 -3.637919E+03  4.125202E+03
       385   1  4.508094E+05  9.335227E+04  1.896033E+04  1.782656E+05  1.022302E+03 -4.250209E+03
       385   2  4.322751E+05  8.134630E+04  1.332275E+04  1.679424E+05  2.489226E+02 -3.060278E+03
       385   3  4.063910E+05  7.675906E+04  7.899929E+03  1.659828E+05 -5.244642E+02 -1.870559E+03
       385   4  3.762114E+05  6.545127E+04  8.763497E+02  1.576311E+05  2.101234E+03 -3.841346E+03
       385   5  3.798865E+05  6.173832E+04  5.667388E+02  1.534509E+05  1.327704E+03 -2.651430E+03
       385   6  3.762113E+05  6.544420E+04  4.720430E+02  1.576342E+05  5.541536E+02 -1.461725E+03
       385   7  3.016193E+05  3.755080E+04 -1.720794E+04  1.369990E+05  3.180019E+03 -3.432539E+03
       385   8  3.275007E+05  4.213055E+04 -1.218947E+04  1.389605E+05  2.406387E+03 -2.242619E+03
       385   9  3.460324E+05  5.412935E+04 -6.955947E+03  1.492860E+05  1.632719E+03 -1.052910E+03
       385  10  4.508094E+05  9.335225E+04  1.896029E+04  1.782656E+05  7.921804E-10 -7.390526E-09
       385  11  4.322751E+05  8.134629E+04  1.332273E+04  1.679424E+05  2.006799E-09  7.246394E-09
       385  12  4.063909E+05  7.675906E+04  7.899922E+03  1.659828E+05  8.341972E-09  1.092787E-08
       385  13  3.762114E+05  6.545125E+04  8.763137E+02  1.576312E+05  2.953157E-09 -5.870376E-09
       385  14  3.798865E+05  6.173832E+04  5.667222E+02  1.534509E+05  3.913845E-09  3.027055E-09
       385  15  3.762113E+05  6.544420E+04  4.720384E+02  1.576342E+05  9.826037E-10 -6.236112E-09
       385  16  3.016193E+05  3.755078E+04 -1.720798E+04  1.369990E+05  1.040484E-09  1.681102E-09
       385  17  3.275007E+05  4.213054E+04 -1.218949E+04  1.389605E+05  4.228856E-10 -1.647496E-08
       385  18  3.460323E+05  5.412935E+04 -6.955955E+03  1.492860E+05  2.542839E-10 -7.138934E-09
       385  19  4.508094E+05  9.335227E+04  1.896033E+04  1.782656E+05 -1.022302E+03  4.250209E+03
       385  20  4.322751E+05  8.134630E+04  1.332275E+04  1.679424E+05 -2.489226E+02  3.060278E+03
       385  21  4.063910E+05  7.675906E+04  7.899929E+03  1.659828E+05  5.244642E+02  1.870559E+03
       385  22  3.762114E+05  6.545127E+04  8.763497E+02  1.576311E+05 -2.101234E+03  3.841346E+03
       385  23  3.798865E+05  6.173832E+04  5.667388E+02  1.534509E+05 -1.327704E+03  2.651430E+03
       385  24  3.762113E+05  6.544420E+04  4.720430E+02  1.576342E+05 -5.541536E+02  1.461725E+03
       385  25  3.016193E+05  3.755080E+04 -1.720794E+04  1.369990E+05 -3.180019E+03  3.432539E+03
       385  26  3.275007E+05  4.213055E+04 -1.218947E+04  1.389605E+05 -2.406387E+03  2.242619E+03
       385  27  3.460324E+05  5.412935E+04 -6.955947E+03  1.492860E+05 -1.632719E+03  1.052910E+03
       386   1  3.872131E+05  6.955437E+04  3.088618E+03  1.606893E+05 -8.898563E+02 -1.146220E+03
       386   2  3.686928E+05  5.756469E+04 -2.068762E+03  1.503710E+05 -1.706227E+03  2.649621E+01
       386   3  3.428354E+05  5.299299E+04 -6.978160E+03  1.484103E+05 -2.522406E+03  1.198884E+03
       386   4  3.762141E+05  6.544306E+04  4.875719E+02  1.576332E+05  1.884096E+02 -7.375065E+02
       386   5  3.798836E+05  6.173959E+04  6.537992E+02  1.534525E+05 -6.282786E+02  4.350774E+02
       386   6  3.762155E+05  6.545405E+04  1.068236E+03  1.576290E+05 -1.444786E+03  1.607329E+03
       386   7  3.652152E+05  6.133175E+04 -2.113477E+03  1.545772E+05  1.266655E+03 -3.288012E+02
       386   8  3.910746E+05  6.591449E+04  3.376348E+03  1.565340E+05  4.496887E+02  8.436656E+02
       386   9  4.095967E+05  7.791514E+04  9.114510E+03  1.668481E+05 -3.671082E+02  2.015796E+03
       386  10  3.872131E+05  6.955437E+04  3.088614E+03  1.606893E+05 -6.219689E-09  8.147781E-10
       386  11  3.686928E+05  5.756468E+04 -2.068767E+03  1.503710E+05 -1.168422E-09 -2.793307E-09
       386  12  3.428353E+05  5.299298E+04 -6.978174E+03  1.484103E+05  6.929574E-09 -7.864206E-09
       386  13  3.762141E+05  6.544306E+04  4.875708E+02  1.576332E+05  6.960102E-10 -2.290429E-10
       386  14  3.798836E+05  6.173959E+04  6.537981E+02  1.534525E+05  5.622302E-09  1.005374E-08
       386  15  3.762155E+05  6.545405E+04  1.068228E+03  1.576290E+05  1.423707E-09  4.174246E-09
       386  16  3.652152E+05  6.133175E+04 -2.113480E+03  1.545772E+05  1.109361E-08 -3.988821E-09
       386  17  3.910746E+05  6.591449E+04  3.376346E+03  1.565340E+05  1.932561E-09 -8.441755E-09
       386  18  4.095967E+05  7.791513E+04  9.114502E+03  1.668481E+05 -3.502431E-09 -1.751695E-08
       386  19  3.872131E+05  6.955437E+04  3.088618E+03  1.606893E+05  8.898563E+02  1.146220E+03
       386  20  3.686928E+05  5.756469E+04 -2.068762E+03  1.503710E+05  1.706227E+03 -2.649621E+01
       386  21  3.428354E+05  5.299299E+04 -6.978160E+03  1.484103E+05  2.522406E+03 -1.198884E+03
       386  22  3.762141E+05  6.544306E+04  4.875719E+02  1.576332E+05 -1.884096E+02  7.375065E+02
       386  23  3.798836E+05  6.173959E+04  6.537992E+02  1.534525E+05  6.282786E+02 -4.350774E+02
       386  24  3.762155E+05  6.545405E+04  1.068236E+03  1.576290E+05  1.444786E+03 -1.607329E+03
       386  25  3.652152E+05  6.133175E+04 -2.113477E+03  1.545772E+05 -1.266655E+03  3.288012E+02
       386  26  3.910746E+05  6.591449E+04  3.376348E+03  1.565340E+05 -4.496887E+02 -8.436656E+02
       386  27  4.095967E+05  7.791514E+04  9.114510E+03  1.668481E+05  3.671082E+02 -2.015796E+03
       387   1  3.236450E+05  4.580047E+04 -1.148604E+04  1.431867E+05 -3.016154E+03  1.876393E+03
       387   2  3.050289E+05  3.373286E+04 -1.574671E+04  1.327836E+05 -4.728562E+03  2.708409E+03
       387   3  2.793038E+05  2.942338E+04 -1.900604E+04  1.307097E+05 -6.436255E+03  3.528525E+03
       387   4  3.762522E+05  6.543266E+04  1.389413E+03  1.576595E+05 -1.934029E+03  2.286523E+03
       387   5  3.798259E+05  6.169717E+04  2.462526E+03  1.534398E+05 -3.656527E+03  3.114651E+03
       387   6  3.762925E+05  6.572187E+04  4.545026E+03  1.575493E+05 -5.374356E+03  3.930865E+03
       387   7  4.288624E+05  8.506514E+04  1.426473E+04  1.721334E+05 -8.517977E+02  2.696692E+03
       387   8  4.546286E+05  8.966194E+04  2.067140E+04  1.740983E+05 -2.584348E+03  3.520948E+03
       387   9  4.732904E+05  1.020210E+05  2.809540E+04  1.843926E+05 -4.312275E+03  4.333272E+03
       387  10  3.236450E+05  4.580046E+04 -1.148606E+04  1.431867E+05  2.806365E-10 -1.865271E-09
       387  11  3.050289E+05  3.373285E+04 -1.574677E+04  1.327836E+05  7.502584E-10  7.972592E-09
       387  12  2.793038E+05  2.942335E+04 -1.900614E+04  1.307097E+05  2.827114E-09 -1.031179E-09
       387  13  3.762522E+05  6.543265E+04  1.389396E+03  1.576595E+05  2.493596E-09 -1.018829E-08
       387  14  3.798259E+05  6.169715E+04  2.462482E+03  1.534398E+05 -2.273456E-09 -3.710451E-10
       387  15  3.762924E+05  6.572185E+04  4.544943E+03  1.575493E+05  2.753886E-09  1.252712E-08
       387  16  4.288624E+05  8.506513E+04  1.426472E+04  1.721334E+05  4.783946E-09 -4.399022E-09
       387  17  4.546286E+05  8.966193E+04  2.067136E+04  1.740983E+05  5.463523E-09  4.995521E-09
       387  18  4.732904E+05  1.020210E+05  2.809533E+04  1.843926E+05  4.302385E-10  2.769493E-09
       387  19  3.236450E+05  4.580047E+04 -1.148604E+04  1.431867E+05  3.016154E+03 -1.876393E+03
       387  20  3.050289E+05  3.373286E+04 -1.574671E+04  1.327836E+05  4.728562E+03 -2.708409E+03
       387  21  2.793038E+05  2.942338E+04 -1.900604E+04  1.307097E+05  6.436255E+03 -3.528525E+03
       387  22  3.762522E+05  6.543266E+04  1.389413E+03  1.576595E+05  1.934029E+03 -2.286523E+03
       387  23  3.798259E+05  6.169717E+04  2.462526E+03  1.534398E+05  3.656527E+03 -3.114651E+03
       387  24  3.762925E+05  6.572187E+04  4.545026E+03  1.575493E+05  5.374356E+03 -3.930865E+03
       387  25  4.288624E+05  8.506514E+04  1.426473E+04  1.721334E+05  8.517977E+02 -2.696692E+03
       387  26  4.546286E+05  8.966194E+04  2.067140E+04  1.740983E+05  2.584348E+03 -3.520948E+03
       387  27  4.732904E+05  1.020210E+05  2.809540E+04  1.843926E+05  4.312275E+03 -4.333272E+03
       388   1  2.597271E+05  2.234374E+04 -2.241117E+04  1.264751E+05 -7.664750E+03  3.962277E+03
       388   2  2.411270E+05  9.211898E+03 -2.305361E+04  1.146363E+05 -1.333727E+04  3.232279E+03
       388   3  2.177671E+05  8.785526E+03 -1.839443E+04  1.100206E+05 -1.890029E+04  2.214548E+03
       388   4  3.765944E+05  6.523284E+04  5.965556E+03  1.579086E+05 -6.513305E+03  4.398497E+03
       388   5  3.793145E+05  6.140472E+04  1.070992E+04  1.533311E+05 -1.242646E+04  3.577187E+03
       388   6  3.773215E+05  7.032858E+04  2.094568E+04  1.559762E+05 -1.823035E+04  2.468070E+03
       388   7  4.934746E+05  1.081226E+05  3.434112E+04  1.893473E+05 -5.361628E+03  4.834801E+03
       388   8  5.175209E+05  1.135990E+05  4.447201E+04  1.920337E+05 -1.151543E+04  3.922180E+03
       388   9  5.369019E+05  1.318742E+05  6.028405E+04  2.019429E+05 -1.756022E+04  2.721669E+03
       388  10  2.597271E+05  2.234371E+04 -2.241131E+04  1.264751E+05 -3.872366E-09 -6.229559E-09
       388  11  2.411268E+05  9.211839E+03 -2.305397E+04  1.146364E+05 -2.000824E-09  1.664667E-09
       388  12  2.177667E+05  8.785424E+03 -1.839511E+04  1.100207E+05  6.099903E-09 -3.892169E-09
       388  13  3.765944E+05  6.523281E+04  5.965440E+03  1.579086E+05 -1.950048E-09 -6.044243E-09
       388  14  3.793143E+05  6.140466E+04  1.070960E+04  1.533311E+05 -1.265197E-09  1.337192E-08
       388  15  3.773212E+05  7.032848E+04  2.094505E+04  1.559763E+05  2.484809E-09  2.161570E-09
       388  16  4.934745E+05  1.081225E+05  3.434102E+04  1.893473E+05  5.403626E-09  1.071109E-08
       388  17  5.175207E+05  1.135989E+05  4.447173E+04  1.920338E+05 -1.219915E-10 -1.040504E-10
       388  18  5.369016E+05  1.318741E+05  6.028346E+04  2.019430E+05  5.232574E-10 -8.454306E-09
       388  19  2.597271E+05  2.234374E+04 -2.241117E+04  1.264751E+05  7.664750E+03 -3.962277E+03
       388  20  2.411270E+05  9.211898E+03 -2.305361E+04  1.146363E+05  1.333727E+04 -3.232279E+03
       388  21  2.177671E+05  8.785526E+03 -1.839443E+04  1.100206E+05  1.890029E+04 -2.214548E+03
       388  22  3.765944E+05  6.523284E+04  5.965556E+03  1.579086E+05  6.513305E+03 -4.398497E+03
       388  23  3.793145E+05  6.140472E+04  1.070992E+04  1.533311E+05  1.242646E+04 -3.577187E+03
       388  24  3.773215E+05  7.032858E+04  2.094568E+04  1.559762E+05  1.823035E+04 -2.468070E+03
       388  25  4.934746E+05  1.081226E+05  3.434112E+04  1.893473E+05  5.361628E+03 -4.834801E+03
       388  26  5.175209E+05  1.135990E+05  4.447201E+04  1.920337E+05  1.151543E+04 -3.922180E+03
       388  27  5.369019E+05  1.318742E+05  6.028405E+04  2.019429E+05  1.756022E+04 -2.721669E+03
       389   1  1.917907E+05  3.185517E+03 -1.747051E+04  1.209246E+05 -2.478236E+04  1.602507E+03
       389   2  1.796673E+05 -2.626993E+04 -3.743710E+03  8.603200E+04 -4.424594E+04 -5.823750E+03
       389   3  1.932949E+05  3.213988E+04  4.661101E+04  3.834041E+04 -6.128083E+04 -1.966257E+04
       389   4  3.807130E+05  6.205673E+04  2.636858E+04  1.610684E+05 -2.216031E+04  2.595874E+03
       389   5  3.731628E+05  5.846443E+04  4.621305E+04  1.519923E+05 -4.696561E+04 -6.854854E+03
       389   6  3.924094E+05  1.437765E+05  1.069109E+05  1.301202E+05 -6.934286E+04 -2.271900E+04
       389   7  5.696711E+05  1.209283E+05  7.020550E+04  2.012222E+05 -1.953737E+04  3.589449E+03
       389   8  5.666943E+05  1.432048E+05  9.616635E+04  2.179722E+05 -4.968619E+04 -7.886433E+03
       389   9  5.915625E+05  2.554304E+05  1.672062E+05  2.219297E+05 -7.740756E+04 -2.577763E+04
       389  10  1.917900E+05  3.185349E+03 -1.747167E+04  1.209247E+05 -2.352964E-09  5.651682E-09
       389  11  1.796652E+05 -2.627050E+04 -3.747451E+03  8.603179E+04 -4.433786E-09  8.524769E-09
       389  12  1.932907E+05  3.213846E+04  4.660323E+04  3.833944E+04  2.003446E-09  7.901227E-09
       389  13  3.807124E+05  6.205659E+04  2.636764E+04  1.610684E+05  3.155185E-09 -4.092766E-09
       389  14  3.731604E+05  5.846379E+04  4.620882E+04  1.519920E+05 -1.415119E-09 -7.576377E-10
       389  15  3.924041E+05  1.437746E+05  1.069009E+05  1.301190E+05 -1.228813E-09  4.057177E-10
       389  16  5.696707E+05  1.209281E+05  7.020476E+04  2.012222E+05  9.362447E-09  8.348515E-09
       389  17  5.666916E+05  1.432041E+05  9.616160E+04  2.179719E+05 -3.087300E-09  5.711508E-09
       389  18  5.915559E+05  2.554280E+05  1.671937E+05  2.219281E+05 -7.114520E-09  4.126320E-09
       389  19  1.917907E+05  3.185517E+03 -1.747051E+04  1.209246E+05  2.478236E+04 -1.602507E+03
       389  20  1.796673E+05 -2.626993E+04 -3.743710E+03  8.603200E+04  4.424594E+04  5.823750E+03
       389  21  1.932949E+05  3.213988E+04  4.661101E+04  3.834041E+04  6.128083E+04  1.966257E+04
       389  22  3.807130E+05  6.205673E+04  2.636858E+04  1.610684E+05  2.216031E+04 -2.595874E+03
       389  23  3.731628E+05  5.846443E+04  4.621305E+04  1.519923E+05  4.696561E+04  6.854854E+03
       389  24  3.924094E+05  1.437765E+05  1.069109E+05  1.301202E+05  6.934286E+04  2.271900E+04
       389  25  5.696711E+05  1.209283E+05  7.020550E+04  2.012222E+05  1.953737E+04 -3.589449E+03
       389  26  5.666943E+05  1.432048E+05  9.616635E+04  2.179722E+05  4.968619E+04  7.886433E+03
       389  27  5.915625E+05  2.554304E+05  1.672062E+05  2.219297E+05  7.740756E+04  2.577763E+04
       390   1 -1.341068E+05 -6.662596E+05 -1.340592E+05  9.323487E+04 -5.204520E+03 -2.530344E+04
       390   2 -8.490491E+04 -5.290123E+05 -8.602569E+04  6.039640E+04 -1.464661E+04 -9.047936E+03
       390   3 -5.161952E+04 -3.974050E+05 -5.249383E+04  8.415869E+04 -1.055885E+04  7.249695E+03
       390   4 -1.438042E+04 -1.853541E+05 -1.681236E+04  8.569422E+04 -5.244044E+03 -1.096767E+04
       390   5 -1.833652E+02 -1.835553E+05 -8.103351E+03  5.741440E+04 -1.465229E+04 -6.713156E+03
       390   6  1.877915E+02 -1.853260E+05 -5.552177E+03  8.573447E+04 -1.053383E+04 -2.420323E+03
       390   7  1.053292E+05  2.957629E+05  1.004184E+05  7.814783E+04 -5.283902E+03  3.379202E+03
       390   8  8.453002E+04  1.620127E+05  6.981137E+04  5.443078E+04 -1.465800E+04 -4.377088E+03
       390   9  5.199213E+04  2.679527E+04  4.138704E+04  8.731082E+04 -1.050887E+04 -1.209361E+04
       390  10 -1.341070E+05 -6.662603E+05 -1.340604E+05  9.323477E+04 -2.128463E-10 -2.362181E-09
       390  11 -8.490517E+04 -5.290125E+05 -8.602624E+04  6.039630E+04 -1.175985E-09  2.778029E-09
       390  12 -5.161966E+04 -3.974050E+05 -5.249413E+04  8.415875E+04  1.150714E-09  2.669500E-09
       390  13 -1.438048E+04 -1.853543E+05 -1.681264E+04  8.569417E+04  8.504875E-10 -6.311520E-09
       390  14 -1.836078E+02 -1.835554E+05 -8.103839E+03  5.741432E+04 -3.181098E-09  7.282585E-09
       390  15  1.876708E+02 -1.853260E+05 -5.552396E+03  8.573445E+04 -5.468626E-10 -1.108056E-09
       390  16  1.053292E+05  2.957629E+05  1.004183E+05  7.814785E+04 -9.475331E-11 -9.297898E-09
       390  17  8.452979E+04  1.620126E+05  6.981093E+04  5.443073E+04 -6.636631E-10  2.744768E-09
       390  18  5.199198E+04  2.679509E+04  4.138656E+04  8.731072E+04 -1.209688E-09 -3.654853E-09
       390  19 -1.341068E+05 -6.662596E+05 -1.340592E+05  9.323487E+04  5.204520E+03  2.530344E+04
       390  20 -8.490491E+04 -5.290123E+05 -8.602569E+04  6.039640E+04  1.464661E+04  9.047936E+03
       390  21 -5.161952E+04 -3.974050E+05 -5.249383E+04  8.415869E+04  1.055885E+04 -7.249695E+03
       390  22 -1.438042E+04 -1.853541E+05 -1.681236E+04  8.569422E+04  5.244044E+03  1.096767E+04
       390  23 -1.833652E+02 -1.835553E+05 -8.103351E+03  5.741440E+04  1.465229E+04  6.713156E+03
       390  24  1.877915E+02 -1.853260E+05 -5.552177E+03  8.573447E+04  1.053383E+04  2.420323E+03
       390  25  1.053292E+05  2.957629E+05  1.004184E+05  7.814783E+04  5.283902E+03 -3.379202E+03
       390  26  8.453002E+04  1.620127E+05  6.981137E+04  5.443078E+04  1.465800E+04  4.377088E+03
       390  27  5.199213E+04  2.679527E+04  4.138704E+04  8.731082E+04  1.050887E+04  1.209361E+04
       391   1 -2.568652E+04 -2.848838E+05 -2.728281E+04  8.653831E+04 -4.876363E+03  4.337415E+03
       391   2  8.109263E+03 -1.502590E+05  2.997476E+03  5.716665E+04  1.707492E+03  6.569265E+03
       391   3  3.967475E+04 -1.607655E+04  3.135287E+04  8.498336E+04  8.214244E+03  8.801680E+03
       391   4 -1.175111E+03 -1.846298E+05 -5.024596E+03  8.585438E+04 -4.861446E+03 -1.546747E+03
       391   5 -2.274760E+02 -1.843955E+05 -4.541552E+03  5.725957E+04  1.722394E+03  7.530559E+02
       391   6 -1.520881E+03 -1.846325E+05 -6.029912E+03  8.585350E+04  8.229070E+03  3.052958E+03
       391   7  2.333564E+04 -8.436634E+04  1.723313E+04  8.517034E+04 -4.846517E+03 -7.431849E+03
       391   8 -8.564275E+03 -2.185309E+05 -1.208052E+04  5.735249E+04  1.737294E+03 -5.062837E+03
       391   9 -4.271841E+04 -3.531619E+05 -4.341433E+04  8.672341E+04  8.243882E+03 -2.694221E+03
       391  10 -2.568655E+04 -2.848838E+05 -2.728289E+04  8.653833E+04  7.047595E-10 -6.116876E-09
       391  11  8.109248E+03 -1.502590E+05  2.997389E+03  5.716664E+04  2.008941E-09 -5.690751E-09
       391  12  3.967466E+04 -1.607665E+04  3.135260E+04  8.498330E+04  3.469390E-10  9.557647E-10
       391  13 -1.175137E+03 -1.846298E+05 -5.024645E+03  8.585437E+04 -4.399478E-11 -7.919574E-09
       391  14 -2.274794E+02 -1.843955E+05 -4.541559E+03  5.725957E+04  2.356924E-09  6.181912E-09
       391  15 -1.520956E+03 -1.846326E+05 -6.030057E+03  8.585348E+04  3.267424E-09  2.735448E-09
       391  16  2.333560E+04 -8.436641E+04  1.723298E+04  8.517031E+04 -1.528947E-09 -7.931158E-09
       391  17 -8.564285E+03 -2.185310E+05 -1.208058E+04  5.735250E+04 -8.301653E-10  1.256454E-08
       391  18 -4.271849E+04 -3.531620E+05 -4.341447E+04  8.672343E+04  2.267647E-09  1.395502E-09
       391  19 -2.568652E+04 -2.848838E+05 -2.728281E+04  8.653831E+04  4.876363E+03 -4.337415E+03
       391  20  8.109263E+03 -1.502590E+05  2.997476E+03  5.716665E+04 -1.707492E+03 -6.569265E+03
       391  21  3.967475E+04 -1.607655E+04  3.135287E+04  8.498336E+04 -8.214244E+03 -8.801680E+03
       391  22 -1.175111E+03 -1.846298E+05 -5.024596E+03  8.585438E+04  4.861446E+03  1.546747E+03
       391  23 -2.274760E+02 -1.843955E+05 -4.541552E+03  5.725957E+04 -1.722394E+03 -7.530559E+02
       391  24 -1.520881E+03 -1.846325E+05 -6.029912E+03  8.585350E+04 -8.229070E+03 -3.052958E+03
       391  25  2.333564E+04 -8.436634E+04  1.723313E+04  8.517034E+04  4.846517E+03  7.431849E+03
       391  26 -8.564275E+03 -2.185309E+05 -1.208052E+04  5.735249E+04 -1.737294E+03  5.062837E+03
       391  27 -4.271841E+04 -3.531619E+05 -4.341433E+04  8.672341E+04 -8.243882E+03  2.694221E+03
       392   1  6.894841E+04  9.478234E+04  5.494639E+04  8.796854E+04  1.402481E+04  1.418526E+04
       392   2  1.012628E+05  2.306232E+05  8.214173E+04  5.339528E+04  1.775187E+04  6.488953E+03
       392   3  1.166896E+05  3.637344E+05  1.102245E+05  7.532114E+04  6.228170E+03 -1.253187E+03
       392   4  4.745290E+02 -1.856721E+05 -7.037723E+03  8.571736E+04  1.405133E+04  4.118082E+03
       392   5 -1.435932E+02 -1.831392E+05 -1.102669E+04  5.743711E+04  1.774316E+04  9.965692E+03
       392   6 -2.000551E+04 -1.857061E+05 -2.353544E+04  8.565946E+04  6.179520E+03  1.576885E+04
       392   7 -6.800457E+04 -4.660529E+05 -6.902631E+04  8.346725E+04  1.407793E+04 -5.944602E+03
       392   8 -1.015616E+05 -5.967424E+05 -1.042060E+05  6.147632E+04  1.773448E+04  1.344014E+04
       392   9 -1.567224E+05 -7.348705E+05 -1.573161E+05  9.598878E+04  6.131416E+03  3.277586E+04
       392  10  6.894815E+04  9.478207E+04  5.494565E+04  8.796838E+04  6.561952E-10 -3.640091E-09
       392  11  1.012624E+05  2.306231E+05  8.214106E+04  5.339518E+04  4.964768E-10  1.595578E-09
       392  12  1.166896E+05  3.637344E+05  1.102244E+05  7.532115E+04 -6.604426E-10 -1.963635E-09
       392  13  4.743124E+02 -1.856722E+05 -7.038125E+03  8.571731E+04 -6.185732E-10 -5.949247E-09
       392  14 -1.439579E+02 -1.831394E+05 -1.102747E+04  5.743697E+04  1.490565E-09 -2.237638E-09
       392  15 -2.000562E+04 -1.857064E+05 -2.353598E+04  8.565938E+04 -4.962704E-10 -1.928238E-09
       392  16 -6.800479E+04 -4.660530E+05 -6.902675E+04  8.346731E+04  2.440788E-09 -8.427444E-09
       392  17 -1.015620E+05 -5.967427E+05 -1.042069E+05  6.147613E+04  2.110349E-09  1.115626E-08
       392  18 -1.567227E+05 -7.348716E+05 -1.573182E+05  9.598861E+04 -3.959845E-10 -1.031875E-09
       392  19  6.894841E+04  9.478234E+04  5.494639E+04  8.796854E+04 -1.402481E+04 -1.418526E+04
       392  20  1.012628E+05  2.306232E+05  8.214173E+04  5.339528E+04 -1.775187E+04 -6.488953E+03
       392  21  1.166896E+05  3.637344E+05  1.102245E+05  7.532114E+04 -6.228170E+03  1.253187E+03
       392  22  4.745290E+02 -1.856721E+05 -7.037723E+03  8.571736E+04 -1.405133E+04 -4.118082E+03
       392  23 -1.435932E+02 -1.831392E+05 -1.102669E+04  5.743711E+04 -1.774316E+04 -9.965692E+03
       392  24 -2.000551E+04 -1.857061E+05 -2.353544E+04  8.565946E+04 -6.179520E+03 -1.576885E+04
       392  25 -6.800457E+04 -4.660529E+05 -6.902631E+04  8.346725E+04 -1.407793E+04  5.944602E+03
       392  26 -1.015616E+05 -5.967424E+05 -1.042060E+05  6.147632E+04 -1.773448E+04 -1.344014E+04
       392  27 -1.567224E+05 -7.348705E+05 -1.573161E+05  9.598878E+04 -6.131416E+03 -3.277586E+04
       393   1  2.092294E+05 -1.179348E+05 -1.104319E+05 -1.768407E+04 -3.710893E+03  7.257290E+03
       393   2  2.507780E+05 -1.253186E+05 -1.034814E+05 -1.486315E+04  3.302461E+03  2.288366E+04
       393   3  2.958640E+05 -1.154317E+05 -9.675846E+04 -2.979988E+04  1.033056E+04  2.405212E+04
       393   4  7.646354E+05  1.998289E+04  2.414522E+04 -2.669630E+04  1.659381E+04  7.275937E+03
       393   5  7.617659E+05 -2.925079E+02  1.096643E+04 -1.780949E+04  1.076300E+04  2.288803E+04
       393   6  7.646558E+05 -1.076578E+03  6.471203E+03 -2.667921E+04  4.946336E+03  2.404769E+04
       393   7  1.320324E+06  1.578786E+05  1.587018E+05 -3.571668E+04  3.691660E+04  7.293987E+03
       393   8  1.272997E+06  1.247159E+05  1.253980E+05 -2.075831E+04  1.822960E+04  2.289234E+04
       393   9  1.233653E+06  1.132639E+05  1.096875E+05 -2.355617E+04 -4.418993E+02  2.404320E+04
       393  10  2.092294E+05 -1.179349E+05 -1.104321E+05 -1.768404E+04 -2.448438E-10 -3.084435E-11
       393  11  2.507778E+05 -1.253192E+05 -1.034824E+05 -1.486321E+04  1.839188E-10 -2.521239E-11
       393  12  2.958637E+05 -1.154323E+05 -9.675975E+04 -2.980008E+04 -1.686034E-10  5.652744E-11
       393  13  7.646351E+05  1.998276E+04  2.414460E+04 -2.669640E+04  1.890382E-11 -3.720546E-11
       393  14  7.617657E+05 -2.931016E+02  1.096523E+04 -1.780969E+04 -2.268201E-10 -1.189004E-10
       393  15  7.646557E+05 -1.077206E+03  6.470069E+03 -2.667930E+04  5.087609E-10  1.254010E-10
       393  16  1.320322E+06  1.578781E+05  1.586991E+05 -3.571690E+04 -8.797697E-10 -9.099623E-11
       393  17  1.272996E+06  1.247152E+05  1.253964E+05 -2.075865E+04 -2.429128E-10 -1.876977E-10
       393  18  1.233653E+06  1.132632E+05  1.096864E+05 -2.355616E+04  5.771919E-11  4.903703E-11
       393  19  2.092294E+05 -1.179348E+05 -1.104319E+05 -1.768407E+04  3.710893E+03 -7.257290E+03
       393  20  2.507780E+05 -1.253186E+05 -1.034814E+05 -1.486315E+04 -3.302461E+03 -2.288366E+04
       393  21  2.958640E+05 -1.154317E+05 -9.675846E+04 -2.979988E+04 -1.033056E+04 -2.405212E+04
       393  22  7.646354E+05  1.998289E+04  2.414522E+04 -2.669630E+04 -1.659381E+04 -7.275937E+03
       393  23  7.617659E+05 -2.925079E+02  1.096643E+04 -1.780949E+04 -1.076300E+04 -2.288803E+04
       393  24  7.646558E+05 -1.076578E+03  6.471203E+03 -2.667921E+04 -4.946336E+03 -2.404769E+04
       393  25  1.320324E+06  1.578786E+05  1.587018E+05 -3.571668E+04 -3.691660E+04 -7.293987E+03
       393  26  1.272997E+06  1.247159E+05  1.253980E+05 -2.075831E+04 -1.822960E+04 -2.289234E+04
       393  27  1.233653E+06  1.132639E+05  1.096875E+05 -2.355617E+04  4.418993E+02 -2.404320E+04
       394   1  3.305652E+05 -1.046265E+05 -9.068536E+04 -2.653428E+04  5.142832E+03  2.133255E+04
       394   2  3.729509E+05 -9.531481E+04 -8.330831E+04 -1.772909E+04  4.311462E+03  1.975228E+04
       394   3  4.157854E+05 -8.494704E+04 -7.510913E+04 -2.703728E+04  3.479227E+03  1.753544E+04
       394   4  7.635031E+05  1.077157E+03  5.153258E+03 -2.676301E+04  4.024054E+03  2.133091E+04
       394   5  7.632359E+05 -8.754181E+01  2.784123E+03 -1.770645E+04  2.626302E+03  1.975075E+04
       394   6  7.635136E+05 -9.822391E+01  1.629701E+03 -2.676255E+04  1.227742E+03  1.753421E+04
       394   7  1.196616E+06  1.067682E+05  1.009803E+05 -2.699191E+04  2.904504E+03  2.132928E+04
       394   8  1.153663E+06  9.512950E+04  8.886720E+04 -1.768380E+04  9.400959E+02  1.974923E+04
       394   9  1.111355E+06  8.474247E+04  7.836111E+04 -2.648766E+04 -1.024988E+03  1.753298E+04
       394  10  3.305650E+05 -1.046270E+05 -9.068626E+04 -2.653437E+04 -1.794852E-10 -5.458372E-11
       394  11  3.729508E+05 -9.531524E+04 -8.330908E+04 -1.772916E+04  7.243294E-11 -1.788631E-10
       394  12  4.157853E+05 -8.494737E+04 -7.510973E+04 -2.703733E+04 -7.823621E-11  3.520008E-11
       394  13  7.635029E+05  1.076664E+03  5.152372E+03 -2.676308E+04  1.721049E-11  4.929351E-11
       394  14  7.632358E+05 -8.796270E+01  2.783377E+03 -1.770649E+04 -1.960731E-10 -1.974645E-10
       394  15  7.635136E+05 -9.855458E+01  1.629120E+03 -2.676257E+04  2.113786E-10 -8.979700E-11
       394  16  1.196616E+06  1.067677E+05  1.009794E+05 -2.699196E+04 -3.748013E-10  1.867294E-11
       394  17  1.153663E+06  9.512908E+04  8.886647E+04 -1.768381E+04 -1.725830E-10 -5.623493E-11
       394  18  1.111355E+06  8.474214E+04  7.836053E+04 -2.648765E+04  3.988574E-11 -1.004500E-10
       394  19  3.305652E+05 -1.046265E+05 -9.068536E+04 -2.653428E+04 -5.142832E+03 -2.133255E+04
       394  20  3.729509E+05 -9.531481E+04 -8.330831E+04 -1.772909E+04 -4.311462E+03 -1.975228E+04
       394  21  4.157854E+05 -8.494704E+04 -7.510913E+04 -2.703728E+04 -3.479227E+03 -1.753544E+04
       394  22  7.635031E+05  1.077157E+03  5.153258E+03 -2.676301E+04 -4.024054E+03 -2.133091E+04
       394  23  7.632359E+05 -8.754181E+01  2.784123E+03 -1.770645E+04 -2.626302E+03 -1.975075E+04
       394  24  7.635136E+05 -9.822391E+01  1.629701E+03 -2.676255E+04 -1.227742E+03 -1.753421E+04
       394  25  1.196616E+06  1.067682E+05  1.009803E+05 -2.699191E+04 -2.904504E+03 -2.132928E+04
       394  26  1.153663E+06  9.512950E+04  8.886720E+04 -1.768380E+04 -9.400959E+02 -1.974923E+04
       394  27  1.111355E+06  8.474247E+04  7.836111E+04 -2.648766E+04  1.024988E+03 -1.753298E+04
       395   1  4.508408E+05 -7.620611E+04 -6.752477E+04 -2.678795E+04  3.028218E+03  1.609853E+04
       395   2  4.929881E+05 -6.598625E+04 -5.883953E+04 -1.778566E+04  2.678587E+03  1.377399E+04
       395   3  5.352307E+05 -5.570079E+04 -4.990306E+04 -2.674549E+04  2.328110E+03  1.142700E+04
       395   4  7.634195E+05  2.527571E+01  1.261187E+03 -2.672912E+04  9.732455E+02  1.609761E+04
       395   5  7.633740E+05 -2.902354E+01  7.472783E+02 -1.774829E+04  6.034570E+02  1.377339E+04
       395   6  7.634263E+05 -1.398303E+01  4.987117E+02 -2.672912E+04  2.328460E+02  1.142674E+04
       395   7  1.076089E+06  7.625012E+04  7.004118E+04 -2.667026E+04 -1.082749E+03  1.609668E+04
       395   8  1.033828E+06  6.592330E+04  6.032962E+04 -1.771092E+04 -1.472566E+03  1.377279E+04
       395   9  9.916704E+05  5.566932E+04  5.089729E+04 -2.671274E+04 -1.863179E+03  1.142647E+04
       395  10  4.508408E+05 -7.620639E+04 -6.752527E+04 -2.678799E+04  6.013847E-12 -1.348654E-10
       395  11  4.929880E+05 -6.598646E+04 -5.883990E+04 -1.778569E+04  1.126876E-10  1.868109E-13
       395  12  5.352307E+05 -5.570093E+04 -4.990331E+04 -2.674551E+04  2.489986E-11  2.035697E-11
       395  13  7.634194E+05  2.499710E+01  1.260699E+03 -2.672913E+04 -1.098133E-10 -1.172878E-10
       395  14  7.633739E+05 -2.922742E+01  7.469210E+02 -1.774830E+04 -8.277385E-11 -1.594455E-10
       395  15  7.634262E+05 -1.412331E+01  4.984661E+02 -2.672912E+04  9.123043E-12  4.775583E-11
       395  16  1.076089E+06  7.624984E+04  7.004069E+04 -2.667024E+04 -1.922981E-10 -5.526572E-11
       395  17  1.033828E+06  6.592310E+04  6.032925E+04 -1.771090E+04 -1.297277E-10 -1.169795E-10
       395  18  9.916704E+05  5.566918E+04  5.089704E+04 -2.671273E+04 -4.772865E-11 -8.399855E-12
       395  19  4.508408E+05 -7.620611E+04 -6.752477E+04 -2.678795E+04 -3.028218E+03 -1.609853E+04
       395  20  4.929881E+05 -6.598625E+04 -5.883953E+04 -1.778566E+04 -2.678587E+03 -1.377399E+04
       395  21  5.352307E+05 -5.570079E+04 -4.990306E+04 -2.674549E+04 -2.328110E+03 -1.142700E+04
       395  22  7.634195E+05  2.527571E+01  1.261187E+03 -2.672912E+04 -9.732455E+02 -1.609761E+04
       395  23  7.633740E+05 -2.902354E+01  7.472783E+02 -1.774829E+04 -6.034570E+02 -1.377339E+04
       395  24  7.634263E+05 -1.398303E+01  4.987117E+02 -2.672912E+04 -2.328460E+02 -1.142674E+04
       395  25  1.076089E+06  7.625012E+04  7.004118E+04 -2.667026E+04  1.082749E+03 -1.609668E+04
       395  26  1.033828E+06  6.592330E+04  6.032962E+04 -1.771092E+04  1.472566E+03 -1.377279E+04
       395  27  9.916704E+05  5.566932E+04  5.089729E+04 -2.671274E+04  1.863179E+03 -1.142647E+04
       396   1  5.700811E+05 -4.714183E+04 -4.205012E+04 -2.670548E+04  2.231164E+03  1.005771E+04
       396   2  6.119969E+05 -3.693698E+04 -3.296246E+04 -1.776519E+04  2.032024E+03  7.715174E+03
       396   3  6.539488E+05 -2.672259E+04 -2.374158E+04 -2.667962E+04  1.832402E+03  5.374980E+03
       396   4  7.634153E+05 -6.830141E+00  4.331098E+02 -2.670530E+04  1.485508E+02  1.005761E+04
       396   5  7.634004E+05 -7.022593E+00  3.991064E+02 -1.777807E+04 -4.863812E+01  7.715260E+03
       396   6  7.634190E+05  1.916192E+00  4.968394E+02 -2.670530E+04 -2.462947E+02  5.375257E+03
       396   7  9.567845E+05  4.712567E+04  4.291407E+04 -2.670512E+04 -1.934703E+03  1.005751E+04
       396   8  9.148254E+05  3.692140E+04  3.375928E+04 -1.779095E+04 -2.129801E+03  7.715346E+03
       396   9  8.729004E+05  2.672562E+04  2.473453E+04 -2.673098E+04 -2.325354E+03  5.375534E+03
       396  10  5.700810E+05 -4.714194E+04 -4.205032E+04 -2.670550E+04  1.029774E-10  5.192829E-11
       396  11  6.119968E+05 -3.693704E+04 -3.296258E+04 -1.776520E+04  1.845201E-10 -4.152999E-11
       396  12  6.539487E+05 -2.672262E+04 -2.374164E+04 -2.667963E+04  1.646635E-10 -2.563266E-11
       396  13  7.634153E+05 -6.938809E+00  4.329196E+02 -2.670530E+04 -2.444497E-11 -3.452043E-11
       396  14  7.634004E+05 -7.086537E+00  3.989945E+02 -1.777807E+04  3.397484E-11  7.300139E-11
       396  15  7.634190E+05  1.885138E+00  4.967850E+02 -2.670530E+04 -6.241303E-12 -1.739371E-11
       396  16  9.567845E+05  4.712556E+04  4.291387E+04 -2.670511E+04 -3.573851E-11  5.798102E-11
       396  17  9.148254E+05  3.692133E+04  3.375916E+04 -1.779094E+04 -1.387659E-10 -4.991019E-11
       396  18  8.729004E+05  2.672559E+04  2.473447E+04 -2.673097E+04 -1.241047E-10 -3.159584E-12
       396  19  5.700811E+05 -4.714183E+04 -4.205012E+04 -2.670548E+04 -2.231164E+03 -1.005771E+04
       396  20  6.119969E+05 -3.693698E+04 -3.296246E+04 -1.776519E+04 -2.032024E+03 -7.715174E+03
       396  21  6.539488E+05 -2.672259E+04 -2.374158E+04 -2.667962E+04 -1.832402E+03 -5.374980E+03
       396  22  7.634153E+05 -6.830141E+00  4.331098E+02 -2.670530E+04 -1.485508E+02 -1.005761E+04
       396  23  7.634004E+05 -7.022593E+00  3.991064E+02 -1.777807E+04  4.863812E+01 -7.715260E+03
       396  24  7.634190E+05  1.916192E+00  4.968394E+02 -2.670530E+04  2.462947E+02 -5.375257E+03
       396  25  9.567845E+05  4.712567E+04  4.291407E+04 -2.670512E+04  1.934703E+03 -1.005751E+04
       396  26  9.148254E+05  3.692140E+04  3.375928E+04 -1.779095E+04  2.129801E+03 -7.715346E+03
       396  27  8.729004E+05  2.672562E+04  2.473453E+04 -2.673098E+04  2.325354E+03 -5.375534E+03
       397   1  6.886640E+05 -1.820917E+04 -1.575556E+04 -2.666762E+04  1.730742E+03  4.014401E+03
       397   2  7.304542E+05 -8.042016E+03 -6.303174E+03 -1.775104E+04  1.256888E+03  1.678568E+03
       397   3  7.723087E+05  2.153824E+03  3.462952E+03 -2.663887E+04  7.829028E+02 -6.556557E+02
       397   4  7.634269E+05  2.238676E+00  5.990215E+02 -2.669417E+04 -3.460382E+02  4.014749E+03
       397   5  7.633959E+05 -7.539745E+00  9.548342E+02 -1.779198E+04 -8.185440E+02  1.678952E+03
       397   6  7.634275E+05  1.124215E+01  1.623517E+03 -2.669416E+04 -1.291151E+03 -6.552272E+02
       397   7  8.381950E+05  1.821328E+04  1.695328E+04 -2.672072E+04 -2.423065E+03  4.015096E+03
       397   8  7.963387E+05  8.026866E+03  8.212792E+03 -1.783293E+04 -2.894085E+03  1.679337E+03
       397   9  7.545463E+05 -2.131342E+03 -2.159070E+02 -2.674944E+04 -3.365175E+03 -6.547983E+02
       397  10  6.886640E+05 -1.820919E+04 -1.575560E+04 -2.666762E+04  8.218415E-11 -1.067817E-10
       397  11  7.304542E+05 -8.042019E+03 -6.303183E+03 -1.775104E+04  4.383339E-11 -9.190873E-11
       397  12  7.723087E+05  2.153823E+03  3.462950E+03 -2.663887E+04  8.180822E-11  4.353704E-11
       397  13  7.634269E+05  2.221329E+00  5.989910E+02 -2.669416E+04 -1.194425E-10 -9.801886E-11
       397  14  7.633959E+05 -7.542953E+00  9.548276E+02 -1.779198E+04  5.427563E-12 -1.450286E-10
       397  15  7.634275E+05  1.124125E+01  1.623513E+03 -2.669416E+04 -1.478867E-10  3.011455E-11
       397  16  8.381950E+05  1.821326E+04  1.695324E+04 -2.672071E+04  1.047685E-10 -1.191245E-10
       397  17  7.963387E+05  8.026860E+03  8.212771E+03 -1.783293E+04 -7.073024E-11 -8.391764E-11
       397  18  7.545463E+05 -2.131346E+03 -2.159290E+02 -2.674944E+04  1.044473E-10 -1.583782E-10
       397  19  6.886640E+05 -1.820917E+04 -1.575556E+04 -2.666762E+04 -1.730742E+03 -4.014401E+03
       397  20  7.304542E+05 -8.042016E+03 -6.303174E+03 -1.775104E+04 -1.256888E+03 -1.678568E+03
       397  21  7.723087E+05  2.153824E+03  3.462952E+03 -2.663887E+04 -7.829028E+02  6.556557E+02
       397  22  7.634269E+05  2.238676E+00  5.990215E+02 -2.669417E+04  3.460382E+02 -4.014749E+03
       397  23  7.633959E+05 -7.539745E+00  9.548342E+02 -1.779198E+04  8.185440E+02 -1.678952E+03
       397  24  7.634275E+05  1.124215E+01  1.623517E+03 -2.669416E+04  1.291151E+03  6.552272E+02
       397  25  8.381950E+05  1.821328E+04  1.695328E+04 -2.672072E+04  2.423065E+03 -4.015096E+03
       397  26  7.963387E+05  8.026866E+03  8.212792E+03 -1.783293E+04  2.894085E+03 -1.679337E+03
       397  27  7.545463E+05 -2.131342E+03 -2.159070E+02 -2.674944E+04  3.365175E+03  6.547983E+02
       398   1  8.070445E+05  1.062702E+04  1.183840E+04 -2.658379E+04  4.506212E+02 -2.016336E+03
       398   2  8.487366E+05  2.078300E+04  2.249246E+04 -1.769533E+04 -1.386727E+03 -4.347762E+03
       398   3  8.907599E+05  3.131540E+04  3.443443E+04 -2.662476E+04 -3.223911E+03 -6.661906E+03
       398   4  7.634859E+05 -1.986563E+01  2.123990E+03 -2.669721E+04 -1.629653E+03 -2.015926E+03
       398   5  7.633206E+05 -4.889522E+01  3.671526E+03 -1.778816E+04 -3.451452E+03 -4.347464E+03
       398   6  7.634829E+05  2.961353E+02  6.496615E+03 -2.669714E+04 -5.272966E+03 -6.661711E+03
       398   7  7.199291E+05 -1.066688E+04 -7.590522E+03 -2.681063E+04 -3.709782E+03 -2.015516E+03
       398   8  6.779114E+05 -2.088128E+04 -1.514984E+04 -1.788097E+04 -5.515896E+03 -4.347165E+03
       398   9  6.362211E+05 -3.072421E+04 -2.144217E+04 -2.676950E+04 -7.321606E+03 -6.661516E+03
       398  10  8.070445E+05  1.062702E+04  1.183839E+04 -2.658379E+04  3.783520E-11  8.592558E-12
       398  11  8.487366E+05  2.078298E+04  2.249242E+04 -1.769534E+04  6.368617E-11 -1.127778E-10
       398  12  8.907599E+05  3.131535E+04  3.443433E+04 -2.662478E+04  1.449384E-10 -1.631917E-10
       398  13  7.634859E+05 -1.987071E+01  2.123977E+03 -2.669722E+04  1.614735E-10 -6.045035E-11
       398  14  7.633206E+05 -4.891872E+01  3.671468E+03 -1.778817E+04  6.887126E-11  4.916959E-11
       398  15  7.634829E+05  2.960802E+02  6.496480E+03 -2.669717E+04  6.888738E-11 -1.715112E-11
       398  16  7.199291E+05 -1.066689E+04 -7.590555E+03 -2.681063E+04  1.585275E-10 -5.274977E-11
       398  17  6.779114E+05 -2.088131E+04 -1.514993E+04 -1.788099E+04 -9.088937E-11  3.426800E-12
       398  18  6.362210E+05 -3.072427E+04 -2.144236E+04 -2.676954E+04 -2.057760E-10 -6.228388E-11
       398  19  8.070445E+05  1.062702E+04  1.183840E+04 -2.658379E+04 -4.506212E+02  2.016336E+03
       398  20  8.487366E+05  2.078300E+04  2.249246E+04 -1.769533E+04  1.386727E+03  4.347762E+03
       398  21  8.907599E+05  3.131540E+04  3.443443E+04 -2.662476E+04  3.223911E+03  6.661906E+03
       398  22  7.634859E+05 -1.986563E+01  2.123990E+03 -2.669721E+04  1.629653E+03  2.015926E+03
       398  23  7.633206E+05 -4.889522E+01  3.671526E+03 -1.778816E+04  3.451452E+03  4.347464E+03
       398  24  7.634829E+05  2.961353E+02  6.496615E+03 -2.669714E+04  5.272966E+03  6.661711E+03
       398  25  7.199291E+05 -1.066688E+04 -7.590522E+03 -2.681063E+04  3.709782E+03  2.015516E+03
       398  26  6.779114E+05 -2.088128E+04 -1.514984E+04 -1.788097E+04  5.515896E+03  4.347165E+03
       398  27  6.362211E+05 -3.072421E+04 -2.144217E+04 -2.676950E+04  7.321606E+03  6.661516E+03
       399   1  9.260207E+05  3.919540E+04  4.428649E+04 -2.559570E+04 -4.413221E+03 -8.063730E+03
       399   2  9.667786E+05  4.954504E+04  5.967470E+04 -1.826159E+04 -1.216438E+04 -1.030201E+04
       399   3  1.010108E+06  6.608073E+04  8.165317E+04 -2.880167E+04 -1.991565E+04 -1.211346E+04
       399   4  7.639644E+05 -3.473854E+02  8.473365E+03 -2.670972E+04 -6.592192E+03 -8.063625E+03
       399   5  7.627076E+05 -2.317718E+02  1.466328E+04 -1.777242E+04 -1.396176E+04 -1.030220E+04
       399   6  7.639545E+05  6.005010E+03  2.718037E+04 -2.670954E+04 -2.133093E+04 -1.211391E+04
       399   7  6.019327E+05 -3.989193E+04 -2.734136E+04 -2.782344E+04 -8.770601E+03 -8.063512E+03
       399   8  5.586754E+05 -5.001137E+04 -3.035069E+04 -1.728341E+04 -1.575855E+04 -1.030239E+04
       399   9  5.178580E+05 -5.407478E+04 -2.729617E+04 -2.461825E+04 -2.274564E+04 -1.211437E+04
       399  10  9.260206E+05  3.919533E+04  4.428633E+04 -2.559573E+04  1.654254E-11 -1.465913E-10
       399  11  9.667784E+05  4.954488E+04  5.967422E+04 -1.826169E+04  1.659993E-10  8.233632E-11
       399  12  1.010107E+06  6.608047E+04  8.165215E+04 -2.880186E+04  5.181077E-11  7.715563E-11
       399  13  7.639644E+05 -3.474669E+02  8.473161E+03 -2.670976E+04 -7.706287E-11 -1.092087E-10
       399  14  7.627073E+05 -2.319381E+02  1.466271E+04 -1.777254E+04 -1.592971E-13  3.277736E-11
       399  15  7.639540E+05  6.004730E+03  2.717924E+04 -2.670975E+04 -4.345533E-12  1.713208E-10
       399  16  6.019326E+05 -3.989202E+04 -2.734163E+04 -2.782350E+04  7.650658E-11 -1.070429E-10
       399  17  5.586751E+05 -5.001155E+04 -3.035136E+04 -1.728354E+04 -2.864070E-10  3.026229E-11
       399  18  5.178574E+05 -5.407507E+04 -2.729742E+04 -2.461847E+04 -2.347527E-10  7.893307E-11
       399  19  9.260207E+05  3.919540E+04  4.428649E+04 -2.559570E+04  4.413221E+03  8.063730E+03
       399  20  9.667786E+05  4.954504E+04  5.967470E+04 -1.826159E+04  1.216438E+04  1.030201E+04
       399  21  1.010108E+06  6.608073E+04  8.165317E+04 -2.880167E+04  1.991565E+04  1.211346E+04
       399  22  7.639644E+05 -3.473854E+02  8.473365E+03 -2.670972E+04  6.592192E+03  8.063625E+03
       399  23  7.627076E+05 -2.317718E+02  1.466328E+04 -1.777242E+04  1.396176E+04  1.030220E+04
       399  24  7.639545E+05  6.005010E+03  2.718037E+04 -2.670954E+04  2.133093E+04  1.211391E+04
       399  25  6.019327E+05 -3.989193E+04 -2.734136E+04 -2.782344E+04  8.770601E+03  8.063512E+03
       399  26  5.586754E+05 -5.001137E+04 -3.035069E+04 -1.728341E+04  1.575855E+04  1.030239E+04
       399  27  5.178580E+05 -5.407478E+04 -2.729617E+04 -2.461825E+04  2.274564E+04  1.211437E+04
       400   1  1.051355E+06  6.326974E+04  9.609808E+04 -1.127689E+04 -2.193190E+04 -1.437023E+04
       400   2  1.078203E+06  7.788112E+04  1.303682E+05 -3.493353E+04 -6.128938E+04 -1.435038E+04
       400   3  1.136272E+06  1.967639E+05  2.163093E+05 -7.622528E+04 -1.006531E+05 -4.662121E+03
       400   4  7.700105E+05 -5.336446E+03  3.414158E+04 -2.664940E+04 -2.620049E+04 -1.437049E+04
       400   5  7.551155E+05 -1.140812E+03  5.797385E+04 -1.784585E+04 -5.695024E+04 -1.435175E+04
       400   6  7.699624E+05  1.058593E+05  1.275220E+05 -2.667471E+04 -8.770293E+04 -4.666466E+03
       400   7  4.887404E+05 -7.394704E+04 -2.781958E+04 -4.201487E+04 -3.046716E+04 -1.437054E+04
       400   8  4.321256E+05 -8.016875E+04 -1.442684E+04 -7.671477E+02 -5.261332E+04 -1.435289E+04
       400   9  4.037807E+05  1.495420E+04  3.872706E+04  2.284658E+04 -7.476038E+04 -4.668750E+03
       400  10  1.051354E+06  6.326939E+04  9.609679E+04 -1.127715E+04 -9.302837E-11  9.384711E-11
       400  11  1.078199E+06  7.787990E+04  1.303607E+05 -3.493424E+04  4.953864E-11 -7.585178E-11
       400  12  1.136261E+06  1.967612E+05  2.162902E+05 -7.622566E+04  1.550988E-10 -5.956877E-13
       400  13  7.700097E+05 -5.336852E+03  3.413990E+04 -2.664971E+04 -8.418664E-11  1.303265E-10
       400  14  7.551119E+05 -1.141903E+03  5.796738E+04 -1.784651E+04  1.048389E-10  5.824883E-11
       400  15  7.699541E+05  1.058572E+05  1.275075E+05 -2.667504E+04  3.116606E-10  7.563947E-11
       400  16  4.887394E+05 -7.394751E+04 -2.782171E+04 -4.201523E+04 -2.122928E-11  1.569581E-10
       400  17  4.321226E+05 -8.016971E+04 -1.443243E+04 -7.677558E+02 -3.291759E-10  3.563489E-10
       400  18  4.037747E+05  1.495268E+04  3.871652E+04  2.284630E+04 -2.823910E-10  7.476211E-11
       400  19  1.051355E+06  6.326974E+04  9.609808E+04 -1.127689E+04  2.193190E+04  1.437023E+04
       400  20  1.078203E+06  7.788112E+04  1.303682E+05 -3.493353E+04  6.128938E+04  1.435038E+04
       400  21  1.136272E+06  1.967639E+05  2.163093E+05 -7.622528E+04  1.006531E+05  4.662121E+03
       400  22  7.700105E+05 -5.336446E+03  3.414158E+04 -2.664940E+04  2.620049E+04  1.437049E+04
       400  23  7.551155E+05 -1.140812E+03  5.797385E+04 -1.784585E+04  5.695024E+04  1.435175E+04
       400  24  7.699624E+05  1.058593E+05  1.275220E+05 -2.667471E+04  8.770293E+04  4.666466E+03
       400  25  4.887404E+05 -7.394704E+04 -2.781958E+04 -4.201487E+04  3.046716E+04  1.437054E+04
       400  26  4.321256E+05 -8.016875E+04 -1.442684E+04 -7.671477E+02  5.261332E+04  1.435289E+04
       400  27  4.037807E+05  1.495420E+04  3.872706E+04  2.284658E+04  7.476038E+04  4.668750E+03
       401   1 -2.435076E+05 -1.005011E+05 -9.721307E+04 -2.233858E+04 -1.209114E+04  5.423923E+03
       401   2 -2.051402E+05 -9.317799E+04 -8.322734E+04 -1.559276E+04 -3.416337E+03  1.699238E+04
       401   3 -1.673610E+05 -8.393505E+04 -7.439982E+04 -2.452899E+04  5.262518E+03  1.758058E+04
       401   4  1.756671E+05  3.669651E+03  4.448196E+03 -2.398057E+04  3.051783E+03  5.428228E+03
       401   5  1.751198E+05 -7.482608E+01  2.016653E+03 -1.613939E+04  1.979431E+03  1.699258E+04
       401   6  1.756757E+05 -2.076234E+02  1.196524E+03 -2.397976E+04  9.107258E+02  1.757971E+04
       401   7  5.950027E+05  1.078276E+05  1.060976E+05 -2.562368E+04  1.820490E+04  5.432451E+03
       401   8  5.555144E+05  9.301849E+04  8.725160E+04 -1.668637E+04  7.378471E+03  1.699276E+04
       401   9  5.188224E+05  8.351191E+04  7.678572E+04 -2.343023E+04 -3.443442E+03  1.757884E+04
       401  10 -2.435078E+05 -1.005012E+05 -9.721340E+04 -2.233853E+04 -7.491509E-11  5.064023E-11
       401  11 -2.051403E+05 -9.317831E+04 -8.322790E+04 -1.559271E+04  2.773358E-11 -4.528083E-11
       401  12 -1.673611E+05 -8.393539E+04 -7.440045E+04 -2.452907E+04 -1.101896E-10  4.032018E-11
       401  13  1.756670E+05  3.669617E+03  4.448123E+03 -2.398059E+04 -9.361311E-11 -2.314862E-11
       401  14  1.751197E+05 -7.513723E+01  2.016103E+03 -1.613942E+04  1.063666E-11 -8.115132E-11
       401  15  1.756756E+05 -2.079555E+02  1.195942E+03 -2.397978E+04 -3.859944E-11 -4.763247E-11
       401  16  5.950023E+05  1.078275E+05  1.060970E+05 -2.562376E+04 -2.115136E-10  1.034401E-10
       401  17  5.555143E+05  9.301817E+04  8.725096E+04 -1.668647E+04 -1.848046E-10 -3.444113E-11
       401  18  5.188223E+05  8.351158E+04  7.678512E+04 -2.343018E+04  7.582807E-12 -6.301900E-12
       401  19 -2.435076E+05 -1.005011E+05 -9.721307E+04 -2.233858E+04  1.209114E+04 -5.423923E+03
       401  20 -2.051402E+05 -9.317799E+04 -8.322734E+04 -1.559276E+04  3.416337E+03 -1.699238E+04
       401  21 -1.673610E+05 -8.393505E+04 -7.439982E+04 -2.452899E+04 -5.262518E+03 -1.758058E+04
       401  22  1.756671E+05  3.669651E+03  4.448196E+03 -2.398057E+04 -3.051783E+03 -5.428228E+03
       401  23  1.751198E+05 -7.482608E+01  2.016653E+03 -1.613939E+04 -1.979431E+03 -1.699258E+04
       401  24  1.756757E+05 -2.076234E+02  1.196524E+03 -2.397976E+04 -9.107258E+02 -1.757971E+04
       401  25  5.950027E+05  1.078276E+05  1.060976E+05 -2.562368E+04 -1.820490E+04 -5.432451E+03
       401  26  5.555144E+05  9.301849E+04  8.725160E+04 -1.668637E+04 -7.378471E+03 -1.699276E+04
       401  27  5.188224E+05  8.351191E+04  7.678572E+04 -2.343023E+04  3.443442E+03 -1.757884E+04
       402   1 -1.358837E+05 -7.586933E+04 -6.801111E+04 -2.399944E+04  1.859750E+03  1.534269E+04
       402   2 -9.802875E+04 -6.677694E+04 -5.983670E+04 -1.598199E+04  2.032595E+03  1.383625E+04
       402   3 -6.013353E+04 -5.753870E+04 -5.173267E+04 -2.407689E+04  2.204736E+03  1.184105E+04
       402   4  1.754604E+05  1.920657E+02  9.542138E+02 -2.407559E+04  7.395199E+02  1.534216E+04
       402   5  1.754066E+05 -2.005964E+01  5.207604E+02 -1.601964E+04  4.782695E+02  1.383599E+04
       402   6  1.754664E+05 -1.107083E+01  3.182453E+02 -2.407561E+04  2.162971E+02  1.184115E+04
       402   7  4.868950E+05  7.624692E+04  6.991354E+04 -2.415177E+04 -3.812656E+02  1.534164E+04
       402   8  4.489118E+05  6.673179E+04  6.087363E+04 -1.605731E+04 -1.076733E+03  1.383572E+04
       402   9  4.111183E+05  5.751283E+04  5.236575E+04 -2.407432E+04 -1.772887E+03  1.184125E+04
       402  10 -1.358838E+05 -7.586958E+04 -6.801156E+04 -2.399946E+04  3.726378E-11  6.564368E-11
       402  11 -9.802880E+04 -6.677714E+04 -5.983707E+04 -1.598201E+04 -9.628582E-11  6.113029E-11
       402  12 -6.013357E+04 -5.753885E+04 -5.173294E+04 -2.407692E+04 -1.584484E-10  1.429807E-10
       402  13  1.754603E+05  1.918128E+02  9.537704E+02 -2.407560E+04 -3.051442E-10 -1.492584E-11
       402  14  1.754065E+05 -2.026529E+01  5.204002E+02 -1.601965E+04  1.518235E-10 -7.417549E-11
       402  15  1.754664E+05 -1.122142E+01  3.179817E+02 -2.407561E+04 -1.589416E-10  1.435650E-10
       402  16  4.868950E+05  7.624666E+04  6.991310E+04 -2.415177E+04 -3.780501E-11 -5.005945E-11
       402  17  4.489117E+05  6.673158E+04  6.087327E+04 -1.605729E+04 -2.491951E-10 -1.534268E-10
       402  18  4.111182E+05  5.751267E+04  5.236548E+04 -2.407430E+04  9.604889E-11 -4.154314E-11
       402  19 -1.358837E+05 -7.586933E+04 -6.801111E+04 -2.399944E+04 -1.859750E+03 -1.534269E+04
       402  20 -9.802875E+04 -6.677694E+04 -5.983670E+04 -1.598199E+04 -2.032595E+03 -1.383625E+04
       402  21 -6.013353E+04 -5.753870E+04 -5.173267E+04 -2.407689E+04 -2.204736E+03 -1.184105E+04
       402  22  1.754604E+05  1.920657E+02  9.542138E+02 -2.407559E+04 -7.395199E+02 -1.534216E+04
       402  23  1.754066E+05 -2.005964E+01  5.207604E+02 -1.601964E+04 -4.782695E+02 -1.383599E+04
       402  24  1.754664E+05 -1.107083E+01  3.182453E+02 -2.407561E+04 -2.162971E+02 -1.184115E+04
       402  25  4.868950E+05  7.624692E+04  6.991354E+04 -2.415177E+04  3.812656E+02 -1.534164E+04
       402  26  4.489118E+05  6.673179E+04  6.087363E+04 -1.605731E+04  1.076733E+03 -1.383572E+04
       402  27  4.111183E+05  5.751283E+04  5.236575E+04 -2.407432E+04  1.772887E+03 -1.184125E+04
       403   1 -2.875496E+04 -4.981286E+04 -4.468335E+04 -2.403860E+04  2.008619E+03  1.056552E+04
       403   2  9.048369E+03 -4.061258E+04 -3.651466E+04 -1.598665E+04  1.939187E+03  8.479181E+03
       403   3  4.686619E+04 -3.139281E+04 -2.829617E+04 -2.403854E+04  1.869286E+03  6.371871E+03
       403   4  1.754480E+05  1.245993E+01  2.551545E+02 -2.407375E+04  1.653574E+02  1.056574E+04
       403   5  1.754416E+05  1.281281E+00  1.772767E+02 -1.602196E+04  7.722474E+01  8.479593E+03
       403   6  1.754516E+05  1.292710E+01  1.622266E+02 -2.407375E+04 -1.137246E+01  6.372477E+03
       403   7  3.796899E+05  4.983498E+04  4.519112E+04 -2.410890E+04 -1.678503E+03  1.056597E+04
       403   8  3.418607E+05  4.061329E+04  3.686753E+04 -1.605728E+04 -1.785231E+03  8.480004E+03
       403   9  3.040525E+05  3.141755E+04  2.861962E+04 -2.410896E+04 -1.892416E+03  6.373083E+03
       403  10 -2.875499E+04 -4.981298E+04 -4.468356E+04 -2.403862E+04  1.374402E-10  3.104950E-12
       403  11  9.048346E+03 -4.061266E+04 -3.651481E+04 -1.598667E+04  5.927412E-11  2.622995E-11
       403  12  4.686617E+04 -3.139285E+04 -2.829626E+04 -2.403855E+04  1.999282E-10 -2.924066E-10
       403  13  1.754479E+05  1.234003E+01  2.549447E+02 -2.407375E+04 -1.283054E-10 -1.045053E-12
       403  14  1.754416E+05  1.204062E+00  1.771415E+02 -1.602196E+04  9.334652E-11  2.029702E-10
       403  15  1.754516E+05  1.288349E+01  1.621503E+02 -2.407375E+04 -3.571008E-10  6.176294E-11
       403  16  3.796899E+05  4.983486E+04  4.519090E+04 -2.410889E+04 -3.437782E-12  3.108456E-12
       403  17  3.418607E+05  4.061321E+04  3.686739E+04 -1.605727E+04  1.111103E-11 -2.624792E-10
       403  18  3.040525E+05  3.141751E+04  2.861954E+04 -2.410895E+04  3.268637E-11 -3.161681E-10
       403  19 -2.875496E+04 -4.981286E+04 -4.468335E+04 -2.403860E+04 -2.008619E+03 -1.056552E+04
       403  20  9.048369E+03 -4.061258E+04 -3.651466E+04 -1.598665E+04 -1.939187E+03 -8.479181E+03
       403  21  4.686619E+04 -3.139281E+04 -2.829617E+04 -2.403854E+04 -1.869286E+03 -6.371871E+03
       403  22  1.754480E+05  1.245993E+01  2.551545E+02 -2.407375E+04 -1.653574E+02 -1.056574E+04
       403  23  1.754416E+05  1.281281E+00  1.772767E+02 -1.602196E+04 -7.722474E+01 -8.479593E+03
       403  24  1.754516E+05  1.292710E+01  1.622266E+02 -2.407375E+04  1.137246E+01 -6.372477E+03
       403  25  3.796899E+05  4.983498E+04  4.519112E+04 -2.410890E+04  1.678503E+03 -1.056597E+04
       403  26  3.418607E+05  4.061329E+04  3.686753E+04 -1.605728E+04  1.785231E+03 -8.480004E+03
       403  27  3.040525E+05  3.141755E+04  2.861962E+04 -2.410896E+04  1.892416E+03 -6.373083E+03
       404   1  7.821470E+04 -2.369636E+04 -2.116113E+04 -2.404107E+04  1.831600E+03  5.140786E+03
       404   2  1.159924E+05 -1.450258E+04 -1.287503E+04 -1.600026E+04  1.715759E+03  3.030660E+03
       404   3  1.537757E+05 -5.295176E+03 -4.513581E+03 -2.404956E+04  1.599748E+03  9.199167E+02
       404   4  1.754507E+05  1.481886E+01  1.720853E+02 -2.407074E+04 -4.217459E+01  5.141468E+03
       404   5  1.754489E+05  8.671447E+00  2.341958E+02 -1.602572E+04 -1.586125E+02  3.031407E+03
       404   6  1.754520E+05  1.647633E+01  3.722663E+02 -2.407074E+04 -2.752135E+02  9.207328E+02
       404   7  2.726955E+05  2.372537E+04  2.150474E+04 -2.410041E+04 -1.916239E+03  5.142151E+03
       404   8  2.349087E+05  1.451969E+04  1.334322E+04 -1.605119E+04 -2.033161E+03  3.032154E+03
       404   9  1.971287E+05  5.328099E+03  5.258097E+03 -2.409192E+04 -2.150240E+03  9.215490E+02
       404  10  7.821469E+04 -2.369639E+04 -2.116118E+04 -2.404108E+04  8.972016E-11 -5.140379E-11
       404  11  1.159924E+05 -1.450259E+04 -1.287505E+04 -1.600026E+04  6.413674E-11  1.095863E-10
       404  12  1.537757E+05 -5.295178E+03 -4.513588E+03 -2.404956E+04  4.087282E-10 -1.292121E-10
       404  13  1.754507E+05  1.479047E+01  1.720357E+02 -2.407074E+04  2.950205E-11 -4.045408E-10
       404  14  1.754489E+05  8.661571E+00  2.341785E+02 -1.602572E+04  1.340186E-10  1.587757E-10
       404  15  1.754520E+05  1.647540E+01  3.722646E+02 -2.407074E+04 -1.453117E-10 -2.244583E-10
       404  16  2.726955E+05  2.372534E+04  2.150468E+04 -2.410040E+04  5.340580E-10 -9.161430E-11
       404  17  2.349087E+05  1.451968E+04  1.334319E+04 -1.605119E+04 -6.727107E-11  3.696391E-11
       404  18  1.971287E+05  5.328096E+03  5.258087E+03 -2.409192E+04 -2.165141E-10 -3.740776E-10
       404  19  7.821470E+04 -2.369636E+04 -2.116113E+04 -2.404107E+04 -1.831600E+03 -5.140786E+03
       404  20  1.159924E+05 -1.450258E+04 -1.287503E+04 -1.600026E+04 -1.715759E+03 -3.030660E+03
       404  21  1.537757E+05 -5.295176E+03 -4.513581E+03 -2.404956E+04 -1.599748E+03 -9.199167E+02
       404  22  1.754507E+05  1.481886E+01  1.720853E+02 -2.407074E+04  4.217459E+01 -5.141468E+03
       404  23  1.754489E+05  8.671447E+00  2.341958E+02 -1.602572E+04  1.586125E+02 -3.031407E+03
       404  24  1.754520E+05  1.647633E+01  3.722663E+02 -2.407074E+04  2.752135E+02 -9.207328E+02
       404  25  2.726955E+05  2.372537E+04  2.150474E+04 -2.410041E+04  1.916239E+03 -5.142151E+03
       404  26  2.349087E+05  1.451969E+04  1.334322E+04 -1.605119E+04  2.033161E+03 -3.032154E+03
       404  27  1.971287E+05  5.328099E+03  5.258097E+03 -2.409192E+04  2.150240E+03 -9.215490E+02
       405   1  1.851238E+05  2.395946E+03  2.717817E+03 -2.405635E+04  1.521779E+03 -3.086982E+02
       405   2  2.228808E+05  1.157927E+04  1.128021E+04 -1.600593E+04  1.114740E+03 -2.419147E+03
       405   3  2.606865E+05  2.079560E+04  2.011229E+04 -2.404484E+04  7.078027E+02 -4.528932E+03
       405   4  1.754614E+05  1.645347E+01  4.807730E+02 -2.407060E+04 -3.531880E+02 -3.078780E+02
       405   5  1.754375E+05  7.942573E-01  8.203560E+02 -1.602589E+04 -7.596734E+02 -2.418383E+03
       405   6  1.754603E+05  1.799149E+01  1.429162E+03 -2.407059E+04 -1.166034E+03 -4.528219E+03
       405   7  1.657990E+05 -2.363044E+03 -1.756264E+03 -2.408485E+04 -2.228126E+03 -3.070576E+02
       405   8  1.279962E+05 -1.157783E+04 -9.639624E+03 -1.604586E+04 -2.633946E+03 -2.417618E+03
       405   9  9.024086E+04 -2.076010E+04 -1.725439E+04 -2.409635E+04 -3.039616E+03 -4.527505E+03
       405  10  1.851238E+05  2.395945E+03  2.717813E+03 -2.405635E+04  3.821133E-11  1.448134E-10
       405  11  2.228808E+05  1.157926E+04  1.128020E+04 -1.600592E+04 -2.168383E-10  5.503136E-10
       405  12  2.606865E+05  2.079558E+04  2.011225E+04 -2.404483E+04  6.068126E-10 -3.661044E-10
       405  13  1.754614E+05  1.645333E+01  4.807726E+02 -2.407060E+04  2.074413E-12 -9.498378E-11
       405  14  1.754375E+05  7.878215E-01  8.203439E+02 -1.602590E+04 -1.871933E-10 -2.088085E-10
       405  15  1.754603E+05  1.796911E+01  1.429121E+03 -2.407060E+04 -3.115173E-10  2.729936E-11
       405  16  1.657990E+05 -2.363045E+03 -1.756274E+03 -2.408485E+04  3.478492E-10 -1.226584E-10
       405  17  1.279962E+05 -1.157784E+04 -9.639648E+03 -1.604587E+04 -1.226289E-10 -1.483156E-10
       405  18  9.024085E+04 -2.076012E+04 -1.725445E+04 -2.409636E+04 -5.035106E-10  2.079137E-11
       405  19  1.851238E+05  2.395946E+03  2.717817E+03 -2.405635E+04 -1.521779E+03  3.086982E+02
       405  20  2.228808E+05  1.157927E+04  1.128021E+04 -1.600593E+04 -1.114740E+03  2.419147E+03
       405  21  2.606865E+05  2.079560E+04  2.011229E+04 -2.404484E+04 -7.078027E+02  4.528932E+03
       405  22  1.754614E+05  1.645347E+01  4.807730E+02 -2.407060E+04  3.531880E+02  3.078780E+02
       405  23  1.754375E+05  7.942573E-01  8.203560E+02 -1.602589E+04  7.596734E+02  2.418383E+03
       405  24  1.754603E+05  1.799149E+01  1.429162E+03 -2.407059E+04  1.166034E+03  4.528219E+03
       405  25  1.657990E+05 -2.363044E+03 -1.756264E+03 -2.408485E+04  2.228126E+03  3.070576E+02
       405  26  1.279962E+05 -1.157783E+04 -9.639624E+03 -1.604586E+04  2.633946E+03  2.417618E+03
       405  27  9.024086E+04 -2.076010E+04 -1.725439E+04 -2.409635E+04  3.039616E+03  4.527505E+03
       406   1  2.920926E+05  2.846097E+04  2.768717E+04 -2.399904E+04  4.155501E+02 -5.759615E+03
       406   2  3.297569E+05  3.763530E+04  3.730319E+04 -1.596701E+04 -1.222673E+03 -7.865976E+03
       406   3  3.677186E+05  4.715292E+04  4.807012E+04 -2.403612E+04 -2.860567E+03 -9.951977E+03
       406   4  1.755136E+05 -9.996802E+00  1.879911E+03 -2.407328E+04 -1.464984E+03 -5.758969E+03
       406   5  1.753653E+05 -4.183137E+01  3.264291E+03 -1.602254E+04 -3.084804E+03 -7.865512E+03
       406   6  1.755100E+05  2.666157E+02  5.787098E+03 -2.407318E+04 -4.704197E+03 -9.951687E+03
       406   7  5.894720E+04 -2.848188E+04 -2.392818E+04 -2.414751E+04 -3.345168E+03 -5.758323E+03
       406   8  2.099590E+04 -3.772056E+04 -3.077606E+04 -1.607805E+04 -4.946477E+03 -7.865047E+03
       406   9 -1.666409E+04 -4.662216E+04 -3.649817E+04 -2.411021E+04 -6.547264E+03 -9.951396E+03
       406  10  2.920926E+05  2.846093E+04  2.768711E+04 -2.399904E+04  1.848416E-10 -4.168998E-10
       406  11  3.297569E+05  3.763523E+04  3.730308E+04 -1.596702E+04 -1.076575E-10  6.597423E-11
       406  12  3.677186E+05  4.715281E+04  4.806992E+04 -2.403614E+04  8.882323E-11  2.539352E-10
       406  13  1.755135E+05 -1.003300E+01  1.879845E+03 -2.407329E+04 -3.371003E-11  1.723428E-11
       406  14  1.753652E+05 -4.190037E+01  3.264157E+03 -1.602256E+04 -2.521101E-11 -1.204034E-10
       406  15  1.755099E+05  2.665034E+02  5.786870E+03 -2.407321E+04 -2.353514E-10  5.773996E-11
       406  16  5.894718E+04 -2.848192E+04 -2.392826E+04 -2.414753E+04  3.526495E-11  3.749569E-11
       406  17  2.099586E+04 -3.772063E+04 -3.077623E+04 -1.607808E+04  6.364896E-11  4.083958E-10
       406  18 -1.666417E+04 -4.662228E+04 -3.649844E+04 -2.411027E+04  2.577452E-10  1.349944E-10
       406  19  2.920926E+05  2.846097E+04  2.768717E+04 -2.399904E+04 -4.155501E+02  5.759615E+03
       406  20  3.297569E+05  3.763530E+04  3.730319E+04 -1.596701E+04  1.222673E+03  7.865976E+03
       406  21  3.677186E+05  4.715292E+04  4.807012E+04 -2.403612E+04  2.860567E+03  9.951977E+03
       406  22  1.755136E+05 -9.996802E+00  1.879911E+03 -2.407328E+04  1.464984E+03  5.758969E+03
       406  23  1.753653E+05 -4.183137E+01  3.264291E+03 -1.602254E+04  3.084804E+03  7.865512E+03
       406  24  1.755100E+05  2.666157E+02  5.787098E+03 -2.407318E+04  4.704197E+03  9.951687E+03
       406  25  5.894720E+04 -2.848188E+04 -2.392818E+04 -2.414751E+04  3.345168E+03  5.758323E+03
       406  26  2.099590E+04 -3.772056E+04 -3.077606E+04 -1.607805E+04  4.946477E+03  7.865047E+03
       406  27 -1.666409E+04 -4.662216E+04 -3.649817E+04 -2.411021E+04  6.547264E+03  9.951396E+03
       407   1  3.995526E+05  5.427790E+04  5.694479E+04 -2.310884E+04 -3.894466E+03 -1.122563E+04
       407   2  4.362723E+05  6.360211E+04  7.076638E+04 -1.647876E+04 -1.088661E+04 -1.322236E+04
       407   3  4.753081E+05  7.846648E+04  9.052719E+04 -2.595709E+04 -1.787842E+04 -1.474488E+04
       407   4  1.759404E+05 -3.079710E+02  7.550982E+03 -2.407506E+04 -5.879007E+03 -1.122544E+04
       407   5  1.748156E+05 -2.101241E+02  1.307083E+04 -1.602030E+04 -1.244734E+04 -1.322255E+04
       407   6  1.759337E+05  5.356037E+03  2.423776E+04 -2.407432E+04 -1.901493E+04 -1.474538E+04
       407   7 -4.762512E+04 -5.489720E+04 -4.184589E+04 -2.504092E+04 -7.862841E+03 -1.122525E+04
       407   8 -8.657736E+04 -6.402695E+04 -4.462893E+04 -1.556204E+04 -1.400743E+04 -1.322275E+04
       407   9 -1.233570E+05 -6.776044E+04 -4.205721E+04 -2.219246E+04 -2.015090E+04 -1.474589E+04
       407  10  3.995525E+05  5.427776E+04  5.694453E+04 -2.310887E+04  2.320203E-10  2.669764E-10
       407  11  4.362722E+05  6.360189E+04  7.076583E+04 -1.647887E+04  2.486807E-10 -1.644098E-10
       407  12  4.753077E+05  7.846616E+04  9.052618E+04 -2.595731E+04  1.399247E-11 -1.063648E-10
       407  13  1.759403E+05 -3.081156E+02  7.550680E+03 -2.407511E+04  1.325693E-10  2.278515E-10
       407  14  1.748154E+05 -2.103535E+02  1.307021E+04 -1.602044E+04  1.007150E-10  1.382950E-10
       407  15  1.759333E+05  5.355706E+03  2.423667E+04 -2.407455E+04 -1.212552E-10 -1.211984E-10
       407  16 -4.762522E+04 -5.489735E+04 -4.184625E+04 -2.504099E+04 -1.296074E-10  1.702020E-10
       407  17 -8.657761E+04 -6.402719E+04 -4.462962E+04 -1.556219E+04 -1.947918E-10  8.425667E-11
       407  18 -1.233575E+05 -6.776078E+04 -4.205838E+04 -2.219270E+04 -7.854860E-11 -1.138384E-10
       407  19  3.995526E+05  5.427790E+04  5.694479E+04 -2.310884E+04  3.894466E+03  1.122563E+04
       407  20  4.362723E+05  6.360211E+04  7.076638E+04 -1.647876E+04  1.088661E+04  1.322236E+04
       407  21  4.753081E+05  7.846648E+04  9.052719E+04 -2.595709E+04  1.787842E+04  1.474488E+04
       407  22  1.759404E+05 -3.079710E+02  7.550982E+03 -2.407506E+04  5.879007E+03  1.122544E+04
       407  23  1.748156E+05 -2.101241E+02  1.307083E+04 -1.602030E+04  1.244734E+04  1.322255E+04
       407  24  1.759337E+05  5.356037E+03  2.423776E+04 -2.407432E+04  1.901493E+04  1.474538E+04
       407  25 -4.762512E+04 -5.489720E+04 -4.184589E+04 -2.504092E+04  7.862841E+03  1.122525E+04
       407  26 -8.657736E+04 -6.402695E+04 -4.462893E+04 -1.556204E+04  1.400743E+04  1.322275E+04
       407  27 -1.233570E+05 -6.776044E+04 -4.205721E+04 -2.219246E+04  2.015090E+04  1.474589E+04
       408   1  5.123990E+05  7.600943E+04  1.033771E+05 -1.028741E+04 -1.907869E+04 -1.695451E+04
       408   2  5.363790E+05  8.910782E+04  1.342409E+05 -3.137303E+04 -5.598466E+04 -1.644701E+04
       408   3  5.885488E+05  1.955548E+05  2.124682E+05 -6.817170E+04 -9.289699E+04 -5.275838E+03
       408   4  1.813339E+05 -4.764084E+03  3.044700E+04 -2.398210E+04 -2.335563E+04 -1.695477E+04
       408   5  1.680478E+05 -1.031266E+03  5.170336E+04 -1.613524E+04 -5.077408E+04 -1.644838E+04
       408   6  1.813186E+05  9.443061E+04  1.137534E+05 -2.399892E+04 -7.819587E+04 -5.278907E+03
       408   7 -1.496284E+05 -8.554424E+04 -4.248966E+04 -3.766940E+04 -2.763032E+04 -1.695483E+04
       408   8 -2.001565E+05 -9.117872E+04 -3.084255E+04 -9.065745E+02 -4.556654E+04 -1.644948E+04
       408   9 -2.257555E+05 -6.698292E+03  1.502852E+04  2.014482E+04 -6.350433E+04 -5.279889E+03
       408  10  5.123986E+05  7.600902E+04  1.033759E+05 -1.028767E+04  8.362197E-11 -3.061981E-11
       408  11  5.363755E+05  8.910669E+04  1.342345E+05 -3.137378E+04  2.560630E-10 -1.804939E-11
       408  12  5.885395E+05  1.955525E+05  2.124520E+05 -6.817210E+04  1.380777E-10 -8.453936E-11
       408  13  1.813332E+05 -4.764539E+03  3.044543E+04 -2.398242E+04  4.496211E-11 -4.541531E-11
       408  14  1.680450E+05 -1.032249E+03  5.169801E+04 -1.613591E+04  3.081990E-10  2.832183E-10
       408  15  1.813120E+05  9.442894E+04  1.137419E+05 -2.399925E+04  1.691075E-10 -4.581537E-11
       408  16 -1.496293E+05 -8.554475E+04 -4.249164E+04 -3.766978E+04  8.095110E-11 -1.082970E-10
       408  17 -2.001588E+05 -9.117956E+04 -3.084696E+04 -9.071782E+02 -5.831096E-10  1.496698E-10
       408  18 -2.257599E+05 -6.699405E+03  1.502089E+04  2.014455E+04 -3.966288E-10 -6.319974E-11
       408  19  5.123990E+05  7.600943E+04  1.033771E+05 -1.028741E+04  1.907869E+04  1.695451E+04
       408  20  5.363790E+05  8.910782E+04  1.342409E+05 -3.137303E+04  5.598466E+04  1.644701E+04
       408  21  5.885488E+05  1.955548E+05  2.124682E+05 -6.817170E+04  9.289699E+04  5.275838E+03
       408  22  1.813339E+05 -4.764084E+03  3.044700E+04 -2.398210E+04  2.335563E+04  1.695477E+04
       408  23  1.680478E+05 -1.031266E+03  5.170336E+04 -1.613524E+04  5.077408E+04  1.644838E+04
       408  24  1.813186E+05  9.443061E+04  1.137534E+05 -2.399892E+04  7.819587E+04  5.278907E+03
       408  25 -1.496284E+05 -8.554424E+04 -4.248966E+04 -3.766940E+04  2.763032E+04  1.695483E+04
       408  26 -2.001565E+05 -9.117872E+04 -3.084255E+04 -9.065745E+02  4.556654E+04  1.644948E+04
       408  27 -2.257555E+05 -6.698292E+03  1.502852E+04  2.014482E+04  6.350433E+04  5.279889E+03
       409   1 -1.335023E+06 -1.968023E+05 -2.145928E+05 -7.392482E+04 -9.564844E+04  5.006973E+03
       409   2 -1.276771E+06 -8.461677E+04 -1.324981E+05 -3.463445E+04 -5.775973E+04  1.556013E+04
       409   3 -1.247808E+06 -6.996963E+04 -9.948354E+04 -1.339514E+04 -1.986502E+04  1.569127E+04
       409   4 -9.413134E+05 -9.879893E+04 -1.189360E+05 -2.766714E+04 -8.170806E+04  5.003149E+03
       409   5 -9.274508E+05  1.027801E+03 -5.405567E+04 -1.864939E+04 -5.304488E+04  1.555867E+04
       409   6 -9.412582E+05  4.947233E+03 -3.182179E+04 -2.768515E+04 -2.437895E+04  1.569111E+04
       409   7 -5.474575E+05 -7.988064E+02 -2.328851E+04  1.862000E+04 -6.775884E+04  5.001410E+03
       409   8 -5.780164E+05  8.666500E+04  2.437926E+04 -2.655235E+03 -4.832739E+04  1.555746E+04
       409   9 -6.346201E+05  7.985854E+04  3.583436E+04 -4.198231E+04 -2.889508E+04  1.569115E+04
       409  10 -1.335032E+06 -1.968048E+05 -2.146100E+05 -7.392443E+04  3.810046E-11  1.861848E-11
       409  11 -1.276775E+06 -8.461793E+04 -1.325049E+05 -3.463372E+04  2.852291E-10 -1.869610E-10
       409  12 -1.247808E+06 -6.997000E+04 -9.948474E+04 -1.339489E+04 -5.736436E-10  1.765876E-10
       409  13 -9.413206E+05 -9.880075E+04 -1.189486E+05 -2.766682E+04  8.436352E-12 -1.065425E-10
       409  14 -9.274539E+05  1.026784E+03 -5.406142E+04 -1.864873E+04  7.847465E-10 -4.107223E-10
       409  15 -9.412589E+05  4.946809E+03 -3.182337E+04 -2.768484E+04  1.215218E-10  1.106974E-10
       409  16 -5.474625E+05 -8.000672E+02 -2.329720E+04  1.862027E+04 -3.329711E-10 -1.511171E-10
       409  17 -5.780189E+05  8.666411E+04  2.437441E+04 -2.654629E+03  1.870430E-10 -2.718133E-10
       409  18 -6.346211E+05  7.985806E+04  3.583233E+04 -4.198194E+04  5.851512E-10  1.271790E-10
       409  19 -1.335023E+06 -1.968023E+05 -2.145928E+05 -7.392482E+04  9.564844E+04 -5.006973E+03
       409  20 -1.276771E+06 -8.461677E+04 -1.324981E+05 -3.463445E+04  5.775973E+04 -1.556013E+04
       409  21 -1.247808E+06 -6.996963E+04 -9.948354E+04 -1.339514E+04  1.986502E+04 -1.569127E+04
       409  22 -9.413134E+05 -9.879893E+04 -1.189360E+05 -2.766714E+04  8.170806E+04 -5.003149E+03
       409  23 -9.274508E+05  1.027801E+03 -5.405567E+04 -1.864939E+04  5.304488E+04 -1.555867E+04
       409  24 -9.412582E+05  4.947233E+03 -3.182179E+04 -2.768515E+04  2.437895E+04 -1.569111E+04
       409  25 -5.474575E+05 -7.988064E+02 -2.328851E+04  1.862000E+04  6.775884E+04 -5.001410E+03
       409  26 -5.780164E+05  8.666500E+04  2.437926E+04 -2.655235E+03  4.832739E+04 -1.555746E+04
       409  27 -6.346201E+05  7.985854E+04  3.583436E+04 -4.198231E+04  2.889508E+04 -1.569115E+04
       410   1 -1.205632E+06 -7.167773E+04 -8.522271E+04 -2.977789E+04 -1.838942E+04  1.331493E+04
       410   2 -1.160506E+06 -5.505086E+04 -6.363043E+04 -1.891162E+04 -1.110893E+04  1.143958E+04
       410   3 -1.117760E+06 -4.420714E+04 -4.822731E+04 -2.674840E+04 -3.828685E+03  9.092454E+03
       410   4 -9.356256E+05 -5.633710E+03 -2.533549E+04 -2.782525E+04 -1.984836E+04  1.331451E+04
       410   5 -9.344661E+05  2.034189E+02 -1.366579E+04 -1.847357E+04 -1.298350E+04  1.143949E+04
       410   6 -9.356141E+05  3.313972E+02 -7.893882E+03 -2.782462E+04 -6.119377E+03  9.092727E+03
       410   7 -6.655505E+05  6.040539E+04  3.454721E+04 -2.587174E+04 -2.130793E+04  1.331409E+04
       410   8 -7.083781E+05  5.545425E+04  3.629570E+04 -1.803537E+04 -1.485874E+04  1.143939E+04
       410   9 -7.534370E+05  4.486770E+04  3.243751E+04 -2.890115E+04 -8.410734E+03  9.093007E+03
       410  10 -1.205633E+06 -7.167801E+04 -8.522368E+04 -2.977770E+04  3.340244E-10  1.917657E-10
       410  11 -1.160506E+06 -5.505103E+04 -6.363091E+04 -1.891152E+04 -4.542913E-10 -3.454150E-11
       410  12 -1.117760E+06 -4.420723E+04 -4.822749E+04 -2.674838E+04 -8.403295E-11 -1.132806E-10
       410  13 -9.356260E+05 -5.634006E+03 -2.533656E+04 -2.782504E+04  2.018227E-10  2.529854E-10
       410  14 -9.344664E+05  2.032331E+02 -1.366636E+04 -1.847345E+04  9.542843E-11  6.152445E-11
       410  15 -9.356142E+05  3.312984E+02 -7.894108E+03 -2.782458E+04  1.373784E-10 -4.616631E-11
       410  16 -6.655511E+05  6.040508E+04  3.454603E+04 -2.587151E+04 -2.621807E-10  2.575391E-10
       410  17 -7.083784E+05  5.545405E+04  3.629504E+04 -1.803523E+04  2.041787E-10  8.712510E-11
       410  18 -7.534371E+05  4.486759E+04  3.243722E+04 -2.890109E+04  1.266104E-10 -1.317484E-10
       410  19 -1.205632E+06 -7.167773E+04 -8.522271E+04 -2.977789E+04  1.838942E+04 -1.331493E+04
       410  20 -1.160506E+06 -5.505086E+04 -6.363043E+04 -1.891162E+04  1.110893E+04 -1.143958E+04
       410  21 -1.117760E+06 -4.420714E+04 -4.822731E+04 -2.674840E+04  3.828685E+03 -9.092454E+03
       410  22 -9.356256E+05 -5.633710E+03 -2.533549E+04 -2.782525E+04  1.984836E+04 -1.331451E+04
       410  23 -9.344661E+05  2.034189E+02 -1.366579E+04 -1.847357E+04  1.298350E+04 -1.143949E+04
       410  24 -9.356141E+05  3.313972E+02 -7.893882E+03 -2.782462E+04  6.119377E+03 -9.092727E+03
       410  25 -6.655505E+05  6.040539E+04  3.454721E+04 -2.587174E+04  2.130793E+04 -1.331409E+04
       410  26 -7.083781E+05  5.545425E+04  3.629570E+04 -1.803537E+04  1.485874E+04 -1.143939E+04
       410  27 -7.534370E+05  4.486770E+04  3.243751E+04 -2.890115E+04  8.410734E+03 -9.093007E+03
       411   1 -1.080706E+06 -3.581375E+04 -3.808030E+04 -2.775304E+04 -2.734650E+03  7.614193E+03
       411   2 -1.036367E+06 -2.471316E+04 -2.580809E+04 -1.832501E+04 -1.014149E+03  5.169545E+03
       411   3 -9.923412E+05 -1.395430E+04 -1.474452E+04 -2.772950E+04  7.061702E+02  2.701225E+03
       411   4 -9.351683E+05 -2.683045E+02 -6.056033E+03 -2.785361E+04 -4.892503E+03  7.614567E+03
       411   5 -9.350102E+05  5.640986E+01 -3.429308E+03 -1.843740E+04 -3.192705E+03  5.170052E+03
       411   6 -9.351646E+05  4.304138E+01 -1.996645E+03 -2.785351E+04 -1.493209E+03  2.701874E+03
       411   7 -7.896110E+05  3.527572E+04  2.596695E+04 -2.795421E+04 -7.050856E+03  7.614942E+03
       411   8 -8.336442E+05  2.482529E+04  1.894886E+04 -1.854981E+04 -5.371612E+03  5.170560E+03
       411   9 -8.779850E+05  1.404016E+04  1.075104E+04 -2.797753E+04 -3.692789E+03  2.702524E+03
       411  10 -1.080706E+06 -3.581381E+04 -3.808042E+04 -2.775302E+04 -6.100772E-10 -2.834957E-10
       411  11 -1.036367E+06 -2.471319E+04 -2.580814E+04 -1.832501E+04 -5.761453E-11 -8.908000E-11
       411  12 -9.923412E+05 -1.395431E+04 -1.474453E+04 -2.772950E+04  4.941847E-10  5.011522E-11
       411  13 -9.351684E+05 -2.683732E+02 -6.056187E+03 -2.785358E+04  1.429708E-10 -3.342260E-11
       411  14 -9.350102E+05  5.637843E+01 -3.429378E+03 -1.843739E+04 -1.100912E-10 -3.659888E-11
       411  15 -9.351646E+05  4.303294E+01 -1.996663E+03 -2.785351E+04 -2.133698E-10 -2.681341E-10
       411  16 -7.896111E+05  3.527564E+04  2.596675E+04 -2.795417E+04  6.517162E-10  1.268983E-10
       411  17 -8.336442E+05  2.482525E+04  1.894875E+04 -1.854978E+04  1.622923E-10  1.691743E-10
       411  18 -8.779850E+05  1.404015E+04  1.075100E+04 -2.797753E+04 -4.138486E-11  8.573740E-11
       411  19 -1.080706E+06 -3.581375E+04 -3.808030E+04 -2.775304E+04  2.734650E+03 -7.614193E+03
       411  20 -1.036367E+06 -2.471316E+04 -2.580809E+04 -1.832501E+04  1.014149E+03 -5.169545E+03
       411  21 -9.923412E+05 -1.395430E+04 -1.474452E+04 -2.772950E+04 -7.061702E+02 -2.701225E+03
       411  22 -9.351683E+05 -2.683045E+02 -6.056033E+03 -2.785361E+04  4.892503E+03 -7.614567E+03
       411  23 -9.350102E+05  5.640986E+01 -3.429308E+03 -1.843740E+04  3.192705E+03 -5.170052E+03
       411  24 -9.351646E+05  4.304138E+01 -1.996645E+03 -2.785351E+04  1.493209E+03 -2.701874E+03
       411  25 -7.896110E+05  3.527572E+04  2.596695E+04 -2.795421E+04  7.050856E+03 -7.614942E+03
       411  26 -8.336442E+05  2.482529E+04  1.894886E+04 -1.854981E+04  5.371612E+03 -5.170560E+03
       411  27 -8.779850E+05  1.404016E+04  1.075104E+04 -2.797753E+04  3.692789E+03 -2.702524E+03
       412   1 -9.555565E+05 -4.957058E+03 -5.927377E+03 -2.780434E+04  1.019055E+03  1.258691E+03
       412   2 -9.112746E+05  5.839020E+03  4.315017E+03 -1.840346E+04  1.482385E+03 -1.215362E+03
       412   3 -8.670666E+05  1.662043E+04  1.424871E+04 -2.786034E+04  1.945826E+03 -3.689572E+03
       412   4 -9.351113E+05  1.413622E+01 -1.538502E+03 -2.785920E+04 -1.175218E+03  1.259371E+03
       412   5 -9.350736E+05  2.360577E+01 -9.385181E+02 -1.843029E+04 -7.120800E+02 -1.214717E+03
       412   6 -9.351117E+05  1.856664E+01 -6.470048E+02 -2.785919E+04 -2.488646E+02 -3.688954E+03
       412   7 -9.146657E+05  4.985306E+03  2.850366E+03 -2.791406E+04 -3.369562E+03  1.260051E+03
       412   8 -9.588721E+05 -5.791844E+03 -6.192070E+03 -1.845713E+04 -2.906462E+03 -1.214072E+03
       412   9 -1.003152E+06 -1.658360E+04 -1.554298E+04 -2.785804E+04 -2.443317E+03 -3.688337E+03
       412  10 -9.555565E+05 -4.957060E+03 -5.927382E+03 -2.780434E+04 -7.064051E-11  3.314010E-11
       412  11 -9.112746E+05  5.839018E+03  4.315010E+03 -1.840346E+04  3.727644E-11  3.837596E-10
       412  12 -8.670666E+05  1.662041E+04  1.424868E+04 -2.786033E+04 -3.184750E-11  2.089666E-10
       412  13 -9.351113E+05  1.413414E+01 -1.538508E+03 -2.785920E+04  3.716003E-10  1.963613E-10
       412  14 -9.350736E+05  2.360405E+01 -9.385218E+02 -1.843029E+04 -1.682436E-10 -1.284879E-10
       412  15 -9.351117E+05  1.855202E+01 -6.470305E+02 -2.785919E+04 -3.912800E-10 -1.555423E-11
       412  16 -9.146657E+05  4.985301E+03  2.850342E+03 -2.791406E+04  7.980799E-11 -4.033119E-10
       412  17 -9.588722E+05 -5.791848E+03 -6.192089E+03 -1.845713E+04  3.515410E-10  4.314265E-11
       412  18 -1.003152E+06 -1.658362E+04 -1.554302E+04 -2.785805E+04 -8.231086E-12 -8.537078E-11
       412  19 -9.555565E+05 -4.957058E+03 -5.927377E+03 -2.780434E+04 -1.019055E+03 -1.258691E+03
       412  20 -9.112746E+05  5.839020E+03  4.315017E+03 -1.840346E+04 -1.482385E+03  1.215362E+03
       412  21 -8.670666E+05  1.662043E+04  1.424871E+04 -2.786034E+04 -1.945826E+03  3.689572E+03
       412  22 -9.351113E+05  1.413622E+01 -1.538502E+03 -2.785920E+04  1.175218E+03 -1.259371E+03
       412  23 -9.350736E+05  2.360577E+01 -9.385181E+02 -1.843029E+04  7.120800E+02  1.214717E+03
       412  24 -9.351117E+05  1.856664E+01 -6.470048E+02 -2.785919E+04  2.488646E+02  3.688954E+03
       412  25 -9.146657E+05  4.985306E+03  2.850366E+03 -2.791406E+04  3.369562E+03 -1.260051E+03
       412  26 -9.588721E+05 -5.791844E+03 -6.192070E+03 -1.845713E+04  2.906462E+03  1.214072E+03
       412  27 -1.003152E+06 -1.658360E+04 -1.554298E+04 -2.785804E+04  2.443317E+03  3.688337E+03
       413   1 -8.303547E+05  2.563849E+04  2.266816E+04 -2.786179E+04  2.054570E+03 -5.129056E+03
       413   2 -7.862208E+05  3.638510E+04  3.227798E+04 -1.847384E+04  2.336661E+03 -7.598034E+03
       413   3 -7.421236E+05  4.712764E+04  4.170235E+04 -2.788812E+04  2.619250E+03 -1.006143E+04
       413   4 -9.351049E+05  1.815503E+01 -5.802665E+02 -2.784690E+04 -1.381762E+02 -5.128510E+03
       413   5 -9.350875E+05  1.124985E+01 -5.820299E+02 -1.844565E+04  1.487561E+02 -7.597688E+03
       413   6 -9.351088E+05 -2.888083E-01 -7.724032E+02 -2.784691E+04  4.361669E+02 -1.006128E+04
       413   7 -1.039845E+06 -2.560292E+04 -2.382935E+04 -2.783201E+04 -2.330557E+03 -5.127965E+03
       413   8 -1.083933E+06 -3.636409E+04 -3.344339E+04 -1.841747E+04 -2.038630E+03 -7.597342E+03
       413   9 -1.128059E+06 -4.713072E+04 -4.324942E+04 -2.780570E+04 -1.746245E+03 -1.006113E+04
       413  10 -8.303547E+05  2.563846E+04  2.266810E+04 -2.786178E+04 -8.003603E-11 -5.137862E-12
       413  11 -7.862209E+05  3.638504E+04  3.227786E+04 -1.847383E+04 -4.605112E-10 -1.743766E-10
       413  12 -7.421237E+05  4.712753E+04  4.170215E+04 -2.788810E+04 -1.384770E-10 -3.609152E-10
       413  13 -9.351049E+05  1.812679E+01 -5.803160E+02 -2.784690E+04  4.052907E-10  3.993623E-10
       413  14 -9.350875E+05  1.118789E+01 -5.821384E+02 -1.844565E+04  4.190565E-10  2.009376E-10
       413  15 -9.351088E+05 -3.975141E-01 -7.725937E+02 -2.784690E+04 -5.912333E-10 -4.416312E-10
       413  16 -1.039845E+06 -2.560295E+04 -2.382941E+04 -2.783202E+04  3.760293E-10  2.387937E-10
       413  17 -1.083933E+06 -3.636415E+04 -3.344350E+04 -1.841748E+04  6.825737E-10  1.794504E-10
       413  18 -1.128059E+06 -4.713083E+04 -4.324961E+04 -2.780572E+04 -1.212417E-10 -2.760559E-11
       413  19 -8.303547E+05  2.563849E+04  2.266816E+04 -2.786179E+04 -2.054570E+03  5.129056E+03
       413  20 -7.862208E+05  3.638510E+04  3.227798E+04 -1.847384E+04 -2.336661E+03  7.598034E+03
       413  21 -7.421236E+05  4.712764E+04  4.170235E+04 -2.788812E+04 -2.619250E+03  1.006143E+04
       413  22 -9.351049E+05  1.815503E+01 -5.802665E+02 -2.784690E+04  1.381762E+02  5.128510E+03
       413  23 -9.350875E+05  1.124985E+01 -5.820299E+02 -1.844565E+04 -1.487561E+02  7.597688E+03
       413  24 -9.351088E+05 -2.888083E-01 -7.724032E+02 -2.784691E+04 -4.361669E+02  1.006128E+04
       413  25 -1.039845E+06 -2.560292E+04 -2.382935E+04 -2.783201E+04  2.330557E+03  5.127965E+03
       413  26 -1.083933E+06 -3.636409E+04 -3.344339E+04 -1.841747E+04  2.038630E+03  7.597342E+03
       413  27 -1.128059E+06 -4.713072E+04 -4.324942E+04 -2.780570E+04  1.746245E+03  1.006113E+04
       414   1 -7.056218E+05  5.611140E+04  4.983447E+04 -2.788249E+04  2.777665E+03 -1.149584E+04
       414   2 -6.617749E+05  6.678141E+04  5.877705E+04 -1.852657E+04  3.512663E+03 -1.394150E+04
       414   3 -6.180290E+05  7.730836E+04  6.721102E+04 -2.782982E+04  4.248594E+03 -1.635002E+04
       414   4 -9.351280E+05  1.186338E+01 -9.484363E+02 -2.781517E+04  5.910963E+02 -1.149586E+04
       414   5 -9.350770E+05  7.548412E+00 -1.548987E+03 -1.848534E+04  1.358669E+03 -1.394188E+04
       414   6 -9.351354E+05 -1.456024E+02 -2.681094E+03 -2.781518E+04  2.127125E+03 -1.635074E+04
       414   7 -1.164585E+06 -5.609122E+04 -5.173459E+04 -2.774787E+04 -1.594673E+03 -1.149588E+04
       414   8 -1.208309E+06 -6.677134E+04 -6.187961E+04 -1.844412E+04 -7.943867E+02 -1.394226E+04
       414   9 -1.252148E+06 -7.760633E+04 -7.257936E+04 -2.780054E+04  6.728008E+00 -1.635147E+04
       414  10 -7.056219E+05  5.611125E+04  4.983421E+04 -2.788246E+04  6.336581E-12 -5.028071E-11
       414  11 -6.617749E+05  6.678119E+04  5.877666E+04 -1.852653E+04 -1.496486E-10  4.786576E-11
       414  12 -6.180291E+05  7.730807E+04  6.721048E+04 -2.782977E+04  2.960794E-10 -1.404117E-10
       414  13 -9.351280E+05  1.172143E+01 -9.486852E+02 -2.781516E+04 -4.472224E-10 -1.870522E-10
       414  14 -9.350771E+05  7.339282E+00 -1.549356E+03 -1.848532E+04 -4.929313E-10  1.092614E-10
       414  15 -9.351355E+05 -1.458906E+02 -2.681605E+03 -2.781515E+04  2.517910E-10 -2.479102E-10
       414  16 -1.164585E+06 -5.609137E+04 -5.173484E+04 -2.774788E+04  5.585626E-10  2.314936E-10
       414  17 -1.208309E+06 -6.677155E+04 -6.187998E+04 -1.844413E+04 -5.271296E-10  3.378357E-10
       414  18 -1.252148E+06 -7.760662E+04 -7.257987E+04 -2.780054E+04 -5.444144E-10  2.150833E-11
       414  19 -7.056218E+05  5.611140E+04  4.983447E+04 -2.788249E+04 -2.777665E+03  1.149584E+04
       414  20 -6.617749E+05  6.678141E+04  5.877705E+04 -1.852657E+04 -3.512663E+03  1.394150E+04
       414  21 -6.180290E+05  7.730836E+04  6.721102E+04 -2.782982E+04 -4.248594E+03  1.635002E+04
       414  22 -9.351280E+05  1.186338E+01 -9.484363E+02 -2.781517E+04 -5.910963E+02  1.149586E+04
       414  23 -9.350770E+05  7.548412E+00 -1.548987E+03 -1.848534E+04 -1.358669E+03  1.394188E+04
       414  24 -9.351354E+05 -1.456024E+02 -2.681094E+03 -2.781518E+04 -2.127125E+03  1.635074E+04
       414  25 -1.164585E+06 -5.609122E+04 -5.173459E+04 -2.774787E+04  1.594673E+03  1.149588E+04
       414  26 -1.208309E+06 -6.677134E+04 -6.187961E+04 -1.844412E+04  7.943867E+02  1.394226E+04
       414  27 -1.252148E+06 -7.760633E+04 -7.257936E+04 -2.780054E+04 -6.728008E+00  1.635147E+04
       415   1 -5.820307E+05  8.645254E+04  7.461127E+04 -2.818631E+04  4.974981E+03 -1.782762E+04
       415   2 -5.383174E+05  9.694209E+04  8.158842E+04 -1.826761E+04  7.406376E+03 -2.009162E+04
       415   3 -4.954482E+05  1.050271E+05  8.639646E+04 -2.676307E+04  9.838834E+03 -2.169080E+04
       415   4 -9.353274E+05  1.162308E+02 -3.479803E+03 -2.776100E+04  2.669426E+03 -1.782863E+04
       415   5 -9.348592E+05  4.975616E+01 -6.010849E+03 -1.855316E+04  5.689058E+03 -2.009302E+04
       415   6 -9.353399E+05 -2.524366E+03 -1.112098E+04 -2.776026E+04  8.709584E+03 -2.169238E+04
       415   7 -1.288507E+06 -8.622849E+04 -8.157856E+04 -2.733593E+04  3.651691E+02 -1.782965E+04
       415   8 -1.331254E+06 -9.685317E+04 -9.361981E+04 -1.883853E+04  3.972823E+03 -2.009441E+04
       415   9 -1.375051E+06 -1.100889E+05 -1.086504E+05 -2.875675E+04  7.581124E+03 -2.169395E+04
       415  10 -5.820308E+05  8.645220E+04  7.461062E+04 -2.818624E+04 -1.543148E-10 -1.567306E-10
       415  11 -5.383176E+05  9.694164E+04  8.158756E+04 -1.826749E+04 -3.567745E-10 -2.848770E-10
       415  12 -4.954484E+05  1.050265E+05  8.639540E+04 -2.676290E+04 -7.160104E-10  3.416712E-10
       415  13 -9.353275E+05  1.158877E+02 -3.480414E+03 -2.776096E+04  3.369922E-11 -2.700510E-10
       415  14 -9.348593E+05  4.931411E+01 -6.011668E+03 -1.855307E+04 -2.346244E-10 -6.685483E-11
       415  15 -9.353401E+05 -2.524892E+03 -1.112201E+04 -2.776011E+04  5.142301E-10  4.224067E-10
       415  16 -1.288507E+06 -8.622884E+04 -8.157916E+04 -2.733592E+04 -3.717700E-10 -2.578299E-10
       415  17 -1.331254E+06 -9.685361E+04 -9.362060E+04 -1.883847E+04  2.063121E-10 -5.841310E-11
       415  18 -1.375051E+06 -1.100894E+05 -1.086514E+05 -2.875662E+04  5.578819E-10  9.049337E-10
       415  19 -5.820307E+05  8.645254E+04  7.461127E+04 -2.818631E+04 -4.974981E+03  1.782762E+04
       415  20 -5.383174E+05  9.694209E+04  8.158842E+04 -1.826761E+04 -7.406376E+03  2.009162E+04
       415  21 -4.954482E+05  1.050271E+05  8.639646E+04 -2.676307E+04 -9.838834E+03  2.169080E+04
       415  22 -9.353274E+05  1.162308E+02 -3.479803E+03 -2.776100E+04 -2.669426E+03  1.782863E+04
       415  23 -9.348592E+05  4.975616E+01 -6.010849E+03 -1.855316E+04 -5.689058E+03  2.009302E+04
       415  24 -9.353399E+05 -2.524366E+03 -1.112098E+04 -2.776026E+04 -8.709584E+03  2.169238E+04
       415  25 -1.288507E+06 -8.622849E+04 -8.157856E+04 -2.733593E+04 -3.651691E+02  1.782965E+04
       415  26 -1.331254E+06 -9.685317E+04 -9.361981E+04 -1.883853E+04 -3.972823E+03  2.009441E+04
       415  27 -1.375051E+06 -1.100889E+05 -1.086504E+05 -2.875675E+04 -7.581124E+03  2.169395E+04
       416   1 -4.619014E+05  1.183462E+05  9.097778E+04 -3.365297E+04  1.612143E+04 -2.442489E+04
       416   2 -4.143125E+05  1.271799E+05  9.232100E+04 -1.154430E+04  1.571738E+04 -2.320736E+04
       416   3 -3.764834E+05  9.623952E+04  8.401255E+04 -6.908008E+03  1.530058E+04 -7.349864E+03
       416   4 -9.378057E+05  2.112114E+03 -1.396347E+04 -2.755978E+04  1.069886E+04 -2.442873E+04
       416   5 -9.318085E+05  3.840353E+02 -2.372799E+04 -1.880681E+04  2.328147E+04 -2.320385E+04
       416   6 -9.378391E+05 -4.339317E+04 -5.217841E+04 -2.752737E+04  3.585087E+04 -7.333505E+03
       416   7 -1.413498E+06 -1.141371E+05 -1.189185E+05 -2.147134E+04  5.280395E+03 -2.443268E+04
       416   8 -1.449055E+06 -1.264299E+05 -1.397937E+05 -2.606324E+04  3.083930E+04 -2.320051E+04
       416   9 -1.498905E+06 -1.830472E+05 -1.883903E+05 -4.812808E+04  5.638260E+04 -7.318505E+03
       416  10 -4.619019E+05  1.183455E+05  9.097617E+04 -3.365265E+04  2.481690E-10  5.672809E-10
       416  11 -4.143129E+05  1.271793E+05  9.231953E+04 -1.154400E+04  2.177298E-10  2.702058E-10
       416  12 -3.764837E+05  9.623940E+04  8.401201E+04 -6.907917E+03  1.425228E-10  4.640912E-10
       416  13 -9.378060E+05  2.111442E+03 -1.396481E+04 -2.755957E+04  6.451831E-10 -2.843792E-10
       416  14 -9.318093E+05  3.833117E+02 -2.373002E+04 -1.880638E+04 -2.003098E-10  4.049019E-10
       416  15 -9.378405E+05 -4.339357E+04 -5.218093E+04 -2.752716E+04  9.204664E-10 -3.125398E-10
       416  16 -1.413498E+06 -1.141377E+05 -1.189197E+05 -2.147124E+04 -6.866613E-10  7.361812E-10
       416  17 -1.449056E+06 -1.264308E+05 -1.397965E+05 -2.606267E+04 -1.573875E-11 -1.117773E-10
       416  18 -1.498908E+06 -1.830481E+05 -1.883964E+05 -4.812774E+04 -7.050274E-10  7.556480E-10
       416  19 -4.619014E+05  1.183462E+05  9.097778E+04 -3.365297E+04 -1.612143E+04  2.442489E+04
       416  20 -4.143125E+05  1.271799E+05  9.232100E+04 -1.154430E+04 -1.571738E+04  2.320736E+04
       416  21 -3.764834E+05  9.623952E+04  8.401255E+04 -6.908008E+03 -1.530058E+04  7.349864E+03
       416  22 -9.378057E+05  2.112114E+03 -1.396347E+04 -2.755978E+04 -1.069886E+04  2.442873E+04
       416  23 -9.318085E+05  3.840353E+02 -2.372799E+04 -1.880681E+04 -2.328147E+04  2.320385E+04
       416  24 -9.378391E+05 -4.339317E+04 -5.217841E+04 -2.752737E+04 -3.585087E+04  7.333505E+03
       416  25 -1.413498E+06 -1.141371E+05 -1.189185E+05 -2.147134E+04 -5.280395E+03  2.443268E+04
       416  26 -1.449055E+06 -1.264299E+05 -1.397937E+05 -2.606324E+04 -3.083930E+04  2.320051E+04
       416  27 -1.498905E+06 -1.830472E+05 -1.883903E+05 -4.812808E+04 -5.638260E+04  7.318505E+03
       417   1  8.935179E+05  2.350926E+05  3.102900E+05  1.307169E+05  2.768868E+05  6.416604E+03
       417   2  9.018889E+05 -1.077584E+05  9.902916E+04  3.399769E+04  1.851961E+05  1.901296E+04
       417   3  1.007960E+06 -1.080107E+05  3.311224E+04 -8.658870E+04  9.350231E+04  1.890383E+04
       417   4  1.377174E+06  3.547384E+05  4.274426E+05 -3.527059E+04  2.940141E+05  6.356517E+03
       417   5  1.327512E+06 -3.770507E+03  1.943696E+05 -2.319908E+04  1.909290E+05  1.899894E+04
       417   6  1.377419E+06 -1.788024E+04  1.144600E+05 -3.499420E+04  8.785143E+04  1.890768E+04
       417   7  1.861104E+06  4.744707E+05  5.445944E+05 -2.013876E+05  3.111547E+05  6.287331E+03
       417   8  1.753310E+06  1.002174E+05  2.897006E+05 -8.043543E+04  1.966657E+05  1.898387E+04
       417   9  1.747011E+06  7.225101E+04  1.958009E+05  1.663130E+04  8.219722E+04  1.891059E+04
       417  10  8.934357E+05  2.350721E+05  3.101460E+05  1.307155E+05  7.516170E-10 -1.032596E-09
       417  11  9.018521E+05 -1.077679E+05  9.896413E+04  3.399485E+04  1.545000E-10  1.489876E-10
       417  12  1.007950E+06 -1.080134E+05  3.309517E+04 -8.659012E+04 -2.374654E-09 -2.391589E-10
       417  13  1.377082E+06  3.547152E+05  4.272805E+05 -3.527209E+04  4.587042E-10  4.603436E-10
       417  14  1.327473E+06 -3.780654E+03  1.943006E+05 -2.320200E+04  2.971225E-10 -2.525791E-10
       417  15  1.377411E+06 -1.788269E+04  1.144448E+05 -3.499554E+04  6.838437E-12 -2.116770E-10
       417  16  1.861000E+06  4.744448E+05  5.444129E+05 -2.013892E+05 -1.274566E-09  3.084234E-10
       417  17  1.753269E+06  1.002066E+05  2.896274E+05 -8.043843E+04  8.327197E-10 -1.017602E-10
       417  18  1.747004E+06  7.224882E+04  1.957875E+05  1.663005E+04  2.905391E-09  1.607320E-09
       417  19  8.935179E+05  2.350926E+05  3.102900E+05  1.307169E+05 -2.768868E+05 -6.416604E+03
       417  20  9.018889E+05 -1.077584E+05  9.902916E+04  3.399769E+04 -1.851961E+05 -1.901296E+04
       417  21  1.007960E+06 -1.080107E+05  3.311224E+04 -8.658870E+04 -9.350231E+04 -1.890383E+04
       417  22  1.377174E+06  3.547384E+05  4.274426E+05 -3.527059E+04 -2.940141E+05 -6.356517E+03
       417  23  1.327512E+06 -3.770507E+03  1.943696E+05 -2.319908E+04 -1.909290E+05 -1.899894E+04
       417  24  1.377419E+06 -1.788024E+04  1.144600E+05 -3.499420E+04 -8.785143E+04 -1.890768E+04
       417  25  1.861104E+06  4.744707E+05  5.445944E+05 -2.013876E+05 -3.111547E+05 -6.287331E+03
       417  26  1.753310E+06  1.002174E+05  2.897006E+05 -8.043543E+04 -1.966657E+05 -1.898387E+04
       417  27  1.747011E+06  7.225101E+04  1.958009E+05  1.663130E+04 -8.219722E+04 -1.891059E+04
       418   1  1.034621E+06 -5.856748E+04  1.978738E+04 -2.815646E+04  7.340266E+04  1.589879E+04
       418   2  1.086594E+06 -6.572619E+04 -9.536718E+03 -2.159008E+04  4.918683E+04  1.345872E+04
       418   3  1.146870E+06 -5.249028E+04 -1.799982E+04 -3.888381E+04  2.496885E+04  1.046183E+04
       418   4  1.357118E+06  2.010708E+04  9.112862E+04 -3.506918E+04  7.151561E+04  1.589647E+04
       418   5  1.352946E+06 -7.836301E+02  4.918938E+04 -2.313540E+04  4.679238E+04  1.345723E+04
       418   6  1.357156E+06 -1.197875E+03  2.845408E+04 -3.506053E+04  2.206915E+04  1.046088E+04
       418   7  1.679713E+06  9.877483E+04  1.624635E+05 -4.198553E+04  6.962758E+04  1.589419E+04
       418   8  1.619364E+06  6.415418E+04  1.079112E+05 -2.468139E+04  4.439692E+04  1.345576E+04
       418   9  1.567482E+06  5.009161E+04  7.490530E+04 -3.123593E+04  1.916847E+04  1.045989E+04
       418  10  1.034615E+06 -5.856920E+04  1.977680E+04 -2.815740E+04  3.894562E-10 -3.866587E-11
       418  11  1.086591E+06 -6.572703E+04 -9.541597E+03 -2.159062E+04  6.052064E-10  2.485699E-10
       418  12  1.146869E+06 -5.249056E+04 -1.800119E+04 -3.888402E+04 -4.789969E-10 -2.686233E-10
       418  13  1.357113E+06  2.010544E+04  9.111856E+04 -3.507009E+04  4.764511E-10  1.231783E-09
       418  14  1.352943E+06 -7.844109E+02  4.918494E+04 -2.313590E+04  5.400405E-10  3.494431E-10
       418  15  1.357155E+06 -1.198123E+03  2.845297E+04 -3.506071E+04 -2.658248E-10 -5.756988E-10
       418  16  1.679708E+06  9.877327E+04  1.624539E+05 -4.198642E+04 -1.090003E-09  1.009685E-09
       418  17  1.619361E+06  6.415346E+04  1.079071E+05 -2.468187E+04 -9.488910E-11 -9.454510E-11
       418  18  1.567482E+06  5.009140E+04  7.490441E+04 -3.123609E+04  2.866413E-10 -1.861356E-10
       418  19  1.034621E+06 -5.856748E+04  1.978738E+04 -2.815646E+04 -7.340266E+04 -1.589879E+04
       418  20  1.086594E+06 -6.572619E+04 -9.536718E+03 -2.159008E+04 -4.918683E+04 -1.345872E+04
       418  21  1.146870E+06 -5.249028E+04 -1.799982E+04 -3.888381E+04 -2.496885E+04 -1.046183E+04
       418  22  1.357118E+06  2.010708E+04  9.112862E+04 -3.506918E+04 -7.151561E+04 -1.589647E+04
       418  23  1.352946E+06 -7.836301E+02  4.918938E+04 -2.313540E+04 -4.679238E+04 -1.345723E+04
       418  24  1.357156E+06 -1.197875E+03  2.845408E+04 -3.506053E+04 -2.206915E+04 -1.046088E+04
       418  25  1.679713E+06  9.877483E+04  1.624635E+05 -4.198553E+04 -6.962758E+04 -1.589419E+04
       418  26  1.619364E+06  6.415418E+04  1.079112E+05 -2.468139E+04 -4.439692E+04 -1.345576E+04
       418  27  1.567482E+06  5.009161E+04  7.490530E+04 -3.123593E+04 -1.916847E+04 -1.045989E+04
       419   1  1.191556E+06 -3.899007E+04 -1.413080E+04 -3.534353E+04  2.036211E+04  8.594012E+03
       419   2  1.246690E+06 -2.659025E+04 -1.143339E+04 -2.353709E+04  1.422327E+04  5.512948E+03
       419   3  1.302951E+06 -1.296857E+04 -4.434715E+03 -3.542971E+04  8.083604E+03  2.410822E+03
       419   4  1.355546E+06  9.563669E+02  2.184255E+04 -3.502756E+04  1.763561E+04  8.593159E+03
       419   5  1.354987E+06 -1.922236E+02  1.241594E+04 -2.317808E+04  1.147641E+04  5.512259E+03
       419   6  1.355555E+06 -1.154587E+02  7.303820E+03 -3.502742E+04  5.316917E+03  2.410310E+03
       419   7  1.519561E+06  4.090102E+04  5.781430E+04 -3.471151E+04  1.490840E+04  8.592304E+03
       419   8  1.463294E+06  2.620502E+04  3.626459E+04 -2.281901E+04  8.729070E+03  5.511568E+03
       419   9  1.408162E+06  1.273747E+04  1.904221E+04 -3.462509E+04  2.549998E+03  2.409794E+03
       419  10  1.191556E+06 -3.899026E+04 -1.413172E+04 -3.534367E+04 -6.997086E-10 -4.267629E-10
       419  11  1.246690E+06 -2.659033E+04 -1.143383E+04 -2.353715E+04 -1.116817E-09 -6.130033E-10
       419  12  1.302951E+06 -1.296860E+04 -4.434849E+03 -3.542973E+04 -3.083454E-10 -1.910600E-10
       419  13  1.355546E+06  9.562043E+02  2.184183E+04 -3.502768E+04 -5.559887E-10 -2.660475E-10
       419  14  1.354986E+06 -1.922915E+02  1.241564E+04 -2.317813E+04 -2.443015E-10  4.320840E-11
       419  15  1.355555E+06 -1.154725E+02  7.303756E+03 -3.502743E+04 -7.797295E-10 -4.181280E-10
       419  16  1.519560E+06  4.090088E+04  5.781375E+04 -3.471161E+04 -4.704080E-10 -1.220519E-10
       419  17  1.463294E+06  2.620497E+04  3.626439E+04 -2.281905E+04 -6.181103E-10 -2.891305E-10
       419  18  1.408162E+06  1.273747E+04  1.904219E+04 -3.462509E+04  1.990683E-11  6.907814E-11
       419  19  1.191556E+06 -3.899007E+04 -1.413080E+04 -3.534353E+04 -2.036211E+04 -8.594012E+03
       419  20  1.246690E+06 -2.659025E+04 -1.143339E+04 -2.353709E+04 -1.422327E+04 -5.512948E+03
       419  21  1.302951E+06 -1.296857E+04 -4.434715E+03 -3.542971E+04 -8.083604E+03 -2.410822E+03
       419  22  1.355546E+06  9.563669E+02  2.184255E+04 -3.502756E+04 -1.763561E+04 -8.593159E+03
       419  23  1.354987E+06 -1.922236E+02  1.241594E+04 -2.317808E+04 -1.147641E+04 -5.512259E+03
       419  24  1.355555E+06 -1.154587E+02  7.303820E+03 -3.502742E+04 -5.316917E+03 -2.410310E+03
       419  25  1.519561E+06  4.090102E+04  5.781430E+04 -3.471151E+04 -1.490840E+04 -8.592304E+03
       419  26  1.463294E+06  2.620502E+04  3.626459E+04 -2.281901E+04 -8.729070E+03 -5.511568E+03
       419  27  1.408162E+06  1.273747E+04  1.904221E+04 -3.462509E+04 -2.549998E+03 -2.409794E+03
       420   1  1.348857E+06 -1.565751E+03  4.406902E+03 -3.520320E+04  6.902658E+03  6.020603E+02
       420   2  1.404357E+06  1.191126E+04  1.443569E+04 -2.328110E+04  5.116186E+03 -2.500963E+03
       420   3  1.460127E+06  2.545854E+04  2.564681E+04 -3.503138E+04  3.329735E+03 -5.607248E+03
       420   4  1.355364E+06 -1.070424E+01  5.683938E+03 -3.502166E+04  4.144257E+03  6.015770E+02
       420   5  1.355231E+06 -6.198802E+01  3.619571E+03 -2.318542E+04  2.354733E+03 -2.501535E+03
       420   6  1.355364E+06 -4.252845E+01  2.739420E+03 -3.502168E+04  5.653867E+02 -5.607895E+03
       420   7  1.361872E+06  1.544344E+03  6.961000E+03 -3.484012E+04  1.385829E+03  6.010921E+02
       420   8  1.306107E+06 -1.203539E+04 -7.196669E+03 -2.308975E+04 -4.065037E+02 -2.502107E+03
       420   9  1.250611E+06 -2.554433E+04 -2.016860E+04 -3.501198E+04 -2.198502E+03 -5.608543E+03
       420  10  1.348857E+06 -1.565764E+03  4.406812E+03 -3.520320E+04  8.129742E-11 -3.705417E-10
       420  11  1.404357E+06  1.191124E+04  1.443563E+04 -2.328109E+04 -1.049544E-10 -2.536662E-10
       420  12  1.460127E+06  2.545851E+04  2.564673E+04 -3.503136E+04 -4.657126E-10  1.305374E-11
       420  13  1.355364E+06 -1.070923E+01  5.683905E+03 -3.502166E+04  3.371581E-11 -2.703061E-10
       420  14  1.355231E+06 -6.199623E+01  3.619549E+03 -2.318542E+04 -3.472001E-10 -2.760112E-10
       420  15  1.355364E+06 -4.256233E+01  2.739361E+03 -3.502168E+04  5.617887E-10  3.877645E-10
       420  16  1.361872E+06  1.544343E+03  6.960995E+03 -3.484012E+04  1.084684E-10  1.365460E-10
       420  17  1.306107E+06 -1.203540E+04 -7.196681E+03 -2.308975E+04 -5.025347E-10 -4.729767E-10
       420  18  1.250611E+06 -2.554436E+04 -2.016867E+04 -3.501199E+04  3.152764E-10  9.473803E-11
       420  19  1.348857E+06 -1.565751E+03  4.406902E+03 -3.520320E+04 -6.902658E+03 -6.020603E+02
       420  20  1.404357E+06  1.191126E+04  1.443569E+04 -2.328110E+04 -5.116186E+03  2.500963E+03
       420  21  1.460127E+06  2.545854E+04  2.564681E+04 -3.503138E+04 -3.329735E+03  5.607248E+03
       420  22  1.355364E+06 -1.070424E+01  5.683938E+03 -3.502166E+04 -4.144257E+03 -6.015770E+02
       420  23  1.355231E+06 -6.198802E+01  3.619571E+03 -2.318542E+04 -2.354733E+03  2.501535E+03
       420  24  1.355364E+06 -4.252845E+01  2.739420E+03 -3.502168E+04 -5.653867E+02  5.607895E+03
       420  25  1.361872E+06  1.544344E+03  6.961000E+03 -3.484012E+04 -1.385829E+03 -6.010921E+02
       420  26  1.306107E+06 -1.203539E+04 -7.196669E+03 -2.308975E+04  4.065037E+02  2.502107E+03
       420  27  1.250611E+06 -2.554433E+04 -2.016860E+04 -3.501198E+04  2.198502E+03  5.608543E+03
       421   1  1.506311E+06  3.677738E+04  3.601923E+04 -3.502442E+04  2.847396E+03 -7.417181E+03
       421   2  1.562112E+06  5.035063E+04  4.856414E+04 -2.303685E+04  1.361307E+03 -1.053364E+04
       421   3  1.618158E+06  6.397100E+04  6.209460E+04 -3.484243E+04 -1.240669E+02 -1.365719E+04
       421   4  1.355356E+06 -4.316691E+01  2.629481E+03 -3.504860E+04  7.828520E+01 -7.417961E+03
       421   5  1.355231E+06 -6.702212E+01  3.018622E+03 -2.315177E+04 -1.413813E+03 -1.053477E+04
       421   6  1.355349E+06 -4.247821E+01  4.397824E+03 -3.504859E+04 -2.905063E+03 -1.365865E+04
       421   7  1.204422E+06 -3.686524E+04 -3.076165E+04 -3.507278E+04 -2.690162E+03 -7.418741E+03
       421   8  1.148389E+06 -5.048754E+04 -4.252948E+04 -2.326666E+04 -4.188020E+03 -1.053590E+04
       421   9  1.092604E+06 -6.406057E+04 -5.330313E+04 -3.525466E+04 -5.684899E+03 -1.366012E+04
       421  10  1.506311E+06  3.677732E+04  3.601912E+04 -3.502440E+04 -8.298882E-10  3.630542E-11
       421  11  1.562112E+06  5.035051E+04  4.856392E+04 -2.303684E+04  5.253912E-10  7.368953E-10
       421  12  1.618158E+06  6.397080E+04  6.209425E+04 -3.484244E+04 -9.043125E-11 -3.449759E-11
       421  13  1.355356E+06 -4.322604E+01  2.629378E+03 -3.504860E+04  8.775424E-10  8.789087E-10
       421  14  1.355231E+06 -6.714191E+01  3.018409E+03 -2.315178E+04  8.960382E-10  9.858812E-10
       421  15  1.355349E+06 -4.268093E+01  4.397458E+03 -3.504862E+04  5.094313E-10  4.421140E-10
       421  16  1.204422E+06 -3.686530E+04 -3.076177E+04 -3.507280E+04  3.564367E-10  6.170974E-10
       421  17  1.148389E+06 -5.048766E+04 -4.252972E+04 -2.326670E+04 -5.325884E-10 -5.548198E-11
       421  18  1.092604E+06 -6.406078E+04 -5.330354E+04 -3.525472E+04 -3.316320E-10 -1.617103E-10
       421  19  1.506311E+06  3.677738E+04  3.601923E+04 -3.502442E+04 -2.847396E+03  7.417181E+03
       421  20  1.562112E+06  5.035063E+04  4.856414E+04 -2.303685E+04 -1.361307E+03  1.053364E+04
       421  21  1.618158E+06  6.397100E+04  6.209460E+04 -3.484243E+04  1.240669E+02  1.365719E+04
       421  22  1.355356E+06 -4.316691E+01  2.629481E+03 -3.504860E+04 -7.828520E+01  7.417961E+03
       421  23  1.355231E+06 -6.702212E+01  3.018622E+03 -2.315177E+04  1.413813E+03  1.053477E+04
       421  24  1.355349E+06 -4.247821E+01  4.397824E+03 -3.504859E+04  2.905063E+03  1.365865E+04
       421  25  1.204422E+06 -3.686524E+04 -3.076165E+04 -3.507278E+04  2.690162E+03  7.418741E+03
       421  26  1.148389E+06 -5.048754E+04 -4.252948E+04 -2.326666E+04  4.188020E+03  1.053590E+04
       421  27  1.092604E+06 -6.406057E+04 -5.330313E+04 -3.525466E+04  5.684899E+03  1.366012E+04
       422   1  1.664879E+06  7.530366E+04  7.381221E+04 -3.471942E+04 -1.000270E+03 -1.548552E+04
       422   2  1.720983E+06  8.898936E+04  8.981848E+04 -2.266562E+04 -5.613831E+03 -1.862701E+04
       422   3  1.778000E+06  1.035706E+05  1.090651E+05 -3.467577E+04 -1.022627E+04 -2.174544E+04
       422   4  1.355490E+06 -1.220147E+02  5.548915E+03 -3.510870E+04 -3.802706E+03 -1.548729E+04
       422   5  1.355029E+06 -1.877830E+02  9.255714E+03 -2.307647E+04 -8.393421E+03 -1.862938E+04
       422   6  1.355474E+06  6.389973E+02  1.618883E+04 -3.510907E+04 -1.298261E+04 -2.174839E+04
       422   7  1.046190E+06 -7.555410E+04 -6.272023E+04 -3.549779E+04 -6.603764E+03 -1.548906E+04
       422   8  9.891990E+05 -8.937388E+04 -7.131522E+04 -2.348710E+04 -1.117139E+04 -1.863175E+04
       422   9  9.331148E+05 -1.023046E+05 -7.669828E+04 -3.554209E+04 -1.573709E+04 -2.175134E+04
       422  10  1.664879E+06  7.530340E+04  7.381176E+04 -3.471943E+04 -6.681679E-10  4.870376E-10
       422  11  1.720983E+06  8.898898E+04  8.981777E+04 -2.266570E+04 -1.207766E-09 -6.710985E-10
       422  12  1.777999E+06  1.035701E+05  1.090640E+05 -3.467595E+04  8.833874E-10  3.131429E-11
       422  13  1.355490E+06 -1.222763E+02  5.548437E+03 -3.510875E+04 -1.694839E-11  6.979868E-11
       422  14  1.355029E+06 -1.881747E+02  9.254930E+03 -2.307660E+04 -9.933174E-10  1.673830E-10
       422  15  1.355474E+06  6.384439E+02  1.618762E+04 -3.510929E+04  3.422969E-10 -8.848114E-11
       422  16  1.046190E+06 -7.555437E+04 -6.272077E+04 -3.549787E+04 -2.434858E-10 -5.763066E-10
       422  17  9.891988E+05 -8.937429E+04 -7.131611E+04 -2.348727E+04 -5.993521E-10 -6.515442E-11
       422  18  9.331144E+05 -1.023051E+05 -7.669963E+04 -3.554237E+04 -8.689292E-10  5.889345E-10
       422  19  1.664879E+06  7.530366E+04  7.381221E+04 -3.471942E+04  1.000270E+03  1.548552E+04
       422  20  1.720983E+06  8.898936E+04  8.981848E+04 -2.266562E+04  5.613831E+03  1.862701E+04
       422  21  1.778000E+06  1.035706E+05  1.090651E+05 -3.467577E+04  1.022627E+04  2.174544E+04
       422  22  1.355490E+06 -1.220147E+02  5.548915E+03 -3.510870E+04  3.802706E+03  1.548729E+04
       422  23  1.355029E+06 -1.877830E+02  9.255714E+03 -2.307647E+04  8.393421E+03  1.862938E+04
       422  24  1.355474E+06  6.389973E+02  1.618883E+04 -3.510907E+04  1.298261E+04  2.174839E+04
       422  25  1.046190E+06 -7.555410E+04 -6.272023E+04 -3.549779E+04  6.603764E+03  1.548906E+04
       422  26  9.891990E+05 -8.937388E+04 -7.131522E+04 -2.348710E+04  1.117139E+04  1.863175E+04
       422  27  9.331148E+05 -1.023046E+05 -7.669828E+04 -3.554209E+04  1.573709E+04  2.175134E+04
       423   1  1.826465E+06  1.135521E+05  1.246196E+05 -3.212347E+04 -1.323784E+04 -2.367871E+04
       423   2  1.880802E+06  1.278455E+05  1.525349E+05 -2.378464E+04 -3.227780E+04 -2.668255E+04
       423   3  1.941585E+06  1.573768E+05  1.966657E+05 -3.989665E+04 -5.131908E+04 -2.883994E+04
       423   4  1.356667E+06 -9.552814E+02  2.106485E+04 -3.519054E+04 -1.626564E+04 -2.368229E+04
       423   5  1.353490E+06 -6.573949E+02  3.635907E+04 -2.297241E+04 -3.453847E+04 -2.668642E+04
       423   6  1.356628E+06  1.475340E+04  6.734700E+04 -3.520601E+04 -5.281089E+04 -2.884401E+04
       423   7  8.870754E+05 -1.154774E+05 -8.250341E+04 -3.825530E+04 -1.929119E+04 -2.368583E+04
       423   8  8.264373E+05 -1.291790E+05 -7.983379E+04 -2.216093E+04 -3.679725E+04 -2.669031E+04
       423   9  7.719903E+05 -1.278929E+05 -6.199277E+04 -3.051992E+04 -5.430129E+04 -2.884811E+04
       423  10  1.826465E+06  1.135514E+05  1.246182E+05 -3.212372E+04  4.679150E-10 -4.586367E-10
       423  11  1.880801E+06  1.278445E+05  1.525316E+05 -2.378533E+04  1.134953E-09 -1.084543E-09
       423  12  1.941582E+06  1.573752E+05  1.966592E+05 -3.989784E+04  9.484239E-10 -1.596567E-09
       423  13  1.356667E+06 -9.559549E+02  2.106330E+04 -3.519085E+04 -1.850165E-10 -5.162136E-10
       423  14  1.353489E+06 -6.584796E+02  3.635550E+04 -2.297315E+04 -6.770162E-10 -9.286599E-10
       423  15  1.356625E+06  1.475176E+04  6.734021E+04 -3.520724E+04  1.259366E-09 -1.089036E-09
       423  16  8.870748E+05 -1.154781E+05 -8.250516E+04 -3.825566E+04 -1.005032E-09  7.364087E-11
       423  17  8.264356E+05 -1.291801E+05 -7.983767E+04 -2.216172E+04 -1.938184E-10  1.736857E-09
       423  18  7.719869E+05 -1.278946E+05 -6.199987E+04 -3.052118E+04 -4.792166E-10 -3.368105E-10
       423  19  1.826465E+06  1.135521E+05  1.246196E+05 -3.212347E+04  1.323784E+04  2.367871E+04
       423  20  1.880802E+06  1.278455E+05  1.525349E+05 -2.378464E+04  3.227780E+04  2.668255E+04
       423  21  1.941585E+06  1.573768E+05  1.966657E+05 -3.989665E+04  5.131908E+04  2.883994E+04
       423  22  1.356667E+06 -9.552814E+02  2.106485E+04 -3.519054E+04  1.626564E+04  2.368229E+04
       423  23  1.353490E+06 -6.573949E+02  3.635907E+04 -2.297241E+04  3.453847E+04  2.668642E+04
       423  24  1.356628E+06  1.475340E+04  6.734700E+04 -3.520601E+04  5.281089E+04  2.884401E+04
       423  25  8.870754E+05 -1.154774E+05 -8.250341E+04 -3.825530E+04  1.929119E+04  2.368583E+04
       423  26  8.264373E+05 -1.291790E+05 -7.983379E+04 -2.216093E+04  3.679725E+04  2.669031E+04
       423  27  7.719903E+05 -1.278929E+05 -6.199277E+04 -3.051992E+04  5.430129E+04  2.884811E+04
       424   1  2.005126E+06  1.411152E+05  2.239087E+05  3.550718E+03 -5.761672E+04 -3.252939E+04
       424   2  2.026007E+06  1.658773E+05  2.982087E+05 -6.474576E+04 -1.511994E+05 -3.110819E+04
       424   3  2.123601E+06  4.480398E+05  4.977120E+05 -1.575775E+05 -2.448279E+05 -1.018038E+04
       424   4  1.371636E+06 -1.332616E+04  8.458481E+04 -3.510225E+04 -6.488019E+04 -3.253737E+04
       424   5  1.334655E+06 -2.904365E+03  1.435990E+05 -2.305497E+04 -1.410432E+05 -3.110574E+04
       424   6  1.371439E+06  2.620306E+05  3.158240E+05 -3.553065E+04 -2.172402E+05 -1.018195E+04
       424   7  7.385235E+05 -1.677888E+05 -5.476261E+04 -7.371552E+04 -7.213633E+04 -3.254445E+04
       424   8  6.437512E+05 -1.717118E+05 -1.103936E+04  1.858889E+04 -1.308982E+05 -3.110194E+04
       424   9  6.198263E+05  7.603660E+04  1.339064E+05  8.636813E+04 -1.896855E+05 -1.017272E+04
       424  10  2.005122E+06  1.411131E+05  2.239005E+05  3.549210E+03  6.927434E-10 -2.674264E-09
       424  11  2.025982E+06  1.658702E+05  2.981640E+05 -6.474954E+04 -1.372259E-09 -5.290035E-09
       424  12  2.123537E+06  4.480237E+05  4.975996E+05 -1.575795E+05 -2.307144E-09 -1.727222E-09
       424  13  1.371631E+06 -1.332843E+04  8.457492E+04 -3.510395E+04 -1.392100E-09 -6.729270E-09
       424  14  1.334634E+06 -2.910730E+03  1.435599E+05 -2.305850E+04  9.810581E-10  2.159105E-09
       424  15  1.371389E+06  2.620178E+05  3.157353E+05 -3.553243E+04  1.645450E-09 -5.161998E-10
       424  16  7.385176E+05 -1.677913E+05 -5.477437E+04 -7.371741E+04 -2.096623E-09 -1.716103E-09
       424  17  6.437325E+05 -1.717175E+05 -1.107334E+04  1.858561E+04  3.070139E-10  1.525968E-09
       424  18  6.197877E+05  7.602684E+04  1.338386E+05  8.636658E+04  1.797000E-09 -2.024300E-09
       424  19  2.005126E+06  1.411152E+05  2.239087E+05  3.550718E+03  5.761672E+04  3.252939E+04
       424  20  2.026007E+06  1.658773E+05  2.982087E+05 -6.474576E+04  1.511994E+05  3.110819E+04
       424  21  2.123601E+06  4.480398E+05  4.977120E+05 -1.575775E+05  2.448279E+05  1.018038E+04
       424  22  1.371636E+06 -1.332616E+04  8.458481E+04 -3.510225E+04  6.488019E+04  3.253737E+04
       424  23  1.334655E+06 -2.904365E+03  1.435990E+05 -2.305497E+04  1.410432E+05  3.110574E+04
       424  24  1.371439E+06  2.620306E+05  3.158240E+05 -3.553065E+04  2.172402E+05  1.018195E+04
       424  25  7.385235E+05 -1.677888E+05 -5.476261E+04 -7.371552E+04  7.213633E+04  3.254445E+04
       424  26  6.437512E+05 -1.717118E+05 -1.103936E+04  1.858889E+04  1.308982E+05  3.110194E+04
       424  27  6.198263E+05  7.603660E+04  1.339064E+05  8.636813E+04  1.896855E+05  1.017272E+04
       425   1  4.487315E+05  1.668560E+05  1.499369E+05  2.645762E+04  1.893896E+04 -1.269211E+04
       425   2  3.872711E+05  1.888116E+05  1.358892E+05  3.754700E+04  8.726448E+02 -4.225103E+04
       425   3  3.208618E+05  1.814512E+05  1.263139E+05  6.330288E+04 -1.723162E+04 -4.978522E+04
       425   4 -4.451678E+05 -5.395068E+04 -6.097023E+04  5.766722E+04 -4.234564E+04 -1.281532E+04
       425   5 -4.397712E+05 -9.558243E+03 -2.926573E+04  5.027401E+04 -2.709952E+04 -4.231617E+04
       425   6 -4.451231E+05 -2.886571E+02 -1.623079E+04  5.754880E+04 -1.189322E+04 -4.977781E+04
       425   7 -1.338322E+06 -2.748087E+05 -2.719179E+05  8.883127E+04 -1.035425E+05 -1.294478E+04
       425   8 -1.266158E+06 -2.079690E+05 -1.944521E+05  6.298337E+04 -5.503517E+04 -4.238250E+04
       425   9 -1.210540E+06 -1.820621E+05 -1.588002E+05  5.180165E+04 -6.561223E+03 -4.977049E+04
       425  10  4.487310E+05  1.668557E+05  1.499360E+05  2.645782E+04  3.620818E-09 -9.366243E-10
       425  11  3.872706E+05  1.888097E+05  1.358859E+05  3.754703E+04  3.948654E-10 -4.997089E-09
       425  12  3.208608E+05  1.814484E+05  1.263086E+05  6.330219E+04  6.173598E-10 -4.386007E-09
       425  13 -4.451698E+05 -5.395134E+04 -6.097391E+04  5.766678E+04  8.854164E-10  1.409275E-09
       425  14 -4.397724E+05 -9.560363E+03 -2.927048E+04  5.027309E+04 -1.958805E-10 -4.176718E-09
       425  15 -4.451239E+05 -2.913553E+02 -1.623571E+04  5.754832E+04 -2.778509E-11  1.103676E-10
       425  16 -1.338334E+06 -2.748118E+05 -2.719384E+05  8.883019E+04 -3.898887E-09 -3.122951E-13
       425  17 -1.266162E+06 -2.079717E+05 -1.944611E+05  6.298149E+04 -8.307868E-11 -7.133479E-09
       425  18 -1.210540E+06 -1.820648E+05 -1.588050E+05  5.180139E+04  1.668197E-10 -6.171359E-09
       425  19  4.487315E+05  1.668560E+05  1.499369E+05  2.645762E+04 -1.893896E+04  1.269211E+04
       425  20  3.872711E+05  1.888116E+05  1.358892E+05  3.754700E+04 -8.726448E+02  4.225103E+04
       425  21  3.208618E+05  1.814512E+05  1.263139E+05  6.330288E+04  1.723162E+04  4.978522E+04
       425  22 -4.451678E+05 -5.395068E+04 -6.097023E+04  5.766722E+04  4.234564E+04  1.281532E+04
       425  23 -4.397712E+05 -9.558243E+03 -2.926573E+04  5.027401E+04  2.709952E+04  4.231617E+04
       425  24 -4.451231E+05 -2.886571E+02 -1.623079E+04  5.754880E+04  1.189322E+04  4.977781E+04
       425  25 -1.338322E+06 -2.748087E+05 -2.719179E+05  8.883127E+04  1.035425E+05  1.294478E+04
       425  26 -1.266158E+06 -2.079690E+05 -1.944521E+05  6.298337E+04  5.503517E+04  4.238250E+04
       425  27 -1.210540E+06 -1.820621E+05 -1.588002E+05  5.180165E+04  6.561223E+03  4.977049E+04
       426   1  2.794766E+05  1.692907E+05  1.213940E+05  5.843856E+04 -1.160990E+04 -4.753260E+04
       426   2  2.158183E+05  1.555910E+05  1.129770E+05  5.095244E+04 -1.073673E+04 -4.547177E+04
       426   3  1.517343E+05  1.407981E+05  1.037105E+05  5.949837E+04 -9.869684E+03 -4.171933E+04
       426   4 -4.429173E+05 -1.966354E+03 -1.245548E+04  5.787159E+04 -9.767141E+03 -4.753285E+04
       426   5 -4.424663E+05 -5.312895E+01 -6.878600E+03  4.985204E+04 -6.338706E+03 -4.546469E+04
       426   6 -4.428887E+05  3.226455E+02 -3.927303E+03  5.786563E+04 -2.916255E+03 -4.170403E+04
       426   7 -1.164805E+06 -1.732534E+05 -1.463269E+05  5.730498E+04 -7.926464E+03 -4.753310E+04
       426   8 -1.100330E+06 -1.557217E+05 -1.267515E+05  4.875257E+04 -1.945211E+03 -4.545761E+04
       426   9 -1.037167E+06 -1.401726E+05 -1.115789E+05  5.623427E+04  4.030699E+03 -4.168875E+04
       426  10  2.794759E+05  1.692883E+05  1.213895E+05  5.843812E+04 -4.093247E-09 -5.217649E-09
       426  11  2.158176E+05  1.555888E+05  1.129729E+05  5.095205E+04 -3.209394E-09  9.041975E-10
       426  12  1.517338E+05  1.407962E+05  1.037071E+05  5.949804E+04  2.132804E-10  1.852800E-09
       426  13 -4.429180E+05 -1.968805E+03 -1.245991E+04  5.787122E+04  1.126328E-09 -3.724458E-09
       426  14 -4.424669E+05 -5.535890E+01 -6.882559E+03  4.985181E+04  7.141815E-11 -3.753530E-10
       426  15 -4.428891E+05  3.207759E+02 -3.930586E+03  5.786554E+04  5.955984E-10 -2.563864E-09
       426  16 -1.164806E+06 -1.732558E+05 -1.463313E+05  5.730467E+04  3.593353E-09  9.008704E-11
       426  17 -1.100330E+06 -1.557239E+05 -1.267554E+05  4.875250E+04  3.057106E-09  1.598537E-09
       426  18 -1.037168E+06 -1.401745E+05 -1.115822E+05  5.623440E+04  2.447261E-10  1.380868E-09
       426  19  2.794766E+05  1.692907E+05  1.213940E+05  5.843856E+04  1.160990E+04  4.753260E+04
       426  20  2.158183E+05  1.555910E+05  1.129770E+05  5.095244E+04  1.073673E+04  4.547177E+04
       426  21  1.517343E+05  1.407981E+05  1.037105E+05  5.949837E+04  9.869684E+03  4.171933E+04
       426  22 -4.429173E+05 -1.966354E+03 -1.245548E+04  5.787159E+04  9.767141E+03  4.753285E+04
       426  23 -4.424663E+05 -5.312895E+01 -6.878600E+03  4.985204E+04  6.338706E+03  4.546469E+04
       426  24 -4.428887E+05  3.226455E+02 -3.927303E+03  5.786563E+04  2.916255E+03  4.170403E+04
       426  25 -1.164805E+06 -1.732534E+05 -1.463269E+05  5.730498E+04  7.926464E+03  4.753310E+04
       426  26 -1.100330E+06 -1.557217E+05 -1.267515E+05  4.875257E+04  1.945211E+03  4.545761E+04
       426  27 -1.037167E+06 -1.401726E+05 -1.115789E+05  5.623427E+04 -4.030699E+03  4.168875E+04
       427   1  1.090802E+05  1.305480E+05  9.659539E+04  5.919693E+04 -9.004640E+03 -3.902659E+04
       427   2  4.515243E+04  1.154619E+05  8.628391E+04  5.097253E+04 -8.366745E+03 -3.453582E+04
       427   3 -1.892219E+04  1.004299E+05  7.554912E+04  5.891727E+04 -7.731077E+03 -2.991248E+04
       427   4 -4.427262E+05  2.467618E+02 -2.988773E+03  5.789710E+04 -2.314914E+03 -3.901109E+04
       427   5 -4.426230E+05  2.829014E+02 -1.713897E+03  4.981204E+04 -1.477528E+03 -3.451848E+04
       427   6 -4.427055E+05  3.385661E+02 -1.001365E+03  5.789686E+04 -6.423059E+02 -2.989324E+04
       427   7 -9.942359E+05 -1.300715E+05 -1.025847E+05  5.659825E+04  4.369034E+03 -3.899562E+04
       427   8 -9.301665E+05 -1.149094E+05 -8.972082E+04  4.865233E+04  5.406427E+03 -3.450116E+04
       427   9 -8.663138E+05 -9.976280E+04 -7.755870E+04  5.687705E+04  6.441760E+03 -2.987401E+04
       427  10  1.090797E+05  1.305464E+05  9.659237E+04  5.919665E+04 -5.725700E-10  3.193466E-09
       427  11  4.515204E+04  1.154606E+05  8.628153E+04  5.097230E+04  5.666778E-10  3.691212E-09
       427  12 -1.892250E+04  1.004289E+05  7.554732E+04  5.891708E+04  5.535591E-09  4.876766E-10
       427  13 -4.427266E+05  2.451265E+02 -2.991642E+03  5.789703E+04  1.374116E-09 -3.583372E-09
       427  14 -4.426233E+05  2.816215E+02 -1.716140E+03  4.981200E+04 -2.099952E-10  2.140889E-09
       427  15 -4.427057E+05  3.376067E+02 -1.003045E+03  5.789685E+04  2.938272E-10  5.435705E-09
       427  16 -9.942363E+05 -1.300731E+05 -1.025876E+05  5.659839E+04  1.832389E-10  2.659682E-09
       427  17 -9.301669E+05 -1.149107E+05 -8.972311E+04  4.865248E+04 -4.799697E-10  4.006031E-09
       427  18 -8.663141E+05 -9.976377E+04 -7.756046E+04  5.687720E+04 -4.487646E-09  1.953312E-09
       427  19  1.090802E+05  1.305480E+05  9.659539E+04  5.919693E+04  9.004640E+03  3.902659E+04
       427  20  4.515243E+04  1.154619E+05  8.628391E+04  5.097253E+04  8.366745E+03  3.453582E+04
       427  21 -1.892219E+04  1.004299E+05  7.554912E+04  5.891727E+04  7.731077E+03  2.991248E+04
       427  22 -4.427262E+05  2.467618E+02 -2.988773E+03  5.789710E+04  2.314914E+03  3.901109E+04
       427  23 -4.426230E+05  2.829014E+02 -1.713897E+03  4.981204E+04  1.477528E+03  3.451848E+04
       427  24 -4.427055E+05  3.385661E+02 -1.001365E+03  5.789686E+04  6.423059E+02  2.989324E+04
       427  25 -9.942359E+05 -1.300715E+05 -1.025847E+05  5.659825E+04 -4.369034E+03  3.899562E+04
       427  26 -9.301665E+05 -1.149094E+05 -8.972082E+04  4.865233E+04 -5.406427E+03  3.450116E+04
       427  27 -8.663138E+05 -9.976280E+04 -7.755870E+04  5.687705E+04 -6.441760E+03  2.987401E+04
       428   1 -6.172754E+04  9.026187E+04  6.775382E+04  5.881929E+04 -7.560492E+03 -2.718177E+04
       428   2 -1.257749E+05  7.511794E+04  5.661889E+04  5.056410E+04 -7.347188E+03 -2.249822E+04
       428   3 -1.899288E+05  6.007219E+04  4.534048E+04  5.851154E+04 -7.135135E+03 -1.780294E+04
       428   4 -4.426829E+05  3.405002E+02 -7.772982E+02  5.790431E+04 -4.889450E+02 -2.716192E+04
       428   5 -4.426189E+05  3.042591E+02 -4.930758E+02  4.980273E+04 -2.584339E+02 -2.247745E+04
       428   6 -4.426695E+05  3.630994E+02 -3.647420E+02  5.790427E+04 -2.915216E+01 -1.778124E+04
       428   7 -8.234967E+05 -8.958894E+04 -6.931386E+04  5.698979E+04  6.578384E+03 -2.714208E+04
       428   8 -7.593649E+05 -7.451501E+04 -5.760877E+04  4.904169E+04  6.826803E+03 -2.245669E+04
       428   9 -6.953479E+05 -5.934955E+04 -4.607229E+04  5.729720E+04  7.074017E+03 -1.775956E+04
       428  10 -6.172780E+04  9.026106E+04  6.775233E+04  5.881913E+04  6.222342E-09  1.124840E-11
       428  11 -1.257751E+05  7.511739E+04  5.661784E+04  5.056396E+04  6.428794E-10  9.315196E-09
       428  12 -1.899290E+05  6.007184E+04  4.533979E+04  5.851143E+04 -6.982020E-11  6.469791E-09
       428  13 -4.426831E+05  3.397081E+02 -7.786848E+02  5.790430E+04  1.424662E-09  5.454383E-10
       428  14 -4.426190E+05  3.037167E+02 -4.940252E+02  4.980273E+04 -6.013027E-10  6.117382E-09
       428  15 -4.426696E+05  3.627599E+02 -3.653360E+02  5.790427E+04  4.878485E-10  2.074979E-10
       428  16 -8.234969E+05 -8.958974E+04 -6.931532E+04  5.698994E+04 -6.180162E-09  1.356538E-09
       428  17 -7.593651E+05 -7.451556E+04 -5.760981E+04  4.904182E+04 -1.024009E-09  9.799357E-10
       428  18 -6.953481E+05 -5.934990E+04 -4.607298E+04  5.729731E+04  1.005823E-09  8.201252E-10
       428  19 -6.172754E+04  9.026187E+04  6.775382E+04  5.881929E+04  7.560492E+03  2.718177E+04
       428  20 -1.257749E+05  7.511794E+04  5.661889E+04  5.056410E+04  7.347188E+03  2.249822E+04
       428  21 -1.899288E+05  6.007219E+04  4.534048E+04  5.851154E+04  7.135135E+03  1.780294E+04
       428  22 -4.426829E+05  3.405002E+02 -7.772982E+02  5.790431E+04  4.889450E+02  2.716192E+04
       428  23 -4.426189E+05  3.042591E+02 -4.930758E+02  4.980273E+04  2.584339E+02  2.247745E+04
       428  24 -4.426695E+05  3.630994E+02 -3.647420E+02  5.790427E+04  2.915216E+01  1.778124E+04
       428  25 -8.234967E+05 -8.958894E+04 -6.931386E+04  5.698979E+04 -6.578384E+03  2.714208E+04
       428  26 -7.593649E+05 -7.451501E+04 -5.760877E+04  4.904169E+04 -6.826803E+03  2.245669E+04
       428  27 -6.953479E+05 -5.934955E+04 -4.607229E+04  5.729720E+04 -7.074017E+03  1.775956E+04
       429   1 -2.328006E+05  4.989420E+04  3.733180E+04  5.841179E+04 -7.079890E+03 -1.506613E+04
       429   2 -2.968954E+05  3.473548E+04  2.587083E+04  5.013286E+04 -6.896606E+03 -1.036535E+04
       429   3 -3.611107E+05  1.967355E+04  1.428069E+04  5.807527E+04 -6.713878E+03 -5.667742E+03
       429   4 -4.426674E+05  3.675640E+02 -3.465299E+02  5.790837E+04  2.706898E+01 -1.504406E+04
       429   5 -4.426030E+05  3.285828E+02 -3.898264E+02  4.979756E+04  2.052249E+02 -1.034289E+04
       429   6 -4.426613E+05  3.876885E+02 -5.585658E+02  5.790832E+04  3.828444E+02 -5.644896E+03
       429   7 -6.524911E+05 -4.916150E+04 -3.802637E+04  5.740508E+04  7.131692E+03 -1.502199E+04
       429   8 -5.882898E+05 -3.407948E+04 -2.665112E+04  4.946233E+04  7.305435E+03 -1.032044E+04
       429   9 -5.242053E+05 -1.889852E+04 -1.539790E+04  5.774139E+04  7.478659E+03 -5.622052E+03
       429  10 -2.328007E+05  4.989395E+04  3.733128E+04  5.841171E+04  1.118721E-08  9.354678E-10
       429  11 -2.968955E+05  3.473536E+04  2.587054E+04  5.013280E+04  2.062033E-09 -1.442131E-09
       429  12 -3.611107E+05  1.967350E+04  1.428055E+04  5.807524E+04 -4.323318E-09 -4.208954E-09
       429  13 -4.426674E+05  3.673210E+02 -3.469551E+02  5.790837E+04  1.162158E-09  8.835400E-09
       429  14 -4.426030E+05  3.284680E+02 -3.900275E+02  4.979757E+04 -4.916871E-10  4.633074E-10
       429  15 -4.426613E+05  3.876543E+02 -5.586259E+02  5.790832E+04  6.661344E-10 -7.092891E-10
       429  16 -6.524912E+05 -4.916176E+04 -3.802688E+04  5.740517E+04 -1.180220E-08  4.615681E-09
       429  17 -5.882899E+05 -3.407961E+04 -2.665142E+04  4.946239E+04 -2.224242E-09 -1.505866E-09
       429  18 -5.242054E+05 -1.889857E+04 -1.539806E+04  5.774142E+04  5.065456E-09 -5.127230E-10
       429  19 -2.328006E+05  4.989420E+04  3.733180E+04  5.841179E+04  7.079890E+03  1.506613E+04
       429  20 -2.968954E+05  3.473548E+04  2.587083E+04  5.013286E+04  6.896606E+03  1.036535E+04
       429  21 -3.611107E+05  1.967355E+04  1.428069E+04  5.807527E+04  6.713878E+03  5.667742E+03
       429  22 -4.426674E+05  3.675640E+02 -3.465299E+02  5.790837E+04 -2.706898E+01  1.504406E+04
       429  23 -4.426030E+05  3.285828E+02 -3.898264E+02  4.979756E+04 -2.052249E+02  1.034289E+04
       429  24 -4.426613E+05  3.876885E+02 -5.585658E+02  5.790832E+04 -3.828444E+02  5.644896E+03
       429  25 -6.524911E+05 -4.916150E+04 -3.802637E+04  5.740508E+04 -7.131692E+03  1.502199E+04
       429  26 -5.882898E+05 -3.407948E+04 -2.665112E+04  4.946233E+04 -7.305435E+03  1.032044E+04
       429  27 -5.242053E+05 -1.889852E+04 -1.539790E+04  5.774139E+04 -7.478659E+03  5.622052E+03
       430   1 -4.040183E+05  9.489312E+03  6.102116E+03  5.795488E+04 -6.618861E+03 -2.929970E+03
       430   2 -4.680821E+05 -5.679643E+03 -5.817760E+03  4.966093E+04 -5.955687E+03  1.743004E+03
       430   3 -5.323481E+05 -2.081622E+04 -1.819659E+04  5.758809E+04 -5.292288E+03  6.351737E+03
       430   4 -4.426751E+05  3.931082E+02 -7.036958E+02  5.790816E+04  4.882086E+02 -2.906992E+03
       430   5 -4.425810E+05  3.528404E+02 -1.173734E+03  4.979769E+04  1.053988E+03  1.765594E+03
       430   6 -4.426763E+05  3.620565E+02 -2.035087E+03  5.790827E+04  1.620059E+03  6.373948E+03
       430   7 -4.813303E+05 -8.703151E+03 -7.509372E+03  5.786145E+04  7.594848E+03 -2.884015E+03
       430   8 -4.170792E+05  6.385314E+03  3.470451E+03  4.993446E+04  8.063943E+03  1.788187E+03
       430   9 -3.529966E+05  2.153991E+04  1.412628E+04  5.822850E+04  8.533377E+03  6.396166E+03
       430  10 -4.040184E+05  9.489291E+03  6.102017E+03  5.795486E+04 -2.176279E-09  2.265725E-09
       430  11 -4.680821E+05 -5.679656E+03 -5.817833E+03  4.966094E+04 -3.013157E-09  1.255270E-09
       430  12 -5.323482E+05 -2.081627E+04 -1.819671E+04  5.758812E+04 -1.793108E-09  6.553132E-10
       430  13 -4.426751E+05  3.930990E+02 -7.037121E+02  5.790816E+04  1.701607E-09  1.081785E-09
       430  14 -4.425810E+05  3.528367E+02 -1.173742E+03  4.979769E+04 -1.402316E-10  7.263032E-10
       430  15 -4.426763E+05  3.620122E+02 -2.035169E+03  5.790827E+04  7.771790E-10  1.412713E-09
       430  16 -4.813303E+05 -8.703175E+03 -7.509496E+03  5.786146E+04  1.999586E-09  4.806892E-09
       430  17 -4.170793E+05  6.385293E+03  3.470323E+03  4.993445E+04  4.159854E-09 -5.242191E-09
       430  18 -3.529966E+05  2.153984E+04  1.412606E+04  5.822846E+04  3.445412E-09 -5.262676E-10
       430  19 -4.040183E+05  9.489312E+03  6.102116E+03  5.795488E+04  6.618861E+03  2.929970E+03
       430  20 -4.680821E+05 -5.679643E+03 -5.817760E+03  4.966093E+04  5.955687E+03 -1.743004E+03
       430  21 -5.323481E+05 -2.081622E+04 -1.819659E+04  5.758809E+04  5.292288E+03 -6.351737E+03
       430  22 -4.426751E+05  3.931082E+02 -7.036958E+02  5.790816E+04 -4.882086E+02  2.906992E+03
       430  23 -4.425810E+05  3.528404E+02 -1.173734E+03  4.979769E+04 -1.053988E+03 -1.765594E+03
       430  24 -4.426763E+05  3.620565E+02 -2.035087E+03  5.790827E+04 -1.620059E+03 -6.373948E+03
       430  25 -4.813303E+05 -8.703151E+03 -7.509372E+03  5.786145E+04 -7.594848E+03  2.884015E+03
       430  26 -4.170792E+05  6.385314E+03  3.470451E+03  4.993446E+04 -8.063943E+03 -1.788187E+03
       430  27 -3.529966E+05  2.153991E+04  1.412628E+04  5.822850E+04 -8.533377E+03 -6.396166E+03
       431   1 -5.753730E+05 -3.096094E+04 -2.689068E+04  5.728618E+04 -5.019446E+03  9.073217E+03
       431   2 -6.390665E+05 -4.640259E+04 -4.072826E+04  4.945792E+04 -1.437887E+03  1.332733E+04
       431   3 -7.036489E+05 -6.307140E+04 -5.723840E+04  5.779485E+04  2.146447E+03  1.674248E+04
       431   4 -4.427858E+05  4.193090E+02 -2.671092E+03  5.789489E+04  2.024759E+03  9.095673E+03
       431   5 -4.424536E+05  1.574103E+02 -4.667668E+03  4.981486E+04  4.339170E+03  1.334525E+04
       431   6 -4.427949E+05 -1.111261E+03 -8.455994E+03  5.789974E+04  6.656732E+03  1.675600E+04
       431   7 -3.101813E+05  3.179859E+04  2.154797E+04  5.850372E+04  9.070430E+03  9.118139E+03
       431   8 -2.458031E+05  4.671523E+04  3.139147E+04  5.017189E+04  1.011801E+04  1.336318E+04
       431   9 -1.818748E+05  6.084496E+04  4.032357E+04  5.800462E+04  1.116886E+04  1.676953E+04
       431  10 -5.753731E+05 -3.096104E+04 -2.689088E+04  5.728621E+04 -2.933658E-08  6.107053E-09
       431  11 -6.390666E+05 -4.640278E+04 -4.072860E+04  4.945793E+04 -1.112952E-08 -1.559325E-10
       431  12 -7.036490E+05 -6.307170E+04 -5.723894E+04  5.779483E+04  1.311845E-08  2.665684E-09
       431  13 -4.427858E+05  4.192190E+02 -2.671255E+03  5.789487E+04  1.785253E-09  1.245598E-09
       431  14 -4.424537E+05  1.572140E+02 -4.668038E+03  4.981481E+04 -3.829040E-10  2.706491E-10
       431  15 -4.427950E+05 -1.111574E+03 -8.456605E+03  5.789965E+04  6.099485E-10 -2.942771E-09
       431  16 -3.101814E+05  3.179848E+04  2.154766E+04  5.850365E+04  2.919250E-08  1.339568E-09
       431  17 -2.458033E+05  4.671502E+04  3.139094E+04  5.017178E+04  1.119423E-08 -6.465103E-10
       431  18 -1.818751E+05  6.084462E+04  4.032280E+04  5.800446E+04 -1.245515E-08 -1.088379E-08
       431  19 -5.753730E+05 -3.096094E+04 -2.689068E+04  5.728618E+04  5.019446E+03 -9.073217E+03
       431  20 -6.390665E+05 -4.640259E+04 -4.072826E+04  4.945792E+04  1.437887E+03 -1.332733E+04
       431  21 -7.036489E+05 -6.307140E+04 -5.723840E+04  5.779485E+04 -2.146447E+03 -1.674248E+04
       431  22 -4.427858E+05  4.193090E+02 -2.671092E+03  5.789489E+04 -2.024759E+03 -9.095673E+03
       431  23 -4.424536E+05  1.574103E+02 -4.667668E+03  4.981486E+04 -4.339170E+03 -1.334525E+04
       431  24 -4.427949E+05 -1.111261E+03 -8.455994E+03  5.789974E+04 -6.656732E+03 -1.675600E+04
       431  25 -3.101813E+05  3.179859E+04  2.154797E+04  5.850372E+04 -9.070430E+03 -9.118139E+03
       431  26 -2.458031E+05  4.671523E+04  3.139147E+04  5.017189E+04 -1.011801E+04 -1.336318E+04
       431  27 -1.818748E+05  6.084496E+04  4.032357E+04  5.800462E+04 -1.116886E+04 -1.676953E+04
       432   1 -7.484505E+05 -7.229690E+04 -6.818314E+04  5.403591E+04  1.851958E+03  1.923982E+04
       432   2 -8.075410E+05 -9.448653E+04 -9.403068E+04  5.875772E+04  2.867720E+04  1.798458E+04
       432   3 -8.769025E+05 -1.433917E+05 -1.440529E+05  7.899692E+04  5.553054E+04  5.790910E+03
       432   4 -4.442932E+05  3.376984E+01 -1.101937E+04  5.773762E+04  8.095699E+03  1.925837E+04
       432   5 -4.406058E+05 -6.278945E+03 -1.986218E+04  5.003337E+04  1.840320E+04  1.795230E+04
       432   6 -4.443164E+05 -3.642861E+04 -4.139466E+04  5.784733E+04  2.874179E+04  5.709652E+03
       432   7 -1.400462E+05  7.235913E+04  4.614051E+04  6.144112E+04  1.434243E+04  1.927700E+04
       432   8 -7.354182E+04  8.192065E+04  5.429981E+04  4.130366E+04  8.123223E+03  1.792031E+04
       432   9 -1.155567E+04  7.052315E+04  6.125353E+04  3.668278E+04  1.934437E+03  5.630252E+03
       432  10 -7.484506E+05 -7.229730E+04 -6.818384E+04  5.403588E+04  1.452743E-08  3.916424E-09
       432  11 -8.075420E+05 -9.448710E+04 -9.403284E+04  5.875730E+04  7.579343E-09 -1.177906E-10
       432  12 -8.769058E+05 -1.433926E+05 -1.440588E+05  7.899666E+04  1.399370E-09  1.316785E-10
       432  13 -4.442933E+05  3.335407E+01 -1.102019E+04  5.773749E+04  1.266045E-09  3.841836E-09
       432  14 -4.406063E+05 -6.279382E+03 -1.986342E+04  5.003310E+04  6.552307E-10 -4.137581E-09
       432  15 -4.443173E+05 -3.642887E+04 -4.139628E+04  5.784720E+04  4.286479E-10  5.623347E-09
       432  16 -1.400465E+05  7.235867E+04  4.613943E+04  6.144090E+04 -1.483571E-08  5.955189E-10
       432  17 -7.354198E+04  8.192029E+04  5.429908E+04  4.130354E+04 -7.205522E-09  8.860837E-10
       432  18 -1.155568E+04  7.052311E+04  6.125346E+04  3.668277E+04  1.110820E-10  1.655082E-10
       432  19 -7.484505E+05 -7.229690E+04 -6.818314E+04  5.403591E+04 -1.851958E+03 -1.923982E+04
       432  20 -8.075410E+05 -9.448653E+04 -9.403068E+04  5.875772E+04 -2.867720E+04 -1.798458E+04
       432  21 -8.769025E+05 -1.433917E+05 -1.440529E+05  7.899692E+04 -5.553054E+04 -5.790910E+03
       432  22 -4.442932E+05  3.376984E+01 -1.101937E+04  5.773762E+04 -8.095699E+03 -1.925837E+04
       432  23 -4.406058E+05 -6.278945E+03 -1.986218E+04  5.003337E+04 -1.840320E+04 -1.795230E+04
       432  24 -4.443164E+05 -3.642861E+04 -4.139466E+04  5.784733E+04 -2.874179E+04 -5.709652E+03
       432  25 -1.400462E+05  7.235913E+04  4.614051E+04  6.144112E+04 -1.434243E+04 -1.927700E+04
       432  26 -7.354182E+04  8.192065E+04  5.429981E+04  4.130366E+04 -8.123223E+03 -1.792031E+04
       432  27 -1.155567E+04  7.052315E+04  6.125353E+04  3.668278E+04 -1.934437E+03 -5.630252E+03
       433   1 -8.453341E+04  5.840141E+04  4.763152E+04  1.317303E+03 -1.932672E+04 -5.264855E+03
       433   2 -1.128843E+05  8.998594E+04  5.954912E+04  6.893452E+03 -1.667459E+04 -1.642135E+04
       433   3 -1.511322E+05  8.355032E+04  6.024728E+04  2.619500E+04 -1.405281E+04 -1.713403E+04
       433   4 -4.842788E+05 -4.082888E+04 -4.929665E+04  1.960329E+04 -3.386091E+04 -5.307854E+03
       433   5 -4.785128E+05  4.897513E+02 -2.241358E+04  1.267588E+04 -2.194155E+04 -1.643814E+04
       433   6 -4.842615E+05  2.165889E+03 -1.319414E+04  1.947476E+04 -1.005219E+04 -1.712195E+04
       433   7 -8.838769E+05 -1.400695E+05 -1.462354E+05  3.787736E+04 -4.838577E+04 -5.351724E+03
       433   8 -8.440166E+05 -8.901541E+04 -1.043846E+05  1.845478E+04 -2.720544E+04 -1.645503E+04
       433   9 -8.172868E+05 -7.922585E+04 -8.664230E+04  1.275808E+04 -6.053694E+03 -1.710996E+04
       433  10 -8.453382E+04  5.840128E+04  4.763077E+04  1.317221E+03 -5.093905E-09  1.293649E-09
       433  11 -1.128846E+05  8.998558E+04  5.954809E+04  6.893231E+03 -3.583488E-09  1.144215E-08
       433  12 -1.511325E+05  8.354996E+04  6.024635E+04  2.619481E+04 -5.030047E-09  4.453160E-09
       433  13 -4.842800E+05 -4.082922E+04 -4.929886E+04  1.960315E+04  1.340668E-10 -5.176072E-09
       433  14 -4.785134E+05  4.893318E+02 -2.241499E+04  1.267559E+04  3.300568E-10 -9.007709E-09
       433  15 -4.842617E+05  2.165547E+03 -1.319488E+04  1.947462E+04  2.596493E-09 -1.076929E-09
       433  16 -8.838795E+05 -1.400701E+05 -1.462398E+05  3.787715E+04  1.854741E-09 -2.864169E-10
       433  17 -8.440175E+05 -8.901590E+04 -1.043865E+05  1.845442E+04  2.546571E-09  5.883029E-09
       433  18 -8.172869E+05 -7.922617E+04 -8.664292E+04  1.275799E+04  4.823036E-09 -2.112350E-09
       433  19 -8.453341E+04  5.840141E+04  4.763152E+04  1.317303E+03  1.932672E+04  5.264855E+03
       433  20 -1.128843E+05  8.998594E+04  5.954912E+04  6.893452E+03  1.667459E+04  1.642135E+04
       433  21 -1.511322E+05  8.355032E+04  6.024728E+04  2.619500E+04  1.405281E+04  1.713403E+04
       433  22 -4.842788E+05 -4.082888E+04 -4.929665E+04  1.960329E+04  3.386091E+04  5.307854E+03
       433  23 -4.785128E+05  4.897513E+02 -2.241358E+04  1.267588E+04  2.194155E+04  1.643814E+04
       433  24 -4.842615E+05  2.165889E+03 -1.319414E+04  1.947476E+04  1.005219E+04  1.712195E+04
       433  25 -8.838769E+05 -1.400695E+05 -1.462354E+05  3.787736E+04  4.838577E+04  5.351724E+03
       433  26 -8.440166E+05 -8.901541E+04 -1.043846E+05  1.845478E+04  2.720544E+04  1.645503E+04
       433  27 -8.172868E+05 -7.922585E+04 -8.664230E+04  1.275808E+04  6.053694E+03  1.710996E+04
       434   1 -1.765970E+05  7.240048E+04  5.715093E+04  1.954470E+04 -9.111504E+03 -1.508122E+04
       434   2 -2.095006E+05  6.657214E+04  5.436846E+04  1.300232E+04 -6.680577E+03 -1.379122E+04
       434   3 -2.433578E+05  5.854687E+04  4.943433E+04  2.065720E+04 -4.251936E+03 -1.203090E+04
       434   4 -4.819289E+05 -2.215716E+03 -1.050700E+04  1.961802E+04 -8.179237E+03 -1.507877E+04
       434   5 -4.814116E+05  1.597461E+02 -5.674991E+03  1.251511E+04 -5.332038E+03 -1.378721E+04
       434   6 -4.819224E+05  2.652503E+02 -3.284806E+03  1.960987E+04 -2.487002E+03 -1.202523E+04
       434   7 -7.871738E+05 -7.683821E+04 -7.817071E+04  1.969123E+04 -7.247423E+03 -1.507631E+04
       434   8 -7.532536E+05 -6.625763E+04 -6.572299E+04  1.202805E+04 -3.984082E+03 -1.378320E+04
       434   9 -7.204338E+05 -5.802020E+04 -5.600744E+04  1.856290E+04 -7.227380E+02 -1.201956E+04
       434  10 -1.765971E+05  7.240022E+04  5.715034E+04  1.954459E+04 -1.835542E-09 -2.426101E-09
       434  11 -2.095007E+05  6.657193E+04  5.436802E+04  1.300225E+04 -1.128102E-09  3.495499E-09
       434  12 -2.433578E+05  5.854671E+04  4.943403E+04  2.065716E+04 -1.351380E-09  5.774879E-09
       434  13 -4.819291E+05 -2.215978E+03 -1.050756E+04  1.961792E+04 -3.970627E-10  1.173455E-08
       434  14 -4.814117E+05  1.595344E+02 -5.675401E+03  1.251505E+04  1.121112E-10 -2.073774E-08
       434  15 -4.819224E+05  2.650934E+02 -3.285090E+03  1.960984E+04  2.370974E-09  1.002300E-08
       434  16 -7.871739E+05 -7.683847E+04 -7.817124E+04  1.969115E+04 -6.778018E-10 -1.122539E-08
       434  17 -7.532537E+05 -6.625783E+04 -6.572338E+04  1.202801E+04  1.125844E-09 -7.271713E-09
       434  18 -7.204338E+05 -5.802035E+04 -5.600772E+04  1.856289E+04  2.768677E-10  2.566063E-09
       434  19 -1.765970E+05  7.240048E+04  5.715093E+04  1.954470E+04  9.111504E+03  1.508122E+04
       434  20 -2.095006E+05  6.657214E+04  5.436846E+04  1.300232E+04  6.680577E+03  1.379122E+04
       434  21 -2.433578E+05  5.854687E+04  4.943433E+04  2.065720E+04  4.251936E+03  1.203090E+04
       434  22 -4.819289E+05 -2.215716E+03 -1.050700E+04  1.961802E+04  8.179237E+03  1.507877E+04
       434  23 -4.814116E+05  1.597461E+02 -5.674991E+03  1.251511E+04  5.332038E+03  1.378721E+04
       434  24 -4.819224E+05  2.652503E+02 -3.284806E+03  1.960987E+04  2.487002E+03  1.202523E+04
       434  25 -7.871738E+05 -7.683821E+04 -7.817071E+04  1.969123E+04  7.247423E+03  1.507631E+04
       434  26 -7.532536E+05 -6.625763E+04 -6.572299E+04  1.202805E+04  3.984082E+03  1.378320E+04
       434  27 -7.204338E+05 -5.802020E+04 -5.600744E+04  1.856290E+04  7.227380E+02  1.201956E+04
       435   1 -2.709638E+05  5.147708E+04  4.389609E+04  2.021169E+04 -3.609704E+03 -1.089718E+04
       435   2 -3.044037E+05  4.339072E+04  3.765050E+04  1.299170E+04 -2.916889E+03 -9.046817E+03
       435   3 -3.380563E+05  3.526489E+04  3.091741E+04  2.006380E+04 -2.224615E+03 -7.172979E+03
       435   4 -4.817393E+05  1.742433E+01 -2.527398E+03  1.963337E+04 -1.979237E+03 -1.089183E+04
       435   5 -4.816290E+05  1.077397E+02 -1.451236E+03  1.248696E+04 -1.265834E+03 -9.041220E+03
       435   6 -4.817356E+05  1.551568E+02 -8.768491E+02  1.963288E+04 -5.529345E+02 -7.167131E+03
       435   7 -6.924733E+05 -5.144521E+04 -4.895360E+04  1.905521E+04 -3.493174E+02 -1.088648E+04
       435   8 -6.588249E+05 -4.317735E+04 -4.055489E+04  1.198233E+04  3.847554E+02 -9.035625E+03
       435   9 -6.253956E+05 -3.495597E+04 -3.267238E+04  1.920205E+04  1.118364E+03 -7.161285E+03
       435  10 -2.709639E+05  5.147695E+04  4.389584E+04  2.021166E+04  1.389840E-08 -4.892343E-09
       435  11 -3.044038E+05  4.339063E+04  3.765033E+04  1.299168E+04  3.489736E-09 -6.235220E-09
       435  12 -3.380563E+05  3.526484E+04  3.091730E+04  2.006379E+04 -9.063745E-09 -1.279059E-09
       435  13 -4.817394E+05  1.729591E+01 -2.527628E+03  1.963335E+04 -1.765396E-10 -6.470906E-10
       435  14 -4.816290E+05  1.076516E+02 -1.451392E+03  1.248695E+04 -9.352237E-10 -6.195994E-09
       435  15 -4.817356E+05  1.551015E+02 -8.769462E+02  1.963288E+04  3.187917E-09  1.236005E-09
       435  16 -6.924733E+05 -5.144534E+04 -4.895382E+04  1.905521E+04 -1.740251E-08 -5.515067E-09
       435  17 -6.588249E+05 -4.317744E+04 -4.055505E+04  1.198233E+04 -4.381363E-09  4.294022E-09
       435  18 -6.253956E+05 -3.495602E+04 -3.267247E+04  1.920205E+04  8.325768E-09  1.349310E-08
       435  19 -2.709638E+05  5.147708E+04  4.389609E+04  2.021169E+04  3.609704E+03  1.089718E+04
       435  20 -3.044037E+05  4.339072E+04  3.765050E+04  1.299170E+04  2.916889E+03  9.046817E+03
       435  21 -3.380563E+05  3.526489E+04  3.091741E+04  2.006380E+04  2.224615E+03  7.172979E+03
       435  22 -4.817393E+05  1.742433E+01 -2.527398E+03  1.963337E+04  1.979237E+03  1.089183E+04
       435  23 -4.816290E+05  1.077397E+02 -1.451236E+03  1.248696E+04  1.265834E+03  9.041220E+03
       435  24 -4.817356E+05  1.551568E+02 -8.768491E+02  1.963288E+04  5.529345E+02  7.167131E+03
       435  25 -6.924733E+05 -5.144521E+04 -4.895360E+04  1.905521E+04  3.493174E+02  1.088648E+04
       435  26 -6.588249E+05 -4.317735E+04 -4.055489E+04  1.198233E+04 -3.847554E+02  9.035625E+03
       435  27 -6.253956E+05 -3.495597E+04 -3.267238E+04  1.920205E+04 -1.118364E+03  7.161285E+03
       436   1 -3.659314E+05  2.840288E+04  2.474790E+04  1.997462E+04 -2.081541E+03 -6.077036E+03
       436   2 -3.995110E+05  2.016298E+04  1.761918E+04  1.270645E+04 -1.841508E+03 -4.196873E+03
       436   3 -4.332246E+05  1.201545E+04  1.032762E+04  1.977337E+04 -1.601698E+03 -2.314594E+03
       436   4 -4.817158E+05  1.433997E+02 -7.031961E+02  1.964256E+04 -4.143885E+02 -6.071123E+03
       436   5 -4.816473E+05  1.022600E+02 -5.027291E+02  1.247494E+04 -1.725556E+02 -4.190874E+03
       436   6 -4.817142E+05  1.532360E+02 -4.663506E+02  1.964252E+04  6.906705E+01 -2.308505E+03
       436   7 -5.974877E+05 -2.811698E+04 -2.615510E+04  1.931054E+04  1.252457E+03 -6.065212E+03
       436   8 -5.637773E+05 -1.995892E+04 -1.862505E+04  1.224345E+04  1.496179E+03 -4.184877E+03
       436   9 -5.302016E+05 -1.170914E+04 -1.126046E+04  1.951168E+04  1.739703E+03 -2.302416E+03
       436  10 -3.659314E+05  2.840284E+04  2.474782E+04  1.997461E+04  1.585733E-09 -6.941087E-09
       436  11 -3.995110E+05  2.016296E+04  1.761915E+04  1.270644E+04 -4.337022E-09  9.877502E-10
       436  12 -4.332246E+05  1.201544E+04  1.032760E+04  1.977336E+04 -1.023059E-08  2.843475E-09
       436  13 -4.817158E+05  1.433601E+02 -7.032657E+02  1.964256E+04  1.121924E-10  1.783713E-09
       436  14 -4.816473E+05  1.022411E+02 -5.027622E+02  1.247494E+04 -4.391100E-10 -3.413111E-09
       436  15 -4.817142E+05  1.532303E+02 -4.663606E+02  1.964252E+04  3.565838E-09  7.041937E-10
       436  16 -5.974877E+05 -2.811702E+04 -2.615517E+04  1.931055E+04 -5.119938E-09  4.908850E-09
       436  17 -5.637773E+05 -1.995894E+04 -1.862508E+04  1.224346E+04  3.406171E-09  9.127060E-09
       436  18 -5.302016E+05 -1.170914E+04 -1.126047E+04  1.951168E+04  9.509150E-09  5.040217E-09
       436  19 -3.659314E+05  2.840288E+04  2.474790E+04  1.997462E+04  2.081541E+03  6.077036E+03
       436  20 -3.995110E+05  2.016298E+04  1.761918E+04  1.270645E+04  1.841508E+03  4.196873E+03
       436  21 -4.332246E+05  1.201545E+04  1.032762E+04  1.977337E+04  1.601698E+03  2.314594E+03
       436  22 -4.817158E+05  1.433997E+02 -7.031961E+02  1.964256E+04  4.143885E+02  6.071123E+03
       436  23 -4.816473E+05  1.022600E+02 -5.027291E+02  1.247494E+04  1.725556E+02  4.190874E+03
       436  24 -4.817142E+05  1.532360E+02 -4.663506E+02  1.964252E+04 -6.906705E+01  2.308505E+03
       436  25 -5.974877E+05 -2.811698E+04 -2.615510E+04  1.931054E+04 -1.252457E+03  6.065212E+03
       436  26 -5.637773E+05 -1.995892E+04 -1.862505E+04  1.224345E+04 -1.496179E+03  4.184877E+03
       436  27 -5.302016E+05 -1.170914E+04 -1.126046E+04  1.951168E+04 -1.739703E+03  2.302416E+03
       437   1 -4.611735E+05  5.152075E+03  3.935050E+03  1.969386E+04 -1.518305E+03 -1.218435E+03
       437   2 -4.947694E+05 -3.099511E+03 -3.593716E+03  1.241377E+04 -1.179761E+03  6.653336E+02
       437   3 -5.285167E+05 -1.126475E+04 -1.135186E+04  1.948045E+04 -8.412056E+02  2.548184E+03
       437   4 -4.817176E+05  1.533857E+02 -5.025425E+02  1.964508E+04  1.528236E+02 -1.212322E+03
       437   5 -4.816414E+05  1.072238E+02 -6.969784E+02  1.247172E+04  4.905051E+02  6.714275E+02
       437   6 -4.817180E+05  1.474985E+02 -1.120277E+03  1.964510E+04  8.282170E+02  2.554264E+03
       437   7 -5.022613E+05 -4.845330E+03 -4.940150E+03  1.959630E+04  1.823897E+03 -1.206210E+03
       437   8 -4.685132E+05  3.313948E+03  2.199759E+03  1.252967E+04  2.160806E+03  6.775216E+02
       437   9 -4.349172E+05  1.155961E+04  9.111181E+03  1.980977E+04  2.497764E+03  2.560345E+03
       437  10 -4.611735E+05  5.152073E+03  3.935043E+03  1.969386E+04  8.284039E-11  6.670635E-10
       437  11 -4.947694E+05 -3.099512E+03 -3.593719E+03  1.241377E+04 -1.062963E-09 -6.519164E-09
       437  12 -5.285167E+05 -1.126476E+04 -1.135187E+04  1.948045E+04 -7.993589E-09 -6.771818E-09
       437  13 -4.817176E+05  1.533842E+02 -5.025453E+02  1.964508E+04 -2.279013E-10  5.774697E-09
       437  14 -4.816414E+05  1.072233E+02 -6.969797E+02  1.247172E+04 -1.010656E-09 -4.943279E-09
       437  15 -4.817180E+05  1.474913E+02 -1.120290E+03  1.964510E+04  3.262885E-09 -5.546115E-09
       437  16 -5.022613E+05 -4.845332E+03 -4.940159E+03  1.959630E+04 -4.074986E-09  3.427745E-09
       437  17 -4.685132E+05  3.313947E+03  2.199749E+03  1.252967E+04  1.314406E-09 -1.566124E-08
       437  18 -4.349172E+05  1.155960E+04  9.111157E+03  1.980976E+04  7.724250E-09 -8.259385E-09
       437  19 -4.611735E+05  5.152075E+03  3.935050E+03  1.969386E+04  1.518305E+03  1.218435E+03
       437  20 -4.947694E+05 -3.099511E+03 -3.593716E+03  1.241377E+04  1.179761E+03 -6.653336E+02
       437  21 -5.285167E+05 -1.126475E+04 -1.135186E+04  1.948045E+04  8.412056E+02 -2.548184E+03
       437  22 -4.817176E+05  1.533857E+02 -5.025425E+02  1.964508E+04 -1.528236E+02  1.212322E+03
       437  23 -4.816414E+05  1.072238E+02 -6.969784E+02  1.247172E+04 -4.905051E+02 -6.714275E+02
       437  24 -4.817180E+05  1.474985E+02 -1.120277E+03  1.964510E+04 -8.282170E+02 -2.554264E+03
       437  25 -5.022613E+05 -4.845330E+03 -4.940150E+03  1.959630E+04 -1.823897E+03  1.206210E+03
       437  26 -4.685132E+05  3.313948E+03  2.199759E+03  1.252967E+04 -2.160806E+03 -6.775216E+02
       437  27 -4.349172E+05  1.155961E+04  9.111181E+03  1.980977E+04 -2.497764E+03 -2.560345E+03
       438   1 -5.564896E+05 -1.810597E+04 -1.803277E+04  1.935527E+04 -6.181164E+02  3.646014E+03
       438   2 -5.899510E+05 -2.633884E+04 -2.638639E+04  1.211738E+04  6.191189E+02  5.527072E+03
       438   3 -6.237346E+05 -3.472154E+04 -3.561276E+04  1.920442E+04  1.856638E+03  7.389095E+03
       438   4 -4.817559E+05  1.682153E+02 -1.447200E+03  1.963996E+04  1.055635E+03  3.652072E+03
       438   5 -4.815972E+05  1.290921E+02 -2.475171E+03  1.247798E+04  2.276147E+03  5.532960E+03
       438   6 -4.817584E+05 -5.671063E+01 -4.363959E+03  1.964078E+04  3.497008E+03  7.394818E+03
       438   7 -4.070169E+05  1.844203E+04  1.513803E+04  1.992467E+04  2.729586E+03  3.658131E+03
       438   8 -3.732325E+05  2.659624E+04  2.143533E+04  1.283863E+04  3.933461E+03  5.538848E+03
       438   9 -3.397634E+05  3.460677E+04  2.688361E+04  2.007722E+04  5.137749E+03  7.400542E+03
       438  10 -5.564896E+05 -1.810599E+04 -1.803279E+04  1.935528E+04 -6.678327E-09 -2.108883E-09
       438  11 -5.899510E+05 -2.633887E+04 -2.638644E+04  1.211738E+04 -1.405163E-09 -5.054216E-09
       438  12 -6.237346E+05 -3.472160E+04 -3.561287E+04  1.920441E+04 -1.485017E-09 -1.298194E-09
       438  13 -4.817559E+05  1.682006E+02 -1.447227E+03  1.963996E+04 -5.190873E-11 -2.126894E-09
       438  14 -4.815972E+05  1.290579E+02 -2.475238E+03  1.247797E+04 -1.079361E-09  2.466886E-09
       438  15 -4.817584E+05 -5.677262E+01 -4.364085E+03  1.964075E+04  2.955684E-09 -5.435867E-10
       438  16 -4.070169E+05  1.844201E+04  1.513799E+04  1.992467E+04  2.433421E-09  5.594197E-09
       438  17 -3.732325E+05  2.659620E+04  2.143525E+04  1.283861E+04  1.632037E-09 -3.629718E-09
       438  18 -3.397634E+05  3.460671E+04  2.688346E+04  2.007719E+04  1.078857E-09  4.037965E-09
       438  19 -5.564896E+05 -1.810597E+04 -1.803277E+04  1.935527E+04  6.181164E+02 -3.646014E+03
       438  20 -5.899510E+05 -2.633884E+04 -2.638639E+04  1.211738E+04 -6.191189E+02 -5.527072E+03
       438  21 -6.237346E+05 -3.472154E+04 -3.561276E+04  1.920442E+04 -1.856638E+03 -7.389095E+03
       438  22 -4.817559E+05  1.682153E+02 -1.447200E+03  1.963996E+04 -1.055635E+03 -3.652072E+03
       438  23 -4.815972E+05  1.290921E+02 -2.475171E+03  1.247798E+04 -2.276147E+03 -5.532960E+03
       438  24 -4.817584E+05 -5.671063E+01 -4.363959E+03  1.964078E+04 -3.497008E+03 -7.394818E+03
       438  25 -4.070169E+05  1.844203E+04  1.513803E+04  1.992467E+04 -2.729586E+03 -3.658131E+03
       438  26 -3.732325E+05  2.659624E+04  2.143533E+04  1.283863E+04 -3.933461E+03 -5.538848E+03
       438  27 -3.397634E+05  3.460677E+04  2.688361E+04  2.007722E+04 -5.137749E+03 -7.400542E+03
       439   1 -6.519200E+05 -4.113745E+04 -4.325556E+04  1.841485E+04  2.624401E+03  8.520093E+03
       439   2 -6.845227E+05 -4.943810E+04 -5.475550E+04  1.229611E+04  7.909389E+03  1.031706E+04
       439   3 -7.189398E+05 -6.181171E+04 -7.074246E+04  2.044266E+04  1.319587E+04  1.172107E+04
       439   4 -4.820790E+05  3.746516E+02 -5.686478E+03  1.962304E+04  4.377496E+03  8.526120E+03
       439   5 -4.812050E+05  2.346797E+02 -9.840949E+03  1.249791E+04  9.315265E+03  1.032167E+04
       439   6 -4.820852E+05 -3.916976E+03 -1.823998E+04  1.963783E+04  1.425480E+04  1.172431E+04
       439   7 -3.122111E+05  4.188481E+04  3.188083E+04  2.083155E+04  6.131065E+03  8.532153E+03
       439   8 -2.778486E+05  4.990468E+04  3.507106E+04  1.269974E+04  1.072160E+04  1.032628E+04
       439   9 -2.451781E+05  5.397397E+04  3.425902E+04  1.883264E+04  1.531414E+04  1.172754E+04
       439  10 -6.519200E+05 -4.113753E+04 -4.325571E+04  1.841483E+04 -9.600764E-09 -2.367309E-09
       439  11 -6.845228E+05 -4.943823E+04 -5.475582E+04  1.229604E+04 -7.405297E-09  3.304829E-09
       439  12 -7.189400E+05 -6.181190E+04 -7.074305E+04  2.044253E+04 -1.974836E-09 -6.569596E-09
       439  13 -4.820791E+05  3.745684E+02 -5.686650E+03  1.962301E+04  2.410053E-10 -1.408880E-08
       439  14 -4.812051E+05  2.345420E+02 -9.841312E+03  1.249783E+04 -1.707177E-09  2.490197E-09
       439  15 -4.820854E+05 -3.917178E+03 -1.824062E+04  1.963769E+04  2.710158E-09 -1.831865E-09
       439  16 -3.122112E+05  4.188473E+04  3.188062E+04  2.083151E+04  5.840746E-09 -8.198201E-09
       439  17 -2.778488E+05  4.990453E+04  3.507064E+04  1.269965E+04  6.220651E-09 -1.467118E-08
       439  18 -2.451784E+05  5.397376E+04  3.425832E+04  1.883249E+04  1.220394E-09 -1.008549E-09
       439  19 -6.519200E+05 -4.113745E+04 -4.325556E+04  1.841485E+04 -2.624401E+03 -8.520093E+03
       439  20 -6.845227E+05 -4.943810E+04 -5.475550E+04  1.229611E+04 -7.909389E+03 -1.031706E+04
       439  21 -7.189398E+05 -6.181171E+04 -7.074246E+04  2.044266E+04 -1.319587E+04 -1.172107E+04
       439  22 -4.820790E+05  3.746516E+02 -5.686478E+03  1.962304E+04 -4.377496E+03 -8.526120E+03
       439  23 -4.812050E+05  2.346797E+02 -9.840949E+03  1.249791E+04 -9.315265E+03 -1.032167E+04
       439  24 -4.820852E+05 -3.916976E+03 -1.823998E+04  1.963783E+04 -1.425480E+04 -1.172431E+04
       439  25 -3.122111E+05  4.188481E+04  3.188083E+04  2.083155E+04 -6.131065E+03 -8.532153E+03
       439  26 -2.778486E+05  4.990468E+04  3.507106E+04  1.269974E+04 -1.072160E+04 -1.032628E+04
       439  27 -2.451781E+05  5.397397E+04  3.425902E+04  1.883264E+04 -1.531414E+04 -1.172754E+04
       440   1 -7.508405E+05 -6.104536E+04 -8.130838E+04  8.538040E+03  1.388853E+04  1.360894E+04
       440   2 -7.736998E+05 -7.198872E+04 -1.056601E+05  2.339746E+04  4.226682E+04  1.341470E+04
       440   3 -8.179150E+05 -1.532208E+05 -1.660899E+05  5.221183E+04  7.067007E+04  4.488063E+03
       440   4 -4.861403E+05  3.696493E+03 -2.290906E+04  1.949784E+04  1.751156E+04  1.362086E+04
       440   5 -4.761506E+05  8.263372E+02 -3.891259E+04  1.263929E+04  3.815017E+04  1.340014E+04
       440   6 -4.861638E+05 -7.097127E+04 -8.560563E+04  1.973726E+04  5.881576E+04  4.446915E+03
       440   7 -2.213743E+05  6.843406E+04  3.548605E+04  3.046232E+04  2.113611E+04  1.363291E+04
       440   8 -1.785186E+05  7.363581E+04  2.782942E+04  1.875839E+03  3.403156E+04  1.338573E+04
       440   9 -1.543093E+05  1.127431E+04 -5.128151E+03 -1.275482E+04  4.695511E+04  4.407020E+03
       440  10 -7.508407E+05 -6.104561E+04 -8.130909E+04  8.537888E+03  2.790635E-09 -6.261136E-09
       440  11 -7.737018E+05 -7.198939E+04 -1.056638E+05  2.339700E+04  8.611440E-09  4.122637E-09
       440  12 -8.179204E+05 -1.532222E+05 -1.660994E+05  5.221158E+04  8.358093E-09  1.130801E-08
       440  13 -4.861407E+05  3.696211E+03 -2.290999E+04  1.949765E+04 -1.673015E-10 -8.865347E-10
       440  14 -4.761522E+05  8.257533E+02 -3.891566E+04  1.263888E+04 -9.229625E-10 -1.264234E-09
       440  15 -4.861675E+05 -7.097222E+04 -8.561217E+04  1.973705E+04  2.495033E-09  4.994146E-09
       440  16 -2.213748E+05  6.843374E+04  3.548486E+04  3.046209E+04 -6.487815E-09  3.219395E-09
       440  17 -1.785198E+05  7.363531E+04  2.782691E+04  1.875472E+03 -9.188937E-09  4.767617E-09
       440  18 -1.543117E+05  1.127370E+04 -5.132332E+03 -1.275499E+04 -9.476232E-09 -1.665545E-09
       440  19 -7.508405E+05 -6.104536E+04 -8.130838E+04  8.538040E+03 -1.388853E+04 -1.360894E+04
       440  20 -7.736998E+05 -7.198872E+04 -1.056601E+05  2.339746E+04 -4.226682E+04 -1.341470E+04
       440  21 -8.179150E+05 -1.532208E+05 -1.660899E+05  5.221183E+04 -7.067007E+04 -4.488063E+03
       440  22 -4.861403E+05  3.696493E+03 -2.290906E+04  1.949784E+04 -1.751156E+04 -1.362086E+04
       440  23 -4.761506E+05  8.263372E+02 -3.891259E+04  1.263929E+04 -3.815017E+04 -1.340014E+04
       440  24 -4.861638E+05 -7.097127E+04 -8.560563E+04  1.973726E+04 -5.881576E+04 -4.446915E+03
       440  25 -2.213743E+05  6.843406E+04  3.548605E+04  3.046232E+04 -2.113611E+04 -1.363291E+04
       440  26 -1.785186E+05  7.363581E+04  2.782942E+04  1.875839E+03 -3.403156E+04 -1.338573E+04
       440  27 -1.543093E+05  1.127431E+04 -5.128151E+03 -1.275482E+04 -4.695511E+04 -4.407020E+03
