
 stresses (elem, integ.pnt.,sxx,syy,szz,sxy,sxz,syz) for set ELALL and time  0.1000000E+01

         1   1 -6.045626E+06 -7.612845E+05 -9.960026E+05 -1.270771E+04 -6.770600E+05  1.398750E+01
         1   2 -5.890698E+06  1.842775E+05 -4.235011E+05 -3.185387E+03 -4.453442E+05  2.305918E+00
         1   3 -6.043392E+06  2.352158E+04 -2.793069E+05  6.339014E+03 -2.136415E+05 -2.201892E+00
         1   4 -6.045626E+06 -7.612848E+05 -9.960026E+05  3.519101E-07 -6.770600E+05  1.229833E-10
         1   5 -5.890698E+06  1.842775E+05 -4.235011E+05 -9.737431E-07 -4.453442E+05  2.979502E-09
         1   6 -6.043393E+06  2.352151E+04 -2.793069E+05  8.299014E-07 -2.136415E+05 -7.689745E-09
         1   7 -6.045626E+06 -7.612845E+05 -9.960026E+05  1.270771E+04 -6.770600E+05 -1.398750E+01
         1   8 -5.890698E+06  1.842775E+05 -4.235011E+05  3.185387E+03 -4.453442E+05 -2.305918E+00
         1   9 -6.043392E+06  2.352158E+04 -2.793069E+05 -6.339014E+03 -2.136415E+05  2.201892E+00
         1  10 -6.046122E+06 -7.614090E+05 -9.968724E+05 -1.270771E+04 -1.082667E-10  1.553234E-09
         1  11 -5.890912E+06  1.842236E+05 -4.238774E+05 -3.185386E+03 -1.508762E-09  5.740253E-10
         1  12 -6.043442E+06  2.350918E+04 -2.793935E+05  6.339014E+03  5.947602E-11 -1.063455E-08
         1  13 -6.046122E+06 -7.614093E+05 -9.968725E+05 -4.730110E-07  2.097387E-09 -5.444803E-11
         1  14 -5.890912E+06  1.842236E+05 -4.238774E+05 -2.858999E-07 -2.164210E-09 -4.769016E-10
         1  15 -6.043442E+06  2.350910E+04 -2.793936E+05  1.766155E-07  5.780096E-11 -4.137494E-09
         1  16 -6.046122E+06 -7.614090E+05 -9.968724E+05  1.270771E+04  2.065723E-09 -5.830374E-10
         1  17 -5.890912E+06  1.842236E+05 -4.238774E+05  3.185386E+03 -9.005321E-11 -8.004374E-09
         1  18 -6.043442E+06  2.350918E+04 -2.793935E+05 -6.339014E+03  2.617996E-10  5.868496E-09
         1  19 -6.045626E+06 -7.612845E+05 -9.960026E+05 -1.270771E+04  6.770600E+05 -1.398750E+01
         1  20 -5.890698E+06  1.842775E+05 -4.235011E+05 -3.185387E+03  4.453442E+05 -2.305918E+00
         1  21 -6.043392E+06  2.352158E+04 -2.793069E+05  6.339014E+03  2.136415E+05  2.201892E+00
         1  22 -6.045626E+06 -7.612848E+05 -9.960026E+05  7.693599E-08  6.770600E+05  7.337699E-10
         1  23 -5.890698E+06  1.842775E+05 -4.235011E+05 -8.361763E-07  4.453442E+05 -5.578611E-09
         1  24 -6.043393E+06  2.352151E+04 -2.793069E+05  7.267500E-07  2.136415E+05 -1.322194E-09
         1  25 -6.045626E+06 -7.612845E+05 -9.960026E+05  1.270771E+04  6.770600E+05  1.398750E+01
         1  26 -5.890698E+06  1.842775E+05 -4.235011E+05  3.185387E+03  4.453442E+05  2.305918E+00
         1  27 -6.043392E+06  2.352158E+04 -2.793069E+05 -6.339014E+03  2.136415E+05 -2.201892E+00
         2   1 -5.987006E+06 -1.195629E+05 -2.314033E+05 -1.913638E+03 -1.674019E+05  5.207959E-01
         2   2 -5.961218E+06  2.896515E+04 -1.093482E+05 -4.496336E+02 -1.099285E+05  8.035399E-02
         2   3 -5.986559E+06  3.592158E+03 -6.844177E+04  1.014383E+03 -5.245377E+04 -8.650360E-02
         2   4 -5.987006E+06 -1.195630E+05 -2.314033E+05  2.003148E-07 -1.674019E+05 -6.456166E-09
         2   5 -5.961218E+06  2.896515E+04 -1.093482E+05  3.820136E-07 -1.099285E+05  7.569062E-09
         2   6 -5.986559E+06  3.592156E+03 -6.844177E+04  1.854594E-07 -5.245377E+04 -4.852211E-09
         2   7 -5.987006E+06 -1.195629E+05 -2.314033E+05  1.913638E+03 -1.674019E+05 -5.207960E-01
         2   8 -5.961218E+06  2.896515E+04 -1.093482E+05  4.496336E+02 -1.099285E+05 -8.035399E-02
         2   9 -5.986559E+06  3.592158E+03 -6.844177E+04 -1.014383E+03 -5.245377E+04  8.650363E-02
         2  10 -5.987036E+06 -1.195706E+05 -2.314565E+05 -1.913638E+03  1.293517E-09 -4.681177E-09
         2  11 -5.961231E+06  2.896186E+04 -1.093712E+05 -4.496336E+02  3.963426E-09  1.700717E-09
         2  12 -5.986562E+06  3.591411E+03 -6.844699E+04  1.014383E+03 -2.541542E-09  4.835347E-09
         2  13 -5.987036E+06 -1.195706E+05 -2.314565E+05 -1.037357E-06 -6.377853E-09 -1.926080E-09
         2  14 -5.961231E+06  2.896186E+04 -1.093712E+05  3.132493E-07 -1.812398E-09  4.329254E-09
         2  15 -5.986562E+06  3.591409E+03 -6.844699E+04  1.510770E-07  3.029240E-09  3.933107E-09
         2  16 -5.987036E+06 -1.195706E+05 -2.314565E+05  1.913638E+03 -3.557597E-10 -4.671609E-09
         2  17 -5.961231E+06  2.896186E+04 -1.093712E+05  4.496336E+02  4.547428E-09  1.030100E-08
         2  18 -5.986562E+06  3.591411E+03 -6.844699E+04 -1.014383E+03  4.119984E-09 -6.251525E-10
         2  19 -5.987006E+06 -1.195629E+05 -2.314033E+05 -1.913638E+03  1.674019E+05 -5.207959E-01
         2  20 -5.961218E+06  2.896515E+04 -1.093482E+05 -4.496336E+02  1.099285E+05 -8.035398E-02
         2  21 -5.986559E+06  3.592158E+03 -6.844177E+04  1.014383E+03  5.245377E+04  8.650366E-02
         2  22 -5.987006E+06 -1.195630E+05 -2.314033E+05  3.378334E-07  1.674019E+05  3.021911E-10
         2  23 -5.961218E+06  2.896515E+04 -1.093482E+05  3.820153E-07  1.099285E+05  3.277058E-09
         2  24 -5.986559E+06  3.592156E+03 -6.844177E+04  1.148123E-06  5.245377E+04  9.528341E-09
         2  25 -5.987006E+06 -1.195629E+05 -2.314033E+05  1.913638E+03  1.674019E+05  5.207959E-01
         2  26 -5.961218E+06  2.896515E+04 -1.093482E+05  4.496336E+02  1.099285E+05  8.035397E-02
         2  27 -5.986559E+06  3.592158E+03 -6.844177E+04 -1.014383E+03  5.245377E+04 -8.650366E-02
         3   1 -5.977225E+06 -1.868618E+04 -5.499061E+04 -2.790339E+02 -4.129237E+04  1.873168E-02
         3   2 -5.972819E+06  4.542611E+03 -2.800461E+04 -5.778551E+01 -2.693071E+04  2.529997E-03
         3   3 -5.977135E+06  4.983328E+02 -1.725364E+04  1.634587E+02 -1.256908E+04 -3.340110E-03
         3   4 -5.977225E+06 -1.868618E+04 -5.499061E+04 -8.731481E-08 -4.129237E+04  3.186416E-09
         3   5 -5.972819E+06  4.542611E+03 -2.800461E+04  2.945301E-08 -2.693071E+04  1.576865E-08
         3   6 -5.977135E+06  4.983328E+02 -1.725364E+04  2.837450E-07 -1.256908E+04 -5.071589E-09
         3   7 -5.977225E+06 -1.868618E+04 -5.499061E+04  2.790339E+02 -4.129237E+04 -1.873168E-02
         3   8 -5.972819E+06  4.542611E+03 -2.800461E+04  5.778551E+01 -2.693071E+04 -2.529977E-03
         3   9 -5.977135E+06  4.983328E+02 -1.725364E+04 -1.634587E+02 -1.256908E+04  3.340108E-03
         3  10 -5.977227E+06 -1.868665E+04 -5.499384E+04 -2.790339E+02 -4.213669E-09 -5.845021E-10
         3  11 -5.972820E+06  4.542414E+03 -2.800599E+04 -5.778551E+01 -1.093457E-09  2.755395E-08
         3  12 -5.977135E+06  4.982899E+02 -1.725394E+04  1.634587E+02 -2.302835E-09 -5.787624E-09
         3  13 -5.977227E+06 -1.868665E+04 -5.499384E+04  7.378080E-07  4.432327E-09  4.448210E-09
         3  14 -5.972820E+06  4.542414E+03 -2.800599E+04  6.483034E-07  1.030029E-23  1.067442E-08
         3  15 -5.977135E+06  4.982899E+02 -1.725394E+04  5.587874E-07 -7.117948E-09  5.426716E-10
         3  16 -5.977227E+06 -1.868665E+04 -5.499384E+04  2.790339E+02  4.919056E-09  8.032841E-09
         3  17 -5.972820E+06  4.542414E+03 -2.800599E+04  5.778551E+01  2.569734E-09  1.035741E-08
         3  18 -5.977135E+06  4.982899E+02 -1.725394E+04 -1.634587E+02 -2.325918E-10  1.154697E-08
         3  19 -5.977225E+06 -1.868618E+04 -5.499061E+04 -2.790339E+02  4.129237E+04 -1.873164E-02
         3  20 -5.972819E+06  4.542611E+03 -2.800461E+04 -5.778551E+01  2.693071E+04 -2.529914E-03
         3  21 -5.977135E+06  4.983328E+02 -1.725364E+04  1.634587E+02  1.256908E+04  3.340120E-03
         3  22 -5.977225E+06 -1.868618E+04 -5.499061E+04  8.753263E-07  4.129237E+04 -5.622003E-10
         3  23 -5.972819E+06  4.542611E+03 -2.800461E+04  3.732585E-07  2.693071E+04  4.076830E-09
         3  24 -5.977135E+06  4.983328E+02 -1.725364E+04  4.384588E-07  1.256908E+04  5.929413E-09
         3  25 -5.977225E+06 -1.868618E+04 -5.499061E+04  2.790339E+02  4.129237E+04  1.873164E-02
         3  26 -5.972819E+06  4.542611E+03 -2.800461E+04  5.778551E+01  2.693071E+04  2.529964E-03
         3  27 -5.977135E+06  4.983328E+02 -1.725364E+04 -1.634587E+02  1.256908E+04 -3.340161E-03
         4   1 -5.975585E+06 -2.891490E+03 -1.380286E+04 -4.070764E+01 -9.763878E+03  6.461807E-04
         4   2 -5.974731E+06  7.700729E+02 -8.031242E+03 -5.732233E+00 -5.711102E+03  5.323960E-05
         4   3 -5.975568E+06 -1.915621E+02 -6.073119E+03  2.924364E+01 -1.658252E+03 -7.881189E-05
         4   4 -5.975585E+06 -2.891490E+03 -1.380286E+04  3.618387E-07 -9.763878E+03 -7.519261E-09
         4   5 -5.974731E+06  7.700729E+02 -8.031242E+03 -4.292872E-07 -5.711102E+03  1.131114E-08
         4   6 -5.975568E+06 -1.915621E+02 -6.073119E+03  5.329740E-07 -1.658252E+03 -6.034544E-09
         4   7 -5.975585E+06 -2.891490E+03 -1.380286E+04  4.070764E+01 -9.763878E+03 -6.462194E-04
         4   8 -5.974731E+06  7.700729E+02 -8.031242E+03  5.732233E+00 -5.711102E+03 -5.324814E-05
         4   9 -5.975568E+06 -1.915621E+02 -6.073119E+03 -2.924364E+01 -1.658252E+03  7.881253E-05
         4  10 -5.975585E+06 -2.891516E+03 -1.380304E+04 -4.070764E+01 -3.695604E-10  3.358102E-09
         4  11 -5.974731E+06  7.700641E+02 -8.031304E+03 -5.732235E+00 -5.206493E-09  1.634242E-08
         4  12 -5.975568E+06 -1.915629E+02 -6.073124E+03  2.924364E+01  8.381687E-10 -1.602780E-08
         4  13 -5.975585E+06 -2.891516E+03 -1.380304E+04  3.618376E-07 -4.701645E-09 -9.531604E-10
         4  14 -5.974731E+06  7.700641E+02 -8.031304E+03 -2.917667E-07  2.702216E-10 -9.532186E-10
         4  15 -5.975568E+06 -1.915629E+02 -6.073124E+03 -5.328080E-07  2.720685E-09 -1.575228E-09
         4  16 -5.975585E+06 -2.891516E+03 -1.380304E+04  4.070764E+01 -2.049385E-09  3.372713E-09
         4  17 -5.974731E+06  7.700641E+02 -8.031304E+03  5.732234E+00  7.706528E-10 -9.755286E-10
         4  18 -5.975568E+06 -1.915629E+02 -6.073124E+03 -2.924364E+01  2.955202E-09 -1.070813E-08
         4  19 -5.975585E+06 -2.891490E+03 -1.380286E+04 -4.070764E+01  9.763878E+03 -6.461223E-04
         4  20 -5.974731E+06  7.700729E+02 -8.031242E+03 -5.732233E+00  5.711102E+03 -5.316389E-05
         4  21 -5.975568E+06 -1.915621E+02 -6.073119E+03  2.924364E+01  1.658252E+03  7.884824E-05
         4  22 -5.975585E+06 -2.891490E+03 -1.380286E+04  3.618369E-07  9.763878E+03  8.562659E-09
         4  23 -5.974731E+06  7.700729E+02 -8.031242E+03  1.895542E-07  5.711102E+03  1.543862E-09
         4  24 -5.975568E+06 -1.915621E+02 -6.073119E+03  6.704937E-07  1.658252E+03  4.073879E-09
         4  25 -5.975585E+06 -2.891490E+03 -1.380286E+04  4.070764E+01  9.763878E+03  6.461526E-04
         4  26 -5.974731E+06  7.700729E+02 -8.031242E+03  5.732232E+00  5.711102E+03  5.319422E-05
         4  27 -5.975568E+06 -1.915621E+02 -6.073119E+03 -2.924364E+01  1.658252E+03 -7.885893E-05
         5   1 -5.975460E+06 -3.965669E+02 -5.707385E+03 -2.060456E+01 -5.950253E+02  1.995140E-05
         5   2 -5.974863E+06  5.355849E+02 -5.973748E+03  3.422146E+00  2.414920E+03  1.342894E-05
         5   3 -5.975467E+06 -1.747694E+03 -9.017790E+03  2.744887E+01  5.424861E+03  2.421131E-04
         5   4 -5.975460E+06 -3.965669E+02 -5.707385E+03  8.826799E-07 -5.950253E+02 -4.950684E-09
         5   5 -5.974863E+06  5.355849E+02 -5.973748E+03  1.916985E-07  2.414920E+03  1.037896E-08
         5   6 -5.975467E+06 -1.747694E+03 -9.017790E+03  4.633570E-07  5.424861E+03 -1.173831E-08
         5   7 -5.975460E+06 -3.965669E+02 -5.707385E+03  2.060456E+01 -5.950253E+02 -1.997289E-05
         5   8 -5.974863E+06  5.355849E+02 -5.973748E+03 -3.422146E+00  2.414920E+03 -1.347850E-05
         5   9 -5.975467E+06 -1.747694E+03 -9.017790E+03 -2.744887E+01  5.424861E+03 -2.421101E-04
         5  10 -5.975460E+06 -3.965670E+02 -5.707386E+03 -2.060456E+01 -1.275328E-09 -5.266508E-09
         5  11 -5.974863E+06  5.355833E+02 -5.973759E+03  3.422145E+00 -1.107862E-09  2.059333E-08
         5  12 -5.975467E+06 -1.747702E+03 -9.017846E+03  2.744887E+01  1.948672E-09 -1.496290E-08
         5  13 -5.975460E+06 -3.965670E+02 -5.707386E+03 -3.549979E-07  4.168106E-09  1.264389E-10
         5  14 -5.974863E+06  5.355833E+02 -5.973759E+03  4.667402E-07  2.418983E-09  3.365292E-09
         5  15 -5.975467E+06 -1.747702E+03 -9.017846E+03 -3.961438E-07 -8.759386E-09 -1.081430E-09
         5  16 -5.975460E+06 -3.965670E+02 -5.707386E+03  2.060456E+01  8.052748E-10 -5.275858E-09
         5  17 -5.974863E+06  5.355833E+02 -5.973759E+03 -3.422145E+00 -9.733150E-10  1.204733E-08
         5  18 -5.975467E+06 -1.747702E+03 -9.017846E+03 -2.744887E+01 -1.915503E-09  2.260847E-09
         5  19 -5.975460E+06 -3.965669E+02 -5.707385E+03 -2.060456E+01  5.950253E+02 -1.993401E-05
         5  20 -5.974863E+06  5.355849E+02 -5.973748E+03  3.422145E+00 -2.414920E+03 -1.341165E-05
         5  21 -5.975467E+06 -1.747694E+03 -9.017790E+03  2.744887E+01 -5.424861E+03 -2.420844E-04
         5  22 -5.975460E+06 -3.965669E+02 -5.707385E+03  8.826854E-07  5.950253E+02  8.567958E-10
         5  23 -5.974863E+06  5.355849E+02 -5.973748E+03  2.604597E-07 -2.414920E+03  2.848344E-09
         5  24 -5.975467E+06 -1.747694E+03 -9.017790E+03  6.798484E-08 -5.424861E+03  8.247328E-09
         5  25 -5.975460E+06 -3.965669E+02 -5.707385E+03  2.060456E+01  5.950253E+02  1.987798E-05
         5  26 -5.974863E+06  5.355849E+02 -5.973748E+03 -3.422144E+00 -2.414920E+03  1.339880E-05
         5  27 -5.975467E+06 -1.747694E+03 -9.017790E+03 -2.744887E+01 -5.424861E+03  2.420694E-04
         6   1 -5.976376E+06  2.603117E+02 -1.096187E+04 -9.938947E+01  7.229291E+03 -1.168098E-03
         6   2 -5.973741E+06  2.766286E+03 -1.726429E+04  3.517867E+01  1.607867E+04  9.195670E-04
         6   3 -5.976431E+06 -1.133599E+04 -3.352160E+04  1.697452E+02  2.492786E+04  6.879136E-03
         6   4 -5.976376E+06  2.603116E+02 -1.096187E+04  9.476765E-07  7.229291E+03 -3.484846E-09
         6   5 -5.973741E+06  2.766286E+03 -1.726429E+04  2.011757E-07  1.607867E+04  1.607385E-08
         6   6 -5.976431E+06 -1.133599E+04 -3.352160E+04 -1.243184E-08  2.492786E+04 -2.542784E-09
         6   7 -5.976376E+06  2.603117E+02 -1.096187E+04  9.938947E+01  7.229291E+03  1.168088E-03
         6   8 -5.973741E+06  2.766286E+03 -1.726429E+04 -3.517867E+01  1.607867E+04 -9.195831E-04
         6   9 -5.976431E+06 -1.133599E+04 -3.352160E+04 -1.697452E+02  2.492786E+04 -6.879113E-03
         6  10 -5.976376E+06  2.602975E+02 -1.096197E+04 -9.938947E+01 -4.516440E-10 -4.650845E-09
         6  11 -5.973741E+06  2.766216E+03 -1.726478E+04  3.517867E+01 -2.869596E-09 -6.993510E-09
         6  12 -5.976431E+06 -1.133616E+04 -3.352278E+04  1.697452E+02  1.160281E-09  1.129031E-08
         6  13 -5.976376E+06  2.602974E+02 -1.096197E+04  1.225535E-07  1.608505E-09 -3.590290E-10
         6  14 -5.973741E+06  2.766216E+03 -1.726478E+04  5.449779E-07 -5.402172E-10 -6.953912E-09
         6  15 -5.976431E+06 -1.133616E+04 -3.352278E+04 -3.390442E-07 -2.217638E-09  3.724135E-09
         6  16 -5.976376E+06  2.602975E+02 -1.096197E+04  9.938947E+01 -2.000690E-09 -4.704000E-09
         6  17 -5.973741E+06  2.766216E+03 -1.726478E+04 -3.517867E+01 -1.430878E-09  1.467722E-08
         6  18 -5.976431E+06 -1.133616E+04 -3.352278E+04 -1.697452E+02  2.064296E-09 -1.682744E-09
         6  19 -5.976376E+06  2.603117E+02 -1.096187E+04 -9.938947E+01 -7.229291E+03  1.168116E-03
         6  20 -5.973741E+06  2.766286E+03 -1.726429E+04  3.517867E+01 -1.607867E+04 -9.195140E-04
         6  21 -5.976431E+06 -1.133599E+04 -3.352160E+04  1.697452E+02 -2.492786E+04 -6.879113E-03
         6  22 -5.976376E+06  2.603116E+02 -1.096187E+04  5.351155E-07 -7.229291E+03  1.848855E-10
         6  23 -5.973741E+06  2.766286E+03 -1.726429E+04  1.324154E-07 -1.607867E+04 -6.675952E-09
         6  24 -5.976431E+06 -1.133599E+04 -3.352160E+04  3.829391E-07 -2.492786E+04  8.159123E-09
         6  25 -5.976376E+06  2.603117E+02 -1.096187E+04  9.938947E+01 -7.229291E+03 -1.168137E-03
         6  26 -5.973741E+06  2.766286E+03 -1.726429E+04 -3.517867E+01 -1.607867E+04  9.195206E-04
         6  27 -5.976431E+06 -1.133599E+04 -3.352160E+04 -1.697452E+02 -2.492786E+04  6.879091E-03
         7   1 -5.982088E+06  2.173286E+03 -4.164539E+04 -6.153915E+02  3.172546E+04 -3.174046E-02
         7   2 -5.966711E+06  1.757398E+04 -6.641414E+04  2.728385E+02  6.662685E+04  2.955272E-02
         7   3 -5.982361E+06 -7.253836E+04 -1.404420E+05  1.161077E+03  1.015282E+05  1.916446E-01
         7   4 -5.982088E+06  2.173285E+03 -4.164539E+04  6.911796E-07  3.172546E+04 -4.571158E-10
         7   5 -5.966711E+06  1.757398E+04 -6.641414E+04  8.901582E-08  6.662685E+04  1.098133E-08
         7   6 -5.982361E+06 -7.253837E+04 -1.404420E+05  7.932933E-07  1.015282E+05 -2.752289E-09
         7   7 -5.982088E+06  2.173286E+03 -4.164539E+04  6.153915E+02  3.172546E+04  3.174039E-02
         7   8 -5.966711E+06  1.757398E+04 -6.641414E+04 -2.728385E+02  6.662685E+04 -2.955275E-02
         7   9 -5.982361E+06 -7.253836E+04 -1.404420E+05 -1.161077E+03  1.015282E+05 -1.916446E-01
         7  10 -5.982089E+06  2.173013E+03 -4.164730E+04 -6.153915E+02 -2.584070E-09  1.596830E-11
         7  11 -5.966716E+06  1.757278E+04 -6.642256E+04  2.728385E+02 -4.166065E-09  1.292832E-08
         7  12 -5.982372E+06 -7.254116E+04 -1.404616E+05  1.161077E+03 -2.699737E-10 -9.695755E-09
         7  13 -5.982089E+06  2.173012E+03 -4.164730E+04  5.536573E-07  2.687606E-09  1.079616E-09
         7  14 -5.966716E+06  1.757278E+04 -6.642256E+04 -4.851028E-08 -3.492405E-09  5.926513E-09
         7  15 -5.982372E+06 -7.254117E+04 -1.404616E+05 -1.005809E-07 -1.408566E-09  3.376332E-09
         7  16 -5.982089E+06  2.173013E+03 -4.164730E+04  6.153915E+02  1.543232E-09  8.620807E-09
         7  17 -5.966716E+06  1.757278E+04 -6.642256E+04 -2.728385E+02 -5.318350E-10  4.345679E-09
         7  18 -5.982372E+06 -7.254116E+04 -1.404616E+05 -1.161077E+03  1.040988E-09 -7.575337E-09
         7  19 -5.982088E+06  2.173286E+03 -4.164539E+04 -6.153915E+02 -3.172546E+04  3.174044E-02
         7  20 -5.966711E+06  1.757398E+04 -6.641414E+04  2.728385E+02 -6.662685E+04 -2.955270E-02
         7  21 -5.982361E+06 -7.253836E+04 -1.404420E+05  1.161077E+03 -1.015282E+05 -1.916446E-01
         7  22 -5.982088E+06  2.173285E+03 -4.164539E+04  1.241271E-06 -3.172546E+04  2.579297E-09
         7  23 -5.966711E+06  1.757398E+04 -6.641414E+04  5.015943E-07 -6.662685E+04 -2.895029E-09
         7  24 -5.982361E+06 -7.253837E+04 -1.404420E+05  6.557711E-07 -1.015282E+05  6.255299E-09
         7  25 -5.982088E+06  2.173286E+03 -4.164539E+04  6.153915E+02 -3.172546E+04 -3.174046E-02
         7  26 -5.966711E+06  1.757398E+04 -6.641414E+04 -2.728385E+02 -6.662685E+04  2.955271E-02
         7  27 -5.982361E+06 -7.253836E+04 -1.404420E+05 -1.161077E+03 -1.015282E+05  1.916446E-01
         8   1 -6.016573E+06  1.426600E+04 -1.695083E+05 -3.845685E+03  1.295983E+05 -8.103013E-01
         8   2 -5.923948E+06  1.117924E+05 -2.570574E+05  1.932169E+03  2.701630E+05  8.485591E-01
         8   3 -6.017969E+06 -4.618602E+05 -6.045003E+05  7.709311E+03  4.107338E+05  5.147820E+00
         8   4 -6.016573E+06  1.426597E+04 -1.695083E+05  5.177005E-07  1.295983E+05 -1.760505E-10
         8   5 -5.923948E+06  1.117924E+05 -2.570574E+05  1.655999E-07  2.701630E+05  2.182670E-08
         8   6 -6.017969E+06 -4.618603E+05 -6.045003E+05  3.290669E-07  4.107338E+05  2.599582E-09
         8   7 -6.016573E+06  1.426600E+04 -1.695083E+05  3.845685E+03  1.295983E+05  8.103013E-01
         8   8 -5.923948E+06  1.117924E+05 -2.570574E+05 -1.932169E+03  2.701630E+05 -8.485591E-01
         8   9 -6.017969E+06 -4.618602E+05 -6.045003E+05 -7.709311E+03  4.107338E+05 -5.147820E+00
         8  10 -6.016591E+06  1.426143E+04 -1.695402E+05 -3.845685E+03  1.781318E-09  3.363353E-11
         8  11 -5.924027E+06  1.117726E+05 -2.571959E+05  1.932169E+03  9.369844E-10  1.295482E-08
         8  12 -6.018151E+06 -4.619060E+05 -6.048204E+05  7.709310E+03  1.171432E-09 -1.084223E-09
         8  13 -6.016591E+06  1.426141E+04 -1.695402E+05  2.426472E-07  2.081428E-09  2.605545E-09
         8  14 -5.924027E+06  1.117726E+05 -2.571959E+05  1.655949E-07 -4.029902E-09  5.175566E-09
         8  15 -6.018151E+06 -4.619061E+05 -6.048204E+05  5.696874E-07 -2.818704E-09  2.688696E-09
         8  16 -6.016591E+06  1.426143E+04 -1.695402E+05  3.845685E+03 -1.206866E-09 -3.315397E-11
         8  17 -5.924027E+06  1.117726E+05 -2.571959E+05 -1.932169E+03 -1.199704E-09  7.950783E-15
         8  18 -6.018151E+06 -4.619060E+05 -6.048204E+05 -7.709310E+03 -3.824846E-09  2.162293E-09
         8  19 -6.016573E+06  1.426600E+04 -1.695083E+05 -3.845685E+03 -1.295983E+05  8.103013E-01
         8  20 -5.923948E+06  1.117924E+05 -2.570574E+05  1.932169E+03 -2.701630E+05 -8.485591E-01
         8  21 -6.017969E+06 -4.618602E+05 -6.045003E+05  7.709311E+03 -4.107338E+05 -5.147820E+00
         8  22 -6.016573E+06  1.426597E+04 -1.695083E+05  3.801782E-07 -1.295983E+05  7.841386E-09
         8  23 -5.923948E+06  1.117924E+05 -2.570574E+05  2.343723E-07 -2.701630E+05 -1.082141E-08
         8  24 -6.017969E+06 -4.618603E+05 -6.045003E+05  1.056228E-07 -4.107338E+05 -5.006084E-11
         8  25 -6.016573E+06  1.426600E+04 -1.695083E+05  3.845685E+03 -1.295983E+05 -8.103013E-01
         8  26 -5.923948E+06  1.117924E+05 -2.570574E+05 -1.932169E+03 -2.701630E+05  8.485591E-01
         8  27 -6.017969E+06 -4.618602E+05 -6.045003E+05 -7.709311E+03 -4.107338E+05  5.147820E+00
         9   1  2.222829E+06  7.967966E+06  2.104589E+06 -1.663429E+06  9.746389E+04  8.478555E+05
         9   2  1.779000E+06  6.776859E+06  1.392992E+06 -1.537960E+06  3.293167E+05  3.961329E+05
         9   3  1.462231E+06  5.679351E+06  1.005555E+06 -1.583255E+06  3.873914E+05 -5.445568E+04
         9   4  1.238245E+05 -5.882889E+05  1.287193E+05 -1.560100E+06  9.982987E+04  8.605401E+04
         9   5  4.468250E+04 -5.959961E+05  6.820172E+04 -1.474939E+06  3.309596E+05  5.264113E+04
         9   6  2.124340E+04 -5.828333E+05  4.372932E+04 -1.560500E+06  3.874148E+05  1.940721E+04
         9   7 -1.979960E+06 -9.076148E+06 -1.849874E+06 -1.458069E+06  1.019713E+05 -6.654340E+05
         9   8 -1.692584E+06 -7.915980E+06 -1.258259E+06 -1.412580E+06  3.325481E+05 -2.869211E+05
         9   9 -1.421635E+06 -6.806004E+06 -9.189490E+05 -1.537895E+06  3.874436E+05  9.255810E+04
         9  10  2.222628E+06  7.967199E+06  2.103236E+06 -1.663496E+06  3.901935E-09  4.406746E-09
         9  11  1.778842E+06  6.776662E+06  1.392495E+06 -1.538065E+06  8.556149E-09 -2.036150E-09
         9  12  1.462070E+06  5.679308E+06  1.005268E+06 -1.583238E+06 -2.526479E-09 -8.007294E-09
         9  13  1.238118E+05 -5.882996E+05  1.286866E+05 -1.560107E+06  4.955262E-09  6.126116E-11
         9  14  4.456412E+04 -5.960285E+05  6.799055E+04 -1.474954E+06  9.509516E-09 -6.402926E-11
         9  15  2.108216E+04 -5.828740E+05  4.344656E+04 -1.560506E+06 -8.333073E-10 -6.390943E-11
         9  16 -1.980092E+06 -9.076632E+06 -1.850737E+06 -1.458014E+06  6.563759E-10 -4.347909E-09
         9  17 -1.692725E+06 -7.916098E+06 -1.258622E+06 -1.412503E+06 -2.344139E-09  1.907985E-09
         9  18 -1.421798E+06 -6.806053E+06 -9.192476E+05 -1.537924E+06 -1.220066E-09  8.255379E-09
         9  19  2.222829E+06  7.967966E+06  2.104589E+06 -1.663429E+06 -9.746389E+04 -8.478555E+05
         9  20  1.779000E+06  6.776859E+06  1.392992E+06 -1.537960E+06 -3.293167E+05 -3.961329E+05
         9  21  1.462231E+06  5.679351E+06  1.005555E+06 -1.583255E+06 -3.873914E+05  5.445568E+04
         9  22  1.238245E+05 -5.882889E+05  1.287193E+05 -1.560100E+06 -9.982987E+04 -8.605401E+04
         9  23  4.468250E+04 -5.959961E+05  6.820172E+04 -1.474939E+06 -3.309596E+05 -5.264113E+04
         9  24  2.124340E+04 -5.828333E+05  4.372932E+04 -1.560500E+06 -3.874148E+05 -1.940721E+04
         9  25 -1.979960E+06 -9.076148E+06 -1.849874E+06 -1.458069E+06 -1.019713E+05  6.654340E+05
         9  26 -1.692584E+06 -7.915980E+06 -1.258259E+06 -1.412580E+06 -3.325481E+05  2.869211E+05
         9  27 -1.421635E+06 -6.806004E+06 -9.189490E+05 -1.537895E+06 -3.874436E+05 -9.255810E+04
        10   1  1.290052E+06  4.957522E+06  8.609169E+05 -1.588385E+06  3.615474E+05 -7.381062E+04
        10   2  1.017437E+06  3.806317E+06  6.463300E+05 -1.485738E+06  3.141392E+05 -1.465022E+05
        10   3  7.686105E+05  2.671652E+06  4.847455E+05 -1.566827E+06  2.437235E+05 -2.192759E+05
        10   4  1.981953E+04 -5.846663E+05  3.774076E+04 -1.563413E+06  3.614112E+05  1.290750E+04
        10   5  1.846730E+04 -5.858492E+05  3.508016E+04 -1.471500E+06  3.135568E+05 -4.720697E+03
        10   6  3.149598E+04 -5.812676E+05  4.738287E+04 -1.563393E+06  2.426105E+05 -2.255593E+04
        10   7 -1.251848E+06 -6.096112E+06 -7.859858E+05 -1.538600E+06  3.612808E+05  9.888709E+04
        10   8 -9.813458E+05 -4.958474E+06 -5.763329E+05 -1.457320E+06  3.129778E+05  1.361067E+05
        10   9 -7.060524E+05 -3.823347E+06 -3.899299E+05 -1.559950E+06  2.414954E+05  1.731843E+05
        10  10  1.289910E+06  4.957481E+06  8.606614E+05 -1.588363E+06 -1.955264E-09  6.435681E-09
        10  11  1.017326E+06  3.806268E+06  6.461050E+05 -1.485701E+06  2.637776E-09  2.747290E-08
        10  12  7.685341E+05  2.671585E+06  4.845446E+05 -1.566784E+06 -9.288722E-13  4.608982E-08
        10  13  1.967925E+04 -5.847016E+05  3.749501E+04 -1.563417E+06 -5.561678E-10 -2.713658E-11
        10  14  1.836176E+04 -5.858756E+05  3.489543E+04 -1.471499E+06  6.785370E-09 -1.575353E-10
        10  15  3.143268E+04 -5.812839E+05  4.727141E+04 -1.563388E+06  3.714332E-09 -1.896693E-10
        10  16 -1.251991E+06 -6.096158E+06 -7.862499E+05 -1.538629E+06  3.454492E-09 -6.499725E-09
        10  17 -9.814561E+05 -4.958520E+06 -5.765524E+05 -1.457354E+06  6.632901E-09 -2.753288E-08
        10  18 -7.061233E+05 -3.823395E+06 -3.900967E+05 -1.559984E+06  1.694266E-09 -4.589943E-08
        10  19  1.290052E+06  4.957522E+06  8.609169E+05 -1.588385E+06 -3.615474E+05  7.381062E+04
        10  20  1.017437E+06  3.806317E+06  6.463300E+05 -1.485738E+06 -3.141392E+05  1.465022E+05
        10  21  7.686105E+05  2.671652E+06  4.847455E+05 -1.566827E+06 -2.437235E+05  2.192759E+05
        10  22  1.981953E+04 -5.846663E+05  3.774076E+04 -1.563413E+06 -3.614112E+05 -1.290750E+04
        10  23  1.846730E+04 -5.858492E+05  3.508016E+04 -1.471500E+06 -3.135568E+05  4.720697E+03
        10  24  3.149598E+04 -5.812676E+05  4.738287E+04 -1.563393E+06 -2.426105E+05  2.255593E+04
        10  25 -1.251848E+06 -6.096112E+06 -7.859858E+05 -1.538600E+06 -3.612808E+05 -9.888709E+04
        10  26 -9.813458E+05 -4.958474E+06 -5.763329E+05 -1.457320E+06 -3.129778E+05 -1.361067E+05
        10  27 -7.060524E+05 -3.823347E+06 -3.899299E+05 -1.559950E+06 -2.414954E+05 -1.731843E+05
        11   1  6.144773E+05  1.968862E+06  3.957828E+05 -1.567949E+06  1.946687E+05 -2.290599E+05
        11   2  3.972929E+05  8.152151E+05  2.822123E+05 -1.410577E+06  1.113360E+05 -2.828783E+05
        11   3  2.579441E+05 -3.120424E+05  2.227176E+05 -1.438549E+06  2.708664E+04 -3.366793E+05
        11   4  3.854927E+04 -5.763233E+05  5.878774E+04 -1.563758E+06  1.934527E+05 -3.086712E+04
        11   5  8.139892E+04 -5.880425E+05  1.008382E+05 -1.470712E+06  1.100558E+05 -8.263115E+04
        11   6  2.017937E+05 -5.751766E+05  1.954182E+05 -1.562915E+06  2.575361E+04 -1.344613E+05
        11   7 -5.376324E+05 -3.114821E+06 -2.781087E+05 -1.559568E+06  1.922357E+05  1.665534E+05
        11   8 -2.345401E+05 -1.989188E+06 -8.039318E+04 -1.530699E+06  1.087348E+05  1.171858E+05
        11   9  1.457216E+05 -8.381163E+05  1.682820E+05 -1.687224E+06  2.433910E+04  6.767597E+04
        11  10  6.144228E+05  1.968796E+06  3.956139E+05 -1.567913E+06 -8.374037E-10 -4.894430E-08
        11  11  3.972582E+05  8.151261E+05  2.820392E+05 -1.410552E+06  1.388179E-09 -2.266890E-08
        11  12  2.579129E+05 -3.121644E+05  2.225032E+05 -1.438542E+06 -1.129806E-09  5.526076E-09
        11  13  3.850887E+04 -5.763343E+05  5.871572E+04 -1.563753E+06 -2.463343E-10 -2.794928E-10
        11  14  8.138412E+04 -5.880530E+05  1.008027E+05 -1.470704E+06  4.204009E-09 -1.299017E-11
        11  15  2.017881E+05 -5.751962E+05  1.953830E+05 -1.562912E+06  2.586741E-09 -7.575984E-11
        11  16 -5.376797E+05 -3.114860E+06 -2.782309E+05 -1.559594E+06  1.431966E-09  4.823712E-08
        11  17 -2.345565E+05 -1.989206E+06 -8.044143E+04 -1.530709E+06  1.164975E-09  2.254253E-08
        11  18  1.457198E+05 -8.381214E+05  1.682722E+05 -1.687226E+06 -3.723217E-09 -5.102901E-09
        11  19  6.144773E+05  1.968862E+06  3.957828E+05 -1.567949E+06 -1.946687E+05  2.290599E+05
        11  20  3.972929E+05  8.152151E+05  2.822123E+05 -1.410577E+06 -1.113360E+05  2.828783E+05
        11  21  2.579441E+05 -3.120424E+05  2.227176E+05 -1.438549E+06 -2.708664E+04  3.366793E+05
        11  22  3.854927E+04 -5.763233E+05  5.878774E+04 -1.563758E+06 -1.934527E+05  3.086712E+04
        11  23  8.139892E+04 -5.880425E+05  1.008382E+05 -1.470712E+06 -1.100558E+05  8.263115E+04
        11  24  2.017937E+05 -5.751766E+05  1.954182E+05 -1.562915E+06 -2.575361E+04  1.344613E+05
        11  25 -5.376324E+05 -3.114821E+06 -2.781087E+05 -1.559568E+06 -1.922357E+05 -1.665534E+05
        11  26 -2.345401E+05 -1.989188E+06 -8.039318E+04 -1.530699E+06 -1.087348E+05 -1.171858E+05
        11  27  1.457216E+05 -8.381163E+05  1.682820E+05 -1.687224E+06 -2.433910E+04 -6.767597E+04
        12   1 -7.035019E+06 -2.115707E+06 -1.411214E+06 -2.440552E+06 -8.482655E+05 -3.154714E+05
        12   2 -6.780627E+06 -8.587803E+05 -6.100256E+05 -2.649024E+06 -5.453887E+05 -1.982423E+05
        12   3 -7.027224E+06 -9.395281E+05 -3.948071E+05 -2.554614E+06 -2.405940E+05 -8.611420E+04
        12   4 -6.911917E+06 -1.885424E+06 -1.340395E+06 -2.218461E+06 -8.466501E+05 -3.151852E+05
        12   5 -6.592831E+06 -7.391901E+05 -5.492049E+05 -2.548150E+06 -5.452535E+05 -1.982460E+05
        12   6 -6.774277E+06 -9.301652E+05 -3.426912E+05 -2.575030E+06 -2.419022E+05 -8.656149E+04
        12   7 -6.788716E+06 -1.654928E+06 -1.269560E+06 -1.996296E+06 -8.450344E+05 -3.148976E+05
        12   8 -6.404996E+06 -6.195727E+05 -4.883873E+05 -2.447242E+06 -5.451183E+05 -1.982496E+05
        12   9 -6.521251E+06 -9.207889E+05 -2.905737E+05 -2.595461E+06 -2.432110E+05 -8.700856E+04
        12  10 -7.035827E+06 -2.116012E+06 -1.412773E+06 -2.440770E+06  2.527040E-09 -3.218313E-10
        12  11 -6.780960E+06 -8.589041E+05 -6.106666E+05 -2.649112E+06  9.770399E-11  1.842020E-11
        12  12 -7.027288E+06 -9.395519E+05 -3.949314E+05 -2.554631E+06  3.558899E-09 -1.590809E-11
        12  13 -6.912722E+06 -1.885727E+06 -1.341948E+06 -2.218678E+06  6.676347E-09 -4.031967E-10
        12  14 -6.593164E+06 -7.393138E+05 -5.498454E+05 -2.548238E+06  1.359670E-10 -2.601855E-10
        12  15 -6.774342E+06 -9.301893E+05 -3.428168E+05 -2.575047E+06  2.229646E-09  6.259104E-10
        12  16 -6.789517E+06 -1.655230E+06 -1.271107E+06 -1.996512E+06 -2.461310E-09 -5.918014E-10
        12  17 -6.405328E+06 -6.196963E+05 -4.890272E+05 -2.447330E+06  1.085150E-10 -4.965883E-10
        12  18 -6.521318E+06 -9.208132E+05 -2.907006E+05 -2.595478E+06  2.590200E-09  1.822273E-09
        12  19 -7.035019E+06 -2.115707E+06 -1.411214E+06 -2.440552E+06  8.482655E+05  3.154714E+05
        12  20 -6.780627E+06 -8.587803E+05 -6.100256E+05 -2.649024E+06  5.453887E+05  1.982423E+05
        12  21 -7.027224E+06 -9.395281E+05 -3.948071E+05 -2.554614E+06  2.405940E+05  8.611420E+04
        12  22 -6.911917E+06 -1.885424E+06 -1.340395E+06 -2.218461E+06  8.466501E+05  3.151852E+05
        12  23 -6.592831E+06 -7.391901E+05 -5.492049E+05 -2.548150E+06  5.452535E+05  1.982460E+05
        12  24 -6.774277E+06 -9.301652E+05 -3.426912E+05 -2.575030E+06  2.419022E+05  8.656149E+04
        12  25 -6.788716E+06 -1.654928E+06 -1.269560E+06 -1.996296E+06  8.450344E+05  3.148976E+05
        12  26 -6.404996E+06 -6.195727E+05 -4.883873E+05 -2.447242E+06  5.451183E+05  1.982496E+05
        12  27 -6.521251E+06 -9.207889E+05 -2.905737E+05 -2.595461E+06  2.432110E+05  8.700856E+04
        13   1 -6.789211E+06 -1.131340E+06 -3.025377E+05 -2.532462E+06 -1.904834E+05 -6.917096E+04
        13   2 -6.732415E+06 -9.286690E+05 -1.387465E+05 -2.530167E+06 -1.218230E+05 -4.464396E+04
        13   3 -6.712342E+06 -9.438881E+05 -7.494363E+04 -2.528288E+06 -5.291726E+04 -2.074782E+04
        13   4 -6.728693E+06 -1.084794E+06 -2.813557E+05 -2.491689E+06 -1.906952E+05 -6.925949E+04
        13   5 -6.700960E+06 -9.109466E+05 -1.290132E+05 -2.515642E+06 -1.222127E+05 -4.479124E+04
        13   6 -6.709906E+06 -9.549466E+05 -7.650637E+04 -2.540012E+06 -5.348844E+04 -2.096016E+04
        13   7 -6.668170E+06 -1.038243E+06 -2.601739E+05 -2.450912E+06 -1.909071E+05 -6.934805E+04
        13   8 -6.669504E+06 -8.932238E+05 -1.192801E+05 -2.501116E+06 -1.226025E+05 -4.493854E+04
        13   9 -6.707470E+06 -9.660042E+05 -7.806901E+04 -2.551735E+06 -5.405962E+04 -2.117248E+04
        13  10 -6.789252E+06 -1.131355E+06 -3.026158E+05 -2.532472E+06  1.654034E-09  7.630666E-10
        13  11 -6.732432E+06 -9.286752E+05 -1.387785E+05 -2.530172E+06 -1.814378E-09  9.894554E-10
        13  12 -6.712345E+06 -9.438893E+05 -7.494978E+04 -2.528289E+06 -2.848587E-09  1.676574E-09
        13  13 -6.728734E+06 -1.084809E+06 -2.814340E+05 -2.491700E+06  4.572605E-09  7.939316E-10
        13  14 -6.700977E+06 -9.109529E+05 -1.290455E+05 -2.515647E+06 -2.684113E-09 -1.644099E-11
        13  15 -6.709909E+06 -9.549478E+05 -7.651265E+04 -2.540013E+06 -1.562503E-09  1.405586E-09
        13  16 -6.668211E+06 -1.038258E+06 -2.602524E+05 -2.450923E+06  1.605019E-09  7.985653E-10
        13  17 -6.669521E+06 -8.932301E+05 -1.193126E+05 -2.501121E+06 -4.786779E-11 -8.974851E-10
        13  18 -6.707473E+06 -9.660055E+05 -7.807542E+04 -2.551736E+06 -4.358101E-09  2.275956E-09
        13  19 -6.789211E+06 -1.131340E+06 -3.025377E+05 -2.532462E+06  1.904834E+05  6.917096E+04
        13  20 -6.732415E+06 -9.286690E+05 -1.387465E+05 -2.530167E+06  1.218230E+05  4.464396E+04
        13  21 -6.712342E+06 -9.438881E+05 -7.494363E+04 -2.528288E+06  5.291726E+04  2.074782E+04
        13  22 -6.728693E+06 -1.084794E+06 -2.813557E+05 -2.491689E+06  1.906952E+05  6.925949E+04
        13  23 -6.700960E+06 -9.109466E+05 -1.290132E+05 -2.515642E+06  1.222127E+05  4.479124E+04
        13  24 -6.709906E+06 -9.549466E+05 -7.650637E+04 -2.540012E+06  5.348844E+04  2.096016E+04
        13  25 -6.668170E+06 -1.038243E+06 -2.601739E+05 -2.450912E+06  1.909071E+05  6.934805E+04
        13  26 -6.669504E+06 -8.932238E+05 -1.192801E+05 -2.501116E+06  1.226025E+05  4.493854E+04
        13  27 -6.707470E+06 -9.660042E+05 -7.806901E+04 -2.551735E+06  5.405962E+04  2.117248E+04
        14   1 -6.576254E+06 -9.290200E+05 -2.615599E+04 -2.495584E+06 -4.140948E+04 -1.768017E+04
        14   2 -6.551162E+06 -8.746873E+05  1.453507E+04 -2.469427E+06 -2.543346E+04 -1.342596E+04
        14   3 -6.501960E+06 -8.798438E+05  3.707260E+04 -2.477815E+06 -9.548713E+03 -8.922424E+03
        14   4 -6.704180E+06 -9.744753E+05 -6.066873E+04 -2.527175E+06 -4.187528E+04 -1.785471E+04
        14   5 -6.714951E+06 -9.360046E+05 -3.007850E+04 -2.513140E+06 -2.583025E+04 -1.357461E+04
        14   6 -6.701627E+06 -9.570413E+05 -1.769868E+04 -2.533650E+06 -9.877487E+03 -9.045656E+03
        14   7 -6.832090E+06 -1.019930E+06 -9.518304E+04 -2.558761E+06 -4.234097E+04 -1.802923E+04
        14   8 -6.878714E+06 -9.973208E+05 -7.469464E+04 -2.556843E+06 -2.622692E+04 -1.372322E+04
        14   9 -6.901256E+06 -1.034236E+06 -7.247374E+04 -2.589469E+06 -1.020614E+04 -9.168841E+03
        14  10 -6.576256E+06 -9.290208E+05 -2.615984E+04 -2.495584E+06  1.558540E-09  2.056439E-09
        14  11 -6.551163E+06 -8.746876E+05  1.453350E+04 -2.469427E+06  3.115830E-09 -3.028923E-09
        14  12 -6.501960E+06 -8.798439E+05  3.707227E+04 -2.477815E+06 -5.006649E-09 -8.987619E-10
        14  13 -6.704182E+06 -9.744761E+05 -6.067267E+04 -2.527176E+06  1.463573E-09  1.414138E-09
        14  14 -6.714952E+06 -9.360050E+05 -3.008012E+04 -2.513140E+06 -2.740411E-09  4.725806E-10
        14  15 -6.701627E+06 -9.570414E+05 -1.769902E+04 -2.533650E+06 -5.352639E-09  5.660429E-10
        14  16 -6.832092E+06 -1.019931E+06 -9.518707E+04 -2.558762E+06 -4.847701E-09  1.144629E-09
        14  17 -6.878715E+06 -9.973212E+05 -7.469631E+04 -2.556843E+06 -1.624609E-09 -3.217959E-10
        14  18 -6.901256E+06 -1.034236E+06 -7.247410E+04 -2.589469E+06  7.375815E-10  8.417709E-10
        14  19 -6.576254E+06 -9.290200E+05 -2.615599E+04 -2.495584E+06  4.140948E+04  1.768017E+04
        14  20 -6.551162E+06 -8.746873E+05  1.453507E+04 -2.469427E+06  2.543346E+04  1.342596E+04
        14  21 -6.501960E+06 -8.798438E+05  3.707260E+04 -2.477815E+06  9.548713E+03  8.922424E+03
        14  22 -6.704180E+06 -9.744753E+05 -6.066873E+04 -2.527175E+06  4.187528E+04  1.785471E+04
        14  23 -6.714951E+06 -9.360046E+05 -3.007850E+04 -2.513140E+06  2.583025E+04  1.357461E+04
        14  24 -6.701627E+06 -9.570413E+05 -1.769868E+04 -2.533650E+06  9.877487E+03  9.045656E+03
        14  25 -6.832090E+06 -1.019930E+06 -9.518304E+04 -2.558761E+06  4.234097E+04  1.802923E+04
        14  26 -6.878714E+06 -9.973208E+05 -7.469464E+04 -2.556843E+06  2.622692E+04  1.372322E+04
        14  27 -6.901256E+06 -1.034236E+06 -7.247374E+04 -2.589469E+06  1.020614E+04  9.168841E+03
        15   1 -6.414779E+06 -8.472101E+05  6.502635E+04 -2.450170E+06 -6.603182E+03 -8.670406E+03
        15   2 -6.402831E+06 -8.261047E+05  7.644042E+04 -2.433456E+06 -2.174314E+03 -8.248140E+03
        15   3 -6.372485E+06 -8.285377E+05  8.393643E+04 -2.438679E+06  2.039951E+03 -7.250554E+03
        15   4 -6.703941E+06 -9.562771E+05 -1.402252E+04 -2.528157E+06 -6.997210E+03 -8.818285E+03
        15   5 -6.712973E+06 -9.434929E+05 -8.281406E+03 -2.517558E+06 -2.403706E+03 -8.334472E+03
        15   6 -6.703642E+06 -9.542817E+05 -6.591301E+03 -2.528897E+06  1.975005E+03 -7.275254E+03
        15   7 -6.993021E+06 -1.065339E+06 -9.307876E+04 -2.606111E+06 -7.391032E+03 -8.966088E+03
        15   8 -7.023022E+06 -1.060875E+06 -9.301191E+04 -2.601622E+06 -2.632969E+03 -8.420755E+03
        15   9 -7.034693E+06 -1.080019E+06 -9.712914E+04 -2.619071E+06  1.910097E+03 -7.299941E+03
        15  10 -6.414779E+06 -8.472102E+05  6.502613E+04 -2.450170E+06 -9.753123E-10  1.260207E-09
        15  11 -6.402831E+06 -8.261048E+05  7.644028E+04 -2.433456E+06  1.747447E-10 -2.207127E-10
        15  12 -6.372485E+06 -8.285378E+05  8.393632E+04 -2.438679E+06 -4.625080E-11 -1.102595E-09
        15  13 -6.703941E+06 -9.562772E+05 -1.402276E+04 -2.528157E+06 -5.227514E-09  3.472941E-10
        15  14 -6.712973E+06 -9.434929E+05 -8.281548E+03 -2.517558E+06 -1.952002E-11 -2.325547E-09
        15  15 -6.703642E+06 -9.542817E+05 -6.591407E+03 -2.528897E+06 -3.022378E-09 -5.121945E-10
        15  16 -6.993021E+06 -1.065339E+06 -9.307902E+04 -2.606111E+06  3.661798E-09 -8.302078E-10
        15  17 -7.023022E+06 -1.060875E+06 -9.301206E+04 -2.601622E+06 -6.758174E-09 -9.088120E-10
        15  18 -7.034693E+06 -1.080019E+06 -9.712925E+04 -2.619071E+06 -9.542616E-10 -1.073266E-09
        15  19 -6.414779E+06 -8.472101E+05  6.502635E+04 -2.450170E+06  6.603182E+03  8.670406E+03
        15  20 -6.402831E+06 -8.261047E+05  7.644042E+04 -2.433456E+06  2.174314E+03  8.248140E+03
        15  21 -6.372485E+06 -8.285377E+05  8.393643E+04 -2.438679E+06 -2.039951E+03  7.250554E+03
        15  22 -6.703941E+06 -9.562771E+05 -1.402252E+04 -2.528157E+06  6.997210E+03  8.818285E+03
        15  23 -6.712973E+06 -9.434929E+05 -8.281406E+03 -2.517558E+06  2.403706E+03  8.334472E+03
        15  24 -6.703642E+06 -9.542817E+05 -6.591301E+03 -2.528897E+06 -1.975005E+03  7.275254E+03
        15  25 -6.993021E+06 -1.065339E+06 -9.307876E+04 -2.606111E+06  7.391032E+03  8.966088E+03
        15  26 -7.023022E+06 -1.060875E+06 -9.301191E+04 -2.601622E+06  2.632969E+03  8.420755E+03
        15  27 -7.034693E+06 -1.080019E+06 -9.712914E+04 -2.619071E+06 -1.910097E+03  7.299941E+03
        16   1 -6.347560E+06 -8.129674E+05  9.208591E+04 -2.425621E+06  3.317534E+03 -7.051079E+03
        16   2 -6.348218E+06 -8.133327E+05  9.007197E+04 -2.426722E+06  7.277618E+03 -5.870640E+03
        16   3 -6.351797E+06 -8.155277E+05  8.433594E+04 -2.425128E+06  1.098515E+04 -4.019385E+03
        16   4 -6.708392E+06 -9.494977E+05 -6.535272E+03 -2.523412E+06  3.142184E+03 -7.117333E+03
        16   5 -6.707055E+06 -9.495144E+05 -8.020878E+03 -2.524405E+06  7.294285E+03 -5.864727E+03
        16   6 -6.708678E+06 -9.514004E+05 -1.338378E+04 -2.522702E+06  1.119378E+04 -3.941112E+03
        16   7 -7.069097E+06 -1.086020E+06 -1.051682E+05 -2.621151E+06  2.966947E+03 -7.183545E+03
        16   8 -7.065766E+06 -1.085689E+06 -1.061255E+05 -2.622036E+06  7.310941E+03 -5.858818E+03
        16   9 -7.065436E+06 -1.087266E+06 -1.111153E+05 -2.620225E+06  1.140228E+04 -3.862891E+03
        16  10 -6.347560E+06 -8.129674E+05  9.208580E+04 -2.425621E+06  2.310735E-09  3.493992E-10
        16  11 -6.348218E+06 -8.133328E+05  9.007181E+04 -2.426722E+06 -2.887121E-09  7.342544E-10
        16  12 -6.351797E+06 -8.155278E+05  8.433568E+04 -2.425128E+06 -3.299756E-09 -2.064103E-10
        16  13 -6.708392E+06 -9.494977E+05 -6.535386E+03 -2.523412E+06  1.810918E-09 -2.045609E-10
        16  14 -6.707055E+06 -9.495145E+05 -8.021043E+03 -2.524405E+06 -4.197253E-09 -5.653793E-10
        16  15 -6.708678E+06 -9.514005E+05 -1.338404E+04 -2.522702E+06 -3.205175E-09  6.767066E-11
        16  16 -7.069097E+06 -1.086020E+06 -1.051683E+05 -2.621151E+06 -3.877283E-09  3.591010E-10
        16  17 -7.065766E+06 -1.085689E+06 -1.061256E+05 -2.622036E+06 -8.451526E-10 -9.450051E-10
        16  18 -7.065436E+06 -1.087266E+06 -1.111156E+05 -2.620225E+06  4.154074E-09  1.192192E-09
        16  19 -6.347560E+06 -8.129674E+05  9.208591E+04 -2.425621E+06 -3.317534E+03  7.051079E+03
        16  20 -6.348218E+06 -8.133327E+05  9.007197E+04 -2.426722E+06 -7.277618E+03  5.870640E+03
        16  21 -6.351797E+06 -8.155277E+05  8.433594E+04 -2.425128E+06 -1.098515E+04  4.019385E+03
        16  22 -6.708392E+06 -9.494977E+05 -6.535272E+03 -2.523412E+06 -3.142184E+03  7.117333E+03
        16  23 -6.707055E+06 -9.495144E+05 -8.020878E+03 -2.524405E+06 -7.294285E+03  5.864727E+03
        16  24 -6.708678E+06 -9.514004E+05 -1.338378E+04 -2.522702E+06 -1.119378E+04  3.941112E+03
        16  25 -7.069097E+06 -1.086020E+06 -1.051682E+05 -2.621151E+06 -2.966947E+03  7.183545E+03
        16  26 -7.065766E+06 -1.085689E+06 -1.061255E+05 -2.622036E+06 -7.310941E+03  5.858818E+03
        16  27 -7.065436E+06 -1.087266E+06 -1.111153E+05 -2.620225E+06 -1.140228E+04  3.862891E+03
        17   1 -6.394867E+06 -8.244578E+05  7.017642E+04 -2.433434E+06  1.343639E+04 -2.716916E+03
        17   2 -6.405387E+06 -8.400894E+05  5.185926E+04 -2.450782E+06  2.773925E+04  3.412171E+03
        17   3 -6.448917E+06 -8.559584E+05  1.643082E+04 -2.436684E+06  4.184250E+04  1.006441E+04
        17   4 -6.714369E+06 -9.442138E+05 -1.684342E+04 -2.518882E+06  1.354308E+04 -2.676935E+03
        17   5 -6.699075E+06 -9.523199E+05 -2.858181E+04 -2.531515E+06  2.799083E+04  3.506862E+03
        17   6 -6.716827E+06 -9.606984E+05 -5.755307E+04 -2.512701E+06  4.223958E+04  1.021405E+04
        17   7 -7.033771E+06 -1.063965E+06 -1.038725E+05 -2.604291E+06  1.364971E+04 -2.636978E+03
        17   8 -6.992680E+06 -1.064545E+06 -1.090307E+05 -2.612214E+06  2.824227E+04  3.601501E+03
        17   9 -6.984667E+06 -1.065433E+06 -1.315435E+05 -2.588688E+06  4.263645E+04  1.036360E+04
        17  10 -6.394867E+06 -8.244578E+05  7.017606E+04 -2.433434E+06  4.611802E-10 -8.743531E-10
        17  11 -6.405388E+06 -8.400896E+05  5.185777E+04 -2.450782E+06  7.593557E-10  1.372754E-09
        17  12 -6.448918E+06 -8.559589E+05  1.642730E+04 -2.436685E+06 -1.564037E-09 -5.441302E-10
        17  13 -6.714369E+06 -9.442139E+05 -1.684378E+04 -2.518882E+06  4.785770E-10  3.886766E-10
        17  14 -6.699076E+06 -9.523201E+05 -2.858333E+04 -2.531515E+06  1.321923E-09  3.052095E-10
        17  15 -6.716829E+06 -9.606990E+05 -5.755667E+04 -2.512702E+06 -2.868157E-09  1.079991E-09
        17  16 -7.033771E+06 -1.063965E+06 -1.038729E+05 -2.604291E+06 -2.315764E-09  1.289240E-09
        17  17 -6.992681E+06 -1.064545E+06 -1.090323E+05 -2.612214E+06  3.163193E-09  9.441120E-10
        17  18 -6.984669E+06 -1.065434E+06 -1.315472E+05 -2.588688E+06 -1.251224E-09  2.871783E-09
        17  19 -6.394867E+06 -8.244578E+05  7.017642E+04 -2.433434E+06 -1.343639E+04  2.716916E+03
        17  20 -6.405387E+06 -8.400894E+05  5.185926E+04 -2.450782E+06 -2.773925E+04 -3.412171E+03
        17  21 -6.448917E+06 -8.559584E+05  1.643082E+04 -2.436684E+06 -4.184250E+04 -1.006441E+04
        17  22 -6.714369E+06 -9.442138E+05 -1.684342E+04 -2.518882E+06 -1.354308E+04  2.676935E+03
        17  23 -6.699075E+06 -9.523199E+05 -2.858181E+04 -2.531515E+06 -2.799083E+04 -3.506862E+03
        17  24 -6.716827E+06 -9.606984E+05 -5.755307E+04 -2.512701E+06 -4.223958E+04 -1.021405E+04
        17  25 -7.033771E+06 -1.063965E+06 -1.038725E+05 -2.604291E+06 -1.364971E+04  2.636978E+03
        17  26 -6.992680E+06 -1.064545E+06 -1.090307E+05 -2.612214E+06 -2.824227E+04 -3.601501E+03
        17  27 -6.984667E+06 -1.065433E+06 -1.315435E+05 -2.588688E+06 -4.263645E+04 -1.036360E+04
        18   1 -6.542342E+06 -8.798546E+05 -2.466835E+04 -2.481928E+06  5.214609E+04  1.492065E+04
        18   2 -6.548236E+06 -8.774920E+05 -8.500679E+04 -2.497635E+06  1.161675E+05  4.069667E+04
        18   3 -6.663140E+06 -1.007435E+06 -2.400315E+05 -2.428950E+06  1.801917E+05  6.644598E+04
        18   4 -6.726187E+06 -9.382983E+05 -7.258223E+04 -2.520450E+06  5.253856E+04  1.507011E+04
        18   5 -6.680754E+06 -9.335249E+05 -1.223833E+05 -2.539550E+06  1.165390E+05  4.083581E+04
        18   6 -6.744339E+06 -1.061073E+06 -2.668654E+05 -2.474252E+06  1.805481E+05  6.657252E+04
        18   7 -6.910000E+06 -9.967422E+05 -1.204989E+05 -2.558963E+06  5.293091E+04  1.521955E+04
        18   8 -6.813256E+06 -9.895556E+05 -1.597615E+05 -2.581456E+06  1.169104E+05  4.097491E+04
        18   9 -6.825530E+06 -1.114706E+06 -2.936997E+05 -2.519546E+06  1.809044E+05  6.669901E+04
        18  10 -6.542345E+06 -8.798556E+05 -2.467395E+04 -2.481929E+06  4.062183E-09  2.418296E-09
        18  11 -6.548251E+06 -8.774975E+05 -8.503561E+04 -2.497639E+06 -2.335316E-09  5.631351E-10
        18  12 -6.663176E+06 -1.007448E+06 -2.401017E+05 -2.428960E+06  2.857759E-10 -1.741976E-09
        18  13 -6.726190E+06 -9.382993E+05 -7.258792E+04 -2.520451E+06 -2.775365E-10  1.225412E-09
        18  14 -6.680770E+06 -9.335304E+05 -1.224123E+05 -2.539554E+06  4.959532E-10  9.664495E-10
        18  15 -6.744376E+06 -1.061087E+06 -2.669358E+05 -2.474261E+06 -8.727224E-10  8.822378E-10
        18  16 -6.910003E+06 -9.967432E+05 -1.205047E+05 -2.558963E+06 -4.481060E-09 -4.386313E-10
        18  17 -6.813271E+06 -9.895611E+05 -1.597907E+05 -2.581460E+06 -2.560160E-09 -2.611366E-10
        18  18 -6.825567E+06 -1.114720E+06 -2.937705E+05 -2.519556E+06  1.746552E-09  6.980438E-11
        18  19 -6.542342E+06 -8.798546E+05 -2.466835E+04 -2.481928E+06 -5.214609E+04 -1.492065E+04
        18  20 -6.548236E+06 -8.774920E+05 -8.500679E+04 -2.497635E+06 -1.161675E+05 -4.069667E+04
        18  21 -6.663140E+06 -1.007435E+06 -2.400315E+05 -2.428950E+06 -1.801917E+05 -6.644598E+04
        18  22 -6.726187E+06 -9.382983E+05 -7.258223E+04 -2.520450E+06 -5.253856E+04 -1.507011E+04
        18  23 -6.680754E+06 -9.335249E+05 -1.223833E+05 -2.539550E+06 -1.165390E+05 -4.083581E+04
        18  24 -6.744339E+06 -1.061073E+06 -2.668654E+05 -2.474252E+06 -1.805481E+05 -6.657252E+04
        18  25 -6.910000E+06 -9.967422E+05 -1.204989E+05 -2.558963E+06 -5.293091E+04 -1.521955E+04
        18  26 -6.813256E+06 -9.895556E+05 -1.597615E+05 -2.581456E+06 -1.169104E+05 -4.097491E+04
        18  27 -6.825530E+06 -1.114706E+06 -2.936997E+05 -2.519546E+06 -1.809044E+05 -6.669901E+04
        19   1 -6.748695E+06 -9.849095E+05 -3.314454E+05 -2.629501E+06  2.270469E+05  8.573357E+04
        19   2 -6.677321E+06 -7.598543E+05 -5.384197E+05 -2.548088E+06  5.138576E+05  1.963571E+05
        19   3 -7.151101E+06 -1.733321E+06 -1.300673E+06 -2.099732E+06  8.016409E+05  3.043988E+05
        19   4 -6.785754E+06 -9.163086E+05 -3.250624E+05 -2.555463E+06  2.279474E+05  8.611263E+04
        19   5 -6.579550E+06 -7.691501E+05 -5.209448E+05 -2.568698E+06  5.140329E+05  1.963746E+05
        19   6 -6.918350E+06 -1.820309E+06 -1.271450E+06 -2.214954E+06  8.011621E+05  3.039304E+05
        19   7 -6.822795E+06 -8.476757E+05 -3.186750E+05 -2.481426E+06  2.288478E+05  8.649197E+04
        19   8 -6.481765E+06 -7.784401E+05 -5.034690E+05 -2.589313E+06  5.142083E+05  1.963922E+05
        19   9 -6.685478E+06 -1.907188E+06 -1.242208E+06 -2.330218E+06  8.006830E+05  3.034624E+05
        19  10 -6.748753E+06 -9.849315E+05 -3.315575E+05 -2.629517E+06 -3.650324E-09 -1.433116E-09
        19  11 -6.677618E+06 -7.599681E+05 -5.389955E+05 -2.548170E+06 -2.648021E-09  1.805034E-09
        19  12 -7.151823E+06 -1.733597E+06 -1.302072E+06 -2.099931E+06 -7.245171E-10  6.517635E-11
        19  13 -6.785812E+06 -9.163308E+05 -3.251754E+05 -2.555479E+06 -1.527446E-09  1.896383E-09
        19  14 -6.579847E+06 -7.692639E+05 -5.215210E+05 -2.568780E+06 -3.405024E-09  4.509830E-09
        19  15 -6.919071E+06 -1.820585E+06 -1.272847E+06 -2.215152E+06  6.264602E-10 -3.538606E-11
        19  16 -6.822854E+06 -8.476981E+05 -3.187889E+05 -2.481442E+06 -6.149436E-10  7.016833E-10
        19  17 -6.482062E+06 -7.785540E+05 -5.040454E+05 -2.589395E+06  2.771473E-09  7.561827E-10
        19  18 -6.686198E+06 -1.907462E+06 -1.243603E+06 -2.330416E+06  9.573095E-10 -2.668066E-10
        19  19 -6.748695E+06 -9.849095E+05 -3.314454E+05 -2.629501E+06 -2.270469E+05 -8.573357E+04
        19  20 -6.677321E+06 -7.598543E+05 -5.384197E+05 -2.548088E+06 -5.138576E+05 -1.963571E+05
        19  21 -7.151101E+06 -1.733321E+06 -1.300673E+06 -2.099732E+06 -8.016409E+05 -3.043988E+05
        19  22 -6.785754E+06 -9.163086E+05 -3.250624E+05 -2.555463E+06 -2.279474E+05 -8.611263E+04
        19  23 -6.579550E+06 -7.691501E+05 -5.209448E+05 -2.568698E+06 -5.140329E+05 -1.963746E+05
        19  24 -6.918350E+06 -1.820309E+06 -1.271450E+06 -2.214954E+06 -8.011621E+05 -3.039304E+05
        19  25 -6.822795E+06 -8.476757E+05 -3.186750E+05 -2.481426E+06 -2.288478E+05 -8.649197E+04
        19  26 -6.481765E+06 -7.784401E+05 -5.034690E+05 -2.589313E+06 -5.142083E+05 -1.963922E+05
        19  27 -6.685478E+06 -1.907188E+06 -1.242208E+06 -2.330218E+06 -8.006830E+05 -3.034624E+05
        20   1 -2.792164E+06  4.465304E+04  5.848868E+04  7.482030E+02  3.982808E+04  4.820732E-02
        20   2 -2.801207E+06 -1.080682E+04  2.488778E+04  1.874575E+02  2.621625E+04  7.950257E-03
        20   3 -2.792231E+06 -1.380161E+03  1.640098E+04 -3.732731E+02  1.260456E+04 -7.611229E-03
        20   4 -2.792164E+06  4.465304E+04  5.848868E+04 -4.179898E-07  3.982808E+04 -8.980216E-10
        20   5 -2.801207E+06 -1.080682E+04  2.488778E+04  3.586128E-07  2.621625E+04  2.423606E-09
        20   6 -2.792231E+06 -1.380161E+03  1.640098E+04  3.951106E-07  1.260456E+04 -2.436346E-09
        20   7 -2.792164E+06  4.465304E+04  5.848868E+04 -7.482030E+02  3.982808E+04 -4.820732E-02
        20   8 -2.801207E+06 -1.080682E+04  2.488778E+04 -1.874575E+02  2.621625E+04 -7.950252E-03
        20   9 -2.792231E+06 -1.380161E+03  1.640098E+04  3.732731E+02  1.260456E+04  7.611233E-03
        20  10 -2.792166E+06  4.465261E+04  5.848569E+04  7.482030E+02  2.748031E-09  4.313406E-09
        20  11 -2.801208E+06 -1.080700E+04  2.488648E+04  1.874575E+02  3.168966E-10 -6.479078E-09
        20  12 -2.792231E+06 -1.380204E+03  1.640068E+04 -3.732731E+02  2.034816E-09  5.015814E-10
        20  13 -2.792166E+06  4.465261E+04  5.848569E+04 -4.179898E-07  2.405108E-09  1.078269E-09
        20  14 -2.801208E+06 -1.080700E+04  2.488648E+04 -5.447057E-08 -4.303135E-09 -6.354990E-11
        20  15 -2.792231E+06 -1.380204E+03  1.640068E+04  1.025045E-07 -1.285123E-09  1.046272E-09
        20  16 -2.792166E+06  4.465261E+04  5.848569E+04 -7.482030E+02 -2.464709E-09 -5.651792E-13
        20  17 -2.801208E+06 -1.080700E+04  2.488648E+04 -1.874575E+02  2.535184E-10 -2.146475E-09
        20  18 -2.792231E+06 -1.380204E+03  1.640068E+04  3.732731E+02  9.100299E-10  3.754920E-11
        20  19 -2.792164E+06  4.465304E+04  5.848868E+04  7.482030E+02 -3.982808E+04 -4.820730E-02
        20  20 -2.801207E+06 -1.080682E+04  2.488778E+04  1.874575E+02 -2.621625E+04 -7.950229E-03
        20  21 -2.792231E+06 -1.380161E+03  1.640098E+04 -3.732731E+02 -1.260456E+04  7.611240E-03
        20  22 -2.792164E+06  4.465304E+04  5.848868E+04 -4.892473E-09 -3.982808E+04  2.771276E-09
        20  23 -2.801207E+06 -1.080682E+04  2.488778E+04  4.963068E-07 -2.621625E+04  2.155801E-09
        20  24 -2.792231E+06 -1.380161E+03  1.640098E+04  1.369288E-07 -1.260456E+04  2.319314E-09
        20  25 -2.792164E+06  4.465304E+04  5.848868E+04 -7.482030E+02 -3.982808E+04  4.820730E-02
        20  26 -2.801207E+06 -1.080682E+04  2.488778E+04 -1.874575E+02 -2.621625E+04  7.950246E-03
        20  27 -2.792231E+06 -1.380161E+03  1.640098E+04  3.732731E+02 -1.260456E+04 -7.611244E-03
        21   1 -2.795554E+06  7.013912E+03  1.358029E+04  1.126340E+02  9.881021E+03  1.800419E-03
        21   2 -2.797056E+06 -1.698256E+03  6.398057E+03  2.643695E+01  6.514862E+03  2.786267E-04
        21   3 -2.795566E+06 -2.140116E+02  3.963970E+03 -5.976138E+01  3.148657E+03 -3.043854E-04
        21   4 -2.795554E+06  7.013912E+03  1.358029E+04  2.645782E-07  9.881021E+03 -2.452060E-09
        21   5 -2.797056E+06 -1.698256E+03  6.398057E+03 -2.614876E-07  6.514862E+03  4.492083E-10
        21   6 -2.795566E+06 -2.140116E+02  3.963970E+03  5.583155E-08  3.148657E+03  1.720434E-09
        21   7 -2.795554E+06  7.013912E+03  1.358029E+04 -1.126340E+02  9.881021E+03 -1.800426E-03
        21   8 -2.797056E+06 -1.698256E+03  6.398057E+03 -2.643695E+01  6.514862E+03 -2.786315E-04
        21   9 -2.795566E+06 -2.140116E+02  3.963970E+03  5.976138E+01  3.148657E+03  3.044120E-04
        21  10 -2.795554E+06  7.013885E+03  1.358011E+04  1.126340E+02  1.343187E-10 -9.730970E-12
        21  11 -2.797056E+06 -1.698268E+03  6.397977E+03  2.643695E+01  3.481571E-10  4.683466E-11
        21  12 -2.795566E+06 -2.140142E+02  3.963951E+03 -5.976138E+01  9.530254E-10 -3.253054E-09
        21  13 -2.795554E+06  7.013885E+03  1.358011E+04  1.268810E-07  4.723532E-10 -5.391965E-10
        21  14 -2.797056E+06 -1.698268E+03  6.397977E+03 -2.614876E-07 -2.087636E-09  1.077987E-09
        21  15 -2.795566E+06 -2.140142E+02  3.963951E+03 -5.465926E-07  1.273628E-09  4.893778E-10
        21  16 -2.795554E+06  7.013885E+03  1.358011E+04 -1.126340E+02  1.193298E-09  9.613164E-12
        21  17 -2.797056E+06 -1.698268E+03  6.397977E+03 -2.643695E+01 -3.891663E-09 -4.688726E-11
        21  18 -2.795566E+06 -2.140142E+02  3.963951E+03  5.976138E+01 -5.179927E-10  3.252913E-09
        21  19 -2.795554E+06  7.013912E+03  1.358029E+04  1.126340E+02 -9.881021E+03 -1.800426E-03
        21  20 -2.797056E+06 -1.698256E+03  6.398057E+03  2.643695E+01 -6.514862E+03 -2.786083E-04
        21  21 -2.795566E+06 -2.140116E+02  3.963970E+03 -5.976138E+01 -3.148657E+03  3.044162E-04
        21  22 -2.795554E+06  7.013912E+03  1.358029E+04  2.645782E-07 -9.881021E+03  7.420339E-10
        21  23 -2.797056E+06 -1.698256E+03  6.398057E+03 -5.494274E-08 -6.514862E+03 -6.064179E-10
        21  24 -2.795566E+06 -2.140116E+02  3.963970E+03 -8.186430E-08 -3.148657E+03 -1.911870E-09
        21  25 -2.795554E+06  7.013912E+03  1.358029E+04 -1.126340E+02 -9.881021E+03  1.800418E-03
        21  26 -2.797056E+06 -1.698256E+03  6.398057E+03 -2.643695E+01 -6.514862E+03  2.786126E-04
        21  27 -2.795566E+06 -2.140116E+02  3.963970E+03  5.976138E+01 -3.148657E+03 -3.044001E-04
        22   1 -2.796119E+06  1.096688E+03  3.152439E+03  1.618088E+01  2.503361E+03  6.553480E-05
        22   2 -2.796367E+06 -2.610677E+02  1.504599E+03  3.331895E+00  1.728812E+03  9.308728E-06
        22   3 -2.796122E+06 -5.138604E+01  7.545969E+02 -9.517088E+00  9.542628E+02 -1.468440E-05
        22   4 -2.796119E+06  1.096688E+03  3.152439E+03  2.673413E-07  2.503361E+03  2.069509E-09
        22   5 -2.796367E+06 -2.610677E+02  1.504599E+03 -1.013847E-07  1.728812E+03  2.352304E-09
        22   6 -2.796122E+06 -5.138604E+01  7.545969E+02  1.151024E-07  9.542628E+02 -7.513756E-10
        22   7 -2.796119E+06  1.096688E+03  3.152439E+03 -1.618088E+01  2.503361E+03 -6.554018E-05
        22   8 -2.796367E+06 -2.610677E+02  1.504599E+03 -3.331896E+00  1.728812E+03 -9.338381E-06
        22   9 -2.796122E+06 -5.138604E+01  7.545969E+02  9.517088E+00  9.542628E+02  1.467955E-05
        22  10 -2.796119E+06  1.096686E+03  3.152427E+03  1.618088E+01 -2.568202E-11 -4.269762E-11
        22  11 -2.796367E+06 -2.610685E+02  1.504593E+03  3.331894E+00  5.378805E-10 -6.470545E-09
        22  12 -2.796122E+06 -5.138629E+01  7.545952E+02 -9.517089E+00  2.315562E-10 -4.841386E-09
        22  13 -2.796119E+06  1.096686E+03  3.152427E+03 -6.965392E-07 -4.538105E-09 -5.391730E-10
        22  14 -2.796367E+06 -2.610685E+02  1.504593E+03  3.631235E-08 -3.172366E-10 -7.992614E-10
        22  15 -2.796122E+06 -5.138629E+01  7.545952E+02 -2.291398E-07 -4.933355E-10 -5.392049E-10
        22  16 -2.796119E+06  1.096686E+03  3.152427E+03 -1.618088E+01  5.036941E-11  4.267534E-11
        22  17 -2.796367E+06 -2.610685E+02  1.504593E+03 -3.331896E+00  5.378805E-09 -2.155056E-09
        22  18 -2.796122E+06 -5.138629E+01  7.545952E+02  9.517088E+00  1.769988E-09 -1.069178E-11
        22  19 -2.796119E+06  1.096688E+03  3.152439E+03  1.618088E+01 -2.503361E+03 -6.553703E-05
        22  20 -2.796367E+06 -2.610677E+02  1.504599E+03  3.331897E+00 -1.728812E+03 -9.305500E-06
        22  21 -2.796122E+06 -5.138604E+01  7.545969E+02 -9.517087E+00 -9.542628E+02  1.469507E-05
        22  22 -2.796119E+06  1.096688E+03  3.152439E+03 -2.834473E-07 -2.503361E+03 -2.607886E-09
        22  23 -2.796367E+06 -2.610677E+02  1.504599E+03  8.624949E-07 -1.728812E+03 -2.632887E-09
        22  24 -2.796122E+06 -5.138604E+01  7.545969E+02 -1.258678E-07 -9.542628E+02 -2.369372E-09
        22  25 -2.796119E+06  1.096688E+03  3.152439E+03 -1.618088E+01 -2.503361E+03  6.552841E-05
        22  26 -2.796367E+06 -2.610677E+02  1.504599E+03 -3.331896E+00 -1.728812E+03  9.309812E-06
        22  27 -2.796122E+06 -5.138604E+01  7.545969E+02  9.517086E+00 -9.542628E+02 -1.469938E-05
        23   1 -2.796230E+06  1.731120E+02  4.718484E+02  9.364210E-01  8.431247E+02  1.284789E-06
        23   2 -2.796233E+06 -9.133541E+00 -1.107633E+02  3.607851E-01  8.966467E+02  5.222783E-07
        23   3 -2.796231E+06 -1.365289E+02 -7.146299E+02 -2.148414E-01  9.501680E+02 -3.177054E-07
        23   4 -2.796230E+06  1.731120E+02  4.718484E+02 -2.902736E-08  8.431247E+02  1.126949E-09
        23   5 -2.796233E+06 -9.133541E+00 -1.107633E+02  3.249239E-07  8.966467E+02  6.670359E-09
        23   6 -2.796231E+06 -1.365289E+02 -7.146299E+02  7.477221E-07  9.501680E+02  9.046702E-10
        23   7 -2.796230E+06  1.731120E+02  4.718484E+02 -9.364205E-01  8.431247E+02 -1.288022E-06
        23   8 -2.796233E+06 -9.133541E+00 -1.107633E+02 -3.607847E-01  8.966467E+02 -5.238940E-07
        23   9 -2.796231E+06 -1.365289E+02 -7.146299E+02  2.148420E-01  9.501680E+02  3.349581E-07
        23  10 -2.796230E+06  1.731119E+02  4.718471E+02  9.364205E-01  1.110299E-09  4.331971E-09
        23  11 -2.796233E+06 -9.133758E+00 -1.107648E+02  3.607836E-01  1.740041E-09 -4.284271E-09
        23  12 -2.796231E+06 -1.365292E+02 -7.146316E+02 -2.148409E-01  1.190656E-09 -5.445369E-10
        23  13 -2.796230E+06  1.731119E+02  4.718471E+02 -4.421165E-07  3.696689E-09  5.390915E-10
        23  14 -2.796233E+06 -9.133758E+00 -1.107648E+02 -3.635618E-07  2.657128E-09  2.156652E-09
        23  15 -2.796231E+06 -1.365292E+02 -7.146316E+02  1.969320E-07 -3.239200E-10  9.889547E-10
        23  16 -2.796230E+06  1.731119E+02  4.718471E+02 -9.364202E-01  1.345356E-09 -1.921377E-11
        23  17 -2.796233E+06 -9.133758E+00 -1.107648E+02 -3.607848E-01  3.792064E-10  2.128665E-09
        23  18 -2.796231E+06 -1.365292E+02 -7.146316E+02  2.148403E-01 -2.794747E-09  4.857771E-09
        23  19 -2.796230E+06  1.731120E+02  4.718484E+02  9.364202E-01 -8.431247E+02 -1.277203E-06
        23  20 -2.796233E+06 -9.133541E+00 -1.107633E+02  3.607873E-01 -8.966467E+02 -5.103625E-07
        23  21 -2.796231E+06 -1.365289E+02 -7.146299E+02 -2.148400E-01 -9.501680E+02  3.366957E-07
        23  22 -2.796230E+06  1.731120E+02  4.718484E+02 -2.902303E-08 -8.431247E+02  4.316809E-10
        23  23 -2.796233E+06 -9.133541E+00 -1.107633E+02 -8.816720E-08 -8.966467E+02 -2.597002E-09
        23  24 -2.796231E+06 -1.365289E+02 -7.146299E+02 -6.125237E-08 -9.501680E+02  1.044639E-09
        23  25 -2.796230E+06  1.731120E+02  4.718484E+02 -9.364215E-01 -8.431247E+02  1.277203E-06
        23  26 -2.796233E+06 -9.133541E+00 -1.107633E+02 -3.607858E-01 -8.966467E+02  5.233009E-07
        23  27 -2.796231E+06 -1.365289E+02 -7.146299E+02  2.148403E-01 -9.501680E+02 -3.377746E-07
        24   1 -2.796329E+06  4.911803E+01 -1.047860E+03 -7.652834E+00  1.109679E+03 -1.374665E-05
        24   2 -2.796112E+06  2.031901E+02 -1.984054E+03  1.720435E+00  2.113627E+03  5.878826E-06
        24   3 -2.796332E+06 -8.626329E+02 -3.881037E+03  1.109385E+01  3.117589E+03  5.595781E-05
        24   4 -2.796329E+06  4.911803E+01 -1.047860E+03  9.532301E-07  1.109679E+03 -9.083187E-11
        24   5 -2.796112E+06  2.031901E+02 -1.984054E+03 -2.565066E-07  2.113627E+03  5.187501E-09
        24   6 -2.796332E+06 -8.626329E+02 -3.881037E+03  3.926670E-07  3.117589E+03 -4.694324E-09
        24   7 -2.796329E+06  4.911803E+01 -1.047860E+03  7.652836E+00  1.109679E+03  1.373587E-05
        24   8 -2.796112E+06  2.031901E+02 -1.984054E+03 -1.720435E+00  2.113627E+03 -5.898775E-06
        24   9 -2.796332E+06 -8.626329E+02 -3.881037E+03 -1.109385E+01  3.117589E+03 -5.596536E-05
        24  10 -2.796329E+06  4.911769E+01 -1.047862E+03 -7.652837E+00  4.522216E-09 -2.630726E-11
        24  11 -2.796112E+06  2.031889E+02 -1.984063E+03  1.720436E+00 -6.470677E-11  2.144178E-09
        24  12 -2.796332E+06 -8.626355E+02 -3.881055E+03  1.109385E+01  1.759696E-09  5.765094E-10
        24  13 -2.796329E+06  4.911769E+01 -1.047862E+03 -1.483486E-07  1.007387E-10 -3.374482E-14
        24  14 -2.796112E+06  2.031889E+02 -1.984063E+03  2.254343E-07 -7.212836E-09 -2.202674E-10
        24  15 -2.796332E+06 -8.626355E+02 -3.881055E+03  4.270923E-07 -3.987071E-09  2.144165E-10
        24  16 -2.796329E+06  4.911769E+01 -1.047862E+03  7.652837E+00 -1.276928E-09  4.338934E-09
        24  17 -2.796112E+06  2.031889E+02 -1.984063E+03 -1.720435E+00 -5.055256E-10 -8.613535E-09
        24  18 -2.796332E+06 -8.626355E+02 -3.881055E+03 -1.109385E+01 -6.342611E-10 -3.746942E-11
        24  19 -2.796329E+06  4.911803E+01 -1.047860E+03 -7.652836E+00 -1.109679E+03  1.373797E-05
        24  20 -2.796112E+06  2.031901E+02 -1.984054E+03  1.720436E+00 -2.113627E+03 -5.874001E-06
        24  21 -2.796332E+06 -8.626329E+02 -3.881037E+03  1.109385E+01 -3.117589E+03 -5.595383E-05
        24  22 -2.796329E+06  4.911803E+01 -1.047860E+03 -1.065239E-08 -1.109679E+03 -6.813563E-10
        24  23 -2.796112E+06  2.031901E+02 -1.984054E+03 -1.188094E-07 -2.113627E+03 -6.046176E-09
        24  24 -2.796332E+06 -8.626329E+02 -3.881037E+03  2.549718E-07 -3.117589E+03  4.890003E-09
        24  25 -2.796329E+06  4.911803E+01 -1.047860E+03  7.652836E+00 -1.109679E+03 -1.374660E-05
        24  26 -2.796112E+06  2.031901E+02 -1.984054E+03 -1.720435E+00 -2.113627E+03  5.861062E-06
        24  27 -2.796332E+06 -8.626329E+02 -3.881037E+03 -1.109385E+01 -3.117589E+03  5.595922E-05
        25   1 -2.796806E+06  1.641836E+02 -4.968989E+03 -4.874622E+01  3.919118E+03 -3.090621E-04
        25   2 -2.795523E+06  1.347259E+03 -8.262442E+03  1.717724E+01  8.161963E+03  2.268166E-04
        25   3 -2.796819E+06 -5.558457E+03 -1.634963E+04  8.310079E+01  1.240479E+04  1.667630E-03
        25   4 -2.796806E+06  1.641836E+02 -4.968989E+03  4.174563E-07  3.919118E+03 -2.227939E-09
        25   5 -2.795523E+06  1.347259E+03 -8.262442E+03 -5.582311E-07  8.161963E+03  6.763006E-09
        25   6 -2.796819E+06 -5.558457E+03 -1.634963E+04  5.831851E-07  1.240479E+04 -7.522603E-09
        25   7 -2.796806E+06  1.641836E+02 -4.968989E+03  4.874622E+01  3.919118E+03  3.090508E-04
        25   8 -2.795523E+06  1.347259E+03 -8.262442E+03 -1.717724E+01  8.161963E+03 -2.268117E-04
        25   9 -2.796819E+06 -5.558457E+03 -1.634963E+04 -8.310079E+01  1.240479E+04 -1.667638E-03
        25  10 -2.796806E+06  1.641794E+02 -4.969018E+03 -4.874622E+01 -3.633357E-09 -5.558439E-10
        25  11 -2.795523E+06  1.347241E+03 -8.262568E+03  1.717724E+01  4.771279E-10 -4.797946E-09
        25  12 -2.796819E+06 -5.558499E+03 -1.634992E+04  8.310079E+01  1.409701E-09 -3.609821E-09
        25  13 -2.796806E+06  1.641794E+02 -4.969018E+03  4.364565E-09  6.395493E-10  4.849059E-10
        25  14 -2.795523E+06  1.347241E+03 -8.262568E+03 -7.440037E-09 -5.052300E-10 -1.726609E-09
        25  15 -2.796819E+06 -5.558499E+03 -1.634992E+04 -6.044574E-07 -3.543944E-09 -3.819524E-09
        25  16 -2.796806E+06  1.641794E+02 -4.969018E+03  4.874622E+01  1.599376E-09 -6.307696E-10
        25  17 -2.795523E+06  1.347241E+03 -8.262568E+03 -1.717724E+01  2.163750E-09  3.846367E-09
        25  18 -2.796819E+06 -5.558499E+03 -1.634992E+04 -8.310079E+01 -2.185869E-09 -2.498076E-09
        25  19 -2.796806E+06  1.641836E+02 -4.968989E+03 -4.874622E+01 -3.919118E+03  3.090617E-04
        25  20 -2.795523E+06  1.347259E+03 -8.262442E+03  1.717724E+01 -8.161963E+03 -2.267923E-04
        25  21 -2.796819E+06 -5.558457E+03 -1.634963E+04  8.310079E+01 -1.240479E+04 -1.667618E-03
        25  22 -2.796806E+06  1.641836E+02 -4.968989E+03  5.551561E-07 -3.919118E+03  3.310763E-09
        25  23 -2.795523E+06  1.347259E+03 -8.262442E+03  4.745024E-07 -8.161963E+03 -5.371345E-09
        25  24 -2.796819E+06 -5.558457E+03 -1.634963E+04  1.873018E-07 -1.240479E+04 -5.394406E-10
        25  25 -2.796806E+06  1.641836E+02 -4.968989E+03  4.874622E+01 -3.919118E+03 -3.090535E-04
        25  26 -2.795523E+06  1.347259E+03 -8.262442E+03 -1.717724E+01 -8.161963E+03  2.267902E-04
        25  27 -2.796819E+06 -5.558457E+03 -1.634963E+04 -8.310079E+01 -1.240479E+04  1.667620E-03
        26   1 -2.799608E+06  1.071199E+03 -2.037630E+04 -3.029310E+02  1.573472E+04 -7.710956E-03
        26   2 -2.792046E+06  8.613712E+03 -3.259069E+04  1.341603E+02  3.287880E+04  7.135748E-03
        26   3 -2.799671E+06 -3.556014E+04 -6.893206E+04  5.712440E+02  5.002250E+04  4.622641E-02
        26   4 -2.799608E+06  1.071199E+03 -2.037630E+04  3.217717E-07  1.573472E+04 -8.211627E-09
        26   5 -2.792046E+06  8.613712E+03 -3.259069E+04 -6.542412E-07  3.287880E+04  5.662318E-09
        26   6 -2.799671E+06 -3.556014E+04 -6.893206E+04  9.098735E-08  5.002250E+04 -5.691485E-09
        26   7 -2.799608E+06  1.071199E+03 -2.037630E+04  3.029310E+02  1.573472E+04  7.710960E-03
        26   8 -2.792046E+06  8.613712E+03 -3.259069E+04 -1.341603E+02  3.287880E+04 -7.135772E-03
        26   9 -2.799671E+06 -3.556014E+04 -6.893206E+04 -5.712440E+02  5.002250E+04 -4.622638E-02
        26  10 -2.799608E+06  1.071132E+03 -2.037677E+04 -3.029310E+02  1.716094E-09 -4.682162E-09
        26  11 -2.792048E+06  8.613420E+03 -3.259273E+04  1.341603E+02 -4.031914E-09  3.833231E-09
        26  12 -2.799673E+06 -3.556082E+04 -6.893678E+04  5.712440E+02  2.200875E-10  4.269009E-09
        26  13 -2.799608E+06  1.071132E+03 -2.037677E+04 -9.131917E-08  1.856275E-24 -2.514838E-09
        26  14 -2.792048E+06  8.613420E+03 -3.259273E+04  1.719609E-07 -1.013668E-10  2.758964E-09
        26  15 -2.799673E+06 -3.556082E+04 -6.893678E+04  2.975319E-07 -5.672729E-10  1.301834E-09
        26  16 -2.799608E+06  1.071132E+03 -2.037677E+04  3.029310E+02 -2.808623E-09 -4.660114E-09
        26  17 -2.792048E+06  8.613420E+03 -3.259273E+04 -1.341603E+02  4.225694E-09  3.841220E-09
        26  18 -2.799673E+06 -3.556082E+04 -6.893678E+04 -5.712440E+02  1.649934E-09  2.630734E-09
        26  19 -2.799608E+06  1.071199E+03 -2.037630E+04 -3.029310E+02 -1.573472E+04  7.710969E-03
        26  20 -2.792046E+06  8.613712E+03 -3.259069E+04  1.341603E+02 -3.287880E+04 -7.135733E-03
        26  21 -2.799671E+06 -3.556014E+04 -6.893206E+04  5.712440E+02 -5.002250E+04 -4.622639E-02
        26  22 -2.799608E+06  1.071199E+03 -2.037630E+04  1.840799E-07 -1.573472E+04  2.433380E-09
        26  23 -2.792046E+06  8.613712E+03 -3.259069E+04  3.096612E-07 -3.287880E+04  3.258403E-09
        26  24 -2.799671E+06 -3.556014E+04 -6.893206E+04  4.524376E-07 -5.002250E+04  6.098338E-09
        26  25 -2.799608E+06  1.071199E+03 -2.037630E+04  3.029310E+02 -1.573472E+04 -7.710964E-03
        26  26 -2.792046E+06  8.613712E+03 -3.259069E+04 -1.341603E+02 -3.287880E+04  7.135744E-03
        26  27 -2.799671E+06 -3.556014E+04 -6.893206E+04 -5.712440E+02 -5.002250E+04  4.622637E-02
        27   1 -2.816513E+06  6.996873E+03 -8.320364E+04 -1.892468E+03  6.383956E+04 -1.954491E-01
        27   2 -2.770993E+06  5.479364E+04 -1.261610E+05  9.506243E+02  1.328709E+05  2.043258E-01
        27   3 -2.816833E+06 -2.263916E+05 -2.964387E+05  3.793588E+03  2.019048E+05  1.239079E+00
        27   4 -2.816513E+06  6.996867E+03 -8.320364E+04  3.238292E-07  6.383956E+04 -1.999637E-09
        27   5 -2.770993E+06  5.479364E+04 -1.261610E+05 -9.172632E-07  1.328709E+05  9.588141E-09
        27   6 -2.816833E+06 -2.263916E+05 -2.964387E+05  4.925173E-07  2.019048E+05 -3.752808E-09
        27   7 -2.816513E+06  6.996873E+03 -8.320364E+04  1.892468E+03  6.383956E+04  1.954491E-01
        27   8 -2.770993E+06  5.479364E+04 -1.261610E+05 -9.506243E+02  1.328709E+05 -2.043259E-01
        27   9 -2.816833E+06 -2.263916E+05 -2.964387E+05 -3.793588E+03  2.019048E+05 -1.239079E+00
        27  10 -2.816517E+06  6.995773E+03 -8.321133E+04 -1.892468E+03 -2.450924E-09  9.976929E-12
        27  11 -2.771013E+06  5.478888E+04 -1.261943E+05  9.506243E+02 -8.264370E-10  2.154404E-09
        27  12 -2.816877E+06 -2.264026E+05 -2.965156E+05  3.793588E+03 -2.212563E-11  3.769466E-09
        27  13 -2.816517E+06  6.995766E+03 -8.321133E+04  4.615315E-07 -1.063979E-09  1.078340E-09
        27  14 -2.771013E+06  5.478888E+04 -1.261943E+05 -1.598503E-07 -3.646468E-09  2.577708E-09
        27  15 -2.816877E+06 -2.264026E+05 -2.965156E+05  4.503344E-08 -1.488793E-09  1.077924E-09
        27  16 -2.816517E+06  6.995773E+03 -8.321133E+04  1.892468E+03 -4.451176E-11  4.303227E-09
        27  17 -2.771013E+06  5.478888E+04 -1.261943E+05 -9.506243E+02  1.640189E-10  2.158025E-09
        27  18 -2.816877E+06 -2.264026E+05 -2.965156E+05 -3.793588E+03  2.196211E-09 -2.691531E-09
        27  19 -2.816513E+06  6.996873E+03 -8.320364E+04 -1.892468E+03 -6.383956E+04  1.954491E-01
        27  20 -2.770993E+06  5.479364E+04 -1.261610E+05  9.506243E+02 -1.328709E+05 -2.043258E-01
        27  21 -2.816833E+06 -2.263916E+05 -2.964387E+05  3.793588E+03 -2.019048E+05 -1.239079E+00
        27  22 -2.816513E+06  6.996867E+03 -8.320364E+04  5.992335E-07 -6.383956E+04  4.124992E-09
        27  23 -2.770993E+06  5.479364E+04 -1.261610E+05  3.909972E-07 -1.328709E+05 -4.337332E-09
        27  24 -2.816833E+06 -2.263916E+05 -2.964387E+05  7.851020E-07 -2.019048E+05  4.713957E-09
        27  25 -2.816513E+06  6.996873E+03 -8.320364E+04  1.892468E+03 -6.383956E+04 -1.954491E-01
        27  26 -2.770993E+06  5.479364E+04 -1.261610E+05 -9.506243E+02 -1.328709E+05  2.043258E-01
        27  27 -2.816833E+06 -2.263916E+05 -2.964387E+05 -3.793588E+03 -2.019048E+05  1.239079E+00
        28   1  4.904300E+05  2.067843E+04  6.393594E+05 -8.280652E+03 -6.867811E+01  4.158333E+05
        28   2 -9.720488E+04 -7.718430E+04  2.882467E+05 -1.650518E+03 -1.859800E+02  2.683461E+05
        28   3  9.398237E+03  2.041186E+04  2.073379E+05  3.492139E+03 -1.605561E+02  1.208502E+05
        28   4  4.719930E+05 -5.306084E+04  6.209286E+05 -2.817288E+02 -6.332221E+01  4.158050E+05
        28   5 -1.156287E+05 -1.508448E+05  2.698322E+05  3.881285E+02 -1.851066E+02  2.683296E+05
        28   6 -8.971218E+03 -5.315029E+04  1.889542E+05 -4.287940E+02 -1.613316E+02  1.208456E+05
        28   7  4.535559E+05 -1.267951E+05  6.024974E+05  7.716244E+03 -5.796649E+01  4.157767E+05
        28   8 -1.340529E+05 -2.245003E+05  2.514174E+05  2.426535E+03 -1.842331E+02  2.683132E+05
        28   9 -2.734102E+04 -1.267075E+05  1.705701E+05 -4.349260E+03 -1.621071E+02  1.208409E+05
        28  10  4.903836E+05  2.049285E+04  6.390344E+05 -8.280629E+03  9.257081E-10 -1.207386E-10
        28  11 -9.722421E+04 -7.726160E+04  2.881114E+05 -1.650478E+03 -4.830845E-09  7.583502E-10
        28  12  9.394317E+03  2.039618E+04  2.073104E+05  3.492155E+03 -6.477059E-10 -3.919066E-10
        28  13  4.719466E+05 -5.324642E+04  6.206037E+05 -2.817076E+02 -3.970696E-09 -7.313365E-11
        28  14 -1.156480E+05 -1.509221E+05  2.696969E+05  3.881685E+02 -5.018426E-09 -2.920186E-10
        28  15 -8.975138E+03 -5.316597E+04  1.889267E+05 -4.287783E+02 -2.495247E-09 -7.548323E-10
        28  16  4.535095E+05 -1.269806E+05  6.021725E+05  7.716264E+03  8.941440E-10  2.023277E-10
        28  17 -1.340722E+05 -2.245776E+05  2.512821E+05  2.426574E+03 -3.305698E-09  8.434935E-10
        28  18 -2.734494E+04 -1.267232E+05  1.705427E+05 -4.349244E+03  1.839040E-10  1.163080E-11
        28  19  4.904300E+05  2.067843E+04  6.393594E+05 -8.280652E+03  6.867811E+01 -4.158333E+05
        28  20 -9.720488E+04 -7.718430E+04  2.882467E+05 -1.650518E+03  1.859800E+02 -2.683461E+05
        28  21  9.398237E+03  2.041186E+04  2.073379E+05  3.492139E+03  1.605561E+02 -1.208502E+05
        28  22  4.719930E+05 -5.306084E+04  6.209286E+05 -2.817288E+02  6.332221E+01 -4.158050E+05
        28  23 -1.156287E+05 -1.508448E+05  2.698322E+05  3.881285E+02  1.851066E+02 -2.683296E+05
        28  24 -8.971218E+03 -5.315029E+04  1.889542E+05 -4.287940E+02  1.613316E+02 -1.208456E+05
        28  25  4.535559E+05 -1.267951E+05  6.024974E+05  7.716244E+03  5.796649E+01 -4.157767E+05
        28  26 -1.340529E+05 -2.245003E+05  2.514174E+05  2.426535E+03  1.842331E+02 -2.683132E+05
        28  27 -2.734102E+04 -1.267075E+05  1.705701E+05 -4.349260E+03  1.621071E+02 -1.208409E+05
        29   1  8.193628E+04 -5.046400E+04  1.720451E+05 -1.965666E+03 -1.609139E+02  8.877065E+04
        29   2 -1.764897E+04 -7.423498E+04  1.082380E+05  4.451532E+02 -4.844602E+01  3.641246E+04
        29   3  4.197843E+04 -5.077836E+04  1.184552E+05  6.389889E+02  8.439259E+01 -1.594525E+04
        29   4  7.302018E+04 -8.608895E+04  1.631378E+05 -4.029717E+02 -1.606929E+02  8.876788E+04
        29   5 -2.651918E+04 -1.097072E+05  9.937010E+04  6.699865E+02 -4.843536E+01  3.641183E+04
        29   6  3.315858E+04 -8.609557E+04  1.096281E+05 -4.740378E+02  8.441855E+01 -1.594376E+04
        29   7  6.410400E+04 -1.217127E+05  1.542305E+05  1.159634E+03 -1.604718E+02  8.876511E+04
        29   8 -3.538949E+04 -1.451782E+05  9.050209E+04  8.948078E+02 -4.842470E+01  3.641119E+04
        29   9  2.433865E+04 -1.214116E+05  1.008009E+05 -1.587000E+03  8.444450E+01 -1.594228E+04
        29  10  8.193416E+04 -5.047246E+04  1.720303E+05 -1.965655E+03 -1.092716E-09 -2.673694E-10
        29  11 -1.764933E+04 -7.423641E+04  1.082355E+05  4.451546E+02  6.654154E-11  2.194853E-09
        29  12  4.197836E+04 -5.077863E+04  1.184547E+05  6.389900E+02  2.037970E-09 -5.060064E-10
        29  13  7.301807E+04 -8.609741E+04  1.631230E+05 -4.029602E+02 -2.834709E-09 -6.681087E-10
        29  14 -2.651954E+04 -1.097086E+05  9.936761E+04  6.699879E+02 -8.637957E-10 -7.906906E-10
        29  15  3.315851E+04 -8.609584E+04  1.096276E+05 -4.740367E+02  2.016902E-10 -1.194716E-09
        29  16  6.410189E+04 -1.217212E+05  1.542157E+05  1.159646E+03 -1.096628E-09 -9.368814E-11
        29  17 -3.538985E+04 -1.451796E+05  9.049959E+04  8.948092E+02 -5.537211E-10  1.803566E-09
        29  18  2.433858E+04 -1.214119E+05  1.008004E+05 -1.586999E+03  2.669116E-09  3.138347E-12
        29  19  8.193628E+04 -5.046400E+04  1.720451E+05 -1.965666E+03  1.609139E+02 -8.877065E+04
        29  20 -1.764897E+04 -7.423498E+04  1.082380E+05  4.451532E+02  4.844602E+01 -3.641246E+04
        29  21  4.197843E+04 -5.077836E+04  1.184552E+05  6.389889E+02 -8.439259E+01  1.594525E+04
        29  22  7.302018E+04 -8.608895E+04  1.631378E+05 -4.029717E+02  1.606929E+02 -8.876788E+04
        29  23 -2.651918E+04 -1.097072E+05  9.937010E+04  6.699865E+02  4.843536E+01 -3.641183E+04
        29  24  3.315858E+04 -8.609557E+04  1.096281E+05 -4.740378E+02 -8.441855E+01  1.594376E+04
        29  25  6.410400E+04 -1.217127E+05  1.542305E+05  1.159634E+03  1.604718E+02 -8.876511E+04
        29  26 -3.538949E+04 -1.451782E+05  9.050209E+04  8.948078E+02  4.842470E+01 -3.641119E+04
        29  27  2.433865E+04 -1.214116E+05  1.008009E+05 -1.587000E+03 -8.444450E+01  1.594228E+04
        30   1 -1.143698E+03 -9.829279E+04  1.092255E+05 -2.661148E+03  1.184380E+02 -3.638957E+04
        30   2 -6.310302E+04 -1.465099E+05  1.336987E+05  1.651170E+03  3.086099E+02 -1.123433E+05
        30   3  2.189119E+05 -9.858209E+04  2.936930E+05  3.911914E+03  5.205020E+02 -1.882939E+05
        30   4  4.605360E+03 -7.522834E+04  1.149882E+05 -6.615389E+02  1.183136E+02 -3.638850E+04
        30   5 -5.728869E+04 -1.232859E+05  1.395060E+05  6.797892E+02  3.087820E+02 -1.123452E+05
        30   6  2.247852E+05 -7.520155E+04  2.995433E+05 -3.060629E+01  5.216971E+02 -1.882989E+05
        30   7  1.035439E+04 -5.216340E+04  1.207510E+05  1.338145E+03  1.181891E+02 -3.638742E+04
        30   8 -5.147439E+04 -1.000614E+05  1.453132E+05 -2.916275E+02  3.089541E+02 -1.123472E+05
        30   9  2.306585E+05 -5.182047E+04  3.053936E+05 -3.973275E+03  5.228922E+02 -1.883039E+05
        30  10 -1.144054E+03 -9.829421E+04  1.092230E+05 -2.661145E+03 -2.327636E-09 -5.724003E-10
        30  11 -6.310641E+04 -1.465234E+05  1.336750E+05  1.651198E+03 -8.618090E-10  2.347511E-09
        30  12  2.189024E+05 -9.862016E+04  2.936264E+05  3.911993E+03 -1.582816E-09 -8.650181E-11
        30  13  4.605004E+03 -7.522976E+04  1.149857E+05 -6.615355E+02  4.922671E-10 -9.022959E-10
        30  14 -5.729207E+04 -1.232995E+05  1.394823E+05  6.798171E+02  3.437911E-09 -8.421201E-10
        30  15  2.247757E+05 -7.523962E+04  2.994767E+05 -3.052721E+01 -1.922670E-09 -1.008047E-09
        30  16  1.035404E+04 -5.216482E+04  1.207485E+05  1.338148E+03  3.917664E-09  5.222353E-11
        30  17 -5.147778E+04 -1.000750E+05  1.452895E+05 -2.915995E+02  1.868795E-09  1.945201E-09
        30  18  2.306490E+05 -5.185854E+04  3.053270E+05 -3.973196E+03  4.898783E-09 -2.854093E-10
        30  19 -1.143698E+03 -9.829279E+04  1.092255E+05 -2.661148E+03 -1.184380E+02  3.638957E+04
        30  20 -6.310302E+04 -1.465099E+05  1.336987E+05  1.651170E+03 -3.086099E+02  1.123433E+05
        30  21  2.189119E+05 -9.858209E+04  2.936930E+05  3.911914E+03 -5.205020E+02  1.882939E+05
        30  22  4.605360E+03 -7.522834E+04  1.149882E+05 -6.615390E+02 -1.183136E+02  3.638850E+04
        30  23 -5.728869E+04 -1.232859E+05  1.395060E+05  6.797892E+02 -3.087820E+02  1.123452E+05
        30  24  2.247852E+05 -7.520155E+04  2.995433E+05 -3.060629E+01 -5.216971E+02  1.882989E+05
        30  25  1.035439E+04 -5.216340E+04  1.207510E+05  1.338145E+03 -1.181891E+02  3.638742E+04
        30  26 -5.147439E+04 -1.000614E+05  1.453132E+05 -2.916275E+02 -3.089541E+02  1.123472E+05
        30  27  2.306585E+05 -5.182047E+04  3.053936E+05 -3.973275E+03 -5.228922E+02  1.883039E+05
        31   1 -2.979861E+06 -4.624809E+05 -6.409380E+04 -1.101201E+06 -4.192289E+04 -1.573022E+04
        31   2 -2.963883E+06 -4.045008E+05 -2.464962E+04 -1.117332E+06 -2.699245E+04 -1.014572E+04
        31   3 -2.973852E+06 -4.154895E+05 -1.486577E+04 -1.117499E+06 -1.207019E+04 -4.539940E+03
        31   4 -2.988554E+06 -4.650468E+05 -6.635236E+04 -1.102817E+06 -4.192298E+04 -1.573031E+04
        31   5 -2.972297E+06 -4.075034E+05 -2.693962E+04 -1.119430E+06 -2.699227E+04 -1.014566E+04
        31   6 -2.981988E+06 -4.189294E+05 -1.718773E+04 -1.120079E+06 -1.206973E+04 -4.539758E+03
        31   7 -2.997247E+06 -4.676127E+05 -6.861093E+04 -1.104433E+06 -4.192307E+04 -1.573041E+04
        31   8 -2.980711E+06 -4.105060E+05 -2.922962E+04 -1.121529E+06 -2.699209E+04 -1.014560E+04
        31   9 -2.990123E+06 -4.223692E+05 -1.950969E+04 -1.122659E+06 -1.206927E+04 -4.539575E+03
        31  10 -2.979863E+06 -4.624817E+05 -6.409758E+04 -1.101201E+06 -9.009076E-06 -7.226310E-06
        31  11 -2.963884E+06 -4.045011E+05 -2.465119E+04 -1.117332E+06 -4.321040E-05 -3.216912E-05
        31  12 -2.973852E+06 -4.154896E+05 -1.486607E+04 -1.117499E+06 -7.947034E-05 -5.618613E-05
        31  13 -2.988556E+06 -4.650476E+05 -6.635615E+04 -1.102817E+06 -2.963962E-05 -7.003879E-06
        31  14 -2.972298E+06 -4.075037E+05 -2.694119E+04 -1.119431E+06 -1.315041E-04 -3.105958E-05
        31  15 -2.981988E+06 -4.189294E+05 -1.718804E+04 -1.120079E+06 -2.333735E-04 -5.507905E-05
        31  16 -2.997249E+06 -4.676135E+05 -6.861472E+04 -1.104434E+06 -1.144835E-05 -7.060257E-06
        31  17 -2.980712E+06 -4.105063E+05 -2.923119E+04 -1.121529E+06 -4.755363E-05 -3.115633E-05
        31  18 -2.990123E+06 -4.223693E+05 -1.951002E+04 -1.122659E+06 -8.160688E-05 -5.614767E-05
        31  19 -2.979861E+06 -4.624809E+05 -6.409379E+04 -1.101201E+06  4.192289E+04  1.573022E+04
        31  20 -2.963883E+06 -4.045008E+05 -2.464961E+04 -1.117332E+06  2.699245E+04  1.014572E+04
        31  21 -2.973852E+06 -4.154895E+05 -1.486575E+04 -1.117499E+06  1.207019E+04  4.539940E+03
        31  22 -2.988554E+06 -4.650468E+05 -6.635236E+04 -1.102817E+06  4.192298E+04  1.573031E+04
        31  23 -2.972297E+06 -4.075034E+05 -2.693962E+04 -1.119430E+06  2.699227E+04  1.014566E+04
        31  24 -2.981988E+06 -4.189294E+05 -1.718773E+04 -1.120079E+06  1.206973E+04  4.539758E+03
        31  25 -2.997247E+06 -4.676128E+05 -6.861094E+04 -1.104433E+06  4.192307E+04  1.573041E+04
        31  26 -2.980711E+06 -4.105060E+05 -2.922963E+04 -1.121528E+06  2.699209E+04  1.014560E+04
        31  27 -2.990123E+06 -4.223692E+05 -1.950971E+04 -1.122659E+06  1.206927E+04  4.539575E+03
        32   1 -2.983082E+06 -4.275572E+05 -1.499793E+04 -1.116012E+06 -9.440384E+03 -3.543012E+03
        32   2 -2.980119E+06 -4.189331E+05 -7.136203E+03 -1.119064E+06 -6.058999E+03 -2.266888E+03
        32   3 -2.982285E+06 -4.202509E+05 -4.709884E+03 -1.118611E+06 -2.674222E+03 -9.996006E+02
        32   4 -2.980277E+06 -4.263860E+05 -1.420037E+04 -1.115138E+06 -9.440182E+03 -3.542938E+03
        32   5 -2.977197E+06 -4.178010E+05 -6.322898E+03 -1.118244E+06 -6.058980E+03 -2.266882E+03
        32   6 -2.979244E+06 -4.191578E+05 -3.880665E+03 -1.117845E+06 -2.674387E+03 -9.996622E+02
        32   7 -2.977472E+06 -4.252149E+05 -1.340282E+04 -1.114264E+06 -9.439980E+03 -3.542865E+03
        32   8 -2.974274E+06 -4.166689E+05 -5.509594E+03 -1.117424E+06 -6.058962E+03 -2.266875E+03
        32   9 -2.976203E+06 -4.180647E+05 -3.051446E+03 -1.117078E+06 -2.674552E+03 -9.997238E+02
        32  10 -2.983082E+06 -4.275572E+05 -1.499811E+04 -1.116012E+06 -7.887236E-05 -5.369712E-05
        32  11 -2.980120E+06 -4.189331E+05 -7.136277E+03 -1.119064E+06 -3.340417E-05 -2.068721E-05
        32  12 -2.982285E+06 -4.202509E+05 -4.709902E+03 -1.118611E+06  1.416618E-05  1.139119E-05
        32  13 -2.980277E+06 -4.263861E+05 -1.420056E+04 -1.115138E+06 -2.237217E-04 -5.281354E-05
        32  14 -2.977197E+06 -4.178010E+05 -6.322976E+03 -1.118244E+06 -8.868097E-05 -2.101583E-05
        32  15 -2.979244E+06 -4.191578E+05 -3.880680E+03 -1.117845E+06  4.635398E-05  1.078649E-05
        32  16 -2.977473E+06 -4.252149E+05 -1.340302E+04 -1.114264E+06 -7.555806E-05 -5.395046E-05
        32  17 -2.974274E+06 -4.166689E+05 -5.509677E+03 -1.117424E+06 -2.785337E-05 -2.193691E-05
        32  18 -2.976203E+06 -4.180647E+05 -3.051459E+03 -1.117078E+06  1.773776E-05  1.101401E-05
        32  19 -2.983082E+06 -4.275572E+05 -1.499790E+04 -1.116012E+06  9.440383E+03  3.543012E+03
        32  20 -2.980119E+06 -4.189331E+05 -7.136194E+03 -1.119065E+06  6.058999E+03  2.266888E+03
        32  21 -2.982285E+06 -4.202509E+05 -4.709889E+03 -1.118611E+06  2.674222E+03  9.996006E+02
        32  22 -2.980277E+06 -4.263860E+05 -1.420037E+04 -1.115138E+06  9.440182E+03  3.542938E+03
        32  23 -2.977197E+06 -4.178010E+05 -6.322897E+03 -1.118244E+06  6.058980E+03  2.266882E+03
        32  24 -2.979244E+06 -4.191578E+05 -3.880664E+03 -1.117845E+06  2.674387E+03  9.996622E+02
        32  25 -2.977473E+06 -4.252149E+05 -1.340284E+04 -1.114264E+06  9.439980E+03  3.542865E+03
        32  26 -2.974274E+06 -4.166689E+05 -5.509602E+03 -1.117424E+06  6.058962E+03  2.266875E+03
        32  27 -2.976203E+06 -4.180647E+05 -3.051441E+03 -1.117078E+06  2.674552E+03  9.997238E+02
        33   1 -2.978430E+06 -4.205646E+05 -3.084692E+03 -1.117388E+06 -2.086579E+03 -7.823184E+02
        33   2 -2.978153E+06 -4.189397E+05 -1.503533E+03 -1.117558E+06 -1.268981E+03 -4.767294E+02
        33   3 -2.978226E+06 -4.194181E+05 -9.980666E+02 -1.117762E+06 -4.516690E+02 -1.703927E+02
        33   4 -2.978638E+06 -4.206266E+05 -3.138786E+03 -1.117427E+06 -2.086610E+03 -7.823301E+02
        33   5 -2.978384E+06 -4.190235E+05 -1.566629E+03 -1.117617E+06 -1.268996E+03 -4.767350E+02
        33   6 -2.978480E+06 -4.195236E+05 -1.070177E+03 -1.117840E+06 -4.516675E+02 -1.703921E+02
        33   7 -2.978846E+06 -4.206887E+05 -3.192881E+03 -1.117467E+06 -2.086641E+03 -7.823419E+02
        33   8 -2.978614E+06 -4.191072E+05 -1.629725E+03 -1.117676E+06 -1.269011E+03 -4.767406E+02
        33   9 -2.978734E+06 -4.196291E+05 -1.142287E+03 -1.117919E+06 -4.516660E+02 -1.703916E+02
        33  10 -2.978430E+06 -4.205646E+05 -3.084704E+03 -1.117388E+06  2.421696E-05  1.668783E-05
        33  11 -2.978153E+06 -4.189397E+05 -1.503537E+03 -1.117558E+06  5.286706E-06  2.451141E-06
        33  12 -2.978226E+06 -4.194181E+05 -9.980647E+02 -1.117762E+06 -1.502946E-05 -1.118299E-05
        33  13 -2.978638E+06 -4.206267E+05 -3.138796E+03 -1.117427E+06  6.895042E-05  1.615233E-05
        33  14 -2.978384E+06 -4.190235E+05 -1.566633E+03 -1.117617E+06  1.157708E-05  2.784580E-06
        33  15 -2.978480E+06 -4.195236E+05 -1.070177E+03 -1.117840E+06 -4.580485E-05 -1.059338E-05
        33  16 -2.978846E+06 -4.206887E+05 -3.192887E+03 -1.117467E+06  2.331069E-05  1.656589E-05
        33  17 -2.978614E+06 -4.191072E+05 -1.629728E+03 -1.117676E+06  2.744728E-06  3.043551E-06
        33  18 -2.978734E+06 -4.196291E+05 -1.142290E+03 -1.117919E+06 -1.643384E-05 -1.108227E-05
        33  19 -2.978430E+06 -4.205646E+05 -3.084699E+03 -1.117388E+06  2.086579E+03  7.823184E+02
        33  20 -2.978153E+06 -4.189397E+05 -1.503535E+03 -1.117558E+06  1.268981E+03  4.767294E+02
        33  21 -2.978226E+06 -4.194181E+05 -9.980619E+02 -1.117762E+06  4.516690E+02  1.703927E+02
        33  22 -2.978638E+06 -4.206266E+05 -3.138786E+03 -1.117427E+06  2.086610E+03  7.823302E+02
        33  23 -2.978384E+06 -4.190235E+05 -1.566629E+03 -1.117617E+06  1.268996E+03  4.767350E+02
        33  24 -2.978480E+06 -4.195236E+05 -1.070177E+03 -1.117840E+06  4.516674E+02  1.703921E+02
        33  25 -2.978846E+06 -4.206887E+05 -3.192874E+03 -1.117467E+06  2.086641E+03  7.823420E+02
        33  26 -2.978614E+06 -4.191072E+05 -1.629724E+03 -1.117676E+06  1.269011E+03  4.767406E+02
        33  27 -2.978734E+06 -4.196291E+05 -1.142292E+03 -1.117919E+06  4.516660E+02  1.703915E+02
        34   1 -2.976956E+06 -4.189022E+05 -4.983773E+02 -1.117116E+06 -2.827358E+02 -1.082847E+02
        34   2 -2.976687E+06 -4.188256E+05 -3.767074E+02 -1.117382E+06  1.376253E+02  4.789612E+01
        34   3 -2.977019E+06 -4.189172E+05 -7.093621E+02 -1.117126E+06  5.564302E+02  2.082128E+02
        34   4 -2.978596E+06 -4.195191E+05 -9.511764E+02 -1.117557E+06 -2.828123E+02 -1.083133E+02
        34   5 -2.978295E+06 -4.194341E+05 -8.214383E+02 -1.117819E+06  1.376404E+02  4.790181E+01
        34   6 -2.978596E+06 -4.195174E+05 -1.146099E+03 -1.117558E+06  5.565370E+02  2.082528E+02
        34   7 -2.980236E+06 -4.201359E+05 -1.403976E+03 -1.117999E+06 -2.828886E+02 -1.083420E+02
        34   8 -2.979904E+06 -4.200427E+05 -1.266169E+03 -1.118255E+06  1.376556E+02  4.790750E+01
        34   9 -2.980173E+06 -4.201177E+05 -1.582836E+03 -1.117990E+06  5.566437E+02  2.082929E+02
        34  10 -2.976956E+06 -4.189022E+05 -4.983751E+02 -1.117116E+06 -1.653142E-05 -1.109157E-05
        34  11 -2.976687E+06 -4.188256E+05 -3.767080E+02 -1.117382E+06  2.454944E-06  2.966394E-06
        34  12 -2.977019E+06 -4.189172E+05 -7.093663E+02 -1.117126E+06  2.261189E-05  1.653250E-05
        34  13 -2.978596E+06 -4.195191E+05 -9.511765E+02 -1.117557E+06 -4.596279E-05 -1.067189E-05
        34  14 -2.978295E+06 -4.194341E+05 -8.214383E+02 -1.117819E+06  1.086436E-05  2.443468E-06
        34  15 -2.978596E+06 -4.195174E+05 -1.146099E+03 -1.117558E+06  6.768508E-05  1.554146E-05
        34  16 -2.980236E+06 -4.201359E+05 -1.403978E+03 -1.117999E+06 -1.507821E-05 -1.119975E-05
        34  17 -2.979904E+06 -4.200427E+05 -1.266169E+03 -1.118255E+06  4.945357E-06  2.432285E-06
        34  18 -2.980173E+06 -4.201177E+05 -1.582833E+03 -1.117990E+06  2.378501E-05  1.655068E-05
        34  19 -2.976956E+06 -4.189022E+05 -4.983725E+02 -1.117116E+06  2.827358E+02  1.082846E+02
        34  20 -2.976687E+06 -4.188256E+05 -3.767086E+02 -1.117382E+06 -1.376252E+02 -4.789612E+01
        34  21 -2.977019E+06 -4.189172E+05 -7.093691E+02 -1.117126E+06 -5.564301E+02 -2.082127E+02
        34  22 -2.978596E+06 -4.195191E+05 -9.511762E+02 -1.117557E+06  2.828122E+02  1.083133E+02
        34  23 -2.978295E+06 -4.194341E+05 -8.214382E+02 -1.117819E+06 -1.376404E+02 -4.790181E+01
        34  24 -2.978596E+06 -4.195174E+05 -1.146098E+03 -1.117558E+06 -5.565369E+02 -2.082528E+02
        34  25 -2.980236E+06 -4.201360E+05 -1.403980E+03 -1.117999E+06  2.828886E+02  1.083420E+02
        34  26 -2.979904E+06 -4.200427E+05 -1.266168E+03 -1.118255E+06 -1.376556E+02 -4.790750E+01
        34  27 -2.980173E+06 -4.201177E+05 -1.582828E+03 -1.117990E+06 -5.566437E+02 -2.082929E+02
        35   1 -2.982771E+06 -4.212492E+05 -2.584892E+03 -1.119110E+06  7.646048E+02  2.920623E+02
        35   2 -2.982762E+06 -4.205640E+05 -3.401767E+03 -1.118684E+06  1.901290E+03  7.235317E+02
        35   3 -2.982833E+06 -4.222867E+05 -5.530642E+03 -1.118647E+06  3.042386E+03  1.143304E+03
        35   4 -2.978420E+06 -4.195931E+05 -1.379945E+03 -1.117919E+06  7.648356E+02  2.921489E+02
        35   5 -2.978460E+06 -4.189389E+05 -2.212761E+03 -1.117518E+06  1.901266E+03  7.235228E+02
        35   6 -2.978578E+06 -4.206924E+05 -4.357368E+03 -1.117508E+06  3.042108E+03  1.143199E+03
        35   7 -2.974069E+06 -4.179370E+05 -1.750004E+02 -1.116727E+06  7.650663E+02  2.922355E+02
        35   8 -2.974157E+06 -4.173137E+05 -1.023757E+03 -1.116353E+06  1.901243E+03  7.235140E+02
        35   9 -2.974324E+06 -4.190981E+05 -3.184095E+03 -1.116369E+06  3.041830E+03  1.143095E+03
        35  10 -2.982771E+06 -4.212492E+05 -2.584896E+03 -1.119110E+06  1.941617E-05  1.256651E-05
        35  11 -2.982762E+06 -4.205640E+05 -3.401772E+03 -1.118684E+06 -1.732416E-05 -1.490244E-05
        35  12 -2.982833E+06 -4.222867E+05 -5.530653E+03 -1.118647E+06 -5.651653E-05 -4.131708E-05
        35  13 -2.978420E+06 -4.195931E+05 -1.379947E+03 -1.117919E+06  5.215092E-05  1.203572E-05
        35  14 -2.978460E+06 -4.189389E+05 -2.212769E+03 -1.117518E+06 -5.806164E-05 -1.308698E-05
        35  15 -2.978578E+06 -4.206924E+05 -4.357388E+03 -1.117508E+06 -1.682848E-04 -3.818531E-05
        35  16 -2.974069E+06 -4.179369E+05 -1.749990E+02 -1.116727E+06  1.639177E-05  1.280401E-05
        35  17 -2.974157E+06 -4.173137E+05 -1.023768E+03 -1.116353E+06 -2.226208E-05 -1.386401E-05
        35  18 -2.974324E+06 -4.190981E+05 -3.184124E+03 -1.116369E+06 -5.850182E-05 -4.149154E-05
        35  19 -2.982771E+06 -4.212492E+05 -2.584897E+03 -1.119110E+06 -7.646047E+02 -2.920623E+02
        35  20 -2.982762E+06 -4.205640E+05 -3.401761E+03 -1.118684E+06 -1.901290E+03 -7.235317E+02
        35  21 -2.982833E+06 -4.222867E+05 -5.530624E+03 -1.118647E+06 -3.042386E+03 -1.143304E+03
        35  22 -2.978420E+06 -4.195931E+05 -1.379946E+03 -1.117919E+06 -7.648355E+02 -2.921489E+02
        35  23 -2.978460E+06 -4.189389E+05 -2.212761E+03 -1.117518E+06 -1.901266E+03 -7.235229E+02
        35  24 -2.978578E+06 -4.206924E+05 -4.357368E+03 -1.117508E+06 -3.042108E+03 -1.143200E+03
        35  25 -2.974069E+06 -4.179369E+05 -1.749951E+02 -1.116727E+06 -7.650662E+02 -2.922355E+02
        35  26 -2.974157E+06 -4.173137E+05 -1.023763E+03 -1.116353E+06 -1.901243E+03 -7.235140E+02
        35  27 -2.974324E+06 -4.190981E+05 -3.184113E+03 -1.116369E+06 -3.041830E+03 -1.143095E+03
        36   1 -2.968945E+06 -4.150275E+05 -2.615599E+03 -1.114815E+06  3.870380E+03  1.439903E+03
        36   2 -2.966547E+06 -4.141128E+05 -6.464618E+03 -1.115697E+06  8.751529E+03  3.260646E+03
        36   3 -2.970373E+06 -4.222482E+05 -1.685926E+04 -1.112040E+06  1.362198E+04  5.109885E+03
        36   4 -2.979489E+06 -4.189579E+05 -5.518991E+03 -1.117616E+06  3.869805E+03  1.439688E+03
        36   5 -2.976895E+06 -4.180522E+05 -9.330510E+03 -1.118531E+06  8.751512E+03  3.260640E+03
        36   6 -2.980527E+06 -4.261968E+05 -1.968818E+04 -1.114906E+06  1.362253E+04  5.110086E+03
        36   7 -2.990032E+06 -4.228882E+05 -8.422393E+03 -1.120418E+06  3.869230E+03  1.439473E+03
        36   8 -2.987244E+06 -4.219915E+05 -1.219641E+04 -1.121365E+06  8.751496E+03  3.260633E+03
        36   9 -2.990681E+06 -4.301454E+05 -2.251711E+04 -1.117772E+06  1.362307E+04  5.110288E+03
        36  10 -2.968945E+06 -4.150275E+05 -2.615624E+03 -1.114815E+06 -4.943024E-05 -3.307703E-05
        36  11 -2.966547E+06 -4.141128E+05 -6.464788E+03 -1.115697E+06  2.471016E-05  2.252589E-05
        36  12 -2.970374E+06 -4.222483E+05 -1.685968E+04 -1.112040E+06  1.025430E-04  7.669709E-05
        36  13 -2.979489E+06 -4.189579E+05 -5.519023E+03 -1.117616E+06 -1.356228E-04 -3.085321E-05
        36  14 -2.976895E+06 -4.180522E+05 -9.330675E+03 -1.118531E+06  8.682226E-05  1.944589E-05
        36  15 -2.980527E+06 -4.261969E+05 -1.968858E+04 -1.114906E+06  3.092294E-04  6.978432E-05
        36  16 -2.990032E+06 -4.228882E+05 -8.422432E+03 -1.120418E+06 -4.334116E-05 -3.351778E-05
        36  17 -2.987244E+06 -4.219915E+05 -1.219657E+04 -1.121365E+06  3.436960E-05  2.066245E-05
        36  18 -2.990681E+06 -4.301454E+05 -2.251749E+04 -1.117772E+06  1.083219E-04  7.638889E-05
        36  19 -2.968945E+06 -4.150275E+05 -2.615585E+03 -1.114815E+06 -3.870380E+03 -1.439903E+03
        36  20 -2.966547E+06 -4.141128E+05 -6.464627E+03 -1.115697E+06 -8.751529E+03 -3.260646E+03
        36  21 -2.970374E+06 -4.222482E+05 -1.685929E+04 -1.112040E+06 -1.362198E+04 -5.109884E+03
        36  22 -2.979489E+06 -4.189579E+05 -5.518990E+03 -1.117616E+06 -3.869805E+03 -1.439688E+03
        36  23 -2.976895E+06 -4.180522E+05 -9.330510E+03 -1.118531E+06 -8.751512E+03 -3.260640E+03
        36  24 -2.980527E+06 -4.261968E+05 -1.968818E+04 -1.114906E+06 -1.362253E+04 -5.110086E+03
        36  25 -2.990032E+06 -4.228882E+05 -8.422407E+03 -1.120418E+06 -3.869230E+03 -1.439473E+03
        36  26 -2.987244E+06 -4.219915E+05 -1.219640E+04 -1.121365E+06 -8.751496E+03 -3.260633E+03
        36  27 -2.990681E+06 -4.301453E+05 -2.251707E+04 -1.117772E+06 -1.362307E+04 -5.110288E+03
        37   1 -3.006417E+06 -4.293145E+05 -3.145321E+04 -1.127917E+06  1.730036E+04  6.524938E+03
        37   2 -2.997783E+06 -4.159710E+05 -4.715733E+04 -1.125161E+06  3.886189E+04  1.463376E+04
        37   3 -3.013142E+06 -4.746045E+05 -9.748699E+04 -1.109523E+06  6.045575E+04  2.265534E+04
        37   4 -2.981552E+06 -4.195342E+05 -2.450342E+04 -1.120784E+06  1.730212E+04  6.525612E+03
        37   5 -2.972854E+06 -4.067089E+05 -4.029905E+04 -1.118569E+06  3.886255E+04  1.463399E+04
        37   6 -2.988147E+06 -4.658588E+05 -9.071828E+04 -1.103470E+06  6.045530E+04  2.265509E+04
        37   7 -2.956687E+06 -4.097539E+05 -1.755369E+04 -1.113652E+06  1.730388E+04  6.526285E+03
        37   8 -2.947924E+06 -3.974468E+05 -3.344083E+04 -1.111976E+06  3.886320E+04  1.463422E+04
        37   9 -2.963152E+06 -4.571131E+05 -8.394963E+04 -1.097417E+06  6.045485E+04  2.265483E+04
        37  10 -3.006418E+06 -4.293147E+05 -3.145387E+04 -1.127917E+06  1.146575E-04  8.214640E-05
        37  11 -2.997785E+06 -4.159716E+05 -4.716059E+04 -1.125162E+06  6.697193E-05  4.563190E-05
        37  12 -3.013146E+06 -4.746061E+05 -9.749487E+04 -1.109524E+06  1.658735E-05  1.021922E-05
        37  13 -2.981553E+06 -4.195343E+05 -2.450407E+04 -1.120785E+06  3.318099E-04  7.491414E-05
        37  14 -2.972856E+06 -4.067095E+05 -4.030231E+04 -1.118569E+06  1.869955E-04  4.221048E-05
        37  15 -2.988151E+06 -4.658604E+05 -9.072616E+04 -1.103471E+06  4.214516E-05  9.536058E-06
        37  16 -2.956687E+06 -4.097540E+05 -1.755432E+04 -1.113652E+06  1.116419E-04  8.203431E-05
        37  17 -2.947926E+06 -3.974475E+05 -3.344408E+04 -1.111977E+06  6.058738E-05  4.687197E-05
        37  18 -2.963156E+06 -4.571146E+05 -8.395751E+04 -1.097418E+06  1.216332E-05  1.067258E-05
        37  19 -3.006418E+06 -4.293146E+05 -3.145325E+04 -1.127916E+06 -1.730036E+04 -6.524938E+03
        37  20 -2.997783E+06 -4.159710E+05 -4.715735E+04 -1.125161E+06 -3.886189E+04 -1.463376E+04
        37  21 -3.013142E+06 -4.746045E+05 -9.748700E+04 -1.109523E+06 -6.045575E+04 -2.265534E+04
        37  22 -2.981552E+06 -4.195342E+05 -2.450342E+04 -1.120784E+06 -1.730212E+04 -6.525611E+03
        37  23 -2.972854E+06 -4.067089E+05 -4.029905E+04 -1.118569E+06 -3.886255E+04 -1.463399E+04
        37  24 -2.988147E+06 -4.658588E+05 -9.071829E+04 -1.103470E+06 -6.045530E+04 -2.265509E+04
        37  25 -2.956687E+06 -4.097538E+05 -1.755366E+04 -1.113652E+06 -1.730388E+04 -6.526285E+03
        37  26 -2.947924E+06 -3.974468E+05 -3.344081E+04 -1.111976E+06 -3.886320E+04 -1.463422E+04
        37  27 -2.963152E+06 -4.571131E+05 -8.394963E+04 -1.097417E+06 -6.045485E+04 -2.265483E+04
        38   1 -2.942695E+06 -3.907924E+05 -9.303123E+04 -1.113573E+06  7.727961E+04  2.889453E+04
        38   2 -2.875675E+06 -3.251551E+05 -1.558548E+05 -1.117823E+06  1.727217E+05  6.477508E+04
        38   3 -2.991707E+06 -6.808117E+05 -4.078031E+05 -9.974551E+05  2.680536E+05  1.009608E+05
        38   4 -3.004773E+06 -4.119547E+05 -1.097293E+05 -1.128032E+06  7.727258E+04  2.889226E+04
        38   5 -2.934387E+06 -3.485478E+05 -1.723236E+05 -1.134972E+06  1.727129E+05  6.477134E+04
        38   6 -3.047066E+06 -7.064594E+05 -4.240549E+05 -1.017291E+06  2.680434E+05  1.009545E+05
        38   7 -3.066848E+06 -4.331170E+05 -1.264278E+05 -1.142491E+06  7.726555E+04  2.888998E+04
        38   8 -2.993095E+06 -3.719403E+05 -1.887927E+05 -1.152121E+06  1.727040E+05  6.476760E+04
        38   9 -3.102423E+06 -7.321065E+05 -4.403071E+05 -1.037124E+06  2.680333E+05  1.009481E+05
        38  10 -2.942701E+06 -3.907949E+05 -9.304409E+04 -1.113575E+06  3.600243E-07 -1.207226E-07
        38  11 -2.875709E+06 -3.251677E+05 -1.559191E+05 -1.117832E+06 -7.245171E-08  2.718135E-08
        38  12 -2.991787E+06 -6.808421E+05 -4.079581E+05 -9.974770E+05 -7.921765E-08  2.954806E-08
        38  13 -3.004780E+06 -4.119572E+05 -1.097422E+05 -1.128034E+06 -8.283823E-09  2.256078E-08
        38  14 -2.934420E+06 -3.485604E+05 -1.723879E+05 -1.134982E+06 -4.702627E-10 -1.999308E-10
        38  15 -3.047147E+06 -7.064898E+05 -4.242100E+05 -1.017312E+06  1.363182E-09 -3.795234E-09
        38  16 -3.066854E+06 -4.331195E+05 -1.264407E+05 -1.142493E+06 -3.805396E-07  1.741877E-07
        38  17 -2.993128E+06 -3.719529E+05 -1.888569E+05 -1.152130E+06  6.855167E-08 -3.098337E-08
        38  18 -3.102503E+06 -7.321369E+05 -4.404621E+05 -1.037146E+06  8.059004E-08 -3.290368E-08
        38  19 -2.942695E+06 -3.907924E+05 -9.303123E+04 -1.113573E+06 -7.727961E+04 -2.889453E+04
        38  20 -2.875675E+06 -3.251551E+05 -1.558548E+05 -1.117823E+06 -1.727217E+05 -6.477508E+04
        38  21 -2.991707E+06 -6.808117E+05 -4.078031E+05 -9.974551E+05 -2.680536E+05 -1.009608E+05
        38  22 -3.004773E+06 -4.119547E+05 -1.097293E+05 -1.128032E+06 -7.727258E+04 -2.889226E+04
        38  23 -2.934387E+06 -3.485478E+05 -1.723236E+05 -1.134972E+06 -1.727129E+05 -6.477134E+04
        38  24 -3.047066E+06 -7.064594E+05 -4.240549E+05 -1.017291E+06 -2.680434E+05 -1.009545E+05
        38  25 -3.066848E+06 -4.331170E+05 -1.264278E+05 -1.142491E+06 -7.726555E+04 -2.888998E+04
        38  26 -2.993095E+06 -3.719403E+05 -1.887927E+05 -1.152121E+06 -1.727040E+05 -6.476760E+04
        38  27 -3.102423E+06 -7.321065E+05 -4.403071E+05 -1.037124E+06 -2.680333E+05 -1.009481E+05
        39   1 -1.695653E+06 -5.080038E+04 -6.653742E+04 -8.523796E+02 -4.534489E+04  6.241968E-02
        39   2 -1.685385E+06  1.229496E+04 -2.832990E+04 -2.135797E+02 -2.984260E+04  1.029327E-02
        39   3 -1.695608E+06  1.569863E+03 -1.868979E+04  4.252288E+02 -1.434039E+04 -9.847948E-03
        39   4 -1.695653E+06 -5.080038E+04 -6.653742E+04  1.152187E-07 -4.534489E+04  7.792801E-10
        39   5 -1.685385E+06  1.229496E+04 -2.832990E+04 -6.671612E-07 -2.984260E+04 -3.007783E-09
        39   6 -1.695608E+06  1.569862E+03 -1.868979E+04  4.103337E-07 -1.434039E+04 -1.097336E-09
        39   7 -1.695653E+06 -5.080038E+04 -6.653742E+04  8.523796E+02 -4.534489E+04 -6.241965E-02
        39   8 -1.685385E+06  1.229496E+04 -2.832990E+04  2.135797E+02 -2.984260E+04 -1.029328E-02
        39   9 -1.695608E+06  1.569863E+03 -1.868979E+04 -4.252288E+02 -1.434039E+04  9.847957E-03
        39  10 -1.695655E+06 -5.080093E+04 -6.654129E+04 -8.523796E+02  5.969189E-10 -2.133961E-09
        39  11 -1.685386E+06  1.229472E+04 -2.833157E+04 -2.135797E+02 -3.275594E-09  4.201263E-11
        39  12 -1.695609E+06  1.569807E+03 -1.869018E+04  4.252288E+02 -4.634339E-09 -1.636176E-09
        39  13 -1.695655E+06 -5.080093E+04 -6.654129E+04  2.529750E-07  2.186014E-09  3.455001E-10
        39  14 -1.685386E+06  1.229472E+04 -2.833157E+04 -3.916374E-07  4.140882E-09 -1.153816E-09
        39  15 -1.695609E+06  1.569807E+03 -1.869018E+04  1.692541E-07  5.169048E-10 -3.755970E-10
        39  16 -1.695655E+06 -5.080093E+04 -6.654129E+04  8.523796E+02  1.067802E-09  2.134023E-09
        39  17 -1.685386E+06  1.229472E+04 -2.833157E+04  2.135797E+02  2.883564E-09 -1.119318E-09
        39  18 -1.695609E+06  1.569807E+03 -1.869018E+04 -4.252288E+02  3.641003E-09  2.444707E-09
        39  19 -1.695653E+06 -5.080038E+04 -6.653742E+04 -8.523796E+02  4.534489E+04 -6.241965E-02
        39  20 -1.685385E+06  1.229496E+04 -2.832990E+04 -2.135797E+02  2.984260E+04 -1.029324E-02
        39  21 -1.695608E+06  1.569863E+03 -1.868979E+04  4.252288E+02  1.434039E+04  9.847960E-03
        39  22 -1.695653E+06 -5.080038E+04 -6.653742E+04  5.284885E-07  4.534489E+04 -2.839365E-10
        39  23 -1.685385E+06  1.229496E+04 -2.832990E+04  6.415777E-07  2.984260E+04  3.540160E-09
        39  24 -1.695608E+06  1.569862E+03 -1.868979E+04  1.374651E-06  1.434039E+04  5.578039E-10
        39  25 -1.695653E+06 -5.080038E+04 -6.653742E+04  8.523796E+02  4.534489E+04  6.241965E-02
        39  26 -1.685385E+06  1.229496E+04 -2.832990E+04  2.135797E+02  2.984260E+04  1.029325E-02
        39  27 -1.695608E+06  1.569863E+03 -1.868979E+04 -4.252288E+02  1.434039E+04 -9.847964E-03
        40   1 -1.691824E+06 -7.979857E+03 -1.548865E+04 -1.283808E+02 -1.123326E+04  2.328992E-03
        40   2 -1.690115E+06  1.933311E+03 -7.339899E+03 -3.015673E+01 -7.371717E+03  3.590289E-04
        40   3 -1.691815E+06  2.387191E+02 -4.612125E+03  6.806594E+01 -3.510225E+03 -3.858401E-04
        40   4 -1.691824E+06 -7.979857E+03 -1.548865E+04  7.243278E-08 -1.123326E+04  5.037860E-09
        40   5 -1.690115E+06  1.933311E+03 -7.339899E+03 -7.974827E-08 -7.371717E+03  1.197738E-08
        40   6 -1.691815E+06  2.387191E+02 -4.612125E+03 -3.689731E-07 -3.510225E+03  1.416809E-09
        40   7 -1.691824E+06 -7.979857E+03 -1.548865E+04  1.283808E+02 -1.123326E+04 -2.328986E-03
        40   8 -1.690115E+06  1.933311E+03 -7.339899E+03  3.015673E+01 -7.371717E+03 -3.590151E-04
        40   9 -1.691815E+06  2.387191E+02 -4.612125E+03 -6.806594E+01 -3.510225E+03  3.858551E-04
        40  10 -1.691824E+06 -7.979891E+03 -1.548889E+04 -1.283808E+02  1.694691E-10  2.118918E-09
        40  11 -1.690115E+06  1.933297E+03 -7.340002E+03 -3.015673E+01 -2.072342E-09  3.230464E-09
        40  12 -1.691815E+06  2.387158E+02 -4.612148E+03  6.806594E+01 -1.439756E-09  1.612573E-09
        40  13 -1.691824E+06 -7.979891E+03 -1.548889E+04 -6.532636E-08  2.102045E-09  1.077635E-09
        40  14 -1.690115E+06  1.933297E+03 -7.340002E+03  1.268909E-07  4.171491E-23  2.493183E-09
        40  15 -1.691815E+06  2.387158E+02 -4.612148E+03 -1.967740E-07  8.861663E-10  7.921443E-10
        40  16 -1.691824E+06 -7.979891E+03 -1.548889E+04  1.283808E+02  9.053386E-10  2.192008E-09
        40  17 -1.690115E+06  1.933297E+03 -7.340002E+03  3.015673E+01  2.763123E-09 -3.230551E-09
        40  18 -1.691815E+06  2.387158E+02 -4.612148E+03 -6.806594E+01  4.642261E-09  1.889964E-09
        40  19 -1.691824E+06 -7.979857E+03 -1.548865E+04 -1.283808E+02  1.123326E+04 -2.328981E-03
        40  20 -1.690115E+06  1.933311E+03 -7.339899E+03 -3.015673E+01  7.371717E+03 -3.590062E-04
        40  21 -1.691815E+06  2.387191E+02 -4.612125E+03  6.806594E+01  3.510225E+03  3.858618E-04
        40  22 -1.691824E+06 -7.979857E+03 -1.548865E+04  7.612253E-07  1.123326E+04 -2.202731E-09
        40  23 -1.690115E+06  1.933311E+03 -7.339899E+03  5.401691E-07  7.371717E+03 -6.585357E-09
        40  24 -1.691815E+06  2.387191E+02 -4.612125E+03  3.370432E-07  3.510225E+03 -5.626466E-10
        40  25 -1.691824E+06 -7.979857E+03 -1.548865E+04  1.283808E+02  1.123326E+04  2.328973E-03
        40  26 -1.690115E+06  1.933311E+03 -7.339899E+03  3.015673E+01  7.371717E+03  3.590038E-04
        40  27 -1.691815E+06  2.387191E+02 -4.612125E+03 -6.806594E+01  3.510225E+03 -3.858584E-04
        41   1 -1.691190E+06 -1.247175E+03 -3.718398E+03 -1.880165E+01 -2.754159E+03  8.362358E-05
        41   2 -1.690895E+06  3.052467E+02 -1.935217E+03 -3.892875E+00 -1.761310E+03  1.107330E-05
        41   3 -1.691188E+06  2.500628E+01 -1.257920E+03  1.101612E+01 -7.684456E+02 -1.366308E-05
        41   4 -1.691190E+06 -1.247175E+03 -3.718398E+03 -2.658715E-07 -2.754159E+03 -3.969171E-09
        41   5 -1.690895E+06  3.052467E+02 -1.935217E+03 -5.263753E-07 -1.761310E+03 -5.395173E-09
        41   6 -1.691188E+06  2.500628E+01 -1.257920E+03  5.400049E-07 -7.684456E+02 -3.924818E-09
        41   7 -1.691190E+06 -1.247175E+03 -3.718398E+03  1.880165E+01 -2.754159E+03 -8.362883E-05
        41   8 -1.690895E+06  3.052467E+02 -1.935217E+03  3.892876E+00 -1.761310E+03 -1.109056E-05
        41   9 -1.691188E+06  2.500628E+01 -1.257920E+03 -1.101612E+01 -7.684456E+02  1.366327E-05
        41  10 -1.691190E+06 -1.247177E+03 -3.718412E+03 -1.880165E+01 -2.538302E-09  2.005577E-09
        41  11 -1.690895E+06  3.052458E+02 -1.935223E+03 -3.892878E+00  1.357501E-09  2.586700E-09
        41  12 -1.691188E+06  2.500612E+01 -1.257921E+03  1.101611E+01  2.916430E-10  4.435234E-10
        41  13 -1.691190E+06 -1.247177E+03 -3.718412E+03 -2.658730E-07  2.202889E-09  6.599088E-10
        41  14 -1.690895E+06  3.052458E+02 -1.935223E+03  2.465998E-08  7.706310E-10  8.286377E-10
        41  15 -1.691188E+06  2.500612E+01 -1.257921E+03 -7.514834E-07 -2.792988E-09 -3.218916E-10
        41  16 -1.691190E+06 -1.247177E+03 -3.718412E+03  1.880165E+01  2.232698E-09  2.008667E-09
        41  17 -1.690895E+06  3.052458E+02 -1.935223E+03  3.892877E+00  2.256529E-09  5.796780E-09
        41  18 -1.691188E+06  2.500612E+01 -1.257921E+03 -1.101612E+01 -7.919702E-10  7.242801E-10
        41  19 -1.691190E+06 -1.247175E+03 -3.718398E+03 -1.880165E+01  2.754159E+03 -8.361399E-05
        41  20 -1.690895E+06  3.052467E+02 -1.935217E+03 -3.892877E+00  1.761310E+03 -1.104741E-05
        41  21 -1.691188E+06  2.500628E+01 -1.257920E+03  1.101611E+01  7.684456E+02  1.367816E-05
        41  22 -1.691190E+06 -1.247175E+03 -3.718398E+03  4.229204E-07  2.754159E+03  4.717626E-09
        41  23 -1.690895E+06  3.052467E+02 -1.935217E+03 -2.508578E-07  1.761310E+03  1.052685E-08
        41  24 -1.691188E+06  2.500628E+01 -1.257920E+03 -1.102864E-08  7.684456E+02  3.988663E-09
        41  25 -1.691190E+06 -1.247175E+03 -3.718398E+03  1.880165E+01  2.754159E+03  8.362656E-05
        41  26 -1.690895E+06  3.052467E+02 -1.935217E+03  3.892878E+00  1.761310E+03  1.107277E-05
        41  27 -1.691188E+06  2.500628E+01 -1.257920E+03 -1.101612E+01  7.684456E+02 -1.366661E-05
        42   1 -1.691091E+06 -1.917414E+02 -1.055989E+03 -3.273328E+00 -5.587245E+02  2.963787E-06
        42   2 -1.691017E+06  6.488817E+01 -7.599804E+02 -3.730728E-01 -1.756088E+02  1.203768E-07
        42   3 -1.691090E+06 -6.804345E+01 -8.112973E+02  2.527183E+00  2.075070E+02  8.676899E-07
        42   4 -1.691091E+06 -1.917413E+02 -1.055989E+03  4.072172E-07 -5.587245E+02  4.563437E-09
        42   5 -1.691017E+06  6.488817E+01 -7.599804E+02  1.904944E-07 -1.756088E+02  1.269824E-08
        42   6 -1.691090E+06 -6.804345E+01 -8.112973E+02  2.148524E-07  2.075070E+02  4.385259E-10
        42   7 -1.691091E+06 -1.917413E+02 -1.055989E+03  3.273330E+00 -5.587245E+02 -2.955745E-06
        42   8 -1.691017E+06  6.488817E+01 -7.599804E+02  3.730750E-01 -1.756088E+02 -1.031075E-07
        42   9 -1.691090E+06 -6.804345E+01 -8.112973E+02 -2.527183E+00  2.075070E+02 -8.438494E-07
        42  10 -1.691091E+06 -1.917414E+02 -1.055990E+03 -3.273332E+00  1.187059E-09  8.359118E-10
        42  11 -1.691017E+06  6.488816E+01 -7.599805E+02 -3.730751E-01  2.996262E-09  5.161940E-09
        42  12 -1.691090E+06 -6.804347E+01 -8.112974E+02  2.527182E+00  2.260151E-09 -2.541178E-10
        42  13 -1.691091E+06 -1.917414E+02 -1.055990E+03  1.316999E-07  5.945221E-10 -2.379507E-10
        42  14 -1.691017E+06  6.488816E+01 -7.599805E+02 -1.539026E-07 -3.056635E-10  8.397402E-10
        42  15 -1.691090E+06 -6.804346E+01 -8.112974E+02 -6.066455E-08 -1.449122E-09 -3.423718E-10
        42  16 -1.691091E+06 -1.917414E+02 -1.055990E+03  3.273330E+00 -2.133260E-09 -1.311630E-09
        42  17 -1.691017E+06  6.488816E+01 -7.599805E+02  3.730734E-01  3.660365E-11  2.984070E-09
        42  18 -1.691090E+06 -6.804346E+01 -8.112974E+02 -2.527183E+00  5.504334E-10 -3.724185E-09
        42  19 -1.691091E+06 -1.917414E+02 -1.055989E+03 -3.273331E+00  5.587245E+02 -2.954072E-06
        42  20 -1.691017E+06  6.488817E+01 -7.599804E+02 -3.730746E-01  1.756088E+02 -1.041642E-07
        42  21 -1.691090E+06 -6.804345E+01 -8.112973E+02  2.527182E+00 -2.075070E+02 -8.511950E-07
        42  22 -1.691091E+06 -1.917413E+02 -1.055989E+03 -6.059010E-09  5.587245E+02 -4.922366E-09
        42  23 -1.691017E+06  6.488817E+01 -7.599804E+02  1.904944E-07  1.756088E+02 -8.840644E-09
        42  24 -1.691090E+06 -6.804345E+01 -8.112973E+02 -1.984238E-07 -2.075070E+02 -1.470750E-09
        42  25 -1.691091E+06 -1.917413E+02 -1.055989E+03  3.273330E+00  5.587245E+02  2.948773E-06
        42  26 -1.691017E+06  6.488817E+01 -7.599804E+02  3.730742E-01  1.756088E+02  9.017781E-08
        42  27 -1.691090E+06 -6.804345E+01 -8.112973E+02 -2.527184E+00 -2.075070E+02  8.442444E-07
        43   1 -1.691118E+06 -1.680858E+01 -9.034552E+02 -4.702870E+00  3.628309E+02 -2.764253E-06
        43   2 -1.690983E+06  1.234854E+02 -1.277931E+03  9.464022E-01  1.008831E+03  1.540032E-06
        43   3 -1.691118E+06 -4.775813E+02 -2.259181E+03  6.595594E+00  1.654821E+03  1.763373E-05
        43   4 -1.691118E+06 -1.680859E+01 -9.034552E+02  3.235146E-07  3.628309E+02 -6.615374E-09
        43   5 -1.690983E+06  1.234854E+02 -1.277931E+03  3.235647E-07  1.008831E+03 -5.656966E-09
        43   6 -1.691118E+06 -4.775813E+02 -2.259181E+03 -5.729781E-07  1.654821E+03 -5.086931E-09
        43   7 -1.691118E+06 -1.680859E+01 -9.034552E+02  4.702870E+00  3.628309E+02  2.740637E-06
        43   8 -1.690983E+06  1.234854E+02 -1.277931E+03 -9.464032E-01  1.008831E+03 -1.562663E-06
        43   9 -1.691118E+06 -4.775813E+02 -2.259181E+03 -6.595597E+00  1.654821E+03 -1.763238E-05
        43  10 -1.691118E+06 -1.680862E+01 -9.034554E+02 -4.702870E+00  7.039449E-10  9.813804E-10
        43  11 -1.690983E+06  1.234852E+02 -1.277933E+03  9.464032E-01 -1.204682E-09  4.754763E-09
        43  12 -1.691118E+06 -4.775820E+02 -2.259186E+03  6.595594E+00 -7.291618E-10  8.956480E-10
        43  13 -1.691118E+06 -1.680862E+01 -9.034554E+02  1.857568E-07  5.776765E-10 -3.590464E-10
        43  14 -1.690983E+06  1.234852E+02 -1.277933E+03  5.990828E-07  6.112813E-10  2.575405E-09
        43  15 -1.691118E+06 -4.775820E+02 -2.259186E+03 -6.762977E-07  4.115786E-10  6.600694E-10
        43  16 -1.691118E+06 -1.680862E+01 -9.034554E+02  4.702870E+00  5.403423E-10  9.949195E-10
        43  17 -1.690983E+06  1.234852E+02 -1.277933E+03 -9.464036E-01  9.722029E-10  1.473927E-09
        43  18 -1.691118E+06 -4.775820E+02 -2.259186E+03 -6.595595E+00  1.706181E-10  2.310532E-09
        43  19 -1.691118E+06 -1.680858E+01 -9.034552E+02 -4.702871E+00 -3.628309E+02  2.772467E-06
        43  20 -1.690983E+06  1.234854E+02 -1.277931E+03  9.464032E-01 -1.008831E+03 -1.518418E-06
        43  21 -1.691118E+06 -4.775813E+02 -2.259181E+03  6.595595E+00 -1.654821E+03 -1.761425E-05
        43  22 -1.691118E+06 -1.680859E+01 -9.034552E+02 -2.275189E-07 -3.628309E+02  3.233890E-09
        43  23 -1.690983E+06  1.234854E+02 -1.277931E+03  7.368415E-07 -1.008831E+03  8.363529E-09
        43  24 -1.691118E+06 -4.775813E+02 -2.259181E+03 -3.916361E-08 -1.654821E+03  5.073761E-09
        43  25 -1.691118E+06 -1.680859E+01 -9.034552E+02  4.702871E+00 -3.628309E+02 -2.756107E-06
        43  26 -1.690983E+06  1.234854E+02 -1.277931E+03 -9.464023E-01 -1.008831E+03  1.543768E-06
        43  27 -1.691118E+06 -4.775813E+02 -2.259181E+03 -6.595594E+00 -1.654821E+03  1.762580E-05
        44   1 -1.691377E+06  8.451056E+01 -2.840008E+03 -2.711891E+01  2.117079E+03 -9.272120E-05
        44   2 -1.690661E+06  7.490884E+02 -4.634620E+03  9.556855E+00  4.497075E+03  6.941648E-05
        44   3 -1.691381E+06 -3.083810E+03 -9.106203E+03  4.623319E+01  6.877102E+03  5.134863E-04
        44   4 -1.691377E+06  8.451056E+01 -2.840008E+03 -1.349693E-07  2.117079E+03  1.024141E-09
        44   5 -1.690661E+06  7.490884E+02 -4.634620E+03  1.488854E-08  4.497075E+03  1.185632E-08
        44   6 -1.691381E+06 -3.083810E+03 -9.106203E+03  4.908531E-07  6.877102E+03  2.732214E-09
        44   7 -1.691377E+06  8.451056E+01 -2.840008E+03  2.711891E+01  2.117079E+03  9.272373E-05
        44   8 -1.690661E+06  7.490884E+02 -4.634620E+03 -9.556855E+00  4.497075E+03 -6.940322E-05
        44   9 -1.691381E+06 -3.083810E+03 -9.106203E+03 -4.623319E+01  6.877102E+03 -5.134776E-04
        44  10 -1.691377E+06  8.450935E+01 -2.840016E+03 -2.711891E+01  9.085152E-10 -2.037432E-09
        44  11 -1.690661E+06  7.490829E+02 -4.634658E+03  9.556853E+00  4.894910E-10  6.815664E-10
        44  12 -1.691381E+06 -3.083823E+03 -9.106292E+03  4.623319E+01 -9.976792E-10  2.209828E-09
        44  13 -1.691377E+06  8.450935E+01 -2.840016E+03 -5.482461E-07  1.642342E-09 -1.211074E-10
        44  14 -1.690661E+06  7.490829E+02 -4.634658E+03 -1.917504E-07 -8.996431E-10 -1.130228E-09
        44  15 -1.691381E+06 -3.083823E+03 -9.106292E+03  6.035655E-08  1.826658E-09  5.367615E-10
        44  16 -1.691377E+06  8.450935E+01 -2.840016E+03  2.711891E+01  2.411342E-09 -4.132238E-09
        44  17 -1.690661E+06  7.490829E+02 -4.634658E+03 -9.556853E+00 -7.515031E-10 -3.676684E-09
        44  18 -1.691381E+06 -3.083823E+03 -9.106292E+03 -4.623319E+01  2.295021E-09  1.250445E-10
        44  19 -1.691377E+06  8.451056E+01 -2.840008E+03 -2.711891E+01 -2.117079E+03  9.271910E-05
        44  20 -1.690661E+06  7.490884E+02 -4.634620E+03  9.556856E+00 -4.497075E+03 -6.941564E-05
        44  21 -1.691381E+06 -3.083810E+03 -9.106203E+03  4.623320E+01 -6.877102E+03 -5.134722E-04
        44  22 -1.691377E+06  8.451056E+01 -2.840008E+03  1.405481E-07 -2.117079E+03 -1.077317E-09
        44  23 -1.690661E+06  7.490884E+02 -4.634620E+03  1.488886E-08 -4.497075E+03 -1.088909E-08
        44  24 -1.691381E+06 -3.083810E+03 -9.106203E+03  5.080735E-07 -6.877102E+03 -1.889692E-09
        44  25 -1.691377E+06  8.451056E+01 -2.840008E+03  2.711891E+01 -2.117079E+03 -9.272787E-05
        44  26 -1.690661E+06  7.490884E+02 -4.634620E+03 -9.556855E+00 -4.497075E+03  6.938808E-05
        44  27 -1.691381E+06 -3.083810E+03 -9.106203E+03 -4.623319E+01 -6.877102E+03  5.134695E-04
        45   1 -1.692930E+06  5.934268E+02 -1.133634E+04 -1.682940E+02  8.732340E+03 -2.373338E-03
        45   2 -1.688729E+06  4.778965E+03 -1.810924E+04  7.452680E+01  1.826106E+04  2.197829E-03
        45   3 -1.692951E+06 -1.972853E+04 -3.827123E+04  3.173472E+02  2.778975E+04  1.424227E-02
        45   4 -1.692930E+06  5.934267E+02 -1.133634E+04  7.131373E-07  8.732340E+03 -2.606299E-09
        45   5 -1.688729E+06  4.778965E+03 -1.810924E+04 -3.897720E-07  1.826106E+04  2.253515E-10
        45   6 -1.692951E+06 -1.972853E+04 -3.827123E+04  3.672641E-07  2.778975E+04 -3.410405E-09
        45   7 -1.692930E+06  5.934268E+02 -1.133634E+04  1.682940E+02  8.732340E+03  2.373343E-03
        45   8 -1.688729E+06  4.778965E+03 -1.810924E+04 -7.452680E+01  1.826106E+04 -2.197857E-03
        45   9 -1.692951E+06 -1.972853E+04 -3.827123E+04 -3.173472E+02  2.778975E+04 -1.424226E-02
        45  10 -1.692930E+06  5.934062E+02 -1.133649E+04 -1.682940E+02 -2.478654E-09  1.129240E-09
        45  11 -1.688729E+06  4.778875E+03 -1.810987E+04  7.452680E+01 -1.028289E-09 -3.953430E-10
        45  12 -1.692952E+06 -1.972874E+04 -3.827269E+04  3.173472E+02 -1.355575E-09  1.418134E-10
        45  13 -1.692930E+06  5.934062E+02 -1.133649E+04  2.998596E-07 -6.721874E-11  1.706274E-09
        45  14 -1.688729E+06  4.778875E+03 -1.810987E+04  5.056707E-07  1.847659E-09  1.735563E-09
        45  15 -1.692952E+06 -1.972874E+04 -3.827269E+04  1.056057E-06  4.976423E-10  5.296184E-10
        45  16 -1.692930E+06  5.934062E+02 -1.133649E+04  1.682940E+02  3.219503E-10 -9.498261E-10
        45  17 -1.688729E+06  4.778875E+03 -1.810987E+04 -7.452680E+01  3.710445E-09  1.711171E-09
        45  18 -1.692952E+06 -1.972874E+04 -3.827269E+04 -3.173472E+02  2.385378E-09  2.579209E-09
        45  19 -1.692930E+06  5.934268E+02 -1.133634E+04 -1.682940E+02 -8.732340E+03  2.373347E-03
        45  20 -1.688729E+06  4.778965E+03 -1.810924E+04  7.452680E+01 -1.826106E+04 -2.197841E-03
        45  21 -1.692951E+06 -1.972853E+04 -3.827123E+04  3.173472E+02 -2.778975E+04 -1.424226E-02
        45  22 -1.692930E+06  5.934267E+02 -1.133634E+04  9.886561E-07 -8.732340E+03  4.494840E-09
        45  23 -1.688729E+06  4.778965E+03 -1.810924E+04  2.301492E-07 -1.826106E+04  2.716899E-09
        45  24 -1.692951E+06 -1.972853E+04 -3.827123E+04  6.427804E-07 -2.778975E+04  3.686915E-09
        45  25 -1.692930E+06  5.934268E+02 -1.133634E+04  1.682940E+02 -8.732340E+03 -2.373350E-03
        45  26 -1.688729E+06  4.778965E+03 -1.810924E+04 -7.452679E+01 -1.826106E+04  2.197842E-03
        45  27 -1.692951E+06 -1.972853E+04 -3.827123E+04 -3.173472E+02 -2.778975E+04  1.424226E-02
        46   1 -1.702308E+06  3.881957E+03 -4.618999E+04 -1.051323E+03  3.546752E+04 -6.021903E-02
        46   2 -1.677032E+06  3.039742E+04 -7.002555E+04  5.280520E+02  7.379127E+04  6.292613E-02
        46   3 -1.702416E+06 -1.255942E+05 -1.644836E+05  2.107351E+03  1.121149E+05  3.815572E-01
        46   4 -1.702308E+06  3.881955E+03 -4.618999E+04  5.276526E-07  3.546752E+04 -9.176195E-10
        46   5 -1.677032E+06  3.039742E+04 -7.002555E+04 -1.058411E-07  7.379127E+04  6.856251E-09
        46   6 -1.702416E+06 -1.255942E+05 -1.644836E+05  8.766562E-08  1.121149E+05 -1.900345E-09
        46   7 -1.702308E+06  3.881957E+03 -4.618999E+04  1.051323E+03  3.546752E+04  6.021903E-02
        46   8 -1.677032E+06  3.039742E+04 -7.002555E+04 -5.280520E+02  7.379127E+04 -6.292612E-02
        46   9 -1.702416E+06 -1.255942E+05 -1.644836E+05 -2.107351E+03  1.121149E+05 -3.815572E-01
        46  10 -1.702310E+06  3.881618E+03 -4.619236E+04 -1.051323E+03 -2.867989E-10  2.142188E-09
        46  11 -1.677038E+06  3.039595E+04 -7.003581E+04  5.280520E+02  1.227025E-09  2.225540E-11
        46  12 -1.702430E+06 -1.255976E+05 -1.645073E+05  2.107351E+03  1.184241E-10 -1.603876E-09
        46  13 -1.702310E+06  3.881616E+03 -4.619236E+04  5.276524E-07  2.249435E-09  3.213897E-14
        46  14 -1.677038E+06  3.039595E+04 -7.003581E+04 -2.436085E-07  1.076172E-09  2.278520E-10
        46  15 -1.702430E+06 -1.255976E+05 -1.645073E+05 -6.011013E-07  7.139317E-10  2.333500E-10
        46  16 -1.702310E+06  3.881618E+03 -4.619236E+04  1.051323E+03 -1.614288E-09  2.169074E-09
        46  17 -1.677038E+06  3.039595E+04 -7.003581E+04 -5.280520E+02  3.266181E-11 -1.099555E-09
        46  18 -1.702430E+06 -1.255976E+05 -1.645073E+05 -2.107351E+03  1.657740E-09  5.256836E-10
        46  19 -1.702308E+06  3.881957E+03 -4.618999E+04 -1.051323E+03 -3.546752E+04  6.021903E-02
        46  20 -1.677032E+06  3.039742E+04 -7.002555E+04  5.280520E+02 -7.379127E+04 -6.292619E-02
        46  21 -1.702416E+06 -1.255942E+05 -1.644836E+05  2.107351E+03 -1.121149E+05 -3.815572E-01
        46  22 -1.702308E+06  3.881955E+03 -4.618999E+04  5.965338E-07 -3.546752E+04  9.829383E-10
        46  23 -1.677032E+06  3.039742E+04 -7.002555E+04 -1.058412E-07 -7.379127E+04 -5.374152E-09
        46  24 -1.702416E+06 -1.255942E+05 -1.644836E+05  8.766506E-08 -1.121149E+05  1.589347E-09
        46  25 -1.702308E+06  3.881957E+03 -4.618999E+04  1.051323E+03 -3.546752E+04 -6.021903E-02
        46  26 -1.677032E+06  3.039742E+04 -7.002555E+04 -5.280520E+02 -7.379127E+04  6.292617E-02
        46  27 -1.702416E+06 -1.255942E+05 -1.644836E+05 -2.107351E+03 -1.121149E+05  3.815572E-01
        47   1  9.200344E+04 -9.759555E+05  9.399644E+04  1.642147E+04  3.916556E+03  1.810089E+04
        47   2  8.656127E+04 -9.404270E+05  9.119082E+04  7.486787E+03  1.296460E+04  1.012996E+04
        47   3  9.678149E+04 -8.998252E+05  9.752108E+04  2.272204E+04  1.518320E+04  2.159344E+03
        47   4  1.272239E+04 -1.293908E+06  1.593933E+04  2.102171E+04  3.916910E+03  1.062810E+04
        47   5 -1.453185E+03 -1.296096E+06  7.229282E+03  8.935559E+03  1.296581E+04  6.752062E+03
        47   6 -6.738238E+02 -1.293923E+06  4.809711E+03  2.102003E+04  1.518358E+04  2.876837E+03
        47   7 -6.656607E+04 -1.611769E+06 -6.212499E+04  2.561959E+04  3.917152E+03  3.159128E+03
        47   8 -8.947670E+04 -1.651649E+06 -7.674097E+04  1.038350E+04  1.296700E+04  3.376091E+03
        47   9 -9.814023E+04 -1.687878E+06 -8.791234E+04  1.931912E+04  1.518396E+04  3.593876E+03
        47  10  9.200333E+04 -9.759559E+05  9.399580E+04  1.642141E+04 -3.717997E-09 -2.000950E-09
        47  11  8.656107E+04 -9.404271E+05  9.119031E+04  7.486681E+03 -2.678556E-09 -5.231009E-09
        47  12  9.678124E+04 -8.998253E+05  9.752064E+04  2.272202E+04  8.000101E-11 -5.684738E-09
        47  13  1.272234E+04 -1.293909E+06  1.593909E+04  2.102168E+04 -3.172831E-10  1.010314E-11
        47  14 -1.453377E+03 -1.296096E+06  7.228880E+03  8.935488E+03  2.778481E-09  5.483563E-11
        47  15 -6.740734E+02 -1.293923E+06  4.809263E+03  2.102000E+04  6.168873E-09  2.102376E-10
        47  16 -6.656609E+04 -1.611769E+06 -6.212504E+04  2.561958E+04 -1.028887E-09  2.055035E-09
        47  17 -8.947688E+04 -1.651649E+06 -7.674130E+04  1.038346E+04 -2.353253E-09  5.049019E-09
        47  18 -9.814048E+04 -1.687878E+06 -8.791280E+04  1.931908E+04 -3.655960E-09  5.768269E-09
        47  19  9.200344E+04 -9.759555E+05  9.399644E+04  1.642147E+04 -3.916556E+03 -1.810089E+04
        47  20  8.656127E+04 -9.404270E+05  9.119082E+04  7.486787E+03 -1.296460E+04 -1.012996E+04
        47  21  9.678149E+04 -8.998252E+05  9.752108E+04  2.272204E+04 -1.518320E+04 -2.159344E+03
        47  22  1.272239E+04 -1.293908E+06  1.593933E+04  2.102171E+04 -3.916910E+03 -1.062810E+04
        47  23 -1.453185E+03 -1.296096E+06  7.229282E+03  8.935559E+03 -1.296581E+04 -6.752062E+03
        47  24 -6.738238E+02 -1.293923E+06  4.809711E+03  2.102003E+04 -1.518358E+04 -2.876837E+03
        47  25 -6.656607E+04 -1.611769E+06 -6.212499E+04  2.561959E+04 -3.917152E+03 -3.159128E+03
        47  26 -8.947670E+04 -1.651649E+06 -7.674097E+04  1.038350E+04 -1.296700E+04 -3.376091E+03
        47  27 -9.814023E+04 -1.687878E+06 -8.791234E+04  1.931912E+04 -1.518396E+04 -3.593876E+03
        48   1  1.090008E+05 -8.586772E+05  1.072853E+05  2.008685E+04  1.537508E+04  3.717124E+03
        48   2  1.165766E+05 -8.228311E+05  1.143735E+05  8.999615E+03  1.738117E+04  1.428321E+03
        48   3  1.265461E+05 -7.858651E+05  1.235990E+05  2.076704E+04  1.807059E+04 -8.603620E+02
        48   4  1.071828E+03 -1.294682E+06  4.162327E+03  2.072888E+04  1.537661E+04  2.119677E+03
        48   5 -2.888821E+02 -1.295177E+06  2.940363E+03  9.300965E+03  1.738267E+04  6.211229E+02
        48   6  6.076974E+02 -1.294690E+06  3.307074E+03  2.072878E+04  1.807161E+04 -8.771794E+02
        48   7 -1.068708E+05 -1.730511E+06 -9.897387E+04  2.137047E+04  1.537813E+04  5.233479E+02
        48   8 -1.171704E+05 -1.767317E+06 -1.085082E+05  9.602120E+03  1.738417E+04 -1.854635E+02
        48   9 -1.253493E+05 -1.803277E+06 -1.170028E+05  2.069059E+04  1.807263E+04 -8.939829E+02
        48  10  1.090006E+05 -8.586773E+05  1.072849E+05  2.008680E+04  1.479889E-09  8.931627E-09
        48  11  1.165763E+05 -8.228312E+05  1.143729E+05  8.999595E+03  5.014376E-10  7.316964E-09
        48  12  1.265457E+05 -7.858652E+05  1.235983E+05  2.076706E+04  1.003661E-09  4.468332E-10
        48  13  1.071573E+03 -1.294682E+06  4.161874E+03  2.072885E+04  4.801989E-09  5.495398E-10
        48  14 -2.892065E+02 -1.295177E+06  2.939794E+03  9.300956E+03 -5.561361E-10  1.467509E-11
        48  15  6.073467E+02 -1.294690E+06  3.306460E+03  2.072879E+04 -3.409104E-09  5.854139E-10
        48  16 -1.068711E+05 -1.730511E+06 -9.897431E+04  2.137047E+04 -1.880238E-09 -8.934570E-09
        48  17 -1.171707E+05 -1.767317E+06 -1.085088E+05  9.602123E+03 -2.644712E-09 -7.809347E-09
        48  18 -1.253496E+05 -1.803277E+06 -1.170034E+05  2.069060E+04 -1.846360E-09 -3.544798E-10
        48  19  1.090008E+05 -8.586772E+05  1.072853E+05  2.008685E+04 -1.537508E+04 -3.717124E+03
        48  20  1.165766E+05 -8.228311E+05  1.143735E+05  8.999615E+03 -1.738117E+04 -1.428321E+03
        48  21  1.265461E+05 -7.858651E+05  1.235990E+05  2.076704E+04 -1.807059E+04  8.603620E+02
        48  22  1.071828E+03 -1.294682E+06  4.162327E+03  2.072888E+04 -1.537661E+04 -2.119677E+03
        48  23 -2.888821E+02 -1.295177E+06  2.940363E+03  9.300965E+03 -1.738267E+04 -6.211229E+02
        48  24  6.076974E+02 -1.294690E+06  3.307074E+03  2.072878E+04 -1.807161E+04  8.771794E+02
        48  25 -1.068708E+05 -1.730511E+06 -9.897387E+04  2.137047E+04 -1.537813E+04 -5.233479E+02
        48  26 -1.171704E+05 -1.767317E+06 -1.085082E+05  9.602120E+03 -1.738417E+04  1.854635E+02
        48  27 -1.253493E+05 -1.803277E+06 -1.170028E+05  2.069059E+04 -1.807263E+04  8.939829E+02
        49   1  1.352674E+05 -7.454997E+05  1.327848E+05  1.864968E+04  2.084531E+04  3.088645E+03
        49   2  1.430369E+05 -7.134956E+05  1.423847E+05  1.009320E+04  2.116727E+04 -8.276661E+03
        49   3  1.622233E+05 -6.768080E+05  1.623175E+05  2.257358E+04  6.922681E+03 -1.966732E+04
        49   4 -4.395594E+02 -1.294217E+06  3.596617E+03  2.032070E+04  2.085172E+04 -1.461818E+03
        49   5 -1.043851E+03 -1.295802E+06  4.913574E+03  9.808683E+03  2.116262E+04 -4.091113E+03
        49   6  8.256005E+03 -1.294220E+06  1.049351E+04  2.033454E+04  6.900972E+03 -6.745194E+03
        49   7 -1.361680E+05 -1.842656E+06 -1.256123E+05  2.199031E+04  2.085810E+04 -6.008279E+03
        49   8 -1.451489E+05 -1.877796E+06 -1.325809E+05  9.524545E+03  2.115796E+04  9.052833E+01
        49   9 -1.457395E+05 -1.911285E+06 -1.413579E+05  1.809787E+04  6.879159E+03  6.164090E+03
        49  10  1.352669E+05 -7.454998E+05  1.327840E+05  1.864963E+04 -3.194038E-09 -3.141523E-10
        49  11  1.430364E+05 -7.134957E+05  1.423837E+05  1.009334E+04  1.302328E-09 -1.515688E-09
        49  12  1.622231E+05 -6.768084E+05  1.623166E+05  2.257369E+04  7.092606E-10 -1.304353E-09
        49  13 -4.400266E+02 -1.294217E+06  3.595797E+03  2.032073E+04 -6.982388E-09  1.270614E-09
        49  14 -1.044336E+03 -1.295802E+06  4.912701E+03  9.808753E+03 -3.239606E-09  1.522549E-12
        49  15  8.255941E+03 -1.294220E+06  1.049334E+04  2.033458E+04 -2.059868E-09  1.055569E-09
        49  16 -1.361685E+05 -1.842656E+06 -1.256131E+05  2.199041E+04 -2.281141E-09  4.230012E-10
        49  17 -1.451494E+05 -1.877796E+06 -1.325818E+05  9.524544E+03 -5.495112E-11  3.968587E-10
        49  18 -1.457396E+05 -1.911285E+06 -1.413581E+05  1.809783E+04  1.502882E-09  1.510138E-09
        49  19  1.352674E+05 -7.454997E+05  1.327848E+05  1.864968E+04 -2.084531E+04 -3.088645E+03
        49  20  1.430369E+05 -7.134956E+05  1.423847E+05  1.009320E+04 -2.116727E+04  8.276661E+03
        49  21  1.622233E+05 -6.768080E+05  1.623175E+05  2.257358E+04 -6.922681E+03  1.966732E+04
        49  22 -4.395594E+02 -1.294217E+06  3.596617E+03  2.032070E+04 -2.085172E+04  1.461818E+03
        49  23 -1.043851E+03 -1.295802E+06  4.913574E+03  9.808683E+03 -2.116262E+04  4.091113E+03
        49  24  8.256005E+03 -1.294220E+06  1.049351E+04  2.033454E+04 -6.900972E+03  6.745194E+03
        49  25 -1.361680E+05 -1.842656E+06 -1.256123E+05  2.199031E+04 -2.085810E+04  6.008279E+03
        49  26 -1.451489E+05 -1.877796E+06 -1.325809E+05  9.524545E+03 -2.115796E+04 -9.052833E+01
        49  27 -1.457395E+05 -1.911285E+06 -1.413579E+05  1.809787E+04 -6.879159E+03 -6.164090E+03
        50   1 -1.405718E+06 -2.291887E+05 -4.636279E+04 -5.151707E+05 -2.975353E+04 -1.115913E+04
        50   2 -1.394569E+06 -1.878978E+05 -1.840922E+04 -5.263700E+05 -1.916542E+04 -7.192694E+03
        50   3 -1.401428E+06 -1.958774E+05 -1.147081E+04 -5.267086E+05 -8.577701E+03 -3.225105E+03
        50   4 -1.408464E+06 -2.297135E+05 -4.701797E+04 -5.153890E+05 -2.975353E+04 -1.115916E+04
        50   5 -1.397150E+06 -1.887447E+05 -1.909574E+04 -5.269391E+05 -1.916543E+04 -7.192706E+03
        50   6 -1.403844E+06 -1.970464E+05 -1.218872E+04 -5.276283E+05 -8.577737E+03 -3.225114E+03
        50   7 -1.411211E+06 -2.302383E+05 -4.767316E+04 -5.156073E+05 -2.975352E+04 -1.115919E+04
        50   8 -1.399731E+06 -1.895916E+05 -1.978226E+04 -5.275081E+05 -1.916545E+04 -7.192718E+03
        50   9 -1.406260E+06 -1.982155E+05 -1.290663E+04 -5.285480E+05 -8.577772E+03 -3.225123E+03
        50  10 -1.405719E+06 -2.291890E+05 -4.636470E+04 -5.151710E+05  8.412287E-08 -3.914345E-08
        50  11 -1.394569E+06 -1.878979E+05 -1.841001E+04 -5.263701E+05  6.995740E-08 -2.805047E-08
        50  12 -1.401428E+06 -1.958774E+05 -1.147097E+04 -5.267086E+05 -3.849707E-07  1.936395E-07
        50  13 -1.408465E+06 -2.297139E+05 -4.701988E+04 -5.153893E+05  3.013834E-09 -2.802022E-09
        50  14 -1.397150E+06 -1.887448E+05 -1.909653E+04 -5.269392E+05  3.161241E-09  1.009927E-10
        50  15 -1.403844E+06 -1.970464E+05 -1.218888E+04 -5.276283E+05 -1.146199E-08  2.586375E-08
        50  16 -1.411212E+06 -2.302387E+05 -4.767506E+04 -5.156076E+05 -7.929344E-08  3.428164E-08
        50  17 -1.399731E+06 -1.895917E+05 -1.978305E+04 -5.275082E+05 -7.155502E-08  3.347152E-08
        50  18 -1.406260E+06 -1.982155E+05 -1.290679E+04 -5.285480E+05  3.629611E-07 -1.432843E-07
        50  19 -1.405718E+06 -2.291887E+05 -4.636279E+04 -5.151707E+05  2.975353E+04  1.115913E+04
        50  20 -1.394569E+06 -1.878978E+05 -1.840922E+04 -5.263700E+05  1.916542E+04  7.192694E+03
        50  21 -1.401428E+06 -1.958774E+05 -1.147081E+04 -5.267086E+05  8.577701E+03  3.225105E+03
        50  22 -1.408464E+06 -2.297135E+05 -4.701797E+04 -5.153890E+05  2.975353E+04  1.115916E+04
        50  23 -1.397150E+06 -1.887447E+05 -1.909574E+04 -5.269391E+05  1.916543E+04  7.192706E+03
        50  24 -1.403844E+06 -1.970464E+05 -1.218872E+04 -5.276283E+05  8.577737E+03  3.225114E+03
        50  25 -1.411211E+06 -2.302383E+05 -4.767316E+04 -5.156073E+05  2.975352E+04  1.115919E+04
        50  26 -1.399731E+06 -1.895916E+05 -1.978226E+04 -5.275081E+05  1.916545E+04  7.192718E+03
        50  27 -1.406260E+06 -1.982155E+05 -1.290663E+04 -5.285480E+05  8.577772E+03  3.225123E+03
        51   1 -1.390294E+06 -1.973651E+05 -6.605548E+03 -5.204684E+05 -6.704675E+03 -2.533108E+03
        51   2 -1.387884E+06 -1.917101E+05 -1.056980E+03 -5.231484E+05 -4.302186E+03 -1.643310E+03
        51   3 -1.389882E+06 -1.922577E+05  6.566308E+02 -5.223390E+05 -1.910863E+03 -7.238256E+02
        51   4 -1.402877E+06 -2.020419E+05 -1.006215E+04 -5.238062E+05 -6.705132E+03 -2.533281E+03
        51   5 -1.400312E+06 -1.963893E+05 -4.482793E+03 -5.265071E+05 -4.302024E+03 -1.643250E+03
        51   6 -1.402154E+06 -1.969397E+05 -2.738947E+03 -5.257185E+05 -1.910082E+03 -7.235321E+02
        51   7 -1.415460E+06 -2.067186E+05 -1.351876E+04 -5.271439E+05 -6.705590E+03 -2.533453E+03
        51   8 -1.412739E+06 -2.010686E+05 -7.908619E+03 -5.298656E+05 -4.301863E+03 -1.643189E+03
        51   9 -1.414426E+06 -2.016217E+05 -6.134538E+03 -5.290979E+05 -1.909301E+03 -7.232386E+02
        51  10 -1.390294E+06 -1.973652E+05 -6.605647E+03 -5.204684E+05  1.416316E-05  1.177351E-05
        51  11 -1.387884E+06 -1.917101E+05 -1.057030E+03 -5.231484E+05  6.984369E-05  5.146567E-05
        51  12 -1.389882E+06 -1.922577E+05  6.566046E+02 -5.223389E+05  1.284984E-04  8.979604E-05
        51  13 -1.402877E+06 -2.020419E+05 -1.006224E+04 -5.238062E+05  4.770468E-05  1.141465E-05
        51  14 -1.400312E+06 -1.963893E+05 -4.482832E+03 -5.265071E+05  2.116769E-04  5.051022E-05
        51  15 -1.402154E+06 -1.969397E+05 -2.738955E+03 -5.257185E+05  3.756437E-04  8.959770E-05
        51  16 -1.415460E+06 -2.067186E+05 -1.351886E+04 -5.271440E+05  1.883553E-05  1.111796E-05
        51  17 -1.412739E+06 -2.010686E+05 -7.908649E+03 -5.298657E+05  7.663757E-05  4.984601E-05
        51  18 -1.414426E+06 -2.016217E+05 -6.134527E+03 -5.290980E+05  1.314427E-04  8.991277E-05
        51  19 -1.390294E+06 -1.973651E+05 -6.605553E+03 -5.204684E+05  6.704675E+03  2.533108E+03
        51  20 -1.387884E+06 -1.917101E+05 -1.057001E+03 -5.231483E+05  4.302186E+03  1.643310E+03
        51  21 -1.389882E+06 -1.922577E+05  6.565941E+02 -5.223388E+05  1.910863E+03  7.238258E+02
        51  22 -1.402877E+06 -2.020419E+05 -1.006215E+04 -5.238062E+05  6.705133E+03  2.533281E+03
        51  23 -1.400312E+06 -1.963893E+05 -4.482792E+03 -5.265071E+05  4.302025E+03  1.643250E+03
        51  24 -1.402154E+06 -1.969397E+05 -2.738947E+03 -5.257185E+05  1.910083E+03  7.235323E+02
        51  25 -1.415460E+06 -2.067186E+05 -1.351876E+04 -5.271440E+05  6.705590E+03  2.533453E+03
        51  26 -1.412739E+06 -2.010685E+05 -7.908598E+03 -5.298657E+05  4.301863E+03  1.643189E+03
        51  27 -1.414426E+06 -2.016216E+05 -6.134501E+03 -5.290980E+05  1.909301E+03  7.232388E+02
        52   1 -1.427593E+06 -2.082945E+05 -9.452818E+03 -5.330193E+05 -1.514352E+03 -5.395716E+02
        52   2 -1.427973E+06 -2.067074E+05 -8.338906E+03 -5.326741E+05 -9.582215E+02 -2.991065E+02
        52   3 -1.427320E+06 -2.074445E+05 -7.887788E+03 -5.332199E+05 -3.783043E+02 -1.220547E+02
        52   4 -1.401263E+06 -1.983265E+05 -2.183200E+03 -5.258482E+05 -1.513067E+03 -5.390895E+02
        52   5 -1.401726E+06 -1.967887E+05 -1.096317E+03 -5.255437E+05 -9.583359E+02 -2.991496E+02
        52   6 -1.401156E+06 -1.975748E+05 -6.710926E+02 -5.261303E+05 -3.798185E+02 -1.226220E+02
        52   7 -1.374932E+06 -1.883585E+05  5.086358E+03 -5.186769E+05 -1.511783E+03 -5.386072E+02
        52   8 -1.375479E+06 -1.868700E+05  6.146212E+03 -5.184131E+05 -9.584505E+02 -2.991928E+02
        52   9 -1.374992E+06 -1.877050E+05  6.545542E+03 -5.190405E+05 -3.813324E+02 -1.231893E+02
        52  10 -1.427593E+06 -2.082945E+05 -9.452840E+03 -5.330193E+05  1.197319E-04  7.968778E-05
        52  11 -1.427973E+06 -2.067074E+05 -8.338909E+03 -5.326741E+05  1.706325E-05  5.791511E-06
        52  12 -1.427320E+06 -2.074445E+05 -7.887775E+03 -5.332199E+05 -9.073975E-05 -6.570512E-05
        52  13 -1.401263E+06 -1.983265E+05 -2.183205E+03 -5.258482E+05  3.349348E-04  7.991760E-05
        52  14 -1.401726E+06 -1.967887E+05 -1.096319E+03 -5.255437E+05  3.100919E-05  7.656946E-06
        52  15 -1.401156E+06 -1.975748E+05 -6.710935E+02 -5.261303E+05 -2.730362E-04 -6.446518E-05
        52  16 -1.374932E+06 -1.883585E+05  5.086370E+03 -5.186769E+05  1.121014E-04  8.041021E-05
        52  17 -1.375479E+06 -1.868700E+05  6.146212E+03 -5.184132E+05  4.605250E-06  8.697527E-06
        52  18 -1.374992E+06 -1.877050E+05  6.545529E+03 -5.190404E+05 -9.799025E-05 -6.513945E-05
        52  19 -1.427593E+06 -2.082945E+05 -9.452852E+03 -5.330192E+05  1.514352E+03  5.395718E+02
        52  20 -1.427973E+06 -2.067074E+05 -8.338909E+03 -5.326740E+05  9.582215E+02  2.991065E+02
        52  21 -1.427320E+06 -2.074445E+05 -7.887761E+03 -5.332200E+05  3.783041E+02  1.220546E+02
        52  22 -1.401263E+06 -1.983265E+05 -2.183201E+03 -5.258482E+05  1.513068E+03  5.390896E+02
        52  23 -1.401726E+06 -1.967887E+05 -1.096317E+03 -5.255437E+05  9.583360E+02  2.991497E+02
        52  24 -1.401156E+06 -1.975748E+05 -6.710938E+02 -5.261303E+05  3.798179E+02  1.226219E+02
        52  25 -1.374932E+06 -1.883584E+05  5.086391E+03 -5.186770E+05  1.511783E+03  5.386074E+02
        52  26 -1.375479E+06 -1.868700E+05  6.146215E+03 -5.184132E+05  9.584505E+02  2.991928E+02
        52  27 -1.374992E+06 -1.877050E+05  6.545515E+03 -5.190404E+05  3.813322E+02  1.231892E+02
        53   1 -1.363451E+06 -1.828158E+05  9.961659E+03 -5.151903E+05 -2.675141E+02 -1.393587E+02
        53   2 -1.363428E+06 -1.832133E+05  1.000968E+04 -5.159236E+05 -3.562768E+01 -1.005370E+02
        53   3 -1.363633E+06 -1.828312E+05  1.001405E+04 -5.152045E+05  1.619922E+02  2.957224E+01
        53   4 -1.401477E+06 -1.971686E+05 -5.280656E+02 -5.255032E+05 -2.694704E+02 -1.400919E+02
        53   5 -1.401362E+06 -1.975511E+05 -4.579918E+02 -5.262321E+05 -3.554870E+01 -1.005077E+02
        53   6 -1.401475E+06 -1.971545E+05 -4.332087E+02 -5.255085E+05  1.641056E+02  3.036664E+01
        53   7 -1.439501E+06 -2.115213E+05 -1.101792E+04 -5.358155E+05 -2.714263E+02 -1.408250E+02
        53   8 -1.439294E+06 -2.118889E+05 -1.092580E+04 -5.365400E+05 -3.546968E+01 -1.004784E+02
        53   9 -1.439316E+06 -2.114777E+05 -1.088060E+04 -5.358120E+05  1.662186E+02  3.116099E+01
        53  10 -1.363451E+06 -1.828158E+05  9.961674E+03 -5.151903E+05 -1.026709E-04 -6.921799E-05
        53  11 -1.363428E+06 -1.832133E+05  1.000969E+04 -5.159236E+05 -1.939223E-05 -8.775635E-06
        53  12 -1.363633E+06 -1.828312E+05  1.001404E+04 -5.152045E+05  6.842932E-05  4.974034E-05
        53  13 -1.401477E+06 -1.971686E+05 -5.280653E+02 -5.255032E+05 -2.893181E-04 -6.836989E-05
        53  14 -1.401362E+06 -1.975511E+05 -4.579915E+02 -5.262321E+05 -4.125486E-05 -9.651359E-06
        53  15 -1.401475E+06 -1.971545E+05 -4.332083E+02 -5.255085E+05  2.066633E-04  4.923340E-05
        53  16 -1.439501E+06 -2.115213E+05 -1.101793E+04 -5.358155E+05 -9.733977E-05 -6.940346E-05
        53  17 -1.439294E+06 -2.118889E+05 -1.092580E+04 -5.365400E+05 -9.009344E-06 -1.121703E-05
        53  18 -1.439316E+06 -2.114777E+05 -1.088059E+04 -5.358120E+05  7.450263E-05  4.923738E-05
        53  19 -1.363451E+06 -1.828158E+05  9.961688E+03 -5.151904E+05  2.675139E+02  1.393586E+02
        53  20 -1.363428E+06 -1.832133E+05  1.000969E+04 -5.159236E+05  3.562764E+01  1.005370E+02
        53  21 -1.363633E+06 -1.828313E+05  1.001403E+04 -5.152044E+05 -1.619921E+02 -2.957214E+01
        53  22 -1.401477E+06 -1.971686E+05 -5.280646E+02 -5.255032E+05  2.694699E+02  1.400917E+02
        53  23 -1.401362E+06 -1.975511E+05 -4.579912E+02 -5.262321E+05  3.554862E+01  1.005077E+02
        53  24 -1.401475E+06 -1.971545E+05 -4.332078E+02 -5.255085E+05 -1.641052E+02 -3.036655E+01
        53  25 -1.439501E+06 -2.115213E+05 -1.101795E+04 -5.358154E+05  2.714261E+02  1.408248E+02
        53  26 -1.439294E+06 -2.118889E+05 -1.092580E+04 -5.365400E+05  3.546966E+01  1.004784E+02
        53  27 -1.439316E+06 -2.114777E+05 -1.088058E+04 -5.358121E+05 -1.662184E+02 -3.116090E+01
        54   1 -1.448213E+06 -2.152808E+05 -1.349390E+04 -5.387905E+05  1.938688E+02  1.195887E+02
        54   2 -1.449114E+06 -2.148834E+05 -1.389679E+04 -5.385789E+05  6.003212E+02  3.336247E+02
        54   3 -1.448198E+06 -2.156005E+05 -1.446317E+04 -5.385504E+05  1.049533E+03  4.336541E+02
        54   4 -1.400997E+06 -1.974087E+05 -4.580716E+02 -5.259343E+05  1.963627E+02  1.205259E+02
        54   5 -1.401935E+06 -1.970579E+05 -8.786056E+02 -5.257659E+05  6.002901E+02  3.336125E+02
        54   6 -1.401055E+06 -1.978208E+05 -1.460593E+03 -5.257804E+05  1.046976E+03  4.326965E+02
        54   7 -1.353778E+06 -1.795366E+05  1.257755E+04 -5.130772E+05  1.988564E+02  1.214631E+02
        54   8 -1.354754E+06 -1.792322E+05  1.213937E+04 -5.129520E+05  6.002589E+02  3.336002E+02
        54   9 -1.353911E+06 -1.800410E+05  1.154177E+04 -5.130096E+05  1.044418E+03  4.317388E+02
        54  10 -1.448213E+06 -2.152808E+05 -1.349391E+04 -5.387905E+05  7.985342E-05  5.387340E-05
        54  11 -1.449114E+06 -2.148834E+05 -1.389679E+04 -5.385789E+05  1.804633E-05  8.847845E-06
        54  12 -1.448198E+06 -2.156005E+05 -1.446316E+04 -5.385504E+05 -4.729721E-05 -3.452845E-05
        54  13 -1.400997E+06 -1.974087E+05 -4.580721E+02 -5.259343E+05  2.251930E-04  5.363306E-05
        54  14 -1.401935E+06 -1.970579E+05 -8.786067E+02 -5.257659E+05  4.096048E-05  9.837825E-06
        54  15 -1.401055E+06 -1.978208E+05 -1.460596E+03 -5.257804E+05 -1.433975E-04 -3.383347E-05
        54  16 -1.353778E+06 -1.795366E+05  1.257756E+04 -5.130772E+05  7.587176E-05  5.401966E-05
        54  17 -1.354754E+06 -1.792322E+05  1.213937E+04 -5.129520E+05  1.036134E-05  1.065941E-05
        54  18 -1.353911E+06 -1.800410E+05  1.154176E+04 -5.130096E+05 -5.185380E-05 -3.411747E-05
        54  19 -1.448213E+06 -2.152808E+05 -1.349392E+04 -5.387904E+05 -1.938687E+02 -1.195885E+02
        54  20 -1.449114E+06 -2.148834E+05 -1.389679E+04 -5.385789E+05 -6.003212E+02 -3.336247E+02
        54  21 -1.448198E+06 -2.156005E+05 -1.446315E+04 -5.385504E+05 -1.049533E+03 -4.336541E+02
        54  22 -1.400997E+06 -1.974087E+05 -4.580724E+02 -5.259343E+05 -1.963622E+02 -1.205258E+02
        54  23 -1.401935E+06 -1.970579E+05 -8.786061E+02 -5.257659E+05 -6.002900E+02 -3.336124E+02
        54  24 -1.401055E+06 -1.978208E+05 -1.460594E+03 -5.257804E+05 -1.046976E+03 -4.326965E+02
        54  25 -1.353778E+06 -1.795366E+05  1.257757E+04 -5.130773E+05 -1.988562E+02 -1.214630E+02
        54  26 -1.354754E+06 -1.792322E+05  1.213937E+04 -5.129520E+05 -6.002589E+02 -3.336002E+02
        54  27 -1.353911E+06 -1.800410E+05  1.154176E+04 -5.130096E+05 -1.044418E+03 -4.317389E+02
        55   1 -1.347487E+06 -1.767791E+05  1.302709E+04 -5.111133E+05  1.332765E+03  4.471207E+02
        55   2 -1.347570E+06 -1.765364E+05  1.150930E+04 -5.116481E+05  3.064453E+03  1.026318E+03
        55   3 -1.348015E+06 -1.792281E+05  8.112724E+03 -5.100836E+05  4.746573E+03  1.737685E+03
        55   4 -1.401380E+06 -1.970911E+05 -1.833800E+03 -5.256989E+05  1.329837E+03  4.460243E+02
        55   5 -1.401377E+06 -1.968800E+05 -3.339869E+03 -5.262766E+05  3.064347E+03  1.026277E+03
        55   6 -1.401738E+06 -1.996043E+05 -6.727109E+03 -5.247550E+05  4.749288E+03  1.738706E+03
        55   7 -1.455270E+06 -2.174029E+05 -1.669496E+04 -5.402833E+05  1.326909E+03  4.449280E+02
        55   8 -1.455182E+06 -2.172235E+05 -1.818930E+04 -5.409040E+05  3.064241E+03  1.026236E+03
        55   9 -1.455459E+06 -2.199803E+05 -2.156721E+04 -5.394252E+05  4.752002E+03  1.739726E+03
        55  10 -1.347487E+06 -1.767791E+05  1.302710E+04 -5.111133E+05 -5.728104E-05 -3.877418E-05
        55  11 -1.347570E+06 -1.765364E+05  1.150928E+04 -5.116482E+05 -1.698049E-05 -9.504263E-06
        55  12 -1.348015E+06 -1.792281E+05  8.112672E+03 -5.100835E+05  2.538514E-05  1.891725E-05
        55  13 -1.401380E+06 -1.970911E+05 -1.833804E+03 -5.256989E+05 -1.620876E-04 -3.828833E-05
        55  14 -1.401377E+06 -1.968800E+05 -3.339888E+03 -5.262767E+05 -4.194497E-05 -9.922310E-06
        55  15 -1.401738E+06 -1.996043E+05 -6.727157E+03 -5.247550E+05  7.809557E-05  1.855947E-05
        55  16 -1.455270E+06 -2.174029E+05 -1.669497E+04 -5.402833E+05 -5.480697E-05 -3.881290E-05
        55  17 -1.455182E+06 -2.172235E+05 -1.818932E+04 -5.409040E+05 -1.198188E-05 -1.067389E-05
        55  18 -1.455459E+06 -2.199803E+05 -2.156725E+04 -5.394253E+05  2.857658E-05  1.856937E-05
        55  19 -1.347487E+06 -1.767791E+05  1.302711E+04 -5.111133E+05 -1.332765E+03 -4.471208E+02
        55  20 -1.347570E+06 -1.765364E+05  1.150930E+04 -5.116482E+05 -3.064453E+03 -1.026318E+03
        55  21 -1.348015E+06 -1.792281E+05  8.112716E+03 -5.100835E+05 -4.746573E+03 -1.737685E+03
        55  22 -1.401380E+06 -1.970911E+05 -1.833800E+03 -5.256989E+05 -1.329837E+03 -4.460244E+02
        55  23 -1.401377E+06 -1.968800E+05 -3.339868E+03 -5.262766E+05 -3.064347E+03 -1.026277E+03
        55  24 -1.401738E+06 -1.996043E+05 -6.727109E+03 -5.247550E+05 -4.749288E+03 -1.738706E+03
        55  25 -1.455270E+06 -2.174029E+05 -1.669498E+04 -5.402833E+05 -1.326909E+03 -4.449281E+02
        55  26 -1.455182E+06 -2.172235E+05 -1.818930E+04 -5.409040E+05 -3.064241E+03 -1.026237E+03
        55  27 -1.455459E+06 -2.199803E+05 -2.156720E+04 -5.394253E+05 -4.752002E+03 -1.739726E+03
        56   1 -1.459703E+06 -2.188689E+05 -2.424719E+04 -5.422169E+05  5.949421E+03  2.292106E+03
        56   2 -1.457211E+06 -2.150061E+05 -2.991141E+04 -5.422663E+05  1.340850E+04  5.162838E+03
        56   3 -1.462246E+06 -2.344804E+05 -4.709158E+04 -5.358688E+05  2.092413E+04  7.882966E+03
        56   4 -1.402325E+06 -1.970176E+05 -8.379029E+03 -5.264577E+05  5.952803E+03  2.293379E+03
        56   5 -1.399688E+06 -1.933258E+05 -1.404943E+04 -5.266992E+05  1.340918E+04  5.163089E+03
        56   6 -1.404575E+06 -2.129692E+05 -3.123278E+04 -5.204939E+05  2.092210E+04  7.882195E+03
        56   7 -1.344944E+06 -1.751662E+05  7.488830E+03 -5.106973E+05  5.956185E+03  2.294653E+03
        56   8 -1.342161E+06 -1.716454E+05  1.812248E+03 -5.111308E+05  1.340986E+04  5.163340E+03
        56   9 -1.346901E+06 -1.914578E+05 -1.537427E+04 -5.051178E+05  2.092007E+04  7.881424E+03
        56  10 -1.459703E+06 -2.188689E+05 -2.424728E+04 -5.422168E+05  3.516106E-05  2.429755E-05
        56  11 -1.457211E+06 -2.150061E+05 -2.991180E+04 -5.422664E+05  2.145536E-05  1.407092E-05
        56  12 -1.462246E+06 -2.344806E+05 -4.709253E+04 -5.358689E+05  6.850139E-06  4.245413E-06
        56  13 -1.402325E+06 -1.970176E+05 -8.379106E+03 -5.264577E+05  1.009584E-04  2.399617E-05
        56  14 -1.399688E+06 -1.933259E+05 -1.404982E+04 -5.266992E+05  5.951791E-05  1.413062E-05
        56  15 -1.404575E+06 -2.129693E+05 -3.123372E+04 -5.204940E+05  1.805259E-05  4.285056E-06
        56  16 -1.344944E+06 -1.751662E+05  7.488758E+03 -5.106973E+05  3.458366E-05  2.419258E-05
        56  17 -1.342161E+06 -1.716454E+05  1.811862E+03 -5.111308E+05  1.969058E-05  1.449147E-05
        56  18 -1.346901E+06 -1.914580E+05 -1.537521E+04 -5.051179E+05  5.634633E-06  4.420842E-06
        56  19 -1.459703E+06 -2.188689E+05 -2.424720E+04 -5.422168E+05 -5.949421E+03 -2.292106E+03
        56  20 -1.457211E+06 -2.150061E+05 -2.991141E+04 -5.422663E+05 -1.340850E+04 -5.162838E+03
        56  21 -1.462246E+06 -2.344804E+05 -4.709158E+04 -5.358688E+05 -2.092413E+04 -7.882966E+03
        56  22 -1.402325E+06 -1.970176E+05 -8.379029E+03 -5.264577E+05 -5.952803E+03 -2.293379E+03
        56  23 -1.399688E+06 -1.933258E+05 -1.404943E+04 -5.266992E+05 -1.340918E+04 -5.163089E+03
        56  24 -1.404575E+06 -2.129692E+05 -3.123278E+04 -5.204939E+05 -2.092210E+04 -7.882195E+03
        56  25 -1.344944E+06 -1.751662E+05  7.488840E+03 -5.106973E+05 -5.956185E+03 -2.294653E+03
        56  26 -1.342161E+06 -1.716454E+05  1.812254E+03 -5.111308E+05 -1.340986E+04 -5.163340E+03
        56  27 -1.346901E+06 -1.914578E+05 -1.537427E+04 -5.051178E+05 -2.092007E+04 -7.881424E+03
        57   1 -1.350835E+06 -1.741436E+05 -2.183302E+04 -5.150838E+05  2.673806E+04  9.952616E+03
        57   2 -1.329758E+06 -1.497488E+05 -4.358529E+04 -5.147340E+05  5.974584E+04  2.228349E+04
        57   3 -1.367075E+06 -2.738624E+05 -1.302699E+05 -4.748799E+05  9.267954E+04  3.481198E+04
        57   4 -1.409473E+06 -1.954655E+05 -3.784696E+04 -5.301508E+05  2.673351E+04  9.950956E+03
        57   5 -1.387494E+06 -1.719652E+05 -5.959642E+04 -5.308294E+05  5.974277E+04  2.228229E+04
        57   6 -1.423915E+06 -2.969821E+05 -1.462841E+05 -4.920022E+05  9.267800E+04  3.481110E+04
        57   7 -1.468109E+06 -2.167872E+05 -5.386121E+04 -5.452166E+05  2.672896E+04  9.949296E+03
        57   8 -1.445227E+06 -1.941814E+05 -7.560785E+04 -5.469234E+05  5.973970E+04  2.228109E+04
        57   9 -1.480751E+06 -3.201014E+05 -1.622987E+05 -5.091231E+05  9.267647E+04  3.481022E+04
        57  10 -1.350835E+06 -1.741439E+05 -2.183455E+04 -5.150841E+05  1.945451E-06  1.238339E-06
        57  11 -1.329761E+06 -1.497503E+05 -4.359295E+04 -5.147350E+05  1.063242E-06  7.206357E-07
        57  12 -1.367084E+06 -2.738660E+05 -1.302884E+05 -4.748825E+05  2.388734E-07  1.725067E-07
        57  13 -1.409474E+06 -1.954658E+05 -3.784850E+04 -5.301511E+05  5.309092E-06  1.264837E-06
        57  14 -1.387498E+06 -1.719667E+05 -5.960408E+04 -5.308304E+05  2.986392E-06  7.169245E-07
        57  15 -1.423924E+06 -2.969857E+05 -1.463026E+05 -4.920048E+05  6.741793E-07  1.620977E-07
        57  16 -1.468109E+06 -2.167875E+05 -5.386275E+04 -5.452168E+05  1.721159E-06  1.322281E-06
        57  17 -1.445231E+06 -1.941829E+05 -7.561551E+04 -5.469245E+05  1.002851E-06  7.285219E-07
        57  18 -1.480761E+06 -3.201050E+05 -1.623171E+05 -5.091257E+05  2.247038E-07  1.575442E-07
        57  19 -1.350835E+06 -1.741436E+05 -2.183302E+04 -5.150838E+05 -2.673806E+04 -9.952616E+03
        57  20 -1.329758E+06 -1.497488E+05 -4.358529E+04 -5.147340E+05 -5.974584E+04 -2.228349E+04
        57  21 -1.367075E+06 -2.738624E+05 -1.302699E+05 -4.748799E+05 -9.267954E+04 -3.481198E+04
        57  22 -1.409473E+06 -1.954655E+05 -3.784696E+04 -5.301508E+05 -2.673351E+04 -9.950956E+03
        57  23 -1.387494E+06 -1.719652E+05 -5.959642E+04 -5.308294E+05 -5.974277E+04 -2.228229E+04
        57  24 -1.423915E+06 -2.969821E+05 -1.462841E+05 -4.920022E+05 -9.267800E+04 -3.481110E+04
        57  25 -1.468109E+06 -2.167872E+05 -5.386121E+04 -5.452166E+05 -2.672896E+04 -9.949296E+03
        57  26 -1.445227E+06 -1.941814E+05 -7.560785E+04 -5.469234E+05 -5.973970E+04 -2.228109E+04
        57  27 -1.480751E+06 -3.201014E+05 -1.622987E+05 -5.091231E+05 -9.267647E+04 -3.481022E+04
        58   1 -8.324726E+05  1.047819E+04  1.372440E+04  1.759844E+02  9.367380E+03  2.658742E-03
        58   2 -8.345871E+05 -2.535853E+03  5.838435E+03  4.408628E+01  6.171680E+03  4.388272E-04
        58   3 -8.324772E+05 -3.242857E+02  3.841602E+03 -8.781339E+01  2.975928E+03 -4.214639E-04
        58   4 -8.324726E+05  1.047819E+04  1.372440E+04 -4.208358E-08  9.367380E+03 -6.160151E-10
        58   5 -8.345871E+05 -2.535853E+03  5.838435E+03 -1.206888E-07  6.171680E+03  1.741584E-09
        58   6 -8.324772E+05 -3.242857E+02  3.841602E+03  6.878106E-07  2.975928E+03 -4.556104E-10
        58   7 -8.324726E+05  1.047819E+04  1.372440E+04 -1.759844E+02  9.367380E+03 -2.658740E-03
        58   8 -8.345871E+05 -2.535853E+03  5.838435E+03 -4.408628E+01  6.171680E+03 -4.388246E-04
        58   9 -8.324772E+05 -3.242857E+02  3.841602E+03  8.781340E+01  2.975928E+03  4.214666E-04
        58  10 -8.324726E+05  1.047817E+04  1.372423E+04  1.759844E+02 -4.022657E-10 -1.159161E-09
        58  11 -8.345871E+05 -2.535863E+03  5.838363E+03  4.408628E+01 -2.869165E-09  1.286598E-09
        58  12 -8.324772E+05 -3.242881E+02  3.841585E+03 -8.781340E+01  8.449314E-10 -9.300399E-10
        58  13 -8.324726E+05  1.047817E+04  1.372423E+04  1.646267E-07 -2.471976E-09  6.054398E-11
        58  14 -8.345871E+05 -2.535864E+03  5.838363E+03  1.549225E-07  4.004553E-09  2.098584E-10
        58  15 -8.324772E+05 -3.242881E+02  3.841585E+03  2.830050E-07  1.534039E-09 -3.513693E-10
        58  16 -8.324726E+05  1.047817E+04  1.372423E+04 -1.759844E+02  1.264865E-09 -6.660197E-11
        58  17 -8.345871E+05 -2.535863E+03  5.838363E+03 -4.408628E+01  7.685920E-10  2.105763E-10
        58  18 -8.324772E+05 -3.242881E+02  3.841585E+03  8.781340E+01 -1.998530E-09 -2.256801E-09
        58  19 -8.324726E+05  1.047819E+04  1.372440E+04  1.759844E+02 -9.367380E+03 -2.658743E-03
        58  20 -8.345871E+05 -2.535853E+03  5.838435E+03  4.408628E+01 -6.171680E+03 -4.388212E-04
        58  21 -8.324772E+05 -3.242857E+02  3.841602E+03 -8.781340E+01 -2.975928E+03  4.214678E-04
        58  22 -8.324726E+05  1.047819E+04  1.372440E+04  4.402405E-07 -9.367380E+03  1.423074E-09
        58  23 -8.345871E+05 -2.535853E+03  5.838435E+03  2.927283E-07 -6.171680E+03 -1.198726E-09
        58  24 -8.324772E+05 -3.242857E+02  3.841602E+03  1.538114E-07 -2.975928E+03  2.134112E-10
        58  25 -8.324726E+05  1.047819E+04  1.372440E+04 -1.759844E+02 -9.367380E+03  2.658739E-03
        58  26 -8.345871E+05 -2.535853E+03  5.838435E+03 -4.408628E+01 -6.171680E+03  4.388232E-04
        58  27 -8.324772E+05 -3.242857E+02  3.841602E+03  8.781340E+01 -2.975928E+03 -4.214698E-04
        59   1 -8.332594E+05  1.646005E+03  3.175649E+03  2.646269E+01  2.337514E+03  9.976801E-05
        59   2 -8.336094E+05 -3.979669E+02  1.478239E+03  6.196767E+00  1.558521E+03  1.557821E-05
        59   3 -8.332603E+05 -5.251396E+01  8.858581E+02 -1.406916E+01  7.795283E+02 -1.768287E-05
        59   4 -8.332594E+05  1.646005E+03  3.175649E+03  7.077820E-07  2.337514E+03 -8.363036E-10
        59   5 -8.336094E+05 -3.979669E+02  1.478239E+03 -2.546364E-07  1.558521E+03  1.888321E-09
        59   6 -8.332603E+05 -5.251396E+01  8.858581E+02  4.969141E-07  7.795283E+02  4.594771E-11
        59   7 -8.332594E+05  1.646005E+03  3.175649E+03 -2.646269E+01  2.337514E+03 -9.976444E-05
        59   8 -8.336094E+05 -3.979669E+02  1.478239E+03 -6.196767E+00  1.558521E+03 -1.557834E-05
        59   9 -8.332603E+05 -5.251396E+01  8.858581E+02  1.406915E+01  7.795283E+02  1.768750E-05
        59  10 -8.332594E+05  1.646003E+03  3.175639E+03  2.646269E+01  1.170762E-09 -5.424862E-10
        59  11 -8.336095E+05 -3.979676E+02  1.478235E+03  6.196766E+00 -2.729892E-09  1.785529E-10
        59  12 -8.332603E+05 -5.251412E+01  8.858569E+02 -1.406915E+01 -8.868958E-10  2.093502E-09
        59  13 -8.332594E+05  1.646003E+03  3.175639E+03 -2.568627E-07 -3.098131E-10 -1.794618E-10
        59  14 -8.336095E+05 -3.979676E+02  1.478235E+03 -3.235394E-07 -1.528721E-09  7.485980E-10
        59  15 -8.332603E+05 -5.251412E+01  8.858569E+02  6.433336E-07 -7.836171E-10  6.058727E-11
        59  16 -8.332594E+05  1.646003E+03  3.175639E+03 -2.646269E+01 -2.622369E-09 -6.244083E-10
        59  17 -8.336095E+05 -3.979676E+02  1.478235E+03 -6.196764E+00  2.008631E-09  1.857293E-09
        59  18 -8.332603E+05 -5.251412E+01  8.858569E+02  1.406915E+01  1.887490E-09  1.823224E-10
        59  19 -8.332594E+05  1.646005E+03  3.175649E+03  2.646269E+01 -2.337514E+03 -9.975734E-05
        59  20 -8.336094E+05 -3.979669E+02  1.478239E+03  6.196766E+00 -1.558521E+03 -1.557207E-05
        59  21 -8.332603E+05 -5.251396E+01  8.858581E+02 -1.406916E+01 -7.795283E+02  1.768604E-05
        59  22 -8.332594E+05  1.646005E+03  3.175649E+03 -2.568624E-07 -2.337514E+03  2.301991E-10
        59  23 -8.336094E+05 -3.979669E+02  1.478239E+03  8.987946E-08 -1.558521E+03 -1.208941E-09
        59  24 -8.332603E+05 -5.251396E+01  8.858581E+02  1.263462E-06 -7.795283E+02  5.458482E-10
        59  25 -8.332594E+05  1.646005E+03  3.175649E+03 -2.646269E+01 -2.337514E+03  9.976335E-05
        59  26 -8.336094E+05 -3.979669E+02  1.478239E+03 -6.196765E+00 -1.558521E+03  1.557180E-05
        59  27 -8.332603E+05 -5.251396E+01  8.858581E+02  1.406916E+01 -7.795283E+02 -1.769014E-05
        60   1 -8.333926E+05  2.576585E+02  6.806638E+02  3.630195E+00  6.372231E+02  3.732729E-06
        60   2 -8.334443E+05 -5.739394E+01  2.494215E+02  7.353866E-01  5.069895E+02  6.019528E-07
        60   3 -8.333928E+05 -2.784875E+01 -1.080196E+01 -2.159379E+00  3.767579E+02 -1.313560E-06
        60   4 -8.333926E+05  2.576585E+02  6.806638E+02  5.406789E-07  6.372231E+02 -3.299519E-10
        60   5 -8.334443E+05 -5.739394E+01  2.494215E+02 -2.970346E-08  5.069895E+02  9.584345E-10
        60   6 -8.333928E+05 -2.784875E+01 -1.080196E+01  1.145205E-08  3.767579E+02 -6.485949E-10
        60   7 -8.333926E+05  2.576585E+02  6.806638E+02 -3.630194E+00  6.372231E+02 -3.731647E-06
        60   8 -8.334443E+05 -5.739394E+01  2.494215E+02 -7.353856E-01  5.069895E+02 -6.043741E-07
        60   9 -8.333928E+05 -2.784875E+01 -1.080196E+01  2.159378E+00  3.767579E+02  1.313527E-06
        60  10 -8.333926E+05  2.576583E+02  6.806630E+02  3.630194E+00 -9.049512E-10  2.166814E-09
        60  11 -8.334443E+05 -5.739401E+01  2.494210E+02  7.353862E-01 -1.625985E-09  5.072714E-10
        60  12 -8.333928E+05 -2.784879E+01 -1.080223E+01 -2.159380E+00 -2.270786E-09  7.202459E-10
        60  13 -8.333926E+05  2.576583E+02  6.806630E+02  5.406793E-07 -2.936965E-09  2.694026E-10
        60  14 -8.334443E+05 -5.739401E+01  2.494210E+02  5.215219E-07  2.898843E-25 -1.976370E-10
        60  15 -8.333928E+05 -2.784879E+01 -1.080223E+01  1.923227E-07  1.283847E-09  1.704774E-10
        60  16 -8.333926E+05  2.576583E+02  6.806630E+02 -3.630191E+00  8.900384E-10  2.142679E-09
        60  17 -8.334443E+05 -5.739401E+01  2.494210E+02 -7.353841E-01  7.210737E-10  1.109002E-09
        60  18 -8.333928E+05 -2.784879E+01 -1.080223E+01  2.159380E+00  2.417597E-09 -5.855017E-10
        60  19 -8.333926E+05  2.576585E+02  6.806638E+02  3.630195E+00 -6.372231E+02 -3.726511E-06
        60  20 -8.334443E+05 -5.739394E+01  2.494215E+02  7.353861E-01 -5.069895E+02 -5.991877E-07
        60  21 -8.333928E+05 -2.784875E+01 -1.080196E+01 -2.159380E+00 -3.767579E+02  1.313250E-06
        60  22 -8.333926E+05  2.576585E+02  6.806638E+02  9.540992E-07 -6.372231E+02  3.047503E-10
        60  23 -8.334443E+05 -5.739394E+01  2.494215E+02  5.215219E-07 -5.069895E+02  1.818699E-10
        60  24 -8.333928E+05 -2.784875E+01 -1.080196E+01  3.728976E-08 -3.767579E+02  8.821852E-10
        60  25 -8.333926E+05  2.576585E+02  6.806638E+02 -3.630194E+00 -6.372231E+02  3.728660E-06
        60  26 -8.334443E+05 -5.739394E+01  2.494215E+02 -7.353849E-01 -5.069895E+02  5.970306E-07
        60  27 -8.333928E+05 -2.784875E+01 -1.080196E+01  2.159379E+00 -3.767579E+02 -1.313250E-06
        61   1 -8.334300E+05  4.309197E+01 -1.342768E+02 -8.238741E-01  3.898564E+02 -5.182702E-07
        61   2 -8.333979E+05  2.356358E+01 -4.453309E+02  9.986787E-02  6.126334E+02  9.677123E-08
        61   3 -8.334302E+05 -1.374213E+02 -9.369296E+02  1.023621E+00  8.354137E+02  1.384820E-06
        61   4 -8.334300E+05  4.309197E+01 -1.342768E+02 -1.083599E-07  3.898564E+02 -4.016436E-10
        61   5 -8.333979E+05  2.356358E+01 -4.453309E+02 -3.189783E-07  6.126334E+02  1.752762E-09
        61   6 -8.334302E+05 -1.374213E+02 -9.369296E+02 -2.146554E-08  8.354137E+02 -1.730408E-09
        61   7 -8.334300E+05  4.309197E+01 -1.342768E+02  8.238736E-01  3.898564E+02  5.217122E-07
        61   8 -8.333979E+05  2.356358E+01 -4.453309E+02 -9.986651E-02  6.126334E+02 -1.045770E-07
        61   9 -8.334302E+05 -1.374213E+02 -9.369296E+02 -1.023623E+00  8.354137E+02 -1.381253E-06
        61  10 -8.334300E+05  4.309193E+01 -1.342771E+02 -8.238738E-01 -5.448126E-10 -1.098945E-09
        61  11 -8.333979E+05  2.356348E+01 -4.453316E+02  9.986574E-02  5.053773E-10 -8.885041E-10
        61  12 -8.334302E+05 -1.374215E+02 -9.369309E+02  1.023621E+00  2.469143E-09  2.291460E-10
        61  13 -8.334300E+05  4.309193E+01 -1.342771E+02 -3.839727E-07  1.051388E-09  6.053784E-11
        61  14 -8.333979E+05  2.356348E+01 -4.453316E+02 -3.189782E-07  2.303834E-09  4.303514E-10
        61  15 -8.334302E+05 -1.374215E+02 -9.369309E+02 -4.607235E-07 -3.585526E-09 -7.487600E-10
        61  16 -8.334300E+05  4.309193E+01 -1.342771E+02  8.238747E-01 -2.309939E-09 -1.266268E-10
        61  17 -8.333979E+05  2.356348E+01 -4.453316E+02 -9.986665E-02  1.414964E-09 -8.463700E-10
        61  18 -8.334302E+05 -1.374215E+02 -9.369309E+02 -1.023623E+00  2.576153E-10  4.893149E-10
        61  19 -8.334300E+05  4.309197E+01 -1.342768E+02 -8.238731E-01 -3.898564E+02  5.180463E-07
        61  20 -8.333979E+05  2.356358E+01 -4.453309E+02  9.986711E-02 -6.126334E+02 -9.451731E-08
        61  21 -8.334302E+05 -1.374213E+02 -9.369296E+02  1.023622E+00 -8.354137E+02 -1.378074E-06
        61  22 -8.334300E+05  4.309197E+01 -1.342768E+02 -3.150694E-07 -3.898564E+02  7.767686E-10
        61  23 -8.333979E+05  2.356358E+01 -4.453309E+02 -1.811718E-07 -6.126334E+02 -2.285153E-09
        61  24 -8.334302E+05 -1.374213E+02 -9.369296E+02 -1.285240E-08 -8.354137E+02  7.431923E-10
        61  25 -8.334300E+05  4.309197E+01 -1.342768E+02  8.238754E-01 -3.898564E+02 -5.181064E-07
        61  26 -8.333979E+05  2.356358E+01 -4.453309E+02 -9.986817E-02 -6.126334E+02  9.210212E-08
        61  27 -8.334302E+05 -1.374213E+02 -9.369296E+02 -1.023622E+00 -8.354137E+02  1.376534E-06
        62   1 -8.335190E+05  2.996246E+01 -1.238503E+03 -8.142277E+00  1.032610E+03 -1.355962E-05
        62   2 -8.332874E+05  2.149950E+02 -2.139923E+03  1.770503E+00  2.115699E+03  6.038655E-06
        62   3 -8.335198E+05 -8.907326E+02 -4.069876E+03  1.168329E+01  3.198786E+03  6.027542E-05
        62   4 -8.335190E+05  2.996246E+01 -1.238503E+03  2.283765E-07  1.032610E+03 -7.898302E-10
        62   5 -8.332874E+05  2.149950E+02 -2.139923E+03 -1.061444E-07  2.115699E+03  2.137198E-09
        62   6 -8.335198E+05 -8.907326E+02 -4.069876E+03  1.040756E-06  3.198786E+03 -1.866389E-09
        62   7 -8.335190E+05  2.996246E+01 -1.238503E+03  8.142278E+00  1.032610E+03  1.356077E-05
        62   8 -8.332874E+05  2.149950E+02 -2.139923E+03 -1.770503E+00  2.115699E+03 -6.044708E-06
        62   9 -8.335198E+05 -8.907326E+02 -4.069876E+03 -1.168329E+01  3.198786E+03 -6.027715E-05
        62  10 -8.335190E+05  2.996217E+01 -1.238505E+03 -8.142277E+00 -8.615252E-10 -5.667256E-10
        62  11 -8.332874E+05  2.149938E+02 -2.139932E+03  1.770502E+00  1.919834E-10  3.430229E-09
        62  12 -8.335198E+05 -8.907353E+02 -4.069895E+03  1.168329E+01  2.551961E-09  5.120233E-11
        62  13 -8.335190E+05  2.996217E+01 -1.238505E+03  2.166702E-08  2.627694E-09 -3.141081E-10
        62  14 -8.332874E+05  2.149938E+02 -2.139932E+03 -2.439509E-07  2.627692E-09  5.006347E-10
        62  15 -8.335198E+05 -8.907353E+02 -4.069895E+03 -1.305996E-07 -3.729641E-09  2.465041E-10
        62  16 -8.335190E+05  2.996217E+01 -1.238505E+03  8.142278E+00  1.207255E-09 -6.000680E-10
        62  17 -8.332874E+05  2.149938E+02 -2.139932E+03 -1.770504E+00 -3.383142E-10  2.914963E-09
        62  18 -8.335198E+05 -8.907353E+02 -4.069895E+03 -1.168329E+01 -1.493252E-09 -8.726619E-10
        62  19 -8.335190E+05  2.996246E+01 -1.238503E+03 -8.142278E+00 -1.032610E+03  1.356430E-05
        62  20 -8.332874E+05  2.149950E+02 -2.139923E+03  1.770504E+00 -2.115699E+03 -6.035038E-06
        62  21 -8.335198E+05 -8.907326E+02 -4.069876E+03  1.168329E+01 -3.198786E+03 -6.027169E-05
        62  22 -8.335190E+05  2.996246E+01 -1.238503E+03  4.350865E-07 -1.032610E+03  3.410374E-10
        62  23 -8.332874E+05  2.149950E+02 -2.139923E+03 -1.061444E-07 -2.115699E+03 -1.436200E-09
        62  24 -8.335198E+05 -8.907326E+02 -4.069876E+03  1.450133E-07 -3.198786E+03  2.043642E-09
        62  25 -8.335190E+05  2.996246E+01 -1.238503E+03  8.142277E+00 -1.032610E+03 -1.356477E-05
        62  26 -8.332874E+05  2.149950E+02 -2.139923E+03 -1.770503E+00 -2.115699E+03  6.035852E-06
        62  27 -8.335198E+05 -8.907326E+02 -4.069876E+03 -1.168329E+01 -3.198786E+03  6.027081E-05
        63   1 -8.340085E+05  1.665572E+02 -5.185739E+03 -5.050855E+01  4.038404E+03 -3.289679E-04
        63   2 -8.326776E+05  1.392601E+03 -8.579216E+03  1.777759E+01  8.446275E+03  2.421716E-04
        63   3 -8.340124E+05 -5.742334E+03 -1.693544E+04  8.606281E+01  1.285406E+04  1.784181E-03
        63   4 -8.340085E+05  1.665572E+02 -5.185739E+03  3.897781E-07  4.038404E+03 -1.545139E-09
        63   5 -8.326776E+05  1.392601E+03 -8.579216E+03 -3.429631E-07  8.446275E+03  3.269274E-09
        63   6 -8.340124E+05 -5.742334E+03 -1.693544E+04  1.473455E-07  1.285406E+04 -1.539674E-09
        63   7 -8.340085E+05  1.665572E+02 -5.185739E+03  5.050855E+01  4.038404E+03  3.289673E-04
        63   8 -8.326776E+05  1.392601E+03 -8.579216E+03 -1.777759E+01  8.446275E+03 -2.421756E-04
        63   9 -8.340124E+05 -5.742334E+03 -1.693544E+04 -8.606281E+01  1.285406E+04 -1.784180E-03
        63  10 -8.340085E+05  1.665528E+02 -5.185770E+03 -5.050855E+01  1.465077E-09 -9.226510E-10
        63  11 -8.326777E+05  1.392581E+03 -8.579350E+03  1.777759E+01 -7.270208E-11  1.208273E-09
        63  12 -8.340126E+05 -5.742379E+03 -1.693575E+04  8.606281E+01 -9.396618E-10  1.950751E-09
        63  13 -8.340085E+05  1.665528E+02 -5.185770E+03  1.141643E-07  1.068200E-09 -1.211489E-10
        63  14 -8.326777E+05  1.392581E+03 -8.579350E+03  2.771689E-07 -7.761379E-10  3.147226E-10
        63  15 -8.340126E+05 -5.742379E+03 -1.693575E+04 -6.278168E-07  2.412782E-09  9.219782E-10
        63  16 -8.340085E+05  1.665528E+02 -5.185770E+03  5.050855E+01 -1.344271E-09  1.417228E-10
        63  17 -8.326777E+05  1.392581E+03 -8.579350E+03 -1.777759E+01 -1.183311E-09  1.067243E-10
        63  18 -8.340126E+05 -5.742379E+03 -1.693575E+04 -8.606281E+01 -1.027332E-09  1.136826E-10
        63  19 -8.340085E+05  1.665572E+02 -5.185739E+03 -5.050855E+01 -4.038404E+03  3.289743E-04
        63  20 -8.326776E+05  1.392601E+03 -8.579216E+03  1.777759E+01 -8.446275E+03 -2.421596E-04
        63  21 -8.340124E+05 -5.742334E+03 -1.693544E+04  8.606281E+01 -1.285406E+04 -1.784175E-03
        63  22 -8.340085E+05  1.665572E+02 -5.185739E+03 -4.370626E-07 -4.038404E+03  9.134974E-10
        63  23 -8.326776E+05  1.392601E+03 -8.579216E+03 -3.429630E-07 -8.446275E+03 -2.669911E-09
        63  24 -8.340124E+05 -5.742334E+03 -1.693544E+04 -7.311717E-07 -1.285406E+04  3.312151E-09
        63  25 -8.340085E+05  1.665572E+02 -5.185739E+03  5.050855E+01 -4.038404E+03 -3.289741E-04
        63  26 -8.326776E+05  1.392601E+03 -8.579216E+03 -1.777759E+01 -8.446275E+03  2.421579E-04
        63  27 -8.340124E+05 -5.742334E+03 -1.693544E+04 -8.606281E+01 -1.285406E+04  1.784179E-03
        64   1 -8.368994E+05  1.106547E+03 -2.109933E+04 -3.137100E+02  1.630848E+04 -8.251412E-03
        64   2 -8.290715E+05  8.898107E+03 -3.372802E+04  1.388886E+02  3.406111E+04  7.629688E-03
        64   3 -8.369180E+05 -3.673479E+04 -7.128040E+04  5.914928E+02  5.181387E+04  4.942867E-02
        64   4 -8.368994E+05  1.106547E+03 -2.109933E+04  3.808295E-07  1.630848E+04 -3.901162E-10
        64   5 -8.290715E+05  8.898107E+03 -3.372802E+04 -1.788224E-07  3.406111E+04  4.892725E-09
        64   6 -8.369180E+05 -3.673479E+04 -7.128040E+04  1.400071E-07  5.181387E+04 -7.662559E-09
        64   7 -8.368994E+05  1.106547E+03 -2.109933E+04  3.137100E+02  1.630848E+04  8.251414E-03
        64   8 -8.290715E+05  8.898107E+03 -3.372802E+04 -1.388886E+02  3.406111E+04 -7.629677E-03
        64   9 -8.369180E+05 -3.673479E+04 -7.128040E+04 -5.914928E+02  5.181387E+04 -4.942868E-02
        64  10 -8.368997E+05  1.106476E+03 -2.109983E+04 -3.137100E+02  1.579458E-09 -8.665246E-10
        64  11 -8.290727E+05  8.897795E+03 -3.373021E+04  1.388886E+02  1.122316E-09 -2.449838E-09
        64  12 -8.369209E+05 -3.673551E+04 -7.128545E+04  5.914928E+02  4.794922E-10  3.773545E-10
        64  13 -8.368997E+05  1.106476E+03 -2.109983E+04 -1.704013E-07 -1.076592E-09 -4.739280E-10
        64  14 -8.290727E+05  8.897795E+03 -3.373021E+04 -3.166320E-07  1.391721E-24 -3.802391E-09
        64  15 -8.369209E+05 -3.673552E+04 -7.128545E+04 -4.284415E-07  2.550882E-09 -6.086643E-10
        64  16 -8.368997E+05  1.106476E+03 -2.109983E+04  3.137100E+02 -2.270898E-09 -8.128026E-10
        64  17 -8.290727E+05  8.897795E+03 -3.373021E+04 -1.388886E+02  2.861466E-10 -3.539012E-09
        64  18 -8.369209E+05 -3.673551E+04 -7.128545E+04 -5.914928E+02 -4.769332E-10  5.018219E-10
        64  19 -8.368994E+05  1.106547E+03 -2.109933E+04 -3.137100E+02 -1.630848E+04  8.251399E-03
        64  20 -8.290715E+05  8.898107E+03 -3.372802E+04  1.388886E+02 -3.406111E+04 -7.629649E-03
        64  21 -8.369180E+05 -3.673479E+04 -7.128040E+04  5.914928E+02 -5.181387E+04 -4.942863E-02
        64  22 -8.368994E+05  1.106547E+03 -2.109933E+04 -3.771132E-07 -1.630848E+04 -8.999831E-10
        64  23 -8.290715E+05  8.898107E+03 -3.372802E+04 -3.166316E-07 -3.406111E+04 -1.131115E-08
        64  24 -8.369180E+05 -3.673479E+04 -7.128040E+04  1.486222E-07 -5.181387E+04  7.192006E-09
        64  25 -8.368994E+05  1.106547E+03 -2.109933E+04  3.137100E+02 -1.630848E+04 -8.251404E-03
        64  26 -8.290715E+05  8.898107E+03 -3.372802E+04 -1.388886E+02 -3.406111E+04  7.629665E-03
        64  27 -8.369180E+05 -3.673479E+04 -7.128040E+04 -5.914928E+02 -5.181387E+04  4.942866E-02
        65   1 -8.543605E+05  7.229614E+03 -8.602713E+04 -1.959575E+03  6.612236E+04 -2.089807E-01
        65   2 -8.072615E+05  5.659900E+04 -1.303959E+05  9.842920E+02  1.375191E+05  2.182987E-01
        65   3 -8.544475E+05 -2.338513E+05 -3.062283E+05  3.927977E+03  2.089176E+05  1.323507E+00
        65   4 -8.543605E+05  7.229607E+03 -8.602713E+04  3.622767E-07  6.612236E+04  7.720033E-10
        65   5 -8.072615E+05  5.659900E+04 -1.303959E+05  4.278973E-08  1.375191E+05  2.918332E-08
        65   6 -8.544475E+05 -2.338513E+05 -3.062284E+05  4.036833E-07  2.089176E+05 -1.954720E-08
        65   7 -8.543605E+05  7.229614E+03 -8.602713E+04  1.959575E+03  6.612236E+04  2.089807E-01
        65   8 -8.072615E+05  5.659900E+04 -1.303959E+05 -9.842920E+02  1.375191E+05 -2.182988E-01
        65   9 -8.544475E+05 -2.338513E+05 -3.062283E+05 -3.927977E+03  2.089176E+05 -1.323507E+00
        65  10 -8.543652E+05  7.228439E+03 -8.603536E+04 -1.959575E+03  6.955093E-10 -9.909811E-10
        65  11 -8.072818E+05  5.659392E+04 -1.304315E+05  9.842920E+02 -1.658987E-10 -3.657672E-09
        65  12 -8.544944E+05 -2.338630E+05 -3.063105E+05  3.927977E+03  5.526749E-10 -3.152834E-09
        65  13 -8.543652E+05  7.228431E+03 -8.603536E+04 -3.267781E-07  1.931636E-09 -7.016060E-10
        65  14 -8.072818E+05  5.659391E+04 -1.304315E+05  1.116971E-07 -8.550785E-10 -4.069835E-09
        65  15 -8.544945E+05 -2.338631E+05 -3.063105E+05  6.780880E-08 -1.583306E-09 -1.810606E-09
        65  16 -8.543652E+05  7.228439E+03 -8.603536E+04  1.959575E+03 -1.376990E-09 -4.450325E-10
        65  17 -8.072818E+05  5.659392E+04 -1.304315E+05 -9.842920E+02 -1.998074E-09 -4.187629E-09
        65  18 -8.544944E+05 -2.338630E+05 -3.063105E+05 -3.927977E+03 -1.830529E-09 -2.136636E-09
        65  19 -8.543605E+05  7.229614E+03 -8.602713E+04 -1.959575E+03 -6.612236E+04  2.089807E-01
        65  20 -8.072615E+05  5.659900E+04 -1.303959E+05  9.842920E+02 -1.375191E+05 -2.182988E-01
        65  21 -8.544475E+05 -2.338513E+05 -3.062283E+05  3.927977E+03 -2.089176E+05 -1.323507E+00
        65  22 -8.543605E+05  7.229607E+03 -8.602713E+04  3.622756E-07 -6.612236E+04 -2.378967E-09
        65  23 -8.072615E+05  5.659900E+04 -1.303959E+05 -9.503085E-08 -1.375191E+05 -3.762264E-08
        65  24 -8.544475E+05 -2.338513E+05 -3.062284E+05  5.070346E-07 -2.089176E+05  1.454342E-09
        65  25 -8.543605E+05  7.229614E+03 -8.602713E+04  1.959575E+03 -6.612236E+04 -2.089807E-01
        65  26 -8.072615E+05  5.659900E+04 -1.303959E+05 -9.842920E+02 -1.375191E+05  2.182989E-01
        65  27 -8.544475E+05 -2.338513E+05 -3.062283E+05 -3.927977E+03 -2.089176E+05  1.323508E+00
        66   1  1.166254E+05 -1.408832E+05  1.551591E+05 -1.607034E+03 -6.820397E+00  1.042871E+05
        66   2 -3.336823E+04 -1.657376E+05  6.703020E+04 -7.718310E+02 -1.340546E+01  6.575401E+04
        66   3 -4.338389E+03 -1.407136E+05  4.877488E+04  1.496744E+03  4.442854E+00  2.721984E+04
        66   4  1.202000E+05 -1.265872E+05  1.587333E+05  4.425140E+02 -6.476035E+00  1.042892E+05
        66   5 -2.981607E+04 -1.515323E+05  7.058166E+04 -2.708448E+02 -1.335258E+01  6.575470E+04
        66   6 -8.106048E+02 -1.265999E+05  5.230341E+04  4.491936E+02  4.396208E+00  2.721917E+04
        66   7  1.237746E+05 -1.122909E+05  1.623074E+05  2.492110E+03 -6.131604E+00  1.042912E+05
        66   8 -2.626393E+04 -1.373268E+05  7.413310E+04  2.301531E+02 -1.329943E+01  6.575539E+04
        66   9  2.717169E+03 -1.124861E+05  5.583193E+04 -5.983800E+02  4.350064E+00  2.721849E+04
        66  10  1.166225E+05 -1.408949E+05  1.551386E+05 -1.607034E+03  1.412921E-05  5.390893E-06
        66  11 -3.336927E+04 -1.657422E+05  6.702211E+04 -7.718297E+02  6.252982E-05  9.079640E-06
        66  12 -4.338375E+03 -1.407143E+05  4.877354E+04  1.496743E+03  1.107287E-04  5.266401E-06
        66  13  1.201971E+05 -1.265988E+05  1.587128E+05  4.425143E+02 -1.757257E-05  7.505813E-08
        66  14 -2.981723E+04 -1.515369E+05  7.057353E+04 -2.708438E+02 -7.809917E-05  3.047289E-07
        66  15 -8.108037E+02 -1.266007E+05  5.230202E+04  4.491931E+02 -1.388416E-04  4.917475E-07
        66  16  1.237716E+05 -1.123026E+05  1.622870E+05  2.492111E+03  1.413150E-05 -5.333125E-06
        66  17 -2.626521E+04 -1.373315E+05  7.412494E+04  2.301546E+02  6.253415E-05 -8.878818E-06
        66  18  2.716757E+03 -1.124869E+05  5.583049E+04 -5.983799E+02  1.107252E-04 -5.009852E-06
        66  19  1.166254E+05 -1.408832E+05  1.551591E+05 -1.607034E+03  6.820425E+00 -1.042871E+05
        66  20 -3.336799E+04 -1.657375E+05  6.703026E+04 -7.718298E+02  1.340558E+01 -6.575401E+04
        66  21 -4.337964E+03 -1.407135E+05  4.877498E+04  1.496743E+03 -4.442632E+00 -2.721984E+04
        66  22  1.202000E+05 -1.265872E+05  1.587333E+05  4.425134E+02  6.476000E+00 -1.042892E+05
        66  23 -2.981607E+04 -1.515323E+05  7.058166E+04 -2.708442E+02  1.335243E+01 -6.575470E+04
        66  24 -8.106048E+02 -1.265999E+05  5.230341E+04  4.491929E+02 -4.396485E+00 -2.721917E+04
        66  25  1.237745E+05 -1.122909E+05  1.623074E+05  2.492110E+03  6.131632E+00 -1.042912E+05
        66  26 -2.626417E+04 -1.373269E+05  7.413304E+04  2.301547E+02  1.329955E+01 -6.575539E+04
        66  27  2.716743E+03 -1.124862E+05  5.583183E+04 -5.983795E+02 -4.349842E+00 -2.721849E+04
        67   1  2.276056E+04 -1.164094E+05  5.133999E+04 -4.182686E+01  2.137290E+01  1.818844E+04
        67   2 -4.645274E+03 -1.243916E+05  3.850106E+04 -2.437015E+02  3.023045E+01  2.434260E+02
        67   3  2.251889E+04 -1.162384E+05  5.102149E+04  8.857036E+02  3.254093E+01 -1.770158E+04
        67   4  1.833869E+04 -1.340963E+05  4.691803E+04  4.165994E+02  2.138594E+01  1.818762E+04
        67   5 -9.089015E+03 -1.421641E+05  3.405780E+04 -2.449505E+02  3.023033E+01  2.432123E+02
        67   6  1.805401E+04 -1.340962E+05  4.655702E+04  4.247816E+02  3.255410E+01 -1.770119E+04
        67   7  1.391680E+04 -1.517830E+05  4.249604E+04  8.750123E+02  2.139947E+01  1.818680E+04
        67   8 -1.353278E+04 -1.599364E+05  2.961452E+04 -2.461997E+02  3.023049E+01  2.429986E+02
        67   9  1.358910E+04 -1.519537E+05  4.209252E+04 -3.612729E+01  3.256734E+01 -1.770079E+04
        67  10  2.276068E+04 -1.164097E+05  5.133942E+04 -4.182742E+01  1.107077E-04 -5.131034E-06
        67  11 -4.645154E+03 -1.243916E+05  3.850109E+04 -2.437022E+02  6.250437E-05 -8.593614E-06
        67  12  2.251883E+04 -1.162387E+05  5.102091E+04  8.857038E+02  1.419668E-05 -6.311391E-06
        67  13  1.833860E+04 -1.340967E+05  4.691740E+04  4.165994E+02 -1.388623E-04  4.954241E-07
        67  14 -9.089015E+03 -1.421641E+05  3.405780E+04 -2.449507E+02 -7.812813E-05  3.138698E-07
        67  15  1.805392E+04 -1.340965E+05  4.655643E+04  4.247823E+02 -1.750254E-05  7.869996E-08
        67  16  1.391650E+04 -1.517834E+05  4.249537E+04  8.750120E+02  1.107066E-04  5.395399E-06
        67  17 -1.353290E+04 -1.599364E+05  2.961449E+04 -2.462003E+02  6.250341E-05  8.812434E-06
        67  18  1.358899E+04 -1.519540E+05  4.209192E+04 -3.612708E+01  1.419316E-05  6.376424E-06
        67  19  2.276099E+04 -1.164093E+05  5.134009E+04 -4.182736E+01 -2.137268E+01 -1.818844E+04
        67  20 -4.645034E+03 -1.243915E+05  3.850112E+04 -2.437029E+02 -3.023033E+01 -2.434260E+02
        67  21  2.251894E+04 -1.162384E+05  5.102150E+04  8.857030E+02 -3.254091E+01  1.770158E+04
        67  22  1.833869E+04 -1.340963E+05  4.691803E+04  4.166000E+02 -2.138622E+01 -1.818762E+04
        67  23 -9.089015E+03 -1.421641E+05  3.405780E+04 -2.449510E+02 -3.023049E+01 -2.432123E+02
        67  24  1.805401E+04 -1.340962E+05  4.655702E+04  4.247819E+02 -3.255414E+01  1.770119E+04
        67  25  1.391637E+04 -1.517831E+05  4.249593E+04  8.750124E+02 -2.139925E+01 -1.818680E+04
        67  26 -1.353302E+04 -1.599364E+05  2.961446E+04 -2.462009E+02 -3.023036E+01 -2.429986E+02
        67  27  1.358905E+04 -1.519537E+05  4.209251E+04 -3.612780E+01 -3.256731E+01  1.770079E+04
        68   1  8.360101E+03 -9.040440E+04  6.089527E+04 -8.516459E+02  5.367350E+01 -2.666073E+04
        68   2 -2.038498E+04 -1.152760E+05  7.873772E+04  4.930994E+02  1.126031E+02 -6.471621E+04
        68   3  1.276531E+05 -9.034574E+04  1.656893E+05  2.321002E+03  1.431991E+02 -1.027707E+05
        68   4 -6.944746E+02 -1.266164E+05  5.184199E+04  1.933604E+02  5.362919E+01 -2.666118E+04
        68   5 -2.944440E+04 -1.515122E+05  6.967883E+04  2.066825E+01  1.126530E+02 -6.471405E+04
        68   6  1.185938E+05 -1.266038E+05  1.566259E+05  3.311088E+02  1.435284E+02 -1.027659E+05
        68   7 -9.749145E+03 -1.628272E+05  4.278862E+04  1.238306E+03  5.358488E+01 -2.666164E+04
        68   8 -3.850391E+04 -1.877472E+05  6.061983E+04 -4.517351E+02  1.127030E+02 -6.471189E+04
        68   9  1.095344E+05 -1.628607E+05  1.475623E+05 -1.658668E+03  1.438576E+02 -1.027612E+05
        68  10  8.359910E+03 -9.040517E+04  6.089393E+04 -8.516450E+02  8.301996E-08 -1.063607E-06
        68  11 -2.038611E+04 -1.152805E+05  7.872985E+04  4.931053E+02  4.546047E-09  2.057089E-07
        68  12  1.276502E+05 -9.035708E+04  1.656695E+05  2.321014E+03 -5.433221E-09  2.292802E-07
        68  13 -6.946655E+02 -1.266172E+05  5.184066E+04  1.933614E+02  8.030521E-08  7.020054E-12
        68  14 -2.944553E+04 -1.515167E+05  6.967095E+04  2.067415E+01  8.107820E-09  7.680834E-10
        68  15  1.185910E+05 -1.266152E+05  1.566060E+05  3.311207E+02 -7.118255E-09  1.508416E-10
        68  16 -9.749336E+03 -1.628280E+05  4.278728E+04  1.238307E+03  8.025609E-08  1.063632E-06
        68  17 -3.850504E+04 -1.877517E+05  6.061196E+04 -4.517292E+02  8.782908E-09 -2.071875E-07
        68  18  1.095316E+05 -1.628721E+05  1.475424E+05 -1.658656E+03 -8.594468E-09 -2.276425E-07
        68  19  8.360101E+03 -9.040440E+04  6.089527E+04 -8.516463E+02 -5.367350E+01  2.666073E+04
        68  20 -2.038498E+04 -1.152760E+05  7.873772E+04  4.930994E+02 -1.126031E+02  6.471621E+04
        68  21  1.276531E+05 -9.034574E+04  1.656893E+05  2.321002E+03 -1.431991E+02  1.027707E+05
        68  22 -6.944746E+02 -1.266164E+05  5.184199E+04  1.933601E+02 -5.362919E+01  2.666118E+04
        68  23 -2.944440E+04 -1.515122E+05  6.967883E+04  2.066831E+01 -1.126530E+02  6.471405E+04
        68  24  1.185938E+05 -1.266038E+05  1.566259E+05  3.311089E+02 -1.435284E+02  1.027659E+05
        68  25 -9.749145E+03 -1.628272E+05  4.278862E+04  1.238306E+03 -5.358488E+01  2.666164E+04
        68  26 -3.850391E+04 -1.877472E+05  6.061983E+04 -4.517350E+02 -1.127030E+02  6.471189E+04
        68  27  1.095344E+05 -1.628607E+05  1.475623E+05 -1.658668E+03 -1.438576E+02  1.027612E+05
        69   1 -8.027964E+05 -1.154298E+05 -3.268313E+03 -3.006854E+05 -2.199731E+03 -8.243931E+02
        69   2 -8.023425E+05 -1.119022E+05 -1.182655E+03 -3.009842E+05 -1.413973E+03 -5.310303E+02
        69   3 -8.023337E+05 -1.129160E+05 -6.547014E+02 -3.014969E+05 -6.266373E+02 -2.418323E+02
        69   4 -8.035890E+05 -1.156911E+05 -3.479265E+03 -3.008616E+05 -2.199707E+03 -8.243845E+02
        69   5 -8.031963E+05 -1.122152E+05 -1.416192E+03 -3.012064E+05 -1.414044E+03 -5.310570E+02
        69   6 -8.032488E+05 -1.132806E+05 -9.107503E+02 -3.017651E+05 -6.268030E+02 -2.418944E+02
        69   7 -8.043815E+05 -1.159524E+05 -3.690217E+03 -3.010378E+05 -2.199684E+03 -8.243759E+02
        69   8 -8.040502E+05 -1.125281E+05 -1.649729E+03 -3.014285E+05 -1.414115E+03 -5.310838E+02
        69   9 -8.041639E+05 -1.136451E+05 -1.166799E+03 -3.020333E+05 -6.269687E+02 -2.419565E+02
        69  10 -8.027964E+05 -1.154298E+05 -3.268323E+03 -3.006854E+05  3.004151E-08 -1.074157E-08
        69  11 -8.023425E+05 -1.119022E+05 -1.182659E+03 -3.009842E+05  2.865737E-08 -1.239556E-08
        69  12 -8.023337E+05 -1.129160E+05 -6.547023E+02 -3.014969E+05 -1.366161E-07  6.821682E-08
        69  13 -8.035890E+05 -1.156911E+05 -3.479275E+03 -3.008616E+05 -1.344770E-09 -1.652383E-10
        69  14 -8.031963E+05 -1.122152E+05 -1.416196E+03 -3.012064E+05 -3.708170E-09  8.528404E-10
        69  15 -8.032488E+05 -1.132806E+05 -9.107511E+02 -3.017651E+05 -5.448432E-10  3.719734E-09
        69  16 -8.043815E+05 -1.159524E+05 -3.690227E+03 -3.010378E+05 -2.909523E-08  1.305396E-08
        69  17 -8.040502E+05 -1.125281E+05 -1.649733E+03 -3.014285E+05 -2.942767E-08  1.246307E-08
        69  18 -8.041639E+05 -1.136451E+05 -1.166800E+03 -3.020333E+05  1.356631E-07 -5.820642E-08
        69  19 -8.027964E+05 -1.154298E+05 -3.268313E+03 -3.006854E+05  2.199731E+03  8.243931E+02
        69  20 -8.023425E+05 -1.119022E+05 -1.182655E+03 -3.009842E+05  1.413973E+03  5.310303E+02
        69  21 -8.023337E+05 -1.129160E+05 -6.547015E+02 -3.014969E+05  6.266373E+02  2.418323E+02
        69  22 -8.035890E+05 -1.156911E+05 -3.479265E+03 -3.008616E+05  2.199707E+03  8.243845E+02
        69  23 -8.031963E+05 -1.122152E+05 -1.416192E+03 -3.012064E+05  1.414044E+03  5.310570E+02
        69  24 -8.032488E+05 -1.132806E+05 -9.107503E+02 -3.017651E+05  6.268030E+02  2.418944E+02
        69  25 -8.043815E+05 -1.159524E+05 -3.690217E+03 -3.010378E+05  2.199684E+03  8.243759E+02
        69  26 -8.040502E+05 -1.125281E+05 -1.649729E+03 -3.014285E+05  1.414115E+03  5.310838E+02
        69  27 -8.041639E+05 -1.136451E+05 -1.166799E+03 -3.020333E+05  6.269687E+02  2.419565E+02
        70   1 -7.888229E+05 -1.078066E+05  3.286737E+03 -2.971531E+05 -4.834386E+02 -2.009669E+02
        70   2 -7.884954E+05 -1.076647E+05  3.663288E+03 -2.976650E+05 -2.917229E+02 -1.420053E+02
        70   3 -7.888794E+05 -1.074640E+05  3.775595E+03 -2.973070E+05 -1.112373E+02 -5.312694E+01
        70   4 -8.034588E+05 -1.133280E+05 -7.476963E+02 -3.011232E+05 -4.840205E+02 -2.011852E+02
        70   5 -8.030770E+05 -1.131725E+05 -3.573551E+02 -3.016275E+05 -2.916375E+02 -1.419733E+02
        70   6 -8.034067E+05 -1.129583E+05 -2.317924E+02 -3.012619E+05 -1.104846E+02 -5.284426E+01
        70   7 -8.180945E+05 -1.188494E+05 -4.782149E+03 -3.050932E+05 -4.846025E+02 -2.014035E+02
        70   8 -8.176583E+05 -1.186803E+05 -4.378017E+03 -3.055898E+05 -2.915521E+02 -1.419413E+02
        70   9 -8.179338E+05 -1.184526E+05 -4.239199E+03 -3.052166E+05 -1.097320E+02 -5.256160E+01
        70  10 -7.888229E+05 -1.078066E+05  3.286736E+03 -2.971531E+05  2.366698E-06  1.922292E-06
        70  11 -7.884954E+05 -1.076647E+05  3.663286E+03 -2.976650E+05  1.163741E-05  8.404439E-06
        70  12 -7.888794E+05 -1.074640E+05  3.775592E+03 -2.973070E+05  2.076940E-05  1.496585E-05
        70  13 -8.034588E+05 -1.133280E+05 -7.476968E+02 -3.011232E+05  7.864515E-06  1.888965E-06
        70  14 -8.030770E+05 -1.131725E+05 -3.573553E+02 -3.016275E+05  3.488585E-05  8.377013E-06
        70  15 -8.034067E+05 -1.129583E+05 -2.317924E+02 -3.012619E+05  6.189654E-05  1.488390E-05
        70  16 -8.180945E+05 -1.188494E+05 -4.782149E+03 -3.050932E+05  3.085905E-06  1.828564E-06
        70  17 -8.176583E+05 -1.186803E+05 -4.378016E+03 -3.055898E+05  1.254517E-05  8.230251E-06
        70  18 -8.179337E+05 -1.184526E+05 -4.239196E+03 -3.052166E+05  2.212383E-05  1.458444E-05
        70  19 -7.888229E+05 -1.078066E+05  3.286736E+03 -2.971531E+05  4.834386E+02  2.009669E+02
        70  20 -7.884954E+05 -1.076647E+05  3.663285E+03 -2.976650E+05  2.917229E+02  1.420053E+02
        70  21 -7.888794E+05 -1.074640E+05  3.775589E+03 -2.973070E+05  1.112373E+02  5.312697E+01
        70  22 -8.034588E+05 -1.133280E+05 -7.476962E+02 -3.011232E+05  4.840206E+02  2.011852E+02
        70  23 -8.030770E+05 -1.131725E+05 -3.573550E+02 -3.016275E+05  2.916375E+02  1.419733E+02
        70  24 -8.034067E+05 -1.129583E+05 -2.317923E+02 -3.012619E+05  1.104847E+02  5.284429E+01
        70  25 -8.180945E+05 -1.188494E+05 -4.782148E+03 -3.050932E+05  4.846025E+02  2.014035E+02
        70  26 -8.176583E+05 -1.186803E+05 -4.378014E+03 -3.055898E+05  2.915521E+02  1.419413E+02
        70  27 -8.179337E+05 -1.184526E+05 -4.239193E+03 -3.052166E+05  1.097321E+02  5.256163E+01
        71   1 -8.205546E+05 -1.195907E+05 -4.954272E+03 -3.059830E+05 -8.633718E+01 -1.667337E+01
        71   2 -8.204789E+05 -1.197007E+05 -4.933704E+03 -3.062264E+05 -8.485463E+00  3.556179E+01
        71   3 -8.206082E+05 -1.195620E+05 -4.965324E+03 -3.060061E+05  8.313837E+01  5.109862E+01
        71   4 -8.033163E+05 -1.130737E+05 -1.995313E+02 -3.012930E+05 -8.547460E+01 -1.634946E+01
        71   5 -8.032108E+05 -1.131769E+05 -1.719787E+02 -3.015328E+05 -8.444193E+00  3.557715E+01
        71   6 -8.033103E+05 -1.130312E+05 -1.959605E+02 -3.013089E+05  8.235816E+01  5.080591E+01
        71   7 -7.860778E+05 -1.065567E+05  4.555183E+03 -2.966028E+05 -8.461213E+01 -1.602553E+01
        71   8 -7.859425E+05 -1.066531E+05  4.589720E+03 -2.968390E+05 -8.403213E+00  3.559251E+01
        71   9 -7.860121E+05 -1.065005E+05  4.573377E+03 -2.966116E+05  8.157748E+01  5.051319E+01
        71  10 -8.205547E+05 -1.195907E+05 -4.954277E+03 -3.059830E+05  3.445431E-05  2.515116E-05
        71  11 -8.204789E+05 -1.197007E+05 -4.933715E+03 -3.062263E+05  7.521947E-05  5.358388E-05
        71  12 -8.206082E+05 -1.195620E+05 -4.965341E+03 -3.060060E+05  1.177566E-04  8.114698E-05
        71  13 -8.033163E+05 -1.130737E+05 -1.995311E+02 -3.012930E+05  1.043808E-04  2.517511E-05
        71  14 -8.032108E+05 -1.131769E+05 -1.719786E+02 -3.015328E+05  2.233997E-04  5.398017E-05
        71  15 -8.033103E+05 -1.130312E+05 -1.959603E+02 -3.013089E+05  3.424605E-04  8.272943E-05
        71  16 -7.860777E+05 -1.065567E+05  4.555188E+03 -2.966028E+05  3.794297E-05  2.457177E-05
        71  17 -7.859425E+05 -1.066531E+05  4.589731E+03 -2.968391E+05  7.992088E-05  5.242590E-05
        71  18 -7.860120E+05 -1.065005E+05  4.573393E+03 -2.966116E+05  1.202043E-04  8.104517E-05
        71  19 -8.205547E+05 -1.195907E+05 -4.954282E+03 -3.059829E+05  8.633725E+01  1.667342E+01
        71  20 -8.204790E+05 -1.197007E+05 -4.933726E+03 -3.062263E+05  8.485613E+00 -3.556168E+01
        71  21 -8.206083E+05 -1.195620E+05 -4.965357E+03 -3.060060E+05 -8.313814E+01 -5.109845E+01
        71  22 -8.033163E+05 -1.130737E+05 -1.995309E+02 -3.012929E+05  8.547481E+01  1.634951E+01
        71  23 -8.032108E+05 -1.131769E+05 -1.719784E+02 -3.015328E+05  8.444640E+00 -3.557704E+01
        71  24 -8.033103E+05 -1.130312E+05 -1.959601E+02 -3.013089E+05 -8.235748E+01 -5.080574E+01
        71  25 -7.860777E+05 -1.065567E+05  4.555193E+03 -2.966028E+05  8.461220E+01  1.602558E+01
        71  26 -7.859424E+05 -1.066531E+05  4.589742E+03 -2.968391E+05  8.403373E+00 -3.559240E+01
        71  27 -7.860119E+05 -1.065005E+05  4.573410E+03 -2.966117E+05 -8.157724E+01 -5.051303E+01
        72   1 -7.984012E+05 -1.115657E+05  1.039124E+03 -3.003903E+05  1.245017E+02  4.773168E+01
        72   2 -7.987667E+05 -1.109976E+05  9.200181E+02 -2.998169E+05  3.260799E+02  1.116578E+02
        72   3 -7.982601E+05 -1.116210E+05  5.958862E+02 -3.002993E+05  5.239050E+02  1.856044E+02
        72   4 -8.030674E+05 -1.133260E+05 -2.472404E+02 -3.016560E+05  1.241594E+02  4.760326E+01
        72   5 -8.035117E+05 -1.127895E+05 -3.882884E+02 -3.011060E+05  3.259610E+02  1.116131E+02
        72   6 -8.030841E+05 -1.134445E+05 -7.345410E+02 -3.016116E+05  5.240094E+02  1.856435E+02
        72   7 -8.077336E+05 -1.150863E+05 -1.533607E+03 -3.029217E+05  1.238167E+02  4.747483E+01
        72   8 -8.082568E+05 -1.145814E+05 -1.696597E+03 -3.023950E+05  3.258417E+02  1.115685E+02
        72   9 -8.079081E+05 -1.152681E+05 -2.064970E+03 -3.029239E+05  5.241137E+02  1.856826E+02
        72  10 -7.984012E+05 -1.115657E+05  1.039108E+03 -3.003902E+05  1.179118E-04  7.908461E-05
        72  11 -7.987667E+05 -1.109976E+05  9.200089E+02 -2.998169E+05  6.843704E-05  4.393247E-05
        72  12 -7.982602E+05 -1.116210E+05  5.958836E+02 -3.002992E+05  1.654979E-05  9.908352E-06
        72  13 -8.030674E+05 -1.133260E+05 -2.472407E+02 -3.016560E+05  3.346066E-04  8.082955E-05
        72  14 -8.035117E+05 -1.127895E+05 -3.882888E+02 -3.011060E+05  1.885409E-04  4.557792E-05
        72  15 -8.030841E+05 -1.134445E+05 -7.345419E+02 -3.016116E+05  4.248274E-05  1.031244E-05
        72  16 -8.077335E+05 -1.150863E+05 -1.533591E+03 -3.029218E+05  1.146201E-04  7.933442E-05
        72  17 -8.082568E+05 -1.145814E+05 -1.696588E+03 -3.023950E+05  6.256513E-05  4.539805E-05
        72  18 -8.079081E+05 -1.152681E+05 -2.064969E+03 -3.029239E+05  1.294671E-05  1.030591E-05
        72  19 -7.984013E+05 -1.115657E+05  1.039092E+03 -3.003902E+05 -1.245015E+02 -4.773153E+01
        72  20 -7.987667E+05 -1.109976E+05  9.200001E+02 -2.998169E+05 -3.260798E+02 -1.116577E+02
        72  21 -7.982602E+05 -1.116210E+05  5.958820E+02 -3.002992E+05 -5.239050E+02 -1.856044E+02
        72  22 -8.030674E+05 -1.133260E+05 -2.472410E+02 -3.016560E+05 -1.241587E+02 -4.760310E+01
        72  23 -8.035117E+05 -1.127895E+05 -3.882888E+02 -3.011060E+05 -3.259606E+02 -1.116130E+02
        72  24 -8.030841E+05 -1.134445E+05 -7.345416E+02 -3.016116E+05 -5.240093E+02 -1.856435E+02
        72  25 -8.077334E+05 -1.150863E+05 -1.533575E+03 -3.029218E+05 -1.238164E+02 -4.747467E+01
        72  26 -8.082567E+05 -1.145813E+05 -1.696579E+03 -3.023950E+05 -3.258416E+02 -1.115684E+02
        72  27 -8.079081E+05 -1.152681E+05 -2.064966E+03 -3.029239E+05 -5.241137E+02 -1.856826E+02
        73   1 -7.914211E+05 -1.083580E+05  2.392115E+03 -2.979756E+05  6.654613E+02  2.325066E+02
        73   2 -7.909224E+05 -1.085526E+05  1.683318E+03 -2.984221E+05  1.505758E+03  5.382849E+02
        73   3 -7.916831E+05 -1.092406E+05  2.653273E+01 -2.976719E+05  2.336376E+03  8.698501E+02
        73   4 -8.035049E+05 -1.129149E+05 -9.384678E+02 -3.012516E+05  6.649755E+02  2.323243E+02
        73   5 -8.029357E+05 -1.130938E+05 -1.629858E+03 -3.016902E+05  1.505835E+03  5.383139E+02
        73   6 -8.036258E+05 -1.137663E+05 -3.269696E+03 -3.009322E+05  2.337016E+03  8.700907E+02
        73   7 -8.155886E+05 -1.174718E+05 -4.269064E+03 -3.045276E+05  6.644897E+02  2.321420E+02
        73   8 -8.149487E+05 -1.176350E+05 -4.943047E+03 -3.049583E+05  1.505912E+03  5.383429E+02
        73   9 -8.155684E+05 -1.182919E+05 -6.565938E+03 -3.041925E+05  2.337657E+03  8.703312E+02
        73  10 -7.914211E+05 -1.083580E+05  2.392113E+03 -2.979756E+05  6.810382E-06  5.049507E-06
        73  11 -7.909225E+05 -1.085526E+05  1.683308E+03 -2.984221E+05  3.152426E-05  2.275739E-05
        73  12 -7.916831E+05 -1.092406E+05  2.651308E+01 -2.976719E+05  5.749478E-05  3.990447E-05
        73  13 -8.035049E+05 -1.129149E+05 -9.384686E+02 -3.012516E+05  2.136553E-05  5.240461E-06
        73  14 -8.029357E+05 -1.130938E+05 -1.629863E+03 -3.016902E+05  9.483315E-05  2.310686E-05
        73  15 -8.036258E+05 -1.137663E+05 -3.269707E+03 -3.009322E+05  1.682713E-04  4.101142E-05
        73  16 -8.155886E+05 -1.174718E+05 -4.269064E+03 -3.045276E+05  8.045735E-06  5.102972E-06
        73  17 -8.149487E+05 -1.176350E+05 -4.943047E+03 -3.049583E+05  3.447209E-05  2.200387E-05
        73  18 -8.155684E+05 -1.182919E+05 -6.565942E+03 -3.041925E+05  5.960491E-05  3.954393E-05
        73  19 -7.914211E+05 -1.083580E+05  2.392113E+03 -2.979756E+05 -6.654613E+02 -2.325066E+02
        73  20 -7.909225E+05 -1.085526E+05  1.683309E+03 -2.984220E+05 -1.505757E+03 -5.382849E+02
        73  21 -7.916831E+05 -1.092406E+05  2.651682E+01 -2.976719E+05 -2.336375E+03 -8.698500E+02
        73  22 -8.035049E+05 -1.129149E+05 -9.384675E+02 -3.012516E+05 -6.649755E+02 -2.323243E+02
        73  23 -8.029357E+05 -1.130938E+05 -1.629858E+03 -3.016902E+05 -1.505835E+03 -5.383139E+02
        73  24 -8.036258E+05 -1.137663E+05 -3.269696E+03 -3.009322E+05 -2.337016E+03 -8.700906E+02
        73  25 -8.155886E+05 -1.174718E+05 -4.269062E+03 -3.045276E+05 -6.644897E+02 -2.321420E+02
        73  26 -8.149487E+05 -1.176350E+05 -4.943038E+03 -3.049584E+05 -1.505912E+03 -5.383429E+02
        73  27 -8.155684E+05 -1.182919E+05 -6.565922E+03 -3.041925E+05 -2.337657E+03 -8.703311E+02
        74   1 -8.221782E+05 -1.199929E+05 -9.241381E+03 -3.066837E+05  2.945420E+03  1.124684E+03
        74   2 -8.209352E+05 -1.187215E+05 -1.216383E+04 -3.066972E+05  6.634041E+03  2.530865E+03
        74   3 -8.230590E+05 -1.253550E+05 -1.997825E+04 -3.045363E+05  1.033813E+04  3.895697E+03
        74   4 -8.037515E+05 -1.129836E+05 -4.150261E+03 -3.016263E+05  2.946361E+03  1.125037E+03
        74   5 -8.024531E+05 -1.117571E+05 -7.070941E+03 -3.016922E+05  6.634161E+03  2.530910E+03
        74   6 -8.045215E+05 -1.184352E+05 -1.488284E+04 -2.995837E+05  1.033743E+04  3.895432E+03
        74   7 -7.853245E+05 -1.059744E+05  9.408284E+02 -2.965686E+05  2.947302E+03  1.125391E+03
        74   8 -7.839708E+05 -1.047928E+05 -1.978087E+03 -2.966870E+05  6.634280E+03  2.530954E+03
        74   9 -7.859836E+05 -1.115154E+05 -9.787454E+03 -2.946311E+05  1.033673E+04  3.895168E+03
        74  10 -8.221783E+05 -1.199929E+05 -9.241409E+03 -3.066837E+05  6.840959E-05  4.690893E-05
        74  11 -8.209352E+05 -1.187215E+05 -1.216393E+04 -3.066971E+05  7.869003E-05  5.372009E-05
        74  12 -8.230592E+05 -1.253550E+05 -1.997849E+04 -3.045362E+05  8.949956E-05  6.024498E-05
        74  13 -8.037515E+05 -1.129836E+05 -4.150279E+03 -3.016263E+05  1.981784E-04  4.834791E-05
        74  14 -8.024532E+05 -1.117571E+05 -7.071036E+03 -3.016922E+05  2.275397E-04  5.561210E-05
        74  15 -8.045216E+05 -1.184352E+05 -1.488307E+04 -2.995838E+05  2.569156E-04  6.284847E-05
        74  16 -7.853245E+05 -1.059744E+05  9.408190E+02 -2.965687E+05  6.953449E-05  4.661307E-05
        74  17 -7.839708E+05 -1.047928E+05 -1.978171E+03 -2.966871E+05  7.984119E-05  5.339994E-05
        74  18 -7.859836E+05 -1.115154E+05 -9.787672E+03 -2.946311E+05  8.964414E-05  6.041778E-05
        74  19 -8.221783E+05 -1.199929E+05 -9.241400E+03 -3.066837E+05 -2.945420E+03 -1.124684E+03
        74  20 -8.209352E+05 -1.187215E+05 -1.216385E+04 -3.066971E+05 -6.634041E+03 -2.530865E+03
        74  21 -8.230591E+05 -1.253550E+05 -1.997827E+04 -3.045362E+05 -1.033813E+04 -3.895697E+03
        74  22 -8.037515E+05 -1.129836E+05 -4.150261E+03 -3.016263E+05 -2.946361E+03 -1.125037E+03
        74  23 -8.024531E+05 -1.117571E+05 -7.070941E+03 -3.016922E+05 -6.634160E+03 -2.530910E+03
        74  24 -8.045215E+05 -1.184352E+05 -1.488284E+04 -2.995837E+05 -1.033743E+04 -3.895432E+03
        74  25 -7.853244E+05 -1.059744E+05  9.408471E+02 -2.965687E+05 -2.947302E+03 -1.125391E+03
        74  26 -7.839707E+05 -1.047927E+05 -1.978066E+03 -2.966871E+05 -6.634280E+03 -2.530954E+03
        74  27 -7.859835E+05 -1.115154E+05 -9.787430E+03 -2.946312E+05 -1.033673E+04 -3.895168E+03
        75   1 -7.968470E+05 -1.094972E+05 -1.605534E+04 -3.009722E+05  1.314687E+04  4.924568E+03
        75   2 -7.892897E+05 -1.005325E+05 -2.795501E+04 -3.001239E+05  2.947957E+04  1.103571E+04
        75   3 -8.022246E+05 -1.437634E+05 -6.604241E+04 -2.871698E+05  4.580373E+04  1.717019E+04
        75   4 -8.061353E+05 -1.127258E+05 -1.856071E+04 -3.032082E+05  1.314623E+04  4.924334E+03
        75   5 -7.983551E+05 -1.040820E+05 -3.047976E+04 -3.027163E+05  2.947922E+04  1.103558E+04
        75   6 -8.110674E+05 -1.476344E+05 -6.858707E+04 -2.901186E+05  4.580368E+04  1.717013E+04
        75   7 -8.154236E+05 -1.159543E+05 -2.106609E+04 -3.054441E+05  1.314559E+04  4.924101E+03
        75   8 -8.074205E+05 -1.076315E+05 -3.300453E+04 -3.053087E+05  2.947887E+04  1.103544E+04
        75   9 -8.199101E+05 -1.515054E+05 -7.113175E+04 -2.930674E+05  4.580364E+04  1.717006E+04
        75  10 -7.968472E+05 -1.094973E+05 -1.605572E+04 -3.009722E+05  8.341193E-05  5.511648E-05
        75  11 -7.892907E+05 -1.005329E+05 -2.795688E+04 -3.001242E+05  4.822690E-05  3.067642E-05
        75  12 -8.022269E+05 -1.437643E+05 -6.604691E+04 -2.871705E+05  1.181180E-05  6.828138E-06
        75  13 -8.061355E+05 -1.127258E+05 -1.856108E+04 -3.032082E+05  2.355407E-04  5.763655E-05
        75  14 -7.983561E+05 -1.040824E+05 -3.048163E+04 -3.027166E+05  1.327140E-04  3.249943E-05
        75  15 -8.110697E+05 -1.476353E+05 -6.859158E+04 -2.901193E+05  2.990662E-05  7.346813E-06
        75  16 -8.154237E+05 -1.159544E+05 -2.106645E+04 -3.054442E+05  8.085325E-05  5.544792E-05
        75  17 -8.074214E+05 -1.076319E+05 -3.300639E+04 -3.053090E+05  4.431366E-05  3.167026E-05
        75  18 -8.199125E+05 -1.515063E+05 -7.113625E+04 -2.930680E+05  9.030547E-06  7.267440E-06
        75  19 -7.968470E+05 -1.094972E+05 -1.605536E+04 -3.009721E+05 -1.314687E+04 -4.924568E+03
        75  20 -7.892898E+05 -1.005325E+05 -2.795502E+04 -3.001239E+05 -2.947957E+04 -1.103571E+04
        75  21 -8.022246E+05 -1.437634E+05 -6.604241E+04 -2.871698E+05 -4.580373E+04 -1.717019E+04
        75  22 -8.061353E+05 -1.127258E+05 -1.856071E+04 -3.032082E+05 -1.314623E+04 -4.924334E+03
        75  23 -7.983551E+05 -1.040820E+05 -3.047976E+04 -3.027163E+05 -2.947922E+04 -1.103558E+04
        75  24 -8.110674E+05 -1.476344E+05 -6.858707E+04 -2.901186E+05 -4.580368E+04 -1.717013E+04
        75  25 -8.154235E+05 -1.159543E+05 -2.106607E+04 -3.054442E+05 -1.314559E+04 -4.924101E+03
        75  26 -8.074204E+05 -1.076315E+05 -3.300452E+04 -3.053087E+05 -2.947887E+04 -1.103544E+04
        75  27 -8.199101E+05 -1.515054E+05 -7.113174E+04 -2.930674E+05 -4.580364E+04 -1.717006E+04
        76   1 -8.127295E+05 -1.072306E+05 -8.082323E+04 -3.102520E+05  5.854833E+04  2.195853E+04
        76   2 -7.639282E+05 -5.398990E+04 -1.279115E+05 -3.092850E+05  1.307115E+05  4.905464E+04
        76   3 -8.481700E+05 -3.260469E+05 -3.181462E+05 -2.223900E+05  2.028651E+05  7.618094E+04
        76   4 -8.220537E+05 -1.090051E+05 -8.304468E+04 -3.109891E+05  5.854763E+04  2.195848E+04
        76   5 -7.712701E+05 -5.763968E+04 -1.301115E+05 -3.121811E+05  1.307107E+05  4.905412E+04
        76   6 -8.535313E+05 -3.315743E+05 -3.203259E+05 -2.274445E+05  2.028645E+05  7.617926E+04
        76   7 -8.313778E+05 -1.107795E+05 -8.526614E+04 -3.117262E+05  5.854693E+04  2.195842E+04
        76   8 -7.786120E+05 -6.128945E+04 -1.323114E+05 -3.150772E+05  1.307099E+05  4.905359E+04
        76   9 -8.588924E+05 -3.371016E+05 -3.225056E+05 -2.324990E+05  2.028639E+05  7.617758E+04
        76  10 -8.127333E+05 -1.072321E+05 -8.083059E+04 -3.102530E+05  2.919104E-07 -1.273316E-07
        76  11 -7.639472E+05 -5.399708E+04 -1.279482E+05 -3.092902E+05 -5.700905E-08  2.030045E-08
        76  12 -8.482158E+05 -3.260642E+05 -3.182346E+05 -2.224025E+05 -6.204713E-08  2.510095E-08
        76  13 -8.220575E+05 -1.090065E+05 -8.305204E+04 -3.109902E+05 -5.301252E-09  1.334606E-08
        76  14 -7.712892E+05 -5.764686E+04 -1.301482E+05 -3.121863E+05  3.123492E-09 -7.095035E-09
        76  15 -8.535771E+05 -3.315916E+05 -3.204143E+05 -2.274570E+05  4.273825E-09 -5.197691E-09
        76  16 -8.313816E+05 -1.107810E+05 -8.527350E+04 -3.117273E+05 -3.024643E-07  1.548584E-07
        76  17 -7.786310E+05 -6.129663E+04 -1.323481E+05 -3.150824E+05  6.115155E-08 -3.493473E-08
        76  18 -8.589383E+05 -3.371190E+05 -3.225940E+05 -2.325115E+05  6.573380E-08 -3.635300E-08
        76  19 -8.127295E+05 -1.072306E+05 -8.082323E+04 -3.102520E+05 -5.854833E+04 -2.195853E+04
        76  20 -7.639282E+05 -5.398990E+04 -1.279115E+05 -3.092850E+05 -1.307115E+05 -4.905464E+04
        76  21 -8.481700E+05 -3.260469E+05 -3.181462E+05 -2.223900E+05 -2.028651E+05 -7.618094E+04
        76  22 -8.220537E+05 -1.090051E+05 -8.304468E+04 -3.109891E+05 -5.854763E+04 -2.195848E+04
        76  23 -7.712701E+05 -5.763968E+04 -1.301115E+05 -3.121811E+05 -1.307107E+05 -4.905412E+04
        76  24 -8.535313E+05 -3.315743E+05 -3.203259E+05 -2.274445E+05 -2.028645E+05 -7.617926E+04
        76  25 -8.313778E+05 -1.107795E+05 -8.526614E+04 -3.117262E+05 -5.854693E+04 -2.195842E+04
        76  26 -7.786120E+05 -6.128945E+04 -1.323114E+05 -3.150772E+05 -1.307099E+05 -4.905359E+04
        76  27 -8.588924E+05 -3.371016E+05 -3.225056E+05 -2.324990E+05 -2.028639E+05 -7.617758E+04
        77   1  1.347897E+05  1.193728E+06  1.255879E+05 -9.920381E+03  7.554129E+03  5.952503E+04
        77   2  1.254142E+05  1.185025E+06  9.302970E+04 -9.196707E+03  2.653939E+04  3.320607E+04
        77   3  1.213829E+05  1.181094E+06  7.892586E+04 -8.589105E+03  3.471483E+04  6.888650E+03
        77   4  2.080498E+03  6.529707E+05  2.223959E+03 -8.445212E+03  7.556683E+03  1.491080E+03
        77   5  7.148245E+02  6.528150E+05  1.175321E+03 -8.387751E+03  2.654478E+04  8.981491E+02
        77   6  2.340596E+02  6.529727E+05  7.377062E+02 -8.445551E+03  3.471885E+04  3.061883E+02
        77   7 -1.306471E+05  1.124909E+05 -1.211464E+05 -6.971334E+03  7.558963E+03 -5.649284E+04
        77   8 -1.239992E+05  1.208845E+05 -9.068487E+04 -7.579500E+03  2.655008E+04 -3.138298E+04
        77   9 -1.209278E+05  1.251312E+05 -7.745542E+04 -8.302110E+03  3.472287E+04 -6.270911E+03
        77  10  1.347887E+05  1.193724E+06  1.255811E+05 -9.920743E+03  4.531718E-10  2.623433E-09
        77  11  1.254131E+05  1.185024E+06  9.302631E+04 -9.197417E+03  6.029098E-10 -3.135665E-09
        77  12  1.213816E+05  1.181094E+06  7.892351E+04 -8.589298E+03 -2.898878E-09 -9.499917E-09
        77  13  2.080436E+03  6.529706E+05  2.223848E+03 -8.445221E+03 -1.681367E-09 -3.666208E-11
        77  14  7.140674E+02  6.528148E+05  1.173995E+03 -8.387770E+03  1.733219E-09 -1.997618E-10
        77  15  2.327648E+02  6.529723E+05  7.354401E+02 -8.445559E+03 -2.098449E-09 -1.424180E-11
        77  16 -1.306481E+05  1.124874E+05 -1.211525E+05 -6.970990E+03  3.831633E-10 -2.608356E-09
        77  17 -1.240002E+05  1.208833E+05 -9.068805E+04 -7.578829E+03 -1.222844E-09  2.885626E-09
        77  18 -1.209291E+05  1.251308E+05 -7.745776E+04 -8.301935E+03 -1.777040E-09  9.404693E-09
        77  19  1.347897E+05  1.193728E+06  1.255879E+05 -9.920381E+03 -7.554129E+03 -5.952503E+04
        77  20  1.254142E+05  1.185025E+06  9.302970E+04 -9.196707E+03 -2.653939E+04 -3.320607E+04
        77  21  1.213829E+05  1.181094E+06  7.892586E+04 -8.589105E+03 -3.471483E+04 -6.888650E+03
        77  22  2.080498E+03  6.529707E+05  2.223959E+03 -8.445212E+03 -7.556683E+03 -1.491080E+03
        77  23  7.148245E+02  6.528150E+05  1.175321E+03 -8.387751E+03 -2.654478E+04 -8.981491E+02
        77  24  2.340596E+02  6.529727E+05  7.377062E+02 -8.445551E+03 -3.471885E+04 -3.061883E+02
        77  25 -1.306471E+05  1.124909E+05 -1.211464E+05 -6.971334E+03 -7.558963E+03  5.649284E+04
        77  26 -1.239992E+05  1.208845E+05 -9.068487E+04 -7.579500E+03 -2.655008E+04  3.138298E+04
        77  27 -1.209278E+05  1.251312E+05 -7.745542E+04 -8.302110E+03 -3.472287E+04  6.270911E+03
        78   1  1.198387E+05  1.176552E+06  7.590405E+04 -8.842585E+03  3.587546E+04  5.910122E+03
        78   2  1.177697E+05  1.169774E+06  7.256281E+04 -8.230729E+03  3.691607E+04 -8.511476E+02
        78   3  1.170357E+05  1.164223E+06  7.395554E+04 -8.611808E+03  3.523705E+04 -7.613160E+03
        78   4  1.717516E+02  6.529269E+05  6.341693E+02 -8.640619E+03  3.587968E+04  2.016734E+02
        78   5  1.036797E+02  6.528757E+05  5.797593E+02 -8.144131E+03  3.691897E+04 -8.701333E+01
        78   6  2.485876E+02  6.529291E+05  7.705479E+02 -8.640634E+03  3.523744E+04 -3.765067E+02
        78   7 -1.195077E+05  1.295788E+05 -7.463983E+04 -8.438814E+03  3.588389E+04 -5.502172E+03
        78   8 -1.175742E+05  1.362477E+05 -7.140660E+04 -8.057589E+03  3.692186E+04  6.765139E+02
        78   9 -1.165503E+05  1.418989E+05 -7.241818E+04 -8.669411E+03  3.523782E+04  6.854451E+03
        78  10  1.198373E+05  1.176551E+06  7.590157E+04 -8.842756E+03 -2.105826E-09  9.702584E-10
        78  11  1.177683E+05  1.169774E+06  7.256025E+04 -8.230704E+03 -3.900162E-09 -3.310328E-08
        78  12  1.170343E+05  1.164223E+06  7.395309E+04 -8.611592E+03 -3.091080E-09 -6.386976E-08
        78  13  1.703688E+02  6.529266E+05  6.317493E+02 -8.640624E+03 -2.071123E-09 -2.027106E-10
        78  14  1.022156E+02  6.528753E+05  5.771971E+02 -8.144129E+03  6.665668E-09 -5.976144E-10
        78  15  2.472538E+02  6.529287E+05  7.682136E+02 -8.640623E+03  1.333321E-08 -5.352174E-11
        78  16 -1.195091E+05  1.295784E+05 -7.464231E+04 -8.438655E+03 -3.243490E-09 -8.115989E-10
        78  17 -1.175757E+05  1.362474E+05 -7.140916E+04 -8.057609E+03 -3.868744E-09  3.228764E-08
        78  18 -1.165517E+05  1.418985E+05 -7.242060E+04 -8.669606E+03 -2.505411E-09  6.359336E-08
        78  19  1.198387E+05  1.176552E+06  7.590405E+04 -8.842585E+03 -3.587546E+04 -5.910122E+03
        78  20  1.177697E+05  1.169774E+06  7.256281E+04 -8.230729E+03 -3.691607E+04  8.511476E+02
        78  21  1.170357E+05  1.164223E+06  7.395554E+04 -8.611808E+03 -3.523705E+04  7.613160E+03
        78  22  1.717516E+02  6.529269E+05  6.341693E+02 -8.640619E+03 -3.587968E+04 -2.016734E+02
        78  23  1.036797E+02  6.528757E+05  5.797593E+02 -8.144131E+03 -3.691897E+04  8.701333E+01
        78  24  2.485876E+02  6.529291E+05  7.705479E+02 -8.640634E+03 -3.523744E+04  3.765067E+02
        78  25 -1.195077E+05  1.295788E+05 -7.463983E+04 -8.438814E+03 -3.588389E+04  5.502172E+03
        78  26 -1.175742E+05  1.362477E+05 -7.140660E+04 -8.057589E+03 -3.692186E+04 -6.765139E+02
        78  27 -1.165503E+05  1.418989E+05 -7.241818E+04 -8.669411E+03 -3.523782E+04 -6.854451E+03
        79   1  1.168204E+05  1.161104E+06  7.576689E+04 -8.862882E+03  3.367092E+04 -8.557082E+03
        79   2  1.180803E+05  1.152835E+06  8.730909E+04 -7.000926E+03  2.536135E+04 -3.288185E+04
        79   3  1.246585E+05  1.149069E+06  1.160004E+05 -6.947091E+03  7.179460E+03 -5.721268E+04
        79   4  3.452563E+02  6.530023E+05  9.550147E+02 -8.822045E+03  3.367052E+04 -5.071720E+02
        79   5  1.041939E+03  6.527880E+05  1.634437E+03 -7.917099E+03  2.534906E+04 -1.338688E+03
        79   6  2.984418E+03  6.530042E+05  3.167403E+03 -8.821091E+03  7.151693E+03 -2.176232E+03
        79   7 -1.161418E+05  1.451597E+05 -7.386123E+04 -8.781217E+03  3.367012E+04  7.536430E+03
        79   8 -1.160092E+05  1.529882E+05 -8.404488E+04 -8.832485E+03  2.533666E+04  3.017990E+04
        79   9 -1.187050E+05  1.571739E+05 -1.096702E+05 -1.069355E+04  7.123583E+03  5.281670E+04
        79  10  1.168191E+05  1.161104E+06  7.576462E+04 -8.862650E+03 -2.567109E-09  1.373122E-07
        79  11  1.180793E+05  1.152834E+06  8.730586E+04 -7.000254E+03 -5.074135E-09  3.651619E-08
        79  12  1.246575E+05  1.149065E+06  1.159942E+05 -6.946761E+03 -1.835962E-09 -6.848336E-08
        79  13  3.440385E+02  6.530020E+05  9.528831E+02 -8.822031E+03  9.397436E-09 -4.294753E-10
        79  14  1.041248E+03  6.527878E+05  1.633226E+03 -7.917072E+03  5.517729E-09 -9.403322E-10
        79  15  2.984361E+03  6.530042E+05  3.167298E+03 -8.821078E+03  2.846044E-10 -9.382832E-11
        79  16 -1.161431E+05  1.451594E+05 -7.386347E+04 -8.781421E+03 -5.188057E-09 -1.369740E-07
        79  17 -1.160101E+05  1.529870E+05 -8.404779E+04 -8.833101E+03 -1.227980E-09 -3.762258E-08
        79  18 -1.187058E+05  1.571709E+05 -1.096755E+05 -1.069386E+04 -1.037395E-09  6.814351E-08
        79  19  1.168204E+05  1.161104E+06  7.576689E+04 -8.862882E+03 -3.367092E+04  8.557082E+03
        79  20  1.180803E+05  1.152835E+06  8.730909E+04 -7.000926E+03 -2.536135E+04  3.288185E+04
        79  21  1.246585E+05  1.149069E+06  1.160004E+05 -6.947091E+03 -7.179460E+03  5.721268E+04
        79  22  3.452563E+02  6.530023E+05  9.550147E+02 -8.822045E+03 -3.367052E+04  5.071720E+02
        79  23  1.041939E+03  6.527880E+05  1.634437E+03 -7.917099E+03 -2.534906E+04  1.338688E+03
        79  24  2.984418E+03  6.530042E+05  3.167403E+03 -8.821091E+03 -7.151693E+03  2.176232E+03
        79  25 -1.161418E+05  1.451597E+05 -7.386123E+04 -8.781217E+03 -3.367012E+04 -7.536430E+03
        79  26 -1.160092E+05  1.529882E+05 -8.404488E+04 -8.832485E+03 -2.533666E+04 -3.017990E+04
        79  27 -1.187050E+05  1.571739E+05 -1.096702E+05 -1.069355E+04 -7.123583E+03 -5.281670E+04
        80   1 -4.267858E+06 -4.537648E+05 -5.799777E+05  6.005526E+03 -3.625671E+05 -1.208870E+03
        80   2 -4.198453E+06  4.841594E+04 -2.771918E+05 -1.555154E+04 -2.384174E+05  8.799977E+01
        80   3 -4.273493E+06 -3.712480E+04 -1.987019E+05  1.548252E+04 -1.142724E+05  3.388665E+02
        80   4 -4.074234E+06 -4.050596E+05 -5.313249E+05  1.336626E+04 -3.626135E+05 -1.213053E+03
        80   5 -4.001583E+06  9.786115E+04 -2.277491E+05 -1.367122E+04 -2.384549E+05  8.728907E+01
        80   6 -4.073326E+06  1.316021E+04 -1.484249E+05  1.188078E+04 -1.143003E+05  3.395301E+02
        80   7 -3.880575E+06 -3.563570E+05 -4.826749E+05  2.072928E+04 -3.626598E+05 -1.217236E+03
        80   8 -3.804677E+06  1.473034E+05 -1.783094E+05 -1.179031E+04 -2.384923E+05  8.657834E+01
        80   9 -3.873123E+06  6.344220E+04 -9.815093E+04  8.277889E+03 -1.143282E+05  3.401938E+02
        80  10 -4.268000E+06 -4.538004E+05 -5.802264E+05  6.005173E+03 -3.274453E-10 -1.750027E-08
        80  11 -4.198514E+06  4.840055E+04 -2.772993E+05 -1.555153E+04  1.953092E-09 -1.872853E-08
        80  12 -4.273507E+06 -3.712833E+04 -1.987267E+05  1.548255E+04 -9.251903E-10  9.508241E-08
        80  13 -4.074375E+06 -4.050951E+05 -5.315736E+05  1.336591E+04 -2.083148E-09  2.095966E-10
        80  14 -4.001644E+06  9.784576E+04 -2.278567E+05 -1.367120E+04 -6.409830E-09  1.331971E-09
        80  15 -4.073341E+06  1.315667E+04 -1.484496E+05  1.188081E+04  5.409169E-09 -3.926220E-10
        80  16 -3.880717E+06 -3.563926E+05 -4.829236E+05  2.072892E+04 -3.366025E-09  1.995420E-08
        80  17 -3.804738E+06  1.472880E+05 -1.784170E+05 -1.179029E+04 -2.549199E-09  1.926874E-08
        80  18 -3.873137E+06  6.343866E+04 -9.817564E+04  8.277921E+03  2.486119E-09 -9.914818E-08
        80  19 -4.267858E+06 -4.537648E+05 -5.799777E+05  6.005526E+03  3.625671E+05  1.208870E+03
        80  20 -4.198453E+06  4.841594E+04 -2.771918E+05 -1.555154E+04  2.384174E+05 -8.799977E+01
        80  21 -4.273493E+06 -3.712480E+04 -1.987019E+05  1.548252E+04  1.142724E+05 -3.388665E+02
        80  22 -4.074234E+06 -4.050596E+05 -5.313249E+05  1.336626E+04  3.626135E+05  1.213053E+03
        80  23 -4.001583E+06  9.786115E+04 -2.277491E+05 -1.367122E+04  2.384549E+05 -8.728907E+01
        80  24 -4.073326E+06  1.316021E+04 -1.484249E+05  1.188078E+04  1.143003E+05 -3.395301E+02
        80  25 -3.880575E+06 -3.563570E+05 -4.826749E+05  2.072928E+04  3.626598E+05  1.217236E+03
        80  26 -3.804677E+06  1.473034E+05 -1.783094E+05 -1.179031E+04  2.384923E+05 -8.657834E+01
        80  27 -3.873123E+06  6.344220E+04 -9.815093E+04  8.277889E+03  1.143282E+05 -3.401938E+02
        81   1 -3.966956E+06 -4.418267E+04 -1.037070E+05 -5.159767E+03 -8.974789E+04  1.348186E+02
        81   2 -3.953496E+06  3.592166E+04 -3.834683E+04  5.888653E+03 -5.891929E+04 -1.244679E+02
        81   3 -3.964205E+06  2.275288E+04 -1.581951E+04 -3.335096E+03 -2.809009E+04 -9.130676E+01
        81   4 -4.046865E+06 -6.425406E+04 -1.237748E+05 -4.017115E+03 -8.974825E+04  1.346679E+02
        81   5 -4.034689E+06  1.553328E+04 -5.873339E+04  6.173929E+03 -5.891615E+04 -1.244946E+02
        81   6 -4.046688E+06  2.040157E+03 -3.653116E+04 -3.907367E+03 -2.808350E+04 -9.128014E+01
        81   7 -4.126767E+06 -8.432592E+04 -1.438431E+05 -2.874609E+03 -8.974860E+04  1.345173E+02
        81   8 -4.115877E+06 -4.855595E+03 -7.912045E+04  6.459169E+03 -5.891300E+04 -1.245214E+02
        81   9 -4.129164E+06 -1.867308E+04 -5.724333E+04 -4.479561E+03 -2.807691E+04 -9.125353E+01
        81  10 -3.966965E+06 -4.418485E+04 -1.037223E+05 -5.159757E+03 -1.943971E-09 -2.293710E-08
        81  11 -3.953500E+06  3.592072E+04 -3.835340E+04  5.888647E+03  1.921064E-09 -1.224078E-07
        81  12 -3.964206E+06  2.275267E+04 -1.582100E+04 -3.335098E+03 -1.690834E-09  5.290294E-07
        81  13 -4.046873E+06 -6.425624E+04 -1.237901E+05 -4.017106E+03  3.595756E-10  5.294797E-11
        81  14 -4.034693E+06  1.553235E+04 -5.873996E+04  6.173923E+03  1.821936E-10  5.653065E-10
        81  15 -4.046689E+06  2.039943E+03 -3.653265E+04 -3.907369E+03 -9.196068E-10 -1.445395E-10
        81  16 -4.126776E+06 -8.432810E+04 -1.438584E+05 -2.874600E+03  4.583051E-09  2.697323E-08
        81  17 -4.115880E+06 -4.856534E+03 -7.912702E+04  6.459163E+03  2.736852E-09  1.281729E-07
        81  18 -4.129165E+06 -1.867330E+04 -5.724482E+04 -4.479563E+03  9.464286E-10 -5.385960E-07
        81  19 -3.966956E+06 -4.418267E+04 -1.037070E+05 -5.159767E+03  8.974789E+04 -1.348186E+02
        81  20 -3.953496E+06  3.592166E+04 -3.834683E+04  5.888653E+03  5.891929E+04  1.244679E+02
        81  21 -3.964205E+06  2.275288E+04 -1.581951E+04 -3.335096E+03  2.809009E+04  9.130676E+01
        81  22 -4.046865E+06 -6.425406E+04 -1.237748E+05 -4.017115E+03  8.974825E+04 -1.346679E+02
        81  23 -4.034689E+06  1.553328E+04 -5.873339E+04  6.173929E+03  5.891615E+04  1.244946E+02
        81  24 -4.046688E+06  2.040156E+03 -3.653116E+04 -3.907367E+03  2.808350E+04  9.128014E+01
        81  25 -4.126767E+06 -8.432592E+04 -1.438431E+05 -2.874609E+03  8.974860E+04 -1.345173E+02
        81  26 -4.115877E+06 -4.855595E+03 -7.912045E+04  6.459169E+03  5.891300E+04  1.245214E+02
        81  27 -4.129164E+06 -1.867308E+04 -5.724333E+04 -4.479561E+03  2.807691E+04  9.125353E+01
        82   1 -4.076364E+06 -1.871255E+04 -3.807978E+04  2.170060E+03 -2.212658E+04  5.079190E+00
        82   2 -4.074784E+06 -6.221958E+03 -2.380996E+04 -1.669315E+03 -1.437218E+04  6.767784E+01
        82   3 -4.077339E+06 -8.539935E+03 -1.819668E+04  2.431554E+03 -6.617829E+03  3.623687E+01
        82   4 -4.042272E+06 -1.015095E+04 -2.951849E+04  2.337207E+03 -2.212491E+04  5.074488E+00
        82   5 -4.040188E+06  2.466092E+03 -1.512271E+04 -1.635470E+03 -1.437237E+04  6.767684E+01
        82   6 -4.042237E+06  2.753533E+02 -9.381849E+03  2.332073E+03 -6.619892E+03  3.623845E+01
        82   7 -4.008180E+06 -1.589434E+03 -2.095728E+04  2.504363E+03 -2.212323E+04  5.069787E+00
        82   8 -4.005590E+06  1.115405E+04 -6.435557E+03 -1.601622E+03 -1.437257E+04  6.767583E+01
        82   9 -4.007133E+06  9.090548E+03 -5.671117E+02  2.232586E+03 -6.621955E+03  3.624004E+01
        82  10 -4.076364E+06 -1.871268E+04 -3.808071E+04  2.170074E+03  3.062720E-05  1.940425E-06
        82  11 -4.074785E+06 -6.222015E+03 -2.381035E+04 -1.669249E+03  1.359078E-04  3.272220E-06
        82  12 -4.077340E+06 -8.539947E+03 -1.819676E+04  2.431670E+03  2.411932E-04  9.899773E-07
        82  13 -4.042273E+06 -1.015108E+04 -2.951941E+04  2.337207E+03  7.658608E-05  1.685190E-08
        82  14 -4.040188E+06  2.466035E+03 -1.512310E+04 -1.635469E+03  3.397849E-04 -3.599849E-08
        82  15 -4.042237E+06  2.753417E+02 -9.381932E+03  2.332073E+03  6.029902E-04 -2.327062E-07
        82  16 -4.008180E+06 -1.589567E+03 -2.095821E+04  2.504348E+03  3.064523E-05 -1.868189E-06
        82  17 -4.005590E+06  1.115399E+04 -6.435947E+03 -1.601687E+03  1.359225E-04 -3.152841E-06
        82  18 -4.007134E+06  9.090536E+03 -5.671945E+02  2.232471E+03  2.411977E-04 -1.143093E-06
        82  19 -4.076364E+06 -1.871255E+04 -3.807978E+04  2.170089E+03  2.212658E+04 -5.079186E+00
        82  20 -4.074784E+06 -6.221960E+03 -2.380996E+04 -1.669185E+03  1.437218E+04 -6.767783E+01
        82  21 -4.077339E+06 -8.539936E+03 -1.819668E+04  2.431786E+03  6.617830E+03 -3.623686E+01
        82  22 -4.042272E+06 -1.015095E+04 -2.951849E+04  2.337207E+03  2.212491E+04 -5.074488E+00
        82  23 -4.040188E+06  2.466091E+03 -1.512271E+04 -1.635470E+03  1.437237E+04 -6.767684E+01
        82  24 -4.042237E+06  2.753538E+02 -9.381848E+03  2.332073E+03  6.619893E+03 -3.623845E+01
        82  25 -4.008180E+06 -1.589435E+03 -2.095728E+04  2.504333E+03  2.212323E+04 -5.069791E+00
        82  26 -4.005590E+06  1.115405E+04 -6.435557E+03 -1.601753E+03  1.437257E+04 -6.767584E+01
        82  27 -4.007133E+06  9.090548E+03 -5.671114E+02  2.232355E+03  6.621956E+03 -3.624004E+01
        83   1 -4.024452E+06  2.696291E+03 -3.328684E+03 -1.898561E+01 -5.085927E+03 -6.495116E+00
        83   2 -4.023873E+06  4.767133E+03 -3.442081E+02  1.260134E+03 -2.732991E+03 -3.396445E+01
        83   3 -4.024125E+06  4.172831E+03  4.638132E+02  2.836193E+01 -3.800050E+02 -1.520413E+01
        83   4 -4.041508E+06 -1.586936E+03 -7.611790E+03  1.029023E+01 -5.087013E+03 -6.494859E+00
        83   5 -4.041090E+06  4.437227E+02 -4.667194E+03  1.266078E+03 -2.733031E+03 -3.396451E+01
        83   6 -4.041503E+06 -1.909903E+02 -3.899824E+03  1.096926E+01 -3.789982E+02 -1.520414E+01
        83   7 -4.058565E+06 -5.870185E+03 -1.189492E+04  3.956530E+01 -5.088101E+03 -6.494601E+00
        83   8 -4.058307E+06 -3.879710E+03 -8.990202E+03  1.272022E+03 -2.733071E+03 -3.396458E+01
        83   9 -4.058880E+06 -4.554834E+03 -8.263484E+03 -6.422919E+00 -3.779913E+02 -1.520414E+01
        83  10 -4.024452E+06  2.696284E+03 -3.328733E+03 -1.887198E+01  2.368076E-04 -1.571636E-06
        83  11 -4.023873E+06  4.767132E+03 -3.442221E+02  1.260190E+03  1.164339E-04 -3.651602E-06
        83  12 -4.024125E+06  4.172831E+03  4.638129E+02  2.836003E+01 -3.946243E-06 -2.457867E-06
        83  13 -4.041509E+06 -1.586943E+03 -7.611840E+03  1.029021E+01  5.920026E-04 -2.396350E-07
        83  14 -4.041090E+06  4.437214E+02 -4.667208E+03  1.266078E+03  2.910508E-04 -7.177870E-09
        83  15 -4.041503E+06 -1.909901E+02 -3.899825E+03  1.096925E+01 -9.908900E-06  1.458765E-07
        83  16 -4.058565E+06 -5.870192E+03 -1.189497E+04  3.945162E+01  2.367951E-04  1.330838E-06
        83  17 -4.058307E+06 -3.879711E+03 -8.990216E+03  1.271966E+03  1.164079E-04  3.494464E-06
        83  18 -4.058880E+06 -4.554833E+03 -8.263484E+03 -6.421035E+00 -3.980352E-06  2.239101E-06
        83  19 -4.024452E+06  2.696292E+03 -3.328684E+03 -1.875831E+01  5.085927E+03  6.495114E+00
        83  20 -4.023873E+06  4.767136E+03 -3.442079E+02  1.260246E+03  2.732991E+03  3.396444E+01
        83  21 -4.024125E+06  4.172832E+03  4.638132E+02  2.835814E+01  3.800050E+02  1.520413E+01
        83  22 -4.041508E+06 -1.586936E+03 -7.611792E+03  1.029024E+01  5.087015E+03  6.494858E+00
        83  23 -4.041090E+06  4.437242E+02 -4.667195E+03  1.266078E+03  2.733031E+03  3.396451E+01
        83  24 -4.041503E+06 -1.909898E+02 -3.899825E+03  1.096926E+01  3.789981E+02  1.520414E+01
        83  25 -4.058565E+06 -5.870185E+03 -1.189492E+04  3.933800E+01  5.088101E+03  6.494603E+00
        83  26 -4.058307E+06 -3.879708E+03 -8.990202E+03  1.271910E+03  2.733071E+03  3.396458E+01
        83  27 -4.058880E+06 -4.554833E+03 -8.263484E+03 -6.419140E+00  3.779913E+02  1.520415E+01
        84   1 -4.055913E+06 -3.822001E+03 -7.511649E+03  3.758267E+02  3.232020E+02  1.111538E+01
        84   2 -4.055437E+06 -3.170841E+03 -8.220116E+03  7.933458E+02  2.652233E+03  2.834391E+01
        84   3 -4.055818E+06 -5.125403E+03 -1.108335E+04  4.190848E+02  4.981253E+03  7.169325E+00
        84   4 -4.041508E+06 -2.045565E+02 -3.894339E+03  3.929534E+02  3.240760E+02  1.111540E+01
        84   5 -4.041083E+06  4.338442E+02 -4.615784E+03  7.885778E+02  2.652237E+03  2.834385E+01
        84   6 -4.041514E+06 -1.533288E+03 -7.491352E+03  3.924232E+02  4.980388E+03  7.169428E+00
        84   7 -4.027103E+06  3.412872E+03 -2.770440E+02  4.100806E+02  3.249502E+02  1.111541E+01
        84   8 -4.026728E+06  4.038514E+03 -1.011467E+03  7.838097E+02  2.652241E+03  2.834380E+01
        84   9 -4.027210E+06  2.058810E+03 -3.899373E+03  3.657609E+02  4.979522E+03  7.169527E+00
        84  10 -4.055913E+06 -3.822000E+03 -7.511649E+03  3.758027E+02 -5.005387E-05 -1.543687E-06
        84  11 -4.055437E+06 -3.170842E+03 -8.220129E+03  7.933034E+02 -8.818174E-05 -1.494882E-06
        84  12 -4.055818E+06 -5.125408E+03 -1.108339E+04  4.190241E+02 -1.263431E-04 -1.008169E-06
        84  13 -4.041508E+06 -2.045562E+02 -3.894339E+03  3.929534E+02 -1.252298E-04  2.788346E-07
        84  14 -4.041083E+06  4.338425E+02 -4.615797E+03  7.885777E+02 -2.205769E-04  6.550917E-07
        84  15 -4.041514E+06 -1.533295E+03 -7.491399E+03  3.924232E+02 -3.159242E-04  1.060037E-06
        84  16 -4.027103E+06  3.412872E+03 -2.770443E+02  4.101046E+02 -5.013143E-05  1.115564E-06
        84  17 -4.026728E+06  4.038511E+03 -1.011481E+03  7.838520E+02 -8.827998E-05  5.496134E-07
        84  18 -4.027210E+06  2.058802E+03 -3.899420E+03  3.658216E+02 -1.263969E-04 -3.985523E-07
        84  19 -4.055913E+06 -3.821999E+03 -7.511648E+03  3.757786E+02 -3.232021E+02 -1.111539E+01
        84  20 -4.055437E+06 -3.170839E+03 -8.220115E+03  7.932611E+02 -2.652233E+03 -2.834391E+01
        84  21 -4.055818E+06 -5.125399E+03 -1.108335E+04  4.189635E+02 -4.981254E+03 -7.169327E+00
        84  22 -4.041508E+06 -2.045559E+02 -3.894339E+03  3.929534E+02 -3.240763E+02 -1.111540E+01
        84  23 -4.041083E+06  4.338446E+02 -4.615784E+03  7.885778E+02 -2.652237E+03 -2.834385E+01
        84  24 -4.041514E+06 -1.533289E+03 -7.491353E+03  3.924232E+02 -4.980388E+03 -7.169426E+00
        84  25 -4.027103E+06  3.412872E+03 -2.770442E+02  4.101286E+02 -3.249503E+02 -1.111540E+01
        84  26 -4.026728E+06  4.038513E+03 -1.011468E+03  7.838944E+02 -2.652242E+03 -2.834380E+01
        84  27 -4.027210E+06  2.058807E+03 -3.899374E+03  3.658823E+02 -4.979523E+03 -7.169528E+00
        85   1 -4.018381E+06  6.256859E+03 -3.242512E+03  1.534777E+03  6.493467E+03 -2.430229E+01
        85   2 -4.016534E+06  8.328906E+03 -8.924818E+03 -7.239562E+02  1.410766E+04 -4.707407E+01
        85   3 -4.019023E+06 -4.028785E+03 -2.314026E+04  1.784176E+03  2.172168E+04 -5.677680E+00
        85   4 -4.042282E+06  2.546721E+02 -9.244388E+03  1.627495E+03  6.492041E+03 -2.430099E+01
        85   5 -4.040131E+06  2.403397E+03 -1.484978E+04 -7.545554E+02  1.410751E+04 -4.707488E+01
        85   6 -4.042315E+06 -9.878148E+03 -2.898943E+04  1.630272E+03  2.172281E+04 -5.682616E+00
        85   7 -4.066183E+06 -5.747559E+03 -1.524631E+04  1.720210E+03  6.490616E+03 -2.429969E+01
        85   8 -4.063727E+06 -3.522156E+03 -2.077479E+04 -7.851535E+02  1.410736E+04 -4.707570E+01
        85   9 -4.065607E+06 -1.572755E+04 -3.483864E+04  1.476374E+03  2.172395E+04 -5.687552E+00
        85  10 -4.018381E+06  6.256849E+03 -3.242592E+03  1.534718E+03 -1.220133E-04 -1.156906E-07
        85  11 -4.016534E+06  8.328853E+03 -8.925195E+03 -7.239887E+02 -6.879336E-05  1.176105E-06
        85  12 -4.019023E+06 -4.028913E+03 -2.314116E+04  1.784169E+03 -1.553818E-05  8.508765E-07
        85  13 -4.042282E+06  2.546608E+02 -9.244468E+03  1.627495E+03 -3.049409E-04  1.028579E-06
        85  14 -4.040131E+06  2.403342E+03 -1.485016E+04 -7.545549E+02 -1.718352E-04  5.423322E-07
        85  15 -4.042316E+06 -9.878275E+03 -2.899032E+04  1.630272E+03 -3.873260E-05  1.098813E-07
        85  16 -4.066183E+06 -5.747572E+03 -1.524639E+04  1.720269E+03 -1.219378E-04 -1.291644E-06
        85  17 -4.063727E+06 -3.522211E+03 -2.077517E+04 -7.851199E+02 -6.867027E-05 -2.045423E-06
        85  18 -4.065608E+06 -1.572768E+04 -3.483953E+04  1.476382E+03 -1.544396E-05 -1.065120E-06
        85  19 -4.018381E+06  6.256862E+03 -3.242511E+03  1.534659E+03 -6.493467E+03  2.430229E+01
        85  20 -4.016534E+06  8.328907E+03 -8.924818E+03 -7.240222E+02 -1.410766E+04  4.707407E+01
        85  21 -4.019023E+06 -4.028785E+03 -2.314026E+04  1.784161E+03 -2.172168E+04  5.677682E+00
        85  22 -4.042282E+06  2.546723E+02 -9.244388E+03  1.627495E+03 -6.492042E+03  2.430099E+01
        85  23 -4.040131E+06  2.403396E+03 -1.484978E+04 -7.545554E+02 -1.410751E+04  4.707488E+01
        85  24 -4.042315E+06 -9.878148E+03 -2.898943E+04  1.630272E+03 -2.172281E+04  5.682616E+00
        85  25 -4.066183E+06 -5.747562E+03 -1.524631E+04  1.720327E+03 -6.490617E+03  2.429969E+01
        85  26 -4.063727E+06 -3.522159E+03 -2.077479E+04 -7.850875E+02 -1.410736E+04  4.707570E+01
        85  27 -4.065607E+06 -1.572755E+04 -3.483864E+04  1.476389E+03 -2.172395E+04  5.687550E+00
        86   1 -4.100566E+06 -1.152163E+04 -4.943347E+04 -2.822480E+03  2.759306E+04  5.770577E+01
        86   2 -4.087080E+06  1.977654E+03 -7.085199E+04  4.391506E+03  5.786274E+04  7.897409E+01
        86   3 -4.099097E+06 -7.596496E+04 -1.346576E+05 -1.292595E+03  8.813246E+04 -8.880520E+01
        86   4 -4.046985E+06  1.934646E+03 -3.597784E+04 -2.278179E+03  2.759733E+04  5.773026E+01
        86   5 -4.034317E+06  1.522794E+04 -5.760290E+04  4.134562E+03  5.786475E+04  7.895025E+01
        86   6 -4.047150E+06 -6.291604E+04 -1.216109E+05 -2.350725E+03  8.813217E+04 -8.894959E+01
        86   7 -3.993400E+06  1.539070E+04 -2.252242E+04 -1.733831E+03  2.760159E+04  5.775475E+01
        86   8 -3.981552E+06  2.847802E+04 -4.435402E+04  3.877596E+03  5.786676E+04  7.892641E+01
        86   9 -3.995201E+06 -4.986732E+04 -1.085645E+05 -3.408944E+03  8.813188E+04 -8.909397E+01
        86  10 -4.100567E+06 -1.152183E+04 -4.943491E+04 -2.822481E+03 -1.036831E-08  2.776532E-07
        86  11 -4.087083E+06  1.976748E+03 -7.085833E+04  4.391502E+03  1.579442E-09 -6.559954E-08
        86  12 -4.099105E+06 -7.596706E+04 -1.346722E+05 -1.292589E+03  1.585224E-09 -1.762113E-08
        86  13 -4.046985E+06  1.934440E+03 -3.597928E+04 -2.278180E+03 -1.584692E-09 -1.837060E-09
        86  14 -4.034321E+06  1.522704E+04 -5.760923E+04  4.134558E+03  5.230987E-09  5.751930E-09
        86  15 -4.047159E+06 -6.291814E+04 -1.216256E+05 -2.350719E+03  2.290956E-09  1.648613E-10
        86  16 -3.993401E+06  1.539050E+04 -2.252386E+04 -1.733832E+03  8.951491E-09 -2.876139E-07
        86  17 -3.981555E+06  2.847711E+04 -4.436035E+04  3.877592E+03 -5.720036E-10  7.083088E-08
        86  18 -3.995210E+06 -4.986942E+04 -1.085792E+05 -3.408938E+03  1.608988E-10  4.301185E-09
        86  19 -4.100566E+06 -1.152163E+04 -4.943347E+04 -2.822480E+03 -2.759306E+04 -5.770577E+01
        86  20 -4.087080E+06  1.977654E+03 -7.085199E+04  4.391506E+03 -5.786274E+04 -7.897409E+01
        86  21 -4.099097E+06 -7.596496E+04 -1.346576E+05 -1.292595E+03 -8.813246E+04  8.880520E+01
        86  22 -4.046985E+06  1.934646E+03 -3.597784E+04 -2.278179E+03 -2.759733E+04 -5.773026E+01
        86  23 -4.034317E+06  1.522794E+04 -5.760290E+04  4.134562E+03 -5.786475E+04 -7.895025E+01
        86  24 -4.047150E+06 -6.291604E+04 -1.216109E+05 -2.350725E+03 -8.813217E+04  8.894959E+01
        86  25 -3.993400E+06  1.539070E+04 -2.252242E+04 -1.733831E+03 -2.760159E+04 -5.775475E+01
        86  26 -3.981552E+06  2.847802E+04 -4.435402E+04  3.877596E+03 -5.786676E+04 -7.892640E+01
        86  27 -3.995201E+06 -4.986732E+04 -1.085645E+05 -3.408944E+03 -8.813188E+04  8.909397E+01
        87   1 -3.946290E+06  4.498832E+04 -1.139856E+05  4.404347E+03  1.124014E+05 -2.236678E+02
        87   2 -3.872271E+06  1.283353E+05 -1.912028E+05 -6.823818E+03  2.342588E+05 -7.133468E+01
        87   3 -3.951326E+06 -3.675197E+05 -4.912812E+05  1.566508E+04  3.561210E+05  7.509280E+02
        87   4 -4.075276E+06  1.259115E+04 -1.463774E+05  7.831203E+03  1.123837E+05 -2.230450E+02
        87   5 -3.999145E+06  9.647684E+04 -2.230599E+05 -8.567229E+03  2.342351E+05 -7.199062E+01
        87   6 -4.076119E+06 -3.989021E+05 -5.226318E+05  8.752374E+03  3.560918E+05  7.469962E+02
        87   7 -4.204247E+06 -1.980725E+04 -1.787705E+05  1.125735E+04  1.123659E+05 -2.224223E+02
        87   8 -4.126004E+06  6.461715E+04 -2.549181E+05 -1.031029E+04  2.342114E+05 -7.264655E+01
        87   9 -4.200897E+06 -4.302854E+05 -5.539835E+05  1.841061E+03  3.560626E+05  7.430643E+02
        87  10 -3.946304E+06  4.498490E+04 -1.140095E+05  4.404368E+03  2.451040E-10  4.557474E-08
        87  11 -3.872330E+06  1.283205E+05 -1.913066E+05 -6.823805E+03  3.847671E-09  1.962243E-10
        87  12 -3.951463E+06 -3.675540E+05 -4.915211E+05  1.566486E+04  2.513542E-09 -7.844209E-09
        87  13 -4.075290E+06  1.258773E+04 -1.464013E+05  7.831223E+03  6.850868E-11  1.624615E-09
        87  14 -3.999204E+06  9.646199E+04 -2.231637E+05 -8.567216E+03  2.372366E-09  7.715395E-09
        87  15 -4.076256E+06 -3.989364E+05 -5.228716E+05  8.752160E+03 -1.490546E-09  3.033807E-09
        87  16 -4.204261E+06 -1.981067E+04 -1.787944E+05  1.125737E+04  1.982101E-09 -4.617661E-08
        87  17 -4.126063E+06  6.460230E+04 -2.550219E+05 -1.031027E+04  8.996129E-10  1.244653E-08
        87  18 -4.201034E+06 -4.303198E+05 -5.542233E+05  1.840847E+03 -1.367268E-10  1.388142E-08
        87  19 -3.946290E+06  4.498832E+04 -1.139856E+05  4.404347E+03 -1.124014E+05  2.236678E+02
        87  20 -3.872271E+06  1.283353E+05 -1.912028E+05 -6.823818E+03 -2.342588E+05  7.133468E+01
        87  21 -3.951326E+06 -3.675197E+05 -4.912812E+05  1.566508E+04 -3.561210E+05 -7.509280E+02
        87  22 -4.075276E+06  1.259115E+04 -1.463774E+05  7.831203E+03 -1.123837E+05  2.230450E+02
        87  23 -3.999145E+06  9.647684E+04 -2.230599E+05 -8.567229E+03 -2.342351E+05  7.199062E+01
        87  24 -4.076119E+06 -3.989021E+05 -5.226318E+05  8.752374E+03 -3.560918E+05 -7.469962E+02
        87  25 -4.204247E+06 -1.980725E+04 -1.787705E+05  1.125735E+04 -1.123659E+05  2.224223E+02
        87  26 -4.126004E+06  6.461715E+04 -2.549181E+05 -1.031029E+04 -2.342114E+05  7.264655E+01
        87  27 -4.200897E+06 -4.302854E+05 -5.539835E+05  1.841061E+03 -3.560626E+05 -7.430643E+02
        88   1  2.148320E+05 -2.942233E+05  2.566835E+05  9.079947E+02 -4.800007E+02  1.270004E+05
        88   2  3.701724E+04 -3.432374E+05  1.447344E+05  3.802356E+03 -2.289628E+02  8.593476E+04
        88   3  6.645496E+04 -2.949133E+05  1.193853E+05  1.924631E+03 -3.025313E+02  4.486703E+04
        88   4  1.431511E+05 -5.806733E+05  1.850381E+05  4.388589E+03 -4.792775E+02  1.269556E+05
        88   5 -3.459138E+04 -6.293817E+05  7.316440E+04  6.351600E+03 -2.286780E+02  8.591432E+04
        88   6 -5.043252E+03 -5.807414E+05  4.789851E+04  3.542724E+03 -3.026528E+02  4.487095E+04
        88   7  7.146401E+04 -8.670489E+05  1.133865E+05  7.867678E+03 -4.785545E+02  1.269108E+05
        88   8 -1.062062E+05 -9.154518E+05  1.588168E+03  8.899835E+03 -2.283932E+02  8.589389E+04
        88   9 -7.654763E+04 -8.664954E+05 -2.359444E+04  5.160306E+03 -3.027743E+02  4.487486E+04
        88  10  2.148277E+05 -2.942406E+05  2.566532E+05  9.080438E+02  5.408853E-10  4.565207E-11
        88  11  3.701526E+04 -3.432454E+05  1.447206E+05  3.802372E+03 -1.502824E-09  2.239112E-11
        88  12  6.645442E+04 -2.949155E+05  1.193815E+05  1.924642E+03  1.436745E-09 -1.010079E-10
        88  13  1.431468E+05 -5.806906E+05  1.850078E+05  4.388638E+03  1.277005E-09  8.531543E-11
        88  14 -3.459336E+04 -6.293897E+05  7.315051E+04  6.351615E+03  4.242850E-09  5.903370E-11
        88  15 -5.043794E+03 -5.807436E+05  4.789472E+04  3.542735E+03  1.041549E-09  1.566184E-10
        88  16  7.145968E+04 -8.670662E+05  1.133562E+05  7.867726E+03 -5.361619E-10 -1.142203E-10
        88  17 -1.062082E+05 -9.154597E+05  1.574284E+03  8.899851E+03  1.801244E-09 -3.089488E-11
        88  18 -7.654817E+04 -8.664976E+05 -2.359823E+04  5.160317E+03  3.258000E-09  8.799925E-11
        88  19  2.148320E+05 -2.942233E+05  2.566835E+05  9.079947E+02  4.800007E+02 -1.270004E+05
        88  20  3.701724E+04 -3.432374E+05  1.447344E+05  3.802356E+03  2.289628E+02 -8.593476E+04
        88  21  6.645496E+04 -2.949133E+05  1.193853E+05  1.924631E+03  3.025313E+02 -4.486703E+04
        88  22  1.431511E+05 -5.806733E+05  1.850381E+05  4.388589E+03  4.792775E+02 -1.269556E+05
        88  23 -3.459138E+04 -6.293817E+05  7.316440E+04  6.351600E+03  2.286780E+02 -8.591432E+04
        88  24 -5.043252E+03 -5.807414E+05  4.789851E+04  3.542724E+03  3.026528E+02 -4.487095E+04
        88  25  7.146401E+04 -8.670489E+05  1.133865E+05  7.867678E+03  4.785545E+02 -1.269108E+05
        88  26 -1.062062E+05 -9.154518E+05  1.588168E+03  8.899835E+03  2.283932E+02 -8.589389E+04
        88  27 -7.654763E+04 -8.664954E+05 -2.359444E+04  5.160306E+03  3.027743E+02 -4.487486E+04
        89   1 -4.109331E+03 -7.027623E+05  9.732509E+03  1.516925E+03 -5.079698E+02  3.700197E+04
        89   2 -2.783934E+04 -7.080608E+05 -1.789095E+04  1.143834E+04 -5.827359E+02  3.275008E+04
        89   3 -4.047896E+04 -7.053730E+05 -3.903904E+04  1.050589E+03 -5.100495E+02  2.850035E+04
        89   4  2.146753E+04 -6.005690E+05  3.530089E+04  6.993612E+02 -5.080794E+02  3.701111E+04
        89   5 -1.936442E+03 -6.045634E+05  8.001383E+03  1.063410E+04 -5.827874E+02  3.275509E+04
        89   6 -1.424985E+04 -6.005706E+05 -1.282042E+04  2.598896E+02 -5.100542E+02  2.850123E+04
        89   7  4.704360E+04 -4.983662E+05  6.086847E+04 -1.183052E+02 -5.081891E+02  3.702026E+04
        89   8  2.396565E+04 -5.010562E+05  3.389290E+04  9.829765E+03 -5.828390E+02  3.276010E+04
        89   9  1.197842E+04 -4.957583E+05  1.339737E+04 -5.309170E+02 -5.100589E+02  2.850210E+04
        89  10 -4.109700E+03 -7.027638E+05  9.729932E+03  1.516940E+03  3.666721E-09 -1.497935E-11
        89  11 -2.783963E+04 -7.080620E+05 -1.789297E+04  1.143836E+04  7.486299E-10 -8.929945E-11
        89  12 -4.047918E+04 -7.053739E+05 -3.904057E+04  1.050601E+03  3.629014E-09 -1.258240E-10
        89  13  2.146716E+04 -6.005705E+05  3.529831E+04  6.993763E+02  4.620957E-09  1.010710E-10
        89  14 -1.936731E+03 -6.045645E+05  7.999364E+03  1.063412E+04  4.793772E-09  1.633540E-10
        89  15 -1.425007E+04 -6.005715E+05 -1.282195E+04  2.599013E+02  3.421959E-09  7.216268E-11
        89  16  4.704323E+04 -4.983677E+05  6.086589E+04 -1.182901E+02 -9.141548E-10  4.797544E-11
        89  17  2.396536E+04 -5.010574E+05  3.389089E+04  9.829780E+03  3.846661E-09  4.208551E-11
        89  18  1.197820E+04 -4.957592E+05  1.339584E+04 -5.309053E+02  3.795027E-10  8.852147E-11
        89  19 -4.109331E+03 -7.027623E+05  9.732509E+03  1.516925E+03  5.079698E+02 -3.700197E+04
        89  20 -2.783934E+04 -7.080608E+05 -1.789095E+04  1.143834E+04  5.827359E+02 -3.275008E+04
        89  21 -4.047896E+04 -7.053730E+05 -3.903904E+04  1.050589E+03  5.100495E+02 -2.850035E+04
        89  22  2.146753E+04 -6.005690E+05  3.530089E+04  6.993612E+02  5.080794E+02 -3.701111E+04
        89  23 -1.936442E+03 -6.045634E+05  8.001383E+03  1.063410E+04  5.827874E+02 -3.275509E+04
        89  24 -1.424985E+04 -6.005706E+05 -1.282042E+04  2.598896E+02  5.100542E+02 -2.850123E+04
        89  25  4.704360E+04 -4.983662E+05  6.086847E+04 -1.183052E+02  5.081891E+02 -3.702026E+04
        89  26  2.396565E+04 -5.010562E+05  3.389290E+04  9.829765E+03  5.828390E+02 -3.276010E+04
        89  27  1.197842E+04 -4.957583E+05  1.339737E+04 -5.309170E+02  5.100589E+02 -2.850210E+04
        90   1 -5.706450E+04 -8.570937E+05 -8.285864E+04  1.002665E+04 -6.058067E+02  3.115665E+04
        90   2 -4.544071E+04 -8.571925E+05 -1.073344E+05  2.764893E+03 -8.131807E+02  5.446568E+04
        90   3 -1.433948E+05 -8.557232E+05 -1.679858E+05  6.444436E+03 -4.078773E+02  7.777887E+04
        90   4  6.799755E+03 -6.019900E+05 -1.902728E+04  7.550926E+03 -6.059818E+02  3.117250E+04
        90   5  1.820918E+04 -6.028095E+05 -4.369189E+04  1.927974E+03 -8.131970E+02  5.447520E+04
        90   6 -7.992874E+04 -6.020405E+05 -1.045148E+05  7.246050E+03 -4.077102E+02  7.778202E+04
        90   7  7.065910E+04 -3.468273E+05  4.479915E+04  5.074327E+03 -6.061570E+02  3.118836E+04
        90   8  8.185418E+04 -3.483677E+05  1.994572E+04  1.090803E+03 -8.132134E+02  5.448471E+04
        90   9 -1.646753E+04 -3.482994E+05 -4.104862E+04  8.048035E+03 -4.075432E+02  7.778517E+04
        90  10 -5.706476E+04 -8.570947E+05 -8.286046E+04  1.002666E+04 -5.354059E-09 -1.420459E-10
        90  11 -4.544151E+04 -8.571957E+05 -1.073400E+05  2.764929E+03 -6.461750E-09 -1.668455E-11
        90  12 -1.433964E+05 -8.557297E+05 -1.679972E+05  6.444461E+03 -5.615660E-10  1.448668E-10
        90  13  6.799494E+03 -6.019910E+05 -1.902911E+04  7.550942E+03 -5.599112E-09 -8.605720E-11
        90  14  1.820838E+04 -6.028127E+05 -4.369747E+04  1.928010E+03 -4.753235E-09 -2.106054E-11
        90  15 -7.993037E+04 -6.020470E+05 -1.045262E+05  7.246075E+03 -2.815796E-09 -2.468852E-11
        90  16  7.065884E+04 -3.468283E+05  4.479732E+04  5.074342E+03 -1.585513E-09  1.366436E-10
        90  17  8.185338E+04 -3.483709E+05  1.994014E+04  1.090838E+03 -4.335074E-09 -1.783182E-10
        90  18 -1.646916E+04 -3.483059E+05 -4.106000E+04  8.048061E+03 -1.166604E-09 -1.571092E-10
        90  19 -5.706450E+04 -8.570937E+05 -8.285864E+04  1.002665E+04  6.058067E+02 -3.115665E+04
        90  20 -4.544071E+04 -8.571925E+05 -1.073344E+05  2.764893E+03  8.131807E+02 -5.446568E+04
        90  21 -1.433948E+05 -8.557232E+05 -1.679858E+05  6.444436E+03  4.078773E+02 -7.777887E+04
        90  22  6.799755E+03 -6.019900E+05 -1.902728E+04  7.550926E+03  6.059818E+02 -3.117250E+04
        90  23  1.820918E+04 -6.028095E+05 -4.369189E+04  1.927974E+03  8.131970E+02 -5.447520E+04
        90  24 -7.992874E+04 -6.020405E+05 -1.045148E+05  7.246050E+03  4.077102E+02 -7.778202E+04
        90  25  7.065910E+04 -3.468273E+05  4.479915E+04  5.074327E+03  6.061570E+02 -3.118836E+04
        90  26  8.185418E+04 -3.483677E+05  1.994572E+04  1.090803E+03  8.132134E+02 -5.448471E+04
        90  27 -1.646753E+04 -3.482994E+05 -4.104862E+04  8.048035E+03  4.075432E+02 -7.778517E+04
        91   1 -6.699602E+06 -2.177353E+06 -1.340194E+06 -2.407464E+06 -6.618526E+05 -2.338599E+05
        91   2 -6.548002E+06 -1.207233E+06 -7.323596E+05 -2.487713E+06 -4.285075E+05 -1.097281E+05
        91   3 -6.733153E+06 -1.140184E+06 -5.487782E+05 -2.370148E+06 -1.829628E+05 -1.763895E+04
        91   4 -5.625837E+06 -1.518881E+06 -9.974711E+05 -1.860336E+06 -6.363310E+05 -2.245027E+05
        91   5 -5.405283E+06 -7.003966E+05 -4.187743E+05 -2.098697E+06 -4.205298E+05 -1.067746E+05
        91   6 -5.517377E+06 -7.806118E+05 -2.497592E+05 -2.139445E+06 -1.925166E+05 -2.122424E+04
        91   7 -4.550783E+06 -8.596449E+05 -6.548506E+05 -1.312158E+06 -6.107600E+05 -2.151005E+05
        91   8 -4.261262E+06 -1.933294E+05 -1.053080E+05 -1.708975E+06 -4.125352E+05 -1.038122E+05
        91   9 -4.300136E+06 -4.210611E+05  4.915624E+04 -1.908390E+06 -2.020909E+05 -2.481342E+04
        91  10 -6.700092E+06 -2.177532E+06 -1.341132E+06 -2.407590E+06  2.251104E-09  1.002481E-10
        91  11 -6.548204E+06 -1.207296E+06 -7.327317E+05 -2.487752E+06 -2.103414E-11 -4.919689E-10
        91  12 -6.733189E+06 -1.140194E+06 -5.488424E+05 -2.370151E+06  1.318307E-09 -8.282104E-10
        91  13 -5.626289E+06 -1.519046E+06 -9.983355E+05 -1.860452E+06 -8.506472E-10  1.278325E-12
        91  14 -5.405477E+06 -7.004570E+05 -4.191316E+05 -2.098734E+06  1.981960E-09 -2.942264E-10
        91  15 -5.517417E+06 -7.806224E+05 -2.498304E+05 -2.139448E+06 -2.345518E-09  2.465983E-10
        91  16 -4.551199E+06 -8.597960E+05 -6.556448E+05 -1.312265E+06  8.272044E-10 -1.105909E-10
        91  17 -4.261449E+06 -1.933872E+05 -1.056508E+05 -1.709009E+06 -8.347748E-10 -5.193659E-11
        91  18 -4.300180E+06 -4.210729E+05  4.907775E+04 -1.908394E+06 -3.424287E-09  5.319195E-10
        91  19 -6.699602E+06 -2.177353E+06 -1.340194E+06 -2.407464E+06  6.618526E+05  2.338599E+05
        91  20 -6.548002E+06 -1.207233E+06 -7.323596E+05 -2.487713E+06  4.285075E+05  1.097281E+05
        91  21 -6.733153E+06 -1.140184E+06 -5.487782E+05 -2.370148E+06  1.829628E+05  1.763895E+04
        91  22 -5.625837E+06 -1.518881E+06 -9.974711E+05 -1.860336E+06  6.363310E+05  2.245027E+05
        91  23 -5.405283E+06 -7.003966E+05 -4.187743E+05 -2.098697E+06  4.205298E+05  1.067746E+05
        91  24 -5.517377E+06 -7.806118E+05 -2.497592E+05 -2.139445E+06  1.925166E+05  2.122424E+04
        91  25 -4.550783E+06 -8.596449E+05 -6.548506E+05 -1.312158E+06  6.107600E+05  2.151005E+05
        91  26 -4.261262E+06 -1.933294E+05 -1.053080E+05 -1.708975E+06  4.125352E+05  1.038122E+05
        91  27 -4.300136E+06 -4.210611E+05  4.915624E+04 -1.908390E+06  2.020909E+05  2.481342E+04
        92   1 -6.526897E+06 -1.298354E+06 -4.805237E+05 -2.393183E+06 -1.555541E+05 -1.425517E+04
        92   2 -6.453602E+06 -1.157576E+06 -3.550183E+05 -2.359211E+06 -1.029132E+05  4.057472E+03
        92   3 -6.379041E+06 -1.142114E+06 -2.918059E+05 -2.349134E+06 -4.931865E+04  1.985099E+04
        92   4 -5.482756E+06 -8.818741E+05 -2.021601E+05 -2.085366E+06 -1.557883E+05 -1.435551E+04
        92   5 -5.478274E+06 -7.835779E+05 -9.851064E+04 -2.086850E+06 -1.044669E+05  3.465625E+03
        92   6 -5.472202E+06 -8.102424E+05 -5.601637E+04 -2.112239E+06 -5.219884E+04  1.876381E+04
        92   7 -4.437546E+06 -4.652919E+05  7.610653E+04 -1.777064E+06 -1.560226E+05 -1.445594E+04
        92   8 -4.502011E+06 -4.095115E+05  1.579153E+05 -1.814093E+06 -1.060232E+05  2.872770E+03
        92   9 -4.564556E+06 -4.783302E+05  1.797050E+05 -1.875032E+06 -5.508367E+04  1.767501E+04
        92  10 -6.526923E+06 -1.298361E+06 -4.805700E+05 -2.393185E+06 -5.498244E-09 -2.478713E-09
        92  11 -6.453614E+06 -1.157579E+06 -3.550384E+05 -2.359211E+06 -6.226453E-09 -3.409039E-10
        92  12 -6.379044E+06 -1.142115E+06 -2.918112E+05 -2.349134E+06  3.812110E-09  3.121141E-09
        92  13 -5.482783E+06 -8.818809E+05 -2.022066E+05 -2.085368E+06 -4.873416E-09 -6.208024E-12
        92  14 -5.478285E+06 -7.835808E+05 -9.853134E+04 -2.086849E+06 -7.676107E-09 -3.935584E-10
        92  15 -5.472205E+06 -8.102435E+05 -5.602218E+04 -2.112238E+06  2.099558E-09  8.969000E-10
        92  16 -4.437573E+06 -4.652988E+05  7.606005E+04 -1.777065E+06 -2.479854E-09  2.425706E-09
        92  17 -4.502023E+06 -4.095145E+05  1.578940E+05 -1.814093E+06 -4.726760E-09 -4.455303E-10
        92  18 -4.564559E+06 -4.783314E+05  1.796987E+05 -1.875031E+06 -7.566637E-09 -1.535991E-09
        92  19 -6.526897E+06 -1.298354E+06 -4.805237E+05 -2.393183E+06  1.555541E+05  1.425517E+04
        92  20 -6.453602E+06 -1.157576E+06 -3.550183E+05 -2.359211E+06  1.029132E+05 -4.057472E+03
        92  21 -6.379041E+06 -1.142114E+06 -2.918059E+05 -2.349134E+06  4.931865E+04 -1.985099E+04
        92  22 -5.482756E+06 -8.818741E+05 -2.021601E+05 -2.085366E+06  1.557883E+05  1.435551E+04
        92  23 -5.478274E+06 -7.835779E+05 -9.851064E+04 -2.086850E+06  1.044669E+05 -3.465625E+03
        92  24 -5.472202E+06 -8.102424E+05 -5.601637E+04 -2.112239E+06  5.219884E+04 -1.876381E+04
        92  25 -4.437546E+06 -4.652919E+05  7.610653E+04 -1.777064E+06  1.560226E+05  1.445594E+04
        92  26 -4.502011E+06 -4.095115E+05  1.579153E+05 -1.814093E+06  1.060232E+05 -2.872770E+03
        92  27 -4.564556E+06 -4.783302E+05  1.797050E+05 -1.875032E+06  5.508367E+04 -1.767501E+04
        93   1 -6.254945E+06 -1.120426E+06 -2.498825E+05 -2.325524E+06 -4.083547E+04  1.985310E+04
        93   2 -6.178142E+06 -1.049759E+06 -2.034133E+05 -2.271431E+06 -2.743362E+04  1.984211E+04
        93   3 -6.056763E+06 -1.036233E+06 -1.678928E+05 -2.271240E+06 -1.387587E+04  1.940126E+04
        93   4 -5.466393E+06 -8.216499E+05 -4.344775E+04 -2.108914E+06 -4.320812E+04  1.895766E+04
        93   5 -5.488164E+06 -7.896160E+05 -2.282489E+04 -2.083257E+06 -3.003078E+04  1.886436E+04
        93   6 -5.465321E+06 -8.146674E+05 -1.295912E+04 -2.111499E+06 -1.669971E+04  1.834064E+04
        93   7 -4.677231E+06 -5.228327E+05  1.629339E+05 -1.892052E+06 -4.558408E+04  1.806096E+04
        93   8 -4.797721E+06 -5.294437E+05  1.577226E+05 -1.894891E+06 -3.263113E+04  1.788542E+04
        93   9 -4.873537E+06 -5.930821E+05  1.419443E+05 -1.951621E+06 -1.952652E+04  1.727892E+04
        93  10 -6.254947E+06 -1.120427E+06 -2.498863E+05 -2.325523E+06 -5.410825E-10 -1.061654E-09
        93  11 -6.178143E+06 -1.049760E+06 -2.034154E+05 -2.271431E+06 -2.579868E-09 -1.867622E-09
        93  12 -6.056764E+06 -1.036233E+06 -1.678939E+05 -2.271239E+06  2.864021E-09  6.115721E-10
        93  13 -5.466395E+06 -8.216508E+05 -4.345195E+04 -2.108913E+06 -1.613441E-09  1.072341E-10
        93  14 -5.488165E+06 -7.896166E+05 -2.282726E+04 -2.083256E+06 -1.436716E-09 -1.334609E-09
        93  15 -5.465321E+06 -8.146679E+05 -1.296027E+04 -2.111499E+06 -3.324068E-09 -2.286154E-10
        93  16 -4.677234E+06 -5.228336E+05  1.629294E+05 -1.892052E+06  6.759555E-09  1.027046E-09
        93  17 -4.797722E+06 -5.294444E+05  1.577200E+05 -1.894891E+06 -5.750878E-09 -1.217459E-09
        93  18 -4.873538E+06 -5.930825E+05  1.419430E+05 -1.951621E+06 -6.449205E-09 -1.483038E-09
        93  19 -6.254945E+06 -1.120426E+06 -2.498825E+05 -2.325524E+06  4.083547E+04 -1.985310E+04
        93  20 -6.178142E+06 -1.049759E+06 -2.034133E+05 -2.271431E+06  2.743362E+04 -1.984211E+04
        93  21 -6.056763E+06 -1.036233E+06 -1.678928E+05 -2.271240E+06  1.387587E+04 -1.940126E+04
        93  22 -5.466393E+06 -8.216499E+05 -4.344775E+04 -2.108914E+06  4.320812E+04 -1.895766E+04
        93  23 -5.488164E+06 -7.896160E+05 -2.282489E+04 -2.083257E+06  3.003078E+04 -1.886436E+04
        93  24 -5.465321E+06 -8.146674E+05 -1.295912E+04 -2.111499E+06  1.669971E+04 -1.834064E+04
        93  25 -4.677231E+06 -5.228327E+05  1.629339E+05 -1.892052E+06  4.558408E+04 -1.806096E+04
        93  26 -4.797721E+06 -5.294437E+05  1.577226E+05 -1.894891E+06  3.263113E+04 -1.788542E+04
        93  27 -4.873537E+06 -5.930821E+05  1.419443E+05 -1.951621E+06  1.952652E+04 -1.727892E+04
        94   1 -5.925311E+06 -9.905129E+05 -1.304791E+05 -2.238057E+06 -1.084966E+04  1.714340E+04
        94   2 -5.840622E+06 -9.204349E+05 -9.768039E+04 -2.176502E+06 -5.758325E+03  1.312080E+04
        94   3 -5.702048E+06 -9.057684E+05 -6.744745E+04 -2.177329E+06 -6.125571E+02  8.942814E+03
        94   4 -5.463583E+06 -8.168206E+05 -1.009200E+04 -2.112420E+06 -1.370735E+04  1.607126E+04
        94   5 -5.490462E+06 -7.887768E+05 -6.118969E+03 -2.081352E+06 -8.700326E+03  1.201820E+04
        94   6 -5.463457E+06 -8.161261E+05 -4.642953E+03 -2.112668E+06 -3.639555E+03  7.809629E+03
        94   7 -5.001642E+06 -6.431140E+05  1.102778E+05 -1.986697E+06 -1.656741E+04  1.499822E+04
        94   8 -5.140183E+06 -6.571113E+05  8.543188E+04 -1.986153E+06 -1.164416E+04  1.091492E+04
        94   9 -5.224812E+06 -7.264811E+05  5.815608E+04 -2.047985E+06 -6.667811E+03  6.675975E+03
        94  10 -5.925312E+06 -9.905133E+05 -1.304799E+05 -2.238057E+06 -1.522759E-10  1.476833E-09
        94  11 -5.840623E+06 -9.204351E+05 -9.768077E+04 -2.176502E+06 -2.005549E-09 -6.241594E-10
        94  12 -5.702048E+06 -9.057685E+05 -6.744760E+04 -2.177329E+06 -7.110838E-10  5.214134E-10
        94  13 -5.463583E+06 -8.168209E+05 -1.009283E+04 -2.112420E+06 -2.378824E-09  2.861584E-10
        94  14 -5.490462E+06 -7.887770E+05 -6.119382E+03 -2.081352E+06  3.665731E-09 -6.320723E-10
        94  15 -5.463457E+06 -8.161261E+05 -4.643092E+03 -2.112668E+06 -1.207378E-09  5.471675E-10
        94  16 -5.001643E+06 -6.431143E+05  1.102768E+05 -1.986696E+06 -2.665306E-09 -3.057613E-10
        94  17 -5.140183E+06 -6.571115E+05  8.543140E+04 -1.986153E+06  2.288835E-10 -9.502365E-10
        94  18 -5.224813E+06 -7.264812E+05  5.815591E+04 -2.047985E+06  2.646252E-10 -4.876947E-10
        94  19 -5.925311E+06 -9.905129E+05 -1.304791E+05 -2.238057E+06  1.084966E+04 -1.714340E+04
        94  20 -5.840622E+06 -9.204349E+05 -9.768039E+04 -2.176502E+06  5.758325E+03 -1.312080E+04
        94  21 -5.702048E+06 -9.057684E+05 -6.744745E+04 -2.177329E+06  6.125571E+02 -8.942814E+03
        94  22 -5.463583E+06 -8.168206E+05 -1.009200E+04 -2.112420E+06  1.370735E+04 -1.607126E+04
        94  23 -5.490462E+06 -7.887768E+05 -6.118969E+03 -2.081352E+06  8.700326E+03 -1.201820E+04
        94  24 -5.463457E+06 -8.161261E+05 -4.642953E+03 -2.112668E+06  3.639555E+03 -7.809629E+03
        94  25 -5.001642E+06 -6.431140E+05  1.102778E+05 -1.986697E+06  1.656741E+04 -1.499822E+04
        94  26 -5.140183E+06 -6.571113E+05  8.543188E+04 -1.986153E+06  1.164416E+04 -1.091492E+04
        94  27 -5.224812E+06 -7.264811E+05  5.815608E+04 -2.047985E+06  6.667811E+03 -6.675975E+03
        95   1 -5.562803E+06 -8.540742E+05 -3.021524E+04 -2.140367E+06  1.358242E+03  6.053779E+03
        95   2 -5.475148E+06 -7.823212E+05 -1.425016E+03 -2.076490E+06  6.166735E+03  1.620706E+03
        95   3 -5.331802E+06 -7.677344E+05  2.508068E+04 -2.077231E+06  1.096979E+04 -2.795427E+03
        95   4 -5.463053E+06 -8.165636E+05 -4.553832E+03 -2.113144E+06 -1.694230E+03  4.911474E+03
        95   5 -5.490928E+06 -7.882200E+05 -5.544003E+03 -2.080744E+06  3.123312E+03  4.816827E+02
        95   6 -5.463127E+06 -8.170455E+05 -8.824931E+03 -2.112967E+06  7.934841E+03 -3.931330E+03
        95   7 -5.363293E+06 -7.790522E+05  2.110690E+04 -2.085918E+06 -4.747255E+03  3.768960E+03
        95   8 -5.506708E+06 -7.941188E+05 -9.663003E+03 -2.084997E+06  7.995252E+01 -6.573173E+02
        95   9 -5.594436E+06 -8.663561E+05 -4.273233E+04 -2.148696E+06  4.900571E+03 -5.066979E+03
        95  10 -5.562803E+06 -8.540742E+05 -3.021531E+04 -2.140367E+06  6.133270E-09  4.171898E-09
        95  11 -5.475148E+06 -7.823213E+05 -1.425094E+03 -2.076490E+06  4.420436E-09  2.467464E-09
        95  12 -5.331802E+06 -7.677344E+05  2.508044E+04 -2.077231E+06 -4.302637E-09  6.463026E-12
        95  13 -5.463053E+06 -8.165636E+05 -4.553882E+03 -2.113144E+06  2.821829E-09  1.005871E-09
        95  14 -5.490928E+06 -7.882200E+05 -5.544022E+03 -2.080744E+06  1.314773E-09  1.822273E-09
        95  15 -5.463127E+06 -8.170455E+05 -8.825079E+03 -2.112967E+06 -9.142302E-10  2.385087E-09
        95  16 -5.363293E+06 -7.790522E+05  2.110683E+04 -2.085918E+06 -7.100961E-09 -2.518002E-09
        95  17 -5.506708E+06 -7.941188E+05 -9.663004E+03 -2.084997E+06  7.899481E-09  2.284902E-09
        95  18 -5.594436E+06 -8.663561E+05 -4.273242E+04 -2.148696E+06  7.681803E-09  4.467069E-09
        95  19 -5.562803E+06 -8.540742E+05 -3.021524E+04 -2.140367E+06 -1.358242E+03 -6.053779E+03
        95  20 -5.475148E+06 -7.823212E+05 -1.425016E+03 -2.076490E+06 -6.166735E+03 -1.620706E+03
        95  21 -5.331802E+06 -7.677344E+05  2.508068E+04 -2.077231E+06 -1.096979E+04  2.795427E+03
        95  22 -5.463053E+06 -8.165636E+05 -4.553832E+03 -2.113144E+06  1.694230E+03 -4.911474E+03
        95  23 -5.490928E+06 -7.882200E+05 -5.544003E+03 -2.080744E+06 -3.123312E+03 -4.816827E+02
        95  24 -5.463127E+06 -8.170455E+05 -8.824931E+03 -2.112967E+06 -7.934841E+03  3.931330E+03
        95  25 -5.363293E+06 -7.790522E+05  2.110690E+04 -2.085918E+06  4.747255E+03 -3.768960E+03
        95  26 -5.506708E+06 -7.941188E+05 -9.663003E+03 -2.084997E+06 -7.995252E+01  6.573173E+02
        95  27 -5.594436E+06 -8.663561E+05 -4.273233E+04 -2.148696E+06 -4.900571E+03  5.066979E+03
        96   1 -5.193952E+06 -7.152106E+05  5.959336E+04 -2.040529E+06  1.380575E+04 -5.359885E+03
        96   2 -5.109388E+06 -6.449647E+05  7.979399E+04 -1.977918E+06  2.555467E+04 -7.017816E+03
        96   3 -4.974486E+06 -6.360813E+05  9.078270E+04 -1.975924E+06  3.720610E+04 -8.397867E+03
        96   4 -5.464035E+06 -8.158324E+05 -1.125834E+04 -2.112891E+06  1.076293E+04 -6.499196E+03
        96   5 -5.489633E+06 -7.881035E+05 -1.962729E+04 -2.081480E+06  2.265975E+04 -8.103064E+03
        96   6 -5.464936E+06 -8.217725E+05 -3.733018E+04 -2.110694E+06  3.445719E+04 -9.429671E+03
        96   7 -5.734044E+06 -9.164492E+05 -8.211552E+04 -2.185224E+06  7.721598E+03 -7.637961E+03
        96   8 -5.869734E+06 -9.312326E+05 -1.190603E+05 -2.184984E+06  1.976680E+04 -9.187571E+03
        96   9 -5.955148E+06 -1.007448E+06 -1.654633E+05 -2.245366E+06  3.171067E+04 -1.046056E+04
        96  10 -5.193953E+06 -7.152107E+05  5.959295E+04 -2.040529E+06  2.269976E-09  4.428572E-09
        96  11 -5.109389E+06 -6.449649E+05  7.979266E+04 -1.977917E+06  2.992462E-09  2.839392E-09
        96  12 -4.974488E+06 -6.360817E+05  9.077995E+04 -1.975924E+06 -2.617559E-09 -2.069620E-09
        96  13 -5.464035E+06 -8.158325E+05 -1.125864E+04 -2.112891E+06 -3.397107E-09  2.914967E-09
        96  14 -5.489633E+06 -7.881037E+05 -1.962838E+04 -2.081480E+06  4.864502E-09  1.156994E-09
        96  15 -5.464937E+06 -8.217729E+05 -3.733259E+04 -2.110694E+06 -1.731420E-09  3.270367E-10
        96  16 -5.734044E+06 -9.164493E+05 -8.211575E+04 -2.185224E+06 -5.299294E-09  7.375520E-10
        96  17 -5.869734E+06 -9.312328E+05 -1.190611E+05 -2.184984E+06  3.900720E-09  1.298179E-09
        96  18 -5.955149E+06 -1.007448E+06 -1.654654E+05 -2.245366E+06  6.396318E-09  2.227839E-09
        96  19 -5.193952E+06 -7.152106E+05  5.959336E+04 -2.040529E+06 -1.380575E+04  5.359885E+03
        96  20 -5.109388E+06 -6.449647E+05  7.979399E+04 -1.977918E+06 -2.555467E+04  7.017816E+03
        96  21 -4.974486E+06 -6.360813E+05  9.078270E+04 -1.975924E+06 -3.720610E+04  8.397867E+03
        96  22 -5.464035E+06 -8.158324E+05 -1.125834E+04 -2.112891E+06 -1.076293E+04  6.499196E+03
        96  23 -5.489633E+06 -7.881035E+05 -1.962729E+04 -2.081480E+06 -2.265975E+04  8.103064E+03
        96  24 -5.464936E+06 -8.217725E+05 -3.733018E+04 -2.110694E+06 -3.445719E+04  9.429671E+03
        96  25 -5.734044E+06 -9.164492E+05 -8.211552E+04 -2.185224E+06 -7.721598E+03  7.637961E+03
        96  26 -5.869734E+06 -9.312326E+05 -1.190603E+05 -2.184984E+06 -1.976680E+04  9.187571E+03
        96  27 -5.955148E+06 -1.007448E+06 -1.654633E+05 -2.245366E+06 -3.171067E+04  1.046056E+04
        97   1 -4.843963E+06 -5.857977E+05  1.141119E+05 -1.952847E+06  4.569085E+04 -8.830800E+03
        97   2 -4.767798E+06 -5.087959E+05  1.030095E+05 -1.884486E+06  8.992598E+04  2.458287E+03
        97   3 -4.676112E+06 -5.530749E+05  4.029029E+04 -1.853198E+06  1.333711E+05  1.588873E+04
        97   4 -5.469519E+06 -8.123953E+05 -4.811139E+04 -2.114008E+06  4.247179E+04 -1.003943E+04
        97   5 -5.481643E+06 -7.823807E+05 -8.452814E+04 -2.083969E+06  8.784906E+04  1.674696E+03
        97   6 -5.478522E+06 -8.739409E+05 -1.735232E+05 -2.091011E+06  1.324292E+05  1.552653E+04
        97   7 -6.094695E+06 -1.038977E+06 -2.103679E+05 -2.275023E+06  3.925629E+04 -1.124684E+04
        97   8 -6.194989E+06 -1.055929E+06 -2.721098E+05 -2.283242E+06  8.577473E+04  8.921143E+02
        97   9 -6.280301E+06 -1.194744E+06 -3.873933E+05 -2.328534E+06  1.314885E+05  1.516486E+04
        97  10 -4.843965E+06 -5.857984E+05  1.141078E+05 -1.952847E+06  7.179557E-10 -3.482719E-10
        97  11 -4.767807E+06 -5.087981E+05  1.029942E+05 -1.884486E+06 -4.554658E-09  6.371250E-10
        97  12 -4.676131E+06 -5.530800E+05  4.025611E+04 -1.853200E+06 -4.113246E-10 -1.543388E-10
        97  13 -5.469521E+06 -8.123959E+05 -4.811499E+04 -2.114007E+06 -5.372363E-11 -1.247438E-10
        97  14 -5.481651E+06 -7.823828E+05 -8.454277E+04 -2.083970E+06 -4.516703E-09  4.248673E-10
        97  15 -5.478542E+06 -8.739459E+05 -1.735569E+05 -2.091012E+06 -3.010846E-09 -1.754635E-10
        97  16 -6.094696E+06 -1.038977E+06 -2.103710E+05 -2.275023E+06  2.294935E-09  7.267975E-11
        97  17 -6.194997E+06 -1.055931E+06 -2.721238E+05 -2.283242E+06  1.059173E-09 -1.431748E-10
        97  18 -6.280320E+06 -1.194749E+06 -3.874265E+05 -2.328536E+06  6.286885E-10 -1.424771E-10
        97  19 -4.843963E+06 -5.857977E+05  1.141119E+05 -1.952847E+06 -4.569085E+04  8.830800E+03
        97  20 -4.767798E+06 -5.087959E+05  1.030095E+05 -1.884486E+06 -8.992598E+04 -2.458287E+03
        97  21 -4.676112E+06 -5.530749E+05  4.029029E+04 -1.853198E+06 -1.333711E+05 -1.588873E+04
        97  22 -5.469519E+06 -8.123953E+05 -4.811139E+04 -2.114008E+06 -4.247179E+04  1.003943E+04
        97  23 -5.481643E+06 -7.823807E+05 -8.452814E+04 -2.083969E+06 -8.784906E+04 -1.674696E+03
        97  24 -5.478522E+06 -8.739409E+05 -1.735232E+05 -2.091011E+06 -1.324292E+05 -1.552653E+04
        97  25 -6.094695E+06 -1.038977E+06 -2.103679E+05 -2.275023E+06 -3.925629E+04  1.124684E+04
        97  26 -6.194989E+06 -1.055929E+06 -2.721098E+05 -2.283242E+06 -8.577473E+04 -8.921143E+02
        97  27 -6.280301E+06 -1.194744E+06 -3.873933E+05 -2.328534E+06 -1.314885E+05 -1.516486E+04
        98   1 -4.521616E+06 -5.011621E+05  2.694494E+04 -1.956289E+06  1.734444E+05  2.386986E+04
        98   2 -4.464074E+06 -2.870256E+05 -9.760277E+04 -1.767829E+06  3.543694E+05  8.980686E+04
        98   3 -4.672925E+06 -8.561480E+05 -5.611380E+05 -1.428070E+06  5.246924E+05  1.839354E+05
        98   4 -5.508160E+06 -7.870911E+05 -2.143720E+05 -2.137478E+06  1.643163E+05  2.045735E+04
        98   5 -5.419325E+06 -7.107488E+05 -3.594334E+05 -2.093854E+06  3.606436E+05  9.212396E+04
        98   6 -5.600501E+06 -1.421579E+06 -8.561968E+05 -1.898797E+06  5.463650E+05  1.918961E+05
        98   7 -6.493739E+06 -1.073037E+06 -4.557553E+05 -2.318446E+06  1.552041E+05  1.704765E+04
        98   8 -6.373665E+06 -1.134308E+06 -6.213465E+05 -2.419384E+06  3.669068E+05  9.443521E+04
        98   9 -6.527118E+06 -1.986446E+06 -1.151331E+06 -2.368746E+06  5.680014E+05  1.998241E+05
        98  10 -4.521649E+06 -5.011709E+05  2.688687E+04 -1.956292E+06 -3.115359E-09 -1.056868E-09
        98  11 -4.464212E+06 -2.870684E+05 -9.785601E+04 -1.767855E+06 -4.662762E-09 -1.097693E-10
        98  12 -4.673231E+06 -8.562592E+05 -5.617238E+05 -1.428149E+06  6.453441E-10 -1.273523E-09
        98  13 -5.508189E+06 -7.870989E+05 -2.144240E+05 -2.137480E+06 -2.272864E-09 -8.348719E-10
        98  14 -5.419468E+06 -7.107934E+05 -3.596964E+05 -2.093881E+06 -2.145610E-09 -2.537076E-10
        98  15 -5.600834E+06 -1.421700E+06 -8.568334E+05 -1.898882E+06 -1.911842E-09 -4.334724E-10
        98  16 -6.493766E+06 -1.073044E+06 -4.558017E+05 -2.318448E+06  1.336183E-09 -9.020210E-10
        98  17 -6.373813E+06 -1.134355E+06 -6.216194E+05 -2.419413E+06  1.765321E-09 -1.850512E-09
        98  18 -6.527479E+06 -1.986578E+06 -1.152021E+06 -2.368838E+06  8.487102E-10 -4.185213E-10
        98  19 -4.521616E+06 -5.011621E+05  2.694494E+04 -1.956289E+06 -1.734444E+05 -2.386986E+04
        98  20 -4.464074E+06 -2.870256E+05 -9.760277E+04 -1.767829E+06 -3.543694E+05 -8.980686E+04
        98  21 -4.672925E+06 -8.561480E+05 -5.611380E+05 -1.428070E+06 -5.246924E+05 -1.839354E+05
        98  22 -5.508160E+06 -7.870911E+05 -2.143720E+05 -2.137478E+06 -1.643163E+05 -2.045735E+04
        98  23 -5.419325E+06 -7.107488E+05 -3.594334E+05 -2.093854E+06 -3.606436E+05 -9.212396E+04
        98  24 -5.600501E+06 -1.421579E+06 -8.561968E+05 -1.898797E+06 -5.463650E+05 -1.918961E+05
        98  25 -6.493739E+06 -1.073037E+06 -4.557553E+05 -2.318446E+06 -1.552041E+05 -1.704765E+04
        98  26 -6.373665E+06 -1.134308E+06 -6.213465E+05 -2.419384E+06 -3.669068E+05 -9.443521E+04
        98  27 -6.527118E+06 -1.986446E+06 -1.151331E+06 -2.368746E+06 -5.680014E+05 -1.998241E+05
        99   1 -1.153704E+06  3.863587E+04  6.691053E+04 -1.130037E+03  8.262499E+04  3.387167E+02
        99   2 -1.184634E+06 -7.911788E+04 -5.759121E+03  2.876408E+03  5.456128E+04  3.918216E+02
        99   3 -1.152617E+06 -5.851731E+04 -2.059627E+04 -2.285091E+03  2.649809E+04  7.335043E+01
        99   4 -9.291300E+05  9.483528E+04  1.231125E+05 -2.338354E+03  8.265260E+04  3.385618E+02
        99   5 -9.606340E+05 -2.305053E+04  5.030029E+04  2.333935E+03  5.457108E+04  3.917682E+02
        99   6 -9.291960E+05 -2.601428E+03  3.531981E+04 -2.161570E+03  2.649010E+04  7.340770E+01
        99   7 -7.045107E+05  1.510309E+05  1.793107E+05 -3.547132E+03  8.268022E+04  3.384068E+02
        99   8 -7.365887E+05  3.301302E+04  1.063559E+05  1.791275E+03  5.458088E+04  3.917147E+02
        99   9 -7.057298E+05  5.331068E+04  9.123211E+04 -2.037962E+03  2.648211E+04  7.346494E+01
        99  10 -1.153711E+06  3.863404E+04  6.689767E+04 -1.130070E+03 -2.207454E-05 -1.451278E-06
        99  11 -1.184637E+06 -7.911868E+04 -5.764725E+03  2.876343E+03 -9.839424E-05 -4.056478E-06
        99  12 -1.152618E+06 -5.851750E+04 -2.059759E+04 -2.285176E+03 -1.749576E-04 -2.990774E-06
        99  13 -9.291373E+05  9.483344E+04  1.230996E+05 -2.338377E+03 -5.559097E-05  4.311628E-07
        99  14 -9.606372E+05 -2.305133E+04  5.029468E+04  2.333917E+03 -2.466381E-04  2.383513E-06
        99  15 -9.291968E+05 -2.601617E+03  3.531849E+04 -2.161571E+03 -4.376961E-04  5.060751E-06
        99  16 -7.045180E+05  1.510290E+05  1.792978E+05 -3.547144E+03 -2.239590E-05  4.935100E-07
        99  17 -7.365919E+05  3.301222E+04  1.063503E+05  1.791305E+03 -9.891517E-05  7.466013E-07
        99  18 -7.057305E+05  5.331049E+04  9.123079E+04 -2.037880E+03 -1.752309E-04 -1.220005E-06
        99  19 -1.153704E+06  3.863587E+04  6.691053E+04 -1.130058E+03 -8.262499E+04 -3.387167E+02
        99  20 -1.184634E+06 -7.911788E+04 -5.759119E+03  2.876313E+03 -5.456128E+04 -3.918216E+02
        99  21 -1.152617E+06 -5.851730E+04 -2.059626E+04 -2.285259E+03 -2.649809E+04 -7.335043E+01
        99  22 -9.291300E+05  9.483528E+04  1.231125E+05 -2.338354E+03 -8.265260E+04 -3.385618E+02
        99  23 -9.606340E+05 -2.305053E+04  5.030029E+04  2.333935E+03 -5.457108E+04 -3.917682E+02
        99  24 -9.291960E+05 -2.601428E+03  3.531981E+04 -2.161570E+03 -2.649010E+04 -7.340769E+01
        99  25 -7.045107E+05  1.510309E+05  1.793107E+05 -3.547111E+03 -8.268022E+04 -3.384068E+02
        99  26 -7.365887E+05  3.301302E+04  1.063559E+05  1.791370E+03 -5.458088E+04 -3.917147E+02
        99  27 -7.057298E+05  5.331067E+04  9.123211E+04 -2.037794E+03 -2.648211E+04 -7.346494E+01
       100   1 -7.355798E+05  6.517793E+04  7.966562E+04 -3.024813E+03  2.035315E+04 -2.241392E+02
       100   2 -7.481561E+05  4.689740E+04  6.290549E+04  2.909827E+03  1.349501E+04 -3.975780E+02
       100   3 -7.340916E+05  5.107921E+04  6.025957E+04 -2.592108E+03  6.637558E+03 -2.168255E+02
       100   4 -9.372510E+05  1.471380E+04  2.920431E+04 -2.649926E+03  2.033957E+04 -2.240974E+02
       100   5 -9.505644E+05 -3.750818E+03  1.226246E+04  3.040671E+03  1.349187E+04 -3.975831E+02
       100   6 -9.372406E+05  2.461184E+02  9.429510E+03 -2.705553E+03  6.644867E+03 -2.168193E+02
       100   7 -1.138885E+06 -3.575340E+04 -2.126007E+04 -2.275127E+03  2.032599E+04 -2.240557E+02
       100   8 -1.152936E+06 -5.440213E+04 -3.838366E+04  3.171483E+03  1.348873E+04 -3.975883E+02
       100   9 -1.140352E+06 -5.059010E+04 -4.140367E+04 -2.818974E+03  6.652173E+03 -2.168132E+02
       100  10 -7.355803E+05  6.517782E+04  7.966484E+04 -3.024893E+03 -1.752330E-04 -1.146995E-06
       100  11 -7.481563E+05  4.689735E+04  6.290515E+04  2.909784E+03 -9.889815E-05  6.959392E-07
       100  12 -7.340917E+05  5.107920E+04  6.025948E+04 -2.592117E+03 -2.242540E-05  9.117824E-07
       100  13 -9.372514E+05  1.471369E+04  2.920354E+04 -2.649923E+03 -4.376924E-04  5.086700E-06
       100  14 -9.505646E+05 -3.750868E+03  1.226212E+04  3.040675E+03 -2.466282E-04  2.441318E-06
       100  15 -9.372406E+05  2.461064E+02  9.429427E+03 -2.705552E+03 -5.559077E-05  4.533361E-07
       100  16 -1.138886E+06 -3.575351E+04 -2.126085E+04 -2.275039E+03 -1.749482E-04 -3.015589E-06
       100  17 -1.152936E+06 -5.440219E+04 -3.838401E+04  3.171535E+03 -9.840983E-05 -3.888521E-06
       100  18 -1.140352E+06 -5.059011E+04 -4.140375E+04 -2.818962E+03 -2.204207E-05 -1.825735E-06
       100  19 -7.355798E+05  6.517794E+04  7.966562E+04 -3.024981E+03 -2.035315E+04  2.241392E+02
       100  20 -7.481561E+05  4.689740E+04  6.290549E+04  2.909733E+03 -1.349501E+04  3.975780E+02
       100  21 -7.340916E+05  5.107922E+04  6.025957E+04 -2.592129E+03 -6.637558E+03  2.168255E+02
       100  22 -9.372510E+05  1.471380E+04  2.920431E+04 -2.649926E+03 -2.033957E+04  2.240975E+02
       100  23 -9.505644E+05 -3.750819E+03  1.226246E+04  3.040671E+03 -1.349187E+04  3.975831E+02
       100  24 -9.372406E+05  2.461182E+02  9.429511E+03 -2.705553E+03 -6.644867E+03  2.168193E+02
       100  25 -1.138885E+06 -3.575341E+04 -2.126007E+04 -2.274959E+03 -2.032599E+04  2.240557E+02
       100  26 -1.152936E+06 -5.440214E+04 -3.838367E+04  3.171578E+03 -1.348873E+04  3.975883E+02
       100  27 -1.140352E+06 -5.059010E+04 -4.140367E+04 -2.818953E+03 -6.652173E+03  2.168132E+02
       101   1 -9.163330E+05  8.174425E+03  1.320139E+04  4.307600E+03  5.069213E+03 -8.980053E+01
       101   2 -9.179040E+05  6.237523E+03  9.877045E+03 -5.601212E+03  3.314336E+03 -3.947471E+01
       101   3 -9.188746E+05  5.012003E+03  7.913053E+03  4.317256E+03  1.559297E+03  5.807043E+01
       101   4 -9.430225E+05  1.495322E+03  6.523705E+03  4.253541E+03  5.069799E+03 -8.979960E+01
       101   5 -9.433257E+05 -1.244913E+02  3.515798E+03 -5.657021E+03  3.316121E+03 -3.947040E+01
       101   6 -9.430286E+05 -1.033116E+03  1.867451E+03  4.259747E+03  1.562277E+03  5.807900E+01
       101   7 -9.697114E+05 -5.183836E+03 -1.540364E+02  4.199485E+03  5.070385E+03 -8.979866E+01
       101   8 -9.687467E+05 -6.486554E+03 -2.845498E+03 -5.712829E+03  3.317906E+03 -3.946609E+01
       101   9 -9.671820E+05 -7.078279E+03 -4.178195E+03  4.202239E+03  1.565257E+03  5.808757E+01
       101  10 -9.163330E+05  8.174418E+03  1.320134E+04  4.307600E+03 -3.471332E-08  4.109281E-07
       101  11 -9.179040E+05  6.237520E+03  9.877025E+03 -5.601212E+03  5.382325E-09 -1.008444E-07
       101  12 -9.188746E+05  5.012002E+03  7.913048E+03  4.317256E+03  1.286823E-09 -1.708053E-08
       101  13 -9.430225E+05  1.495315E+03  6.523656E+03  4.253542E+03 -1.094102E-11 -2.692835E-09
       101  14 -9.433257E+05 -1.244942E+02  3.515777E+03 -5.657021E+03  4.733911E-09 -2.229331E-09
       101  15 -9.430286E+05 -1.033117E+03  1.867446E+03  4.259746E+03 -7.117564E-10 -2.291079E-09
       101  16 -9.697114E+05 -5.183843E+03 -1.540848E+02  4.199485E+03  3.651766E-08 -4.165756E-07
       101  17 -9.687467E+05 -6.486557E+03 -2.845519E+03 -5.712828E+03 -3.931169E-09  9.905821E-08
       101  18 -9.671820E+05 -7.078280E+03 -4.178200E+03  4.202239E+03 -1.428187E-10  1.851647E-08
       101  19 -9.163330E+05  8.174425E+03  1.320139E+04  4.307600E+03 -5.069213E+03  8.980053E+01
       101  20 -9.179040E+05  6.237523E+03  9.877046E+03 -5.601212E+03 -3.314336E+03  3.947471E+01
       101  21 -9.188746E+05  5.012003E+03  7.913053E+03  4.317256E+03 -1.559297E+03 -5.807043E+01
       101  22 -9.430225E+05  1.495321E+03  6.523705E+03  4.253541E+03 -5.069799E+03  8.979960E+01
       101  23 -9.433257E+05 -1.244912E+02  3.515798E+03 -5.657021E+03 -3.316121E+03  3.947040E+01
       101  24 -9.430286E+05 -1.033116E+03  1.867451E+03  4.259747E+03 -1.562277E+03 -5.807900E+01
       101  25 -9.697114E+05 -5.183836E+03 -1.540365E+02  4.199485E+03 -5.070385E+03  8.979866E+01
       101  26 -9.687467E+05 -6.486554E+03 -2.845498E+03 -5.712829E+03 -3.317906E+03  3.946609E+01
       101  27 -9.671820E+05 -7.078279E+03 -4.178195E+03  4.202239E+03 -1.565257E+03 -5.808757E+01
       102   1 -1.165336E+06 -5.577111E+04 -5.400966E+04 -2.320943E+03  9.462596E+02  2.367426E+02
       102   2 -1.177886E+06 -5.736674E+04 -5.735722E+04  2.211427E+03  6.988935E+02  4.308089E+02
       102   3 -1.164319E+06 -5.641752E+04 -5.480954E+04 -1.261321E+03  4.510049E+02  1.719870E+02
       102   4 -9.373588E+05  1.290506E+03  3.048103E+03 -1.930926E+03  9.565917E+02  2.367587E+02
       102   5 -9.504295E+05 -4.359481E+02 -4.319245E+02  2.073619E+03  6.982889E+02  4.307995E+02
       102   6 -9.373745E+05  3.879673E+02  1.991148E+03 -1.926754E+03  4.394640E+02  1.720252E+02
       102   7 -7.093350E+05  5.834819E+04  6.010193E+04 -1.540790E+03  9.669275E+02  2.367748E+02
       102   8 -7.229256E+05  5.649093E+04  5.648945E+04  1.935770E+03  6.976840E+02  4.307900E+02
       102   9 -7.103836E+05  5.718956E+04  5.878794E+04 -2.592387E+03  4.279188E+02  1.720635E+02
       102  10 -1.165336E+06 -5.577111E+04 -5.400966E+04 -2.320943E+03 -7.579669E-09  7.298165E-08
       102  11 -1.177886E+06 -5.736674E+04 -5.735722E+04  2.211426E+03  3.464099E-09 -1.688971E-08
       102  12 -1.164319E+06 -5.641752E+04 -5.480954E+04 -1.261321E+03  4.129480E-10 -7.035434E-09
       102  13 -9.373588E+05  1.290506E+03  3.048101E+03 -1.930926E+03 -2.325565E-09  1.349325E-09
       102  14 -9.504295E+05 -4.359484E+02 -4.319257E+02  2.073619E+03  1.178686E-09  1.917462E-10
       102  15 -9.373745E+05  3.879672E+02  1.991147E+03 -1.926754E+03 -1.320598E-10 -2.437858E-09
       102  16 -7.093350E+05  5.834819E+04  6.010193E+04 -1.540791E+03  4.784419E-09 -7.149303E-08
       102  17 -7.229256E+05  5.649093E+04  5.648945E+04  1.935769E+03  2.410254E-10  1.798875E-08
       102  18 -7.103836E+05  5.718956E+04  5.878794E+04 -2.592387E+03  1.798035E-09 -2.938746E-09
       102  19 -1.165336E+06 -5.577111E+04 -5.400966E+04 -2.320943E+03 -9.462596E+02 -2.367426E+02
       102  20 -1.177886E+06 -5.736674E+04 -5.735722E+04  2.211427E+03 -6.988935E+02 -4.308089E+02
       102  21 -1.164319E+06 -5.641752E+04 -5.480954E+04 -1.261321E+03 -4.510049E+02 -1.719870E+02
       102  22 -9.373588E+05  1.290506E+03  3.048103E+03 -1.930926E+03 -9.565917E+02 -2.367587E+02
       102  23 -9.504295E+05 -4.359481E+02 -4.319245E+02  2.073619E+03 -6.982889E+02 -4.307995E+02
       102  24 -9.373745E+05  3.879673E+02  1.991148E+03 -1.926754E+03 -4.394640E+02 -1.720252E+02
       102  25 -7.093350E+05  5.834819E+04  6.010193E+04 -1.540790E+03 -9.669275E+02 -2.367748E+02
       102  26 -7.229256E+05  5.649093E+04  5.648945E+04  1.935770E+03 -6.976840E+02 -4.307900E+02
       102  27 -7.103836E+05  5.718956E+04  5.878794E+04 -2.592387E+03 -4.279188E+02 -1.720635E+02
       103   1 -7.410564E+05  4.943099E+04  5.104848E+04 -3.414778E+03 -1.528496E+02 -1.316489E+02
       103   2 -7.501304E+05  4.944905E+04  4.940076E+04  2.991041E+03 -3.759616E+02 -3.759228E+02
       103   3 -7.394939E+05  5.076188E+04  5.209711E+04 -2.600748E+03 -5.983478E+02 -2.248031E+02
       103   4 -9.388005E+05 -5.318755E+01  1.568392E+03 -2.815671E+03 -1.634316E+02 -1.316117E+02
       103   5 -9.486431E+05 -2.245078E+02 -2.678554E+02  3.182786E+03 -3.770023E+02 -3.759291E+02
       103   6 -9.387803E+05  8.947638E+02  2.233133E+03 -2.816618E+03 -5.898469E+02 -2.247971E+02
       103   7 -1.136509E+06 -4.954033E+04 -4.791465E+04 -2.216721E+03 -1.740101E+02 -1.315744E+02
       103   8 -1.147120E+06 -4.990105E+04 -4.993945E+04  3.374480E+03 -3.780427E+02 -3.759353E+02
       103   9 -1.138031E+06 -4.897536E+04 -4.763385E+04 -3.032431E+03 -5.813486E+02 -2.247910E+02
       103  10 -7.410564E+05  4.943099E+04  5.104848E+04 -3.414778E+03 -1.923027E-09  1.323617E-08
       103  11 -7.501304E+05  4.944905E+04  4.940076E+04  2.991041E+03  6.433764E-09  1.507968E-09
       103  12 -7.394939E+05  5.076188E+04  5.209711E+04 -2.600748E+03  6.639652E-10  8.164386E-10
       103  13 -9.388005E+05 -5.318758E+01  1.568392E+03 -2.815671E+03  3.731981E-11 -1.239819E-09
       103  14 -9.486431E+05 -2.245080E+02 -2.678559E+02  3.182786E+03  7.528842E-10  3.683414E-10
       103  15 -9.387803E+05  8.947636E+02  2.233132E+03 -2.816619E+03 -2.260781E-09 -1.342506E-10
       103  16 -1.136509E+06 -4.954033E+04 -4.791465E+04 -2.216721E+03  9.924603E-10 -1.266386E-08
       103  17 -1.147120E+06 -4.990105E+04 -4.993945E+04  3.374480E+03 -6.154200E-10  4.141936E-09
       103  18 -1.138031E+06 -4.897536E+04 -4.763385E+04 -3.032431E+03  1.795626E-10  1.777358E-09
       103  19 -7.410564E+05  4.943099E+04  5.104848E+04 -3.414778E+03  1.528496E+02  1.316489E+02
       103  20 -7.501304E+05  4.944905E+04  4.940076E+04  2.991041E+03  3.759616E+02  3.759228E+02
       103  21 -7.394939E+05  5.076188E+04  5.209711E+04 -2.600748E+03  5.983478E+02  2.248031E+02
       103  22 -9.388005E+05 -5.318756E+01  1.568392E+03 -2.815671E+03  1.634316E+02  1.316117E+02
       103  23 -9.486431E+05 -2.245078E+02 -2.678554E+02  3.182786E+03  3.770023E+02  3.759291E+02
       103  24 -9.387803E+05  8.947638E+02  2.233133E+03 -2.816618E+03  5.898469E+02  2.247971E+02
       103  25 -1.136509E+06 -4.954033E+04 -4.791465E+04 -2.216721E+03  1.740101E+02  1.315744E+02
       103  26 -1.147120E+06 -4.990105E+04 -4.993945E+04  3.374480E+03  3.780427E+02  3.759353E+02
       103  27 -1.138031E+06 -4.897536E+04 -4.763385E+04 -3.032431E+03  5.813486E+02  2.247910E+02
       104   1 -9.096963E+05  7.529091E+03  9.650384E+03  4.286121E+03 -1.033623E+03 -1.072431E+02
       104   2 -9.111960E+05  8.074569E+03  1.048577E+04 -5.583120E+03 -2.247685E+03 -6.692581E+01
       104   3 -9.122278E+05  8.325402E+03  1.211551E+04  4.310672E+03 -3.461976E+03  3.916047E+01
       104   4 -9.430534E+05 -8.184967E+02  1.304183E+03  4.244005E+03 -1.033347E+03 -1.072429E+02
       104   5 -9.432893E+05  4.304413E+01  2.455151E+03 -5.639283E+03 -2.245777E+03 -6.692125E+01
       104   6 -9.430575E+05  6.096382E+02  4.399355E+03  4.240524E+03 -3.458439E+03  3.917095E+01
       104   7 -9.764095E+05 -9.166169E+03 -7.042102E+03  4.201892E+03 -1.033071E+03 -1.072427E+02
       104   8 -9.753816E+05 -7.988559E+03 -5.575547E+03 -5.695445E+03 -2.243870E+03 -6.691669E+01
       104   9 -9.738864E+05 -7.106198E+03 -3.316873E+03  4.170379E+03 -3.454902E+03  3.918143E+01
       104  10 -9.096963E+05  7.529091E+03  9.650382E+03  4.286121E+03 -2.479682E-09  2.012586E-09
       104  11 -9.111960E+05  8.074568E+03  1.048576E+04 -5.583120E+03 -2.703116E-10  2.183143E-09
       104  12 -9.122278E+05  8.325399E+03  1.211549E+04  4.310672E+03  4.091300E-10  6.082515E-10
       104  13 -9.430534E+05 -8.184970E+02  1.304181E+03  4.244005E+03 -1.947486E-09 -8.908605E-10
       104  14 -9.432893E+05  4.304277E+01  2.455142E+03 -5.639283E+03 -1.082228E-09  1.921209E-09
       104  15 -9.430575E+05  6.096350E+02  4.399332E+03  4.240524E+03  2.680407E-09  2.053417E-09
       104  16 -9.764095E+05 -9.166169E+03 -7.042104E+03  4.201891E+03  2.209748E-09 -4.489301E-09
       104  17 -9.753816E+05 -7.988560E+03 -5.575557E+03 -5.695445E+03  1.800981E-09 -2.993268E-09
       104  18 -9.738864E+05 -7.106201E+03 -3.316895E+03  4.170379E+03 -1.994133E-09  1.965662E-09
       104  19 -9.096963E+05  7.529091E+03  9.650384E+03  4.286121E+03  1.033623E+03  1.072431E+02
       104  20 -9.111960E+05  8.074569E+03  1.048577E+04 -5.583120E+03  2.247685E+03  6.692581E+01
       104  21 -9.122278E+05  8.325402E+03  1.211551E+04  4.310672E+03  3.461976E+03 -3.916047E+01
       104  22 -9.430534E+05 -8.184967E+02  1.304183E+03  4.244005E+03  1.033347E+03  1.072429E+02
       104  23 -9.432893E+05  4.304413E+01  2.455151E+03 -5.639283E+03  2.245777E+03  6.692125E+01
       104  24 -9.430575E+05  6.096382E+02  4.399355E+03  4.240524E+03  3.458439E+03 -3.917095E+01
       104  25 -9.764095E+05 -9.166169E+03 -7.042102E+03  4.201892E+03  1.033071E+03  1.072427E+02
       104  26 -9.753816E+05 -7.988559E+03 -5.575547E+03 -5.695445E+03  2.243870E+03  6.691669E+01
       104  27 -9.738864E+05 -7.106198E+03 -3.316873E+03  4.170379E+03  3.454902E+03 -3.918143E+01
       105   1 -1.166797E+06 -5.704106E+04 -5.053713E+04 -2.136280E+03 -4.680929E+03  2.247374E+02
       105   2 -1.181742E+06 -6.039004E+04 -4.983803E+04  2.008721E+03 -9.258565E+03  4.401487E+02
       105   3 -1.165843E+06 -4.686730E+04 -3.672315E+04 -1.260133E+03 -1.383672E+04  2.394285E+02
       105   4 -9.363103E+05  6.485379E+02  7.148770E+03 -1.807514E+03 -4.671733E+03  2.247523E+02
       105   5 -9.517388E+05 -2.821867E+03  7.724438E+03  1.919232E+03 -9.260831E+03  4.401397E+02
       105   6 -9.363185E+05  1.058234E+04  2.072247E+04 -1.767688E+03 -1.385044E+04  2.394714E+02
       105   7 -7.057752E+05  5.833412E+04  6.483065E+04 -1.478652E+03 -4.662534E+03  2.247671E+02
       105   8 -7.216879E+05  5.474230E+04  6.528290E+04  1.829718E+03 -9.263097E+03  4.401308E+02
       105   9 -7.067461E+05  6.802799E+04  7.816410E+04 -2.275387E+03 -1.386417E+04  2.395142E+02
       105  10 -1.166797E+06 -5.704107E+04 -5.053717E+04 -2.136280E+03  3.108705E-09 -5.427937E-10
       105  11 -1.181742E+06 -6.039006E+04 -4.983819E+04  2.008724E+03  1.014195E-10 -2.510586E-10
       105  12 -1.165843E+06 -4.686735E+04 -3.672351E+04 -1.260130E+03 -2.131885E-09 -1.632808E-09
       105  13 -9.363103E+05  6.485319E+02  7.148729E+03 -1.807513E+03  6.894545E-11 -8.099947E-10
       105  14 -9.517388E+05 -2.821891E+03  7.724277E+03  1.919235E+03 -1.840202E-09  9.643054E-10
       105  15 -9.363187E+05  1.058229E+04  2.072211E+04 -1.767685E+03  4.221535E-09 -1.277033E-09
       105  16 -7.057753E+05  5.833411E+04  6.483061E+04 -1.478651E+03 -1.291722E-09 -1.052979E-09
       105  17 -7.216880E+05  5.474227E+04  6.528274E+04  1.829721E+03  2.288457E-09  2.307675E-09
       105  18 -7.067463E+05  6.802794E+04  7.816374E+04 -2.275385E+03  1.373055E-09 -3.844390E-09
       105  19 -1.166797E+06 -5.704106E+04 -5.053713E+04 -2.136280E+03  4.680929E+03 -2.247374E+02
       105  20 -1.181742E+06 -6.039004E+04 -4.983803E+04  2.008721E+03  9.258565E+03 -4.401487E+02
       105  21 -1.165843E+06 -4.686730E+04 -3.672315E+04 -1.260133E+03  1.383672E+04 -2.394285E+02
       105  22 -9.363103E+05  6.485379E+02  7.148770E+03 -1.807514E+03  4.671733E+03 -2.247523E+02
       105  23 -9.517388E+05 -2.821867E+03  7.724438E+03  1.919232E+03  9.260831E+03 -4.401397E+02
       105  24 -9.363185E+05  1.058234E+04  2.072247E+04 -1.767688E+03  1.385044E+04 -2.394714E+02
       105  25 -7.057752E+05  5.833412E+04  6.483065E+04 -1.478652E+03  4.662534E+03 -2.247671E+02
       105  26 -7.216879E+05  5.474230E+04  6.528290E+04  1.829718E+03  9.263097E+03 -4.401308E+02
       105  27 -7.067461E+05  6.802799E+04  7.816410E+04 -2.275387E+03  1.386417E+04 -2.395142E+02
       106   1 -7.401138E+05  4.616649E+04  7.256521E+04 -3.036289E+03 -1.820998E+04 -6.069116E+01
       106   2 -7.616123E+05  3.274335E+04  8.300422E+04  2.902226E+03 -3.749719E+04 -3.338474E+02
       106   3 -7.384306E+05  1.140669E+05  1.333962E+05 -3.945999E+03 -5.678439E+04 -2.201206E+02
       106   4 -9.332519E+05 -2.159861E+03  2.423928E+04 -2.990270E+03 -1.821899E+04 -6.064502E+01
       106   5 -9.555660E+05 -1.579111E+04  3.447651E+04  3.370535E+03 -3.749165E+04 -3.338790E+02
       106   6 -9.331980E+05  6.533493E+04  8.466432E+04 -3.055616E+03 -5.676427E+04 -2.201976E+02
       106   7 -1.126356E+06 -5.048904E+04 -2.408948E+04 -2.944234E+03 -1.822800E+04 -6.059887E+01
       106   8 -1.149486E+06 -6.432842E+04 -1.405404E+04  3.838709E+03 -3.748611E+04 -3.339105E+02
       106   9 -1.127931E+06  1.660009E+04  3.592962E+04 -2.165522E+03 -5.674415E+04 -2.202746E+02
       106  10 -7.401141E+05  4.616640E+04  7.256458E+04 -3.036290E+03  2.276127E-09 -1.485998E-09
       106  11 -7.616138E+05  3.274297E+04  8.300158E+04  2.902216E+03  3.557294E-09  2.359087E-09
       106  12 -7.384341E+05  1.140660E+05  1.333901E+05 -3.946009E+03  1.020797E-09  1.247768E-09
       106  13 -9.332523E+05 -2.159951E+03  2.423865E+04 -2.990271E+03 -3.995004E-10 -4.823892E-09
       106  14 -9.555676E+05 -1.579149E+04  3.447387E+04  3.370525E+03  1.545486E-09 -6.582070E-10
       106  15 -9.332014E+05  6.533406E+04  8.465826E+04 -3.055626E+03  1.373889E-09  4.705614E-10
       106  16 -1.126357E+06 -5.048913E+04 -2.409010E+04 -2.944235E+03 -1.950794E-09 -3.371793E-09
       106  17 -1.149487E+06 -6.432880E+04 -1.405668E+04  3.838699E+03  3.720449E-09  1.347161E-09
       106  18 -1.127934E+06  1.659922E+04  3.592356E+04 -2.165533E+03  6.522172E-11  8.537588E-10
       106  19 -7.401138E+05  4.616649E+04  7.256521E+04 -3.036289E+03  1.820998E+04  6.069116E+01
       106  20 -7.616123E+05  3.274335E+04  8.300422E+04  2.902226E+03  3.749719E+04  3.338474E+02
       106  21 -7.384306E+05  1.140669E+05  1.333962E+05 -3.945999E+03  5.678439E+04  2.201206E+02
       106  22 -9.332519E+05 -2.159861E+03  2.423928E+04 -2.990270E+03  1.821899E+04  6.064502E+01
       106  23 -9.555660E+05 -1.579111E+04  3.447651E+04  3.370535E+03  3.749165E+04  3.338790E+02
       106  24 -9.331980E+05  6.533493E+04  8.466432E+04 -3.055616E+03  5.676427E+04  2.201976E+02
       106  25 -1.126356E+06 -5.048904E+04 -2.408948E+04 -2.944234E+03  1.822800E+04  6.059887E+01
       106  26 -1.149486E+06 -6.432842E+04 -1.405404E+04  3.838709E+03  3.748611E+04  3.339105E+02
       106  27 -1.127931E+06  1.660009E+04  3.592962E+04 -2.165522E+03  5.674415E+04  2.202746E+02
       107   1  3.320018E+05  1.576265E+05  3.607013E+05 -2.491791E+05  4.225188E+02  2.234788E+05
       107   2  9.398940E+04  7.537529E+04  1.859748E+05 -1.433539E+05  2.384328E+03  1.305757E+05
       107   3  2.094768E+04  4.639635E+04  1.129769E+05 -4.894466E+04  8.095794E+02  3.766986E+04
       107   4  2.962355E+05  1.915259E+04  3.271545E+05 -5.928209E+04  5.085532E+02  2.173369E+05
       107   5  7.340963E+04 -6.928727E+03  1.685361E+05 -5.398638E+04  2.402564E+03  1.307640E+05
       107   6  1.443414E+04  1.915569E+04  1.072610E+05 -6.009054E+04  7.898701E+02  4.417981E+04
       107   7  2.606030E+05 -1.192265E+05  2.936258E+05  1.305723E+05  5.908458E+02  2.111963E+05
       107   8  5.285938E+04 -8.920925E+04  1.511014E+05  3.536912E+04  2.420857E+03  1.309522E+05
       107   9  7.921041E+03 -8.083906E+03  1.015452E+05 -7.123592E+04  7.699266E+02  5.068947E+04
       107  10  3.319884E+05  1.575729E+05  3.606075E+05 -2.491792E+05 -6.185738E-10  6.353583E-09
       107  11  9.398481E+04  7.535698E+04  1.859428E+05 -1.433542E+05  3.634919E-10  1.912623E-09
       107  12  2.094730E+04  4.639482E+04  1.129742E+05 -4.894469E+04 -1.361106E-09 -3.142393E-09
       107  13  2.962228E+05  1.910188E+04  3.270657E+05 -5.928218E+04  8.059373E-10 -8.156692E-12
       107  14  7.340503E+04 -6.947088E+03  1.685040E+05 -5.398663E+04  1.038827E-09  1.931347E-11
       107  15  1.443361E+04  1.915359E+04  1.072573E+05 -6.009057E+04 -3.544492E-09 -4.001268E-10
       107  16  2.605911E+05 -1.192744E+05  2.935419E+05  1.305722E+05 -1.099086E-09 -6.707923E-09
       107  17  5.285477E+04 -8.922767E+04  1.510691E+05  3.536886E+04  2.426595E-09 -2.263911E-09
       107  18  7.920350E+03 -8.086665E+03  1.015404E+05 -7.123595E+04  6.138512E-10  3.036187E-09
       107  19  3.320018E+05  1.576265E+05  3.607013E+05 -2.491791E+05 -4.225188E+02 -2.234788E+05
       107  20  9.398940E+04  7.537529E+04  1.859748E+05 -1.433539E+05 -2.384328E+03 -1.305757E+05
       107  21  2.094768E+04  4.639635E+04  1.129769E+05 -4.894466E+04 -8.095794E+02 -3.766986E+04
       107  22  2.962355E+05  1.915259E+04  3.271545E+05 -5.928209E+04 -5.085532E+02 -2.173369E+05
       107  23  7.340963E+04 -6.928727E+03  1.685361E+05 -5.398638E+04 -2.402564E+03 -1.307640E+05
       107  24  1.443414E+04  1.915569E+04  1.072610E+05 -6.009054E+04 -7.898701E+02 -4.417981E+04
       107  25  2.606030E+05 -1.192265E+05  2.936258E+05  1.305723E+05 -5.908458E+02 -2.111963E+05
       107  26  5.285938E+04 -8.920925E+04  1.511014E+05  3.536912E+04 -2.420857E+03 -1.309522E+05
       107  27  7.921041E+03 -8.083906E+03  1.015452E+05 -7.123592E+04 -7.699266E+02 -5.068947E+04
       108   1  1.361155E+04  8.657089E+02  9.279649E+04 -6.976897E+04 -1.374399E+03  2.246851E+04
       108   2 -8.202772E+03 -6.084152E+04  7.533768E+04 -5.312422E+04 -4.590271E+03 -2.006767E+04
       108   3 -6.894289E+03 -1.113055E+05  9.133944E+04 -4.835312E+04 -7.519457E+03 -6.259970E+04
       108   4  1.553770E+04  1.007864E+04  9.355317E+04 -6.010388E+04 -1.392391E+03  2.874124E+04
       108   5  7.028976E+03  4.413465E+03  8.620455E+04 -5.415848E+04 -4.606925E+03 -1.431654E+04
       108   6  2.173188E+04  1.007734E+04  1.126769E+05 -6.008560E+04 -7.533334E+03 -5.737377E+04
       108   7  1.746423E+04  1.929194E+04  9.431005E+04 -5.043865E+04 -1.410187E+03  3.501405E+04
       108   8  2.226052E+04  6.967272E+04  9.707142E+04 -5.519285E+04 -4.623598E+03 -8.564826E+03
       108   9  5.035776E+04  1.314749E+05  1.340141E+05 -7.182043E+04 -7.547408E+03 -5.214686E+04
       108  10  1.361141E+04  8.651664E+02  9.279554E+04 -6.976894E+04 -1.885836E-09  8.907674E-08
       108  11 -8.202903E+03 -6.084195E+04  7.533688E+04 -5.312430E+04 -3.364946E-09 -3.454681E-10
       108  12 -6.895402E+03 -1.113097E+05  9.133197E+04 -4.835350E+04 -3.420192E-09 -9.058780E-08
       108  13  1.553748E+04  1.007775E+04  9.355161E+04 -6.010385E+04 -3.554187E-09 -2.219667E-11
       108  14  7.028898E+03  4.413239E+03  8.620412E+04 -5.415854E+04 -7.279855E-09  1.526055E-10
       108  15  2.173093E+04  1.007379E+04  1.126706E+05 -6.008595E+04 -2.811545E-09 -3.563082E-10
       108  16  1.746390E+04  1.929063E+04  9.430774E+04 -5.043861E+04 -1.587852E-09 -8.939949E-08
       108  17  2.226048E+04  6.967264E+04  9.707124E+04 -5.519288E+04 -3.004561E-09 -1.519417E-11
       108  18  5.035697E+04  1.314720E+05  1.340089E+05 -7.182075E+04 -3.236879E-09  9.046033E-08
       108  19  1.361155E+04  8.657089E+02  9.279649E+04 -6.976897E+04  1.374399E+03 -2.246851E+04
       108  20 -8.202772E+03 -6.084152E+04  7.533768E+04 -5.312422E+04  4.590271E+03  2.006767E+04
       108  21 -6.894289E+03 -1.113055E+05  9.133944E+04 -4.835312E+04  7.519457E+03  6.259970E+04
       108  22  1.553770E+04  1.007864E+04  9.355317E+04 -6.010388E+04  1.392391E+03 -2.874124E+04
       108  23  7.028976E+03  4.413465E+03  8.620455E+04 -5.415848E+04  4.606925E+03  1.431654E+04
       108  24  2.173188E+04  1.007734E+04  1.126769E+05 -6.008560E+04  7.533334E+03  5.737377E+04
       108  25  1.746423E+04  1.929194E+04  9.431005E+04 -5.043865E+04  1.410187E+03 -3.501405E+04
       108  26  2.226052E+04  6.967272E+04  9.707142E+04 -5.519285E+04  4.623598E+03  8.564826E+03
       108  27  5.035776E+04  1.314749E+05  1.340141E+05 -7.182043E+04  7.547408E+03  5.214686E+04
       109   1 -1.715147E+04 -1.341664E+05  1.092930E+05 -7.643026E+04 -9.496028E+03 -8.198461E+04
       109   2  5.212523E+04 -2.251611E+05  1.898248E+05  7.178198E+04 -9.174752E+03 -1.894406E+05
       109   3  3.507151E+05 -2.448418E+05  3.976933E+05  2.089254E+05 -2.418354E+03 -2.968661E+05
       109   4  1.995283E+04  2.384394E+04  1.373624E+05 -6.004026E+04 -9.514546E+03 -7.626308E+04
       109   5  1.038180E+05 -1.279274E+04  2.317568E+05 -5.394062E+04 -9.119228E+03 -1.954201E+05
       109   6  4.189057E+05  2.383663E+04  4.615775E+05 -5.891170E+04 -2.240600E+03 -3.145583E+05
       109   7  5.705680E+04  1.818794E+05  1.654311E+05 -4.364594E+04 -9.532758E+03 -7.054014E+04
       109   8  1.555673E+05  1.996526E+05  2.736951E+05 -1.797072E+05 -9.061295E+03 -2.014017E+05
       109   9  4.873604E+05  2.927357E+05  5.254962E+05 -3.268657E+05 -2.047634E+03 -3.322582E+05
       109  10 -1.715337E+04 -1.341737E+05  1.092802E+05 -7.643089E+04 -3.796482E-09  4.296087E-09
       109  11  5.211550E+04 -2.251996E+05  1.897572E+05  7.178058E+04  9.519183E-10 -1.091998E-09
       109  12  3.506915E+05 -2.449365E+05  3.975276E+05  2.089249E+05  6.134221E-10 -7.893281E-09
       109  13  1.995117E+04  2.383767E+04  1.373513E+05 -6.004084E+04 -1.648652E-09  5.966009E-11
       109  14  1.038077E+05 -1.283377E+04  2.316849E+05 -5.394205E+04 -9.741546E-10  1.473691E-10
       109  15  4.188791E+05  2.373042E+04  4.613915E+05 -5.891227E+04 -5.966984E-10 -3.514333E-10
       109  16  5.705537E+04  1.818740E+05  1.654215E+05 -4.364649E+04 -2.148502E-09 -4.800040E-09
       109  17  1.555564E+05  1.996091E+05  2.736188E+05 -1.797087E+05  1.837790E-09  6.520342E-10
       109  18  4.873308E+05  2.926173E+05  5.252888E+05 -3.268663E+05  1.936715E-09  7.688869E-09
       109  19 -1.715147E+04 -1.341664E+05  1.092930E+05 -7.643026E+04  9.496028E+03  8.198461E+04
       109  20  5.212523E+04 -2.251611E+05  1.898248E+05  7.178198E+04  9.174752E+03  1.894406E+05
       109  21  3.507151E+05 -2.448418E+05  3.976933E+05  2.089254E+05  2.418354E+03  2.968661E+05
       109  22  1.995283E+04  2.384394E+04  1.373624E+05 -6.004026E+04  9.514546E+03  7.626308E+04
       109  23  1.038180E+05 -1.279274E+04  2.317568E+05 -5.394062E+04  9.119228E+03  1.954201E+05
       109  24  4.189057E+05  2.383663E+04  4.615775E+05 -5.891170E+04  2.240600E+03  3.145583E+05
       109  25  5.705680E+04  1.818794E+05  1.654311E+05 -4.364594E+04  9.532758E+03  7.054014E+04
       109  26  1.555673E+05  1.996526E+05  2.736951E+05 -1.797072E+05  9.061295E+03  2.014017E+05
       109  27  4.873604E+05  2.927357E+05  5.254962E+05 -3.268657E+05  2.047634E+03  3.322582E+05
       110   1 -4.684368E+06 -1.460010E+06 -8.503527E+05 -1.672979E+06 -3.498315E+05 -1.150045E+05
       110   2 -4.559168E+06 -9.296220E+05 -5.200638E+05 -1.677333E+06 -2.282535E+05 -3.434497E+04
       110   3 -4.573013E+06 -8.869261E+05 -4.105688E+05 -1.617778E+06 -9.423776E+04  1.345324E+04
       110   4 -3.498575E+06 -8.848160E+05 -5.026191E+05 -1.221190E+06 -3.241083E+05 -1.053751E+05
       110   5 -3.404122E+06 -4.568611E+05 -2.112658E+05 -1.323210E+06 -2.206755E+05 -3.151102E+04
       110   6 -3.444772E+06 -5.124988E+05 -1.259330E+05 -1.361417E+06 -1.048270E+05  9.471036E+03
       110   7 -2.311385E+06 -3.092567E+05 -1.550243E+05 -7.685287E+05 -2.983305E+05 -9.571190E+04
       110   8 -2.247771E+06  1.604873E+04  9.741281E+04 -9.684640E+05 -2.130816E+05 -2.866991E+04
       110   9 -2.315287E+06 -1.380574E+05  1.586039E+05 -1.104662E+06 -1.154374E+05  5.483055E+03
       110  10 -4.684504E+06 -1.460057E+06 -8.506097E+05 -1.673012E+06  5.983122E-10  2.805820E-10
       110  11 -4.559225E+06 -9.296374E+05 -5.201647E+05 -1.677339E+06  1.073519E-09  1.561105E-09
       110  12 -4.573022E+06 -8.869287E+05 -4.105859E+05 -1.617777E+06  2.312344E-09  2.646239E-09
       110  13 -3.498692E+06 -8.848564E+05 -5.028388E+05 -1.221217E+06 -1.683554E-10 -2.484986E-11
       110  14 -3.404175E+06 -4.568753E+05 -2.113597E+05 -1.323216E+06  2.391449E-09  1.220906E-09
       110  15 -3.444783E+06 -5.125018E+05 -1.259540E+05 -1.361416E+06  4.766991E-09  4.203108E-10
       110  16 -2.311483E+06 -3.092906E+05 -1.552096E+05 -7.685517E+05  2.733030E-09  8.026116E-10
       110  17 -2.247820E+06  1.603560E+04  9.732559E+04 -9.684690E+05  2.715430E-11  5.371939E-10
       110  18 -2.315301E+06 -1.380611E+05  1.585788E+05 -1.104662E+06  6.229265E-10 -9.352985E-10
       110  19 -4.684368E+06 -1.460010E+06 -8.503527E+05 -1.672979E+06  3.498315E+05  1.150045E+05
       110  20 -4.559168E+06 -9.296220E+05 -5.200638E+05 -1.677333E+06  2.282535E+05  3.434497E+04
       110  21 -4.573013E+06 -8.869261E+05 -4.105688E+05 -1.617778E+06  9.423776E+04 -1.345324E+04
       110  22 -3.498575E+06 -8.848160E+05 -5.026191E+05 -1.221190E+06  3.241083E+05  1.053751E+05
       110  23 -3.404122E+06 -4.568611E+05 -2.112658E+05 -1.323210E+06  2.206755E+05  3.151102E+04
       110  24 -3.444772E+06 -5.124988E+05 -1.259330E+05 -1.361417E+06  1.048270E+05 -9.471036E+03
       110  25 -2.311385E+06 -3.092567E+05 -1.550243E+05 -7.685287E+05  2.983305E+05  9.571190E+04
       110  26 -2.247771E+06  1.604873E+04  9.741281E+04 -9.684640E+05  2.130816E+05  2.866991E+04
       110  27 -2.315287E+06 -1.380574E+05  1.586039E+05 -1.104662E+06  1.154374E+05 -5.483055E+03
       111   1 -4.389666E+06 -9.371293E+05 -3.559655E+05 -1.608405E+06 -8.382768E+04  9.191626E+03
       111   2 -4.302587E+06 -8.248954E+05 -2.751542E+05 -1.554505E+06 -5.584848E+04  1.667150E+04
       111   3 -4.182302E+06 -8.081838E+05 -2.261458E+05 -1.549767E+06 -2.697811E+04  2.177132E+04
       111   4 -3.426967E+06 -5.638860E+05 -1.019631E+05 -1.334653E+06 -8.472684E+04  8.847396E+03
       111   5 -3.441077E+06 -4.981545E+05 -4.975780E+04 -1.316843E+06 -5.803705E+04  1.584607E+04
       111   6 -3.421710E+06 -5.276445E+05 -2.828865E+04 -1.348200E+06 -3.046161E+04  2.046362E+04
       111   7 -2.463359E+06 -1.905685E+05  1.519602E+05 -1.060508E+06 -8.562746E+04  8.502583E+03
       111   8 -2.578842E+06 -1.713634E+05  1.755760E+05 -1.078879E+06 -6.022893E+04  1.501938E+04
       111   9 -2.660554E+06 -2.470749E+05  1.695200E+05 -1.146411E+06 -3.394979E+04  1.915424E+04
       111  10 -4.389673E+06 -9.371313E+05 -3.559789E+05 -1.608404E+06  6.916753E-09  3.870201E-09
       111  11 -4.302590E+06 -8.248965E+05 -2.751607E+05 -1.554504E+06  4.078129E-09  7.138592E-10
       111  12 -4.182303E+06 -8.081845E+05 -2.261481E+05 -1.549766E+06 -5.897312E-09 -2.054827E-10
       111  13 -3.426975E+06 -5.638880E+05 -1.019768E+05 -1.334653E+06  7.644819E-09  5.577886E-10
       111  14 -3.441081E+06 -4.981556E+05 -4.976463E+04 -1.316842E+06  2.884737E-09  1.056523E-09
       111  15 -3.421711E+06 -5.276452E+05 -2.829119E+04 -1.348199E+06  5.483814E-10  2.268889E-09
       111  16 -2.463367E+06 -1.905706E+05  1.519463E+05 -1.060507E+06 -3.280827E-09 -2.936892E-09
       111  17 -2.578845E+06 -1.713646E+05  1.755687E+05 -1.078878E+06  2.511848E-10  1.549643E-09
       111  18 -2.660556E+06 -2.470756E+05  1.695172E+05 -1.146410E+06  6.409222E-09  4.993690E-09
       111  19 -4.389666E+06 -9.371293E+05 -3.559655E+05 -1.608405E+06  8.382768E+04 -9.191626E+03
       111  20 -4.302587E+06 -8.248954E+05 -2.751542E+05 -1.554505E+06  5.584848E+04 -1.667150E+04
       111  21 -4.182302E+06 -8.081838E+05 -2.261458E+05 -1.549767E+06  2.697811E+04 -2.177132E+04
       111  22 -3.426967E+06 -5.638860E+05 -1.019631E+05 -1.334653E+06  8.472684E+04 -8.847396E+03
       111  23 -3.441077E+06 -4.981545E+05 -4.975780E+04 -1.316843E+06  5.803705E+04 -1.584607E+04
       111  24 -3.421710E+06 -5.276445E+05 -2.828865E+04 -1.348200E+06  3.046161E+04 -2.046362E+04
       111  25 -2.463359E+06 -1.905685E+05  1.519602E+05 -1.060508E+06  8.562746E+04 -8.502583E+03
       111  26 -2.578842E+06 -1.713634E+05  1.755760E+05 -1.078879E+06  6.022893E+04 -1.501938E+04
       111  27 -2.660554E+06 -2.470749E+05  1.695200E+05 -1.146411E+06  3.394979E+04 -1.915424E+04
       112   1 -4.039380E+06 -7.670914E+05 -1.836501E+05 -1.516131E+06 -2.226676E+04  1.966005E+04
       112   2 -3.950093E+06 -6.903080E+05 -1.430846E+05 -1.452083E+06 -1.428035E+04  1.659696E+04
       112   3 -3.805970E+06 -6.747043E+05 -1.080875E+05 -1.452531E+06 -6.196713E+03  1.325957E+04
       112   4 -3.418802E+06 -5.334353E+05 -2.197089E+04 -1.346575E+06 -2.516690E+04  1.857230E+04
       112   5 -3.445954E+06 -5.010659E+05 -1.158446E+04 -1.314989E+06 -1.732768E+04  1.545584E+04
       112   6 -3.418255E+06 -5.298421E+05 -6.643709E+03 -1.347901E+06 -9.392490E+03  1.206477E+04
       112   7 -2.797849E+06 -2.997556E+05  1.396753E+05 -1.176865E+06 -2.807021E+04  1.748336E+04
       112   8 -2.941568E+06 -3.118081E+05  1.198943E+05 -1.177793E+06 -2.037773E+04  1.431371E+04
       112   9 -3.030393E+06 -3.849706E+05  9.478766E+04 -1.243210E+06 -1.259048E+04  1.086916E+04
       112  10 -4.039381E+06 -7.670920E+05 -1.836517E+05 -1.516131E+06 -1.338532E-09  2.628216E-09
       112  11 -3.950093E+06 -6.903084E+05 -1.430855E+05 -1.452083E+06  1.595543E-09 -9.145426E-10
       112  12 -3.805970E+06 -6.747045E+05 -1.080879E+05 -1.452531E+06  2.592911E-09 -1.707478E-09
       112  13 -3.418802E+06 -5.334359E+05 -2.197273E+04 -1.346575E+06 -2.252874E-09  2.317127E-09
       112  14 -3.445955E+06 -5.010662E+05 -1.158547E+04 -1.314989E+06  2.152119E-09 -4.085389E-10
       112  15 -3.418255E+06 -5.298423E+05 -6.644148E+03 -1.347901E+06 -1.689847E-09 -2.350510E-09
       112  16 -2.797850E+06 -2.997561E+05  1.396732E+05 -1.176865E+06 -3.174035E-09  8.995241E-10
       112  17 -2.941568E+06 -3.118085E+05  1.198931E+05 -1.177793E+06 -1.263460E-09 -1.336152E-09
       112  18 -3.030393E+06 -3.849708E+05  9.478714E+04 -1.243210E+06 -1.641817E-09 -1.579893E-09
       112  19 -4.039380E+06 -7.670914E+05 -1.836501E+05 -1.516131E+06  2.226676E+04 -1.966005E+04
       112  20 -3.950093E+06 -6.903080E+05 -1.430846E+05 -1.452083E+06  1.428035E+04 -1.659696E+04
       112  21 -3.805970E+06 -6.747043E+05 -1.080875E+05 -1.452531E+06  6.196713E+03 -1.325957E+04
       112  22 -3.418802E+06 -5.334353E+05 -2.197089E+04 -1.346575E+06  2.516690E+04 -1.857230E+04
       112  23 -3.445954E+06 -5.010659E+05 -1.158446E+04 -1.314989E+06  1.732768E+04 -1.545584E+04
       112  24 -3.418255E+06 -5.298421E+05 -6.643709E+03 -1.347901E+06  9.392490E+03 -1.206477E+04
       112  25 -2.797849E+06 -2.997556E+05  1.396753E+05 -1.176865E+06  2.807021E+04 -1.748336E+04
       112  26 -2.941568E+06 -3.118081E+05  1.198943E+05 -1.177793E+06  2.037773E+04 -1.431371E+04
       112  27 -3.030393E+06 -3.849706E+05  9.478766E+04 -1.243210E+06  1.259048E+04 -1.086916E+04
       113   1 -3.660344E+06 -6.217087E+05 -6.808515E+04 -1.414125E+06 -3.998100E+03  1.028733E+04
       113   2 -3.568144E+06 -5.462651E+05 -3.493799E+04 -1.347165E+06 -1.763847E+02  5.206743E+03
       113   3 -3.417276E+06 -5.303708E+05 -3.181876E+03 -1.348137E+06  3.659519E+03  8.440464E+01
       113   4 -3.417563E+06 -5.307634E+05 -5.232934E+03 -1.348176E+06 -7.179647E+03  9.098622E+03
       113   5 -3.446864E+06 -5.008290E+05 -3.326809E+03 -1.314267E+06 -3.380826E+03  4.009897E+03
       113   6 -3.417509E+06 -5.304389E+05 -2.792092E+03 -1.348293E+06  4.317793E+02 -1.120635E+03
       113   7 -3.174724E+06 -4.398142E+05  5.761453E+04 -1.282203E+06 -1.036257E+04  7.909403E+03
       113   8 -3.325571E+06 -4.553923E+05  2.828299E+04 -1.281363E+06 -6.585939E+03  2.812800E+03
       113   9 -3.417741E+06 -5.305070E+05 -2.402260E+03 -1.348450E+06 -2.795919E+03 -2.325658E+03
       113  10 -3.660344E+06 -6.217088E+05 -6.808538E+04 -1.414125E+06 -1.298108E-10 -8.145632E-10
       113  11 -3.568144E+06 -5.462651E+05 -3.493804E+04 -1.347165E+06 -2.711990E-09  1.105117E-09
       113  12 -3.417276E+06 -5.303708E+05 -3.181902E+03 -1.348137E+06  1.991625E-09 -1.604026E-09
       113  13 -3.417563E+06 -5.307635E+05 -5.233186E+03 -1.348176E+06  8.768237E-11 -7.604140E-10
       113  14 -3.446864E+06 -5.008291E+05 -3.326861E+03 -1.314266E+06  2.220727E-09  2.682631E-09
       113  15 -3.417509E+06 -5.304389E+05 -2.792094E+03 -1.348293E+06  4.779474E-10 -1.138633E-09
       113  16 -3.174724E+06 -4.398143E+05  5.761421E+04 -1.282203E+06  2.634335E-09  2.765555E-11
       113  17 -3.325571E+06 -4.553923E+05  2.828289E+04 -1.281363E+06  6.593896E-10  2.851621E-10
       113  18 -3.417741E+06 -5.305070E+05 -2.402285E+03 -1.348450E+06  1.458464E-10 -1.503639E-09
       113  19 -3.660344E+06 -6.217087E+05 -6.808515E+04 -1.414125E+06  3.998100E+03 -1.028733E+04
       113  20 -3.568144E+06 -5.462651E+05 -3.493799E+04 -1.347165E+06  1.763847E+02 -5.206743E+03
       113  21 -3.417276E+06 -5.303708E+05 -3.181876E+03 -1.348137E+06 -3.659519E+03 -8.440464E+01
       113  22 -3.417563E+06 -5.307634E+05 -5.232934E+03 -1.348176E+06  7.179647E+03 -9.098622E+03
       113  23 -3.446864E+06 -5.008290E+05 -3.326809E+03 -1.314267E+06  3.380826E+03 -4.009897E+03
       113  24 -3.417509E+06 -5.304389E+05 -2.792092E+03 -1.348293E+06 -4.317793E+02  1.120635E+03
       113  25 -3.174724E+06 -4.398142E+05  5.761453E+04 -1.282203E+06  1.036257E+04 -7.909403E+03
       113  26 -3.325571E+06 -4.553923E+05  2.828299E+04 -1.281363E+06  6.585939E+03 -2.812800E+03
       113  27 -3.417741E+06 -5.305070E+05 -2.402260E+03 -1.348450E+06  2.795919E+03  2.325658E+03
       114   1 -3.270496E+06 -4.751939E+05  3.591000E+04 -1.308367E+06  5.375121E+03 -3.105182E+03
       114   2 -3.179156E+06 -4.007168E+05  6.586085E+04 -1.241809E+06  9.404278E+03 -8.118498E+03
       114   3 -3.029642E+06 -3.853602E+05  9.426240E+04 -1.242544E+06  1.340701E+04 -1.304954E+04
       114   4 -3.417622E+06 -5.303109E+05 -2.882608E+03 -1.348169E+06  2.153130E+03 -4.308256E+03
       114   5 -3.446739E+06 -5.009798E+05 -3.872343E+03 -1.314433E+06  6.226758E+03 -9.306000E+03
       114   6 -3.417705E+06 -5.307821E+05 -6.446528E+03 -1.348000E+06  1.027352E+04 -1.422154E+04
       114   7 -3.564728E+06 -5.854273E+05 -4.167747E+04 -1.387962E+06 -1.068053E+03 -5.511030E+03
       114   8 -3.714255E+06 -6.012394E+05 -7.361221E+04 -1.387030E+06  3.050716E+03 -1.049295E+04
       114   9 -3.805623E+06 -6.761959E+05 -1.071688E+05 -1.453397E+06  7.142169E+03 -1.539274E+04
       114  10 -3.270496E+06 -4.751939E+05  3.590993E+04 -1.308367E+06  8.400312E-10 -2.534403E-09
       114  11 -3.179156E+06 -4.007168E+05  6.586056E+04 -1.241809E+06  1.022077E-08  4.396976E-09
       114  12 -3.029642E+06 -3.853604E+05  9.426174E+04 -1.242544E+06  1.681821E-08  9.293567E-09
       114  13 -3.417622E+06 -5.303110E+05 -2.882651E+03 -1.348169E+06  3.400351E-09 -1.385011E-09
       114  14 -3.446739E+06 -5.009799E+05 -3.872578E+03 -1.314433E+06  1.035844E-09 -4.845568E-11
       114  15 -3.417705E+06 -5.307824E+05 -6.447106E+03 -1.348000E+06  5.656142E-09  9.572453E-09
       114  16 -3.564728E+06 -5.854274E+05 -4.167753E+04 -1.387962E+06  4.363521E-09 -1.320487E-09
       114  17 -3.714255E+06 -6.012395E+05 -7.361243E+04 -1.387030E+06 -5.251158E-09 -4.251720E-09
       114  18 -3.805623E+06 -6.761962E+05 -1.071694E+05 -1.453397E+06 -6.201221E-09 -1.884796E-09
       114  19 -3.270496E+06 -4.751939E+05  3.591000E+04 -1.308367E+06 -5.375121E+03  3.105182E+03
       114  20 -3.179156E+06 -4.007168E+05  6.586085E+04 -1.241809E+06 -9.404278E+03  8.118498E+03
       114  21 -3.029642E+06 -3.853602E+05  9.426240E+04 -1.242544E+06 -1.340701E+04  1.304954E+04
       114  22 -3.417622E+06 -5.303109E+05 -2.882608E+03 -1.348169E+06 -2.153130E+03  4.308256E+03
       114  23 -3.446739E+06 -5.009798E+05 -3.872343E+03 -1.314433E+06 -6.226758E+03  9.306000E+03
       114  24 -3.417705E+06 -5.307821E+05 -6.446528E+03 -1.348000E+06 -1.027352E+04  1.422154E+04
       114  25 -3.564728E+06 -5.854273E+05 -4.167747E+04 -1.387962E+06  1.068053E+03  5.511030E+03
       114  26 -3.714255E+06 -6.012394E+05 -7.361221E+04 -1.387030E+06 -3.050716E+03  1.049295E+04
       114  27 -3.805623E+06 -6.761959E+05 -1.071688E+05 -1.453397E+06 -7.142169E+03  1.539274E+04
       115   1 -2.888095E+06 -3.312230E+05  1.303124E+05 -1.204157E+06  1.583746E+04 -1.586746E+04
       115   2 -2.801657E+06 -2.596819E+05  1.532089E+05 -1.140189E+06  2.509139E+04 -1.861133E+04
       115   3 -2.662271E+06 -2.488820E+05  1.693837E+05 -1.138666E+06  3.423444E+04 -2.103281E+04
       115   4 -3.418682E+06 -5.295180E+05 -8.285491E+03 -1.347550E+06  1.269846E+04 -1.704262E+04
       115   5 -3.445477E+06 -5.014038E+05 -1.463122E+04 -1.315482E+06  2.212388E+04 -1.972458E+04
       115   6 -3.419374E+06 -5.340725E+05 -2.783985E+04 -1.345867E+06  3.143698E+04 -2.208448E+04
       115   7 -3.948988E+06 -7.277940E+05 -1.469053E+05 -1.490829E+06  9.562457E+03 -1.821667E+04
       115   8 -4.088891E+06 -7.430992E+05 -1.825057E+05 -1.490609E+06  1.915976E+04 -2.083655E+04
       115   9 -4.175922E+06 -8.192280E+05 -2.251128E+05 -1.552838E+06  2.864325E+04 -2.313475E+04
       115  10 -2.888096E+06 -3.312233E+05  1.303114E+05 -1.204157E+06 -1.467436E-08 -4.493854E-09
       115  11 -2.801657E+06 -2.596825E+05  1.532071E+05 -1.140189E+06 -1.066746E-08 -6.783436E-09
       115  12 -2.662273E+06 -2.488827E+05  1.693807E+05 -1.138666E+06  2.956363E-09 -1.044480E-09
       115  13 -3.418682E+06 -5.295184E+05 -8.286339E+03 -1.347549E+06  4.587858E-09  8.270762E-09
       115  14 -3.445478E+06 -5.014044E+05 -1.463287E+04 -1.315482E+06  2.209639E-09  3.000368E-10
       115  15 -3.419376E+06 -5.340733E+05 -2.784262E+04 -1.345866E+06 -2.798586E-09 -1.940170E-09
       115  16 -3.948988E+06 -7.277944E+05 -1.469061E+05 -1.490829E+06  2.198762E-08  9.927943E-09
       115  17 -4.088892E+06 -7.430998E+05 -1.825072E+05 -1.490608E+06  7.098939E-09  1.742717E-09
       115  18 -4.175923E+06 -8.192288E+05 -2.251154E+05 -1.552838E+06 -6.864443E-09 -4.005123E-09
       115  19 -2.888095E+06 -3.312230E+05  1.303124E+05 -1.204157E+06 -1.583746E+04  1.586746E+04
       115  20 -2.801657E+06 -2.596819E+05  1.532089E+05 -1.140189E+06 -2.509139E+04  1.861133E+04
       115  21 -2.662271E+06 -2.488820E+05  1.693837E+05 -1.138666E+06 -3.423444E+04  2.103281E+04
       115  22 -3.418682E+06 -5.295180E+05 -8.285491E+03 -1.347550E+06 -1.269846E+04  1.704262E+04
       115  23 -3.445477E+06 -5.014038E+05 -1.463122E+04 -1.315482E+06 -2.212388E+04  1.972458E+04
       115  24 -3.419374E+06 -5.340725E+05 -2.783985E+04 -1.345867E+06 -3.143698E+04  2.208448E+04
       115  25 -3.948988E+06 -7.277940E+05 -1.469053E+05 -1.490829E+06 -9.562457E+03  1.821667E+04
       115  26 -4.088891E+06 -7.430992E+05 -1.825057E+05 -1.490609E+06 -1.915976E+04  2.083655E+04
       115  27 -4.175922E+06 -8.192280E+05 -2.251128E+05 -1.552838E+06 -2.864325E+04  2.313475E+04
       116   1 -2.529486E+06 -1.976785E+05  1.961916E+05 -1.111326E+06  4.119355E+04 -2.219047E+04
       116   2 -2.451437E+06 -1.224350E+05  1.951662E+05 -1.044291E+06  7.419313E+04 -1.524733E+04
       116   3 -2.347046E+06 -1.512273E+05  1.562966E+05 -1.020691E+06  1.062373E+05 -5.723167E+03
       116   4 -3.422998E+06 -5.268127E+05 -3.587459E+04 -1.348031E+06  3.777492E+04 -2.347660E+04
       116   5 -3.439346E+06 -4.975849E+05 -6.313181E+04 -1.317711E+06  7.216621E+04 -1.601477E+04
       116   6 -3.429674E+06 -5.727361E+05 -1.293893E+05 -1.330831E+06  1.055961E+05 -5.973182E+03
       116   7 -4.315733E+06 -8.559054E+05 -2.680076E+05 -1.584429E+06  3.436168E+04 -2.476081E+04
       116   8 -4.426301E+06 -8.726682E+05 -3.215123E+05 -1.590733E+06  7.014278E+04 -1.678088E+04
       116   9 -4.511155E+06 -9.941483E+05 -4.151754E+05 -1.640471E+06  1.049559E+05 -6.222757E+03
       116  10 -2.529488E+06 -1.976795E+05  1.961875E+05 -1.111325E+06  1.183094E-10 -2.451158E-10
       116  11 -2.451443E+06 -1.224367E+05  1.951554E+05 -1.044290E+06 -1.581568E-09  1.319860E-09
       116  12 -2.347058E+06 -1.512303E+05  1.562752E+05 -1.020690E+06  2.183853E-09 -8.582402E-10
       116  13 -3.423000E+06 -5.268136E+05 -3.587831E+04 -1.348030E+06 -1.096955E-09 -4.114470E-10
       116  14 -3.439352E+06 -4.975865E+05 -6.314212E+04 -1.317710E+06  3.738829E-09  3.322121E-10
       116  15 -3.429686E+06 -5.727391E+05 -1.294104E+05 -1.330831E+06  1.356619E-09 -8.006234E-10
       116  16 -4.315735E+06 -8.559064E+05 -2.680109E+05 -1.584428E+06 -3.365485E-10 -7.363773E-10
       116  17 -4.426307E+06 -8.726698E+05 -3.215221E+05 -1.590732E+06 -3.762530E-11 -1.944767E-10
       116  18 -4.511167E+06 -9.941513E+05 -4.151963E+05 -1.640470E+06  1.749168E-11 -6.970351E-10
       116  19 -2.529486E+06 -1.976785E+05  1.961916E+05 -1.111326E+06 -4.119355E+04  2.219047E+04
       116  20 -2.451437E+06 -1.224350E+05  1.951662E+05 -1.044291E+06 -7.419313E+04  1.524733E+04
       116  21 -2.347046E+06 -1.512273E+05  1.562966E+05 -1.020691E+06 -1.062373E+05  5.723167E+03
       116  22 -3.422998E+06 -5.268127E+05 -3.587459E+04 -1.348031E+06 -3.777492E+04  2.347660E+04
       116  23 -3.439346E+06 -4.975849E+05 -6.313181E+04 -1.317711E+06 -7.216621E+04  1.601477E+04
       116  24 -3.429674E+06 -5.727361E+05 -1.293893E+05 -1.330831E+06 -1.055961E+05  5.973182E+03
       116  25 -4.315733E+06 -8.559054E+05 -2.680076E+05 -1.584429E+06 -3.436168E+04  2.476081E+04
       116  26 -4.426301E+06 -8.726682E+05 -3.215123E+05 -1.590733E+06 -7.014278E+04  1.678088E+04
       116  27 -4.511155E+06 -9.941483E+05 -4.151754E+05 -1.640471E+06 -1.049559E+05  6.222757E+03
       117   1 -2.198478E+06 -9.987883E+04  1.544770E+05 -1.087844E+06  1.415002E+05 -8.095083E+02
       117   2 -2.136534E+06  7.648492E+04  6.866181E+04 -9.323803E+05  2.685667E+05  4.509963E+04
       117   3 -2.257353E+06 -3.408412E+05 -2.627330E+05 -6.783434E+05  3.822867E+05  1.263599E+05
       117   4 -3.451983E+06 -5.078532E+05 -1.598220E+05 -1.365175E+06  1.304357E+05 -4.972209E+03
       117   5 -3.392682E+06 -4.447766E+05 -2.680665E+05 -1.325392E+06  2.770018E+05  4.825435E+04
       117   6 -3.520509E+06 -9.800446E+05 -6.378085E+05 -1.186926E+06  4.102003E+05  1.368076E+05
       117   7 -4.703959E+06 -9.158203E+05 -4.742423E+05 -1.642043E+06  1.193956E+05 -9.128601E+03
       117   8 -4.647278E+06 -9.658421E+05 -6.049336E+05 -1.717646E+06  2.854177E+05  5.140012E+04
       117   9 -4.782036E+06 -1.618736E+06 -1.013034E+06 -1.694440E+06  4.380504E+05  1.472131E+05
       117  10 -2.198500E+06 -9.988423E+04  1.544393E+05 -1.087844E+06 -2.515045E-09 -1.632174E-09
       117  11 -2.136613E+06  7.646326E+04  6.852189E+04 -9.323900E+05 -2.488461E-09  1.815272E-09
       117  12 -2.257515E+06 -3.408979E+05 -2.630389E+05 -6.783824E+05 -5.623890E-10  3.400224E-10
       117  13 -3.452001E+06 -5.078578E+05 -1.598542E+05 -1.365175E+06 -3.548671E-09 -1.177214E-09
       117  14 -3.392766E+06 -4.447999E+05 -2.682159E+05 -1.325403E+06 -1.585922E-10 -1.551304E-09
       117  15 -3.520696E+06 -9.801104E+05 -6.381621E+05 -1.186971E+06  2.658490E-09 -7.384735E-10
       117  16 -4.703974E+06 -9.158242E+05 -4.742694E+05 -1.642042E+06  1.238160E-09 -4.346141E-10
       117  17 -4.647367E+06 -9.658671E+05 -6.050930E+05 -1.717658E+06 -5.838686E-09  2.167504E-09
       117  18 -4.782250E+06 -1.618811E+06 -1.013438E+06 -1.694492E+06  1.348412E-09 -1.717848E-09
       117  19 -2.198478E+06 -9.987883E+04  1.544770E+05 -1.087844E+06 -1.415002E+05  8.095083E+02
       117  20 -2.136534E+06  7.648492E+04  6.866181E+04 -9.323803E+05 -2.685667E+05 -4.509963E+04
       117  21 -2.257353E+06 -3.408412E+05 -2.627330E+05 -6.783434E+05 -3.822867E+05 -1.263599E+05
       117  22 -3.451983E+06 -5.078532E+05 -1.598220E+05 -1.365175E+06 -1.304357E+05  4.972209E+03
       117  23 -3.392682E+06 -4.447766E+05 -2.680665E+05 -1.325392E+06 -2.770018E+05 -4.825435E+04
       117  24 -3.520509E+06 -9.800446E+05 -6.378085E+05 -1.186926E+06 -4.102003E+05 -1.368076E+05
       117  25 -4.703959E+06 -9.158203E+05 -4.742423E+05 -1.642043E+06 -1.193956E+05  9.128601E+03
       117  26 -4.647278E+06 -9.658421E+05 -6.049336E+05 -1.717646E+06 -2.854177E+05 -5.140012E+04
       117  27 -4.782036E+06 -1.618736E+06 -1.013034E+06 -1.694440E+06 -4.380504E+05 -1.472131E+05
       118   1 -1.045851E+06  3.259516E+04  5.432275E+04 -1.484079E+03  6.324380E+04  2.054435E+02
       118   2 -1.065810E+06 -5.665702E+04 -3.623073E+02  2.576104E+03  4.172008E+04  2.792946E+02
       118   3 -1.044721E+06 -4.130537E+04 -1.244401E+04 -2.689927E+03  2.019622E+04  5.443963E+01
       118   4 -8.885103E+05  7.196780E+04  9.369628E+04 -2.516471E+03  6.326082E+04  2.053424E+02
       118   5 -9.090567E+05 -1.742549E+04  3.886398E+04  2.189005E+03  4.172516E+04  2.792656E+02
       118   6 -8.885578E+05 -2.225538E+03  2.663624E+04 -2.431614E+03  2.018936E+04  5.447505E+01
       118   7 -7.311471E+05  1.113386E+05  1.330679E+05 -3.549133E+03  6.327784E+04  2.052414E+02
       118   8 -7.522809E+05  2.180417E+04  7.808840E+04  1.801811E+03  4.173023E+04  2.792367E+02
       118   9 -7.323726E+05  3.685245E+04  6.571465E+04 -2.173222E+03  2.018251E+04  5.451047E+01
       118  10 -1.045855E+06  3.259408E+04  5.431522E+04 -1.484089E+03 -7.311561E-10 -3.680864E-10
       118  11 -1.065812E+06 -5.665749E+04 -3.655838E+02  2.576095E+03 -1.006997E-09 -1.113120E-09
       118  12 -1.044721E+06 -4.130548E+04 -1.244478E+04 -2.689927E+03  7.508807E-10  1.445492E-08
       118  13 -8.885146E+05  7.196673E+04  9.368875E+04 -2.516482E+03 -2.120769E-09  9.546938E-10
       118  14 -9.090586E+05 -1.742596E+04  3.886070E+04  2.188995E+03 -1.703106E-09  3.925932E-09
       118  15 -8.885583E+05 -2.225647E+03  2.663547E+04 -2.431615E+03 -3.293353E-10  1.470812E-09
       118  16 -7.311515E+05  1.113375E+05  1.330604E+05 -3.549144E+03  1.051167E-09  5.069915E-09
       118  17 -7.522828E+05  2.180370E+04  7.808512E+04  1.801801E+03  1.228455E-09  3.127330E-09
       118  18 -7.323730E+05  3.685234E+04  6.571389E+04 -2.173223E+03  7.354369E-11 -8.087412E-09
       118  19 -1.045851E+06  3.259516E+04  5.432275E+04 -1.484079E+03 -6.324380E+04 -2.054435E+02
       118  20 -1.065810E+06 -5.665702E+04 -3.623073E+02  2.576104E+03 -4.172008E+04 -2.792946E+02
       118  21 -1.044721E+06 -4.130537E+04 -1.244401E+04 -2.689927E+03 -2.019622E+04 -5.443963E+01
       118  22 -8.885103E+05  7.196780E+04  9.369628E+04 -2.516471E+03 -6.326082E+04 -2.053424E+02
       118  23 -9.090567E+05 -1.742549E+04  3.886398E+04  2.189005E+03 -4.172516E+04 -2.792656E+02
       118  24 -8.885578E+05 -2.225538E+03  2.663624E+04 -2.431614E+03 -2.018936E+04 -5.447505E+01
       118  25 -7.311471E+05  1.113386E+05  1.330679E+05 -3.549133E+03 -6.327784E+04 -2.052414E+02
       118  26 -7.522809E+05  2.180417E+04  7.808840E+04  1.801811E+03 -4.173023E+04 -2.792367E+02
       118  27 -7.323726E+05  3.685245E+04  6.571465E+04 -2.173222E+03 -2.018251E+04 -5.451047E+01
       119   1 -7.224865E+05  5.415831E+04  6.507416E+04 -2.095593E+03  1.558003E+04 -1.773462E+02
       119   2 -7.317702E+05  3.996087E+04  5.227352E+04  1.575406E+03  1.032828E+04 -3.266333E+02
       119   3 -7.215858E+05  4.315705E+04  5.013274E+04 -1.798209E+03  5.076957E+03 -1.748310E+02
       119   4 -8.933449E+05  1.140634E+04  2.232417E+04 -1.911851E+03  1.556955E+04 -1.773248E+02
       119   5 -9.030760E+05 -2.903046E+03  9.413824E+03  1.595348E+03  1.032629E+04 -3.266386E+02
       119   6 -8.933413E+05  1.805290E+02  7.158751E+03 -1.942182E+03  5.083453E+03 -1.748227E+02
       119   7 -1.064177E+06 -3.134784E+04 -2.042804E+04 -1.728141E+03  1.555908E+04 -1.773034E+02
       119   8 -1.074355E+06 -4.576918E+04 -3.344809E+04  1.615287E+03  1.032430E+04 -3.266439E+02
       119   9 -1.065070E+06 -4.279823E+04 -3.581747E+04 -2.086127E+03  5.089947E+03 -1.748143E+02
       119  10 -7.224868E+05  5.415824E+04  6.507371E+04 -2.095591E+03  1.842664E-09 -1.825787E-09
       119  11 -7.317703E+05  3.996084E+04  5.227332E+04  1.575409E+03  3.427132E-09 -1.914232E-08
       119  12 -7.215858E+05  4.315704E+04  5.013269E+04 -1.798208E+03 -3.095563E-09  7.409887E-08
       119  13 -8.933452E+05  1.140627E+04  2.232371E+04 -1.911848E+03  2.193319E-11  1.611147E-09
       119  14 -9.030761E+05 -2.903075E+03  9.413623E+03  1.595351E+03  3.198897E-09  1.169418E-09
       119  15 -8.933413E+05  1.805220E+02  7.158702E+03 -1.942181E+03 -1.917909E-09 -2.791693E-09
       119  16 -1.064177E+06 -3.134790E+04 -2.042850E+04 -1.728139E+03 -5.298129E-11  6.510936E-09
       119  17 -1.074355E+06 -4.576921E+04 -3.344829E+04  1.615290E+03  1.359982E-09  1.912115E-08
       119  18 -1.065070E+06 -4.279823E+04 -3.581752E+04 -2.086126E+03  3.521956E-09 -7.604320E-08
       119  19 -7.224865E+05  5.415831E+04  6.507416E+04 -2.095593E+03 -1.558003E+04  1.773462E+02
       119  20 -7.317702E+05  3.996087E+04  5.227352E+04  1.575406E+03 -1.032828E+04  3.266333E+02
       119  21 -7.215858E+05  4.315705E+04  5.013274E+04 -1.798209E+03 -5.076957E+03  1.748310E+02
       119  22 -8.933449E+05  1.140634E+04  2.232417E+04 -1.911851E+03 -1.556955E+04  1.773248E+02
       119  23 -9.030760E+05 -2.903046E+03  9.413824E+03  1.595348E+03 -1.032629E+04  3.266386E+02
       119  24 -8.933413E+05  1.805290E+02  7.158751E+03 -1.942182E+03 -5.083453E+03  1.748227E+02
       119  25 -1.064177E+06 -3.134784E+04 -2.042804E+04 -1.728141E+03 -1.555908E+04  1.773034E+02
       119  26 -1.074355E+06 -4.576918E+04 -3.344809E+04  1.615287E+03 -1.032430E+04  3.266439E+02
       119  27 -1.065070E+06 -4.279823E+04 -3.581747E+04 -2.086127E+03 -5.089947E+03  1.748143E+02
       120   1 -8.956526E+05  1.682313E+03  5.464983E+03  3.075665E+03  3.890185E+03 -5.495451E+01
       120   2 -8.967933E+05  8.729076E+01  2.900067E+03 -4.653518E+03  2.559647E+03  4.538815E+00
       120   3 -8.976297E+05 -6.251639E+02  1.404928E+03  3.066033E+03  1.229093E+03  6.371210E+01
       120   4 -8.975960E+05  1.196101E+03  4.979629E+03  3.061567E+03  3.891682E+03 -5.495110E+01
       120   5 -8.977489E+05 -1.518744E+02  2.660950E+03 -4.660685E+03  2.561142E+03  4.542284E+00
       120   6 -8.975974E+05 -6.172754E+02  1.412057E+03  3.065797E+03  1.230582E+03  6.371561E+01
       120   7 -8.995394E+05  7.098877E+02  4.494274E+03  3.047469E+03  3.893180E+03 -5.494769E+01
       120   8 -8.987045E+05 -3.910397E+02  2.421833E+03 -4.667853E+03  2.562636E+03  4.545753E+00
       120   9 -8.975651E+05 -6.093868E+02  1.419187E+03  3.065561E+03  1.232071E+03  6.371911E+01
       120  10 -8.956526E+05  1.682309E+03  5.464954E+03  3.075665E+03  1.805395E-09 -1.781027E-08
       120  11 -8.967934E+05  8.728905E+01  2.900055E+03 -4.653518E+03  4.866639E-09 -1.020689E-07
       120  12 -8.976297E+05 -6.251645E+02  1.404925E+03  3.066033E+03 -3.036893E-08  4.362254E-07
       120  13 -8.975960E+05  1.196097E+03  4.979600E+03  3.061567E+03  2.994522E-11 -2.306692E-09
       120  14 -8.977489E+05 -1.518762E+02  2.660938E+03 -4.660685E+03  3.220875E-09  1.974842E-09
       120  15 -8.975974E+05 -6.172760E+02  1.412054E+03  3.065797E+03 -8.629362E-10  2.549116E-09
       120  16 -8.995394E+05  7.098836E+02  4.494246E+03  3.047469E+03 -1.208841E-10  1.581047E-08
       120  17 -8.987045E+05 -3.910415E+02  2.421820E+03 -4.667853E+03 -3.755894E-09  1.010527E-07
       120  18 -8.975651E+05 -6.093874E+02  1.419184E+03  3.065561E+03  2.729514E-08 -4.318090E-07
       120  19 -8.956526E+05  1.682313E+03  5.464983E+03  3.075665E+03 -3.890185E+03  5.495451E+01
       120  20 -8.967933E+05  8.729085E+01  2.900067E+03 -4.653518E+03 -2.559647E+03 -4.538816E+00
       120  21 -8.976297E+05 -6.251643E+02  1.404928E+03  3.066033E+03 -1.229093E+03 -6.371210E+01
       120  22 -8.975960E+05  1.196101E+03  4.979629E+03  3.061567E+03 -3.891682E+03  5.495110E+01
       120  23 -8.977489E+05 -1.518744E+02  2.660950E+03 -4.660685E+03 -2.561142E+03 -4.542284E+00
       120  24 -8.975974E+05 -6.172758E+02  1.412057E+03  3.065797E+03 -1.230582E+03 -6.371561E+01
       120  25 -8.995394E+05  7.098877E+02  4.494274E+03  3.047469E+03 -3.893180E+03  5.494769E+01
       120  26 -8.987045E+05 -3.910396E+02  2.421833E+03 -4.667853E+03 -2.562636E+03 -4.545752E+00
       120  27 -8.975651E+05 -6.093872E+02  1.419187E+03  3.065561E+03 -1.232071E+03 -6.371911E+01
       121   1 -1.066981E+06 -4.240875E+04 -4.120242E+04 -2.163389E+03  8.229119E+02  1.852559E+02
       121   2 -1.074027E+06 -4.334554E+04 -4.325985E+04  1.631638E+03  6.440766E+02  3.254278E+02
       121   3 -1.066099E+06 -4.281958E+04 -4.191379E+04 -1.556635E+03  4.649691E+02  1.273241E+02
       121   4 -8.943384E+05  7.991407E+02  2.002701E+03 -1.922202E+03  8.304919E+02  1.852657E+02
       121   5 -9.018329E+05 -2.503799E+02 -1.687945E+02  1.570305E+03  6.435034E+02  3.254224E+02
       121   6 -8.943489E+05  1.658316E+02  1.068978E+03 -1.920367E+03  4.562427E+02  1.273448E+02
       121   7 -7.216690E+05  4.400478E+04  4.520557E+04 -1.680960E+03  8.380739E+02  1.852755E+02
       121   8 -7.296116E+05  4.284254E+04  4.292002E+04  1.508958E+03  6.429296E+02  3.254170E+02
       121   9 -7.225721E+05  4.314901E+04  4.404951E+04 -2.284183E+03  4.475133E+02  1.273656E+02
       121  10 -1.066981E+06 -4.240875E+04 -4.120243E+04 -2.163378E+03  2.375008E-05  1.836219E-06
       121  11 -1.074027E+06 -4.334554E+04 -4.325985E+04  1.631689E+03  1.058381E-04  3.687332E-06
       121  12 -1.066099E+06 -4.281958E+04 -4.191379E+04 -1.556545E+03  1.880537E-04  2.390077E-06
       121  13 -8.943384E+05  7.991404E+02  2.002700E+03 -1.922202E+03  5.973664E-05 -2.945525E-07
       121  14 -9.018329E+05 -2.503807E+02 -1.687952E+02  1.570305E+03  2.650441E-04 -1.689722E-06
       121  15 -8.943489E+05  1.658316E+02  1.068978E+03 -1.920367E+03  4.703525E-04 -3.684048E-06
       121  16 -7.216690E+05  4.400478E+04  4.520557E+04 -1.680971E+03  2.404036E-05 -1.113649E-06
       121  17 -7.296116E+05  4.284254E+04  4.292002E+04  1.508907E+03  1.062014E-04 -1.272875E-06
       121  18 -7.225721E+05  4.314901E+04  4.404951E+04 -2.284273E+03  1.882475E-04  5.283193E-07
       121  19 -1.066981E+06 -4.240875E+04 -4.120242E+04 -2.163366E+03 -8.229118E+02 -1.852559E+02
       121  20 -1.074027E+06 -4.334555E+04 -4.325985E+04  1.631740E+03 -6.440764E+02 -3.254278E+02
       121  21 -1.066099E+06 -4.281959E+04 -4.191379E+04 -1.556454E+03 -4.649688E+02 -1.273241E+02
       121  22 -8.943384E+05  7.991405E+02  2.002701E+03 -1.922202E+03 -8.304918E+02 -1.852657E+02
       121  23 -9.018329E+05 -2.503810E+02 -1.687940E+02  1.570305E+03 -6.435028E+02 -3.254224E+02
       121  24 -8.943489E+05  1.658318E+02  1.068978E+03 -1.920367E+03 -4.562418E+02 -1.273448E+02
       121  25 -7.216690E+05  4.400478E+04  4.520557E+04 -1.680983E+03 -8.380739E+02 -1.852755E+02
       121  26 -7.296116E+05  4.284254E+04  4.292002E+04  1.508856E+03 -6.429294E+02 -3.254170E+02
       121  27 -7.225721E+05  4.314902E+04  4.404951E+04 -2.284363E+03 -4.475130E+02 -1.273656E+02
       122   1 -7.395052E+05  3.892415E+04  3.971685E+04 -2.730780E+03  1.278589E+02 -1.057811E+02
       122   2 -7.449821E+05  3.893810E+04  3.853208E+04  2.072207E+03  1.632318E+02 -2.952674E+02
       122   3 -7.383366E+05  3.958365E+04  3.987813E+04 -2.225097E+03  1.989719E+02 -1.773448E+02
       122   4 -8.949838E+05  1.868042E+01  8.136959E+02 -2.391351E+03  1.196115E+02 -1.057605E+02
       122   5 -9.010376E+05 -1.102206E+02 -5.124972E+02  2.158583E+03  1.623464E+02 -2.952714E+02
       122   6 -8.949719E+05  3.899552E+02  6.868998E+02 -2.391907E+03  2.054485E+02 -1.773396E+02
       122   7 -1.050441E+06 -3.888862E+04 -3.809129E+04 -2.051993E+03  1.113656E+02 -1.057400E+02
       122   8 -1.057071E+06 -3.916038E+04 -3.955891E+04  2.244942E+03  1.614610E+02 -2.952754E+02
       122   9 -1.051585E+06 -3.880559E+04 -3.850619E+04 -2.558682E+03  2.119233E+02 -1.773343E+02
       122  10 -7.395052E+05  3.892415E+04  3.971685E+04 -2.730689E+03  1.882478E-04  5.078884E-07
       122  11 -7.449821E+05  3.893810E+04  3.853208E+04  2.072258E+03  1.061988E-04 -1.322516E-06
       122  12 -7.383366E+05  3.958365E+04  3.987813E+04 -2.225086E+03  2.403804E-05 -1.136275E-06
       122  13 -8.949838E+05  1.868027E+01  8.136955E+02 -2.391351E+03  4.703590E-04 -3.699309E-06
       122  14 -9.010376E+05 -1.102202E+02 -5.124977E+02  2.158583E+03  2.650486E-04 -1.737545E-06
       122  15 -8.949719E+05  3.899553E+02  6.868993E+02 -2.391907E+03  5.974187E-05 -3.108573E-07
       122  16 -1.050441E+06 -3.888862E+04 -3.809129E+04 -2.052083E+03  1.880521E-04  2.370158E-06
       122  17 -1.057071E+06 -3.916038E+04 -3.955891E+04  2.244891E+03  1.058400E-04  3.637648E-06
       122  18 -1.051585E+06 -3.880559E+04 -3.850619E+04 -2.558694E+03  2.375250E-05  1.816773E-06
       122  19 -7.395052E+05  3.892414E+04  3.971685E+04 -2.730599E+03 -1.278585E+02  1.057811E+02
       122  20 -7.449821E+05  3.893810E+04  3.853208E+04  2.072309E+03 -1.632316E+02  2.952674E+02
       122  21 -7.383366E+05  3.958365E+04  3.987813E+04 -2.225074E+03 -1.989719E+02  1.773448E+02
       122  22 -8.949838E+05  1.868016E+01  8.136951E+02 -2.391351E+03 -1.196106E+02  1.057605E+02
       122  23 -9.010376E+05 -1.102196E+02 -5.124977E+02  2.158583E+03 -1.623459E+02  2.952714E+02
       122  24 -8.949719E+05  3.899554E+02  6.868990E+02 -2.391907E+03 -2.054484E+02  1.773396E+02
       122  25 -1.050441E+06 -3.888861E+04 -3.809129E+04 -2.052174E+03 -1.113653E+02  1.057400E+02
       122  26 -1.057071E+06 -3.916038E+04 -3.955891E+04  2.244840E+03 -1.614608E+02  2.952754E+02
       122  27 -1.051585E+06 -3.880559E+04 -3.850619E+04 -2.558705E+03 -2.119233E+02  1.773343E+02
       123   1 -8.667564E+05  7.274237E+03  7.659636E+03  3.053067E+03  7.344575E+01 -8.797304E+01
       123   2 -8.677078E+05  7.756518E+03  7.515184E+03 -4.556838E+03  8.793253E+01 -5.680723E+01
       123   3 -8.687111E+05  6.627555E+03  7.029135E+03  3.099731E+03  1.022304E+02  3.558599E+01
       123   4 -8.976750E+05 -4.627307E+02 -7.620133E+01  3.023452E+03  7.345584E+01 -8.797329E+01
       123   5 -8.976509E+05  2.634557E+02  2.295661E+01 -4.609417E+03  8.940991E+01 -5.680398E+01
       123   6 -8.976789E+05 -6.219041E+02 -2.205158E+02  3.024234E+03  1.051751E+02  3.559403E+01
       123   7 -9.285928E+05 -8.199771E+03 -7.812111E+03  2.993838E+03  7.346594E+01 -8.797355E+01
       123   8 -9.275932E+05 -7.229675E+03 -7.469339E+03 -4.661994E+03  9.088723E+01 -5.680074E+01
       123   9 -9.266460E+05 -7.871427E+03 -7.470230E+03  2.948740E+03  1.081197E+02  3.560207E+01
       123  10 -8.667564E+05  7.274237E+03  7.659636E+03  3.053067E+03  2.859246E-08 -4.328351E-07
       123  11 -8.677078E+05  7.756518E+03  7.515184E+03 -4.556838E+03 -5.449357E-09  1.039105E-07
       123  12 -8.687111E+05  6.627555E+03  7.029135E+03  3.099731E+03 -1.347591E-09  1.956618E-08
       123  13 -8.976750E+05 -4.627305E+02 -7.620131E+01  3.023452E+03  2.900405E-09  3.309932E-09
       123  14 -8.976509E+05  2.634556E+02  2.295658E+01 -4.609417E+03 -3.565313E-09  3.832175E-09
       123  15 -8.976789E+05 -6.219041E+02 -2.205158E+02  3.024234E+03  3.913022E-09 -1.801950E-09
       123  16 -9.285928E+05 -8.199771E+03 -7.812111E+03  2.993838E+03 -2.685670E-08  4.313961E-07
       123  17 -9.275932E+05 -7.229675E+03 -7.469339E+03 -4.661994E+03  3.358820E-09 -9.690120E-08
       123  18 -9.266460E+05 -7.871427E+03 -7.470230E+03  2.948740E+03  2.989752E-09 -1.967300E-08
       123  19 -8.667564E+05  7.274238E+03  7.659636E+03  3.053067E+03 -7.344575E+01  8.797304E+01
       123  20 -8.677078E+05  7.756518E+03  7.515184E+03 -4.556838E+03 -8.793253E+01  5.680723E+01
       123  21 -8.687111E+05  6.627555E+03  7.029135E+03  3.099731E+03 -1.022304E+02 -3.558599E+01
       123  22 -8.976750E+05 -4.627303E+02 -7.620124E+01  3.023452E+03 -7.345584E+01  8.797329E+01
       123  23 -8.976509E+05  2.634556E+02  2.295659E+01 -4.609417E+03 -8.940991E+01  5.680398E+01
       123  24 -8.976789E+05 -6.219041E+02 -2.205158E+02  3.024234E+03 -1.051751E+02 -3.559403E+01
       123  25 -9.285928E+05 -8.199771E+03 -7.812111E+03  2.993838E+03 -7.346594E+01  8.797355E+01
       123  26 -9.275932E+05 -7.229675E+03 -7.469339E+03 -4.661994E+03 -9.088723E+01  5.680074E+01
       123  27 -9.266460E+05 -7.871427E+03 -7.470230E+03  2.948740E+03 -1.081197E+02 -3.560207E+01
       124   1 -1.077568E+06 -4.535321E+04 -4.518526E+04 -1.761390E+03 -5.825410E+01  1.850844E+02
       124   2 -1.085674E+06 -4.610002E+04 -4.700489E+04  9.994982E+02  2.081974E+02  3.444289E+02
       124   3 -1.076958E+06 -4.558018E+04 -4.536903E+04 -1.068126E+03  4.745170E+02  1.554887E+02
       124   4 -8.939306E+05  6.070959E+02  7.719926E+02 -1.443308E+03 -5.028462E+01  1.850979E+02
       124   5 -9.023472E+05 -2.184395E+02 -1.127601E+03  9.718514E+02  2.078862E+02  3.444226E+02
       124   6 -8.939382E+05  2.260810E+02  4.342602E+02 -1.441414E+03  4.659249E+02  1.555073E+02
       124   7 -7.102625E+05  4.656485E+04  4.672669E+04 -1.125147E+03 -4.231278E+01  1.851114E+02
       124   8 -7.189899E+05  4.566060E+04  4.474715E+04  9.441979E+02  2.075748E+02  3.444163E+02
       124   9 -7.108875E+05  4.602981E+04  4.623501E+04 -1.814792E+03  4.573303E+02  1.555259E+02
       124  10 -1.077568E+06 -4.535321E+04 -4.518526E+04 -1.761390E+03  3.922414E-09 -7.066954E-08
       124  11 -1.085674E+06 -4.610002E+04 -4.700489E+04  9.994981E+02  2.383494E-09  1.625552E-08
       124  12 -1.076958E+06 -4.558018E+04 -4.536903E+04 -1.068127E+03 -7.178252E-11  2.819629E-09
       124  13 -8.939306E+05  6.070959E+02  7.719925E+02 -1.443308E+03  2.213674E-09 -8.436700E-10
       124  14 -9.023472E+05 -2.184396E+02 -1.127601E+03  9.718514E+02  1.969129E-09  2.283423E-10
       124  15 -8.939382E+05  2.260809E+02  4.342597E+02 -1.441414E+03  1.709954E-09  1.501922E-10
       124  16 -7.102625E+05  4.656485E+04  4.672669E+04 -1.125147E+03 -3.964083E-09  7.351215E-08
       124  17 -7.189899E+05  4.566060E+04  4.474714E+04  9.441979E+02  3.075590E-09 -1.810709E-08
       124  18 -7.108875E+05  4.602981E+04  4.623501E+04 -1.814792E+03  1.928170E-09 -7.008487E-09
       124  19 -1.077568E+06 -4.535321E+04 -4.518526E+04 -1.761390E+03  5.825410E+01 -1.850844E+02
       124  20 -1.085674E+06 -4.610002E+04 -4.700489E+04  9.994982E+02 -2.081974E+02 -3.444289E+02
       124  21 -1.076958E+06 -4.558018E+04 -4.536903E+04 -1.068126E+03 -4.745170E+02 -1.554887E+02
       124  22 -8.939306E+05  6.070959E+02  7.719926E+02 -1.443308E+03  5.028462E+01 -1.850979E+02
       124  23 -9.023472E+05 -2.184395E+02 -1.127601E+03  9.718514E+02 -2.078862E+02 -3.444226E+02
       124  24 -8.939382E+05  2.260810E+02  4.342602E+02 -1.441414E+03 -4.659249E+02 -1.555073E+02
       124  25 -7.102625E+05  4.656485E+04  4.672669E+04 -1.125147E+03  4.231278E+01 -1.851114E+02
       124  26 -7.189899E+05  4.566060E+04  4.474715E+04  9.441979E+02 -2.075748E+02 -3.444163E+02
       124  27 -7.108875E+05  4.602981E+04  4.623501E+04 -1.814792E+03 -4.573303E+02 -1.555259E+02
       125   1 -7.591618E+05  3.398253E+04  3.403526E+04 -3.090163E+03  2.858808E+02 -8.452640E+01
       125   2 -7.629234E+05  3.450416E+04  3.305362E+04  2.554378E+03  7.780376E+02 -2.734363E+02
       125   3 -7.577654E+05  3.399399E+04  3.334334E+04 -2.672257E+03  1.270575E+03 -1.113007E+02
       125   4 -8.956945E+05 -1.825948E+02 -1.279189E+02 -2.785398E+03  2.771318E+02 -8.450411E+01
       125   5 -9.001469E+05  1.676206E+02 -1.279435E+03  2.650702E+03  7.776094E+02 -2.734397E+02
       125   6 -8.956824E+05 -5.164284E+02 -1.165563E+03 -2.784516E+03  1.278467E+03 -1.112961E+02
       125   7 -1.032210E+06 -3.434913E+04 -3.429251E+04 -2.480689E+03  2.683847E+02 -8.448183E+01
       125   8 -1.037353E+06 -3.417034E+04 -3.561392E+04  2.747009E+03  7.771813E+02 -2.734431E+02
       125   9 -1.033582E+06 -3.502828E+04 -3.567591E+04 -2.896754E+03  1.286357E+03 -1.112915E+02
       125  10 -7.591618E+05  3.398253E+04  3.403526E+04 -3.090163E+03  1.905743E-09 -1.134423E-08
       125  11 -7.629234E+05  3.450415E+04  3.305362E+04  2.554378E+03  2.936907E-09  5.086219E-10
       125  12 -7.577654E+05  3.399399E+04  3.334334E+04 -2.672257E+03  1.322077E-09  3.039475E-09
       125  13 -8.956945E+05 -1.825948E+02 -1.279191E+02 -2.785398E+03  2.810746E-09  4.737579E-09
       125  14 -9.001469E+05  1.676204E+02 -1.279436E+03  2.650702E+03 -2.216266E-09  3.497634E-12
       125  15 -8.956824E+05 -5.164288E+02 -1.165566E+03 -2.784516E+03  1.447545E-09 -3.004069E-10
       125  16 -1.032210E+06 -3.434913E+04 -3.429251E+04 -2.480689E+03  1.253705E-09  1.038491E-08
       125  17 -1.037353E+06 -3.417034E+04 -3.561392E+04  2.747009E+03 -1.275562E-09 -3.254534E-09
       125  18 -1.033582E+06 -3.502828E+04 -3.567591E+04 -2.896754E+03  3.068018E-10 -1.728335E-09
       125  19 -7.591618E+05  3.398253E+04  3.403526E+04 -3.090163E+03 -2.858808E+02  8.452640E+01
       125  20 -7.629234E+05  3.450416E+04  3.305362E+04  2.554378E+03 -7.780376E+02  2.734363E+02
       125  21 -7.577654E+05  3.399399E+04  3.334334E+04 -2.672257E+03 -1.270575E+03  1.113007E+02
       125  22 -8.956945E+05 -1.825948E+02 -1.279189E+02 -2.785398E+03 -2.771318E+02  8.450411E+01
       125  23 -9.001469E+05  1.676206E+02 -1.279435E+03  2.650702E+03 -7.776094E+02  2.734397E+02
       125  24 -8.956824E+05 -5.164284E+02 -1.165563E+03 -2.784516E+03 -1.278467E+03  1.112961E+02
       125  25 -1.032210E+06 -3.434913E+04 -3.429251E+04 -2.480689E+03 -2.683847E+02  8.448183E+01
       125  26 -1.037353E+06 -3.417034E+04 -3.561392E+04  2.747009E+03 -7.771813E+02  2.734431E+02
       125  27 -1.033582E+06 -3.502828E+04 -3.567591E+04 -2.896754E+03 -1.286357E+03  1.112915E+02
       126   1  1.601313E+05 -6.898703E+05  1.591635E+05 -2.144047E+04  6.783507E+03  2.059578E+04
       126   2  1.414527E+05 -7.310277E+05  1.373613E+05 -7.849523E+03  2.084490E+04  1.089032E+04
       126   3  1.316591E+05 -7.685654E+05  1.241511E+05 -1.842349E+04  2.034106E+04  1.156375E+03
       126   4  6.828433E+03 -1.304500E+06  8.003497E+03 -1.824047E+04  6.809168E+03  7.806668E+03
       126   5 -7.131043E+02 -1.305549E+06  1.722601E+03 -6.165602E+03  2.085534E+04  6.835516E+03
       126   6 -8.834294E+02 -1.304496E+06 -2.035689E+03 -1.825682E+04  2.033033E+04  5.835308E+03
       126   7 -1.465024E+05 -1.918785E+06 -1.431838E+05 -1.504348E+04  6.834709E+03 -4.969799E+03
       126   8 -1.429026E+05 -1.879767E+06 -1.339389E+05 -4.483079E+03  2.086575E+04  2.784449E+03
       126   9 -1.334465E+05 -1.840161E+06 -1.282422E+05 -1.809012E+04  2.031959E+04  1.051022E+04
       126  10  1.601311E+05 -6.898708E+05  1.591626E+05 -2.144058E+04  9.898434E-10  2.502750E-09
       126  11  1.414522E+05 -7.310279E+05  1.373603E+05 -7.849706E+03 -2.269427E-10  6.573814E-09
       126  12  1.316587E+05 -7.685655E+05  1.241504E+05 -1.842351E+04  1.347894E-09  5.962998E-09
       126  13  6.828367E+03 -1.304500E+06  8.003295E+03 -1.824052E+04  2.036026E-09  2.098864E-09
       126  14 -7.135837E+02 -1.305549E+06  1.721696E+03 -6.165716E+03  1.077738E-09  9.951335E-11
       126  15 -8.838821E+02 -1.304496E+06 -2.036529E+03 -1.825692E+04 -6.027633E-10  1.752856E-09
       126  16 -1.465025E+05 -1.918785E+06 -1.431839E+05 -1.504346E+04 -6.241501E-10 -2.501239E-09
       126  17 -1.429031E+05 -1.879767E+06 -1.339398E+05 -4.483125E+03  2.361919E-09 -8.498823E-09
       126  18 -1.334470E+05 -1.840162E+06 -1.282432E+05 -1.809030E+04 -4.287899E-10 -5.533347E-09
       126  19  1.601313E+05 -6.898703E+05  1.591635E+05 -2.144047E+04 -6.783507E+03 -2.059578E+04
       126  20  1.414527E+05 -7.310277E+05  1.373613E+05 -7.849523E+03 -2.084490E+04 -1.089032E+04
       126  21  1.316591E+05 -7.685654E+05  1.241511E+05 -1.842349E+04 -2.034106E+04 -1.156375E+03
       126  22  6.828433E+03 -1.304500E+06  8.003497E+03 -1.824047E+04 -6.809168E+03 -7.806668E+03
       126  23 -7.131043E+02 -1.305549E+06  1.722601E+03 -6.165602E+03 -2.085534E+04 -6.835516E+03
       126  24 -8.834294E+02 -1.304496E+06 -2.035689E+03 -1.825682E+04 -2.033033E+04 -5.835308E+03
       126  25 -1.465024E+05 -1.918785E+06 -1.431838E+05 -1.504348E+04 -6.834709E+03  4.969799E+03
       126  26 -1.429026E+05 -1.879767E+06 -1.339389E+05 -4.483079E+03 -2.086575E+04 -2.784449E+03
       126  27 -1.334465E+05 -1.840161E+06 -1.282422E+05 -1.809012E+04 -2.031959E+04 -1.051022E+04
       127   1  1.224127E+05 -8.150541E+05  1.120356E+05 -1.880554E+04  1.740994E+04  6.200776E+03
       127   2  1.117947E+05 -8.553315E+05  9.677753E+04 -7.205800E+03  1.649371E+04  1.010652E+04
       127   3  9.448136E+04 -8.978187E+05  7.729523E+04 -2.159230E+04  1.432271E+04  1.400701E+04
       127   4  1.030545E+03 -1.305470E+06 -3.902841E+03 -1.864864E+04  1.741042E+04  6.364393E+03
       127   5  7.036159E+02 -1.304298E+06 -9.144423E+03 -5.666115E+03  1.649186E+04  1.101941E+04
       127   6 -6.451441E+03 -1.305469E+06 -1.913303E+04 -1.867110E+04  1.431814E+04  1.566941E+04
       127   7 -1.203689E+05 -1.795664E+06 -1.198580E+05 -1.849171E+04  1.741090E+04  6.527880E+03
       127   8 -1.104019E+05 -1.753079E+06 -1.150803E+05 -4.127416E+03  1.649002E+04  1.193163E+04
       127   9 -1.073962E+05 -1.712966E+06 -1.155728E+05 -1.575170E+04  1.431359E+04  1.733072E+04
       127  10  1.224124E+05 -8.150542E+05  1.120350E+05 -1.880563E+04  1.076596E-09 -1.790625E-09
       127  11  1.117944E+05 -8.553317E+05  9.677683E+04 -7.205934E+03  6.943738E-10 -1.097923E-08
       127  12  9.448108E+04 -8.978189E+05  7.729448E+04 -2.159247E+04  1.496160E-09 -1.657045E-08
       127  13  1.030208E+03 -1.305470E+06 -3.903487E+03 -1.864873E+04 -1.331799E-09  3.267235E-09
       127  14  7.032913E+02 -1.304298E+06 -9.145163E+03 -5.666261E+03  2.288044E-10  3.350700E-11
       127  15 -6.451727E+03 -1.305469E+06 -1.913387E+04 -1.867128E+04  1.105599E-09  1.930007E-09
       127  16 -1.203692E+05 -1.795664E+06 -1.198586E+05 -1.849180E+04 -1.409065E-09  2.029516E-09
       127  17 -1.104022E+05 -1.753079E+06 -1.150811E+05 -4.127575E+03 -2.504841E-09  8.830210E-09
       127  18 -1.073965E+05 -1.712967E+06 -1.155738E+05 -1.575190E+04  3.980762E-10  1.690907E-08
       127  19  1.224127E+05 -8.150541E+05  1.120356E+05 -1.880554E+04 -1.740994E+04 -6.200776E+03
       127  20  1.117947E+05 -8.553315E+05  9.677753E+04 -7.205800E+03 -1.649371E+04 -1.010652E+04
       127  21  9.448136E+04 -8.978187E+05  7.729523E+04 -2.159230E+04 -1.432271E+04 -1.400701E+04
       127  22  1.030545E+03 -1.305470E+06 -3.902841E+03 -1.864864E+04 -1.741042E+04 -6.364393E+03
       127  23  7.036159E+02 -1.304298E+06 -9.144423E+03 -5.666115E+03 -1.649186E+04 -1.101941E+04
       127  24 -6.451441E+03 -1.305469E+06 -1.913303E+04 -1.867110E+04 -1.431814E+04 -1.566941E+04
       127  25 -1.203689E+05 -1.795664E+06 -1.198580E+05 -1.849171E+04 -1.741090E+04 -6.527880E+03
       127  26 -1.104019E+05 -1.753079E+06 -1.150803E+05 -4.127416E+03 -1.649002E+04 -1.193163E+04
       127  27 -1.073962E+05 -1.712966E+06 -1.155728E+05 -1.575170E+04 -1.431359E+04 -1.733072E+04
       128   1  9.307083E+04 -9.499265E+05  6.084349E+04 -9.592367E+03  1.384401E+04  1.959852E+04
       128   2  8.649029E+04 -9.813982E+05  3.545338E+04 -1.394852E+04  1.143748E+04  3.729775E+04
       128   3 -3.026460E+03 -1.036070E+06 -2.224054E+04 -4.570069E+04  3.247314E+03  5.497415E+04
       128   4  4.051464E+03 -1.310220E+06 -2.389444E+04 -1.889218E+04  1.384532E+04  1.926582E+04
       128   5  7.990141E+03 -1.298335E+06 -3.937759E+04 -5.324556E+03  1.142767E+04  4.042162E+04
       128   6 -7.163141E+04 -1.310263E+06 -8.957848E+04 -1.915580E+04  3.226063E+03  6.155551E+04
       128   7 -8.497682E+04 -1.670394E+06 -1.086412E+05 -2.818647E+04  1.384665E+04  1.893331E+04
       128   8 -7.051695E+04 -1.615179E+06 -1.142154E+05  3.295054E+03  1.141794E+04  4.354389E+04
       128   9 -1.402393E+05 -1.584386E+06 -1.569214E+05  7.377373E+03  3.205372E+03  6.813396E+04
       128  10  9.307052E+04 -9.499270E+05  6.084241E+04 -9.592586E+03 -2.116524E-09  3.030741E-09
       128  11  8.648977E+04 -9.813997E+05  3.545052E+04 -1.394886E+04 -1.166915E-09  5.467787E-09
       128  12 -3.027284E+03 -1.036073E+06 -2.224625E+04 -4.570083E+04 -4.906746E-10  1.233617E-09
       128  13  4.051159E+03 -1.310221E+06 -2.389550E+04 -1.889240E+04  1.105667E-09  3.345469E-09
       128  14  7.989561E+03 -1.298337E+06 -3.938091E+04 -5.324928E+03  3.844528E-10 -5.761759E-11
       128  15 -7.163244E+04 -1.310267E+06 -8.958564E+04 -1.915596E+04 -1.331409E-10  2.126087E-09
       128  16 -8.497712E+04 -1.670394E+06 -1.086423E+05 -2.818668E+04 -4.017654E-10 -3.070618E-09
       128  17 -7.051760E+04 -1.615181E+06 -1.142193E+05  3.294653E+03 -1.035990E-09 -8.511383E-09
       128  18 -1.402406E+05 -1.584391E+06 -1.569302E+05  7.377196E+03 -1.612667E-09 -7.907641E-10
       128  19  9.307083E+04 -9.499265E+05  6.084349E+04 -9.592367E+03 -1.384401E+04 -1.959852E+04
       128  20  8.649029E+04 -9.813982E+05  3.545338E+04 -1.394852E+04 -1.143748E+04 -3.729775E+04
       128  21 -3.026460E+03 -1.036070E+06 -2.224054E+04 -4.570069E+04 -3.247314E+03 -5.497415E+04
       128  22  4.051464E+03 -1.310220E+06 -2.389444E+04 -1.889218E+04 -1.384532E+04 -1.926582E+04
       128  23  7.990141E+03 -1.298335E+06 -3.937759E+04 -5.324556E+03 -1.142767E+04 -4.042162E+04
       128  24 -7.163141E+04 -1.310263E+06 -8.957848E+04 -1.915580E+04 -3.226063E+03 -6.155551E+04
       128  25 -8.497682E+04 -1.670394E+06 -1.086412E+05 -2.818647E+04 -1.384665E+04 -1.893331E+04
       128  26 -7.051695E+04 -1.615179E+06 -1.142154E+05  3.295054E+03 -1.141794E+04 -4.354389E+04
       128  27 -1.402393E+05 -1.584386E+06 -1.569214E+05  7.377373E+03 -3.205372E+03 -6.813396E+04
       129   1 -2.449884E+06 -5.418426E+05 -2.916848E+05 -8.354591E+05 -1.750144E+05 -6.590452E+04
       129   2 -2.378974E+06 -3.067110E+05 -1.276142E+05 -9.103699E+05 -1.127781E+05 -4.227063E+04
       129   3 -2.426694E+06 -3.467341E+05 -8.684813E+04 -9.042064E+05 -5.045870E+04 -1.885971E+04
       129   4 -2.398009E+06 -5.191363E+05 -2.767317E+05 -8.182157E+05 -1.750197E+05 -6.590757E+04
       129   5 -2.324932E+06 -2.854931E+05 -1.125271E+05 -8.948941E+05 -1.127833E+05 -4.227279E+04
       129   6 -2.370476E+06 -3.269898E+05 -7.161905E+04 -8.905011E+05 -5.046379E+04 -1.886147E+04
       129   7 -2.346132E+06 -4.964296E+05 -2.617787E+05 -8.009709E+05 -1.750249E+05 -6.591062E+04
       129   8 -2.270887E+06 -2.642750E+05 -9.744038E+04 -8.794171E+05 -1.127886E+05 -4.227495E+04
       129   9 -2.314255E+06 -3.072454E+05 -5.639024E+04 -8.767947E+05 -5.046889E+04 -1.886322E+04
       129  10 -2.449918E+06 -5.418555E+05 -2.917509E+05 -8.354684E+05 -6.714289E-08  2.935821E-08
       129  11 -2.378988E+06 -3.067163E+05 -1.276416E+05 -9.103738E+05 -5.876945E-08  2.552030E-08
       129  12 -2.426697E+06 -3.467352E+05 -8.685361E+04 -9.042072E+05  3.059348E-07 -1.398570E-07
       129  13 -2.398044E+06 -5.191493E+05 -2.767977E+05 -8.182250E+05 -2.200870E-10  5.628245E-09
       129  14 -2.324946E+06 -2.854984E+05 -1.125545E+05 -8.948980E+05 -1.503816E-09  2.642004E-09
       129  15 -2.370479E+06 -3.269909E+05 -7.162453E+04 -8.905019E+05  8.731145E-09 -1.986068E-08
       129  16 -2.346166E+06 -4.964426E+05 -2.618448E+05 -8.009802E+05  6.333127E-08 -2.199828E-08
       129  17 -2.270901E+06 -2.642803E+05 -9.746776E+04 -8.794209E+05  5.225294E-08 -1.178279E-08
       129  18 -2.314257E+06 -3.072465E+05 -5.639572E+04 -8.767954E+05 -2.912334E-07  9.521391E-08
       129  19 -2.449884E+06 -5.418426E+05 -2.916848E+05 -8.354591E+05  1.750144E+05  6.590452E+04
       129  20 -2.378974E+06 -3.067110E+05 -1.276142E+05 -9.103699E+05  1.127781E+05  4.227063E+04
       129  21 -2.426694E+06 -3.467341E+05 -8.684813E+04 -9.042064E+05  5.045870E+04  1.885971E+04
       129  22 -2.398009E+06 -5.191363E+05 -2.767317E+05 -8.182157E+05  1.750197E+05  6.590757E+04
       129  23 -2.324932E+06 -2.854931E+05 -1.125271E+05 -8.948941E+05  1.127833E+05  4.227279E+04
       129  24 -2.370476E+06 -3.269898E+05 -7.161905E+04 -8.905011E+05  5.046379E+04  1.886147E+04
       129  25 -2.346132E+06 -4.964296E+05 -2.617787E+05 -8.009709E+05  1.750249E+05  6.591062E+04
       129  26 -2.270887E+06 -2.642750E+05 -9.744038E+04 -8.794171E+05  1.127886E+05  4.227495E+04
       129  27 -2.314255E+06 -3.072454E+05 -5.639024E+04 -8.767947E+05  5.046889E+04  1.886322E+04
       130   1 -2.333498E+06 -3.527074E+05 -5.208337E+04 -8.677992E+05 -3.947360E+04 -1.480805E+04
       130   2 -2.323721E+06 -3.136590E+05 -1.913959E+04 -8.772095E+05 -2.535014E+04 -9.575299E+03
       130   3 -2.329258E+06 -3.217816E+05 -8.774490E+03 -8.783912E+05 -1.125779E+04 -4.259734E+03
       130   4 -2.359725E+06 -3.621604E+05 -5.923627E+04 -8.744421E+05 -3.947446E+04 -1.480841E+04
       130   5 -2.349919E+06 -3.234582E+05 -2.635531E+04 -8.842124E+05 -2.534972E+04 -9.575149E+03
       130   6 -2.355428E+06 -3.319283E+05 -1.605478E+04 -8.857540E+05 -1.125610E+04 -4.259092E+03
       130   7 -2.385951E+06 -3.716134E+05 -6.638924E+04 -8.810847E+05 -3.947532E+04 -1.480877E+04
       130   8 -2.376116E+06 -3.332573E+05 -3.357109E+04 -8.912151E+05 -2.534930E+04 -9.574998E+03
       130   9 -2.381598E+06 -3.420750E+05 -2.333512E+04 -8.931165E+05 -1.125440E+04 -4.258451E+03
       130  10 -2.333500E+06 -3.527081E+05 -5.208672E+04 -8.677997E+05 -1.004156E-05 -8.775882E-06
       130  11 -2.323721E+06 -3.136593E+05 -1.914097E+04 -8.772097E+05 -4.997197E-05 -3.847977E-05
       130  12 -2.329258E+06 -3.217816E+05 -8.774749E+03 -8.783913E+05 -9.204892E-05 -6.731450E-05
       130  13 -2.359727E+06 -3.621611E+05 -5.923963E+04 -8.744426E+05 -3.469230E-05 -7.905931E-06
       130  14 -2.349919E+06 -3.234584E+05 -2.635670E+04 -8.842126E+05 -1.539402E-04 -3.498661E-05
       130  15 -2.355429E+06 -3.319284E+05 -1.605505E+04 -8.857540E+05 -2.731438E-04 -6.209053E-05
       130  16 -2.385953E+06 -3.716141E+05 -6.639260E+04 -8.810852E+05 -1.365570E-05 -8.390688E-06
       130  17 -2.376117E+06 -3.332576E+05 -3.357249E+04 -8.912152E+05 -5.519346E-05 -3.744727E-05
       130  18 -2.381598E+06 -3.420751E+05 -2.333541E+04 -8.931165E+05 -9.450630E-05 -6.741215E-05
       130  19 -2.333498E+06 -3.527074E+05 -5.208336E+04 -8.677993E+05  3.947360E+04  1.480805E+04
       130  20 -2.323721E+06 -3.136590E+05 -1.913957E+04 -8.772096E+05  2.535014E+04  9.575299E+03
       130  21 -2.329258E+06 -3.217816E+05 -8.774461E+03 -8.783913E+05  1.125779E+04  4.259734E+03
       130  22 -2.359725E+06 -3.621604E+05 -5.923627E+04 -8.744421E+05  3.947446E+04  1.480841E+04
       130  23 -2.349919E+06 -3.234582E+05 -2.635531E+04 -8.842124E+05  2.534972E+04  9.575149E+03
       130  24 -2.355428E+06 -3.319283E+05 -1.605478E+04 -8.857540E+05  1.125610E+04  4.259092E+03
       130  25 -2.385951E+06 -3.716134E+05 -6.638924E+04 -8.810847E+05  3.947532E+04  1.480877E+04
       130  26 -2.376116E+06 -3.332573E+05 -3.357111E+04 -8.912150E+05  2.534930E+04  9.574998E+03
       130  27 -2.381598E+06 -3.420751E+05 -2.333515E+04 -8.931164E+05  1.125440E+04  4.258451E+03
       131   1 -2.367374E+06 -3.409695E+05 -1.639999E+04 -8.852669E+05 -8.847805E+03 -3.317058E+03
       131   2 -2.365039E+06 -3.357821E+05 -9.735147E+03 -8.877836E+05 -5.595913E+03 -2.072290E+03
       131   3 -2.367004E+06 -3.362760E+05 -7.397887E+03 -8.869955E+05 -2.331439E+03 -8.608180E+02
       131   4 -2.354887E+06 -3.361732E+05 -1.293509E+04 -8.818004E+05 -8.847122E+03 -3.316803E+03
       131   5 -2.352400E+06 -3.309846E+05 -6.240031E+03 -8.843332E+05 -5.595913E+03 -2.072291E+03
       131   6 -2.354214E+06 -3.314768E+05 -3.871948E+03 -8.835612E+05 -2.332121E+03 -8.610740E+02
       131   7 -2.342399E+06 -3.313770E+05 -9.470196E+03 -8.783338E+05 -8.846439E+03 -3.316547E+03
       131   8 -2.339762E+06 -3.261870E+05 -2.744929E+03 -8.808827E+05 -5.595913E+03 -2.072291E+03
       131   9 -2.341425E+06 -3.266777E+05 -3.460253E+02 -8.801268E+05 -2.332804E+03 -8.613299E+02
       131  10 -2.367374E+06 -3.409695E+05 -1.640015E+04 -8.852670E+05 -8.900794E-05 -6.243779E-05
       131  11 -2.365039E+06 -3.357821E+05 -9.735211E+03 -8.877837E+05 -2.696039E-05 -1.592858E-05
       131  12 -2.367004E+06 -3.362760E+05 -7.397904E+03 -8.869955E+05  3.822743E-05  2.927753E-05
       131  13 -2.354887E+06 -3.361733E+05 -1.293525E+04 -8.818004E+05 -2.536292E-04 -5.762159E-05
       131  14 -2.352400E+06 -3.309846E+05 -6.240098E+03 -8.843332E+05 -6.736420E-05 -1.516643E-05
       131  15 -2.354214E+06 -3.314768E+05 -3.871960E+03 -8.835612E+05  1.189445E-04  2.725939E-05
       131  16 -2.342399E+06 -3.313771E+05 -9.470378E+03 -8.783338E+05 -8.418897E-05 -6.271302E-05
       131  17 -2.339762E+06 -3.261870E+05 -2.745000E+03 -8.808827E+05 -1.892073E-05 -1.751368E-05
       131  18 -2.341425E+06 -3.266777E+05 -3.460307E+02 -8.801269E+05  4.326599E-05  2.892575E-05
       131  19 -2.367374E+06 -3.409694E+05 -1.639996E+04 -8.852670E+05  8.847805E+03  3.317058E+03
       131  20 -2.365039E+06 -3.357821E+05 -9.735140E+03 -8.877837E+05  5.595913E+03  2.072290E+03
       131  21 -2.367004E+06 -3.362760E+05 -7.397899E+03 -8.869955E+05  2.331439E+03  8.608180E+02
       131  22 -2.354887E+06 -3.361732E+05 -1.293509E+04 -8.818004E+05  8.847122E+03  3.316803E+03
       131  23 -2.352400E+06 -3.309846E+05 -6.240030E+03 -8.843332E+05  5.595913E+03  2.072291E+03
       131  24 -2.354214E+06 -3.314768E+05 -3.871948E+03 -8.835612E+05  2.332122E+03  8.610740E+02
       131  25 -2.342399E+06 -3.313771E+05 -9.470223E+03 -8.783337E+05  8.846439E+03  3.316547E+03
       131  26 -2.339762E+06 -3.261870E+05 -2.744936E+03 -8.808827E+05  5.595913E+03  2.072291E+03
       131  27 -2.341425E+06 -3.266777E+05 -3.460127E+02 -8.801269E+05  2.332804E+03  8.613300E+02
       132   1 -2.347246E+06 -3.303045E+05 -1.459625E+03 -8.819253E+05 -1.736825E+03 -6.556117E+02
       132   2 -2.347149E+06 -3.289917E+05 -3.136235E+02 -8.818121E+05 -6.735970E+02 -2.677422E+02
       132   3 -2.347087E+06 -3.297481E+05 -3.461764E+02 -8.820671E+05  3.833584E+02  1.368539E+02
       132   4 -2.353551E+06 -3.326775E+05 -3.199325E+03 -8.836257E+05 -1.737219E+03 -6.557596E+02
       132   5 -2.353497E+06 -3.313920E+05 -2.067358E+03 -8.835354E+05 -6.736264E+02 -2.677532E+02
       132   6 -2.353479E+06 -3.321757E+05 -2.114243E+03 -8.838135E+05  3.836931E+02  1.369796E+02
       132   7 -2.359856E+06 -3.350504E+05 -4.939028E+03 -8.853260E+05 -1.737613E+03 -6.559074E+02
       132   8 -2.359846E+06 -3.337923E+05 -3.821095E+03 -8.852588E+05 -6.736558E+02 -2.677643E+02
       132   9 -2.359871E+06 -3.346034E+05 -3.882313E+03 -8.855598E+05  3.840278E+02  1.371053E+02
       132  10 -2.347246E+06 -3.303045E+05 -1.459639E+03 -8.819253E+05  5.067829E-05  3.572788E-05
       132  11 -2.347149E+06 -3.289917E+05 -3.136271E+02 -8.818121E+05  1.935944E-05  1.192995E-05
       132  12 -2.347087E+06 -3.297481E+05 -3.461745E+02 -8.820671E+05 -1.399772E-05 -1.104447E-05
       132  13 -2.353551E+06 -3.326775E+05 -3.199332E+03 -8.836257E+05  1.454920E-04  3.327650E-05
       132  14 -2.353497E+06 -3.313920E+05 -2.067359E+03 -8.835354E+05  5.040565E-05  1.153807E-05
       132  15 -2.353479E+06 -3.321757E+05 -2.114244E+03 -8.838135E+05 -4.467625E-05 -1.022929E-05
       132  16 -2.359856E+06 -3.350504E+05 -4.939027E+03 -8.853260E+05  4.893246E-05  3.559373E-05
       132  17 -2.359846E+06 -3.337923E+05 -3.821093E+03 -8.852588E+05  1.512901E-05  1.282615E-05
       132  18 -2.359871E+06 -3.346034E+05 -3.882316E+03 -8.855598E+05 -1.660292E-05 -1.082478E-05
       132  19 -2.347246E+06 -3.303045E+05 -1.459641E+03 -8.819253E+05  1.736825E+03  6.556118E+02
       132  20 -2.347149E+06 -3.289917E+05 -3.136287E+02 -8.818121E+05  6.735971E+02  2.677422E+02
       132  21 -2.347087E+06 -3.297481E+05 -3.461718E+02 -8.820671E+05 -3.833584E+02 -1.368539E+02
       132  22 -2.353551E+06 -3.326775E+05 -3.199325E+03 -8.836257E+05  1.737219E+03  6.557596E+02
       132  23 -2.353497E+06 -3.313920E+05 -2.067358E+03 -8.835354E+05  6.736265E+02  2.677532E+02
       132  24 -2.353479E+06 -3.321757E+05 -2.114244E+03 -8.838135E+05 -3.836932E+02 -1.369796E+02
       132  25 -2.359856E+06 -3.350504E+05 -4.939013E+03 -8.853261E+05  1.737613E+03  6.559074E+02
       132  26 -2.359846E+06 -3.337923E+05 -3.821090E+03 -8.852588E+05  6.736558E+02  2.677643E+02
       132  27 -2.359871E+06 -3.346034E+05 -3.882318E+03 -8.855598E+05 -3.840279E+02 -1.371053E+02
       133   1 -2.357056E+06 -3.331040E+05 -3.234556E+03 -8.845686E+05  7.492432E+02  2.835162E+02
       133   2 -2.356472E+06 -3.327460E+05 -4.180686E+03 -8.847685E+05  2.420912E+03  9.168500E+02
       133   3 -2.357339E+06 -3.345212E+05 -7.040790E+03 -8.840203E+05  4.095775E+03  1.541582E+03
       133   4 -2.353744E+06 -3.318363E+05 -2.316316E+03 -8.836537E+05  7.494509E+02  2.835942E+02
       133   5 -2.353120E+06 -3.314813E+05 -3.255215E+03 -8.838613E+05  2.420936E+03  9.168590E+02
       133   6 -2.353948E+06 -3.332595E+05 -6.107934E+03 -8.831208E+05  4.095615E+03  1.541521E+03
       133   7 -2.350431E+06 -3.305686E+05 -1.398076E+03 -8.827388E+05  7.496586E+02  2.836722E+02
       133   8 -2.349767E+06 -3.302166E+05 -2.329744E+03 -8.829541E+05  2.420960E+03  9.168679E+02
       133   9 -2.350556E+06 -3.319978E+05 -5.175078E+03 -8.822213E+05  4.095455E+03  1.541461E+03
       133  10 -2.357056E+06 -3.331040E+05 -3.234554E+03 -8.845686E+05 -2.072207E-05 -1.452265E-05
       133  11 -2.356472E+06 -3.327460E+05 -4.180698E+03 -8.847685E+05 -5.788531E-06 -3.254604E-06
       133  12 -2.357339E+06 -3.345212E+05 -7.040828E+03 -8.840203E+05  1.006573E-05  7.649644E-06
       133  13 -2.353744E+06 -3.318363E+05 -2.316317E+03 -8.836537E+05 -5.919919E-05 -1.355499E-05
       133  14 -2.353120E+06 -3.314813E+05 -3.255227E+03 -8.838613E+05 -1.403104E-05 -3.198044E-06
       133  15 -2.353948E+06 -3.332595E+05 -6.107970E+03 -8.831208E+05  3.113019E-05  7.171787E-06
       133  16 -2.350431E+06 -3.305686E+05 -1.398080E+03 -8.827388E+05 -1.981196E-05 -1.448777E-05
       133  17 -2.349768E+06 -3.302166E+05 -2.329758E+03 -8.829541E+05 -3.803377E-06 -3.663868E-06
       133  18 -2.350556E+06 -3.319978E+05 -5.175113E+03 -8.822213E+05  1.129123E-05  7.552242E-06
       133  19 -2.357056E+06 -3.331040E+05 -3.234549E+03 -8.845686E+05 -7.492433E+02 -2.835162E+02
       133  20 -2.356472E+06 -3.327460E+05 -4.180685E+03 -8.847685E+05 -2.420912E+03 -9.168500E+02
       133  21 -2.357339E+06 -3.345212E+05 -7.040793E+03 -8.840202E+05 -4.095775E+03 -1.541582E+03
       133  22 -2.353744E+06 -3.318363E+05 -2.316315E+03 -8.836537E+05 -7.494510E+02 -2.835942E+02
       133  23 -2.353120E+06 -3.314813E+05 -3.255215E+03 -8.838613E+05 -2.420936E+03 -9.168590E+02
       133  24 -2.353948E+06 -3.332595E+05 -6.107934E+03 -8.831208E+05 -4.095615E+03 -1.541521E+03
       133  25 -2.350431E+06 -3.305686E+05 -1.398082E+03 -8.827388E+05 -7.496587E+02 -2.836722E+02
       133  26 -2.349767E+06 -3.302166E+05 -2.329746E+03 -8.829541E+05 -2.420960E+03 -9.168679E+02
       133  27 -2.350556E+06 -3.319978E+05 -5.175075E+03 -8.822213E+05 -4.095455E+03 -1.541461E+03
       134   1 -2.352639E+06 -3.311493E+05 -7.215754E+03 -8.838159E+05  5.247889E+03  1.969286E+03
       134   2 -2.350317E+06 -3.285861E+05 -1.239593E+04 -8.835725E+05  1.197594E+04  4.492599E+03
       134   3 -2.354185E+06 -3.408684E+05 -2.659374E+04 -8.799152E+05  1.870223E+04  7.020840E+03
       134   4 -2.354383E+06 -3.317287E+05 -7.681550E+03 -8.842070E+05  5.247770E+03  1.969242E+03
       134   5 -2.351995E+06 -3.292524E+05 -1.286587E+04 -8.840607E+05  1.197591E+04  4.492589E+03
       134   6 -2.355797E+06 -3.416217E+05 -2.706791E+04 -8.805005E+05  1.870230E+04  7.020860E+03
       134   7 -2.356127E+06 -3.323080E+05 -8.147345E+03 -8.845982E+05  5.247651E+03  1.969198E+03
       134   8 -2.353674E+06 -3.299186E+05 -1.333581E+04 -8.845488E+05  1.197589E+04  4.492578E+03
       134   9 -2.357409E+06 -3.423749E+05 -2.754208E+04 -8.810857E+05  1.870237E+04  7.020879E+03
       134  10 -2.352639E+06 -3.311493E+05 -7.215815E+03 -8.838159E+05  1.320639E-05  9.268631E-06
       134  11 -2.350317E+06 -3.285862E+05 -1.239624E+04 -8.835725E+05  5.964562E-06  3.809062E-06
       134  12 -2.354185E+06 -3.408686E+05 -2.659449E+04 -8.799153E+05 -1.730623E-06 -1.459871E-06
       134  13 -2.354383E+06 -3.317287E+05 -7.681609E+03 -8.842070E+05  3.790172E-05  8.724209E-06
       134  14 -2.351996E+06 -3.292524E+05 -1.286618E+04 -8.840607E+05  1.600620E-05  3.683886E-06
       134  15 -2.355797E+06 -3.416218E+05 -2.706866E+04 -8.805006E+05 -5.889550E-06 -1.362811E-06
       134  16 -2.356127E+06 -3.323080E+05 -8.147402E+03 -8.845982E+05  1.277994E-05  9.246877E-06
       134  17 -2.353674E+06 -3.299187E+05 -1.333612E+04 -8.845489E+05  5.005390E-06  4.020454E-06
       134  18 -2.357409E+06 -3.423750E+05 -2.754284E+04 -8.810858E+05 -2.317048E-06 -1.407621E-06
       134  19 -2.352639E+06 -3.311493E+05 -7.215758E+03 -8.838158E+05 -5.247889E+03 -1.969286E+03
       134  20 -2.350317E+06 -3.285861E+05 -1.239593E+04 -8.835725E+05 -1.197594E+04 -4.492599E+03
       134  21 -2.354185E+06 -3.408684E+05 -2.659374E+04 -8.799152E+05 -1.870223E+04 -7.020840E+03
       134  22 -2.354383E+06 -3.317287E+05 -7.681550E+03 -8.842070E+05 -5.247770E+03 -1.969242E+03
       134  23 -2.351995E+06 -3.292524E+05 -1.286587E+04 -8.840607E+05 -1.197591E+04 -4.492589E+03
       134  24 -2.355797E+06 -3.416217E+05 -2.706791E+04 -8.805005E+05 -1.870230E+04 -7.020860E+03
       134  25 -2.356127E+06 -3.323080E+05 -8.147341E+03 -8.845982E+05 -5.247651E+03 -1.969198E+03
       134  26 -2.353674E+06 -3.299186E+05 -1.333581E+04 -8.845489E+05 -1.197589E+04 -4.492578E+03
       134  27 -2.357409E+06 -3.423749E+05 -2.754208E+04 -8.810857E+05 -1.870237E+04 -7.020879E+03
       135   1 -2.359499E+06 -3.314351E+05 -3.392630E+04 -8.871968E+05  2.378519E+04  8.931875E+03
       135   2 -2.345059E+06 -3.160147E+05 -5.554760E+04 -8.866212E+05  5.340947E+04  2.005636E+04
       135   3 -2.369622E+06 -3.938449E+05 -1.247995E+05 -8.621922E+05  8.303436E+04  3.117862E+04
       135   4 -2.359081E+06 -3.307724E+05 -3.370981E+04 -8.865650E+05  2.378524E+04  8.931918E+03
       135   5 -2.344104E+06 -3.158826E+05 -5.532954E+04 -8.865973E+05  5.340952E+04  2.005635E+04
       135   6 -2.368128E+06 -3.942434E+05 -1.245798E+05 -8.627761E+05  8.303445E+04  3.117849E+04
       135   7 -2.358664E+06 -3.301098E+05 -3.349332E+04 -8.859333E+05  2.378528E+04  8.931961E+03
       135   8 -2.343148E+06 -3.157506E+05 -5.511147E+04 -8.865734E+05  5.340957E+04  2.005634E+04
       135   9 -2.366634E+06 -3.946419E+05 -1.243601E+05 -8.633599E+05  8.303453E+04  3.117836E+04
       135  10 -2.359499E+06 -3.314353E+05 -3.392752E+04 -8.871969E+05 -3.106935E-06 -2.124505E-06
       135  11 -2.345063E+06 -3.160159E+05 -5.555375E+04 -8.866221E+05  9.708401E-07  9.371235E-07
       135  12 -2.369630E+06 -3.938479E+05 -1.248144E+05 -8.621943E+05  5.299077E-06  3.874660E-06
       135  13 -2.359082E+06 -3.307727E+05 -3.371103E+04 -8.865652E+05 -8.684730E-06 -2.000464E-06
       135  14 -2.344107E+06 -3.158838E+05 -5.533568E+04 -8.865982E+05  3.602301E-06  8.476818E-07
       135  15 -2.368136E+06 -3.942463E+05 -1.245947E+05 -8.627782E+05  1.589531E-05  3.689572E-06
       135  16 -2.358665E+06 -3.301101E+05 -3.349454E+04 -8.859335E+05 -2.851661E-06 -2.114458E-06
       135  17 -2.343151E+06 -3.157518E+05 -5.511761E+04 -8.865742E+05  1.507462E-06  8.286566E-07
       135  18 -2.366641E+06 -3.946448E+05 -1.243749E+05 -8.633620E+05  5.624100E-06  3.851999E-06
       135  19 -2.359499E+06 -3.314351E+05 -3.392630E+04 -8.871968E+05 -2.378519E+04 -8.931875E+03
       135  20 -2.345059E+06 -3.160147E+05 -5.554760E+04 -8.866212E+05 -5.340947E+04 -2.005636E+04
       135  21 -2.369622E+06 -3.938449E+05 -1.247995E+05 -8.621922E+05 -8.303436E+04 -3.117862E+04
       135  22 -2.359081E+06 -3.307724E+05 -3.370981E+04 -8.865650E+05 -2.378524E+04 -8.931918E+03
       135  23 -2.344104E+06 -3.158826E+05 -5.532954E+04 -8.865973E+05 -5.340952E+04 -2.005635E+04
       135  24 -2.368128E+06 -3.942434E+05 -1.245798E+05 -8.627761E+05 -8.303445E+04 -3.117849E+04
       135  25 -2.358664E+06 -3.301098E+05 -3.349332E+04 -8.859333E+05 -2.378528E+04 -8.931961E+03
       135  26 -2.343148E+06 -3.157506E+05 -5.511147E+04 -8.865734E+05 -5.340957E+04 -2.005634E+04
       135  27 -2.366634E+06 -3.946419E+05 -1.243601E+05 -8.633600E+05 -8.303453E+04 -3.117836E+04
       136   1 -2.384632E+06 -3.269392E+05 -1.507470E+05 -9.041065E+05  1.061435E+05  3.985370E+04
       136   2 -2.296701E+06 -2.292348E+05 -2.362537E+05 -9.013599E+05  2.371997E+05  8.906392E+04
       136   3 -2.449097E+06 -7.247520E+05 -5.821015E+05 -7.444530E+05  3.682581E+05  1.382769E+05
       136   4 -2.387266E+06 -3.247624E+05 -1.508388E+05 -9.015629E+05  1.061432E+05  3.985428E+04
       136   5 -2.295884E+06 -2.305152E+05 -2.363465E+05 -9.027704E+05  2.371998E+05  8.906321E+04
       136   6 -2.444828E+06 -7.294892E+05 -5.821954E+05 -7.498170E+05  3.682595E+05  1.382727E+05
       136   7 -2.389901E+06 -3.225856E+05 -1.509305E+05 -8.990194E+05  1.061429E+05  3.985486E+04
       136   8 -2.295066E+06 -2.317955E+05 -2.364393E+05 -9.041809E+05  2.372000E+05  8.906250E+04
       136   9 -2.440559E+06 -7.342262E+05 -5.822892E+05 -7.551811E+05  3.682608E+05  1.382684E+05
       136  10 -2.384644E+06 -3.269439E+05 -1.507713E+05 -9.041099E+05  6.009724E-06  4.212938E-06
       136  11 -2.296764E+06 -2.292586E+05 -2.363749E+05 -9.013770E+05  3.497331E-06  2.355813E-06
       136  12 -2.449249E+06 -7.248093E+05 -5.823936E+05 -7.444941E+05  8.402975E-07  5.391052E-07
       136  13 -2.387279E+06 -3.247672E+05 -1.508630E+05 -9.015663E+05  1.727290E-05  4.015995E-06
       136  14 -2.295946E+06 -2.305389E+05 -2.364676E+05 -9.027875E+05  9.726580E-06  2.283956E-06
       136  15 -2.444980E+06 -7.295464E+05 -5.824874E+05 -7.498581E+05  2.189192E-06  5.195519E-07
       136  16 -2.389913E+06 -3.225903E+05 -1.509548E+05 -8.990228E+05  5.850796E-06  4.206934E-06
       136  17 -2.295129E+06 -2.318192E+05 -2.365604E+05 -9.041979E+05  3.170892E-06  2.427456E-06
       136  18 -2.440711E+06 -7.342834E+05 -5.825813E+05 -7.552222E+05  6.572543E-07  5.495452E-07
       136  19 -2.384632E+06 -3.269392E+05 -1.507470E+05 -9.041065E+05 -1.061435E+05 -3.985370E+04
       136  20 -2.296701E+06 -2.292348E+05 -2.362537E+05 -9.013599E+05 -2.371997E+05 -8.906392E+04
       136  21 -2.449097E+06 -7.247520E+05 -5.821015E+05 -7.444530E+05 -3.682581E+05 -1.382769E+05
       136  22 -2.387266E+06 -3.247624E+05 -1.508388E+05 -9.015629E+05 -1.061432E+05 -3.985428E+04
       136  23 -2.295884E+06 -2.305152E+05 -2.363465E+05 -9.027704E+05 -2.371998E+05 -8.906321E+04
       136  24 -2.444828E+06 -7.294892E+05 -5.821954E+05 -7.498170E+05 -3.682595E+05 -1.382727E+05
       136  25 -2.389901E+06 -3.225856E+05 -1.509305E+05 -8.990194E+05 -1.061429E+05 -3.985486E+04
       136  26 -2.295066E+06 -2.317955E+05 -2.364393E+05 -9.041809E+05 -2.372000E+05 -8.906250E+04
       136  27 -2.440559E+06 -7.342262E+05 -5.822892E+05 -7.551811E+05 -3.682608E+05 -1.382684E+05
       137   1 -1.090254E+06 -3.730454E+04 -4.403479E+04 -3.130602E+02 -1.931325E+04  2.684259E+01
       137   2 -1.086989E+06 -1.070049E+04 -2.804899E+04 -5.503079E+02 -1.269188E+04  1.186041E+02
       137   3 -1.090379E+06 -1.515937E+04 -2.374908E+04  2.878493E+02 -6.070393E+03  6.312487E+01
       137   4 -1.026903E+06 -2.144731E+04 -2.817893E+04  1.015017E+02 -1.931081E+04  2.683353E+01
       137   5 -1.023571E+06  5.172338E+03 -1.217762E+04 -4.473696E+02 -1.269238E+04  1.186013E+02
       137   6 -1.026891E+06  7.313324E+02 -7.859280E+03  7.915016E+01 -6.073829E+03  6.312813E+01
       137   7 -9.635496E+05 -5.590376E+03 -1.232337E+04  5.161050E+02 -1.930837E+04  2.682448E+01
       137   8 -9.601492E+05  2.104486E+04  3.693437E+03 -3.444211E+02 -1.269288E+04  1.185985E+02
       137   9 -9.633999E+05  1.662173E+04  8.030215E+03 -1.295699E+02 -6.077266E+03  6.313139E+01
       137  10 -1.090254E+06 -3.730464E+04 -4.403549E+04 -3.130598E+02  2.228134E-09  1.421899E-09
       137  11 -1.086990E+06 -1.070053E+04 -2.804929E+04 -5.503067E+02  1.245572E-09  7.650995E-10
       137  12 -1.090379E+06 -1.515938E+04 -2.374915E+04  2.878497E+02 -1.688984E-09  2.438662E-09
       137  13 -1.026904E+06 -2.144741E+04 -2.817963E+04  1.015021E+02 -1.438493E-09  1.949388E-09
       137  14 -1.023571E+06  5.172295E+03 -1.217793E+04 -4.473684E+02  1.800704E-09  1.890475E-09
       137  15 -1.026891E+06  7.313225E+02 -7.859349E+03  7.915047E+01 -9.300531E-10  1.568606E-09
       137  16 -9.635500E+05 -5.590477E+03 -1.232407E+04  5.161054E+02  1.236572E-09  1.292785E-09
       137  17 -9.601494E+05  2.104482E+04  3.693134E+03 -3.444199E+02 -3.136438E-10  4.595732E-10
       137  18 -9.633999E+05  1.662172E+04  8.030145E+03 -1.295696E+02 -2.634748E-10 -1.528761E-09
       137  19 -1.090254E+06 -3.730454E+04 -4.403479E+04 -3.130602E+02  1.931325E+04 -2.684259E+01
       137  20 -1.086989E+06 -1.070049E+04 -2.804899E+04 -5.503079E+02  1.269188E+04 -1.186041E+02
       137  21 -1.090379E+06 -1.515937E+04 -2.374908E+04  2.878493E+02  6.070393E+03 -6.312487E+01
       137  22 -1.026903E+06 -2.144731E+04 -2.817893E+04  1.015017E+02  1.931081E+04 -2.683353E+01
       137  23 -1.023571E+06  5.172338E+03 -1.217762E+04 -4.473696E+02  1.269238E+04 -1.186013E+02
       137  24 -1.026891E+06  7.313324E+02 -7.859280E+03  7.915016E+01  6.073829E+03 -6.312813E+01
       137  25 -9.635496E+05 -5.590376E+03 -1.232337E+04  5.161050E+02  1.930837E+04 -2.682448E+01
       137  26 -9.601492E+05  2.104486E+04  3.693437E+03 -3.444211E+02  1.269288E+04 -1.185985E+02
       137  27 -9.633999E+05  1.662173E+04  8.030215E+03 -1.295699E+02  6.077266E+03 -6.313139E+01
       138   1 -1.001297E+06  2.663813E+03 -5.043134E+02 -1.286658E+03 -4.770736E+03 -1.968908E+00
       138   2 -1.000400E+06  7.017329E+03  3.011205E+03  1.152155E+03 -3.109790E+03 -4.566727E+01
       138   3 -1.000683E+06  6.332759E+03  4.243738E+03 -1.186064E+03 -1.448813E+03 -3.899636E+01
       138   4 -1.025678E+06 -3.438470E+03 -6.606454E+03 -1.217722E+03 -4.772230E+03 -1.968334E+00
       138   5 -1.025086E+06  8.389014E+02 -3.166635E+03  1.171972E+03 -3.110133E+03 -4.566732E+01
       138   6 -1.025675E+06  7.787572E+01 -2.010665E+03 -1.215377E+03 -1.448007E+03 -3.899644E+01
       138   7 -1.050059E+06 -9.540799E+03 -1.270864E+04 -1.148790E+03 -4.773724E+03 -1.967761E+00
       138   8 -1.049772E+06 -5.339572E+03 -9.344521E+03  1.191788E+03 -3.110477E+03 -4.566738E+01
       138   9 -1.050667E+06 -6.177055E+03 -8.265116E+03 -1.244689E+03 -1.447201E+03 -3.899651E+01
       138  10 -1.001297E+06  2.663807E+03 -5.043563E+02 -1.286658E+03  1.286621E-09  9.616329E-10
       138  11 -1.000400E+06  7.017326E+03  3.011187E+03  1.152155E+03 -5.576925E-10 -1.353325E-09
       138  12 -1.000683E+06  6.332758E+03  4.243734E+03 -1.186064E+03 -1.705851E-09 -2.258005E-09
       138  13 -1.025678E+06 -3.438476E+03 -6.606497E+03 -1.217722E+03  7.736860E-10 -2.012869E-10
       138  14 -1.025086E+06  8.388988E+02 -3.166653E+03  1.171972E+03 -3.809427E-09  1.019288E-09
       138  15 -1.025675E+06  7.787516E+01 -2.010669E+03 -1.215377E+03  3.863323E-10  3.542297E-10
       138  16 -1.050059E+06 -9.540805E+03 -1.270868E+04 -1.148790E+03  6.343789E-10 -5.973331E-10
       138  17 -1.049772E+06 -5.339575E+03 -9.344539E+03  1.191788E+03 -1.046145E-09 -3.065227E-10
       138  18 -1.050667E+06 -6.177055E+03 -8.265120E+03 -1.244689E+03  1.385600E-09 -9.160172E-10
       138  19 -1.001297E+06  2.663813E+03 -5.043134E+02 -1.286658E+03  4.770736E+03  1.968908E+00
       138  20 -1.000400E+06  7.017329E+03  3.011205E+03  1.152155E+03  3.109790E+03  4.566727E+01
       138  21 -1.000683E+06  6.332759E+03  4.243738E+03 -1.186064E+03  1.448813E+03  3.899636E+01
       138  22 -1.025678E+06 -3.438470E+03 -6.606454E+03 -1.217722E+03  4.772230E+03  1.968334E+00
       138  23 -1.025086E+06  8.389014E+02 -3.166635E+03  1.171972E+03  3.110133E+03  4.566732E+01
       138  24 -1.025675E+06  7.787572E+01 -2.010665E+03 -1.215377E+03  1.448007E+03  3.899644E+01
       138  25 -1.050059E+06 -9.540799E+03 -1.270864E+04 -1.148790E+03  4.773724E+03  1.967761E+00
       138  26 -1.049772E+06 -5.339572E+03 -9.344521E+03  1.191788E+03  3.110477E+03  4.566738E+01
       138  27 -1.050667E+06 -6.177055E+03 -8.265116E+03 -1.244689E+03  1.447201E+03  3.899651E+01
       139   1 -9.891650E+05  8.531382E+03  7.426767E+03  7.946142E+02 -1.122248E+03 -4.759558E+01
       139   2 -9.896147E+05  9.127065E+03  8.005235E+03 -1.332366E+03 -6.339067E+02 -6.871546E+01
       139   3 -9.897168E+05  8.858083E+03  8.174926E+03  8.358667E+02 -1.456334E+02 -1.618080E+01
       139   4 -1.025336E+06 -5.212907E+02 -1.625320E+03  8.000356E+02 -1.123594E+03 -4.759599E+01
       139   5 -1.025510E+06  1.434208E+02 -9.775507E+02 -1.347592E+03 -6.335122E+02 -6.871547E+01
       139   6 -1.025337E+06 -5.687975E+01 -7.397924E+02  8.000094E+02 -1.434981E+02 -1.617857E+01
       139   7 -1.061506E+06 -9.574063E+03 -1.067751E+04  8.054566E+02 -1.124940E+03 -4.759641E+01
       139   8 -1.061404E+06 -8.840321E+03 -9.960434E+03 -1.362817E+03 -6.331177E+02 -6.871547E+01
       139   9 -1.060956E+06 -8.971938E+03 -9.654607E+03  7.641539E+02 -1.413630E+02 -1.617633E+01
       139  10 -9.891650E+05  8.531382E+03  7.426765E+03  7.946142E+02  6.349167E-10 -2.416191E-10
       139  11 -9.896147E+05  9.127065E+03  8.005234E+03 -1.332366E+03 -8.304537E-10  4.125987E-10
       139  12 -9.897168E+05  8.858083E+03  8.174926E+03  8.358666E+02  1.597168E-09 -2.782530E-10
       139  13 -1.025336E+06 -5.212910E+02 -1.625322E+03  8.000356E+02  3.707493E-10  4.975094E-10
       139  14 -1.025510E+06  1.434207E+02 -9.775515E+02 -1.347592E+03  4.011098E-11  2.418910E-09
       139  15 -1.025337E+06 -5.687976E+01 -7.397925E+02  8.000094E+02  9.113200E-10 -2.285915E-09
       139  16 -1.061506E+06 -9.574063E+03 -1.067751E+04  8.054566E+02  4.180860E-10 -2.764611E-10
       139  17 -1.061404E+06 -8.840321E+03 -9.960434E+03 -1.362817E+03  1.720911E-09 -5.462499E-10
       139  18 -1.060956E+06 -8.971938E+03 -9.654607E+03  7.641539E+02  2.330934E-10  1.636606E-09
       139  19 -9.891650E+05  8.531382E+03  7.426767E+03  7.946142E+02  1.122248E+03  4.759558E+01
       139  20 -9.896147E+05  9.127065E+03  8.005235E+03 -1.332366E+03  6.339067E+02  6.871546E+01
       139  21 -9.897168E+05  8.858083E+03  8.174926E+03  8.358667E+02  1.456334E+02  1.618080E+01
       139  22 -1.025336E+06 -5.212907E+02 -1.625320E+03  8.000356E+02  1.123594E+03  4.759599E+01
       139  23 -1.025510E+06  1.434208E+02 -9.775507E+02 -1.347592E+03  6.335122E+02  6.871547E+01
       139  24 -1.025337E+06 -5.687975E+01 -7.397924E+02  8.000094E+02  1.434981E+02  1.617857E+01
       139  25 -1.061506E+06 -9.574063E+03 -1.067751E+04  8.054566E+02  1.124940E+03  4.759641E+01
       139  26 -1.061404E+06 -8.840321E+03 -9.960434E+03 -1.362817E+03  6.331177E+02  6.871547E+01
       139  27 -1.060956E+06 -8.971938E+03 -9.654607E+03  7.641539E+02  1.413630E+02  1.617633E+01
       140   1 -1.089637E+06 -1.620115E+04 -1.681186E+04 -2.094648E+02 -3.937354E+01  5.699035E+01
       140   2 -1.090619E+06 -1.615762E+04 -1.710987E+04 -1.589028E+02  3.912760E+02  1.231990E+02
       140   3 -1.089639E+06 -1.627499E+04 -1.731668E+04 -1.190244E+02  8.219521E+02  5.644340E+01
       140   4 -1.024978E+06 -1.755733E+01 -6.290364E+02 -1.568248E+02 -3.620573E+01  5.699304E+01
       140   5 -1.025959E+06  2.581610E+01 -9.279705E+02 -1.515200E+02  3.912959E+02  1.231982E+02
       140   6 -1.024978E+06 -9.104941E+01 -1.133476E+03 -1.569002E+02  8.188241E+02  5.644510E+01
       140   7 -9.603156E+05  1.616572E+04  1.555347E+04 -1.041803E+02 -3.303759E+01  5.699572E+01
       140   8 -9.612964E+05  1.620894E+04  1.525362E+04 -1.441366E+02  3.913159E+02  1.231974E+02
       140   9 -9.603142E+05  1.609257E+04  1.504941E+04 -1.947794E+02  8.156959E+02  5.644681E+01
       140  10 -1.089637E+06 -1.620115E+04 -1.681186E+04 -2.094648E+02 -1.750317E-09  1.267707E-11
       140  11 -1.090619E+06 -1.615762E+04 -1.710987E+04 -1.589028E+02  2.661247E-09  1.728026E-09
       140  12 -1.089639E+06 -1.627499E+04 -1.731668E+04 -1.190244E+02  9.127751E-10 -1.620113E-09
       140  13 -1.024978E+06 -1.755733E+01 -6.290364E+02 -1.568248E+02 -1.557293E-11 -9.851025E-10
       140  14 -1.025959E+06  2.581604E+01 -9.279708E+02 -1.515200E+02  2.348486E-09  5.090037E-10
       140  15 -1.024978E+06 -9.104959E+01 -1.133477E+03 -1.569003E+02 -2.008885E-09  1.913075E-10
       140  16 -9.603156E+05  1.616572E+04  1.555347E+04 -1.041803E+02  8.842625E-10 -1.186138E-09
       140  17 -9.612964E+05  1.620894E+04  1.525362E+04 -1.441366E+02  2.285110E-09 -2.051554E-10
       140  18 -9.603142E+05  1.609257E+04  1.504941E+04 -1.947794E+02 -5.708801E-10 -6.031383E-10
       140  19 -1.089637E+06 -1.620115E+04 -1.681186E+04 -2.094648E+02  3.937354E+01 -5.699035E+01
       140  20 -1.090619E+06 -1.615762E+04 -1.710987E+04 -1.589028E+02 -3.912760E+02 -1.231990E+02
       140  21 -1.089639E+06 -1.627499E+04 -1.731668E+04 -1.190244E+02 -8.219521E+02 -5.644340E+01
       140  22 -1.024978E+06 -1.755733E+01 -6.290364E+02 -1.568248E+02  3.620573E+01 -5.699304E+01
       140  23 -1.025959E+06  2.581610E+01 -9.279705E+02 -1.515200E+02 -3.912959E+02 -1.231982E+02
       140  24 -1.024978E+06 -9.104941E+01 -1.133476E+03 -1.569002E+02 -8.188241E+02 -5.644510E+01
       140  25 -9.603156E+05  1.616572E+04  1.555347E+04 -1.041803E+02  3.303759E+01 -5.699572E+01
       140  26 -9.612964E+05  1.620894E+04  1.525362E+04 -1.441366E+02 -3.913159E+02 -1.231974E+02
       140  27 -9.603142E+05  1.609257E+04  1.504941E+04 -1.947794E+02 -8.156959E+02 -5.644681E+01
       141   1 -9.895499E+05  8.936308E+03  7.448580E+03 -1.138773E+03  1.044875E+03 -1.708888E+01
       141   2 -9.893196E+05  9.296809E+03  6.517466E+03  1.028355E+03  2.309107E+03 -6.953040E+01
       141   3 -9.890020E+05  8.110762E+03  4.503569E+03 -1.087074E+03  3.573377E+03 -4.684908E+01
       141   4 -1.025395E+06 -3.491914E+01 -1.522415E+03 -1.106172E+03  1.042699E+03 -1.708723E+01
       141   5 -1.025438E+06  2.572927E+02 -2.521199E+03  1.035196E+03  2.308667E+03 -6.953052E+01
       141   6 -1.025395E+06 -9.974129E+02 -4.604023E+03 -1.106008E+03  3.574673E+03 -4.684916E+01
       141   7 -1.061239E+06 -9.006243E+03 -1.049351E+04 -1.073572E+03  1.040524E+03 -1.708559E+01
       141   8 -1.061556E+06 -8.782322E+03 -1.155996E+04  1.042038E+03  2.308228E+03 -6.953064E+01
       141   9 -1.061786E+06 -1.010569E+04 -1.371171E+04 -1.124940E+03  3.575969E+03 -4.684924E+01
       141  10 -9.895499E+05  8.936307E+03  7.448577E+03 -1.138773E+03  4.405391E-10  1.529851E-09
       141  11 -9.893196E+05  9.296807E+03  6.517456E+03  1.028355E+03  2.411993E-09 -1.732891E-09
       141  12 -9.890021E+05  8.110758E+03  4.503545E+03 -1.087074E+03  1.875722E-09 -5.184789E-10
       141  13 -1.025395E+06 -3.491943E+01 -1.522417E+03 -1.106172E+03 -8.077101E-10 -7.448012E-10
       141  14 -1.025438E+06  2.572912E+02 -2.521209E+03  1.035196E+03 -7.625422E-10 -1.390730E-09
       141  15 -1.025395E+06 -9.974163E+02 -4.604047E+03 -1.106008E+03 -2.811098E-09 -1.041940E-11
       141  16 -1.061239E+06 -9.006243E+03 -1.049351E+04 -1.073572E+03 -5.862838E-11 -6.620517E-10
       141  17 -1.061556E+06 -8.782323E+03 -1.155997E+04  1.042038E+03 -1.499341E-10  7.145331E-10
       141  18 -1.061786E+06 -1.010569E+04 -1.371174E+04 -1.124940E+03  3.107252E-10  2.218656E-09
       141  19 -9.895499E+05  8.936308E+03  7.448580E+03 -1.138773E+03 -1.044875E+03  1.708888E+01
       141  20 -9.893196E+05  9.296809E+03  6.517466E+03  1.028355E+03 -2.309107E+03  6.953040E+01
       141  21 -9.890020E+05  8.110762E+03  4.503569E+03 -1.087074E+03 -3.573377E+03  4.684908E+01
       141  22 -1.025395E+06 -3.491913E+01 -1.522415E+03 -1.106172E+03 -1.042699E+03  1.708723E+01
       141  23 -1.025438E+06  2.572927E+02 -2.521199E+03  1.035196E+03 -2.308667E+03  6.953052E+01
       141  24 -1.025395E+06 -9.974129E+02 -4.604023E+03 -1.106008E+03 -3.574673E+03  4.684916E+01
       141  25 -1.061239E+06 -9.006243E+03 -1.049351E+04 -1.073572E+03 -1.040524E+03  1.708559E+01
       141  26 -1.061556E+06 -8.782322E+03 -1.155996E+04  1.042038E+03 -2.308228E+03  6.953064E+01
       141  27 -1.061786E+06 -1.010569E+04 -1.371171E+04 -1.124940E+03 -3.575969E+03  4.684924E+01
       142   1 -1.001278E+06  6.357950E+03  3.197988E+02  8.564848E+02  4.520104E+03 -3.730402E+01
       142   2 -1.000212E+06  7.706647E+03 -3.583023E+03 -1.451470E+03  9.499240E+03 -4.027069E+01
       142   3 -1.001897E+06 -4.931108E+02 -1.306111E+04  1.031570E+03  1.447823E+04  1.052837E+01
       142   4 -1.026025E+06  1.644743E+02 -5.873245E+03  9.082488E+02  4.519222E+03 -3.730402E+01
       142   5 -1.024652E+06  1.589872E+03 -9.699207E+03 -1.484025E+03  9.499475E+03 -4.027095E+01
       142   6 -1.026031E+06 -6.533591E+03 -1.910136E+04  9.147105E+02  1.447959E+04  1.052738E+01
       142   7 -1.050771E+06 -6.029048E+03 -1.206634E+04  9.600107E+02  4.518341E+03 -3.730401E+01
       142   8 -1.049092E+06 -4.526948E+03 -1.581544E+04 -1.516578E+03  9.499711E+03 -4.027122E+01
       142   9 -1.050164E+06 -1.257412E+04 -2.514166E+04  7.978554E+02  1.448094E+04  1.052639E+01
       142  10 -1.001278E+06  6.357944E+03  3.197604E+02  8.564849E+02 -1.294186E-09 -7.063204E-10
       142  11 -1.000212E+06  7.706623E+03 -3.583193E+03 -1.451470E+03  2.309884E-10 -5.225695E-10
       142  12 -1.001898E+06 -4.931672E+02 -1.306150E+04  1.031570E+03 -1.652578E-09  7.184793E-10
       142  13 -1.026025E+06  1.644688E+02 -5.873284E+03  9.082489E+02 -1.059905E-09  5.387139E-10
       142  14 -1.024652E+06  1.589848E+03 -9.699377E+03 -1.484024E+03  4.135801E-10  1.573336E-09
       142  15 -1.026031E+06 -6.533647E+03 -1.910175E+04  9.147104E+02 -3.372922E-10  5.469310E-11
       142  16 -1.050771E+06 -6.029053E+03 -1.206637E+04  9.600108E+02 -9.596238E-11 -1.637388E-09
       142  17 -1.049092E+06 -4.526972E+03 -1.581561E+04 -1.516577E+03  1.354966E-09  5.356168E-10
       142  18 -1.050165E+06 -1.257417E+04 -2.514205E+04  7.978553E+02  2.051430E-10  9.833738E-10
       142  19 -1.001278E+06  6.357950E+03  3.197988E+02  8.564848E+02 -4.520104E+03  3.730402E+01
       142  20 -1.000212E+06  7.706647E+03 -3.583023E+03 -1.451470E+03 -9.499240E+03  4.027069E+01
       142  21 -1.001897E+06 -4.931108E+02 -1.306111E+04  1.031570E+03 -1.447823E+04 -1.052837E+01
       142  22 -1.026025E+06  1.644743E+02 -5.873245E+03  9.082488E+02 -4.519222E+03  3.730402E+01
       142  23 -1.024652E+06  1.589872E+03 -9.699207E+03 -1.484025E+03 -9.499475E+03  4.027095E+01
       142  24 -1.026031E+06 -6.533591E+03 -1.910136E+04  9.147105E+02 -1.447959E+04 -1.052738E+01
       142  25 -1.050771E+06 -6.029048E+03 -1.206634E+04  9.600107E+02 -4.518341E+03  3.730401E+01
       142  26 -1.049092E+06 -4.526948E+03 -1.581544E+04 -1.516578E+03 -9.499711E+03  4.027122E+01
       142  27 -1.050164E+06 -1.257412E+04 -2.514166E+04  7.978554E+02 -1.448094E+04 -1.052639E+01
       143   1 -1.092365E+06 -1.457350E+04 -3.957071E+04 -7.968728E+02  1.834682E+04  7.491989E+01
       143   2 -1.084484E+06 -5.869944E+03 -5.399833E+04  3.063359E+02  3.837751E+04  1.215386E+02
       143   3 -1.092254E+06 -5.720950E+04 -9.609630E+04  2.749961E+02  5.840837E+04  1.013147E+01
       143   4 -1.028892E+06  1.314161E+03 -2.368426E+04 -4.006083E+02  1.835072E+04  7.493332E+01
       143   5 -1.021081E+06  9.999052E+03 -3.813052E+04  1.514566E+02  3.837941E+04  1.215282E+02
       143   6 -1.028918E+06 -4.135544E+04 -8.024373E+04 -4.310285E+02  5.840828E+04  1.006808E+01
       143   7 -9.654147E+05  1.720152E+04 -7.798114E+03 -4.303908E+00  1.835462E+04  7.494676E+01
       143   8 -9.576737E+05  2.586774E+04 -2.226301E+04 -3.438635E+00  3.838132E+04  1.215178E+02
       143   9 -9.655787E+05 -2.550168E+04 -6.439146E+04 -1.137125E+03  5.840819E+04  1.000469E+01
       143  10 -1.092366E+06 -1.457359E+04 -3.957134E+04 -7.968739E+02 -6.668923E-10 -3.463174E-10
       143  11 -1.084486E+06 -5.870341E+03 -5.400110E+04  3.063322E+02 -5.975503E-10 -5.680044E-09
       143  12 -1.092258E+06 -5.721041E+04 -9.610273E+04  2.749957E+02 -2.145615E-09  2.008824E-09
       143  13 -1.028892E+06  1.314070E+03 -2.368489E+04 -4.006094E+02 -2.117877E-09 -1.841784E-09
       143  14 -1.021082E+06  9.998656E+03 -3.813329E+04  1.514528E+02  4.308580E-09 -4.252099E-09
       143  15 -1.028922E+06 -4.135635E+04 -8.025015E+04 -4.310290E+02 -3.265539E-09  1.172441E-10
       143  16 -9.654151E+05  1.720143E+04 -7.798748E+03 -4.305017E+00  8.749065E-10 -5.847621E-10
       143  17 -9.576752E+05  2.586735E+04 -2.226578E+04 -3.442392E+00  5.058723E-10 -4.803181E-09
       143  18 -9.655824E+05 -2.550260E+04 -6.439788E+04 -1.137125E+03  2.341651E-10  1.461674E-09
       143  19 -1.092365E+06 -1.457350E+04 -3.957071E+04 -7.968728E+02 -1.834682E+04 -7.491989E+01
       143  20 -1.084484E+06 -5.869944E+03 -5.399833E+04  3.063359E+02 -3.837751E+04 -1.215386E+02
       143  21 -1.092254E+06 -5.720949E+04 -9.609630E+04  2.749961E+02 -5.840837E+04 -1.013147E+01
       143  22 -1.028892E+06  1.314161E+03 -2.368426E+04 -4.006083E+02 -1.835072E+04 -7.493332E+01
       143  23 -1.021081E+06  9.999052E+03 -3.813052E+04  1.514566E+02 -3.837941E+04 -1.215282E+02
       143  24 -1.028918E+06 -4.135544E+04 -8.024373E+04 -4.310285E+02 -5.840828E+04 -1.006808E+01
       143  25 -9.654147E+05  1.720152E+04 -7.798114E+03 -4.303908E+00 -1.835462E+04 -7.494676E+01
       143  26 -9.576737E+05  2.586774E+04 -2.226301E+04 -3.438634E+00 -3.838132E+04 -1.215178E+02
       143  27 -9.655787E+05 -2.550168E+04 -6.439146E+04 -1.137125E+03 -5.840819E+04 -1.000469E+01
       144   1 -1.002424E+06  1.972701E+04 -8.532081E+04 -3.122373E+03  7.450713E+04 -9.069779E+01
       144   2 -9.496726E+05  7.543783E+04 -1.353816E+05  1.880056E+03  1.549910E+05 -1.292925E+02
       144   3 -1.002115E+06 -2.517973E+05 -3.333988E+05  3.642164E+03  2.354771E+05  4.544680E+01
       144   4 -1.048782E+06  8.119845E+03 -9.692442E+04 -8.828297E+02  7.450140E+04 -9.042745E+01
       144   5 -9.962419E+05  6.378422E+04 -1.470356E+05  7.796458E+02  1.549850E+05 -1.295688E+02
       144   6 -1.048903E+06 -2.635126E+05 -3.451109E+05 -7.979883E+02  2.354710E+05  4.376245E+01
       144   7 -1.095138E+06 -3.487468E+03 -1.085282E+05  1.356546E+03  7.449566E+04 -9.015714E+01
       144   8 -1.042809E+06  5.213046E+04 -1.586897E+05 -3.206817E+02  1.549791E+05 -1.298450E+02
       144   9 -1.095690E+06 -2.752280E+05 -3.568232E+05 -5.237806E+03  2.354648E+05  4.207807E+01
       144  10 -1.002430E+06  1.972552E+04 -8.533126E+04 -3.122368E+03  2.379129E-10  8.494434E-10
       144  11 -9.496984E+05  7.543136E+04 -1.354269E+05  1.880072E+03  1.838062E-09 -4.431285E-09
       144  12 -1.002175E+06 -2.518122E+05 -3.335032E+05  3.642156E+03 -1.627323E-10 -1.100013E-09
       144  13 -1.048788E+06  8.118351E+03 -9.693487E+04 -8.828243E+02 -1.073288E-09  3.286043E-09
       144  14 -9.962677E+05  6.377776E+04 -1.470808E+05  7.796620E+02 -3.240393E-09 -4.868598E-09
       144  15 -1.048963E+06 -2.635275E+05 -3.452153E+05 -7.979966E+02 -5.214206E-10 -1.881922E-09
       144  16 -1.095144E+06 -3.488962E+03 -1.085386E+05  1.356552E+03 -3.271993E-10  1.481465E-10
       144  17 -1.042835E+06  5.212400E+04 -1.587350E+05 -3.206655E+02  7.204098E-10 -4.316987E-09
       144  18 -1.095749E+06 -2.752429E+05 -3.569275E+05 -5.237814E+03  9.920600E-10 -4.155445E-09
       144  19 -1.002424E+06  1.972701E+04 -8.532081E+04 -3.122373E+03 -7.450713E+04  9.069779E+01
       144  20 -9.496726E+05  7.543783E+04 -1.353816E+05  1.880056E+03 -1.549910E+05  1.292925E+02
       144  21 -1.002115E+06 -2.517973E+05 -3.333988E+05  3.642164E+03 -2.354771E+05 -4.544680E+01
       144  22 -1.048782E+06  8.119845E+03 -9.692442E+04 -8.828297E+02 -7.450140E+04  9.042745E+01
       144  23 -9.962419E+05  6.378422E+04 -1.470356E+05  7.796458E+02 -1.549850E+05  1.295688E+02
       144  24 -1.048903E+06 -2.635126E+05 -3.451109E+05 -7.979883E+02 -2.354710E+05 -4.376245E+01
       144  25 -1.095138E+06 -3.487468E+03 -1.085282E+05  1.356546E+03 -7.449566E+04  9.015714E+01
       144  26 -1.042809E+06  5.213046E+04 -1.586897E+05 -3.206817E+02 -1.549791E+05  1.298450E+02
       144  27 -1.095690E+06 -2.752280E+05 -3.568232E+05 -5.237806E+03 -2.354648E+05 -4.207807E+01
       145   1  1.236896E+05 -1.280768E+05  1.577498E+05 -2.103029E+03 -1.136107E+02  1.012594E+05
       145   2 -1.488566E+04 -1.510102E+05  7.254377E+04  1.784320E+02 -4.930412E+01  6.797289E+04
       145   3  7.147236E+03 -1.283568E+05  4.938847E+04  4.592670E+02 -4.770887E+01  3.468538E+04
       145   4  1.117876E+05 -1.756516E+05  1.458540E+05 -1.861577E+02 -1.132969E+02  1.012530E+05
       145   5 -2.675142E+04 -1.984543E+05  6.068167E+04  7.258452E+02 -4.924619E+01  6.797018E+04
       145   6 -4.676531E+03 -1.756676E+05  3.756083E+04 -3.627602E+02 -4.776259E+01  3.468640E+04
       145   7  9.988547E+04 -2.232243E+05  1.339580E+05  1.730567E+03 -1.129831E+02  1.012466E+05
       145   8 -3.861736E+04 -2.458963E+05  4.881940E+04  1.273218E+03 -4.918826E+01  6.796747E+04
       145   9 -1.650046E+04 -2.229764E+05  2.573303E+04 -1.184723E+03 -4.781632E+01  3.468742E+04
       145  10  1.236868E+05 -1.280878E+05  1.577305E+05 -2.103020E+03 -1.837029E-09  8.064309E-10
       145  11 -1.488690E+04 -1.510152E+05  7.253508E+04  1.784347E+02 -2.525837E-09  4.603223E-12
       145  12  7.146912E+03 -1.283581E+05  4.938621E+04  4.592683E+02 -1.590268E-10  1.779732E-09
       145  13  1.117848E+05 -1.756626E+05  1.458347E+05 -1.861485E+02 -2.409078E-09  2.412784E-11
       145  14 -2.675266E+04 -1.984593E+05  6.067298E+04  7.258479E+02 -7.139669E-10  2.237137E-09
       145  15 -4.676854E+03 -1.756689E+05  3.755857E+04 -3.627588E+02  1.637202E-09  3.738570E-10
       145  16  9.988272E+04 -2.232353E+05  1.339387E+05  1.730577E+03 -2.433655E-09 -8.288983E-10
       145  17 -3.861860E+04 -2.459013E+05  4.881071E+04  1.273220E+03  2.111783E-09 -4.479114E-09
       145  18 -1.650079E+04 -2.229777E+05  2.573076E+04 -1.184722E+03 -8.965927E-10  1.959031E-09
       145  19  1.236896E+05 -1.280768E+05  1.577498E+05 -2.103029E+03  1.136107E+02 -1.012594E+05
       145  20 -1.488566E+04 -1.510102E+05  7.254377E+04  1.784320E+02  4.930412E+01 -6.797289E+04
       145  21  7.147236E+03 -1.283568E+05  4.938847E+04  4.592670E+02  4.770887E+01 -3.468538E+04
       145  22  1.117876E+05 -1.756516E+05  1.458540E+05 -1.861577E+02  1.132969E+02 -1.012530E+05
       145  23 -2.675142E+04 -1.984543E+05  6.068167E+04  7.258452E+02  4.924619E+01 -6.797018E+04
       145  24 -4.676531E+03 -1.756676E+05  3.756083E+04 -3.627602E+02  4.776259E+01 -3.468640E+04
       145  25  9.988547E+04 -2.232243E+05  1.339580E+05  1.730567E+03  1.129831E+02 -1.012466E+05
       145  26 -3.861736E+04 -2.458963E+05  4.881940E+04  1.273218E+03  4.918826E+01 -6.796747E+04
       145  27 -1.650046E+04 -2.229764E+05  2.573303E+04 -1.184723E+03  4.781632E+01 -3.468742E+04
       146   1  1.454901E+04 -1.977303E+05  2.624414E+04 -6.494396E+02 -7.727994E+01  2.857614E+04
       146   2 -5.533134E+03 -1.999560E+05  5.331687E+03  9.083472E+02 -8.546387E+01  2.405320E+04
       146   3 -1.195976E+04 -1.981144E+05 -9.208517E+03 -4.917888E+02 -8.337594E+01  1.953033E+04
       146   4  1.775810E+04 -1.848910E+05  2.945436E+04 -4.641727E+02 -7.727305E+01  2.857717E+04
       146   5 -2.275611E+03 -1.869262E+05  8.589357E+03  9.793794E+02 -8.546195E+01  2.405391E+04
       146   6 -8.653892E+03 -1.848942E+05 -5.903251E+03 -5.349873E+02 -8.337741E+01  1.953071E+04
       146   7  2.096717E+04 -1.720516E+05  3.266456E+04 -2.789019E+02 -7.726617E+01  2.857820E+04
       146   8  9.818997E+02 -1.738963E+05  1.184701E+04  1.050413E+03 -8.546002E+01  2.405462E+04
       146   9 -5.348042E+03 -1.716737E+05 -2.597998E+03 -5.781866E+02 -8.337889E+01  1.953109E+04
       146  10  1.454879E+04 -1.977311E+05  2.624261E+04 -6.494378E+02 -2.722416E-10  1.462751E-09
       146  11 -5.533290E+03 -1.999566E+05  5.330599E+03  9.083489E+02  6.017204E-10  7.480601E-12
       146  12 -1.195986E+04 -1.981148E+05 -9.209234E+03 -4.917875E+02 -4.482870E-10  1.477521E-09
       146  13  1.775788E+04 -1.848919E+05  2.945282E+04 -4.641710E+02 -3.131004E-10  1.809220E-11
       146  14 -2.275766E+03 -1.869269E+05  8.588269E+03  9.793811E+02  2.447825E-09  2.845389E-09
       146  15 -8.653995E+03 -1.848946E+05 -5.903968E+03 -5.349860E+02  3.534466E-10  3.271170E-10
       146  16  2.096695E+04 -1.720525E+05  3.266302E+04 -2.789002E+02 -4.633633E-10 -1.479665E-09
       146  17  9.817443E+02 -1.738969E+05  1.184593E+04  1.050415E+03  1.474053E-09 -5.682430E-09
       146  18 -5.348144E+03 -1.716741E+05 -2.598715E+03 -5.781853E+02 -3.575490E-09  1.971191E-09
       146  19  1.454901E+04 -1.977303E+05  2.624414E+04 -6.494396E+02  7.727994E+01 -2.857614E+04
       146  20 -5.533134E+03 -1.999560E+05  5.331687E+03  9.083472E+02  8.546387E+01 -2.405320E+04
       146  21 -1.195976E+04 -1.981144E+05 -9.208517E+03 -4.917888E+02  8.337594E+01 -1.953033E+04
       146  22  1.775810E+04 -1.848910E+05  2.945436E+04 -4.641727E+02  7.727305E+01 -2.857717E+04
       146  23 -2.275611E+03 -1.869262E+05  8.589357E+03  9.793794E+02  8.546195E+01 -2.405391E+04
       146  24 -8.653892E+03 -1.848942E+05 -5.903251E+03 -5.349873E+02  8.337741E+01 -1.953071E+04
       146  25  2.096717E+04 -1.720516E+05  3.266456E+04 -2.789019E+02  7.726617E+01 -2.857820E+04
       146  26  9.818997E+02 -1.738963E+05  1.184701E+04  1.050413E+03  8.546002E+01 -2.405462E+04
       146  27 -5.348042E+03 -1.716737E+05 -2.597998E+03 -5.781866E+02  8.337889E+01 -1.953109E+04
       147   1 -1.086024E+04 -2.507171E+05 -2.640747E+04  4.535519E+02 -1.172991E+02  2.107008E+04
       147   2 -3.542708E+03 -2.419792E+05 -4.074385E+04  2.620020E+02 -1.644630E+02  3.507299E+04
       147   3 -6.664503E+04 -2.508418E+05 -8.143771E+04 -8.920864E+02 -7.467597E+01  4.907598E+04
       147   4  4.397987E+03 -1.897080E+05 -1.115198E+04 -3.901658E+01 -1.173196E+02  2.107354E+04
       147   5  1.172685E+04 -1.809110E+05 -2.547495E+04  4.207050E+02 -1.644516E+02  3.507438E+04
       147   6 -5.136004E+04 -1.897122E+05 -6.615208E+04 -8.212115E+01 -7.460884E+01  4.907528E+04
       147   7  1.965593E+04 -1.286955E+05  4.103237E+03 -5.316316E+02 -1.173400E+02  2.107701E+04
       147   8  2.699613E+04 -1.198394E+05 -1.020633E+04  5.794249E+02 -1.644402E+02  3.507576E+04
       147   9 -3.607532E+04 -1.285793E+05 -5.086673E+04  7.279244E+02 -7.454172E+01  4.907459E+04
       147  10 -1.086036E+04 -2.507176E+05 -2.640831E+04  4.535539E+02 -2.807212E-09  1.064516E-09
       147  11 -3.543038E+03 -2.419805E+05 -4.074616E+04  2.620066E+02 -2.232126E-09  1.309057E-10
       147  12 -6.664568E+04 -2.508444E+05 -8.144223E+04 -8.920834E+02  9.592134E-10  5.253845E-10
       147  13  4.397868E+03 -1.897085E+05 -1.115281E+04 -3.901459E+01 -1.380152E-09 -2.116248E-11
       147  14  1.172652E+04 -1.809123E+05 -2.547726E+04  4.207097E+02 -3.125649E-09  1.521981E-09
       147  15 -5.136068E+04 -1.897148E+05 -6.615660E+04 -8.211820E+01  2.293395E-09  8.175154E-11
       147  16  1.965581E+04 -1.286959E+05  4.102402E+03 -5.316297E+02 -4.428226E-09 -1.071229E-09
       147  17  2.699580E+04 -1.198407E+05 -1.020864E+04  5.794295E+02  2.714959E-10 -3.210024E-09
       147  18 -3.607597E+04 -1.285819E+05 -5.087126E+04  7.279274E+02  7.577173E-10  3.780767E-10
       147  19 -1.086024E+04 -2.507171E+05 -2.640747E+04  4.535519E+02  1.172991E+02 -2.107008E+04
       147  20 -3.542708E+03 -2.419792E+05 -4.074385E+04  2.620020E+02  1.644630E+02 -3.507299E+04
       147  21 -6.664503E+04 -2.508418E+05 -8.143771E+04 -8.920864E+02  7.467597E+01 -4.907598E+04
       147  22  4.397987E+03 -1.897080E+05 -1.115198E+04 -3.901658E+01  1.173196E+02 -2.107354E+04
       147  23  1.172685E+04 -1.809110E+05 -2.547495E+04  4.207050E+02  1.644516E+02 -3.507438E+04
       147  24 -5.136004E+04 -1.897122E+05 -6.615208E+04 -8.212115E+01  7.460884E+01 -4.907528E+04
       147  25  1.965593E+04 -1.286955E+05  4.103237E+03 -5.316317E+02  1.173400E+02 -2.107701E+04
       147  26  2.699613E+04 -1.198394E+05 -1.020633E+04  5.794249E+02  1.644402E+02 -3.507576E+04
       147  27 -3.607532E+04 -1.285793E+05 -5.086673E+04  7.279244E+02  7.454172E+01 -4.907459E+04
       148   1 -1.294499E+06 -2.569430E+05 -1.162487E+05 -4.502423E+05 -7.480799E+04 -2.818188E+04
       148   2 -1.260500E+06 -1.605077E+05 -4.623846E+04 -4.867261E+05 -4.817771E+04 -1.816836E+04
       148   3 -1.286029E+06 -1.747211E+05 -2.928073E+04 -4.797387E+05 -2.157178E+04 -8.089343E+03
       148   4 -1.302739E+06 -2.587659E+05 -1.182637E+05 -4.511588E+05 -7.480828E+04 -2.818219E+04
       148   5 -1.267171E+06 -1.627138E+05 -4.801599E+04 -4.882164E+05 -4.817690E+04 -1.816808E+04
       148   6 -1.291133E+06 -1.773115E+05 -3.082225E+04 -4.818026E+05 -2.156980E+04 -8.088569E+03
       148   7 -1.310978E+06 -2.605888E+05 -1.202786E+05 -4.520754E+05 -7.480858E+04 -2.818250E+04
       148   8 -1.273843E+06 -1.649199E+05 -4.979353E+04 -4.897066E+05 -4.817610E+04 -1.816781E+04
       148   9 -1.296238E+06 -1.799019E+05 -3.236376E+04 -4.838664E+05 -2.156782E+04 -8.087794E+03
       148  10 -1.294505E+06 -2.569454E+05 -1.162607E+05 -4.502440E+05 -3.839539E-12 -1.434678E-09
       148  11 -1.260502E+06 -1.605087E+05 -4.624346E+04 -4.867268E+05  7.935654E-10 -2.871214E-10
       148  12 -1.286029E+06 -1.747213E+05 -2.928173E+04 -4.797389E+05  3.641252E-09 -3.696174E-10
       148  13 -1.302745E+06 -2.587683E+05 -1.182757E+05 -4.511605E+05  2.862006E-11  2.883136E-09
       148  14 -1.267174E+06 -1.627148E+05 -4.802099E+04 -4.882171E+05  4.004045E-09  3.676105E-09
       148  15 -1.291134E+06 -1.773117E+05 -3.082325E+04 -4.818027E+05  1.920549E-09  1.269649E-11
       148  16 -1.310984E+06 -2.605912E+05 -1.202907E+05 -4.520771E+05 -3.780167E-10  2.682028E-09
       148  17 -1.273845E+06 -1.649209E+05 -4.979852E+04 -4.897073E+05 -2.171882E-09  6.899337E-09
       148  18 -1.296238E+06 -1.799021E+05 -3.236476E+04 -4.838666E+05 -2.977590E-09 -7.665899E-10
       148  19 -1.294499E+06 -2.569430E+05 -1.162487E+05 -4.502423E+05  7.480799E+04  2.818188E+04
       148  20 -1.260500E+06 -1.605077E+05 -4.623846E+04 -4.867261E+05  4.817771E+04  1.816836E+04
       148  21 -1.286029E+06 -1.747211E+05 -2.928073E+04 -4.797387E+05  2.157178E+04  8.089343E+03
       148  22 -1.302739E+06 -2.587659E+05 -1.182637E+05 -4.511588E+05  7.480828E+04  2.818219E+04
       148  23 -1.267171E+06 -1.627138E+05 -4.801599E+04 -4.882164E+05  4.817690E+04  1.816808E+04
       148  24 -1.291133E+06 -1.773115E+05 -3.082225E+04 -4.818026E+05  2.156980E+04  8.088569E+03
       148  25 -1.310978E+06 -2.605888E+05 -1.202786E+05 -4.520754E+05  7.480858E+04  2.818250E+04
       148  26 -1.273843E+06 -1.649199E+05 -4.979353E+04 -4.897066E+05  4.817610E+04  1.816781E+04
       148  27 -1.296238E+06 -1.799019E+05 -3.236376E+04 -4.838664E+05  2.156782E+04  8.087794E+03
       149   1 -1.406968E+06 -2.425627E+05 -5.969207E+04 -5.131619E+05 -1.702016E+04 -6.236044E+03
       149   2 -1.410972E+06 -2.223930E+05 -4.653888E+04 -5.137496E+05 -1.091424E+04 -3.795376E+03
       149   3 -1.404312E+06 -2.299811E+05 -4.119608E+04 -5.164783E+05 -4.691607E+03 -1.667280E+03
       149   4 -1.280598E+06 -1.945150E+05 -2.476287E+04 -4.785289E+05 -1.701644E+04 -6.234656E+03
       149   5 -1.285120E+06 -1.748957E+05 -1.182566E+04 -4.796206E+05 -1.091632E+04 -3.796158E+03
       149   6 -1.278976E+06 -1.830295E+05 -6.692547E+03 -4.828535E+05 -4.699495E+03 -1.670213E+03
       149   7 -1.154212E+06 -1.464664E+05  1.016486E+04 -4.438896E+05 -1.701272E+04 -6.233267E+03
       149   8 -1.159254E+06 -1.273975E+05  2.288611E+04 -4.454854E+05 -1.091840E+04 -3.796940E+03
       149   9 -1.153625E+06 -1.360771E+05  2.780955E+04 -4.492226E+05 -4.707385E+03 -1.673147E+03
       149  10 -1.406969E+06 -2.425628E+05 -5.969269E+04 -5.131620E+05  2.465965E-09  1.662880E-09
       149  11 -1.410972E+06 -2.223930E+05 -4.653913E+04 -5.137497E+05 -2.188839E-09  2.024515E-09
       149  12 -1.404312E+06 -2.299811E+05 -4.119613E+04 -5.164783E+05  1.308492E-08 -8.514169E-09
       149  13 -1.280598E+06 -1.945151E+05 -2.476348E+04 -4.785290E+05  2.048077E-09 -1.667084E-09
       149  14 -1.285121E+06 -1.748957E+05 -1.182591E+04 -4.796206E+05 -3.866645E-09  3.776219E-09
       149  15 -1.278976E+06 -1.830295E+05 -6.692593E+03 -4.828535E+05  2.445691E-09  3.357274E-09
       149  16 -1.154213E+06 -1.464665E+05  1.016424E+04 -4.438897E+05  2.527750E-09 -1.650046E-09
       149  17 -1.159254E+06 -1.273976E+05  2.288586E+04 -4.454854E+05  1.655609E-09 -6.411276E-09
       149  18 -1.153625E+06 -1.360771E+05  2.780951E+04 -4.492226E+05 -1.421288E-08  9.987468E-09
       149  19 -1.406968E+06 -2.425627E+05 -5.969207E+04 -5.131619E+05  1.702016E+04  6.236044E+03
       149  20 -1.410972E+06 -2.223930E+05 -4.653888E+04 -5.137496E+05  1.091424E+04  3.795376E+03
       149  21 -1.404312E+06 -2.299811E+05 -4.119608E+04 -5.164783E+05  4.691607E+03  1.667280E+03
       149  22 -1.280598E+06 -1.945150E+05 -2.476287E+04 -4.785289E+05  1.701644E+04  6.234656E+03
       149  23 -1.285120E+06 -1.748957E+05 -1.182566E+04 -4.796206E+05  1.091632E+04  3.796158E+03
       149  24 -1.278976E+06 -1.830295E+05 -6.692547E+03 -4.828535E+05  4.699495E+03  1.670213E+03
       149  25 -1.154212E+06 -1.464664E+05  1.016486E+04 -4.438896E+05  1.701272E+04  6.233267E+03
       149  26 -1.159254E+06 -1.273975E+05  2.288611E+04 -4.454854E+05  1.091840E+04  3.796940E+03
       149  27 -1.153625E+06 -1.360771E+05  2.780955E+04 -4.492226E+05  4.707385E+03  1.673147E+03
       150   1 -1.053868E+06 -9.529668E+04  5.763015E+04 -4.164190E+05 -3.988130E+03 -1.722172E+03
       150   2 -1.065638E+06 -9.894525E+04  5.682151E+04 -4.257287E+05 -2.157176E+03 -1.320892E+03
       150   3 -1.055867E+06 -9.443660E+04  6.072304E+04 -4.157930E+05 -5.286492E+02 -3.820981E+02
       150   4 -1.277134E+06 -1.791518E+05 -3.862876E+03 -4.765614E+05 -3.998585E+03 -1.726071E+03
       150   5 -1.287886E+06 -1.830517E+05 -4.515096E+03 -4.862502E+05 -2.156158E+03 -1.320521E+03
       150   6 -1.277107E+06 -1.788031E+05 -4.674485E+02 -4.766940E+05 -5.161899E+02 -3.773692E+02
       150   7 -1.500353E+06 -2.630043E+05 -6.536047E+04 -5.366843E+05 -4.009035E+03 -1.729969E+03
       150   8 -1.510087E+06 -2.671553E+05 -6.585625E+04 -5.467522E+05 -2.155140E+03 -1.320151E+03
       150   9 -1.498300E+06 -2.631667E+05 -6.166246E+04 -5.375754E+05 -5.037355E+02 -3.726421E+02
       150  10 -1.053868E+06 -9.529668E+04  5.763011E+04 -4.164190E+05 -6.502424E-09 -6.221790E-10
       150  11 -1.065638E+06 -9.894525E+04  5.682150E+04 -4.257287E+05 -1.968795E-08  8.466005E-09
       150  12 -1.055867E+06 -9.443660E+04  6.072304E+04 -4.157930E+05  8.907306E-08 -4.875950E-08
       150  13 -1.277134E+06 -1.791518E+05 -3.862912E+03 -4.765614E+05 -1.404232E-09  4.353261E-10
       150  14 -1.287886E+06 -1.830517E+05 -4.515108E+03 -4.862502E+05  1.385066E-09  2.235651E-09
       150  15 -1.277107E+06 -1.788031E+05 -4.674493E+02 -4.766940E+05  7.848488E-10 -1.009872E-10
       150  16 -1.500353E+06 -2.630043E+05 -6.536051E+04 -5.366843E+05  4.936779E-09  1.389869E-09
       150  17 -1.510087E+06 -2.671553E+05 -6.585626E+04 -5.467522E+05  2.374299E-08 -1.192860E-08
       150  18 -1.498300E+06 -2.631667E+05 -6.166246E+04 -5.375754E+05 -8.806003E-08  3.368229E-08
       150  19 -1.053868E+06 -9.529668E+04  5.763015E+04 -4.164190E+05  3.988130E+03  1.722172E+03
       150  20 -1.065638E+06 -9.894525E+04  5.682151E+04 -4.257287E+05  2.157176E+03  1.320892E+03
       150  21 -1.055867E+06 -9.443660E+04  6.072304E+04 -4.157930E+05  5.286492E+02  3.820981E+02
       150  22 -1.277134E+06 -1.791518E+05 -3.862876E+03 -4.765614E+05  3.998585E+03  1.726071E+03
       150  23 -1.287886E+06 -1.830517E+05 -4.515096E+03 -4.862502E+05  2.156158E+03  1.320521E+03
       150  24 -1.277107E+06 -1.788031E+05 -4.674485E+02 -4.766940E+05  5.161899E+02  3.773692E+02
       150  25 -1.500353E+06 -2.630043E+05 -6.536047E+04 -5.366843E+05  4.009035E+03  1.729969E+03
       150  26 -1.510087E+06 -2.671553E+05 -6.585625E+04 -5.467522E+05  2.155140E+03  1.320151E+03
       150  27 -1.498300E+06 -2.631667E+05 -6.166246E+04 -5.375754E+05  5.037355E+02  3.726421E+02
       151   1 -1.548084E+06 -2.846766E+05 -7.559649E+04 -5.542422E+05 -1.290297E+03 -2.161961E+02
       151   2 -1.573078E+06 -2.866067E+05 -8.051545E+04 -5.603248E+05 -3.435161E+02  5.068639E+02
       151   3 -1.549169E+06 -2.837951E+05 -7.544476E+04 -5.522955E+05  8.521621E+02  5.658304E+02
       151   4 -1.270939E+06 -1.790396E+05  1.065939E+03 -4.780309E+05 -1.276136E+03 -2.108289E+02
       151   5 -1.295451E+06 -1.817478E+05 -3.915390E+03 -4.849648E+05 -3.437637E+02  5.067515E+02
       151   6 -1.271043E+06 -1.796992E+05  1.105852E+03 -4.777851E+05  8.374525E+02  5.603770E+02
       151   7 -9.937204E+05 -7.339806E+04  7.772128E+04 -4.017890E+05 -1.261968E+03 -2.054590E+02
       151   8 -1.017750E+06 -7.688462E+04  7.267757E+04 -4.095746E+05 -3.440114E+02  5.066389E+02
       151   9 -9.928428E+05 -7.559935E+04  7.764936E+04 -4.032449E+05  8.227357E+02  5.549209E+02
       151  10 -1.548084E+06 -2.846766E+05 -7.559649E+04 -5.542422E+05 -3.016474E-06 -2.459182E-06
       151  11 -1.573078E+06 -2.866067E+05 -8.051545E+04 -5.603248E+05 -1.490302E-05 -1.060636E-05
       151  12 -1.549169E+06 -2.837951E+05 -7.544476E+04 -5.522955E+05 -2.743241E-05 -1.835065E-05
       151  13 -1.270939E+06 -1.790396E+05  1.065935E+03 -4.780309E+05 -1.003128E-05 -2.502887E-06
       151  14 -1.295451E+06 -1.817478E+05 -3.915391E+03 -4.849648E+05 -4.459276E-05 -1.097884E-05
       151  15 -1.271043E+06 -1.796992E+05  1.105850E+03 -4.777851E+05 -7.929768E-05 -1.929474E-05
       151  16 -9.937204E+05 -7.339806E+04  7.772127E+04 -4.017890E+05 -3.965879E-06 -2.301028E-06
       151  17 -1.017750E+06 -7.688462E+04  7.267757E+04 -4.095746E+05 -1.624690E-05 -1.025590E-05
       151  18 -9.928428E+05 -7.559936E+04  7.764935E+04 -4.032449E+05 -2.814917E-05 -1.829622E-05
       151  19 -1.548084E+06 -2.846766E+05 -7.559648E+04 -5.542422E+05  1.290297E+03  2.161961E+02
       151  20 -1.573078E+06 -2.866067E+05 -8.051545E+04 -5.603248E+05  3.435161E+02 -5.068640E+02
       151  21 -1.549169E+06 -2.837951E+05 -7.544476E+04 -5.522955E+05 -8.521621E+02 -5.658304E+02
       151  22 -1.270939E+06 -1.790396E+05  1.065939E+03 -4.780309E+05  1.276136E+03  2.108289E+02
       151  23 -1.295451E+06 -1.817478E+05 -3.915390E+03 -4.849648E+05  3.437636E+02 -5.067515E+02
       151  24 -1.271043E+06 -1.796992E+05  1.105852E+03 -4.777851E+05 -8.374526E+02 -5.603770E+02
       151  25 -9.937204E+05 -7.339806E+04  7.772128E+04 -4.017890E+05  1.261968E+03  2.054590E+02
       151  26 -1.017750E+06 -7.688463E+04  7.267757E+04 -4.095746E+05  3.440113E+02 -5.066390E+02
       151  27 -9.928429E+05 -7.559936E+04  7.764935E+04 -4.032449E+05 -8.227357E+02 -5.549209E+02
       152   1 -9.892308E+05 -7.387364E+04  7.853409E+04 -4.021886E+05  1.437224E+02 -2.028229E+02
       152   2 -1.014418E+06 -7.564738E+04  7.252824E+04 -4.089516E+05  1.849693E+03  5.006686E+01
       152   3 -9.903832E+05 -7.267849E+04  7.620393E+04 -4.003207E+05  3.302015E+03  9.797087E+02
       152   4 -1.270919E+06 -1.792764E+05  1.031482E+03 -4.776614E+05  1.286309E+02 -2.084180E+02
       152   5 -1.295543E+06 -1.818205E+05 -5.012469E+03 -4.852890E+05  1.849119E+03  4.983157E+01
       152   6 -1.270963E+06 -1.796369E+05 -1.388091E+03 -4.775238E+05  3.315906E+03  9.849746E+02
       152   7 -1.552532E+06 -2.846752E+05 -7.647840E+04 -5.531034E+05  1.135471E+02 -2.140103E+02
       152   8 -1.576593E+06 -2.879893E+05 -8.256047E+04 -5.615954E+05  1.848546E+03  4.959632E+01
       152   9 -1.551468E+06 -2.865908E+05 -7.898743E+04 -5.546954E+05  3.329789E+03  9.902376E+02
       152  10 -9.892308E+05 -7.387363E+04  7.853409E+04 -4.021887E+05 -2.814987E-05 -1.829597E-05
       152  11 -1.014418E+06 -7.564738E+04  7.252823E+04 -4.089516E+05 -1.624607E-05 -1.025477E-05
       152  12 -9.903832E+05 -7.267850E+04  7.620391E+04 -4.003207E+05 -3.961213E-06 -2.305793E-06
       152  13 -1.270919E+06 -1.792764E+05  1.031482E+03 -4.776614E+05 -7.929279E-05 -1.929378E-05
       152  14 -1.295543E+06 -1.818205E+05 -5.012476E+03 -4.852890E+05 -4.459636E-05 -1.097987E-05
       152  15 -1.270963E+06 -1.796370E+05 -1.388114E+03 -4.775238E+05 -1.003483E-05 -2.509364E-06
       152  16 -1.552532E+06 -2.846752E+05 -7.647840E+04 -5.531034E+05 -2.743555E-05 -1.834863E-05
       152  17 -1.576593E+06 -2.879893E+05 -8.256047E+04 -5.615954E+05 -1.490307E-05 -1.060555E-05
       152  18 -1.551468E+06 -2.865908E+05 -7.898745E+04 -5.546954E+05 -3.017750E-06 -2.450420E-06
       152  19 -9.892308E+05 -7.387363E+04  7.853410E+04 -4.021887E+05 -1.437224E+02  2.028229E+02
       152  20 -1.014418E+06 -7.564738E+04  7.252824E+04 -4.089516E+05 -1.849693E+03 -5.006688E+01
       152  21 -9.903832E+05 -7.267849E+04  7.620393E+04 -4.003207E+05 -3.302015E+03 -9.797087E+02
       152  22 -1.270919E+06 -1.792764E+05  1.031482E+03 -4.776614E+05 -1.286311E+02  2.084180E+02
       152  23 -1.295543E+06 -1.818205E+05 -5.012469E+03 -4.852890E+05 -1.849119E+03 -4.983159E+01
       152  24 -1.270963E+06 -1.796369E+05 -1.388091E+03 -4.775238E+05 -3.315906E+03 -9.849746E+02
       152  25 -1.552532E+06 -2.846752E+05 -7.647840E+04 -5.531034E+05 -1.135472E+02  2.140103E+02
       152  26 -1.576593E+06 -2.879893E+05 -8.256047E+04 -5.615954E+05 -1.848546E+03 -4.959634E+01
       152  27 -1.551468E+06 -2.865908E+05 -7.898743E+04 -5.546954E+05 -3.329789E+03 -9.902376E+02
       153   1 -1.507867E+06 -2.668597E+05 -6.751216E+04 -5.405106E+05  2.968322E+03  1.320890E+03
       153   2 -1.520419E+06 -2.698116E+05 -7.449247E+04 -5.497779E+05  7.627061E+03  3.400622E+03
       153   3 -1.510609E+06 -2.710319E+05 -8.004403E+04 -5.377317E+05  1.250519E+04  4.897739E+03
       153   4 -1.276698E+06 -1.786377E+05 -3.546258E+03 -4.768294E+05  2.981776E+03  1.325999E+03
       153   5 -1.288216E+06 -1.819465E+05 -1.039449E+04 -4.865779E+05  7.629188E+03  3.401408E+03
       153   6 -1.277359E+06 -1.835127E+05 -1.580252E+04 -4.750131E+05  1.249596E+04  4.894294E+03
       153   7 -1.045479E+06 -9.041246E+04  6.041468E+04 -4.131268E+05  2.995236E+03  1.331109E+03
       153   8 -1.055962E+06 -9.407837E+04  5.369851E+04 -4.233566E+05  7.631316E+03  3.402194E+03
       153   9 -1.044057E+06 -9.599079E+04  4.843401E+04 -4.122733E+05  1.248673E+04  4.890848E+03
       153  10 -1.507867E+06 -2.668597E+05 -6.751218E+04 -5.405106E+05 -8.806558E-08  3.818871E-08
       153  11 -1.520419E+06 -2.698117E+05 -7.449260E+04 -5.497779E+05  1.980221E-08 -9.874295E-09
       153  12 -1.510609E+06 -2.710319E+05 -8.004437E+04 -5.377318E+05  3.520521E-09  1.785128E-09
       153  13 -1.276699E+06 -1.786377E+05 -3.546278E+03 -4.768294E+05 -2.285141E-09  6.795617E-10
       153  14 -1.288216E+06 -1.819465E+05 -1.039462E+04 -4.865779E+05 -6.257677E-10  1.347063E-09
       153  15 -1.277359E+06 -1.835128E+05 -1.580286E+04 -4.750131E+05 -1.690139E-09  9.634561E-09
       153  16 -1.045479E+06 -9.041246E+04  6.041466E+04 -4.131268E+05  8.937451E-08 -3.850701E-08
       153  17 -1.055962E+06 -9.407840E+04  5.369838E+04 -4.233566E+05 -2.127047E-08  6.329552E-09
       153  18 -1.044057E+06 -9.599086E+04  4.843367E+04 -4.122733E+05 -6.095964E-09  4.548906E-09
       153  19 -1.507867E+06 -2.668597E+05 -6.751216E+04 -5.405106E+05 -2.968322E+03 -1.320890E+03
       153  20 -1.520419E+06 -2.698116E+05 -7.449247E+04 -5.497779E+05 -7.627061E+03 -3.400622E+03
       153  21 -1.510609E+06 -2.710319E+05 -8.004403E+04 -5.377317E+05 -1.250519E+04 -4.897739E+03
       153  22 -1.276698E+06 -1.786377E+05 -3.546258E+03 -4.768294E+05 -2.981776E+03 -1.325999E+03
       153  23 -1.288216E+06 -1.819465E+05 -1.039449E+04 -4.865779E+05 -7.629188E+03 -3.401408E+03
       153  24 -1.277359E+06 -1.835127E+05 -1.580252E+04 -4.750131E+05 -1.249596E+04 -4.894294E+03
       153  25 -1.045479E+06 -9.041246E+04  6.041468E+04 -4.131268E+05 -2.995236E+03 -1.331109E+03
       153  26 -1.055962E+06 -9.407837E+04  5.369851E+04 -4.233566E+05 -7.631316E+03 -3.402194E+03
       153  27 -1.044057E+06 -9.599079E+04  4.843401E+04 -4.122733E+05 -1.248673E+04 -4.890848E+03
       154   1 -1.140301E+06 -1.299264E+05  1.700803E+04 -4.463092E+05  1.543480E+04  5.643254E+03
       154   2 -1.140477E+06 -1.146614E+05  2.088935E+03 -4.429411E+05  3.497993E+04  1.276275E+04
       154   3 -1.145538E+06 -1.681386E+05 -4.145315E+04 -4.296990E+05  5.437341E+04  2.028964E+04
       154   4 -1.281065E+06 -1.824195E+05 -2.168964E+04 -4.838342E+05  1.542472E+04  5.639519E+03
       154   5 -1.281449E+06 -1.679612E+05 -3.680899E+04 -4.812781E+05  3.497472E+04  1.276079E+04
       154   6 -1.286727E+06 -2.222563E+05 -8.056084E+04 -4.688472E+05  5.437305E+04  2.028943E+04
       154   7 -1.421810E+06 -2.349117E+05 -6.038911E+04 -5.213515E+05  1.541465E+04  5.635785E+03
       154   8 -1.422402E+06 -2.212598E+05 -7.570874E+04 -5.196074E+05  3.496952E+04  1.275883E+04
       154   9 -1.427896E+06 -2.763727E+05 -1.196704E+05 -5.079872E+05  5.437270E+04  2.028922E+04
       154  10 -1.140302E+06 -1.299265E+05  1.700752E+04 -4.463093E+05 -1.435692E-08  1.425327E-08
       154  11 -1.140478E+06 -1.146619E+05  2.086324E+03 -4.429414E+05  2.296611E-09 -3.904443E-09
       154  12 -1.145541E+06 -1.681398E+05 -4.145949E+04 -4.296999E+05  1.795508E-10  5.427687E-09
       154  13 -1.281065E+06 -1.824196E+05 -2.169015E+04 -4.838342E+05 -2.210916E-09  9.636456E-09
       154  14 -1.281450E+06 -1.679617E+05 -3.681160E+04 -4.812785E+05  2.854741E-09 -3.526016E-09
       154  15 -1.286730E+06 -2.222575E+05 -8.056719E+04 -4.688481E+05  8.784377E-11  3.679899E-09
       154  16 -1.421810E+06 -2.349118E+05 -6.038962E+04 -5.213516E+05  1.542298E-08 -8.829346E-09
       154  17 -1.422404E+06 -2.212603E+05 -7.571135E+04 -5.196077E+05 -2.776077E-09 -3.135740E-09
       154  18 -1.427900E+06 -2.763739E+05 -1.196767E+05 -5.079881E+05 -1.811067E-09  3.551381E-09
       154  19 -1.140301E+06 -1.299264E+05  1.700803E+04 -4.463092E+05 -1.543480E+04 -5.643254E+03
       154  20 -1.140477E+06 -1.146614E+05  2.088935E+03 -4.429411E+05 -3.497993E+04 -1.276275E+04
       154  21 -1.145538E+06 -1.681386E+05 -4.145315E+04 -4.296990E+05 -5.437341E+04 -2.028964E+04
       154  22 -1.281065E+06 -1.824195E+05 -2.168964E+04 -4.838342E+05 -1.542472E+04 -5.639519E+03
       154  23 -1.281449E+06 -1.679612E+05 -3.680899E+04 -4.812781E+05 -3.497472E+04 -1.276079E+04
       154  24 -1.286727E+06 -2.222563E+05 -8.056084E+04 -4.688472E+05 -5.437305E+04 -2.028943E+04
       154  25 -1.421810E+06 -2.349117E+05 -6.038911E+04 -5.213515E+05 -1.541465E+04 -5.635785E+03
       154  26 -1.422402E+06 -2.212598E+05 -7.570874E+04 -5.196074E+05 -3.496952E+04 -1.275883E+04
       154  27 -1.427896E+06 -2.763727E+05 -1.196704E+05 -5.079872E+05 -5.437270E+04 -2.028922E+04
       155   1 -1.328188E+06 -1.847264E+05 -1.050615E+05 -4.979824E+05  6.925725E+04  2.609166E+04
       155   2 -1.266542E+06 -1.256871E+05 -1.608844E+05 -5.025424E+05  1.547092E+05  5.832955E+04
       155   3 -1.371787E+06 -4.437004E+05 -3.865226E+05 -3.944419E+05  2.402249E+05  9.040473E+04
       155   4 -1.306170E+06 -1.742897E+05 -9.856152E+04 -4.898357E+05  6.926143E+04  2.609353E+04
       155   5 -1.241417E+06 -1.172070E+05 -1.541551E+05 -4.967541E+05  1.547132E+05  5.833071E+04
       155   6 -1.343548E+06 -4.371673E+05 -3.795583E+05 -3.910133E+05  2.402291E+05  9.040429E+04
       155   7 -1.284153E+06 -1.638529E+05 -9.206157E+04 -4.816886E+05  6.926560E+04  2.609539E+04
       155   8 -1.216291E+06 -1.087268E+05 -1.474259E+05 -4.909655E+05  1.547172E+05  5.833188E+04
       155   9 -1.315308E+06 -4.306342E+05 -3.725941E+05 -3.875846E+05  2.402333E+05  9.040385E+04
       155  10 -1.328193E+06 -1.847285E+05 -1.050718E+05 -4.979838E+05 -1.042661E-09  3.282392E-09
       155  11 -1.266569E+06 -1.256973E+05 -1.609359E+05 -5.025497E+05  4.378383E-09 -1.120112E-08
       155  12 -1.371852E+06 -4.437247E+05 -3.866467E+05 -3.944594E+05  2.010916E-09 -5.822093E-09
       155  13 -1.306176E+06 -1.742917E+05 -9.857184E+04 -4.898371E+05  3.358738E-09 -2.789281E-09
       155  14 -1.241443E+06 -1.172171E+05 -1.542066E+05 -4.967614E+05 -2.801461E-10 -7.646266E-09
       155  15 -1.343612E+06 -4.371916E+05 -3.796824E+05 -3.910308E+05  1.063791E-09 -5.171970E-09
       155  16 -1.284158E+06 -1.638549E+05 -9.207189E+04 -4.816901E+05  2.994365E-09 -6.551868E-10
       155  17 -1.216317E+06 -1.087370E+05 -1.474774E+05 -4.909728E+05  1.458154E-09 -8.305873E-09
       155  18 -1.315372E+06 -4.306585E+05 -3.727182E+05 -3.876021E+05  2.020998E-09 -5.030780E-09
       155  19 -1.328188E+06 -1.847264E+05 -1.050615E+05 -4.979824E+05 -6.925725E+04 -2.609166E+04
       155  20 -1.266542E+06 -1.256871E+05 -1.608844E+05 -5.025424E+05 -1.547092E+05 -5.832955E+04
       155  21 -1.371787E+06 -4.437004E+05 -3.865226E+05 -3.944419E+05 -2.402249E+05 -9.040473E+04
       155  22 -1.306170E+06 -1.742897E+05 -9.856152E+04 -4.898357E+05 -6.926143E+04 -2.609353E+04
       155  23 -1.241417E+06 -1.172070E+05 -1.541551E+05 -4.967541E+05 -1.547132E+05 -5.833071E+04
       155  24 -1.343548E+06 -4.371673E+05 -3.795583E+05 -3.910133E+05 -2.402291E+05 -9.040429E+04
       155  25 -1.284153E+06 -1.638529E+05 -9.206157E+04 -4.816886E+05 -6.926560E+04 -2.609539E+04
       155  26 -1.216291E+06 -1.087268E+05 -1.474259E+05 -4.909655E+05 -1.547172E+05 -5.833188E+04
       155  27 -1.315308E+06 -4.306342E+05 -3.725941E+05 -3.875846E+05 -2.402333E+05 -9.040385E+04
       156   1  1.221967E+05  1.137687E+06  1.144122E+05 -2.995600E+04  6.519311E+03  5.069744E+04
       156   2  1.101776E+05  1.115152E+06  8.351726E+04 -2.788839E+04  2.270342E+04  2.617057E+04
       156   3  1.033687E+05  1.097118E+06  6.988175E+04 -2.828932E+04  2.907787E+04  1.640247E+03
       156   4  2.359538E+03  6.497470E+05  2.677506E+03 -2.799494E+04  6.549027E+03  5.551454E+02
       156   5  9.165952E+02  6.495231E+05  2.372676E+03 -2.676154E+04  2.272217E+04 -6.276060E+02
       156   6  6.373050E+02  6.497529E+05  3.135795E+03 -2.799619E+04  2.908234E+04 -1.814762E+03
       156   7 -1.174928E+05  1.620329E+05 -1.090634E+05 -2.603539E+04  6.578441E+03 -4.954813E+04
       156   8 -1.083558E+05  1.841075E+05 -7.877688E+04 -2.563552E+04  2.274083E+04 -2.740632E+04
       156   9 -1.021035E+05  2.025888E+05 -6.361395E+04 -2.770324E+04  2.908682E+04 -5.267384E+03
       156  10  1.221959E+05  1.137684E+06  1.144073E+05 -2.995627E+04 -1.905005E-10  6.403959E-08
       156  11  1.101769E+05  1.115152E+06  8.351500E+04 -2.788887E+04 -3.463321E-09 -2.015644E-09
       156  12  1.033678E+05  1.097118E+06  6.988015E+04 -2.828936E+04 -1.003018E-09 -6.905729E-08
       156  13  2.359491E+03  6.497470E+05  2.677424E+03 -2.799494E+04 -7.103363E-10 -5.701109E-10
       156  14  9.160405E+02  6.495230E+05  2.371705E+03 -2.676153E+04  5.739601E-10 -1.320652E-09
       156  15  6.363956E+02  6.497527E+05  3.134199E+03 -2.799615E+04 -1.745362E-09 -1.199395E-10
       156  16 -1.174935E+05  1.620302E+05 -1.090681E+05 -2.603513E+04  3.448612E-10 -6.354346E-08
       156  17 -1.083565E+05  1.841065E+05 -7.877926E+04 -2.563501E+04 -9.406131E-10  4.518394E-10
       156  18 -1.021045E+05  2.025885E+05 -6.361559E+04 -2.770311E+04 -6.371581E-10  6.841345E-08
       156  19  1.221967E+05  1.137687E+06  1.144122E+05 -2.995600E+04 -6.519311E+03 -5.069744E+04
       156  20  1.101776E+05  1.115152E+06  8.351726E+04 -2.788839E+04 -2.270342E+04 -2.617057E+04
       156  21  1.033687E+05  1.097118E+06  6.988175E+04 -2.828932E+04 -2.907787E+04 -1.640247E+03
       156  22  2.359538E+03  6.497470E+05  2.677506E+03 -2.799494E+04 -6.549027E+03 -5.551454E+02
       156  23  9.165952E+02  6.495231E+05  2.372676E+03 -2.676154E+04 -2.272217E+04  6.276060E+02
       156  24  6.373050E+02  6.497529E+05  3.135795E+03 -2.799619E+04 -2.908234E+04  1.814762E+03
       156  25 -1.174928E+05  1.620329E+05 -1.090634E+05 -2.603539E+04 -6.578441E+03  4.954813E+04
       156  26 -1.083558E+05  1.841075E+05 -7.877688E+04 -2.563552E+04 -2.274083E+04  2.740632E+04
       156  27 -1.021035E+05  2.025888E+05 -6.361395E+04 -2.770324E+04 -2.908682E+04  5.267384E+03
       157   1  1.000301E+05  1.084151E+06  6.670563E+04 -2.864875E+04  2.950627E+04  2.891798E+02
       157   2  9.583646E+04  1.063047E+06  6.411875E+04 -2.548234E+04  2.955134E+04 -8.152321E+03
       157   3  9.484833E+04  1.043845E+06  6.782404E+04 -2.556150E+04  2.741989E+04 -1.659544E+04
       157   4  6.993471E+02  6.498772E+05  3.889679E+03 -2.816921E+04  2.951030E+04 -2.391096E+03
       157   5  1.665050E+03  6.493768E+05  6.507374E+03 -2.654490E+04  2.955137E+04 -5.651770E+03
       157   6  4.938897E+03  6.498808E+05  1.182482E+04 -2.816626E+04  2.741521E+04 -8.914298E+03
       157   7 -9.864004E+04  2.157936E+05 -5.892928E+04 -2.768998E+04  2.951432E+04 -5.069578E+03
       157   8 -9.251393E+04  2.358800E+05 -5.110610E+04 -2.760669E+04  2.955140E+04 -3.152808E+03
       157   9 -8.497748E+04  2.560731E+05 -4.417640E+04 -3.076927E+04  2.741047E+04 -1.237812E+03
       157  10  1.000292E+05  1.084151E+06  6.670399E+04 -2.864876E+04 -6.374017E-10 -6.874613E-08
       157  11  9.583550E+04  1.063047E+06  6.411699E+04 -2.548214E+04  1.941923E-09  1.286351E-09
       157  12  9.484745E+04  1.043845E+06  6.782211E+04 -2.556113E+04  1.726753E-09  7.031602E-08
       157  13  6.984102E+02  6.498770E+05  3.888031E+03 -2.816915E+04  1.597778E-09 -8.855943E-10
       157  14  1.664104E+03  6.493766E+05  6.505673E+03 -2.654477E+04  2.174840E-10 -1.770159E-09
       157  15  4.938068E+03  6.498805E+05  1.182326E+04 -2.816606E+04  4.717441E-09 -1.896844E-10
       157  16 -9.864099E+04  2.157933E+05 -5.893097E+04 -2.768986E+04 -9.586950E-10  6.890649E-08
       157  17 -9.251487E+04  2.358797E+05 -5.110776E+04 -2.760661E+04  3.910882E-10 -3.535671E-09
       157  18 -8.497829E+04  2.560729E+05 -4.417782E+04 -3.076924E+04  2.958987E-09 -7.085163E-08
       157  19  1.000301E+05  1.084151E+06  6.670563E+04 -2.864875E+04 -2.950627E+04 -2.891798E+02
       157  20  9.583646E+04  1.063047E+06  6.411875E+04 -2.548234E+04 -2.955134E+04  8.152321E+03
       157  21  9.484833E+04  1.043845E+06  6.782404E+04 -2.556150E+04 -2.741989E+04  1.659544E+04
       157  22  6.993471E+02  6.498772E+05  3.889679E+03 -2.816921E+04 -2.951030E+04  2.391096E+03
       157  23  1.665050E+03  6.493768E+05  6.507374E+03 -2.654490E+04 -2.955137E+04  5.651770E+03
       157  24  4.938897E+03  6.498808E+05  1.182482E+04 -2.816626E+04 -2.741521E+04  8.914298E+03
       157  25 -9.864004E+04  2.157936E+05 -5.892928E+04 -2.768998E+04 -2.951432E+04  5.069578E+03
       157  26 -9.251393E+04  2.358800E+05 -5.110610E+04 -2.760669E+04 -2.955140E+04  3.152808E+03
       157  27 -8.497748E+04  2.560731E+05 -4.417640E+04 -3.076927E+04 -2.741047E+04  1.237812E+03
       158   1  9.419263E+04  1.033240E+06  7.149795E+04 -2.661190E+04  2.566703E+04 -1.923201E+04
       158   2  1.036377E+05  1.008082E+06  9.002088E+04 -7.139957E+03  1.885269E+04 -5.010443E+04
       158   3  1.381090E+05  9.931923E+05  1.348777E+05  8.521947E+03  5.294605E+03 -8.098331E+04
       158   4  6.746772E+03  6.513237E+05  1.579119E+04 -2.829432E+04  2.566142E+04 -1.097393E+04
       158   5  1.945986E+04  6.475746E+05  2.908064E+04 -2.636941E+04  1.883290E+04 -2.579992E+04
       158   6  5.442222E+04  6.513133E+05  5.757486E+04 -2.825428E+04  5.260568E+03 -4.063258E+04
       158   7 -8.070576E+04  2.695545E+05 -3.991778E+04 -2.997562E+04  2.565577E+04 -2.720704E+03
       158   8 -6.472314E+04  2.871975E+05 -3.186137E+04 -4.558731E+04  1.881159E+04 -1.509051E+03
       158   9 -2.926664E+04  3.095491E+05 -1.972860E+04 -6.501007E+04  5.221747E+03 -3.038294E+02
       158  10  9.419182E+04  1.033239E+06  7.149602E+04 -2.661151E+04  3.360995E-09 -4.287484E-09
       158  11  1.036367E+05  1.008079E+06  9.001550E+04 -7.139196E+03 -5.043152E-09 -3.057768E-10
       158  12  1.381072E+05  9.931852E+05  1.348653E+05  8.522292E+03 -9.763257E-11  2.432635E-09
       158  13  6.746032E+03  6.513234E+05  1.578973E+04 -2.829409E+04  2.120925E-09 -7.839877E-10
       158  14  1.945930E+04  6.475738E+05  2.907872E+04 -2.636901E+04 -2.216114E-09 -1.829557E-09
       158  15  5.442175E+04  6.513115E+05  5.757171E+04 -2.825411E+04 -1.204346E-09 -9.820839E-11
       158  16 -8.070647E+04  2.695543E+05 -3.991903E+04 -2.997556E+04  5.908075E-10  4.742700E-09
       158  17 -6.472352E+04  2.871974E+05 -3.186203E+04 -4.558729E+04  5.177836E-10 -2.032078E-09
       158  18 -2.926666E+04  3.095491E+05 -1.972865E+04 -6.501007E+04  2.917503E-10 -3.112766E-09
       158  19  9.419263E+04  1.033240E+06  7.149795E+04 -2.661190E+04 -2.566703E+04  1.923201E+04
       158  20  1.036377E+05  1.008082E+06  9.002088E+04 -7.139957E+03 -1.885269E+04  5.010443E+04
       158  21  1.381090E+05  9.931923E+05  1.348777E+05  8.521947E+03 -5.294605E+03  8.098331E+04
       158  22  6.746772E+03  6.513237E+05  1.579119E+04 -2.829432E+04 -2.566142E+04  1.097393E+04
       158  23  1.945986E+04  6.475746E+05  2.908064E+04 -2.636941E+04 -1.883290E+04  2.579992E+04
       158  24  5.442222E+04  6.513133E+05  5.757486E+04 -2.825428E+04 -5.260568E+03  4.063258E+04
       158  25 -8.070576E+04  2.695545E+05 -3.991778E+04 -2.997562E+04 -2.565577E+04  2.720704E+03
       158  26 -6.472314E+04  2.871975E+05 -3.186137E+04 -4.558731E+04 -1.881159E+04  1.509051E+03
       158  27 -2.926664E+04  3.095491E+05 -1.972860E+04 -6.501007E+04 -5.221747E+03  3.038294E+02
       159   1  2.977592E+06  4.702364E+05  6.224227E+05  1.461627E+03  4.386501E+05  8.402159E+02
       159   2  2.879519E+06 -1.375854E+05  2.543476E+05  8.828734E+03  2.889079E+05  3.860391E+02
       159   3  2.981535E+06 -3.366105E+04  1.620359E+05 -9.927011E+03  1.391558E+05  5.998995E+01
       159   4  3.055700E+06  4.896579E+05  6.418716E+05 -6.691623E+03  4.386816E+05  8.344635E+02
       159   5  2.956013E+06 -1.185272E+05  2.734044E+05  6.807380E+03  2.889259E+05  3.850943E+02
       159   6  3.056393E+06 -1.501020E+04  1.806855E+05 -5.816957E+03  1.391607E+05  6.090743E+01
       159   7  3.133813E+06  5.090791E+05  6.613200E+05 -1.484590E+04  4.387131E+05  8.287110E+02
       159   8  3.032512E+06 -9.946941E+04  2.924608E+05  4.785776E+03  2.889440E+05  3.841495E+02
       159   9  3.131257E+06  3.640288E+03  1.993346E+05 -1.706409E+03  1.391656E+05  6.182488E+01
       159  10  2.977386E+06  4.701851E+05  6.220628E+05  1.461331E+03  2.961536E-10 -8.160556E-09
       159  11  2.879430E+06 -1.376076E+05  2.541915E+05  8.828645E+03 -3.882948E-11 -7.325001E-09
       159  12  2.981514E+06 -3.366622E+04  1.619997E+05 -9.927018E+03 -3.418579E-09  4.077861E-08
       159  13  3.055494E+06  4.896065E+05  6.415117E+05 -6.691918E+03 -4.597248E-11 -1.660463E-10
       159  14  2.955924E+06 -1.185494E+05  2.732483E+05  6.807291E+03  1.653100E-09  1.533574E-10
       159  15  3.056372E+06 -1.501537E+04  1.806492E+05 -5.816964E+03 -1.094233E-09  1.773840E-09
       159  16  3.133608E+06  5.090278E+05  6.609601E+05 -1.484619E+04 -1.551624E-09  7.196805E-09
       159  17  3.032423E+06 -9.949168E+04  2.923047E+05  4.785687E+03  4.568705E-11  3.748478E-09
       159  18  3.131236E+06  3.635121E+03  1.992984E+05 -1.706416E+03  3.710795E-09 -3.720478E-08
       159  19  2.977592E+06  4.702364E+05  6.224227E+05  1.461627E+03 -4.386501E+05 -8.402159E+02
       159  20  2.879519E+06 -1.375854E+05  2.543476E+05  8.828734E+03 -2.889079E+05 -3.860391E+02
       159  21  2.981535E+06 -3.366105E+04  1.620359E+05 -9.927011E+03 -1.391558E+05 -5.998995E+01
       159  22  3.055700E+06  4.896579E+05  6.418716E+05 -6.691623E+03 -4.386816E+05 -8.344635E+02
       159  23  2.956013E+06 -1.185272E+05  2.734044E+05  6.807380E+03 -2.889259E+05 -3.850943E+02
       159  24  3.056393E+06 -1.501020E+04  1.806855E+05 -5.816957E+03 -1.391607E+05 -6.090743E+01
       159  25  3.133813E+06  5.090791E+05  6.613200E+05 -1.484590E+04 -4.387131E+05 -8.287110E+02
       159  26  3.032512E+06 -9.946941E+04  2.924608E+05  4.785776E+03 -2.889440E+05 -3.841495E+02
       159  27  3.131257E+06  3.640288E+03  1.993346E+05 -1.706409E+03 -1.391656E+05 -6.182488E+01
       160   1  3.030413E+06  7.963780E+04  1.524293E+05  1.810821E+03  1.089928E+05 -2.705804E+01
       160   2  3.013853E+06 -1.582728E+04  7.375579E+04 -9.539867E+02  7.160344E+04 -4.108242E+01
       160   3  3.030097E+06  4.200851E+02  4.728339E+04 -1.152742E+02  3.421463E+04 -1.508053E+01
       160   4  3.019032E+06  7.680327E+04  1.495938E+05  5.717782E+02  1.089904E+05 -2.727419E+01
       160   5  3.002702E+06 -1.860560E+04  7.097776E+04 -1.243707E+03  7.160252E+04 -4.111571E+01
       160   6  3.019176E+06 -2.301219E+03  4.456239E+04  5.443256E+02  3.421525E+04 -1.504444E+01
       160   7  3.007651E+06  7.396873E+04  1.467584E+05 -6.672415E+02  1.089879E+05 -2.749034E+01
       160   8  2.991551E+06 -2.138393E+04  6.819973E+04 -1.533423E+03  7.160159E+04 -4.114901E+01
       160   9  3.008255E+06 -5.022531E+03  4.184138E+04  1.203914E+03  3.421587E+04 -1.500835E+01
       160  10  3.030400E+06  7.963463E+04  1.524071E+05  1.810824E+03  1.653118E-06  1.402784E-07
       160  11  3.013847E+06 -1.582865E+04  7.374620E+04 -9.539807E+02  7.381024E-06  3.247914E-07
       160  12  3.030096E+06  4.197721E+02  4.728120E+04 -1.152675E+02  1.312329E-05  3.990335E-07
       160  13  3.019019E+06  7.680010E+04  1.495716E+05  5.717806E+02  4.174400E-06 -4.727069E-08
       160  14  3.002696E+06 -1.860697E+04  7.096818E+04 -1.243705E+03  1.851023E-05 -2.092971E-07
       160  15  3.019175E+06 -2.301532E+03  4.456020E+04  5.443260E+02  3.284854E-05 -3.672855E-07
       160  16  3.007639E+06  7.396556E+04  1.467362E+05 -6.672399E+02  1.684675E-06 -6.500384E-08
       160  17  2.991545E+06 -2.138530E+04  6.819014E+04 -1.533424E+03  7.426669E-06 -7.006573E-09
       160  18  3.008253E+06 -5.022843E+03  4.183919E+04  1.203908E+03  1.315649E-05  1.975705E-07
       160  19  3.030413E+06  7.963780E+04  1.524293E+05  1.810822E+03 -1.089928E+05  2.705804E+01
       160  20  3.013853E+06 -1.582729E+04  7.375579E+04 -9.539796E+02 -7.160344E+04  4.108242E+01
       160  21  3.030097E+06  4.200839E+02  4.728339E+04 -1.152616E+02 -3.421463E+04  1.508053E+01
       160  22  3.019032E+06  7.680327E+04  1.495938E+05  5.717782E+02 -1.089904E+05  2.727419E+01
       160  23  3.002702E+06 -1.860560E+04  7.097776E+04 -1.243707E+03 -7.160252E+04  4.111571E+01
       160  24  3.019176E+06 -2.301219E+03  4.456239E+04  5.443256E+02 -3.421525E+04  1.504444E+01
       160  25  3.007651E+06  7.396873E+04  1.467584E+05 -6.672431E+02 -1.089879E+05  2.749034E+01
       160  26  2.991551E+06 -2.138393E+04  6.819973E+04 -1.533430E+03 -7.160159E+04  4.114901E+01
       160  27  3.008255E+06 -5.022530E+03  4.184138E+04  1.203901E+03 -3.421587E+04  1.500835E+01
       161   1  3.011426E+06  1.158431E+04  3.545744E+04 -1.826043E+02  2.688600E+04  5.249960E-01
       161   2  3.008660E+06 -3.339907E+03  1.813964E+04 -6.603402E+01  1.735271E+04  1.921049E+00
       161   3  3.011522E+06 -6.772737E+02  1.140322E+04 -4.710070E+02  7.819628E+03  1.019374E+00
       161   4  3.013108E+06  1.200341E+04  3.587651E+04 -3.640696E+02  2.688610E+04  5.171707E-01
       161   5  3.010308E+06 -2.929163E+03  1.855034E+04 -1.035644E+02  1.735273E+04  1.920005E+00
       161   6  3.013137E+06 -2.749011E+02  1.180558E+04 -3.646041E+02  7.819574E+03  1.020712E+00
       161   7  3.014790E+06  1.242251E+04  3.629557E+04 -5.455355E+02  2.688620E+04  5.093469E-01
       161   8  3.011957E+06 -2.518418E+03  1.896104E+04 -1.410949E+02  1.735275E+04  1.918962E+00
       161   9  3.014752E+06  1.274713E+02  1.220795E+04 -2.582008E+02  7.819519E+03  1.022053E+00
       161  10  3.011425E+06  1.158411E+04  3.545609E+04 -1.825972E+02  1.491172E-05  3.850374E-07
       161  11  3.008660E+06 -3.339988E+03  1.813908E+04 -6.602671E+01  1.528037E-05  3.697370E-07
       161  12  3.011522E+06 -6.772907E+02  1.140310E+04 -4.709995E+02  1.565653E-05  3.107061E-07
       161  13  3.013107E+06  1.200322E+04  3.587516E+04 -3.640697E+02  3.728872E-05 -4.201662E-07
       161  14  3.010308E+06 -2.929243E+03  1.854978E+04 -1.035644E+02  3.821213E-05 -4.396307E-07
       161  15  3.013137E+06 -2.749174E+02  1.180547E+04 -3.646041E+02  3.913307E-05 -4.558661E-07
       161  16  3.014789E+06  1.242232E+04  3.629422E+04 -5.455426E+02  1.492056E-05  2.865006E-07
       161  17  3.011957E+06 -2.518498E+03  1.896048E+04 -1.411022E+02  1.528652E-05  3.297098E-07
       161  18  3.014752E+06  1.274557E+02  1.220784E+04 -2.582083E+02  1.564923E-05  4.001157E-07
       161  19  3.011426E+06  1.158430E+04  3.545744E+04 -1.825900E+02 -2.688600E+04 -5.249956E-01
       161  20  3.008660E+06 -3.339909E+03  1.813964E+04 -6.601935E+01 -1.735270E+04 -1.921049E+00
       161  21  3.011522E+06 -6.772750E+02  1.140322E+04 -4.709920E+02 -7.819628E+03 -1.019373E+00
       161  22  3.013108E+06  1.200341E+04  3.587651E+04 -3.640696E+02 -2.688610E+04 -5.171716E-01
       161  23  3.010308E+06 -2.929163E+03  1.855034E+04 -1.035644E+02 -1.735273E+04 -1.920006E+00
       161  24  3.013137E+06 -2.749011E+02  1.180558E+04 -3.646041E+02 -7.819574E+03 -1.020713E+00
       161  25  3.014790E+06  1.242252E+04  3.629557E+04 -5.455498E+02 -2.688620E+04 -5.093460E-01
       161  26  3.011957E+06 -2.518417E+03  1.896104E+04 -1.411095E+02 -1.735275E+04 -1.918961E+00
       161  27  3.014752E+06  1.274727E+02  1.220795E+04 -2.582158E+02 -7.819519E+03 -1.022052E+00
       162   1  3.012458E+06  1.923439E+03  9.795935E+03 -2.050705E+02  5.860446E+03 -2.415303E-01
       162   2  3.011817E+06 -4.972035E+02  6.553116E+03 -2.623248E+02  2.585644E+03 -8.751075E-01
       162   3  3.012454E+06  4.975994E+02  6.288549E+03 -2.566672E+02 -6.892014E+02 -2.824972E-01
       162   4  3.012166E+06  1.850766E+03  9.723254E+03 -2.344128E+02  5.860408E+03 -2.418033E-01
       162   5  3.011530E+06 -5.688764E+02  6.481451E+03 -2.659336E+02  2.585636E+03 -8.751221E-01
       162   6  3.012170E+06  4.269219E+02  6.217880E+03 -2.345422E+02 -6.891785E+02 -2.825234E-01
       162   7  3.011875E+06  1.778094E+03  9.650573E+03 -2.637551E+02  5.860369E+03 -2.420749E-01
       162   8  3.011242E+06 -6.405492E+02  6.409786E+03 -2.695425E+02  2.585628E+03 -8.751359E-01
       162   9  3.011887E+06  3.562444E+02  6.147210E+03 -2.124171E+02 -6.891557E+02 -2.825494E-01
       162  10  3.012458E+06  1.923429E+03  9.795871E+03 -2.050638E+02  1.397396E-05  2.270337E-07
       162  11  3.011817E+06 -4.972056E+02  6.553103E+03 -2.623211E+02  7.782996E-06  1.464012E-08
       162  12  3.012454E+06  4.975993E+02  6.288549E+03 -2.566665E+02  1.582281E-06 -1.228776E-07
       162  13  3.012166E+06  1.850757E+03  9.723190E+03 -2.344128E+02  3.489122E-05 -4.081715E-07
       162  14  3.011530E+06 -5.688781E+02  6.481438E+03 -2.659336E+02  1.939554E-05 -2.275543E-07
       162  15  3.012170E+06  4.269218E+02  6.217879E+03 -2.345422E+02  3.896432E-06 -4.382246E-08
       162  16  3.011875E+06  1.778085E+03  9.650509E+03 -2.637618E+02  1.393991E-05  4.154468E-07
       162  17  3.011242E+06 -6.405506E+02  6.409773E+03 -2.695462E+02  7.733089E-06  3.504680E-07
       162  18  3.011887E+06  3.562444E+02  6.147210E+03 -2.124179E+02  1.534483E-06  2.018866E-07
       162  19  3.012458E+06  1.923438E+03  9.795935E+03 -2.050571E+02 -5.860446E+03  2.415307E-01
       162  20  3.011817E+06 -4.972041E+02  6.553116E+03 -2.623174E+02 -2.585644E+03  8.751075E-01
       162  21  3.012454E+06  4.975994E+02  6.288549E+03 -2.566657E+02  6.892014E+02  2.824969E-01
       162  22  3.012166E+06  1.850766E+03  9.723254E+03 -2.344128E+02 -5.860407E+03  2.418025E-01
       162  23  3.011530E+06 -5.688763E+02  6.481451E+03 -2.659336E+02 -2.585636E+03  8.751217E-01
       162  24  3.012170E+06  4.269219E+02  6.217880E+03 -2.345422E+02  6.891786E+02  2.825233E-01
       162  25  3.011875E+06  1.778095E+03  9.650573E+03 -2.637685E+02 -5.860369E+03  2.420759E-01
       162  26  3.011242E+06 -6.405484E+02  6.409786E+03 -2.695499E+02 -2.585628E+03  8.751367E-01
       162  27  3.011887E+06  3.562446E+02  6.147210E+03 -2.124186E+02  6.891557E+02  2.825499E-01
       163   1  3.011951E+06  1.172421E+02  6.542971E+03 -1.973719E+02 -1.857345E+03  5.512258E-01
       163   2  3.011034E+06 -9.123034E+02  8.694669E+03 -2.788173E+02 -6.300580E+03  1.338612E+00
       163   3  3.011931E+06  3.020249E+03  1.496927E+04 -2.728642E+02 -1.074383E+04  5.897415E-01
       163   4  3.012290E+06  2.016755E+02  6.627394E+03 -2.291509E+02 -1.857317E+03  5.513184E-01
       163   5  3.011378E+06 -8.264857E+02  8.780477E+03 -2.727180E+02 -6.300592E+03  1.338552E+00
       163   6  3.012281E+06  3.107456E+03  1.505649E+04 -2.288867E+02 -1.074388E+04  5.889895E-01
       163   7  3.012629E+06  2.861088E+02  6.711817E+03 -2.609298E+02 -1.857289E+03  5.514107E-01
       163   8  3.011722E+06 -7.406680E+02  8.866286E+03 -2.666187E+02 -6.300603E+03  1.338490E+00
       163   9  3.012631E+06  3.194663E+03  1.514371E+04 -1.849091E+02 -1.074393E+04  5.882351E-01
       163  10  3.011951E+06  1.172414E+02  6.542964E+03 -1.973732E+02 -2.695852E-06 -2.609101E-07
       163  11  3.011034E+06 -9.123134E+02  8.694595E+03 -2.788227E+02 -1.122047E-05 -5.271053E-07
       163  12  3.011931E+06  3.020219E+03  1.496906E+04 -2.728737E+02 -1.976053E-05 -6.394999E-07
       163  13  3.012290E+06  2.016746E+02  6.627387E+03 -2.291509E+02 -6.817063E-06  8.774553E-08
       163  14  3.011378E+06 -8.264962E+02  8.780403E+03 -2.727180E+02 -2.814508E-05  3.646484E-07
       163  15  3.012281E+06  3.107425E+03  1.505628E+04 -2.288867E+02 -4.946831E-05  6.414725E-07
       163  16  3.012629E+06  2.861079E+02  6.711810E+03 -2.609285E+02 -2.760289E-06  1.210864E-07
       163  17  3.011722E+06 -7.406790E+02  8.866212E+03 -2.666133E+02 -1.129406E-05 -4.887745E-08
       163  18  3.012631E+06  3.194632E+03  1.514350E+04 -1.848996E+02 -1.981391E-05 -3.640341E-07
       163  19  3.011951E+06  1.172425E+02  6.542971E+03 -1.973745E+02  1.857345E+03 -5.512263E-01
       163  20  3.011034E+06 -9.123022E+02  8.694669E+03 -2.788281E+02  6.300580E+03 -1.338613E+00
       163  21  3.011931E+06  3.020251E+03  1.496927E+04 -2.728832E+02  1.074383E+04 -5.897430E-01
       163  22  3.012290E+06  2.016755E+02  6.627394E+03 -2.291509E+02  1.857317E+03 -5.513182E-01
       163  23  3.011378E+06 -8.264856E+02  8.780477E+03 -2.727180E+02  6.300591E+03 -1.338551E+00
       163  24  3.012281E+06  3.107456E+03  1.505649E+04 -2.288867E+02  1.074388E+04 -5.889882E-01
       163  25  3.012629E+06  2.861087E+02  6.711817E+03 -2.609272E+02  1.857289E+03 -5.514104E-01
       163  26  3.011722E+06 -7.406689E+02  8.866286E+03 -2.666079E+02  6.300603E+03 -1.338490E+00
       163  27  3.012631E+06  3.194662E+03  1.514371E+04 -1.848902E+02  1.074393E+04 -5.882356E-01
       164   1  3.016019E+06 -2.419593E+01  1.933125E+04 -2.193027E+02 -1.382656E+04 -9.836163E-01
       164   2  3.011361E+06 -4.357331E+03  3.103437E+04 -1.257754E+02 -2.951426E+04 -2.126792E+00
       164   3  3.016055E+06  2.061119E+04  6.024111E+04 -6.988564E+02 -4.520194E+04 -6.828852E-01
       164   4  3.013962E+06 -5.365160E+02  1.881893E+04 -3.969285E+02 -1.382662E+04 -9.796699E-01
       164   5  3.009262E+06 -4.880339E+03  3.051142E+04 -6.328252E+01 -2.951421E+04 -2.129747E+00
       164   6  3.013914E+06  2.007753E+04  5.970751E+04 -3.962497E+02 -4.520178E+04 -7.048159E-01
       164   7  3.011906E+06 -1.048836E+03  1.830661E+04 -5.745538E+02 -1.382668E+04 -9.757261E-01
       164   8  3.007163E+06 -5.403347E+03  2.998848E+04 -7.898611E-01 -2.951416E+04 -2.132705E+00
       164   9  3.011772E+06  1.954387E+04  5.917390E+04 -9.364405E+01 -4.520162E+04 -7.267493E-01
       164  10  3.016019E+06 -2.424582E+01  1.933089E+04 -2.193134E+02 -2.234231E-05 -6.401214E-07
       164  11  3.011360E+06 -4.357562E+03  3.103274E+04 -1.257863E+02 -2.262730E-05 -5.964256E-07
       164  12  3.016053E+06  2.061064E+04  6.023729E+04 -6.988674E+02 -2.291451E-05 -5.397261E-07
       164  13  3.013962E+06 -5.365670E+02  1.881857E+04 -3.969286E+02 -5.587602E-05  7.260636E-07
       164  14  3.009261E+06 -4.880571E+03  3.050979E+04 -6.328257E+01 -5.657852E-05  7.350498E-07
       164  15  3.013911E+06  2.007698E+04  5.970368E+04 -3.962497E+02 -5.727631E-05  7.496796E-07
       164  16  3.011906E+06 -1.048888E+03  1.830625E+04 -5.745431E+02 -2.235773E-05 -5.037382E-07
       164  17  3.007162E+06 -5.403581E+03  2.998685E+04 -7.790497E-01 -2.263342E-05 -5.802159E-07
       164  18  3.011770E+06  1.954332E+04  5.917008E+04 -9.363308E+01 -2.290753E-05 -6.575109E-07
       164  19  3.016019E+06 -2.419366E+01  1.933125E+04 -2.193241E+02  1.382656E+04  9.836147E-01
       164  20  3.011361E+06 -4.357329E+03  3.103437E+04 -1.257971E+02  2.951426E+04  2.126790E+00
       164  21  3.016055E+06  2.061119E+04  6.024111E+04 -6.988784E+02  4.520194E+04  6.828833E-01
       164  22  3.013962E+06 -5.365160E+02  1.881893E+04 -3.969285E+02  1.382662E+04  9.796714E-01
       164  23  3.009262E+06 -4.880339E+03  3.051142E+04 -6.328252E+01  2.951421E+04  2.129748E+00
       164  24  3.013914E+06  2.007753E+04  5.970751E+04 -3.962497E+02  4.520178E+04  7.048174E-01
       164  25  3.011906E+06 -1.048839E+03  1.830661E+04 -5.745324E+02  1.382668E+04  9.757254E-01
       164  26  3.007163E+06 -5.403349E+03  2.998848E+04 -7.681374E-01  2.951416E+04  2.132704E+00
       164  27  3.011772E+06  1.954386E+04  5.917390E+04 -9.362205E+01  4.520162E+04  7.267488E-01
       165   1  3.010129E+06 -7.334657E+03  7.083311E+04  1.869374E+03 -5.741438E+04  2.001133E+01
       165   2  2.982289E+06 -3.466283E+04  1.150507E+05 -2.010026E+03 -1.198778E+05  6.315939E+01
       165   3  3.009303E+06  1.248382E+05  2.465357E+05 -1.250520E+03 -1.823438E+05  6.427783E+01
       165   4  3.024073E+06 -3.859997E+03  7.430730E+04  7.664052E+02 -5.741384E+04  2.011273E+01
       165   5  2.996529E+06 -3.111500E+04  1.185981E+05 -1.525255E+03 -1.198796E+05  6.306609E+01
       165   6  3.023838E+06  1.284573E+05  2.501566E+05  8.220192E+02 -1.823478E+05  6.367229E+01
       165   7  3.038018E+06 -3.853465E+02  7.778148E+04 -3.365883E+02 -5.741331E+04  2.021413E+01
       165   8  3.010769E+06 -2.756719E+04  1.221455E+05 -1.040473E+03 -1.198813E+05  6.297278E+01
       165   9  3.038372E+06  1.320764E+05  2.537774E+05  2.894607E+03 -1.823518E+05  6.306674E+01
       165  10  3.010125E+06 -7.335535E+03  7.082694E+04  1.869365E+03 -2.043143E-05 -3.852017E-07
       165  11  2.982274E+06 -3.466666E+04  1.150238E+05 -2.010025E+03 -1.153879E-05 -3.432908E-08
       165  12  3.009268E+06  1.248294E+05  2.464735E+05 -1.250512E+03 -2.620978E-06  9.270398E-08
       165  13  3.024070E+06 -3.860876E+03  7.430114E+04  7.664061E+02 -5.100422E-05  6.718785E-07
       165  14  2.996514E+06 -3.111884E+04  1.185712E+05 -1.525249E+03 -2.874125E-05  3.823568E-07
       165  15  3.023802E+06  1.284484E+05  2.500944E+05  8.220285E+02 -6.478843E-06  8.768168E-08
       165  16  3.038014E+06 -3.862272E+02  7.777532E+04 -3.365775E+02 -2.037330E-05 -6.798149E-07
       165  17  3.010753E+06 -2.757103E+04  1.221187E+05 -1.040461E+03 -1.145593E-05 -5.527444E-07
       165  18  3.038336E+06  1.320675E+05  2.537152E+05  2.894618E+03 -2.563000E-06 -2.233756E-07
       165  19  3.010129E+06 -7.334655E+03  7.083311E+04  1.869354E+03  5.741438E+04 -2.001133E+01
       165  20  2.982289E+06 -3.466283E+04  1.150507E+05 -2.010037E+03  1.198778E+05 -6.315939E+01
       165  21  3.009303E+06  1.248382E+05  2.465357E+05 -1.250523E+03  1.823438E+05 -6.427783E+01
       165  22  3.024073E+06 -3.859997E+03  7.430730E+04  7.664052E+02  5.741384E+04 -2.011273E+01
       165  23  2.996529E+06 -3.111500E+04  1.185981E+05 -1.525255E+03  1.198796E+05 -6.306609E+01
       165  24  3.023838E+06  1.284573E+05  2.501566E+05  8.220192E+02  1.823478E+05 -6.367229E+01
       165  25  3.038018E+06 -3.853487E+02  7.778148E+04 -3.365687E+02  5.741331E+04 -2.021413E+01
       165  26  3.010769E+06 -2.756720E+04  1.221455E+05 -1.040462E+03  1.198813E+05 -6.297278E+01
       165  27  3.038372E+06  1.320764E+05  2.537774E+05  2.894610E+03  1.823518E+05 -6.306674E+01
       166   1  3.182646E+06 -1.106913E+03  3.261932E+05 -6.637465E+02 -2.328320E+05 -7.087507E+01
       166   2  3.016980E+06 -1.736884E+05  4.820028E+05  5.698934E+03 -4.833043E+05 -7.140381E+02
       166   3  3.185865E+06  8.439284E+05  1.099029E+06 -2.308361E+04 -7.337567E+05 -1.752324E+03
       166   4  3.086325E+06 -2.510141E+04  3.022012E+05 -7.540728E+03 -2.328185E+05 -6.830749E+01
       166   5  2.918488E+06 -1.982228E+05  4.574697E+05  9.078077E+03 -4.832658E+05 -7.166791E+02
       166   6  3.085247E+06  8.189489E+05  1.073990E+06 -9.446436E+03 -7.336924E+05 -1.768422E+03
       166   7  2.990013E+06 -4.909643E+04  2.782085E+05 -1.441665E+04 -2.328050E+05 -6.573986E+01
       166   8  2.820004E+06 -2.227579E+05  4.329359E+05  1.245668E+04 -4.832273E+05 -7.193201E+02
       166   9  2.984640E+06  7.939693E+05  1.048950E+06  4.188533E+03 -7.336280E+05 -1.784519E+03
       166  10  3.182588E+06 -1.121371E+03  3.260918E+05 -6.637598E+02 -4.417102E-09  5.283204E-08
       166  11  3.016730E+06 -1.737507E+05  4.815661E+05  5.698657E+03  1.270797E-09 -1.929812E-08
       166  12  3.185289E+06  8.437848E+05  1.098023E+06 -2.308465E+04 -1.082512E-09 -1.522107E-08
       166  13  3.086267E+06 -2.511587E+04  3.020998E+05 -7.540740E+03  3.333021E-11 -3.357692E-09
       166  14  2.918238E+06 -1.982851E+05  4.570330E+05  9.077800E+03  1.547717E-09 -8.049028E-09
       166  15  3.084672E+06  8.188052E+05  1.072983E+06 -9.447480E+03  2.539652E-10 -3.216636E-09
       166  16  2.989955E+06 -4.911089E+04  2.781071E+05 -1.441666E+04  4.793279E-09 -5.926133E-08
       166  17  2.819755E+06 -2.228202E+05  4.324991E+05  1.245641E+04  2.738262E-09  3.456566E-09
       166  18  2.984064E+06  7.938256E+05  1.047944E+06  4.187482E+03  5.180767E-10  1.234711E-08
       166  19  3.182646E+06 -1.106913E+03  3.261932E+05 -6.637465E+02  2.328320E+05  7.087507E+01
       166  20  3.016980E+06 -1.736884E+05  4.820028E+05  5.698934E+03  4.833043E+05  7.140381E+02
       166  21  3.185865E+06  8.439284E+05  1.099029E+06 -2.308361E+04  7.337567E+05  1.752324E+03
       166  22  3.086325E+06 -2.510141E+04  3.022012E+05 -7.540728E+03  2.328185E+05  6.830749E+01
       166  23  2.918488E+06 -1.982228E+05  4.574697E+05  9.078077E+03  4.832658E+05  7.166791E+02
       166  24  3.085247E+06  8.189489E+05  1.073990E+06 -9.446436E+03  7.336924E+05  1.768422E+03
       166  25  2.990013E+06 -4.909643E+04  2.782085E+05 -1.441665E+04  2.328050E+05  6.573986E+01
       166  26  2.820004E+06 -2.227579E+05  4.329359E+05  1.245668E+04  4.832273E+05  7.193201E+02
       166  27  2.984640E+06  7.939693E+05  1.048950E+06  4.188533E+03  7.336280E+05  1.784519E+03
       167   1  1.164630E+05  6.131502E+05  1.466717E+05 -5.828909E+03 -1.490488E+02  8.563017E+04
       167   2 -4.175801E+03  5.915255E+05  7.407671E+04 -1.138468E+03 -4.038641E+01  5.568633E+04
       167   3  1.724210E+04  6.122253E+05  5.706407E+04 -3.729758E+03 -2.047816E+01  2.574161E+04
       167   4  9.686052E+04  5.347269E+05  1.270783E+05 -4.058369E+03 -1.488014E+02  8.562079E+04
       167   5 -2.365607E+04  5.135722E+05  5.460226E+04 -5.368791E+02 -4.033573E+01  5.568240E+04
       167   6 -2.107677E+03  5.347456E+05  3.770973E+04 -4.297145E+03 -2.051782E+01  2.574309E+04
       167   7  7.725763E+04  4.563093E+05  1.074844E+05 -2.288049E+03 -1.485540E+02  8.561142E+04
       167   8 -4.313680E+04  4.356245E+05  3.512734E+04  6.463921E+01 -4.028505E+01  5.567847E+04
       167   9 -2.145791E+04  4.572714E+05  1.835495E+04 -4.864455E+03 -2.055749E+01  2.574458E+04
       167  10  1.164610E+05  6.131423E+05  1.466580E+05 -5.828899E+03  9.285432E-10  1.099209E-10
       167  11 -4.176632E+03  5.915222E+05  7.407089E+04 -1.138466E+03  1.061728E-09  2.015576E-10
       167  12  1.724192E+04  6.122246E+05  5.706283E+04 -3.729757E+03  4.888255E-10 -1.945112E-10
       167  13  9.685856E+04  5.347191E+05  1.270645E+05 -4.058359E+03  7.875845E-10  1.159996E-11
       167  14 -2.365690E+04  5.135689E+05  5.459643E+04 -5.368773E+02  1.187671E-10  3.159325E-11
       167  15 -2.107855E+03  5.347449E+05  3.770849E+04 -4.297144E+03  3.287294E-11 -7.080390E-11
       167  16  7.725567E+04  4.563014E+05  1.074706E+05 -2.288039E+03 -2.826305E-10  3.924696E-11
       167  17 -4.313763E+04  4.356211E+05  3.512152E+04  6.464102E+01  4.807576E-09 -1.928279E-10
       167  18 -2.145808E+04  4.572707E+05  1.835370E+04 -4.864455E+03 -2.090347E-11  3.273179E-11
       167  19  1.164630E+05  6.131502E+05  1.466717E+05 -5.828909E+03  1.490488E+02 -8.563017E+04
       167  20 -4.175801E+03  5.915255E+05  7.407671E+04 -1.138468E+03  4.038641E+01 -5.568633E+04
       167  21  1.724210E+04  6.122253E+05  5.706407E+04 -3.729758E+03  2.047816E+01 -2.574161E+04
       167  22  9.686052E+04  5.347269E+05  1.270783E+05 -4.058369E+03  1.488014E+02 -8.562079E+04
       167  23 -2.365607E+04  5.135722E+05  5.460226E+04 -5.368791E+02  4.033573E+01 -5.568240E+04
       167  24 -2.107677E+03  5.347456E+05  3.770973E+04 -4.297145E+03  2.051782E+01 -2.574309E+04
       167  25  7.725763E+04  4.563093E+05  1.074844E+05 -2.288049E+03  1.485540E+02 -8.561142E+04
       167  26 -4.313680E+04  4.356245E+05  3.512734E+04  6.463921E+01  4.028505E+01 -5.567847E+04
       167  27 -2.145791E+04  4.572714E+05  1.835495E+04 -4.864455E+03  2.055749E+01 -2.574458E+04
       168   1  1.724430E+04  5.363434E+05  3.423818E+04 -3.009142E+03 -5.490138E+01  1.937858E+04
       168   2 -2.503604E+03  5.320737E+05  2.029492E+04 -2.457168E+03 -3.715735E+01  9.883436E+03
       168   3  6.482494E+03  5.362535E+05  1.971968E+04 -2.571729E+03  8.576986E+00  3.884479E+02
       168   4  1.495999E+04  5.272141E+05  3.195710E+04 -2.694353E+03 -5.489612E+01  1.937935E+04
       168   5 -4.773645E+03  5.229908E+05  1.802555E+04 -2.385543E+03 -3.715778E+01  9.883660E+03
       168   6  4.227044E+03  5.272171E+05  1.746254E+04 -2.743268E+03  8.578462E+00  3.881208E+02
       168   7  1.267567E+04  5.180850E+05  2.967602E+04 -2.379569E+03 -5.489085E+01  1.938012E+04
       168   8 -7.043692E+03  5.139079E+05  1.575618E+04 -2.313919E+03 -3.715822E+01  9.883884E+03
       168   9  1.971588E+03  5.181807E+05  1.520539E+04 -2.914804E+03  8.579938E+00  3.877937E+02
       168  10  1.724420E+04  5.363430E+05  3.423748E+04 -3.009141E+03 -1.880966E-09 -7.829517E-11
       168  11 -2.503631E+03  5.320736E+05  2.029474E+04 -2.457167E+03 -1.236033E-09 -3.432215E-11
       168  12  6.482494E+03  5.362535E+05  1.971968E+04 -2.571729E+03 -5.649328E-10 -9.330360E-11
       168  13  1.495989E+04  5.272137E+05  3.195640E+04 -2.694353E+03 -1.306373E-09 -1.112737E-10
       168  14 -4.773671E+03  5.229907E+05  1.802537E+04 -2.385542E+03  9.667117E-10  7.543318E-11
       168  15  4.227044E+03  5.272171E+05  1.746254E+04 -2.743268E+03 -1.809053E-09  1.697117E-10
       168  16  1.267557E+04  5.180846E+05  2.967531E+04 -2.379568E+03 -1.611891E-09  6.702920E-11
       168  17 -7.043718E+03  5.139078E+05  1.575599E+04 -2.313918E+03 -4.272842E-09  6.705031E-11
       168  18  1.971588E+03  5.181807E+05  1.520539E+04 -2.914804E+03 -8.832434E-10  3.035941E-12
       168  19  1.724430E+04  5.363434E+05  3.423818E+04 -3.009142E+03  5.490138E+01 -1.937858E+04
       168  20 -2.503604E+03  5.320737E+05  2.029492E+04 -2.457168E+03  3.715735E+01 -9.883436E+03
       168  21  6.482494E+03  5.362535E+05  1.971968E+04 -2.571729E+03 -8.576986E+00 -3.884479E+02
       168  22  1.495999E+04  5.272141E+05  3.195710E+04 -2.694353E+03  5.489612E+01 -1.937935E+04
       168  23 -4.773645E+03  5.229908E+05  1.802555E+04 -2.385543E+03  3.715778E+01 -9.883660E+03
       168  24  4.227044E+03  5.272171E+05  1.746254E+04 -2.743268E+03 -8.578462E+00 -3.881208E+02
       168  25  1.267567E+04  5.180850E+05  2.967602E+04 -2.379569E+03  5.489085E+01 -1.938012E+04
       168  26 -7.043692E+03  5.139079E+05  1.575618E+04 -2.313919E+03  3.715822E+01 -9.883884E+03
       168  27  1.971588E+03  5.181807E+05  1.520539E+04 -2.914804E+03 -8.579938E+00 -3.877937E+02
       169   1  2.878993E+03  5.339430E+05  1.894677E+04 -2.816303E+03  2.812945E+01 -2.796280E+03
       169   2 -6.311269E+03  5.274514E+05  2.085336E+04 -2.611536E+03  7.598588E+01 -1.334800E+04
       169   3  3.107084E+04  5.339953E+05  4.127308E+04 -1.868085E+03  1.235382E+02 -2.389954E+04
       169   4  1.449630E+03  5.282365E+05  1.752050E+04 -2.510977E+03  2.812762E+01 -2.796167E+03
       169   5 -7.742579E+03  5.217174E+05  1.942110E+04 -2.708728E+03  7.598740E+01 -1.334780E+04
       169   6  2.963780E+04  5.282338E+05  3.983489E+04 -2.367793E+03  1.235568E+02 -2.389924E+04
       169   7  2.026362E+01  5.225301E+05  1.609423E+04 -2.205654E+03  2.812579E+01 -2.796053E+03
       169   8 -9.173891E+03  5.159834E+05  1.798884E+04 -2.805920E+03  7.598893E+01 -1.334759E+04
       169   9  2.820475E+04  5.224723E+05  3.839670E+04 -2.867496E+03  1.235753E+02 -2.389894E+04
       169  10  2.878991E+03  5.339430E+05  1.894676E+04 -2.816303E+03 -7.180076E-10  4.950173E-11
       169  11 -6.311317E+03  5.274513E+05  2.085303E+04 -2.611535E+03  2.296077E-09  1.198791E-10
       169  12  3.107069E+04  5.339947E+05  4.127201E+04 -1.868083E+03  1.112155E-10  9.193954E-12
       169  13  1.449627E+03  5.282365E+05  1.752049E+04 -2.510977E+03  1.099322E-09 -1.686863E-11
       169  14 -7.742627E+03  5.217172E+05  1.942077E+04 -2.708727E+03  9.009447E-10 -2.377304E-11
       169  15  2.963764E+04  5.282332E+05  3.983382E+04 -2.367791E+03  1.011889E-09  3.214137E-11
       169  16  2.026153E+01  5.225300E+05  1.609421E+04 -2.205653E+03 -2.332788E-09  1.132555E-10
       169  17 -9.173939E+03  5.159832E+05  1.798851E+04 -2.805919E+03  3.709395E-09 -9.688957E-11
       169  18  2.820460E+04  5.224716E+05  3.839563E+04 -2.867494E+03  1.894354E-09 -6.376722E-11
       169  19  2.878993E+03  5.339430E+05  1.894677E+04 -2.816303E+03 -2.812945E+01  2.796280E+03
       169  20 -6.311269E+03  5.274514E+05  2.085336E+04 -2.611536E+03 -7.598588E+01  1.334800E+04
       169  21  3.107084E+04  5.339953E+05  4.127308E+04 -1.868085E+03 -1.235382E+02  2.389954E+04
       169  22  1.449630E+03  5.282365E+05  1.752050E+04 -2.510977E+03 -2.812762E+01  2.796167E+03
       169  23 -7.742579E+03  5.217174E+05  1.942110E+04 -2.708728E+03 -7.598740E+01  1.334780E+04
       169  24  2.963780E+04  5.282338E+05  3.983489E+04 -2.367793E+03 -1.235568E+02  2.389924E+04
       169  25  2.026363E+01  5.225301E+05  1.609423E+04 -2.205654E+03 -2.812579E+01  2.796053E+03
       169  26 -9.173891E+03  5.159834E+05  1.798884E+04 -2.805920E+03 -7.598893E+01  1.334759E+04
       169  27  2.820475E+04  5.224723E+05  3.839670E+04 -2.867496E+03 -1.235753E+02  2.389894E+04
       170   1 -2.971301E+06 -8.623024E+05 -6.614461E+05 -9.268427E+05 -4.071447E+05 -1.534659E+05
       170   2 -2.807039E+06 -3.123182E+05 -2.792718E+05 -1.098335E+06 -2.623354E+05 -9.848888E+04
       170   3 -2.916360E+06 -4.078734E+05 -1.845753E+05 -1.086806E+06 -1.173716E+05 -4.393106E+04
       170   4 -2.913507E+06 -8.333082E+05 -6.440345E+05 -9.038699E+05 -4.071622E+05 -1.534784E+05
       170   5 -2.744601E+06 -2.869069E+05 -2.616521E+05 -1.079547E+06 -2.623498E+05 -9.849524E+04
       170   6 -2.849254E+06 -3.860061E+05 -1.667284E+05 -1.072209E+06 -1.173816E+05 -4.393397E+04
       170   7 -2.855709E+06 -8.043130E+05 -6.266234E+05 -8.808948E+05 -4.071798E+05 -1.534908E+05
       170   8 -2.682159E+06 -2.614953E+05 -2.440327E+05 -1.060756E+06 -2.623642E+05 -9.850160E+04
       170   9 -2.782144E+06 -3.641388E+05 -1.488820E+05 -1.057612E+06 -1.173916E+05 -4.393688E+04
       170  10 -2.971486E+06 -8.623726E+05 -6.618037E+05 -9.268932E+05 -3.483094E-08  1.483678E-08
       170  11 -2.807116E+06 -3.123473E+05 -2.794201E+05 -1.098356E+06 -3.149721E-08  1.199261E-08
       170  12 -2.916375E+06 -4.078792E+05 -1.846050E+05 -1.086810E+06  1.706733E-07 -7.166284E-08
       170  13 -2.913692E+06 -8.333784E+05 -6.443922E+05 -9.039204E+05 -1.380550E-10  2.121696E-09
       170  14 -2.744678E+06 -2.869360E+05 -2.618004E+05 -1.079567E+06 -7.043819E-10 -6.670282E-10
       170  15 -2.849269E+06 -3.860119E+05 -1.667581E+05 -1.072214E+06  5.089471E-09 -1.241434E-08
       170  16 -2.855894E+06 -8.043832E+05 -6.269810E+05 -8.809453E+05  3.341143E-08 -1.135327E-08
       170  17 -2.682236E+06 -2.615243E+05 -2.441811E+05 -1.060777E+06  2.974715E-08 -9.053902E-09
       170  18 -2.782160E+06 -3.641446E+05 -1.489116E+05 -1.057616E+06 -1.624334E-07  4.961722E-08
       170  19 -2.971301E+06 -8.623024E+05 -6.614461E+05 -9.268427E+05  4.071447E+05  1.534659E+05
       170  20 -2.807039E+06 -3.123182E+05 -2.792718E+05 -1.098335E+06  2.623354E+05  9.848888E+04
       170  21 -2.916360E+06 -4.078734E+05 -1.845753E+05 -1.086806E+06  1.173716E+05  4.393106E+04
       170  22 -2.913507E+06 -8.333082E+05 -6.440345E+05 -9.038699E+05  4.071622E+05  1.534784E+05
       170  23 -2.744601E+06 -2.869069E+05 -2.616521E+05 -1.079547E+06  2.623498E+05  9.849524E+04
       170  24 -2.849254E+06 -3.860061E+05 -1.667284E+05 -1.072209E+06  1.173816E+05  4.393397E+04
       170  25 -2.855709E+06 -8.043130E+05 -6.266234E+05 -8.808948E+05  4.071798E+05  1.534908E+05
       170  26 -2.682159E+06 -2.614953E+05 -2.440327E+05 -1.060756E+06  2.623642E+05  9.850160E+04
       170  27 -2.782144E+06 -3.641388E+05 -1.488820E+05 -1.057612E+06  1.173916E+05  4.393688E+04
       171   1 -2.796280E+06 -4.561131E+05 -1.299410E+05 -1.026050E+06 -9.183807E+04 -3.442494E+04
       171   2 -2.772134E+06 -3.667231E+05 -5.327880E+04 -1.049525E+06 -5.902788E+04 -2.221652E+04
       171   3 -2.786849E+06 -3.843563E+05 -2.923670E+04 -1.050815E+06 -2.625836E+04 -9.897908E+03
       171   4 -2.825553E+06 -4.661121E+05 -1.378180E+05 -1.032890E+06 -9.183770E+04 -3.442500E+04
       171   5 -2.801118E+06 -3.774333E+05 -6.123921E+04 -1.057133E+06 -5.902656E+04 -2.221605E+04
       171   6 -2.815545E+06 -3.957809E+05 -3.728319E+04 -1.059189E+06 -2.625607E+04 -9.897018E+03
       171   7 -2.854826E+06 -4.761112E+05 -1.456950E+05 -1.039730E+06 -9.183733E+04 -3.442506E+04
       171   8 -2.830100E+06 -3.881435E+05 -6.919969E+04 -1.064740E+06 -5.902523E+04 -2.221559E+04
       171   9 -2.844239E+06 -4.072054E+05 -4.532976E+04 -1.067563E+06 -2.625378E+04 -9.896127E+03
       171  10 -2.796290E+06 -4.561166E+05 -1.299592E+05 -1.026052E+06 -4.777546E-06 -4.429709E-06
       171  11 -2.772138E+06 -3.667245E+05 -5.328631E+04 -1.049526E+06 -2.406158E-05 -1.949675E-05
       171  12 -2.786850E+06 -3.843566E+05 -2.923818E+04 -1.050815E+06 -4.440202E-05 -3.421499E-05
       171  13 -2.825563E+06 -4.661157E+05 -1.378362E+05 -1.032893E+06 -1.703364E-05 -3.654123E-06
       171  14 -2.801121E+06 -3.774348E+05 -6.124672E+04 -1.057134E+06 -7.558147E-05 -1.616828E-05
       171  15 -2.815545E+06 -3.957812E+05 -3.728468E+04 -1.059190E+06 -1.341141E-04 -2.869633E-05
       171  16 -2.854835E+06 -4.761147E+05 -1.457132E+05 -1.039733E+06 -6.682905E-06 -4.295628E-06
       171  17 -2.830104E+06 -3.881450E+05 -6.920721E+04 -1.064741E+06 -2.678591E-05 -1.908457E-05
       171  18 -2.844240E+06 -4.072058E+05 -4.533126E+04 -1.067564E+06 -4.578579E-05 -3.426865E-05
       171  19 -2.796280E+06 -4.561131E+05 -1.299410E+05 -1.026050E+06  9.183807E+04  3.442494E+04
       171  20 -2.772134E+06 -3.667231E+05 -5.327879E+04 -1.049525E+06  5.902788E+04  2.221652E+04
       171  21 -2.786849E+06 -3.843563E+05 -2.923669E+04 -1.050815E+06  2.625836E+04  9.897908E+03
       171  22 -2.825553E+06 -4.661121E+05 -1.378180E+05 -1.032890E+06  9.183770E+04  3.442500E+04
       171  23 -2.801118E+06 -3.774333E+05 -6.123921E+04 -1.057133E+06  5.902656E+04  2.221605E+04
       171  24 -2.815545E+06 -3.957809E+05 -3.728319E+04 -1.059189E+06  2.625607E+04  9.897018E+03
       171  25 -2.854826E+06 -4.761112E+05 -1.456950E+05 -1.039730E+06  9.183733E+04  3.442506E+04
       171  26 -2.830100E+06 -3.881436E+05 -6.919970E+04 -1.064740E+06  5.902523E+04  2.221559E+04
       171  27 -2.844239E+06 -4.072055E+05 -4.532978E+04 -1.067563E+06  2.625378E+04  9.896127E+03
       172   1 -2.828805E+06 -4.127931E+05 -3.433833E+04 -1.055627E+06 -2.065346E+04 -7.749337E+03
       172   2 -2.824202E+06 -3.996694E+05 -1.869033E+04 -1.060255E+06 -1.319169E+04 -4.916329E+03
       172   3 -2.827596E+06 -4.017268E+05 -1.302420E+04 -1.059566E+06 -5.713143E+03 -2.128048E+03
       172   4 -2.813122E+06 -4.066948E+05 -2.996977E+04 -1.051200E+06 -2.065278E+04 -7.749091E+03
       172   5 -2.808339E+06 -3.936303E+05 -1.429777E+04 -1.055910E+06 -1.319183E+04 -4.916384E+03
       172   6 -2.811551E+06 -3.957465E+05 -8.606805E+03 -1.055303E+06 -5.714106E+03 -2.128408E+03
       172   7 -2.797439E+06 -4.005965E+05 -2.560123E+04 -1.046772E+06 -2.065211E+04 -7.748845E+03
       172   8 -2.792475E+06 -3.875912E+05 -9.905240E+03 -1.051564E+06 -1.319198E+04 -4.916440E+03
       172   9 -2.795506E+06 -3.897662E+05 -4.189433E+03 -1.051039E+06 -5.715069E+03 -2.128768E+03
       172  10 -2.828805E+06 -4.127933E+05 -3.433924E+04 -1.055627E+06 -4.525582E-05 -3.373247E-05
       172  11 -2.824202E+06 -3.996694E+05 -1.869070E+04 -1.060255E+06 -2.386328E-05 -1.677716E-05
       172  12 -2.827596E+06 -4.017269E+05 -1.302427E+04 -1.059566E+06 -1.555037E-06 -1.378542E-07
       172  13 -2.813122E+06 -4.066950E+05 -2.997069E+04 -1.051200E+06 -1.320768E-04 -2.826872E-05
       172  14 -2.808339E+06 -3.936304E+05 -1.429815E+04 -1.055910E+06 -6.657030E-05 -1.425718E-05
       172  15 -2.811551E+06 -3.957465E+05 -8.606876E+03 -1.055303E+06 -1.042658E-06 -2.427604E-07
       172  16 -2.797439E+06 -4.005967E+05 -2.560215E+04 -1.046773E+06 -4.355743E-05 -3.372952E-05
       172  17 -2.792475E+06 -3.875913E+05 -9.905618E+03 -1.051564E+06 -2.090655E-05 -1.721784E-05
       172  18 -2.795506E+06 -3.897662E+05 -4.189504E+03 -1.051039E+06  8.454357E-07 -3.854334E-07
       172  19 -2.828805E+06 -4.127931E+05 -3.433831E+04 -1.055627E+06  2.065346E+04  7.749337E+03
       172  20 -2.824202E+06 -3.996694E+05 -1.869032E+04 -1.060255E+06  1.319169E+04  4.916329E+03
       172  21 -2.827596E+06 -4.017268E+05 -1.302420E+04 -1.059566E+06  5.713143E+03  2.128048E+03
       172  22 -2.813122E+06 -4.066948E+05 -2.996977E+04 -1.051200E+06  2.065278E+04  7.749091E+03
       172  23 -2.808339E+06 -3.936303E+05 -1.429777E+04 -1.055910E+06  1.319183E+04  4.916384E+03
       172  24 -2.811551E+06 -3.957465E+05 -8.606805E+03 -1.055303E+06  5.714106E+03  2.128408E+03
       172  25 -2.797439E+06 -4.005966E+05 -2.560124E+04 -1.046772E+06  2.065211E+04  7.748845E+03
       172  26 -2.792475E+06 -3.875912E+05 -9.905248E+03 -1.051564E+06  1.319198E+04  4.916440E+03
       172  27 -2.795506E+06 -3.897662E+05 -4.189433E+03 -1.051039E+06  5.715069E+03  2.128768E+03
       173   1 -2.795753E+06 -3.919185E+05 -2.726164E+03 -1.050251E+06 -4.411872E+03 -1.669578E+03
       173   2 -2.794737E+06 -3.901337E+05  2.815548E+02 -1.051325E+06 -2.413528E+03 -9.416248E+02
       173   3 -2.795705E+06 -3.904795E+05  1.041571E+03 -1.050788E+06 -4.305194E+02 -1.727137E+02
       173   4 -2.810893E+06 -3.976208E+05 -6.906162E+03 -1.054335E+06 -4.412677E+03 -1.669881E+03
       173   5 -2.809796E+06 -3.958295E+05 -3.880727E+03 -1.055412E+06 -2.413464E+03 -9.416009E+02
       173   6 -2.810684E+06 -3.961690E+05 -3.103728E+03 -1.054878E+06 -4.295858E+02 -1.723629E+02
       173   7 -2.826032E+06 -4.033230E+05 -1.108618E+04 -1.058419E+06 -4.413483E+03 -1.670184E+03
       173   8 -2.824855E+06 -4.015253E+05 -8.043030E+03 -1.059499E+06 -2.413400E+03 -9.415770E+02
       173   9 -2.825663E+06 -4.018586E+05 -7.249048E+03 -1.058968E+06 -4.286525E+02 -1.720122E+02
       173  10 -2.795753E+06 -3.919186E+05 -2.726208E+03 -1.050251E+06  9.522817E-06  8.123345E-06
       173  11 -2.794737E+06 -3.901337E+05  2.815376E+02 -1.051325E+06  2.462340E-05  1.979956E-05
       173  12 -2.795705E+06 -3.904795E+05  1.041563E+03 -1.050788E+06  4.025713E-05  3.128457E-05
       173  13 -2.810893E+06 -3.976208E+05 -6.906204E+03 -1.054335E+06  3.120163E-05  6.616114E-06
       173  14 -2.809796E+06 -3.958295E+05 -3.880740E+03 -1.055412E+06  7.648484E-05  1.617347E-05
       173  15 -2.810684E+06 -3.961690E+05 -3.103728E+03 -1.054878E+06  1.217563E-04  2.573363E-05
       173  16 -2.826032E+06 -4.033230E+05 -1.108622E+04 -1.058419E+06  1.142086E-05  7.885154E-06
       173  17 -2.824855E+06 -4.015253E+05 -8.043038E+03 -1.059499E+06  2.666251E-05  1.950331E-05
       173  18 -2.825663E+06 -4.018585E+05 -7.249041E+03 -1.058968E+06  4.135465E-05  3.132883E-05
       173  19 -2.795753E+06 -3.919185E+05 -2.726168E+03 -1.050251E+06  4.411872E+03  1.669578E+03
       173  20 -2.794737E+06 -3.901337E+05  2.815457E+02 -1.051325E+06  2.413528E+03  9.416249E+02
       173  21 -2.795706E+06 -3.904795E+05  1.041556E+03 -1.050788E+06  4.305195E+02  1.727137E+02
       173  22 -2.810893E+06 -3.976208E+05 -6.906162E+03 -1.054335E+06  4.412677E+03  1.669881E+03
       173  23 -2.809796E+06 -3.958295E+05 -3.880727E+03 -1.055412E+06  2.413464E+03  9.416010E+02
       173  24 -2.810684E+06 -3.961690E+05 -3.103728E+03 -1.054878E+06  4.295861E+02  1.723630E+02
       173  25 -2.826032E+06 -4.033230E+05 -1.108618E+04 -1.058419E+06  4.413483E+03  1.670184E+03
       173  26 -2.824855E+06 -4.015252E+05 -8.043021E+03 -1.059499E+06  2.413400E+03  9.415770E+02
       173  27 -2.825663E+06 -4.018585E+05 -7.249033E+03 -1.058968E+06  4.286525E+02  1.720123E+02
       174   1 -2.835625E+06 -4.068485E+05 -1.017834E+04 -1.062900E+06  6.153476E+01  5.177720E+01
       174   2 -2.836636E+06 -4.044849E+05 -1.060295E+04 -1.061150E+06  1.852541E+03  7.554903E+02
       174   3 -2.835336E+06 -4.079400E+05 -1.301787E+04 -1.062216E+06  3.669798E+03  1.389256E+03
       174   4 -2.809735E+06 -3.970295E+05 -3.016602E+03 -1.055846E+06  6.292537E+01  5.229950E+01
       174   5 -2.810986E+06 -3.947847E+05 -3.513584E+03 -1.054190E+06  1.852439E+03  7.554515E+02
       174   6 -2.809926E+06 -3.983583E+05 -5.999628E+03 -1.055350E+06  3.668201E+03  1.388657E+03
       174   7 -2.783845E+06 -3.872104E+05  4.145078E+03 -1.048792E+06  6.431588E+01  5.282184E+01
       174   8 -2.785336E+06 -3.850845E+05  3.575722E+03 -1.047230E+06  1.852336E+03  7.554127E+02
       174   9 -2.784515E+06 -3.887767E+05  1.018558E+03 -1.048484E+06  3.666604E+03  1.388058E+03
       174  10 -2.835625E+06 -4.068486E+05 -1.017835E+04 -1.062900E+06  4.078893E-05  3.079671E-05
       174  11 -2.836636E+06 -4.044849E+05 -1.060296E+04 -1.061150E+06  2.384565E-05  1.716105E-05
       174  12 -2.835336E+06 -4.079400E+05 -1.301790E+04 -1.062216E+06  5.961435E-06  3.861570E-06
       174  13 -2.809735E+06 -3.970295E+05 -3.016602E+03 -1.055846E+06  1.197267E-04  2.529835E-05
       174  14 -2.810986E+06 -3.947847E+05 -3.513592E+03 -1.054190E+06  6.747900E-05  1.424977E-05
       174  15 -2.809926E+06 -3.983583E+05 -5.999657E+03 -1.055350E+06  1.520789E-05  3.221687E-06
       174  16 -2.783845E+06 -3.872103E+05  4.145085E+03 -1.048792E+06  3.946909E-05  3.076710E-05
       174  17 -2.785336E+06 -3.850845E+05  3.575719E+03 -1.047230E+06  2.139501E-05  1.752025E-05
       174  18 -2.784515E+06 -3.887767E+05  1.018529E+03 -1.048484E+06  4.230866E-06  3.982647E-06
       174  19 -2.835625E+06 -4.068486E+05 -1.017836E+04 -1.062900E+06 -6.153468E+01 -5.177714E+01
       174  20 -2.836636E+06 -4.044849E+05 -1.060296E+04 -1.061150E+06 -1.852541E+03 -7.554902E+02
       174  21 -2.835336E+06 -4.079400E+05 -1.301787E+04 -1.062216E+06 -3.669798E+03 -1.389256E+03
       174  22 -2.809735E+06 -3.970295E+05 -3.016602E+03 -1.055846E+06 -6.292513E+01 -5.229945E+01
       174  23 -2.810986E+06 -3.947847E+05 -3.513584E+03 -1.054190E+06 -1.852438E+03 -7.554514E+02
       174  24 -2.809926E+06 -3.983583E+05 -5.999628E+03 -1.055350E+06 -3.668201E+03 -1.388657E+03
       174  25 -2.783845E+06 -3.872103E+05  4.145092E+03 -1.048792E+06 -6.431580E+01 -5.282178E+01
       174  26 -2.785336E+06 -3.850845E+05  3.575730E+03 -1.047230E+06 -1.852336E+03 -7.554126E+02
       174  27 -2.784515E+06 -3.887767E+05  1.018559E+03 -1.048484E+06 -3.666604E+03 -1.388058E+03
       175   1 -2.756315E+06 -3.729580E+05  8.226575E+03 -1.038223E+06  4.790099E+03  1.731929E+03
       175   2 -2.751621E+06 -3.748519E+05  3.091566E+03 -1.043065E+06  1.119064E+04  4.076917E+03
       175   3 -2.759249E+06 -3.830405E+05 -1.033087E+04 -1.034645E+06  1.753322E+04  6.575800E+03
       175   4 -2.812562E+06 -3.941446E+05 -7.302883E+03 -1.053399E+06  4.786970E+03  1.730757E+03
       175   5 -2.807110E+06 -3.959004E+05 -1.225729E+04 -1.058188E+06  1.119041E+04  4.076827E+03
       175   6 -2.813981E+06 -4.039524E+05 -2.550204E+04 -1.049716E+06  1.753589E+04  6.576800E+03
       175   7 -2.868805E+06 -4.153311E+05 -2.283263E+04 -1.068574E+06  4.783843E+03  1.729584E+03
       175   8 -2.862596E+06 -4.169488E+05 -2.760644E+04 -1.073311E+06  1.119018E+04  4.076738E+03
       175   9 -2.868710E+06 -4.248640E+05 -4.067348E+04 -1.064785E+06  1.753856E+04  6.577800E+03
       175  10 -2.756315E+06 -3.729580E+05  8.226526E+03 -1.038223E+06  1.497315E-07 -4.401043E-08
       175  11 -2.751622E+06 -3.748519E+05  3.091299E+03 -1.043065E+06 -3.935489E-08  1.781418E-08
       175  12 -2.759249E+06 -3.830406E+05 -1.033154E+04 -1.034645E+06 -1.006757E-08 -5.525105E-10
       175  13 -2.812562E+06 -3.941447E+05 -7.302931E+03 -1.053399E+06 -2.396897E-09  9.803235E-09
       175  14 -2.807110E+06 -3.959005E+05 -1.225756E+04 -1.058188E+06  2.641213E-11 -7.422669E-10
       175  15 -2.813981E+06 -4.039525E+05 -2.550270E+04 -1.049716E+06  1.961197E-09 -5.545946E-10
       175  16 -2.868805E+06 -4.153311E+05 -2.283268E+04 -1.068574E+06 -1.573531E-07  6.181773E-08
       175  17 -2.862596E+06 -4.169488E+05 -2.760671E+04 -1.073311E+06  3.782190E-08 -1.166968E-08
       175  18 -2.868710E+06 -4.248642E+05 -4.067414E+04 -1.064785E+06  7.074427E-09 -5.168189E-09
       175  19 -2.756315E+06 -3.729580E+05  8.226575E+03 -1.038223E+06 -4.790099E+03 -1.731929E+03
       175  20 -2.751621E+06 -3.748519E+05  3.091566E+03 -1.043065E+06 -1.119064E+04 -4.076917E+03
       175  21 -2.759249E+06 -3.830405E+05 -1.033087E+04 -1.034645E+06 -1.753322E+04 -6.575800E+03
       175  22 -2.812562E+06 -3.941446E+05 -7.302882E+03 -1.053399E+06 -4.786970E+03 -1.730757E+03
       175  23 -2.807110E+06 -3.959004E+05 -1.225729E+04 -1.058188E+06 -1.119041E+04 -4.076827E+03
       175  24 -2.813981E+06 -4.039524E+05 -2.550204E+04 -1.049716E+06 -1.753589E+04 -6.576800E+03
       175  25 -2.868805E+06 -4.153311E+05 -2.283263E+04 -1.068574E+06 -4.783843E+03 -1.729584E+03
       175  26 -2.862596E+06 -4.169488E+05 -2.760644E+04 -1.073311E+06 -1.119018E+04 -4.076738E+03
       175  27 -2.868710E+06 -4.248640E+05 -4.067348E+04 -1.064785E+06 -1.753856E+04 -6.577800E+03
       176   1 -2.937484E+06 -4.477390E+05 -6.668561E+04 -1.097291E+06  2.211652E+04  8.475646E+03
       176   2 -2.936642E+06 -4.240762E+05 -8.763668E+04 -1.087176E+06  5.001384E+04  1.902414E+04
       176   3 -2.944335E+06 -5.063347E+05 -1.514470E+05 -1.072297E+06  7.808647E+04  2.910562E+04
       176   4 -2.809259E+06 -3.986230E+05 -3.111526E+04 -1.061862E+06  2.212610E+04  8.479272E+03
       176   5 -2.809299E+06 -3.761944E+05 -5.249287E+04 -1.052909E+06  5.001852E+04  1.902586E+04
       176   6 -2.817864E+06 -4.596736E+05 -1.167187E+05 -1.039194E+06  7.808619E+04  2.910536E+04
       176   7 -2.681017E+06 -3.495060E+05  4.453570E+03 -1.026426E+06  2.213568E+04  8.482899E+03
       176   8 -2.681939E+06 -3.283117E+05 -1.735056E+04 -1.018636E+06  5.002320E+04  1.902759E+04
       176   9 -2.691378E+06 -4.130118E+05 -8.199178E+04 -1.006084E+06  7.808591E+04  2.910511E+04
       176  10 -2.937485E+06 -4.477392E+05 -6.668667E+04 -1.097291E+06  2.443094E-08 -9.893506E-10
       176  11 -2.936645E+06 -4.240773E+05 -8.764209E+04 -1.087177E+06 -6.955445E-09  3.389582E-09
       176  12 -2.944341E+06 -5.063373E+05 -1.514601E+05 -1.072299E+06 -2.477141E-09 -4.224844E-09
       176  13 -2.809259E+06 -3.986232E+05 -3.111632E+04 -1.061862E+06  9.451543E-10  8.121132E-10
       176  14 -2.809301E+06 -3.761955E+05 -5.249828E+04 -1.052910E+06 -2.017343E-09  3.484384E-09
       176  15 -2.817871E+06 -4.596762E+05 -1.167318E+05 -1.039196E+06 -7.743999E-10 -7.227463E-10
       176  16 -2.681018E+06 -3.495062E+05  4.452509E+03 -1.026426E+06 -2.696216E-08  9.206585E-09
       176  17 -2.681942E+06 -3.283128E+05 -1.735597E+04 -1.018637E+06  6.602434E-09 -1.049534E-09
       176  18 -2.691385E+06 -4.130144E+05 -8.200490E+04 -1.006086E+06 -5.164702E-10  7.431568E-09
       176  19 -2.937484E+06 -4.477390E+05 -6.668561E+04 -1.097291E+06 -2.211652E+04 -8.475646E+03
       176  20 -2.936642E+06 -4.240762E+05 -8.763668E+04 -1.087176E+06 -5.001384E+04 -1.902414E+04
       176  21 -2.944335E+06 -5.063347E+05 -1.514470E+05 -1.072297E+06 -7.808647E+04 -2.910562E+04
       176  22 -2.809259E+06 -3.986230E+05 -3.111526E+04 -1.061862E+06 -2.212610E+04 -8.479272E+03
       176  23 -2.809299E+06 -3.761944E+05 -5.249287E+04 -1.052909E+06 -5.001852E+04 -1.902586E+04
       176  24 -2.817864E+06 -4.596736E+05 -1.167187E+05 -1.039194E+06 -7.808619E+04 -2.910536E+04
       176  25 -2.681017E+06 -3.495060E+05  4.453570E+03 -1.026426E+06 -2.213568E+04 -8.482899E+03
       176  26 -2.681939E+06 -3.283117E+05 -1.735056E+04 -1.018636E+06 -5.002320E+04 -1.902759E+04
       176  27 -2.691378E+06 -4.130118E+05 -8.199178E+04 -1.006084E+06 -7.808591E+04 -2.910511E+04
       177   1 -2.538257E+06 -2.655346E+05 -5.572734E+04 -9.781566E+05  9.918386E+04  3.665935E+04
       177   2 -2.465163E+06 -2.043086E+05 -1.437686E+05 -1.010685E+06  2.225622E+05  8.346911E+04
       177   3 -2.609344E+06 -6.353512E+05 -4.619516E+05 -8.279325E+05  3.452885E+05  1.320335E+05
       177   4 -2.839758E+06 -3.761482E+05 -1.383738E+05 -1.056465E+06  9.914354E+04  3.664491E+04
       177   5 -2.758901E+06 -3.174480E+05 -2.253598E+05 -1.092516E+06  2.225047E+05  8.344669E+04
       177   6 -2.895429E+06 -7.511820E+05 -5.425642E+05 -9.132567E+05  3.452155E+05  1.320012E+05
       177   7 -3.141172E+06 -4.867580E+05 -2.210286E+05 -1.134739E+06  9.910324E+04  3.663047E+04
       177   8 -3.052557E+06 -4.305818E+05 -3.069590E+05 -1.174311E+06  2.224472E+05  8.342428E+04
       177   9 -3.181434E+06 -8.670053E+05 -6.231846E+05 -9.985443E+05  3.451425E+05  1.319690E+05
       177  10 -2.538268E+06 -2.655387E+05 -5.574845E+04 -9.781596E+05  4.453940E-09  1.633022E-10
       177  11 -2.465219E+06 -2.043295E+05 -1.438752E+05 -1.010700E+06 -3.234783E-09  6.720797E-09
       177  12 -2.609477E+06 -6.354021E+05 -4.622096E+05 -8.279694E+05 -2.179627E-09  2.045630E-09
       177  13 -2.839769E+06 -3.761523E+05 -1.383949E+05 -1.056467E+06 -3.853449E-10 -4.329546E-10
       177  14 -2.758957E+06 -3.174689E+05 -2.254665E+05 -1.092531E+06 -2.000664E-09  2.475254E-09
       177  15 -2.895562E+06 -7.512330E+05 -5.428222E+05 -9.132935E+05  1.113414E-09  2.037125E-09
       177  16 -3.141183E+06 -4.867621E+05 -2.210497E+05 -1.134742E+06 -1.528790E-09  5.486636E-10
       177  17 -3.052612E+06 -4.306027E+05 -3.070657E+05 -1.174326E+06 -3.409790E-10  2.676374E-10
       177  18 -3.181568E+06 -8.670562E+05 -6.234427E+05 -9.985811E+05 -1.770541E-09 -1.343900E-09
       177  19 -2.538257E+06 -2.655346E+05 -5.572734E+04 -9.781566E+05 -9.918386E+04 -3.665935E+04
       177  20 -2.465163E+06 -2.043086E+05 -1.437686E+05 -1.010685E+06 -2.225622E+05 -8.346911E+04
       177  21 -2.609344E+06 -6.353512E+05 -4.619516E+05 -8.279325E+05 -3.452885E+05 -1.320335E+05
       177  22 -2.839758E+06 -3.761482E+05 -1.383738E+05 -1.056465E+06 -9.914354E+04 -3.664491E+04
       177  23 -2.758901E+06 -3.174480E+05 -2.253598E+05 -1.092516E+06 -2.225047E+05 -8.344669E+04
       177  24 -2.895429E+06 -7.511820E+05 -5.425642E+05 -9.132567E+05 -3.452155E+05 -1.320012E+05
       177  25 -3.141172E+06 -4.867580E+05 -2.210286E+05 -1.134739E+06 -9.910324E+04 -3.663047E+04
       177  26 -3.052557E+06 -4.305818E+05 -3.069590E+05 -1.174311E+06 -2.224472E+05 -8.342428E+04
       177  27 -3.181434E+06 -8.670053E+05 -6.231846E+05 -9.985443E+05 -3.451425E+05 -1.319690E+05
       178   1 -1.199511E+06  1.265545E+05  1.856606E+05 -1.542771E+03  1.722678E+05  5.129433E+02
       178   2 -1.257081E+06 -1.173431E+05  3.586037E+04  5.961353E+03  1.136718E+05  3.412101E+02
       178   3 -1.197409E+06 -7.564049E+04  3.324796E+03 -4.545463E+03  5.507718E+04 -1.041367E+02
       178   4 -9.196935E+05  1.965730E+05  2.556849E+05 -4.405090E+03  1.723227E+05  5.121356E+02
       178   5 -9.783795E+05 -4.757594E+04  1.056126E+05  4.748258E+03  1.136970E+05  3.409962E+02
       178   6 -9.198423E+05 -6.179980E+03  7.279135E+04 -4.109079E+03  5.507271E+04 -1.039801E+02
       178   7 -6.398050E+05  2.665857E+05  3.257033E+05 -7.268731E+03  1.723776E+05  5.113277E+02
       178   8 -6.996071E+05  2.218533E+04  1.753589E+05  3.534650E+03  1.137222E+05  3.407823E+02
       178   9 -6.422051E+05  6.327470E+04  1.422521E+05 -3.672405E+03  5.506824E+04 -1.038236E+02
       178  10 -1.199543E+06  1.265465E+05  1.856047E+05 -1.542842E+03 -1.464678E-09  1.945386E-10
       178  11 -1.257095E+06 -1.173466E+05  3.583604E+04  5.961322E+03 -3.423506E-09  1.339221E-10
       178  12 -1.197413E+06 -7.564131E+04  3.319084E+03 -4.545458E+03  5.266498E-10 -2.534388E-09
       178  13 -9.197254E+05  1.965651E+05  2.556290E+05 -4.405161E+03 -1.020607E-09 -3.102199E-10
       178  14 -9.783934E+05 -4.757941E+04  1.055882E+05  4.748227E+03 -1.619018E-09 -2.113931E-09
       178  15 -9.198455E+05 -6.180796E+03  7.278565E+04 -4.109074E+03  3.318288E-10 -1.155107E-10
       178  16 -6.398369E+05  2.665777E+05  3.256474E+05 -7.268802E+03 -9.608895E-10  4.792793E-09
       178  17 -6.996210E+05  2.218185E+04  1.753346E+05  3.534619E+03 -1.835030E-09  1.886899E-09
       178  18 -6.422084E+05  6.327389E+04  1.422464E+05 -3.672400E+03  8.431978E-10  3.382087E-10
       178  19 -1.199511E+06  1.265545E+05  1.856606E+05 -1.542771E+03 -1.722678E+05 -5.129433E+02
       178  20 -1.257081E+06 -1.173431E+05  3.586037E+04  5.961353E+03 -1.136718E+05 -3.412101E+02
       178  21 -1.197409E+06 -7.564049E+04  3.324796E+03 -4.545463E+03 -5.507718E+04  1.041367E+02
       178  22 -9.196935E+05  1.965730E+05  2.556849E+05 -4.405090E+03 -1.723227E+05 -5.121356E+02
       178  23 -9.783795E+05 -4.757594E+04  1.056126E+05  4.748258E+03 -1.136970E+05 -3.409962E+02
       178  24 -9.198423E+05 -6.179980E+03  7.279135E+04 -4.109079E+03 -5.507271E+04  1.039801E+02
       178  25 -6.398050E+05  2.665857E+05  3.257033E+05 -7.268731E+03 -1.723776E+05 -5.113277E+02
       178  26 -6.996071E+05  2.218533E+04  1.753589E+05  3.534650E+03 -1.137222E+05 -3.407823E+02
       178  27 -6.422051E+05  6.327470E+04  1.422521E+05 -3.672405E+03 -5.506824E+04  1.038236E+02
       179   1 -6.179296E+05  1.098963E+05  1.398711E+05 -3.327025E+03  4.235445E+04 -4.752004E+02
       179   2 -6.485159E+05  7.068391E+04  1.038590E+05  2.879644E+03  2.814204E+04 -6.278852E+02
       179   3 -6.164415E+05  7.979990E+04  9.894169E+04 -2.210586E+03  1.393115E+04 -2.885774E+02
       179   4 -9.319448E+05  3.132531E+04  6.130647E+04 -2.502675E+03  4.232836E+04 -4.750999E+02
       179   5 -9.632648E+05 -8.070887E+03  2.511275E+04  3.063131E+03  2.813403E+04 -6.278991E+02
       179   6 -9.319343E+05  8.603750E+02  2.000760E+04 -2.668356E+03  1.394125E+04 -2.885562E+02
       179   7 -1.245871E+06 -4.725312E+04 -1.726565E+04 -1.678626E+03  4.230227E+04 -4.749994E+02
       179   8 -1.277924E+06 -8.683318E+04 -5.364098E+04  3.246553E+03  2.812602E+04 -6.279129E+02
       179   9 -1.247337E+06 -7.808668E+04 -5.893402E+04 -3.125954E+03  1.395134E+04 -2.885350E+02
       179  10 -6.179315E+05  1.098958E+05  1.398677E+05 -3.327009E+03  1.173579E-09 -1.812701E-09
       179  11 -6.485168E+05  7.068369E+04  1.038575E+05  2.879659E+03 -4.636450E-10  1.649346E-10
       179  12 -6.164417E+05  7.979985E+04  9.894133E+04 -2.210583E+03 -1.612304E-10 -1.400566E-09
       179  13 -9.319468E+05  3.132483E+04  6.130310E+04 -2.502659E+03  1.228091E-09  1.579740E-09
       179  14 -9.632657E+05 -8.071100E+03  2.511126E+04  3.063146E+03 -3.532865E-10 -3.939818E-09
       179  15 -9.319345E+05  8.603227E+02  2.000723E+04 -2.668353E+03 -3.702888E-10 -1.853787E-09
       179  16 -1.245873E+06 -4.725360E+04 -1.726902E+04 -1.678610E+03 -8.703927E-10 -9.716014E-10
       179  17 -1.277925E+06 -8.683339E+04 -5.364247E+04  3.246567E+03  2.095262E-10 -2.358785E-09
       179  18 -1.247337E+06 -7.808673E+04 -5.893439E+04 -3.125951E+03  2.201204E-10 -5.164602E-10
       179  19 -6.179296E+05  1.098963E+05  1.398711E+05 -3.327025E+03 -4.235445E+04  4.752004E+02
       179  20 -6.485159E+05  7.068391E+04  1.038590E+05  2.879644E+03 -2.814204E+04  6.278852E+02
       179  21 -6.164415E+05  7.979990E+04  9.894169E+04 -2.210586E+03 -1.393115E+04  2.885774E+02
       179  22 -9.319448E+05  3.132531E+04  6.130647E+04 -2.502675E+03 -4.232836E+04  4.750999E+02
       179  23 -9.632648E+05 -8.070887E+03  2.511275E+04  3.063131E+03 -2.813403E+04  6.278991E+02
       179  24 -9.319343E+05  8.603750E+02  2.000760E+04 -2.668356E+03 -1.394125E+04  2.885562E+02
       179  25 -1.245871E+06 -4.725312E+04 -1.726565E+04 -1.678626E+03 -4.230227E+04  4.749994E+02
       179  26 -1.277924E+06 -8.683318E+04 -5.364098E+04  3.246553E+03 -2.812602E+04  6.279129E+02
       179  27 -1.247337E+06 -7.808668E+04 -5.893402E+04 -3.125954E+03 -1.395134E+04  2.885350E+02
       180   1 -9.733093E+05 -4.013246E+03  6.560744E+03  5.990189E+03  1.058956E+04 -4.280237E+01
       180   2 -9.756370E+05 -7.685432E+03 -1.346796E+02 -7.893364E+03  6.975008E+03  8.029247E+01
       180   3 -9.768586E+05 -9.583908E+03 -3.992618E+03  5.998770E+03  3.360771E+03  1.436076E+02
       180   4 -9.456014E+05  2.921530E+03  1.349639E+04  6.047837E+03  1.059389E+04 -4.278609E+01
       180   5 -9.461531E+05 -3.065510E+02  7.243309E+03 -7.831778E+03  6.977767E+03  8.030154E+01
       180   6 -9.455983E+05 -1.760684E+03  3.828739E+03  6.064210E+03  3.361947E+03  1.436107E+02
       180   7 -9.178928E+05  9.856248E+03  2.043197E+04  6.105487E+03  1.059822E+04 -4.276981E+01
       180   8 -9.166683E+05  7.072264E+03  1.462123E+04 -7.770191E+03  6.980525E+03  8.031062E+01
       180   9 -9.143371E+05  6.062465E+03  1.165002E+04  6.129652E+03  3.363124E+03  1.436138E+02
       180  10 -9.733094E+05 -4.013276E+03  6.560532E+03  5.990189E+03 -1.703375E-09 -9.698475E-10
       180  11 -9.756371E+05 -7.685445E+03 -1.347712E+02 -7.893364E+03  5.941726E-10 -2.293008E-09
       180  12 -9.768586E+05 -9.583911E+03 -3.992639E+03  5.998770E+03 -4.207551E-10  2.432415E-09
       180  13 -9.456015E+05  2.921500E+03  1.349618E+04  6.047838E+03  1.060095E-09 -3.589686E-10
       180  14 -9.461531E+05 -3.065641E+02  7.243218E+03 -7.831779E+03  1.332590E-09 -1.319271E-09
       180  15 -9.455983E+05 -1.760687E+03  3.828718E+03  6.064210E+03 -2.135099E-09 -2.051135E-09
       180  16 -9.178929E+05  9.856218E+03  2.043176E+04  6.105488E+03 -4.232380E-10 -2.236436E-09
       180  17 -9.166684E+05  7.072251E+03  1.462114E+04 -7.770191E+03  2.429403E-09  2.944943E-09
       180  18 -9.143372E+05  6.062462E+03  1.165000E+04  6.129652E+03  1.325793E-09 -1.289484E-09
       180  19 -9.733093E+05 -4.013246E+03  6.560744E+03  5.990189E+03 -1.058956E+04  4.280237E+01
       180  20 -9.756370E+05 -7.685432E+03 -1.346796E+02 -7.893364E+03 -6.975008E+03 -8.029247E+01
       180  21 -9.768586E+05 -9.583908E+03 -3.992618E+03  5.998770E+03 -3.360771E+03 -1.436076E+02
       180  22 -9.456014E+05  2.921530E+03  1.349639E+04  6.047837E+03 -1.059389E+04  4.278609E+01
       180  23 -9.461531E+05 -3.065510E+02  7.243309E+03 -7.831778E+03 -6.977767E+03 -8.030154E+01
       180  24 -9.455983E+05 -1.760684E+03  3.828739E+03  6.064210E+03 -3.361947E+03 -1.436107E+02
       180  25 -9.178928E+05  9.856248E+03  2.043197E+04  6.105487E+03 -1.059822E+04  4.276981E+01
       180  26 -9.166683E+05  7.072264E+03  1.462123E+04 -7.770191E+03 -6.980525E+03 -8.031062E+01
       180  27 -9.143371E+05  6.062465E+03  1.165002E+04  6.129652E+03 -3.363124E+03 -1.436138E+02
       181   1 -1.223621E+06 -6.966993E+04 -6.636357E+04 -4.096144E+03  2.257437E+03  3.210315E+02
       181   2 -1.243132E+06 -7.210586E+04 -7.202142E+04  4.661422E+03  1.778746E+03  5.390887E+02
       181   3 -1.221627E+06 -7.135785E+04 -6.852689E+04 -2.410911E+03  1.298670E+03  1.894220E+02
       181   4 -9.367308E+05  2.139798E+03  5.441133E+03 -3.636372E+03  2.270208E+03  3.210463E+02
       181   5 -9.572641E+05 -5.515094E+02 -4.745286E+02  4.280260E+03  1.777712E+03  5.390748E+02
       181   6 -9.367696E+05 -4.911221E+01  2.772353E+03 -3.632531E+03  1.283833E+03  1.894956E+02
       181   7 -6.497656E+05  7.394329E+04  7.723961E+04 -3.176421E+03  2.282984E+03  3.210611E+02
       181   8 -6.713222E+05  7.099665E+04  7.106618E+04  3.898954E+03  1.776678E+03  5.390609E+02
       181   9 -6.518384E+05  7.125349E+04  7.406545E+04 -4.854613E+03  1.268989E+03  1.895693E+02
       181  10 -1.223621E+06 -6.966993E+04 -6.636358E+04 -4.096144E+03  3.903476E-10 -9.646246E-10
       181  11 -1.243132E+06 -7.210586E+04 -7.202142E+04  4.661422E+03  8.433634E-10  1.367686E-09
       181  12 -1.221627E+06 -7.135785E+04 -6.852689E+04 -2.410911E+03 -5.193020E-10 -1.089619E-09
       181  13 -9.367308E+05  2.139796E+03  5.441123E+03 -3.636372E+03  1.962071E-09  1.412634E-09
       181  14 -9.572641E+05 -5.515106E+02 -4.745351E+02  4.280259E+03  3.402122E-09  1.657955E-10
       181  15 -9.367696E+05 -4.911270E+01  2.772350E+03 -3.632531E+03  1.655150E-10 -3.083706E-09
       181  16 -6.497657E+05  7.394329E+04  7.723960E+04 -3.176422E+03 -7.119998E-10  7.168225E-10
       181  17 -6.713222E+05  7.099665E+04  7.106617E+04  3.898953E+03  2.220290E-09 -2.110752E-09
       181  18 -6.518384E+05  7.125349E+04  7.406545E+04 -4.854613E+03 -2.044620E-09 -4.509529E-09
       181  19 -1.223621E+06 -6.966993E+04 -6.636357E+04 -4.096144E+03 -2.257437E+03 -3.210315E+02
       181  20 -1.243132E+06 -7.210586E+04 -7.202142E+04  4.661422E+03 -1.778746E+03 -5.390887E+02
       181  21 -1.221627E+06 -7.135785E+04 -6.852689E+04 -2.410911E+03 -1.298670E+03 -1.894220E+02
       181  22 -9.367308E+05  2.139798E+03  5.441133E+03 -3.636372E+03 -2.270208E+03 -3.210463E+02
       181  23 -9.572641E+05 -5.515094E+02 -4.745286E+02  4.280260E+03 -1.777712E+03 -5.390748E+02
       181  24 -9.367696E+05 -4.911222E+01  2.772353E+03 -3.632531E+03 -1.283833E+03 -1.894956E+02
       181  25 -6.497656E+05  7.394329E+04  7.723961E+04 -3.176421E+03 -2.282984E+03 -3.210611E+02
       181  26 -6.713222E+05  7.099665E+04  7.106618E+04  3.898954E+03 -1.776678E+03 -5.390609E+02
       181  27 -6.518384E+05  7.125349E+04  7.406545E+04 -4.854613E+03 -1.268989E+03 -1.895693E+02
       182   1 -6.248248E+05  7.830010E+04  8.062899E+04 -4.166904E+03  2.286912E+02 -2.334760E+02
       182   2 -6.482410E+05  7.721802E+04  7.549456E+04  2.997384E+03  5.087198E+02 -5.904806E+02
       182   3 -6.232025E+05  7.974328E+04  8.060483E+04 -2.182517E+03  7.899711E+02 -3.240494E+02
       182   4 -9.351234E+05  6.511306E+02  2.990356E+03 -2.855081E+03  2.126160E+02 -2.333987E+02
       182   5 -9.593269E+05 -6.202603E+02 -2.335976E+03  3.313216E+03  5.074674E+02 -5.904974E+02
       182   6 -9.350914E+05  1.703562E+03  2.571169E+03 -2.863092E+03  8.035415E+02 -3.240246E+02
       182   7 -1.245335E+06 -7.700512E+04 -7.465556E+04 -1.543799E+03  1.965489E+02 -2.333215E+02
       182   8 -1.270325E+06 -7.846586E+04 -8.017383E+04  3.628919E+03  5.062156E+02 -5.905143E+02
       182   9 -1.246892E+06 -7.634352E+04 -7.546985E+04 -3.543383E+03  8.171049E+02 -3.239999E+02
       182  10 -6.248248E+05  7.830010E+04  8.062899E+04 -4.166904E+03  1.145421E-09  2.084878E-09
       182  11 -6.482410E+05  7.721802E+04  7.549456E+04  2.997384E+03  3.514669E-11  2.729632E-09
       182  12 -6.232025E+05  7.974328E+04  8.060483E+04 -2.182516E+03 -1.871129E-09  2.287251E-09
       182  13 -9.351234E+05  6.511305E+02  2.990356E+03 -2.855081E+03  2.144511E-09 -1.512282E-09
       182  14 -9.593269E+05 -6.202608E+02 -2.335977E+03  3.313216E+03 -2.411684E-09  4.439519E-10
       182  15 -9.350914E+05  1.703562E+03  2.571168E+03 -2.863092E+03  1.705740E-09  6.910799E-10
       182  16 -1.245335E+06 -7.700513E+04 -7.465556E+04 -1.543799E+03 -1.424754E-10 -2.733462E-10
       182  17 -1.270325E+06 -7.846586E+04 -8.017383E+04  3.628919E+03  1.161196E-09  2.127113E-09
       182  18 -1.246892E+06 -7.634352E+04 -7.546985E+04 -3.543383E+03  1.177049E-09 -6.566757E-11
       182  19 -6.248248E+05  7.830010E+04  8.062899E+04 -4.166904E+03 -2.286912E+02  2.334760E+02
       182  20 -6.482410E+05  7.721802E+04  7.549456E+04  2.997384E+03 -5.087198E+02  5.904806E+02
       182  21 -6.232025E+05  7.974328E+04  8.060483E+04 -2.182517E+03 -7.899711E+02  3.240494E+02
       182  22 -9.351234E+05  6.511306E+02  2.990356E+03 -2.855081E+03 -2.126160E+02  2.333987E+02
       182  23 -9.593269E+05 -6.202603E+02 -2.335976E+03  3.313216E+03 -5.074674E+02  5.904974E+02
       182  24 -9.350914E+05  1.703562E+03  2.571169E+03 -2.863092E+03 -8.035415E+02  3.240246E+02
       182  25 -1.245335E+06 -7.700512E+04 -7.465556E+04 -1.543799E+03 -1.965489E+02  2.333215E+02
       182  26 -1.270325E+06 -7.846586E+04 -8.017383E+04  3.628919E+03 -5.062156E+02  5.905143E+02
       182  27 -1.246892E+06 -7.634352E+04 -7.546985E+04 -3.543383E+03 -8.171049E+02  3.239999E+02
       183   1 -9.648015E+05 -6.493894E+03 -5.226279E+03  5.972189E+03  3.217515E+02 -8.756686E+01
       183   2 -9.658574E+05 -4.194943E+03 -5.235090E+03 -7.901398E+03  4.998790E+02  3.982845E+01
       183   3 -9.683570E+05 -7.445046E+03 -6.754084E+03  6.073789E+03  6.781907E+02  1.298725E+02
       183   4 -9.461711E+05 -1.830365E+03 -5.622165E+02  6.075901E+03  3.252445E+02 -8.755381E+01
       183   5 -9.454471E+05  9.131592E+02 -1.276425E+02 -7.848835E+03  5.024819E+02  3.983725E+01
       183   6 -9.461665E+05 -1.892116E+03 -1.202594E+03  6.075146E+03  6.799040E+02  1.298776E+02
       183   7 -9.275404E+05  2.833139E+03  4.101819E+03  6.179615E+03  3.287376E+02 -8.754075E+01
       183   8 -9.250363E+05  6.021230E+03  4.979773E+03 -7.796271E+03  5.050850E+02  3.984606E+01
       183   9 -9.239756E+05  3.660777E+03  4.348859E+03  6.076502E+03  6.816175E+02  1.298827E+02
       183  10 -9.648015E+05 -6.493894E+03 -5.226279E+03  5.972189E+03 -2.259434E-09  4.078311E-09
       183  11 -9.658574E+05 -4.194943E+03 -5.235090E+03 -7.901398E+03  1.931972E-09 -3.032917E-11
       183  12 -9.683570E+05 -7.445046E+03 -6.754085E+03  6.073789E+03 -1.225620E-09 -8.989936E-10
       183  13 -9.461711E+05 -1.830365E+03 -5.622167E+02  6.075901E+03  1.246886E-09 -9.559002E-10
       183  14 -9.454471E+05  9.131592E+02 -1.276430E+02 -7.848835E+03 -1.827069E-10  1.705113E-09
       183  15 -9.461665E+05 -1.892116E+03 -1.202595E+03  6.075146E+03 -3.003634E-10  1.834651E-09
       183  16 -9.275404E+05  2.833138E+03  4.101819E+03  6.179615E+03  1.593017E-10  2.634406E-10
       183  17 -9.250363E+05  6.021230E+03  4.979773E+03 -7.796271E+03  2.240082E-09 -2.793282E-09
       183  18 -9.239756E+05  3.660777E+03  4.348858E+03  6.076502E+03 -1.560756E-09 -7.834513E-10
       183  19 -9.648015E+05 -6.493894E+03 -5.226279E+03  5.972189E+03 -3.217515E+02  8.756686E+01
       183  20 -9.658574E+05 -4.194943E+03 -5.235090E+03 -7.901398E+03 -4.998790E+02 -3.982845E+01
       183  21 -9.683570E+05 -7.445046E+03 -6.754084E+03  6.073789E+03 -6.781907E+02 -1.298725E+02
       183  22 -9.461711E+05 -1.830365E+03 -5.622165E+02  6.075901E+03 -3.252445E+02  8.755381E+01
       183  23 -9.454471E+05  9.131592E+02 -1.276425E+02 -7.848835E+03 -5.024819E+02 -3.983725E+01
       183  24 -9.461665E+05 -1.892116E+03 -1.202594E+03  6.075146E+03 -6.799040E+02 -1.298776E+02
       183  25 -9.275404E+05  2.833139E+03  4.101819E+03  6.179615E+03 -3.287376E+02  8.754075E+01
       183  26 -9.250363E+05  6.021230E+03  4.979773E+03 -7.796271E+03 -5.050850E+02 -3.984606E+01
       183  27 -9.239756E+05  3.660777E+03  4.348859E+03  6.076502E+03 -6.816175E+02 -1.298827E+02
       184   1 -1.228521E+06 -7.155309E+04 -7.184224E+04 -4.020158E+03  4.079050E+02  3.196458E+02
       184   2 -1.248320E+06 -7.289661E+04 -7.672405E+04  4.487877E+03  1.661149E+03  5.455218E+02
       184   3 -1.226603E+06 -7.389758E+04 -7.400491E+04 -2.234906E+03  2.913083E+03  2.018057E+02
       184   4 -9.366212E+05  1.510935E+03  1.216610E+03 -3.500633E+03  4.202186E+02  3.196610E+02
       184   5 -9.574055E+05 -7.878664E+01 -3.913611E+03  4.112613E+03  1.660322E+03  5.455070E+02
       184   6 -9.366595E+05 -1.315137E+03 -1.432544E+03 -3.504490E+03  2.899115E+03  2.018735E+02
       184   7 -6.446444E+05  7.456851E+04  7.426901E+04 -2.980902E+03  4.325379E+02  3.196763E+02
       184   8 -6.664139E+05  7.273263E+04  6.889042E+04  3.737205E+03  1.659495E+03  5.454922E+02
       184   9 -6.466397E+05  7.126094E+04  7.113345E+04 -4.774567E+03  2.885140E+03  2.019414E+02
       184  10 -1.228521E+06 -7.155309E+04 -7.184224E+04 -4.020159E+03  3.228190E-10 -1.991241E-09
       184  11 -1.248320E+06 -7.289661E+04 -7.672406E+04  4.487877E+03 -3.319299E-10  7.614119E-12
       184  12 -1.226603E+06 -7.389758E+04 -7.400492E+04 -2.234906E+03  3.498552E-09 -2.847993E-09
       184  13 -9.366212E+05  1.510935E+03  1.216610E+03 -3.500633E+03  1.069472E-09 -6.722012E-10
       184  14 -9.574055E+05 -7.878770E+01 -3.913617E+03  4.112612E+03  3.485124E-10  2.435118E-09
       184  15 -9.366595E+05 -1.315139E+03 -1.432560E+03 -3.504491E+03  2.339636E-09 -1.878400E-09
       184  16 -6.446444E+05  7.456851E+04  7.426901E+04 -2.980902E+03 -2.434522E-09 -1.964319E-09
       184  17 -6.664139E+05  7.273263E+04  6.889042E+04  3.737204E+03 -1.122003E-09 -3.289778E-10
       184  18 -6.466397E+05  7.126094E+04  7.113344E+04 -4.774567E+03 -2.401264E-09 -4.901909E-10
       184  19 -1.228521E+06 -7.155309E+04 -7.184224E+04 -4.020158E+03 -4.079050E+02 -3.196458E+02
       184  20 -1.248320E+06 -7.289661E+04 -7.672405E+04  4.487877E+03 -1.661149E+03 -5.455218E+02
       184  21 -1.226603E+06 -7.389758E+04 -7.400491E+04 -2.234906E+03 -2.913083E+03 -2.018057E+02
       184  22 -9.366212E+05  1.510935E+03  1.216610E+03 -3.500633E+03 -4.202186E+02 -3.196610E+02
       184  23 -9.574055E+05 -7.878664E+01 -3.913611E+03  4.112613E+03 -1.660322E+03 -5.455070E+02
       184  24 -9.366595E+05 -1.315137E+03 -1.432544E+03 -3.504490E+03 -2.899115E+03 -2.018735E+02
       184  25 -6.446444E+05  7.456851E+04  7.426901E+04 -2.980902E+03 -4.325379E+02 -3.196763E+02
       184  26 -6.664139E+05  7.273263E+04  6.889042E+04  3.737205E+03 -1.659495E+03 -5.454922E+02
       184  27 -6.466397E+05  7.126094E+04  7.113345E+04 -4.774567E+03 -2.885140E+03 -2.019414E+02
       185   1 -6.299842E+05  7.734651E+04  7.474182E+04 -4.362238E+03  2.669707E+03 -2.440155E+02
       185   2 -6.508629E+05  7.842429E+04  6.791352E+04  3.185438E+03  6.488338E+03 -6.110635E+02
       185   3 -6.282886E+05  6.984732E+04  6.546407E+04 -2.181397E+03  1.030832E+04 -2.167644E+02
       185   4 -9.362354E+05  7.089973E+02 -1.884755E+03 -2.985125E+03  2.651357E+03 -2.439250E+02
       185   5 -9.579390E+05  1.589473E+03 -8.913731E+03  3.479241E+03  6.486584E+03 -6.110800E+02
       185   6 -9.362068E+05 -7.200356E+03 -1.157823E+04 -2.971340E+03  1.032316E+04 -2.167391E+02
       185   7 -1.242401E+06 -7.593561E+04 -7.851843E+04 -1.608579E+03  2.633016E+03 -2.438345E+02
       185   8 -1.264929E+06 -7.525248E+04 -8.574811E+04  3.772929E+03  6.484831E+03 -6.110965E+02
       185   9 -1.244039E+06 -8.425520E+04 -8.862769E+04 -3.760943E+03  1.033799E+04 -2.167138E+02
       185  10 -6.299842E+05  7.734651E+04  7.474181E+04 -4.362237E+03  2.737568E-09 -1.578875E-09
       185  11 -6.508630E+05  7.842428E+04  6.791344E+04  3.185441E+03 -1.665396E-10 -1.423207E-09
       185  12 -6.282888E+05  6.984729E+04  6.546387E+04 -2.181395E+03 -4.125317E-10 -1.296251E-09
       185  13 -9.362354E+05  7.089954E+02 -1.884769E+03 -2.985124E+03  2.932295E-09 -7.418583E-09
       185  14 -9.579390E+05  1.589461E+03 -8.913811E+03  3.479244E+03  1.727842E-11 -2.885899E-09
       185  15 -9.362069E+05 -7.200384E+03 -1.157843E+04 -2.971338E+03 -2.027353E-09  2.596825E-11
       185  16 -1.242401E+06 -7.593562E+04 -7.851844E+04 -1.608578E+03  1.044217E-09 -4.988485E-09
       185  17 -1.264929E+06 -7.525249E+04 -8.574819E+04  3.772932E+03  4.162110E-09 -1.491141E-11
       185  18 -1.244039E+06 -8.425523E+04 -8.862790E+04 -3.760941E+03  6.246376E-10 -1.567271E-09
       185  19 -6.299842E+05  7.734651E+04  7.474182E+04 -4.362238E+03 -2.669707E+03  2.440155E+02
       185  20 -6.508629E+05  7.842429E+04  6.791352E+04  3.185438E+03 -6.488338E+03  6.110635E+02
       185  21 -6.282886E+05  6.984732E+04  6.546407E+04 -2.181397E+03 -1.030832E+04  2.167644E+02
       185  22 -9.362354E+05  7.089973E+02 -1.884755E+03 -2.985125E+03 -2.651357E+03  2.439250E+02
       185  23 -9.579390E+05  1.589473E+03 -8.913731E+03  3.479241E+03 -6.486584E+03  6.110800E+02
       185  24 -9.362068E+05 -7.200356E+03 -1.157823E+04 -2.971340E+03 -1.032316E+04  2.167391E+02
       185  25 -1.242401E+06 -7.593561E+04 -7.851843E+04 -1.608579E+03 -2.633016E+03  2.438345E+02
       185  26 -1.264929E+06 -7.525248E+04 -8.574811E+04  3.772929E+03 -6.484831E+03  6.110965E+02
       185  27 -1.244039E+06 -8.425520E+04 -8.862769E+04 -3.760943E+03 -1.033799E+04  2.167138E+02
       186   1  4.830464E+05  8.649175E+05  6.262619E+05 -1.439366E+04 -1.181672E+03  4.014452E+05
       186   2 -8.373951E+04  7.683577E+05  2.870212E+05 -3.374823E+03 -9.636686E+02  2.595403E+05
       186   3  1.855295E+04  8.633676E+05  2.085988E+05 -4.510200E+03 -5.640453E+02  1.176286E+05
       186   4  4.551269E+05  7.533624E+05  5.983939E+05 -6.436896E+03 -1.176571E+03  4.014036E+05
       186   5 -1.114289E+05  6.576090E+05  2.593574E+05 -1.096035E+03 -9.627640E+02  2.595166E+05
       186   6 -8.846843E+03  7.534534E+05  1.811597E+05 -7.908754E+03 -5.647435E+02  1.176225E+05
       186   7  4.272068E+05  6.418186E+05  5.705251E+05  1.518450E+03 -1.171471E+03  4.013619E+05
       186   8 -1.391192E+05  5.468713E+05  2.316927E+05  1.182359E+03 -9.618595E+02  2.594928E+05
       186   9 -3.624750E+04  6.435502E+05  1.537197E+05 -1.130669E+04 -5.654416E+02  1.176165E+05
       186  10  4.830032E+05  8.647447E+05  6.259594E+05 -1.439328E+04 -9.373024E-10  2.064270E-11
       186  11 -8.375756E+04  7.682855E+05  2.868948E+05 -3.374621E+03  3.416760E-09  3.285759E-09
       186  12  1.854924E+04  8.633528E+05  2.085728E+05 -4.510147E+03 -3.730482E-09 -1.156251E-09
       186  13  4.550837E+05  7.531896E+05  5.980915E+05 -6.436516E+03  4.150789E-09 -8.946443E-10
       186  14 -1.114469E+05  6.575367E+05  2.592310E+05 -1.095834E+03  3.221614E-09 -1.204915E-09
       186  15 -8.850552E+03  7.534386E+05  1.811337E+05 -7.908700E+03 -1.371468E-10 -1.992488E-09
       186  16  4.271636E+05  6.416459E+05  5.702227E+05  1.518828E+03 -4.143348E-10 -4.337050E-10
       186  17 -1.391372E+05  5.467991E+05  2.315663E+05  1.182560E+03  8.363945E-09  2.806115E-09
       186  18 -3.625121E+04  6.435353E+05  1.536938E+05 -1.130664E+04  1.629424E-09  3.817434E-10
       186  19  4.830464E+05  8.649175E+05  6.262619E+05 -1.439366E+04  1.181672E+03 -4.014452E+05
       186  20 -8.373951E+04  7.683577E+05  2.870212E+05 -3.374823E+03  9.636686E+02 -2.595403E+05
       186  21  1.855295E+04  8.633676E+05  2.085988E+05 -4.510200E+03  5.640453E+02 -1.176286E+05
       186  22  4.551269E+05  7.533624E+05  5.983939E+05 -6.436896E+03  1.176571E+03 -4.014036E+05
       186  23 -1.114289E+05  6.576090E+05  2.593574E+05 -1.096035E+03  9.627640E+02 -2.595166E+05
       186  24 -8.846844E+03  7.534534E+05  1.811597E+05 -7.908754E+03  5.647435E+02 -1.176225E+05
       186  25  4.272068E+05  6.418186E+05  5.705251E+05  1.518450E+03  1.171471E+03 -4.013619E+05
       186  26 -1.391192E+05  5.468713E+05  2.316927E+05  1.182359E+03  9.618595E+02 -2.594928E+05
       186  27 -3.624750E+04  6.435502E+05  1.537197E+05 -1.130669E+04  5.654416E+02 -1.176165E+05
       187   1  7.262497E+04  7.296367E+05  1.579685E+05 -5.794120E+03 -5.059519E+02  8.689333E+04
       187   2 -2.254353E+04  7.077757E+05  9.564413E+04 -4.793679E+03 -2.393073E+02  3.769987E+04
       187   3  3.143452E+04  7.296320E+05  1.026237E+05 -3.516711E+03  1.004271E+02 -1.149272E+04
       187   4  7.033502E+04  7.205600E+05  1.556974E+05 -4.333957E+03 -5.057607E+02  8.689443E+04
       187   5 -2.481156E+04  6.987077E+05  9.337848E+04 -4.599278E+03 -2.392979E+02  3.769984E+04
       187   6  2.918976E+04  7.205735E+05  1.003650E+05 -4.588066E+03  1.004555E+02 -1.149389E+04
       187   7  6.804508E+04  7.114833E+05  1.534264E+05 -2.873815E+03 -5.055694E+02  8.689552E+04
       187   8 -2.707959E+04  6.896397E+05  9.111282E+04 -4.404880E+03 -2.392885E+02  3.769980E+04
       187   9  2.694500E+04  7.115151E+05  9.810627E+04 -5.659406E+03  1.004838E+02 -1.149506E+04
       187  10  7.262294E+04  7.296286E+05  1.579543E+05 -5.794085E+03 -5.301905E-09 -7.483900E-10
       187  11 -2.254391E+04  7.077742E+05  9.564146E+04 -4.793672E+03 -1.824039E-09  4.808634E-09
       187  12  3.143449E+04  7.296319E+05  1.026235E+05 -3.516711E+03 -5.505178E-10 -1.115239E-09
       187  13  7.033300E+04  7.205519E+05  1.556833E+05 -4.333922E+03 -2.906568E-09 -1.707820E-09
       187  14 -2.481194E+04  6.987062E+05  9.337581E+04 -4.599271E+03  1.806640E-10 -1.778038E-09
       187  15  2.918973E+04  7.205734E+05  1.003648E+05 -4.588065E+03 -2.608519E-09 -2.221812E-09
       187  16  6.804306E+04  7.114752E+05  1.534122E+05 -2.873780E+03 -2.199986E-09 -9.048509E-11
       187  17 -2.707997E+04  6.896382E+05  9.111016E+04 -4.404873E+03 -4.126449E-09  3.929154E-09
       187  18  2.694497E+04  7.115150E+05  9.810602E+04 -5.659405E+03 -8.424935E-10  1.799574E-10
       187  19  7.262497E+04  7.296367E+05  1.579685E+05 -5.794120E+03  5.059519E+02 -8.689333E+04
       187  20 -2.254353E+04  7.077757E+05  9.564413E+04 -4.793679E+03  2.393073E+02 -3.769987E+04
       187  21  3.143452E+04  7.296320E+05  1.026237E+05 -3.516711E+03 -1.004271E+02  1.149272E+04
       187  22  7.033502E+04  7.205600E+05  1.556974E+05 -4.333957E+03  5.057607E+02 -8.689443E+04
       187  23 -2.481156E+04  6.987077E+05  9.337848E+04 -4.599278E+03  2.392979E+02 -3.769984E+04
       187  24  2.918976E+04  7.205735E+05  1.003650E+05 -4.588066E+03 -1.004555E+02  1.149389E+04
       187  25  6.804508E+04  7.114833E+05  1.534264E+05 -2.873815E+03  5.055694E+02 -8.689552E+04
       187  26 -2.707959E+04  6.896397E+05  9.111282E+04 -4.404880E+03  2.392885E+02 -3.769980E+04
       187  27  2.694500E+04  7.115151E+05  9.810627E+04 -5.659406E+03 -1.004838E+02  1.149506E+04
       188   1  1.807714E+04  7.822656E+05  1.175439E+05 -5.481275E+03  2.729499E+02 -3.015688E+04
       188   2 -3.785779E+04  7.392450E+05  1.378147E+05 -6.012682E+03  8.271928E+02 -9.807192E+04
       188   3  2.124442E+05  7.830849E+05  2.791341E+05  1.343937E+03  1.379213E+03 -1.659846E+05
       188   4  5.030835E+03  7.301694E+05  1.045257E+05 -3.376640E+03  2.728645E+02 -3.015740E+04
       188   5 -5.096733E+04  6.867157E+05  1.246974E+05 -6.529830E+03  8.272873E+02 -9.806738E+04
       188   6  1.992842E+05  7.301284E+05  2.659214E+05 -1.795026E+03  1.380059E+03 -1.659750E+05
       188   7 -8.015665E+03  6.780758E+05  9.150733E+04 -1.272178E+03  2.727791E+02 -3.015792E+04
       188   8 -6.407708E+04  6.341889E+05  1.115799E+05 -7.046929E+03  8.273819E+02 -9.806284E+04
       188   9  1.861240E+05  6.771745E+05  2.527085E+05 -4.933717E+03  1.380905E+03 -1.659653E+05
       188  10  1.807690E+04  7.822646E+05  1.175422E+05 -5.481269E+03 -8.681860E-10 -9.635700E-10
       188  11 -3.786037E+04  7.392347E+05  1.377967E+05 -6.012617E+03  5.805667E-09  5.411485E-09
       188  12  2.124368E+05  7.830553E+05  2.790824E+05  1.344121E+03  3.085977E-09 -3.347376E-10
       188  13  5.030591E+03  7.301685E+05  1.045240E+05 -3.376634E+03  3.067370E-09 -1.906985E-09
       188  14 -5.096991E+04  6.867054E+05  1.246794E+05 -6.529764E+03  4.868022E-09 -1.961060E-09
       188  15  1.992768E+05  7.300988E+05  2.658697E+05 -1.794842E+03  2.876739E-09 -2.742926E-09
       188  16 -8.015909E+03  6.780748E+05  9.150562E+04 -1.272171E+03 -3.941562E-09  1.424458E-10
       188  17 -6.407966E+04  6.341786E+05  1.115619E+05 -7.046864E+03  5.985018E-09  4.570657E-09
       188  18  1.861166E+05  6.771449E+05  2.526568E+05 -4.933533E+03  4.988815E-09 -7.320740E-10
       188  19  1.807714E+04  7.822656E+05  1.175439E+05 -5.481275E+03 -2.729499E+02  3.015688E+04
       188  20 -3.785779E+04  7.392450E+05  1.378147E+05 -6.012682E+03 -8.271928E+02  9.807192E+04
       188  21  2.124442E+05  7.830849E+05  2.791341E+05  1.343937E+03 -1.379213E+03  1.659846E+05
       188  22  5.030835E+03  7.301694E+05  1.045257E+05 -3.376640E+03 -2.728645E+02  3.015740E+04
       188  23 -5.096733E+04  6.867157E+05  1.246974E+05 -6.529830E+03 -8.272873E+02  9.806738E+04
       188  24  1.992842E+05  7.301284E+05  2.659214E+05 -1.795026E+03 -1.380059E+03  1.659750E+05
       188  25 -8.015665E+03  6.780758E+05  9.150733E+04 -1.272178E+03 -2.727791E+02  3.015792E+04
       188  26 -6.407708E+04  6.341889E+05  1.115799E+05 -7.046929E+03 -8.273819E+02  9.806284E+04
       188  27  1.861240E+05  6.771745E+05  2.527085E+05 -4.933717E+03 -1.380905E+03  1.659653E+05
       189   1 -6.642772E+06 -2.030230E+06 -1.182503E+06 -2.401685E+06 -5.725941E+05 -2.001171E+05
       189   2 -6.488118E+06 -1.174240E+06 -6.492710E+05 -2.452084E+06 -3.703784E+05 -9.125994E+04
       189   3 -6.607691E+06 -1.112561E+06 -4.828099E+05 -2.350651E+06 -1.565761E+05 -1.299010E+04
       189   4 -5.613999E+06 -1.425772E+06 -8.593166E+05 -1.903091E+06 -5.488254E+05 -1.913870E+05
       189   5 -5.432474E+06 -7.122371E+05 -3.607746E+05 -2.098688E+06 -3.633861E+05 -8.867590E+04
       189   6 -5.521334E+06 -7.889573E+05 -2.151424E+05 -2.142609E+06 -1.663660E+05 -1.665430E+04
       189   7 -4.584066E+06 -8.207055E+05 -5.362253E+05 -1.403591E+06 -5.250123E+05 -1.826192E+05
       189   8 -4.375721E+06 -2.500494E+05 -7.237928E+04 -1.744702E+06 -3.563802E+05 -8.608484E+04
       189   9 -4.433815E+06 -4.653721E+05  5.244026E+04 -1.934282E+06 -1.761746E+05 -2.032213E+04
       189  10 -6.643139E+06 -2.030362E+06 -1.183203E+06 -2.401778E+06  1.073821E-10  2.493859E-10
       189  11 -6.488269E+06 -1.174286E+06 -6.495477E+05 -2.452111E+06 -3.692200E-09  7.002507E-10
       189  12 -6.607718E+06 -1.112568E+06 -4.828568E+05 -2.350652E+06 -3.462033E-09 -1.403574E-09
       189  13 -5.614335E+06 -1.425894E+06 -8.599579E+05 -1.903176E+06 -2.052778E-10 -6.862735E-10
       189  14 -5.432619E+06 -7.122815E+05 -3.610401E+05 -2.098714E+06 -4.582045E-10 -3.865468E-12
       189  15 -5.521364E+06 -7.889652E+05 -2.151955E+05 -2.142611E+06  3.587779E-09 -1.607628E-09
       189  16 -4.584373E+06 -8.208163E+05 -5.368107E+05 -1.403669E+06  1.732692E-09  9.044964E-10
       189  17 -4.375861E+06 -2.500919E+05 -7.263394E+04 -1.744727E+06  3.007407E-09  4.460090E-10
       189  18 -4.433848E+06 -4.653809E+05  5.238070E+04 -1.934285E+06  1.428933E-09 -1.267281E-09
       189  19 -6.642772E+06 -2.030230E+06 -1.182503E+06 -2.401685E+06  5.725941E+05  2.001171E+05
       189  20 -6.488118E+06 -1.174240E+06 -6.492710E+05 -2.452084E+06  3.703784E+05  9.125994E+04
       189  21 -6.607691E+06 -1.112561E+06 -4.828099E+05 -2.350651E+06  1.565761E+05  1.299010E+04
       189  22 -5.613999E+06 -1.425772E+06 -8.593166E+05 -1.903091E+06  5.488254E+05  1.913870E+05
       189  23 -5.432474E+06 -7.122371E+05 -3.607746E+05 -2.098688E+06  3.633861E+05  8.867590E+04
       189  24 -5.521334E+06 -7.889573E+05 -2.151424E+05 -2.142609E+06  1.663660E+05  1.665430E+04
       189  25 -4.584066E+06 -8.207055E+05 -5.362253E+05 -1.403591E+06  5.250123E+05  1.826192E+05
       189  26 -4.375721E+06 -2.500494E+05 -7.237928E+04 -1.744702E+06  3.563802E+05  8.608484E+04
       189  27 -4.433815E+06 -4.653721E+05  5.244026E+04 -1.934282E+06  1.761746E+05  2.032213E+04
       190   1 -6.390808E+06 -1.234020E+06 -4.136695E+05 -2.360411E+06 -1.333452E+05 -1.175404E+04
       190   2 -6.302993E+06 -1.092761E+06 -2.971082E+05 -2.313239E+06 -8.737479E+04  2.648639E+03
       190   3 -6.198514E+06 -1.075277E+06 -2.343305E+05 -2.304969E+06 -4.052122E+04  1.470936E+04
       190   4 -5.491337E+06 -8.764038E+05 -1.741493E+05 -2.096300E+06 -1.342216E+05 -1.209226E+04
       190   5 -5.495292E+06 -7.837671E+05 -8.484133E+04 -2.088384E+06 -8.949383E+04  1.849056E+03
       190   6 -5.482299E+06 -8.145900E+05 -4.826113E+04 -2.119379E+06 -4.389084E+04  1.344463E+04
       190   7 -4.591068E+06 -5.187105E+05  6.530070E+04 -1.831828E+06 -1.350993E+05 -1.243103E+04
       190   8 -4.686950E+06 -4.747264E+05  1.273699E+05 -1.863260E+06 -9.161585E+04  1.048313E+03
       190   9 -4.765582E+06 -5.538797E+05  1.377654E+05 -1.933598E+06 -4.726474E+04  1.217842E+04
       190  10 -6.390827E+06 -1.234025E+06 -4.137035E+05 -2.360412E+06 -3.775195E-09 -1.792461E-09
       190  11 -6.303001E+06 -1.092763E+06 -2.971227E+05 -2.313239E+06 -2.744637E-09  8.174101E-10
       190  12 -6.198516E+06 -1.075278E+06 -2.343340E+05 -2.304968E+06 -8.998079E-10  9.971065E-10
       190  13 -5.491357E+06 -8.764089E+05 -1.741838E+05 -2.096301E+06 -2.836326E-10 -1.078862E-09
       190  14 -5.495301E+06 -7.837693E+05 -8.485651E+04 -2.088384E+06  9.124097E-10  6.184932E-10
       190  15 -5.482301E+06 -8.145907E+05 -4.826511E+04 -2.119379E+06 -5.571338E-10  5.339155E-10
       190  16 -4.591087E+06 -5.187156E+05  6.526585E+04 -1.831829E+06  1.622356E-09 -7.417114E-10
       190  17 -4.686959E+06 -4.747287E+05  1.273540E+05 -1.863260E+06  3.785317E-09  1.701870E-10
       190  18 -4.765584E+06 -5.538805E+05  1.377609E+05 -1.933598E+06  7.363293E-10  7.836752E-10
       190  19 -6.390808E+06 -1.234020E+06 -4.136695E+05 -2.360411E+06  1.333452E+05  1.175404E+04
       190  20 -6.302993E+06 -1.092761E+06 -2.971082E+05 -2.313239E+06  8.737479E+04 -2.648639E+03
       190  21 -6.198514E+06 -1.075277E+06 -2.343305E+05 -2.304969E+06  4.052122E+04 -1.470936E+04
       190  22 -5.491337E+06 -8.764038E+05 -1.741493E+05 -2.096300E+06  1.342216E+05  1.209226E+04
       190  23 -5.495292E+06 -7.837671E+05 -8.484133E+04 -2.088384E+06  8.949383E+04 -1.849056E+03
       190  24 -5.482299E+06 -8.145900E+05 -4.826113E+04 -2.119379E+06  4.389084E+04 -1.344463E+04
       190  25 -4.591068E+06 -5.187105E+05  6.530070E+04 -1.831828E+06  1.350993E+05  1.243103E+04
       190  26 -4.686950E+06 -4.747264E+05  1.273699E+05 -1.863260E+06  9.161585E+04 -1.048313E+03
       190  27 -4.765582E+06 -5.538797E+05  1.377654E+05 -1.933598E+06  4.726474E+04 -1.217842E+04
       191   1 -6.053379E+06 -1.042018E+06 -1.879602E+05 -2.274147E+06 -3.293970E+04  1.376890E+04
       191   2 -5.963851E+06 -9.623966E+05 -1.400558E+05 -2.210749E+06 -2.086892E+04  1.227847E+04
       191   3 -5.821350E+06 -9.468395E+05 -1.016263E+05 -2.211042E+06 -8.680455E+03  1.046366E+04
       191   4 -5.477493E+06 -8.242260E+05 -3.744031E+04 -2.116308E+06 -3.580337E+04  1.269464E+04
       191   5 -5.503535E+06 -7.892134E+05 -1.966085E+04 -2.085569E+06 -2.390407E+04  1.114162E+04
       191   6 -5.476581E+06 -8.182245E+05 -1.121092E+04 -2.118523E+06 -1.188916E+04  9.263570E+03
       191   7 -4.901284E+06 -6.064134E+05  1.130510E+05 -1.958335E+06 -3.866995E+04  1.161928E+04
       191   8 -5.043012E+06 -6.160172E+05  1.007161E+05 -1.960304E+06 -2.694169E+04  1.000383E+04
       191   9 -5.131695E+06 -6.896022E+05  7.919466E+04 -2.025958E+06 -1.509985E+04  8.062757E+03
       191  10 -6.053380E+06 -1.042018E+06 -1.879626E+05 -2.274147E+06 -2.398729E-10 -6.232332E-10
       191  11 -5.963851E+06 -9.623968E+05 -1.400569E+05 -2.210749E+06 -1.942546E-10  9.480537E-10
       191  12 -5.821350E+06 -9.468397E+05 -1.016266E+05 -2.211042E+06  2.146313E-09  1.023187E-09
       191  13 -5.477495E+06 -8.242265E+05 -3.744303E+04 -2.116307E+06 -9.077152E-10  1.354590E-11
       191  14 -5.503536E+06 -7.892137E+05 -1.966216E+04 -2.085569E+06  3.125959E-09  1.145754E-09
       191  15 -5.476581E+06 -8.182246E+05 -1.121135E+04 -2.118523E+06  3.365357E-09  1.291765E-09
       191  16 -4.901286E+06 -6.064140E+05  1.130479E+05 -1.958334E+06  1.071257E-09  2.621704E-10
       191  17 -5.043013E+06 -6.160175E+05  1.007145E+05 -1.960303E+06 -6.276671E-10 -8.578050E-10
       191  18 -5.131695E+06 -6.896024E+05  7.919410E+04 -2.025958E+06  7.100269E-10 -5.258569E-10
       191  19 -6.053379E+06 -1.042018E+06 -1.879602E+05 -2.274147E+06  3.293970E+04 -1.376890E+04
       191  20 -5.963851E+06 -9.623966E+05 -1.400558E+05 -2.210749E+06  2.086892E+04 -1.227847E+04
       191  21 -5.821350E+06 -9.468395E+05 -1.016263E+05 -2.211042E+06  8.680455E+03 -1.046366E+04
       191  22 -5.477493E+06 -8.242260E+05 -3.744031E+04 -2.116308E+06  3.580337E+04 -1.269464E+04
       191  23 -5.503535E+06 -7.892134E+05 -1.966085E+04 -2.085569E+06  2.390407E+04 -1.114162E+04
       191  24 -5.476581E+06 -8.182245E+05 -1.121092E+04 -2.118523E+06  1.188916E+04 -9.263570E+03
       191  25 -4.901284E+06 -6.064134E+05  1.130510E+05 -1.958335E+06  3.866995E+04 -1.161928E+04
       191  26 -5.043012E+06 -6.160172E+05  1.007161E+05 -1.960304E+06  2.694169E+04 -1.000383E+04
       191  27 -5.131695E+06 -6.896022E+05  7.919466E+04 -2.025958E+06  1.509985E+04 -8.062757E+03
       192   1 -5.673791E+06 -8.940303E+05 -6.013021E+04 -2.172647E+06 -5.798459E+03  7.711232E+03
       192   2 -5.580686E+06 -8.174790E+05 -2.513631E+04 -2.105076E+06 -9.362870E+02  2.948410E+03
       192   3 -5.428504E+06 -8.014616E+05  7.617908E+03 -2.106118E+06  3.940266E+03 -1.854320E+03
       192   4 -5.475515E+06 -8.196186E+05 -8.747538E+03 -2.118797E+06 -9.006579E+03  6.512040E+03
       192   5 -5.505007E+06 -7.890960E+05 -5.363861E+03 -2.084581E+06 -4.166112E+03  1.741353E+03
       192   6 -5.475432E+06 -8.191028E+05 -4.200580E+03 -2.118984E+06  6.881208E+02 -3.069394E+03
       192   7 -5.277202E+06 -7.452045E+05  4.263188E+04 -2.064931E+06 -1.221583E+04  5.312424E+03
       192   8 -5.429323E+06 -7.607127E+05  1.440811E+04 -2.064084E+06 -7.396366E+03  5.341363E+02
       192   9 -5.522358E+06 -8.367437E+05 -1.601915E+04 -2.131849E+06 -2.563742E+03 -4.284361E+03
       192  10 -5.673791E+06 -8.940303E+05 -6.013039E+04 -2.172647E+06  1.434099E-09  6.281819E-10
       192  11 -5.580686E+06 -8.174790E+05 -2.513632E+04 -2.105076E+06  2.332106E-09  1.557568E-09
       192  12 -5.428504E+06 -8.014616E+05  7.617873E+03 -2.106118E+06  3.321043E-09 -1.237875E-09
       192  13 -5.475516E+06 -8.196187E+05 -8.747771E+03 -2.118797E+06  1.355808E-09 -1.365625E-09
       192  14 -5.505007E+06 -7.890960E+05 -5.363900E+03 -2.084581E+06  4.182024E-10 -1.745633E-10
       192  15 -5.475432E+06 -8.191028E+05 -4.200598E+03 -2.118984E+06 -9.549073E-10 -1.543649E-09
       192  16 -5.277202E+06 -7.452046E+05  4.263154E+04 -2.064931E+06  2.202901E-09 -3.336665E-10
       192  17 -5.429323E+06 -7.607127E+05  1.440800E+04 -2.064084E+06 -4.564887E-11  6.698092E-10
       192  18 -5.522358E+06 -8.367437E+05 -1.601920E+04 -2.131849E+06 -2.401786E-10 -1.307751E-09
       192  19 -5.673791E+06 -8.940303E+05 -6.013021E+04 -2.172647E+06  5.798459E+03 -7.711232E+03
       192  20 -5.580686E+06 -8.174790E+05 -2.513631E+04 -2.105076E+06  9.362870E+02 -2.948410E+03
       192  21 -5.428504E+06 -8.014616E+05  7.617908E+03 -2.106118E+06 -3.940266E+03  1.854320E+03
       192  22 -5.475515E+06 -8.196186E+05 -8.747538E+03 -2.118797E+06  9.006579E+03 -6.512040E+03
       192  23 -5.505007E+06 -7.890960E+05 -5.363861E+03 -2.084581E+06  4.166112E+03 -1.741353E+03
       192  24 -5.475432E+06 -8.191028E+05 -4.200580E+03 -2.118984E+06 -6.881208E+02  3.069394E+03
       192  25 -5.277202E+06 -7.452045E+05  4.263188E+04 -2.064931E+06  1.221583E+04 -5.312424E+03
       192  26 -5.429323E+06 -7.607127E+05  1.440811E+04 -2.064084E+06  7.396366E+03 -5.341363E+02
       192  27 -5.522358E+06 -8.367437E+05 -1.601915E+04 -2.131849E+06  2.563742E+03  4.284361E+03
       193   1 -5.280651E+06 -7.455823E+05  4.725398E+04 -2.065854E+06  5.878594E+03 -4.996845E+03
       193   2 -5.189791E+06 -6.712617E+05  7.703061E+04 -1.999560E+06  1.056917E+04 -9.775135E+03
       193   3 -5.041045E+06 -6.560861E+05  1.047211E+05 -2.000286E+06  1.521181E+04 -1.441190E+04
       193   4 -5.475711E+06 -8.187983E+05 -4.172173E+03 -2.118636E+06  2.643255E+03 -6.205947E+03
       193   5 -5.504692E+06 -7.895097E+05 -5.253480E+03 -2.085017E+06  7.410704E+03 -1.095670E+04
       193   6 -5.475818E+06 -8.193858E+05 -8.482606E+03 -2.118427E+06  1.212963E+04 -1.556602E+04
       193   7 -5.670734E+06 -8.920123E+05 -5.560174E+04 -2.171402E+06 -5.909696E+02 -7.414634E+03
       193   8 -5.819496E+06 -9.077517E+05 -8.754610E+04 -2.170434E+06  4.253999E+03 -1.213760E+04
       193   9 -5.910405E+06 -9.826739E+05 -1.217023E+05 -2.236492E+06  9.049832E+03 -1.671925E+04
       193  10 -5.280651E+06 -7.455824E+05  4.725387E+04 -2.065854E+06  4.607145E-09  3.164303E-10
       193  11 -5.189791E+06 -6.712619E+05  7.703022E+04 -1.999560E+06  3.801597E-09  3.577207E-09
       193  12 -5.041046E+06 -6.560863E+05  1.047203E+05 -2.000285E+06 -1.434398E-09 -6.287242E-11
       193  13 -5.475711E+06 -8.187984E+05 -4.172259E+03 -2.118636E+06  3.581204E-09 -3.080644E-10
       193  14 -5.504692E+06 -7.895098E+05 -5.253808E+03 -2.085017E+06 -4.293749E-10  7.227037E-10
       193  15 -5.475818E+06 -8.193861E+05 -8.483337E+03 -2.118426E+06  7.769273E-10  1.928420E-09
       193  16 -5.670734E+06 -8.920123E+05 -5.560184E+04 -2.171402E+06 -3.869408E-10 -1.273839E-09
       193  17 -5.819496E+06 -9.077519E+05 -8.754641E+04 -2.170434E+06  2.964478E-09  2.596473E-09
       193  18 -5.910405E+06 -9.826742E+05 -1.217030E+05 -2.236492E+06  4.182677E-09  3.089680E-09
       193  19 -5.280651E+06 -7.455823E+05  4.725398E+04 -2.065854E+06 -5.878594E+03  4.996845E+03
       193  20 -5.189791E+06 -6.712617E+05  7.703061E+04 -1.999560E+06 -1.056917E+04  9.775135E+03
       193  21 -5.041045E+06 -6.560861E+05  1.047211E+05 -2.000286E+06 -1.521181E+04  1.441190E+04
       193  22 -5.475711E+06 -8.187983E+05 -4.172173E+03 -2.118636E+06 -2.643255E+03  6.205947E+03
       193  23 -5.504692E+06 -7.895097E+05 -5.253480E+03 -2.085017E+06 -7.410704E+03  1.095670E+04
       193  24 -5.475818E+06 -8.193858E+05 -8.482606E+03 -2.118427E+06 -1.212963E+04  1.556602E+04
       193  25 -5.670734E+06 -8.920123E+05 -5.560174E+04 -2.171402E+06  5.909696E+02  7.414634E+03
       193  26 -5.819496E+06 -9.077517E+05 -8.754610E+04 -2.170434E+06 -4.253999E+03  1.213760E+04
       193  27 -5.910405E+06 -9.826739E+05 -1.217023E+05 -2.236492E+06 -9.049832E+03  1.671925E+04
       194   1 -4.902710E+06 -6.023196E+05  1.396249E+05 -1.962309E+06  1.795834E+04 -1.704178E+04
       194   2 -4.820403E+06 -5.336872E+05  1.593252E+05 -1.901054E+06  2.928835E+04 -1.878465E+04
       194   3 -4.688530E+06 -5.248387E+05  1.702660E+05 -1.898890E+06  4.046663E+04 -2.009519E+04
       194   4 -5.477415E+06 -8.174286E+05 -1.083783E+04 -2.117471E+06  1.490461E+04 -1.818645E+04
       194   5 -5.502619E+06 -7.904383E+05 -1.901308E+04 -2.086840E+06  2.646406E+04 -1.984572E+04
       194   6 -5.478318E+06 -8.232884E+05 -3.613804E+04 -2.115308E+06  3.786994E+04 -2.107308E+04
       194   7 -6.051795E+06 -1.032518E+06 -1.613282E+05 -2.272502E+06  1.185401E+04 -1.932997E+04
       194   8 -6.184380E+06 -1.047161E+06 -1.973909E+05 -2.272439E+06  2.364319E+04 -2.090550E+04
       194   9 -6.267497E+06 -1.121699E+06 -2.425958E+05 -2.331474E+06  3.527686E+04 -2.204960E+04
       194  10 -4.902711E+06 -6.023200E+05  1.396238E+05 -1.962309E+06 -1.141551E-09  5.767839E-10
       194  11 -4.820404E+06 -5.336878E+05  1.593229E+05 -1.901053E+06 -6.516996E-11  1.824271E-09
       194  12 -4.688532E+06 -5.248396E+05  1.702622E+05 -1.898890E+06 -6.049091E-10  8.617403E-10
       194  13 -5.477415E+06 -8.174290E+05 -1.083887E+04 -2.117471E+06 -2.218687E-10  1.646275E-09
       194  14 -5.502620E+06 -7.904389E+05 -1.901514E+04 -2.086839E+06 -1.380455E-09 -3.169175E-10
       194  15 -5.478319E+06 -8.232893E+05 -3.614158E+04 -2.115307E+06  2.073278E-09  1.246798E-09
       194  16 -6.051795E+06 -1.032518E+06 -1.613291E+05 -2.272502E+06  6.996686E-10  1.276812E-09
       194  17 -6.184381E+06 -1.047161E+06 -1.973928E+05 -2.272438E+06  4.646658E-09  1.681632E-09
       194  18 -6.267499E+06 -1.121700E+06 -2.425990E+05 -2.331474E+06  4.569732E-09  2.251042E-09
       194  19 -4.902710E+06 -6.023196E+05  1.396249E+05 -1.962309E+06 -1.795834E+04  1.704178E+04
       194  20 -4.820403E+06 -5.336872E+05  1.593252E+05 -1.901054E+06 -2.928835E+04  1.878465E+04
       194  21 -4.688530E+06 -5.248387E+05  1.702660E+05 -1.898890E+06 -4.046663E+04  2.009519E+04
       194  22 -5.477415E+06 -8.174286E+05 -1.083783E+04 -2.117471E+06 -1.490461E+04  1.818645E+04
       194  23 -5.502619E+06 -7.904383E+05 -1.901308E+04 -2.086840E+06 -2.646406E+04  1.984572E+04
       194  24 -5.478318E+06 -8.232884E+05 -3.613804E+04 -2.115308E+06 -3.786994E+04  2.107308E+04
       194  25 -6.051795E+06 -1.032518E+06 -1.613282E+05 -2.272502E+06 -1.185401E+04  1.932997E+04
       194  26 -6.184380E+06 -1.047161E+06 -1.973909E+05 -2.272439E+06 -2.364319E+04  2.090550E+04
       194  27 -6.267497E+06 -1.121699E+06 -2.425958E+05 -2.331474E+06 -3.527686E+04  2.204960E+04
       195   1 -4.566222E+06 -4.765131E+05  1.919590E+05 -1.876421E+06  4.874776E+04 -2.046067E+04
       195   2 -4.497695E+06 -4.056760E+05  1.794984E+05 -1.813532E+06  9.121454E+04 -9.337239E+03
       195   3 -4.416597E+06 -4.490642E+05  1.174116E+05 -1.782821E+06  1.327096E+05  4.404439E+03
       195   4 -5.483503E+06 -8.134174E+05 -4.657098E+04 -2.117628E+06  4.561765E+04 -2.164000E+04
       195   5 -5.494007E+06 -7.859399E+05 -8.191154E+04 -2.090375E+06  8.947668E+04 -9.997277E+03
       195   6 -5.492274E+06 -8.730498E+05 -1.680536E+05 -2.095302E+06  1.323574E+05  4.261336E+03
       195   7 -6.399962E+06 -1.150280E+06 -2.851715E+05 -2.358513E+06  4.249263E+04 -2.281753E+04
       195   8 -6.489345E+06 -1.166134E+06 -3.434059E+05 -2.366810E+06  8.774182E+04 -1.065616E+04
       195   9 -6.566814E+06 -1.296932E+06 -4.536188E+05 -2.407277E+06  1.320057E+05  4.118437E+03
       195  10 -4.566224E+06 -4.765142E+05  1.919537E+05 -1.876420E+06 -6.802205E-10  1.785258E-13
       195  11 -4.497704E+06 -4.056783E+05  1.794825E+05 -1.813532E+06 -3.891927E-09  5.484618E-10
       195  12 -4.416616E+06 -4.490690E+05  1.173782E+05 -1.782821E+06 -7.612453E-10  7.227956E-10
       195  13 -5.483506E+06 -8.134184E+05 -4.657578E+04 -2.117627E+06  4.319462E-11  1.625630E-09
       195  14 -5.494016E+06 -7.859422E+05 -8.192688E+04 -2.090375E+06  1.391947E-09  3.169784E-10
       195  15 -5.492293E+06 -8.730545E+05 -1.680868E+05 -2.095302E+06 -3.389800E-10  1.910154E-11
       195  16 -6.399964E+06 -1.150281E+06 -2.851759E+05 -2.358512E+06  3.793078E-09  1.531862E-09
       195  17 -6.489354E+06 -1.166136E+06 -3.434207E+05 -2.366809E+06  1.457774E-09 -8.261315E-11
       195  18 -6.566833E+06 -1.296937E+06 -4.536519E+05 -2.407277E+06  1.918288E-09  8.328752E-10
       195  19 -4.566222E+06 -4.765131E+05  1.919590E+05 -1.876421E+06 -4.874776E+04  2.046067E+04
       195  20 -4.497695E+06 -4.056760E+05  1.794984E+05 -1.813532E+06 -9.121454E+04  9.337239E+03
       195  21 -4.416597E+06 -4.490642E+05  1.174116E+05 -1.782821E+06 -1.327096E+05 -4.404439E+03
       195  22 -5.483503E+06 -8.134174E+05 -4.657098E+04 -2.117628E+06 -4.561765E+04  2.164000E+04
       195  23 -5.494007E+06 -7.859399E+05 -8.191154E+04 -2.090375E+06 -8.947668E+04  9.997277E+03
       195  24 -5.492274E+06 -8.730498E+05 -1.680536E+05 -2.095302E+06 -1.323574E+05 -4.261336E+03
       195  25 -6.399962E+06 -1.150280E+06 -2.851715E+05 -2.358513E+06 -4.249263E+04  2.281753E+04
       195  26 -6.489345E+06 -1.166134E+06 -3.434059E+05 -2.366810E+06 -8.774182E+04  1.065616E+04
       195  27 -6.566814E+06 -1.296932E+06 -4.536188E+05 -2.407277E+06 -1.320057E+05 -4.118437E+03
       196   1 -4.279145E+06 -4.025402E+05  1.010516E+05 -1.884710E+06  1.735403E+05  1.229056E+04
       196   2 -4.234270E+06 -2.029453E+05 -2.296561E+04 -1.709554E+06  3.448962E+05  7.600354E+04
       196   3 -4.452891E+06 -7.539249E+05 -4.722806E+05 -1.379738E+06  5.035559E+05  1.733241E+05
       196   4 -5.521647E+06 -7.882470E+05 -2.076145E+05 -2.139511E+06  1.634452E+05  8.499115E+03
       196   5 -5.432729E+06 -7.175916E+05 -3.482019E+05 -2.101063E+06  3.531805E+05  7.908870E+04
       196   6 -5.611598E+06 -1.402159E+06 -8.292574E+05 -1.907798E+06  5.302121E+05  1.832195E+05
       196   7 -6.762637E+06 -1.173965E+06 -5.163957E+05 -2.393902E+06  1.533721E+05  4.712590E+03
       196   8 -6.629764E+06 -1.232022E+06 -6.735668E+05 -2.491839E+06  3.614466E+05  8.216480E+04
       196   9 -6.768870E+06 -2.049750E+06 -1.186357E+06 -2.434795E+06  5.568122E+05  1.930708E+05
       196  10 -4.279177E+06 -4.025485E+05  1.009943E+05 -1.884712E+06 -1.694071E-09 -8.510398E-10
       196  11 -4.234400E+06 -2.029838E+05 -2.320185E+04 -1.709575E+06 -9.678559E-10  3.182737E-09
       196  12 -4.453173E+06 -7.540261E+05 -4.728178E+05 -1.379809E+06  2.583381E-09  1.073494E-09
       196  13 -5.521676E+06 -7.882544E+05 -2.076653E+05 -2.139512E+06 -2.101470E-09  2.487276E-09
       196  14 -5.432866E+06 -7.176322E+05 -3.484506E+05 -2.101086E+06 -4.733778E-09  5.252301E-09
       196  15 -5.611911E+06 -1.402272E+06 -8.298548E+05 -1.907876E+06  1.183786E-10  1.877860E-10
       196  16 -6.762663E+06 -1.173972E+06 -5.164405E+05 -2.393902E+06  1.265505E-09  2.817889E-09
       196  17 -6.629907E+06 -1.232065E+06 -6.738281E+05 -2.491863E+06 -3.704605E-09  5.992975E-09
       196  18 -6.769216E+06 -2.049875E+06 -1.187018E+06 -2.434882E+06 -1.752892E-09  2.617682E-10
       196  19 -4.279145E+06 -4.025402E+05  1.010516E+05 -1.884710E+06 -1.735403E+05 -1.229056E+04
       196  20 -4.234270E+06 -2.029453E+05 -2.296561E+04 -1.709554E+06 -3.448962E+05 -7.600354E+04
       196  21 -4.452891E+06 -7.539249E+05 -4.722806E+05 -1.379738E+06 -5.035559E+05 -1.733241E+05
       196  22 -5.521647E+06 -7.882470E+05 -2.076145E+05 -2.139511E+06 -1.634452E+05 -8.499115E+03
       196  23 -5.432729E+06 -7.175916E+05 -3.482019E+05 -2.101063E+06 -3.531805E+05 -7.908870E+04
       196  24 -5.611598E+06 -1.402159E+06 -8.292574E+05 -1.907798E+06 -5.302121E+05 -1.832195E+05
       196  25 -6.762637E+06 -1.173965E+06 -5.163957E+05 -2.393902E+06 -1.533721E+05 -4.712590E+03
       196  26 -6.629764E+06 -1.232022E+06 -6.735668E+05 -2.491839E+06 -3.614466E+05 -8.216480E+04
       196  27 -6.768870E+06 -2.049750E+06 -1.186357E+06 -2.434795E+06 -5.568122E+05 -1.930708E+05
       197   1 -1.216709E+06 -1.607605E+05 -1.195089E+05  7.486260E+03  1.009492E+05  1.410020E+04
       197   2 -1.161433E+06 -3.037198E+05 -1.919799E+05 -4.428797E+03  7.450765E+04  4.231180E+04
       197   3 -1.058621E+06 -2.761296E+05 -2.043203E+05 -6.521510E+04  4.815708E+04  4.126539E+04
       197   4  2.393707E+04  1.480927E+05  1.854022E+05 -4.285046E+04  1.268443E+05  1.417624E+04
       197   5 -1.293318E+03 -1.687258E+04  8.178259E+04 -1.817834E+04  8.279908E+04  4.232754E+04
       197   6  2.397388E+04 -8.406690E+03  5.043624E+04 -4.236931E+04  3.884979E+04  4.124199E+04
       197   7  1.265993E+06  4.568420E+05  4.902040E+05 -9.328920E+04  1.527908E+05  1.424800E+04
       197   8  1.160087E+06  2.698791E+05  3.554526E+05 -3.195460E+04  9.110584E+04  4.234290E+04
       197   9  1.107650E+06  2.592344E+05  3.051128E+05 -1.948393E+04  2.952629E+04  4.121793E+04
       197  10 -1.216720E+06 -1.607635E+05 -1.195285E+05  7.485113E+03 -2.246744E-09  7.576264E-10
       197  11 -1.161440E+06 -3.037232E+05 -1.919937E+05 -4.431338E+03 -2.722751E-09 -1.898112E-09
       197  12 -1.058624E+06 -2.761321E+05 -2.043279E+05 -6.521670E+04 -2.811812E-09 -1.106243E-10
       197  13  2.391974E+04  1.480882E+05  1.853716E+05 -4.285190E+04 -1.068693E-09  7.516443E-12
       197  14 -1.301160E+03 -1.687635E+04  8.176634E+04 -1.818116E+04  3.276204E-10 -4.629038E-09
       197  15  2.397181E+04 -8.408922E+03  5.043020E+04 -4.237060E+04  2.389197E-09  8.830097E-11
       197  16  1.265968E+06  4.568356E+05  4.901599E+05 -9.329095E+04  1.490198E-09 -7.633760E-10
       197  17  1.160077E+06  2.698750E+05  3.554336E+05 -3.195770E+04  3.527317E-09 -1.388721E-09
       197  18  1.107648E+06  2.592324E+05  3.051080E+05 -1.948491E+04  1.220591E-09 -7.834562E-10
       197  19 -1.216709E+06 -1.607605E+05 -1.195089E+05  7.486260E+03 -1.009492E+05 -1.410020E+04
       197  20 -1.161433E+06 -3.037198E+05 -1.919799E+05 -4.428797E+03 -7.450765E+04 -4.231180E+04
       197  21 -1.058621E+06 -2.761296E+05 -2.043203E+05 -6.521510E+04 -4.815708E+04 -4.126539E+04
       197  22  2.393707E+04  1.480927E+05  1.854022E+05 -4.285046E+04 -1.268443E+05 -1.417624E+04
       197  23 -1.293318E+03 -1.687258E+04  8.178259E+04 -1.817834E+04 -8.279908E+04 -4.232754E+04
       197  24  2.397388E+04 -8.406690E+03  5.043624E+04 -4.236931E+04 -3.884979E+04 -4.124199E+04
       197  25  1.265993E+06  4.568420E+05  4.902040E+05 -9.328920E+04 -1.527908E+05 -1.424800E+04
       197  26  1.160087E+06  2.698791E+05  3.554526E+05 -3.195460E+04 -9.110584E+04 -4.234290E+04
       197  27  1.107650E+06  2.592344E+05  3.051128E+05 -1.948393E+04 -2.952629E+04 -4.121793E+04
       198   1 -9.801624E+05 -2.328150E+05 -1.940530E+05 -3.980648E+04  3.158021E+04  3.532210E+04
       198   2 -9.046541E+05 -2.282600E+05 -1.947880E+05 -1.789743E+04  2.189853E+04  3.372185E+04
       198   3 -8.230929E+05 -2.079724E+05 -1.850969E+05 -4.527290E+04  1.221360E+04  3.035980E+04
       198   4  1.418379E+04  1.314454E+04  4.089675E+04 -4.261531E+04  3.119371E+04  3.531736E+04
       198   5  1.108738E+04 -1.834543E+03  2.110817E+04 -1.796385E+04  2.044076E+04  3.371639E+04
       198   6  1.421683E+04 -9.075580E+02  1.247829E+04 -4.259209E+04  9.685772E+03  3.035471E+04
       198   7  1.009440E+06  2.590332E+05  2.757780E+05 -4.542906E+04  3.080657E+04  3.531263E+04
       198   8  9.276010E+05  2.245309E+05  2.369465E+05 -1.803063E+04  1.898082E+04  3.371093E+04
       198   9  8.521718E+05  2.061071E+05  2.100051E+05 -3.990777E+04  7.154543E+03  3.034960E+04
       198  10 -9.801638E+05 -2.328166E+05 -1.940572E+05 -3.980738E+04  4.573053E-11 -6.910023E-10
       198  11 -9.046549E+05 -2.282613E+05 -1.947910E+05 -1.789802E+04  6.559292E-10  1.481565E-09
       198  12 -8.230933E+05 -2.079734E+05 -1.850989E+05 -4.527320E+04 -2.341481E-10 -3.999625E-10
       198  13  1.418241E+04  1.314294E+04  4.089258E+04 -4.261620E+04  1.075351E-09 -2.181522E-10
       198  14  1.108662E+04 -1.835876E+03  2.110525E+04 -1.796440E+04  2.292354E-09 -5.621803E-10
       198  15  1.421648E+04 -9.085726E+02  1.247638E+04 -4.259233E+04  1.651431E-09 -1.037031E-09
       198  16  1.009439E+06  2.590316E+05  2.757739E+05 -4.542994E+04  2.037613E-09  6.697682E-10
       198  17  9.276003E+05  2.245296E+05  2.369437E+05 -1.803115E+04 -1.016966E-10 -2.919677E-09
       198  18  8.521715E+05  2.061061E+05  2.100032E+05 -3.990794E+04 -1.876149E-09 -9.498963E-10
       198  19 -9.801624E+05 -2.328150E+05 -1.940530E+05 -3.980648E+04 -3.158021E+04 -3.532210E+04
       198  20 -9.046541E+05 -2.282600E+05 -1.947880E+05 -1.789743E+04 -2.189853E+04 -3.372185E+04
       198  21 -8.230929E+05 -2.079724E+05 -1.850969E+05 -4.527290E+04 -1.221360E+04 -3.035980E+04
       198  22  1.418379E+04  1.314454E+04  4.089675E+04 -4.261531E+04 -3.119371E+04 -3.531736E+04
       198  23  1.108738E+04 -1.834543E+03  2.110817E+04 -1.796385E+04 -2.044076E+04 -3.371639E+04
       198  24  1.421683E+04 -9.075580E+02  1.247829E+04 -4.259209E+04 -9.685772E+03 -3.035471E+04
       198  25  1.009440E+06  2.590332E+05  2.757780E+05 -4.542906E+04 -3.080657E+04 -3.531263E+04
       198  26  9.276010E+05  2.245309E+05  2.369465E+05 -1.803063E+04 -1.898082E+04 -3.371093E+04
       198  27  8.521718E+05  2.061071E+05  2.100051E+05 -3.990777E+04 -7.154543E+03 -3.034960E+04
       199   1 -7.360939E+05 -1.841885E+05 -1.667381E+05 -4.281171E+04  9.721750E+03  2.808658E+04
       199   2 -6.581659E+05 -1.660979E+05 -1.528055E+05 -1.817081E+04  7.143723E+03  2.470265E+04
       199   3 -5.791229E+05 -1.465690E+05 -1.367442E+05 -4.284272E+04  4.561107E+03  2.121349E+04
       199   4  1.311865E+04  1.002948E+03  9.677603E+03 -4.260578E+04  7.732062E+03  2.808288E+04
       199   5  1.257148E+04 -2.774145E+02  5.295640E+03 -1.795071E+04  5.087935E+03  2.470006E+04
       199   6  1.314305E+04 -1.089521E+02  3.086431E+03 -4.260516E+04  2.439540E+03  2.121207E+04
       199   7  7.628481E+05  1.861543E+05  1.860547E+05 -4.239968E+04  5.739981E+03  2.807919E+04
       199   8  6.837230E+05  1.655109E+05  1.633658E+05 -1.773040E+04  3.029935E+03  2.469747E+04
       199   9  6.057317E+05  1.463260E+05  1.428928E+05 -4.236736E+04  3.159584E+02  2.121066E+04
       199  10 -7.360942E+05 -1.841894E+05 -1.667398E+05 -4.281193E+04  7.849997E-10  4.770826E-10
       199  11 -6.581661E+05 -1.660985E+05 -1.528068E+05 -1.817095E+04 -7.789369E-11  2.368903E-10
       199  12 -5.791230E+05 -1.465695E+05 -1.367451E+05 -4.284280E+04 -5.721311E-10  2.951729E-11
       199  13  1.311837E+04  1.002085E+03  9.676009E+03 -4.260596E+04 -1.076262E-09 -4.419025E-10
       199  14  1.257128E+04 -2.780766E+02  5.294445E+03 -1.795081E+04 -2.271971E-09  3.471157E-10
       199  15  1.314293E+04 -1.094369E+02  3.085575E+03 -4.260520E+04  6.808722E-10  2.792925E-10
       199  16  7.628479E+05  1.861535E+05  1.860532E+05 -4.239981E+04 -3.711499E-11 -4.749597E-10
       199  17  6.837228E+05  1.655102E+05  1.633646E+05 -1.773046E+04  9.414699E-10 -2.100874E-10
       199  18  6.057316E+05  1.463255E+05  1.428920E+05 -4.236736E+04  6.515529E-10 -1.796335E-10
       199  19 -7.360939E+05 -1.841885E+05 -1.667381E+05 -4.281171E+04 -9.721750E+03 -2.808658E+04
       199  20 -6.581659E+05 -1.660979E+05 -1.528055E+05 -1.817081E+04 -7.143723E+03 -2.470265E+04
       199  21 -5.791229E+05 -1.465690E+05 -1.367442E+05 -4.284272E+04 -4.561107E+03 -2.121349E+04
       199  22  1.311865E+04  1.002948E+03  9.677603E+03 -4.260578E+04 -7.732062E+03 -2.808288E+04
       199  23  1.257148E+04 -2.774145E+02  5.295640E+03 -1.795071E+04 -5.087935E+03 -2.470006E+04
       199  24  1.314305E+04 -1.089521E+02  3.086431E+03 -4.260516E+04 -2.439540E+03 -2.121207E+04
       199  25  7.628481E+05  1.861543E+05  1.860547E+05 -4.239968E+04 -5.739981E+03 -2.807919E+04
       199  26  6.837230E+05  1.655109E+05  1.633658E+05 -1.773040E+04 -3.029935E+03 -2.469747E+04
       199  27  6.057317E+05  1.463260E+05  1.428928E+05 -4.236736E+04 -3.159584E+02 -2.121066E+04
       200   1 -4.912165E+05 -1.245473E+05 -1.162611E+05 -4.258957E+04  4.040404E+03  1.916418E+04
       200   2 -4.128574E+05 -1.052771E+05 -9.905412E+04 -1.788985E+04  3.410182E+03  1.567534E+04
       200   3 -3.342603E+05 -8.584677E+04 -8.137324E+04 -4.248252E+04  2.777133E+03  1.218071E+04
       200   4  1.297156E+04  3.905760E+01  2.336113E+03 -4.260106E+04  1.951052E+03  1.916342E+04
       200   5  1.286290E+04 -4.590030E+01  1.278102E+03 -1.795590E+04  1.316763E+03  1.567531E+04
       200   6  1.298705E+04  3.035079E+01  6.968227E+02 -4.260107E+04  6.797272E+02  1.218144E+04
       200   7  5.173937E+05  1.246073E+05  1.209159E+05 -4.261253E+04 -1.399877E+02  1.916265E+04
       200   8  4.387500E+05  1.051724E+05  1.015979E+05 -1.802199E+04 -7.780830E+02  1.567528E+04
       200   9  3.603453E+05  8.589883E+04  8.275855E+04 -4.271966E+04 -1.418846E+03  1.218217E+04
       200  10 -4.912167E+05 -1.245477E+05 -1.162618E+05 -4.258964E+04 -6.878407E-10 -9.227764E-11
       200  11 -4.128575E+05 -1.052774E+05 -9.905461E+04 -1.788989E+04  2.194280E-09 -1.615662E-10
       200  12 -3.342603E+05 -8.584693E+04 -8.137353E+04 -4.248255E+04  1.218750E-09 -6.157885E-10
       200  13  1.297146E+04  3.866222E+01  2.335415E+03 -4.260109E+04  1.073111E-09  2.700249E-11
       200  14  1.286283E+04 -4.616462E+01  1.277637E+03 -1.795592E+04 -1.002320E-09 -1.057954E-09
       200  15  1.298701E+04  3.019132E+01  6.965430E+02 -4.260107E+04 -1.361932E-09 -1.412491E-09
       200  16  5.173936E+05  1.246069E+05  1.209152E+05 -4.261253E+04  8.433149E-10 -5.202184E-10
       200  17  4.387499E+05  1.051721E+05  1.015974E+05 -1.802198E+04  4.928241E-10 -1.033501E-09
       200  18  3.603453E+05  8.589867E+04  8.275827E+04 -4.271965E+04 -6.729076E-10 -1.717197E-09
       200  19 -4.912165E+05 -1.245473E+05 -1.162611E+05 -4.258957E+04 -4.040404E+03 -1.916418E+04
       200  20 -4.128574E+05 -1.052771E+05 -9.905412E+04 -1.788985E+04 -3.410182E+03 -1.567534E+04
       200  21 -3.342603E+05 -8.584677E+04 -8.137324E+04 -4.248252E+04 -2.777133E+03 -1.218071E+04
       200  22  1.297156E+04  3.905760E+01  2.336113E+03 -4.260106E+04 -1.951052E+03 -1.916342E+04
       200  23  1.286290E+04 -4.590030E+01  1.278102E+03 -1.795590E+04 -1.316763E+03 -1.567531E+04
       200  24  1.298705E+04  3.035079E+01  6.968227E+02 -4.260107E+04 -6.797272E+02 -1.218144E+04
       200  25  5.173937E+05  1.246073E+05  1.209159E+05 -4.261253E+04  1.399877E+02 -1.916265E+04
       200  26  4.387500E+05  1.051724E+05  1.015979E+05 -1.802199E+04  7.780830E+02 -1.567528E+04
       200  27  3.603453E+05  8.589883E+04  8.275855E+04 -4.271966E+04  1.418846E+03 -1.218217E+04
       201   1 -2.462322E+05 -6.397529E+04 -6.036100E+04 -4.249652E+04  2.668028E+03  1.014530E+04
       201   2 -1.677380E+05 -4.463976E+04 -4.243134E+04 -1.787776E+04  2.591095E+03  6.651351E+03
       201   3 -8.927399E+04 -2.525500E+04 -2.445275E+04 -4.253974E+04  2.512990E+03  3.160481E+03
       201   4  1.294155E+04  3.468605E+01  4.779489E+02 -4.259874E+04  5.714000E+02  1.014639E+04
       201   5  1.296238E+04  1.989107E+01  1.491066E+02 -1.795881E+04  4.961708E+02  6.652744E+03
       201   6  1.294813E+04  5.471748E+01 -1.313959E+02 -4.259874E+04  4.197790E+02  3.162202E+03
       201   7  2.721772E+05  6.403989E+04  6.131232E+04 -4.270099E+04 -1.526098E+03  1.014748E+04
       201   8  1.936928E+05  4.467721E+04  4.272732E+04 -1.803988E+04 -1.599360E+03  6.654137E+03
       201   9  1.151798E+05  2.536368E+04  2.418924E+04 -4.265774E+04 -1.673775E+03  3.163922E+03
       201  10 -2.462323E+05 -6.397541E+04 -6.036121E+04 -4.249654E+04  5.816220E-09  2.599052E-10
       201  11 -1.677380E+05 -4.463981E+04 -4.243144E+04 -1.787777E+04  6.110084E-10  1.939405E-09
       201  12 -8.927400E+04 -2.525501E+04 -2.445278E+04 -4.253974E+04 -5.150337E-09  5.098520E-10
       201  13  1.294153E+04  3.457541E+01  4.777549E+02 -4.259874E+04 -6.045384E-12  6.700528E-10
       201  14  1.296237E+04  1.984347E+01  1.490229E+02 -1.795881E+04 -3.680845E-10  2.579930E-09
       201  15  1.294812E+04  5.470670E+01 -1.314150E+02 -4.259874E+04 -2.894784E-10 -6.213580E-10
       201  16  2.721772E+05  6.403978E+04  6.131212E+04 -4.270098E+04 -5.484262E-09 -2.192401E-10
       201  17  1.936928E+05  4.467716E+04  4.272724E+04 -1.803987E+04 -2.506937E-09  2.358185E-09
       201  18  1.151798E+05  2.536367E+04  2.418922E+04 -4.265774E+04  4.875191E-09  3.867554E-10
       201  19 -2.462322E+05 -6.397529E+04 -6.036100E+04 -4.249652E+04 -2.668028E+03 -1.014530E+04
       201  20 -1.677380E+05 -4.463976E+04 -4.243134E+04 -1.787776E+04 -2.591095E+03 -6.651351E+03
       201  21 -8.927399E+04 -2.525500E+04 -2.445275E+04 -4.253974E+04 -2.512990E+03 -3.160481E+03
       201  22  1.294155E+04  3.468605E+01  4.779489E+02 -4.259874E+04 -5.714000E+02 -1.014639E+04
       201  23  1.296238E+04  1.989107E+01  1.491066E+02 -1.795881E+04 -4.961708E+02 -6.652744E+03
       201  24  1.294813E+04  5.471748E+01 -1.313959E+02 -4.259874E+04 -4.197790E+02 -3.162202E+03
       201  25  2.721772E+05  6.403989E+04  6.131232E+04 -4.270099E+04  1.526098E+03 -1.014748E+04
       201  26  1.936928E+05  4.467721E+04  4.272732E+04 -1.803988E+04  1.599360E+03 -6.654137E+03
       201  27  1.151798E+05  2.536368E+04  2.418924E+04 -4.265774E+04  1.673775E+03 -3.163922E+03
       202   1 -1.213501E+03 -3.370318E+03 -3.375909E+03 -4.262920E+04  2.564566E+03  1.119285E+03
       202   2  7.735356E+04  1.595341E+04  1.450810E+04 -1.800002E+04  2.855312E+03 -2.370068E+03
       202   3  1.557667E+05  3.514281E+04  3.214884E+04 -4.264858E+04  3.146553E+03 -5.803177E+03
       202   4  1.292158E+04  7.574047E+01 -2.802623E+02 -4.259829E+04  4.541301E+02  1.121089E+03
       202   5  1.300374E+04  5.175205E+01 -6.536137E+02 -1.795934E+04  7.784524E+02 -2.368417E+03
       202   6  1.291924E+04 -1.123006E+02 -1.293582E+03 -4.259844E+04  1.103233E+03 -5.801653E+03
       202   7  2.705685E+04  3.521788E+03  2.815389E+03 -4.256737E+04 -1.656353E+03  1.122893E+03
       202   8 -5.134226E+04 -1.585020E+04 -1.581559E+04 -1.791865E+04 -1.298194E+03 -2.366765E+03
       202   9 -1.299094E+05 -3.536886E+04 -3.473737E+04 -4.254830E+04 -9.396206E+02 -5.800128E+03
       202  10 -1.213508E+03 -3.370321E+03 -3.375924E+03 -4.262920E+04 -1.182057E-09 -1.622139E-11
       202  11  7.735355E+04  1.595340E+04  1.450807E+04 -1.800002E+04 -1.112553E-09 -1.213288E-09
       202  12  1.557667E+05  3.514277E+04  3.214875E+04 -4.264857E+04 -2.540760E-09  1.081481E-09
       202  13  1.292158E+04  7.573906E+01 -2.802651E+02 -4.259829E+04  3.641459E-12 -1.504243E-09
       202  14  1.300374E+04  5.174587E+01 -6.536253E+02 -1.795934E+04  7.443996E-10 -2.097299E-09
       202  15  1.291923E+04 -1.123371E+02 -1.293647E+03 -4.259843E+04  2.667141E-09  8.047014E-10
       202  16  2.705685E+04  3.521785E+03  2.815381E+03 -4.256737E+04  8.565508E-10 -2.672666E-11
       202  17 -5.134226E+04 -1.585020E+04 -1.581561E+04 -1.791866E+04  2.664165E-11 -1.849319E-09
       202  18 -1.299094E+05 -3.536890E+04 -3.473744E+04 -4.254831E+04  3.829690E-09 -2.986916E-10
       202  19 -1.213501E+03 -3.370318E+03 -3.375909E+03 -4.262920E+04 -2.564566E+03 -1.119285E+03
       202  20  7.735356E+04  1.595341E+04  1.450810E+04 -1.800002E+04 -2.855312E+03  2.370068E+03
       202  21  1.557667E+05  3.514281E+04  3.214884E+04 -4.264858E+04 -3.146553E+03  5.803177E+03
       202  22  1.292158E+04  7.574047E+01 -2.802623E+02 -4.259829E+04 -4.541301E+02 -1.121089E+03
       202  23  1.300374E+04  5.175205E+01 -6.536137E+02 -1.795934E+04 -7.784524E+02  2.368417E+03
       202  24  1.291924E+04 -1.123006E+02 -1.293582E+03 -4.259844E+04 -1.103233E+03  5.801653E+03
       202  25  2.705685E+04  3.521788E+03  2.815389E+03 -4.256737E+04  1.656353E+03 -1.122893E+03
       202  26 -5.134226E+04 -1.585020E+04 -1.581559E+04 -1.791865E+04  1.298194E+03  2.366765E+03
       202  27 -1.299094E+05 -3.536886E+04 -3.473737E+04 -4.254830E+04  9.396206E+02  5.800128E+03
       203   1  2.437527E+05  5.727078E+04  5.293917E+04 -4.301582E+04  3.691555E+03 -7.960127E+03
       203   2  3.225823E+05  7.667845E+04  6.998274E+04 -1.794041E+04  4.617085E+03 -1.137294E+04
       203   3  4.007950E+05  9.402202E+04  8.590909E+04 -4.212026E+04  5.544996E+03 -1.385279E+04
       203   4  1.278758E+04  1.594053E+02 -1.685056E+03 -4.259333E+04  1.363119E+03 -7.958612E+03
       203   5  1.314208E+04  2.224213E+02 -2.920284E+03 -1.796540E+04  2.847880E+03 -1.137233E+04
       203   6  1.277636E+04 -1.875980E+03 -5.661277E+03 -4.259431E+04  4.334906E+03 -1.385286E+04
       203   7 -2.181285E+05 -5.695580E+04 -5.631296E+04 -4.217099E+04 -9.644552E+02 -7.957099E+03
       203   8 -2.962101E+05 -7.624044E+04 -7.582989E+04 -1.799036E+04  1.079551E+03 -1.137172E+04
       203   9 -3.751039E+05 -9.778475E+04 -9.724204E+04 -4.306804E+04  3.125567E+03 -1.385294E+04
       203  10  2.437527E+05  5.727071E+04  5.293903E+04 -4.301579E+04  4.788065E-10  6.043771E-10
       203  11  3.225822E+05  7.667830E+04  6.998246E+04 -1.794036E+04  1.562731E-09 -3.013920E-10
       203  12  4.007949E+05  9.402180E+04  8.590868E+04 -4.212019E+04 -5.409326E-10 -1.772844E-09
       203  13  1.278756E+04  1.593367E+02 -1.685179E+03 -4.259332E+04  3.229399E-09  9.236865E-10
       203  14  1.314204E+04  2.222803E+02 -2.920542E+03 -1.796537E+04  1.751810E-09 -2.721378E-10
       203  15  1.277629E+04 -1.876191E+03 -5.661673E+03 -4.259426E+04  1.603999E-09 -7.941350E-10
       203  16 -2.181286E+05 -5.695586E+04 -5.631308E+04 -4.217099E+04  1.419533E-09  4.673876E-10
       203  17 -2.962101E+05 -7.624058E+04 -7.583014E+04 -1.799035E+04 -1.932334E-09  3.586442E-10
       203  18 -3.751039E+05 -9.778495E+04 -9.724242E+04 -4.306800E+04  1.862892E-10 -9.627674E-11
       203  19  2.437527E+05  5.727078E+04  5.293917E+04 -4.301582E+04 -3.691555E+03  7.960127E+03
       203  20  3.225823E+05  7.667845E+04  6.998274E+04 -1.794041E+04 -4.617085E+03  1.137294E+04
       203  21  4.007950E+05  9.402202E+04  8.590909E+04 -4.212026E+04 -5.544996E+03  1.385279E+04
       203  22  1.278758E+04  1.594053E+02 -1.685056E+03 -4.259333E+04 -1.363119E+03  7.958612E+03
       203  23  1.314208E+04  2.224213E+02 -2.920284E+03 -1.796540E+04 -2.847880E+03  1.137233E+04
       203  24  1.277636E+04 -1.875980E+03 -5.661277E+03 -4.259431E+04 -4.334906E+03  1.385286E+04
       203  25 -2.181285E+05 -5.695580E+04 -5.631296E+04 -4.217099E+04  9.644552E+02  7.957099E+03
       203  26 -2.962101E+05 -7.624044E+04 -7.582989E+04 -1.799036E+04 -1.079551E+03  1.137172E+04
       203  27 -3.751039E+05 -9.778475E+04 -9.724204E+04 -4.306804E+04 -3.125567E+03  1.385294E+04
       204   1  4.877937E+05  1.187617E+05  1.050727E+05 -4.552202E+04  1.131826E+04 -1.792684E+04
       204   2  5.689523E+05  1.391520E+05  1.192873E+05 -1.583514E+04  8.163060E+03 -2.007097E+04
       204   3  6.451984E+05  1.372156E+05  1.300256E+05 -3.495299E+04  5.004717E+03 -6.770034E+03
       204   4  1.146490E+04  1.113448E+03 -6.973256E+03 -4.249452E+04  5.390569E+03 -1.792596E+04
       204   5  1.472086E+04  2.210884E+03 -1.138239E+04 -1.808890E+04  1.150523E+04 -2.007220E+04
       204   6  1.144505E+04 -2.063765E+04 -2.570745E+04 -4.249115E+04  1.761692E+04 -6.767203E+03
       204   7 -4.646551E+05 -1.165509E+05 -1.190347E+05 -3.946933E+04 -5.326024E+02 -1.792515E+04
       204   8 -5.392282E+05 -1.347522E+05 -1.420732E+05 -2.034063E+04  1.484443E+04 -2.007345E+04
       204   9 -6.219425E+05 -1.785205E+05 -1.814694E+05 -5.002161E+04  3.021627E+04 -6.764678E+03
       204  10  4.877935E+05  1.187613E+05  1.050719E+05 -4.552186E+04 -2.927137E-09 -1.065961E-09
       204  11  5.689522E+05  1.391516E+05  1.192864E+05 -1.583501E+04  1.295554E-09  1.128396E-09
       204  12  6.451984E+05  1.372156E+05  1.300255E+05 -3.495296E+04 -6.571331E-11  7.686542E-10
       204  13  1.146478E+04  1.113096E+03 -6.973914E+03 -4.249444E+04 -2.163929E-09  1.401133E-11
       204  14  1.472061E+04  2.210416E+03 -1.138339E+04 -1.808871E+04 -1.985401E-11  6.869571E-10
       204  15  1.144471E+04 -2.063778E+04 -2.570812E+04 -4.249105E+04  2.432961E-09  2.108363E-10
       204  16 -4.646552E+05 -1.165512E+05 -1.190353E+05 -3.946934E+04  1.123935E-09  1.308106E-10
       204  17 -5.392286E+05 -1.347527E+05 -1.420744E+05 -2.034039E+04 -2.062834E-09  2.720879E-10
       204  18 -6.219435E+05 -1.785208E+05 -1.814712E+05 -5.002145E+04 -3.099824E-10  3.535364E-10
       204  19  4.877937E+05  1.187617E+05  1.050727E+05 -4.552202E+04 -1.131826E+04  1.792684E+04
       204  20  5.689523E+05  1.391520E+05  1.192873E+05 -1.583514E+04 -8.163060E+03  2.007097E+04
       204  21  6.451984E+05  1.372156E+05  1.300256E+05 -3.495299E+04 -5.004717E+03  6.770034E+03
       204  22  1.146490E+04  1.113448E+03 -6.973256E+03 -4.249452E+04 -5.390569E+03  1.792596E+04
       204  23  1.472086E+04  2.210884E+03 -1.138239E+04 -1.808890E+04 -1.150523E+04  2.007220E+04
       204  24  1.144505E+04 -2.063765E+04 -2.570745E+04 -4.249115E+04 -1.761692E+04  6.767203E+03
       204  25 -4.646551E+05 -1.165509E+05 -1.190347E+05 -3.946933E+04  5.326024E+02  1.792515E+04
       204  26 -5.392282E+05 -1.347522E+05 -1.420732E+05 -2.034063E+04 -1.484443E+04  2.007345E+04
       204  27 -6.219425E+05 -1.785205E+05 -1.814694E+05 -5.002161E+04 -3.021627E+04  6.764678E+03
       205   1  8.972556E+05  2.796965E+06  8.639501E+05 -9.518110E+05  3.442353E+04  2.452723E+05
       205   2  6.150793E+05  1.937816E+06  5.357345E+05 -8.392327E+05  1.060430E+05  7.734786E+04
       205   3  3.990366E+05  1.116534E+06  3.329379E+05 -8.994924E+05  9.725474E+04 -9.062529E+04
       205   4  7.656631E+04 -5.215684E+05  7.718969E+04 -8.941723E+05  3.549691E+04  4.485249E+04
       205   5  2.404653E+04 -5.269808E+05  4.481031E+04 -8.079184E+05  1.063850E+05  2.233551E+04
       205   6  1.265865E+04 -5.202362E+05  3.722956E+04 -8.945085E+05  9.673228E+04 -4.645604E+02
       205   7 -7.448827E+05 -3.829921E+06 -7.101861E+05 -8.368226E+05  3.653672E+04 -1.545056E+05
       205   8 -5.673537E+05 -2.985975E+06 -4.464063E+05 -7.767194E+05  1.067224E+05 -3.246347E+04
       205   9 -3.738649E+05 -2.154383E+06 -2.585535E+05 -8.895327E+05  9.621039E+04  8.946537E+04
       205  10  8.972383E+05  2.796901E+06  8.638352E+05 -9.518178E+05  1.110137E-09 -2.633301E-08
       205  11  6.150657E+05  1.937807E+06  5.357021E+05 -8.392393E+05 -1.011773E-09 -4.009633E-09
       205  12  3.990242E+05  1.116523E+06  3.329048E+05 -8.994853E+05 -3.053914E-10  2.770973E-08
       205  13  7.656441E+04 -5.215709E+05  7.718353E+04 -8.941735E+05  2.858576E-09  4.022288E-09
       205  14  2.403424E+04 -5.269844E+05  4.478809E+04 -8.079203E+05  6.920404E-10  1.220338E-10
       205  15  1.264860E+04 -5.202387E+05  3.721198E+04 -8.945085E+05  1.580330E-09  2.854672E-09
       205  16 -7.448906E+05 -3.829947E+06 -7.102337E+05 -8.368181E+05 -2.798909E-10  2.599028E-08
       205  17 -5.673662E+05 -2.985979E+06 -4.464297E+05 -7.767166E+05  2.884703E-09 -6.845571E-10
       205  18 -3.738770E+05 -2.154394E+06 -2.585860E+05 -8.895397E+05 -2.041529E-09 -2.520624E-08
       205  19  8.972556E+05  2.796965E+06  8.639501E+05 -9.518110E+05 -3.442353E+04 -2.452723E+05
       205  20  6.150793E+05  1.937816E+06  5.357345E+05 -8.392327E+05 -1.060430E+05 -7.734786E+04
       205  21  3.990366E+05  1.116534E+06  3.329379E+05 -8.994924E+05 -9.725474E+04  9.062529E+04
       205  22  7.656631E+04 -5.215684E+05  7.718969E+04 -8.941723E+05 -3.549691E+04 -4.485249E+04
       205  23  2.404653E+04 -5.269808E+05  4.481031E+04 -8.079184E+05 -1.063850E+05 -2.233551E+04
       205  24  1.265865E+04 -5.202362E+05  3.722956E+04 -8.945085E+05 -9.673228E+04  4.645604E+02
       205  25 -7.448827E+05 -3.829921E+06 -7.101861E+05 -8.368226E+05 -3.653672E+04  1.545056E+05
       205  26 -5.673537E+05 -2.985975E+06 -4.464063E+05 -7.767194E+05 -1.067224E+05  3.246347E+04
       205  27 -3.738649E+05 -2.154383E+06 -2.585535E+05 -8.895327E+05 -9.621039E+04 -8.946537E+04
       206   1  2.708687E+05  5.701912E+05  2.349593E+05 -9.043694E+05  6.576591E+04 -9.085689E+04
       206   2  7.149198E+04 -2.719350E+05  9.215844E+04 -8.056677E+05  1.869718E+04 -1.180932E+05
       206   3 -1.123483E+05 -1.107884E+06 -2.958817E+04 -8.848991E+05 -2.947406E+04 -1.453095E+05
       206   4  1.315326E+04 -5.215162E+05  3.843940E+04 -8.956127E+05  6.525569E+04 -6.796522E+03
       206   5  1.268109E+04 -5.240054E+05  5.015708E+04 -8.066083E+05  1.816900E+04 -3.209265E+04
       206   6  2.743567E+04 -5.213658E+05  8.156197E+04 -8.955294E+05 -3.002096E+04 -5.740309E+04
       206   7 -2.446248E+05 -1.612048E+06 -1.581002E+05 -8.868694E+05  6.474726E+04  7.712027E+04
       206   8 -4.612912E+04 -7.759971E+05  8.181583E+03 -8.075484E+05  1.764042E+04  5.387415E+04
       206   9  1.672040E+05  6.550207E+04  1.927260E+05 -9.061694E+05 -3.057055E+04  3.058445E+04
       206  10  2.708619E+05  5.701812E+05  2.349357E+05 -9.043646E+05  7.943552E-10  9.157746E-09
       206  11  7.148787E+04 -2.719500E+05  9.213158E+04 -8.056659E+05  9.214244E-10 -1.484951E-08
       206  12 -1.123550E+05 -1.107907E+06 -2.962958E+04 -8.849026E+05  1.377948E-09 -2.475656E-08
       206  13  1.314868E+04 -5.215174E+05  3.843132E+04 -8.956123E+05  6.692112E-10  5.276718E-09
       206  14  1.268046E+04 -5.240066E+05  5.015452E+04 -8.066078E+05 -4.327857E-09 -1.765672E-10
       206  15  2.743381E+04 -5.213695E+05  8.155407E+04 -8.955308E+05 -2.312288E-09  2.598618E-09
       206  16 -2.446309E+05 -1.612055E+06 -1.581194E+05 -8.868734E+05 -1.129493E-09 -8.897192E-09
       206  17 -4.613024E+04 -7.760003E+05  8.175532E+03 -8.075492E+05 -3.878710E-09  8.945965E-09
       206  18  1.672028E+05  6.550082E+04  1.927224E+05 -9.061687E+05 -4.981735E-12  2.640758E-08
       206  19  2.708687E+05  5.701912E+05  2.349593E+05 -9.043694E+05 -6.576591E+04  9.085689E+04
       206  20  7.149198E+04 -2.719350E+05  9.215844E+04 -8.056677E+05 -1.869718E+04  1.180932E+05
       206  21 -1.123483E+05 -1.107884E+06 -2.958817E+04 -8.848991E+05  2.947406E+04  1.453095E+05
       206  22  1.315326E+04 -5.215162E+05  3.843940E+04 -8.956127E+05 -6.525569E+04  6.796522E+03
       206  23  1.268109E+04 -5.240054E+05  5.015708E+04 -8.066083E+05 -1.816900E+04  3.209265E+04
       206  24  2.743567E+04 -5.213658E+05  8.156197E+04 -8.955294E+05  3.002096E+04  5.740309E+04
       206  25 -2.446248E+05 -1.612048E+06 -1.581002E+05 -8.868694E+05 -6.474726E+04 -7.712027E+04
       206  26 -4.612912E+04 -7.759971E+05  8.181583E+03 -8.075484E+05 -1.764042E+04 -5.387415E+04
       206  27  1.672040E+05  6.550207E+04  1.927260E+05 -9.061694E+05  3.057055E+04 -3.058445E+04
       207   1 -2.424362E+05 -1.639507E+06 -1.043017E+05 -9.041672E+05 -6.161257E+04 -1.643525E+05
       207   2 -3.793424E+05 -2.495782E+06 -2.091847E+05 -6.963990E+05 -7.908220E+04 -1.365582E+05
       207   3 -3.446031E+05 -3.313290E+06 -2.896232E+05 -6.621311E+05 -2.748845E+04 -1.085251E+05
       207   4  2.556520E+04 -5.094870E+05  1.050815E+05 -8.946974E+05 -6.218079E+04 -7.151256E+04
       207   5  9.328674E+04 -5.396726E+05  1.873595E+05 -8.071599E+05 -7.885882E+04 -1.678755E+05
       207   6  3.538857E+05 -5.104684E+05  3.802492E+05 -8.929373E+05 -2.658434E+04 -2.639729E+05
       207   7  2.934985E+05  6.217918E+05  3.144437E+05 -8.852072E+05 -6.274551E+04  2.149242E+04
       207   8  5.657209E+05  1.420117E+06  5.837142E+05 -9.182704E+05 -7.862469E+04 -1.992892E+05
       207   9  1.052009E+06  2.299744E+06  1.049685E+06 -1.124781E+06 -2.556679E+04 -4.201201E+05
       207  10 -2.424476E+05 -1.639537E+06 -1.043598E+05 -9.041754E+05  2.128106E-09  2.663920E-08
       207  11 -3.793541E+05 -2.495804E+06 -2.092317E+05 -6.964077E+05  4.271584E-09  6.701244E-09
       207  12 -3.446071E+05 -3.313303E+06 -2.896469E+05 -6.621335E+05  1.408571E-10 -4.902011E-09
       207  13  2.555967E+04 -5.094936E+05  1.050646E+05 -8.947009E+05  1.945302E-09  4.910022E-09
       207  14  9.327247E+04 -5.397045E+05  1.872947E+05 -8.071706E+05 -1.837247E-09 -2.119316E-11
       207  15  3.538662E+05 -5.105435E+05  3.801168E+05 -8.929429E+05  9.225565E-10  2.857631E-09
       207  16  2.934942E+05  6.217902E+05  3.144355E+05 -8.852061E+05 -1.985941E-09 -2.646521E-08
       207  17  5.657036E+05  1.420073E+06  5.836280E+05 -9.182830E+05  1.764013E-09 -1.133071E-08
       207  18  1.051961E+06  2.299555E+06  1.049353E+06 -1.124789E+06  6.893768E-10  6.726855E-09
       207  19 -2.424362E+05 -1.639507E+06 -1.043017E+05 -9.041672E+05  6.161257E+04  1.643525E+05
       207  20 -3.793424E+05 -2.495782E+06 -2.091847E+05 -6.963990E+05  7.908220E+04  1.365582E+05
       207  21 -3.446031E+05 -3.313290E+06 -2.896232E+05 -6.621311E+05  2.748845E+04  1.085251E+05
       207  22  2.556520E+04 -5.094870E+05  1.050815E+05 -8.946974E+05  6.218079E+04  7.151256E+04
       207  23  9.328674E+04 -5.396726E+05  1.873595E+05 -8.071599E+05  7.885882E+04  1.678755E+05
       207  24  3.538857E+05 -5.104684E+05  3.802492E+05 -8.929373E+05  2.658434E+04  2.639729E+05
       207  25  2.934985E+05  6.217918E+05  3.144437E+05 -8.852072E+05  6.274551E+04 -2.149242E+04
       207  26  5.657209E+05  1.420117E+06  5.837142E+05 -9.182704E+05  7.862469E+04  1.992892E+05
       207  27  1.052009E+06  2.299744E+06  1.049685E+06 -1.124781E+06  2.556679E+04  4.201201E+05
       208   1 -3.169024E+06 -1.202960E+06 -6.596309E+05 -1.115446E+06 -1.981395E+05 -2.550890E+04
       208   2 -2.960838E+06 -1.147769E+06 -5.141863E+05 -1.048213E+06 -1.315343E+05  1.155481E+05
       208   3 -2.728681E+06 -1.108432E+06 -4.422988E+05 -1.024988E+06 -3.692193E+04  1.829191E+05
       208   4 -2.781758E+05 -1.534135E+05  7.784831E+04 -3.613127E+05  3.388336E+04  6.230810E+04
       208   5 -3.065756E+05 -1.878801E+05  3.607812E+04 -3.278581E+05 -2.311020E+04  1.564587E+05
       208   6 -2.864633E+05 -2.136819E+05  1.908013E+04 -3.384113E+05 -5.220342E+04  1.770763E+05
       208   7  2.620860E+06  8.965422E+05  8.148601E+05  3.959547E+05  2.670896E+05  1.505351E+05
       208   8  2.354925E+06  7.725464E+05  5.860141E+05  3.953232E+05  8.581462E+04  1.975508E+05
       208   9  2.162041E+06  6.816537E+05  4.802285E+05  3.507011E+05 -6.755000E+04  1.712090E+05
       208  10 -3.169067E+06 -1.202971E+06 -6.597063E+05 -1.115450E+06  2.575541E-09  7.385113E-10
       208  11 -2.960860E+06 -1.147787E+06 -5.142439E+05 -1.048201E+06  2.707464E-09 -2.753151E-09
       208  12 -2.728692E+06 -1.108468E+06 -4.423642E+05 -1.024982E+06  1.427992E-09 -3.384984E-09
       208  13 -2.781781E+05 -1.534180E+05  7.783885E+04 -3.613144E+05 -1.046799E-09  1.168708E-09
       208  14 -3.065827E+05 -1.879066E+05  3.603111E+04 -3.278552E+05 -3.889233E-09 -1.783675E-09
       208  15 -2.864747E+05 -2.137163E+05  1.901610E+04 -3.384038E+05 -4.732457E-09 -1.837896E-09
       208  16  2.620777E+06  8.964988E+05  8.146841E+05  3.959224E+05 -2.907894E-09  1.151067E-09
       208  17  2.354906E+06  7.725025E+05  5.859271E+05  3.953096E+05 -8.200396E-10  1.040662E-09
       208  18  2.162028E+06  6.816210E+05  4.801648E+05  3.507104E+05 -3.186005E-09 -7.227680E-10
       208  19 -3.169024E+06 -1.202960E+06 -6.596309E+05 -1.115446E+06  1.981395E+05  2.550890E+04
       208  20 -2.960838E+06 -1.147769E+06 -5.141863E+05 -1.048213E+06  1.315343E+05 -1.155481E+05
       208  21 -2.728681E+06 -1.108432E+06 -4.422988E+05 -1.024988E+06  3.692193E+04 -1.829191E+05
       208  22 -2.781758E+05 -1.534135E+05  7.784831E+04 -3.613127E+05 -3.388336E+04 -6.230810E+04
       208  23 -3.065756E+05 -1.878801E+05  3.607812E+04 -3.278581E+05  2.311020E+04 -1.564587E+05
       208  24 -2.864633E+05 -2.136819E+05  1.908013E+04 -3.384113E+05  5.220342E+04 -1.770763E+05
       208  25  2.620860E+06  8.965422E+05  8.148601E+05  3.959547E+05 -2.670896E+05 -1.505351E+05
       208  26  2.354925E+06  7.725464E+05  5.860141E+05  3.953232E+05 -8.581462E+04 -1.975508E+05
       208  27  2.162041E+06  6.816537E+05  4.802285E+05  3.507011E+05  6.755000E+04 -1.712090E+05
       209   1 -2.595722E+06 -1.053322E+06 -4.168419E+05 -9.843766E+05 -4.620817E+04  1.719793E+05
       209   2 -2.405798E+06 -9.611333E+05 -3.744234E+05 -9.073085E+05 -3.685576E+04  1.679841E+05
       209   3 -2.182004E+06 -9.028532E+05 -3.368906E+05 -8.692373E+05 -2.514502E+04  1.576764E+05
       209   4 -2.878346E+05 -2.136958E+05  1.435802E+04 -3.406327E+05 -5.191190E+04  1.697583E+05
       209   5 -3.057935E+05 -1.988482E+05  7.478054E+03 -3.206682E+05 -5.316132E+04  1.617821E+05
       209   6 -2.878286E+05 -2.158012E+05  4.128936E+03 -3.397073E+05 -5.205926E+04  1.475048E+05
       209   7  2.025641E+06  6.264271E+05  4.453497E+05  3.053440E+05 -5.763862E+04  1.675288E+05
       209   8  1.798850E+06  5.638537E+05  3.892207E+05  2.678244E+05 -6.952603E+04  1.555581E+05
       209   9  1.610117E+06  4.715896E+05  3.450233E+05  1.913295E+05 -7.906120E+04  1.373003E+05
       209  10 -2.595732E+06 -1.053355E+06 -4.169014E+05 -9.843702E+05 -1.719133E-09 -3.441522E-09
       209  11 -2.405807E+06 -9.611640E+05 -3.744789E+05 -9.073035E+05 -9.868956E-09 -1.276590E-09
       209  12 -2.182011E+06 -9.028800E+05 -3.369385E+05 -8.692341E+05 -3.478109E-09  3.180516E-10
       209  13 -2.878452E+05 -2.137275E+05  1.429881E+04 -3.406256E+05 -9.804489E-09 -5.137705E-09
       209  14 -3.058035E+05 -1.988771E+05  7.423569E+03 -3.206613E+05 -7.861492E-09 -4.517877E-09
       209  15 -2.878374E+05 -2.158253E+05  4.082966E+03 -3.397011E+05 -5.124923E-09 -1.651279E-09
       209  16  2.025630E+06  6.263961E+05  4.452907E+05  3.053518E+05 -7.624946E-09 -3.400351E-09
       209  17  1.798838E+06  5.638265E+05  3.891661E+05  2.678331E+05 -5.012305E-09 -4.229694E-09
       209  18  1.610105E+06  4.715677E+05  3.449761E+05  1.913383E+05  3.034616E-10 -3.898547E-09
       209  19 -2.595722E+06 -1.053322E+06 -4.168419E+05 -9.843766E+05  4.620817E+04 -1.719793E+05
       209  20 -2.405798E+06 -9.611333E+05 -3.744234E+05 -9.073085E+05  3.685576E+04 -1.679841E+05
       209  21 -2.182004E+06 -9.028532E+05 -3.368906E+05 -8.692373E+05  2.514502E+04 -1.576764E+05
       209  22 -2.878346E+05 -2.136958E+05  1.435802E+04 -3.406327E+05  5.191190E+04 -1.697583E+05
       209  23 -3.057935E+05 -1.988482E+05  7.478054E+03 -3.206682E+05  5.316132E+04 -1.617821E+05
       209  24 -2.878286E+05 -2.158012E+05  4.128936E+03 -3.397073E+05  5.205926E+04 -1.475048E+05
       209  25  2.025641E+06  6.264271E+05  4.453497E+05  3.053440E+05  5.763862E+04 -1.675288E+05
       209  26  1.798850E+06  5.638537E+05  3.892207E+05  2.678244E+05  6.952603E+04 -1.555581E+05
       209  27  1.610117E+06  4.715896E+05  3.450233E+05  1.913295E+05  7.906120E+04 -1.373003E+05
       210   1 -2.047231E+06 -8.530770E+05 -3.122913E+05 -8.313458E+05 -2.295357E+04  1.477269E+05
       210   2 -1.857568E+06 -7.602886E+05 -2.761552E+05 -7.536724E+05 -1.686713E+04  1.319457E+05
       210   3 -1.633170E+06 -7.018691E+05 -2.400205E+05 -7.151910E+05 -1.059522E+04  1.156093E+05
       210   4 -2.878846E+05 -2.157046E+05  3.074379E+03 -3.399480E+05 -4.907337E+04  1.378672E+05
       210   5 -3.051641E+05 -1.983534E+05  1.625043E+03 -3.203925E+05 -4.392028E+04  1.217544E+05
       210   6 -2.875816E+05 -2.151880E+05  9.052212E+02 -3.400415E+05 -3.858210E+04  1.050872E+05
       210   7  1.474751E+06  4.219729E+05  3.183435E+05  1.527578E+05 -7.527266E+04  1.279778E+05
       210   8  1.249795E+06  3.638170E+05  2.793299E+05  1.139034E+05 -7.104593E+04  1.115359E+05
       210   9  1.059920E+06  2.716670E+05  2.417735E+05  3.586866E+04 -6.663383E+04  9.454072E+04
       210  10 -2.047237E+06 -8.531005E+05 -3.123333E+05 -8.313431E+05  1.147982E-08  3.047497E-09
       210  11 -1.857573E+06 -7.603074E+05 -2.761885E+05 -7.536707E+05  6.906296E-09 -7.253828E-10
       210  12 -1.633173E+06 -7.018834E+05 -2.400458E+05 -7.151901E+05 -1.033669E-08 -7.692235E-09
       210  13 -2.878923E+05 -2.157257E+05  3.034144E+03 -3.399426E+05  3.866170E-09  3.949929E-10
       210  14 -3.051702E+05 -1.983698E+05  1.593567E+03 -3.203882E+05  8.044481E-09  4.609852E-09
       210  15 -2.875862E+05 -2.152002E+05  8.816767E+02 -3.400382E+05 -5.534920E-09  4.971245E-09
       210  16  1.474740E+06  4.219538E+05  3.183021E+05  1.527656E+05 -8.171848E-10 -3.827150E-09
       210  17  1.249786E+06  3.638023E+05  2.792970E+05  1.139098E+05  1.015399E-08  2.533289E-09
       210  18  1.059913E+06  2.716562E+05  2.417484E+05  3.587373E+04  9.642981E-09  3.255729E-10
       210  19 -2.047231E+06 -8.530770E+05 -3.122913E+05 -8.313458E+05  2.295357E+04 -1.477269E+05
       210  20 -1.857568E+06 -7.602886E+05 -2.761552E+05 -7.536724E+05  1.686713E+04 -1.319457E+05
       210  21 -1.633170E+06 -7.018691E+05 -2.400205E+05 -7.151910E+05  1.059522E+04 -1.156093E+05
       210  22 -2.878846E+05 -2.157046E+05  3.074379E+03 -3.399480E+05  4.907337E+04 -1.378672E+05
       210  23 -3.051641E+05 -1.983534E+05  1.625043E+03 -3.203925E+05  4.392028E+04 -1.217544E+05
       210  24 -2.875816E+05 -2.151880E+05  9.052212E+02 -3.400415E+05  3.858210E+04 -1.050872E+05
       210  25  1.474751E+06  4.219729E+05  3.183435E+05  1.527578E+05  7.527266E+04 -1.279778E+05
       210  26  1.249795E+06  3.638170E+05  2.793299E+05  1.139034E+05  7.104593E+04 -1.115359E+05
       210  27  1.059920E+06  2.716670E+05  2.417735E+05  3.586866E+04  6.663383E+04 -9.454072E+04
       211   1 -1.497949E+06 -6.525516E+05 -2.149779E+05 -6.775074E+05 -7.132243E+03  1.058388E+05
       211   2 -1.307601E+06 -5.600539E+05 -1.787079E+05 -5.998440E+05 -9.330211E+02  8.917951E+04
       211   3 -1.082637E+06 -5.019447E+05 -1.423571E+05 -5.615567E+05  5.271649E+03  7.246424E+04
       211   4 -2.875514E+05 -2.150992E+05  6.504041E+02 -3.400998E+05 -3.506866E+04  9.534532E+04
       211   5 -3.047462E+05 -1.977132E+05  2.863910E+02 -3.204486E+05 -2.896451E+04  7.866322E+04
       211   6 -2.873548E+05 -2.146998E+05  7.271263E+01 -3.401882E+05 -2.285489E+04  6.192515E+04
       211   7  9.243835E+05  2.224897E+05  2.162304E+05 -2.080060E+03 -6.306300E+04  8.483012E+04
       211   8  6.991721E+05  1.647240E+05  1.792506E+05 -4.063107E+04 -5.704435E+04  6.812880E+04
       211   9  5.086039E+05  7.260867E+04  1.424867E+05 -1.185524E+05 -5.102015E+04  5.137154E+04
       211  10 -1.497952E+06 -6.525636E+05 -2.149991E+05 -6.775068E+05  5.046900E-09 -3.914205E-10
       211  11 -1.307603E+06 -5.600624E+05 -1.787228E+05 -5.998439E+05  5.758404E-09  2.295206E-09
       211  12 -1.082638E+06 -5.019504E+05 -1.423670E+05 -5.615570E+05 -1.108137E-09 -2.039202E-09
       211  13 -2.875551E+05 -2.151092E+05  6.310142E+02 -3.400971E+05 -2.638924E-09  5.239691E-09
       211  14 -3.047488E+05 -1.977201E+05  2.731893E+02 -3.204467E+05  5.949523E-09  6.506162E-09
       211  15 -2.873563E+05 -2.147041E+05  6.452674E+01 -3.401870E+05  8.105869E-10  1.686328E-09
       211  16  9.243773E+05  2.224809E+05  2.162095E+05 -2.075754E+03 -5.771430E-09 -6.637660E-09
       211  17  6.991674E+05  1.647182E+05  1.792358E+05 -4.062794E+04  9.521034E-09  4.806195E-10
       211  18  5.086004E+05  7.260514E+04  1.424769E+05 -1.185502E+05  8.229154E-09  3.363990E-09
       211  19 -1.497949E+06 -6.525516E+05 -2.149779E+05 -6.775074E+05  7.132243E+03 -1.058388E+05
       211  20 -1.307601E+06 -5.600539E+05 -1.787079E+05 -5.998440E+05  9.330211E+02 -8.917951E+04
       211  21 -1.082637E+06 -5.019447E+05 -1.423571E+05 -5.615567E+05 -5.271649E+03 -7.246424E+04
       211  22 -2.875514E+05 -2.150992E+05  6.504041E+02 -3.400998E+05  3.506866E+04 -9.534532E+04
       211  23 -3.047462E+05 -1.977132E+05  2.863910E+02 -3.204486E+05  2.896451E+04 -7.866322E+04
       211  24 -2.873548E+05 -2.146998E+05  7.271263E+01 -3.401882E+05  2.285489E+04 -6.192515E+04
       211  25  9.243835E+05  2.224897E+05  2.162304E+05 -2.080060E+03  6.306300E+04 -8.483012E+04
       211  26  6.991721E+05  1.647240E+05  1.792506E+05 -4.063107E+04  5.704435E+04 -6.812880E+04
       211  27  5.086039E+05  7.260867E+04  1.424867E+05 -1.185524E+05  5.102015E+04 -5.137154E+04
       212   1 -9.470841E+05 -4.527371E+05 -1.171743E+05 -5.239139E+05  8.922083E+03  6.273196E+04
       212   2 -7.562778E+05 -3.604219E+05 -8.082960E+04 -4.462604E+05  1.530030E+04  4.606605E+04
       212   3 -5.309752E+05 -3.025165E+05 -4.455926E+04 -4.080818E+05  2.166627E+04  2.941361E+04
       212   4 -2.873345E+05 -2.146474E+05 -3.751856E+01 -3.402149E+05 -1.921390E+04  5.219482E+04
       212   5 -3.045103E+05 -1.973434E+05 -2.795663E+02 -3.204910E+05 -1.281576E+04  3.554217E+04
       212   6 -2.872421E+05 -2.144564E+05 -6.157310E+02 -3.402579E+05 -6.429911E+03  1.890303E+04
       212   7  3.728762E+05  2.348433E+04  1.170884E+05 -1.563332E+05 -4.738176E+04  4.164575E+04
       212   8  1.474719E+05 -3.424568E+04  8.026644E+04 -1.946365E+05 -4.095348E+04  2.501017E+04
       212   9 -4.344722E+04 -1.263910E+05  4.332845E+04 -2.724094E+05 -3.453758E+04  8.388136E+03
       212  10 -9.470852E+05 -4.527413E+05 -1.171819E+05 -5.239144E+05 -1.637513E-09 -3.855791E-09
       212  11 -7.562786E+05 -3.604242E+05 -8.083403E+04 -4.462609E+05  2.608541E-09 -1.853579E-09
       212  12 -5.309759E+05 -3.025176E+05 -4.456177E+04 -4.080824E+05  1.978784E-09 -1.763656E-09
       212  13 -2.873357E+05 -2.146505E+05 -4.333047E+01 -3.402141E+05  1.283183E-09 -1.067815E-10
       212  14 -3.045108E+05 -1.973448E+05 -2.822482E+02 -3.204907E+05 -2.181767E-09 -3.979192E-10
       212  15 -2.872422E+05 -2.144568E+05 -6.164800E+02 -3.402578E+05 -5.158766E-09 -3.580049E-09
       212  16  3.728734E+05  2.348187E+04  1.170810E+05 -1.563316E+05  1.777822E-09  3.513216E-09
       212  17  1.474699E+05 -3.424680E+04  8.026211E+04 -1.946356E+05 -4.790876E-09  7.939575E-10
       212  18 -4.344852E+04 -1.263914E+05  4.332607E+04 -2.724091E+05 -1.180145E-08 -6.285869E-09
       212  19 -9.470841E+05 -4.527371E+05 -1.171743E+05 -5.239139E+05 -8.922083E+03 -6.273196E+04
       212  20 -7.562778E+05 -3.604219E+05 -8.082960E+04 -4.462604E+05 -1.530030E+04 -4.606605E+04
       212  21 -5.309752E+05 -3.025165E+05 -4.455926E+04 -4.080818E+05 -2.166627E+04 -2.941361E+04
       212  22 -2.873345E+05 -2.146474E+05 -3.751856E+01 -3.402149E+05  1.921390E+04 -5.219482E+04
       212  23 -3.045103E+05 -1.973434E+05 -2.795663E+02 -3.204910E+05  1.281576E+04 -3.554217E+04
       212  24 -2.872421E+05 -2.144564E+05 -6.157310E+02 -3.402579E+05  6.429911E+03 -1.890303E+04
       212  25  3.728762E+05  2.348433E+04  1.170884E+05 -1.563332E+05  4.738176E+04 -4.164575E+04
       212  26  1.474719E+05 -3.424568E+04  8.026644E+04 -1.946365E+05  4.095348E+04 -2.501017E+04
       212  27 -4.344722E+04 -1.263910E+05  4.332845E+04 -2.724094E+05  3.453758E+04 -8.388136E+03
       213   1 -3.952263E+05 -2.533632E+05 -1.948098E+04 -3.704452E+05  2.546694E+04  1.974569E+04
       213   2 -2.042208E+05 -1.611472E+05  1.651271E+04 -2.927623E+05  3.202522E+04  3.311326E+03
       213   3  2.120517E+04 -1.033544E+05  5.224143E+04 -2.545663E+05  3.848320E+04 -1.285137E+04
       213   4 -2.872639E+05 -2.144374E+05 -8.583253E+02 -3.402734E+05 -2.669409E+03  9.221418E+03
       213   5 -3.044178E+05 -1.972281E+05 -1.621317E+03 -3.205039E+05  4.340863E+03 -7.045217E+03
       213   6 -2.872919E+05 -2.145392E+05 -3.011481E+03 -3.402415E+05  1.125068E+04 -2.304014E+04
       213   7 -1.792863E+05 -1.755094E+05  1.776769E+04 -3.100959E+05 -3.081124E+04 -1.304915E+03
       213   8 -4.046031E+05 -2.333077E+05 -1.975255E+04 -3.482410E+05 -2.333888E+04 -1.740004E+04
       213   9 -5.956873E+05 -3.257145E+05 -5.826446E+04 -4.258766E+05 -1.596744E+04 -3.322353E+04
       213  10 -3.952271E+05 -2.533638E+05 -1.948293E+04 -3.704456E+05 -9.817097E-09 -3.567018E-09
       213  11 -2.042219E+05 -1.611475E+05  1.651076E+04 -2.927624E+05 -3.508950E-09 -1.173643E-10
       213  12  2.120354E+04 -1.033550E+05  5.223834E+04 -2.545659E+05  7.561730E-09  1.924526E-09
       213  13 -2.872639E+05 -2.144375E+05 -8.584985E+02 -3.402734E+05 -3.951710E-09 -4.090353E-09
       213  14 -3.044179E+05 -1.972282E+05 -1.621446E+03 -3.205039E+05  6.082923E-09  2.535727E-10
       213  15 -2.872922E+05 -2.145398E+05 -3.012716E+03 -3.402412E+05  1.578141E-08  2.637147E-09
       213  16 -1.792874E+05 -1.755097E+05  1.776590E+04 -3.100960E+05  4.897321E-10 -3.766672E-09
       213  17 -4.046038E+05 -2.333082E+05 -1.975415E+04 -3.482414E+05  7.434161E-09 -2.637728E-09
       213  18 -5.956879E+05 -3.257157E+05 -5.826702E+04 -4.258770E+05  9.445746E-09  1.505626E-09
       213  19 -3.952263E+05 -2.533632E+05 -1.948098E+04 -3.704452E+05 -2.546694E+04 -1.974569E+04
       213  20 -2.042208E+05 -1.611472E+05  1.651271E+04 -2.927623E+05 -3.202522E+04 -3.311326E+03
       213  21  2.120517E+04 -1.033544E+05  5.224143E+04 -2.545663E+05 -3.848320E+04  1.285137E+04
       213  22 -2.872639E+05 -2.144374E+05 -8.583253E+02 -3.402734E+05  2.669409E+03 -9.221418E+03
       213  23 -3.044178E+05 -1.972281E+05 -1.621317E+03 -3.205039E+05 -4.340863E+03  7.045217E+03
       213  24 -2.872919E+05 -2.145392E+05 -3.011481E+03 -3.402415E+05 -1.125068E+04  2.304014E+04
       213  25 -1.792863E+05 -1.755094E+05  1.776769E+04 -3.100959E+05  3.081124E+04  1.304915E+03
       213  26 -4.046031E+05 -2.333077E+05 -1.975255E+04 -3.482410E+05  2.333888E+04  1.740004E+04
       213  27 -5.956873E+05 -3.257145E+05 -5.826446E+04 -4.258766E+05  1.596744E+04  3.322353E+04
       214   1  1.571486E+05 -5.427202E+04  7.674047E+04 -2.171133E+05  4.304759E+04 -2.208595E+04
       214   2  3.474992E+05  3.823059E+04  1.121576E+05 -1.386557E+05  4.697475E+04 -3.750057E+04
       214   3  5.720527E+05  9.555510E+04  1.485239E+05 -9.910932E+04  4.971694E+04 -4.973399E+04
       214   4 -2.875166E+05 -2.144907E+05 -4.024117E+03 -3.402853E+05  1.539946E+04 -3.243295E+04
       214   5 -3.043223E+05 -1.978693E+05 -7.412259E+03 -3.202776E+05  2.468146E+04 -4.585109E+04
       214   6 -2.880296E+05 -2.174938E+05 -1.409418E+04 -3.392015E+05  3.277838E+04 -5.608596E+04
       214   7 -7.319680E+05 -3.746890E+05 -8.479127E+04 -4.633736E+05 -1.222730E+04 -4.277198E+04
       214   8 -9.556972E+05 -4.339289E+05 -1.269956E+05 -5.017218E+05  2.413149E+03 -5.419223E+04
       214   9 -1.147348E+06 -5.304772E+05 -1.767435E+05 -5.789867E+05  1.586473E+04 -6.242852E+04
       214  10  1.571464E+05 -5.427304E+04  7.673607E+04 -2.171125E+05  1.463376E-08  4.717052E-09
       214  11  3.474965E+05  3.822849E+04  1.121508E+05 -1.386543E+05  1.678236E-08  6.819602E-09
       214  12  5.720493E+05  9.555178E+04  1.485146E+05 -9.910733E+04  3.188907E-08  1.139632E-08
       214  13 -2.875171E+05 -2.144919E+05 -4.026539E+03 -3.402849E+05  1.107473E-08  3.102906E-09
       214  14 -3.043235E+05 -1.978717E+05 -7.417353E+03 -3.202767E+05  4.474325E-09  5.376395E-09
       214  15 -2.880316E+05 -2.174975E+05 -1.410210E+04 -3.392001E+05  1.316289E-08  1.206465E-08
       214  16 -7.319687E+05 -3.746910E+05 -8.479499E+04 -4.633741E+05 -1.905093E-09 -1.055897E-09
       214  17 -9.556980E+05 -4.339321E+05 -1.270011E+05 -5.017216E+05 -1.245268E-08 -5.933934E-09
       214  18 -1.147350E+06 -5.304815E+05 -1.767513E+05 -5.789859E+05 -9.379135E-09 -5.520040E-09
       214  19  1.571486E+05 -5.427202E+04  7.674047E+04 -2.171133E+05 -4.304759E+04  2.208595E+04
       214  20  3.474992E+05  3.823059E+04  1.121576E+05 -1.386557E+05 -4.697475E+04  3.750057E+04
       214  21  5.720527E+05  9.555510E+04  1.485239E+05 -9.910932E+04 -4.971694E+04  4.973399E+04
       214  22 -2.875166E+05 -2.144907E+05 -4.024117E+03 -3.402853E+05 -1.539946E+04  3.243295E+04
       214  23 -3.043223E+05 -1.978693E+05 -7.412259E+03 -3.202776E+05 -2.468146E+04  4.585109E+04
       214  24 -2.880296E+05 -2.174938E+05 -1.409418E+04 -3.392015E+05 -3.277838E+04  5.608596E+04
       214  25 -7.319680E+05 -3.746890E+05 -8.479127E+04 -4.633736E+05  1.222730E+04  4.277198E+04
       214  26 -9.556972E+05 -4.339289E+05 -1.269956E+05 -5.017218E+05 -2.413149E+03  5.419223E+04
       214  27 -1.147348E+06 -5.304772E+05 -1.767435E+05 -5.789867E+05 -1.586473E+04  6.242852E+04
       215   1  7.105901E+05  1.432875E+05  1.717366E+05 -6.561767E+04  5.975219E+04 -5.523970E+04
       215   2  8.860258E+05  2.420752E+05  2.179086E+05  3.201778E+04  1.344444E+04 -6.610879E+04
       215   3  1.090199E+06  2.836034E+05  2.898375E+05  1.017040E+05 -4.685149E+04 -3.979370E+04
       215   4 -2.906454E+05 -2.165772E+05 -1.869304E+04 -3.399231E+05  3.793456E+04 -6.342398E+04
       215   5 -3.030245E+05 -2.112545E+05 -3.556204E+04 -3.149061E+05  5.438468E+04 -5.077406E+04
       215   6 -2.991491E+05 -2.756655E+05 -7.638317E+04 -3.178604E+05  5.684842E+04 -8.946097E+02
       215   7 -1.290843E+06 -5.763587E+05 -2.091640E+05 -6.138217E+05  1.615442E+04 -7.159453E+04
       215   8 -1.490606E+06 -6.644277E+05 -2.890998E+05 -6.612001E+05  9.523986E+04 -3.547420E+04
       215   9 -1.686538E+06 -8.347002E+05 -4.427087E+05 -7.365245E+05  1.602906E+05  3.789135E+04
       215  10  7.105854E+05  1.432833E+05  1.717242E+05 -6.561502E+04 -7.009543E-09 -5.227719E-09
       215  11  8.860245E+05  2.420704E+05  2.179001E+05  3.201850E+04 -6.612935E-09 -7.769250E-09
       215  12  1.090196E+06  2.836011E+05  2.898304E+05  1.017025E+05 -9.987238E-10 -2.346858E-09
       215  13 -2.906481E+05 -2.165819E+05 -1.870330E+04 -3.399212E+05  1.208538E-08  1.184974E-08
       215  14 -3.030284E+05 -2.112581E+05 -3.557244E+04 -3.149039E+05  3.946332E-09  4.121551E-09
       215  15 -2.991526E+05 -2.756664E+05 -7.638925E+04 -3.178603E+05 -2.014718E-09  4.986589E-10
       215  16 -1.290845E+06 -5.763643E+05 -2.091741E+05 -6.138208E+05  3.058253E-08  1.108997E-08
       215  17 -1.490617E+06 -6.644315E+05 -2.891193E+05 -6.611974E+05  1.320024E-08  6.203493E-09
       215  18 -1.686566E+06 -8.347087E+05 -4.427598E+05 -7.365294E+05  1.069264E-09  1.172682E-09
       215  19  7.105901E+05  1.432875E+05  1.717366E+05 -6.561767E+04 -5.975219E+04  5.523970E+04
       215  20  8.860258E+05  2.420752E+05  2.179086E+05  3.201778E+04 -1.344444E+04  6.610879E+04
       215  21  1.090199E+06  2.836034E+05  2.898375E+05  1.017040E+05  4.685149E+04  3.979370E+04
       215  22 -2.906454E+05 -2.165772E+05 -1.869304E+04 -3.399231E+05 -3.793456E+04  6.342398E+04
       215  23 -3.030245E+05 -2.112545E+05 -3.556204E+04 -3.149061E+05 -5.438468E+04  5.077406E+04
       215  24 -2.991491E+05 -2.756655E+05 -7.638317E+04 -3.178604E+05 -5.684842E+04  8.946097E+02
       215  25 -1.290843E+06 -5.763587E+05 -2.091640E+05 -6.138217E+05 -1.615442E+04  7.159453E+04
       215  26 -1.490606E+06 -6.644277E+05 -2.890998E+05 -6.612001E+05 -9.523986E+04  3.547420E+04
       215  27 -1.686538E+06 -8.347002E+05 -4.427087E+05 -7.365245E+05 -1.602906E+05 -3.789135E+04
       216   1 -2.407588E+05 -1.056673E+05 -9.287687E+04 -7.601395E+04 -1.764089E+04  7.697504E+03
       216   2 -1.593009E+05 -1.138073E+05 -7.241894E+04 -8.735973E+04 -9.000998E+02  2.560038E+04
       216   3 -7.578833E+04 -1.051575E+05 -5.866313E+04 -1.110025E+05  1.584960E+04  3.022253E+04
       216   4  4.088214E+05  5.430533E+04  5.758436E+04 -1.128958E+05  4.067141E+04  7.710869E+03
       216   5  4.050826E+05  1.934132E+04  2.905555E+04 -1.067448E+05  2.586293E+04  2.560247E+04
       216   6  4.088617E+05  6.633598E+03  1.572807E+04 -1.128886E+05  1.106100E+04  3.021985E+04
       216   7  1.058802E+06  2.142552E+05  2.080308E+05 -1.498165E+05  9.904428E+04  7.717303E+03
       216   8  9.697787E+05  1.524740E+05  1.305206E+05 -1.261480E+05  5.264960E+04  2.560289E+04
       216   9  8.937467E+05  1.184133E+05  9.011419E+04 -1.147763E+05  6.268799E+03  3.021721E+04
       216  10 -2.407591E+05 -1.056674E+05 -9.287756E+04 -7.601384E+04  1.125806E-09 -4.925582E-10
       216  11 -1.593011E+05 -1.138080E+05 -7.242018E+04 -8.735971E+04 -2.349580E-09 -1.259729E-09
       216  12 -7.578884E+04 -1.051585E+05 -5.866532E+04 -1.110029E+05  4.903864E-10 -7.189958E-10
       216  13  4.088196E+05  5.430483E+04  5.758114E+04 -1.128960E+05  2.263691E-09 -1.933135E-10
       216  14  4.050817E+05  1.934043E+04  2.905306E+04 -1.067453E+05  1.175651E-09 -1.293160E-09
       216  15  4.088613E+05  6.632584E+03  1.572612E+04 -1.128889E+05  2.419345E-09 -1.581936E-09
       216  16  1.058791E+06  2.142525E+05  2.080123E+05 -1.498171E+05 -3.083334E-09 -6.668278E-11
       216  17  9.697756E+05  1.524726E+05  1.305142E+05 -1.261491E+05  2.392502E-09 -1.218231E-09
       216  18  8.937464E+05  1.184124E+05  9.011240E+04 -1.147764E+05  1.849122E-09 -1.856562E-09
       216  19 -2.407588E+05 -1.056673E+05 -9.287687E+04 -7.601395E+04  1.764089E+04 -7.697504E+03
       216  20 -1.593009E+05 -1.138073E+05 -7.241894E+04 -8.735973E+04  9.000998E+02 -2.560038E+04
       216  21 -7.578833E+04 -1.051575E+05 -5.866313E+04 -1.110025E+05 -1.584960E+04 -3.022253E+04
       216  22  4.088214E+05  5.430533E+04  5.758436E+04 -1.128958E+05 -4.067141E+04 -7.710869E+03
       216  23  4.050826E+05  1.934132E+04  2.905555E+04 -1.067448E+05 -2.586293E+04 -2.560247E+04
       216  24  4.088617E+05  6.633598E+03  1.572807E+04 -1.128886E+05 -1.106100E+04 -3.021985E+04
       216  25  1.058802E+06  2.142552E+05  2.080308E+05 -1.498165E+05 -9.904428E+04 -7.717303E+03
       216  26  9.697787E+05  1.524740E+05  1.305206E+05 -1.261480E+05 -5.264960E+04 -2.560289E+04
       216  27  8.937467E+05  1.184133E+05  9.011419E+04 -1.147763E+05 -6.268799E+03 -3.021721E+04
       217   1 -2.545152E+04 -9.456104E+04 -5.246521E+04 -1.102869E+05  1.477803E+04  2.844173E+04
       217   2  5.678020E+04 -7.820643E+04 -4.231773E+04 -1.051099E+05  1.583192E+04  2.512523E+04
       217   3  1.392644E+05 -6.037954E+04 -3.248415E+04 -1.132051E+05  1.688549E+04  2.003101E+04
       217   4  4.074168E+05  4.834353E+03  1.173355E+04 -1.131070E+05  9.014783E+03  2.843949E+04
       217   5  4.069381E+05  1.537478E+03  6.332849E+03 -1.064712E+05  5.842648E+03  2.512377E+04
       217   6  4.074377E+05  4.458929E+02  3.551086E+03 -1.131070E+05  2.670076E+03  2.003087E+04
       217   7  8.404735E+05  1.042210E+05  7.592897E+04 -1.159291E+05  3.247676E+03  2.843731E+04
       217   8  7.572205E+05  8.127602E+04  5.498232E+04 -1.078333E+05 -4.152005E+03  2.512235E+04
       217   9  6.756847E+05  6.126835E+04  3.958644E+04 -1.130088E+05 -1.155119E+04  2.003071E+04
       217  10 -2.545197E+04 -9.456197E+04 -5.246714E+04 -1.102873E+05 -1.051525E-09 -1.277337E-10
       217  11  5.677976E+04 -7.820717E+04 -4.231939E+04 -1.051102E+05  1.865444E-09 -1.114640E-10
       217  12  1.392640E+05 -6.038005E+04 -3.248544E+04 -1.132054E+05  2.199851E-09 -5.172349E-10
       217  13  4.074165E+05  4.833462E+03  1.173188E+04 -1.131072E+05  1.256375E-10 -7.532629E-10
       217  14  4.069379E+05  1.536791E+03  6.331599E+03 -1.064713E+05  1.998632E-10 -4.538329E-10
       217  15  4.074376E+05  4.454601E+02  3.550319E+03 -1.131070E+05 -1.345189E-09 -8.984004E-10
       217  16  8.404733E+05  1.042201E+05  7.592743E+04 -1.159291E+05  9.879285E-10 -1.751193E-09
       217  17  7.572204E+05  8.127534E+04  5.498111E+04 -1.078332E+05 -7.481402E-10 -9.538623E-10
       217  18  6.756845E+05  6.126788E+04  3.958544E+04 -1.130086E+05 -4.260573E-09 -1.206932E-09
       217  19 -2.545152E+04 -9.456104E+04 -5.246521E+04 -1.102869E+05 -1.477803E+04 -2.844173E+04
       217  20  5.678020E+04 -7.820643E+04 -4.231773E+04 -1.051099E+05 -1.583192E+04 -2.512523E+04
       217  21  1.392644E+05 -6.037954E+04 -3.248415E+04 -1.132051E+05 -1.688549E+04 -2.003101E+04
       217  22  4.074168E+05  4.834353E+03  1.173355E+04 -1.131070E+05 -9.014783E+03 -2.843949E+04
       217  23  4.069381E+05  1.537478E+03  6.332849E+03 -1.064712E+05 -5.842648E+03 -2.512377E+04
       217  24  4.074377E+05  4.458929E+02  3.551086E+03 -1.131070E+05 -2.670076E+03 -2.003087E+04
       217  25  8.404735E+05  1.042210E+05  7.592897E+04 -1.159291E+05 -3.247676E+03 -2.843731E+04
       217  26  7.572205E+05  8.127602E+04  5.498232E+04 -1.078333E+05  4.152005E+03 -2.512235E+04
       217  27  6.756847E+05  6.126835E+04  3.958644E+04 -1.130088E+05  1.155119E+04 -2.003071E+04
       218   1  1.900396E+05 -4.887814E+04 -2.613403E+04 -1.130815E+05  1.649237E+04  1.646824E+04
       218   2  2.723415E+05 -3.045627E+04 -1.624340E+04 -1.064492E+05  1.631255E+04  1.031336E+04
       218   3  3.547056E+05 -1.192753E+04 -6.207257E+03 -1.132166E+05  1.613231E+04  3.921464E+03
       218   4  4.072592E+05  3.132288E+02  2.675820E+03 -1.131355E+05  2.146832E+03  1.646866E+04
       218   5  4.071860E+05  5.067331E+01  1.498590E+03 -1.064357E+05  1.402639E+03  1.031436E+04
       218   6  4.072670E+05 -6.673828E+00  8.582498E+02 -1.131355E+05  6.580583E+02  3.923072E+03
       218   7  6.245274E+05  4.950270E+04  3.148608E+04 -1.131895E+05 -1.220349E+04  1.646908E+04
       218   8  5.420496E+05  3.055697E+04  1.924129E+04 -1.064222E+05 -1.351035E+04  1.031537E+04
       218   9  4.598317E+05  1.191419E+04  7.924632E+03 -1.130545E+05 -1.481744E+04  3.924676E+03
       218  10  1.900392E+05 -4.887850E+04 -2.613505E+04 -1.130817E+05  2.964699E-10 -7.703525E-10
       218  11  2.723412E+05 -3.045645E+04 -1.624410E+04 -1.064493E+05 -9.978827E-10 -1.358852E-09
       218  12  3.547053E+05 -1.192761E+04 -6.207775E+03 -1.132167E+05  5.461653E-09 -2.406984E-09
       218  13  4.072591E+05  3.129362E+02  2.675302E+03 -1.131355E+05 -1.468535E-10 -1.014150E-09
       218  14  4.071860E+05  5.055852E+01  1.498387E+03 -1.064357E+05 -1.094305E-09 -1.182672E-09
       218  15  4.072670E+05 -6.690475E+00  8.582201E+02 -1.131355E+05  2.944581E-09 -1.901309E-09
       218  16  6.245271E+05  4.950237E+04  3.148529E+04 -1.131893E+05 -2.186212E-09 -1.250538E-09
       218  17  5.420494E+05  3.055680E+04  1.924075E+04 -1.064221E+05 -1.953405E-09 -1.021555E-09
       218  18  4.598315E+05  1.191411E+04  7.924191E+03 -1.130544E+05 -4.487773E-09 -1.434665E-09
       218  19  1.900396E+05 -4.887814E+04 -2.613403E+04 -1.130815E+05 -1.649237E+04 -1.646824E+04
       218  20  2.723415E+05 -3.045627E+04 -1.624340E+04 -1.064492E+05 -1.631255E+04 -1.031336E+04
       218  21  3.547056E+05 -1.192753E+04 -6.207257E+03 -1.132166E+05 -1.613231E+04 -3.921464E+03
       218  22  4.072592E+05  3.132288E+02  2.675820E+03 -1.131355E+05 -2.146832E+03 -1.646866E+04
       218  23  4.071860E+05  5.067331E+01  1.498590E+03 -1.064357E+05 -1.402639E+03 -1.031436E+04
       218  24  4.072670E+05 -6.673828E+00  8.582498E+02 -1.131355E+05 -6.580583E+02 -3.923072E+03
       218  25  6.245274E+05  4.950270E+04  3.148608E+04 -1.131895E+05  1.220349E+04 -1.646908E+04
       218  26  5.420496E+05  3.055697E+04  1.924129E+04 -1.064222E+05  1.351035E+04 -1.031537E+04
       218  27  4.598317E+05  1.191419E+04  7.924632E+03 -1.130545E+05  1.481744E+04 -3.924676E+03
       219   1  4.055283E+05 -3.984317E+02  4.157801E+02 -1.131934E+05  1.601577E+04  1.217318E+02
       219   2  4.878537E+05  1.814175E+04  1.061584E+04 -1.064707E+05  1.589047E+04 -6.407579E+03
       219   3  5.702099E+05  3.668603E+04  2.090033E+04 -1.131645E+05  1.576544E+04 -1.296233E+04
       219   4  4.072406E+05 -8.750136E+00  6.522742E+02 -1.131393E+05  5.240104E+02  1.234072E+02
       219   5  4.072219E+05 -2.384975E+01  3.773984E+02 -1.064310E+05  3.370938E+02 -6.406234E+03
       219   6  4.072361E+05 -2.438997E+01  2.286618E+02 -1.131393E+05  1.504559E+02 -1.296133E+04
       219   7  4.089535E+05  3.810601E+02  8.896697E+02 -1.130853E+05 -1.496779E+04  1.250798E+02
       219   8  3.265972E+05 -1.818958E+04 -9.860154E+03 -1.063913E+05 -1.521437E+04 -6.404890E+03
       219   9  2.442900E+05 -3.673577E+04 -2.044219E+04 -1.131142E+05 -1.546063E+04 -1.296034E+04
       219  10  4.055280E+05 -3.985006E+02  4.152984E+02 -1.131934E+05  5.174634E-09 -3.309966E-09
       219  11  4.878535E+05  1.814164E+04  1.061528E+04 -1.064706E+05  4.238038E-09 -2.924577E-09
       219  12  5.702096E+05  3.668579E+04  2.089955E+04 -1.131644E+05  2.425349E-09  7.829072E-10
       219  13  4.072406E+05 -8.750226E+00  6.522737E+02 -1.131393E+05  1.098586E-09 -2.719630E-09
       219  14  4.072219E+05 -2.389385E+01  3.773210E+02 -1.064310E+05 -8.511118E-11 -2.374207E-09
       219  15  4.072361E+05 -2.457041E+01  2.283460E+02 -1.131393E+05  5.726222E-10  9.643592E-10
       219  16  4.089533E+05  3.810000E+02  8.892490E+02 -1.130853E+05 -5.143178E-09 -2.136223E-09
       219  17  3.265969E+05 -1.818969E+04 -9.860665E+03 -1.063914E+05 -3.920899E-09 -1.820448E-09
       219  18  2.442897E+05 -3.673601E+04 -2.044295E+04 -1.131143E+05 -2.984497E-09  1.134669E-09
       219  19  4.055283E+05 -3.984317E+02  4.157801E+02 -1.131934E+05 -1.601577E+04 -1.217318E+02
       219  20  4.878537E+05  1.814175E+04  1.061584E+04 -1.064707E+05 -1.589047E+04  6.407579E+03
       219  21  5.702099E+05  3.668603E+04  2.090033E+04 -1.131645E+05 -1.576544E+04  1.296233E+04
       219  22  4.072406E+05 -8.750136E+00  6.522742E+02 -1.131393E+05 -5.240104E+02 -1.234072E+02
       219  23  4.072219E+05 -2.384975E+01  3.773984E+02 -1.064310E+05 -3.370938E+02  6.406234E+03
       219  24  4.072361E+05 -2.438997E+01  2.286618E+02 -1.131393E+05 -1.504559E+02  1.296133E+04
       219  25  4.089535E+05  3.810601E+02  8.896697E+02 -1.130853E+05  1.496779E+04 -1.250798E+02
       219  26  3.265972E+05 -1.818958E+04 -9.860154E+03 -1.063913E+05  1.521437E+04  6.404890E+03
       219  27  2.442900E+05 -3.673577E+04 -2.044219E+04 -1.131142E+05  1.546063E+04  1.296034E+04
       220   1  6.210555E+05  4.820314E+04  2.764203E+04 -1.131571E+05  1.572840E+04 -1.678722E+04
       220   2  7.034057E+05  6.673954E+04  3.804023E+04 -1.064272E+05  1.555943E+04 -2.333144E+04
       220   3  7.858011E+05  8.529378E+04  4.855622E+04 -1.131159E+05  1.539144E+04 -2.983104E+04
       220   4  4.072296E+05 -2.799912E+01  1.831918E+02 -1.131398E+05  1.131305E+02 -1.678669E+04
       220   5  4.072113E+05 -4.277623E+01  1.294696E+02 -1.064304E+05  4.926190E+01 -2.333217E+04
       220   6  4.072128E+05 -5.784832E+01  1.199714E+02 -1.131398E+05 -1.360604E+01 -2.983303E+04
       220   7  1.934511E+05 -4.826089E+04 -2.727495E+04 -1.131226E+05 -1.549702E+04 -1.678617E+04
       220   8  1.111073E+05 -6.682858E+04 -3.778077E+04 -1.064335E+05 -1.545387E+04 -2.333290E+04
       220   9  2.877196E+04 -8.541524E+04 -4.831601E+04 -1.131638E+05 -1.540972E+04 -2.983502E+04
       220  10  6.210551E+05  4.820277E+04  2.764104E+04 -1.131569E+05  1.680209E-07  1.895813E-09
       220  11  7.034053E+05  6.673889E+04  3.803875E+04 -1.064269E+05  3.197659E-08 -1.417062E-09
       220  12  7.858006E+05  8.529276E+04  4.855411E+04 -1.131155E+05 -1.099410E-07 -7.151356E-09
       220  13  4.072295E+05 -2.830178E+01  1.826621E+02 -1.131398E+05  1.368756E-09  6.614415E-09
       220  14  4.072112E+05 -4.336092E+01  1.284464E+02 -1.064304E+05 -2.581544E-10  1.892563E-08
       220  15  4.072126E+05 -5.880422E+01  1.182986E+02 -1.131399E+05  3.233410E-10  2.822173E-08
       220  16  1.934507E+05 -4.826126E+04 -2.727593E+04 -1.131228E+05 -1.681608E-07  2.370097E-09
       220  17  1.111069E+05 -6.682923E+04 -3.778224E+04 -1.064338E+05 -3.224491E-08 -4.011050E-10
       220  18  2.877146E+04 -8.541626E+04 -4.831813E+04 -1.131641E+05  1.090760E-07 -6.528537E-09
       220  19  6.210555E+05  4.820314E+04  2.764203E+04 -1.131571E+05 -1.572840E+04  1.678722E+04
       220  20  7.034057E+05  6.673954E+04  3.804023E+04 -1.064272E+05 -1.555943E+04  2.333144E+04
       220  21  7.858011E+05  8.529378E+04  4.855622E+04 -1.131159E+05 -1.539144E+04  2.983104E+04
       220  22  4.072296E+05 -2.799912E+01  1.831918E+02 -1.131398E+05 -1.131305E+02  1.678669E+04
       220  23  4.072113E+05 -4.277623E+01  1.294696E+02 -1.064304E+05 -4.926190E+01  2.333217E+04
       220  24  4.072128E+05 -5.784832E+01  1.199714E+02 -1.131398E+05  1.360604E+01  2.983303E+04
       220  25  1.934511E+05 -4.826089E+04 -2.727495E+04 -1.131226E+05  1.549702E+04  1.678617E+04
       220  26  1.111073E+05 -6.682858E+04 -3.778077E+04 -1.064335E+05  1.545387E+04  2.333290E+04
       220  27  2.877196E+04 -8.541524E+04 -4.831601E+04 -1.131638E+05  1.540972E+04  2.983502E+04
       221   1  8.367014E+05  9.682625E+04  5.543085E+04 -1.130952E+05  1.534558E+04 -3.361120E+04
       221   2  9.190296E+05  1.154302E+05  6.632885E+04 -1.063621E+05  1.438176E+04 -3.989249E+04
       221   3  1.001557E+06  1.342038E+05  7.790334E+04 -1.130283E+05  1.341938E+04 -4.580444E+04
       221   4  4.072100E+05 -6.929168E+01  1.291361E+02 -1.131356E+05 -3.525772E+01 -3.361419E+04
       221   5  4.071748E+05 -9.116559E+01  1.756106E+02 -1.064357E+05 -1.211774E+02 -3.989750E+04
       221   6  4.071810E+05 -9.505109E+01  2.893883E+02 -1.131356E+05 -2.055549E+02 -4.581133E+04
       221   7 -2.209213E+04 -9.697234E+04 -5.517259E+04 -1.131761E+05 -1.540599E+04 -3.361717E+04
       221   8 -1.044117E+05 -1.156233E+05 -6.597822E+04 -1.065091E+05 -1.461275E+04 -3.990251E+04
       221   9 -1.868340E+05 -1.344086E+05 -7.732606E+04 -1.132428E+05 -1.381808E+04 -4.581821E+04
       221  10  8.367008E+05  9.682498E+04  5.542829E+04 -1.130947E+05 -9.805678E-08 -8.451968E-09
       221  11  9.190290E+05  1.154284E+05  6.632547E+04 -1.063616E+05 -3.500592E-08 -6.805701E-09
       221  12  1.001557E+06  1.342015E+05  7.789906E+04 -1.130278E+05  3.541936E-08 -4.094036E-09
       221  13  4.072097E+05 -7.050525E+01  1.270123E+02 -1.131356E+05  1.090320E-09  2.645804E-08
       221  14  4.071743E+05 -9.287524E+01  1.726186E+02 -1.064357E+05  3.529918E-10  1.305820E-08
       221  15  4.071805E+05 -9.730515E+01  2.854437E+02 -1.131356E+05 -3.114512E-10  4.321900E-10
       221  16 -2.209268E+04 -9.697362E+04 -5.517517E+04 -1.131765E+05  9.759061E-08 -8.704145E-09
       221  17 -1.044123E+05 -1.156250E+05 -6.598161E+04 -1.065096E+05  3.185043E-08 -6.727041E-09
       221  18 -1.868348E+05 -1.344109E+05 -7.733036E+04 -1.132433E+05 -3.447906E-08 -3.528581E-09
       221  19  8.367014E+05  9.682625E+04  5.543085E+04 -1.130952E+05 -1.534558E+04  3.361120E+04
       221  20  9.190296E+05  1.154302E+05  6.632885E+04 -1.063621E+05 -1.438176E+04  3.989249E+04
       221  21  1.001557E+06  1.342038E+05  7.790334E+04 -1.130283E+05 -1.341938E+04  4.580444E+04
       221  22  4.072100E+05 -6.929168E+01  1.291361E+02 -1.131356E+05  3.525772E+01  3.361419E+04
       221  23  4.071748E+05 -9.116559E+01  1.756106E+02 -1.064357E+05  1.211774E+02  3.989750E+04
       221  24  4.071810E+05 -9.505109E+01  2.893883E+02 -1.131356E+05  2.055549E+02  4.581133E+04
       221  25 -2.209213E+04 -9.697234E+04 -5.517259E+04 -1.131761E+05  1.540599E+04  3.361717E+04
       221  26 -1.044117E+05 -1.156233E+05 -6.597822E+04 -1.065091E+05  1.461275E+04  3.990251E+04
       221  27 -1.868340E+05 -1.344086E+05 -7.732606E+04 -1.132428E+05  1.381808E+04  4.581821E+04
       222   1  1.052688E+06  1.459087E+05  8.547997E+04 -1.129361E+05  1.316472E+04 -4.921458E+04
       222   2  1.134559E+06  1.651328E+05  9.963791E+04 -1.064164E+05  6.245436E+03 -5.347279E+04
       222   3  1.217726E+06  1.857290E+05  1.186507E+05 -1.130941E+05 -6.747812E+02 -5.496016E+04
       222   4  4.071926E+05 -9.921900E+01  3.777520E+02 -1.130908E+05 -2.601770E+02 -4.922280E+04
       222   5  4.070990E+05 -2.234501E+01  6.569068E+02 -1.064917E+05 -5.855158E+02 -5.348136E+04
       222   6  4.071520E+05  2.835641E+02  1.217172E+03 -1.130909E+05 -9.108007E+02 -5.496736E+04
       222   7 -2.378773E+05 -1.461246E+05 -8.472676E+04 -1.132453E+05 -1.367180E+04 -4.923103E+04
       222   8 -3.198229E+05 -1.652005E+05 -9.832927E+04 -1.065668E+05 -7.408839E+03 -5.348994E+04
       222   9 -4.027606E+05 -1.851921E+05 -1.162270E+05 -1.130877E+05 -1.146525E+03 -5.497458E+04
       222  10  1.052687E+06  1.459060E+05  8.547510E+04 -1.129356E+05 -6.699317E-09 -3.506114E-09
       222  11  1.134558E+06  1.651297E+05  9.963246E+04 -1.064162E+05 -3.466430E-09 -3.411802E-09
       222  12  1.217725E+06  1.857258E+05  1.186450E+05 -1.130941E+05 -2.255736E-09 -2.577842E-09
       222  13  4.071920E+05 -1.018213E+02  3.731980E+02 -1.130908E+05  1.095154E-09 -3.075598E-09
       222  14  4.070982E+05 -2.541711E+01  6.515301E+02 -1.064917E+05  2.631320E-09 -3.089416E-09
       222  15  4.071512E+05  2.803188E+02  1.211492E+03 -1.130910E+05  5.030506E-10 -2.649113E-09
       222  16 -2.378781E+05 -1.461272E+05 -8.473166E+04 -1.132458E+05  8.978463E-09 -2.484848E-09
       222  17 -3.198237E+05 -1.652035E+05 -9.833475E+04 -1.065672E+05  3.255023E-09 -1.630553E-09
       222  18 -4.027614E+05 -1.851953E+05 -1.162327E+05 -1.130878E+05  2.191869E-09 -2.411804E-09
       222  19  1.052688E+06  1.459087E+05  8.547997E+04 -1.129361E+05 -1.316472E+04  4.921458E+04
       222  20  1.134559E+06  1.651328E+05  9.963791E+04 -1.064164E+05 -6.245436E+03  5.347279E+04
       222  21  1.217726E+06  1.857290E+05  1.186507E+05 -1.130941E+05  6.747812E+02  5.496016E+04
       222  22  4.071926E+05 -9.921900E+01  3.777520E+02 -1.130908E+05  2.601770E+02  4.922280E+04
       222  23  4.070990E+05 -2.234501E+01  6.569068E+02 -1.064917E+05  5.855158E+02  5.348136E+04
       222  24  4.071520E+05  2.835641E+02  1.217172E+03 -1.130909E+05  9.108007E+02  5.496736E+04
       222  25 -2.378773E+05 -1.461246E+05 -8.472676E+04 -1.132453E+05  1.367180E+04  4.923103E+04
       222  26 -3.198229E+05 -1.652005E+05 -9.832927E+04 -1.065668E+05  7.408839E+03  5.348994E+04
       222  27 -4.027606E+05 -1.851921E+05 -1.162270E+05 -1.130877E+05  1.146525E+03  5.497458E+04
       223   1  1.270318E+06  1.987949E+05  1.311820E+05 -1.125982E+05 -2.405361E+03 -5.559254E+04
       223   2  1.348349E+06  2.230572E+05  1.689998E+05 -1.085120E+05 -5.320527E+04 -4.472821E+04
       223   3  1.435780E+06  2.582138E+05  2.425841E+05 -1.160930E+05 -1.040363E+05 -1.316253E+04
       223   4  4.072941E+05  4.514738E+02  1.632160E+03 -1.127501E+05 -1.123430E+03 -5.559945E+04
       223   5  4.068407E+05  1.754242E+03  3.001588E+03 -1.069184E+05 -2.641215E+03 -4.470410E+04
       223   6  4.072433E+05  5.412455E+03  5.957577E+03 -1.127528E+05 -4.181298E+03 -1.309324E+04
       223   7 -4.549836E+05 -1.979272E+05 -1.279324E+05 -1.129017E+05  1.567943E+02 -5.560637E+04
       223   8 -5.337965E+05 -2.195959E+05 -1.630195E+05 -1.053274E+05  4.784855E+04 -4.467972E+04
       223   9 -6.202947E+05 -2.474573E+05 -2.307016E+05 -1.094182E+05  9.550991E+04 -1.302283E+04
       223  10  1.270317E+06  1.987916E+05  1.311762E+05 -1.125984E+05 -5.497585E-09 -2.502668E-09
       223  11  1.348345E+06  2.230543E+05  1.689907E+05 -1.085139E+05 -1.171478E-09 -3.041071E-09
       223  12  1.435768E+06  2.582107E+05  2.425635E+05 -1.160941E+05 -2.711970E-09 -7.611689E-10
       223  13  4.072933E+05  4.481533E+02  1.626347E+03 -1.127501E+05  6.397286E-10 -4.491725E-09
       223  14  4.068401E+05  1.752094E+03  2.997818E+03 -1.069185E+05 -2.357738E-09  4.143804E-10
       223  15  4.072433E+05  5.412267E+03  5.957221E+03 -1.127528E+05 -3.436724E-10 -2.053203E-10
       223  16 -4.549844E+05 -1.979305E+05 -1.279382E+05 -1.129017E+05  4.710407E-09 -2.491191E-09
       223  17 -5.337995E+05 -2.195986E+05 -1.630275E+05 -1.053257E+05  1.853545E-09  1.544885E-10
       223  18 -6.203045E+05 -2.474599E+05 -2.307191E+05 -1.094172E+05  3.315506E-09 -9.276643E-10
       223  19  1.270318E+06  1.987949E+05  1.311820E+05 -1.125982E+05  2.405361E+03  5.559254E+04
       223  20  1.348349E+06  2.230572E+05  1.689998E+05 -1.085120E+05  5.320527E+04  4.472821E+04
       223  21  1.435780E+06  2.582138E+05  2.425841E+05 -1.160930E+05  1.040363E+05  1.316253E+04
       223  22  4.072941E+05  4.514738E+02  1.632160E+03 -1.127501E+05  1.123430E+03  5.559945E+04
       223  23  4.068407E+05  1.754242E+03  3.001588E+03 -1.069184E+05  2.641215E+03  4.470410E+04
       223  24  4.072433E+05  5.412455E+03  5.957577E+03 -1.127528E+05  4.181298E+03  1.309324E+04
       223  25 -4.549836E+05 -1.979272E+05 -1.279324E+05 -1.129017E+05 -1.567943E+02  5.560637E+04
       223  26 -5.337965E+05 -2.195959E+05 -1.630195E+05 -1.053274E+05 -4.784855E+04  4.467972E+04
       223  27 -6.202947E+05 -2.474573E+05 -2.307016E+05 -1.094182E+05 -9.550991E+04  1.302283E+04
       224   1  2.152431E+05  1.015520E+06  2.054621E+05 -2.732131E+05  8.190382E+03  6.682852E+04
       224   2  1.547799E+05  8.170712E+05  1.258772E+05 -2.550329E+05  2.536170E+04  2.236151E+04
       224   3  1.055105E+05  6.272236E+05  7.800787E+04 -2.669315E+05  2.515856E+04 -2.209705E+04
       224   4  9.445229E+03  1.815808E+05  9.878739E+03 -2.663276E+05  8.246343E+03  5.409399E+03
       224   5  3.681258E+03  1.809196E+05  6.196265E+03 -2.512911E+05  2.538324E+04  2.285609E+03
       224   6  1.948953E+03  1.816631E+05  5.551410E+03 -2.663341E+05  2.513787E+04 -8.437549E+02
       224   7 -1.963999E+05 -6.517108E+05 -1.857380E+05 -2.594513E+05  8.300995E+03 -5.592784E+04
       224   8 -1.474406E+05 -4.548404E+05 -1.135008E+05 -2.475529E+05  2.540454E+04 -1.777025E+04
       224   9 -1.016225E+05 -2.636998E+05 -6.690892E+04 -2.657370E+05  2.511720E+04  2.039484E+04
       224  10  2.152419E+05  1.015515E+06  2.054536E+05 -2.732135E+05 -1.735687E-09 -8.885561E-10
       224  11  1.547791E+05  8.170705E+05  1.258750E+05 -2.550334E+05 -2.032140E-09  2.279203E-10
       224  12  1.055097E+05  6.272229E+05  7.800577E+04 -2.669311E+05 -7.916190E-10  6.916675E-10
       224  13  9.445148E+03  1.815807E+05  9.878556E+03 -2.663277E+05  1.163023E-09 -2.694308E-11
       224  14  3.680564E+03  1.809195E+05  6.195045E+03 -2.512911E+05 -2.573380E-09  2.871800E-10
       224  15  1.948274E+03  1.816629E+05  5.550221E+03 -2.663340E+05 -4.672155E-10 -5.508754E-11
       224  16 -1.964008E+05 -6.517141E+05 -1.857440E+05 -2.594509E+05  2.031902E-09  1.344545E-09
       224  17 -1.474414E+05 -4.548409E+05 -1.135026E+05 -2.475526E+05  3.092354E-10  2.971297E-10
       224  18 -1.016233E+05 -2.637004E+05 -6.691088E+04 -2.657374E+05 -1.458404E-09 -6.712180E-10
       224  19  2.152431E+05  1.015520E+06  2.054621E+05 -2.732131E+05 -8.190382E+03 -6.682852E+04
       224  20  1.547799E+05  8.170712E+05  1.258772E+05 -2.550329E+05 -2.536170E+04 -2.236151E+04
       224  21  1.055105E+05  6.272236E+05  7.800787E+04 -2.669315E+05 -2.515856E+04  2.209705E+04
       224  22  9.445229E+03  1.815808E+05  9.878739E+03 -2.663276E+05 -8.246343E+03 -5.409399E+03
       224  23  3.681258E+03  1.809196E+05  6.196265E+03 -2.512911E+05 -2.538324E+04 -2.285609E+03
       224  24  1.948953E+03  1.816631E+05  5.551410E+03 -2.663341E+05 -2.513787E+04  8.437549E+02
       224  25 -1.963999E+05 -6.517108E+05 -1.857380E+05 -2.594513E+05 -8.300995E+03  5.592784E+04
       224  26 -1.474406E+05 -4.548404E+05 -1.135008E+05 -2.475529E+05 -2.540454E+04  1.777025E+04
       224  27 -1.016225E+05 -2.636998E+05 -6.690892E+04 -2.657370E+05 -2.511720E+04 -2.039484E+04
       225   1  7.699869E+04  5.060514E+05  5.752446E+04 -2.674385E+05  1.910952E+04 -2.419331E+04
       225   2  3.224963E+04  3.112774E+05  2.659164E+04 -2.496655E+05  9.342675E+03 -3.005787E+04
       225   3 -9.188307E+03  1.180906E+05  2.897405E+02 -2.631597E+05 -1.109811E+03 -3.592188E+04
       225   4  1.833182E+03  1.816493E+05  5.975295E+03 -2.665980E+05  1.908619E+04 -1.774317E+03
       225   5  2.579460E+03  1.810244E+05  8.438498E+03 -2.509625E+05  9.316821E+03 -6.011781E+03
       225   6  6.355913E+03  1.816659E+05  1.440165E+04 -2.665939E+05 -1.138253E+03 -1.025039E+04
       225   7 -7.333730E+04 -1.426471E+05 -4.557467E+04 -2.657580E+05  1.906291E+04  2.063339E+04
       225   8 -2.709115E+04  5.078973E+04 -9.712677E+03 -2.522592E+05  9.290862E+03  1.802949E+04
       225   9  2.190026E+04  2.452463E+05  2.851578E+04 -2.700285E+05 -1.166977E+03  1.542371E+04
       225  10  7.699814E+04  5.060507E+05  5.752267E+04 -2.674381E+05  3.401706E-09  2.887987E-09
       225  11  3.224930E+04  3.112764E+05  2.658978E+04 -2.496653E+05  1.995884E-09 -3.573536E-10
       225  12 -9.188655E+03  1.180892E+05  2.873137E+02 -2.631597E+05 -1.011650E-09 -4.323152E-09
       225  13  1.832790E+03  1.816492E+05  5.974605E+03 -2.665980E+05  2.988850E-10  1.485618E-11
       225  14  2.579357E+03  1.810243E+05  8.438267E+03 -2.509624E+05  2.482922E-09  3.439089E-10
       225  15  6.355883E+03  1.816657E+05  1.440145E+04 -2.665939E+05 -7.635576E-10 -3.459667E-11
       225  16 -7.333780E+04 -1.426477E+05 -4.557616E+04 -2.657583E+05 -1.438679E-09 -2.171409E-09
       225  17 -2.709133E+04  5.078935E+04 -9.713450E+03 -2.522593E+05 -3.102791E-10  6.771138E-10
       225  18  2.190019E+04  2.452460E+05  2.851534E+04 -2.700285E+05  1.293057E-09  4.255798E-09
       225  19  7.699869E+04  5.060514E+05  5.752446E+04 -2.674385E+05 -1.910952E+04  2.419331E+04
       225  20  3.224963E+04  3.112774E+05  2.659164E+04 -2.496655E+05 -9.342675E+03  3.005787E+04
       225  21 -9.188307E+03  1.180906E+05  2.897405E+02 -2.631597E+05  1.109811E+03  3.592188E+04
       225  22  1.833182E+03  1.816493E+05  5.975295E+03 -2.665980E+05 -1.908619E+04  1.774317E+03
       225  23  2.579460E+03  1.810244E+05  8.438498E+03 -2.509625E+05 -9.316821E+03  6.011781E+03
       225  24  6.355913E+03  1.816659E+05  1.440165E+04 -2.665939E+05  1.138253E+03  1.025039E+04
       225  25 -7.333730E+04 -1.426471E+05 -4.557467E+04 -2.657580E+05 -1.906291E+04 -2.063339E+04
       225  26 -2.709115E+04  5.078973E+04 -9.712677E+03 -2.522592E+05 -9.290862E+03 -1.802949E+04
       225  27  2.190026E+04  2.452463E+05  2.851578E+04 -2.700285E+05  1.166977E+03 -1.542371E+04
       226   1 -3.518188E+04 -1.004507E+03 -1.488810E+04 -2.640100E+05 -7.848638E+03 -3.767861E+04
       226   2 -6.678210E+04 -1.969066E+05 -4.037285E+04 -2.278483E+05 -1.227232E+04 -2.637616E+04
       226   3 -7.697415E+04 -3.889144E+05 -6.787283E+04 -2.221989E+05 -4.528319E+03 -1.507152E+04
       226   4  8.466930E+03  1.833491E+05  1.898908E+04 -2.664264E+05 -7.875874E+03 -1.275377E+04
       226   5  2.341875E+04  1.788899E+05  3.456023E+04 -2.511489E+05 -1.226658E+04 -3.036211E+04
       226   6  6.478816E+04  1.832954E+05  6.818562E+04 -2.663758E+05 -4.493774E+03 -4.796477E+04
       226   7  5.211416E+04  3.677371E+05  5.286720E+04 -2.688434E+05 -7.903299E+03  1.217829E+04
       226   8  1.136130E+05  5.548225E+05  1.094866E+05 -2.744638E+05 -1.226054E+04 -3.435043E+04
       226   9  2.065347E+05  7.558124E+05  2.042263E+05 -3.105934E+05 -4.454568E+03 -8.088820E+04
       226  10 -3.518232E+04 -1.006048E+03 -1.489088E+04 -2.640103E+05  2.921685E-10  9.988729E-10
       226  11 -6.678245E+04 -1.969073E+05 -4.037444E+04 -2.278486E+05 -7.008419E-10  8.332186E-10
       226  12 -7.697423E+04 -3.889147E+05 -6.787329E+04 -2.221990E+05  7.951241E-10  3.261583E-11
       226  13  8.466819E+03  1.833490E+05  1.898866E+04 -2.664264E+05 -3.470857E-10  3.932466E-11
       226  14  2.341834E+04  1.788889E+05  3.455822E+04 -2.511492E+05  9.080860E-10  3.782270E-10
       226  15  6.478752E+04  1.832930E+05  6.818125E+04 -2.663760E+05  2.129562E-09 -7.032923E-11
       226  16  5.211405E+04  3.677370E+05  5.286681E+04 -2.688433E+05  1.765047E-09 -2.455184E-10
       226  17  1.136125E+05  5.548212E+05  1.094841E+05 -2.744641E+05 -3.012597E-09 -3.938162E-10
       226  18  2.065330E+05  7.558054E+05  2.042139E+05 -3.105937E+05 -4.529931E-10  6.572490E-11
       226  19 -3.518188E+04 -1.004507E+03 -1.488810E+04 -2.640100E+05  7.848638E+03  3.767861E+04
       226  20 -6.678210E+04 -1.969066E+05 -4.037285E+04 -2.278483E+05  1.227232E+04  2.637616E+04
       226  21 -7.697415E+04 -3.889144E+05 -6.787283E+04 -2.221989E+05  4.528319E+03  1.507152E+04
       226  22  8.466930E+03  1.833491E+05  1.898908E+04 -2.664264E+05  7.875874E+03  1.275377E+04
       226  23  2.341875E+04  1.788899E+05  3.456023E+04 -2.511489E+05  1.226658E+04  3.036211E+04
       226  24  6.478816E+04  1.832954E+05  6.818562E+04 -2.663758E+05  4.493774E+03  4.796477E+04
       226  25  5.211416E+04  3.677371E+05  5.286720E+04 -2.688434E+05  7.903299E+03 -1.217829E+04
       226  26  1.136130E+05  5.548225E+05  1.094866E+05 -2.744638E+05  1.226054E+04  3.435043E+04
       226  27  2.065347E+05  7.558124E+05  2.042263E+05 -3.105934E+05  4.454568E+03  8.088820E+04
       227   1 -4.454880E+05 -2.494903E+05 -1.501383E+05 -1.933834E+05 -7.451899E+04 -2.363711E+04
       227   2 -4.182611E+05 -1.648563E+05 -8.684252E+04 -1.801971E+05 -4.629249E+04 -3.263039E+03
       227   3 -4.060237E+05 -1.273913E+05 -5.840873E+04 -1.627576E+05 -1.545897E+04  1.017644E+04
       227   4 -2.094304E+05 -1.194358E+05 -8.145231E+04 -8.601062E+04 -5.424887E+04 -1.603383E+04
       227   5 -1.986616E+05 -6.557959E+04 -3.790723E+04 -9.993158E+04 -3.770038E+04 -4.003389E+01
       227   6 -2.005623E+05 -5.657155E+04 -1.996207E+04 -1.096025E+05 -1.854669E+04  9.017184E+03
       227   7  2.668336E+04  1.064306E+04 -1.277060E+04  2.140402E+04 -3.397070E+04 -8.424102E+03
       227   8  2.098749E+04  3.370849E+04  1.102526E+04 -1.963767E+04 -2.910507E+04  3.184838E+03
       227   9  4.944421E+03  1.425147E+04  1.848331E+04 -5.643112E+04 -2.163552E+04  7.857560E+03
       227  10 -4.454941E+05 -2.494924E+05 -1.501498E+05 -1.933848E+05 -2.091243E-09 -6.960182E-10
       227  11 -4.182634E+05 -1.648569E+05 -8.684657E+04 -1.801973E+05  6.734400E-09  1.028285E-09
       227  12 -4.060240E+05 -1.273915E+05 -5.840937E+04 -1.627575E+05  1.109288E-08 -2.992414E-10
       227  13 -2.094336E+05 -1.194369E+05 -8.145833E+04 -8.601132E+04  8.132760E-10  8.666297E-10
       227  14 -1.986632E+05 -6.557997E+04 -3.790990E+04 -9.993159E+04  3.484763E-09  1.999422E-09
       227  15 -2.005627E+05 -5.657173E+04 -1.996287E+04 -1.096023E+05  3.167736E-09 -1.067961E-10
       227  16  2.668210E+04  1.064268E+04 -1.277291E+04  2.140379E+04  4.075332E-09  2.180568E-09
       227  17  2.098658E+04  3.370825E+04  1.102365E+04 -1.963760E+04  4.885410E-09  3.035543E-09
       227  18  4.943902E+03  1.425128E+04  1.848232E+04 -5.643098E+04  1.535426E-09  1.169685E-09
       227  19 -4.454880E+05 -2.494903E+05 -1.501383E+05 -1.933834E+05  7.451899E+04  2.363711E+04
       227  20 -4.182611E+05 -1.648563E+05 -8.684252E+04 -1.801971E+05  4.629249E+04  3.263039E+03
       227  21 -4.060237E+05 -1.273913E+05 -5.840873E+04 -1.627576E+05  1.545897E+04 -1.017644E+04
       227  22 -2.094304E+05 -1.194358E+05 -8.145231E+04 -8.601062E+04  5.424887E+04  1.603383E+04
       227  23 -1.986616E+05 -6.557959E+04 -3.790723E+04 -9.993158E+04  3.770038E+04  4.003389E+01
       227  24 -2.005623E+05 -5.657155E+04 -1.996207E+04 -1.096025E+05  1.854669E+04 -9.017184E+03
       227  25  2.668336E+04  1.064306E+04 -1.277060E+04  2.140402E+04  3.397070E+04  8.424102E+03
       227  26  2.098749E+04  3.370849E+04  1.102526E+04 -1.963767E+04  2.910507E+04 -3.184838E+03
       227  27  4.944421E+03  1.425147E+04  1.848331E+04 -5.643112E+04  2.163552E+04 -7.857560E+03
       228   1 -3.789616E+05 -1.241343E+05 -4.918716E+04 -1.599997E+05 -1.366443E+04  9.506513E+03
       228   2 -3.496425E+05 -1.067179E+05 -3.530262E+04 -1.482941E+05 -8.081938E+03  9.788796E+03
       228   3 -3.166211E+05 -9.684510E+04 -2.574306E+04 -1.421679E+05 -2.277097E+03  9.478630E+03
       228   4 -1.981512E+05 -5.726746E+04 -1.504880E+04 -1.083962E+05 -1.584397E+04  8.688142E+03
       228   5 -1.998905E+05 -5.211093E+04 -7.922376E+03 -1.061623E+05 -1.125841E+04  8.596539E+03
       228   6 -1.977301E+05 -5.430009E+04 -4.329912E+03 -1.095082E+05 -6.450750E+03  7.912459E+03
       228   7 -1.730834E+04  9.602001E+03  1.908776E+04 -5.677915E+04 -1.802416E+04  7.869512E+03
       228   8 -5.011483E+04  2.498224E+03  1.945710E+04 -6.402104E+04 -1.443570E+04  7.403971E+03
       228   9 -7.882316E+04 -1.175338E+04  1.708314E+04 -7.684244E+04 -1.062530E+04  6.345962E+03
       228  10 -3.789619E+05 -1.241344E+05 -4.918768E+04 -1.599996E+05 -3.181855E-09 -4.892717E-09
       228  11 -3.496426E+05 -1.067180E+05 -3.530292E+04 -1.482940E+05  1.265159E-08  6.657820E-09
       228  12 -3.166211E+05 -9.684520E+04 -2.574324E+04 -1.421679E+05  3.884852E-08  1.910610E-08
       228  13 -1.981515E+05 -5.726761E+04 -1.504942E+04 -1.083961E+05 -2.632552E-09 -1.660476E-09
       228  14 -1.998906E+05 -5.211104E+04 -7.922753E+03 -1.061622E+05 -6.345800E-09 -3.566166E-10
       228  15 -1.977302E+05 -5.430017E+04 -4.330108E+03 -1.095082E+05  6.156478E-09  4.574800E-09
       228  16 -1.730870E+04  9.601848E+03  1.908703E+04 -5.677904E+04  7.785258E-09  2.082874E-09
       228  17 -5.011507E+04  2.498109E+03  1.945660E+04 -6.402095E+04 -1.410048E-08 -8.389925E-09
       228  18 -7.882329E+04 -1.175345E+04  1.708285E+04 -7.684239E+04 -2.929595E-08 -9.626469E-09
       228  19 -3.789616E+05 -1.241343E+05 -4.918716E+04 -1.599997E+05  1.366443E+04 -9.506513E+03
       228  20 -3.496425E+05 -1.067179E+05 -3.530262E+04 -1.482941E+05  8.081938E+03 -9.788796E+03
       228  21 -3.166211E+05 -9.684510E+04 -2.574306E+04 -1.421679E+05  2.277097E+03 -9.478630E+03
       228  22 -1.981512E+05 -5.726746E+04 -1.504880E+04 -1.083962E+05  1.584397E+04 -8.688142E+03
       228  23 -1.998905E+05 -5.211093E+04 -7.922376E+03 -1.061623E+05  1.125841E+04 -8.596539E+03
       228  24 -1.977301E+05 -5.430009E+04 -4.329912E+03 -1.095082E+05  6.450750E+03 -7.912459E+03
       228  25 -1.730834E+04  9.602001E+03  1.908776E+04 -5.677915E+04  1.802416E+04 -7.869512E+03
       228  26 -5.011483E+04  2.498224E+03  1.945710E+04 -6.402104E+04  1.443570E+04 -7.403971E+03
       228  27 -7.882316E+04 -1.175338E+04  1.708314E+04 -7.684244E+04  1.062530E+04 -6.345962E+03
       229   1 -2.955871E+05 -8.963900E+04 -2.078868E+04 -1.366004E+05 -1.208907E+03  8.223674E+03
       229   2 -2.665079E+05 -7.553724E+04 -1.367161E+04 -1.248355E+05  6.896773E+02  6.133186E+03
       229   3 -2.323701E+05 -6.679985E+04 -7.312442E+03 -1.190708E+05  2.607157E+03  3.991958E+03
       229   4 -1.975372E+05 -5.434973E+04 -3.252931E+03 -1.094159E+05 -5.305585E+03  6.686502E+03
       229   5 -2.000684E+05 -5.163809E+04 -1.786597E+03 -1.064295E+05 -3.492390E+03  4.564106E+03
       229   6 -1.975250E+05 -5.427385E+04 -1.010412E+03 -1.094436E+05 -1.660358E+03  2.390959E+03
       229   7 -9.947729E+04 -1.905956E+04  1.428255E+04 -8.222734E+04 -9.402951E+03  5.149074E+03
       229   8 -1.336246E+05 -2.773864E+04  1.009825E+04 -8.802176E+04 -7.674913E+03  2.994857E+03
       229   9 -1.626789E+05 -4.174786E+04  5.291556E+03 -9.981605E+04 -5.928087E+03  7.898820E+02
       229  10 -2.955871E+05 -8.963908E+04 -2.078881E+04 -1.366004E+05 -3.798984E-09  1.788305E-09
       229  11 -2.665079E+05 -7.553728E+04 -1.367168E+04 -1.248355E+05 -1.637796E-08 -6.159914E-09
       229  12 -2.323701E+05 -6.679987E+04 -7.312485E+03 -1.190708E+05 -2.314588E-08 -9.641806E-09
       229  13 -1.975373E+05 -5.434978E+04 -3.253068E+03 -1.094158E+05  7.380322E-09  5.265192E-09
       229  14 -2.000684E+05 -5.163811E+04 -1.786659E+03 -1.064295E+05 -1.921539E-09  1.218844E-09
       229  15 -1.975250E+05 -5.427386E+04 -1.010428E+03 -1.094436E+05 -1.440266E-09 -1.640541E-09
       229  16 -9.947740E+04 -1.905961E+04  1.428234E+04 -8.222730E+04  1.564962E-08  8.879289E-09
       229  17 -1.336246E+05 -2.773867E+04  1.009812E+04 -8.802174E+04  1.647467E-08  7.380549E-09
       229  18 -1.626790E+05 -4.174787E+04  5.291489E+03 -9.981605E+04  2.295610E-08  6.368512E-09
       229  19 -2.955871E+05 -8.963900E+04 -2.078868E+04 -1.366004E+05  1.208907E+03 -8.223674E+03
       229  20 -2.665079E+05 -7.553724E+04 -1.367161E+04 -1.248355E+05 -6.896773E+02 -6.133186E+03
       229  21 -2.323701E+05 -6.679985E+04 -7.312442E+03 -1.190708E+05 -2.607157E+03 -3.991958E+03
       229  22 -1.975372E+05 -5.434973E+04 -3.252931E+03 -1.094159E+05  5.305585E+03 -6.686502E+03
       229  23 -2.000684E+05 -5.163809E+04 -1.786597E+03 -1.064295E+05  3.492390E+03 -4.564106E+03
       229  24 -1.975250E+05 -5.427385E+04 -1.010412E+03 -1.094436E+05  1.660358E+03 -2.390959E+03
       229  25 -9.947729E+04 -1.905956E+04  1.428255E+04 -8.222734E+04  9.402951E+03 -5.149074E+03
       229  26 -1.336246E+05 -2.773864E+04  1.009825E+04 -8.802176E+04  7.674913E+03 -2.994857E+03
       229  27 -1.626789E+05 -4.174786E+04  5.291556E+03 -9.981605E+04  5.928087E+03 -7.898820E+02
       230   1 -2.117321E+05 -5.935526E+04 -3.239410E+03 -1.133506E+05  3.302498E+03  2.570202E+03
       230   2 -1.827327E+05 -4.536234E+04  2.604032E+03 -1.015564E+05  4.503573E+03  1.336911E+02
       230   3 -1.485351E+05 -3.660947E+04  8.259543E+03 -9.576139E+04  5.706068E+03 -2.306502E+03
       230   4 -1.975016E+05 -5.427903E+04 -7.794094E+02 -1.094325E+05 -9.586173E+02  9.716323E+02
       230   5 -2.001014E+05 -5.166514E+04 -4.925363E+02 -1.064304E+05  2.360980E+02 -1.467309E+03
       230   6 -1.975035E+05 -5.429049E+04 -3.888312E+02 -1.094283E+05  1.432217E+03 -3.909931E+03
       230   7 -1.832708E+05 -4.920271E+04  1.680703E+03 -1.055142E+05 -5.219879E+03 -6.269909E+02
       230   8 -2.174699E+05 -5.796794E+04 -3.589062E+03 -1.113044E+05 -4.031271E+03 -3.068269E+03
       230   9 -2.464693E+05 -7.197128E+04 -9.037209E+03 -1.230941E+05 -2.841277E+03 -5.513226E+03
       230  10 -2.117321E+05 -5.935527E+04 -3.239443E+03 -1.133506E+05 -5.477696E-08 -2.267755E-08
       230  11 -1.827328E+05 -4.536234E+04  2.603994E+03 -1.015564E+05 -2.609245E-09 -4.196409E-09
       230  12 -1.485351E+05 -3.660948E+04  8.259472E+03 -9.576138E+04  5.208286E-08  1.846328E-08
       230  13 -1.975016E+05 -5.427903E+04 -7.794129E+02 -1.094325E+05 -4.121066E-09 -3.103390E-09
       230  14 -2.001014E+05 -5.166515E+04 -4.925404E+02 -1.064304E+05 -2.835382E-09 -4.889792E-09
       230  15 -1.975035E+05 -5.429051E+04 -3.888638E+02 -1.094283E+05 -1.248965E-09 -2.047838E-09
       230  16 -1.832708E+05 -4.920271E+04  1.680651E+03 -1.055142E+05  5.335640E-08  1.666636E-08
       230  17 -2.174699E+05 -5.796795E+04 -3.589110E+03 -1.113044E+05  6.647856E-10 -5.395592E-09
       230  18 -2.464693E+05 -7.197132E+04 -9.037281E+03 -1.230942E+05 -5.621661E-08 -2.296543E-08
       230  19 -2.117321E+05 -5.935526E+04 -3.239410E+03 -1.133506E+05 -3.302498E+03 -2.570202E+03
       230  20 -1.827327E+05 -4.536234E+04  2.604032E+03 -1.015564E+05 -4.503573E+03 -1.336911E+02
       230  21 -1.485351E+05 -3.660947E+04  8.259543E+03 -9.576139E+04 -5.706068E+03  2.306502E+03
       230  22 -1.975016E+05 -5.427903E+04 -7.794094E+02 -1.094325E+05  9.586173E+02 -9.716323E+02
       230  23 -2.001014E+05 -5.166514E+04 -4.925363E+02 -1.064304E+05 -2.360980E+02  1.467309E+03
       230  24 -1.975035E+05 -5.429049E+04 -3.888312E+02 -1.094283E+05 -1.432217E+03  3.909931E+03
       230  25 -1.832708E+05 -4.920271E+04  1.680703E+03 -1.055142E+05  5.219879E+03  6.269909E+02
       230  26 -2.174699E+05 -5.796794E+04 -3.589062E+03 -1.113044E+05  4.031271E+03  3.068269E+03
       230  27 -2.464693E+05 -7.197128E+04 -9.037209E+03 -1.230941E+05  2.841277E+03  5.513226E+03
       231   1 -1.279391E+05 -2.914789E+04  1.209716E+04 -9.003602E+04  6.325248E+03 -3.758590E+03
       231   2 -9.894611E+04 -1.514897E+04  1.754019E+04 -7.824531E+04  7.513349E+03 -6.202641E+03
       231   3 -6.475321E+04 -6.386423E+03  2.280631E+04 -7.245232E+04  8.699322E+03 -8.640464E+03
       231   4 -1.975046E+05 -5.429103E+04 -3.897954E+02 -1.094280E+05  2.051363E+03 -5.362096E+03
       231   5 -2.001035E+05 -5.166927E+04 -4.978389E+02 -1.064302E+05  3.249741E+03 -7.802480E+03
       231   6 -1.975056E+05 -5.428595E+04 -7.909257E+02 -1.094306E+05  4.445985E+03 -1.023665E+04
       231   7 -2.670642E+05 -7.943344E+04 -1.287665E+04 -1.288177E+05 -2.221971E+03 -6.965394E+03
       231   8 -3.012501E+05 -8.818859E+04 -1.853613E+04 -1.346109E+05 -1.013127E+03 -9.402042E+03
       231   9 -3.302406E+05 -1.021843E+05 -2.438902E+04 -1.464019E+05  1.935765E+02 -1.183249E+04
       231  10 -1.279391E+05 -2.914792E+04  1.209706E+04 -9.003600E+04  2.788954E-08  1.238452E-08
       231  11 -9.894618E+04 -1.514903E+04  1.754001E+04 -7.824528E+04  1.224904E-08  8.487566E-09
       231  12 -6.475331E+04 -6.386524E+03  2.280603E+04 -7.245226E+04  1.484666E-09 -4.594625E-11
       231  13 -1.975046E+05 -5.429106E+04 -3.898573E+02 -1.094279E+05  7.820368E-10  9.263706E-10
       231  14 -2.001036E+05 -5.166934E+04 -4.979732E+02 -1.064302E+05  1.411765E-09  5.626730E-09
       231  15 -1.975056E+05 -5.428607E+04 -7.911597E+02 -1.094306E+05  5.176395E-09  9.831706E-09
       231  16 -2.670642E+05 -7.943349E+04 -1.287675E+04 -1.288177E+05 -2.993996E-08 -1.289674E-08
       231  17 -3.012502E+05 -8.818868E+04 -1.853630E+04 -1.346109E+05 -1.691945E-08 -6.049289E-09
       231  18 -3.302407E+05 -1.021844E+05 -2.438928E+04 -1.464019E+05  8.849302E-09  2.717503E-09
       231  19 -1.279391E+05 -2.914789E+04  1.209716E+04 -9.003602E+04 -6.325248E+03  3.758590E+03
       231  20 -9.894611E+04 -1.514897E+04  1.754019E+04 -7.824531E+04 -7.513349E+03  6.202641E+03
       231  21 -6.475321E+04 -6.386423E+03  2.280631E+04 -7.245232E+04 -8.699322E+03  8.640464E+03
       231  22 -1.975046E+05 -5.429103E+04 -3.897954E+02 -1.094280E+05 -2.051363E+03  5.362096E+03
       231  23 -2.001035E+05 -5.166927E+04 -4.978389E+02 -1.064302E+05 -3.249741E+03  7.802480E+03
       231  24 -1.975056E+05 -5.428595E+04 -7.909257E+02 -1.094306E+05 -4.445985E+03  1.023665E+04
       231  25 -2.670642E+05 -7.943344E+04 -1.287665E+04 -1.288177E+05  2.221971E+03  6.965394E+03
       231  26 -3.012501E+05 -8.818859E+04 -1.853613E+04 -1.346109E+05  1.013127E+03  9.402042E+03
       231  27 -3.302406E+05 -1.021843E+05 -2.438902E+04 -1.464019E+05 -1.935765E+02  1.183249E+04
       232   1 -4.417172E+04  1.066361E+03  2.641232E+04 -6.675316E+04  9.411670E+03 -1.005377E+04
       232   2 -1.514179E+04  1.506988E+04  3.121666E+04 -5.496219E+04  1.113093E+04 -1.225216E+04
       232   3  1.898281E+04  2.375156E+04  3.541670E+04 -4.916514E+04  1.282324E+04 -1.437767E+04
       232   4 -1.975314E+05 -5.428165E+04 -1.026254E+03 -1.094411E+05  5.149564E+03 -1.165342E+04
       232   5 -2.000745E+05 -5.165039E+04 -1.816127E+03 -1.064292E+05  6.991189E+03 -1.380624E+04
       232   6 -1.975480E+05 -5.436547E+04 -3.307384E+03 -1.094118E+05  8.805816E+03 -1.588617E+04
       232   7 -3.508661E+05 -1.096274E+05 -2.846552E+04 -1.521191E+05  8.885815E+02 -1.325265E+04
       232   8 -3.849701E+05 -1.183671E+05 -3.484972E+04 -1.578816E+05  2.852787E+03 -1.535982E+04
       232   9 -4.140272E+05 -1.324772E+05 -4.203236E+04 -1.696382E+05  4.789926E+03 -1.739411E+04
       232  10 -4.417185E+04  1.066229E+03  2.641196E+04 -6.675308E+04 -4.376399E-08 -2.067616E-08
       232  11 -1.514197E+04  1.506969E+04  3.121615E+04 -5.496208E+04 -2.488497E-08 -1.404087E-08
       232  12  1.898258E+04  2.375130E+04  3.541600E+04 -4.916500E+04  1.446398E-08  3.308072E-09
       232  13 -1.975314E+05 -5.428180E+04 -1.026559E+03 -1.094410E+05  6.681506E-09  7.552966E-09
       232  14 -2.000746E+05 -5.165061E+04 -1.816577E+03 -1.064291E+05 -1.014808E-08 -9.025088E-10
       232  15 -1.975482E+05 -5.436576E+04 -3.308003E+03 -1.094116E+05 -3.970450E-09 -2.614500E-09
       232  16 -3.508662E+05 -1.096276E+05 -2.846585E+04 -1.521191E+05  4.656094E-08  1.822193E-08
       232  17 -3.849701E+05 -1.183673E+05 -3.485018E+04 -1.578816E+05  5.155267E-09  2.091401E-09
       232  18 -4.140273E+05 -1.324776E+05 -4.203298E+04 -1.696381E+05 -2.447651E-08 -1.045771E-08
       232  19 -4.417172E+04  1.066361E+03  2.641232E+04 -6.675316E+04 -9.411670E+03  1.005377E+04
       232  20 -1.514179E+04  1.506988E+04  3.121666E+04 -5.496219E+04 -1.113093E+04  1.225216E+04
       232  21  1.898281E+04  2.375156E+04  3.541670E+04 -4.916514E+04 -1.282324E+04  1.437767E+04
       232  22 -1.975314E+05 -5.428165E+04 -1.026254E+03 -1.094411E+05 -5.149564E+03  1.165342E+04
       232  23 -2.000745E+05 -5.165039E+04 -1.816127E+03 -1.064292E+05 -6.991189E+03  1.380624E+04
       232  24 -1.975480E+05 -5.436547E+04 -3.307384E+03 -1.094118E+05 -8.805816E+03  1.588617E+04
       232  25 -3.508661E+05 -1.096274E+05 -2.846552E+04 -1.521191E+05 -8.885815E+02  1.325265E+04
       232  26 -3.849701E+05 -1.183671E+05 -3.484972E+04 -1.578816E+05 -2.852787E+03  1.535982E+04
       232  27 -4.140272E+05 -1.324772E+05 -4.203236E+04 -1.696382E+05 -4.789926E+03  1.739411E+04
       233   1  3.962669E+04  3.106137E+04  3.821303E+04 -4.377824E+04  1.408412E+04 -1.554585E+04
       233   2  6.826494E+04  4.531829E+04  4.070064E+04 -3.097349E+04  1.747525E+04 -1.658320E+04
       233   3  1.010503E+05  5.249884E+04  4.072717E+04 -2.371502E+04  2.054908E+04 -1.677376E+04
       233   4 -1.977463E+05 -5.431258E+04 -4.401824E+03 -1.095006E+05  9.956852E+03 -1.709584E+04
       233   5 -1.998942E+05 -5.214370E+04 -8.054922E+03 -1.061612E+05  1.477326E+04 -1.759860E+04
       233   6 -1.981794E+05 -5.733491E+04 -1.529965E+04 -1.083691E+05  1.927218E+04 -1.725443E+04
       233   7 -4.350624E+05 -1.396822E+05 -4.701919E+04 -1.752002E+05  5.831220E+03 -1.864521E+04
       233   8 -4.679792E+05 -1.495993E+05 -5.681341E+04 -1.813190E+05  1.207251E+04 -1.861354E+04
       233   9 -4.973155E+05 -1.671599E+05 -7.133001E+04 -1.929852E+05  1.799593E+04 -1.773485E+04
       233  10  3.962641E+04  3.106106E+04  3.821220E+04 -4.377806E+04 -3.935345E-09 -6.171852E-10
       233  11  6.826453E+04  4.531791E+04  4.069955E+04 -3.097326E+04 -2.563006E-09  3.454372E-10
       233  12  1.010498E+05  5.249842E+04  4.072585E+04 -2.371475E+04 -1.614189E-09  1.195409E-09
       233  13 -1.977465E+05 -5.431292E+04 -4.402559E+03 -1.095004E+05  2.539784E-09 -1.335690E-09
       233  14 -1.998945E+05 -5.214409E+04 -8.055914E+03 -1.061610E+05  1.156869E-09  5.380407E-10
       233  15 -1.981798E+05 -5.733533E+04 -1.530091E+04 -1.083689E+05 -6.976571E-10  1.291247E-09
       233  16 -4.350626E+05 -1.396826E+05 -4.701991E+04 -1.752001E+05  2.944045E-09 -1.005559E-09
       233  17 -4.679794E+05 -1.495997E+05 -5.681433E+04 -1.813188E+05  4.994467E-09  6.689802E-10
       233  18 -4.973159E+05 -1.671603E+05 -7.133121E+04 -1.929849E+05  6.602558E-10  1.140532E-09
       233  19  3.962669E+04  3.106137E+04  3.821303E+04 -4.377824E+04 -1.408412E+04  1.554585E+04
       233  20  6.826494E+04  4.531829E+04  4.070064E+04 -3.097349E+04 -1.747525E+04  1.658320E+04
       233  21  1.010503E+05  5.249884E+04  4.072717E+04 -2.371502E+04 -2.054908E+04  1.677376E+04
       233  22 -1.977463E+05 -5.431258E+04 -4.401824E+03 -1.095006E+05 -9.956852E+03  1.709584E+04
       233  23 -1.998942E+05 -5.214370E+04 -8.054922E+03 -1.061612E+05 -1.477326E+04  1.759860E+04
       233  24 -1.981794E+05 -5.733491E+04 -1.529965E+04 -1.083691E+05 -1.927218E+04  1.725443E+04
       233  25 -4.350624E+05 -1.396822E+05 -4.701919E+04 -1.752002E+05 -5.831220E+03  1.864521E+04
       233  26 -4.679792E+05 -1.495993E+05 -5.681341E+04 -1.813190E+05 -1.207251E+04  1.861354E+04
       233  27 -4.973155E+05 -1.671599E+05 -7.133001E+04 -1.929852E+05 -1.799593E+04  1.773485E+04
       234   1  1.234216E+05  5.720806E+04  4.023835E+04 -2.338942E+04  2.453936E+04 -1.647050E+04
       234   2  1.389053E+05  7.690150E+04  3.459410E+04  1.346651E+04  2.665188E+04 -1.176173E+04
       234   3  1.445837E+05  5.458067E+04  1.616144E+04  5.493232E+04  2.504142E+04  2.856622E+03
       234   4 -2.006612E+05 -5.659788E+04 -2.029436E+04 -1.095598E+05  2.196393E+04 -1.743883E+04
       234   5 -1.986149E+05 -6.587747E+04 -3.853948E+04 -9.987016E+04  4.077312E+04 -6.459684E+03
       234   6 -2.096917E+05 -1.204952E+05 -8.280905E+04 -8.557000E+04  5.585763E+04  1.443112E+04
       234   7 -5.246339E+05 -1.703958E+05 -8.083102E+04 -1.956890E+05  1.938993E+04 -1.840665E+04
       234   8 -5.360113E+05 -2.086333E+05 -1.116772E+05 -2.131444E+05  5.488590E+04 -1.161914E+03
       234   9 -5.638275E+05 -2.955272E+05 -1.817837E+05 -2.259860E+05  8.665383E+04  2.599280E+04
       234  10  1.234208E+05  5.720761E+04  4.023671E+04 -2.338910E+04  5.834489E-11  2.135775E-09
       234  11  1.389045E+05  7.690116E+04  3.459251E+04  1.346676E+04 -1.454473E-09 -6.119867E-10
       234  12  1.445830E+05  5.458049E+04  1.616025E+04  5.493226E+04 -2.291909E-09 -3.552921E-11
       234  13 -2.006618E+05 -5.659834E+04 -2.029583E+04 -1.095595E+05 -2.207562E-11  9.099906E-10
       234  14 -1.986167E+05 -6.587796E+04 -3.854268E+04 -9.986995E+04 -2.466382E-09  8.249149E-10
       234  15 -2.096951E+05 -1.204962E+05 -8.281531E+04 -8.557065E+04 -3.009920E-11  3.678886E-10
       234  16 -5.246344E+05 -1.703962E+05 -8.083236E+04 -1.956887E+05  8.959037E-10  3.099513E-10
       234  17 -5.360145E+05 -2.086341E+05 -1.116828E+05 -2.131443E+05 -7.018189E-10  1.357517E-09
       234  18 -5.638358E+05 -2.955300E+05 -1.817991E+05 -2.259878E+05 -2.174041E-10 -2.435419E-10
       234  19  1.234216E+05  5.720806E+04  4.023835E+04 -2.338942E+04 -2.453936E+04  1.647050E+04
       234  20  1.389053E+05  7.690150E+04  3.459410E+04  1.346651E+04 -2.665188E+04  1.176173E+04
       234  21  1.445837E+05  5.458067E+04  1.616144E+04  5.493232E+04 -2.504142E+04 -2.856622E+03
       234  22 -2.006612E+05 -5.659788E+04 -2.029436E+04 -1.095598E+05 -2.196393E+04  1.743883E+04
       234  23 -1.986149E+05 -6.587747E+04 -3.853948E+04 -9.987016E+04 -4.077312E+04  6.459684E+03
       234  24 -2.096917E+05 -1.204952E+05 -8.280905E+04 -8.557000E+04 -5.585763E+04 -1.443112E+04
       234  25 -5.246339E+05 -1.703958E+05 -8.083102E+04 -1.956890E+05 -1.938993E+04  1.840665E+04
       234  26 -5.360113E+05 -2.086333E+05 -1.116772E+05 -2.131444E+05 -5.488590E+04  1.161914E+03
       234  27 -5.638275E+05 -2.955272E+05 -1.817837E+05 -2.259860E+05 -8.665383E+04 -2.599280E+04
       235   1  8.332724E+05  1.224683E+05  1.083914E+05  1.566972E+04  3.524692E+04 -9.121508E+03
       235   2  7.994133E+05  1.361368E+05  8.858890E+04  2.846145E+04  1.530465E+04 -3.174200E+04
       235   3  7.648364E+05  1.364885E+05  7.844712E+04  4.562928E+04 -4.647713E+03 -4.063558E+04
       235   4  1.454793E+05 -4.647244E+04 -4.928212E+04  4.677059E+04 -3.480976E+04 -9.193058E+03
       235   5  1.486782E+05 -1.658588E+04 -2.486934E+04  4.455843E+04 -2.210462E+04 -3.178643E+04
       235   6  1.454901E+05 -5.690014E+03 -1.345643E+04  4.672213E+04 -9.411043E+03 -4.064531E+04
       235   7 -5.418634E+05 -2.154398E+05 -2.069678E+05  7.783663E+04 -1.047895E+05 -9.271663E+03
       235   8 -5.016387E+05 -1.693297E+05 -1.383372E+05  6.063792E+04 -5.947589E+04 -3.183282E+04
       235   9 -4.734708E+05 -1.478865E+05 -1.053670E+05  4.781373E+04 -1.416982E+04 -4.065505E+04
       235  10  8.332710E+05  1.224678E+05  1.083890E+05  1.566998E+04  3.636353E-09 -1.014431E-09
       235  11  7.994127E+05  1.361356E+05  8.858657E+04  2.846184E+04  9.530685E-10 -3.691978E-09
       235  12  7.648359E+05  1.364867E+05  7.844397E+04  4.562912E+04  3.646588E-09 -2.561214E-09
       235  13  1.454780E+05 -4.647286E+04 -4.928456E+04  4.677033E+04 -2.088845E-09  2.470183E-10
       235  14  1.486774E+05 -1.658710E+04 -2.487216E+04  4.455786E+04  2.015369E-09 -2.747725E-09
       235  15  1.454896E+05 -5.691812E+03 -1.345970E+04  4.672183E+04 -4.281097E-10 -3.428377E-10
       235  16 -5.418752E+05 -2.154428E+05 -2.069887E+05  7.783585E+04 -4.515767E-09 -3.624365E-10
       235  17 -5.016428E+05 -1.693317E+05 -1.383457E+05  6.063640E+04 -3.459931E-09 -4.809746E-09
       235  18 -4.734714E+05 -1.478883E+05 -1.053705E+05  4.781327E+04 -3.140690E-09 -3.820283E-09
       235  19  8.332724E+05  1.224683E+05  1.083914E+05  1.566972E+04 -3.524692E+04  9.121508E+03
       235  20  7.994133E+05  1.361368E+05  8.858890E+04  2.846145E+04 -1.530465E+04  3.174200E+04
       235  21  7.648364E+05  1.364885E+05  7.844712E+04  4.562928E+04  4.647713E+03  4.063558E+04
       235  22  1.454793E+05 -4.647244E+04 -4.928212E+04  4.677059E+04  3.480976E+04  9.193058E+03
       235  23  1.486782E+05 -1.658588E+04 -2.486934E+04  4.455843E+04  2.210462E+04  3.178643E+04
       235  24  1.454901E+05 -5.690014E+03 -1.345643E+04  4.672213E+04  9.411043E+03  4.064531E+04
       235  25 -5.418634E+05 -2.154398E+05 -2.069678E+05  7.783663E+04  1.047895E+05  9.271663E+03
       235  26 -5.016387E+05 -1.693297E+05 -1.383372E+05  6.063792E+04  5.947589E+04  3.183282E+04
       235  27 -4.734708E+05 -1.478865E+05 -1.053670E+05  4.781373E+04  1.416982E+04  4.065505E+04
       236   1  7.440603E+05  1.323738E+05  7.552690E+04  4.507283E+04 -3.900872E+03 -4.117546E+04
       236   2  7.100135E+05  1.264018E+05  7.051098E+04  4.363213E+04 -5.550716E+03 -4.184191E+04
       236   3  6.759059E+05  1.193218E+05  6.629357E+04  4.758603E+04 -7.203131E+03 -4.067077E+04
       236   4  1.467319E+05 -4.135037E+03 -1.003988E+04  4.695046E+04 -7.660412E+03 -4.118414E+04
       236   5  1.471480E+05 -1.296831E+03 -5.420822E+03  4.425034E+04 -4.941743E+03 -4.184501E+04
       236   6  1.467443E+05 -3.252743E+02 -3.035808E+03  4.694516E+04 -2.225657E+03 -4.066741E+04
       236   7 -4.502362E+05 -1.406600E+05 -9.561199E+04  4.882609E+04 -1.141649E+04 -4.119284E+04
       236   8 -4.153950E+05 -1.290091E+05 -8.135556E+04  4.486784E+04 -4.333295E+03 -4.184811E+04
       236   9 -3.821312E+05 -1.199841E+05 -7.236692E+04  4.630475E+04  2.747780E+03 -4.066406E+04
       236  10  7.440598E+05  1.323720E+05  7.552369E+04  4.507270E+04 -3.386981E-09 -2.527255E-09
       236  11  7.100130E+05  1.263999E+05  7.050764E+04  4.363194E+04 -4.700266E-10  2.281197E-09
       236  12  6.759054E+05  1.193200E+05  6.629037E+04  4.758580E+04  3.615188E-09  4.270432E-09
       236  13  1.467314E+05 -4.136874E+03 -1.004317E+04  4.695021E+04 -1.102340E-12 -1.018175E-09
       236  14  1.471475E+05 -1.298718E+03 -5.424158E+03  4.425017E+04  3.666256E-10  1.341731E-09
       236  15  1.467439E+05 -3.270517E+02 -3.038926E+03  4.694509E+04  7.737561E-10  1.165753E-09
       236  16 -4.502368E+05 -1.406619E+05 -9.561542E+04  4.882571E+04  1.737184E-09  7.094018E-10
       236  17 -4.153955E+05 -1.290110E+05 -8.135889E+04  4.486770E+04  1.353745E-09  2.714326E-09
       236  18 -3.821316E+05 -1.199859E+05 -7.237004E+04  4.630484E+04 -2.156159E-09  3.100100E-09
       236  19  7.440603E+05  1.323738E+05  7.552690E+04  4.507283E+04  3.900872E+03  4.117546E+04
       236  20  7.100135E+05  1.264018E+05  7.051098E+04  4.363213E+04  5.550716E+03  4.184191E+04
       236  21  6.759059E+05  1.193218E+05  6.629357E+04  4.758603E+04  7.203131E+03  4.067077E+04
       236  22  1.467319E+05 -4.135037E+03 -1.003988E+04  4.695046E+04  7.660412E+03  4.118414E+04
       236  23  1.471480E+05 -1.296831E+03 -5.420822E+03  4.425034E+04  4.941743E+03  4.184501E+04
       236  24  1.467443E+05 -3.252743E+02 -3.035808E+03  4.694516E+04  2.225657E+03  4.066741E+04
       236  25 -4.502362E+05 -1.406600E+05 -9.561199E+04  4.882609E+04  1.141649E+04  4.119284E+04
       236  26 -4.153950E+05 -1.290091E+05 -8.135556E+04  4.486784E+04  4.333295E+03  4.184811E+04
       236  27 -3.821312E+05 -1.199841E+05 -7.236692E+04  4.630475E+04 -2.747780E+03  4.066406E+04
       237   1  6.549065E+05  1.145654E+05  6.377093E+04  4.748037E+04 -6.890489E+03 -3.936883E+04
       237   2  6.208784E+05  1.069850E+05  5.977458E+04  4.476107E+04 -6.840733E+03 -3.709730E+04
       237   3  5.868234E+05  9.934798E+04  5.572982E+04  4.756789E+04 -6.791948E+03 -3.458018E+04
       237   4  1.469018E+05 -1.989540E+02 -2.286934E+03  4.697465E+04 -1.779745E+03 -3.936483E+04
       237   5  1.469720E+05  3.563294E+01 -1.279425E+03  4.421123E+04 -1.146516E+03 -3.709173E+04
       237   6  1.469128E+05  1.122585E+02 -7.255998E+02  4.697417E+04 -5.142564E+02 -3.457294E+04
       237   7 -3.608390E+05 -1.149741E+05 -6.834619E+04  4.646926E+04  3.327022E+03 -3.936085E+04
       237   8 -3.267044E+05 -1.069230E+05 -6.233441E+04  4.366174E+04  4.543568E+03 -3.708617E+04
       237   9 -2.927995E+05 -9.913142E+04 -5.718175E+04  4.638082E+04  5.759206E+03 -3.456571E+04
       237  10  6.549061E+05  1.145637E+05  6.376793E+04  4.748015E+04  2.008972E-07  7.050964E-09
       237  11  6.208780E+05  1.069835E+05  5.977191E+04  4.476087E+04 -9.988597E-10  7.686256E-09
       237  12  5.868230E+05  9.934668E+04  5.572749E+04  4.756770E+04 -2.033418E-07  4.655034E-09
       237  13  1.469014E+05 -2.006189E+02 -2.289852E+03  4.697459E+04 -1.143456E-09  1.754217E-09
       237  14  1.469716E+05  3.415513E+01 -1.282013E+03  4.421119E+04 -2.787872E-09  7.468015E-09
       237  15  1.469124E+05  1.109748E+02 -7.278466E+02  4.697416E+04  2.834154E-09  6.828612E-09
       237  16 -3.608394E+05 -1.149757E+05 -6.834913E+04  4.646937E+04 -1.998710E-07  4.758145E-09
       237  17 -3.267048E+05 -1.069245E+05 -6.233704E+04  4.366187E+04 -5.250755E-10  7.731241E-09
       237  18 -2.927999E+05 -9.913272E+04 -5.718406E+04  4.638098E+04  2.031907E-07  3.209755E-09
       237  19  6.549065E+05  1.145654E+05  6.377093E+04  4.748037E+04  6.890489E+03  3.936883E+04
       237  20  6.208784E+05  1.069850E+05  5.977458E+04  4.476107E+04  6.840733E+03  3.709730E+04
       237  21  5.868234E+05  9.934798E+04  5.572982E+04  4.756789E+04  6.791948E+03  3.458018E+04
       237  22  1.469018E+05 -1.989540E+02 -2.286934E+03  4.697465E+04  1.779745E+03  3.936483E+04
       237  23  1.469720E+05  3.563294E+01 -1.279425E+03  4.421123E+04  1.146516E+03  3.709173E+04
       237  24  1.469128E+05  1.122585E+02 -7.255998E+02  4.697417E+04  5.142564E+02  3.457294E+04
       237  25 -3.608390E+05 -1.149741E+05 -6.834619E+04  4.646926E+04 -3.327022E+03  3.936085E+04
       237  26 -3.267044E+05 -1.069230E+05 -6.233441E+04  4.366174E+04 -4.543568E+03  3.708617E+04
       237  27 -2.927995E+05 -9.913142E+04 -5.718175E+04  4.638082E+04 -5.759206E+03  3.456571E+04
       238   1  5.658179E+05  9.458059E+04  5.304844E+04  4.753143E+04 -6.698255E+03 -3.303251E+04
       238   2  5.318045E+05  8.691068E+04  4.890764E+04  4.472313E+04 -6.627560E+03 -3.036897E+04
       238   3  4.977745E+05  7.925976E+04  4.472150E+04  4.745529E+04 -6.557462E+03 -2.767297E+04
       238   4  1.469379E+05  1.201435E+02 -5.470631E+02  4.697739E+04 -4.035310E+02 -3.302481E+04
       238   5  1.469582E+05  1.290028E+02 -3.054613E+02  4.420705E+04 -2.559716E+02 -3.036047E+04
       238   6  1.469468E+05  1.433849E+02 -1.628673E+02  4.697736E+04 -1.090057E+02 -2.766367E+04
       238   7 -2.717623E+05 -9.434750E+04 -5.414317E+04  4.642366E+04  5.887156E+03 -3.301711E+04
       238   8 -2.377362E+05 -8.665874E+04 -4.951903E+04  4.369123E+04  6.111863E+03 -3.035198E+04
       238   9 -2.037546E+05 -7.897803E+04 -4.504760E+04  4.649966E+04  6.335987E+03 -2.765438E+04
       238  10  5.658175E+05  9.457940E+04  5.304631E+04  4.753126E+04 -7.517781E-09  3.231363E-09
       238  11  5.318042E+05  8.690967E+04  4.890582E+04  4.472297E+04 -4.023718E-08  6.774682E-09
       238  12  4.977743E+05  7.925892E+04  4.471998E+04  4.745515E+04 -7.403749E-08  5.980848E-09
       238  13  1.469376E+05  1.189722E+02 -5.491131E+02  4.697738E+04 -1.072522E-09  6.584021E-10
       238  14  1.469579E+05  1.280129E+02 -3.071937E+02  4.420704E+04  4.199019E-10 -3.314960E-09
       238  15  1.469466E+05  1.425631E+02 -1.643056E+02  4.697736E+04 -2.540253E-11 -1.292139E-08
       238  16 -2.717626E+05 -9.434868E+04 -5.414528E+04  4.642382E+04  6.997973E-09  2.263370E-09
       238  17 -2.377365E+05 -8.665974E+04 -4.952083E+04  4.369138E+04  4.063191E-08  3.271761E-09
       238  18 -2.037548E+05 -7.897886E+04 -4.504912E+04  4.649980E+04  7.515653E-08  3.261419E-09
       238  19  5.658179E+05  9.458059E+04  5.304844E+04  4.753143E+04  6.698255E+03  3.303251E+04
       238  20  5.318045E+05  8.691068E+04  4.890764E+04  4.472313E+04  6.627560E+03  3.036897E+04
       238  21  4.977745E+05  7.925976E+04  4.472150E+04  4.745529E+04  6.557462E+03  2.767297E+04
       238  22  1.469379E+05  1.201435E+02 -5.470631E+02  4.697739E+04  4.035310E+02  3.302481E+04
       238  23  1.469582E+05  1.290028E+02 -3.054613E+02  4.420705E+04  2.559716E+02  3.036047E+04
       238  24  1.469468E+05  1.433849E+02 -1.628673E+02  4.697736E+04  1.090057E+02  2.766367E+04
       238  25 -2.717623E+05 -9.434750E+04 -5.414317E+04  4.642366E+04 -5.887156E+03  3.301711E+04
       238  26 -2.377362E+05 -8.665874E+04 -4.951903E+04  4.369123E+04 -6.111863E+03  3.035198E+04
       238  27 -2.037546E+05 -7.897803E+04 -4.504760E+04  4.649966E+04 -6.335987E+03  2.765438E+04
       239   1  4.767752E+05  7.450213E+04  4.196644E+04  4.743022E+04 -6.536351E+03 -2.609304E+04
       239   2  4.427754E+05  6.683823E+04  3.774344E+04  4.461798E+04 -6.529539E+03 -2.337839E+04
       239   3  4.087622E+05  5.919688E+04  3.351562E+04  4.734905E+04 -6.523153E+03 -2.066040E+04
       239   4  1.469531E+05  1.452941E+02 -1.137286E+02  4.697799E+04 -8.632334E+01 -2.608339E+04
       239   5  1.469643E+05  1.395985E+02 -3.819695E+01  4.420626E+04 -7.171365E+01 -2.336820E+04
       239   6  1.469600E+05  1.552607E+02  2.715583E+01  4.697798E+04 -5.752877E+01 -2.064968E+04
       239   7 -1.827573E+05 -7.421598E+04 -4.219418E+04  4.652596E+04  6.360447E+03 -2.607374E+04
       239   8 -1.487570E+05 -6.656260E+04 -3.782003E+04  4.379471E+04  6.383187E+03 -2.335801E+04
       239   9 -1.147718E+05 -5.888916E+04 -3.346144E+04  4.660704E+04  6.405504E+03 -2.063895E+04
       239  10  4.767750E+05  7.450139E+04  4.196508E+04  4.743008E+04  7.569096E-08  3.199577E-09
       239  11  4.427752E+05  6.683763E+04  3.774233E+04  4.461786E+04  3.607791E-08 -1.830866E-09
       239  12  4.087621E+05  5.919641E+04  3.351474E+04  4.734894E+04 -2.009874E-09 -3.712954E-09
       239  13  1.469529E+05  1.445635E+02 -1.150072E+02  4.697798E+04  3.304295E-09 -1.005956E-08
       239  14  1.469641E+05  1.390121E+02 -3.922321E+01  4.420626E+04  1.975433E-09 -9.525358E-09
       239  15  1.469599E+05  1.548028E+02  2.635446E+01  4.697798E+04  5.677955E-11 -5.631893E-09
       239  16 -1.827576E+05 -7.421673E+04 -4.219553E+04  4.652609E+04 -7.577227E-08  3.836935E-09
       239  17 -1.487572E+05 -6.656320E+04 -3.782113E+04  4.379483E+04 -3.749663E-08 -1.918771E-09
       239  18 -1.147719E+05 -5.888962E+04 -3.346232E+04  4.660715E+04  3.619397E-09 -3.250101E-09
       239  19  4.767752E+05  7.450213E+04  4.196644E+04  4.743022E+04  6.536351E+03  2.609304E+04
       239  20  4.427754E+05  6.683823E+04  3.774344E+04  4.461798E+04  6.529539E+03  2.337839E+04
       239  21  4.087622E+05  5.919688E+04  3.351562E+04  4.734905E+04  6.523153E+03  2.066040E+04
       239  22  1.469531E+05  1.452941E+02 -1.137286E+02  4.697799E+04  8.632334E+01  2.608339E+04
       239  23  1.469643E+05  1.395985E+02 -3.819695E+01  4.420626E+04  7.171365E+01  2.336820E+04
       239  24  1.469600E+05  1.552607E+02  2.715583E+01  4.697798E+04  5.752877E+01  2.064968E+04
       239  25 -1.827573E+05 -7.421598E+04 -4.219418E+04  4.652596E+04 -6.360447E+03  2.607374E+04
       239  26 -1.487570E+05 -6.656260E+04 -3.782003E+04  4.379471E+04 -6.383187E+03  2.335801E+04
       239  27 -1.147718E+05 -5.888916E+04 -3.346144E+04  4.660704E+04 -6.405504E+03  2.063895E+04
       240   1  3.877728E+05  5.444327E+04  3.075265E+04  4.732494E+04 -6.532737E+03 -1.907728E+04
       240   2  3.537786E+05  4.678954E+04  2.654684E+04  4.450176E+04 -6.598520E+03 -1.636038E+04
       240   3  3.197822E+05  3.917736E+04  2.238713E+04  4.721930E+04 -6.664585E+03 -1.364863E+04
       240   4  1.469651E+05  1.580022E+02  6.122922E+01  4.697740E+04 -6.779102E+01 -1.906629E+04
       240   5  1.469682E+05  1.593095E+02  1.478763E+02  4.420696E+04 -1.459603E+02 -1.634905E+04
       240   6  1.469700E+05  2.043410E+02  2.891224E+02  4.697733E+04 -2.244140E+02 -1.363696E+04
       240   7 -9.378294E+04 -5.412962E+04 -3.063026E+04  4.662998E+04  6.394771E+03 -1.905531E+04
       240   8 -5.979821E+04 -4.647265E+04 -2.625110E+04  4.391224E+04  6.304556E+03 -1.633772E+04
       240   9 -2.581156E+04 -3.876988E+04 -2.180886E+04  4.673541E+04  6.214053E+03 -1.362529E+04
       240  10  3.877726E+05  5.444287E+04  3.075188E+04  4.732484E+04  7.389828E-11 -5.165504E-10
       240  11  3.537785E+05  4.678924E+04  2.654625E+04  4.450168E+04 -2.097806E-10 -4.570861E-10
       240  12  3.197821E+05  3.917715E+04  2.238670E+04  4.721922E+04  9.424060E-10  1.886439E-09
       240  13  1.469650E+05  1.576118E+02  6.054604E+01  4.697740E+04  2.156175E-09 -6.790205E-10
       240  14  1.469682E+05  1.590225E+02  1.473739E+02  4.420696E+04  1.376513E-09  1.337788E-10
       240  15  1.469699E+05  2.041413E+02  2.887729E+02  4.697732E+04 -1.690809E-09  3.067063E-09
       240  16 -9.378308E+04 -5.413002E+04 -3.063102E+04  4.663008E+04  2.187156E-09  1.965991E-10
       240  17 -5.979832E+04 -4.647295E+04 -2.625168E+04  4.391232E+04  4.194134E-11 -4.389334E-09
       240  18 -2.581165E+04 -3.877009E+04 -2.180928E+04  4.673548E+04  3.868132E-10  1.196149E-09
       240  19  3.877728E+05  5.444327E+04  3.075265E+04  4.732494E+04  6.532737E+03  1.907728E+04
       240  20  3.537786E+05  4.678954E+04  2.654684E+04  4.450176E+04  6.598520E+03  1.636038E+04
       240  21  3.197822E+05  3.917736E+04  2.238713E+04  4.721930E+04  6.664585E+03  1.364863E+04
       240  22  1.469651E+05  1.580022E+02  6.122922E+01  4.697740E+04  6.779102E+01  1.906629E+04
       240  23  1.469682E+05  1.593095E+02  1.478763E+02  4.420696E+04  1.459603E+02  1.634905E+04
       240  24  1.469700E+05  2.043410E+02  2.891224E+02  4.697733E+04  2.244140E+02  1.363696E+04
       240  25 -9.378294E+04 -5.412962E+04 -3.063026E+04  4.662998E+04 -6.394771E+03  1.905531E+04
       240  26 -5.979821E+04 -4.647265E+04 -2.625110E+04  4.391224E+04 -6.304556E+03  1.633772E+04
       240  27 -2.581156E+04 -3.876988E+04 -2.180886E+04  4.673541E+04 -6.214053E+03  1.362529E+04
       241   1  2.988135E+05  3.443759E+04  1.968359E+04  4.720605E+04 -6.720984E+03 -1.207079E+04
       241   2  2.647899E+05  2.689317E+04  1.566494E+04  4.422372E+04 -6.981941E+03 -9.383826E+03
       241   3  2.308400E+05  1.960027E+04  1.187131E+04  4.677741E+04 -7.242975E+03 -6.738051E+03
       241   4  1.469913E+05  2.219472E+02  3.901722E+02  4.697633E+04 -2.841860E+02 -1.205896E+04
       241   5  1.469482E+05  3.392238E+02  7.066865E+02  4.420784E+04 -6.432108E+02 -9.371973E+03
       241   6  1.469940E+05  7.249421E+02  1.316043E+03  4.697541E+04 -1.002323E+03 -6.726185E+03
       241   7 -4.807101E+03 -3.399462E+04 -1.890317E+04  4.674667E+04  6.151116E+03 -1.204713E+04
       241   8  2.912080E+04 -2.621527E+04 -1.425147E+04  4.419196E+04  5.694376E+03 -9.360119E+03
       241   9  6.315535E+04 -1.815065E+04 -9.239098E+03  4.717337E+04  5.237529E+03 -6.714314E+03
       241  10  2.988134E+05  3.443742E+04  1.968323E+04  4.720598E+04 -1.449988E-09  4.667548E-09
       241  11  2.647898E+05  2.689306E+04  1.566469E+04  4.422367E+04  7.004639E-10 -4.108447E-10
       241  12  2.308399E+05  1.960021E+04  1.187113E+04  4.677737E+04  3.557416E-09  3.689327E-09
       241  13  1.469913E+05  2.217910E+02  3.898988E+02  4.697633E+04 -4.292326E-12  4.069807E-09
       241  14  1.469482E+05  3.391294E+02  7.065207E+02  4.420784E+04  2.908676E-10  3.611927E-09
       241  15  1.469940E+05  7.248932E+02  1.315956E+03  4.697540E+04 -1.441580E-09  1.083198E-09
       241  16 -4.807180E+03 -3.399478E+04 -1.890352E+04  4.674673E+04 -8.931074E-11  4.072363E-09
       241  17  2.912074E+04 -2.621537E+04 -1.425169E+04  4.419200E+04 -7.154652E-09  3.077276E-09
       241  18  6.315531E+04 -1.815071E+04 -9.239235E+03  4.717340E+04 -7.550042E-09 -3.360907E-09
       241  19  2.988135E+05  3.443759E+04  1.968359E+04  4.720605E+04  6.720984E+03  1.207079E+04
       241  20  2.647899E+05  2.689317E+04  1.566494E+04  4.422372E+04  6.981941E+03  9.383826E+03
       241  21  2.308400E+05  1.960027E+04  1.187131E+04  4.677741E+04  7.242975E+03  6.738051E+03
       241  22  1.469913E+05  2.219472E+02  3.901722E+02  4.697633E+04  2.841860E+02  1.205896E+04
       241  23  1.469482E+05  3.392238E+02  7.066865E+02  4.420784E+04  6.432108E+02  9.371973E+03
       241  24  1.469940E+05  7.249421E+02  1.316043E+03  4.697541E+04  1.002323E+03  6.726185E+03
       241  25 -4.807101E+03 -3.399462E+04 -1.890317E+04  4.674667E+04 -6.151116E+03  1.204713E+04
       241  26  2.912080E+04 -2.621527E+04 -1.425147E+04  4.419196E+04 -5.694376E+03  9.360119E+03
       241  27  6.315535E+04 -1.815065E+04 -9.239098E+03  4.717337E+04 -5.237529E+03  6.714314E+03
       242   1  2.099980E+05  1.503049E+04  9.448027E+03  4.684486E+04 -7.452544E+03 -5.201799E+03
       242   2  1.756730E+05  8.726948E+03  6.278448E+03  4.206483E+04 -8.390714E+03 -2.740941E+03
       242   3  1.420436E+05  4.816769E+03  4.309847E+03  4.279520E+04 -9.328341E+03 -5.874206E+02
       242   4  1.471574E+05  9.293273E+02  1.765601E+03  4.697025E+04 -1.234665E+03 -5.189900E+03
       242   5  1.467468E+05  2.350087E+03  3.265118E+03  4.421003E+04 -2.903325E+03 -2.730423E+03
       242   6  1.471577E+05  6.291179E+03  6.472831E+03  4.696015E+04 -4.571495E+03 -5.782990E+02
       242   7  8.432097E+04 -1.317197E+04 -5.916681E+03  4.709562E+04  4.982618E+03 -5.177999E+03
       242   8  1.178215E+05 -4.026770E+03  2.519147E+02  4.635513E+04  2.583823E+03 -2.719868E+03
       242   9  1.522719E+05  7.765664E+03  8.635907E+03  5.112513E+04  1.853923E+02 -5.691137E+02
       242  10  2.099979E+05  1.503045E+04  9.447871E+03  4.684483E+04 -1.728760E-09  3.607259E-09
       242  11  1.756730E+05  8.726921E+03  6.278301E+03  4.206481E+04 -3.326065E-10 -8.726114E-10
       242  12  1.420435E+05  4.816745E+03  4.309683E+03  4.279520E+04  1.997951E-09 -4.714796E-10
       242  13  1.471574E+05  9.292979E+02  1.765547E+03  4.697024E+04  1.076128E-10  4.841564E-09
       242  14  1.467468E+05  2.350077E+03  3.265088E+03  4.421003E+04  1.864357E-10 -5.003436E-09
       242  15  1.471577E+05  6.291173E+03  6.472792E+03  4.696015E+04  7.901575E-10  1.744387E-09
       242  16  8.432094E+04 -1.317201E+04 -5.916778E+03  4.709564E+04 -2.853238E-10  9.266858E-10
       242  17  1.178215E+05 -4.026779E+03  2.518883E+02  4.635514E+04 -2.002131E-09  1.832093E-09
       242  18  1.522719E+05  7.765663E+03  8.635906E+03  5.112513E+04 -2.837748E-09 -5.613002E-10
       242  19  2.099980E+05  1.503049E+04  9.448027E+03  4.684486E+04  7.452544E+03  5.201799E+03
       242  20  1.756730E+05  8.726948E+03  6.278448E+03  4.206483E+04  8.390714E+03  2.740941E+03
       242  21  1.420436E+05  4.816769E+03  4.309847E+03  4.279520E+04  9.328341E+03  5.874206E+02
       242  22  1.471574E+05  9.293273E+02  1.765601E+03  4.697025E+04  1.234665E+03  5.189900E+03
       242  23  1.467468E+05  2.350087E+03  3.265118E+03  4.421003E+04  2.903325E+03  2.730423E+03
       242  24  1.471577E+05  6.291179E+03  6.472831E+03  4.696015E+04  4.571495E+03  5.782990E+02
       242  25  8.432097E+04 -1.317197E+04 -5.916681E+03  4.709562E+04 -4.982618E+03  5.177999E+03
       242  26  1.178215E+05 -4.026770E+03  2.519147E+02  4.635513E+04 -2.583823E+03  2.719868E+03
       242  27  1.522719E+05  7.765664E+03  8.635907E+03  5.112513E+04 -1.853923E+02  5.691137E+02
       243   1 -1.496251E+03  3.829403E+05  9.418152E+02 -5.125980E+04 -1.430075E+03 -2.570584E+03
       243   2 -1.812651E+04  3.405657E+05 -8.682604E+03 -4.350298E+04 -5.825816E+03 -4.392470E+03
       243   3 -2.958472E+04  2.997023E+05 -1.583514E+04 -4.467217E+04 -9.406880E+03 -6.213369E+03
       243   4  9.725417E+03  4.292538E+05  1.083308E+04 -4.499787E+04 -1.438797E+03  6.082357E+03
       243   5  2.441536E+03  4.283711E+05  6.425500E+03 -4.053929E+04 -5.832858E+03  2.793018E+03
       243   6  5.841850E+02  4.292530E+05  5.508387E+03 -4.500644E+04 -9.412276E+03 -4.954489E+02
       243   7  2.094713E+04  4.755695E+05  2.072452E+04 -3.873546E+04 -1.447344E+03  1.473593E+04
       243   8  2.300923E+04  5.161842E+05  2.153354E+04 -3.757517E+04 -5.839830E+03  9.979491E+03
       243   9  3.075224E+04  5.588204E+05  2.685154E+04 -4.534079E+04 -9.417678E+03  5.223624E+03
       243  10 -1.496255E+03  3.829403E+05  9.417989E+02 -5.125980E+04  6.571186E-10  4.290380E-09
       243  11 -1.812655E+04  3.405657E+05 -8.682704E+03 -4.350300E+04  3.044561E-09  1.843286E-09
       243  12 -2.958482E+04  2.997022E+05 -1.583538E+04 -4.467221E+04  2.088027E-10 -2.296237E-09
       243  13  9.725405E+03  4.292538E+05  1.083301E+04 -4.499786E+04  1.974300E-09  9.531105E-10
       243  14  2.441498E+03  4.283711E+05  6.425421E+03 -4.053928E+04  2.792188E-09  1.008265E-09
       243  15  5.840897E+02  4.292530E+05  5.508220E+03 -4.500645E+04  4.479966E-09  1.271674E-09
       243  16  2.094707E+04  4.755693E+05  2.072411E+04 -3.873544E+04  6.730172E-10 -4.262134E-09
       243  17  2.300916E+04  5.161841E+05  2.153329E+04 -3.757512E+04  2.433231E-10 -2.809233E-09
       243  18  3.075214E+04  5.588204E+05  2.685132E+04 -4.534075E+04  2.846790E-09  2.158634E-09
       243  19 -1.496251E+03  3.829403E+05  9.418152E+02 -5.125980E+04  1.430075E+03  2.570584E+03
       243  20 -1.812651E+04  3.405657E+05 -8.682604E+03 -4.350298E+04  5.825816E+03  4.392470E+03
       243  21 -2.958472E+04  2.997023E+05 -1.583514E+04 -4.467217E+04  9.406880E+03  6.213369E+03
       243  22  9.725417E+03  4.292538E+05  1.083308E+04 -4.499787E+04  1.438797E+03 -6.082357E+03
       243  23  2.441536E+03  4.283711E+05  6.425500E+03 -4.053929E+04  5.832858E+03 -2.793018E+03
       243  24  5.841850E+02  4.292530E+05  5.508387E+03 -4.500644E+04  9.412276E+03  4.954489E+02
       243  25  2.094713E+04  4.755695E+05  2.072452E+04 -3.873546E+04  1.447344E+03 -1.473593E+04
       243  26  2.300923E+04  5.161842E+05  2.153354E+04 -3.757517E+04  5.839830E+03 -9.979491E+03
       243  27  3.075224E+04  5.588204E+05  2.685154E+04 -4.534079E+04  9.417678E+03 -5.223624E+03
       244   1 -3.583456E+04  2.727520E+05 -2.004102E+04 -4.550147E+04 -1.127701E+04 -7.257458E+03
       244   2 -4.546965E+04  2.307175E+05 -2.511663E+04 -4.010199E+04 -1.408358E+04 -9.587068E+03
       244   3 -5.326358E+04  1.894333E+05 -2.822005E+04 -4.353403E+04 -1.601570E+04 -1.191546E+04
       244   4  5.875419E+02  4.290863E+05  5.803203E+03 -4.498472E+04 -1.128237E+04 -1.413319E+03
       244   5  6.737942E+02  4.285723E+05  7.814047E+03 -4.056799E+04 -1.408711E+04 -5.318572E+03
       244   6  2.874295E+03  4.290798E+05  1.289015E+04 -4.498253E+04 -1.601753E+04 -9.222761E+03
       244   7  3.700840E+04  5.854448E+05  3.164683E+04 -4.446784E+04 -1.128773E+04  4.432241E+03
       244   8  4.681522E+04  6.264657E+05  4.074360E+04 -4.103414E+04 -1.409064E+04 -1.048763E+03
       244   9  5.900911E+04  6.687827E+05  5.399845E+04 -4.643160E+04 -1.601937E+04 -6.529055E+03
       244  10 -3.583471E+04  2.727519E+05 -2.004136E+04 -4.550154E+04 -9.167555E-10  8.191923E-10
       244  11 -4.546989E+04  2.307174E+05 -2.511718E+04 -4.010210E+04  3.153445E-09  3.439415E-10
       244  12 -5.326389E+04  1.894331E+05 -2.822080E+04 -4.353418E+04 -9.557992E-10 -1.175555E-09
       244  13  5.874046E+02  4.290863E+05  5.802960E+03 -4.498474E+04  2.172930E-09  1.015709E-09
       244  14  6.735735E+02  4.285722E+05  7.813621E+03 -4.056805E+04  3.604115E-09  8.338357E-10
       244  15  2.873997E+03  4.290796E+05  1.288951E+04 -4.498265E+04 -5.696768E-10  1.099766E-09
       244  16  3.700826E+04  5.854448E+05  3.164655E+04 -4.446780E+04  2.315599E-09 -9.316825E-10
       244  17  4.681500E+04  6.264657E+05  4.074323E+04 -4.103415E+04  3.546084E-09 -9.859225E-10
       244  18  5.900882E+04  6.687826E+05  5.399789E+04 -4.643168E+04  1.661040E-09  1.085086E-09
       244  19 -3.583456E+04  2.727520E+05 -2.004102E+04 -4.550147E+04  1.127701E+04  7.257458E+03
       244  20 -4.546965E+04  2.307175E+05 -2.511663E+04 -4.010199E+04  1.408358E+04  9.587068E+03
       244  21 -5.326358E+04  1.894333E+05 -2.822005E+04 -4.353403E+04  1.601570E+04  1.191546E+04
       244  22  5.875419E+02  4.290863E+05  5.803203E+03 -4.498472E+04  1.128237E+04  1.413319E+03
       244  23  6.737942E+02  4.285723E+05  7.814047E+03 -4.056799E+04  1.408711E+04  5.318572E+03
       244  24  2.874295E+03  4.290798E+05  1.289015E+04 -4.498253E+04  1.601753E+04  9.222761E+03
       244  25  3.700840E+04  5.854448E+05  3.164683E+04 -4.446784E+04  1.128773E+04 -4.432241E+03
       244  26  4.681522E+04  6.264657E+05  4.074360E+04 -4.103414E+04  1.409064E+04  1.048763E+03
       244  27  5.900911E+04  6.687827E+05  5.399845E+04 -4.643160E+04  1.601937E+04  6.529055E+03
       245   1 -6.002052E+04  1.640941E+05 -2.973995E+04 -4.698240E+04 -1.730551E+04 -1.478862E+04
       245   2 -5.961554E+04  1.188435E+05 -2.930685E+04 -2.410110E+04 -1.506235E+04 -1.532174E+04
       245   3 -3.137975E+04  8.061771E+04 -2.156828E+04 -9.495360E+03 -4.584854E+03 -1.584911E+04
       245   4  2.615846E+03  4.309822E+05  1.666344E+04 -4.486366E+04 -1.730783E+04 -1.141917E+04
       245   5  1.369439E+04  4.261773E+05  2.984441E+04 -4.070497E+04 -1.505202E+04 -2.678107E+04
       245   6  5.516804E+04  4.309629E+05  6.062111E+04 -4.482061E+04 -4.563705E+03 -4.213738E+04
       245   7  6.524839E+04  6.979401E+05  6.306437E+04 -4.274396E+04 -1.731012E+04 -8.048303E+03
       245   8  8.699982E+04  7.336027E+05  8.899195E+04 -5.731722E+04 -1.504107E+04 -3.824593E+04
       245   9  1.417121E+05  7.814252E+05  1.428054E+05 -8.016590E+04 -4.539571E+03 -6.844040E+04
       245  10 -6.002091E+04  1.640938E+05 -2.974092E+04 -4.698261E+04  5.055823E-10  2.900704E-09
       245  11 -5.961584E+04  1.188432E+05 -2.930772E+04 -2.410129E+04  3.475563E-09 -1.442365E-10
       245  12 -3.137984E+04  8.061743E+04 -2.156879E+04 -9.495418E+03  6.055875E-10 -3.499127E-09
       245  13  2.615489E+03  4.309820E+05  1.666263E+04 -4.486382E+04  3.623179E-10  8.990623E-10
       245  14  1.369396E+04  4.261764E+05  2.984264E+04 -4.070529E+04  5.617262E-09  8.006045E-10
       245  15  5.516754E+04  4.309610E+05  6.061774E+04 -4.482077E+04 -1.112088E-09  6.997708E-10
       245  16  6.524805E+04  6.979400E+05  6.306369E+04 -4.274407E+04  1.486799E-09 -2.680715E-09
       245  17  8.699918E+04  7.336010E+05  8.898878E+04 -5.731768E+04  1.504908E-09 -6.302534E-10
       245  18  1.417109E+05  7.814202E+05  1.427965E+05 -8.016615E+04 -1.526778E-10  3.382243E-09
       245  19 -6.002052E+04  1.640941E+05 -2.973995E+04 -4.698240E+04  1.730551E+04  1.478862E+04
       245  20 -5.961554E+04  1.188435E+05 -2.930685E+04 -2.410110E+04  1.506235E+04  1.532174E+04
       245  21 -3.137975E+04  8.061771E+04 -2.156828E+04 -9.495360E+03  4.584854E+03  1.584911E+04
       245  22  2.615846E+03  4.309822E+05  1.666344E+04 -4.486366E+04  1.730783E+04  1.141917E+04
       245  23  1.369439E+04  4.261773E+05  2.984441E+04 -4.070497E+04  1.505202E+04  2.678107E+04
       245  24  5.516804E+04  4.309629E+05  6.062111E+04 -4.482061E+04  4.563705E+03  4.213738E+04
       245  25  6.524839E+04  6.979401E+05  6.306437E+04 -4.274396E+04  1.731012E+04  8.048303E+03
       245  26  8.699982E+04  7.336027E+05  8.899195E+04 -5.731722E+04  1.504107E+04  3.824593E+04
       245  27  1.417121E+05  7.814252E+05  1.428054E+05 -8.016590E+04  4.539571E+03  6.844040E+04
       246   1  8.470267E+05  2.929450E+05  1.407980E+05  3.158987E+05  5.408516E+04  1.031780E+04
       246   2  7.978706E+05  2.794029E+05  1.016815E+05  3.026418E+05  3.508848E+04 -2.089616E+04
       246   3  7.467403E+05  2.702084E+05  8.222337E+04  2.967901E+05  1.079156E+04 -3.800252E+04
       246   4  2.102129E+05  6.499433E+04 -1.811729E+04  1.518695E+05 -8.576881E+03 -1.325737E+04
       246   5  2.152740E+05  7.264083E+04 -8.705620E+03  1.456464E+05  3.850685E+03 -3.265445E+04
       246   6  2.121383E+05  7.841426E+04 -4.513066E+03  1.468289E+05  1.097189E+04 -3.793858E+04
       246   7 -4.261663E+05 -1.629240E+05 -1.770389E+05 -1.200119E+04 -7.116566E+04 -3.680761E+04
       246   8 -3.669527E+05 -1.340883E+05 -1.190985E+05 -1.120970E+04 -2.735495E+04 -4.440132E+04
       246   9 -3.221563E+05 -1.133501E+05 -9.125518E+04 -3.010991E+03  1.115206E+04 -3.787471E+04
       246  10  8.470235E+05  2.929441E+05  1.407923E+05  3.158982E+05  3.974640E-09  1.019377E-10
       246  11  7.978692E+05  2.794021E+05  1.016784E+05  3.026424E+05 -4.677807E-09 -3.191488E-09
       246  12  7.467398E+05  2.702068E+05  8.222043E+04  2.967904E+05 -1.071597E-08 -1.140374E-09
       246  13  2.102128E+05  6.499412E+04 -1.811776E+04  1.518694E+05 -3.738826E-09 -3.651502E-11
       246  14  2.152737E+05  7.263968E+04 -8.707652E+03  1.456465E+05 -5.988417E-09 -5.469733E-09
       246  15  2.121378E+05  7.841268E+04 -4.515998E+03  1.468292E+05 -8.570818E-09 -4.754409E-10
       246  16 -4.261721E+05 -1.629268E+05 -1.770510E+05 -1.200330E+04 -6.856401E-09 -3.356166E-09
       246  17 -3.669540E+05 -1.340906E+05 -1.191036E+05 -1.121068E+04 -7.370677E-09 -4.528362E-09
       246  18 -3.221568E+05 -1.133517E+05 -9.125811E+04 -3.010651E+03 -3.425652E-09 -5.261215E-09
       246  19  8.470267E+05  2.929450E+05  1.407980E+05  3.158987E+05 -5.408516E+04 -1.031780E+04
       246  20  7.978706E+05  2.794029E+05  1.016815E+05  3.026418E+05 -3.508848E+04  2.089616E+04
       246  21  7.467403E+05  2.702084E+05  8.222337E+04  2.967901E+05 -1.079156E+04  3.800252E+04
       246  22  2.102129E+05  6.499433E+04 -1.811729E+04  1.518695E+05  8.576881E+03  1.325737E+04
       246  23  2.152740E+05  7.264083E+04 -8.705620E+03  1.456464E+05 -3.850685E+03  3.265445E+04
       246  24  2.121383E+05  7.841426E+04 -4.513066E+03  1.468289E+05 -1.097189E+04  3.793858E+04
       246  25 -4.261663E+05 -1.629240E+05 -1.770389E+05 -1.200119E+04  7.116566E+04  3.680761E+04
       246  26 -3.669527E+05 -1.340883E+05 -1.190985E+05 -1.120970E+04  2.735495E+04  4.440132E+04
       246  27 -3.221563E+05 -1.133501E+05 -9.125518E+04 -3.010991E+03 -1.115206E+04  3.787471E+04
       247   1  7.173350E+05  2.593169E+05  7.606979E+04  2.884051E+05  1.106443E+04 -3.724265E+04
       247   2  6.732185E+05  2.400359E+05  6.625025E+04  2.722212E+05  7.889817E+03 -3.738786E+04
       247   3  6.237077E+05  2.266938E+05  5.855602E+04  2.627786E+05  4.088612E+03 -3.587001E+04
       247   4  2.124690E+05  7.902093E+04 -3.339928E+03  1.470481E+05  1.126355E+04 -3.717141E+04
       247   5  2.156185E+05  7.697243E+04 -1.729539E+03  1.434716E+05  1.179252E+04 -3.592166E+04
       247   6  2.126392E+05  8.012977E+04 -9.265130E+02  1.466362E+05  1.169449E+04 -3.300818E+04
       247   7 -2.921299E+05 -1.012514E+05 -8.275604E+04  5.797045E+03  1.146250E+04 -3.710024E+04
       247   8 -2.417577E+05 -8.606975E+04 -6.971242E+04  1.481059E+04  1.569222E+04 -3.445659E+04
       247   9 -1.982455E+05 -6.641561E+04 -6.041016E+04  3.056636E+04  1.929507E+04 -3.014835E+04
       247  10  7.173345E+05  2.593153E+05  7.606695E+04  2.884054E+05 -7.956385E-09  2.564497E-10
       247  11  6.732181E+05  2.400344E+05  6.624750E+04  2.722214E+05  8.704452E-10  4.085997E-09
       247  12  6.237073E+05  2.266924E+05  5.855357E+04  2.627787E+05 -9.811382E-10  1.270928E-09
       247  13  2.124685E+05  7.901941E+04 -3.342764E+03  1.470485E+05 -4.823410E-09 -3.325828E-09
       247  14  2.156180E+05  7.697101E+04 -1.732225E+03  1.434720E+05  2.837379E-09 -1.305520E-09
       247  15  2.126387E+05  8.012856E+04 -9.288177E+02  1.466365E+05 -1.598987E-10 -2.347050E-09
       247  16 -2.921304E+05 -1.012529E+05 -8.275887E+04  5.797388E+03  2.795089E-09 -5.406902E-09
       247  17 -2.417583E+05 -8.607109E+04 -6.971512E+04  1.481103E+04  6.129396E-09 -5.625018E-09
       247  18 -1.982461E+05 -6.641669E+04 -6.041257E+04  3.056683E+04 -1.774879E-09 -5.952271E-09
       247  19  7.173350E+05  2.593169E+05  7.606979E+04  2.884051E+05 -1.106443E+04  3.724265E+04
       247  20  6.732185E+05  2.400359E+05  6.625025E+04  2.722212E+05 -7.889817E+03  3.738786E+04
       247  21  6.237077E+05  2.266938E+05  5.855602E+04  2.627786E+05 -4.088612E+03  3.587001E+04
       247  22  2.124690E+05  7.902093E+04 -3.339928E+03  1.470481E+05 -1.126355E+04  3.717141E+04
       247  23  2.156185E+05  7.697243E+04 -1.729539E+03  1.434716E+05 -1.179252E+04  3.592166E+04
       247  24  2.126392E+05  8.012977E+04 -9.265130E+02  1.466362E+05 -1.169449E+04  3.300818E+04
       247  25 -2.921299E+05 -1.012514E+05 -8.275604E+04  5.797045E+03 -1.146250E+04  3.710024E+04
       247  26 -2.417577E+05 -8.606975E+04 -6.971242E+04  1.481059E+04 -1.569222E+04  3.445659E+04
       247  27 -1.982455E+05 -6.641561E+04 -6.041016E+04  3.056636E+04 -1.929507E+04  3.014835E+04
       248   1  5.947066E+05  2.162871E+05  5.415242E+04  2.545960E+05  3.439273E+03 -3.377415E+04
       248   2  5.511285E+05  1.967905E+05  4.742686E+04  2.381207E+05  1.863683E+03 -3.035616E+04
       248   3  5.017121E+05  1.832241E+05  4.090028E+04  2.283657E+05  2.138322E+02 -2.674308E+04
       248   4  2.126749E+05  8.018482E+04 -6.888418E+02  1.466656E+05  1.104551E+04 -3.091153E+04
       248   5  2.156522E+05  7.730954E+04 -3.627576E+02  1.432910E+05  9.904201E+03 -2.732897E+04
       248   6  2.127017E+05  8.027844E+04 -1.822970E+02  1.466363E+05  8.688580E+03 -2.355125E+04
       248   7 -1.691925E+05 -5.589931E+04 -5.552948E+04  3.879938E+04  1.864673E+04 -2.805079E+04
       248   8 -1.197012E+05 -4.215881E+04 -4.815277E+04  4.850983E+04  1.794015E+04 -2.430351E+04
       248   9 -7.622111E+04 -2.265930E+04 -4.126608E+04  6.494176E+04  1.715929E+04 -2.036095E+04
       248  10  5.947063E+05  2.162858E+05  5.415025E+04  2.545961E+05 -7.851906E-09  9.354238E-10
       248  11  5.511283E+05  1.967895E+05  4.742512E+04  2.381208E+05  1.034994E-08  7.306813E-09
       248  12  5.017119E+05  1.832234E+05  4.089894E+04  2.283657E+05  1.504843E-08  9.199336E-09
       248  13  2.126745E+05  8.018377E+04 -6.908669E+02  1.466659E+05  4.164833E-09 -2.990730E-09
       248  14  2.156519E+05  7.730871E+04 -3.643457E+02  1.432913E+05  1.123694E-08  9.869703E-10
       248  15  2.127015E+05  8.027782E+04 -1.834813E+02  1.466364E+05  2.254395E-09  2.270745E-09
       248  16 -1.691931E+05 -5.590024E+04 -5.553161E+04  3.879980E+04  6.784375E-09 -3.676632E-11
       248  17 -1.197017E+05 -4.215954E+04 -4.815448E+04  4.851018E+04  5.266891E-09 -4.315193E-09
       248  18 -7.622154E+04 -2.265982E+04 -4.126742E+04  6.494205E+04 -5.791072E-09 -8.139141E-09
       248  19  5.947066E+05  2.162871E+05  5.415242E+04  2.545960E+05 -3.439273E+03  3.377415E+04
       248  20  5.511285E+05  1.967905E+05  4.742686E+04  2.381207E+05 -1.863683E+03  3.035616E+04
       248  21  5.017121E+05  1.832241E+05  4.090028E+04  2.283657E+05 -2.138322E+02  2.674308E+04
       248  22  2.126749E+05  8.018482E+04 -6.888418E+02  1.466656E+05 -1.104551E+04  3.091153E+04
       248  23  2.156522E+05  7.730954E+04 -3.627576E+02  1.432910E+05 -9.904201E+03  2.732897E+04
       248  24  2.127017E+05  8.027844E+04 -1.822970E+02  1.466363E+05 -8.688580E+03  2.355125E+04
       248  25 -1.691925E+05 -5.589931E+04 -5.552948E+04  3.879938E+04 -1.864673E+04  2.805079E+04
       248  26 -1.197012E+05 -4.215881E+04 -4.815277E+04  4.850983E+04 -1.794015E+04  2.430351E+04
       248  27 -7.622111E+04 -2.265930E+04 -4.126608E+04  6.494176E+04 -1.715929E+04  2.036095E+04
       249   1  4.727865E+05  1.728909E+05  3.663571E+04  2.202021E+05 -5.973835E+02 -2.451087E+04
       249   2  4.292859E+05  1.534208E+05  3.019580E+04  2.037059E+05 -2.066573E+03 -2.070615E+04
       249   3  3.798948E+05  1.398586E+05  2.378170E+04  1.939318E+05 -3.544196E+03 -1.688035E+04
       249   4  2.127085E+05  8.028505E+04 -1.239731E+02  1.466394E+05  7.876115E+03 -2.131900E+04
       249   5  2.156639E+05  7.734214E+04 -3.077695E+01  1.432780E+05  6.453602E+03 -1.749602E+04
       249   6  2.127170E+05  8.029743E+04  5.078356E+01  1.466377E+05  5.022658E+03 -1.365198E+04
       249   7 -4.729537E+04 -1.231313E+04 -3.688366E+04  7.310593E+04  1.634588E+04 -1.812854E+04
       249   8  2.093374E+03  1.269207E+03 -3.025687E+04  8.287022E+04  1.497064E+04 -1.428708E+04
       249   9  4.557211E+04  2.074035E+04 -2.367935E+04  9.935633E+04  1.358697E+04 -1.042457E+04
       249  10  4.727864E+05  1.728903E+05  3.663458E+04  2.202021E+05  2.524970E-08  1.285537E-08
       249  11  4.292858E+05  1.534204E+05  3.019499E+04  2.037059E+05  3.016100E-08  1.578631E-08
       249  12  3.798947E+05  1.398582E+05  2.378114E+04  1.939317E+05  3.450846E-08  4.348421E-09
       249  13  2.127083E+05  8.028454E+04 -1.249439E+02  1.466395E+05  3.919446E-10  3.600611E-09
       249  14  2.156638E+05  7.734180E+04 -3.143055E+01  1.432781E+05  2.585358E-09  1.771901E-08
       249  15  2.127169E+05  8.029722E+04  5.038586E+01  1.466378E+05  7.207299E-09  3.062107E-08
       249  16 -4.729575E+04 -1.231356E+04 -3.688478E+04  7.310617E+04 -2.475269E-08 -1.427570E-08
       249  17  2.093078E+03  1.268928E+03 -3.025767E+04  8.287039E+04 -1.959606E-08 -1.555385E-08
       249  18  4.557188E+04  2.074019E+04 -2.367990E+04  9.935644E+04 -5.771748E-09 -1.528293E-08
       249  19  4.727865E+05  1.728909E+05  3.663571E+04  2.202021E+05  5.973835E+02  2.451087E+04
       249  20  4.292859E+05  1.534208E+05  3.019580E+04  2.037059E+05  2.066573E+03  2.070615E+04
       249  21  3.798948E+05  1.398586E+05  2.378170E+04  1.939318E+05  3.544196E+03  1.688035E+04
       249  22  2.127085E+05  8.028505E+04 -1.239731E+02  1.466394E+05 -7.876115E+03  2.131900E+04
       249  23  2.156639E+05  7.734214E+04 -3.077695E+01  1.432780E+05 -6.453602E+03  1.749602E+04
       249  24  2.127170E+05  8.029743E+04  5.078356E+01  1.466377E+05 -5.022658E+03  1.365198E+04
       249  25 -4.729537E+04 -1.231313E+04 -3.688366E+04  7.310593E+04 -1.634588E+04  1.812854E+04
       249  26  2.093374E+03  1.269207E+03 -3.025687E+04  8.287022E+04 -1.497064E+04  1.428708E+04
       249  27  4.557211E+04  2.074035E+04 -2.367935E+04  9.935633E+04 -1.358697E+04  1.042457E+04
       250   1  3.509882E+05  1.295350E+05  1.953811E+04  1.857742E+05 -4.399886E+03 -1.464362E+04
       250   2  3.075011E+05  1.100709E+05  1.317504E+04  1.692846E+05 -5.933820E+03 -1.083242E+04
       250   3  2.581276E+05  9.651476E+04  6.876958E+03  1.595178E+05 -7.464309E+03 -7.030907E+03
       250   4  2.127238E+05  8.029897E+04  9.497252E+01  1.466398E+05  4.165887E+03 -1.141538E+04
       250   5  2.156670E+05  7.734475E+04  2.153686E+02  1.432785E+05  2.610163E+03 -7.612071E+03
       250   6  2.127268E+05  8.030305E+04  4.180764E+02  1.466393E+05  1.057885E+03 -3.818481E+03
       250   7  7.447852E+04  3.106446E+04 -1.934845E+04  1.075132E+05  1.272977E+04 -8.187849E+03
       250   8  1.238416E+05  4.461940E+04 -1.274421E+04  1.172759E+05  1.115287E+04 -4.392206E+03
       250   9  1.673283E+05  6.409163E+04 -6.040512E+03  1.337619E+05  9.579427E+03 -6.063018E+02
       250  10  3.509882E+05  1.295348E+05  1.953767E+04  1.857742E+05 -6.791739E-09 -1.655594E-08
       250  11  3.075011E+05  1.100707E+05  1.317475E+04  1.692845E+05 -2.176328E-08 -2.118209E-08
       250  12  2.581275E+05  9.651469E+04  6.876761E+03  1.595177E+05 -3.397951E-08 -2.134724E-08
       250  13  2.127237E+05  8.029883E+04  9.469499E+01  1.466399E+05  8.883041E-09  2.860804E-08
       250  14  2.156670E+05  7.734468E+04  2.152469E+02  1.432785E+05  4.169477E-09  1.812798E-08
       250  15  2.127267E+05  8.030303E+04  4.180469E+02  1.466393E+05 -2.052102E-09  2.814650E-09
       250  16  7.447833E+04  3.106434E+04 -1.934888E+04  1.075133E+05  3.601942E-08  4.254304E-09
       250  17  1.238415E+05  4.461934E+04 -1.274448E+04  1.172759E+05  3.408842E-08  1.129895E-08
       250  18  1.673282E+05  6.409160E+04 -6.040685E+03  1.337619E+05  3.407935E-08  1.862894E-08
       250  19  3.509882E+05  1.295350E+05  1.953811E+04  1.857742E+05  4.399886E+03  1.464362E+04
       250  20  3.075011E+05  1.100709E+05  1.317504E+04  1.692846E+05  5.933820E+03  1.083242E+04
       250  21  2.581276E+05  9.651476E+04  6.876958E+03  1.595178E+05  7.464309E+03  7.030907E+03
       250  22  2.127238E+05  8.029897E+04  9.497252E+01  1.466398E+05 -4.165887E+03  1.141538E+04
       250  23  2.156670E+05  7.734475E+04  2.153686E+02  1.432785E+05 -2.610163E+03  7.612071E+03
       250  24  2.127268E+05  8.030305E+04  4.180764E+02  1.466393E+05 -1.057885E+03  3.818481E+03
       250  25  7.447852E+04  3.106446E+04 -1.934845E+04  1.075132E+05 -1.272977E+04  8.187849E+03
       250  26  1.238416E+05  4.461940E+04 -1.274421E+04  1.172759E+05 -1.115287E+04  4.392206E+03
       250  27  1.673283E+05  6.409163E+04 -6.040512E+03  1.337619E+05 -9.579427E+03  6.063018E+02
       251   1  2.292298E+05  8.620128E+04  2.722417E+03  1.513812E+05 -8.384977E+03 -4.828386E+03
       251   2  1.857547E+05  6.672146E+04 -3.388762E+03  1.348452E+05 -1.010160E+04 -1.160586E+03
       251   3  1.364608E+05  5.323648E+04 -9.256310E+03  1.250116E+05 -1.177957E+04  2.405033E+03
       251   4  2.127471E+05  8.030344E+04  5.647026E+02  1.466454E+05  1.367414E+02 -1.616090E+03
       251   5  2.156479E+05  7.737679E+04  1.040307E+03  1.432593E+05 -1.807701E+03  1.965732E+03
       251   6  2.127722E+05  8.048959E+04  1.939650E+03  1.465747E+05 -3.713519E+03  5.445385E+03
       251   7  1.962650E+05  7.440577E+04 -1.592640E+03  1.419098E+05  8.658115E+03  1.596073E+03
       251   8  2.455422E+05  8.803227E+04  5.469662E+03  1.516739E+05  6.486621E+03  5.092208E+03
       251   9  2.890911E+05  1.077438E+05  1.313611E+04  1.681405E+05  4.353676E+03  8.486169E+03
       251  10  2.292297E+05  8.620124E+04  2.722242E+03  1.513812E+05 -8.356488E-08 -3.555537E-08
       251  11  1.857546E+05  6.672143E+04 -3.388956E+03  1.348452E+05 -1.013103E-08 -6.389984E-09
       251  12  1.364606E+05  5.323644E+04 -9.256581E+03  1.250116E+05  8.111039E-08  3.421636E-08
       251  13  2.127471E+05  8.030344E+04  5.646976E+02  1.466454E+05 -5.946100E-09 -2.650690E-09
       251  14  2.156479E+05  7.737678E+04  1.040294E+03  1.432593E+05 -1.879170E-08 -1.513404E-08
       251  15  2.127722E+05  8.048956E+04  1.939568E+03  1.465747E+05 -1.211365E-08 -1.288173E-08
       251  16  1.962649E+05  7.440575E+04 -1.592786E+03  1.419098E+05  7.452237E-08  3.477241E-08
       251  17  2.455422E+05  8.803223E+04  5.469534E+03  1.516739E+05 -1.703804E-08 -6.608889E-10
       251  18  2.890911E+05  1.077437E+05  1.313594E+04  1.681405E+05 -9.908361E-08 -3.087504E-08
       251  19  2.292298E+05  8.620128E+04  2.722417E+03  1.513812E+05  8.384977E+03  4.828386E+03
       251  20  1.857547E+05  6.672146E+04 -3.388762E+03  1.348452E+05  1.010160E+04  1.160586E+03
       251  21  1.364608E+05  5.323648E+04 -9.256310E+03  1.250116E+05  1.177957E+04 -2.405033E+03
       251  22  2.127471E+05  8.030344E+04  5.647026E+02  1.466454E+05 -1.367414E+02  1.616090E+03
       251  23  2.156479E+05  7.737679E+04  1.040307E+03  1.432593E+05  1.807701E+03 -1.965732E+03
       251  24  2.127722E+05  8.048959E+04  1.939650E+03  1.465747E+05  3.713519E+03 -5.445385E+03
       251  25  1.962650E+05  7.440577E+04 -1.592640E+03  1.419098E+05 -8.658115E+03 -1.596073E+03
       251  26  2.455422E+05  8.803227E+04  5.469662E+03  1.516739E+05 -6.486621E+03 -5.092208E+03
       251  27  2.890911E+05  1.077438E+05  1.313611E+04  1.681405E+05 -4.353676E+03 -8.486169E+03
       252   1  1.075526E+05  4.303526E+04 -1.305987E+04  1.169855E+05 -1.293110E+04  4.417293E+03
       252   2  6.467192E+04  2.337755E+04 -1.834762E+04  9.939818E+04 -1.464184E+04  7.415952E+03
       252   3  1.650964E+04  1.089013E+04 -2.289519E+04  8.814102E+04 -1.602486E+04  9.545823E+03
       252   4  2.129279E+05  8.055879E+04  2.602329E+03  1.465921E+05 -4.866218E+03  7.457057E+03
       252   5  2.155892E+05  7.828342E+04  4.835271E+03  1.428608E+05 -8.510985E+03  9.726323E+03
       252   6  2.133495E+05  8.356071E+04  9.340403E+03  1.454586E+05 -1.182810E+04  1.112691E+04
       252   7  3.183153E+05  1.180835E+05  1.826467E+04  1.762035E+05  3.200103E+03  1.049736E+04
       252   8  3.665302E+05  1.331916E+05  2.801771E+04  1.863333E+05 -2.378596E+03  1.203729E+04
       252   9  4.102282E+05  1.562349E+05  4.157448E+04  2.027927E+05 -7.629977E+03  1.270854E+04
       252  10  1.075524E+05  4.303520E+04 -1.306022E+04  1.169855E+05 -4.607225E-08 -1.371864E-08
       252  11  6.467167E+04  2.337743E+04 -1.834813E+04  9.939827E+04 -1.400306E-08 -4.543474E-09
       252  12  1.650934E+04  1.088996E+04 -2.289584E+04  8.814115E+04  2.151800E-08  9.125417E-09
       252  13  2.129278E+05  8.055873E+04  2.602180E+03  1.465921E+05 -9.287763E-09 -1.368152E-08
       252  14  2.155891E+05  7.828330E+04  4.834957E+03  1.428609E+05 -1.018672E-08 -5.368681E-09
       252  15  2.133493E+05  8.356054E+04  9.339907E+03  1.454587E+05 -1.328840E-08 -4.854423E-09
       252  16  3.183153E+05  1.180834E+05  1.826444E+04  1.762035E+05  3.513206E-08  2.239587E-08
       252  17  3.665302E+05  1.331914E+05  2.801742E+04  1.863333E+05  2.015124E-09  2.263916E-09
       252  18  4.102281E+05  1.562347E+05  4.157407E+04  2.027928E+05 -3.639217E-08 -1.787166E-08
       252  19  1.075526E+05  4.303526E+04 -1.305987E+04  1.169855E+05  1.293110E+04 -4.417293E+03
       252  20  6.467192E+04  2.337755E+04 -1.834762E+04  9.939818E+04  1.464184E+04 -7.415952E+03
       252  21  1.650964E+04  1.089013E+04 -2.289519E+04  8.814102E+04  1.602486E+04 -9.545823E+03
       252  22  2.129279E+05  8.055879E+04  2.602329E+03  1.465921E+05  4.866218E+03 -7.457057E+03
       252  23  2.155892E+05  7.828342E+04  4.835271E+03  1.428608E+05  8.510985E+03 -9.726323E+03
       252  24  2.133495E+05  8.356071E+04  9.340403E+03  1.454586E+05  1.182810E+04 -1.112691E+04
       252  25  3.183153E+05  1.180835E+05  1.826467E+04  1.762035E+05 -3.200103E+03 -1.049736E+04
       252  26  3.665302E+05  1.331916E+05  2.801771E+04  1.863333E+05  2.378596E+03 -1.203729E+04
       252  27  4.102282E+05  1.562349E+05  4.157448E+04  2.027927E+05  7.629977E+03 -1.270854E+04
       253   1 -1.235422E+04  2.107972E+03 -2.548101E+04  8.091858E+04 -1.795326E+04  1.038576E+04
       253   2 -4.639156E+04 -1.947173E+04 -2.920821E+04  4.921510E+04 -1.341931E+04  1.003842E+04
       253   3 -8.022279E+04 -1.941223E+04 -3.131720E+04  1.910057E+04 -6.111066E+03  2.324176E+03
       253   4  2.148119E+05  8.466934E+04  1.262073E+04  1.454362E+05 -1.376823E+04  1.196222E+04
       253   5  2.157458E+05  9.099105E+04  2.432638E+04  1.375697E+05 -2.562479E+04  5.438404E+03
       253   6  2.201285E+05  1.221936E+05  5.063676E+04  1.312927E+05 -3.470811E+04 -8.450502E+03
       253   7  4.420374E+05  1.672379E+05  5.072245E+04  2.099773E+05 -9.581506E+03  1.353934E+04
       253   8  4.779549E+05  2.014665E+05  7.785807E+04  2.259610E+05 -3.783574E+04  8.355932E+02
       253   9  5.205647E+05  2.638188E+05  1.325841E+05  2.435369E+05 -6.331952E+04 -1.923395E+04
       253  10 -1.235459E+04  2.107770E+03 -2.548182E+04  8.091873E+04 -1.437986E-08 -1.009609E-09
       253  11 -4.639178E+04 -1.947189E+04 -2.920874E+04  4.921521E+04 -1.053779E-08  8.963818E-10
       253  12 -8.022283E+04 -1.941225E+04 -3.131728E+04  1.910058E+04 -4.789702E-09 -1.785856E-09
       253  13  2.148116E+05  8.466914E+04  1.262010E+04  1.454364E+05 -1.430727E-08 -3.864843E-09
       253  14  2.157451E+05  9.099084E+04  2.432509E+04  1.375698E+05 -1.143423E-08 -1.632438E-09
       253  15  2.201272E+05  1.221932E+05  5.063437E+04  1.312925E+05 -3.447175E-09  4.215926E-11
       253  16  4.420373E+05  1.672377E+05  5.072194E+04  2.099774E+05 -7.035615E-09 -3.302840E-09
       253  17  4.779534E+05  2.014661E+05  7.785538E+04  2.259610E+05 -3.867854E-09  1.766200E-09
       253  18  5.205603E+05  2.638173E+05  1.325759E+05  2.435359E+05 -1.194287E-09  7.264900E-10
       253  19 -1.235422E+04  2.107972E+03 -2.548101E+04  8.091858E+04  1.795326E+04 -1.038576E+04
       253  20 -4.639156E+04 -1.947173E+04 -2.920821E+04  4.921510E+04  1.341931E+04 -1.003842E+04
       253  21 -8.022279E+04 -1.941223E+04 -3.131720E+04  1.910057E+04  6.111066E+03 -2.324176E+03
       253  22  2.148119E+05  8.466934E+04  1.262073E+04  1.454362E+05  1.376823E+04 -1.196222E+04
       253  23  2.157458E+05  9.099105E+04  2.432638E+04  1.375697E+05  2.562479E+04 -5.438404E+03
       253  24  2.201285E+05  1.221936E+05  5.063676E+04  1.312927E+05  3.470811E+04  8.450502E+03
       253  25  4.420374E+05  1.672379E+05  5.072245E+04  2.099773E+05  9.581506E+03 -1.353934E+04
       253  26  4.779549E+05  2.014665E+05  7.785807E+04  2.259610E+05  3.783574E+04 -8.355932E+02
       253  27  5.205647E+05  2.638188E+05  1.325841E+05  2.435369E+05  6.331952E+04  1.923395E+04
       254   1  2.020524E+04 -1.386522E+04 -1.915613E+04 -1.526648E+02 -1.526370E+04 -3.725158E+01
       254   2  2.358991E+04  7.324891E+03 -6.330995E+03 -7.157497E+01 -1.005009E+04 -4.409044E+01
       254   3  2.017725E+04  3.723638E+03 -3.081904E+03  2.471069E+02 -4.836529E+03 -2.890292E+01
       254   4  7.406203E+03 -1.706360E+04 -2.235548E+04  1.161478E+02 -1.526415E+04 -3.725951E+01
       254   5  1.080492E+04  4.129103E+03 -9.526765E+03 -1.946660E+01 -1.005010E+04 -4.409167E+01
       254   6  7.406078E+03  5.300969E+02 -6.274542E+03  8.251071E+01 -4.836110E+03 -2.890089E+01
       254   7 -5.392682E+03 -2.026200E+04 -2.555483E+04  3.849547E+02 -1.526460E+04 -3.726743E+01
       254   8 -1.979933E+03  9.333023E+02 -1.272255E+04  3.264063E+01 -1.005012E+04 -4.409290E+01
       254   9 -5.364947E+03 -2.663456E+03 -9.467193E+03 -8.208218E+01 -4.835691E+03 -2.889887E+01
       254  10  2.020499E+04 -1.386528E+04 -1.915657E+04 -1.526652E+02  1.572367E-08  9.641418E-09
       254  11  2.358981E+04  7.324864E+03 -6.331185E+03 -7.157533E+01  1.627849E-08  1.602646E-08
       254  12  2.017723E+04  3.723632E+03 -3.081948E+03  2.471068E+02 -7.636947E-08 -3.510768E-08
       254  13  7.405953E+03 -1.706367E+04 -2.235591E+04  1.161473E+02 -2.160158E-09 -3.247241E-09
       254  14  1.080481E+04  4.129076E+03 -9.526955E+03 -1.946695E+01  1.593034E-09 -4.827232E-09
       254  15  7.406053E+03  5.300907E+02 -6.274586E+03  8.251061E+01 -6.098029E-10 -2.559537E-11
       254  16 -5.392932E+03 -2.026206E+04 -2.555527E+04  3.849542E+02 -1.786487E-08 -6.713631E-09
       254  17 -1.980041E+03  9.332751E+02 -1.272274E+04  3.264027E+01 -1.508168E-08 -1.474975E-09
       254  18 -5.364972E+03 -2.663463E+03 -9.467237E+03 -8.208228E+01  7.640534E-08  3.701624E-08
       254  19  2.020524E+04 -1.386522E+04 -1.915613E+04 -1.526648E+02  1.526370E+04  3.725158E+01
       254  20  2.358991E+04  7.324891E+03 -6.330995E+03 -7.157497E+01  1.005009E+04  4.409044E+01
       254  21  2.017725E+04  3.723638E+03 -3.081904E+03  2.471069E+02  4.836529E+03  2.890292E+01
       254  22  7.406203E+03 -1.706360E+04 -2.235548E+04  1.161478E+02  1.526415E+04  3.725951E+01
       254  23  1.080492E+04  4.129103E+03 -9.526765E+03 -1.946660E+01  1.005010E+04  4.409167E+01
       254  24  7.406078E+03  5.300970E+02 -6.274542E+03  8.251074E+01  4.836110E+03  2.890089E+01
       254  25 -5.392682E+03 -2.026200E+04 -2.555483E+04  3.849547E+02  1.526460E+04  3.726743E+01
       254  26 -1.979933E+03  9.333023E+02 -1.272255E+04  3.264062E+01  1.005012E+04  4.409290E+01
       254  27 -5.364947E+03 -2.663456E+03 -9.467193E+03 -8.208215E+01  4.835691E+03  2.889887E+01
       255   1  1.727847E+04 -5.305595E+02 -3.046954E+03  5.863423E+01 -3.792338E+03 -2.223535E+01
       255   2  1.782028E+04  2.798055E+03 -3.064919E+02 -3.633833E+00 -2.500197E+03 -1.996289E+01
       255   3  1.725478E+04  2.229448E+03  6.255212E+02  1.199056E+02 -1.208084E+03 -1.436376E+01
       255   4  8.670590E+03 -2.682251E+03 -5.198644E+03  8.707314E+01 -3.792359E+03 -2.223568E+01
       255   5  9.224244E+03  6.491382E+02 -2.455249E+03 -9.023352E+00 -2.500154E+03 -1.996284E+01
       255   6  8.670571E+03  8.326553E+01 -1.520364E+03  8.068833E+01 -1.207976E+03 -1.436345E+01
       255   7  6.277712E+01 -4.833949E+03 -7.350340E+03  1.155116E+02 -3.792379E+03 -2.223600E+01
       255   8  6.282770E+02 -1.499784E+03 -4.604011E+03 -1.441283E+01 -2.500110E+03 -1.996279E+01
       255   9  8.642383E+01 -2.062922E+03 -3.666255E+03  4.147158E+01 -1.207868E+03 -1.436315E+01
       255  10  1.727845E+04 -5.305633E+02 -3.046981E+03  5.863416E+01  2.423119E-08  4.847980E-09
       255  11  1.782027E+04  2.798053E+03 -3.065036E+02 -3.633893E+00  1.073952E-07  5.641574E-08
       255  12  1.725478E+04  2.229447E+03  6.255184E+02  1.199056E+02 -4.546985E-07 -1.761466E-07
       255  13  8.670575E+03 -2.682255E+03 -5.198671E+03  8.707307E+01  9.693870E-12  2.887961E-09
       255  14  9.224237E+03  6.491365E+02 -2.455260E+03 -9.023409E+00  5.326979E-10 -1.400853E-08
       255  15  8.670569E+03  8.326524E+01 -1.520367E+03  8.068839E+01 -2.938678E-10  4.634294E-08
       255  16  6.276168E+01 -4.833953E+03 -7.350367E+03  1.155115E+02 -2.321720E-08 -2.310623E-08
       255  17  6.282703E+02 -1.499786E+03 -4.604023E+03 -1.441289E+01 -1.068574E-07 -5.700543E-08
       255  18  8.642230E+01 -2.062922E+03 -3.666258E+03  4.147164E+01  4.543247E-07  2.710819E-07
       255  19  1.727847E+04 -5.305595E+02 -3.046954E+03  5.863422E+01  3.792338E+03  2.223535E+01
       255  20  1.782028E+04  2.798055E+03 -3.064919E+02 -3.633870E+00  2.500197E+03  1.996289E+01
       255  21  1.725478E+04  2.229448E+03  6.255212E+02  1.199057E+02  1.208084E+03  1.436376E+01
       255  22  8.670590E+03 -2.682251E+03 -5.198644E+03  8.707313E+01  3.792359E+03  2.223568E+01
       255  23  9.224244E+03  6.491381E+02 -2.455249E+03 -9.023385E+00  2.500154E+03  1.996284E+01
       255  24  8.670571E+03  8.326572E+01 -1.520364E+03  8.068847E+01  1.207976E+03  1.436345E+01
       255  25  6.277711E+01 -4.833949E+03 -7.350340E+03  1.155116E+02  3.792379E+03  2.223600E+01
       255  26  6.282770E+02 -1.499784E+03 -4.604011E+03 -1.441287E+01  2.500110E+03  1.996279E+01
       255  27  8.642390E+01 -2.062922E+03 -3.666255E+03  4.147173E+01  1.207868E+03  1.436315E+01
       256   1  1.378938E+04  8.078239E+02  1.620441E+01  8.188093E+01 -9.599961E+02 -1.198071E+01
       256   2  1.386837E+04  1.325635E+03  6.416792E+02  4.768432E+00 -6.595413E+02 -9.440984E+00
       256   3  1.376876E+04  1.242565E+03  9.234694E+02  9.109880E+01 -3.590832E+02 -6.575218E+00
       256   4  8.876968E+03 -4.202209E+02 -1.211732E+03  7.868287E+01 -9.599524E+02 -1.198063E+01
       256   5  8.966266E+03  1.001396E+02 -5.837133E+02 -3.604433E+00 -6.594919E+02 -9.440924E+00
       256   6  8.876961E+03  1.961607E+01 -2.993847E+02  7.755113E+01 -3.590281E+02 -6.575187E+00
       256   7  3.964577E+03 -1.648267E+03 -2.439671E+03  7.548494E+01 -9.599086E+02 -1.198051E+01
       256   8  4.064181E+03 -1.125357E+03 -1.809108E+03 -1.197713E+01 -6.594424E+02 -9.440732E+00
       256   9  3.985178E+03 -1.203334E+03 -1.522241E+03  6.400366E+01 -3.589727E+02 -6.574921E+00
       256  10  1.378938E+04  8.078112E+02  1.619948E+01  8.187480E+01 -1.606405E-05  5.777005E-06
       256  11  1.386836E+04  1.325579E+03  6.416644E+02  4.741032E+00 -6.213092E-05  2.763842E-05
       256  12  1.376874E+04  1.242465E+03  9.234442E+02  9.104965E+01 -1.052096E-04  5.094955E-05
       256  13  8.876966E+03 -4.202211E+02 -1.211734E+03  7.868279E+01 -3.263491E-05 -8.256064E-06
       256  14  8.966265E+03  1.001398E+02 -5.837143E+02 -3.604325E+00 -1.447749E-04 -3.686221E-05
       256  15  8.876959E+03  1.961594E+01 -2.993852E+02  7.755093E+01 -2.569238E-04 -6.550291E-05
       256  16  3.964579E+03 -1.648255E+03 -2.439670E+03  7.549131E+01 -1.009444E-05  7.406981E-06
       256  17  4.064194E+03 -1.125300E+03 -1.809094E+03 -1.194912E+01 -5.391380E-05  3.040263E-05
       256  18  3.985202E+03 -1.203235E+03 -1.522216E+03  6.405282E+01 -1.007501E-04  5.187177E-05
       256  19  1.378937E+04  8.077990E+02  1.619802E+01  8.186869E+01  9.599961E+02  1.198072E+01
       256  20  1.386835E+04  1.325523E+03  6.416513E+02  4.713642E+00  6.595412E+02  9.441039E+00
       256  21  1.376871E+04  1.242366E+03  9.234196E+02  9.100050E+01  3.590829E+02  6.575320E+00
       256  22  8.876966E+03 -4.202208E+02 -1.211733E+03  7.868274E+01  9.599523E+02  1.198061E+01
       256  23  8.966264E+03  1.001402E+02 -5.837136E+02 -3.604208E+00  6.594917E+02  9.440850E+00
       256  24  8.876958E+03  1.961588E+01 -2.993852E+02  7.755075E+01  3.590276E+02  6.575056E+00
       256  25  3.964583E+03 -1.648242E+03 -2.439665E+03  7.549770E+01  9.599086E+02  1.198053E+01
       256  26  4.064208E+03 -1.125244E+03 -1.809080E+03 -1.192110E+01  6.594423E+02  9.440792E+00
       256  27  3.985227E+03 -1.203135E+03 -1.522191E+03  6.410199E+01  3.589725E+02  6.575025E+00
       257   1  1.041190E+04  3.077456E+02  1.794237E+02  7.865551E+01 -3.142911E+02 -5.204132E+00
       257   2  1.040518E+04  3.767264E+02  3.911273E+02  1.710415E+00 -3.232983E+02 -3.204352E+00
       257   3  1.039219E+04  4.158065E+02  6.012230E+02  7.894857E+01 -3.323056E+02 -1.217353E+00
       257   4  8.915263E+03 -6.637673E+01 -1.946600E+02  7.605395E+01 -3.142420E+02 -5.204116E+00
       257   5  8.918397E+03  5.046406E+00  1.947244E+01 -1.191763E+00 -3.232494E+02 -3.204281E+00
       257   6  8.915261E+03  4.656889E+01  2.319971E+02  7.574580E+01 -3.322569E+02 -1.217227E+00
       257   7  7.418626E+03 -4.404993E+02 -5.687439E+02  7.345227E+01 -3.141926E+02 -5.203867E+00
       257   8  7.431614E+03 -3.666338E+02 -3.521827E+02 -4.094055E+00 -3.232004E+02 -3.204088E+00
       257   9  7.438331E+03 -3.226690E+02 -1.372292E+02  7.254292E+01 -3.322082E+02 -1.217087E+00
       257  10  1.041188E+04  3.076466E+02  1.793989E+02  7.860667E+01 -9.970312E-05  5.153179E-05
       257  11  1.040517E+04  3.766734E+02  3.911140E+02  1.683994E+00 -5.054156E-05  2.852310E-05
       257  12  1.039219E+04  4.157999E+02  6.012213E+02  7.894489E+01 -3.401297E-06  4.325336E-06
       257  13  8.915264E+03 -6.637668E+01 -1.946599E+02  7.605412E+01 -2.550643E-04 -6.495964E-05
       257  14  8.918398E+03  5.046097E+00  1.947240E+01 -1.191852E+00 -1.365201E-04 -3.449688E-05
       257  15  8.915262E+03  4.656870E+01  2.319970E+02  7.574577E+01 -1.797715E-05 -4.107636E-06
       257  16  7.418651E+03 -4.404006E+02 -5.687193E+02  7.350103E+01 -1.047707E-04  5.044594E-05
       257  17  7.431627E+03 -3.665818E+02 -3.521698E+02 -4.068230E+00 -5.889878E-05  2.577027E-05
       257  18  7.438333E+03 -3.226632E+02 -1.372278E+02  7.254612E+01 -1.100698E-05  2.102718E-06
       257  19  1.041185E+04  3.075477E+02  1.793745E+02  7.855784E+01  3.142909E+02  5.204235E+00
       257  20  1.040516E+04  3.766204E+02  3.911011E+02  1.657577E+00  3.232982E+02  3.204409E+00
       257  21  1.039219E+04  4.157934E+02  6.012199E+02  7.894121E+01  3.323056E+02  1.217362E+00
       257  22  8.915265E+03 -6.637658E+01 -1.946595E+02  7.605429E+01  3.142415E+02  5.203986E+00
       257  23  8.918399E+03  5.045848E+00  1.947275E+01 -1.191940E+00  3.232492E+02  3.204212E+00
       257  24  8.915263E+03  4.656856E+01  2.319974E+02  7.574575E+01  3.322569E+02  1.217219E+00
       257  25  7.418676E+03 -4.403018E+02 -5.686945E+02  7.354980E+01  3.141924E+02  5.203968E+00
       257  26  7.431640E+03 -3.665297E+02 -3.521566E+02 -4.042407E+00  3.232003E+02  3.204139E+00
       257  27  7.438335E+03 -3.226572E+02 -1.372260E+02  7.254933E+01  3.322082E+02  1.217091E+00
       258   1  7.114992E+03 -4.760438E+02 -1.108733E+02  7.491432E+01 -3.849088E+02 -1.963069E-01
       258   2  7.031514E+03 -5.292942E+02  2.082808E+02 -5.581627E+00 -7.239074E+02  9.017573E-01
       258   3  7.095347E+03 -1.723488E+02  8.508080E+02  6.781486E+01 -1.062901E+03  2.044901E+00
       258   4  8.949388E+03 -1.746279E+01  3.477059E+02  7.612212E+01 -3.848614E+02 -1.961479E-01
       258   5  8.875734E+03 -6.825791E+01  6.692855E+02 -1.241871E+00 -7.238597E+02  9.019814E-01
       258   6  8.949390E+03  2.911419E+02  1.314237E+03  7.528649E+01 -1.062853E+03  2.045188E+00
       258   7  1.078379E+04  4.411179E+02  8.062848E+02  7.732977E+01 -3.848140E+02 -1.960455E-01
       258   8  1.071996E+04  3.927780E+02  1.130290E+03  3.097744E+00 -7.238122E+02  9.020118E-01
       258   9  1.080344E+04  7.546322E+02  1.777667E+03  8.275800E+01 -1.062806E+03  2.045144E+00
       258  10  7.114998E+03 -4.760200E+02 -1.108675E+02  7.492384E+01  2.500244E-05 -1.143058E-05
       258  11  7.031534E+03 -5.292122E+02  2.083004E+02 -5.549529E+00  7.350474E-05 -4.131376E-05
       258  12  7.095381E+03 -1.722083E+02  8.508411E+02  6.787003E+01  1.189300E-04 -7.227097E-05
       258  13  8.949389E+03 -1.746300E+01  3.477058E+02  7.612213E+01  5.110198E-05  1.584405E-05
       258  14  8.875735E+03 -6.825834E+01  6.692847E+02 -1.241996E+00  1.699408E-04  5.408808E-05
       258  15  8.949390E+03  2.911417E+02  1.314236E+03  7.528673E+01  2.887786E-04  9.239932E-05
       258  16  1.078378E+04  4.410933E+02  8.062784E+02  7.731974E+01  1.598316E-05 -1.367127E-05
       258  17  1.071994E+04  3.926948E+02  1.130268E+03  3.064869E+00  6.279953E-05 -4.410575E-05
       258  18  1.080340E+04  7.544910E+02  1.777629E+03  8.270276E+01  1.126842E-04 -7.331226E-05
       258  19  7.115005E+03 -4.759961E+02 -1.108612E+02  7.493335E+01  3.849089E+02  1.962841E-01
       258  20  7.031556E+03 -5.291300E+02  2.083219E+02 -5.517433E+00  7.239076E+02 -9.018399E-01
       258  21  7.095418E+03 -1.720672E+02  8.508784E+02  6.792520E+01  1.062901E+03 -2.045046E+00
       258  22  8.949390E+03 -1.746313E+01  3.477063E+02  7.612214E+01  3.848615E+02  1.961795E-01
       258  23  8.875736E+03 -6.825849E+01  6.692858E+02 -1.242123E+00  7.238601E+02 -9.018732E-01
       258  24  8.949392E+03  2.911421E+02  1.314238E+03  7.528696E+01  1.062854E+03 -2.045003E+00
       258  25  1.078378E+04  4.410687E+02  8.062727E+02  7.730971E+01  3.848141E+02  1.960182E-01
       258  26  1.071992E+04  3.926119E+02  1.130249E+03  3.031991E+00  7.238124E+02 -9.021001E-01
       258  27  1.080337E+04  7.543503E+02  1.777596E+03  8.264753E+01  1.062806E+03 -2.045291E+00
       259   1  3.844263E+03 -1.371786E+03  3.677396E+02  8.465816E+01 -1.335268E+03  2.611896E+00
       259   2  3.392150E+03 -1.774892E+03  1.481120E+03 -1.951005E+01 -2.774894E+03  1.049160E+00
       259   3  3.823295E+03  5.546796E+02  4.217454E+03  3.559531E+01 -4.214541E+03 -6.164307E-01
       259   4  9.112921E+03 -5.476351E+01  1.684775E+03  7.872673E+01 -1.335220E+03  2.612223E+00
       259   5  8.671302E+03 -4.550881E+02  2.800779E+03 -3.372809E+00 -2.774858E+03  1.049316E+00
       259   6  9.112934E+03  1.877254E+03  5.539735E+03  7.380146E+01 -4.214519E+03 -6.165489E-01
       259   7  1.438160E+04  1.262257E+03  3.001808E+03  7.279540E+01 -1.335171E+03  2.612221E+00
       259   8  1.395048E+04  8.647137E+02  4.120435E+03  1.276471E+01 -2.774823E+03  1.049287E+00
       259   9  1.440260E+04  3.199826E+03  6.862014E+03  1.120081E+02 -4.214497E+03 -6.167089E-01
       259  10  3.844295E+03 -1.371647E+03  3.677711E+02  8.471305E+01  1.117675E-04 -7.291576E-05
       259  11  3.392161E+03 -1.774815E+03  1.481126E+03 -1.947870E+01  5.908601E-05 -4.238195E-05
       259  12  3.823279E+03  5.546929E+02  4.217425E+03  3.560246E+01  1.042174E-05 -1.018866E-05
       259  13  9.112918E+03 -5.476408E+01  1.684771E+03  7.872649E+01  2.869108E-04  9.186443E-05
       259  14  8.671292E+03 -4.550899E+02  2.800764E+03 -3.372652E+00  1.616700E-04  5.170442E-05
       259  15  9.112914E+03  1.877249E+03  5.539701E+03  7.380136E+01  3.644008E-05  1.158956E-05
       259  16  1.438157E+04  1.262117E+03  3.001770E+03  7.274059E+01  1.183467E-04 -7.181320E-05
       259  17  1.395045E+04  8.646332E+02  4.120401E+03  1.273423E+01  7.057268E-05 -3.931305E-05
       259  18  1.440258E+04  3.199804E+03  6.861976E+03  1.120013E+02  1.879948E-05 -8.358771E-06
       259  19  3.844331E+03 -1.371506E+03  3.678093E+02  8.476793E+01  1.335269E+03 -2.612042E+00
       259  20  3.392189E+03 -1.774733E+03  1.481160E+03 -1.944737E+01  2.774894E+03 -1.049245E+00
       259  21  3.823303E+03  5.547157E+02  4.217462E+03  3.560962E+01  4.214542E+03  6.164103E-01
       259  22  9.112919E+03 -5.476369E+01  1.684774E+03  7.872625E+01  1.335220E+03 -2.612039E+00
       259  23  8.671299E+03 -4.550875E+02  2.800778E+03 -3.372501E+00  2.774859E+03 -1.049213E+00
       259  24  9.112932E+03  1.877254E+03  5.539734E+03  7.380127E+01  4.214519E+03  6.165720E-01
       259  25  1.438153E+04  1.261977E+03  3.001738E+03  7.268578E+01  1.335172E+03 -2.612365E+00
       259  26  1.395044E+04  8.645569E+02  4.120396E+03  1.270375E+01  2.774823E+03 -1.049366E+00
       259  27  1.440259E+04  3.199791E+03  6.862005E+03  1.119945E+02  4.214497E+03  6.166921E-01
       260   1  1.066884E+03 -2.609171E+03  4.656541E+03  1.720405E+02 -5.345986E+03 -1.378933E+00
       260   2 -1.526226E+03 -5.162771E+03  8.784413E+03 -6.760402E+01 -1.115647E+04 -1.194704E+01
       260   3  1.044842E+03  9.758230E+03  2.107178E+04 -1.507704E+02 -1.696696E+04 -2.436277E+01
       260   4  1.006420E+04 -3.604779E+02  6.905547E+03  8.622945E+01 -5.345923E+03 -1.377904E+00
       260   5  7.482202E+03 -2.910395E+03  1.103634E+04 -6.073522E+00 -1.115653E+04 -1.194800E+01
       260   6  1.006433E+04  1.201417E+04  2.332663E+04  5.810178E+01 -1.696714E+04 -2.436847E+01
       260   7  1.906160E+04  1.888209E+03  9.154548E+03  4.170776E-01 -5.345860E+03 -1.376874E+00
       260   8  1.649070E+04 -6.580253E+02  1.328826E+04  5.545783E+01 -1.115658E+04 -1.194896E+01
       260   9  1.908389E+04  1.427011E+04  2.558147E+04  2.669770E+02 -1.696731E+04 -2.437417E+01
       260  10  1.066853E+03 -2.609178E+03  4.656487E+03  1.720406E+02 -6.647050E-07 -3.182439E-07
       260  11 -1.526360E+03 -5.162804E+03  8.784179E+03 -6.760416E+01  1.588731E-07  6.255587E-08
       260  12  1.044532E+03  9.758153E+03  2.107124E+04 -1.507708E+02  3.351133E-08  1.832051E-08
       260  13  1.006417E+04 -3.604855E+02  6.905494E+03  8.622955E+01  1.449123E-10 -6.434378E-08
       260  14  7.482068E+03 -2.910428E+03  1.103611E+04 -6.073654E+00  1.628922E-09  2.591179E-09
       260  15  1.006402E+04  1.201410E+04  2.332609E+04  5.810144E+01 -2.229883E-09  9.324406E-09
       260  16  1.906157E+04  1.888201E+03  9.154494E+03  4.171747E-01  6.632418E-07  2.010298E-07
       260  17  1.649057E+04 -6.580588E+02  1.328803E+04  5.545770E+01 -1.564400E-07 -7.764149E-08
       260  18  1.908358E+04  1.427003E+04  2.558093E+04  2.669766E+02 -3.356055E-08 -1.087100E-09
       260  19  1.066884E+03 -2.609170E+03  4.656541E+03  1.720408E+02  5.345986E+03  1.378933E+00
       260  20 -1.526226E+03 -5.162771E+03  8.784413E+03 -6.760407E+01  1.115647E+04  1.194704E+01
       260  21  1.044842E+03  9.758230E+03  2.107178E+04 -1.507704E+02  1.696696E+04  2.436277E+01
       260  22  1.006420E+04 -3.604777E+02  6.905547E+03  8.622966E+01  5.345923E+03  1.377903E+00
       260  23  7.482202E+03 -2.910395E+03  1.103634E+04 -6.073572E+00  1.115653E+04  1.194800E+01
       260  24  1.006433E+04  1.201417E+04  2.332663E+04  5.810177E+01  1.696714E+04  2.436847E+01
       260  25  1.906160E+04  1.888209E+03  9.154548E+03  4.172851E-01  5.345860E+03  1.376874E+00
       260  26  1.649070E+04 -6.580254E+02  1.328826E+04  5.545778E+01  1.115658E+04  1.194896E+01
       260  27  1.908389E+04  1.427011E+04  2.558147E+04  2.669770E+02  1.696731E+04  2.437417E+01
       261   1  2.588248E+03 -5.658241E+03  2.485747E+04  7.317121E+02 -2.165519E+04 -2.852299E+01
       261   2 -1.287970E+04 -2.181664E+04  3.936979E+04 -3.445842E+02 -4.501497E+04 -6.672877E+01
       261   3  2.568755E+03  7.317928E+04  9.689839E+04 -1.339208E+03 -6.837420E+04 -1.180413E+02
       261   4  1.578691E+04 -2.362108E+03  2.815608E+04  1.118951E+02 -2.165504E+04 -2.850032E+01
       261   5  3.297931E+02 -1.851262E+04  4.267209E+04 -2.376910E+00 -4.501557E+04 -6.675338E+01
       261   6  1.578858E+04  7.649007E+04  1.002043E+05 -3.497067E+01 -6.837556E+04 -1.181854E+02
       261   7  2.898573E+04  9.340130E+02  3.145468E+04 -5.079351E+02 -2.165489E+04 -2.847765E+01
       261   8  1.353944E+04 -1.520861E+04  4.597437E+04  3.398376E+02 -4.501618E+04 -6.677800E+01
       261   9  2.900856E+04  7.980086E+04  1.035101E+05  1.269295E+03 -6.837691E+04 -1.183296E+02
       261  10  2.587744E+03 -5.658367E+03  2.485659E+04  7.317116E+02 -1.148775E-07 -4.517795E-08
       261  11 -1.288187E+04 -2.181718E+04  3.936598E+04 -3.445867E+02  2.120495E-08  6.056227E-09
       261  12  2.563736E+03  7.317803E+04  9.688961E+04 -1.339215E+03  2.449169E-08  1.475689E-08
       261  13  1.578641E+04 -2.362234E+03  2.815520E+04  1.118947E+02 -1.092216E-09  6.112949E-09
       261  14  3.276172E+02 -1.851316E+04  4.266828E+04 -2.379334E+00  5.352408E-10 -1.055777E-09
       261  15  1.578356E+04  7.648882E+04  1.001955E+05 -3.497718E+01 -4.858133E-10  1.966265E-09
       261  16  2.898523E+04  9.338871E+02  3.145380E+04 -5.079356E+02  1.137189E-07  5.132630E-08
       261  17  1.353727E+04 -1.520915E+04  4.597056E+04  3.398352E+02 -2.052635E-08 -4.631202E-09
       261  18  2.900354E+04  7.979960E+04  1.035013E+05  1.269288E+03 -2.397368E-08 -1.224843E-08
       261  19  2.588248E+03 -5.658241E+03  2.485747E+04  7.317121E+02  2.165519E+04  2.852299E+01
       261  20 -1.287970E+04 -2.181664E+04  3.936979E+04 -3.445842E+02  4.501497E+04  6.672877E+01
       261  21  2.568755E+03  7.317928E+04  9.689839E+04 -1.339208E+03  6.837420E+04  1.180413E+02
       261  22  1.578691E+04 -2.362108E+03  2.815608E+04  1.118952E+02  2.165504E+04  2.850032E+01
       261  23  3.297931E+02 -1.851262E+04  4.267209E+04 -2.376917E+00  4.501557E+04  6.675338E+01
       261  24  1.578858E+04  7.649007E+04  1.002043E+05 -3.497067E+01  6.837556E+04  1.181854E+02
       261  25  2.898573E+04  9.340130E+02  3.145468E+04 -5.079350E+02  2.165489E+04  2.847765E+01
       261  26  1.353944E+04 -1.520861E+04  4.597437E+04  3.398376E+02  4.501618E+04  6.677800E+01
       261  27  2.900856E+04  7.980086E+04  1.035101E+05  1.269295E+03  6.837691E+04  1.183296E+02
       262   1 -2.227567E+05 -9.982245E+05 -2.485876E+05  8.586088E+04 -4.539223E+03 -9.881550E+04
       262   2 -7.996165E+04 -8.959381E+05 -1.503836E+05  3.237549E+04 -1.337385E+04 -5.843223E+04
       262   3 -6.639490E+04 -8.309188E+05 -1.107561E+05  3.088795E+04 -1.073339E+04 -1.802409E+04
       262   4 -1.088297E+05 -5.421415E+05 -1.362646E+05  4.597285E+04 -4.547565E+03 -9.016186E+04
       262   5  1.206956E+04 -5.240918E+05 -6.259401E+04  2.006668E+04 -1.337496E+04 -5.663423E+04
       262   6  4.973035E+03 -5.420995E+05 -4.270647E+04  4.616152E+04 -1.072673E+04 -2.308764E+04
       262   7  5.087753E+03 -8.586551E+04 -2.395588E+04  6.055509E+03 -4.557018E+03 -8.150185E+04
       262   8  1.040914E+05 -1.521180E+05  2.518615E+04  7.750500E+03 -1.337615E+04 -5.483515E+04
       262   9  7.633591E+04 -2.532027E+05  2.533762E+04  6.144226E+04 -1.072032E+04 -2.815353E+04
       262  10 -2.227593E+05 -9.982350E+05 -2.486060E+05  8.586052E+04  2.279093E-09  5.105313E-09
       262  11 -7.996276E+04 -8.959418E+05 -1.503904E+05  3.237486E+04  3.437886E-10 -1.098717E-09
       262  12 -6.639511E+04 -8.309192E+05 -1.107569E+05  3.088779E+04  1.619900E-09 -6.032763E-09
       262  13 -1.088319E+05 -5.421503E+05 -1.362799E+05  4.597252E+04  2.830281E-09  1.123646E-09
       262  14  1.206851E+04 -5.240953E+05 -6.260038E+04  2.006607E+04  3.817417E-09 -1.214002E-09
       262  15  4.972768E+03 -5.421001E+05 -4.270769E+04  4.616132E+04  1.080966E-09  1.762567E-09
       262  16  5.085948E+03 -8.587265E+04 -2.396841E+04  6.055210E+03  1.339555E-09 -5.193061E-09
       262  17  1.040904E+05 -1.521212E+05  2.518016E+04  7.749909E+03  3.965515E-09  7.594693E-10
       262  18  7.633558E+04 -2.532036E+05  2.533591E+04  6.144202E+04  1.787740E-09  5.017758E-09
       262  19 -2.227567E+05 -9.982245E+05 -2.485876E+05  8.586088E+04  4.539223E+03  9.881550E+04
       262  20 -7.996165E+04 -8.959381E+05 -1.503836E+05  3.237549E+04  1.337385E+04  5.843223E+04
       262  21 -6.639490E+04 -8.309188E+05 -1.107561E+05  3.088795E+04  1.073339E+04  1.802409E+04
       262  22 -1.088297E+05 -5.421415E+05 -1.362646E+05  4.597285E+04  4.547565E+03  9.016186E+04
       262  23  1.206956E+04 -5.240918E+05 -6.259401E+04  2.006668E+04  1.337496E+04  5.663423E+04
       262  24  4.973035E+03 -5.420995E+05 -4.270647E+04  4.616152E+04  1.072673E+04  2.308764E+04
       262  25  5.087753E+03 -8.586551E+04 -2.395588E+04  6.055509E+03  4.557018E+03  8.150185E+04
       262  26  1.040914E+05 -1.521180E+05  2.518615E+04  7.750500E+03  1.337615E+04  5.483515E+04
       262  27  7.633591E+04 -2.532027E+05  2.533762E+04  6.144226E+04  1.072032E+04  2.815353E+04
       263   1 -5.764161E+04 -7.301412E+05 -8.356976E+04  5.095375E+04 -6.996283E+03 -1.461128E+04
       263   2 -2.511506E+04 -6.424199E+05 -5.505566E+04  2.007883E+04 -4.060800E+03  3.648515E+02
       263   3 -1.500312E+04 -5.620689E+05 -4.186524E+04  4.194046E+04 -8.181769E+02  1.534270E+04
       263   4 -9.532977E+03 -5.357129E+05 -3.766410E+04  4.626472E+04 -6.993900E+03 -1.629333E+04
       263   5  2.181616E+03 -5.320387E+05 -2.902777E+04  1.989733E+04 -4.058458E+03 -1.498174E+03
       263   6 -8.484128E+03 -5.357082E+05 -3.558633E+04  4.626653E+04 -8.157058E+02  1.329671E+04
       263   7  3.857303E+04 -3.412498E+05  8.238957E+03  4.157423E+04 -6.991491E+03 -1.797590E+04
       263   8  2.947743E+04 -4.216462E+05 -3.000699E+03  1.971580E+04 -4.056115E+03 -3.361528E+03
       263   9 -1.965110E+03 -5.093468E+05 -2.930745E+04  5.059278E+04 -8.132634E+02  1.125063E+04
       263  10 -5.764172E+04 -7.301415E+05 -8.357025E+04  5.095367E+04  4.763783E-10  5.291667E-09
       263  11 -2.511508E+04 -6.424199E+05 -5.505569E+04  2.007883E+04  1.055853E-09  4.951009E-10
       263  12 -1.500319E+04 -5.620692E+05 -4.186569E+04  4.194047E+04 -1.531087E-09 -8.489093E-09
       263  13 -9.533101E+03 -5.357132E+05 -3.766470E+04  4.626463E+04 -1.542072E-09  5.236196E-10
       263  14  2.181598E+03 -5.320387E+05 -2.902780E+04  1.989733E+04 -3.355181E-09 -1.022768E-09
       263  15 -8.484176E+03 -5.357084E+05 -3.558667E+04  4.626654E+04 -3.594525E-09  7.331213E-10
       263  16  3.857289E+04 -3.412501E+05  8.238258E+03  4.157412E+04 -6.399117E-10 -5.516502E-09
       263  17  2.947740E+04 -4.216462E+05 -3.000751E+03  1.971579E+04 -4.805775E-10  5.458420E-10
       263  18 -1.965144E+03 -5.093470E+05 -2.930769E+04  5.059279E+04 -6.714722E-10  6.090347E-09
       263  19 -5.764161E+04 -7.301412E+05 -8.356976E+04  5.095375E+04  6.996283E+03  1.461128E+04
       263  20 -2.511506E+04 -6.424199E+05 -5.505566E+04  2.007883E+04  4.060800E+03 -3.648515E+02
       263  21 -1.500312E+04 -5.620689E+05 -4.186524E+04  4.194046E+04  8.181769E+02 -1.534270E+04
       263  22 -9.532977E+03 -5.357129E+05 -3.766410E+04  4.626472E+04  6.993900E+03  1.629333E+04
       263  23  2.181616E+03 -5.320387E+05 -2.902777E+04  1.989733E+04  4.058458E+03  1.498174E+03
       263  24 -8.484128E+03 -5.357082E+05 -3.558633E+04  4.626653E+04  8.157058E+02 -1.329671E+04
       263  25  3.857303E+04 -3.412498E+05  8.238957E+03  4.157423E+04  6.991491E+03  1.797590E+04
       263  26  2.947743E+04 -4.216462E+05 -3.000699E+03  1.971580E+04  4.056115E+03  3.361528E+03
       263  27 -1.965110E+03 -5.093468E+05 -2.930745E+04  5.059278E+04  8.132634E+02 -1.125063E+04
       264   1  2.116527E+04 -4.731382E+05 -2.359081E+04  6.025465E+04  2.298991E+03  2.348227E+04
       264   2  4.852983E+04 -3.731242E+05 -2.111925E+04  9.094970E+03  5.396817E+03  5.015254E+04
       264   3 -3.904431E+04 -3.051196E+05 -6.470866E+04  1.037970E+04  2.060780E+03  7.681816E+04
       264   4  4.328393E+03 -5.413380E+05 -3.973376E+04  4.624578E+04  2.302896E+03  1.967341E+04
       264   5  1.093353E+04 -5.250045E+05 -5.698289E+04  1.995463E+04  5.397720E+03  5.019424E+04
       264   6 -9.808705E+04 -5.413688E+05 -1.229785E+05  4.611092E+04  2.060117E+03  8.070667E+04
       264   7 -1.250807E+04 -6.095331E+05 -5.587688E+04  3.223846E+04  2.306972E+03  1.586496E+04
       264   8 -2.666398E+04 -6.768634E+05 -9.284805E+04  3.081162E+04  5.398626E+03  5.023594E+04
       264   9 -1.571292E+05 -7.775644E+05 -1.812517E+05  8.182852E+04  2.059903E+03  8.459369E+04
       264  10  2.116511E+04 -4.731388E+05 -2.359186E+04  6.025460E+04  9.567529E-10 -4.412684E-09
       264  11  4.852913E+04 -3.731269E+05 -2.112404E+04  9.094752E+03  2.635691E-09 -7.870734E-10
       264  12 -3.904590E+04 -3.051260E+05 -6.471976E+04  1.037958E+04  5.287294E-10  2.576157E-09
       264  13  4.328283E+03 -5.413384E+05 -3.973450E+04  4.624574E+04 -2.830113E-10  4.626715E-11
       264  14  1.093282E+04 -5.250073E+05 -5.698768E+04  1.995441E+04  2.834086E-10 -1.350587E-09
       264  15 -9.808880E+04 -5.413758E+05 -1.229907E+05  4.611078E+04  1.332149E-09  8.445203E-10
       264  16 -1.250814E+04 -6.095333E+05 -5.587736E+04  3.223843E+04 -1.690479E-09  3.691698E-09
       264  17 -2.666469E+04 -6.768661E+05 -9.285286E+04  3.081140E+04  5.517081E-09 -8.703125E-10
       264  18 -1.571311E+05 -7.775721E+05 -1.812652E+05  8.182838E+04  3.233945E-09 -5.177088E-09
       264  19  2.116527E+04 -4.731382E+05 -2.359081E+04  6.025465E+04 -2.298991E+03 -2.348227E+04
       264  20  4.852983E+04 -3.731242E+05 -2.111925E+04  9.094970E+03 -5.396817E+03 -5.015254E+04
       264  21 -3.904431E+04 -3.051196E+05 -6.470866E+04  1.037970E+04 -2.060780E+03 -7.681816E+04
       264  22  4.328393E+03 -5.413380E+05 -3.973376E+04  4.624578E+04 -2.302896E+03 -1.967341E+04
       264  23  1.093353E+04 -5.250045E+05 -5.698289E+04  1.995463E+04 -5.397720E+03 -5.019424E+04
       264  24 -9.808705E+04 -5.413688E+05 -1.229785E+05  4.611092E+04 -2.060117E+03 -8.070667E+04
       264  25 -1.250807E+04 -6.095331E+05 -5.587688E+04  3.223846E+04 -2.306972E+03 -1.586496E+04
       264  26 -2.666398E+04 -6.768634E+05 -9.284805E+04  3.081162E+04 -5.398626E+03 -5.023594E+04
       264  27 -1.571292E+05 -7.775644E+05 -1.812517E+05  8.182852E+04 -2.059903E+03 -8.459369E+04
       265   1  7.274360E+05  2.518856E+05  1.578780E+05  2.598912E+05  6.749938E+04  2.252946E+04
       265   2  7.022007E+05  1.483143E+05  9.379663E+04  2.599892E+05  4.389571E+04  7.739064E+03
       265   3  7.034284E+05  1.399248E+05  7.225531E+04  2.485242E+05  1.815052E+04 -1.371088E+03
       265   4  5.224023E+05  1.500703E+05  9.757854E+04  1.788615E+05  6.299031E+04  2.082535E+04
       265   5  5.043553E+05  6.668185E+04  4.103299E+04  1.982702E+05  4.258743E+04  7.244618E+03
       265   6  5.121480E+05  7.785724E+04  2.450278E+04  2.061133E+05  2.004207E+04 -6.569831E+02
       265   7  3.174128E+05  4.826845E+04  3.727576E+04  9.785984E+04  5.848292E+04  1.912231E+04
       265   8  3.065487E+05 -1.494559E+04 -1.173392E+04  1.365700E+05  4.127961E+04  6.750383E+03
       265   9  3.209023E+05  1.578966E+04 -2.325274E+04  1.637129E+05  2.193298E+04  5.695919E+01
       265  10  7.274310E+05  2.518839E+05  1.578685E+05  2.598900E+05 -3.052409E-09  3.006443E-10
       265  11  7.021986E+05  1.483137E+05  9.379290E+04  2.599889E+05 -1.707855E-09  1.010000E-08
       265  12  7.034281E+05  1.399247E+05  7.225469E+04  2.485243E+05 -5.620258E-09  3.590330E-09
       265  13  5.223979E+05  1.500688E+05  9.757028E+04  1.788605E+05 -2.685267E-10 -2.093046E-09
       265  14  5.043534E+05  6.668131E+04  4.102949E+04  1.982700E+05  4.495386E-10 -1.837818E-09
       265  15  5.121476E+05  7.785714E+04  2.450202E+04  2.061133E+05 -4.983642E-10  2.763056E-09
       265  16  3.174090E+05  4.826714E+04  3.726865E+04  9.785894E+04  2.450037E-09  1.417310E-09
       265  17  3.065468E+05 -1.494610E+04 -1.173720E+04  1.365698E+05 -2.320331E-11 -8.842915E-12
       265  18  3.209017E+05  1.578953E+04 -2.325364E+04  1.637129E+05 -2.278344E-09  1.416762E-09
       265  19  7.274360E+05  2.518856E+05  1.578780E+05  2.598912E+05 -6.749938E+04 -2.252946E+04
       265  20  7.022007E+05  1.483143E+05  9.379663E+04  2.599892E+05 -4.389571E+04 -7.739064E+03
       265  21  7.034284E+05  1.399248E+05  7.225531E+04  2.485242E+05 -1.815052E+04  1.371088E+03
       265  22  5.224023E+05  1.500703E+05  9.757854E+04  1.788615E+05 -6.299031E+04 -2.082535E+04
       265  23  5.043553E+05  6.668185E+04  4.103299E+04  1.982702E+05 -4.258743E+04 -7.244618E+03
       265  24  5.121480E+05  7.785724E+04  2.450278E+04  2.061133E+05 -2.004207E+04  6.569831E+02
       265  25  3.174128E+05  4.826845E+04  3.727576E+04  9.785984E+04 -5.848292E+04 -1.912231E+04
       265  26  3.065487E+05 -1.494559E+04 -1.173392E+04  1.365700E+05 -4.127961E+04 -6.750383E+03
       265  27  3.209023E+05  1.578966E+04 -2.325274E+04  1.637129E+05 -2.193298E+04 -5.695919E+01
       266   1  6.687956E+05  1.496735E+05  6.184358E+04  2.465105E+05  1.597973E+04 -7.105523E+02
       266   2  6.532788E+05  1.291904E+05  4.670111E+04  2.371586E+05  1.058315E+04 -2.187419E+03
       266   3  6.324048E+05  1.263014E+05  3.772117E+04  2.362389E+05  5.047603E+03 -3.296261E+03
       266   4  5.090049E+05  8.744241E+04  1.983254E+04  2.004820E+05  1.614959E+04 -6.466134E+02
       266   5  5.112107E+05  7.519132E+04  9.680793E+03  1.975787E+05  1.096120E+04 -2.044773E+03
       266   6  5.080185E+05  8.049436E+04  5.527920E+03  2.031071E+05  5.633685E+03 -3.074957E+03
       266   7  3.492390E+05  2.521342E+04 -2.218069E+04  1.544644E+05  1.631941E+04 -5.826942E+02
       266   8  3.691624E+05  2.119375E+04 -2.734115E+04  1.580070E+05  1.133916E+04 -1.902164E+03
       266   9  3.836476E+05  3.468833E+04 -2.666650E+04  1.699814E+05  6.219635E+03 -2.853700E+03
       266  10  6.687953E+05  1.496735E+05  6.184310E+04  2.465105E+05 -8.777731E-09  7.899985E-09
       266  11  6.532787E+05  1.291904E+05  4.670089E+04  2.371587E+05 -6.574763E-09  1.042876E-08
       266  12  6.324048E+05  1.263013E+05  3.772111E+04  2.362389E+05 -2.091025E-09  1.247301E-08
       266  13  5.090046E+05  8.744234E+04  1.983205E+04  2.004820E+05 -7.281203E-09  8.782718E-09
       266  14  5.112105E+05  7.519129E+04  9.680560E+03  1.975787E+05 -5.645991E-09 -8.176592E-09
       266  15  5.080184E+05  8.049434E+04  5.527843E+03  2.031072E+05 -2.981001E-09  3.512888E-09
       266  16  3.492387E+05  2.521334E+04 -2.218119E+04  1.544644E+05  6.180770E-10  4.925132E-09
       266  17  3.691622E+05  2.119371E+04 -2.734140E+04  1.580070E+05 -2.924601E-09 -1.927301E-09
       266  18  3.836475E+05  3.468831E+04 -2.666659E+04  1.699815E+05 -6.180030E-10  1.409575E-10
       266  19  6.687956E+05  1.496735E+05  6.184358E+04  2.465105E+05 -1.597973E+04  7.105523E+02
       266  20  6.532788E+05  1.291904E+05  4.670111E+04  2.371586E+05 -1.058315E+04  2.187419E+03
       266  21  6.324048E+05  1.263014E+05  3.772117E+04  2.362389E+05 -5.047603E+03  3.296261E+03
       266  22  5.090049E+05  8.744241E+04  1.983254E+04  2.004820E+05 -1.614959E+04  6.466134E+02
       266  23  5.112107E+05  7.519132E+04  9.680793E+03  1.975787E+05 -1.096120E+04  2.044773E+03
       266  24  5.080185E+05  8.049436E+04  5.527920E+03  2.031071E+05 -5.633685E+03  3.074957E+03
       266  25  3.492390E+05  2.521342E+04 -2.218069E+04  1.544644E+05 -1.631941E+04  5.826942E+02
       266  26  3.691624E+05  2.119375E+04 -2.734115E+04  1.580070E+05 -1.133916E+04  1.902164E+03
       266  27  3.836476E+05  3.468833E+04 -2.666650E+04  1.699814E+05 -6.219635E+03  2.853700E+03
       267   1  6.088210E+05  1.195751E+05  3.054482E+04  2.304640E+05  4.159889E+03 -2.988726E+03
       267   2  5.945998E+05  1.072200E+05  2.375456E+04  2.202981E+05  2.680550E+03 -2.576185E+03
       267   3  5.717470E+05  1.047807E+05  1.804687E+04  2.202867E+05  1.193037E+03 -2.142403E+03
       267   4  5.076677E+05  8.137068E+04  4.289205E+03  2.025184E+05  4.631534E+03 -2.810612E+03
       267   5  5.119388E+05  7.608849E+04  2.268003E+03  1.975643E+05  3.164336E+03 -2.393439E+03
       267   6  5.075759E+05  8.071991E+04  1.320013E+03  2.027648E+05  1.688927E+03 -1.955036E+03
       267   7  4.065240E+05  4.316684E+04 -2.196736E+04  1.745769E+05  5.103096E+03 -2.632530E+03
       267   8  4.292842E+05  4.495733E+04 -1.921917E+04  1.748332E+05  3.648052E+03 -2.210719E+03
       267   9  4.434087E+05  5.665932E+04 -1.540719E+04  1.852445E+05  2.184762E+03 -1.767690E+03
       267  10  6.088209E+05  1.195750E+05  3.054477E+04  2.304641E+05 -4.587551E-09  7.601240E-09
       267  11  5.945998E+05  1.072200E+05  2.375454E+04  2.202981E+05 -2.192006E-09  6.917413E-09
       267  12  5.717470E+05  1.047807E+05  1.804686E+04  2.202867E+05  4.166755E-09  6.289077E-09
       267  13  5.076676E+05  8.137067E+04  4.289150E+03  2.025185E+05  4.155844E-10 -3.221932E-09
       267  14  5.119388E+05  7.608848E+04  2.267973E+03  1.975643E+05 -7.809545E-10 -6.386321E-10
       267  15  5.075759E+05  8.071990E+04  1.320001E+03  2.027648E+05  2.810459E-09 -1.822679E-09
       267  16  4.065239E+05  4.316683E+04 -2.196742E+04  1.745769E+05  2.627752E-09  3.764661E-10
       267  17  4.292842E+05  4.495732E+04 -1.921920E+04  1.748332E+05 -3.385714E-09 -5.320478E-09
       267  18  4.434087E+05  5.665932E+04 -1.540720E+04  1.852445E+05 -5.726529E-09  7.563522E-10
       267  19  6.088210E+05  1.195751E+05  3.054482E+04  2.304640E+05 -4.159889E+03  2.988726E+03
       267  20  5.945998E+05  1.072200E+05  2.375456E+04  2.202981E+05 -2.680550E+03  2.576185E+03
       267  21  5.717470E+05  1.047807E+05  1.804687E+04  2.202867E+05 -1.193037E+03  2.142403E+03
       267  22  5.076677E+05  8.137068E+04  4.289205E+03  2.025184E+05 -4.631534E+03  2.810612E+03
       267  23  5.119388E+05  7.608849E+04  2.268003E+03  1.975643E+05 -3.164336E+03  2.393439E+03
       267  24  5.075759E+05  8.071991E+04  1.320013E+03  2.027648E+05 -1.688927E+03  1.955036E+03
       267  25  4.065240E+05  4.316684E+04 -2.196736E+04  1.745769E+05 -5.103096E+03  2.632530E+03
       267  26  4.292842E+05  4.495733E+04 -1.921917E+04  1.748332E+05 -3.648052E+03  2.210719E+03
       267  27  4.434087E+05  5.665932E+04 -1.540719E+04  1.852445E+05 -2.184762E+03  1.767690E+03
       268   1  5.494598E+05  9.656014E+04  1.187275E+04  2.142251E+05  8.140337E+02 -1.702718E+03
       268   2  5.354724E+05  8.502402E+04  6.787867E+03  2.040262E+05  1.398706E+02 -9.654563E+02
       268   3  5.125239E+05  8.261991E+04  1.983836E+03  2.040728E+05 -5.345414E+02 -2.276023E+02
       268   4  5.075380E+05  8.078665E+04  1.045219E+03  2.026944E+05  1.301883E+03 -1.518370E+03
       268   5  5.120154E+05  7.619558E+04  6.914467E+02  1.975812E+05  6.280697E+02 -7.809654E+02
       268   6  5.075312E+05  8.073647E+04  6.182917E+02  2.027135E+05 -4.600579E+01 -4.296978E+01
       268   7  4.656181E+05  6.501332E+04 -9.782415E+03  1.911645E+05  1.789694E+03 -1.334037E+03
       268   8  4.885588E+05  6.736716E+04 -5.405018E+03  1.911365E+05  1.116249E+03 -5.964822E+02
       268   9  5.025384E+05  7.885302E+04 -7.472582E+02  2.013542E+05  4.425271E+02  1.416617E+02
       268  10  5.494598E+05  9.656014E+04  1.187274E+04  2.142251E+05  7.053384E-09  2.379796E-09
       268  11  5.354724E+05  8.502402E+04  6.787865E+03  2.040262E+05  7.880980E-09  3.054899E-09
       268  12  5.125239E+05  8.261991E+04  1.983835E+03  2.040728E+05  4.209205E-09  1.852632E-09
       268  13  5.075380E+05  8.078665E+04  1.045211E+03  2.026944E+05  2.628656E-09  5.930715E-09
       268  14  5.120154E+05  7.619557E+04  6.914448E+02  1.975812E+05  2.353661E-09  1.796867E-08
       268  15  5.075312E+05  8.073647E+04  6.182917E+02  2.027135E+05  1.013035E-09  3.955045E-11
       268  16  4.656181E+05  6.501332E+04 -9.782425E+03  1.911645E+05 -3.566298E-09  6.473268E-12
       268  17  4.885588E+05  6.736716E+04 -5.405021E+03  1.911365E+05 -1.882517E-10  7.655043E-09
       268  18  5.025384E+05  7.885302E+04 -7.472586E+02  2.013542E+05  5.576781E-09 -3.184503E-09
       268  19  5.494598E+05  9.656014E+04  1.187275E+04  2.142251E+05 -8.140337E+02  1.702718E+03
       268  20  5.354724E+05  8.502402E+04  6.787867E+03  2.040262E+05 -1.398706E+02  9.654563E+02
       268  21  5.125239E+05  8.261991E+04  1.983836E+03  2.040728E+05  5.345414E+02  2.276023E+02
       268  22  5.075380E+05  8.078665E+04  1.045219E+03  2.026944E+05 -1.301883E+03  1.518370E+03
       268  23  5.120154E+05  7.619558E+04  6.914467E+02  1.975812E+05 -6.280697E+02  7.809654E+02
       268  24  5.075312E+05  8.073647E+04  6.182917E+02  2.027135E+05  4.600579E+01  4.296978E+01
       268  25  4.656181E+05  6.501332E+04 -9.782415E+03  1.911645E+05 -1.789694E+03  1.334037E+03
       268  26  4.885588E+05  6.736716E+04 -5.405018E+03  1.911365E+05 -1.116249E+03  5.964822E+02
       268  27  5.025384E+05  7.885302E+04 -7.472582E+02  2.013542E+05 -4.425271E+02 -1.416617E+02
       269   1  4.904029E+05  7.429015E+04 -3.859356E+03  1.980323E+05 -8.315752E+02  2.381823E+02
       269   2  4.764042E+05  6.279141E+04 -8.328682E+03  1.878011E+05 -1.622371E+03  9.324541E+02
       269   3  4.534722E+05  6.047359E+04 -1.241886E+04  1.878170E+05 -2.413000E+03  1.626584E+03
       269   4  5.075354E+05  8.073447E+04  6.597855E+02  2.027186E+05 -3.429898E+02  4.228319E+02
       269   5  5.120082E+05  7.618739E+04  9.242054E+02  1.975787E+05 -1.133915E+03  1.117034E+03
       269   6  5.075475E+05  8.082113E+04  1.567848E+03  2.026857E+05 -1.924686E+03  1.811090E+03
       269   7  5.246682E+05  8.717881E+04  5.178902E+03  2.074051E+05  1.456104E+02  6.074871E+02
       269   8  5.476135E+05  8.958342E+04  1.017697E+04  2.073569E+05 -6.454282E+02  1.301626E+03
       269   9  5.616253E+05  1.011688E+05  1.555426E+04  2.175556E+05 -1.436328E+03  1.995613E+03
       269  10  4.904029E+05  7.429014E+04 -3.859357E+03  1.980323E+05 -3.736061E-09 -3.420631E-09
       269  11  4.764042E+05  6.279141E+04 -8.328688E+03  1.878011E+05 -4.464316E-09 -9.778766E-09
       269  12  4.534722E+05  6.047359E+04 -1.241887E+04  1.878170E+05 -5.172858E-09  3.254755E-09
       269  13  5.075354E+05  8.073447E+04  6.597849E+02  2.027186E+05  1.198699E-09  8.103749E-09
       269  14  5.120082E+05  7.618739E+04  9.242007E+02  1.975787E+05 -9.315672E-10 -9.783753E-10
       269  15  5.075475E+05  8.082113E+04  1.567835E+03  2.026857E+05 -4.859488E-10  1.849283E-09
       269  16  5.246682E+05  8.717881E+04  5.178901E+03  2.074051E+05  8.732042E-09 -2.161754E-10
       269  17  5.476135E+05  8.958342E+04  1.017697E+04  2.073569E+05  2.791170E-09  1.306304E-09
       269  18  5.616253E+05  1.011688E+05  1.555425E+04  2.175556E+05  3.090486E-09 -2.644527E-09
       269  19  4.904029E+05  7.429015E+04 -3.859356E+03  1.980323E+05  8.315752E+02 -2.381823E+02
       269  20  4.764042E+05  6.279141E+04 -8.328682E+03  1.878011E+05  1.622371E+03 -9.324541E+02
       269  21  4.534722E+05  6.047359E+04 -1.241886E+04  1.878170E+05  2.413000E+03 -1.626584E+03
       269  22  5.075354E+05  8.073447E+04  6.597855E+02  2.027186E+05  3.429898E+02 -4.228319E+02
       269  23  5.120082E+05  7.618739E+04  9.242054E+02  1.975787E+05  1.133915E+03 -1.117034E+03
       269  24  5.075475E+05  8.082113E+04  1.567848E+03  2.026857E+05  1.924686E+03 -1.811090E+03
       269  25  5.246682E+05  8.717881E+04  5.178902E+03  2.074051E+05 -1.456104E+02 -6.074871E+02
       269  26  5.476135E+05  8.958342E+04  1.017697E+04  2.073569E+05  6.454282E+02 -1.301626E+03
       269  27  5.616253E+05  1.011688E+05  1.555426E+04  2.175556E+05  1.436328E+03 -1.995613E+03
       270   1  4.312088E+05  5.210938E+04 -1.786556E+04  1.819790E+05 -2.910195E+03  2.022758E+03
       270   2  4.169997E+05  4.028157E+04 -2.109180E+04  1.714606E+05 -5.033771E+03  2.218232E+03
       270   3  3.944078E+05  3.886852E+04 -2.263252E+04  1.710210E+05 -7.148726E+03  2.391497E+03
       270   4  5.076144E+05  8.071001E+04  2.030191E+03  2.027937E+05 -2.413229E+03  2.210509E+03
       270   5  5.118780E+05  7.602117E+04  3.574077E+03  1.975577E+05 -4.549590E+03  2.401100E+03
       270   6  5.077612E+05  8.174953E+04  6.813525E+03  2.024004E+05 -6.677386E+03  2.569462E+03
       270   7  5.840259E+05  1.093111E+05  2.192552E+04  2.236109E+05 -1.916194E+03  2.398287E+03
       270   8  6.067652E+05  1.117614E+05  2.823925E+04  2.236585E+05 -4.065328E+03  2.583999E+03
       270   9  6.211271E+05  1.246314E+05  3.625850E+04  2.337849E+05 -6.205953E+03  2.747464E+03
       270  10  4.312088E+05  5.210937E+04 -1.786558E+04  1.819790E+05 -6.748261E-09  1.526141E-09
       270  11  4.169997E+05  4.028156E+04 -2.109186E+04  1.714606E+05 -1.686136E-09 -9.176347E-09
       270  12  3.944077E+05  3.886850E+04 -2.263263E+04  1.710210E+05  5.456738E-09 -7.953263E-09
       270  13  5.076144E+05  8.071000E+04  2.030171E+03  2.027937E+05 -1.859265E-09 -1.119229E-09
       270  14  5.118780E+05  7.602115E+04  3.574027E+03  1.975577E+05 -4.600378E-09  1.280418E-08
       270  15  5.077611E+05  8.174951E+04  6.813429E+03  2.024004E+05 -8.348099E-11 -1.676845E-09
       270  16  5.840259E+05  1.093111E+05  2.192551E+04  2.236109E+05  4.190124E-09  6.467662E-09
       270  17  6.067652E+05  1.117614E+05  2.823920E+04  2.236585E+05 -7.892442E-09 -1.245040E-08
       270  18  6.211270E+05  1.246314E+05  3.625841E+04  2.337849E+05 -7.152403E-09 -2.205776E-09
       270  19  4.312088E+05  5.210938E+04 -1.786556E+04  1.819790E+05  2.910195E+03 -2.022758E+03
       270  20  4.169997E+05  4.028157E+04 -2.109180E+04  1.714606E+05  5.033771E+03 -2.218232E+03
       270  21  3.944078E+05  3.886852E+04 -2.263252E+04  1.710210E+05  7.148726E+03 -2.391497E+03
       270  22  5.076144E+05  8.071001E+04  2.030191E+03  2.027937E+05  2.413229E+03 -2.210509E+03
       270  23  5.118780E+05  7.602117E+04  3.574077E+03  1.975577E+05  4.549590E+03 -2.401100E+03
       270  24  5.077612E+05  8.174953E+04  6.813525E+03  2.024004E+05  6.677386E+03 -2.569462E+03
       270  25  5.840259E+05  1.093111E+05  2.192552E+04  2.236109E+05  1.916194E+03 -2.398287E+03
       270  26  6.067652E+05  1.117614E+05  2.823925E+04  2.236585E+05  4.065328E+03 -2.583999E+03
       270  27  6.211271E+05  1.246314E+05  3.625850E+04  2.337849E+05  6.205953E+03 -2.747464E+03
       271   1  3.711963E+05  3.033867E+04 -2.660426E+04  1.673163E+05 -8.738774E+03  2.438694E+03
       271   2  3.564964E+05  1.571627E+04 -2.482354E+04  1.543601E+05 -1.681304E+04  3.737999E+02
       271   3  3.385804E+05  2.360140E+04 -1.365754E+04  1.486828E+05 -2.474054E+04 -2.078465E+03
       271   4  5.083323E+05  8.034226E+04  8.793196E+03  2.033269E+05 -8.146695E+03  2.662237E+03
       271   5  5.107057E+05  7.460633E+04  1.541903E+04  1.975956E+05 -1.644072E+04  5.142208E+02
       271   6  5.099047E+05  9.141889E+04  3.160238E+04  1.991427E+05 -2.458827E+04 -2.021291E+03
       271   7  6.454861E+05  1.303466E+05  4.418898E+04  2.393445E+05 -7.554474E+03  2.885830E+03
       271   8  6.649380E+05  1.334981E+05  5.565961E+04  2.408407E+05 -1.606831E+04  6.546814E+02
       271   9  6.812581E+05  1.592393E+05  7.685993E+04  2.496156E+05 -2.443595E+04 -1.964097E+03
       271  10  3.711962E+05  3.033864E+04 -2.660441E+04  1.673163E+05 -6.178191E-10 -9.350966E-09
       271  11  3.564961E+05  1.571619E+04 -2.482408E+04  1.543601E+05 -8.601483E-10  1.156669E-08
       271  12  3.385797E+05  2.360123E+04 -1.365870E+04  1.486828E+05 -9.693960E-10  7.238237E-09
       271  13  5.083323E+05  8.034224E+04  8.793058E+03  2.033270E+05 -7.187619E-10 -7.526864E-09
       271  14  5.107054E+05  7.460626E+04  1.541853E+04  1.975956E+05  4.832616E-09  5.189489E-09
       271  15  5.099041E+05  9.141872E+04  3.160124E+04  1.991427E+05  1.502019E-09 -1.757426E-09
       271  16  6.454861E+05  1.303466E+05  4.418885E+04  2.393445E+05  3.508372E-09 -4.547992E-10
       271  17  6.649377E+05  1.334980E+05  5.565912E+04  2.408407E+05  7.787185E-09 -3.787828E-09
       271  18  6.812575E+05  1.592391E+05  7.685880E+04  2.496156E+05  5.045829E-09  5.633944E-09
       271  19  3.711963E+05  3.033867E+04 -2.660426E+04  1.673163E+05  8.738774E+03 -2.438694E+03
       271  20  3.564964E+05  1.571627E+04 -2.482354E+04  1.543601E+05  1.681304E+04 -3.737999E+02
       271  21  3.385804E+05  2.360140E+04 -1.365754E+04  1.486828E+05  2.474054E+04  2.078465E+03
       271  22  5.083323E+05  8.034226E+04  8.793196E+03  2.033269E+05  8.146695E+03 -2.662237E+03
       271  23  5.107057E+05  7.460633E+04  1.541903E+04  1.975956E+05  1.644072E+04 -5.142208E+02
       271  24  5.099047E+05  9.141889E+04  3.160238E+04  1.991427E+05  2.458827E+04  2.021291E+03
       271  25  6.454861E+05  1.303466E+05  4.418898E+04  2.393445E+05  7.554474E+03 -2.885830E+03
       271  26  6.649380E+05  1.334981E+05  5.565961E+04  2.408407E+05  1.606831E+04 -6.546814E+02
       271  27  6.812581E+05  1.592393E+05  7.685993E+04  2.496156E+05  2.443595E+04  1.964097E+03
       272   1  3.068650E+05  1.361005E+04 -1.196203E+04  1.671033E+05 -3.248471E+04 -3.471360E+03
       272   2  2.924458E+05 -2.842899E+04  9.345750E+03  1.300072E+05 -6.491487E+04 -1.511450E+04
       272   3  3.240023E+05  7.414204E+04  9.176549E+04  6.828208E+04 -9.508715E+04 -3.273991E+04
       272   4  5.149205E+05  7.613649E+04  3.904656E+04  2.081066E+05 -3.051808E+04 -2.728433E+03
       272   5  4.997784E+05  6.105835E+04  6.539603E+04  1.987087E+05 -6.632352E+04 -1.564758E+04
       272   6  5.312593E+05  1.912260E+05  1.555150E+05  1.646870E+05 -9.987142E+04 -3.455146E+04
       272   7  7.230186E+05  1.386626E+05  9.005219E+04  2.491207E+05 -2.855072E+04 -1.985356E+03
       272   8  7.071521E+05  1.505519E+05  1.214422E+05  2.674318E+05 -6.773268E+04 -1.618092E+04
       272   9  7.385593E+05  3.083300E+05  2.192599E+05  2.611250E+05 -1.046574E+05 -3.636440E+04
       272  10  3.068639E+05  1.360976E+04 -1.196403E+04  1.671032E+05 -6.408525E-09  4.166946E-09
       272  11  2.924413E+05 -2.843036E+04  9.337407E+03  1.300064E+05 -1.907472E-09  6.367457E-09
       272  12  3.239923E+05  7.413846E+04  9.174650E+04  6.827957E+04  3.396302E-09  4.106908E-09
       272  13  5.149195E+05  7.613624E+04  3.904479E+04  2.081065E+05 -5.911521E-11 -2.107203E-10
       272  14  4.997736E+05  6.105691E+04  6.538731E+04  1.987078E+05 -5.936309E-09 -6.370023E-10
       272  15  5.312483E+05  1.912220E+05  1.554941E+05  1.646842E+05 -7.911681E-10  4.581636E-09
       272  16  7.230177E+05  1.386623E+05  9.005065E+04  2.491206E+05  5.214610E-09  6.747012E-09
       272  17  7.071471E+05  1.505504E+05  1.214331E+05  2.674309E+05 -5.850662E-09  2.559151E-09
       272  18  7.385472E+05  3.083257E+05  2.192369E+05  2.611219E+05 -6.003134E-09  1.753934E-10
       272  19  3.068650E+05  1.361005E+04 -1.196203E+04  1.671033E+05  3.248471E+04  3.471360E+03
       272  20  2.924458E+05 -2.842899E+04  9.345750E+03  1.300072E+05  6.491487E+04  1.511450E+04
       272  21  3.240023E+05  7.414204E+04  9.176549E+04  6.828208E+04  9.508715E+04  3.273991E+04
       272  22  5.149205E+05  7.613649E+04  3.904656E+04  2.081066E+05  3.051808E+04  2.728433E+03
       272  23  4.997784E+05  6.105835E+04  6.539603E+04  1.987087E+05  6.632352E+04  1.564758E+04
       272  24  5.312593E+05  1.912260E+05  1.555150E+05  1.646870E+05  9.987142E+04  3.455146E+04
       272  25  7.230186E+05  1.386626E+05  9.005219E+04  2.491207E+05  2.855072E+04  1.985356E+03
       272  26  7.071521E+05  1.505519E+05  1.214422E+05  2.674318E+05  6.773268E+04  1.618092E+04
       272  27  7.385593E+05  3.083300E+05  2.192599E+05  2.611250E+05  1.046574E+05  3.636440E+04
       273   1 -4.500957E+03 -5.011158E+05 -5.912699E+03  1.829367E+03 -1.412696E+01 -2.128690E+03
       273   2  9.720944E+00 -5.016361E+05 -4.425524E+03  1.083935E+03 -7.851820E+01 -7.607929E+01
       273   3 -1.076341E+03 -5.038271E+05 -5.675519E+03 -5.175999E+02 -1.413001E+02  1.976558E+03
       273   4 -4.300099E+03 -5.003373E+05 -5.723472E+03  1.608924E+02 -1.418780E+01 -2.091815E+03
       273   5  5.396833E+02 -4.995016E+05 -3.921907E+03  5.926165E+02 -7.858289E+01 -4.017000E+01
       273   6 -2.170975E+02 -5.003366E+05 -4.856833E+03  1.682563E+02 -1.413608E+02  2.011506E+03
       273   7 -4.099230E+03 -4.995588E+05 -5.534243E+03 -1.507584E+03 -1.424884E+01 -2.054941E+03
       273   8  1.069646E+03 -4.973672E+05 -3.418291E+03  1.012966E+02 -7.864763E+01 -4.260587E+00
       273   9  6.421470E+02 -4.968461E+05 -4.038148E+03  8.541163E+02 -1.414215E+02  2.046455E+03
       273  10 -4.500959E+03 -5.011158E+05 -5.912707E+03  1.829367E+03  9.997976E-11 -1.814166E-09
       273  11  9.720936E+00 -5.016361E+05 -4.425524E+03  1.083935E+03 -2.419565E-09 -1.786534E-09
       273  12 -1.076342E+03 -5.038271E+05 -5.675527E+03 -5.175996E+02 -1.657177E-09 -9.431625E-10
       273  13 -4.300100E+03 -5.003373E+05 -5.723480E+03  1.608924E+02 -2.102212E-09  3.283402E-09
       273  14  5.396833E+02 -4.995016E+05 -3.921908E+03  5.926165E+02 -2.115010E-09 -7.348916E-09
       273  15 -2.170986E+02 -5.003366E+05 -4.856841E+03  1.682565E+02 -1.910608E-10  3.484166E-09
       273  16 -4.099232E+03 -4.995588E+05 -5.534251E+03 -1.507584E+03 -2.057045E-09  2.348859E-09
       273  17  1.069646E+03 -4.973672E+05 -3.418291E+03  1.012966E+02  1.453919E-09 -2.205071E-09
       273  18  6.421458E+02 -4.968461E+05 -4.038155E+03  8.541165E+02 -1.200207E-10 -1.592521E-09
       273  19 -4.500957E+03 -5.011158E+05 -5.912699E+03  1.829367E+03  1.412696E+01  2.128690E+03
       273  20  9.720944E+00 -5.016361E+05 -4.425524E+03  1.083935E+03  7.851820E+01  7.607929E+01
       273  21 -1.076341E+03 -5.038271E+05 -5.675519E+03 -5.175999E+02  1.413001E+02 -1.976558E+03
       273  22 -4.300099E+03 -5.003373E+05 -5.723472E+03  1.608924E+02  1.418780E+01  2.091815E+03
       273  23  5.396833E+02 -4.995016E+05 -3.921907E+03  5.926165E+02  7.858289E+01  4.017000E+01
       273  24 -2.170975E+02 -5.003366E+05 -4.856833E+03  1.682563E+02  1.413608E+02 -2.011506E+03
       273  25 -4.099230E+03 -4.995588E+05 -5.534243E+03 -1.507584E+03  1.424884E+01  2.054941E+03
       273  26  1.069646E+03 -4.973672E+05 -3.418291E+03  1.012966E+02  7.864763E+01  4.260587E+00
       273  27  6.421470E+02 -4.968461E+05 -4.038148E+03  8.541163E+02  1.414215E+02 -2.046455E+03
       274   1 -1.355400E+03 -5.054540E+05 -6.881476E+03  1.102958E+03 -1.801471E+02  2.888158E+03
       274   2 -9.142986E+02 -5.057044E+05 -1.000922E+04  2.294736E+02 -2.464667E+02  7.236187E+03
       274   3 -6.992559E+03 -5.081554E+05 -1.760002E+04 -1.495943E+03 -2.952069E+02  1.158422E+04
       274   4 -1.141816E+02 -5.004540E+05 -5.698274E+03  1.697241E+02 -1.802241E+02  2.928519E+03
       274   5  6.538956E+02 -4.993556E+05 -8.512655E+03  5.912184E+02 -2.465159E+02  7.266036E+03
       274   6 -5.095529E+03 -5.004560E+05 -1.578276E+04  1.607797E+02 -2.952102E+02  1.160357E+04
       274   7  1.127038E+03 -4.954540E+05 -4.515073E+03 -7.635170E+02 -1.803011E+02  2.968880E+03
       274   8  2.222088E+03 -4.930068E+05 -7.016093E+03  9.529670E+02 -2.465650E+02  7.295885E+03
       274   9 -3.198494E+03 -4.927565E+05 -1.396549E+04  1.817523E+03 -2.952135E+02  1.162291E+04
       274  10 -1.355403E+03 -5.054540E+05 -6.881491E+03  1.102958E+03 -9.570548E-10 -4.505546E-09
       274  11 -9.143128E+02 -5.057045E+05 -1.000932E+04  2.294750E+02  8.322624E-10 -3.718376E-09
       274  12 -6.992595E+03 -5.081555E+05 -1.760028E+04 -1.495940E+03 -2.244942E-09  3.970544E-09
       274  13 -1.141840E+02 -5.004540E+05 -5.698290E+03  1.697245E+02 -1.235713E-09 -8.695945E-12
       274  14  6.538814E+02 -4.993557E+05 -8.512755E+03  5.912199E+02  3.987933E-10 -1.029582E-09
       274  15 -5.095566E+03 -5.004561E+05 -1.578301E+04  1.607825E+02  8.795490E-10 -2.511609E-11
       274  16  1.127036E+03 -4.954540E+05 -4.515090E+03 -7.635165E+02  1.746336E-09  4.465625E-09
       274  17  2.222073E+03 -4.930069E+05 -7.016193E+03  9.529684E+02 -2.267673E-09 -1.193707E-09
       274  18 -3.198530E+03 -4.927567E+05 -1.396574E+04  1.817526E+03 -2.341870E-09 -2.785939E-09
       274  19 -1.355400E+03 -5.054540E+05 -6.881476E+03  1.102958E+03  1.801471E+02 -2.888158E+03
       274  20 -9.142986E+02 -5.057044E+05 -1.000922E+04  2.294736E+02  2.464667E+02 -7.236187E+03
       274  21 -6.992559E+03 -5.081554E+05 -1.760002E+04 -1.495943E+03  2.952069E+02 -1.158422E+04
       274  22 -1.141816E+02 -5.004540E+05 -5.698274E+03  1.697241E+02  1.802241E+02 -2.928519E+03
       274  23  6.538956E+02 -4.993556E+05 -8.512655E+03  5.912184E+02  2.465159E+02 -7.266036E+03
       274  24 -5.095529E+03 -5.004560E+05 -1.578276E+04  1.607797E+02  2.952102E+02 -1.160357E+04
       274  25  1.127038E+03 -4.954540E+05 -4.515073E+03 -7.635170E+02  1.803011E+02 -2.968880E+03
       274  26  2.222088E+03 -4.930068E+05 -7.016093E+03  9.529670E+02  2.465650E+02 -7.295885E+03
       274  27 -3.198494E+03 -4.927565E+05 -1.396549E+04  1.817523E+03  2.952135E+02 -1.162291E+04
       275   1  7.150327E+02 -5.132752E+05 -2.148687E+04  8.198118E+03 -3.727825E+02  1.444026E+04
       275   2  3.668406E+03 -5.053382E+05 -3.362249E+04 -5.532193E+03 -4.377769E+02  3.134370E+04
       275   3 -5.916954E+04 -5.160586E+05 -7.321748E+04 -2.017309E+04 -2.154276E+02  4.824743E+04
       275   4  3.017879E+03 -5.041037E+05 -1.932107E+04  1.856644E+02 -3.731604E+02  1.454731E+04
       275   5  6.247911E+03 -4.947971E+05 -3.114019E+04  5.883034E+02 -4.373496E+02  3.127824E+04
       275   6 -5.628356E+04 -5.041180E+05 -7.029860E+04  7.988167E+01 -2.134270E+02  4.800951E+04
       275   7  5.320961E+03 -4.949319E+05 -1.715523E+04 -7.826908E+03 -3.735409E+02  1.465437E+04
       275   8  8.827549E+03 -4.842557E+05 -2.865788E+04  6.708904E+03 -4.369235E+02  3.121278E+04
       275   9 -5.339604E+04 -4.921764E+05 -6.737951E+04  2.033324E+04 -2.114419E+02  4.777158E+04
       275  10  7.149765E+02 -5.132754E+05 -2.148727E+04  8.198122E+03 -1.464251E-09 -2.177401E-09
       275  11  3.668142E+03 -5.053392E+05 -3.362434E+04 -5.532182E+03 -1.137005E-09 -3.316598E-09
       275  12 -5.917017E+04 -5.160611E+05 -7.322186E+04 -2.017308E+04 -1.868859E-09  3.442273E-09
       275  13  3.017822E+03 -5.041039E+05 -1.932146E+04  1.856688E+02  3.647685E-09  3.285125E-09
       275  14  6.247648E+03 -4.947981E+05 -3.114203E+04  5.883144E+02 -1.201174E-09 -4.082553E-09
       275  15 -5.628418E+04 -5.041205E+05 -7.030293E+04  7.988993E+01 -3.078901E-10  1.202502E-10
       275  16  5.320903E+03 -4.949322E+05 -1.715563E+04 -7.826904E+03 -9.202956E-10  2.275537E-09
       275  17  8.827287E+03 -4.842568E+05 -2.865971E+04  6.708915E+03  8.589098E-10 -1.402411E-09
       275  18 -5.339666E+04 -4.921789E+05 -6.738380E+04  2.033325E+04 -1.123372E-09  3.024024E-10
       275  19  7.150327E+02 -5.132752E+05 -2.148687E+04  8.198118E+03  3.727825E+02 -1.444026E+04
       275  20  3.668406E+03 -5.053382E+05 -3.362249E+04 -5.532193E+03  4.377769E+02 -3.134370E+04
       275  21 -5.916954E+04 -5.160586E+05 -7.321748E+04 -2.017309E+04  2.154276E+02 -4.824743E+04
       275  22  3.017879E+03 -5.041037E+05 -1.932107E+04  1.856644E+02  3.731604E+02 -1.454731E+04
       275  23  6.247911E+03 -4.947971E+05 -3.114019E+04  5.883034E+02  4.373496E+02 -3.127824E+04
       275  24 -5.628356E+04 -5.041180E+05 -7.029860E+04  7.988167E+01  2.134270E+02 -4.800951E+04
       275  25  5.320961E+03 -4.949319E+05 -1.715523E+04 -7.826908E+03  3.735409E+02 -1.465437E+04
       275  26  8.827549E+03 -4.842557E+05 -2.865788E+04  6.708904E+03  4.369235E+02 -3.121278E+04
       275  27 -5.339604E+04 -4.921764E+05 -6.737951E+04  2.033324E+04  2.114419E+02 -4.777158E+04
       276   1  8.419697E+05  6.244159E+04  9.549763E+04 -5.910018E+03  9.558835E+04  5.499050E+02
       276   2  8.136158E+05 -7.168453E+04  1.346271E+04  6.774007E+03  6.304030E+04  4.768671E+02
       276   3  8.453696E+05 -4.752352E+04 -4.565333E+03 -7.481319E+03  3.049247E+04  1.968099E+02
       276   4  1.025147E+06  1.081702E+05  1.412371E+05 -7.096779E+03  9.561182E+04  5.497305E+02
       276   5  9.951010E+05 -2.636042E+04  5.878232E+04  6.611381E+03  6.305038E+04  4.768364E+02
       276   6  1.025156E+06 -2.624012E+03  4.033115E+04 -6.619338E+03  3.048924E+04  1.968500E+02
       276   7  1.208354E+06  1.538963E+05  1.869741E+05 -8.283922E+03  9.563529E+04  5.495560E+02
       276   8  1.176616E+06  1.896122E+04  1.040994E+05  6.448691E+03  6.306046E+04  4.768056E+02
       276   9  1.204971E+06  4.227307E+04  8.522520E+04 -5.757106E+03  3.048601E+04  1.968902E+02
       276  10  8.419599E+05  6.243914E+04  9.548048E+04 -5.910061E+03  6.290577E-10 -1.781319E-09
       276  11  8.136115E+05 -7.168559E+04  1.345525E+04  6.773983E+03  3.658064E-11 -3.059195E-09
       276  12  8.453686E+05 -4.752377E+04 -4.567078E+03 -7.481324E+03 -9.733294E-10  7.773397E-09
       276  13  1.025137E+06  1.081677E+05  1.412200E+05 -7.096821E+03 -2.901646E-12 -3.289925E-10
       276  14  9.950968E+05 -2.636148E+04  5.877486E+04  6.611357E+03 -3.019555E-10 -6.299805E-10
       276  15  1.025155E+06 -2.624261E+03  4.032941E+04 -6.619343E+03  1.382478E-10  4.220193E-10
       276  16  1.208344E+06  1.538938E+05  1.869570E+05 -8.283965E+03  1.061134E-09  1.481856E-09
       276  17  1.176612E+06  1.896015E+04  1.040920E+05  6.448667E+03 -5.444555E-10  5.008797E-10
       276  18  1.204970E+06  4.227282E+04  8.522346E+04 -5.757111E+03  8.234979E-10 -5.658040E-09
       276  19  8.419697E+05  6.244159E+04  9.549763E+04 -5.910018E+03 -9.558835E+04 -5.499050E+02
       276  20  8.136158E+05 -7.168453E+04  1.346271E+04  6.774007E+03 -6.304030E+04 -4.768671E+02
       276  21  8.453696E+05 -4.752352E+04 -4.565333E+03 -7.481319E+03 -3.049247E+04 -1.968099E+02
       276  22  1.025147E+06  1.081702E+05  1.412371E+05 -7.096779E+03 -9.561182E+04 -5.497305E+02
       276  23  9.951010E+05 -2.636042E+04  5.878232E+04  6.611381E+03 -6.305038E+04 -4.768364E+02
       276  24  1.025156E+06 -2.624012E+03  4.033115E+04 -6.619338E+03 -3.048924E+04 -1.968500E+02
       276  25  1.208354E+06  1.538963E+05  1.869741E+05 -8.283922E+03 -9.563529E+04 -5.495560E+02
       276  26  1.176616E+06  1.896122E+04  1.040994E+05  6.448691E+03 -6.306046E+04 -4.768056E+02
       276  27  1.204971E+06  4.227307E+04  8.522520E+04 -5.757106E+03 -3.048601E+04 -1.968902E+02
       277   1  1.014718E+06  1.661917E+04  3.288861E+04 -4.481173E+02  2.375085E+04  3.795981E+01
       277   2  1.011220E+06 -3.608012E+03  1.586208E+04 -7.587128E+02  1.559061E+04 -2.836593E+01
       277   3  1.014703E+06 -1.527833E+02  1.006287E+04 -8.626615E+02  7.430477E+03 -9.790692E+00
       277   4  1.013360E+06  1.628045E+04  3.254877E+04 -7.090463E+02  2.374804E+04  3.795204E+01
       277   5  1.009875E+06 -3.943658E+03  1.552654E+04 -8.190141E+02  1.558986E+04 -2.836688E+01
       277   6  1.013371E+06 -4.856893E+02  9.730233E+03 -7.223353E+02  7.431783E+03 -9.790017E+00
       277   7  1.012002E+06  1.594174E+04  3.220894E+04 -9.699746E+02  2.374524E+04  3.794428E+01
       277   8  1.008531E+06 -4.279304E+03  1.519101E+04 -8.793152E+02  1.558912E+04 -2.836783E+01
       277   9  1.012038E+06 -8.185954E+02  9.397592E+03 -5.820094E+02  7.433090E+03 -9.789341E+00
       277  10  1.014717E+06  1.661902E+04  3.288755E+04 -4.481181E+02 -2.445300E-10 -3.078860E-09
       277  11  1.011220E+06 -3.608077E+03  1.586162E+04 -7.587124E+02  5.910565E-10 -1.292025E-08
       277  12  1.014703E+06 -1.527981E+02  1.006277E+04 -8.626615E+02 -2.183646E-09  3.710218E-08
       277  13  1.013359E+06  1.628030E+04  3.254772E+04 -7.090470E+02 -6.184387E-12 -4.753814E-11
       277  14  1.009875E+06 -3.943723E+03  1.552609E+04 -8.190137E+02  6.894482E-10 -1.838238E-09
       277  15  1.013370E+06 -4.857041E+02  9.730129E+03 -7.223353E+02  1.377214E-09 -1.451500E-10
       277  16  1.012002E+06  1.594159E+04  3.220788E+04 -9.699753E+02  2.248066E-10  6.976603E-10
       277  17  1.008530E+06 -4.279369E+03  1.519055E+04 -8.793149E+02 -5.291140E-10  9.078899E-09
       277  18  1.012038E+06 -8.186102E+02  9.397489E+03 -5.820093E+02  2.687688E-09 -3.295436E-08
       277  19  1.014718E+06  1.661917E+04  3.288861E+04 -4.481173E+02 -2.375085E+04 -3.795981E+01
       277  20  1.011220E+06 -3.608012E+03  1.586208E+04 -7.587128E+02 -1.559061E+04  2.836593E+01
       277  21  1.014703E+06 -1.527834E+02  1.006287E+04 -8.626615E+02 -7.430477E+03  9.790693E+00
       277  22  1.013360E+06  1.628045E+04  3.254877E+04 -7.090463E+02 -2.374804E+04 -3.795204E+01
       277  23  1.009875E+06 -3.943658E+03  1.552654E+04 -8.190141E+02 -1.558986E+04  2.836688E+01
       277  24  1.013371E+06 -4.856893E+02  9.730233E+03 -7.223353E+02 -7.431783E+03  9.790017E+00
       277  25  1.012002E+06  1.594174E+04  3.220894E+04 -9.699746E+02 -2.374524E+04 -3.794428E+01
       277  26  1.008531E+06 -4.279304E+03  1.519101E+04 -8.793152E+02 -1.558912E+04  2.836783E+01
       277  27  1.012038E+06 -8.185954E+02  9.397592E+03 -5.820094E+02 -7.433090E+03  9.789341E+00
       278   1  1.012074E+06  2.541310E+03  7.827197E+03 -7.241859E+02  5.835178E+03  5.062122E+00
       278   2  1.011472E+06 -6.244452E+02  4.085270E+03 -7.556955E+02  3.738226E+03 -5.030621E+00
       278   3  1.012076E+06 -5.431683E+01  2.640833E+03 -7.869195E+02  1.641320E+03 -1.733041E+00
       278   4  1.012085E+06  2.544175E+03  7.829887E+03 -7.623821E+02  5.834736E+03  5.062096E+00
       278   5  1.011483E+06 -6.216031E+02  4.088128E+03 -7.635047E+02  3.738107E+03 -5.030578E+00
       278   6  1.012087E+06 -5.155371E+01  2.643637E+03 -7.643422E+02  1.641522E+03 -1.733135E+00
       278   7  1.012097E+06  2.547040E+03  7.832576E+03 -8.005782E+02  5.834295E+03  5.062071E+00
       278   8  1.011495E+06 -6.187610E+02  4.090985E+03 -7.713138E+02  3.737987E+03 -5.030535E+00
       278   9  1.012099E+06 -4.879061E+01  2.646440E+03 -7.417648E+02  1.641725E+03 -1.733227E+00
       278  10  1.012074E+06  2.541301E+03  7.827133E+03 -7.241849E+02  2.126264E-06  1.789363E-07
       278  11  1.011472E+06 -6.244494E+02  4.085243E+03 -7.556909E+02  9.497973E-06  4.232180E-07
       278  12  1.012076E+06 -5.431827E+01  2.640828E+03 -7.869114E+02  1.689815E-05  4.199304E-07
       278  13  1.012085E+06  2.544166E+03  7.829823E+03 -7.623821E+02  5.367747E-06 -6.094068E-08
       278  14  1.011483E+06 -6.216069E+02  4.088101E+03 -7.635046E+02  2.381877E-05 -2.742365E-07
       278  15  1.012087E+06 -5.155442E+01  2.643632E+03 -7.643422E+02  4.226829E-05 -4.865052E-07
       278  16  1.012097E+06  2.547031E+03  7.832512E+03 -8.005793E+02  2.168486E-06 -8.651307E-08
       278  17  1.011495E+06 -6.187645E+02  4.090959E+03 -7.713184E+02  9.557944E-06 -2.922463E-08
       278  18  1.012099E+06 -4.879064E+01  2.646435E+03 -7.417729E+02  1.691857E-05  2.814314E-07
       278  19  1.012074E+06  2.541310E+03  7.827197E+03 -7.241838E+02 -5.835178E+03 -5.062121E+00
       278  20  1.011472E+06 -6.244461E+02  4.085270E+03 -7.556863E+02 -3.738226E+03  5.030622E+00
       278  21  1.012076E+06 -5.431827E+01  2.640833E+03 -7.869033E+02 -1.641320E+03  1.733042E+00
       278  22  1.012085E+06  2.544175E+03  7.829887E+03 -7.623821E+02 -5.834736E+03 -5.062096E+00
       278  23  1.011483E+06 -6.216032E+02  4.088128E+03 -7.635047E+02 -3.738107E+03  5.030578E+00
       278  24  1.012087E+06 -5.155368E+01  2.643637E+03 -7.643422E+02 -1.641522E+03  1.733134E+00
       278  25  1.012097E+06  2.547040E+03  7.832576E+03 -8.005803E+02 -5.834295E+03 -5.062071E+00
       278  26  1.011495E+06 -6.187604E+02  4.090986E+03 -7.713230E+02 -3.737987E+03  5.030535E+00
       278  27  1.012099E+06 -4.878921E+01  2.646440E+03 -7.417810E+02 -1.641725E+03  1.733228E+00
       279   1  1.011886E+06  3.916990E+02  2.210137E+03 -7.569467E+02  1.200674E+03  7.347384E-01
       279   2  1.011737E+06 -1.293882E+02  1.574347E+03 -7.630295E+02  4.067838E+02 -5.899161E-01
       279   3  1.011886E+06  1.302069E+02  1.649960E+03 -7.687350E+02 -3.871170E+02 -2.150004E-01
       279   4  1.011885E+06  3.916776E+02  2.210085E+03 -7.634914E+02  1.200608E+03  7.347754E-01
       279   5  1.011736E+06 -1.294103E+02  1.574327E+03 -7.637789E+02  4.067580E+02 -5.898972E-01
       279   6  1.011886E+06  1.301772E+02  1.649944E+03 -7.636890E+02 -3.871020E+02 -2.150145E-01
       279   7  1.011885E+06  3.916562E+02  2.210033E+03 -7.700361E+02  1.200541E+03  7.348139E-01
       279   8  1.011736E+06 -1.294323E+02  1.574308E+03 -7.645282E+02  4.067322E+02 -5.898777E-01
       279   9  1.011886E+06  1.301474E+02  1.649928E+03 -7.586429E+02 -3.870870E+02 -2.150289E-01
       279  10  1.011886E+06  3.916979E+02  2.210134E+03 -7.569387E+02  1.670965E-05  2.392395E-07
       279  11  1.011737E+06 -1.293884E+02  1.574347E+03 -7.630254E+02  8.582338E-06 -1.047892E-07
       279  12  1.011886E+06  1.302071E+02  1.649960E+03 -7.687348E+02  4.742658E-07 -2.922547E-07
       279  13  1.011885E+06  3.916772E+02  2.210082E+03 -7.634914E+02  4.171817E-05 -4.652519E-07
       279  14  1.011736E+06 -1.294103E+02  1.574327E+03 -7.637789E+02  2.137792E-05 -1.791557E-07
       279  15  1.011886E+06  1.301771E+02  1.649944E+03 -7.636890E+02  1.037019E-06  1.026142E-07
       279  16  1.011885E+06  3.916565E+02  2.210030E+03 -7.700441E+02  1.666490E-05  4.305890E-07
       279  17  1.011736E+06 -1.294320E+02  1.574307E+03 -7.645323E+02  8.520741E-06  3.542308E-07
       279  18  1.011886E+06  1.301473E+02  1.649928E+03 -7.586431E+02  3.555031E-07  1.232943E-07
       279  19  1.011886E+06  3.916977E+02  2.210137E+03 -7.569307E+02 -1.200674E+03 -7.347379E-01
       279  20  1.011737E+06 -1.293886E+02  1.574347E+03 -7.630213E+02 -4.067838E+02  5.899159E-01
       279  21  1.011886E+06  1.302074E+02  1.649960E+03 -7.687347E+02  3.871170E+02  2.149998E-01
       279  22  1.011885E+06  3.916776E+02  2.210085E+03 -7.634914E+02 -1.200608E+03 -7.347763E-01
       279  23  1.011736E+06 -1.294102E+02  1.574327E+03 -7.637789E+02 -4.067579E+02  5.898968E-01
       279  24  1.011886E+06  1.301772E+02  1.649944E+03 -7.636890E+02  3.871020E+02  2.150147E-01
       279  25  1.011885E+06  3.916576E+02  2.210033E+03 -7.700521E+02 -1.200541E+03 -7.348131E-01
       279  26  1.011736E+06 -1.294316E+02  1.574308E+03 -7.645365E+02 -4.067321E+02  5.898784E-01
       279  27  1.011886E+06  1.301472E+02  1.649928E+03 -7.586433E+02  3.870870E+02  2.150292E-01
       280   1  1.011936E+06  3.652554E+01  1.825965E+03 -7.547044E+02 -7.026972E+02  9.237165E-01
       280   2  1.011673E+06 -2.367594E+02  2.561667E+03 -7.655397E+02 -1.997543E+03  2.043789E+00
       280   3  1.011935E+06  9.149788E+02  4.495608E+03 -7.756792E+02 -3.292392E+03 -5.724851E-02
       280   4  1.011936E+06  3.656635E+01  1.825987E+03 -7.637970E+02 -7.026551E+02  9.236966E-01
       280   5  1.011673E+06 -2.367361E+02  2.561688E+03 -7.638130E+02 -1.997578E+03  2.043815E+00
       280   6  1.011935E+06  9.149980E+02  4.495680E+03 -7.631332E+02 -3.292505E+03 -5.722153E-02
       280   7  1.011936E+06  3.660718E+01  1.826009E+03 -7.728896E+02 -7.026129E+02  9.236740E-01
       280   8  1.011673E+06 -2.367128E+02  2.561708E+03 -7.620863E+02 -1.997613E+03  2.043832E+00
       280   9  1.011935E+06  9.150172E+02  4.495751E+03 -7.505872E+02 -3.292618E+03 -5.721100E-02
       280  10  1.011936E+06  3.652663E+01  1.825964E+03 -7.547070E+02 -5.211876E-06 -8.476986E-07
       280  11  1.011673E+06 -2.367563E+02  2.561661E+03 -7.655480E+02 -1.704648E-05 -2.453309E-06
       280  12  1.011935E+06  9.149830E+02  4.495590E+03 -7.756932E+02 -2.906565E-05 -3.740702E-06
       280  13  1.011936E+06  3.656625E+01  1.825986E+03 -7.637970E+02 -1.354052E-05  7.450206E-07
       280  14  1.011673E+06 -2.367371E+02  2.561680E+03 -7.638130E+02 -4.329597E-05  2.677051E-06
       280  15  1.011935E+06  9.149951E+02  4.495659E+03 -7.631332E+02 -7.305172E-05  4.611089E-06
       280  16  1.011936E+06  3.660599E+01  1.826008E+03 -7.728870E+02 -5.622581E-06 -3.310826E-07
       280  17  1.011673E+06 -2.367178E+02  2.561699E+03 -7.620780E+02 -1.759597E-05 -1.750108E-06
       280  18  1.011935E+06  9.150073E+02  4.495729E+03 -7.505732E+02 -2.938399E-05 -3.482464E-06
       280  19  1.011936E+06  3.652798E+01  1.825965E+03 -7.547096E+02  7.026972E+02 -9.237182E-01
       280  20  1.011673E+06 -2.367510E+02  2.561670E+03 -7.655563E+02  1.997543E+03 -2.043794E+00
       280  21  1.011935E+06  9.149929E+02  4.495612E+03 -7.757072E+02  3.292392E+03  5.724096E-02
       280  22  1.011936E+06  3.656642E+01  1.825987E+03 -7.637970E+02  7.026550E+02 -9.236951E-01
       280  23  1.011673E+06 -2.367360E+02  2.561687E+03 -7.638130E+02  1.997578E+03 -2.043810E+00
       280  24  1.011935E+06  9.149980E+02  4.495679E+03 -7.631332E+02  3.292505E+03  5.723075E-02
       280  25  1.011936E+06  3.660506E+01  1.826009E+03 -7.728844E+02  7.026129E+02 -9.236747E-01
       280  26  1.011673E+06 -2.367207E+02  2.561706E+03 -7.620697E+02  1.997613E+03 -2.043835E+00
       280  27  1.011935E+06  9.150032E+02  4.495747E+03 -7.505592E+02  3.292618E+03  5.720410E-02
       281   1  1.012448E+06 -1.568567E+02  5.656486E+03 -7.124876E+02 -4.214791E+03  3.888564E+00
       281   2  1.011061E+06 -1.431448E+03  9.234376E+03 -7.816821E+02 -8.952153E+03  1.022909E+01
       281   3  1.012443E+06  5.912597E+03  1.804754E+04 -8.484218E+02 -1.368948E+04 -4.439949E+00
       281   4  1.012435E+06 -1.601517E+02  5.653105E+03 -7.647606E+02 -4.214472E+03  3.888686E+00
       281   5  1.011047E+06 -1.434891E+03  9.230918E+03 -7.636961E+02 -8.952339E+03  1.022898E+01
       281   6  1.012430E+06  5.909093E+03  1.804435E+04 -7.601779E+02 -1.369017E+04 -4.441370E+00
       281   7  1.012421E+06 -1.634468E+02  5.649723E+03 -8.170336E+02 -4.214153E+03  3.888791E+00
       281   8  1.011034E+06 -1.438335E+03  9.227459E+03 -7.457101E+02 -8.952524E+03  1.022885E+01
       281   9  1.012416E+06  5.905590E+03  1.804116E+04 -6.719341E+02 -1.369086E+04 -4.442793E+00
       281  10  1.012448E+06 -1.568545E+02  5.656454E+03 -7.125015E+02 -2.917140E-05 -3.453903E-06
       281  11  1.011061E+06 -1.431466E+03  9.234227E+03 -7.816899E+02 -1.662936E-05 -1.646819E-06
       281  12  1.012443E+06  5.912547E+03  1.804718E+04 -8.484236E+02 -3.892424E-06 -2.311328E-07
       281  13  1.012435E+06 -1.601564E+02  5.653071E+03 -7.647606E+02 -7.250193E-05  4.589129E-06
       281  14  1.011047E+06 -1.434913E+03  9.230767E+03 -7.636961E+02 -4.085506E-05  2.581844E-06
       281  15  1.012430E+06  5.909043E+03  1.804400E+04 -7.601780E+02 -9.209025E-06  5.782509E-07
       281  16  1.012421E+06 -1.634585E+02  5.649688E+03 -8.170197E+02 -2.883854E-05 -3.736357E-06
       281  17  1.011034E+06 -1.438360E+03  9.227308E+03 -7.457022E+02 -1.605906E-05 -2.412184E-06
       281  18  1.012416E+06  5.905539E+03  1.804081E+04 -6.719324E+02 -3.476476E-06 -6.866017E-07
       281  19  1.012448E+06 -1.568428E+02  5.656489E+03 -7.125154E+02  4.214791E+03 -3.888571E+00
       281  20  1.011061E+06 -1.431441E+03  9.234378E+03 -7.816978E+02  8.952153E+03 -1.022909E+01
       281  21  1.012443E+06  5.912598E+03  1.804754E+04 -8.484253E+02  1.368948E+04  4.439949E+00
       281  22  1.012435E+06 -1.601517E+02  5.653105E+03 -7.647606E+02  4.214472E+03 -3.888677E+00
       281  23  1.011047E+06 -1.434892E+03  9.230918E+03 -7.636961E+02  8.952339E+03 -1.022897E+01
       281  24  1.012430E+06  5.909093E+03  1.804435E+04 -7.601779E+02  1.369017E+04  4.441371E+00
       281  25  1.012421E+06 -1.634608E+02  5.649720E+03 -8.170058E+02  4.214153E+03 -3.888798E+00
       281  26  1.011034E+06 -1.438343E+03  9.227457E+03 -7.456944E+02  8.952524E+03 -1.022886E+01
       281  27  1.012416E+06  5.905588E+03  1.804116E+04 -6.719305E+02  1.369086E+04  4.442791E+00
       282   1  1.013781E+06 -1.544665E+03  2.209197E+04 -3.891735E+02 -1.738006E+04  1.913774E+01
       282   2  1.005649E+06 -9.572464E+03  3.562247E+04 -9.745394E+02 -3.631039E+04  5.273727E+01
       282   3  1.013724E+06  3.739726E+04  7.521392E+04 -1.289903E+03 -5.524127E+04 -4.379294E+01
       282   4  1.015421E+06 -1.134538E+03  2.250152E+04 -7.143275E+02 -1.737807E+04  1.914529E+01
       282   5  1.007305E+06 -9.159287E+03  3.603555E+04 -8.337290E+02 -3.631157E+04  5.272991E+01
       282   6  1.015397E+06  3.781396E+04  7.563269E+04 -6.831206E+02 -5.524562E+04 -4.384343E+01
       282   7  1.017061E+06 -7.244101E+02  2.291108E+04 -1.039482E+03 -1.737607E+04  1.915283E+01
       282   8  1.008961E+06 -8.746109E+03  3.644864E+04 -6.929181E+02 -3.631275E+04  5.272254E+01
       282   9  1.017069E+06  3.823066E+04  7.605146E+04 -7.633632E+01 -5.524997E+04 -4.389393E+01
       282  10  1.013780E+06 -1.544746E+03  2.209140E+04 -3.891732E+02 -3.377816E-08  6.497959E-08
       282  11  1.005648E+06 -9.572817E+03  3.561999E+04 -9.745379E+02  7.626999E-09 -1.682164E-08
       282  12  1.013721E+06  3.739644E+04  7.520820E+04 -1.289905E+03  1.478015E-09 -3.257434E-09
       282  13  1.015420E+06 -1.134618E+03  2.250096E+04 -7.143273E+02 -9.231044E-11 -2.002635E-09
       282  14  1.007304E+06 -9.159640E+03  3.603308E+04 -8.337274E+02  2.554664E-10 -2.068719E-10
       282  15  1.015394E+06  3.781314E+04  7.562696E+04 -6.831225E+02  4.108677E-10  1.189192E-09
       282  16  1.017060E+06 -7.244910E+02  2.291051E+04 -1.039482E+03  3.348932E-08 -6.853815E-08
       282  17  1.008960E+06 -8.746463E+03  3.644617E+04 -6.929166E+02 -8.333750E-09  1.771888E-08
       282  18  1.017066E+06  3.822984E+04  7.604573E+04 -7.633827E+01 -1.112727E-09  3.659074E-09
       282  19  1.013781E+06 -1.544665E+03  2.209197E+04 -3.891735E+02  1.738006E+04 -1.913774E+01
       282  20  1.005649E+06 -9.572464E+03  3.562247E+04 -9.745394E+02  3.631039E+04 -5.273727E+01
       282  21  1.013724E+06  3.739726E+04  7.521392E+04 -1.289903E+03  5.524127E+04  4.379294E+01
       282  22  1.015421E+06 -1.134538E+03  2.250152E+04 -7.143275E+02  1.737807E+04 -1.914529E+01
       282  23  1.007305E+06 -9.159287E+03  3.603555E+04 -8.337290E+02  3.631157E+04 -5.272991E+01
       282  24  1.015397E+06  3.781396E+04  7.563269E+04 -6.831206E+02  5.524562E+04  4.384343E+01
       282  25  1.017061E+06 -7.244101E+02  2.291108E+04 -1.039482E+03  1.737607E+04 -1.915283E+01
       282  26  1.008961E+06 -8.746109E+03  3.644864E+04 -6.929181E+02  3.631275E+04 -5.272254E+01
       282  27  1.017069E+06  3.823066E+04  7.605146E+04 -7.633632E+01  5.524997E+04  4.389393E+01
       283   1  1.321057E+06  6.333952E+04  1.632040E+05 -7.850584E+03 -7.093171E+04 -3.252842E+02
       283   2  1.253314E+06  8.770816E+03  2.066910E+05  1.066861E+04 -1.466447E+05 -1.075551E+03
       283   3  1.326444E+06  3.222189E+05  3.992197E+05 -1.439687E+04 -2.223595E+05 -1.806252E+03
       283   4  1.043083E+06 -6.062459E+03  9.380952E+04 -9.941643E+03 -7.092765E+04 -3.250581E+02
       283   5  9.726291E+05 -6.130702E+04  1.366204E+05  1.093802E+04 -1.466103E+05 -1.075687E+03
       283   6  1.043077E+06  2.515403E+05  3.284966E+05 -1.176808E+04 -2.222944E+05 -1.807275E+03
       283   7  7.651789E+05 -7.547024E+04  2.440921E+04 -1.203177E+04 -7.092360E+04 -3.248320E+02
       283   8  6.920153E+05 -1.313908E+05  6.654387E+04  1.120723E+04 -1.465758E+05 -1.075822E+03
       283   9  7.597831E+05  1.808557E+05  2.577675E+05 -9.140627E+03 -2.222292E+05 -1.808298E+03
       283  10  1.321052E+06  6.333817E+04  1.631946E+05 -7.850603E+03 -5.639927E-09  1.104905E-08
       283  11  1.253291E+06  8.765057E+03  2.066506E+05  1.066849E+04  4.968270E-10 -3.858321E-09
       283  12  1.326391E+06  3.222057E+05  3.991270E+05 -1.439719E+04  7.240662E-10 -3.896271E-09
       283  13  1.043078E+06 -6.063807E+03  9.380008E+04 -9.941662E+03  8.140418E-14 -2.485250E-10
       283  14  9.726060E+05 -6.131278E+04  1.365801E+05  1.093789E+04  8.410650E-10 -2.186123E-09
       283  15  1.043024E+06  2.515271E+05  3.284039E+05 -1.176841E+04 -1.172294E-09 -5.766739E-10
       283  16  7.651735E+05 -7.547159E+04  2.439977E+04 -1.203179E+04  5.403096E-09 -1.081299E-08
       283  17  6.919922E+05 -1.313965E+05  6.650354E+04  1.120711E+04 -1.719922E-09  1.538625E-09
       283  18  7.597301E+05  1.808425E+05  2.576748E+05 -9.140950E+03 -3.027090E-09  1.544872E-09
       283  19  1.321057E+06  6.333952E+04  1.632040E+05 -7.850584E+03  7.093171E+04  3.252842E+02
       283  20  1.253314E+06  8.770816E+03  2.066910E+05  1.066861E+04  1.466447E+05  1.075551E+03
       283  21  1.326444E+06  3.222189E+05  3.992197E+05 -1.439687E+04  2.223595E+05  1.806252E+03
       283  22  1.043083E+06 -6.062459E+03  9.380952E+04 -9.941643E+03  7.092765E+04  3.250581E+02
       283  23  9.726291E+05 -6.130702E+04  1.366204E+05  1.093802E+04  1.466103E+05  1.075687E+03
       283  24  1.043077E+06  2.515403E+05  3.284966E+05 -1.176808E+04  2.222944E+05  1.807275E+03
       283  25  7.651789E+05 -7.547024E+04  2.440921E+04 -1.203177E+04  7.092360E+04  3.248320E+02
       283  26  6.920153E+05 -1.313908E+05  6.654387E+04  1.120723E+04  1.465758E+05  1.075822E+03
       283  27  7.597831E+05  1.808557E+05  2.577675E+05 -9.140627E+03  2.222292E+05  1.808298E+03
       284   1  6.986177E+04  8.313717E+05  9.748503E+04 -4.736606E+02 -4.499784E+02  8.195069E+04
       284   2 -4.242277E+04  8.122934E+05  2.846363E+04 -5.457947E+03 -3.613023E+02  5.493603E+04
       284   3 -2.409411E+04  8.328476E+05  1.036447E+04  1.203474E+03 -1.701594E+02  2.792121E+04
       284   4  9.070996E+04  9.149137E+05  1.183453E+05  7.384967E+02 -4.498252E+02  8.196044E+04
       284   5 -2.174003E+04  8.951134E+05  4.914584E+04 -5.306208E+03 -3.612824E+02  5.494014E+04
       284   6 -3.584883E+03  9.149423E+05  3.086777E+04  2.946957E+02 -1.701878E+02  2.791969E+04
       284   7  1.115576E+05  9.984620E+05  1.392050E+05  1.950824E+03 -4.496720E+02  8.197019E+04
       284   8 -1.057817E+03  9.779397E+05  6.982753E+04 -5.154444E+03 -3.612625E+02  5.494424E+04
       284   9  1.692384E+04  9.970431E+05  5.137056E+04 -6.141988E+02 -1.702163E+02  2.791818E+04
       284  10  6.985997E+04  8.313645E+05  9.747243E+04 -4.736309E+02  4.779590E-10 -4.193864E-11
       284  11 -4.242358E+04  8.122902E+05  2.845797E+04 -5.457931E+03 -1.301986E-09  3.955661E-11
       284  12 -2.409432E+04  8.328468E+05  1.036300E+04  1.203478E+03  1.834038E-09 -5.041090E-11
       284  13  9.070816E+04  9.149065E+05  1.183327E+05  7.385264E+02  2.493365E-09 -1.627527E-10
       284  14 -2.174084E+04  8.951102E+05  4.914018E+04 -5.306192E+03 -5.047852E-09  4.289894E-10
       284  15 -3.585092E+03  9.149415E+05  3.086631E+04  2.946996E+02  2.378645E-10  6.047074E-12
       284  16  1.115558E+05  9.984548E+05  1.391924E+05  1.950854E+03 -4.642310E-10  8.930883E-11
       284  17 -1.058626E+03  9.779365E+05  6.982187E+04 -5.154428E+03 -9.153805E-10  1.220830E-10
       284  18  1.692363E+04  9.970423E+05  5.136910E+04 -6.141949E+02  1.982927E-10  2.147035E-11
       284  19  6.986177E+04  8.313717E+05  9.748503E+04 -4.736606E+02  4.499784E+02 -8.195069E+04
       284  20 -4.242277E+04  8.122934E+05  2.846363E+04 -5.457947E+03  3.613023E+02 -5.493603E+04
       284  21 -2.409411E+04  8.328476E+05  1.036447E+04  1.203474E+03  1.701594E+02 -2.792121E+04
       284  22  9.070996E+04  9.149137E+05  1.183453E+05  7.384967E+02  4.498252E+02 -8.196044E+04
       284  23 -2.174003E+04  8.951134E+05  4.914584E+04 -5.306208E+03  3.612824E+02 -5.494014E+04
       284  24 -3.584883E+03  9.149423E+05  3.086777E+04  2.946957E+02  1.701878E+02 -2.791969E+04
       284  25  1.115576E+05  9.984620E+05  1.392050E+05  1.950824E+03  4.496720E+02 -8.197019E+04
       284  26 -1.057817E+03  9.779397E+05  6.982753E+04 -5.154444E+03  3.612625E+02 -5.494424E+04
       284  27  1.692384E+04  9.970431E+05  5.137056E+04 -6.141988E+02  1.702163E+02 -2.791818E+04
       285   1  1.397535E+04  9.056788E+05  2.390971E+04 -2.279591E+03 -8.229345E+01  2.288089E+04
       285   2 -2.285109E+03  9.039401E+05  7.267611E+03 -2.247895E+03 -3.808357E+01  1.889328E+04
       285   3 -6.625613E+03  9.057001E+05 -3.800742E+03 -2.126581E+03 -4.738437E+01  1.490555E+04
       285   4  1.428103E+04  9.069073E+05  2.421589E+04 -2.105258E+03 -8.228348E+01  2.287944E+04
       285   5 -1.979897E+03  9.051639E+05  7.573263E+03 -2.174707E+03 -3.808089E+01  1.889311E+04
       285   6 -6.321107E+03  9.069188E+05 -3.496514E+03 -2.154536E+03 -4.738763E+01  1.490667E+04
       285   7  1.458671E+04  9.081358E+05  2.452207E+04 -1.930925E+03 -8.227352E+01  2.287800E+04
       285   8 -1.674686E+03  9.063876E+05  7.878915E+03 -2.101518E+03 -3.807820E+01  1.889294E+04
       285   9 -6.016601E+03  9.081376E+05 -3.192287E+03 -2.182491E+03 -4.739088E+01  1.490778E+04
       285  10  1.397521E+04  9.056782E+05  2.390872E+04 -2.279589E+03 -8.817684E-10  2.888270E-11
       285  11 -2.285205E+03  9.039397E+05  7.266941E+03 -2.247895E+03  2.612939E-10 -1.682930E-10
       285  12 -6.625673E+03  9.056998E+05 -3.801159E+03 -2.126580E+03  5.195375E-10  1.577229E-10
       285  13  1.428089E+04  9.069067E+05  2.421490E+04 -2.105257E+03  4.480473E-11 -5.752799E-11
       285  14 -1.979993E+03  9.051635E+05  7.572593E+03 -2.174706E+03  2.126532E-09 -2.418995E-10
       285  15 -6.321167E+03  9.069186E+05 -3.496931E+03 -2.154535E+03  1.984531E-09 -2.535023E-10
       285  16  1.458657E+04  9.081353E+05  2.452109E+04 -1.930924E+03  4.485539E-10 -1.838019E-11
       285  17 -1.674782E+03  9.063872E+05  7.878245E+03 -2.101517E+03 -8.489861E-10  1.079038E-10
       285  18 -6.016660E+03  9.081373E+05 -3.192704E+03 -2.182490E+03  9.215327E-11 -3.921697E-11
       285  19  1.397535E+04  9.056788E+05  2.390971E+04 -2.279591E+03  8.229345E+01 -2.288089E+04
       285  20 -2.285109E+03  9.039401E+05  7.267611E+03 -2.247895E+03  3.808357E+01 -1.889328E+04
       285  21 -6.625613E+03  9.057001E+05 -3.800742E+03 -2.126581E+03  4.738437E+01 -1.490555E+04
       285  22  1.428103E+04  9.069073E+05  2.421589E+04 -2.105258E+03  8.228348E+01 -2.287944E+04
       285  23 -1.979897E+03  9.051639E+05  7.573263E+03 -2.174707E+03  3.808089E+01 -1.889311E+04
       285  24 -6.321107E+03  9.069188E+05 -3.496514E+03 -2.154536E+03  4.738763E+01 -1.490667E+04
       285  25  1.458671E+04  9.081358E+05  2.452207E+04 -1.930925E+03  8.227352E+01 -2.287800E+04
       285  26 -1.674686E+03  9.063876E+05  7.878915E+03 -2.101518E+03  3.807820E+01 -1.889294E+04
       285  27 -6.016601E+03  9.081376E+05 -3.192287E+03 -2.182491E+03  4.739088E+01 -1.490778E+04
       286   1 -5.896967E+03  8.659438E+05 -1.682476E+04 -2.900462E+03 -8.237410E+01  1.590703E+04
       286   2 -8.679479E+02  8.723334E+05 -2.761146E+04 -8.779447E+02 -1.153809E+02  2.595952E+04
       286   3 -4.689074E+04  8.653269E+05 -5.756479E+04 -3.874029E+03 -7.191888E+01  3.601202E+04
       286   4  3.399021E+03  9.031578E+05 -7.530717E+03 -3.245072E+03 -8.238524E+01  1.590887E+04
       286   5  8.505126E+03  9.098660E+05 -1.823867E+04 -7.636598E+02 -1.153748E+02  2.596004E+04
       286   6 -3.743870E+04  9.031794E+05 -4.811151E+04 -3.300840E+03 -7.188246E+01  3.601124E+04
       286   7  1.269491E+04  9.403730E+05  1.763224E+03 -3.589703E+03 -8.239637E+01  1.591070E+04
       286   8  1.787809E+04  9.474000E+05 -8.865982E+03 -6.493674E+02 -1.153686E+02  2.596057E+04
       286   9 -2.798678E+04  9.410331E+05 -3.865834E+04 -2.727615E+03 -7.184604E+01  3.601047E+04
       286  10 -5.897035E+03  8.659436E+05 -1.682524E+04 -2.900461E+03  3.198527E-09 -1.699481E-11
       286  11 -8.681285E+02  8.723327E+05 -2.761272E+04 -8.779423E+02  2.524442E-09 -1.758276E-10
       286  12 -4.689108E+04  8.653255E+05 -5.756723E+04 -3.874027E+03  1.103966E-09 -4.830262E-11
       286  13  3.398953E+03  9.031575E+05 -7.531192E+03 -3.245071E+03 -1.484996E-09  1.302262E-10
       286  14  8.504945E+03  9.098653E+05 -1.823993E+04 -7.636574E+02  3.075113E-10 -1.564243E-10
       286  15 -3.743905E+04  9.031780E+05 -4.811395E+04 -3.300838E+03 -4.957390E-10  1.074902E-10
       286  16  1.269484E+04  9.403727E+05  1.762749E+03 -3.589702E+03 -1.107911E-09 -1.366705E-10
       286  17  1.787791E+04  9.473992E+05 -8.867246E+03 -6.493650E+02 -5.011408E-10  1.043488E-11
       286  18 -2.798713E+04  9.410317E+05 -3.866078E+04 -2.727613E+03 -4.558844E-10  1.170468E-10
       286  19 -5.896967E+03  8.659438E+05 -1.682476E+04 -2.900462E+03  8.237410E+01 -1.590703E+04
       286  20 -8.679479E+02  8.723334E+05 -2.761146E+04 -8.779447E+02  1.153809E+02 -2.595952E+04
       286  21 -4.689074E+04  8.653269E+05 -5.756479E+04 -3.874029E+03  7.191888E+01 -3.601202E+04
       286  22  3.399021E+03  9.031578E+05 -7.530717E+03 -3.245072E+03  8.238524E+01 -1.590887E+04
       286  23  8.505126E+03  9.098660E+05 -1.823867E+04 -7.636598E+02  1.153748E+02 -2.596004E+04
       286  24 -3.743870E+04  9.031794E+05 -4.811151E+04 -3.300840E+03  7.188246E+01 -3.601124E+04
       286  25  1.269491E+04  9.403730E+05  1.763224E+03 -3.589703E+03  8.239637E+01 -1.591070E+04
       286  26  1.787809E+04  9.474000E+05 -8.865982E+03 -6.493674E+02  1.153686E+02 -2.596057E+04
       286  27 -2.798678E+04  9.410331E+05 -3.865834E+04 -2.727615E+03  7.184604E+01 -3.601047E+04
       287   1 -8.844634E+05 -2.777028E+05 -2.592280E+05 -2.483123E+05 -1.842993E+05 -7.044846E+04
       287   2 -7.945901E+05 -5.079183E+04 -8.761008E+04 -3.500211E+05 -1.183858E+05 -4.568059E+04
       287   3 -8.682175E+05 -8.889052E+04 -4.871737E+04 -3.174382E+05 -5.274598E+04 -2.020225E+04
       287   4 -1.002259E+06 -3.193837E+05 -2.911536E+05 -2.774757E+05 -1.842884E+05 -7.044555E+04
       287   5 -9.068206E+05 -9.304239E+04 -1.185308E+05 -3.803815E+05 -1.183713E+05 -4.567521E+04
       287   6 -9.749065E+05 -1.317458E+05 -7.865624E+04 -3.489892E+05 -5.272715E+04 -2.019480E+04
       287   7 -1.120041E+06 -3.610643E+05 -3.230803E+05 -3.066343E+05 -1.842776E+05 -7.044264E+04
       287   8 -1.019039E+06 -1.352923E+05 -1.494527E+05 -4.107370E+05 -1.183568E+05 -4.566983E+04
       287   9 -1.081585E+06 -1.746001E+05 -1.085962E+05 -3.805353E+05 -5.270833E+04 -2.018735E+04
       287  10 -8.845012E+05 -2.777173E+05 -2.593013E+05 -2.483228E+05  6.310334E-10 -4.827520E-10
       287  11 -7.946057E+05 -5.079785E+04 -8.764039E+04 -3.500255E+05 -6.042156E-09 -2.690537E-09
       287  12 -8.682206E+05 -8.889171E+04 -4.872338E+04 -3.174391E+05  2.245163E-12  2.624721E-10
       287  13 -1.002297E+06 -3.193982E+05 -2.912268E+05 -2.774862E+05  1.325851E-10 -1.128681E-09
       287  14 -9.068363E+05 -9.304841E+04 -1.185611E+05 -3.803858E+05  1.218764E-09 -1.971402E-09
       287  15 -9.749096E+05 -1.317470E+05 -7.866224E+04 -3.489901E+05 -1.597688E-09 -1.116934E-09
       287  16 -1.120079E+06 -3.610788E+05 -3.231536E+05 -3.066448E+05  1.723918E-10 -1.189905E-09
       287  17 -1.019055E+06 -1.352983E+05 -1.494830E+05 -4.107413E+05  3.271049E-09 -3.552835E-09
       287  18 -1.081588E+06 -1.746013E+05 -1.086022E+05 -3.805361E+05  2.433255E-09  3.110403E-10
       287  19 -8.844634E+05 -2.777028E+05 -2.592280E+05 -2.483123E+05  1.842993E+05  7.044846E+04
       287  20 -7.945901E+05 -5.079183E+04 -8.761008E+04 -3.500211E+05  1.183858E+05  4.568059E+04
       287  21 -8.682175E+05 -8.889052E+04 -4.871737E+04 -3.174382E+05  5.274598E+04  2.020225E+04
       287  22 -1.002259E+06 -3.193837E+05 -2.911536E+05 -2.774757E+05  1.842884E+05  7.044555E+04
       287  23 -9.068206E+05 -9.304239E+04 -1.185308E+05 -3.803815E+05  1.183713E+05  4.567521E+04
       287  24 -9.749065E+05 -1.317458E+05 -7.865624E+04 -3.489892E+05  5.272715E+04  2.019480E+04
       287  25 -1.120041E+06 -3.610643E+05 -3.230803E+05 -3.066343E+05  1.842776E+05  7.044264E+04
       287  26 -1.019039E+06 -1.352923E+05 -1.494527E+05 -4.107370E+05  1.183568E+05  4.566983E+04
       287  27 -1.081585E+06 -1.746001E+05 -1.085962E+05 -3.805353E+05  5.270833E+04  2.018735E+04
       288   1 -1.560625E+06 -4.089076E+05 -2.326718E+05 -5.204436E+05 -4.464939E+04 -1.622163E+04
       288   2 -1.703624E+06 -3.856941E+05 -2.313467E+05 -5.587506E+05 -2.704956E+04 -8.519040E+03
       288   3 -1.562583E+06 -3.809468E+05 -1.895883E+05 -5.163228E+05 -8.789250E+03 -2.618436E+03
       288   4 -8.861209E+05 -1.499125E+05 -4.574517E+04 -3.329991E+05 -4.464689E+04 -1.622082E+04
       288   5 -1.027002E+06 -1.318411E+05 -4.501014E+04 -3.768316E+05 -2.706848E+04 -8.526175E+03
       288   6 -8.836209E+05 -1.320393E+05 -3.788110E+03 -3.399155E+05 -8.829838E+03 -2.633056E+03
       288   7 -2.111813E+05  1.091110E+05  1.411392E+05 -1.453707E+05 -4.464435E+04 -1.622000E+04
       288   8 -3.499431E+05  1.220358E+05  1.412845E+05 -1.947348E+05 -2.708740E+04 -8.533312E+03
       288   9 -2.042198E+05  1.168879E+05  1.819704E+05 -1.633366E+05 -8.870471E+03 -2.647692E+03
       288  10 -1.560627E+06 -4.089084E+05 -2.326760E+05 -5.204442E+05 -3.329768E-09  5.695929E-11
       288  11 -1.703625E+06 -3.856943E+05 -2.313482E+05 -5.587508E+05  1.866689E-09 -1.076513E-10
       288  12 -1.562583E+06 -3.809469E+05 -1.895885E+05 -5.163228E+05  6.576211E-11 -6.357598E-10
       288  13 -8.861231E+05 -1.499134E+05 -4.574942E+04 -3.329997E+05 -1.176331E-10 -7.085796E-10
       288  14 -1.027003E+06 -1.318414E+05 -4.501166E+04 -3.768318E+05  2.648106E-09  1.202816E-10
       288  15 -8.836209E+05 -1.320393E+05 -3.788269E+03 -3.399156E+05  1.415534E-09 -5.830638E-10
       288  16 -2.111835E+05  1.091102E+05  1.411349E+05 -1.453713E+05 -1.008911E-09 -3.008761E-09
       288  17 -3.499439E+05  1.220355E+05  1.412829E+05 -1.947350E+05 -3.644210E-10 -3.870179E-10
       288  18 -2.042199E+05  1.168878E+05  1.819702E+05 -1.633366E+05  4.038123E-09 -1.193351E-09
       288  19 -1.560625E+06 -4.089076E+05 -2.326718E+05 -5.204436E+05  4.464939E+04  1.622163E+04
       288  20 -1.703624E+06 -3.856941E+05 -2.313467E+05 -5.587506E+05  2.704956E+04  8.519040E+03
       288  21 -1.562583E+06 -3.809468E+05 -1.895883E+05 -5.163228E+05  8.789250E+03  2.618436E+03
       288  22 -8.861209E+05 -1.499125E+05 -4.574517E+04 -3.329991E+05  4.464689E+04  1.622082E+04
       288  23 -1.027002E+06 -1.318411E+05 -4.501014E+04 -3.768316E+05  2.706848E+04  8.526175E+03
       288  24 -8.836209E+05 -1.320393E+05 -3.788110E+03 -3.399155E+05  8.829838E+03  2.633056E+03
       288  25 -2.111813E+05  1.091110E+05  1.411392E+05 -1.453707E+05  4.464435E+04  1.622000E+04
       288  26 -3.499431E+05  1.220358E+05  1.412845E+05 -1.947348E+05  2.708740E+04  8.533312E+03
       288  27 -2.042198E+05  1.168879E+05  1.819704E+05 -1.633366E+05  8.870471E+03  2.647692E+03
       289   1 -7.350409E+04  1.658284E+05  2.221921E+05 -1.227677E+05 -1.336723E+04 -5.530494E+03
       289   2 -2.699912E+05  1.471392E+05  1.861514E+05 -1.769827E+05 -5.541317E+03 -3.836735E+03
       289   3 -8.062363E+04  1.885803E+05  2.340438E+05 -1.140723E+05  1.576637E+03 -2.467552E+02
       289   4 -8.624482E+05 -1.237217E+05  6.405163E+03 -3.283709E+05 -1.339791E+04 -5.541624E+03
       289   5 -1.054335E+06 -1.480635E+05 -2.987487E+04 -3.890803E+05 -5.538311E+03 -3.835767E+03
       289   6 -8.606844E+05 -1.125326E+05  1.772348E+04 -3.326926E+05  1.612979E+03 -2.327815E+02
       289   7 -1.650801E+06 -4.132447E+05 -2.094380E+05 -5.337419E+05 -1.342854E+04 -5.552736E+03
       289   8 -1.838092E+06 -4.432329E+05 -2.459576E+05 -6.009379E+05 -5.535303E+03 -3.834800E+03
       289   9 -1.640163E+06 -4.136059E+05 -1.986533E+05 -5.510649E+05  1.649270E+03 -2.188280E+02
       289  10 -7.350429E+04  1.658283E+05  2.221917E+05 -1.227677E+05 -4.573642E-09  3.160152E-09
       289  11 -2.699912E+05  1.471392E+05  1.861513E+05 -1.769828E+05  7.705622E-11 -1.196936E-09
       289  12 -8.062364E+04  1.885803E+05  2.340438E+05 -1.140723E+05 -2.288029E-09  5.019431E-10
       289  13 -8.624484E+05 -1.237217E+05  6.404768E+03 -3.283710E+05 -3.665085E-10 -4.279073E-10
       289  14 -1.054335E+06 -1.480635E+05 -2.987495E+04 -3.890804E+05 -1.053544E-09  5.707895E-11
       289  15 -8.606844E+05 -1.125326E+05  1.772347E+04 -3.326926E+05  2.382922E-10  2.932524E-10
       289  16 -1.650801E+06 -4.132448E+05 -2.094384E+05 -5.337419E+05  1.664872E-09  1.021161E-09
       289  17 -1.838092E+06 -4.432330E+05 -2.459576E+05 -6.009379E+05  9.369203E-10 -9.607488E-10
       289  18 -1.640163E+06 -4.136059E+05 -1.986533E+05 -5.510649E+05  6.165617E-09 -1.418630E-09
       289  19 -7.350409E+04  1.658284E+05  2.221921E+05 -1.227677E+05  1.336723E+04  5.530494E+03
       289  20 -2.699912E+05  1.471392E+05  1.861514E+05 -1.769827E+05  5.541317E+03  3.836735E+03
       289  21 -8.062363E+04  1.885803E+05  2.340438E+05 -1.140723E+05 -1.576637E+03  2.467552E+02
       289  22 -8.624482E+05 -1.237217E+05  6.405163E+03 -3.283709E+05  1.339791E+04  5.541624E+03
       289  23 -1.054335E+06 -1.480635E+05 -2.987487E+04 -3.890803E+05  5.538311E+03  3.835767E+03
       289  24 -8.606844E+05 -1.125326E+05  1.772348E+04 -3.326926E+05 -1.612979E+03  2.327815E+02
       289  25 -1.650801E+06 -4.132447E+05 -2.094380E+05 -5.337419E+05  1.342854E+04  5.552736E+03
       289  26 -1.838092E+06 -4.432329E+05 -2.459576E+05 -6.009379E+05  5.535303E+03  3.834800E+03
       289  27 -1.640163E+06 -4.136059E+05 -1.986533E+05 -5.510649E+05 -1.649270E+03  2.188280E+02
       290   1 -1.296270E+06 -2.713050E+05 -1.010515E+05 -4.346905E+05 -3.259733E+03 -1.121207E+03
       290   2 -1.314274E+06 -2.818279E+05 -1.051625E+05 -4.764477E+05 -1.558602E+03  2.179423E+02
       290   3 -1.303716E+06 -2.601845E+05 -9.847795E+04 -4.378304E+05  4.531958E+02  7.511939E+02
       290   4 -9.423052E+05 -1.339574E+05 -2.679853E+03 -3.348831E+05 -3.238888E+03 -1.113112E+03
       290   5 -9.557058E+05 -1.445460E+05 -5.887352E+03 -3.771895E+05 -1.554736E+03  2.193888E+02
       290   6 -9.405041E+05 -1.229339E+05  1.720165E+03 -3.391219E+05  4.400134E+02  7.462067E+02
       290   7 -5.882204E+05  3.398619E+03  9.568016E+04 -2.350242E+05 -3.218030E+03 -1.105011E+03
       290   8 -5.970142E+05 -7.256249E+03  9.337586E+04 -2.778796E+05 -1.550867E+03  2.208363E+02
       290   9 -5.771658E+05  1.432397E+04  1.019061E+05 -2.403617E+05  4.268224E+02  7.412162E+02
       290  10 -1.296270E+06 -2.713050E+05 -1.010516E+05 -4.346905E+05 -8.428446E-10  1.109331E-09
       290  11 -1.314274E+06 -2.818279E+05 -1.051625E+05 -4.764477E+05 -3.109318E-10 -7.766673E-10
       290  12 -1.303716E+06 -2.601845E+05 -9.847795E+04 -4.378304E+05  1.096993E-10  1.828535E-09
       290  13 -9.423052E+05 -1.339574E+05 -2.679875E+03 -3.348831E+05  3.065920E-10 -1.202778E-09
       290  14 -9.557058E+05 -1.445460E+05 -5.887357E+03 -3.771895E+05  7.859300E-09 -2.615631E-09
       290  15 -9.405041E+05 -1.229339E+05  1.720164E+03 -3.391219E+05  1.365212E-10  8.451913E-10
       290  16 -5.882204E+05  3.398614E+03  9.568014E+04 -2.350242E+05  3.774066E-09 -4.072297E-09
       290  17 -5.970142E+05 -7.256250E+03  9.337585E+04 -2.778796E+05 -4.162139E-10 -8.678368E-10
       290  18 -5.771658E+05  1.432397E+04  1.019061E+05 -2.403617E+05 -1.773605E-09  8.734328E-10
       290  19 -1.296270E+06 -2.713050E+05 -1.010515E+05 -4.346905E+05  3.259733E+03  1.121207E+03
       290  20 -1.314274E+06 -2.818279E+05 -1.051625E+05 -4.764477E+05  1.558602E+03 -2.179423E+02
       290  21 -1.303716E+06 -2.601845E+05 -9.847795E+04 -4.378304E+05 -4.531958E+02 -7.511939E+02
       290  22 -9.423052E+05 -1.339574E+05 -2.679853E+03 -3.348831E+05  3.238888E+03  1.113112E+03
       290  23 -9.557058E+05 -1.445460E+05 -5.887352E+03 -3.771895E+05  1.554736E+03 -2.193888E+02
       290  24 -9.405041E+05 -1.229339E+05  1.720165E+03 -3.391219E+05 -4.400134E+02 -7.462067E+02
       290  25 -5.882204E+05  3.398619E+03  9.568016E+04 -2.350242E+05  3.218030E+03  1.105011E+03
       290  26 -5.970142E+05 -7.256249E+03  9.337586E+04 -2.778796E+05  1.550867E+03 -2.208363E+02
       290  27 -5.771658E+05  1.432397E+04  1.019061E+05 -2.403617E+05 -4.268224E+02 -7.412162E+02
       291   1 -1.236457E+06 -2.602390E+05 -8.505764E+04 -4.450254E+05 -6.733615E+02  2.811607E+02
       291   2 -1.278732E+06 -2.345939E+05 -8.863351E+04 -4.306451E+05  9.527828E+02  1.038340E+03
       291   3 -1.232920E+06 -2.655895E+05 -8.709193E+04 -4.374022E+05  2.829389E+03  1.109489E+03
       291   4 -9.274878E+05 -1.436524E+05  1.407092E+02 -3.612267E+05 -6.629043E+02  2.850442E+02
       291   5 -9.722306E+05 -1.202717E+05 -4.382667E+03 -3.489053E+05  9.486772E+02  1.036806E+03
       291   6 -9.288613E+05 -1.535053E+05 -3.772300E+03 -3.577198E+05  2.810654E+03  1.102686E+03
       291   7 -6.184274E+05 -2.706067E+04  8.533028E+04 -2.773905E+05 -6.524412E+02  2.889299E+02
       291   8 -6.656395E+05 -5.944945E+03  7.985959E+04 -2.671294E+05  9.445691E+02  1.035271E+03
       291   9 -6.247149E+05 -4.141699E+04  7.953895E+04 -2.780026E+05  2.791909E+03  1.095880E+03
       291  10 -1.236457E+06 -2.602390E+05 -8.505765E+04 -4.450254E+05 -8.753891E-10 -1.057139E-09
       291  11 -1.278732E+06 -2.345939E+05 -8.863351E+04 -4.306451E+05  7.885115E-10 -1.286083E-10
       291  12 -1.232920E+06 -2.655895E+05 -8.709194E+04 -4.374022E+05  3.593466E-09 -3.130435E-09
       291  13 -9.274878E+05 -1.436524E+05  1.407082E+02 -3.612267E+05  1.315725E-09  1.165880E-09
       291  14 -9.722306E+05 -1.202718E+05 -4.382670E+03 -3.489053E+05  4.287689E-09 -2.457447E-09
       291  15 -9.288613E+05 -1.535053E+05 -3.772317E+03 -3.577198E+05  4.469255E-09 -3.322000E-10
       291  16 -6.184274E+05 -2.706067E+04  8.533028E+04 -2.773905E+05  1.131787E-09  3.393895E-09
       291  17 -6.656395E+05 -5.944947E+03  7.985959E+04 -2.671294E+05  2.644080E-09 -2.161282E-09
       291  18 -6.247149E+05 -4.141699E+04  7.953893E+04 -2.780026E+05  3.812850E-09  1.546732E-09
       291  19 -1.236457E+06 -2.602390E+05 -8.505764E+04 -4.450254E+05  6.733615E+02 -2.811607E+02
       291  20 -1.278732E+06 -2.345939E+05 -8.863351E+04 -4.306451E+05 -9.527828E+02 -1.038340E+03
       291  21 -1.232920E+06 -2.655895E+05 -8.709193E+04 -4.374022E+05 -2.829389E+03 -1.109489E+03
       291  22 -9.274878E+05 -1.436524E+05  1.407092E+02 -3.612267E+05  6.629043E+02 -2.850442E+02
       291  23 -9.722306E+05 -1.202717E+05 -4.382667E+03 -3.489053E+05 -9.486772E+02 -1.036806E+03
       291  24 -9.288613E+05 -1.535053E+05 -3.772300E+03 -3.577198E+05 -2.810654E+03 -1.102686E+03
       291  25 -6.184274E+05 -2.706067E+04  8.533028E+04 -2.773905E+05  6.524412E+02 -2.889299E+02
       291  26 -6.656395E+05 -5.944945E+03  7.985959E+04 -2.671294E+05 -9.445691E+02 -1.035271E+03
       291  27 -6.247149E+05 -4.141699E+04  7.953895E+04 -2.780026E+05 -2.791909E+03 -1.095880E+03
       292   1 -9.933730E+04  1.790737E+05  2.285940E+05 -1.228853E+05 -9.723610E+02 -1.204711E+03
       292   2 -2.769148E+05  1.355153E+05  1.827250E+05 -1.869978E+05  6.382236E+03  6.819260E+02
       292   3 -1.141232E+05  1.758924E+05  2.167057E+05 -1.071120E+05  1.303951E+04  4.411433E+03
       292   4 -8.708412E+05 -1.066623E+05  1.705978E+04 -3.267104E+05 -1.007762E+03 -1.217712E+03
       292   5 -1.041779E+06 -1.548593E+05 -2.843799E+04 -3.963972E+05  6.379974E+03  6.809227E+02
       292   6 -8.726465E+05 -1.193606E+05  5.861292E+03 -3.221096E+05  1.307007E+04  4.423310E+03
       292   7 -1.641779E+06 -3.923702E+05 -1.945285E+05 -5.303098E+05 -1.043114E+03 -1.230695E+03
       292   8 -1.806084E+06 -4.452001E+05 -2.396548E+05 -6.055648E+05  6.377711E+03  6.799188E+02
       292   9 -1.630619E+06 -4.145739E+05 -2.050368E+05 -5.368695E+05  1.310058E+04  4.435167E+03
       292  10 -9.933730E+04  1.790737E+05  2.285940E+05 -1.228853E+05  2.500823E-10 -1.004707E-09
       292  11 -2.769149E+05  1.355153E+05  1.827249E+05 -1.869978E+05 -1.349338E-09 -1.765116E-09
       292  12 -1.141234E+05  1.758924E+05  2.167054E+05 -1.071120E+05 -3.953387E-09 -5.346717E-09
       292  13 -8.708412E+05 -1.066623E+05  1.705978E+04 -3.267104E+05  5.507911E-09 -1.413032E-09
       292  14 -1.041779E+06 -1.548593E+05 -2.843806E+04 -3.963972E+05  6.174351E-10  2.246216E-10
       292  15 -8.726467E+05 -1.193606E+05  5.860933E+03 -3.221096E+05  3.049294E-09  4.678290E-10
       292  16 -1.641779E+06 -3.923702E+05 -1.945285E+05 -5.303098E+05 -1.033690E-09  1.147971E-09
       292  17 -1.806084E+06 -4.452001E+05 -2.396549E+05 -6.055648E+05 -2.053621E-09  5.723276E-10
       292  18 -1.630619E+06 -4.145740E+05 -2.050372E+05 -5.368696E+05  3.506438E-09 -1.310577E-09
       292  19 -9.933730E+04  1.790737E+05  2.285940E+05 -1.228853E+05  9.723610E+02  1.204711E+03
       292  20 -2.769148E+05  1.355153E+05  1.827250E+05 -1.869978E+05 -6.382236E+03 -6.819260E+02
       292  21 -1.141232E+05  1.758924E+05  2.167057E+05 -1.071120E+05 -1.303951E+04 -4.411433E+03
       292  22 -8.708412E+05 -1.066623E+05  1.705978E+04 -3.267104E+05  1.007762E+03  1.217712E+03
       292  23 -1.041779E+06 -1.548593E+05 -2.843799E+04 -3.963972E+05 -6.379974E+03 -6.809227E+02
       292  24 -8.726465E+05 -1.193606E+05  5.861292E+03 -3.221096E+05 -1.307007E+04 -4.423310E+03
       292  25 -1.641779E+06 -3.923702E+05 -1.945285E+05 -5.303098E+05  1.043114E+03  1.230695E+03
       292  26 -1.806084E+06 -4.452001E+05 -2.396548E+05 -6.055648E+05 -6.377711E+03 -6.799188E+02
       292  27 -1.630619E+06 -4.145739E+05 -2.050368E+05 -5.368695E+05 -1.310058E+04 -4.435167E+03
       293   1 -1.586918E+06 -3.913058E+05 -1.955941E+05 -5.243390E+05  7.420130E+03  3.499462E+03
       293   2 -1.726732E+06 -4.158341E+05 -2.402307E+05 -5.882315E+05  2.451139E+04  1.088907E+04
       293   3 -1.602223E+06 -4.005717E+05 -2.363277E+05 -5.083117E+05  4.231865E+04  1.641372E+04
       293   4 -8.879839E+05 -1.187541E+05 -1.058391E+03 -3.259756E+05  7.461210E+03  3.515509E+03
       293   5 -1.021389E+06 -1.473975E+05 -4.521721E+04 -3.946819E+05  2.452988E+04  1.089595E+04
       293   6 -8.902183E+05 -1.360347E+05 -4.078016E+04 -3.195626E+05  4.231440E+04  1.641201E+04
       293   7 -1.885807E+05  1.538317E+05  1.934316E+05 -1.274097E+05  7.502336E+03  3.531574E+03
       293   8 -3.155702E+05  1.210682E+05  1.497503E+05 -2.009344E+05  2.454837E+04  1.090284E+04
       293   9 -1.777303E+05  1.285267E+05  1.547212E+05 -1.306202E+05  4.231011E+04  1.641028E+04
       293  10 -1.586918E+06 -3.913058E+05 -1.955943E+05 -5.243390E+05  1.153254E-09 -4.229894E-09
       293  11 -1.726733E+06 -4.158344E+05 -2.402320E+05 -5.882317E+05 -5.660784E-09 -1.728058E-09
       293  12 -1.602225E+06 -4.005724E+05 -2.363316E+05 -5.083122E+05  4.301478E-09 -2.377923E-09
       293  13 -8.879840E+05 -1.187541E+05 -1.058519E+03 -3.259756E+05 -7.144674E-09 -9.365460E-10
       293  14 -1.021390E+06 -1.473978E+05 -4.521857E+04 -3.946821E+05 -6.334776E-09 -4.195139E-11
       293  15 -8.902203E+05 -1.360354E+05 -4.078403E+04 -3.195632E+05 -1.851059E-09 -2.435907E-10
       293  16 -1.885808E+05  1.538316E+05  1.934315E+05 -1.274097E+05  7.274610E-09  3.584440E-09
       293  17 -3.155708E+05  1.210679E+05  1.497490E+05 -2.009347E+05  2.192470E-09  2.766226E-09
       293  18 -1.777323E+05  1.285259E+05  1.547173E+05 -1.306208E+05 -2.356772E-09 -3.374165E-10
       293  19 -1.586918E+06 -3.913058E+05 -1.955941E+05 -5.243390E+05 -7.420130E+03 -3.499462E+03
       293  20 -1.726732E+06 -4.158341E+05 -2.402307E+05 -5.882315E+05 -2.451139E+04 -1.088907E+04
       293  21 -1.602223E+06 -4.005717E+05 -2.363277E+05 -5.083117E+05 -4.231865E+04 -1.641372E+04
       293  22 -8.879839E+05 -1.187541E+05 -1.058391E+03 -3.259756E+05 -7.461210E+03 -3.515509E+03
       293  23 -1.021389E+06 -1.473975E+05 -4.521721E+04 -3.946819E+05 -2.452988E+04 -1.089595E+04
       293  24 -8.902183E+05 -1.360347E+05 -4.078016E+04 -3.195626E+05 -4.231440E+04 -1.641201E+04
       293  25 -1.885807E+05  1.538317E+05  1.934316E+05 -1.274097E+05 -7.502336E+03 -3.531574E+03
       293  26 -3.155702E+05  1.210682E+05  1.497503E+05 -2.009344E+05 -2.454837E+04 -1.090284E+04
       293  27 -1.777303E+05  1.285267E+05  1.547212E+05 -1.306202E+05 -4.231011E+04 -1.641028E+04
       294   1 -7.829833E+05 -8.994415E+04 -2.790487E+04 -3.263227E+05  4.999476E+04  1.828997E+04
       294   2 -7.643269E+05 -7.463860E+03 -6.550593E+04 -3.066478E+05  1.127034E+05  4.100055E+04
       294   3 -8.040687E+05 -2.599163E+05 -2.263084E+05 -2.543893E+05  1.750670E+05  6.465969E+04
       294   4 -9.526511E+05 -1.511963E+05 -7.413174E+04 -3.694347E+05  4.997042E+04  1.828126E+04
       294   5 -9.355840E+05 -7.197776E+04 -1.126965E+05 -3.530110E+05  1.126837E+05  4.099317E+04
       294   6 -9.769482E+05 -3.277457E+05 -2.744942E+05 -3.039967E+05  1.750518E+05  6.465298E+04
       294   7 -1.122291E+06 -2.124474E+05 -1.203612E+05 -4.125364E+05  4.994609E+04  1.827257E+04
       294   8 -1.106813E+06 -1.364900E+05 -1.598897E+05 -3.993626E+05  1.126641E+05  4.098579E+04
       294   9 -1.149799E+06 -3.955727E+05 -3.226828E+05 -3.535914E+05  1.750367E+05  6.464627E+04
       294  10 -7.829861E+05 -8.994518E+04 -2.791020E+04 -3.263234E+05  9.735358E-09 -4.684095E-09
       294  11 -7.643410E+05 -7.469083E+03 -6.553300E+04 -3.066515E+05  2.891704E-09 -4.233229E-09
       294  12 -8.041028E+05 -2.599290E+05 -2.263739E+05 -2.543984E+05  2.012309E-09  1.452421E-10
       294  13 -9.526539E+05 -1.511973E+05 -7.413707E+04 -3.694355E+05 -3.722460E-09 -2.379489E-09
       294  14 -9.355981E+05 -7.198298E+04 -1.127235E+05 -3.530147E+05 -1.103544E-09  3.842715E-10
       294  15 -9.769823E+05 -3.277584E+05 -2.745597E+05 -3.040058E+05  3.732327E-10 -9.524657E-10
       294  16 -1.122294E+06 -2.124485E+05 -1.203665E+05 -4.125372E+05 -5.133558E-09 -1.629603E-10
       294  17 -1.106827E+06 -1.364952E+05 -1.599167E+05 -3.993664E+05  2.342045E-09 -1.508347E-09
       294  18 -1.149833E+06 -3.955854E+05 -3.227484E+05 -3.536005E+05  1.385011E-09 -2.489766E-10
       294  19 -7.829833E+05 -8.994415E+04 -2.790487E+04 -3.263227E+05 -4.999476E+04 -1.828997E+04
       294  20 -7.643269E+05 -7.463860E+03 -6.550593E+04 -3.066478E+05 -1.127034E+05 -4.100055E+04
       294  21 -8.040687E+05 -2.599163E+05 -2.263084E+05 -2.543893E+05 -1.750670E+05 -6.465969E+04
       294  22 -9.526511E+05 -1.511963E+05 -7.413174E+04 -3.694347E+05 -4.997042E+04 -1.828126E+04
       294  23 -9.355840E+05 -7.197776E+04 -1.126965E+05 -3.530110E+05 -1.126837E+05 -4.099317E+04
       294  24 -9.769482E+05 -3.277457E+05 -2.744942E+05 -3.039967E+05 -1.750518E+05 -6.465298E+04
       294  25 -1.122291E+06 -2.124474E+05 -1.203612E+05 -4.125364E+05 -4.994609E+04 -1.827257E+04
       294  26 -1.106813E+06 -1.364900E+05 -1.598897E+05 -3.993626E+05 -1.126641E+05 -4.098579E+04
       294  27 -1.149799E+06 -3.955727E+05 -3.226828E+05 -3.535914E+05 -1.750367E+05 -6.464627E+04
       295   1 -6.768758E+04  5.782831E+04  9.144938E+04 -2.694086E+03  9.756551E+04  8.761498E+02
       295   2 -1.007278E+05 -8.023010E+04  6.607862E+03  2.023139E+03  6.437066E+04  7.055346E+02
       295   3 -6.643931E+04 -5.557546E+04 -1.147059E+04 -3.716176E+03  3.117796E+04  3.413622E+02
       295   4  1.454609E+05  1.110879E+05  1.447248E+05 -3.318430E+03  9.759273E+04  8.760644E+02
       295   5  1.117909E+05 -2.710179E+04  5.973016E+04  2.330111E+03  6.438325E+04  7.055389E+02
       295   6  1.454417E+05 -2.601985E+03  4.149390E+04 -2.477662E+03  3.117595E+04  3.413969E+02
       295   7  3.586505E+05  1.643440E+05  1.979969E+05 -3.943065E+03  9.761996E+04  8.759789E+02
       295   8  3.243506E+05  2.602311E+04  1.128490E+05  2.637138E+03  6.439585E+04  7.055432E+02
       295   9  3.573634E+05  5.036811E+04  9.445500E+04 -1.238747E+03  3.117395E+04  3.414316E+02
       295  10 -6.769781E+04  5.782575E+04  9.143149E+04 -2.694155E+03  1.052501E-09 -9.752607E-10
       295  11 -1.007322E+05 -8.023121E+04  6.600074E+03  2.023102E+03 -2.357930E-10 -3.348360E-09
       295  12 -6.644036E+04 -5.557572E+04 -1.147242E+04 -3.716184E+03  3.482222E-10  3.161687E-09
       295  13  1.454507E+05  1.110853E+05  1.447069E+05 -3.318498E+03 -5.407665E-10 -2.662331E-09
       295  14  1.117865E+05 -2.710290E+04  5.972237E+04  2.330074E+03 -4.909037E-10 -1.673755E-09
       295  15  1.454406E+05 -2.602246E+03  4.149207E+04 -2.477670E+03 -3.006589E-10 -1.031912E-09
       295  16  3.586403E+05  1.643414E+05  1.979790E+05 -3.943134E+03  2.166321E-09  2.877689E-09
       295  17  3.243461E+05  2.602200E+04  1.128413E+05  2.637102E+03 -5.353806E-10 -1.562365E-09
       295  18  3.573623E+05  5.036784E+04  9.445318E+04 -1.238755E+03 -1.405089E-09 -4.743029E-09
       295  19 -6.768758E+04  5.782831E+04  9.144938E+04 -2.694086E+03 -9.756551E+04 -8.761498E+02
       295  20 -1.007278E+05 -8.023010E+04  6.607862E+03  2.023139E+03 -6.437066E+04 -7.055346E+02
       295  21 -6.643931E+04 -5.557546E+04 -1.147059E+04 -3.716176E+03 -3.117796E+04 -3.413622E+02
       295  22  1.454609E+05  1.110879E+05  1.447248E+05 -3.318430E+03 -9.759273E+04 -8.760644E+02
       295  23  1.117909E+05 -2.710179E+04  5.973016E+04  2.330111E+03 -6.438325E+04 -7.055389E+02
       295  24  1.454417E+05 -2.601985E+03  4.149390E+04 -2.477662E+03 -3.117595E+04 -3.413969E+02
       295  25  3.586505E+05  1.643440E+05  1.979969E+05 -3.943065E+03 -9.761996E+04 -8.759789E+02
       295  26  3.243506E+05  2.602311E+04  1.128490E+05  2.637138E+03 -6.439585E+04 -7.055432E+02
       295  27  3.573634E+05  5.036811E+04  9.445500E+04 -1.238747E+03 -3.117395E+04 -3.414316E+02
       296   1  4.931560E+04 -4.256699E+03  1.253121E+04 -1.043389E+03  2.419596E+04  1.863903E+02
       296   2  4.425236E+04 -2.488683E+04 -5.134812E+03  6.756229E+02  1.589134E+04  1.303796E+02
       296   3  4.977936E+04 -2.112572E+04 -1.061388E+04 -1.291424E+03  7.586592E+03  9.420032E+01
       296   4  1.328500E+05  1.662362E+04  3.340988E+04 -1.235332E+03  2.419683E+04  1.863797E+02
       296   5  1.275544E+05 -4.063583E+03  1.568665E+04  6.165502E+02  1.589171E+04  1.303770E+02
       296   6  1.328485E+05 -3.610263E+02  1.014967E+04 -1.217596E+03  7.586461E+03  9.420128E+01
       296   7  2.163907E+05  3.750341E+04  5.428803E+04 -1.427303E+03  2.419770E+04  1.863692E+02
       296   8  2.108627E+05  1.675914E+04  3.650758E+04  5.574695E+02  1.589208E+04  1.303743E+02
       296   9  2.159239E+05  2.040315E+04  3.091269E+04 -1.143757E+03  7.586329E+03  9.420223E+01
       296  10  4.931497E+04 -4.256856E+03  1.253011E+04 -1.043393E+03 -1.066026E-10 -6.346489E-10
       296  11  4.425209E+04 -2.488689E+04 -5.135287E+03  6.756213E+02 -5.472465E-10 -4.346250E-09
       296  12  4.977930E+04 -2.112573E+04 -1.061399E+04 -1.291425E+03  5.334515E-09  2.197383E-08
       296  13  1.328493E+05  1.662346E+04  3.340878E+04 -1.235336E+03 -2.449504E-11 -2.635187E-11
       296  14  1.275541E+05 -4.063651E+03  1.568617E+04  6.165485E+02  5.727060E-10  1.144029E-10
       296  15  1.328484E+05 -3.610417E+02  1.014956E+04 -1.217597E+03 -3.382183E-10  2.618058E-10
       296  16  2.163900E+05  3.750326E+04  5.428693E+04 -1.427306E+03  2.770482E-10  9.813230E-10
       296  17  2.108625E+05  1.675907E+04  3.650711E+04  5.574678E+02  4.142871E-10  4.703912E-09
       296  18  2.159238E+05  2.040313E+04  3.091258E+04 -1.143757E+03 -4.690677E-09 -2.080622E-08
       296  19  4.931560E+04 -4.256699E+03  1.253121E+04 -1.043389E+03 -2.419596E+04 -1.863903E+02
       296  20  4.425236E+04 -2.488683E+04 -5.134812E+03  6.756229E+02 -1.589134E+04 -1.303796E+02
       296  21  4.977936E+04 -2.112572E+04 -1.061388E+04 -1.291424E+03 -7.586592E+03 -9.420032E+01
       296  22  1.328500E+05  1.662362E+04  3.340988E+04 -1.235332E+03 -2.419683E+04 -1.863797E+02
       296  23  1.275544E+05 -4.063583E+03  1.568665E+04  6.165502E+02 -1.589171E+04 -1.303770E+02
       296  24  1.328485E+05 -3.610263E+02  1.014967E+04 -1.217596E+03 -7.586461E+03 -9.420128E+01
       296  25  2.163907E+05  3.750341E+04  5.428803E+04 -1.427303E+03 -2.419770E+04 -1.863692E+02
       296  26  2.108627E+05  1.675914E+04  3.650758E+04  5.574695E+02 -1.589208E+04 -1.303743E+02
       296  27  2.159239E+05  2.040315E+04  3.091269E+04 -1.143757E+03 -7.586329E+03 -9.420223E+01
       297   1  9.922131E+04 -5.442027E+03  1.180809E+02 -6.562735E+02  5.911292E+03  7.100575E+01
       297   2  9.847224E+04 -8.500959E+03 -3.658711E+03  5.594796E+01  3.738437E+03  3.826289E+01
       297   3  9.940888E+04 -7.879468E+03 -5.004399E+03 -6.983142E+02  1.565618E+03  3.259083E+01
       297   4  1.308720E+05  2.469570E+03  8.028517E+03 -7.259232E+02  5.910314E+03  7.100655E+01
       297   5  1.300291E+05 -6.127363E+02  4.228829E+03  5.537613E+00  3.738011E+03  3.826348E+01
       297   6  1.308718E+05 -1.480754E+01  2.859780E+03 -7.294806E+02  1.565745E+03  3.259049E+01
       297   7  1.625235E+05  1.038109E+04  1.593888E+04 -7.955761E+02  5.909335E+03  7.100736E+01
       297   8  1.615869E+05  7.275412E+03  1.211629E+04 -4.487488E+01  3.737585E+03  3.826407E+01
       297   9  1.623357E+05  7.849778E+03  1.072388E+04 -7.606481E+02  1.565873E+03  3.259014E+01
       297  10  9.922127E+04 -5.442037E+03  1.180153E+02 -6.562738E+02 -2.574493E-09 -5.309631E-09
       297  11  9.847222E+04 -8.500963E+03 -3.658737E+03  5.594784E+01 -7.118604E-09 -2.949968E-08
       297  12  9.940888E+04 -7.879469E+03 -5.004404E+03 -6.983143E+02  3.111989E-08  1.195588E-07
       297  13  1.308719E+05  2.469561E+03  8.028452E+03 -7.259235E+02 -1.075910E-09  5.212237E-10
       297  14  1.300291E+05 -6.127400E+02  4.228802E+03  5.537499E+00  2.072101E-09 -2.036509E-10
       297  15  1.308718E+05 -1.480825E+01  2.859775E+03 -7.294807E+02  4.406207E-10 -1.042737E-09
       297  16  1.625235E+05  1.038108E+04  1.593881E+04 -7.955765E+02  9.198792E-10  6.110305E-09
       297  17  1.615869E+05  7.275408E+03  1.211627E+04 -4.487500E+01  7.068081E-09  2.751000E-08
       297  18  1.623357E+05  7.849778E+03  1.072388E+04 -7.606481E+02 -2.975784E-08 -1.256339E-07
       297  19  9.922131E+04 -5.442027E+03  1.180809E+02 -6.562735E+02 -5.911292E+03 -7.100575E+01
       297  20  9.847224E+04 -8.500959E+03 -3.658711E+03  5.594796E+01 -3.738437E+03 -3.826289E+01
       297  21  9.940888E+04 -7.879468E+03 -5.004399E+03 -6.983142E+02 -1.565618E+03 -3.259083E+01
       297  22  1.308720E+05  2.469570E+03  8.028517E+03 -7.259232E+02 -5.910314E+03 -7.100655E+01
       297  23  1.300291E+05 -6.127363E+02  4.228829E+03  5.537615E+00 -3.738011E+03 -3.826348E+01
       297  24  1.308718E+05 -1.480765E+01  2.859780E+03 -7.294806E+02 -1.565745E+03 -3.259049E+01
       297  25  1.625235E+05  1.038109E+04  1.593888E+04 -7.955761E+02 -5.909335E+03 -7.100736E+01
       297  26  1.615869E+05  7.275412E+03  1.211629E+04 -4.487488E+01 -3.737585E+03 -3.826407E+01
       297  27  1.623357E+05  7.849778E+03  1.072388E+04 -7.606481E+02 -1.565873E+03 -3.259014E+01
       298   1  1.208399E+05 -2.076093E+03 -7.686702E+00 -5.303559E+02  1.083145E+03  2.844642E+01
       298   2  1.206926E+05 -2.566991E+03 -5.110925E+02 -1.928597E+02  1.196041E+02  1.303871E+01
       298   3  1.209281E+05 -2.196505E+03 -1.635766E+02 -5.412373E+02 -8.438981E+02  8.769099E+00
       298   4  1.305826E+05  3.592473E+02  2.427192E+03 -5.543290E+02  1.082599E+03  2.844768E+01
       298   5  1.303913E+05 -1.426466E+02  1.913036E+03 -2.115350E+02  1.193116E+02  1.303943E+01
       298   6  1.305826E+05  2.167919E+02  2.249617E+03 -5.546141E+02 -8.439363E+02  8.769193E+00
       298   7  1.403255E+05  2.794581E+03  4.862063E+03 -5.783024E+02  1.082052E+03  2.844893E+01
       298   8  1.400900E+05  2.281691E+03  4.337157E+03 -2.302105E+02  1.190190E+02  1.304014E+01
       298   9  1.402372E+05  2.630081E+03  4.662803E+03 -5.679911E+02 -8.439747E+02  8.769271E+00
       298  10  1.208399E+05 -2.076093E+03 -7.688695E+00 -5.303527E+02  6.978786E-06 -1.219236E-08
       298  11  1.206926E+05 -2.566988E+03 -5.110917E+02 -1.928453E+02  3.038587E-05 -1.203937E-06
       298  12  1.209281E+05 -2.196499E+03 -1.635764E+02 -5.412116E+02  5.361391E-05 -3.129242E-06
       298  13  1.305826E+05  3.592470E+02  2.427190E+03 -5.543290E+02  1.698238E-05  4.711081E-07
       298  14  1.303913E+05 -1.426468E+02  1.913036E+03 -2.115350E+02  7.533895E-05  2.104123E-06
       298  15  1.305826E+05  2.167918E+02  2.249616E+03 -5.546141E+02  1.336936E-04  3.724943E-06
       298  16  1.403255E+05  2.794579E+03  4.862060E+03 -5.783057E+02  6.603180E-06 -8.497648E-07
       298  17  1.400900E+05  2.281687E+03  4.337156E+03 -2.302249E+02  2.987140E-05 -2.612289E-06
       298  18  1.402372E+05  2.630075E+03  4.662800E+03 -5.680168E+02  5.331576E-05 -3.658350E-06
       298  19  1.208399E+05 -2.076092E+03 -7.686275E+00 -5.303494E+02 -1.083145E+03 -2.844642E+01
       298  20  1.206926E+05 -2.566984E+03 -5.110908E+02 -1.928308E+02 -1.196041E+02 -1.303871E+01
       298  21  1.209281E+05 -2.196492E+03 -1.635735E+02 -5.411860E+02  8.438982E+02 -8.769106E+00
       298  22  1.305826E+05  3.592473E+02  2.427192E+03 -5.543290E+02 -1.082599E+03 -2.844768E+01
       298  23  1.303913E+05 -1.426469E+02  1.913036E+03 -2.115350E+02 -1.193115E+02 -1.303942E+01
       298  24  1.305826E+05  2.167920E+02  2.249617E+03 -5.546141E+02  8.439366E+02 -8.769185E+00
       298  25  1.403255E+05  2.794579E+03  4.862062E+03 -5.783089E+02 -1.082052E+03 -2.844893E+01
       298  26  1.400900E+05  2.281683E+03  4.337155E+03 -2.302394E+02 -1.190190E+02 -1.304014E+01
       298  27  1.402372E+05  2.630069E+03  4.662800E+03 -5.680425E+02  8.439748E+02 -8.769279E+00
       299   1  1.335881E+05  7.442667E+02  3.317101E+03 -5.189006E+02 -1.283061E+03  7.976415E+00
       299   2  1.332218E+05  3.710550E+02  4.577929E+03 -2.558949E+02 -3.225430E+03  4.231327E+00
       299   3  1.336594E+05  2.199275E+03  7.653604E+03 -5.486860E+02 -5.167838E+03 -2.305579E+00
       299   4  1.306762E+05  1.647461E+01  2.589196E+03 -5.270200E+02 -1.283236E+03  7.976915E+00
       299   5  1.302742E+05 -3.657544E+02  3.841204E+03 -2.472784E+02 -3.225664E+03  4.231925E+00
       299   6  1.306761E+05  1.453465E+03  6.908105E+03 -5.233335E+02 -5.168131E+03 -2.304994E+00
       299   7  1.277644E+05 -7.113181E+02  1.861290E+03 -5.351393E+02 -1.283411E+03  7.977401E+00
       299   8  1.273267E+05 -1.102564E+03  3.104478E+03 -2.386618E+02 -3.225898E+03  4.232515E+00
       299   9  1.276928E+05  7.076536E+02  6.162606E+03 -4.979811E+02 -5.168424E+03 -2.304410E+00
       299  10  1.335881E+05  7.442724E+02  3.317099E+03 -5.188749E+02  5.331318E-05 -3.656428E-06
       299  11  1.332218E+05  3.710558E+02  4.577910E+03 -2.558804E+02  2.986965E-05 -2.612114E-06
       299  12  1.336593E+05  2.199269E+03  7.653554E+03 -5.486828E+02  6.602382E-06 -8.555632E-07
       299  13  1.306762E+05  1.647413E+01  2.589192E+03 -5.270200E+02  1.336932E-04  3.724591E-06
       299  14  1.302742E+05 -3.657570E+02  3.841184E+03 -2.472783E+02  7.533703E-05  2.097718E-06
       299  15  1.306761E+05  1.453458E+03  6.908055E+03 -5.233335E+02  1.698054E-05  4.698542E-07
       299  16  1.277644E+05 -7.113246E+02  1.861285E+03 -5.351650E+02  5.361450E-05 -3.130030E-06
       299  17  1.273267E+05 -1.102570E+03  3.104457E+03 -2.386763E+02  3.038781E-05 -1.209657E-06
       299  18  1.276928E+05  7.076457E+02  6.162555E+03 -4.979843E+02  6.979019E-06 -1.598416E-08
       299  19  1.335881E+05  7.442791E+02  3.317104E+03 -5.188492E+02  1.283061E+03 -7.976423E+00
       299  20  1.332218E+05  3.710623E+02  4.577931E+03 -2.558659E+02  3.225430E+03 -4.231332E+00
       299  21  1.336594E+05  2.199277E+03  7.653604E+03 -5.486795E+02  5.167838E+03  2.305577E+00
       299  22  1.306762E+05  1.647454E+01  2.589195E+03 -5.270200E+02  1.283236E+03 -7.976908E+00
       299  23  1.302742E+05 -3.657541E+02  3.841203E+03 -2.472783E+02  3.225664E+03 -4.231921E+00
       299  24  1.306761E+05  1.453465E+03  6.908105E+03 -5.233335E+02  5.168131E+03  2.304995E+00
       299  25  1.277644E+05 -7.113302E+02  1.861286E+03 -5.351907E+02  1.283411E+03 -7.977408E+00
       299  26  1.273267E+05 -1.102571E+03  3.104476E+03 -2.386907E+02  3.225898E+03 -4.232518E+00
       299  27  1.276928E+05  7.076523E+02  6.162605E+03 -4.979876E+02  5.168424E+03  2.304410E+00
       300   1  1.498324E+05  4.325801E+03  1.330815E+04 -5.713980E+02 -6.588827E+03 -2.559166E+00
       300   2  1.476184E+05  2.308389E+03  1.887168E+04 -1.963229E+02 -1.392476E+04  5.005912E+00
       300   3  1.499542E+05  1.402778E+04  3.267702E+04 -7.690274E+02 -2.126078E+04 -4.658719E+00
       300   4  1.315085E+05 -2.539709E+02  8.728304E+03 -6.199332E+02 -6.588743E+03 -2.558533E+00
       300   5  1.292332E+05 -2.287367E+03  1.427649E+04 -1.361893E+02 -1.392490E+04  5.005527E+00
       300   6  1.315079E+05  9.416297E+03  2.806680E+04 -6.002267E+02 -2.126114E+04 -4.662894E+00
       300   7  1.131850E+05 -4.833768E+03  4.148434E+03 -6.684667E+02 -6.588659E+03 -2.557900E+00
       300   8  1.108484E+05 -6.883148E+03  9.681269E+03 -7.605720E+01 -1.392504E+04  5.005141E+00
       300   9  1.130618E+05  4.804792E+03  2.345655E+04 -4.314309E+02 -2.126150E+04 -4.667070E+00
       300  10  1.498323E+05  4.325789E+03  1.330807E+04 -5.713980E+02 -3.092102E-08 -1.286846E-07
       300  11  1.476182E+05  2.308337E+03  1.887132E+04 -1.963229E+02  7.643821E-09  2.986320E-08
       300  12  1.499537E+05  1.402766E+04  3.267617E+04 -7.690275E+02  1.330201E-09  6.667746E-09
       300  13  1.315085E+05 -2.539825E+02  8.728223E+03 -6.199332E+02 -5.738886E-10 -3.360910E-09
       300  14  1.292330E+05 -2.287419E+03  1.427612E+04 -1.361892E+02  6.309308E-10 -7.277740E-10
       300  15  1.315074E+05  9.416176E+03  2.806595E+04 -6.002268E+02  7.839232E-10  1.335213E-10
       300  16  1.131850E+05 -4.833780E+03  4.148352E+03 -6.684667E+02  2.990034E-08  1.197226E-07
       300  17  1.108482E+05 -6.883200E+03  9.680905E+03 -7.605715E+01 -6.800788E-09 -2.646510E-08
       300  18  1.130614E+05  4.804671E+03  2.345570E+04 -4.314310E+02 -1.529345E-09 -4.405489E-09
       300  19  1.498324E+05  4.325801E+03  1.330815E+04 -5.713980E+02  6.588827E+03  2.559166E+00
       300  20  1.476184E+05  2.308389E+03  1.887168E+04 -1.963229E+02  1.392476E+04 -5.005912E+00
       300  21  1.499542E+05  1.402778E+04  3.267702E+04 -7.690274E+02  2.126078E+04  4.658719E+00
       300  22  1.315085E+05 -2.539708E+02  8.728304E+03 -6.199332E+02  6.588743E+03  2.558533E+00
       300  23  1.292332E+05 -2.287367E+03  1.427649E+04 -1.361893E+02  1.392490E+04 -5.005527E+00
       300  24  1.315079E+05  9.416297E+03  2.806680E+04 -6.002267E+02  2.126114E+04  4.662894E+00
       300  25  1.131850E+05 -4.833768E+03  4.148434E+03 -6.684667E+02  6.588659E+03  2.557900E+00
       300  26  1.108484E+05 -6.883148E+03  9.681269E+03 -7.605720E+01  1.392504E+04 -5.005141E+00
       300  27  1.130618E+05  4.804792E+03  2.345655E+04 -4.314309E+02  2.126150E+04  4.667070E+00
       301   1  1.875135E+05  1.097303E+04  4.777015E+04 -4.839364E+02 -2.700570E+04 -1.393447E+01
       301   2  1.740911E+05 -1.897487E+03  6.857429E+04 -3.280283E+01 -5.639411E+04 -1.621896E+01
       301   3  1.878053E+05  7.336266E+04  1.308001E+05 -1.890955E+03 -8.578250E+04 -5.628012E+01
       301   4  1.365276E+05 -1.768814E+03  3.502756E+04 -9.317959E+02 -2.700502E+04 -1.391356E+01
       301   5  1.229578E+05 -1.467922E+04  5.579449E+04  2.391098E+02 -5.639223E+04 -1.624226E+01
       301   6  1.365264E+05  6.054469E+04  1.179846E+05 -8.992862E+02 -8.577940E+04 -5.641653E+01
       301   7  8.554399E+04 -1.451086E+04  2.228477E+04 -1.379618E+03 -2.700435E+04 -1.389265E+01
       301   8  7.182684E+04 -2.746114E+04  4.301449E+04  5.110007E+02 -5.639034E+04 -1.626557E+01
       301   9  8.524985E+04  4.772652E+04  1.051689E+05  9.230067E+01 -8.577630E+04 -5.655295E+01
       301  10  1.875127E+05  1.097284E+04  4.776878E+04 -4.839367E+02 -5.575591E-09 -2.052916E-08
       301  11  1.740877E+05 -1.898341E+03  6.856832E+04 -3.280357E+01  6.032643E-10  2.477529E-09
       301  12  1.877974E+05  7.336069E+04  1.307863E+05 -1.890958E+03  2.802753E-10  3.593176E-10
       301  13  1.365268E+05 -1.769010E+03  3.502619E+04 -9.317962E+02 -5.244300E-10  7.388542E-10
       301  14  1.229544E+05 -1.468007E+04  5.578851E+04  2.391091E+02  1.337610E-09  1.616969E-10
       301  15  1.365185E+05  6.054272E+04  1.179708E+05 -8.992901E+02 -5.688027E-10 -8.093008E-10
       301  16  8.554320E+04 -1.451105E+04  2.228340E+04 -1.379618E+03  4.307679E-09  2.133637E-08
       301  17  7.182343E+04 -2.746200E+04  4.300851E+04  5.110000E+02 -9.316336E-10 -6.825846E-09
       301  18  8.524195E+04  4.772455E+04  1.051551E+05  9.229676E+01 -4.926799E-10 -1.671284E-09
       301  19  1.875135E+05  1.097303E+04  4.777015E+04 -4.839364E+02  2.700570E+04  1.393447E+01
       301  20  1.740911E+05 -1.897487E+03  6.857429E+04 -3.280283E+01  5.639411E+04  1.621896E+01
       301  21  1.878053E+05  7.336266E+04  1.308001E+05 -1.890955E+03  8.578250E+04  5.628012E+01
       301  22  1.365276E+05 -1.768814E+03  3.502756E+04 -9.317959E+02  2.700502E+04  1.391356E+01
       301  23  1.229578E+05 -1.467922E+04  5.579449E+04  2.391098E+02  5.639223E+04  1.624226E+01
       301  24  1.365264E+05  6.054469E+04  1.179846E+05 -8.992862E+02  8.577940E+04  5.641653E+01
       301  25  8.554399E+04 -1.451086E+04  2.228477E+04 -1.379618E+03  2.700435E+04  1.389265E+01
       301  26  7.182684E+04 -2.746114E+04  4.301449E+04  5.110007E+02  5.639034E+04  1.626557E+01
       301  27  8.524985E+04  4.772652E+04  1.051689E+05  9.230067E+01  8.577630E+04  5.655295E+01
       302   1  2.965890E+05  2.071533E+04  1.752118E+05  1.435557E+03 -1.096024E+05 -1.869998E+02
       302   2  2.147850E+05 -6.134256E+04  2.478947E+05  8.478851E+01 -2.276658E+05 -6.525833E+02
       302   3  2.975105E+05  4.199016E+05  5.399616E+05 -9.315909E+03 -3.457271E+05 -1.274577E+03
       302   4  1.670647E+05 -1.165829E+04  1.428435E+05 -1.817366E+03 -1.095955E+05 -1.864298E+02
       302   5  8.480064E+04 -9.382655E+04  2.154122E+05  1.538956E+03 -2.276410E+05 -6.531395E+02
       302   6  1.670932E+05  3.873657E+05  5.073848E+05 -3.154209E+03 -3.456844E+05 -1.278049E+03
       302   7  3.755565E+04 -4.403314E+04  1.104738E+05 -5.069611E+03 -1.095885E+05 -1.858597E+02
       302   8 -4.516843E+04 -1.263118E+05  1.829284E+05  2.992812E+03 -2.276162E+05 -6.536956E+02
       302   9  3.669144E+04  3.548286E+05  4.748068E+05  3.006184E+03 -3.456417E+05 -1.281520E+03
       302  10  2.965761E+05  2.071211E+04  1.751893E+05  1.435540E+03 -1.863279E-11 -6.180249E-09
       302  11  2.147294E+05 -6.135647E+04  2.477974E+05  8.466890E+01  2.667196E-11 -9.563004E-09
       302  12  2.973823E+05  4.198695E+05  5.397371E+05 -9.316264E+03 -2.127928E-10 -1.091286E-08
       302  13  1.670518E+05 -1.166152E+04  1.428209E+05 -1.817382E+03  5.338630E-10 -2.087708E-09
       302  14  8.474502E+04 -9.384045E+04  2.153149E+05  1.538836E+03 -1.524395E-09 -3.051967E-09
       302  15  1.669650E+05  3.873336E+05  5.071603E+05 -3.154565E+03  5.571690E-10 -2.726757E-09
       302  16  3.754275E+04 -4.403637E+04  1.104513E+05 -5.069627E+03  1.341623E-10  3.324426E-09
       302  17 -4.522405E+04 -1.263257E+05  1.828311E+05  2.992692E+03  2.894170E-10 -4.439973E-09
       302  18  3.656321E+04  3.547966E+05  4.745823E+05  3.005828E+03 -1.431061E-09 -5.639999E-09
       302  19  2.965890E+05  2.071533E+04  1.752118E+05  1.435557E+03  1.096024E+05  1.869998E+02
       302  20  2.147850E+05 -6.134256E+04  2.478947E+05  8.478851E+01  2.276658E+05  6.525833E+02
       302  21  2.975105E+05  4.199016E+05  5.399616E+05 -9.315909E+03  3.457271E+05  1.274577E+03
       302  22  1.670647E+05 -1.165829E+04  1.428435E+05 -1.817366E+03  1.095955E+05  1.864298E+02
       302  23  8.480064E+04 -9.382655E+04  2.154122E+05  1.538956E+03  2.276410E+05  6.531395E+02
       302  24  1.670932E+05  3.873657E+05  5.073848E+05 -3.154209E+03  3.456844E+05  1.278049E+03
       302  25  3.755565E+04 -4.403314E+04  1.104738E+05 -5.069611E+03  1.095885E+05  1.858597E+02
       302  26 -4.516843E+04 -1.263118E+05  1.829284E+05  2.992812E+03  2.276162E+05  6.536956E+02
       302  27  3.669144E+04  3.548286E+05  4.748068E+05  3.006184E+03  3.456417E+05  1.281520E+03
       303   1  1.085265E+05  2.310773E+05  1.546874E+05  1.565398E+03 -1.128746E+03  1.324079E+05
       303   2 -7.746109E+04  1.948600E+05  4.172330E+04 -4.318423E+03 -7.929147E+02  8.684392E+04
       303   3 -4.451820E+04  2.327282E+05  1.584392E+04  3.623640E+03 -3.584907E+02  4.127991E+04
       303   4  1.497023E+05  3.960030E+05  1.958921E+05  3.111818E+03 -1.128409E+03  1.324335E+05
       303   5 -3.645150E+04  3.589645E+05  8.273030E+04 -4.383542E+03 -7.928933E+02  8.685661E+04
       303   6 -3.701615E+03  3.960004E+05  5.664648E+04  1.946749E+03 -3.585689E+02  4.127968E+04
       303   7  1.908760E+05  5.609533E+05  2.370948E+05  4.658696E+03 -1.128072E+03  1.324592E+05
       303   8  4.556061E+03  5.230935E+05  1.237353E+05 -4.448645E+03 -7.928719E+02  8.686930E+04
       303   9  3.711297E+04  5.592968E+05  9.744703E+04  2.694377E+02 -3.586470E+02  4.127946E+04
       303  10  1.085218E+05  2.310584E+05  1.546545E+05  1.565519E+03 -8.496304E-10 -1.261700E-10
       303  11 -7.746312E+04  1.948519E+05  4.170913E+04 -4.318368E+03 -1.541016E-09  4.165634E-09
       303  12 -4.451866E+04  2.327263E+05  1.584072E+04  3.623652E+03  1.904703E-09 -6.984979E-10
       303  13  1.496976E+05  3.959841E+05  1.958592E+05  3.111938E+03  3.393441E-09 -2.155125E-09
       303  14 -3.645352E+04  3.589564E+05  8.271613E+04 -4.383487E+03 -5.851308E-09 -1.401901E-09
       303  15 -3.702072E+03  3.959986E+05  5.664328E+04  1.946761E+03  7.151204E-10 -1.266591E-09
       303  16  1.908713E+05  5.609345E+05  2.370618E+05  4.658816E+03 -8.499447E-10 -9.238807E-10
       303  17  4.554037E+03  5.230854E+05  1.237211E+05 -4.448589E+03 -1.832490E-09  3.417264E-09
       303  18  3.711251E+04  5.592950E+05  9.744383E+04  2.694497E+02 -9.949154E-10  2.142071E-10
       303  19  1.085265E+05  2.310773E+05  1.546874E+05  1.565398E+03  1.128746E+03 -1.324079E+05
       303  20 -7.746109E+04  1.948600E+05  4.172330E+04 -4.318423E+03  7.929147E+02 -8.684392E+04
       303  21 -4.451820E+04  2.327282E+05  1.584392E+04  3.623640E+03  3.584907E+02 -4.127991E+04
       303  22  1.497023E+05  3.960030E+05  1.958921E+05  3.111818E+03  1.128409E+03 -1.324335E+05
       303  23 -3.645150E+04  3.589645E+05  8.273030E+04 -4.383542E+03  7.928933E+02 -8.685661E+04
       303  24 -3.701615E+03  3.960004E+05  5.664648E+04  1.946749E+03  3.585689E+02 -4.127968E+04
       303  25  1.908760E+05  5.609533E+05  2.370948E+05  4.658696E+03  1.128072E+03 -1.324592E+05
       303  26  4.556061E+03  5.230935E+05  1.237353E+05 -4.448645E+03  7.928719E+02 -8.686930E+04
       303  27  3.711297E+04  5.592968E+05  9.744703E+04  2.694377E+02  3.586470E+02 -4.127946E+04
       304   1  1.013621E+04  3.311062E+05  3.403506E+04 -9.017502E+02 -1.954304E+02  3.176785E+04
       304   2 -1.900109E+04  3.250038E+05  1.106352E+04 -8.834779E+02 -1.096732E+02  1.920088E+04
       304   3 -1.077102E+04  3.311651E+05  5.870533E+03 -3.844975E+02 -1.079000E+02  6.633789E+03
       304   4  2.291968E+04  3.822713E+05  4.681894E+04 -6.183828E+02 -1.954087E+02  3.176742E+04
       304   5 -6.221877E+03  3.761418E+05  2.384187E+04 -8.891312E+02 -1.096719E+02  1.920156E+04
       304   6  2.002140E+03  3.822751E+05  1.864158E+04 -6.791749E+02 -1.079048E+02  6.635582E+03
       304   7  3.570295E+04  4.334388E+05  5.960262E+04 -3.349905E+02 -1.953870E+02  3.176699E+04
       304   8  6.557136E+03  4.272822E+05  3.662002E+04 -8.947838E+02 -1.096706E+02  1.920224E+04
       304   9  1.477510E+04  4.333874E+05  3.141243E+04 -9.738755E+02 -1.079095E+02  6.637375E+03
       304  10  1.013594E+04  3.311051E+05  3.403316E+04 -9.017452E+02  3.365711E-10 -4.231970E-10
       304  11 -1.900119E+04  3.250034E+05  1.106283E+04 -8.834762E+02  9.683988E-10  1.626617E-09
       304  12 -1.077103E+04  3.311651E+05  5.870450E+03 -3.844970E+02 -5.153168E-10 -4.104800E-10
       304  13  2.291941E+04  3.822702E+05  4.681704E+04 -6.183778E+02  4.285817E-10 -7.455756E-10
       304  14 -6.221976E+03  3.761414E+05  2.384118E+04 -8.891295E+02  1.698088E-09 -6.584725E-10
       304  15  2.002129E+03  3.822751E+05  1.864150E+04 -6.791743E+02  1.455677E-09 -6.555541E-10
       304  16  3.570268E+04  4.334377E+05  5.960072E+04 -3.349855E+02  3.582776E-10  4.859929E-11
       304  17  6.557037E+03  4.272818E+05  3.661933E+04 -8.947821E+02 -4.388509E-10  1.230841E-09
       304  18  1.477509E+04  4.333874E+05  3.141235E+04 -9.738750E+02 -2.921275E-10  2.458370E-10
       304  19  1.013621E+04  3.311062E+05  3.403506E+04 -9.017502E+02  1.954304E+02 -3.176785E+04
       304  20 -1.900109E+04  3.250038E+05  1.106352E+04 -8.834779E+02  1.096732E+02 -1.920088E+04
       304  21 -1.077102E+04  3.311651E+05  5.870533E+03 -3.844975E+02  1.079000E+02 -6.633789E+03
       304  22  2.291968E+04  3.822713E+05  4.681894E+04 -6.183828E+02  1.954087E+02 -3.176742E+04
       304  23 -6.221877E+03  3.761418E+05  2.384187E+04 -8.891312E+02  1.096719E+02 -1.920156E+04
       304  24  2.002140E+03  3.822751E+05  1.864158E+04 -6.791749E+02  1.079048E+02 -6.635582E+03
       304  25  3.570295E+04  4.334388E+05  5.960262E+04 -3.349905E+02  1.953870E+02 -3.176699E+04
       304  26  6.557136E+03  4.272822E+05  3.662002E+04 -8.947838E+02  1.096706E+02 -1.920224E+04
       304  27  1.477510E+04  4.333874E+05  3.141243E+04 -9.738755E+02  1.079095E+02 -6.637375E+03
       305   1 -3.088788E+04  2.467241E+05 -1.671349E+04 -3.105178E+03 -1.861152E+02  3.275127E+03
       305   2 -4.005118E+04  2.366721E+05 -2.013867E+04  1.991609E+03 -2.579531E+02 -4.611470E+03
       305   3 -1.528440E+04  2.454605E+05 -8.081819E+03 -2.975318E+03 -1.241731E+02 -1.249829E+04
       305   4  3.350524E+03  3.837283E+05  1.752268E+04 -2.988818E+03 -1.861155E+02  3.279971E+03
       305   5 -5.652592E+03  3.743151E+05  1.425651E+04  2.016058E+03 -2.579505E+02 -4.613090E+03
       305   6  1.927240E+04  3.837426E+05  2.647483E+04 -3.042644E+03 -1.241864E+02 -1.250638E+04
       305   7  3.758751E+04  5.207495E+05  5.175743E+04 -2.872429E+03 -1.861159E+02  3.284816E+03
       305   8  2.874456E+04  5.119752E+05  4.865026E+04  2.040508E+03 -2.579480E+02 -4.614711E+03
       305   9  5.382776E+04  5.220419E+05  6.103003E+04 -3.109996E+03 -1.241997E+02 -1.251447E+04
       305  10 -3.088788E+04  2.467240E+05 -1.671351E+04 -3.105177E+03 -4.047390E-10 -2.698711E-10
       305  11 -4.005118E+04  2.366721E+05 -2.013871E+04  1.991608E+03 -1.350196E-09 -4.266716E-10
       305  12 -1.528444E+04  2.454604E+05 -8.082112E+03 -2.975319E+03  6.680540E-10  2.372894E-10
       305  13  3.350521E+03  3.837283E+05  1.752266E+04 -2.988817E+03 -5.972302E-10 -1.248337E-10
       305  14 -5.652598E+03  3.743151E+05  1.425647E+04  2.016057E+03 -1.150937E-10  6.409182E-11
       305  15  1.927236E+04  3.837424E+05  2.647453E+04 -3.042645E+03  9.225652E-10  9.232721E-10
       305  16  3.758750E+04  5.207495E+05  5.175741E+04 -2.872428E+03  6.753554E-10  1.173805E-10
       305  17  2.874456E+04  5.119752E+05  4.865022E+04  2.040507E+03  3.937412E-10 -8.122431E-10
       305  18  5.382772E+04  5.220417E+05  6.102974E+04 -3.109997E+03  5.889145E-10  1.676116E-10
       305  19 -3.088788E+04  2.467241E+05 -1.671349E+04 -3.105178E+03  1.861152E+02 -3.275127E+03
       305  20 -4.005118E+04  2.366721E+05 -2.013867E+04  1.991609E+03  2.579531E+02  4.611470E+03
       305  21 -1.528440E+04  2.454605E+05 -8.081819E+03 -2.975318E+03  1.241731E+02  1.249829E+04
       305  22  3.350524E+03  3.837283E+05  1.752268E+04 -2.988818E+03  1.861155E+02 -3.279971E+03
       305  23 -5.652592E+03  3.743151E+05  1.425651E+04  2.016058E+03  2.579505E+02  4.613090E+03
       305  24  1.927240E+04  3.837426E+05  2.647483E+04 -3.042644E+03  1.241864E+02  1.250638E+04
       305  25  3.758751E+04  5.207495E+05  5.175743E+04 -2.872429E+03  1.861159E+02 -3.284816E+03
       305  26  2.874456E+04  5.119752E+05  4.865026E+04  2.040508E+03  2.579480E+02  4.614711E+03
       305  27  5.382776E+04  5.220419E+05  6.103003E+04 -3.109996E+03  1.241997E+02  1.251447E+04
       306   1 -2.373824E+06 -6.382158E+05 -4.421331E+05 -7.500255E+05 -2.233824E+05 -8.521500E+04
       306   2 -2.312146E+06 -3.621389E+05 -2.433143E+05 -8.678329E+05 -1.438391E+05 -5.343688E+04
       306   3 -2.349141E+06 -3.937749E+05 -1.830163E+05 -8.357757E+05 -6.370107E+04 -2.326181E+04
       306   4 -2.035352E+06 -5.045485E+05 -3.474903E+05 -6.523854E+05 -2.234319E+05 -8.523575E+04
       306   5 -1.968337E+06 -2.307994E+05 -1.480808E+05 -7.730919E+05 -1.438824E+05 -5.345350E+04
       306   6 -1.999897E+06 -2.646268E+05 -8.712854E+04 -7.439533E+05 -6.373742E+04 -2.327506E+04
       306   7 -1.696771E+06 -3.708722E+05 -2.528583E+05 -5.546964E+05 -2.234815E+05 -8.525650E+04
       306   8 -1.624414E+06 -9.945285E+04 -5.285827E+04 -6.783035E+05 -1.439256E+05 -5.347011E+04
       306   9 -1.650536E+06 -1.354734E+05  8.748090E+03 -6.520848E+05 -6.377377E+04 -2.328831E+04
       306  10 -2.373879E+06 -6.382371E+05 -4.422409E+05 -7.500409E+05  7.921922E-10  6.368022E-10
       306  11 -2.312170E+06 -3.621475E+05 -2.433588E+05 -8.678391E+05 -2.652494E-09  1.557871E-09
       306  12 -2.349146E+06 -3.937765E+05 -1.830250E+05 -8.357769E+05 -6.803903E-10  2.670738E-09
       306  13 -2.035408E+06 -5.045697E+05 -3.475981E+05 -6.524007E+05  3.819746E-09 -6.345225E-10
       306  14 -1.968360E+06 -2.308081E+05 -1.481253E+05 -7.730981E+05 -9.179110E-10  2.057633E-09
       306  15 -1.999901E+06 -2.646285E+05 -8.713723E+04 -7.439545E+05 -2.830239E-10  3.813088E-09
       306  16 -1.696827E+06 -3.708935E+05 -2.529661E+05 -5.547117E+05  1.371262E-09  3.140019E-09
       306  17 -1.624437E+06 -9.946151E+04 -5.290270E+04 -6.783097E+05  5.545535E-10  2.769655E-09
       306  18 -1.650541E+06 -1.354750E+05  8.739401E+03 -6.520860E+05 -5.760937E-10  1.485834E-09
       306  19 -2.373824E+06 -6.382158E+05 -4.421331E+05 -7.500255E+05  2.233824E+05  8.521500E+04
       306  20 -2.312146E+06 -3.621389E+05 -2.433143E+05 -8.678329E+05  1.438391E+05  5.343688E+04
       306  21 -2.349141E+06 -3.937749E+05 -1.830163E+05 -8.357757E+05  6.370107E+04  2.326181E+04
       306  22 -2.035352E+06 -5.045485E+05 -3.474903E+05 -6.523854E+05  2.234319E+05  8.523575E+04
       306  23 -1.968337E+06 -2.307994E+05 -1.480808E+05 -7.730919E+05  1.438824E+05  5.345350E+04
       306  24 -1.999897E+06 -2.646268E+05 -8.712854E+04 -7.439533E+05  6.373742E+04  2.327506E+04
       306  25 -1.696771E+06 -3.708722E+05 -2.528583E+05 -5.546964E+05  2.234815E+05  8.525650E+04
       306  26 -1.624414E+06 -9.945285E+04 -5.285827E+04 -6.783035E+05  1.439256E+05  5.347011E+04
       306  27 -1.650536E+06 -1.354734E+05  8.748090E+03 -6.520848E+05  6.377377E+04  2.328831E+04
       307   1 -1.803226E+06 -2.512033E+05 -2.313457E+04 -6.849119E+05 -5.066295E+04 -1.886723E+04
       307   2 -1.805711E+06 -1.956135E+05  1.714175E+04 -6.942584E+05 -3.228982E+04 -1.250103E+04
       307   3 -1.796518E+06 -2.086544E+05  3.303688E+04 -6.977014E+05 -1.414023E+04 -5.535400E+03
       307   4 -1.991126E+06 -3.209959E+05 -7.477158E+04 -7.346547E+05 -5.066663E+04 -1.886867E+04
       307   5 -1.994144E+06 -2.664899E+05 -3.481402E+04 -7.450678E+05 -3.228538E+04 -1.249939E+04
       307   6 -1.985495E+06 -2.806309E+05 -1.925127E+04 -7.495765E+05 -1.412771E+04 -5.530681E+03
       307   7 -2.178992E+06 -3.907869E+05 -1.264118E+05 -7.843841E+05 -5.067031E+04 -1.887010E+04
       307   8 -2.182542E+06 -3.373645E+05 -8.677306E+04 -7.958634E+05 -3.228094E+04 -1.249775E+04
       307   9 -2.174438E+06 -3.526053E+05 -7.154272E+04 -8.014373E+05 -1.411521E+04 -5.525964E+03
       307  10 -1.803229E+06 -2.512044E+05 -2.314008E+04 -6.849127E+05  2.708035E-10  7.322072E-10
       307  11 -1.805713E+06 -1.956140E+05  1.713949E+04 -6.942587E+05 -1.982397E-10 -5.749128E-09
       307  12 -1.796518E+06 -2.086545E+05  3.303644E+04 -6.977014E+05 -4.765763E-10 -1.667414E-09
       307  13 -1.991129E+06 -3.209970E+05 -7.477709E+04 -7.346555E+05 -1.325520E-09  4.929099E-09
       307  14 -1.994145E+06 -2.664904E+05 -3.481628E+04 -7.450681E+05  9.922896E-10  1.377874E-09
       307  15 -1.985495E+06 -2.806310E+05 -1.925170E+04 -7.495765E+05  6.563863E-10 -8.894072E-10
       307  16 -2.178995E+06 -3.907880E+05 -1.264173E+05 -7.843849E+05  2.819409E-10 -1.432980E-09
       307  17 -2.182544E+06 -3.373649E+05 -8.677532E+04 -7.958637E+05 -2.018082E-09  4.163942E-09
       307  18 -2.174439E+06 -3.526053E+05 -7.154315E+04 -8.014374E+05  4.119418E-10  1.084413E-09
       307  19 -1.803226E+06 -2.512033E+05 -2.313457E+04 -6.849119E+05  5.066295E+04  1.886723E+04
       307  20 -1.805711E+06 -1.956135E+05  1.714175E+04 -6.942584E+05  3.228982E+04  1.250103E+04
       307  21 -1.796518E+06 -2.086544E+05  3.303688E+04 -6.977014E+05  1.414023E+04  5.535400E+03
       307  22 -1.991126E+06 -3.209959E+05 -7.477158E+04 -7.346547E+05  5.066663E+04  1.886867E+04
       307  23 -1.994144E+06 -2.664899E+05 -3.481402E+04 -7.450678E+05  3.228538E+04  1.249939E+04
       307  24 -1.985495E+06 -2.806309E+05 -1.925127E+04 -7.495765E+05  1.412771E+04  5.530681E+03
       307  25 -2.178992E+06 -3.907869E+05 -1.264118E+05 -7.843841E+05  5.067031E+04  1.887010E+04
       307  26 -2.182542E+06 -3.373645E+05 -8.677306E+04 -7.958634E+05  3.228094E+04  1.249775E+04
       307  27 -2.174438E+06 -3.526053E+05 -7.154272E+04 -8.014373E+05  1.411521E+04  5.525964E+03
       308   1 -2.095160E+06 -3.235280E+05 -4.491361E+04 -7.692663E+05 -1.145061E+04 -4.247522E+03
       308   2 -2.092814E+06 -3.194735E+05 -3.695872E+04 -7.773433E+05 -7.328498E+03 -2.509209E+03
       308   3 -2.095702E+06 -3.167103E+05 -3.329619E+04 -7.718778E+05 -3.103360E+03 -1.045214E+03
       308   4 -1.991860E+06 -2.842268E+05 -1.633506E+04 -7.409613E+05 -1.144538E+04 -4.245554E+03
       308   5 -1.988738E+06 -2.800910E+05 -8.210802E+03 -7.490440E+05 -7.328741E+03 -2.509304E+03
       308   6 -1.990848E+06 -2.772440E+05 -4.373772E+03 -7.435844E+05 -3.109077E+03 -1.047350E+03
       308   7 -1.888550E+06 -2.449250E+05  1.224250E+04 -7.126521E+05 -1.144015E+04 -4.243586E+03
       308   8 -1.884652E+06 -2.407079E+05  2.053611E+04 -7.207404E+05 -7.328985E+03 -2.509398E+03
       308   9 -1.885982E+06 -2.377771E+05  2.454764E+04 -7.152867E+05 -3.114795E+03 -1.049487E+03
       308  10 -2.095161E+06 -3.235281E+05 -4.491389E+04 -7.692663E+05  7.838514E-10 -3.991760E-09
       308  11 -2.092814E+06 -3.194735E+05 -3.695883E+04 -7.773433E+05  7.187448E-10  2.547944E-09
       308  12 -2.095702E+06 -3.167103E+05 -3.329621E+04 -7.718778E+05 -8.606172E-09 -1.761554E-09
       308  13 -1.991860E+06 -2.842269E+05 -1.633534E+04 -7.409614E+05 -6.036629E-10 -7.658914E-10
       308  14 -1.988738E+06 -2.800910E+05 -8.210916E+03 -7.490440E+05  1.444287E-09 -8.344144E-10
       308  15 -1.990848E+06 -2.772440E+05 -4.373792E+03 -7.435844E+05  2.083411E-09 -3.267600E-09
       308  16 -1.888550E+06 -2.449250E+05  1.224222E+04 -7.126522E+05 -2.280237E-09 -4.086510E-09
       308  17 -1.884652E+06 -2.407079E+05  2.053600E+04 -7.207404E+05 -4.486308E-09  3.213811E-09
       308  18 -1.885982E+06 -2.377771E+05  2.454762E+04 -7.152867E+05  9.268196E-09  2.727430E-09
       308  19 -2.095160E+06 -3.235280E+05 -4.491361E+04 -7.692663E+05  1.145061E+04  4.247522E+03
       308  20 -2.092814E+06 -3.194735E+05 -3.695872E+04 -7.773433E+05  7.328498E+03  2.509209E+03
       308  21 -2.095702E+06 -3.167103E+05 -3.329619E+04 -7.718778E+05  3.103360E+03  1.045214E+03
       308  22 -1.991860E+06 -2.842268E+05 -1.633506E+04 -7.409613E+05  1.144538E+04  4.245554E+03
       308  23 -1.988738E+06 -2.800910E+05 -8.210802E+03 -7.490440E+05  7.328741E+03  2.509304E+03
       308  24 -1.990848E+06 -2.772440E+05 -4.373772E+03 -7.435844E+05  3.109077E+03  1.047350E+03
       308  25 -1.888550E+06 -2.449250E+05  1.224250E+04 -7.126521E+05  1.144015E+04  4.243586E+03
       308  26 -1.884652E+06 -2.407079E+05  2.053611E+04 -7.207404E+05  7.328985E+03  2.509398E+03
       308  27 -1.885982E+06 -2.377771E+05  2.454764E+04 -7.152867E+05  3.114795E+03  1.049487E+03
       309   1 -1.929240E+06 -2.589213E+05  1.270063E+04 -7.299364E+05 -2.436926E+03 -9.502868E+02
       309   2 -1.931416E+06 -2.554213E+05  1.431268E+04 -7.284515E+05 -1.277342E+03 -6.178663E+02
       309   3 -1.928526E+06 -2.574199E+05  1.503489E+04 -7.301030E+05 -1.757986E+02 -1.303842E+02
       309   4 -1.989023E+06 -2.814269E+05 -3.789059E+03 -7.460740E+05 -2.440462E+03 -9.516072E+02
       309   5 -1.991471E+06 -2.780889E+05 -2.262682E+03 -7.447244E+05 -1.277506E+03 -6.179287E+02
       309   6 -1.988854E+06 -2.802504E+05 -1.628930E+03 -7.465111E+05 -1.725942E+02 -1.291818E+02
       309   7 -2.048802E+06 -3.039322E+05 -2.027907E+04 -7.622102E+05 -2.443997E+03 -9.529275E+02
       309   8 -2.051522E+06 -3.007562E+05 -1.883837E+04 -7.609958E+05 -1.277670E+03 -6.179910E+02
       309   9 -2.049179E+06 -3.030807E+05 -1.829308E+04 -7.629178E+05 -1.693902E+02 -1.279795E+02
       309  10 -1.929240E+06 -2.589213E+05  1.270061E+04 -7.299364E+05  2.388859E-09 -5.606762E-09
       309  11 -1.931416E+06 -2.554213E+05  1.431267E+04 -7.284515E+05  1.218860E-08 -4.047869E-09
       309  12 -1.928526E+06 -2.574199E+05  1.503489E+04 -7.301030E+05 -5.116070E-08  1.001217E-08
       309  13 -1.989023E+06 -2.814269E+05 -3.789072E+03 -7.460740E+05  3.156414E-09 -4.309878E-09
       309  14 -1.991471E+06 -2.780889E+05 -2.262686E+03 -7.447244E+05 -1.601808E-09 -4.834288E-10
       309  15 -1.988854E+06 -2.802504E+05 -1.628930E+03 -7.465111E+05 -3.415272E-10  2.944290E-09
       309  16 -2.048802E+06 -3.039322E+05 -2.027909E+04 -7.622102E+05 -1.244949E-09 -1.631533E-09
       309  17 -2.051522E+06 -3.007562E+05 -1.883837E+04 -7.609958E+05 -1.272716E-08  4.464748E-09
       309  18 -2.049179E+06 -3.030807E+05 -1.829308E+04 -7.629178E+05  5.158987E-08 -5.779712E-09
       309  19 -1.929240E+06 -2.589213E+05  1.270063E+04 -7.299364E+05  2.436926E+03  9.502868E+02
       309  20 -1.931416E+06 -2.554213E+05  1.431268E+04 -7.284515E+05  1.277342E+03  6.178663E+02
       309  21 -1.928526E+06 -2.574199E+05  1.503489E+04 -7.301030E+05  1.757986E+02  1.303842E+02
       309  22 -1.989023E+06 -2.814269E+05 -3.789059E+03 -7.460740E+05  2.440462E+03  9.516072E+02
       309  23 -1.991471E+06 -2.780889E+05 -2.262682E+03 -7.447244E+05  1.277506E+03  6.179287E+02
       309  24 -1.988854E+06 -2.802504E+05 -1.628930E+03 -7.465111E+05  1.725942E+02  1.291818E+02
       309  25 -2.048802E+06 -3.039322E+05 -2.027907E+04 -7.622102E+05  2.443997E+03  9.529275E+02
       309  26 -2.051522E+06 -3.007562E+05 -1.883837E+04 -7.609958E+05  1.277670E+03  6.179910E+02
       309  27 -2.049179E+06 -3.030807E+05 -1.829308E+04 -7.629178E+05  1.693902E+02  1.279795E+02
       310   1 -2.029112E+06 -2.939311E+05 -1.241337E+04 -7.556986E+05  4.939606E+01  4.785020E+01
       310   2 -2.028596E+06 -2.943292E+05 -1.280491E+04 -7.568887E+05  1.071880E+03  4.922898E+02
       310   3 -2.029508E+06 -2.945703E+05 -1.419508E+04 -7.555036E+05  2.131884E+03  8.367071E+02
       310   4 -1.990334E+06 -2.792499E+05 -1.700048E+03 -7.451464E+05  5.170768E+01  4.871810E+01
       310   5 -1.989661E+06 -2.796196E+05 -2.055347E+03 -7.463255E+05  1.072014E+03  4.923395E+02
       310   6 -1.990415E+06 -2.798317E+05 -3.407482E+03 -7.449292E+05  2.129839E+03  8.359416E+02
       310   7 -1.951554E+06 -2.645686E+05  9.013139E+03 -7.345937E+05  5.401946E+01  4.958605E+01
       310   8 -1.950725E+06 -2.649099E+05  8.694079E+03 -7.357616E+05  1.072148E+03  4.923892E+02
       310   9 -1.951322E+06 -2.650931E+05  7.379974E+03 -7.343542E+05  2.127794E+03  8.351761E+02
       310  10 -2.029112E+06 -2.939311E+05 -1.241337E+04 -7.556986E+05  9.571908E-07  1.058350E-06
       310  11 -2.028597E+06 -2.943292E+05 -1.280492E+04 -7.568887E+05  5.030199E-06  4.700172E-06
       310  12 -2.029508E+06 -2.945703E+05 -1.419509E+04 -7.555036E+05  9.328923E-06  8.279253E-06
       310  13 -1.990334E+06 -2.792499E+05 -1.700048E+03 -7.451464E+05  3.769466E-06  6.689110E-07
       310  14 -1.989661E+06 -2.796196E+05 -2.055349E+03 -7.463255E+05  1.673387E-05  2.951208E-06
       310  15 -1.990415E+06 -2.798317E+05 -3.407492E+03 -7.449292E+05  2.970612E-05  5.221368E-06
       310  16 -1.951554E+06 -2.645686E+05  9.013140E+03 -7.345937E+05  1.463782E-06  1.060602E-06
       310  17 -1.950725E+06 -2.649099E+05  8.694078E+03 -7.357616E+05  5.728645E-06  4.655211E-06
       310  18 -1.951322E+06 -2.650931E+05  7.379966E+03 -7.343542E+05  9.796874E-06  8.301781E-06
       310  19 -2.029112E+06 -2.939311E+05 -1.241337E+04 -7.556986E+05 -4.939606E+01 -4.785020E+01
       310  20 -2.028597E+06 -2.943292E+05 -1.280491E+04 -7.568887E+05 -1.071880E+03 -4.922898E+02
       310  21 -2.029508E+06 -2.945703E+05 -1.419508E+04 -7.555036E+05 -2.131884E+03 -8.367071E+02
       310  22 -1.990334E+06 -2.792499E+05 -1.700048E+03 -7.451464E+05 -5.170767E+01 -4.871809E+01
       310  23 -1.989661E+06 -2.796196E+05 -2.055347E+03 -7.463255E+05 -1.072014E+03 -4.923395E+02
       310  24 -1.990415E+06 -2.798317E+05 -3.407482E+03 -7.449292E+05 -2.129839E+03 -8.359416E+02
       310  25 -1.951554E+06 -2.645686E+05  9.013140E+03 -7.345937E+05 -5.401945E+01 -4.958605E+01
       310  26 -1.950725E+06 -2.649099E+05  8.694081E+03 -7.357616E+05 -1.072148E+03 -4.923892E+02
       310  27 -1.951322E+06 -2.650931E+05  7.379978E+03 -7.343542E+05 -2.127794E+03 -8.351761E+02
       311   1 -1.957649E+06 -2.670401E+05  4.779738E+03 -7.370343E+05  2.782415E+03  1.012381E+03
       311   2 -1.956650E+06 -2.656787E+05  1.952264E+03 -7.370777E+05  6.487629E+03  2.354921E+03
       311   3 -1.958519E+06 -2.722825E+05 -5.678305E+03 -7.349053E+05  1.016049E+04  3.783834E+03
       311   4 -1.990415E+06 -2.793589E+05 -4.254704E+03 -7.458624E+05  2.780476E+03  1.011655E+03
       311   5 -1.989362E+06 -2.780517E+05 -7.081596E+03 -7.459681E+05  6.487438E+03  2.354849E+03
       311   6 -1.991177E+06 -2.847104E+05 -1.471317E+04 -7.438581E+05  1.016205E+04  3.784417E+03
       311   7 -2.023179E+06 -2.916777E+05 -1.328924E+04 -7.546900E+05  2.778537E+03  1.010930E+03
       311   8 -2.022072E+06 -2.904247E+05 -1.611556E+04 -7.548582E+05  6.487246E+03  2.354777E+03
       311   9 -2.023834E+06 -2.971381E+05 -2.374814E+04 -7.528105E+05  1.016360E+04  3.784999E+03
       311  10 -1.957649E+06 -2.670401E+05  4.779719E+03 -7.370343E+05  1.038405E-05  9.143226E-06
       311  11 -1.956650E+06 -2.656787E+05  1.952172E+03 -7.370777E+05  9.186248E-06  8.498693E-06
       311  12 -1.958519E+06 -2.722826E+05 -5.678529E+03 -7.349053E+05  7.957044E-06  7.865366E-06
       311  13 -1.990415E+06 -2.793589E+05 -4.254720E+03 -7.458624E+05  3.250421E-05  5.580706E-06
       311  14 -1.989362E+06 -2.780518E+05 -7.081686E+03 -7.459682E+05  2.914137E-05  4.548400E-06
       311  15 -1.991177E+06 -2.847104E+05 -1.471339E+04 -7.438581E+05  2.578015E-05  3.511330E-06
       311  16 -2.023179E+06 -2.916777E+05 -1.328926E+04 -7.546901E+05  1.044233E-05  9.150645E-06
       311  17 -2.022072E+06 -2.904247E+05 -1.611564E+04 -7.548582E+05  9.106289E-06  8.546381E-06
       311  18 -2.023834E+06 -2.971382E+05 -2.374836E+04 -7.528105E+05  7.803601E-06  7.911027E-06
       311  19 -1.957649E+06 -2.670401E+05  4.779734E+03 -7.370343E+05 -2.782415E+03 -1.012381E+03
       311  20 -1.956650E+06 -2.656787E+05  1.952260E+03 -7.370777E+05 -6.487629E+03 -2.354921E+03
       311  21 -1.958519E+06 -2.722825E+05 -5.678310E+03 -7.349053E+05 -1.016049E+04 -3.783834E+03
       311  22 -1.990415E+06 -2.793589E+05 -4.254704E+03 -7.458624E+05 -2.780476E+03 -1.011655E+03
       311  23 -1.989362E+06 -2.780517E+05 -7.081596E+03 -7.459681E+05 -6.487437E+03 -2.354849E+03
       311  24 -1.991177E+06 -2.847104E+05 -1.471317E+04 -7.438581E+05 -1.016205E+04 -3.784417E+03
       311  25 -2.023179E+06 -2.916777E+05 -1.328924E+04 -7.546901E+05 -2.778537E+03 -1.010930E+03
       311  26 -2.022072E+06 -2.904247E+05 -1.611555E+04 -7.548582E+05 -6.487246E+03 -2.354777E+03
       311  27 -2.023834E+06 -2.971381E+05 -2.374813E+04 -7.528105E+05 -1.016360E+04 -3.784999E+03
       312   1 -2.031537E+06 -2.942192E+05 -2.913085E+04 -7.584776E+05  1.288747E+04  4.875176E+03
       312   2 -2.024884E+06 -2.849985E+05 -4.093391E+04 -7.573066E+05  2.899443E+04  1.095172E+04
       312   3 -2.036743E+06 -3.280442E+05 -7.841077E+04 -7.448138E+05  4.514652E+04  1.690711E+04
       312   4 -1.992487E+06 -2.791786E+05 -1.829115E+04 -7.475878E+05  1.289008E+04  4.876164E+03
       312   5 -1.985670E+06 -2.703138E+05 -3.013330E+04 -7.468018E+05  2.899532E+04  1.095205E+04
       312   6 -1.997362E+06 -3.137131E+05 -6.764663E+04 -7.346943E+05  4.514569E+04  1.690675E+04
       312   7 -1.953435E+06 -2.641380E+05 -7.451599E+03 -7.366974E+05  1.289270E+04  4.877153E+03
       312   8 -1.946454E+06 -2.556291E+05 -1.933284E+04 -7.362964E+05  2.899621E+04  1.095237E+04
       312   9 -1.957980E+06 -2.993819E+05 -5.688263E+04 -7.245742E+05  4.514485E+04  1.690639E+04
       312  10 -2.031537E+06 -2.942193E+05 -2.913121E+04 -7.584777E+05  6.888384E-06  6.846505E-06
       312  11 -2.024885E+06 -2.849988E+05 -4.093572E+04 -7.573068E+05  4.069567E-06  3.854749E-06
       312  12 -2.036745E+06 -3.280451E+05 -7.841515E+04 -7.448144E+05  1.070315E-06  8.879119E-07
       312  13 -1.992487E+06 -2.791787E+05 -1.829151E+04 -7.475879E+05  2.200985E-05  2.845082E-06
       312  14 -1.985671E+06 -2.703142E+05 -3.013511E+04 -7.468020E+05  1.240809E-05  1.600532E-06
       312  15 -1.997364E+06 -3.137140E+05 -6.765101E+04 -7.346949E+05  2.796064E-06  3.614746E-07
       312  16 -1.953436E+06 -2.641381E+05 -7.451955E+03 -7.366974E+05  6.444677E-06  6.815776E-06
       312  17 -1.946455E+06 -2.556294E+05 -1.933465E+04 -7.362966E+05  3.456304E-06  3.840286E-06
       312  18 -1.957982E+06 -2.993828E+05 -5.688701E+04 -7.245748E+05  6.244349E-07  8.518656E-07
       312  19 -2.031537E+06 -2.942192E+05 -2.913085E+04 -7.584776E+05 -1.288747E+04 -4.875176E+03
       312  20 -2.024884E+06 -2.849985E+05 -4.093391E+04 -7.573066E+05 -2.899443E+04 -1.095172E+04
       312  21 -2.036743E+06 -3.280442E+05 -7.841077E+04 -7.448138E+05 -4.514652E+04 -1.690711E+04
       312  22 -1.992487E+06 -2.791786E+05 -1.829115E+04 -7.475878E+05 -1.289008E+04 -4.876164E+03
       312  23 -1.985670E+06 -2.703138E+05 -3.013330E+04 -7.468018E+05 -2.899532E+04 -1.095205E+04
       312  24 -1.997362E+06 -3.137131E+05 -6.764663E+04 -7.346943E+05 -4.514569E+04 -1.690675E+04
       312  25 -1.953435E+06 -2.641380E+05 -7.451595E+03 -7.366974E+05 -1.289270E+04 -4.877153E+03
       312  26 -1.946454E+06 -2.556291E+05 -1.933284E+04 -7.362964E+05 -2.899621E+04 -1.095237E+04
       312  27 -1.957980E+06 -2.993819E+05 -5.688263E+04 -7.245742E+05 -4.514485E+04 -1.690639E+04
       313   1 -1.946289E+06 -2.526363E+05 -6.491196E+04 -7.389540E+05  5.771242E+04  2.152003E+04
       313   2 -1.897944E+06 -2.020699E+05 -1.117545E+05 -7.403339E+05  1.289450E+05  4.822169E+04
       313   3 -1.982082E+06 -4.686577E+05 -2.993953E+05 -6.523147E+05  2.000796E+05  7.519275E+04
       313   4 -2.008820E+06 -2.745075E+05 -8.182587E+04 -7.541117E+05  5.770621E+04  2.151791E+04
       313   5 -1.958216E+06 -2.257110E+05 -1.285691E+05 -7.575836E+05  1.289382E+05  4.821891E+04
       313   6 -2.040107E+06 -4.940877E+05 -3.161207E+05 -6.716532E+05  2.000724E+05  7.518866E+04
       313   7 -2.071347E+06 -2.963787E+05 -9.874014E+04 -7.692680E+05  5.770000E+04  2.151579E+04
       313   8 -2.018485E+06 -2.493519E+05 -1.453840E+05 -7.748318E+05  1.289314E+05  4.821613E+04
       313   9 -2.098128E+06 -5.195172E+05 -3.328466E+05 -6.909899E+05  2.000653E+05  7.518457E+04
       313  10 -1.946292E+06 -2.526377E+05 -6.491911E+04 -7.389550E+05  4.409263E-08  2.138680E-09
       313  11 -1.897962E+06 -2.020769E+05 -1.117902E+05 -7.403389E+05 -1.164444E-08  5.310200E-09
       313  12 -1.982126E+06 -4.686745E+05 -2.994814E+05 -6.523268E+05 -1.136633E-08  3.664775E-09
       313  13 -2.008823E+06 -2.745089E+05 -8.183303E+04 -7.541127E+05 -3.284710E-09  3.857768E-09
       313  14 -1.958235E+06 -2.257180E+05 -1.286048E+05 -7.575887E+05 -7.293771E-10  5.826292E-09
       313  15 -2.040151E+06 -4.941046E+05 -3.162069E+05 -6.716653E+05 -7.750217E-10  1.953479E-09
       313  16 -2.071351E+06 -2.963801E+05 -9.874729E+04 -7.692690E+05 -4.903435E-08  1.430296E-08
       313  17 -2.018504E+06 -2.493589E+05 -1.454198E+05 -7.748368E+05  6.617833E-09  3.497269E-09
       313  18 -2.098173E+06 -5.195341E+05 -3.329327E+05 -6.910021E+05  9.226212E-09 -4.416689E-10
       313  19 -1.946289E+06 -2.526363E+05 -6.491196E+04 -7.389540E+05 -5.771242E+04 -2.152003E+04
       313  20 -1.897944E+06 -2.020699E+05 -1.117545E+05 -7.403339E+05 -1.289450E+05 -4.822169E+04
       313  21 -1.982082E+06 -4.686577E+05 -2.993953E+05 -6.523147E+05 -2.000796E+05 -7.519275E+04
       313  22 -2.008820E+06 -2.745075E+05 -8.182587E+04 -7.541117E+05 -5.770621E+04 -2.151791E+04
       313  23 -1.958216E+06 -2.257110E+05 -1.285691E+05 -7.575836E+05 -1.289382E+05 -4.821891E+04
       313  24 -2.040107E+06 -4.940877E+05 -3.161207E+05 -6.716532E+05 -2.000724E+05 -7.518866E+04
       313  25 -2.071347E+06 -2.963787E+05 -9.874014E+04 -7.692680E+05 -5.770000E+04 -2.151579E+04
       313  26 -2.018485E+06 -2.493519E+05 -1.453840E+05 -7.748318E+05 -1.289314E+05 -4.821613E+04
       313  27 -2.098128E+06 -5.195172E+05 -3.328466E+05 -6.909899E+05 -2.000653E+05 -7.518457E+04
       314   1  4.899097E+06  1.110222E+06  1.467494E+06  1.096027E+03  1.027243E+06  3.585292E+03
       314   2  4.669747E+06 -3.109308E+05  6.062916E+05  2.495206E+04  6.768312E+05  1.414565E+03
       314   3  4.910495E+06 -6.768356E+04  3.904003E+05 -2.364630E+04  3.263757E+05  1.268846E+02
       314   4  5.039482E+06  1.144948E+06  1.502344E+06 -1.789741E+04  1.027366E+06  3.553926E+03
       314   5  4.805738E+06 -2.771272E+05  6.400958E+05  2.027926E+04  6.769053E+05  1.409441E+03
       314   6  5.042002E+06 -3.498682E+04  4.230898E+05 -1.400169E+04  3.264037E+05  1.319156E+02
       314   7  5.179884E+06  1.179673E+06  1.537192E+06 -3.689513E+04  1.027488E+06  3.522558E+03
       314   8  4.941746E+06 -2.433249E+05  6.738987E+05  1.560543E+04  6.769793E+05  1.404317E+03
       314   9  5.173525E+06 -2.291030E+03  4.557780E+05 -4.355065E+03  3.264317E+05  1.369466E+02
       314  10  4.897972E+06  1.109941E+06  1.465527E+06  1.093072E+03 -1.427059E-09  1.938577E-08
       314  11  4.669258E+06 -3.110526E+05  6.054374E+05  2.495130E+04 -2.434814E-09  3.707264E-08
       314  12  4.910381E+06 -6.771187E+04  3.902017E+05 -2.364633E+04  4.854130E-09 -7.694795E-09
       314  13  5.038356E+06  1.144667E+06  1.500376E+06 -1.790035E+04 -1.638982E-11  1.473283E-08
       314  14  4.805249E+06 -2.772489E+05  6.392416E+05  2.027849E+04 -2.547061E-09  3.193687E-08
       314  15  5.041888E+06 -3.501513E+04  4.228912E+05 -1.400173E+04  3.072897E-10  6.470547E-09
       314  16  5.178759E+06  1.179393E+06  1.535224E+06 -3.689805E+04  2.181761E-09  8.613333E-09
       314  17  4.941257E+06 -2.434466E+05  6.730445E+05  1.560466E+04 -1.142356E-09  3.252435E-08
       314  18  5.173411E+06 -2.319336E+03  4.555794E+05 -4.355101E+03 -5.233646E-09  2.092664E-08
       314  19  4.899097E+06  1.110222E+06  1.467494E+06  1.096027E+03 -1.027243E+06 -3.585292E+03
       314  20  4.669747E+06 -3.109308E+05  6.062916E+05  2.495206E+04 -6.768312E+05 -1.414565E+03
       314  21  4.910495E+06 -6.768356E+04  3.904003E+05 -2.364630E+04 -3.263757E+05 -1.268846E+02
       314  22  5.039482E+06  1.144948E+06  1.502344E+06 -1.789741E+04 -1.027366E+06 -3.553926E+03
       314  23  4.805738E+06 -2.771272E+05  6.400958E+05  2.027926E+04 -6.769053E+05 -1.409441E+03
       314  24  5.042002E+06 -3.498682E+04  4.230898E+05 -1.400169E+04 -3.264037E+05 -1.319156E+02
       314  25  5.179884E+06  1.179673E+06  1.537192E+06 -3.689513E+04 -1.027488E+06 -3.522558E+03
       314  26  4.941746E+06 -2.433249E+05  6.738987E+05  1.560543E+04 -6.769793E+05 -1.404317E+03
       314  27  5.173525E+06 -2.291030E+03  4.557780E+05 -4.355065E+03 -3.264317E+05 -1.369466E+02
       315   1  4.979493E+06  1.858618E+05  3.564805E+05  6.657095E+03  2.556182E+05 -8.055818E+01
       315   2  4.940615E+06 -3.730311E+04  1.722891E+05 -1.620742E+03  1.680778E+05 -6.471409E+01
       315   3  4.978497E+06  5.994316E+02  1.101142E+05  2.150630E+03  8.054180E+04 -6.586491E+00
       315   4  4.953883E+06  1.794974E+05  3.501143E+05  3.755464E+03  2.556103E+05 -8.174372E+01
       315   5  4.915774E+06 -4.347956E+04  1.661138E+05 -2.301958E+03  1.680740E+05 -6.489733E+01
       315   6  4.954427E+06 -5.384200E+03  1.041304E+05  3.689799E+03  8.054205E+04 -6.387747E+00
       315   7  4.928274E+06  1.731330E+05  3.437480E+05  8.539517E+02  2.556023E+05 -8.292924E+01
       315   8  4.890934E+06 -4.965606E+04  1.599384E+05 -2.983146E+03  1.680702E+05 -6.508058E+01
       315   9  4.930357E+06 -1.136787E+04  9.814656E+04  5.228910E+03  8.054231E+04 -6.188997E+00
       315  10  4.979423E+06  1.858444E+05  3.563587E+05  6.657111E+03 -1.021292E-06 -1.557198E-07
       315  11  4.940585E+06 -3.731062E+04  1.722365E+05 -1.620736E+03 -4.629973E-06 -4.558081E-07
       315  12  4.978490E+06  5.977083E+02  1.101021E+05  2.150626E+03 -8.291867E-06 -6.284797E-07
       315  13  4.953813E+06  1.794800E+05  3.499925E+05  3.755481E+03 -2.639508E-06  9.428516E-08
       315  14  4.915744E+06 -4.348707E+04  1.660611E+05 -2.301949E+03 -1.170870E-05  4.416271E-07
       315  15  4.954420E+06 -5.385925E+03  1.041183E+05  3.689800E+03 -2.077714E-05  7.845529E-07
       315  16  4.928204E+06  1.731156E+05  3.436262E+05  8.539692E+02 -1.091174E-06 -1.321799E-08
       315  17  4.890904E+06 -4.966357E+04  1.598857E+05 -2.983135E+03 -4.737231E-06 -2.258418E-07
       315  18  4.930350E+06 -1.136959E+04  9.813447E+04  5.228914E+03 -8.329487E-06 -6.202893E-07
       315  19  4.979493E+06  1.858618E+05  3.564805E+05  6.657094E+03 -2.556182E+05  8.055818E+01
       315  20  4.940615E+06 -3.730311E+04  1.722891E+05 -1.620747E+03 -1.680778E+05  6.471409E+01
       315  21  4.978497E+06  5.994340E+02  1.101142E+05  2.150622E+03 -8.054180E+04  6.586490E+00
       315  22  4.953883E+06  1.794974E+05  3.501143E+05  3.755464E+03 -2.556103E+05  8.174372E+01
       315  23  4.915774E+06 -4.347956E+04  1.661138E+05 -2.301958E+03 -1.680740E+05  6.489733E+01
       315  24  4.954427E+06 -5.384200E+03  1.041304E+05  3.689799E+03 -8.054205E+04  6.387748E+00
       315  25  4.928274E+06  1.731330E+05  3.437480E+05  8.539527E+02 -2.556023E+05  8.292924E+01
       315  26  4.890934E+06 -4.965606E+04  1.599384E+05 -2.983142E+03 -1.680702E+05  6.508058E+01
       315  27  4.930357E+06 -1.136787E+04  9.814656E+04  5.228918E+03 -8.054231E+04  6.188995E+00
       316   1  4.935424E+06  2.687048E+04  8.250122E+04  9.526044E+02  6.339888E+04  2.282991E+01
       316   2  4.929084E+06 -7.963346E+03  4.170063E+04  1.725575E+03  4.136009E+04  1.951539E+01
       316   3  4.935820E+06 -1.847402E+03  2.540590E+04  2.895019E+02  1.932137E+04  8.540687E+00
       316   4  4.940164E+06  2.804868E+04  8.367963E+04  5.301685E+02  6.339938E+04  2.278714E+01
       316   5  4.933682E+06 -6.819997E+03  4.284389E+04  1.639198E+03  4.136026E+04  1.950966E+01
       316   6  4.940277E+06 -7.390194E+02  2.651411E+04  5.391924E+02  1.932122E+04  8.548344E+00
       316   7  4.944904E+06  2.922688E+04  8.485804E+04  1.077295E+02  6.339989E+04  2.274437E+01
       316   8  4.938281E+06 -5.676649E+03  4.398715E+04  1.552821E+03  4.136043E+04  1.950393E+01
       316   9  4.944734E+06  3.693616E+02  2.762232E+04  7.888847E+02  1.932107E+04  8.556004E+00
       316  10  4.935420E+06  2.686941E+04  8.249372E+04  9.526003E+02 -6.051664E-06 -2.979513E-07
       316  11  4.929082E+06 -7.963801E+03  4.169744E+04  1.725577E+03  5.595763E-06  5.972122E-07
       316  12  4.935819E+06 -1.847503E+03  2.540521E+04  2.895101E+02  1.733433E-05  1.128341E-06
       316  13  4.940160E+06  2.804761E+04  8.367213E+04  5.301674E+02 -1.490897E-05  6.162045E-07
       316  14  4.933680E+06 -6.820452E+03  4.284070E+04  1.639198E+03  1.431908E-05 -2.882476E-07
       316  15  4.940276E+06 -7.391186E+02  2.651342E+04  5.391923E+02  4.354632E-05 -1.196501E-06
       316  16  4.944900E+06  2.922581E+04  8.485054E+04  1.077312E+02 -5.873644E-06 -6.783030E-07
       316  17  4.938279E+06 -5.677104E+03  4.398396E+04  1.552817E+03  5.858518E-06 -9.973852E-08
       316  18  4.944734E+06  3.692642E+02  2.762163E+04  7.888762E+02  1.750037E-05  8.234597E-07
       316  19  4.935424E+06  2.687048E+04  8.250122E+04  9.525986E+02 -6.339888E+04 -2.282991E+01
       316  20  4.929084E+06 -7.963347E+03  4.170063E+04  1.725581E+03 -4.136009E+04 -1.951539E+01
       316  21  4.935820E+06 -1.847405E+03  2.540590E+04  2.895186E+02 -1.932137E+04 -8.540685E+00
       316  22  4.940164E+06  2.804868E+04  8.367963E+04  5.301685E+02 -6.339938E+04 -2.278714E+01
       316  23  4.933682E+06 -6.819997E+03  4.284389E+04  1.639198E+03 -4.136026E+04 -1.950966E+01
       316  24  4.940277E+06 -7.390193E+02  2.651411E+04  5.391924E+02 -1.932122E+04 -8.548346E+00
       316  25  4.944904E+06  2.922688E+04  8.485803E+04  1.077353E+02 -6.339989E+04 -2.274437E+01
       316  26  4.938281E+06 -5.676648E+03  4.398715E+04  1.552815E+03 -4.136043E+04 -1.950393E+01
       316  27  4.944734E+06  3.693653E+02  2.762232E+04  7.888680E+02 -1.932107E+04 -8.556002E+00
       317   1  4.938821E+06  4.561628E+03  2.149794E+04  1.177885E+03  1.496537E+04  3.153154E+00
       317   2  4.937517E+06 -9.557194E+02  1.281336E+04  9.247072E+02  8.587674E+03 -1.653416E-01
       317   3  4.938791E+06  5.602431E+02  1.001490E+04  1.071217E+03  2.210007E+03 -4.528379E-01
       317   4  4.937929E+06  4.339627E+03  2.127596E+04  1.115528E+03  1.496527E+04  3.151644E+00
       317   5  4.936650E+06 -1.171298E+03  1.259781E+04  9.160579E+02  8.587653E+03 -1.654640E-01
       317   6  4.937949E+06  3.510793E+02  9.805726E+03  1.116275E+03  2.210067E+03 -4.526658E-01
       317   7  4.937036E+06  4.117625E+03  2.105398E+04  1.053172E+03  1.496517E+04  3.150139E+00
       317   8  4.935783E+06 -1.386876E+03  1.238226E+04  9.074086E+02  8.587632E+03 -1.655837E-01
       317   9  4.937108E+06  1.419155E+02  9.596555E+03  1.161333E+03  2.210127E+03 -4.524933E-01
       317  10  4.938821E+06  4.561566E+03  2.149752E+04  1.177894E+03  1.844491E-05  9.659674E-07
       317  11  4.937516E+06 -9.557401E+02  1.281322E+04  9.247121E+02  1.017416E-05  3.233131E-07
       317  12  4.938791E+06  5.602416E+02  1.001489E+04  1.071218E+03  1.842619E-06 -4.472479E-08
       317  13  4.937929E+06  4.339567E+03  2.127554E+04  1.115528E+03  4.600366E-05 -1.294320E-06
       317  14  4.936649E+06 -1.171317E+03  1.259767E+04  9.160579E+02  2.523255E-05 -7.131743E-07
       317  15  4.937949E+06  3.510780E+02  9.805717E+03  1.116275E+03  4.455553E-06 -1.252731E-07
       317  16  4.937036E+06  4.117568E+03  2.105356E+04  1.053163E+03  1.835924E-05  1.118495E-06
       317  17  4.935782E+06 -1.386895E+03  1.238212E+04  9.074038E+02  1.000744E-05  8.421705E-07
       317  18  4.937108E+06  1.419144E+02  9.596546E+03  1.161332E+03  1.720880E-06  2.821681E-07
       317  19  4.938821E+06  4.561624E+03  2.149794E+04  1.177903E+03 -1.496537E+04 -3.153152E+00
       317  20  4.937517E+06 -9.557215E+02  1.281336E+04  9.247169E+02 -8.587674E+03  1.653422E-01
       317  21  4.938791E+06  5.602427E+02  1.001490E+04  1.071219E+03 -2.210007E+03  4.528378E-01
       317  22  4.937929E+06  4.339627E+03  2.127596E+04  1.115528E+03 -1.496527E+04 -3.151647E+00
       317  23  4.936650E+06 -1.171298E+03  1.259781E+04  9.160579E+02 -8.587653E+03  1.654626E-01
       317  24  4.937949E+06  3.510793E+02  9.805726E+03  1.116275E+03 -2.210067E+03  4.526656E-01
       317  25  4.937036E+06  4.117629E+03  2.105398E+04  1.053154E+03 -1.496517E+04 -3.150136E+00
       317  26  4.935783E+06 -1.386874E+03  1.238226E+04  9.073989E+02 -8.587632E+03  1.655855E-01
       317  27  4.937108E+06  1.419160E+02  9.596555E+03  1.161332E+03 -2.210127E+03  4.524938E-01
       318   1  4.937583E+06  5.244863E+02  9.316537E+03  1.054082E+03  4.628340E+02  2.693953E-01
       318   2  4.936570E+06 -9.635304E+02  1.013061E+04  1.031546E+03 -4.690493E+03 -4.983748E-01
       318   3  4.937577E+06  2.977937E+03  1.563735E+04  9.713706E+02 -9.843757E+03 -1.897911E+00
       318   4  4.937825E+06  5.844396E+02  9.376503E+03  1.018990E+03  4.628496E+02  2.693727E-01
       318   5  4.936809E+06 -9.041519E+02  1.018998E+04  1.037558E+03 -4.690494E+03 -4.984198E-01
       318   6  4.937813E+06  3.036742E+03  1.569613E+04  1.018486E+03 -9.843775E+03 -1.898656E+00
       318   7  4.938066E+06  6.443930E+02  9.436469E+03  9.838983E+02  4.628651E+02  2.693500E-01
       318   8  4.937047E+06 -8.447734E+02  1.024935E+04  1.043570E+03 -4.690495E+03 -4.984650E-01
       318   9  4.938049E+06  3.095548E+03  1.575492E+04  1.065602E+03 -9.843794E+03 -1.899400E+00
       318  10  4.937583E+06  5.244863E+02  9.316537E+03  1.054081E+03 -7.318426E-07 -7.446805E-08
       318  11  4.936570E+06 -9.635362E+02  1.013057E+04  1.031545E+03 -1.112655E-06 -4.027771E-08
       318  12  4.937576E+06  2.977911E+03  1.563717E+04  9.713699E+02 -1.476409E-06 -7.511827E-08
       318  13  4.937825E+06  5.844396E+02  9.376502E+03  1.018990E+03 -1.861087E-06  4.593615E-08
       318  14  4.936808E+06 -9.041578E+02  1.018994E+04  1.037558E+03 -2.782773E-06  4.770425E-08
       318  15  4.937813E+06  3.036717E+03  1.569595E+04  1.018486E+03 -3.698841E-06  6.125798E-08
       318  16  4.938066E+06  6.443929E+02  9.436468E+03  9.838986E+02 -7.556736E-07  2.615336E-08
       318  17  4.937047E+06 -8.447794E+02  1.024931E+04  1.043571E+03 -1.111365E-06 -6.347961E-08
       318  18  4.938049E+06  3.095522E+03  1.575474E+04  1.065602E+03 -1.482649E-06 -1.144692E-08
       318  19  4.937583E+06  5.244864E+02  9.316537E+03  1.054081E+03 -4.628340E+02 -2.693955E-01
       318  20  4.936570E+06 -9.635303E+02  1.013061E+04  1.031545E+03  4.690493E+03  4.983747E-01
       318  21  4.937577E+06  2.977937E+03  1.563735E+04  9.713692E+02  9.843757E+03  1.897911E+00
       318  22  4.937825E+06  5.844396E+02  9.376503E+03  1.018990E+03 -4.628496E+02 -2.693726E-01
       318  23  4.936809E+06 -9.041519E+02  1.018998E+04  1.037558E+03  4.690494E+03  4.984199E-01
       318  24  4.937813E+06  3.036742E+03  1.569613E+04  1.018486E+03  9.843775E+03  1.898656E+00
       318  25  4.938066E+06  6.443929E+02  9.436469E+03  9.838990E+02 -4.628651E+02 -2.693500E-01
       318  26  4.937047E+06 -8.447736E+02  1.024935E+04  1.043571E+03  4.690495E+03  4.984649E-01
       318  27  4.938049E+06  3.095548E+03  1.575492E+04  1.065603E+03  9.843794E+03  1.899400E+00
       319   1  4.939872E+06 -3.555072E+02  1.928644E+04  1.159486E+03 -1.302211E+04 -3.128424E+00
       319   2  4.935245E+06 -4.680844E+03  3.044069E+04  1.020367E+03 -2.861771E+04 -6.977444E+00
       319   3  4.939818E+06  1.979335E+04  5.888937E+04  6.823385E+02 -4.421375E+04 -9.928086E+00
       319   4  4.939419E+06 -4.680934E+02  1.917393E+04  9.845083E+02 -1.302213E+04 -3.124787E+00
       319   5  4.934780E+06 -4.796442E+03  3.032508E+04  1.081758E+03 -2.861770E+04 -6.980254E+00
       319   6  4.939341E+06  1.967475E+04  5.877065E+04  9.801003E+02 -4.421370E+04 -9.949127E+00
       319   7  4.938967E+06 -5.806795E+02  1.906142E+04  8.095311E+02 -1.302215E+04 -3.121150E+00
       319   8  4.934315E+06 -4.912040E+03  3.020947E+04  1.143149E+03 -2.861769E+04 -6.983063E+00
       319   9  4.938863E+06  1.955614E+04  5.865192E+04  1.277862E+03 -4.421366E+04 -9.970168E+00
       319  10  4.939871E+06 -3.555522E+02  1.928612E+04  1.159485E+03 -1.272862E-06 -3.084346E-08
       319  11  4.935244E+06 -4.681062E+03  3.043916E+04  1.020367E+03 -1.838612E-07  6.221528E-08
       319  12  4.939816E+06  1.979283E+04  5.888573E+04  6.823386E+02  9.268394E-07 -1.512685E-07
       319  13  4.939419E+06 -4.681385E+02  1.917362E+04  9.845082E+02 -3.170834E-06  5.489559E-08
       319  14  4.934779E+06 -4.796660E+03  3.032355E+04  1.081758E+03 -4.361193E-07  1.773091E-08
       319  15  4.939339E+06  1.967423E+04  5.876700E+04  9.800999E+02  2.298916E-06 -2.685214E-08
       319  16  4.938967E+06 -5.807246E+02  1.906111E+04  8.095317E+02 -1.269163E-06 -5.940948E-08
       319  17  4.934314E+06 -4.912257E+03  3.020794E+04  1.143149E+03 -1.624403E-07 -8.506250E-08
       319  18  4.938861E+06  1.955562E+04  5.864828E+04  1.277861E+03  9.131924E-07  1.868289E-07
       319  19  4.939872E+06 -3.555070E+02  1.928644E+04  1.159484E+03  1.302211E+04  3.128424E+00
       319  20  4.935245E+06 -4.680844E+03  3.044069E+04  1.020367E+03  2.861771E+04  6.977444E+00
       319  21  4.939818E+06  1.979335E+04  5.888937E+04  6.823394E+02  4.421375E+04  9.928085E+00
       319  22  4.939419E+06 -4.680934E+02  1.917393E+04  9.845083E+02  1.302213E+04  3.124787E+00
       319  23  4.934780E+06 -4.796442E+03  3.032508E+04  1.081758E+03  2.861770E+04  6.980254E+00
       319  24  4.939341E+06  1.967475E+04  5.877065E+04  9.801003E+02  4.421370E+04  9.949127E+00
       319  25  4.938967E+06 -5.806796E+02  1.906142E+04  8.095323E+02  1.302215E+04  3.121150E+00
       319  26  4.934315E+06 -4.912040E+03  3.020947E+04  1.143150E+03  2.861769E+04  6.983063E+00
       319  27  4.938863E+06  1.955614E+04  5.865192E+04  1.277861E+03  4.421366E+04  9.970168E+00
       320   1  4.946998E+06 -4.346396E+03  7.244680E+04  2.363376E+03 -5.624012E+04 -9.511735E+00
       320   2  4.919934E+06 -3.107060E+04  1.157366E+05  2.370895E+02 -1.175449E+05 -1.619807E+01
       320   3  4.946466E+06  1.252428E+05  2.444815E+05 -7.793336E+02 -1.788511E+05 -2.803508E+01
       320   4  4.949284E+06 -3.778459E+03  7.301515E+04  1.281242E+03 -5.624005E+04 -9.414401E+00
       320   5  4.922292E+06 -3.048394E+04  1.163229E+05  7.162418E+02 -1.175452E+05 -1.628809E+01
       320   6  4.948896E+06  1.258479E+05  2.450859E+05  1.261117E+03 -1.788517E+05 -2.861847E+01
       320   7  4.951571E+06 -3.210518E+03  7.358350E+04  1.991047E+02 -5.623998E+04 -9.317069E+00
       320   8  4.924651E+06 -2.989729E+04  1.169093E+05  1.195396E+03 -1.175454E+05 -1.637811E+01
       320   9  4.951327E+06  1.264530E+05  2.456903E+05  3.301575E+03 -1.788523E+05 -2.920186E+01
       320  10  4.946994E+06 -4.347236E+03  7.244090E+04  2.363371E+03 -8.727861E-06 -7.643321E-07
       320  11  4.919919E+06 -3.107427E+04  1.157108E+05  2.370672E+02 -4.320828E-05 -1.734803E-06
       320  12  4.946432E+06  1.252343E+05  2.444219E+05 -7.793750E+02 -7.776058E-05 -1.681866E-06
       320  13  4.949281E+06 -3.779300E+03  7.300925E+04  1.281242E+03 -2.200751E-05  1.546363E-07
       320  14  4.922278E+06 -3.048761E+04  1.162972E+05  7.162402E+02 -1.082746E-04  8.290512E-07
       320  15  4.948862E+06  1.258394E+05  2.450263E+05  1.261113E+03 -1.945525E-04  1.517669E-06
       320  16  4.951567E+06 -3.211359E+03  7.357760E+04  1.991085E+02 -8.876317E-06  4.675634E-07
       320  17  4.924636E+06 -2.990096E+04  1.168836E+05  1.195415E+03 -4.341077E-05  3.252555E-07
       320  18  4.951293E+06  1.264444E+05  2.456307E+05  3.301608E+03 -7.788097E-05 -8.255319E-07
       320  19  4.946998E+06 -4.346395E+03  7.244680E+04  2.363368E+03  5.624012E+04  9.511733E+00
       320  20  4.919934E+06 -3.107059E+04  1.157366E+05  2.370480E+02  1.175449E+05  1.619806E+01
       320  21  4.946466E+06  1.252428E+05  2.444815E+05 -7.794083E+02  1.788511E+05  2.803507E+01
       320  22  4.949284E+06 -3.778459E+03  7.301515E+04  1.281242E+03  5.624005E+04  9.414402E+00
       320  23  4.922292E+06 -3.048394E+04  1.163229E+05  7.162418E+02  1.175452E+05  1.628809E+01
       320  24  4.948896E+06  1.258479E+05  2.450859E+05  1.261117E+03  1.788517E+05  2.861847E+01
       320  25  4.951571E+06 -3.210518E+03  7.358350E+04  1.991131E+02  5.623998E+04  9.317070E+00
       320  26  4.924651E+06 -2.989729E+04  1.169093E+05  1.195437E+03  1.175454E+05  1.637812E+01
       320  27  4.951327E+06  1.264529E+05  2.456903E+05  3.301649E+03  1.788523E+05  2.920187E+01
       321   1  5.021540E+06 -2.167879E+04  2.988053E+05  6.405472E+03 -2.283139E+05 -5.803864E+01
       321   2  4.859879E+06 -1.906342E+05  4.513105E+05 -5.609613E+02 -4.737056E+05 -1.868607E+02
       321   3  5.020463E+06  8.042451E+05  1.053843E+06 -1.431001E+04 -7.190727E+05 -3.570877E+02
       321   4  5.009133E+06 -2.476672E+04  2.957205E+05 -3.554649E+02 -2.283122E+05 -5.557169E+01
       321   5  4.847054E+06 -1.938205E+05  4.481229E+05  2.828491E+03 -4.737007E+05 -1.894286E+02
       321   6  5.007226E+06  8.009720E+05  1.050557E+06 -7.681898E+02 -7.190644E+05 -3.726553E+02
       321   7  4.996726E+06 -2.785450E+04  2.926357E+05 -7.116268E+03 -2.283105E+05 -5.310473E+01
       321   8  4.834229E+06 -1.970069E+05  4.449353E+05  6.217875E+03 -4.736958E+05 -1.919964E+02
       321   9  4.993990E+06  7.976997E+05  1.047271E+06  1.277334E+04 -7.190561E+05 -3.882228E+02
       321  10  5.021484E+06 -2.169264E+04  2.987081E+05  6.405424E+03 -7.802757E-05 -8.653533E-07
       321  11  4.859640E+06 -1.906938E+05  4.508921E+05 -5.610536E+02 -4.404498E-05  3.460302E-07
       321  12  5.019912E+06  8.041076E+05  1.052879E+06 -1.431022E+04 -9.966110E-06  2.680393E-07
       321  13  5.009077E+06 -2.478058E+04  2.956233E+05 -3.554752E+02 -1.949310E-04  1.521356E-06
       321  14  4.846815E+06 -1.938802E+05  4.477046E+05  2.828420E+03 -1.098549E-04  8.451646E-07
       321  15  5.006675E+06  8.008346E+05  1.049593E+06 -7.684051E+02 -2.476472E-05  1.882973E-07
       321  16  4.996670E+06 -2.786836E+04  2.925386E+05 -7.116241E+03 -7.791132E-05 -1.644932E-06
       321  17  4.833990E+06 -1.970665E+05  4.445170E+05  6.217823E+03 -4.384031E-05 -1.788216E-06
       321  18  4.993438E+06  7.975622E+05  1.046308E+06  1.277313E+04 -9.841729E-06 -5.975304E-07
       321  19  5.021540E+06 -2.167878E+04  2.988053E+05  6.405398E+03  2.283139E+05  5.803862E+01
       321  20  4.859879E+06 -1.906342E+05  4.513105E+05 -5.610035E+02  4.737056E+05  1.868607E+02
       321  21  5.020463E+06  8.042451E+05  1.053843E+06 -1.431002E+04  7.190727E+05  3.570877E+02
       321  22  5.009133E+06 -2.476672E+04  2.957205E+05 -3.554649E+02  2.283122E+05  5.557169E+01
       321  23  4.847054E+06 -1.938205E+05  4.481229E+05  2.828492E+03  4.737007E+05  1.894286E+02
       321  24  5.007226E+06  8.009720E+05  1.050557E+06 -7.681898E+02  7.190644E+05  3.726553E+02
       321  25  4.996726E+06 -2.785451E+04  2.926357E+05 -7.116193E+03  2.283105E+05  5.310474E+01
       321  26  4.834229E+06 -1.970069E+05  4.449353E+05  6.217917E+03  4.736958E+05  1.919965E+02
       321  27  4.993990E+06  7.976997E+05  1.047271E+06  1.277335E+04  7.190561E+05  3.882228E+02
       322   1  4.748964E+05  7.760776E+05  6.299633E+05 -5.956688E+03 -1.644841E+03  4.327892E+05
       322   2 -1.363905E+05  6.753659E+05  2.650310E+05 -5.874687E+03 -9.251182E+02  2.791469E+05
       322   3 -2.513986E+04  7.773621E+05  1.811969E+05  4.660691E+03 -3.321509E+02  1.254944E+05
       322   4  4.910413E+05  8.410318E+05  6.461673E+05  2.181707E+03 -1.639144E+03  4.328151E+05
       322   5 -1.203215E+05  7.397476E+05  2.811073E+05 -3.960009E+03 -9.242375E+02  2.791617E+05
       322   6 -9.184519E+03  8.411532E+05  1.971324E+05  3.522752E+02 -3.330082E+02  1.254982E+05
       322   7  5.071861E+05  9.059901E+05  6.623710E+05  1.032096E+04 -1.633447E+03  4.328410E+05
       322   8 -1.042528E+05  8.041330E+05  2.971834E+05 -2.045129E+03 -9.233569E+02  2.791765E+05
       322   9  6.770584E+03  9.049480E+05  2.130676E+05 -3.956582E+03 -3.338656E+02  1.255020E+05
       322  10  4.748462E+05  7.758767E+05  6.296117E+05 -5.956115E+03 -5.320571E-10  6.721467E-10
       322  11 -1.364114E+05  6.752823E+05  2.648848E+05 -5.874479E+03  2.030877E-09 -5.098271E-09
       322  12 -2.514408E+04  7.773452E+05  1.811673E+05  4.660725E+03  1.086582E-10 -1.111408E-09
       322  13  4.909910E+05  8.408310E+05  6.458157E+05  2.182278E+03  1.660184E-09  3.986949E-09
       322  14 -1.203424E+05  7.396640E+05  2.809611E+05 -3.959801E+03 -2.749514E-09 -2.450138E-09
       322  15 -9.188740E+03  8.411363E+05  1.971028E+05  3.523088E+02  3.395388E-10  1.939566E-09
       322  16  5.071359E+05  9.057892E+05  6.620195E+05  1.032153E+04  4.128378E-11  2.504852E-09
       322  17 -1.042737E+05  8.040495E+05  2.970371E+05 -2.044922E+03  3.055801E-10  1.501754E-09
       322  18  6.766364E+03  9.049311E+05  2.130381E+05 -3.956548E+03 -2.099672E-10  3.982401E-10
       322  19  4.748964E+05  7.760776E+05  6.299633E+05 -5.956688E+03  1.644841E+03 -4.327892E+05
       322  20 -1.363905E+05  6.753659E+05  2.650310E+05 -5.874687E+03  9.251182E+02 -2.791469E+05
       322  21 -2.513986E+04  7.773621E+05  1.811969E+05  4.660691E+03  3.321509E+02 -1.254944E+05
       322  22  4.910413E+05  8.410318E+05  6.461673E+05  2.181707E+03  1.639144E+03 -4.328151E+05
       322  23 -1.203215E+05  7.397476E+05  2.811073E+05 -3.960009E+03  9.242375E+02 -2.791617E+05
       322  24 -9.184519E+03  8.411532E+05  1.971324E+05  3.522752E+02  3.330082E+02 -1.254982E+05
       322  25  5.071861E+05  9.059901E+05  6.623710E+05  1.032096E+04  1.633447E+03 -4.328410E+05
       322  26 -1.042528E+05  8.041330E+05  2.971834E+05 -2.045129E+03  9.233569E+02 -2.791765E+05
       322  27  6.770584E+03  9.049480E+05  2.130676E+05 -3.956582E+03  3.338656E+02 -1.255020E+05
       323   1  7.522169E+04  8.040200E+05  1.696691E+05 -2.795610E+03 -1.917741E+02  9.199938E+04
       323   2 -2.856018E+04  7.795762E+05  1.037463E+05 -1.630570E+03 -6.517041E+01  3.695296E+04
       323   3  3.480368E+04  8.040747E+05  1.154266E+05 -3.275430E+01  2.421513E+01 -1.809310E+04
       323   4  7.594405E+04  8.069410E+05  1.703968E+05 -1.231906E+03 -1.915406E+02  9.199861E+04
       323   5 -2.783594E+04  7.824783E+05  1.044710E+05 -1.486497E+03 -6.516142E+01  3.695285E+04
       323   6  3.552928E+04  8.069575E+05  1.161476E+05 -1.308308E+03  2.425117E+01 -1.809254E+04
       323   7  7.666642E+04  8.098620E+05  1.711246E+05  3.318047E+02 -1.913072E+02  9.199784E+04
       323   8 -2.711169E+04  7.853804E+05  1.051957E+05 -1.342422E+03 -6.515243E+01  3.695275E+04
       323   9  3.625488E+04  8.098403E+05  1.168687E+05 -2.583868E+03  2.428722E+01 -1.809199E+04
       323  10  7.521943E+04  8.040109E+05  1.696532E+05 -2.795596E+03  1.896893E-10  5.469134E-10
       323  11 -2.856055E+04  7.795748E+05  1.037437E+05 -1.630568E+03  2.089642E-09 -3.203831E-09
       323  12  3.480359E+04  8.040744E+05  1.154260E+05 -3.275394E+01  6.143026E-10 -8.294059E-10
       323  13  7.594178E+04  8.069319E+05  1.703809E+05 -1.231892E+03  1.015428E-09  2.234309E-09
       323  14 -2.783630E+04  7.824768E+05  1.044684E+05 -1.486495E+03  3.085915E-09 -2.000869E-09
       323  15  3.552919E+04  8.069572E+05  1.161470E+05 -1.308308E+03  2.887793E-09  9.387360E-10
       323  16  7.666415E+04  8.098530E+05  1.711087E+05  3.318188E+02  8.717061E-11  1.178991E-09
       323  17 -2.711205E+04  7.853789E+05  1.051932E+05 -1.342420E+03 -7.863830E-10  7.962316E-10
       323  18  3.625479E+04  8.098400E+05  1.168680E+05 -2.583867E+03  2.226409E-09  2.629883E-11
       323  19  7.522169E+04  8.040200E+05  1.696691E+05 -2.795610E+03  1.917741E+02 -9.199938E+04
       323  20 -2.856018E+04  7.795762E+05  1.037463E+05 -1.630570E+03  6.517041E+01 -3.695296E+04
       323  21  3.480368E+04  8.040747E+05  1.154266E+05 -3.275430E+01 -2.421513E+01  1.809310E+04
       323  22  7.594405E+04  8.069410E+05  1.703968E+05 -1.231906E+03  1.915406E+02 -9.199861E+04
       323  23 -2.783594E+04  7.824783E+05  1.044710E+05 -1.486497E+03  6.516142E+01 -3.695285E+04
       323  24  3.552928E+04  8.069575E+05  1.161476E+05 -1.308308E+03 -2.425117E+01  1.809254E+04
       323  25  7.666642E+04  8.098620E+05  1.711246E+05  3.318047E+02  1.913072E+02 -9.199784E+04
       323  26 -2.711169E+04  7.853804E+05  1.051957E+05 -1.342422E+03  6.515243E+01 -3.695275E+04
       323  27  3.625488E+04  8.098403E+05  1.168687E+05 -2.583868E+03 -2.428722E+01  1.809199E+04
       324   1  4.937883E+02  8.023987E+05  1.180601E+05 -4.074048E+03  4.388506E+01 -3.979617E+04
       324   2 -6.538449E+04  7.509491E+05  1.448096E+05  1.361055E+02  1.475613E+02 -1.209290E+05
       324   3  2.363876E+05  8.020731E+05  3.162935E+05  2.587091E+03  2.435493E+02 -2.020585E+05
       324   4  4.604433E+03  8.188933E+05  1.221776E+05 -1.892649E+03  4.374416E+01 -3.979620E+04
       324   5 -6.122919E+04  7.675696E+05  1.489612E+05 -8.646940E+02  1.477551E+02 -1.209308E+05
       324   6  2.405826E+05  8.188172E+05  3.204777E+05 -1.596076E+03  2.449085E+02 -2.020620E+05
       324   7  8.715075E+03  8.353882E+05  1.262952E+05  2.888072E+02  4.360326E+01 -3.979623E+04
       324   8 -5.707390E+04  7.841904E+05  1.531129E+05 -1.865520E+03  1.479489E+02 -1.209325E+05
       324   9  2.447777E+05  8.355616E+05  3.246619E+05 -5.779356E+03  2.462676E+02 -2.020655E+05
       324  10  4.933639E+02  8.023970E+05  1.180571E+05 -4.074047E+03 -7.099915E-10  2.902970E-10
       324  11 -6.538841E+04  7.509334E+05  1.447822E+05  1.361198E+02 -2.689847E-09 -2.573978E-09
       324  12  2.363766E+05  8.020293E+05  3.162168E+05  2.587131E+03 -2.162103E-09 -5.346245E-10
       324  13  4.604009E+03  8.188916E+05  1.221747E+05 -1.892648E+03 -1.611174E-09  1.810901E-09
       324  14 -6.123311E+04  7.675539E+05  1.489338E+05 -8.646796E+02 -2.916636E-09 -1.727599E-09
       324  15  2.405717E+05  8.187734E+05  3.204010E+05 -1.596036E+03 -2.129737E-09  1.026275E-09
       324  16  8.714651E+03  8.353865E+05  1.262922E+05  2.888086E+02  6.284314E-10  7.216791E-10
       324  17 -5.707782E+04  7.841747E+05  1.530854E+05 -1.865506E+03 -4.167548E-09  4.386353E-10
       324  18  2.447667E+05  8.355178E+05  3.245852E+05 -5.779316E+03 -3.415881E-09 -2.815874E-10
       324  19  4.937883E+02  8.023987E+05  1.180601E+05 -4.074048E+03 -4.388506E+01  3.979617E+04
       324  20 -6.538449E+04  7.509491E+05  1.448096E+05  1.361055E+02 -1.475613E+02  1.209290E+05
       324  21  2.363876E+05  8.020731E+05  3.162935E+05  2.587091E+03 -2.435493E+02  2.020585E+05
       324  22  4.604433E+03  8.188933E+05  1.221776E+05 -1.892649E+03 -4.374416E+01  3.979620E+04
       324  23 -6.122919E+04  7.675696E+05  1.489612E+05 -8.646940E+02 -1.477551E+02  1.209308E+05
       324  24  2.405826E+05  8.188172E+05  3.204777E+05 -1.596076E+03 -2.449085E+02  2.020620E+05
       324  25  8.715075E+03  8.353882E+05  1.262952E+05  2.888072E+02 -4.360326E+01  3.979623E+04
       324  26 -5.707390E+04  7.841904E+05  1.531129E+05 -1.865520E+03 -1.479489E+02  1.209325E+05
       324  27  2.447777E+05  8.355616E+05  3.246619E+05 -5.779356E+03 -2.462676E+02  2.020655E+05
       325   1 -5.172498E+06 -1.700547E+06 -8.435364E+05 -1.914948E+06 -3.405728E+05 -8.378665E+04
       325   2 -5.011942E+06 -1.452903E+06 -5.833247E+05 -1.855671E+06 -2.215454E+05  6.768328E+04
       325   3 -4.886801E+06 -1.338011E+06 -4.675401E+05 -1.802361E+06 -7.713597E+04  1.525230E+05
       325   4 -2.656933E+06 -6.593708E+05 -1.768737E+05 -1.130538E+06 -1.294152E+05 -3.837069E+03
       325   5 -2.640474E+06 -5.362080E+05 -8.236407E+04 -1.153151E+06 -1.216923E+05  1.054012E+05
       325   6 -2.637034E+06 -5.233610E+05 -4.328274E+04 -1.181786E+06 -8.869346E+04  1.480900E+05
       325   7 -1.350905E+05  3.825950E+05  4.894125E+05 -3.430863E+05  8.268170E+04  7.654635E+04
       325   8 -2.631764E+05  3.811261E+05  4.183261E+05 -4.480727E+05 -2.142552E+04  1.432925E+05
       325   9 -3.819092E+05  2.917509E+05  3.807803E+05 -5.591030E+05 -1.002963E+05  1.436403E+05
       325  10 -5.172625E+06 -1.700586E+06 -8.437698E+05 -1.914971E+06  4.718504E-10 -1.042229E-10
       325  11 -5.011996E+06 -1.452921E+06 -5.834260E+05 -1.855659E+06 -9.552112E-09 -3.448213E-09
       325  12 -4.886814E+06 -1.338038E+06 -4.675949E+05 -1.802352E+06 -7.381846E-09 -4.080118E-09
       325  13 -2.656951E+06 -6.593753E+05 -1.769053E+05 -1.130538E+06 -1.614741E-09  4.968240E-10
       325  14 -2.640493E+06 -5.362239E+05 -8.241276E+04 -1.153141E+06 -6.119534E-09 -8.648892E-09
       325  15 -2.637048E+06 -5.233867E+05 -4.333865E+04 -1.181776E+06 -4.413338E-09 -6.281066E-10
       325  16 -1.350994E+05  3.825869E+05  4.893886E+05 -3.430914E+05 -8.652483E-09 -8.512535E-10
       325  17 -2.631824E+05  3.811040E+05  4.182867E+05 -4.480702E+05 -7.580973E-09 -6.561557E-10
       325  18 -3.819255E+05  2.917261E+05  3.807227E+05 -5.590914E+05  2.074972E-09  1.352147E-10
       325  19 -5.172498E+06 -1.700547E+06 -8.435364E+05 -1.914948E+06  3.405728E+05  8.378665E+04
       325  20 -5.011942E+06 -1.452903E+06 -5.833247E+05 -1.855671E+06  2.215454E+05 -6.768328E+04
       325  21 -4.886801E+06 -1.338011E+06 -4.675401E+05 -1.802361E+06  7.713597E+04 -1.525230E+05
       325  22 -2.656933E+06 -6.593708E+05 -1.768737E+05 -1.130538E+06  1.294152E+05  3.837069E+03
       325  23 -2.640474E+06 -5.362080E+05 -8.236407E+04 -1.153151E+06  1.216923E+05 -1.054012E+05
       325  24 -2.637034E+06 -5.233610E+05 -4.328274E+04 -1.181786E+06  8.869346E+04 -1.480900E+05
       325  25 -1.350905E+05  3.825950E+05  4.894125E+05 -3.430863E+05 -8.268170E+04 -7.654635E+04
       325  26 -2.631764E+05  3.811261E+05  4.183261E+05 -4.480727E+05  2.142552E+04 -1.432925E+05
       325  27 -3.819092E+05  2.917509E+05  3.807803E+05 -5.591030E+05  1.002963E+05 -1.436403E+05
       326   1 -4.759943E+06 -1.305775E+06 -4.318064E+05 -1.777967E+06 -7.894780E+04  1.460305E+05
       326   2 -4.603102E+06 -1.220217E+06 -3.747298E+05 -1.714718E+06 -5.890447E+04  1.483218E+05
       326   3 -4.422408E+06 -1.169117E+06 -3.328776E+05 -1.682416E+06 -3.669765E+04  1.448512E+05
       326   4 -2.631101E+06 -5.254160E+05 -3.264482E+04 -1.179961E+06 -8.189588E+04  1.448560E+05
       326   5 -2.643353E+06 -5.056712E+05 -1.723853E+04 -1.165740E+06 -7.146047E+04  1.435311E+05
       326   6 -2.629854E+06 -5.184513E+05 -9.372775E+03 -1.182472E+06 -5.887087E+04  1.364523E+05
       326   7 -4.974820E+05  2.553814E+05  3.663384E+05 -5.800259E+05 -8.485487E+04  1.436775E+05
       326   8 -6.795457E+05  2.092438E+05  3.401131E+05 -6.151351E+05 -8.405907E+04  1.387244E+05
       326   9 -8.339100E+05  1.325165E+05  3.140184E+05 -6.811743E+05 -8.111271E+04  1.280278E+05
       326  10 -4.759955E+06 -1.305800E+06 -4.318581E+05 -1.777957E+06  2.203737E-10 -8.728917E-11
       326  11 -4.603111E+06 -1.220242E+06 -3.747776E+05 -1.714711E+06 -9.915095E-09 -2.565963E-09
       326  12 -4.422415E+06 -1.169140E+06 -3.329195E+05 -1.682412E+06 -7.387908E-09 -2.610074E-09
       326  13 -2.631114E+06 -5.254403E+05 -3.269678E+04 -1.179951E+06 -3.009590E-09 -3.308490E-09
       326  14 -2.643364E+06 -5.056946E+05 -1.728677E+04 -1.165732E+06 -9.897476E-09 -4.447507E-09
       326  15 -2.629863E+06 -5.184722E+05 -9.414215E+03 -1.182465E+06 -2.698716E-09 -1.448004E-09
       326  16 -4.974952E+05  2.553573E+05  3.662861E+05 -5.800161E+05 -6.270738E-09 -2.966504E-09
       326  17 -6.795584E+05  2.092213E+05  3.400637E+05 -6.151258E+05 -5.613681E-09 -2.404131E-09
       326  18 -8.339214E+05  1.324971E+05  3.139753E+05 -6.811660E+05  1.149368E-09 -7.952088E-10
       326  19 -4.759943E+06 -1.305775E+06 -4.318064E+05 -1.777967E+06  7.894780E+04 -1.460305E+05
       326  20 -4.603102E+06 -1.220217E+06 -3.747298E+05 -1.714718E+06  5.890447E+04 -1.483218E+05
       326  21 -4.422408E+06 -1.169117E+06 -3.328776E+05 -1.682416E+06  3.669765E+04 -1.448512E+05
       326  22 -2.631101E+06 -5.254160E+05 -3.264482E+04 -1.179961E+06  8.189588E+04 -1.448560E+05
       326  23 -2.643353E+06 -5.056712E+05 -1.723853E+04 -1.165740E+06  7.146047E+04 -1.435311E+05
       326  24 -2.629854E+06 -5.184513E+05 -9.372775E+03 -1.182472E+06  5.887087E+04 -1.364523E+05
       326  25 -4.974820E+05  2.553814E+05  3.663384E+05 -5.800259E+05  8.485487E+04 -1.436775E+05
       326  26 -6.795457E+05  2.092438E+05  3.401131E+05 -6.151351E+05  8.405907E+04 -1.387244E+05
       326  27 -8.339100E+05  1.325165E+05  3.140184E+05 -6.811743E+05  8.111271E+04 -1.280278E+05
       327   1 -4.309446E+06 -1.128633E+06 -3.092050E+05 -1.651555E+06 -3.308329E+04  1.372864E+05
       327   2 -4.151247E+06 -1.050871E+06 -2.745398E+05 -1.586890E+06 -2.525570E+04  1.252343E+05
       327   3 -3.964488E+06 -1.002203E+06 -2.420254E+05 -1.554941E+06 -1.723697E+04  1.126271E+05
       327   4 -2.629263E+06 -5.185994E+05 -7.055710E+03 -1.182475E+06 -5.462218E+04  1.291370E+05
       327   5 -2.643474E+06 -5.038297E+05 -3.907251E+03 -1.166190E+06 -4.771759E+04  1.167530E+05
       327   6 -2.628982E+06 -5.179687E+05 -2.177191E+03 -1.182628E+06 -4.062303E+04  1.038143E+05
       327   7 -9.460657E+05  9.171397E+04  2.950043E+05 -7.121971E+05 -7.622391E+04  1.209640E+05
       327   8 -1.133280E+06  4.343479E+04  2.666530E+05 -7.445264E+05 -7.023818E+04  1.082496E+05
       327   9 -1.291583E+06 -3.356284E+04  2.376132E+05 -8.095621E+05 -6.406309E+04  9.498121E+04
       327  10 -4.309452E+06 -1.128654E+06 -3.092424E+05 -1.651551E+06  4.225753E-10 -1.219131E-09
       327  11 -4.151252E+06 -1.050888E+06 -2.745705E+05 -1.586887E+06  2.357088E-10 -7.683643E-10
       327  12 -3.964492E+06 -1.002216E+06 -2.420498E+05 -1.554940E+06 -5.277311E-10 -1.185444E-09
       327  13 -2.629270E+06 -5.186181E+05 -7.092599E+03 -1.182470E+06 -3.207921E-10 -1.642331E-09
       327  14 -2.643481E+06 -5.038449E+05 -3.937101E+03 -1.166185E+06  5.222603E-10 -1.678601E-09
       327  15 -2.628987E+06 -5.179807E+05 -2.200510E+03 -1.182625E+06 -5.764498E-10 -2.610021E-10
       327  16 -9.460759E+05  9.169672E+04  2.949660E+05 -7.121897E+05  1.531418E-09 -1.332822E-09
       327  17 -1.133289E+06  4.342091E+04  2.666217E+05 -7.445203E+05  9.745936E-11  4.925513E-10
       327  18 -1.291589E+06 -3.357361E+04  2.375886E+05 -8.095572E+05 -3.239297E-10  4.603816E-11
       327  19 -4.309446E+06 -1.128633E+06 -3.092050E+05 -1.651555E+06  3.308329E+04 -1.372864E+05
       327  20 -4.151247E+06 -1.050871E+06 -2.745398E+05 -1.586890E+06  2.525570E+04 -1.252343E+05
       327  21 -3.964488E+06 -1.002203E+06 -2.420254E+05 -1.554941E+06  1.723697E+04 -1.126271E+05
       327  22 -2.629263E+06 -5.185994E+05 -7.055710E+03 -1.182475E+06  5.462218E+04 -1.291370E+05
       327  23 -2.643474E+06 -5.038297E+05 -3.907251E+03 -1.166190E+06  4.771759E+04 -1.167530E+05
       327  24 -2.628982E+06 -5.179687E+05 -2.177191E+03 -1.182628E+06  4.062303E+04 -1.038143E+05
       327  25 -9.460657E+05  9.171397E+04  2.950043E+05 -7.121971E+05  7.622391E+04 -1.209640E+05
       327  26 -1.133280E+06  4.343479E+04  2.666530E+05 -7.445264E+05  7.023818E+04 -1.082496E+05
       327  27 -1.291583E+06 -3.356284E+04  2.376132E+05 -8.095621E+05  6.406309E+04 -9.498121E+04
       328   1 -3.851000E+06 -9.608643E+05 -2.202525E+05 -1.523423E+06 -1.383254E+04  1.046086E+05
       328   2 -3.690894E+06 -8.828412E+05 -1.886875E+05 -1.458059E+06 -7.878806E+03  9.085630E+04
       328   3 -3.501651E+06 -8.338684E+05 -1.575912E+05 -1.425878E+06 -1.904529E+03  7.701349E+04
       328   4 -2.628821E+06 -5.179718E+05 -1.684322E+03 -1.182713E+06 -3.723911E+04  9.579632E+04
       328   5 -2.643303E+06 -5.033049E+05 -1.073829E+03 -1.166148E+06 -3.143593E+04  8.199883E+04
       328   6 -2.628653E+06 -5.176599E+05 -8.161224E+02 -1.182776E+06 -2.561241E+04  6.811080E+04
       328   7 -1.405068E+06 -7.493962E+04  2.168332E+05 -8.413758E+05 -6.069487E+04  8.696557E+04
       328   8 -1.594547E+06 -1.236628E+05  1.865054E+05 -8.737741E+05 -5.503567E+04  7.312538E+04
       328   9 -1.754838E+06 -2.013747E+05  1.559379E+05 -9.393509E+05 -4.935624E+04  5.919463E+04
       328  10 -3.851003E+06 -9.608761E+05 -2.202734E+05 -1.523422E+06 -9.971328E-10 -1.752917E-09
       328  11 -3.690896E+06 -8.828501E+05 -1.887031E+05 -1.458058E+06  2.158819E-09 -1.679867E-09
       328  12 -3.501653E+06 -8.338748E+05 -1.576024E+05 -1.425878E+06 -2.100956E-09 -1.800382E-09
       328  13 -2.628825E+06 -5.179820E+05 -1.704143E+03 -1.182711E+06 -5.599411E-11 -3.322149E-10
       328  14 -2.643306E+06 -5.033124E+05 -1.088300E+03 -1.166146E+06 -3.461994E-09 -9.486514E-10
       328  15 -2.628655E+06 -5.176650E+05 -8.260581E+02 -1.182775E+06 -1.226048E-08 -3.310483E-09
       328  16 -1.405074E+06 -7.494871E+04  2.168121E+05 -8.413716E+05  7.704264E-10  1.645995E-09
       328  17 -1.594552E+06 -1.236693E+05  1.864897E+05 -8.737709E+05 -3.043196E-09  2.561195E-10
       328  18 -1.754842E+06 -2.013791E+05  1.559268E+05 -9.393486E+05 -1.302331E-08 -4.985635E-09
       328  19 -3.851000E+06 -9.608643E+05 -2.202525E+05 -1.523423E+06  1.383254E+04 -1.046086E+05
       328  20 -3.690894E+06 -8.828412E+05 -1.886875E+05 -1.458059E+06  7.878806E+03 -9.085630E+04
       328  21 -3.501651E+06 -8.338684E+05 -1.575912E+05 -1.425878E+06  1.904529E+03 -7.701349E+04
       328  22 -2.628821E+06 -5.179718E+05 -1.684322E+03 -1.182713E+06  3.723911E+04 -9.579632E+04
       328  23 -2.643303E+06 -5.033049E+05 -1.073829E+03 -1.166148E+06  3.143593E+04 -8.199883E+04
       328  24 -2.628653E+06 -5.176599E+05 -8.161224E+02 -1.182776E+06  2.561241E+04 -6.811080E+04
       328  25 -1.405068E+06 -7.493962E+04  2.168332E+05 -8.413758E+05  6.069487E+04 -8.696557E+04
       328  26 -1.594547E+06 -1.236628E+05  1.865054E+05 -8.737741E+05  5.503567E+04 -7.312538E+04
       328  27 -1.754838E+06 -2.013747E+05  1.559379E+05 -9.393509E+05  4.935624E+04 -5.919463E+04
       329   1 -3.387094E+06 -7.922042E+05 -1.361447E+05 -1.394103E+06  1.374084E+03  6.884271E+04
       329   2 -3.225605E+06 -7.138115E+05 -1.052742E+05 -1.328347E+06  7.236884E+03  5.487455E+04
       329   3 -3.034866E+06 -6.646554E+05 -7.479389E+04 -1.296065E+06  1.309793E+04  4.089063E+04
       329   4 -2.628585E+06 -5.176516E+05 -8.183488E+02 -1.182843E+06 -2.238482E+04  5.992614E+04
       329   5 -2.643144E+06 -5.029303E+05 -1.040894E+03 -1.166125E+06 -1.654932E+04  4.595413E+04
       329   6 -2.628483E+06 -5.174418E+05 -1.635086E+03 -1.182891E+06 -1.071575E+04  3.196635E+04
       329   7 -1.869465E+06 -2.430435E+05  1.344913E+05 -9.713410E+05 -4.617480E+04  5.099792E+04
       329   8 -2.060325E+06 -2.920172E+05  1.031826E+05 -1.003760E+06 -4.035930E+04  3.702479E+04
       329   9 -2.221928E+06 -3.702135E+05  7.151937E+04 -1.069648E+06 -3.454589E+04  2.303589E+04
       329  10 -3.387095E+06 -7.922093E+05 -1.361536E+05 -1.394103E+06 -1.398189E-08 -4.755910E-09
       329  11 -3.225605E+06 -7.138147E+05 -1.052799E+05 -1.328347E+06 -5.228855E-09  5.044756E-10
       329  12 -3.034867E+06 -6.646572E+05 -7.479736E+04 -1.296065E+06  5.091255E-10  6.659431E-10
       329  13 -2.628586E+06 -5.176556E+05 -8.260275E+02 -1.182842E+06 -1.176665E-08 -3.286358E-09
       329  14 -2.643144E+06 -5.029326E+05 -1.045370E+03 -1.166124E+06 -3.808354E-09 -6.257878E-10
       329  15 -2.628484E+06 -5.174429E+05 -1.637219E+03 -1.182890E+06 -2.166315E-10 -6.723198E-10
       329  16 -1.869468E+06 -2.430468E+05  1.344824E+05 -9.713391E+05 -2.344923E-10 -1.786377E-09
       329  17 -2.060327E+06 -2.920192E+05  1.031770E+05 -1.003759E+06  1.634857E-09 -1.557691E-09
       329  18 -2.221930E+06 -3.702144E+05  7.151613E+04 -1.069647E+06 -2.979983E-10 -2.676410E-09
       329  19 -3.387094E+06 -7.922042E+05 -1.361447E+05 -1.394103E+06 -1.374084E+03 -6.884271E+04
       329  20 -3.225605E+06 -7.138115E+05 -1.052742E+05 -1.328347E+06 -7.236884E+03 -5.487455E+04
       329  21 -3.034866E+06 -6.646554E+05 -7.479389E+04 -1.296065E+06 -1.309793E+04 -4.089063E+04
       329  22 -2.628585E+06 -5.176516E+05 -8.183488E+02 -1.182843E+06  2.238482E+04 -5.992614E+04
       329  23 -2.643144E+06 -5.029303E+05 -1.040894E+03 -1.166125E+06  1.654932E+04 -4.595413E+04
       329  24 -2.628483E+06 -5.174418E+05 -1.635086E+03 -1.182891E+06  1.071575E+04 -3.196635E+04
       329  25 -1.869465E+06 -2.430435E+05  1.344913E+05 -9.713410E+05  4.617480E+04 -5.099792E+04
       329  26 -2.060325E+06 -2.920172E+05  1.031826E+05 -1.003760E+06  4.035930E+04 -3.702479E+04
       329  27 -2.221928E+06 -3.702135E+05  7.151937E+04 -1.069648E+06  3.454589E+04 -2.303589E+04
       330   1 -2.919643E+06 -6.228352E+05 -5.371306E+04 -1.264177E+06  1.655856E+04  3.274899E+04
       330   2 -2.757415E+06 -5.443043E+05 -2.406706E+04 -1.198223E+06  2.342156E+04  1.921357E+04
       330   3 -2.566101E+06 -4.952629E+05  4.368886E+03 -1.165867E+06  3.021341E+04  5.865021E+03
       330   4 -2.628509E+06 -5.174277E+05 -2.127118E+03 -1.182945E+06 -7.304390E+03  2.380851E+04
       330   5 -2.643003E+06 -5.027071E+05 -3.771539E+03 -1.166115E+06 -1.310042E+02  1.039056E+04
       330   6 -2.628513E+06 -5.175430E+05 -6.876593E+03 -1.182897E+06  6.970749E+03 -2.840671E+03
       330   7 -2.337280E+06 -4.120103E+05  4.945938E+04 -1.101676E+06 -3.117955E+04  1.486345E+04
       330   8 -2.528576E+06 -4.611080E+05  1.652612E+04 -1.134000E+06 -2.368833E+04  1.565746E+03
       330   9 -2.690919E+06 -5.398223E+05 -1.811989E+04 -1.199924E+06 -1.626942E+04 -1.154546E+04
       330  10 -2.919643E+06 -6.228364E+05 -5.371560E+04 -1.264178E+06 -8.855886E-10 -6.491647E-10
       330  11 -2.757415E+06 -5.443049E+05 -2.406879E+04 -1.198224E+06 -5.310976E-10 -1.285833E-09
       330  12 -2.566102E+06 -4.952632E+05  4.367098E+03 -1.165867E+06  9.310086E-10 -5.105184E-10
       330  13 -2.628509E+06 -5.174283E+05 -2.128282E+03 -1.182945E+06  2.280488E-11 -1.063509E-09
       330  14 -2.643003E+06 -5.027073E+05 -3.771742E+03 -1.166115E+06  1.419427E-09  5.887869E-10
       330  15 -2.628513E+06 -5.175430E+05 -6.876699E+03 -1.182897E+06  3.726845E-10  4.002787E-11
       330  16 -2.337281E+06 -4.120108E+05  4.945713E+04 -1.101676E+06  2.475949E-09 -5.799647E-10
       330  17 -2.528577E+06 -4.611081E+05  1.652506E+04 -1.134000E+06 -4.938129E-10 -3.824868E-10
       330  18 -2.690919E+06 -5.398225E+05 -1.812064E+04 -1.199925E+06 -1.971412E-09 -1.112216E-09
       330  19 -2.919643E+06 -6.228352E+05 -5.371306E+04 -1.264177E+06 -1.655856E+04 -3.274899E+04
       330  20 -2.757415E+06 -5.443043E+05 -2.406706E+04 -1.198223E+06 -2.342156E+04 -1.921357E+04
       330  21 -2.566101E+06 -4.952629E+05  4.368886E+03 -1.165867E+06 -3.021341E+04 -5.865021E+03
       330  22 -2.628509E+06 -5.174277E+05 -2.127118E+03 -1.182945E+06  7.304390E+03 -2.380851E+04
       330  23 -2.643003E+06 -5.027071E+05 -3.771539E+03 -1.166115E+06  1.310042E+02 -1.039056E+04
       330  24 -2.628513E+06 -5.175430E+05 -6.876593E+03 -1.182897E+06 -6.970749E+03  2.840671E+03
       330  25 -2.337280E+06 -4.120103E+05  4.945938E+04 -1.101676E+06  3.117955E+04 -1.486345E+04
       330  26 -2.528576E+06 -4.611080E+05  1.652612E+04 -1.134000E+06  2.368833E+04 -1.565746E+03
       330  27 -2.690919E+06 -5.398223E+05 -1.811989E+04 -1.199924E+06  1.626942E+04  1.154546E+04
       331   1 -2.450563E+06 -4.536892E+05  2.381496E+04 -1.134546E+06  3.484303E+04 -1.744983E+03
       331   2 -2.289268E+06 -3.747239E+05  4.890805E+04 -1.066530E+06  4.428829E+04 -1.288377E+04
       331   3 -2.100756E+06 -3.287136E+05  6.954231E+04 -1.031132E+06  5.288250E+04 -2.174018E+04
       331   4 -2.628942E+06 -5.174259E+05 -9.158731E+03 -1.183073E+06  1.130647E+04 -1.056145E+04
       331   5 -2.642633E+06 -5.037582E+05 -1.678393E+04 -1.165574E+06  2.457633E+04 -2.027104E+04
       331   6 -2.629902E+06 -5.238126E+05 -3.191266E+04 -1.180708E+06  3.699357E+04 -2.769808E+04
       331   7 -2.807285E+06 -5.811587E+05 -4.213076E+04 -1.231586E+06 -1.222261E+04 -1.937520E+04
       331   8 -2.995866E+06 -6.327802E+05 -8.247902E+04 -1.264565E+06  4.876403E+03 -2.765374E+04
       331   9 -3.158760E+06 -7.188859E+05 -1.333798E+05 -1.330165E+06  2.111902E+04 -3.365041E+04
       331  10 -2.450565E+06 -4.536896E+05  2.381267E+04 -1.134546E+06  5.504639E-10 -5.044356E-11
       331  11 -2.289270E+06 -3.747247E+05  4.890405E+04 -1.066530E+06  1.440196E-09  1.139010E-09
       331  12 -2.100760E+06 -3.287149E+05  6.953616E+04 -1.031131E+06  9.948922E-10  1.007649E-09
       331  13 -2.628943E+06 -5.174261E+05 -9.159180E+03 -1.183073E+06 -6.244499E-11 -2.289539E-10
       331  14 -2.642634E+06 -5.037588E+05 -1.678583E+04 -1.165574E+06 -1.112014E-09 -1.598632E-10
       331  15 -2.629904E+06 -5.238137E+05 -3.191667E+04 -1.180707E+06  1.203079E-10  4.081827E-10
       331  16 -2.807285E+06 -5.811592E+05 -4.213175E+04 -1.231586E+06 -4.159811E-10 -4.109990E-10
       331  17 -2.995866E+06 -6.327810E+05 -8.248050E+04 -1.264565E+06 -1.033778E-09  4.079542E-10
       331  18 -3.158760E+06 -7.188872E+05 -1.333828E+05 -1.330164E+06 -2.143667E-09 -9.666882E-10
       331  19 -2.450563E+06 -4.536892E+05  2.381496E+04 -1.134546E+06 -3.484303E+04  1.744983E+03
       331  20 -2.289268E+06 -3.747239E+05  4.890805E+04 -1.066530E+06 -4.428829E+04  1.288377E+04
       331  21 -2.100756E+06 -3.287136E+05  6.954231E+04 -1.031132E+06 -5.288250E+04  2.174018E+04
       331  22 -2.628942E+06 -5.174259E+05 -9.158731E+03 -1.183073E+06 -1.130647E+04  1.056145E+04
       331  23 -2.642633E+06 -5.037582E+05 -1.678393E+04 -1.165574E+06 -2.457633E+04  2.027104E+04
       331  24 -2.629902E+06 -5.238126E+05 -3.191266E+04 -1.180708E+06 -3.699357E+04  2.769808E+04
       331  25 -2.807285E+06 -5.811587E+05 -4.213076E+04 -1.231586E+06  1.222261E+04  1.937520E+04
       331  26 -2.995866E+06 -6.327802E+05 -8.247902E+04 -1.264565E+06 -4.876403E+03  2.765374E+04
       331  27 -3.158760E+06 -7.188859E+05 -1.333798E+05 -1.330165E+06 -2.111902E+04  3.365041E+04
       332   1 -1.981696E+06 -2.924124E+05  8.242781E+04 -1.010271E+06  6.380825E+04 -2.577897E+04
       332   2 -1.849151E+06 -2.022770E+05  9.416770E+04 -8.929591E+05  6.031457E+04 -2.500647E+04
       332   3 -1.717110E+06 -2.158686E+05  8.706819E+04 -7.865270E+05  4.681359E+04  2.412804E+03
       332   4 -2.635189E+06 -5.221843E+05 -4.233460E+04 -1.183081E+06  4.444119E+04 -3.304243E+04
       332   5 -2.640013E+06 -5.326971E+05 -8.047006E+04 -1.152620E+06  8.570861E+04 -1.549251E+04
       332   6 -2.654318E+06 -6.559239E+05 -1.730527E+05 -1.133059E+06  1.169598E+05  2.872122E+04
       332   7 -3.288241E+06 -7.519264E+05 -1.671145E+05 -1.355726E+06  2.509592E+04 -4.029837E+04
       332   8 -3.430212E+06 -8.630059E+05 -2.551383E+05 -1.411952E+06  1.110673E+05 -5.995979E+03
       332   9 -3.590595E+06 -1.095747E+06 -4.332208E+05 -1.479050E+06  1.869871E+05  5.495978E+04
       332  10 -1.981700E+06 -2.924142E+05  8.241890E+04 -1.010269E+06 -3.261064E-10  5.877131E-10
       332  11 -1.849155E+06 -2.022787E+05  9.415968E+04 -8.929579E+05  2.477182E-10  5.733463E-10
       332  12 -1.717112E+06 -2.158692E+05  8.706405E+04 -7.865271E+05  1.253673E-10  4.916448E-10
       332  13 -2.635192E+06 -5.221860E+05 -4.234037E+04 -1.183080E+06 -1.301267E-09  2.983240E-11
       332  14 -2.640021E+06 -5.326994E+05 -8.048436E+04 -1.152619E+06  2.607565E-10  8.534333E-10
       332  15 -2.654332E+06 -6.559285E+05 -1.730801E+05 -1.133062E+06 -3.154301E-10  1.952057E-10
       332  16 -3.288242E+06 -7.519283E+05 -1.671187E+05 -1.355725E+06  3.998363E-10  6.984324E-10
       332  17 -3.430225E+06 -8.630093E+05 -2.551617E+05 -1.411951E+06 -1.320803E-09  4.849876E-10
       332  18 -3.590633E+06 -1.095759E+06 -4.332927E+05 -1.479058E+06 -2.122703E-09 -2.262076E-10
       332  19 -1.981696E+06 -2.924124E+05  8.242781E+04 -1.010271E+06 -6.380825E+04  2.577897E+04
       332  20 -1.849151E+06 -2.022770E+05  9.416770E+04 -8.929591E+05 -6.031457E+04  2.500647E+04
       332  21 -1.717110E+06 -2.158686E+05  8.706819E+04 -7.865270E+05 -4.681359E+04 -2.412804E+03
       332  22 -2.635189E+06 -5.221843E+05 -4.233460E+04 -1.183081E+06 -4.444119E+04  3.304243E+04
       332  23 -2.640013E+06 -5.326971E+05 -8.047006E+04 -1.152620E+06 -8.570861E+04  1.549251E+04
       332  24 -2.654318E+06 -6.559239E+05 -1.730527E+05 -1.133059E+06 -1.169598E+05 -2.872122E+04
       332  25 -3.288241E+06 -7.519264E+05 -1.671145E+05 -1.355726E+06 -2.509592E+04  4.029837E+04
       332  26 -3.430212E+06 -8.630059E+05 -2.551383E+05 -1.411952E+06 -1.110673E+05  5.995979E+03
       332  27 -3.590595E+06 -1.095747E+06 -4.332208E+05 -1.479050E+06 -1.869871E+05 -5.495978E+04
       333   1  1.664796E+05  3.405190E+04  5.521303E+04  2.032814E+04  6.655899E+04  2.158680E+03
       333   2  1.705730E+05 -5.282903E+04  3.824334E+03  5.067977E+03  4.489891E+04  6.426604E+03
       333   3  2.014790E+05 -4.389288E+04 -9.501294E+03 -2.102654E+04  2.323994E+04  6.046668E+03
       333   4  3.610028E+05  8.246184E+04  1.029925E+05 -9.308305E+03  7.053818E+04  2.157499E+03
       333   5  3.473663E+05 -9.153210E+03  4.550498E+04 -3.870706E+03  4.608120E+04  6.426339E+03
       333   6  3.610182E+05 -4.482299E+03  2.801364E+04 -9.266901E+03  2.162602E+04  6.046460E+03
       333   7  5.555623E+05  1.308723E+05  1.507697E+05 -3.895406E+04  7.451861E+04  2.155939E+03
       333   8  5.241885E+05  3.452068E+04  8.718351E+04 -1.281195E+04  4.726381E+04  6.426039E+03
       333   9  5.205810E+05  3.492699E+04  6.552690E+04  2.495777E+03  2.001169E+04  6.046190E+03
       333  10  1.664749E+05  3.405071E+04  5.520470E+04  2.032803E+04  8.298276E-10 -5.369780E-10
       333  11  1.705709E+05 -5.282962E+04  3.820469E+03  5.067745E+03 -1.262970E-09 -2.071294E-11
       333  12  2.014784E+05 -4.389306E+04 -9.502377E+03 -2.102666E+04 -1.658202E-09 -7.116192E-10
       333  13  3.609974E+05  8.246050E+04  1.029831E+05 -9.308427E+03  3.971600E-10  6.652268E-11
       333  14  3.473640E+05 -9.153824E+03  4.550091E+04 -3.870945E+03 -1.153626E-10 -6.165020E-10
       333  15  3.610177E+05 -4.482463E+03  2.801269E+04 -9.267006E+03  1.412223E-09 -2.106880E-10
       333  16  5.555564E+05  1.308708E+05  1.507592E+05 -3.895419E+04 -2.088479E-10 -2.081351E-10
       333  17  5.241861E+05  3.452004E+04  8.717924E+04 -1.281220E+04  2.171483E-09 -9.315794E-10
       333  18  5.205806E+05  3.492684E+04  6.552608E+04  2.495680E+03  1.964058E-09  1.442918E-09
       333  19  1.664796E+05  3.405190E+04  5.521303E+04  2.032814E+04 -6.655899E+04 -2.158680E+03
       333  20  1.705730E+05 -5.282903E+04  3.824334E+03  5.067977E+03 -4.489891E+04 -6.426604E+03
       333  21  2.014790E+05 -4.389288E+04 -9.501294E+03 -2.102654E+04 -2.323994E+04 -6.046668E+03
       333  22  3.610028E+05  8.246184E+04  1.029925E+05 -9.308305E+03 -7.053818E+04 -2.157499E+03
       333  23  3.473663E+05 -9.153210E+03  4.550498E+04 -3.870706E+03 -4.608120E+04 -6.426339E+03
       333  24  3.610182E+05 -4.482299E+03  2.801364E+04 -9.266901E+03 -2.162602E+04 -6.046460E+03
       333  25  5.555623E+05  1.308723E+05  1.507697E+05 -3.895406E+04 -7.451861E+04 -2.155939E+03
       333  26  5.241885E+05  3.452068E+04  8.718351E+04 -1.281195E+04 -4.726381E+04 -6.426039E+03
       333  27  5.205810E+05  3.492699E+04  6.552690E+04  2.495777E+03 -2.001169E+04 -6.046190E+03
       334   1  2.155653E+05 -2.712580E+04 -1.033190E+04 -6.954613E+03  1.756220E+04  4.981280E+03
       334   2  2.313327E+05 -3.122912E+04 -1.715415E+04 -3.293051E+03  1.173516E+04  4.515520E+03
       334   3  2.500869E+05 -2.649552E+04 -1.797021E+04 -1.045805E+04  5.907898E+03  3.771401E+03
       334   4  3.556223E+05  7.486987E+03  2.272698E+04 -9.278547E+03  1.736984E+04  4.981082E+03
       334   5  3.541165E+05 -8.958982E+02  1.176892E+04 -3.864313E+03  1.137448E+04  4.515364E+03
       334   6  3.556255E+05 -4.137112E+02  6.932851E+03 -9.276458E+03  5.379070E+03  3.771280E+03
       334   7  4.956975E+05  4.209840E+04  5.578452E+04 -1.160301E+04  1.717744E+04  4.980885E+03
       334   8  4.769140E+05  2.943625E+04  4.069094E+04 -4.435689E+03  1.101373E+04  4.515209E+03
       334   9  4.611742E+05  2.566731E+04  3.183515E+04 -8.094661E+03  4.850152E+03  3.771157E+03
       334  10  2.155649E+05 -2.712591E+04 -1.033253E+04 -6.954683E+03  1.048539E-09 -4.020171E-10
       334  11  2.313326E+05 -3.122918E+04 -1.715444E+04 -3.293094E+03 -1.872630E-09  3.313849E-10
       334  12  2.500869E+05 -2.649555E+04 -1.797031E+04 -1.045807E+04 -3.375926E-11 -1.617129E-10
       334  13  3.556220E+05  7.486880E+03  2.272637E+04 -9.278617E+03 -7.791559E-10  9.060801E-10
       334  14  3.541163E+05 -8.959548E+02  1.176864E+04 -3.864354E+03  5.734827E-11  2.573665E-10
       334  15  3.556254E+05 -4.137343E+02  6.932770E+03 -9.276475E+03 -3.312588E-09 -4.329435E-10
       334  16  4.956971E+05  4.209829E+04  5.578392E+04 -1.160308E+04 -1.132221E-09  1.401048E-09
       334  17  4.769139E+05  2.943619E+04  4.069068E+04 -4.435729E+03 -3.300879E-10 -1.808741E-10
       334  18  4.611742E+05  2.566729E+04  3.183508E+04 -8.094676E+03 -1.587136E-09 -3.842364E-10
       334  19  2.155653E+05 -2.712580E+04 -1.033190E+04 -6.954613E+03 -1.756220E+04 -4.981280E+03
       334  20  2.313327E+05 -3.122912E+04 -1.715415E+04 -3.293051E+03 -1.173516E+04 -4.515520E+03
       334  21  2.500869E+05 -2.649552E+04 -1.797021E+04 -1.045805E+04 -5.907898E+03 -3.771401E+03
       334  22  3.556223E+05  7.486987E+03  2.272698E+04 -9.278547E+03 -1.736984E+04 -4.981082E+03
       334  23  3.541165E+05 -8.958982E+02  1.176892E+04 -3.864313E+03 -1.137448E+04 -4.515364E+03
       334  24  3.556255E+05 -4.137112E+02  6.932851E+03 -9.276458E+03 -5.379070E+03 -3.771280E+03
       334  25  4.956975E+05  4.209840E+04  5.578452E+04 -1.160301E+04 -1.717744E+04 -4.980885E+03
       334  26  4.769140E+05  2.943625E+04  4.069094E+04 -4.435689E+03 -1.101373E+04 -4.515209E+03
       334  27  4.611742E+05  2.566731E+04  3.183515E+04 -8.094661E+03 -4.850152E+03 -3.771157E+03
       335   1  2.687986E+05 -2.063978E+04 -1.487806E+04 -9.151356E+03  4.735005E+03  3.288706E+03
       335   2  2.857448E+05 -1.716598E+04 -1.329103E+04 -3.891200E+03  3.253799E+03  2.543035E+03
       335   3  3.030932E+05 -1.288303E+04 -1.053624E+04 -9.394006E+03  1.772484E+03  1.781726E+03
       335   4  3.550459E+05  6.577432E+02  5.391925E+03 -9.263014E+03  4.292645E+03  3.288613E+03
       335   5  3.548445E+05 -9.578910E+01  2.984545E+03 -3.881529E+03  2.801860E+03  2.542967E+03
       335   6  3.550469E+05 -3.848771E+01  1.751521E+03 -9.262931E+03  1.311007E+03  1.781685E+03
       335   7  4.413001E+05  2.195473E+04  2.566140E+04 -9.374688E+03  3.850223E+03  3.288519E+03
       335   8  4.239487E+05  1.697406E+04  1.925979E+04 -3.871858E+03  2.349871E+03  2.542898E+03
       335   9  4.070031E+05  1.280586E+04  1.403909E+04 -9.131845E+03  8.494909E+02  1.781642E+03
       335  10  2.687986E+05 -2.063979E+04 -1.487812E+04 -9.151368E+03  9.177376E-10 -5.063641E-10
       335  11  2.857448E+05 -1.716599E+04 -1.329106E+04 -3.891206E+03 -1.607613E-09 -4.746946E-10
       335  12  3.030932E+05 -1.288303E+04 -1.053625E+04 -9.394009E+03 -6.662949E-10  5.394565E-11
       335  13  3.550459E+05  6.577266E+02  5.391870E+03 -9.263025E+03 -1.124522E-09 -2.594213E-10
       335  14  3.548445E+05 -9.579816E+01  2.984518E+03 -3.881535E+03 -1.681707E-09 -9.097882E-11
       335  15  3.550469E+05 -3.849158E+01  1.751512E+03 -9.262933E+03 -6.548707E-10 -1.418752E-10
       335  16  4.413001E+05  2.195472E+04  2.566135E+04 -9.374698E+03  4.734911E-10 -6.316519E-12
       335  17  4.239487E+05  1.697405E+04  1.925977E+04 -3.871863E+03 -3.936894E-10 -1.358400E-11
       335  18  4.070031E+05  1.280585E+04  1.403908E+04 -9.131847E+03 -8.750976E-10 -9.260414E-11
       335  19  2.687986E+05 -2.063978E+04 -1.487806E+04 -9.151356E+03 -4.735005E+03 -3.288706E+03
       335  20  2.857448E+05 -1.716598E+04 -1.329103E+04 -3.891200E+03 -3.253799E+03 -2.543035E+03
       335  21  3.030932E+05 -1.288303E+04 -1.053624E+04 -9.394006E+03 -1.772484E+03 -1.781726E+03
       335  22  3.550459E+05  6.577432E+02  5.391925E+03 -9.263014E+03 -4.292645E+03 -3.288613E+03
       335  23  3.548445E+05 -9.578910E+01  2.984545E+03 -3.881529E+03 -2.801860E+03 -2.542967E+03
       335  24  3.550469E+05 -3.848771E+01  1.751521E+03 -9.262931E+03 -1.311007E+03 -1.781685E+03
       335  25  4.413001E+05  2.195473E+04  2.566140E+04 -9.374688E+03 -3.850223E+03 -3.288519E+03
       335  26  4.239487E+05  1.697406E+04  1.925979E+04 -3.871858E+03 -2.349871E+03 -2.542898E+03
       335  27  4.070031E+05  1.280586E+04  1.403909E+04 -9.131845E+03 -8.494909E+02 -1.781642E+03
       336   1  3.222217E+05 -8.028683E+03 -6.305305E+03 -9.269729E+03  1.487740E+03  1.336216E+03
       336   2  3.392834E+05 -3.879679E+03 -2.867095E+03 -3.903208E+03  1.081724E+03  5.761218E+02
       336   3  3.564190E+05  3.437848E+02  8.544034E+02 -9.270467E+03  6.756700E+02 -1.846402E+02
       336   4  3.549739E+05  5.190707E+01  1.357736E+03 -9.256487E+03  1.031749E+03  1.336185E+03
       336   5  3.549373E+05 -1.272245E+01  8.198381E+02 -3.889605E+03  6.253034E+02  5.760963E+02
       336   6  3.549741E+05 -2.867600E+00  5.654582E+02 -9.256486E+03  2.188302E+02 -1.846592E+02
       336   7  3.877271E+05  8.132421E+03  9.020705E+03 -9.243245E+03  5.757340E+02  1.336154E+03
       336   8  3.705914E+05  3.854217E+03  4.506755E+03 -3.876002E+03  1.688711E+02  5.760708E+02
       336   9  3.535292E+05 -3.495200E+02  2.765137E+02 -9.242505E+03 -2.380085E+02 -1.846783E+02
       336  10  3.222217E+05 -8.028685E+03 -6.305312E+03 -9.269731E+03  1.450329E-10  2.233101E-10
       336  11  3.392834E+05 -3.879680E+03 -2.867098E+03 -3.903209E+03 -2.954555E-09 -5.580983E-11
       336  12  3.564190E+05  3.437846E+02  8.544025E+02 -9.270467E+03 -6.413070E-10 -1.309335E-10
       336  13  3.549739E+05  5.190487E+01  1.357731E+03 -9.256488E+03  6.996978E-11 -1.360925E-10
       336  14  3.549373E+05 -1.272291E+01  8.198367E+02 -3.889606E+03 -1.003444E-10 -1.228665E-10
       336  15  3.549741E+05 -2.867649E+00  5.654581E+02 -9.256486E+03  1.094477E-09  4.683439E-10
       336  16  3.877271E+05  8.132419E+03  9.020701E+03 -9.243245E+03 -1.727364E-09 -3.044744E-10
       336  17  3.705914E+05  3.854217E+03  4.506754E+03 -3.876002E+03  1.765420E-09 -1.705271E-10
       336  18  3.535292E+05 -3.495200E+02  2.765135E+02 -9.242505E+03 -7.976776E-10  9.847755E-10
       336  19  3.222217E+05 -8.028683E+03 -6.305305E+03 -9.269729E+03 -1.487740E+03 -1.336216E+03
       336  20  3.392834E+05 -3.879679E+03 -2.867095E+03 -3.903208E+03 -1.081724E+03 -5.761218E+02
       336  21  3.564190E+05  3.437848E+02  8.544034E+02 -9.270467E+03 -6.756700E+02  1.846402E+02
       336  22  3.549739E+05  5.190707E+01  1.357736E+03 -9.256487E+03 -1.031749E+03 -1.336185E+03
       336  23  3.549373E+05 -1.272245E+01  8.198381E+02 -3.889605E+03 -6.253034E+02 -5.760963E+02
       336  24  3.549741E+05 -2.867600E+00  5.654582E+02 -9.256486E+03 -2.188302E+02  1.846592E+02
       336  25  3.877271E+05  8.132421E+03  9.020705E+03 -9.243245E+03 -5.757340E+02 -1.336154E+03
       336  26  3.705914E+05  3.854217E+03  4.506755E+03 -3.876002E+03 -1.688711E+02 -5.760708E+02
       336  27  3.535292E+05 -3.495200E+02  2.765137E+02 -9.242505E+03  2.380085E+02  1.846783E+02
       337   1  3.755945E+05  5.106382E+03  5.416554E+03 -9.257387E+03  5.788255E+02 -6.276768E+02
       337   2  3.926840E+05  9.314768E+03  9.390997E+03 -3.883817E+03  3.295536E+02 -1.388765E+03
       337   3  4.098186E+05  1.355911E+04  1.353728E+04 -9.251829E+03  8.032790E+01 -2.149494E+03
       337   4  3.549676E+05  7.976221E-01  5.071279E+02 -9.258233E+03  1.218578E+02 -6.276987E+02
       337   5  3.549451E+05 -7.522498E+00  5.027054E+02 -3.887423E+03 -1.271935E+02 -1.388802E+03
       337   6  3.549673E+05  2.009475E+01  6.699946E+02 -9.258234E+03 -3.761919E+02 -2.149545E+03
       337   7  3.343411E+05 -5.104817E+03 -4.402328E+03 -9.259079E+03 -3.350948E+02 -6.277205E+02
       337   8  3.172075E+05 -9.329914E+03 -8.385684E+03 -3.891028E+03 -5.839131E+02 -1.388839E+03
       337   9  3.001188E+05 -1.351913E+04 -1.219750E+04 -9.264639E+03 -8.326716E+02 -2.149596E+03
       337  10  3.755945E+05  5.106381E+03  5.416553E+03 -9.257386E+03  1.239048E-09 -1.929549E-10
       337  11  3.926840E+05  9.314765E+03  9.390993E+03 -3.883817E+03  3.062930E-10 -3.976328E-11
       337  12  4.098186E+05  1.355910E+04  1.353727E+04 -9.251829E+03 -4.444527E-11  3.771645E-10
       337  13  3.549676E+05  7.971950E-01  5.071272E+02 -9.258233E+03  1.400971E-09  2.943279E-10
       337  14  3.549451E+05 -7.524574E+00  5.027017E+02 -3.887423E+03 -8.688477E-10 -3.953328E-10
       337  15  3.549673E+05  2.008975E+01  6.699856E+02 -9.258235E+03  1.280188E-09  2.178870E-10
       337  16  3.343411E+05 -5.104818E+03 -4.402328E+03 -9.259079E+03 -2.276550E-09  7.025308E-10
       337  17  3.172075E+05 -9.329916E+03 -8.385688E+03 -3.891029E+03  8.515102E-10 -8.497614E-10
       337  18  3.001188E+05 -1.351914E+04 -1.219751E+04 -9.264640E+03  1.789534E-09 -2.795737E-11
       337  19  3.755945E+05  5.106382E+03  5.416554E+03 -9.257387E+03 -5.788255E+02  6.276768E+02
       337  20  3.926840E+05  9.314768E+03  9.390997E+03 -3.883817E+03 -3.295536E+02  1.388765E+03
       337  21  4.098186E+05  1.355911E+04  1.353728E+04 -9.251829E+03 -8.032790E+01  2.149494E+03
       337  22  3.549676E+05  7.976221E-01  5.071279E+02 -9.258233E+03 -1.218578E+02  6.276987E+02
       337  23  3.549451E+05 -7.522498E+00  5.027054E+02 -3.887423E+03  1.271935E+02  1.388802E+03
       337  24  3.549673E+05  2.009475E+01  6.699946E+02 -9.258234E+03  3.761919E+02  2.149545E+03
       337  25  3.343411E+05 -5.104817E+03 -4.402328E+03 -9.259079E+03  3.350948E+02  6.277205E+02
       337  26  3.172075E+05 -9.329914E+03 -8.385684E+03 -3.891028E+03  5.839131E+02  1.388839E+03
       337  27  3.001188E+05 -1.351913E+04 -1.219750E+04 -9.264639E+03  8.326716E+02  2.149596E+03
       338   1  4.290808E+05  1.829146E+04  1.831735E+04 -9.209621E+03 -4.722995E+01 -2.595870E+03
       338   2  4.461745E+05  2.250109E+04  2.281528E+04 -3.862954E+03 -7.168038E+02 -3.358345E+03
       338   3  4.634536E+05  2.705921E+04  2.783827E+04 -9.304745E+03 -1.386262E+03 -4.103699E+03
       338   4  3.549975E+05 -1.842963E+01  8.186874E+02 -9.268647E+03 -5.100122E+02 -2.595938E+03
       338   5  3.549053E+05 -4.359061E+01  1.320069E+03 -3.874394E+03 -1.169223E+03 -3.358447E+03
       338   6  3.549966E+05  2.780586E+02  2.339451E+03 -9.268697E+03 -1.828299E+03 -4.103833E+03
       338   7  2.809193E+05 -1.832871E+04 -1.668035E+04 -9.327666E+03 -9.727395E+02 -2.596006E+03
       338   8  2.636437E+05 -2.258886E+04 -2.017572E+04 -3.885834E+03 -1.621576E+03 -3.358550E+03
       338   9  2.465505E+05 -2.650393E+04 -2.316017E+04 -9.232656E+03 -2.270260E+03 -4.103967E+03
       338  10  4.290808E+05  1.829145E+04  1.831733E+04 -9.209621E+03  3.940003E-10  4.653164E-10
       338  11  4.461745E+05  2.250108E+04  2.281526E+04 -3.862956E+03  7.618897E-10 -3.562355E-10
       338  12  4.634536E+05  2.705919E+04  2.783823E+04 -9.304749E+03  1.970761E-09 -7.674054E-11
       338  13  3.549975E+05 -1.843694E+01  8.186743E+02 -9.268648E+03  2.218683E-09  5.143074E-10
       338  14  3.549053E+05 -4.360310E+01  1.320045E+03 -3.874398E+03  4.091052E-09 -1.743596E-10
       338  15  3.549966E+05  2.780396E+02  2.339413E+03 -9.268703E+03  2.280240E-09 -3.324108E-11
       338  16  2.809193E+05 -1.832871E+04 -1.668036E+04 -9.327668E+03  6.454175E-10  4.296950E-10
       338  17  2.636437E+05 -2.258888E+04 -2.017574E+04 -3.885838E+03 -3.645433E-10  1.107522E-10
       338  18  2.465505E+05 -2.650395E+04 -2.316021E+04 -9.232664E+03 -1.104888E-09  2.677866E-10
       338  19  4.290808E+05  1.829146E+04  1.831735E+04 -9.209621E+03  4.722995E+01  2.595870E+03
       338  20  4.461745E+05  2.250109E+04  2.281528E+04 -3.862954E+03  7.168038E+02  3.358345E+03
       338  21  4.634536E+05  2.705921E+04  2.783827E+04 -9.304745E+03  1.386262E+03  4.103699E+03
       338  22  3.549975E+05 -1.842963E+01  8.186874E+02 -9.268647E+03  5.100122E+02  2.595938E+03
       338  23  3.549053E+05 -4.359061E+01  1.320069E+03 -3.874394E+03  1.169223E+03  3.358447E+03
       338  24  3.549966E+05  2.780586E+02  2.339451E+03 -9.268697E+03  1.828299E+03  4.103833E+03
       338  25  2.809193E+05 -1.832871E+04 -1.668035E+04 -9.327666E+03  9.727395E+02  2.596006E+03
       338  26  2.636437E+05 -2.258886E+04 -2.017572E+04 -3.885834E+03  1.621576E+03  3.358550E+03
       338  27  2.465505E+05 -2.650393E+04 -2.316017E+04 -9.232656E+03  2.270260E+03  4.103967E+03
       339   1  4.830567E+05  3.139677E+04  3.314117E+04 -8.761068E+03 -1.760460E+03 -4.591646E+03
       339   2  4.997105E+05  3.545611E+04  3.924709E+04 -4.075307E+03 -4.528291E+03 -5.334882E+03
       339   3  5.177100E+05  4.335540E+04  4.811925E+04 -1.025211E+04 -7.296167E+03 -5.768623E+03
       339   4  3.552466E+05 -1.822749E+02  2.997174E+03 -9.284799E+03 -2.298832E+03 -4.591831E+03
       339   5  3.545889E+05 -3.899408E+02  5.067697E+03 -3.854035E+03 -4.880317E+03 -5.335076E+03
       339   6  3.552444E+05  3.210476E+03  9.775554E+03 -9.285960E+03 -7.461768E+03 -5.768799E+03
       339   7  2.274515E+05 -3.176248E+04 -2.714795E+04 -9.808423E+03 -2.837094E+03 -4.592015E+03
       339   8  2.094867E+05 -3.623750E+04 -2.911314E+04 -3.632816E+03 -5.232261E+03 -5.335270E+03
       339   9  1.928031E+05 -3.693633E+04 -2.856997E+04 -8.320066E+03 -7.627325E+03 -5.768975E+03
       339  10  4.830566E+05  3.139675E+04  3.314113E+04 -8.761075E+03  8.366363E-10 -2.994407E-10
       339  11  4.997105E+05  3.545608E+04  3.924699E+04 -4.075326E+03 -1.184972E-09 -5.890492E-10
       339  12  5.177100E+05  4.335535E+04  4.811909E+04 -1.025214E+04  8.113683E-10  3.571261E-10
       339  13  3.552465E+05 -1.822990E+02  2.997125E+03 -9.284808E+03 -9.148317E-10 -1.121688E-10
       339  14  3.545889E+05 -3.899777E+02  5.067599E+03 -3.854056E+03 -3.403637E-09 -4.429892E-10
       339  15  3.552444E+05  3.210425E+03  9.775387E+03 -9.285994E+03 -2.397946E-09 -1.683298E-10
       339  16  2.274514E+05 -3.176251E+04 -2.714800E+04 -9.808433E+03 -2.376734E-09  2.878839E-10
       339  17  2.094866E+05 -3.623754E+04 -2.911324E+04 -3.632838E+03 -6.325501E-10  6.843192E-10
       339  18  1.928030E+05 -3.693639E+04 -2.857014E+04 -8.320102E+03  1.233296E-09 -4.705734E-10
       339  19  4.830567E+05  3.139677E+04  3.314117E+04 -8.761068E+03  1.760460E+03  4.591646E+03
       339  20  4.997105E+05  3.545611E+04  3.924709E+04 -4.075307E+03  4.528291E+03  5.334882E+03
       339  21  5.177100E+05  4.335540E+04  4.811925E+04 -1.025211E+04  7.296167E+03  5.768623E+03
       339  22  3.552466E+05 -1.822749E+02  2.997174E+03 -9.284799E+03  2.298832E+03  4.591831E+03
       339  23  3.545889E+05 -3.899408E+02  5.067697E+03 -3.854035E+03  4.880317E+03  5.335076E+03
       339  24  3.552444E+05  3.210476E+03  9.775554E+03 -9.285960E+03  7.461768E+03  5.768799E+03
       339  25  2.274515E+05 -3.176248E+04 -2.714795E+04 -9.808423E+03  2.837094E+03  4.592015E+03
       339  26  2.094867E+05 -3.623750E+04 -2.911314E+04 -3.632816E+03  5.232261E+03  5.335270E+03
       339  27  1.928031E+05 -3.693633E+04 -2.856997E+04 -8.320066E+03  7.627325E+03  5.768975E+03
       340   1  5.396164E+05  4.302050E+04  5.484257E+04 -4.178664E+03 -7.545687E+03 -6.902865E+03
       340   2  5.510497E+05  4.530322E+04  6.655419E+04 -7.650042E+03 -2.116514E+04 -7.236746E+03
       340   3  5.747802E+05  8.951281E+04  9.761824E+04 -2.197495E+04 -3.478820E+04 -2.402194E+03
       340   4  3.575660E+05 -1.935477E+03  1.204741E+04 -9.276837E+03 -9.292170E+03 -6.903684E+03
       340   5  3.516811E+05 -3.943953E+03  1.956143E+04 -3.861038E+03 -1.980560E+04 -7.236312E+03
       340   6  3.575580E+05  3.544247E+04  4.427602E+04 -9.298634E+03 -3.032217E+04 -2.400162E+03
       340   7  1.755461E+05 -4.689372E+04 -3.075000E+04 -1.437351E+04 -1.103814E+04 -6.904475E+03
       340   8  1.523490E+05 -5.319391E+04 -2.743406E+04 -7.326177E+01 -1.844649E+04 -7.235862E+03
       340   9  1.403791E+05 -1.863075E+04 -9.069498E+03  3.373238E+03 -2.585770E+04 -2.397948E+03
       340  10  5.396163E+05  4.302043E+04  5.484238E+04 -4.178706E+03  5.369899E-10 -1.890539E-10
       340  11  5.510492E+05  4.530304E+04  6.655325E+04 -7.650166E+03  6.619430E-10 -2.477917E-09
       340  12  5.747789E+05  8.951248E+04  9.761596E+04 -2.197502E+04  2.263843E-10 -9.119127E-10
       340  13  3.575659E+05 -1.935551E+03  1.204716E+04 -9.276888E+03 -1.338700E-10 -1.974587E-09
       340  14  3.516806E+05 -3.944115E+03  1.956060E+04 -3.861154E+03  1.161813E-09  5.452874E-10
       340  15  3.575570E+05  3.544222E+04  4.427429E+04 -9.298692E+03 -6.301274E-10 -1.889626E-10
       340  16  1.755460E+05 -4.689380E+04 -3.075032E+04 -1.437357E+04 -1.646938E-09 -8.958992E-10
       340  17  1.523486E+05 -5.319406E+04 -2.743479E+04 -7.336926E+01 -3.834404E-10  6.420378E-10
       340  18  1.403784E+05 -1.863094E+04 -9.070765E+03  3.373188E+03 -7.522552E-10 -5.480175E-10
       340  19  5.396164E+05  4.302050E+04  5.484257E+04 -4.178664E+03  7.545687E+03  6.902865E+03
       340  20  5.510497E+05  4.530322E+04  6.655419E+04 -7.650042E+03  2.116514E+04  7.236746E+03
       340  21  5.747802E+05  8.951281E+04  9.761824E+04 -2.197495E+04  3.478820E+04  2.402194E+03
       340  22  3.575660E+05 -1.935477E+03  1.204741E+04 -9.276837E+03  9.292170E+03  6.903684E+03
       340  23  3.516811E+05 -3.943953E+03  1.956143E+04 -3.861038E+03  1.980560E+04  7.236312E+03
       340  24  3.575580E+05  3.544247E+04  4.427602E+04 -9.298634E+03  3.032217E+04  2.400162E+03
       340  25  1.755461E+05 -4.689372E+04 -3.075000E+04 -1.437351E+04  1.103814E+04  6.904475E+03
       340  26  1.523490E+05 -5.319391E+04 -2.743406E+04 -7.326177E+01  1.844649E+04  7.235862E+03
       340  27  1.403791E+05 -1.863075E+04 -9.069498E+03  3.373238E+03  2.585770E+04  2.397948E+03
       341   1  2.370845E+06  9.580417E+06  2.362217E+06 -1.269933E+06  9.035052E+04  2.212718E+05
       341   2  1.707890E+06  7.286992E+06  1.691998E+06 -5.576544E+05  2.509433E+05  5.116460E+04
       341   3  1.193588E+06  5.077176E+06  1.172207E+06 -1.242251E+06  1.749464E+05 -1.196658E+05
       341   4  7.545968E+04  3.169300E+05  9.561097E+04 -1.214786E+06  9.110726E+04  5.209502E+04
       341   5 -1.340905E+04  2.932548E+05  4.960049E+04 -5.159702E+05  2.513049E+05  2.615733E+04
       341   6  2.253181E+04  3.241524E+05  5.558062E+04 -1.214968E+06  1.737400E+05 -1.127050E+03
       341   7 -2.226231E+06 -8.869114E+06 -2.177161E+06 -1.160307E+06  9.184208E+04 -1.145961E+05
       341   8 -1.738179E+06 -6.655806E+06 -1.596148E+06 -4.746610E+05  2.516659E+05  1.426427E+03
       341   9 -1.150123E+06 -4.408161E+06 -1.062542E+06 -1.187820E+06  1.725388E+05  1.165152E+05
       341  10  2.370823E+06  9.580363E+06  2.362111E+06 -1.269949E+06  1.682396E-09  1.251663E-09
       341  11  1.707822E+06  7.286972E+06  1.691875E+06 -5.576647E+05  2.887102E-09  4.137183E-09
       341  12  1.193552E+06  5.077152E+06  1.172123E+06 -1.242234E+06  8.858116E-10 -8.504982E-09
       341  13  7.545002E+04  3.169248E+05  9.559022E+04 -1.214789E+06  8.673313E-10 -2.672921E-11
       341  14 -1.347707E+04  2.932371E+05  4.948049E+04 -5.159755E+05 -4.591352E-09  9.542820E-11
       341  15  2.249939E+04  3.241443E+05  5.552389E+04 -1.214968E+06  8.064947E-10  1.125195E-09
       341  16 -2.226244E+06 -8.869130E+06 -2.177202E+06 -1.160298E+06 -9.760347E-10 -2.157203E-10
       341  17 -1.738247E+06 -6.655823E+06 -1.596267E+06 -4.746613E+05  1.949386E-09  4.563266E-10
       341  18 -1.150158E+06 -4.408183E+06 -1.062624E+06 -1.187836E+06 -1.724246E-09  6.090620E-09
       341  19  2.370845E+06  9.580417E+06  2.362217E+06 -1.269933E+06 -9.035052E+04 -2.212718E+05
       341  20  1.707890E+06  7.286992E+06  1.691998E+06 -5.576544E+05 -2.509433E+05 -5.116460E+04
       341  21  1.193588E+06  5.077176E+06  1.172207E+06 -1.242251E+06 -1.749464E+05  1.196658E+05
       341  22  7.545968E+04  3.169300E+05  9.561097E+04 -1.214786E+06 -9.110726E+04 -5.209502E+04
       341  23 -1.340905E+04  2.932548E+05  4.960049E+04 -5.159702E+05 -2.513049E+05 -2.615733E+04
       341  24  2.253181E+04  3.241524E+05  5.558062E+04 -1.214968E+06 -1.737400E+05  1.127050E+03
       341  25 -2.226231E+06 -8.869114E+06 -2.177161E+06 -1.160307E+06 -9.184208E+04  1.145961E+05
       341  26 -1.738179E+06 -6.655806E+06 -1.596148E+06 -4.746610E+05 -2.516659E+05 -1.426427E+03
       341  27 -1.150123E+06 -4.408161E+06 -1.062542E+06 -1.187820E+06 -1.725388E+05 -1.165152E+05
       342   1  5.791991E+05  2.548018E+06  5.825740E+05 -1.241452E+06  8.311191E+04 -6.218472E+04
       342   2  5.668951E+03  3.160899E+05  7.374262E+04 -5.122219E+05  1.022656E+03 -1.007190E+05
       342   3 -4.909271E+05 -1.921566E+06 -3.990890E+05 -1.184532E+06 -8.096078E+04 -1.391191E+05
       342   4  2.770694E+04  3.142991E+05  5.719960E+04 -1.215780E+06  8.253669E+04 -1.253911E+04
       342   5  6.584840E+03  3.194997E+05  7.454710E+04 -5.148555E+05  4.580398E+02 -5.120990E+04
       342   6  6.273018E+04  3.142939E+05  1.282123E+05 -1.215386E+06 -8.152809E+04 -8.988032E+04
       342   7 -5.241383E+05 -1.914836E+06 -4.685082E+05 -1.190182E+06  8.196439E+04  3.692955E+04
       342   8  7.502069E+03  3.229147E+05  7.536079E+04 -5.174891E+05 -1.069948E+02 -1.700517E+03
       342   9  6.160330E+05  2.554766E+06  6.551780E+05 -1.246334E+06 -8.209916E+04 -4.046439E+04
       342  10  5.791907E+05  2.548012E+06  5.825538E+05 -1.241448E+06 -2.042408E-09  1.312472E-09
       342  11  5.666228E+03  3.160790E+05  7.372357E+04 -5.122218E+05  5.769721E-09  7.515024E-09
       342  12 -4.909394E+05 -1.921588E+06 -3.991379E+05 -1.184541E+06 -5.499152E-09 -8.350484E-09
       342  13  2.769958E+04  3.142971E+05  5.718651E+04 -1.215779E+06 -5.643504E-10 -1.137348E-10
       342  14  6.584136E+03  3.194969E+05  7.454218E+04 -5.148555E+05  5.932848E-09  3.914832E-12
       342  15  6.272085E+04  3.142834E+05  1.281846E+05 -1.215392E+06  9.637513E-09  1.315883E-09
       342  16 -5.241458E+05 -1.914839E+06 -4.685235E+05 -1.190184E+06 -3.574165E-09  4.079701E-09
       342  17  7.502068E+03  3.229147E+05  7.536079E+04 -5.174891E+05 -9.535035E-09 -1.904978E-09
       342  18  6.160253E+05  2.554762E+06  6.551623E+05 -1.246337E+06  2.652989E-10  6.897048E-09
       342  19  5.791991E+05  2.548018E+06  5.825740E+05 -1.241452E+06 -8.311191E+04  6.218472E+04
       342  20  5.668951E+03  3.160899E+05  7.374262E+04 -5.122219E+05 -1.022656E+03  1.007190E+05
       342  21 -4.909271E+05 -1.921566E+06 -3.990890E+05 -1.184532E+06  8.096078E+04  1.391191E+05
       342  22  2.770694E+04  3.142991E+05  5.719960E+04 -1.215780E+06 -8.253669E+04  1.253911E+04
       342  23  6.584840E+03  3.194997E+05  7.454710E+04 -5.148555E+05 -4.580398E+02  5.120990E+04
       342  24  6.273018E+04  3.142939E+05  1.282123E+05 -1.215386E+06  8.152809E+04  8.988032E+04
       342  25 -5.241383E+05 -1.914836E+06 -4.685082E+05 -1.190182E+06 -8.196439E+04 -3.692955E+04
       342  26  7.502069E+03  3.229147E+05  7.536079E+04 -5.174891E+05  1.069948E+02  1.700517E+03
       342  27  6.160330E+05  2.554766E+06  6.551780E+05 -1.246334E+06  8.209916E+04  4.046439E+04
       343   1 -1.173253E+06 -4.388593E+06 -9.619881E+05 -1.239568E+06 -1.714035E+05 -2.327236E+05
       343   2 -1.780706E+06 -6.695334E+06 -1.406005E+06 -4.349450E+05 -2.502637E+05 -2.202169E+05
       343   3 -1.862094E+06 -8.846600E+06 -1.723128E+06 -1.029009E+06 -9.069919E+04 -2.063853E+05
       343   4 -2.454124E+02  3.506855E+05  1.574562E+05 -1.215468E+06 -1.726202E+05 -1.155854E+05
       343   5 -5.359170E+04  2.600647E+05  2.413558E+05 -5.157784E+05 -2.498784E+05 -2.462124E+05
       343   6  4.413054E+05  3.434403E+05  5.504491E+05 -1.213474E+06 -8.990050E+04 -3.754965E+05
       343   7  1.171167E+06  5.110743E+06  1.275402E+06 -1.191105E+06 -1.738225E+05  2.449398E+03
       343   8  1.670057E+06  7.260232E+06  1.885362E+06 -5.974365E+05 -2.494891E+05 -2.724876E+05
       343   9  2.738499E+06  9.611069E+06  2.817870E+06 -1.400557E+06 -8.900904E+04 -5.471018E+05
       343  10 -1.173300E+06 -4.388660E+06 -9.621462E+05 -1.239601E+06 -2.667630E-09 -6.861686E-10
       343  11 -1.780787E+06 -6.695403E+06 -1.406215E+06 -4.349896E+05  2.877344E-09  4.760044E-09
       343  12 -1.862114E+06 -8.846648E+06 -1.723225E+06 -1.029025E+06  5.807408E-10 -1.219049E-09
       343  13 -2.810560E+02  3.506631E+05  1.573750E+05 -1.215484E+06 -5.419396E-09  1.249508E-10
       343  14 -5.367509E+04  2.599828E+05  2.411244E+05 -5.158280E+05  2.781171E-09  1.178973E-10
       343  15  4.412588E+05  3.432867E+05  5.501688E+05 -1.213501E+06 -8.046629E-10  3.034915E-10
       343  16  1.171134E+06  5.110735E+06  1.275345E+06 -1.191105E+06  6.786034E-09  5.709677E-09
       343  17  1.669971E+06  7.260136E+06  1.885106E+06 -5.974910E+05 -4.903656E-10 -2.165486E-09
       343  18  2.738411E+06  9.610749E+06  2.817301E+06 -1.400596E+06 -2.558525E-09  8.507126E-10
       343  19 -1.173253E+06 -4.388593E+06 -9.619881E+05 -1.239568E+06  1.714035E+05  2.327236E+05
       343  20 -1.780706E+06 -6.695334E+06 -1.406005E+06 -4.349450E+05  2.502637E+05  2.202169E+05
       343  21 -1.862094E+06 -8.846600E+06 -1.723128E+06 -1.029009E+06  9.069919E+04  2.063853E+05
       343  22 -2.454124E+02  3.506855E+05  1.574562E+05 -1.215468E+06  1.726202E+05  1.155854E+05
       343  23 -5.359170E+04  2.600647E+05  2.413558E+05 -5.157784E+05  2.498784E+05  2.462124E+05
       343  24  4.413054E+05  3.434403E+05  5.504491E+05 -1.213474E+06  8.990050E+04  3.754965E+05
       343  25  1.171167E+06  5.110743E+06  1.275402E+06 -1.191105E+06  1.738225E+05 -2.449398E+03
       343  26  1.670057E+06  7.260232E+06  1.885362E+06 -5.974365E+05  2.494891E+05  2.724876E+05
       343  27  2.738499E+06  9.611069E+06  2.817870E+06 -1.400557E+06  8.900904E+04  5.471018E+05
       344   1 -6.186925E+05 -2.691751E+05 -1.351810E+05 -2.660208E+05 -6.787108E+04 -2.086136E+04
       344   2 -5.879516E+05 -2.069221E+05 -7.982826E+04 -2.523447E+05 -4.173128E+04 -2.816794E+02
       344   3 -5.664261E+05 -1.737179E+05 -5.330821E+04 -2.379276E+05 -1.297682E+04  1.334627E+04
       344   4 -3.365580E+05 -1.308375E+05 -5.747003E+04 -1.550566E+05 -3.918015E+04 -1.009148E+04
       344   5 -3.304714E+05 -9.652570E+04 -2.760545E+04 -1.634291E+05 -2.849096E+04  4.687992E+03
       344   6 -3.305333E+05 -8.819510E+04 -1.431936E+04 -1.710629E+05 -1.518939E+04  1.251482E+04
       344   7 -5.434701E+04  7.521191E+03  2.023564E+04 -4.404298E+04 -1.047569E+04  6.873062E+02
       344   8 -7.292259E+04  1.388372E+04  2.461453E+04 -7.447718E+04 -1.524486E+04  9.660735E+03
       344   9 -9.457891E+04 -2.665627E+03  2.466878E+04 -1.041737E+05 -1.740288E+04  1.168303E+04
       344  10 -6.186976E+05 -2.691768E+05 -1.351905E+05 -2.660219E+05  2.646059E-08  1.077587E-08
       344  11 -5.879534E+05 -2.069226E+05 -7.983154E+04 -2.523448E+05  5.627506E-08  1.945777E-08
       344  12 -5.664263E+05 -1.737181E+05 -5.330886E+04 -2.379275E+05  8.897634E-08  2.174206E-08
       344  13 -3.365597E+05 -1.308381E+05 -5.747311E+04 -1.550569E+05 -1.783438E-09  4.105018E-09
       344  14 -3.304723E+05 -9.652594E+04 -2.760701E+04 -1.634290E+05  1.703236E-09  2.082868E-08
       344  15 -3.305336E+05 -8.819533E+04 -1.432008E+04 -1.710627E+05  1.485659E-08  4.185285E-08
       344  16 -5.434713E+04  7.521161E+03  2.023543E+04 -4.404297E+04 -2.908368E-08 -1.593896E-08
       344  17 -7.292287E+04  1.388356E+04  2.461392E+04 -7.447706E+04 -5.363341E-08 -3.565238E-08
       344  18 -9.457927E+04 -2.665855E+03  2.466796E+04 -1.041735E+05 -5.732169E-08 -4.164480E-08
       344  19 -6.186925E+05 -2.691751E+05 -1.351810E+05 -2.660208E+05  6.787108E+04  2.086136E+04
       344  20 -5.879516E+05 -2.069221E+05 -7.982826E+04 -2.523447E+05  4.173128E+04  2.816794E+02
       344  21 -5.664261E+05 -1.737179E+05 -5.330821E+04 -2.379276E+05  1.297682E+04 -1.334627E+04
       344  22 -3.365580E+05 -1.308375E+05 -5.747003E+04 -1.550566E+05  3.918015E+04  1.009148E+04
       344  23 -3.304714E+05 -9.652570E+04 -2.760545E+04 -1.634291E+05  2.849096E+04 -4.687992E+03
       344  24 -3.305333E+05 -8.819510E+04 -1.431936E+04 -1.710629E+05  1.518939E+04 -1.251482E+04
       344  25 -5.434701E+04  7.521191E+03  2.023564E+04 -4.404298E+04  1.047569E+04 -6.873062E+02
       344  26 -7.292259E+04  1.388372E+04  2.461453E+04 -7.447718E+04  1.524486E+04 -9.660735E+03
       344  27 -9.457891E+04 -2.665627E+03  2.466878E+04 -1.041737E+05  1.740288E+04 -1.168303E+04
       345   1 -5.418746E+05 -1.653823E+05 -4.492335E+04 -2.330125E+05 -1.103937E+04  1.311572E+04
       345   2 -5.094873E+05 -1.470231E+05 -3.258511E+04 -2.208433E+05 -5.913988E+03  1.343234E+04
       345   3 -4.742199E+05 -1.352635E+05 -2.427036E+04 -2.132256E+05 -4.805304E+02  1.292847E+04
       345   4 -3.288823E+05 -8.691450E+04 -1.059755E+04 -1.710703E+05 -1.326098E+04  1.228102E+04
       345   5 -3.302590E+05 -8.207992E+04 -5.487956E+03 -1.694374E+05 -9.958705E+03  1.191350E+04
       345   6 -3.283946E+05 -8.348323E+04 -2.955779E+03 -1.723565E+05 -6.348616E+03  1.072553E+04
       345   7 -1.158439E+05 -8.442396E+03  2.372659E+04 -1.091086E+05 -1.548337E+04  1.144601E+04
       345   8 -1.509958E+05 -1.713298E+04  2.160887E+04 -1.180173E+05 -1.400466E+04  1.039419E+04
       345   9 -1.825441E+05 -3.169987E+04  1.835928E+04 -1.314777E+05 -1.221823E+04  8.522017E+03
       345  10 -5.418748E+05 -1.653825E+05 -4.492390E+04 -2.330124E+05 -6.918988E-08 -4.301948E-08
       345  11 -5.094874E+05 -1.470233E+05 -3.258552E+04 -2.208433E+05 -5.084521E-08 -3.579189E-08
       345  12 -4.742200E+05 -1.352637E+05 -2.427067E+04 -2.132256E+05 -2.914576E-08 -1.902406E-08
       345  13 -3.288826E+05 -8.691471E+04 -1.059817E+04 -1.710702E+05  1.766239E-08  4.398546E-08
       345  14 -3.302592E+05 -8.208010E+04 -5.488409E+03 -1.694373E+05  1.082918E-08  2.417012E-08
       345  15 -3.283947E+05 -8.348336E+04 -2.956071E+03 -1.723564E+05  9.508304E-10  4.172777E-09
       345  16 -1.158442E+05 -8.442601E+03  2.372590E+04 -1.091085E+05  1.060807E-07  2.510886E-08
       345  17 -1.509960E+05 -1.713315E+04  2.160830E+04 -1.180172E+05  6.935694E-08  2.468896E-08
       345  18 -1.825443E+05 -3.169999E+04  1.835886E+04 -1.314776E+05  3.123518E-08  1.445717E-08
       345  19 -5.418746E+05 -1.653823E+05 -4.492335E+04 -2.330125E+05  1.103937E+04 -1.311572E+04
       345  20 -5.094873E+05 -1.470231E+05 -3.258511E+04 -2.208433E+05  5.913988E+03 -1.343234E+04
       345  21 -4.742199E+05 -1.352635E+05 -2.427036E+04 -2.132256E+05  4.805304E+02 -1.292847E+04
       345  22 -3.288823E+05 -8.691450E+04 -1.059755E+04 -1.710703E+05  1.326098E+04 -1.228102E+04
       345  23 -3.302590E+05 -8.207992E+04 -5.487956E+03 -1.694374E+05  9.958705E+03 -1.191350E+04
       345  24 -3.283946E+05 -8.348323E+04 -2.955779E+03 -1.723565E+05  6.348616E+03 -1.072553E+04
       345  25 -1.158439E+05 -8.442396E+03  2.372659E+04 -1.091086E+05  1.548337E+04 -1.144601E+04
       345  26 -1.509958E+05 -1.713298E+04  2.160887E+04 -1.180173E+05  1.400466E+04 -1.039419E+04
       345  27 -1.825441E+05 -3.169987E+04  1.835928E+04 -1.314777E+05  1.221823E+04 -8.522017E+03
       346   1 -4.524580E+05 -1.276187E+05 -2.017389E+04 -2.073165E+05  5.019904E+02  1.150948E+04
       346   2 -4.201618E+05 -1.129597E+05 -1.408375E+04 -1.951619E+05  2.323214E+03  9.125684E+03
       346   3 -3.836862E+05 -1.028587E+05 -8.648701E+03 -1.879759E+05  4.180621E+03  6.645034E+03
       346   4 -3.282172E+05 -8.339946E+04 -2.206122E+03 -1.723361E+05 -5.367983E+03  9.306000E+03
       346   5 -3.303108E+05 -8.103132E+04 -1.192429E+03 -1.698924E+05 -3.762052E+03  6.841599E+03
       346   6 -3.281837E+05 -8.317864E+04 -6.632188E+02 -1.724179E+05 -2.119992E+03  4.280345E+03
       346   7 -2.039596E+05 -3.917847E+04  1.576165E+04 -1.373491E+05 -1.123919E+04  7.102052E+03
       346   8 -2.404516E+05 -4.910231E+04  1.169882E+04 -1.446197E+05 -9.848204E+03  4.557183E+03
       346   9 -2.726784E+05 -6.349851E+04  7.322204E+03 -1.568587E+05 -8.421115E+03  1.915466E+03
       346  10 -4.524580E+05 -1.276189E+05 -2.017413E+04 -2.073165E+05 -9.423366E-09 -6.819162E-09
       346  11 -4.201618E+05 -1.129597E+05 -1.408391E+04 -1.951619E+05  2.288867E-09 -3.718758E-09
       346  12 -3.836863E+05 -1.028587E+05 -8.648816E+03 -1.879760E+05  5.775381E-09 -3.436114E-09
       346  13 -3.282173E+05 -8.339956E+04 -2.206339E+03 -1.723361E+05  1.222417E-09 -5.090983E-10
       346  14 -3.303108E+05 -8.103137E+04 -1.192544E+03 -1.698924E+05  1.089936E-08  4.169813E-10
       346  15 -3.281837E+05 -8.317866E+04 -6.632616E+02 -1.724179E+05  3.932989E-09 -1.133285E-09
       346  16 -2.039598E+05 -3.917856E+04  1.576132E+04 -1.373490E+05  1.360585E-08  6.005449E-09
       346  17 -2.404517E+05 -4.910235E+04  1.169860E+04 -1.446197E+05  1.162081E-08  3.467349E-09
       346  18 -2.726785E+05 -6.349854E+04  7.322064E+03 -1.568587E+05  4.473926E-09  6.663811E-10
       346  19 -4.524580E+05 -1.276187E+05 -2.017389E+04 -2.073165E+05 -5.019904E+02 -1.150948E+04
       346  20 -4.201618E+05 -1.129597E+05 -1.408375E+04 -1.951619E+05 -2.323214E+03 -9.125684E+03
       346  21 -3.836862E+05 -1.028587E+05 -8.648701E+03 -1.879759E+05 -4.180621E+03 -6.645034E+03
       346  22 -3.282172E+05 -8.339946E+04 -2.206122E+03 -1.723361E+05  5.367983E+03 -9.306000E+03
       346  23 -3.303108E+05 -8.103132E+04 -1.192429E+03 -1.698924E+05  3.762052E+03 -6.841599E+03
       346  24 -3.281837E+05 -8.317864E+04 -6.632188E+02 -1.724179E+05  2.119992E+03 -4.280345E+03
       346  25 -2.039596E+05 -3.917847E+04  1.576165E+04 -1.373491E+05  1.123919E+04 -7.102052E+03
       346  26 -2.404516E+05 -4.910231E+04  1.169882E+04 -1.446197E+05  9.848204E+03 -4.557183E+03
       346  27 -2.726784E+05 -6.349851E+04  7.322204E+03 -1.568587E+05  8.421115E+03 -1.915466E+03
       347   1 -3.622221E+05 -9.523687E+04 -5.297232E+03 -1.819672E+05  4.896362E+03  5.027902E+03
       347   2 -3.299781E+05 -8.084586E+04 -2.692926E+02 -1.697896E+05  6.133927E+03  2.253927E+03
       347   3 -2.933995E+05 -7.083051E+04  4.627540E+03 -1.626044E+05  7.375102E+03 -5.296873E+02
       347   4 -3.281622E+05 -8.317787E+04 -5.052793E+02 -1.724115E+05 -1.404672E+03  2.663116E+03
       347   5 -3.303304E+05 -8.099134E+04 -3.019870E+02 -1.699151E+05 -1.887697E+02 -1.190040E+02
       347   6 -3.281618E+05 -8.317670E+04 -2.130546E+02 -1.724118E+05  1.030729E+03 -2.910762E+03
       347   7 -2.941005E+05 -7.111853E+04  4.286966E+03 -1.628552E+05 -7.706153E+03  2.981635E+02
       347   8 -3.306825E+05 -8.113678E+04 -3.345106E+02 -1.700406E+05 -6.511506E+03 -2.491949E+03
       347   9 -3.629226E+05 -9.552274E+04 -5.053486E+03 -1.822188E+05 -5.313273E+03 -5.291697E+03
       347  10 -3.622222E+05 -9.523690E+04 -5.297325E+03 -1.819672E+05  1.698236E-09 -2.071312E-09
       347  11 -3.299782E+05 -8.084588E+04 -2.693729E+02 -1.697896E+05 -2.219844E-08 -5.883478E-09
       347  12 -2.933996E+05 -7.083052E+04  4.627437E+03 -1.626044E+05 -1.818981E-08 -1.980333E-09
       347  13 -3.281622E+05 -8.317787E+04 -5.052963E+02 -1.724115E+05 -5.351618E-09 -4.688706E-09
       347  14 -3.303304E+05 -8.099134E+04 -3.019871E+02 -1.699151E+05 -1.025087E-08 -7.003592E-09
       347  15 -3.281618E+05 -8.317671E+04 -2.130725E+02 -1.724118E+05  6.817085E-09  1.366565E-09
       347  16 -2.941005E+05 -7.111855E+04  4.286854E+03 -1.628552E+05 -1.231383E-08 -6.882715E-09
       347  17 -3.306826E+05 -8.113680E+04 -3.346020E+02 -1.700406E+05 -4.216342E-09 -6.934667E-09
       347  18 -3.629227E+05 -9.552277E+04 -5.053591E+03 -1.822188E+05  2.380295E-08  3.718810E-09
       347  19 -3.622221E+05 -9.523687E+04 -5.297232E+03 -1.819672E+05 -4.896362E+03 -5.027902E+03
       347  20 -3.299781E+05 -8.084586E+04 -2.692926E+02 -1.697896E+05 -6.133927E+03 -2.253927E+03
       347  21 -2.933995E+05 -7.083051E+04  4.627540E+03 -1.626044E+05 -7.375102E+03  5.296873E+02
       347  22 -3.281622E+05 -8.317787E+04 -5.052793E+02 -1.724115E+05  1.404672E+03 -2.663116E+03
       347  23 -3.303304E+05 -8.099134E+04 -3.019870E+02 -1.699151E+05  1.887697E+02  1.190040E+02
       347  24 -3.281618E+05 -8.317670E+04 -2.130546E+02 -1.724118E+05 -1.030729E+03  2.910762E+03
       347  25 -2.941005E+05 -7.111853E+04  4.286966E+03 -1.628552E+05  7.706153E+03 -2.981635E+02
       347  26 -3.306825E+05 -8.113678E+04 -3.345106E+02 -1.700406E+05  6.511506E+03  2.491949E+03
       347  27 -3.629226E+05 -9.552274E+04 -5.053486E+03 -1.822188E+05  5.313273E+03  5.291697E+03
       348   1 -2.719747E+05 -6.320289E+04  7.819141E+03 -1.565866E+05  8.032806E+03 -2.178228E+03
       348   2 -2.397448E+05 -4.882183E+04  1.260516E+04 -1.444053E+05  9.181696E+03 -4.993898E+03
       348   3 -2.031651E+05 -3.880154E+04  1.733127E+04 -1.372146E+05  1.032557E+04 -7.795839E+03
       348   4 -3.281616E+05 -8.317791E+04 -1.989081E+02 -1.724108E+05  1.688569E+03 -4.559307E+03
       348   5 -3.303343E+05 -8.099913E+04 -2.224853E+02 -1.699139E+05  2.867730E+03 -7.363815E+03
       348   6 -3.281645E+05 -8.318714E+04 -3.299690E+02 -1.724081E+05  4.041884E+03 -1.015462E+04
       348   7 -3.843441E+05 -1.031523E+05 -8.216602E+03 -1.882335E+05 -4.654983E+03 -6.940129E+03
       348   8 -4.209149E+05 -1.131755E+05 -1.305000E+04 -1.954190E+05 -3.445265E+03 -9.733368E+03
       348   9 -4.531483E+05 -1.275716E+05 -1.799157E+04 -2.075953E+05 -2.240553E+03 -1.251292E+04
       348  10 -2.719748E+05 -6.320291E+04  7.819011E+03 -1.565866E+05  6.950776E-08  3.078657E-08
       348  11 -2.397449E+05 -4.882188E+04  1.260496E+04 -1.444052E+05  1.515929E-08  6.710555E-09
       348  12 -2.031652E+05 -3.880163E+04  1.733096E+04 -1.372145E+05 -5.134237E-08 -1.950914E-08
       348  13 -3.281616E+05 -8.317794E+04 -1.989525E+02 -1.724108E+05  1.595452E-08  5.991528E-09
       348  14 -3.303344E+05 -8.099919E+04 -2.226026E+02 -1.699139E+05  1.898688E-08  7.387397E-09
       348  15 -3.281645E+05 -8.318725E+04 -3.301935E+02 -1.724080E+05  1.068266E-08  2.840896E-09
       348  16 -3.843442E+05 -1.031523E+05 -8.216733E+03 -1.882335E+05 -4.489387E-08 -1.930724E-08
       348  17 -4.209149E+05 -1.131756E+05 -1.305020E+04 -1.954191E+05  1.168106E-08  7.302423E-09
       348  18 -4.531484E+05 -1.275718E+05 -1.799187E+04 -2.075953E+05  6.223972E-08  2.593812E-08
       348  19 -2.719747E+05 -6.320289E+04  7.819141E+03 -1.565866E+05 -8.032806E+03  2.178228E+03
       348  20 -2.397448E+05 -4.882183E+04  1.260516E+04 -1.444053E+05 -9.181696E+03  4.993898E+03
       348  21 -2.031651E+05 -3.880154E+04  1.733127E+04 -1.372146E+05 -1.032557E+04  7.795839E+03
       348  22 -3.281616E+05 -8.317791E+04 -1.989081E+02 -1.724108E+05 -1.688569E+03  4.559307E+03
       348  23 -3.303343E+05 -8.099913E+04 -2.224853E+02 -1.699139E+05 -2.867730E+03  7.363815E+03
       348  24 -3.281645E+05 -8.318714E+04 -3.299690E+02 -1.724081E+05 -4.041884E+03  1.015462E+04
       348  25 -3.843441E+05 -1.031523E+05 -8.216602E+03 -1.882335E+05  4.654983E+03  6.940129E+03
       348  26 -4.209149E+05 -1.131755E+05 -1.305000E+04 -1.954190E+05  3.445265E+03  9.733368E+03
       348  27 -4.531483E+05 -1.275716E+05 -1.799157E+04 -2.075953E+05  2.240553E+03  1.251292E+04
       349   1 -1.817475E+05 -3.117518E+04  2.043779E+04 -1.312061E+05  1.100489E+04 -9.422056E+03
       349   2 -1.495497E+05 -1.678186E+04  2.505818E+04 -1.189976E+05  1.213371E+04 -1.214986E+04
       349   3 -1.130266E+05 -6.783357E+03  2.959914E+04 -1.117581E+05  1.321589E+04 -1.475265E+04
       349   4 -3.281799E+05 -8.318867E+04 -4.214779E+02 -1.724103E+05  4.722096E+03 -1.178069E+04
       349   5 -3.303273E+05 -8.103547E+04 -7.383043E+02 -1.698997E+05  6.128649E+03 -1.440464E+04
       349   6 -3.282056E+05 -8.333239E+04 -1.354735E+03 -1.723588E+05  7.488540E+03 -1.690356E+04
       349   7 -4.745887E+05 -1.351997E+05 -2.128069E+04 -2.136053E+05 -1.559138E+03 -1.413874E+04
       349   8 -5.110678E+05 -1.452850E+05 -2.653449E+04 -2.207874E+05  1.254664E+02 -1.665872E+04
       349   9 -5.433310E+05 -1.598752E+05 -3.230799E+04 -2.329388E+05  1.763355E+03 -1.905366E+04
       349  10 -1.817476E+05 -3.117531E+04  2.043740E+04 -1.312060E+05 -4.907386E-09 -2.245543E-09
       349  11 -1.495499E+05 -1.678205E+04  2.505763E+04 -1.189975E+05  1.442534E-08  3.122743E-09
       349  12 -1.130269E+05 -6.783638E+03  2.959840E+04 -1.117580E+05  1.831305E-08  5.636664E-11
       349  13 -3.281799E+05 -8.318882E+04 -4.217805E+02 -1.724103E+05  1.291103E-08  4.034484E-09
       349  14 -3.303274E+05 -8.103570E+04 -7.387647E+02 -1.698996E+05  1.674309E-08  6.184999E-09
       349  15 -3.282057E+05 -8.333271E+04 -1.355377E+03 -1.723587E+05  5.885733E-09  1.022318E-09
       349  16 -4.745887E+05 -1.351999E+05 -2.128107E+04 -2.136053E+05  1.960468E-08  9.271333E-09
       349  17 -5.110679E+05 -1.452853E+05 -2.653501E+04 -2.207874E+05  1.616541E-08  7.667522E-09
       349  18 -5.433311E+05 -1.598756E+05 -3.230868E+04 -2.329387E+05 -7.797722E-09  2.052749E-09
       349  19 -1.817475E+05 -3.117518E+04  2.043779E+04 -1.312061E+05 -1.100489E+04  9.422056E+03
       349  20 -1.495497E+05 -1.678186E+04  2.505818E+04 -1.189976E+05 -1.213371E+04  1.214986E+04
       349  21 -1.130266E+05 -6.783357E+03  2.959914E+04 -1.117581E+05 -1.321589E+04  1.475265E+04
       349  22 -3.281799E+05 -8.318867E+04 -4.214779E+02 -1.724103E+05 -4.722096E+03  1.178069E+04
       349  23 -3.303273E+05 -8.103547E+04 -7.383043E+02 -1.698997E+05 -6.128649E+03  1.440464E+04
       349  24 -3.282056E+05 -8.333239E+04 -1.354735E+03 -1.723588E+05 -7.488540E+03  1.690356E+04
       349  25 -4.745887E+05 -1.351997E+05 -2.128069E+04 -2.136053E+05  1.559138E+03  1.413874E+04
       349  26 -5.110678E+05 -1.452850E+05 -2.653449E+04 -2.207874E+05 -1.254664E+02  1.665872E+04
       349  27 -5.433310E+05 -1.598752E+05 -3.230799E+04 -2.329388E+05 -1.763355E+03  1.905366E+04
       350   1 -9.159325E+04  7.912453E+02  3.253777E+04 -1.058153E+05  1.403165E+04 -1.620069E+04
       350   2 -5.989423E+04  1.534197E+04  3.705468E+04 -9.294669E+04  1.414827E+04 -1.849045E+04
       350   3 -2.408751E+04  2.489075E+04  4.185747E+04 -8.475244E+04  1.386839E+04 -1.972378E+04
       350   4 -3.283201E+05 -8.337781E+04 -1.811405E+03 -1.723615E+05  8.306961E+03 -1.835089E+04
       350   5 -3.302927E+05 -8.169718E+04 -3.359207E+03 -1.696299E+05  1.077288E+04 -1.975906E+04
       350   6 -3.286251E+05 -8.548500E+04 -6.483420E+03 -1.715738E+05  1.284227E+04 -2.011049E+04
       350   7 -5.649891E+05 -1.675420E+05 -3.616178E+04 -2.388845E+05  2.584491E+03 -2.050025E+04
       350   8 -6.006137E+05 -1.787289E+05 -4.377440E+04 -2.462820E+05  7.399008E+03 -2.102709E+04
       350   9 -6.330630E+05 -1.958505E+05 -5.482605E+04 -2.583549E+05  1.181668E+04 -2.049701E+04
       350  10 -9.159353E+04  7.909107E+02  3.253691E+04 -1.058151E+05 -5.876502E-08 -2.929244E-08
       350  11 -5.989453E+04  1.534155E+04  3.705366E+04 -9.294648E+04 -1.612473E-08 -9.638427E-09
       350  12 -2.408783E+04  2.489028E+04  4.185638E+04 -8.475222E+04  4.744598E-08  1.721033E-08
       350  13 -3.283203E+05 -8.337819E+04 -1.812167E+03 -1.723613E+05 -4.913944E-09 -4.151988E-09
       350  14 -3.302929E+05 -8.169763E+04 -3.360159E+03 -1.696297E+05 -1.727829E-08 -8.036124E-09
       350  15 -3.286254E+05 -8.548548E+04 -6.484490E+03 -1.715736E+05 -3.501545E-09 -5.114450E-09
       350  16 -5.649892E+05 -1.675424E+05 -3.616258E+04 -2.388845E+05  4.573078E-08  2.103478E-08
       350  17 -6.006139E+05 -1.787294E+05 -4.377533E+04 -2.462819E+05 -1.636238E-08 -6.764186E-09
       350  18 -6.330633E+05 -1.958510E+05 -5.482710E+04 -2.583547E+05 -5.640788E-08 -2.647548E-08
       350  19 -9.159325E+04  7.912453E+02  3.253777E+04 -1.058153E+05 -1.403165E+04  1.620069E+04
       350  20 -5.989423E+04  1.534197E+04  3.705468E+04 -9.294669E+04 -1.414827E+04  1.849045E+04
       350  21 -2.408751E+04  2.489075E+04  4.185747E+04 -8.475244E+04 -1.386839E+04  1.972378E+04
       350  22 -3.283201E+05 -8.337781E+04 -1.811405E+03 -1.723615E+05 -8.306961E+03  1.835089E+04
       350  23 -3.302927E+05 -8.169718E+04 -3.359207E+03 -1.696299E+05 -1.077288E+04  1.975906E+04
       350  24 -3.286251E+05 -8.548500E+04 -6.483420E+03 -1.715738E+05 -1.284227E+04  2.011049E+04
       350  25 -5.649891E+05 -1.675420E+05 -3.616178E+04 -2.388845E+05 -2.584491E+03  2.050025E+04
       350  26 -6.006137E+05 -1.787289E+05 -4.377440E+04 -2.462820E+05 -7.399008E+03  2.102709E+04
       350  27 -6.330630E+05 -1.958505E+05 -5.482605E+04 -2.583549E+05 -1.181668E+04  2.049701E+04
       351   1 -2.499982E+03  3.172352E+04  4.467212E+04 -7.930162E+04  1.506871E+04 -1.995843E+04
       351   2  2.258780E+04  4.797969E+04  5.220495E+04 -5.721917E+04  2.355522E+03 -2.014525E+04
       351   3  4.926796E+04  5.090146E+04  6.537813E+04 -3.628246E+04 -1.372231E+04 -1.138244E+04
       351   4 -3.296924E+05 -8.621312E+04 -8.759138E+03 -1.715038E+05  1.405470E+04 -2.034074E+04
       351   5 -3.303624E+05 -9.061058E+04 -1.688675E+04 -1.660368E+05  2.125254E+04 -1.304806E+04
       351   6 -3.333887E+05 -1.122923E+05 -3.515457E+04 -1.617164E+05  2.508554E+04  3.197399E+03
       351   7 -6.567694E+05 -2.041383E+05 -6.219252E+04 -2.636600E+05  1.304126E+04 -2.072283E+04
       351   8 -6.831745E+05 -2.291807E+05 -8.598049E+04 -2.747926E+05  4.013772E+04 -5.956098E+03
       351   9 -7.158838E+05 -2.754566E+05 -1.356894E+05 -2.870705E+05  6.386591E+04  1.776376E+04
       351  10 -2.500333E+03  3.172303E+04  4.467094E+04 -7.930138E+04 -9.731901E-10  4.440209E-11
       351  11  2.258769E+04  4.797925E+04  5.220417E+04 -5.721913E+04  1.868815E-09  9.371583E-10
       351  12  4.926772E+04  5.090127E+04  6.537753E+04 -3.628259E+04  2.196677E-09 -2.473197E-10
       351  13 -3.296927E+05 -8.621362E+04 -8.760286E+03 -1.715035E+05  5.639921E-09 -2.484572E-09
       351  14 -3.303629E+05 -9.061088E+04 -1.688792E+04 -1.660366E+05  2.653453E-09 -8.301940E-10
       351  15 -3.333894E+05 -1.122925E+05 -3.515577E+04 -1.617165E+05  1.106840E-09  5.573848E-10
       351  16 -6.567697E+05 -2.041388E+05 -6.219365E+04 -2.636598E+05  3.553111E-09 -2.961658E-09
       351  17 -6.831763E+05 -2.291812E+05 -8.598359E+04 -2.747924E+05 -1.282027E-09 -8.538541E-12
       351  18 -7.158883E+05 -2.754580E+05 -1.356976E+05 -2.870714E+05 -3.520380E-09 -3.653249E-10
       351  19 -2.499982E+03  3.172352E+04  4.467212E+04 -7.930162E+04 -1.506871E+04  1.995843E+04
       351  20  2.258780E+04  4.797969E+04  5.220495E+04 -5.721917E+04 -2.355522E+03  2.014525E+04
       351  21  4.926796E+04  5.090146E+04  6.537813E+04 -3.628246E+04  1.372231E+04  1.138244E+04
       351  22 -3.296924E+05 -8.621312E+04 -8.759138E+03 -1.715038E+05 -1.405470E+04  2.034074E+04
       351  23 -3.303624E+05 -9.061058E+04 -1.688675E+04 -1.660368E+05 -2.125254E+04  1.304806E+04
       351  24 -3.333887E+05 -1.122923E+05 -3.515457E+04 -1.617164E+05 -2.508554E+04 -3.197399E+03
       351  25 -6.567694E+05 -2.041383E+05 -6.219252E+04 -2.636600E+05 -1.304126E+04  2.072283E+04
       351  26 -6.831745E+05 -2.291807E+05 -8.598049E+04 -2.747926E+05 -4.013772E+04  5.956098E+03
       351  27 -7.158838E+05 -2.754566E+05 -1.356894E+05 -2.870705E+05 -6.386591E+04 -1.776376E+04
       352   1 -1.052860E+05 -1.572121E+04 -3.919359E+04 -2.263028E+04 -7.105369E+04 -3.375441E+03
       352   2 -1.094456E+05  7.941391E+04  1.635971E+04 -5.703862E+03 -4.848642E+04 -1.023325E+04
       352   3 -1.426895E+05  6.979742E+04  3.104752E+04  2.272291E+04 -2.592587E+04 -1.000385E+04
       352   4 -4.051587E+05 -9.039455E+04 -1.128725E+05  9.757204E+03 -7.727637E+04 -3.383844E+03
       352   5 -3.902309E+05  1.001663E+04 -4.987113E+04  3.968551E+03 -5.046954E+04 -1.023606E+04
       352   6 -4.051390E+05  4.912291E+03 -3.069444E+04  9.680946E+03 -2.366858E+04 -1.000129E+04
       352   7 -7.049471E+05 -1.650706E+05 -1.865573E+05  4.212900E+04 -8.349603E+04 -3.392899E+03
       352   8 -6.709434E+05 -5.938593E+04 -1.161073E+05  1.363655E+04 -5.245176E+04 -1.023893E+04
       352   9 -6.675247E+05 -5.997712E+04 -9.244102E+04 -3.355482E+03 -2.141223E+04 -9.998838E+03
       352  10 -1.052915E+05 -1.572258E+04 -3.920310E+04 -2.263047E+04 -2.350212E-09  6.197818E-10
       352  11 -1.094482E+05  7.941316E+04  1.635509E+04 -5.704262E+03 -5.743488E-10  2.003186E-10
       352  12 -1.426902E+05  6.979713E+04  3.104606E+04  2.272270E+04  3.443257E-09 -3.603965E-10
       352  13 -4.051651E+05 -9.039617E+04 -1.128837E+05  9.756993E+03 -1.903437E-09  5.779726E-10
       352  14 -3.902336E+05  1.001583E+04 -4.987612E+04  3.968135E+03 -1.006433E-09 -1.703243E-09
       352  15 -4.051396E+05  4.912033E+03 -3.069568E+04  9.680755E+03  5.154904E-10 -2.279567E-09
       352  16 -7.049546E+05 -1.650725E+05 -1.865704E+05  4.212877E+04  1.602614E-09  4.466402E-10
       352  17 -6.709463E+05 -5.938678E+04 -1.161127E+05  1.363612E+04  3.724022E-10 -1.007076E-09
       352  18 -6.675252E+05 -5.997735E+04 -9.244207E+04 -3.355654E+03 -4.134623E-09 -4.211018E-10
       352  19 -1.052860E+05 -1.572121E+04 -3.919359E+04 -2.263028E+04  7.105369E+04  3.375441E+03
       352  20 -1.094456E+05  7.941391E+04  1.635971E+04 -5.703862E+03  4.848642E+04  1.023325E+04
       352  21 -1.426895E+05  6.979742E+04  3.104752E+04  2.272291E+04  2.592587E+04  1.000385E+04
       352  22 -4.051587E+05 -9.039455E+04 -1.128725E+05  9.757204E+03  7.727637E+04  3.383844E+03
       352  23 -3.902309E+05  1.001663E+04 -4.987113E+04  3.968551E+03  5.046954E+04  1.023606E+04
       352  24 -4.051390E+05  4.912291E+03 -3.069444E+04  9.680946E+03  2.366858E+04  1.000129E+04
       352  25 -7.049471E+05 -1.650706E+05 -1.865573E+05  4.212900E+04  8.349603E+04  3.392899E+03
       352  26 -6.709434E+05 -5.938593E+04 -1.161073E+05  1.363655E+04  5.245176E+04  1.023893E+04
       352  27 -6.675247E+05 -5.997712E+04 -9.244102E+04 -3.355482E+03  2.141223E+04  9.998838E+03
       353   1 -1.579135E+05  5.146477E+04  3.210156E+04  7.409542E+03 -1.910950E+04 -8.577060E+03
       353   2 -1.752240E+05  5.594639E+04  3.951345E+04  3.400792E+03 -1.279662E+04 -8.195915E+03
       353   3 -1.957639E+05  5.078219E+04  4.040447E+04  1.126748E+04 -6.484600E+03 -7.381544E+03
       353   4 -3.992379E+05 -8.209318E+03 -2.490459E+04  9.794744E+03 -1.900992E+04 -8.577255E+03
       353   5 -3.975979E+05  9.765733E+02 -1.290164E+04  3.851900E+03 -1.243948E+04 -8.195698E+03
       353   6 -3.992333E+05  4.699566E+02 -7.600264E+03  9.784790E+03 -5.869699E+03 -7.380883E+03
       353   7 -6.405088E+05 -6.788756E+04 -8.191476E+04  1.217900E+04 -1.891039E+04 -8.577449E+03
       353   8 -6.199262E+05 -5.399678E+04 -6.532013E+04  4.302832E+03 -1.208247E+04 -8.195480E+03
       353   9 -6.026647E+05 -4.984523E+04 -5.560785E+04  8.302580E+03 -5.254999E+03 -7.380225E+03
       353  10 -1.579139E+05  5.146460E+04  3.210074E+04  7.409410E+03 -3.020859E-09 -1.259280E-09
       353  11 -1.752242E+05  5.594628E+04  3.951301E+04  3.400708E+03 -6.801273E-10  1.632867E-09
       353  12 -1.957640E+05  5.078212E+04  4.040429E+04  1.126744E+04  1.937267E-09  1.498925E-09
       353  13 -3.992383E+05 -8.209494E+03 -2.490540E+04  9.794612E+03  5.769299E-10 -4.658472E-09
       353  14 -3.975980E+05  9.764596E+02 -1.290206E+04  3.851818E+03 -6.406690E-10 -2.344866E-09
       353  15 -3.992334E+05  4.698889E+02 -7.600431E+03  9.784755E+03  7.540451E-11 -2.209059E-09
       353  16 -6.405092E+05 -6.788773E+04 -8.191557E+04  1.217887E+04  2.704772E-09  1.394622E-09
       353  17 -6.199264E+05 -5.399689E+04 -6.532054E+04  4.302753E+03  4.823982E-10 -1.648012E-10
       353  18 -6.026647E+05 -4.984530E+04 -5.560801E+04  8.302549E+03 -2.540563E-09  3.389885E-10
       353  19 -1.579135E+05  5.146477E+04  3.210156E+04  7.409542E+03  1.910950E+04  8.577060E+03
       353  20 -1.752240E+05  5.594639E+04  3.951345E+04  3.400792E+03  1.279662E+04  8.195915E+03
       353  21 -1.957639E+05  5.078219E+04  4.040447E+04  1.126748E+04  6.484600E+03  7.381544E+03
       353  22 -3.992379E+05 -8.209318E+03 -2.490459E+04  9.794744E+03  1.900992E+04  8.577255E+03
       353  23 -3.975979E+05  9.765733E+02 -1.290164E+04  3.851900E+03  1.243948E+04  8.195698E+03
       353  24 -3.992333E+05  4.699566E+02 -7.600264E+03  9.784790E+03  5.869699E+03  7.380883E+03
       353  25 -6.405088E+05 -6.788756E+04 -8.191476E+04  1.217900E+04  1.891039E+04  8.577449E+03
       353  26 -6.199262E+05 -5.399678E+04 -6.532013E+04  4.302832E+03  1.208247E+04  8.195480E+03
       353  27 -6.026647E+05 -4.984523E+04 -5.560785E+04  8.302580E+03  5.254999E+03  7.380225E+03
       354   1 -2.165310E+05  4.429360E+04  3.695127E+04  9.877674E+03 -5.165834E+03 -6.829756E+03
       354   2 -2.354737E+05  4.038119E+04  3.510663E+04  3.985899E+03 -3.541184E+03 -6.004086E+03
       354   3 -2.548634E+05  3.561562E+04  3.198583E+04  1.012990E+04 -1.916876E+03 -5.148983E+03
       354   4 -3.986036E+05 -7.066202E+02 -5.917101E+03  9.824203E+03 -4.679821E+03 -6.829224E+03
       354   5 -3.983775E+05  1.095331E+02 -3.290166E+03  3.805666E+03 -3.037957E+03 -6.003461E+03
       354   6 -3.986017E+05  6.939691E+01 -1.951603E+03  9.823102E+03 -1.396386E+03 -5.148262E+03
       354   7 -5.806458E+05 -4.570921E+04 -4.878776E+04  9.770736E+03 -4.193949E+03 -6.828692E+03
       354   8 -5.612568E+05 -4.016402E+04 -4.168879E+04  3.625472E+03 -2.534862E+03 -6.002837E+03
       354   9 -5.423210E+05 -3.547830E+04 -3.589047E+04  9.516372E+03 -8.760170E+02 -5.147541E+03
       354  10 -2.165310E+05  4.429355E+04  3.695114E+04  9.877646E+03  1.213608E-09  1.738634E-09
       354  11 -2.354738E+05  4.038115E+04  3.510653E+04  3.985881E+03  3.219621E-09  1.182099E-09
       354  12 -2.548634E+05  3.561559E+04  3.198578E+04  1.012989E+04  4.608248E-09 -4.803632E-10
       354  13 -3.986037E+05 -7.066762E+02 -5.917230E+03  9.824177E+03  1.005572E-09 -1.466827E-09
       354  14 -3.983775E+05  1.094919E+02 -3.290251E+03  3.805651E+03 -2.388516E-09  2.956051E-09
       354  15 -3.986017E+05  6.936793E+01 -1.951656E+03  9.823096E+03  1.935805E-09  6.971569E-09
       354  16 -5.806459E+05 -4.570927E+04 -4.878788E+04  9.770713E+03 -3.572071E-09  1.279631E-09
       354  17 -5.612568E+05 -4.016406E+04 -4.168887E+04  3.625460E+03 -2.142961E-09  1.211472E-09
       354  18 -5.423210E+05 -3.547833E+04 -3.589052E+04  9.516368E+03 -4.493827E-09  7.310126E-10
       354  19 -2.165310E+05  4.429360E+04  3.695127E+04  9.877674E+03  5.165834E+03  6.829756E+03
       354  20 -2.354737E+05  4.038119E+04  3.510663E+04  3.985899E+03  3.541184E+03  6.004086E+03
       354  21 -2.548634E+05  3.561562E+04  3.198583E+04  1.012990E+04  1.916876E+03  5.148983E+03
       354  22 -3.986036E+05 -7.066202E+02 -5.917101E+03  9.824203E+03  4.679821E+03  6.829224E+03
       354  23 -3.983775E+05  1.095331E+02 -3.290166E+03  3.805666E+03  3.037957E+03  6.003461E+03
       354  24 -3.986017E+05  6.939691E+01 -1.951603E+03  9.823102E+03  1.396386E+03  5.148262E+03
       354  25 -5.806458E+05 -4.570921E+04 -4.878776E+04  9.770736E+03  4.193949E+03  6.828692E+03
       354  26 -5.612568E+05 -4.016402E+04 -4.168879E+04  3.625472E+03  2.534862E+03  6.002837E+03
       354  27 -5.423210E+05 -3.547830E+04 -3.589047E+04  9.516372E+03  8.760170E+02  5.147541E+03
       355   1 -2.764163E+05  3.014541E+04  2.719200E+04  1.000265E+04 -1.598266E+03 -4.645816E+03
       355   2 -2.956957E+05  2.543277E+04  2.324524E+04  3.912818E+03 -1.116498E+03 -3.786815E+03
       355   3 -3.150897E+05  2.067312E+04  1.896414E+04  9.965375E+03 -6.349197E+02 -2.924097E+03
       355   4 -3.985258E+05 -3.083195E+01 -1.532980E+03  9.847188E+03 -1.084467E+03 -4.645067E+03
       355   5 -3.984675E+05  2.541981E+01 -9.790719E+02  3.775878E+03 -6.005634E+02 -3.786018E+03
       355   6 -3.985248E+05  3.422585E+01 -7.611004E+02  9.847083E+03 -1.168361E+02 -2.923251E+03
       355   7 -5.206216E+05 -3.020814E+04 -3.025898E+04  9.691748E+03 -5.707682E+02 -4.644318E+03
       355   8 -5.012296E+05 -2.538269E+04 -2.520411E+04  3.638957E+03 -8.471427E+01 -3.785222E+03
       355   9 -4.819535E+05 -2.060517E+04 -2.048682E+04  9.728805E+03  4.011783E+02 -2.922406E+03
       355  10 -2.764163E+05  3.014539E+04  2.719195E+04  1.000265E+04  2.610414E-09 -1.323755E-09
       355  11 -2.956957E+05  2.543276E+04  2.324521E+04  3.912815E+03 -2.977544E-09  2.566484E-09
       355  12 -3.150897E+05  2.067311E+04  1.896412E+04  9.965373E+03 -4.990452E-09  3.387727E-09
       355  13 -3.985258E+05 -3.085543E+01 -1.533023E+03  9.847184E+03  8.435701E-10  4.555233E-09
       355  14 -3.984675E+05  2.540432E+01 -9.790995E+02  3.775876E+03 -7.751661E-11  4.871671E-09
       355  15 -3.985248E+05  3.421668E+01 -7.611165E+02  9.847083E+03 -3.519229E-09  8.748848E-10
       355  16 -5.206216E+05 -3.020816E+04 -3.025902E+04  9.691746E+03 -2.208770E-09  2.253971E-10
       355  17 -5.012296E+05 -2.538270E+04 -2.520414E+04  3.638956E+03  3.798771E-09 -8.956629E-10
       355  18 -4.819535E+05 -2.060518E+04 -2.048684E+04  9.728806E+03  2.237102E-09 -2.293628E-09
       355  19 -2.764163E+05  3.014541E+04  2.719200E+04  1.000265E+04  1.598266E+03  4.645816E+03
       355  20 -2.956957E+05  2.543277E+04  2.324524E+04  3.912818E+03  1.116498E+03  3.786815E+03
       355  21 -3.150897E+05  2.067312E+04  1.896414E+04  9.965375E+03  6.349197E+02  2.924097E+03
       355  22 -3.985258E+05 -3.083195E+01 -1.532980E+03  9.847188E+03  1.084467E+03  4.645067E+03
       355  23 -3.984675E+05  2.541981E+01 -9.790719E+02  3.775878E+03  6.005634E+02  3.786018E+03
       355  24 -3.985248E+05  3.422585E+01 -7.611004E+02  9.847083E+03  1.168361E+02  2.923251E+03
       355  25 -5.206216E+05 -3.020814E+04 -3.025898E+04  9.691748E+03  5.707682E+02  4.644318E+03
       355  26 -5.012296E+05 -2.538269E+04 -2.520411E+04  3.638957E+03  8.471427E+01  3.785222E+03
       355  27 -4.819535E+05 -2.060517E+04 -2.048682E+04  9.728805E+03 -4.011783E+02  2.922406E+03
       356   1 -3.368660E+05  1.526445E+04  1.373249E+04  9.931161E+03 -5.003480E+02 -2.420793E+03
       356   2 -3.562371E+05  1.046649E+04  9.076713E+03  3.805279E+03 -6.707121E+01 -1.555445E+03
       356   3 -3.757239E+05  5.634983E+03  4.119168E+03  9.882318E+03  3.661307E+02 -6.899383E+02
       356   4 -3.985240E+05  3.261744E+01 -7.430163E+02  9.860525E+03  1.815413E+01 -2.419926E+03
       356   5 -3.984660E+05  2.629577E+01 -8.773827E+02  3.759080E+03  4.514938E+02 -1.554560E+03
       356   6 -3.985237E+05 -1.348911E+01 -1.313478E+03  9.860607E+03  8.847721E+02 -6.890339E+02
       356   7 -4.601784E+05 -1.519949E+04 -1.521878E+04  9.789895E+03  5.366050E+02 -2.419059E+03
       356   8 -4.406932E+05 -1.041403E+04 -1.083160E+04  3.712884E+03  9.700238E+02 -1.553674E+03
       356   9 -4.213230E+05 -5.661999E+03 -6.746159E+03  9.838897E+03  1.403395E+03 -6.881295E+02
       356  10 -3.368660E+05  1.526445E+04  1.373248E+04  9.931160E+03 -4.406571E-09  1.730286E-09
       356  11 -3.562371E+05  1.046649E+04  9.076708E+03  3.805279E+03  6.264435E-10 -1.126286E-09
       356  12 -3.757239E+05  5.634983E+03  4.119167E+03  9.882318E+03  7.072411E-09 -2.482957E-09
       356  13 -3.985240E+05  3.261116E+01 -7.430273E+02  9.860525E+03  5.837279E-10  4.176636E-09
       356  14 -3.984660E+05  2.629312E+01 -8.773876E+02  3.759081E+03 -1.614391E-09 -5.641357E-10
       356  15 -3.985237E+05 -1.348983E+01 -1.313480E+03  9.860608E+03  1.130128E-10 -2.552118E-09
       356  16 -4.601784E+05 -1.519949E+04 -1.521879E+04  9.789896E+03  4.621366E-09  6.352543E-10
       356  17 -4.406932E+05 -1.041403E+04 -1.083161E+04  3.712885E+03 -3.078030E-09 -1.044107E-09
       356  18 -4.213230E+05 -5.662000E+03 -6.746164E+03  9.838898E+03 -7.383089E-09 -2.495615E-09
       356  19 -3.368660E+05  1.526445E+04  1.373249E+04  9.931161E+03  5.003480E+02  2.420793E+03
       356  20 -3.562371E+05  1.046649E+04  9.076713E+03  3.805279E+03  6.707121E+01  1.555445E+03
       356  21 -3.757239E+05  5.634983E+03  4.119168E+03  9.882318E+03 -3.661307E+02  6.899383E+02
       356  22 -3.985240E+05  3.261744E+01 -7.430163E+02  9.860525E+03 -1.815413E+01  2.419926E+03
       356  23 -3.984660E+05  2.629577E+01 -8.773827E+02  3.759080E+03 -4.514938E+02  1.554560E+03
       356  24 -3.985237E+05 -1.348911E+01 -1.313478E+03  9.860607E+03 -8.847721E+02  6.890339E+02
       356  25 -4.601784E+05 -1.519949E+04 -1.521878E+04  9.789895E+03 -5.366050E+02  2.419059E+03
       356  26 -4.406932E+05 -1.041403E+04 -1.083160E+04  3.712884E+03 -9.700238E+02  1.553674E+03
       356  27 -4.213230E+05 -5.661999E+03 -6.746159E+03  9.838897E+03 -1.403395E+03  6.881295E+02
       357   1 -3.976254E+05  2.952312E+02 -1.486285E+03  9.747500E+03  6.273454E+02 -1.834174E+02
       357   2 -4.168655E+05 -4.468708E+03 -7.114092E+03  3.730404E+03  2.011534E+03  6.838749E+02
       357   3 -4.365142E+05 -9.937409E+03 -1.383123E+04  9.925767E+03  3.395731E+03  1.536688E+03
       357   4 -3.985884E+05  6.930476E+01 -1.654954E+03  9.862311E+03  1.150370E+03 -1.825017E+02
       357   5 -3.983849E+05  1.004402E+02 -2.757603E+03  3.756648E+03  2.525908E+03  6.847667E+02
       357   6 -3.985890E+05 -5.716328E+02 -4.943506E+03  9.863425E+03  3.901497E+03  1.537557E+03
       357   7 -3.995513E+05 -1.566216E+02 -1.823621E+03  9.977121E+03  1.673394E+03 -1.815858E+02
       357   8 -3.799040E+05  4.669564E+03  1.598864E+03  3.782892E+03  3.040297E+03  6.856584E+02
       357   9 -3.606624E+05  8.794042E+03  3.944124E+03  9.801078E+03  4.407294E+03  1.538426E+03
       357  10 -3.976254E+05  2.952311E+02 -1.486286E+03  9.747500E+03  1.997808E-09  9.115549E-10
       357  11 -4.168655E+05 -4.468710E+03 -7.114101E+03  3.730403E+03 -6.446472E-11  1.270580E-09
       357  12 -4.365143E+05 -9.937415E+03 -1.383126E+04  9.925763E+03 -2.505382E-09 -1.556195E-09
       357  13 -3.985884E+05  6.930436E+01 -1.654956E+03  9.862311E+03  9.181577E-10 -3.473391E-10
       357  14 -3.983849E+05  1.004380E+02 -2.757616E+03  3.756646E+03 -9.242374E-10  2.705984E-09
       357  15 -3.985890E+05 -5.716394E+02 -4.943539E+03  9.863420E+03  3.168797E-09  3.528015E-09
       357  16 -3.995513E+05 -1.566224E+02 -1.823626E+03  9.977121E+03 -3.017501E-09  6.177358E-10
       357  17 -3.799040E+05  4.669561E+03  1.598846E+03  3.782890E+03  3.535758E-09 -5.242591E-09
       357  18 -3.606624E+05  8.794034E+03  3.944083E+03  9.801072E+03  3.316634E-09 -2.898642E-09
       357  19 -3.976254E+05  2.952312E+02 -1.486285E+03  9.747500E+03 -6.273454E+02  1.834174E+02
       357  20 -4.168655E+05 -4.468708E+03 -7.114092E+03  3.730404E+03 -2.011534E+03 -6.838749E+02
       357  21 -4.365142E+05 -9.937409E+03 -1.383123E+04  9.925767E+03 -3.395731E+03 -1.536688E+03
       357  22 -3.985884E+05  6.930476E+01 -1.654954E+03  9.862311E+03 -1.150370E+03  1.825017E+02
       357  23 -3.983849E+05  1.004402E+02 -2.757603E+03  3.756648E+03 -2.525908E+03 -6.847667E+02
       357  24 -3.985890E+05 -5.716328E+02 -4.943506E+03  9.863425E+03 -3.901497E+03 -1.537557E+03
       357  25 -3.995513E+05 -1.566216E+02 -1.823621E+03  9.977121E+03 -1.673394E+03  1.815858E+02
       357  26 -3.799040E+05  4.669564E+03  1.598864E+03  3.782892E+03 -3.040297E+03 -6.856584E+02
       357  27 -3.606624E+05  8.794042E+03  3.944124E+03  9.801078E+03 -4.407294E+03 -1.538426E+03
       358   1 -4.588491E+05 -1.437480E+04 -2.048058E+04  8.706174E+03  4.318409E+03  2.072651E+03
       358   2 -4.768368E+05 -1.872989E+04 -2.941101E+04  4.212928E+03  9.938330E+03  2.925528E+03
       358   3 -4.976263E+05 -3.118046E+04 -4.403617E+04  1.189448E+04  1.555847E+04  3.542841E+03
       358   4 -3.991159E+05  4.090409E+02 -6.345870E+03  9.850685E+03  4.895097E+03  2.073635E+03
       358   5 -3.977287E+05  8.275201E+02 -1.076086E+04  3.769270E+03  1.037437E+04  2.926223E+03
       358   6 -3.991189E+05 -6.824482E+03 -2.077232E+04  9.862633E+03  1.585405E+04  3.543233E+03
       358   7 -3.393795E+05  1.519263E+04  7.788597E+03  1.099531E+04  5.471839E+03  2.074622E+03
       358   8 -3.186148E+05  2.038448E+04  7.888854E+03  3.325553E+03  1.081047E+04  2.926918E+03
       358   9 -3.006025E+05  1.753082E+04  2.490865E+03  7.830453E+03  1.614967E+04  3.543624E+03
       358  10 -4.588491E+05 -1.437481E+04 -2.048063E+04  8.706166E+03  1.829152E-09  1.501587E-09
       358  11 -4.768369E+05 -1.872992E+04 -2.941121E+04  4.212905E+03 -9.857357E-10  1.529645E-09
       358  12 -4.976266E+05 -3.118054E+04 -4.403665E+04  1.189444E+04 -2.272718E-09  2.425367E-09
       358  13 -3.991160E+05  4.090298E+02 -6.345923E+03  9.850677E+03  1.986438E-09  4.073863E-09
       358  14 -3.977288E+05  8.274820E+02 -1.076108E+04  3.769246E+03  1.265548E-09  3.768008E-09
       358  15 -3.991192E+05 -6.824563E+03 -2.077282E+04  9.862588E+03  2.146096E-09 -4.948492E-10
       358  16 -3.393796E+05  1.519262E+04  7.788532E+03  1.099530E+04 -2.706631E-09 -1.167803E-09
       358  17 -3.186149E+05  2.038444E+04  7.888619E+03  3.325528E+03  2.634958E-10 -1.685648E-09
       358  18 -3.006028E+05  1.753074E+04  2.490351E+03  7.830407E+03  2.385538E-10 -3.675462E-09
       358  19 -4.588491E+05 -1.437480E+04 -2.048058E+04  8.706174E+03 -4.318409E+03 -2.072651E+03
       358  20 -4.768368E+05 -1.872989E+04 -2.941101E+04  4.212928E+03 -9.938330E+03 -2.925528E+03
       358  21 -4.976263E+05 -3.118046E+04 -4.403617E+04  1.189448E+04 -1.555847E+04 -3.542841E+03
       358  22 -3.991159E+05  4.090409E+02 -6.345870E+03  9.850685E+03 -4.895097E+03 -2.073635E+03
       358  23 -3.977287E+05  8.275201E+02 -1.076086E+04  3.769270E+03 -1.037437E+04 -2.926223E+03
       358  24 -3.991189E+05 -6.824482E+03 -2.077232E+04  9.862633E+03 -1.585405E+04 -3.543233E+03
       358  25 -3.393795E+05  1.519263E+04  7.788597E+03  1.099531E+04 -5.471839E+03 -2.074622E+03
       358  26 -3.186148E+05  2.038448E+04  7.888854E+03  3.325553E+03 -1.081047E+04 -2.926918E+03
       358  27 -3.006025E+05  1.753082E+04  2.490865E+03  7.830453E+03 -1.614967E+04 -3.543624E+03
       359   1 -5.242460E+05 -2.563660E+04 -5.390748E+04 -1.059718E+03  1.826455E+04  4.557991E+03
       359   2 -5.309156E+05 -2.605542E+04 -7.446262E+04  1.188255E+04  4.293180E+04  5.116712E+03
       359   3 -5.629358E+05 -1.148774E+05 -1.331936E+05  3.687486E+04  6.760442E+04  1.803335E+03
       359   4 -4.040423E+05  4.119139E+03 -2.560097E+04  9.791085E+03  1.973963E+04  4.560615E+03
       359   5 -3.915790E+05  8.370950E+03 -4.158884E+04  3.825060E+03  4.208875E+04  5.114777E+03
       359   6 -4.040583E+05 -7.536817E+04 -9.413600E+04  9.909622E+03  6.444409E+04  1.795722E+03
       359   7 -2.838250E+05  3.387428E+04  2.704616E+03  2.064400E+04  2.121499E+04  4.563290E+03
       359   8 -2.522245E+05  4.279618E+04 -8.716366E+03 -4.234261E+03  4.124552E+04  5.112864E+03
       359   9 -2.451562E+05 -3.585803E+04 -5.507980E+04 -1.706254E+04  6.128294E+04  1.788385E+03
       359  10 -5.242463E+05 -2.563671E+04 -5.390814E+04 -1.059785E+03 -1.542144E-09  1.544749E-09
       359  11 -5.309176E+05 -2.605594E+04 -7.446614E+04  1.188238E+04  7.072963E-11 -3.242514E-10
       359  12 -5.629407E+05 -1.148787E+05 -1.332022E+05  3.687476E+04 -3.123440E-10 -3.220354E-10
       359  13 -4.040427E+05  4.119012E+03 -2.560174E+04  9.791012E+03 -4.945901E-10  3.147164E-09
       359  14 -3.915810E+05  8.370446E+03 -4.159222E+04  3.824887E+03 -1.616096E-09 -3.586435E-09
       359  15 -4.040628E+05 -7.536929E+04 -9.414382E+04  9.909529E+03  1.730997E-09  2.580131E-09
       359  16 -2.838255E+05  3.387414E+04  2.703731E+03  2.064392E+04  3.751941E-09  1.771650E-09
       359  17 -2.522263E+05  4.279569E+04 -8.719613E+03 -4.234430E+03 -1.600342E-09  7.759782E-10
       359  18 -2.451602E+05 -3.585904E+04 -5.508687E+04 -1.706263E+04 -1.245947E-09 -1.373977E-09
       359  19 -5.242460E+05 -2.563660E+04 -5.390748E+04 -1.059718E+03 -1.826455E+04 -4.557991E+03
       359  20 -5.309156E+05 -2.605542E+04 -7.446262E+04  1.188255E+04 -4.293180E+04 -5.116712E+03
       359  21 -5.629358E+05 -1.148774E+05 -1.331936E+05  3.687486E+04 -6.760442E+04 -1.803335E+03
       359  22 -4.040423E+05  4.119139E+03 -2.560097E+04  9.791085E+03 -1.973963E+04 -4.560615E+03
       359  23 -3.915790E+05  8.370950E+03 -4.158884E+04  3.825060E+03 -4.208875E+04 -5.114777E+03
       359  24 -4.040583E+05 -7.536817E+04 -9.413600E+04  9.909622E+03 -6.444409E+04 -1.795722E+03
       359  25 -2.838250E+05  3.387428E+04  2.704616E+03  2.064400E+04 -2.121499E+04 -4.563290E+03
       359  26 -2.522245E+05  4.279618E+04 -8.716366E+03 -4.234261E+03 -4.124552E+04 -5.112864E+03
       359  27 -2.451562E+05 -3.585803E+04 -5.507980E+04 -1.706254E+04 -6.128294E+04 -1.788385E+03
       360   1  2.521456E+05  1.418892E+06  2.835734E+05 -1.122160E+05  4.817977E+03  1.134868E+05
       360   2  7.872926E+04  1.277647E+06  1.649436E+05 -4.256007E+04  1.352451E+04  6.508870E+04
       360   3  5.855648E+04  1.180925E+06  1.160714E+05 -4.704390E+04  9.463837E+03  1.668696E+04
       360   4  1.283982E+05  9.220870E+05  1.614466E+05 -6.521112E+04  4.834503E+03  1.043967E+05
       360   5 -1.441157E+04  9.005197E+05  7.608301E+04 -2.820293E+04  1.352795E+04  6.369932E+04
       360   6 -5.261584E+03  9.221632E+05  5.517436E+04 -6.533022E+04  9.455830E+03  2.298871E+04
       360   7  4.640797E+03  4.255107E+05  3.930308E+04 -1.824375E+04  4.849664E+03  9.531392E+04
       360   8 -1.075618E+05  5.235230E+05 -1.278729E+04 -1.385451E+04  1.353132E+04  6.231076E+04
       360   9 -6.908313E+04  6.634634E+05 -5.726941E+03 -8.360886E+04  9.447451E+03  2.928786E+04
       360  10  2.521421E+05  1.418878E+06  2.835492E+05 -1.122165E+05 -3.964120E-10  5.715117E-09
       360  11  7.872793E+04  1.277643E+06  1.649353E+05 -4.256078E+04  5.858825E-10  1.581634E-09
       360  12  5.855631E+04  1.180925E+06  1.160707E+05 -4.704403E+04 -1.182822E-09 -3.105813E-09
       360  13  1.283953E+05  9.220753E+05  1.614261E+05 -6.521153E+04  1.322647E-10  6.662630E-10
       360  14 -1.441285E+04  9.005153E+05  7.607505E+04 -2.820362E+04 -2.928368E-09 -6.934170E-10
       360  15 -5.261821E+03  9.221626E+05  5.517320E+04 -6.533039E+04  1.048223E-09  1.300351E-09
       360  16  4.638335E+03  4.255010E+05  3.928598E+04 -1.824413E+04  1.244309E-09 -6.149030E-09
       360  17 -1.075630E+05  5.235188E+05 -1.279493E+04 -1.385518E+04 -1.311667E-09 -9.443940E-10
       360  18 -6.908345E+04  6.634625E+05 -5.728719E+03 -8.360909E+04  1.431516E-09  2.350535E-09
       360  19  2.521456E+05  1.418892E+06  2.835734E+05 -1.122160E+05 -4.817977E+03 -1.134868E+05
       360  20  7.872926E+04  1.277647E+06  1.649436E+05 -4.256007E+04 -1.352451E+04 -6.508870E+04
       360  21  5.855648E+04  1.180925E+06  1.160714E+05 -4.704390E+04 -9.463837E+03 -1.668696E+04
       360  22  1.283982E+05  9.220870E+05  1.614466E+05 -6.521112E+04 -4.834503E+03 -1.043967E+05
       360  23 -1.441157E+04  9.005197E+05  7.608301E+04 -2.820293E+04 -1.352795E+04 -6.369932E+04
       360  24 -5.261584E+03  9.221632E+05  5.517436E+04 -6.533022E+04 -9.455830E+03 -2.298871E+04
       360  25  4.640797E+03  4.255107E+05  3.930308E+04 -1.824375E+04 -4.849664E+03 -9.531392E+04
       360  26 -1.075618E+05  5.235230E+05 -1.278729E+04 -1.385451E+04 -1.353132E+04 -6.231076E+04
       360  27 -6.908313E+04  6.634634E+05 -5.726941E+03 -8.360886E+04 -9.447451E+03 -2.928786E+04
       361   1  4.191399E+04  1.040809E+06  8.033037E+04 -7.183988E+04  4.610177E+03  1.137281E+04
       361   2 -1.583249E+03  9.167246E+05  4.694440E+04 -2.774983E+04  2.844500E+02 -1.169380E+04
       361   3 -1.035571E+04  8.041115E+05  3.719241E+04 -5.784729E+04 -4.060864E+03 -3.475630E+04
       361   4  1.086394E+04  9.151083E+05  5.074308E+04 -6.530172E+04  4.606990E+03  1.398181E+04
       361   5 -3.395406E+03  9.093785E+05  4.521531E+04 -2.820470E+04  2.811441E+02 -9.071734E+03
       361   6  1.706874E+04  9.151045E+05  6.331391E+04 -6.529388E+04 -4.063818E+03 -3.212546E+04
       361   7 -2.018707E+04  7.894220E+05  2.115475E+04 -5.876489E+04  4.603859E+03  1.659027E+04
       361   8 -5.207562E+03  9.020324E+05  4.348625E+04 -2.865955E+04  2.778345E+02 -6.449701E+03
       361   9  4.449253E+04  1.026109E+06  8.943462E+04 -7.274180E+04 -4.066836E+03 -2.949416E+04
       361  10  4.191393E+04  1.040809E+06  8.033009E+04 -7.183992E+04  5.164525E-10  3.705832E-09
       361  11 -1.583286E+03  9.167244E+05  4.694415E+04 -2.774983E+04  1.501020E-09  7.028245E-09
       361  12 -1.035605E+04  8.041102E+05  3.719012E+04 -5.784740E+04  3.957017E-10  8.681959E-09
       361  13  1.086387E+04  9.151081E+05  5.074267E+04 -6.530178E+04 -4.735872E-10  1.123506E-09
       361  14 -3.395428E+03  9.093784E+05  4.521516E+04 -2.820469E+04 -4.255348E-10 -1.635508E-09
       361  15  1.706845E+04  9.151034E+05  6.331195E+04 -6.529398E+04 -2.309207E-09  9.831562E-10
       361  16 -2.018716E+04  7.894217E+05  2.115419E+04 -5.876496E+04  2.298038E-09 -4.182249E-09
       361  17 -5.207573E+03  9.020324E+05  4.348617E+04 -2.865955E+04 -2.082373E-09 -6.473457E-09
       361  18  4.449228E+04  1.026108E+06  8.943296E+04 -7.274190E+04  1.466121E-09 -9.702866E-09
       361  19  4.191399E+04  1.040809E+06  8.033037E+04 -7.183988E+04 -4.610177E+03 -1.137281E+04
       361  20 -1.583249E+03  9.167246E+05  4.694440E+04 -2.774983E+04 -2.844500E+02  1.169380E+04
       361  21 -1.035571E+04  8.041115E+05  3.719241E+04 -5.784729E+04  4.060864E+03  3.475630E+04
       361  22  1.086394E+04  9.151083E+05  5.074308E+04 -6.530172E+04 -4.606990E+03 -1.398181E+04
       361  23 -3.395406E+03  9.093785E+05  4.521531E+04 -2.820470E+04 -2.811441E+02  9.071734E+03
       361  24  1.706874E+04  9.151045E+05  6.331391E+04 -6.529388E+04  4.063818E+03  3.212546E+04
       361  25 -2.018707E+04  7.894220E+05  2.115475E+04 -5.876489E+04 -4.603859E+03 -1.659027E+04
       361  26 -5.207562E+03  9.020324E+05  4.348625E+04 -2.865955E+04 -2.778345E+02  6.449701E+03
       361  27  4.449253E+04  1.026109E+06  8.943462E+04 -7.274180E+04  4.066836E+03  2.949416E+04
       362   1 -6.945272E+04  6.828587E+05  1.576471E+04 -9.274373E+04 -8.857386E+03 -4.987178E+04
       362   2 -1.110345E+05  5.324131E+05  2.462678E+04 -6.821306E+03 -1.295511E+04 -1.013926E+05
       362   3  7.306405E+04  4.450457E+05  1.234316E+05  5.015998E+03 -4.636328E+03 -1.528893E+05
       362   4 -9.289620E+03  9.268557E+05  7.320635E+04 -6.533711E+04 -8.867101E+03 -4.366289E+04
       362   5 -2.151104E+04  8.946503E+05  1.100220E+05 -2.820677E+04 -1.294983E+04 -1.026739E+05
       362   6  1.931642E+05  9.267527E+05  2.419327E+05 -6.515176E+04 -4.611174E+03 -1.616711E+05
       362   7  5.087209E+04  1.170909E+06  1.306444E+05 -3.791965E+04 -8.876267E+03 -3.745158E+04
       362   8  6.800476E+04  1.257009E+06  1.954084E+05 -4.960473E+04 -1.294446E+04 -1.039560E+05
       362   9  3.132655E+05  1.408681E+06  3.604197E+05 -1.353740E+05 -4.584053E+03 -1.704596E+05
       362  10 -6.945347E+04  6.828560E+05  1.575989E+04 -9.274409E+04  1.156934E-09 -4.993164E-09
       362  11 -1.110374E+05  5.324020E+05  2.460716E+04 -6.822364E+03  2.221098E-09 -4.590542E-09
       362  12  7.305776E+04  4.450206E+05  1.233877E+05  5.015428E+03 -2.202911E-10 -3.213596E-10
       362  13 -9.290215E+03  9.268537E+05  7.320262E+04 -6.533742E+04 -4.036483E-09  1.513137E-09
       362  14 -2.151405E+04  8.946390E+05  1.100019E+05 -2.820784E+04 -3.207042E-10 -1.311713E-09
       362  15  1.931571E+05  9.267247E+05  2.418836E+05 -6.515236E+04 -8.580169E-10  9.340852E-10
       362  16  5.087163E+04  1.170908E+06  1.306417E+05 -3.791991E+04  6.051283E-10  4.062467E-09
       362  17  6.800168E+04  1.256997E+06  1.953878E+05 -4.960582E+04 -7.612928E-10  4.996949E-09
       362  18  3.132577E+05  1.408650E+06  3.603651E+05 -1.353746E+05  3.415008E-10 -5.811465E-11
       362  19 -6.945272E+04  6.828587E+05  1.576471E+04 -9.274373E+04  8.857386E+03  4.987178E+04
       362  20 -1.110345E+05  5.324131E+05  2.462678E+04 -6.821306E+03  1.295511E+04  1.013926E+05
       362  21  7.306405E+04  4.450457E+05  1.234316E+05  5.015998E+03  4.636328E+03  1.528893E+05
       362  22 -9.289620E+03  9.268557E+05  7.320635E+04 -6.533711E+04  8.867101E+03  4.366289E+04
       362  23 -2.151104E+04  8.946503E+05  1.100220E+05 -2.820677E+04  1.294983E+04  1.026739E+05
       362  24  1.931642E+05  9.267527E+05  2.419327E+05 -6.515176E+04  4.611174E+03  1.616711E+05
       362  25  5.087209E+04  1.170909E+06  1.306444E+05 -3.791965E+04  8.876267E+03  3.745158E+04
       362  26  6.800476E+04  1.257009E+06  1.954084E+05 -4.960473E+04  1.294446E+04  1.039560E+05
       362  27  3.132655E+05  1.408681E+06  3.604197E+05 -1.353740E+05  4.584053E+03  1.704596E+05
       363   1  3.907601E+04 -6.366542E+03 -1.888017E+04  1.967439E+04 -1.418999E+04 -5.342962E+03
       363   2  4.469652E+04  1.282317E+04 -5.597404E+03  1.380323E+04 -9.136264E+03 -3.463189E+03
       363   3  4.096905E+04  9.440495E+03 -2.297487E+03  1.412814E+04 -4.091342E+03 -1.560153E+03
       363   4  2.614373E+04 -1.100844E+04 -2.239477E+04  1.640508E+04 -1.419041E+04 -5.343128E+03
       363   5  3.191604E+04  8.053089E+03 -9.107008E+03  1.038459E+04 -9.136267E+03 -3.463191E+03
       363   6  2.834011E+04  4.541887E+03 -5.802589E+03  1.056024E+04 -4.090922E+03 -1.559994E+03
       363   7  1.321161E+04 -1.565034E+04 -2.590939E+04  1.313582E+04 -1.419084E+04 -5.343295E+03
       363   8  1.913573E+04  3.283015E+03 -1.261663E+04  6.966009E+03 -9.136270E+03 -3.463193E+03
       363   9  1.571132E+04 -3.567096E+02 -9.307706E+03  6.992410E+03 -4.090501E+03 -1.559835E+03
       363  10  3.907579E+04 -6.366626E+03 -1.888060E+04  1.967433E+04 -5.145439E-09  5.842338E-09
       363  11  4.469643E+04  1.282314E+04 -5.597583E+03  1.380320E+04 -6.559255E-09  6.211581E-09
       363  12  4.096903E+04  9.440488E+03 -2.297523E+03  1.412814E+04  2.648412E-08 -2.954822E-08
       363  13  2.614351E+04 -1.100853E+04 -2.239520E+04  1.640502E+04 -7.587499E-10  1.380078E-09
       363  14  3.191595E+04  8.053053E+03 -9.107187E+03  1.038456E+04  3.201407E-09  2.372130E-11
       363  15  2.834009E+04  4.541880E+03 -5.802625E+03  1.056024E+04  1.015382E-09  1.582922E-09
       363  16  1.321139E+04 -1.565042E+04 -2.590982E+04  1.313576E+04  8.218159E-09 -4.963870E-09
       363  17  1.913564E+04  3.282979E+03 -1.261681E+04  6.965983E+03  7.905911E-09 -7.186270E-09
       363  18  1.571130E+04 -3.567167E+02 -9.307742E+03  6.992405E+03 -2.588490E-08  3.127314E-08
       363  19  3.907601E+04 -6.366542E+03 -1.888017E+04  1.967439E+04  1.418999E+04  5.342962E+03
       363  20  4.469652E+04  1.282317E+04 -5.597404E+03  1.380323E+04  9.136264E+03  3.463189E+03
       363  21  4.096905E+04  9.440495E+03 -2.297487E+03  1.412814E+04  4.091342E+03  1.560153E+03
       363  22  2.614373E+04 -1.100844E+04 -2.239477E+04  1.640508E+04  1.419041E+04  5.343128E+03
       363  23  3.191604E+04  8.053089E+03 -9.107008E+03  1.038459E+04  9.136267E+03  3.463191E+03
       363  24  2.834011E+04  4.541887E+03 -5.802589E+03  1.056024E+04  4.090922E+03  1.559994E+03
       363  25  1.321161E+04 -1.565034E+04 -2.590939E+04  1.313582E+04  1.419084E+04  5.343295E+03
       363  26  1.913573E+04  3.283015E+03 -1.261663E+04  6.966009E+03  9.136270E+03  3.463193E+03
       363  27  1.571132E+04 -3.567096E+02 -9.307706E+03  6.992410E+03  4.090501E+03  1.559835E+03
       364   1  3.662804E+04  4.666721E+03 -2.722339E+03  1.405085E+04 -3.202207E+03 -1.219681E+03
       364   2  3.756635E+04  7.631424E+03 -6.135129E+01  1.307575E+04 -2.061518E+03 -7.903346E+02
       364   3  3.691094E+04  7.142751E+03  7.766834E+02  1.317433E+04 -9.216386E+02 -3.587753E+02
       364   4  2.908203E+04  1.849845E+03 -4.794646E+03  1.203189E+04 -3.202201E+03 -1.219680E+03
       364   5  3.005181E+04  4.797377E+03 -2.130801E+03  1.103556E+04 -2.061476E+03 -7.903190E+02
       364   6  2.942783E+04  4.291495E+03 -1.289956E+03  1.111290E+04 -9.215609E+02 -3.587460E+02
       364   7  2.153608E+04 -9.670287E+02 -6.866957E+03  1.001295E+04 -3.202196E+03 -1.219678E+03
       364   8  2.253732E+04  1.963332E+03 -4.200256E+03  8.995388E+03 -2.061435E+03 -7.903034E+02
       364   9  2.194479E+04  1.440242E+03 -3.356600E+03  9.051500E+03 -9.214832E+02 -3.587167E+02
       364  10  3.662803E+04  4.666717E+03 -2.722361E+03  1.405085E+04 -8.628347E-09  1.129070E-08
       364  11  3.756634E+04  7.631423E+03 -6.136045E+01  1.307575E+04 -3.304798E-08  4.356914E-08
       364  12  3.691093E+04  7.142751E+03  7.766815E+02  1.317433E+04  1.521545E-07 -1.860990E-07
       364  13  2.908202E+04  1.849841E+03 -4.794668E+03  1.203189E+04  7.258969E-10 -1.128805E-10
       364  14  3.005180E+04  4.797375E+03 -2.130810E+03  1.103556E+04 -3.989720E-09 -8.060872E-10
       364  15  2.942783E+04  4.291495E+03 -1.289957E+03  1.111290E+04  2.006185E-09 -6.668049E-09
       364  16  2.153607E+04 -9.670331E+02 -6.866979E+03  1.001295E+04  6.699766E-09 -9.077037E-09
       364  17  2.253731E+04  1.963331E+03 -4.200265E+03  8.995387E+03  3.451253E-08 -4.433240E-08
       364  18  2.194478E+04  1.440242E+03 -3.356602E+03  9.051499E+03 -1.464826E-07  1.781316E-07
       364  19  3.662804E+04  4.666721E+03 -2.722339E+03  1.405085E+04  3.202207E+03  1.219681E+03
       364  20  3.756635E+04  7.631424E+03 -6.135130E+01  1.307575E+04  2.061518E+03  7.903346E+02
       364  21  3.691094E+04  7.142751E+03  7.766834E+02  1.317433E+04  9.216386E+02  3.587753E+02
       364  22  2.908203E+04  1.849845E+03 -4.794646E+03  1.203189E+04  3.202201E+03  1.219680E+03
       364  23  3.005181E+04  4.797377E+03 -2.130801E+03  1.103556E+04  2.061476E+03  7.903190E+02
       364  24  2.942783E+04  4.291495E+03 -1.289956E+03  1.111290E+04  9.215609E+02  3.587460E+02
       364  25  2.153608E+04 -9.670287E+02 -6.866957E+03  1.001295E+04  3.202196E+03  1.219678E+03
       364  26  2.253732E+04  1.963332E+03 -4.200256E+03  8.995388E+03  2.061435E+03  7.903034E+02
       364  27  2.194479E+04  1.440242E+03 -3.356600E+03  9.051500E+03  9.214832E+02  3.587167E+02
       365   1  3.376832E+04  5.451702E+03  1.268891E+02  1.248094E+04 -7.277862E+02 -2.839011E+02
       365   2  3.394433E+04  5.881842E+03  6.803553E+02  1.229134E+04 -4.784776E+02 -1.878813E+02
       365   3  3.380281E+04  5.839222E+03  8.974450E+02  1.233916E+04 -2.289487E+02 -9.244301E+01
       365   4  2.955691E+04  3.863456E+03 -1.032868E+03  1.133759E+04 -7.277344E+02 -2.838816E+02
       365   5  2.974307E+04  4.292920E+03 -4.775373E+02  1.114614E+04 -4.784406E+02 -1.878673E+02
       365   6  2.961169E+04  4.249629E+03 -2.585733E+02  1.119212E+04 -2.289264E+02 -9.243460E+01
       365   7  2.534552E+04  2.275211E+03 -2.192626E+03  1.019425E+04 -7.276825E+02 -2.838621E+02
       365   8  2.554183E+04  2.703999E+03 -1.635431E+03  1.000096E+04 -4.784033E+02 -1.878533E+02
       365   9  2.542059E+04  2.660036E+03 -1.414593E+03  1.004509E+04 -2.289038E+02 -9.242611E+01
       365  10  3.376833E+04  5.451700E+03  1.268884E+02  1.248093E+04 -1.058334E-05 -5.924265E-06
       365  11  3.394435E+04  5.881833E+03  6.803572E+02  1.229131E+04 -4.898480E-05 -2.489703E-05
       365  12  3.380285E+04  5.839206E+03  8.974490E+02  1.233912E+04 -8.817988E-05 -4.293373E-05
       365  13  2.955691E+04  3.863456E+03 -1.032869E+03  1.133759E+04 -2.961383E-05 -9.710003E-06
       365  14  2.974307E+04  4.292920E+03 -4.775379E+02  1.114614E+04 -1.313770E-04 -4.304133E-05
       365  15  2.961169E+04  4.249629E+03 -2.585736E+02  1.119212E+04 -2.331453E-04 -7.637585E-05
       365  16  2.534552E+04  2.275213E+03 -2.192628E+03  1.019426E+04 -1.195235E-05 -4.904734E-06
       365  17  2.554181E+04  2.704009E+03 -1.635434E+03  1.000098E+04 -5.100690E-05 -2.310273E-05
       365  18  2.542056E+04  2.660052E+03 -1.414598E+03  1.004513E+04 -8.926274E-05 -4.223749E-05
       365  19  3.376833E+04  5.451699E+03  1.268901E+02  1.248093E+04  7.277862E+02  2.839011E+02
       365  20  3.394437E+04  5.881824E+03  6.803600E+02  1.229129E+04  4.784775E+02  1.878812E+02
       365  21  3.380288E+04  5.839190E+03  8.974532E+02  1.233908E+04  2.289485E+02  9.244293E+01
       365  22  2.955691E+04  3.863456E+03 -1.032868E+03  1.133759E+04  7.277343E+02  2.838816E+02
       365  23  2.974307E+04  4.292920E+03 -4.775375E+02  1.114614E+04  4.784403E+02  1.878672E+02
       365  24  2.961169E+04  4.249628E+03 -2.585737E+02  1.119212E+04  2.289259E+02  9.243444E+01
       365  25  2.534551E+04  2.275215E+03 -2.192627E+03  1.019426E+04  7.276824E+02  2.838621E+02
       365  26  2.554179E+04  2.704018E+03 -1.635436E+03  1.000100E+04  4.784032E+02  1.878532E+02
       365  27  2.542052E+04  2.660069E+03 -1.414602E+03  1.004517E+04  2.289036E+02  9.242602E+01
       366   1  3.160272E+04  4.918335E+03  3.545131E+02  1.176136E+04 -1.920706E+02 -7.764286E+01
       366   2  3.164376E+04  4.954150E+03  5.007729E+02  1.170367E+04 -1.720303E+02 -6.834389E+01
       366   3  3.160431E+04  5.000752E+03  6.183855E+02  1.172712E+04 -1.517968E+02 -5.955813E+01
       366   4  2.963859E+04  4.175378E+03 -1.868147E+02  1.122585E+04 -1.920302E+02 -7.762759E+01
       366   5  2.968491E+04  4.212759E+03 -3.921072E+01  1.116916E+04 -1.720014E+02 -6.833299E+01
       366   6  2.965073E+04  4.260928E+03  7.975523E+01  1.119361E+04 -1.517795E+02 -5.955159E+01
       366   7  2.767445E+04  3.432420E+03 -7.281430E+02  1.069034E+04 -1.919894E+02 -7.761226E+01
       366   8  2.772605E+04  3.471368E+03 -5.791947E+02  1.063465E+04 -1.719723E+02 -6.832203E+01
       366   9  2.769716E+04  3.521105E+03 -4.588753E+02  1.066010E+04 -1.517620E+02 -5.954501E+01
       366  10  3.160276E+04  4.918318E+03  3.545173E+02  1.176132E+04 -9.319904E-05 -4.425626E-05
       366  11  3.164379E+04  4.954136E+03  5.007755E+02  1.170364E+04 -6.910038E-05 -3.120949E-05
       366  12  3.160432E+04  5.000741E+03  6.183866E+02  1.172710E+04 -4.439463E-05 -1.867260E-05
       366  13  2.963859E+04  4.175378E+03 -1.868147E+02  1.122585E+04 -2.437044E-04 -8.013398E-05
       366  14  2.968491E+04  4.212759E+03 -3.921070E+01  1.116916E+04 -1.782205E-04 -5.967946E-05
       366  15  2.965073E+04  4.260928E+03  7.975528E+01  1.119361E+04 -1.127460E-04 -3.923321E-05
       366  16  2.767442E+04  3.432438E+03 -7.281472E+02  1.069038E+04 -9.250806E-05 -4.440411E-05
       366  17  2.772602E+04  3.471382E+03 -5.791974E+02  1.063468E+04 -6.755716E-05 -3.225123E-05
       366  18  2.769714E+04  3.521116E+03 -4.588766E+02  1.066012E+04 -4.321403E-05 -1.958260E-05
       366  19  3.160280E+04  4.918301E+03  3.545216E+02  1.176128E+04  1.920705E+02  7.764277E+01
       366  20  3.164382E+04  4.954122E+03  5.007782E+02  1.170361E+04  1.720302E+02  6.834383E+01
       366  21  3.160434E+04  5.000730E+03  6.183878E+02  1.172708E+04  1.517967E+02  5.955810E+01
       366  22  2.963859E+04  4.175378E+03 -1.868144E+02  1.122585E+04  1.920297E+02  7.762743E+01
       366  23  2.968491E+04  4.212759E+03 -3.921056E+01  1.116916E+04  1.720011E+02  6.833287E+01
       366  24  2.965073E+04  4.260928E+03  7.975542E+01  1.119361E+04  1.517793E+02  5.955151E+01
       366  25  2.767438E+04  3.432455E+03 -7.281513E+02  1.069042E+04  1.919892E+02  7.761217E+01
       366  26  2.772600E+04  3.471396E+03 -5.792001E+02  1.063471E+04  1.719722E+02  6.832196E+01
       366  27  2.769713E+04  3.521127E+03 -4.588777E+02  1.066014E+04  1.517619E+02  5.954497E+01
       367   1  2.987873E+04  4.302957E+03  1.955406E+02  1.127351E+04 -1.701095E+02 -6.581773E+01
       367   2  2.985986E+04  4.244474E+03  3.568162E+02  1.123609E+04 -3.247688E+02 -1.227750E+02
       367   3  2.989806E+04  4.475407E+03  6.973934E+02  1.120113E+04 -4.793844E+02 -1.798564E+02
       367   4  2.966690E+04  4.221449E+03  1.368988E+02  1.121434E+04 -1.700818E+02 -6.580728E+01
       367   5  2.965102E+04  4.165842E+03  2.993284E+02  1.117953E+04 -3.247437E+02 -1.227655E+02
       367   6  2.969221E+04  4.399652E+03  6.410618E+02  1.114717E+04 -4.793621E+02 -1.798480E+02
       367   7  2.945507E+04  4.139941E+03  7.825688E+01  1.115517E+04 -1.700540E+02 -6.579681E+01
       367   8  2.944218E+04  4.087210E+03  2.418406E+02  1.112296E+04 -3.247187E+02 -1.227561E+02
       367   9  2.948636E+04  4.323897E+03  5.847302E+02  1.109321E+04 -4.793398E+02 -1.798396E+02
       367  10  2.987874E+04  4.302949E+03  1.955412E+02  1.127350E+04 -3.051493E-05 -1.244368E-05
       367  11  2.985987E+04  4.244473E+03  3.568164E+02  1.123609E+04 -8.340903E-06 -3.486410E-06
       367  12  2.989806E+04  4.475413E+03  6.973931E+02  1.120113E+04  1.390321E-05  5.381362E-06
       367  13  2.966690E+04  4.221449E+03  1.368988E+02  1.121434E+04 -7.738703E-05 -2.732018E-05
       367  14  2.965102E+04  4.165842E+03  2.993283E+02  1.117953E+04 -2.134028E-05 -6.847863E-06
       367  15  2.969221E+04  4.399652E+03  6.410614E+02  1.114717E+04  3.470308E-05  1.361498E-05
       367  16  2.945506E+04  4.139949E+03  7.825616E+01  1.115518E+04 -2.992591E-05 -1.330527E-05
       367  17  2.944218E+04  4.087211E+03  2.418399E+02  1.112297E+04 -7.787347E-06 -4.503830E-06
       367  18  2.948636E+04  4.323891E+03  5.847295E+02  1.109320E+04  1.428892E-05  4.373039E-06
       367  19  2.987875E+04  4.302941E+03  1.955419E+02  1.127349E+04  1.701094E+02  6.581770E+01
       367  20  2.985987E+04  4.244471E+03  3.568171E+02  1.123609E+04  3.247687E+02  1.227750E+02
       367  21  2.989805E+04  4.475418E+03  6.973938E+02  1.120114E+04  4.793844E+02  1.798564E+02
       367  22  2.966690E+04  4.221449E+03  1.368989E+02  1.121434E+04  1.700817E+02  6.580723E+01
       367  23  2.965102E+04  4.165842E+03  2.993286E+02  1.117953E+04  3.247437E+02  1.227655E+02
       367  24  2.969221E+04  4.399652E+03  6.410620E+02  1.114717E+04  4.793621E+02  1.798480E+02
       367  25  2.945505E+04  4.139957E+03  7.825556E+01  1.115519E+04  1.700540E+02  6.579679E+01
       367  26  2.944217E+04  4.087213E+03  2.418397E+02  1.112297E+04  3.247187E+02  1.227561E+02
       367  27  2.948637E+04  4.323885E+03  5.847298E+02  1.109320E+04  4.793398E+02  1.798396E+02
       368   1  2.826829E+04  3.663482E+03  4.157794E+02  1.086036E+04 -6.020819E+02 -2.254387E+02
       368   2  2.802762E+04  3.365445E+03  1.000103E+03  1.080999E+04 -1.339717E+03 -5.022172E+02
       368   3  2.843177E+04  4.733352E+03  2.572455E+03  1.042612E+04 -2.077395E+03 -7.788959E+02
       368   4  2.975341E+04  4.216867E+03  8.234468E+02  1.125669E+04 -6.020595E+02 -2.254302E+02
       368   5  2.950849E+04  3.929557E+03  1.409049E+03  1.121779E+04 -1.339694E+03 -5.022085E+02
       368   6  2.990839E+04  5.308186E+03  2.982677E+03  1.084539E+04 -2.077371E+03 -7.788871E+02
       368   7  3.123853E+04  4.770253E+03  1.231114E+03  1.165303E+04 -6.020371E+02 -2.254217E+02
       368   8  3.098936E+04  4.493668E+03  1.817995E+03  1.162560E+04 -1.339671E+03 -5.021999E+02
       368   9  3.138501E+04  5.883020E+03  3.392899E+03  1.126466E+04 -2.077348E+03 -7.788783E+02
       368  10  2.826828E+04  3.663492E+03  4.157790E+02  1.086037E+04  2.719170E-05  9.978520E-06
       368  11  2.802761E+04  3.365466E+03  1.000101E+03  1.081001E+04  5.012774E-05  1.665270E-05
       368  12  2.843174E+04  4.733382E+03  2.572448E+03  1.042615E+04  7.303566E-05  2.313470E-05
       368  13  2.975341E+04  4.216867E+03  8.234461E+02  1.125669E+04  6.692205E-05  2.629509E-05
       368  14  2.950849E+04  3.929556E+03  1.409046E+03  1.121779E+04  1.215922E-04  4.940978E-05
       368  15  2.990839E+04  5.308184E+03  2.982668E+03  1.084539E+04  1.762692E-04  7.251759E-05
       368  16  3.123853E+04  4.770242E+03  1.231113E+03  1.165302E+04  2.719846E-05  8.796202E-06
       368  17  3.098938E+04  4.493646E+03  1.817990E+03  1.162558E+04  4.998332E-05  1.534699E-05
       368  18  3.138503E+04  5.882986E+03  3.392888E+03  1.126464E+04  7.280274E-05  2.208470E-05
       368  19  2.826827E+04  3.663502E+03  4.157802E+02  1.086038E+04  6.020820E+02  2.254387E+02
       368  20  2.802759E+04  3.365488E+03  1.000106E+03  1.081003E+04  1.339718E+03  5.022173E+02
       368  21  2.843173E+04  4.733416E+03  2.572459E+03  1.042617E+04  2.077395E+03  7.788960E+02
       368  22  2.975341E+04  4.216867E+03  8.234469E+02  1.125670E+04  6.020596E+02  2.254302E+02
       368  23  2.950849E+04  3.929557E+03  1.409050E+03  1.121779E+04  1.339695E+03  5.022086E+02
       368  24  2.990839E+04  5.308186E+03  2.982677E+03  1.084539E+04  2.077372E+03  7.788872E+02
       368  25  3.123854E+04  4.770231E+03  1.231113E+03  1.165301E+04  6.020371E+02  2.254218E+02
       368  26  3.098939E+04  4.493625E+03  1.817993E+03  1.162556E+04  1.339671E+03  5.021999E+02
       368  27  3.138506E+04  5.882955E+03  3.392895E+03  1.126461E+04  2.077348E+03  7.788783E+02
       369   1  2.667797E+04  2.825003E+03  2.742002E+03  1.060765E+04 -2.639651E+03 -9.896174E+02
       369   2  2.511396E+04  1.080667E+03  5.128544E+03  1.049102E+04 -5.910991E+03 -2.220439E+03
       369   3  2.777436E+04  9.686227E+03  1.276300E+04  7.839084E+03 -9.182007E+03 -3.452051E+03
       369   4  3.026207E+04  4.125883E+03  3.718898E+03  1.152869E+04 -2.639614E+03 -9.896032E+02
       369   5  2.864541E+04  2.442813E+03  6.107139E+03  1.148081E+04 -5.910990E+03 -2.220439E+03
       369   6  3.125315E+04  1.110961E+04  1.374330E+04  8.897653E+03 -9.182042E+03 -3.452066E+03
       369   7  3.384619E+04  5.426763E+03  4.695792E+03  1.244972E+04 -2.639578E+03 -9.895892E+02
       369   8  3.217688E+04  3.804959E+03  7.085734E+03  1.247061E+04 -5.910990E+03 -2.220439E+03
       369   9  3.473194E+04  1.253299E+04  1.472360E+04  9.956227E+03 -9.182077E+03 -3.452081E+03
       369  10  2.667794E+04  2.825038E+03  2.741990E+03  1.060768E+04  8.513657E-05  2.606084E-05
       369  11  2.511389E+04  1.080703E+03  5.128473E+03  1.049104E+04  1.034244E-04  2.928287E-05
       369  12  2.777424E+04  9.686254E+03  1.276282E+04  7.839098E+03  1.215214E-04  3.191017E-05
       369  13  3.026207E+04  4.125880E+03  3.718883E+03  1.152868E+04  2.040840E-04  8.506685E-05
       369  14  2.864538E+04  2.442798E+03  6.107064E+03  1.148080E+04  2.449846E-04  1.050943E-04
       369  15  3.125305E+04  1.110957E+04  1.374312E+04  8.897628E+03  2.858872E-04  1.251362E-04
       369  16  3.384621E+04  5.426722E+03  4.695774E+03  1.244969E+04  8.459833E-05  2.483428E-05
       369  17  3.217687E+04  3.804893E+03  7.085654E+03  1.247057E+04  1.026937E-04  2.792205E-05
       369  18  3.473188E+04  1.253289E+04  1.472341E+04  9.956163E+03  1.209686E-04  3.161727E-05
       369  19  2.667792E+04  2.825080E+03  2.742008E+03  1.060771E+04  2.639651E+03  9.896174E+02
       369  20  2.511391E+04  1.080768E+03  5.128553E+03  1.049108E+04  5.910991E+03  2.220439E+03
       369  21  2.777430E+04  9.686351E+03  1.276301E+04  7.839162E+03  9.182008E+03  3.452051E+03
       369  22  3.026208E+04  4.125883E+03  3.718898E+03  1.152869E+04  2.639615E+03  9.896034E+02
       369  23  2.864542E+04  2.442812E+03  6.107139E+03  1.148081E+04  5.910991E+03  2.220439E+03
       369  24  3.125315E+04  1.110961E+04  1.374330E+04  8.897653E+03  9.182043E+03  3.452066E+03
       369  25  3.384624E+04  5.426686E+03  4.695786E+03  1.244967E+04  2.639578E+03  9.895892E+02
       369  26  3.217693E+04  3.804857E+03  7.085724E+03  1.247055E+04  5.910990E+03  2.220439E+03
       369  27  3.473201E+04  1.253287E+04  1.472359E+04  9.956150E+03  9.182077E+03  3.452081E+03
       370   1  2.660907E+04  1.271290E+03  1.485073E+04  1.171116E+04 -1.173985E+04 -4.411778E+03
       370   2  1.694080E+04 -9.557375E+03  2.427777E+04  1.132865E+04 -2.619375E+04 -9.849688E+03
       370   3  3.366621E+04  4.504084E+04  6.237771E+04 -5.934022E+03 -4.064478E+04 -1.529590E+04
       370   4  3.336186E+04  3.475327E+03  1.664188E+04  1.319350E+04 -1.173972E+04 -4.411721E+03
       370   5  2.332137E+04 -6.967109E+03  2.607168E+04  1.324935E+04 -2.619395E+04 -9.849772E+03
       370   6  3.967436E+04  4.801701E+04  6.417440E+04 -3.574874E+03 -4.064529E+04 -1.529615E+04
       370   7  4.011469E+04  5.679365E+03  1.843303E+04  1.467585E+04 -1.173959E+04 -4.411665E+03
       370   8  2.970197E+04 -4.376839E+03  2.786558E+04  1.517006E+04 -2.619415E+04 -9.849857E+03
       370   9  4.568254E+04  5.099318E+04  6.597110E+04 -1.215703E+03 -4.064581E+04 -1.529641E+04
       370  10  2.660889E+04  1.271290E+03  1.485044E+04  1.171116E+04  1.119866E-04  2.811904E-05
       370  11  1.694002E+04 -9.557630E+03  2.427630E+04  1.132847E+04  6.290854E-05  1.462553E-05
       370  12  3.366437E+04  4.504015E+04  6.237416E+04 -5.934519E+03  1.394245E-05  2.944977E-06
       370  13  3.336170E+04  3.475269E+03  1.664159E+04  1.319346E+04  2.642309E-04  1.161911E-04
       370  14  2.332060E+04 -6.967397E+03  2.607020E+04  1.324914E+04  1.489027E-04  6.545569E-05
       370  15  3.967252E+04  4.801631E+04  6.417086E+04 -3.575375E+03  3.356651E-05  1.474756E-05
       370  16  4.011456E+04  5.679249E+03  1.843273E+04  1.467577E+04  1.125753E-04  2.985723E-05
       370  17  2.970123E+04 -4.377160E+03  2.786411E+04  1.516983E+04  6.364440E-05  1.799734E-05
       370  18  4.568070E+04  5.099248E+04  6.596755E+04 -1.216208E+03  1.458641E-05  4.394422E-06
       370  19  2.660901E+04  1.271406E+03  1.485074E+04  1.171123E+04  1.173985E+04  4.411778E+03
       370  20  1.694077E+04 -9.557309E+03  2.427777E+04  1.132869E+04  2.619375E+04  9.849688E+03
       370  21  3.366620E+04  4.504086E+04  6.237771E+04 -5.934014E+03  4.064478E+04  1.529590E+04
       370  22  3.336185E+04  3.475327E+03  1.664188E+04  1.319350E+04  1.173972E+04  4.411722E+03
       370  23  2.332137E+04 -6.967109E+03  2.607168E+04  1.324935E+04  2.619395E+04  9.849772E+03
       370  24  3.967435E+04  4.801701E+04  6.417440E+04 -3.574874E+03  4.064529E+04  1.529615E+04
       370  25  4.011474E+04  5.679249E+03  1.843302E+04  1.467578E+04  1.173959E+04  4.411665E+03
       370  26  2.970200E+04 -4.376904E+03  2.786558E+04  1.517002E+04  2.619415E+04  9.849857E+03
       370  27  4.568254E+04  5.099317E+04  6.597109E+04 -1.215712E+03  4.064581E+04  1.529641E+04
       371   1  2.657369E+03  3.308385E+04  9.193726E+03 -1.208696E+04 -6.638950E+04 -5.513127E+03
       371   2 -2.095121E+04  1.220703E+05  5.766334E+04 -1.318541E+03 -4.684622E+04 -1.654849E+04
       371   3 -7.280914E+04  1.079459E+05  6.766292E+04  3.275864E+04 -2.732296E+04 -1.586378E+04
       371   4 -4.895491E+05 -8.945936E+04 -1.117521E+05  1.957616E+04 -7.650198E+04 -5.532314E+03
       371   5 -4.747885E+05  9.910202E+03 -4.938623E+04  7.843963E+03 -4.994554E+04 -1.655547E+04
       371   6 -4.895199E+05  4.908148E+03 -3.038452E+04  1.942228E+04 -2.340755E+04 -1.585615E+04
       371   7 -9.815325E+05 -2.120167E+05 -2.327149E+05  5.121404E+04 -8.660645E+04 -5.552541E+03
       371   8 -9.284361E+05 -1.022643E+05 -1.564499E+05  1.699965E+04 -5.304260E+04 -1.656253E+04
       371   9 -9.060704E+05 -9.814136E+04 -1.284438E+05  6.094840E+03 -1.949475E+04 -1.584869E+04
       371  10  2.652628E+03  3.308263E+04  9.185387E+03 -1.208726E+04 -1.933843E-09  1.120198E-09
       371  11 -2.095364E+04  1.220694E+05  5.765870E+04 -1.319165E+03 -1.471672E-09  6.301003E-09
       371  12 -7.281000E+04  1.079454E+05  6.766104E+04  3.275829E+04 -6.560726E-10  3.208513E-09
       371  13 -4.895554E+05 -8.946097E+04 -1.117632E+05  1.957582E+04  1.146986E-09 -1.569291E-09
       371  14 -4.747913E+05  9.909238E+03 -4.939144E+04  7.843297E+03 -8.750460E-11 -3.883935E-09
       371  15 -4.895205E+05  4.907731E+03 -3.038602E+04  1.942198E+04 -1.056728E-09  1.704112E-09
       371  16 -9.815405E+05 -2.120187E+05 -2.327291E+05  5.121366E+04  1.239088E-09  3.150621E-11
       371  17 -9.284392E+05 -1.022653E+05 -1.564557E+05  1.699894E+04  1.728748E-09  7.499803E-09
       371  18 -9.060708E+05 -9.814174E+04 -1.284449E+05  6.094591E+03 -1.230986E-09 -1.764199E-11
       371  19  2.657369E+03  3.308385E+04  9.193726E+03 -1.208696E+04  6.638950E+04  5.513127E+03
       371  20 -2.095121E+04  1.220703E+05  5.766334E+04 -1.318541E+03  4.684622E+04  1.654849E+04
       371  21 -7.280914E+04  1.079459E+05  6.766292E+04  3.275864E+04  2.732296E+04  1.586378E+04
       371  22 -4.895491E+05 -8.945936E+04 -1.117521E+05  1.957616E+04  7.650198E+04  5.532314E+03
       371  23 -4.747885E+05  9.910202E+03 -4.938623E+04  7.843963E+03  4.994554E+04  1.655547E+04
       371  24 -4.895199E+05  4.908148E+03 -3.038452E+04  1.942228E+04  2.340755E+04  1.585615E+04
       371  25 -9.815325E+05 -2.120167E+05 -2.327149E+05  5.121404E+04  8.660645E+04  5.552541E+03
       371  26 -9.284361E+05 -1.022643E+05 -1.564499E+05  1.699965E+04  5.304260E+04  1.656253E+04
       371  27 -9.060704E+05 -9.814136E+04 -1.284438E+05  6.094840E+03  1.949475E+04  1.584869E+04
       372   1 -1.095872E+05  8.442255E+04  6.370996E+04  1.765488E+04 -1.914807E+04 -1.332236E+04
       372   2 -1.461624E+05  8.401303E+04  6.639926E+04  7.565629E+03 -1.307091E+04 -1.238509E+04
       372   3 -1.859295E+05  7.416924E+04  6.276479E+04  2.142186E+04 -6.996678E+03 -1.073082E+04
       372   4 -4.836889E+05 -8.082840E+03 -2.465502E+04  1.962388E+04 -1.880094E+04 -1.332224E+04
       372   5 -4.820492E+05  9.806372E+02 -1.277425E+04  7.641260E+03 -1.229720E+04 -1.238381E+04
       372   6 -4.836798E+05  5.326033E+02 -7.516580E+03  1.960508E+04 -5.796028E+03 -1.072822E+04
       372   7 -8.576619E+05 -1.005982E+05 -1.130297E+05  2.159161E+04 -1.845402E+04 -1.332213E+04
       372   8 -8.178323E+05 -8.205983E+04 -9.195554E+04  7.716791E+03 -1.152391E+04 -1.238252E+04
       372   9 -7.813484E+05 -7.311038E+04 -7.780407E+04  1.778913E+04 -4.595949E+03 -1.072562E+04
       372  10 -1.095877E+05  8.442226E+04  6.370894E+04  1.765468E+04 -1.155691E-09 -2.871614E-10
       372  11 -1.461626E+05  8.401282E+04  6.639865E+04  7.565499E+03  4.434441E-11  1.747122E-09
       372  12 -1.859296E+05  7.416911E+04  6.276448E+04  2.142180E+04  1.892878E-09  6.618234E-09
       372  13 -4.836894E+05 -8.083126E+03 -2.465602E+04  1.962368E+04 -3.465514E-10  6.457214E-09
       372  14 -4.820494E+05  9.804319E+02 -1.277482E+04  7.641138E+03  9.282155E-10 -1.328375E-08
       372  15 -4.836798E+05  5.324707E+02 -7.516859E+03  1.960503E+04 -3.260085E-10  5.798316E-09
       372  16 -8.576623E+05 -1.005985E+05 -1.130307E+05  2.159142E+04  1.154320E-09 -5.560902E-09
       372  17 -8.178325E+05 -8.206003E+04 -9.195608E+04  7.716676E+03 -1.463929E-09 -2.877529E-09
       372  18 -7.813485E+05 -7.311050E+04 -7.780432E+04  1.778909E+04 -6.106082E-09 -6.623908E-10
       372  19 -1.095872E+05  8.442255E+04  6.370996E+04  1.765488E+04  1.914807E+04  1.332236E+04
       372  20 -1.461624E+05  8.401303E+04  6.639926E+04  7.565629E+03  1.307091E+04  1.238509E+04
       372  21 -1.859295E+05  7.416924E+04  6.276479E+04  2.142186E+04  6.996678E+03  1.073082E+04
       372  22 -4.836889E+05 -8.082840E+03 -2.465502E+04  1.962388E+04  1.880094E+04  1.332224E+04
       372  23 -4.820492E+05  9.806372E+02 -1.277425E+04  7.641260E+03  1.229720E+04  1.238381E+04
       372  24 -4.836798E+05  5.326033E+02 -7.516580E+03  1.960508E+04  5.796028E+03  1.072822E+04
       372  25 -8.576619E+05 -1.005982E+05 -1.130297E+05  2.159161E+04  1.845402E+04  1.332213E+04
       372  26 -8.178323E+05 -8.205983E+04 -9.195554E+04  7.716791E+03  1.152391E+04  1.238252E+04
       372  27 -7.813484E+05 -7.311038E+04 -7.780407E+04  1.778913E+04  4.595949E+03  1.072562E+04
       373   1 -2.284342E+05  6.229613E+04  5.407111E+04  2.002420E+04 -5.609155E+03 -9.639191E+03
       373   2 -2.667601E+05  5.354732E+04  4.767850E+04  7.985951E+03 -4.020753E+03 -7.966602E+03
       373   3 -3.056007E+05  4.404707E+04  4.003716E+04  2.018018E+04 -2.433227E+03 -6.245575E+03
       373   4 -4.830629E+05 -6.342278E+02 -5.851070E+03  1.967586E+04 -4.621593E+03 -9.636965E+03
       373   5 -4.828003E+05  1.354369E+02 -3.246093E+03  7.558349E+03 -3.004762E+03 -7.964121E+03
       373   6 -4.830584E+05  1.487331E+02 -1.909798E+03  1.967384E+04 -1.388709E+03 -6.242827E+03
       373   7 -7.376319E+05 -6.356922E+04 -6.577770E+04  1.932762E+04 -3.634434E+03 -9.634739E+03
       373   8 -6.987975E+05 -5.327978E+04 -5.417390E+04  7.130867E+03 -1.989122E+03 -7.961642E+03
       373   9 -6.604872E+05 -4.375186E+04 -4.385893E+04  1.916762E+04 -3.444868E+02 -6.240081E+03
       373  10 -2.284342E+05  6.229602E+04  5.407087E+04  2.002415E+04  7.988118E-09 -1.157334E-09
       373  11 -2.667601E+05  5.354724E+04  4.767835E+04  7.985926E+03 -1.997506E-09 -2.466743E-09
       373  12 -3.056007E+05  4.404702E+04  4.003708E+04  2.018017E+04 -8.675245E-09 -1.805984E-09
       373  13 -4.830629E+05 -6.343333E+02 -5.851284E+03  1.967582E+04 -8.128089E-10 -1.044663E-09
       373  14 -4.828003E+05  1.353664E+02 -3.246229E+03  7.558329E+03 -3.888491E-09 -2.921502E-09
       373  15 -4.830584E+05  1.486908E+02 -1.909875E+03  1.967383E+04  1.335449E-09 -1.680309E-09
       373  16 -7.376319E+05 -6.356932E+04 -6.577790E+04  1.932760E+04 -1.009379E-08 -4.416368E-09
       373  17 -6.987975E+05 -5.327985E+04 -5.417403E+04  7.130855E+03  2.119390E-09  6.137740E-09
       373  18 -6.604872E+05 -4.375190E+04 -4.385901E+04  1.916762E+04  7.847779E-09  8.595981E-09
       373  19 -2.284342E+05  6.229613E+04  5.407111E+04  2.002420E+04  5.609155E+03  9.639191E+03
       373  20 -2.667601E+05  5.354732E+04  4.767850E+04  7.985951E+03  4.020753E+03  7.966602E+03
       373  21 -3.056007E+05  4.404707E+04  4.003716E+04  2.018018E+04  2.433227E+03  6.245575E+03
       373  22 -4.830629E+05 -6.342278E+02 -5.851070E+03  1.967586E+04  4.621593E+03  9.636965E+03
       373  23 -4.828003E+05  1.354369E+02 -3.246093E+03  7.558349E+03  3.004762E+03  7.964121E+03
       373  24 -4.830584E+05  1.487331E+02 -1.909798E+03  1.967384E+04  1.388709E+03  6.242827E+03
       373  25 -7.376319E+05 -6.356922E+04 -6.577770E+04  1.932762E+04  3.634434E+03  9.634739E+03
       373  26 -6.987975E+05 -5.327978E+04 -5.417390E+04  7.130867E+03  1.989122E+03  7.961642E+03
       373  27 -6.604872E+05 -4.375186E+04 -4.385893E+04  1.916762E+04  3.444868E+02  6.240081E+03
       374   1 -3.490227E+05  3.314700E+04  2.997362E+04  1.999929E+04 -2.119751E+03 -5.235058E+03
       374   2 -3.877417E+05  2.358136E+04  2.150632E+04  7.730454E+03 -1.670749E+03 -3.508917E+03
       374   3 -4.266693E+05  1.406625E+04  1.272329E+04  1.984500E+04 -1.222092E+03 -1.777894E+03
       374   4 -4.829859E+05  4.836805E+01 -1.490096E+03  1.970805E+04 -1.086597E+03 -5.232252E+03
       374   5 -4.828797E+05  5.838962E+01 -9.209675E+02  7.516149E+03 -6.347835E+02 -3.506022E+03
       374   6 -4.829841E+05  1.185300E+02 -6.695145E+02  1.970786E+04 -1.832875E+02 -1.774906E+03
       374   7 -6.169326E+05 -3.305154E+04 -3.295504E+04  1.941686E+04 -5.366358E+01 -5.229446E+03
       374   8 -5.780094E+05 -2.346523E+04 -2.334888E+04  7.301872E+03  4.010241E+02 -3.503128E+03
       374   9 -5.392960E+05 -1.382942E+04 -1.406254E+04  1.957072E+04  8.554230E+02 -1.771918E+03
       374  10 -3.490228E+05  3.314697E+04  2.997356E+04  1.999928E+04  2.168426E-09 -5.836303E-09
       374  11 -3.877417E+05  2.358135E+04  2.150630E+04  7.730449E+03 -3.685562E-09  3.424579E-09
       374  12 -4.266693E+05  1.406625E+04  1.272328E+04  1.984500E+04 -7.034955E-09 -5.660032E-10
       374  13 -4.829859E+05  4.833835E+01 -1.490149E+03  1.970805E+04  2.561912E-09  1.453967E-09
       374  14 -4.828797E+05  5.837632E+01 -9.209914E+02  7.516147E+03 -6.159907E-10 -1.286936E-09
       374  15 -4.829841E+05  1.185266E+02 -6.695205E+02  1.970786E+04  1.888079E-09 -2.002653E-09
       374  16 -6.169326E+05 -3.305157E+04 -3.295509E+04  1.941686E+04 -3.793444E-09  3.845091E-09
       374  17 -5.780094E+05 -2.346524E+04 -2.334890E+04  7.301873E+03  2.643773E-09  7.446241E-09
       374  18 -5.392960E+05 -1.382942E+04 -1.406254E+04  1.957073E+04  6.808158E-09  1.437213E-10
       374  19 -3.490227E+05  3.314700E+04  2.997362E+04  1.999929E+04  2.119751E+03  5.235058E+03
       374  20 -3.877417E+05  2.358136E+04  2.150632E+04  7.730454E+03  1.670749E+03  3.508917E+03
       374  21 -4.266693E+05  1.406625E+04  1.272329E+04  1.984500E+04  1.222092E+03  1.777894E+03
       374  22 -4.829859E+05  4.836805E+01 -1.490096E+03  1.970805E+04  1.086597E+03  5.232252E+03
       374  23 -4.828797E+05  5.838962E+01 -9.209675E+02  7.516149E+03  6.347835E+02  3.506022E+03
       374  24 -4.829841E+05  1.185300E+02 -6.695145E+02  1.970786E+04  1.832875E+02  1.774906E+03
       374  25 -6.169326E+05 -3.305154E+04 -3.295504E+04  1.941686E+04  5.366358E+01  5.229446E+03
       374  26 -5.780094E+05 -2.346523E+04 -2.334888E+04  7.301872E+03 -4.010241E+02  3.503128E+03
       374  27 -5.392960E+05 -1.382942E+04 -1.406254E+04  1.957072E+04 -8.554230E+02  1.771918E+03
       375   1 -4.703215E+05  3.221946E+03  2.241983E+03  1.973863E+04 -1.108434E+03 -7.689618E+02
       375   2 -5.090977E+05 -6.425661E+03 -6.857855E+03  7.446084E+03 -7.760092E+02  9.633887E+02
       375   3 -5.480689E+05 -1.599231E+04 -1.619205E+04  1.957115E+04 -4.435187E+02  2.692974E+03
       375   4 -4.829802E+05  1.153303E+02 -6.252857E+02  1.971543E+04 -6.938125E+01 -7.659526E+02
       375   5 -4.828821E+05  5.664790E+01 -6.774852E+02  7.506707E+03  2.613562E+02  9.663674E+02
       375   6 -4.829808E+05  7.917243E+01 -9.629298E+02  1.971553E+04  5.921803E+02  2.695928E+03
       375   7 -4.956388E+05 -2.991296E+03 -3.492561E+03  1.969222E+04  9.696504E+02 -7.629434E+02
       375   8 -4.566659E+05  6.538909E+03  5.502842E+03  7.567333E+03  1.298765E+03  9.693463E+02
       375   9 -4.178887E+05  1.615036E+04  1.426590E+04  1.985992E+04  1.627987E+03  2.698882E+03
       375  10 -4.703215E+05  3.221945E+03  2.241980E+03  1.973863E+04  2.493235E-09  2.746639E-11
       375  11 -5.090977E+05 -6.425662E+03 -6.857858E+03  7.446084E+03 -3.493979E-10 -6.300752E-09
       375  12 -5.480689E+05 -1.599232E+04 -1.619206E+04  1.957115E+04 -8.108433E-09 -9.273113E-10
       375  13 -4.829802E+05  1.153297E+02 -6.252868E+02  1.971543E+04  3.360531E-09  8.900536E-09
       375  14 -4.828821E+05  5.664687E+01 -6.774870E+02  7.506707E+03 -2.050550E-09 -2.764950E-09
       375  15 -4.829808E+05  7.916454E+01 -9.629441E+02  1.971553E+04  6.632154E-10 -4.838918E-09
       375  16 -4.956388E+05 -2.991297E+03 -3.492563E+03  1.969223E+04 -1.936870E-09 -1.158414E-09
       375  17 -4.566659E+05  6.538907E+03  5.502837E+03  7.567332E+03  2.035784E-09 -1.388084E-08
       375  18 -4.178887E+05  1.615035E+04  1.426589E+04  1.985992E+04  5.357273E-09 -8.727994E-09
       375  19 -4.703215E+05  3.221946E+03  2.241983E+03  1.973863E+04  1.108434E+03  7.689618E+02
       375  20 -5.090977E+05 -6.425661E+03 -6.857855E+03  7.446084E+03  7.760092E+02 -9.633887E+02
       375  21 -5.480689E+05 -1.599231E+04 -1.619205E+04  1.957115E+04  4.435187E+02 -2.692974E+03
       375  22 -4.829802E+05  1.153303E+02 -6.252857E+02  1.971543E+04  6.938125E+01  7.659526E+02
       375  23 -4.828821E+05  5.664790E+01 -6.774852E+02  7.506707E+03 -2.613562E+02 -9.663674E+02
       375  24 -4.829808E+05  7.917243E+01 -9.629298E+02  1.971553E+04 -5.921803E+02 -2.695928E+03
       375  25 -4.956388E+05 -2.991296E+03 -3.492561E+03  1.969222E+04 -9.696504E+02  7.629434E+02
       375  26 -4.566659E+05  6.538909E+03  5.502842E+03  7.567333E+03 -1.298765E+03 -9.693463E+02
       375  27 -4.178887E+05  1.615036E+04  1.426590E+04  1.985992E+04 -1.627987E+03 -2.698882E+03
       376   1 -5.917164E+05 -2.676278E+04 -2.693817E+04  1.938081E+04 -2.630606E+02  3.705386E+03
       376   2 -6.302630E+05 -3.635461E+04 -3.672791E+04  7.225796E+03  7.394252E+02  5.432236E+03
       376   3 -6.691893E+05 -4.634681E+04 -4.730406E+04  1.940104E+04  1.742441E+03  7.118056E+03
       376   4 -4.830226E+05  1.389500E+02 -1.195719E+03  1.969559E+04  7.829762E+02  3.708318E+03
       376   5 -4.828361E+05  1.020680E+02 -1.968967E+03  7.531281E+03  1.761052E+03  5.434970E+03
       376   6 -4.830256E+05 -3.306087E+02 -3.511276E+03  1.969687E+04  2.739719E+03  7.120599E+03
       376   7 -3.743179E+05  2.703983E+04  2.454592E+04  2.001042E+04  1.829195E+03  3.711252E+03
       376   8 -3.353891E+05  3.655719E+04  3.278848E+04  7.836825E+03  2.782920E+03  5.437703E+03
       376   9 -2.968300E+05  4.568312E+04  4.027913E+04  1.999277E+04  3.737295E+03  7.123143E+03
       376  10 -5.917164E+05 -2.676279E+04 -2.693820E+04  1.938082E+04 -9.350672E-10  3.565170E-11
       376  11 -6.302630E+05 -3.635464E+04 -3.672796E+04  7.225793E+03 -7.044846E-09 -5.506337E-09
       376  12 -6.691893E+05 -4.634687E+04 -4.730416E+04  1.940103E+04 -8.960926E-09  1.144386E-09
       376  13 -4.830226E+05  1.389350E+02 -1.195746E+03  1.969559E+04  2.597132E-09 -1.564392E-09
       376  14 -4.828361E+05  1.020354E+02 -1.969028E+03  7.531274E+03 -2.532711E-09 -1.283137E-09
       376  15 -4.830256E+05 -3.306651E+02 -3.511385E+03  1.969686E+04 -5.673687E-10 -1.127342E-09
       376  16 -3.743179E+05  2.703981E+04  2.454588E+04  2.001041E+04 -1.786184E-10  4.400394E-09
       376  17 -3.353891E+05  3.655715E+04  3.278841E+04  7.836813E+03  7.644731E-09 -3.221167E-09
       376  18 -2.968300E+05  4.568306E+04  4.027900E+04  1.999275E+04  9.992049E-09  5.146048E-09
       376  19 -5.917164E+05 -2.676278E+04 -2.693817E+04  1.938081E+04  2.630606E+02 -3.705386E+03
       376  20 -6.302630E+05 -3.635461E+04 -3.672791E+04  7.225796E+03 -7.394252E+02 -5.432236E+03
       376  21 -6.691893E+05 -4.634681E+04 -4.730406E+04  1.940104E+04 -1.742441E+03 -7.118056E+03
       376  22 -4.830226E+05  1.389500E+02 -1.195719E+03  1.969559E+04 -7.829762E+02 -3.708318E+03
       376  23 -4.828361E+05  1.020680E+02 -1.968967E+03  7.531281E+03 -1.761052E+03 -5.434970E+03
       376  24 -4.830256E+05 -3.306087E+02 -3.511276E+03  1.969687E+04 -2.739719E+03 -7.120599E+03
       376  25 -3.743179E+05  2.703983E+04  2.454592E+04  2.001042E+04 -1.829195E+03 -3.711252E+03
       376  26 -3.353891E+05  3.655719E+04  3.278848E+04  7.836825E+03 -2.782920E+03 -5.437703E+03
       376  27 -2.968300E+05  4.568312E+04  4.027913E+04  1.999277E+04 -3.737295E+03 -7.123143E+03
       377   1 -7.128991E+05 -5.641534E+04 -5.871617E+04  1.843322E+04  2.259534E+03  8.201576E+03
       377   2 -7.502854E+05 -6.564576E+04 -7.080389E+04  7.478533E+03  6.514605E+03  9.872719E+03
       377   3 -7.897402E+05 -8.056603E+04 -8.710751E+04  2.064204E+04  1.077168E+04  1.092081E+04
       377   4 -4.833919E+05  3.665062E+02 -4.500506E+03  1.964505E+04  3.442332E+03  8.204491E+03
       377   5 -4.823932E+05  6.032241E+02 -7.634101E+03  7.592477E+03  7.325416E+03  9.874445E+03
       377   6 -4.833987E+05 -4.783701E+03 -1.472366E+04  1.965752E+04  1.121076E+04  1.092146E+04
       377   7 -2.538362E+05  5.714458E+04  4.971152E+04  2.085731E+04  4.625565E+03  8.207410E+03
       377   8 -2.144349E+05  6.684707E+04  5.553074E+04  7.706430E+03  8.136575E+03  9.876172E+03
       377   9 -1.769708E+05  7.099191E+04  5.765370E+04  1.867245E+04  1.165006E+04  1.092210E+04
       377  10 -7.128992E+05 -5.641541E+04 -5.871631E+04  1.843320E+04  6.385944E-09  1.951869E-09
       377  11 -7.502855E+05 -6.564588E+04 -7.080415E+04  7.478481E+03  4.206863E-09  2.209523E-09
       377  12 -7.897403E+05 -8.056619E+04 -8.710795E+04  2.064195E+04  4.151089E-09 -5.093185E-09
       377  13 -4.833919E+05  3.664307E+02 -4.500655E+03  1.964503E+04  1.762735E-09 -9.880532E-09
       377  14 -4.823933E+05  6.031050E+02 -7.634385E+03  7.592419E+03 -2.392025E-09  1.347278E-09
       377  15 -4.833988E+05 -4.783863E+03 -1.472412E+04  1.965742E+04  2.219030E-09 -2.831018E-09
       377  16 -2.538362E+05  5.714450E+04  4.971135E+04  2.085728E+04 -6.163748E-09 -6.811612E-10
       377  17 -2.144350E+05  6.684695E+04  5.553043E+04  7.706365E+03 -5.212764E-09 -1.204881E-08
       377  18 -1.769709E+05  7.099174E+04  5.765322E+04  1.867235E+04 -3.751442E-09  9.576433E-10
       377  19 -7.128991E+05 -5.641534E+04 -5.871617E+04  1.843322E+04 -2.259534E+03 -8.201576E+03
       377  20 -7.502854E+05 -6.564576E+04 -7.080389E+04  7.478533E+03 -6.514605E+03 -9.872719E+03
       377  21 -7.897402E+05 -8.056603E+04 -8.710751E+04  2.064204E+04 -1.077168E+04 -1.092081E+04
       377  22 -4.833919E+05  3.665062E+02 -4.500506E+03  1.964505E+04 -3.442332E+03 -8.204491E+03
       377  23 -4.823932E+05  6.032241E+02 -7.634101E+03  7.592477E+03 -7.325416E+03 -9.874445E+03
       377  24 -4.833987E+05 -4.783701E+03 -1.472366E+04  1.965752E+04 -1.121076E+04 -1.092146E+04
       377  25 -2.538362E+05  5.714458E+04  4.971152E+04  2.085731E+04 -4.625565E+03 -8.207410E+03
       377  26 -2.144349E+05  6.684707E+04  5.553074E+04  7.706430E+03 -8.136575E+03 -9.876172E+03
       377  27 -1.769708E+05  7.099191E+04  5.765370E+04  1.867245E+04 -1.165006E+04 -1.092210E+04
       378   1 -8.361581E+05 -8.342528E+04 -1.003699E+05  1.131357E+04  1.041624E+04  1.325391E+04
       378   2 -8.648677E+05 -8.972139E+04 -1.207746E+05  1.298731E+04  3.236616E+04  1.410332E+04
       378   3 -9.122797E+05 -1.593515E+05 -1.713182E+05  3.823014E+04  5.433373E+04  4.750484E+03
       378   4 -4.868758E+05  2.971820E+03 -1.814199E+04  1.949349E+04  1.395909E+04  1.326156E+04
       378   5 -4.780701E+05  5.926833E+03 -2.948857E+04  7.763947E+03  2.980279E+04  1.409714E+04
       378   6 -4.868958E+05 -5.337053E+04 -6.671858E+04  1.960384E+04  4.566580E+04  4.732340E+03
       378   7 -1.374811E+05  8.936044E+04  6.407763E+04  2.767799E+04  1.750392E+04  1.326930E+04
       378   8 -9.113462E+04  1.015645E+05  6.178713E+04  2.537237E+03  2.723784E+04  1.409101E+04
       378   9 -6.134610E+04  5.259837E+04  3.786816E+04  9.646577E+02  3.699193E+04  4.714723E+03
       378  10 -8.361582E+05 -8.342549E+04 -1.003705E+05  1.131345E+04 -2.863159E-09 -2.527938E-09
       378  11 -8.648688E+05 -8.972188E+04 -1.207769E+05  1.298694E+04 -6.435469E-10  1.677485E-09
       378  12 -9.122829E+05 -1.593523E+05 -1.713238E+05  3.822993E+04  3.497783E-09  5.251592E-09
       378  13 -4.868761E+05  2.971579E+03 -1.814268E+04  1.949334E+04  3.348655E-09  1.221977E-09
       378  14 -4.780711E+05  5.926381E+03 -2.949062E+04  7.763609E+03 -1.099054E-09  3.565791E-09
       378  15 -4.868981E+05 -5.337112E+04 -6.672254E+04  1.960366E+04 -1.194373E-10  2.408311E-09
       378  16 -1.374814E+05  8.936017E+04  6.407672E+04  2.767780E+04  2.093755E-09  7.146401E-09
       378  17 -9.113547E+04  1.015640E+05  6.178537E+04  2.536928E+03 -2.216760E-09  8.934829E-09
       378  18 -6.134758E+04  5.259798E+04  3.786555E+04  9.645172E+02 -3.256217E-09  7.336461E-11
       378  19 -8.361581E+05 -8.342528E+04 -1.003699E+05  1.131357E+04 -1.041624E+04 -1.325391E+04
       378  20 -8.648677E+05 -8.972139E+04 -1.207746E+05  1.298731E+04 -3.236616E+04 -1.410332E+04
       378  21 -9.122797E+05 -1.593515E+05 -1.713182E+05  3.823014E+04 -5.433373E+04 -4.750484E+03
       378  22 -4.868758E+05  2.971820E+03 -1.814199E+04  1.949349E+04 -1.395909E+04 -1.326156E+04
       378  23 -4.780701E+05  5.926833E+03 -2.948857E+04  7.763947E+03 -2.980279E+04 -1.409714E+04
       378  24 -4.868958E+05 -5.337053E+04 -6.671858E+04  1.960384E+04 -4.566580E+04 -4.732340E+03
       378  25 -1.374811E+05  8.936044E+04  6.407763E+04  2.767799E+04 -1.750392E+04 -1.326930E+04
       378  26 -9.113462E+04  1.015645E+05  6.178713E+04  2.537237E+03 -2.723784E+04 -1.409101E+04
       378  27 -6.134610E+04  5.259837E+04  3.786816E+04  9.646577E+02 -3.699193E+04 -4.714723E+03
       379   1 -1.902142E+05 -7.371012E+05 -1.842421E+05  1.759978E+05 -7.712214E+03 -6.003651E+04
       379   2 -1.327214E+05 -5.805049E+05 -1.147418E+05  1.535146E+05 -2.379181E+04 -2.526427E+04
       379   3 -9.128889E+04 -4.323056E+05 -7.190341E+04  1.622804E+05 -2.330194E+04  9.541552E+03
       379   4 -2.025045E+04 -5.043240E+04 -2.160466E+04  1.629189E+05 -7.759705E+03 -1.629649E+04
       379   5 -5.307353E+03 -4.878641E+04 -9.670287E+03  1.473046E+05 -2.380455E+04 -1.131350E+04
       379   6 -1.240893E+03 -5.037911E+04 -3.690989E+03  1.629398E+05 -2.328568E+04 -6.306549E+03
       379   7  1.496811E+05  6.366745E+05  1.410074E+05  1.498255E+05 -7.809019E+03  2.749170E+04
       379   8  1.220897E+05  4.832033E+05  9.538808E+04  1.410892E+05 -2.381757E+04  2.648978E+03
       379   9  8.879916E+04  3.316903E+05  6.451684E+04  1.635995E+05 -2.326947E+04 -2.216412E+04
       379  10 -1.902153E+05 -7.371051E+05 -1.842490E+05  1.759975E+05  7.427928E-10  4.552521E-09
       379  11 -1.327221E+05 -5.805057E+05 -1.147441E+05  1.535141E+05  3.647152E-09  1.645844E-08
       379  12 -9.128950E+04 -4.323059E+05 -7.190460E+04  1.622806E+05  3.355657E-09  2.544288E-08
       379  13 -2.025058E+04 -5.043270E+04 -2.160527E+04  1.629188E+05 -2.389122E-10 -5.263343E-10
       379  14 -5.307995E+03 -4.878670E+04 -9.671593E+03  1.473044E+05 -3.548361E-09  1.396943E-09
       379  15 -1.241486E+03 -5.037930E+04 -3.692083E+03  1.629397E+05 -3.947131E-09  1.332213E-09
       379  16  1.496808E+05  6.366736E+05  1.410058E+05  1.498256E+05  7.504076E-10 -2.298670E-09
       379  17  1.220891E+05  4.832031E+05  9.538700E+04  1.410893E+05  4.025730E-09 -1.090311E-08
       379  18  8.879845E+04  3.316896E+05  6.451490E+04  1.635991E+05  2.270420E-09 -2.756173E-08
       379  19 -1.902142E+05 -7.371012E+05 -1.842421E+05  1.759978E+05  7.712214E+03  6.003651E+04
       379  20 -1.327214E+05 -5.805049E+05 -1.147418E+05  1.535146E+05  2.379181E+04  2.526427E+04
       379  21 -9.128889E+04 -4.323056E+05 -7.190341E+04  1.622804E+05  2.330194E+04 -9.541552E+03
       379  22 -2.025045E+04 -5.043240E+04 -2.160466E+04  1.629189E+05  7.759705E+03  1.629649E+04
       379  23 -5.307353E+03 -4.878641E+04 -9.670287E+03  1.473046E+05  2.380455E+04  1.131350E+04
       379  24 -1.240893E+03 -5.037911E+04 -3.690989E+03  1.629398E+05  2.328568E+04  6.306549E+03
       379  25  1.496811E+05  6.366745E+05  1.410074E+05  1.498255E+05  7.809019E+03 -2.749170E+04
       379  26  1.220897E+05  4.832033E+05  9.538808E+04  1.410892E+05  2.381757E+04 -2.648978E+03
       379  27  8.879916E+04  3.316903E+05  6.451684E+04  1.635995E+05  2.326947E+04  2.216412E+04
       380   1 -6.797665E+04 -3.325727E+05 -5.152674E+04  1.634998E+05 -1.770415E+04  8.588593E+03
       380   2 -3.055951E+04 -1.803878E+05 -1.885189E+04  1.475838E+05 -9.316059E+03  8.190743E+03
       380   3  7.381887E+03 -2.789616E+04  1.423723E+04  1.639743E+05 -3.505242E+02  7.792669E+03
       380   4 -1.350207E+03 -4.954357E+04 -1.491103E+03  1.631712E+05 -1.769015E+04 -5.985641E+03
       380   5 -8.099018E+01 -4.976963E+04  2.898719E+03  1.470197E+05 -9.301789E+03 -7.424102E+03
       380   6  1.894452E+03 -4.953015E+04  8.426146E+03  1.631743E+05 -3.360886E+02 -8.862702E+03
       380   7  6.527195E+04  2.335643E+05  4.854238E+04  1.628425E+05 -1.767613E+04 -2.056633E+04
       380   8  3.039677E+04  8.086596E+04  2.464973E+04  1.464556E+05 -9.287492E+03 -2.304212E+04
       380   9 -3.592869E+03 -7.116313E+04  2.616067E+03  1.623743E+05 -3.216099E+02 -2.551749E+04
       380  10 -6.797700E+04 -3.325729E+05 -5.152747E+04  1.634999E+05  3.019510E-09 -2.894349E-08
       380  11 -3.055962E+04 -1.803879E+05 -1.885218E+04  1.475839E+05  2.221550E-09 -1.847212E-08
       380  12  7.381870E+03 -2.789622E+04  1.423711E+04  1.639743E+05  1.442227E-09 -4.534869E-09
       380  13 -1.350553E+03 -4.954369E+04 -1.491758E+03  1.631711E+05 -6.024394E-09  5.566529E-10
       380  14 -8.109786E+01 -4.976971E+04  2.898453E+03  1.470197E+05  1.953855E-09  7.325205E-10
       380  15  1.894431E+03 -4.953023E+04  8.425998E+03  1.631743E+05  3.463765E-10  1.041688E-09
       380  16  6.527150E+04  2.335638E+05  4.854100E+04  1.628422E+05  2.569394E-09  3.143650E-08
       380  17  3.039654E+04  8.086537E+04  2.464857E+04  1.464554E+05  1.388608E-09  2.358258E-08
       380  18 -3.593044E+03 -7.116383E+04  2.614843E+03  1.623743E+05  7.857388E-10  3.738828E-09
       380  19 -6.797665E+04 -3.325727E+05 -5.152674E+04  1.634998E+05  1.770415E+04 -8.588593E+03
       380  20 -3.055951E+04 -1.803878E+05 -1.885189E+04  1.475838E+05  9.316059E+03 -8.190743E+03
       380  21  7.381887E+03 -2.789616E+04  1.423723E+04  1.639743E+05  3.505242E+02 -7.792669E+03
       380  22 -1.350207E+03 -4.954357E+04 -1.491103E+03  1.631712E+05  1.769015E+04  5.985641E+03
       380  23 -8.099018E+01 -4.976963E+04  2.898719E+03  1.470197E+05  9.301789E+03  7.424102E+03
       380  24  1.894452E+03 -4.953015E+04  8.426146E+03  1.631743E+05  3.360886E+02  8.862702E+03
       380  25  6.527195E+04  2.335643E+05  4.854238E+04  1.628425E+05  1.767613E+04  2.056633E+04
       380  26  3.039677E+04  8.086596E+04  2.464973E+04  1.464556E+05  9.287492E+03  2.304212E+04
       380  27 -3.592869E+03 -7.116313E+04  2.616067E+03  1.623743E+05  3.216099E+02  2.551749E+04
       381   1  3.041957E+04  7.234316E+04  3.538214E+04  1.610450E+05  5.628184E+03  7.069488E+03
       381   2  7.592469E+04  2.193196E+05  7.913472E+04  1.599626E+05  1.002970E+04 -2.388720E+04
       381   3  1.487709E+05  3.772839E+05  1.498943E+05  1.905998E+05  3.846638E+03 -5.486480E+04
       381   4  1.667242E+03 -4.793256E+04  1.191573E+04  1.630373E+05  5.643513E+03 -1.032990E+04
       381   5  1.053433E+04 -5.177880E+04  2.310334E+04  1.472001E+05  1.002898E+04 -2.222769E+04
       381   6  4.344269E+04 -4.795845E+04  4.806987E+04  1.630800E+05  3.829231E+03 -3.413881E+04
       381   7 -2.708578E+04 -1.681937E+05 -1.155023E+04  1.650292E+05  5.658731E+03 -2.772600E+04
       381   8 -5.486006E+04 -3.228072E+05 -3.293191E+04  1.344433E+05  1.002820E+04 -2.056889E+04
       381   9 -6.189554E+04 -4.730326E+05 -5.376534E+04  1.355792E+05  3.809984E+03 -1.342694E+04
       381  10  3.041953E+04  7.234310E+04  3.538199E+04  1.610450E+05  1.939412E-10 -6.436585E-10
       381  11  7.592443E+04  2.193190E+05  7.913345E+04  1.599628E+05 -5.716045E-10 -1.754253E-09
       381  12  1.487701E+05  3.772807E+05  1.498886E+05  1.906000E+05 -9.923542E-10 -4.664205E-09
       381  13  1.667179E+03 -4.793268E+04  1.191547E+04  1.630374E+05  9.593033E-10 -1.556615E-11
       381  14  1.053409E+04 -5.177936E+04  2.310222E+04  1.472003E+05 -9.550057E-10  2.105847E-09
       381  15  4.344236E+04 -4.795970E+04  4.806765E+04  1.630801E+05  5.682317E-10  1.127285E-09
       381  16 -2.708602E+04 -1.681946E+05 -1.155173E+04  1.650293E+05  7.353422E-10  1.446334E-09
       381  17 -5.486028E+04 -3.228077E+05 -3.293290E+04  1.344435E+05  2.962168E-09  6.446073E-09
       381  18 -6.189560E+04 -4.730328E+05 -5.376570E+04  1.355793E+05  1.080208E-09  1.900863E-09
       381  19  3.041957E+04  7.234316E+04  3.538214E+04  1.610450E+05 -5.628184E+03 -7.069488E+03
       381  20  7.592469E+04  2.193196E+05  7.913472E+04  1.599626E+05 -1.002970E+04  2.388720E+04
       381  21  1.487709E+05  3.772839E+05  1.498943E+05  1.905998E+05 -3.846638E+03  5.486480E+04
       381  22  1.667242E+03 -4.793256E+04  1.191573E+04  1.630373E+05 -5.643513E+03  1.032990E+04
       381  23  1.053433E+04 -5.177880E+04  2.310334E+04  1.472001E+05 -1.002898E+04  2.222769E+04
       381  24  4.344269E+04 -4.795845E+04  4.806987E+04  1.630800E+05 -3.829231E+03  3.413881E+04
       381  25 -2.708578E+04 -1.681937E+05 -1.155023E+04  1.650292E+05 -5.658731E+03  2.772600E+04
       381  26 -5.486006E+04 -3.228072E+05 -3.293191E+04  1.344433E+05 -1.002820E+04  2.056889E+04
       381  27 -6.189554E+04 -4.730326E+05 -5.376534E+04  1.355792E+05 -3.809984E+03  1.342694E+04
       382   1  9.521230E+05  3.506619E+05  2.297514E+05  3.342459E+05  9.341996E+04  3.047007E+04
       382   2  9.166466E+05  2.085908E+05  1.414624E+05  3.336965E+05  6.099548E+04  8.692573E+03
       382   3  9.168506E+05  1.970220E+05  1.117618E+05  3.180884E+05  2.516020E+04 -4.026069E+03
       382   4  6.187905E+05  1.916760E+05  1.330308E+05  2.091353E+05  8.613115E+04  2.771780E+04
       382   5  5.944720E+05  7.767699E+04  5.593607E+04  2.352290E+05  5.881731E+04  7.869849E+03
       382   6  6.048453E+05  9.320420E+04  3.340645E+04  2.462580E+05  2.809056E+04 -2.920747E+03
       382   7  2.855715E+05  3.271919E+04  3.630065E+04  8.409311E+04  7.884670E+04  2.496815E+04
       382   8  2.723993E+05 -5.322495E+04 -2.959904E+04  1.368098E+05  5.664037E+04  7.047676E+03
       382   9  2.929329E+05 -1.061275E+04 -4.495679E+04  1.744575E+05  3.101931E+04 -1.815870E+03
       382  10  9.521134E+05  3.506586E+05  2.297333E+05  3.342436E+05 -1.102334E-09  7.658384E-10
       382  11  9.166426E+05  2.085897E+05  1.414553E+05  3.336960E+05  9.695862E-10  7.849071E-09
       382  12  9.168499E+05  1.970218E+05  1.117606E+05  3.180885E+05  1.463251E-09  1.849213E-09
       382  13  6.187823E+05  1.916732E+05  1.330154E+05  2.091334E+05  2.089295E-10 -1.928810E-09
       382  14  5.944683E+05  7.767600E+04  5.592946E+04  2.352287E+05 -9.214999E-10 -3.433591E-09
       382  15  6.048445E+05  9.320398E+04  3.340495E+04  2.462581E+05 -1.521521E-09 -1.259146E-10
       382  16  2.855646E+05  3.271685E+04  3.628781E+04  8.409152E+04  1.880271E-09 -2.654111E-10
       382  17  2.723959E+05 -5.322586E+04 -2.960516E+04  1.368094E+05  8.905304E-10 -1.442286E-09
       382  18  2.929319E+05 -1.061301E+04 -4.495860E+04  1.744576E+05 -1.442926E-09  2.055675E-09
       382  19  9.521230E+05  3.506619E+05  2.297514E+05  3.342459E+05 -9.341996E+04 -3.047007E+04
       382  20  9.166466E+05  2.085908E+05  1.414624E+05  3.336965E+05 -6.099548E+04 -8.692573E+03
       382  21  9.168506E+05  1.970220E+05  1.117618E+05  3.180884E+05 -2.516020E+04  4.026069E+03
       382  22  6.187905E+05  1.916760E+05  1.330308E+05  2.091353E+05 -8.613115E+04 -2.771780E+04
       382  23  5.944720E+05  7.767699E+04  5.593607E+04  2.352290E+05 -5.881731E+04 -7.869849E+03
       382  24  6.048453E+05  9.320420E+04  3.340645E+04  2.462580E+05 -2.809056E+04  2.920747E+03
       382  25  2.855715E+05  3.271919E+04  3.630065E+04  8.409311E+04 -7.884670E+04 -2.496815E+04
       382  26  2.723993E+05 -5.322495E+04 -2.959904E+04  1.368098E+05 -5.664037E+04 -7.047676E+03
       382  27  2.929329E+05 -1.061275E+04 -4.495679E+04  1.744575E+05 -3.101931E+04  1.815870E+03
       383   1  8.682921E+05  2.098104E+05  9.728448E+04  3.149708E+05  2.252109E+04 -2.762985E+03
       383   2  8.463333E+05  1.812658E+05  7.633837E+04  3.016659E+05  1.513381E+04 -4.834736E+03
       383   3  8.166190E+05  1.772122E+05  6.383601E+04  3.004326E+05  7.525867E+03 -6.322142E+03
       383   4  6.005691E+05  1.062562E+05  2.703736E+04  2.385630E+05  2.270317E+04 -2.694763E+03
       383   5  6.038089E+05  8.930976E+04  1.319310E+04  2.343149E+05  1.564746E+04 -4.641189E+03
       383   6  5.992288E+05  9.679164E+04  7.532859E+03  2.421378E+05  8.370732E+03 -6.003334E+03
       383   7  3.329155E+05  2.707712E+03 -4.321587E+04  1.621854E+05  2.288515E+04 -2.626575E+03
       383   8  3.613419E+05 -2.642165E+03 -4.995700E+04  1.669878E+05  1.616088E+04 -4.447727E+03
       383   9  3.818851E+05  1.637390E+04 -4.877402E+04  1.838615E+05  9.215269E+03 -5.684644E+03
       383  10  8.682915E+05  2.098103E+05  9.728352E+04  3.149708E+05 -2.840340E-09  7.294028E-09
       383  11  8.463330E+05  1.812657E+05  7.633789E+04  3.016660E+05 -1.335197E-09  9.044018E-09
       383  12  8.166189E+05  1.772122E+05  6.383583E+04  3.004326E+05  2.244046E-09  1.041713E-08
       383  13  6.005685E+05  1.062561E+05  2.703638E+04  2.385631E+05 -2.134868E-09  7.518879E-09
       383  14  6.038086E+05  8.930967E+04  1.319260E+04  2.343150E+05 -4.807013E-09 -7.297511E-09
       383  15  5.992287E+05  9.679158E+04  7.532660E+03  2.421379E+05  1.521225E-09  6.413667E-09
       383  16  3.329150E+05  2.707564E+03 -4.321686E+04  1.621854E+05 -7.872058E-10  4.534319E-09
       383  17  3.613416E+05 -2.642257E+03 -4.995753E+04  1.669878E+05 -9.407149E-10 -4.156017E-09
       383  18  3.818850E+05  1.637384E+04 -4.877424E+04  1.838615E+05 -3.024840E-09 -4.235905E-09
       383  19  8.682921E+05  2.098104E+05  9.728448E+04  3.149708E+05 -2.252109E+04  2.762985E+03
       383  20  8.463333E+05  1.812658E+05  7.633837E+04  3.016659E+05 -1.513381E+04  4.834736E+03
       383  21  8.166190E+05  1.772122E+05  6.383601E+04  3.004326E+05 -7.525867E+03  6.322142E+03
       383  22  6.005691E+05  1.062562E+05  2.703736E+04  2.385630E+05 -2.270317E+04  2.694763E+03
       383  23  6.038089E+05  8.930976E+04  1.319310E+04  2.343149E+05 -1.564746E+04  4.641189E+03
       383  24  5.992288E+05  9.679164E+04  7.532859E+03  2.421378E+05 -8.370732E+03  6.003334E+03
       383  25  3.329155E+05  2.707712E+03 -4.321587E+04  1.621854E+05 -2.288515E+04  2.626575E+03
       383  26  3.613419E+05 -2.642165E+03 -4.995700E+04  1.669878E+05 -1.616088E+04  4.447727E+03
       383  27  3.818851E+05  1.637390E+04 -4.877402E+04  1.838615E+05 -9.215269E+03  5.684644E+03
       384   1  7.833762E+05  1.676128E+05  5.376281E+04  2.922400E+05  6.329560E+03 -5.855270E+03
       384   2  7.633413E+05  1.502583E+05  4.428278E+04  2.779198E+05  4.304752E+03 -5.256128E+03
       384   3  7.311447E+05  1.468334E+05  3.627838E+04  2.779134E+05  2.267567E+03 -4.625318E+03
       384   4  5.987662E+05  9.796604E+04  5.840939E+03  2.413135E+05  6.991074E+03 -5.605605E+03
       384   5  6.047874E+05  9.056258E+04  3.078044E+03  2.343234E+05  4.984567E+03 -4.999428E+03
       384   6  5.986431E+05  9.708563E+04  1.776825E+03  2.416472E+05  2.965612E+03 -4.361605E+03
       384   7  4.141887E+05  2.832123E+04 -4.208396E+04  1.904006E+05  7.652374E+03 -5.356021E+03
       384   8  4.462576E+05  3.086833E+04 -3.812887E+04  1.907371E+05  5.664192E+03 -4.742800E+03
       384   9  4.661585E+05  4.733894E+04 -3.272621E+04  2.053880E+05  3.663494E+03 -4.097953E+03
       384  10  7.833761E+05  1.676128E+05  5.376267E+04  2.922400E+05  2.936799E-09  1.002400E-08
       384  11  7.633413E+05  1.502583E+05  4.428269E+04  2.779198E+05  1.438262E-09  6.810338E-09
       384  12  7.311447E+05  1.468334E+05  3.627833E+04  2.779134E+05 -1.301703E-09  3.440188E-09
       384  13  5.987662E+05  9.796600E+04  5.840788E+03  2.413136E+05  1.040812E-09  1.882081E-09
       384  14  6.047874E+05  9.056254E+04  3.077950E+03  2.343235E+05  8.825027E-10  4.004873E-09
       384  15  5.986431E+05  9.708560E+04  1.776772E+03  2.416472E+05  3.987342E-11  6.470698E-10
       384  16  4.141886E+05  2.832119E+04 -4.208412E+04  1.904007E+05 -2.847741E-09 -4.308158E-09
       384  17  4.462576E+05  3.086829E+04 -3.812897E+04  1.907371E+05 -1.354140E-09 -4.817298E-09
       384  18  4.661585E+05  4.733892E+04 -3.272626E+04  2.053880E+05  9.659551E-10  3.784072E-09
       384  19  7.833762E+05  1.676128E+05  5.376281E+04  2.922400E+05 -6.329560E+03  5.855270E+03
       384  20  7.633413E+05  1.502583E+05  4.428278E+04  2.779198E+05 -4.304752E+03  5.256128E+03
       384  21  7.311447E+05  1.468334E+05  3.627838E+04  2.779134E+05 -2.267567E+03  4.625318E+03
       384  22  5.987662E+05  9.796604E+04  5.840939E+03  2.413135E+05 -6.991074E+03  5.605605E+03
       384  23  6.047874E+05  9.056258E+04  3.078044E+03  2.343234E+05 -4.984567E+03  4.999428E+03
       384  24  5.986431E+05  9.708563E+04  1.776825E+03  2.416472E+05 -2.965612E+03  4.361605E+03
       384  25  4.141887E+05  2.832123E+04 -4.208396E+04  1.904006E+05 -7.652374E+03  5.356021E+03
       384  26  4.462576E+05  3.086833E+04 -3.812887E+04  1.907371E+05 -5.664192E+03  4.742800E+03
       384  27  4.661585E+05  4.733894E+04 -3.272621E+04  2.053880E+05 -3.663494E+03  4.097953E+03
       385   1  6.998603E+05  1.352671E+05  2.761133E+04  2.693805E+05  1.749733E+03 -4.001733E+03
       385   2  6.802644E+05  1.191104E+05  2.047548E+04  2.550910E+05  8.478233E+02 -2.951960E+03
       385   3  6.481078E+05  1.157422E+05  1.370011E+04  2.551547E+05 -5.387633E+01 -1.903233E+03
       385   4  5.986038E+05  9.716020E+04  1.393195E+03  2.415331E+05  2.434199E+03 -3.743090E+03
       385   5  6.048803E+05  9.073276E+04  8.847461E+02  2.343693E+05  1.531775E+03 -2.693457E+03
       385   6  5.985955E+05  9.709404E+04  7.372826E+02  2.415586E+05  6.295373E+02 -1.644873E+03
       385   7  4.973576E+05  5.905411E+04 -2.482570E+04  2.136899E+05  3.118541E+03 -3.484495E+03
       385   8  5.295018E+05  6.235548E+04 -1.870646E+04  2.136498E+05  2.215636E+03 -2.434989E+03
       385   9  5.490854E+05  7.844598E+04 -1.222579E+04  2.279635E+05  1.312893E+03 -1.386535E+03
       385  10  6.998603E+05  1.352671E+05  2.761130E+04  2.693805E+05  2.910937E-09 -4.078450E-09
       385  11  6.802644E+05  1.191104E+05  2.047546E+04  2.550910E+05  1.259507E-09  2.688149E-09
       385  12  6.481078E+05  1.157422E+05  1.370010E+04  2.551547E+05 -4.409617E-09  2.199542E-09
       385  13  5.986038E+05  9.716018E+04  1.393158E+03  2.415331E+05  7.222151E-10  7.327316E-09
       385  14  6.048803E+05  9.073275E+04  8.847280E+02  2.343693E+05  2.869120E-09  1.085407E-08
       385  15  5.985955E+05  9.709403E+04  7.372768E+02  2.415586E+05 -1.441218E-09 -5.651366E-09
       385  16  4.973576E+05  5.905409E+04 -2.482575E+04  2.136899E+05  1.699246E-10  1.992223E-09
       385  17  5.295017E+05  6.235547E+04 -1.870648E+04  2.136498E+05  4.081178E-09  7.624164E-09
       385  18  5.490854E+05  7.844597E+04 -1.222580E+04  2.279635E+05  2.765953E-09 -3.290771E-09
       385  19  6.998603E+05  1.352671E+05  2.761133E+04  2.693805E+05 -1.749733E+03  4.001733E+03
       385  20  6.802644E+05  1.191104E+05  2.047548E+04  2.550910E+05 -8.478233E+02  2.951960E+03
       385  21  6.481078E+05  1.157422E+05  1.370011E+04  2.551547E+05  5.387633E+01  1.903233E+03
       385  22  5.986038E+05  9.716020E+04  1.393195E+03  2.415331E+05 -2.434199E+03  3.743090E+03
       385  23  6.048803E+05  9.073276E+04  8.847461E+02  2.343693E+05 -1.531775E+03  2.693457E+03
       385  24  5.985955E+05  9.709404E+04  7.372826E+02  2.415586E+05 -6.295373E+02  1.644873E+03
       385  25  4.973576E+05  5.905411E+04 -2.482570E+04  2.136899E+05 -3.118541E+03  3.484495E+03
       385  26  5.295018E+05  6.235548E+04 -1.870646E+04  2.136498E+05 -2.215636E+03  2.434989E+03
       385  27  5.490854E+05  7.844598E+04 -1.222579E+04  2.279635E+05 -1.312893E+03  1.386535E+03
       386   1  6.171954E+05  1.040835E+05  5.495981E+03  2.466864E+05 -4.442689E+02 -1.242808E+03
       386   2  5.976775E+05  8.804446E+04 -8.615635E+02  2.324142E+05 -1.405190E+03 -2.193527E+02
       386   3  5.656527E+05  8.477376E+04 -6.809003E+03  2.324410E+05 -2.365468E+03  8.026010E+02
       386   4  5.986069E+05  9.708231E+04  7.582964E+02  2.415495E+05  2.383831E+02 -9.847176E+02
       386   5  6.048671E+05  9.074364E+04  1.005563E+03  2.343829E+05 -7.234148E+02  3.839874E+01
       386   6  5.986198E+05  9.717335E+04  1.663614E+03  2.415150E+05 -1.684592E+03  1.060007E+03
       386   7  5.800188E+05  9.008113E+04 -3.979414E+03  2.364127E+05  9.210127E+02 -7.266355E+02
       386   8  6.120567E+05  9.344281E+04  2.872684E+03  2.363516E+05 -4.163210E+01  2.961530E+02
       386   9  6.315877E+05  1.095730E+05  1.013611E+04  2.505894E+05 -1.003679E+03  1.317427E+03
       386  10  6.171954E+05  1.040835E+05  5.495978E+03  2.466864E+05  5.639832E-09  2.522848E-09
       386  11  5.976775E+05  8.804446E+04 -8.615673E+02  2.324142E+05  1.122136E-09 -9.324754E-09
       386  12  5.656527E+05  8.477376E+04 -6.809015E+03  2.324410E+05 -1.000160E-08  1.029067E-09
       386  13  5.986069E+05  9.708231E+04  7.582945E+02  2.415495E+05 -1.906176E-09  6.082447E-09
       386  14  6.048671E+05  9.074364E+04  1.005562E+03  2.343829E+05  6.707888E-10 -6.102949E-09
       386  15  5.986198E+05  9.717334E+04  1.663606E+03  2.415150E+05 -6.093831E-09  2.656195E-09
       386  16  5.800188E+05  9.008113E+04 -3.979416E+03  2.364127E+05 -2.374868E-09 -2.860264E-09
       386  17  6.120567E+05  9.344281E+04  2.872683E+03  2.363516E+05  2.009477E-09  1.282159E-09
       386  18  6.315877E+05  1.095730E+05  1.013611E+04  2.505894E+05  5.956383E-09  1.890146E-09
       386  19  6.171954E+05  1.040835E+05  5.495981E+03  2.466864E+05  4.442689E+02  1.242808E+03
       386  20  5.976775E+05  8.804446E+04 -8.615635E+02  2.324142E+05  1.405190E+03  2.193527E+02
       386  21  5.656527E+05  8.477376E+04 -6.809003E+03  2.324410E+05  2.365468E+03 -8.026010E+02
       386  22  5.986069E+05  9.708231E+04  7.582964E+02  2.415495E+05 -2.383831E+02  9.847176E+02
       386  23  6.048671E+05  9.074364E+04  1.005563E+03  2.343829E+05  7.234148E+02 -3.839874E+01
       386  24  5.986198E+05  9.717335E+04  1.663614E+03  2.415150E+05  1.684592E+03 -1.060007E+03
       386  25  5.800188E+05  9.008113E+04 -3.979414E+03  2.364127E+05 -9.210127E+02  7.266355E+02
       386  26  6.120567E+05  9.344281E+04  2.872684E+03  2.363516E+05  4.163210E+01 -2.961530E+02
       386  27  6.315877E+05  1.095730E+05  1.013611E+04  2.505894E+05  1.003679E+03 -1.317427E+03
       387   1  5.346626E+05  7.311044E+04 -1.456077E+04  2.242129E+05 -2.957240E+03  1.391832E+03
       387   2  5.149440E+05  5.674095E+04 -1.958651E+04  2.096532E+05 -5.298696E+03  1.896161E+03
       387   3  4.833041E+05  5.441908E+04 -2.284515E+04  2.092033E+05 -7.629444E+03  2.373022E+03
       387   4  5.986921E+05  9.705452E+04  2.143248E+03  2.416252E+05 -2.266134E+03  1.653080E+03
       387   5  6.047280E+05  9.057298E+04  3.754827E+03  2.343644E+05 -4.623351E+03  2.151382E+03
       387   6  5.988454E+05  9.814209E+04  7.145943E+03  2.412132E+05 -6.969943E+03  2.622187E+03
       387   7  6.627258E+05  1.209989E+05  1.884698E+04  2.590391E+05 -1.574947E+03  1.914359E+03
       387   8  6.945199E+05  1.244056E+05  2.709553E+04  2.590788E+05 -3.947898E+03  2.406644E+03
       387   9  7.143997E+05  1.418660E+05  3.713592E+04  2.732285E+05 -6.310308E+03  2.871403E+03
       387  10  5.346626E+05  7.311044E+04 -1.456079E+04  2.242130E+05 -1.823031E-09  4.212835E-09
       387  11  5.149440E+05  5.674094E+04 -1.958657E+04  2.096532E+05  3.322164E-09 -7.557800E-09
       387  12  4.833041E+05  5.441906E+04 -2.284527E+04  2.092033E+05  1.236015E-09 -1.250182E-08
       387  13  5.986921E+05  9.705452E+04  2.143233E+03  2.416252E+05 -7.146818E-09 -8.406131E-10
       387  14  6.047279E+05  9.057297E+04  3.754778E+03  2.343644E+05 -1.536723E-12  1.451870E-08
       387  15  5.988454E+05  9.814207E+04  7.145839E+03  2.412132E+05  1.366452E-10 -3.294953E-09
       387  16  6.627258E+05  1.209989E+05  1.884697E+04  2.590391E+05 -9.457039E-10  7.323469E-09
       387  17  6.945199E+05  1.244056E+05  2.709549E+04  2.590789E+05  2.299823E-09 -8.300053E-09
       387  18  7.143997E+05  1.418660E+05  3.713583E+04  2.732286E+05  2.551206E-09  1.319381E-09
       387  19  5.346626E+05  7.311044E+04 -1.456077E+04  2.242129E+05  2.957240E+03 -1.391832E+03
       387  20  5.149440E+05  5.674095E+04 -1.958651E+04  2.096532E+05  5.298696E+03 -1.896161E+03
       387  21  4.833041E+05  5.441908E+04 -2.284515E+04  2.092033E+05  7.629444E+03 -2.373022E+03
       387  22  5.986921E+05  9.705452E+04  2.143248E+03  2.416252E+05  2.266134E+03 -1.653080E+03
       387  23  6.047280E+05  9.057298E+04  3.754827E+03  2.343644E+05  4.623351E+03 -2.151382E+03
       387  24  5.988454E+05  9.814209E+04  7.145943E+03  2.412132E+05  6.969943E+03 -2.622187E+03
       387  25  6.627258E+05  1.209989E+05  1.884698E+04  2.590391E+05  1.574947E+03 -1.914359E+03
       387  26  6.945199E+05  1.244056E+05  2.709553E+04  2.590788E+05  3.947898E+03 -2.406644E+03
       387  27  7.143997E+05  1.418660E+05  3.713592E+04  2.732285E+05  6.310308E+03 -2.871403E+03
       388   1  4.512972E+05  4.258663E+04 -2.904758E+04  2.032167E+05 -9.387367E+03  2.598701E+03
       388   2  4.310205E+05  2.325769E+04 -2.883639E+04  1.860774E+05 -1.792623E+04  7.451949E+02
       388   3  4.042150E+05  3.066594E+04 -1.881706E+04  1.801434E+05 -2.628613E+04 -1.579992E+03
       388   4  5.994396E+05  9.667366E+04  9.220245E+03  2.421909E+05 -8.580640E+03  2.903457E+03
       388   5  6.035021E+05  8.908113E+04  1.616222E+04  2.343958E+05 -1.738707E+04  9.486731E+02
       388   6  6.010865E+05  1.082756E+05  3.312207E+04  2.378055E+05 -2.601494E+04 -1.477947E+03
       388   7  7.476028E+05  1.507616E+05  4.748613E+04  2.811733E+05 -7.773704E+03  3.208286E+03
       388   8  7.760125E+05  1.549067E+05  6.115833E+04  2.827264E+05 -1.684775E+04  1.152216E+03
       388   9  7.979962E+05  1.858891E+05  8.505804E+04  2.954848E+05 -2.574365E+04 -1.375862E+03
       388  10  4.512971E+05  4.258660E+04 -2.904776E+04  2.032168E+05 -5.390782E-09 -1.286000E-08
       388  11  4.310202E+05  2.325761E+04 -2.883700E+04  1.860774E+05 -3.078221E-09  1.116538E-08
       388  12  4.042142E+05  3.066576E+04 -1.881837E+04  1.801433E+05  3.453080E-09  1.125314E-08
       388  13  5.994395E+05  9.667363E+04  9.220091E+03  2.421910E+05  1.294869E-09 -7.703785E-09
       388  14  6.035018E+05  8.908105E+04  1.616166E+04  2.343958E+05 -2.671207E-09  5.602301E-09
       388  15  6.010857E+05  1.082755E+05  3.312079E+04  2.378055E+05  2.767081E-10  3.512108E-09
       388  16  7.476027E+05  1.507615E+05  4.748600E+04  2.811733E+05  7.340012E-09  2.308974E-09
       388  17  7.760122E+05  1.549066E+05  6.115779E+04  2.827265E+05  2.699632E-09 -4.333424E-09
       388  18  7.979955E+05  1.858889E+05  8.505679E+04  2.954847E+05 -5.322578E-09 -3.305146E-10
       388  19  4.512972E+05  4.258663E+04 -2.904758E+04  2.032167E+05  9.387367E+03 -2.598701E+03
       388  20  4.310205E+05  2.325769E+04 -2.883639E+04  1.860774E+05  1.792623E+04 -7.451949E+02
       388  21  4.042150E+05  3.066594E+04 -1.881706E+04  1.801434E+05  2.628613E+04  1.579992E+03
       388  22  5.994396E+05  9.667366E+04  9.220245E+03  2.421909E+05  8.580640E+03 -2.903457E+03
       388  23  6.035021E+05  8.908113E+04  1.616222E+04  2.343958E+05  1.738707E+04 -9.486731E+02
       388  24  6.010865E+05  1.082756E+05  3.312207E+04  2.378055E+05  2.601494E+04  1.477947E+03
       388  25  7.476028E+05  1.507616E+05  4.748613E+04  2.811733E+05  7.773704E+03 -3.208286E+03
       388  26  7.760125E+05  1.549067E+05  6.115833E+04  2.827264E+05  1.684775E+04 -1.152216E+03
       388  27  7.979962E+05  1.858891E+05  8.505804E+04  2.954848E+05  2.574365E+04  1.375862E+03
       389   1  3.631720E+05  1.728303E+04 -1.905481E+04  1.973184E+05 -3.483417E+04 -2.840875E+03
       389   2  3.431098E+05 -3.084257E+04  1.570041E+03  1.548371E+05 -6.833487E+04 -1.458738E+04
       389   3  3.679484E+05  7.567130E+04  8.578980E+04  9.016833E+04 -9.908225E+04 -3.362599E+04
       389   4  6.063349E+05  9.227275E+04  4.092460E+04  2.472142E+05 -3.235066E+04 -1.902458E+03
       389   5  5.920522E+05  7.486628E+04  6.853595E+04  2.355474E+05 -6.996614E+04 -1.520489E+04
       389   6  6.234588E+05  2.128733E+05  1.629812E+05  2.016990E+05 -1.048293E+05 -3.580187E+04
       389   7  8.495559E+05  1.672623E+05  1.008999E+05  2.971256E+05 -2.986607E+04 -9.638013E+02
       389   8  8.410541E+05  1.805834E+05  1.354960E+05  3.162881E+05 -7.159812E+04 -1.582275E+04
       389   9  8.790336E+05  3.501004E+05  2.401655E+05  3.132764E+05 -1.105788E+05 -3.797964E+04
       389  10  3.631707E+05  1.728269E+04 -1.905710E+04  1.973184E+05 -4.757219E-09  8.217934E-09
       389  11  3.431047E+05 -3.084405E+04  1.560872E+03  1.548363E+05 -3.296521E-09  1.109578E-08
       389  12  3.679376E+05  7.566745E+04  8.576924E+04  9.016564E+04  4.622264E-09  7.601414E-09
       389  13  6.063338E+05  9.227247E+04  4.092263E+04  2.472142E+05 -1.549672E-09 -2.171829E-09
       389  14  5.920469E+05  7.486472E+04  6.852633E+04  2.355465E+05 -3.210679E-09 -1.461885E-10
       389  15  6.234467E+05  2.128690E+05  1.629581E+05  2.016960E+05 -6.528758E-10  4.426007E-09
       389  16  8.495549E+05  1.672620E+05  1.008982E+05  2.971256E+05  1.953526E-10  4.663637E-09
       389  17  8.410485E+05  1.805818E+05  1.354859E+05  3.162872E+05 -5.059862E-09 -2.662213E-09
       389  18  8.790201E+05  3.500956E+05  2.401399E+05  3.132730E+05 -7.338585E-09 -2.310444E-09
       389  19  3.631720E+05  1.728303E+04 -1.905481E+04  1.973184E+05  3.483417E+04  2.840875E+03
       389  20  3.431098E+05 -3.084257E+04  1.570041E+03  1.548371E+05  6.833487E+04  1.458738E+04
       389  21  3.679484E+05  7.567130E+04  8.578980E+04  9.016833E+04  9.908225E+04  3.362599E+04
       389  22  6.063349E+05  9.227275E+04  4.092460E+04  2.472142E+05  3.235066E+04  1.902458E+03
       389  23  5.920522E+05  7.486628E+04  6.853595E+04  2.355474E+05  6.996614E+04  1.520489E+04
       389  24  6.234588E+05  2.128733E+05  1.629812E+05  2.016990E+05  1.048293E+05  3.580187E+04
       389  25  8.495559E+05  1.672623E+05  1.008999E+05  2.971256E+05  2.986607E+04  9.638013E+02
       389  26  8.410541E+05  1.805834E+05  1.354960E+05  3.162881E+05  7.159812E+04  1.582275E+04
       389  27  8.790336E+05  3.501004E+05  2.401655E+05  3.132764E+05  1.105788E+05  3.797964E+04
       390   1 -1.783314E+05 -9.134401E+05 -1.806636E+05  9.430651E+04 -6.293839E+03 -2.608503E+04
       390   2 -1.170777E+05 -7.497121E+05 -1.242317E+05  3.956646E+04 -1.734956E+04 -1.040625E+04
       390   3 -7.900138E+04 -5.932575E+05 -8.371854E+04  8.474886E+04 -1.176563E+04  5.300501E+03
       390   4 -1.823299E+04 -2.716221E+05 -2.256609E+04  8.704997E+04 -6.311017E+03 -1.449530E+04
       390   5  1.866329E+03 -2.688232E+05 -1.071902E+04  3.710449E+04 -1.735079E+04 -8.782928E+03
       390   6  5.315019E+02 -2.715841E+05 -7.855186E+03  8.707802E+04 -1.175638E+04 -3.046867E+03
       390   7  1.418350E+05  3.705714E+05  1.355015E+05  7.978601E+04 -6.328459E+03 -2.893588E+03
       390   8  1.207939E+05  2.122786E+05  1.027777E+05  3.464067E+04 -1.735204E+04 -7.158351E+03
       390   9  8.005704E+04  5.018471E+04  6.800129E+04  8.940841E+04 -1.174720E+04 -1.139854E+04
       390  10 -1.783316E+05 -9.134408E+05 -1.806649E+05  9.430638E+04 -7.474030E-10 -1.288693E-09
       390  11 -1.170781E+05 -7.497123E+05 -1.242325E+05  3.956632E+04  9.343509E-10 -4.233412E-10
       390  12 -7.900153E+04 -5.932576E+05 -8.371886E+04  8.474891E+04  6.103628E-10  4.002212E-10
       390  13 -1.823309E+04 -2.716224E+05 -2.256656E+04  8.704989E+04 -2.453719E-12 -1.029303E-09
       390  14  1.865985E+03 -2.688234E+05 -1.071974E+04  3.710437E+04 -1.343266E-09 -3.831349E-09
       390  15  5.313510E+02 -2.715841E+05 -7.855463E+03  8.707799E+04 -3.400446E-10 -1.411883E-09
       390  16  1.418349E+05  3.705713E+05  1.355014E+05  7.978600E+04 -2.212173E-10  7.414593E-10
       390  17  1.207935E+05  2.122785E+05  1.027770E+05  3.464057E+04  1.204912E-09 -3.058064E-09
       390  18  8.005685E+04  5.018454E+04  6.800079E+04  8.940831E+04  5.744789E-10 -1.700407E-09
       390  19 -1.783314E+05 -9.134401E+05 -1.806636E+05  9.430651E+04  6.293839E+03  2.608503E+04
       390  20 -1.170777E+05 -7.497121E+05 -1.242317E+05  3.956646E+04  1.734956E+04  1.040625E+04
       390  21 -7.900138E+04 -5.932575E+05 -8.371854E+04  8.474886E+04  1.176563E+04 -5.300501E+03
       390  22 -1.823299E+04 -2.716221E+05 -2.256609E+04  8.704997E+04  6.311017E+03  1.449530E+04
       390  23  1.866329E+03 -2.688232E+05 -1.071902E+04  3.710449E+04  1.735079E+04  8.782928E+03
       390  24  5.315019E+02 -2.715841E+05 -7.855186E+03  8.707802E+04  1.175638E+04  3.046867E+03
       390  25  1.418350E+05  3.705714E+05  1.355015E+05  7.978601E+04  6.328459E+03  2.893588E+03
       390  26  1.207939E+05  2.122786E+05  1.027777E+05  3.464067E+04  1.735204E+04  7.158351E+03
       390  27  8.005704E+04  5.018471E+04  6.800129E+04  8.940841E+04  1.174720E+04  1.139854E+04
       391   1 -3.671816E+04 -4.123798E+05 -4.069219E+04  8.826243E+04 -5.267457E+03  1.825188E+03
       391   2  5.008301E+03 -2.514368E+05 -2.347386E+03  3.683994E+04  6.738098E+02  5.217338E+03
       391   3  4.133778E+04 -9.197147E+04  3.249643E+04  8.594554E+04  6.564237E+03  8.610502E+03
       391   4 -1.683816E+03 -2.706621E+05 -7.305257E+03  8.720515E+04 -5.263843E+03 -1.755588E+03
       391   5  4.416267E+02 -2.699094E+05 -6.701665E+03  3.694024E+04  6.774940E+02  1.666842E+03
       391   6 -2.833528E+03 -2.706637E+05 -9.618669E+03  8.720392E+04  6.567922E+03  5.089429E+03
       391   7  3.334910E+04 -1.289258E+05  2.608034E+04  8.614762E+04 -5.260218E+03 -5.337177E+03
       391   8 -4.125065E+03 -2.883817E+05 -1.105592E+04  3.704055E+04  6.811770E+02 -1.883548E+03
       391   9 -4.700711E+04 -4.493265E+05 -5.173592E+04  8.846194E+04  6.571593E+03  1.569364E+03
       391  10 -3.671819E+04 -4.123798E+05 -4.069225E+04  8.826244E+04  9.739576E-10 -5.091051E-09
       391  11  5.008293E+03 -2.514368E+05 -2.347438E+03  3.683993E+04 -1.044631E-09  1.476571E-09
       391  12  4.133771E+04 -9.197156E+04  3.249621E+04  8.594549E+04 -3.403115E-10  3.629965E-09
       391  13 -1.683846E+03 -2.706621E+05 -7.305315E+03  8.720514E+04  2.738188E-09 -4.318283E-09
       391  14  4.416254E+02 -2.699094E+05 -6.701671E+03  3.694024E+04  3.434679E-10 -4.413754E-09
       391  15 -2.833581E+03 -2.706637E+05 -9.618799E+03  8.720389E+04  4.537333E-09 -6.791989E-10
       391  16  3.334906E+04 -1.289258E+05  2.608024E+04  8.614760E+04  1.126527E-09  3.999601E-09
       391  17 -4.125067E+03 -2.883817E+05 -1.105593E+04  3.704055E+04 -1.087343E-09 -4.346924E-09
       391  18 -4.700715E+04 -4.493265E+05 -5.173601E+04  8.846194E+04 -1.176571E-10 -2.988045E-09
       391  19 -3.671816E+04 -4.123798E+05 -4.069219E+04  8.826243E+04  5.267457E+03 -1.825188E+03
       391  20  5.008301E+03 -2.514368E+05 -2.347386E+03  3.683994E+04 -6.738098E+02 -5.217338E+03
       391  21  4.133778E+04 -9.197147E+04  3.249643E+04  8.594554E+04 -6.564237E+03 -8.610502E+03
       391  22 -1.683816E+03 -2.706621E+05 -7.305257E+03  8.720515E+04  5.263843E+03  1.755588E+03
       391  23  4.416267E+02 -2.699094E+05 -6.701665E+03  3.694024E+04 -6.774940E+02 -1.666842E+03
       391  24 -2.833528E+03 -2.706637E+05 -9.618669E+03  8.720392E+04 -6.567922E+03 -5.089429E+03
       391  25  3.334910E+04 -1.289258E+05  2.608034E+04  8.614762E+04  5.260218E+03  5.337177E+03
       391  26 -4.125065E+03 -2.883817E+05 -1.105592E+04  3.704055E+04 -6.811770E+02  1.883548E+03
       391  27 -4.700711E+04 -4.493265E+05 -5.173592E+04  8.846194E+04 -6.571593E+03 -1.569364E+03
       392   1  8.991586E+04  8.628446E+04  7.337224E+04  9.103839E+04  1.315397E+04  1.540956E+04
       392   2  1.312090E+05  2.502265E+05  1.052289E+05  3.330184E+04  1.868249E+04  1.403240E+04
       392   3  1.391092E+05  4.066137E+05  1.297549E+05  7.541212E+04  6.737300E+03  1.262918E+04
       392   4  1.266531E+03 -2.724435E+05 -1.117101E+04  8.706958E+04  1.316367E+04  6.845654E+03
       392   5  3.162708E+03 -2.677617E+05 -1.696424E+04  3.711832E+04  1.868096E+04  1.594978E+04
       392   6 -3.016742E+04 -2.724859E+05 -3.737350E+04  8.702084E+04  6.718043E+03  2.502791E+04
       392   7 -8.739189E+04 -6.310528E+05 -9.572285E+04  8.310309E+04  1.317348E+04 -1.713330E+03
       392   8 -1.249027E+05 -7.855032E+05 -1.391759E+05  4.093168E+04  1.867945E+04  1.786555E+04
       392   9 -1.994778E+05 -9.511654E+05 -2.045353E+05  9.861698E+04  6.699241E+03  3.741309E+04
       392  10  8.991561E+04  8.628416E+04  7.337147E+04  9.103823E+04 -8.584905E-10 -7.242214E-09
       392  11  1.312086E+05  2.502262E+05  1.052279E+05  3.330163E+04 -3.113225E-09 -2.546585E-09
       392  12  1.391091E+05  4.066135E+05  1.297545E+05  7.541205E+04 -1.286766E-09  4.078833E-09
       392  13  1.266332E+03 -2.724436E+05 -1.117143E+04  8.706951E+04  2.041748E-09 -2.197781E-09
       392  14  3.162265E+03 -2.677621E+05 -1.696538E+04  3.711808E+04  1.359840E-10 -6.971937E-09
       392  15 -3.016764E+04 -2.724866E+05 -3.737476E+04  8.702070E+04 -5.929273E-10  7.208757E-10
       392  16 -8.739208E+04 -6.310529E+05 -9.572318E+04  8.310311E+04  1.297864E-09  8.368688E-09
       392  17 -1.249032E+05 -7.855037E+05 -1.391772E+05  4.093142E+04 -1.407618E-09 -1.450737E-09
       392  18 -1.994783E+05 -9.511669E+05 -2.045380E+05  9.861678E+04 -1.701754E-09 -3.228714E-09
       392  19  8.991586E+04  8.628446E+04  7.337224E+04  9.103839E+04 -1.315397E+04 -1.540956E+04
       392  20  1.312090E+05  2.502265E+05  1.052289E+05  3.330184E+04 -1.868249E+04 -1.403240E+04
       392  21  1.391092E+05  4.066137E+05  1.297549E+05  7.541212E+04 -6.737300E+03 -1.262918E+04
       392  22  1.266531E+03 -2.724435E+05 -1.117101E+04  8.706958E+04 -1.316367E+04 -6.845654E+03
       392  23  3.162708E+03 -2.677617E+05 -1.696424E+04  3.711832E+04 -1.868096E+04 -1.594978E+04
       392  24 -3.016742E+04 -2.724859E+05 -3.737350E+04  8.702084E+04 -6.718043E+03 -2.502791E+04
       392  25 -8.739189E+04 -6.310528E+05 -9.572285E+04  8.310309E+04 -1.317348E+04  1.713330E+03
       392  26 -1.249027E+05 -7.855032E+05 -1.391759E+05  4.093168E+04 -1.867945E+04 -1.786555E+04
       392  27 -1.994778E+05 -9.511654E+05 -2.045353E+05  9.861698E+04 -6.699241E+03 -3.741309E+04
       393   1  1.363280E+06  3.190584E+04  4.412651E+04 -2.702804E+02  3.527048E+04  5.774419E+01
       393   2  1.355466E+06 -1.700768E+04  1.452566E+04  1.961597E+03  2.322346E+04  7.174423E+01
       393   3  1.363993E+06 -8.572148E+03  7.182446E+03 -1.206320E+03  1.117625E+04  3.565967E+01
       393   4  1.393497E+06  3.944668E+04  5.166839E+04 -9.104763E+02  3.527289E+04  5.770899E+01
       393   5  1.385340E+06 -9.550929E+03  2.198182E+04  1.809995E+03  2.322415E+04  7.173831E+01
       393   6  1.393524E+06 -1.200636E+03  1.455332E+04 -8.693104E+02  1.117523E+04  3.566523E+01
       393   7  1.423714E+06  4.698745E+04  5.921020E+04 -1.550704E+03  3.527530E+04  5.767379E+01
       393   8  1.415214E+06 -2.094243E+03  2.943792E+04  1.658385E+03  2.322484E+04  7.173238E+01
       393   9  1.423055E+06  6.170812E+03  2.192412E+04 -5.322851E+02  1.117421E+04  3.567079E+01
       393  10  1.363278E+06  3.190551E+04  4.412417E+04 -2.702820E+02 -5.800049E-10 -5.272686E-10
       393  11  1.355465E+06 -1.700783E+04  1.452465E+04  1.961596E+03 -1.656174E-09 -3.832855E-09
       393  12  1.363993E+06 -8.572182E+03  7.182212E+03 -1.206320E+03  7.102866E-09  4.490133E-09
       393  13  1.393495E+06  3.944635E+04  5.166606E+04 -9.104780E+02  3.365642E-11  5.242937E-11
       393  14  1.385339E+06 -9.551073E+03  2.198081E+04  1.809993E+03 -1.998819E-10 -7.902255E-11
       393  15  1.393524E+06 -1.200669E+03  1.455308E+04 -8.693107E+02  2.265407E-10  1.846117E-10
       393  16  1.423713E+06  4.698712E+04  5.920787E+04 -1.550705E+03  1.470883E-09  2.780772E-09
       393  17  1.415214E+06 -2.094387E+03  2.943691E+04  1.658383E+03  1.807075E-09  7.238453E-10
       393  18  1.423055E+06  6.170778E+03  2.192389E+04 -5.322855E+02 -6.966107E-09 -2.553491E-09
       393  19  1.363280E+06  3.190584E+04  4.412651E+04 -2.702804E+02 -3.527048E+04 -5.774419E+01
       393  20  1.355466E+06 -1.700768E+04  1.452566E+04  1.961597E+03 -2.322346E+04 -7.174423E+01
       393  21  1.363993E+06 -8.572148E+03  7.182446E+03 -1.206320E+03 -1.117625E+04 -3.565967E+01
       393  22  1.393497E+06  3.944668E+04  5.166839E+04 -9.104763E+02 -3.527289E+04 -5.770899E+01
       393  23  1.385340E+06 -9.550929E+03  2.198182E+04  1.809995E+03 -2.322415E+04 -7.173831E+01
       393  24  1.393524E+06 -1.200636E+03  1.455332E+04 -8.693104E+02 -1.117523E+04 -3.566523E+01
       393  25  1.423714E+06  4.698745E+04  5.921020E+04 -1.550704E+03 -3.527530E+04 -5.767379E+01
       393  26  1.415214E+06 -2.094243E+03  2.943792E+04  1.658385E+03 -2.322484E+04 -7.173238E+01
       393  27  1.423055E+06  6.170812E+03  2.192412E+04 -5.322851E+02 -1.117421E+04 -3.567079E+01
       394   1  1.392186E+06  6.605771E+03  1.246920E+04  4.847137E+02  8.749175E+03  9.274427E+00
       394   2  1.390850E+06 -1.073996E+03  6.146177E+03  2.582796E+02  5.735759E+03 -4.137197E+00
       394   3  1.392153E+06  2.343859E+02  4.029061E+03  3.333061E+02  2.722343E+03 -1.630631E+00
       394   4  1.390472E+06  6.177942E+03  1.204131E+04  3.847457E+02  8.748658E+03  9.272931E+00
       394   5  1.389156E+06 -1.496910E+03  5.723341E+03  2.346036E+02  5.735632E+03 -4.137439E+00
       394   6  1.390478E+06 -1.836660E+02  3.611014E+03  3.859221E+02  2.722606E+03 -1.630339E+00
       394   7  1.388758E+06  5.750112E+03  1.161343E+04  2.847779E+02  8.748141E+03  9.271435E+00
       394   8  1.387461E+06 -1.919823E+03  5.300505E+03  2.109276E+02  5.735505E+03 -4.137683E+00
       394   9  1.388803E+06 -6.017181E+02  3.192967E+03  4.385379E+02  2.722869E+03 -1.630050E+00
       394  10  1.392186E+06  6.605751E+03  1.246906E+04  4.847137E+02  1.857237E-07 -8.295381E-08
       394  11  1.390850E+06 -1.074004E+03  6.146116E+03  2.582800E+02  6.984098E-07 -3.866438E-07
       394  12  1.392153E+06  2.343853E+02  4.029047E+03  3.333066E+02  1.176750E-06 -6.995320E-07
       394  13  1.390472E+06  6.177921E+03  1.204117E+04  3.847456E+02  3.623647E-07  1.120272E-07
       394  14  1.389156E+06 -1.496918E+03  5.723280E+03  2.346036E+02  1.607798E-06  4.980467E-07
       394  15  1.390478E+06 -1.836680E+02  3.611000E+03  3.859221E+02  2.853775E-06  8.857375E-07
       394  16  1.388758E+06  5.750091E+03  1.161328E+04  2.847778E+02  1.044194E-07 -9.631258E-08
       394  17  1.387461E+06 -1.919833E+03  5.300443E+03  2.109273E+02  5.881196E-07 -4.180749E-07
       394  18  1.388803E+06 -6.017215E+02  3.192953E+03  4.385373E+02  1.106744E-06 -7.167614E-07
       394  19  1.392186E+06  6.605772E+03  1.246920E+04  4.847138E+02 -8.749175E+03 -9.274427E+00
       394  20  1.390850E+06 -1.073994E+03  6.146178E+03  2.582803E+02 -5.735759E+03  4.137197E+00
       394  21  1.392153E+06  2.343886E+02  4.029061E+03  3.333072E+02 -2.722343E+03  1.630629E+00
       394  22  1.390472E+06  6.177942E+03  1.204131E+04  3.847457E+02 -8.748658E+03 -9.272931E+00
       394  23  1.389156E+06 -1.496910E+03  5.723341E+03  2.346036E+02 -5.735632E+03  4.137440E+00
       394  24  1.390478E+06 -1.836660E+02  3.611014E+03  3.859221E+02 -2.722606E+03  1.630340E+00
       394  25  1.388758E+06  5.750111E+03  1.161343E+04  2.847778E+02 -8.748141E+03 -9.271435E+00
       394  26  1.387461E+06 -1.919825E+03  5.300504E+03  2.109270E+02 -5.735505E+03  4.137682E+00
       394  27  1.388803E+06 -6.017209E+02  3.192966E+03  4.385368E+02 -2.722869E+03  1.630048E+00
       395   1  1.389895E+06  9.412028E+02  2.897501E+03  3.291400E+02  2.128276E+03  1.576436E+00
       395   2  1.389666E+06 -2.619941E+02  1.532076E+03  3.263430E+02  1.329914E+03  2.420548E-01
       395   3  1.389898E+06 -3.603509E+01  1.042831E+03  3.060939E+02  5.315631E+02  2.016225E-01
       395   4  1.389993E+06  9.655267E+02  2.921818E+03  3.144815E+02  2.128233E+03  1.576377E+00
       395   5  1.389763E+06 -2.379360E+02  1.556137E+03  3.233211E+02  1.329902E+03  2.420467E-01
       395   6  1.389994E+06 -1.224809E+01  1.066613E+03  3.147083E+02  5.315822E+02  2.016349E-01
       395   7  1.390090E+06  9.898505E+02  2.946136E+03  2.998230E+02  2.128190E+03  1.576315E+00
       395   8  1.389859E+06 -2.138778E+02  1.580197E+03  3.202991E+02  1.329890E+03  2.420364E-01
       395   9  1.390089E+06  1.153890E+01  1.090395E+03  3.233228E+02  5.316012E+02  2.016460E-01
       395  10  1.389895E+06  9.412030E+02  2.897493E+03  3.291406E+02  1.168245E-06 -7.346589E-07
       395  11  1.389666E+06 -2.619936E+02  1.532073E+03  3.263435E+02  8.147019E-07 -5.215736E-07
       395  12  1.389898E+06 -3.603461E+01  1.042830E+03  3.060942E+02  4.952435E-07 -2.927417E-07
       395  13  1.389993E+06  9.655255E+02  2.921810E+03  3.144815E+02  2.973315E-06  9.176538E-07
       395  14  1.389763E+06 -2.379364E+02  1.556133E+03  3.233211E+02  2.139511E-06  6.374977E-07
       395  15  1.389994E+06 -1.224817E+01  1.066612E+03  3.147083E+02  1.306041E-06  3.581783E-07
       395  16  1.390090E+06  9.898479E+02  2.946127E+03  2.998224E+02  1.211038E-06 -7.291454E-07
       395  17  1.389859E+06 -2.138792E+02  1.580194E+03  3.202987E+02  8.974005E-07 -4.991285E-07
       395  18  1.390089E+06  1.153827E+01  1.090394E+03  3.233225E+02  5.497649E-07 -2.793461E-07
       395  19  1.389895E+06  9.412057E+02  2.897502E+03  3.291412E+02 -2.128276E+03 -1.576437E+00
       395  20  1.389666E+06 -2.619922E+02  1.532077E+03  3.263439E+02 -1.329914E+03 -2.420559E-01
       395  21  1.389898E+06 -3.603398E+01  1.042831E+03  3.060944E+02 -5.315631E+02 -2.016231E-01
       395  22  1.389993E+06  9.655267E+02  2.921818E+03  3.144815E+02 -2.128233E+03 -1.576375E+00
       395  23  1.389763E+06 -2.379359E+02  1.556137E+03  3.233211E+02 -1.329902E+03 -2.420455E-01
       395  24  1.389994E+06 -1.224809E+01  1.066613E+03  3.147083E+02 -5.315822E+02 -2.016342E-01
       395  25  1.390090E+06  9.898477E+02  2.946135E+03  2.998219E+02 -2.128190E+03 -1.576317E+00
       395  26  1.389859E+06 -2.138797E+02  1.580197E+03  3.202983E+02 -1.329890E+03 -2.420373E-01
       395  27  1.390089E+06  1.153780E+01  1.090395E+03  3.233223E+02 -5.316012E+02 -2.016465E-01
       396   1  1.389928E+06  1.485675E+02  9.362189E+02  3.217551E+02  3.497106E+02  2.742179E-01
       396   2  1.389856E+06 -6.049691E+01  7.850193E+02  3.184738E+02 -4.526949E+01 -9.589361E-02
       396   3  1.389927E+06  1.007613E+02  9.831199E+02  3.163233E+02 -4.402556E+02  7.183718E-03
       396   4  1.389923E+06  1.474578E+02  9.351082E+02  3.187467E+02  3.496982E+02  2.742139E-01
       396   5  1.389851E+06 -6.158535E+01  7.839322E+02  3.181867E+02 -4.527053E+01 -9.589336E-02
       396   6  1.389923E+06  9.969218E+01  9.820485E+02  3.187576E+02 -4.402453E+02  7.184799E-03
       396   7  1.389919E+06  1.463480E+02  9.339975E+02  3.157383E+02  3.496858E+02  2.742089E-01
       396   8  1.389847E+06 -6.267378E+01  7.828450E+02  3.178997E+02 -4.527156E+01 -9.589403E-02
       396   9  1.389919E+06  9.862309E+01  9.809770E+02  3.211919E+02 -4.402349E+02  7.185008E-03
       396  10  1.389928E+06  1.485679E+02  9.362187E+02  3.217553E+02  4.159492E-07 -2.219297E-07
       396  11  1.389856E+06 -6.049652E+01  7.850194E+02  3.184740E+02  4.083857E-07 -2.071823E-07
       396  12  1.389927E+06  1.007616E+02  9.831197E+02  3.163235E+02  4.182354E-07 -1.844802E-07
       396  13  1.389923E+06  1.474577E+02  9.351079E+02  3.187467E+02  1.056416E-06  2.737143E-07
       396  14  1.389851E+06 -6.158535E+01  7.839322E+02  3.181867E+02  1.032666E-06  2.591969E-07
       396  15  1.389923E+06  9.969213E+01  9.820481E+02  3.187576E+02  1.009493E-06  2.425638E-07
       396  16  1.389919E+06  1.463476E+02  9.339971E+02  3.157381E+02  4.294787E-07 -2.132422E-07
       396  17  1.389847E+06 -6.267418E+01  7.828449E+02  3.178995E+02  4.181419E-07 -2.071899E-07
       396  18  1.389919E+06  9.862266E+01  9.809765E+02  3.211917E+02  3.895110E-07 -2.036264E-07
       396  19  1.389928E+06  1.485684E+02  9.362191E+02  3.217555E+02 -3.497106E+02 -2.742184E-01
       396  20  1.389856E+06 -6.049612E+01  7.850195E+02  3.184742E+02  4.526949E+01  9.589319E-02
       396  21  1.389927E+06  1.007620E+02  9.831201E+02  3.163237E+02  4.402556E+02 -7.184095E-03
       396  22  1.389923E+06  1.474578E+02  9.351082E+02  3.187467E+02 -3.496982E+02 -2.742133E-01
       396  23  1.389851E+06 -6.158535E+01  7.839322E+02  3.181867E+02  4.527053E+01  9.589388E-02
       396  24  1.389923E+06  9.969218E+01  9.820485E+02  3.187576E+02  4.402453E+02 -7.184313E-03
       396  25  1.389919E+06  1.463472E+02  9.339973E+02  3.157379E+02 -3.496858E+02 -2.742093E-01
       396  26  1.389847E+06 -6.267457E+01  7.828448E+02  3.178993E+02  4.527156E+01  9.589364E-02
       396  27  1.389919E+06  9.862233E+01  9.809768E+02  3.211915E+02  4.402349E+02 -7.185397E-03
       397   1  1.389993E+06  9.756608E+00  1.160071E+03  3.242252E+02 -6.343235E+02 -1.681417E-01
       397   2  1.389807E+06 -1.651448E+02  1.761171E+03  3.182065E+02 -1.523185E+03 -5.727920E-01
       397   3  1.389992E+06  6.813584E+02  3.195345E+03  3.084326E+02 -2.412048E+03  1.809185E-01
       397   4  1.389974E+06  4.924904E+00  1.155242E+03  3.177268E+02 -6.343423E+02 -1.681387E-01
       397   5  1.389788E+06 -1.700300E+02  1.756288E+03  3.195272E+02 -1.523176E+03 -5.727917E-01
       397   6  1.389973E+06  6.764150E+02  3.190389E+03  3.175724E+02 -2.412011E+03  1.808938E-01
       397   7  1.389954E+06  9.319873E-02  1.150414E+03  3.112285E+02 -6.343610E+02 -1.681371E-01
       397   8  1.389768E+06 -1.749151E+02  1.751405E+03  3.208479E+02 -1.523167E+03 -5.727943E-01
       397   9  1.389953E+06  6.714716E+02  3.185432E+03  3.267121E+02 -2.411974E+03  1.808646E-01
       397  10  1.389993E+06  9.757057E+00  1.160070E+03  3.242255E+02  6.749644E-07 -2.795529E-07
       397  11  1.389807E+06 -1.651442E+02  1.761167E+03  3.182071E+02  1.477919E-06 -6.255323E-07
       397  12  1.389992E+06  6.813587E+02  3.195335E+03  3.084337E+02  2.306182E-06 -9.543533E-07
       397  13  1.389974E+06  4.924796E+00  1.155241E+03  3.177268E+02  1.580259E-06  3.640776E-07
       397  14  1.389788E+06 -1.700306E+02  1.756284E+03  3.195272E+02  3.564821E-06  8.009974E-07
       397  15  1.389973E+06  6.764134E+02  3.190378E+03  3.175724E+02  5.549814E-06  1.233985E-06
       397  16  1.389954E+06  9.252755E-02  1.150413E+03  3.112282E+02  5.895347E-07 -3.047152E-07
       397  17  1.389768E+06 -1.749170E+02  1.751401E+03  3.208472E+02  1.374640E-06 -6.595826E-07
       397  18  1.389953E+06  6.714681E+02  3.185421E+03  3.267111E+02  2.134389E-06 -1.031273E-06
       397  19  1.389993E+06  9.757721E+00  1.160071E+03  3.242258E+02  6.343235E+02  1.681412E-01
       397  20  1.389807E+06 -1.651424E+02  1.761171E+03  3.182078E+02  1.523185E+03  5.727908E-01
       397  21  1.389992E+06  6.813621E+02  3.195346E+03  3.084347E+02  2.412048E+03 -1.809204E-01
       397  22  1.389974E+06  4.924904E+00  1.155242E+03  3.177268E+02  6.343423E+02  1.681395E-01
       397  23  1.389788E+06 -1.700300E+02  1.756288E+03  3.195272E+02  1.523176E+03  5.727933E-01
       397  24  1.389973E+06  6.764150E+02  3.190389E+03  3.175724E+02  2.412011E+03 -1.808913E-01
       397  25  1.389954E+06  9.207222E-02  1.150414E+03  3.112279E+02  6.343610E+02  1.681365E-01
       397  26  1.389768E+06 -1.749176E+02  1.751405E+03  3.208465E+02  1.523167E+03  5.727930E-01
       397  27  1.389953E+06  6.714678E+02  3.185431E+03  3.267100E+02  2.411974E+03 -1.808666E-01
       398   1  1.389997E+06 -2.084601E+02  3.946986E+03  3.709914E+02 -3.068417E+03 -4.885341E-01
       398   2  1.388975E+06 -1.146611E+03  6.531166E+03  2.877494E+02 -6.469701E+03 -1.690273E+00
       398   3  1.389984E+06  4.276485E+03  1.291641E+04  2.659409E+02 -9.870946E+03  1.858276E+00
       398   4  1.390342E+06 -1.222873E+02  4.033175E+03  3.325024E+02 -3.068486E+03 -4.883560E-01
       398   5  1.389324E+06 -1.059418E+03  6.618357E+03  3.012920E+02 -6.469657E+03 -1.690395E+00
       398   6  1.390337E+06  4.364677E+03  1.300453E+04  3.315142E+02 -9.870789E+03  1.857284E+00
       398   7  1.390688E+06 -3.611454E+01  4.119363E+03  2.940134E+02 -3.068554E+03 -4.881853E-01
       398   8  1.389673E+06 -9.722246E+02  6.705548E+03  3.148345E+02 -6.469613E+03 -1.690534E+00
       398   9  1.390690E+06  4.452869E+03  1.309264E+04  3.970874E+02 -9.870633E+03  1.856266E+00
       398  10  1.389997E+06 -2.084594E+02  3.946969E+03  3.709932E+02  4.105024E-06 -1.580131E-06
       398  11  1.388975E+06 -1.146615E+03  6.531089E+03  2.877535E+02  8.940624E-06 -3.521011E-06
       398  12  1.389984E+06  4.276470E+03  1.291623E+04  2.659473E+02  1.352623E-05 -5.599275E-06
       398  13  1.390342E+06 -1.222898E+02  4.033157E+03  3.325024E+02  9.580618E-06  2.085275E-06
       398  14  1.389324E+06 -1.059429E+03  6.618279E+03  3.012920E+02  2.144736E-05  4.582553E-06
       398  15  1.390337E+06  4.364651E+03  1.300434E+04  3.315142E+02  3.331485E-05  7.084877E-06
       398  16  1.390688E+06 -3.612029E+01  4.119344E+03  2.940115E+02  3.560573E-06 -1.763413E-06
       398  17  1.389673E+06 -9.722429E+02  6.705468E+03  3.148304E+02  8.220230E-06 -3.804486E-06
       398  18  1.390690E+06  4.452832E+03  1.309246E+04  3.970811E+02  1.312887E-05 -5.688654E-06
       398  19  1.389997E+06 -2.084537E+02  3.946988E+03  3.709950E+02  3.068417E+03  4.885309E-01
       398  20  1.388975E+06 -1.146597E+03  6.531169E+03  2.877576E+02  6.469701E+03  1.690266E+00
       398  21  1.389984E+06  4.276507E+03  1.291642E+04  2.659537E+02  9.870946E+03 -1.858287E+00
       398  22  1.390342E+06 -1.222873E+02  4.033175E+03  3.325024E+02  3.068486E+03  4.883601E-01
       398  23  1.389324E+06 -1.059418E+03  6.618357E+03  3.012920E+02  6.469657E+03  1.690404E+00
       398  24  1.390337E+06  4.364677E+03  1.300453E+04  3.315142E+02  9.870789E+03 -1.857270E+00
       398  25  1.390688E+06 -3.612100E+01  4.119361E+03  2.940096E+02  3.068554E+03  4.881818E-01
       398  26  1.389673E+06 -9.722388E+02  6.705545E+03  3.148262E+02  6.469613E+03  1.690526E+00
       398  27  1.390690E+06  4.452847E+03  1.309264E+04  3.970746E+02  9.870633E+03 -1.856277E+00
       399   1  1.398624E+06  6.782909E+02  1.771863E+04  3.150654E+02 -1.252741E+04 -1.120461E+01
       399   2  1.392714E+06 -5.229155E+03  2.742746E+04  5.214714E+02 -2.615812E+04 -2.771735E+01
       399   3  1.398742E+06  2.948015E+04  5.615446E+04 -3.850958E+02 -3.978914E+04  1.269878E+01
       399   4  1.392544E+06 -8.396699E+02  1.620089E+04  7.474682E+01 -1.252833E+04 -1.120001E+01
       399   5  1.386562E+06 -6.764567E+03  2.589224E+04  6.256108E+02 -2.615755E+04 -2.772162E+01
       399   6  1.392519E+06  2.792725E+04  5.460086E+04  6.350668E+01 -3.978708E+04  1.267080E+01
       399   7  1.386463E+06 -2.357633E+03  1.468316E+04 -1.655695E+02 -1.252925E+04 -1.119543E+01
       399   8  1.380411E+06 -8.299983E+03  2.435702E+04  7.297492E+02 -2.615698E+04 -2.772590E+01
       399   9  1.386297E+06  2.637434E+04  5.304725E+04  5.121047E+02 -3.978502E+04  1.264283E+01
       399  10  1.398624E+06  6.782595E+02  1.771833E+04  3.150716E+02  1.278836E-05 -5.590221E-06
       399  11  1.392713E+06 -5.229332E+03  2.742617E+04  5.214743E+02  6.921196E-06 -3.285348E-06
       399  12  1.398740E+06  2.947973E+04  5.615149E+04 -3.850946E+02  1.341383E-06 -8.074284E-07
       399  13  1.392544E+06 -8.397119E+02  1.620060E+04  7.474669E+01  3.262412E-05  6.932142E-06
       399  14  1.386561E+06 -6.764750E+03  2.589096E+04  6.256102E+02  1.838443E-05  3.902075E-06
       399  15  1.392518E+06  2.792682E+04  5.459789E+04  6.350708E+01  4.144488E-06  8.751590E-07
       399  16  1.386463E+06 -2.357686E+03  1.468286E+04 -1.655758E+02  1.331529E-05 -5.451315E-06
       399  17  1.380410E+06 -8.300172E+03  2.435574E+04  7.297451E+02  7.789754E-06 -2.940684E-06
       399  18  1.386295E+06  2.637391E+04  5.304429E+04  5.121043E+02  1.974980E-06 -6.068129E-07
       399  19  1.398624E+06  6.783122E+02  1.771863E+04  3.150780E+02  1.252741E+04  1.120460E+01
       399  20  1.392714E+06 -5.229143E+03  2.742746E+04  5.214785E+02  2.615812E+04  2.771735E+01
       399  21  1.398742E+06  2.948016E+04  5.615446E+04 -3.850942E+02  3.978914E+04 -1.269878E+01
       399  22  1.392544E+06 -8.396699E+02  1.620089E+04  7.474679E+01  1.252833E+04  1.120002E+01
       399  23  1.386562E+06 -6.764567E+03  2.589224E+04  6.256108E+02  2.615755E+04  2.772163E+01
       399  24  1.392519E+06  2.792725E+04  5.460086E+04  6.350667E+01  3.978708E+04 -1.267080E+01
       399  25  1.386463E+06 -2.357654E+03  1.468316E+04 -1.655820E+02  1.252925E+04  1.119542E+01
       399  26  1.380411E+06 -8.299994E+03  2.435702E+04  7.297422E+02  2.615698E+04  2.772589E+01
       399  27  1.386297E+06  2.637434E+04  5.304725E+04  5.121031E+02  3.978502E+04 -1.264283E+01
       400   1  1.298307E+06 -3.249209E+04  3.907566E+04  6.261106E+03 -5.084350E+04  1.184499E+02
       400   2  1.257760E+06 -7.102549E+04  7.207343E+04 -5.942150E+03 -1.055092E+05  3.522641E+02
       400   3  1.295621E+06  1.516131E+05  2.071194E+05  2.476197E+03 -1.601743E+05  5.180554E+02
       400   4  1.407311E+06 -5.282046E+03  6.628351E+04  4.765321E+03 -5.084321E+04  1.185711E+02
       400   5  1.368063E+06 -4.349206E+04  9.960458E+04 -5.298879E+03 -1.055191E+05  3.521470E+02
       400   6  1.407213E+06  1.794475E+05  2.349681E+05  5.258394E+03 -1.601944E+05  5.173342E+02
       400   7  1.516326E+06  2.192711E+04  9.349046E+04  3.269274E+03 -5.084292E+04  1.186922E+02
       400   8  1.478377E+06 -1.595955E+04  1.271348E+05 -4.655490E+03 -1.055289E+05  3.520298E+02
       400   9  1.518817E+06  2.072811E+05  2.628160E+05  8.041097E+03 -1.602145E+05  5.166130E+02
       400  10  1.298304E+06 -3.249278E+04  3.907081E+04  6.261111E+03 -5.344720E-08 -3.798674E-08
       400  11  1.257748E+06 -7.102847E+04  7.205256E+04 -5.942120E+03  1.090510E-08  3.743671E-09
       400  12  1.295593E+06  1.516062E+05  2.070713E+05  2.476264E+03  1.101864E-08  7.584729E-09
       400  13  1.407308E+06 -5.282738E+03  6.627866E+04  4.765326E+03  1.692880E-11 -4.750114E-09
       400  14  1.368051E+06 -4.349504E+04  9.958370E+04 -5.298849E+03  3.714924E-10 -2.449173E-09
       400  15  1.407186E+06  1.794407E+05  2.349200E+05  5.258460E+03 -2.148777E-09 -7.185529E-10
       400  16  1.516323E+06  2.192642E+04  9.348561E+04  3.269279E+03  5.344419E-08  2.667222E-08
       400  17  1.478365E+06 -1.596253E+04  1.271139E+05 -4.655460E+03 -1.073578E-08 -8.710061E-09
       400  18  1.518790E+06  2.072742E+05  2.627678E+05  8.041164E+03 -1.230517E-08 -7.180832E-09
       400  19  1.298307E+06 -3.249209E+04  3.907566E+04  6.261106E+03  5.084350E+04 -1.184499E+02
       400  20  1.257760E+06 -7.102549E+04  7.207343E+04 -5.942150E+03  1.055092E+05 -3.522641E+02
       400  21  1.295621E+06  1.516131E+05  2.071194E+05  2.476197E+03  1.601743E+05 -5.180554E+02
       400  22  1.407311E+06 -5.282046E+03  6.628351E+04  4.765321E+03  5.084321E+04 -1.185711E+02
       400  23  1.368063E+06 -4.349206E+04  9.960458E+04 -5.298879E+03  1.055191E+05 -3.521470E+02
       400  24  1.407213E+06  1.794475E+05  2.349681E+05  5.258394E+03  1.601944E+05 -5.173342E+02
       400  25  1.516326E+06  2.192711E+04  9.349046E+04  3.269274E+03  5.084292E+04 -1.186922E+02
       400  26  1.478377E+06 -1.595955E+04  1.271348E+05 -4.655490E+03  1.055289E+05 -3.520298E+02
       400  27  1.518817E+06  2.072811E+05  2.628160E+05  8.041097E+03  1.602145E+05 -5.166130E+02
       401   1  4.526829E+05  3.736742E+04  4.315883E+04  1.370319E+03  1.676669E+04 -9.910272E+01
       401   2  4.471426E+05  1.368693E+04  2.862601E+04 -1.724141E+03  1.104911E+04 -1.587825E+02
       401   3  4.519413E+05  1.773530E+04  2.527816E+04  9.479917E+02  5.331912E+03 -9.279972E+01
       401   4  3.790681E+05  1.897425E+04  2.476498E+04  1.215428E+03  1.676199E+04 -9.909801E+01
       401   5  3.738960E+05 -4.615805E+03  1.032499E+04 -1.695543E+03  1.104802E+04 -1.587828E+02
       401   6  3.790630E+05 -4.760433E+02  7.068347E+03  1.160119E+03  5.334430E+03 -9.280166E+01
       401   7  3.054582E+05  5.806711E+02  6.370720E+03  1.060559E+03  1.675728E+04 -9.909329E+01
       401   8  3.006543E+05 -2.291895E+04 -7.976429E+03 -1.666946E+03  1.104693E+04 -1.587831E+02
       401   9  3.061895E+05 -1.868778E+04 -1.114186E+04  1.372223E+03  5.336947E+03 -9.280361E+01
       401  10  4.526826E+05  3.736735E+04  4.315830E+04  1.370320E+03 -4.340899E-09  1.452627E-09
       401  11  4.471425E+05  1.368690E+04  2.862578E+04 -1.724140E+03 -1.047134E-09  2.393333E-09
       401  12  4.519412E+05  1.773529E+04  2.527811E+04  9.479921E+02  7.699680E-09 -5.379786E-09
       401  13  3.790678E+05  1.897417E+04  2.476445E+04  1.215429E+03  8.064338E-11  8.665450E-10
       401  14  3.738959E+05 -4.615838E+03  1.032476E+04 -1.695542E+03  7.335471E-10  3.877407E-10
       401  15  3.790629E+05 -4.760509E+02  7.068294E+03  1.160119E+03 -1.019551E-09  4.201691E-10
       401  16  3.054579E+05  5.805958E+02  6.370193E+03  1.060560E+03  2.149520E-09 -2.208396E-09
       401  17  3.006542E+05 -2.291898E+04 -7.976659E+03 -1.666945E+03  3.779116E-11 -3.702080E-10
       401  18  3.061895E+05 -1.868779E+04 -1.114192E+04  1.372223E+03 -8.572842E-09  6.523346E-09
       401  19  4.526829E+05  3.736742E+04  4.315883E+04  1.370319E+03 -1.676669E+04  9.910272E+01
       401  20  4.471426E+05  1.368693E+04  2.862601E+04 -1.724141E+03 -1.104911E+04  1.587825E+02
       401  21  4.519413E+05  1.773530E+04  2.527816E+04  9.479917E+02 -5.331912E+03  9.279972E+01
       401  22  3.790681E+05  1.897425E+04  2.476498E+04  1.215428E+03 -1.676199E+04  9.909801E+01
       401  23  3.738960E+05 -4.615805E+03  1.032499E+04 -1.695543E+03 -1.104802E+04  1.587828E+02
       401  24  3.790630E+05 -4.760433E+02  7.068347E+03  1.160119E+03 -5.334430E+03  9.280166E+01
       401  25  3.054582E+05  5.806711E+02  6.370720E+03  1.060559E+03 -1.675728E+04  9.909329E+01
       401  26  3.006543E+05 -2.291895E+04 -7.976429E+03 -1.666946E+03 -1.104693E+04  1.587831E+02
       401  27  3.061895E+05 -1.868778E+04 -1.114186E+04  1.372223E+03 -5.336947E+03  9.280361E+01
       402   1  3.899323E+05  6.084653E+03  8.941305E+03  1.571568E+02  4.151898E+03 -4.086294E+01
       402   2  3.892122E+05  2.505053E+03  5.936785E+03 -3.760368E+02  2.713584E+03 -1.863254E+01
       402   3  3.898061E+05  3.104529E+03  4.929438E+03  8.776958E+01  1.275236E+03 -1.446756E+01
       402   4  3.770592E+05  2.867944E+03  5.725011E+03  1.182773E+02  4.152564E+03 -4.086379E+01
       402   5  3.764025E+05 -6.959650E+02  2.735975E+03 -3.812930E+02  2.713843E+03 -1.863276E+01
       402   6  3.770597E+05 -8.068226E+01  1.744425E+03  1.161384E+02  1.275087E+03 -1.446747E+01
       402   7  3.641862E+05 -3.487769E+02  2.508704E+03  7.939862E+01  4.153231E+03 -4.086463E+01
       402   8  3.635929E+05 -3.896996E+03 -4.648464E+02 -3.865490E+02  2.714101E+03 -1.863297E+01
       402   9  3.643136E+05 -3.265906E+03 -1.440600E+03  1.445067E+02  1.274938E+03 -1.446737E+01
       402  10  3.899322E+05  6.084648E+03  8.941273E+03  1.571569E+02 -3.301915E-09  1.752581E-09
       402  11  3.892122E+05  2.505051E+03  5.936771E+03 -3.760367E+02 -1.124511E-08  8.504086E-09
       402  12  3.898061E+05  3.104528E+03  4.929434E+03  8.776959E+01  4.721180E-08 -3.614653E-08
       402  13  3.770591E+05  2.867940E+03  5.724978E+03  1.182774E+02 -1.937895E-10  9.646577E-10
       402  14  3.764025E+05 -6.959670E+02  2.735962E+03 -3.812929E+02  4.248741E-10 -8.343180E-10
       402  15  3.770597E+05 -8.068268E+01  1.744422E+03  1.161384E+02 -8.382759E-10 -3.741736E-09
       402  16  3.641862E+05 -3.487816E+02  2.508671E+03  7.939876E+01  2.325119E-09 -1.733335E-09
       402  17  3.635929E+05 -3.896998E+03 -4.648603E+02 -3.865490E+02  1.086375E-08 -8.975904E-09
       402  18  3.643136E+05 -3.265906E+03 -1.440603E+03  1.445067E+02 -4.753758E-08  2.992213E-08
       402  19  3.899323E+05  6.084653E+03  8.941305E+03  1.571568E+02 -4.151898E+03  4.086294E+01
       402  20  3.892122E+05  2.505053E+03  5.936785E+03 -3.760368E+02 -2.713584E+03  1.863254E+01
       402  21  3.898061E+05  3.104529E+03  4.929438E+03  8.776956E+01 -1.275236E+03  1.446756E+01
       402  22  3.770592E+05  2.867944E+03  5.725011E+03  1.182773E+02 -4.152564E+03  4.086379E+01
       402  23  3.764025E+05 -6.959650E+02  2.735975E+03 -3.812929E+02 -2.713843E+03  1.863276E+01
       402  24  3.770597E+05 -8.068223E+01  1.744425E+03  1.161384E+02 -1.275087E+03  1.446747E+01
       402  25  3.641862E+05 -3.487769E+02  2.508704E+03  7.939862E+01 -4.153231E+03  4.086463E+01
       402  26  3.635929E+05 -3.896996E+03 -4.648464E+02 -3.865490E+02 -2.714101E+03  1.863297E+01
       402  27  3.643136E+05 -3.265906E+03 -1.440600E+03  1.445067E+02 -1.274938E+03  1.446737E+01
       403   1  3.790707E+05  1.007610E+03  1.980004E+03 -5.994694E+01  9.868607E+02 -1.192088E+01
       403   2  3.789482E+05  4.487755E+02  1.353889E+03 -1.520082E+02  5.813118E+02 -1.988388E+00
       403   3  3.790487E+05  5.603908E+02  1.159821E+03 -7.080267E+01  1.757594E+02 -2.328666E+00
       403   4  3.768173E+05  4.445296E+02  1.417064E+03 -6.613504E+01  9.872165E+02 -1.192102E+01
       403   5  3.767059E+05 -1.115820E+02  7.935544E+02 -1.528475E+02  5.814223E+02 -1.988420E+00
       403   6  3.768174E+05  2.800408E+00  6.022636E+02 -6.629300E+01  1.756246E+02 -2.328614E+00
       403   7  3.745639E+05 -1.185514E+02  8.541233E+02 -7.232313E+01  9.875724E+02 -1.192116E+01
       403   8  3.744635E+05 -6.719398E+02  2.332196E+02 -1.536867E+02  5.815328E+02 -1.988464E+00
       403   9  3.745861E+05 -5.547904E+02  4.470592E+01 -6.178335E+01  1.754897E+02 -2.328583E+00
       403  10  3.790707E+05  1.007611E+03  1.980002E+03 -5.994777E+01 -1.447917E-06 -7.063236E-07
       403  11  3.789482E+05  4.487805E+02  1.353889E+03 -1.520119E+02 -7.254236E-06 -2.823999E-06
       403  12  3.790487E+05  5.603999E+02  1.159823E+03 -7.080917E+01 -1.328360E-05 -4.778325E-06
       403  13  3.768173E+05  4.445293E+02  1.417062E+03 -6.613503E+01 -4.293047E-06  7.445470E-07
       403  14  3.767059E+05 -1.115820E+02  7.935537E+02 -1.528475E+02 -1.904586E-05  3.323016E-06
       403  15  3.768174E+05  2.800396E+00  6.022635E+02 -6.629299E+01 -3.379908E-05  5.901493E-06
       403  16  3.745639E+05 -1.185527E+02  8.541212E+02 -7.232231E+01 -1.987589E-06 -4.960651E-07
       403  17  3.744635E+05 -6.719449E+02  2.332177E+02 -1.536831E+02 -7.985532E-06 -2.476802E-06
       403  18  3.745861E+05 -5.547994E+02  4.470360E+01 -6.177687E+01 -1.375950E-05 -4.615684E-06
       403  19  3.790707E+05  1.007612E+03  1.980004E+03 -5.994862E+01 -9.868607E+02  1.192088E+01
       403  20  3.789482E+05  4.487858E+02  1.353891E+03 -1.520156E+02 -5.813118E+02  1.988382E+00
       403  21  3.790487E+05  5.604090E+02  1.159825E+03 -7.081566E+01 -1.757595E+02  2.328656E+00
       403  22  3.768173E+05  4.445296E+02  1.417064E+03 -6.613503E+01 -9.872166E+02  1.192102E+01
       403  23  3.767059E+05 -1.115819E+02  7.935544E+02 -1.528475E+02 -5.814224E+02  1.988426E+00
       403  24  3.768174E+05  2.800401E+00  6.022635E+02 -6.629298E+01 -1.756246E+02  2.328626E+00
       403  25  3.745639E+05 -1.185536E+02  8.541227E+02 -7.232150E+01 -9.875724E+02  1.192116E+01
       403  26  3.744635E+05 -6.719499E+02  2.332171E+02 -1.536794E+02 -5.815329E+02  1.988459E+00
       403  27  3.745861E+05 -5.548084E+02  4.470139E+01 -6.177039E+01 -1.754897E+02  2.328574E+00
       404   1  3.772178E+05  1.733376E+02  6.747857E+02 -9.679111E+01  6.929031E+01 -2.916078E+00
       404   2  3.771655E+05  6.468736E+01  6.911044E+02 -1.123798E+02 -2.245971E+02 -4.057653E-02
       404   3  3.772142E+05  2.070010E+02  9.614320E+02 -1.003777E+02 -5.184811E+02 -5.346706E-01
       404   4  3.767903E+05  6.652053E+01  5.680058E+02 -9.861097E+01  6.939770E+01 -2.916098E+00
       404   5  3.767398E+05 -4.169858E+01  5.847213E+02 -1.124018E+02 -2.245704E+02 -4.057599E-02
       404   6  3.767903E+05  1.010602E+02  8.555018E+02 -9.860194E+01 -5.185351E+02 -5.346515E-01
       404   7  3.763629E+05 -4.029652E+01  4.612260E+02 -1.004308E+02  6.950513E+01 -2.916141E+00
       404   8  3.763141E+05 -1.480846E+02  4.783381E+02 -1.124238E+02 -2.245437E+02 -4.059196E-02
       404   9  3.763664E+05 -4.880549E+00  7.495715E+02 -9.682618E+01 -5.185892E+02 -5.346432E-01
       404  10  3.772178E+05  1.733470E+02  6.747880E+02 -9.679788E+01 -1.423374E-05 -4.896370E-06
       404  11  3.771655E+05  6.469436E+01  6.911060E+02 -1.123847E+02 -1.051094E-05 -3.546326E-06
       404  12  3.772142E+05  2.070055E+02  9.614327E+02 -1.003808E+02 -6.589234E-06 -2.341064E-06
       404  13  3.767903E+05  6.652054E+01  5.680058E+02 -9.861098E+01 -3.529473E-05  6.187717E-06
       404  14  3.767398E+05 -4.169862E+01  5.847212E+02 -1.124018E+02 -2.568442E-05  4.595217E-06
       404  15  3.767903E+05  1.010602E+02  8.555013E+02 -9.860194E+01 -1.607389E-05  3.003860E-06
       404  16  3.763629E+05 -4.030601E+01  4.612236E+02 -1.004240E+02 -1.400675E-05 -4.957409E-06
       404  17  3.763141E+05 -1.480917E+02  4.783363E+02 -1.124189E+02 -1.004013E-05 -3.787972E-06
       404  18  3.763664E+05 -4.885254E+00  7.495699E+02 -9.682309E+01 -6.271986E-06 -2.470843E-06
       404  19  3.772178E+05  1.733565E+02  6.747904E+02 -9.680466E+01 -6.929034E+01  2.916068E+00
       404  20  3.771655E+05  6.470138E+01  6.911079E+02 -1.123896E+02  2.245970E+02  4.056943E-02
       404  21  3.772142E+05  2.070102E+02  9.614343E+02 -1.003839E+02  5.184811E+02  5.346659E-01
       404  22  3.767903E+05  6.652056E+01  5.680059E+02 -9.861099E+01 -6.939777E+01  2.916111E+00
       404  23  3.767398E+05 -4.169864E+01  5.847213E+02 -1.124018E+02  2.245703E+02  4.058517E-02
       404  24  3.767903E+05  1.010602E+02  8.555018E+02 -9.860195E+01  5.185351E+02  5.346575E-01
       404  25  3.763629E+05 -4.031550E+01  4.612212E+02 -1.004173E+02 -6.950515E+01  2.916131E+00
       404  26  3.763141E+05 -1.480987E+02  4.783346E+02 -1.124140E+02  2.245437E+02  4.058439E-02
       404  27  3.763664E+05 -4.889816E+00  7.495692E+02 -9.681999E+01  5.185892E+02  5.346383E-01
       405   1  3.771179E+05  6.015924E+01  1.118054E+03 -1.008483E+02 -6.915403E+02 -6.334204E-01
       405   2  3.769387E+05 -9.796623E+01  1.748305E+03 -1.032490E+02 -1.542060E+03  3.790204E-01
       405   3  3.771190E+05  7.390698E+02  3.180824E+03 -1.159262E+02 -2.392593E+03 -8.871703E-01
       405   4  3.768477E+05 -7.348901E+00  1.050553E+03 -1.070916E+02 -6.914941E+02 -6.334212E-01
       405   5  3.766679E+05 -1.656509E+02  1.680623E+03 -1.018613E+02 -1.542068E+03  3.790257E-01
       405   6  3.768475E+05  6.712183E+02  3.112998E+03 -1.069073E+02 -2.392656E+03 -8.871802E-01
       405   7  3.765776E+05 -7.485705E+01  9.830530E+02 -1.133349E+02 -6.914479E+02 -6.334321E-01
       405   8  3.763970E+05 -2.333356E+02  1.612941E+03 -1.004735E+02 -1.542076E+03  3.790184E-01
       405   9  3.765760E+05  6.033668E+02  3.045172E+03 -9.788832E+01 -2.392718E+03 -8.872055E-01
       405  10  3.771179E+05  6.016337E+01  1.118054E+03 -1.008511E+02 -5.639280E-06 -2.220995E-06
       405  11  3.769387E+05 -9.796143E+01  1.748302E+03 -1.032524E+02 -6.901501E-06 -2.868615E-06
       405  12  3.771190E+05  7.390749E+02  3.180815E+03 -1.159302E+02 -8.302183E-06 -3.435373E-06
       405  13  3.768477E+05 -7.349035E+00  1.050552E+03 -1.070916E+02 -1.424092E-05  2.765771E-06
       405  14  3.766679E+05 -1.656515E+02  1.680619E+03 -1.018613E+02 -1.755334E-05  3.536534E-06
       405  15  3.768475E+05  6.712168E+02  3.112987E+03 -1.069073E+02 -2.086720E-05  4.306875E-06
       405  16  3.765776E+05 -7.486143E+01  9.830511E+02 -1.133322E+02 -5.755406E-06 -2.208040E-06
       405  17  3.763970E+05 -2.333416E+02  1.612935E+03 -1.004701E+02 -7.143738E-06 -2.776015E-06
       405  18  3.765760E+05  6.033587E+02  3.045160E+03 -9.788432E+01 -8.394021E-06 -3.429361E-06
       405  19  3.771179E+05  6.016774E+01  1.118056E+03 -1.008538E+02  6.915403E+02  6.334159E-01
       405  20  3.769387E+05 -9.795535E+01  1.748308E+03 -1.032558E+02  1.542060E+03 -3.790261E-01
       405  21  3.771190E+05  7.390830E+02  3.180827E+03 -1.159342E+02  2.392593E+03  8.871635E-01
       405  22  3.768477E+05 -7.348912E+00  1.050553E+03 -1.070916E+02  6.914941E+02  6.334268E-01
       405  23  3.766679E+05 -1.656509E+02  1.680623E+03 -1.018613E+02  1.542068E+03 -3.790187E-01
       405  24  3.768475E+05  6.712183E+02  3.112998E+03 -1.069073E+02  2.392656E+03  8.871888E-01
       405  25  3.765776E+05 -7.486555E+01  9.830509E+02 -1.133295E+02  6.914479E+02  6.334277E-01
       405  26  3.763970E+05 -2.333464E+02  1.612938E+03 -1.004668E+02  1.542076E+03 -3.790239E-01
       405  27  3.765760E+05  6.033536E+02  3.045169E+03 -9.788031E+01  2.392718E+03  8.871986E-01
       406   1  3.783820E+05  1.685002E+02  4.239835E+03 -8.681981E+01 -3.033930E+03 -4.760630E-01
       406   2  3.773812E+05 -7.571474E+02  6.793498E+03 -9.369700E+01 -6.374335E+03  6.683288E-01
       406   3  3.783920E+05  4.623450E+03  1.309767E+04 -1.888581E+02 -9.714751E+03 -3.675843E+00
       406   4  3.772148E+05 -1.231485E+02  3.948184E+03 -1.247350E+02 -3.033854E+03 -4.758899E-01
       406   5  3.762083E+05 -1.050253E+03  6.500413E+03 -8.006399E+01 -6.374385E+03  6.682077E-01
       406   6  3.772135E+05  4.328916E+03  1.280324E+04 -1.236769E+02 -9.714928E+03 -3.676817E+00
       406   7  3.760476E+05 -4.147973E+02  3.656532E+03 -1.626500E+02 -3.033778E+03 -4.757313E-01
       406   8  3.750354E+05 -1.343359E+03  6.207327E+03 -6.643099E+01 -6.374435E+03  6.680785E-01
       406   9  3.760349E+05  4.034381E+03  1.250881E+04 -5.849594E+01 -9.715104E+03 -3.677793E+00
       406  10  3.783820E+05  1.685039E+02  4.239819E+03 -8.682352E+01 -7.920895E-06 -3.149469E-06
       406  11  3.773812E+05 -7.571548E+02  6.793423E+03 -9.369908E+01 -4.613835E-06 -1.709994E-06
       406  12  3.783919E+05  4.623425E+03  1.309749E+04 -1.888586E+02 -1.167932E-06 -3.501832E-07
       406  13  3.772148E+05 -1.231509E+02  3.948166E+03 -1.247350E+02 -1.936977E-05  4.019380E-06
       406  14  3.762083E+05 -1.050264E+03  6.500336E+03 -8.006398E+01 -1.091543E-05  2.262731E-06
       406  15  3.772134E+05  4.328890E+03  1.280307E+04 -1.236770E+02 -2.460572E-06  5.072897E-07
       406  16  3.760476E+05 -4.148059E+02  3.656514E+03 -1.626463E+02 -7.577917E-06 -3.257685E-06
       406  17  3.750354E+05 -1.343373E+03  6.207250E+03 -6.642888E+01 -4.120068E-06 -1.905363E-06
       406  18  3.760348E+05  4.034355E+03  1.250864E+04 -5.849549E+01 -8.007489E-07 -4.703718E-07
       406  19  3.783820E+05  1.685125E+02  4.239838E+03 -8.682723E+01  3.033930E+03  4.760567E-01
       406  20  3.773812E+05 -7.571405E+02  6.793500E+03 -9.370116E+01  6.374335E+03 -6.683323E-01
       406  21  3.783920E+05  4.623451E+03  1.309767E+04 -1.888590E+02  9.714751E+03  3.675842E+00
       406  22  3.772148E+05 -1.231485E+02  3.948184E+03 -1.247350E+02  3.033854E+03  4.758980E-01
       406  23  3.762083E+05 -1.050253E+03  6.500413E+03 -8.006398E+01  6.374385E+03 -6.682032E-01
       406  24  3.772135E+05  4.328916E+03  1.280324E+04 -1.236770E+02  9.714928E+03  3.676818E+00
       406  25  3.760476E+05 -4.148096E+02  3.656529E+03 -1.626426E+02  3.033778E+03  4.757248E-01
       406  26  3.750354E+05 -1.343366E+03  6.207325E+03 -6.642677E+01  6.374435E+03 -6.680822E-01
       406  27  3.760349E+05  4.034379E+03  1.250881E+04 -5.849498E+01  9.715104E+03  3.677792E+00
       407   1  3.860047E+05  8.178455E+02  1.759930E+04  1.527355E+01 -1.232904E+04 -4.686904E+00
       407   2  3.801163E+05 -5.049900E+03  2.714225E+04 -6.647254E+01 -2.574457E+04 -5.664545E+00
       407   3  3.860645E+05  2.936468E+04  5.549111E+04 -6.659674E+02 -3.915999E+04 -1.779357E+01
       407   4  3.793982E+05 -8.329565E+02  1.594850E+04 -2.205643E+02 -1.232890E+04 -4.682236E+00
       407   5  3.734767E+05 -6.709118E+03  2.548319E+04  3.897278E+01 -2.574458E+04 -5.668894E+00
       407   6  3.793921E+05  2.769730E+04  5.382403E+04 -2.192437E+02 -3.916014E+04 -1.782172E+01
       407   7  3.727916E+05 -2.483762E+03  1.429770E+04 -4.563997E+02 -1.232877E+04 -4.677568E+00
       407   8  3.668371E+05 -8.368339E+03  2.382412E+04  1.444170E+02 -2.574459E+04 -5.673243E+00
       407   9  3.727196E+05  2.602992E+04  5.215694E+04  2.274753E+02 -3.916029E+04 -1.784988E+01
       407  10  3.860046E+05  8.178047E+02  1.759901E+04  1.527350E+01 -3.375323E-08  1.739302E-08
       407  11  3.801156E+05 -5.050077E+03  2.714100E+04 -6.647266E+01  7.775182E-09 -6.587607E-09
       407  12  3.860629E+05  2.936427E+04  5.548823E+04 -6.659680E+02  1.466950E-09 -1.030716E-09
       407  13  3.793980E+05 -8.329973E+02  1.594821E+04 -2.205644E+02 -2.698393E-10 -2.513132E-09
       407  14  3.734760E+05 -6.709296E+03  2.548194E+04  3.897266E+01 -3.737256E-10 -1.260438E-09
       407  15  3.793904E+05  2.769689E+04  5.382115E+04 -2.192442E+02  5.658577E-11  2.293906E-10
       407  16  3.727914E+05 -2.483802E+03  1.429741E+04 -4.563997E+02  3.344791E-08 -2.334290E-08
       407  17  3.668364E+05 -8.368517E+03  2.382288E+04  1.444169E+02 -7.890570E-09  3.965017E-09
       407  18  3.727180E+05  2.602951E+04  5.215406E+04  2.274747E+02 -1.579688E-09  1.230435E-09
       407  19  3.860047E+05  8.178455E+02  1.759930E+04  1.527356E+01  1.232904E+04  4.686904E+00
       407  20  3.801163E+05 -5.049900E+03  2.714225E+04 -6.647254E+01  2.574457E+04  5.664545E+00
       407  21  3.860645E+05  2.936468E+04  5.549111E+04 -6.659674E+02  3.915999E+04  1.779357E+01
       407  22  3.793982E+05 -8.329566E+02  1.594850E+04 -2.205643E+02  1.232890E+04  4.682236E+00
       407  23  3.734767E+05 -6.709118E+03  2.548319E+04  3.897278E+01  2.574458E+04  5.668894E+00
       407  24  3.793921E+05  2.769730E+04  5.382403E+04 -2.192437E+02  3.916014E+04  1.782172E+01
       407  25  3.727916E+05 -2.483762E+03  1.429770E+04 -4.563997E+02  1.232877E+04  4.677567E+00
       407  26  3.668371E+05 -8.368339E+03  2.382412E+04  1.444170E+02  2.574459E+04  5.673243E+00
       407  27  3.727196E+05  2.602992E+04  5.215694E+04  2.274753E+02  3.916029E+04  1.784988E+01
       408   1  4.300742E+05  3.904395E+03  7.433345E+04  7.103253E+02 -4.998781E+04 -5.075760E+01
       408   2  3.943456E+05 -3.334134E+04  1.078229E+05  2.964876E+01 -1.038906E+05 -1.315475E+02
       408   3  4.304469E+05  1.859197E+05  2.406646E+05 -3.899024E+03 -1.577933E+05 -1.928553E+02
       408   4  3.927331E+05 -5.426945E+03  6.500328E+04 -7.730690E+02 -4.998776E+04 -5.063867E+01
       408   5  3.568039E+05 -4.272170E+04  9.844311E+04  7.566998E+02 -1.038872E+05 -1.316702E+02
       408   6  3.927082E+05  1.764979E+05  2.312371E+05 -9.614041E+02 -1.577866E+05 -1.936021E+02
       408   7  3.553932E+05 -1.475838E+04  5.567302E+04 -2.256374E+03 -4.998770E+04 -5.051973E+01
       408   8  3.192635E+05 -5.210217E+04  8.906318E+04  1.483707E+03 -1.038839E+05 -1.317928E+02
       408   9  3.549707E+05  1.670760E+05  2.218094E+05  1.976037E+03 -1.577799E+05 -1.943489E+02
       408  10  4.300715E+05  3.903725E+03  7.432875E+04  7.103233E+02 -5.622815E-09  2.857278E-09
       408  11  3.943340E+05 -3.334424E+04  1.078027E+05  2.963775E+01  7.430111E-10 -3.219428E-09
       408  12  4.304202E+05  1.859130E+05  2.406178E+05 -3.899049E+03  1.394037E-09 -3.192496E-09
       408  13  3.927304E+05 -5.427615E+03  6.499859E+04 -7.730710E+02  1.363399E-10 -7.010166E-11
       408  14  3.567923E+05 -4.272460E+04  9.842284E+04  7.566888E+02  1.625158E-10 -1.421792E-09
       408  15  3.926815E+05  1.764912E+05  2.311903E+05 -9.614287E+02  1.122013E-09 -1.334366E-09
       408  16  3.553905E+05 -1.475905E+04  5.566833E+04 -2.256376E+03  5.471964E-09 -3.854328E-09
       408  17  3.192519E+05 -5.210506E+04  8.904291E+04  1.483696E+03 -1.104858E-09 -2.348470E-09
       408  18  3.549440E+05  1.670693E+05  2.217627E+05  1.976012E+03 -9.377602E-10 -1.846321E-09
       408  19  4.300742E+05  3.904395E+03  7.433345E+04  7.103253E+02  4.998781E+04  5.075760E+01
       408  20  3.943456E+05 -3.334134E+04  1.078229E+05  2.964875E+01  1.038906E+05  1.315475E+02
       408  21  4.304469E+05  1.859197E+05  2.406646E+05 -3.899024E+03  1.577933E+05  1.928553E+02
       408  22  3.927331E+05 -5.426945E+03  6.500328E+04 -7.730690E+02  4.998776E+04  5.063867E+01
       408  23  3.568039E+05 -4.272170E+04  9.844311E+04  7.566998E+02  1.038872E+05  1.316702E+02
       408  24  3.927082E+05  1.764979E+05  2.312371E+05 -9.614041E+02  1.577866E+05  1.936021E+02
       408  25  3.553932E+05 -1.475838E+04  5.567302E+04 -2.256374E+03  4.998770E+04  5.051973E+01
       408  26  3.192635E+05 -5.210217E+04  8.906318E+04  1.483707E+03  1.038839E+05  1.317928E+02
       408  27  3.549707E+05  1.670760E+05  2.218094E+05  1.976037E+03  1.577799E+05  1.943489E+02
       409   1 -1.837097E+06 -1.787688E+05 -2.285942E+05 -4.377041E+03 -1.434655E+05 -7.386947E+01
       409   2 -1.805604E+06  2.064133E+04 -1.079630E+05  1.289779E+02 -9.440466E+04  1.433224E+02
       409   3 -1.836299E+06 -1.335064E+04 -7.716123E+04 -3.708517E+02 -4.534470E+04  8.618885E+01
       409   4 -1.763986E+06 -1.604472E+05 -2.102781E+05 -1.626899E+03 -1.434697E+05 -7.449929E+01
       409   5 -1.732827E+06  3.887064E+04 -8.973458E+04  8.034125E+02 -9.441038E+04  1.432185E+02
       409   6 -1.763848E+06  4.801264E+03 -5.901191E+04 -1.772171E+03 -4.535195E+04  8.629412E+01
       409   7 -1.690870E+06 -1.421260E+05 -1.919623E+05  1.123567E+03 -1.434740E+05 -7.512909E+01
       409   8 -1.660045E+06  5.709956E+04 -7.150654E+04  1.477926E+03 -9.441610E+04  1.431147E+02
       409   9 -1.691392E+06  2.295278E+04 -4.086299E+04 -3.173654E+03 -4.535920E+04  8.639941E+01
       409  10 -1.837119E+06 -1.787744E+05 -2.286330E+05 -4.377049E+03 -6.919001E-10 -2.186147E-09
       409  11 -1.805613E+06  2.063893E+04 -1.079798E+05  1.289888E+02 -1.370720E-09 -5.697975E-09
       409  12 -1.836301E+06 -1.335120E+04 -7.716511E+04 -3.708485E+02  5.537010E-09 -4.395509E-09
       409  13 -1.764008E+06 -1.604528E+05 -2.103168E+05 -1.626907E+03 -3.260125E-10 -1.951956E-09
       409  14 -1.732836E+06  3.886824E+04 -8.975137E+04  8.034234E+02  7.948605E-10 -4.385120E-09
       409  15 -1.763850E+06  4.800710E+03 -5.901579E+04 -1.772168E+03 -7.758149E-10 -1.037801E-09
       409  16 -1.690892E+06 -1.421315E+05 -1.920011E+05  1.123559E+03  1.338318E-09 -2.949694E-09
       409  17 -1.660055E+06  5.709716E+04 -7.152334E+04  1.477937E+03  1.772760E-09 -7.776398E-09
       409  18 -1.691395E+06  2.295223E+04 -4.086687E+04 -3.173651E+03 -5.704055E-09  4.897875E-09
       409  19 -1.837097E+06 -1.787688E+05 -2.285942E+05 -4.377041E+03  1.434655E+05  7.386947E+01
       409  20 -1.805604E+06  2.064133E+04 -1.079630E+05  1.289779E+02  9.440466E+04 -1.433224E+02
       409  21 -1.836299E+06 -1.335064E+04 -7.716123E+04 -3.708517E+02  4.534470E+04 -8.618885E+01
       409  22 -1.763986E+06 -1.604472E+05 -2.102781E+05 -1.626899E+03  1.434697E+05  7.449929E+01
       409  23 -1.732827E+06  3.887064E+04 -8.973458E+04  8.034125E+02  9.441038E+04 -1.432185E+02
       409  24 -1.763848E+06  4.801264E+03 -5.901191E+04 -1.772171E+03  4.535195E+04 -8.629412E+01
       409  25 -1.690870E+06 -1.421260E+05 -1.919623E+05  1.123567E+03  1.434740E+05  7.512909E+01
       409  26 -1.660045E+06  5.709956E+04 -7.150654E+04  1.477926E+03  9.441610E+04 -1.431147E+02
       409  27 -1.691392E+06  2.295278E+04 -4.086299E+04 -3.173654E+03  4.535920E+04 -8.639941E+01
       410   1 -1.641148E+06  2.493836E+03 -2.110594E+04 -2.330293E+02 -3.561587E+04 -7.170405E+01
       410   2 -1.638982E+06  3.357909E+04  4.010467E+03 -1.796774E+03 -2.338056E+04 -2.280524E+02
       410   3 -1.641646E+06  2.804977E+04  1.318068E+04  6.608021E+02 -1.114567E+04 -9.949360E+01
       410   4 -1.751141E+06 -2.505686E+04 -4.865498E+04  2.477657E+02 -3.561846E+04 -7.172720E+01
       410   5 -1.748712E+06  6.095991E+03 -2.347037E+04 -1.754017E+03 -2.337823E+04 -2.280568E+02
       410   6 -1.751117E+06  6.294683E+02 -1.423756E+04  2.655766E+02 -1.113841E+04 -9.947572E+01
       410   7 -1.861123E+06 -5.260847E+04 -7.620493E+04  7.284775E+02 -3.562104E+04 -7.175036E+01
       410   8 -1.858431E+06 -2.138802E+04 -5.095212E+04 -1.711269E+03 -2.337590E+04 -2.280613E+02
       410   9 -1.860576E+06 -2.679174E+04 -4.165671E+04 -1.295845E+02 -1.113115E+04 -9.945785E+01
       410  10 -1.641149E+06  2.493494E+03 -2.110833E+04 -2.330314E+02 -2.111584E-09  3.923174E-09
       410  11 -1.638982E+06  3.357894E+04  4.009437E+03 -1.796778E+03 -8.791386E-09  9.260141E-09
       410  12 -1.641646E+06  2.804973E+04  1.318044E+04  6.608012E+02  3.396201E-08 -3.123365E-08
       410  13 -1.751142E+06 -2.505720E+04 -4.865737E+04  2.477637E+02 -1.498625E-10  2.056061E-09
       410  14 -1.748712E+06  6.095844E+03 -2.347140E+04 -1.754021E+03 -7.046664E-10  2.609158E-10
       410  15 -1.751117E+06  6.294348E+02 -1.423780E+04  2.655757E+02  2.320663E-09 -4.798870E-09
       410  16 -1.861124E+06 -5.260881E+04 -7.620732E+04  7.284754E+02  1.393361E-09 -5.220519E-09
       410  17 -1.858432E+06 -2.138816E+04 -5.095315E+04 -1.711273E+03  9.109872E-09 -9.160688E-09
       410  18 -1.860576E+06 -2.679177E+04 -4.165695E+04 -1.295854E+02 -3.272453E-08  1.836866E-08
       410  19 -1.641148E+06  2.493836E+03 -2.110594E+04 -2.330293E+02  3.561587E+04  7.170405E+01
       410  20 -1.638982E+06  3.357909E+04  4.010467E+03 -1.796774E+03  2.338056E+04  2.280524E+02
       410  21 -1.641646E+06  2.804977E+04  1.318068E+04  6.608021E+02  1.114567E+04  9.949360E+01
       410  22 -1.751141E+06 -2.505686E+04 -4.865498E+04  2.477657E+02  3.561846E+04  7.172720E+01
       410  23 -1.748712E+06  6.095991E+03 -2.347037E+04 -1.754017E+03  2.337823E+04  2.280568E+02
       410  24 -1.751117E+06  6.294683E+02 -1.423756E+04  2.655766E+02  1.113841E+04  9.947572E+01
       410  25 -1.861123E+06 -5.260847E+04 -7.620493E+04  7.284775E+02  3.562104E+04  7.175036E+01
       410  26 -1.858431E+06 -2.138802E+04 -5.095212E+04 -1.711269E+03  2.337590E+04  2.280613E+02
       410  27 -1.860576E+06 -2.679174E+04 -4.165671E+04 -1.295845E+02  1.113115E+04  9.945785E+01
       411   1 -1.883153E+06 -3.752741E+04 -4.491393E+04 -1.397335E+03 -8.931093E+03  9.495952E+01
       411   2 -1.886573E+06 -3.278376E+04 -4.002764E+04 -3.243380E+01 -5.834394E+03  2.612174E+02
       411   3 -1.882866E+06 -3.359170E+04 -3.676150E+04 -9.285648E+02 -2.737619E+03  1.053993E+02
       411   4 -1.748462E+06 -3.786062E+03 -1.117454E+04 -1.126575E+03 -8.924732E+03  9.496906E+01
       411   5 -1.752026E+06  9.204309E+02 -6.326639E+03  3.835440E-01 -5.835157E+03  2.612136E+02
       411   6 -1.748459E+06  7.808551E+01 -3.093332E+03 -1.133667E+03 -2.745506E+03  1.054099E+02
       411   7 -1.613755E+06  2.995392E+04  2.256347E+04 -8.557639E+02 -8.918369E+03  9.497860E+01
       411   8 -1.617462E+06  3.462325E+04  2.737299E+04  3.320713E+01 -5.835919E+03  2.612097E+02
       411   9 -1.614036E+06  3.374650E+04  3.057347E+04 -1.338807E+03 -2.753395E+03  1.054205E+02
       411  10 -1.883153E+06 -3.752744E+04 -4.491408E+04 -1.397335E+03 -9.596038E-07 -4.980522E-07
       411  11 -1.886573E+06 -3.278377E+04 -4.002770E+04 -3.243505E+01 -4.856819E-06 -1.994483E-06
       411  12 -1.882866E+06 -3.359169E+04 -3.676152E+04 -9.285690E+02 -8.922589E-06 -3.356437E-06
       411  13 -1.748462E+06 -3.786083E+03 -1.117469E+04 -1.126575E+03 -2.880675E-06  5.206178E-07
       411  14 -1.752026E+06  9.204217E+02 -6.326703E+03  3.847657E-01 -1.278943E-05  2.340054E-06
       411  15 -1.748459E+06  7.808347E+01 -3.093346E+03 -1.133666E+03 -2.271044E-05  4.184775E-06
       411  16 -1.613755E+06  2.995389E+04  2.256332E+04 -8.557626E+02 -1.341865E-06 -3.592032E-07
       411  17 -1.617462E+06  3.462324E+04  2.737292E+04  3.321080E+01 -5.373021E-06 -1.757678E-06
       411  18 -1.614036E+06  3.374649E+04  3.057345E+04 -1.338802E+03 -9.259624E-06 -3.243289E-06
       411  19 -1.883153E+06 -3.752741E+04 -4.491393E+04 -1.397337E+03  8.931093E+03 -9.495952E+01
       411  20 -1.886573E+06 -3.278375E+04 -4.002764E+04 -3.243875E+01  5.834394E+03 -2.612174E+02
       411  21 -1.882866E+06 -3.359168E+04 -3.676150E+04 -9.285736E+02  2.737619E+03 -1.053993E+02
       411  22 -1.748462E+06 -3.786062E+03 -1.117454E+04 -1.126575E+03  8.924732E+03 -9.496906E+01
       411  23 -1.752026E+06  9.204309E+02 -6.326639E+03  3.835310E-01  5.835157E+03 -2.612136E+02
       411  24 -1.748459E+06  7.808551E+01 -3.093332E+03 -1.133667E+03  2.745506E+03 -1.054099E+02
       411  25 -1.613755E+06  2.995391E+04  2.256347E+04 -8.557628E+02  8.918369E+03 -9.497860E+01
       411  26 -1.617462E+06  3.462324E+04  2.737299E+04  3.321201E+01  5.835919E+03 -2.612097E+02
       411  27 -1.614036E+06  3.374648E+04  3.057347E+04 -1.338798E+03  2.753395E+03 -1.054205E+02
       412   1 -1.603603E+06  3.559320E+04  3.390575E+04 -7.735280E+02 -2.376176E+03 -1.115805E+02
       412   2 -1.608617E+06  3.620850E+04  3.427991E+04 -6.447674E+02 -1.635977E+03 -2.817674E+02
       412   3 -1.603626E+06  3.625154E+04  3.608149E+04 -3.219222E+02 -8.959134E+02 -1.159863E+02
       412   4 -1.747821E+06 -5.282160E+02 -2.213938E+03 -5.870279E+02 -2.383869E+03 -1.115711E+02
       412   5 -1.752822E+06  9.124258E+01 -1.833845E+03 -6.838499E+02 -1.635774E+03 -2.817714E+02
       412   6 -1.747820E+06  1.359540E+02 -3.203313E+01 -5.865845E+02 -8.878154E+02 -1.159701E+02
       412   7 -1.892020E+06 -3.665121E+04 -3.833521E+04 -4.005643E+02 -2.391560E+03 -1.115618E+02
       412   8 -1.897008E+06 -3.602759E+04 -3.794917E+04 -7.229251E+02 -1.635572E+03 -2.817755E+02
       412   9 -1.891994E+06 -3.598121E+04 -3.614713E+04 -8.511955E+02 -8.797192E+02 -1.159540E+02
       412  10 -1.603603E+06  3.559321E+04  3.390575E+04 -7.735329E+02 -9.758679E-06 -3.514280E-06
       412  11 -1.608618E+06  3.620850E+04  3.427990E+04 -6.447716E+02 -7.962624E-06 -2.809054E-06
       412  12 -1.603626E+06  3.625155E+04  3.608149E+04 -3.219252E+02 -6.088967E-06 -2.144561E-06
       412  13 -1.747821E+06 -5.282175E+02 -2.213949E+03 -5.870281E+02 -2.424459E-05  4.465368E-06
       412  14 -1.752822E+06  9.124176E+01 -1.833851E+03 -6.838503E+02 -1.960048E-05  3.570189E-06
       412  15 -1.747820E+06  1.359538E+02 -3.203463E+01 -5.865846E+02 -1.495894E-05  2.692075E-06
       412  16 -1.892020E+06 -3.665122E+04 -3.833522E+04 -4.005599E+02 -9.654660E-06 -3.531085E-06
       412  17 -1.897008E+06 -3.602759E+04 -3.794918E+04 -7.229217E+02 -7.713296E-06 -2.917735E-06
       412  18 -1.891994E+06 -3.598122E+04 -3.614714E+04 -8.511927E+02 -5.864085E-06 -2.238626E-06
       412  19 -1.603603E+06  3.559322E+04  3.390576E+04 -7.735373E+02  2.376176E+03  1.115805E+02
       412  20 -1.608617E+06  3.620851E+04  3.427991E+04 -6.447750E+02  1.635977E+03  2.817674E+02
       412  21 -1.603626E+06  3.625155E+04  3.608149E+04 -3.219279E+02  8.959134E+02  1.159863E+02
       412  22 -1.747821E+06 -5.282159E+02 -2.213938E+03 -5.870279E+02  2.383869E+03  1.115711E+02
       412  23 -1.752822E+06  9.124255E+01 -1.833845E+03 -6.838499E+02  1.635774E+03  2.817714E+02
       412  24 -1.747820E+06  1.359540E+02 -3.203312E+01 -5.865845E+02  8.878153E+02  1.159701E+02
       412  25 -1.892020E+06 -3.665123E+04 -3.833521E+04 -4.005550E+02  2.391560E+03  1.115618E+02
       412  26 -1.897008E+06 -3.602760E+04 -3.794918E+04 -7.229175E+02  1.635572E+03  2.817755E+02
       412  27 -1.891994E+06 -3.598122E+04 -3.614714E+04 -8.511897E+02  8.797192E+02  1.159540E+02
       413   1 -1.885281E+06 -3.453163E+04 -3.418657E+04 -4.491974E+02 -1.034288E+03  1.021923E+02
       413   2 -1.890133E+06 -3.453339E+04 -3.446840E+04 -1.215545E+03 -1.173351E+03  2.674805E+02
       413   3 -1.885517E+06 -3.396657E+04 -3.265138E+04 -5.595878E+01 -1.312248E+03  1.155367E+02
       413   4 -1.747939E+06 -1.262453E+02  2.169137E+02 -2.015548E+02 -1.026681E+03  1.022077E+02
       413   5 -1.752673E+06 -9.933121E+01 -3.771892E+01 -1.164331E+03 -1.173369E+03  2.674768E+02
       413   6 -1.747935E+06  4.983271E+02  1.811874E+03 -2.011925E+02 -1.319891E+03  1.155448E+02
       413   7 -1.610580E+06  3.427771E+04  3.461896E+04  4.613318E+01 -1.019072E+03  1.022231E+02
       413   8 -1.615195E+06  3.433329E+04  3.439153E+04 -1.113107E+03 -1.173386E+03  2.674730E+02
       413   9 -1.610337E+06  3.496179E+04  3.627369E+04 -3.464531E+02 -1.327534E+03  1.155528E+02
       413  10 -1.885281E+06 -3.453163E+04 -3.418657E+04 -4.491996E+02 -4.936252E-06 -1.719401E-06
       413  11 -1.890133E+06 -3.453339E+04 -3.446840E+04 -1.215546E+03 -2.854156E-06 -9.281036E-07
       413  12 -1.885517E+06 -3.396657E+04 -3.265138E+04 -5.595895E+01 -7.137364E-07 -1.880841E-07
       413  13 -1.747939E+06 -1.262456E+02  2.169117E+02 -2.015547E+02 -1.207886E-05  2.163940E-06
       413  14 -1.752673E+06 -9.933166E+01 -3.772164E+01 -1.164330E+03 -6.810673E-06  1.229211E-06
       413  15 -1.747935E+06  4.983266E+02  1.811871E+03 -2.011924E+02 -1.538382E-06  2.749200E-07
       413  16 -1.610580E+06  3.427770E+04  3.461896E+04  4.613559E+01 -4.714040E-06 -1.810101E-06
       413  17 -1.615195E+06  3.433329E+04  3.439153E+04 -1.113106E+03 -2.593146E-06 -1.042893E-06
       413  18 -1.610337E+06  3.496179E+04  3.627369E+04 -3.464527E+02 -5.171953E-07 -2.605125E-07
       413  19 -1.885281E+06 -3.453162E+04 -3.418657E+04 -4.492020E+02  1.034288E+03 -1.021923E+02
       413  20 -1.890133E+06 -3.453338E+04 -3.446840E+04 -1.215547E+03  1.173351E+03 -2.674805E+02
       413  21 -1.885517E+06 -3.396657E+04 -3.265138E+04 -5.595936E+01  1.312248E+03 -1.155368E+02
       413  22 -1.747939E+06 -1.262453E+02  2.169137E+02 -2.015548E+02  1.026681E+03 -1.022077E+02
       413  23 -1.752673E+06 -9.933123E+01 -3.771890E+01 -1.164331E+03  1.173369E+03 -2.674768E+02
       413  24 -1.747935E+06  4.983271E+02  1.811874E+03 -2.011925E+02  1.319891E+03 -1.155448E+02
       413  25 -1.610580E+06  3.427770E+04  3.461896E+04  4.613784E+01  1.019072E+03 -1.022231E+02
       413  26 -1.615195E+06  3.433329E+04  3.439153E+04 -1.113105E+03  1.173386E+03 -2.674730E+02
       413  27 -1.610337E+06  3.496179E+04  3.627369E+04 -3.464525E+02  1.327534E+03 -1.155528E+02
       414   1 -1.633456E+06  2.858056E+04  3.089115E+04 -1.589571E+03 -1.768015E+03 -7.981281E+01
       414   2 -1.636994E+06  2.828464E+04  3.173500E+04  4.316339E+02 -3.380564E+03 -2.249946E+02
       414   3 -1.632956E+06  3.131045E+04  3.577069E+04 -1.365110E+03 -4.993155E+03 -1.081734E+02
       414   4 -1.748359E+06 -1.988656E+02  2.112918E+03 -1.477404E+03 -1.774455E+03 -7.980512E+01
       414   5 -1.752142E+06 -5.557667E+02  2.897433E+03  4.298366E+02 -3.380467E+03 -2.249972E+02
       414   6 -1.748352E+06  2.407725E+03  6.869416E+03 -1.480921E+03 -4.986520E+03 -1.081643E+02
       414   7 -1.863250E+06 -2.897930E+04 -2.666631E+04 -1.365253E+03 -1.780894E+03 -7.979744E+01
       414   8 -1.867278E+06 -2.939718E+04 -2.594114E+04  4.280392E+02 -3.380370E+03 -2.249999E+02
       414   9 -1.863735E+06 -2.649601E+04 -2.203286E+04 -1.596715E+03 -4.979886E+03 -1.081552E+02
       414  10 -1.633456E+06  2.858056E+04  3.089114E+04 -1.589571E+03 -2.192176E-08  1.290318E-08
       414  11 -1.636994E+06  2.828464E+04  3.173498E+04  4.316333E+02  4.946850E-09 -4.662033E-09
       414  12 -1.632956E+06  3.131045E+04  3.577064E+04 -1.365111E+03  1.058416E-09 -1.670281E-09
       414  13 -1.748359E+06 -1.988664E+02  2.112912E+03 -1.477404E+03 -5.680688E-10 -2.647468E-09
       414  14 -1.752142E+06 -5.557698E+02  2.897411E+03  4.298359E+02 -1.016129E-09  2.064367E-09
       414  15 -1.748352E+06  2.407718E+03  6.869369E+03 -1.480921E+03  1.525123E-09 -1.867722E-12
       414  16 -1.863250E+06 -2.897930E+04 -2.666632E+04 -1.365253E+03  2.161372E-08 -1.369689E-08
       414  17 -1.867279E+06 -2.939719E+04 -2.594116E+04  4.280386E+02 -6.085285E-09  6.537889E-09
       414  18 -1.863735E+06 -2.649602E+04 -2.203291E+04 -1.596715E+03 -4.505397E-10  6.650886E-09
       414  19 -1.633456E+06  2.858056E+04  3.089115E+04 -1.589571E+03  1.768015E+03  7.981281E+01
       414  20 -1.636994E+06  2.828464E+04  3.173500E+04  4.316339E+02  3.380564E+03  2.249946E+02
       414  21 -1.632956E+06  3.131045E+04  3.577069E+04 -1.365110E+03  4.993155E+03  1.081734E+02
       414  22 -1.748359E+06 -1.988656E+02  2.112918E+03 -1.477404E+03  1.774455E+03  7.980512E+01
       414  23 -1.752142E+06 -5.557667E+02  2.897433E+03  4.298366E+02  3.380467E+03  2.249972E+02
       414  24 -1.748352E+06  2.407725E+03  6.869416E+03 -1.480921E+03  4.986520E+03  1.081643E+02
       414  25 -1.863250E+06 -2.897930E+04 -2.666631E+04 -1.365253E+03  1.780894E+03  7.979744E+01
       414  26 -1.867278E+06 -2.939718E+04 -2.594114E+04  4.280392E+02  3.380370E+03  2.249999E+02
       414  27 -1.863735E+06 -2.649601E+04 -2.203286E+04 -1.596715E+03  4.979886E+03  1.081552E+02
       415   1 -1.827413E+06 -2.048909E+04 -1.161311E+04  5.595628E+02 -6.426027E+03  3.945643E+01
       415   2 -1.832353E+06 -2.344478E+04 -7.017678E+03 -2.195467E+03 -1.329669E+04  1.457660E+02
       415   3 -1.828069E+06 -5.608727E+03  7.885509E+03  3.464487E+02 -2.016724E+04  8.453843E+01
       415   4 -1.747989E+06 -5.940830E+02  8.281408E+03  5.483339E+02 -6.421763E+03  3.946448E+01
       415   5 -1.752592E+06 -3.465002E+03  1.295993E+04 -2.098389E+03 -1.329721E+04  1.457632E+02
       415   6 -1.747969E+06  1.445540E+04  2.794868E+04  5.517927E+02 -2.017256E+04  8.453215E+01
       415   7 -1.668560E+06  1.930044E+04  2.817544E+04  5.371012E+02 -6.417498E+03  3.947252E+01
       415   8 -1.672825E+06  1.651430E+04  3.293705E+04 -2.001299E+03 -1.329773E+04  1.457603E+02
       415   9 -1.667864E+06  3.451905E+04  4.801137E+04  7.571637E+02 -2.017787E+04  8.452586E+01
       415  10 -1.827413E+06 -2.048910E+04 -1.161318E+04  5.595630E+02 -3.326448E-09  2.631972E-09
       415  11 -1.832353E+06 -2.344483E+04 -7.018011E+03 -2.195465E+03  1.353159E-10 -4.259296E-09
       415  12 -1.828069E+06 -5.608837E+03  7.884742E+03  3.464501E+02  4.338754E-10  3.861501E-09
       415  13 -1.747989E+06 -5.940941E+02  8.281330E+03  5.483342E+02  8.630957E-11 -1.353714E-09
       415  14 -1.752592E+06 -3.465049E+03  1.295959E+04 -2.098387E+03 -5.867594E-10 -1.510230E-09
       415  15 -1.747970E+06  1.445529E+04  2.794792E+04  5.517941E+02 -1.741748E-11  1.167037E-09
       415  16 -1.668560E+06  1.930043E+04  2.817537E+04  5.371014E+02  4.058285E-09 -2.443490E-09
       415  17 -1.672825E+06  1.651425E+04  3.293672E+04 -2.001297E+03  3.262372E-11 -3.935810E-09
       415  18 -1.667865E+06  3.451894E+04  4.801061E+04  7.571651E+02 -6.400749E-10 -1.448357E-09
       415  19 -1.827413E+06 -2.048909E+04 -1.161311E+04  5.595628E+02  6.426027E+03 -3.945643E+01
       415  20 -1.832353E+06 -2.344478E+04 -7.017678E+03 -2.195467E+03  1.329669E+04 -1.457660E+02
       415  21 -1.828069E+06 -5.608727E+03  7.885509E+03  3.464487E+02  2.016724E+04 -8.453843E+01
       415  22 -1.747989E+06 -5.940830E+02  8.281408E+03  5.483339E+02  6.421763E+03 -3.946448E+01
       415  23 -1.752592E+06 -3.465002E+03  1.295993E+04 -2.098389E+03  1.329721E+04 -1.457632E+02
       415  24 -1.747969E+06  1.445540E+04  2.794868E+04  5.517927E+02  2.017256E+04 -8.453215E+01
       415  25 -1.668560E+06  1.930044E+04  2.817544E+04  5.371012E+02  6.417498E+03 -3.947252E+01
       415  26 -1.672825E+06  1.651430E+04  3.293705E+04 -2.001299E+03  1.329773E+04 -1.457603E+02
       415  27 -1.667864E+06  3.451905E+04  4.801137E+04  7.571637E+02  2.017787E+04 -8.452586E+01
       416   1 -1.706823E+06  5.790024E+03  4.228336E+04 -1.261775E+03 -2.578416E+04 -1.294858E+00
       416   2 -1.725080E+06 -1.322340E+04  5.968993E+04  7.074600E+02 -5.361471E+04 -6.999667E+01
       416   3 -1.705943E+06  1.002506E+05  1.285008E+05 -3.564339E+03 -8.144462E+04 -6.394125E+01
       416   4 -1.741732E+06 -2.952961E+03  3.353995E+04 -2.009584E+03 -2.578601E+04 -1.262350E+00
       416   5 -1.760385E+06 -2.206664E+04  5.084788E+04  1.092820E+03 -5.361339E+04 -7.003027E+01
       416   6 -1.741643E+06  9.131055E+04  1.195600E+05 -2.045820E+03 -8.144010E+04 -6.414068E+01
       416   7 -1.776640E+06 -1.169604E+04  2.479645E+04 -2.757351E+03 -2.578786E+04 -1.229836E+00
       416   8 -1.795689E+06 -3.090997E+04  4.200573E+04  1.478158E+03 -5.361206E+04 -7.006386E+01
       416   9 -1.777342E+06  8.237041E+04  1.106191E+05 -5.273881E+02 -8.143558E+04 -6.434010E+01
       416  10 -1.706824E+06  5.789845E+03  4.228210E+04 -1.261775E+03 -4.720833E-10  5.008425E-09
       416  11 -1.725083E+06 -1.322418E+04  5.968451E+04  7.074569E+02  3.566158E-10  3.455580E-09
       416  12 -1.705950E+06  1.002488E+05  1.284883E+05 -3.564344E+03  1.009368E-12  2.784376E-09
       416  13 -1.741733E+06 -2.953140E+03  3.353869E+04 -2.009584E+03  1.379302E-09  3.908679E-09
       416  14 -1.760388E+06 -2.206741E+04  5.084246E+04  1.092817E+03  8.061573E-12  2.176864E-09
       416  15 -1.741650E+06  9.130876E+04  1.195475E+05 -2.045824E+03  6.189376E-10  1.282402E-09
       416  16 -1.776640E+06 -1.169622E+04  2.479519E+04 -2.757351E+03  5.662173E-10  4.125967E-09
       416  17 -1.795692E+06 -3.091074E+04  4.200031E+04  1.478155E+03  5.868074E-11  5.647187E-09
       416  18 -1.777349E+06  8.236862E+04  1.106066E+05 -5.273923E+02 -5.371067E-10 -4.450314E-09
       416  19 -1.706823E+06  5.790024E+03  4.228336E+04 -1.261775E+03  2.578416E+04  1.294858E+00
       416  20 -1.725080E+06 -1.322340E+04  5.968993E+04  7.074600E+02  5.361471E+04  6.999667E+01
       416  21 -1.705943E+06  1.002506E+05  1.285008E+05 -3.564339E+03  8.144462E+04  6.394125E+01
       416  22 -1.741732E+06 -2.952961E+03  3.353995E+04 -2.009584E+03  2.578601E+04  1.262350E+00
       416  23 -1.760385E+06 -2.206664E+04  5.084788E+04  1.092820E+03  5.361339E+04  7.003027E+01
       416  24 -1.741643E+06  9.131055E+04  1.195600E+05 -2.045820E+03  8.144010E+04  6.414068E+01
       416  25 -1.776640E+06 -1.169604E+04  2.479645E+04 -2.757351E+03  2.578786E+04  1.229836E+00
       416  26 -1.795689E+06 -3.090997E+04  4.200573E+04  1.478158E+03  5.361206E+04  7.006386E+01
       416  27 -1.777342E+06  8.237041E+04  1.106191E+05 -5.273881E+02  8.143558E+04  6.434010E+01
       417   1  8.306397E+06  1.651736E+06  2.169841E+06  2.818826E+04  1.488980E+06  8.246987E+02
       417   2  7.977807E+06 -4.024452E+05  9.252098E+05  1.153563E+04  9.814292E+05  4.161284E+02
       417   3  8.313701E+06 -5.330602E+04  6.097224E+05 -1.304648E+04  4.737774E+05  1.309106E+02
       417   4  8.315991E+06  1.654075E+06  2.172209E+06  1.104414E+02  1.488991E+06  7.581911E+02
       417   5  7.986937E+06 -4.001895E+05  9.274696E+05  4.508569E+03  9.814364E+05  4.051532E+02
       417   6  8.322355E+06 -5.115266E+04  6.118676E+05  9.684672E+02  4.737802E+05  1.414701E+02
       417   7  8.325587E+06  1.656416E+06  2.174577E+06 -2.796780E+04  1.489003E+06  6.916833E+02
       417   8  7.996066E+06 -3.979337E+05  9.297295E+05 -2.518598E+03  9.814435E+05  3.941779E+02
       417   9  8.331010E+06 -4.899858E+04  6.140128E+05  1.498361E+04  4.737830E+05  1.520297E+02
       417  10  8.304043E+06  1.651151E+06  2.165730E+06  2.818730E+04  7.161157E-07 -4.382717E-08
       417  11  7.976784E+06 -4.026994E+05  9.234234E+05  1.153531E+04  3.108132E-06 -2.558476E-07
       417  12  8.313462E+06 -5.336527E+04  6.093062E+05 -1.304653E+04  5.452097E-06 -5.362799E-07
       417  13  8.313637E+06  1.653489E+06  2.168097E+06  1.095376E+02  1.728362E-06  7.745487E-08
       417  14  7.985913E+06 -4.004437E+05  9.256833E+05  4.508251E+03  7.655652E-06  3.522520E-07
       417  15  8.322116E+06 -5.121191E+04  6.114514E+05  9.684135E+02  1.357424E-05  6.446117E-07
       417  16  8.323233E+06  1.655831E+06  2.170465E+06 -2.796866E+04  6.663296E-07 -9.988764E-08
       417  17  7.995042E+06 -3.981879E+05  9.279432E+05 -2.518911E+03  3.021933E-06 -4.000261E-07
       417  18  8.330771E+06 -4.905783E+04  6.135967E+05  1.498355E+04  5.413142E-06 -5.891144E-07
       417  19  8.306397E+06  1.651736E+06  2.169841E+06  2.818826E+04 -1.488980E+06 -8.246987E+02
       417  20  7.977807E+06 -4.024452E+05  9.252098E+05  1.153564E+04 -9.814292E+05 -4.161284E+02
       417  21  8.313701E+06 -5.330602E+04  6.097224E+05 -1.304647E+04 -4.737774E+05 -1.309106E+02
       417  22  8.315991E+06  1.654075E+06  2.172209E+06  1.104414E+02 -1.488991E+06 -7.581911E+02
       417  23  7.986937E+06 -4.001895E+05  9.274696E+05  4.508569E+03 -9.814364E+05 -4.051532E+02
       417  24  8.322355E+06 -5.115266E+04  6.118676E+05  9.684672E+02 -4.737802E+05 -1.414701E+02
       417  25  8.325587E+06  1.656416E+06  2.174577E+06 -2.796780E+04 -1.489003E+06 -6.916833E+02
       417  26  7.996066E+06 -3.979337E+05  9.297295E+05 -2.518601E+03 -9.814435E+05 -3.941779E+02
       417  27  8.331010E+06 -4.899858E+04  6.140128E+05  1.498360E+04 -4.737830E+05 -1.520297E+02
       418   1  8.199407E+06  2.604253E+05  5.075660E+05  6.946563E+03  3.711135E+05  9.902139E+01
       418   2  8.144707E+06 -6.248273E+04  2.412897E+05  3.074135E+03  2.441024E+05  6.524343E+01
       418   3  8.200547E+06 -7.373826E+03  1.514796E+05  5.422039E+02  1.170975E+05  3.348075E+01
       418   4  8.197421E+06  2.599306E+05  5.070736E+05  2.716793E+03  3.711127E+05  9.652448E+01
       418   5  8.142810E+06 -6.295351E+04  2.408196E+05  2.081555E+03  2.441020E+05  6.485804E+01
       418   6  8.198739E+06 -7.820116E+03  1.510320E+05  2.786761E+03  1.170975E+05  3.389889E+01
       418   7  8.195435E+06  2.594359E+05  5.065811E+05 -1.512963E+03  3.711120E+05  9.402756E+01
       418   8  8.140913E+06 -6.342428E+04  2.403495E+05  1.088977E+03  2.441016E+05  6.447266E+01
       418   9  8.196931E+06 -8.266387E+03  1.505844E+05  5.031311E+03  1.170975E+05  3.431702E+01
       418  10  8.199260E+06  2.603889E+05  5.073106E+05  6.946536E+03  5.327388E-06 -5.687452E-07
       418  11  8.144644E+06 -6.249847E+04  2.411792E+05  3.074124E+03  2.702030E-06 -3.639670E-07
       418  12  8.200533E+06 -7.377448E+03  1.514542E+05  5.422008E+02  9.833306E-08 -6.150378E-08
       418  13  8.197274E+06  2.598942E+05  5.068181E+05  2.716765E+03  1.339935E-05  6.472784E-07
       418  14  8.142747E+06 -6.296925E+04  2.407091E+05  2.081542E+03  6.866112E-06  3.356174E-07
       418  15  8.198724E+06 -7.823738E+03  1.510066E+05  2.786758E+03  3.252177E-07  2.382357E-08
       418  16  8.195288E+06  2.593995E+05  5.063256E+05 -1.512993E+03  5.389396E-06 -5.017988E-07
       418  17  8.140849E+06 -6.344002E+04  2.402390E+05  1.088963E+03  2.792139E-06 -1.857899E-07
       418  18  8.196916E+06 -8.270009E+03  1.505590E+05  5.031308E+03  1.637549E-07  2.467583E-08
       418  19  8.199407E+06  2.604253E+05  5.075660E+05  6.946568E+03 -3.711135E+05 -9.902140E+01
       418  20  8.144707E+06 -6.248273E+04  2.412897E+05  3.074138E+03 -2.441024E+05 -6.524343E+01
       418  21  8.200547E+06 -7.373826E+03  1.514796E+05  5.422040E+02 -1.170975E+05 -3.348075E+01
       418  22  8.197421E+06  2.599306E+05  5.070736E+05  2.716793E+03 -3.711127E+05 -9.652448E+01
       418  23  8.142810E+06 -6.295351E+04  2.408196E+05  2.081555E+03 -2.441020E+05 -6.485804E+01
       418  24  8.198739E+06 -7.820116E+03  1.510320E+05  2.786761E+03 -1.170975E+05 -3.389888E+01
       418  25  8.195435E+06  2.594359E+05  5.065811E+05 -1.512968E+03 -3.711120E+05 -9.402756E+01
       418  26  8.140913E+06 -6.342428E+04  2.403495E+05  1.088974E+03 -2.441016E+05 -6.447266E+01
       418  27  8.196931E+06 -8.266387E+03  1.505844E+05  5.031311E+03 -1.170975E+05 -3.431702E+01
       419   1  8.177687E+06  4.053898E+04  1.213348E+05  3.004552E+03  9.216462E+04  2.890274E+01
       419   2  8.168384E+06 -9.985142E+03  6.220576E+04  2.672948E+03  6.008232E+04  1.915310E+01
       419   3  8.177996E+06 -1.153140E+03  3.860353E+04  2.038886E+03  2.800135E+04  8.790230E+00
       419   4  8.178111E+06  4.064346E+04  1.214397E+05  2.388352E+03  9.216468E+04  2.881241E+01
       419   5  8.168789E+06 -9.884984E+03  6.230598E+04  2.546092E+03  6.008234E+04  1.914097E+01
       419   6  8.178381E+06 -1.057313E+03  3.869913E+04  2.401370E+03  2.800134E+04  8.806368E+00
       419   7  8.178534E+06  4.074793E+04  1.215445E+05  1.772151E+03  9.216473E+04  2.872207E+01
       419   8  8.169194E+06 -9.784826E+03  6.240621E+04  2.419235E+03  6.008236E+04  1.912885E+01
       419   9  8.178767E+06 -9.614866E+02  3.879473E+04  2.763855E+03  2.800132E+04  8.822505E+00
       419  10  8.177678E+06  4.053674E+04  1.213191E+05  3.004549E+03 -4.841779E-07  3.019026E-08
       419  11  8.168380E+06 -9.986095E+03  6.219906E+04  2.672947E+03  2.820189E-08  1.406188E-09
       419  12  8.177995E+06 -1.153347E+03  3.860207E+04  2.038886E+03  5.357434E-07 -5.348053E-08
       419  13  8.178102E+06  4.064121E+04  1.214239E+05  2.388349E+03 -1.207767E-06 -5.792098E-08
       419  14  8.168785E+06 -9.885938E+03  6.229929E+04  2.546091E+03  6.151188E-08 -4.146090E-09
       419  15  8.178380E+06 -1.057521E+03  3.869767E+04  2.401370E+03  1.321818E-06  5.344041E-08
       419  16  8.178525E+06  4.074569E+04  1.215288E+05  1.772149E+03 -4.842388E-07  4.071477E-08
       419  17  8.169190E+06 -9.785780E+03  6.239951E+04  2.419234E+03  1.189787E-08 -3.527186E-08
       419  18  8.178766E+06 -9.616938E+02  3.879328E+04  2.763855E+03  5.263312E-07 -5.574583E-08
       419  19  8.177687E+06  4.053898E+04  1.213348E+05  3.004551E+03 -9.216462E+04 -2.890274E+01
       419  20  8.168384E+06 -9.985142E+03  6.220576E+04  2.672948E+03 -6.008232E+04 -1.915310E+01
       419  21  8.177996E+06 -1.153140E+03  3.860353E+04  2.038886E+03 -2.800135E+04 -8.790230E+00
       419  22  8.178111E+06  4.064346E+04  1.214397E+05  2.388352E+03 -9.216468E+04 -2.881241E+01
       419  23  8.168789E+06 -9.884984E+03  6.230598E+04  2.546092E+03 -6.008234E+04 -1.914097E+01
       419  24  8.178381E+06 -1.057313E+03  3.869913E+04  2.401370E+03 -2.800134E+04 -8.806368E+00
       419  25  8.178534E+06  4.074793E+04  1.215445E+05  1.772152E+03 -9.216473E+04 -2.872207E+01
       419  26  8.169194E+06 -9.784826E+03  6.240621E+04  2.419235E+03 -6.008236E+04 -1.912885E+01
       419  27  8.178767E+06 -9.614867E+02  3.879473E+04  2.763855E+03 -2.800132E+04 -8.822505E+00
       420   1  8.175100E+06  6.316508E+03  3.117950E+04  2.563004E+03  2.161735E+04  6.453199E+00
       420   2  8.173225E+06 -1.692513E+03  1.875141E+04  2.465582E+03  1.213033E+04  3.418382E+00
       420   3  8.175143E+06  6.324959E+02  1.502347E+04  2.406518E+03  2.643246E+03  7.014042E-01
       420   4  8.174985E+06  6.287795E+03  3.115084E+04  2.471511E+03  2.161734E+04  6.450050E+00
       420   5  8.173111E+06 -1.720536E+03  1.872340E+04  2.453188E+03  1.213033E+04  3.418142E+00
       420   6  8.175032E+06  6.051629E+02  1.499610E+04  2.473225E+03  2.643253E+03  7.016870E-01
       420   7  8.174869E+06  6.259082E+03  3.112219E+04  2.380017E+03  2.161733E+04  6.446902E+00
       420   8  8.172998E+06 -1.748559E+03  1.869539E+04  2.440794E+03  1.213033E+04  3.417903E+00
       420   9  8.174922E+06  5.778299E+02  1.496872E+04  2.539932E+03  2.643260E+03  7.019697E-01
       420  10  8.175100E+06  6.316385E+03  3.117864E+04  2.563004E+03  6.055455E-07 -5.165154E-08
       420  11  8.173224E+06 -1.692552E+03  1.875114E+04  2.465582E+03  3.618059E-07 -3.483999E-08
       420  12  8.175143E+06  6.324941E+02  1.502346E+04  2.406518E+03  1.168307E-07 -2.736890E-08
       420  13  8.174984E+06  6.287672E+03  3.114998E+04  2.471510E+03  1.519802E-06  5.928526E-08
       420  14  8.173111E+06 -1.720575E+03  1.872313E+04  2.453188E+03  9.133978E-07  3.763321E-08
       420  15  8.175032E+06  6.051610E+02  1.499608E+04  2.473225E+03  3.134268E-07  1.022263E-08
       420  16  8.174869E+06  6.258959E+03  3.112132E+04  2.380017E+03  6.119083E-07 -5.379030E-08
       420  17  8.172998E+06 -1.748598E+03  1.869512E+04  2.440794E+03  3.687733E-07 -1.533504E-08
       420  18  8.174922E+06  5.778280E+02  1.496871E+04  2.539932E+03  1.302071E-07 -1.129310E-08
       420  19  8.175100E+06  6.316508E+03  3.117950E+04  2.563004E+03 -2.161735E+04 -6.453199E+00
       420  20  8.173225E+06 -1.692513E+03  1.875141E+04  2.465582E+03 -1.213033E+04 -3.418382E+00
       420  21  8.175143E+06  6.324959E+02  1.502347E+04  2.406519E+03 -2.643246E+03 -7.014043E-01
       420  22  8.174985E+06  6.287795E+03  3.115084E+04  2.471511E+03 -2.161734E+04 -6.450050E+00
       420  23  8.173111E+06 -1.720536E+03  1.872340E+04  2.453188E+03 -1.213033E+04 -3.418142E+00
       420  24  8.175032E+06  6.051629E+02  1.499610E+04  2.473225E+03 -2.643253E+03 -7.016870E-01
       420  25  8.174869E+06  6.259082E+03  3.112219E+04  2.380017E+03 -2.161733E+04 -6.446902E+00
       420  26  8.172998E+06 -1.748559E+03  1.869539E+04  2.440793E+03 -1.213033E+04 -3.417903E+00
       420  27  8.174922E+06  5.778299E+02  1.496872E+04  2.539932E+03 -2.643260E+03 -7.019697E-01
       421   1  8.174761E+06  7.934851E+02  1.454529E+04  2.540998E+03 -5.817269E+01  1.311352E-01
       421   2  8.173110E+06 -1.501327E+03  1.636595E+04  2.429573E+03 -8.364857E+03 -2.187411E+00
       421   3  8.174716E+06  4.988896E+03  2.573839E+04  2.406006E+03 -1.667158E+04 -4.961966E+00
       421   4  8.174912E+06  8.308071E+02  1.458264E+04  2.484051E+03 -5.816252E+01  1.311436E-01
       421   5  8.173267E+06 -1.462538E+03  1.640473E+04  2.439493E+03 -8.364860E+03 -2.187544E+00
       421   6  8.174878E+06  5.029153E+03  2.577860E+04  2.482792E+03 -1.667160E+04 -4.964006E+00
       421   7  8.175063E+06  8.681291E+02  1.462000E+04  2.427105E+03 -5.815236E+01  1.311520E-01
       421   8  8.173424E+06 -1.423749E+03  1.644351E+04  2.449413E+03 -8.364863E+03 -2.187676E+00
       421   9  8.175041E+06  5.069411E+03  2.581882E+04  2.559578E+03 -1.667161E+04 -4.966046E+00
       421  10  8.174761E+06  7.934851E+02  1.454529E+04  2.540998E+03 -1.861548E-07 -4.773112E-10
       421  11  8.173110E+06 -1.501346E+03  1.636582E+04  2.429572E+03 -9.737429E-07  5.805677E-08
       421  12  8.174716E+06  4.988822E+03  2.573788E+04  2.406005E+03 -1.769301E-06  1.150090E-07
       421  13  8.174912E+06  8.308071E+02  1.458264E+04  2.484051E+03 -4.344260E-07 -1.794475E-08
       421  14  8.173267E+06 -1.462557E+03  1.640460E+04  2.439493E+03 -2.409066E-06 -9.284779E-08
       421  15  8.174878E+06  5.029080E+03  2.577809E+04  2.482792E+03 -4.390459E-06 -1.696768E-07
       421  16  8.175063E+06  8.681292E+02  1.462000E+04  2.427105E+03 -1.649050E-07  3.776592E-08
       421  17  8.173423E+06 -1.423767E+03  1.644338E+04  2.449413E+03 -9.582685E-07  9.523120E-08
       421  18  8.175040E+06  5.069338E+03  2.581830E+04  2.559579E+03 -1.746280E-06  1.630429E-07
       421  19  8.174761E+06  7.934851E+02  1.454529E+04  2.540997E+03  5.817269E+01 -1.311353E-01
       421  20  8.173110E+06 -1.501328E+03  1.636595E+04  2.429572E+03  8.364857E+03  2.187411E+00
       421  21  8.174716E+06  4.988895E+03  2.573839E+04  2.406004E+03  1.667158E+04  4.961966E+00
       421  22  8.174912E+06  8.308071E+02  1.458264E+04  2.484051E+03  5.816252E+01 -1.311436E-01
       421  23  8.173267E+06 -1.462538E+03  1.640473E+04  2.439493E+03  8.364860E+03  2.187543E+00
       421  24  8.174878E+06  5.029153E+03  2.577860E+04  2.482792E+03  1.667160E+04  4.964006E+00
       421  25  8.175063E+06  8.681292E+02  1.462000E+04  2.427105E+03  5.815236E+01 -1.311519E-01
       421  26  8.173424E+06 -1.423748E+03  1.644351E+04  2.449414E+03  8.364863E+03  2.187676E+00
       421  27  8.175041E+06  5.069411E+03  2.581882E+04  2.559580E+03  1.667161E+04  4.966046E+00
       422   1  8.178193E+06 -6.381951E+02  3.179127E+04  2.648431E+03 -2.191835E+04 -7.236302E+00
       422   2  8.170519E+06 -7.767062E+03  5.042916E+04  2.498284E+03 -4.779540E+04 -1.601153E+01
       422   3  8.178039E+06  3.272980E+04  9.765998E+04  1.852996E+03 -7.367262E+04 -2.357982E+01
       422   4  8.177560E+06 -7.950715E+02  3.163458E+04  2.357720E+03 -2.191837E+04 -7.226179E+00
       422   5  8.169855E+06 -7.931432E+03  5.026475E+04  2.599992E+03 -4.779537E+04 -1.601927E+01
       422   6  8.177344E+06  3.255795E+04  9.748784E+04  2.347114E+03 -7.367254E+04 -2.363772E+01
       422   7  8.176928E+06 -9.519475E+02  3.147789E+04  2.067009E+03 -2.191840E+04 -7.216055E+00
       422   8  8.169192E+06 -8.095801E+03  5.010034E+04  2.701700E+03 -4.779534E+04 -1.602700E+01
       422   9  8.176649E+06  3.238611E+04  9.731569E+04  2.841232E+03 -7.367245E+04 -2.369561E+01
       422  10  8.178192E+06 -6.383223E+02  3.179038E+04  2.648430E+03 -1.392390E-06  1.322663E-07
       422  11  8.170517E+06 -7.767666E+03  5.042492E+04  2.498284E+03  5.789584E-07  4.446604E-08
       422  12  8.178034E+06  3.272836E+04  9.764992E+04  1.852996E+03  2.485652E-06 -3.260659E-07
       422  13  8.177560E+06 -7.951984E+02  3.163369E+04  2.357719E+03 -3.536801E-06 -1.369499E-07
       422  14  8.169853E+06 -7.932035E+03  5.026051E+04  2.599992E+03  1.371736E-06  4.617718E-08
       422  15  8.177338E+06  3.255652E+04  9.747777E+04  2.347113E+03  6.286225E-06  2.379933E-07
       422  16  8.176928E+06 -9.520743E+02  3.147700E+04  2.067009E+03 -1.439356E-06  7.513505E-08
       422  17  8.169189E+06 -8.096405E+03  5.009610E+04  2.701699E+03  5.103301E-07 -1.297120E-07
       422  18  8.176643E+06  3.238468E+04  9.730562E+04  2.841229E+03  2.545630E-06 -4.428718E-08
       422  19  8.178193E+06 -6.381956E+02  3.179127E+04  2.648429E+03  2.191835E+04  7.236303E+00
       422  20  8.170519E+06 -7.767062E+03  5.042916E+04  2.498285E+03  4.779540E+04  1.601153E+01
       422  21  8.178039E+06  3.272980E+04  9.765999E+04  1.852998E+03  7.367262E+04  2.357982E+01
       422  22  8.177560E+06 -7.950715E+02  3.163458E+04  2.357720E+03  2.191837E+04  7.226179E+00
       422  23  8.169855E+06 -7.931432E+03  5.026475E+04  2.599992E+03  4.779537E+04  1.601927E+01
       422  24  8.177344E+06  3.255795E+04  9.748784E+04  2.347114E+03  7.367254E+04  2.363772E+01
       422  25  8.176928E+06 -9.519471E+02  3.147789E+04  2.067010E+03  2.191840E+04  7.216056E+00
       422  26  8.169192E+06 -8.095801E+03  5.010034E+04  2.701700E+03  4.779534E+04  1.602700E+01
       422  27  8.176649E+06  3.238611E+04  9.731569E+04  2.841230E+03  7.367245E+04  2.369561E+01
       423   1  8.190870E+06 -6.997357E+03  1.204033E+05  4.787238E+03 -9.367906E+04 -2.600482E+01
       423   2  8.145909E+06 -5.121343E+04  1.922114E+05  1.027808E+03 -1.954674E+05 -4.577777E+01
       423   3  8.189508E+06  2.074137E+05  4.054056E+05 -4.495582E+02 -2.972611E+05 -6.779534E+01
       423   4  8.193861E+06 -6.257528E+03  1.211442E+05  2.989545E+03 -9.367907E+04 -2.573685E+01
       423   5  8.149049E+06 -5.043475E+04  1.929895E+05  1.823379E+03 -1.954679E+05 -4.602510E+01
       423   6  8.192797E+06  2.082305E+05  4.062207E+05  2.939348E+03 -2.972622E+05 -6.939778E+01
       423   7  8.196853E+06 -5.517688E+03  1.218850E+05  1.191843E+03 -9.367908E+04 -2.546887E+01
       423   8  8.152190E+06 -4.965607E+04  1.937676E+05  2.618955E+03 -1.954684E+05 -4.627242E+01
       423   9  8.196086E+06  2.090473E+05  4.070359E+05  6.328272E+03 -2.972633E+05 -7.100020E+01
       423  10  8.190860E+06 -6.999676E+03  1.203870E+05  4.787233E+03 -5.908938E-06 -9.283858E-08
       423  11  8.145868E+06 -5.122353E+04  1.921405E+05  1.027784E+03 -3.592664E-05  1.769773E-06
       423  12  8.189414E+06  2.073904E+05  4.052417E+05 -4.496058E+02 -6.567246E-05  4.549495E-06
       423  13  8.193852E+06 -6.259847E+03  1.211279E+05  2.989543E+03 -1.403556E-05 -5.223456E-07
       423  14  8.149009E+06 -5.044484E+04  1.929186E+05  1.823372E+03 -8.878970E-05 -3.348568E-06
       423  15  8.192703E+06  2.082072E+05  4.060569E+05  2.939332E+03 -1.635526E-04 -6.205550E-06
       423  16  8.196844E+06 -5.520005E+03  1.218688E+05  1.191844E+03 -5.318319E-06  9.347174E-07
       423  17  8.152149E+06 -4.966616E+04  1.936967E+05  2.618965E+03 -3.510079E-05  3.551306E-06
       423  18  8.195992E+06  2.090240E+05  4.068720E+05  6.328287E+03 -6.517150E-05  5.286870E-06
       423  19  8.190870E+06 -6.997358E+03  1.204033E+05  4.787232E+03  9.367906E+04  2.600482E+01
       423  20  8.145909E+06 -5.121344E+04  1.922114E+05  1.027774E+03  1.954674E+05  4.577777E+01
       423  21  8.189508E+06  2.074137E+05  4.054056E+05 -4.496210E+02  2.972611E+05  6.779533E+01
       423  22  8.193861E+06 -6.257528E+03  1.211442E+05  2.989545E+03  9.367907E+04  2.573684E+01
       423  23  8.149049E+06 -5.043475E+04  1.929895E+05  1.823379E+03  1.954679E+05  4.602509E+01
       423  24  8.192797E+06  2.082305E+05  4.062207E+05  2.939348E+03  2.972622E+05  6.939777E+01
       423  25  8.196853E+06 -5.517686E+03  1.218850E+05  1.191848E+03  9.367908E+04  2.546887E+01
       423  26  8.152190E+06 -4.965606E+04  1.937676E+05  2.618989E+03  1.954684E+05  4.627243E+01
       423  27  8.196086E+06  2.090474E+05  4.070359E+05  6.328335E+03  2.972633E+05  7.100023E+01
       424   1  8.307197E+06 -3.743018E+04  4.936664E+05  1.119120E+04 -3.794883E+05 -1.222846E+02
       424   2  8.039168E+06 -3.168860E+05  7.464015E+05  1.223639E+02 -7.862298E+05 -3.801252E+02
       424   3  8.303487E+06  1.328998E+06  1.743366E+06 -2.339418E+04 -1.192912E+06 -7.282517E+02
       424   4  8.292887E+06 -4.098285E+04  4.901209E+05 -3.787273E+01 -3.794848E+05 -1.155082E+02
       424   5  8.024094E+06 -3.206155E+05  7.426689E+05  5.750160E+03 -7.862203E+05 -3.871674E+02
       424   6  8.287660E+06  1.325114E+06  1.739455E+06 -9.036867E+02 -1.192896E+06 -7.709327E+02
       424   7  8.278577E+06 -4.453508E+04  4.865753E+05 -1.126669E+04 -3.794812E+05 -1.087318E+02
       424   8  8.009020E+06 -3.243448E+05  7.389363E+05  1.137782E+04 -7.862108E+05 -3.942095E+02
       424   9  8.271834E+06  1.321232E+06  1.735544E+06  2.158624E+04 -1.192880E+06 -8.136134E+02
       424  10  8.307044E+06 -3.746821E+04  4.933994E+05  1.119113E+04 -6.555858E-05  5.259469E-06
       424  11  8.038511E+06 -3.170492E+05  7.452551E+05  1.221062E+02 -3.668318E-05  3.687870E-06
       424  12  8.301975E+06  1.328622E+06  1.740726E+06 -2.339489E+04 -8.121170E-06  9.987937E-07
       424  13  8.292734E+06 -4.102088E+04  4.898538E+05 -3.790790E+01 -1.644696E-04 -6.244377E-06
       424  14  8.023437E+06 -3.207787E+05  7.415225E+05  5.749917E+03 -9.268366E-05 -3.506484E-06
       424  15  8.286148E+06  1.324738E+06  1.736816E+06 -9.044240E+02 -2.089807E-05 -7.858058E-07
       424  16  8.278424E+06 -4.457309E+04  4.863083E+05 -1.126669E+04 -6.601144E-05  4.610346E-06
       424  17  8.008363E+06 -3.245080E+05  7.377899E+05  1.137759E+04 -3.747402E-05  1.897067E-06
       424  18  8.270323E+06  1.320857E+06  1.732905E+06  2.158548E+04 -8.602605E-06  2.673013E-07
       424  19  8.307197E+06 -3.743020E+04  4.936664E+05  1.119114E+04  3.794883E+05  1.222846E+02
       424  20  8.039168E+06 -3.168860E+05  7.464015E+05  1.223283E+02  7.862298E+05  3.801252E+02
       424  21  8.303487E+06  1.328998E+06  1.743365E+06 -2.339419E+04  1.192912E+06  7.282517E+02
       424  22  8.292887E+06 -4.098285E+04  4.901209E+05 -3.787269E+01  3.794848E+05  1.155082E+02
       424  23  8.024094E+06 -3.206155E+05  7.426689E+05  5.750160E+03  7.862203E+05  3.871674E+02
       424  24  8.287660E+06  1.325114E+06  1.739455E+06 -9.036867E+02  1.192896E+06  7.709327E+02
       424  25  8.278577E+06 -4.453506E+04  4.865753E+05 -1.126663E+04  3.794812E+05  1.087319E+02
       424  26  8.009020E+06 -3.243448E+05  7.389363E+05  1.137786E+04  7.862108E+05  3.942096E+02
       424  27  8.271834E+06  1.321232E+06  1.735544E+06  2.158625E+04  1.192880E+06  8.136134E+02
       425   1  3.106793E+05  1.454400E+05  1.333649E+05  3.884933E+04  3.429154E+04 -9.770878E+03
       425   2  2.569869E+05  1.475480E+05  1.083444E+05  4.347494E+04  1.281521E+04 -3.289848E+04
       425   3  2.034583E+05  1.390318E+05  9.466315E+04  5.829551E+04 -8.669266E+03 -3.967140E+04
       425   4 -3.948806E+05 -2.862174E+04 -3.154168E+04  5.665141E+04 -2.203268E+04 -9.817381E+03
       425   5 -3.923890E+05 -7.072198E+03 -1.543874E+04  5.154033E+04 -1.405849E+04 -3.292634E+04
       425   6 -3.948533E+05 -1.266942E+03 -8.450254E+03  5.662468E+04 -6.094792E+03 -3.967210E+04
       425   7 -1.099974E+06 -2.027159E+05 -1.964700E+05  7.443303E+04 -7.829330E+04 -9.867144E+03
       425   8 -1.041357E+06 -1.617165E+05 -1.392382E+05  5.959697E+04 -4.090475E+04 -3.295492E+04
       425   9 -9.928134E+05 -1.415848E+05 -1.115759E+05  5.495541E+04 -3.522719E+03 -3.967282E+04
       425  10  3.106780E+05  1.454396E+05  1.333625E+05  3.884960E+04  2.909394E-09 -1.600148E-10
       425  11  2.569864E+05  1.475468E+05  1.083421E+05  4.347528E+04  1.631475E-08 -2.417979E-09
       425  12  2.034578E+05  1.390301E+05  9.466005E+04  5.829524E+04  2.645997E-08 -2.602817E-09
       425  13 -3.948811E+05 -2.862197E+04 -3.154277E+04  5.665124E+04  9.193417E-10  1.512227E-09
       425  14 -3.923895E+05 -7.073415E+03 -1.544115E+04  5.153996E+04  4.593757E-10  3.154125E-09
       425  15 -3.948538E+05 -1.268641E+03 -8.453281E+03  5.662449E+04 -2.743198E-10  8.291492E-09
       425  16 -1.099981E+06 -2.027176E+05 -1.964817E+05  7.443241E+04 -3.505826E-10 -1.522794E-10
       425  17 -1.041359E+06 -1.617182E+05 -1.392434E+05  5.959589E+04 -1.612129E-08 -3.754917E-09
       425  18 -9.928138E+05 -1.415865E+05 -1.115788E+05  5.495529E+04 -2.659470E-08 -3.234291E-09
       425  19  3.106793E+05  1.454400E+05  1.333649E+05  3.884933E+04 -3.429154E+04  9.770878E+03
       425  20  2.569869E+05  1.475480E+05  1.083444E+05  4.347494E+04 -1.281521E+04  3.289848E+04
       425  21  2.034583E+05  1.390318E+05  9.466315E+04  5.829551E+04  8.669266E+03  3.967140E+04
       425  22 -3.948806E+05 -2.862174E+04 -3.154168E+04  5.665141E+04  2.203268E+04  9.817381E+03
       425  23 -3.923890E+05 -7.072198E+03 -1.543874E+04  5.154033E+04  1.405849E+04  3.292634E+04
       425  24 -3.948533E+05 -1.266942E+03 -8.450254E+03  5.662468E+04  6.094792E+03  3.967210E+04
       425  25 -1.099974E+06 -2.027159E+05 -1.964700E+05  7.443303E+04  7.829330E+04  9.867144E+03
       425  26 -1.041357E+06 -1.617165E+05 -1.392382E+05  5.959697E+04  4.090475E+04  3.295492E+04
       425  27 -9.928134E+05 -1.415848E+05 -1.115759E+05  5.495541E+04  3.522719E+03  3.967282E+04
       426   1  1.691621E+05  1.303685E+05  8.933634E+04  5.670302E+04 -6.239934E+03 -3.842854E+04
       426   2  1.155747E+05  1.184583E+05  8.051216E+04  5.145485E+04 -7.358982E+03 -3.694388E+04
       426   3  6.202924E+04  1.061511E+05  7.231662E+04  5.751671E+04 -8.480719E+03 -3.386119E+04
       426   4 -3.938469E+05 -1.392699E+03 -6.406234E+03  5.687540E+04 -4.999824E+03 -3.843032E+04
       426   5 -3.936077E+05 -1.984348E+02 -3.518544E+03  5.121916E+04 -3.242950E+03 -3.694177E+04
       426   6 -3.938282E+05  9.939563E+01 -1.999873E+03  5.687355E+04 -1.488811E+03 -3.385451E+04
       426   7 -9.565439E+05 -1.331707E+05 -1.021592E+05  5.704751E+04 -3.760801E+03 -3.843211E+04
       426   8 -9.025336E+05 -1.188686E+05 -8.755684E+04  5.098358E+04  8.698220E+02 -3.693966E+04
       426   9 -8.494795E+05 -1.059629E+05 -7.632205E+04  5.623080E+04  5.498142E+03 -3.384785E+04
       426  10  1.691617E+05  1.303669E+05  8.933349E+04  5.670283E+04 -3.644767E-08 -2.946275E-09
       426  11  1.155743E+05  1.184568E+05  8.050950E+04  5.145463E+04 -3.421217E-08  1.369192E-10
       426  12  6.202886E+04  1.061499E+05  7.231433E+04  5.751648E+04 -2.958006E-08  2.239507E-10
       426  13 -3.938473E+05 -1.394291E+03 -6.409056E+03  5.687524E+04 -1.081340E-09  5.870180E-09
       426  14 -3.936081E+05 -1.999028E+02 -3.521128E+03  5.121906E+04  5.928958E-10  3.763980E-10
       426  15 -3.938285E+05  9.816452E+01 -2.002030E+03  5.687351E+04 -1.421257E-12 -9.875243E-09
       426  16 -9.565443E+05 -1.331722E+05 -1.021620E+05  5.704739E+04  3.642654E-08  2.053262E-10
       426  17 -9.025340E+05 -1.188700E+05 -8.755941E+04  5.098361E+04  3.278516E-08  1.659274E-09
       426  18 -8.494799E+05 -1.059641E+05 -7.632426E+04  5.623095E+04  2.863634E-08 -2.501189E-10
       426  19  1.691621E+05  1.303685E+05  8.933634E+04  5.670302E+04  6.239934E+03  3.842854E+04
       426  20  1.155747E+05  1.184583E+05  8.051216E+04  5.145485E+04  7.358982E+03  3.694388E+04
       426  21  6.202924E+04  1.061511E+05  7.231662E+04  5.751671E+04  8.480719E+03  3.386119E+04
       426  22 -3.938469E+05 -1.392699E+03 -6.406234E+03  5.687540E+04  4.999824E+03  3.843032E+04
       426  23 -3.936077E+05 -1.984348E+02 -3.518544E+03  5.121916E+04  3.242950E+03  3.694177E+04
       426  24 -3.938282E+05  9.939563E+01 -1.999873E+03  5.687355E+04  1.488811E+03  3.385451E+04
       426  25 -9.565439E+05 -1.331707E+05 -1.021592E+05  5.704751E+04  3.760801E+03  3.843211E+04
       426  26 -9.025336E+05 -1.188686E+05 -8.755684E+04  5.098358E+04 -8.698220E+02  3.693966E+04
       426  27 -8.494795E+05 -1.059629E+05 -7.632205E+04  5.623080E+04 -5.498142E+03  3.384785E+04
       427   1  2.755457E+04  9.803806E+04  6.685317E+04  5.739093E+04 -8.049529E+03 -3.156015E+04
       427   2 -2.605291E+04  8.558361E+04  5.864985E+04  5.162359E+04 -7.905853E+03 -2.766853E+04
       427   3 -7.969327E+04  7.315831E+04  5.035357E+04  5.728656E+04 -7.763396E+03 -2.361956E+04
       427   4 -3.937391E+05  8.773121E+01 -1.519233E+03  5.690047E+04 -1.185508E+03 -3.155303E+04
       427   5 -3.936900E+05  1.349399E+02 -8.695095E+02  5.118507E+04 -7.591311E+02 -2.766014E+04
       427   6 -3.937258E+05  1.622589E+02 -5.093709E+02  5.690037E+04 -3.339622E+02 -2.360986E+04
       427   7 -8.148566E+05 -9.787160E+04 -6.989638E+04  5.641028E+04  5.674019E+03 -3.154591E+04
       427   8 -7.611928E+05 -8.532056E+04 -6.039239E+04  5.074676E+04  6.383507E+03 -2.765176E+04
       427   9 -7.076604E+05 -7.283877E+04 -5.137482E+04  5.651434E+04  7.091846E+03 -2.360017E+04
       427  10  2.755423E+04  9.803698E+04  6.685117E+04  5.739073E+04  2.347186E-08  8.361501E-10
       427  11 -2.605319E+04  8.558278E+04  5.864829E+04  5.162342E+04  1.578032E-08  6.430644E-10
       427  12 -7.969349E+04  7.315769E+04  5.035241E+04  5.728641E+04  1.762506E-09 -4.199734E-10
       427  13 -3.937394E+05  8.666194E+01 -1.521106E+03  5.690044E+04 -7.662961E-10 -1.177106E-08
       427  14 -3.936902E+05  1.341183E+02 -8.709480E+02  5.118505E+04  2.842472E-09 -3.937615E-09
       427  15 -3.937260E+05  1.616604E+02 -5.104185E+02  5.690036E+04 -1.145183E-09  1.348873E-09
       427  16 -8.148569E+05 -9.787268E+04 -6.989831E+04  5.641043E+04 -2.144140E-08 -2.223085E-10
       427  17 -7.611931E+05 -8.532140E+04 -6.039391E+04  5.074690E+04 -1.554944E-08  1.519501E-09
       427  18 -7.076606E+05 -7.283938E+04 -5.137596E+04  5.651447E+04 -3.418383E-09 -1.099393E-10
       427  19  2.755457E+04  9.803806E+04  6.685317E+04  5.739093E+04  8.049529E+03  3.156015E+04
       427  20 -2.605291E+04  8.558361E+04  5.864985E+04  5.162359E+04  7.905853E+03  2.766853E+04
       427  21 -7.969327E+04  7.315831E+04  5.035357E+04  5.728656E+04  7.763396E+03  2.361956E+04
       427  22 -3.937391E+05  8.773121E+01 -1.519233E+03  5.690047E+04  1.185508E+03  3.155303E+04
       427  23 -3.936900E+05  1.349399E+02 -8.695095E+02  5.118507E+04  7.591311E+02  2.766014E+04
       427  24 -3.937258E+05  1.622589E+02 -5.093709E+02  5.690037E+04  3.339622E+02  2.360986E+04
       427  25 -8.148566E+05 -9.787160E+04 -6.989638E+04  5.641028E+04 -5.674019E+03  3.154591E+04
       427  26 -7.611928E+05 -8.532056E+04 -6.039239E+04  5.074676E+04 -6.383507E+03  2.765176E+04
       427  27 -7.076604E+05 -7.283877E+04 -5.137482E+04  5.651434E+04 -7.091846E+03  2.360017E+04
       428   1 -1.142021E+05  6.509269E+04  4.465547E+04  5.724480E+04 -7.674002E+03 -2.121293E+04
       428   2 -1.678526E+05  5.263044E+04  3.621583E+04  5.145253E+04 -7.581051E+03 -1.708322E+04
       428   3 -2.215385E+05  4.020445E+04  2.771453E+04  5.711071E+04 -7.488766E+03 -1.293807E+04
       428   4 -3.937128E+05  1.638901E+02 -3.965718E+02  5.690483E+04 -2.554244E+02 -2.120281E+04
       428   5 -3.936867E+05  1.548950E+02 -2.547457E+02  5.117948E+04 -1.351131E+02 -1.707249E+04
       428   6 -3.937047E+05  1.772734E+02 -1.939956E+02  5.690482E+04 -1.546092E+01 -1.292673E+04
       428   7 -6.731457E+05 -6.476883E+04 -4.545052E+04  5.656498E+04  7.159932E+03 -2.119269E+04
       428   8 -6.194701E+05 -5.232320E+04 -3.672650E+04  5.090650E+04  7.308211E+03 -1.706176E+04
       428   9 -5.658412E+05 -3.985138E+04 -2.810313E+04  5.669897E+04  7.455844E+03 -1.291539E+04
       428  10 -1.142023E+05  6.509219E+04  4.465452E+04  5.724467E+04  6.249651E-10 -2.596672E-10
       428  11 -1.678527E+05  5.263011E+04  3.621517E+04  5.145242E+04  2.314591E-09  4.600350E-09
       428  12 -2.215386E+05  4.020425E+04  2.771411E+04  5.711064E+04  1.253641E-09  3.566446E-09
       428  13 -3.937129E+05  1.634074E+02 -3.974165E+02  5.690482E+04 -2.158362E-09  4.089516E-10
       428  14 -3.936868E+05  1.545821E+02 -2.552934E+02  5.117947E+04 -2.749731E-09  4.642533E-09
       428  15 -3.937047E+05  1.770940E+02 -1.943095E+02  5.690482E+04 -1.638429E-09  1.102669E-09
       428  16 -6.731459E+05 -6.476932E+04 -4.545146E+04  5.656510E+04 -5.785776E-10  6.760566E-10
       428  17 -6.194702E+05 -5.232353E+04 -3.672715E+04  5.090661E+04  1.223944E-09  1.427831E-09
       428  18 -5.658414E+05 -3.985157E+04 -2.810354E+04  5.669904E+04 -1.021810E-09  7.973226E-10
       428  19 -1.142021E+05  6.509269E+04  4.465547E+04  5.724480E+04  7.674002E+03  2.121293E+04
       428  20 -1.678526E+05  5.263044E+04  3.621583E+04  5.145253E+04  7.581051E+03  1.708322E+04
       428  21 -2.215385E+05  4.020445E+04  2.771453E+04  5.711071E+04  7.488766E+03  1.293807E+04
       428  22 -3.937128E+05  1.638901E+02 -3.965718E+02  5.690483E+04  2.554244E+02  2.120281E+04
       428  23 -3.936867E+05  1.548950E+02 -2.547457E+02  5.117948E+04  1.351131E+02  1.707249E+04
       428  24 -3.937047E+05  1.772734E+02 -1.939956E+02  5.690482E+04  1.546092E+01  1.292673E+04
       428  25 -6.731457E+05 -6.476883E+04 -4.545052E+04  5.656498E+04 -7.159932E+03  2.119269E+04
       428  26 -6.194701E+05 -5.232320E+04 -3.672650E+04  5.090650E+04 -7.308211E+03  1.706176E+04
       428  27 -5.658412E+05 -3.985138E+04 -2.810313E+04  5.669897E+04 -7.455844E+03  1.291539E+04
       429   1 -2.560731E+05  3.213758E+04  2.191828E+04  5.706885E+04 -7.458045E+03 -1.052007E+04
       429   2 -3.097387E+05  1.967205E+04  1.332359E+04  5.126567E+04 -7.343723E+03 -6.369941E+03
       429   3 -3.634519E+05  7.236627E+03  4.649476E+03  5.692061E+04 -7.229636E+03 -2.226651E+03
       429   4 -3.937034E+05  1.799797E+02 -1.876698E+02  5.690648E+04  1.556881E+01 -1.050849E+04
       429   5 -3.936781E+05  1.689011E+02 -2.186592E+02  5.117738E+04  1.173253E+02 -6.358176E+03
       429   6 -3.937004E+05  1.904155E+02 -3.202441E+02  5.690647E+04  2.188563E+02 -2.214693E+03
       429   7 -5.313146E+05 -3.177854E+04 -2.229391E+04  5.674415E+04  7.487585E+03 -1.049692E+04
       429   8 -4.776104E+05 -1.933457E+04 -1.376089E+04  5.108910E+04  7.577400E+03 -6.346411E+03
       429   9 -4.239478E+05 -6.855813E+03 -5.289782E+03  5.689234E+04  7.666998E+03 -2.202735E+03
       429  10 -2.560732E+05  3.213744E+04  2.191796E+04  5.706878E+04  9.477900E-09  4.366627E-10
       429  11 -3.097388E+05  1.967199E+04  1.332341E+04  5.126563E+04  4.987366E-09 -1.551295E-09
       429  12 -3.634520E+05  7.236608E+03  4.649369E+03  5.692060E+04 -1.525956E-09 -1.423610E-09
       429  13 -3.937034E+05  1.798612E+02 -1.878773E+02  5.690648E+04 -2.874807E-10  4.321475E-09
       429  14 -3.936781E+05  1.688577E+02 -2.187352E+02  5.117738E+04  6.649303E-10 -5.144936E-10
       429  15 -3.937004E+05  1.904103E+02 -3.202534E+02  5.690647E+04  2.825300E-10 -2.068972E-09
       429  16 -5.313147E+05 -3.177867E+04 -2.229422E+04  5.674421E+04 -8.654892E-09  1.417761E-09
       429  17 -4.776105E+05 -1.933463E+04 -1.376107E+04  5.108914E+04 -1.974495E-09 -2.302393E-09
       429  18 -4.239479E+05 -6.855834E+03 -5.289902E+03  5.689235E+04  2.025151E-09 -2.712385E-09
       429  19 -2.560731E+05  3.213758E+04  2.191828E+04  5.706885E+04  7.458045E+03  1.052007E+04
       429  20 -3.097387E+05  1.967205E+04  1.332359E+04  5.126567E+04  7.343723E+03  6.369941E+03
       429  21 -3.634519E+05  7.236627E+03  4.649476E+03  5.692061E+04  7.229636E+03  2.226651E+03
       429  22 -3.937034E+05  1.799797E+02 -1.876698E+02  5.690648E+04 -1.556881E+01  1.050849E+04
       429  23 -3.936781E+05  1.689011E+02 -2.186592E+02  5.117738E+04 -1.173253E+02  6.358176E+03
       429  24 -3.937004E+05  1.904155E+02 -3.202441E+02  5.690647E+04 -2.188563E+02  2.214693E+03
       429  25 -5.313146E+05 -3.177854E+04 -2.229391E+04  5.674415E+04 -7.487585E+03  1.049692E+04
       429  26 -4.776104E+05 -1.933457E+04 -1.376089E+04  5.108910E+04 -7.577400E+03  6.346411E+03
       429  27 -4.239478E+05 -6.855813E+03 -5.289782E+03  5.689234E+04 -7.666998E+03  2.202735E+03
       430   1 -3.980034E+05 -8.339029E+02 -1.246401E+03  5.686599E+04 -7.175037E+03  1.874642E+02
       430   2 -4.516347E+05 -1.331470E+04 -1.014285E+04  5.106438E+04 -6.683600E+03  4.287760E+03
       430   3 -5.053786E+05 -2.582989E+04 -1.938056E+04  5.671537E+04 -6.191914E+03  8.298853E+03
       430   4 -3.937091E+05  1.936561E+02 -4.056064E+02  5.690520E+04  2.804947E+02  1.994529E+02
       430   5 -3.936664E+05  1.772730E+02 -6.809478E+02  5.117897E+04  6.111793E+02  4.299347E+03
       430   6 -3.937113E+05  1.545285E+02 -1.185965E+03  5.690526E+04  9.421538E+02  8.310043E+03
       430   7 -3.894147E+05  1.221244E+03  4.353964E+02  5.694440E+04  7.736077E+03  2.114426E+02
       430   8 -3.356947E+05  1.366910E+04  8.781056E+03  5.129356E+04  7.906617E+03  4.310936E+03
       430   9 -2.820315E+05  2.613833E+04  1.700847E+04  5.709519E+04  8.077461E+03  8.321237E+03
       430  10 -3.980034E+05 -8.339167E+02 -1.246498E+03  5.686599E+04  2.002752E-10  1.792503E-09
       430  11 -4.516347E+05 -1.331473E+04 -1.014297E+04  5.106440E+04  1.365049E-08  9.431045E-10
       430  12 -5.053786E+05 -2.582997E+04 -1.938076E+04  5.671541E+04  2.595667E-08  1.527727E-09
       430  13 -3.937091E+05  1.936560E+02 -4.056066E+02  5.690520E+04  2.099405E-11  2.310821E-11
       430  14 -3.936664E+05  1.772531E+02 -6.809832E+02  5.117896E+04 -2.417356E-09  4.916855E-09
       430  15 -3.937113E+05  1.544541E+02 -1.186097E+03  5.690526E+04  1.208922E-10  1.005688E-08
       430  16 -3.894147E+05  1.221228E+03  4.352838E+02  5.694440E+04  5.758453E-10  5.440782E-11
       430  17 -3.356947E+05  1.366907E+04  8.780904E+03  5.129354E+04 -1.202906E-08 -4.522983E-09
       430  18 -2.820316E+05  2.613824E+04  1.700822E+04  5.709514E+04 -2.495493E-08 -1.109756E-09
       430  19 -3.980034E+05 -8.339029E+02 -1.246401E+03  5.686599E+04  7.175037E+03 -1.874642E+02
       430  20 -4.516347E+05 -1.331470E+04 -1.014285E+04  5.106438E+04  6.683600E+03 -4.287760E+03
       430  21 -5.053786E+05 -2.582989E+04 -1.938056E+04  5.671537E+04  6.191914E+03 -8.298853E+03
       430  22 -3.937091E+05  1.936561E+02 -4.056064E+02  5.690520E+04 -2.804947E+02 -1.994529E+02
       430  23 -3.936664E+05  1.772730E+02 -6.809478E+02  5.117897E+04 -6.111793E+02 -4.299347E+03
       430  24 -3.937113E+05  1.545285E+02 -1.185965E+03  5.690526E+04 -9.421538E+02 -8.310043E+03
       430  25 -3.894147E+05  1.221244E+03  4.353964E+02  5.694440E+04 -7.736077E+03 -2.114426E+02
       430  26 -3.356947E+05  1.366910E+04  8.781056E+03  5.129356E+04 -7.906617E+03 -4.310936E+03
       430  27 -2.820315E+05  2.613833E+04  1.700847E+04  5.709519E+04 -8.077461E+03 -8.321237E+03
       431   1 -5.400224E+05 -3.391447E+04 -2.564445E+04  5.655717E+04 -6.030642E+03  1.065403E+04
       431   2 -5.933562E+05 -4.670045E+04 -3.605489E+04  5.113581E+04 -3.023497E+03  1.420865E+04
       431   3 -6.473598E+05 -6.046183E+04 -4.867894E+04  5.710274E+04 -1.489534E+01  1.684919E+04
       431   4 -3.937796E+05  1.676121E+02 -1.560227E+03  5.689070E+04  1.177026E+03  1.066515E+04
       431   5 -3.935897E+05 -6.176328E+01 -2.740934E+03  5.119754E+04  2.540184E+03  1.421678E+04
       431   6 -3.937873E+05 -9.808273E+02 -4.992833E+03  5.689247E+04  3.905072E+03  1.685448E+04
       431   7 -2.475156E+05  3.424862E+04  2.252357E+04  5.722430E+04  8.386335E+03  1.067628E+04
       431   8 -1.937836E+05  4.657486E+04  3.057192E+04  5.125928E+04  8.105596E+03  1.422491E+04
       431   9 -1.401515E+05  5.849673E+04  3.869114E+04  5.668208E+04  7.826592E+03  1.685976E+04
       431  10 -5.400225E+05 -3.391460E+04 -2.564473E+04  5.655722E+04 -3.172286E-08  3.870251E-09
       431  11 -5.933563E+05 -4.670067E+04 -3.605529E+04  5.113585E+04 -1.689169E-08  1.462337E-09
       431  12 -6.473599E+05 -6.046214E+04 -4.867947E+04  5.710274E+04 -1.207909E-11  3.663166E-09
       431  13 -3.937797E+05  1.674896E+02 -1.560443E+03  5.689069E+04  3.201798E-11  1.038993E-08
       431  14 -3.935897E+05 -6.198201E+01 -2.741326E+03  5.119752E+04  2.933652E-09  7.516320E-09
       431  15 -3.937873E+05 -9.811364E+02 -4.993395E+03  5.689242E+04  2.319127E-09 -1.146735E-11
       431  16 -2.475157E+05  3.424848E+04  2.252322E+04  5.722423E+04  3.341338E-08  1.905961E-10
       431  17 -1.937837E+05  4.657463E+04  3.057142E+04  5.125919E+04  1.889382E-08 -8.312951E-10
       431  18 -1.401516E+05  5.849641E+04  3.869049E+04  5.668198E+04 -4.596477E-10 -3.687334E-09
       431  19 -5.400224E+05 -3.391447E+04 -2.564445E+04  5.655717E+04  6.030642E+03 -1.065403E+04
       431  20 -5.933562E+05 -4.670045E+04 -3.605489E+04  5.113581E+04  3.023497E+03 -1.420865E+04
       431  21 -6.473598E+05 -6.046183E+04 -4.867894E+04  5.710274E+04  1.489534E+01 -1.684919E+04
       431  22 -3.937796E+05  1.676121E+02 -1.560227E+03  5.689070E+04 -1.177026E+03 -1.066515E+04
       431  23 -3.935897E+05 -6.176328E+01 -2.740934E+03  5.119754E+04 -2.540184E+03 -1.421678E+04
       431  24 -3.937873E+05 -9.808273E+02 -4.992833E+03  5.689247E+04 -3.905072E+03 -1.685448E+04
       431  25 -2.475156E+05  3.424862E+04  2.252357E+04  5.722430E+04 -8.386335E+03 -1.067628E+04
       431  26 -1.937836E+05  4.657486E+04  3.057192E+04  5.125928E+04 -8.105596E+03 -1.422491E+04
       431  27 -1.401515E+05  5.849673E+04  3.869114E+04  5.668208E+04 -7.826592E+03 -1.685976E+04
       432   1 -6.831431E+05 -6.871238E+04 -5.698040E+04  5.549097E+04  7.392328E+01  1.859844E+04
       432   2 -7.334430E+05 -8.677427E+04 -7.792354E+04  5.766564E+04  2.310520E+04  1.655458E+04
       432   3 -7.905707E+05 -1.200437E+05 -1.176773E+05  7.059895E+04  4.614596E+04  5.149613E+03
       432   4 -3.945715E+05 -8.793921E+02 -6.586319E+03  5.674910E+04  4.756721E+03  1.860459E+04
       432   5 -3.926286E+05 -5.410029E+03 -1.203026E+04  5.138470E+04  1.095630E+04  1.653637E+04
       432   6 -3.945875E+05 -2.221925E+04 -2.458498E+04  5.677933E+04  1.716747E+04  5.108832E+03
       432   7 -1.059182E+05  6.694908E+04  4.380488E+04  5.800780E+04  9.441632E+03  1.861077E+04
       432   8 -5.170194E+04  7.594752E+04  5.385817E+04  4.510018E+04 -1.199137E+03  1.651841E+04
       432   9  1.542383E+03  7.559518E+04  6.849985E+04  4.295077E+04 -1.182942E+04  5.069357E+03
       432  10 -6.831432E+05 -6.871275E+04 -5.698105E+04  5.549097E+04 -2.833049E-09  1.176270E-09
       432  11 -7.334437E+05 -8.677471E+04 -7.792506E+04  5.766533E+04 -9.158928E-10 -1.854670E-09
       432  12 -7.905730E+05 -1.200443E+05 -1.176814E+05  7.059876E+04 -1.896574E-09 -4.687330E-10
       432  13 -3.945716E+05 -8.797697E+02 -6.587012E+03  5.674903E+04  1.871676E-09  2.101989E-09
       432  14 -3.926288E+05 -5.410355E+03 -1.203100E+04  5.138455E+04  2.071049E-09 -4.626390E-09
       432  15 -3.945878E+05 -2.221936E+04 -2.458559E+04  5.677926E+04 -3.519207E-10  8.514521E-10
       432  16 -1.059184E+05  6.694869E+04  4.380407E+04  5.800766E+04  2.328710E-09 -4.861916E-10
       432  17 -5.170201E+04  7.594723E+04  5.385765E+04  4.510019E+04  3.449030E-09 -1.070325E-09
       432  18  1.542226E+03  7.559512E+04  6.849954E+04  4.295082E+04  1.459355E-09 -8.723359E-10
       432  19 -6.831431E+05 -6.871238E+04 -5.698040E+04  5.549097E+04 -7.392328E+01 -1.859844E+04
       432  20 -7.334430E+05 -8.677427E+04 -7.792354E+04  5.766564E+04 -2.310520E+04 -1.655458E+04
       432  21 -7.905707E+05 -1.200437E+05 -1.176773E+05  7.059895E+04 -4.614596E+04 -5.149613E+03
       432  22 -3.945715E+05 -8.793921E+02 -6.586319E+03  5.674910E+04 -4.756721E+03 -1.860459E+04
       432  23 -3.926286E+05 -5.410029E+03 -1.203026E+04  5.138470E+04 -1.095630E+04 -1.653637E+04
       432  24 -3.945875E+05 -2.221925E+04 -2.458498E+04  5.677933E+04 -1.716747E+04 -5.108832E+03
       432  25 -1.059182E+05  6.694908E+04  4.380488E+04  5.800780E+04 -9.441632E+03 -1.861077E+04
       432  26 -5.170194E+04  7.594752E+04  5.385817E+04  4.510018E+04  1.199137E+03 -1.651841E+04
       432  27  1.542383E+03  7.559518E+04  6.849985E+04  4.295077E+04  1.182942E+04 -5.069357E+03
       433   1 -1.909044E+05  5.852744E+04  3.870790E+04 -6.156170E+03 -5.115379E+04 -5.872103E+03
       433   2 -2.176815E+05  1.285059E+05  7.494263E+04  3.117122E+02 -3.710619E+04 -1.774833E+04
       433   3 -2.669960E+05  1.152401E+05  8.125486E+04  3.024177E+04 -2.307727E+04 -1.712350E+04
       433   4 -7.169780E+05 -7.251761E+04 -9.059152E+04  1.942337E+04 -6.200221E+04 -5.889344E+03
       433   5 -7.050313E+05  8.021393E+03 -4.004047E+04  7.635105E+03 -4.047155E+04 -1.775512E+04
       433   6 -7.169432E+05  3.979359E+03 -2.463044E+04  1.931078E+04 -1.895840E+04 -1.711631E+04
       433   7 -1.242798E+06 -2.035807E+05 -2.199105E+05  4.498111E+04 -7.284143E+04 -5.907488E+03
       433   8 -1.192162E+06 -1.124799E+05 -1.550399E+05  1.495263E+04 -4.383428E+04 -1.776200E+04
       433   9 -1.166704E+06 -1.072954E+05 -1.305296E+05  8.387683E+03 -1.484250E+04 -1.710927E+04
       433  10 -1.909072E+05  5.852670E+04  3.870292E+04 -6.156412E+03 -5.403865E-09  1.797654E-09
       433  11 -2.176831E+05  1.285052E+05  7.493945E+04  3.111819E+02 -3.863497E-10  7.708126E-09
       433  12 -2.669967E+05  1.152396E+05  8.125331E+04  3.024145E+04  4.545857E-09  4.252174E-09
       433  13 -7.169821E+05 -7.251868E+04 -9.059881E+04  1.942308E+04 -5.686601E-10 -9.835063E-10
       433  14 -7.050332E+05  8.020614E+03 -4.004414E+04  7.634526E+03  1.564486E-09 -2.848174E-09
       433  15 -7.169437E+05  3.978948E+03 -2.463167E+04  1.931052E+04  1.039412E-10 -1.055741E-09
       433  16 -1.242803E+06 -2.035821E+05 -2.199206E+05  4.498076E+04  5.214901E-09  3.035236E-11
       433  17 -1.192164E+06 -1.124808E+05 -1.550441E+05  1.495200E+04 -3.437815E-09  6.772399E-09
       433  18 -1.166704E+06 -1.072957E+05 -1.305305E+05  8.387478E+03 -5.211451E-09  1.920853E-09
       433  19 -1.909044E+05  5.852744E+04  3.870790E+04 -6.156170E+03  5.115379E+04  5.872103E+03
       433  20 -2.176815E+05  1.285059E+05  7.494263E+04  3.117122E+02  3.710619E+04  1.774833E+04
       433  21 -2.669960E+05  1.152401E+05  8.125486E+04  3.024177E+04  2.307727E+04  1.712350E+04
       433  22 -7.169780E+05 -7.251761E+04 -9.059152E+04  1.942337E+04  6.200221E+04  5.889344E+03
       433  23 -7.050313E+05  8.021393E+03 -4.004047E+04  7.635105E+03  4.047155E+04  1.775512E+04
       433  24 -7.169432E+05  3.979359E+03 -2.463044E+04  1.931078E+04  1.895840E+04  1.711631E+04
       433  25 -1.242798E+06 -2.035807E+05 -2.199105E+05  4.498111E+04  7.284143E+04  5.907488E+03
       433  26 -1.192162E+06 -1.124799E+05 -1.550399E+05  1.495263E+04  4.383428E+04  1.776200E+04
       433  27 -1.166704E+06 -1.072954E+05 -1.305296E+05  8.387683E+03  1.484250E+04  1.710927E+04
       434   1 -3.055054E+05  9.404731E+04  7.610607E+04  1.808790E+04 -1.554302E+04 -1.446788E+04
       434   2 -3.430959E+05  9.173580E+04  7.635279E+04  7.431725E+03 -1.072519E+04 -1.355621E+04
       434   3 -3.832360E+05  8.181705E+04  7.155639E+04  2.115648E+04 -5.910356E+03 -1.187542E+04
       434   4 -7.122225E+05 -6.551223E+03 -1.998853E+04  1.955957E+04 -1.522588E+04 -1.446794E+04
       434   5 -7.109007E+05  7.907548E+02 -1.036465E+04  7.361372E+03 -9.949891E+03 -1.355509E+04
       434   6 -7.122120E+05  4.431126E+02 -6.104886E+03  1.954512E+04 -4.676591E+03 -1.187293E+04
       434   7 -1.118787E+06 -1.071616E+05 -1.160946E+05  2.103020E+04 -1.490895E+04 -1.446800E+04
       434   8 -1.078581E+06 -9.016397E+04 -9.709143E+04  7.290994E+03 -9.175042E+03 -1.355396E+04
       434   9 -1.041088E+06 -8.093857E+04 -8.377364E+04  1.793457E+04 -3.443476E+03 -1.187044E+04
       434  10 -3.055057E+05  9.404702E+04  7.610522E+04  1.808772E+04 -5.515637E-09  1.379329E-10
       434  11 -3.430961E+05  9.173557E+04  7.635223E+04  7.431608E+03  1.191801E-10  1.860025E-09
       434  12 -3.832361E+05  8.181689E+04  7.155606E+04  2.115642E+04  4.384571E-09  9.623125E-09
       434  13 -7.122228E+05 -6.551510E+03 -1.998936E+04  1.955940E+04 -4.661957E-10  5.866469E-09
       434  14 -7.109009E+05  7.905310E+02 -1.036518E+04  7.361263E+03  1.615654E-09 -1.308487E-08
       434  15 -7.122120E+05  4.429554E+02 -6.105192E+03  1.954508E+04  5.189734E-10  8.503703E-09
       434  16 -1.118788E+06 -1.071619E+05 -1.160954E+05  2.103002E+04  6.477673E-09 -2.977507E-09
       434  17 -1.078581E+06 -9.016419E+04 -9.709194E+04  7.290893E+03 -1.335616E-09 -1.184171E-09
       434  18 -1.041088E+06 -8.093872E+04 -8.377393E+04  1.793453E+04 -3.353754E-09  2.037955E-09
       434  19 -3.055054E+05  9.404731E+04  7.610607E+04  1.808790E+04  1.554302E+04  1.446788E+04
       434  20 -3.430959E+05  9.173580E+04  7.635279E+04  7.431725E+03  1.072519E+04  1.355621E+04
       434  21 -3.832360E+05  8.181705E+04  7.155639E+04  2.115648E+04  5.910356E+03  1.187542E+04
       434  22 -7.122225E+05 -6.551223E+03 -1.998853E+04  1.955957E+04  1.522588E+04  1.446794E+04
       434  23 -7.109007E+05  7.907548E+02 -1.036465E+04  7.361372E+03  9.949891E+03  1.355509E+04
       434  24 -7.122120E+05  4.431126E+02 -6.104886E+03  1.954512E+04  4.676591E+03  1.187293E+04
       434  25 -1.118787E+06 -1.071616E+05 -1.160946E+05  2.103020E+04  1.490895E+04  1.446800E+04
       434  26 -1.078581E+06 -9.016397E+04 -9.709143E+04  7.290994E+03  9.175042E+03  1.355396E+04
       434  27 -1.041088E+06 -8.093857E+04 -8.377364E+04  1.793457E+04  3.443476E+03  1.187044E+04
       435   1 -4.268254E+05  6.992457E+04  6.230921E+04  2.006599E+04 -4.731060E+03 -1.075591E+04
       435   2 -4.661679E+05  6.077969E+04  5.517721E+04  7.700699E+03 -3.437000E+03 -9.045625E+03
       435   3 -5.059336E+05  5.105181E+04  4.703244E+04  2.018126E+04 -2.143930E+03 -7.280334E+03
       435   4 -7.117157E+05 -5.037471E+02 -4.760921E+03  1.965384E+04 -3.722701E+03 -1.075378E+04
       435   5 -7.114981E+05  1.121162E+02 -2.665248E+03  7.229808E+03 -2.396226E+03 -9.043204E+03
       435   6 -7.117105E+05  1.393810E+02 -1.605015E+03  1.965223E+04 -1.070660E+03 -7.277607E+03
       435   7 -9.965313E+05 -7.093786E+04 -7.183664E+04  1.924184E+04 -2.714802E+03 -1.075165E+04
       435   8 -9.567729E+05 -6.055976E+04 -6.051186E+04  6.759069E+03 -1.355862E+03 -9.040784E+03
       435   9 -9.174484E+05 -5.077608E+04 -5.024540E+04  1.912336E+04  2.256653E+00 -7.274880E+03
       435  10 -4.268255E+05  6.992444E+04  6.230895E+04  2.006594E+04  4.949944E-09 -4.875295E-10
       435  11 -4.661679E+05  6.077960E+04  5.517704E+04  7.700674E+03  1.535932E-09 -4.756526E-09
       435  12 -5.059336E+05  5.105175E+04  4.703233E+04  2.018124E+04 -1.952356E-09 -3.275069E-09
       435  13 -7.117158E+05 -5.038750E+02 -4.761165E+03  1.965381E+04 -1.067829E-09  9.073445E-10
       435  14 -7.114981E+05  1.120269E+02 -2.665412E+03  7.229791E+03  2.696681E-09 -4.037266E-09
       435  15 -7.117105E+05  1.393238E+02 -1.605117E+03  1.965223E+04  1.100629E-10 -3.843030E-09
       435  16 -9.965313E+05 -7.093799E+04 -7.183687E+04  1.924181E+04 -2.508730E-09 -3.513292E-09
       435  17 -9.567729E+05 -6.055985E+04 -6.051201E+04  6.759060E+03 -3.254318E-09  2.187187E-09
       435  18 -9.174484E+05 -5.077614E+04 -5.024550E+04  1.912336E+04  9.151986E-10  6.597129E-09
       435  19 -4.268254E+05  6.992457E+04  6.230921E+04  2.006599E+04  4.731060E+03  1.075591E+04
       435  20 -4.661679E+05  6.077969E+04  5.517721E+04  7.700699E+03  3.437000E+03  9.045625E+03
       435  21 -5.059336E+05  5.105181E+04  4.703244E+04  2.018126E+04  2.143930E+03  7.280334E+03
       435  22 -7.117157E+05 -5.037471E+02 -4.760921E+03  1.965384E+04  3.722701E+03  1.075378E+04
       435  23 -7.114981E+05  1.121162E+02 -2.665248E+03  7.229808E+03  2.396226E+03  9.043204E+03
       435  24 -7.117105E+05  1.393810E+02 -1.605015E+03  1.965223E+04  1.070660E+03  7.277607E+03
       435  25 -9.965313E+05 -7.093786E+04 -7.183664E+04  1.924184E+04  2.714802E+03  1.075165E+04
       435  26 -9.567729E+05 -6.055976E+04 -6.051186E+04  6.759069E+03  1.355862E+03  9.040784E+03
       435  27 -9.174484E+05 -5.077608E+04 -5.024540E+04  1.912336E+04 -2.256653E+00  7.274880E+03
       436   1 -5.505914E+05  3.986546E+04  3.657386E+04  2.004929E+04 -1.876683E+03 -6.241413E+03
       436   2 -5.904644E+05  3.000150E+04  2.767081E+04  7.416617E+03 -1.449259E+03 -4.465123E+03
       436   3 -6.305382E+05  2.020232E+04  1.846987E+04  1.989322E+04 -1.022280E+03 -2.681628E+03
       436   4 -7.116558E+05  5.739034E+01 -1.284471E+03  1.971130E+04 -8.143679E+02 -6.238605E+03
       436   5 -7.115530E+05  5.514501E+01 -8.807416E+02  7.156427E+03 -3.827500E+02 -4.462198E+03
       436   6 -7.116534E+05  1.170267E+02 -7.778055E+02  1.971114E+04  4.845012E+01 -2.678579E+03
       436   7 -8.726962E+05 -3.975253E+04 -3.914458E+04  1.937338E+04  2.476732E+02 -6.235798E+03
       436   8 -8.326282E+05 -2.989226E+04 -2.943330E+04  6.896279E+03  6.835517E+02 -4.459273E+03
       436   9 -7.927626E+05 -1.996874E+04 -2.002593E+04  1.952907E+04  1.119040E+03 -2.675530E+03
       436  10 -5.505915E+05  3.986541E+04  3.657378E+04  2.004928E+04  9.795699E-10 -5.744484E-09
       436  11 -5.904644E+05  3.000148E+04  2.767077E+04  7.416611E+03 -2.107899E-09  2.417448E-10
       436  12 -6.305382E+05  2.020231E+04  1.846985E+04  1.989322E+04 -7.822658E-09  1.117551E-09
       436  13 -7.116558E+05  5.734838E+01 -1.284545E+03  1.971129E+04  3.321166E-11  2.324830E-09
       436  14 -7.115530E+05  5.512359E+01 -8.807793E+02  7.156426E+03  4.095213E-10 -6.436538E-09
       436  15 -7.116534E+05  1.170190E+02 -7.778190E+02  1.971114E+04 -2.756826E-11 -3.627762E-09
       436  16 -8.726962E+05 -3.975257E+04 -3.914465E+04  1.937338E+04  6.800942E-11  3.860787E-09
       436  17 -8.326282E+05 -2.989229E+04 -2.943334E+04  6.896281E+03 -8.838785E-10  8.210427E-09
       436  18 -7.927626E+05 -1.996875E+04 -2.002595E+04  1.952907E+04  5.974830E-09  5.907956E-10
       436  19 -5.505914E+05  3.986546E+04  3.657386E+04  2.004929E+04  1.876683E+03  6.241413E+03
       436  20 -5.904644E+05  3.000150E+04  2.767081E+04  7.416617E+03  1.449259E+03  4.465123E+03
       436  21 -6.305382E+05  2.020232E+04  1.846987E+04  1.989322E+04  1.022280E+03  2.681628E+03
       436  22 -7.116558E+05  5.739034E+01 -1.284471E+03  1.971130E+04  8.143679E+02  6.238605E+03
       436  23 -7.115530E+05  5.514501E+01 -8.807416E+02  7.156427E+03  3.827500E+02  4.462198E+03
       436  24 -7.116534E+05  1.170267E+02 -7.778055E+02  1.971114E+04 -4.845012E+01  2.678579E+03
       436  25 -8.726962E+05 -3.975253E+04 -3.914458E+04  1.937338E+04 -2.476732E+02  6.235798E+03
       436  26 -8.326282E+05 -2.989226E+04 -2.943330E+04  6.896279E+03 -6.835517E+02  4.459273E+03
       436  27 -7.927626E+05 -1.996874E+04 -2.002593E+04  1.952907E+04 -1.119040E+03  2.675530E+03
       437   1 -6.755646E+05  9.021661E+03  7.573692E+03  1.979178E+04 -8.821390E+02 -1.641053E+03
       437   2 -7.155508E+05 -9.287371E+02 -2.034143E+03  7.109901E+03 -3.463946E+02  1.467118E+02
       437   3 -7.557744E+05 -1.083750E+04 -1.202002E+04  1.962226E+04  1.893263E+02  1.932317E+03
       437   4 -7.116601E+05  1.186754E+02 -8.171368E+02  1.972993E+04  1.893476E+02 -1.637967E+03
       437   5 -7.115406E+05  6.320715E+01 -1.088464E+03  7.132919E+03  7.237590E+02  1.497881E+02
       437   6 -7.116603E+05  4.956355E+01 -1.736966E+03  1.973013E+04  1.258181E+03  1.935389E+03
       437   7 -7.477543E+05 -8.784402E+03 -9.208049E+03  1.966808E+04  1.260772E+03 -1.634880E+03
       437   8 -7.075304E+05  1.055151E+03 -1.427808E+02  7.155938E+03  1.793920E+03  1.528645E+02
       437   9 -6.675445E+05  1.093649E+04  8.545964E+03  1.983801E+04  2.327112E+03  1.938461E+03
       437  10 -6.755646E+05  9.021658E+03  7.573685E+03  1.979178E+04 -2.865251E-09 -1.355793E-09
       437  11 -7.155508E+05 -9.287371E+02 -2.034143E+03  7.109901E+03  1.832920E-09 -4.819293E-09
       437  12 -7.557744E+05 -1.083751E+04 -1.202003E+04  1.962225E+04 -6.196887E-09 -3.318519E-09
       437  13 -7.116601E+05  1.186725E+02 -8.171419E+02  1.972993E+04 -4.753654E-10  6.386952E-09
       437  14 -7.115406E+05  6.320699E+01 -1.088465E+03  7.132919E+03  4.682935E-10 -6.152191E-09
       437  15 -7.116603E+05  4.955910E+01 -1.736976E+03  1.973013E+04  1.720426E-10 -4.108829E-09
       437  16 -7.477543E+05 -8.784405E+03 -9.208057E+03  1.966808E+04  2.897749E-09  5.086479E-11
       437  17 -7.075304E+05  1.055150E+03 -1.427869E+02  7.155937E+03 -1.057839E-09 -1.339817E-08
       437  18 -6.675445E+05  1.093649E+04  8.545947E+03  1.983801E+04  5.294525E-09 -7.016738E-09
       437  19 -6.755646E+05  9.021661E+03  7.573692E+03  1.979178E+04  8.821390E+02  1.641053E+03
       437  20 -7.155508E+05 -9.287371E+02 -2.034143E+03  7.109901E+03  3.463946E+02 -1.467118E+02
       437  21 -7.557744E+05 -1.083750E+04 -1.202002E+04  1.962226E+04 -1.893263E+02 -1.932317E+03
       437  22 -7.116601E+05  1.186754E+02 -8.171368E+02  1.972993E+04 -1.893476E+02  1.637967E+03
       437  23 -7.115406E+05  6.320715E+01 -1.088464E+03  7.132919E+03 -7.237590E+02 -1.497881E+02
       437  24 -7.116603E+05  4.956355E+01 -1.736966E+03  1.973013E+04 -1.258181E+03 -1.935389E+03
       437  25 -7.477543E+05 -8.784402E+03 -9.208049E+03  1.966808E+04 -1.260772E+03  1.634880E+03
       437  26 -7.075304E+05  1.055151E+03 -1.427808E+02  7.155938E+03 -1.793920E+03 -1.528645E+02
       437  27 -6.675445E+05  1.093649E+04  8.545964E+03  1.983801E+04 -2.327112E+03 -1.938461E+03
       438   1 -8.008663E+05 -2.190355E+04 -2.335716E+04  1.935446E+04  5.313666E+02  2.977454E+03
       438   2 -8.405018E+05 -3.176351E+04 -3.419559E+04  6.887633E+03  2.427303E+03  4.761722E+03
       438   3 -8.807669E+05 -4.251391E+04 -4.652776E+04  1.951777E+04  4.323677E+03  6.504678E+03
       438   4 -7.117479E+05  1.642738E+02 -2.220759E+03  1.970755E+04  1.610191E+03  2.980515E+03
       438   5 -7.114365E+05  1.603848E+02 -3.758313E+03  7.160463E+03  3.481699E+03  4.764595E+03
       438   6 -7.117513E+05 -7.292824E+02 -6.772112E+03  1.971002E+04  5.353764E+03  6.507372E+03
       438   7 -6.226221E+05  2.223153E+04  1.891510E+04  2.006069E+04  2.689170E+03  2.983576E+03
       438   8 -5.823559E+05  3.208308E+04  2.667782E+04  7.433339E+03  4.536312E+03  4.767468E+03
       438   9 -5.427093E+05  4.105331E+04  3.298158E+04  1.990230E+04  6.384129E+03  6.510066E+03
       438  10 -8.008663E+05 -2.190356E+04 -2.335718E+04  1.935446E+04 -6.272401E-09 -2.158968E-09
       438  11 -8.405018E+05 -3.176353E+04 -3.419564E+04  6.887623E+03  2.663681E-10 -8.964130E-09
       438  12 -8.807669E+05 -4.251396E+04 -4.652787E+04  1.951775E+04 -9.426543E-10 -1.120234E-09
       438  13 -7.117479E+05  1.642635E+02 -2.220780E+03  1.970755E+04  2.142694E-09 -1.117321E-09
       438  14 -7.114366E+05  1.603572E+02 -3.758378E+03  7.160449E+03  1.486270E-09 -9.237404E-10
       438  15 -7.117513E+05 -7.293356E+02 -6.772245E+03  1.970999E+04  1.108380E-09  1.695685E-09
       438  16 -6.226221E+05  2.223152E+04  1.891507E+04  2.006068E+04  3.950717E-09  4.322721E-09
       438  17 -5.823559E+05  3.208305E+04  2.667773E+04  7.433322E+03  6.040257E-10 -6.928876E-09
       438  18 -5.427094E+05  4.105325E+04  3.298142E+04  1.990227E+04  2.063408E-09  5.306320E-09
       438  19 -8.008663E+05 -2.190355E+04 -2.335716E+04  1.935446E+04 -5.313666E+02 -2.977454E+03
       438  20 -8.405018E+05 -3.176351E+04 -3.419559E+04  6.887633E+03 -2.427303E+03 -4.761722E+03
       438  21 -8.807669E+05 -4.251391E+04 -4.652776E+04  1.951777E+04 -4.323677E+03 -6.504678E+03
       438  22 -7.117479E+05  1.642738E+02 -2.220759E+03  1.970755E+04 -1.610191E+03 -2.980515E+03
       438  23 -7.114365E+05  1.603848E+02 -3.758313E+03  7.160463E+03 -3.481699E+03 -4.764595E+03
       438  24 -7.117513E+05 -7.292824E+02 -6.772112E+03  1.971002E+04 -5.353764E+03 -6.507372E+03
       438  25 -6.226221E+05  2.223153E+04  1.891510E+04  2.006069E+04 -2.689170E+03 -2.983576E+03
       438  26 -5.823559E+05  3.208308E+04  2.667782E+04  7.433339E+03 -4.536312E+03 -4.767468E+03
       438  27 -5.427093E+05  4.105331E+04  3.298158E+04  1.990230E+04 -6.384129E+03 -6.510066E+03
       439   1 -9.261482E+05 -5.226657E+04 -5.920092E+04  1.774256E+04  5.502391E+03  7.618679E+03
       439   2 -9.637214E+05 -6.147275E+04 -7.448684E+04  7.506616E+03  1.338611E+04  9.350682E+03
       439   3 -1.005198E+06 -8.175880E+04 -9.770486E+04  2.209081E+04  2.127154E+04  1.047034E+04
       439   4 -7.124693E+05  6.196049E+02 -8.699727E+03  1.963931E+04  6.713058E+03  7.621755E+03
       439   5 -7.105546E+05  1.147664E+03 -1.477482E+04  7.241805E+03  1.423253E+04  9.352557E+03
       439   6 -7.124795E+05 -9.338042E+03 -2.852625E+04  1.966394E+04  2.175422E+04  1.047107E+04
       439   7 -4.987484E+05  5.350252E+04  4.179831E+04  2.153669E+04  7.924139E+03  7.624838E+03
       439   8 -4.573287E+05  6.376349E+04  4.493278E+04  6.976848E+03  1.507930E+04  9.354431E+03
       439   9 -4.196819E+05  6.307659E+04  4.064644E+04  1.723586E+04  2.223712E+04  1.047180E+04
       439  10 -9.261482E+05 -5.226664E+04 -5.920109E+04  1.774252E+04  4.573336E-09 -3.557296E-10
       439  11 -9.637216E+05 -6.147289E+04 -7.448734E+04  7.506515E+03  2.402199E-09  2.098770E-09
       439  12 -1.005199E+06 -8.175904E+04 -9.770592E+04  2.209063E+04 -6.415168E-10 -3.631240E-09
       439  13 -7.124694E+05  6.195304E+02 -8.699921E+03  1.963927E+04 -5.685277E-10 -7.965808E-09
       439  14 -7.105548E+05  1.147515E+03 -1.477536E+04  7.241698E+03  5.912233E-10  3.171011E-09
       439  15 -7.124800E+05 -9.338287E+03 -2.852734E+04  1.966375E+04 -3.492799E-10  1.529485E-09
       439  16 -4.987485E+05  5.350244E+04  4.179808E+04  2.153665E+04 -3.888997E-09 -9.692054E-10
       439  17 -4.573289E+05  6.376334E+04  4.493219E+04  6.976735E+03 -4.815636E-09 -1.095124E-08
       439  18 -4.196825E+05  6.307634E+04  4.064530E+04  1.723568E+04  3.374437E-10  1.049668E-09
       439  19 -9.261482E+05 -5.226657E+04 -5.920092E+04  1.774256E+04 -5.502391E+03 -7.618679E+03
       439  20 -9.637214E+05 -6.147275E+04 -7.448684E+04  7.506616E+03 -1.338611E+04 -9.350682E+03
       439  21 -1.005198E+06 -8.175880E+04 -9.770486E+04  2.209081E+04 -2.127154E+04 -1.047034E+04
       439  22 -7.124693E+05  6.196049E+02 -8.699727E+03  1.963931E+04 -6.713058E+03 -7.621755E+03
       439  23 -7.105546E+05  1.147664E+03 -1.477482E+04  7.241805E+03 -1.423253E+04 -9.352557E+03
       439  24 -7.124795E+05 -9.338042E+03 -2.852625E+04  1.966394E+04 -2.175422E+04 -1.047107E+04
       439  25 -4.987484E+05  5.350252E+04  4.179831E+04  2.153669E+04 -7.924139E+03 -7.624838E+03
       439  26 -4.573287E+05  6.376349E+04  4.493278E+04  6.976848E+03 -1.507930E+04 -9.354431E+03
       439  27 -4.196819E+05  6.307659E+04  4.064644E+04  1.723586E+04 -2.223712E+04 -1.047180E+04
       440   1 -1.055990E+06 -7.766989E+04 -1.144696E+05  4.157960E+03  2.356925E+04  1.280435E+04
       440   2 -1.077361E+06 -8.128370E+04 -1.457019E+05  1.813031E+04  6.023156E+04  1.374795E+04
       440   3 -1.134011E+06 -2.067638E+05 -2.313025E+05  5.631865E+04  9.691065E+04  4.713931E+03
       440   4 -7.192302E+05  5.695129E+03 -3.515658E+04  1.944590E+04  2.708413E+04  1.281261E+04
       440   5 -7.021407E+05  1.149324E+04 -5.713140E+04  7.447581E+03  5.778280E+04  1.374109E+04
       440   6 -7.192739E+05 -1.035011E+05 -1.293074E+05  1.966715E+04  8.850103E+04  4.691540E+03
       440   7 -3.823650E+05  8.905290E+04  4.414884E+04  3.474213E+04  3.060091E+04  1.282105E+04
       440   8 -3.267900E+05  1.042606E+05  3.142943E+04 -3.241717E+03  5.533256E+04  1.373431E+04
       440   9 -3.043770E+05 -2.459864E+02 -2.732394E+04 -1.700898E+04  8.008578E+04  4.670152E+03
       440  10 -1.055991E+06 -7.767022E+04 -1.144710E+05  4.157717E+03  8.698470E-09 -3.128812E-09
       440  11 -1.077365E+06 -8.128488E+04 -1.457091E+05  1.812964E+04  4.843345E-09  1.305288E-09
       440  12 -1.134021E+06 -2.067663E+05 -2.313202E+05  5.631828E+04 -4.948540E-09  4.771929E-09
       440  13 -7.192310E+05  5.694755E+03 -3.515827E+04  1.944562E+04  1.072984E-09  1.160642E-09
       440  14 -7.021444E+05  1.149214E+04 -5.713804E+04  7.446941E+03  5.720483E-11  7.517674E-09
       440  15 -7.192823E+05 -1.035032E+05 -1.293222E+05  1.966682E+04 -1.910982E-10  2.079223E-09
       440  16 -3.823660E+05  8.905247E+04  4.414677E+04  3.474181E+04 -8.343621E-09  4.194289E-09
       440  17 -3.267933E+05  1.042595E+05  3.142331E+04 -3.242329E+03 -3.508837E-09  6.764547E-09
       440  18 -3.043839E+05 -2.477327E+02 -2.733604E+04 -1.700928E+04  4.062573E-09 -1.765032E-10
       440  19 -1.055990E+06 -7.766989E+04 -1.144696E+05  4.157960E+03 -2.356925E+04 -1.280435E+04
       440  20 -1.077361E+06 -8.128370E+04 -1.457019E+05  1.813031E+04 -6.023156E+04 -1.374795E+04
       440  21 -1.134011E+06 -2.067638E+05 -2.313025E+05  5.631865E+04 -9.691065E+04 -4.713931E+03
       440  22 -7.192302E+05  5.695129E+03 -3.515658E+04  1.944590E+04 -2.708413E+04 -1.281261E+04
       440  23 -7.021407E+05  1.149324E+04 -5.713140E+04  7.447581E+03 -5.778280E+04 -1.374109E+04
       440  24 -7.192739E+05 -1.035011E+05 -1.293074E+05  1.966715E+04 -8.850103E+04 -4.691540E+03
       440  25 -3.823650E+05  8.905290E+04  4.414884E+04  3.474213E+04 -3.060091E+04 -1.282105E+04
       440  26 -3.267900E+05  1.042606E+05  3.142943E+04 -3.241717E+03 -5.533256E+04 -1.373431E+04
       440  27 -3.043770E+05 -2.459864E+02 -2.732394E+04 -1.700898E+04 -8.008578E+04 -4.670152E+03
