    1C
    1UUSER                                                              
    1UDATE              11.october.2022                                 
    1UTIME              18:54:29                                        
    1UHOST                                                              
    1UPGM               CalculiX                                        
    1UVERSION           Version 2.20                             
    1UCOMPILETIME       Sun Jul 31 18:08:37 CEST 2022                    
    1UDIR                                                               
    1UDBN                                                               
    1UMAT    1MESH_MATERIAL                                             
    2C                           409                                     1
 -1         1 0.00000E+00 0.00000E+00 0.00000E+00
 -1         2 1.66667E-02 0.00000E+00 0.00000E+00
 -1         3 3.33333E-02 0.00000E+00 0.00000E+00
 -1         5 6.66667E-02 0.00000E+00 0.00000E+00
 -1         8 0.00000E+00 6.25000E-03 0.00000E+00
 -1         9 1.66667E-02 6.25000E-03 0.00000E+00
 -1        10 3.33333E-02 6.25000E-03 0.00000E+00
 -1        12 6.66667E-02 6.25000E-03 0.00000E+00
 -1        15 0.00000E+00 1.25000E-02 0.00000E+00
 -1        16 1.66667E-02 1.25000E-02 0.00000E+00
 -1        17 3.33333E-02 1.25000E-02 0.00000E+00
 -1        18 5.00000E-02 1.25000E-02 0.00000E+00
 -1        19 6.66667E-02 1.25000E-02 0.00000E+00
 -1        20 8.33333E-02 1.25000E-02 0.00000E+00
 -1        21 1.00000E-01 1.25000E-02 0.00000E+00
 -1        24 3.33333E-02 1.87500E-02 0.00000E+00
 -1        25 5.00000E-02 1.87500E-02 0.00000E+00
 -1        26 6.66667E-02 1.87500E-02 0.00000E+00
 -1        27 8.33333E-02 1.87500E-02 0.00000E+00
 -1        28 1.00000E-01 1.87500E-02 0.00000E+00
 -1        32 5.00000E-02 2.50000E-02 0.00000E+00
 -1        33 6.66667E-02 2.50000E-02 0.00000E+00
 -1        34 8.33333E-02 2.50000E-02 0.00000E+00
 -1        35 1.00000E-01 2.50000E-02 0.00000E+00
 -1        51 0.00000E+00 1.04167E-03 0.00000E+00
 -1        52 0.00000E+00 2.08333E-03 0.00000E+00
 -1        53 0.00000E+00 3.12500E-03 0.00000E+00
 -1        54 0.00000E+00 4.16667E-03 0.00000E+00
 -1        55 0.00000E+00 5.20833E-03 0.00000E+00
 -1        56 1.04167E-03 3.90630E-04 0.00000E+00
 -1        57 2.08333E-03 7.81250E-04 0.00000E+00
 -1        58 3.12500E-03 1.17188E-03 0.00000E+00
 -1        59 4.16667E-03 1.56250E-03 0.00000E+00
 -1        60 5.20833E-03 1.95312E-03 0.00000E+00
 -1        61 6.25000E-03 2.34375E-03 0.00000E+00
 -1        62 7.29167E-03 2.73438E-03 0.00000E+00
 -1        63 8.33333E-03 3.12500E-03 0.00000E+00
 -1        64 9.37500E-03 3.51563E-03 0.00000E+00
 -1        65 1.04167E-02 3.90625E-03 0.00000E+00
 -1        66 1.14583E-02 4.29688E-03 0.00000E+00
 -1        67 1.25000E-02 4.68750E-03 0.00000E+00
 -1        68 1.35417E-02 5.07813E-03 0.00000E+00
 -1        69 1.45833E-02 5.46875E-03 0.00000E+00
 -1        70 1.56250E-02 5.85938E-03 0.00000E+00
 -1        86 1.66667E-02 1.04167E-03 0.00000E+00
 -1        87 1.66667E-02 2.08333E-03 0.00000E+00
 -1        88 1.66667E-02 3.12500E-03 0.00000E+00
 -1        89 1.66667E-02 4.16667E-03 0.00000E+00
 -1        90 1.66667E-02 5.20833E-03 0.00000E+00
 -1       121 3.33333E-02 1.04167E-03 0.00000E+00
 -1       122 3.33333E-02 2.08333E-03 0.00000E+00
 -1       123 3.33333E-02 3.12500E-03 0.00000E+00
 -1       124 3.33333E-02 4.16667E-03 0.00000E+00
 -1       125 3.33333E-02 5.20833E-03 0.00000E+00
 -1       191 6.66667E-02 1.04167E-03 0.00000E+00
 -1       192 6.66667E-02 2.08333E-03 0.00000E+00
 -1       193 6.66667E-02 3.12500E-03 0.00000E+00
 -1       194 6.66667E-02 4.16667E-03 0.00000E+00
 -1       195 6.66667E-02 5.20833E-03 0.00000E+00
 -1       251 1.04167E-03 6.25000E-03 0.00000E+00
 -1       252 2.08333E-03 6.25000E-03 0.00000E+00
 -1       253 3.12500E-03 6.25000E-03 0.00000E+00
 -1       254 4.16667E-03 6.25000E-03 0.00000E+00
 -1       255 5.20833E-03 6.25000E-03 0.00000E+00
 -1       256 6.25000E-03 6.25000E-03 0.00000E+00
 -1       257 7.29167E-03 6.25000E-03 0.00000E+00
 -1       258 8.33333E-03 6.25000E-03 0.00000E+00
 -1       259 9.37500E-03 6.25000E-03 0.00000E+00
 -1       260 1.04167E-02 6.25000E-03 0.00000E+00
 -1       261 1.14583E-02 6.25000E-03 0.00000E+00
 -1       262 1.25000E-02 6.25000E-03 0.00000E+00
 -1       263 1.35417E-02 6.25000E-03 0.00000E+00
 -1       264 1.45833E-02 6.25000E-03 0.00000E+00
 -1       265 1.56250E-02 6.25000E-03 0.00000E+00
 -1       266 0.00000E+00 7.29167E-03 0.00000E+00
 -1       267 0.00000E+00 8.33333E-03 0.00000E+00
 -1       268 0.00000E+00 9.37500E-03 0.00000E+00
 -1       269 0.00000E+00 1.04167E-02 0.00000E+00
 -1       270 0.00000E+00 1.14583E-02 0.00000E+00
 -1       271 1.04167E-03 6.64063E-03 0.00000E+00
 -1       272 2.08333E-03 7.03125E-03 0.00000E+00
 -1       273 3.12500E-03 7.42188E-03 0.00000E+00
 -1       274 4.16667E-03 7.81250E-03 0.00000E+00
 -1       275 5.20833E-03 8.20313E-03 0.00000E+00
 -1       276 6.25000E-03 8.59375E-03 0.00000E+00
 -1       277 7.29167E-03 8.98438E-03 0.00000E+00
 -1       278 8.33333E-03 9.37500E-03 0.00000E+00
 -1       279 9.37500E-03 9.76562E-03 0.00000E+00
 -1       280 1.04167E-02 1.01562E-02 0.00000E+00
 -1       281 1.14583E-02 1.05469E-02 0.00000E+00
 -1       282 1.25000E-02 1.09375E-02 0.00000E+00
 -1       283 1.35417E-02 1.13281E-02 0.00000E+00
 -1       284 1.45833E-02 1.17188E-02 0.00000E+00
 -1       285 1.56250E-02 1.21094E-02 0.00000E+00
 -1       301 1.66667E-02 7.29167E-03 0.00000E+00
 -1       302 1.66667E-02 8.33333E-03 0.00000E+00
 -1       303 1.66667E-02 9.37500E-03 0.00000E+00
 -1       304 1.66667E-02 1.04167E-02 0.00000E+00
 -1       305 1.66667E-02 1.14583E-02 0.00000E+00
 -1       306 1.77083E-02 6.64063E-03 0.00000E+00
 -1       307 1.87500E-02 7.03125E-03 0.00000E+00
 -1       308 1.97917E-02 7.42188E-03 0.00000E+00
 -1       309 2.08333E-02 7.81250E-03 0.00000E+00
 -1       310 2.18750E-02 8.20313E-03 0.00000E+00
 -1       311 2.29167E-02 8.59375E-03 0.00000E+00
 -1       312 2.39583E-02 8.98438E-03 0.00000E+00
 -1       313 2.50000E-02 9.37500E-03 0.00000E+00
 -1       314 2.60417E-02 9.76562E-03 0.00000E+00
 -1       315 2.70833E-02 1.01562E-02 0.00000E+00
 -1       316 2.81250E-02 1.05469E-02 0.00000E+00
 -1       317 2.91667E-02 1.09375E-02 0.00000E+00
 -1       318 3.02083E-02 1.13281E-02 0.00000E+00
 -1       319 3.12500E-02 1.17188E-02 0.00000E+00
 -1       320 3.22917E-02 1.21094E-02 0.00000E+00
 -1       336 3.33333E-02 7.29167E-03 0.00000E+00
 -1       337 3.33333E-02 8.33333E-03 0.00000E+00
 -1       338 3.33333E-02 9.37500E-03 0.00000E+00
 -1       339 3.33333E-02 1.04167E-02 0.00000E+00
 -1       340 3.33333E-02 1.14583E-02 0.00000E+00
 -1       406 6.66667E-02 7.29167E-03 0.00000E+00
 -1       407 6.66667E-02 8.33333E-03 0.00000E+00
 -1       408 6.66667E-02 9.37500E-03 0.00000E+00
 -1       409 6.66667E-02 1.04167E-02 0.00000E+00
 -1       410 6.66667E-02 1.14583E-02 0.00000E+00
 -1       521 1.77083E-02 1.28906E-02 0.00000E+00
 -1       522 1.87500E-02 1.32813E-02 0.00000E+00
 -1       523 1.97917E-02 1.36719E-02 0.00000E+00
 -1       524 2.08333E-02 1.40625E-02 0.00000E+00
 -1       525 2.18750E-02 1.44531E-02 0.00000E+00
 -1       526 2.29167E-02 1.48437E-02 0.00000E+00
 -1       527 2.39583E-02 1.52344E-02 0.00000E+00
 -1       528 2.50000E-02 1.56250E-02 0.00000E+00
 -1       529 2.60417E-02 1.60156E-02 0.00000E+00
 -1       530 2.70833E-02 1.64062E-02 0.00000E+00
 -1       531 2.81250E-02 1.67969E-02 0.00000E+00
 -1       532 2.91667E-02 1.71875E-02 0.00000E+00
 -1       533 3.02083E-02 1.75781E-02 0.00000E+00
 -1       534 3.12500E-02 1.79687E-02 0.00000E+00
 -1       535 3.22917E-02 1.83594E-02 0.00000E+00
 -1       536 3.43750E-02 1.25000E-02 0.00000E+00
 -1       537 3.54167E-02 1.25000E-02 0.00000E+00
 -1       538 3.64583E-02 1.25000E-02 0.00000E+00
 -1       539 3.75000E-02 1.25000E-02 0.00000E+00
 -1       540 3.85417E-02 1.25000E-02 0.00000E+00
 -1       541 3.95833E-02 1.25000E-02 0.00000E+00
 -1       542 4.06250E-02 1.25000E-02 0.00000E+00
 -1       543 4.16667E-02 1.25000E-02 0.00000E+00
 -1       544 4.27083E-02 1.25000E-02 0.00000E+00
 -1       545 4.37500E-02 1.25000E-02 0.00000E+00
 -1       546 4.47917E-02 1.25000E-02 0.00000E+00
 -1       547 4.58333E-02 1.25000E-02 0.00000E+00
 -1       548 4.68750E-02 1.25000E-02 0.00000E+00
 -1       549 4.79167E-02 1.25000E-02 0.00000E+00
 -1       550 4.89583E-02 1.25000E-02 0.00000E+00
 -1       551 3.33333E-02 1.35417E-02 0.00000E+00
 -1       552 3.33333E-02 1.45833E-02 0.00000E+00
 -1       553 3.33333E-02 1.56250E-02 0.00000E+00
 -1       554 3.33333E-02 1.66667E-02 0.00000E+00
 -1       555 3.33333E-02 1.77083E-02 0.00000E+00
 -1       556 3.43750E-02 1.28906E-02 0.00000E+00
 -1       557 3.54167E-02 1.32813E-02 0.00000E+00
 -1       558 3.64583E-02 1.36719E-02 0.00000E+00
 -1       559 3.75000E-02 1.40625E-02 0.00000E+00
 -1       560 3.85417E-02 1.44531E-02 0.00000E+00
 -1       561 3.95833E-02 1.48437E-02 0.00000E+00
 -1       562 4.06250E-02 1.52344E-02 0.00000E+00
 -1       563 4.16667E-02 1.56250E-02 0.00000E+00
 -1       564 4.27083E-02 1.60156E-02 0.00000E+00
 -1       565 4.37500E-02 1.64062E-02 0.00000E+00
 -1       566 4.47917E-02 1.67969E-02 0.00000E+00
 -1       567 4.58333E-02 1.71875E-02 0.00000E+00
 -1       568 4.68750E-02 1.75781E-02 0.00000E+00
 -1       569 4.79167E-02 1.79687E-02 0.00000E+00
 -1       570 4.89583E-02 1.83594E-02 0.00000E+00
 -1       571 5.10417E-02 1.25000E-02 0.00000E+00
 -1       572 5.20833E-02 1.25000E-02 0.00000E+00
 -1       573 5.31250E-02 1.25000E-02 0.00000E+00
 -1       574 5.41667E-02 1.25000E-02 0.00000E+00
 -1       575 5.52083E-02 1.25000E-02 0.00000E+00
 -1       576 5.62500E-02 1.25000E-02 0.00000E+00
 -1       577 5.72917E-02 1.25000E-02 0.00000E+00
 -1       578 5.83333E-02 1.25000E-02 0.00000E+00
 -1       579 5.93750E-02 1.25000E-02 0.00000E+00
 -1       580 6.04167E-02 1.25000E-02 0.00000E+00
 -1       581 6.14583E-02 1.25000E-02 0.00000E+00
 -1       582 6.25000E-02 1.25000E-02 0.00000E+00
 -1       583 6.35417E-02 1.25000E-02 0.00000E+00
 -1       584 6.45833E-02 1.25000E-02 0.00000E+00
 -1       585 6.56250E-02 1.25000E-02 0.00000E+00
 -1       586 5.00000E-02 1.35417E-02 0.00000E+00
 -1       587 5.00000E-02 1.45833E-02 0.00000E+00
 -1       588 5.00000E-02 1.56250E-02 0.00000E+00
 -1       589 5.00000E-02 1.66667E-02 0.00000E+00
 -1       590 5.00000E-02 1.77083E-02 0.00000E+00
 -1       591 5.10417E-02 1.28906E-02 0.00000E+00
 -1       592 5.20833E-02 1.32813E-02 0.00000E+00
 -1       593 5.31250E-02 1.36719E-02 0.00000E+00
 -1       594 5.41667E-02 1.40625E-02 0.00000E+00
 -1       595 5.52083E-02 1.44531E-02 0.00000E+00
 -1       596 5.62500E-02 1.48437E-02 0.00000E+00
 -1       597 5.72917E-02 1.52344E-02 0.00000E+00
 -1       598 5.83333E-02 1.56250E-02 0.00000E+00
 -1       599 5.93750E-02 1.60156E-02 0.00000E+00
 -1       600 6.04167E-02 1.64062E-02 0.00000E+00
 -1       601 6.14583E-02 1.67969E-02 0.00000E+00
 -1       602 6.25000E-02 1.71875E-02 0.00000E+00
 -1       603 6.35417E-02 1.75781E-02 0.00000E+00
 -1       604 6.45833E-02 1.79687E-02 0.00000E+00
 -1       605 6.56250E-02 1.83594E-02 0.00000E+00
 -1       606 6.77083E-02 1.25000E-02 0.00000E+00
 -1       607 6.87500E-02 1.25000E-02 0.00000E+00
 -1       608 6.97917E-02 1.25000E-02 0.00000E+00
 -1       609 7.08333E-02 1.25000E-02 0.00000E+00
 -1       610 7.18750E-02 1.25000E-02 0.00000E+00
 -1       611 7.29167E-02 1.25000E-02 0.00000E+00
 -1       612 7.39583E-02 1.25000E-02 0.00000E+00
 -1       613 7.50000E-02 1.25000E-02 0.00000E+00
 -1       614 7.60417E-02 1.25000E-02 0.00000E+00
 -1       615 7.70833E-02 1.25000E-02 0.00000E+00
 -1       616 7.81250E-02 1.25000E-02 0.00000E+00
 -1       617 7.91667E-02 1.25000E-02 0.00000E+00
 -1       618 8.02083E-02 1.25000E-02 0.00000E+00
 -1       619 8.12500E-02 1.25000E-02 0.00000E+00
 -1       620 8.22917E-02 1.25000E-02 0.00000E+00
 -1       621 6.66667E-02 1.35417E-02 0.00000E+00
 -1       622 6.66667E-02 1.45833E-02 0.00000E+00
 -1       623 6.66667E-02 1.56250E-02 0.00000E+00
 -1       624 6.66667E-02 1.66667E-02 0.00000E+00
 -1       625 6.66667E-02 1.77083E-02 0.00000E+00
 -1       626 6.77083E-02 1.28906E-02 0.00000E+00
 -1       627 6.87500E-02 1.32813E-02 0.00000E+00
 -1       628 6.97917E-02 1.36719E-02 0.00000E+00
 -1       629 7.08333E-02 1.40625E-02 0.00000E+00
 -1       630 7.18750E-02 1.44531E-02 0.00000E+00
 -1       631 7.29167E-02 1.48437E-02 0.00000E+00
 -1       632 7.39583E-02 1.52344E-02 0.00000E+00
 -1       633 7.50000E-02 1.56250E-02 0.00000E+00
 -1       634 7.60417E-02 1.60156E-02 0.00000E+00
 -1       635 7.70833E-02 1.64062E-02 0.00000E+00
 -1       636 7.81250E-02 1.67969E-02 0.00000E+00
 -1       637 7.91667E-02 1.71875E-02 0.00000E+00
 -1       638 8.02083E-02 1.75781E-02 0.00000E+00
 -1       639 8.12500E-02 1.79687E-02 0.00000E+00
 -1       640 8.22917E-02 1.83594E-02 0.00000E+00
 -1       656 8.33333E-02 1.35417E-02 0.00000E+00
 -1       657 8.33333E-02 1.45833E-02 0.00000E+00
 -1       658 8.33333E-02 1.56250E-02 0.00000E+00
 -1       659 8.33333E-02 1.66667E-02 0.00000E+00
 -1       660 8.33333E-02 1.77083E-02 0.00000E+00
 -1       661 8.43750E-02 1.28906E-02 0.00000E+00
 -1       662 8.54167E-02 1.32813E-02 0.00000E+00
 -1       663 8.64583E-02 1.36719E-02 0.00000E+00
 -1       664 8.75000E-02 1.40625E-02 0.00000E+00
 -1       665 8.85417E-02 1.44531E-02 0.00000E+00
 -1       666 8.95833E-02 1.48437E-02 0.00000E+00
 -1       667 9.06250E-02 1.52344E-02 0.00000E+00
 -1       668 9.16667E-02 1.56250E-02 0.00000E+00
 -1       669 9.27083E-02 1.60156E-02 0.00000E+00
 -1       670 9.37500E-02 1.64062E-02 0.00000E+00
 -1       671 9.47917E-02 1.67969E-02 0.00000E+00
 -1       672 9.58333E-02 1.71875E-02 0.00000E+00
 -1       673 9.68750E-02 1.75781E-02 0.00000E+00
 -1       674 9.79167E-02 1.79687E-02 0.00000E+00
 -1       675 9.89583E-02 1.83594E-02 0.00000E+00
 -1       676 1.00000E-01 1.35417E-02 0.00000E+00
 -1       677 1.00000E-01 1.45833E-02 0.00000E+00
 -1       678 1.00000E-01 1.56250E-02 0.00000E+00
 -1       679 1.00000E-01 1.66667E-02 0.00000E+00
 -1       680 1.00000E-01 1.77083E-02 0.00000E+00
 -1       771 3.43750E-02 1.91406E-02 0.00000E+00
 -1       772 3.54167E-02 1.95312E-02 0.00000E+00
 -1       773 3.64583E-02 1.99219E-02 0.00000E+00
 -1       774 3.75000E-02 2.03125E-02 0.00000E+00
 -1       775 3.85417E-02 2.07031E-02 0.00000E+00
 -1       776 3.95833E-02 2.10938E-02 0.00000E+00
 -1       777 4.06250E-02 2.14844E-02 0.00000E+00
 -1       778 4.16667E-02 2.18750E-02 0.00000E+00
 -1       779 4.27083E-02 2.22656E-02 0.00000E+00
 -1       780 4.37500E-02 2.26563E-02 0.00000E+00
 -1       781 4.47917E-02 2.30469E-02 0.00000E+00
 -1       782 4.58333E-02 2.34375E-02 0.00000E+00
 -1       783 4.68750E-02 2.38281E-02 0.00000E+00
 -1       784 4.79167E-02 2.42187E-02 0.00000E+00
 -1       785 4.89583E-02 2.46094E-02 0.00000E+00
 -1       786 5.10417E-02 1.87500E-02 0.00000E+00
 -1       787 5.20833E-02 1.87500E-02 0.00000E+00
 -1       788 5.31250E-02 1.87500E-02 0.00000E+00
 -1       789 5.41667E-02 1.87500E-02 0.00000E+00
 -1       790 5.52083E-02 1.87500E-02 0.00000E+00
 -1       791 5.62500E-02 1.87500E-02 0.00000E+00
 -1       792 5.72917E-02 1.87500E-02 0.00000E+00
 -1       793 5.83333E-02 1.87500E-02 0.00000E+00
 -1       794 5.93750E-02 1.87500E-02 0.00000E+00
 -1       795 6.04167E-02 1.87500E-02 0.00000E+00
 -1       796 6.14583E-02 1.87500E-02 0.00000E+00
 -1       797 6.25000E-02 1.87500E-02 0.00000E+00
 -1       798 6.35417E-02 1.87500E-02 0.00000E+00
 -1       799 6.45833E-02 1.87500E-02 0.00000E+00
 -1       800 6.56250E-02 1.87500E-02 0.00000E+00
 -1       801 5.00000E-02 1.97917E-02 0.00000E+00
 -1       802 5.00000E-02 2.08333E-02 0.00000E+00
 -1       803 5.00000E-02 2.18750E-02 0.00000E+00
 -1       804 5.00000E-02 2.29167E-02 0.00000E+00
 -1       805 5.00000E-02 2.39583E-02 0.00000E+00
 -1       806 5.10417E-02 1.91406E-02 0.00000E+00
 -1       807 5.20833E-02 1.95312E-02 0.00000E+00
 -1       808 5.31250E-02 1.99219E-02 0.00000E+00
 -1       809 5.41667E-02 2.03125E-02 0.00000E+00
 -1       810 5.52083E-02 2.07031E-02 0.00000E+00
 -1       811 5.62500E-02 2.10938E-02 0.00000E+00
 -1       812 5.72917E-02 2.14844E-02 0.00000E+00
 -1       813 5.83333E-02 2.18750E-02 0.00000E+00
 -1       814 5.93750E-02 2.22656E-02 0.00000E+00
 -1       815 6.04167E-02 2.26563E-02 0.00000E+00
 -1       816 6.14583E-02 2.30469E-02 0.00000E+00
 -1       817 6.25000E-02 2.34375E-02 0.00000E+00
 -1       818 6.35417E-02 2.38281E-02 0.00000E+00
 -1       819 6.45833E-02 2.42187E-02 0.00000E+00
 -1       820 6.56250E-02 2.46094E-02 0.00000E+00
 -1       821 6.77083E-02 1.87500E-02 0.00000E+00
 -1       822 6.87500E-02 1.87500E-02 0.00000E+00
 -1       823 6.97917E-02 1.87500E-02 0.00000E+00
 -1       824 7.08333E-02 1.87500E-02 0.00000E+00
 -1       825 7.18750E-02 1.87500E-02 0.00000E+00
 -1       826 7.29167E-02 1.87500E-02 0.00000E+00
 -1       827 7.39583E-02 1.87500E-02 0.00000E+00
 -1       828 7.50000E-02 1.87500E-02 0.00000E+00
 -1       829 7.60417E-02 1.87500E-02 0.00000E+00
 -1       830 7.70833E-02 1.87500E-02 0.00000E+00
 -1       831 7.81250E-02 1.87500E-02 0.00000E+00
 -1       832 7.91667E-02 1.87500E-02 0.00000E+00
 -1       833 8.02083E-02 1.87500E-02 0.00000E+00
 -1       834 8.12500E-02 1.87500E-02 0.00000E+00
 -1       835 8.22917E-02 1.87500E-02 0.00000E+00
 -1       836 6.66667E-02 1.97917E-02 0.00000E+00
 -1       837 6.66667E-02 2.08333E-02 0.00000E+00
 -1       838 6.66667E-02 2.18750E-02 0.00000E+00
 -1       839 6.66667E-02 2.29167E-02 0.00000E+00
 -1       840 6.66667E-02 2.39583E-02 0.00000E+00
 -1       856 8.43750E-02 1.87500E-02 0.00000E+00
 -1       857 8.54167E-02 1.87500E-02 0.00000E+00
 -1       858 8.64583E-02 1.87500E-02 0.00000E+00
 -1       859 8.75000E-02 1.87500E-02 0.00000E+00
 -1       860 8.85417E-02 1.87500E-02 0.00000E+00
 -1       861 8.95833E-02 1.87500E-02 0.00000E+00
 -1       862 9.06250E-02 1.87500E-02 0.00000E+00
 -1       863 9.16667E-02 1.87500E-02 0.00000E+00
 -1       864 9.27083E-02 1.87500E-02 0.00000E+00
 -1       865 9.37500E-02 1.87500E-02 0.00000E+00
 -1       866 9.47917E-02 1.87500E-02 0.00000E+00
 -1       867 9.58333E-02 1.87500E-02 0.00000E+00
 -1       868 9.68750E-02 1.87500E-02 0.00000E+00
 -1       869 9.79167E-02 1.87500E-02 0.00000E+00
 -1       870 9.89583E-02 1.87500E-02 0.00000E+00
 -1       871 8.33333E-02 1.97917E-02 0.00000E+00
 -1       872 8.33333E-02 2.08333E-02 0.00000E+00
 -1       873 8.33333E-02 2.18750E-02 0.00000E+00
 -1       874 8.33333E-02 2.29167E-02 0.00000E+00
 -1       875 8.33333E-02 2.39583E-02 0.00000E+00
 -1       876 8.43750E-02 1.91406E-02 0.00000E+00
 -1       877 8.54167E-02 1.95312E-02 0.00000E+00
 -1       878 8.64583E-02 1.99219E-02 0.00000E+00
 -1       879 8.75000E-02 2.03125E-02 0.00000E+00
 -1       880 8.85417E-02 2.07031E-02 0.00000E+00
 -1       881 8.95833E-02 2.10938E-02 0.00000E+00
 -1       882 9.06250E-02 2.14844E-02 0.00000E+00
 -1       883 9.16667E-02 2.18750E-02 0.00000E+00
 -1       884 9.27083E-02 2.22656E-02 0.00000E+00
 -1       885 9.37500E-02 2.26563E-02 0.00000E+00
 -1       886 9.47917E-02 2.30469E-02 0.00000E+00
 -1       887 9.58333E-02 2.34375E-02 0.00000E+00
 -1       888 9.68750E-02 2.38281E-02 0.00000E+00
 -1       889 9.79167E-02 2.42187E-02 0.00000E+00
 -1       890 9.89583E-02 2.46094E-02 0.00000E+00
 -1       891 1.00000E-01 1.97917E-02 0.00000E+00
 -1       892 1.00000E-01 2.08333E-02 0.00000E+00
 -1       893 1.00000E-01 2.18750E-02 0.00000E+00
 -1       894 1.00000E-01 2.29167E-02 0.00000E+00
 -1       895 1.00000E-01 2.39583E-02 0.00000E+00
 -1       956 6.77083E-02 2.50000E-02 0.00000E+00
 -1       957 6.87500E-02 2.50000E-02 0.00000E+00
 -1       958 6.97917E-02 2.50000E-02 0.00000E+00
 -1       959 7.08333E-02 2.50000E-02 0.00000E+00
 -1       960 7.18750E-02 2.50000E-02 0.00000E+00
 -1       961 7.29167E-02 2.50000E-02 0.00000E+00
 -1       962 7.39583E-02 2.50000E-02 0.00000E+00
 -1       963 7.50000E-02 2.50000E-02 0.00000E+00
 -1       964 7.60417E-02 2.50000E-02 0.00000E+00
 -1       965 7.70833E-02 2.50000E-02 0.00000E+00
 -1       966 7.81250E-02 2.50000E-02 0.00000E+00
 -1       967 7.91667E-02 2.50000E-02 0.00000E+00
 -1       968 8.02083E-02 2.50000E-02 0.00000E+00
 -1       969 8.12500E-02 2.50000E-02 0.00000E+00
 -1       970 8.22917E-02 2.50000E-02 0.00000E+00
 -1       971 8.43750E-02 2.50000E-02 0.00000E+00
 -1       972 8.54167E-02 2.50000E-02 0.00000E+00
 -1       973 8.64583E-02 2.50000E-02 0.00000E+00
 -1       974 8.75000E-02 2.50000E-02 0.00000E+00
 -1       975 8.85417E-02 2.50000E-02 0.00000E+00
 -1       976 8.95833E-02 2.50000E-02 0.00000E+00
 -1       977 9.06250E-02 2.50000E-02 0.00000E+00
 -1       978 9.16667E-02 2.50000E-02 0.00000E+00
 -1       979 9.27083E-02 2.50000E-02 0.00000E+00
 -1       980 9.37500E-02 2.50000E-02 0.00000E+00
 -1       981 9.47917E-02 2.50000E-02 0.00000E+00
 -1       982 9.58333E-02 2.50000E-02 0.00000E+00
 -1       983 9.68750E-02 2.50000E-02 0.00000E+00
 -1       984 9.79167E-02 2.50000E-02 0.00000E+00
 -1       985 9.89583E-02 2.50000E-02 0.00000E+00
 -3
    3C                           211                                     1
 -1         1   12    0    1
 -2         1        52        51
 -1         2   12    0    1
 -2        52        54        53
 -1         3   12    0    1
 -2        54         8        55
 -1         4   12    0    1
 -2         1        57        56
 -1         5   12    0    1
 -2        57        59        58
 -1         6   12    0    1
 -2        59        61        60
 -1         7   12    0    1
 -2        61        63        62
 -1         8   12    0    1
 -2        63        65        64
 -1         9   12    0    1
 -2        65        67        66
 -1        10   12    0    1
 -2        67        69        68
 -1        11   12    0    1
 -2        69         9        70
 -1        12   12    0    1
 -2         2        87        86
 -1        13   12    0    1
 -2        87        89        88
 -1        14   12    0    1
 -2        89         9        90
 -1        15   12    0    1
 -2         3       122       121
 -1        16   12    0    1
 -2       122       124       123
 -1        17   12    0    1
 -2       124        10       125
 -1        18   12    0    1
 -2         5       192       191
 -1        19   12    0    1
 -2       192       194       193
 -1        20   12    0    1
 -2       194        12       195
 -1        21   12    0    1
 -2         8       252       251
 -1        22   12    0    1
 -2       252       254       253
 -1        23   12    0    1
 -2       254       256       255
 -1        24   12    0    1
 -2       256       258       257
 -1        25   12    0    1
 -2       258       260       259
 -1        26   12    0    1
 -2       260       262       261
 -1        27   12    0    1
 -2       262       264       263
 -1        28   12    0    1
 -2       264         9       265
 -1        29   12    0    1
 -2         8       267       266
 -1        30   12    0    1
 -2       267       269       268
 -1        31   12    0    1
 -2       269        15       270
 -1        32   12    0    1
 -2         8       272       271
 -1        33   12    0    1
 -2       272       274       273
 -1        34   12    0    1
 -2       274       276       275
 -1        35   12    0    1
 -2       276       278       277
 -1        36   12    0    1
 -2       278       280       279
 -1        37   12    0    1
 -2       280       282       281
 -1        38   12    0    1
 -2       282       284       283
 -1        39   12    0    1
 -2       284        16       285
 -1        40   12    0    1
 -2         9       302       301
 -1        41   12    0    1
 -2       302       304       303
 -1        42   12    0    1
 -2       304        16       305
 -1        43   12    0    1
 -2         9       307       306
 -1        44   12    0    1
 -2       307       309       308
 -1        45   12    0    1
 -2       309       311       310
 -1        46   12    0    1
 -2       311       313       312
 -1        47   12    0    1
 -2       313       315       314
 -1        48   12    0    1
 -2       315       317       316
 -1        49   12    0    1
 -2       317       319       318
 -1        50   12    0    1
 -2       319        17       320
 -1        51   12    0    1
 -2        10       337       336
 -1        52   12    0    1
 -2       337       339       338
 -1        53   12    0    1
 -2       339        17       340
 -1        54   12    0    1
 -2        12       407       406
 -1        55   12    0    1
 -2       407       409       408
 -1        56   12    0    1
 -2       409        19       410
 -1        57   12    0    1
 -2        16       522       521
 -1        58   12    0    1
 -2       522       524       523
 -1        59   12    0    1
 -2       524       526       525
 -1        60   12    0    1
 -2       526       528       527
 -1        61   12    0    1
 -2       528       530       529
 -1        62   12    0    1
 -2       530       532       531
 -1        63   12    0    1
 -2       532       534       533
 -1        64   12    0    1
 -2       534        24       535
 -1        65   12    0    1
 -2        17       537       536
 -1        66   12    0    1
 -2       537       539       538
 -1        67   12    0    1
 -2       539       541       540
 -1        68   12    0    1
 -2       541       543       542
 -1        69   12    0    1
 -2       543       545       544
 -1        70   12    0    1
 -2       545       547       546
 -1        71   12    0    1
 -2       547       549       548
 -1        72   12    0    1
 -2       549        18       550
 -1        73   12    0    1
 -2        17       552       551
 -1        74   12    0    1
 -2       552       554       553
 -1        75   12    0    1
 -2       554        24       555
 -1        76   12    0    1
 -2        17       557       556
 -1        77   12    0    1
 -2       557       559       558
 -1        78   12    0    1
 -2       559       561       560
 -1        79   12    0    1
 -2       561       563       562
 -1        80   12    0    1
 -2       563       565       564
 -1        81   12    0    1
 -2       565       567       566
 -1        82   12    0    1
 -2       567       569       568
 -1        83   12    0    1
 -2       569        25       570
 -1        84   12    0    1
 -2        18       572       571
 -1        85   12    0    1
 -2       572       574       573
 -1        86   12    0    1
 -2       574       576       575
 -1        87   12    0    1
 -2       576       578       577
 -1        88   12    0    1
 -2       578       580       579
 -1        89   12    0    1
 -2       580       582       581
 -1        90   12    0    1
 -2       582       584       583
 -1        91   12    0    1
 -2       584        19       585
 -1        92   12    0    1
 -2        18       587       586
 -1        93   12    0    1
 -2       587       589       588
 -1        94   12    0    1
 -2       589        25       590
 -1        95   12    0    1
 -2        18       592       591
 -1        96   12    0    1
 -2       592       594       593
 -1        97   12    0    1
 -2       594       596       595
 -1        98   12    0    1
 -2       596       598       597
 -1        99   12    0    1
 -2       598       600       599
 -1       100   12    0    1
 -2       600       602       601
 -1       101   12    0    1
 -2       602       604       603
 -1       102   12    0    1
 -2       604        26       605
 -1       103   12    0    1
 -2        19       607       606
 -1       104   12    0    1
 -2       607       609       608
 -1       105   12    0    1
 -2       609       611       610
 -1       106   12    0    1
 -2       611       613       612
 -1       107   12    0    1
 -2       613       615       614
 -1       108   12    0    1
 -2       615       617       616
 -1       109   12    0    1
 -2       617       619       618
 -1       110   12    0    1
 -2       619        20       620
 -1       111   12    0    1
 -2        19       622       621
 -1       112   12    0    1
 -2       622       624       623
 -1       113   12    0    1
 -2       624        26       625
 -1       114   12    0    1
 -2        19       627       626
 -1       115   12    0    1
 -2       627       629       628
 -1       116   12    0    1
 -2       629       631       630
 -1       117   12    0    1
 -2       631       633       632
 -1       118   12    0    1
 -2       633       635       634
 -1       119   12    0    1
 -2       635       637       636
 -1       120   12    0    1
 -2       637       639       638
 -1       121   12    0    1
 -2       639        27       640
 -1       122   12    0    1
 -2        20       657       656
 -1       123   12    0    1
 -2       657       659       658
 -1       124   12    0    1
 -2       659        27       660
 -1       125   12    0    1
 -2        20       662       661
 -1       126   12    0    1
 -2       662       664       663
 -1       127   12    0    1
 -2       664       666       665
 -1       128   12    0    1
 -2       666       668       667
 -1       129   12    0    1
 -2       668       670       669
 -1       130   12    0    1
 -2       670       672       671
 -1       131   12    0    1
 -2       672       674       673
 -1       132   12    0    1
 -2       674        28       675
 -1       133   12    0    1
 -2        21       677       676
 -1       134   12    0    1
 -2       677       679       678
 -1       135   12    0    1
 -2       679        28       680
 -1       136   12    0    1
 -2        24       772       771
 -1       137   12    0    1
 -2       772       774       773
 -1       138   12    0    1
 -2       774       776       775
 -1       139   12    0    1
 -2       776       778       777
 -1       140   12    0    1
 -2       778       780       779
 -1       141   12    0    1
 -2       780       782       781
 -1       142   12    0    1
 -2       782       784       783
 -1       143   12    0    1
 -2       784        32       785
 -1       144   12    0    1
 -2        25       787       786
 -1       145   12    0    1
 -2       787       789       788
 -1       146   12    0    1
 -2       789       791       790
 -1       147   12    0    1
 -2       791       793       792
 -1       148   12    0    1
 -2       793       795       794
 -1       149   12    0    1
 -2       795       797       796
 -1       150   12    0    1
 -2       797       799       798
 -1       151   12    0    1
 -2       799        26       800
 -1       152   12    0    1
 -2        25       802       801
 -1       153   12    0    1
 -2       802       804       803
 -1       154   12    0    1
 -2       804        32       805
 -1       155   12    0    1
 -2        25       807       806
 -1       156   12    0    1
 -2       807       809       808
 -1       157   12    0    1
 -2       809       811       810
 -1       158   12    0    1
 -2       811       813       812
 -1       159   12    0    1
 -2       813       815       814
 -1       160   12    0    1
 -2       815       817       816
 -1       161   12    0    1
 -2       817       819       818
 -1       162   12    0    1
 -2       819        33       820
 -1       163   12    0    1
 -2        26       822       821
 -1       164   12    0    1
 -2       822       824       823
 -1       165   12    0    1
 -2       824       826       825
 -1       166   12    0    1
 -2       826       828       827
 -1       167   12    0    1
 -2       828       830       829
 -1       168   12    0    1
 -2       830       832       831
 -1       169   12    0    1
 -2       832       834       833
 -1       170   12    0    1
 -2       834        27       835
 -1       171   12    0    1
 -2        26       837       836
 -1       172   12    0    1
 -2       837       839       838
 -1       173   12    0    1
 -2       839        33       840
 -1       174   12    0    1
 -2        27       857       856
 -1       175   12    0    1
 -2       857       859       858
 -1       176   12    0    1
 -2       859       861       860
 -1       177   12    0    1
 -2       861       863       862
 -1       178   12    0    1
 -2       863       865       864
 -1       179   12    0    1
 -2       865       867       866
 -1       180   12    0    1
 -2       867       869       868
 -1       181   12    0    1
 -2       869        28       870
 -1       182   12    0    1
 -2        27       872       871
 -1       183   12    0    1
 -2       872       874       873
 -1       184   12    0    1
 -2       874        34       875
 -1       185   12    0    1
 -2        27       877       876
 -1       186   12    0    1
 -2       877       879       878
 -1       187   12    0    1
 -2       879       881       880
 -1       188   12    0    1
 -2       881       883       882
 -1       189   12    0    1
 -2       883       885       884
 -1       190   12    0    1
 -2       885       887       886
 -1       191   12    0    1
 -2       887       889       888
 -1       192   12    0    1
 -2       889        35       890
 -1       193   12    0    1
 -2        28       892       891
 -1       194   12    0    1
 -2       892       894       893
 -1       195   12    0    1
 -2       894        35       895
 -1       196   12    0    1
 -2        33       957       956
 -1       197   12    0    1
 -2       957       959       958
 -1       198   12    0    1
 -2       959       961       960
 -1       199   12    0    1
 -2       961       963       962
 -1       200   12    0    1
 -2       963       965       964
 -1       201   12    0    1
 -2       965       967       966
 -1       202   12    0    1
 -2       967       969       968
 -1       203   12    0    1
 -2       969        34       970
 -1       204   12    0    1
 -2        34       972       971
 -1       205   12    0    1
 -2       972       974       973
 -1       206   12    0    1
 -2       974       976       975
 -1       207   12    0    1
 -2       976       978       977
 -1       208   12    0    1
 -2       978       980       979
 -1       209   12    0    1
 -2       980       982       981
 -1       210   12    0    1
 -2       982       984       983
 -1       211   12    0    1
 -2       984        35       985
 -3
    1PSTEP                         1           1           1          
  100CL  101 2.50000E-01         409                     0    1           1
 -4  DISP        4    1
 -5  D1          1    2    1    0
 -5  D2          1    2    2    0
 -5  D3          1    2    3    0
 -5  ALL         1    2    0    0    1ALL
 -1         1 6.56068E-05 0.00000E+00 0.00000E+00
 -1         2 5.97687E-05 1.96928E-29 0.00000E+00
 -1         3 5.50524E-05-2.32928E-27-3.30872E-24
 -1         5 3.98292E-05 5.03265E-26-1.65436E-24
 -1         8 5.22498E-05-4.71320E-07 0.00000E+00
 -1         9 5.25464E-05 2.28642E-07 0.00000E+00
 -1        10 5.10509E-05-7.54571E-07 0.00000E+00
 -1        12 3.95394E-05 2.72174E-07 0.00000E+00
 -1        15 3.63573E-05-5.04654E-07 2.06795E-25
 -1        16 3.78085E-05 1.69422E-07 0.00000E+00
 -1        17 3.81184E-05-1.58075E-06 0.00000E+00
 -1        18 3.81440E-05 3.28963E-08 0.00000E+00
 -1        19 3.86704E-05 5.42874E-07 0.00000E+00
 -1        20 3.87425E-05 8.14065E-06 0.00000E+00
 -1        21 3.84718E-05 1.54070E-05 0.00000E+00
 -1        24 9.81177E-06-2.10090E-06 0.00000E+00
 -1        25 3.72116E-05 9.50911E-08 0.00000E+00
 -1        26 3.77081E-05 7.56505E-07 0.00000E+00
 -1        27 3.69559E-05 6.93029E-06 0.00000E+00
 -1        28 3.67120E-05 1.51742E-05 0.00000E+00
 -1        32 0.00000E+00 0.00000E+00 0.00000E+00
 -1        33 3.60947E-05 1.01472E-06 0.00000E+00
 -1        34 3.53670E-05 6.91962E-06 0.00000E+00
 -1        35 3.46756E-05 1.50515E-05 0.00000E+00
 -1        51 6.47378E-05-7.84503E-08 0.00000E+00
 -1        52 6.31274E-05-1.54597E-07 0.00000E+00
 -1        53 6.09215E-05-2.31019E-07 0.00000E+00
 -1        54 5.82719E-05-3.08432E-07 1.65436E-24
 -1        55 5.53305E-05-3.87362E-07 1.70606E-24
 -1        56 6.49648E-05-3.79150E-07 1.32349E-23
 -1        57 6.43819E-05-9.88467E-07 6.61744E-24
 -1        58 6.38612E-05-1.75979E-06 0.00000E+00
 -1        59 6.33742E-05-2.63344E-06-1.32349E-23
 -1        60 6.29000E-05-3.54185E-06 0.00000E+00
 -1        61 6.24131E-05-4.41859E-06-1.32349E-23
 -1        62 6.18898E-05-5.19824E-06 2.64698E-23
 -1        63 6.13062E-05-5.81738E-06 0.00000E+00
 -1        64 6.06412E-05-6.21928E-06 0.00000E+00
 -1        65 5.98751E-05-6.35114E-06 1.32349E-23
 -1        66 5.89921E-05-6.17160E-06 2.64698E-23
 -1        67 5.79795E-05-5.64474E-06 1.32349E-23
 -1        68 5.68285E-05-4.74968E-06 0.00000E+00
 -1        69 5.55372E-05-3.47064E-06 6.61744E-24
 -1        70 5.41011E-05-1.81120E-06 0.00000E+00
 -1        86 5.95744E-05 4.15031E-08-8.27181E-25
 -1        87 5.89910E-05 8.25835E-08 0.00000E+00
 -1        88 5.80096E-05 1.23324E-07 0.00000E+00
 -1        89 5.66208E-05 1.61860E-07 0.00000E+00
 -1        90 5.48062E-05 2.00327E-07-1.65436E-24
 -1       121 5.49410E-05-1.25433E-07 3.30872E-24
 -1       122 5.46068E-05-2.50917E-07-1.65436E-24
 -1       123 5.40501E-05-3.76501E-07-3.30872E-24
 -1       124 5.32714E-05-5.02255E-07 0.00000E+00
 -1       125 5.22714E-05-6.28194E-07 3.30872E-24
 -1       191 3.98211E-05 4.53654E-08 1.65436E-24
 -1       192 3.97970E-05 9.07300E-08 0.00000E+00
 -1       193 3.97568E-05 1.36094E-07-1.65436E-24
 -1       194 3.97004E-05 1.81457E-07 0.00000E+00
 -1       195 3.96280E-05 2.26817E-07 1.65436E-24
 -1       251 5.22586E-05 1.74156E-06 0.00000E+00
 -1       252 5.22772E-05 3.09468E-06 4.13590E-25
 -1       253 5.22960E-05 3.71690E-06 1.03398E-25
 -1       254 5.23164E-05 3.73638E-06 1.03398E-25
 -1       255 5.23369E-05 3.27477E-06 0.00000E+00
 -1       256 5.23574E-05 2.45333E-06-2.06795E-25
 -1       257 5.23778E-05 1.38934E-06 4.13590E-25
 -1       258 5.23981E-05 1.99916E-07-4.13590E-25
 -1       259 5.24183E-05-9.99269E-07 4.13590E-25
 -1       260 5.24387E-05-2.09250E-06-2.06795E-25
 -1       261 5.24591E-05-2.96289E-06-4.13590E-25
 -1       262 5.24796E-05-3.49342E-06 1.03398E-25
 -1       263 5.25000E-05-3.56330E-06 1.03398E-25
 -1       264 5.25188E-05-3.05133E-06 0.00000E+00
 -1       265 5.25375E-05-1.83006E-06 0.00000E+00
 -1       266 4.96010E-05-4.83434E-07 0.00000E+00
 -1       267 4.69523E-05-4.88190E-07-8.27181E-25
 -1       268 4.43036E-05-4.93412E-07 0.00000E+00
 -1       269 4.16548E-05-4.97254E-07-2.06795E-25
 -1       270 3.90061E-05-5.01064E-07 0.00000E+00
 -1       271 5.06474E-05 1.50538E-06-1.32349E-23
 -1       272 4.92870E-05 2.76398E-06 0.00000E+00
 -1       273 4.81627E-05 3.39799E-06 0.00000E+00
 -1       274 4.72355E-05 3.49588E-06-1.32349E-23
 -1       275 4.64725E-05 3.15473E-06-2.64698E-23
 -1       276 4.58359E-05 2.47451E-06 1.32349E-23
 -1       277 4.52873E-05 1.55908E-06 0.00000E+00
 -1       278 4.47868E-05 5.14438E-07 1.32349E-23
 -1       279 4.42945E-05-5.52062E-07 2.64698E-23
 -1       280 4.37702E-05-1.53281E-06 0.00000E+00
 -1       281 4.31740E-05-2.32117E-06 2.64698E-23
 -1       282 4.24670E-05-2.81231E-06-1.32349E-23
 -1       283 4.16106E-05-2.90469E-06 2.64698E-23
 -1       284 4.05705E-05-2.49971E-06-1.32349E-23
 -1       285 3.93082E-05-1.50600E-06 1.32349E-23
 -1       301 5.00472E-05 2.15633E-07-3.30872E-24
 -1       302 4.75500E-05 2.10477E-07 8.27181E-25
 -1       303 4.50662E-05 2.05550E-07 0.00000E+00
 -1       304 4.26071E-05 1.99751E-07-1.65436E-24
 -1       305 4.01842E-05 1.92718E-07 0.00000E+00
 -1       306 5.09498E-05 2.04002E-06-1.32349E-23
 -1       307 4.96046E-05 3.10429E-06 0.00000E+00
 -1       308 4.85244E-05 3.46867E-06 2.64698E-23
 -1       309 4.76823E-05 3.18495E-06 1.32349E-23
 -1       310 4.70429E-05 2.35996E-06 0.00000E+00
 -1       311 4.65607E-05 1.11204E-06 0.00000E+00
 -1       312 4.61797E-05-4.06419E-07 0.00000E+00
 -1       313 4.58402E-05-2.03667E-06 0.00000E+00
 -1       314 4.54798E-05-3.61080E-06 0.00000E+00
 -1       315 4.50364E-05-4.96229E-06-1.32349E-23
 -1       316 4.44542E-05-5.94272E-06 2.64698E-23
 -1       317 4.36819E-05-6.41249E-06 1.32349E-23
 -1       318 4.26811E-05-6.27292E-06 0.00000E+00
 -1       319 4.14251E-05-5.43822E-06-1.32349E-23
 -1       320 3.98951E-05-3.88188E-06 1.32349E-23
 -1       336 4.95818E-05-8.91178E-07 0.00000E+00
 -1       337 4.78355E-05-1.02840E-06 1.65436E-24
 -1       338 4.58137E-05-1.16608E-06-3.30872E-24
 -1       339 4.35185E-05-1.30414E-06 0.00000E+00
 -1       340 4.09525E-05-1.44285E-06 0.00000E+00
 -1       406 3.94348E-05 3.17524E-07 1.65436E-24
 -1       407 3.93140E-05 3.62857E-07 8.27181E-25
 -1       408 3.91772E-05 4.08160E-07-1.65436E-24
 -1       409 3.90243E-05 4.53378E-07 0.00000E+00
 -1       410 3.88553E-05 4.98421E-07 1.65436E-24
 -1       521 3.55648E-05 1.48940E-06 0.00000E+00
 -1       522 3.36031E-05 1.90915E-06-2.64698E-23
 -1       523 3.19577E-05 1.49587E-06 0.00000E+00
 -1       524 3.05848E-05 3.29126E-07-2.64698E-23
 -1       525 2.94284E-05-1.41714E-06 5.29396E-23
 -1       526 2.84136E-05-3.54730E-06-2.64698E-23
 -1       527 2.74520E-05-5.82013E-06-5.29396E-23
 -1       528 2.64511E-05-7.98882E-06 2.64698E-23
 -1       529 2.53236E-05-9.81843E-06 5.29396E-23
 -1       530 2.39873E-05-1.10888E-05 0.00000E+00
 -1       531 2.23835E-05-1.16451E-05 5.29396E-23
 -1       532 2.04667E-05-1.13630E-05-2.64698E-23
 -1       533 1.82247E-05-1.02162E-05 0.00000E+00
 -1       534 1.56693E-05-8.21281E-06 0.00000E+00
 -1       535 1.28297E-05-5.46692E-06 0.00000E+00
 -1       536 3.81127E-05 1.05273E-06 1.65436E-24
 -1       537 3.81126E-05 3.02184E-06 4.13590E-25
 -1       538 3.81131E-05 4.39962E-06-4.13590E-25
 -1       539 3.81150E-05 5.25906E-06 0.00000E+00
 -1       540 3.81172E-05 5.67038E-06 0.00000E+00
 -1       541 3.81197E-05 5.70375E-06-1.29247E-26
 -1       542 3.81221E-05 5.42725E-06-5.16988E-26
 -1       543 3.81245E-05 4.90894E-06 0.00000E+00
 -1       544 3.81268E-05 4.21554E-06 1.03398E-25
 -1       545 3.81290E-05 3.41371E-06 0.00000E+00
 -1       546 3.81312E-05 2.56955E-06-1.03398E-25
 -1       547 3.81334E-05 1.74915E-06 5.16988E-26
 -1       548 3.81357E-05 1.01870E-06 0.00000E+00
 -1       549 3.81382E-05 4.44437E-07 0.00000E+00
 -1       550 3.81408E-05 9.34634E-08 0.00000E+00
 -1       551 3.43639E-05-1.66092E-06-1.65436E-24
 -1       552 2.98714E-05-1.74274E-06 0.00000E+00
 -1       553 2.49035E-05-1.82686E-06 0.00000E+00
 -1       554 1.97270E-05-1.91329E-06 0.00000E+00
 -1       555 1.46082E-05-2.00090E-06 6.61744E-24
 -1       556 3.71371E-05 9.67190E-07 0.00000E+00
 -1       557 3.63880E-05 2.91169E-06 0.00000E+00
 -1       558 3.58458E-05 4.30862E-06 0.00000E+00
 -1       559 3.54876E-05 5.21823E-06 0.00000E+00
 -1       560 3.52900E-05 5.70058E-06 6.61744E-24
 -1       561 3.52303E-05 5.81605E-06 0.00000E+00
 -1       562 3.52856E-05 5.62508E-06 0.00000E+00
 -1       563 3.54331E-05 5.18811E-06 0.00000E+00
 -1       564 3.56501E-05 4.56563E-06-1.65436E-24
 -1       565 3.59139E-05 3.81815E-06 0.00000E+00
 -1       566 3.62018E-05 3.00617E-06 0.00000E+00
 -1       567 3.64913E-05 2.19023E-06-1.03398E-25
 -1       568 3.67595E-05 1.43084E-06 0.00000E+00
 -1       569 3.69840E-05 7.88423E-07 0.00000E+00
 -1       570 3.71421E-05 3.23467E-07 0.00000E+00
 -1       571 3.81759E-05 8.58625E-08 0.00000E+00
 -1       572 3.82086E-05 1.17123E-07 1.03398E-25
 -1       573 3.82414E-05 1.30535E-07 4.13590E-25
 -1       574 3.82744E-05 1.30159E-07 2.06795E-25
 -1       575 3.83074E-05 1.20075E-07 0.00000E+00
 -1       576 3.83404E-05 1.04388E-07 4.13590E-25
 -1       577 3.83734E-05 8.72089E-08 0.00000E+00
 -1       578 3.84064E-05 7.26490E-08 0.00000E+00
 -1       579 3.84395E-05 6.48208E-08 0.00000E+00
 -1       580 3.84725E-05 6.78374E-08 0.00000E+00
 -1       581 3.85055E-05 8.58106E-08 0.00000E+00
 -1       582 3.85385E-05 1.22848E-07 0.00000E+00
 -1       583 3.85715E-05 1.83052E-07 0.00000E+00
 -1       584 3.86045E-05 2.70485E-07 0.00000E+00
 -1       585 3.86375E-05 3.89184E-07 0.00000E+00
 -1       586 3.79774E-05 4.39142E-08 0.00000E+00
 -1       587 3.77969E-05 5.46508E-08 2.06795E-25
 -1       588 3.76161E-05 6.52673E-08 0.00000E+00
 -1       589 3.74492E-05 7.57141E-08 0.00000E+00
 -1       590 3.73098E-05 8.58757E-08 0.00000E+00
 -1       591 3.81089E-05 1.02494E-07 5.16988E-26
 -1       592 3.80793E-05 1.54060E-07 0.00000E+00
 -1       593 3.80551E-05 1.91021E-07 2.06795E-25
 -1       594 3.80350E-05 2.16469E-07 0.00000E+00
 -1       595 3.80181E-05 2.33534E-07 4.13590E-25
 -1       596 3.80031E-05 2.45324E-07 0.00000E+00
 -1       597 3.79889E-05 2.54944E-07 2.06795E-25
 -1       598 3.79744E-05 2.65498E-07 1.03398E-25
 -1       599 3.79583E-05 2.80089E-07 2.06795E-25
 -1       600 3.79396E-05 3.01820E-07 1.03398E-25
 -1       601 3.79170E-05 3.33795E-07 0.00000E+00
 -1       602 3.78895E-05 3.79121E-07 5.16988E-26
 -1       603 3.78558E-05 4.40904E-07-1.55096E-25
 -1       604 3.78150E-05 5.22275E-07 0.00000E+00
 -1       605 3.77657E-05 6.26326E-07 0.00000E+00
 -1       606 3.86766E-05 7.71615E-07 0.00000E+00
 -1       607 3.86816E-05 1.04762E-06 0.00000E+00
 -1       608 3.86862E-05 1.36812E-06-1.65436E-24
 -1       609 3.86907E-05 1.72998E-06 8.27181E-25
 -1       610 3.86952E-05 2.13006E-06 0.00000E+00
 -1       611 3.86996E-05 2.56518E-06 0.00000E+00
 -1       612 3.87039E-05 3.03213E-06 0.00000E+00
 -1       613 3.87083E-05 3.52773E-06 0.00000E+00
 -1       614 3.87126E-05 4.04879E-06 0.00000E+00
 -1       615 3.87170E-05 4.59211E-06 0.00000E+00
 -1       616 3.87213E-05 5.15450E-06 0.00000E+00
 -1       617 3.87256E-05 5.73276E-06 0.00000E+00
 -1       618 3.87299E-05 6.32370E-06-4.13590E-25
 -1       619 3.87342E-05 6.92412E-06 0.00000E+00
 -1       620 3.87384E-05 7.53084E-06 0.00000E+00
 -1       621 3.84878E-05 5.78504E-07-8.27181E-25
 -1       622 3.83176E-05 6.14307E-07 0.00000E+00
 -1       623 3.81571E-05 6.50105E-07 0.00000E+00
 -1       624 3.80039E-05 6.85847E-07 0.00000E+00
 -1       625 3.78551E-05 7.21526E-07 0.00000E+00
 -1       626 3.86228E-05 7.82812E-07-1.65436E-24
 -1       627 3.85607E-05 1.06191E-06 0.00000E+00
 -1       628 3.84854E-05 1.37655E-06 0.00000E+00
 -1       629 3.83982E-05 1.72285E-06 0.00000E+00
 -1       630 3.83007E-05 2.09695E-06 0.00000E+00
 -1       631 3.81941E-05 2.49494E-06-1.65436E-24
 -1       632 3.80800E-05 2.91292E-06 0.00000E+00
 -1       633 3.79599E-05 3.34699E-06 0.00000E+00
 -1       634 3.78353E-05 3.79324E-06-1.65436E-24
 -1       635 3.77075E-05 4.24777E-06 0.00000E+00
 -1       636 3.75780E-05 4.70669E-06-8.27181E-25
 -1       637 3.74484E-05 5.16609E-06 4.13590E-25
 -1       638 3.73200E-05 5.62206E-06-8.27181E-25
 -1       639 3.71943E-05 6.07069E-06 0.00000E+00
 -1       640 3.70727E-05 6.50809E-06-8.27181E-25
 -1       656 3.82355E-05 7.94376E-06 0.00000E+00
 -1       657 3.79064E-05 7.73896E-06 1.65436E-24
 -1       658 3.76859E-05 7.53479E-06 0.00000E+00
 -1       659 3.75035E-05 7.33078E-06 0.00000E+00
 -1       660 3.72848E-05 7.12613E-06 0.00000E+00
 -1       661 3.85548E-05 8.73844E-06 4.13590E-25
 -1       662 3.83781E-05 9.31115E-06-4.13590E-25
 -1       663 3.82105E-05 9.85927E-06 0.00000E+00
 -1       664 3.80520E-05 1.03839E-05 0.00000E+00
 -1       665 3.79020E-05 1.08860E-05-8.27181E-25
 -1       666 3.77601E-05 1.13666E-05-4.13590E-25
 -1       667 3.76260E-05 1.18264E-05 0.00000E+00
 -1       668 3.74994E-05 1.22664E-05 4.13590E-25
 -1       669 3.73798E-05 1.26876E-05-8.27181E-25
 -1       670 3.72670E-05 1.30906E-05 0.00000E+00
 -1       671 3.71607E-05 1.34765E-05 8.27181E-25
 -1       672 3.70604E-05 1.38460E-05 0.00000E+00
 -1       673 3.69660E-05 1.41998E-05 0.00000E+00
 -1       674 3.68768E-05 1.45387E-05-4.13590E-25
 -1       675 3.67930E-05 1.48635E-05 2.06795E-25
 -1       676 3.81781E-05 1.53679E-05 0.00000E+00
 -1       677 3.78845E-05 1.53289E-05 4.13590E-25
 -1       678 3.75910E-05 1.52899E-05 0.00000E+00
 -1       679 3.72977E-05 1.52511E-05 0.00000E+00
 -1       680 3.70047E-05 1.52122E-05 0.00000E+00
 -1       771 7.88159E-06 1.54098E-06 1.32349E-23
 -1       772 6.19922E-06 4.51446E-06 0.00000E+00
 -1       773 4.75396E-06 6.85980E-06 0.00000E+00
 -1       774 3.52943E-06 8.61894E-06 0.00000E+00
 -1       775 2.50968E-06 9.83431E-06 0.00000E+00
 -1       776 1.67823E-06 1.05491E-05-6.61744E-24
 -1       777 1.01845E-06 1.08070E-05-1.32349E-23
 -1       778 5.13525E-07 1.06522E-05 0.00000E+00
 -1       779 1.46557E-07 1.01295E-05 1.32349E-23
 -1       780-9.95242E-08 9.28392E-06-6.61744E-24
 -1       781-2.41817E-07 8.16105E-06-1.32349E-23
 -1       782-2.97552E-07 6.80673E-06 0.00000E+00
 -1       783-2.83978E-07 5.26702E-06-1.32349E-23
 -1       784-2.18395E-07 3.58829E-06 0.00000E+00
 -1       785-1.18163E-07 1.81701E-06 0.00000E+00
 -1       786 3.72408E-05 9.89010E-08 0.00000E+00
 -1       787 3.72718E-05 1.03084E-07 0.00000E+00
 -1       788 3.73026E-05 1.08286E-07 0.00000E+00
 -1       789 3.73338E-05 1.15155E-07-4.13590E-25
 -1       790 3.73650E-05 1.24456E-07-8.27181E-25
 -1       791 3.73962E-05 1.36960E-07 4.13590E-25
 -1       792 3.74275E-05 1.53661E-07-8.27181E-25
 -1       793 3.74587E-05 1.75559E-07 0.00000E+00
 -1       794 3.74900E-05 2.04022E-07-8.27181E-25
 -1       795 3.75213E-05 2.40429E-07 4.13590E-25
 -1       796 3.75526E-05 2.86715E-07 0.00000E+00
 -1       797 3.75838E-05 3.44833E-07 4.13590E-25
 -1       798 3.76151E-05 4.17569E-07-8.27181E-25
 -1       799 3.76462E-05 5.07730E-07 4.13590E-25
 -1       800 3.76774E-05 6.19353E-07-8.27181E-25
 -1       801 3.46973E-05 1.04207E-07 4.13590E-25
 -1       802 2.72262E-05 8.98237E-08 0.00000E+00
 -1       803 1.74101E-05 5.68347E-08 0.00000E+00
 -1       804 7.85931E-06 2.27247E-08 1.65436E-24
 -1       805 1.18462E-06 1.09564E-08-6.61744E-24
 -1       806 3.71716E-05 7.80184E-08 0.00000E+00
 -1       807 3.71300E-05 6.10459E-08-4.13590E-25
 -1       808 3.70872E-05 4.66029E-08-1.65436E-24
 -1       809 3.70424E-05 3.67496E-08-4.13590E-25
 -1       810 3.69952E-05 3.35421E-08 8.27181E-25
 -1       811 3.69446E-05 3.90063E-08 0.00000E+00
 -1       812 3.68900E-05 5.51662E-08 1.65436E-24
 -1       813 3.68307E-05 8.40407E-08-4.13590E-25
 -1       814 3.67658E-05 1.27649E-07 8.27181E-25
 -1       815 3.66947E-05 1.88008E-07 0.00000E+00
 -1       816 3.66165E-05 2.67133E-07 1.65436E-24
 -1       817 3.65305E-05 3.67042E-07 0.00000E+00
 -1       818 3.64360E-05 4.89751E-07 8.27181E-25
 -1       819 3.63322E-05 6.37266E-07-8.27181E-25
 -1       820 3.62185E-05 8.11599E-07 0.00000E+00
 -1       821 3.76638E-05 9.23023E-07 0.00000E+00
 -1       822 3.76167E-05 1.12282E-06 0.00000E+00
 -1       823 3.75698E-05 1.36066E-06 0.00000E+00
 -1       824 3.75224E-05 1.64121E-06-8.27181E-25
 -1       825 3.74750E-05 1.96485E-06-1.65436E-24
 -1       826 3.74274E-05 2.33183E-06 0.00000E+00
 -1       827 3.73798E-05 2.73801E-06 0.00000E+00
 -1       828 3.73322E-05 3.17919E-06 8.27181E-25
 -1       829 3.72845E-05 3.64762E-06 1.65436E-24
 -1       830 3.72369E-05 4.13546E-06 8.27181E-25
 -1       831 3.71893E-05 4.63295E-06 0.00000E+00
 -1       832 3.71418E-05 5.13026E-06 8.27181E-25
 -1       833 3.70943E-05 5.61762E-06 0.00000E+00
 -1       834 3.70473E-05 6.08525E-06 0.00000E+00
 -1       835 3.70002E-05 6.52538E-06 0.00000E+00
 -1       836 3.75112E-05 7.99483E-07-8.27181E-25
 -1       837 3.72575E-05 8.43417E-07 0.00000E+00
 -1       838 3.69680E-05 8.87272E-07 8.27181E-25
 -1       839 3.66637E-05 9.30849E-07 4.13590E-25
 -1       840 3.63656E-05 9.74357E-07 0.00000E+00
 -1       856 3.69423E-05 7.34531E-06 1.03398E-25
 -1       857 3.69273E-05 7.81224E-06 1.03398E-25
 -1       858 3.69122E-05 8.32285E-06 0.00000E+00
 -1       859 3.68969E-05 8.86893E-06-2.06795E-25
 -1       860 3.68816E-05 9.44219E-06-4.13590E-25
 -1       861 3.68662E-05 1.00344E-05 2.06795E-25
 -1       862 3.68507E-05 1.06372E-05 4.13590E-25
 -1       863 3.68353E-05 1.12423E-05 2.06795E-25
 -1       864 3.68199E-05 1.18415E-05 0.00000E+00
 -1       865 3.68045E-05 1.24264E-05 0.00000E+00
 -1       866 3.67890E-05 1.29888E-05 0.00000E+00
 -1       867 3.67736E-05 1.35204E-05-2.06795E-25
 -1       868 3.67582E-05 1.40130E-05-4.13590E-25
 -1       869 3.67429E-05 1.44583E-05 2.06795E-25
 -1       870 3.67275E-05 1.48481E-05 0.00000E+00
 -1       871 3.66383E-05 6.92992E-06 2.06795E-25
 -1       872 3.63705E-05 6.92852E-06 0.00000E+00
 -1       873 3.61311E-05 6.92692E-06 0.00000E+00
 -1       874 3.58985E-05 6.92508E-06 1.03398E-25
 -1       875 3.56509E-05 6.92300E-06-3.10193E-25
 -1       876 3.68456E-05 7.34957E-06 1.65436E-24
 -1       877 3.67269E-05 7.79408E-06-8.27181E-25
 -1       878 3.65999E-05 8.26078E-06-1.65436E-24
 -1       879 3.64658E-05 8.74683E-06 0.00000E+00
 -1       880 3.63256E-05 9.24936E-06 0.00000E+00
 -1       881 3.61802E-05 9.76553E-06-8.27181E-25
 -1       882 3.60308E-05 1.02925E-05-1.65436E-24
 -1       883 3.58784E-05 1.08274E-05 8.27181E-25
 -1       884 3.57241E-05 1.13675E-05 0.00000E+00
 -1       885 3.55689E-05 1.19098E-05 8.27181E-25
 -1       886 3.54139E-05 1.24516E-05 0.00000E+00
 -1       887 3.52601E-05 1.29899E-05 0.00000E+00
 -1       888 3.51087E-05 1.35220E-05 0.00000E+00
 -1       889 3.49604E-05 1.40450E-05 4.13590E-25
 -1       890 3.48163E-05 1.45560E-05-4.13590E-25
 -1       891 3.64292E-05 1.51536E-05 4.13590E-25
 -1       892 3.61375E-05 1.51330E-05 2.06795E-25
 -1       893 3.58265E-05 1.51124E-05 0.00000E+00
 -1       894 3.54860E-05 1.50919E-05-1.03398E-25
 -1       895 3.51057E-05 1.50714E-05 4.13590E-25
 -1       956 3.60501E-05 1.27664E-06 0.00000E+00
 -1       957 3.60047E-05 1.56772E-06-4.13590E-25
 -1       958 3.59592E-05 1.88493E-06-1.65436E-24
 -1       959 3.59136E-05 2.22505E-06 0.00000E+00
 -1       960 3.58680E-05 2.58489E-06 8.27181E-25
 -1       961 3.58223E-05 2.96120E-06 4.13590E-25
 -1       962 3.57767E-05 3.35075E-06 0.00000E+00
 -1       963 3.57310E-05 3.75032E-06-8.27181E-25
 -1       964 3.56853E-05 4.15668E-06-1.65436E-24
 -1       965 3.56397E-05 4.56657E-06 0.00000E+00
 -1       966 3.55940E-05 4.97678E-06-1.65436E-24
 -1       967 3.55483E-05 5.38408E-06 0.00000E+00
 -1       968 3.55027E-05 5.78522E-06 0.00000E+00
 -1       969 3.54572E-05 6.17699E-06 0.00000E+00
 -1       970 3.54118E-05 6.55616E-06 0.00000E+00
 -1       971 3.53243E-05 7.29294E-06-8.27181E-25
 -1       972 3.52811E-05 7.70481E-06-4.13590E-25
 -1       973 3.52377E-05 8.15095E-06-8.27181E-25
 -1       974 3.51943E-05 8.62694E-06 8.27181E-25
 -1       975 3.51509E-05 9.12836E-06-8.27181E-25
 -1       976 3.51074E-05 9.65074E-06 8.27181E-25
 -1       977 3.50639E-05 1.01897E-05 1.65436E-24
 -1       978 3.50204E-05 1.07407E-05 0.00000E+00
 -1       979 3.49769E-05 1.12994E-05 0.00000E+00
 -1       980 3.49335E-05 1.18613E-05 8.27181E-25
 -1       981 3.48900E-05 1.24220E-05 0.00000E+00
 -1       982 3.48465E-05 1.29769E-05 0.00000E+00
 -1       983 3.48032E-05 1.35218E-05 1.65436E-24
 -1       984 3.47600E-05 1.40521E-05 0.00000E+00
 -1       985 3.47170E-05 1.45635E-05 0.00000E+00
 -3
    1PSTEP                         2           1           1          
  100CL  101 2.50000E-01         409                     0    1           1
 -4  STRESS      6    1
 -5  SXX         1    4    1    1
 -5  SYY         1    4    2    2
 -5  SZZ         1    4    3    3
 -5  SXY         1    4    1    2
 -5  SYZ         1    4    2    3
 -5  SZX         1    4    3    1
 -1         1-9.20457E+05-4.19637E+05-1.91143E+05-5.76910E+05 2.01908E-10-2.83035E-09
 -1         2 1.36860E+03 1.20512E+05 4.45883E+03 1.98971E+02-7.62839E-11 1.05331E-08
 -1         3-1.78314E+01-3.58563E+05 8.23965E+01-6.48136E+01-5.95550E-11-3.45244E-09
 -1         5-2.18240E+00 1.29795E+05 3.39844E+00-5.21036E-02 4.92733E-11 9.60063E-09
 -1         8-4.33456E+05-1.83870E+05-1.94185E+04-3.11025E+05 2.45564E-11 1.27693E-09
 -1         9-7.38809E+05-2.01913E+05-8.07773E+04-2.47129E+05 1.43336E-09 6.49015E-10
 -1        10-2.65757E+02-3.73551E+05-4.75640E+02-4.29250E+02-1.73623E-09-1.25889E-08
 -1        12-7.87319E-01 1.29802E+05 1.10160E+02-1.08491E-01 1.42677E-10 1.68529E-09
 -1        15 1.08656E+03 5.97123E+02 3.51230E+03 1.24455E+00-1.36681E-08-5.38742E-06
 -1        16-1.97074E+06-6.35653E+05-3.06416E+05-6.46548E+05 5.76983E-09-5.19988E-09
 -1        17-4.27576E+05-2.65611E+05-8.20824E+04-2.51371E+05-3.02607E-09-2.58879E-09
 -1        18 1.81927E+04 2.10822E+03-5.43075E+03-3.04832E+04 3.80282E-10 7.26914E-10
 -1        19 4.06786E+04 4.85180E+04-2.22837E+02 7.97629E+03-3.01679E-10-9.60790E-10
 -1        20-1.68154E+04-1.92301E+05-4.23953E+04 1.43551E+04 2.17263E-09-8.22486E-10
 -1        21-1.82308E+01-1.11628E+05-3.60598E+02-2.24873E+01-4.84499E-09-7.21593E-09
 -1        24-1.72719E+06-6.04230E+05-2.47171E+05-7.35668E+05-7.93686E-09-4.45046E-09
 -1        25 1.56341E+04 3.03302E+02 9.63875E+03-5.49808E+04 1.94768E-10 1.60780E-09
 -1        26-9.38215E+03 3.31698E+04-6.57564E+03-4.75172E+03 8.60564E-10 1.93947E-09
 -1        27-3.08092E+04-1.05529E+05-3.95906E+04 2.37831E+04 2.77529E-09 1.57085E-09
 -1        28 8.62056E+03-3.08350E+04 6.29959E+03 9.90178E+03 2.12859E-09 1.04406E-09
 -1        32-4.10825E+05-5.53642E+04 1.78921E+05-2.76857E+05-7.98900E-09 8.17832E-09
 -1        33-6.03631E+04 3.10480E+04 1.10069E+04-1.80412E+04 5.94336E-10 4.41848E-09
 -1        34-7.83776E+04-7.79911E+03 1.85950E+02 2.40937E+04 1.65070E-09 2.39114E-09
 -1        35-8.77274E+03-1.22673E+04-4.77708E+02 1.94404E+04 3.05303E-09-3.84413E-10
 -1        51 8.08188E+03-2.05395E+05 1.95803E+04-5.10694E+05-2.91038E-11 2.19225E-08
 -1        52 3.97896E+03-2.03442E+05 1.29451E+04-5.95626E+05-3.27418E-11 4.21023E-08
 -1        53 2.44536E+03-2.08252E+05 1.13908E+04-5.08966E+05 4.51109E-10 2.51530E-08
 -1        54 8.03711E+03-2.06166E+05 1.84986E+04-5.97470E+05 2.76486E-10-3.75258E-09
 -1        55 1.84368E+04-2.12861E+05 3.33628E+04-5.08753E+05 2.69210E-10-5.18412E-10
 -1        56-1.76064E+06-1.97302E+05-1.39524E+05-6.79816E+05 5.16593E-10-1.15688E-09
 -1        57-1.81976E+06-3.23437E+05-9.44758E+04-6.71106E+05 2.06455E-10-7.09588E-09
 -1        58-1.78862E+06-2.42572E+05-3.28297E+04-6.71092E+05-4.38376E-10-2.88856E-09
 -1        59-1.78737E+06-2.70515E+05-1.97342E+04-6.81488E+05-6.49038E-10 2.43381E-09
 -1        60-1.79280E+06-2.48987E+05-7.67582E+03-6.69874E+05-7.00084E-10-4.29281E-09
 -1        61-1.78289E+06-2.62680E+05-4.39588E+03-6.82495E+05-5.12500E-10-5.50023E-09
 -1        62-1.79306E+06-2.50248E+05-2.10589E+03-6.70134E+05-8.42419E-11-7.33934E-10
 -1        63-1.78334E+06-2.60629E+05-1.74809E+03-6.81346E+05-1.23634E-09-7.84979E-10
 -1        64-1.79232E+06-2.51032E+05-1.99417E+03-6.71015E+05 7.32030E-10 2.18279E-10
 -1        65-1.78571E+06-2.59594E+05-4.03195E+03-6.79047E+05-5.72243E-10 5.16206E-09
 -1        66-1.79068E+06-2.51314E+05-7.03329E+03-6.72410E+05 6.94683E-10-3.04226E-09
 -1        67-1.79237E+06-2.64116E+05-1.79925E+04-6.75102E+05-6.81069E-10-5.05247E-09
 -1        68-1.78567E+06-2.46670E+05-2.99742E+04-6.74898E+05-4.57021E-10-7.31234E-10
 -1        69-1.82401E+06-3.10328E+05-8.61789E+04-6.63285E+05-5.27507E-10 6.05723E-10
 -1        70-1.75927E+06-2.06227E+05-1.27316E+05-6.83830E+05-1.65164E-09 1.69530E-09
 -1        86-6.85781E+02 1.19177E+05 4.78524E+03-9.94917E+01 6.48242E-10 1.27233E-09
 -1        87 4.55282E+03 1.22059E+05 9.97177E+03 4.06334E+02 1.08332E-09-7.69569E-09
 -1        88-3.86047E+03 1.17630E+05 1.52807E+04-3.06854E+02 1.59798E-09-5.49107E-10
 -1        89 2.87706E+04 1.33318E+05 4.11878E+04 8.66110E+02 2.45200E-09-8.68624E-10
 -1        90-2.48237E+04 1.07922E+05 5.82030E+04-5.59102E+02 2.71757E-09 2.81591E-09
 -1       121-3.40171E+01-3.58678E+05 8.25637E+01 3.23880E+01 1.84549E-10 2.46837E-09
 -1       122 9.26044E+00-3.58544E+05 1.80571E+02-1.29775E+02-6.63652E-10 1.08821E-09
 -1       123-5.39336E+01-3.58697E+05 2.97111E+02 9.72764E+01 5.14547E-10 3.50519E-09
 -1       124 3.42602E+02-3.58339E+05 7.59107E+02-3.22138E+02-1.28011E-09 8.63793E-10
 -1       125-2.71170E+02-3.58886E+05 1.16884E+03 2.24775E+02 8.11951E-10-5.71526E-09
 -1       191-2.40399E+00 1.29806E+05 4.07612E+00 2.58877E-02 9.09417E-11 5.93718E-09
 -1       192-2.49431E+00 1.29795E+05 7.19533E+00 1.58772E-01 1.38811E-10 1.32536E-09
 -1       193-3.23360E+00 1.29805E+05 1.33954E+01-1.85810E-01 1.37783E-10-3.54794E-09
 -1       194-3.49826E+00 1.29796E+05 2.72165E+01 5.00197E-01 6.81268E-11 1.20417E-09
 -1       195-4.82836E+00 1.29805E+05 5.32520E+01-3.17586E-01 2.44619E-10-1.74441E-09
 -1       251 4.95160E+04-2.19775E+04 5.13587E+04 1.73901E+03 5.91058E-10 2.73576E-09
 -1       252 7.26374E+04 2.54366E+04 3.63933E+04-6.84492E+03 4.44288E-10-6.55746E-09
 -1       253 5.82784E+04-3.40501E+03 1.32911E+04 1.51297E+03 3.29976E-10-7.92170E-10
 -1       254 6.23322E+04 3.93498E+03 8.39531E+03-6.49226E+03 1.94532E-10 4.06214E-09
 -1       255 5.97886E+04-5.26717E+02 3.43299E+03 1.38644E+03 2.55994E-10 2.29966E-09
 -1       256 6.05253E+04 6.24261E+02 2.08784E+03-6.30358E+03 3.38190E-10 5.85547E-09
 -1       257 6.00683E+04-9.24024E+01 1.07439E+03 1.32428E+03-7.90834E-12 2.22195E-09
 -1       258 6.02389E+04 1.94814E+02 9.53329E+02-6.23883E+03-1.21977E-10-1.25352E-10
 -1       259 6.00692E+04-9.43390E+01 1.09321E+03 1.32170E+03-2.90576E-10-3.73788E-09
 -1       260 6.05251E+04 6.41803E+02 2.13912E+03-6.29383E+03 4.71459E-10-3.56579E-09
 -1       261 5.97870E+04-5.41638E+02 3.53004E+03 1.37928E+03 9.50649E-10 3.34148E-09
 -1       262 6.23686E+04 4.04875E+03 8.62971E+03-6.47175E+03 8.50946E-11 1.78284E-09
 -1       263 5.82417E+04-3.50219E+03 1.36752E+04 1.49962E+03-2.81716E-10-3.81169E-09
 -1       264 7.29470E+04 2.61661E+04 3.74275E+04-6.81172E+03-9.82141E-10 1.26602E-09
 -1       265 4.92402E+04-2.26050E+04 5.28387E+04 1.71915E+03-7.49765E-10 7.00311E-09
 -1       266-1.96706E+04-9.19858E+03 4.61499E+04-2.66285E+01-2.16023E-08-8.51062E-06
 -1       267 2.28035E+04 1.07202E+04 3.26196E+04 3.07256E+01-4.27458E-08-1.68200E-05
 -1       268-3.05791E+03-1.51833E+03 1.21245E+04-3.91485E+00-3.42643E-08-1.34772E-05
 -1       269 3.61048E+03 1.81706E+03 7.88078E+03 4.56033E+00-2.57877E-08-1.01493E-05
 -1       270-5.41938E+02-2.98559E+02 3.80416E+03-6.18844E-01-1.89937E-08-7.47421E-06
 -1       271-1.92206E+06-2.38871E+05-1.47543E+05-7.47437E+05 6.71207E-10 3.43425E-09
 -1       272-1.96235E+06-3.59310E+05-9.48775E+04-7.60898E+05 7.96945E-11 1.98816E-09
 -1       273-1.94981E+06-2.75635E+05-3.48495E+04-7.40903E+05 8.79936E-11 9.91349E-10
 -1       274-1.93007E+06-3.14120E+05-1.95256E+04-7.70855E+05 1.34105E-09 8.47831E-09
 -1       275-1.95392E+06-2.79163E+05-8.10747E+03-7.39455E+05 3.18323E-11 4.55611E-09
 -1       276-1.92523E+06-3.09943E+05-4.31634E+03-7.73179E+05-2.17142E-10-8.84484E-10
 -1       277-1.95480E+06-2.79194E+05-2.11163E+03-7.38911E+05-1.21645E-10 9.99421E-10
 -1       278-1.92438E+06-3.09841E+05-1.53779E+03-7.73849E+05 7.22991E-10 4.32357E-09
 -1       279-1.95486E+06-2.79169E+05-1.64995E+03-7.38863E+05-5.54564E-10-3.78554E-09
 -1       280-1.92491E+06-3.09880E+05-3.02569E+03-7.73407E+05-7.93989E-10 3.76622E-09
 -1       281-1.95420E+06-2.79220E+05-5.52419E+03-7.39300E+05 5.22050E-10 3.13503E-09
 -1       282-1.92840E+06-3.12440E+05-1.32060E+04-7.71509E+05-5.08408E-10 1.78579E-09
 -1       283-1.95123E+06-2.77056E+05-2.35501E+04-7.40502E+05 1.50521E-10-1.45519E-10
 -1       284-1.95064E+06-3.42426E+05-6.40534E+04-7.64124E+05-9.14611E-10-1.38880E-09
 -1       285-1.93216E+06-2.52601E+05-9.96592E+04-7.45289E+05 4.44743E-10-5.02041E-10
 -1       301 7.37289E+03-4.47689E+03 5.76886E+04-1.36580E+04-2.21917E-10-1.32286E-09
 -1       302 7.91200E+03 1.01748E+04 4.16552E+04-2.00892E+04 8.06835E-10 9.67418E-10
 -1       303 3.25874E+02 7.05237E+02 3.83390E+04-1.36809E+04-4.52928E-10 1.81990E-09
 -1       304 1.49360E+04 1.66507E+04 6.44855E+04-2.00327E+04 5.85715E-10 5.91399E-10
 -1       305 1.48098E+04-1.09230E+04 1.08205E+05-1.36853E+04-5.27507E-10 2.75440E-09
 -1       306-2.04705E+06-2.34189E+05-1.55296E+05-7.96222E+05 1.18962E-09-2.13186E-09
 -1       307-2.12067E+06-3.72039E+05-1.05914E+05-7.76925E+05 2.19961E-09 9.61882E-09
 -1       308-2.08135E+06-2.83382E+05-3.65299E+04-7.82750E+05-3.18323E-10 8.88394E-09
 -1       309-2.07897E+06-3.16801E+05-2.21649E+04-7.95108E+05 3.09512E-11 2.37287E-09
 -1       310-2.08859E+06-2.88483E+05-8.57055E+03-7.78385E+05-5.56494E-10 1.86310E-09
 -1       311-2.06981E+06-3.11734E+05-4.98394E+03-8.01252E+05 2.39334E-09 1.79767E-09
 -1       312-2.09054E+06-2.88275E+05-2.43549E+03-7.76693E+05-2.33342E-10 5.23073E-10
 -1       313-2.06815E+06-3.11660E+05-2.20046E+03-8.02644E+05-7.85434E-10 2.61468E-09
 -1       314-2.09027E+06-2.88528E+05-2.64446E+03-7.77013E+05-1.43021E-09-3.15140E-10
 -1       315-2.07091E+06-3.10915E+05-5.59125E+03-8.00013E+05-6.07656E-11-1.12504E-09
 -1       316-2.08774E+06-2.89066E+05-9.71772E+03-7.79289E+05 1.69630E-09 1.18507E-09
 -1       317-2.08164E+06-3.16399E+05-2.51756E+04-7.92720E+05-1.11265E-09-3.64707E-09
 -1       318-2.07951E+06-2.83237E+05-4.15108E+04-7.84210E+05-2.06455E-09 8.12179E-09
 -1       319-2.12875E+06-3.79556E+05-1.20388E+05-7.72522E+05-1.18325E-09 2.65572E-09
 -1       320-2.04083E+06-2.26964E+05-1.76475E+05-7.99109E+05 4.12911E-09-3.24508E-09
 -1       336 2.92441E+02-3.88293E+05-2.05630E+03 2.04310E+02-3.39594E-09 6.43831E-09
 -1       337-7.37026E+02-3.88892E+05-2.25546E+03-5.77304E+02-6.31502E-09-1.02955E-09
 -1       338 1.94417E+02-3.88354E+05-2.82759E+03 3.72208E+02-4.55259E-09-3.49610E-09
 -1       339-2.92363E+03-3.90226E+05-6.19953E+03-9.10739E+02-8.11190E-09-8.56517E-10
 -1       340 2.00131E+03-3.86969E+05-9.54341E+03 5.36042E+02-5.24642E-09-8.37645E-10
 -1       406 7.63841E+00 1.29800E+05 2.17502E+02 4.21371E-01 2.99835E-10 3.57340E-09
 -1       407 7.50409E+01 1.29840E+05 4.62257E+02-5.71879E+00 2.33626E-11 2.20348E-09
 -1       408 2.37162E+02 1.29766E+05 9.23261E+02 5.34673E+00 3.62888E-10 1.98042E-09
 -1       409 9.97560E+02 1.30135E+05 2.07859E+03-4.79781E+01 4.83169E-11-7.91033E-10
 -1       410 2.86759E+03 1.29504E+05 4.24342E+03 4.35522E+01 4.12456E-10-2.32876E-09
 -1       521-3.90325E+06-4.49198E+05-2.92020E+05-1.51601E+06 3.40515E-09-7.77072E-09
 -1       522-4.04271E+06-7.02822E+05-1.98508E+05-1.47881E+06 1.66256E-09-5.19140E-09
 -1       523-3.96809E+06-5.39700E+05-6.86524E+04-1.49030E+06 1.37425E-09-3.21597E-09
 -1       524-3.96394E+06-6.00924E+05-4.14467E+04-1.51336E+06 1.58946E-09 4.73119E-09
 -1       525-3.98153E+06-5.48888E+05-1.60437E+04-1.48221E+06 3.60046E-10-1.86265E-09
 -1       526-3.94806E+06-5.90569E+05-9.25731E+03-1.52332E+06 6.50715E-11 5.26938E-10
 -1       527-3.98396E+06-5.49680E+05-4.44419E+03-1.48050E+06 1.36572E-09 2.75691E-10
 -1       528-3.94832E+06-5.86859E+05-3.81092E+03-1.52167E+06-1.37010E-09-9.59545E-10
 -1       529-3.98120E+06-5.52590E+05-4.46667E+03-1.48383E+06-6.14591E-10-1.51181E-09
 -1       530-3.95814E+06-5.79982E+05-9.13086E+03-1.51094E+06-3.00133E-10 2.40198E-09
 -1       531-3.97401E+06-5.56694E+05-1.60149E+04-1.49111E+06 1.35446E-09 2.43017E-09
 -1       532-3.98136E+06-5.82916E+05-4.11194E+04-1.49272E+06 2.17085E-10-2.13913E-09
 -1       533-3.95803E+06-5.50008E+05-6.82243E+04-1.50191E+06 1.60708E-09-4.15093E-09
 -1       534-4.06204E+06-6.82282E+05-1.97239E+05-1.45664E+06 2.14004E-09 3.20142E-09
 -1       535-3.89404E+06-4.59375E+05-2.90051E+05-1.52661E+06-5.85715E-09 4.38013E-09
 -1       536 1.81150E+03-1.12182E+04 2.58621E+04 2.98946E+02-9.98767E-10 1.38243E-09
 -1       537 1.36245E+04 1.29812E+04 1.83988E+04-1.05845E+03-3.70923E-09 3.49382E-09
 -1       538 6.23090E+03-1.75781E+03 6.67681E+03 2.58674E+02-2.95870E-10 3.83125E-09
 -1       539 8.42492E+03 2.03009E+03 4.24514E+03-1.00142E+03 1.34666E-09 3.08569E-09
 -1       540 7.00656E+03-2.73551E+02 1.68993E+03 2.41927E+02 3.55080E-10-1.26704E-09
 -1       541 7.48547E+03 3.13723E+02 1.00095E+03-9.74073E+02 4.62705E-11 1.84828E-09
 -1       542 7.16774E+03-4.08943E+01 4.10367E+02 2.31320E+02-2.00107E-10 2.15144E-09
 -1       543 7.27674E+03 4.11258E+01 2.10639E+02-9.57550E+02 3.07148E-10-1.51324E-09
 -1       544 7.21368E+03 2.05719E-02 4.79321E+01 2.25404E+02-4.35870E-10-1.35042E-09
 -1       545 7.20451E+03-3.65250E+01-7.79279E+01-9.50231E+02-8.12322E-10-1.53864E-10
 -1       546 7.23926E+03 3.72204E+01-2.07200E+02 2.24002E+02-7.00187E-11-1.66978E-10
 -1       547 7.09182E+03-2.77513E+02-5.61752E+02-9.51878E+02-1.23891E-09-7.59087E-10
 -1       548 7.32654E+03 2.40722E+02-9.15600E+02 2.27050E+02-1.30925E-09-6.80984E-10
 -1       549 6.44117E+03-1.77486E+03-2.50114E+03-9.62030E+02-5.70330E-10 4.04066E-09
 -1       550 7.89098E+03 1.53265E+03-3.56294E+03 2.34153E+02-1.73301E-11-7.59428E-11
 -1       551 2.93967E+03-2.04736E+05 1.15779E+04-3.51403E+05-1.52704E-08 5.31145E-10
 -1       552 5.75890E+03-2.04040E+05 1.48409E+04-4.99934E+05-1.18998E-08 6.57747E-09
 -1       553 3.52112E+03-2.06760E+05 2.31763E+04-3.50302E+05-1.87501E-08 5.48425E-09
 -1       554 1.68467E+04-1.95996E+05 4.92244E+04-5.00411E+05-1.24710E-08 3.24144E-09
 -1       555 1.78688E+04-2.16266E+05 8.85911E+04-3.50805E+05-1.89793E-08-1.99179E-09
 -1       556 2.76169E+04-6.50503E+04 2.27959E+04-8.77948E+04-3.64889E-09-3.52520E-09
 -1       557 5.40720E+04-8.74236E+04 1.19032E+04-1.09562E+05-3.12866E-10-6.86668E-11
 -1       558 2.80901E+04-6.84090E+04 4.91317E+03-8.48675E+04-2.24827E-09 1.07775E-09
 -1       559 5.11444E+04-9.07498E+04 2.46019E+03-1.10698E+05 2.81580E-09-4.61114E-10
 -1       560 2.77419E+04-6.81589E+04 1.06927E+03-8.50482E+04 1.17143E-09 3.94584E-09
 -1       561 5.04440E+04-9.06647E+04 5.44418E+02-1.11131E+05-9.96806E-10 2.75440E-09
 -1       562 2.74282E+04-6.79332E+04 2.28743E+02-8.52791E+04-1.89175E-10-6.05951E-10
 -1       563 5.00579E+04-9.05020E+04 1.25994E+02-1.11377E+05-3.41970E-10-8.73001E-10
 -1       564 2.72322E+04-6.78021E+04 4.75528E+01-8.54208E+04 1.89539E-09-2.45700E-09
 -1       565 4.98606E+04-9.04197E+04 1.94952E+01-1.11499E+05 9.09495E-10 9.18590E-11
 -1       566 2.71670E+04-6.77558E+04-1.85278E+01-8.54701E+04-1.34196E-09 2.92584E-09
 -1       567 4.98294E+04-9.04039E+04-6.90301E+01-1.11486E+05 4.40571E-09 1.86446E-09
 -1       568 2.72497E+04-6.78121E+04-1.71167E+02-8.54428E+04-4.63842E-10 3.83261E-09
 -1       569 4.96254E+04-9.02938E+04-4.05719E+02-1.11049E+05-8.47194E-10 1.59889E-09
 -1       570 2.77614E+04-6.83313E+04-8.22513E+02-8.55338E+04 9.27685E-10 1.75987E-10
 -1       571 9.41391E+04 3.41140E+03 5.05195E+03-2.35740E+04-7.51243E-10 6.00039E-10
 -1       572 9.48926E+04 1.18672E+03 2.47488E+03-2.58411E+04-7.13271E-10-3.31715E-09
 -1       573 9.44455E+04 2.82878E+02 1.09942E+03-2.35124E+04-1.92813E-10 1.15665E-09
 -1       574 9.45359E+04 9.11474E+01 5.50676E+02-2.59102E+04-3.44812E-10-2.07160E-09
 -1       575 9.44817E+04 1.15816E+01 2.59495E+02-2.35042E+04 8.87894E-11 3.14685E-10
 -1       576 9.44883E+04 2.00713E+00 1.31986E+02-2.59195E+04 5.89026E-10 4.73619E-10
 -1       577 9.44870E+04-3.04317E+00 6.49604E+01-2.35031E+04-9.78633E-09 1.33014E-10
 -1       578 9.44825E+04-1.88764E+00 3.52962E+01-2.59206E+04-2.12330E-08-3.04703E-09
 -1       579 9.44904E+04-2.71879E+00 2.15210E+01-2.35032E+04-1.00067E-08 1.80762E-09
 -1       580 9.44861E+04-2.69343E+00 1.98792E+01-2.59191E+04 1.38243E-10 7.34849E-09
 -1       581 9.44953E+04-3.46751E+00 2.69871E+01-2.35046E+04-8.22183E-10 1.68870E-09
 -1       582 9.44973E+04 1.84987E+00 5.11447E+01-2.59050E+04-1.21508E-09-1.70576E-09
 -1       583 9.44999E+04 1.64857E+01 9.84936E+01-2.35173E+04-5.46152E-10 2.87957E-09
 -1       584 9.45389E+04 9.46625E+01 2.20458E+02-2.57999E+04-1.10640E-09 3.79771E-10
 -1       585 9.44819E+04 2.90600E+02 4.48363E+02-2.36098E+04 7.13953E-11 1.17325E-09
 -1       586-1.18638E+03 3.05971E+04-1.55885E+03-8.03688E+04 2.53067E-10-6.75414E-10
 -1       587-2.72188E+02 3.03908E+04-1.94246E+02-8.84390E+04 4.47471E-10-4.29202E-09
 -1       588 3.04809E+02 3.04304E+04 1.06127E+03-8.03197E+04 2.59206E-10 8.92442E-10
 -1       589 1.58323E+03 3.10085E+04 3.11822E+03-8.83660E+04 3.88809E-10-4.48085E-09
 -1       590 4.57858E+03 3.00284E+04 6.68930E+03-8.04420E+04 2.23508E-10-4.50518E-09
 -1       591-2.04248E+04-5.87639E+03-6.83361E+03-1.06240E+04-1.94404E-11-2.60661E-09
 -1       592-2.10605E+04-7.55912E+03-3.70137E+03-1.24111E+04-2.31125E-10-2.88333E-09
 -1       593-2.11155E+04-5.37294E+03-1.54090E+03-1.11172E+04-1.13812E-09 2.82284E-10
 -1       594-2.01077E+04-6.56608E+03-7.68543E+02-1.24583E+04 3.98359E-10 4.27568E-09
 -1       595-2.11682E+04-5.37082E+03-3.53197E+02-1.11397E+04-1.73145E-10-9.28082E-10
 -1       596-2.00430E+04-6.52064E+03-1.80059E+02-1.24514E+04-4.83311E-11 3.02725E-09
 -1       597-2.11748E+04-5.37524E+03-9.91265E+01-1.11406E+04-6.31136E-10-1.48538E-09
 -1       598-2.00369E+04-6.51890E+03-8.16636E+01-1.24495E+04-8.48104E-11-4.39462E-09
 -1       599-2.11744E+04-5.37517E+03-1.06749E+02-1.11405E+04 5.18435E-09 4.67901E-09
 -1       600-2.00441E+04-6.52115E+03-2.00301E+02-1.24515E+04 1.12402E-09 1.59417E-10
 -1       601-2.11663E+04-5.37019E+03-3.96109E+02-1.11392E+04-8.31278E-10-1.40744E-09
 -1       602-2.01170E+04-6.57207E+03-8.63941E+02-1.24586E+04-1.30262E-09-6.52147E-09
 -1       603-2.11067E+04-5.37325E+03-1.73274E+03-1.11141E+04-9.32687E-10 1.13789E-09
 -1       604-2.11921E+04-7.68490E+03-4.16256E+03-1.24008E+04 3.54703E-11-4.02451E-10
 -1       605-2.03255E+04-5.94266E+03-7.68490E+03-1.05635E+04 6.95650E-10 4.01178E-09
 -1       606 1.34845E+04-4.52839E+03-8.15949E+03 1.32096E+04-4.49381E-09-1.67074E-09
 -1       607 1.20874E+04-1.46048E+03-4.06321E+03 1.48285E+04-3.31829E-09-7.03130E-09
 -1       608 1.28857E+04-2.45222E+02-1.81897E+03 1.31041E+04-8.98581E-09 1.77829E-09
 -1       609 1.27299E+04-6.59161E+01-9.18953E+02 1.49452E+04-1.94218E-08 3.88616E-09
 -1       610 1.28183E+04 9.68624E+00-4.38530E+02 1.30924E+04-1.17070E-08 2.37128E-09
 -1       611 1.27908E+04 1.26733E+01-2.21340E+02 1.49580E+04-6.28825E-09-6.20616E-10
 -1       612 1.28036E+04 1.38812E+01-1.05656E+02 1.30912E+04-2.21471E-08 1.25328E-09
 -1       613 1.27947E+04 1.38470E+01-4.82914E+01 1.49595E+04-3.86271E-08 4.19413E-09
 -1       614 1.27968E+04 1.17918E+01-1.33951E+01 1.30908E+04-2.79160E-08 1.45542E-09
 -1       615 1.27931E+04 1.42334E+01 1.48890E+01 1.49598E+04-1.97745E-08 3.29692E-10
 -1       616 1.27917E+04 1.26621E+01 4.96496E+01 1.30909E+04-1.48359E-08-7.86486E-10
 -1       617 1.27989E+04 2.51395E+01 1.15046E+02 1.49596E+04-1.67313E-09 4.11137E-09
 -1       618 1.27814E+04 4.60758E+01 2.32650E+02 1.30910E+04-1.14824E-10 5.96754E-09
 -1       619 1.28809E+04 2.05318E+02 5.22871E+02 1.49593E+04-8.96136E-10 1.31195E-10
 -1       620 1.27039E+04 5.98402E+02 1.05113E+03 1.30907E+04-2.88196E-10-7.95580E-10
 -1       621 1.65040E+02 1.02553E+05 1.42113E+03 3.19545E+03-1.64189E-10 2.08161E-10
 -1       622 1.88522E+02 1.02905E+05 1.20445E+03 4.66259E+03-9.73444E-11-2.94133E-09
 -1       623 8.39779E+00 1.02655E+05 1.38295E+03 3.18031E+03-9.42180E-11 3.51855E-09
 -1       624 6.25832E+02 1.03307E+05 2.62428E+03 4.67751E+03-1.78488E-10 7.66153E-09
 -1       625 6.27966E+02 1.02150E+05 4.56130E+03 3.18063E+03-1.19599E-10 7.64244E-09
 -1       626 8.45786E+04 2.34847E+04 1.69023E+03 4.57896E+04 2.28761E-09 7.24776E-09
 -1       627 8.34155E+04 2.43413E+04 8.14084E+02 4.76482E+04-6.82121E-10 8.13543E-10
 -1       628 8.46471E+04 2.26830E+04 3.44163E+02 4.60461E+04 1.89721E-09-2.74679E-09
 -1       629 8.31756E+04 2.41482E+04 1.68502E+02 4.77630E+04 1.39812E-09-9.04839E-09
 -1       630 8.46548E+04 2.26431E+04 7.80808E+01 4.60550E+04 1.49703E-09-3.32864E-09
 -1       631 8.31494E+04 2.41426E+04 4.18766E+01 4.77667E+04-8.35826E-10 2.01200E-09
 -1       632 8.46533E+04 2.26446E+04 2.77141E+01 4.60528E+04-2.91766E-09-1.92762E-09
 -1       633 8.31454E+04 2.41442E+04 3.08578E+01 4.77652E+04-1.07457E-09 4.67253E-10
 -1       634 8.46501E+04 2.26441E+04 5.00142E+01 4.60516E+04 2.40607E-09-1.72122E-10
 -1       635 8.31485E+04 2.41446E+04 1.01410E+02 4.77657E+04 1.62186E-09 1.45474E-09
 -1       636 8.46452E+04 2.26435E+04 2.04916E+02 4.60504E+04-1.11572E-09 1.28875E-09
 -1       637 8.31902E+04 2.41773E+04 4.50420E+02 4.77636E+04 7.63331E-10 7.51243E-10
 -1       638 8.46268E+04 2.27443E+04 9.25853E+02 4.60037E+04 4.12854E-10-4.01974E-09
 -1       639 8.36731E+04 2.48552E+04 2.19036E+03 4.76189E+04-1.51840E-09-4.56407E-09
 -1       640 8.45601E+04 2.47617E+04 4.54583E+03 4.51471E+04-7.81938E-10-7.14294E-10
 -1       656 2.29391E+04-5.80641E+05-5.53915E+04-4.98249E+02-3.01952E-10-1.37453E-09
 -1       657-3.03091E+04-6.05667E+05-4.58080E+04 3.81333E+03 9.34506E-10-1.67994E-09
 -1       658 7.27172E+03-5.87786E+05-2.81121E+04-7.80777E+02 2.44484E-10 1.40222E-09
 -1       659-3.24909E+04-6.06692E+05-4.86733E+04 3.99850E+03-5.26143E-10-3.19224E-09
 -1       660 2.51147E+04-5.79618E+05-6.03269E+04-6.83411E+02-1.12777E-10-4.90473E-10
 -1       661 8.27357E+04 8.97657E+03 7.92602E+03 3.22850E+04 4.43606E-10-3.49701E-10
 -1       662 8.68311E+04 1.52256E+04 5.34078E+03 3.09431E+04 1.44553E-09-2.59524E-09
 -1       663 8.42851E+04 1.15262E+04 1.86825E+03 3.18412E+04-1.00442E-09-1.10333E-09
 -1       664 8.50408E+04 1.22383E+04 1.11686E+03 3.14797E+04-2.19856E-09-3.02634E-09
 -1       665 8.45143E+04 1.18801E+04 4.40623E+02 3.17799E+04-3.64435E-09 2.71811E-10
 -1       666 8.47745E+04 1.18288E+04 2.56846E+02 3.15559E+04-3.12757E-09 3.49087E-09
 -1       667 8.45500E+04 1.19252E+04 1.35460E+02 3.17691E+04-2.05975E-09 1.33043E-09
 -1       668 8.47389E+04 1.17897E+04 1.35560E+02 3.15699E+04 4.35747E-10 5.53596E-10
 -1       669 8.45497E+04 1.19181E+04 1.81687E+02 3.17663E+04 7.51569E-10-5.51722E-10
 -1       670 8.47899E+04 1.18805E+04 3.93706E+02 3.15635E+04 2.09469E-09-3.29367E-09
 -1       671 8.44992E+04 1.18363E+04 6.98554E+02 3.17747E+04-9.67610E-10-3.64670E-09
 -1       672 8.52022E+04 1.25549E+04 1.78673E+03 3.14594E+04 4.96343E-10-1.62572E-09
 -1       673 8.41397E+04 1.12608E+04 2.99416E+03 3.18640E+04-4.90786E-10 1.73543E-09
 -1       674 8.80576E+04 1.73605E+04 8.56303E+03 3.06162E+04-1.87333E-09-1.70314E-09
 -1       675 8.16624E+04 7.16513E+03 1.27097E+04 3.25673E+04 5.17730E-10 7.49424E-10
 -1       676 9.35461E+00-1.11598E+05-4.34610E+02 1.12439E+01-1.17727E-09 2.83743E-09
 -1       677-1.15366E+02-1.11703E+05-7.95346E+02-2.24868E+01-2.60343E-09-3.53247E-09
 -1       678 7.70179E+01-1.11523E+05-1.40594E+03 1.12351E+01-1.22026E-09-3.41742E-09
 -1       679-1.40607E+03-1.12551E+05-3.33963E+03-2.24437E+01-2.73076E-09-7.02860E-09
 -1       680 8.39047E+02-1.10749E+05-5.38242E+03 1.10715E+01-3.88582E-10 1.25182E-09
 -1       771-1.20110E+06-2.07957E+05-2.90107E+04-4.96505E+05-4.23461E-09-3.86353E-09
 -1       772-1.19357E+06-2.24357E+05-1.56187E+04-5.14760E+05-3.29601E-09 2.27647E-09
 -1       773-1.20482E+06-2.05091E+05-6.64805E+03-4.98131E+05-6.94854E-10 6.03904E-09
 -1       774-1.18928E+06-2.20787E+05-3.26232E+03-5.16099E+05 3.60160E-09-5.17502E-10
 -1       775-1.20546E+06-2.04726E+05-1.58773E+03-4.98221E+05-1.74623E-10 2.87400E-10
 -1       776-1.18911E+06-2.20730E+05-7.48573E+02-5.16656E+05-1.63709E-09 1.01954E-09
 -1       777-1.20584E+06-2.04469E+05-4.25164E+02-4.98251E+05 5.60249E-10 7.53971E-10
 -1       778-1.18918E+06-2.20800E+05-2.00971E+02-5.17111E+05 1.55160E-09 1.86446E-09
 -1       779-1.20614E+06-2.04248E+05-1.77996E+02-4.98275E+05-8.29459E-10-1.38243E-09
 -1       780-1.18928E+06-2.20867E+05-1.57755E+02-5.17479E+05-1.52795E-10 1.16870E-10
 -1       781-1.20635E+06-2.04067E+05-2.75948E+02-4.98290E+05-3.87081E-09-6.46651E-10
 -1       782-1.18939E+06-2.20945E+05-5.27824E+02-5.17751E+05-5.82440E-09-1.37408E-09
 -1       783-1.20646E+06-2.03953E+05-1.05353E+03-4.98288E+05-1.19053E-09-2.11492E-09
 -1       784-1.19007E+06-2.21651E+05-2.50626E+03-5.17889E+05-2.69210E-09-1.31308E-10
 -1       785-1.20607E+06-2.04227E+05-4.63139E+03-4.97953E+05-4.97903E-09 5.51154E-10
 -1       786 8.73304E+04-4.66248E+03 1.07859E+04 2.50463E+00 2.88339E-08 1.51613E-09
 -1       787 9.20043E+04 5.39766E+03 7.63104E+03-8.93053E+00 5.70116E-08 3.02214E-09
 -1       788 8.91337E+04-7.30892E+02 2.79165E+03 2.92284E+00 1.00237E-07 3.34501E-09
 -1       789 8.99036E+04 8.45683E+02 1.75403E+03-1.03629E+01 1.43661E-07 4.81805E-09
 -1       790 8.94313E+04-1.14177E+02 7.13703E+02 3.93708E+00 2.18560E-07-2.81460E-10
 -1       791 8.95564E+04 1.32662E+02 4.19066E+02-1.31252E+01 2.93745E-07 3.09031E-09
 -1       792 8.94811E+04-1.84051E+01 1.91315E+02 5.68516E+00 4.39511E-07-4.16392E-09
 -1       793 8.95002E+04 2.58778E+01 1.25489E+02-1.76113E+01 5.86350E-07 1.10139E-09
 -1       794 8.94874E+04-7.46228E+00 9.31453E+01 8.42324E+00 8.89038E-07-7.62862E-09
 -1       795 8.95059E+04 3.85766E+01 1.35008E+02-2.44712E+01 1.19015E-06 7.64086E-09
 -1       796 8.94754E+04-3.10951E+01 2.02406E+02 1.25452E+01 5.94925E-07-6.59276E-09
 -1       797 8.95977E+04 2.27952E+02 4.77375E+02-3.46928E+01 1.81613E-09 1.16066E-09
 -1       798 8.93956E+04-1.96698E+02 7.53606E+02 1.86450E+01-1.02778E-10-1.27477E-09
 -1       799 9.01628E+04 1.45231E+03 2.05445E+03-4.98499E+01-4.24208E-10-1.99589E-09
 -1       800 8.89102E+04-1.25446E+03 2.90224E+03 2.77024E+01-7.58060E-13 4.59409E-10
 -1       801-5.32797E+03 2.80321E+04 1.01352E+04 9.13612E+03 5.08408E-09-1.50271E-09
 -1       802 1.38106E+04 5.95199E+04 2.60684E+04-3.78659E+04 1.36338E-08-2.18324E-09
 -1       803-8.22908E+03 3.80256E+04 3.34274E+04 8.58963E+03 1.07302E-08 9.63890E-09
 -1       804 6.38273E+04 8.53398E+04 9.15169E+04-3.82368E+04 1.26729E-08 1.06942E-08
 -1       805-5.53475E+04 2.30172E+03 1.21191E+05 9.50653E+03 4.46016E-09 1.20119E-08
 -1       806-1.02649E+05-2.20060E+04-8.72763E+03-4.27613E+04 2.76714E-10-1.42836E-09
 -1       807-1.03161E+05-2.07578E+04-4.28766E+03-4.50774E+04 7.25322E-10 2.55659E-09
 -1       808-1.02897E+05-1.88528E+04-1.81889E+03-4.42419E+04 1.96451E-10 7.25947E-10
 -1       809-1.02246E+05-1.95674E+04-8.89225E+02-4.52014E+04-2.72109E-10 2.80323E-09
 -1       810-1.02936E+05-1.87413E+04-4.07153E+02-4.43074E+04 5.25574E-10 1.33446E-09
 -1       811-1.02176E+05-1.95202E+04-2.01930E+02-4.51914E+04-2.77964E-11-5.56042E-10
 -1       812-1.02943E+05-1.87492E+04-1.00709E+02-4.43075E+04-5.04770E-11 6.85191E-10
 -1       813-1.02168E+05-1.95213E+04-6.35368E+01-4.51866E+04-4.69754E-10-1.51135E-09
 -1       814-1.02943E+05-1.87518E+04-5.94692E+01-4.43065E+04-1.06866E-11-2.66346E-09
 -1       815-1.02170E+05-1.95221E+04-9.31854E+01-4.51860E+04-5.06589E-10-3.45017E-09
 -1       816-1.02938E+05-1.87504E+04-1.74482E+02-4.43057E+04-6.37556E-10 3.31011E-09
 -1       817-1.02200E+05-1.95386E+04-3.74370E+02-4.51839E+04 1.00044E-09 2.84433E-09
 -1       818-1.02917E+05-1.88022E+04-7.62816E+02-4.42814E+04 8.70841E-10 5.20004E-10
 -1       819-1.02623E+05-1.99963E+04-1.79577E+03-4.50830E+04-4.54747E-10 3.94721E-10
 -1       820-1.02773E+05-2.01597E+04-3.65445E+03-4.37033E+04 3.58796E-10-2.42665E-10
 -1       821-1.32617E+05 7.36429E+03-1.70336E+04-1.06554E+00-2.94251E-10-6.16637E-10
 -1       822-1.39997E+05-8.52541E+03-1.20530E+04-9.47097E+01-1.21680E-09-1.85537E-09
 -1       823-1.35465E+05 1.15446E+03-4.41176E+03-2.48664E+01 1.14239E-09-1.90448E-09
 -1       824-1.36679E+05-1.33624E+03-2.77647E+03-4.37085E+01-7.01319E-10 1.20667E-09
 -1       825-1.35934E+05 1.80777E+02-1.14046E+03-5.20685E+01-1.35676E-09 1.46218E-09
 -1       826-1.36133E+05-2.13209E+02-6.90012E+02 8.29969E+00-2.74275E-09-3.49938E-09
 -1       827-1.36011E+05 3.22558E+01-3.55815E+02-7.68757E+01-2.68885E-09-3.34330E-09
 -1       828-1.36058E+05-6.51817E+01-3.16049E+02 5.03648E+01 2.95563E-08 2.12491E-09
 -1       829-1.36010E+05 3.28638E+01-3.61151E+02-9.41343E+01 9.54604E-06-4.46555E-09
 -1       830-1.36137E+05-2.18382E+02-7.05962E+02 7.37566E+01 1.90013E-05-8.06273E-09
 -1       831-1.35931E+05 1.85364E+02-1.16851E+03-1.00268E+02-1.12827E-06-2.25089E-09
 -1       832-1.36698E+05-1.37030E+03-2.84728E+03 7.37937E+01-2.12511E-05 1.08374E-08
 -1       833-1.35450E+05 1.18394E+03-4.52414E+03-9.41711E+01-1.06741E-05 1.13243E-08
 -1       834-1.40100E+05-8.74318E+03-1.23610E+04 5.13336E+01-3.52478E-08 1.58570E-09
 -1       835-1.32530E+05 7.55243E+03-1.74689E+04-7.78053E+01 2.15599E-09 2.26646E-09
 -1       836-4.42616E+02 1.25836E+05 7.57416E+03-1.10573E+04 1.00181E-09 3.08364E-09
 -1       837 1.66161E+03 1.28185E+05 6.46323E+03-2.22285E+04 1.35117E-09 2.05318E-10
 -1       838-1.65786E+02 1.26493E+05 6.66198E+03-1.10182E+04 1.12050E-09 4.67941E-09
 -1       839 4.26849E+03 1.30134E+05 1.26784E+04-2.22432E+04 1.51636E-09 3.31389E-09
 -1       840-1.28876E+03 1.23878E+05 2.02482E+04-1.10421E+04 1.06411E-09 5.92036E-09
 -1       856-4.18614E+04 3.56468E+03-9.39264E+03-1.96815E+02-2.20641E-09-1.14778E-09
 -1       857-4.57424E+04-4.18177E+03-6.46703E+03 2.15960E+03-1.43987E-09 4.20641E-10
 -1       858-4.33948E+04 4.99699E+02-2.43762E+03-2.02615E+02-1.78784E-09 1.41995E-10
 -1       859-4.39805E+04-5.82353E+02-1.47248E+03 2.16860E+03 5.50699E-10-1.65684E-09
 -1       860-4.36242E+04 6.96614E+01-6.19131E+02-2.05848E+02 6.73822E-10-1.80802E-09
 -1       861-4.37157E+04-7.86078E+01-3.45041E+02 2.17295E+03-3.50283E-09-1.61789E-09
 -1       862-4.36600E+04 9.39074E+00-1.52263E+02-2.06970E+02 2.85014E-09-3.04234E-09
 -1       863-4.36735E+04-7.61161E+00-7.55186E+01 2.17345E+03 6.81160E-09-2.14783E-10
 -1       864-4.36665E+04 1.87151E-01-2.41319E+01-2.06356E+02 2.52330E-09-4.19909E-09
 -1       865-4.36619E+04 8.57697E+00 1.28708E+01 2.17023E+03-6.41819E-10-1.01978E-09
 -1       866-4.36712E+04-6.79332E+00 4.93761E+01-2.03748E+02-2.90990E-09-2.52002E-09
 -1       867-4.36339E+04 5.76423E+01 1.35934E+02 2.16320E+03 5.61229E-10 1.78122E-09
 -1       868-4.36938E+04-4.81715E+01 2.30096E+02-1.99323E+02 4.21579E-10 3.32015E-09
 -1       869-4.34629E+04 4.01170E+02 6.16962E+02 2.15085E+03-9.33383E-10-3.35672E-09
 -1       870-4.38410E+04-3.41234E+02 8.95838E+02-1.91398E+02 8.54726E-10-2.44256E-10
 -1       871-1.92172E+03-4.00806E+03-6.29693E+03 4.12898E+04 9.73159E-10 6.91898E-09
 -1       872-8.29393E+02-5.41312E+03-2.56408E+03 5.35279E+04 2.10525E-09-3.14799E-10
 -1       873-1.00312E+01-4.74503E+03 3.77103E+02 4.11977E+04 6.76437E-10 3.80885E-09
 -1       874 9.84659E+02-3.82804E+03 3.59746E+03 5.35475E+04 2.33376E-09 2.87451E-09
 -1       875 2.32101E+03-5.60598E+03 7.97327E+03 4.12724E+04 1.22827E-09-1.13323E-09
 -1       876 1.03519E+05 1.78245E+04 5.55253E+03 4.19802E+04-2.20990E-09 2.07274E-09
 -1       877 1.03835E+05 1.90444E+04 2.96506E+03 4.36251E+04-2.90743E-09 4.52206E-09
 -1       878 1.04039E+05 1.72090E+04 1.24230E+03 4.24358E+04 1.07320E-09-7.16227E-11
 -1       879 1.03080E+05 1.82925E+04 6.18772E+02 4.36659E+04 9.74296E-10-1.90124E-09
 -1       880 1.04078E+05 1.72014E+04 2.88113E+02 4.24544E+04 9.92031E-10 3.54225E-09
 -1       881 1.03030E+05 1.82608E+04 1.53378E+02 4.36592E+04 1.77334E-09-9.89814E-10
 -1       882 1.04082E+05 1.72055E+04 9.73912E+01 4.24549E+04 1.32997E-09-2.32815E-09
 -1       883 1.03026E+05 1.82594E+04 1.03465E+02 4.36576E+04 3.18852E-09 8.54664E-09
 -1       884 1.04080E+05 1.72041E+04 1.63514E+02 4.24550E+04 2.15636E-10-3.65986E-10
 -1       885 1.03039E+05 1.82618E+04 3.28090E+02 4.36618E+04 1.75267E-09-1.97940E-09
 -1       886 1.04068E+05 1.71945E+04 6.60979E+02 4.24537E+04 3.50640E-09 2.38435E-09
 -1       887 1.03155E+05 1.83379E+04 1.44377E+03 4.36783E+04 3.37891E-10-2.29920E-09
 -1       888 1.03976E+05 1.72109E+04 2.90932E+03 4.24076E+04-2.99406E-09-7.12521E-09
 -1       889 1.04889E+05 2.01378E+04 6.95048E+03 4.36225E+04 6.25967E-10-2.33319E-09
 -1       890 1.02790E+05 1.86198E+04 1.30173E+04 4.12988E+04 2.81534E-09-1.03773E-09
 -1       891-6.07560E+01-5.88940E+04-6.92293E+02 1.12087E+04 2.11725E-09 8.48274E-10
 -1       892-1.06076E+02-5.90631E+04-7.54556E+02 1.69671E+04 1.24453E-09-1.70962E-09
 -1       893-1.28213E+01-5.89181E+04-1.07917E+03 1.12107E+04 9.02219E-10 1.30535E-09
 -1       894-5.81477E+02-5.94842E+04-2.24228E+03 1.69074E+04-4.65434E-10 4.92378E-10
 -1       895-4.51970E+02-5.84569E+04-3.95049E+03 1.12679E+04 1.70246E-11 1.32877E-09
 -1       956-1.29976E+05-1.87571E+03-4.72143E+03 8.58531E+03-1.15392E-09-9.83505E-10
 -1       957-1.30908E+05-6.34226E+02-2.42400E+03 1.03324E+04-6.30962E-10-2.98331E-09
 -1       958-1.30392E+05-5.18309E+01-1.09189E+03 8.52980E+03 7.77618E-10 8.60723E-10
 -1       959-1.30465E+05-1.18639E+01-5.57824E+02 1.03924E+04-1.30819E-09-8.74820E-10
 -1       960-1.30427E+05 1.27870E+01-2.71799E+02 8.52480E+03-2.31694E-09-2.68358E-09
 -1       961-1.30431E+05 1.02917E+01-1.44169E+02 1.03979E+04-3.73450E-09-1.31985E-09
 -1       962-1.30433E+05 9.84317E+00-8.22752E+01 8.52422E+03-1.42745E-09-1.53136E-10
 -1       963-1.30428E+05 1.00857E+01-6.56910E+01 1.03987E+04-2.81943E-09 1.77891E-09
 -1       964-1.30434E+05 1.02667E+01-7.92129E+01 8.52402E+03-1.62100E-09 1.52619E-09
 -1       965-1.30432E+05 1.12868E+01-1.36438E+02 1.03987E+04-6.10918E-10 2.64663E-10
 -1       966-1.30430E+05 1.40085E+01-2.55783E+02 8.52427E+03-2.08314E-09-5.83839E-10
 -1       967-1.30467E+05-8.49921E+00-5.24444E+02 1.03956E+04 1.73645E-09-1.64067E-09
 -1       968-1.30399E+05-4.57426E+01-1.02610E+03 8.52714E+03 2.91050E-09-1.45556E-09
 -1       969-1.30884E+05-5.92519E+02-2.27821E+03 1.03607E+04 2.19188E-10-1.06238E-09
 -1       970-1.30009E+05-1.75929E+03-4.43720E+03 8.55996E+03-2.09525E-10 2.53249E-09
 -1       971-1.23581E+05-6.54578E+02-3.63979E+03 6.10565E+03-2.01726E-09 1.69511E-09
 -1       972-1.24466E+05-4.71653E+02-1.98257E+03 8.51475E+03-1.09060E-09-1.97844E-09
 -1       973-1.23983E+05-5.77953E+00-8.87368E+02 6.05621E+03-2.46564E-09 1.25601E-09
 -1       974-1.24043E+05-8.38110E+00-4.59855E+02 8.56761E+03-2.79670E-11 6.67143E-10
 -1       975-1.24012E+05 9.60914E+00-2.29115E+02 6.05244E+03 7.56700E-10-1.45042E-09
 -1       976-1.24015E+05 9.19965E+00-1.31263E+02 8.57189E+03-8.34461E-10-4.76518E-10
 -1       977-1.24017E+05 8.41751E+00-9.33515E+01 6.05191E+03 1.68484E-09-1.29035E-09
 -1       978-1.24015E+05 1.04547E+01-1.06781E+02 8.57262E+03 5.77711E-09 2.38134E-09
 -1       979-1.24016E+05 1.07854E+01-1.69317E+02 6.05171E+03 2.24188E-09 1.15358E-09
 -1       980-1.24027E+05 1.12682E+01-3.25522E+02 8.57266E+03 1.41591E-09-2.46479E-09
 -1       981-1.24005E+05 1.89613E+01-6.29621E+02 6.05186E+03-3.11201E-09 3.20804E-09
 -1       982-1.24114E+05-3.47920E+01-1.30094E+03 8.57047E+03-6.70138E-09-6.58169E-10
 -1       983-1.23927E+05-2.06335E+01-2.52730E+03 6.05396E+03-4.41014E-09-8.52481E-10
 -1       984-1.25331E+05-1.35344E+03-5.65933E+03 8.53692E+03-3.48416E-09 3.02975E-11
 -1       985-1.22784E+05-1.86917E+03-1.03923E+04 6.08679E+03 1.91199E-09-8.29459E-10
 -3
    1PSTEP                         3           2           1          
  100CL  102 3.12500E-01         409                     0    2           1
 -4  DISP        4    1
 -5  D1          1    2    1    0
 -5  D2          1    2    2    0
 -5  D3          1    2    3    0
 -5  ALL         1    2    0    0    1ALL
 -1         1 8.21254E-05 0.00000E+00 0.00000E+00
 -1         2 7.47857E-05 1.20452E-29-1.65436E-24
 -1         3 6.90956E-05 1.53299E-27-6.61744E-24
 -1         5 4.98799E-05 2.78694E-26 0.00000E+00
 -1         8 6.54134E-05-5.94766E-07 0.00000E+00
 -1         9 6.58050E-05 2.91754E-07 0.00000E+00
 -1        10 6.40496E-05-9.45733E-07 3.30872E-24
 -1        12 4.95209E-05 3.40451E-07 1.65436E-24
 -1        15 4.55254E-05-6.42821E-07-2.06795E-25
 -1        16 4.73371E-05 2.12541E-07 0.00000E+00
 -1        17 4.77893E-05-1.98516E-06 0.00000E+00
 -1        18 4.77861E-05 8.31742E-08 0.00000E+00
 -1        19 4.84444E-05 6.79042E-07 0.00000E+00
 -1        20 4.85339E-05 1.01394E-05 0.00000E+00
 -1        21 4.81973E-05 1.91839E-05 1.65436E-24
 -1        24 1.22879E-05-2.65556E-06 0.00000E+00
 -1        25 4.66337E-05 1.61093E-07 0.00000E+00
 -1        26 4.72562E-05 9.46228E-07 0.00000E+00
 -1        27 4.63149E-05 8.62598E-06 0.00000E+00
 -1        28 4.60097E-05 1.88928E-05 0.00000E+00
 -1        32 0.00000E+00 0.00000E+00 0.00000E+00
 -1        33 4.52532E-05 1.26904E-06 0.00000E+00
 -1        34 4.43432E-05 8.61255E-06 0.00000E+00
 -1        35 4.34783E-05 1.87393E-05 0.00000E+00
 -1        51 8.10384E-05-9.85290E-08 0.00000E+00
 -1        52 7.90237E-05-1.94322E-07 0.00000E+00
 -1        53 7.62639E-05-2.90682E-07 0.00000E+00
 -1        54 7.29487E-05-3.88524E-07 0.00000E+00
 -1        55 6.92683E-05-4.88449E-07-1.75776E-24
 -1        56 8.13286E-05-4.87302E-07 0.00000E+00
 -1        57 8.06154E-05-1.28824E-06 0.00000E+00
 -1        58 7.99874E-05-2.31175E-06-2.64698E-23
 -1        59 7.94062E-05-3.47599E-06-1.32349E-23
 -1        60 7.88425E-05-4.68728E-06-2.64698E-23
 -1        61 7.82606E-05-5.85309E-06 0.00000E+00
 -1        62 7.76278E-05-6.88285E-06 2.64698E-23
 -1        63 7.69112E-05-7.68941E-06-1.32349E-23
 -1        64 7.60827E-05-8.19724E-06 2.64698E-23
 -1        65 7.51165E-05-8.33756E-06-1.32349E-23
 -1        66 7.39939E-05-8.06099E-06 0.00000E+00
 -1        67 7.27004E-05-7.32729E-06-1.32349E-23
 -1        68 7.12291E-05-6.12076E-06 2.64698E-23
 -1        69 6.95823E-05-4.43444E-06 1.32349E-23
 -1        70 6.77609E-05-2.29046E-06 0.00000E+00
 -1        86 7.45461E-05 5.31580E-08 0.00000E+00
 -1        87 7.38270E-05 1.05748E-07 4.13590E-25
 -1        88 7.26143E-05 1.57827E-07 0.00000E+00
 -1        89 7.08928E-05 2.07008E-07 0.00000E+00
 -1        90 6.86332E-05 2.55894E-07 3.30872E-24
 -1       121 6.89550E-05-1.57117E-07 3.30872E-24
 -1       122 6.85333E-05-3.14314E-07-1.65436E-24
 -1       123 6.78310E-05-4.71669E-07-3.30872E-24
 -1       124 6.68489E-05-6.29285E-07 0.00000E+00
 -1       125 6.55879E-05-7.87196E-07 0.00000E+00
 -1       191 4.98699E-05 5.67462E-08 0.00000E+00
 -1       192 4.98400E-05 1.13491E-07 0.00000E+00
 -1       193 4.97901E-05 1.70236E-07 0.00000E+00
 -1       194 4.97203E-05 2.26978E-07 0.00000E+00
 -1       195 4.96306E-05 2.83717E-07 0.00000E+00
 -1       251 6.54252E-05 2.17193E-06 0.00000E+00
 -1       252 6.54496E-05 3.85817E-06 0.00000E+00
 -1       253 6.54745E-05 4.62890E-06 1.03398E-25
 -1       254 6.55016E-05 4.64788E-06 0.00000E+00
 -1       255 6.55286E-05 4.06818E-06-8.27181E-25
 -1       256 6.55557E-05 3.04215E-06 0.00000E+00
 -1       257 6.55825E-05 1.71569E-06-8.27181E-25
 -1       258 6.56091E-05 2.34362E-07 0.00000E+00
 -1       259 6.56357E-05-1.25858E-06 8.27181E-25
 -1       260 6.56625E-05-2.61983E-06-4.13590E-25
 -1       261 6.56895E-05-3.70419E-06 0.00000E+00
 -1       262 6.57165E-05-4.36617E-06 0.00000E+00
 -1       263 6.57435E-05-4.45412E-06 1.03398E-25
 -1       264 6.57684E-05-3.81575E-06 0.00000E+00
 -1       265 6.57931E-05-2.28838E-06-3.30872E-24
 -1       266 6.20988E-05-6.10973E-07 0.00000E+00
 -1       267 5.87841E-05-6.17983E-07-8.27181E-25
 -1       268 5.54694E-05-6.25575E-07 0.00000E+00
 -1       269 5.21547E-05-6.31442E-07 2.06795E-25
 -1       270 4.88401E-05-6.37269E-07 2.06795E-25
 -1       271 6.34055E-05 1.88371E-06 0.00000E+00
 -1       272 6.16989E-05 3.46886E-06-1.32349E-23
 -1       273 6.02881E-05 4.27230E-06-2.64698E-23
 -1       274 5.91253E-05 4.40128E-06 1.32349E-23
 -1       275 5.81701E-05 3.97563E-06 0.00000E+00
 -1       276 5.73750E-05 3.12021E-06 1.32349E-23
 -1       277 5.66917E-05 1.96596E-06 0.00000E+00
 -1       278 5.60696E-05 6.47233E-07 0.00000E+00
 -1       279 5.54580E-05-6.99402E-07 2.64698E-23
 -1       280 5.48058E-05-1.93701E-06 0.00000E+00
 -1       281 5.40621E-05-2.93019E-06 2.64698E-23
 -1       282 5.31779E-05-3.54643E-06 1.32349E-23
 -1       283 5.21049E-05-3.65836E-06 2.64698E-23
 -1       284 5.08003E-05-3.14363E-06 1.32349E-23
 -1       285 4.92168E-05-1.89060E-06 2.64698E-23
 -1       301 6.26716E-05 2.74611E-07 0.00000E+00
 -1       302 5.95417E-05 2.67273E-07 1.65436E-24
 -1       303 5.64292E-05 2.60233E-07-3.30872E-24
 -1       304 5.33482E-05 2.52118E-07-1.65436E-24
 -1       305 5.03129E-05 2.42485E-07 0.00000E+00
 -1       306 6.38003E-05 2.58089E-06 2.64698E-23
 -1       307 6.21033E-05 3.95459E-06 0.00000E+00
 -1       308 6.07420E-05 4.44277E-06-2.64698E-23
 -1       309 5.96910E-05 4.08676E-06 0.00000E+00
 -1       310 5.89079E-05 3.01552E-06 0.00000E+00
 -1       311 5.83354E-05 1.37772E-06 0.00000E+00
 -1       312 5.78979E-05-6.21547E-07 0.00000E+00
 -1       313 5.75144E-05-2.76642E-06 1.32349E-23
 -1       314 5.70993E-05-4.82632E-06-2.64698E-23
 -1       315 5.65676E-05-6.57330E-06-1.32349E-23
 -1       316 5.58455E-05-7.81081E-06-2.64698E-23
 -1       317 5.48662E-05-8.35758E-06 0.00000E+00
 -1       318 5.35855E-05-8.10086E-06 0.00000E+00
 -1       319 5.19760E-05-6.95000E-06 1.32349E-23
 -1       320 5.00274E-05-4.90748E-06 1.32349E-23
 -1       336 6.21987E-05-1.11719E-06-3.30872E-24
 -1       337 5.99999E-05-1.28956E-06 0.00000E+00
 -1       338 5.74559E-05-1.46267E-06 0.00000E+00
 -1       339 5.45701E-05-1.63643E-06 1.65436E-24
 -1       340 5.13464E-05-1.81120E-06 0.00000E+00
 -1       406 4.93913E-05 3.97176E-07 0.00000E+00
 -1       407 4.92417E-05 4.53880E-07 0.00000E+00
 -1       408 4.90722E-05 5.10546E-07-3.30872E-24
 -1       409 4.88828E-05 5.67104E-07 0.00000E+00
 -1       410 4.86734E-05 6.23443E-07 1.65436E-24
 -1       521 4.45510E-05 1.80488E-06 0.00000E+00
 -1       522 4.21702E-05 2.13249E-06 2.64698E-23
 -1       523 4.02399E-05 1.27168E-06 0.00000E+00
 -1       524 3.87004E-05-6.66361E-07 0.00000E+00
 -1       525 3.74601E-05-3.40663E-06 0.00000E+00
 -1       526 3.63993E-05-6.63480E-06 2.64698E-23
 -1       527 3.53762E-05-9.96487E-06 0.00000E+00
 -1       528 3.42452E-05-1.30061E-05 2.64698E-23
 -1       529 3.28762E-05-1.54091E-05 0.00000E+00
 -1       530 3.11516E-05-1.68596E-05-2.64698E-23
 -1       531 2.90039E-05-1.71809E-05 0.00000E+00
 -1       532 2.63901E-05-1.62571E-05-2.64698E-23
 -1       533 2.33311E-05-1.41531E-05-5.29396E-23
 -1       534 1.98846E-05-1.09930E-05 0.00000E+00
 -1       535 1.61410E-05-7.06170E-06 0.00000E+00
 -1       536 4.77791E-05 1.32262E-06 0.00000E+00
 -1       537 4.77762E-05 3.80493E-06 0.00000E+00
 -1       538 4.77746E-05 5.54945E-06-4.13590E-25
 -1       539 4.77748E-05 6.64383E-06-1.03398E-25
 -1       540 4.77755E-05 7.17431E-06 1.03398E-25
 -1       541 4.77766E-05 7.22710E-06 0.00000E+00
 -1       542 4.77776E-05 6.88724E-06 0.00000E+00
 -1       543 4.77785E-05 6.23978E-06 1.29247E-26
 -1       544 4.77792E-05 5.36900E-06 0.00000E+00
 -1       545 4.77798E-05 4.35916E-06 0.00000E+00
 -1       546 4.77804E-05 3.29419E-06 5.16988E-26
 -1       547 4.77811E-05 2.25802E-06 0.00000E+00
 -1       548 4.77819E-05 1.33462E-06 1.03398E-25
 -1       549 4.77829E-05 6.08012E-07 1.03398E-25
 -1       550 4.77841E-05 1.62695E-07 0.00000E+00
 -1       551 4.30823E-05-2.08757E-06-3.30872E-24
 -1       552 3.74507E-05-2.19288E-06-1.65436E-24
 -1       553 3.12227E-05-2.30168E-06 0.00000E+00
 -1       554 2.47314E-05-2.41368E-06-3.30872E-24
 -1       555 1.83096E-05-2.52708E-06 0.00000E+00
 -1       556 4.65568E-05 1.21176E-06-1.32349E-23
 -1       557 4.56158E-05 3.65287E-06 6.61744E-24
 -1       558 4.49343E-05 5.40806E-06 0.00000E+00
 -1       559 4.44834E-05 6.55267E-06 0.00000E+00
 -1       560 4.42341E-05 7.16186E-06 0.00000E+00
 -1       561 4.41577E-05 7.31118E-06 0.00000E+00
 -1       562 4.42254E-05 7.07624E-06 0.00000E+00
 -1       563 4.44088E-05 6.53271E-06 0.00000E+00
 -1       564 4.46794E-05 5.75630E-06 0.00000E+00
 -1       565 4.50088E-05 4.82273E-06 0.00000E+00
 -1       566 4.53687E-05 3.80777E-06 0.00000E+00
 -1       567 4.57307E-05 2.78718E-06 0.00000E+00
 -1       568 4.60664E-05 1.83671E-06 0.00000E+00
 -1       569 4.63476E-05 1.03202E-06 0.00000E+00
 -1       570 4.65460E-05 4.48816E-07 0.00000E+00
 -1       571 4.78261E-05 1.46865E-07-8.27181E-25
 -1       572 4.78669E-05 1.83356E-07-4.13590E-25
 -1       573 4.79080E-05 1.97480E-07 0.00000E+00
 -1       574 4.79492E-05 1.94327E-07-4.13590E-25
 -1       575 4.79905E-05 1.79006E-07-8.27181E-25
 -1       576 4.80318E-05 1.56664E-07-4.13590E-25
 -1       577 4.80730E-05 1.32448E-07 3.30872E-24
 -1       578 4.81143E-05 1.11511E-07 8.27181E-25
 -1       579 4.81556E-05 9.90062E-08 0.00000E+00
 -1       580 4.81969E-05 1.00086E-07 0.00000E+00
 -1       581 4.82382E-05 1.19904E-07 1.65436E-24
 -1       582 4.82795E-05 1.63605E-07 0.00000E+00
 -1       583 4.83208E-05 2.36332E-07 0.00000E+00
 -1       584 4.83620E-05 3.43173E-07-3.30872E-24
 -1       585 4.84032E-05 4.89187E-07 0.00000E+00
 -1       586 4.75802E-05 9.69741E-08-8.27181E-25
 -1       587 4.73568E-05 1.10424E-07 0.00000E+00
 -1       588 4.71331E-05 1.23723E-07 0.00000E+00
 -1       589 4.69265E-05 1.36811E-07 0.00000E+00
 -1       590 4.67544E-05 1.49543E-07 0.00000E+00
 -1       591 4.77432E-05 1.67713E-07-5.16988E-26
 -1       592 4.77071E-05 2.29669E-07 0.00000E+00
 -1       593 4.76777E-05 2.73333E-07 0.00000E+00
 -1       594 4.76536E-05 3.02573E-07 0.00000E+00
 -1       595 4.76333E-05 3.21308E-07-4.13590E-25
 -1       596 4.76155E-05 3.33427E-07 2.06795E-25
 -1       597 4.75987E-05 3.42819E-07-4.13590E-25
 -1       598 4.75815E-05 3.53367E-07-2.06795E-25
 -1       599 4.75624E-05 3.68957E-07-4.13590E-25
 -1       600 4.75399E-05 3.93473E-07-1.03398E-25
 -1       601 4.75127E-05 4.30799E-07 2.06795E-25
 -1       602 4.74792E-05 4.84823E-07-1.55096E-25
 -1       603 4.74381E-05 5.59434E-07-1.55096E-25
 -1       604 4.73879E-05 6.58552E-07 0.00000E+00
 -1       605 4.73273E-05 7.86045E-07 0.00000E+00
 -1       606 4.84521E-05 9.62812E-07 0.00000E+00
 -1       607 4.84583E-05 1.30564E-06 0.00000E+00
 -1       608 4.84641E-05 1.70405E-06 0.00000E+00
 -1       609 4.84697E-05 2.15414E-06 0.00000E+00
 -1       610 4.84752E-05 2.65199E-06 0.00000E+00
 -1       611 4.84807E-05 3.19360E-06 0.00000E+00
 -1       612 4.84861E-05 3.77500E-06 0.00000E+00
 -1       613 4.84916E-05 4.39219E-06 0.00000E+00
 -1       614 4.84970E-05 5.04119E-06 0.00000E+00
 -1       615 4.85023E-05 5.71799E-06 0.00000E+00
 -1       616 4.85077E-05 6.41863E-06 0.00000E+00
 -1       617 4.85130E-05 7.13909E-06 0.00000E+00
 -1       618 4.85183E-05 7.87539E-06 0.00000E+00
 -1       619 4.85236E-05 8.62355E-06 0.00000E+00
 -1       620 4.85289E-05 9.37956E-06 0.00000E+00
 -1       621 4.82183E-05 7.23603E-07-1.65436E-24
 -1       622 4.80079E-05 7.68382E-07 0.00000E+00
 -1       623 4.78099E-05 8.13154E-07 0.00000E+00
 -1       624 4.76208E-05 8.57856E-07-4.13590E-25
 -1       625 4.74374E-05 9.02481E-07 0.00000E+00
 -1       626 4.83856E-05 9.76809E-07-3.30872E-24
 -1       627 4.83089E-05 1.32349E-06 1.65436E-24
 -1       628 4.82156E-05 1.71457E-06 0.00000E+00
 -1       629 4.81074E-05 2.14520E-06 0.00000E+00
 -1       630 4.79863E-05 2.61054E-06 0.00000E+00
 -1       631 4.78539E-05 3.10572E-06 0.00000E+00
 -1       632 4.77122E-05 3.62586E-06 1.65436E-24
 -1       633 4.75629E-05 4.16610E-06 0.00000E+00
 -1       634 4.74080E-05 4.72155E-06 0.00000E+00
 -1       635 4.72491E-05 5.28733E-06 0.00000E+00
 -1       636 4.70882E-05 5.85858E-06 0.00000E+00
 -1       637 4.69270E-05 6.43041E-06-8.27181E-25
 -1       638 4.67674E-05 6.99795E-06 0.00000E+00
 -1       639 4.66112E-05 7.55633E-06-4.13590E-25
 -1       640 4.64600E-05 8.10065E-06 0.00000E+00
 -1       656 4.79021E-05 9.89322E-06 0.00000E+00
 -1       657 4.74924E-05 9.63714E-06-3.30872E-24
 -1       658 4.72187E-05 9.38184E-06 0.00000E+00
 -1       659 4.69936E-05 9.12676E-06 0.00000E+00
 -1       660 4.67234E-05 8.87086E-06 0.00000E+00
 -1       661 4.83002E-05 1.08842E-05 8.27181E-25
 -1       662 4.80802E-05 1.15975E-05 4.13590E-25
 -1       663 4.78716E-05 1.22800E-05 8.27181E-25
 -1       664 4.76745E-05 1.29332E-05-8.27181E-25
 -1       665 4.74879E-05 1.35581E-05 0.00000E+00
 -1       666 4.73115E-05 1.41562E-05 0.00000E+00
 -1       667 4.71448E-05 1.47284E-05 0.00000E+00
 -1       668 4.69874E-05 1.52760E-05 8.27181E-25
 -1       669 4.68388E-05 1.58000E-05 0.00000E+00
 -1       670 4.66987E-05 1.63015E-05 0.00000E+00
 -1       671 4.65665E-05 1.67816E-05 0.00000E+00
 -1       672 4.64420E-05 1.72412E-05 4.13590E-25
 -1       673 4.63248E-05 1.76814E-05 8.27181E-25
 -1       674 4.62141E-05 1.81028E-05-4.13590E-25
 -1       675 4.61101E-05 1.85067E-05 0.00000E+00
 -1       676 4.78321E-05 1.91351E-05 0.00000E+00
 -1       677 4.74670E-05 1.90863E-05 0.00000E+00
 -1       678 4.71021E-05 1.90375E-05 0.00000E+00
 -1       679 4.67375E-05 1.89889E-05 8.27181E-25
 -1       680 4.63734E-05 1.89403E-05-8.27181E-25
 -1       771 9.86192E-06 1.92427E-06 0.00000E+00
 -1       772 7.74712E-06 5.66715E-06 0.00000E+00
 -1       773 5.93030E-06 8.62234E-06 0.00000E+00
 -1       774 4.39114E-06 1.08415E-05 0.00000E+00
 -1       775 3.10979E-06 1.23769E-05 0.00000E+00
 -1       776 2.06566E-06 1.32823E-05 1.32349E-23
 -1       777 1.23797E-06 1.36119E-05 2.64698E-23
 -1       778 6.05614E-07 1.34212E-05 0.00000E+00
 -1       779 1.47392E-07 1.27660E-05 0.00000E+00
 -1       780-1.58180E-07 1.17030E-05 1.32349E-23
 -1       781-3.32637E-07 1.02895E-05-2.64698E-23
 -1       782-3.97713E-07 8.58323E-06 0.00000E+00
 -1       783-3.75175E-07 6.64245E-06 0.00000E+00
 -1       784-2.86883E-07 4.52571E-06 0.00000E+00
 -1       785-1.54775E-07 2.29180E-06 0.00000E+00
 -1       786 4.66704E-05 1.63982E-07 0.00000E+00
 -1       787 4.67092E-05 1.67986E-07 4.13590E-25
 -1       788 4.67479E-05 1.73660E-07-8.27181E-25
 -1       789 4.67869E-05 1.81560E-07 0.00000E+00
 -1       790 4.68260E-05 1.92445E-07 8.27181E-25
 -1       791 4.68652E-05 2.07074E-07-4.13590E-25
 -1       792 4.69044E-05 2.26544E-07 0.00000E+00
 -1       793 4.69436E-05 2.51956E-07 0.00000E+00
 -1       794 4.69828E-05 2.84944E-07 0.00000E+00
 -1       795 4.70220E-05 3.27154E-07-8.27181E-25
 -1       796 4.70612E-05 3.81052E-07 0.00000E+00
 -1       797 4.71004E-05 4.49124E-07 0.00000E+00
 -1       798 4.71396E-05 5.35121E-07 8.27181E-25
 -1       799 4.71786E-05 6.42820E-07-4.13590E-25
 -1       800 4.72177E-05 7.77937E-07 8.27181E-25
 -1       801 4.34827E-05 1.71941E-07 0.00000E+00
 -1       802 3.41161E-05 1.45837E-07 0.00000E+00
 -1       803 2.18098E-05 9.05593E-08 1.65436E-24
 -1       804 9.83781E-06 3.46971E-08 0.00000E+00
 -1       805 1.47460E-06 1.35615E-08 0.00000E+00
 -1       806 4.65846E-05 1.37478E-07 0.00000E+00
 -1       807 4.65335E-05 1.13898E-07-8.27181E-25
 -1       808 4.64809E-05 9.33991E-08-1.65436E-24
 -1       809 4.64259E-05 7.85676E-08-8.27181E-25
 -1       810 4.63678E-05 7.19838E-08-1.65436E-24
 -1       811 4.63056E-05 7.61905E-08 0.00000E+00
 -1       812 4.62383E-05 9.37278E-08 0.00000E+00
 -1       813 4.61652E-05 1.27129E-07 0.00000E+00
 -1       814 4.60851E-05 1.78929E-07 1.65436E-24
 -1       815 4.59972E-05 2.51658E-07 0.00000E+00
 -1       816 4.59004E-05 3.47845E-07 8.27181E-25
 -1       817 4.57940E-05 4.70022E-07 0.00000E+00
 -1       818 4.56769E-05 6.20716E-07 0.00000E+00
 -1       819 4.55482E-05 8.02446E-07-4.13590E-25
 -1       820 4.54070E-05 1.01773E-06-8.27181E-25
 -1       821 4.72008E-05 1.14689E-06 0.00000E+00
 -1       822 4.71419E-05 1.37929E-06 0.00000E+00
 -1       823 4.70832E-05 1.65381E-06 0.00000E+00
 -1       824 4.70239E-05 1.98072E-06-8.27181E-25
 -1       825 4.69645E-05 2.36371E-06 1.65436E-24
 -1       826 4.69050E-05 2.80631E-06 0.00000E+00
 -1       827 4.68455E-05 3.30455E-06 1.65436E-24
 -1       828 4.67859E-05 3.85436E-06-8.27181E-25
 -1       829 4.67263E-05 4.44512E-06 0.00000E+00
 -1       830 4.66667E-05 5.06615E-06 8.27181E-25
 -1       831 4.66070E-05 5.70295E-06 1.65436E-24
 -1       832 4.65476E-05 6.34097E-06 8.27181E-25
 -1       833 4.64881E-05 6.96553E-06 0.00000E+00
 -1       834 4.64293E-05 7.56195E-06-4.13590E-25
 -1       835 4.63704E-05 8.11912E-06-4.13590E-25
 -1       836 4.70124E-05 9.99964E-07 0.00000E+00
 -1       837 4.66976E-05 1.05489E-06-8.27181E-25
 -1       838 4.63379E-05 1.10972E-06 1.65436E-24
 -1       839 4.59598E-05 1.16420E-06-4.13590E-25
 -1       840 4.55895E-05 1.21859E-06 0.00000E+00
 -1       856 4.62980E-05 9.14234E-06 1.03398E-25
 -1       857 4.62791E-05 9.72357E-06-1.03398E-25
 -1       858 4.62603E-05 1.03594E-05 4.13590E-25
 -1       859 4.62411E-05 1.10396E-05 0.00000E+00
 -1       860 4.62219E-05 1.17538E-05-4.13590E-25
 -1       861 4.62026E-05 1.24917E-05 2.06795E-25
 -1       862 4.61833E-05 1.32428E-05 0.00000E+00
 -1       863 4.61640E-05 1.39969E-05 0.00000E+00
 -1       864 4.61447E-05 1.47435E-05 0.00000E+00
 -1       865 4.61254E-05 1.54723E-05-2.06795E-25
 -1       866 4.61061E-05 1.61730E-05 0.00000E+00
 -1       867 4.60868E-05 1.68351E-05-4.13590E-25
 -1       868 4.60675E-05 1.74484E-05 0.00000E+00
 -1       869 4.60483E-05 1.80026E-05 0.00000E+00
 -1       870 4.60291E-05 1.84874E-05 8.27181E-25
 -1       871 4.59204E-05 8.62550E-06-2.06795E-25
 -1       872 4.55880E-05 8.62373E-06 0.00000E+00
 -1       873 4.52912E-05 8.62172E-06 0.00000E+00
 -1       874 4.50028E-05 8.61940E-06-5.16988E-26
 -1       875 4.46957E-05 8.61679E-06-2.06795E-25
 -1       876 4.61779E-05 9.14767E-06-1.65436E-24
 -1       877 4.60304E-05 9.70092E-06 0.00000E+00
 -1       878 4.58726E-05 1.02819E-05-1.65436E-24
 -1       879 4.57058E-05 1.08871E-05 0.00000E+00
 -1       880 4.55314E-05 1.15129E-05 1.65436E-24
 -1       881 4.53505E-05 1.21557E-05 8.27181E-25
 -1       882 4.51646E-05 1.28120E-05-1.65436E-24
 -1       883 4.49750E-05 1.34783E-05 0.00000E+00
 -1       884 4.47829E-05 1.41509E-05 0.00000E+00
 -1       885 4.45898E-05 1.48265E-05-8.27181E-25
 -1       886 4.43969E-05 1.55013E-05 1.65436E-24
 -1       887 4.42055E-05 1.61718E-05 0.00000E+00
 -1       888 4.40170E-05 1.68346E-05-1.65436E-24
 -1       889 4.38325E-05 1.74859E-05-8.27181E-25
 -1       890 4.36533E-05 1.81223E-05 0.00000E+00
 -1       891 4.56586E-05 1.88671E-05 0.00000E+00
 -1       892 4.52962E-05 1.88413E-05 2.06795E-25
 -1       893 4.49098E-05 1.88156E-05 0.00000E+00
 -1       894 4.44865E-05 1.87899E-05-4.13590E-25
 -1       895 4.40136E-05 1.87642E-05 3.10193E-25
 -1       956 4.51974E-05 1.59394E-06-8.27181E-25
 -1       957 4.51407E-05 1.95531E-06-8.27181E-25
 -1       958 4.50837E-05 2.34938E-06 8.27181E-25
 -1       959 4.50267E-05 2.77213E-06-8.27181E-25
 -1       960 4.49697E-05 3.21954E-06 1.65436E-24
 -1       961 4.49126E-05 3.68758E-06 8.27181E-25
 -1       962 4.48555E-05 4.17219E-06 1.65436E-24
 -1       963 4.47984E-05 4.66934E-06 8.27181E-25
 -1       964 4.47413E-05 5.17498E-06 0.00000E+00
 -1       965 4.46841E-05 5.68505E-06 0.00000E+00
 -1       966 4.46270E-05 6.19553E-06 0.00000E+00
 -1       967 4.45699E-05 6.70236E-06-8.27181E-25
 -1       968 4.45129E-05 7.20149E-06-1.65436E-24
 -1       969 4.44559E-05 7.68890E-06 0.00000E+00
 -1       970 4.43991E-05 8.16055E-06-1.65436E-24
 -1       971 4.42898E-05 9.07684E-06 0.00000E+00
 -1       972 4.42357E-05 9.58930E-06 4.13590E-25
 -1       973 4.41815E-05 1.01446E-05 1.65436E-24
 -1       974 4.41272E-05 1.07372E-05 0.00000E+00
 -1       975 4.40728E-05 1.13616E-05-1.65436E-24
 -1       976 4.40185E-05 1.20122E-05 8.27181E-25
 -1       977 4.39641E-05 1.26835E-05 1.65436E-24
 -1       978 4.39096E-05 1.33699E-05 0.00000E+00
 -1       979 4.38552E-05 1.40659E-05 0.00000E+00
 -1       980 4.38008E-05 1.47658E-05 0.00000E+00
 -1       981 4.37464E-05 1.54643E-05-1.65436E-24
 -1       982 4.36921E-05 1.61557E-05 0.00000E+00
 -1       983 4.36378E-05 1.68344E-05 1.65436E-24
 -1       984 4.35838E-05 1.74949E-05 8.27181E-25
 -1       985 4.35300E-05 1.81317E-05 0.00000E+00
 -3
    1PSTEP                         4           2           1          
  100CL  102 3.12500E-01         409                     0    2           1
 -4  STRESS      6    1
 -5  SXX         1    4    1    1
 -5  SYY         1    4    2    2
 -5  SZZ         1    4    3    3
 -5  SXY         1    4    1    2
 -5  SYZ         1    4    2    3
 -5  SZX         1    4    3    1
 -1         1-1.14960E+06-5.23315E+05-2.39290E+05-7.21211E+05 2.54659E-11-3.50701E-09
 -1         2 1.71487E+03 1.54368E+05 5.59761E+03 3.14250E+02-9.84812E-11-7.32794E-09
 -1         3-3.02773E+01-4.49057E+05 1.03713E+02-1.01610E+02-7.08056E-11-2.81034E-09
 -1         5-3.24858E+00 1.62361E+05 4.25283E+00-2.31779E-02 9.39764E-11 2.55841E-09
 -1         8-5.41143E+05-2.29598E+05-2.41233E+04-3.88604E+05 9.09495E-12 4.56566E-09
 -1         9-9.22596E+05-2.49834E+05-1.00571E+05-3.06923E+05 1.86701E-09 4.15312E-09
 -1        10-3.40732E+02-4.67825E+05-5.98684E+02-6.78584E+02-2.21462E-09-1.26846E-08
 -1        12-1.50334E+00 1.62370E+05 1.37883E+02 1.12295E-01 2.06370E-10 8.34007E-10
 -1        15 1.35834E+03 7.46480E+02 4.39082E+03 1.94702E+00-2.27838E-09-6.79216E-07
 -1        16-2.46652E+06-7.93406E+05-3.83477E+05-8.06186E+05 7.16924E-09-2.61934E-10
 -1        17-5.35586E+05-3.31196E+05-1.02931E+05-3.12698E+05-3.80896E-09 3.84607E-09
 -1        18 2.12380E+04 2.27519E+03-7.16336E+03-3.81583E+04 4.84079E-10 9.72250E-10
 -1        19 5.08664E+04 6.06834E+04-2.79778E+02 9.96687E+03-4.06362E-10-4.26371E-09
 -1        20-2.10395E+04-2.40424E+05-5.30097E+04 1.79007E+04 1.80648E-09-2.90402E-09
 -1        21-2.27767E+01-1.39534E+05-4.50768E+02-3.49528E+01-3.84344E-09-2.50843E-09
 -1        24-2.16470E+06-7.50754E+05-3.09512E+05-9.13316E+05-1.02991E-08-5.15138E-09
 -1        25 2.01960E+04 2.43883E+03 1.25506E+04-6.88917E+04 2.39015E-10 2.51493E-09
 -1        26-1.16949E+04 4.14932E+04-8.20887E+03-5.96701E+03 1.03500E-09 1.91015E-09
 -1        27-3.85326E+04-1.31935E+05-4.95002E+04 2.97323E+04 3.92644E-09-5.00222E-12
 -1        28 1.07845E+04-3.85379E+04 7.87638E+03 1.23776E+04 1.89659E-09-1.97660E-09
 -1        32-5.11909E+05-6.32258E+04 2.25164E+05-3.46758E+05-1.01936E-08 9.25719E-09
 -1        33-7.54439E+04 3.88200E+04 1.37606E+04-2.25844E+04 7.58159E-10 8.34158E-10
 -1        34-9.79830E+04-9.74827E+03 2.31312E+02 3.01136E+04 2.12887E-09-3.01399E-09
 -1        35-1.09721E+04-1.53273E+04-5.97925E+02 2.43021E+04 2.89919E-09-2.15065E-09
 -1        51 9.68682E+03-2.55227E+05 2.40440E+04-6.38677E+05 1.01863E-10-6.51198E-09
 -1        52 5.21485E+03-2.53419E+05 1.60457E+04-7.44900E+05 3.20142E-10-3.31784E-09
 -1        53 3.50265E+03-2.60117E+05 1.41639E+04-6.36500E+05 5.31145E-10-1.39626E-08
 -1        54 1.09664E+04-2.58035E+05 2.31381E+04-7.47208E+05 2.76486E-10-1.39262E-08
 -1        55 2.39469E+04-2.66562E+05 4.17356E+04-6.36207E+05 5.60249E-10 1.57161E-09
 -1        56-2.19878E+06-2.46123E+05-1.74329E+05-8.48706E+05-1.63709E-10 1.71713E-09
 -1        57-2.27168E+06-4.04727E+05-1.18049E+05-8.38912E+05 2.95586E-10 4.93310E-09
 -1        58-2.23400E+06-3.02434E+05-4.10111E+04-8.37487E+05-7.19410E-10-1.58616E-09
 -1        59-2.23089E+06-3.38902E+05-2.46517E+04-8.52263E+05-5.60249E-10-4.78030E-09
 -1        60-2.23927E+06-3.10397E+05-9.58559E+03-8.35900E+05-1.64869E-09-6.43195E-09
 -1        61-2.22539E+06-3.28991E+05-5.48824E+03-8.53383E+05 2.27431E-10-5.23477E-09
 -1        62-2.23943E+06-3.12147E+05-2.63104E+03-8.36423E+05-2.55454E-10-3.12082E-09
 -1        63-2.22646E+06-3.25900E+05-2.17745E+03-8.51327E+05-1.44172E-09-5.45992E-09
 -1        64-2.23815E+06-3.13489E+05-2.49506E+03-8.37937E+05-5.04997E-10-3.83852E-09
 -1        65-2.23022E+06-3.23785E+05-5.02645E+03-8.47500E+05-2.87400E-10 2.11185E-09
 -1        66-2.23564E+06-3.14309E+05-8.79028E+03-8.40214E+05-4.51962E-10-3.38105E-09
 -1        67-2.23948E+06-3.28507E+05-2.24657E+04-8.41512E+05 1.39228E-09-4.82578E-09
 -1        68-2.22892E+06-3.08968E+05-3.74458E+04-8.43850E+05-3.36513E-10-7.88168E-09
 -1        69-2.27986E+06-3.85441E+05-1.07670E+05-8.25832E+05-6.75755E-10-2.95404E-09
 -1        70-2.19557E+06-2.58772E+05-1.59058E+05-8.55414E+05-2.49565E-09 3.45608E-09
 -1        86-8.60128E+02 1.52636E+05 5.99592E+03-1.57136E+02 7.95126E-10-3.99936E-09
 -1        87 5.70689E+03 1.56313E+05 1.25106E+04 6.43556E+02 1.32786E-09 1.81505E-09
 -1        88-4.84052E+03 1.50692E+05 1.91539E+04-4.86444E+02 1.96087E-09 1.24300E-09
 -1        89 3.60712E+04 1.70449E+05 5.16521E+04 1.38000E+03 3.02225E-09-6.42211E-09
 -1        90-3.11250E+04 1.38508E+05 7.29687E+04-8.93325E+02 3.39423E-09 9.73557E-10
 -1       121-5.32463E+01-4.49226E+05 9.85990E+01 5.07673E+01 2.22631E-10 2.78851E-09
 -1       122 3.83556E+00-4.49034E+05 2.26576E+02-2.03344E+02-8.63620E-10 7.51788E-09
 -1       123-7.80157E+01-4.49250E+05 3.67157E+02 1.52355E+02 6.99373E-10 3.81988E-11
 -1       124 4.21838E+02-4.48777E+05 9.50659E+02-4.85010E+02-1.54171E-09-8.48377E-09
 -1       125-3.49763E+02-4.49486E+05 1.45820E+03 3.32424E+02 1.07570E-09-7.15590E-09
 -1       191-3.55141E+00 1.62375E+05 5.07468E+00 1.12965E-02 1.08487E-10-8.61291E-10
 -1       192-3.63919E+00 1.62362E+05 9.00544E+00 2.79227E-01 1.52820E-10 3.23780E-09
 -1       193-4.59018E+00 1.62375E+05 1.67397E+01-2.92532E-01 1.83539E-10 7.00311E-11
 -1       194-4.89634E+00 1.62363E+05 3.40658E+01 7.84583E-01 9.42584E-11 1.65073E-09
 -1       195-6.58682E+00 1.62374E+05 6.66273E+01-4.97461E-01 3.16088E-10-4.21778E-09
 -1       251 6.60072E+04-2.76489E+04 6.45624E+04 2.29557E+03-2.71029E-10 7.13044E-09
 -1       252 9.53742E+04 3.19914E+04 4.58001E+04-8.75247E+03-7.88134E-11 1.90448E-09
 -1       253 7.70903E+04-4.28340E+03 1.67037E+04 1.92447E+03-5.38307E-10-6.25732E-10
 -1       254 8.23065E+04 4.94749E+03 1.05702E+04-8.17344E+03-1.82951E-10-3.20961E-09
 -1       255 7.90232E+04-6.62383E+02 4.31377E+03 1.71665E+03-5.20856E-10-1.09799E-09
 -1       256 7.99805E+04 7.86029E+02 2.62837E+03-7.86374E+03 7.93207E-10 2.52783E-09
 -1       257 7.93899E+04-1.15993E+02 1.35046E+03 1.61477E+03-1.75447E-10 1.41506E-09
 -1       258 7.96033E+04 2.46734E+02 1.19781E+03-7.75781E+03 2.36638E-10 1.76636E-09
 -1       259 7.93916E+04-1.18264E+02 1.37266E+03 1.61072E+03-5.01409E-10 1.07700E-08
 -1       260 7.99773E+04 8.06796E+02 2.68800E+03-7.84827E+03 4.86125E-10-2.76896E-09
 -1       261 7.90234E+04-6.79878E+02 4.42804E+03 1.70522E+03 4.30191E-10-4.17549E-09
 -1       262 8.23426E+04 5.08130E+03 1.08440E+04-8.14100E+03-4.07454E-10 5.46970E-09
 -1       263 7.70512E+04-4.39731E+03 1.71551E+04 1.90347E+03-1.47736E-10 7.49333E-09
 -1       264 9.57251E+04 3.28473E+04 4.70109E+04-8.69998E+03-1.25928E-09 1.39698E-08
 -1       265 6.56909E+04-2.83843E+04 6.63004E+04 2.26407E+03-8.71637E-10 1.01209E-08
 -1       266-2.45904E+04-1.14984E+04 5.76961E+04-4.16604E+01-3.40879E-09-1.07081E-06
 -1       267 2.85072E+04 1.34017E+04 4.07788E+04 4.80677E+01-6.72844E-09-2.12863E-06
 -1       268-3.82275E+03-1.89805E+03 1.51573E+04-6.12466E+00-5.43423E-09-1.70826E-06
 -1       269 4.51355E+03 2.27156E+03 9.85198E+03 7.13431E+00-4.11455E-09-1.28635E-06
 -1       270-6.77490E+02-3.73236E+02 4.75569E+03-9.68174E-01-3.03953E-09-9.42824E-07
 -1       271-2.40373E+06-2.99384E+05-1.84665E+05-9.35618E+05 3.87445E-10-5.09317E-11
 -1       272-2.45547E+06-4.48637E+05-1.18727E+05-9.50684E+05-6.80302E-10-1.57706E-09
 -1       273-2.43883E+06-3.45010E+05-4.36199E+04-9.27007E+05 6.83258E-10-5.89353E-10
 -1       274-2.41448E+06-3.92705E+05-2.44213E+04-9.63947E+05 4.72937E-10 5.70481E-09
 -1       275-2.44425E+06-3.49133E+05-1.01476E+04-9.24886E+05 1.13278E-09-1.04637E-09
 -1       276-2.40807E+06-3.87885E+05-5.39495E+03-9.67384E+05-1.30376E-09 1.21418E-08
 -1       277-2.44549E+06-3.49009E+05-2.64008E+03-9.24037E+05-5.77529E-11 1.29000E-09
 -1       278-2.40687E+06-3.87916E+05-1.92110E+03-9.68430E+05-3.96540E-10 4.50711E-10
 -1       279-2.44559E+06-3.48961E+05-2.06207E+03-9.23961E+05-5.24437E-10 2.73690E-09
 -1       280-2.40763E+06-3.87860E+05-3.78141E+03-9.67740E+05 5.26370E-11-1.16279E-09
 -1       281-2.44464E+06-3.49158E+05-6.91475E+03-9.24646E+05-4.93401E-10-3.25599E-09
 -1       282-2.41230E+06-3.90706E+05-1.65162E+04-9.64898E+05-3.27418E-10 2.25373E-09
 -1       283-2.44067E+06-3.46720E+05-2.94816E+04-9.26431E+05 9.92713E-10-2.85581E-10
 -1       284-2.44067E+06-4.27650E+05-8.01535E+04-9.54907E+05-4.97039E-10-1.25583E-08
 -1       285-2.41645E+06-3.16484E+05-1.24752E+05-9.32829E+05 1.47793E-09-7.42148E-10
 -1       301 9.22251E+03-5.41897E+03 7.20172E+04-1.68917E+04-7.34872E-10-1.03915E-09
 -1       302 9.90531E+03 1.28610E+04 5.20261E+04-2.48632E+04 9.14952E-10 1.02608E-09
 -1       303 4.26420E+02 1.04619E+03 4.79256E+04-1.69306E+04-4.35648E-10 1.47384E-09
 -1       304 1.87116E+04 2.09839E+04 8.06541E+04-2.47901E+04 8.51287E-10 3.07409E-10
 -1       305 1.85486E+04-1.34950E+04 1.35370E+05-1.69190E+04-5.74801E-10 3.61752E-09
 -1       306-2.55364E+06-2.93862E+05-1.93917E+05-9.95686E+05 9.56788E-10-4.30737E-09
 -1       307-2.64956E+06-4.61829E+05-1.32228E+05-9.66746E+05 5.18867E-10-2.97041E-09
 -1       308-2.59762E+06-3.54177E+05-4.56236E+04-9.77567E+05 1.47384E-09-2.38106E-09
 -1       309-2.59531E+06-3.95013E+05-2.76443E+04-9.91951E+05-1.63513E-09 9.59926E-09
 -1       310-2.60767E+06-3.59493E+05-1.07064E+04-9.70907E+05-1.81960E-09-1.71667E-09
 -1       311-2.58238E+06-3.90270E+05-6.21092E+03-1.00149E+06 4.08068E-09-1.52977E-09
 -1       312-2.61061E+06-3.58680E+05-3.03709E+03-9.68157E+05 7.04716E-10-6.17433E-10
 -1       313-2.57997E+06-3.90547E+05-2.74198E+03-1.00367E+06-1.46095E-09 3.01998E-09
 -1       314-2.61011E+06-3.59172E+05-3.30141E+03-9.68758E+05-1.71303E-09-4.61228E-10
 -1       315-2.58434E+06-3.88617E+05-6.96003E+03-9.99199E+05 9.48603E-10 4.56248E-09
 -1       316-2.60617E+06-3.60686E+05-1.21424E+04-9.72567E+05 1.74114E-09-1.87265E-09
 -1       317-2.59965E+06-3.93469E+05-3.13910E+04-9.87765E+05-5.68434E-11 4.21551E-10
 -1       318-2.59474E+06-3.54581E+05-5.18315E+04-9.80055E+05-1.74214E-09 5.52973E-09
 -1       319-2.66075E+06-4.70123E+05-1.50276E+05-9.60039E+05-1.98497E-09-8.73115E-11
 -1       320-2.54536E+06-2.85341E+05-2.20303E+05-9.99843E+05 3.85990E-09 3.57977E-09
 -1       336 3.53039E+02-4.86316E+05-2.58888E+03 3.45735E+02-4.25894E-09-2.36014E-09
 -1       337-9.32867E+02-4.87035E+05-2.83845E+03-9.33539E+02-7.92113E-09 4.89763E-09
 -1       338 2.33150E+02-4.86391E+05-3.57430E+03 5.86323E+02-5.60556E-09-3.42607E-09
 -1       339-3.69669E+03-4.88729E+05-7.82936E+03-1.41044E+03-1.02618E-08-3.34921E-09
 -1       340 2.51698E+03-4.84642E+05-1.20627E+04 8.19898E+02-6.90670E-09 4.89672E-09
 -1       406 9.01811E+00 1.62368E+05 2.72212E+02 3.77189E-01 4.45908E-10 3.91719E-09
 -1       407 9.34117E+01 1.62418E+05 5.78583E+02-6.75746E+00 4.43805E-11 9.23865E-09
 -1       408 2.96311E+02 1.62326E+05 1.15556E+03 6.45580E+00 4.06544E-10 2.75668E-09
 -1       409 1.24810E+03 1.62787E+05 2.60160E+03-5.90147E+01 4.32010E-12-8.33325E-10
 -1       410 3.58871E+03 1.61997E+05 5.31110E+03 5.39855E+01 4.87489E-10-3.84011E-09
 -1       521-4.87984E+06-5.63168E+05-3.65359E+05-1.89762E+06 3.38332E-09-3.94357E-09
 -1       522-5.05543E+06-8.78747E+05-2.48273E+05-1.84882E+06 8.44011E-10-1.92085E-09
 -1       523-4.96467E+06-6.72665E+05-8.58955E+04-1.86108E+06 1.15779E-09-3.68891E-09
 -1       524-4.95101E+06-7.57277E+05-5.17826E+04-1.89921E+06-8.54811E-10-2.86673E-09
 -1       525-4.98364E+06-6.81788E+05-2.00484E+04-1.84822E+06-2.92175E-10-3.39151E-09
 -1       526-4.92947E+06-7.46190E+05-1.15590E+04-1.91396E+06 1.67029E-09 4.62092E-09
 -1       527-4.98625E+06-6.83217E+05-5.55189E+03-1.84658E+06 8.06494E-10 3.26770E-09
 -1       528-4.93311E+06-7.37980E+05-4.71169E+03-1.90765E+06-2.40470E-09 1.12829E-09
 -1       529-4.97982E+06-6.90060E+05-5.64370E+03-1.85442E+06-5.29781E-10-3.13321E-10
 -1       530-4.95255E+06-7.21873E+05-1.13114E+04-1.88543E+06 2.83126E-09-9.05629E-10
 -1       531-4.96650E+06-6.99594E+05-2.01035E+04-1.86855E+06 2.50452E-09 1.48339E-09
 -1       532-4.98954E+06-7.17815E+05-5.13524E+04-1.85392E+06-5.06049E-10-6.85395E-09
 -1       533-4.94299E+06-6.94515E+05-8.53422E+04-1.88581E+06 2.14459E-09-7.23230E-09
 -1       534-5.09482E+06-8.38517E+05-2.46828E+05-1.80487E+06 1.65437E-09 5.61340E-09
 -1       535-4.86243E+06-5.81311E+05-3.62850E+05-1.91707E+06-6.39557E-09 2.72121E-09
 -1       536-3.49607E+03-1.37915E+04 3.17672E+04 3.52345E+02-1.13175E-09 1.32241E-09
 -1       537 1.12035E+04 1.59573E+04 2.26326E+04-1.28650E+03-4.52960E-09 8.11974E-09
 -1       538 1.95861E+03-2.16102E+03 8.19589E+03 3.10077E+02-3.47768E-10 4.35011E-09
 -1       539 4.76944E+03 2.49464E+03 5.22983E+03-1.23318E+03 4.62990E-10 1.74663E-09
 -1       540 2.93102E+03-3.36152E+02 2.07116E+03 2.99032E+02 2.09141E-10-9.34051E-10
 -1       541 3.58054E+03 3.84824E+02 1.23547E+03-1.21600E+03-3.36684E-10 2.13977E-09
 -1       542 3.14342E+03-4.99187E+01 4.99763E+02 2.92885E+02-7.42375E-11 3.35055E-09
 -1       543 3.30015E+03 4.90552E+01 2.55755E+02-1.20646E+03 2.02554E-10-1.40476E-09
 -1       544 3.20884E+03 1.23513E+00 4.87324E+01 2.89496E+02-4.98567E-10-5.21680E-10
 -1       545 3.19716E+03-5.22867E+01-1.18066E+02-1.20228E+03-6.28323E-10 7.66568E-09
 -1       546 3.24525E+03 5.21894E+01-2.93369E+02 2.88699E+02 7.51728E-11 8.92655E-10
 -1       547 3.04167E+03-3.87162E+02-7.85347E+02-1.20321E+03-1.12778E-09-8.61519E-10
 -1       548 3.36457E+03 3.35696E+02-1.27835E+03 2.90432E+02-1.43154E-09-3.31306E-09
 -1       549 2.14273E+03-2.47428E+03-3.48631E+03-1.20844E+03-8.91069E-10-5.31594E-09
 -1       550 4.14589E+03 2.13649E+03-4.97050E+03 2.93926E+02-1.24913E-11-3.57977E-09
 -1       551 4.19252E+03-2.55591E+05 1.43031E+04-4.38645E+05-1.92704E-08-1.52068E-09
 -1       552 8.54559E+03-2.55444E+05 1.85580E+04-6.24154E+05-1.44355E-08 6.33008E-09
 -1       553 5.44012E+03-2.58832E+05 2.89859E+04-4.37248E+05-2.34395E-08 7.17591E-09
 -1       554 2.26668E+04-2.45875E+05 6.15940E+04-6.24752E+05-1.37079E-08 4.44902E-09
 -1       555 2.33419E+04-2.70654E+05 1.10775E+05-4.37848E+05-2.29993E-08-3.39242E-09
 -1       556 3.52632E+04-8.16957E+04 2.83546E+04-1.09480E+05-3.84534E-09-1.22236E-09
 -1       557 6.84256E+04-1.09601E+05 1.48309E+04-1.36718E+05 1.70985E-10 7.10088E-10
 -1       558 3.56705E+04-8.57715E+04 6.08640E+03-1.05939E+05-2.80124E-09 1.97542E-09
 -1       559 6.45381E+04-1.13668E+05 3.05953E+03-1.38290E+05 3.03044E-09-4.07181E-09
 -1       560 3.50890E+04-8.53679E+04 1.31158E+03-1.06268E+05 8.44011E-10 2.13095E-09
 -1       561 6.34885E+04-1.13486E+05 6.75892E+02-1.38945E+05-1.84991E-09 1.09458E-09
 -1       562 3.45911E+04-8.50198E+04 2.76579E+02-1.06632E+05 7.34872E-10-2.19484E-09
 -1       563 6.28882E+04-1.13231E+05 1.58086E+02-1.39328E+05 9.09495E-12-6.24453E-09
 -1       564 3.42814E+04-8.48157E+04 5.86545E+01-1.06854E+05 3.09228E-09 1.80626E-09
 -1       565 6.25812E+04-1.13102E+05 2.72358E+01-1.39519E+05 2.29511E-09 3.31784E-09
 -1       566 3.41768E+04-8.47434E+04-2.11216E+01-1.06931E+05-7.98991E-10 4.17458E-09
 -1       567 6.25390E+04-1.13081E+05-8.35924E+01-1.39505E+05 4.71300E-09-1.72258E-09
 -1       568 3.42987E+04-8.48252E+04-2.15159E+02-1.06884E+05-7.58519E-10-2.45382E-09
 -1       569 6.23401E+04-1.12965E+05-5.07691E+02-1.38924E+05-3.45608E-09-5.15593E-09
 -1       570 3.49950E+04-8.55091E+04-1.04312E+03-1.06959E+05 1.77170E-09 1.46565E-09
 -1       571 1.17708E+05 4.26455E+03 6.31714E+03-2.95388E+04 3.18323E-10 5.18571E-09
 -1       572 1.18650E+05 1.48319E+03 3.09477E+03-3.23793E+04 3.60387E-10-2.88401E-09
 -1       573 1.18090E+05 3.53343E+02 1.37480E+03-2.94615E+04 7.82165E-11 1.41927E-09
 -1       574 1.18202E+05 1.14040E+02 6.88662E+02-3.24660E+04-1.10049E-09 2.85172E-09
 -1       575 1.18134E+05 1.47137E+01 3.24526E+02-2.94513E+04-5.28075E-10-2.63799E-09
 -1       576 1.18142E+05 2.94325E+00 1.65092E+02-3.24776E+04-3.48678E-10-2.06887E-09
 -1       577 1.18140E+05-3.47681E+00 8.12585E+01-2.94499E+04-9.81419E-09-2.73485E-09
 -1       578 1.18135E+05-2.10762E+00 4.41682E+01-3.24789E+04-2.03618E-08-2.09570E-09
 -1       579 1.18145E+05-3.52503E+00 2.68988E+01-2.94499E+04-9.36097E-09-2.91038E-09
 -1       580 1.18141E+05-3.85995E+00 2.48370E+01-3.24771E+04-9.82254E-11 1.46247E-09
 -1       581 1.18153E+05-5.47391E+00 3.35975E+01-2.94517E+04-1.06911E-09 3.88673E-09
 -1       582 1.18157E+05 4.90226E-01 6.37066E+01-3.24594E+04-6.83940E-10 1.76351E-09
 -1       583 1.18162E+05 1.78295E+01 1.22466E+02-2.94676E+04-3.83807E-10 8.43443E-10
 -1       584 1.18212E+05 1.14334E+02 2.74254E+02-3.23279E+04-1.68802E-09-3.71597E-09
 -1       585 1.18142E+05 3.57423E+02 5.57466E+02-2.95834E+04 5.00222E-11-3.77531E-09
 -1       586-1.46900E+03 3.83389E+04-1.93925E+03-1.00559E+05 3.39924E-10-6.42444E-10
 -1       587-3.28518E+02 3.80805E+04-2.38035E+02-1.10656E+05 5.42968E-10-2.75381E-09
 -1       588 3.88769E+02 3.81311E+04 1.32817E+03-1.00497E+05 3.11047E-10-1.09740E-08
 -1       589 1.98522E+03 3.88573E+04 3.89751E+03-1.10565E+05 4.76575E-10-2.42792E-08
 -1       590 5.72355E+03 3.76385E+04 8.35812E+03-1.00650E+05 2.18733E-10-1.04710E-08
 -1       591-2.56191E+04-7.36317E+03-8.55247E+03-1.33182E+04 8.99121E-10-1.68711E-10
 -1       592-2.64145E+04-9.46927E+03-4.63237E+03-1.55550E+04-1.33895E-09 1.17927E-09
 -1       593-2.64837E+04-6.73302E+03-1.92849E+03-1.39354E+04-8.18432E-10 4.90331E-10
 -1       594-2.52222E+04-8.22640E+03-9.61848E+02-1.56141E+04 9.37803E-10 5.87016E-09
 -1       595-2.65497E+04-6.73027E+03-4.42033E+02-1.39637E+04-5.64739E-10 4.20836E-09
 -1       596-2.51414E+04-8.16951E+03-2.25339E+02-1.56056E+04 1.40879E-09 3.06676E-09
 -1       597-2.65581E+04-6.73578E+03-1.24051E+02-1.39648E+04 4.36906E-10 3.28291E-09
 -1       598-2.51337E+04-8.16733E+03-1.02191E+02-1.56033E+04-1.34156E-09 4.06510E-09
 -1       599-2.65576E+04-6.73573E+03-1.33587E+02-1.39646E+04-3.79646E-09-6.05820E-09
 -1       600-2.51426E+04-8.17018E+03-2.50650E+02-1.56056E+04-1.17780E-09 1.40108E-09
 -1       601-2.65473E+04-6.72960E+03-4.95701E+02-1.39631E+04 8.12065E-10-2.86718E-09
 -1       602-2.52336E+04-8.23396E+03-1.08112E+03-1.56143E+04 3.33898E-09-4.95902E-10
 -1       603-2.64724E+04-6.73358E+03-2.16835E+03-1.39316E+04-9.46102E-10-8.17113E-09
 -1       604-2.65787E+04-9.62662E+03-5.20893E+03-1.55417E+04 3.34751E-10 3.99189E-09
 -1       605-2.54947E+04-7.44622E+03-9.61674E+03-1.32423E+04-1.46991E-09-2.86809E-09
 -1       606 1.68648E+04-5.66480E+03-1.02055E+04 1.65064E+04-5.01677E-09-3.72620E-09
 -1       607 1.51172E+04-1.82697E+03-5.08196E+03 1.85293E+04-1.74759E-09-4.49256E-09
 -1       608 1.61137E+04-3.06994E+02-2.27526E+03 1.63746E+04-6.29825E-09-1.26636E-09
 -1       609 1.59179E+04-8.14422E+01-1.14938E+03 1.86749E+04-1.84405E-08-1.34378E-10
 -1       610 1.60271E+04 1.31981E+01-5.48664E+02 1.63599E+04-1.20872E-08 4.29281E-10
 -1       611 1.59917E+04 1.81758E+01-2.76871E+02 1.86909E+04-5.97311E-09-2.08365E-09
 -1       612 1.60068E+04 1.96348E+01-1.32274E+02 1.63585E+04-1.27566E-08-9.51559E-10
 -1       613 1.59947E+04 2.07421E+01-6.04216E+01 1.86928E+04-2.48328E-08-2.69506E-09
 -1       614 1.59969E+04 1.79755E+01-1.68294E+01 1.63579E+04-1.98511E-08 1.64277E-10
 -1       615 1.59911E+04 2.20795E+01 1.86132E+01 1.86932E+04-1.43857E-08 1.59980E-09
 -1       616 1.59892E+04 1.97785E+01 6.20578E+01 1.63581E+04-1.23737E-08-1.69268E-09
 -1       617 1.59972E+04 3.63274E+01 1.43880E+02 1.86929E+04-4.83499E-09-1.25283E-09
 -1       618 1.59756E+04 6.20399E+01 2.90939E+02 1.63582E+04-4.94811E-09 6.70298E-10
 -1       619 1.60991E+04 2.62016E+02 6.53895E+02 1.86925E+04-1.83661E-09 2.23008E-09
 -1       620 1.58783E+04 7.52996E+02 1.31451E+03 1.63578E+04 1.23799E-09-3.00770E-09
 -1       621 2.06307E+02 1.28275E+05 1.77986E+03 4.02845E+03-1.71656E-10 5.58248E-09
 -1       622 2.35614E+02 1.28716E+05 1.50816E+03 5.88027E+03-1.29489E-10 3.76042E-09
 -1       623 1.01871E+01 1.28402E+05 1.73123E+03 4.00944E+03-1.30996E-10 1.12647E-09
 -1       624 7.82874E+02 1.29218E+05 3.28475E+03 5.89894E+03-2.25612E-10-1.85992E-09
 -1       625 7.85737E+02 1.27770E+05 5.70909E+03 4.00995E+03-1.26420E-10-9.33710E-10
 -1       626 1.05739E+05 2.93593E+04 2.10869E+03 5.72475E+04 3.31625E-09 1.17398E-08
 -1       627 1.04284E+05 3.04317E+04 1.01576E+03 5.95690E+04-1.20735E-09 2.38856E-10
 -1       628 1.05823E+05 2.83596E+04 4.29300E+02 5.75665E+04 1.38789E-09 2.39925E-09
 -1       629 1.03983E+05 3.01914E+04 2.10262E+02 5.97111E+04 2.32490E-09-3.78174E-09
 -1       630 1.05831E+05 2.83106E+04 9.73670E+01 5.75767E+04-4.67298E-09-1.29902E-08
 -1       631 1.03949E+05 3.01850E+04 5.22762E+01 5.97147E+04-2.43313E-09 5.34321E-10
 -1       632 1.05828E+05 2.83131E+04 3.45859E+01 5.75733E+04-1.69985E-09 3.98006E-09
 -1       633 1.03943E+05 3.01874E+04 3.85795E+01 5.97120E+04-2.38833E-09-1.77536E-09
 -1       634 1.05823E+05 2.83129E+04 6.25295E+01 5.75714E+04 2.86036E-09-5.55929E-11
 -1       635 1.03946E+05 3.01880E+04 1.26811E+02 5.97124E+04 2.75560E-09 2.50486E-09
 -1       636 1.05817E+05 2.83122E+04 2.56216E+02 5.75697E+04-1.16120E-09-2.80806E-10
 -1       637 1.03999E+05 3.02289E+04 5.63166E+02 5.97097E+04-6.42256E-10 4.61796E-10
 -1       638 1.05794E+05 2.84382E+04 1.15755E+03 5.75115E+04-1.02546E-09-8.71296E-10
 -1       639 1.04603E+05 3.10762E+04 2.73849E+03 5.95290E+04-2.98638E-09-3.17573E-09
 -1       640 1.05711E+05 3.09599E+04 5.68331E+03 5.64406E+04-1.38630E-09-3.40265E-09
 -1       656 2.86823E+04-7.25942E+05-6.92539E+04-5.09578E+02-1.09139E-10 2.72902E-09
 -1       657-3.78980E+04-7.57222E+05-5.72716E+04 4.75717E+03 1.59162E-10-4.89504E-10
 -1       658 9.09259E+03-7.34870E+05-3.51456E+04-9.52121E+02 6.26756E-10 1.16389E-09
 -1       659-4.06259E+04-7.58507E+05-6.08542E+04 5.04825E+03 8.41283E-11 4.85498E-09
 -1       660 3.14027E+04-7.24660E+05-7.54224E+04-8.00648E+02 3.38332E-10 5.30321E-10
 -1       661 1.03403E+05 1.12319E+04 9.90721E+03 4.03678E+04 1.80034E-09-3.20733E-09
 -1       662 1.08533E+05 1.90321E+04 6.67577E+03 3.86783E+04 1.30933E-09-2.17437E-09
 -1       663 1.05341E+05 1.44174E+04 2.33525E+03 3.98115E+04-3.36797E-10 7.19638E-11
 -1       664 1.06293E+05 1.53006E+04 1.39607E+03 3.93519E+04-8.28379E-10 3.04918E-09
 -1       665 1.05629E+05 1.48587E+04 5.50755E+02 3.97336E+04-2.62852E-09 8.96762E-10
 -1       666 1.05958E+05 1.47908E+04 3.21075E+02 3.94495E+04-1.94942E-09 6.57816E-09
 -1       667 1.05674E+05 1.49140E+04 1.69310E+02 3.97189E+04-7.70086E-10 1.88567E-09
 -1       668 1.05911E+05 1.47439E+04 1.69465E+02 3.94691E+04 1.01161E-09-2.20072E-09
 -1       669 1.05675E+05 1.49043E+04 2.27093E+02 3.97144E+04 7.78371E-10 6.13892E-09
 -1       670 1.05973E+05 1.48590E+04 4.92131E+02 3.94631E+04 5.51237E-09 3.54738E-09
 -1       671 1.05612E+05 1.48013E+04 8.73155E+02 3.97240E+04 8.73968E-11-5.97254E-09
 -1       672 1.06487E+05 1.57035E+04 2.23333E+03 3.93347E+04-4.27674E-09 2.59320E-10
 -1       673 1.05164E+05 1.40811E+04 3.74253E+03 3.98347E+04-2.50134E-09-3.77418E-09
 -1       674 1.10055E+05 2.17115E+04 1.07032E+04 3.82823E+04-1.86566E-09-3.42266E-09
 -1       675 1.02068E+05 8.96139E+03 1.58864E+04 4.07132E+04 1.95405E-09-2.85854E-09
 -1       676 1.16962E+01-1.39497E+05-5.43288E+02 1.74768E+01-1.16937E-09-1.01090E-09
 -1       677-1.44208E+02-1.39628E+05-9.94241E+02-3.49480E+01-4.89069E-09-4.13332E-09
 -1       678 9.62861E+01-1.39403E+05-1.75753E+03 1.74591E+01-6.22549E-10 3.30967E-09
 -1       679-1.75774E+03-1.40689E+05-4.17485E+03-3.48694E+01-1.38289E-09-1.90822E-09
 -1       680 1.04894E+03-1.38436E+05-6.72852E+03 1.71974E+01 3.51065E-10 6.03160E-10
 -1       771-1.50074E+06-2.60403E+05-3.63870E+04-6.20610E+05-6.58474E-09-4.59841E-09
 -1       772-1.49150E+06-2.80496E+05-1.95636E+04-6.42980E+05-4.07454E-09 1.67256E-09
 -1       773-1.50551E+06-2.56718E+05-8.37415E+03-6.22650E+05 5.82077E-10 7.54153E-09
 -1       774-1.48617E+06-2.76085E+05-4.09591E+03-6.44854E+05 4.40195E-09-1.54523E-09
 -1       775-1.50644E+06-2.56160E+05-2.02671E+03-6.22769E+05-2.10639E-09 8.45830E-10
 -1       776-1.48600E+06-2.76051E+05-9.46120E+02-6.45730E+05-3.67436E-09 1.42609E-09
 -1       777-1.50703E+06-2.55748E+05-5.59340E+02-6.22814E+05-3.49246E-10 1.12777E-09
 -1       778-1.48612E+06-2.76166E+05-2.57185E+02-6.46451E+05 7.31234E-10 2.42744E-09
 -1       779-1.50749E+06-2.55396E+05-2.39355E+02-6.22852E+05-1.02955E-09-1.69075E-09
 -1       780-1.48627E+06-2.76270E+05-2.00149E+02-6.47034E+05-1.72076E-09 1.45519E-10
 -1       781-1.50783E+06-2.55112E+05-3.53677E+02-6.22878E+05-4.65843E-09-7.81711E-10
 -1       782-1.48644E+06-2.76380E+05-6.61549E+02-6.47464E+05-5.82713E-09-1.97349E-09
 -1       783-1.50802E+06-2.54930E+05-1.32217E+03-6.22881E+05-8.07631E-10-2.56222E-09
 -1       784-1.48731E+06-2.77272E+05-3.13937E+03-6.47690E+05-3.69255E-09 1.89175E-10
 -1       785-1.50756E+06-2.55253E+05-5.80293E+03-6.22465E+05-6.30280E-09 7.63976E-10
 -1       786 1.09487E+05-5.83600E+03 1.35009E+04 2.08189E+00 6.85499E-08-9.05857E-10
 -1       787 1.15338E+05 6.75623E+03 9.55185E+03-7.51710E+00 1.36080E-07 3.94482E-09
 -1       788 1.11745E+05-9.14855E+02 3.49438E+03 2.95295E+00 2.07309E-07 3.54703E-10
 -1       789 1.12708E+05 1.05854E+03 2.19557E+03-9.94794E+00 2.78645E-07-1.06044E-09
 -1       790 1.12117E+05-1.42916E+02 8.93392E+02 4.51278E+00 3.97425E-07-7.08673E-09
 -1       791 1.12274E+05 1.66059E+02 5.24613E+02-1.40357E+01 5.16780E-07 3.62229E-09
 -1       792 1.12179E+05-2.30432E+01 2.39576E+02 7.04074E+00 7.48015E-07-5.45494E-09
 -1       793 1.12203E+05 3.24341E+01 1.57295E+02-2.05243E+01 9.77756E-07 4.41040E-09
 -1       794 1.12187E+05-9.37901E+00 1.16982E+02 1.10015E+01 4.89036E-07-1.02226E-08
 -1       795 1.12211E+05 4.85686E+01 1.69889E+02-3.05980E+01 1.48200E-09-3.99694E-09
 -1       796 1.12172E+05-3.91656E+01 2.54892E+02 1.71146E+01-1.52834E-10-1.62534E-09
 -1       797 1.12326E+05 2.87149E+02 6.01336E+02-4.60894E+01-8.10676E-11-2.16807E-09
 -1       798 1.12072E+05-2.47783E+02 9.49322E+02 2.64933E+01 9.12199E-11 3.26497E-09
 -1       799 1.13038E+05 1.82951E+03 2.58808E+03-6.99705E+01-6.02020E-10 6.18761E-09
 -1       800 1.11460E+05-1.58028E+03 3.65602E+03 4.09959E+01-2.20604E-10 7.16159E-09
 -1       801-7.19252E+03 3.35355E+04 1.20584E+04 1.14999E+04 6.38647E-09-5.52063E-10
 -1       802 1.77130E+04 8.05280E+04 3.35371E+04-4.77494E+04 1.70660E-08 2.48846E-10
 -1       803-1.01203E+04 5.00556E+04 4.19455E+04 1.05899E+04 1.34569E-08 1.33513E-08
 -1       804 8.03264E+04 1.13746E+05 1.15559E+05-4.83398E+04 1.59216E-08 1.36663E-08
 -1       805-6.98236E+04 4.58507E+02 1.50722E+05 1.20892E+04 5.57338E-09 1.55292E-08
 -1       806-1.28290E+05-2.75308E+04-1.09211E+04-5.34711E+04-3.13321E-10-4.02906E-10
 -1       807-1.28928E+05-2.59716E+04-5.36528E+03-5.63723E+04 1.69649E-10 3.03501E-09
 -1       808-1.28600E+05-2.35850E+04-2.27600E+03-5.53236E+04-7.60565E-11 3.04884E-09
 -1       809-1.27783E+05-2.44821E+04-1.11269E+03-5.65275E+04 2.21178E-10 1.43791E-09
 -1       810-1.28649E+05-2.34456E+04-5.09476E+02-5.54054E+04 5.44560E-10-1.86560E-10
 -1       811-1.27696E+05-2.44231E+04-2.52668E+02-5.65148E+04 5.11932E-10-3.71642E-09
 -1       812-1.28658E+05-2.34556E+04-1.26029E+02-5.54055E+04 4.80895E-10 2.30909E-09
 -1       813-1.27685E+05-2.44245E+04-7.94888E+01-5.65086E+04 1.16302E-10 3.25326E-09
 -1       814-1.28657E+05-2.34590E+04-7.44133E+01-5.54041E+04 3.83034E-09-5.66843E-10
 -1       815-1.27687E+05-2.44256E+04-1.16523E+02-5.65074E+04 1.10704E-08 5.56145E-09
 -1       816-1.28651E+05-2.34576E+04-2.18205E+02-5.54029E+04 3.61297E-09 1.83468E-09
 -1       817-1.27725E+05-2.44463E+04-4.68048E+02-5.65042E+04 1.12959E-09 1.73111E-09
 -1       818-1.28624E+05-2.35227E+04-9.53752E+02-5.53723E+04 1.40017E-09 1.87219E-09
 -1       819-1.28252E+05-2.50186E+04-2.24507E+03-5.63776E+04-7.23276E-10 2.02726E-09
 -1       820-1.28443E+05-2.52200E+04-4.56890E+03-5.46493E+04 8.54925E-11 2.71871E-09
 -1       821-1.65878E+05 9.21010E+03-2.13021E+04 8.91916E+00-5.89202E-10-8.69477E-10
 -1       822-1.75108E+05-1.06622E+04-1.50736E+04-1.85685E+02-1.55960E-09 5.45697E-11
 -1       823-1.69440E+05 1.44381E+03-5.51735E+03-2.39118E+01 8.34468E-10 2.45336E-10
 -1       824-1.70958E+05-1.67116E+03-3.47207E+03-1.08553E+02 2.79508E-10-7.90351E-10
 -1       825-1.70028E+05 2.26057E+02-1.42634E+03-6.82160E+01-2.71865E-09-5.19344E-09
 -1       826-1.70275E+05-2.66627E+02-8.62681E+02-2.02071E+01-4.63266E-09-6.45407E-09
 -1       827-1.70123E+05 4.03005E+01-4.45068E+02-1.12259E+02-3.28975E-09-2.60427E-09
 -1       828-1.70181E+05-8.14836E+01-3.95083E+02 5.62897E+01-3.82957E-09 2.87688E-09
 -1       829-1.70122E+05 4.10638E+01-4.51668E+02-1.44714E+02-3.29879E-10 4.11376E-09
 -1       830-1.70281E+05-2.73074E+02-8.82801E+02 1.01282E+02 1.05674E-09 8.86629E-10
 -1       831-1.70023E+05 2.31788E+02-1.46126E+03-1.57252E+02-1.58472E-09-1.09083E-10
 -1       832-1.70982E+05-1.71366E+03-3.56069E+03 1.03481E+02-6.35153E-10 6.47276E-10
 -1       833-1.69421E+05 1.48060E+03-5.65775E+03-1.46913E+02-1.15467E-09-1.02455E-09
 -1       834-1.75236E+05-1.09342E+04-1.54584E+04 6.36309E+01-5.62487E-10 8.23093E-11
 -1       835-1.65770E+05 9.44508E+03-2.18461E+04-1.17398E+02 3.06092E-09 8.39464E-10
 -1       836-5.53145E+02 1.57354E+05 9.47205E+03-1.38649E+04 1.14869E-09-1.58616E-09
 -1       837 2.08134E+03 1.60289E+05 8.08252E+03-2.78637E+04 1.50794E-09 6.66296E-09
 -1       838-2.05415E+02 1.58173E+05 8.33004E+03-1.38167E+04 1.46383E-09 5.18094E-09
 -1       839 5.34060E+03 1.62724E+05 1.58517E+04-2.78814E+04 1.93313E-09-7.00135E-09
 -1       840-1.60939E+03 1.54904E+05 2.53157E+04-1.38464E+04 1.34332E-09-3.04397E-09
 -1       856-5.22728E+04 4.45401E+03-1.17364E+04-2.51379E+02-1.84713E-09 3.06773E-09
 -1       857-5.71219E+04-5.22465E+03-8.08061E+03 2.69002E+03-1.65784E-09-5.57247E-09
 -1       858-5.41886E+04 6.24282E+02-3.04589E+03-2.59939E+02-2.46447E-09-3.55897E-09
 -1       859-5.49208E+04-7.26979E+02-1.83984E+03 2.70346E+03 2.59064E-10-2.98610E-09
 -1       860-5.44752E+04 8.69649E+01-7.73618E+02-2.64875E+02 4.60034E-10 1.56319E-12
 -1       861-5.45902E+04-9.74691E+01-4.31114E+02 2.71014E+03-4.01027E-09-3.11343E-09
 -1       862-5.45199E+04 1.16649E+01-1.90230E+02-2.66634E+02 3.98229E-09 1.39113E-09
 -1       863-5.45375E+04-8.74405E+00-9.43129E+01 2.71093E+03 5.93362E-09-3.17646E-09
 -1       864-5.45280E+04 1.54516E-01-3.00754E+01-2.65665E+02 4.41540E-09-1.96106E-09
 -1       865-5.45228E+04 1.14705E+01 1.62914E+01 2.70593E+03 4.74110E-09 4.74961E-09
 -1       866-5.45340E+04-8.62185E+00 6.19843E+01-2.61641E+02-1.10703E-10 1.03246E-09
 -1       867-5.44872E+04 7.29412E+01 1.70700E+02 2.69506E+03 1.77232E-09 4.51097E-09
 -1       868-5.45625E+04-6.05947E+01 2.88690E+02-2.54786E+02 9.31692E-10-1.45074E-09
 -1       869-5.42720E+04 5.03967E+02 7.74455E+02 2.67641E+03-3.16356E-09-4.09369E-09
 -1       870-5.47474E+04-4.28492E+02 1.12409E+03-2.43000E+02-7.33280E-12-4.55913E-09
 -1       871-2.41193E+03-5.01542E+03-7.87448E+03 5.16192E+04 1.36060E-09-1.87492E-09
 -1       872-1.04513E+03-6.77323E+03-3.20627E+03 6.69194E+04 2.26646E-09 7.67386E-10
 -1       873-1.83056E+01-5.94186E+03 4.70807E+02 5.15045E+04 1.37891E-09 1.17825E-09
 -1       874 1.22350E+03-4.79331E+03 4.49651E+03 6.69438E+04 4.14411E-09 3.83170E-09
 -1       875 2.89364E+03-7.01537E+03 9.96548E+03 5.15983E+04 1.01090E-09-5.19276E-09
 -1       876 1.29394E+05 2.22939E+04 6.94065E+03 5.24913E+04-2.88753E-09-3.35922E-09
 -1       877 1.29788E+05 2.38201E+04 3.70636E+03 5.45482E+04-2.72291E-09-5.00825E-09
 -1       878 1.30044E+05 2.15248E+04 1.55287E+03 5.30609E+04 1.63186E-09 8.96762E-10
 -1       879 1.28844E+05 2.28802E+04 7.73482E+02 5.45988E+04 5.99016E-10 3.97327E-09
 -1       880 1.30092E+05 2.15156E+04 3.60131E+02 5.30841E+04 1.13198E-09 5.69690E-09
 -1       881 1.28781E+05 2.28405E+04 1.91733E+02 5.45900E+04 3.47342E-09-7.26885E-12
 -1       882 1.30097E+05 2.15209E+04 1.21742E+02 5.30848E+04 3.81726E-09 2.43865E-10
 -1       883 1.28777E+05 2.28387E+04 1.29347E+02 5.45878E+04 3.05789E-10 9.25521E-09
 -1       884 1.30095E+05 2.15192E+04 2.04414E+02 5.30849E+04-1.25198E-10-2.54167E-09
 -1       885 1.28793E+05 2.28417E+04 4.10150E+02 5.45931E+04 1.36144E-09-7.73241E-10
 -1       886 1.30079E+05 2.15073E+04 8.26285E+02 5.30833E+04 1.80954E-09-1.21872E-09
 -1       887 1.28938E+05 2.29368E+04 1.80483E+03 5.46137E+04-3.79885E-09-2.28488E-09
 -1       888 1.29965E+05 2.15276E+04 3.63684E+03 5.30256E+04 3.27407E-09 4.98812E-09
 -1       889 1.31106E+05 2.51868E+04 8.68845E+03 5.45442E+04 2.56729E-09-1.32604E-09
 -1       890 1.28482E+05 2.32885E+04 1.62724E+04 5.16391E+04 3.30908E-09-4.99404E-09
 -1       891-7.79266E+01-7.36158E+04-8.65886E+02 1.40207E+04 8.06153E-10-9.51673E-10
 -1       892-1.35793E+02-7.38257E+04-9.43474E+02 2.12209E+04 9.01537E-11 4.01496E-09
 -1       893-1.86591E+01-7.36450E+04-1.34926E+03 1.40232E+04 1.58013E-09-2.89901E-10
 -1       894-7.31111E+02-7.43498E+04-2.80309E+03 2.11461E+04-1.54068E-09-2.60275E-09
 -1       895-5.69025E+02-7.30666E+04-4.93889E+03 1.40948E+04-2.15024E-09-2.50566E-10
 -1       956-1.62482E+05-2.34497E+03-5.90413E+03 1.07279E+04-2.39197E-09 2.36571E-09
 -1       957-1.63647E+05-7.91931E+02-3.03114E+03 1.29131E+04-1.45519E-09-1.14869E-09
 -1       958-1.63003E+05-6.38015E+01-1.36544E+03 1.06582E+04 1.38243E-09-1.33491E-09
 -1       959-1.63095E+05-1.31237E+01-6.97535E+02 1.29884E+04-2.10912E-09 6.24129E-09
 -1       960-1.63048E+05 1.74977E+01-3.39903E+02 1.06518E+04-2.65959E-09 2.27487E-09
 -1       961-1.63052E+05 1.50205E+01-1.80266E+02 1.29955E+04-3.27645E-09 9.47011E-10
 -1       962-1.63055E+05 1.41584E+01-1.02879E+02 1.06510E+04-2.00430E-09 1.29830E-09
 -1       963-1.63049E+05 1.50318E+01-8.21147E+01 1.29966E+04-3.55840E-09 2.89424E-09
 -1       964-1.63057E+05 1.48627E+01-9.90133E+01 1.06507E+04 6.84963E-11 8.51969E-10
 -1       965-1.63055E+05 1.66286E+01-1.70535E+02 1.29966E+04 1.26578E-09-1.29967E-09
 -1       966-1.63052E+05 1.95488E+01-3.19726E+02 1.06510E+04-1.74333E-09-1.27829E-09
 -1       967-1.63098E+05-8.18246E+00-6.55560E+02 1.29927E+04-1.29938E-09 7.76311E-10
 -1       968-1.63012E+05-5.52959E+01-1.28268E+03 1.06547E+04-7.97172E-10-2.74068E-09
 -1       969-1.63620E+05-7.38484E+02-2.84788E+03 1.29489E+04 2.20098E-10-2.58524E-10
 -1       970-1.62525E+05-2.19757E+03-5.54681E+03 1.06960E+04 4.22460E-10 2.26510E-09
 -1       971-1.54484E+05-8.17741E+02-4.54995E+03 7.61234E+03-1.29239E-09 1.28382E-09
 -1       972-1.55590E+05-5.88074E+02-2.47822E+03 1.06218E+04-1.69280E-09 1.72668E-09
 -1       973-1.54987E+05-6.19958E+00-1.10932E+03 7.55019E+03-2.81807E-09-1.02125E-09
 -1       974-1.55063E+05-8.39643E+00-5.74824E+02 1.06883E+04 1.47224E-10-1.48657E-09
 -1       975-1.55024E+05 1.35263E+01-2.86445E+02 7.54523E+03 1.41972E-09-2.57643E-09
 -1       976-1.55029E+05 1.40193E+01-1.64072E+02 1.06941E+04-1.93745E-09-5.14638E-09
 -1       977-1.55030E+05 1.23593E+01-1.16699E+02 7.54442E+03 1.74600E-09-1.89596E-09
 -1       978-1.55029E+05 1.58427E+01-1.33462E+02 1.06952E+04 7.17563E-09 1.07428E-09
 -1       979-1.55030E+05 1.54688E+01-2.11639E+02 7.54410E+03 3.02458E-09 2.90692E-09
 -1       980-1.55045E+05 1.69271E+01-4.06900E+02 1.06953E+04 3.73892E-09-2.46871E-10
 -1       981-1.55017E+05 2.56655E+01-7.87057E+02 7.54430E+03 5.90262E-09-9.76428E-10
 -1       982-1.55153E+05-4.07740E+01-1.62626E+03 1.06924E+04 7.50293E-09 7.46780E-11
 -1       983-1.54919E+05-2.40243E+01-3.15935E+03 7.54703E+03 5.71663E-09 5.02189E-09
 -1       984-1.56674E+05-1.68954E+03-7.07472E+03 1.06503E+04 2.60604E-09 4.48904E-09
 -1       985-1.53490E+05-2.33509E+03-1.29914E+04 7.58860E+03 3.27509E-09 4.18368E-10
 -3
    1PSTEP                         5           3           1          
  100CL  103 3.75000E-01         409                     0    3           1
 -4  DISP        4    1
 -5  D1          1    2    1    0
 -5  D2          1    2    2    0
 -5  D3          1    2    3    0
 -5  ALL         1    2    0    0    1ALL
 -1         1 9.87289E-05 0.00000E+00 0.00000E+00
 -1         2 8.98601E-05 1.04384E-29 0.00000E+00
 -1         3 8.33080E-05-3.55415E-27 0.00000E+00
 -1         5 5.99996E-05 1.51582E-26 0.00000E+00
 -1         8 7.86588E-05-7.20260E-07 0.00000E+00
 -1         9 7.91434E-05 3.56562E-07 0.00000E+00
 -1        10 7.71949E-05-1.13898E-06-6.61744E-24
 -1        12 5.95731E-05 4.08833E-07 0.00000E+00
 -1        15 5.47696E-05-7.85609E-07 0.00000E+00
 -1        16 5.69441E-05 2.54881E-07 0.00000E+00
 -1        17 5.75541E-05-2.39561E-06 0.00000E+00
 -1        18 5.75039E-05 1.54915E-07 0.00000E+00
 -1        19 5.82940E-05 8.15413E-07 0.00000E+00
 -1        20 5.84007E-05 1.21195E-05 0.00000E+00
 -1        21 5.79989E-05 2.29219E-05 0.00000E+00
 -1        24 1.47753E-05-3.22514E-06 0.00000E+00
 -1        25 5.61384E-05 2.48639E-07 0.00000E+00
 -1        26 5.68875E-05 1.13622E-06 0.00000E+00
 -1        27 5.57567E-05 1.03027E-05 0.00000E+00
 -1        28 5.53901E-05 2.25725E-05 0.00000E+00
 -1        32 0.00000E+00 0.00000E+00 0.00000E+00
 -1        33 5.45022E-05 1.52366E-06 0.00000E+00
 -1        34 5.34096E-05 1.02864E-05 0.00000E+00
 -1        35 5.23709E-05 2.23882E-05 0.00000E+00
 -1        51 9.74237E-05-1.18762E-07 0.00000E+00
 -1        52 9.50044E-05-2.34411E-07 0.00000E+00
 -1        53 9.16902E-05-3.51010E-07 0.00000E+00
 -1        54 8.77089E-05-4.69678E-07 0.00000E+00
 -1        55 8.32888E-05-5.91070E-07-6.61744E-24
 -1        56 9.77801E-05-6.03195E-07 0.00000E+00
 -1        57 9.69447E-05-1.61823E-06-1.32349E-23
 -1        58 9.62220E-05-2.92781E-06-2.64698E-23
 -1        59 9.55618E-05-4.42370E-06 0.00000E+00
 -1        60 9.49243E-05-5.98067E-06-2.64698E-23
 -1        61 9.42619E-05-7.47449E-06 0.00000E+00
 -1        62 9.35305E-05-8.78437E-06-2.64698E-23
 -1        63 9.26870E-05-9.79495E-06 0.00000E+00
 -1        64 9.16952E-05-1.04096E-05 2.64698E-23
 -1        65 9.05227E-05-1.05423E-05-1.32349E-23
 -1        66 8.91486E-05-1.01375E-05 0.00000E+00
 -1        67 8.75579E-05-9.15410E-06 0.00000E+00
 -1        68 8.57477E-05-7.58768E-06 0.00000E+00
 -1        69 8.37274E-05-5.44744E-06-1.32349E-23
 -1        70 8.15067E-05-2.78324E-06-2.64698E-23
 -1        86 8.95769E-05 6.52052E-08 0.00000E+00
 -1        87 8.87264E-05 1.29683E-07 0.00000E+00
 -1        88 8.72884E-05 1.93452E-07 0.00000E+00
 -1        89 8.52408E-05 2.53575E-07-4.13590E-25
 -1        90 8.25407E-05 3.13092E-07-3.30872E-24
 -1       121 8.31375E-05-1.89106E-07 0.00000E+00
 -1       122 8.26264E-05-3.78328E-07-3.30872E-24
 -1       123 8.17753E-05-5.67780E-07 0.00000E+00
 -1       124 8.05852E-05-7.57607E-07 3.30872E-24
 -1       125 7.90577E-05-9.47866E-07 0.00000E+00
 -1       191 5.99877E-05 6.81445E-08 0.00000E+00
 -1       192 5.99522E-05 1.36288E-07 0.00000E+00
 -1       193 5.98930E-05 2.04430E-07 0.00000E+00
 -1       194 5.98100E-05 2.72569E-07 1.65436E-24
 -1       195 5.97034E-05 3.40704E-07 0.00000E+00
 -1       251 7.86731E-05 2.60007E-06 3.30872E-24
 -1       252 7.87032E-05 4.61720E-06 8.27181E-25
 -1       253 7.87341E-05 5.53362E-06 0.00000E+00
 -1       254 7.87678E-05 5.55008E-06 2.06795E-25
 -1       255 7.88014E-05 4.85136E-06 0.00000E+00
 -1       256 7.88349E-05 3.62121E-06 0.00000E+00
 -1       257 7.88680E-05 2.03380E-06 0.00000E+00
 -1       258 7.89009E-05 2.62826E-07-4.13590E-25
 -1       259 7.89338E-05-1.52140E-06-8.27181E-25
 -1       260 7.89668E-05-3.14853E-06 4.13590E-25
 -1       261 7.90002E-05-4.44538E-06 0.00000E+00
 -1       262 7.90337E-05-5.23833E-06 0.00000E+00
 -1       263 7.90674E-05-5.34467E-06-1.03398E-25
 -1       264 7.90983E-05-4.58069E-06-8.27181E-25
 -1       265 7.91287E-05-2.74721E-06 0.00000E+00
 -1       266 7.46773E-05-7.40988E-07 3.30872E-24
 -1       267 7.06958E-05-7.50681E-07 8.27181E-25
 -1       268 6.67142E-05-7.61072E-07 0.00000E+00
 -1       269 6.27327E-05-7.69393E-07-2.06795E-25
 -1       270 5.87512E-05-7.77665E-07 0.00000E+00
 -1       271 7.62437E-05 2.26326E-06 2.64698E-23
 -1       272 7.41883E-05 4.18105E-06 0.00000E+00
 -1       273 7.24883E-05 5.16045E-06 2.64698E-23
 -1       274 7.10878E-05 5.32583E-06 0.00000E+00
 -1       275 6.99391E-05 4.81888E-06 0.00000E+00
 -1       276 6.89852E-05 3.78906E-06 1.32349E-23
 -1       277 6.81675E-05 2.39456E-06 2.64698E-23
 -1       278 6.74249E-05 7.98735E-07-1.32349E-23
 -1       279 6.66953E-05-8.31909E-07-2.64698E-23
 -1       280 6.59164E-05-2.33028E-06 0.00000E+00
 -1       281 6.50264E-05-3.53150E-06 2.64698E-23
 -1       282 6.39658E-05-4.27495E-06-1.32349E-23
 -1       283 6.26764E-05-4.40744E-06 2.64698E-23
 -1       284 6.11073E-05-3.78342E-06-1.32349E-23
 -1       285 5.92029E-05-2.27221E-06 0.00000E+00
 -1       301 7.53724E-05 3.34853E-07 0.00000E+00
 -1       302 7.16070E-05 3.24901E-07 0.00000E+00
 -1       303 6.78644E-05 3.15321E-07 0.00000E+00
 -1       304 6.41616E-05 3.04477E-07 0.00000E+00
 -1       305 6.05159E-05 2.91850E-07-6.61744E-24
 -1       306 7.67279E-05 3.13204E-06 2.64698E-23
 -1       307 7.46747E-05 4.82888E-06 0.00000E+00
 -1       308 7.30310E-05 5.44652E-06-2.64698E-23
 -1       309 7.17770E-05 5.00523E-06 0.00000E+00
 -1       310 7.08635E-05 3.65477E-06 0.00000E+00
 -1       311 7.02206E-05 1.57574E-06 0.00000E+00
 -1       312 6.97500E-05-9.64989E-07 2.64698E-23
 -1       313 6.93454E-05-3.68395E-06-1.32349E-23
 -1       314 6.88937E-05-6.27628E-06-2.64698E-23
 -1       315 6.82832E-05-8.44181E-06 0.00000E+00
 -1       316 6.74202E-05-9.93120E-06 2.64698E-23
 -1       317 6.62215E-05-1.05196E-05-1.32349E-23
 -1       318 6.46402E-05-1.00884E-05 0.00000E+00
 -1       319 6.26524E-05-8.55359E-06-1.32349E-23
 -1       320 6.02638E-05-5.96651E-06 0.00000E+00
 -1       336 7.49546E-05-1.34577E-06-6.61744E-24
 -1       337 7.22949E-05-1.55384E-06 0.00000E+00
 -1       338 6.92196E-05-1.76299E-06 6.61744E-24
 -1       339 6.57339E-05-1.97314E-06 0.00000E+00
 -1       340 6.18432E-05-2.18475E-06 6.61744E-24
 -1       406 5.94191E-05 4.76950E-07 3.30872E-24
 -1       407 5.92414E-05 5.45041E-07-3.30872E-24
 -1       408 5.90399E-05 6.13087E-07 0.00000E+00
 -1       409 5.88148E-05 6.81002E-07 1.65436E-24
 -1       410 5.85661E-05 7.48653E-07 0.00000E+00
 -1       521 5.36828E-05 1.93774E-06 0.00000E+00
 -1       522 5.10798E-05 1.64507E-06-2.64698E-23
 -1       523 4.91660E-05-4.73115E-07-5.29396E-23
 -1       524 4.78307E-05-4.18295E-06 2.64698E-23
 -1       525 4.68940E-05-8.96669E-06-5.29396E-23
 -1       526 4.61364E-05-1.42414E-05-2.64698E-23
 -1       527 4.53126E-05-1.93381E-05 0.00000E+00
 -1       528 4.41789E-05-2.36004E-05 0.00000E+00
 -1       529 4.25439E-05-2.65156E-05-5.29396E-23
 -1       530 4.02472E-05-2.76595E-05 0.00000E+00
 -1       531 3.72404E-05-2.69130E-05 0.00000E+00
 -1       532 3.35234E-05-2.42797E-05-2.64698E-23
 -1       533 2.92153E-05-2.00885E-05 0.00000E+00
 -1       534 2.44900E-05-1.47635E-05-2.64698E-23
 -1       535 1.95668E-05-8.93417E-06 0.00000E+00
 -1       536 5.75380E-05 1.59903E-06 0.00000E+00
 -1       537 5.75311E-05 4.61514E-06 0.00000E+00
 -1       538 5.75260E-05 6.75005E-06 8.27181E-25
 -1       539 5.75234E-05 8.10117E-06 2.06795E-25
 -1       540 5.75215E-05 8.76852E-06 2.06795E-25
 -1       541 5.75200E-05 8.85212E-06-5.16988E-26
 -1       542 5.75185E-05 8.45383E-06 1.03398E-25
 -1       543 5.75168E-05 7.67552E-06 0.00000E+00
 -1       544 5.75149E-05 6.62019E-06-5.16988E-26
 -1       545 5.75129E-05 5.39085E-06 1.29247E-26
 -1       546 5.75107E-05 4.09107E-06-2.58494E-26
 -1       547 5.75086E-05 2.82441E-06 3.23117E-27
 -1       548 5.75067E-05 1.69429E-06 0.00000E+00
 -1       549 5.75053E-05 8.04162E-07-1.03398E-25
 -1       550 5.75040E-05 2.56800E-07 0.00000E+00
 -1       551 5.18858E-05-2.52124E-06 0.00000E+00
 -1       552 4.51046E-05-2.65136E-06 0.00000E+00
 -1       553 3.76041E-05-2.78642E-06-1.65436E-24
 -1       554 2.97834E-05-2.92572E-06-3.30872E-24
 -1       555 2.20417E-05-3.06663E-06 1.32349E-23
 -1       556 5.60673E-05 1.45785E-06 0.00000E+00
 -1       557 5.49315E-05 4.40205E-06 0.00000E+00
 -1       558 5.41085E-05 6.52092E-06 0.00000E+00
 -1       559 5.35633E-05 7.90497E-06 0.00000E+00
 -1       560 5.32609E-05 8.64451E-06 0.00000E+00
 -1       561 5.31666E-05 8.83033E-06 0.00000E+00
 -1       562 5.32461E-05 8.55331E-06 0.00000E+00
 -1       563 5.34649E-05 7.90440E-06 0.00000E+00
 -1       564 5.37889E-05 6.97462E-06 0.00000E+00
 -1       565 5.41839E-05 5.85501E-06 0.00000E+00
 -1       566 5.46159E-05 4.63665E-06-8.27181E-25
 -1       567 5.50507E-05 3.41065E-06 0.00000E+00
 -1       568 5.54543E-05 2.26806E-06 0.00000E+00
 -1       569 5.57928E-05 1.29986E-06 0.00000E+00
 -1       570 5.60319E-05 5.97066E-07 0.00000E+00
 -1       571 5.75518E-05 2.28020E-07 8.27181E-25
 -1       572 5.76008E-05 2.68402E-07-2.06795E-25
 -1       573 5.76501E-05 2.81876E-07 8.27181E-25
 -1       574 5.76996E-05 2.74565E-07 8.27181E-25
 -1       575 5.77491E-05 2.52615E-07-8.27181E-25
 -1       576 5.77987E-05 2.22218E-07 0.00000E+00
 -1       577 5.78482E-05 1.89566E-07 0.00000E+00
 -1       578 5.78978E-05 1.60858E-07 8.27181E-25
 -1       579 5.79473E-05 1.42293E-07-1.65436E-24
 -1       580 5.79969E-05 1.40070E-07-3.30872E-24
 -1       581 5.80465E-05 1.60387E-07 0.00000E+00
 -1       582 5.80960E-05 2.09436E-07-3.30872E-24
 -1       583 5.81456E-05 2.93402E-07 0.00000E+00
 -1       584 5.81951E-05 4.18408E-07 0.00000E+00
 -1       585 5.82446E-05 5.90540E-07-3.30872E-24
 -1       586 5.72598E-05 1.71510E-07 0.00000E+00
 -1       587 5.69946E-05 1.87685E-07 2.06795E-25
 -1       588 5.67290E-05 2.03682E-07-4.13590E-25
 -1       589 5.64840E-05 2.19425E-07 0.00000E+00
 -1       590 5.62803E-05 2.34741E-07 0.00000E+00
 -1       591 5.74535E-05 2.53114E-07 0.00000E+00
 -1       592 5.74113E-05 3.24166E-07 0.00000E+00
 -1       593 5.73773E-05 3.73227E-07 0.00000E+00
 -1       594 5.73495E-05 4.04942E-07 2.06795E-25
 -1       595 5.73265E-05 4.24021E-07-4.13590E-25
 -1       596 5.73063E-05 4.35138E-07-2.06795E-25
 -1       597 5.72874E-05 4.42963E-07 0.00000E+00
 -1       598 5.72680E-05 4.52164E-07 2.06795E-25
 -1       599 5.72463E-05 4.67409E-07 0.00000E+00
 -1       600 5.72206E-05 4.93365E-07 0.00000E+00
 -1       601 5.71892E-05 5.34698E-07 0.00000E+00
 -1       602 5.71502E-05 5.96082E-07 2.06795E-25
 -1       603 5.71021E-05 6.82188E-07 5.16988E-26
 -1       604 5.70431E-05 7.97725E-07 5.16988E-26
 -1       605 5.69716E-05 9.47340E-07-4.13590E-25
 -1       606 5.83032E-05 1.15311E-06-1.65436E-24
 -1       607 5.83106E-05 1.56163E-06 0.00000E+00
 -1       608 5.83176E-05 2.03683E-06 0.00000E+00
 -1       609 5.83243E-05 2.57400E-06 0.00000E+00
 -1       610 5.83309E-05 3.16845E-06 0.00000E+00
 -1       611 5.83374E-05 3.81540E-06 0.00000E+00
 -1       612 5.83439E-05 4.51005E-06 0.00000E+00
 -1       613 5.83504E-05 5.24764E-06 8.27181E-25
 -1       614 5.83568E-05 6.02337E-06 0.00000E+00
 -1       615 5.83632E-05 6.83246E-06 0.00000E+00
 -1       616 5.83696E-05 7.67012E-06 0.00000E+00
 -1       617 5.83759E-05 8.53157E-06 0.00000E+00
 -1       618 5.83822E-05 9.41200E-06 0.00000E+00
 -1       619 5.83885E-05 1.03067E-05-2.06795E-25
 -1       620 5.83947E-05 1.12107E-05 0.00000E+00
 -1       621 5.80256E-05 8.68915E-07 0.00000E+00
 -1       622 5.77763E-05 9.22679E-07 8.27181E-25
 -1       623 5.75418E-05 9.76437E-07 0.00000E+00
 -1       624 5.73183E-05 1.03011E-06 0.00000E+00
 -1       625 5.71015E-05 1.08369E-06 1.65436E-24
 -1       626 5.82245E-05 1.16991E-06 0.00000E+00
 -1       627 5.81335E-05 1.58306E-06-1.65436E-24
 -1       628 5.80226E-05 2.04944E-06 0.00000E+00
 -1       629 5.78939E-05 2.56324E-06 1.65436E-24
 -1       630 5.77496E-05 3.11866E-06 0.00000E+00
 -1       631 5.75919E-05 3.70985E-06 0.00000E+00
 -1       632 5.74230E-05 4.33095E-06 0.00000E+00
 -1       633 5.72450E-05 4.97615E-06 0.00000E+00
 -1       634 5.70602E-05 5.63957E-06 0.00000E+00
 -1       635 5.68707E-05 6.31536E-06 0.00000E+00
 -1       636 5.66787E-05 6.99770E-06-1.65436E-24
 -1       637 5.64865E-05 7.68074E-06 0.00000E+00
 -1       638 5.62962E-05 8.35860E-06 1.65436E-24
 -1       639 5.61098E-05 9.02546E-06 0.00000E+00
 -1       640 5.59296E-05 9.67545E-06-1.65436E-24
 -1       656 5.76453E-05 1.18239E-05 3.30872E-24
 -1       657 5.71558E-05 1.15164E-05-3.30872E-24
 -1       658 5.68300E-05 1.12100E-05 0.00000E+00
 -1       659 5.65637E-05 1.09038E-05 3.30872E-24
 -1       660 5.62435E-05 1.05966E-05 0.00000E+00
 -1       661 5.81214E-05 1.30099E-05 0.00000E+00
 -1       662 5.78586E-05 1.38625E-05 0.00000E+00
 -1       663 5.76096E-05 1.46780E-05 1.65436E-24
 -1       664 5.73742E-05 1.54583E-05 8.27181E-25
 -1       665 5.71516E-05 1.62048E-05-1.65436E-24
 -1       666 5.69412E-05 1.69190E-05-8.27181E-25
 -1       667 5.67424E-05 1.76023E-05-1.65436E-24
 -1       668 5.65546E-05 1.82562E-05-8.27181E-25
 -1       669 5.63775E-05 1.88818E-05 0.00000E+00
 -1       670 5.62104E-05 1.94806E-05 8.27181E-25
 -1       671 5.60530E-05 2.00537E-05 1.65436E-24
 -1       672 5.59046E-05 2.06023E-05 0.00000E+00
 -1       673 5.57650E-05 2.11276E-05-1.65436E-24
 -1       674 5.56332E-05 2.16304E-05 0.00000E+00
 -1       675 5.55095E-05 2.21122E-05 4.13590E-25
 -1       676 5.75632E-05 2.28633E-05-1.65436E-24
 -1       677 5.71277E-05 2.28048E-05-8.27181E-25
 -1       678 5.66925E-05 2.27463E-05 1.65436E-24
 -1       679 5.62577E-05 2.26879E-05 0.00000E+00
 -1       680 5.58236E-05 2.26296E-05 0.00000E+00
 -1       771 1.18448E-05 2.31244E-06 0.00000E+00
 -1       772 9.28999E-06 6.84242E-06-1.32349E-23
 -1       773 7.09527E-06 1.04226E-05-2.64698E-23
 -1       774 5.23638E-06 1.31142E-05 1.32349E-23
 -1       775 3.68957E-06 1.49793E-05 2.64698E-23
 -1       776 2.43013E-06 1.60818E-05 0.00000E+00
 -1       777 1.43307E-06 1.64868E-05 2.64698E-23
 -1       778 6.72945E-07 1.62607E-05 1.32349E-23
 -1       779 1.24155E-07 1.54709E-05 0.00000E+00
 -1       780-2.39293E-07 1.41858E-05-1.32349E-23
 -1       781-4.43474E-07 1.24747E-05 2.64698E-23
 -1       782-5.14752E-07 1.04077E-05 1.32349E-23
 -1       783-4.79539E-07 8.05532E-06 0.00000E+00
 -1       784-3.64392E-07 5.48880E-06-1.32349E-23
 -1       785-1.95972E-07 2.77965E-06-2.64698E-23
 -1       786 5.61825E-05 2.49487E-07 0.00000E+00
 -1       787 5.62292E-05 2.52392E-07 4.13590E-25
 -1       788 5.62757E-05 2.57736E-07 0.00000E+00
 -1       789 5.63228E-05 2.65906E-07 8.27181E-25
 -1       790 5.63698E-05 2.77595E-07 0.00000E+00
 -1       791 5.64170E-05 2.93501E-07-8.27181E-25
 -1       792 5.64641E-05 3.14779E-07 0.00000E+00
 -1       793 5.65113E-05 3.42593E-07 0.00000E+00
 -1       794 5.65585E-05 3.78814E-07 1.65436E-24
 -1       795 5.66056E-05 4.25328E-07-8.27181E-25
 -1       796 5.66528E-05 4.85132E-07 0.00000E+00
 -1       797 5.67000E-05 5.61251E-07 0.00000E+00
 -1       798 5.67471E-05 6.58467E-07 1.65436E-24
 -1       799 5.67941E-05 7.81608E-07 0.00000E+00
 -1       800 5.68412E-05 9.38295E-07 0.00000E+00
 -1       801 5.23449E-05 2.60389E-07-4.13590E-25
 -1       802 4.10633E-05 2.18492E-07-4.13590E-25
 -1       803 2.62421E-05 1.34349E-07 0.00000E+00
 -1       804 1.18260E-05 5.05243E-08-3.30872E-24
 -1       805 1.76085E-06 1.67035E-08 1.32349E-23
 -1       806 5.60806E-05 2.17235E-07 0.00000E+00
 -1       807 5.60205E-05 1.85774E-07-8.27181E-25
 -1       808 5.59585E-05 1.57924E-07 1.65436E-24
 -1       809 5.58938E-05 1.36798E-07 0.00000E+00
 -1       810 5.58253E-05 1.25505E-07 0.00000E+00
 -1       811 5.57520E-05 1.27109E-07 8.27181E-25
 -1       812 5.56726E-05 1.44669E-07 0.00000E+00
 -1       813 5.55861E-05 1.81237E-07 0.00000E+00
 -1       814 5.54913E-05 2.39865E-07 0.00000E+00
 -1       815 5.53871E-05 3.23601E-07 8.27181E-25
 -1       816 5.52724E-05 4.35491E-07 8.27181E-25
 -1       817 5.51460E-05 5.78582E-07 4.13590E-25
 -1       818 5.50067E-05 7.55918E-07 0.00000E+00
 -1       819 5.48536E-05 9.70532E-07-8.27181E-25
 -1       820 5.46855E-05 1.22546E-06 8.27181E-25
 -1       821 5.68209E-05 1.36614E-06 0.00000E+00
 -1       822 5.67502E-05 1.61915E-06-8.27181E-25
 -1       823 5.66798E-05 1.91406E-06-1.65436E-24
 -1       824 5.66085E-05 2.26955E-06 0.00000E+00
 -1       825 5.65373E-05 2.69523E-06 1.65436E-24
 -1       826 5.64658E-05 3.20047E-06 0.00000E+00
 -1       827 5.63943E-05 3.78275E-06-1.65436E-24
 -1       828 5.63227E-05 4.43930E-06-8.27181E-25
 -1       829 5.62510E-05 5.15622E-06 1.65436E-24
 -1       830 5.61794E-05 5.91942E-06 0.00000E+00
 -1       831 5.61077E-05 6.70790E-06 0.00000E+00
 -1       832 5.60362E-05 7.50056E-06 0.00000E+00
 -1       833 5.59648E-05 8.27566E-06 1.65436E-24
 -1       834 5.58942E-05 9.01156E-06 0.00000E+00
 -1       835 5.58233E-05 9.69244E-06 0.00000E+00
 -1       836 5.65981E-05 1.20072E-06 0.00000E+00
 -1       837 5.62233E-05 1.26664E-06-8.27181E-25
 -1       838 5.57947E-05 1.33244E-06-1.65436E-24
 -1       839 5.53438E-05 1.39783E-06 0.00000E+00
 -1       840 5.49025E-05 1.46311E-06 0.00000E+00
 -1       856 5.57363E-05 1.09191E-05 0.00000E+00
 -1       857 5.57137E-05 1.16134E-05 1.03398E-25
 -1       858 5.56911E-05 1.23732E-05-4.13590E-25
 -1       859 5.56681E-05 1.31862E-05-2.06795E-25
 -1       860 5.56450E-05 1.40401E-05-8.27181E-25
 -1       861 5.56218E-05 1.49224E-05 0.00000E+00
 -1       862 5.55986E-05 1.58207E-05-8.27181E-25
 -1       863 5.55754E-05 1.67225E-05 4.13590E-25
 -1       864 5.55522E-05 1.76153E-05 8.27181E-25
 -1       865 5.55289E-05 1.84868E-05-4.13590E-25
 -1       866 5.55058E-05 1.93244E-05 0.00000E+00
 -1       867 5.54826E-05 2.01158E-05-4.13590E-25
 -1       868 5.54595E-05 2.08486E-05 0.00000E+00
 -1       869 5.54364E-05 2.15105E-05 4.13590E-25
 -1       870 5.54133E-05 2.20892E-05 0.00000E+00
 -1       871 5.52864E-05 1.03021E-05 0.00000E+00
 -1       872 5.48908E-05 1.02999E-05 0.00000E+00
 -1       873 5.45378E-05 1.02975E-05 2.06795E-25
 -1       874 5.41949E-05 1.02947E-05-5.16988E-26
 -1       875 5.38295E-05 1.02915E-05-6.20385E-25
 -1       876 5.55934E-05 1.09255E-05 0.00000E+00
 -1       877 5.54176E-05 1.15862E-05-8.27181E-25
 -1       878 5.52293E-05 1.22803E-05 1.65436E-24
 -1       879 5.50304E-05 1.30033E-05 0.00000E+00
 -1       880 5.48222E-05 1.37511E-05 0.00000E+00
 -1       881 5.46063E-05 1.45193E-05 8.27181E-25
 -1       882 5.43843E-05 1.53038E-05-1.65436E-24
 -1       883 5.41579E-05 1.61001E-05 0.00000E+00
 -1       884 5.39286E-05 1.69042E-05-1.65436E-24
 -1       885 5.36979E-05 1.77116E-05 8.27181E-25
 -1       886 5.34676E-05 1.85183E-05 0.00000E+00
 -1       887 5.32391E-05 1.93198E-05 0.00000E+00
 -1       888 5.30140E-05 2.01120E-05 1.65436E-24
 -1       889 5.27937E-05 2.08904E-05 8.27181E-25
 -1       890 5.25798E-05 2.16509E-05 8.27181E-25
 -1       891 5.49718E-05 2.25417E-05-8.27181E-25
 -1       892 5.45400E-05 2.25108E-05 0.00000E+00
 -1       893 5.40794E-05 2.24798E-05 4.13590E-25
 -1       894 5.35746E-05 2.24490E-05 0.00000E+00
 -1       895 5.30101E-05 2.24181E-05 2.06795E-25
 -1       956 5.44351E-05 1.91025E-06 0.00000E+00
 -1       957 5.43670E-05 2.34067E-06-8.27181E-25
 -1       958 5.42987E-05 2.81036E-06 0.00000E+00
 -1       959 5.42303E-05 3.31450E-06 8.27181E-25
 -1       960 5.41618E-05 3.84828E-06-1.65436E-24
 -1       961 5.40932E-05 4.40684E-06 0.00000E+00
 -1       962 5.40247E-05 4.98531E-06 1.65436E-24
 -1       963 5.39561E-05 5.57885E-06 8.27181E-25
 -1       964 5.38875E-05 6.18259E-06 0.00000E+00
 -1       965 5.38190E-05 6.79166E-06 8.27181E-25
 -1       966 5.37504E-05 7.40122E-06-1.65436E-24
 -1       967 5.36819E-05 8.00640E-06 0.00000E+00
 -1       968 5.36134E-05 8.60233E-06 1.65436E-24
 -1       969 5.35450E-05 9.18418E-06 8.27181E-25
 -1       970 5.34768E-05 9.74710E-06 0.00000E+00
 -1       971 5.33455E-05 1.08404E-05-1.65436E-24
 -1       972 5.32806E-05 1.14523E-05 0.00000E+00
 -1       973 5.32155E-05 1.21155E-05 1.65436E-24
 -1       974 5.31503E-05 1.28235E-05-8.27181E-25
 -1       975 5.30850E-05 1.35696E-05 1.65436E-24
 -1       976 5.30197E-05 1.43471E-05 0.00000E+00
 -1       977 5.29544E-05 1.51495E-05 1.65436E-24
 -1       978 5.28890E-05 1.59701E-05 0.00000E+00
 -1       979 5.28237E-05 1.68021E-05-1.65436E-24
 -1       980 5.27583E-05 1.76389E-05 8.27181E-25
 -1       981 5.26930E-05 1.84739E-05 0.00000E+00
 -1       982 5.26277E-05 1.93004E-05 0.00000E+00
 -1       983 5.25626E-05 2.01117E-05-1.65436E-24
 -1       984 5.24977E-05 2.09012E-05 0.00000E+00
 -1       985 5.24331E-05 2.16622E-05 0.00000E+00
 -3
    1PSTEP                         6           3           1          
  100CL  103 3.75000E-01         409                     0    3           1
 -4  STRESS      6    1
 -5  SXX         1    4    1    1
 -5  SYY         1    4    2    2
 -5  SZZ         1    4    3    3
 -5  SXY         1    4    1    2
 -5  SYZ         1    4    2    3
 -5  SZX         1    4    3    1
 -1         1-1.37880E+06-6.26660E+05-2.87701E+05-8.65633E+05 2.83762E-10-3.49246E-09
 -1         2 2.06242E+03 1.89368E+05 6.74471E+03 4.55938E+02-1.14198E-10 2.25509E-09
 -1         3-4.63389E+01-5.40387E+05 1.25423E+02-1.47441E+02-1.04967E-10-2.76395E-09
 -1         5-4.49256E+00 1.94980E+05 5.10935E+00 2.16833E-02 7.78384E-11 3.69073E-09
 -1         8-6.48852E+05-2.75238E+05-2.88637E+04-4.65984E+05 1.65528E-10-3.61979E-09
 -1         9-1.10645E+06-2.96825E+05-1.20260E+05-3.65999E+05 2.19588E-09-5.82077E-12
 -1        10-4.19442E+02-5.62970E+05-7.25049E+02-9.89741E+02-2.58387E-09-1.71421E-08
 -1        12-2.39697E+00 1.94991E+05 1.65684E+02 4.26885E-01 1.39465E-10 2.52408E-09
 -1        15 1.62980E+03 8.95665E+02 5.26831E+03 2.80612E+00-2.26265E-10-8.57305E-08
 -1        16-2.96179E+06-9.51944E+05-4.60653E+05-9.66636E+05 8.55653E-09-3.11411E-09
 -1        17-6.44096E+05-3.96463E+05-1.23912E+05-3.73236E+05-4.53365E-09-3.69619E-10
 -1        18 2.34875E+04 2.25094E+03-9.09426E+03-4.58619E+04 5.84805E-10-3.80373E-09
 -1        19 6.10633E+04 7.28642E+04-3.37318E+02 1.19561E+04-4.53292E-10-1.72440E-10
 -1        20-2.52766E+04-2.88573E+05-6.36324E+04 2.14269E+04 3.28540E-09-1.11262E-09
 -1        21-2.73141E+01-1.67441E+05-5.40941E+02-5.00339E+01-6.94881E-09-4.22735E-09
 -1        24-2.60708E+06-8.93292E+05-3.72133E+05-1.08594E+06-1.16367E-08-5.25809E-09
 -1        25 2.49485E+04 5.06621E+03 1.55845E+04-8.28981E+04 3.15777E-10 1.19053E-09
 -1        26-1.39974E+04 4.98289E+04-9.83835E+03-7.19267E+03 1.20435E-09 4.94393E-09
 -1        27-4.62629E+04-1.58354E+05-5.94155E+04 3.56844E+04 4.82722E-09-6.27976E-09
 -1        28 1.29518E+04-4.62390E+04 9.45392E+03 1.48529E+04 2.05503E-09 1.86963E-09
 -1        32-6.12487E+05-6.95093E+04 2.71841E+05-4.17040E+05-1.21363E-08 1.05071E-08
 -1        33-9.05238E+04 4.65968E+04 1.65153E+04-2.71391E+04 8.88823E-10 2.64239E-09
 -1        34-1.17595E+05-1.16977E+04 2.76253E+02 3.61337E+04 2.71317E-09-2.54173E-09
 -1        35-1.31739E+04-1.83847E+04-7.18467E+02 2.91645E+04 3.21273E-09 7.82165E-10
 -1        51 1.11297E+04-3.04349E+05 2.83457E+04-7.66651E+05-2.47383E-10-1.33005E-08
 -1        52 6.54844E+03-3.02937E+05 1.90967E+04-8.94167E+05 2.98314E-10-1.85537E-08
 -1        53 4.73833E+03-3.11799E+05 1.69079E+04-7.64018E+05 4.65661E-10-1.01863E-08
 -1        54 1.42635E+04-3.09934E+05 2.77808E+04-8.96940E+05-6.54836E-11-4.03088E-09
 -1        55 2.98146E+04-3.20356E+05 5.01136E+04-7.63635E+05 4.36557E-10-4.67480E-09
 -1        56-2.63704E+06-2.94801E+05-2.09192E+05-1.01747E+06-2.91038E-10-4.58385E-09
 -1        57-2.72319E+06-4.86477E+05-1.41662E+05-1.00720E+06 3.54703E-10-2.05546E-09
 -1        58-2.67967E+06-3.62011E+05-4.92028E+04-1.00356E+06 4.54747E-11-5.47516E-10
 -1        59-2.67380E+06-4.07914E+05-2.95748E+04-1.02376E+06-2.72394E-10-9.07812E-09
 -1        60-2.68606E+06-3.71494E+05-1.14964E+04-1.00157E+06 1.08002E-10-1.00185E-08
 -1        61-2.66736E+06-3.95839E+05-6.57996E+03-1.02490E+06-2.31921E-10-5.82486E-09
 -1        62-2.68601E+06-3.73849E+05-3.15802E+03-1.00249E+06 2.07933E-09-1.07292E-09
 -1        63-2.66937E+06-3.91367E+05-2.60266E+03-1.02153E+06-2.46291E-09 6.05155E-09
 -1        64-2.68398E+06-3.75978E+05-3.00036E+03-1.00490E+06 7.78527E-10-7.72843E-10
 -1        65-2.67499E+06-3.87683E+05-6.01513E+03-1.01561E+06-1.08412E-09 3.36729E-09
 -1        66-2.68034E+06-3.77601E+05-1.05525E+04-1.00836E+06-2.82455E-09 2.35013E-09
 -1        67-2.68734E+06-3.92128E+05-2.69376E+04-1.00704E+06 1.79941E-09 5.54019E-09
 -1        68-2.67168E+06-3.71772E+05-4.49241E+04-1.01338E+06 9.77252E-10 1.74077E-09
 -1        69-2.73682E+06-4.59504E+05-1.29186E+05-9.87174E+05 2.87400E-10 5.77711E-09
 -1        70-2.63128E+06-3.11885E+05-1.90831E+05-1.02767E+06-1.92449E-09-5.87170E-09
 -1        86-1.03538E+03 1.87221E+05 7.21196E+03-2.27986E+02 9.49967E-10-7.52607E-11
 -1        87 6.86632E+03 1.91718E+05 1.50659E+04 9.36588E+02 1.59230E-09 1.26164E-08
 -1        88-5.82578E+03 1.84873E+05 2.30462E+04-7.08644E+02 2.33467E-09-1.75891E-09
 -1        89 4.34101E+04 2.08759E+05 6.21777E+04 2.02110E+03 3.56886E-09-7.34417E-11
 -1        90-3.74608E+04 1.70192E+05 8.78108E+04-1.31215E+03 4.02724E-09 6.84054E-10
 -1       121-7.73449E+01-5.40621E+05 1.12629E+02 7.36534E+01 3.23006E-10-4.80213E-09
 -1       122-5.00894E+00-5.40360E+05 2.73133E+02-2.94945E+02-1.04786E-09-6.37056E-09
 -1       123-1.06888E+02-5.40650E+05 4.35584E+02 2.20895E+02 8.57938E-10-4.20187E-10
 -1       124 4.98817E+02-5.40053E+05 1.14375E+03-6.83951E+02-1.85776E-09-7.51879E-09
 -1       125-4.33413E+02-5.40935E+05 1.74738E+03 4.62578E+02 1.24555E-09 1.92085E-09
 -1       191-4.88548E+00 1.94997E+05 6.06684E+00-1.13103E-02 1.26286E-10-3.47427E-10
 -1       192-4.96221E+00 1.94981E+05 1.08204E+01 4.29951E-01 1.75560E-10-1.06024E-09
 -1       193-6.13423E+00 1.94997E+05 2.00842E+01-4.21814E-01 2.14659E-10-8.41283E-11
 -1       194-6.47361E+00 1.94982E+05 4.09343E+01 1.12842E+00 1.11426E-10-2.08729E-09
 -1       195-8.53425E+00 1.94995E+05 8.00313E+01-7.14938E-01 3.38652E-10 1.66938E-09
 -1       251 8.23226E+04-3.33145E+04 7.77312E+04 2.89925E+03-1.08912E-10-4.72937E-09
 -1       252 1.18049E+05 3.85354E+04 5.52037E+04-1.07345E+04 2.60144E-10-1.14478E-08
 -1       253 9.57517E+04-5.16059E+03 2.01057E+04 2.34804E+03-6.14079E-10-3.91083E-11
 -1       254 1.02175E+05 5.95761E+03 1.27460E+04-9.87518E+03-3.79970E-10-3.38969E-09
 -1       255 9.81206E+04-7.97729E+02 5.19170E+03 2.04003E+03-7.78471E-11-5.02951E-10
 -1       256 9.93095E+04 9.47848E+02 3.16898E+03-9.41662E+03 6.17135E-10 4.55020E-09
 -1       257 9.85796E+04-1.39438E+02 1.62595E+03 1.88947E+03 2.44739E-10 3.57483E-09
 -1       258 9.88354E+04 2.99286E+02 1.44179E+03-9.26033E+03-1.01626E-09 5.44362E-09
 -1       259 9.85822E+04-1.42034E+02 1.65145E+03 1.88376E+03 1.64405E-10-4.85238E-09
 -1       260 9.93027E+04 9.71793E+02 3.23660E+03-9.39454E+03-3.06557E-10-5.20606E-09
 -1       261 9.81230E+04-8.17722E+02 5.32276E+03 2.02366E+03 1.29697E-09-2.39493E-09
 -1       262 1.02209E+05 6.11095E+03 1.30576E+04-9.82893E+03-6.56257E-11-5.68775E-09
 -1       263 9.57115E+04-5.29071E+03 2.06225E+04 2.31816E+03-2.73587E-10-9.09495E-10
 -1       264 1.18436E+05 3.95137E+04 5.65850E+04-1.06595E+04-1.85571E-09 9.18953E-09
 -1       265 8.19696E+04-3.41543E+04 7.97197E+04 2.85413E+03-1.28500E-09 3.71074E-09
 -1       266-2.95043E+04-1.37953E+04 6.92300E+04-6.00457E+01-4.18368E-10-1.33199E-07
 -1       267 3.42041E+04 1.60801E+04 4.89285E+04 6.92765E+01-8.99490E-10-2.68636E-07
 -1       268-4.58669E+03-2.27731E+03 1.81866E+04-8.82728E+00-7.14863E-10-2.15624E-07
 -1       269 5.41556E+03 2.72555E+03 1.18209E+04 1.02822E+01-5.68889E-10-1.59070E-07
 -1       270-8.12882E+02-4.47825E+02 5.70611E+03-1.39538E+00-3.76303E-10-1.13691E-07
 -1       271-2.88500E+06-3.60110E+05-2.21811E+05-1.12400E+06 1.74623E-10-1.76078E-09
 -1       272-2.94880E+06-5.37530E+05-1.42584E+05-1.13988E+06-1.92586E-10 2.71575E-09
 -1       273-2.92761E+06-4.14453E+05-5.23976E+04-1.11314E+06 1.12595E-09-8.22183E-10
 -1       274-2.89886E+06-4.71107E+05-2.93134E+04-1.15677E+06 2.25373E-09 6.18456E-09
 -1       275-2.93446E+06-4.19047E+05-1.21898E+04-1.11021E+06-7.93079E-10 9.33142E-10
 -1       276-2.89072E+06-4.65819E+05-6.47112E+03-1.16155E+06-1.39335E-09 2.91880E-09
 -1       277-2.93613E+06-4.18695E+05-3.16775E+03-1.10898E+06-7.35554E-10 3.38798E-09
 -1       278-2.88911E+06-4.66053E+05-2.30292E+03-1.16307E+06 4.96016E-10-1.91358E-09
 -1       279-2.93627E+06-4.18617E+05-2.47277E+03-1.10887E+06-1.29558E-09-3.59933E-10
 -1       280-2.89013E+06-4.65862E+05-4.53434E+03-1.16207E+06-8.24230E-10 9.34733E-10
 -1       281-2.93498E+06-4.19016E+05-8.30486E+03-1.10986E+06 1.56888E-10 3.43152E-09
 -1       282-2.89612E+06-4.68845E+05-1.98189E+04-1.15809E+06-1.16461E-09-2.31830E-09
 -1       283-2.92991E+06-4.16414E+05-3.54116E+04-1.11234E+06-3.15595E-10-3.59069E-09
 -1       284-2.93082E+06-5.12503E+05-9.62357E+04-1.14520E+06-7.24981E-10 1.12050E-09
 -1       285-2.90040E+06-3.80549E+05-1.49833E+05-1.12052E+06 7.63066E-10-1.46974E-09
 -1       301 1.10786E+04-6.48353E+03 8.63126E+04-2.05481E+04-3.96540E-10-4.69703E-09
 -1       302 1.19099E+04 1.54107E+04 6.23801E+04-3.02660E+04 1.41927E-09 1.12880E-09
 -1       303 5.37406E+02 1.26090E+03 5.75090E+04-2.06075E+04-7.37600E-10 3.34967E-09
 -1       304 2.25049E+04 2.51896E+04 9.68303E+04-3.01724E+04 7.56700E-10 6.09089E-09
 -1       305 2.23012E+04-1.61922E+04 1.62560E+05-2.05760E+04-8.29459E-10 5.26416E-09
 -1       306-3.05715E+06-3.53943E+05-2.32340E+05-1.19499E+06 2.21553E-09-1.74623E-10
 -1       307-3.17703E+06-5.50011E+05-1.58394E+05-1.15430E+06 2.03772E-09 2.71939E-09
 -1       308-3.11129E+06-4.24826E+05-5.46801E+04-1.17167E+06 3.99268E-10 3.92902E-10
 -1       309-3.10920E+06-4.72739E+05-3.30762E+04-1.18771E+06 2.06455E-10-9.09495E-11
 -1       310-3.12468E+06-4.29792E+05-1.28367E+04-1.16208E+06-2.01487E-09-4.95675E-10
 -1       311-3.09175E+06-4.69157E+05-7.42435E+03-1.20163E+06 4.35443E-09-2.51896E-09
 -1       312-3.12886E+06-4.28086E+05-3.63351E+03-1.15794E+06 2.53578E-10-1.16677E-09
 -1       313-3.08850E+06-4.69905E+05-3.27701E+03-1.20475E+06-8.16797E-10 4.00198E-09
 -1       314-3.12799E+06-4.28980E+05-3.95752E+03-1.15901E+06-2.43813E-09-2.78351E-09
 -1       315-3.09509E+06-4.66104E+05-8.30708E+03-1.19761E+06 5.07043E-11-3.55237E-09
 -1       316-3.12214E+06-4.32008E+05-1.45672E+04-1.16497E+06 3.52662E-09 1.91631E-09
 -1       317-3.11608E+06-4.69172E+05-3.75535E+04-1.18071E+06 1.59446E-09-8.49013E-10
 -1       318-3.10691E+06-4.26252E+05-6.21091E+04-1.17572E+06-3.28328E-09 8.55289E-09
 -1       319-3.19216E+06-5.58290E+05-1.80016E+05-1.14443E+06-1.59434E-09-2.68301E-09
 -1       320-3.04648E+06-3.44434E+05-2.63907E+05-1.20076E+06 6.11908E-09 2.02272E-09
 -1       336 4.08785E+02-5.85256E+05-3.13385E+03 5.26300E+02-5.12637E-09 2.94949E-09
 -1       337-1.13456E+03-5.86087E+05-3.43657E+03-1.38140E+03-9.53310E-09-2.01453E-10
 -1       338 2.68820E+02-5.85345E+05-4.34880E+03 8.52589E+02-6.66000E-09-3.40697E-09
 -1       339-4.49857E+03-5.88158E+05-9.51924E+03-2.02694E+03-1.23664E-08-1.64528E-09
 -1       340 3.04849E+03-5.83218E+05-1.46791E+04 1.16779E+03-8.38190E-09 8.40646E-09
 -1       406 1.02176E+01 1.94988E+05 3.27065E+02 2.75742E-01 4.97124E-10 1.83127E-09
 -1       407 1.11659E+02 1.95048E+05 6.95232E+02-7.64003E+00 1.18519E-10-3.71642E-09
 -1       408 3.55444E+02 1.94938E+05 1.38848E+03 7.47087E+00 4.96243E-10-5.84350E-10
 -1       409 1.49917E+03 1.95492E+05 3.12603E+03-6.96190E+01-2.22826E-11-1.06411E-10
 -1       410 4.31167E+03 1.94543E+05 6.38167E+03 6.41834E+01 5.06589E-10-1.14596E-09
 -1       521-5.86013E+06-6.75878E+05-4.39091E+05-2.27815E+06 4.29281E-09-6.60657E-09
 -1       522-6.06130E+06-1.06232E+06-2.97986E+05-2.22765E+06-5.59339E-10-4.67844E-09
 -1       523-5.96977E+06-7.99287E+05-1.03263E+05-2.22484E+06 1.24692E-09-2.89583E-09
 -1       524-5.92558E+06-9.27710E+05-6.20817E+04-2.30196E+06 4.54384E-09-9.30049E-09
 -1       525-5.99546E+06-8.06733E+05-2.40258E+04-2.20532E+06 4.89308E-10-1.49703E-09
 -1       526-5.90020E+06-9.14191E+05-1.38289E+04-2.31968E+06-1.32422E-09 3.76963E-09
 -1       527-5.99530E+06-8.12064E+05-6.71690E+03-2.20750E+06 2.63753E-09 4.48527E-09
 -1       528-5.91575E+06-8.91940E+05-5.43144E+03-2.29715E+06-1.62458E-09 8.30926E-09
 -1       529-5.97920E+06-8.29401E+05-7.03514E+03-2.22736E+06 1.27329E-11 2.23417E-09
 -1       530-5.95701E+06-8.54050E+05-1.32586E+04-2.24886E+06 1.57570E-10 2.10844E-09
 -1       531-5.95342E+06-8.50466E+05-2.43449E+04-2.25530E+06-5.75346E-09 9.87711E-10
 -1       532-6.01723E+06-8.34613E+05-6.15277E+04-2.19519E+06-8.76241E-10-9.04856E-09
 -1       533-5.91968E+06-8.48981E+05-1.02448E+05-2.28127E+06 2.97587E-09-7.12316E-09
 -1       534-6.14644E+06-9.78184E+05-2.96588E+05-2.13526E+06-9.74978E-10 6.59929E-09
 -1       535-5.82625E+06-7.09489E+05-4.35837E+05-2.31497E+06-9.33505E-09 6.81030E-09
 -1       536-1.18467E+04-1.62449E+04 3.73881E+04 3.70152E+02-1.07514E-09 8.26731E-09
 -1       537 5.67141E+03 1.87944E+04 2.66751E+04-1.45667E+03-5.91921E-09 8.56426E-09
 -1       538-5.40425E+03-2.54582E+03 9.63863E+03 3.42114E+02 2.09070E-10 9.69840E-09
 -1       539-1.94720E+03 2.93756E+03 6.17489E+03-1.43727E+03 3.12517E-09 4.88308E-09
 -1       540-4.23778E+03-3.95992E+02 2.43104E+03 3.50750E+02-2.10932E-10 2.22838E-09
 -1       541-3.38843E+03 4.52419E+02 1.46241E+03-1.45426E+03-2.63285E-10 5.59740E-09
 -1       542-3.96893E+03-5.84167E+01 5.82094E+02 3.59085E+02 2.13035E-10 8.35598E-11
 -1       543-3.75094E+03 5.58339E+01 2.97275E+02-1.46752E+03-7.66789E-10-1.96954E-09
 -1       544-3.87910E+03 3.07448E+00 4.35577E+01 3.64013E+02-2.51958E-10-1.51036E-09
 -1       545-3.89262E+03-7.15649E+01-1.69072E+02-1.47375E+03-6.67060E-10 3.38329E-09
 -1       546-3.82902E+03 7.01722E+01-3.97750E+02 3.65321E+02 4.08313E-10-7.25711E-09
 -1       547-4.09901E+03-5.18174E+02-1.05305E+03-1.47268E+03-1.24939E-09-2.32757E-09
 -1       548-3.67237E+03 4.49117E+02-1.71213E+03 3.62935E+02-1.73893E-09-5.82872E-10
 -1       549-5.29157E+03-3.30934E+03-4.66240E+03-1.46294E+03-1.26685E-09-3.82499E-10
 -1       550-2.63395E+03 2.85740E+03-6.65224E+03 3.55581E+02 1.88138E-10-7.33507E-10
 -1       551 5.64999E+03-3.06403E+05 1.69539E+04-5.25482E+05-2.29484E-08-1.45519E-11
 -1       552 1.18757E+04-3.07097E+05 2.22753E+04-7.47832E+05-1.77461E-08 9.74978E-09
 -1       553 7.78034E+03-3.11156E+05 3.48013E+04-5.23777E+05-2.87619E-08 1.23000E-08
 -1       554 2.91468E+04-2.96218E+05 7.39915E+04-7.48553E+05-1.78916E-08 4.88001E-09
 -1       555 2.92362E+04-3.25289E+05 1.32980E+05-5.24460E+05-2.77287E-08-3.25235E-09
 -1       556 4.32583E+04-9.85417E+04 3.38609E+04-1.31104E+05-4.89672E-09-2.91038E-09
 -1       557 8.31832E+04-1.31969E+05 1.77416E+04-1.63839E+05-1.51340E-09 1.89220E-09
 -1       558 4.35238E+04-1.03285E+05 7.23791E+03-1.26997E+05-2.23372E-09 8.60746E-09
 -1       559 7.82411E+04-1.36740E+05 3.65293E+03-1.65913E+05 5.00950E-09-3.91447E-09
 -1       560 4.26485E+04-1.02690E+05 1.54365E+03-1.27519E+05 2.16824E-09 2.19097E-09
 -1       561 7.67699E+04-1.36430E+05 8.05529E+02-1.66836E+05-2.39379E-09 2.29784E-09
 -1       562 4.19220E+04-1.02192E+05 3.20475E+02-1.28045E+05 2.91038E-10 1.63323E-09
 -1       563 7.59061E+04-1.36062E+05 1.90420E+02-1.67388E+05 2.40470E-09 9.04777E-09
 -1       564 4.14714E+04-1.01898E+05 6.93815E+01-1.28367E+05 3.05590E-09 1.17279E-09
 -1       565 7.54634E+04-1.35874E+05 3.61773E+01-1.67665E+05 2.19370E-09 5.00222E-09
 -1       566 4.13172E+04-1.01793E+05-2.28253E+01-1.28480E+05-6.70752E-10 8.87667E-10
 -1       567 7.54083E+04-1.35846E+05-9.69233E+01-1.67650E+05 6.32690E-09-2.68119E-09
 -1       568 4.14853E+04-1.01905E+05-2.59364E+02-1.28409E+05 9.47693E-10-3.33966E-09
 -1       569 7.52368E+04-1.35733E+05-6.09350E+02-1.66913E+05 2.16096E-09 8.97398E-09
 -1       570 4.23892E+04-1.02768E+05-1.26878E+03-1.28450E+05 2.98678E-09-4.37194E-09
 -1       571 1.41297E+05 5.11834E+03 7.58384E+03-3.55371E+04-7.91260E-11 2.59024E-09
 -1       572 1.42426E+05 1.77982E+03 3.71543E+03-3.89542E+04-1.46201E-09-3.64389E-09
 -1       573 1.41752E+05 4.23831E+02 1.65052E+03-3.54440E+04-1.46974E-09 2.28897E-09
 -1       574 1.41887E+05 1.37091E+02 8.26844E+02-3.90584E+04-1.31058E-09 2.74667E-09
 -1       575 1.41804E+05 1.80376E+01 3.89652E+02-3.54317E+04-8.79936E-10 2.52567E-09
 -1       576 1.41814E+05 4.16101E+00 1.98260E+02-3.90723E+04-2.56222E-10 6.72526E-09
 -1       577 1.41812E+05-3.68344E+00 9.75890E+01-3.54300E+04-9.24797E-09 3.12593E-09
 -1       578 1.41806E+05-2.12223E+00 5.30656E+01-3.90740E+04-1.76886E-08 2.24418E-09
 -1       579 1.41819E+05-4.29205E+00 3.22808E+01-3.54300E+04-8.39509E-09-1.78716E-10
 -1       580 1.41814E+05-5.12913E+00 2.97974E+01-3.90718E+04-1.58707E-10-1.33559E-09
 -1       581 1.41830E+05-7.85924E+00 4.01652E+01-3.54322E+04-7.13953E-10-1.55887E-09
 -1       582 1.41837E+05-1.51715E+00 7.62042E+01-3.90507E+04-6.41194E-10-4.01019E-09
 -1       583 1.41843E+05 1.81308E+01 1.46226E+02-3.54511E+04 1.50067E-10 2.11719E-09
 -1       584 1.41907E+05 1.32516E+02 3.27632E+02-3.88926E+04-1.80489E-09-1.57684E-10
 -1       585 1.41824E+05 4.22101E+02 6.65591E+02-3.55905E+04-5.22959E-10-2.89674E-09
 -1       586-1.74587E+03 4.61231E+04-2.31528E+03-1.20806E+05 3.93584E-10 4.67264E-09
 -1       587-3.80254E+02 4.58126E+04-2.79459E+02-1.32936E+05 6.40284E-10 4.89797E-09
 -1       588 4.75717E+02 4.58746E+04 1.59617E+03-1.20732E+05 3.59250E-10 1.18093E-08
 -1       589 2.38981E+03 4.67505E+04 4.67754E+03-1.32827E+05 5.53882E-10 1.74514E-08
 -1       590 6.86947E+03 4.52953E+04 1.00271E+04-1.20916E+05 3.00133E-10 6.50289E-09
 -1       591-3.08515E+04-8.85708E+03-1.02758E+04-1.60282E+04-2.42892E-10-2.74213E-09
 -1       592-3.18071E+04-1.13875E+04-5.56577E+03-1.87157E+04-7.34417E-10-2.19222E-09
 -1       593-3.18905E+04-8.09986E+03-2.31708E+03-1.67699E+04 7.97172E-10-2.49690E-09
 -1       594-3.03748E+04-9.89414E+03-1.15565E+03-1.87869E+04-7.87054E-10-3.39163E-09
 -1       595-3.19699E+04-8.09648E+03-5.31095E+02-1.68039E+04-2.05790E-09-2.54488E-10
 -1       596-3.02778E+04-9.82575E+03-2.70732E+02-1.87767E+04-1.93761E-09 1.24700E-09
 -1       597-3.19800E+04-8.10307E+03-1.49036E+02-1.68053E+04-1.17081E-09 1.70689E-09
 -1       598-3.02686E+04-9.82313E+03-1.22765E+02-1.87739E+04 7.60835E-10-1.11334E-09
 -1       599-3.19793E+04-8.10305E+03-1.60489E+02-1.68051E+04 4.03190E-09 1.26761E-10
 -1       600-3.02790E+04-9.82660E+03-3.01113E+02-1.87766E+04 6.22947E-10-2.22201E-09
 -1       601-3.19668E+04-8.09580E+03-5.95530E+02-1.68031E+04-4.54179E-10 2.21485E-09
 -1       602-3.03881E+04-9.90329E+03-1.29879E+03-1.87869E+04 9.61563E-10 6.44127E-09
 -1       603-3.18766E+04-8.10076E+03-2.60499E+03-1.67651E+04 1.16120E-09 7.26709E-09
 -1       604-3.20037E+04-1.15765E+04-6.25772E+03-1.86993E+04 2.93767E-10-8.67658E-10
 -1       605-3.07018E+04-8.95699E+03-1.15531E+04-1.59368E+04 1.28807E-10-5.48425E-10
 -1       606 2.02475E+04-6.80325E+03-1.22544E+04 1.97995E+04-2.69301E-09 1.33650E-09
 -1       607 1.81489E+04-2.19414E+03-6.10213E+03 2.22259E+04-9.82254E-10-3.25235E-09
 -1       608 1.93429E+04-3.69006E+02-2.73229E+03 1.96414E+04-1.16506E-09 2.18279E-10
 -1       609 1.91069E+04-9.66383E+01-1.38015E+03 2.24004E+04-3.62979E-09 1.54682E-09
 -1       610 1.92363E+04 1.71048E+01-6.59025E+02 1.96238E+04-3.64525E-09 4.19027E-09
 -1       611 1.91926E+04 2.45610E+01-3.32494E+02 2.24195E+04-2.82171E-09-6.93831E-09
 -1       612 1.92097E+04 2.62567E+01-1.58980E+02 1.96220E+04-8.32006E-09-4.13411E-09
 -1       613 1.91938E+04 2.89557E+01-7.25772E+01 2.24218E+04-2.30748E-08-4.56225E-09
 -1       614 1.91958E+04 2.54047E+01-2.02973E+01 1.96214E+04-2.57933E-09 5.87193E-09
 -1       615 1.91876E+04 3.15829E+01 2.23412E+01 2.24222E+04 2.08220E-08 1.42791E-10
 -1       616 1.91853E+04 2.84241E+01 7.44718E+01 1.96216E+04 3.23644E-09-1.14392E-09
 -1       617 1.91937E+04 4.94181E+01 1.72759E+02 2.24218E+04 1.14619E-09 2.53249E-09
 -1       618 1.91680E+04 7.97339E+01 3.49311E+02 1.96217E+04 4.83624E-09 5.24778E-09
 -1       619 1.93153E+04 3.20827E+02 7.85114E+02 2.24213E+04 1.44746E-09 1.81103E-09
 -1       620 1.90507E+04 9.09614E+02 1.57827E+03 1.96211E+04 4.16890E-10 9.66111E-10
 -1       621 2.47544E+02 1.54032E+05 2.13976E+03 4.87962E+03-1.82325E-10-1.02723E-08
 -1       622 2.82663E+02 1.54562E+05 1.81283E+03 7.12526E+03-2.00771E-10-1.02659E-08
 -1       623 1.18548E+01 1.54185E+05 2.08051E+03 4.85668E+03-2.02931E-10-2.86684E-09
 -1       624 9.40178E+02 1.55165E+05 3.94706E+03 7.14770E+03-2.03102E-10-1.10650E-08
 -1       625 9.43851E+02 1.53425E+05 6.86003E+03 4.85742E+03-2.13731E-10-4.58613E-09
 -1       626 1.26910E+05 3.52352E+04 2.52566E+03 6.87102E+04-3.23053E-09-1.05047E-09
 -1       627 1.25164E+05 3.65237E+04 1.21677E+03 7.14941E+04-1.42518E-09 1.59685E-09
 -1       628 1.27009E+05 3.40384E+04 5.14105E+02 6.90912E+04 3.50246E-09 5.21823E-10
 -1       629 1.24801E+05 3.62367E+04 2.51889E+02 7.16628E+04 7.87986E-09 4.30282E-09
 -1       630 1.27016E+05 3.39807E+04 1.16566E+02 6.91023E+04 1.91812E-09-6.89897E-09
 -1       631 1.24759E+05 3.62298E+04 6.26513E+01 7.16659E+04 3.22871E-11-1.73763E-10
 -1       632 1.27012E+05 3.39844E+04 4.14373E+01 6.90975E+04-5.72618E-09-1.02729E-08
 -1       633 1.24750E+05 3.62331E+04 4.63060E+01 7.16618E+04-2.13504E-09-6.88632E-09
 -1       634 1.27005E+05 3.39846E+04 7.50522E+01 6.90948E+04 3.06932E-09 1.58343E-09
 -1       635 1.24754E+05 3.62341E+04 1.52236E+02 7.16618E+04 1.40301E-09 3.86876E-10
 -1       636 1.26997E+05 3.39839E+04 3.07554E+02 6.90926E+04-1.87811E-09-1.97656E-09
 -1       637 1.24816E+05 3.62832E+04 6.75992E+02 7.16586E+04 6.04228E-10-3.39651E-09
 -1       638 1.26970E+05 3.41349E+04 1.38940E+03 6.90228E+04-1.35105E-09-8.95625E-10
 -1       639 1.25542E+05 3.73000E+04 3.28694E+03 7.14421E+04-3.21563E-09 2.42835E-09
 -1       640 1.26872E+05 3.71612E+04 6.82142E+03 6.77376E+04-7.54426E-10 2.75236E-10
 -1       656 3.44294E+04-8.71320E+05-8.31239E+04-4.76080E+02 1.45519E-10-2.89731E-10
 -1       657-4.54925E+04-9.08855E+05-6.87414E+04 5.69554E+03 4.00178E-10-1.24463E-09
 -1       658 1.09149E+04-8.82031E+05-4.21823E+04-1.11495E+03 1.31081E-09-9.34257E-10
 -1       659-4.87669E+04-9.10400E+05-7.30419E+04 6.11730E+03 2.54659E-10-3.48813E-09
 -1       660 3.76952E+04-8.69778E+05-9.05257E+04-8.97828E+02-8.91305E-10-6.12751E-09
 -1       661 1.24055E+05 1.34905E+04 1.18877E+04 4.84516E+04 6.49834E-10-1.66256E-09
 -1       662 1.30224E+05 2.28369E+04 8.01027E+03 4.64099E+04 2.78186E-09-2.73212E-09
 -1       663 1.26382E+05 1.73112E+04 2.80206E+03 4.77823E+04-7.21798E-10-3.28748E-09
 -1       664 1.27533E+05 1.83625E+04 1.67520E+03 4.72215E+04 9.25922E-10-8.35212E-09
 -1       665 1.26729E+05 1.78393E+04 6.60845E+02 4.76874E+04-1.47270E-09-1.30990E-09
 -1       666 1.27128E+05 1.77533E+04 3.85291E+02 4.73414E+04-3.08127E-09 4.90515E-09
 -1       667 1.26785E+05 1.79046E+04 2.03144E+02 4.76684E+04 1.43010E-09 1.50733E-09
 -1       668 1.27070E+05 1.76993E+04 2.03367E+02 4.73676E+04 5.17655E-09 2.12984E-09
 -1       669 1.26786E+05 1.78918E+04 2.72481E+02 4.76618E+04 1.96890E-09-5.87619E-11
 -1       670 1.27143E+05 1.78395E+04 5.90532E+02 4.73627E+04 2.39950E-09-1.78657E-09
 -1       671 1.26713E+05 1.77672E+04 1.04770E+03 4.76721E+04 5.30576E-10-2.08439E-09
 -1       672 1.27757E+05 1.88547E+04 2.67978E+03 4.72107E+04 1.50857E-09-9.12362E-09
 -1       673 1.26175E+05 1.69023E+04 4.49065E+03 4.78040E+04 8.37360E-10-5.75938E-09
 -1       674 1.32036E+05 2.60649E+04 1.28426E+04 4.59497E+04 9.38144E-10-4.57840E-09
 -1       675 1.22461E+05 1.07586E+04 1.90620E+04 4.88572E+04 2.30466E-09-9.44965E-10
 -1       676 1.40394E+01-1.67395E+05-6.51970E+02 2.50175E+01 6.14477E-10-1.69159E-09
 -1       677-1.73047E+02-1.67553E+05-1.19315E+03-5.00214E+01-4.01099E-09-1.73132E-09
 -1       678 1.15559E+02-1.67283E+05-2.10915E+03 2.49866E+01 5.37511E-10 1.99167E-10
 -1       679-2.10946E+03-1.68826E+05-5.01016E+03-4.98921E+01-2.24588E-09-5.23952E-09
 -1       680 1.25888E+03-1.66123E+05-8.07475E+03 2.46012E+01-1.41517E-09-5.38840E-11
 -1       771-1.80008E+06-3.13118E+05-4.38066E+04-7.44800E+05-6.10453E-09-6.29370E-09
 -1       772-1.78918E+06-3.36765E+05-2.35207E+04-7.71132E+05-5.12227E-09 1.53705E-09
 -1       773-1.80595E+06-3.08574E+05-1.01265E+04-7.47254E+05-7.18865E-09-2.18279E-09
 -1       774-1.78282E+06-3.31538E+05-4.93662E+03-7.73624E+05 4.50018E-09-4.72937E-10
 -1       775-1.80722E+06-3.07778E+05-2.48441E+03-7.47404E+05 5.09317E-11 1.85537E-10
 -1       776-1.78265E+06-3.31544E+05-1.14834E+03-7.74896E+05-1.07684E-09 1.28057E-09
 -1       777-1.80807E+06-3.07173E+05-7.06400E+02-7.47468E+05 2.21917E-10 1.17143E-09
 -1       778-1.78285E+06-3.31716E+05-3.16199E+02-7.75950E+05 2.32103E-09 2.60479E-09
 -1       779-1.80874E+06-3.06657E+05-3.08611E+02-7.47525E+05-4.25644E-10-2.25464E-09
 -1       780-1.78307E+06-3.31863E+05-2.43842E+02-7.76803E+05-7.02130E-10-9.95897E-11
 -1       781-1.80923E+06-3.06243E+05-4.35284E+02-7.47566E+05-5.72618E-09-1.14323E-09
 -1       782-1.78330E+06-3.32011E+05-7.95465E+02-7.77430E+05-8.12361E-09-2.26282E-09
 -1       783-1.80953E+06-3.05974E+05-1.59196E+03-7.47576E+05-7.78527E-10-3.30647E-09
 -1       784-1.78437E+06-3.33092E+05-3.77227E+03-7.77770E+05-3.63434E-09-6.54836E-11
 -1       785-1.80901E+06-3.06337E+05-6.97480E+03-7.47082E+05-7.45422E-09 9.25866E-10
 -1       786 1.31764E+05-7.01264E+03 1.62233E+04 1.14278E+00 1.40646E-07 3.43971E-09
 -1       787 1.38794E+05 8.11843E+03 1.14778E+04-5.01973E+00 2.79664E-07 4.57158E-09
 -1       788 1.34476E+05-1.09931E+03 4.19902E+03 2.68861E+00 3.80136E-07-1.31945E-09
 -1       789 1.35634E+05 1.27197E+03 2.63832E+03-8.77993E+00 4.80578E-07 1.22326E-08
 -1       790 1.34924E+05-1.71732E+02 1.07358E+03 4.90304E+00 6.49501E-07-1.46935E-09
 -1       791 1.35112E+05 1.99548E+02 6.30468E+02-1.43712E+01 8.19243E-07 5.35133E-09
 -1       792 1.34999E+05-2.76958E+01 2.88005E+02 8.28000E+00 1.15450E-06-8.75097E-09
 -1       793 1.35028E+05 3.90238E+01 1.89266E+02-2.30372E+01 1.48749E-06 4.70983E-09
 -1       794 1.35008E+05-1.13138E+01 1.41024E+02 1.35692E+01 7.43930E-07-7.06412E-09
 -1       795 1.35037E+05 5.86891E+01 2.05187E+02-3.66913E+01 2.59439E-09 3.96817E-09
 -1       796 1.34990E+05-4.73467E+01 3.08076E+02 2.19343E+01-2.96652E-12 1.51329E-09
 -1       797 1.35177E+05 3.47161E+02 7.27002E+02-5.83435E+01-1.19715E-10 3.82947E-09
 -1       798 1.34868E+05-2.99573E+02 1.14774E+03 3.52218E+01-1.32529E-10 6.56519E-09
 -1       799 1.36038E+05 2.21194E+03 3.12912E+03-9.29826E+01-6.17373E-10 6.58247E-09
 -1       800 1.34129E+05-1.91062E+03 4.42023E+03 5.65737E+01-2.21855E-10 5.59771E-09
 -1       801-9.21380E+03 3.66222E+04 1.35558E+04 1.39213E+04 7.63998E-09-1.72599E-09
 -1       802 2.17159E+04 1.02291E+05 4.12753E+04-5.78569E+04 2.05773E-08-5.01507E-09
 -1       803-1.19182E+04 6.13599E+04 5.04533E+04 1.25574E+04 1.61544E-08 1.32534E-08
 -1       804 9.69706E+04 1.43329E+05 1.39968E+05-5.87171E+04 1.90339E-08 1.46493E-08
 -1       805-8.45073E+04-4.20946E+03 1.79763E+05 1.47796E+04 6.78119E-09 1.78007E-08
 -1       806-1.53929E+05-3.30638E+04-1.31188E+04-6.41888E+04 5.30008E-10 2.34650E-10
 -1       807-1.54692E+05-3.11939E+04-6.44495E+03-6.76772E+04 2.18245E-09-6.39608E-09
 -1       808-1.54301E+05-2.83239E+04-2.73398E+03-6.64137E+04-5.00563E-10-2.07032E-09
 -1       809-1.53316E+05-2.94048E+04-1.33657E+03-6.78636E+04-1.42330E-09-1.63402E-09
 -1       810-1.54360E+05-2.81566E+04-6.11991E+02-6.65120E+04-9.54515E-10 2.13083E-09
 -1       811-1.53211E+05-2.93341E+04-3.03499E+02-6.78482E+04-1.32889E-09-5.55588E-10
 -1       812-1.54370E+05-2.81688E+04-1.51401E+02-6.65119E+04-6.65068E-10 2.54659E-11
 -1       813-1.53198E+05-2.93358E+04-9.54661E+01-6.78403E+04-1.01738E-09-1.90403E-09
 -1       814-1.54369E+05-2.81732E+04-8.93881E+01-6.65100E+04-7.23503E-09-7.98127E-09
 -1       815-1.53200E+05-2.93373E+04-1.39879E+02-6.78384E+04-6.04678E-09-1.38925E-10
 -1       816-1.54360E+05-2.81718E+04-2.61974E+02-6.65084E+04-4.47380E-09-2.71234E-09
 -1       817-1.53245E+05-2.93623E+04-5.61772E+02-6.78341E+04 9.73159E-10-7.27596E-10
 -1       818-1.54327E+05-2.82504E+04-1.14480E+03-6.64713E+04-2.66482E-10-4.76552E-09
 -1       819-1.53878E+05-3.00491E+04-2.69457E+03-6.76812E+04-2.31375E-09-2.93653E-09
 -1       820-1.54110E+05-3.02878E+04-5.48379E+03-6.56032E+04-6.57110E-10 3.96631E-09
 -1       821-1.99184E+05 1.10579E+04-2.55748E+04 2.67679E+01-6.15243E-10 1.06229E-09
 -1       822-2.10266E+05-1.28013E+04-1.80974E+04-3.14886E+02-1.59855E-09-3.82806E-09
 -1       823-2.03461E+05 1.73348E+03-6.62400E+03-1.21762E+01 1.20076E-09 3.86171E-09
 -1       824-2.05282E+05-2.00646E+03-4.16825E+03-2.09340E+02 2.34444E-10-3.99319E-09
 -1       825-2.04167E+05 2.71368E+02-1.71260E+03-7.87816E+01-2.81216E-09-5.15570E-10
 -1       826-2.04460E+05-3.20082E+02-1.03527E+03-6.95262E+01-4.58333E-09 5.90069E-09
 -1       827-2.04282E+05 4.83136E+01-5.34541E+02-1.51993E+02-3.37301E-09 2.02506E-09
 -1       828-2.04348E+05-9.77648E+01-4.73986E+02 6.11089E+01-4.75731E-09 8.14179E-09
 -1       829-2.04279E+05 4.92405E+01-5.42331E+02-2.09419E+02 1.40234E-11 4.60869E-09
 -1       830-2.04470E+05-3.27788E+02-1.05975E+03 1.42637E+02 2.03398E-09-4.27865E-09
 -1       831-2.04160E+05 2.78237E+02-1.75429E+03-2.33523E+02-1.85883E-09-4.15616E-09
 -1       832-2.05312E+05-2.05734E+03-4.27477E+03 1.50535E+02-1.62080E-09 4.77485E-10
 -1       833-2.03438E+05 1.77754E+03-6.79250E+03-2.17316E+02-1.49861E-09 2.25373E-09
 -1       834-2.10418E+05-1.31274E+04-1.85588E+04 8.41802E+01-1.21624E-09-5.16593E-09
 -1       835-1.99055E+05 1.13396E+04-2.62278E+04-1.67162E+02 3.41479E-09-3.65799E-09
 -1       836-6.63675E+02 1.88896E+05 1.13718E+04-1.66878E+04 1.43427E-09-3.51974E-10
 -1       837 2.50278E+03 1.92417E+05 9.70335E+03-3.35261E+04 2.03545E-09 1.20417E-09
 -1       838-2.44348E+02 1.89878E+05 9.99927E+03-1.66306E+04 1.79216E-09 4.04032E-09
 -1       839 6.41474E+03 1.95337E+05 1.90268E+04-3.35467E+04 2.49975E-09 1.98898E-09
 -1       840-1.92947E+03 1.85955E+05 3.03860E+04-1.66662E+04 1.65164E-09 2.56318E-09
 -1       856-6.26548E+04 5.34242E+03-1.40779E+04-3.07984E+02-1.78454E-09-6.70298E-10
 -1       857-6.84710E+04-6.26631E+03-9.69260E+03 3.21672E+03-2.25623E-09-2.36219E-09
 -1       858-6.49526E+04 7.48700E+02-3.65360E+03-3.19829E+02-2.76992E-09 3.26372E-09
 -1       859-6.58314E+04-8.71200E+02-2.20684E+03 3.23547E+03 3.30417E-10 2.29534E-09
 -1       860-6.52963E+04 1.04218E+02-9.27955E+02-3.26823E+02 8.43670E-10-2.98030E-09
 -1       861-6.54352E+04-1.16019E+02-5.17093E+02 3.24499E+03-3.75253E-09-7.18299E-09
 -1       862-6.53498E+04 1.39070E+01-2.28145E+02-3.29362E+02 4.22717E-09-1.20343E-09
 -1       863-6.53719E+04-9.57591E+00-1.13062E+02 3.24612E+03 8.25130E-09-3.26537E-10
 -1       864-6.53596E+04 8.73976E-02-3.59684E+01-3.27956E+02 4.04518E-09-5.30065E-11
 -1       865-6.53540E+04 1.46608E+01 1.98228E+01 3.23897E+03 4.99944E-09 6.54082E-09
 -1       866-6.53669E+04-1.05097E+01 7.47496E+01-3.22213E+02-1.23597E-09-2.25185E-10
 -1       867-6.53106E+04 8.86326E+01 2.05901E+02 3.22342E+03 1.51590E-09-4.61853E-14
 -1       868-6.54014E+04-7.32117E+01 3.47913E+02-3.12404E+02 1.67586E-09 1.84485E-10
 -1       869-6.50504E+04 6.08097E+02 9.33781E+02 3.19722E+03 1.17095E-09-4.16912E-09
 -1       870-6.56245E+04-5.16821E+02 1.35483E+03-2.96012E+02 9.65372E-10-3.30715E-10
 -1       871-2.90600E+03-6.02616E+03-9.45370E+03 6.19542E+04 2.86582E-09-3.43334E-09
 -1       872-1.26409E+03-8.13745E+03-3.84910E+03 8.03184E+04 3.15413E-09 1.07138E-09
 -1       873-2.87422E+01-7.14421E+03 5.64235E+02 6.18171E+04 1.18325E-09 2.32637E-09
 -1       874 1.45963E+03-5.76320E+03 5.39549E+03 8.03476E+04 3.70846E-09 6.82849E-09
 -1       875 3.46340E+03-8.42922E+03 1.19574E+04 6.19301E+04 2.43199E-09-2.56705E-09
 -1       876 1.55270E+05 2.67689E+04 8.32882E+03 6.30096E+04-4.05657E-09-1.08312E-08
 -1       877 1.55741E+05 2.86019E+04 4.44770E+03 6.54788E+04-5.16457E-09-7.77982E-09
 -1       878 1.56050E+05 2.58464E+04 1.86343E+03 6.36933E+04 1.50180E-09-4.50200E-11
 -1       879 1.54608E+05 2.74739E+04 9.28204E+02 6.55390E+04 8.30369E-10 3.69482E-09
 -1       880 1.56107E+05 2.58356E+04 4.32149E+02 6.37211E+04 1.07525E-09 9.96124E-10
 -1       881 1.54533E+05 2.74262E+04 2.30094E+02 6.55280E+04 2.71120E-09-2.00650E-09
 -1       882 1.56113E+05 2.58421E+04 1.46096E+02 6.37219E+04 4.10489E-09 3.73462E-09
 -1       883 1.54528E+05 2.74240E+04 1.55237E+02 6.55251E+04 2.96131E-09 1.03270E-08
 -1       884 1.56110E+05 2.58402E+04 2.45325E+02 6.37220E+04 3.67436E-10 1.33926E-09
 -1       885 1.54547E+05 2.74275E+04 4.92233E+02 6.55314E+04 3.13935E-09-1.54733E-09
 -1       886 1.56091E+05 2.58258E+04 9.91629E+02 6.37201E+04 3.39666E-09-1.34798E-09
 -1       887 1.54722E+05 2.75417E+04 2.16596E+03 6.55563E+04-4.76314E-09-9.09210E-10
 -1       888 1.55954E+05 2.58501E+04 4.36450E+03 6.36508E+04-5.14694E-09-2.59206E-10
 -1       889 1.57323E+05 3.02417E+04 1.04267E+04 6.54731E+04 4.40586E-09 3.58023E-09
 -1       890 1.54175E+05 2.79630E+04 1.95281E+04 6.19865E+04 2.35991E-09-2.66209E-09
 -1       891-9.58537E+01-8.83379E+04-1.03970E+03 1.68360E+04 2.10321E-10 7.21570E-10
 -1       892-1.66734E+02-8.85881E+04-1.13252E+03 2.54790E+04-1.33093E-09 2.80886E-09
 -1       893-2.55117E+01-8.83719E+04-1.61950E+03 1.68391E+04 3.25372E-10 2.07319E-09
 -1       894-8.82405E+02-8.92143E+04-3.36405E+03 2.53889E+04 5.92763E-10 6.68251E-10
 -1       895-6.87675E+02-8.76756E+04-5.92770E+03 1.69251E+04 1.05615E-09 7.78982E-10
 -1       956-1.94996E+05-2.81442E+03-7.08787E+03 1.28700E+04-2.55295E-09-3.00838E-09
 -1       957-1.96396E+05-9.49346E+02-3.63879E+03 1.54941E+04-1.70735E-09-4.86125E-10
 -1       958-1.95623E+05-7.54104E+01-1.63923E+03 1.27860E+04 1.40290E-09-2.70256E-09
 -1       959-1.95734E+05-1.37374E+01-8.37359E+02 1.55848E+04-1.21395E-09 5.65649E-09
 -1       960-1.95678E+05 2.27847E+01-4.08075E+02 1.27782E+04-2.99178E-09 8.37986E-10
 -1       961-1.95684E+05 2.05782E+01-2.16388E+02 1.55935E+04-6.16956E-09 2.55511E-09
 -1       962-1.95688E+05 1.91879E+01-1.23499E+02 1.27772E+04-1.94041E-09-2.42835E-09
 -1       963-1.95681E+05 2.09158E+01-9.85406E+01 1.55949E+04-1.92153E-09 2.40289E-09
 -1       964-1.95690E+05 2.02441E+01-1.18815E+02 1.27768E+04-6.93319E-10 8.94602E-10
 -1       965-1.95688E+05 2.29472E+01-2.04633E+02 1.55950E+04 2.94114E-09-8.17408E-10
 -1       966-1.95684E+05 2.58781E+01-3.83677E+02 1.27771E+04-1.83849E-09-6.15830E-09
 -1       967-1.95739E+05-6.92166E+00-7.86698E+02 1.55902E+04-2.05637E-09 7.87168E-10
 -1       968-1.95636E+05-6.41258E+01-1.53932E+03 1.27816E+04-9.40190E-10-5.27805E-10
 -1       969-1.96365E+05-8.83639E+02-3.41770E+03 1.55376E+04 1.24658E-09-1.43336E-09
 -1       970-1.95050E+05-2.63532E+03-6.65673E+03 1.28315E+04 2.87469E-09-8.00810E-10
 -1       971-1.85392E+05-9.80729E+02-5.46015E+03 9.11121E+03-3.78259E-09-6.50758E-09
 -1       972-1.86720E+05-7.03930E+02-2.97386E+03 1.27201E+04-1.98452E-09-6.73708E-10
 -1       973-1.85997E+05-6.23691E+00-1.33131E+03 9.03620E+03-1.02636E-09 1.02989E-09
 -1       974-1.86089E+05-7.61698E+00-6.89790E+02 1.28006E+04-3.29919E-10-5.54337E-09
 -1       975-1.86043E+05 1.80214E+01-3.43795E+02 9.02996E+03 4.70664E-10 3.45005E-09
 -1       976-1.86050E+05 1.98094E+01-1.96878E+02 1.28079E+04-1.32309E-09 9.13019E-10
 -1       977-1.86051E+05 1.70078E+01-1.40050E+02 9.02881E+03 2.26578E-09-1.09634E-09
 -1       978-1.86050E+05 2.23032E+01-1.60138E+02 1.28095E+04 8.09064E-09-5.94116E-09
 -1       979-1.86050E+05 2.09189E+01-2.53963E+02 9.02835E+03 4.61250E-09-4.85829E-09
 -1       980-1.86069E+05 2.36855E+01-4.88285E+02 1.28097E+04 6.69325E-09-3.09046E-09
 -1       981-1.86034E+05 3.31273E+01-9.44520E+02 9.02860E+03 4.48279E-09 4.85335E-09
 -1       982-1.86199E+05-4.57080E+01-1.95164E+03 1.28062E+04 5.70668E-09 5.82861E-09
 -1       983-1.85916E+05-2.67367E+01-3.79155E+03 9.03201E+03 6.40694E-09 4.09216E-09
 -1       984-1.88024E+05-2.02481E+03-8.49045E+03 1.27554E+04-8.84825E-10 1.13175E-09
 -1       985-1.84201E+05-2.80052E+03-1.55912E+04 9.08251E+03 1.93791E-09 1.74623E-10
 -3
    1PSTEP                         7           4           1          
  100CL  104 4.68750E-01         409                     0    4           1
 -4  DISP        4    1
 -5  D1          1    2    1    0
 -5  D2          1    2    2    0
 -5  D3          1    2    3    0
 -5  ALL         1    2    0    0    1ALL
 -1         1 1.28555E-04 0.00000E+00 0.00000E+00
 -1         2 1.16229E-04-4.73254E-30 1.65436E-24
 -1         3 1.10092E-04-1.38335E-27 0.00000E+00
 -1         5 7.79808E-05-2.10684E-27-6.61744E-24
 -1         8 1.03840E-04-8.87883E-07 0.00000E+00
 -1         9 1.03347E-04 2.66811E-07 0.00000E+00
 -1        10 1.01874E-04-1.50222E-06 0.00000E+00
 -1        12 7.74922E-05 5.12300E-07 0.00000E+00
 -1        15 7.44001E-05-9.81322E-07 0.00000E+00
 -1        16 7.74634E-05 1.15313E-07 0.00000E+00
 -1        17 7.56187E-05-3.17232E-06 0.00000E+00
 -1        18 7.50350E-05 7.74543E-07 0.00000E+00
 -1        19 7.60265E-05 1.02177E-06 0.00000E+00
 -1        20 7.61583E-05 1.46176E-05 0.00000E+00
 -1        21 7.56574E-05 2.75318E-05 0.00000E+00
 -1        24 1.86444E-05-4.31789E-06 0.00000E+00
 -1        25 7.35510E-05 8.92937E-07 0.00000E+00
 -1        26 7.44791E-05 1.42303E-06 0.00000E+00
 -1        27 7.30608E-05 1.23407E-05 0.00000E+00
 -1        28 7.26078E-05 2.70950E-05 0.00000E+00
 -1        32 0.00000E+00 0.00000E+00 0.00000E+00
 -1        33 7.17190E-05 1.90744E-06 0.00000E+00
 -1        34 7.03498E-05 1.23200E-05 0.00000E+00
 -1        35 6.90488E-05 2.68642E-05 0.00000E+00
 -1        51 1.26949E-04-1.45749E-07 0.00000E+00
 -1        52 1.23971E-04-2.87668E-07 0.00000E+00
 -1        53 1.19890E-04-4.31150E-07 0.00000E+00
 -1        54 1.14988E-04-5.77641E-07 3.30872E-24
 -1        55 1.09544E-04-7.27860E-07-8.53030E-25
 -1        56 1.27339E-04-7.97691E-07 0.00000E+00
 -1        57 1.26282E-04-2.16542E-06 1.32349E-23
 -1        58 1.25382E-04-3.94233E-06-5.29396E-23
 -1        59 1.24568E-04-5.97530E-06 0.00000E+00
 -1        60 1.23783E-04-8.08378E-06 0.00000E+00
 -1        61 1.22956E-04-1.00880E-05 0.00000E+00
 -1        62 1.22026E-04-1.18160E-05 0.00000E+00
 -1        63 1.20933E-04-1.31059E-05 0.00000E+00
 -1        64 1.19627E-04-1.38312E-05 0.00000E+00
 -1        65 1.18071E-04-1.38853E-05 0.00000E+00
 -1        66 1.16242E-04-1.32156E-05 5.29396E-23
 -1        67 1.14132E-04-1.17947E-05 0.00000E+00
 -1        68 1.11751E-04-9.65650E-06-5.29396E-23
 -1        69 1.09128E-04-6.85688E-06 0.00000E+00
 -1        70 1.06295E-04-3.51111E-06 0.00000E+00
 -1        86 1.15885E-04 5.19335E-08-8.27181E-25
 -1        87 1.14853E-04 1.02905E-07 0.00000E+00
 -1        88 1.13112E-04 1.52857E-07 0.00000E+00
 -1        89 1.10642E-04 1.98149E-07 0.00000E+00
 -1        90 1.07401E-04 2.42397E-07 6.61744E-24
 -1       121 1.09862E-04-2.49103E-07 0.00000E+00
 -1       122 1.09174E-04-4.98413E-07 3.30872E-24
 -1       123 1.08029E-04-7.48136E-07 0.00000E+00
 -1       124 1.06429E-04-9.98514E-07 0.00000E+00
 -1       125 1.04376E-04-1.24968E-06 0.00000E+00
 -1       191 7.79673E-05 8.53905E-08 3.30872E-24
 -1       192 7.79266E-05 1.70779E-07 0.00000E+00
 -1       193 7.78587E-05 2.56167E-07 0.00000E+00
 -1       194 7.77637E-05 3.41551E-07-1.65436E-24
 -1       195 7.76415E-05 4.26929E-07 3.30872E-24
 -1       251 1.03791E-04 3.24195E-06 0.00000E+00
 -1       252 1.03760E-04 5.83532E-06-1.65436E-24
 -1       253 1.03730E-04 7.09005E-06 0.00000E+00
 -1       254 1.03703E-04 7.20514E-06-8.27181E-25
 -1       255 1.03677E-04 6.39518E-06 0.00000E+00
 -1       256 1.03650E-04 4.87572E-06-4.13590E-25
 -1       257 1.03622E-04 2.87184E-06 0.00000E+00
 -1       258 1.03594E-04 6.09128E-07 0.00000E+00
 -1       259 1.03565E-04-1.68341E-06 0.00000E+00
 -1       260 1.03537E-04-3.77668E-06 0.00000E+00
 -1       261 1.03510E-04-5.44425E-06-8.27181E-25
 -1       262 1.03483E-04-6.46021E-06-8.27181E-25
 -1       263 1.03456E-04-6.60734E-06 0.00000E+00
 -1       264 1.03427E-04-5.66933E-06 1.65436E-24
 -1       265 1.03396E-04-3.44469E-06-6.61744E-24
 -1       266 9.89333E-05-9.15495E-07 6.61744E-24
 -1       267 9.40267E-05-9.29601E-07 0.00000E+00
 -1       268 8.91200E-05-9.44562E-07 0.00000E+00
 -1       269 8.42134E-05-9.56990E-07 4.13590E-25
 -1       270 7.93068E-05-9.69357E-07 0.00000E+00
 -1       271 1.00864E-04 2.83305E-06 0.00000E+00
 -1       272 9.83106E-05 5.29980E-06 1.32349E-23
 -1       273 9.61819E-05 6.64718E-06 0.00000E+00
 -1       274 9.44160E-05 7.00963E-06-2.64698E-23
 -1       275 9.29598E-05 6.54589E-06-5.29396E-23
 -1       276 9.17476E-05 5.42695E-06-2.64698E-23
 -1       277 9.07115E-05 3.83698E-06 0.00000E+00
 -1       278 8.97793E-05 1.96827E-06 0.00000E+00
 -1       279 8.88773E-05 1.85214E-08 5.29396E-23
 -1       280 8.79313E-05-1.81306E-06 2.64698E-23
 -1       281 8.68678E-05-3.32969E-06 0.00000E+00
 -1       282 8.56157E-05-4.34008E-06 2.64698E-23
 -1       283 8.41063E-05-4.66293E-06 5.29396E-23
 -1       284 8.22799E-05-4.12760E-06 0.00000E+00
 -1       285 8.00721E-05-2.58350E-06 2.64698E-23
 -1       301 9.88400E-05 2.34364E-07 6.61744E-24
 -1       302 9.43596E-05 2.17299E-07 1.65436E-24
 -1       303 8.99436E-05 2.00952E-07 6.61744E-24
 -1       304 8.56302E-05 1.83415E-07 3.30872E-24
 -1       305 8.14576E-05 1.64049E-07 1.32349E-23
 -1       306 1.00381E-04 3.47460E-06 2.64698E-23
 -1       307 9.78949E-05 5.26286E-06-2.64698E-23
 -1       308 9.59612E-05 5.59380E-06 0.00000E+00
 -1       309 9.45617E-05 4.47437E-06-2.64698E-23
 -1       310 9.36183E-05 2.13409E-06-5.29396E-23
 -1       311 9.30222E-05-1.14320E-06 0.00000E+00
 -1       312 9.26165E-05-4.93294E-06-5.29396E-23
 -1       313 9.22344E-05-8.78693E-06 2.64698E-23
 -1       314 9.17057E-05-1.22467E-05 0.00000E+00
 -1       315 9.08670E-05-1.48727E-05 0.00000E+00
 -1       316 8.95996E-05-1.63505E-05 0.00000E+00
 -1       317 8.78062E-05-1.64195E-05-2.64698E-23
 -1       318 8.54641E-05-1.50296E-05-5.29396E-23
 -1       319 8.25877E-05-1.21955E-05 2.64698E-23
 -1       320 7.92492E-05-8.15445E-06 0.00000E+00
 -1       336 9.88677E-05-1.77578E-06 0.00000E+00
 -1       337 9.53027E-05-2.05148E-06 3.30872E-24
 -1       338 9.11859E-05-2.32912E-06 6.61744E-24
 -1       339 8.65262E-05-2.60864E-06 0.00000E+00
 -1       340 8.13334E-05-2.89072E-06 0.00000E+00
 -1       406 7.73158E-05 5.97655E-07 0.00000E+00
 -1       407 7.71121E-05 6.82978E-07-1.65436E-24
 -1       408 7.68813E-05 7.68243E-07 3.30872E-24
 -1       409 7.66234E-05 8.53344E-07 0.00000E+00
 -1       410 7.63384E-05 9.38115E-07 0.00000E+00
 -1       521 7.59418E-05-4.54732E-06-5.29396E-23
 -1       522 7.95823E-05-2.37094E-05 2.64698E-23
 -1       523 8.71813E-05-5.41518E-05-1.05879E-22
 -1       524 9.71901E-05-9.17436E-05 0.00000E+00
 -1       525 1.07695E-04-1.30809E-04 1.05879E-22
 -1       526 1.16740E-04-1.65552E-04 0.00000E+00
 -1       527 1.22618E-04-1.91108E-04 0.00000E+00
 -1       528 1.23773E-04-2.03391E-04 0.00000E+00
 -1       529 1.19537E-04-2.01140E-04 0.00000E+00
 -1       530 1.09651E-04-1.84279E-04 0.00000E+00
 -1       531 9.51036E-05-1.55777E-04-1.05879E-22
 -1       532 7.73559E-05-1.19505E-04 0.00000E+00
 -1       533 5.86475E-05-8.09265E-05 0.00000E+00
 -1       534 4.13446E-05-4.56694E-05 0.00000E+00
 -1       535 2.74324E-05-1.87052E-05 0.00000E+00
 -1       536 7.55634E-05 2.30839E-06 3.30872E-24
 -1       537 7.55193E-05 6.80942E-06 0.00000E+00
 -1       538 7.54786E-05 1.03001E-05 0.00000E+00
 -1       539 7.54421E-05 1.27515E-05 0.00000E+00
 -1       540 7.54075E-05 1.42089E-05 0.00000E+00
 -1       541 7.53740E-05 1.47192E-05 4.13590E-25
 -1       542 7.53407E-05 1.43971E-05-8.27181E-25
 -1       543 7.53069E-05 1.33583E-05 0.00000E+00
 -1       544 7.52725E-05 1.17701E-05 0.00000E+00
 -1       545 7.52375E-05 9.80013E-06 0.00000E+00
 -1       546 7.52021E-05 7.64371E-06 8.27181E-25
 -1       547 7.51669E-05 5.49625E-06 4.13590E-25
 -1       548 7.51320E-05 3.55251E-06 0.00000E+00
 -1       549 7.50983E-05 2.00702E-06 2.06795E-25
 -1       550 7.50652E-05 1.02594E-06 2.58494E-26
 -1       551 6.81093E-05-3.34296E-06 0.00000E+00
 -1       552 5.91277E-05-3.52215E-06 1.65436E-24
 -1       553 4.91787E-05-3.70986E-06 3.30872E-24
 -1       554 3.87743E-05-3.90422E-06 3.30872E-24
 -1       555 2.84267E-05-4.10072E-06 1.32349E-23
 -1       556 7.36337E-05 1.96778E-06 0.00000E+00
 -1       557 7.21119E-05 5.91230E-06 0.00000E+00
 -1       558 7.10027E-05 8.77047E-06 0.00000E+00
 -1       559 7.02605E-05 1.06602E-05 0.00000E+00
 -1       560 6.98391E-05 1.16992E-05 0.00000E+00
 -1       561 6.96933E-05 1.20058E-05 0.00000E+00
 -1       562 6.97780E-05 1.16985E-05 0.00000E+00
 -1       563 7.00483E-05 1.08958E-05-3.30872E-24
 -1       564 7.04596E-05 9.71654E-06 0.00000E+00
 -1       565 7.09672E-05 8.27945E-06 0.00000E+00
 -1       566 7.15268E-05 6.70334E-06 8.27181E-25
 -1       567 7.20939E-05 5.10707E-06 4.13590E-25
 -1       568 7.26242E-05 3.60945E-06 0.00000E+00
 -1       569 7.30733E-05 2.32918E-06 0.00000E+00
 -1       570 7.33967E-05 1.38497E-06 0.00000E+00
 -1       571 7.50952E-05 8.27778E-07 1.24077E-24
 -1       572 7.51567E-05 8.39910E-07 2.06795E-25
 -1       573 7.52186E-05 8.18304E-07 1.65436E-24
 -1       574 7.52806E-05 7.70714E-07-4.13590E-25
 -1       575 7.53428E-05 7.04925E-07 1.65436E-24
 -1       576 7.54049E-05 6.28774E-07 0.00000E+00
 -1       577 7.54671E-05 5.50105E-07 0.00000E+00
 -1       578 7.55293E-05 4.76765E-07 0.00000E+00
 -1       579 7.55915E-05 4.16604E-07 0.00000E+00
 -1       580 7.56537E-05 3.77471E-07 0.00000E+00
 -1       581 7.57159E-05 3.67216E-07 0.00000E+00
 -1       582 7.57781E-05 3.93678E-07-3.30872E-24
 -1       583 7.58403E-05 4.64689E-07 0.00000E+00
 -1       584 7.59024E-05 5.88004E-07 0.00000E+00
 -1       585 7.59645E-05 7.71327E-07 3.30872E-24
 -1       586 7.47654E-05 7.95493E-07 0.00000E+00
 -1       587 7.44696E-05 8.15928E-07 0.00000E+00
 -1       588 7.41738E-05 8.36141E-07 0.00000E+00
 -1       589 7.39045E-05 8.56034E-07 0.00000E+00
 -1       590 7.36884E-05 8.75386E-07 0.00000E+00
 -1       591 7.49859E-05 8.60012E-07 5.16988E-26
 -1       592 7.49469E-05 9.11946E-07-4.13590E-25
 -1       593 7.49179E-05 9.36739E-07 0.00000E+00
 -1       594 7.48966E-05 9.40145E-07-2.06795E-25
 -1       595 7.48812E-05 9.27998E-07 0.00000E+00
 -1       596 7.48693E-05 9.06086E-07 0.00000E+00
 -1       597 7.48589E-05 8.80195E-07 4.13590E-25
 -1       598 7.48478E-05 8.56107E-07 2.06795E-25
 -1       599 7.48339E-05 8.39602E-07 4.13590E-25
 -1       600 7.48150E-05 8.36463E-07 2.06795E-25
 -1       601 7.47889E-05 8.52469E-07-4.13590E-25
 -1       602 7.47535E-05 8.93407E-07 0.00000E+00
 -1       603 7.47067E-05 9.65062E-07 2.06795E-25
 -1       604 7.46465E-05 1.07327E-06-1.03398E-25
 -1       605 7.45706E-05 1.22378E-06 0.00000E+00
 -1       606 7.60379E-05 1.41388E-06-3.30872E-24
 -1       607 7.60472E-05 1.89389E-06 0.00000E+00
 -1       608 7.60558E-05 2.45662E-06 0.00000E+00
 -1       609 7.60641E-05 3.09625E-06 1.65436E-24
 -1       610 7.60723E-05 3.80696E-06 0.00000E+00
 -1       611 7.60804E-05 4.58280E-06 0.00000E+00
 -1       612 7.60884E-05 5.41784E-06 0.00000E+00
 -1       613 7.60964E-05 6.30616E-06 0.00000E+00
 -1       614 7.61043E-05 7.24180E-06 0.00000E+00
 -1       615 7.61121E-05 8.21883E-06-8.27181E-25
 -1       616 7.61200E-05 9.23131E-06 0.00000E+00
 -1       617 7.61278E-05 1.02733E-05 0.00000E+00
 -1       618 7.61356E-05 1.13389E-05 0.00000E+00
 -1       619 7.61433E-05 1.24221E-05 0.00000E+00
 -1       620 7.61509E-05 1.35170E-05 0.00000E+00
 -1       621 7.57223E-05 1.08869E-06 0.00000E+00
 -1       622 7.54440E-05 1.15594E-06 0.00000E+00
 -1       623 7.51860E-05 1.22318E-06-1.65436E-24
 -1       624 7.49429E-05 1.29031E-06 0.00000E+00
 -1       625 7.47091E-05 1.35733E-06 0.00000E+00
 -1       626 7.59511E-05 1.43502E-06 0.00000E+00
 -1       627 7.58490E-05 1.92092E-06-1.65436E-24
 -1       628 7.57223E-05 2.47271E-06 0.00000E+00
 -1       629 7.55736E-05 3.08316E-06 0.00000E+00
 -1       630 7.54056E-05 3.74507E-06 0.00000E+00
 -1       631 7.52211E-05 4.45114E-06 0.00000E+00
 -1       632 7.50226E-05 5.19411E-06 0.00000E+00
 -1       633 7.48131E-05 5.96669E-06 1.65436E-24
 -1       634 7.45951E-05 6.76163E-06 3.30872E-24
 -1       635 7.43715E-05 7.57163E-06 1.65436E-24
 -1       636 7.41449E-05 8.38943E-06 0.00000E+00
 -1       637 7.39181E-05 9.20777E-06 0.00000E+00
 -1       638 7.36938E-05 1.00193E-05 0.00000E+00
 -1       639 7.34746E-05 1.08169E-05-8.27181E-25
 -1       640 7.32631E-05 1.15931E-05 0.00000E+00
 -1       656 7.52479E-05 1.42471E-05 0.00000E+00
 -1       657 7.46682E-05 1.38618E-05 0.00000E+00
 -1       658 7.42939E-05 1.34778E-05 6.61744E-24
 -1       659 7.39965E-05 1.30940E-05 0.00000E+00
 -1       660 7.36328E-05 1.27091E-05-6.61744E-24
 -1       661 7.58219E-05 1.56950E-05-8.27181E-25
 -1       662 7.55065E-05 1.67244E-05-8.27181E-25
 -1       663 7.52086E-05 1.77070E-05-1.65436E-24
 -1       664 7.49278E-05 1.86451E-05 0.00000E+00
 -1       665 7.46630E-05 1.95408E-05 0.00000E+00
 -1       666 7.44136E-05 2.03960E-05-8.27181E-25
 -1       667 7.41786E-05 2.12126E-05 1.65436E-24
 -1       668 7.39575E-05 2.19924E-05 0.00000E+00
 -1       669 7.37496E-05 2.27371E-05 0.00000E+00
 -1       670 7.35542E-05 2.34484E-05 0.00000E+00
 -1       671 7.33708E-05 2.41278E-05 0.00000E+00
 -1       672 7.31986E-05 2.47768E-05-8.27181E-25
 -1       673 7.30373E-05 2.53969E-05 1.65436E-24
 -1       674 7.28856E-05 2.59892E-05 8.27181E-25
 -1       675 7.27440E-05 2.65554E-05-4.13590E-25
 -1       676 7.51479E-05 2.74585E-05 0.00000E+00
 -1       677 7.46386E-05 2.73853E-05 0.00000E+00
 -1       678 7.41297E-05 2.73122E-05 0.00000E+00
 -1       679 7.36215E-05 2.72392E-05-8.27181E-25
 -1       680 7.31141E-05 2.71663E-05 0.00000E+00
 -1       771 1.47320E-05 3.23401E-06-2.64698E-23
 -1       772 1.13325E-05 9.41991E-06 1.32349E-23
 -1       773 8.42482E-06 1.43150E-05-2.64698E-23
 -1       774 5.97622E-06 1.79999E-05 0.00000E+00
 -1       775 3.95470E-06 2.05568E-05 2.64698E-23
 -1       776 2.32679E-06 2.20714E-05 0.00000E+00
 -1       777 1.05856E-06 2.26308E-05 2.64698E-23
 -1       778 1.15390E-07 2.23249E-05 1.32349E-23
 -1       779-5.37657E-07 2.12449E-05 0.00000E+00
 -1       780-9.36131E-07 1.94841E-05 0.00000E+00
 -1       781-1.11572E-06 1.71370E-05 2.64698E-23
 -1       782-1.11258E-06 1.42997E-05-1.32349E-23
 -1       783-9.62982E-07 1.10690E-05 0.00000E+00
 -1       784-7.03429E-07 7.54307E-06 1.32349E-23
 -1       785-3.70564E-07 3.82027E-06 0.00000E+00
 -1       786 7.36056E-05 8.52733E-07 0.00000E+00
 -1       787 7.36635E-05 8.18498E-07 0.00000E+00
 -1       788 7.37211E-05 7.89778E-07 0.00000E+00
 -1       789 7.37794E-05 7.66133E-07 0.00000E+00
 -1       790 7.38377E-05 7.47807E-07-1.65436E-24
 -1       791 7.38961E-05 7.35057E-07-8.27181E-25
 -1       792 7.39545E-05 7.28890E-07 1.65436E-24
 -1       793 7.40130E-05 7.30332E-07 8.27181E-25
 -1       794 7.40714E-05 7.41433E-07 1.65436E-24
 -1       795 7.41299E-05 7.64267E-07 0.00000E+00
 -1       796 7.41883E-05 8.02490E-07 0.00000E+00
 -1       797 7.42468E-05 8.59799E-07 8.27181E-25
 -1       798 7.43052E-05 9.42458E-07 0.00000E+00
 -1       799 7.43634E-05 1.05680E-06 0.00000E+00
 -1       800 7.44217E-05 1.21342E-06 0.00000E+00
 -1       801 6.85812E-05 8.34362E-07 0.00000E+00
 -1       802 5.37036E-05 6.79426E-07-1.65436E-24
 -1       803 3.41761E-05 4.51739E-07 0.00000E+00
 -1       804 1.52666E-05 2.28731E-07-3.30872E-24
 -1       805 2.15115E-06 9.17151E-08-1.32349E-23
 -1       806 7.34943E-05 8.11457E-07 1.65436E-24
 -1       807 7.34343E-05 7.31096E-07 0.00000E+00
 -1       808 7.33716E-05 6.56363E-07-1.65436E-24
 -1       809 7.33050E-05 5.91067E-07-8.27181E-25
 -1       810 7.32334E-05 5.39011E-07 0.00000E+00
 -1       811 7.31554E-05 5.03937E-07-1.65436E-24
 -1       812 7.30695E-05 4.89588E-07 0.00000E+00
 -1       813 7.29745E-05 4.99691E-07 8.27181E-25
 -1       814 7.28689E-05 5.37977E-07 1.65436E-24
 -1       815 7.27514E-05 6.08169E-07 0.00000E+00
 -1       816 7.26205E-05 7.13989E-07 1.65436E-24
 -1       817 7.24748E-05 8.59157E-07 0.00000E+00
 -1       818 7.23131E-05 1.04739E-06-1.65436E-24
 -1       819 7.21339E-05 1.28240E-06 8.27181E-25
 -1       820 7.19360E-05 1.56787E-06 8.27181E-25
 -1       821 7.43956E-05 1.65279E-06 0.00000E+00
 -1       822 7.43071E-05 1.87058E-06 0.00000E+00
 -1       823 7.42188E-05 2.11615E-06 1.65436E-24
 -1       824 7.41295E-05 2.42914E-06 1.65436E-24
 -1       825 7.40402E-05 2.83668E-06 0.00000E+00
 -1       826 7.39506E-05 3.36554E-06 0.00000E+00
 -1       827 7.38610E-05 4.01996E-06 3.30872E-24
 -1       828 7.37712E-05 4.80375E-06 0.00000E+00
 -1       829 7.36813E-05 5.69668E-06-3.30872E-24
 -1       830 7.35914E-05 6.67811E-06-1.65436E-24
 -1       831 7.35014E-05 7.71101E-06 0.00000E+00
 -1       832 7.34117E-05 8.75812E-06 0.00000E+00
 -1       833 7.33220E-05 9.77954E-06 1.65436E-24
 -1       834 7.32333E-05 1.07355E-05-8.27181E-25
 -1       835 7.31444E-05 1.15983E-05-8.27181E-25
 -1       836 7.41550E-05 1.50368E-06 0.00000E+00
 -1       837 7.37246E-05 1.58610E-06 0.00000E+00
 -1       838 7.32266E-05 1.66838E-06 1.65436E-24
 -1       839 7.27004E-05 1.75012E-06 8.27181E-25
 -1       840 7.21848E-05 1.83173E-06 2.06795E-25
 -1       856 7.30357E-05 1.30746E-05 0.00000E+00
 -1       857 7.30078E-05 1.39058E-05 0.00000E+00
 -1       858 7.29799E-05 1.48189E-05 8.27181E-25
 -1       859 7.29514E-05 1.57986E-05 4.13590E-25
 -1       860 7.29229E-05 1.68293E-05-8.27181E-25
 -1       861 7.28942E-05 1.78955E-05 4.13590E-25
 -1       862 7.28655E-05 1.89818E-05 0.00000E+00
 -1       863 7.28368E-05 2.00725E-05-4.13590E-25
 -1       864 7.28080E-05 2.11520E-05 8.27181E-25
 -1       865 7.27793E-05 2.22049E-05 0.00000E+00
 -1       866 7.27507E-05 2.32155E-05 0.00000E+00
 -1       867 7.27220E-05 2.41683E-05 4.13590E-25
 -1       868 7.26935E-05 2.50480E-05 0.00000E+00
 -1       869 7.26649E-05 2.58392E-05 4.13590E-25
 -1       870 7.26365E-05 2.65265E-05 0.00000E+00
 -1       871 7.25101E-05 1.23399E-05 0.00000E+00
 -1       872 7.20529E-05 1.23371E-05 0.00000E+00
 -1       873 7.16490E-05 1.23340E-05 0.00000E+00
 -1       874 7.12577E-05 1.23305E-05 5.16988E-26
 -1       875 7.08381E-05 1.23265E-05 6.20385E-25
 -1       876 7.28706E-05 1.30828E-05 0.00000E+00
 -1       877 7.26646E-05 1.38722E-05 0.00000E+00
 -1       878 7.24431E-05 1.47032E-05 0.00000E+00
 -1       879 7.22081E-05 1.55705E-05 0.00000E+00
 -1       880 7.19616E-05 1.64687E-05-3.30872E-24
 -1       881 7.17056E-05 1.73925E-05 0.00000E+00
 -1       882 7.14419E-05 1.83365E-05 0.00000E+00
 -1       883 7.11726E-05 1.92954E-05 0.00000E+00
 -1       884 7.08997E-05 2.02639E-05 0.00000E+00
 -1       885 7.06252E-05 2.12368E-05-1.65436E-24
 -1       886 7.03511E-05 2.22086E-05 1.65436E-24
 -1       887 7.00792E-05 2.31741E-05 8.27181E-25
 -1       888 6.98116E-05 2.41279E-05 1.65436E-24
 -1       889 6.95499E-05 2.50646E-05 8.27181E-25
 -1       890 6.92962E-05 2.59789E-05 8.27181E-25
 -1       891 7.21205E-05 2.70564E-05 0.00000E+00
 -1       892 7.16164E-05 2.70177E-05-4.13590E-25
 -1       893 7.10764E-05 2.69789E-05 0.00000E+00
 -1       894 7.04813E-05 2.69403E-05-4.13590E-25
 -1       895 6.98117E-05 2.69017E-05 4.13590E-25
 -1       956 7.16350E-05 2.35744E-06 1.65436E-24
 -1       957 7.15497E-05 2.86232E-06-8.27181E-25
 -1       958 7.14641E-05 3.41635E-06-1.65436E-24
 -1       959 7.13783E-05 4.01348E-06-1.65436E-24
 -1       960 7.12925E-05 4.64764E-06-1.65436E-24
 -1       961 7.12066E-05 5.31272E-06 0.00000E+00
 -1       962 7.11207E-05 6.00261E-06 1.65436E-24
 -1       963 7.10347E-05 6.71121E-06 8.27181E-25
 -1       964 7.09488E-05 7.43239E-06 0.00000E+00
 -1       965 7.08628E-05 8.16005E-06 0.00000E+00
 -1       966 7.07769E-05 8.88807E-06-3.30872E-24
 -1       967 7.06910E-05 9.61034E-06 0.00000E+00
 -1       968 7.06052E-05 1.03207E-05 3.30872E-24
 -1       969 7.05194E-05 1.10132E-05 1.65436E-24
 -1       970 7.04340E-05 1.16816E-05 3.30872E-24
 -1       971 7.02696E-05 1.29765E-05-1.65436E-24
 -1       972 7.01882E-05 1.37050E-05 0.00000E+00
 -1       973 7.01067E-05 1.44977E-05-3.30872E-24
 -1       974 7.00250E-05 1.53463E-05 1.65436E-24
 -1       975 6.99433E-05 1.62425E-05 0.00000E+00
 -1       976 6.98615E-05 1.71780E-05 8.27181E-25
 -1       977 6.97796E-05 1.81444E-05-1.65436E-24
 -1       978 6.96978E-05 1.91335E-05-8.27181E-25
 -1       979 6.96159E-05 2.01370E-05-3.30872E-24
 -1       980 6.95341E-05 2.11465E-05 0.00000E+00
 -1       981 6.94522E-05 2.21537E-05 0.00000E+00
 -1       982 6.93705E-05 2.31502E-05-1.65436E-24
 -1       983 6.92888E-05 2.41278E-05 0.00000E+00
 -1       984 6.92075E-05 2.50782E-05 8.27181E-25
 -1       985 6.91266E-05 2.59930E-05-1.65436E-24
 -3
    1PSTEP                         8           4           1          
  100CL  104 4.68750E-01         409                     0    4           1
 -4  STRESS      6    1
 -5  SXX         1    4    1    1
 -5  SYY         1    4    2    2
 -5  SZZ         1    4    3    3
 -5  SXY         1    4    1    2
 -5  SYZ         1    4    2    3
 -5  SZX         1    4    3    1
 -1         1-1.77924E+06-7.97403E+05-3.74675E+05-1.08892E+06-2.21917E-10-6.99947E-09
 -1         2 2.50047E+03 1.52115E+05 8.19367E+03 4.43058E+02-1.29631E-10 7.45734E-09
 -1         3-8.80389E+01-7.11575E+05 1.66226E+02-2.59671E+02-1.51729E-10 1.33150E-08
 -1         5-5.86576E+00 2.44335E+05 6.40132E+00 1.10171E-01 9.77821E-11 1.02041E-08
 -1         8-8.39672E+05-3.45617E+05-4.62724E+04-5.67519E+05 1.45519E-10 4.32192E-09
 -1         9-1.46843E+06-4.07109E+05-1.65255E+05-4.72721E+05 2.89583E-09 8.06176E-09
 -1        10-5.77841E+02-7.41312E+05-9.87093E+02-1.75215E+03-3.43380E-09-2.23993E-08
 -1        12-3.24269E+00 2.44348E+05 2.07578E+02 9.98192E-01 2.49837E-10 5.67707E-09
 -1        15 1.99466E+03 1.09619E+03 6.44775E+03 4.23230E+00 2.60627E-11-1.85051E-10
 -1        16-3.50936E+06-1.21683E+06-5.54381E+05-1.24915E+06 1.10692E-08-1.86265E-09
 -1        17-8.46387E+05-5.13899E+05-1.63905E+05-4.74168E+05-5.93718E-09 2.68919E-09
 -1        18 6.23743E+03-2.80512E+03-1.71146E+04-5.81527E+04 7.50106E-10-4.94174E-09
 -1        19 7.65669E+04 9.12154E+04-4.39244E+02 1.49584E+04-5.97720E-10-9.81890E-10
 -1        20-3.22194E+04-3.61743E+05-7.98130E+04 2.64956E+04 3.02301E-09-2.68725E-09
 -1        21-3.40897E+01-2.09299E+05-6.75697E+02-7.31454E+01-6.35998E-09-1.07842E-08
 -1        24-3.25526E+06-1.01418E+06-4.48896E+05-1.24957E+06-2.07219E-08-1.02882E-08
 -1        25 2.30605E+04-3.20535E+04 1.03415E+04-1.05028E+05 3.37604E-10 1.05039E-08
 -1        26-1.80053E+04 6.22179E+04-1.23956E+04-8.78526E+03 1.57524E-09 6.99401E-11
 -1        27-5.77693E+04-1.98419E+05-7.44211E+04 4.47143E+04 5.34859E-09 3.22022E-09
 -1        28 1.62005E+04-5.78446E+04 1.18248E+04 1.84746E+04 3.87459E-09 3.50537E-09
 -1        32-7.84180E+05-1.80017E+05 3.19431E+05-5.24497E+05-1.64946E-08 1.34186E-08
 -1        33-1.13533E+05 5.83023E+04 2.06720E+04-3.37123E+04 9.73652E-10-1.12080E-09
 -1        34-1.47272E+05-1.46729E+04 3.46442E+02 4.53319E+04 2.52543E-09 3.09653E-09
 -1        35-1.64752E+04-2.29887E+04-9.01007E+02 3.64589E+04 4.37291E-09-5.81046E-09
 -1        51 1.37931E+04-3.66557E+05 3.59829E+04-9.42868E+05 1.45519E-10 1.06811E-08
 -1        52 8.84541E+03-3.65739E+05 2.42167E+04-1.09970E+06 4.65661E-10 2.33922E-08
 -1        53 6.76957E+03-3.78251E+05 2.10885E+04-9.39589E+05 2.03727E-10 8.44011E-09
 -1        54 1.94274E+04-3.77001E+05 3.44132E+04-1.10311E+06 2.18279E-11-1.40390E-08
 -1        55 3.85050E+04-3.90170E+05 6.17815E+04-9.39059E+05 3.20142E-10 6.24277E-09
 -1        56-3.40085E+06-3.78899E+05-2.71821E+05-1.31182E+06 2.87400E-10-1.05792E-08
 -1        57-3.51149E+06-6.29338E+05-1.84088E+05-1.29989E+06-1.96451E-10-4.81668E-09
 -1        58-3.45698E+06-4.65507E+05-6.39106E+04-1.29283E+06-1.47156E-09-1.01172E-08
 -1        59-3.44646E+06-5.28048E+05-3.84131E+04-1.32243E+06-3.29078E-09-1.23537E-08
 -1        60-3.46536E+06-4.77741E+05-1.49228E+04-1.29012E+06 1.76442E-10-8.23002E-09
 -1        61-3.43858E+06-5.11828E+05-8.53142E+03-1.32328E+06-1.65949E-09-2.82807E-09
 -1        62-3.46470E+06-4.81429E+05-4.09824E+03-1.29203E+06 1.03682E-10-9.94282E-09
 -1        63-3.44284E+06-5.04277E+05-3.33868E+03-1.31687E+06-1.52102E-09-1.04927E-09
 -1        64-3.46096E+06-4.85333E+05-3.87456E+03-1.29646E+06-4.14275E-10-8.39805E-09
 -1        65-3.45246E+06-4.97101E+05-7.69260E+03-1.30646E+06-2.79124E-09-1.58911E-09
 -1        66-3.45500E+06-4.88703E+05-1.35490E+04-1.30236E+06 1.73395E-09 4.49745E-09
 -1        67-3.47063E+06-5.00574E+05-3.45411E+04-1.29297E+06 1.93836E-09 9.16771E-10
 -1        68-3.44291E+06-4.82145E+05-5.76234E+04-1.30987E+06-1.11504E-09-9.96806E-10
 -1        69-3.53544E+06-5.85943E+05-1.65791E+05-1.26627E+06 3.42425E-09 1.28603E-09
 -1        70-3.39085E+06-4.05424E+05-2.44838E+05-1.32843E+06-2.02635E-09-4.03088E-09
 -1        86-1.25706E+03 1.49383E+05 8.73677E+03-2.21553E+02 1.13459E-09-7.45899E-10
 -1        87 8.32634E+03 1.54963E+05 1.82839E+04 9.10247E+02 1.91471E-09 1.45333E-08
 -1        88-7.06645E+03 1.46538E+05 2.79380E+04-6.88762E+02 2.84854E-09 2.73059E-09
 -1        89 5.26433E+04 1.75624E+05 7.54129E+04 1.98677E+03 4.33647E-09-6.34498E-09
 -1        90-4.54294E+04 1.28742E+05 1.06482E+05-1.29759E+03 4.79486E-09 3.60285E-09
 -1       121-1.38051E+02-7.11968E+05 1.31126E+02 1.29673E+02 4.02054E-10-7.27596E-11
 -1       122-3.26907E+01-7.11542E+05 3.59665E+02-5.19169E+02-1.37473E-09 1.45064E-09
 -1       123-1.76049E+02-7.12007E+05 5.54192E+02 3.88529E+02 1.18092E-09-9.27685E-10
 -1       124 6.33329E+02-7.11143E+05 1.50047E+03-1.16239E+03-2.68892E-09-7.07587E-09
 -1       125-6.04220E+02-7.12383E+05 2.27151E+03 7.72511E+02 1.69848E-09 4.31282E-09
 -1       191-6.36980E+00 2.44355E+05 7.58886E+00-5.57824E-02 1.44425E-10 1.14046E-08
 -1       192-6.45454E+00 2.44335E+05 1.35567E+01 6.62951E-01 2.15590E-10-3.57250E-09
 -1       193-7.93499E+00 2.44355E+05 2.51511E+01-6.11866E-01 2.44144E-10 3.55067E-09
 -1       194-8.34915E+00 2.44337E+05 5.12857E+01 1.63330E+00 4.66249E-11 4.23552E-09
 -1       195-1.09429E+01 2.44353E+05 1.00257E+02-1.03368E+00 3.63471E-10-8.65839E-10
 -1       251-9.02714E+04-3.34577E+04 7.79019E+04 2.13306E+03-5.71390E-10 1.66983E-09
 -1       252-5.35307E+04 3.86774E+04 5.54881E+04-1.08167E+04 3.85455E-10-8.69841E-09
 -1       253-7.67180E+04-5.18984E+03 2.01188E+04 2.44928E+03-3.54362E-10-1.69166E-09
 -1       254-6.96899E+04 5.97955E+03 1.28529E+04-1.14159E+04 8.64020E-11-2.06273E-09
 -1       255-7.42154E+04-8.04570E+02 5.19252E+03 2.73226E+03-5.75824E-11 1.11754E-09
 -1       256-7.28028E+04 9.59951E+02 3.21365E+03-1.18514E+04 6.63135E-10 4.45385E-09
 -1       257-7.36670E+04-1.42175E+02 1.65559E+03 2.88471E+03-1.97602E-10 5.87471E-09
 -1       258-7.33803E+04 3.23228E+02 1.50678E+03-1.20129E+04-1.93303E-11-1.55807E-09
 -1       259-7.36609E+04-1.53206E+02 1.76396E+03 2.89388E+03-3.44528E-10-2.59411E-09
 -1       260-7.28045E+04 1.06047E+03 3.50839E+03-1.18891E+04 1.84158E-10 1.84309E-09
 -1       261-7.42251E+04-8.90054E+02 5.75077E+03 2.76085E+03 1.37834E-09-1.64391E-10
 -1       262-6.94689E+04 6.63291E+03 1.42031E+04-1.14893E+04 4.70948E-11-4.23825E-10
 -1       263-7.69390E+04-5.74870E+03 2.23259E+04 2.49406E+03-9.34051E-10 4.72482E-09
 -1       264-5.17013E+04 4.28733E+04 6.14467E+04-1.09262E+04-2.79900E-09 1.69675E-08
 -1       265-9.18906E+04-3.70705E+04 8.64101E+04 2.19767E+03-1.10379E-09 1.55414E-08
 -1       266-3.61089E+04-1.68819E+04 8.47345E+04-9.05699E+01 5.82077E-11-7.95987E-09
 -1       267 4.18614E+04 1.96803E+04 5.98827E+04 1.04485E+02 1.67347E-10-6.31482E-09
 -1       268-5.61348E+03-2.78705E+03 2.22585E+04-1.33140E+01 9.36780E-11-6.32167E-09
 -1       269 6.62794E+03 3.33576E+03 1.44673E+04 1.55080E+01-1.27329E-11 1.60472E-09
 -1       270-9.94860E+02-5.48080E+02 6.98359E+03-2.10458E+00-7.20775E-11 7.40672E-10
 -1       271-3.51039E+06-4.39338E+05-2.69605E+05-1.36901E+06-2.47383E-10-5.68980E-09
 -1       272-3.59328E+06-6.49438E+05-1.73287E+05-1.38179E+06-6.88033E-10-1.13505E-08
 -1       273-3.56281E+06-5.04766E+05-6.36950E+04-1.35507E+06 1.26875E-10 2.21917E-10
 -1       274-3.53144E+06-5.69848E+05-3.56011E+04-1.40372E+06 4.54747E-11 8.65930E-09
 -1       275-3.57167E+06-5.09788E+05-1.48227E+04-1.35090E+06-3.98359E-10-2.18279E-09
 -1       276-3.52074E+06-5.64302E+05-7.84939E+03-1.41064E+06-2.69847E-09 3.34012E-09
 -1       277-3.57408E+06-5.08965E+05-3.84616E+03-1.34899E+06 6.40739E-10 8.21933E-09
 -1       278-3.51834E+06-5.65097E+05-2.78506E+03-1.41314E+06 2.60070E-09 3.28987E-09
 -1       279-3.57440E+06-5.08696E+05-2.98237E+03-1.34867E+06-1.84400E-10-4.18049E-09
 -1       280-3.51949E+06-5.64952E+05-5.46875E+03-1.41206E+06 1.19030E-09-8.60155E-10
 -1       281-3.57279E+06-5.09252E+05-1.00155E+04-1.34995E+06-3.69255E-10 2.02544E-09
 -1       282-3.52703E+06-5.68215E+05-2.39060E+04-1.40682E+06-4.56566E-10-3.79805E-09
 -1       283-3.56638E+06-5.06407E+05-4.27294E+04-1.35327E+06 4.80668E-10-1.74987E-09
 -1       284-3.56959E+06-6.20216E+05-1.16137E+05-1.39039E+06 2.62503E-10-4.90036E-09
 -1       285-3.53034E+06-4.63562E+05-1.80834E+05-1.36364E+06 1.49885E-09 3.50701E-09
 -1       301 1.45803E+04-1.83468E+04 1.11417E+05-4.56879E+04-7.38510E-10 8.59927E-09
 -1       302 1.56753E+04 9.84138E+03 7.95085E+04-6.72832E+04 1.25488E-09-5.72527E-10
 -1       303 8.53485E+02-8.17812E+03 7.17400E+04-4.57926E+04-1.07866E-09 4.10819E-09
 -1       304 2.78135E+04 2.11642E+04 1.19109E+05-6.70430E+04 1.06047E-09 1.13937E-08
 -1       305 2.74125E+04-2.93984E+04 1.99067E+05-4.58616E+04-7.13044E-10 1.95905E-09
 -1       306-3.91378E+06-4.56358E+05-2.95809E+05-1.53307E+06 2.62298E-09-6.35919E-09
 -1       307-4.07127E+06-7.00350E+05-2.01547E+05-1.47466E+06 1.26056E-09 3.62161E-09
 -1       308-3.98633E+06-5.43087E+05-6.96592E+04-1.49930E+06 6.81212E-10-4.76575E-10
 -1       309-3.97859E+06-6.08387E+05-4.20124E+04-1.52469E+06 6.76209E-10-6.69706E-09
 -1       310-4.00606E+06-5.46464E+05-1.63458E+04-1.48369E+06-1.43120E-09-9.55879E-10
 -1       311-3.95341E+06-6.07178E+05-9.43342E+03-1.54649E+06 6.36408E-09-3.01679E-09
 -1       312-4.01176E+06-5.43788E+05-4.60982E+03-1.47783E+06 2.10784E-09-5.19469E-09
 -1       313-3.95110E+06-6.06149E+05-4.14272E+03-1.54811E+06-3.20642E-09 2.16664E-09
 -1       314-4.00839E+06-5.47441E+05-5.10597E+03-1.48210E+06-2.55909E-09-4.69072E-09
 -1       315-3.96576E+06-5.94512E+05-1.04947E+04-1.53092E+06-6.97128E-10 7.39260E-09
 -1       316-3.99676E+06-5.55709E+05-1.87405E+04-1.49476E+06 2.70779E-09 3.89991E-09
 -1       317-4.00100E+06-5.90041E+05-4.79086E+04-1.49967E+06 2.25754E-09-1.07284E-08
 -1       318-3.97304E+06-5.52365E+05-7.95093E+04-1.51310E+06-5.13319E-09 7.86531E-09
 -1       319-4.10476E+06-6.98573E+05-2.30382E+05-1.44727E+06-3.12593E-09 3.37241E-09
 -1       320-3.89387E+06-4.48989E+05-3.37634E+05-1.54673E+06 8.07631E-09-1.00408E-09
 -1       336 4.97011E+02-7.70746E+05-4.21512E+03 9.77247E+02-6.87942E-09-4.36557E-10
 -1       337-1.54047E+03-7.71765E+05-4.66808E+03-2.48481E+03-1.28908E-08-3.25053E-09
 -1       338 3.36829E+02-7.70849E+05-6.01047E+03 1.50189E+03-8.97830E-09 2.11003E-09
 -1       339-6.23696E+03-7.74687E+05-1.31828E+04-3.51926E+03-1.62861E-08 1.47893E-08
 -1       340 4.20025E+03-7.67901E+05-2.03726E+04 2.00415E+03-1.06002E-08 9.82982E-09
 -1       406 1.25507E+01 2.44344E+05 4.09748E+02 1.73860E-02 4.41815E-10 3.59614E-09
 -1       407 1.39652E+02 2.44420E+05 8.71001E+02-8.07942E+00 6.73026E-11 4.37603E-09
 -1       408 4.45066E+02 2.44281E+05 1.73949E+03 8.21445E+00 5.67979E-10 9.85892E-09
 -1       409 1.87793E+03 2.44976E+05 3.91624E+03-7.89038E+01-3.18323E-11 2.00143E-08
 -1       410 5.40142E+03 2.43786E+05 7.99481E+03 7.36106E+01 6.26642E-10 8.28913E-09
 -1       521-7.39815E+06-7.70383E+05-5.72268E+05-2.71406E+06 3.05590E-10 4.56930E-09
 -1       522-7.04398E+06-1.61100E+06-3.47111E+05-3.11682E+06-2.81489E-08 2.03363E-09
 -1       523-7.61325E+06-7.57762E+05-1.32214E+05-2.45952E+06-1.73623E-09-7.39237E-09
 -1       524-6.84844E+06-1.58606E+06-7.18198E+04-3.43885E+06 3.71269E-08-2.81962E-08
 -1       525-7.63818E+06-7.58123E+05-2.96858E+04-2.42513E+06 2.37833E-08-1.32945E-08
 -1       526-6.86738E+06-1.44680E+06-1.49491E+03-3.26961E+06 1.40044E-08-5.41695E-09
 -1       527-7.56355E+06-9.18513E+05-3.04821E+04-2.60791E+06 1.59707E-08 3.33966E-09
 -1       528-7.10614E+06-1.08766E+06 2.53775E+04-2.78580E+06 1.22091E-08 1.45592E-08
 -1       529-7.35292E+06-1.15029E+06-3.63337E+04-2.87363E+06 1.93613E-08-1.75169E-09
 -1       530-7.59405E+06-6.70744E+05 5.93371E+03-2.35022E+06-4.11092E-09 1.34896E-08
 -1       531-7.10348E+06-1.31522E+06-3.56094E+04-3.06204E+06-3.92793E-08 7.89805E-09
 -1       532-7.96374E+06-4.67135E+05-7.05120E+04-2.16052E+06 2.04377E-08-3.82788E-08
 -1       533-7.03055E+06-1.32131E+06-1.25240E+05-3.10100E+06 6.99583E-09-5.43878E-08
 -1       534-7.92647E+06-7.73290E+05-3.50148E+05-2.19834E+06-7.66886E-09 3.99741E-08
 -1       535-7.11974E+06-1.02890E+06-5.59448E+05-3.00455E+06-9.02219E-09 2.66300E-08
 -1       536-1.03491E+05-1.75265E+04 4.03547E+04-6.22700E+02-1.32843E-09 5.07862E-09
 -1       537-8.44714E+04 2.02885E+04 2.88146E+04-1.73020E+01-8.56673E-09-3.61979E-10
 -1       538-9.67831E+04-2.75831E+03 1.03576E+04-2.34930E+02 6.16183E-10 4.24916E-09
 -1       539-9.23883E+04 3.18455E+03 6.74966E+03-8.38748E+02 3.32476E-09 5.86999E-09
 -1       540-9.55790E+04-4.36471E+02 2.56260E+03 1.98760E+02 9.21119E-10 2.69767E-09
 -1       541-9.39750E+04 4.93949E+02 1.64217E+03-1.64007E+03 3.25976E-10-7.91374E-10
 -1       542-9.52043E+04-6.47143E+01 5.56267E+02 5.66359E+02 2.09624E-10-5.46424E-09
 -1       543-9.45823E+04 4.47023E+01 2.80287E+02-2.25040E+03-1.45425E-09-1.28694E-08
 -1       544-9.49813E+04 1.93828E+01-1.14017E+02 8.09089E+02-4.58996E-10-1.73006E-09
 -1       545-9.49633E+04-1.90147E+02-5.22633E+02-2.57561E+03-1.56757E-09-1.59901E-09
 -1       546-9.48297E+04 1.74853E+02-1.02723E+03 8.91584E+02 1.43419E-09-7.28318E-09
 -1       547-9.54865E+04-1.27184E+03-2.60723E+03-2.56839E+03-2.74082E-09-3.84580E-09
 -1       548-9.44580E+04 1.10021E+03-4.20968E+03 8.01875E+02-3.25089E-09 2.31239E-10
 -1       549-9.83808E+04-8.10670E+03-1.14241E+04-2.22472E+03-1.98408E-09-1.89175E-10
 -1       550-9.19290E+04 6.99937E+03-1.63066E+04 5.47892E+02 3.89974E-10-2.38015E-09
 -1       551 8.64896E+03-3.97858E+05 2.07932E+04-6.73211E+05-3.09155E-08 2.80124E-09
 -1       552 1.91035E+04-4.00946E+05 2.77839E+04-9.58273E+05-2.18715E-08 1.63855E-08
 -1       553 1.30291E+04-4.06166E+05 4.31815E+04-6.70896E+05-3.68163E-08 1.33296E-08
 -1       554 4.14887E+04-3.89558E+05 9.17874E+04-9.59281E+05-2.39925E-08 3.62741E-09
 -1       555 3.97582E+04-4.23862E+05 1.64695E+05-6.71632E+05-3.73911E-08-3.81260E-09
 -1       556 6.09815E+04-1.29045E+05 4.36036E+04-1.68844E+05-2.09548E-09 7.77072E-09
 -1       557 1.13208E+05-1.72342E+05 2.29231E+04-2.11499E+05-5.02041E-10 4.03907E-09
 -1       558 6.07758E+04-1.34844E+05 9.24136E+03-1.63848E+05-3.94357E-09-5.14592E-09
 -1       559 1.06111E+05-1.78286E+05 4.70068E+03-2.14662E+05 5.55519E-09-2.65572E-09
 -1       560 5.92003E+04-1.33798E+05 1.92749E+03-1.64839E+05 2.71393E-09 4.53383E-09
 -1       561 1.03672E+05-1.77656E+05 1.03169E+03-2.16206E+05 1.03319E-09 1.43336E-09
 -1       562 5.79325E+04-1.32950E+05 3.84998E+02-1.65752E+05 1.24419E-09-3.51224E-09
 -1       563 1.02184E+05-1.77016E+05 2.48722E+02-2.17158E+05-2.23554E-09-8.14435E-09
 -1       564 5.71411E+04-1.32440E+05 8.70588E+01-1.66315E+05 1.89539E-09-1.04728E-09
 -1       565 1.01406E+05-1.76683E+05 5.87299E+01-2.17647E+05 1.71894E-10 1.02273E-08
 -1       566 5.68542E+04-1.32249E+05-1.58241E+01-1.66522E+05-5.25142E-09-1.09849E-08
 -1       567 1.01300E+05-1.76631E+05-1.00039E+02-2.17651E+05 5.45083E-09-1.58798E-09
 -1       568 5.71039E+04-1.32414E+05-3.02044E+02-1.66406E+05-1.63891E-09 3.84716E-09
 -1       569 1.01237E+05-1.76522E+05-7.06725E+02-2.16621E+05-1.08957E-09 1.92813E-09
 -1       570 5.84044E+04-1.33587E+05-1.52136E+03-1.66370E+05 1.40790E-09-4.96311E-09
 -1       571 1.77320E+05 6.44984E+03 9.55605E+03-4.50063E+04-2.81943E-11-3.07864E-10
 -1       572 1.78742E+05 2.24448E+03 4.68187E+03-4.93354E+04 7.10770E-10-4.70914E-09
 -1       573 1.77890E+05 5.36357E+02 2.07986E+03-4.48892E+04 1.61117E-09 1.41881E-09
 -1       574 1.78058E+05 1.76378E+02 1.04206E+03-4.94663E+04 3.89491E-10 4.99313E-10
 -1       575 1.77953E+05 2.63892E+01 4.91112E+02-4.48737E+04 1.86287E-09 1.82263E-09
 -1       576 1.77964E+05 9.63648E+00 2.49987E+02-4.94838E+04 6.04160E-10 4.54747E-10
 -1       577 1.77963E+05-8.86260E-01 1.23122E+02-4.48717E+04 8.96819E-09-8.91305E-11
 -1       578 1.77955E+05 1.13243E+00 6.71156E+01-4.94859E+04 1.52415E-08-3.02862E-10
 -1       579 1.77973E+05-2.90851E+00 4.09774E+01-4.48716E+04 8.36962E-09-1.56933E-09
 -1       580 1.77970E+05-4.59717E+00 3.81899E+01-4.94833E+04-1.12050E-09 1.07048E-09
 -1       581 1.77992E+05-9.93388E+00 5.16104E+01-4.48743E+04 1.01591E-09 2.43381E-09
 -1       582 1.78004E+05-2.95662E+00 9.83322E+01-4.94565E+04 1.64118E-09 4.54747E-10
 -1       583 1.78015E+05 2.01102E+01 1.88360E+02-4.48984E+04 1.09594E-09-1.52613E-09
 -1       584 1.78102E+05 1.66214E+02 4.22466E+02-4.92557E+04-3.95175E-10-3.44130E-09
 -1       585 1.77998E+05 5.37904E+02 8.57597E+02-4.50755E+04 7.27596E-12 2.08274E-09
 -1       586-2.12609E+03 5.82849E+04-2.81740E+03-1.53262E+05 3.78805E-10-2.16733E-09
 -1       587-4.43462E+02 5.79061E+04-2.95537E+02-1.68653E+05 6.11180E-10 2.36923E-10
 -1       588 6.16138E+02 5.79783E+04 2.04942E+03-1.53169E+05 3.91083E-10 3.88354E-09
 -1       589 3.03518E+03 5.91021E+04 5.94286E+03-1.68512E+05 5.51154E-10-4.17458E-09
 -1       590 8.70280E+03 5.72697E+04 1.27148E+04-1.53405E+05 2.44654E-10 7.37600E-10
 -1       591-3.89076E+04-1.10797E+04-1.28755E+04-2.01059E+04 2.88708E-10-3.74894E-09
 -1       592-4.01291E+04-1.42260E+04-6.97392E+03-2.34458E+04-7.52607E-11-9.48990E-09
 -1       593-4.02094E+04-1.01311E+04-2.90331E+03-2.10360E+04 6.67796E-10-1.04293E-08
 -1       594-3.83351E+04-1.23544E+04-1.44801E+03-2.35350E+04 7.19012E-10 4.36131E-10
 -1       595-4.03091E+04-1.01267E+04-6.65447E+02-2.10787E+04-1.50453E-09-2.01608E-09
 -1       596-3.82137E+04-1.22686E+04-3.39198E+02-2.35224E+04 1.52789E-09-6.76948E-09
 -1       597-4.03218E+04-1.01350E+04-1.86702E+02-2.10804E+04 6.59170E-10-2.62679E-09
 -1       598-3.82022E+04-1.22653E+04-1.53751E+02-2.35189E+04 1.68711E-10-1.82172E-08
 -1       599-4.03208E+04-1.01350E+04-2.00974E+02-2.10801E+04-1.59162E-11-9.47921E-10
 -1       600-3.82151E+04-1.22697E+04-3.77020E+02-2.35220E+04-8.53959E-10 2.60070E-09
 -1       601-4.03049E+04-1.01262E+04-7.45696E+02-2.10775E+04 4.89649E-10 2.64163E-09
 -1       602-3.83512E+04-1.23659E+04-1.62619E+03-2.35345E+04 5.55656E-09 4.86193E-09
 -1       603-4.01916E+04-1.01327E+04-3.26174E+03-2.10297E+04-6.34373E-11 2.07228E-09
 -1       604-4.03731E+04-1.44613E+04-7.83517E+03-2.34246E+04-2.07547E-09 9.16498E-09
 -1       605-3.87204E+04-1.12047E+04-1.44654E+04-1.99919E+04-1.04524E-09 1.84173E-10
 -1       606 2.51799E+04-8.54273E+03-1.53821E+04 2.45724E+04-5.00404E-09-5.91172E-11
 -1       607 2.25454E+04-2.75605E+03-7.65938E+03 2.75839E+04-1.58616E-09-9.73614E-09
 -1       608 2.40399E+04-4.64951E+02-3.43006E+03 2.43765E+04 4.63842E-09-4.03043E-09
 -1       609 2.37420E+04-1.20586E+02-1.73242E+03 2.78002E+04 6.36646E-10 8.03539E-10
 -1       610 2.39013E+04 2.25214E+01-8.27578E+02 2.43546E+04-1.20690E-09-3.33785E-10
 -1       611 2.38446E+04 3.42681E+01-4.17404E+02 2.78238E+04-6.67933E-09-2.22690E-09
 -1       612 2.38640E+04 3.64571E+01-1.99781E+02 2.43524E+04 4.14911E-09 2.90402E-09
 -1       613 2.38421E+04 4.20427E+01-9.10761E+01 2.78266E+04 1.41877E-08 5.91399E-10
 -1       614 2.38435E+04 3.73458E+01-2.54982E+01 2.43517E+04 8.93942E-09 1.64869E-09
 -1       615 2.38312E+04 4.70960E+01 2.83010E+01 2.78270E+04 3.80760E-09 3.04181E-09
 -1       616 2.38279E+04 4.26071E+01 9.39384E+01 2.43519E+04-2.70256E-09-6.57337E-10
 -1       617 2.38367E+04 7.08250E+01 2.17965E+02 2.78266E+04-4.63842E-10-1.32582E-09
 -1       618 2.38045E+04 1.08289E+02 4.40623E+02 2.43520E+04-2.35104E-10-1.66165E-09
 -1       619 2.39887E+04 4.13910E+02 9.90362E+02 2.78259E+04-1.00601E-09 1.84514E-09
 -1       620 2.36558E+04 1.15556E+03 1.99081E+03 2.43510E+04 1.74839E-09-1.02409E-09
 -1       621 3.03962E+02 1.92666E+05 2.64420E+03 6.63380E+03-2.50864E-10 7.07246E-09
 -1       622 3.48057E+02 1.93322E+05 2.25129E+03 9.68712E+03-2.75463E-10 9.20738E-09
 -1       623 1.41496E+01 1.92854E+05 2.59812E+03 6.60273E+03-2.88196E-10 4.64695E-09
 -1       624 1.17719E+03 1.94082E+05 4.94160E+03 9.71748E+03-2.32689E-10 6.83940E-09
 -1       625 1.18240E+03 1.91901E+05 8.59450E+03 6.60375E+03-2.54659E-11 7.98346E-09
 -1       626 1.59259E+05 4.40616E+04 3.17376E+03 8.60149E+04 6.15228E-09 1.21854E-08
 -1       627 1.57088E+05 4.56588E+04 1.52928E+03 8.94857E+04-2.14732E-09 2.14800E-09
 -1       628 1.59377E+05 4.25605E+04 6.45902E+02 8.64938E+04 9.88621E-10 1.17393E-09
 -1       629 1.56629E+05 4.52976E+04 3.16606E+02 8.96930E+04 4.26417E-09-3.73598E-09
 -1       630 1.59384E+05 4.24897E+04 1.46376E+02 8.65061E+04-2.54659E-11 3.47541E-09
 -1       631 1.56573E+05 4.52898E+04 7.87623E+01 8.96945E+04-4.61114E-10 5.74616E-09
 -1       632 1.59376E+05 4.24957E+04 5.20037E+01 8.64988E+04-8.76344E-09-1.40623E-08
 -1       633 1.56561E+05 4.52946E+04 5.81656E+01 8.96880E+04-7.35940E-09-4.19624E-09
 -1       634 1.59366E+05 4.24966E+04 9.41859E+01 8.64946E+04 3.70437E-09 2.18574E-09
 -1       635 1.56564E+05 4.52962E+04 1.91031E+02 8.96873E+04 3.33898E-09 7.79892E-10
 -1       636 1.59356E+05 4.24959E+04 3.85845E+02 8.64916E+04 1.09992E-09 8.36576E-09
 -1       637 1.56643E+05 4.53578E+04 8.48034E+02 8.96833E+04 5.72584E-10-2.59888E-10
 -1       638 1.59322E+05 4.26851E+04 1.74287E+03 8.64043E+04-2.21723E-09-1.46883E-10
 -1       639 1.57554E+05 4.66327E+04 4.12312E+03 8.94123E+04-6.38329E-09-1.17780E-09
 -1       640 1.59200E+05 4.64804E+04 8.55653E+03 8.47925E+04 4.16549E-10 7.76845E-09
 -1       656 4.31355E+04-1.09180E+06-1.04132E+05-3.65629E+02 1.13869E-09-4.45596E-09
 -1       657-5.69993E+04-1.13881E+06-8.61177E+04 7.03945E+03 1.31877E-10 3.20953E-09
 -1       658 1.36777E+04-1.10521E+06-5.28473E+04-1.36850E+03 3.04794E-10 2.14102E-09
 -1       659-6.11168E+04-1.14076E+06-9.15257E+04 7.70844E+03-1.03955E-09-1.28438E-10
 -1       660 4.72429E+04-1.08986E+06-1.13434E+05-1.03460E+03-8.73115E-11-1.38606E-09
 -1       661 1.54041E+05 1.67688E+04 1.47878E+04 6.02022E+04 2.57410E-09-2.85490E-09
 -1       662 1.61751E+05 2.83592E+04 9.96449E+03 5.76220E+04 1.60253E-09 9.70886E-10
 -1       663 1.56939E+05 2.15184E+04 3.48565E+03 5.93662E+04 3.91083E-10-1.66722E-09
 -1       664 1.58398E+05 2.27990E+04 2.08398E+03 5.86379E+04-3.06295E-09-5.57426E-09
 -1       665 1.57372E+05 2.21728E+04 8.22063E+02 5.92452E+04-1.43493E-09 1.91613E-09
 -1       666 1.57890E+05 2.20460E+04 4.79386E+02 5.87924E+04-5.97716E-09 2.59353E-09
 -1       667 1.57444E+05 2.22517E+04 2.52747E+02 5.92190E+04-3.45645E-09 2.00070E-09
 -1       668 1.57813E+05 2.19830E+04 2.53182E+02 5.88298E+04 3.35294E-09-8.96905E-09
 -1       669 1.57448E+05 2.22339E+04 3.39231E+02 5.92085E+04 2.25047E-09-5.25223E-09
 -1       670 1.57900E+05 2.21614E+04 7.35339E+02 5.88279E+04 7.36976E-09-6.74777E-09
 -1       671 1.57358E+05 2.20770E+04 1.30456E+03 5.92194E+04-2.46935E-10-9.85381E-10
 -1       672 1.58662E+05 2.34287E+04 3.33680E+03 5.86425E+04-4.03919E-09 5.34089E-09
 -1       673 1.56690E+05 2.09985E+04 5.59162E+03 5.93818E+04 7.57495E-10 4.67389E-09
 -1       674 1.63987E+05 3.24092E+04 1.59909E+04 5.70756E+04 7.33053E-10-2.31125E-09
 -1       675 1.52067E+05 1.33476E+04 2.37354E+04 6.06917E+04 4.17367E-09-2.08820E-09
 -1       676 1.75424E+01-2.09243E+05-8.14388E+02 3.65736E+01 1.14085E-09-4.50532E-09
 -1       677-2.16145E+02-2.09440E+05-1.49041E+03-7.31149E+01-1.37109E-09 1.54990E-09
 -1       678 1.44368E+02-2.09103E+05-2.63465E+03 3.65161E+01 8.57312E-10 2.12108E-09
 -1       679-2.63515E+03-2.11030E+05-6.25857E+03-7.28888E+01-1.99270E-09-1.00111E-08
 -1       680 1.57268E+03-2.07653E+05-1.00867E+04 3.59289E+01-8.43102E-10-1.24359E-09
 -1       771-2.24586E+06-3.98178E+05-5.56725E+04-9.37033E+05-1.11977E-08-9.77889E-09
 -1       772-2.23040E+06-4.28732E+05-2.97836E+04-9.71173E+05-7.71252E-09 4.73574E-09
 -1       773-2.25376E+06-3.92017E+05-1.30225E+04-9.40130E+05-3.91447E-09 4.66389E-09
 -1       774-2.22254E+06-4.22349E+05-6.29349E+03-9.75099E+05 6.99947E-09-1.52249E-09
 -1       775-2.25583E+06-3.90637E+05-3.30736E+03-9.40392E+05-3.24508E-09 9.62245E-10
 -1       776-2.22255E+06-4.22434E+05-1.49040E+03-9.77354E+05-1.09139E-09 1.97178E-09
 -1       777-2.25733E+06-3.89539E+05-1.00740E+03-9.40551E+05 2.21189E-09 1.53705E-09
 -1       778-2.22301E+06-4.22693E+05-4.19929E+02-9.79240E+05 3.01225E-09 3.73166E-09
 -1       779-2.25854E+06-3.88605E+05-4.53138E+02-9.40696E+05-3.20870E-09-2.49292E-09
 -1       780-2.22349E+06-4.22903E+05-3.01841E+02-9.80766E+05-7.78527E-10-6.23004E-10
 -1       781-2.25946E+06-3.87860E+05-5.48889E+02-9.40807E+05-5.85351E-09-2.32831E-10
 -1       782-2.22393E+06-4.23097E+05-9.27638E+02-9.81890E+05-1.09267E-08-6.71321E-10
 -1       783-2.26003E+06-3.87368E+05-1.86286E+03-9.40865E+05-2.56841E-09-4.03543E-09
 -1       784-2.22527E+06-4.24363E+05-4.38131E+03-9.82524E+05-5.53700E-09-6.22094E-10
 -1       785-2.25954E+06-3.87699E+05-8.10846E+03-9.40316E+05-1.05074E-08 1.34514E-09
 -1       786 1.63236E+05-8.74981E+03 2.02428E+04-9.06799E+00 9.39274E-07 1.29558E-08
 -1       787 1.72008E+05 1.01296E+04 1.43214E+04 1.70804E+00 1.87105E-06 6.26096E-09
 -1       788 1.66621E+05-1.37163E+03 5.23936E+03-4.56043E+00 1.97931E-06-6.03700E-09
 -1       789 1.68066E+05 1.58706E+03 3.29193E+03-6.97015E+00 2.08469E-06 8.20864E-09
 -1       790 1.67179E+05-2.14270E+02 1.33948E+03-3.89986E-01 2.32015E-06-6.35771E-09
 -1       791 1.67414E+05 2.48950E+02 7.86439E+02-1.62730E+01 2.55650E-06 1.98265E-08
 -1       792 1.67273E+05-3.45286E+01 3.58906E+02 4.74253E+00 3.13585E-06-1.17987E-08
 -1       793 1.67309E+05 4.84789E+01 2.35138E+02-2.89362E+01 3.70924E-06 5.40986E-09
 -1       794 1.67285E+05-1.39322E+01 1.74105E+02 1.22735E+01 1.85589E-06-7.62391E-09
 -1       795 1.67319E+05 7.18529E+01 2.51735E+02-4.84689E+01 6.33974E-09 1.98412E-10
 -1       796 1.67262E+05-5.78855E+01 3.77007E+02 2.42755E+01 2.02400E-10-4.31706E-09
 -1       797 1.67490E+05 4.24350E+02 8.88889E+02-8.02523E+01-6.25533E-10-8.78390E-09
 -1       798 1.67113E+05-3.66170E+02 1.40303E+03 4.40575E+01 2.77467E-10-8.19432E-09
 -1       799 1.68543E+05 2.70369E+03 3.82494E+03-1.33339E+02-6.54396E-10 7.90351E-10
 -1       800 1.66209E+05-2.33539E+03 5.40289E+03 7.73626E+01 9.92939E-11 1.02318E-11
 -1       801-5.08486E+03-1.70681E+05-4.97491E+03 1.88632E+04 1.00963E-08-1.71190E-09
 -1       802 1.78995E+04-7.03630E+04 3.88935E+04-7.28602E+04 2.72553E-08 6.05041E-10
 -1       803-1.19491E+04-1.28077E+05 5.41917E+04 2.10571E+04 2.14131E-08 2.10411E-08
 -1       804 1.12562E+05-1.58649E+04 1.63354E+05-7.31886E+04 2.52421E-08 2.31640E-08
 -1       805-9.98681E+04-2.24815E+05 2.02955E+05 1.91876E+04 9.02219E-09 2.33720E-08
 -1       806-1.93103E+05-4.12224E+04-1.63535E+04-8.02542E+04 5.57520E-10-9.51786E-10
 -1       807-1.94080E+05-3.88667E+04-8.03412E+03-8.45743E+04 1.62572E-09 1.26420E-10
 -1       808-1.93566E+05-3.53154E+04-3.40806E+03-8.30291E+04-3.60842E-10 3.25559E-09
 -1       809-1.92366E+05-3.66348E+04-1.66611E+03-8.48044E+04-1.82922E-10 2.49258E-09
 -1       810-1.93638E+05-3.51072E+04-7.62910E+02-8.31515E+04 2.53544E-09-3.07637E-10
 -1       811-1.92235E+05-3.65466E+04-3.78370E+02-8.47844E+04-1.05410E-09 5.17139E-09
 -1       812-1.93651E+05-3.51228E+04-1.88876E+02-8.31511E+04-1.34241E-09 1.81967E-09
 -1       813-1.92217E+05-3.65489E+04-1.19191E+02-8.47739E+04-6.09361E-10-2.38310E-09
 -1       814-1.93648E+05-3.51288E+04-1.11881E+02-8.31484E+04-4.32010E-11-3.86990E-10
 -1       815-1.92219E+05-3.65509E+04-1.75140E+02-8.47706E+04 9.54742E-10-1.99589E-09
 -1       816-1.93637E+05-3.51277E+04-3.28219E+02-8.31460E+04-4.08772E-09-3.69209E-09
 -1       817-1.92275E+05-3.65824E+04-7.03594E+02-8.47642E+04 1.67574E-10 4.37558E-09
 -1       818-1.93594E+05-3.52267E+04-1.43398E+03-8.30991E+04 1.64164E-09 4.65525E-09
 -1       819-1.93066E+05-3.74430E+04-3.37479E+03-8.45720E+04-4.64865E-09-7.86827E-09
 -1       820-1.93321E+05-3.77784E+04-6.86836E+03-8.20111E+04-1.13687E-10 1.88379E-10
 -1       821-2.49683E+05 1.38467E+04-3.20229E+04 8.63251E+01-1.64835E-10-1.05683E-09
 -1       822-2.63561E+05-1.60299E+04-2.26608E+04-6.07579E+02-2.01191E-09-2.56728E-09
 -1       823-2.55039E+05 2.17080E+03-8.29402E+03 5.49172E+01 1.08684E-09 1.41063E-09
 -1       824-2.57315E+05-2.51262E+03-5.21857E+03-4.63612E+02 6.44373E-12 3.42976E-09
 -1       825-2.55926E+05 3.39724E+02-2.14502E+03-5.76462E+01-2.85778E-09 3.06954E-09
 -1       826-2.56282E+05-4.00674E+02-1.29471E+03-2.01447E+02-5.98588E-09-9.09601E-09
 -1       827-2.56071E+05 6.02586E+01-6.70375E+02-2.07252E+02-3.60418E-09-1.37230E-08
 -1       828-2.56142E+05-1.22223E+02-5.92345E+02 7.82586E+01-5.63353E-09 1.51731E-09
 -1       829-2.56066E+05 6.15283E+01-6.80094E+02-3.37357E+02-5.07855E-10 2.47417E-09
 -1       830-2.56300E+05-4.10677E+02-1.32780E+03 2.69801E+02 2.62553E-09 4.61280E-09
 -1       831-2.55914E+05 3.48687E+02-2.19884E+03-3.98799E+02-2.12882E-09-4.06078E-09
 -1       832-2.57357E+05-2.57870E+03-5.35809E+03 3.01380E+02-1.99475E-09-3.17016E-09
 -1       833-2.55010E+05 2.22802E+03-8.51434E+03-3.68935E+02-1.88275E-09 8.97671E-10
 -1       834-2.63754E+05-1.64550E+04-2.32623E+04 1.63304E+02-6.38728E-10 1.58070E-09
 -1       835-2.49519E+05 1.42141E+04-3.28767E+04-2.60712E+02 5.33369E-09-5.25688E-09
 -1       836-8.31282E+02 2.36206E+05 1.42329E+04-2.06205E+04 1.60844E-09-3.17414E-09
 -1       837 3.13663E+03 2.40612E+05 1.21460E+04-4.14116E+04 2.41653E-09-8.48547E-09
 -1       838-3.03391E+02 2.37433E+05 1.25168E+04-2.05508E+04 2.00635E-09-6.26403E-09
 -1       839 8.03501E+03 2.44264E+05 2.38172E+04-4.14365E+04 2.84490E-09-5.71958E-10
 -1       840-2.41244E+03 2.32522E+05 3.80367E+04-2.05941E+04 1.86265E-09-5.02337E-09
 -1       856-7.72350E+04 6.65139E+03-1.75280E+04-3.93179E+02-4.54565E-09-4.08181E-09
 -1       857-8.44757E+04-7.80097E+03-1.20677E+04 3.99962E+03-3.32875E-09-2.65209E-09
 -1       858-8.00956E+04 9.31965E+02-4.54904E+03-4.10812E+02-3.80300E-09-8.71069E-10
 -1       859-8.11904E+04-1.08342E+03-2.74750E+03 4.02776E+03 4.42967E-10 4.36233E-09
 -1       860-8.05234E+04 1.29597E+02-1.15527E+03-4.21446E+02 1.14704E-09 5.20606E-09
 -1       861-8.06977E+04-1.42998E+02-6.43549E+02 4.04230E+03-5.82571E-09 1.11288E-09
 -1       862-8.05899E+04 1.71621E+01-2.83580E+02-4.25377E+02 3.98710E-09 5.28303E-09
 -1       863-8.06190E+04-1.03345E+01-1.39769E+02 4.04405E+03 9.60236E-09-2.25854E-09
 -1       864-8.06022E+04-1.56387E-01-4.29453E+01-4.23202E+02 5.15243E-09-3.03979E-09
 -1       865-8.05957E+04 2.05564E+01 2.88494E+01 4.03310E+03 6.57921E-09 5.64388E-09
 -1       866-8.06119E+04-1.41128E+01 1.00323E+02-4.14427E+02-1.34364E-09-3.67163E-09
 -1       867-8.05374E+04 1.18384E+02 2.73968E+02 4.00930E+03-3.00530E-09-1.88553E-09
 -1       868-8.06578E+04-9.73706E+01 4.61809E+02-3.99399E+02-1.89118E-10-4.95746E-09
 -1       869-8.01910E+04 8.07511E+02 1.23953E+03 3.96986E+03-4.21051E-09-3.17303E-09
 -1       870-8.09543E+04-6.86204E+02 1.79758E+03-3.74986E+02 1.49799E-09 3.04465E-09
 -1       871-3.66166E+03-7.65441E+03-1.18657E+04 7.77971E+04 2.04182E-09-1.85992E-09
 -1       872-1.59772E+03-1.03077E+04-4.83365E+03 1.00859E+05 1.99361E-09 6.63431E-09
 -1       873-4.40533E+01-9.06841E+03 6.99246E+02 7.76258E+04 1.71735E-09-1.60605E-09
 -1       874 1.81704E+03-7.33631E+03 6.75025E+03 1.00895E+05 4.75939E-09 1.51704E-09
 -1       875 4.32294E+03-1.06707E+04 1.49639E+04 7.77686E+04 1.49430E-09-1.93631E-09
 -1       876 1.94392E+05 3.35247E+04 1.04147E+04 7.89017E+04-3.86734E-09-9.57698E-10
 -1       877 1.94982E+05 3.58167E+04 5.56168E+03 8.19881E+04-5.74414E-09-9.70067E-09
 -1       878 1.95366E+05 3.23719E+04 2.33009E+03 7.97569E+04 6.57110E-10-2.89992E-09
 -1       879 1.93565E+05 3.44060E+04 1.16071E+03 8.20622E+04-1.49726E-10 7.89396E-09
 -1       880 1.95437E+05 3.23589E+04 5.40372E+02 7.97918E+04 1.01500E-09 1.88624E-09
 -1       881 1.93471E+05 3.43461E+04 2.87775E+02 8.20477E+04 6.64807E-09 4.22813E-09
 -1       882 1.95444E+05 3.23673E+04 1.82756E+02 7.97927E+04 5.10624E-09-2.06380E-09
 -1       883 1.93464E+05 3.43433E+04 1.94289E+02 8.20435E+04 1.37783E-09 7.99908E-09
 -1       884 1.95440E+05 3.23652E+04 3.07097E+02 7.97929E+04-5.88500E-10 4.25382E-09
 -1       885 1.93488E+05 3.43477E+04 6.16205E+02 8.20513E+04 6.17091E-09 7.60386E-09
 -1       886 1.95416E+05 3.23472E+04 1.24137E+03 7.97904E+04 6.25403E-09-3.87899E-10
 -1       887 1.93707E+05 3.44907E+04 2.71140E+03 8.20826E+04 1.87015E-09-3.30101E-09
 -1       888 1.95245E+05 3.23774E+04 5.46353E+03 7.97037E+04-4.20394E-09-4.58749E-09
 -1       889 1.96963E+05 3.78706E+04 1.30520E+04 8.19790E+04-1.35033E-09 3.14344E-09
 -1       890 1.93019E+05 3.50216E+04 2.44453E+04 7.76195E+04 3.65162E-09-2.51566E-09
 -1       891-1.23128E+02-1.10526E+05-1.30344E+03 2.10256E+04 1.40017E-09 4.62182E-09
 -1       892-2.13872E+02-1.10837E+05-1.41863E+03 3.18152E+04 2.61707E-10-6.57838E-09
 -1       893-3.64076E+01-1.10567E+05-2.02784E+03 2.10296E+04 1.67029E-09 5.41604E-10
 -1       894-1.11181E+03-1.11616E+05-4.21104E+03 3.17022E+04-7.67614E-10 1.76533E-09
 -1       895-8.68296E+02-1.09692E+05-7.42076E+03 2.11370E+04-1.06172E-09-3.87536E-09
 -1       956-2.44302E+05-3.52161E+03-8.87006E+03 1.61615E+04-4.49336E-09-6.05473E-09
 -1       957-2.46054E+05-1.18649E+03-4.55358E+03 1.94612E+04-2.18188E-09 1.08889E-09
 -1       958-2.45089E+05-9.29602E+01-2.05148E+03 1.60559E+04 2.77760E-09-4.59659E-09
 -1       959-2.45229E+05-1.43818E+01-1.04786E+03 1.95753E+04 1.48930E-10 2.48997E-09
 -1       960-2.45159E+05 3.10607E+01-5.10735E+02 1.60459E+04-2.98678E-09 2.70461E-09
 -1       961-2.45168E+05 2.95626E+01-2.70785E+02 1.95866E+04-6.08929E-09-4.80270E-09
 -1       962-2.45172E+05 2.73336E+01-1.54591E+02 1.60445E+04-2.93426E-09 4.15537E-09
 -1       963-2.45165E+05 3.05856E+01-1.23362E+02 1.95887E+04-7.48832E-09-1.26386E-09
 -1       964-2.45176E+05 2.90393E+01-1.48827E+02 1.60439E+04-5.01768E-09 3.46290E-10
 -1       965-2.45175E+05 3.33197E+01-2.56385E+02 1.95887E+04-5.42269E-09 1.47622E-09
 -1       966-2.45168E+05 3.60844E+01-4.80799E+02 1.60444E+04-6.62612E-09-4.04100E-09
 -1       967-2.45238E+05-4.33511E+00-9.85887E+02 1.95827E+04-1.66779E-10-1.47008E-09
 -1       968-2.45108E+05-7.71118E+01-1.92918E+03 1.60501E+04-6.36737E-09-5.14575E-10
 -1       969-2.46021E+05-1.10371E+03-4.28333E+03 1.95158E+04-1.15656E-08-8.71086E-09
 -1       970-2.44372E+05-3.30012E+03-8.34290E+03 1.61137E+04-3.26213E-09 2.23099E-09
 -1       971-2.32047E+05-1.22495E+03-6.82214E+03 1.13358E+04-4.59931E-09 2.00444E-09
 -1       972-2.33707E+05-8.77178E+02-3.71543E+03 1.58363E+04-3.32602E-09 3.27555E-09
 -1       973-2.32805E+05-6.25342E+00-1.66355E+03 1.12414E+04-2.43745E-09 1.84070E-09
 -1       974-2.32921E+05-5.93380E+00-8.61822E+02 1.59379E+04 8.45148E-10 3.56863E-10
 -1       975-2.32863E+05 2.51427E+01-4.29673E+02 1.12331E+04 8.06722E-10-3.81306E-10
 -1       976-2.32873E+05 2.93100E+01-2.46027E+02 1.59479E+04-3.62934E-09-6.18274E-09
 -1       977-2.32874E+05 2.45962E+01-1.75132E+02 1.12313E+04 1.20167E-09-1.88845E-09
 -1       978-2.32875E+05 3.29957E+01-2.00323E+02 1.59504E+04 1.10890E-08 7.77732E-10
 -1       979-2.32873E+05 2.98264E+01-3.17837E+02 1.12306E+04 5.26751E-09-1.46451E-09
 -1       980-2.32898E+05 3.48768E+01-6.11185E+02 1.59507E+04 7.79085E-09-1.38846E-09
 -1       981-2.32854E+05 4.50589E+01-1.18237E+03 1.12310E+04 5.77666E-09-2.39191E-09
 -1       982-2.33061E+05-5.22643E+01-2.44316E+03 1.59461E+04 4.58169E-09-2.94018E-09
 -1       983-2.32705E+05-3.03080E+01-4.74662E+03 1.12355E+04 5.97811E-09 4.01087E-10
 -1       984-2.35344E+05-2.53064E+03-1.06292E+04 1.58822E+04 1.18353E-08 1.80262E-09
 -1       985-2.30557E+05-3.50328E+03-1.95187E+04 1.12995E+04 1.11559E-08 5.14865E-09
 -3
    1PSTEP                         9           5           1          
  100CL  105 4.92188E-01         409                     0    5           1
 -4  DISP        4    1
 -5  D1          1    2    1    0
 -5  D2          1    2    2    0
 -5  D3          1    2    3    0
 -5  ALL         1    2    0    0    1ALL
 -1         1 1.45790E-04 0.00000E+00 0.00000E+00
 -1         2 1.30296E-04-1.29855E-30 0.00000E+00
 -1         3 1.26775E-04-3.83942E-28-6.61744E-24
 -1         5 8.74289E-05-2.68532E-27 0.00000E+00
 -1         8 1.20647E-04-8.86268E-07 0.00000E+00
 -1         9 1.17873E-04-9.59301E-08 0.00000E+00
 -1        10 1.17091E-04-1.71964E-06 0.00000E+00
 -1        12 8.69990E-05 5.39485E-07-1.65436E-24
 -1        15 9.06758E-05-9.82420E-07-4.13590E-25
 -1        16 9.45519E-05-2.63348E-07 0.00000E+00
 -1        17 8.62558E-05-3.64292E-06 0.00000E+00
 -1        18 8.46604E-05 1.90177E-06 0.00000E+00
 -1        19 8.57093E-05 1.07604E-06 0.00000E+00
 -1        20 8.58463E-05 1.43393E-05 0.00000E+00
 -1        21 8.53159E-05 2.67715E-05 0.00000E+00
 -1        24 1.98349E-05-5.00418E-06 0.00000E+00
 -1        25 8.35376E-05 2.02785E-06 0.00000E+00
 -1        26 8.44826E-05 1.49715E-06 0.00000E+00
 -1        27 8.29881E-05 1.19376E-05 0.00000E+00
 -1        28 8.25254E-05 2.63130E-05 0.00000E+00
 -1        32 0.00000E+00 0.00000E+00 0.00000E+00
 -1        33 8.20130E-05 2.00576E-06 0.00000E+00
 -1        34 8.05691E-05 1.19155E-05 0.00000E+00
 -1        35 7.92000E-05 2.60704E-05 0.00000E+00
 -1        51 1.44158E-04-1.45972E-07 0.00000E+00
 -1        52 1.41129E-04-2.87482E-07 0.00000E+00
 -1        53 1.36978E-04-4.30497E-07 0.00000E+00
 -1        54 1.31990E-04-5.76552E-07 0.00000E+00
 -1        55 1.26451E-04-7.26416E-07-1.75776E-24
 -1        56 1.44421E-04-8.46127E-07 0.00000E+00
 -1        57 1.43200E-04-2.24942E-06 2.64698E-23
 -1        58 1.42129E-04-4.04606E-06 5.29396E-23
 -1        59 1.41138E-04-6.08185E-06 2.64698E-23
 -1        60 1.40167E-04-8.17350E-06 5.29396E-23
 -1        61 1.39148E-04-1.01394E-05-2.64698E-23
 -1        62 1.38017E-04-1.18086E-05 0.00000E+00
 -1        63 1.36715E-04-1.30221E-05 0.00000E+00
 -1        64 1.35199E-04-1.36620E-05 0.00000E+00
 -1        65 1.33431E-04-1.36323E-05 0.00000E+00
 -1        66 1.31399E-04-1.28976E-05 0.00000E+00
 -1        67 1.29099E-04-1.14494E-05 2.64698E-23
 -1        68 1.26552E-04-9.34374E-06 0.00000E+00
 -1        69 1.23794E-04-6.65922E-06 2.64698E-23
 -1        70 1.20866E-04-3.53271E-06 2.64698E-23
 -1        86 1.29949E-04-8.84103E-09 0.00000E+00
 -1        87 1.28907E-04-1.86465E-08 0.00000E+00
 -1        88 1.27174E-04-2.94460E-08-1.65436E-24
 -1        89 1.24753E-04-4.47693E-08 0.00000E+00
 -1        90 1.21651E-04-6.08338E-08 6.61744E-24
 -1       121 1.26504E-04-2.84873E-07-6.61744E-24
 -1       122 1.25694E-04-5.70033E-07 3.30872E-24
 -1       123 1.24344E-04-8.55763E-07-6.61744E-24
 -1       124 1.22457E-04-1.14239E-06 0.00000E+00
 -1       125 1.20038E-04-1.43010E-06 0.00000E+00
 -1       191 8.74169E-05 8.99207E-08 3.30872E-24
 -1       192 8.73811E-05 1.79840E-07 0.00000E+00
 -1       193 8.73214E-05 2.69758E-07-3.30872E-24
 -1       194 8.72378E-05 3.59673E-07 0.00000E+00
 -1       195 8.71303E-05 4.49583E-07 0.00000E+00
 -1       251 1.20460E-04 3.43746E-06 6.61744E-24
 -1       252 1.20286E-04 6.41858E-06 3.30872E-24
 -1       253 1.20114E-04 8.10992E-06-6.61744E-24
 -1       254 1.19944E-04 8.57309E-06 0.00000E+00
 -1       255 1.19774E-04 7.97515E-06 6.61744E-24
 -1       256 1.19604E-04 6.49050E-06 3.30872E-24
 -1       257 1.19433E-04 4.36957E-06-6.61744E-24
 -1       258 1.19261E-04 1.86720E-06 0.00000E+00
 -1       259 1.19089E-04-7.29130E-07 0.00000E+00
 -1       260 1.18917E-04-3.13122E-06 0.00000E+00
 -1       261 1.18746E-04-5.06752E-06 6.61744E-24
 -1       262 1.18575E-04-6.26978E-06 3.30872E-24
 -1       263 1.18406E-04-6.53265E-06-6.61744E-24
 -1       264 1.18234E-04-5.65727E-06 0.00000E+00
 -1       265 1.18061E-04-3.54256E-06 0.00000E+00
 -1       266 1.15651E-04-9.14427E-07 0.00000E+00
 -1       267 1.10656E-04-9.28974E-07 0.00000E+00
 -1       268 1.05661E-04-9.44382E-07-1.65436E-24
 -1       269 1.00666E-04-9.57237E-07 0.00000E+00
 -1       270 9.56709E-05-9.70032E-07 0.00000E+00
 -1       271 1.17633E-04 2.95408E-06 0.00000E+00
 -1       272 1.15026E-04 5.58646E-06-1.32349E-23
 -1       273 1.12831E-04 7.13165E-06-5.29396E-23
 -1       274 1.10993E-04 7.70953E-06 2.64698E-23
 -1       275 1.09464E-04 7.46380E-06 0.00000E+00
 -1       276 1.08183E-04 6.55027E-06-2.64698E-23
 -1       277 1.07089E-04 5.13809E-06 5.29396E-23
 -1       278 1.06115E-04 3.40499E-06 2.64698E-23
 -1       279 1.05192E-04 1.53489E-06 0.00000E+00
 -1       280 1.04251E-04-2.85833E-07 2.64698E-23
 -1       281 1.03222E-04-1.87184E-06 0.00000E+00
 -1       282 1.02038E-04-3.04186E-06 0.00000E+00
 -1       283 1.00634E-04-3.62281E-06 0.00000E+00
 -1       284 9.89529E-05-3.45046E-06 0.00000E+00
 -1       285 9.69317E-05-2.37849E-06-2.64698E-23
 -1       301 1.13699E-04-1.33560E-07 6.61744E-24
 -1       302 1.09566E-04-1.53440E-07-3.30872E-24
 -1       303 1.05530E-04-1.72276E-07 6.61744E-24
 -1       304 1.01646E-04-1.91896E-07 6.61744E-24
 -1       305 9.79684E-05-2.13086E-07 0.00000E+00
 -1       306 1.14928E-04 2.43787E-06 0.00000E+00
 -1       307 1.12636E-04 3.06407E-06 0.00000E+00
 -1       308 1.11040E-04 1.85087E-06 5.29396E-23
 -1       309 1.10067E-04-1.06184E-06 0.00000E+00
 -1       310 1.09565E-04-5.24132E-06 0.00000E+00
 -1       311 1.09346E-04-1.01906E-05 0.00000E+00
 -1       312 1.09180E-04-1.52819E-05 0.00000E+00
 -1       313 1.08830E-04-1.98808E-05 0.00000E+00
 -1       314 1.08093E-04-2.34350E-05-5.29396E-23
 -1       315 1.06782E-04-2.54487E-05 2.64698E-23
 -1       316 1.04806E-04-2.56860E-05 5.29396E-23
 -1       317 1.02110E-04-2.40055E-05 2.64698E-23
 -1       318 9.87577E-05-2.05883E-05-5.29396E-23
 -1       319 9.48599E-05-1.57035E-05 2.64698E-23
 -1       320 9.05973E-05-9.87454E-06 0.00000E+00
 -1       336 1.13553E-04-2.03353E-06-6.61744E-24
 -1       337 1.09359E-04-2.35027E-06-3.30872E-24
 -1       338 1.04520E-04-2.66971E-06 6.61744E-24
 -1       339 9.90471E-05-2.99180E-06 0.00000E+00
 -1       340 9.29540E-05-3.31738E-06 0.00000E+00
 -1       406 8.68437E-05 6.29373E-07 0.00000E+00
 -1       407 8.66645E-05 7.19229E-07 0.00000E+00
 -1       408 8.64614E-05 8.09025E-07 0.00000E+00
 -1       409 8.62345E-05 8.98650E-07 1.65436E-24
 -1       410 8.59837E-05 9.87931E-07 3.30872E-24
 -1       521 9.53866E-05-1.15165E-05 5.29396E-23
 -1       522 1.05198E-04-4.87036E-05 0.00000E+00
 -1       523 1.21487E-04-1.05641E-04 0.00000E+00
 -1       524 1.41430E-04-1.74438E-04 0.00000E+00
 -1       525 1.61784E-04-2.44581E-04 0.00000E+00
 -1       526 1.79284E-04-3.05439E-04 5.29396E-23
 -1       527 1.91021E-04-3.48444E-04 1.05879E-22
 -1       528 1.94223E-04-3.66594E-04 5.29396E-23
 -1       529 1.87597E-04-3.58262E-04 1.05879E-22
 -1       530 1.70610E-04-3.24016E-04 0.00000E+00
 -1       531 1.45155E-04-2.69805E-04 0.00000E+00
 -1       532 1.14140E-04-2.03083E-04 5.29396E-23
 -1       533 8.19807E-05-1.33824E-04 1.05879E-22
 -1       534 5.32682E-05-7.21706E-05 0.00000E+00
 -1       535 3.16110E-05-2.67688E-05 5.29396E-23
 -1       536 8.61360E-05 3.47939E-06 0.00000E+00
 -1       537 8.60197E-05 1.08459E-05 1.65436E-24
 -1       538 8.59056E-05 1.78518E-05 0.00000E+00
 -1       539 8.57985E-05 2.38937E-05 1.65436E-24
 -1       540 8.56985E-05 2.85463E-05 3.30872E-24
 -1       541 8.56052E-05 3.13898E-05 0.00000E+00
 -1       542 8.55153E-05 3.23384E-05 3.30872E-24
 -1       543 8.54254E-05 3.13141E-05 1.65436E-24
 -1       544 8.53326E-05 2.86028E-05-3.30872E-24
 -1       545 8.52353E-05 2.44975E-05 0.00000E+00
 -1       546 8.51344E-05 1.95484E-05 3.30872E-24
 -1       547 8.50323E-05 1.43095E-05-1.65436E-24
 -1       548 8.49317E-05 9.38784E-06 0.00000E+00
 -1       549 8.48361E-05 5.38964E-06-8.27181E-25
 -1       550 8.47443E-05 2.75084E-06 0.00000E+00
 -1       551 7.75029E-05-3.84421E-06-6.61744E-24
 -1       552 6.70542E-05-4.05733E-06-1.65436E-24
 -1       553 5.54822E-05-4.28176E-06 4.96308E-24
 -1       554 4.33681E-05-4.51443E-06 3.30872E-24
 -1       555 3.12932E-05-4.74939E-06 0.00000E+00
 -1       556 8.39233E-05 2.39822E-06 0.00000E+00
 -1       557 8.21250E-05 7.06348E-06 0.00000E+00
 -1       558 8.08034E-05 1.04767E-05 0.00000E+00
 -1       559 7.99060E-05 1.27717E-05 0.00000E+00
 -1       560 7.93805E-05 1.40820E-05 0.00000E+00
 -1       561 7.91750E-05 1.45421E-05 0.00000E+00
 -1       562 7.92384E-05 1.42865E-05 0.00000E+00
 -1       563 7.95195E-05 1.34498E-05 0.00000E+00
 -1       564 7.99676E-05 1.21670E-05 0.00000E+00
 -1       565 8.05321E-05 1.05729E-05 0.00000E+00
 -1       566 8.11623E-05 8.80260E-06 1.65436E-24
 -1       567 8.18080E-05 6.99102E-06-2.06795E-25
 -1       568 8.24187E-05 5.27317E-06 0.00000E+00
 -1       569 8.29440E-05 3.78392E-06 0.00000E+00
 -1       570 8.33335E-05 2.65816E-06 0.00000E+00
 -1       571 8.47241E-05 1.88473E-06 0.00000E+00
 -1       572 8.47891E-05 1.82448E-06-4.13590E-25
 -1       573 8.48546E-05 1.72890E-06 0.00000E+00
 -1       574 8.49203E-05 1.60630E-06-8.27181E-25
 -1       575 8.49860E-05 1.46500E-06 0.00000E+00
 -1       576 8.50518E-05 1.31340E-06 8.27181E-25
 -1       577 8.51176E-05 1.15989E-06 0.00000E+00
 -1       578 8.51833E-05 1.01287E-06 0.00000E+00
 -1       579 8.52491E-05 8.80732E-07 0.00000E+00
 -1       580 8.53149E-05 7.71884E-07 0.00000E+00
 -1       581 8.53807E-05 6.94725E-07 0.00000E+00
 -1       582 8.54465E-05 6.57644E-07 0.00000E+00
 -1       583 8.55123E-05 6.69022E-07-3.30872E-24
 -1       584 8.55780E-05 7.37159E-07 0.00000E+00
 -1       585 8.56438E-05 8.70298E-07 0.00000E+00
 -1       586 8.44458E-05 1.92407E-06 8.27181E-25
 -1       587 8.42043E-05 1.94585E-06-4.13590E-25
 -1       588 8.39643E-05 1.96739E-06 0.00000E+00
 -1       589 8.37542E-05 1.98859E-06 0.00000E+00
 -1       590 8.36028E-05 2.00920E-06 0.00000E+00
 -1       591 8.46355E-05 1.92021E-06 1.03398E-25
 -1       592 8.46208E-05 1.90461E-06 0.00000E+00
 -1       593 8.46162E-05 1.86154E-06 4.13590E-25
 -1       594 8.46194E-05 1.79688E-06 0.00000E+00
 -1       595 8.46284E-05 1.71661E-06-8.27181E-25
 -1       596 8.46409E-05 1.62665E-06 0.00000E+00
 -1       597 8.46549E-05 1.53292E-06-4.13590E-25
 -1       598 8.46680E-05 1.44134E-06-2.06795E-25
 -1       599 8.46781E-05 1.35782E-06 4.13590E-25
 -1       600 8.46830E-05 1.28829E-06 2.06795E-25
 -1       601 8.46805E-05 1.23866E-06-4.13590E-25
 -1       602 8.46683E-05 1.21485E-06-2.06795E-25
 -1       603 8.46443E-05 1.22279E-06-2.06795E-25
 -1       604 8.46064E-05 1.26844E-06-5.16988E-26
 -1       605 8.45525E-05 1.35769E-06-4.13590E-25
 -1       606 8.57213E-05 1.43143E-06 0.00000E+00
 -1       607 8.57308E-05 1.87777E-06 0.00000E+00
 -1       608 8.57398E-05 2.40972E-06 0.00000E+00
 -1       609 8.57484E-05 3.02126E-06 0.00000E+00
 -1       610 8.57569E-05 3.70635E-06 0.00000E+00
 -1       611 8.57653E-05 4.45884E-06 0.00000E+00
 -1       612 8.57737E-05 5.27259E-06 0.00000E+00
 -1       613 8.57819E-05 6.14147E-06 0.00000E+00
 -1       614 8.57902E-05 7.05933E-06 0.00000E+00
 -1       615 8.57984E-05 8.02001E-06 0.00000E+00
 -1       616 8.58065E-05 9.01738E-06 0.00000E+00
 -1       617 8.58146E-05 1.00453E-05 0.00000E+00
 -1       618 8.58227E-05 1.10976E-05 0.00000E+00
 -1       619 8.58307E-05 1.21681E-05 4.13590E-25
 -1       620 8.58387E-05 1.32507E-05 0.00000E+00
 -1       621 8.54486E-05 1.14629E-06 0.00000E+00
 -1       622 8.52191E-05 1.21686E-06 0.00000E+00
 -1       623 8.50145E-05 1.28743E-06-1.65436E-24
 -1       624 8.48279E-05 1.35788E-06 8.27181E-25
 -1       625 8.46528E-05 1.42821E-06-1.65436E-24
 -1       626 8.56517E-05 1.45391E-06 3.30872E-24
 -1       627 8.55666E-05 1.90672E-06 0.00000E+00
 -1       628 8.54561E-05 2.42742E-06 0.00000E+00
 -1       629 8.53230E-05 3.00849E-06 0.00000E+00
 -1       630 8.51701E-05 3.64242E-06 3.30872E-24
 -1       631 8.50001E-05 4.32162E-06-1.65436E-24
 -1       632 8.48160E-05 5.03852E-06 0.00000E+00
 -1       633 8.46207E-05 5.78555E-06 0.00000E+00
 -1       634 8.44168E-05 6.55514E-06 0.00000E+00
 -1       635 8.42073E-05 7.33971E-06 0.00000E+00
 -1       636 8.39949E-05 8.13170E-06 0.00000E+00
 -1       637 8.37827E-05 8.92353E-06 0.00000E+00
 -1       638 8.35732E-05 9.70761E-06 0.00000E+00
 -1       639 8.33694E-05 1.04764E-05 0.00000E+00
 -1       640 8.31738E-05 1.12223E-05-1.65436E-24
 -1       656 8.49562E-05 1.39485E-05-6.61744E-24
 -1       657 8.44115E-05 1.35421E-05 3.30872E-24
 -1       658 8.40823E-05 1.31370E-05-6.61744E-24
 -1       659 8.38351E-05 1.27322E-05 3.30872E-24
 -1       660 8.35199E-05 1.23262E-05 0.00000E+00
 -1       661 8.55175E-05 1.54030E-05 0.00000E+00
 -1       662 8.52111E-05 1.64152E-05 8.27181E-25
 -1       663 8.49234E-05 1.73774E-05 0.00000E+00
 -1       664 8.46539E-05 1.82923E-05 0.00000E+00
 -1       665 8.44014E-05 1.91620E-05 1.65436E-24
 -1       666 8.41652E-05 1.99887E-05-8.27181E-25
 -1       667 8.39443E-05 2.07746E-05 0.00000E+00
 -1       668 8.37381E-05 2.15217E-05-8.27181E-25
 -1       669 8.35457E-05 2.22319E-05-1.65436E-24
 -1       670 8.33664E-05 2.29070E-05 0.00000E+00
 -1       671 8.31996E-05 2.35488E-05 1.65436E-24
 -1       672 8.30446E-05 2.41591E-05-8.27181E-25
 -1       673 8.29008E-05 2.47393E-05-1.65436E-24
 -1       674 8.27670E-05 2.52908E-05 8.27181E-25
 -1       675 8.26435E-05 2.58155E-05 0.00000E+00
 -1       676 8.48496E-05 2.66946E-05 0.00000E+00
 -1       677 8.43835E-05 2.66178E-05 8.27181E-25
 -1       678 8.39178E-05 2.65410E-05-1.65436E-24
 -1       679 8.34528E-05 2.64644E-05-8.27181E-25
 -1       680 8.29885E-05 2.63879E-05 0.00000E+00
 -1       771 1.53378E-05 3.92541E-06 0.00000E+00
 -1       772 1.14498E-05 1.12420E-05 0.00000E+00
 -1       773 8.14478E-06 1.70330E-05 0.00000E+00
 -1       774 5.38412E-06 2.13929E-05 0.00000E+00
 -1       775 3.12975E-06 2.44181E-05 0.00000E+00
 -1       776 1.34195E-06 2.62092E-05 2.64698E-23
 -1       777-1.95053E-08 2.68690E-05 0.00000E+00
 -1       778-9.95705E-07 2.65034E-05 1.32349E-23
 -1       779-1.62805E-06 2.52201E-05-2.64698E-23
 -1       780-1.95869E-06 2.31294E-05 1.32349E-23
 -1       781-2.02991E-06 2.03431E-05 0.00000E+00
 -1       782-1.88460E-06 1.69752E-05-1.32349E-23
 -1       783-1.56570E-06 1.31404E-05-2.64698E-23
 -1       784-1.11651E-06 8.95485E-06 0.00000E+00
 -1       785-5.80419E-07 4.53546E-06 0.00000E+00
 -1       786 8.35932E-05 1.90346E-06 0.00000E+00
 -1       787 8.36521E-05 1.79058E-06 0.00000E+00
 -1       788 8.37107E-05 1.68761E-06 1.65436E-24
 -1       789 8.37701E-05 1.59297E-06 0.00000E+00
 -1       790 8.38294E-05 1.50622E-06 0.00000E+00
 -1       791 8.38889E-05 1.42695E-06 0.00000E+00
 -1       792 8.39483E-05 1.35576E-06-1.65436E-24
 -1       793 8.40079E-05 1.29328E-06 0.00000E+00
 -1       794 8.40674E-05 1.24134E-06 1.65436E-24
 -1       795 8.41269E-05 1.20179E-06 0.00000E+00
 -1       796 8.41864E-05 1.17817E-06 1.65436E-24
 -1       797 8.42459E-05 1.17410E-06 0.00000E+00
 -1       798 8.43053E-05 1.19584E-06 1.65436E-24
 -1       799 8.43647E-05 1.24974E-06-8.27181E-25
 -1       800 8.44240E-05 1.34655E-06 1.65436E-24
 -1       801 7.78908E-05 1.80844E-06-3.30872E-24
 -1       802 6.07882E-05 1.45576E-06 0.00000E+00
 -1       803 3.83976E-05 1.00872E-06 0.00000E+00
 -1       804 1.69376E-05 5.74171E-07-6.61744E-24
 -1       805 2.22006E-06 2.51771E-07 0.00000E+00
 -1       806 8.35086E-05 1.85949E-06 0.00000E+00
 -1       807 8.34749E-05 1.69537E-06 0.00000E+00
 -1       808 8.34373E-05 1.54001E-06-1.65436E-24
 -1       809 8.33947E-05 1.39719E-06 1.65436E-24
 -1       810 8.33459E-05 1.27064E-06 0.00000E+00
 -1       811 8.32896E-05 1.16408E-06 0.00000E+00
 -1       812 8.32243E-05 1.08117E-06 1.65436E-24
 -1       813 8.31488E-05 1.02562E-06 0.00000E+00
 -1       814 8.30617E-05 1.00108E-06 3.30872E-24
 -1       815 8.29616E-05 1.01123E-06 0.00000E+00
 -1       816 8.28470E-05 1.05975E-06-3.30872E-24
 -1       817 8.27168E-05 1.15029E-06 8.27181E-25
 -1       818 8.25694E-05 1.28652E-06-1.65436E-24
 -1       819 8.24037E-05 1.47209E-06-8.27181E-25
 -1       820 8.22183E-05 1.71065E-06 0.00000E+00
 -1       821 8.43946E-05 1.66045E-06 0.00000E+00
 -1       822 8.43012E-05 1.79620E-06-8.27181E-25
 -1       823 8.42082E-05 1.95237E-06-3.30872E-24
 -1       824 8.41141E-05 2.17682E-06 1.65436E-24
 -1       825 8.40200E-05 2.50414E-06 3.30872E-24
 -1       826 8.39257E-05 2.96845E-06 0.00000E+00
 -1       827 8.38312E-05 3.57719E-06-3.30872E-24
 -1       828 8.37366E-05 4.33724E-06-1.65436E-24
 -1       829 8.36419E-05 5.22597E-06 3.30872E-24
 -1       830 8.35471E-05 6.22023E-06 1.65436E-24
 -1       831 8.34523E-05 7.27633E-06-3.30872E-24
 -1       832 8.33577E-05 8.35032E-06 0.00000E+00
 -1       833 8.32632E-05 9.39473E-06 0.00000E+00
 -1       834 8.31698E-05 1.03623E-05 0.00000E+00
 -1       835 8.30761E-05 1.12205E-05 8.27181E-25
 -1       836 8.42147E-05 1.58182E-06 1.65436E-24
 -1       837 8.38367E-05 1.66837E-06 0.00000E+00
 -1       838 8.33880E-05 1.75476E-06 0.00000E+00
 -1       839 8.29080E-05 1.84059E-06 0.00000E+00
 -1       840 8.24366E-05 1.92629E-06 0.00000E+00
 -1       856 8.29625E-05 1.26384E-05 0.00000E+00
 -1       857 8.29339E-05 1.34411E-05 2.06795E-25
 -1       858 8.29055E-05 1.43297E-05-8.27181E-25
 -1       859 8.28764E-05 1.52881E-05 4.13590E-25
 -1       860 8.28473E-05 1.63001E-05 8.27181E-25
 -1       861 8.28180E-05 1.73494E-05 4.13590E-25
 -1       862 8.27887E-05 1.84198E-05 0.00000E+00
 -1       863 8.27593E-05 1.94948E-05 0.00000E+00
 -1       864 8.27300E-05 2.05583E-05 0.00000E+00
 -1       865 8.27006E-05 2.15938E-05-4.13590E-25
 -1       866 8.26714E-05 2.25851E-05 8.27181E-25
 -1       867 8.26421E-05 2.35160E-05 0.00000E+00
 -1       868 8.26129E-05 2.43702E-05 8.27181E-25
 -1       869 8.25838E-05 2.51318E-05-4.13590E-25
 -1       870 8.25547E-05 2.57847E-05 8.27181E-25
 -1       871 8.24807E-05 1.19367E-05 4.13590E-25
 -1       872 8.20723E-05 1.19337E-05 0.00000E+00
 -1       873 8.17201E-05 1.19304E-05 0.00000E+00
 -1       874 8.13809E-05 1.19266E-05 0.00000E+00
 -1       875 8.10115E-05 1.19224E-05 2.06795E-25
 -1       876 8.28148E-05 1.26470E-05 1.65436E-24
 -1       877 8.26250E-05 1.34061E-05 1.65436E-24
 -1       878 8.24190E-05 1.42088E-05 0.00000E+00
 -1       879 8.21989E-05 1.50496E-05-1.65436E-24
 -1       880 8.19666E-05 1.59228E-05 0.00000E+00
 -1       881 8.17244E-05 1.68228E-05-3.30872E-24
 -1       882 8.14741E-05 1.77440E-05 3.30872E-24
 -1       883 8.12180E-05 1.86809E-05 1.65436E-24
 -1       884 8.09580E-05 1.96279E-05 0.00000E+00
 -1       885 8.06964E-05 2.05795E-05-1.65436E-24
 -1       886 8.04350E-05 2.15301E-05 3.30872E-24
 -1       887 8.01761E-05 2.24740E-05-8.27181E-25
 -1       888 7.99216E-05 2.34058E-05 0.00000E+00
 -1       889 7.96733E-05 2.43197E-05-8.27181E-25
 -1       890 7.94334E-05 2.52102E-05-1.65436E-24
 -1       891 8.20819E-05 2.62724E-05-8.27181E-25
 -1       892 8.16210E-05 2.62317E-05 0.00000E+00
 -1       893 8.11224E-05 2.61910E-05 0.00000E+00
 -1       894 8.05660E-05 2.61504E-05 2.06795E-25
 -1       895 7.99318E-05 2.61098E-05-2.06795E-25
 -1       956 8.19244E-05 2.41639E-06 0.00000E+00
 -1       957 8.18344E-05 2.88465E-06 8.27181E-25
 -1       958 8.17441E-05 3.40449E-06 1.65436E-24
 -1       959 8.16537E-05 3.96947E-06 8.27181E-25
 -1       960 8.15631E-05 4.57316E-06 0.00000E+00
 -1       961 8.14725E-05 5.20909E-06 8.27181E-25
 -1       962 8.13819E-05 5.87077E-06-1.65436E-24
 -1       963 8.12913E-05 6.55174E-06 0.00000E+00
 -1       964 8.12007E-05 7.24549E-06 3.30872E-24
 -1       965 8.11100E-05 7.94553E-06 0.00000E+00
 -1       966 8.10194E-05 8.64541E-06 0.00000E+00
 -1       967 8.09288E-05 9.33861E-06-1.65436E-24
 -1       968 8.08383E-05 1.00187E-05 0.00000E+00
 -1       969 8.07479E-05 1.06791E-05-1.65436E-24
 -1       970 8.06578E-05 1.13135E-05 0.00000E+00
 -1       971 8.04846E-05 1.25357E-05 1.65436E-24
 -1       972 8.03990E-05 1.32314E-05-8.27181E-25
 -1       973 8.03132E-05 1.39942E-05-3.30872E-24
 -1       974 8.02273E-05 1.48156E-05 8.27181E-25
 -1       975 8.01412E-05 1.56868E-05-1.65436E-24
 -1       976 8.00551E-05 1.65991E-05 1.65436E-24
 -1       977 7.99690E-05 1.75439E-05 3.30872E-24
 -1       978 7.98829E-05 1.85125E-05 0.00000E+00
 -1       979 7.97967E-05 1.94960E-05 0.00000E+00
 -1       980 7.97106E-05 2.04859E-05 0.00000E+00
 -1       981 7.96245E-05 2.14734E-05 3.30872E-24
 -1       982 7.95385E-05 2.24497E-05 0.00000E+00
 -1       983 7.94526E-05 2.34063E-05-3.30872E-24
 -1       984 7.93670E-05 2.43344E-05 0.00000E+00
 -1       985 7.92819E-05 2.52252E-05 0.00000E+00
 -3
    1PSTEP                        10           5           1          
  100CL  105 4.92188E-01         409                     0    5           1
 -4  STRESS      6    1
 -5  SXX         1    4    1    1
 -5  SYY         1    4    2    2
 -5  SZZ         1    4    3    3
 -5  SXY         1    4    1    2
 -5  SYZ         1    4    2    3
 -5  SZX         1    4    3    1
 -1         1-1.98252E+06-8.69705E+05-4.21709E+05-1.15624E+06 7.27596E-12-9.31323E-10
 -1         2 2.47777E+03-2.17733E+04 8.10691E+03-6.91191E+01-1.23009E-10-1.34060E-08
 -1         3-1.25115E+02-8.13538E+05 1.91441E+02-3.49252E+02-1.91548E-10-6.76300E-09
 -1         5-4.72541E+00 2.57294E+05 6.72638E+00 1.16653E-01 1.27199E-10 6.42603E-09
 -1         8-9.40459E+05-3.67549E+05-6.93090E+04-5.67292E+05 3.05590E-10 5.88625E-09
 -1         9-1.73864E+06-5.16875E+05-2.09264E+05-5.36660E+05 2.88710E-09 4.90108E-09
 -1        10-6.81697E+02-8.47536E+05-1.14315E+03-2.36029E+03-3.98404E-09-6.55282E-09
 -1        12-1.96820E+00 2.57308E+05 2.18014E+02 9.96721E-01 1.98238E-10 1.77895E-08
 -1        15 2.01040E+03 1.10484E+03 6.49860E+03 4.34262E+00 1.57200E-10 7.12701E-10
 -1        16-3.30509E+06-1.24892E+06-5.28803E+05-1.29766E+06 1.21217E-08 1.00117E-08
 -1        17-9.93143E+05-5.88117E+05-1.94004E+05-5.31473E+05-5.73200E-09 4.51109E-10
 -1        18-3.27248E+04-1.25070E+04-2.77442E+04-6.28272E+04 1.31729E-09 4.88808E-09
 -1        19 8.08405E+04 9.58942E+04-4.95107E+02 1.57606E+04-4.23097E-10 6.96309E-10
 -1        20-3.51399E+04-3.81917E+05-8.43440E+04 2.73692E+04 1.03758E-09 5.96689E-09
 -1        21-3.57559E+01-2.19764E+05-7.08317E+02-7.02864E+01-1.36071E-08 9.41942E-10
 -1        24-3.24361E+06-9.34686E+05-4.22580E+05-1.19784E+06-2.89801E-08-1.38534E-08
 -1        25 3.40719E+03-1.26253E+05-1.12656E+04-1.11522E+05 3.87809E-10 1.44624E-08
 -1        26-2.02723E+04 6.50117E+04-1.33067E+04-8.60725E+03 1.53050E-09-3.30750E-09
 -1        27-6.04121E+04-2.09293E+05-7.84247E+04 4.71710E+04 5.86806E-09-1.31816E-09
 -1        28 1.69957E+04-6.08658E+04 1.24245E+04 1.91907E+04 8.41226E-10-6.92772E-09
 -1        32-8.72456E+05-4.17714E+05 2.83917E+05-5.48856E+05-1.90339E-08 8.71586E-09
 -1        33-1.20114E+05 6.12996E+04 2.17603E+04-3.47480E+04 9.98265E-10 5.09650E-09
 -1        34-1.55212E+05-1.55218E+04 3.71324E+02 4.79834E+04 2.97544E-09 5.35480E-09
 -1        35-1.72890E+04-2.41862E+04-9.49104E+02 3.82825E+04 6.46806E-09 2.31861E-09
 -1        51 1.58853E+04-3.63739E+05 4.05610E+04-9.58282E+05-8.73115E-11 8.01811E-09
 -1        52 9.65407E+03-3.62277E+05 2.66425E+04-1.11765E+06 8.00355E-11-5.82077E-11
 -1        53 7.03902E+03-3.75557E+05 2.23443E+04-9.54936E+05 4.22006E-10-1.26747E-08
 -1        54 1.99515E+04-3.74311E+05 3.54576E+04-1.12113E+06 7.27596E-11-7.67250E-09
 -1        55 3.93412E+04-3.87789E+05 6.30449E+04-9.54389E+05 8.58563E-10 1.52795E-09
 -1        56-3.78489E+06-4.20702E+05-3.06074E+05-1.46095E+06 5.52973E-10-1.32422E-09
 -1        57-3.91261E+06-6.99780E+05-2.07320E+05-1.44402E+06 1.10958E-10-4.07454E-10
 -1        58-3.84795E+06-5.18429E+05-7.19523E+04-1.43973E+06 4.63842E-10 2.19734E-09
 -1        59-3.83962E+06-5.85367E+05-4.32481E+04-1.46902E+06-1.77715E-09 5.57520E-09
 -1        60-3.85724E+06-5.32368E+05-1.67939E+04-1.43687E+06-1.66438E-10-8.63110E-09
 -1        61-3.83102E+06-5.66809E+05-9.59332E+03-1.46966E+06 2.52066E-09-3.74439E-09
 -1        62-3.85636E+06-5.36651E+05-4.59259E+03-1.43916E+06-4.40878E-10-1.93108E-09
 -1        63-3.83600E+06-5.58148E+05-3.71869E+03-1.46229E+06-2.57842E-09 6.36646E-09
 -1        64-3.85212E+06-5.41065E+05-4.27060E+03-1.44416E+06 2.21007E-10 5.05952E-09
 -1        65-3.84668E+06-5.50202E+05-8.47367E+03-1.45082E+06-5.02951E-10 1.76697E-08
 -1        66-3.84562E+06-5.44686E+05-1.48751E+04-1.45056E+06 3.42766E-10 9.92077E-09
 -1        67-3.86624E+06-5.54488E+05-3.79791E+04-1.43656E+06 1.84326E-09-9.57152E-09
 -1        68-3.83272E+06-5.37076E+05-6.33015E+04-1.45836E+06-1.72440E-09-3.53612E-09
 -1        69-3.93633E+06-6.49503E+05-1.82248E+05-1.40852E+06-1.47338E-10 8.09814E-09
 -1        70-3.77628E+06-4.51970E+05-2.69079E+05-1.47791E+06-3.45972E-09 7.74162E-09
 -1        86-1.24599E+03-2.45110E+04 8.63856E+03 3.45388E+01 1.16120E-09 7.27368E-10
 -1        87 8.24306E+03-1.89917E+04 1.80811E+04-1.27411E+02 1.93086E-09 8.15487E-09
 -1        88-6.99267E+03-2.72919E+04 2.76377E+04 9.28214E+01 2.81943E-09 9.12894E-09
 -1        89 5.20824E+04 1.32969E+03 7.45699E+04-1.52993E+02 4.29645E-09 8.75468E-09
 -1        90-4.49350E+04-4.48159E+04 1.05351E+05 6.05805E+01 4.53292E-09 2.25680E-09
 -1       121-1.90613E+02-8.14064E+05 1.34890E+02 1.74360E+02 4.16769E-10 7.76345E-09
 -1       122-6.09064E+01-8.13502E+05 4.12129E+02-6.98113E+02-1.63859E-09 6.41649E-09
 -1       123-2.33164E+02-8.14109E+05 6.17836E+02 5.22169E+02 1.39630E-09 2.24827E-09
 -1       124 7.03205E+02-8.13053E+05 1.71393E+03-1.54051E+03-3.06773E-09 1.64828E-08
 -1       125-7.20970E+02-8.14540E+05 2.57734E+03 1.01598E+03 2.03863E-09-3.59069E-09
 -1       191-5.18411E+00 2.57316E+05 8.04697E+00-5.88463E-02 1.23326E-10-1.27693E-09
 -1       192-5.34341E+00 2.57294E+05 1.42414E+01 6.22921E-01 1.43416E-10-3.38105E-10
 -1       193-6.82725E+00 2.57315E+05 2.64919E+01-5.67666E-01 2.02166E-10 1.45064E-09
 -1       194-7.33217E+00 2.57296E+05 5.38666E+01 1.51625E+00 8.80140E-11-9.26502E-09
 -1       195-9.98503E+00 2.57313E+05 1.05372E+02-9.58403E-01 3.52074E-10 1.28284E-09
 -1       251-4.92662E+05-1.82536E+04 4.23432E+04-1.69326E+03 8.79936E-11 3.24508E-09
 -1       252-4.71748E+05 2.10914E+04 3.03323E+04-4.16454E+03-5.60931E-10-5.64341E-10
 -1       253-4.85429E+05-2.85426E+03 1.08703E+04 9.13288E+02-2.71484E-10-1.65164E-09
 -1       254-4.80543E+05 3.26964E+03 7.12829E+03-8.95581E+03-1.19377E-09 3.73609E-09
 -1       255-4.83929E+05-4.53367E+02 2.79220E+03 3.09782E+03-1.20758E-09-3.07296E-10
 -1       256-4.82606E+05 5.43912E+02 1.84208E+03-1.24533E+04 1.70220E-09 9.71315E-09
 -1       257-4.83437E+05-8.61807E+01 9.64479E+02 4.41083E+03 7.46354E-11 3.86737E-09
 -1       258-4.83171E+05 2.31150E+02 9.84984E+02-1.39596E+04-9.09779E-11-1.22702E-08
 -1       259-4.83402E+05-1.13559E+02 1.24999E+03 4.60423E+03-9.10404E-10 3.20318E-09
 -1       260-4.82656E+05 8.04482E+02 2.59890E+03-1.31931E+04 5.45555E-11 4.84249E-09
 -1       261-4.83931E+05-6.72604E+02 4.24751E+03 3.64424E+03 4.18311E-10 6.44741E-09
 -1       262-4.79941E+05 4.96252E+03 1.06402E+04-1.02994E+04-2.26009E-10 2.60229E-09
 -1       263-4.86051E+05-4.30579E+03 1.65943E+04 1.71049E+03-7.87168E-10-6.58110E-09
 -1       264-4.66742E+05 3.19937E+04 4.58635E+04-5.88195E+03-3.16709E-09 8.87258E-09
 -1       265-4.97049E+05-2.76587E+04 6.44083E+04-7.73206E+02-1.97701E-09 1.76260E-08
 -1       266-3.63937E+04-1.70149E+04 8.54031E+04-9.29310E+01 1.81899E-11 8.67661E-09
 -1       267 4.21916E+04 1.98355E+04 6.03550E+04 1.07208E+02 1.67347E-10 3.62240E-08
 -1       268-5.65775E+03-2.80903E+03 2.24341E+04-1.36611E+01 4.82032E-11 2.76625E-08
 -1       269 6.68022E+03 3.36208E+03 1.45814E+04 1.59122E+01-5.63887E-11 2.50717E-08
 -1       270-1.00270E+03-5.52398E+02 7.03867E+03-2.15943E+00-1.75078E-11 2.22588E-08
 -1       271-3.49222E+06-4.37073E+05-2.67064E+05-1.36147E+06 1.36424E-09-1.76078E-09
 -1       272-3.57808E+06-6.41591E+05-1.71675E+05-1.36998E+06 2.70347E-10-1.23327E-08
 -1       273-3.54406E+06-5.02014E+05-6.30959E+04-1.34776E+06 1.48111E-09 2.37924E-09
 -1       274-3.51680E+06-5.62673E+05-3.52698E+04-1.39154E+06 1.01500E-09 4.85670E-09
 -1       275-3.55284E+06-5.07001E+05-1.46898E+04-1.34362E+06 1.22964E-09 1.54068E-09
 -1       276-3.50605E+06-5.57295E+05-7.77403E+03-1.39849E+06 3.21097E-09 2.55386E-09
 -1       277-3.55533E+06-5.06084E+05-3.81526E+03-1.34161E+06 1.74896E-09 1.66392E-09
 -1       278-3.50340E+06-5.58375E+05-2.75518E+03-1.40133E+06 2.81455E-09-6.85229E-09
 -1       279-3.55584E+06-5.05610E+05-2.94444E+03-1.34108E+06-1.10023E-09 2.53658E-09
 -1       280-3.50416E+06-5.58676E+05-5.40243E+03-1.40084E+06 1.49157E-09 3.50428E-09
 -1       281-3.55452E+06-5.05867E+05-9.86711E+03-1.34204E+06 4.30646E-10 6.49106E-09
 -1       282-3.51112E+06-5.62461E+05-2.35982E+04-1.39642E+06-1.05797E-09 8.53834E-09
 -1       283-3.54853E+06-5.02705E+05-4.21244E+04-1.34496E+06 3.56977E-10 1.28421E-09
 -1       284-3.55255E+06-6.14443E+05-1.14600E+05-1.38106E+06-8.35200E-10 2.85945E-09
 -1       285-3.51334E+06-4.60035E+05-1.78359E+05-1.35479E+06 1.80080E-10 1.09212E-08
 -1       301 1.67719E+04-3.05798E+04 1.26146E+05-6.58648E+04-5.45697E-10-8.12042E-09
 -1       302 1.78837E+04 1.33458E+03 8.75736E+04-9.69564E+04 1.78488E-09-4.31828E-09
 -1       303 9.70228E+02-1.86822E+04 7.52013E+04-6.59831E+04-5.20231E-10 5.15865E-09
 -1       304 2.79559E+04 1.09221E+04 1.20642E+05-9.66030E+04 1.03500E-09 3.86353E-09
 -1       305 2.73681E+04-3.96442E+04 1.99322E+05-6.61967E+04-4.72937E-10-4.49290E-10
 -1       306-4.44067E+06-5.13961E+05-3.33778E+05-1.73294E+06 2.47383E-09 1.38243E-09
 -1       307-4.60280E+06-8.03019E+05-2.27148E+05-1.68274E+06 1.80989E-10 6.73026E-10
 -1       308-4.52616E+06-6.07676E+05-7.85996E+04-1.69009E+06-9.09495E-13 3.16504E-10
 -1       309-4.49478E+06-7.03752E+05-4.73644E+04-1.74489E+06 2.19927E-09 2.60843E-09
 -1       310-4.54853E+06-6.10900E+05-1.83606E+04-1.67175E+06-9.06823E-10 1.62527E-09
 -1       311-4.46991E+06-6.99025E+05-1.06576E+04-1.76575E+06 7.02127E-09 5.59066E-09
 -1       312-4.55136E+06-6.11786E+05-5.21713E+03-1.66963E+06-3.60160E-10-6.80348E-09
 -1       313-4.47675E+06-6.87293E+05-4.52303E+03-1.75485E+06-7.26800E-10 2.99474E-09
 -1       314-4.54133E+06-6.22833E+05-5.97777E+03-1.68242E+06-1.45656E-09-5.01723E-09
 -1       315-4.50598E+06-6.60812E+05-1.16195E+04-1.71977E+06 3.23780E-10 6.52108E-10
 -1       316-4.52153E+06-6.38749E+05-2.14076E+04-1.70423E+06 3.38991E-09-2.67846E-09
 -1       317-4.55648E+06-6.46205E+05-5.41831E+04-1.67405E+06 6.47987E-09-6.26824E-09
 -1       318-4.49105E+06-6.37722E+05-9.00585E+04-1.72811E+06-7.15318E-09 1.33878E-09
 -1       319-4.67565E+06-7.69016E+05-2.61239E+05-1.61511E+06-1.72713E-09-6.40284E-10
 -1       320-4.40382E+06-5.17703E+05-3.82551E+05-1.76303E+06 1.08630E-08-7.63976E-09
 -1       336 5.30398E+02-8.81269E+05-4.87001E+03 1.34019E+03-7.77527E-09 2.03545E-09
 -1       337-1.78868E+03-8.82359E+05-5.40232E+03-3.36664E+03-1.51938E-08 2.54659E-09
 -1       338 3.60849E+02-8.81382E+05-7.01272E+03 2.01756E+03-1.03723E-08-2.88856E-09
 -1       339-7.27612E+03-8.85802E+05-1.53739E+04-4.69937E+03-1.91947E-08-6.16637E-09
 -1       340 4.87516E+03-8.77944E+05-2.37881E+04 2.66254E+03-1.28621E-08 7.29051E-09
 -1       406 1.46898E+01 2.57304E+05 4.30420E+02-5.28009E-02 4.12143E-10 9.04038E-09
 -1       407 1.48100E+02 2.57383E+05 9.14780E+02-6.95169E+00-1.13687E-13-7.60701E-09
 -1       408 4.68923E+02 2.57238E+05 1.82701E+03 7.14831E+00 5.92536E-10 6.50425E-09
 -1       409 1.97363E+03 2.57967E+05 4.11310E+03-6.92227E+01-1.76215E-11 6.33372E-09
 -1       410 5.67409E+03 2.56718E+05 8.39674E+03 6.47774E+01 5.27507E-10 2.84672E-09
 -1       521-7.70384E+06-7.54793E+05-6.42652E+05-2.65057E+06-3.96722E-09 3.49246E-09
 -1       522-6.56822E+06-1.85935E+06-3.04377E+05-3.48776E+06-6.13254E-08-1.69093E-08
 -1       523-7.89241E+06-5.69705E+05-1.40682E+05-2.19782E+06 3.26327E-09-3.50774E-08
 -1       524-6.50932E+06-1.93562E+06-6.12372E+04-4.06953E+06 3.02848E-08-6.69197E-08
 -1       525-7.90562E+06-5.69573E+05-3.32807E+04-2.16372E+06 2.62262E-08-3.04526E-08
 -1       526-6.43169E+06-1.69380E+06 3.89692E+04-3.64351E+06 1.09394E-08-1.32623E-08
 -1       527-7.85151E+06-8.97280E+05-8.63568E+04-2.54787E+06 2.28320E-08 4.54747E-10
 -1       528-6.73556E+06-1.03556E+06 1.00352E+05-2.65694E+06 4.13638E-09 2.33740E-09
 -1       529-7.46184E+06-1.32682E+06-9.73762E+04-3.03986E+06-3.18687E-09 2.13295E-08
 -1       530-7.77241E+06-2.60315E+05 5.29553E+04-1.94605E+06-2.90893E-08 3.78168E-08
 -1       531-6.92584E+06-1.59132E+06-4.42735E+04-3.33046E+06-8.08468E-08 1.94632E-09
 -1       532-8.54593E+06 1.06901E+05-5.86934E+04-1.73953E+06 4.36121E-08-5.98229E-08
 -1       533-6.82821E+06-1.59727E+06-1.26953E+05-3.36600E+06 2.29120E-08-1.01831E-07
 -1       534-8.18079E+06-3.29617E+05-3.08890E+05-1.81566E+06-2.42144E-08 6.61021E-08
 -1       535-7.20148E+06-1.22167E+06-6.17072E+05-3.17331E+06-9.28412E-09 4.78176E-08
 -1       536-2.61730E+05-1.42129E+04 3.28320E+04-3.88411E+03-8.44437E-10-1.22418E-09
 -1       537-2.47118E+05 1.65030E+04 2.33048E+04 6.59750E+03-1.39799E-08-6.13909E-11
 -1       538-2.56644E+05-2.21570E+03 8.41241E+03-3.49698E+03 7.17137E-10 9.42737E-09
 -1       539-2.51895E+05 2.66247E+03 5.71629E+03 4.57192E+03 1.13265E-08 5.93025E-09
 -1       540-2.56895E+05-3.95243E+02 1.82213E+03-1.85826E+03 7.95808E-10 1.11918E-08
 -1       541-2.51472E+05 5.04626E+02 1.87997E+03 6.80409E+02-6.14580E-09 9.84079E-09
 -1       542-2.57061E+05-1.20891E+02 4.11898E+01 3.94813E+02 2.24298E-09 2.91149E-09
 -1       543-2.52354E+05 7.39192E+01 5.72145E+02-3.57789E+03 3.29109E-10-6.13659E-09
 -1       544-2.56052E+05 2.64137E+01-5.55056E+02 2.40000E+03-3.10220E-09-1.24395E-08
 -1       545-2.54459E+05-3.54890E+02-9.33174E+02-6.58247E+03-1.49691E-09-5.15638E-09
 -1       546-2.54979E+05 3.72646E+02-1.98465E+03 3.39976E+03 9.78126E-10-4.51405E-09
 -1       547-2.55991E+05-2.39535E+03-4.91734E+03-7.20777E+03-6.68600E-09 2.25606E-09
 -1       548-2.54513E+05 2.09827E+03-8.03350E+03 3.02556E+03-7.56211E-09 1.33923E-09
 -1       549-2.60389E+05-1.52461E+04-2.13804E+04-5.20099E+03-4.60029E-09-8.42488E-09
 -1       550-2.50568E+05 1.31568E+04-3.11426E+04 1.39254E+03 3.79885E-10-4.41833E-09
 -1       551 1.08889E+04-4.55220E+05 2.19394E+04-7.63345E+05-3.57250E-08-8.64384E-09
 -1       552 2.44949E+04-4.60568E+05 2.90795E+04-1.08675E+06-2.69065E-08 8.78936E-09
 -1       553 1.70396E+04-4.66147E+05 4.43926E+04-7.60627E+05-4.29645E-08 5.82440E-09
 -1       554 4.82505E+04-4.51199E+05 9.39716E+04-1.08793E+06-2.64954E-08 2.92596E-09
 -1       555 4.44375E+04-4.84353E+05 1.68148E+05-7.61403E+05-4.42524E-08-4.83124E-09
 -1       556 7.54562E+04-1.46510E+05 4.97061E+04-1.89197E+05-9.61882E-09-1.32059E-08
 -1       557 1.35031E+05-1.95490E+05 2.61850E+04-2.37511E+05-1.03319E-09 6.78710E-09
 -1       558 7.48582E+04-1.52921E+05 1.04736E+04-1.83703E+05-6.24277E-09-6.80302E-10
 -1       559 1.26434E+05-2.02128E+05 5.35356E+03-2.41450E+05 4.27099E-09-5.77893E-09
 -1       560 7.27534E+04-1.51537E+05 2.14799E+03-1.85057E+05 5.71890E-09 5.69707E-09
 -1       561 1.23269E+05-2.01247E+05 1.16923E+03-2.43460E+05 1.42609E-09 2.26919E-09
 -1       562 7.10695E+04-1.50422E+05 4.13517E+02-1.86269E+05-3.05590E-10 1.35879E-09
 -1       563 1.21293E+05-2.00394E+05 2.84526E+02-2.44725E+05-1.36788E-09-9.60199E-10
 -1       564 7.00026E+04-1.49738E+05 9.56398E+01-1.87026E+05 3.80169E-09-2.23008E-09
 -1       565 1.20231E+05-1.99938E+05 7.91794E+01-2.45393E+05 3.33239E-09-4.52019E-10
 -1       566 6.95865E+04-1.49465E+05 1.45284E+00-1.87324E+05-1.31786E-09 2.81216E-09
 -1       567 1.20043E+05-1.99847E+05-7.26819E+01-2.45444E+05 8.41862E-09 1.36260E-08
 -1       568 6.98551E+04-1.49642E+05-2.69119E+02-1.87201E+05-1.53887E-09 3.98904E-09
 -1       569 1.20068E+05-1.99714E+05-6.32892E+02-2.44271E+05-1.78261E-10 7.45422E-09
 -1       570 7.13559E+04-1.50937E+05-1.41921E+03-1.87134E+05 4.48563E-09-2.67391E-10
 -1       571 1.87588E+05 6.87991E+03 1.01839E+04-4.81759E+04 5.33419E-10 5.25415E-09
 -1       572 1.89102E+05 2.39923E+03 4.98956E+03-5.28137E+04-6.35737E-10 7.73753E-09
 -1       573 1.88195E+05 5.78400E+02 2.21658E+03-4.80528E+04 5.61158E-10-2.73394E-09
 -1       574 1.88372E+05 1.95683E+02 1.11062E+03-5.29518E+04 7.68523E-10-1.24214E-08
 -1       575 1.88261E+05 3.51364E+01 5.23471E+02-4.80365E+04 1.28648E-09-2.32058E-09
 -1       576 1.88273E+05 1.79656E+01 2.66557E+02-5.29702E+04-7.22281E-10-9.12632E-09
 -1       577 1.88272E+05 5.79393E+00 1.31429E+02-4.80344E+04 9.69499E-09-5.27007E-09
 -1       578 1.88264E+05 8.36775E+00 7.19528E+01-5.29725E+04 1.91885E-08 3.93311E-09
 -1       579 1.88284E+05 2.85254E+00 4.44288E+01-4.80343E+04 8.85848E-09-6.32735E-09
 -1       580 1.88281E+05 1.26906E+00 4.22994E+01-5.29696E+04-1.70303E-09-1.42700E-09
 -1       581 1.88307E+05-5.71933E+00 5.80407E+01-4.80372E+04 4.88399E-10 4.66616E-09
 -1       582 1.88322E+05 2.57012E+00 1.11362E+02-5.29408E+04 2.09275E-09 5.06225E-09
 -1       583 1.88333E+05 2.78456E+01 2.13628E+02-4.80631E+04 1.14051E-09 2.08138E-09
 -1       584 1.88434E+05 1.94083E+02 4.79450E+02-5.27239E+04-1.06456E-09-5.49221E-09
 -1       585 1.88314E+05 6.15272E+02 9.73289E+02-4.82545E+04 1.17325E-10-8.80209E-09
 -1       586-2.18297E+03 6.21018E+04-2.84846E+03-1.65178E+05 4.45652E-11-4.27303E-09
 -1       587-4.52022E+02 6.17248E+04-2.21361E+02-1.81775E+05 4.23825E-10-2.83193E-08
 -1       588 6.58456E+02 6.17859E+04 2.26128E+03-1.65082E+05 1.43700E-10-6.84076E-09
 -1       589 3.26478E+03 6.30142E+04 6.45266E+03-1.81615E+05 2.40107E-10 1.13550E-09
 -1       590 9.39344E+03 6.10327E+04 1.37678E+04-1.65341E+05 6.09361E-11-1.92995E-09
 -1       591-4.11396E+04-1.15528E+04-1.35399E+04-2.10553E+04 1.25772E-09-2.81489E-09
 -1       592-4.24825E+04-1.48032E+04-7.33380E+03-2.45014E+04-1.11294E-09-1.04683E-08
 -1       593-4.25077E+04-1.05561E+04-3.05312E+03-2.20342E+04 3.38105E-10-9.92350E-09
 -1       594-4.05970E+04-1.28340E+04-1.52273E+03-2.45940E+04 7.37202E-10 2.39420E-09
 -1       595-4.26126E+04-1.05516E+04-6.99764E+02-2.20792E+04-8.34746E-10 1.90568E-09
 -1       596-4.04693E+04-1.27437E+04-3.56670E+02-2.45806E+04 3.68459E-10 4.59863E-10
 -1       597-4.26259E+04-1.05602E+04-1.96270E+02-2.20810E+04 2.69090E-09 1.05746E-08
 -1       598-4.04571E+04-1.27403E+04-1.61543E+02-2.45769E+04 1.75669E-09 1.14192E-08
 -1       599-4.26249E+04-1.05603E+04-2.11057E+02-2.20806E+04 4.52815E-10 5.12910E-09
 -1       600-4.04706E+04-1.27449E+04-3.95847E+02-2.45801E+04-2.69893E-09-2.87559E-09
 -1       601-4.26081E+04-1.05510E+04-7.82898E+02-2.20779E+04 4.38854E-09-3.04624E-09
 -1       602-4.06135E+04-1.28459E+04-1.70728E+03-2.45932E+04 1.10781E-08-6.02085E-09
 -1       603-4.24891E+04-1.05578E+04-3.42439E+03-2.20277E+04-1.15506E-10-8.23434E-09
 -1       604-4.27354E+04-1.50466E+04-8.22586E+03-2.44788E+04-1.06512E-08 1.68325E-09
 -1       605-4.09452E+04-1.16827E+04-1.51867E+04-2.09374E+04-3.95380E-09 6.12999E-09
 -1       606 2.61062E+04-9.03535E+03-1.62644E+04 2.54297E+04-2.43836E-09 3.91537E-09
 -1       607 2.33209E+04-2.91696E+03-8.09871E+03 2.85470E+04 1.75805E-09-6.89499E-09
 -1       608 2.49004E+04-4.94114E+02-3.62683E+03 2.52274E+04 3.95630E-09 4.14730E-10
 -1       609 2.45857E+04-1.30144E+02-1.83178E+03 2.87707E+04-2.06273E-09 1.35367E-08
 -1       610 2.47535E+04 2.15299E+01-8.75055E+02 2.52048E+04-5.76983E-09-3.64435E-09
 -1       611 2.46938E+04 3.37890E+01-4.41312E+02 2.87952E+04-7.81620E-09-5.40854E-09
 -1       612 2.47138E+04 3.64416E+01-2.11182E+02 2.52025E+04-1.68347E-09-8.23093E-09
 -1       613 2.46908E+04 4.21699E+01-9.61468E+01 2.87981E+04-4.18322E-09-3.93379E-09
 -1       614 2.46919E+04 3.75129E+01-2.66645E+01 2.52018E+04-1.12686E-09 2.24031E-09
 -1       615 2.46792E+04 4.76363E+01 3.05534E+01 2.87985E+04 4.22369E-09 1.20961E-08
 -1       616 2.46752E+04 4.31855E+01 1.00561E+02 2.52020E+04-3.65480E-09 3.11775E-09
 -1       617 2.46850E+04 7.30281E+01 2.33063E+02 2.87980E+04 4.51109E-10-4.74665E-09
 -1       618 2.46502E+04 1.13413E+02 4.71027E+02 2.52021E+04 4.02952E-09 3.56272E-09
 -1       619 2.48475E+04 4.39769E+02 1.05863E+03 2.87973E+04 4.24916E-09 6.00221E-09
 -1       620 2.44913E+04 1.23287E+03 2.12802E+03 2.52011E+04 1.55649E-09-5.89216E-09
 -1       621 3.06759E+02 2.02162E+05 2.69064E+03 7.98674E+03-2.16005E-10 2.85831E-09
 -1       622 3.53781E+02 2.02828E+05 2.31746E+03 1.16542E+04-6.12772E-11-5.77302E-10
 -1       623 1.48900E+01 2.02348E+05 2.70907E+03 7.94924E+03-1.25453E-10 5.05440E-09
 -1       624 1.23723E+03 2.03636E+05 5.18269E+03 1.16911E+04-1.75049E-10 1.91790E-10
 -1       625 1.24312E+03 2.01346E+05 9.02795E+03 7.95002E+03-7.68523E-11-4.82487E-09
 -1       626 1.68545E+05 4.62918E+04 3.39152E+03 9.05555E+04 7.24413E-10 8.56926E-09
 -1       627 1.66293E+05 4.79312E+04 1.63427E+03 9.41876E+04-2.58160E-09-1.03114E-09
 -1       628 1.68668E+05 4.46920E+04 6.90249E+02 9.10719E+04 1.04046E-09-3.52316E-09
 -1       629 1.65807E+05 4.75406E+04 3.38317E+02 9.44039E+04 3.26190E-09-5.73812E-09
 -1       630 1.68675E+05 4.46168E+04 1.56388E+02 9.10856E+04-1.59253E-09-1.15859E-08
 -1       631 1.65748E+05 4.75318E+04 8.40901E+01 9.44050E+04-3.10547E-09 2.67865E-09
 -1       632 1.68666E+05 4.46231E+04 5.53548E+01 9.10778E+04-1.28011E-08-2.38668E-09
 -1       633 1.65735E+05 4.75369E+04 6.16925E+01 9.43980E+04-1.95450E-08 7.31222E-09
 -1       634 1.68656E+05 4.46241E+04 9.96806E+01 9.10734E+04-2.97359E-09 7.96081E-09
 -1       635 1.65739E+05 4.75385E+04 2.02019E+02 9.43974E+04 2.83990E-09-1.95450E-09
 -1       636 1.68645E+05 4.46234E+04 4.07963E+02 9.10703E+04-2.60798E-09 6.18479E-09
 -1       637 1.65822E+05 4.76035E+04 8.96616E+02 9.43933E+04-2.35534E-09 6.14159E-09
 -1       638 1.68610E+05 4.48232E+04 1.84265E+03 9.09782E+04-1.11677E-08-8.00947E-09
 -1       639 1.66787E+05 4.89512E+04 4.35918E+03 9.41068E+04-1.01736E-08 8.60564E-09
 -1       640 1.68481E+05 4.88359E+04 9.04636E+03 8.92748E+04-1.24244E-08-1.08139E-09
 -1       656 4.54760E+04-1.15170E+06-1.09780E+05-3.75153E+02 2.18279E-10 3.59984E-09
 -1       657-6.00966E+04-1.20125E+06-9.07985E+04 7.26023E+03-2.11003E-10-2.96196E-09
 -1       658 1.44250E+04-1.16583E+06-5.57319E+04-1.48372E+03-2.85809E-10 1.84300E-09
 -1       659-6.44721E+04-1.20332E+06-9.65454E+04 8.00853E+03 9.53150E-10-8.79133E-09
 -1       660 4.98409E+04-1.14963E+06-1.19665E+05-1.12343E+03-4.87489E-10 1.24557E-09
 -1       661 1.59505E+05 1.73456E+04 1.53670E+04 6.23467E+04 1.73122E-09 7.51152E-09
 -1       662 1.67551E+05 2.93568E+04 1.03548E+04 5.96278E+04 1.76396E-09-6.27313E-09
 -1       663 1.62517E+05 2.22803E+04 3.62218E+03 6.14770E+04-1.29319E-09-3.67550E-09
 -1       664 1.64065E+05 2.35805E+04 2.16566E+03 6.06853E+04 1.07852E-09 4.67898E-09
 -1       665 1.62968E+05 2.29596E+04 8.54285E+02 6.13504E+04 1.08997E-10 3.11249E-09
 -1       666 1.63535E+05 2.27994E+04 4.98265E+02 6.08474E+04-3.50965E-09-3.45501E-12
 -1       667 1.63044E+05 2.30410E+04 2.62789E+02 6.13225E+04-5.55701E-10 2.45213E-09
 -1       668 1.63455E+05 2.27352E+04 2.63466E+02 6.08875E+04 1.23634E-09 3.06360E-09
 -1       669 1.63048E+05 2.30219E+04 3.53179E+02 6.13110E+04-1.86290E-10 5.42744E-09
 -1       670 1.63544E+05 2.29218E+04 7.65754E+02 6.08865E+04 8.11445E-09-3.15811E-09
 -1       671 1.62955E+05 2.28581E+04 1.35856E+03 6.13219E+04 2.82938E-11 5.45015E-10
 -1       672 1.64336E+05 2.42423E+04 3.47497E+03 6.06941E+04-4.56321E-09 8.53277E-10
 -1       673 1.62260E+05 2.17347E+04 5.82317E+03 6.14907E+04-2.32546E-09-7.12134E-10
 -1       674 1.69881E+05 3.35952E+04 1.66531E+04 5.90630E+04 7.37430E-10-4.45539E-09
 -1       675 1.57446E+05 1.37667E+04 2.47184E+04 6.28545E+04 1.15688E-09-1.45301E-08
 -1       676 1.83885E+01-2.19705E+05-8.53704E+02 3.51441E+01-1.12260E-09-7.65186E-09
 -1       677-2.26604E+02-2.19911E+05-1.56237E+03-7.02541E+01-5.57918E-09-1.60743E-09
 -1       678 1.51341E+02-2.19558E+05-2.76186E+03 3.50858E+01-1.26465E-09 2.69289E-09
 -1       679-2.76244E+03-2.21578E+05-6.56079E+03-7.00273E+01-2.08820E-09 2.92928E-09
 -1       680 1.64865E+03-2.18038E+05-1.05738E+04 3.45159E+01 4.22915E-11-7.45432E-09
 -1       771-2.35272E+06-4.28485E+05-6.05851E+04-9.94168E+05-1.15688E-08-7.14499E-09
 -1       772-2.33291E+06-4.63646E+05-3.23029E+04-1.03363E+06-7.23958E-09 5.06770E-09
 -1       773-2.36175E+06-4.21414E+05-1.43237E+04-9.97558E+05 6.34464E-09 1.13505E-08
 -1       774-2.32466E+06-4.56871E+05-6.86829E+03-1.03857E+06 2.27737E-08 2.05546E-10
 -1       775-2.36441E+06-4.19598E+05-3.74612E+03-9.97981E+05 1.42609E-09 2.69210E-10
 -1       776-2.32500E+06-4.56937E+05-1.65108E+03-1.04154E+06-4.18731E-09 2.34286E-09
 -1       777-2.36641E+06-4.18127E+05-1.20081E+03-9.98289E+05-2.25555E-10 1.54068E-09
 -1       778-2.32581E+06-4.57173E+05-4.68935E+02-1.04403E+06 4.36557E-10 7.72798E-09
 -1       779-2.36804E+06-4.16876E+05-5.41190E+02-9.98561E+05-5.67525E-09-2.78305E-09
 -1       780-2.32658E+06-4.57357E+05-2.96405E+02-1.04605E+06-3.98722E-09 3.33785E-10
 -1       781-2.36928E+06-4.15881E+05-5.43661E+02-9.98772E+05-1.92667E-08-4.13002E-09
 -1       782-2.32724E+06-4.57519E+05-8.19769E+02-1.04753E+06-2.31630E-08-4.72482E-09
 -1       783-2.37009E+06-4.15218E+05-1.65271E+03-9.98904E+05-4.98767E-09-2.63412E-10
 -1       784-2.32859E+06-4.58619E+05-3.83966E+03-1.04839E+06-7.50788E-09-2.10093E-10
 -1       785-2.36982E+06-4.15393E+05-7.11603E+03-9.98465E+05-1.29166E-08 2.00271E-09
 -1       786 1.66108E+05-9.09766E+03 2.10476E+04-2.80767E+01 3.53458E-06 1.05183E-08
 -1       787 1.75228E+05 1.05323E+04 1.48907E+04 6.30166E+00 7.04161E-06 1.48502E-08
 -1       788 1.69626E+05-1.42616E+03 5.44758E+03-1.96043E+01 6.69176E-06-6.95309E-09
 -1       789 1.71129E+05 1.65014E+03 3.42261E+03-8.51018E+00 6.32813E-06 1.12927E-08
 -1       790 1.70207E+05-2.22772E+02 1.39233E+03-1.32657E+01 6.20279E-06-8.86797E-09
 -1       791 1.70452E+05 2.58735E+02 8.16832E+02-2.12696E+01 6.07135E-06 2.13441E-09
 -1       792 1.70305E+05-3.58024E+01 3.71526E+02-6.84488E+00 3.03855E-06-9.58184E-09
 -1       793 1.70342E+05 4.96624E+01 2.40861E+02-3.60550E+01 9.25728E-09-6.29328E-11
 -1       794 1.70317E+05-1.38359E+01 1.74449E+02 1.52003E+00 8.20924E-10-4.28599E-09
 -1       795 1.70350E+05 6.98795E+01 2.46602E+02-5.70767E+01-8.73514E-10 2.80011E-10
 -1       796 1.70296E+05-5.60021E+01 3.65913E+02 1.41772E+01 2.95968E-10 1.96400E-09
 -1       797 1.70516E+05 4.10200E+02 8.59911E+02-9.02312E+01-5.76373E-10 1.04798E-09
 -1       798 1.70152E+05-3.53908E+02 1.35638E+03 3.46752E+01-3.74016E-11 3.49308E-09
 -1       799 1.71533E+05 2.61310E+03 3.69696E+03-1.45068E+02-6.93305E-10-4.97266E-09
 -1       800 1.69278E+05-2.25713E+03 5.22186E+03 6.90145E+01-1.04896E-10 1.18000E-08
 -1       801 1.09673E+04-6.46378E+05-5.06064E+04 2.26152E+04 1.13760E-08-3.68527E-09
 -1       802-3.30871E+03-5.33002E+05 9.09513E+03-7.29866E+04 3.11984E-08-2.82921E-09
 -1       803-6.97957E+03-5.92992E+05 3.67488E+04 3.66423E+04 2.45636E-08 1.89393E-08
 -1       804 9.67297E+04-4.74442E+05 1.40841E+05-7.00955E+04 2.84417E-08 2.35395E-08
 -1       805-8.93084E+04-7.04469E+05 1.68969E+05 1.97190E+04 1.03319E-08 1.97813E-08
 -1       806-2.04435E+05-4.29372E+04-1.70144E+04-8.42267E+04-3.06045E-10-1.05319E-09
 -1       807-2.05519E+05-4.04181E+04-8.35885E+03-8.86433E+04 2.85752E-09 8.61576E-09
 -1       808-2.04913E+05-3.67954E+04-3.54583E+03-8.71177E+04-3.79032E-10 2.43885E-09
 -1       809-2.03740E+05-3.80916E+04-1.73351E+03-8.88771E+04-2.74201E-09-4.20187E-09
 -1       810-2.04987E+05-3.65793E+04-7.93828E+02-8.72452E+04 1.21076E-09-1.51772E-09
 -1       811-2.03604E+05-3.79994E+04-3.93806E+02-8.88556E+04 2.29784E-09-4.41560E-09
 -1       812-2.05000E+05-3.65958E+04-1.96810E+02-8.72449E+04 2.46882E-09 1.38152E-09
 -1       813-2.03586E+05-3.80017E+04-1.24520E+02-8.88443E+04-4.31555E-10-1.02677E-08
 -1       814-2.04997E+05-3.66022E+04-1.17472E+02-8.72420E+04-9.58153E-10-6.85941E-09
 -1       815-2.03588E+05-3.80037E+04-1.84396E+02-8.88407E+04 6.58702E-10-2.54261E-09
 -1       816-2.04985E+05-3.66010E+04-3.45930E+02-8.72395E+04-7.08496E-10 6.00357E-09
 -1       817-2.03647E+05-3.80369E+04-7.41639E+02-8.88339E+04 3.22416E-10 6.05496E-09
 -1       818-2.04940E+05-3.67054E+04-1.51162E+03-8.71901E+04 1.57615E-09 5.15229E-09
 -1       819-2.04480E+05-3.89449E+04-3.55743E+03-8.86324E+04-9.52014E-10 2.76304E-09
 -1       820-2.04653E+05-3.93943E+04-7.24013E+03-8.60424E+04 2.11912E-10 7.14590E-09
 -1       821-2.63163E+05 1.45690E+04-3.36931E+04 1.27899E+02 1.10466E-10 4.43106E-09
 -1       822-2.77764E+05-1.68661E+04-2.38428E+04-7.02177E+02-1.72704E-09 2.68801E-09
 -1       823-2.68798E+05 2.28412E+03-8.72656E+03 1.03878E+02 5.50605E-10-5.66206E-09
 -1       824-2.71192E+05-2.64371E+03-5.49050E+03-5.49020E+02 2.95294E-10 1.43871E-09
 -1       825-2.69733E+05 3.57423E+02-2.25727E+03-2.52624E+01-2.35323E-09 9.79708E-09
 -1       826-2.70102E+05-4.21487E+02-1.36157E+03-2.38514E+02-4.51625E-09 3.59977E-09
 -1       827-2.69887E+05 6.33189E+01-7.06174E+02-2.06633E+02-4.70467E-09 3.88931E-09
 -1       828-2.69955E+05-1.28614E+02-6.23176E+02 1.04511E+02-4.77227E-09 1.04218E-08
 -1       829-2.69880E+05 6.48229E+01-7.17154E+02-3.68294E+02-9.40865E-11-1.57812E-09
 -1       830-2.70124E+05-4.33020E+02-1.39984E+03 3.43953E+02 1.61078E-09 8.09609E-09
 -1       831-2.69718E+05 3.67751E+02-2.31876E+03-4.46080E+02-3.03048E-09 5.10909E-10
 -1       832-2.71239E+05-2.71944E+03-5.65043E+03 3.85369E+02-1.39009E-09-7.61031E-09
 -1       833-2.68766E+05 2.34965E+03-8.97921E+03-4.09710E+02-1.28673E-09 5.42377E-09
 -1       834-2.77983E+05-1.73532E+04-2.45317E+04 2.14205E+02-1.09821E-09-1.00572E-08
 -1       835-2.62976E+05 1.49900E+04-3.46718E+04-2.74905E+02 5.69741E-09 2.47928E-09
 -1       836-8.76873E+02 2.47953E+05 1.49644E+04-2.08757E+04 1.36379E-09-2.52567E-09
 -1       837 3.29227E+03 2.52588E+05 1.27747E+04-4.19291E+04 2.18415E-09 4.30350E-09
 -1       838-3.22069E+02 2.49241E+05 1.31709E+04-2.08044E+04 1.88265E-09 8.77822E-09
 -1       839 8.45205E+03 2.56433E+05 2.50678E+04-4.19562E+04 2.58251E-09 6.67877E-09
 -1       840-2.54131E+03 2.44071E+05 4.00371E+04-2.08471E+04 1.81353E-09 3.23280E-09
 -1       856-7.88997E+04 6.93227E+03-1.82684E+04-4.07755E+02-2.81193E-09 1.30058E-09
 -1       857-8.64456E+04-8.13064E+03-1.25773E+04 4.19367E+03-1.91113E-09 1.98952E-10
 -1       858-8.18811E+04 9.71316E+02-4.74115E+03-4.26748E+02-5.83003E-09-3.66958E-09
 -1       859-8.30218E+04-1.12931E+03-2.86340E+03 4.22395E+03-1.06871E-09 4.78462E-09
 -1       860-8.23268E+04 1.35075E+02-1.20383E+03-4.38159E+02-2.92573E-10 4.22511E-09
 -1       861-8.25084E+04-1.49094E+02-6.70226E+02 4.23956E+03-4.18325E-09 1.32019E-11
 -1       862-8.23962E+04 1.78708E+01-2.94603E+02-4.42387E+02 5.00111E-09-1.17394E-09
 -1       863-8.24263E+04-1.05849E+01-1.43633E+02 4.24147E+03 9.46056E-09 4.26465E-09
 -1       864-8.24092E+04-3.87064E-01-4.09573E+01-4.40068E+02 6.29632E-09 6.88734E-09
 -1       865-8.24009E+04 2.32899E+01 3.85450E+01 4.22977E+03 6.34124E-09-1.63696E-09
 -1       866-8.24202E+04-1.64155E+01 1.19656E+02-4.30687E+02-2.25572E-09-3.33963E-09
 -1       867-8.23334E+04 1.37465E+02 3.21502E+02 4.20431E+03 1.23322E-10-1.63845E-09
 -1       868-8.24737E+04-1.13706E+02 5.40691E+02-4.14606E+02 1.77369E-09 2.41673E-09
 -1       869-8.19289E+04 9.43394E+02 1.44967E+03 4.16217E+03-2.55102E-09-1.15048E-08
 -1       870-8.28202E+04-8.02213E+02 2.10240E+03-3.88551E+02 7.47491E-11-3.06613E-10
 -1       871-3.86684E+03-8.28181E+03-1.25530E+04 8.24523E+04 2.46291E-09 5.30417E-09
 -1       872-1.68001E+03-1.10929E+04-5.11998E+03 1.06895E+05 4.59568E-09 1.62638E-08
 -1       873-3.90073E+01-9.78017E+03 7.23313E+02 8.22710E+04 1.80466E-09 4.30566E-09
 -1       874 1.92345E+03-7.95854E+03 7.10263E+03 1.06932E+05 2.71734E-09 8.06540E-09
 -1       875 4.55879E+03-1.14656E+04 1.57560E+04 8.24225E+04 1.33332E-09-1.17552E-09
 -1       876 2.04817E+05 3.52845E+04 1.09436E+04 8.30896E+04-4.99404E-09-8.67658E-10
 -1       877 2.05442E+05 3.76868E+04 5.84414E+03 8.63260E+04-5.37659E-09 2.46519E-09
 -1       878 2.05839E+05 3.40733E+04 2.44842E+03 8.39883E+04 1.89607E-09 3.80169E-09
 -1       879 2.03954E+05 3.62043E+04 1.21969E+03 8.64034E+04-2.78339E-09 8.83688E-09
 -1       880 2.05914E+05 3.40598E+04 5.67843E+02 8.40249E+04 3.22825E-09 1.13899E-08
 -1       881 2.03855E+05 3.61413E+04 3.02467E+02 8.63880E+04 5.42593E-09 1.44687E-08
 -1       882 2.05921E+05 3.40688E+04 1.92185E+02 8.40260E+04 4.97153E-10-3.45648E-09
 -1       883 2.03848E+05 3.61384E+04 2.04478E+02 8.63835E+04-4.28315E-10 1.10664E-08
 -1       884 2.05917E+05 3.40665E+04 3.23347E+02 8.40261E+04-7.42375E-10 1.33053E-09
 -1       885 2.03873E+05 3.61430E+04 6.48904E+02 8.63916E+04 2.53544E-09-3.43221E-10
 -1       886 2.05892E+05 3.40476E+04 1.30728E+03 8.40235E+04 3.43552E-09 1.04319E-09
 -1       887 2.04103E+05 3.62935E+04 2.85538E+03 8.64247E+04-2.67417E-09-6.62760E-09
 -1       888 2.05712E+05 3.40794E+04 5.75363E+03 8.39321E+04 4.92452E-09 7.71797E-09
 -1       889 2.07532E+05 3.98530E+04 1.37450E+04 8.63159E+04 2.77614E-09 2.08865E-09
 -1       890 2.03368E+05 3.68639E+04 2.57433E+04 8.17372E+04 5.19958E-09-4.00178E-11
 -1       891-1.27974E+02-1.16294E+05-1.37489E+03 2.19900E+04 2.01567E-10 1.85594E-09
 -1       892-2.22699E+02-1.16623E+05-1.49501E+03 3.32768E+04-1.45769E-09-5.17173E-09
 -1       893-3.67238E+01-1.16337E+05-2.13570E+03 2.19943E+04 1.76510E-09 6.70934E-09
 -1       894-1.16828E+03-1.17442E+05-4.43394E+03 3.31584E+04-1.13550E-09 7.89942E-09
 -1       895-9.13220E+02-1.15415E+05-7.81336E+03 2.21068E+04 6.07315E-10 3.23507E-09
 -1       956-2.57717E+05-3.70371E+03-9.32483E+03 1.71487E+04-3.73302E-09 2.35116E-09
 -1       957-2.59559E+05-1.24890E+03-4.78700E+03 2.06506E+04-3.12684E-09 5.00359E-09
 -1       958-2.58545E+05-9.89657E+01-2.15667E+03 1.70378E+04 1.36606E-09 2.82580E-09
 -1       959-2.58692E+05-1.63385E+01-1.10158E+03 2.07707E+04-5.89353E-10 1.63891E-09
 -1       960-2.58618E+05 3.17373E+01-5.36951E+02 1.70273E+04-2.90402E-09-4.72937E-10
 -1       961-2.58628E+05 3.01277E+01-2.84718E+02 2.07827E+04-6.65818E-09 3.40515E-09
 -1       962-2.58633E+05 2.80146E+01-1.62636E+02 1.70257E+04-3.84807E-09-4.09045E-10
 -1       963-2.58626E+05 3.13352E+01-1.29937E+02 2.07849E+04-3.96324E-09 1.59014E-09
 -1       964-2.58637E+05 2.98765E+01-1.56969E+02 1.70251E+04-5.13376E-09 1.27670E-10
 -1       965-2.58635E+05 3.42046E+01-2.70593E+02 2.07850E+04-7.41747E-09 2.43824E-09
 -1       966-2.58629E+05 3.72310E+01-5.07565E+02 1.70256E+04-5.85101E-09-6.84770E-09
 -1       967-2.58702E+05-5.70674E+00-1.04083E+03 2.07784E+04 5.65251E-10 7.53403E-09
 -1       968-2.58565E+05-8.24913E+01-2.03676E+03 1.70317E+04 4.69504E-09 9.12792E-10
 -1       969-2.59529E+05-1.16666E+03-4.52218E+03 2.07063E+04 1.20449E-08 1.99523E-09
 -1       970-2.57788E+05-3.48550E+03-8.80820E+03 1.71001E+04 6.10862E-09 4.45561E-09
 -1       971-2.44304E+05-1.28611E+03-7.15563E+03 1.18710E+04-3.42561E-09 2.47951E-10
 -1       972-2.46044E+05-9.21435E+02-3.89699E+03 1.65813E+04-8.18545E-10-4.78826E-09
 -1       973-2.45099E+05-7.56735E+00-1.74491E+03 1.17720E+04-3.63480E-09-5.20458E-09
 -1       974-2.45220E+05-7.31807E+00-9.03976E+02 1.66880E+04 3.39924E-10-5.87636E-09
 -1       975-2.45160E+05 2.56253E+01-4.50774E+02 1.17632E+04 1.00727E-09-5.46413E-09
 -1       976-2.45171E+05 2.98825E+01-2.58204E+02 1.66987E+04-6.22447E-09-8.50628E-09
 -1       977-2.45172E+05 2.52302E+01-1.84007E+02 1.17612E+04 1.76215E-09 6.58292E-09
 -1       978-2.45173E+05 3.38905E+01-2.10742E+02 1.67014E+04 1.09389E-08 5.38216E-09
 -1       979-2.45171E+05 3.08202E+01-3.34621E+02 1.17604E+04 6.10646E-09 2.17574E-09
 -1       980-2.45198E+05 3.59079E+01-6.43620E+02 1.67018E+04 4.44393E-09-5.72425E-09
 -1       981-2.45151E+05 4.68552E+01-1.24521E+03 1.17608E+04-1.08560E-09 2.80960E-09
 -1       982-2.45369E+05-5.59239E+01-2.57308E+03 1.66969E+04-2.27908E-09 9.40418E-10
 -1       983-2.44994E+05-3.26105E+01-4.99906E+03 1.17655E+04 1.30740E-09 6.09543E-09
 -1       984-2.47773E+05-2.66628E+03-1.11946E+04 1.66299E+04 4.54747E-12 4.73858E-09
 -1       985-2.42732E+05-3.69040E+03-2.05569E+04 1.18325E+04 6.48379E-09-6.89397E-10
 -3
    1PSTEP                        11           6           1          
  100CL  106 5.15625E-01         409                     0    6           1
 -4  DISP        4    1
 -5  D1          1    2    1    0
 -5  D2          1    2    2    0
 -5  D3          1    2    3    0
 -5  ALL         1    2    0    0    1ALL
 -1         1 1.64518E-04 0.00000E+00 0.00000E+00
 -1         2 1.45459E-04-7.33870E-31 3.30872E-24
 -1         3 1.44839E-04 2.33540E-27 6.61744E-24
 -1         5 9.72953E-05 4.67112E-27 0.00000E+00
 -1         8 1.39018E-04-8.80647E-07 0.00000E+00
 -1         9 1.33765E-04-4.87293E-07 0.00000E+00
 -1        10 1.33525E-04-1.95431E-06-6.61744E-24
 -1        12 9.69421E-05 5.66159E-07 0.00000E+00
 -1        15 1.08604E-04-9.79049E-07-4.13590E-25
 -1        16 1.13338E-04-6.67134E-07 0.00000E+00
 -1        17 9.76281E-05-4.15485E-06 0.00000E+00
 -1        18 9.47739E-05 3.26248E-06 0.00000E+00
 -1        19 9.58824E-05 1.12930E-06 0.00000E+00
 -1        20 9.60241E-05 1.38253E-05 0.00000E+00
 -1        21 9.54620E-05 2.54996E-05-3.30872E-24
 -1        24 2.10669E-05-5.76441E-06 0.00000E+00
 -1        25 9.41310E-05 3.39572E-06 0.00000E+00
 -1        26 9.50654E-05 1.56976E-06 0.00000E+00
 -1        27 9.34980E-05 1.12951E-05 0.00000E+00
 -1        28 9.30303E-05 2.50195E-05 0.00000E+00
 -1        32 0.00000E+00 0.00000E+00 0.00000E+00
 -1        33 9.29973E-05 2.10277E-06 0.00000E+00
 -1        34 9.14763E-05 1.12715E-05 0.00000E+00
 -1        35 9.00381E-05 2.47648E-05 0.00000E+00
 -1        51 1.62863E-04-1.45601E-07 0.00000E+00
 -1        52 1.59792E-04-2.86064E-07 0.00000E+00
 -1        53 1.55583E-04-4.27953E-07 0.00000E+00
 -1        54 1.50525E-04-5.72890E-07 0.00000E+00
 -1        55 1.44907E-04-7.21699E-07 2.48154E-24
 -1        56 1.62985E-04-8.90198E-07-2.64698E-23
 -1        57 1.61584E-04-2.31094E-06-2.64698E-23
 -1        58 1.60323E-04-4.09721E-06-5.29396E-23
 -1        59 1.59131E-04-6.09611E-06-2.64698E-23
 -1        60 1.57949E-04-8.12522E-06 5.29396E-23
 -1        61 1.56710E-04-1.00051E-05 0.00000E+00
 -1        62 1.55352E-04-1.15704E-05 5.29396E-23
 -1        63 1.53820E-04-1.26699E-05 0.00000E+00
 -1        64 1.52074E-04-1.31984E-05 0.00000E+00
 -1        65 1.50084E-04-1.30754E-05 2.64698E-23
 -1        66 1.47843E-04-1.22850E-05 0.00000E+00
 -1        67 1.45356E-04-1.08394E-05-2.64698E-23
 -1        68 1.42652E-04-8.81690E-06-5.29396E-23
 -1        69 1.39778E-04-6.31663E-06 2.64698E-23
 -1        70 1.36777E-04-3.49238E-06 0.00000E+00
 -1        86 1.45115E-04-7.44883E-08 3.30872E-24
 -1        87 1.44086E-04-1.49924E-07 0.00000E+00
 -1        88 1.42397E-04-2.26289E-07 0.00000E+00
 -1        89 1.40078E-04-3.06977E-07 0.00000E+00
 -1        90 1.37182E-04-3.88051E-07 0.00000E+00
 -1       121 1.44522E-04-3.23380E-07-6.61744E-24
 -1       122 1.43574E-04-6.47151E-07 0.00000E+00
 -1       123 1.41996E-04-9.71698E-07 0.00000E+00
 -1       124 1.39792E-04-1.29745E-06 3.30872E-24
 -1       125 1.36966E-04-1.62470E-06-6.61744E-24
 -1       191 9.72855E-05 9.43653E-08 0.00000E+00
 -1       192 9.72561E-05 1.88729E-07-1.65436E-24
 -1       193 9.72070E-05 2.83093E-07 0.00000E+00
 -1       194 9.71384E-05 3.77454E-07 1.65436E-24
 -1       195 9.70500E-05 4.71810E-07 3.30872E-24
 -1       251 1.38683E-04 3.72219E-06 1.32349E-23
 -1       252 1.38352E-04 7.37054E-06 0.00000E+00
 -1       253 1.38024E-04 9.89020E-06 0.00000E+00
 -1       254 1.37698E-04 1.11219E-05 0.00000E+00
 -1       255 1.37374E-04 1.11131E-05 0.00000E+00
 -1       256 1.37048E-04 9.92780E-06 0.00000E+00
 -1       257 1.36722E-04 7.81893E-06 1.32349E-23
 -1       258 1.36393E-04 5.05162E-06-6.61744E-24
 -1       259 1.36064E-04 1.99667E-06-1.32349E-23
 -1       260 1.35735E-04-9.71236E-07 0.00000E+00
 -1       261 1.35408E-04-3.49136E-06 0.00000E+00
 -1       262 1.35081E-04-5.20902E-06 6.61744E-24
 -1       263 1.34756E-04-5.89831E-06-1.32349E-23
 -1       264 1.34430E-04-5.34698E-06 6.61744E-24
 -1       265 1.34102E-04-3.54209E-06 0.00000E+00
 -1       266 1.33949E-04-9.09234E-07-6.61744E-24
 -1       267 1.28880E-04-9.24149E-07 0.00000E+00
 -1       268 1.23811E-04-9.39929E-07 0.00000E+00
 -1       269 1.18742E-04-9.53145E-07-4.13590E-25
 -1       270 1.13673E-04-9.66301E-07 4.13590E-25
 -1       271 1.35980E-04 3.06692E-06-2.64698E-23
 -1       272 1.33331E-04 5.85296E-06 0.00000E+00
 -1       273 1.31082E-04 7.58472E-06-5.29396E-23
 -1       274 1.29183E-04 8.36799E-06 2.64698E-23
 -1       275 1.27591E-04 8.33172E-06 0.00000E+00
 -1       276 1.26253E-04 7.61684E-06 2.64698E-23
 -1       277 1.25110E-04 6.37764E-06 5.29396E-23
 -1       278 1.24103E-04 4.77735E-06 2.64698E-23
 -1       279 1.23167E-04 2.98609E-06-5.29396E-23
 -1       280 1.22237E-04 1.17737E-06 0.00000E+00
 -1       281 1.21250E-04-4.75058E-07-5.29396E-23
 -1       282 1.20140E-04-1.80010E-06 0.00000E+00
 -1       283 1.18847E-04-2.63307E-06 0.00000E+00
 -1       284 1.17316E-04-2.81632E-06 0.00000E+00
 -1       285 1.15486E-04-2.20802E-06 0.00000E+00
 -1       301 1.30013E-04-5.29561E-07 6.61744E-24
 -1       302 1.26309E-04-5.51554E-07 9.92617E-24
 -1       303 1.22721E-04-5.72225E-07 6.61744E-24
 -1       304 1.19318E-04-5.93334E-07-3.30872E-24
 -1       305 1.16168E-04-6.15862E-07 1.32349E-23
 -1       306 1.31018E-04 8.24186E-07 0.00000E+00
 -1       307 1.29422E-04-1.12626E-06 0.00000E+00
 -1       308 1.28896E-04-5.93628E-06 5.29396E-23
 -1       309 1.29210E-04-1.30587E-05-2.64698E-23
 -1       310 1.30010E-04-2.15008E-05 0.00000E+00
 -1       311 1.30898E-04-3.01929E-05 0.00000E+00
 -1       312 1.31468E-04-3.80172E-05 0.00000E+00
 -1       313 1.31326E-04-4.39096E-05 2.64698E-23
 -1       314 1.30208E-04-4.71724E-05-5.29396E-23
 -1       315 1.27906E-04-4.72676E-05 2.64698E-23
 -1       316 1.24432E-04-4.42575E-05 5.29396E-23
 -1       317 1.19874E-04-3.83905E-05 0.00000E+00
 -1       318 1.14522E-04-3.04536E-05 0.00000E+00
 -1       319 1.08737E-04-2.13516E-05 2.64698E-23
 -1       320 1.02934E-04-1.22191E-05-2.64698E-23
 -1       336 1.29395E-04-2.31199E-06 0.00000E+00
 -1       337 1.24505E-04-2.67343E-06 6.61744E-24
 -1       338 1.18866E-04-3.03854E-06 0.00000E+00
 -1       339 1.12495E-04-3.40732E-06-3.30872E-24
 -1       340 1.05409E-04-3.78076E-06 6.61744E-24
 -1       406 9.68145E-05 6.60494E-07-3.30872E-24
 -1       407 9.66673E-05 7.54797E-07-1.65436E-24
 -1       408 9.65004E-05 8.49040E-07-3.30872E-24
 -1       409 9.63139E-05 9.43106E-07 1.65436E-24
 -1       410 9.61079E-05 1.03681E-06-3.30872E-24
 -1       521 1.15966E-04-1.70103E-05 0.00000E+00
 -1       522 1.30236E-04-6.78716E-05 5.29396E-23
 -1       523 1.52630E-04-1.44849E-04-1.05879E-22
 -1       524 1.79426E-04-2.37208E-04 0.00000E+00
 -1       525 2.06560E-04-3.30764E-04-1.05879E-22
 -1       526 2.29958E-04-4.11226E-04 0.00000E+00
 -1       527 2.45864E-04-4.67251E-04 1.05879E-22
 -1       528 2.50547E-04-4.89700E-04 0.00000E+00
 -1       529 2.42073E-04-4.76723E-04 1.05879E-22
 -1       530 2.19541E-04-4.29443E-04 0.00000E+00
 -1       531 1.85458E-04-3.56044E-04 0.00000E+00
 -1       532 1.43852E-04-2.66621E-04-5.29396E-23
 -1       533 1.00927E-04-1.74437E-04-1.05879E-22
 -1       534 6.31064E-05-9.29276E-05-5.29396E-23
 -1       535 3.52830E-05-3.34597E-05-5.29396E-23
 -1       536 9.74542E-05 5.81133E-06-6.61744E-24
 -1       537 9.72441E-05 1.94406E-05 0.00000E+00
 -1       538 9.70083E-05 3.49258E-05 3.30872E-24
 -1       539 9.67729E-05 5.04508E-05 0.00000E+00
 -1       540 9.65621E-05 6.41871E-05 0.00000E+00
 -1       541 9.63929E-05 7.43154E-05 0.00000E+00
 -1       542 9.62572E-05 7.98933E-05 0.00000E+00
 -1       543 9.61364E-05 8.00029E-05 0.00000E+00
 -1       544 9.60044E-05 7.50479E-05 3.30872E-24
 -1       545 9.58399E-05 6.54594E-05 1.65436E-24
 -1       546 9.56436E-05 5.27917E-05 3.30872E-24
 -1       547 9.54280E-05 3.86153E-05 1.65436E-24
 -1       548 9.52180E-05 2.48693E-05 0.00000E+00
 -1       549 9.50378E-05 1.34907E-05 1.65436E-24
 -1       550 9.48904E-05 5.84138E-06 0.00000E+00
 -1       551 8.75128E-05-4.39121E-06-6.61744E-24
 -1       552 7.54684E-05-4.64351E-06-1.65436E-24
 -1       553 6.21435E-05-4.91044E-06 4.96308E-24
 -1       554 4.81967E-05-5.18745E-06 6.61744E-24
 -1       555 3.42864E-05-5.46674E-06 0.00000E+00
 -1       556 9.49107E-05 2.87889E-06-2.64698E-23
 -1       557 9.28047E-05 8.34191E-06 0.00000E+00
 -1       558 9.12448E-05 1.23735E-05 0.00000E+00
 -1       559 9.01716E-05 1.51245E-05 0.00000E+00
 -1       560 8.95257E-05 1.67452E-05 0.00000E+00
 -1       561 8.92485E-05 1.73872E-05 0.00000E+00
 -1       562 8.92822E-05 1.72020E-05-1.32349E-23
 -1       563 8.95691E-05 1.63414E-05 0.00000E+00
 -1       564 9.00518E-05 1.49576E-05-6.61744E-24
 -1       565 9.06732E-05 1.32025E-05 0.00000E+00
 -1       566 9.13764E-05 1.12284E-05 0.00000E+00
 -1       567 9.21045E-05 9.18745E-06-3.10193E-25
 -1       568 9.28007E-05 7.23198E-06 0.00000E+00
 -1       569 9.34083E-05 5.51400E-06 0.00000E+00
 -1       570 9.38703E-05 4.18562E-06 0.00000E+00
 -1       571 9.48412E-05 3.15734E-06-4.13590E-25
 -1       572 9.49100E-05 3.00736E-06 4.13590E-25
 -1       573 9.49791E-05 2.82095E-06 0.00000E+00
 -1       574 9.50485E-05 2.60693E-06 0.00000E+00
 -1       575 9.51180E-05 2.37418E-06 1.65436E-24
 -1       576 9.51875E-05 2.13162E-06 8.27181E-25
 -1       577 9.52570E-05 1.88817E-06 0.00000E+00
 -1       578 9.53265E-05 1.65277E-06 0.00000E+00
 -1       579 9.53960E-05 1.43436E-06 0.00000E+00
 -1       580 9.54656E-05 1.24187E-06 0.00000E+00
 -1       581 9.55351E-05 1.08424E-06 0.00000E+00
 -1       582 9.56046E-05 9.70387E-07 0.00000E+00
 -1       583 9.56742E-05 9.09234E-07 0.00000E+00
 -1       584 9.57437E-05 9.09606E-07 0.00000E+00
 -1       585 9.58131E-05 9.80271E-07 0.00000E+00
 -1       586 9.46334E-05 3.28607E-06 0.00000E+00
 -1       587 9.44658E-05 3.30911E-06-4.13590E-25
 -1       588 9.43014E-05 3.33190E-06 0.00000E+00
 -1       589 9.41706E-05 3.35432E-06 0.00000E+00
 -1       590 9.41039E-05 3.37609E-06 0.00000E+00
 -1       591 9.47800E-05 3.19640E-06-5.16988E-26
 -1       592 9.47960E-05 3.09666E-06-4.13590E-25
 -1       593 9.48219E-05 2.96989E-06 0.00000E+00
 -1       594 9.48554E-05 2.82200E-06 0.00000E+00
 -1       595 9.48945E-05 2.65899E-06 0.00000E+00
 -1       596 9.49370E-05 2.48682E-06 0.00000E+00
 -1       597 9.49807E-05 2.31143E-06 0.00000E+00
 -1       598 9.50234E-05 2.13877E-06 0.00000E+00
 -1       599 9.50628E-05 1.97477E-06 0.00000E+00
 -1       600 9.50968E-05 1.82539E-06 0.00000E+00
 -1       601 9.51230E-05 1.69655E-06 4.13590E-25
 -1       602 9.51394E-05 1.59422E-06 0.00000E+00
 -1       603 9.51437E-05 1.52433E-06-2.06795E-25
 -1       604 9.51339E-05 1.49290E-06 0.00000E+00
 -1       605 9.51077E-05 1.50582E-06-4.13590E-25
 -1       606 9.58948E-05 1.43567E-06 0.00000E+00
 -1       607 9.59047E-05 1.83560E-06 0.00000E+00
 -1       608 9.59140E-05 2.32359E-06 3.30872E-24
 -1       609 9.59229E-05 2.89345E-06 0.00000E+00
 -1       610 9.59317E-05 3.53897E-06 0.00000E+00
 -1       611 9.59404E-05 4.25383E-06 0.00000E+00
 -1       612 9.59490E-05 5.03170E-06 0.00000E+00
 -1       613 9.59575E-05 5.86627E-06 0.00000E+00
 -1       614 9.59660E-05 6.75123E-06 0.00000E+00
 -1       615 9.59745E-05 7.68023E-06 0.00000E+00
 -1       616 9.59829E-05 8.64697E-06 1.65436E-24
 -1       617 9.59913E-05 9.64512E-06 0.00000E+00
 -1       618 9.59997E-05 1.06683E-05 8.27181E-25
 -1       619 9.60080E-05 1.17103E-05 0.00000E+00
 -1       620 9.60162E-05 1.27648E-05 0.00000E+00
 -1       621 9.56779E-05 1.20280E-06 1.65436E-24
 -1       622 9.55112E-05 1.27661E-06 8.27181E-25
 -1       623 9.53745E-05 1.35042E-06-1.65436E-24
 -1       624 9.52600E-05 1.42410E-06 0.00000E+00
 -1       625 9.51596E-05 1.49766E-06-1.65436E-24
 -1       626 9.58473E-05 1.45959E-06 0.00000E+00
 -1       627 9.57841E-05 1.86667E-06 0.00000E+00
 -1       628 9.56949E-05 2.34320E-06-3.30872E-24
 -1       629 9.55826E-05 2.88139E-06 0.00000E+00
 -1       630 9.54502E-05 3.47345E-06 3.30872E-24
 -1       631 9.53004E-05 4.11151E-06 0.00000E+00
 -1       632 9.51364E-05 4.78772E-06-3.30872E-24
 -1       633 9.49609E-05 5.49424E-06 1.65436E-24
 -1       634 9.47771E-05 6.22322E-06-3.30872E-24
 -1       635 9.45877E-05 6.96679E-06 0.00000E+00
 -1       636 9.43958E-05 7.71712E-06-1.65436E-24
 -1       637 9.42042E-05 8.46635E-06 0.00000E+00
 -1       638 9.40160E-05 9.20662E-06 1.65436E-24
 -1       639 9.38339E-05 9.93009E-06 8.27181E-25
 -1       640 9.36607E-05 1.06289E-05 0.00000E+00
 -1       656 9.51698E-05 1.34136E-05 0.00000E+00
 -1       657 9.46751E-05 1.29855E-05-3.30872E-24
 -1       658 9.44059E-05 1.25587E-05-1.32349E-23
 -1       659 9.42241E-05 1.21322E-05 0.00000E+00
 -1       660 9.39732E-05 1.17044E-05-6.61744E-24
 -1       661 9.57086E-05 1.48591E-05 0.00000E+00
 -1       662 9.54171E-05 1.58376E-05-8.27181E-25
 -1       663 9.51454E-05 1.67626E-05 0.00000E+00
 -1       664 9.48933E-05 1.76371E-05 0.00000E+00
 -1       665 9.46593E-05 1.84635E-05 0.00000E+00
 -1       666 9.44425E-05 1.92443E-05 8.27181E-25
 -1       667 9.42419E-05 1.99819E-05 0.00000E+00
 -1       668 9.40567E-05 2.06786E-05 0.00000E+00
 -1       669 9.38861E-05 2.13365E-05 1.65436E-24
 -1       670 9.37293E-05 2.19578E-05 0.00000E+00
 -1       671 9.35854E-05 2.25444E-05 1.65436E-24
 -1       672 9.34538E-05 2.30982E-05-8.27181E-25
 -1       673 9.33336E-05 2.36211E-05 0.00000E+00
 -1       674 9.32237E-05 2.41146E-05-8.27181E-25
 -1       675 9.31244E-05 2.45807E-05 0.00000E+00
 -1       676 9.50556E-05 2.54191E-05 3.30872E-24
 -1       677 9.46494E-05 2.53386E-05-1.65436E-24
 -1       678 9.42436E-05 2.52582E-05 0.00000E+00
 -1       679 9.38384E-05 2.51780E-05-8.27181E-25
 -1       680 9.34339E-05 2.50979E-05 0.00000E+00
 -1       771 1.59614E-05 4.59811E-06-5.29396E-23
 -1       772 1.15651E-05 1.30922E-05-2.64698E-23
 -1       773 7.84689E-06 1.98176E-05 0.00000E+00
 -1       774 4.76180E-06 2.48828E-05 0.00000E+00
 -1       775 2.26552E-06 2.83988E-05-5.29396E-23
 -1       776 3.11777E-07 3.04817E-05-2.64698E-23
 -1       777-1.14621E-06 3.12499E-05 0.00000E+00
 -1       778-2.15626E-06 3.08262E-05 0.00000E+00
 -1       779-2.76653E-06 2.93352E-05 5.29396E-23
 -1       780-3.02605E-06 2.69050E-05 1.32349E-23
 -1       781-2.98398E-06 2.36654E-05 0.00000E+00
 -1       782-2.69018E-06 1.97486E-05 0.00000E+00
 -1       783-2.19456E-06 1.52880E-05 2.64698E-23
 -1       784-1.54748E-06 1.04189E-05 1.32349E-23
 -1       785-7.99347E-07 5.27727E-06-2.64698E-23
 -1       786 9.41858E-05 3.16859E-06 0.00000E+00
 -1       787 9.42440E-05 2.95974E-06-4.13590E-25
 -1       788 9.43020E-05 2.76618E-06 0.00000E+00
 -1       789 9.43606E-05 2.58500E-06 8.27181E-25
 -1       790 9.44193E-05 2.41494E-06 1.65436E-24
 -1       791 9.44781E-05 2.25477E-06 0.00000E+00
 -1       792 9.45369E-05 2.10461E-06 0.00000E+00
 -1       793 9.45958E-05 1.96461E-06 8.27181E-25
 -1       794 9.46546E-05 1.83629E-06-1.65436E-24
 -1       795 9.47135E-05 1.72119E-06 0.00000E+00
 -1       796 9.47723E-05 1.62266E-06 0.00000E+00
 -1       797 9.48312E-05 1.54411E-06 0.00000E+00
 -1       798 9.48900E-05 1.49161E-06 1.65436E-24
 -1       799 9.49487E-05 1.47134E-06-8.27181E-25
 -1       800 9.50074E-05 1.49384E-06 1.65436E-24
 -1       801 8.77314E-05 2.98216E-06 0.00000E+00
 -1       802 6.81219E-05 2.38806E-06-6.61744E-24
 -1       803 4.25840E-05 1.67371E-06 0.00000E+00
 -1       804 1.85095E-05 9.86702E-07-6.61744E-24
 -1       805 2.24475E-06 4.43895E-07 0.00000E+00
 -1       806 9.41363E-05 3.12191E-06 0.00000E+00
 -1       807 9.41352E-05 2.85639E-06-8.27181E-25
 -1       808 9.41288E-05 2.60359E-06-1.65436E-24
 -1       809 9.41159E-05 2.36715E-06 8.27181E-25
 -1       810 9.40955E-05 2.15070E-06-3.30872E-24
 -1       811 9.40661E-05 1.95780E-06-1.65436E-24
 -1       812 9.40266E-05 1.79201E-06 0.00000E+00
 -1       813 9.39756E-05 1.65685E-06 0.00000E+00
 -1       814 9.39117E-05 1.55589E-06 3.30872E-24
 -1       815 9.38337E-05 1.49264E-06 8.27181E-25
 -1       816 9.37403E-05 1.47065E-06-3.30872E-24
 -1       817 9.36300E-05 1.49345E-06-1.65436E-24
 -1       818 9.35017E-05 1.56455E-06 1.65436E-24
 -1       819 9.33541E-05 1.68748E-06-8.27181E-25
 -1       820 9.31860E-05 1.86574E-06 1.65436E-24
 -1       821 9.49731E-05 1.64857E-06 0.00000E+00
 -1       822 9.48752E-05 1.68076E-06 0.00000E+00
 -1       823 9.47776E-05 1.72384E-06 0.00000E+00
 -1       824 9.46790E-05 1.83523E-06 0.00000E+00
 -1       825 9.45803E-05 2.05845E-06 0.00000E+00
 -1       826 9.44813E-05 2.43651E-06 1.65436E-24
 -1       827 9.43823E-05 2.98091E-06 3.30872E-24
 -1       828 9.42831E-05 3.70239E-06-1.65436E-24
 -1       829 9.41838E-05 4.57564E-06 3.30872E-24
 -1       830 9.40844E-05 5.57469E-06-1.65436E-24
 -1       831 9.39849E-05 6.64797E-06 0.00000E+00
 -1       832 9.38857E-05 7.74354E-06-1.65436E-24
 -1       833 9.37865E-05 8.80493E-06 0.00000E+00
 -1       834 9.36886E-05 9.77585E-06 0.00000E+00
 -1       835 9.35903E-05 1.06184E-05 8.27181E-25
 -1       836 9.48717E-05 1.65849E-06 0.00000E+00
 -1       837 9.45656E-05 1.74919E-06 0.00000E+00
 -1       838 9.41859E-05 1.83973E-06-1.65436E-24
 -1       839 9.37719E-05 1.92969E-06 0.00000E+00
 -1       840 9.33627E-05 2.01950E-06 4.13590E-25
 -1       856 9.34723E-05 1.19457E-05-2.06795E-25
 -1       857 9.34434E-05 1.27029E-05-2.06795E-25
 -1       858 9.34146E-05 1.35499E-05-8.27181E-25
 -1       859 9.33853E-05 1.44700E-05 4.13590E-25
 -1       860 9.33558E-05 1.54461E-05-8.27181E-25
 -1       861 9.33262E-05 1.64613E-05 0.00000E+00
 -1       862 9.32966E-05 1.74985E-05 0.00000E+00
 -1       863 9.32669E-05 1.85408E-05 0.00000E+00
 -1       864 9.32373E-05 1.95710E-05 0.00000E+00
 -1       865 9.32076E-05 2.05721E-05 0.00000E+00
 -1       866 9.31780E-05 2.15270E-05 0.00000E+00
 -1       867 9.31485E-05 2.24189E-05 0.00000E+00
 -1       868 9.31189E-05 2.32309E-05 8.27181E-25
 -1       869 9.30895E-05 2.39461E-05 4.13590E-25
 -1       870 9.30600E-05 2.45478E-05 0.00000E+00
 -1       871 9.30515E-05 1.12941E-05-4.13590E-25
 -1       872 9.27094E-05 1.12909E-05 0.00000E+00
 -1       873 9.24267E-05 1.12874E-05 0.00000E+00
 -1       874 9.21574E-05 1.12833E-05 2.06795E-25
 -1       875 9.18557E-05 1.12788E-05 2.06795E-25
 -1       876 9.33482E-05 1.19550E-05 0.00000E+00
 -1       877 9.31811E-05 1.26667E-05 0.00000E+00
 -1       878 9.29971E-05 1.34241E-05-3.30872E-24
 -1       879 9.27983E-05 1.42213E-05-1.65436E-24
 -1       880 9.25869E-05 1.50524E-05 3.30872E-24
 -1       881 9.23650E-05 1.59115E-05 1.65436E-24
 -1       882 9.21347E-05 1.67929E-05-3.30872E-24
 -1       883 9.18982E-05 1.76907E-05 0.00000E+00
 -1       884 9.16577E-05 1.85991E-05 0.00000E+00
 -1       885 9.14154E-05 1.95124E-05-1.65436E-24
 -1       886 9.11735E-05 2.04246E-05-3.30872E-24
 -1       887 9.09340E-05 2.13300E-05 0.00000E+00
 -1       888 9.06991E-05 2.22228E-05 0.00000E+00
 -1       889 9.04707E-05 2.30969E-05 0.00000E+00
 -1       890 9.02510E-05 2.39467E-05-1.65436E-24
 -1       891 9.26472E-05 2.49769E-05-8.27181E-25
 -1       892 9.22459E-05 2.49341E-05-8.27181E-25
 -1       893 9.18052E-05 2.48914E-05 0.00000E+00
 -1       894 9.13043E-05 2.48488E-05 2.06795E-25
 -1       895 9.07221E-05 2.48062E-05-2.06795E-25
 -1       956 9.29039E-05 2.46013E-06 3.30872E-24
 -1       957 9.28091E-05 2.87784E-06 1.65436E-24
 -1       958 9.27140E-05 3.34949E-06 0.00000E+00
 -1       959 9.26187E-05 3.86825E-06 8.27181E-25
 -1       960 9.25234E-05 4.42730E-06 0.00000E+00
 -1       961 9.24279E-05 5.01978E-06-1.65436E-24
 -1       962 9.23325E-05 5.63881E-06 0.00000E+00
 -1       963 9.22371E-05 6.27754E-06 1.65436E-24
 -1       964 9.21416E-05 6.92907E-06-3.30872E-24
 -1       965 9.20461E-05 7.58653E-06 0.00000E+00
 -1       966 9.19507E-05 8.24306E-06 0.00000E+00
 -1       967 9.18553E-05 8.89177E-06 0.00000E+00
 -1       968 9.17599E-05 9.52579E-06 0.00000E+00
 -1       969 9.16647E-05 1.01383E-05 1.65436E-24
 -1       970 9.15698E-05 1.07224E-05-3.30872E-24
 -1       971 9.13876E-05 1.18386E-05-1.65436E-24
 -1       972 9.12976E-05 1.24845E-05 8.27181E-25
 -1       973 9.12075E-05 1.32006E-05 1.65436E-24
 -1       974 9.11172E-05 1.39778E-05 1.65436E-24
 -1       975 9.10268E-05 1.48070E-05 1.65436E-24
 -1       976 9.09364E-05 1.56791E-05-1.65436E-24
 -1       977 9.08459E-05 1.65852E-05 0.00000E+00
 -1       978 9.07554E-05 1.75160E-05-1.65436E-24
 -1       979 9.06649E-05 1.84625E-05 3.30872E-24
 -1       980 9.05745E-05 1.94157E-05 0.00000E+00
 -1       981 9.04840E-05 2.03664E-05-3.30872E-24
 -1       982 9.03936E-05 2.13055E-05 0.00000E+00
 -1       983 9.03034E-05 2.22240E-05-3.30872E-24
 -1       984 9.02135E-05 2.31127E-05 0.00000E+00
 -1       985 9.01241E-05 2.39626E-05 1.65436E-24
 -3
    1PSTEP                        12           6           1          
  100CL  106 5.15625E-01         409                     0    6           1
 -4  STRESS      6    1
 -5  SXX         1    4    1    1
 -5  SYY         1    4    2    2
 -5  SZZ         1    4    3    3
 -5  SXY         1    4    1    2
 -5  SYZ         1    4    2    3
 -5  SZX         1    4    3    1
 -1         1-2.19569E+06-9.44912E+05-4.71170E+05-1.22465E+06-3.78350E-10 9.09495E-09
 -1         2 2.44989E+03-2.09592E+05 8.00018E+03-6.19789E+02-9.87939E-11 2.32981E-08
 -1         3-1.73913E+02-9.23230E+05 2.19348E+02-4.62527E+02-1.34488E-10-5.73891E-09
 -1         5-3.44914E+00 2.70008E+05 7.02309E+00 1.11750E-01 6.04151E-11-4.26417E-09
 -1         8-1.04624E+06-3.90084E+05-9.41408E+04-5.64250E+05 1.78261E-10-4.31464E-09
 -1         9-2.02840E+06-6.38204E+05-2.57292E+05-6.07293E+05 3.15486E-09-7.81729E-09
 -1        10-7.98737E+02-9.61814E+05-1.30651E+03-3.12871E+03-4.73847E-09-2.02132E-08
 -1        12-5.69267E-01 2.70022E+05 2.27523E+02 9.14578E-01 9.48752E-11-1.38227E-08
 -1        15 2.01911E+03 1.10962E+03 6.52677E+03 4.42603E+00-2.06001E-10 2.32120E-08
 -1        16-3.07399E+06-1.25365E+06-4.96279E+05-1.31590E+06 1.13359E-08 2.71636E-10
 -1        17-1.13813E+06-6.61036E+05-2.22276E+05-5.91031E+05-5.79312E-09 1.04337E-08
 -1        18-4.75236E+04-1.62850E+04-3.24884E+04-6.82875E+04 3.58466E-09 1.85810E-09
 -1        19 8.52339E+04 1.00494E+05-5.60414E+02 1.66301E+04-4.73119E-10-3.92247E-09
 -1        20-3.85217E+04-4.02791E+05-8.90573E+04 2.80887E+04 3.24765E-09-6.21488E-10
 -1        21-3.74100E+01-2.30229E+05-7.40511E+02-6.41732E+01-5.00303E-09 2.53723E-09
 -1        24-3.17860E+06-8.58540E+05-3.88375E+05-1.15645E+06-3.43546E-08-1.48915E-08
 -1        25-2.19864E+04-2.38768E+05-3.73739E+04-1.16500E+05 3.44153E-10 2.07292E-09
 -1        26-2.33750E+04 6.75989E+04-1.44399E+04-8.10782E+03 1.51122E-09-2.96654E-09
 -1        27-6.27991E+04-2.20441E+05-8.24840E+04 4.97082E+04 4.60644E-09 6.76361E-10
 -1        28 1.77843E+04-6.39349E+04 1.30269E+04 1.98312E+04 4.63606E-09 5.43786E-09
 -1        32-9.71796E+05-7.02516E+05 2.37445E+05-5.66244E+05-2.18060E-08 7.51578E-09
 -1        33-1.27051E+05 6.43535E+04 2.28777E+04-3.54188E+04 6.77668E-10 1.75290E-09
 -1        34-1.63360E+05-1.64083E+04 3.99139E+02 5.07713E+04 3.56954E-09 7.78376E-09
 -1        35-1.80980E+04-2.54028E+04-9.98181E+02 4.01061E+04 4.00769E-09-5.96022E-09
 -1        51 1.81171E+04-3.59271E+05 4.53967E+04-9.70957E+05-2.91038E-11 1.92667E-08
 -1        52 1.04842E+04-3.57085E+05 2.91785E+04-1.13241E+06 9.60426E-10 1.38971E-09
 -1        53 7.28343E+03-3.71114E+05 2.36208E+04-9.67552E+05 7.27596E-10-8.97853E-09
 -1        54 2.03966E+04-3.69854E+05 3.64434E+04-1.13594E+06-1.23691E-10-1.03937E-08
 -1        55 4.00439E+04-3.83605E+05 6.41501E+04-9.66992E+05 7.85803E-10 7.04313E-09
 -1        56-4.18732E+06-4.64524E+05-3.42098E+05-1.61735E+06-5.45697E-10-1.09139E-09
 -1        57-4.33332E+06-7.73437E+05-2.31761E+05-1.59480E+06-3.22871E-10 9.24774E-09
 -1        58-4.25755E+06-5.74077E+05-8.04070E+04-1.59393E+06 1.13141E-09 7.18865E-09
 -1        59-4.25215E+06-6.45017E+05-4.83318E+04-1.62217E+06-2.57933E-09-3.55340E-09
 -1        60-4.26771E+06-5.89886E+05-1.87603E+04-1.59097E+06-1.71531E-09 9.64792E-09
 -1        61-4.24287E+06-6.23923E+05-1.07091E+04-1.62248E+06-3.64821E-10 8.55107E-09
 -1        62-4.26661E+06-5.94796E+05-5.10988E+03-1.59368E+06 2.21939E-09 1.03489E-09
 -1        63-4.24853E+06-6.14180E+05-4.11748E+03-1.61421E+06-1.88629E-09 8.46148E-09
 -1        64-4.26192E+06-5.99654E+05-4.67873E+03-1.59917E+06-5.76165E-10 7.06495E-09
 -1        65-4.26005E+06-6.05696E+05-9.28592E+03-1.60196E+06-7.65795E-10-1.18644E-09
 -1        66-4.25505E+06-6.03357E+05-1.62440E+04-1.60588E+06-4.38263E-10-3.61797E-09
 -1        67-4.28062E+06-6.11250E+05-4.15394E+04-1.58738E+06 9.81345E-10-1.40644E-08
 -1        68-4.24156E+06-5.94413E+05-6.91781E+04-1.61371E+06 5.80258E-10-4.94401E-09
 -1        69-4.35566E+06-7.16767E+05-1.99287E+05-1.55851E+06 2.47655E-09-6.90670E-09
 -1        70-4.18086E+06-5.00368E+05-2.94183E+05-1.63401E+06 1.02591E-09-5.54428E-09
 -1        86-1.23192E+03-2.12305E+05 8.52463E+03 3.09879E+02 1.14755E-09 3.25991E-09
 -1        87 8.14239E+03-2.06882E+05 1.78381E+04-1.20429E+03 1.92631E-09-1.58130E-09
 -1        88-6.90370E+03-2.15017E+05 2.72832E+04 8.94390E+02 2.74122E-09 5.49335E-10
 -1        89 5.14152E+04-1.86918E+05 7.35769E+04-2.22270E+03 4.10728E-09 6.93473E-09
 -1        90-4.43502E+04-2.32255E+05 1.04004E+05 1.32872E+03 4.05998E-09-6.68484E-09
 -1       121-2.59116E+02-9.23926E+05 1.33806E+02 2.30838E+02 5.42684E-10-3.38150E-09
 -1       122-9.96704E+01-9.23191E+05 4.69511E+02-9.24347E+02-1.83647E-09-7.06314E-09
 -1       123-3.06107E+02-9.23979E+05 6.81783E+02 6.90977E+02 1.50538E-09-1.88629E-09
 -1       124 7.71463E+02-9.22690E+05 1.94538E+03-2.01464E+03-3.79896E-09 2.79397E-09
 -1       125-8.57236E+02-9.24470E+05 2.90404E+03 1.31972E+03 2.42198E-09-6.36646E-09
 -1       191-3.85486E+00 2.70031E+05 8.47703E+00-5.62152E-02 9.84595E-11-5.66979E-09
 -1       192-4.09369E+00 2.70008E+05 1.48658E+01 5.43813E-01 1.31168E-10-1.85810E-09
 -1       193-5.56889E+00 2.70031E+05 2.77263E+01-4.90044E-01 1.66407E-10-1.20290E-08
 -1       194-6.16804E+00 2.70010E+05 5.62187E+01 1.30977E+00 1.25522E-10 1.65642E-09
 -1       195-8.86296E+00 2.70029E+05 1.10046E+02-8.26883E-01 2.07294E-10-8.93215E-09
 -1       251-9.29109E+05-1.58180E+03 3.42973E+03-6.83731E+03 9.36780E-11-1.07298E-09
 -1       252-9.25895E+05 1.83292E+03 2.73751E+03 5.92347E+03 4.14047E-10 5.74886E-09
 -1       253-9.28897E+05-2.95822E+02 7.52344E+02-2.37701E+03-5.49107E-10 1.66947E-08
 -1       254-9.26304E+05 3.08156E+02 8.80168E+02-3.44394E+03-3.53168E-10-5.21084E-09
 -1       255-9.28676E+05-8.07808E+01 1.34321E+02 2.53000E+03-1.11868E-10-9.86759E-10
 -1       256-9.27064E+05 9.30440E+01 3.89328E+02-1.20055E+04 1.33250E-09-2.82657E-10
 -1       257-9.28201E+05-3.27179E+01 1.87753E+02 6.18443E+03-6.93376E-10-1.30788E-09
 -1       258-9.27791E+05 1.38521E+02 4.29868E+02-1.67964E+04-1.21594E-09-1.24304E-09
 -1       259-9.28021E+05-7.15275E+01 6.92216E+02 7.32121E+03-3.15225E-10 2.36298E-09
 -1       260-9.27464E+05 5.34839E+02 1.59763E+03-1.61633E+04 1.54375E-09-2.33865E-09
 -1       261-9.28517E+05-4.36346E+02 2.60649E+03 5.55124E+03 1.45883E-09 2.56671E-09
 -1       262-9.25346E+05 3.13931E+03 6.75015E+03-1.03277E+04 1.85821E-10 6.80211E-09
 -1       263-9.30055E+05-2.72884E+03 1.03126E+04 1.48542E+03-4.57248E-10 6.82667E-09
 -1       264-9.16990E+05 2.00879E+04 2.88462E+04-1.34444E+03-2.24168E-09 1.69566E-08
 -1       265-9.36808E+05-1.73646E+04 4.03011E+04-3.43196E+03-2.67141E-09 2.79033E-09
 -1       266-3.65515E+04-1.70887E+04 8.57735E+04-9.47161E+01-1.45519E-11-2.36781E-10
 -1       267 4.23745E+04 1.99215E+04 6.06167E+04 1.09268E+02-1.27329E-11-9.34111E-09
 -1       268-5.68228E+03-2.82121E+03 2.25313E+04-1.39235E+01-4.36557E-11-5.24651E-09
 -1       269 6.70918E+03 3.37665E+03 1.46446E+04 1.62178E+01 3.29692E-11 1.29362E-08
 -1       270-1.00705E+03-5.54799E+02 7.06918E+03-2.20091E+00-4.18368E-11 1.22462E-08
 -1       271-3.45745E+06-4.32768E+05-2.63149E+05-1.34745E+06-8.36735E-11 5.18048E-09
 -1       272-3.54551E+06-6.30949E+05-1.69176E+05-1.35200E+06 1.05706E-09-5.21686E-09
 -1       273-3.50844E+06-4.96882E+05-6.21725E+04-1.33404E+06-2.73167E-09-2.51021E-10
 -1       274-3.48513E+06-5.53104E+05-3.47567E+04-1.37308E+06-1.80080E-09 2.83489E-09
 -1       275-3.51709E+06-5.01812E+05-1.44814E+04-1.32996E+06 1.81990E-09 2.33103E-09
 -1       276-3.47440E+06-5.47913E+05-7.65899E+03-1.38001E+06-4.14593E-09 1.12868E-08
 -1       277-3.51964E+06-5.00814E+05-3.76630E+03-1.32786E+06 3.72893E-10 6.36373E-09
 -1       278-3.47153E+06-5.49256E+05-2.71305E+03-1.38314E+06-1.06047E-09 1.11463E-08
 -1       279-3.52034E+06-5.00149E+05-2.89835E+03-1.32713E+06-4.60659E-10 1.24139E-08
 -1       280-3.47190E+06-5.49985E+05-5.31878E+03-1.38323E+06-8.69591E-10 4.29873E-09
 -1       281-3.51930E+06-5.00117E+05-9.69439E+03-1.32778E+06-9.80890E-10 2.00089E-11
 -1       282-3.47827E+06-5.54270E+05-2.32220E+04-1.37961E+06-1.11231E-09 5.94355E-10
 -1       283-3.51373E+06-4.96658E+05-4.14068E+04-1.33030E+06 2.09207E-09-1.44246E-09
 -1       284-3.51844E+06-6.06076E+05-1.12739E+05-1.36535E+06-5.66047E-10-9.12405E-09
 -1       285-3.47949E+06-4.54290E+05-1.75391E+05-1.33956E+06-5.20231E-10-1.10158E-08
 -1       301 1.90765E+04-4.12467E+04 1.42115E+05-8.19523E+04-3.05590E-10 5.35692E-10
 -1       302 2.01640E+04-5.26150E+03 9.62110E+04-1.20591E+05 1.16052E-09 1.73804E-09
 -1       303 1.02090E+03-2.74684E+04 7.86937E+04-8.20720E+04-6.80302E-10 9.60790E-09
 -1       304 2.78460E+04 2.28600E+03 1.21687E+05-1.20161E+05 7.34872E-10 1.28593E-08
 -1       305 2.70933E+04-4.80298E+04 1.98470E+05-8.23994E+04-8.87667E-10 9.85165E-09
 -1       306-5.03608E+06-5.72302E+05-3.77399E+05-1.94891E+06 7.93079E-10-1.74914E-08
 -1       307-5.17194E+06-9.37536E+05-2.55500E+05-1.93743E+06-4.72937E-09-4.22369E-09
 -1       308-5.14264E+06-6.65499E+05-8.88722E+04-1.88610E+06-1.01227E-09 8.51651E-09
 -1       309-5.04181E+06-8.37963E+05-5.33199E+04-2.02405E+06 3.08273E-09 2.84672E-10
 -1       310-5.16730E+06-6.68295E+05-2.05577E+04-1.86433E+06-9.35415E-10-4.91218E-09
 -1       311-5.02424E+06-8.21401E+05-1.18029E+04-2.03431E+06 7.81802E-09-3.19488E-09
 -1       312-5.16031E+06-6.81532E+05-6.27775E+03-1.87611E+06-1.08503E-09 5.34340E-09
 -1       313-5.05765E+06-7.77930E+05-4.17175E+03-1.98477E+06-2.08775E-09 6.84213E-09
 -1       314-5.13198E+06-7.13058E+05-7.68217E+03-1.91249E+06 5.79348E-10-2.62298E-09
 -1       315-5.12472E+06-7.13610E+05-1.21496E+04-1.90564E+06-2.75077E-09 3.90128E-09
 -1       316-5.09245E+06-7.46477E+05-2.46901E+04-1.95460E+06-6.63522E-09-6.05178E-09
 -1       317-5.20671E+06-6.77050E+05-6.10654E+04-1.83389E+06 7.79784E-09-2.40561E-09
 -1       318-5.05186E+06-7.48831E+05-1.01686E+05-1.98539E+06-1.57816E-08 1.66438E-08
 -1       319-5.33646E+06-8.22757E+05-2.95648E+05-1.77593E+06-7.65431E-09 1.69166E-09
 -1       320-4.96497E+06-6.02366E+05-4.33000E+05-2.01286E+06 1.14087E-08 3.28873E-09
 -1       336 5.52850E+02-1.00020E+06-5.57304E+03 1.80216E+03-9.44328E-09-2.02217E-08
 -1       337-2.05393E+03-1.00134E+06-6.17289E+03-4.48249E+03-1.74164E-08-1.39817E-08
 -1       338 3.72952E+02-1.00033E+06-8.06323E+03 2.66668E+03-1.25474E-08-1.85319E-08
 -1       339-8.35079E+03-1.00533E+06-1.76487E+04-6.17926E+03-2.27801E-08-2.61389E-09
 -1       340 5.56485E+03-9.96385E+05-2.73391E+04 3.48505E+03-1.48311E-08 1.42027E-08
 -1       406 1.68882E+01 2.70018E+05 4.49268E+02-9.82127E-02 3.82954E-10-2.60343E-09
 -1       407 1.56033E+02 2.70101E+05 9.54669E+02-5.58547E+00-7.68523E-11 3.64548E-09
 -1       408 4.90907E+02 2.69950E+05 1.90677E+03 5.80953E+00 4.28713E-10-6.18411E-09
 -1       409 2.06104E+03 2.70710E+05 4.29248E+03-5.67183E+01-3.63798E-12 4.95061E-09
 -1       410 5.92274E+03 2.69408E+05 8.76299E+03 5.32296E+01 3.81988E-10-5.66774E-09
 -1       521-7.94731E+06-7.64944E+05-7.16043E+05-2.59414E+06-7.05040E-09 5.41331E-09
 -1       522-6.09826E+06-2.00484E+06-2.54075E+05-3.74773E+06-8.14034E-08-2.79106E-08
 -1       523-8.05231E+06-4.37006E+05-1.48175E+05-1.97905E+06-1.30058E-08-4.47326E-08
 -1       524-6.24116E+06-2.14229E+06-4.86328E+04-4.55298E+06 9.96779E-08-1.04093E-07
 -1       525-8.05793E+06-4.37363E+05-3.81405E+04-1.94722E+06 9.35470E-08-6.94863E-08
 -1       526-5.99022E+06-1.84168E+06 8.58960E+04-3.89714E+06 7.20429E-08-1.02082E-08
 -1       527-8.07923E+06-9.01016E+05-1.50292E+05-2.49827E+06 2.61061E-08-2.01362E-08
 -1       528-6.25440E+06-9.66620E+05 1.85037E+05-2.48615E+06 9.89530E-09 1.24783E-09
 -1       529-7.55318E+06-1.48166E+06-1.65355E+05-3.16266E+06 4.03088E-09-3.37604E-09
 -1       530-7.79653E+06 9.18632E+04 1.05153E+05-1.60899E+06-4.93637E-08 6.39702E-08
 -1       531-6.74773E+06-1.80529E+06-5.30910E+04-3.50710E+06-8.79591E-08 1.27911E-08
 -1       532-8.95972E+06 5.84609E+05-4.47258E+04-1.44666E+06 6.53249E-08-6.80393E-08
 -1       533-6.62811E+06-1.81108E+06-1.28581E+05-3.53885E+06 1.55778E-08-1.28854E-07
 -1       534-8.27175E+06 5.72968E+04-2.58176E+05-1.50036E+06-3.83079E-08 9.83800E-08
 -1       535-7.26966E+06-1.39602E+06-6.77960E+05-3.29783E+06-8.29459E-09 5.91244E-08
 -1       536-3.54504E+05-1.48268E+04 3.09814E+04-9.07603E+03-1.83616E-09 8.26549E-09
 -1       537-3.28068E+05 1.71017E+04 2.42185E+04 2.02954E+04-2.71901E-08 8.18864E-09
 -1       538-3.42062E+05-1.83262E+03 8.53177E+03-1.19701E+04 4.93458E-09 2.59470E-08
 -1       539-3.34713E+05 2.88634E+03 6.37106E+03 2.04307E+04 2.94133E-08 3.14563E-08
 -1       540-3.47546E+05-2.93325E+02 9.68311E+02-9.20691E+03 5.59032E-09 1.30487E-08
 -1       541-3.20709E+05 1.19762E+03 5.30279E+03 1.04044E+04-1.50596E-08 7.28819E-09
 -1       542-3.55897E+05-6.92025E+02-2.51941E+03-1.94248E+03-1.37834E-09 8.70904E-09
 -1       543-3.16769E+05 8.09253E+02 4.89998E+03-5.02203E+03-2.18392E-09 1.07567E-08
 -1       544-3.51700E+05-3.22451E+02-2.55946E+03 6.21025E+03-3.37309E-09-5.92044E-09
 -1       545-3.30907E+05-1.69905E+02 7.37877E+02-1.80317E+04-1.97434E-09-1.68187E-08
 -1       546-3.41870E+05 8.38541E+02-2.56479E+03 1.10632E+04 1.17021E-09-1.98540E-08
 -1       547-3.39994E+05-2.82956E+03-5.68122E+03-2.22237E+04-2.38181E-08-2.57542E-08
 -1       548-3.42470E+05 2.85906E+03-1.04452E+04 1.04009E+04-2.21942E-08-1.88788E-08
 -1       549-3.35478E+05-1.80222E+04-2.42809E+04-1.55841E+04-1.02348E-08-8.24912E-09
 -1       550-3.46367E+05 1.54801E+04-4.15537E+04 4.42305E+03 8.46740E-10-4.85670E-10
 -1       551 1.37864E+04-5.17536E+05 2.31490E+04-8.63925E+05-4.10291E-08-3.69619E-09
 -1       552 3.12973E+04-5.25783E+05 3.04160E+04-1.23020E+06-3.08210E-08 2.35741E-08
 -1       553 2.20897E+04-5.31627E+05 4.54763E+04-8.60756E+05-4.85961E-08 2.42362E-08
 -1       554 5.64677E+04-5.18898E+05 9.57800E+04-1.23153E+06-3.06245E-08 5.91172E-09
 -1       555 4.99317E+04-5.50126E+05 1.70782E+05-8.61607E+05-5.12955E-08-3.96903E-09
 -1       556 8.86214E+04-1.65689E+05 5.60562E+04-2.11589E+05-6.83940E-09-3.60887E-09
 -1       557 1.56059E+05-2.20650E+05 2.95976E+04-2.65907E+05 2.25555E-10 1.24401E-08
 -1       558 8.74929E+04-1.72667E+05 1.17335E+04-2.05642E+05-8.86212E-09-9.93896E-09
 -1       559 1.45736E+05-2.27970E+05 6.03049E+03-2.70771E+05 7.33417E-09-3.05590E-09
 -1       560 8.47332E+04-1.70866E+05 2.35873E+03-2.07449E+05 3.49246E-09 3.67982E-09
 -1       561 1.41687E+05-2.26773E+05 1.30892E+03-2.73353E+05 5.27143E-09-1.13005E-09
 -1       562 8.25337E+04-1.69422E+05 4.32209E+02-2.09030E+05-1.01863E-10-6.91216E-11
 -1       563 1.39104E+05-2.25657E+05 3.19955E+02-2.75006E+05-1.70621E-09-1.03973E-08
 -1       564 8.11210E+04-1.68520E+05 9.90400E+01-2.10031E+05 2.81216E-09-4.18731E-09
 -1       565 1.37681E+05-2.25043E+05 9.75970E+01-2.75904E+05 3.19415E-09 7.75981E-09
 -1       566 8.05352E+04-1.68140E+05 1.20294E+01-2.10448E+05 4.29827E-09 1.09958E-08
 -1       567 1.37375E+05-2.24899E+05-5.95973E+01-2.76024E+05 8.33114E-09-7.08860E-09
 -1       568 8.08133E+04-1.68324E+05-2.68378E+02-2.10325E+05 7.43967E-10 5.89353E-09
 -1       569 1.37476E+05-2.24763E+05-6.37730E+02-2.74702E+05-2.81943E-10 1.46210E-08
 -1       570 8.25450E+04-1.69782E+05-1.47502E+03-2.10197E+05 3.54339E-09-2.69665E-09
 -1       571 1.98269E+05 7.29977E+03 1.07926E+04-5.12611E+04-6.45741E-11-8.12815E-09
 -1       572 1.99872E+05 2.55243E+03 5.28785E+03-5.62017E+04-1.61208E-09-2.89083E-09
 -1       573 1.98911E+05 6.22029E+02 2.34913E+03-5.11334E+04-7.63976E-10 4.32374E-09
 -1       574 1.99098E+05 2.17469E+02 1.17709E+03-5.63457E+04-1.61162E-09-6.99674E-09
 -1       575 1.98981E+05 4.63180E+01 5.54876E+02-5.11165E+04 4.76575E-10 1.83354E-09
 -1       576 1.98993E+05 2.89023E+01 2.82685E+02-5.63649E+04 6.42281E-10 1.54560E-08
 -1       577 1.98993E+05 1.47292E+01 1.39602E+02-5.11143E+04-8.68499E-09 2.11412E-09
 -1       578 1.98985E+05 1.79648E+01 7.68927E+01-5.63673E+04-2.01317E-08-4.32601E-09
 -1       579 1.99008E+05 1.05852E+01 4.82498E+01-5.11142E+04-1.03137E-08 4.29645E-09
 -1       580 1.99006E+05 9.23014E+00 4.72882E+01-5.63643E+04-1.90039E-09 1.00636E-08
 -1       581 1.99034E+05 2.69631E-01 6.62307E+01-5.11173E+04 7.92170E-10 9.46329E-10
 -1       582 1.99052E+05 1.04998E+01 1.28196E+02-5.63333E+04 1.94177E-10-8.78572E-10
 -1       583 1.99065E+05 3.89301E+01 2.46462E+02-5.11452E+04-3.65617E-10 3.26281E-09
 -1       584 1.99182E+05 2.31648E+02 5.53527E+02-5.60996E+04-2.73576E-09 8.18909E-09
 -1       585 1.99043E+05 7.17455E+02 1.12383E+03-5.13514E+04-5.21140E-10 3.91265E-09
 -1       586-2.30922E+03 6.56930E+04-2.96328E+03-1.76274E+05-1.07775E-10 4.47380E-09
 -1       587-4.89458E+02 6.53074E+04-1.75719E+02-1.93995E+05 1.94632E-10 2.54443E-09
 -1       588 6.94201E+02 6.53621E+04 2.48572E+03-1.76176E+05 2.40107E-10 7.03858E-09
 -1       589 3.51649E+03 6.67082E+04 7.02569E+03-1.93816E+05-2.72848E-11-3.82533E-09
 -1       590 1.01737E+04 6.45557E+04 1.49656E+04-1.76458E+05-3.03771E-10-5.26143E-09
 -1       591-4.29831E+04-1.18848E+04-1.42102E+04-2.17433E+04 3.88013E-10 1.20144E-09
 -1       592-4.44882E+04-1.52007E+04-7.69688E+03-2.52513E+04 1.33355E-10-3.60342E-09
 -1       593-4.44175E+04-1.08403E+04-3.20424E+03-2.27723E+04 3.98234E-09 4.24529E-09
 -1       594-4.25108E+04-1.31323E+04-1.59810E+03-2.53465E+04 1.10549E-09 5.85032E-09
 -1       595-4.45274E+04-1.08356E+04-7.34354E+02-2.28194E+04 1.02244E-09 1.15821E-08
 -1       596-4.23768E+04-1.30376E+04-3.74240E+02-2.53323E+04 1.92460E-09 1.44016E-08
 -1       597-4.45413E+04-1.08448E+04-2.05799E+02-2.28213E+04 2.77403E-10 1.03522E-08
 -1       598-4.23639E+04-1.30340E+04-1.69133E+02-2.53283E+04-2.58979E-10-1.90920E-08
 -1       599-4.45402E+04-1.08449E+04-2.20667E+02-2.28210E+04-3.88127E-10-1.19661E-08
 -1       600-4.23780E+04-1.30388E+04-4.13623E+02-2.53317E+04-1.90084E-10-8.21819E-09
 -1       601-4.45228E+04-1.08352E+04-8.17934E+02-2.28181E+04 2.78328E-09-8.10780E-09
 -1       602-4.25273E+04-1.31443E+04-1.78361E+03-2.53454E+04 4.27315E-09-9.16850E-09
 -1       603-4.43985E+04-1.08423E+04-3.57744E+03-2.27657E+04 5.85192E-09-9.09949E-10
 -1       604-4.47429E+04-1.54446E+04-8.59352E+03-2.52273E+04 3.30215E-09-1.70357E-08
 -1       605-4.27867E+04-1.20164E+04-1.58654E+04-2.16256E+04 6.44889E-09-4.62842E-09
 -1       606 2.69082E+04-9.54094E+03-1.71691E+04 2.61597E+04-1.77170E-09-1.92449E-09
 -1       607 2.39683E+04-3.08258E+03-8.54922E+03 2.93673E+04-1.74259E-09-8.20364E-10
 -1       608 2.56352E+04-5.24566E+02-3.82858E+03 2.59522E+04-1.58798E-09 2.96222E-09
 -1       609 2.53034E+04-1.40726E+02-1.93367E+03 2.95975E+04-3.16959E-09 9.88075E-09
 -1       610 2.54801E+04 1.98056E+01-9.23711E+02 2.59289E+04 1.60071E-10 6.82803E-09
 -1       611 2.54175E+04 3.23629E+01-4.65808E+02 2.96226E+04-5.94537E-09 9.16748E-09
 -1       612 2.54381E+04 3.55781E+01-2.22827E+02 2.59267E+04-6.62294E-09-1.52863E-09
 -1       613 2.54143E+04 4.12354E+01-1.01279E+02 2.96256E+04-8.07768E-09-1.52409E-09
 -1       614 2.54148E+04 3.67205E+01-2.77239E+01 2.59259E+04-3.29783E-09 3.43812E-09
 -1       615 2.54020E+04 4.70235E+01 3.31268E+01 2.96261E+04 3.34330E-09-3.87445E-10
 -1       616 2.53972E+04 4.27323E+01 1.07873E+02 2.59261E+04-3.79623E-09-4.95083E-09
 -1       617 2.54083E+04 7.41375E+01 2.49631E+02 2.96255E+04 4.11001E-09-7.40988E-09
 -1       618 2.53705E+04 1.17863E+02 5.04357E+02 2.59263E+04 6.61157E-09 6.36942E-09
 -1       619 2.55824E+04 4.66739E+02 1.13345E+03 2.96248E+04 1.36640E-09 5.47834E-09
 -1       620 2.52004E+04 1.31638E+03 2.27838E+03 2.59252E+04 4.94197E-10-2.37333E-09
 -1       621 3.05122E+02 2.11415E+05 2.70274E+03 9.56507E+03-1.02773E-10-8.39168E-09
 -1       622 3.55356E+02 2.12082E+05 2.36188E+03 1.39472E+04-1.82354E-10-9.71340E-10
 -1       623 1.59174E+01 2.11596E+05 2.80458E+03 9.51991E+03-4.74927E-11-6.62340E-10
 -1       624 1.29358E+03 2.12939E+05 5.40285E+03 1.39922E+04-2.03784E-10 2.84973E-09
 -1       625 1.30007E+03 2.10547E+05 9.42895E+03 9.52018E+03-1.70985E-10-5.45515E-09
 -1       626 1.78287E+05 4.85425E+04 3.64636E+03 9.51796E+04 5.67070E-10-5.33873E-09
 -1       627 1.75965E+05 5.02066E+04 1.75711E+03 9.89725E+04-9.58607E-10-5.29678E-09
 -1       628 1.78414E+05 4.68283E+04 7.42168E+02 9.57415E+04 4.79849E-09 1.06388E-08
 -1       629 1.75450E+05 4.97800E+04 3.63702E+02 9.91979E+04 9.94442E-09 1.27445E-08
 -1       630 1.78421E+05 4.67479E+04 1.68087E+02 9.57571E+04 1.70621E-09 6.65375E-09
 -1       631 1.75387E+05 4.97698E+04 9.02577E+01 9.91986E+04-2.62162E-09 6.78000E-09
 -1       632 1.78411E+05 4.67545E+04 5.91343E+01 9.57490E+04-4.18322E-09-7.55404E-09
 -1       633 1.75374E+05 4.97751E+04 6.55043E+01 9.91913E+04-1.28080E-09-4.32101E-09
 -1       634 1.78401E+05 4.67556E+04 1.05469E+02 9.57444E+04-9.29049E-10-1.36056E-08
 -1       635 1.75378E+05 4.97767E+04 2.13486E+02 9.91907E+04 9.08130E-10-5.42377E-09
 -1       636 1.78390E+05 4.67546E+04 4.30998E+02 9.57414E+04-3.35456E-09 3.98882E-09
 -1       637 1.75466E+05 4.98451E+04 9.47191E+02 9.91866E+04-5.11659E-09-1.04092E-09
 -1       638 1.78354E+05 4.69656E+04 1.94651E+03 9.56443E+04-1.52282E-08-5.65251E-10
 -1       639 1.76485E+05 5.12683E+04 4.60489E+03 9.88840E+04-9.61461E-09 2.22594E-08
 -1       640 1.78217E+05 5.12047E+04 9.55619E+03 9.38456E+04-6.19775E-09 8.14975E-09
 -1       656 4.78764E+04-1.21335E+06-1.15573E+05-3.98132E+02 3.49246E-10 1.48745E-09
 -1       657-6.32748E+04-1.26552E+06-9.56027E+04 7.43617E+03 8.78572E-10-1.29396E-08
 -1       658 1.51932E+04-1.22822E+06-5.86973E+04-1.61852E+03 9.44738E-10-2.20646E-09
 -1       659-6.79272E+04-1.26772E+06-1.01714E+05 8.27178E+03-1.85537E-10-5.80654E-09
 -1       660 5.25178E+04-1.21115E+06-1.26083E+05-1.23373E+03-6.54836E-10 1.57986E-09
 -1       661 1.64156E+05 1.78257E+04 1.58875E+04 6.41746E+04 3.94539E-09 4.60295E-09
 -1       662 1.72518E+05 3.02017E+04 1.07057E+04 6.13153E+04 1.91039E-09-4.66298E-09
 -1       663 1.67272E+05 2.29267E+04 3.74487E+03 6.32744E+04 3.40151E-10 2.53658E-09
 -1       664 1.68912E+05 2.42314E+04 2.23909E+03 6.24106E+04-4.22432E-10 4.08158E-09
 -1       665 1.67739E+05 2.36282E+04 8.83253E+02 6.31426E+04-1.11078E-09-4.50589E-09
 -1       666 1.68363E+05 2.34253E+04 5.15276E+02 6.25799E+04-1.76040E-09-2.58774E-09
 -1       667 1.67818E+05 2.37117E+04 2.71881E+02 6.31129E+04 7.15175E-10-1.74642E-09
 -1       668 1.68278E+05 2.33602E+04 2.72879E+02 6.26226E+04-2.41371E-10-1.10325E-08
 -1       669 1.67823E+05 2.36914E+04 3.66029E+02 6.31005E+04 2.31115E-09 4.90670E-09
 -1       670 1.68370E+05 2.35546E+04 7.93855E+02 6.26226E+04 4.26768E-09 2.33626E-09
 -1       671 1.67727E+05 2.35212E+04 1.40848E+03 6.31114E+04 2.13182E-09-1.17709E-08
 -1       672 1.69191E+05 2.49242E+04 3.60272E+03 6.24238E+04-2.09518E-10-1.12922E-08
 -1       673 1.67006E+05 2.23562E+04 6.03727E+03 6.32861E+04-1.73748E-09-4.12820E-09
 -1       674 1.74939E+05 3.46214E+04 1.72653E+04 6.07333E+04-3.71847E-09-8.30596E-10
 -1       675 1.62015E+05 1.40951E+04 2.56272E+04 6.46997E+04 8.09905E-10-6.89033E-09
 -1       676 1.92205E+01-2.30167E+05-8.92507E+02 3.20874E+01-2.51561E-10 1.36607E-09
 -1       677-2.36937E+02-2.30382E+05-1.63339E+03-6.41409E+01-4.75336E-09-1.34503E-08
 -1       678 1.58220E+02-2.30013E+05-2.88741E+03 3.20315E+01 4.57931E-10-8.72955E-10
 -1       679-2.88808E+03-2.32125E+05-6.85907E+03-6.39251E+01-2.27635E-09-3.59164E-09
 -1       680 1.72363E+03-2.28425E+05-1.10545E+04 3.15060E+01-1.23191E-09 2.70085E-09
 -1       771-2.45908E+06-4.59548E+05-6.59747E+04-1.05161E+06-1.37079E-08-9.72068E-09
 -1       772-2.43473E+06-4.99349E+05-3.50518E+04-1.09645E+06-9.02219E-09 5.73891E-09
 -1       773-2.46936E+06-4.51468E+05-1.57748E+04-1.05536E+06-4.83124E-09 1.07430E-08
 -1       774-2.42616E+06-4.92124E+05-7.50264E+03-1.10254E+06 1.36788E-09-4.11092E-09
 -1       775-2.47271E+06-4.49145E+05-4.25060E+03-1.05600E+06-9.03674E-09 3.35785E-09
 -1       776-2.42692E+06-4.92146E+05-1.83238E+03-1.10635E+06-6.71571E-09 2.15914E-09
 -1       777-2.47531E+06-4.47233E+05-1.42982E+03-1.05650E+06-5.89353E-10 2.00816E-09
 -1       778-2.42816E+06-4.92334E+05-5.25374E+02-1.10956E+06 1.20053E-10 4.72755E-09
 -1       779-2.47744E+06-4.45608E+05-6.46448E+02-1.05694E+06-3.87809E-09-1.81899E-12
 -1       780-2.42931E+06-4.92468E+05-2.87460E+02-1.11215E+06-1.79352E-09-5.02041E-10
 -1       781-2.47907E+06-4.44316E+05-5.33482E+02-1.05728E+06-5.30417E-09 8.22183E-10
 -1       782-2.43025E+06-4.92578E+05-6.79864E+02-1.11406E+06-7.91442E-09-1.03457E-08
 -1       783-2.48016E+06-4.43450E+05-1.37978E+03-1.05751E+06 2.29920E-09-7.48082E-09
 -1       784-2.43161E+06-4.93456E+05-3.13880E+03-1.11518E+06-5.77893E-09-7.23958E-10
 -1       785-2.48015E+06-4.43428E+05-5.83111E+03-1.05721E+06-1.32695E-08 2.03363E-09
 -1       786 1.64138E+05-9.32041E+03 2.15630E+04-5.05525E+01 1.04416E-09-3.62888E-10
 -1       787 1.73483E+05 1.07901E+04 1.52552E+04 1.17699E+01 1.39917E-09 1.23127E-08
 -1       788 1.67744E+05-1.46107E+03 5.58075E+03-3.74323E+01 3.95123E-10 9.97898E-09
 -1       789 1.69284E+05 1.69051E+03 3.50601E+03-1.02188E+01 5.15499E-11 5.49232E-09
 -1       790 1.68339E+05-2.28195E+02 1.42563E+03-2.85653E+01-1.04914E-10 7.19700E-09
 -1       791 1.68589E+05 2.64854E+02 8.35172E+02-2.69583E+01-6.68792E-10-3.67589E-09
 -1       792 1.68438E+05-3.64885E+01 3.77503E+02-2.06928E+01-3.37054E-10-2.88018E-09
 -1       793 1.68476E+05 4.94684E+01 2.39903E+02-4.39997E+01 1.31028E-10-6.04391E-10
 -1       794 1.68452E+05-1.29491E+01 1.66287E+02-1.15237E+01 7.16319E-10 9.67901E-09
 -1       795 1.68481E+05 6.24571E+01 2.24025E+02-6.61820E+01-3.81248E-10 1.06814E-08
 -1       796 1.68434E+05-4.94657E+01 3.25582E+02 1.48988E+00 6.80163E-10 4.35078E-09
 -1       797 1.68626E+05 3.61622E+02 7.59430E+02-9.96516E+01 4.21315E-10 8.27565E-09
 -1       798 1.68307E+05-3.11897E+02 1.19604E+03 2.19466E+01 1.11028E-10 4.05447E-09
 -1       799 1.69522E+05 2.30280E+03 3.25830E+03-1.53858E+02-4.75699E-10-7.31143E-09
 -1       800 1.67537E+05-1.98908E+03 4.60177E+03 5.56975E+01 3.07626E-10-1.86446E-11
 -1       801 3.01181E+04-1.22084E+06-1.06006E+05 2.74348E+04 1.31622E-08-7.29915E-09
 -1       802-2.88185E+04-1.08805E+06-2.66796E+04-6.91128E+04 3.57049E-08 3.00997E-09
 -1       803-1.10513E+03-1.15287E+06 1.50691E+04 5.86570E+04 2.83653E-08 2.29363E-08
 -1       804 7.62450E+04-1.02819E+06 1.11816E+05-6.01960E+04 3.19105E-08 3.15546E-08
 -1       805-7.53651E+04-1.28013E+06 1.25958E+05 1.85115E+04 1.16852E-08 2.30084E-08
 -1       806-2.16499E+05-4.45374E+04-1.75801E+04-8.82472E+04-2.04955E-09-1.17457E-08
 -1       807-2.17704E+05-4.18479E+04-8.63679E+03-9.27114E+04 2.71837E-09-3.67845E-09
 -1       808-2.16987E+05-3.81964E+04-3.66376E+03-9.12392E+04 1.33127E-09 2.31526E-09
 -1       809-2.15872E+05-3.94385E+04-1.79123E+03-9.29460E+04-5.94127E-09 3.92816E-09
 -1       810-2.17063E+05-3.79737E+04-8.20356E+02-9.13714E+04-4.15639E-10 7.30370E-09
 -1       811-2.15731E+05-3.93426E+04-4.07123E+02-9.29228E+04 6.04814E-11-6.73026E-10
 -1       812-2.17076E+05-3.79911E+04-2.03817E+02-9.13710E+04 5.74801E-10 1.16379E-08
 -1       813-2.15712E+05-3.93448E+04-1.29475E+02-9.29108E+04-1.82808E-10 1.07218E-09
 -1       814-2.17073E+05-3.79977E+04-1.23067E+02-9.13681E+04-1.34150E-09-1.28512E-09
 -1       815-2.15715E+05-3.93468E+04-1.94006E+02-9.29069E+04-3.08683E-09-8.52060E-09
 -1       816-2.17059E+05-3.79964E+04-3.64534E+02-9.13656E+04-2.24645E-09 5.67570E-09
 -1       817-2.15777E+05-3.93817E+04-7.81704E+02-9.28999E+04 1.92813E-10 1.59998E-08
 -1       818-2.17013E+05-3.81062E+04-1.59343E+03-9.13136E+04 1.57706E-09 7.73980E-09
 -1       819-2.16654E+05-4.03403E+04-3.74993E+03-9.26895E+04-2.21917E-10-4.89308E-10
 -1       820-2.16712E+05-4.09391E+04-7.63194E+03-9.01026E+04 4.12001E-09 9.71647E-09
 -1       821-2.76074E+05 1.52718E+04-3.53184E+04 1.80182E+02 3.79321E-10-5.25688E-10
 -1       822-2.91378E+05-1.76797E+04-2.49928E+04-8.06568E+02-2.23361E-09-6.15637E-09
 -1       823-2.81980E+05 2.39441E+03-9.14743E+03 1.67320E+02 4.02949E-11-4.62751E-09
 -1       824-2.84487E+05-2.77126E+03-5.75502E+03-6.46315E+02 2.60056E-10-8.53288E-09
 -1       825-2.82963E+05 3.74630E+02-2.36663E+03 1.99258E+01-1.84315E-09-2.09263E-09
 -1       826-2.83341E+05-4.41685E+02-1.42632E+03-2.79820E+02-3.85816E-09-5.19697E-09
 -1       827-2.83125E+05 6.62494E+01-7.41333E+02-1.99180E+02-3.37059E-09-2.70114E-09
 -1       828-2.83188E+05-1.34811E+02-6.52980E+02 1.39286E+02-5.43785E-09-3.30332E-09
 -1       829-2.83116E+05 6.80452E+01-7.53687E+02-3.99188E+02-2.72525E-10-6.37863E-09
 -1       830-2.83369E+05-4.55002E+02-1.47058E+03 4.37187E+02 1.85652E-09-2.42318E-09
 -1       831-2.82944E+05 3.86544E+02-2.43676E+03-4.97087E+02-3.08559E-09-3.28828E-09
 -1       832-2.84542E+05-2.85797E+03-5.93809E+03 4.90839E+02-1.04426E-09-1.89857E-09
 -1       833-2.81944E+05 2.46936E+03-9.43681E+03-4.52840E+02-6.82101E-10 1.50521E-10
 -1       834-2.91626E+05-1.82372E+04-2.57807E+04 2.79289E+02 5.57307E-10 1.13096E-09
 -1       835-2.75862E+05 1.57536E+04-3.64389E+04-2.85525E+02 5.36991E-09 7.65795E-10
 -1       836-9.23343E+02 2.59790E+05 1.57005E+04-2.06247E+04 1.12868E-09 2.31921E-10
 -1       837 3.44661E+03 2.64657E+05 1.34110E+04-4.14314E+04 1.87674E-09-1.52706E-08
 -1       838-3.42359E+02 2.61141E+05 1.38382E+04-2.05529E+04 1.66483E-09-3.36127E-09
 -1       839 8.87717E+03 2.68704E+05 2.63487E+04-4.14611E+04 2.28101E-09 1.58735E-09
 -1       840-2.67432E+03 2.55704E+05 4.20882E+04-2.05936E+04 1.33332E-09 2.52521E-09
 -1       856-7.97719E+04 7.19474E+03-1.89602E+04-4.19989E+02-2.86917E-09 2.33649E-09
 -1       857-8.76027E+04-8.43887E+03-1.30535E+04 4.38654E+03-6.36106E-10-6.83440E-09
 -1       858-8.28660E+04 1.00810E+03-4.92064E+03-4.40251E+02-2.89083E-09-7.30256E-09
 -1       859-8.40496E+04-1.17234E+03-2.97164E+03 4.41878E+03-1.00452E-09 6.03904E-09
 -1       860-8.33286E+04 1.40205E+02-1.24911E+03-4.52351E+02-1.39266E-12 1.93120E-09
 -1       861-8.35169E+04-1.54925E+02-6.94944E+02 4.43535E+03-6.21856E-09-4.51735E-09
 -1       862-8.34006E+04 1.85337E+01-3.04498E+02-4.56843E+02 3.21363E-09-3.48233E-09
 -1       863-8.34315E+04-1.08530E+01-1.46377E+02 4.43740E+03 1.06964E-08-4.66231E-09
 -1       864-8.34143E+04-6.89682E-01-3.74788E+01-4.54407E+02 3.59252E-09-9.01228E-09
 -1       865-8.34036E+04 2.65351E+01 5.12146E+01 4.42506E+03 5.00012E-09 3.89864E-10
 -1       866-8.34269E+04-1.92829E+01 1.44165E+02-4.44506E+02-1.87273E-09 7.44076E-09
 -1       867-8.33248E+04 1.61213E+02 3.81244E+02 4.39818E+03 2.82759E-09 2.06941E-09
 -1       868-8.34900E+04-1.34165E+02 6.39741E+02-4.27519E+02-5.08692E-10-5.88886E-09
 -1       869-8.28476E+04 1.11370E+03 1.71331E+03 4.35370E+03-4.27121E-09-9.09654E-09
 -1       870-8.38992E+04-9.47696E+02 2.48489E+03-4.00036E+02 8.66635E-10-1.35628E-10
 -1       871-4.07823E+03-8.98195E+03-1.32730E+04 8.73846E+04 1.48793E-09-5.33873E-09
 -1       872-1.76162E+03-1.19596E+04-5.42169E+03 1.13290E+05 4.50154E-09-9.74296E-09
 -1       873-3.03235E+01-1.05688E+04 7.44003E+02 8.71927E+04 2.07001E-09 2.59047E-09
 -1       874 2.03693E+03-8.65682E+03 7.46114E+03 1.13329E+05 2.97587E-09 1.90106E-08
 -1       875 4.80334E+03-1.23389E+04 1.65653E+04 8.73534E+04 1.58980E-09 6.57246E-09
 -1       876 2.15499E+05 3.70719E+04 1.14750E+04 8.73625E+04-2.42062E-09 2.75577E-10
 -1       877 2.16164E+05 3.95824E+04 6.12794E+03 9.07467E+04-5.08771E-09-5.19321E-09
 -1       878 2.16571E+05 3.58021E+04 2.56731E+03 8.83049E+04-6.07542E-10-1.05470E-08
 -1       879 2.14603E+05 3.80276E+04 1.27894E+03 9.08275E+04 4.82032E-11-9.02310E-09
 -1       880 2.16649E+05 3.57881E+04 5.95455E+02 8.83433E+04 3.05863E-09 1.05729E-11
 -1       881 2.14499E+05 3.79616E+04 3.17255E+02 9.08110E+04 3.88081E-09 1.68997E-09
 -1       882 2.16657E+05 3.57976E+04 2.01713E+02 8.83444E+04 3.49394E-09-1.19977E-09
 -1       883 2.14492E+05 3.79584E+04 2.14833E+02 9.08062E+04 1.11322E-09 6.14378E-09
 -1       884 2.16652E+05 3.57952E+04 3.39918E+02 8.83445E+04 1.84247E-09-6.39949E-09
 -1       885 2.14518E+05 3.79632E+04 6.82283E+02 9.08147E+04 2.99107E-09-4.01883E-09
 -1       886 2.16626E+05 3.57753E+04 1.37458E+03 8.83418E+04 1.22049E-09-1.34215E-08
 -1       887 2.14760E+05 3.81216E+04 3.00239E+03 9.08495E+04-2.71010E-09 3.61615E-09
 -1       888 2.16436E+05 3.58087E+04 6.04986E+03 8.82457E+04 3.59668E-09-2.84081E-09
 -1       889 2.18365E+05 4.18645E+04 1.44526E+04 9.07355E+04 2.63299E-10-1.50069E-08
 -1       890 2.13972E+05 3.87366E+04 2.70686E+04 8.59378E+04-3.43334E-11-4.12820E-09
 -1       891-1.32117E+02-1.22151E+05-1.44855E+03 2.29214E+04-4.92264E-11 7.91943E-10
 -1       892-2.30468E+02-1.22498E+05-1.57334E+03 3.46898E+04-1.03910E-09-3.56147E-09
 -1       893-3.61554E+01-1.22196E+05-2.24586E+03 2.29260E+04-6.00267E-10 4.89626E-09
 -1       894-1.22451E+03-1.23357E+05-4.66130E+03 3.45660E+04-1.69894E-09 6.57383E-09
 -1       895-9.58115E+02-1.21225E+05-8.21365E+03 2.30436E+04-1.24817E-09-1.92722E-09
 -1       956-2.71568E+05-3.88612E+03-9.77879E+03 1.81901E+04-4.44288E-09-4.45630E-09
 -1       957-2.73498E+05-1.31191E+03-5.02001E+03 2.19053E+04-1.18553E-09-7.73025E-09
 -1       958-2.72436E+05-1.05528E+02-2.26168E+03 1.80740E+04 2.71939E-09 4.77166E-09
 -1       959-2.72590E+05-1.89597E+01-1.15520E+03 2.20314E+04 2.39879E-10 1.26188E-08
 -1       960-2.72514E+05 3.18791E+01-5.63132E+02 1.80629E+04-3.68254E-09-7.58519E-10
 -1       961-2.72524E+05 3.00453E+01-2.98655E+02 2.20441E+04-5.61636E-09-1.47952E-09
 -1       962-2.72530E+05 2.81700E+01-1.70728E+02 1.80612E+04-1.13005E-09 3.22643E-10
 -1       963-2.72521E+05 3.14328E+01-1.36632E+02 2.20464E+04-2.22678E-09-2.42221E-09
 -1       964-2.72533E+05 3.01758E+01-1.65360E+02 1.80606E+04 4.15969E-09 1.42586E-09
 -1       965-2.72532E+05 3.44086E+01-2.85315E+02 2.20464E+04 1.13173E-08 1.41149E-08
 -1       966-2.72525E+05 3.78090E+01-5.35350E+02 1.80612E+04 8.02925E-09-1.04592E-09
 -1       967-2.72602E+05-7.90096E+00-1.09789E+03 2.20393E+04 9.40304E-09-3.32602E-09
 -1       968-2.72457E+05-8.87529E+01-2.14849E+03 1.80678E+04 4.46380E-09-2.35730E-09
 -1       969-2.73473E+05-1.23288E+03-4.77027E+03 2.19614E+04 2.63799E-09-7.34536E-09
 -1       970-2.71637E+05-3.67878E+03-9.29150E+03 1.81413E+04 3.67299E-09 6.47833E-09
 -1       971-2.56798E+05-1.34737E+03-7.48682E+03 1.23988E+04-3.25008E-09 5.46751E-09
 -1       972-2.58618E+05-9.66086E+02-4.07732E+03 1.73143E+04-2.49656E-09-7.24970E-09
 -1       973-2.57630E+05-9.36978E+00-1.82573E+03 1.22954E+04-3.22598E-09 8.15771E-09
 -1       974-2.57756E+05-9.37558E+00-9.45855E+02 1.74260E+04 1.51158E-09 1.19667E-08
 -1       975-2.57694E+05 2.56241E+01-4.71760E+02 1.22860E+04 1.88629E-09 9.26639E-09
 -1       976-2.57705E+05 2.97832E+01-2.70353E+02 1.74374E+04-4.03907E-09 2.45177E-09
 -1       977-2.57707E+05 2.53928E+01-1.92932E+02 1.22839E+04 3.24007E-09-5.81622E-10
 -1       978-2.57708E+05 3.41224E+01-2.21315E+02 1.74404E+04 6.99390E-09 2.82625E-09
 -1       979-2.57707E+05 3.13542E+01-3.51733E+02 1.22830E+04 3.54646E-09-4.65877E-09
 -1       980-2.57734E+05 3.62808E+01-6.76739E+02 1.74409E+04 6.96082E-09-1.28196E-08
 -1       981-2.57685E+05 4.82107E+01-1.30941E+03 1.22834E+04 4.39513E-10-3.64753E-09
 -1       982-2.57914E+05-6.03422E+01-2.70580E+03 1.74357E+04-3.02498E-09-7.78636E-09
 -1       983-2.57520E+05-3.54418E+01-5.25698E+03 1.22884E+04-2.02772E-09 2.36400E-09
 -1       984-2.60442E+05-2.80553E+03-1.17722E+04 1.73656E+04-2.65959E-09 7.19456E-09
 -1       985-2.55141E+05-3.88205E+03-2.16176E+04 1.23581E+04 1.85901E-09 1.39153E-10
 -3
    1PSTEP                        13           7           1          
  100CL  107 5.50781E-01         409                     0    7           1
 -4  DISP        4    1
 -5  D1          1    2    1    0
 -5  D2          1    2    2    0
 -5  D3          1    2    3    0
 -5  ALL         1    2    0    0    1ALL
 -1         1 2.10754E-04 0.00000E+00 0.00000E+00
 -1         2 1.83365E-04 1.29235E-30 0.00000E+00
 -1         3 1.75967E-04 1.29703E-28 1.32349E-23
 -1         5 1.13127E-04-3.60700E-27 0.00000E+00
 -1         8 1.85194E-04-8.54455E-07 0.00000E+00
 -1         9 1.74809E-04-1.09791E-06 0.00000E+00
 -1        10 1.61668E-04-2.36104E-06 0.00000E+00
 -1        12 1.12940E-04 6.05564E-07 1.65436E-24
 -1        15 1.54657E-04-9.53136E-07 0.00000E+00
 -1        16 1.60654E-04-1.32226E-06 0.00000E+00
 -1        17 1.16582E-04-5.05290E-06 0.00000E+00
 -1        18 1.11175E-04 5.96866E-06 0.00000E+00
 -1        19 1.12378E-04 1.20801E-06 0.00000E+00
 -1        20 1.12526E-04 1.24019E-05 0.00000E+00
 -1        21 1.11911E-04 2.21873E-05-3.30872E-24
 -1        24 2.30279E-05-7.09438E-06 0.00000E+00
 -1        25 1.11565E-04 6.11196E-06 0.00000E+00
 -1        26 1.12426E-04 1.67645E-06 0.00000E+00
 -1        27 1.10754E-04 9.66978E-06 0.00000E+00
 -1        28 1.10291E-04 2.16747E-05 0.00000E+00
 -1        32 0.00000E+00 0.00000E+00 0.00000E+00
 -1        33 1.11257E-04 2.24636E-06 0.00000E+00
 -1        34 1.09615E-04 9.64353E-06 0.00000E+00
 -1        35 1.08070E-04 2.14017E-05 0.00000E+00
 -1        51 2.09098E-04-1.42589E-07 0.00000E+00
 -1        52 2.06022E-04-2.78727E-07 0.00000E+00
 -1        53 2.01804E-04-4.16016E-07 0.00000E+00
 -1        54 1.96734E-04-5.56219E-07 3.30872E-24
 -1        55 1.91101E-04-7.00265E-07-4.13590E-25
 -1        56 2.08905E-04-9.18425E-07-2.64698E-23
 -1        57 2.07119E-04-2.21861E-06 2.64698E-23
 -1        58 2.05425E-04-3.75079E-06 0.00000E+00
 -1        59 2.03755E-04-5.38689E-06 0.00000E+00
 -1        60 2.02068E-04-6.97673E-06 0.00000E+00
 -1        61 2.00308E-04-8.37760E-06 2.64698E-23
 -1        62 1.98431E-04-9.46785E-06 5.29396E-23
 -1        63 1.96398E-04-1.01423E-05 2.64698E-23
 -1        64 1.94187E-04-1.03437E-05 0.00000E+00
 -1        65 1.91787E-04-1.00389E-05 0.00000E+00
 -1        66 1.89205E-04-9.25355E-06 0.00000E+00
 -1        67 1.86463E-04-8.03683E-06-2.64698E-23
 -1        68 1.83597E-04-6.48915E-06 0.00000E+00
 -1        69 1.80660E-04-4.72325E-06 2.64698E-23
 -1        70 1.77692E-04-2.88566E-06-5.29396E-23
 -1        86 1.83093E-04-1.77433E-07 6.61744E-24
 -1        87 1.82279E-04-3.55635E-07 0.00000E+00
 -1        88 1.80973E-04-5.34406E-07 6.61744E-24
 -1        89 1.79231E-04-7.16885E-07 3.30872E-24
 -1        90 1.77144E-04-8.98952E-07 1.32349E-23
 -1       121 1.75567E-04-3.89828E-07 1.32349E-23
 -1       122 1.74367E-04-7.80279E-07 0.00000E+00
 -1       123 1.72371E-04-1.17196E-06 1.32349E-23
 -1       124 1.69584E-04-1.56555E-06 0.00000E+00
 -1       125 1.66013E-04-1.96151E-06 0.00000E+00
 -1       191 1.13122E-04 1.00932E-07 3.30872E-24
 -1       192 1.13107E-04 2.01862E-07 1.65436E-24
 -1       193 1.13081E-04 3.02792E-07 3.30872E-24
 -1       194 1.13044E-04 4.03721E-07 0.00000E+00
 -1       195 1.12997E-04 5.04646E-07 0.00000E+00
 -1       251 1.84619E-04 7.52282E-06-1.32349E-23
 -1       252 1.83964E-04 2.23378E-05 0.00000E+00
 -1       253 1.83247E-04 4.11119E-05 0.00000E+00
 -1       254 1.82503E-04 6.12762E-05 6.61744E-24
 -1       255 1.81787E-04 7.98973E-05 0.00000E+00
 -1       256 1.81140E-04 9.40769E-05 6.61744E-24
 -1       257 1.80557E-04 1.02083E-04 0.00000E+00
 -1       258 1.80005E-04 1.02322E-04 6.61744E-24
 -1       259 1.79429E-04 9.52369E-05-1.32349E-23
 -1       260 1.78786E-04 8.14332E-05 0.00000E+00
 -1       261 1.78079E-04 6.32804E-05 0.00000E+00
 -1       262 1.77336E-04 4.32442E-05 6.61744E-24
 -1       263 1.76613E-04 2.42863E-05 1.32349E-23
 -1       264 1.75956E-04 9.34421E-06 0.00000E+00
 -1       265 1.75364E-04 2.99595E-07 0.00000E+00
 -1       266 1.80104E-04-8.82929E-07 0.00000E+00
 -1       267 1.75015E-04-8.97910E-07 0.00000E+00
 -1       268 1.69925E-04-9.13746E-07 0.00000E+00
 -1       269 1.64836E-04-9.27050E-07 4.13590E-25
 -1       270 1.59746E-04-9.40294E-07-4.13590E-25
 -1       271 1.82169E-04 3.19683E-06 0.00000E+00
 -1       272 1.79494E-04 6.19903E-06-1.32349E-23
 -1       273 1.77186E-04 8.23301E-06 1.05879E-22
 -1       274 1.75207E-04 9.37682E-06-2.64698E-23
 -1       275 1.73525E-04 9.72978E-06-5.29396E-23
 -1       276 1.72097E-04 9.40224E-06 0.00000E+00
 -1       277 1.70877E-04 8.51748E-06 5.29396E-23
 -1       278 1.69817E-04 7.20797E-06-2.64698E-23
 -1       279 1.68863E-04 5.61397E-06 5.29396E-23
 -1       280 1.67961E-04 3.88061E-06 0.00000E+00
 -1       281 1.67056E-04 2.15545E-06-5.29396E-23
 -1       282 1.66094E-04 5.86053E-07 0.00000E+00
 -1       283 1.65020E-04-6.83083E-07 5.29396E-23
 -1       284 1.63785E-04-1.51101E-06-1.32349E-23
 -1       285 1.62336E-04-1.76819E-06 0.00000E+00
 -1       301 1.72171E-04-1.15105E-06 0.00000E+00
 -1       302 1.69495E-04-1.18028E-06 0.00000E+00
 -1       303 1.66893E-04-1.20801E-06 6.61744E-24
 -1       304 1.64478E-04-1.23583E-06-3.30872E-24
 -1       305 1.62362E-04-1.26502E-06-1.32349E-23
 -1       306 1.75722E-04-1.07776E-05 0.00000E+00
 -1       307 1.84304E-04-4.23763E-05 0.00000E+00
 -1       308 1.98449E-04-9.05847E-05 5.29396E-23
 -1       309 2.15790E-04-1.48847E-04-2.64698E-23
 -1       310 2.33514E-04-2.08326E-04 0.00000E+00
 -1       311 2.48792E-04-2.60091E-04 0.00000E+00
 -1       312 2.59153E-04-2.96968E-04 0.00000E+00
 -1       313 2.62245E-04-3.12925E-04 0.00000E+00
 -1       314 2.57066E-04-3.06585E-04 0.00000E+00
 -1       315 2.43167E-04-2.78183E-04 2.64698E-23
 -1       316 2.22168E-04-2.32708E-04 5.29396E-23
 -1       317 1.96424E-04-1.76277E-04-2.64698E-23
 -1       318 1.69568E-04-1.17313E-04 0.00000E+00
 -1       319 1.45382E-04-6.43872E-05 2.64698E-23
 -1       320 1.26888E-04-2.48300E-05 5.29396E-23
 -1       336 1.56459E-04-2.79535E-06 0.00000E+00
 -1       337 1.50298E-04-3.23541E-06-6.61744E-24
 -1       338 1.43205E-04-3.68126E-06 1.32349E-23
 -1       339 1.35203E-04-4.13297E-06 0.00000E+00
 -1       340 1.26319E-04-4.59189E-06 1.32349E-23
 -1       406 1.12873E-04 7.06471E-07 0.00000E+00
 -1       407 1.12794E-04 8.07344E-07 0.00000E+00
 -1       408 1.12706E-04 9.08156E-07-3.30872E-24
 -1       409 1.12607E-04 1.00879E-06 1.65436E-24
 -1       410 1.12498E-04 1.10904E-06-3.30872E-24
 -1       521 1.66496E-04-2.70833E-05 0.00000E+00
 -1       522 1.88450E-04-1.03153E-04 5.29396E-23
 -1       523 2.21022E-04-2.17070E-04 1.05879E-22
 -1       524 2.58974E-04-3.52800E-04 5.29396E-23
 -1       525 2.97112E-04-4.89303E-04 0.00000E+00
 -1       526 3.30242E-04-6.05461E-04 0.00000E+00
 -1       527 3.53158E-04-6.84853E-04 0.00000E+00
 -1       528 3.60245E-04-7.14528E-04 0.00000E+00
 -1       529 3.48029E-04-6.92383E-04-1.05879E-22
 -1       530 3.14604E-04-6.20817E-04 0.00000E+00
 -1       531 2.63510E-04-5.12184E-04-1.05879E-22
 -1       532 2.00971E-04-3.81427E-04 0.00000E+00
 -1       533 1.36855E-04-2.47682E-04 0.00000E+00
 -1       534 8.13208E-05-1.30249E-04-5.29396E-23
 -1       535 4.17377E-05-4.53845E-05 0.00000E+00
 -1       536 1.16343E-04 9.34667E-06 0.00000E+00
 -1       537 1.15960E-04 3.21945E-05-3.30872E-24
 -1       538 1.15457E-04 6.00765E-05-3.30872E-24
 -1       539 1.14911E-04 8.95520E-05 1.65436E-24
 -1       540 1.14426E-04 1.16755E-04-3.30872E-24
 -1       541 1.14083E-04 1.37833E-04 0.00000E+00
 -1       542 1.13872E-04 1.50534E-04 0.00000E+00
 -1       543 1.13737E-04 1.52653E-04 1.65436E-24
 -1       544 1.13575E-04 1.44693E-04 0.00000E+00
 -1       545 1.13296E-04 1.27217E-04 0.00000E+00
 -1       546 1.12892E-04 1.03238E-04 3.30872E-24
 -1       547 1.12402E-04 7.58060E-05 0.00000E+00
 -1       548 1.11925E-04 4.88783E-05-3.30872E-24
 -1       549 1.11555E-04 2.64114E-05-1.65436E-24
 -1       550 1.11313E-04 1.11933E-05-1.65436E-24
 -1       551 1.04092E-04-5.34965E-06-6.61744E-24
 -1       552 8.93371E-05-5.67009E-06 0.00000E+00
 -1       553 7.30806E-05-6.01129E-06 6.61744E-24
 -1       554 5.60955E-05-6.36580E-06 6.61744E-24
 -1       555 3.91552E-05-6.72242E-06 0.00000E+00
 -1       556 1.13165E-04 3.77471E-06 0.00000E+00
 -1       557 1.10497E-04 1.06870E-05 1.32349E-23
 -1       558 1.08499E-04 1.58500E-05 2.64698E-23
 -1       559 1.07098E-04 1.94438E-05 1.32349E-23
 -1       560 1.06224E-04 2.16481E-05 0.00000E+00
 -1       561 1.05807E-04 2.26439E-05 0.00000E+00
 -1       562 1.05775E-04 2.26125E-05 0.00000E+00
 -1       563 1.06061E-04 2.17355E-05-6.61744E-24
 -1       564 1.06595E-04 2.01946E-05 0.00000E+00
 -1       565 1.07309E-04 1.81719E-05 0.00000E+00
 -1       566 1.08135E-04 1.58494E-05 0.00000E+00
 -1       567 1.09005E-04 1.34094E-05 2.06795E-25
 -1       568 1.09850E-04 1.10339E-05 0.00000E+00
 -1       569 1.10604E-04 8.90515E-06 0.00000E+00
 -1       570 1.11198E-04 7.20504E-06 0.00000E+00
 -1       571 1.11248E-04 5.68280E-06 8.27181E-25
 -1       572 1.11323E-04 5.35055E-06 0.00000E+00
 -1       573 1.11398E-04 4.98110E-06 0.00000E+00
 -1       574 1.11473E-04 4.58409E-06 0.00000E+00
 -1       575 1.11549E-04 4.16920E-06 0.00000E+00
 -1       576 1.11624E-04 3.74615E-06 0.00000E+00
 -1       577 1.11699E-04 3.32468E-06-3.30872E-24
 -1       578 1.11775E-04 2.91454E-06-1.65436E-24
 -1       579 1.11850E-04 2.52546E-06 0.00000E+00
 -1       580 1.11926E-04 2.16721E-06 0.00000E+00
 -1       581 1.12001E-04 1.84953E-06 0.00000E+00
 -1       582 1.12077E-04 1.58213E-06 0.00000E+00
 -1       583 1.12152E-04 1.37477E-06 0.00000E+00
 -1       584 1.12228E-04 1.23705E-06 3.30872E-24
 -1       585 1.12303E-04 1.17853E-06 0.00000E+00
 -1       586 1.11196E-04 5.99412E-06 0.00000E+00
 -1       587 1.11190E-04 6.01896E-06 4.13590E-25
 -1       588 1.11191E-04 6.04352E-06 0.00000E+00
 -1       589 1.11232E-04 6.06765E-06 0.00000E+00
 -1       590 1.11345E-04 6.09103E-06 0.00000E+00
 -1       591 1.11246E-04 5.72820E-06 1.22785E-25
 -1       592 1.11325E-04 5.45653E-06 0.00000E+00
 -1       593 1.11414E-04 5.16013E-06 4.13590E-25
 -1       594 1.11509E-04 4.84474E-06 0.00000E+00
 -1       595 1.11609E-04 4.51616E-06 0.00000E+00
 -1       596 1.11712E-04 4.18014E-06 4.13590E-25
 -1       597 1.11816E-04 3.84243E-06 8.27181E-25
 -1       598 1.11918E-04 3.50879E-06 0.00000E+00
 -1       599 1.12016E-04 3.18495E-06 8.27181E-25
 -1       600 1.12109E-04 2.87666E-06-2.06795E-25
 -1       601 1.12194E-04 2.58967E-06 0.00000E+00
 -1       602 1.12268E-04 2.32973E-06 0.00000E+00
 -1       603 1.12330E-04 2.10259E-06-2.06795E-25
 -1       604 1.12379E-04 1.91405E-06 1.03398E-25
 -1       605 1.12410E-04 1.76983E-06 0.00000E+00
 -1       606 1.12391E-04 1.40602E-06 0.00000E+00
 -1       607 1.12402E-04 1.70037E-06 1.65436E-24
 -1       608 1.12411E-04 2.08541E-06 0.00000E+00
 -1       609 1.12421E-04 2.55476E-06 1.65436E-24
 -1       610 1.12430E-04 3.10202E-06 0.00000E+00
 -1       611 1.12439E-04 3.72067E-06 1.65436E-24
 -1       612 1.12448E-04 4.40421E-06 0.00000E+00
 -1       613 1.12457E-04 5.14614E-06 0.00000E+00
 -1       614 1.12465E-04 5.93995E-06 0.00000E+00
 -1       615 1.12474E-04 6.77910E-06 0.00000E+00
 -1       616 1.12483E-04 7.65710E-06 0.00000E+00
 -1       617 1.12492E-04 8.56744E-06 0.00000E+00
 -1       618 1.12500E-04 9.50359E-06 0.00000E+00
 -1       619 1.12509E-04 1.04591E-05 0.00000E+00
 -1       620 1.12518E-04 1.14273E-05 0.00000E+00
 -1       621 1.12294E-04 1.28621E-06 1.65436E-24
 -1       622 1.12261E-04 1.36472E-06 0.00000E+00
 -1       623 1.12268E-04 1.44321E-06-1.65436E-24
 -1       624 1.12305E-04 1.52156E-06 8.27181E-25
 -1       625 1.12361E-04 1.59977E-06-1.65436E-24
 -1       626 1.12391E-04 1.43236E-06 0.00000E+00
 -1       627 1.12374E-04 1.73514E-06-1.65436E-24
 -1       628 1.12331E-04 2.10864E-06 0.00000E+00
 -1       629 1.12265E-04 2.54470E-06 1.65436E-24
 -1       630 1.12178E-04 3.03516E-06 0.00000E+00
 -1       631 1.12074E-04 3.57178E-06-1.65436E-24
 -1       632 1.11955E-04 4.14637E-06 0.00000E+00
 -1       633 1.11826E-04 4.75069E-06 1.65436E-24
 -1       634 1.11688E-04 5.37654E-06 3.30872E-24
 -1       635 1.11546E-04 6.01569E-06 0.00000E+00
 -1       636 1.11401E-04 6.65994E-06 0.00000E+00
 -1       637 1.11258E-04 7.30107E-06 8.27181E-25
 -1       638 1.11119E-04 7.93085E-06 0.00000E+00
 -1       639 1.10987E-04 8.54106E-06-8.27181E-25
 -1       640 1.10865E-04 9.12348E-06 0.00000E+00
 -1       656 1.11768E-04 1.19573E-05 6.61744E-24
 -1       657 1.11390E-04 1.14951E-05 0.00000E+00
 -1       658 1.11252E-04 1.10342E-05 0.00000E+00
 -1       659 1.11210E-04 1.05737E-05 0.00000E+00
 -1       660 1.11099E-04 1.01118E-05 0.00000E+00
 -1       661 1.12246E-04 1.33463E-05 8.27181E-25
 -1       662 1.11993E-04 1.42290E-05-8.27181E-25
 -1       663 1.11762E-04 1.50522E-05 0.00000E+00
 -1       664 1.11552E-04 1.58196E-05 0.00000E+00
 -1       665 1.11363E-04 1.65339E-05 0.00000E+00
 -1       666 1.11192E-04 1.71984E-05 0.00000E+00
 -1       667 1.11039E-04 1.78157E-05 1.65436E-24
 -1       668 1.10903E-04 1.83888E-05 0.00000E+00
 -1       669 1.10782E-04 1.89201E-05 1.65436E-24
 -1       670 1.10676E-04 1.94125E-05 0.00000E+00
 -1       671 1.10583E-04 1.98681E-05 0.00000E+00
 -1       672 1.10504E-04 2.02895E-05-8.27181E-25
 -1       673 1.10436E-04 2.06789E-05 0.00000E+00
 -1       674 1.10379E-04 2.10383E-05-8.27181E-25
 -1       675 1.10332E-04 2.13701E-05 0.00000E+00
 -1       676 1.11640E-04 2.21014E-05 0.00000E+00
 -1       677 1.11369E-04 2.20155E-05 0.00000E+00
 -1       678 1.11099E-04 2.19296E-05 3.30872E-24
 -1       679 1.10829E-04 2.18440E-05 8.27181E-25
 -1       680 1.10559E-04 2.17584E-05-1.65436E-24
 -1       771 1.69122E-05 5.65449E-06 0.00000E+00
 -1       772 1.16731E-05 1.61120E-05 0.00000E+00
 -1       773 7.27113E-06 2.43979E-05 0.00000E+00
 -1       774 3.65067E-06 3.06433E-05 0.00000E+00
 -1       775 7.56845E-07 3.49830E-05 0.00000E+00
 -1       776-1.46760E-06 3.75581E-05 0.00000E+00
 -1       777-3.08044E-06 3.85136E-05 0.00000E+00
 -1       778-4.14080E-06 3.79992E-05 0.00000E+00
 -1       779-4.70809E-06 3.61681E-05 0.00000E+00
 -1       780-4.84285E-06 3.31775E-05 0.00000E+00
 -1       781-4.60571E-06 2.91870E-05 5.29396E-23
 -1       782-4.05817E-06 2.43596E-05 0.00000E+00
 -1       783-3.26173E-06 1.88598E-05 2.64698E-23
 -1       784-2.27852E-06 1.28545E-05 0.00000E+00
 -1       785-1.17060E-06 6.51158E-06 0.00000E+00
 -1       786 1.11615E-04 5.67860E-06 0.00000E+00
 -1       787 1.11669E-04 5.27659E-06 0.00000E+00
 -1       788 1.11722E-04 4.90052E-06 0.00000E+00
 -1       789 1.11776E-04 4.54503E-06 0.00000E+00
 -1       790 1.11830E-04 4.20733E-06 1.65436E-24
 -1       791 1.11884E-04 3.88468E-06-8.27181E-25
 -1       792 1.11938E-04 3.57621E-06 1.65436E-24
 -1       793 1.11993E-04 3.28107E-06-8.27181E-25
 -1       794 1.12047E-04 3.00010E-06-1.65436E-24
 -1       795 1.12101E-04 2.73415E-06 0.00000E+00
 -1       796 1.12156E-04 2.48598E-06 0.00000E+00
 -1       797 1.12210E-04 2.25834E-06 8.27181E-25
 -1       798 1.12264E-04 2.05660E-06 0.00000E+00
 -1       799 1.12318E-04 1.88614E-06-8.27181E-25
 -1       800 1.12373E-04 1.75629E-06 0.00000E+00
 -1       801 1.03612E-04 5.30929E-06-1.32349E-23
 -1       802 7.88268E-05 4.21173E-06 0.00000E+00
 -1       803 4.73703E-05 2.94756E-06 0.00000E+00
 -1       804 1.96471E-05 1.78116E-06 0.00000E+00
 -1       805 1.89453E-06 8.22812E-07 2.64698E-23
 -1       806 1.11640E-04 5.62788E-06-1.65436E-24
 -1       807 1.11706E-04 5.16050E-06-1.65436E-24
 -1       808 1.11764E-04 4.71393E-06 3.30872E-24
 -1       809 1.11812E-04 4.29141E-06-8.27181E-25
 -1       810 1.11850E-04 3.89618E-06 1.65436E-24
 -1       811 1.11876E-04 3.53138E-06 1.65436E-24
 -1       812 1.11890E-04 3.20017E-06-3.30872E-24
 -1       813 1.11890E-04 2.90568E-06 0.00000E+00
 -1       814 1.11875E-04 2.65104E-06 3.30872E-24
 -1       815 1.11844E-04 2.43937E-06 0.00000E+00
 -1       816 1.11796E-04 2.27381E-06 0.00000E+00
 -1       817 1.11729E-04 2.15746E-06-8.27181E-25
 -1       818 1.11643E-04 2.09345E-06-1.65436E-24
 -1       819 1.11536E-04 2.08488E-06 0.00000E+00
 -1       820 1.11407E-04 2.13484E-06 0.00000E+00
 -1       821 1.12328E-04 1.57894E-06 8.27181E-25
 -1       822 1.12223E-04 1.39742E-06-8.27181E-25
 -1       823 1.12119E-04 1.20700E-06 0.00000E+00
 -1       824 1.12014E-04 1.08282E-06-1.65436E-24
 -1       825 1.11909E-04 1.08565E-06 3.30872E-24
 -1       826 1.11803E-04 1.27567E-06 0.00000E+00
 -1       827 1.11698E-04 1.67256E-06 3.30872E-24
 -1       828 1.11592E-04 2.29506E-06 0.00000E+00
 -1       829 1.11486E-04 3.11306E-06 0.00000E+00
 -1       830 1.11380E-04 4.09556E-06 0.00000E+00
 -1       831 1.11274E-04 5.17599E-06 3.30872E-24
 -1       832 1.11168E-04 6.28729E-06-1.65436E-24
 -1       833 1.11062E-04 7.35573E-06 0.00000E+00
 -1       834 1.10958E-04 8.30778E-06-8.27181E-25
 -1       835 1.10853E-04 9.09501E-06 0.00000E+00
 -1       836 1.12393E-04 1.77131E-06 0.00000E+00
 -1       837 1.12246E-04 1.86830E-06 1.65436E-24
 -1       838 1.12023E-04 1.96512E-06-1.65436E-24
 -1       839 1.11759E-04 2.06133E-06-8.27181E-25
 -1       840 1.11492E-04 2.15737E-06 0.00000E+00
 -1       856 1.10729E-04 1.01987E-05 0.00000E+00
 -1       857 1.10701E-04 1.08411E-05-1.03398E-25
 -1       858 1.10672E-04 1.15791E-05-4.13590E-25
 -1       859 1.10643E-04 1.23948E-05 0.00000E+00
 -1       860 1.10614E-04 1.32703E-05 8.27181E-25
 -1       861 1.10584E-04 1.41874E-05-4.13590E-25
 -1       862 1.10555E-04 1.51281E-05 0.00000E+00
 -1       863 1.10526E-04 1.60744E-05 0.00000E+00
 -1       864 1.10496E-04 1.70080E-05 8.27181E-25
 -1       865 1.10467E-04 1.79108E-05 4.13590E-25
 -1       866 1.10437E-04 1.87648E-05-8.27181E-25
 -1       867 1.10408E-04 1.95520E-05 0.00000E+00
 -1       868 1.10379E-04 2.02544E-05 0.00000E+00
 -1       869 1.10349E-04 2.08541E-05 4.13590E-25
 -1       870 1.10320E-04 2.13334E-05 0.00000E+00
 -1       871 1.10447E-04 9.66861E-06 4.13590E-25
 -1       872 1.10252E-04 9.66507E-06 0.00000E+00
 -1       873 1.10122E-04 9.66110E-06 0.00000E+00
 -1       874 1.10005E-04 9.65656E-06 5.16988E-26
 -1       875 1.09853E-04 9.65151E-06-6.20385E-25
 -1       876 1.10658E-04 1.02090E-05 0.00000E+00
 -1       877 1.10542E-04 1.08034E-05 0.00000E+00
 -1       878 1.10409E-04 1.14463E-05 0.00000E+00
 -1       879 1.10260E-04 1.21316E-05 1.65436E-24
 -1       880 1.10097E-04 1.28530E-05-3.30872E-24
 -1       881 1.09924E-04 1.36043E-05-1.65436E-24
 -1       882 1.09741E-04 1.43793E-05 0.00000E+00
 -1       883 1.09552E-04 1.51718E-05 1.65436E-24
 -1       884 1.09359E-04 1.59758E-05 0.00000E+00
 -1       885 1.09163E-04 1.67850E-05 1.65436E-24
 -1       886 1.08968E-04 1.75932E-05 3.30872E-24
 -1       887 1.08775E-04 1.83943E-05 0.00000E+00
 -1       888 1.08588E-04 1.91821E-05 0.00000E+00
 -1       889 1.08407E-04 1.99503E-05-8.27181E-25
 -1       890 1.08235E-04 2.06928E-05 8.27181E-25
 -1       891 1.10043E-04 2.16290E-05-8.27181E-25
 -1       892 1.09776E-04 2.15832E-05-4.13590E-25
 -1       893 1.09468E-04 2.15374E-05 8.27181E-25
 -1       894 1.09095E-04 2.14917E-05 0.00000E+00
 -1       895 1.08637E-04 2.14461E-05 6.20385E-25
 -1       956 1.11156E-04 2.48488E-06 1.65436E-24
 -1       957 1.11054E-04 2.78776E-06 1.65436E-24
 -1       958 1.10951E-04 3.14798E-06-3.30872E-24
 -1       959 1.10848E-04 3.55808E-06 8.27181E-25
 -1       960 1.10746E-04 4.01061E-06 0.00000E+00
 -1       961 1.10642E-04 4.49809E-06-1.65436E-24
 -1       962 1.10539E-04 5.01299E-06 0.00000E+00
 -1       963 1.10436E-04 5.54783E-06-1.65436E-24
 -1       964 1.10333E-04 6.09508E-06 0.00000E+00
 -1       965 1.10230E-04 6.64725E-06 0.00000E+00
 -1       966 1.10127E-04 7.19682E-06-3.30872E-24
 -1       967 1.10024E-04 7.73629E-06 0.00000E+00
 -1       968 1.09921E-04 8.25814E-06 0.00000E+00
 -1       969 1.09818E-04 8.75491E-06 0.00000E+00
 -1       970 1.09716E-04 9.21910E-06 0.00000E+00
 -1       971 1.09520E-04 1.00852E-05 0.00000E+00
 -1       972 1.09423E-04 1.06104E-05-8.27181E-25
 -1       973 1.09326E-04 1.12101E-05-1.65436E-24
 -1       974 1.09229E-04 1.18746E-05 0.00000E+00
 -1       975 1.09132E-04 1.25944E-05 0.00000E+00
 -1       976 1.09035E-04 1.33597E-05 0.00000E+00
 -1       977 1.08938E-04 1.41610E-05-3.30872E-24
 -1       978 1.08841E-04 1.49887E-05 1.65436E-24
 -1       979 1.08744E-04 1.58331E-05 0.00000E+00
 -1       980 1.08646E-04 1.66845E-05 1.65436E-24
 -1       981 1.08549E-04 1.75333E-05 0.00000E+00
 -1       982 1.08452E-04 1.83700E-05-1.65436E-24
 -1       983 1.08355E-04 1.91847E-05 0.00000E+00
 -1       984 1.08259E-04 1.99680E-05-1.65436E-24
 -1       985 1.08163E-04 2.07101E-05 1.65436E-24
 -3
    1PSTEP                        14           7           1          
  100CL  107 5.50781E-01         409                     0    7           1
 -4  STRESS      6    1
 -5  SXX         1    4    1    1
 -5  SYY         1    4    2    2
 -5  SZZ         1    4    3    3
 -5  SXY         1    4    1    2
 -5  SYZ         1    4    2    3
 -5  SZX         1    4    3    1
 -1         1-2.58404E+06-1.07936E+06-5.61577E+05-1.33469E+06 4.22006E-10 6.62112E-09
 -1         2 2.41904E+03-5.04245E+05 7.85588E+03-1.17361E+03-6.84963E-11-2.12142E-09
 -1         3-2.84021E+02-1.11230E+06 2.67876E+02-7.03599E+02-2.65011E-10-2.08020E-08
 -1         5-1.53650E+00 2.88790E+05 7.41585E+00 7.16828E-02 3.51951E-11-1.03778E-08
 -1         8-1.17304E+06-4.12967E+05-1.26725E+05-5.35966E+05 3.52884E-10 1.67565E-08
 -1         9-2.32743E+06-8.53196E+05-3.09914E+05-7.73120E+05 4.72937E-09-4.91855E-09
 -1        10-1.01918E+03-1.15881E+06-1.63629E+03-4.76143E+03-5.86351E-09-3.25521E-08
 -1        12 1.50683E+00 2.88806E+05 2.40093E+02 5.59661E-01 1.14426E-10-9.97386E-09
 -1        15 1.99276E+03 1.09515E+03 6.44161E+03 4.38588E+00-2.05461E-10-4.23034E-09
 -1        16-2.50567E+06-1.23401E+06-4.12914E+05-1.33093E+06 9.25502E-09 1.63758E-08
 -1        17-1.29862E+06-6.91746E+05-2.41895E+05-6.00054E+05-5.24014E-09 7.12462E-09
 -1        18-3.22956E+04-1.27549E+04-3.05295E+04-7.65108E+04 6.54734E-09 4.64615E-09
 -1        19 9.21406E+04 1.07274E+05-6.83081E+02 1.80680E+04-3.59432E-10 1.56433E-10
 -1        20-4.47290E+04-4.35842E+05-9.65796E+04 2.87879E+04 1.73335E-09 8.85787E-09
 -1        21-3.98489E+01-2.45925E+05-7.87754E+02-4.56823E+01-5.61919E-09-5.85281E-09
 -1        24-2.93507E+06-6.66326E+05-3.05142E+05-1.01385E+06-4.19338E-08-2.18958E-08
 -1        25-7.41580E+04-4.57117E+05-8.86043E+04-1.21411E+05-9.44056E-11-1.46974E-09
 -1        26-2.98672E+04 7.10286E+04-1.66134E+04-6.62864E+03 1.40608E-09-5.00407E-09
 -1        27-6.58513E+04-2.37877E+05-8.87359E+04 5.37092E+04 5.84911E-09-1.76806E-09
 -1        28 1.89491E+04-6.86560E+04 1.39372E+04 2.06066E+04 2.43844E-09-5.94311E-09
 -1        32-1.15428E+06-1.27453E+06 1.34135E+05-5.68208E+05-2.55204E-08 3.96383E-09
 -1        33-1.38308E+05 6.90573E+04 2.46194E+04-3.56073E+04 7.87187E-10 7.71858E-10
 -1        34-1.76088E+05-1.78337E+04 4.48016E+02 5.52905E+04 2.03751E-09-2.88598E-09
 -1        35-1.92992E+04-2.72744E+04-1.07417E+03 4.28413E+04 2.99617E-09-1.33393E-08
 -1        51 2.24067E+04-3.45952E+05 5.43881E+04-9.70994E+05 4.36557E-11 1.25583E-08
 -1        52 1.18544E+04-3.42119E+05 3.37169E+04-1.13240E+06 1.96451E-10-1.21145E-08
 -1        53 7.45543E+03-3.57125E+05 2.56577E+04-9.67563E+05 8.80391E-10 6.69388E-10
 -1        54 2.04835E+04-3.55716E+05 3.74879E+04-1.13595E+06 1.09139E-09-1.05756E-08
 -1        55 4.01304E+04-3.69610E+05 6.46681E+04-9.66995E+05 1.13505E-09 1.32059E-09
 -1        56-4.91842E+06-5.44603E+05-4.08029E+05-1.90248E+06 9.53150E-10 1.58325E-08
 -1        57-5.10090E+06-9.05306E+05-2.76524E+05-1.86629E+06-2.58660E-09-9.96806E-10
 -1        58-5.00088E+06-6.76772E+05-9.58762E+04-1.87610E+06 1.72986E-09 8.01083E-09
 -1        59-5.00601E+06-7.49890E+05-5.76360E+04-1.89644E+06-1.65960E-09 1.95241E-08
 -1        60-5.01226E+06-6.96404E+05-2.23589E+04-1.87344E+06 9.85438E-10 1.40426E-08
 -1        61-4.99562E+06-7.24040E+05-1.27576E+04-1.89607E+06-9.12678E-10-1.07174E-08
 -1        62-5.01099E+06-7.02165E+05-6.05489E+03-1.87655E+06 2.07342E-09-6.59020E-09
 -1        63-5.00137E+06-7.13536E+05-4.87855E+03-1.88760E+06-1.26875E-09-1.68595E-09
 -1        64-5.00641E+06-7.06892E+05-5.44073E+03-1.88187E+06 7.53062E-10 6.50903E-09
 -1        65-5.01221E+06-7.06350E+05-1.08696E+04-1.87651E+06-4.60176E-09 8.72592E-09
 -1        66-5.00017E+06-7.09399E+05-1.88799E+04-1.88763E+06 2.90038E-09 1.11468E-08
 -1        67-5.03198E+06-7.17038E+05-4.84401E+04-1.86428E+06-6.21458E-09-9.59699E-09
 -1        68-4.98690E+06-6.96575E+05-8.05659E+04-1.89405E+06-1.67165E-09-1.11904E-08
 -1        69-5.11438E+06-8.45040E+05-2.32304E+05-1.83615E+06 9.16771E-10-2.46291E-09
 -1        70-4.91877E+06-5.84398E+05-3.42845E+05-1.91488E+06-1.34605E-09 3.63798E-09
 -1        86-1.21284E+03-5.06703E+05 8.41978E+03 5.86802E+02 9.01764E-10 3.23621E-09
 -1        87 8.03257E+03-5.01588E+05 1.75533E+04-2.22682E+03 1.46565E-09 3.29453E-08
 -1        88-6.80476E+03-5.09360E+05 2.69197E+04 1.64004E+03 2.08456E-09-6.41157E-09
 -1        89 5.07032E+04-4.81919E+05 7.25141E+04-3.96891E+03 3.22689E-09 9.80766E-09
 -1        90-4.37295E+04-5.26347E+05 1.02582E+05 2.32919E+03 2.88128E-09 1.21906E-09
 -1       121-4.12049E+02-1.11338E+06 1.14692E+02 3.50940E+02 6.81283E-10-1.40408E-08
 -1       122-1.90865E+02-1.11227E+06 5.67221E+02-1.40574E+03-2.37539E-09-2.11585E-08
 -1       123-4.65107E+02-1.11344E+06 7.71488E+02 1.04968E+03 2.01351E-09 5.16411E-09
 -1       124 8.69231E+02-1.11169E+06 2.33454E+03-3.01480E+03-4.62796E-09-8.91396E-09
 -1       125-1.12217E+03-1.11404E+06 3.43129E+03 1.95673E+03 3.26600E-09-1.14032E-08
 -1       191-1.86105E+00 2.88816E+05 9.05761E+00-3.59523E-02 6.47209E-11-4.75279E-09
 -1       192-2.21599E+00 2.88791E+05 1.56918E+01 3.13291E-01 1.07346E-10-1.24925E-08
 -1       193-3.66848E+00 2.88815E+05 2.93701E+01-2.78228E-01 1.00323E-10-2.73508E-09
 -1       194-4.40300E+00 2.88793E+05 5.93285E+01 7.44304E-01 5.55467E-11-2.01635E-09
 -1       195-7.14212E+00 2.88814E+05 1.16237E+02-4.69119E-01 1.59716E-10 4.50723E-09
 -1       251-1.57827E+06 1.99166E+04-5.90323E+04-3.89874E+04 1.02909E-09 8.69113E-09
 -1       252-1.56499E+06-2.23187E+04-3.42108E+04 1.04040E+05 5.53541E-10 1.96587E-09
 -1       253-1.56696E+06 2.74649E+03-1.40043E+04-6.53040E+04 8.79254E-10-9.39144E-09
 -1       254-1.56712E+06-7.42458E+02-7.24712E+03 1.20124E+05 1.29330E-09-1.01858E-08
 -1       255-1.57729E+06-6.35453E+02-5.37783E+03-5.50998E+04 7.38282E-09-6.29780E-09
 -1       256-1.53300E+06 1.74518E+03 5.41390E+03 6.87033E+04 1.08703E-08 2.86228E-08
 -1       257-1.59790E+06-2.29366E+03-7.08350E+03-1.38316E+04-1.46065E-09 6.10208E-09
 -1       258-1.51858E+06 1.91011E+03 9.63783E+03-2.18181E+04-8.20887E-09-1.41346E-08
 -1       259-1.59033E+06-1.91687E+03-4.65130E+03 3.53683E+04-2.10593E-09-1.56691E-08
 -1       260-1.55004E+06 2.87899E+03 4.44686E+03-9.98971E+04-1.69359E-09-1.91451E-08
 -1       261-1.56952E+06-7.70296E+02 4.43940E+02 6.42471E+04 1.67149E-08-1.11853E-08
 -1       262-1.56579E+06 4.05949E+03 2.65151E+03-1.21619E+05-5.39046E-09 6.39335E-09
 -1       263-1.57615E+06-1.81902E+03 6.43237E+02 5.71255E+04 6.07224E-09 2.30096E-08
 -1       264-1.53301E+06 8.28133E+03 1.32007E+04-7.52110E+04 2.48398E-08 5.30008E-09
 -1       265-1.59932E+06-7.38630E+03 1.76973E+03 1.77867E+04 6.53745E-09 1.23173E-08
 -1       266-3.60745E+04-1.68658E+04 8.46538E+04-9.38563E+01 1.81899E-11 1.06766E-08
 -1       267 4.18215E+04 1.96616E+04 5.98257E+04 1.08276E+02 1.67347E-10 4.43729E-09
 -1       268-5.60814E+03-2.78440E+03 2.22373E+04-1.37971E+01 4.63842E-11-1.78356E-08
 -1       269 6.62163E+03 3.33259E+03 1.44535E+04 1.60707E+01 5.75255E-11-6.34185E-09
 -1       270-9.93913E+02-5.47560E+02 6.97694E+03-2.18094E+00-4.02451E-11 1.64620E-08
 -1       271-3.33889E+06-4.17639E+05-2.52198E+05-1.30009E+06-6.65750E-10-6.11180E-10
 -1       272-3.42977E+06-6.01346E+05-1.62173E+05-1.29732E+06 2.37628E-09 1.44973E-09
 -1       273-3.38750E+06-4.79400E+05-5.95842E+04-1.28751E+06-1.69121E-09 9.03674E-09
 -1       274-3.37206E+06-5.26430E+05-3.33206E+04-1.31704E+06-8.47649E-10 4.72937E-10
 -1       275-3.39571E+06-4.84232E+05-1.38878E+04-1.28368E+06-1.93813E-09 4.76575E-10
 -1       276-3.36162E+06-5.21528E+05-7.33691E+03-1.32368E+06 1.11504E-09-5.27439E-09
 -1       277-3.39828E+06-4.83164E+05-3.61780E+03-1.28153E+06-2.70120E-10 9.97397E-09
 -1       278-3.35843E+06-5.23252E+05-2.58407E+03-1.32718E+06 7.18501E-10 1.31581E-08
 -1       279-3.39926E+06-4.82200E+05-2.75368E+03-1.28047E+06 1.72304E-09 3.65503E-09
 -1       280-3.35808E+06-5.24715E+05-5.03243E+03-1.32824E+06 3.62814E-09-2.24554E-09
 -1       281-3.39877E+06-4.81659E+05-9.14388E+03-1.28055E+06-5.93332E-10 1.22332E-08
 -1       282-3.36320E+06-5.29799E+05-2.19437E+04-1.32617E+06-1.48736E-09-1.87993E-09
 -1       283-3.39412E+06-4.77743E+05-3.90586E+04-1.28225E+06 9.78559E-11-1.76951E-08
 -1       284-3.40002E+06-5.79993E+05-1.06477E+05-1.31431E+06-5.29326E-10-2.45673E-08
 -1       285-3.36249E+06-4.36985E+05-1.65536E+05-1.29022E+06 7.45786E-11-6.54109E-09
 -1       301 2.26284E+04-7.10436E+04 1.66524E+05-1.34617E+05-3.05590E-10-1.04728E-09
 -1       302 2.37136E+04-2.89103E+04 1.09163E+05-1.97594E+05 8.07177E-10-2.61753E-09
 -1       303 1.14662E+03-5.44149E+04 8.34030E+04-1.34582E+05-6.56655E-10 1.43427E-08
 -1       304 2.73356E+04-2.47934E+04 1.21778E+05-1.97159E+05 4.54747E-10 9.62245E-09
 -1       305 2.62491E+04-7.39307E+04 1.94377E+05-1.35109E+05-4.07454E-10-1.84446E-09
 -1       306-6.19314E+06-6.03445E+05-5.00656E+05-2.15424E+06-6.24095E-09-1.14378E-08
 -1       307-5.36994E+06-1.47142E+06-2.47410E+05-2.75888E+06-7.42475E-08 1.23400E-08
 -1       308-6.34008E+06-4.83221E+05-1.11070E+05-1.81603E+06-1.99434E-08 5.47152E-09
 -1       309-5.29421E+06-1.52746E+06-5.12177E+04-3.18056E+06 2.95904E-08-1.25478E-08
 -1       310-6.35108E+06-4.84248E+05-2.63253E+04-1.78856E+06-2.27374E-09-1.47156E-08
 -1       311-5.25520E+06-1.33822E+06 2.66358E+04-2.88119E+06 6.20930E-08-6.91216E-10
 -1       312-6.31191E+06-7.21028E+05-5.95495E+04-2.07136E+06 8.91305E-09 3.25508E-08
 -1       313-5.49496E+06-8.43903E+05 7.36092E+04-2.17019E+06 1.02664E-08 8.65839E-09
 -1       314-6.02894E+06-1.03727E+06-6.89199E+04-2.43520E+06 2.13258E-08-1.06702E-08
 -1       315-6.23743E+06-2.81724E+05 3.64617E+04-1.62958E+06-3.83479E-08-9.64974E-10
 -1       316-5.63126E+06-1.23801E+06-3.92162E+04-2.65234E+06-6.99438E-08-3.67945E-08
 -1       317-6.80513E+06-1.96306E+04-6.04385E+04-1.45100E+06 6.97282E-08-5.14483E-08
 -1       318-5.54477E+06-1.24117E+06-1.19399E+05-2.68371E+06-6.39484E-08 4.54384E-09
 -1       319-6.59764E+06-3.70288E+05-3.06953E+05-1.50438E+06-2.48983E-08-5.67161E-09
 -1       320-5.78991E+06-9.25157E+05-5.60734E+05-2.55514E+06 2.42580E-08 1.45519E-10
 -1       336 5.57831E+02-1.20529E+06-6.90060E+03 2.79042E+03-1.17429E-08-1.38825E-08
 -1       337-2.55657E+03-1.20648E+06-7.71212E+03-6.85506E+03-2.21930E-08-2.92166E-08
 -1       338 3.96212E+02-1.20542E+06-1.02756E+04 4.03868E+03-1.57911E-08-6.92489E-09
 -1       339-1.06392E+04-1.21171E+06-2.25188E+04-9.29526E+03-2.88314E-08 5.33964E-09
 -1       340 7.05450E+03-1.20039E+06-3.49683E+04 5.20867E+03-1.87683E-08 1.70294E-08
 -1       406 2.00326E+01 2.88803E+05 4.74196E+02-9.49883E-02 2.13902E-10-1.00374E-08
 -1       407 1.66747E+02 2.88889E+05 1.00740E+03-2.86146E+00-2.38742E-11 1.03330E-09
 -1       408 5.20203E+02 2.88730E+05 2.01221E+03 3.02874E+00 2.41926E-10 3.99223E-09
 -1       409 2.17680E+03 2.89532E+05 4.52960E+03-2.99389E+01-9.54969E-11 9.15759E-09
 -1       410 6.25162E+03 2.88158E+05 9.24714E+03 2.82106E+01 1.72804E-10 1.19485E-09
 -1       521-8.51541E+06-8.40326E+05-9.03703E+05-2.50433E+06-1.18453E-08 1.77824E-08
 -1       522-5.07817E+06-2.20204E+06-1.27027E+05-4.22726E+06-1.31244E-07-2.46364E-08
 -1       523-8.32741E+06-2.22408E+05-1.65638E+05-1.56082E+06 3.03553E-08-8.05303E-08
 -1       524-5.80811E+06-2.41149E+06-1.56285E+04-5.49747E+06 1.77347E-07-1.19221E-07
 -1       525-8.32575E+06-2.26593E+05-5.28740E+04-1.53842E+06 1.12683E-07-6.98037E-08
 -1       526-5.00544E+06-2.04854E+06 2.09559E+05-4.34118E+06 2.62517E-08-2.30393E-08
 -1       527-8.61791E+06-9.64531E+05-3.17475E+05-2.43208E+06 4.55475E-08-1.32568E-08
 -1       528-5.02106E+06-7.79643E+05 4.03142E+05-2.03482E+06-5.80549E-08 3.11848E-08
 -1       529-7.82408E+06-1.83508E+06-3.38619E+05-3.42506E+06-1.73313E-08-2.29047E-08
 -1       530-7.71597E+06 8.41679E+05 2.36846E+05-9.39338E+05-7.64630E-08 5.20959E-08
 -1       531-6.40468E+06-2.22965E+06-7.38767E+04-3.81401E+06-1.64153E-07-9.50240E-09
 -1       532-9.76324E+06 1.55566E+06-9.54242E+03-9.94691E+05 4.17294E-08-1.36526E-07
 -1       533-6.24762E+06-2.23119E+06-1.36797E+05-3.83351E+06 1.56288E-08-1.91135E-07
 -1       534-8.30224E+06 8.67933E+05-1.29881E+05-8.88756E+05-4.46234E-08 1.39682E-07
 -1       535-7.50686E+06-1.78634E+06-8.45795E+05-3.55394E+06-6.19912E-09 8.86357E-08
 -1       536-4.09617E+05-2.20072E+04 3.36569E+04-1.60357E+04-5.18548E-09 3.75148E-08
 -1       537-3.23135E+05 2.43661E+04 3.63876E+04 3.91164E+04-4.21023E-08 4.17367E-08
 -1       538-3.67572E+05-2.06344E+03 1.07627E+04-2.40440E+04 8.68559E-09 4.64420E-08
 -1       539-3.49604E+05 3.26267E+03 9.56001E+03 4.36071E+04 4.96277E-08 5.00131E-08
 -1       540-3.83610E+05-5.52636E+02-6.81091E+02-2.05424E+04 2.38731E-09 3.45184E-08
 -1       541-2.95406E+05 2.70225E+03 1.56106E+04 2.58193E+04-7.21332E-09 2.12419E-08
 -1       542-4.20306E+05-2.69371E+03-1.04079E+04-6.21946E+03 1.30929E-08 1.00475E-08
 -1       543-2.68653E+05 3.37904E+03 1.96140E+04-6.56724E+03-1.33673E-08-7.52436E-10
 -1       544-4.09653E+05-1.80507E+03-9.25971E+03 1.18106E+04-2.50884E-09-9.28077E-09
 -1       545-3.19758E+05 4.67043E+02 7.73856E+03-3.53644E+04-1.77884E-08-2.10766E-08
 -1       546-3.70541E+05 1.30367E+03-3.45216E+03 2.25689E+04 1.21134E-08-3.38524E-08
 -1       547-3.56846E+05-3.56138E+03-4.71897E+03-4.53172E+04-4.24690E-08-4.76883E-08
 -1       548-3.73512E+05 2.98919E+03-1.24600E+04 2.17916E+04-4.04405E-08-3.86344E-08
 -1       549-3.18964E+05-1.59501E+04-1.74735E+04-3.22920E+04-2.37369E-08-2.62880E-08
 -1       550-4.07249E+05 1.27274E+04-5.22691E+04 9.51108E+03 3.59296E-09-1.36151E-08
 -1       551 1.95391E+04-6.12983E+05 2.49213E+04-1.01280E+06-5.06261E-08 1.09139E-09
 -1       552 4.39986E+04-6.26576E+05 3.24482E+04-1.44277E+06-3.67872E-08 2.81725E-08
 -1       553 3.14744E+04-6.32381E+05 4.70563E+04-1.00892E+06-6.16419E-08 2.17988E-08
 -1       554 7.14065E+04-6.23802E+05 9.83537E+04-1.44426E+06-3.97413E-08 1.34658E-08
 -1       555 5.98218E+04-6.51135E+05 1.74366E+05-1.00989E+06-6.21512E-08-5.49699E-09
 -1       556 1.08809E+05-2.00458E+05 6.48481E+04-2.51055E+05-9.18226E-09-8.90577E-09
 -1       557 1.89640E+05-2.65553E+05 3.44059E+04-3.15987E+05-2.67028E-09 3.08683E-09
 -1       558 1.06354E+05-2.07876E+05 1.33812E+04-2.44733E+05-8.58563E-09 2.59024E-09
 -1       559 1.76223E+05-2.73678E+05 6.95876E+03-3.22712E+05 7.58882E-09-6.08270E-09
 -1       560 1.02217E+05-2.05204E+05 2.57098E+03-2.47506E+05 3.14321E-09 7.85622E-09
 -1       561 1.70371E+05-2.71803E+05 1.48931E+03-3.26478E+05-6.40284E-10 1.81608E-08
 -1       562 9.89375E+04-2.03078E+05 4.13599E+02-2.49861E+05-3.37604E-09 5.93354E-09
 -1       563 1.66520E+05-2.70134E+05 3.64998E+02-3.28949E+05-3.71074E-10 2.09957E-09
 -1       564 9.67894E+04-2.01714E+05 8.67255E+01-2.51380E+05 4.84579E-09 2.90493E-09
 -1       565 1.64319E+05-2.69181E+05 1.22696E+02-3.30342E+05 6.59020E-09 4.58567E-09
 -1       566 9.58253E+04-2.01093E+05 1.76946E+01-2.52061E+05 1.96815E-09 4.54020E-09
 -1       567 1.63726E+05-2.68910E+05-5.89666E+01-3.30633E+05 1.36295E-08 1.04701E-08
 -1       568 9.60879E+04-2.01270E+05-3.15264E+02-2.51960E+05-4.32919E-10 1.81899E-09
 -1       569 1.63926E+05-2.68800E+05-7.64959E+02-3.29066E+05 1.81353E-09 1.21763E-08
 -1       570 9.82491E+04-2.03061E+05-1.80938E+03-2.51683E+05 4.32192E-09-5.18412E-10
 -1       571 2.15352E+05 7.93395E+03 1.17010E+04-5.59369E+04 2.60115E-10 6.89170E-09
 -1       572 2.17087E+05 2.78932E+03 5.73301E+03-6.13410E+04-1.48475E-09 1.44132E-09
 -1       573 2.16047E+05 6.94560E+02 2.54699E+03-5.58048E+04 9.73159E-10 6.40739E-09
 -1       574 2.16248E+05 2.57914E+02 1.27633E+03-6.14917E+04 4.62205E-09 2.23008E-09
 -1       575 2.16124E+05 6.99861E+01 6.01820E+02-5.57873E+04 1.17006E-09-1.89357E-09
 -1       576 2.16135E+05 5.26370E+01 3.06894E+02-6.15118E+04-4.70267E-09-2.85127E-10
 -1       577 2.16139E+05 3.44531E+01 1.52051E+02-5.57850E+04 6.74481E-09 8.79072E-09
 -1       578 2.16130E+05 3.90291E+01 8.47967E+01-6.15143E+04 1.68984E-08 4.00769E-09
 -1       579 2.16159E+05 2.77767E+01 5.49538E+01-5.57849E+04 1.01572E-08 6.95763E-11
 -1       580 2.16158E+05 2.71207E+01 5.68617E+01-6.15110E+04-1.46838E-09 6.74754E-09
 -1       581 2.16192E+05 1.42645E+01 8.25857E+01-5.57882E+04 1.77806E-09 4.50427E-09
 -1       582 2.16216E+05 2.88958E+01 1.62209E+02-6.14765E+04-2.72848E-10 5.03906E-09
 -1       583 2.16230E+05 6.40172E+01 3.13088E+02-5.58194E+04 4.85670E-10 9.40804E-09
 -1       584 2.16380E+05 3.11081E+02 7.03916E+02-6.12150E+04-5.96629E-10 4.61091E-09
 -1       585 2.16199E+05 9.28386E+02 1.42965E+03-5.60502E+04-8.82210E-11-1.06756E-08
 -1       586-2.62104E+03 7.08629E+04-3.26796E+03-1.92286E+05-5.93900E-10 3.03453E-09
 -1       587-6.01240E+02 7.04507E+04-1.41979E+02-2.11635E+05-1.72804E-10 9.10200E-09
 -1       588 7.33492E+02 7.05012E+04 2.86784E+03-1.92188E+05 2.23736E-10 8.74752E-09
 -1       589 3.94588E+03 7.20585E+04 8.04527E+03-2.11424E+05-7.60338E-10-1.20672E-08
 -1       590 1.15574E+04 6.95960E+04 1.71146E+04-1.92507E+05-1.28512E-09 1.07630E-08
 -1       591-4.50867E+04-1.21050E+04-1.52316E+04-2.22794E+04-7.03039E-10 1.20963E-10
 -1       592-4.69232E+04-1.54367E+04-8.25025E+03-2.57857E+04 1.16466E-09-4.88399E-09
 -1       593-4.66206E+04-1.09890E+04-3.43452E+03-2.33859E+04 6.33690E-10-6.35055E-10
 -1       594-4.48071E+04-1.32159E+04-1.71296E+03-2.58829E+04 8.62201E-10 9.90411E-09
 -1       595-4.67380E+04-1.09843E+04-7.87009E+02-2.34365E+04-1.51272E-09 8.97076E-09
 -1       596-4.46634E+04-1.31143E+04-4.00906E+02-2.58673E+04 2.84638E-09 1.96712E-09
 -1       597-4.67528E+04-1.09943E+04-2.20077E+02-2.34384E+04 2.66189E-09 1.95513E-09
 -1       598-4.46494E+04-1.31104E+04-1.80170E+02-2.58629E+04 1.44439E-10-4.91929E-09
 -1       599-4.67516E+04-1.09945E+04-2.34212E+02-2.34381E+04 3.75235E-09-1.01647E-09
 -1       600-4.46644E+04-1.31154E+04-4.38335E+02-2.58664E+04 2.84626E-09-1.19575E-08
 -1       601-4.67332E+04-1.09842E+04-8.66445E+02-2.34351E+04 5.58680E-09 3.99882E-09
 -1       602-4.48226E+04-1.32272E+04-1.88920E+03-2.58813E+04 4.09148E-09-8.88622E-09
 -1       603-4.66019E+04-1.09914E+04-3.78912E+03-2.33796E+04 7.75435E-09-6.48606E-09
 -1       604-4.71669E+04-1.56662E+04-9.10203E+03-2.57594E+04 9.02946E-09 4.21551E-10
 -1       605-4.48972E+04-1.22326E+04-1.68041E+04-2.21698E+04 7.54585E-09 8.92305E-09
 -1       606 2.78073E+04-1.03373E+04-1.85919E+04 2.69393E+04-1.62436E-09-4.27099E-09
 -1       607 2.46246E+04-3.34464E+03-9.25777E+03 3.02445E+04-6.87578E-10-2.66027E-09
 -1       608 2.64293E+04-5.73839E+02-4.14581E+03 2.67270E+04 1.05319E-09-3.76986E-09
 -1       609 2.60712E+04-1.59377E+02-2.09389E+03 3.04816E+04-2.40198E-09-5.45856E-09
 -1       610 2.62620E+04 1.52659E+01-1.00016E+03 2.67032E+04-4.78394E-09 5.32236E-09
 -1       611 2.61954E+04 2.76738E+01-5.04287E+02 3.05075E+04-4.65525E-09 4.43470E-09
 -1       612 2.62170E+04 3.19980E+01-2.41029E+02 2.67008E+04-2.15186E-09 9.31050E-09
 -1       613 2.61925E+04 3.69531E+01-1.09198E+02 3.05105E+04-4.99267E-09-3.81306E-10
 -1       614 2.61923E+04 3.29268E+01-2.90794E+01 2.67000E+04 1.19962E-09 2.85377E-09
 -1       615 2.61797E+04 4.29610E+01 3.77628E+01 3.05110E+04 5.80394E-09-1.48284E-08
 -1       616 2.61734E+04 3.92384E+01 1.20540E+02 2.67003E+04-1.48339E-09-1.07423E-08
 -1       617 2.61875E+04 7.27789E+01 2.78106E+02 3.05105E+04 9.80435E-10 5.46856E-09
 -1       618 2.61442E+04 1.22582E+02 5.61563E+02 2.67004E+04 6.45741E-11 2.64117E-09
 -1       619 2.63817E+04 5.09592E+02 1.26181E+03 3.05097E+04-1.26238E-09-2.32876E-09
 -1       620 2.59552E+04 1.45663E+03 2.53632E+03 2.66993E+04 3.86876E-10-8.13543E-10
 -1       621 2.92257E+02 2.24814E+05 2.63886E+03 1.25680E+04-1.90767E-10-5.04906E-09
 -1       622 3.48497E+02 2.25463E+05 2.37827E+03 1.83064E+04 1.90994E-11 4.96811E-09
 -1       623 1.86834E+01 2.24978E+05 2.91514E+03 1.25081E+04-2.28653E-11 7.52743E-09
 -1       624 1.37268E+03 2.26394E+05 5.69301E+03 1.83671E+04 2.65175E-11 5.56702E-09
 -1       625 1.37967E+03 2.23865E+05 9.97109E+03 1.25070E+04 7.91260E-11-8.80380E-09
 -1       626 1.94028E+05 5.19599E+04 4.10989E+03 1.02319E+05-1.30694E-09-2.68301E-09
 -1       627 1.91627E+05 5.36206E+04 1.98053E+03 1.06350E+05-4.60386E-09-1.90521E-08
 -1       628 1.94160E+05 5.00403E+04 8.36652E+02 1.02967E+05 3.79259E-10 5.04110E-09
 -1       629 1.91062E+05 5.31252E+04 4.09834E+02 1.06589E+05 3.24462E-09 3.84665E-09
 -1       630 1.94168E+05 4.99501E+04 1.89343E+02 1.02987E+05 2.13731E-09 3.10126E-09
 -1       631 1.90994E+05 5.31120E+04 1.01359E+02 1.06589E+05 3.15504E-09 9.56342E-09
 -1       632 1.94159E+05 4.99571E+04 6.57608E+01 1.02979E+05-6.26642E-10-7.72434E-09
 -1       633 1.90980E+05 5.31173E+04 7.18802E+01 1.06582E+05 3.08887E-09-2.11753E-09
 -1       634 1.94148E+05 4.99580E+04 1.14860E+02 1.02974E+05 5.16729E-09-1.28057E-09
 -1       635 1.90985E+05 5.31187E+04 2.31877E+02 1.06581E+05 2.09866E-09 1.45815E-08
 -1       636 1.94137E+05 4.99566E+04 4.67845E+02 1.02971E+05-2.08991E-09 1.32127E-09
 -1       637 1.91082E+05 5.31927E+04 1.02806E+03 1.06578E+05 2.77626E-09-1.14851E-08
 -1       638 1.94098E+05 5.01852E+04 2.11254E+03 1.02866E+05 3.37491E-09-7.29415E-09
 -1       639 1.92189E+05 5.47365E+04 4.99769E+03 1.06249E+05 2.69870E-09 1.59980E-09
 -1       640 1.93949E+05 5.47867E+04 1.03712E+04 1.00916E+05 8.59472E-10 2.30898E-09
 -1       656 5.16265E+04-1.31021E+06-1.24625E+05-4.78651E+02 7.20320E-10-2.49884E-10
 -1       657-6.82437E+04-1.36647E+06-1.03117E+05 7.58079E+03 8.61291E-10-1.13969E-08
 -1       658 1.63975E+04-1.32624E+06-6.33461E+04-1.87889E+03 6.09134E-10-3.78676E-09
 -1       659-7.33577E+04-1.36890E+06-1.09834E+05 8.56588E+03-6.62112E-10 6.97262E-09
 -1       660 5.67286E+04-1.30780E+06-1.36176E+05-1.46372E+03-4.43833E-10 4.33211E-09
 -1       661 1.69148E+05 1.83087E+04 1.65252E+04 6.61411E+04 1.68347E-09-7.80346E-09
 -1       662 1.77932E+05 3.10951E+04 1.11355E+04 6.30684E+04 3.12195E-09-7.03312E-09
 -1       663 1.72390E+05 2.36130E+04 3.89516E+03 6.52031E+04-1.22895E-10-5.70412E-09
 -1       664 1.74178E+05 2.48880E+04 2.32910E+03 6.42108E+04 1.61560E-09-7.68034E-09
 -1       665 1.72877E+05 2.43414E+04 9.18767E+02 6.50645E+04-9.97716E-10 4.47480E-09
 -1       666 1.73605E+05 2.40521E+04 5.36233E+02 6.43896E+04-4.48365E-09 1.35329E-09
 -1       667 1.72960E+05 2.44271E+04 2.83203E+02 6.50324E+04-1.36077E-09 4.03581E-09
 -1       668 1.73515E+05 2.39864E+04 2.84873E+02 6.44362E+04 1.00967E-09 8.30858E-09
 -1       669 1.72967E+05 2.44050E+04 3.82626E+02 6.50186E+04 1.62667E-09 7.27553E-09
 -1       670 1.73609E+05 2.41910E+04 8.30351E+02 6.44374E+04 5.58407E-09-4.12437E-09
 -1       671 1.72866E+05 2.42266E+04 1.47338E+03 6.50295E+04-8.13635E-10-6.47952E-09
 -1       672 1.74468E+05 2.56245E+04 3.76887E+03 6.42303E+04-6.15844E-09 3.46000E-09
 -1       673 1.72113E+05 2.30076E+04 6.31573E+03 6.52120E+04-1.17609E-09-2.09684E-09
 -1       674 1.80480E+05 3.57696E+04 1.80616E+04 6.24625E+04-8.38781E-10-2.10412E-09
 -1       675 1.66892E+05 1.43652E+04 2.68093E+04 6.66903E+04 3.56158E-09-1.42791E-09
 -1       676 2.04413E+01-2.45859E+05-9.49448E+02 2.28417E+01-5.24778E-10-1.18558E-08
 -1       677-2.52113E+02-2.46089E+05-1.73761E+03-4.56564E+01-1.81458E-09-1.11640E-08
 -1       678 1.68315E+02-2.45696E+05-3.07165E+03 2.27990E+01 1.01033E-09-5.84940E-09
 -1       679-3.07248E+03-2.47943E+05-7.29679E+03-4.54931E+01-3.25485E-10-1.63190E-09
 -1       680 1.83367E+03-2.44006E+05-1.17600E+04 2.24194E+01 5.84350E-10-1.05922E-09
 -1       771-2.61699E+06-5.09002E+05-7.47781E+04-1.13968E+06-1.44792E-08-1.30822E-08
 -1       772-2.58484E+06-5.56179E+05-3.94848E+04-1.19314E+06-1.11468E-08 4.05089E-09
 -1       773-2.62945E+06-4.99166E+05-1.82309E+04-1.14413E+06-5.54428E-09 1.14233E-09
 -1       774-2.57599E+06-5.48225E+05-8.55166E+03-1.20135E+06 1.70257E-08-9.83891E-09
 -1       775-2.63412E+06-4.95881E+05-5.15892E+03-1.14522E+06 1.18162E-08 8.92396E-09
 -1       776-2.57767E+06-5.48115E+05-2.14649E+03-1.20676E+06 5.69707E-09 1.18780E-09
 -1       777-2.63786E+06-4.93125E+05-1.86520E+03-1.14614E+06 3.49246E-09 1.46247E-09
 -1       778-2.57983E+06-5.48159E+05-6.27063E+02-1.21132E+06 4.51837E-09 4.25280E-09
 -1       779-2.64096E+06-4.90775E+05-8.50234E+02-1.14694E+06-2.41562E-09-3.97813E-09
 -1       780-2.58177E+06-5.48152E+05-2.62660E+02-1.21503E+06 1.21508E-09-2.96495E-10
 -1       781-2.64336E+06-4.88909E+05-5.02410E+02-1.14757E+06-1.03901E-08-9.33142E-10
 -1       782-2.58330E+06-5.48123E+05-3.77029E+02-1.21774E+06-1.90339E-08-7.73480E-09
 -1       783-2.64500E+06-4.87646E+05-7.88280E+02-1.14800E+06-4.94038E-09-6.79415E-09
 -1       784-2.58466E+06-5.48508E+05-1.62687E+03-1.21938E+06-1.00808E-08 3.62206E-10
 -1       785-2.64554E+06-4.87222E+05-3.05756E+03-1.14801E+06-1.77006E-08 3.17414E-09
 -1       786 1.51087E+05-9.40161E+03 2.17506E+04-8.93906E+01 2.04846E-09 1.07957E-09
 -1       787 1.60515E+05 1.08841E+04 1.53879E+04 2.28287E+01 2.51373E-09 8.10451E-09
 -1       788 1.54724E+05-1.47377E+03 5.62880E+03-6.85071E+01 1.46155E-09 5.59385E-09
 -1       789 1.56279E+05 1.70514E+03 3.53553E+03-1.12114E+01 8.21174E-11 1.87265E-09
 -1       790 1.55324E+05-2.30096E+02 1.43606E+03-5.53536E+01-1.64420E-10-2.67323E-09
 -1       791 1.55578E+05 2.66617E+02 8.38268E+02-3.46606E+01-9.51680E-10 1.12677E-08
 -1       792 1.55425E+05-3.63233E+01 3.72942E+02-4.50580E+01-1.08728E-10-2.10457E-09
 -1       793 1.55462E+05 4.63533E+01 2.24759E+02-5.52224E+01-2.33552E-10-4.77698E-10
 -1       794 1.55440E+05-9.97381E+00 1.36479E+02-3.47914E+01 7.92916E-10 8.95188E-10
 -1       795 1.55456E+05 4.00404E+01 1.54046E+02-7.83575E+01-7.19641E-10 1.99479E-08
 -1       796 1.55431E+05-3.00107E+01 2.04513E+02-2.19225E+01 4.70426E-10 2.48785E-09
 -1       797 1.55542E+05 2.17408E+02 4.60530E+02-1.09959E+02 6.18924E-10 2.71889E-09
 -1       798 1.55355E+05-1.87213E+02 7.19918E+02-3.18902E+00 1.59654E-10 5.04937E-09
 -1       799 1.56080E+05 1.38198E+03 1.95643E+03-1.58123E+02 1.88966E-10-1.83491E-10
 -1       800 1.54892E+05-1.19365E+03 2.76171E+03 2.62418E+01 3.26699E-10-6.77869E-09
 -1       801 6.69441E+04-2.37286E+06-2.18737E+05 4.14501E+04 1.65455E-08 1.71167E-09
 -1       802-7.82206E+04-2.17474E+06-9.51560E+04-5.52142E+04 4.53747E-08-2.99315E-09
 -1       803 9.76916E+03-2.26865E+06-3.04028E+04 1.10941E+05 3.42407E-08 2.78308E-08
 -1       804 3.12282E+04-2.13696E+06 4.84077E+04-2.12808E+04 3.48318E-08 3.04847E-08
 -1       805-4.35714E+04-2.41009E+06 3.75224E+04 7.50861E+03 1.32277E-08 2.10630E-08
 -1       806-2.36307E+05-4.66518E+04-1.82237E+04-9.43541E+04-3.78668E-09-2.44922E-08
 -1       807-2.37736E+05-4.36827E+04-8.95306E+03-9.87742E+04 4.06089E-09-1.03291E-08
 -1       808-2.36803E+05-4.00887E+04-3.79805E+03-9.74662E+04-8.49468E-10 1.12440E-08
 -1       809-2.35849E+05-4.11733E+04-1.85703E+03-9.90031E+04-3.33512E-09 6.94445E-09
 -1       810-2.36880E+05-3.98591E+04-8.50728E+02-9.76041E+04 8.11724E-10-2.25032E-09
 -1       811-2.35704E+05-4.10727E+04-4.22548E+02-9.89772E+04-1.34969E-09 1.93904E-09
 -1       812-2.36893E+05-3.98776E+04-2.12350E+02-9.76040E+04 2.55113E-09 3.52338E-09
 -1       813-2.35684E+05-4.10744E+04-1.36105E+02-9.89642E+04 1.70985E-10-6.06417E-09
 -1       814-2.36889E+05-3.98843E+04-1.31477E+02-9.76012E+04-1.35196E-09 3.45449E-09
 -1       815-2.35688E+05-4.10762E+04-2.09186E+02-9.89602E+04 1.70530E-10 4.89308E-10
 -1       816-2.36876E+05-3.98828E+04-3.94364E+02-9.75989E+04 1.61344E-09 1.14846E-08
 -1       817-2.35756E+05-4.11137E+04-8.46151E+02-9.89532E+04 4.26553E-09 6.71434E-09
 -1       818-2.36826E+05-4.00010E+04-1.72512E+03-9.75429E+04 1.14869E-09-4.28736E-09
 -1       819-2.36703E+05-4.21548E+04-4.05985E+03-9.87302E+04-1.96178E-09 8.01447E-09
 -1       820-2.36505E+05-4.30645E+04-8.26276E+03-9.62289E+04 7.64885E-10 9.39485E-09
 -1       821-2.94595E+05 1.62960E+04-3.76876E+04 2.87035E+02 1.29236E-09 1.86265E-09
 -1       822-3.10923E+05-1.88654E+04-2.66689E+04-9.86323E+02-8.53218E-10 1.59143E-08
 -1       823-3.00895E+05 2.55522E+03-9.76083E+03 3.00551E+02-1.80268E-10 6.43058E-09
 -1       824-3.03567E+05-2.95710E+03-6.14033E+03-8.20995E+02 1.25976E-09 2.64242E-09
 -1       825-3.01948E+05 3.99664E+02-2.52641E+03 1.21706E+02-7.20540E-10 1.54364E-09
 -1       826-3.02335E+05-4.70950E+02-1.51978E+03-3.51333E+02-3.20772E-09-5.73465E-10
 -1       827-3.02125E+05 7.03810E+01-7.93506E+02-1.69119E+02-2.69337E-09-1.13139E-08
 -1       828-3.02171E+05-1.43776E+02-6.95798E+02 2.14379E+02-4.35457E-09-2.34617E-09
 -1       829-3.02112E+05 7.27915E+01-8.08256E+02-4.44017E+02 7.11655E-10 4.94134E-09
 -1       830-3.02374E+05-4.87725E+02-1.57537E+03 6.27047E+02 2.14152E-09 5.36997E-09
 -1       831-3.01923E+05 4.14620E+02-2.61234E+03-5.81795E+02-3.37455E-09-3.53066E-09
 -1       832-3.03634E+05-3.06419E+03-6.36605E+03 7.05301E+02-1.27612E-09 5.65251E-09
 -1       833-3.00853E+05 2.64754E+03-1.01180E+04-5.22272E+02-1.69486E-09 2.07365E-09
 -1       834-3.11222E+05-1.95525E+04-2.76389E+04 4.14517E+02-1.80072E-09 3.44880E-09
 -1       835-2.94337E+05 1.68898E+04-3.90696E+04-2.90997E+02 4.88016E-09 7.65431E-09
 -1       836-9.94833E+02 2.77699E+05 1.68175E+04-1.91414E+04 3.74712E-10 6.16637E-10
 -1       837 3.67645E+03 2.82922E+05 1.43840E+04-3.84698E+04 8.45603E-10-4.58385E-09
 -1       838-3.76116E+02 2.79144E+05 1.48694E+04-1.90715E+04 9.17680E-10 3.99041E-10
 -1       839 9.53382E+03 2.87286E+05 2.83385E+04-3.85041E+04 1.52068E-09 3.60950E-09
 -1       840-2.88305E+03 2.73292E+05 4.52797E+04-1.91059E+04 9.69521E-10 6.28745E-09
 -1       856-7.91508E+04 7.54360E+03-1.98797E+04-4.32531E+02-1.96894E-09-4.11183E-09
 -1       857-8.73597E+04-8.84904E+03-1.36864E+04 4.67353E+03-1.91662E-09-5.24778E-10
 -1       858-8.23949E+04 1.05702E+03-5.15917E+03-4.54413E+02-2.72553E-09 8.30346E-09
 -1       859-8.36349E+04-1.23002E+03-3.11537E+03 4.70819E+03-7.09974E-10 1.18324E-08
 -1       860-8.28798E+04 1.47066E+02-1.30904E+03-4.67290E+02 1.06488E-09 1.05052E-09
 -1       861-8.30766E+04-1.63107E+02-7.27244E+02 4.72583E+03-5.00821E-09 4.53520E-09
 -1       862-8.29553E+04 1.94296E+01-3.16593E+02-4.72078E+02 2.85215E-09 8.68626E-09
 -1       863-8.29866E+04-1.13749E+01-1.47758E+02 4.72807E+03 4.85094E-09-1.38422E-09
 -1       864-8.29701E+04-1.30556E+00-2.86269E+01-4.69538E+02 3.16746E-09-2.07137E-10
 -1       865-8.29544E+04 3.25743E+01 7.74663E+01 4.71510E+03 5.56670E-09-7.17958E-09
 -1       866-8.29859E+04-2.49460E+01 1.93541E+02-4.59108E+02 4.05322E-10-2.32923E-09
 -1       867-8.28530E+04 2.08134E+02 5.00598E+02 4.68675E+03-1.29296E-09 6.11801E-09
 -1       868-8.30679E+04-1.74883E+02 8.37453E+02-4.41188E+02 1.31240E-09 4.13849E-09
 -1       869-8.22313E+04 1.45298E+03 2.23907E+03 4.63983E+03-3.33651E-09-9.73020E-09
 -1       870-8.36020E+04-1.23771E+03 3.24785E+03-4.12193E+02 1.90880E-10-2.00043E-09
 -1       871-4.40861E+03-1.02211E+04-1.44332E+04 9.54603E+04 1.17507E-09 5.67070E-09
 -1       872-1.87991E+03-1.34708E+04-5.91219E+03 1.23762E+05 1.38220E-09 9.35984E-09
 -1       873-6.48261E+00-1.19509E+04 7.66498E+02 9.52509E+04 5.71617E-10-2.57114E-09
 -1       874 2.22679E+03-9.90192E+03 8.01348E+03 1.23802E+05 1.98452E-09 4.29168E-09
 -1       875 5.19312E+03-1.38517E+04 1.78206E+04 9.54266E+04 8.60382E-10-1.80808E-09
 -1       876 2.32154E+05 3.98192E+04 1.22785E+04 9.39783E+04-1.94700E-09-2.60752E-09
 -1       877 2.32884E+05 4.24868E+04 6.55709E+03 9.75792E+04-1.52068E-09 2.40198E-09
 -1       878 2.33301E+05 3.84607E+04 2.74710E+03 9.49868E+04 3.10138E-10-1.67893E-09
 -1       879 2.31214E+05 4.08227E+04 1.36856E+03 9.76648E+04 1.27784E-10 7.80943E-09
 -1       880 2.33384E+05 3.84459E+04 6.37239E+02 9.50279E+04 2.49361E-09 5.75380E-09
 -1       881 2.31103E+05 4.07519E+04 3.39681E+02 9.76469E+04 4.60079E-09-1.63453E-10
 -1       882 2.33392E+05 3.84562E+04 2.16253E+02 9.50291E+04 2.92334E-09-5.47125E-09
 -1       883 2.31095E+05 4.07485E+04 2.30776E+02 9.76415E+04 8.99320E-10 1.66362E-08
 -1       884 2.33387E+05 3.84538E+04 3.65561E+02 9.50292E+04 4.48745E-09-1.09307E-08
 -1       885 2.31124E+05 4.07536E+04 7.34013E+02 9.76506E+04 1.66501E-08-3.38935E-09
 -1       886 2.33358E+05 3.84323E+04 1.47892E+03 9.50263E+04 1.10790E-08 2.05216E-09
 -1       887 2.31384E+05 4.09240E+04 3.23034E+03 9.76881E+04-2.52697E-09 4.49381E-09
 -1       888 2.33154E+05 3.84682E+04 6.50918E+03 9.49229E+04-1.37959E-10-4.84397E-09
 -1       889 2.35262E+05 4.49516E+04 1.55497E+04 9.75663E+04 2.69289E-09 1.41035E-08
 -1       890 2.30503E+05 4.16185E+04 2.91237E+04 9.24397E+04 2.77214E-09-1.69166E-10
 -1       891-1.36271E+02-1.31151E+05-1.56437E+03 2.42360E+04-6.91671E-10-4.50177E-09
 -1       892-2.39020E+02-1.31529E+05-1.69556E+03 3.66879E+04-1.35060E-10-9.56493E-09
 -1       893-3.27847E+01-1.31199E+05-2.41672E+03 2.42411E+04 4.93401E-11-6.15910E-09
 -1       894-1.30773E+03-1.32450E+05-5.01322E+03 3.65565E+04-4.64752E-10 6.55564E-09
 -1       895-1.02498E+03-1.30154E+05-8.83292E+03 2.43660E+04-9.52355E-10-4.84306E-09
 -1       956-2.93405E+05-4.16191E+03-1.04606E+04 1.98943E+04 6.73026E-11-9.24831E-09
 -1       957-2.95470E+05-1.40867E+03-5.36994E+03 2.39580E+04-1.98270E-09-3.43380E-09
 -1       958-2.94335E+05-1.17103E+02-2.41939E+03 1.97707E+04 1.39153E-10 2.23736E-09
 -1       959-2.94499E+05-2.49478E+01-1.23575E+03 2.40931E+04-4.44015E-09 1.49289E-08
 -1       960-2.94419E+05 3.04412E+01-6.02473E+02 1.97587E+04-3.52611E-09 6.94672E-09
 -1       961-2.94429E+05 2.79058E+01-3.19650E+02 2.41068E+04-2.03909E-09-1.22350E-09
 -1       962-2.94437E+05 2.67595E+01-1.83015E+02 1.97568E+04-9.57925E-10-4.11910E-09
 -1       963-2.94427E+05 2.95385E+01-1.46982E+02 2.41093E+04-9.92259E-10 2.46973E-09
 -1       964-2.94440E+05 2.89374E+01-1.78554E+02 1.97562E+04 4.09921E-09-6.43468E-11
 -1       965-2.94438E+05 3.25902E+01-3.08651E+02 2.41092E+04 8.62906E-09 2.45541E-09
 -1       966-2.94431E+05 3.69016E+01-5.79505E+02 1.97569E+04 4.67992E-09-1.16756E-09
 -1       967-2.94513E+05-1.36732E+01-1.18860E+03 2.41010E+04 8.48559E-10-6.94195E-09
 -1       968-2.94356E+05-1.00693E+02-2.32619E+03 1.97645E+04-3.99723E-10 8.20364E-10
 -1       969-2.95455E+05-1.34062E+03-5.16478E+03 2.40128E+04-1.34901E-09 4.27670E-09
 -1       970-2.93467E+05-3.98827E+03-1.00601E+04 1.98468E+04-2.33285E-10 5.35329E-09
 -1       971-2.76117E+05-1.43959E+03-7.97767E+03 1.31744E+04 2.65072E-09 1.11942E-09
 -1       972-2.78055E+05-1.03423E+03-4.34457E+03 1.83860E+04 6.00039E-09-1.01923E-08
 -1       973-2.77005E+05-1.34437E+01-1.94553E+03 1.30647E+04 2.25782E-09-1.04537E-08
 -1       974-2.77138E+05-1.43822E+01-1.00795E+03 1.85051E+04 3.77781E-09-6.75129E-09
 -1       975-2.77074E+05 2.42443E+01-5.02931E+02 1.30545E+04 1.45883E-09 6.25846E-10
 -1       976-2.77084E+05 2.76995E+01-2.88497E+02 1.85176E+04-3.46063E-09-3.24906E-09
 -1       977-2.77087E+05 2.42772E+01-2.06435E+02 1.30521E+04-1.04137E-10-3.83989E-09
 -1       978-2.77087E+05 3.25476E+01-2.37544E+02 1.85210E+04 5.33453E-09-3.82943E-09
 -1       979-2.77087E+05 3.08184E+01-3.78199E+02 1.30511E+04 4.11018E-09-4.87262E-10
 -1       980-2.77115E+05 3.49263E+01-7.28086E+02 1.85216E+04 3.97570E-09-5.77643E-09
 -1       981-2.77064E+05 4.89542E+01-1.40900E+03 1.30515E+04-7.36895E-09-2.28823E-09
 -1       982-2.77309E+05-6.91244E+01-2.91174E+03 1.85160E+04-9.71727E-09-5.50672E-09
 -1       983-2.76887E+05-4.11857E+01-5.65719E+03 1.30569E+04-4.52519E-09 4.29964E-09
 -1       984-2.80029E+05-3.02354E+03-1.26685E+04 1.84415E+04-8.95170E-10 1.09897E-08
 -1       985-2.74326E+05-4.18077E+03-2.32635E+04 1.31302E+04 4.75802E-09 2.25737E-09
 -3
    1PSTEP                        15           8           1          
  100CL  108 5.85938E-01         409                     0    8           1
 -4  DISP        4    1
 -5  D1          1    2    1    0
 -5  D2          1    2    2    0
 -5  D3          1    2    3    0
 -5  ALL         1    2    0    0    1ALL
 -1         1 5.29013E-04 0.00000E+00 0.00000E+00
 -1         2 5.20969E-04 9.04111E-28-1.65436E-24
 -1         3 1.27012E-04 2.87536E-26-6.61744E-24
 -1         5 9.42657E-05 9.96752E-26 0.00000E+00
 -1         8 4.96783E-04-1.21655E-06 0.00000E+00
 -1         9 5.00083E-04 4.03533E-07 0.00000E+00
 -1        10 1.18105E-04-1.54789E-06 3.30872E-24
 -1        12 9.35577E-05 6.39076E-07 0.00000E+00
 -1        15 4.58465E-04-1.36589E-06-4.13590E-25
 -1        16 4.61110E-04 4.87373E-07 0.00000E+00
 -1        17 8.96688E-05-3.27915E-06 0.00000E+00
 -1        18 9.02040E-05-3.07809E-07 0.00000E+00
 -1        19 9.14336E-05 1.27448E-06 0.00000E+00
 -1        20 9.15977E-05 1.94609E-05 0.00000E+00
 -1        21 9.09847E-05 3.69382E-05 3.30872E-24
 -1        24 2.30012E-05-4.85791E-06 0.00000E+00
 -1        25 8.78294E-05-1.61711E-07 0.00000E+00
 -1        26 8.90310E-05 1.77692E-06 0.00000E+00
 -1        27 8.72620E-05 1.66269E-05 0.00000E+00
 -1        28 8.66774E-05 3.63916E-05 0.00000E+00
 -1        32 0.00000E+00 0.00000E+00 0.00000E+00
 -1        33 8.50717E-05 2.38286E-06 0.00000E+00
 -1        34 8.33665E-05 1.66011E-05 0.00000E+00
 -1        35 8.17412E-05 3.61031E-05 0.00000E+00
 -1        51 5.26915E-04-1.96811E-07 0.00000E+00
 -1        52 5.23028E-04-3.90226E-07 0.00000E+00
 -1        53 5.17705E-04-5.86850E-07 0.00000E+00
 -1        54 5.11311E-04-7.88546E-07 0.00000E+00
 -1        55 5.04214E-04-9.95932E-07-5.58347E-24
 -1        56 5.27714E-04-1.16110E-06 2.64698E-23
 -1        57 5.26775E-04-3.44468E-06 0.00000E+00
 -1        58 5.26153E-04-6.56885E-06 5.29396E-23
 -1        59 5.25724E-04-1.02425E-05 2.64698E-23
 -1        60 5.25371E-04-1.41164E-05 0.00000E+00
 -1        61 5.24958E-04-1.78370E-05 0.00000E+00
 -1        62 5.24361E-04-2.10643E-05 0.00000E+00
 -1        63 5.23462E-04-2.34787E-05 0.00000E+00
 -1        64 5.22167E-04-2.48355E-05-5.29396E-23
 -1        65 5.20400E-04-2.49325E-05 0.00000E+00
 -1        66 5.18127E-04-2.36835E-05 0.00000E+00
 -1        67 5.15335E-04-2.10560E-05 0.00000E+00
 -1        68 5.12056E-04-1.71451E-05-5.29396E-23
 -1        69 5.08353E-04-1.20934E-05 0.00000E+00
 -1        70 5.04309E-04-6.15521E-06 0.00000E+00
 -1        86 5.20424E-04 8.02535E-08 1.65436E-24
 -1        87 5.18785E-04 1.58778E-07-8.27181E-25
 -1        88 5.16005E-04 2.34785E-07 8.27181E-25
 -1        89 5.12030E-04 3.03260E-07-8.27181E-25
 -1        90 5.06759E-04 3.67190E-07-6.61744E-24
 -1       121 1.26763E-04-2.56503E-07 0.00000E+00
 -1       122 1.26017E-04-5.13249E-07 0.00000E+00
 -1       123 1.24776E-04-7.70480E-07 0.00000E+00
 -1       124 1.23042E-04-1.02847E-06-3.30872E-24
 -1       125 1.20817E-04-1.28739E-06 0.00000E+00
 -1       191 9.42461E-05 1.06525E-07-6.61744E-24
 -1       192 9.41871E-05 2.13047E-07 0.00000E+00
 -1       193 9.40887E-05 3.19567E-07 0.00000E+00
 -1       194 9.39511E-05 4.26081E-07 0.00000E+00
 -1       195 9.37741E-05 5.32585E-07 0.00000E+00
 -1       251 4.96955E-04 3.94655E-06 3.30872E-24
 -1       252 4.97161E-04 6.72043E-06 0.00000E+00
 -1       253 4.97370E-04 7.62379E-06 0.00000E+00
 -1       254 4.97584E-04 7.15805E-06 3.30872E-24
 -1       255 4.97798E-04 5.66605E-06-6.61744E-24
 -1       256 4.98011E-04 3.48140E-06 3.30872E-24
 -1       257 4.98223E-04 8.57006E-07 0.00000E+00
 -1       258 4.98435E-04-1.95816E-06 0.00000E+00
 -1       259 4.98647E-04-4.73747E-06-6.61744E-24
 -1       260 4.98859E-04-7.25388E-06-3.30872E-24
 -1       261 4.99073E-04-9.24969E-06 0.00000E+00
 -1       262 4.99286E-04-1.04626E-05-3.30872E-24
 -1       263 4.99501E-04-1.05390E-05 3.30872E-24
 -1       264 4.99709E-04-9.11503E-06 0.00000E+00
 -1       265 4.99914E-04-5.65299E-06 0.00000E+00
 -1       266 4.90397E-04-1.25736E-06 0.00000E+00
 -1       267 4.84011E-04-1.28031E-06 0.00000E+00
 -1       268 4.77624E-04-1.30439E-06 1.65436E-24
 -1       269 4.71238E-04-1.32512E-06-4.13590E-25
 -1       270 4.64851E-04-1.34577E-06 0.00000E+00
 -1       271 4.92905E-04 3.44493E-06 0.00000E+00
 -1       272 4.89685E-04 6.18631E-06 2.64698E-23
 -1       273 4.87110E-04 7.22551E-06 0.00000E+00
 -1       274 4.85078E-04 6.79429E-06 2.64698E-23
 -1       275 4.83492E-04 5.16964E-06 0.00000E+00
 -1       276 4.82237E-04 2.65396E-06 0.00000E+00
 -1       277 4.81192E-04-4.26401E-07-5.29396E-23
 -1       278 4.80231E-04-3.73181E-06-2.64698E-23
 -1       279 4.79224E-04-6.91679E-06 0.00000E+00
 -1       280 4.78046E-04-9.63870E-06-2.64698E-23
 -1       281 4.76571E-04-1.15671E-05 0.00000E+00
 -1       282 4.74685E-04-1.23906E-05-2.64698E-23
 -1       283 4.72277E-04-1.18268E-05 0.00000E+00
 -1       284 4.69261E-04-9.62432E-06 0.00000E+00
 -1       285 4.65543E-04-5.57969E-06 0.00000E+00
 -1       301 4.93329E-04 4.07149E-07 6.61744E-24
 -1       302 4.87038E-04 4.32861E-07 0.00000E+00
 -1       303 4.80941E-04 4.60462E-07 1.65436E-24
 -1       304 4.74767E-04 4.85845E-07 0.00000E+00
 -1       305 4.68246E-04 5.06208E-07 0.00000E+00
 -1       306 4.71800E-04 6.04885E-05 0.00000E+00
 -1       307 3.93074E-04 2.20199E-04 0.00000E+00
 -1       308 2.70783E-04 4.51004E-04 0.00000E+00
 -1       309 1.20801E-04 7.20993E-04 0.00000E+00
 -1       310-2.94915E-05 9.91399E-04 0.00000E+00
 -1       311-1.52629E-04 1.22345E-03 1.58819E-22
 -1       312-2.32477E-04 1.38505E-03 1.05879E-22
 -1       313-2.61854E-04 1.44746E-03-5.29396E-23
 -1       314-2.49272E-04 1.40109E-03-1.05879E-22
 -1       315-2.07359E-04 1.24689E-03 0.00000E+00
 -1       316-1.50125E-04 1.01060E-03-1.05879E-22
 -1       317-8.71883E-05 7.26497E-04 0.00000E+00
 -1       318-2.41715E-05 4.41720E-04 0.00000E+00
 -1       319 3.33582E-05 2.03455E-04 0.00000E+00
 -1       320 7.59408E-05 4.63768E-05 0.00000E+00
 -1       336 1.14848E-04-1.83024E-06 0.00000E+00
 -1       337 1.10985E-04-2.11509E-06 0.00000E+00
 -1       338 1.06526E-04-2.40228E-06 0.00000E+00
 -1       339 1.01479E-04-2.69200E-06 0.00000E+00
 -1       340 9.58556E-05-2.98470E-06-6.61744E-24
 -1       406 9.33020E-05 7.45545E-07 6.61744E-24
 -1       407 9.30069E-05 8.51968E-07 0.00000E+00
 -1       408 9.26724E-05 9.58315E-07 0.00000E+00
 -1       409 9.22986E-05 1.06445E-06 1.65436E-24
 -1       410 9.18856E-05 1.17017E-06 3.30872E-24
 -1       521 4.31301E-04 6.22564E-05-5.29396E-23
 -1       522 3.49608E-04 2.25737E-04 0.00000E+00
 -1       523 2.22877E-04 4.61950E-04 0.00000E+00
 -1       524 6.77750E-05 7.37783E-04 0.00000E+00
 -1       525-8.75408E-05 1.01390E-03-1.05879E-22
 -1       526-2.14851E-04 1.25094E-03-5.29396E-23
 -1       527-2.97318E-04 1.41569E-03-1.05879E-22
 -1       528-3.27894E-04 1.47900E-03-5.29396E-23
 -1       529-3.15363E-04 1.43047E-03 0.00000E+00
 -1       530-2.73185E-04 1.27174E-03 0.00000E+00
 -1       531-2.15695E-04 1.02898E-03 0.00000E+00
 -1       532-1.52725E-04 7.37987E-04 0.00000E+00
 -1       533-8.97326E-05 4.46861E-04 0.00000E+00
 -1       534-3.21747E-05 2.03694E-04 5.29396E-23
 -1       535 1.01745E-05 4.43624E-05 5.29396E-23
 -1       536 8.96769E-05 2.32607E-06 0.00000E+00
 -1       537 8.97042E-05 6.22573E-06 0.00000E+00
 -1       538 8.97351E-05 8.72259E-06 0.00000E+00
 -1       539 8.97702E-05 1.01170E-05 0.00000E+00
 -1       540 8.98062E-05 1.06185E-05 0.00000E+00
 -1       541 8.98428E-05 1.04352E-05-4.13590E-25
 -1       542 8.98792E-05 9.71819E-06 0.00000E+00
 -1       543 8.99153E-05 8.61784E-06 4.13590E-25
 -1       544 8.99512E-05 7.25245E-06-8.27181E-25
 -1       545 8.99868E-05 5.73987E-06-4.13590E-25
 -1       546 9.00225E-05 4.18576E-06 0.00000E+00
 -1       547 9.00582E-05 2.69567E-06-4.13590E-25
 -1       548 9.00942E-05 1.38047E-06 0.00000E+00
 -1       549 9.01305E-05 3.51359E-07 0.00000E+00
 -1       550 9.01671E-05-2.56637E-07 0.00000E+00
 -1       551 8.08938E-05-3.51642E-06 0.00000E+00
 -1       552 7.00894E-05-3.76826E-06-1.65436E-24
 -1       553 5.80717E-05-4.03227E-06 0.00000E+00
 -1       554 4.56676E-05-4.30313E-06 0.00000E+00
 -1       555 3.37042E-05-4.57245E-06 0.00000E+00
 -1       556 8.75227E-05 2.25604E-06 0.00000E+00
 -1       557 8.58924E-05 6.46493E-06 0.00000E+00
 -1       558 8.47196E-05 9.47060E-06 0.00000E+00
 -1       559 8.39526E-05 1.14062E-05 0.00000E+00
 -1       560 8.35391E-05 1.24045E-05 0.00000E+00
 -1       561 8.34279E-05 1.25993E-05 6.61744E-24
 -1       562 8.35682E-05 1.21243E-05 0.00000E+00
 -1       563 8.39091E-05 1.11135E-05 0.00000E+00
 -1       564 8.44003E-05 9.70106E-06 0.00000E+00
 -1       565 8.49914E-05 8.02115E-06 0.00000E+00
 -1       566 8.56323E-05 6.20801E-06 0.00000E+00
 -1       567 8.62728E-05 4.39592E-06 0.00000E+00
 -1       568 8.68628E-05 2.71912E-06 0.00000E+00
 -1       569 8.73522E-05 1.31168E-06 0.00000E+00
 -1       570 8.76907E-05 3.07724E-07 0.00000E+00
 -1       571 9.02786E-05-1.55103E-07-4.13590E-25
 -1       572 9.03549E-05-5.38459E-08-4.13590E-25
 -1       573 9.04316E-05 4.99853E-09 8.27181E-25
 -1       574 9.05086E-05 3.09471E-08 0.00000E+00
 -1       575 9.05857E-05 3.35589E-08 1.65436E-24
 -1       576 9.06628E-05 2.24570E-08 8.27181E-25
 -1       577 9.07399E-05 7.27012E-09 3.30872E-24
 -1       578 9.08170E-05-2.36474E-09-1.65436E-24
 -1       579 9.08942E-05 3.19004E-09-3.30872E-24
 -1       580 9.09713E-05 3.35725E-08 1.65436E-24
 -1       581 9.10484E-05 9.84194E-08 0.00000E+00
 -1       582 9.11256E-05 2.07358E-07 0.00000E+00
 -1       583 9.12027E-05 3.70007E-07 0.00000E+00
 -1       584 9.12797E-05 5.95886E-07 6.61744E-24
 -1       585 9.13567E-05 8.94463E-07 0.00000E+00
 -1       586 8.97866E-05-2.81952E-07 0.00000E+00
 -1       587 8.93354E-05-2.56757E-07-4.13590E-25
 -1       588 8.88821E-05-2.31840E-07-8.27181E-25
 -1       589 8.84587E-05-2.07311E-07 0.00000E+00
 -1       590 8.80974E-05-1.83430E-07 0.00000E+00
 -1       591 9.01110E-05-1.16755E-07-1.03398E-25
 -1       592 9.00312E-05 3.08122E-08-4.13590E-25
 -1       593 8.99645E-05 1.43087E-07 0.00000E+00
 -1       594 8.99078E-05 2.27469E-07 0.00000E+00
 -1       595 8.98588E-05 2.91454E-07 0.00000E+00
 -1       596 8.98145E-05 3.42482E-07 0.00000E+00
 -1       597 8.97723E-05 3.87993E-07 8.27181E-25
 -1       598 8.97294E-05 4.35421E-07 0.00000E+00
 -1       599 8.96830E-05 4.92198E-07-8.27181E-25
 -1       600 8.96302E-05 5.65755E-07 0.00000E+00
 -1       601 8.95685E-05 6.63524E-07 4.13590E-25
 -1       602 8.94949E-05 7.92945E-07 2.06795E-25
 -1       603 8.94067E-05 9.61455E-07-4.13590E-25
 -1       604 8.93015E-05 1.17655E-06 1.03398E-25
 -1       605 8.91762E-05 1.44563E-06 8.27181E-25
 -1       606 9.14480E-05 1.83069E-06 0.00000E+00
 -1       607 9.14596E-05 2.49837E-06 1.65436E-24
 -1       608 9.14704E-05 3.27098E-06 0.00000E+00
 -1       609 9.14808E-05 4.14114E-06 0.00000E+00
 -1       610 9.14911E-05 5.10144E-06 0.00000E+00
 -1       611 9.15012E-05 6.14436E-06 0.00000E+00
 -1       612 9.15112E-05 7.26236E-06 0.00000E+00
 -1       613 9.15211E-05 8.44794E-06 0.00000E+00
 -1       614 9.15309E-05 9.69354E-06 0.00000E+00
 -1       615 9.15407E-05 1.09916E-05 8.27181E-25
 -1       616 9.15504E-05 1.23347E-05 1.65436E-24
 -1       617 9.15601E-05 1.37152E-05-8.27181E-25
 -1       618 9.15697E-05 1.51256E-05 0.00000E+00
 -1       619 9.15792E-05 1.65584E-05 0.00000E+00
 -1       620 9.15886E-05 1.80060E-05-4.13590E-25
 -1       621 9.09846E-05 1.35825E-06 1.65436E-24
 -1       622 9.05629E-05 1.44246E-06-8.27181E-25
 -1       623 9.01626E-05 1.52666E-06 0.00000E+00
 -1       624 8.97778E-05 1.61072E-06 0.00000E+00
 -1       625 8.94026E-05 1.69465E-06 0.00000E+00
 -1       626 9.13140E-05 1.85673E-06 3.30872E-24
 -1       627 9.11604E-05 2.53141E-06 0.00000E+00
 -1       628 9.09754E-05 3.29000E-06 0.00000E+00
 -1       629 9.07624E-05 4.12338E-06-1.65436E-24
 -1       630 9.05248E-05 5.02248E-06 0.00000E+00
 -1       631 9.02659E-05 5.97810E-06 1.65436E-24
 -1       632 8.99891E-05 6.98108E-06 3.30872E-24
 -1       633 8.96980E-05 8.02227E-06-1.65436E-24
 -1       634 8.93960E-05 9.09249E-06 0.00000E+00
 -1       635 8.90866E-05 1.01826E-05-1.65436E-24
 -1       636 8.87730E-05 1.12834E-05 3.30872E-24
 -1       637 8.84589E-05 1.23857E-05-1.65436E-24
 -1       638 8.81476E-05 1.34804E-05 1.65436E-24
 -1       639 8.78424E-05 1.45583E-05 0.00000E+00
 -1       640 8.75465E-05 1.56102E-05-1.65436E-24
 -1       656 9.03807E-05 1.89996E-05 0.00000E+00
 -1       657 8.95772E-05 1.85201E-05 6.61744E-24
 -1       658 8.90326E-05 1.80421E-05-1.32349E-23
 -1       659 8.85869E-05 1.75645E-05-6.61744E-24
 -1       660 8.80571E-05 1.70854E-05 0.00000E+00
 -1       661 9.11484E-05 2.08872E-05 0.00000E+00
 -1       662 9.07251E-05 2.22542E-05 0.00000E+00
 -1       663 9.03233E-05 2.35634E-05 0.00000E+00
 -1       664 8.99427E-05 2.48180E-05 8.27181E-25
 -1       665 8.95819E-05 2.60203E-05-1.65436E-24
 -1       666 8.92398E-05 2.71727E-05 1.65436E-24
 -1       667 8.89157E-05 2.82776E-05 0.00000E+00
 -1       668 8.86087E-05 2.93370E-05-1.65436E-24
 -1       669 8.83181E-05 3.03530E-05 3.30872E-24
 -1       670 8.80430E-05 3.13275E-05 0.00000E+00
 -1       671 8.77828E-05 3.22622E-05 1.65436E-24
 -1       672 8.75368E-05 3.31589E-05-8.27181E-25
 -1       673 8.73045E-05 3.40190E-05-1.65436E-24
 -1       674 8.70845E-05 3.48437E-05-8.27181E-25
 -1       675 8.68774E-05 3.56348E-05 8.27181E-25
 -1       676 9.02646E-05 3.68465E-05 0.00000E+00
 -1       677 8.95449E-05 3.67549E-05 0.00000E+00
 -1       678 8.88259E-05 3.66634E-05 0.00000E+00
 -1       679 8.81081E-05 3.65721E-05-1.65436E-24
 -1       680 8.73918E-05 3.64809E-05 1.65436E-24
 -1       771 1.88322E-05 2.70235E-06 0.00000E+00
 -1       772 1.51650E-05 8.90976E-06 2.64698E-23
 -1       773 1.19853E-05 1.38371E-05 0.00000E+00
 -1       774 9.26138E-06 1.75613E-05 2.64698E-23
 -1       775 6.96295E-06 2.01619E-05 0.00000E+00
 -1       776 5.05744E-06 2.17220E-05 0.00000E+00
 -1       777 3.51174E-06 2.23269E-05 0.00000E+00
 -1       778 2.29171E-06 2.20650E-05 0.00000E+00
 -1       779 1.36281E-06 2.10267E-05 0.00000E+00
 -1       780 6.89663E-07 1.93046E-05 0.00000E+00
 -1       781 2.36656E-07 1.69931E-05 0.00000E+00
 -1       782-3.24396E-08 1.41884E-05-2.64698E-23
 -1       783-1.54016E-07 1.09878E-05 2.64698E-23
 -1       784-1.64777E-07 7.48982E-06 1.32349E-23
 -1       785-1.01666E-07 3.79373E-06 2.64698E-23
 -1       786 8.79002E-05-1.10240E-07 0.00000E+00
 -1       787 8.79752E-05-5.66763E-08 8.27181E-25
 -1       788 8.80498E-05-7.65578E-10 0.00000E+00
 -1       789 8.81253E-05 5.77555E-08 0.00000E+00
 -1       790 8.82008E-05 1.19610E-07 0.00000E+00
 -1       791 8.82764E-05 1.85535E-07 8.27181E-25
 -1       792 8.83520E-05 2.56984E-07 0.00000E+00
 -1       793 8.84277E-05 3.35428E-07 8.27181E-25
 -1       794 8.85034E-05 4.23580E-07 0.00000E+00
 -1       795 8.85791E-05 5.24181E-07 0.00000E+00
 -1       796 8.86547E-05 6.42171E-07 0.00000E+00
 -1       797 8.87304E-05 7.82553E-07 0.00000E+00
 -1       798 8.88060E-05 9.54283E-07 1.65436E-24
 -1       799 8.88814E-05 1.16642E-06-8.27181E-25
 -1       800 8.89568E-05 1.43517E-06 1.65436E-24
 -1       801 8.19253E-05-1.54420E-08-1.65436E-24
 -1       802 6.45067E-05 8.48685E-09 0.00000E+00
 -1       803 4.15796E-05-6.94187E-08 0.00000E+00
 -1       804 1.91051E-05-1.45774E-07 1.65436E-24
 -1       805 3.18912E-06-1.05027E-07 1.32349E-23
 -1       806 8.77213E-05-1.62185E-07 1.65436E-24
 -1       807 8.76106E-05-1.65809E-07 0.00000E+00
 -1       808 8.74982E-05-1.66608E-07 3.30872E-24
 -1       809 8.73825E-05-1.59460E-07 0.00000E+00
 -1       810 8.72616E-05-1.39249E-07-3.30872E-24
 -1       811 8.71340E-05-1.00933E-07 0.00000E+00
 -1       812 8.69976E-05-3.94736E-08 0.00000E+00
 -1       813 8.68507E-05 5.01541E-08 0.00000E+00
 -1       814 8.66913E-05 1.72974E-07 0.00000E+00
 -1       815 8.65175E-05 3.34004E-07-8.27181E-25
 -1       816 8.63276E-05 5.38256E-07-1.65436E-24
 -1       817 8.61196E-05 7.90744E-07-1.65436E-24
 -1       818 8.58916E-05 1.09647E-06 3.30872E-24
 -1       819 8.56419E-05 1.46043E-06-8.27181E-25
 -1       820 8.53688E-05 1.88760E-06-3.30872E-24
 -1       821 8.89272E-05 2.08170E-06 0.00000E+00
 -1       822 8.88169E-05 2.24102E-06 0.00000E+00
 -1       823 8.87071E-05 2.34856E-06 0.00000E+00
 -1       824 8.85960E-05 2.49823E-06 0.00000E+00
 -1       825 8.84849E-05 2.77434E-06 0.00000E+00
 -1       826 8.83735E-05 3.26054E-06-1.65436E-24
 -1       827 8.82619E-05 3.99273E-06 0.00000E+00
 -1       828 8.81501E-05 5.00561E-06 1.65436E-24
 -1       829 8.80379E-05 6.27008E-06 0.00000E+00
 -1       830 8.79255E-05 7.75575E-06 1.65436E-24
 -1       831 8.78129E-05 9.38204E-06-3.30872E-24
 -1       832 8.77005E-05 1.10676E-05-1.65436E-24
 -1       833 8.75882E-05 1.27176E-05 0.00000E+00
 -1       834 8.74773E-05 1.42374E-05 0.00000E+00
 -1       835 8.73663E-05 1.55619E-05 8.27181E-25
 -1       836 8.85398E-05 1.87783E-06 0.00000E+00
 -1       837 8.79133E-05 1.98093E-06 4.96308E-24
 -1       838 8.72023E-05 2.08383E-06 0.00000E+00
 -1       839 8.64578E-05 2.18606E-06 8.27181E-25
 -1       840 8.57307E-05 2.28814E-06-4.13590E-25
 -1       856 8.72296E-05 1.76269E-05 0.00000E+00
 -1       857 8.71935E-05 1.87486E-05 0.00000E+00
 -1       858 8.71575E-05 1.99729E-05 0.00000E+00
 -1       859 8.71208E-05 2.12805E-05 0.00000E+00
 -1       860 8.70839E-05 2.26520E-05 0.00000E+00
 -1       861 8.70469E-05 2.40681E-05-4.13590E-25
 -1       862 8.70098E-05 2.55093E-05 0.00000E+00
 -1       863 8.69727E-05 2.69559E-05 0.00000E+00
 -1       864 8.69355E-05 2.83884E-05-8.27181E-25
 -1       865 8.68984E-05 2.97874E-05-4.13590E-25
 -1       866 8.68614E-05 3.11333E-05 0.00000E+00
 -1       867 8.68245E-05 3.24067E-05 0.00000E+00
 -1       868 8.67876E-05 3.35884E-05 8.27181E-25
 -1       869 8.67509E-05 3.46591E-05 4.13590E-25
 -1       870 8.67142E-05 3.55998E-05-1.65436E-24
 -1       871 8.64896E-05 1.66258E-05 0.00000E+00
 -1       872 8.58333E-05 1.66224E-05 0.00000E+00
 -1       873 8.52433E-05 1.66185E-05 0.00000E+00
 -1       874 8.46690E-05 1.66141E-05-5.16988E-26
 -1       875 8.40601E-05 1.66091E-05 8.27181E-25
 -1       876 8.69928E-05 1.76369E-05 0.00000E+00
 -1       877 8.67037E-05 1.87063E-05 0.00000E+00
 -1       878 8.63952E-05 1.98277E-05 0.00000E+00
 -1       879 8.60699E-05 2.09946E-05 1.65436E-24
 -1       880 8.57301E-05 2.22001E-05 0.00000E+00
 -1       881 8.53783E-05 2.34376E-05 0.00000E+00
 -1       882 8.50170E-05 2.47004E-05 0.00000E+00
 -1       883 8.46488E-05 2.59819E-05-1.65436E-24
 -1       884 8.42759E-05 2.72753E-05-3.30872E-24
 -1       885 8.39011E-05 2.85741E-05 0.00000E+00
 -1       886 8.35267E-05 2.98716E-05 0.00000E+00
 -1       887 8.31552E-05 3.11610E-05 0.00000E+00
 -1       888 8.27891E-05 3.24358E-05 0.00000E+00
 -1       889 8.24305E-05 3.36891E-05 0.00000E+00
 -1       890 8.20819E-05 3.49143E-05-8.27181E-25
 -1       891 8.59872E-05 3.63434E-05 0.00000E+00
 -1       892 8.52762E-05 3.62950E-05 4.13590E-25
 -1       893 8.45202E-05 3.62466E-05 8.27181E-25
 -1       894 8.36951E-05 3.61983E-05 6.20385E-25
 -1       895 8.27767E-05 3.61501E-05-6.20385E-25
 -1       956 8.49672E-05 3.01708E-06 3.30872E-24
 -1       957 8.48609E-05 3.72003E-06-8.27181E-25
 -1       958 8.47544E-05 4.48464E-06 1.65436E-24
 -1       959 8.46476E-05 5.30340E-06 1.65436E-24
 -1       960 8.45407E-05 6.16879E-06 0.00000E+00
 -1       961 8.44337E-05 7.07326E-06 1.65436E-24
 -1       962 8.43267E-05 8.00922E-06 0.00000E+00
 -1       963 8.42196E-05 8.96913E-06 0.00000E+00
 -1       964 8.41126E-05 9.94538E-06 0.00000E+00
 -1       965 8.40055E-05 1.09304E-05 1.65436E-24
 -1       966 8.38985E-05 1.19166E-05 0.00000E+00
 -1       967 8.37915E-05 1.28965E-05-1.65436E-24
 -1       968 8.36845E-05 1.38624E-05-3.30872E-24
 -1       969 8.35778E-05 1.48068E-05 0.00000E+00
 -1       970 8.34714E-05 1.57221E-05 3.30872E-24
 -1       971 8.32664E-05 1.75034E-05 1.65436E-24
 -1       972 8.31648E-05 1.84961E-05-8.27181E-25
 -1       973 8.30630E-05 1.95693E-05 1.65436E-24
 -1       974 8.29610E-05 2.07124E-05 0.00000E+00
 -1       975 8.28589E-05 2.19153E-05 0.00000E+00
 -1       976 8.27567E-05 2.31674E-05 0.00000E+00
 -1       977 8.26544E-05 2.44583E-05 0.00000E+00
 -1       978 8.25521E-05 2.57776E-05-1.65436E-24
 -1       979 8.24498E-05 2.71149E-05-3.30872E-24
 -1       980 8.23475E-05 2.84597E-05 0.00000E+00
 -1       981 8.22453E-05 2.98017E-05 3.30872E-24
 -1       982 8.21431E-05 3.11303E-05 1.65436E-24
 -1       983 8.20411E-05 3.24351E-05-3.30872E-24
 -1       984 8.19395E-05 3.37058E-05 0.00000E+00
 -1       985 8.18385E-05 3.49318E-05 0.00000E+00
 -3
    1PSTEP                        16           8           1          
  100CL  108 5.85938E-01         409                     0    8           1
 -4  STRESS      6    1
 -5  SXX         1    4    1    1
 -5  SYY         1    4    2    2
 -5  SZZ         1    4    3    3
 -5  SXY         1    4    1    2
 -5  SYZ         1    4    2    3
 -5  SZX         1    4    3    1
 -1         1-2.02882E+06-9.40586E+05-4.23102E+05-1.34270E+06-1.60071E-10 1.41008E-08
 -1         2 2.85798E+03 2.34617E+05 9.53375E+03 1.08390E+03-1.86731E-10 8.22572E-08
 -1         3-1.05041E+02-7.32605E+05 1.83699E+02-2.89664E+02-2.30409E-10 1.11686E-09
 -1         5-1.17494E+01 3.04838E+05 8.00798E+00 3.11148E-01 2.01154E-10-6.76209E-09
 -1         8-9.42351E+05-4.25745E+05-2.16594E+04-7.59978E+05 2.07365E-10-2.59024E-09
 -1         9-2.49954E+05 6.02287E+05 1.80314E+05 5.96852E+05-7.20902E-09 4.08152E-08
 -1        10-5.77685E+02-7.63182E+05-6.32204E+02-1.95544E+03-3.81760E-09-2.93095E-08
 -1        12-8.47841E+00 3.04855E+05 2.59955E+02 2.34675E+00 2.77652E-10 6.81302E-09
 -1        15 2.63721E+03 1.44933E+03 8.52483E+03 7.28329E+00-5.20117E-11 4.17919E-08
 -1        16-1.27571E+06 7.09536E+05 5.51094E+04 9.03273E+05 6.01479E-09 6.88791E-09
 -1        17 1.26606E+06-4.99036E+05 1.69870E+05-6.36680E+05-5.86006E-09-7.55535E-09
 -1        18 6.52176E+04 1.05132E+04-7.15436E+03-7.07721E+04 8.65384E-10-3.61115E-09
 -1        19 9.51984E+04 1.13998E+05-5.08571E+02 1.86263E+04-8.12179E-10-4.91418E-09
 -1        20-3.86586E+04-4.49663E+05-9.91294E+04 3.35154E+04 2.59297E-09-5.46182E-09
 -1        21-4.25480E+01-2.61623E+05-8.46218E+02-1.29216E+02-1.22099E-08-1.01601E-08
 -1        24 1.10452E+06-9.69984E+05 2.36479E+05-1.51275E+06 1.50127E-08-1.51340E-09
 -1        25 6.14145E+04 1.03523E+05 4.72333E+04-1.30617E+05 4.86580E-10 1.15288E-08
 -1        26-2.06190E+04 7.83267E+04-1.50903E+04-1.19205E+04 1.77170E-09 7.45518E-09
 -1        27-7.25136E+04-2.46857E+05-9.26829E+04 5.56514E+04 6.87396E-09-2.32133E-09
 -1        28 2.03074E+04-7.21133E+04 1.47782E+04 2.33643E+04 5.05224E-09 4.09745E-09
 -1        32-9.04792E+05 1.35769E+05 4.80046E+05-6.55816E+05-1.73022E-08 1.87341E-08
 -1        33-1.40698E+05 7.28376E+04 2.57834E+04-4.31025E+04 1.59395E-09 1.25904E-09
 -1        34-1.83389E+05-1.81896E+04 4.18443E+02 5.61518E+04 4.86286E-09-1.83081E-09
 -1        35-2.06333E+04-2.86442E+04-1.12569E+03 4.55797E+04 6.64705E-09-3.30328E-09
 -1        51 1.30103E+04-4.88407E+05 3.83776E+04-1.23230E+06-2.61934E-10-2.79397E-09
 -1        52 1.15952E+04-4.91331E+05 2.76301E+04-1.43737E+06 3.78350E-10 2.91620E-08
 -1        53 1.06695E+04-5.09906E+05 2.56800E+04-1.22797E+06 9.82254E-10 4.32192E-09
 -1        54 2.93126E+04-5.10675E+05 4.41973E+04-1.44178E+06 2.03727E-10-3.30620E-08
 -1        55 5.41135E+04-5.28420E+05 8.03792E+04-1.22716E+06 1.17871E-09-1.37516E-09
 -1        56-3.89096E+06-4.32416E+05-3.05309E+05-1.49567E+06 2.78669E-09-3.33239E-08
 -1        57-3.99747E+06-7.30370E+05-2.06604E+05-1.50165E+06-6.82849E-09-3.87372E-08
 -1        58-3.95715E+06-5.26166E+05-7.17635E+04-1.47033E+06 6.03177E-09-6.03031E-08
 -1        59-3.92058E+06-6.20979E+05-4.31036E+04-1.53226E+06 1.42882E-09-1.27066E-08
 -1        60-3.96745E+06-5.38902E+05-1.67425E+04-1.46615E+06 1.46201E-09-3.56677E-08
 -1        61-3.91234E+06-6.02035E+05-9.55245E+03-1.53230E+06 4.98608E-09-3.86556E-08
 -1        62-3.96514E+06-5.44813E+05-4.67578E+03-1.47032E+06-3.66344E-09 7.27624E-09
 -1        63-3.92209E+06-5.88003E+05-3.68525E+03-1.51832E+06 1.70530E-10-1.91689E-08
 -1        64-3.95725E+06-5.53173E+05-4.60513E+03-1.47983E+06-5.83941E-09-3.73175E-08
 -1        65-3.94131E+06-5.71193E+05-8.72613E+03-1.49625E+06-8.16203E-09 1.75769E-08
 -1        66-3.94562E+06-5.61881E+05-1.58819E+04-1.49214E+06-3.64798E-09-3.89718E-08
 -1        67-3.97173E+06-5.66059E+05-3.99286E+04-1.47030E+06 9.61063E-09-1.52477E-08
 -1        68-3.92705E+06-5.58590E+05-6.69900E+04-1.50574E+06-6.05451E-09-1.79898E-08
 -1        69-4.05479E+06-6.58038E+05-1.92432E+05-1.43166E+06 5.21959E-09-2.48838E-09
 -1        70-3.86366E+06-4.72131E+05-2.84280E+05-1.53028E+06-2.08092E-09-4.26371E-09
 -1        86-1.45038E+03 2.30556E+05 9.98082E+03-5.42027E+02 1.81876E-09 3.68004E-10
 -1        87 9.55137E+03 2.37980E+05 2.11483E+04 2.23763E+03 3.11024E-09 4.15382E-08
 -1        88-8.13034E+03 2.27203E+05 3.20342E+04-1.69594E+03 4.53292E-09-7.41522E-09
 -1        89 6.05121E+04 2.62051E+05 8.68787E+04 4.89530E+03 7.10952E-09 3.50236E-08
 -1        90-5.22630E+04 2.06535E+05 1.22267E+05-3.19919E+03 7.86531E-09-1.82320E-09
 -1       121-1.61549E+02-7.33055E+05 1.40591E+02 1.44625E+02 4.16591E-10-1.08412E-08
 -1       122-4.75159E+01-7.32571E+05 3.95955E+02-5.79145E+02-1.43347E-09-6.71753E-09
 -1       123-2.00675E+02-7.33097E+05 6.08422E+02 4.33284E+02 1.18735E-09 4.40377E-09
 -1       124 6.41607E+02-7.32159E+05 1.64004E+03-1.29240E+03-2.90970E-09-2.13731E-09
 -1       125-6.43379E+02-7.33488E+05 2.51380E+03 8.57292E+02 1.84991E-09-2.77578E-09
 -1       191-1.25978E+01 3.04863E+05 9.27025E+00-1.57469E-01 2.11184E-10 1.97269E-09
 -1       192-1.24890E+01 3.04839E+05 1.69697E+01 1.26186E+00 2.59066E-10 1.00363E-09
 -1       193-1.45620E+01 3.04863E+05 3.12655E+01-1.11670E+00 3.36533E-10-1.59707E-09
 -1       194-1.48677E+01 3.04841E+05 6.42216E+01 2.96869E+00 1.39717E-10 6.82849E-09
 -1       195-1.83359E+01 3.04861E+05 1.25325E+02-1.88180E+00 5.07320E-10 6.42285E-09
 -1       251 5.81873E+05-7.13185E+04 1.66062E+05 1.02952E+04-3.42425E-10-5.15865E-09
 -1       252 6.60411E+05 8.24147E+04 1.18285E+05-2.68861E+04 2.14129E-09 9.79344E-09
 -1       253 6.11559E+05-1.10118E+04 4.30017E+04 5.03247E+03-9.17339E-10 1.13141E-09
 -1       254 6.25288E+05 1.27168E+04 2.72490E+04-1.88888E+04 3.39151E-09-2.64263E-08
 -1       255 6.16744E+05-1.69212E+03 1.11097E+04 2.29824E+03-1.23453E-09 8.53743E-09
 -1       256 6.19089E+05 2.02043E+03 6.73068E+03-1.49908E+04 2.21301E-09 4.55285E-08
 -1       257 6.17679E+05-2.89096E+02 3.42437E+03 1.13445E+03-1.23381E-09 5.44969E-09
 -1       258 6.18142E+05 6.12876E+02 2.95184E+03-1.39219E+04 4.31005E-09-3.50531E-09
 -1       259 6.17672E+05-2.75100E+02 3.29561E+03 1.22939E+03-3.20273E-09-5.67888E-09
 -1       260 6.19107E+05 1.89572E+03 6.38155E+03-1.53960E+04 2.72128E-09-3.66389E-08
 -1       261 6.16740E+05-1.58714E+03 1.04420E+04 2.60845E+03 9.76797E-10-3.11102E-08
 -1       262 6.25160E+05 1.19235E+04 2.56635E+04-1.98009E+04 2.24179E-09 5.10408E-09
 -1       263 6.11716E+05-1.03426E+04 4.03523E+04 5.63444E+03 2.03386E-10 3.27946E-08
 -1       264 6.58811E+05 7.74176E+04 1.11299E+05-2.85483E+04-3.16527E-09 7.85622E-08
 -1       265 5.83380E+05-6.70529E+04 1.55838E+05 1.13560E+04-2.06569E-09 3.96467E-08
 -1       266-4.77395E+04-2.23160E+04 1.12044E+05-1.55880E+02-6.54836E-11-2.31390E-09
 -1       267 5.53462E+04 2.60207E+04 7.91741E+04 1.79805E+02 4.72937E-11 5.45532E-09
 -1       268-7.42169E+03-3.68467E+03 2.94297E+04-2.29130E+01 1.32786E-10 1.08700E-09
 -1       269 8.76301E+03 4.41042E+03 1.91279E+04 2.66873E+01 2.50111E-12-1.18311E-08
 -1       270-1.31534E+03-7.24639E+02 9.23332E+03-3.62177E+00 1.77351E-11 5.27985E-08
 -1       271-4.71739E+06-5.94840E+05-3.65081E+05-1.84605E+06 2.00089E-10 3.08210E-08
 -1       272-4.81737E+06-8.89438E+05-2.34365E+05-1.87487E+06 7.52925E-09 1.34678E-08
 -1       273-4.79104E+06-6.80430E+05-8.63005E+04-1.82412E+06-3.01679E-09 5.37693E-09
 -1       274-4.73029E+06-7.85902E+05-4.80877E+04-1.91023E+06-4.44743E-09 3.99450E-09
 -1       275-4.80471E+06-6.85316E+05-2.00821E+04-1.81663E+06 4.13820E-10 4.08345E-08
 -1       276-4.71447E+06-7.80317E+05-1.06406E+04-1.92244E+06-8.40737E-09-8.31665E-09
 -1       277-4.80839E+06-6.83688E+05-5.28153E+03-1.81360E+06 2.23690E-09 9.41930E-09
 -1       278-4.71178E+06-7.80879E+05-4.00454E+03-1.92523E+06 7.64919E-09 4.54704E-08
 -1       279-4.80786E+06-6.84339E+05-4.58336E+03-1.81422E+06-2.28465E-09 5.37966E-10
 -1       280-4.71588E+06-7.77884E+05-8.55027E+03-1.91968E+06 3.00588E-10-1.85055E-08
 -1       281-4.80330E+06-6.87400E+05-1.60498E+04-1.81841E+06 2.26282E-09 2.47055E-08
 -1       282-4.73145E+06-7.78685E+05-3.79270E+04-1.90541E+06-1.05138E-08 5.30090E-08
 -1       283-4.79039E+06-6.85814E+05-6.83404E+04-1.82666E+06 1.47156E-09-5.95173E-09
 -1       284-4.80425E+06-8.55884E+05-1.84885E+05-1.87208E+06 1.24967E-08-2.54659E-08
 -1       285-4.72984E+06-6.20823E+05-2.88514E+05-1.84666E+06 1.09994E-08 2.50438E-08
 -1       301 1.31031E+04 1.36981E+05 1.37224E+05 3.25593E+05-1.01136E-09-2.47128E-08
 -1       302 1.30290E+04 1.73187E+05 9.68453E+04 4.76435E+05 2.30466E-09-4.00732E-08
 -1       303-3.27997E+03 1.48806E+05 8.53247E+04 3.24655E+05-1.75623E-09 2.12212E-08
 -1       304 2.58680E+04 1.85774E+05 1.39392E+05 4.76246E+05 6.78028E-10-1.85373E-08
 -1       305 2.64973E+04 1.25650E+05 2.31350E+05 3.26001E+05-6.25732E-10 3.22871E-08
 -1       306-8.82601E+06-3.52353E+06-1.99576E+06-4.38466E+06 3.82424E-08 3.70928E-08
 -1       307-4.94460E+06 4.48115E+06 7.96345E+05 2.11288E+06 3.48897E-07-7.17773E-08
 -1       308-4.07683E+06-3.58999E+06-2.79781E+05-4.06758E+06 8.55798E-08-7.95444E-08
 -1       309-1.09903E+07 5.33688E+06 2.20236E+05 1.44888E+04-1.13558E-07 7.35527E-08
 -1       310-4.03805E+06-3.57888E+06-1.57500E+05-4.06194E+06-2.38506E-08 1.20781E-08
 -1       311-5.07444E+06 4.45563E+06 1.05361E+06 2.10546E+06-2.10639E-07 7.95117E-08
 -1       312-8.75820E+06-3.49345E+06-1.35269E+06-4.41036E+06-6.22240E-08-5.40749E-08
 -1       313 3.71172E+06 8.08812E+05 1.86454E+06 1.36326E+06-8.19418E-08-2.44327E-08
 -1       314-1.07976E+07-1.49573E+06-1.36428E+06-2.20171E+06-2.94094E-07-2.54367E-08
 -1       315 1.38276E+06-1.90087E+06 1.06818E+06-4.88029E+06-1.49885E-09 6.23877E-08
 -1       316-7.90898E+06 2.42503E+05-1.72651E+05 1.74662E+05 2.84243E-07 2.43403E-07
 -1       317-3.65647E+06-2.00101E+06 2.14829E+05-8.12121E+06-4.36286E-07 1.48473E-07
 -1       318-7.86626E+06 2.53052E+05-2.75634E+05 1.93810E+05 2.55968E-07 4.17349E-08
 -1       319 1.28121E+06-1.87554E+06 7.54246E+05-4.97890E+06 8.70568E-08 2.25991E-08
 -1       320-1.07855E+07-1.49631E+06-2.02238E+06-2.14895E+06-4.53147E-08 1.45519E-10
 -1       336 4.60850E+02-7.93602E+05-3.59855E+03 1.09493E+03-7.65749E-09-9.19681E-09
 -1       337-1.26164E+03-7.94314E+05-3.13532E+03-2.77660E+03-1.41306E-08-9.05493E-09
 -1       338 7.24030E+01-7.93901E+05-3.18262E+03 1.67474E+03-1.00299E-08 3.27782E-09
 -1       339-2.89091E+03-7.95393E+05-6.15079E+03-3.91332E+03-1.77652E-08 5.13228E-09
 -1       340 1.78325E+03-7.92611E+05-9.31879E+03 2.22760E+03-1.17644E-08 1.33405E-08
 -1       406 1.10844E+01 3.04849E+05 5.12901E+02-5.09190E-01 7.13783E-10 5.23869E-10
 -1       407 1.70498E+02 3.04945E+05 1.09075E+03-1.05146E+01-5.07043E-11-1.47265E-08
 -1       408 5.52795E+02 3.04770E+05 2.17803E+03 1.12852E+01 7.79437E-10-1.40335E-09
 -1       409 2.34760E+03 3.05641E+05 4.90395E+03-1.12803E+02 1.16870E-10-4.72482E-10
 -1       410 6.76019E+03 3.04150E+05 1.00109E+04 1.06802E+02 9.62245E-10-6.82076E-09
 -1       521-1.00303E+07-4.04452E+06-2.20800E+06-4.91834E+06 5.01168E-08-1.23622E-07
 -1       522-6.72233E+06 5.02794E+06 7.72374E+05 2.00419E+06 2.62051E-07-7.42875E-09
 -1       523-5.04708E+06-4.19327E+06-2.98294E+05-4.80074E+06 5.49771E-08 1.03380E-07
 -1       524-1.33427E+07 6.16590E+06 2.38547E+05-4.06393E+05-2.25438E-07 3.06791E-07
 -1       525-5.02075E+06-4.18638E+06-1.65474E+05-4.79871E+06-1.54352E-07 2.11367E-07
 -1       526-6.81276E+06 5.01487E+06 1.07654E+06 2.00203E+06 7.20465E-08 3.59432E-08
 -1       527-9.98471E+06-4.02590E+06-1.49100E+06-4.94145E+06-5.82659E-08-1.30385E-08
 -1       528 3.01954E+06 6.21235E+05 1.87979E+06 1.10813E+06-1.55880E-07-3.64962E-08
 -1       529-1.22281E+07-1.80032E+06-1.49591E+06-2.48000E+06-7.27596E-09-1.57088E-08
 -1       530 5.33496E+05-2.28798E+06 1.08328E+06-6.05176E+06 1.96727E-07-1.26267E-07
 -1       531-9.43412E+06 2.06380E+05-1.70220E+05 6.41740E+04 2.40077E-07 5.59303E-08
 -1       532-4.98050E+06-2.19477E+06 2.41019E+05-9.66313E+06-2.76465E-07 2.04789E-07
 -1       533-9.42549E+06 2.04302E+05-2.88271E+05 6.86849E+04-1.57743E-07 3.36993E-07
 -1       534 5.16271E+05-2.24118E+06 7.78348E+05-6.08404E+06 1.71829E-07-2.35552E-07
 -1       535-1.22330E+07-1.83540E+06-2.18489E+06-2.46132E+06-6.34464E-09-1.50700E-07
 -1       536 8.96355E+04-3.07411E+04 7.05368E+04 1.88614E+03-3.26338E-09 1.10522E-08
 -1       537 1.23860E+05 3.55387E+04 5.05227E+04-4.19148E+03-8.35338E-09-7.07132E-09
 -1       538 1.02334E+05-4.79857E+03 1.82131E+04 1.07265E+03 6.69559E-10 3.50337E-09
 -1       539 1.08815E+05 5.53211E+03 1.16576E+04-2.93100E+03 3.76284E-09 2.90015E-09
 -1       540 1.04647E+05-7.40365E+02 4.62423E+03 6.25571E+02 6.69033E-10 3.89696E-09
 -1       541 1.06010E+05 8.49729E+02 2.75944E+03-2.22158E+03 6.88324E-10-3.48587E-09
 -1       542 1.05127E+05-1.10880E+02 1.16210E+03 3.63186E+02-5.49946E-10 9.90724E-10
 -1       543 1.05408E+05 1.26729E+02 6.56575E+02-1.82914E+03 6.14421E-10-2.39572E-09
 -1       544 1.05243E+05-1.41044E+01 2.84654E+02 2.33121E+02 1.80695E-10-2.66796E-09
 -1       545 1.05270E+05 1.19381E+01 1.36918E+02-1.67871E+03-6.61663E-10-1.54142E-09
 -1       546 1.05264E+05 5.04680E+00 3.78947E+01 2.12757E+02 2.49815E-10-4.32486E-09
 -1       547 1.05270E+05-3.94661E+01-4.35627E+01-1.74416E+03-1.66395E-09-3.44414E-09
 -1       548 1.05243E+05 3.67704E+01-1.30255E+02 2.98573E+02-2.05942E-09 1.93223E-09
 -1       549 1.05317E+05-2.56266E+02-3.36483E+02-2.03640E+03-1.24484E-09 7.07277E-09
 -1       550 1.05220E+05 2.19132E+02-5.73637E+02 5.05003E+02-2.58524E-10-1.95854E-09
 -1       551 1.41335E+04-5.54729E+05 1.81403E+04-1.08633E+06-3.54776E-08-4.14730E-09
 -1       552 3.53283E+04-5.67704E+05 2.91691E+04-1.54728E+06-2.74013E-08 2.85218E-09
 -1       553 2.53486E+04-5.72268E+05 4.67400E+04-1.08289E+06-4.31610E-08 1.31331E-09
 -1       554 6.10248E+04-5.56693E+05 1.00345E+05-1.54804E+06-2.72339E-08 1.29512E-09
 -1       555 5.02699E+04-5.85764E+05 1.78409E+05-1.08488E+06-4.14511E-08-5.90808E-09
 -1       556 6.17976E+04-1.45970E+05 5.51129E+04-1.93713E+05-1.18162E-08-1.11322E-09
 -1       557 1.22110E+05-1.95099E+05 2.89632E+04-2.41238E+05-4.56930E-09 1.26956E-08
 -1       558 6.17280E+04-1.53479E+05 1.16970E+04-1.87580E+05-7.68341E-09 2.17551E-09
 -1       559 1.13010E+05-2.02435E+05 5.94500E+03-2.44995E+05 6.16274E-09 6.01904E-09
 -1       560 5.97797E+04-1.52192E+05 2.45254E+03-1.88822E+05 5.26779E-09 1.27966E-09
 -1       561 1.09972E+05-2.01650E+05 1.30912E+03-2.46901E+05 5.31509E-09-3.43834E-09
 -1       562 5.82191E+04-1.51145E+05 4.98812E+02-1.89947E+05 3.73257E-09-1.80353E-09
 -1       563 1.08151E+05-2.00870E+05 3.16069E+02-2.48066E+05 3.41970E-09 2.70313E-09
 -1       564 5.72657E+04-1.50528E+05 1.13865E+02-1.90623E+05 1.94632E-09-4.15912E-09
 -1       565 1.07240E+05-2.00480E+05 6.78937E+01-2.48640E+05 1.65255E-09 1.75578E-08
 -1       566 5.69557E+04-1.50321E+05-3.58520E+01-1.90847E+05-1.01863E-09 1.04592E-09
 -1       567 1.07185E+05-2.00452E+05-1.63074E+02-2.48599E+05 8.38372E-09 6.13181E-09
 -1       568 5.73304E+04-1.50565E+05-4.61731E+02-1.90656E+05 1.99725E-09 1.02409E-08
 -1       569 1.07205E+05-2.00442E+05-1.06895E+03-2.47298E+05-4.12547E-09-1.36097E-08
 -1       570 5.90106E+04-1.52100E+05-2.27491E+03-1.90476E+05 9.78616E-10-3.61979E-10
 -1       571 2.19950E+05 7.90604E+03 1.17325E+04-5.52532E+04 6.12090E-10 1.14555E-08
 -1       572 2.21693E+05 2.74363E+03 5.74848E+03-6.05625E+04 7.47605E-10-1.72963E-09
 -1       573 2.20643E+05 6.48567E+02 2.55368E+03-5.51060E+04 9.62245E-10-2.82853E-10
 -1       574 2.20847E+05 2.07405E+02 1.27963E+03-6.07256E+04 9.09495E-12 7.75754E-09
 -1       575 2.20716E+05 2.48340E+01 6.03042E+02-5.50868E+04 1.33582E-09 3.57295E-09
 -1       576 2.20729E+05 4.31585E+00 3.06971E+02-6.07473E+04-8.77662E-11 9.24047E-10
 -1       577 2.20726E+05-7.87660E+00 1.51023E+02-5.50842E+04 7.16068E-09 7.71570E-09
 -1       578 2.20719E+05-6.22342E+00 8.20138E+01-6.07500E+04 1.36824E-08 1.53932E-09
 -1       579 2.20741E+05-1.13257E+01 4.93211E+01-5.50841E+04-2.19006E-09-1.11122E-08
 -1       580 2.20740E+05-1.52237E+01 4.48197E+01-6.07469E+04-1.60753E-08 5.26506E-09
 -1       581 2.20769E+05-2.29594E+01 5.89675E+01-5.50873E+04-5.64432E-09 4.67071E-09
 -1       582 2.20788E+05-1.83806E+01 1.11539E+02-6.07146E+04 2.51566E-09 7.84303E-09
 -1       583 2.20806E+05 4.92499E+00 2.12322E+02-5.51164E+04 2.43745E-10 2.98542E-09
 -1       584 2.20912E+05 1.65900E+02 4.76437E+02-6.04710E+04-2.18915E-09-5.38125E-09
 -1       585 2.20798E+05 5.82933E+02 9.65784E+02-5.53314E+04-9.77707E-10-4.97676E-09
 -1       586-2.69264E+03 7.19279E+04-3.66644E+03-1.85607E+05 7.48059E-10 1.37197E-09
 -1       587-5.35143E+02 7.14189E+04-4.87322E+02-2.04233E+05 1.17871E-09 1.58775E-09
 -1       588 7.82094E+02 7.15364E+04 2.41189E+03-1.85489E+05 6.69388E-10 7.40101E-09
 -1       589 3.70983E+03 7.28897E+04 7.13381E+03-2.04073E+05 1.09685E-09-4.95356E-09
 -1       590 1.05281E+04 7.07042E+04 1.53080E+04-1.85768E+05 5.65706E-10 7.93352E-09
 -1       591-4.85035E+04-1.39992E+04-1.61176E+04-2.53003E+04 8.86246E-10-4.72028E-09
 -1       592-4.99623E+04-1.80075E+04-8.72993E+03-2.95606E+04-2.25612E-09 9.64064E-11
 -1       593-5.01347E+04-1.28104E+04-3.63441E+03-2.64640E+04-5.04770E-09-3.30238E-09
 -1       594-4.77163E+04-1.56655E+04-1.81258E+03-2.96743E+04-1.21809E-08-5.26100E-09
 -1       595-5.02602E+04-1.28046E+04-8.33009E+02-2.65177E+04-5.95310E-09 4.24896E-09
 -1       596-4.75647E+04-1.55581E+04-4.24587E+02-2.96590E+04-2.61252E-10-4.45742E-09
 -1       597-5.02762E+04-1.28147E+04-2.33724E+02-2.65199E+04-1.03869E-09 8.54243E-10
 -1       598-4.75502E+04-1.55540E+04-1.92512E+02-2.96546E+04-5.47061E-10 6.29097E-09
 -1       599-5.02748E+04-1.28149E+04-2.51743E+02-2.65194E+04 3.00474E-10-5.67525E-10
 -1       600-4.75660E+04-1.55597E+04-4.72284E+02-2.96581E+04 1.12777E-10-3.57346E-09
 -1       601-5.02543E+04-1.28042E+04-9.34242E+02-2.65159E+04-1.07957E-09 2.64504E-09
 -1       602-4.77358E+04-1.56804E+04-2.03722E+03-2.96729E+04 1.47088E-09 5.55588E-10
 -1       603-5.01114E+04-1.28130E+04-4.08635E+03-2.64557E+04 9.18590E-10 2.15414E-09
 -1       604-5.02683E+04-1.83049E+04-9.81561E+03-2.95330E+04 4.81123E-10-1.80694E-09
 -1       605-4.82667E+04-1.41571E+04-1.81219E+04-2.51554E+04-1.67609E-09 3.96540E-10
 -1       606 3.19456E+04-1.06095E+04-1.91026E+04 3.11748E+04-1.40099E-08-9.45056E-09
 -1       607 2.86728E+04-3.42016E+03-9.51154E+03 3.49944E+04-2.33049E-08 3.02180E-10
 -1       608 3.05208E+04-5.75378E+02-4.26048E+03 3.09257E+04-9.15315E-09 3.81738E-09
 -1       609 3.01469E+04-1.42019E+02-2.15147E+03 3.52682E+04-4.14457E-09 3.42698E-09
 -1       610 3.03396E+04 3.55826E+01-1.02848E+03 3.08978E+04-7.78164E-09-3.36718E-09
 -1       611 3.02644E+04 5.57000E+01-5.18536E+02 3.52980E+04-1.19035E-08-8.66658E-09
 -1       612 3.02854E+04 5.77578E+01-2.48711E+02 3.08951E+04-4.24734E-09 5.09317E-11
 -1       613 3.02533E+04 6.98520E+01-1.13391E+02 3.53014E+04-8.20046E-09-3.69846E-09
 -1       614 3.02536E+04 6.27771E+01-3.23666E+01 3.08942E+04-4.60022E-09 1.01318E-09
 -1       615 3.02335E+04 7.96264E+01 3.43032E+01 3.53019E+04 4.36557E-09 1.24037E-08
 -1       616 3.02296E+04 7.22298E+01 1.14905E+02 3.08945E+04-1.11886E-08-3.65549E-09
 -1       617 3.02356E+04 1.11308E+02 2.67309E+02 3.53013E+04-1.50030E-08-1.17620E-09
 -1       618 3.01977E+04 1.54813E+02 5.40436E+02 3.08946E+04-7.52561E-09 5.00131E-09
 -1       619 3.04193E+04 5.33707E+02 1.21488E+03 3.53003E+04 3.09046E-09 1.62822E-08
 -1       620 3.00137E+04 1.44048E+03 2.44207E+03 3.08929E+04 7.52379E-10 8.03539E-09
 -1       621 3.96833E+02 2.41366E+05 3.43458E+03 7.07624E+03-3.68580E-10-1.99361E-09
 -1       622 4.50982E+02 2.42219E+05 2.88653E+03 1.03537E+04-2.15550E-10 5.50426E-09
 -1       623 1.66378E+01 2.41615E+05 3.28201E+03 7.04347E+03-2.01112E-10 2.43108E-09
 -1       624 1.47187E+03 2.43155E+05 6.19953E+03 1.03850E+04-3.66072E-10-7.06552E-09
 -1       625 1.47849E+03 2.40424E+05 1.07622E+04 7.04557E+03-4.19277E-10 1.60651E-09
 -1       626 1.97411E+05 5.50571E+04 3.87587E+03 1.07248E+05-4.15184E-09 1.85537E-10
 -1       627 1.94659E+05 5.71083E+04 1.86807E+03 1.11596E+05-3.68527E-09 3.73882E-09
 -1       628 1.97554E+05 5.32205E+04 7.88452E+02 1.07823E+05 4.02906E-09 3.99541E-09
 -1       629 1.94085E+05 5.66760E+04 3.86843E+02 1.11851E+05 4.87853E-09 5.77131E-09
 -1       630 1.97556E+05 5.31370E+04 1.78601E+02 1.07834E+05 2.01271E-09 1.07223E-08
 -1       631 1.94010E+05 5.66694E+04 9.64128E+01 1.11849E+05 1.93131E-09 8.97361E-09
 -1       632 1.97541E+05 5.31468E+04 6.38132E+01 1.07822E+05-5.10681E-09-4.91156E-09
 -1       633 1.93991E+05 5.66771E+04 7.19440E+01 1.11838E+05-3.79805E-09 4.76257E-09
 -1       634 1.97527E+05 5.31495E+04 1.16758E+02 1.07815E+05 1.08766E-08-2.69256E-09
 -1       635 1.93993E+05 5.66800E+04 2.37108E+02 1.11836E+05 1.46555E-08-2.74613E-08
 -1       636 1.97512E+05 5.31494E+04 4.78892E+02 1.07810E+05 7.31109E-09 5.85555E-09
 -1       637 1.94090E+05 5.67565E+04 1.05252E+03 1.11830E+05 1.79352E-09 1.64482E-09
 -1       638 1.97471E+05 5.33839E+04 2.16298E+03 1.07702E+05 3.16663E-09 4.32419E-09
 -1       639 1.95222E+05 5.83384E+04 5.11684E+03 1.11495E+05-4.35557E-09 4.85852E-09
 -1       640 1.97323E+05 5.80918E+04 1.06184E+04 1.05702E+05-2.84126E-09-1.31924E-08
 -1       656 5.37152E+04-1.35844E+06-1.29650E+05 2.01954E+01-3.71074E-10-2.75659E-09
 -1       657-7.09762E+04-1.41693E+06-1.07208E+05 8.91957E+03 9.92259E-10 7.10617E-09
 -1       658 1.70269E+04-1.37512E+06-6.57670E+04-1.55171E+03 1.71735E-09-3.13142E-09
 -1       659-7.60580E+04-1.41934E+06-1.13883E+05 9.96355E+03 1.50612E-09 1.07381E-08
 -1       660 5.87858E+04-1.35603E+06-1.41124E+05-1.02377E+03-6.69388E-10-1.01678E-08
 -1       661 1.95383E+05 2.13487E+04 1.86911E+04 7.64250E+04 2.60388E-09-1.01281E-08
 -1       662 2.05132E+05 3.59948E+04 1.25947E+04 7.31614E+04-4.85102E-10-3.80760E-09
 -1       663 1.99051E+05 2.73469E+04 4.40573E+03 7.53630E+04-2.61252E-10-2.99792E-09
 -1       664 2.00885E+05 2.89759E+04 2.63414E+03 7.44551E+04 2.83015E-09 2.36307E-09
 -1       665 1.99602E+05 2.81703E+04 1.03900E+03 7.52059E+04-2.44427E-09-1.97599E-09
 -1       666 2.00236E+05 2.80313E+04 6.05907E+02 7.46586E+04-8.41149E-09 1.01085E-09
 -1       667 1.99697E+05 2.82667E+04 3.19242E+02 7.51689E+04-3.16265E-09-2.65841E-09
 -1       668 2.00133E+05 2.79582E+04 3.19621E+02 7.47131E+04 2.46473E-09-4.71883E-09
 -1       669 1.99705E+05 2.82411E+04 4.27885E+02 7.51521E+04-7.72616E-10 9.11444E-09
 -1       670 2.00235E+05 2.81891E+04 9.27408E+02 7.47177E+04 8.55454E-09-2.56625E-09
 -1       671 1.99594E+05 2.80403E+04 1.64510E+03 7.51625E+04-3.40727E-09 7.00641E-09
 -1       672 2.01190E+05 2.97929E+04 4.20781E+03 7.44903E+04-1.42018E-09 7.22389E-09
 -1       673 1.98755E+05 2.66776E+04 7.05111E+03 7.53641E+04-1.36697E-09 4.72028E-10
 -1       674 2.07900E+05 4.11217E+04 2.01643E+04 7.25200E+04-2.29841E-09-3.91287E-09
 -1       675 1.92928E+05 1.70282E+04 2.99306E+04 7.70133E+04 2.37515E-09 6.65750E-10
 -1       676 2.19896E+01-2.61552E+05-1.01991E+03 6.46096E+01-1.97142E-09 8.90716E-09
 -1       677-2.70575E+02-2.61799E+05-1.86659E+03-1.29135E+02-8.58878E-09 7.03228E-09
 -1       678 1.80845E+02-2.61376E+05-3.29965E+03 6.44807E+01-1.77056E-09 1.76742E-09
 -1       679-3.30035E+03-2.63791E+05-7.83846E+03-1.28656E+02-3.42948E-09 7.38158E-09
 -1       680 1.96988E+03-2.59561E+05-1.26329E+04 6.33912E+01 9.64064E-10 1.30757E-08
 -1       771-2.81291E+06-4.80491E+05-8.72412E+04-1.14849E+06-9.89530E-09-7.15954E-09
 -1       772-2.80695E+06-5.12319E+05-4.68955E+04-1.18331E+06-7.41784E-09 3.19051E-09
 -1       773-2.82394E+06-4.72057E+05-2.01209E+04-1.15378E+06-6.24277E-09 1.54250E-09
 -1       774-2.79436E+06-5.01564E+05-9.82920E+03-1.18763E+06 8.17090E-09-1.33332E-09
 -1       775-2.82635E+06-4.70559E+05-4.91384E+03-1.15396E+06 1.15688E-09 4.16730E-09
 -1       776-2.79376E+06-5.01713E+05-2.28029E+03-1.19011E+06-1.46974E-09 3.68163E-09
 -1       777-2.82798E+06-4.69375E+05-1.38281E+03-1.15397E+06 5.38421E-10 1.55342E-09
 -1       778-2.79396E+06-5.02191E+05-6.20499E+02-1.19223E+06-1.22600E-09 2.44472E-09
 -1       779-2.82929E+06-4.68351E+05-5.84322E+02-1.15400E+06-9.09495E-10-1.85537E-09
 -1       780-2.79425E+06-5.02577E+05-4.43510E+02-1.19395E+06-3.55431E-09-2.48428E-09
 -1       781-2.83028E+06-4.67527E+05-7.75672E+02-1.15402E+06-9.76434E-09-5.27052E-09
 -1       782-2.79461E+06-5.02922E+05-1.39202E+03-1.19523E+06-7.24503E-09 1.22373E-09
 -1       783-2.83087E+06-4.66981E+05-2.78261E+03-1.15401E+06-1.13869E-09-8.49354E-10
 -1       784-2.79645E+06-5.04864E+05-6.58692E+03-1.19594E+06-6.77301E-09 7.05768E-10
 -1       785-2.83002E+06-4.67575E+05-1.21795E+04-1.15314E+06-1.16615E-08-2.26282E-09
 -1       786 2.11483E+05-1.10517E+04 2.55694E+04 1.14191E+01-3.12677E-08 1.27638E-08
 -1       787 2.22562E+05 1.27945E+04 1.80896E+04 7.29301E+00-6.41898E-08 9.15202E-09
 -1       788 2.15758E+05-1.73249E+03 6.61824E+03 1.35620E+01 1.37272E-08-1.57252E-09
 -1       789 2.17583E+05 2.00462E+03 4.15848E+03 1.82047E+00 9.28113E-08 7.29483E-09
 -1       790 2.16463E+05-2.70662E+02 1.69258E+03 1.68923E+01 3.13565E-07-5.54769E-09
 -1       791 2.16760E+05 3.14603E+02 9.94643E+02-7.07844E+00 5.33158E-07 1.55831E-09
 -1       792 2.16581E+05-4.37509E+01 4.55687E+02 2.24612E+01 2.66415E-07-5.53359E-09
 -1       793 2.16627E+05 6.22746E+01 3.02111E+02-2.24466E+01 8.63279E-10-1.81404E-09
 -1       794 2.16596E+05-1.84990E+01 2.29156E+02 3.22607E+01 2.09714E-10-4.25111E-09
 -1       795 2.16643E+05 9.75173E+01 3.39212E+02-4.98110E+01 2.73116E-10 7.02306E-09
 -1       796 2.16565E+05-7.89669E+01 5.12782E+02 4.98261E+01-4.24349E-11-9.14059E-09
 -1       797 2.16877E+05 5.79436E+02 1.21296E+03-9.90752E+01 1.52337E-10-5.59344E-09
 -1       798 2.16362E+05-5.00068E+02 1.91574E+03 8.15257E+01-2.89093E-11-7.36543E-09
 -1       799 2.18316E+05 3.69260E+03 5.22401E+03-1.88648E+02-1.03318E-09 2.48968E-09
 -1       800 2.15126E+05-3.18963E+03 7.37900E+03 1.39399E+02-7.57474E-11 1.32231E-08
 -1       801-3.27177E+04 4.36663E+05 5.40349E+04 2.13270E+04 1.19362E-08-3.94584E-09
 -1       802 5.64672E+04 5.98714E+05 9.94181E+04-1.00946E+05 3.18712E-08-9.66904E-09
 -1       803-2.18896E+04 5.02838E+05 9.70819E+04 7.11121E+03 2.49784E-08 1.96847E-08
 -1       804 1.73913E+05 6.67154E+05 2.53829E+05-1.04942E+05 3.00170E-08 2.79113E-08
 -1       805-1.50242E+05 3.68662E+05 3.11596E+05 2.53155E+04 1.06811E-08 3.02981E-08
 -1       806-2.39134E+05-5.21070E+04-2.07092E+04-1.00487E+05 3.66344E-09 7.98536E-09
 -1       807-2.40269E+05-4.92264E+04-1.01740E+04-1.06075E+05 4.18095E-09-1.16142E-09
 -1       808-2.39726E+05-4.46212E+04-4.31564E+03-1.03995E+05-4.14002E-09-2.83427E-09
 -1       809-2.38092E+05-4.64066E+04-2.10969E+03-1.06374E+05-2.24736E-09 2.41297E-08
 -1       810-2.39818E+05-4.43571E+04-9.65964E+02-1.04149E+05 1.37879E-09 1.20667E-09
 -1       811-2.37924E+05-4.62956E+04-4.78901E+02-1.06349E+05 1.12398E-08 7.27687E-09
 -1       812-2.39833E+05-4.43772E+04-2.38813E+02-1.04149E+05 1.97178E-09-3.06500E-10
 -1       813-2.37902E+05-4.62989E+04-1.50185E+02-1.06335E+05-3.18778E-10 6.07997E-10
 -1       814-2.39828E+05-4.43856E+04-1.40253E+02-1.04144E+05-5.63614E-09-5.72163E-09
 -1       815-2.37902E+05-4.63019E+04-2.18558E+02-1.06329E+05-2.18915E-09 4.37103E-09
 -1       816-2.39812E+05-4.43854E+04-4.09217E+02-1.04141E+05-1.50158E-09 1.17625E-08
 -1       817-2.37970E+05-4.63417E+04-8.76562E+02-1.06319E+05-5.30054E-09-6.18070E-09
 -1       818-2.39757E+05-4.45103E+04-1.78661E+03-1.04081E+05-5.43332E-09 5.07043E-09
 -1       819-2.38955E+05-4.74129E+04-4.20400E+03-1.06076E+05-4.27463E-09 3.33421E-09
 -1       820-2.39413E+05-4.76909E+04-8.55638E+03-1.02725E+05 6.45741E-10-6.51949E-09
 -1       821-3.10717E+05 1.72697E+04-3.99414E+04 2.13561E+02-4.30166E-10 5.04770E-09
 -1       822-3.28008E+05-1.99937E+04-2.82619E+04-1.33220E+03-2.81309E-09 3.74712E-10
 -1       823-3.17385E+05 2.70862E+03-1.03437E+04 2.95605E+02 4.31841E-11-1.22818E-08
 -1       824-3.20216E+05-3.13509E+03-6.50685E+03-1.22688E+03 2.86480E-10 4.48756E-09
 -1       825-3.18506E+05 4.23768E+02-2.67747E+03 1.08239E+02-2.38310E-09 1.65267E-09
 -1       826-3.18897E+05-4.99127E+02-1.60643E+03-6.74805E+02-5.63827E-09 5.08339E-09
 -1       827-3.18702E+05 7.37538E+01-8.41221E+02-2.56480E+02-4.86600E-09-2.32330E-09
 -1       828-3.18716E+05-1.50569E+02-7.28314E+02 6.30048E+01-7.73704E-09-4.98410E-09
 -1       829-3.18686E+05 7.53922E+01-8.50038E+02-6.29584E+02 5.08152E-10 4.52502E-09
 -1       830-3.18941E+05-5.09725E+02-1.64795E+03 6.44763E+02 2.35579E-09-2.80656E-09
 -1       831-3.18479E+05 4.33460E+02-2.73502E+03-8.38250E+02-4.36932E-09-7.16614E-09
 -1       832-3.20269E+05-3.20658E+03-6.66344E+03 8.02088E+02-2.08240E-09-8.98717E-09
 -1       833-3.17359E+05 2.77064E+03-1.05910E+04-7.86910E+02-2.12062E-09 6.31735E-09
 -1       834-3.28202E+05-2.04646E+04-2.89281E+04 4.64500E+02-1.97110E-09 4.04680E-09
 -1       835-3.10548E+05 1.76776E+04-4.08970E+04-5.00642E+02 5.50289E-09-6.25732E-09
 -1       836-1.03319E+03 2.95694E+05 1.77865E+04-2.69165E+04 2.30830E-09-2.72848E-12
 -1       837 3.94233E+03 3.01187E+05 1.51722E+04-5.40107E+04 3.57204E-09-4.54747E-12
 -1       838-3.66526E+02 2.97222E+05 1.56233E+04-2.68296E+04 3.13366E-09 3.46972E-09
 -1       839 1.00482E+04 3.05732E+05 2.97160E+04-5.40378E+04 3.93629E-09-1.54419E-08
 -1       840-2.99862E+03 2.91098E+05 4.74517E+04-2.68868E+04 2.75395E-09 1.05001E-09
 -1       856-9.91641E+04 8.37341E+03-2.20676E+04-5.21230E+02-3.77781E-09 2.42017E-09
 -1       857-1.08280E+05-9.81864E+03-1.51928E+04 4.96633E+03 1.46997E-10-5.44378E-09
 -1       858-1.02765E+05 1.17286E+03-5.72734E+03-5.48265E+02 2.24759E-10-7.85917E-09
 -1       859-1.04145E+05-1.36094E+03-3.45903E+03 5.00995E+03 9.17879E-10 7.69143E-09
 -1       860-1.03303E+05 1.62780E+02-1.45475E+03-5.65079E+02 4.37811E-09 3.27674E-09
 -1       861-1.03526E+05-1.76760E+02-8.10768E+02 5.03304E+03-4.80320E-09-5.11733E-11
 -1       862-1.03387E+05 2.12932E+01-3.58144E+02-5.71399E+02 5.61841E-09-6.07432E-09
 -1       863-1.03427E+05-9.99196E+00-1.78399E+02 5.03581E+03 1.69650E-08-1.48350E-09
 -1       864-1.03402E+05-2.83170E-01-5.86649E+01-5.67855E+02 8.26759E-09-6.00643E-10
 -1       865-1.03398E+05 2.66527E+01 2.62211E+01 5.01824E+03 9.39936E-09-4.43453E-09
 -1       866-1.03414E+05-1.61570E+01 1.07954E+02-5.53823E+02-1.08457E-10-1.31050E-09
 -1       867-1.03331E+05 1.34647E+02 3.01901E+02 4.98015E+03-1.75305E-09 4.48426E-09
 -1       868-1.03465E+05-1.08479E+02 5.09434E+02-5.29761E+02 2.57506E-09 4.78281E-10
 -1       869-1.02944E+05 8.96087E+02 1.37104E+03 4.91809E+03-2.31293E-09-1.02854E-08
 -1       870-1.03794E+05-7.60068E+02 1.98642E+03-4.91770E+02 1.29182E-09 1.04512E-09
 -1       871-4.58966E+03-9.27565E+03-1.47242E+04 9.62845E+04 2.78487E-09 4.66844E-09
 -1       872-2.02923E+03-1.25662E+04-5.98918E+03 1.24827E+05 5.47470E-09-9.97352E-09
 -1       873-8.85995E+01-1.10478E+04 8.85723E+02 9.60738E+04 3.59523E-09-6.06269E-09
 -1       874 2.22046E+03-8.87667E+03 8.41717E+03 1.24872E+05 6.50834E-09 6.74572E-09
 -1       875 5.34599E+03-1.30352E+04 1.86432E+04 9.62520E+04 1.96633E-09-4.69890E-09
 -1       876 2.42056E+05 4.18540E+04 1.30079E+04 9.83802E+04-7.41602E-09-1.01018E-08
 -1       877 2.42780E+05 4.47303E+04 6.94662E+03 1.02247E+05-6.89397E-09-7.07314E-09
 -1       878 2.43271E+05 4.04153E+04 2.91020E+03 9.94489E+04-1.69439E-09-6.97605E-09
 -1       879 2.41010E+05 4.29682E+04 1.44976E+03 1.02338E+05-1.18143E-08 1.25133E-08
 -1       880 2.43358E+05 4.04000E+04 6.74845E+02 9.94923E+04-1.60594E-09-4.70897E-09
 -1       881 2.40892E+05 4.28932E+04 3.59375E+02 1.02319E+05 7.04154E-09-1.82467E-09
 -1       882 2.43367E+05 4.04111E+04 2.28083E+02 9.94935E+04 1.31627E-09 1.67097E-09
 -1       883 2.40883E+05 4.28895E+04 2.42315E+02 1.02313E+05 2.94312E-09-1.25334E-09
 -1       884 2.43361E+05 4.04086E+04 3.82800E+02 9.94936E+04 3.98035E-09-5.64143E-09
 -1       885 2.40914E+05 4.28949E+04 7.67969E+02 1.02322E+05 1.69459E-08 4.21630E-09
 -1       886 2.43332E+05 4.03861E+04 1.54698E+03 9.94906E+04 7.06552E-09-7.84212E-10
 -1       887 2.41186E+05 4.30732E+04 3.37883E+03 1.02362E+05-4.95751E-09-1.30012E-09
 -1       888 2.43119E+05 4.04234E+04 6.80827E+03 9.93824E+04-3.72674E-09-6.35828E-09
 -1       889 2.45243E+05 4.72845E+04 1.62642E+04 1.02233E+05-8.18520E-09 1.90630E-09
 -1       890 2.40346E+05 4.37172E+04 3.04617E+04 9.67838E+04 2.19097E-09 4.16367E-09
 -1       891-1.64096E+02-1.37837E+05-1.62338E+03 2.64360E+04 8.91532E-10 9.15816E-09
 -1       892-2.83446E+02-1.38217E+05-1.76739E+03 3.99879E+04-8.99263E-10-1.30967E-09
 -1       893-5.87307E+01-1.37885E+05-2.52768E+03 2.64413E+04 6.12295E-09-4.55339E-09
 -1       894-1.40687E+03-1.39179E+05-5.24880E+03 3.98453E+04 9.19727E-10-6.21549E-09
 -1       895-1.10082E+03-1.36786E+05-9.25134E+03 2.65760E+04-1.68649E-09-4.36739E-09
 -1       956-3.03872E+05-4.39570E+03-1.10828E+04 1.99555E+04-4.52201E-09 1.51044E-09
 -1       957-3.06063E+05-1.47567E+03-5.68931E+03 2.40378E+04-2.12503E-09 2.50429E-09
 -1       958-3.04858E+05-1.10404E+02-2.56337E+03 1.98222E+04 3.45608E-09-6.72208E-09
 -1       959-3.05035E+05-9.26035E+00-1.30917E+03 2.41813E+04-3.14685E-09-3.82761E-09
 -1       960-3.04948E+05 4.62825E+01-6.38193E+02 1.98093E+04 6.05269E-10 3.65480E-09
 -1       961-3.04962E+05 4.72056E+01-3.38202E+02 2.41961E+04 2.95290E-09 5.06520E-09
 -1       962-3.04967E+05 4.28601E+01-1.92979E+02 1.98072E+04 1.36015E-09-1.97429E-09
 -1       963-3.04960E+05 4.94864E+01-1.53677E+02 2.41990E+04-5.81508E-09-8.28391E-09
 -1       964-3.04972E+05 4.56675E+01-1.85111E+02 1.98063E+04-2.91050E-09-4.45584E-09
 -1       965-3.04973E+05 5.33293E+01-3.18629E+02 2.41993E+04 5.69594E-09-2.58296E-09
 -1       966-3.04963E+05 5.45763E+01-5.97448E+02 1.98068E+04-3.52884E-10-2.59274E-09
 -1       967-3.05052E+05 6.41370E+00-1.22505E+03 2.41919E+04-5.33419E-10-1.06544E-08
 -1       968-3.04887E+05-8.64624E+01-2.39727E+03 1.98139E+04-1.78784E-09-7.58547E-09
 -1       969-3.06024E+05-1.36042E+03-5.32269E+03 2.41102E+04-1.17166E-09-2.35147E-09
 -1       970-3.03972E+05-4.09221E+03-1.03675E+04 1.98927E+04 2.22599E-09-1.99998E-09
 -1       971-2.89243E+05-1.52931E+03-8.53837E+03 1.41271E+04-5.37966E-09-2.81923E-09
 -1       972-2.91323E+05-1.08968E+03-4.64971E+03 1.97640E+04-4.68162E-09-8.00446E-09
 -1       973-2.90194E+05-2.23401E+00-2.08224E+03 1.40073E+04-2.67300E-09-6.96355E-09
 -1       974-2.90343E+05 2.77724E+00-1.07850E+03 1.98931E+04-2.45564E-11-1.14002E-08
 -1       975-2.90270E+05 3.88107E+01-5.37806E+02 1.39960E+04-1.27329E-09-1.56865E-09
 -1       976-2.90287E+05 4.84650E+01-3.07664E+02 1.99069E+04-5.84760E-09 2.51441E-09
 -1       977-2.90285E+05 3.92763E+01-2.18799E+02 1.39933E+04 3.95153E-09-3.50587E-09
 -1       978-2.90291E+05 5.39868E+01-2.49820E+02 1.99108E+04 1.69266E-08-6.78449E-09
 -1       979-2.90285E+05 4.63277E+01-3.96112E+02 1.39921E+04 7.06331E-09 1.55342E-09
 -1       980-2.90320E+05 5.65735E+01-7.61540E+02 1.99114E+04 8.80813E-09 7.74151E-09
 -1       981-2.90261E+05 6.52160E+01-1.47326E+03 1.39926E+04 3.62047E-09 2.47439E-09
 -1       982-2.90522E+05-5.24611E+01-3.04426E+03 1.99052E+04 6.00267E-10-6.00562E-09
 -1       983-2.90075E+05-2.94043E+01-5.91464E+03 1.39987E+04 1.94018E-09-6.88283E-09
 -1       984-2.93365E+05-3.14195E+03-1.32449E+04 1.98244E+04-2.90697E-09-1.40559E-08
 -1       985-2.87396E+05-4.35781E+03-2.43221E+04 1.40813E+04 6.40966E-09-1.73713E-09
 -3
    1PSTEP                        17           9           1          
  100CL  109 6.03516E-01         409                     0    9           1
 -4  DISP        4    1
 -5  D1          1    2    1    0
 -5  D2          1    2    2    0
 -5  D3          1    2    3    0
 -5  ALL         1    2    0    0    1ALL
 -1         1 9.42330E-04 0.00000E+00 0.00000E+00
 -1         2 9.41913E-04 1.63552E-28 1.65436E-24
 -1         3 1.11024E-04 1.14734E-27 0.00000E+00
 -1         5 8.85867E-05 1.23276E-26 0.00000E+00
 -1         8 9.07564E-04-1.35630E-06 0.00000E+00
 -1         9 9.15594E-04 3.73110E-07 0.00000E+00
 -1        10 1.03960E-04-1.19165E-06-3.30872E-24
 -1        12 8.76990E-05 6.55102E-07 0.00000E+00
 -1        15 8.66272E-04-1.52752E-06 4.13590E-25
 -1        16 8.67867E-04 5.17587E-07 0.00000E+00
 -1        17 8.12798E-05-2.51822E-06 0.00000E+00
 -1        18 8.37848E-05-2.39255E-06 0.00000E+00
 -1        19 8.50361E-05 1.30625E-06 0.00000E+00
 -1        20 8.52062E-05 2.19636E-05 0.00000E+00
 -1        21 8.45868E-05 4.21070E-05 0.00000E+00
 -1        24 2.31744E-05-3.95664E-06 0.00000E+00
 -1        25 8.05149E-05-2.24590E-06 0.00000E+00
 -1        26 8.18035E-05 1.82404E-06 0.00000E+00
 -1        27 7.99917E-05 1.90645E-05 0.00000E+00
 -1        28 7.93636E-05 4.15435E-05 0.00000E+00
 -1        32 0.00000E+00 0.00000E+00 0.00000E+00
 -1        33 7.69129E-05 2.44816E-06 0.00000E+00
 -1        34 7.51672E-05 1.90382E-05 0.00000E+00
 -1        35 7.34969E-05 4.12465E-05 0.00000E+00
 -1        51 9.40066E-04-2.17754E-07 0.00000E+00
 -1        52 9.35871E-04-4.33168E-07 0.00000E+00
 -1        53 9.30127E-04-6.52631E-07 0.00000E+00
 -1        54 9.23230E-04-8.78066E-07 0.00000E+00
 -1        55 9.15576E-04-1.10996E-06 1.28213E-23
 -1        56 9.41199E-04-1.25108E-06 0.00000E+00
 -1        57 9.40526E-04-3.87483E-06-1.32349E-23
 -1        58 9.40246E-04-7.54397E-06 0.00000E+00
 -1        59 9.40217E-04-1.19143E-05 0.00000E+00
 -1        60 9.40295E-04-1.65750E-05 0.00000E+00
 -1        61 9.40324E-04-2.11082E-05 0.00000E+00
 -1        62 9.40154E-04-2.51060E-05 0.00000E+00
 -1        63 9.39641E-04-2.81809E-05 2.64698E-23
 -1        64 9.38669E-04-3.00244E-05 5.29396E-23
 -1        65 9.37137E-04-3.03733E-05-2.64698E-23
 -1        66 9.34993E-04-2.90920E-05-5.29396E-23
 -1        67 9.32205E-04-2.61049E-05 0.00000E+00
 -1        68 9.28797E-04-2.14819E-05 0.00000E+00
 -1        69 9.24822E-04-1.53499E-05 0.00000E+00
 -1        70 9.20366E-04-7.97018E-06 2.64698E-23
 -1        86 9.41224E-04 7.87264E-08 0.00000E+00
 -1        87 9.39157E-04 1.55161E-07-8.27181E-25
 -1        88 9.35651E-04 2.27661E-07 0.00000E+00
 -1        89 9.30641E-04 2.91071E-07 0.00000E+00
 -1        90 9.24000E-04 3.46316E-07 0.00000E+00
 -1       121 1.10827E-04-1.97659E-07 0.00000E+00
 -1       122 1.10237E-04-3.95472E-07 3.30872E-24
 -1       123 1.09253E-04-5.93591E-07 0.00000E+00
 -1       124 1.07878E-04-7.92201E-07 3.30872E-24
 -1       125 1.06112E-04-9.91395E-07-6.61744E-24
 -1       191 8.85620E-05 1.09201E-07-6.61744E-24
 -1       192 8.84881E-05 2.18399E-07 0.00000E+00
 -1       193 8.83648E-05 3.27592E-07 0.00000E+00
 -1       194 8.81922E-05 4.36777E-07 0.00000E+00
 -1       195 8.79703E-05 5.45949E-07 6.61744E-24
 -1       251 9.08016E-04 4.03062E-06-4.13590E-25
 -1       252 9.08520E-04 6.53058E-06 0.00000E+00
 -1       253 9.09025E-04 6.95892E-06 1.32349E-23
 -1       254 9.09537E-04 6.08573E-06 0.00000E+00
 -1       255 9.10048E-04 4.30125E-06-1.32349E-23
 -1       256 9.10559E-04 1.97624E-06 0.00000E+00
 -1       257 9.11070E-04-6.77164E-07 1.32349E-23
 -1       258 9.11581E-04-3.45377E-06 0.00000E+00
 -1       259 9.12092E-04-6.18467E-06 0.00000E+00
 -1       260 9.12603E-04-8.69992E-06 6.61744E-24
 -1       261 9.13115E-04-1.07662E-05 0.00000E+00
 -1       262 9.13627E-04-1.21408E-05 6.61744E-24
 -1       263 9.14140E-04-1.23777E-05-1.32349E-23
 -1       264 9.14645E-04-1.10068E-05 0.00000E+00
 -1       265 9.15146E-04-7.08827E-06 3.30872E-24
 -1       266 9.00682E-04-1.40223E-06 0.00000E+00
 -1       267 8.93800E-04-1.42865E-06 1.65436E-24
 -1       268 8.86918E-04-1.45630E-06-1.65436E-24
 -1       269 8.80036E-04-1.48029E-06 4.13590E-25
 -1       270 8.73154E-04-1.50420E-06 4.13590E-25
 -1       271 9.03355E-04 3.54972E-06 0.00000E+00
 -1       272 8.99916E-04 6.21689E-06 2.64698E-23
 -1       273 8.97228E-04 6.90689E-06-5.29396E-23
 -1       274 8.95164E-04 5.90425E-06-2.64698E-23
 -1       275 8.93604E-04 3.55022E-06 0.00000E+00
 -1       276 8.92407E-04 2.18634E-07 0.00000E+00
 -1       277 8.91423E-04-3.68753E-06-5.29396E-23
 -1       278 8.90497E-04-7.75022E-06 0.00000E+00
 -1       279 8.89472E-04-1.15468E-05 0.00000E+00
 -1       280 8.88193E-04-1.46619E-05-2.64698E-23
 -1       281 8.86513E-04-1.66999E-05-5.29396E-23
 -1       282 8.84294E-04-1.72940E-05 0.00000E+00
 -1       283 8.81410E-04-1.61196E-05-5.29396E-23
 -1       284 8.77761E-04-1.28968E-05 2.64698E-23
 -1       285 8.73249E-04-7.41075E-06-5.29396E-23
 -1       301 9.07251E-04 3.88683E-07 0.00000E+00
 -1       302 8.99607E-04 4.25823E-07 0.00000E+00
 -1       303 8.92255E-04 4.65586E-07-1.65436E-24
 -1       304 8.84786E-04 5.02286E-07 1.24077E-24
 -1       305 8.76792E-04 5.31789E-07 0.00000E+00
 -1       306 8.73967E-04 8.70673E-05 5.29396E-23
 -1       307 7.51349E-04 3.15775E-04 2.64698E-23
 -1       308 5.53980E-04 6.44954E-04 5.29396E-23
 -1       309 3.06251E-04 1.02948E-03 5.29396E-23
 -1       310 5.58009E-05 1.41687E-03 0.00000E+00
 -1       311-1.48985E-04 1.75476E-03-5.29396E-23
 -1       312-2.81020E-04 1.99721E-03-1.05879E-22
 -1       313-3.31055E-04 2.10123E-03 0.00000E+00
 -1       314-3.16838E-04 2.04674E-03-1.05879E-22
 -1       315-2.64519E-04 1.83294E-03 0.00000E+00
 -1       316-1.97921E-04 1.49408E-03-1.05879E-22
 -1       317-1.30264E-04 1.07969E-03 5.29396E-23
 -1       318-6.26283E-05 6.60593E-04 0.00000E+00
 -1       319 4.61315E-06 3.08105E-04 0.00000E+00
 -1       320 6.01054E-05 7.43772E-05-5.29396E-23
 -1       336 1.01371E-04-1.40853E-06-6.61744E-24
 -1       337 9.82990E-05-1.62709E-06-3.30872E-24
 -1       338 9.47471E-05-1.84716E-06 6.61744E-24
 -1       339 9.07220E-05-2.06896E-06 0.00000E+00
 -1       340 8.62303E-05-2.29268E-06 6.61744E-24
 -1       406 8.73785E-05 7.64229E-07 0.00000E+00
 -1       407 8.70085E-05 8.73303E-07-6.61744E-24
 -1       408 8.65892E-05 9.82292E-07 0.00000E+00
 -1       409 8.61206E-05 1.09106E-06 0.00000E+00
 -1       410 8.56027E-05 1.19938E-06 0.00000E+00
 -1       521 8.25104E-04 8.78961E-05 5.29396E-23
 -1       522 7.01326E-04 3.17071E-04 5.29396E-23
 -1       523 5.02799E-04 6.46654E-04 0.00000E+00
 -1       524 2.54670E-04 1.03076E-03-5.29396E-23
 -1       525 4.06327E-06 1.41748E-03 1.05879E-22
 -1       526-2.01205E-04 1.75498E-03 0.00000E+00
 -1       527-3.33577E-04 1.99669E-03 0.00000E+00
 -1       528-3.84046E-04 2.09992E-03-5.29396E-23
 -1       529-3.70123E-04 2.04390E-03-1.05879E-22
 -1       530-3.18306E-04 1.82880E-03 5.29396E-23
 -1       531-2.52277E-04 1.48884E-03 0.00000E+00
 -1       532-1.85193E-04 1.07466E-03-5.29396E-23
 -1       533-1.18122E-04 6.56363E-04 1.05879E-22
 -1       534-5.15230E-05 3.04454E-04-5.29396E-23
 -1       535 3.10435E-06 7.18168E-05 0.00000E+00
 -1       536 8.14132E-05 1.72136E-06-8.27181E-25
 -1       537 8.15672E-05 4.10779E-06 8.27181E-25
 -1       538 8.17226E-05 5.18611E-06 0.00000E+00
 -1       539 8.18814E-05 5.49172E-06 0.00000E+00
 -1       540 8.20402E-05 5.25423E-06 0.00000E+00
 -1       541 8.21996E-05 4.69935E-06 0.00000E+00
 -1       542 8.23588E-05 3.92607E-06-6.61744E-24
 -1       543 8.25180E-05 3.03187E-06 0.00000E+00
 -1       544 8.26772E-05 2.06593E-06 0.00000E+00
 -1       545 8.28364E-05 1.07692E-06 0.00000E+00
 -1       546 8.29956E-05 1.04217E-07 0.00000E+00
 -1       547 8.31546E-05-8.12702E-07 0.00000E+00
 -1       548 8.33138E-05-1.61222E-06 0.00000E+00
 -1       549 8.34721E-05-2.23187E-06-1.65436E-24
 -1       550 8.36308E-05-2.53746E-06 0.00000E+00
 -1       551 7.37627E-05-2.73537E-06-6.61744E-24
 -1       552 6.42470E-05-2.96547E-06-1.65436E-24
 -1       553 5.35766E-05-3.20578E-06 0.00000E+00
 -1       554 4.26061E-05-3.45174E-06 0.00000E+00
 -1       555 3.21897E-05-3.69583E-06 2.64698E-23
 -1       556 7.95735E-05 1.86685E-06 1.32349E-23
 -1       557 7.83012E-05 5.13174E-06 0.00000E+00
 -1       558 7.74128E-05 7.38457E-06 0.00000E+00
 -1       559 7.68632E-05 8.74187E-06 0.00000E+00
 -1       560 7.66072E-05 9.31990E-06 0.00000E+00
 -1       561 7.66000E-05 9.23561E-06 0.00000E+00
 -1       562 7.67973E-05 8.60608E-06 0.00000E+00
 -1       563 7.71549E-05 7.54848E-06 0.00000E+00
 -1       564 7.76288E-05 6.18013E-06-3.30872E-24
 -1       565 7.81749E-05 4.61833E-06 0.00000E+00
 -1       566 7.87495E-05 2.98048E-06-4.13590E-25
 -1       567 7.93087E-05 1.38396E-06 4.13590E-25
 -1       568 7.98085E-05-5.38734E-08 0.00000E+00
 -1       569 8.02053E-05-1.21581E-06 0.00000E+00
 -1       570 8.04550E-05-1.98462E-06 0.00000E+00
 -1       571 8.38608E-05-2.09678E-06 8.27181E-25
 -1       572 8.39384E-05-1.85375E-06-4.13590E-25
 -1       573 8.40165E-05-1.65448E-06 1.65436E-24
 -1       574 8.40949E-05-1.48946E-06-8.27181E-25
 -1       575 8.41733E-05-1.34918E-06 0.00000E+00
 -1       576 8.42518E-05-1.22403E-06-8.27181E-25
 -1       577 8.43303E-05-1.10442E-06 0.00000E+00
 -1       578 8.44088E-05-9.80740E-07-1.65436E-24
 -1       579 8.44873E-05-8.43370E-07 0.00000E+00
 -1       580 8.45658E-05-6.82704E-07 1.65436E-24
 -1       581 8.46442E-05-4.89134E-07 0.00000E+00
 -1       582 8.47227E-05-2.53057E-07 6.61744E-24
 -1       583 8.48012E-05 3.51169E-08 0.00000E+00
 -1       584 8.48796E-05 3.84882E-07 0.00000E+00
 -1       585 8.49579E-05 8.05684E-07 0.00000E+00
 -1       586 8.32260E-05-2.36657E-06 0.00000E+00
 -1       587 8.26311E-05-2.34130E-06 0.00000E+00
 -1       588 8.20311E-05-2.31632E-06 0.00000E+00
 -1       589 8.14575E-05-2.29172E-06 0.00000E+00
 -1       590 8.09419E-05-2.26776E-06 0.00000E+00
 -1       591 8.36384E-05-2.06042E-06-1.03398E-25
 -1       592 8.35065E-05-1.77516E-06 4.13590E-25
 -1       593 8.33886E-05-1.52804E-06-8.27181E-25
 -1       594 8.32817E-05-1.31119E-06 0.00000E+00
 -1       595 8.31831E-05-1.11660E-06-8.27181E-25
 -1       596 8.30899E-05-9.36339E-07-4.13590E-25
 -1       597 8.29990E-05-7.62472E-07 0.00000E+00
 -1       598 8.29075E-05-5.87071E-07-4.13590E-25
 -1       599 8.28124E-05-4.02205E-07-4.13590E-25
 -1       600 8.27109E-05-1.99946E-07 0.00000E+00
 -1       601 8.25999E-05 2.76290E-08-8.27181E-25
 -1       602 8.24764E-05 2.88460E-07-1.03398E-25
 -1       603 8.23376E-05 5.90479E-07-1.03398E-25
 -1       604 8.21807E-05 9.41678E-07 0.00000E+00
 -1       605 8.20027E-05 1.34995E-06 0.00000E+00
 -1       606 8.50510E-05 1.98647E-06-3.30872E-24
 -1       607 8.50631E-05 2.78400E-06 0.00000E+00
 -1       608 8.50744E-05 3.69196E-06 0.00000E+00
 -1       609 8.50853E-05 4.70258E-06 0.00000E+00
 -1       610 8.50959E-05 5.80806E-06 0.00000E+00
 -1       611 8.51064E-05 7.00048E-06 0.00000E+00
 -1       612 8.51168E-05 8.27193E-06 0.00000E+00
 -1       613 8.51270E-05 9.61449E-06 0.00000E+00
 -1       614 8.51372E-05 1.10202E-05 0.00000E+00
 -1       615 8.51473E-05 1.24812E-05 0.00000E+00
 -1       616 8.51574E-05 1.39895E-05 0.00000E+00
 -1       617 8.51673E-05 1.55373E-05 0.00000E+00
 -1       618 8.51773E-05 1.71164E-05 0.00000E+00
 -1       619 8.51871E-05 1.87192E-05 0.00000E+00
 -1       620 8.51968E-05 2.03375E-05 0.00000E+00
 -1       621 8.44619E-05 1.39256E-06 1.65436E-24
 -1       622 8.39078E-05 1.47934E-06 0.00000E+00
 -1       623 8.33695E-05 1.56611E-06 3.30872E-24
 -1       624 8.28423E-05 1.65275E-06-8.27181E-25
 -1       625 8.23219E-05 1.73925E-06 0.00000E+00
 -1       626 8.48719E-05 2.01275E-06 0.00000E+00
 -1       627 8.46716E-05 2.81696E-06 0.00000E+00
 -1       628 8.44381E-05 3.71000E-06 0.00000E+00
 -1       629 8.41748E-05 4.68239E-06 6.61744E-24
 -1       630 8.38853E-05 5.72463E-06-3.30872E-24
 -1       631 8.35732E-05 6.82716E-06 0.00000E+00
 -1       632 8.32419E-05 7.98040E-06 6.61744E-24
 -1       633 8.28952E-05 9.17481E-06 1.65436E-24
 -1       634 8.25366E-05 1.04008E-05-3.30872E-24
 -1       635 8.21697E-05 1.16489E-05 0.00000E+00
 -1       636 8.17981E-05 1.29094E-05 3.30872E-24
 -1       637 8.14253E-05 1.41729E-05-1.65436E-24
 -1       638 8.10550E-05 1.54297E-05 1.65436E-24
 -1       639 8.06906E-05 1.66703E-05 0.00000E+00
 -1       640 8.03354E-05 1.78851E-05 0.00000E+00
 -1       656 8.38271E-05 2.14917E-05 0.00000E+00
 -1       657 8.28766E-05 2.10011E-05 0.00000E+00
 -1       658 8.21936E-05 2.05122E-05-1.32349E-23
 -1       659 8.16118E-05 2.00237E-05-6.61744E-24
 -1       660 8.09407E-05 1.95336E-05-6.61744E-24
 -1       661 8.46969E-05 2.35610E-05 0.00000E+00
 -1       662 8.42139E-05 2.50990E-05 8.27181E-25
 -1       663 8.37524E-05 2.65791E-05 1.65436E-24
 -1       664 8.33124E-05 2.80042E-05 0.00000E+00
 -1       665 8.28922E-05 2.93765E-05 0.00000E+00
 -1       666 8.24911E-05 3.06984E-05-1.65436E-24
 -1       667 8.21082E-05 3.19719E-05 0.00000E+00
 -1       668 8.17428E-05 3.31992E-05-1.65436E-24
 -1       669 8.13940E-05 3.43819E-05 3.30872E-24
 -1       670 8.10614E-05 3.55220E-05 0.00000E+00
 -1       671 8.07442E-05 3.66209E-05 0.00000E+00
 -1       672 8.04417E-05 3.76801E-05 0.00000E+00
 -1       673 8.01536E-05 3.87010E-05-1.65436E-24
 -1       674 7.98785E-05 3.96846E-05-8.27181E-25
 -1       675 7.96171E-05 4.06325E-05 8.27181E-25
 -1       676 8.37135E-05 4.20125E-05-3.30872E-24
 -1       677 8.28407E-05 4.19181E-05 0.00000E+00
 -1       678 8.19688E-05 4.18237E-05 0.00000E+00
 -1       679 8.10984E-05 4.17296E-05 0.00000E+00
 -1       680 8.02298E-05 4.16355E-05 0.00000E+00
 -1       771 1.96007E-05 1.96585E-06 0.00000E+00
 -1       772 1.64121E-05 6.82926E-06-2.64698E-23
 -1       773 1.36027E-05 1.06921E-05-5.29396E-23
 -1       774 1.11481E-05 1.36142E-05 0.00000E+00
 -1       775 9.02533E-06 1.56577E-05 5.29396E-23
 -1       776 7.20929E-06 1.68876E-05 0.00000E+00
 -1       777 5.67439E-06 1.73705E-05-5.29396E-23
 -1       778 4.39414E-06 1.71755E-05-2.64698E-23
 -1       779 3.34167E-06 1.63732E-05 0.00000E+00
 -1       780 2.48939E-06 1.50361E-05 2.64698E-23
 -1       781 1.80950E-06 1.32381E-05 5.29396E-23
 -1       782 1.27367E-06 1.10544E-05 0.00000E+00
 -1       783 8.53408E-07 8.56119E-06 0.00000E+00
 -1       784 5.20016E-07 5.83572E-06 0.00000E+00
 -1       785 2.44483E-07 2.95564E-06 0.00000E+00
 -1       786 8.05911E-05-2.03489E-06-8.27181E-25
 -1       787 8.06714E-05-1.83177E-06-8.27181E-25
 -1       788 8.07515E-05-1.63400E-06-1.65436E-24
 -1       789 8.08324E-05-1.43907E-06 0.00000E+00
 -1       790 8.09134E-05-1.24501E-06 0.00000E+00
 -1       791 8.09945E-05-1.04984E-06 0.00000E+00
 -1       792 8.10756E-05-8.51394E-07 3.30872E-24
 -1       793 8.11568E-05-6.47472E-07-1.65436E-24
 -1       794 8.12379E-05-4.34838E-07 0.00000E+00
 -1       795 8.13191E-05-2.10229E-07 0.00000E+00
 -1       796 8.14002E-05 3.18988E-08-3.30872E-24
 -1       797 8.14813E-05 2.97159E-07-1.65436E-24
 -1       798 8.15624E-05 5.95558E-07-1.65436E-24
 -1       799 8.16432E-05 9.37225E-07 8.27181E-25
 -1       800 8.17240E-05 1.34053E-06 0.00000E+00
 -1       801 7.50440E-05-1.77973E-06 0.00000E+00
 -1       802 5.93086E-05-1.39886E-06 0.00000E+00
 -1       803 3.86094E-05-1.10206E-06 6.61744E-24
 -1       804 1.81303E-05-8.09394E-07 0.00000E+00
 -1       805 3.37747E-06-4.21259E-07 0.00000E+00
 -1       806 8.03450E-05-2.08736E-06 1.65436E-24
 -1       807 8.01747E-05-1.93816E-06 0.00000E+00
 -1       808 8.00047E-05-1.79169E-06 0.00000E+00
 -1       809 7.98332E-05-1.64223E-06-1.65436E-24
 -1       810 7.96583E-05-1.48403E-06 0.00000E+00
 -1       811 7.94778E-05-1.31143E-06 0.00000E+00
 -1       812 7.92899E-05-1.11877E-06 0.00000E+00
 -1       813 7.90922E-05-9.00401E-07-1.65436E-24
 -1       814 7.88828E-05-6.50681E-07-1.65436E-24
 -1       815 7.86596E-05-3.63971E-07 8.27181E-25
 -1       816 7.84203E-05-3.46367E-08-1.65436E-24
 -1       817 7.81629E-05 3.42959E-07 0.00000E+00
 -1       818 7.78854E-05 7.74443E-07 0.00000E+00
 -1       819 7.75856E-05 1.26542E-06 0.00000E+00
 -1       820 7.72617E-05 1.82150E-06 1.65436E-24
 -1       821 8.16972E-05 2.25762E-06 8.27181E-25
 -1       822 8.15845E-05 2.51274E-06-8.27181E-25
 -1       823 8.14722E-05 2.69364E-06-3.30872E-24
 -1       824 8.13586E-05 2.90496E-06 0.00000E+00
 -1       825 8.12449E-05 3.24420E-06-3.30872E-24
 -1       826 8.11309E-05 3.80820E-06 0.00000E+00
 -1       827 8.10167E-05 4.64164E-06-3.30872E-24
 -1       828 8.09022E-05 5.78787E-06 0.00000E+00
 -1       829 8.07873E-05 7.21761E-06 0.00000E+00
 -1       830 8.06721E-05 8.90016E-06 0.00000E+00
 -1       831 8.05566E-05 1.07462E-05 0.00000E+00
 -1       832 8.04413E-05 1.26655E-05-1.65436E-24
 -1       833 8.03260E-05 1.45508E-05 0.00000E+00
 -1       834 8.02123E-05 1.62952E-05 8.27181E-25
 -1       835 8.00984E-05 1.78242E-05-8.27181E-25
 -1       836 8.11598E-05 1.92799E-06 0.00000E+00
 -1       837 8.03742E-05 2.03419E-06-1.65436E-24
 -1       838 7.95015E-05 2.14015E-06-3.30872E-24
 -1       839 7.85971E-05 2.24543E-06 0.00000E+00
 -1       840 7.77159E-05 2.35056E-06 4.13590E-25
 -1       856 7.99567E-05 2.02272E-05 0.00000E+00
 -1       857 7.99180E-05 2.15155E-05 2.06795E-25
 -1       858 7.98793E-05 2.29097E-05 0.00000E+00
 -1       859 7.98398E-05 2.43898E-05 4.13590E-25
 -1       860 7.98002E-05 2.59360E-05-8.27181E-25
 -1       861 7.97603E-05 2.75280E-05 4.13590E-25
 -1       862 7.97205E-05 2.91458E-05 0.00000E+00
 -1       863 7.96806E-05 3.07692E-05 0.00000E+00
 -1       864 7.96407E-05 3.23779E-05-8.27181E-25
 -1       865 7.96008E-05 3.39517E-05 8.27181E-25
 -1       866 7.95610E-05 3.54707E-05 0.00000E+00
 -1       867 7.95213E-05 3.69146E-05 0.00000E+00
 -1       868 7.94818E-05 3.82635E-05-1.65436E-24
 -1       869 7.94423E-05 3.94977E-05-8.27181E-25
 -1       870 7.94030E-05 4.05975E-05 0.00000E+00
 -1       871 7.90613E-05 1.90634E-05 4.13590E-25
 -1       872 7.82493E-05 1.90599E-05 0.00000E+00
 -1       873 7.75051E-05 1.90560E-05 0.00000E+00
 -1       874 7.67774E-05 1.90515E-05-1.03398E-25
 -1       875 7.60150E-05 1.90465E-05-4.13590E-25
 -1       876 7.96639E-05 2.02373E-05 3.30872E-24
 -1       877 7.93156E-05 2.14713E-05 0.00000E+00
 -1       878 7.89473E-05 2.27591E-05 0.00000E+00
 -1       879 7.85617E-05 2.40937E-05 1.65436E-24
 -1       880 7.81611E-05 2.54682E-05 3.30872E-24
 -1       881 7.77482E-05 2.68757E-05-1.65436E-24
 -1       882 7.73254E-05 2.83093E-05 3.30872E-24
 -1       883 7.68954E-05 2.97621E-05 1.65436E-24
 -1       884 7.64608E-05 3.12272E-05 0.00000E+00
 -1       885 7.60241E-05 3.26977E-05 0.00000E+00
 -1       886 7.55879E-05 3.41668E-05-3.30872E-24
 -1       887 7.51548E-05 3.56275E-05 0.00000E+00
 -1       888 7.47272E-05 3.70730E-05 3.30872E-24
 -1       889 7.43074E-05 3.84961E-05 0.00000E+00
 -1       890 7.38980E-05 3.98901E-05 1.65436E-24
 -1       891 7.85228E-05 4.14938E-05-1.65436E-24
 -1       892 7.76606E-05 4.14440E-05 0.00000E+00
 -1       893 7.67519E-05 4.13942E-05-1.65436E-24
 -1       894 7.57717E-05 4.13445E-05-4.13590E-25
 -1       895 7.46948E-05 4.12948E-05 2.06795E-25
 -1       956 7.68060E-05 3.21889E-06 1.65436E-24
 -1       957 7.66972E-05 4.06040E-06 0.00000E+00
 -1       958 7.65881E-05 4.96552E-06 3.30872E-24
 -1       959 7.64788E-05 5.92665E-06-8.27181E-25
 -1       960 7.63694E-05 6.93616E-06 3.30872E-24
 -1       961 7.62599E-05 7.98639E-06-1.65436E-24
 -1       962 7.61503E-05 9.06964E-06-3.30872E-24
 -1       963 7.60407E-05 1.01783E-05 0.00000E+00
 -1       964 7.59311E-05 1.13045E-05 0.00000E+00
 -1       965 7.58215E-05 1.24408E-05 1.65436E-24
 -1       966 7.57119E-05 1.35794E-05-3.30872E-24
 -1       967 7.56023E-05 1.47126E-05-1.65436E-24
 -1       968 7.54928E-05 1.58327E-05 0.00000E+00
 -1       969 7.53835E-05 1.69320E-05 0.00000E+00
 -1       970 7.52745E-05 1.80030E-05-3.30872E-24
 -1       971 7.50643E-05 2.00989E-05-1.65436E-24
 -1       972 7.49600E-05 2.12531E-05 0.00000E+00
 -1       973 7.48554E-05 2.24904E-05 0.00000E+00
 -1       974 7.47506E-05 2.38002E-05 0.00000E+00
 -1       975 7.46456E-05 2.51717E-05 0.00000E+00
 -1       976 7.45406E-05 2.65941E-05 0.00000E+00
 -1       977 7.44355E-05 2.80567E-05 3.30872E-24
 -1       978 7.43304E-05 2.95487E-05 1.65436E-24
 -1       979 7.42252E-05 3.10592E-05 3.30872E-24
 -1       980 7.41200E-05 3.25775E-05 1.65436E-24
 -1       981 7.40149E-05 3.40928E-05 3.30872E-24
 -1       982 7.39099E-05 3.55943E-05 1.65436E-24
 -1       983 7.38051E-05 3.70711E-05 0.00000E+00
 -1       984 7.37007E-05 3.85126E-05 1.65436E-24
 -1       985 7.35968E-05 3.99079E-05 0.00000E+00
 -3
    1PSTEP                        18           9           1          
  100CL  109 6.03516E-01         409                     0    9           1
 -4  STRESS      6    1
 -5  SXX         1    4    1    1
 -5  SYY         1    4    2    2
 -5  SZZ         1    4    3    3
 -5  SXY         1    4    1    2
 -5  SYZ         1    4    2    3
 -5  SZX         1    4    3    1
 -1         1-1.86624E+06-9.05001E+05-3.81872E+05-1.35942E+06 8.25821E-10-1.22673E-08
 -1         2 2.27795E+03 2.30627E+05 7.82948E+03 1.33970E+03-2.75577E-10 2.67682E-08
 -1         3-6.43412E+01-5.64709E+05 1.45532E+02-1.77917E+02-1.58538E-10-1.88084E-09
 -1         5-1.80114E+01 3.12522E+05 8.22713E+00 4.14116E-01 1.51273E-10-1.18162E-08
 -1         8-8.45431E+05-4.27698E+05 2.04474E+04-8.39727E+05-4.14730E-10-1.02882E-08
 -1         9 1.89669E+06 1.85910E+06 6.68523E+05 1.84108E+06-9.97679E-09 7.10133E-09
 -1        10-4.18867E+02-5.88262E+05-3.14330E+02-1.19569E+03-2.96041E-09-7.19439E-09
 -1        12-1.46613E+01 3.12539E+05 2.67475E+02 3.07886E+00 2.68088E-10-1.02000E-09
 -1        15 2.88088E+03 1.58326E+03 9.31252E+03 8.57365E+00 2.16318E-10-4.01561E-09
 -1        16 1.69496E+06 2.60376E+06 7.46458E+05 2.88960E+06 1.37758E-08-2.59800E-08
 -1        17 4.00450E+06-1.82885E+05 6.26507E+05-5.05283E+05-4.45070E-09-1.34867E-08
 -1        18 1.56772E+05 3.26523E+04 1.48604E+04-7.00935E+04 9.37916E-10-2.66527E-09
 -1        19 9.72178E+04 1.17195E+05-4.60554E+02 1.91009E+04-1.00754E-09-1.64073E-09
 -1        20-3.73576E+04-4.59243E+05-1.01097E+05 3.53159E+04 6.82803E-09 5.20231E-09
 -1        21-4.37929E+01-2.69471E+05-8.73871E+02-1.61407E+02-1.27803E-08-2.86225E-09
 -1        24 5.46366E+06-6.10098E+05 9.02509E+05-1.30760E+06 3.46336E-08 4.64691E-09
 -1        25 1.06070E+05 2.99399E+05 9.46247E+04-1.31521E+05 7.61793E-10 4.87489E-10
 -1        26-1.87246E+04 8.12899E+04-1.50226E+04-1.34670E+04 2.13804E-09 1.45922E-09
 -1        27-7.50838E+04-2.52451E+05-9.49175E+04 5.69220E+04 8.16302E-09-5.67828E-09
 -1        28 2.09649E+04-7.40186E+04 1.52097E+04 2.44609E+04 3.67609E-09 2.51262E-10
 -1        32-8.28933E+05 6.13975E+05 6.01715E+05-6.75679E+05-1.48721E-08 2.77272E-08
 -1        33-1.43198E+05 7.48936E+04 2.64607E+04-4.56261E+04 1.84629E-09-1.31755E-09
 -1        34-1.87816E+05-1.85115E+04 4.14875E+02 5.70942E+04 4.16315E-09 4.85170E-09
 -1        35-2.12844E+04-2.93986E+04-1.15498E+03 4.69500E+04 3.39006E-09 2.59752E-09
 -1        51 9.80417E+03-5.41743E+05 3.32304E+04-1.33107E+06 4.07454E-10-8.84756E-09
 -1        52 1.17723E+04-5.47296E+05 2.58196E+04-1.55265E+06 2.03727E-10 7.74162E-09
 -1        53 1.21015E+04-5.67631E+05 2.58993E+04-1.32639E+06 6.03904E-10-1.30967E-09
 -1        54 3.30571E+04-5.69433E+05 4.68560E+04-1.55739E+06-3.05590E-10-1.57452E-08
 -1        55 5.97877E+04-5.88710E+05 8.63727E+04-1.32547E+06 3.34694E-10 3.23344E-08
 -1        56-3.59176E+06-4.00091E+05-2.74480E+05-1.37702E+06-4.39104E-09-4.77594E-08
 -1        57-3.67412E+06-6.80174E+05-1.85566E+05-1.39684E+06 5.34783E-09-6.24132E-08
 -1        58-3.65268E+06-4.82592E+05-6.45262E+04-1.35233E+06-2.00089E-10-1.65419E-08
 -1        59-3.60321E+06-5.84200E+05-3.87299E+04-1.42723E+06 5.91376E-09 1.94741E-08
 -1        60-3.66253E+06-4.93322E+05-1.50556E+04-1.34777E+06-2.99769E-09-1.28148E-09
 -1        61-3.59551E+06-5.67481E+05-8.60063E+03-1.42758E+06 1.79471E-08 3.12233E-08
 -1        62-3.66016E+06-4.99052E+05-4.29257E+03-1.35199E+06 1.18598E-09-4.58701E-08
 -1        63-3.60563E+06-5.53108E+05-3.37173E+03-1.41266E+06 8.65657E-09 2.99706E-08
 -1        64-3.65180E+06-5.08052E+05-4.51327E+03-1.36226E+06-7.33053E-09 3.22652E-08
 -1        65-3.62618E+06-5.34471E+05-8.33611E+03-1.38824E+06-2.69210E-10 8.99781E-08
 -1        66-3.63908E+06-5.18089E+05-1.56116E+04-1.37600E+06-4.47608E-09 6.26414E-08
 -1        67-3.65919E+06-5.25919E+05-3.87533E+04-1.35885E+06 1.65121E-08-1.13390E-07
 -1        68-3.61890E+06-5.16935E+05-6.54421E+04-1.39155E+06-5.44469E-09-5.02077E-08
 -1        69-3.74486E+06-6.11099E+05-1.87443E+05-1.31642E+06-1.67438E-09 6.14891E-08
 -1        70-3.55459E+06-4.34986E+05-2.77174E+05-1.41802E+06-7.22866E-09 4.95202E-08
 -1        86-1.17584E+03 2.26025E+05 7.93041E+03-6.69977E+02 2.32512E-09-5.60499E-09
 -1        87 7.65558E+03 2.33426E+05 1.71814E+04 2.76014E+03 3.77804E-09 2.83394E-08
 -1        88-6.54867E+03 2.23242E+05 2.56340E+04-2.09088E+03 5.80712E-09-8.25150E-09
 -1        89 4.86452E+04 2.53113E+05 7.00769E+04 5.98491E+03 8.83301E-09-1.01171E-07
 -1        90-4.20672E+04 2.06403E+05 9.80845E+04-3.89487E+03 9.82254E-09 2.15200E-08
 -1       121-1.02289E+02-5.65004E+05 1.24587E+02 8.88550E+01 3.03615E-10-1.98452E-09
 -1       122-2.06539E+01-5.64681E+05 3.15015E+02-3.55918E+02-1.19028E-09 3.95812E-09
 -1       123-1.33285E+02-5.65036E+05 4.99271E+02 2.66446E+02 9.84471E-10 8.91305E-11
 -1       124 5.09412E+02-5.64357E+05 1.30512E+03-8.20270E+02-2.09366E-09 2.81216E-09
 -1       125-4.76897E+02-5.65338E+05 2.02850E+03 5.52971E+02 1.48293E-09-2.73849E-09
 -1       191-1.91761E+01 3.12546E+05 9.22335E+00-2.10562E-01 2.67955E-10-5.14683E-09
 -1       192-1.87747E+01 3.12523E+05 1.74488E+01 1.62774E+00 4.07304E-10-1.15333E-08
 -1       193-2.12017E+01 3.12546E+05 3.18562E+01-1.43944E+00 4.61029E-10-7.09406E-09
 -1       194-2.12291E+01 3.12525E+05 6.60709E+01 3.81325E+00 2.37876E-10-4.54747E-09
 -1       195-2.50930E+01 3.12544E+05 1.28641E+02-2.42503E+00 6.17199E-10-3.49792E-09
 -1       251 1.41980E+06-1.08085E+05 2.51978E+05 1.97425E+04-7.53516E-10-1.32131E-08
 -1       252 1.53800E+06 1.24924E+05 1.79265E+05-4.23652E+04 5.25125E-09 2.18879E-08
 -1       253 1.46526E+06-1.66437E+04 6.53692E+04 6.08351E+03-4.09909E-09 7.94535E-09
 -1       254 1.48470E+06 1.92535E+04 4.11790E+04-2.29097E+04 3.08341E-09-7.12498E-09
 -1       255 1.47278E+06-2.55214E+03 1.68775E+04 2.88760E+02-1.48648E-09 1.18500E-07
 -1       256 1.47590E+06 3.03576E+03 1.01154E+04-1.50361E+04 2.34554E-09 4.17917E-08
 -1       257 1.47401E+06-4.27616E+02 5.08209E+03-1.79020E+03-2.06948E-09 4.79940E-09
 -1       258 1.47464E+06 8.51262E+02 4.21689E+03-1.32467E+04 1.16228E-09-8.14062E-08
 -1       259 1.47404E+06-3.66397E+02 4.53013E+03-1.50058E+03 1.16340E-09-7.30464E-08
 -1       260 1.47572E+06 2.50452E+03 8.54436E+03-1.63803E+04-5.33258E-09 9.03856E-09
 -1       261 1.47295E+06-2.08996E+03 1.40003E+04 1.34340E+03 5.30184E-09 1.49603E-08
 -1       262 1.48355E+06 1.58048E+04 3.41459E+04-2.64545E+04-4.21414E-09-4.52637E-08
 -1       263 1.46630E+06-1.36998E+04 5.38797E+04 8.57372E+03 1.02239E-09 5.08589E-09
 -1       264 1.53051E+06 1.03125E+05 1.48683E+05-5.03820E+04-1.04446E-08 1.05363E-07
 -1       265 1.42648E+06-8.94588E+04 2.07360E+05 2.52710E+04-4.05635E-10 7.07078E-08
 -1       266-5.21499E+04-2.43763E+04 1.22403E+05-1.83506E+02-3.63798E-11-3.60000E-08
 -1       267 6.04600E+04 2.84253E+04 8.64901E+04 2.11660E+02 1.39153E-10-5.92289E-08
 -1       268-8.10741E+03-4.02505E+03 3.21493E+04-2.69730E+01-1.40062E-10 3.75703E-08
 -1       269 9.57268E+03 4.81798E+03 2.08953E+04 3.14153E+01 2.23508E-10-8.68211E-09
 -1       270-1.43687E+03-7.91595E+02 1.00865E+04-4.26345E+00 5.34328E-11-3.00388E-08
 -1       271-5.24318E+06-6.62286E+05-4.08319E+05-2.05400E+06 9.50240E-09 6.98492E-09
 -1       272-5.34871E+06-9.96812E+05-2.61953E+05-2.09209E+06 3.02725E-09-7.45349E-08
 -1       273-5.32690E+06-7.56447E+05-9.65441E+04-2.02795E+06-2.66937E-09-2.33704E-08
 -1       274-5.24985E+06-8.83066E+05-5.37181E+04-2.13451E+06 4.94765E-10 7.73107E-08
 -1       275-5.34296E+06-7.60998E+05-2.24528E+04-2.01872E+06 2.76759E-09 5.55356E-08
 -1       276-5.23176E+06-8.77527E+05-1.19038E+04-2.14932E+06 1.61185E-08-8.16908E-09
 -1       277-5.34709E+06-7.59113E+05-5.93632E+03-2.01530E+06 5.14706E-09-1.15894E-08
 -1       278-5.22935E+06-8.77474E+05-4.58116E+03-2.15155E+06-2.01310E-08 5.43841E-08
 -1       279-5.34574E+06-7.60673E+05-5.41146E+03-2.01682E+06 5.50972E-09-3.47545E-08
 -1       280-5.23556E+06-8.72169E+05-1.00899E+04-2.14245E+06 4.03816E-09 3.00693E-08
 -1       281-5.33912E+06-7.65643E+05-1.92054E+04-2.02310E+06-1.95723E-09-1.18089E-08
 -1       282-5.25611E+06-8.70612E+05-4.50536E+04-2.12205E+06 2.72303E-09-2.97123E-08
 -1       283-5.32226E+06-7.65374E+05-8.15457E+04-2.03455E+06-4.54384E-09-1.92485E-08
 -1       284-5.34552E+06-9.59507E+05-2.20023E+05-2.07871E+06-2.76850E-09-2.60079E-08
 -1       285-5.24859E+06-6.89608E+05-3.43698E+05-2.06010E+06-3.14503E-09-1.11409E-07
 -1       301 6.19827E+03 2.00471E+05 1.16456E+05 4.91694E+05-2.15005E-09-2.63353E-08
 -1       302 5.56810E+03 2.32229E+05 8.59974E+04 7.19753E+05 3.40151E-09-7.01039E-09
 -1       303-6.51082E+03 2.08838E+05 8.12129E+04 4.90403E+05-1.63345E-09 4.01997E-08
 -1       304 2.12618E+04 2.48445E+05 1.38900E+05 7.19456E+05 5.20231E-10 6.94345E-08
 -1       305 2.23247E+04 1.87085E+05 2.33403E+05 4.92318E+05-1.55705E-09 3.93629E-09
 -1       306-1.21873E+07-6.43648E+06-3.73234E+06-6.22310E+06 5.40167E-08-7.88168E-08
 -1       307-1.89979E+06 9.73194E+06 2.11732E+06 5.50150E+06 5.39716E-07-1.48779E-07
 -1       308-3.03018E+06-5.56732E+06-5.43297E+05-4.51856E+06 6.35046E-08-1.20417E-07
 -1       309-1.35367E+07 9.87475E+06 5.94185E+05-6.34090E+05-1.09489E-07 1.81422E-07
 -1       310-2.65692E+06-5.39759E+06-2.77056E+05-4.39096E+06-1.15397E-07 3.28000E-08
 -1       311-3.17795E+06 9.52900E+06 2.19216E+06 5.15047E+06-5.22785E-07 1.34096E-07
 -1       312-1.15215E+07-6.24477E+06-2.81554E+06-6.33410E+06-6.91507E-08-8.94361E-08
 -1       313 1.43881E+07 3.04903E+06 3.92610E+06 5.81601E+06 2.24536E-07-1.17245E-07
 -1       314-1.55735E+07-2.61666E+06-2.92890E+06-2.56084E+06-1.01980E-07-4.33065E-08
 -1       315 8.93913E+06-1.53816E+06 2.35404E+06-6.02354E+06 2.46393E-07 1.04075E-07
 -1       316-8.74521E+06 1.55426E+05-4.18952E+05 1.55795E+06 1.71945E-07 3.63427E-07
 -1       317-3.24987E+06-4.10283E+05 5.91416E+05-1.16337E+07-5.39108E-07 1.91911E-07
 -1       318-8.29380E+06 2.30087E+05-4.09438E+05 1.67431E+06 4.37285E-07 5.14046E-08
 -1       319 7.94364E+06-1.18188E+06 1.93760E+06-6.82715E+06 1.27358E-07 5.45679E-08
 -1       320-1.55062E+07-2.67147E+06-3.64188E+06-2.09832E+06-7.26432E-08 1.10595E-09
 -1       336 3.68936E+02-6.11684E+05-2.41913E+03 6.41186E+02-5.90217E-09-4.28827E-09
 -1       337-8.12965E+02-6.12161E+05-1.66288E+03-1.67356E+03-1.10208E-08 6.40739E-10
 -1       338-3.58172E+01-6.12000E+05-1.07565E+03 1.02879E+03-7.82484E-09-4.61932E-09
 -1       339-6.30154E+02-6.12097E+05-1.38231E+03-2.43455E+03-1.44473E-08 3.85398E-09
 -1       340 2.52735E+02-6.11791E+05-1.88763E+03 1.40130E+03-9.70135E-09 2.09520E-08
 -1       406 5.17607E+00 3.12532E+05 5.27433E+02-7.30074E-01 9.69578E-10-4.81941E-09
 -1       407 1.69531E+02 3.12632E+05 1.12231E+03-1.30003E+01 3.67891E-10-2.09861E-08
 -1       408 5.62653E+02 3.12450E+05 2.24067E+03 1.40422E+01 1.13823E-09-2.50302E-08
 -1       409 2.41007E+03 3.13348E+05 5.04561E+03-1.41180E+02-9.68612E-11-3.45299E-08
 -1       410 6.95073E+03 3.11811E+05 1.02998E+04 1.33924E+02 1.13141E-09-2.25846E-08
 -1       521-1.29777E+07-6.95043E+06-3.94346E+06-6.46399E+06 4.79049E-08-1.19413E-07
 -1       522-3.99189E+06 1.03763E+07 2.00126E+06 5.25496E+06 3.83065E-07-1.86992E-08
 -1       523-3.81807E+06-6.17559E+06-5.41193E+05-5.15990E+06 1.05414E-07 1.71261E-07
 -1       524-1.61041E+07 1.08525E+07 6.02213E+05-1.38598E+06-2.44414E-07 4.86820E-07
 -1       525-3.47847E+06-6.03225E+06-2.69869E+05-5.06392E+06-3.11265E-07 3.01632E-07
 -1       526-5.21968E+06 1.02317E+07 2.13674E+06 4.90652E+06-2.63753E-07 8.20437E-08
 -1       527-1.23595E+07-6.77541E+06-2.96269E+06-6.58498E+06-1.75496E-07 7.19738E-08
 -1       528 1.35168E+07 2.73997E+06 3.77930E+06 5.54604E+06 1.34663E-07-7.55390E-08
 -1       529-1.64851E+07-3.03558E+06-3.07261E+06-2.66551E+06 9.40054E-08 1.32422E-08
 -1       530 7.87618E+06-1.90760E+06 2.27528E+06-7.39443E+06 1.60304E-07-1.36286E-07
 -1       531-1.00785E+07 1.02324E+05-3.99729E+05 1.51202E+06 2.70549E-07 1.02606E-07
 -1       532-4.90714E+06-3.40229E+05 6.04762E+05-1.33537E+07-4.24065E-07 2.69189E-07
 -1       533-9.71233E+06 1.80227E+05-4.07484E+05 1.62116E+06-2.20462E-07 4.61296E-07
 -1       534 6.96197E+06-1.52324E+06 1.87368E+06-8.15742E+06 2.57685E-07-3.15049E-07
 -1       535-1.64530E+07-3.09639E+06-3.81688E+06-2.25546E+06 1.21072E-08-2.14786E-07
 -1       536 4.36759E+05-4.02969E+04 9.25647E+04 4.43091E+03-5.33203E-09 9.94623E-09
 -1       537 4.80776E+05 4.65998E+04 6.61424E+04-7.49601E+03-4.95139E-09-3.04681E-09
 -1       538 4.53746E+05-6.23872E+03 2.40113E+04 1.49263E+03-4.31029E-10-4.28008E-09
 -1       539 4.61008E+05 7.28153E+03 1.51800E+04-3.39216E+03 3.02329E-10-3.58273E-09
 -1       540 4.56531E+05-9.51415E+02 6.15559E+03 3.26471E+02-6.87663E-10-4.18322E-09
 -1       541 4.57709E+05 1.13342E+03 3.62902E+03-1.75832E+03 5.58931E-11 2.46666E-09
 -1       542 4.56977E+05-1.55767E+02 1.67008E+03-1.40276E+02-3.00162E-10-2.00333E-09
 -1       543 4.57185E+05 2.30630E+02 1.12939E+03-1.13830E+03 2.27203E-10-5.93345E-09
 -1       544 4.57039E+05-6.48382E+01 8.92820E+02-2.93357E+02-7.21156E-11 4.00219E-09
 -1       545 4.57274E+05 4.12722E+02 1.36995E+03-1.01873E+03-9.39514E-10 6.09896E-09
 -1       546 4.56925E+05-3.00745E+02 2.09775E+03-2.59458E+02 4.49750E-10 1.30728E-09
 -1       547 4.58256E+05 2.39862E+03 4.97578E+03-1.30293E+03-1.45436E-09-3.30499E-09
 -1       548 4.56073E+05-2.03252E+03 7.85087E+03-8.88786E+00-4.81922E-10-2.70029E-09
 -1       549 4.64220E+05 1.51429E+04 2.14256E+04-2.23138E+03-7.90543E-10 1.02721E-08
 -1       550 4.50920E+05-1.30748E+04 3.02156E+04 6.68466E+02-6.13454E-10 1.38607E-09
 -1       551 1.10560E+04-5.27214E+05 1.05394E+04-1.12365E+06-2.99333E-08 6.17001E-09
 -1       552 3.17133E+04-5.41468E+05 2.48546E+04-1.60029E+06-2.50147E-08 9.92441E-09
 -1       553 2.32980E+04-5.45285E+05 4.43883E+04-1.12028E+06-3.92465E-08 1.14378E-08
 -1       554 5.71889E+04-5.28132E+05 9.81164E+04-1.60085E+06-2.40689E-08 6.75936E-09
 -1       555 4.64040E+04-5.56615E+05 1.75217E+05-1.12258E+06-3.49246E-08-4.67116E-09
 -1       556 4.06342E+04-1.29075E+05 4.57613E+04-1.74463E+05-6.87578E-09-6.92671E-09
 -1       557 9.26649E+04-1.72152E+05 2.40096E+04-2.16491E+05-1.07684E-09 5.09317E-10
 -1       558 4.08039E+04-1.35421E+05 9.76483E+03-1.69203E+05-5.92263E-09-3.44153E-09
 -1       559 8.55053E+04-1.78371E+05 4.94344E+03-2.19410E+05 8.73115E-10-4.62023E-10
 -1       560 3.94107E+04-1.34490E+05 2.08131E+03-1.70066E+05-7.47241E-09-6.79756E-09
 -1       561 8.32780E+04-1.77847E+05 1.09518E+03-2.20805E+05-1.43154E-08-4.32510E-09
 -1       562 3.83032E+04-1.33737E+05 4.38814E+02-1.70863E+05-7.93443E-09 1.20219E-08
 -1       563 8.20006E+04-1.77303E+05 2.61166E+02-2.21624E+05-4.67480E-09 2.72485E-09
 -1       564 3.76599E+04-1.33317E+05 9.42158E+01-1.71320E+05 5.45697E-12 1.66710E-09
 -1       565 8.14191E+04-1.77056E+05 3.29156E+01-2.21988E+05 2.81034E-10 8.72205E-10
 -1       566 3.75094E+04-1.33211E+05-7.75589E+01-1.71433E+05 4.04725E-10 5.28780E-09
 -1       567 8.14792E+04-1.77084E+05-2.37960E+02-2.21876E+05 4.82896E-09 2.67391E-10
 -1       568 3.78937E+04-1.33460E+05-5.91448E+02-1.71231E+05-7.98536E-10 1.29949E-08
 -1       569 8.13767E+04-1.77149E+05-1.36184E+03-2.20679E+05-7.50697E-09-3.47609E-09
 -1       570 3.94357E+04-1.34976E+05-2.80267E+03-1.71038E+05-2.72848E-10-9.05857E-10
 -1       571 2.23894E+05 7.91420E+03 1.17678E+04-5.50737E+04-5.36602E-11 6.69434E-09
 -1       572 2.25644E+05 2.73492E+03 5.76580E+03-6.03587E+04-3.75758E-09 5.81485E-09
 -1       573 2.24589E+05 6.35188E+02 2.56133E+03-5.49224E+04-4.05453E-09 8.53242E-09
 -1       574 2.24795E+05 1.91511E+02 1.28345E+03-6.05249E+04-2.94290E-09-2.04818E-09
 -1       575 2.24661E+05 1.01850E+01 6.04758E+02-5.49026E+04-9.07266E-09 6.29962E-09
 -1       576 2.24675E+05-1.15187E+01 3.07713E+02-6.05471E+04-1.49212E-08 6.26460E-09
 -1       577 2.24670E+05-2.18954E+01 1.51126E+02-5.49000E+04-2.95586E-09 7.87122E-09
 -1       578 2.24663E+05-2.13032E+01 8.15299E+01-6.05498E+04 3.42902E-09 1.18325E-09
 -1       579 2.24684E+05-2.45227E+01 4.80664E+01-5.48999E+04-1.78443E-09-2.16096E-09
 -1       580 2.24682E+05-2.95592E+01 4.19997E+01-6.05467E+04-7.05768E-10 5.84532E-09
 -1       581 2.24711E+05-3.56577E+01 5.33708E+01-5.49031E+04-2.20371E-09 1.96269E-09
 -1       582 2.24728E+05-3.38367E+01 9.94975E+01-6.05151E+04-6.28006E-10 2.60707E-09
 -1       583 2.24746E+05-1.29269E+01 1.88361E+02-5.49316E+04 9.50604E-09-8.36280E-10
 -1       584 2.24843E+05 1.27218E+02 4.22333E+02-6.02760E+04 1.79098E-08 1.93495E-09
 -1       585 2.24745E+05 4.96998E+02 8.55458E+02-5.51426E+04 9.88712E-09-2.75213E-09
 -1       586-2.88414E+03 7.22478E+04-4.03016E+03-1.82118E+05 1.25669E-09-2.00089E-09
 -1       587-5.71809E+02 7.16740E+04-6.94544E+02-2.00376E+05 1.58070E-09-2.55804E-09
 -1       588 7.92887E+02 7.18299E+04 2.26161E+03-1.81994E+05 6.89397E-10-1.62795E-08
 -1       589 3.67913E+03 7.31326E+04 6.92679E+03-2.00234E+05 1.43154E-09-5.20349E-08
 -1       590 1.03476E+04 7.10030E+04 1.49454E+04-1.82257E+05 8.62201E-10-2.24400E-08
 -1       591-4.93160E+04-1.45479E+04-1.65774E+04-2.61100E+04 1.49396E-09-5.34874E-09
 -1       592-5.07141E+04-1.87726E+04-8.97889E+03-3.06072E+04 1.41381E-09-5.91831E-09
 -1       593-5.09953E+04-1.33237E+04-3.73811E+03-2.73057E+04 1.46520E-09-9.65065E-09
 -1       594-4.84027E+04-1.63653E+04-1.86427E+03-3.07265E+04 1.01090E-08 8.61843E-09
 -1       595-5.11247E+04-1.33174E+04-8.56792E+02-2.73609E+04 2.51794E-09-8.99021E-09
 -1       596-4.82470E+04-1.62549E+04-4.36715E+02-3.07110E+04 2.14072E-10-8.68397E-09
 -1       597-5.11412E+04-1.33278E+04-2.40451E+02-2.73633E+04-2.72243E-09-3.40486E-09
 -1       598-4.82321E+04-1.62507E+04-1.98143E+02-3.07065E+04-9.34438E-09-2.75145E-09
 -1       599-5.11398E+04-1.33280E+04-2.59236E+02-2.73627E+04-4.44550E-09-5.08635E-09
 -1       600-4.82482E+04-1.62566E+04-4.86433E+02-3.07100E+04-1.33434E-09-2.09639E-10
 -1       601-5.11185E+04-1.33171E+04-9.62311E+02-2.73590E+04 1.51704E-09 9.44556E-09
 -1       602-4.84228E+04-1.63809E+04-2.09841E+03-3.07249E+04-9.23933E-10-8.92157E-09
 -1       603-5.09709E+04-1.33265E+04-4.20917E+03-2.72968E+04-3.67299E-09 3.42061E-09
 -1       604-5.10323E+04-1.90830E+04-1.01105E+04-3.05788E+04-7.18035E-09 1.32620E-08
 -1       605-4.90694E+04-1.47122E+04-1.86663E+04-2.59583E+04-4.39786E-09 7.58791E-09
 -1       606 3.35530E+04-1.08042E+04-1.94616E+04 3.28107E+04-5.25324E-09-2.12003E-09
 -1       607 3.02176E+04-3.47793E+03-9.69009E+03 3.68292E+04-1.38971E-09-6.09657E-09
 -1       608 3.20980E+04-5.80522E+02-4.34084E+03 3.25475E+04 4.94401E-09-3.94493E-09
 -1       609 3.17148E+04-1.36120E+02-2.19191E+03 3.71170E+04-2.07183E-09-6.88442E-09
 -1       610 3.19098E+04 4.40838E+01-1.04811E+03 3.25181E+04-6.63567E-09 2.27556E-09
 -1       611 3.18307E+04 6.74240E+01-5.28400E+02 3.71483E+04-1.38571E-08 3.81897E-09
 -1       612 3.18516E+04 6.85736E+01-2.53727E+02 3.25152E+04-6.04996E-09 1.57297E-09
 -1       613 3.18162E+04 8.35990E+01-1.15848E+02 3.71519E+04-9.05084E-09-1.44360E-09
 -1       614 3.18168E+04 7.52275E+01-3.36696E+01 3.25143E+04-2.42653E-09 4.37194E-09
 -1       615 3.17936E+04 9.49260E+01 3.37542E+01 3.71524E+04 8.20955E-09-1.20167E-09
 -1       616 3.17905E+04 8.59913E+01 1.14679E+02 3.25146E+04-1.48711E-08-2.12594E-10
 -1       617 3.17936E+04 1.27775E+02 2.67451E+02 3.71517E+04-2.11958E-08-5.69185E-09
 -1       618 3.17571E+04 1.69549E+02 5.40903E+02 3.25147E+04-9.49831E-09-8.21456E-09
 -1       619 3.19763E+04 5.51290E+02 1.21609E+03 3.71507E+04 8.53788E-11-5.69526E-09
 -1       620 3.15722E+04 1.45697E+03 2.44452E+03 3.25127E+04 4.04998E-09 2.04136E-09
 -1       621 4.33120E+02 2.48909E+05 3.70427E+03 5.33033E+03-5.07555E-10 1.68961E-09
 -1       622 4.87971E+02 2.49830E+05 3.06292E+03 7.82732E+03-4.07681E-10-4.00541E-09
 -1       623 1.76379E+01 2.49186E+05 3.41629E+03 5.30585E+03-5.80656E-10-2.77771E-09
 -1       624 1.51414E+03 2.50772E+05 6.39474E+03 7.84991E+03-6.90079E-10-1.06047E-09
 -1       625 1.51994E+03 2.47963E+05 1.10733E+04 5.30872E+03-3.52884E-10-5.43122E-09
 -1       626 2.00830E+05 5.66726E+04 3.88067E+03 1.10029E+05-4.07272E-09-8.42738E-09
 -1       627 1.97943E+05 5.88578E+04 1.87053E+03 1.14530E+05-1.72804E-09-6.67387E-09
 -1       628 2.00977E+05 5.48266E+04 7.89222E+02 1.10594E+05 5.08953E-09-3.40151E-09
 -1       629 1.97355E+05 5.84350E+04 3.87417E+02 1.14793E+05 7.37055E-09-1.24612E-09
 -1       630 2.00977E+05 5.47438E+04 1.78771E+02 1.10602E+05 1.84446E-09-1.61499E-08
 -1       631 1.97276E+05 5.84303E+04 9.67114E+01 1.14790E+05-1.83309E-09-8.97654E-09
 -1       632 2.00960E+05 5.47547E+04 6.42667E+01 1.10589E+05-1.73259E-09 1.12433E-08
 -1       633 1.97256E+05 5.84389E+04 7.29697E+01 1.14777E+05-1.25219E-08-1.21709E-08
 -1       634 2.00944E+05 5.47581E+04 1.18785E+02 1.10581E+05 8.78663E-09 9.34506E-10
 -1       635 1.97257E+05 5.84424E+04 2.41553E+02 1.14774E+05 1.11004E-08 9.09722E-10
 -1       636 2.00929E+05 5.47585E+04 4.87953E+02 1.10576E+05-1.96997E-09-1.90835E-09
 -1       637 1.97355E+05 5.85206E+04 1.07246E+03 1.14768E+05 1.33949E-09 1.29589E-08
 -1       638 2.00887E+05 5.49975E+04 2.20399E+03 1.10465E+05 3.08955E-09-1.18325E-08
 -1       639 1.98508E+05 6.01329E+04 5.21381E+03 1.14427E+05 1.42195E-08 2.93448E-09
 -1       640 2.00737E+05 5.97936E+04 1.08196E+04 1.08426E+05 4.74074E-09 3.39651E-09
 -1       656 5.49889E+04-1.38928E+06-1.32719E+05 2.20937E+02 1.25146E-09-3.58986E-09
 -1       657-7.26522E+04-1.44914E+06-1.09727E+05 9.44561E+03 1.95996E-09 8.34515E-09
 -1       658 1.74214E+04-1.40636E+06-6.72862E+04-1.44346E+03 1.53841E-09 7.81313E-10
 -1       659-7.77884E+04-1.45158E+06-1.16473E+05 1.05342E+04-1.37516E-09 6.38711E-09
 -1       660 6.01140E+04-1.38685E+06-1.44314E+05-8.67672E+02 1.45519E-10 5.49684E-09
 -1       661 2.05469E+05 2.25111E+04 1.95557E+04 8.03897E+04 4.55475E-09-6.86305E-09
 -1       662 2.15624E+05 3.78790E+04 1.31772E+04 7.70260E+04 1.19871E-09-2.53021E-09
 -1       663 2.09307E+05 2.87862E+04 4.60955E+03 7.92778E+04-1.83388E-09-3.36922E-09
 -1       664 2.11180E+05 3.05365E+04 2.75595E+03 7.83807E+04-1.00067E-09-4.92756E-09
 -1       665 2.09885E+05 2.96473E+04 1.08702E+03 7.91130E+04-1.20741E-09-2.88878E-09
 -1       666 2.10500E+05 2.95489E+04 6.33787E+02 7.85944E+04-1.37036E-08 1.65166E-08
 -1       667 2.09984E+05 2.97478E+04 3.33732E+02 7.90740E+04 1.08818E-09 8.10078E-09
 -1       668 2.10391E+05 2.94732E+04 3.33749E+02 7.86525E+04 4.13030E-09-9.44013E-09
 -1       669 2.09993E+05 2.97206E+04 4.46428E+02 7.90558E+04 2.10687E-09 4.40792E-10
 -1       670 2.10497E+05 2.97152E+04 9.67305E+02 7.86586E+04 1.05889E-08-2.27324E-09
 -1       671 2.09878E+05 2.95104E+04 1.71574E+03 7.90659E+04-5.29212E-11 2.19222E-09
 -1       672 2.11491E+05 3.13891E+04 4.38839E+03 7.84231E+04-1.08885E-08 1.28375E-09
 -1       673 2.09004E+05 2.80886E+04 7.35367E+03 7.92753E+04-3.93720E-09-7.77436E-09
 -1       674 2.18488E+05 4.32049E+04 2.10294E+04 7.63696E+04 3.74826E-10-1.29687E-08
 -1       675 2.02927E+05 1.80248E+04 3.12148E+04 8.09947E+04 2.28374E-09-9.02583E-09
 -1       676 2.27257E+01-2.69398E+05-1.05324E+03 8.07056E+01-2.07649E-10 2.39941E-09
 -1       677-2.79276E+02-2.69653E+05-1.92759E+03-1.61301E+02-6.43547E-09-4.78277E-10
 -1       678 1.86775E+02-2.69216E+05-3.40749E+03 8.05395E+01-8.00128E-10 5.63492E-09
 -1       679-3.40811E+03-2.71710E+05-8.09469E+03-1.60689E+02-2.48554E-09 5.30488E-09
 -1       680 2.03431E+03-2.67342E+05-1.30459E+04 7.91687E+01-4.15821E-09 6.29582E-09
 -1       771-2.90464E+06-4.77209E+05-9.94249E+04-1.16196E+06-7.66886E-09-4.83124E-09
 -1       772-2.90845E+06-5.04784E+05-5.36334E+04-1.19148E+06-7.05404E-09-4.31100E-10
 -1       773-2.91619E+06-4.68516E+05-2.26731E+04-1.16829E+06-2.32831E-09 5.03132E-09
 -1       774-2.89395E+06-4.91849E+05-1.11691E+04-1.19483E+06 6.41739E-09-1.40790E-09
 -1       775-2.91815E+06-4.67445E+05-5.35211E+03-1.16838E+06-3.63798E-09 6.43922E-10
 -1       776-2.89288E+06-4.91891E+05-2.54790E+03-1.19659E+06-9.67702E-09 7.71252E-10
 -1       777-2.91931E+06-4.66637E+05-1.39656E+03-1.16826E+06-3.23053E-09 1.76806E-09
 -1       778-2.89273E+06-4.92380E+05-6.80563E+02-1.19811E+06 9.24047E-10 5.02996E-09
 -1       779-2.92021E+06-4.65924E+05-5.69184E+02-1.16816E+06-1.97906E-09-1.95723E-09
 -1       780-2.89275E+06-4.92786E+05-5.26159E+02-1.19936E+06-1.58070E-09 1.23237E-09
 -1       781-2.92088E+06-4.65342E+05-9.05339E+02-1.16809E+06-1.06957E-08-6.66114E-09
 -1       782-2.89292E+06-4.93173E+05-1.75341E+03-1.20029E+06-9.13860E-09-3.02634E-09
 -1       783-2.92124E+06-4.64962E+05-3.49531E+03-1.16801E+06-1.20599E-09-3.83307E-09
 -1       784-2.89507E+06-4.95606E+05-8.33347E+03-1.20077E+06-4.81305E-09-2.09639E-10
 -1       785-2.91995E+06-4.65869E+05-1.53959E+04-1.16686E+06-1.10576E-08-6.79756E-09
 -1       786 2.26988E+05-1.15141E+04 2.66395E+04 5.82775E+01 1.68820E-06-9.37507E-09
 -1       787 2.38529E+05 1.33298E+04 1.88467E+04 6.30079E+00 3.35921E-06 1.03387E-09
 -1       788 2.31441E+05-1.80497E+03 6.89541E+03 5.13177E+01 1.89533E-06 5.02587E-09
 -1       789 2.33342E+05 2.08852E+03 4.33290E+03 1.43571E+01 4.21591E-07 2.87804E-09
 -1       790 2.32176E+05-2.82002E+02 1.76415E+03 5.02232E+01-7.57900E-07-2.13845E-10
 -1       791 2.32485E+05 3.27961E+02 1.03779E+03 1.19190E+01-1.93627E-06 5.24729E-09
 -1       792 2.32299E+05-4.57403E+01 4.77610E+02 5.37562E+01-2.53410E-06-1.91291E-08
 -1       793 2.32347E+05 6.61627E+01 3.21006E+02-1.04406E+00-3.12766E-06 4.92103E-09
 -1       794 2.32314E+05-2.03779E+01 2.50080E+02 6.31866E+01-1.56932E-06-8.03948E-09
 -1       795 2.32368E+05 1.09909E+02 3.79485E+02-2.94606E+01-4.84093E-09 9.24683E-09
 -1       796 2.32279E+05-8.94570E+01 5.79158E+02 8.21732E+01-5.83770E-10-3.26884E-09
 -1       797 2.32634E+05 6.57064E+02 1.37448E+03-8.44255E+01-1.82597E-10 1.32258E-08
 -1       798 2.32048E+05-5.67134E+02 2.17225E+03 1.18152E+02-7.27487E-10 5.95082E-09
 -1       799 2.34266E+05 4.18809E+03 5.92484E+03-1.88215E+02-1.27265E-09 6.56064E-09
 -1       800 2.30646E+05-3.61764E+03 8.36916E+03 1.85963E+02-5.19993E-10 3.56977E-10
 -1       801-6.81502E+04 1.38431E+06 1.44978E+05 1.78757E+04 1.09867E-08-7.71342E-09
 -1       802 1.04101E+05 1.56004E+06 1.69410E+05-1.12405E+05 2.88267E-08-7.28460E-09
 -1       803-3.35716E+04 1.44777E+06 1.40963E+05-1.73464E+04 2.21407E-08 1.37498E-08
 -1       804 2.23483E+05 1.62666E+06 3.26051E+05-1.19057E+05 2.71539E-08 2.08776E-08
 -1       805-1.87496E+05 1.31801E+06 4.08125E+05 2.45208E+04 9.37143E-09 3.38984E-08
 -1       806-2.43145E+05-5.43829E+04-2.16471E+04-1.03640E+05-1.97065E-09-3.56431E-09
 -1       807-2.44198E+05-5.15049E+04-1.06347E+04-1.09632E+05-2.61566E-09-5.32822E-09
 -1       808-2.43771E+05-4.65507E+04-4.51103E+03-1.07299E+05-1.64772E-09 2.17040E-09
 -1       809-2.41915E+05-4.85659E+04-2.20508E+03-1.09956E+05 2.94307E-09 9.29742E-09
 -1       810-2.43869E+05-4.62736E+04-1.00955E+03-1.07460E+05-1.05933E-09-1.34014E-09
 -1       811-2.41739E+05-4.84507E+04-5.00298E+02-1.09931E+05-2.98553E-09-2.92471E-09
 -1       812-2.43885E+05-4.62942E+04-2.49076E+02-1.07459E+05-3.71892E-09-3.96381E-09
 -1       813-2.41716E+05-4.84544E+04-1.56010E+02-1.09917E+05-8.34029E-09-8.97228E-09
 -1       814-2.43880E+05-4.63030E+04-1.44624E+02-1.07455E+05-2.07183E-09-3.93811E-10
 -1       815-2.41716E+05-4.84577E+04-2.24328E+02-1.09911E+05 1.61890E-09-5.33760E-09
 -1       816-2.43863E+05-4.63032E+04-4.19396E+02-1.07450E+05-1.17871E-09 6.99538E-09
 -1       817-2.41784E+05-4.84988E+04-8.98034E+02-1.09900E+05 1.73532E-09-6.11908E-09
 -1       818-2.43805E+05-4.64318E+04-1.83029E+03-1.07389E+05-3.01134E-09-6.97264E-09
 -1       819-2.42793E+05-4.95948E+04-4.30664E+03-1.09647E+05-1.22418E-09 4.47471E-09
 -1       820-2.43450E+05-4.96920E+04-8.76540E+03-1.06001E+05-2.57387E-10 4.83101E-09
 -1       821-3.17755E+05 1.77185E+04-4.09815E+04 1.99459E+02-4.83979E-10 2.22826E-09
 -1       822-3.35486E+05-2.05140E+04-2.89962E+04-1.50351E+03-1.71885E-09 4.59750E-09
 -1       823-3.24591E+05 2.77946E+03-1.06125E+04 3.19034E+02 8.90810E-10 3.05135E-10
 -1       824-3.27494E+05-3.21731E+03-6.67576E+03-1.42934E+03 1.63913E-11 3.31693E-09
 -1       825-3.25744E+05 4.34927E+02-2.74741E+03 1.25287E+02-2.68532E-09 3.06579E-09
 -1       826-3.26131E+05-5.12120E+02-1.64576E+03-8.27046E+02-4.96456E-09 9.32005E-10
 -1       827-3.25951E+05 7.51987E+01-8.64097E+02-2.83268E+02-5.28230E-09-3.77031E-09
 -1       828-3.25942E+05-1.53672E+02-7.42824E+02 1.15025E+01-7.37294E-09 1.42954E-09
 -1       829-3.25933E+05 7.65752E+01-8.70835E+02-7.13275E+02-1.82073E-10 5.89560E-09
 -1       830-3.26180E+05-5.20560E+02-1.68335E+03 6.89596E+02 2.92835E-09 1.63314E-08
 -1       831-3.25715E+05 4.42816E+02-2.79583E+03-9.61376E+02-4.77046E-09 7.27073E-09
 -1       832-3.27544E+05-3.27717E+03-6.81078E+03 8.87864E+02-2.79769E-09-5.57395E-09
 -1       833-3.24570E+05 2.83167E+03-1.08258E+04-9.11546E+02-1.41867E-09 8.69795E-09
 -1       834-3.35645E+05-2.09168E+04-2.95670E+04 5.15680E+02-1.29397E-09 6.21458E-09
 -1       835-3.17615E+05 1.80681E+04-4.18040E+04-5.89167E+02 6.44732E-09-8.08723E-09
 -1       836-1.05368E+03 3.04834E+05 1.82878E+04-2.91674E+04 3.09410E-09 7.49742E-09
 -1       837 4.07514E+03 3.10470E+05 1.55922E+04-5.84975E+04 4.13661E-09 1.44064E-09
 -1       838-3.65188E+02 3.06404E+05 1.60439E+04-2.90758E+04 3.78259E-09 4.34341E-09
 -1       839 1.03356E+04 3.15130E+05 3.05042E+04-5.85225E+04 4.78440E-09 2.75077E-09
 -1       840-3.06871E+03 3.00122E+05 4.87041E+04-2.91392E+04 3.42516E-09 2.99019E-09
 -1       856-1.06201E+05 8.71908E+03-2.29791E+04-5.59980E+02-6.08020E-09-2.63844E-09
 -1       857-1.15694E+05-1.02227E+04-1.58203E+04 5.10546E+03-7.97871E-09 1.29739E-09
 -1       858-1.09951E+05 1.22111E+03-5.96402E+03-5.89180E+02-7.10776E-09 3.93447E-09
 -1       859-1.11389E+05-1.41557E+03-3.60210E+03 5.15283E+03-2.63196E-09 1.30484E-09
 -1       860-1.10511E+05 1.69313E+02-1.51527E+03-6.07627E+02-1.70073E-09 6.60236E-10
 -1       861-1.10744E+05-1.82495E+02-8.45162E+02 5.17818E+03-1.01789E-08 1.06861E-09
 -1       862-1.10598E+05 2.20343E+01-3.74683E+02-6.14580E+02 5.64609E-09-3.10351E-09
 -1       863-1.10642E+05-9.27023E+00-1.89513E+02 5.18117E+03 8.04059E-09-9.59886E-09
 -1       864-1.10614E+05-5.87236E-02-6.80962E+01-6.10623E+02 7.31325E-09-2.79137E-09
 -1       865-1.10614E+05 2.57068E+01 1.17350E+01 5.16169E+03 1.21684E-08-4.45483E-09
 -1       866-1.10624E+05-1.38898E+01 8.45469E+01-5.95103E+02-1.02227E-09 1.55850E-09
 -1       867-1.10555E+05 1.15483E+02 2.48250E+02 5.11959E+03 2.22610E-09 3.59373E-09
 -1       868-1.10667E+05-9.07168E+01 4.20944E+02-5.68509E+02 2.88077E-09 6.08011E-09
 -1       869-1.10231E+05 7.46648E+02 1.13727E+03 5.05131E+03-4.15375E-09-5.25165E-09
 -1       870-1.10941E+05-6.31579E+02 1.64651E+03-5.26828E+02 7.58973E-10 2.19495E-09
 -1       871-4.70471E+03-9.08751E+03-1.49923E+04 9.77317E+04 3.46154E-09-4.32010E-10
 -1       872-2.10385E+03-1.24302E+04-6.08573E+03 1.26702E+05 6.27733E-09 3.52429E-10
 -1       873-1.18013E+02-1.08952E+04 9.32281E+02 9.75181E+04 2.67255E-09 6.25505E-10
 -1       874 2.24101E+03-8.65967E+03 8.64133E+03 1.26750E+05 7.28528E-09 7.30779E-09
 -1       875 5.45322E+03-1.29324E+04 1.91180E+04 9.76995E+04 3.48518E-09 2.78760E-09
 -1       876 2.47966E+05 4.29765E+04 1.33822E+04 1.00900E+05-7.03005E-09-2.77032E-09
 -1       877 2.48697E+05 4.59494E+04 7.14651E+03 1.04893E+05-1.09296E-08 4.78167E-10
 -1       878 2.49215E+05 4.14967E+04 2.99391E+03 1.02000E+05 6.67706E-09 9.87279E-09
 -1       879 2.46876E+05 4.41368E+04 1.49146E+03 1.04986E+05 4.26826E-09-1.30296E-09
 -1       880 2.49305E+05 4.14811E+04 6.94193E+02 1.02045E+05 3.64798E-09 4.28548E-09
 -1       881 2.46755E+05 4.40596E+04 3.69588E+02 1.04966E+05 5.37875E-09-1.79908E-09
 -1       882 2.49314E+05 4.14926E+04 2.34374E+02 1.02046E+05 1.22370E-08-3.86662E-09
 -1       883 2.46746E+05 4.40559E+04 2.48708E+02 1.04960E+05 1.47800E-08 7.84655E-09
 -1       884 2.49308E+05 4.14901E+04 3.92616E+02 1.02046E+05 4.93355E-09 1.99856E-09
 -1       885 2.46777E+05 4.40614E+04 7.87483E+02 1.04969E+05 3.47083E-09-2.74099E-10
 -1       886 2.49278E+05 4.14671E+04 1.58619E+03 1.02043E+05 3.13781E-09-1.68257E-11
 -1       887 2.47056E+05 4.42442E+04 3.46441E+03 1.05010E+05-5.43582E-09 4.24757E-09
 -1       888 2.49060E+05 4.15052E+04 6.98068E+03 1.01932E+05 1.36481E-10 1.89357E-09
 -1       889 2.51216E+05 4.85617E+04 1.66760E+04 1.04878E+05 2.15445E-09 1.28284E-09
 -1       890 2.46218E+05 4.48818E+04 3.12331E+04 9.92667E+04 2.67573E-09 4.20914E-09
 -1       891-1.76240E+02-1.41509E+05-1.66129E+03 2.74162E+04 2.76509E-09 3.60592E-09
 -1       892-3.02979E+02-1.41892E+05-1.81065E+03 4.14601E+04-2.80579E-10 1.51031E-08
 -1       893-6.91546E+01-1.41556E+05-2.59175E+03 2.74215E+04-3.20620E-09 3.72575E-09
 -1       894-1.45664E+03-1.42878E+05-5.38315E+03 4.13124E+04-4.89399E-09-1.02318E-09
 -1       895-1.13921E+03-1.40428E+05-9.48913E+03 2.75608E+04 2.12253E-10 1.04228E-09
 -1       956-3.10732E+05-4.51521E+03-1.13955E+04 2.01960E+04-1.18744E-08 2.27874E-09
 -1       957-3.12985E+05-1.51170E+03-5.84981E+03 2.43311E+04-1.26893E-08-4.58385E-10
 -1       958-3.11745E+05-1.08950E+02-2.63573E+03 2.00582E+04 2.15550E-10-4.38445E-09
 -1       959-3.11929E+05-3.69967E+00-1.34609E+03 2.44786E+04-9.74978E-10 2.93858E-09
 -1       960-3.11838E+05 5.23601E+01-6.56183E+02 2.00448E+04-1.09185E-08-3.22871E-11
 -1       961-3.11855E+05 5.45805E+01-3.47630E+02 2.44940E+04-1.80487E-08-3.43493E-09
 -1       962-3.11858E+05 4.90448E+01-1.98202E+02 2.00426E+04-8.19591E-09 3.04863E-09
 -1       963-3.11853E+05 5.71357E+01-1.57504E+02 2.44971E+04-7.70058E-09-2.98087E-10
 -1       964-3.11864E+05 5.21103E+01-1.89329E+02 2.00417E+04-1.89584E-09 5.26370E-10
 -1       965-3.11866E+05 6.12796E+01-3.25538E+02 2.44975E+04 3.55794E-09 3.29555E-09
 -1       966-3.11855E+05 6.14115E+01-6.10206E+02 2.00422E+04-4.49296E-09 1.68302E-09
 -1       967-3.11947E+05 1.35700E+01-1.25112E+03 2.44902E+04-1.56388E-09 7.54312E-10
 -1       968-3.11778E+05-8.24362E+01-2.44822E+03 2.00492E+04 2.10775E-10-3.39440E-10
 -1       969-3.12940E+05-1.38218E+03-5.43585E+03 2.44094E+04 6.52108E-10 7.90033E-09
 -1       970-3.10844E+05-4.17319E+03-1.05879E+04 2.01281E+04 2.77987E-09 4.31191E-09
 -1       971-2.96693E+05-1.57394E+03-8.80965E+03 1.45727E+04-9.80981E-09-1.84889E-09
 -1       972-2.98841E+05-1.11821E+03-4.79735E+03 2.04044E+04-1.08303E-08-1.00631E-08
 -1       973-2.97675E+05 1.96961E+00-2.14841E+03 1.44482E+04-8.58563E-09-1.03614E-09
 -1       974-2.97831E+05 9.36596E+00-1.11268E+03 2.05381E+04-1.55410E-09-4.97084E-09
 -1       975-2.97753E+05 4.46443E+01-5.54773E+02 1.44365E+04-2.28101E-09 3.69027E-09
 -1       976-2.97773E+05 5.68032E+01-3.17128E+02 2.05526E+04-9.98807E-09 9.00820E-09
 -1       977-2.97769E+05 4.53299E+01-2.25158E+02 1.44336E+04-2.42471E-09 3.72120E-09
 -1       978-2.97778E+05 6.26612E+01-2.56528E+02 2.05567E+04 1.07466E-08 1.69052E-10
 -1       979-2.97770E+05 5.26593E+01-4.06293E+02 1.44323E+04 7.28710E-09 4.60011E-09
 -1       980-2.97808E+05 6.53595E+01-7.80824E+02 2.05574E+04 1.19634E-08 7.46184E-09
 -1       981-2.97745E+05 7.19968E+01-1.51044E+03 1.44328E+04-9.88166E-10 2.28425E-09
 -1       982-2.98014E+05-4.65278E+01-3.12102E+03 2.05509E+04-4.55918E-09-8.97396E-09
 -1       983-2.97554E+05-2.51678E+01-6.06378E+03 1.44392E+04 5.47288E-09 2.70074E-09
 -1       984-3.00929E+05-3.21419E+03-1.35789E+04 2.04672E+04-2.00589E-09 7.33235E-09
 -1       985-2.94808E+05-4.46290E+03-2.49353E+04 1.45258E+04 3.57113E-09 5.17139E-09
 -3
    1PSTEP                        19          10           1          
  100CL  110 6.21094E-01         409                     0   10           1
 -4  DISP        4    1
 -5  D1          1    2    1    0
 -5  D2          1    2    2    0
 -5  D3          1    2    3    0
 -5  ALL         1    2    0    0    1ALL
 -1         1 1.34608E-03 0.00000E+00 0.00000E+00
 -1         2 1.35245E-03 4.16757E-30 0.00000E+00
 -1         3 9.94813E-05 2.58818E-27-3.30872E-24
 -1         5 8.47804E-05 1.46709E-27 0.00000E+00
 -1         8 1.30914E-03-1.47459E-06 0.00000E+00
 -1         9 1.32092E-03 1.07410E-07 0.00000E+00
 -1        10 9.37685E-05-8.88961E-07 0.00000E+00
 -1        12 8.37505E-05 6.71796E-07 0.00000E+00
 -1        15 1.26529E-03-1.66568E-06 0.00000E+00
 -1        16 1.26616E-03 2.78814E-07 0.00000E+00
 -1        17 7.53430E-05-1.87705E-06 0.00000E+00
 -1        18 7.93843E-05-3.98879E-06 0.00000E+00
 -1        19 8.06607E-05 1.33937E-06 0.00000E+00
 -1        20 8.08361E-05 2.40132E-05 0.00000E+00
 -1        21 8.02078E-05 4.63161E-05-3.30872E-24
 -1        24 2.34442E-05-3.21562E-06 0.00000E+00
 -1        25 7.54148E-05-3.84084E-06 0.00000E+00
 -1        26 7.67767E-05 1.87231E-06 0.00000E+00
 -1        27 7.49196E-05 2.10441E-05 0.00000E+00
 -1        28 7.42540E-05 4.57356E-05 0.00000E+00
 -1        32 0.00000E+00 0.00000E+00 0.00000E+00
 -1        33 7.11474E-05 2.51449E-06 0.00000E+00
 -1        34 6.93583E-05 2.10172E-05 0.00000E+00
 -1        35 6.76417E-05 4.54300E-05 0.00000E+00
 -1        51 1.34367E-03-2.35472E-07 0.00000E+00
 -1        52 1.33921E-03-4.69438E-07 0.00000E+00
 -1        53 1.33311E-03-7.08194E-07 0.00000E+00
 -1        54 1.32578E-03-9.53725E-07 0.00000E+00
 -1        55 1.31765E-03-1.20641E-06-6.61744E-24
 -1        56 1.34507E-03-1.32632E-06 2.64698E-23
 -1        57 1.34459E-03-4.22144E-06 1.32349E-23
 -1        58 1.34456E-03-8.32206E-06 0.00000E+00
 -1        59 1.34483E-03-1.32426E-05 0.00000E+00
 -1        60 1.34524E-03-1.85253E-05 0.00000E+00
 -1        61 1.34560E-03-2.37029E-05 0.00000E+00
 -1        62 1.34576E-03-2.83161E-05 5.29396E-23
 -1        63 1.34554E-03-3.19256E-05 2.64698E-23
 -1        64 1.34481E-03-3.41732E-05-5.29396E-23
 -1        65 1.34346E-03-3.47483E-05-2.64698E-23
 -1        66 1.34142E-03-3.34751E-05 0.00000E+00
 -1        67 1.33863E-03-3.02415E-05 0.00000E+00
 -1        68 1.33512E-03-2.50938E-05 0.00000E+00
 -1        69 1.33093E-03-1.81413E-05-1.32349E-23
 -1        70 1.32614E-03-9.64401E-06-2.64698E-23
 -1        86 1.35160E-03 3.82833E-08 0.00000E+00
 -1        87 1.34905E-03 7.34596E-08 0.00000E+00
 -1        88 1.34475E-03 1.02867E-07 2.06795E-25
 -1        89 1.33869E-03 1.21378E-07 0.00000E+00
 -1        90 1.33077E-03 1.28129E-07 0.00000E+00
 -1       121 9.93221E-05-1.47528E-07 0.00000E+00
 -1       122 9.88448E-05-2.95158E-07 0.00000E+00
 -1       123 9.80499E-05-4.42989E-07 3.30872E-24
 -1       124 9.69380E-05-5.91146E-07 0.00000E+00
 -1       125 9.55104E-05-7.39688E-07 0.00000E+00
 -1       191 8.47518E-05 1.11988E-07 0.00000E+00
 -1       192 8.46660E-05 2.23972E-07 0.00000E+00
 -1       193 8.45230E-05 3.35951E-07 0.00000E+00
 -1       194 8.43227E-05 4.47918E-07 0.00000E+00
 -1       195 8.40652E-05 5.59868E-07 0.00000E+00
 -1       251 1.30981E-03 4.12887E-06-3.30872E-24
 -1       252 1.31055E-03 6.46686E-06 6.61744E-24
 -1       253 1.31129E-03 6.58145E-06 0.00000E+00
 -1       254 1.31204E-03 5.44377E-06 0.00000E+00
 -1       255 1.31279E-03 3.46695E-06-2.64698E-23
 -1       256 1.31353E-03 1.03788E-06 0.00000E+00
 -1       257 1.31428E-03-1.65919E-06 0.00000E+00
 -1       258 1.31503E-03-4.44832E-06 0.00000E+00
 -1       259 1.31578E-03-7.19499E-06-2.64698E-23
 -1       260 1.31653E-03-9.76327E-06-1.32349E-23
 -1       261 1.31727E-03-1.19372E-05 0.00000E+00
 -1       262 1.31802E-03-1.34886E-05 0.00000E+00
 -1       263 1.31877E-03-1.39101E-05 2.64698E-23
 -1       264 1.31951E-03-1.26594E-05 0.00000E+00
 -1       265 1.32025E-03-8.44766E-06 6.61744E-24
 -1       266 1.30183E-03-1.52507E-06 0.00000E+00
 -1       267 1.29452E-03-1.55465E-06-1.65436E-24
 -1       268 1.28721E-03-1.58555E-06 1.65436E-24
 -1       269 1.27991E-03-1.61253E-06 0.00000E+00
 -1       270 1.27260E-03-1.63942E-06 0.00000E+00
 -1       271 1.30465E-03 3.64640E-06 0.00000E+00
 -1       272 1.30102E-03 6.25889E-06 2.64698E-23
 -1       273 1.29824E-03 6.65897E-06 0.00000E+00
 -1       274 1.29615E-03 5.17438E-06 0.00000E+00
 -1       275 1.29461E-03 2.20042E-06 0.00000E+00
 -1       276 1.29347E-03-1.82823E-06 2.64698E-23
 -1       277 1.29254E-03-6.44279E-06 0.00000E+00
 -1       278 1.29165E-03-1.11578E-05 0.00000E+00
 -1       279 1.29062E-03-1.54846E-05 0.00000E+00
 -1       280 1.28926E-03-1.89459E-05-2.64698E-23
 -1       281 1.28741E-03-2.10918E-05 0.00000E+00
 -1       282 1.28492E-03-2.15106E-05 0.00000E+00
 -1       283 1.28165E-03-1.98452E-05-5.29396E-23
 -1       284 1.27748E-03-1.57960E-05 0.00000E+00
 -1       285 1.27231E-03-9.14503E-06 0.00000E+00
 -1       301 1.31130E-03 1.28797E-07 0.00000E+00
 -1       302 1.30257E-03 1.71695E-07-1.65436E-24
 -1       303 1.29421E-03 2.17987E-07 1.24077E-24
 -1       304 1.28570E-03 2.60452E-07-4.13590E-25
 -1       305 1.27652E-03 2.93583E-07 0.00000E+00
 -1       306 1.26872E-03 1.06207E-04 0.00000E+00
 -1       307 1.11074E-03 3.83011E-04-2.64698E-23
 -1       308 8.50845E-04 7.79318E-04 5.29396E-23
 -1       309 5.19843E-04 1.24064E-03 0.00000E+00
 -1       310 1.83064E-04 1.70693E-03 1.05879E-22
 -1       311-9.24972E-05 2.11874E-03 5.29396E-23
 -1       312-2.70065E-04 2.42080E-03-1.05879E-22
 -1       313-3.39123E-04 2.55948E-03 5.29396E-23
 -1       314-3.25592E-04 2.50413E-03 0.00000E+00
 -1       315-2.68667E-04 2.25219E-03 5.29396E-23
 -1       316-2.01263E-04 1.84248E-03-1.05879E-22
 -1       317-1.39637E-04 1.33549E-03-5.29396E-23
 -1       318-7.87766E-05 8.19712E-04-1.05879E-22
 -1       319-1.19054E-05 3.84488E-04 2.64698E-23
 -1       320 4.93562E-05 9.51388E-05 5.29396E-23
 -1       336 9.16724E-05-1.05057E-06 6.61744E-24
 -1       337 8.91819E-05-1.21333E-06-3.30872E-24
 -1       338 8.62998E-05-1.37712E-06 3.30872E-24
 -1       339 8.30298E-05-1.54220E-06-1.65436E-24
 -1       340 7.93759E-05-1.70855E-06 3.30872E-24
 -1       406 8.33785E-05 7.83692E-07 6.61744E-24
 -1       407 8.29493E-05 8.95530E-07 0.00000E+00
 -1       408 8.24628E-05 1.00727E-06 0.00000E+00
 -1       409 8.19190E-05 1.11878E-06 0.00000E+00
 -1       410 8.13181E-05 1.22982E-06-3.30872E-24
 -1       521 1.21292E-03 1.06753E-04 5.29396E-23
 -1       522 1.05455E-03 3.82876E-04-5.29396E-23
 -1       523 7.95224E-04 7.77760E-04 0.00000E+00
 -1       524 4.66744E-04 1.23625E-03 0.00000E+00
 -1       525 1.32905E-04 1.69939E-03 1.05879E-22
 -1       526-1.40928E-04 2.10870E-03 0.00000E+00
 -1       527-3.17522E-04 2.40839E-03 2.11758E-22
 -1       528-3.86546E-04 2.54540E-03 5.29396E-23
 -1       529-3.73335E-04 2.48848E-03 0.00000E+00
 -1       530-3.17097E-04 2.23622E-03 0.00000E+00
 -1       531-2.50290E-04 1.82746E-03 1.05879E-22
 -1       532-1.88866E-04 1.32387E-03 5.29396E-23
 -1       533-1.28120E-04 8.12108E-04 0.00000E+00
 -1       534-6.17513E-05 3.79682E-04-5.29396E-23
 -1       535-1.41533E-06 9.26053E-05-1.05879E-22
 -1       536 7.55729E-05 1.46020E-06-1.65436E-24
 -1       537 7.58243E-05 3.05582E-06 0.00000E+00
 -1       538 7.60759E-05 3.50568E-06-6.61744E-24
 -1       539 7.63309E-05 3.39213E-06 0.00000E+00
 -1       540 7.65860E-05 2.90877E-06-6.61744E-24
 -1       541 7.68415E-05 2.24492E-06 0.00000E+00
 -1       542 7.70971E-05 1.46469E-06 6.61744E-24
 -1       543 7.73528E-05 6.30830E-07 3.30872E-24
 -1       544 7.76084E-05-2.31092E-07 0.00000E+00
 -1       545 7.78640E-05-1.09588E-06-3.30872E-24
 -1       546 7.81196E-05-1.94029E-06 0.00000E+00
 -1       547 7.83749E-05-2.74086E-06 3.30872E-24
 -1       548 7.86303E-05-3.44369E-06 0.00000E+00
 -1       549 7.88840E-05-3.99375E-06 0.00000E+00
 -1       550 7.91385E-05-4.23027E-06 3.30872E-24
 -1       551 6.87436E-05-2.07945E-06-6.61744E-24
 -1       552 6.01560E-05-2.29389E-06 0.00000E+00
 -1       553 5.04513E-05-2.51726E-06 0.00000E+00
 -1       554 4.05114E-05-2.74554E-06-6.61744E-24
 -1       555 3.12178E-05-2.97189E-06-2.64698E-23
 -1       556 7.39633E-05 1.65100E-06 0.00000E+00
 -1       557 7.29580E-05 4.20946E-06 6.61744E-24
 -1       558 7.22829E-05 5.89574E-06 1.32349E-23
 -1       559 7.18977E-05 6.81441E-06 0.00000E+00
 -1       560 7.17620E-05 7.06983E-06 0.00000E+00
 -1       561 7.18359E-05 6.76693E-06 0.00000E+00
 -1       562 7.20798E-05 6.01071E-06-6.61744E-24
 -1       563 7.24540E-05 4.90632E-06 0.00000E+00
 -1       564 7.29190E-05 3.55893E-06-3.30872E-24
 -1       565 7.34356E-05 2.07376E-06 0.00000E+00
 -1       566 7.39643E-05 5.56066E-07 1.03398E-25
 -1       567 7.44659E-05-8.88880E-07 0.00000E+00
 -1       568 7.49009E-05-2.15586E-06 0.00000E+00
 -1       569 7.52302E-05-3.13981E-06 0.00000E+00
 -1       570 7.54142E-05-3.73561E-06 0.00000E+00
 -1       571 7.94618E-05-3.58270E-06-1.24077E-24
 -1       572 7.95409E-05-3.23068E-06 2.06795E-25
 -1       573 7.96206E-05-2.92369E-06 8.27181E-25
 -1       574 7.97005E-05-2.65222E-06 0.00000E+00
 -1       575 7.97806E-05-2.40669E-06-1.65436E-24
 -1       576 7.98606E-05-2.17745E-06 1.65436E-24
 -1       577 7.99407E-05-1.95487E-06 6.61744E-24
 -1       578 8.00208E-05-1.72930E-06-1.65436E-24
 -1       579 8.01008E-05-1.49106E-06 0.00000E+00
 -1       580 8.01809E-05-1.23053E-06 0.00000E+00
 -1       581 8.02610E-05-9.38030E-07-3.30872E-24
 -1       582 8.03410E-05-6.03927E-07 0.00000E+00
 -1       583 8.04210E-05-2.18584E-07-6.61744E-24
 -1       584 8.05010E-05 2.27537E-07 0.00000E+00
 -1       585 8.05809E-05 7.43928E-07 0.00000E+00
 -1       586 7.87147E-05-3.96255E-06-1.65436E-24
 -1       587 7.80069E-05-3.93707E-06 0.00000E+00
 -1       588 7.72919E-05-3.91190E-06 8.27181E-25
 -1       589 7.66009E-05-3.88711E-06 0.00000E+00
 -1       590 7.59650E-05-3.86294E-06 0.00000E+00
 -1       591 7.91965E-05-3.54761E-06 0.00000E+00
 -1       592 7.90241E-05-3.15613E-06 0.00000E+00
 -1       593 7.88667E-05-2.80519E-06 0.00000E+00
 -1       594 7.87210E-05-2.48649E-06 4.13590E-25
 -1       595 7.85842E-05-2.19160E-06 0.00000E+00
 -1       596 7.84531E-05-1.91216E-06 0.00000E+00
 -1       597 7.83247E-05-1.63980E-06 0.00000E+00
 -1       598 7.81957E-05-1.36618E-06 4.13590E-25
 -1       599 7.80632E-05-1.08293E-06 8.27181E-25
 -1       600 7.79239E-05-7.81702E-07-2.06795E-25
 -1       601 7.77748E-05-4.54145E-07-8.27181E-25
 -1       602 7.76127E-05-9.18923E-08-2.06795E-25
 -1       603 7.74346E-05 3.13413E-07 4.13590E-25
 -1       604 7.72375E-05 7.70190E-07-1.03398E-25
 -1       605 7.70182E-05 1.28676E-06 8.27181E-25
 -1       606 8.06761E-05 2.11832E-06 0.00000E+00
 -1       607 8.06886E-05 3.01982E-06 0.00000E+00
 -1       608 8.07003E-05 4.03668E-06 0.00000E+00
 -1       609 8.07115E-05 5.16078E-06 0.00000E+00
 -1       610 8.07225E-05 6.38399E-06 0.00000E+00
 -1       611 8.07334E-05 7.69803E-06 0.00000E+00
 -1       612 8.07441E-05 9.09461E-06-3.30872E-24
 -1       613 8.07547E-05 1.05655E-05 0.00000E+00
 -1       614 8.07652E-05 1.21024E-05 0.00000E+00
 -1       615 8.07756E-05 1.36970E-05 0.00000E+00
 -1       616 8.07859E-05 1.53410E-05 1.65436E-24
 -1       617 8.07962E-05 1.70263E-05 0.00000E+00
 -1       618 8.08063E-05 1.87443E-05 0.00000E+00
 -1       619 8.08164E-05 2.04871E-05 0.00000E+00
 -1       620 8.08264E-05 2.22461E-05 4.13590E-25
 -1       621 7.99875E-05 1.42819E-06 0.00000E+00
 -1       622 7.93294E-05 1.51750E-06 1.65436E-24
 -1       623 7.86827E-05 1.60682E-06 0.00000E+00
 -1       624 7.80440E-05 1.69600E-06 1.65436E-24
 -1       625 7.74098E-05 1.78503E-06 1.65436E-24
 -1       626 8.04614E-05 2.14496E-06 0.00000E+00
 -1       627 8.02244E-05 3.05294E-06 0.00000E+00
 -1       628 7.99524E-05 4.05410E-06-6.61744E-24
 -1       629 7.96493E-05 5.13860E-06 0.00000E+00
 -1       630 7.93185E-05 6.29658E-06 0.00000E+00
 -1       631 7.89638E-05 7.51811E-06 0.00000E+00
 -1       632 7.85889E-05 8.79324E-06 0.00000E+00
 -1       633 7.81976E-05 1.01121E-05 0.00000E+00
 -1       634 7.77936E-05 1.14647E-05 0.00000E+00
 -1       635 7.73806E-05 1.28411E-05-4.96308E-24
 -1       636 7.69624E-05 1.42314E-05 0.00000E+00
 -1       637 7.65426E-05 1.56257E-05 1.65436E-24
 -1       638 7.61250E-05 1.70141E-05-1.65436E-24
 -1       639 7.57132E-05 1.83866E-05-8.27181E-25
 -1       640 7.53106E-05 1.97333E-05-1.65436E-24
 -1       656 7.93245E-05 2.35298E-05 0.00000E+00
 -1       657 7.82558E-05 2.30274E-05 6.61744E-24
 -1       658 7.74632E-05 2.25267E-05 1.32349E-23
 -1       659 7.67745E-05 2.20264E-05-6.61744E-24
 -1       660 7.59918E-05 2.15245E-05 0.00000E+00
 -1       661 8.02778E-05 2.57514E-05 0.00000E+00
 -1       662 7.97461E-05 2.74297E-05 0.00000E+00
 -1       663 7.92362E-05 2.90494E-05 0.00000E+00
 -1       664 7.87480E-05 3.06135E-05 1.65436E-24
 -1       665 7.82800E-05 3.21241E-05 0.00000E+00
 -1       666 7.78314E-05 3.35835E-05-1.65436E-24
 -1       667 7.74013E-05 3.49936E-05-3.30872E-24
 -1       668 7.69890E-05 3.63564E-05 0.00000E+00
 -1       669 7.65939E-05 3.76737E-05 3.30872E-24
 -1       670 7.62153E-05 3.89470E-05-1.65436E-24
 -1       671 7.58527E-05 4.01779E-05 3.30872E-24
 -1       672 7.55053E-05 4.13677E-05 0.00000E+00
 -1       673 7.51729E-05 4.25176E-05 1.65436E-24
 -1       674 7.48541E-05 4.36284E-05 0.00000E+00
 -1       675 7.45499E-05 4.47014E-05 0.00000E+00
 -1       676 7.92123E-05 4.62188E-05 0.00000E+00
 -1       677 7.82173E-05 4.61215E-05 1.65436E-24
 -1       678 7.72234E-05 4.60242E-05 0.00000E+00
 -1       679 7.62312E-05 4.59273E-05 1.65436E-24
 -1       680 7.52412E-05 4.58303E-05 0.00000E+00
 -1       771 2.03046E-05 1.48100E-06 0.00000E+00
 -1       772 1.74635E-05 5.33752E-06 0.00000E+00
 -1       773 1.49212E-05 8.40191E-06 5.29396E-23
 -1       774 1.26586E-05 1.07213E-05 0.00000E+00
 -1       775 1.06583E-05 1.23450E-05 5.29396E-23
 -1       776 8.90052E-06 1.33243E-05 0.00000E+00
 -1       777 7.36528E-06 1.37119E-05 0.00000E+00
 -1       778 6.03171E-06 1.35625E-05 0.00000E+00
 -1       779 4.87863E-06 1.29320E-05 0.00000E+00
 -1       780 3.88425E-06 1.18778E-05-2.64698E-23
 -1       781 3.02654E-06 1.04585E-05 5.29396E-23
 -1       782 2.28309E-06 8.73385E-06 0.00000E+00
 -1       783 1.63129E-06 6.76407E-06 0.00000E+00
 -1       784 1.04845E-06 4.61053E-06 0.00000E+00
 -1       785 5.11493E-07 2.33483E-06 2.64698E-23
 -1       786 7.54954E-05-3.50766E-06 8.27181E-25
 -1       787 7.55803E-05-3.19006E-06 0.00000E+00
 -1       788 7.56650E-05-2.88367E-06 0.00000E+00
 -1       789 7.57505E-05-2.58417E-06 1.65436E-24
 -1       790 7.58361E-05-2.28861E-06 0.00000E+00
 -1       791 7.59218E-05-1.99407E-06-1.65436E-24
 -1       792 7.60075E-05-1.69784E-06-3.30872E-24
 -1       793 7.60933E-05-1.39719E-06 0.00000E+00
 -1       794 7.61791E-05-1.08851E-06-3.30872E-24
 -1       795 7.62649E-05-7.68145E-07 1.65436E-24
 -1       796 7.63506E-05-4.30100E-07-3.30872E-24
 -1       797 7.64363E-05-6.82944E-08 0.00000E+00
 -1       798 7.65220E-05 3.28138E-07-3.30872E-24
 -1       799 7.66074E-05 7.70198E-07-8.27181E-25
 -1       800 7.66928E-05 1.27810E-06 0.00000E+00
 -1       801 7.02275E-05-3.12756E-06 0.00000E+00
 -1       802 5.56289E-05-2.47472E-06-6.61744E-24
 -1       803 3.64636E-05-1.89459E-06 0.00000E+00
 -1       804 1.74142E-05-1.32101E-06 3.30872E-24
 -1       805 3.51740E-06-6.65599E-07 6.61744E-24
 -1       806 7.51969E-05-3.56084E-06 0.00000E+00
 -1       807 7.49802E-05-3.29490E-06-1.65436E-24
 -1       808 7.47654E-05-3.03591E-06 0.00000E+00
 -1       809 7.45504E-05-2.77763E-06 0.00000E+00
 -1       810 7.43332E-05-2.51380E-06 0.00000E+00
 -1       811 7.41115E-05-2.23826E-06-1.65436E-24
 -1       812 7.38831E-05-1.94484E-06-3.30872E-24
 -1       813 7.36457E-05-1.62739E-06 0.00000E+00
 -1       814 7.33969E-05-1.27975E-06-1.65436E-24
 -1       815 7.31344E-05-8.95779E-07 0.00000E+00
 -1       816 7.28561E-05-4.69335E-07 0.00000E+00
 -1       817 7.25595E-05 5.72795E-09 8.27181E-25
 -1       818 7.22424E-05 5.35543E-07 0.00000E+00
 -1       819 7.19026E-05 1.12622E-06-8.27181E-25
 -1       820 7.15379E-05 1.78388E-06 0.00000E+00
 -1       821 7.66679E-05 2.39912E-06 0.00000E+00
 -1       822 7.65525E-05 2.70664E-06-8.27181E-25
 -1       823 7.64375E-05 2.91237E-06 0.00000E+00
 -1       824 7.63213E-05 3.13438E-06 0.00000E+00
 -1       825 7.62050E-05 3.48676E-06 0.00000E+00
 -1       826 7.60883E-05 4.08296E-06 1.65436E-24
 -1       827 7.59713E-05 4.97857E-06 3.30872E-24
 -1       828 7.58540E-05 6.22769E-06-1.65436E-24
 -1       829 7.57362E-05 7.80054E-06-3.30872E-24
 -1       830 7.56180E-05 9.66571E-06 0.00000E+00
 -1       831 7.54994E-05 1.17225E-05 3.30872E-24
 -1       832 7.53810E-05 1.38691E-05-1.65436E-24
 -1       833 7.52626E-05 1.59826E-05-3.30872E-24
 -1       834 7.51459E-05 1.79400E-05 0.00000E+00
 -1       835 7.50291E-05 1.96554E-05 8.27181E-25
 -1       836 7.60131E-05 1.97929E-06-3.30872E-24
 -1       837 7.51016E-05 2.08855E-06-1.65436E-24
 -1       838 7.41007E-05 2.19757E-06-3.30872E-24
 -1       839 7.30689E-05 2.30588E-06 8.27181E-25
 -1       840 7.20650E-05 2.41404E-06-4.13590E-25
 -1       856 7.48825E-05 2.23381E-05-2.06795E-25
 -1       857 7.48414E-05 2.37616E-05 0.00000E+00
 -1       858 7.48004E-05 2.52941E-05-8.27181E-25
 -1       859 7.47585E-05 2.69153E-05 0.00000E+00
 -1       860 7.47165E-05 2.86044E-05 0.00000E+00
 -1       861 7.46743E-05 3.03409E-05 0.00000E+00
 -1       862 7.46320E-05 3.21038E-05 1.65436E-24
 -1       863 7.45897E-05 3.38723E-05 8.27181E-25
 -1       864 7.45474E-05 3.56257E-05-1.65436E-24
 -1       865 7.45052E-05 3.73430E-05 0.00000E+00
 -1       866 7.44630E-05 3.90036E-05 0.00000E+00
 -1       867 7.44209E-05 4.05867E-05 8.27181E-25
 -1       868 7.43790E-05 4.20717E-05 1.65436E-24
 -1       869 7.43372E-05 4.34384E-05 8.27181E-25
 -1       870 7.42956E-05 4.46663E-05 0.00000E+00
 -1       871 7.38632E-05 2.10429E-05-4.13590E-25
 -1       872 7.29277E-05 2.10393E-05 0.00000E+00
 -1       873 7.20616E-05 2.10354E-05-4.13590E-25
 -1       874 7.12127E-05 2.10308E-05 1.03398E-25
 -1       875 7.03288E-05 2.10256E-05 4.13590E-25
 -1       876 7.45452E-05 2.23483E-05-3.30872E-24
 -1       877 7.41497E-05 2.37156E-05-1.65436E-24
 -1       878 7.37336E-05 2.51383E-05-3.30872E-24
 -1       879 7.32995E-05 2.66093E-05-1.65436E-24
 -1       880 7.28501E-05 2.81214E-05 3.30872E-24
 -1       881 7.23879E-05 2.96675E-05 0.00000E+00
 -1       882 7.19156E-05 3.12404E-05 0.00000E+00
 -1       883 7.14359E-05 3.28331E-05 1.65436E-24
 -1       884 7.09514E-05 3.44384E-05 0.00000E+00
 -1       885 7.04648E-05 3.60493E-05 0.00000E+00
 -1       886 6.99787E-05 3.76586E-05-3.30872E-24
 -1       887 6.94958E-05 3.92592E-05 1.65436E-24
 -1       888 6.90187E-05 4.08439E-05 3.30872E-24
 -1       889 6.85496E-05 4.24057E-05 8.27181E-25
 -1       890 6.80914E-05 4.39373E-05 0.00000E+00
 -1       891 7.32933E-05 4.56845E-05-1.65436E-24
 -1       892 7.23105E-05 4.56333E-05 4.13590E-25
 -1       893 7.12798E-05 4.55821E-05 8.27181E-25
 -1       894 7.01753E-05 4.55309E-05 4.13590E-25
 -1       895 6.89710E-05 4.54798E-05-8.27181E-25
 -1       956 7.10379E-05 3.39404E-06-1.65436E-24
 -1       957 7.09264E-05 4.34641E-06 8.27181E-25
 -1       958 7.08147E-05 5.36433E-06-3.30872E-24
 -1       959 7.07026E-05 6.44004E-06-1.65436E-24
 -1       960 7.05905E-05 7.56580E-06 0.00000E+00
 -1       961 7.04782E-05 8.73380E-06 0.00000E+00
 -1       962 7.03659E-05 9.93621E-06 0.00000E+00
 -1       963 7.02536E-05 1.11652E-05 1.65436E-24
 -1       964 7.01413E-05 1.24131E-05 3.30872E-24
 -1       965 7.00289E-05 1.36718E-05-1.65436E-24
 -1       966 6.99166E-05 1.49337E-05-3.30872E-24
 -1       967 6.98042E-05 1.61910E-05 0.00000E+00
 -1       968 6.96920E-05 1.74357E-05 0.00000E+00
 -1       969 6.95800E-05 1.86601E-05 0.00000E+00
 -1       970 6.94683E-05 1.98565E-05 0.00000E+00
 -1       971 6.92526E-05 2.22051E-05-1.65436E-24
 -1       972 6.91454E-05 2.34896E-05 8.27181E-25
 -1       973 6.90379E-05 2.48599E-05-3.30872E-24
 -1       974 6.89302E-05 2.63050E-05 1.65436E-24
 -1       975 6.88224E-05 2.78138E-05 0.00000E+00
 -1       976 6.87144E-05 2.93752E-05 0.00000E+00
 -1       977 6.86064E-05 3.09780E-05 0.00000E+00
 -1       978 6.84983E-05 3.26112E-05 1.65436E-24
 -1       979 6.83903E-05 3.42634E-05 0.00000E+00
 -1       980 6.82822E-05 3.59238E-05 0.00000E+00
 -1       981 6.81741E-05 3.75809E-05-3.30872E-24
 -1       982 6.80662E-05 3.92238E-05 1.65436E-24
 -1       983 6.79584E-05 4.08412E-05 0.00000E+00
 -1       984 6.78511E-05 4.24221E-05-1.65436E-24
 -1       985 6.77444E-05 4.39553E-05 0.00000E+00
 -3
    1PSTEP                        20          10           1          
  100CL  110 6.21094E-01         409                     0   10           1
 -4  STRESS      6    1
 -5  SXX         1    4    1    1
 -5  SYY         1    4    2    2
 -5  SZZ         1    4    3    3
 -5  SXY         1    4    1    2
 -5  SYZ         1    4    2    3
 -5  SZX         1    4    3    1
 -1         1-1.75505E+06-8.83839E+05-3.53194E+05-1.38157E+06 7.82165E-10 3.83588E-08
 -1         2 1.58109E+03 1.15564E+05 5.76052E+03 8.10157E+02-2.98087E-10-2.38012E-08
 -1         3-4.11819E+01-4.21569E+05 1.13852E+02-1.08223E+02-1.62864E-10-8.29459E-09
 -1         5-2.39744E+01 3.20522E+05 8.44674E+00 5.09556E-01 2.68643E-10 2.41380E-08
 -1         8-7.73818E+05-4.31437E+05 5.35484E+04-9.06842E+05 7.27596E-11-3.82424E-08
 -1         9 3.80817E+06 3.09106E+06 1.11736E+06 3.06199E+06-1.32306E-08 2.96161E-08
 -1        10-2.92423E+02-4.39135E+05-4.33239E+01-7.21384E+02-2.46291E-09-1.80208E-08
 -1        12-2.05456E+01 3.20540E+05 2.74989E+02 3.73852E+00 4.15525E-10-1.68657E-08
 -1        15 3.08710E+03 1.69660E+03 9.97916E+03 9.75518E+00-3.38616E-10 8.84061E-08
 -1        16 4.45537E+06 4.53431E+06 1.40530E+06 4.87070E+06 1.40086E-08-7.07805E-08
 -1        17 6.56747E+06 4.83821E+04 1.03827E+06-4.66761E+05-4.06726E-10-2.59257E-08
 -1        18 2.28871E+05 5.00452E+04 3.20383E+04-7.01500E+04 1.68393E-09-4.35739E-09
 -1        19 9.94355E+04 1.20436E+05-4.28187E+02 1.95998E+04-1.22345E-09-1.51340E-09
 -1        20-3.66480E+04-4.69759E+05-1.03307E+05 3.69222E+04 4.01997E-09-2.92008E-09
 -1        21-4.50121E+01-2.77320E+05-9.00990E+02-1.89361E+02-1.79003E-08 1.51350E-09
 -1        24 9.59891E+06-3.57804E+05 1.51115E+06-1.23952E+06 4.60471E-08 1.09624E-08
 -1        25 1.40972E+05 4.51856E+05 1.31628E+05-1.32004E+05 9.18590E-10-5.51081E-09
 -1        26-1.74445E+04 8.40988E+04-1.50849E+04-1.47285E+04 2.05255E-09 4.48960E-09
 -1        27-7.75355E+04-2.58471E+05-9.72775E+04 5.82938E+04 7.41420E-09-6.34827E-10
 -1        28 2.16138E+04-7.59837E+04 1.56447E+04 2.54629E+04 3.62550E-09-9.79192E-10
 -1        32-7.76459E+05 9.85040E+05 6.99111E+05-6.91322E+05-1.30385E-08 3.12670E-08
 -1        33-1.46114E+05 7.69789E+04 2.71611E+04-4.78458E+04 1.90547E-09-5.97841E-10
 -1        34-1.92504E+05-1.88855E+04 4.15025E+02 5.82122E+04 5.80523E-09-5.74649E-10
 -1        35-2.19298E+04-3.01765E+04-1.18548E+03 4.83204E+04 3.10502E-09-5.49456E-09
 -1        51 7.29675E+03-5.85935E+05 2.93971E+04-1.41564E+06-1.74623E-10 4.61587E-08
 -1        52 1.20722E+04-5.93738E+05 2.45742E+04-1.65136E+06 1.45519E-11-6.18165E-08
 -1        53 1.34264E+04-6.15777E+05 2.62214E+04-1.41065E+06 1.28057E-09-9.34378E-08
 -1        54 3.64429E+04-6.18549E+05 4.92105E+04-1.65638E+06 1.14960E-09-2.47383E-09
 -1        55 6.48196E+04-6.39173E+05 9.15464E+04-1.40963E+06 1.41154E-09-3.86499E-08
 -1        56-3.38809E+06-3.78235E+05-2.52868E+05-1.29601E+06 9.88803E-09-1.17725E-08
 -1        57-3.45265E+06-6.46472E+05-1.70789E+05-1.32637E+06-1.90107E-08-3.48100E-08
 -1        58-3.44524E+06-4.52854E+05-5.94527E+04-1.27180E+06 2.19370E-08-5.63086E-08
 -1        59-3.38605E+06-5.59880E+05-3.56578E+04-1.35660E+06 1.01647E-09-6.03177E-08
 -1        60-3.45477E+06-4.62176E+05-1.38720E+04-1.26697E+06-6.55382E-09-2.88319E-08
 -1        61-3.37871E+06-5.44743E+05-7.93572E+03-1.35721E+06 3.84534E-09-1.05929E-07
 -1        62-3.45238E+06-4.67753E+05-4.03394E+03-1.27121E+06 1.47948E-08 3.25676E-08
 -1        63-3.38895E+06-5.30222E+05-3.16234E+03-1.34170E+06-1.11322E-09 4.90081E-08
 -1        64-3.44377E+06-4.77156E+05-4.50169E+03-1.28195E+06-5.27507E-11 7.59010E-08
 -1        65-3.41022E+06-5.10447E+05-8.13182E+03-1.31569E+06 2.21780E-09 7.57657E-08
 -1        66-3.43037E+06-4.88063E+05-1.56242E+04-1.29665E+06-3.71165E-09 4.15939E-08
 -1        67-3.44497E+06-4.99749E+05-3.83367E+04-1.28389E+06 1.19574E-08-3.82397E-08
 -1        68-3.40902E+06-4.88253E+05-6.51457E+04-1.31357E+06-2.61705E-08-8.65111E-09
 -1        69-3.53324E+06-5.81327E+05-1.86060E+05-1.23853E+06 9.65429E-09 9.56243E-09
 -1        70-3.34334E+06-4.08491E+05-2.75417E+05-1.34164E+06-2.03581E-08-9.95351E-09
 -1        86-8.49336E+02 1.10098E+05 5.39385E+03-4.05291E+02 2.86127E-09-1.26964E-07
 -1        87 5.35062E+03 1.17532E+05 1.23056E+04 1.65571E+03 4.88205E-09 5.49801E-08
 -1        88-4.61599E+03 1.08143E+05 1.77743E+04-1.25168E+03 7.00220E-09 3.70188E-08
 -1        89 3.40801E+04 1.31318E+05 4.93223E+04 3.55835E+03 1.09731E-08-3.48255E-08
 -1        90-2.95105E+04 9.63560E+04 6.84401E+04-2.30873E+03 1.12777E-08-6.13354E-08
 -1       121-6.72369E+01-4.21768E+05 1.04103E+02 5.40568E+01 2.48555E-10-1.24446E-08
 -1       122-8.80607E+00-4.21547E+05 2.46884E+02-2.16647E+02-9.84830E-10-7.07223E-09
 -1       123-9.08483E+01-4.21792E+05 3.99621E+02 1.62263E+02 7.08042E-10-9.78343E-09
 -1       124 3.87090E+02-4.21301E+05 1.02055E+03-5.22183E+02-1.80944E-09-1.21327E-08
 -1       125-3.49145E+02-4.22019E+05 1.60884E+03 3.59490E+02 1.29739E-09-1.13550E-08
 -1       191-2.54407E+01 3.20546E+05 9.19213E+00-2.60092E-01 3.27304E-10 1.36315E-08
 -1       192-2.47615E+01 3.20523E+05 1.79281E+01 1.94426E+00 4.32899E-10 5.02769E-09
 -1       193-2.75277E+01 3.20545E+05 3.24620E+01-1.71755E+00 5.62292E-10-2.22499E-08
 -1       194-2.72916E+01 3.20525E+05 6.79189E+01 4.53561E+00 2.50267E-10-3.23216E-08
 -1       195-3.15363E+01 3.20543E+05 1.31969E+02-2.89282E+00 7.64615E-10-2.27101E-08
 -1       251 2.08474E+06-1.37472E+05 3.20700E+05 2.76256E+04-3.26781E-09-3.20433E-08
 -1       252 2.23487E+06 1.58904E+05 2.28061E+05-5.48717E+04 5.34601E-09-1.10875E-07
 -1       253 2.14291E+06-2.11392E+04 8.32724E+04 6.25285E+03-5.75687E-09-1.01114E-07
 -1       254 2.16697E+06 2.44725E+04 5.23336E+04-2.56871E+04 1.03562E-08-9.05593E-08
 -1       255 2.15228E+06-3.24039E+03 2.14903E+04-1.55570E+03-2.17750E-09 1.58590E-07
 -1       256 2.15609E+06 3.84833E+03 1.28316E+04-1.53946E+04 2.18209E-09 1.24123E-07
 -1       257 2.15378E+06-5.37825E+02 6.40662E+03-4.03971E+03 2.23621E-09-8.52938E-08
 -1       258 2.15454E+06 1.04226E+03 5.22361E+03-1.33048E+04-6.77594E-09 1.47912E-07
 -1       259 2.15383E+06-4.37292E+02 5.50507E+03-3.64558E+03 5.09026E-09-4.59831E-08
 -1       260 2.15572E+06 2.97813E+03 1.02435E+04-1.73564E+04-2.26883E-09-2.04542E-07
 -1       261 2.15261E+06-2.47871E+03 1.67911E+04 1.19232E+01 1.45093E-09 1.88375E-08
 -1       262 2.16488E+06 1.88058E+04 4.07763E+04-3.15228E+04-2.39038E-09 8.87776E-08
 -1       263 2.14475E+06-1.62909E+04 6.44906E+04 1.05210E+04 3.05897E-09-6.29661E-08
 -1       264 2.22320E+06 1.23230E+05 1.78115E+05-7.02859E+04-6.13011E-09 3.29746E-08
 -1       265 2.09501E+06-1.07036E+05 2.47503E+05 3.87749E+04-9.94532E-10 7.63976E-09
 -1       266-5.58825E+04-2.61198E+04 1.31170E+05-2.08803E+02 6.54836E-11-4.61242E-08
 -1       267 6.47879E+04 3.04604E+04 9.26819E+04 2.40828E+02 8.05812E-10 1.05851E-07
 -1       268-8.68773E+03-4.31311E+03 3.44510E+04-3.06906E+01-2.72848E-11 6.12700E-08
 -1       269 1.02579E+04 5.16291E+03 2.23911E+04 3.57446E+01 5.90035E-10 1.23099E-07
 -1       270-1.53972E+03-8.48262E+02 1.08086E+04-4.85102E+00 2.59206E-11 5.00325E-08
 -1       271-5.68333E+06-7.18815E+05-4.44473E+05-2.22806E+06-3.22325E-09 3.56231E-08
 -1       272-5.79390E+06-1.08607E+06-2.84989E+05-2.27319E+06 1.32568E-08-8.29823E-09
 -1       273-5.77571E+06-8.19861E+05-1.05117E+05-2.19827E+06-9.48603E-09 1.62254E-08
 -1       274-5.68491E+06-9.64174E+05-5.84119E+04-2.32204E+06 1.14305E-08-6.81102E-08
 -1       275-5.79392E+06-8.23947E+05-2.44333E+04-2.18743E+06-1.10522E-08 1.21927E-07
 -1       276-5.66482E+06-9.58837E+05-1.29546E+04-2.33929E+06 9.17362E-09 7.32502E-08
 -1       277-5.79847E+06-8.21817E+05-6.48289E+03-2.18366E+06-1.90623E-08-1.61092E-08
 -1       278-5.66270E+06-9.58188E+05-5.06050E+03-2.34091E+06 3.09765E-08-6.70448E-08
 -1       279-5.79631E+06-8.24277E+05-6.12551E+03-2.18606E+06-3.11138E-09-1.47602E-07
 -1       280-5.67088E+06-9.50641E+05-1.13842E+04-2.32837E+06 2.03090E-09-4.46962E-08
 -1       281-5.78773E+06-8.31109E+05-2.19188E+04-2.19434E+06-3.15049E-09-1.82263E-09
 -1       282-5.69601E+06-9.46642E+05-5.10919E+04-2.30217E+06-2.00380E-08 7.89605E-08
 -1       283-5.76726E+06-8.32232E+05-9.28088E+04-2.20878E+06-8.21092E-09 8.93342E-08
 -1       284-5.80008E+06-1.04498E+06-2.49882E+05-2.24979E+06-1.87501E-08-9.34451E-08
 -1       285-5.68220E+06-7.47512E+05-3.90626E+05-2.23931E+06 8.37099E-09-7.23230E-08
 -1       301-2.72548E+02 2.46290E+05 9.86641E+04 6.23332E+05-2.18461E-09 2.56696E-08
 -1       302-1.38654E+03 2.74286E+05 7.66011E+04 9.12666E+05 2.40107E-09-7.99555E-08
 -1       303-9.68633E+03 2.51495E+05 7.73267E+04 6.21794E+05-1.72076E-09 7.28869E-09
 -1       304 1.64233E+04 2.93569E+05 1.37588E+05 9.12275E+05 2.21189E-09 2.90529E-08
 -1       305 1.77671E+04 2.31592E+05 2.33385E+05 6.24141E+05-7.13044E-10-4.84870E-08
 -1       306-1.52636E+07-9.30228E+06-5.39522E+06-7.98637E+06 8.69622E-08-1.07830E-08
 -1       307 8.64590E+05 1.50752E+07 3.40016E+06 8.60930E+06 6.51984E-07-3.11120E-08
 -1       308-2.29471E+06-7.39426E+06-8.51405E+05-4.67159E+06 6.30389E-08-7.18574E-08
 -1       309-1.52815E+07 1.37673E+07 9.95595E+05-2.06361E+06-1.50489E-07 1.25339E-07
 -1       310-1.50790E+06-6.90792E+06-3.78592E+05-4.31576E+06-1.86701E-08 2.84344E-08
 -1       311-1.85141E+06 1.46279E+07 3.23683E+06 7.56606E+06-7.51454E-07 2.24682E-07
 -1       312-1.38284E+07-9.02150E+06-4.17774E+06-8.13730E+06-1.20432E-07-1.56229E-07
 -1       313 2.40374E+07 5.46071E+06 5.83838E+06 1.02200E+07 2.69385E-07-1.42769E-07
 -1       314-2.00951E+07-3.68007E+06-4.42656E+06-2.94750E+06-3.46219E-07-2.55386E-09
 -1       315 1.62339E+07-1.06404E+06 3.60531E+06-7.08916E+06 3.55270E-07 1.17536E-07
 -1       316-9.48739E+06-1.98860E+05-7.13428E+05 2.67740E+06 3.70841E-07 4.47078E-07
 -1       317-3.25766E+06 1.75381E+06 9.95480E+05-1.44461E+07-7.06335E-07 2.25555E-07
 -1       318-8.39321E+06-3.55006E+04-5.23268E+05 2.84373E+06 4.83735E-07 8.07340E-08
 -1       319 1.37833E+07-2.53981E+05 3.02074E+06-8.72427E+06 6.86850E-08 9.14515E-08
 -1       320-1.98620E+07-3.75156E+06-5.15483E+06-1.94544E+06-1.20606E-07-8.14907E-10
 -1       336 2.72550E+02-4.56629E+05-1.42390E+03 3.61103E+02-4.89081E-09-9.47603E-09
 -1       337-4.36544E+02-4.56867E+05-4.08349E+02-9.86538E+02-9.03799E-09-4.32919E-09
 -1       338-1.43545E+02-4.56960E+05 7.08733E+02 6.23508E+02-6.46696E-09-1.49339E-09
 -1       339 1.29330E+03-4.55843E+05 2.67395E+03-1.50183E+03-1.16796E-08 1.32832E-09
 -1       340-1.06199E+03-4.57673E+05 4.42407E+03 8.77326E+02-7.74207E-09 5.56156E-09
 -1       406-4.19885E-01 3.20531E+05 5.41966E+02-9.57146E-01 1.10896E-09-4.11455E-09
 -1       407 1.68855E+02 3.20635E+05 1.15384E+03-1.48642E+01 3.58682E-11-8.27640E-11
 -1       408 5.72804E+02 3.20447E+05 2.30326E+03 1.61662E+01 1.22213E-09 2.09729E-09
 -1       409 2.47274E+03 3.21371E+05 5.18715E+03-1.63527E+02 9.04947E-11-2.14095E-09
 -1       410 7.14132E+03 3.19790E+05 1.05885E+04 1.55423E+02 1.34969E-09-4.34738E-09
 -1       521-1.57483E+07-9.79715E+06-5.63124E+06-7.93952E+06 6.92671E-08-1.96029E-07
 -1       522-1.45501E+06 1.57910E+07 3.19989E+06 8.22691E+06 4.94096E-07-8.37026E-08
 -1       523-2.93544E+06-7.95573E+06-8.25956E+05-5.20947E+06 5.70435E-08 2.14553E-07
 -1       524-1.79922E+07 1.47807E+07 9.86689E+05-3.17138E+06-3.22376E-07 5.64585E-07
 -1       525-2.20582E+06-7.53981E+06-3.54883E+05-4.92908E+06-2.38899E-07 4.28554E-07
 -1       526-4.10527E+06 1.54524E+07 3.11887E+06 7.17340E+06-2.05458E-07 7.50879E-08
 -1       527-1.43995E+07-9.51828E+06-4.34977E+06-8.11352E+06-2.31317E-07 5.90808E-08
 -1       528 2.31362E+07 5.04787E+06 5.56075E+06 9.98698E+06-1.56811E-07-3.72529E-08
 -1       529-2.05573E+07-4.23861E+06-4.60235E+06-2.91220E+06 9.26666E-08-1.66037E-08
 -1       530 1.50151E+07-1.40951E+06 3.44337E+06-8.62079E+06 3.72063E-07-1.26412E-07
 -1       531-1.06157E+07-2.68574E+05-6.74491E+05 2.65872E+06 4.53729E-07 1.55531E-07
 -1       532-5.28079E+06 2.08155E+06 9.90241E+05-1.62720E+07-7.60884E-07 2.89176E-07
 -1       533-9.68008E+06-8.38512E+04-5.04782E+05 2.83255E+06-4.06988E-07 5.36915E-07
 -1       534 1.26201E+07-5.34010E+05 2.88536E+06-1.02375E+07 3.62052E-07-3.65595E-07
 -1       535-2.03723E+07-4.29223E+06-5.35992E+06-2.00212E+06 3.70201E-08-2.49012E-07
 -1       536 7.09563E+05-4.74875E+04 1.09296E+05 5.30525E+03-7.02750E-09 6.57019E-09
 -1       537 7.60242E+05 5.49092E+04 7.78718E+04-8.49915E+03-3.24053E-09-4.04452E-09
 -1       538 7.29254E+05-7.39243E+03 2.83547E+04 1.22718E+03-6.64102E-10-5.44424E-09
 -1       539 7.37380E+05 8.54857E+03 1.78576E+04-3.14943E+03-1.24669E-09-2.58387E-09
 -1       540 7.32406E+05-1.15015E+03 7.28018E+03-4.43275E+01-5.30022E-10-1.15051E-10
 -1       541 7.33719E+05 1.34310E+03 4.31454E+03-1.47955E+03-2.86278E-11 3.51065E-09
 -1       542 7.32919E+05-1.90611E+02 2.04920E+03-4.42723E+02-5.80159E-10-2.44825E-10
 -1       543 7.33162E+05 3.07964E+02 1.50314E+03-9.85080E+02 6.84622E-10-1.03753E-09
 -1       544 7.32964E+05-1.15490E+02 1.36031E+03-5.38807E+02-3.55108E-11-2.78271E-09
 -1       545 7.33354E+05 6.94719E+02 2.32223E+03-9.58582E+02-3.80163E-10-2.92980E-09
 -1       546 7.32726E+05-5.77082E+02 3.69420E+03-4.69222E+02 2.92768E-10 7.83984E-10
 -1       547 7.35095E+05 4.25864E+03 8.88595E+03-1.36246E+03-7.45555E-11 3.22643E-09
 -1       548 7.31220E+05-3.67682E+03 1.40812E+04-1.34916E+02 4.88589E-10 1.83809E-09
 -1       549 7.45775E+05 2.71763E+04 3.84547E+04-2.78475E+03 9.17659E-10 1.58675E-08
 -1       550 7.22037E+05-2.34768E+04 5.42859E+04 9.53066E+02-2.59092E-10 4.75120E-09
 -1       551 8.57768E+03-5.04274E+05 3.96309E+03-1.16030E+06-2.59315E-08 6.91216E-09
 -1       552 2.90548E+04-5.19845E+05 2.12136E+04-1.65238E+06-2.17551E-08 2.66118E-08
 -1       553 2.18668E+04-5.23029E+05 4.25110E+04-1.15696E+06-3.31347E-08 7.70706E-09
 -1       554 5.44954E+04-5.04573E+05 9.65530E+04-1.65279E+06-2.09839E-08-7.15954E-09
 -1       555 4.34875E+04-5.32526E+05 1.73087E+05-1.15951E+06-3.03626E-08-3.39787E-09
 -1       556 2.50234E+04-1.17408E+05 3.76148E+04-1.60587E+05-4.62023E-09-8.93488E-09
 -1       557 7.08577E+04-1.56033E+05 1.97200E+04-1.98822E+05 1.12050E-09 7.88532E-09
 -1       558 2.52084E+04-1.22624E+05 8.05242E+03-1.56155E+05-3.73257E-09-4.14002E-09
 -1       559 6.51755E+04-1.61240E+05 4.06848E+03-2.01194E+05 3.81988E-09 4.17731E-09
 -1       560 2.41531E+04-1.21913E+05 1.73414E+03-1.56791E+05-8.73115E-11 6.42467E-09
 -1       561 6.34754E+04-1.60867E+05 9.05223E+02-2.02264E+05 5.96629E-10 2.18370E-09
 -1       562 2.33290E+04-1.21347E+05 3.73639E+02-1.57384E+05 1.24419E-09 1.01777E-08
 -1       563 6.25406E+04-1.60472E+05 2.12933E+02-2.02865E+05-6.80302E-10-2.65572E-10
 -1       564 2.28793E+04-1.21050E+05 7.33520E+01-1.57704E+05 4.20732E-09 3.12139E-09
 -1       565 6.21643E+04-1.60314E+05 5.11809E+00-2.03099E+05 2.89219E-09 3.19596E-09
 -1       566 2.28266E+04-1.21007E+05-1.11238E+02-1.57748E+05 6.33690E-10 3.00133E-09
 -1       567 6.22922E+04-1.60375E+05-2.96466E+02-2.02944E+05 1.21508E-09 3.09228E-10
 -1       568 2.32142E+04-1.21257E+05-6.95112E+02-1.57541E+05 1.76624E-09-1.62981E-09
 -1       569 6.20967E+04-1.60498E+05-1.59573E+03-2.01818E+05 4.36557E-09-1.51158E-08
 -1       570 2.46701E+04-1.22775E+05-3.22994E+03-1.57332E+05 7.46513E-09 2.87400E-09
 -1       571 2.28470E+05 7.97403E+03 1.18747E+04-5.53057E+04-2.36923E-09-3.81988E-11
 -1       572 2.30236E+05 2.74671E+03 5.81824E+03-6.06079E+04-4.93083E-09-2.10071E-09
 -1       573 2.29171E+05 6.29173E+02 2.58459E+03-5.51502E+04-4.02633E-09 2.91766E-09
 -1       574 2.29378E+05 1.80602E+02 1.29510E+03-6.07775E+04-4.38058E-09 1.08366E-09
 -1       575 2.29242E+05-9.84845E-01 6.10186E+02-5.51300E+04-1.69007E-08-1.39289E-09
 -1       576 2.29257E+05-2.37268E+01 3.10382E+02-6.08001E+04-3.30407E-08 2.62207E-09
 -1       577 2.29251E+05-3.27962E+01 1.52241E+02-5.51274E+04-2.53800E-08 1.16947E-08
 -1       578 2.29244E+05-3.30274E+01 8.17338E+01-6.08029E+04-1.67935E-08 1.13973E-08
 -1       579 2.29264E+05-3.48711E+01 4.74630E+01-5.51273E+04-9.02537E-09-1.06547E-09
 -1       580 2.29262E+05-4.08592E+01 4.01921E+01-6.07998E+04-1.68120E-09-5.14638E-09
 -1       581 2.29290E+05-4.58140E+01 4.95654E+01-5.51304E+04-3.71892E-09-9.68930E-09
 -1       582 2.29306E+05-4.61347E+01 9.12138E+01-6.07684E+04-2.59979E-09-5.05452E-09
 -1       583 2.29326E+05-2.69252E+01 1.71789E+02-5.51587E+04-2.55204E-09 2.93585E-09
 -1       584 2.29416E+05 9.85478E+01 3.84911E+02-6.05312E+04-5.75528E-09 2.78374E-09
 -1       585 2.29329E+05 4.35614E+02 7.79074E+02-5.53681E+04-2.00089E-09-3.32875E-09
 -1       586-3.05421E+03 7.29689E+04-4.34129E+03-1.80664E+05 1.25510E-09-3.89400E-09
 -1       587-6.05175E+02 7.23409E+04-8.60271E+02-1.98762E+05 1.53887E-09 2.04375E-09
 -1       588 8.05976E+02 7.25278E+04 2.16121E+03-1.80534E+05 1.38789E-09 1.51517E-08
 -1       589 3.68041E+03 7.38014E+04 6.81581E+03-1.98633E+05 2.25100E-09 7.16273E-09
 -1       590 1.02801E+04 7.17005E+04 1.47710E+04-1.80788E+05 1.48793E-09 8.72387E-09
 -1       591-5.02461E+04-1.50578E+04-1.70418E+04-2.68898E+04-7.09133E-09-2.24645E-10
 -1       592-5.16096E+04-1.94743E+04-9.23040E+03-3.15960E+04-1.10495E-08-4.66810E-09
 -1       593-5.19737E+04-1.37982E+04-3.84286E+03-2.81181E+04-1.03707E-08-2.74690E-09
 -1       594-4.92327E+04-1.70007E+04-1.91648E+03-3.17203E+04-1.02200E-08-2.24580E-09
 -1       595-5.21069E+04-1.37915E+04-8.80810E+02-2.81750E+04-3.98916E-09 2.18333E-09
 -1       596-4.90727E+04-1.68872E+04-4.48957E+02-3.17046E+04 4.14957E-10-3.05533E-10
 -1       597-5.21240E+04-1.38021E+04-2.47224E+02-2.81775E+04-1.18538E-09 2.30898E-09
 -1       598-4.90575E+04-1.68829E+04-2.03782E+02-3.17000E+04 5.84123E-10-2.10332E-09
 -1       599-5.21224E+04-1.38024E+04-2.66701E+02-2.81769E+04-2.36093E-09-1.36959E-09
 -1       600-4.90739E+04-1.68889E+04-5.00497E+02-3.17035E+04-1.99361E-09-4.15486E-09
 -1       601-5.21004E+04-1.37912E+04-9.90194E+02-2.81729E+04 9.97261E-10-4.82601E-09
 -1       602-4.92533E+04-1.70170E+04-2.15919E+03-3.17185E+04 2.32376E-09-1.22895E-09
 -1       603-5.19482E+04-1.38011E+04-4.33114E+03-2.81088E+04-2.17005E-09 4.00678E-09
 -1       604-5.19389E+04-1.97964E+04-1.04033E+04-3.15666E+04-2.26646E-09 4.10955E-09
 -1       605-4.99906E+04-1.52279E+04-1.92070E+04-2.67321E+04-4.94310E-10 8.92032E-09
 -1       606 3.50068E+04-1.10276E+04-1.98708E+04 3.42793E+04-5.98629E-09-2.44472E-09
 -1       607 3.16004E+04-3.54571E+03-9.89365E+03 3.84763E+04-1.00044E-09-1.33014E-08
 -1       608 3.35182E+04-5.88077E+02-4.43237E+03 3.40035E+04 3.43971E-09-5.90944E-09
 -1       609 3.31249E+04-1.31831E+02-2.23801E+03 3.87768E+04-2.58660E-09-3.32420E-09
 -1       610 3.33229E+04 5.15612E+01-1.07041E+03 3.39727E+04-8.68386E-09-1.44473E-09
 -1       611 3.32399E+04 7.78427E+01-5.39603E+02 3.88095E+04-1.46701E-08-5.01132E-09
 -1       612 3.32608E+04 7.82309E+01-2.59341E+02 3.39697E+04-5.26052E-09 2.71029E-09
 -1       613 3.32224E+04 9.58984E+01-1.18527E+02 3.88132E+04-7.50515E-09 2.20007E-09
 -1       614 3.32231E+04 8.63733E+01-3.49049E+01 3.39687E+04-2.54659E-11-3.70164E-10
 -1       615 3.31971E+04 1.08664E+02 3.35851E+01 3.88137E+04 9.16134E-09-5.83532E-09
 -1       616 3.31948E+04 9.83587E+01 1.15328E+02 3.39691E+04-5.08408E-09 3.97495E-09
 -1       617 3.31954E+04 1.42762E+02 2.69486E+02 3.88130E+04 2.50884E-09 4.98085E-09
 -1       618 3.31598E+04 1.83356E+02 5.45149E+02 3.39692E+04-1.02000E-09 4.98540E-09
 -1       619 3.33784E+04 5.70246E+02 1.22577E+03 3.88119E+04-7.84894E-10 4.13002E-09
 -1       620 3.29728E+04 1.48141E+03 2.46397E+03 3.39669E+04 1.37254E-09-1.06547E-09
 -1       621 4.63819E+02 2.56357E+05 3.93275E+03 4.04335E+03-6.88090E-10 2.00885E-09
 -1       622 5.19921E+02 2.57335E+05 3.21684E+03 5.96689E+03-4.51109E-10 1.22786E-08
 -1       623 1.90424E+01 2.56656E+05 3.54104E+03 4.02494E+03-4.48210E-10 1.41748E-08
 -1       624 1.55731E+03 2.58288E+05 6.58606E+03 5.98306E+03-5.51495E-10 1.41993E-08
 -1       625 1.56229E+03 2.55401E+05 1.13844E+04 4.02843E+03-3.27873E-10 9.95472E-09
 -1       626 2.04848E+05 5.83002E+04 3.91332E+03 1.12918E+05-4.99722E-09 1.88811E-09
 -1       627 2.01838E+05 6.06022E+04 1.88640E+03 1.17566E+05-3.56158E-09 2.24077E-09
 -1       628 2.04999E+05 5.64335E+04 7.95688E+02 1.13479E+05 8.62019E-09 1.54423E-08
 -1       629 2.01236E+05 6.01833E+04 3.90755E+02 1.17836E+05 5.68070E-09-1.67796E-09
 -1       630 2.04998E+05 5.63507E+04 1.80220E+02 1.13485E+05-7.07587E-10-5.22402E-09
 -1       631 2.01153E+05 6.01801E+04 9.76583E+01 1.17832E+05-8.02902E-09-4.51818E-09
 -1       632 2.04979E+05 5.63628E+04 6.50732E+01 1.13471E+05-1.44310E-08-1.21551E-08
 -1       633 2.01131E+05 6.01897E+04 7.42746E+01 1.17818E+05-3.94903E-09 3.26008E-09
 -1       634 2.04961E+05 5.63668E+04 1.21166E+02 1.13462E+05 1.03819E-08-5.18867E-10
 -1       635 2.01131E+05 6.01937E+04 2.46640E+02 1.17814E+05 6.61589E-09 4.58522E-09
 -1       636 2.04945E+05 5.63676E+04 4.98282E+02 1.13456E+05 5.26597E-10-4.44379E-09
 -1       637 2.01230E+05 6.02738E+04 1.09518E+03 1.17808E+05 5.69773E-09 5.74300E-09
 -1       638 2.04901E+05 5.66118E+04 2.25070E+03 1.13343E+05 1.58086E-08-6.64750E-09
 -1       639 2.02408E+05 6.19203E+04 5.32425E+03 1.17460E+05 2.63963E-08-3.45590E-08
 -1       640 2.04749E+05 6.15085E+04 1.10488E+04 1.11259E+05 1.75542E-08-3.44744E-09
 -1       656 5.63440E+04-1.42250E+06-1.35985E+05 4.00038E+02 9.89530E-10 3.11027E-09
 -1       657-7.44378E+04-1.48382E+06-1.12413E+05 9.91604E+03 1.24783E-09 2.87758E-09
 -1       658 1.78440E+04-1.44000E+06-6.89142E+04-1.36058E+03 1.48384E-09-2.03928E-09
 -1       659-7.96520E+04-1.48631E+06-1.19262E+05 1.10554E+04-1.62891E-09 4.30808E-10
 -1       660 6.15472E+04-1.42003E+06-1.47754E+05-7.39319E+02-2.17551E-09-1.12618E-09
 -1       661 2.14539E+05 2.35524E+04 2.03474E+04 8.39581E+04 1.66483E-09-2.62025E-09
 -1       662 2.25075E+05 3.95723E+04 1.37106E+04 8.04928E+04 1.10452E-09-7.36759E-09
 -1       663 2.18533E+05 3.00808E+04 4.79619E+03 8.28006E+04 1.33014E-11-1.89630E-09
 -1       664 2.20450E+05 3.19338E+04 2.86750E+03 8.19037E+04 4.53150E-09 3.06954E-12
 -1       665 2.19135E+05 3.09763E+04 1.13099E+03 8.26286E+04 9.68043E-11-1.18031E-08
 -1       666 2.19741E+05 3.09071E+04 6.59345E+02 8.21270E+04-9.13121E-09-1.91829E-09
 -1       667 2.19238E+05 3.10804E+04 3.47044E+02 8.25875E+04 3.00304E-10-1.44714E-09
 -1       668 2.19627E+05 3.08291E+04 3.46793E+02 8.21885E+04 5.81680E-09-1.27833E-08
 -1       669 2.19248E+05 3.10517E+04 4.63602E+02 8.25680E+04 4.74330E-09-7.93332E-09
 -1       670 2.19736E+05 3.10815E+04 1.00431E+03 8.21962E+04 1.12398E-08 3.81291E-10
 -1       671 2.19130E+05 3.08329E+04 1.78127E+03 8.25777E+04-2.98002E-11 2.88242E-09
 -1       672 2.20767E+05 3.28206E+04 4.55594E+03 8.19532E+04-8.64664E-09 2.30824E-09
 -1       673 2.18222E+05 2.93561E+04 7.63439E+03 8.27943E+04-5.91228E-09 7.55790E-10
 -1       674 2.28030E+05 4.50884E+04 2.18321E+04 7.98225E+04 7.62839E-11-3.44471E-10
 -1       675 2.11914E+05 1.89079E+04 3.24063E+04 8.45789E+04 1.73168E-09-1.79352E-09
 -1       676 2.34479E+01-2.77244E+05-1.08593E+03 9.46829E+01-7.87225E-10 4.75169E-09
 -1       677-2.87808E+02-2.77507E+05-1.98742E+03-1.89230E+02-7.05381E-09-3.30469E-09
 -1       678 1.92592E+02-2.77057E+05-3.51326E+03 9.44820E+01-1.48680E-09-3.32167E-09
 -1       679-3.51379E+03-2.79628E+05-8.34597E+03-1.88497E+02-7.40783E-09-1.11677E-09
 -1       680 2.09751E+03-2.75124E+05-1.34508E+04 9.28622E+01-9.19499E-10 4.91044E-09
 -1       771-2.99434E+06-4.78173E+05-1.10762E+05-1.17982E+06-8.05085E-09-7.87986E-09
 -1       772-3.00584E+06-5.02725E+05-5.98567E+04-1.20552E+06-3.18687E-09 2.70666E-09
 -1       773-3.00655E+06-4.69089E+05-2.51127E+04-1.18713E+06 1.56433E-09 5.09317E-10
 -1       774-2.98972E+06-4.87805E+05-1.24242E+04-1.20824E+06 8.60746E-09-5.83896E-09
 -1       775-3.00825E+06-4.68294E+05-5.82248E+03-1.18721E+06 6.51198E-09-3.76895E-09
 -1       776-2.98839E+06-4.87708E+05-2.80960E+03-1.20951E+06 1.24910E-08 1.30331E-09
 -1       777-3.00912E+06-4.67731E+05-1.45439E+03-1.18704E+06 5.75892E-09-1.61890E-09
 -1       778-2.98807E+06-4.88165E+05-7.43131E+02-1.21064E+06 1.19326E-09 4.93310E-09
 -1       779-3.00976E+06-4.67218E+05-5.78820E+02-1.18689E+06-4.99858E-09-6.87123E-09
 -1       780-2.98795E+06-4.88553E+05-5.96821E+02-1.21157E+06-1.14960E-09 5.02041E-10
 -1       781-3.01023E+06-4.66792E+05-1.01833E+03-1.18678E+06-4.07090E-09-2.62844E-09
 -1       782-2.98805E+06-4.88947E+05-2.04253E+03-1.21227E+06-6.23368E-09-3.66083E-09
 -1       783-3.01043E+06-4.66518E+05-4.06659E+03-1.18666E+06-7.09406E-10-3.27736E-09
 -1       784-2.99048E+06-4.91756E+05-9.72608E+03-1.21259E+06-3.23234E-09-6.05269E-10
 -1       785-3.00883E+06-4.67659E+05-1.79618E+04-1.18531E+06-6.59111E-09 1.17325E-10
 -1       786 2.40084E+05-1.19353E+04 2.76144E+04 9.83560E+01 6.45461E-06-2.16532E-08
 -1       787 2.52048E+05 1.38175E+04 1.95364E+04 7.38022E+00 1.28537E-05-1.19526E-08
 -1       788 2.44701E+05-1.87100E+03 7.14792E+03 8.35796E+01 8.80068E-06 1.81649E-08
 -1       789 2.46670E+05 2.16496E+03 4.49176E+03 2.69321E+01 4.71292E-06-1.47605E-09
 -1       790 2.45463E+05-2.92324E+02 1.82923E+03 7.88075E+01 1.36409E-06 8.08677E-09
 -1       791 2.45782E+05 3.40100E+02 1.07685E+03 2.97997E+01-1.98083E-06 1.69403E-08
 -1       792 2.45590E+05-4.75203E+01 4.97100E+02 8.07125E+01-4.09584E-06-7.73190E-09
 -1       793 2.45640E+05 6.94896E+01 3.37158E+02 1.87001E+01-6.19776E-06 7.03864E-11
 -1       794 2.45605E+05-2.18937E+01 2.67216E+02 8.99074E+01-3.10804E-06-1.17905E-08
 -1       795 2.45664E+05 1.19786E+02 4.11740E+02-1.07596E+01-9.75980E-09 1.40827E-08
 -1       796 2.45566E+05-9.77833E+01 6.31989E+02 1.10173E+02-9.24334E-10-2.71103E-09
 -1       797 2.45955E+05 7.18699E+02 1.50278E+03-7.07982E+01-1.25082E-09-1.18142E-08
 -1       798 2.45313E+05-6.20371E+02 2.37595E+03 1.49947E+02-8.35620E-10 4.07317E-09
 -1       799 2.47741E+05 4.58147E+03 6.48130E+03-1.87343E+02-8.09806E-10-2.98178E-09
 -1       800 2.43780E+05-3.95745E+03 9.15529E+03 2.26717E+02-3.43462E-10 9.27275E-09
 -1       801-9.58546E+04 2.11672E+06 2.15148E+05 1.54090E+04 9.96079E-09-3.52520E-09
 -1       802 1.41326E+05 2.30735E+06 2.24414E+05-1.19535E+05 2.67901E-08 1.04228E-09
 -1       803-4.28327E+04 2.18029E+06 1.75490E+05-3.30917E+04 2.02199E-08 1.55204E-08
 -1       804 2.62916E+05 2.37260E+06 3.83731E+05-1.26941E+05 2.52185E-08 1.89012E-08
 -1       805-2.17344E+05 2.05171E+06 4.84477E+05 2.28070E+04 8.35280E-09 3.63521E-08
 -1       806-2.47925E+05-5.64911E+04-2.25141E+04-1.06761E+05 2.60434E-09-1.04583E-08
 -1       807-2.48926E+05-5.35929E+04-1.10606E+04-1.13102E+05 7.07426E-09-5.87454E-09
 -1       808-2.48582E+05-4.83399E+04-4.69165E+03-1.10562E+05 1.04050E-08 6.72287E-10
 -1       809-2.46545E+05-5.05423E+04-2.29328E+03-1.13446E+05 9.00039E-09-1.17599E-08
 -1       810-2.48684E+05-4.80508E+04-1.04986E+03-1.10729E+05 7.79153E-09-3.36286E-09
 -1       811-2.46363E+05-5.04230E+04-5.20120E+02-1.13422E+05 1.36831E-08 1.18202E-08
 -1       812-2.48701E+05-4.80720E+04-2.58652E+02-1.10728E+05 8.88781E-09-9.85210E-10
 -1       813-2.46338E+05-5.04270E+04-1.61546E+02-1.13407E+05 8.88235E-09-1.07076E-08
 -1       814-2.48697E+05-4.80812E+04-1.48978E+02-1.10723E+05 6.67660E-09-5.71981E-09
 -1       815-2.46337E+05-5.04306E+04-2.30304E+02-1.13400E+05-6.23186E-09-1.16977E-08
 -1       816-2.48678E+05-4.80817E+04-4.30112E+02-1.10718E+05-4.02815E-09-3.44244E-10
 -1       817-2.46407E+05-5.04729E+04-9.20721E+02-1.13388E+05 4.01815E-09 6.94740E-09
 -1       818-2.48618E+05-4.82141E+04-1.87648E+03-1.10655E+05 2.33740E-09-1.87356E-09
 -1       819-2.47442E+05-5.15957E+04-4.41519E+03-1.13127E+05-1.20190E-09-2.46746E-09
 -1       820-2.48253E+05-5.15579E+04-8.98645E+03-1.09232E+05-3.10774E-09-6.44195E-09
 -1       821-3.25223E+05 1.81792E+04-4.20499E+04 2.02386E+02-1.12419E-09-8.91305E-10
 -1       822-3.43401E+05-2.10480E+04-2.97497E+04-1.69855E+03-2.08893E-09-7.19865E-10
 -1       823-3.32228E+05 2.85229E+03-1.08886E+04 3.69136E+02 1.28232E-09-1.66892E-10
 -1       824-3.35205E+05-3.30182E+03-6.84902E+03-1.66325E+03 8.05396E-10-1.06422E-09
 -1       825-3.33416E+05 4.46438E+02-2.81947E+03 1.67087E+02-2.75381E-09-1.84798E-09
 -1       826-3.33794E+05-5.25395E+02-1.68528E+03-9.96524E+02-5.94781E-09 7.73440E-10
 -1       827-3.33636E+05 7.65409E+01-8.88497E+02-2.97602E+02-5.30154E-09 1.32340E-09
 -1       828-3.33594E+05-1.56711E+02-7.56776E+02-2.92777E+01-9.69846E-09 4.31735E-09
 -1       829-3.33615E+05 7.77231E+01-8.93481E+02-8.00175E+02-4.80256E-11 1.54947E-09
 -1       830-3.33849E+05-5.32078E+02-1.72069E+03 7.70899E+02 3.75418E-09 6.11391E-09
 -1       831-3.33383E+05 4.52895E+02-2.86109E+03-1.09780E+03-5.86201E-09-2.23656E-09
 -1       832-3.35253E+05-3.35289E+03-6.96876E+03 1.01891E+03-3.95851E-09 4.63206E-09
 -1       833-3.32213E+05 2.89716E+03-1.10778E+04-1.04819E+03-1.72287E-09-2.53613E-09
 -1       834-3.43532E+05-2.14018E+04-3.02519E+04 5.98461E+02 5.30759E-10-1.58980E-09
 -1       835-3.25105E+05 1.84869E+04-4.27781E+04-6.77322E+02 8.26576E-09-3.37423E-09
 -1       836-1.07560E+03 3.13906E+05 1.87958E+04-3.10584E+04 3.79896E-09 4.70209E-09
 -1       837 4.20686E+03 3.19688E+05 1.60201E+04-6.22651E+04 5.19503E-09-1.77715E-09
 -1       838-3.65491E+02 3.15518E+05 1.64759E+04-3.09627E+04 4.28372E-09-5.55929E-10
 -1       839 1.06290E+04 3.24469E+05 3.13173E+04-6.22886E+04 5.24778E-09 2.83808E-09
 -1       840-3.14248E+03 3.09072E+05 4.99979E+04-3.10312E+04 3.74712E-09-8.25366E-10
 -1       856-1.12248E+05 9.04161E+03-2.38296E+04-5.95772E+02-6.92796E-09-1.65073E-09
 -1       857-1.22093E+05-1.05998E+04-1.64058E+04 5.24344E+03-5.89324E-09-1.13050E-09
 -1       858-1.16136E+05 1.26612E+03-6.18483E+03-6.27048E+02-6.72412E-09-5.01041E-09
 -1       859-1.17629E+05-1.46664E+03-3.73555E+03 5.29439E+03 8.73641E-10 1.13727E-09
 -1       860-1.16717E+05 1.75409E+02-1.57166E+03-6.47035E+02 5.23329E-10 8.53788E-10
 -1       861-1.16961E+05-1.87918E+02-8.77091E+02 5.32187E+03-8.50296E-09-2.58625E-09
 -1       862-1.16807E+05 2.27187E+01-3.89806E+02-6.54586E+02 7.35307E-09-2.18887E-09
 -1       863-1.16855E+05-8.59073E+00-1.99223E+02 5.32507E+03 1.36742E-08-2.92239E-09
 -1       864-1.16823E+05 7.68404E-02-7.56623E+01-6.50243E+02 1.01235E-08-3.00852E-09
 -1       865-1.16827E+05 2.53801E+01 9.65745E-01 5.30382E+03 6.70889E-09-2.92938E-09
 -1       866-1.16833E+05-1.23261E+01 6.76084E+01-6.33332E+02-1.35907E-09-7.22945E-09
 -1       867-1.16774E+05 1.02132E+02 2.09850E+02 5.25795E+03-3.03945E-09-5.66939E-09
 -1       868-1.16871E+05-7.81013E+01 3.57653E+02-6.04366E+02 7.99957E-10 1.02324E-09
 -1       869-1.16495E+05 6.40203E+02 9.70317E+02 5.18385E+03-5.17991E-09-1.42401E-08
 -1       870-1.17105E+05-5.39903E+02 1.40363E+03-5.59232E+02 2.73940E-09-8.78424E-09
 -1       871-4.82758E+03-9.00791E+03-1.53024E+04 9.95259E+04 3.10683E-09 2.95131E-09
 -1       872-2.17769E+03-1.24137E+04-6.20228E+03 1.29028E+05 8.01629E-09 1.39880E-09
 -1       873-1.42847E+02-1.08561E+04 9.74057E+02 9.93087E+04 4.80895E-09 1.95087E-09
 -1       874 2.27029E+03-8.55536E+03 8.87240E+03 1.29078E+05 7.72161E-09 1.14778E-08
 -1       875 5.57121E+03-1.29452E+04 1.96133E+04 9.94939E+04 4.04088E-09-1.63527E-09
 -1       876 2.54199E+05 4.41341E+04 1.37601E+04 1.03527E+05-8.64350E-09 2.25555E-10
 -1       877 2.54940E+05 4.72014E+04 7.34834E+03 1.07643E+05-1.42099E-08-8.44625E-09
 -1       878 2.55482E+05 4.26128E+04 3.07844E+03 1.04658E+05-2.75986E-09 4.54429E-09
 -1       879 2.53067E+05 4.53378E+04 1.53356E+03 1.07739E+05-1.50560E-08 1.04387E-08
 -1       880 2.55575E+05 4.25969E+04 7.13745E+02 1.04704E+05-5.32850E-09 8.76594E-09
 -1       881 2.52942E+05 4.52584E+04 3.79934E+02 1.07718E+05 5.15092E-09 8.22521E-09
 -1       882 2.55583E+05 4.26088E+04 2.40795E+02 1.04705E+05 9.16839E-09 3.63261E-09
 -1       883 2.52933E+05 4.52545E+04 2.55313E+02 1.07711E+05 7.08519E-09 2.19393E-09
 -1       884 2.55578E+05 4.26063E+04 4.02836E+02 1.04705E+05 2.86508E-09 6.68990E-09
 -1       885 2.52964E+05 4.52602E+04 8.07848E+02 1.07721E+05 1.23232E-08-4.08693E-09
 -1       886 2.55547E+05 4.25827E+04 1.62713E+03 1.04702E+05 9.84036E-09-7.75799E-09
 -1       887 2.53251E+05 4.54476E+04 3.55380E+03 1.07763E+05-1.14346E-09-6.70286E-09
 -1       888 2.55323E+05 4.26217E+04 7.16076E+03 1.04588E+05-2.61872E-09-2.84990E-09
 -1       889 2.57519E+05 4.98762E+04 1.71061E+04 1.07627E+05 1.28087E-09 1.77351E-09
 -1       890 2.52408E+05 4.60849E+04 3.20387E+04 1.01854E+05 2.66982E-09-4.98585E-09
 -1       891-1.87456E+02-1.45290E+05-1.70196E+03 2.83548E+04 8.25366E-11 6.05382E-09
 -1       892-3.21110E+02-1.45679E+05-1.85634E+03 4.28711E+04 8.67203E-10-5.50085E-09
 -1       893-7.84059E+01-1.45338E+05-2.65871E+03 2.83603E+04 2.72598E-09-5.51972E-09
 -1       894-1.50599E+03-1.46689E+05-5.52307E+03 4.27185E+04-2.81830E-09 2.78987E-09
 -1       895-1.17746E+03-1.44179E+05-9.73653E+03 2.85040E+04-3.40287E-09 3.25963E-09
 -1       956-3.18136E+05-4.63730E+03-1.17127E+04 2.05175E+04-6.48470E-10-3.17300E-09
 -1       957-3.20453E+05-1.54931E+03-6.01257E+03 2.47216E+04 8.85484E-09 1.05774E-09
 -1       958-3.19178E+05-1.08339E+02-2.70910E+03 2.03753E+04 9.92532E-09-1.03805E-08
 -1       959-3.19368E+05 8.98953E-01-1.38353E+03 2.48734E+04-4.33101E-09-1.66506E-09
 -1       960-3.19273E+05 5.76812E+01-6.74437E+02 2.03614E+04-6.50061E-09 4.39854E-09
 -1       961-3.19291E+05 6.10296E+01-3.57220E+02 2.48892E+04-1.11013E-08 6.48788E-09
 -1       962-3.19294E+05 5.44762E+01-2.03558E+02 2.03591E+04-5.61977E-09 3.18937E-09
 -1       963-3.19290E+05 6.38536E+01-1.61517E+02 2.48925E+04-7.46456E-09 1.53182E-09
 -1       964-3.19300E+05 5.77888E+01-1.93867E+02 2.03580E+04 1.45747E-10 1.13005E-10
 -1       965-3.19304E+05 6.82740E+01-3.33085E+02 2.48931E+04 6.07508E-09 3.29192E-09
 -1       966-3.19291E+05 6.74605E+01-6.24209E+02 2.03585E+04-2.25123E-09 3.76644E-09
 -1       967-3.19387E+05 1.96190E+01-1.27977E+03 2.48858E+04 1.55649E-09-5.20458E-10
 -1       968-3.19213E+05-7.95537E+01-2.50424E+03 2.03656E+04-1.16233E-09-1.65844E-09
 -1       969-3.20403E+05-1.40799E+03-5.56026E+03 2.48051E+04-1.13141E-09-3.42115E-09
 -1       970-3.18258E+05-4.26384E+03-1.08302E+04 2.04452E+04 1.83809E-09-2.38651E-09
 -1       971-3.04440E+05-1.61860E+03-9.07746E+03 1.50082E+04-2.07729E-09 3.71318E-09
 -1       972-3.06654E+05-1.14719E+03-4.94311E+03 2.10283E+04 2.25509E-09 1.50612E-09
 -1       973-3.05452E+05 5.53664E+00-2.21374E+03 1.48793E+04-7.91260E-10 1.98224E-09
 -1       974-3.05614E+05 1.50581E+01-1.14644E+03 2.11666E+04 1.35083E-09-5.81758E-09
 -1       975-3.05533E+05 4.98298E+01-5.71557E+02 1.48670E+04 7.61702E-10-1.35617E-09
 -1       976-3.05555E+05 6.42304E+01-3.26539E+02 2.11817E+04-4.04270E-09-3.76815E-09
 -1       977-3.05550E+05 5.07411E+01-2.31570E+02 1.48639E+04 4.36444E-09 7.92647E-09
 -1       978-3.05560E+05 7.04277E+01-2.63424E+02 2.11861E+04 1.48326E-08 7.19535E-09
 -1       979-3.05550E+05 5.83582E+01-4.16882E+02 1.48626E+04 7.42347E-09 6.01506E-09
 -1       980-3.05592E+05 7.32410E+01-8.00964E+02 2.11868E+04 8.24804E-09 3.51133E-09
 -1       981-3.05525E+05 7.81689E+01-1.54931E+03 1.48631E+04 1.75987E-10 5.99414E-10
 -1       982-3.05803E+05-4.16215E+01-3.20129E+03 2.11800E+04-1.03819E-09-2.99787E-09
 -1       983-3.05329E+05-2.16446E+01-6.21975E+03 1.48698E+04 5.39512E-09-2.46109E-09
 -1       984-3.08792E+05-3.29102E+03-1.39281E+04 2.10935E+04-2.34263E-09 6.18093E-09
 -1       985-3.02512E+05-4.57370E+03-2.55767E+04 1.49602E+04 5.27734E-09 3.19233E-09
 -3
    1PSTEP                        21          11           1          
  100CL  111 6.38672E-01         409                     0   11           1
 -4  DISP        4    1
 -5  D1          1    2    1    0
 -5  D2          1    2    2    0
 -5  D3          1    2    3    0
 -5  ALL         1    2    0    0    1ALL
 -1         1 1.75197E-03 0.00000E+00 0.00000E+00
 -1         2 1.76555E-03-1.37598E-29-8.27181E-25
 -1         3 8.96706E-05-3.73164E-28 3.30872E-24
 -1         5 8.17033E-05-1.98303E-26 0.00000E+00
 -1         8 1.71300E-03-1.58485E-06 0.00000E+00
 -1         9 1.72816E-03-3.25823E-07 0.00000E+00
 -1        10 8.51156E-05-5.96661E-07-1.65436E-24
 -1        12 8.05460E-05 6.88730E-07 0.00000E+00
 -1        15 1.66677E-03-1.79543E-06 0.00000E+00
 -1        16 1.66705E-03-1.46688E-07 0.00000E+00
 -1        17 7.03579E-05-1.26137E-06 0.00000E+00
 -1        18 7.57708E-05-5.39137E-06 0.00000E+00
 -1        19 7.70736E-05 1.37296E-06 0.00000E+00
 -1        20 7.72540E-05 2.58827E-05 0.00000E+00
 -1        21 7.66160E-05 5.01435E-05 3.30872E-24
 -1        24 2.37446E-05-2.51412E-06 0.00000E+00
 -1        25 7.11799E-05-5.24187E-06 0.00000E+00
 -1        26 7.26093E-05 1.92094E-06 0.00000E+00
 -1        27 7.07059E-05 2.28416E-05 0.00000E+00
 -1        28 7.00050E-05 4.95460E-05 0.00000E+00
 -1        32 0.00000E+00 0.00000E+00 0.00000E+00
 -1        33 6.63180E-05 2.58109E-06 0.00000E+00
 -1        34 6.44842E-05 2.28140E-05 0.00000E+00
 -1        35 6.27207E-05 4.92317E-05 0.00000E+00
 -1        51 1.74943E-03-2.51962E-07 0.00000E+00
 -1        52 1.74472E-03-5.03174E-07 0.00000E+00
 -1        53 1.73828E-03-7.59890E-07 0.00000E+00
 -1        54 1.73055E-03-1.02416E-06 6.61744E-24
 -1        55 1.72197E-03-1.29626E-06 8.27181E-25
 -1        56 1.75106E-03-1.39608E-06 0.00000E+00
 -1        57 1.75075E-03-4.53630E-06-1.32349E-23
 -1        58 1.75095E-03-9.02498E-06-2.64698E-23
 -1        59 1.75148E-03-1.44399E-05 0.00000E+00
 -1        60 1.75216E-03-2.02822E-05-5.29396E-23
 -1        61 1.75282E-03-2.60416E-05-2.64698E-23
 -1        62 1.75326E-03-3.12137E-05 0.00000E+00
 -1        63 1.75330E-03-3.53141E-05-2.64698E-23
 -1        64 1.75280E-03-3.79407E-05 5.29396E-23
 -1        65 1.75161E-03-3.87403E-05 0.00000E+00
 -1        66 1.74965E-03-3.75000E-05 5.29396E-23
 -1        67 1.74687E-03-3.40741E-05-2.64698E-23
 -1        68 1.74327E-03-2.84843E-05-2.64698E-23
 -1        69 1.73888E-03-2.08208E-05 0.00000E+00
 -1        70 1.73379E-03-1.13376E-05 0.00000E+00
 -1        86 1.76449E-03-2.89273E-08-8.27181E-25
 -1        87 1.76131E-03-6.23400E-08-4.13590E-25
 -1        88 1.75604E-03-1.04236E-07 0.00000E+00
 -1        89 1.74871E-03-1.59593E-07-8.27181E-25
 -1        90 1.73940E-03-2.30457E-07 0.00000E+00
 -1       121 8.95438E-05-9.90356E-08 0.00000E+00
 -1       122 8.91636E-05-1.98136E-07-1.65436E-24
 -1       123 8.85301E-05-2.97365E-07 0.00000E+00
 -1       124 8.76438E-05-3.96804E-07 1.65436E-24
 -1       125 8.65054E-05-4.96492E-07 3.30872E-24
 -1       191 8.16712E-05 1.14816E-07 0.00000E+00
 -1       192 8.15748E-05 2.29626E-07-3.30872E-24
 -1       193 8.14140E-05 3.44429E-07 0.00000E+00
 -1       194 8.11890E-05 4.59218E-07-6.61744E-24
 -1       195 8.08996E-05 5.73987E-07 0.00000E+00
 -1       251 1.71387E-03 4.22807E-06-6.61744E-24
 -1       252 1.71482E-03 6.43771E-06-6.61744E-24
 -1       253 1.71578E-03 6.28934E-06-2.64698E-23
 -1       254 1.71674E-03 4.93140E-06 0.00000E+00
 -1       255 1.71770E-03 2.79050E-06 2.64698E-23
 -1       256 1.71866E-03 2.61745E-07-1.32349E-23
 -1       257 1.71962E-03-2.49262E-06 2.64698E-23
 -1       258 1.72058E-03-5.31937E-06 0.00000E+00
 -1       259 1.72154E-03-8.10889E-06 0.00000E+00
 -1       260 1.72251E-03-1.07500E-05 0.00000E+00
 -1       261 1.72347E-03-1.30423E-05-2.64698E-23
 -1       262 1.72443E-03-1.47714E-05 0.00000E+00
 -1       263 1.72539E-03-1.53848E-05 0.00000E+00
 -1       264 1.72635E-03-1.42851E-05 0.00000E+00
 -1       265 1.72729E-03-9.85107E-06 1.32349E-23
 -1       266 1.70529E-03-1.63973E-06-6.61744E-24
 -1       267 1.69759E-03-1.67242E-06 1.65436E-24
 -1       268 1.68988E-03-1.70651E-06 0.00000E+00
 -1       269 1.68218E-03-1.73644E-06 0.00000E+00
 -1       270 1.67447E-03-1.76626E-06 8.27181E-25
 -1       271 1.70825E-03 3.73786E-06 5.29396E-23
 -1       272 1.70445E-03 6.29907E-06 2.64698E-23
 -1       273 1.70158E-03 6.42520E-06-5.29396E-23
 -1       274 1.69947E-03 4.48370E-06 2.64698E-23
 -1       275 1.69796E-03 9.20579E-07 5.29396E-23
 -1       276 1.69687E-03-3.77178E-06 2.64698E-23
 -1       277 1.69601E-03-9.06184E-06 0.00000E+00
 -1       278 1.69516E-03-1.43998E-05-2.64698E-23
 -1       279 1.69412E-03-1.92344E-05 5.29396E-23
 -1       280 1.69270E-03-2.30298E-05 2.64698E-23
 -1       281 1.69070E-03-2.52856E-05 0.00000E+00
 -1       282 1.68796E-03-2.55497E-05 2.64698E-23
 -1       283 1.68432E-03-2.34370E-05 5.29396E-23
 -1       284 1.67968E-03-1.86333E-05 0.00000E+00
 -1       285 1.67392E-03-1.09224E-05-5.29396E-23
 -1       301 1.71740E-03-3.02142E-07 0.00000E+00
 -1       302 1.70769E-03-2.56641E-07 0.00000E+00
 -1       303 1.69842E-03-2.06897E-07 0.00000E+00
 -1       304 1.68896E-03-1.61727E-07 0.00000E+00
 -1       305 1.67871E-03-1.28114E-07 4.13590E-24
 -1       306 1.66650E-03 1.22100E-04-5.29396E-23
 -1       307 1.47670E-03 4.37742E-04 2.64698E-23
 -1       308 1.15927E-03 8.86959E-04 1.05879E-22
 -1       309 7.50501E-04 1.40733E-03 5.29396E-23
 -1       310 3.32320E-04 1.93448E-03 0.00000E+00
 -1       311-1.05662E-05 2.40540E-03 0.00000E+00
 -1       312-2.31944E-04 2.75767E-03 0.00000E+00
 -1       313-3.20174E-04 2.92851E-03 0.00000E+00
 -1       314-3.08575E-04 2.87616E-03-1.05879E-22
 -1       315-2.49365E-04 2.59628E-03 5.29396E-23
 -1       316-1.84630E-04 2.13028E-03 1.05879E-22
 -1       317-1.33764E-04 1.54792E-03 0.00000E+00
 -1       318-8.49290E-05 9.52514E-04 1.05879E-22
 -1       319-2.30810E-05 4.48595E-04-2.64698E-23
 -1       320 4.07229E-05 1.12854E-04 0.00000E+00
 -1       336 8.34419E-05-7.05098E-07 3.30872E-24
 -1       337 8.14515E-05-8.14322E-07 0.00000E+00
 -1       338 7.91458E-05-9.24236E-07 3.30872E-24
 -1       339 7.65268E-05-1.03518E-06 0.00000E+00
 -1       340 7.35966E-05-1.14694E-06 0.00000E+00
 -1       406 8.01279E-05 8.03435E-07 0.00000E+00
 -1       407 7.96455E-05 9.18074E-07 0.00000E+00
 -1       408 7.90988E-05 1.03261E-06 0.00000E+00
 -1       409 7.84877E-05 1.14690E-06 0.00000E+00
 -1       410 7.78125E-05 1.26070E-06 0.00000E+00
 -1       521 1.60436E-03 1.22524E-04 0.00000E+00
 -1       522 1.41462E-03 4.36930E-04-5.29396E-23
 -1       523 1.09898E-03 8.83795E-04 1.05879E-22
 -1       524 6.95122E-04 1.40009E-03 5.29396E-23
 -1       525 2.82466E-04 1.92282E-03 0.00000E+00
 -1       526-5.69174E-05 2.39011E-03 0.00000E+00
 -1       527-2.76288E-04 2.73906E-03 0.00000E+00
 -1       528-3.64080E-04 2.90756E-03 0.00000E+00
 -1       529-3.52764E-04 2.85341E-03-2.11758E-22
 -1       530-2.94306E-04 2.57352E-03-5.29396E-23
 -1       531-2.30043E-04 2.10954E-03 1.05879E-22
 -1       532-1.78777E-04 1.53259E-03-5.29396E-23
 -1       533-1.29363E-04 9.43253E-04-1.05879E-22
 -1       534-6.77073E-05 4.43403E-04 0.00000E+00
 -1       535-4.77438E-06 1.10494E-04 0.00000E+00
 -1       536 7.06733E-05 1.33429E-06 0.00000E+00
 -1       537 7.10113E-05 2.36367E-06 3.30872E-24
 -1       538 7.13486E-05 2.41065E-06-6.61744E-24
 -1       539 7.16896E-05 2.04364E-06 0.00000E+00
 -1       540 7.20306E-05 1.41739E-06 0.00000E+00
 -1       541 7.23723E-05 6.82630E-07 0.00000E+00
 -1       542 7.27140E-05-1.18986E-07 0.00000E+00
 -1       543 7.30558E-05-9.46803E-07 0.00000E+00
 -1       544 7.33976E-05-1.78652E-06 0.00000E+00
 -1       545 7.37394E-05-2.62404E-06 0.00000E+00
 -1       546 7.40812E-05-3.44304E-06 1.32349E-23
 -1       547 7.44225E-05-4.22690E-06-6.61744E-24
 -1       548 7.47638E-05-4.92371E-06 0.00000E+00
 -1       549 7.51029E-05-5.48018E-06-3.30872E-24
 -1       550 7.54429E-05-5.70244E-06 0.00000E+00
 -1       551 6.45446E-05-1.45080E-06 0.00000E+00
 -1       552 5.67449E-05-1.65158E-06-1.65436E-24
 -1       553 4.78571E-05-1.86028E-06 0.00000E+00
 -1       554 3.87899E-05-2.07340E-06 0.00000E+00
 -1       555 3.04524E-05-2.28465E-06-2.64698E-23
 -1       556 6.92611E-05 1.52245E-06 0.00000E+00
 -1       557 6.84877E-05 3.46562E-06 6.61744E-24
 -1       558 6.79986E-05 4.65650E-06 0.00000E+00
 -1       559 6.77576E-05 5.18956E-06 0.00000E+00
 -1       560 6.77283E-05 5.15905E-06 0.00000E+00
 -1       561 6.78749E-05 4.65972E-06 3.30872E-24
 -1       562 6.81617E-05 3.78637E-06 0.00000E+00
 -1       563 6.85529E-05 2.63391E-06 0.00000E+00
 -1       564 6.90129E-05 1.29729E-06 1.65436E-24
 -1       565 6.95063E-05-1.28544E-07 0.00000E+00
 -1       566 6.99976E-05-1.54858E-06-6.20385E-25
 -1       567 7.04512E-05-2.86784E-06 0.00000E+00
 -1       568 7.08316E-05-3.99136E-06 0.00000E+00
 -1       569 7.11034E-05-4.82434E-06 0.00000E+00
 -1       570 7.12309E-05-5.27194E-06 0.00000E+00
 -1       571 7.58499E-05-4.88799E-06 8.27181E-25
 -1       572 7.59307E-05-4.44000E-06 6.20385E-25
 -1       573 7.60120E-05-4.03830E-06 1.65436E-24
 -1       574 7.60936E-05-3.67331E-06 0.00000E+00
 -1       575 7.61753E-05-3.33539E-06 0.00000E+00
 -1       576 7.62570E-05-3.01482E-06-8.27181E-25
 -1       577 7.63387E-05-2.70189E-06 0.00000E+00
 -1       578 7.64205E-05-2.38688E-06 0.00000E+00
 -1       579 7.65022E-05-2.06005E-06 0.00000E+00
 -1       580 7.65839E-05-1.71168E-06 1.65436E-24
 -1       581 7.66657E-05-1.33206E-06 0.00000E+00
 -1       582 7.67473E-05-9.11458E-07 0.00000E+00
 -1       583 7.68290E-05-4.40176E-07 0.00000E+00
 -1       584 7.69106E-05 9.13964E-08 0.00000E+00
 -1       585 7.69922E-05 6.92825E-07 3.30872E-24
 -1       586 7.50026E-05-5.36484E-06 0.00000E+00
 -1       587 7.41944E-05-5.33910E-06 0.00000E+00
 -1       588 7.33770E-05-5.31368E-06 2.06795E-25
 -1       589 7.25815E-05-5.28865E-06 0.00000E+00
 -1       590 7.18390E-05-5.26424E-06 0.00000E+00
 -1       591 7.55463E-05-4.85387E-06-1.03398E-25
 -1       592 7.53382E-05-4.36869E-06 0.00000E+00
 -1       593 7.51458E-05-3.92625E-06-8.27181E-25
 -1       594 7.49659E-05-3.51786E-06 4.13590E-25
 -1       595 7.47954E-05-3.13469E-06 0.00000E+00
 -1       596 7.46310E-05-2.76798E-06 4.13590E-25
 -1       597 7.44694E-05-2.40896E-06-8.27181E-25
 -1       598 7.43074E-05-2.04890E-06 0.00000E+00
 -1       599 7.41418E-05-1.67903E-06 4.13590E-25
 -1       600 7.39692E-05-1.29061E-06 2.06795E-25
 -1       601 7.37864E-05-8.74884E-07-8.27181E-25
 -1       602 7.35901E-05-4.23093E-07-3.10193E-25
 -1       603 7.33771E-05 7.35190E-08 5.16988E-26
 -1       604 7.31443E-05 6.23767E-07 0.00000E+00
 -1       605 7.28884E-05 1.23637E-06 0.00000E+00
 -1       606 7.70895E-05 2.24061E-06 0.00000E+00
 -1       607 7.71024E-05 3.23581E-06 0.00000E+00
 -1       608 7.71145E-05 4.35108E-06 0.00000E+00
 -1       609 7.71261E-05 5.57796E-06 0.00000E+00
 -1       610 7.71374E-05 6.90799E-06 0.00000E+00
 -1       611 7.71486E-05 8.33256E-06 0.00000E+00
 -1       612 7.71596E-05 9.84305E-06-3.30872E-24
 -1       613 7.71705E-05 1.14309E-05 0.00000E+00
 -1       614 7.71813E-05 1.30874E-05 0.00000E+00
 -1       615 7.71920E-05 1.48040E-05 0.00000E+00
 -1       616 7.72026E-05 1.65720E-05 0.00000E+00
 -1       617 7.72131E-05 1.83829E-05 0.00000E+00
 -1       618 7.72236E-05 2.02280E-05 0.00000E+00
 -1       619 7.72339E-05 2.20988E-05-8.27181E-25
 -1       620 7.72441E-05 2.39865E-05 0.00000E+00
 -1       621 7.63120E-05 1.46427E-06 0.00000E+00
 -1       622 7.55609E-05 1.55611E-06-1.65436E-24
 -1       623 7.48176E-05 1.64794E-06-3.30872E-24
 -1       624 7.40797E-05 1.73964E-06 1.65436E-24
 -1       625 7.33444E-05 1.83118E-06 0.00000E+00
 -1       626 7.68432E-05 2.26766E-06 0.00000E+00
 -1       627 7.65733E-05 3.26919E-06 6.61744E-24
 -1       628 7.62670E-05 4.36803E-06 0.00000E+00
 -1       629 7.59280E-05 5.55397E-06 0.00000E+00
 -1       630 7.55600E-05 6.81680E-06 6.61744E-24
 -1       631 7.51671E-05 8.14624E-06 0.00000E+00
 -1       632 7.47529E-05 9.53199E-06 6.61744E-24
 -1       633 7.43214E-05 1.09638E-05 0.00000E+00
 -1       634 7.38765E-05 1.24313E-05 0.00000E+00
 -1       635 7.34219E-05 1.39243E-05 0.00000E+00
 -1       636 7.29616E-05 1.54326E-05-3.30872E-24
 -1       637 7.24995E-05 1.69457E-05 0.00000E+00
 -1       638 7.20392E-05 1.84535E-05 0.00000E+00
 -1       639 7.15847E-05 1.99456E-05 0.00000E+00
 -1       640 7.11395E-05 2.14118E-05 0.00000E+00
 -1       656 7.56218E-05 2.53875E-05-6.61744E-24
 -1       657 7.44463E-05 2.48729E-05-6.61744E-24
 -1       658 7.35556E-05 2.43601E-05 0.00000E+00
 -1       659 7.27714E-05 2.38477E-05 6.61744E-24
 -1       660 7.18890E-05 2.33337E-05 6.61744E-24
 -1       661 7.66511E-05 2.77496E-05-1.65436E-24
 -1       662 7.60751E-05 2.95559E-05 0.00000E+00
 -1       663 7.55213E-05 3.13029E-05 0.00000E+00
 -1       664 7.49895E-05 3.29935E-05 0.00000E+00
 -1       665 7.44781E-05 3.46298E-05 3.30872E-24
 -1       666 7.39866E-05 3.62138E-05-1.65436E-24
 -1       667 7.35139E-05 3.77478E-05 0.00000E+00
 -1       668 7.30595E-05 3.92334E-05 0.00000E+00
 -1       669 7.26226E-05 4.06723E-05 0.00000E+00
 -1       670 7.22026E-05 4.20661E-05 1.65436E-24
 -1       671 7.17992E-05 4.34162E-05-3.30872E-24
 -1       672 7.14115E-05 4.47237E-05 0.00000E+00
 -1       673 7.10394E-05 4.59898E-05 0.00000E+00
 -1       674 7.06815E-05 4.72152E-05 0.00000E+00
 -1       675 7.03388E-05 4.84011E-05 8.27181E-25
 -1       676 7.55104E-05 5.00433E-05 3.30872E-24
 -1       677 7.44056E-05 4.99432E-05-1.65436E-24
 -1       678 7.33019E-05 4.98431E-05-3.30872E-24
 -1       679 7.22002E-05 4.97433E-05 0.00000E+00
 -1       680 7.11010E-05 4.96435E-05 0.00000E+00
 -1       771 2.09755E-05 1.11861E-06 2.64698E-23
 -1       772 1.84301E-05 4.10041E-06 0.00000E+00
 -1       773 1.61144E-05 6.47023E-06 0.00000E+00
 -1       774 1.40139E-05 8.26435E-06 2.64698E-23
 -1       775 1.21155E-05 9.52083E-06-5.29396E-23
 -1       776 1.04043E-05 1.02793E-05 0.00000E+00
 -1       777 8.86488E-06 1.05804E-05 5.29396E-23
 -1       778 7.48135E-06 1.04665E-05 0.00000E+00
 -1       779 6.23735E-06 9.98074E-06 0.00000E+00
 -1       780 5.11606E-06 9.16756E-06-2.64698E-23
 -1       781 4.10049E-06 8.07218E-06-5.29396E-23
 -1       782 3.17332E-06 6.74084E-06 0.00000E+00
 -1       783 2.31703E-06 5.22023E-06-5.29396E-23
 -1       784 1.51416E-06 3.55785E-06 0.00000E+00
 -1       785 7.46758E-07 1.80138E-06 0.00000E+00
 -1       786 7.12645E-05-4.80144E-06-8.27181E-25
 -1       787 7.13537E-05-4.38338E-06-8.27181E-25
 -1       788 7.14426E-05-3.98163E-06 0.00000E+00
 -1       789 7.15323E-05-3.59023E-06 0.00000E+00
 -1       790 7.16221E-05-3.20537E-06 0.00000E+00
 -1       791 7.17121E-05-2.82330E-06 1.65436E-24
 -1       792 7.18021E-05-2.44083E-06 0.00000E+00
 -1       793 7.18921E-05-2.05481E-06-1.65436E-24
 -1       794 7.19821E-05-1.66128E-06 3.30872E-24
 -1       795 7.20722E-05-1.25630E-06-1.65436E-24
 -1       796 7.21622E-05-8.33462E-07 0.00000E+00
 -1       797 7.22521E-05-3.86292E-07 0.00000E+00
 -1       798 7.23420E-05 9.68520E-08-3.30872E-24
 -1       799 7.24316E-05 6.27758E-07-1.65436E-24
 -1       800 7.25213E-05 1.22838E-06 0.00000E+00
 -1       801 6.62193E-05-4.31025E-06 0.00000E+00
 -1       802 5.25464E-05-3.41899E-06 0.00000E+00
 -1       803 3.46441E-05-2.59173E-06 1.32349E-23
 -1       804 1.68000E-05-1.77233E-06 6.61744E-24
 -1       805 3.63683E-06-8.81482E-07 0.00000E+00
 -1       806 7.09195E-05-4.85539E-06 0.00000E+00
 -1       807 7.06617E-05-4.48709E-06 1.65436E-24
 -1       808 7.04071E-05-4.12939E-06 0.00000E+00
 -1       809 7.01536E-05-3.77559E-06-1.65436E-24
 -1       810 6.98988E-05-3.41899E-06 0.00000E+00
 -1       811 6.96404E-05-3.05294E-06-1.65436E-24
 -1       812 6.93760E-05-2.67083E-06 0.00000E+00
 -1       813 6.91030E-05-2.26604E-06-1.65436E-24
 -1       814 6.88190E-05-1.83196E-06-1.65436E-24
 -1       815 6.85215E-05-1.36197E-06-8.27181E-25
 -1       816 6.82081E-05-8.49481E-07 1.65436E-24
 -1       817 6.78763E-05-2.87884E-07 0.00000E+00
 -1       818 6.75236E-05 3.29415E-07-1.65436E-24
 -1       819 6.71477E-05 1.00898E-06-8.27181E-25
 -1       820 6.67462E-05 1.75740E-06 1.65436E-24
 -1       821 7.24979E-05 2.52356E-06 8.27181E-25
 -1       822 7.23798E-05 2.85638E-06 8.27181E-25
 -1       823 7.22621E-05 3.05318E-06-3.30872E-24
 -1       824 7.21432E-05 3.24847E-06 1.65436E-24
 -1       825 7.20241E-05 3.57703E-06 0.00000E+00
 -1       826 7.19047E-05 4.17293E-06 0.00000E+00
 -1       827 7.17850E-05 5.10546E-06-3.30872E-24
 -1       828 7.16649E-05 6.44216E-06 0.00000E+00
 -1       829 7.15441E-05 8.15267E-06-3.30872E-24
 -1       830 7.14229E-05 1.02046E-05 1.65436E-24
 -1       831 7.13011E-05 1.24830E-05 3.30872E-24
 -1       832 7.11794E-05 1.48716E-05-1.65436E-24
 -1       833 7.10578E-05 1.72274E-05 0.00000E+00
 -1       834 7.09379E-05 1.94077E-05 0.00000E+00
 -1       835 7.08181E-05 2.13120E-05 0.00000E+00
 -1       836 7.17387E-05 2.03092E-06-3.30872E-24
 -1       837 7.07147E-05 2.14324E-06 0.00000E+00
 -1       838 6.95987E-05 2.25529E-06 3.30872E-24
 -1       839 6.84527E-05 2.36662E-06 0.00000E+00
 -1       840 6.73386E-05 2.47781E-06-8.27181E-25
 -1       856 7.06668E-05 2.42544E-05 0.00000E+00
 -1       857 7.06235E-05 2.58005E-05 2.06795E-25
 -1       858 7.05803E-05 2.74589E-05 0.00000E+00
 -1       859 7.05362E-05 2.92086E-05 4.13590E-25
 -1       860 7.04920E-05 3.10282E-05 0.00000E+00
 -1       861 7.04475E-05 3.28964E-05 8.27181E-25
 -1       862 7.04030E-05 3.47919E-05 0.00000E+00
 -1       863 7.03584E-05 3.66931E-05 8.27181E-25
 -1       864 7.03138E-05 3.85786E-05 1.65436E-24
 -1       865 7.02693E-05 4.04269E-05 0.00000E+00
 -1       866 7.02249E-05 4.22166E-05 0.00000E+00
 -1       867 7.01806E-05 4.39264E-05 0.00000E+00
 -1       868 7.01365E-05 4.55351E-05 0.00000E+00
 -1       869 7.00925E-05 4.70218E-05 0.00000E+00
 -1       870 7.00488E-05 4.83656E-05-1.65436E-24
 -1       871 6.95362E-05 2.28404E-05 4.13590E-25
 -1       872 6.84899E-05 2.28367E-05 0.00000E+00
 -1       873 6.75148E-05 2.28326E-05 0.00000E+00
 -1       874 6.65575E-05 2.28279E-05 0.00000E+00
 -1       875 6.55648E-05 2.28226E-05-4.13590E-25
 -1       876 7.02897E-05 2.42648E-05 0.00000E+00
 -1       877 6.98517E-05 2.57529E-05 0.00000E+00
 -1       878 6.93924E-05 2.72981E-05 0.00000E+00
 -1       879 6.89147E-05 2.88930E-05 0.00000E+00
 -1       880 6.84211E-05 3.05301E-05 0.00000E+00
 -1       881 6.79144E-05 3.22023E-05 1.65436E-24
 -1       882 6.73974E-05 3.39020E-05 3.30872E-24
 -1       883 6.68726E-05 3.56221E-05 0.00000E+00
 -1       884 6.63430E-05 3.73551E-05 3.30872E-24
 -1       885 6.58113E-05 3.90938E-05 1.65436E-24
 -1       886 6.52801E-05 4.08308E-05 0.00000E+00
 -1       887 6.47522E-05 4.25588E-05 0.00000E+00
 -1       888 6.42303E-05 4.42704E-05 3.30872E-24
 -1       889 6.37167E-05 4.59583E-05-8.27181E-25
 -1       890 6.32142E-05 4.76150E-05-1.65436E-24
 -1       891 6.89366E-05 4.94935E-05-1.65436E-24
 -1       892 6.78455E-05 4.94408E-05-8.27181E-25
 -1       893 6.67050E-05 4.93881E-05-1.65436E-24
 -1       894 6.54885E-05 4.93355E-05 0.00000E+00
 -1       895 6.41691E-05 4.92829E-05 0.00000E+00
 -1       956 6.62058E-05 3.55848E-06-3.30872E-24
 -1       957 6.60916E-05 4.61075E-06 0.00000E+00
 -1       958 6.59770E-05 5.73047E-06 0.00000E+00
 -1       959 6.58622E-05 6.90974E-06-8.27181E-25
 -1       960 6.57473E-05 8.14069E-06 3.30872E-24
 -1       961 6.56322E-05 9.41534E-06 0.00000E+00
 -1       962 6.55171E-05 1.07257E-05 3.30872E-24
 -1       963 6.54020E-05 1.20639E-05 1.65436E-24
 -1       964 6.52868E-05 1.34219E-05 3.30872E-24
 -1       965 6.51717E-05 1.47918E-05-1.65436E-24
 -1       966 6.50565E-05 1.61655E-05 0.00000E+00
 -1       967 6.49414E-05 1.75352E-05 0.00000E+00
 -1       968 6.48263E-05 1.88928E-05 0.00000E+00
 -1       969 6.47115E-05 2.02303E-05 0.00000E+00
 -1       970 6.45970E-05 2.15400E-05 0.00000E+00
 -1       971 6.43757E-05 2.41168E-05 0.00000E+00
 -1       972 6.42656E-05 2.55192E-05-1.65436E-24
 -1       973 6.41552E-05 2.70101E-05 0.00000E+00
 -1       974 6.40446E-05 2.85781E-05 0.00000E+00
 -1       975 6.39338E-05 3.02117E-05-3.30872E-24
 -1       976 6.38229E-05 3.18995E-05 0.00000E+00
 -1       977 6.37119E-05 3.36301E-05 3.30872E-24
 -1       978 6.36009E-05 3.53918E-05 1.65436E-24
 -1       979 6.34898E-05 3.71734E-05 0.00000E+00
 -1       980 6.33787E-05 3.89631E-05 0.00000E+00
 -1       981 6.32677E-05 4.07496E-05-3.30872E-24
 -1       982 6.31568E-05 4.25214E-05 0.00000E+00
 -1       983 6.30461E-05 4.42669E-05 0.00000E+00
 -1       984 6.29358E-05 4.59748E-05 0.00000E+00
 -1       985 6.28262E-05 4.76334E-05 0.00000E+00
 -3
    1PSTEP                        22          11           1          
  100CL  111 6.38672E-01         409                     0   11           1
 -4  STRESS      6    1
 -5  SXX         1    4    1    1
 -5  SYY         1    4    2    2
 -5  SZZ         1    4    3    3
 -5  SXY         1    4    1    2
 -5  SYZ         1    4    2    3
 -5  SZX         1    4    3    1
 -1         1-1.66431E+06-8.68375E+05-3.29538E+05-1.40589E+06 8.87667E-10-1.06535E-07
 -1         2 7.94487E+02-7.52896E+04 3.44379E+03-7.36207E+02-3.76986E-10-2.53619E-07
 -1         3-2.58974E+01-2.83033E+05 8.40682E+01-5.88441E+01-1.01547E-10 1.98088E-09
 -1         5-3.00682E+01 3.28638E+05 8.66528E+00 6.05754E-01 3.03715E-10 2.39161E-08
 -1         8-7.11216E+05-4.35656E+05 8.33218E+04-9.69117E+05 1.74623E-10-1.59052E-08
 -1         9 5.58802E+06 4.35116E+06 1.54820E+06 4.30450E+06-1.49128E-08-1.40397E-08
 -1        10-1.74999E+02-2.94802E+05 2.30395E+02-3.85341E+02-1.89516E-09-1.30400E-08
 -1        12-2.65624E+01 3.28656E+05 2.82475E+02 4.39059E+00 5.22050E-10-1.27684E-08
 -1        15 3.27854E+03 1.80183E+03 1.05980E+04 1.09233E+01 3.87786E-10 8.31394E-08
 -1        16 7.07807E+06 6.55333E+06 2.04965E+06 6.90526E+06 1.56191E-08-1.13039E-07
 -1        17 9.06657E+06 2.19566E+05 1.42598E+06-5.07334E+05-2.53858E-09-2.51865E-08
 -1        18 2.93503E+05 6.56135E+04 4.73575E+04-7.05105E+04 1.75396E-09 1.73213E-09
 -1        19 1.01732E+05 1.23690E+05-4.02281E+02 2.01097E+04-1.26420E-09 1.17871E-09
 -1        20-3.61766E+04-4.80651E+05-1.05614E+05 3.84506E+04 7.23837E-09-1.71167E-09
 -1        21-4.62102E+01-2.85169E+05-9.27897E+02-2.16230E+02-1.49509E-08-6.29949E-09
 -1        24 1.36602E+07-1.92863E+05 2.08682E+06-1.29392E+06 5.38275E-08 1.31355E-08
 -1        25 1.71990E+05 5.87164E+05 1.64521E+05-1.32121E+05 9.66975E-10 1.67056E-09
 -1        26-1.64097E+04 8.68433E+04-1.51995E+04-1.58756E+04 2.37887E-09-7.82052E-11
 -1        27-7.99281E+04-2.64660E+05-9.96851E+04 5.97089E+04 9.34491E-09-4.40802E-10
 -1        28 2.22601E+04-7.79725E+04 1.60812E+04 2.64267E+04 5.18494E-09-5.53033E-09
 -1        32-7.33203E+05 1.31398E+06 7.86958E+05-7.04731E+05-1.13796E-08 3.41052E-08
 -1        33-1.49199E+05 7.90745E+04 2.78707E+04-4.99395E+04 2.21329E-09-4.24916E-09
 -1        34-1.97297E+05-1.92801E+04 4.16670E+02 5.94004E+04 6.04149E-09 1.91600E-10
 -1        35-2.25732E+04-3.09634E+04-1.21647E+03 4.96909E+04 9.67551E-09-4.05028E-10
 -1        51 5.04046E+03-6.26453E+05 2.60578E+04-1.49457E+06-1.45519E-10 5.48025E-08
 -1        52 1.24390E+04-6.36400E+05 2.35448E+04-1.74348E+06 3.20142E-10 8.59873E-08
 -1        53 1.47404E+04-6.60166E+05 2.65794E+04-1.48929E+06 1.60071E-09-4.76139E-08
 -1        54 3.97499E+04-6.63920E+05 5.14445E+04-1.74876E+06 5.67525E-10 7.18574E-08
 -1        55 6.96571E+04-6.85828E+05 9.63944E+04-1.48817E+06 5.82077E-10 1.58048E-07
 -1        56-3.22241E+06-3.60553E+05-2.34926E+05-1.22999E+06 1.35733E-08-3.22616E-08
 -1        57-3.27167E+06-6.19344E+05-1.58502E+05-1.26957E+06-1.70789E-08 4.31828E-08
 -1        58-3.27640E+06-4.28641E+05-5.52413E+04-1.20619E+06 7.17000E-09-2.00453E-09
 -1        59-3.20875E+06-5.40508E+05-3.31028E+04-1.29967E+06 7.24799E-09-1.38970E-07
 -1        60-3.28562E+06-4.36794E+05-1.28884E+04-1.20114E+06 4.29100E-09-1.76768E-07
 -1        61-3.20171E+06-5.26703E+05-7.38474E+03-1.30052E+06 4.22892E-09 1.66648E-07
 -1        62-3.28325E+06-4.42223E+05-3.82395E+03-1.20537E+06 6.55382E-09 5.89848E-08
 -1        63-3.21192E+06-5.12136E+05-2.99225E+03-1.28457E+06 8.77844E-09-1.75767E-07
 -1        64-3.27451E+06-4.51917E+05-4.52022E+03-1.21645E+06-5.70617E-09 9.85574E-09
 -1        65-3.23361E+06-4.91542E+05-7.99126E+03-1.25733E+06 9.37325E-09-2.89006E-08
 -1        66-3.26061E+06-4.63490E+05-1.57412E+04-1.23189E+06 3.38332E-09-1.40590E-07
 -1        67-3.26968E+06-4.79250E+05-3.81821E+04-1.22357E+06-1.69455E-08-1.39717E-07
 -1        68-3.23830E+06-4.64693E+05-6.53019E+04-1.24993E+06-1.31041E-08-6.12235E-08
 -1        69-3.36040E+06-5.58456E+05-1.85945E+05-1.17569E+06-9.03992E-09 6.26023E-08
 -1        70-3.17117E+06-3.86252E+05-2.75572E+05-1.27943E+06-4.83851E-09-1.52693E-07
 -1        86-4.91313E+02-8.24109E+04 2.39972E+03 3.67731E+02 3.53737E-09 4.74821E-08
 -1        87 2.70833E+03-7.45209E+04 6.68568E+03-1.44782E+03 6.05905E-09 1.34920E-07
 -1        88-2.38912E+03-8.31928E+04 8.63754E+03 1.07796E+03 8.18227E-09-1.44742E-08
 -1        89 1.71976E+04-6.82498E+04 2.51241E+04-2.74746E+03 1.35260E-08 1.34192E-07
 -1        90-1.49036E+04-8.87185E+04 3.40759E+04 1.66630E+03 1.30203E-08 4.88465E-08
 -1       121-4.28729E+01-2.83162E+05 8.04757E+01 2.93944E+01 2.20112E-10 5.35147E-09
 -1       122-4.19496E+00-2.83018E+05 1.82223E+02-1.17926E+02-7.39407E-10 5.74846E-09
 -1       123-5.90976E+01-2.83179E+05 3.00474E+02 8.83666E+01 6.17689E-10-1.41699E-09
 -1       124 2.62724E+02-2.82849E+05 7.48559E+02-3.07512E+02-1.42904E-09 4.47471E-09
 -1       125-2.34451E+02-2.83333E+05 1.20448E+03 2.18931E+02 9.32914E-10-2.18370E-09
 -1       191-3.18426E+01 3.28660E+05 9.15296E+00-3.10281E-01 3.72107E-10-1.98452E-09
 -1       192-3.08791E+01 3.28638E+05 1.84054E+01 2.24828E+00 4.66264E-10-3.90355E-09
 -1       193-3.39910E+01 3.28660E+05 3.30576E+01-1.98418E+00 6.15406E-10-8.87485E-09
 -1       194-3.34851E+01 3.28641E+05 6.97601E+01 5.22364E+00 2.70788E-10-3.00597E-08
 -1       195-3.81172E+01 3.28658E+05 1.35278E+02-3.34107E+00 8.70543E-10-2.31685E-08
 -1       251 2.68558E+06-1.64104E+05 3.83008E+05 3.51186E+04 2.17187E-09 4.88799E-08
 -1       252 2.86487E+06 1.89696E+05 2.72322E+05-6.65753E+04 3.18909E-09 1.28675E-07
 -1       253 2.75540E+06-2.52073E+04 9.95156E+04 5.98455E+03-6.78347E-09-2.90456E-08
 -1       254 2.78366E+06 2.91966E+04 6.24547E+04-2.80568E+04 4.71755E-09-5.74728E-08
 -1       255 2.76643E+06-3.86359E+03 2.56753E+04-3.39449E+03-1.85139E-10-9.10313E-09
 -1       256 2.77089E+06 4.58520E+03 1.52998E+04-1.59855E+04 4.24283E-09 2.32035E-09
 -1       257 2.76819E+06-6.37065E+02 7.60965E+03-6.08696E+03-3.99186E-09 1.94939E-07
 -1       258 2.76907E+06 1.21622E+03 6.13808E+03-1.37382E+04 8.04295E-09-1.04281E-07
 -1       259 2.76827E+06-5.00588E+02 6.39012E+03-5.64186E+03 7.51385E-10-2.20342E-08
 -1       260 2.77034E+06 3.40416E+03 1.17853E+04-1.83491E+04-2.91527E-09 8.01083E-08
 -1       261 2.76692E+06-2.82695E+03 1.93219E+04-1.47604E+03 4.18936E-10-9.74615E-09
 -1       262 2.78067E+06 2.14935E+04 4.67725E+04-3.58761E+04-2.22605E-09-5.16975E-08
 -1       263 2.75799E+06-1.86078E+04 7.41209E+04 1.18853E+04-2.67642E-09 1.07953E-07
 -1       264 2.84999E+06 1.41425E+05 2.04902E+05-9.00979E+04-2.04636E-12 1.42867E-07
 -1       265 2.69854E+06-1.22985E+05 2.83725E+05 5.27454E+04-7.13226E-09 3.75294E-08
 -1       266-5.93474E+04-2.77381E+04 1.39309E+05-2.33815E+02 8.00355E-10 2.34548E-07
 -1       267 6.88054E+04 3.23497E+04 9.84298E+04 2.69665E+02 1.11322E-09 1.99124E-07
 -1       268-9.22644E+03-4.58050E+03 3.65878E+04-3.43662E+01 1.16597E-09 1.16360E-07
 -1       269 1.08940E+04 5.48313E+03 2.37797E+04 4.00247E+01 1.00385E-09 8.62924E-08
 -1       270-1.63520E+03-9.00863E+02 1.14789E+04-5.43192E+00 1.28330E-09 2.58826E-07
 -1       271-6.09025E+06-7.71123E+05-4.77910E+05-2.38895E+06 4.40195E-10 7.51170E-08
 -1       272-6.20569E+06-1.16822E+06-3.06264E+05-2.44014E+06 1.40312E-08-9.45256E-08
 -1       273-6.19084E+06-8.78295E+05-1.13053E+05-2.35549E+06 1.16397E-08 9.95424E-08
 -1       274-6.08709E+06-1.03911E+06-6.27405E+04-2.49541E+06-7.85349E-09 2.35954E-07
 -1       275-6.21118E+06-8.81795E+05-2.62630E+04-2.34299E+06 2.17733E-08 4.46107E-08
 -1       276-6.06509E+06-1.03409E+06-1.39213E+04-2.51512E+06-8.43193E-09 2.60732E-08
 -1       277-6.21612E+06-8.79417E+05-6.98605E+03-2.33888E+06-2.04031E-08-2.83753E-08
 -1       278-6.06327E+06-1.03281E+06-5.49846E+03-2.51605E+06 3.49687E-08-7.58787E-08
 -1       279-6.21310E+06-8.82839E+05-6.79946E+03-2.34221E+06-2.54786E-08 9.29322E-09
 -1       280-6.07346E+06-1.02291E+06-1.25742E+04-2.49989E+06 2.23863E-08 1.02119E-07
 -1       281-6.20250E+06-8.91629E+05-2.44685E+04-2.35256E+06 1.55451E-08 6.10635E-09
 -1       282-6.10319E+06-1.01622E+06-5.66842E+04-2.46774E+06 1.80007E-08-4.80668E-08
 -1       283-6.17844E+06-8.94298E+05-1.03306E+05-2.37005E+06-2.38106E-08 4.27171E-08
 -1       284-6.22140E+06-1.12285E+06-2.77610E+05-2.40648E+06 1.45737E-08-1.86614E-07
 -1       285-6.08257E+06-8.01448E+05-4.34234E+05-2.40545E+06 1.78370E-08-4.74392E-08
 -1       301-6.78134E+03 2.83830E+05 8.21511E+04 7.41642E+05-3.28873E-09-5.02041E-09
 -1       302-8.35962E+03 3.08388E+05 6.78532E+04 1.08610E+06 3.51429E-09-2.50435E-07
 -1       303-1.30029E+04 2.85917E+05 7.35606E+04 7.39907E+05-1.51340E-09-1.79280E-08
 -1       304 1.12324E+04 3.30548E+05 1.35966E+05 1.08561E+06 6.93035E-10 9.10950E-08
 -1       305 1.27819E+04 2.68191E+05 2.32512E+05 7.42621E+05-1.44064E-09 3.99814E-08
 -1       306-1.81529E+07-1.22279E+07-7.04291E+06-9.74801E+06 8.94070E-08-1.06389E-07
 -1       307 3.34851E+06 2.07644E+07 4.68419E+06 1.16058E+07 7.34886E-07-3.55067E-07
 -1       308-1.71361E+06-9.22760E+06-1.20643E+06-4.65020E+06 3.24217E-08-7.11298E-08
 -1       309-1.65050E+07 1.73363E+07 1.43140E+06-4.01389E+06-5.55738E-08 2.46397E-07
 -1       310-4.70880E+05-8.24189E+06-4.66485E+05-3.97817E+06 1.82117E-07 2.70957E-08
 -1       311-1.01342E+06 1.99534E+07 4.23346E+06 9.53194E+06-4.49108E-07 3.04863E-07
 -1       312-1.57789E+07-1.19391E+07-5.49640E+06-9.88586E+06-3.93484E-08-1.90514E-07
 -1       313 3.30338E+07 8.14402E+06 7.67680E+06 1.47225E+07 2.00002E-07-1.73939E-07
 -1       314-2.45305E+07-4.70523E+06-5.90764E+06-3.36527E+06-9.94187E-08-2.23881E-08
 -1       315 2.35675E+07-5.48988E+05 4.85907E+06-8.20463E+06 2.34315E-07 1.34547E-07
 -1       316-1.02361E+07-7.16349E+05-1.05671E+06 3.70752E+06 3.72936E-07 5.08764E-07
 -1       317-3.44964E+06 4.29999E+06 1.43367E+06-1.69348E+07-8.61083E-07 2.48612E-07
 -1       318-8.29193E+06-4.31246E+05-6.22478E+05 3.86165E+06 5.93864E-07 8.27895E-08
 -1       319 1.91659E+07 8.42103E+05 4.05169E+06-1.07770E+07 1.74725E-07 1.22367E-07
 -1       320-2.40485E+07-4.77175E+06-6.62386E+06-1.68305E+06-8.80100E-08-7.45058E-09
 -1       336 1.67153E+02-3.06586E+05-4.44750E+02 1.66005E+02-3.77270E-09 6.12363E-09
 -1       337-6.66787E+01-3.06559E+05 8.54977E+02-5.01980E+02-7.25117E-09-1.94586E-09
 -1       338-2.65145E+02-3.06938E+05 2.51790E+03 3.35026E+02-5.04633E-09 1.33241E-09
 -1       339 3.25645E+03-3.04557E+05 6.81459E+03-8.33345E+02-9.38076E-09-1.58525E-09
 -1       340-2.41567E+03-3.08595E+05 1.08645E+04 4.99457E+02-6.27551E-09 3.70983E-09
 -1       406-6.15703E+00 3.28645E+05 5.56440E+02-1.20114E+00 1.28551E-09-8.04175E-09
 -1       407 1.68028E+02 3.28754E+05 1.18526E+03-1.64534E+01 2.49202E-10-3.80169E-09
 -1       408 5.82759E+02 3.28559E+05 2.36562E+03 1.80221E+01 1.47361E-09-8.16362E-09
 -1       409 2.53505E+03 3.29509E+05 5.32817E+03-1.83444E+02 1.09139E-10-7.56700E-10
 -1       410 7.33110E+03 3.27883E+05 1.08762E+04 1.74694E+02 1.40608E-09-4.90127E-09
 -1       521-1.83938E+07-1.26866E+07-7.31800E+06-9.40898E+06 3.88827E-08-3.19356E-07
 -1       522 8.56478E+05 2.15207E+07 4.40064E+06 1.10850E+07 5.59841E-07 4.74101E-08
 -1       523-2.23881E+06-9.68774E+06-1.15436E+06-5.07595E+06 1.40222E-07 2.18570E-07
 -1       524-1.92825E+07 1.82749E+07 1.39952E+06-5.49056E+06-3.60807E-07 6.41026E-07
 -1       525-1.07280E+06-8.84224E+06-4.24508E+05-4.53543E+06-3.36033E-07 4.19735E-07
 -1       526-3.42007E+06 2.08723E+07 4.05995E+06 8.97647E+06-3.39925E-07 1.17725E-07
 -1       527-1.61600E+07-1.23640E+07-5.70119E+06-9.58549E+06 7.93952E-08 7.60192E-08
 -1       528 3.21824E+07 7.63456E+06 7.28234E+06 1.45592E+07 8.61473E-08-4.75557E-08
 -1       529-2.45735E+07-5.41814E+06-6.12723E+06-3.20373E+06 4.16767E-07-6.86850E-09
 -1       530 2.22219E+07-8.71224E+05 4.61632E+06-9.87125E+06 3.04688E-07-1.17623E-07
 -1       531-1.11417E+07-7.99961E+05-9.95035E+05 3.68038E+06 5.11121E-07 2.11934E-07
 -1       532-5.86159E+06 4.87707E+06 1.40444E+06-1.87971E+07-4.88929E-07 3.45462E-07
 -1       533-9.45001E+06-4.73521E+05-5.85422E+05 3.86682E+06-3.66563E-07 5.74539E-07
 -1       534 1.78316E+07 6.47884E+05 3.85271E+06-1.24435E+07 4.07686E-07-4.14388E-07
 -1       535-2.41483E+07-5.44471E+06-6.86803E+06-1.67427E+06 7.47386E-08-2.96452E-07
 -1       536 9.53755E+05-5.37996E+04 1.24048E+05 5.45343E+03-8.31920E-09 6.47560E-09
 -1       537 1.01012E+06 6.22315E+04 8.81870E+04-8.70583E+03-2.34959E-09 3.00406E-09
 -1       538 9.75682E+05-8.38887E+03 3.21777E+04 8.02675E+02-6.47006E-10 3.40879E-09
 -1       539 9.84699E+05 9.70577E+03 2.02442E+04-2.86380E+03-1.19223E-09 1.52795E-09
 -1       540 9.79180E+05-1.30854E+03 8.27401E+03-3.88387E+02-5.02650E-10-1.77215E-09
 -1       541 9.80639E+05 1.53205E+03 4.92474E+03-1.36679E+03 1.19986E-09 4.78167E-09
 -1       542 9.79751E+05-2.20610E+02 2.38405E+03-6.94360E+02-2.19029E-11 8.75752E-09
 -1       543 9.80032E+05 3.77178E+02 1.83595E+03-1.00631E+03 8.91970E-10 6.67786E-09
 -1       544 9.79790E+05-1.54374E+02 1.77976E+03-7.48877E+02 9.25401E-10-1.64982E-09
 -1       545 9.80327E+05 9.61547E+02 3.17854E+03-1.03641E+03 9.00731E-10-6.39017E-09
 -1       546 9.79454E+05-8.04570E+02 5.12800E+03-6.64261E+02 1.09444E-09 3.46267E-09
 -1       547 9.82755E+05 5.94222E+03 1.23880E+04-1.51929E+03 6.23137E-10 1.67529E-09
 -1       548 9.77355E+05-5.13130E+03 1.96514E+04-2.65982E+02 1.10181E-09-6.01631E-09
 -1       549 9.97644E+05 3.79271E+04 5.36677E+04-3.47183E+03 1.17503E-09-5.16593E-09
 -1       550 9.64548E+05-3.27633E+04 7.57806E+04 1.28827E+03-2.41556E-10 1.22964E-09
 -1       551 6.31258E+03-4.81701E+05-1.99657E+03-1.19673E+06-2.23299E-08 1.81899E-09
 -1       552 2.67282E+04-4.98531E+05 1.79873E+04-1.70419E+06-2.07365E-08 1.82736E-08
 -1       553 2.06241E+04-5.01178E+05 4.09482E+04-1.19340E+06-3.01807E-08 1.23437E-08
 -1       554 5.22107E+04-4.81432E+05 9.54572E+04-1.70446E+06-1.78552E-08-2.68847E-09
 -1       555 4.09190E+04-5.08976E+05 1.71709E+05-1.19617E+06-2.63026E-08-5.55883E-09
 -1       556 1.16058E+04-1.07800E+05 2.99948E+04-1.48809E+05-3.68891E-09-5.77711E-09
 -1       557 5.20794E+04-1.42598E+05 1.57199E+04-1.83911E+05-1.51340E-09-2.10912E-09
 -1       558 1.17132E+04-1.11904E+05 6.43613E+03-1.45186E+05-2.70666E-09-2.75395E-09
 -1       559 4.76743E+04-1.46837E+05 3.24869E+03-1.85857E+05 1.20781E-09-1.32495E-08
 -1       560 1.09041E+04-1.11354E+05 1.39736E+03-1.45659E+05-4.02360E-09-1.32886E-08
 -1       561 4.63809E+04-1.46570E+05 7.25574E+02-1.86680E+05-2.29738E-09-1.50601E-09
 -1       562 1.02908E+04-1.10930E+05 3.05898E+02-1.46099E+05-7.20320E-10 3.64707E-10
 -1       563 4.57026E+04-1.46284E+05 1.67373E+02-1.87117E+05 2.55568E-10-6.44695E-09
 -1       564 9.98456E+03-1.10724E+05 5.15357E+01-1.46317E+05 2.74667E-09-4.26371E-09
 -1       565 4.54773E+04-1.46191E+05-1.98637E+01-1.87254E+05 1.18052E-09-3.94903E-09
 -1       566 1.00025E+04-1.10727E+05-1.41958E+02-1.46313E+05-4.14639E-09-2.61207E-09
 -1       567 4.56509E+04-1.46276E+05-3.48471E+02-1.87070E+05 2.30830E-09 1.29548E-08
 -1       568 1.03892E+04-1.10976E+05-7.88519E+02-1.46104E+05-1.78807E-09 7.08860E-09
 -1       569 4.53724E+04-1.46449E+05-1.80629E+03-1.86002E+05-3.47609E-09 3.70710E-09
 -1       570 1.17791E+04-1.12503E+05-3.61759E+03-1.45877E+05 1.89175E-10-1.37516E-09
 -1       571 2.33299E+05 8.05402E+03 1.20098E+04-5.56948E+04-1.60981E-10 6.72480E-09
 -1       572 2.35085E+05 2.76640E+03 5.88446E+03-6.10299E+04-7.96717E-10-1.57070E-09
 -1       573 2.34006E+05 6.25915E+02 2.61397E+03-5.55352E+04 3.16504E-10 5.05270E-09
 -1       574 2.34217E+05 1.71504E+02 1.30983E+03-6.12031E+04-5.29099E-10 4.08545E-09
 -1       575 2.34078E+05-1.09200E+01 6.17072E+02-5.55145E+04-1.55524E-10 3.60887E-09
 -1       576 2.34093E+05-3.46535E+01 3.13808E+02-6.12261E+04 1.01670E-09-1.05501E-10
 -1       577 2.34085E+05-4.26006E+01 1.53757E+02-5.55117E+04 1.18797E-08-1.64482E-09
 -1       578 2.34078E+05-4.35727E+01 8.22120E+01-6.12289E+04 2.00863E-08 7.87622E-10
 -1       579 2.34098E+05-4.42248E+01 4.71231E+01-5.55117E+04 7.15772E-09 2.79306E-09
 -1       580 2.34096E+05-5.11009E+01 3.87983E+01-6.12259E+04-1.66756E-09-1.04133E-08
 -1       581 2.34124E+05-5.50891E+01 4.64954E+01-5.55147E+04-1.50612E-09-1.80808E-09
 -1       582 2.34140E+05-5.73099E+01 8.44728E+01-6.11946E+04 1.13869E-09 7.98536E-09
 -1       583 2.34160E+05-3.94887E+01 1.58253E+02-5.55429E+04 1.87629E-09 1.45451E-09
 -1       584 2.34244E+05 7.38313E+01 3.54340E+02-6.09581E+04-2.83035E-09 1.81399E-09
 -1       585 2.34167E+05 3.84177E+02 7.16636E+02-5.57517E+04 6.82121E-10 3.36513E-09
 -1       586-3.21660E+03 7.38391E+04-4.63311E+03-1.80006E+05 2.01544E-09 2.59161E-09
 -1       587-6.37363E+02 7.31608E+04-1.01033E+03-1.98026E+05 2.72121E-09 4.31604E-09
 -1       588 8.20101E+02 7.33760E+04 2.08022E+03-1.79871E+05 1.47156E-09 1.73150E-08
 -1       589 3.69454E+03 7.46288E+04 6.74263E+03-1.97908E+05 2.49747E-09 2.10957E-08
 -1       590 1.02575E+04 7.25458E+04 1.46710E+04-1.80118E+05 1.54705E-09 1.17780E-08
 -1       591-5.12114E+04-1.55495E+04-1.75072E+04-2.76519E+04-3.62911E-09 1.92358E-09
 -1       592-5.25510E+04-2.01474E+04-9.48243E+03-3.25552E+04-3.82363E-09 3.13298E-09
 -1       593-5.29872E+04-1.42545E+04-3.94783E+03-2.89132E+04-7.20456E-09-4.09500E-10
 -1       594-5.01085E+04-1.76072E+04-1.96880E+03-3.26843E+04-9.89792E-09 1.14557E-09
 -1       595-5.31242E+04-1.42475E+04-9.04873E+02-2.89717E+04-5.37341E-09 7.94866E-09
 -1       596-4.99443E+04-1.74906E+04-4.61220E+02-3.26684E+04 1.33969E-09 5.15905E-09
 -1       597-5.31419E+04-1.42583E+04-2.54000E+02-2.89742E+04-1.72327E-09-9.81458E-10
 -1       598-4.99287E+04-1.74861E+04-2.09410E+02-3.26637E+04 9.35984E-10-6.99447E-09
 -1       599-5.31402E+04-1.42586E+04-2.74135E+02-2.89736E+04-6.99856E-10-7.00470E-09
 -1       600-4.99454E+04-1.74925E+04-5.14491E+02-3.26672E+04-2.89913E-09-3.99791E-09
 -1       601-5.31174E+04-1.42473E+04-1.01793E+03-2.89695E+04-7.91852E-09-5.88852E-09
 -1       602-5.01297E+04-1.76241E+04-2.21965E+03-3.26824E+04-1.24684E-08-7.65237E-09
 -1       603-5.29607E+04-1.42577E+04-4.45247E+03-2.89034E+04-4.74370E-09 4.63615E-09
 -1       604-5.28909E+04-2.04807E+04-1.06946E+04-3.25249E+04-1.48430E-09 3.17118E-09
 -1       605-5.09473E+04-1.57251E+04-1.97449E+04-2.74885E+04-1.33286E-09-2.90584E-09
 -1       606 3.63990E+04-1.12621E+04-2.02997E+04 3.56807E+04-5.48607E-09 2.58478E-09
 -1       607 3.29182E+04-3.61727E+03-1.01070E+04 4.00482E+04-8.68567E-10 5.81122E-09
 -1       608 3.48754E+04-5.96446E+02-4.52829E+03 3.53930E+04 4.10364E-09-2.70370E-09
 -1       609 3.44718E+04-1.27977E+02-2.28633E+03 4.03608E+04-3.56158E-09-5.74028E-09
 -1       610 3.46729E+04 5.88178E+01-1.09376E+03 3.53609E+04-8.19091E-09 2.44199E-10
 -1       611 3.45860E+04 8.79940E+01-5.51334E+02 4.03948E+04-1.42900E-08 7.95626E-09
 -1       612 3.46069E+04 8.76564E+01-2.65193E+02 3.53578E+04-6.06451E-09 3.76440E-09
 -1       613 3.45654E+04 1.07913E+02-1.21294E+02 4.03987E+04-8.79754E-09-3.02953E-09
 -1       614 3.45663E+04 9.72635E+01-3.61139E+01 3.53567E+04 9.80435E-10-2.00362E-09
 -1       615 3.45376E+04 1.22102E+02 3.35700E+01 4.03991E+04 1.08412E-08-3.06227E-09
 -1       616 3.45358E+04 1.10461E+02 1.16330E+02 3.53571E+04-4.27008E-09-9.11496E-09
 -1       617 3.45341E+04 1.57505E+02 2.72284E+02 4.03983E+04 1.55705E-09 8.73115E-11
 -1       618 3.44993E+04 1.97103E+02 5.50916E+02 3.53572E+04 7.70797E-10 8.39327E-09
 -1       619 3.47181E+04 5.90120E+02 1.23885E+03 4.03972E+04-8.82437E-10 1.04774E-09
 -1       620 3.43097E+04 1.50938E+03 2.49026E+03 3.53548E+04 2.86104E-09-5.00904E-09
 -1       621 4.92276E+02 2.63755E+05 4.14397E+03 2.93788E+03-5.32282E-10-6.56655E-09
 -1       622 5.49905E+02 2.64786E+05 3.36127E+03 4.37010E+03-5.90660E-10-5.02814E-09
 -1       623 2.07131E+01 2.64075E+05 3.66154E+03 2.92465E+03-5.55929E-10-2.10582E-09
 -1       624 1.60087E+03 2.65753E+05 6.77515E+03 4.38078E+03-5.31713E-10-4.36086E-09
 -1       625 1.60498E+03 2.62787E+05 1.16944E+04 2.92869E+03-4.36103E-10-2.13564E-09
 -1       626 2.09107E+05 5.99339E+04 3.95763E+03 1.15850E+05-1.09912E-09 3.82897E-09
 -1       627 2.05979E+05 6.23454E+04 1.90789E+03 1.20644E+05 5.38421E-10 3.92060E-09
 -1       628 2.09262E+05 5.80416E+04 8.04535E+02 1.16411E+05 1.12395E-08 9.00673E-09
 -1       629 2.05362E+05 6.19284E+04 3.95250E+02 1.20922E+05 9.79344E-09 4.19311E-09
 -1       630 2.09259E+05 5.79587E+04 1.82200E+02 1.16415E+05 9.64428E-09-9.72182E-09
 -1       631 2.05275E+05 6.19265E+04 9.88764E+01 1.20916E+05 4.78576E-09-2.78599E-08
 -1       632 2.09238E+05 5.79718E+04 6.60247E+01 1.16399E+05-6.83212E-09-1.59688E-08
 -1       633 2.05251E+05 6.19369E+04 7.56943E+01 1.20901E+05-1.43355E-08-2.39938E-08
 -1       634 2.09218E+05 5.79765E+04 1.23689E+02 1.16389E+05 8.38554E-09-1.28057E-09
 -1       635 2.05250E+05 6.19414E+04 2.51984E+02 1.20896E+05 5.28871E-09-6.46651E-10
 -1       636 2.09201E+05 5.79777E+04 5.09118E+02 1.16383E+05-3.74212E-09 1.18598E-09
 -1       637 2.05351E+05 6.20235E+04 1.11902E+03 1.20890E+05-4.37240E-10-7.98218E-09
 -1       638 2.09157E+05 5.82273E+04 2.29969E+03 1.16267E+05-1.28762E-09-8.67658E-09
 -1       639 2.06554E+05 6.37060E+04 5.44008E+03 1.20534E+05-5.97174E-09 2.36969E-09
 -1       640 2.09002E+05 6.32298E+04 1.12891E+04 1.14138E+05-4.50655E-09-2.53294E-10
 -1       656 5.77317E+04-1.45668E+06-1.39330E+05 5.75520E+02 3.11411E-09-5.42616E-09
 -1       657-7.62675E+04-1.51950E+06-1.15167E+05 1.03669E+04 6.18456E-10 3.96727E-09
 -1       658 1.82779E+04-1.47461E+06-7.05858E+04-1.28449E+03 1.93040E-09 6.09847E-09
 -1       659-8.15693E+04-1.52202E+06-1.22130E+05 1.15604E+04-5.23869E-10-6.96113E-09
 -1       660 6.30226E+04-1.45416E+06-1.51295E+05-6.17935E+02 2.40107E-10 2.62503E-10
 -1       661 2.23199E+05 2.45457E+04 2.11097E+04 8.73678E+04 4.70982E-09 5.50244E-09
 -1       662 2.34106E+05 4.11892E+04 1.42242E+04 8.37998E+04 2.49838E-09-9.43555E-09
 -1       663 2.27343E+05 3.13178E+04 4.97589E+03 8.61660E+04 7.48969E-10 1.44723E-09
 -1       664 2.29306E+05 3.32658E+04 2.97492E+03 8.52649E+04-2.80278E-09 5.88238E-09
 -1       665 2.27968E+05 3.22464E+04 1.17334E+03 8.59871E+04-5.10141E-09 2.23207E-09
 -1       666 2.28570E+05 3.22016E+04 6.83965E+02 8.54977E+04-1.17789E-08 1.80910E-09
 -1       667 2.28075E+05 3.23540E+04 3.59879E+02 8.59439E+04-3.39176E-09 9.52401E-10
 -1       668 2.28451E+05 3.21216E+04 3.59398E+02 8.55626E+04 6.02643E-09-5.60942E-09
 -1       669 2.28087E+05 3.23237E+04 4.80224E+02 8.59231E+04-2.17173E-09-3.89662E-11
 -1       670 2.28562E+05 3.23841E+04 1.04015E+03 8.55719E+04 1.09783E-08 3.86730E-09
 -1       671 2.27964E+05 3.20965E+04 1.84474E+03 8.59325E+04 7.16284E-10 6.27028E-09
 -1       672 2.29629E+05 3.41864E+04 4.71823E+03 8.53217E+04-4.88360E-09 6.05087E-09
 -1       673 2.27026E+05 3.05664E+04 7.90630E+03 8.61561E+04-3.30601E-10 2.20552E-09
 -1       674 2.37149E+05 4.68921E+04 2.26096E+04 8.31163E+04-3.27009E-09 1.05206E-09
 -1       675 2.20493E+05 1.97458E+04 3.35605E+04 8.80037E+04 1.19462E-09 7.40329E-10
 -1       676 2.41664E+01-2.85090E+05-1.11836E+03 1.08118E+02-3.33864E-09-3.17745E-09
 -1       677-2.96262E+02-2.85362E+05-2.04678E+03-2.16074E+02-8.06210E-09-8.83389E-10
 -1       678 1.98365E+02-2.84898E+05-3.61819E+03 1.07882E+02 4.97266E-10-5.12335E-09
 -1       679-3.61863E+03-2.87546E+05-8.59529E+03-2.15218E+02-1.81956E-09-1.64364E-09
 -1       680 2.16021E+03-2.82907E+05-1.38526E+04 1.06019E+02-2.86855E-09-5.77084E-09
 -1       771-3.08321E+06-4.80844E+05-1.21596E+05-1.19941E+06-8.04812E-09-5.03496E-09
 -1       772-3.10149E+06-5.02862E+05-6.57822E+04-1.22190E+06-3.05408E-09 3.52156E-09
 -1       773-3.09614E+06-4.71321E+05-2.74749E+04-1.20767E+06-7.63976E-10 1.72076E-09
 -1       774-3.08392E+06-4.86049E+05-1.36275E+04-1.22410E+06 5.26779E-09-4.28281E-09
 -1       775-3.09766E+06-4.70739E+05-6.30161E+03-1.20780E+06 1.69894E-09-6.68842E-09
 -1       776-3.08242E+06-4.85791E+05-3.06575E+03-1.22499E+06 6.09725E-09-5.38512E-09
 -1       777-3.09831E+06-4.70364E+05-1.53110E+03-1.20761E+06 6.06451E-09 2.21553E-09
 -1       778-3.08203E+06-4.86189E+05-8.06424E+02-1.22581E+06 2.53203E-09-3.97449E-10
 -1       779-3.09877E+06-4.70004E+05-5.99909E+02-1.20745E+06 2.60115E-09-1.37743E-09
 -1       780-3.08185E+06-4.86535E+05-6.62857E+02-1.22649E+06 7.27596E-10 4.50905E-09
 -1       781-3.09909E+06-4.69696E+05-1.12566E+03-1.20733E+06-4.76939E-09-2.42881E-09
 -1       782-3.08191E+06-4.86917E+05-2.30310E+03-1.22701E+06-5.08226E-09-3.32784E-09
 -1       783-3.09917E+06-4.69502E+05-4.58233E+03-1.20718E+06 8.36735E-11-2.56387E-09
 -1       784-3.08463E+06-4.90052E+05-1.09789E+04-1.22722E+06-2.22508E-09-9.02219E-10
 -1       785-3.09729E+06-4.70847E+05-2.02712E+04-1.20566E+06-5.13774E-09-6.50289E-10
 -1       786 2.52150E+05-1.23377E+04 2.85456E+04 1.36769E+02 2.73465E-09-9.45874E-10
 -1       787 2.64517E+05 1.42834E+04 2.01952E+04 9.76644E+00 1.91386E-08-5.50631E-09
 -1       788 2.56922E+05-1.93405E+03 7.38907E+03 1.14473E+02 5.61599E-06-7.83075E-10
 -1       789 2.58958E+05 2.23795E+03 4.64345E+03 4.02850E+01 1.11957E-05-1.03103E-08
 -1       790 2.57710E+05-3.02174E+02 1.89134E+03 1.06256E+02 5.20201E-06 5.74244E-09
 -1       791 2.58040E+05 3.51680E+02 1.11404E+03 4.80809E+01-8.18807E-07 4.12396E-09
 -1       792 2.57842E+05-4.92024E+01 5.15496E+02 1.06678E+02-4.68110E-06-9.06897E-09
 -1       793 2.57893E+05 7.25717E+01 3.52107E+02 3.86526E+01-8.51527E-06 7.29610E-09
 -1       794 2.57857E+05-2.32512E+01 2.82714E+02 1.15684E+02-4.27139E-06-2.60562E-09
 -1       795 2.57920E+05 1.28584E+02 4.40546E+02 8.15792E+00-1.38745E-08 1.10467E-08
 -1       796 2.57815E+05-1.05178E+02 6.79001E+02 1.37173E+02-1.01090E-09-1.37911E-09
 -1       797 2.58234E+05 7.73468E+02 1.61683E+03-5.67398E+01-1.15394E-09-2.71470E-09
 -1       798 2.57543E+05-6.67667E+02 2.55696E+03 1.80583E+02-1.09366E-09-6.16183E-10
 -1       799 2.60156E+05 4.93100E+03 6.97576E+03-1.85651E+02-1.81839E-09 4.97141E-09
 -1       800 2.55892E+05-4.25937E+03 9.85381E+03 2.66083E+02-1.61815E-10-4.27917E-10
 -1       801-1.20498E+05 2.76415E+06 2.77114E+05 1.32609E+04 1.00554E-08-5.32998E-09
 -1       802 1.74422E+05 2.97016E+06 2.73492E+05-1.24519E+05 2.53949E-08-4.30404E-10
 -1       803-5.11408E+04 2.82896E+06 2.06329E+05-4.49335E+04 1.84264E-08 1.74969E-08
 -1       804 2.98350E+05 3.03439E+06 4.35703E+05-1.31846E+05 2.32358E-08 1.92192E-08
 -1       805-2.44280E+05 2.70009E+06 5.52826E+05 2.05800E+04 7.36327E-09 3.53733E-08
 -1       806-2.53019E+05-5.85308E+04-2.33530E+04-1.09868E+05 5.56156E-10 2.12276E-09
 -1       807-2.53979E+05-5.56028E+04-1.14726E+04-1.16534E+05-1.50254E-09-2.47110E-09
 -1       808-2.53705E+05-5.00715E+04-4.86642E+03-1.13807E+05-3.96972E-09 1.23882E-08
 -1       809-2.51505E+05-5.24436E+04-2.37862E+03-1.16898E+05-2.08182E-08 2.62378E-09
 -1       810-2.53812E+05-4.97710E+04-1.08889E+03-1.13980E+05-7.03017E-09 4.18640E-09
 -1       811-2.51316E+05-5.23202E+04-5.39316E+02-1.16874E+05 7.04210E-09 1.42791E-10
 -1       812-2.53830E+05-4.97927E+04-2.67956E+02-1.13979E+05 3.50451E-09 2.92880E-09
 -1       813-2.51290E+05-5.23245E+04-1.66966E+02-1.16859E+05 1.43473E-10-3.78850E-09
 -1       814-2.53826E+05-4.98023E+04-1.53324E+02-1.13974E+05 3.46017E-09 2.92266E-09
 -1       815-2.51289E+05-5.23284E+04-2.36364E+02-1.16852E+05-3.24599E-09-9.46420E-09
 -1       816-2.53806E+05-4.98031E+04-4.41048E+02-1.13969E+05-2.59934E-09-3.78031E-09
 -1       817-2.51360E+05-5.23720E+04-9.43902E+02-1.16839E+05 6.71798E-09-3.31511E-09
 -1       818-2.53744E+05-4.99394E+04-1.92368E+03-1.13903E+05 2.29829E-09 1.59616E-09
 -1       819-2.52421E+05-5.35222E+04-4.52615E+03-1.16569E+05-3.23416E-09-2.52112E-09
 -1       820-2.53367E+05-5.33684E+04-9.21241E+03-1.12445E+05-7.17591E-10 5.43764E-09
 -1       821-3.32812E+05 1.86420E+04-4.31254E+04 2.17577E+02-1.21339E-09-5.15683E-09
 -1       822-3.51430E+05-2.15848E+04-3.05066E+04-1.92543E+03-2.41954E-09 1.75214E-09
 -1       823-3.39984E+05 2.92571E+03-1.11663E+04 4.44269E+02 6.83824E-10 2.92448E-09
 -1       824-3.43032E+05-3.38702E+03-7.02307E+03-1.94082E+03 2.52854E-10 7.87941E-09
 -1       825-3.41207E+05 4.58115E+02-2.89223E+03 2.32971E+02-3.17191E-09 3.90855E-09
 -1       826-3.41568E+05-5.38670E+02-1.72375E+03-1.19488E+03-6.51667E-09-3.65526E-09
 -1       827-3.41445E+05 7.76614E+01-9.14190E+02-3.01681E+02-5.64255E-09-4.54764E-09
 -1       828-3.41354E+05-1.59449E+02-7.68959E+02-6.64280E+01-1.01303E-08-2.44247E-10
 -1       829-3.41420E+05 7.86643E+01-9.17444E+02-8.95503E+02 9.07718E-11-2.19282E-09
 -1       830-3.41631E+05-5.43641E+02-1.75787E+03 8.87263E+02 4.08774E-09 1.64479E-09
 -1       831-3.41170E+05 4.63204E+02-2.92788E+03-1.25539E+03-5.48351E-09-2.74588E-09
 -1       832-3.43079E+05-3.43020E+03-7.13007E+03 1.19725E+03-2.01718E-09 1.00681E-09
 -1       833-3.39974E+05 2.96406E+03-1.13356E+04-1.20549E+03-7.95289E-10 6.34600E-09
 -1       834-3.51537E+05-2.18970E+04-3.09510E+04 7.14258E+02 9.29106E-10 9.75706E-09
 -1       835-3.32714E+05 1.89146E+04-4.37751E+04-7.72368E+02 8.78684E-09 1.58070E-09
 -1       836-1.09781E+03 3.22944E+05 1.93060E+04-3.27996E+04 3.93720E-09 3.54248E-09
 -1       837 4.33859E+03 3.28873E+05 1.64510E+04-6.57323E+04 5.24460E-09-5.24051E-09
 -1       838-3.66159E+02 3.24599E+05 1.69123E+04-3.27001E+04 4.43606E-09 3.37877E-10
 -1       839 1.09253E+04 3.33777E+05 3.21402E+04-6.57547E+04 5.80258E-09 5.83009E-09
 -1       840-3.21749E+03 3.17986E+05 5.13080E+04-3.27731E+04 4.36921E-09 1.15233E-09
 -1       856-1.17892E+05 9.35470E+03-2.46552E+04-6.30943E+02-5.65115E-09-3.32875E-09
 -1       857-1.28079E+05-1.09659E+04-1.69742E+04 5.38023E+03-6.97389E-09-4.90127E-09
 -1       858-1.21915E+05 1.30981E+03-6.39917E+03-6.64292E+02-6.04831E-09 5.72982E-10
 -1       859-1.23460E+05-1.51620E+03-3.86507E+03 5.43474E+03 1.94859E-09-1.57507E-09
 -1       860-1.22516E+05 1.81320E+02-1.62637E+03-6.85809E+02 2.11514E-09 1.33400E-09
 -1       861-1.22769E+05-1.93172E+02-9.08014E+02 5.46433E+03-7.09161E-09 2.92876E-09
 -1       862-1.22609E+05 2.33729E+01-4.04351E+02-6.93953E+02 9.07620E-09 3.59350E-09
 -1       863-1.22659E+05-7.88695E+00-2.08360E+02 5.46774E+03 1.57573E-08-3.20039E-09
 -1       864-1.22625E+05 1.69241E-01-8.24697E+01-6.89229E+02 7.46729E-09-3.50938E-09
 -1       865-1.22631E+05 2.53449E+01-8.29141E+00 5.44473E+03 7.47758E-09-2.11120E-09
 -1       866-1.22634E+05-1.10556E+01 5.32990E+01-6.70937E+02 1.17353E-09-3.17480E-09
 -1       867-1.22584E+05 9.11804E+01 1.77651E+02 5.39513E+03-8.52197E-10-1.41405E-09
 -1       868-1.22667E+05-6.75856E+01 3.04603E+02-6.39621E+02 1.75237E-09-1.71873E-09
 -1       869-1.22342E+05 5.51268E+02 8.30535E+02 5.31527E+03-4.97482E-09-2.32313E-09
 -1       870-1.22869E+05-4.63202E+02 1.20021E+03-5.91072E+02-2.31694E-10-2.03619E-09
 -1       871-4.95414E+03-8.97069E+03-1.56294E+04 1.01461E+05 5.21504E-09-4.43197E-09
 -1       872-2.25186E+03-1.24440E+04-6.32690E+03 1.31536E+05 8.68727E-09 3.66481E-09
 -1       873-1.66336E+02-1.08615E+04 1.01393E+03 1.01239E+05 4.00723E-09 2.31466E-09
 -1       874 2.30244E+03-8.49500E+03 9.10632E+03 1.31587E+05 1.01236E-08 6.00267E-10
 -1       875 5.69303E+03-1.30032E+04 2.01169E+04 1.01429E+05 2.34741E-09-2.37833E-09
 -1       876 2.60560E+05 4.53066E+04 1.41394E+04 1.06198E+05-4.13445E-09-1.57615E-09
 -1       877 2.61313E+05 4.84673E+04 7.55092E+03 1.10436E+05-1.05356E-08-3.00054E-09
 -1       878 2.61879E+05 4.37436E+04 3.16328E+03 1.07360E+05 9.28412E-09 6.12340E-09
 -1       879 2.59388E+05 4.65524E+04 1.57583E+03 1.10534E+05 2.74872E-09 5.79115E-09
 -1       880 2.61974E+05 4.37274E+04 7.33376E+02 1.07407E+05 4.28622E-09 3.75360E-09
 -1       881 2.59260E+05 4.64708E+04 3.90333E+02 1.10512E+05 1.00827E-08-2.76168E-09
 -1       882 2.61982E+05 4.37398E+04 2.47269E+02 1.07409E+05 1.12407E-08 6.50543E-09
 -1       883 2.59250E+05 4.64668E+04 2.62003E+02 1.10506E+05 3.02606E-09 6.50344E-09
 -1       884 2.61977E+05 4.37373E+04 4.13218E+02 1.07409E+05 6.03467E-09 5.14945E-09
 -1       885 2.59283E+05 4.64726E+04 8.28557E+02 1.10516E+05 7.58035E-09-2.68301E-09
 -1       886 2.61945E+05 4.37130E+04 1.66878E+03 1.07406E+05 7.65465E-09 6.06860E-10
 -1       887 2.59576E+05 4.66648E+04 3.64472E+03 1.10559E+05-6.54973E-09-4.58840E-09
 -1       888 2.61715E+05 4.37529E+04 7.34393E+03 1.07289E+05-1.92483E-09-4.50200E-10
 -1       889 2.63954E+05 5.12065E+04 1.75436E+04 1.10419E+05 3.84989E-09-2.65209E-09
 -1       890 2.58727E+05 4.73042E+04 3.28582E+04 1.04484E+05 4.48381E-09-1.26784E-09
 -1       891-1.98491E+02-1.49116E+05-1.74378E+03 2.92776E+04 2.89879E-09 2.98655E-09
 -1       892-3.38971E+02-1.49511E+05-1.90303E+03 4.42585E+04-3.67527E-09 1.34628E-09
 -1       893-8.73887E+01-1.49164E+05-2.72683E+03 2.92832E+04 1.21622E-09 7.53562E-09
 -1       894-1.55550E+03-1.50545E+05-5.66523E+03 4.41010E+04 4.16549E-09 9.68612E-09
 -1       895-1.21589E+03-1.47974E+05-9.98783E+03 2.94312E+04 2.98792E-09 4.09909E-09
 -1       956-3.25760E+05-4.76028E+03-1.20314E+04 2.08700E+04-7.01857E-09 2.92084E-09
 -1       957-3.28141E+05-1.58743E+03-6.17615E+03 2.51496E+04-2.57569E-09 3.25736E-09
 -1       958-3.26831E+05-1.07985E+02-2.78285E+03 2.07234E+04 4.81486E-09-2.84126E-09
 -1       959-3.27027E+05 5.21713E+00-1.42116E+03 2.53056E+04-2.44290E-09 2.82353E-09
 -1       960-3.26929E+05 6.27848E+01-6.92786E+02 2.07090E+04-8.26185E-09 3.07614E-09
 -1       961-3.26949E+05 6.72187E+01-3.66870E+02 2.53220E+04-1.08876E-08 2.44927E-09
 -1       962-3.26951E+05 5.96969E+01-2.08967E+02 2.07066E+04-3.24371E-09 9.48148E-10
 -1       963-3.26948E+05 7.03144E+01-1.65602E+02 2.53255E+04-7.98900E-09 9.83391E-10
 -1       964-3.26957E+05 6.32566E+01-1.98535E+02 2.07054E+04-1.67529E-09-2.09616E-09
 -1       965-3.26962E+05 7.50053E+01-3.40889E+02 2.53261E+04 6.72776E-09 3.69937E-09
 -1       966-3.26948E+05 7.32929E+01-6.38719E+02 2.07059E+04-4.43458E-09-2.70757E-09
 -1       967-3.27047E+05 2.53459E+01-1.30946E+03 2.53189E+04-2.07820E-10 5.31327E-09
 -1       968-3.26868E+05-7.70310E+01-2.56231E+03 2.07130E+04-1.10049E-10 3.38730E-10
 -1       969-3.28087E+05-1.43532E+03-5.68923E+03 2.52380E+04 1.27966E-09-2.80096E-10
 -1       970-3.25891E+05-4.35831E+03-1.10814E+04 2.07936E+04 2.81943E-09 8.73115E-11
 -1       971-3.12307E+05-1.66319E+03-9.34393E+03 1.54386E+04-6.90216E-09 4.61810E-09
 -1       972-3.14587E+05-1.17623E+03-5.08814E+03 2.16445E+04-4.85988E-09-8.80391E-10
 -1       973-3.13349E+05 8.94017E+00-2.27875E+03 1.53053E+04-5.33328E-09-8.48104E-10
 -1       974-3.13518E+05 2.05364E+01-1.18004E+03 2.17873E+04 1.64709E-09 2.04545E-09
 -1       975-3.13433E+05 5.48581E+01-5.88270E+02 1.52925E+04 5.31600E-09-2.48633E-10
 -1       976-3.13458E+05 7.14482E+01-3.35930E+02 2.18031E+04-6.28006E-09-7.21889E-09
 -1       977-3.13450E+05 5.60046E+01-2.38004E+02 1.52893E+04 1.04296E-09 3.16413E-09
 -1       978-3.13463E+05 7.79917E+01-2.70395E+02 2.18077E+04 1.69975E-08 2.84854E-09
 -1       979-3.13451E+05 6.39164E+01-4.27636E+02 1.52879E+04 1.19622E-08 5.75403E-09
 -1       980-3.13495E+05 8.09228E+01-8.21449E+02 2.18085E+04 7.61577E-09 2.67346E-09
 -1       981-3.13425E+05 8.42096E+01-1.58886E+03 1.52884E+04-3.27873E-10-2.26476E-09
 -1       982-3.13712E+05-3.69674E+01-3.28298E+03 2.18015E+04-1.64482E-09-1.92398E-09
 -1       983-3.13224E+05-1.82995E+01-6.37849E+03 1.52954E+04 5.79075E-09 3.31056E-10
 -1       984-3.16777E+05-3.36956E+03-1.42836E+04 2.17121E+04-2.19211E-09-2.12822E-10
 -1       985-3.10334E+05-4.68670E+03-2.62295E+04 1.53895E+04 4.06817E-09 3.38332E-10
 -3
    1PSTEP                        23          12           1          
  100CL  112 6.56250E-01         409                     0   12           1
 -4  DISP        4    1
 -5  D1          1    2    1    0
 -5  D2          1    2    2    0
 -5  D3          1    2    3    0
 -5  ALL         1    2    0    0    1ALL
 -1         1 2.16227E-03 0.00000E+00 0.00000E+00
 -1         2 2.18433E-03-1.46577E-28 0.00000E+00
 -1         3 8.07899E-05-4.98890E-28 0.00000E+00
 -1         5 7.90129E-05-1.52623E-26 0.00000E+00
 -1         8 2.12134E-03-1.69110E-06 0.00000E+00
 -1         9 2.13971E-03-9.16892E-07 0.00000E+00
 -1        10 7.72848E-05-3.01181E-07 0.00000E+00
 -1        12 7.77363E-05 7.05774E-07 0.00000E+00
 -1        15 2.07282E-03-1.92126E-06 0.00000E+00
 -1        16 2.07262E-03-7.45118E-07 0.00000E+00
 -1        17 6.58772E-05-6.41681E-07 0.00000E+00
 -1        18 7.25760E-05-6.68657E-06 0.00000E+00
 -1        19 7.39060E-05 1.40676E-06 0.00000E+00
 -1        20 7.40912E-05 2.76519E-05 0.00000E+00
 -1        21 7.34429E-05 5.37582E-05 0.00000E+00
 -1        24 2.40556E-05-1.81463E-06 0.00000E+00
 -1        25 6.74076E-05-6.53541E-06 0.00000E+00
 -1        26 6.89008E-05 1.96967E-06 0.00000E+00
 -1        27 6.69507E-05 2.45377E-05 0.00000E+00
 -1        28 6.62157E-05 5.31436E-05 0.00000E+00
 -1        32 0.00000E+00 0.00000E+00 0.00000E+00
 -1        33 6.19905E-05 2.64773E-06 0.00000E+00
 -1        34 6.01113E-05 2.45093E-05 0.00000E+00
 -1        35 5.83003E-05 5.28205E-05 0.00000E+00
 -1        51 2.15960E-03-2.67822E-07 0.00000E+00
 -1        52 2.15465E-03-5.35615E-07 0.00000E+00
 -1        53 2.14789E-03-8.09623E-07 0.00000E+00
 -1        54 2.13977E-03-1.09197E-06 6.61744E-24
 -1        55 2.13076E-03-1.38281E-06 4.13590E-24
 -1        56 2.16144E-03-1.46315E-06 0.00000E+00
 -1        57 2.16129E-03-4.83490E-06 0.00000E+00
 -1        58 2.16169E-03-9.68921E-06 0.00000E+00
 -1        59 2.16246E-03-1.55699E-05 1.32349E-23
 -1        60 2.16341E-03-2.19401E-05 0.00000E+00
 -1        61 2.16434E-03-2.82503E-05 0.00000E+00
 -1        62 2.16504E-03-3.39549E-05-2.64698E-23
 -1        63 2.16533E-03-3.85276E-05 0.00000E+00
 -1        64 2.16503E-03-4.15257E-05-2.64698E-23
 -1        65 2.16399E-03-4.25562E-05-1.32349E-23
 -1        66 2.16212E-03-4.13705E-05 0.00000E+00
 -1        67 2.15935E-03-3.77898E-05 0.00000E+00
 -1        68 2.15567E-03-3.18106E-05-2.64698E-23
 -1        69 2.15110E-03-2.35020E-05 1.32349E-23
 -1        70 2.14573E-03-1.31084E-05 2.64698E-23
 -1        86 2.18297E-03-1.20147E-07-3.30872E-24
 -1        87 2.17891E-03-2.47322E-07-1.65436E-24
 -1        88 2.17231E-03-3.87379E-07 3.30872E-24
 -1        89 2.16335E-03-5.44877E-07-1.65436E-24
 -1        90 2.15238E-03-7.21649E-07 3.30872E-24
 -1       121 8.06924E-05-4.99537E-08 0.00000E+00
 -1       122 8.04001E-05-9.99459E-08 0.00000E+00
 -1       123 7.99129E-05-1.50015E-07-1.65436E-24
 -1       124 7.92312E-05-2.00209E-07 8.27181E-25
 -1       125 7.83550E-05-2.50554E-07 0.00000E+00
 -1       191 7.89775E-05 1.17661E-07 0.00000E+00
 -1       192 7.88711E-05 2.35317E-07 0.00000E+00
 -1       193 7.86938E-05 3.52963E-07-6.61744E-24
 -1       194 7.84456E-05 4.70592E-07 0.00000E+00
 -1       195 7.81264E-05 5.88198E-07 6.61744E-24
 -1       251 2.12241E-03 4.32496E-06 0.00000E+00
 -1       252 2.12356E-03 6.41881E-06 1.32349E-23
 -1       253 2.12471E-03 6.02856E-06 2.64698E-23
 -1       254 2.12587E-03 4.46871E-06-1.32349E-23
 -1       255 2.12704E-03 2.17374E-06 0.00000E+00
 -1       256 2.12820E-03-4.57745E-07 1.32349E-23
 -1       257 2.12936E-03-3.28194E-06 2.64698E-23
 -1       258 2.13053E-03-6.16441E-06 1.32349E-23
 -1       259 2.13169E-03-9.01500E-06 2.64698E-23
 -1       260 2.13286E-03-1.17419E-05 0.00000E+00
 -1       261 2.13402E-03-1.41596E-05 2.64698E-23
 -1       262 2.13519E-03-1.60676E-05-1.32349E-23
 -1       263 2.13635E-03-1.68790E-05-2.64698E-23
 -1       264 2.13751E-03-1.59539E-05 1.32349E-23
 -1       265 2.13866E-03-1.13433E-05 0.00000E+00
 -1       266 2.11325E-03-1.75036E-06 0.00000E+00
 -1       267 2.10517E-03-1.78617E-06-1.65436E-24
 -1       268 2.09708E-03-1.82347E-06 0.00000E+00
 -1       269 2.08899E-03-1.85637E-06-4.13590E-25
 -1       270 2.08091E-03-1.88916E-06 8.27181E-25
 -1       271 2.11634E-03 3.82466E-06 0.00000E+00
 -1       272 2.11238E-03 6.33243E-06 2.64698E-23
 -1       273 2.10943E-03 6.18659E-06 0.00000E+00
 -1       274 2.10731E-03 3.79260E-06-5.29396E-23
 -1       275 2.10583E-03-3.54030E-07 0.00000E+00
 -1       276 2.10481E-03-5.70400E-06 5.29396E-23
 -1       277 2.10400E-03-1.16637E-05 1.05879E-22
 -1       278 2.10320E-03-1.76195E-05 0.00000E+00
 -1       279 2.10217E-03-2.29582E-05-1.05879E-22
 -1       280 2.10068E-03-2.70868E-05 5.29396E-23
 -1       281 2.09855E-03-2.94565E-05 1.05879E-22
 -1       282 2.09557E-03-2.95765E-05 5.29396E-23
 -1       283 2.09159E-03-2.70374E-05 0.00000E+00
 -1       284 2.08649E-03-2.15141E-05-2.64698E-23
 -1       285 2.08015E-03-1.27964E-05 0.00000E+00
 -1       301 2.12787E-03-8.93695E-07 0.00000E+00
 -1       302 2.11723E-03-8.48032E-07 0.00000E+00
 -1       303 2.10710E-03-7.97184E-07 0.00000E+00
 -1       304 2.09676E-03-7.51659E-07 0.00000E+00
 -1       305 2.08550E-03-7.20045E-07-6.61744E-24
 -1       306 2.06920E-03 1.36007E-04 0.00000E+00
 -1       307 1.84963E-03 4.84807E-04 5.29396E-23
 -1       308 1.47742E-03 9.77936E-04-1.05879E-22
 -1       309 9.93911E-04 1.54570E-03-5.29396E-23
 -1       310 4.96801E-04 2.12173E-03-1.05879E-22
 -1       311 8.79162E-05 2.64209E-03-5.29396E-23
 -1       312-1.77030E-04 3.03873E-03 0.00000E+00
 -1       313-2.85162E-04 3.24051E-03-5.29396E-23
 -1       314-2.76451E-04 3.19400E-03 0.00000E+00
 -1       315-2.16211E-04 2.89293E-03 0.00000E+00
 -1       316-1.55978E-04 2.37997E-03 1.05879E-22
 -1       317-1.18585E-04 1.73328E-03 0.00000E+00
 -1       318-8.49695E-05 1.06910E-03 0.00000E+00
 -1       319-3.10389E-05 5.05258E-04 0.00000E+00
 -1       320 3.33099E-05 1.28783E-04-5.29396E-23
 -1       336 7.59951E-05-3.56033E-07 0.00000E+00
 -1       337 7.44599E-05-4.11389E-07-8.27181E-25
 -1       338 7.26796E-05-4.67202E-07 1.65436E-24
 -1       339 7.06552E-05-5.23902E-07-8.27181E-25
 -1       340 6.83873E-05-5.81074E-07 0.00000E+00
 -1       406 7.72752E-05 8.23306E-07 0.00000E+00
 -1       407 7.67431E-05 9.40765E-07 0.00000E+00
 -1       408 7.61400E-05 1.05811E-06 0.00000E+00
 -1       409 7.54659E-05 1.17520E-06-6.61744E-24
 -1       410 7.47211E-05 1.29178E-06 0.00000E+00
 -1       521 2.00105E-03 1.36365E-04 1.05879E-22
 -1       522 1.78182E-03 4.83621E-04 0.00000E+00
 -1       523 1.41242E-03 9.73871E-04 0.00000E+00
 -1       524 9.35941E-04 1.53693E-03-5.29396E-23
 -1       525 4.46698E-04 2.10789E-03-1.05879E-22
 -1       526 4.29053E-05 2.62397E-03 0.00000E+00
 -1       527-2.19111E-04 3.01665E-03 0.00000E+00
 -1       528-3.26410E-04 3.21553E-03-1.05879E-22
 -1       529-3.17911E-04 3.16689E-03 0.00000E+00
 -1       530-2.58453E-04 2.86580E-03 0.00000E+00
 -1       531-1.98536E-04 2.35546E-03 0.00000E+00
 -1       532-1.60060E-04 1.71560E-03-5.29396E-23
 -1       533-1.25076E-04 1.05898E-03 1.05879E-22
 -1       534-7.09776E-05 5.00028E-04 0.00000E+00
 -1       535-7.41499E-06 1.26658E-04 1.05879E-22
 -1       536 6.62723E-05 1.29523E-06-3.30872E-24
 -1       537 6.66911E-05 1.86981E-06 0.00000E+00
 -1       538 6.71087E-05 1.62074E-06 0.00000E+00
 -1       539 6.75304E-05 1.07068E-06 0.00000E+00
 -1       540 6.79521E-05 3.38867E-07 0.00000E+00
 -1       541 6.83746E-05-4.58930E-07 0.00000E+00
 -1       542 6.87971E-05-1.29595E-06 0.00000E+00
 -1       543 6.92198E-05-2.14614E-06 0.00000E+00
 -1       544 6.96425E-05-3.00127E-06 1.32349E-23
 -1       545 7.00651E-05-3.85320E-06 0.00000E+00
 -1       546 7.04877E-05-4.68943E-06 0.00000E+00
 -1       547 7.09097E-05-5.49719E-06 0.00000E+00
 -1       548 7.13317E-05-6.22531E-06 1.32349E-23
 -1       549 7.17508E-05-6.82108E-06 0.00000E+00
 -1       550 7.21711E-05-7.05400E-06-6.61744E-24
 -1       551 6.07800E-05-8.18818E-07 6.61744E-24
 -1       552 5.36933E-05-1.00672E-06 1.65436E-24
 -1       553 4.55424E-05-1.20168E-06 0.00000E+00
 -1       554 3.72634E-05-1.40069E-06 0.00000E+00
 -1       555 2.97921E-05-1.59802E-06 0.00000E+00
 -1       556 6.50399E-05 1.45755E-06-1.32349E-23
 -1       557 6.44799E-05 2.83340E-06 0.00000E+00
 -1       558 6.41625E-05 3.56610E-06 0.00000E+00
 -1       559 6.40550E-05 3.74096E-06 0.00000E+00
 -1       560 6.41251E-05 3.44316E-06 0.00000E+00
 -1       561 6.43402E-05 2.75826E-06-3.30872E-24
 -1       562 6.46683E-05 1.77184E-06 3.30872E-24
 -1       563 6.50771E-05 5.69601E-07-3.30872E-24
 -1       564 6.55345E-05-7.62746E-07 1.65436E-24
 -1       565 6.60086E-05-2.13949E-06 2.06795E-25
 -1       566 6.64672E-05-3.47489E-06 8.27181E-25
 -1       567 6.68782E-05-4.68319E-06 0.00000E+00
 -1       568 6.72098E-05-5.67872E-06 0.00000E+00
 -1       569 6.74297E-05-6.37591E-06 0.00000E+00
 -1       570 6.75059E-05-6.68919E-06 0.00000E+00
 -1       571 7.26568E-05-6.09316E-06-4.13590E-25
 -1       572 7.27393E-05-5.55645E-06-2.06795E-25
 -1       573 7.28223E-05-5.06728E-06-8.27181E-25
 -1       574 7.29056E-05-4.61597E-06-8.27181E-25
 -1       575 7.29890E-05-4.19280E-06 1.65436E-24
 -1       576 7.30724E-05-3.78797E-06 1.65436E-24
 -1       577 7.31558E-05-3.39168E-06-3.30872E-24
 -1       578 7.32393E-05-2.99413E-06 0.00000E+00
 -1       579 7.33227E-05-2.58549E-06 0.00000E+00
 -1       580 7.34062E-05-2.15597E-06 1.65436E-24
 -1       581 7.34896E-05-1.69576E-06-3.30872E-24
 -1       582 7.35730E-05-1.19504E-06 0.00000E+00
 -1       583 7.36564E-05-6.44033E-07 6.61744E-24
 -1       584 7.37397E-05-3.30458E-08-6.61744E-24
 -1       585 7.38229E-05 6.47575E-07 0.00000E+00
 -1       586 7.17161E-05-6.65971E-06 0.00000E+00
 -1       587 7.08144E-05-6.63370E-06 4.13590E-25
 -1       588 6.99017E-05-6.60802E-06-4.13590E-25
 -1       589 6.90091E-05-6.58273E-06 0.00000E+00
 -1       590 6.81676E-05-6.55805E-06 0.00000E+00
 -1       591 7.23176E-05-6.05986E-06 0.00000E+00
 -1       592 7.20763E-05-5.48794E-06 0.00000E+00
 -1       593 7.18516E-05-4.96086E-06 8.27181E-25
 -1       594 7.16400E-05-4.46952E-06 0.00000E+00
 -1       595 7.14382E-05-4.00473E-06 0.00000E+00
 -1       596 7.12429E-05-3.55735E-06 0.00000E+00
 -1       597 7.10507E-05-3.11823E-06 8.27181E-25
 -1       598 7.08582E-05-2.67826E-06 4.13590E-25
 -1       599 7.06619E-05-2.22828E-06 4.13590E-25
 -1       600 7.04584E-05-1.75918E-06-2.06795E-25
 -1       601 7.02443E-05-1.26183E-06 8.27181E-25
 -1       602 7.00163E-05-7.27084E-07 3.10193E-25
 -1       603 6.97709E-05-1.45807E-07 3.61892E-25
 -1       604 6.95050E-05 4.91196E-07-1.03398E-25
 -1       605 6.92150E-05 1.19302E-06 0.00000E+00
 -1       606 7.39224E-05 2.35755E-06-3.30872E-24
 -1       607 7.39357E-05 3.44075E-06 0.00000E+00
 -1       608 7.39482E-05 4.64859E-06 0.00000E+00
 -1       609 7.39601E-05 5.97230E-06 0.00000E+00
 -1       610 7.39718E-05 7.40310E-06 0.00000E+00
 -1       611 7.39833E-05 8.93203E-06 0.00000E+00
 -1       612 7.39946E-05 1.05502E-05 0.00000E+00
 -1       613 7.40058E-05 1.22486E-05 0.00000E+00
 -1       614 7.40168E-05 1.40183E-05 0.00000E+00
 -1       615 7.40278E-05 1.58504E-05 0.00000E+00
 -1       616 7.40386E-05 1.77359E-05 0.00000E+00
 -1       617 7.40494E-05 1.96659E-05 0.00000E+00
 -1       618 7.40601E-05 2.16315E-05 0.00000E+00
 -1       619 7.40706E-05 2.36236E-05 0.00000E+00
 -1       620 7.40811E-05 2.56334E-05 0.00000E+00
 -1       621 7.30618E-05 1.50056E-06 0.00000E+00
 -1       622 7.22239E-05 1.59490E-06 0.00000E+00
 -1       623 7.13907E-05 1.68924E-06 0.00000E+00
 -1       624 7.05603E-05 1.78343E-06 0.00000E+00
 -1       625 6.97309E-05 1.87747E-06 0.00000E+00
 -1       626 7.36465E-05 2.38504E-06 0.00000E+00
 -1       627 7.33460E-05 3.47445E-06-6.61744E-24
 -1       628 7.30075E-05 4.66515E-06 0.00000E+00
 -1       629 7.26350E-05 5.94659E-06 0.00000E+00
 -1       630 7.22322E-05 7.30823E-06-6.61744E-24
 -1       631 7.18034E-05 8.73942E-06 0.00000E+00
 -1       632 7.13523E-05 1.02295E-05 0.00000E+00
 -1       633 7.08831E-05 1.17679E-05-1.65436E-24
 -1       634 7.03996E-05 1.33440E-05 0.00000E+00
 -1       635 6.99060E-05 1.49470E-05 1.65436E-24
 -1       636 6.94062E-05 1.65665E-05-3.30872E-24
 -1       637 6.89042E-05 1.81918E-05 1.65436E-24
 -1       638 6.84040E-05 1.98121E-05 1.65436E-24
 -1       639 6.79093E-05 2.14171E-05 8.27181E-25
 -1       640 6.74241E-05 2.29958E-05-1.65436E-24
 -1       656 7.23448E-05 2.71448E-05 6.61744E-24
 -1       657 7.10691E-05 2.66178E-05 0.00000E+00
 -1       658 7.00865E-05 2.60927E-05 0.00000E+00
 -1       659 6.92133E-05 2.55681E-05-6.61744E-24
 -1       660 6.82379E-05 2.50417E-05 0.00000E+00
 -1       661 7.34460E-05 2.96408E-05 1.65436E-24
 -1       662 7.28283E-05 3.15684E-05-8.27181E-25
 -1       663 7.22330E-05 3.34357E-05-3.30872E-24
 -1       664 7.16601E-05 3.52458E-05 0.00000E+00
 -1       665 7.11079E-05 3.70006E-05 0.00000E+00
 -1       666 7.05760E-05 3.87023E-05 0.00000E+00
 -1       667 7.00633E-05 4.03529E-05 0.00000E+00
 -1       668 6.95692E-05 4.19541E-05 0.00000E+00
 -1       669 6.90931E-05 4.35075E-05 0.00000E+00
 -1       670 6.86345E-05 4.50146E-05 0.00000E+00
 -1       671 6.81927E-05 4.64767E-05 3.30872E-24
 -1       672 6.77673E-05 4.78949E-05 1.65436E-24
 -1       673 6.73580E-05 4.92702E-05 0.00000E+00
 -1       674 6.69635E-05 5.06031E-05-8.27181E-25
 -1       675 6.65849E-05 5.18948E-05-8.27181E-25
 -1       676 7.22342E-05 5.36551E-05 3.30872E-24
 -1       677 7.10263E-05 5.35521E-05 0.00000E+00
 -1       678 6.98197E-05 5.34492E-05-3.30872E-24
 -1       679 6.86153E-05 5.33465E-05-1.65436E-24
 -1       680 6.74137E-05 5.32439E-05 0.00000E+00
 -1       771 2.16224E-05 8.41232E-07 2.64698E-23
 -1       772 1.93448E-05 3.01894E-06 0.00000E+00
 -1       773 1.72342E-05 4.74937E-06-5.29396E-23
 -1       774 1.52797E-05 6.05885E-06 7.94093E-23
 -1       775 1.34726E-05 6.97535E-06 5.29396E-23
 -1       776 1.18020E-05 7.52780E-06 0.00000E+00
 -1       777 1.02570E-05 7.74597E-06 0.00000E+00
 -1       778 8.82577E-06 7.66075E-06 0.00000E+00
 -1       779 7.49658E-06 7.30372E-06-5.29396E-23
 -1       780 6.25710E-06 6.70743E-06 0.00000E+00
 -1       781 5.09493E-06 5.90496E-06 5.29396E-23
 -1       782 3.99740E-06 4.93016E-06-2.64698E-23
 -1       783 2.95169E-06 3.81725E-06 0.00000E+00
 -1       784 1.94510E-06 2.60105E-06 0.00000E+00
 -1       785 9.64444E-07 1.31648E-06 0.00000E+00
 -1       786 6.74960E-05-5.99607E-06 0.00000E+00
 -1       787 6.75892E-05-5.48539E-06 8.27181E-25
 -1       788 6.76821E-05-4.99572E-06 0.00000E+00
 -1       789 6.77759E-05-4.51948E-06-1.65436E-24
 -1       790 6.78697E-05-4.05211E-06 3.30872E-24
 -1       791 6.79637E-05-3.58905E-06 1.65436E-24
 -1       792 6.80577E-05-3.12673E-06 0.00000E+00
 -1       793 6.81517E-05-2.66159E-06 1.65436E-24
 -1       794 6.82458E-05-2.18939E-06 3.30872E-24
 -1       795 6.83398E-05-1.70592E-06-1.65436E-24
 -1       796 6.84338E-05-1.20442E-06-3.30872E-24
 -1       797 6.85278E-05-6.78049E-07-1.65436E-24
 -1       798 6.86217E-05-1.14450E-07 3.30872E-24
 -1       799 6.87153E-05 4.98903E-07 0.00000E+00
 -1       800 6.88089E-05 1.18564E-06 0.00000E+00
 -1       801 6.26441E-05-5.40136E-06 0.00000E+00
 -1       802 4.97842E-05-4.29023E-06 0.00000E+00
 -1       803 3.29986E-05-3.23591E-06 2.64698E-23
 -1       804 1.62383E-05-2.19024E-06-6.61744E-24
 -1       805 3.74346E-06-1.08163E-06 0.00000E+00
 -1       806 6.71078E-05-6.05082E-06-3.30872E-24
 -1       807 6.68118E-05-5.58818E-06 1.65436E-24
 -1       808 6.65203E-05-5.13948E-06 0.00000E+00
 -1       809 6.62309E-05-4.69758E-06-1.65436E-24
 -1       810 6.59412E-05-4.25534E-06-3.30872E-24
 -1       811 6.56486E-05-3.80569E-06 0.00000E+00
 -1       812 6.53506E-05-3.34158E-06 0.00000E+00
 -1       813 6.50444E-05-2.85595E-06 0.00000E+00
 -1       814 6.47276E-05-2.34177E-06 0.00000E+00
 -1       815 6.43974E-05-1.79198E-06 1.65436E-24
 -1       816 6.40511E-05-1.19957E-06 3.30872E-24
 -1       817 6.36863E-05-5.57477E-07 0.00000E+00
 -1       818 6.33001E-05 1.41309E-07-1.65436E-24
 -1       819 6.28903E-05 9.03793E-07 8.27181E-25
 -1       820 6.24541E-05 1.73698E-06-3.30872E-24
 -1       821 6.87869E-05 2.63469E-06 8.27181E-25
 -1       822 6.86660E-05 2.96661E-06 1.65436E-24
 -1       823 6.85457E-05 3.11933E-06 3.30872E-24
 -1       824 6.84241E-05 3.24771E-06-1.65436E-24
 -1       825 6.83023E-05 3.51251E-06 0.00000E+00
 -1       826 6.81802E-05 4.07374E-06 1.65436E-24
 -1       827 6.80578E-05 5.01810E-06 0.00000E+00
 -1       828 6.79348E-05 6.43024E-06 1.65436E-24
 -1       829 6.78111E-05 8.27909E-06 0.00000E+00
 -1       830 6.76867E-05 1.05312E-05-1.65436E-24
 -1       831 6.75617E-05 1.30536E-05 0.00000E+00
 -1       832 6.74366E-05 1.57116E-05 0.00000E+00
 -1       833 6.73116E-05 1.83370E-05 0.00000E+00
 -1       834 6.71885E-05 2.07619E-05 0.00000E+00
 -1       835 6.70656E-05 2.28677E-05 0.00000E+00
 -1       836 6.79306E-05 2.08265E-06 0.00000E+00
 -1       837 6.68014E-05 2.19801E-06 0.00000E+00
 -1       838 6.55778E-05 2.31310E-06 0.00000E+00
 -1       839 6.43249E-05 2.42743E-06 0.00000E+00
 -1       840 6.31075E-05 2.54163E-06-4.13590E-25
 -1       856 6.69096E-05 2.60624E-05-2.06795E-25
 -1       857 6.68642E-05 2.77242E-05 0.00000E+00
 -1       858 6.68189E-05 2.95014E-05 0.00000E+00
 -1       859 6.67727E-05 3.13725E-05 0.00000E+00
 -1       860 6.67263E-05 3.33156E-05-1.65436E-24
 -1       861 6.66796E-05 3.53086E-05 0.00000E+00
 -1       862 6.66329E-05 3.73296E-05 1.65436E-24
 -1       863 6.65861E-05 3.93565E-05 0.00000E+00
 -1       864 6.65394E-05 4.13671E-05 0.00000E+00
 -1       865 6.64927E-05 4.33393E-05 8.27181E-25
 -1       866 6.64461E-05 4.52512E-05-1.65436E-24
 -1       867 6.63997E-05 4.70808E-05 8.27181E-25
 -1       868 6.63534E-05 4.88063E-05 1.65436E-24
 -1       869 6.63074E-05 5.04062E-05 0.00000E+00
 -1       870 6.62615E-05 5.18590E-05 0.00000E+00
 -1       871 6.56746E-05 2.45364E-05-4.13590E-25
 -1       872 6.45248E-05 2.45326E-05 0.00000E+00
 -1       873 6.34478E-05 2.45284E-05-4.13590E-25
 -1       874 6.23893E-05 2.45236E-05-2.06795E-25
 -1       875 6.12950E-05 2.45182E-05-4.13590E-25
 -1       876 6.64952E-05 2.60729E-05 0.00000E+00
 -1       877 6.60173E-05 2.76749E-05-1.65436E-24
 -1       878 6.55175E-05 2.93355E-05 0.00000E+00
 -1       879 6.49988E-05 3.10473E-05 0.00000E+00
 -1       880 6.44638E-05 3.28026E-05-3.30872E-24
 -1       881 6.39153E-05 3.45938E-05 0.00000E+00
 -1       882 6.33561E-05 3.64134E-05-3.30872E-24
 -1       883 6.27890E-05 3.82538E-05 0.00000E+00
 -1       884 6.22169E-05 4.01076E-05 0.00000E+00
 -1       885 6.16427E-05 4.19671E-05 0.00000E+00
 -1       886 6.10690E-05 4.38248E-05 0.00000E+00
 -1       887 6.04988E-05 4.56733E-05 1.65436E-24
 -1       888 5.99347E-05 4.75048E-05 0.00000E+00
 -1       889 5.93792E-05 4.93119E-05 8.27181E-25
 -1       890 5.88351E-05 5.10868E-05-1.65436E-24
 -1       891 6.50464E-05 5.30896E-05 0.00000E+00
 -1       892 6.38538E-05 5.30355E-05 0.00000E+00
 -1       893 6.26104E-05 5.29814E-05-1.65436E-24
 -1       894 6.12886E-05 5.29273E-05 4.13590E-25
 -1       895 5.98609E-05 5.28732E-05-6.20385E-25
 -1       956 6.18755E-05 3.71688E-06 0.00000E+00
 -1       957 6.17585E-05 4.86294E-06 0.00000E+00
 -1       958 6.16412E-05 6.07836E-06 0.00000E+00
 -1       959 6.15235E-05 7.35508E-06 0.00000E+00
 -1       960 6.14057E-05 8.68506E-06 0.00000E+00
 -1       961 6.12878E-05 1.00602E-05-1.65436E-24
 -1       962 6.11699E-05 1.14724E-05-3.30872E-24
 -1       963 6.10519E-05 1.29135E-05 0.00000E+00
 -1       964 6.09339E-05 1.43754E-05 0.00000E+00
 -1       965 6.08158E-05 1.58500E-05 1.65436E-24
 -1       966 6.06978E-05 1.73291E-05-3.30872E-24
 -1       967 6.05798E-05 1.88047E-05-1.65436E-24
 -1       968 6.04619E-05 2.02685E-05 0.00000E+00
 -1       969 6.03442E-05 2.17126E-05 1.65436E-24
 -1       970 6.02269E-05 2.31288E-05-3.30872E-24
 -1       971 5.99999E-05 2.59202E-05 1.65436E-24
 -1       972 5.98869E-05 2.74335E-05-8.27181E-25
 -1       973 5.97736E-05 2.90380E-05-3.30872E-24
 -1       974 5.96600E-05 3.07219E-05 0.00000E+00
 -1       975 5.95462E-05 3.24734E-05 3.30872E-24
 -1       976 5.94323E-05 3.42807E-05 0.00000E+00
 -1       977 5.93183E-05 3.61320E-05 3.30872E-24
 -1       978 5.92043E-05 3.80154E-05 0.00000E+00
 -1       979 5.90902E-05 3.99192E-05 0.00000E+00
 -1       980 5.89761E-05 4.18314E-05 0.00000E+00
 -1       981 5.88621E-05 4.37403E-05 0.00000E+00
 -1       982 5.87482E-05 4.56340E-05-1.65436E-24
 -1       983 5.86345E-05 4.75006E-05 0.00000E+00
 -1       984 5.85213E-05 4.93284E-05 0.00000E+00
 -1       985 5.84087E-05 5.11055E-05-3.30872E-24
 -3
    1PSTEP                        24          12           1          
  100CL  112 6.56250E-01         409                     0   12           1
 -4  STRESS      6    1
 -5  SXX         1    4    1    1
 -5  SYY         1    4    2    2
 -5  SZZ         1    4    3    3
 -5  SXY         1    4    1    2
 -5  SYZ         1    4    2    3
 -5  SZX         1    4    3    1
 -1         1-1.58479E+06-8.56019E+05-3.08658E+05-1.43142E+06 6.76664E-10-2.94676E-08
 -1         2-5.49453E+01-3.33079E+05 1.00534E+03-3.96434E+03-5.14561E-10 1.20855E-07
 -1         3-1.56863E+01-1.42755E+05 5.47768E+01-2.39412E+01-5.79536E-11-5.92854E-09
 -1         5-3.64113E+01 3.36807E+05 8.88218E+00 7.04954E-01 2.77078E-10-2.80270E-08
 -1         8-6.52621E+05-4.39936E+05 1.11497E+05-1.02889E+06-1.09139E-09-5.48607E-09
 -1         9 7.26524E+06 5.65048E+06 1.96640E+06 5.57565E+06-1.45403E-08 2.84286E-08
 -1        10-5.95129E+01-1.48652E+05 5.23226E+02-1.48276E+02-1.51567E-09-5.53834E-09
 -1        12-3.28311E+01 3.36826E+05 2.89925E+02 5.05290E+00 4.96925E-10 4.53292E-09
 -1        15 3.46197E+03 1.90265E+03 1.11910E+04 1.21059E+01 1.03427E-09 1.95716E-07
 -1        16 9.57858E+06 8.66904E+06 2.68283E+06 9.00037E+06 1.77727E-08-3.47306E-08
 -1        17 1.15251E+07 3.41054E+05 1.79478E+06-6.19899E+05 6.15037E-09-2.77345E-08
 -1        18 3.54264E+05 8.02340E+04 6.17113E+04-7.10511E+04 1.52318E-09-1.00290E-08
 -1        19 1.04072E+05 1.26949E+05-3.80168E+02 2.06269E+04-1.49957E-09-1.59926E-09
 -1        20-3.58410E+04-4.91755E+05-1.07976E+05 3.99347E+04 5.19655E-09-9.44662E-10
 -1        21-4.73904E+01-2.93017E+05-9.54683E+02-2.42913E+02-8.40435E-09-9.01046E-09
 -1        24 1.76752E+07-1.05174E+05 2.63488E+06-1.46280E+06 6.64901E-08 1.70500E-08
 -1        25 2.00835E+05 7.13024E+05 1.95141E+05-1.31881E+05 1.30258E-09 4.51182E-09
 -1        26-1.55089E+04 8.95504E+04-1.53431E+04-1.69582E+04 2.32139E-09 2.00378E-09
 -1        27-8.22732E+04-2.70939E+05-1.02116E+05 6.11514E+04 8.27564E-09-6.14000E-09
 -1        28 2.29054E+04-7.99746E+04 1.65188E+04 2.73688E+04 3.40646E-09-6.50061E-09
 -1        32-6.95031E+05 1.61980E+06 8.69558E+05-7.16441E+05-1.04192E-08 4.05042E-08
 -1        33-1.52384E+05 8.11748E+04 2.85854E+04-5.19582E+04 2.31072E-09-2.84975E-10
 -1        34-2.02151E+05-1.96859E+04 4.19165E+02 6.06281E+04 5.57877E-09-9.00551E-10
 -1        35-2.32158E+04-3.17553E+04-1.24776E+03 5.10617E+04 5.01476E-09 4.87368E-09
 -1        51 2.90265E+03-6.64944E+05 2.29691E+04-1.57039E+06-8.73115E-11-5.13392E-08
 -1        52 1.28558E+04-6.77007E+05 2.26275E+04-1.83199E+06 8.73115E-10-7.91333E-08
 -1        53 1.60718E+04-7.02547E+05 2.69532E+04-1.56483E+06 1.62981E-09-1.12312E-07
 -1        54 4.30597E+04-7.07315E+05 5.36124E+04-1.83751E+06 4.51109E-10-1.33034E-07
 -1        55 7.44321E+04-7.30478E+05 1.01064E+05-1.56362E+06 1.17871E-09 3.87881E-08
 -1        56-3.07760E+06-3.45169E+05-2.19003E+05-1.17220E+06 8.42920E-09-1.57990E-07
 -1        57-3.11290E+06-5.95834E+05-1.47579E+05-1.22030E+06-2.16696E-08 9.65956E-08
 -1        58-3.12872E+06-4.07479E+05-5.15039E+04-1.14880E+06-8.42374E-09 5.94810E-08
 -1        59-3.05333E+06-5.23847E+05-3.08311E+04-1.25026E+06-1.11294E-09-2.31326E-07
 -1        60-3.13766E+06-4.14598E+05-1.20144E+04-1.14356E+06-2.11676E-08-1.84073E-08
 -1        61-3.04657E+06-5.11236E+05-6.89612E+03-1.25134E+06-4.97153E-09-2.75769E-07
 -1        62-3.13532E+06-4.19874E+05-3.63975E+03-1.14775E+06 2.34531E-08-1.84993E-07
 -1        63-3.05666E+06-4.96703E+05-2.84201E+03-1.23507E+06-3.34385E-08 4.32533E-08
 -1        64-3.12652E+06-4.29783E+05-4.55313E+03-1.15909E+06-6.11635E-09 2.24207E-07
 -1        65-3.07854E+06-4.75501E+05-7.87683E+03-1.20681E+06-8.83847E-09 4.70573E-08
 -1        66-3.11228E+06-4.41890E+05-1.59064E+04-1.17513E+06 1.06711E-08-1.43854E-07
 -1        67-3.11560E+06-4.61953E+05-3.81349E+04-1.17139E+06 8.17045E-09-2.72121E-07
 -1        68-3.08917E+06-4.43917E+05-6.56619E+04-1.19410E+06-2.71791E-08-1.89852E-07
 -1        69-3.20858E+06-5.39424E+05-1.86368E+05-1.12126E+06-1.47261E-08 6.08998E-08
 -1        70-3.02058E+06-3.66378E+05-2.76568E+05-1.22491E+06-2.70084E-08 1.96742E-08
 -1        86-1.29090E+02-3.43542E+05-1.10909E+03 1.98143E+03 4.50375E-09-5.74896E-08
 -1        87-2.31293E+02-3.34169E+05 4.00722E+02-7.66032E+03 7.09618E-09 4.05362E-09
 -1        88 1.12393E+02-3.42541E+05-1.76259E+03 5.67518E+03 1.03370E-08 5.08517E-08
 -1        89-1.91537E+03-3.37456E+05-2.47960E+03-1.43055E+04 1.54040E-08-1.18778E-07
 -1        90 1.71311E+03-3.40481E+05-4.91331E+03 8.62654E+03 1.58227E-08 1.13292E-07
 -1       121-2.52665E+01-1.42829E+05 5.40121E+01 1.19578E+01 1.66914E-10-1.46301E-08
 -1       122-4.61808E+00-1.42746E+05 1.18161E+02-4.81076E+01-5.94611E-10-9.78548E-09
 -1       123-3.38798E+01-1.42838E+05 1.98949E+02 3.60723E+01 4.31257E-10-7.95262E-09
 -1       124 1.32307E+02-1.42656E+05 4.77474E+02-1.51855E+02-1.18484E-09-7.27005E-09
 -1       125-1.25102E+02-1.42920E+05 7.99799E+02 1.15670E+02 6.94854E-10-2.83444E-09
 -1       191-3.85061E+01 3.36829E+05 9.09915E+00-3.62289E-01 4.05332E-10-2.48710E-08
 -1       192-3.72463E+01 3.36808E+05 1.88799E+01 2.55020E+00 5.05317E-10-2.44299E-08
 -1       193-4.07162E+01 3.36829E+05 3.36355E+01-2.24880E+00 6.90223E-10-4.85670E-09
 -1       194-3.99285E+01 3.36810E+05 7.15919E+01 5.90230E+00 4.07890E-10 3.79168E-09
 -1       195-4.49603E+01 3.36826E+05 1.38555E+02-3.78576E+00 9.86084E-10 3.36331E-09
 -1       251 3.25548E+06-1.89383E+05 4.42176E+05 4.25651E+04-5.07362E-09-1.41736E-08
 -1       252 3.46265E+06 2.18924E+05 3.14373E+05-7.81192E+04 1.48207E-08-2.32962E-07
 -1       253 3.33645E+06-2.90629E+04 1.14951E+05 5.38068E+03-8.09473E-09-4.24770E-08
 -1       254 3.36871E+06 3.36755E+04 7.20718E+04-3.02499E+04 1.58700E-08-1.04363E-07
 -1       255 3.34906E+06-4.45419E+03 2.96533E+04-5.29633E+03-7.11667E-09-8.05758E-08
 -1       256 3.35415E+06 5.28502E+03 1.76486E+04-1.67843E+04 6.32099E-09 1.52262E-07
 -1       257 3.35107E+06-7.30581E+02 8.75570E+03-8.08513E+03 1.64733E-09-8.30482E-09
 -1       258 3.35207E+06 1.38261E+03 7.01144E+03-1.44580E+04 1.37430E-09 1.31717E-07
 -1       259 3.35117E+06-5.60179E+02 7.23813E+03-7.62275E+03 1.75893E-09-4.81334E-08
 -1       260 3.35343E+06 3.81000E+03 1.32652E+04-1.93987E+04-6.62408E-09-1.88248E-07
 -1       261 3.34970E+06-3.15745E+03 2.17516E+04-3.14432E+03 1.19883E-09-1.39589E-08
 -1       262 3.36484E+06 2.40443E+04 5.25155E+04-3.98000E+04 6.13909E-09-2.70093E-08
 -1       263 3.33979E+06-2.08033E+04 8.33764E+04 1.27786E+04-4.42355E-09 2.79906E-08
 -1       264 3.44532E+06 1.58866E+05 2.30706E+05-1.10407E+05 6.16228E-09 2.55211E-07
 -1       265 3.27040E+06-1.38305E+05 3.18356E+05 6.74623E+04 3.54703E-11 1.96393E-07
 -1       266-6.26673E+04-2.92885E+04 1.47109E+05-2.59138E+02 3.49246E-10 1.86163E-07
 -1       267 7.26550E+04 3.41600E+04 1.03937E+05 2.98858E+02 1.08594E-09-1.95355E-07
 -1       268-9.74262E+03-4.83672E+03 3.86352E+04-3.80872E+01 3.23780E-10-1.25509E-08
 -1       269 1.15035E+04 5.78995E+03 2.51102E+04 4.43578E+01 1.24055E-09 4.19882E-07
 -1       270-1.72669E+03-9.51272E+02 1.21211E+04-6.02000E+00-1.26875E-10 1.22400E-07
 -1       271-6.47968E+06-8.21215E+05-5.09945E+05-2.54291E+06-6.29734E-09 8.79227E-08
 -1       272-6.59989E+06-1.24657E+06-3.26618E+05-2.59955E+06-1.71935E-08 4.90072E-08
 -1       273-6.58834E+06-9.34031E+05-1.20663E+05-2.50569E+06-1.61890E-08-2.59388E-08
 -1       274-6.47189E+06-1.11085E+06-6.68755E+04-2.66140E+06-2.69847E-08 1.74005E-07
 -1       275-6.61083E+06-9.36819E+05-2.80139E+04-2.49148E+06-1.58543E-08 2.57885E-07
 -1       276-6.44798E+06-1.10625E+06-1.48419E+04-2.68368E+06 2.43699E-09 1.54311E-07
 -1       277-6.61616E+06-9.34189E+05-7.46512E+03-2.48703E+06 1.58961E-08 2.01305E-07
 -1       278-6.44651E+06-1.10429E+06-5.91124E+03-2.68382E+06 9.86120E-09 7.02557E-08
 -1       279-6.61222E+06-9.38659E+05-7.45568E+03-2.49136E+06-1.71549E-08-3.58923E-08
 -1       280-6.45880E+06-1.09186E+06-1.37002E+04-2.66375E+06-1.33878E-09-7.33162E-08
 -1       281-6.59949E+06-9.49554E+05-2.69367E+04-2.50392E+06 4.94765E-10 2.74049E-08
 -1       282-6.49328E+06-1.08218E+06-6.20157E+04-2.62537E+06-2.64990E-08-1.94414E-08
 -1       283-6.57174E+06-9.53953E+05-1.13378E+05-2.52459E+06-8.31278E-09-2.04236E-08
 -1       284-6.62555E+06-1.19627E+06-3.04118E+05-2.55514E+06-1.35333E-08 2.15128E-07
 -1       285-6.46532E+06-8.53510E+05-4.75950E+05-2.56489E+06-3.32147E-09 5.70144E-08
 -1       301-1.34655E+04 3.15789E+05 6.64591E+04 8.52954E+05-2.99951E-09-1.17361E-07
 -1       302-1.55028E+04 3.37137E+05 5.95458E+04 1.24931E+06 3.10683E-09-2.06510E-08
 -1       303-1.65202E+04 3.14731E+05 6.99069E+04 8.51056E+05-1.55342E-09-1.31386E-08
 -1       304 5.65927E+03 3.62095E+05 1.34221E+05 1.24874E+06 3.23780E-09 1.32015E-07
 -1       305 7.36116E+03 2.99470E+05 2.31197E+05 8.54096E+05-2.03727E-10 1.30342E-07
 -1       306-2.08810E+07-1.52369E+07-8.68988E+06-1.15206E+07 7.49715E-08-1.54570E-07
 -1       307 5.54427E+06 2.68591E+07 5.97710E+06 1.44992E+07 7.74031E-07-2.05007E-07
 -1       308-1.24352E+06-1.11082E+07-1.60831E+06-4.48454E+06 1.11759E-08-5.34055E-08
 -1       309-1.72662E+07 2.06313E+07 1.89957E+06-6.39273E+06-1.34387E-07 3.00757E-07
 -1       310 4.70869E+05-9.41576E+06-5.40536E+05-3.42540E+06-1.54265E-07 6.31262E-08
 -1       311-6.13165E+05 2.55141E+07 5.19194E+06 1.10478E+07-7.10395E-07 3.58355E-07
 -1       312-1.73951E+07-1.50292E+07-6.78531E+06-1.15743E+07-1.34576E-07-2.14961E-07
 -1       313 4.14372E+07 1.11514E+07 9.45908E+06 1.93537E+07 2.90253E-07-1.48124E-07
 -1       314-2.89157E+07-5.69922E+06-7.38385E+06-3.82939E+06-1.12108E-07-1.68147E-08
 -1       315 3.10012E+07-1.03074E+04 6.12221E+06-9.38331E+06 2.10450E-07 1.74710E-07
 -1       316-1.10192E+07-1.36404E+06-1.44783E+06 4.70046E+06 5.24858E-07 5.97269E-07
 -1       317-3.75498E+06 7.14757E+06 1.90401E+06-1.92077E+07-9.29410E-07 2.35450E-07
 -1       318-8.03074E+06-9.15594E+05-7.06856E+05 4.76771E+06 7.01752E-07 1.02599E-07
 -1       319 2.41690E+07 2.09231E+06 5.04086E+06-1.29885E+07 1.61148E-07 1.50030E-07
 -1       320-2.81079E+07-5.74525E+06-8.06371E+06-1.31528E+06-1.31200E-07-9.19681E-09
 -1       336 5.07447E+01-1.54674E+05 5.72564E+02 3.23892E+01-2.97587E-09 6.36874E-09
 -1       337 3.17585E+02-1.54348E+05 2.20192E+03-1.63254E+02-5.44412E-09 1.30201E-08
 -1       338-4.06227E+02-1.55055E+05 4.46717E+03 1.30481E+02-3.93311E-09 1.02386E-08
 -1       339 5.38470E+03-1.51283E+05 1.13056E+04-3.54508E+02-7.33792E-09 8.21910E-09
 -1       340-3.89423E+03-1.57740E+05 1.78503E+04 2.26375E+02-4.84488E-09 7.95171E-09
 -1       406-1.21615E+01 3.36814E+05 5.70827E+02-1.46467E+00 1.34025E-09 6.56837E-09
 -1       407 1.66924E+02 3.36926E+05 1.21653E+03-1.78709E+01 2.99451E-10 1.82463E-08
 -1       408 5.92372E+02 3.36725E+05 2.42766E+03 1.97175E+01 1.65028E-09 1.30512E-08
 -1       409 2.59679E+03 3.37701E+05 5.46849E+03-2.01990E+02 3.42652E-10-3.08046E-09
 -1       410 7.51971E+03 3.36031E+05 1.11623E+04 1.92729E+02 1.88084E-09 5.13592E-09
 -1       521-2.09234E+07-1.56409E+07-9.01368E+06-1.08843E+07 4.48199E-08-1.42434E-07
 -1       522 2.92070E+06 2.76267E+07 5.60904E+06 1.38418E+07 6.74117E-07 6.07688E-08
 -1       523-1.68283E+06-1.14153E+07-1.52672E+06-4.79791E+06 2.08733E-07 2.83122E-07
 -1       524-2.00387E+07 2.13963E+07 1.83973E+06-8.23251E+06-5.48796E-07 7.95384E-07
 -1       525-5.60645E+04-9.96199E+06-4.78814E+05-3.93521E+06-3.13230E-07 5.56931E-07
 -1       526-3.12556E+06 2.65009E+07 4.96744E+06 1.03194E+07 3.47456E-07 1.15135E-07
 -1       527-1.76491E+07-1.53421E+07-7.02774E+06-1.09981E+07 7.50879E-08 5.96046E-08
 -1       528 4.06885E+07 1.05498E+07 8.95596E+06 1.92870E+07 2.32831E-08-1.05647E-07
 -1       529-2.85587E+07-6.57528E+06-7.65565E+06-3.54587E+06 1.69850E-07-5.23723E-08
 -1       530 2.95523E+07-3.16266E+05 5.79852E+06-1.11679E+07 2.30968E-07-1.50001E-07
 -1       531-1.16882E+07-1.45539E+06-1.36093E+06 4.63284E+06 6.43253E-07 2.03756E-07
 -1       532-6.56439E+06 7.95852E+06 1.84637E+06-2.10475E+07-7.27886E-07 3.65719E-07
 -1       533-9.06577E+06-9.44336E+05-6.49607E+05 4.76926E+06-4.92146E-07 6.45095E-07
 -1       534 2.26707E+07 2.00096E+06 4.78380E+06-1.47863E+07 4.76633E-07-4.47981E-07
 -1       535-2.78139E+07-6.56054E+06-8.35285E+06-1.26804E+06 5.00586E-08-3.25497E-07
 -1       536 1.18305E+06-5.96891E+04 1.37829E+05 5.12179E+03-1.00431E-08 1.96451E-10
 -1       537 1.24470E+06 6.90659E+04 9.78180E+04-8.46578E+03-3.53577E-09-4.64752E-09
 -1       538 1.20701E+06-9.32171E+03 3.57422E+04 3.14377E+02 7.87221E-10-2.63753E-10
 -1       539 1.21692E+06 1.07881E+04 2.24803E+04-2.62606E+03-1.21239E-09 6.18002E-10
 -1       540 1.21085E+06-1.45609E+03 9.20144E+03-7.17689E+02-5.71960E-10 1.21508E-09
 -1       541 1.21246E+06 1.70800E+03 5.49606E+03-1.37209E+03 1.76318E-08-4.95413E-09
 -1       542 1.21148E+06-2.48377E+02 2.69722E+03-9.39619E+02 5.08660E-06 1.05230E-08
 -1       543 1.21180E+06 4.41781E+02 2.14777E+03-1.12220E+03 1.01402E-05 3.15544E-09
 -1       544 1.21151E+06-1.90695E+02 2.17317E+03-9.67590E+02 5.08543E-06 8.46961E-09
 -1       545 1.21219E+06 1.21168E+03 3.98180E+03-1.18286E+03 1.60600E-08 1.29700E-09
 -1       546 1.21108E+06-1.01773E+03 6.47313E+03-8.78959E+02 1.70967E-09 3.78145E-09
 -1       547 1.21526E+06 7.52044E+03 1.56728E+04-1.72217E+03 1.78847E-09 6.47560E-10
 -1       548 1.20843E+06-6.49462E+03 2.48761E+04-4.28253E+02 9.73433E-10-1.96178E-09
 -1       549 1.23411E+06 4.80075E+04 6.79363E+04-4.26351E+03-1.55389E-09 3.14049E-09
 -1       550 1.19221E+06-4.14708E+04 9.59372E+04 1.66234E+03-1.24771E-11-1.56433E-09
 -1       551 4.15307E+03-4.58126E+05-7.43545E+03-1.23306E+06-1.96778E-08-8.52742E-09
 -1       552 2.45542E+04-4.76121E+05 1.51157E+04-1.75587E+06-1.88011E-08-8.87667E-10
 -1       553 1.94436E+04-4.78327E+05 3.96666E+04-1.22974E+06-2.77214E-08 7.06405E-09
 -1       554 5.01237E+04-4.57220E+05 9.47926E+04-1.75602E+06-1.57743E-08 2.29193E-10
 -1       555 3.85260E+04-4.84501E+05 1.71030E+05-1.23272E+06-2.20680E-08-5.38421E-10
 -1       556-6.12583E+02-9.93203E+04 2.27085E+04-1.38169E+05 5.96629E-10 3.13594E-09
 -1       557 3.49708E+04-1.30629E+05 1.19028E+04-1.70486E+05 2.13913E-09 3.33102E-09
 -1       558-6.37012E+02-1.02326E+05 4.88088E+03-1.35340E+05-2.22644E-09 3.65617E-10
 -1       559 3.17181E+04-1.33928E+05 2.46374E+03-1.72079E+05-7.47241E-09-1.81415E-08
 -1       560-1.25546E+03-1.01902E+05 1.06718E+03-1.35689E+05-1.71713E-09-1.45587E-09
 -1       561 3.07578E+04-1.33738E+05 5.52348E+02-1.72701E+05 2.47928E-09 1.54125E-08
 -1       562-1.70203E+03-1.01592E+05 2.36365E+02-1.36008E+05-5.67525E-10 2.17460E-09
 -1       563 3.02831E+04-1.33540E+05 1.23340E+02-1.73008E+05-1.84627E-10-6.46378E-09
 -1       564-1.89590E+03-1.01459E+05 2.88299E+01-1.36148E+05 1.43336E-09-5.88625E-09
 -1       565 3.01748E+04-1.33497E+05-4.33121E+01-1.73071E+05 2.37748E-09-4.12911E-10
 -1       566-1.82468E+03-1.01496E+05-1.71231E+02-1.36106E+05-7.83984E-10 1.62254E-09
 -1       567 3.03793E+04-1.33598E+05-3.96917E+02-1.72867E+05 4.42378E-09 1.19617E-08
 -1       568-1.44279E+03-1.01742E+05-8.76411E+02-1.35899E+05-1.55705E-09 7.83984E-10
 -1       569 3.00220E+04-1.33817E+05-2.00423E+03-1.71850E+05-1.47884E-09-3.53612E-09
 -1       570-1.08006E+02-1.03282E+05-3.98399E+03-1.35654E+05-2.34286E-09-8.03084E-09
 -1       571 2.38269E+05 8.14485E+03 1.21602E+04-5.61652E+04-1.55524E-09 8.25503E-09
 -1       572 2.40078E+05 2.79028E+03 5.95815E+03-6.15417E+04-7.38510E-10 9.63018E-09
 -1       573 2.38984E+05 6.24072E+02 2.64668E+03-5.60015E+04-2.38288E-10 1.81672E-09
 -1       574 2.39198E+05 1.63302E+02 1.32622E+03-6.17184E+04-1.52272E-09-4.50109E-09
 -1       575 2.39056E+05-2.02635E+01 6.24747E+02-5.59803E+04 2.37696E-09 3.21961E-09
 -1       576 2.39072E+05-4.49702E+01 3.17645E+02-6.17419E+04 2.05000E-09 2.40698E-09
 -1       577 2.39063E+05-5.18871E+01 1.55490E+02-5.59775E+04-9.60495E-09 9.33278E-09
 -1       578 2.39056E+05-5.35623E+01 8.28420E+01-6.17448E+04-2.13107E-08 4.70254E-09
 -1       579 2.39075E+05-5.31147E+01 4.69332E+01-5.59775E+04-1.14428E-08 2.95495E-09
 -1       580 2.39073E+05-6.08504E+01 3.76442E+01-6.17417E+04 1.20372E-09 6.72480E-09
 -1       581 2.39100E+05-6.39587E+01 4.38553E+01-5.59805E+04-2.06273E-09 3.61524E-10
 -1       582 2.39116E+05-6.79454E+01 7.86353E+01-6.17104E+04 2.07365E-10 5.62522E-10
 -1       583 2.39137E+05-5.13113E+01 1.46497E+02-5.60087E+04 7.47605E-10 3.07477E-09
 -1       584 2.39217E+05 5.13262E+01 3.27788E+02-6.14741E+04-4.36194E-09-3.49837E-09
 -1       585 2.39148E+05 3.38484E+02 6.62380E+02-5.62173E+04-4.36557E-10 2.89219E-10
 -1       586-3.37565E+03 7.47828E+04-4.91576E+03-1.79777E+05 1.81353E-09-6.54018E-09
 -1       587-6.69133E+02 7.40561E+04-1.15244E+03-1.97763E+05 3.75439E-09-4.93452E-09
 -1       588 8.34829E+02 7.42982E+04 2.00964E+03-1.79637E+05 1.91540E-09 9.49603E-09
 -1       589 3.71591E+03 7.55348E+04 6.69025E+03-1.97654E+05 2.38470E-09 1.65905E-08
 -1       590 1.02598E+04 7.34639E+04 1.46121E+04-1.79878E+05 1.73441E-09 1.08503E-08
 -1       591-5.21852E+04-1.60283E+04-1.79723E+04-2.83986E+04-2.86889E-09-1.16415E-10
 -1       592-5.35072E+04-2.08014E+04-9.73431E+03-3.34918E+04-9.83118E-09 1.18712E-09
 -1       593-5.40091E+04-1.46982E+04-4.05273E+03-2.96929E+04-3.00133E-10 3.76531E-09
 -1       594-5.09993E+04-1.81945E+04-2.02109E+03-3.36256E+04 7.76731E-09-8.08058E-09
 -1       595-5.41500E+04-1.46908E+04-9.28922E+02-2.97530E+04 2.34411E-09 5.22624E-09
 -1       596-5.08309E+04-1.80748E+04-4.73473E+02-3.36094E+04 7.88759E-10-1.55273E-09
 -1       597-5.41682E+04-1.47019E+04-2.60767E+02-2.97557E+04-1.76416E-09-8.69630E-09
 -1       598-5.08149E+04-1.80702E+04-2.15022E+02-3.36047E+04-1.20554E-09-1.06604E-09
 -1       599-5.41665E+04-1.47022E+04-2.81536E+02-2.97550E+04-9.45988E-10 3.00315E-09
 -1       600-5.08320E+04-1.80767E+04-5.28414E+02-3.36081E+04-2.37912E-09-1.75760E-09
 -1       601-5.41428E+04-1.46907E+04-1.04553E+03-2.97506E+04 3.17186E-09 7.66295E-09
 -1       602-5.10209E+04-1.82120E+04-2.27979E+03-3.36234E+04-1.54705E-09-6.67706E-09
 -1       603-5.39816E+04-1.47016E+04-4.57317E+03-2.96827E+04-1.83900E-09 5.69389E-09
 -1       604-5.38573E+04-2.11453E+04-1.09844E+04-3.34605E+04-1.04228E-09 7.80619E-09
 -1       605-5.19129E+04-1.62094E+04-2.02800E+04-2.82296E+04-3.89718E-10 9.46511E-09
 -1       606 3.77561E+04-1.15026E+04-2.07394E+04 3.70442E+04-6.79938E-09-2.56296E-09
 -1       607 3.41992E+04-3.69080E+03-1.03258E+04 4.15776E+04 2.72848E-11-3.42243E-09
 -1       608 3.61967E+04-6.05169E+02-4.62662E+03 3.67449E+04 7.05040E-09-4.99949E-09
 -1       609 3.57825E+04-1.24222E+02-2.33586E+03 4.19018E+04-1.90630E-09-4.35193E-09
 -1       610 3.59869E+04 6.60794E+01-1.11770E+03 3.67115E+04 4.00178E-11 1.49885E-09
 -1       611 3.58961E+04 9.81702E+01-5.63355E+02 4.19371E+04 1.02409E-09 2.85945E-09
 -1       612 3.59169E+04 9.71107E+01-2.71180E+02 3.67083E+04 1.28239E-09 1.87129E-09
 -1       613 3.58725E+04 1.19971E+02-1.24109E+02 4.19411E+04-9.19590E-09-7.32871E-09
 -1       614 3.58735E+04 1.08193E+02-3.73088E+01 3.67072E+04 3.45608E-11-1.76215E-09
 -1       615 3.58420E+04 1.35597E+02 3.36424E+01 4.19416E+04 1.14119E-08-3.92356E-09
 -1       616 3.58408E+04 1.22615E+02 1.17531E+02 3.67075E+04-2.19643E-09-5.17412E-09
 -1       617 3.58368E+04 1.72351E+02 2.75515E+02 4.19407E+04 2.47292E-09-4.18549E-09
 -1       618 3.58026E+04 2.11030E+02 5.57549E+02 3.67076E+04 1.22191E-09-3.81851E-09
 -1       619 3.60220E+04 6.10768E+02 1.25387E+03 4.19396E+04 4.97266E-10 1.03523E-09
 -1       620 3.56101E+04 1.53958E+03 2.52045E+03 3.67050E+04 2.20712E-09 6.98492E-10
 -1       621 5.19453E+02 2.71116E+05 4.34485E+03 1.93297E+03-6.51312E-10 3.78412E-09
 -1       622 5.78800E+02 2.72197E+05 3.49990E+03 2.91956E+03-6.47759E-10 7.27482E-09
 -1       623 2.26047E+01 2.71455E+05 3.77926E+03 1.92441E+03-7.61929E-10 8.92626E-09
 -1       624 1.64461E+03 2.73178E+05 6.96237E+03 2.92530E+03-7.58632E-10 2.40878E-09
 -1       625 1.64779E+03 2.70134E+05 1.20027E+04 1.92897E+03-4.97948E-10-2.18411E-09
 -1       626 2.13502E+05 6.15717E+04 4.00898E+03 1.18808E+05-3.55794E-09-3.79077E-09
 -1       627 2.10259E+05 6.40888E+04 1.93278E+03 1.23747E+05-6.98947E-09-6.39761E-09
 -1       628 2.13661E+05 5.96511E+04 8.14815E+02 1.19370E+05 2.72848E-10 1.09594E-10
 -1       629 2.09626E+05 6.36723E+04 4.00444E+02 1.24031E+05 7.12953E-09-6.56655E-10
 -1       630 2.13656E+05 5.95679E+04 1.84498E+02 1.19372E+05-7.17955E-09-3.40140E-09
 -1       631 2.09536E+05 6.36717E+04 1.00257E+02 1.24025E+05-1.82849E-08 1.22745E-08
 -1       632 2.13633E+05 5.95822E+04 6.70606E+01 1.19355E+05-2.08411E-08-9.12235E-09
 -1       633 2.09509E+05 6.36830E+04 7.71805E+01 1.24009E+05-9.51559E-09 5.86908E-09
 -1       634 2.13612E+05 5.95875E+04 1.26292E+02 1.19344E+05-1.08503E-09-1.45794E-08
 -1       635 2.09507E+05 6.36880E+04 2.57474E+02 1.24003E+05 5.83350E-09 7.07132E-11
 -1       636 2.13593E+05 5.95890E+04 5.20239E+02 1.19337E+05-1.19371E-10 7.91260E-09
 -1       637 2.09610E+05 6.37720E+04 1.14348E+03 1.23996E+05 2.57785E-11 9.53105E-09
 -1       638 2.13548E+05 5.98442E+04 2.34995E+03 1.19219E+05-1.22790E-08 6.71344E-09
 -1       639 2.10840E+05 6.54915E+04 5.55893E+03 1.23632E+05-2.74794E-08 2.56750E-09
 -1       640 2.13390E+05 6.49552E+04 1.15357E+04 1.17042E+05-1.01536E-08 1.54369E-08
 -1       656 5.91379E+04-1.49139E+06-1.42719E+05 7.52522E+02 2.32831E-10-6.03396E-09
 -1       657-7.81222E+04-1.55573E+06-1.17958E+05 1.08085E+04 1.07866E-09 4.86430E-10
 -1       658 1.87182E+04-1.50976E+06-7.22821E+04-1.20991E+03 3.00315E-09 3.29448E-09
 -1       659-8.35172E+04-1.55830E+06-1.25043E+05 1.20586E+04-1.59798E-09 3.30083E-10
 -1       660 6.45220E+04-1.48883E+06-1.54893E+05-4.97608E+02-9.89530E-10-1.48256E-09
 -1       661 2.31623E+05 2.55120E+04 2.18552E+04 9.06872E+04 6.85577E-09-1.03500E-09
 -1       662 2.42896E+05 4.27628E+04 1.47265E+04 8.70159E+04 5.11591E-09-7.22844E-09
 -1       663 2.35915E+05 3.25225E+04 5.15162E+03 8.94422E+04-1.88027E-09-2.90083E-09
 -1       664 2.37926E+05 3.45609E+04 3.07996E+03 8.85341E+04 1.14915E-09-5.42980E-09
 -1       665 2.36562E+05 3.34834E+04 1.21475E+03 8.92564E+04-4.74182E-09-1.05491E-08
 -1       666 2.37163E+05 3.34601E+04 7.08049E+02 8.87762E+04-1.39931E-08 1.69241E-09
 -1       667 2.36674E+05 3.35942E+04 3.72442E+02 8.92112E+04-1.56416E-09-4.03703E-09
 -1       668 2.37038E+05 3.33783E+04 3.71753E+02 8.88446E+04 1.31158E-08-5.08092E-09
 -1       669 2.36686E+05 3.35624E+04 4.96529E+02 8.91890E+04 3.97785E-09-2.23159E-09
 -1       670 2.37152E+05 3.36508E+04 1.07532E+03 8.88557E+04 1.45449E-08 3.99373E-09
 -1       671 2.36561E+05 3.33269E+04 1.90703E+03 8.91980E+04 2.54053E-09-5.72891E-09
 -1       672 2.38253E+05 3.55152E+04 4.87751E+03 8.85985E+04-4.75332E-09 3.95084E-09
 -1       673 2.35591E+05 3.17445E+04 8.17318E+03 8.94284E+04-5.13296E-09 5.31918E-09
 -1       674 2.46026E+05 4.86507E+04 2.33727E+04 8.63199E+04-8.32188E-11-3.88695E-09
 -1       675 2.28838E+05 2.05583E+04 3.46932E+04 9.13378E+04-7.31234E-10-2.16460E-10
 -1       676 2.48820E+01-2.92936E+05-1.15065E+03 1.21460E+02-2.76682E-09-1.34323E-09
 -1       677-3.04666E+02-2.93216E+05-2.10588E+03-2.42731E+02-8.45822E-09 7.74933E-09
 -1       678 2.04113E+02-2.92738E+05-3.72266E+03 1.21187E+02-4.02156E-09 1.76481E-09
 -1       679-3.72300E+03-2.95463E+05-8.84350E+03-2.41748E+02-8.23263E-09 8.23164E-12
 -1       680 2.22264E+03-2.90690E+05-1.42527E+04 1.19080E+02-4.19459E-09 6.26314E-09
 -1       771-3.17163E+06-4.84460E+05-1.32008E+05-1.21993E+06-7.47946E-10 3.76167E-09
 -1       772-3.19610E+06-5.04208E+05-7.14620E+04-1.23953E+06-4.66207E-09-1.00408E-09
 -1       773-3.18528E+06-4.74478E+05-2.97649E+04-1.22913E+06-1.73895E-09 5.48243E-09
 -1       774-3.17721E+06-4.85567E+05-1.47865E+04-1.24130E+06 3.68527E-09-2.22644E-09
 -1       775-3.18667E+06-4.74070E+05-6.78157E+03-1.22932E+06-4.96584E-09 1.14323E-09
 -1       776-3.17562E+06-4.85127E+05-3.31593E+03-1.24187E+06-1.17889E-08 2.91266E-09
 -1       777-3.18716E+06-4.73849E+05-1.61907E+03-1.22915E+06-8.29641E-09 3.80260E-09
 -1       778-3.17521E+06-4.85444E+05-8.69809E+02-1.24242E+06-2.28465E-09 1.25465E-08
 -1       779-3.18747E+06-4.73613E+05-6.28498E+02-1.22900E+06-1.34241E-09 4.96857E-09
 -1       780-3.17502E+06-4.85730E+05-7.26413E+02-1.24290E+06-2.11003E-09 1.38357E-09
 -1       781-3.18767E+06-4.73400E+05-1.23057E+03-1.22889E+06-3.69437E-09-1.97474E-09
 -1       782-3.17509E+06-4.86084E+05-2.54796E+03-1.24327E+06-5.58066E-09-2.28330E-09
 -1       783-3.18766E+06-4.73271E+05-5.06769E+03-1.22874E+06-4.54656E-09-6.65091E-09
 -1       784-3.17810E+06-4.89516E+05-1.21547E+04-1.24338E+06-3.45517E-09-6.03677E-10
 -1       785-3.18552E+06-4.74801E+05-2.24391E+04-1.22705E+06-3.80351E-09-9.04038E-10
 -1       786 2.63574E+05-1.27271E+04 2.94469E+04 1.74924E+02 3.49743E-09 5.14774E-09
 -1       787 2.76332E+05 1.47342E+04 2.08329E+04 1.32348E+01 3.20605E-08-5.99584E-09
 -1       788 2.68497E+05-1.99508E+03 7.62249E+03 1.45138E+02 9.66850E-06-2.08956E-09
 -1       789 2.70598E+05 2.30861E+03 4.79027E+03 5.45957E+01 1.92794E-05-1.34919E-08
 -1       790 2.69310E+05-3.11704E+02 1.95142E+03 1.33569E+02 1.02240E-05 6.22015E-09
 -1       791 2.69650E+05 3.62882E+02 1.14997E+03 6.71526E+01 1.12613E-06 3.40349E-09
 -1       792 2.69446E+05-5.08194E+01 5.33168E+02 1.32582E+02-4.65779E-06-1.24484E-09
 -1       793 2.69499E+05 7.54956E+01 3.66278E+02 5.92985E+01-1.04005E-05 1.04395E-08
 -1       794 2.69461E+05-2.45089E+01 2.97174E+02 1.41424E+02-5.21795E-06-7.55351E-09
 -1       795 2.69529E+05 1.36704E+02 4.67184E+02 2.77773E+01-1.72241E-08 7.44400E-10
 -1       796 2.69416E+05-1.11987E+02 7.22363E+02 1.64103E+02-1.19268E-09-3.55044E-09
 -1       797 2.69863E+05 8.23931E+02 1.72193E+03-4.18753E+01-1.76290E-09-3.50371E-09
 -1       798 2.69126E+05-7.11237E+02 2.72375E+03 2.11077E+02-1.43093E-09 2.55170E-09
 -1       799 2.71911E+05 5.25305E+03 7.43136E+03-1.83049E+02-1.32705E-09 5.35613E-09
 -1       800 2.67367E+05-4.53755E+03 1.04974E+04 3.05276E+02-3.46105E-10-1.51704E-09
 -1       801-1.43449E+05 3.36470E+06 3.34552E+05 1.12479E+04 9.38599E-09-1.88163E-09
 -1       802 2.05231E+05 3.58639E+06 3.19302E+05-1.27978E+05 2.40434E-08 2.40099E-10
 -1       803-5.89270E+04 3.43141E+06 2.35137E+05-5.42650E+04 1.72258E-08 1.34412E-08
 -1       804 3.31577E+05 3.64989E+06 4.84548E+05-1.34691E+05 2.18279E-08 1.77511E-08
 -1       805-2.69615E+05 3.30131E+06 6.16738E+05 1.79513E+04 6.57747E-09 4.04704E-08
 -1       806-2.58296E+05-6.05308E+04-2.41760E+04-1.12967E+05 1.39789E-09 1.28512E-09
 -1       807-2.59223E+05-5.75673E+04-1.18769E+04-1.19945E+05 3.57431E-10 1.05083E-08
 -1       808-2.59011E+05-5.17697E+04-5.03790E+03-1.17041E+05 4.85392E-09 6.55973E-09
 -1       809-2.56658E+05-5.43011E+04-2.46236E+03-1.20327E+05 1.05814E-08 1.45906E-09
 -1       810-2.59123E+05-5.14579E+04-1.12718E+03-1.17220E+05 4.20403E-09 1.79778E-08
 -1       811-2.56462E+05-5.41736E+04-5.58162E+02-1.20303E+05-1.45906E-09 1.13448E-08
 -1       812-2.59141E+05-5.14800E+04-2.77108E+02-1.17219E+05-6.46742E-09-2.20803E-09
 -1       813-2.56435E+05-5.41781E+04-1.72322E+02-1.20288E+05-1.04260E-08-4.77939E-10
 -1       814-2.59137E+05-5.14901E+04-1.57668E+02-1.17214E+05-8.45739E-09-4.06044E-09
 -1       815-2.56434E+05-5.41822E+04-2.42473E+02-1.20280E+05-1.34605E-09-1.03228E-09
 -1       816-2.59116E+05-5.14912E+04-4.52111E+02-1.17208E+05-6.78119E-09-2.53885E-09
 -1       817-2.56506E+05-5.42272E+04-9.67372E+02-1.20267E+05 5.27871E-09 7.24231E-09
 -1       818-2.59052E+05-5.16313E+04-1.97149E+03-1.17141E+05 2.29284E-09 1.52431E-09
 -1       819-2.57593E+05-5.54054E+04-4.63852E+03-1.19988E+05-3.20551E-09 3.23894E-09
 -1       820-2.58664E+05-5.51465E+04-9.44123E+03-1.15646E+05-3.70437E-09-5.12136E-09
 -1       821-3.40407E+05 1.91031E+04-4.42000E+04 2.46135E+02-1.42136E-09 7.37600E-09
 -1       822-3.59452E+05-2.21200E+04-3.12605E+04-2.19482E+03-1.12566E-09 3.98359E-09
 -1       823-3.47740E+05 2.99918E+03-1.14434E+04 5.50023E+02 1.06820E-09-5.75255E-09
 -1       824-3.50857E+05-3.47233E+03-7.19639E+03-2.27751E+03-5.98286E-11 1.28955E-09
 -1       825-3.49000E+05 4.69921E+02-2.96521E+03 3.28819E+02-2.70872E-09 3.54453E-09
 -1       826-3.49331E+05-5.51795E+02-1.76012E+03-1.43391E+03-6.32371E-09 2.13709E-09
 -1       827-3.49262E+05 7.84143E+01-9.41533E+02-2.93582E+02-6.54823E-09-4.22946E-09
 -1       828-3.49098E+05-1.61650E+02-7.78075E+02-1.01929E+02-9.68870E-09 2.98124E-10
 -1       829-3.49232E+05 7.92343E+01-9.42951E+02-1.00318E+03 3.99048E-10-5.07580E-09
 -1       830-3.49405E+05-5.54943E+02-1.79375E+03 1.04684E+03 4.73576E-09-4.91207E-09
 -1       831-3.48958E+05 4.73587E+02-2.99525E+03-1.44238E+03-6.11822E-09-2.13311E-09
 -1       832-3.50904E+05-3.50784E+03-7.29211E+03 1.43555E+03-4.92821E-09 1.40437E-09
 -1       833-3.47735E+05 3.03132E+03-1.15953E+04-1.39191E+03-5.71283E-10-2.85627E-09
 -1       834-3.59534E+05-2.23946E+04-3.16528E+04 8.71985E+02 1.75604E-10 5.89898E-09
 -1       835-3.40329E+05 1.93442E+04-4.47803E+04-8.78769E+02 6.07611E-09 8.22183E-10
 -1       836-1.11998E+03 3.31958E+05 1.98169E+04-3.44511E+04 4.31100E-09 4.86580E-10
 -1       837 4.47060E+03 3.38036E+05 1.68831E+04-6.90190E+04 5.70253E-09-4.72050E-09
 -1       838-3.66842E+02 3.33656E+05 1.73511E+04-3.43480E+04 5.07589E-09 6.25255E-09
 -1       839 1.12236E+04 3.43063E+05 3.29684E+04-6.90403E+04 6.59202E-09 1.12095E-09
 -1       840-3.29302E+03 3.26875E+05 5.26272E+04-3.44252E+04 4.52746E-09 3.71119E-09
 -1       856-1.23302E+05 9.66230E+03-2.54664E+04-6.66146E+02-8.40976E-09 6.22094E-10
 -1       857-1.33825E+05-1.13255E+04-1.75326E+04 5.51581E+03-6.50124E-09 1.97360E-10
 -1       858-1.27457E+05 1.35273E+03-6.60977E+03-7.01590E+02-8.06142E-09 5.23778E-09
 -1       859-1.29055E+05-1.56488E+03-3.99232E+03 5.57391E+03 3.51083E-09 5.63995E-09
 -1       860-1.28078E+05 1.87117E+02-1.68010E+03-7.24650E+02-5.40723E-10-1.52249E-09
 -1       861-1.28341E+05-1.98301E+02-9.38356E+02 5.60564E+03-1.11044E-08 4.33708E-09
 -1       862-1.28174E+05 2.40025E+01-4.18563E+02-7.33393E+02 1.00190E-08 2.39064E-09
 -1       863-1.28228E+05-7.14300E+00-2.17166E+02 5.60927E+03 2.03472E-08-9.44117E-09
 -1       864-1.28192E+05 2.29498E-01-8.88397E+01-7.28286E+02 1.01442E-08-2.99392E-09
 -1       865-1.28200E+05 2.55030E+01-1.66759E+01 5.58448E+03 1.14978E-08-3.04978E-09
 -1       866-1.28200E+05-9.96160E+00 4.05060E+01-7.08602E+02-7.32655E-10 5.45235E-10
 -1       867-1.28158E+05 8.16364E+01 1.49032E+02 5.53113E+03 6.08372E-09 1.97737E-09
 -1       868-1.28229E+05-5.82894E+01 2.57464E+02-6.74918E+02 3.73927E-09-4.09113E-09
 -1       869-1.27948E+05 4.72462E+02 7.06437E+02 5.44547E+03-7.20664E-09-7.90482E-09
 -1       870-1.28401E+05-3.95152E+02 1.01954E+03-6.22932E+02-3.74030E-10-3.37837E-09
 -1       871-5.08320E+03-8.95657E+03-1.59661E+04 1.03476E+05 4.29645E-09 3.56522E-10
 -1       872-2.32670E+03-1.24998E+04-6.45611E+03 1.34148E+05 9.87848E-09 2.21689E-09
 -1       873-1.89408E+02-1.08912E+04 1.05273E+03 1.03251E+05 4.93924E-09 7.94012E-09
 -1       874 2.33581E+03-8.45856E+03 9.34192E+03 1.34201E+05 1.00672E-08 9.94805E-09
 -1       875 5.81672E+03-1.30860E+04 2.06253E+04 1.03444E+05 4.95857E-09-9.27685E-10
 -1       876 2.66995E+05 4.64879E+04 1.45195E+04 1.08895E+05-6.00437E-09-7.11225E-09
 -1       877 2.67761E+05 4.97416E+04 7.75391E+03 1.13254E+05-1.32056E-08-3.63150E-09
 -1       878 2.68349E+05 4.48833E+04 3.24829E+03 1.10088E+05 2.06455E-10-5.07134E-09
 -1       879 2.65784E+05 4.77752E+04 1.61818E+03 1.13355E+05-1.51636E-09 8.61473E-09
 -1       880 2.68446E+05 4.48668E+04 7.53049E+02 1.10137E+05 3.49019E-09 3.53128E-09
 -1       881 2.65652E+05 4.76914E+04 4.00760E+02 1.13332E+05 1.22059E-08-9.17134E-09
 -1       882 2.68455E+05 4.48795E+04 2.53771E+02 1.10138E+05 1.39485E-08-4.11021E-10
 -1       883 2.65642E+05 4.76873E+04 2.68742E+02 1.13325E+05 6.35970E-09 8.36856E-09
 -1       884 2.68449E+05 4.48770E+04 4.23694E+02 1.10138E+05-5.86510E-09-5.94270E-09
 -1       885 2.65676E+05 4.76933E+04 8.49464E+02 1.13335E+05 1.32677E-08 6.59247E-09
 -1       886 2.68417E+05 4.48521E+04 1.71083E+03 1.10135E+05 8.47740E-09-4.21687E-09
 -1       887 2.65977E+05 4.78904E+04 3.73653E+03 1.13379E+05-6.56252E-09-8.15362E-10
 -1       888 2.68181E+05 4.48930E+04 7.52888E+03 1.10015E+05-3.87467E-09 7.89350E-09
 -1       889 2.70465E+05 5.25461E+04 1.79854E+04 1.13236E+05 3.84395E-09 2.05919E-08
 -1       890 2.65118E+05 4.85332E+04 3.36856E+04 1.07139E+05 3.56590E-09 2.93585E-09
 -1       891-2.09559E+02-1.52967E+05-1.78629E+03 3.01918E+04 3.88491E-09-1.87356E-09
 -1       892-3.56886E+02-1.53368E+05-1.95030E+03 4.56331E+04-4.15457E-09-8.74934E-10
 -1       893-9.63620E+01-1.53015E+05-2.79563E+03 3.01976E+04 4.70777E-09 2.71530E-09
 -1       894-1.60531E+03-1.54427E+05-5.80868E+03 4.54708E+04-3.30465E-09-7.09042E-09
 -1       895-1.25460E+03-1.51793E+05-1.02414E+04 3.03499E+04 1.52568E-09-1.36060E-09
 -1       956-3.33511E+05-4.88367E+03-1.23508E+04 2.12390E+04-1.16324E-08-4.25143E-09
 -1       957-3.35955E+05-1.62575E+03-6.34011E+03 2.55977E+04-1.00899E-08-3.10138E-09
 -1       958-3.34610E+05-1.07721E+02-2.85677E+03 2.10879E+04-3.29237E-10-1.21167E-09
 -1       959-3.34812E+05 9.44837E+00-1.45889E+03 2.57578E+04-2.40880E-09 3.55681E-09
 -1       960-3.34712E+05 6.78232E+01-7.11184E+02 2.10731E+04-5.20140E-09-4.46107E-09
 -1       961-3.34733E+05 7.33365E+01-3.76551E+02 2.57748E+04-1.34507E-08-3.23826E-09
 -1       962-3.34734E+05 6.48605E+01-2.14404E+02 2.10706E+04-8.60882E-09 3.51952E-09
 -1       963-3.34732E+05 7.67092E+01-1.69730E+02 2.57785E+04-8.52162E-09 2.70552E-09
 -1       964-3.34741E+05 6.86701E+01-2.03278E+02 2.10694E+04-1.73645E-09 4.00178E-11
 -1       965-3.34747E+05 8.16696E+01-3.48843E+02 2.57792E+04 7.59701E-09 1.61981E-09
 -1       966-3.34732E+05 7.90696E+01-6.53522E+02 2.10698E+04-1.31513E-09 2.54659E-10
 -1       967-3.34834E+05 3.09731E+01-1.33976E+03 2.57719E+04 7.04404E-10 7.05313E-09
 -1       968-3.34651E+05-7.46460E+01-2.62158E+03 2.10770E+04-3.50747E-09 2.70163E-09
 -1       969-3.35898E+05-1.46344E+03-5.82085E+03 2.56906E+04-2.32831E-10 2.14416E-09
 -1       970-3.33651E+05-4.45492E+03-1.13378E+04 2.11586E+04 3.87899E-09 2.91038E-11
 -1       971-3.20243E+05-1.70770E+03-9.60965E+03 1.58655E+04-1.13569E-08 3.44625E-09
 -1       972-3.22590E+05-1.20522E+03-5.23276E+03 2.22557E+04-2.45564E-09 2.30602E-09
 -1       973-3.21315E+05 1.23122E+01-2.34358E+03 1.57278E+04-3.17232E-09 6.65523E-10
 -1       974-3.21490E+05 2.59925E+01-1.21354E+03 2.24030E+04 5.89171E-09 5.14660E-10
 -1       975-3.21402E+05 5.98663E+01-6.04947E+02 1.57145E+04 4.44243E-09 4.44879E-09
 -1       976-3.21429E+05 7.86534E+01-3.45310E+02 2.24195E+04-4.01360E-09-1.47736E-09
 -1       977-3.21420E+05 6.12584E+01-2.44452E+02 1.57111E+04-1.35788E-09 6.01517E-10
 -1       978-3.21435E+05 8.55511E+01-2.77410E+02 2.24243E+04 1.09402E-08-1.63493E-09
 -1       979-3.21421E+05 6.94714E+01-4.38485E+02 1.57096E+04 6.78085E-09-6.04814E-11
 -1       980-3.21468E+05 8.86028E+01-8.42133E+02 2.24252E+04 5.59537E-09-8.92351E-09
 -1       981-3.21394E+05 9.02518E+01-1.62881E+03 1.57102E+04 5.31247E-09-9.73159E-11
 -1       982-3.21690E+05-3.23472E+01-3.36549E+03 2.24178E+04 3.34353E-10 3.08430E-09
 -1       983-3.21188E+05-1.49827E+01-6.53882E+03 1.57174E+04 9.15725E-09 4.15321E-09
 -1       984-3.24831E+05-3.44896E+03-1.46426E+04 2.23257E+04-4.01474E-09-1.55273E-09
 -1       985-3.18225E+05-4.80090E+03-2.68889E+04 1.58152E+04-1.63254E-09-2.70666E-09
 -3
    1PSTEP                        25          13           1          
  100CL  113 6.82617E-01         409                     0   13           1
 -4  DISP        4    1
 -5  D1          1    2    1    0
 -5  D2          1    2    2    0
 -5  D3          1    2    3    0
 -5  ALL         1    2    0    0    1ALL
 -1         1 2.78847E-03 0.00000E+00 0.00000E+00
 -1         2 2.82853E-03-1.08375E-28 6.61744E-24
 -1         3 6.84238E-05 5.22596E-28-8.27181E-25
 -1         5 7.53612E-05-4.54845E-26 0.00000E+00
 -1         8 2.74470E-03-1.84701E-06 0.00000E+00
 -1         9 2.76775E-03-2.13893E-06 0.00000E+00
 -1        10 6.63746E-05 1.64040E-07 8.27181E-25
 -1        12 7.39146E-05 7.31414E-07 6.61744E-24
 -1        15 2.69285E-03-2.10715E-06 0.00000E+00
 -1        16 2.69207E-03-2.00338E-06 0.00000E+00
 -1        17 5.96572E-05 3.29874E-07 0.00000E+00
 -1        18 6.82032E-05-8.51127E-06 0.00000E+00
 -1        19 6.95747E-05 1.45761E-06 0.00000E+00
 -1        20 6.97666E-05 3.01947E-05 0.00000E+00
 -1        21 6.91026E-05 5.89438E-05 3.30872E-24
 -1        24 2.45198E-05-7.26296E-07 0.00000E+00
 -1        25 6.22177E-05-8.35756E-06 0.00000E+00
 -1        26 6.38017E-05 2.04274E-06 0.00000E+00
 -1        27 6.17808E-05 2.69695E-05 0.00000E+00
 -1        28 6.09962E-05 5.83036E-05 0.00000E+00
 -1        32 0.00000E+00 0.00000E+00 0.00000E+00
 -1        33 5.60109E-05 2.74751E-06 0.00000E+00
 -1        34 5.40625E-05 2.69397E-05 0.00000E+00
 -1        35 5.21799E-05 5.79672E-05 0.00000E+00
 -1        51 2.78561E-03-2.91035E-07 0.00000E+00
 -1        52 2.78033E-03-5.83095E-07 0.00000E+00
 -1        53 2.77309E-03-8.82451E-07 0.00000E+00
 -1        54 2.76441E-03-1.19134E-06-6.61744E-24
 -1        55 2.75478E-03-1.50973E-06 1.65436E-24
 -1        56 2.78777E-03-1.56185E-06 0.00000E+00
 -1        57 2.78783E-03-5.26912E-06 0.00000E+00
 -1        58 2.78852E-03-1.06522E-05-2.64698E-23
 -1        59 2.78963E-03-1.72067E-05-1.32349E-23
 -1        60 2.79095E-03-2.43428E-05-2.64698E-23
 -1        61 2.79227E-03-3.14560E-05 0.00000E+00
 -1        62 2.79335E-03-3.79426E-05-2.64698E-23
 -1        63 2.79399E-03-4.32182E-05-1.32349E-23
 -1        64 2.79399E-03-4.67818E-05 0.00000E+00
 -1        65 2.79318E-03-4.81832E-05 0.00000E+00
 -1        66 2.79146E-03-4.71212E-05 0.00000E+00
 -1        67 2.78871E-03-4.33671E-05 0.00000E+00
 -1        68 2.78493E-03-3.68771E-05-2.64698E-23
 -1        69 2.78011E-03-2.76848E-05-1.32349E-23
 -1        70 2.77433E-03-1.60142E-05 0.00000E+00
 -1        86 2.82641E-03-3.02508E-07 6.61744E-24
 -1        87 2.82007E-03-6.21849E-07 0.00000E+00
 -1        88 2.81016E-03-9.68469E-07 6.61744E-24
 -1        89 2.79738E-03-1.34421E-06 0.00000E+00
 -1        90 2.78287E-03-1.74310E-06 0.00000E+00
 -1       121 6.83669E-05 2.74141E-08 0.00000E+00
 -1       122 6.81962E-05 5.48152E-08-4.13590E-25
 -1       123 6.79117E-05 8.21902E-08 8.27181E-25
 -1       124 6.75133E-05 1.09528E-07-4.13590E-25
 -1       125 6.70009E-05 1.36806E-07 0.00000E+00
 -1       191 7.53210E-05 1.21943E-07 0.00000E+00
 -1       192 7.52005E-05 2.43878E-07 0.00000E+00
 -1       193 7.49996E-05 3.65802E-07 0.00000E+00
 -1       194 7.47183E-05 4.87705E-07-6.61744E-24
 -1       195 7.43567E-05 6.09578E-07 0.00000E+00
 -1       251 2.74605E-03 4.46218E-06-1.32349E-23
 -1       252 2.74749E-03 6.38454E-06 0.00000E+00
 -1       253 2.74894E-03 5.64142E-06-2.64698E-23
 -1       254 2.75039E-03 3.78745E-06 0.00000E+00
 -1       255 2.75185E-03 1.26156E-06-5.29396E-23
 -1       256 2.75331E-03-1.53850E-06 0.00000E+00
 -1       257 2.75477E-03-4.49240E-06 5.29396E-23
 -1       258 2.75623E-03-7.48914E-06 2.64698E-23
 -1       259 2.75769E-03-1.04613E-05 0.00000E+00
 -1       260 2.75915E-03-1.33398E-05 0.00000E+00
 -1       261 2.76061E-03-1.59609E-05 5.29396E-23
 -1       262 2.76207E-03-1.81449E-05 0.00000E+00
 -1       263 2.76353E-03-1.92699E-05 5.29396E-23
 -1       264 2.76498E-03-1.86491E-05 0.00000E+00
 -1       265 2.76642E-03-1.38396E-05 2.64698E-23
 -1       266 2.73606E-03-1.91288E-06 0.00000E+00
 -1       267 2.72742E-03-1.95349E-06 0.00000E+00
 -1       268 2.71878E-03-1.99570E-06 0.00000E+00
 -1       269 2.71013E-03-2.03318E-06 8.27181E-25
 -1       270 2.70149E-03-2.07054E-06 0.00000E+00
 -1       271 2.73934E-03 3.94566E-06 5.29396E-23
 -1       272 2.73515E-03 6.36151E-06 0.00000E+00
 -1       273 2.73209E-03 5.79415E-06-1.05879E-22
 -1       274 2.72996E-03 2.70481E-06 5.29396E-23
 -1       275 2.72855E-03-2.33659E-06-1.05879E-22
 -1       276 2.72763E-03-8.69429E-06 0.00000E+00
 -1       277 2.72694E-03-1.56798E-05 1.05879E-22
 -1       278 2.72622E-03-2.25823E-05 0.00000E+00
 -1       279 2.72521E-03-2.86943E-05 1.05879E-22
 -1       280 2.72365E-03-3.33370E-05 0.00000E+00
 -1       281 2.72131E-03-3.58894E-05 0.00000E+00
 -1       282 2.71799E-03-3.58061E-05 5.29396E-23
 -1       283 2.71351E-03-3.26452E-05-1.05879E-22
 -1       284 2.70774E-03-2.60716E-05 0.00000E+00
 -1       285 2.70058E-03-1.58919E-05-5.29396E-23
 -1       301 2.75435E-03-2.12111E-06 0.00000E+00
 -1       302 2.74239E-03-2.07922E-06 0.00000E+00
 -1       303 2.73102E-03-2.03054E-06 0.00000E+00
 -1       304 2.71941E-03-1.98834E-06 0.00000E+00
 -1       305 2.70670E-03-1.96386E-06 0.00000E+00
 -1       306 2.68460E-03 1.54359E-04 1.05879E-22
 -1       307 2.42266E-03 5.45829E-04-2.64698E-23
 -1       308 1.97124E-03 1.09313E-03 0.00000E+00
 -1       309 1.37886E-03 1.71616E-03 0.00000E+00
 -1       310 7.65610E-04 2.34894E-03 0.00000E+00
 -1       311 2.58034E-04 2.93028E-03 5.29396E-23
 -1       312-7.34677E-05 3.38596E-03 0.00000E+00
 -1       313-2.13607E-04 3.63322E-03 0.00000E+00
 -1       314-2.10856E-04 3.59993E-03-2.11758E-22
 -1       315-1.50398E-04 3.27637E-03 0.00000E+00
 -1       316-9.86802E-05 2.70532E-03 0.00000E+00
 -1       317-8.44357E-05 1.97670E-03 5.29396E-23
 -1       318-7.74683E-05 1.22359E-03 0.00000E+00
 -1       319-3.90503E-05 5.81101E-04-2.64698E-23
 -1       320 2.35921E-05 1.50574E-04-1.05879E-22
 -1       336 6.56188E-05 1.93315E-07 0.00000E+00
 -1       337 6.47179E-05 2.22392E-07-8.27181E-25
 -1       338 6.36716E-05 2.51219E-07 8.27181E-25
 -1       339 6.24795E-05 2.79184E-07 0.00000E+00
 -1       340 6.11415E-05 3.07025E-07 8.27181E-25
 -1       406 7.33922E-05 8.53198E-07 0.00000E+00
 -1       407 7.27893E-05 9.74898E-07 0.00000E+00
 -1       408 7.21059E-05 1.09647E-06 6.61744E-24
 -1       409 7.13422E-05 1.21776E-06 0.00000E+00
 -1       410 7.04982E-05 1.33852E-06 0.00000E+00
 -1       521 2.60777E-03 1.54638E-04-1.05879E-22
 -1       522 2.34648E-03 5.44307E-04 5.29396E-23
 -1       523 1.89917E-03 1.08832E-03 1.05879E-22
 -1       524 1.31674E-03 1.70638E-03 5.29396E-23
 -1       525 7.14633E-04 2.33390E-03 0.00000E+00
 -1       526 2.14383E-04 2.91053E-03 0.00000E+00
 -1       527-1.12861E-04 3.36159E-03-2.11758E-22
 -1       528-2.51537E-04 3.60519E-03 0.00000E+00
 -1       529-2.48837E-04 3.56914E-03 2.11758E-22
 -1       530-1.89195E-04 3.24523E-03-1.05879E-22
 -1       531-1.37574E-04 2.67726E-03-1.05879E-22
 -1       532-1.21187E-04 1.95694E-03 0.00000E+00
 -1       533-1.11605E-04 1.21298E-03 1.05879E-22
 -1       534-7.24625E-05 5.76156E-04 5.29396E-23
 -1       535-1.04764E-05 1.48865E-04 1.05879E-22
 -1       536 6.01662E-05 1.36335E-06 0.00000E+00
 -1       537 6.07009E-05 1.37123E-06 0.00000E+00
 -1       538 6.12339E-05 7.85551E-07 1.32349E-23
 -1       539 6.17715E-05 2.36109E-08 6.61744E-24
 -1       540 6.23092E-05-8.40243E-07 1.32349E-23
 -1       541 6.28478E-05-1.73415E-06-6.61744E-24
 -1       542 6.33865E-05-2.64516E-06 0.00000E+00
 -1       543 6.39254E-05-3.56071E-06 0.00000E+00
 -1       544 6.44643E-05-4.47716E-06 0.00000E+00
 -1       545 6.50031E-05-5.39093E-06 0.00000E+00
 -1       546 6.55418E-05-6.29309E-06 0.00000E+00
 -1       547 6.60797E-05-7.17444E-06 0.00000E+00
 -1       548 6.66176E-05-7.98507E-06 1.32349E-23
 -1       549 6.71519E-05-8.67329E-06-6.61744E-24
 -1       550 6.76875E-05-8.94884E-06 0.00000E+00
 -1       551 5.55637E-05 1.71032E-07 0.00000E+00
 -1       552 4.94706E-05 2.31081E-09-1.65436E-24
 -1       553 4.23440E-05-1.72356E-07-6.61744E-24
 -1       554 3.51605E-05-3.50694E-07 0.00000E+00
 -1       555 2.88968E-05-5.27877E-07 0.00000E+00
 -1       556 5.91858E-05 1.46177E-06-6.61744E-24
 -1       557 5.89272E-05 2.03403E-06 0.00000E+00
 -1       558 5.88531E-05 2.11565E-06 0.00000E+00
 -1       559 5.89360E-05 1.77930E-06 3.30872E-24
 -1       560 5.91484E-05 1.09753E-06 0.00000E+00
 -1       561 5.94629E-05 1.43178E-07 0.00000E+00
 -1       562 5.98521E-05-1.01091E-06 0.00000E+00
 -1       563 6.02887E-05-2.29181E-06 0.00000E+00
 -1       564 6.07455E-05-3.62659E-06 0.00000E+00
 -1       565 6.11952E-05-4.94234E-06 7.75482E-26
 -1       566 6.16105E-05-6.16612E-06 0.00000E+00
 -1       567 6.19641E-05-7.22500E-06 0.00000E+00
 -1       568 6.22288E-05-8.04612E-06 0.00000E+00
 -1       569 6.23773E-05-8.55671E-06 0.00000E+00
 -1       570 6.23822E-05-8.68403E-06 0.00000E+00
 -1       571 6.82865E-05-7.79090E-06 1.24077E-24
 -1       572 6.83716E-05-7.12917E-06-2.06795E-25
 -1       573 6.84572E-05-6.51678E-06 1.65436E-24
 -1       574 6.85431E-05-5.94394E-06 8.27181E-25
 -1       575 6.86290E-05-5.40077E-06 1.65436E-24
 -1       576 6.87151E-05-4.87734E-06 1.65436E-24
 -1       577 6.88011E-05-4.36370E-06 0.00000E+00
 -1       578 6.88872E-05-3.84992E-06 1.65436E-24
 -1       579 6.89732E-05-3.32603E-06-3.30872E-24
 -1       580 6.90593E-05-2.78208E-06 0.00000E+00
 -1       581 6.91453E-05-2.20814E-06 0.00000E+00
 -1       582 6.92313E-05-1.59424E-06 6.61744E-24
 -1       583 6.93173E-05-9.30459E-07 6.61744E-24
 -1       584 6.94032E-05-2.06970E-07 0.00000E+00
 -1       585 6.94890E-05 5.86027E-07 0.00000E+00
 -1       586 6.72133E-05-8.48392E-06 0.00000E+00
 -1       587 6.61792E-05-8.45748E-06 4.13590E-25
 -1       588 6.51315E-05-8.43140E-06-7.75482E-25
 -1       589 6.41014E-05-8.40571E-06 0.00000E+00
 -1       590 6.31201E-05-8.38062E-06 0.00000E+00
 -1       591 6.78968E-05-7.75864E-06-1.03398E-25
 -1       592 6.76087E-05-7.06435E-06 0.00000E+00
 -1       593 6.73383E-05-6.41787E-06 0.00000E+00
 -1       594 6.70818E-05-5.80957E-06-4.13590E-25
 -1       595 6.68360E-05-5.22970E-06-8.27181E-25
 -1       596 6.65971E-05-4.66856E-06 0.00000E+00
 -1       597 6.63616E-05-4.11648E-06-8.27181E-25
 -1       598 6.61259E-05-3.56379E-06 0.00000E+00
 -1       599 6.58862E-05-3.00079E-06 4.13590E-25
 -1       600 6.56391E-05-2.41782E-06 4.13590E-25
 -1       601 6.53809E-05-1.80520E-06 0.00000E+00
 -1       602 6.51080E-05-1.15324E-06-1.03398E-25
 -1       603 6.48168E-05-4.52262E-07-2.06795E-25
 -1       604 6.45039E-05 3.07474E-07-1.03398E-25
 -1       605 6.41656E-05 1.13561E-06 8.27181E-25
 -1       606 6.95918E-05 2.52696E-06 0.00000E+00
 -1       607 6.96057E-05 3.73586E-06 0.00000E+00
 -1       608 6.96186E-05 5.07613E-06 0.00000E+00
 -1       609 6.96311E-05 6.53851E-06 0.00000E+00
 -1       610 6.96432E-05 8.11375E-06 0.00000E+00
 -1       611 6.96551E-05 9.79242E-06 0.00000E+00
 -1       612 6.96669E-05 1.15651E-05 0.00000E+00
 -1       613 6.96785E-05 1.34224E-05 0.00000E+00
 -1       614 6.96899E-05 1.53548E-05 0.00000E+00
 -1       615 6.97012E-05 1.73530E-05 0.00000E+00
 -1       616 6.97124E-05 1.94075E-05 1.65436E-24
 -1       617 6.97235E-05 2.15089E-05 0.00000E+00
 -1       618 6.97345E-05 2.36477E-05 0.00000E+00
 -1       619 6.97454E-05 2.58146E-05 0.00000E+00
 -1       620 6.97562E-05 2.80001E-05 0.00000E+00
 -1       621 6.86128E-05 1.55509E-06 0.00000E+00
 -1       622 6.76518E-05 1.65316E-06-1.65436E-24
 -1       623 6.66908E-05 1.75123E-06-3.30872E-24
 -1       624 6.57292E-05 1.84914E-06 0.00000E+00
 -1       625 6.47664E-05 1.94690E-06 1.65436E-24
 -1       626 6.92740E-05 2.55515E-06-6.61744E-24
 -1       627 6.89298E-05 3.77012E-06 0.00000E+00
 -1       628 6.85455E-05 5.09221E-06 6.61744E-24
 -1       629 6.81252E-05 6.51035E-06 0.00000E+00
 -1       630 6.76728E-05 8.01351E-06 0.00000E+00
 -1       631 6.71927E-05 9.59050E-06 0.00000E+00
 -1       632 6.66890E-05 1.12302E-05 0.00000E+00
 -1       633 6.61658E-05 1.29214E-05 0.00000E+00
 -1       634 6.56274E-05 1.46530E-05 0.00000E+00
 -1       635 6.50780E-05 1.64139E-05 0.00000E+00
 -1       636 6.45217E-05 1.81929E-05 3.30872E-24
 -1       637 6.39628E-05 1.99789E-05 0.00000E+00
 -1       638 6.34054E-05 2.17607E-05-3.30872E-24
 -1       639 6.28535E-05 2.35272E-05-8.27181E-25
 -1       640 6.23111E-05 2.52672E-05 0.00000E+00
 -1       656 6.78563E-05 2.96695E-05 0.00000E+00
 -1       657 6.64371E-05 2.91237E-05 0.00000E+00
 -1       658 6.53239E-05 2.85799E-05-1.32349E-23
 -1       659 6.43243E-05 2.80366E-05 6.61744E-24
 -1       660 6.32165E-05 2.74915E-05-6.61744E-24
 -1       661 6.90608E-05 3.23591E-05 1.65436E-24
 -1       662 6.83831E-05 3.44609E-05 1.65436E-24
 -1       663 6.77283E-05 3.65010E-05 3.30872E-24
 -1       664 6.70965E-05 3.84825E-05 0.00000E+00
 -1       665 6.64860E-05 4.04073E-05 0.00000E+00
 -1       666 6.58963E-05 4.22776E-05-1.65436E-24
 -1       667 6.53264E-05 4.40952E-05-3.30872E-24
 -1       668 6.47758E-05 4.58618E-05 0.00000E+00
 -1       669 6.42438E-05 4.75789E-05 3.30872E-24
 -1       670 6.37299E-05 4.92480E-05 0.00000E+00
 -1       671 6.32336E-05 5.08702E-05 0.00000E+00
 -1       672 6.27544E-05 5.24463E-05 0.00000E+00
 -1       673 6.22922E-05 5.39775E-05 3.30872E-24
 -1       674 6.18456E-05 5.54639E-05 8.27181E-25
 -1       675 6.14158E-05 5.69066E-05 0.00000E+00
 -1       676 6.77467E-05 5.88364E-05 0.00000E+00
 -1       677 6.63916E-05 5.87291E-05 1.65436E-24
 -1       678 6.50382E-05 5.86219E-05 0.00000E+00
 -1       679 6.36872E-05 5.85150E-05 1.65436E-24
 -1       680 6.23396E-05 5.84081E-05 3.30872E-24
 -1       771 2.25546E-05 5.52906E-07 2.64698E-23
 -1       772 2.06503E-05 1.59577E-06 0.00000E+00
 -1       773 1.88255E-05 2.42205E-06 0.00000E+00
 -1       774 1.70744E-05 3.04427E-06 0.00000E+00
 -1       775 1.53940E-05 3.47637E-06 5.29396E-23
 -1       776 1.37793E-05 3.73242E-06 0.00000E+00
 -1       777 1.22251E-05 3.82690E-06-5.29396E-23
 -1       778 1.07259E-05 3.77482E-06 2.64698E-23
 -1       779 9.27585E-06 3.59151E-06 0.00000E+00
 -1       780 7.86913E-06 3.29281E-06 0.00000E+00
 -1       781 6.49970E-06 2.89478E-06 5.29396E-23
 -1       782 5.16144E-06 2.41390E-06 2.64698E-23
 -1       783 3.84813E-06 1.86683E-06 5.29396E-23
 -1       784 2.55378E-06 1.27058E-06 2.64698E-23
 -1       785 1.27189E-06 6.42109E-07 0.00000E+00
 -1       786 6.23116E-05-7.67921E-06 1.65436E-24
 -1       787 6.24104E-05-7.03839E-06-8.27181E-25
 -1       788 6.25090E-05-6.42509E-06 0.00000E+00
 -1       789 6.26084E-05-5.82944E-06 0.00000E+00
 -1       790 6.27080E-05-5.24577E-06 0.00000E+00
 -1       791 6.28077E-05-4.66844E-06 1.65436E-24
 -1       792 6.29074E-05-4.09332E-06 0.00000E+00
 -1       793 6.30072E-05-3.51630E-06 0.00000E+00
 -1       794 6.31069E-05-2.93281E-06 0.00000E+00
 -1       795 6.32067E-05-2.33826E-06 0.00000E+00
 -1       796 6.33064E-05-1.72542E-06-3.30872E-24
 -1       797 6.34061E-05-1.08698E-06 0.00000E+00
 -1       798 6.35057E-05-4.09536E-07 0.00000E+00
 -1       799 6.36050E-05 3.20462E-07 0.00000E+00
 -1       800 6.37043E-05 1.12909E-06 1.65436E-24
 -1       801 5.77208E-05-6.93723E-06 0.00000E+00
 -1       802 4.59642E-05-5.51667E-06-1.32349E-23
 -1       803 3.07020E-05-4.14391E-06 2.64698E-23
 -1       804 1.54422E-05-2.78050E-06 0.00000E+00
 -1       805 3.88587E-06-1.36465E-06 0.00000E+00
 -1       806 6.18621E-05-7.73517E-06 0.00000E+00
 -1       807 6.15122E-05-7.13998E-06 1.65436E-24
 -1       808 6.11684E-05-6.56333E-06 0.00000E+00
 -1       809 6.08282E-05-5.99747E-06 0.00000E+00
 -1       810 6.04889E-05-5.43467E-06 0.00000E+00
 -1       811 6.01478E-05-4.86722E-06 1.65436E-24
 -1       812 5.98021E-05-4.28745E-06-3.30872E-24
 -1       813 5.94489E-05-3.68771E-06 0.00000E+00
 -1       814 5.90852E-05-3.06033E-06 3.30872E-24
 -1       815 5.87083E-05-2.39765E-06-8.27181E-25
 -1       816 5.83153E-05-1.69202E-06 3.30872E-24
 -1       817 5.79033E-05-9.35796E-07-8.27181E-25
 -1       818 5.74694E-05-1.21328E-07 3.30872E-24
 -1       819 5.70110E-05 7.58992E-07-1.65436E-24
 -1       820 5.65253E-05 1.71279E-06 3.30872E-24
 -1       821 6.36840E-05 2.77629E-06 0.00000E+00
 -1       822 6.35592E-05 3.04733E-06 0.00000E+00
 -1       823 6.34349E-05 3.05008E-06 0.00000E+00
 -1       824 6.33093E-05 2.98027E-06 1.65436E-24
 -1       825 6.31836E-05 3.05193E-06 0.00000E+00
 -1       826 6.30575E-05 3.47829E-06 0.00000E+00
 -1       827 6.29311E-05 4.38223E-06-3.30872E-24
 -1       828 6.28040E-05 5.88393E-06 1.65436E-24
 -1       829 6.26759E-05 7.95133E-06 0.00000E+00
 -1       830 6.25466E-05 1.05492E-05-1.65436E-24
 -1       831 6.24164E-05 1.35071E-05 3.30872E-24
 -1       832 6.22860E-05 1.66529E-05 0.00000E+00
 -1       833 6.21557E-05 1.97661E-05 3.30872E-24
 -1       834 6.20275E-05 2.26269E-05 0.00000E+00
 -1       835 6.18999E-05 2.50792E-05 8.27181E-25
 -1       836 6.26901E-05 2.16019E-06-3.30872E-24
 -1       837 6.14115E-05 2.28010E-06 0.00000E+00
 -1       838 6.00349E-05 2.39969E-06 3.30872E-24
 -1       839 5.86298E-05 2.51852E-06 0.00000E+00
 -1       840 5.72654E-05 2.63721E-06-4.13590E-25
 -1       856 6.17369E-05 2.86543E-05-2.06795E-25
 -1       857 6.16885E-05 3.04817E-05 4.13590E-25
 -1       858 6.16401E-05 3.24295E-05 0.00000E+00
 -1       859 6.15907E-05 3.44749E-05-8.27181E-25
 -1       860 6.15411E-05 3.65953E-05-1.65436E-24
 -1       861 6.14913E-05 3.87678E-05-8.27181E-25
 -1       862 6.14414E-05 4.09693E-05 1.65436E-24
 -1       863 6.13914E-05 4.31768E-05 8.27181E-25
 -1       864 6.13415E-05 4.53673E-05 1.65436E-24
 -1       865 6.12917E-05 4.75177E-05 8.27181E-25
 -1       866 6.12419E-05 4.96051E-05 0.00000E+00
 -1       867 6.11924E-05 5.16066E-05 0.00000E+00
 -1       868 6.11430E-05 5.34996E-05 0.00000E+00
 -1       869 6.10939E-05 5.52616E-05-8.27181E-25
 -1       870 6.10450E-05 5.68702E-05 0.00000E+00
 -1       871 6.03532E-05 2.69681E-05 0.00000E+00
 -1       872 5.90561E-05 2.69641E-05 0.00000E+00
 -1       873 5.78343E-05 2.69597E-05 0.00000E+00
 -1       874 5.66319E-05 2.69547E-05 0.00000E+00
 -1       875 5.53931E-05 2.69490E-05-1.24077E-24
 -1       876 6.12694E-05 2.86650E-05 3.30872E-24
 -1       877 6.07347E-05 3.04300E-05-1.65436E-24
 -1       878 6.01771E-05 3.22561E-05-3.30872E-24
 -1       879 5.95998E-05 3.41355E-05 0.00000E+00
 -1       880 5.90055E-05 3.60602E-05-3.30872E-24
 -1       881 5.83972E-05 3.80222E-05 0.00000E+00
 -1       882 5.77777E-05 4.00138E-05 0.00000E+00
 -1       883 5.71501E-05 4.20270E-05 0.00000E+00
 -1       884 5.65173E-05 4.40540E-05 3.30872E-24
 -1       885 5.58822E-05 4.60870E-05 0.00000E+00
 -1       886 5.52477E-05 4.81181E-05-3.30872E-24
 -1       887 5.46169E-05 5.01395E-05 0.00000E+00
 -1       888 5.39925E-05 5.21432E-05 3.30872E-24
 -1       889 5.33770E-05 5.41212E-05 0.00000E+00
 -1       890 5.27736E-05 5.60658E-05 0.00000E+00
 -1       891 5.96831E-05 5.82475E-05 0.00000E+00
 -1       892 5.83457E-05 5.81911E-05 0.00000E+00
 -1       893 5.69554E-05 5.81348E-05 8.27181E-25
 -1       894 5.54834E-05 5.80784E-05 0.00000E+00
 -1       895 5.39010E-05 5.80221E-05 0.00000E+00
 -1       956 5.58917E-05 3.94762E-06-3.30872E-24
 -1       957 5.57704E-05 5.22768E-06 0.00000E+00
 -1       958 5.56488E-05 6.57992E-06-1.65436E-24
 -1       959 5.55268E-05 7.99605E-06-1.65436E-24
 -1       960 5.54047E-05 9.46782E-06 3.30872E-24
 -1       961 5.52825E-05 1.09869E-05-1.65436E-24
 -1       962 5.51602E-05 1.25448E-05 0.00000E+00
 -1       963 5.50379E-05 1.41334E-05 0.00000E+00
 -1       964 5.49155E-05 1.57441E-05 3.30872E-24
 -1       965 5.47931E-05 1.73688E-05 0.00000E+00
 -1       966 5.46707E-05 1.89989E-05-3.30872E-24
 -1       967 5.45484E-05 2.06261E-05 0.00000E+00
 -1       968 5.44261E-05 2.22421E-05 3.30872E-24
 -1       969 5.43041E-05 2.38386E-05 0.00000E+00
 -1       970 5.41824E-05 2.54072E-05 0.00000E+00
 -1       971 5.39468E-05 2.85050E-05 0.00000E+00
 -1       972 5.38294E-05 3.01772E-05 0.00000E+00
 -1       973 5.37116E-05 3.19444E-05 0.00000E+00
 -1       974 5.35935E-05 3.37944E-05-1.65436E-24
 -1       975 5.34752E-05 3.57150E-05 3.30872E-24
 -1       976 5.33568E-05 3.76937E-05-1.65436E-24
 -1       977 5.32383E-05 3.97183E-05 0.00000E+00
 -1       978 5.31197E-05 4.17764E-05 0.00000E+00
 -1       979 5.30011E-05 4.38558E-05 0.00000E+00
 -1       980 5.28825E-05 4.59439E-05 0.00000E+00
 -1       981 5.27639E-05 4.80285E-05 0.00000E+00
 -1       982 5.26455E-05 5.00973E-05 1.65436E-24
 -1       983 5.25273E-05 5.21378E-05 3.30872E-24
 -1       984 5.24096E-05 5.41378E-05 3.30872E-24
 -1       985 5.22925E-05 5.60849E-05 0.00000E+00
 -3
    1PSTEP                        26          13           1          
  100CL  113 6.82617E-01         409                     0   13           1
 -4  STRESS      6    1
 -5  SXX         1    4    1    1
 -5  SYY         1    4    2    2
 -5  SZZ         1    4    3    3
 -5  SXY         1    4    1    2
 -5  SYZ         1    4    2    3
 -5  SZX         1    4    3    1
 -1         1-1.47759E+06-8.40831E+05-2.80362E+05-1.47105E+06 5.20231E-10-7.16900E-08
 -1         2-1.29107E+03-8.40835E+05-2.16351E+03-1.56021E+04-4.43777E-10 4.12690E-07
 -1         3-7.31105E+00 7.84692E+04 1.01804E+01 5.62515E+00-5.13740E-11 3.16686E-09
 -1         5-4.65153E+01 3.49101E+05 9.20372E+00 8.61438E-01 3.77181E-10 2.72503E-08
 -1         8-5.66691E+05-4.45923E+05 1.52617E+05-1.11621E+06-7.89441E-10-5.88916E-08
 -1         9 9.62187E+06 7.68492E+06 2.57599E+06 7.54094E+06-1.20024E-08 8.66130E-08
 -1        10 1.17943E+02 8.18382E+04 1.01863E+03 5.04029E+01-8.92328E-10-1.06768E-08
 -1        12-4.28281E+01 3.49120E+05 3.01015E+02 6.08196E+00 4.99284E-10-5.83623E-09
 -1        15 3.72879E+03 2.04931E+03 1.20536E+04 1.39344E+01-7.42375E-11 1.66942E-07
 -1        16 1.31209E+07 1.20345E+07 3.61576E+06 1.22609E+07 2.07995E-08-2.82424E-07
 -1        17 1.51570E+07 4.44137E+05 2.31751E+06-9.14025E+05 1.19966E-08-3.25701E-08
 -1        18 4.41733E+05 1.01261E+05 8.23217E+04-7.20816E+04 1.88243E-09-1.17961E-09
 -1        19 1.07631E+05 1.31835E+05-3.51585E+02 2.14135E+04-1.56979E-09-6.13363E-10
 -1        20-3.54952E+04-5.08653E+05-1.11583E+05 4.21097E+04 6.93277E-09 5.14774E-10
 -1        21-4.91239E+01-3.04790E+05-9.94726E+02-2.83447E+02-1.60650E-08-2.51186E-09
 -1        24 2.36329E+07-1.03162E+05 3.41007E+06-1.91924E+06 8.48231E-08 2.16096E-08
 -1        25 2.41684E+05 8.91560E+05 2.38594E+05-1.30826E+05 1.31531E-09 8.33097E-09
 -1        26-1.42839E+04 9.35705E+04-1.55867E+04-1.85104E+04 2.31230E-09 7.39424E-09
 -1        27-8.56944E+04-2.80450E+05-1.05780E+05 6.33539E+04 7.56760E-09-2.70393E-09
 -1        28 2.38731E+04-8.29927E+04 1.71764E+04 2.87566E+04 6.73742E-09-1.93192E-09
 -1        32-6.43320E+05 2.05364E+06 9.87787E+05-7.31216E+05-8.26549E-09 4.68257E-08
 -1        33-1.57279E+05 8.43290E+04 2.96633E+04-5.48938E+04 2.61139E-09-1.40123E-09
 -1        34-2.09504E+05-2.03072E+04 4.23900E+02 6.25154E+04 5.31342E-09-7.24413E-10
 -1        35-2.41793E+04-3.29487E+04-1.29506E+03 5.31183E+04 1.27985E-08-3.01103E-09
 -1        51-2.10570E+02-7.20538E+05 1.85689E+04-1.68078E+06 8.73115E-11 1.41416E-07
 -1        52 1.35586E+04-7.35803E+05 2.13607E+04-1.96085E+06 1.84809E-09 5.96629E-08
 -1        53 1.81288E+04-7.64113E+05 2.75245E+04-1.67482E+06 2.32831E-09-1.40717E-07
 -1        54 4.81101E+04-7.70483E+05 5.67932E+04-1.96672E+06-8.73115E-11-1.78341E-07
 -1        55 8.16055E+04-7.95507E+05 1.07876E+05-1.67344E+06 7.42148E-10 2.68337E-08
 -1        56-2.88289E+06-3.24585E+05-1.97295E+05-1.09439E+06 3.82170E-09-4.55475E-08
 -1        57-2.89864E+06-5.64499E+05-1.32659E+05-1.15453E+06 1.18716E-08 6.21549E-09
 -1        58-2.93001E+06-3.79056E+05-4.64097E+04-1.07161E+06-7.96899E-09-2.10897E-07
 -1        59-2.84380E+06-5.01779E+05-2.77272E+04-1.18425E+06 2.22506E-08 5.09935E-08
 -1        60-2.93854E+06-3.84774E+05-1.08209E+04-1.06612E+06-5.13478E-09-4.70286E-08
 -1        61-2.83741E+06-4.90820E+05-6.22999E+03-1.18570E+06-1.70633E-08 1.15475E-07
 -1        62-2.93629E+06-3.89802E+05-3.38930E+03-1.07021E+06 6.64068E-09-1.39829E-07
 -1        63-2.84718E+06-4.76464E+05-2.63500E+03-1.16911E+06-3.75371E-08-1.10140E-08
 -1        64-2.92751E+06-3.99924E+05-4.61381E+03-1.08181E+06 4.52674E-08-1.83717E-07
 -1        65-2.86900E+06-4.54652E+05-7.71696E+03-1.13965E+06-2.77214E-08 1.24637E-07
 -1        66-2.91295E+06-4.12656E+05-1.61903E+04-1.09854E+06 1.40435E-08 3.67609E-08
 -1        67-2.90706E+06-4.39654E+05-3.81117E+04-1.10213E+06 4.12874E-08-9.71631E-08
 -1        68-2.88887E+06-4.15690E+05-6.63406E+04-1.11870E+06 6.40534E-09-4.29063E-08
 -1        69-3.00298E+06-5.15135E+05-1.87291E+05-1.04902E+06-4.61368E-08 9.93423E-08
 -1        70-2.81826E+06-3.39158E+05-2.78591E+05-1.15126E+06-2.38979E-08 7.03003E-08
 -1        86 2.55655E+02-8.65121E+05-7.78810E+03 7.79827E+03 6.61043E-09-1.24371E-07
 -1        87-5.02246E+03-8.48013E+05-9.98660E+03-2.86814E+04 1.12093E-08-2.85998E-07
 -1        88 4.35217E+03-8.58444E+05-1.98847E+04 2.08735E+04 1.50403E-08-3.80544E-08
 -1        89-3.47082E+04-8.71572E+05-5.06447E+04-4.82914E+04 2.26401E-08-1.01573E-07
 -1        90 3.05309E+04-8.42481E+05-7.26638E+04 2.74175E+04 1.90121E-08 1.17110E-07
 -1       121-7.86718E+00 7.84576E+04 8.94922E+00-2.81520E+00 8.86562E-11-3.81351E-09
 -1       122-1.27975E+01 7.84667E+04 1.98992E+01 1.11070E+01-3.47026E-10-7.95580E-10
 -1       123-4.32959E+00 7.84602E+04 3.84572E+01-8.30908E+00 2.37208E-10 2.64617E-09
 -1       124-8.00326E+01 7.84319E+04 5.89728E+01-1.06420E+01-6.72003E-10 1.13843E-08
 -1       125 3.71784E+01 7.84926E+04 1.73698E+02 1.88989E+01 4.15753E-10 1.60526E-10
 -1       191-4.91198E+01 3.49122E+05 8.98389E+00-4.44804E-01 4.85605E-10 1.73368E-08
 -1       192-4.73866E+01 3.49101E+05 1.95849E+01 3.00890E+00 6.25960E-10 1.42027E-08
 -1       193-5.14225E+01 3.49121E+05 3.44607E+01-2.65102E+00 7.11182E-10 7.21775E-09
 -1       194-5.01838E+01 3.49104E+05 7.43178E+01 6.92620E+00 3.80624E-10 1.12777E-10
 -1       195-5.58440E+01 3.49119E+05 1.43400E+02-4.46139E+00 1.13113E-09 4.96948E-09
 -1       251 4.08760E+06-2.26250E+05 5.28508E+05 5.40129E+04 3.01043E-09-1.13214E-08
 -1       252 4.33581E+06 2.61549E+05 3.75765E+05-9.58545E+04 1.59696E-09-2.39641E-07
 -1       253 4.18502E+06-3.46745E+04 1.37492E+05 3.88574E+03-8.04221E-10 4.00760E-08
 -1       254 4.22312E+06 4.01980E+04 8.61136E+04-3.34484E+04-5.44341E-09-7.82093E-08
 -1       255 4.19994E+06-5.31309E+03 3.54658E+04-8.38075E+03 3.13121E-09 1.05101E-08
 -1       256 4.20597E+06 6.30641E+03 2.10849E+04-1.83843E+04 2.00717E-09 5.31447E-08
 -1       257 4.20232E+06-8.65473E+02 1.04368E+04-1.11788E+04-1.98605E-09-1.20495E-07
 -1       258 4.20350E+06 1.62842E+03 8.29960E+03-1.60351E+04 1.78773E-09 2.64085E-07
 -1       259 4.20245E+06-6.46598E+02 8.49846E+03-1.07301E+04 3.11602E-09-6.33895E-08
 -1       260 4.20500E+06 4.41083E+03 1.54737E+04-2.11723E+04-8.51412E-09 9.81440E-08
 -1       261 4.20080E+06-3.64435E+03 2.53815E+04-6.04143E+03 4.94441E-09-3.03553E-08
 -1       262 4.21795E+06 2.78040E+04 6.10730E+04-4.51952E+04 6.51545E-09-1.87198E-07
 -1       263 4.18948E+06-2.40336E+04 9.72246E+04 1.32930E+04-8.17158E-09 2.72510E-07
 -1       264 4.31609E+06 1.84882E+05 2.69408E+05-1.42568E+05 1.07349E-08 2.75904E-08
 -1       265 4.10424E+06-1.61204E+05 3.69871E+05 9.13294E+04-2.33467E-09 1.12050E-08
 -1       266-6.74965E+04-3.15437E+04 1.58455E+05-2.98295E+02 1.38243E-09 3.41469E-07
 -1       267 7.82546E+04 3.67934E+04 1.11949E+05 3.43998E+02 2.36651E-09 4.54470E-08
 -1       268-1.04935E+04-5.20941E+03 4.16136E+04-4.38411E+01 1.05501E-09 3.22369E-08
 -1       269 1.23902E+04 6.23629E+03 2.70457E+04 5.10577E+01 8.17181E-10 1.61542E-07
 -1       270-1.85977E+03-1.02459E+03 1.30554E+04-6.92933E+00 1.31058E-09 2.51595E-07
 -1       271-7.04690E+06-8.94211E+05-5.56700E+05-2.76707E+06 4.44634E-08-1.68511E-07
 -1       272-7.17416E+06-1.36028E+06-3.56268E+05-2.83116E+06 6.70757E-08-2.94938E-07
 -1       273-7.16769E+06-1.01484E+06-1.31785E+05-2.72396E+06-4.94347E-08 1.16823E-07
 -1       274-7.03205E+06-1.21550E+06-7.28875E+04-2.90344E+06 2.98651E-08 1.48793E-07
 -1       275-7.19355E+06-1.01631E+06-3.05654E+04-2.70700E+06 3.81715E-08 2.11294E-08
 -1       276-7.00527E+06-1.21172E+06-1.61748E+04-2.92983E+06-1.78875E-08 2.14088E-07
 -1       277-7.19946E+06-1.01329E+06-8.15781E+03-2.70203E+06 3.70017E-09 4.42483E-07
 -1       278-7.00439E+06-1.20859E+06-6.49856E+03-2.92854E+06 2.48338E-09 3.22848E-07
 -1       279-7.19397E+06-1.01953E+06-8.43111E+03-2.70806E+06 1.86628E-08-7.14244E-08
 -1       280-7.02007E+06-1.19196E+06-1.53080E+04-2.90198E+06-3.53302E-08-7.72779E-08
 -1       281-7.17776E+06-1.03393E+06-3.05722E+04-2.72424E+06 4.25389E-08-4.12765E-08
 -1       282-7.06213E+06-1.17711E+06-6.97070E+04-2.85348E+06-4.21187E-08 4.73170E-07
 -1       283-7.14420E+06-1.04132E+06-1.28033E+05-2.75003E+06-2.59352E-08 3.99887E-08
 -1       284-7.21579E+06-1.30109E+06-3.42500E+05-2.76938E+06 1.56060E-08-2.54950E-07
 -1       285-7.02209E+06-9.30215E+05-5.36394E+05-2.79788E+06 2.72485E-09-7.68632E-08
 -1       301-2.39833E+04 3.55602E+05 4.39999E+04 1.01317E+06-2.95768E-09 7.80637E-08
 -1       302-2.67112E+04 3.72465E+05 4.77030E+04 1.48427E+06 3.23780E-09 2.10997E-07
 -1       303-2.22469E+04 3.49691E+05 6.46270E+04 1.01107E+06-4.69299E-10 1.29623E-07
 -1       304-3.47366E+03 4.01585E+05 1.31551E+05 1.48357E+06 2.60479E-09 2.10537E-07
 -1       305-1.62487E+03 3.38645E+05 2.28796E+05 1.01455E+06-1.71713E-09 2.09271E-07
 -1       306-2.47024E+07-1.99346E+07-1.11775E+07-1.42091E+07 1.24914E-07-5.89935E-08
 -1       307 8.30319E+06 3.68236E+07 7.94279E+06 1.86015E+07 9.36241E-07-5.26663E-07
 -1       308-7.08332E+05-1.40449E+07-2.29767E+06-3.97953E+06 1.45519E-09-1.17230E-07
 -1       309-1.75423E+07 2.50459E+07 2.65943E+06-1.06566E+07-2.52730E-07 3.76325E-07
 -1       310 1.69934E+06-1.08485E+07-6.20096E+05-2.24906E+06-1.10227E-07 3.75439E-08
 -1       311-7.17941E+05 3.42370E+07 6.56811E+06 1.24006E+07-8.39063E-07 3.47209E-07
 -1       312-1.92063E+07-2.00263E+07-8.67646E+06-1.39505E+07-9.91276E-08-2.23634E-07
 -1       313 5.29442E+07 1.63827E+07 1.20465E+07 2.65642E+07 5.36907E-07-2.94531E-07
 -1       314-3.54348E+07-7.14768E+06-9.60380E+06-4.65433E+06-2.51690E-07-3.96976E-08
 -1       315 4.24055E+07 8.27945E+05 8.04211E+06-1.12393E+07 4.75557E-07 1.86410E-07
 -1       316-1.22828E+07-2.54385E+06-2.12235E+06 6.17197E+06 4.86616E-07 6.44708E-07
 -1       317-4.34870E+06 1.18851E+07 2.66553E+06-2.23177E+07-1.09753E-06 2.51603E-07
 -1       318-7.37666E+06-1.75180E+06-8.00752E+05 5.94594E+06 7.32602E-07 1.23193E-07
 -1       319 3.10206E+07 4.25299E+06 6.45580E+06-1.65722E+07 1.98314E-07 1.89902E-07
 -1       320-3.39943E+07-7.13720E+06-1.01832E+07-5.76443E+05-1.55065E-07-1.08266E-08
 -1       336-1.48000E+02 8.48683E+04 2.23537E+03-6.94038E+01-1.70451E-09 1.46611E-09
 -1       337 9.46033E+02 8.57223E+04 4.47136E+03 1.11715E+02-3.16618E-09 6.92876E-09
 -1       338-6.62319E+02 8.44236E+04 7.79604E+03-4.23011E+01-2.34468E-09 2.90356E-09
 -1       339 9.04204E+03 9.06246E+04 1.90289E+04 6.08220E+01-4.38581E-09 6.52130E-09
 -1       340-6.45335E+03 7.99669E+04 2.98680E+04-1.57670E+01-2.93039E-09 3.49837E-09
 -1       406-2.17986E+01 3.49106E+05 5.92211E+02-1.89892E+00 1.59122E-09 1.05301E-08
 -1       407 1.64619E+02 3.49225E+05 1.26307E+03-1.97761E+01 3.08233E-10 2.75832E-08
 -1       408 6.05993E+02 3.49014E+05 2.51996E+03 2.20633E+01 1.74896E-09 6.66478E-09
 -1       409 2.68809E+03 3.50029E+05 5.67735E+03-2.28254E+02 9.91349E-11-2.98678E-09
 -1       410 7.79989E+03 3.48292E+05 1.15883E+04 2.18422E+02 1.82263E-09 2.58024E-09
 -1       521-2.45135E+07-2.02191E+07-1.15872E+07-1.31169E+07 8.32370E-08-3.97325E-07
 -1       522 5.54070E+06 3.75580E+07 7.44310E+06 1.77516E+07 6.53556E-07-1.30385E-08
 -1       523-1.07084E+06-1.40330E+07-2.16761E+06-4.14099E+06 2.99769E-07 4.86441E-07
 -1       524-2.01870E+07 2.53917E+07 2.55030E+06-1.29968E+07-2.95564E-07 7.83617E-07
 -1       525 1.25737E+06-1.12861E+07-5.26900E+05-2.71238E+06-2.60570E-07 7.36734E-07
 -1       526-3.31456E+06 3.52783E+07 6.27343E+06 1.14021E+07-3.34039E-07 1.20490E-07
 -1       527-1.93747E+07-2.00918E+07-8.98114E+06-1.29707E+07-2.70084E-08 8.31205E-08
 -1       528 5.24159E+07 1.56501E+07 1.13889E+07 2.66882E+07-2.36090E-07-8.03266E-08
 -1       529-3.45022E+07-8.27663E+06-9.96586E+06-4.18169E+06 1.25961E-07-2.11730E-08
 -1       530 4.08436E+07 5.24277E+05 7.59416E+06-1.31825E+07 3.98140E-07-1.15455E-07
 -1       531-1.25793E+07-2.63106E+06-1.99437E+06 5.99039E+06 3.68222E-07 2.63797E-07
 -1       532-7.74782E+06 1.30089E+07 2.55912E+06-2.40340E+07-9.12314E-07 3.84869E-07
 -1       533-8.24423E+06-1.74312E+06-7.11231E+05 5.91490E+06-6.97561E-07 6.75202E-07
 -1       534 2.92884E+07 4.33958E+06 6.12008E+06-1.85377E+07 5.15720E-07-4.83444E-07
 -1       535-3.31319E+07-8.17688E+06-1.05475E+07-5.12537E+05 5.70435E-08-3.61004E-07
 -1       536 1.51272E+06-6.81694E+04 1.57668E+05 3.92590E+03-1.19611E-08 2.96131E-09
 -1       537 1.58207E+06 7.89068E+04 1.11698E+05-7.54643E+03-1.94213E-09-8.51287E-09
 -1       538 1.53961E+06-1.06658E+04 4.08709E+04-4.76835E+02-5.06251E-10-5.04224E-09
 -1       539 1.55087E+06 1.23465E+04 2.57071E+04-2.40675E+03-7.19674E-10 1.72076E-09
 -1       540 1.54397E+06-1.66771E+03 1.05371E+04-1.21356E+03 8.39966E-10-3.55158E-09
 -1       541 1.54580E+06 1.96052E+03 6.31955E+03-1.54688E+03 6.89263E-09 1.88322E-09
 -1       542 1.54469E+06-2.87999E+02 3.14831E+03-1.33674E+03 2.16699E-06-1.92904E-09
 -1       543 1.54506E+06 5.34545E+02 2.59652E+03-1.41712E+03 4.32477E-06-2.60734E-11
 -1       544 1.54472E+06-2.42700E+02 2.73908E+03-1.34332E+03 2.16710E-06-2.82182E-09
 -1       545 1.54559E+06 1.57095E+03 5.13656E+03-1.49409E+03 6.07586E-09-3.06130E-09
 -1       546 1.54416E+06-1.32369E+03 8.40678E+03-1.25977E+03 1.22467E-09 4.70027E-09
 -1       547 1.54959E+06 9.78675E+03 2.03932E+04-2.08808E+03 9.02105E-11 1.84832E-09
 -1       548 1.54070E+06-8.45205E+03 3.23845E+04-7.49303E+02 2.78142E-09 3.95266E-09
 -1       549 1.57414E+06 6.24874E+04 8.84394E+04-5.63737E+03-1.65997E-10 2.47019E-09
 -1       550 1.51956E+06-5.39787E+04 1.24895E+05 2.28944E+03-9.87555E-10 7.93079E-10
 -1       551 1.00762E+03-4.19156E+05-1.46955E+04-1.28749E+06-1.54396E-08 3.89991E-09
 -1       552 2.14032E+04-4.38685E+05 1.14267E+04-1.83330E+06-1.61381E-08 1.32713E-08
 -1       553 1.76638E+04-4.40404E+05 3.82513E+04-1.28418E+06-2.31521E-08 9.26093E-09
 -1       554 4.71568E+04-4.17031E+05 9.45907E+04-1.83328E+06-1.33150E-08 2.48838E-09
 -1       555 3.50990E+04-4.44227E+05 1.71305E+05-1.28745E+06-1.71349E-08 4.94765E-10
 -1       556-1.76573E+04-8.78181E+04 1.21892E+04-1.23398E+05 2.81580E-09 3.71074E-10
 -1       557 1.11129E+04-1.14249E+05 6.40269E+03-1.51898E+05 9.64064E-09-3.96722E-09
 -1       558-1.79478E+04-8.91951E+04 2.62192E+03-1.21747E+05 3.88536E-09-8.54925E-11
 -1       559 9.42892E+03-1.16167E+05 1.32884E+03-1.53049E+05 4.35102E-09 8.67453E-09
 -1       560-1.83514E+04-8.89151E+04 5.78819E+02-1.21962E+05-5.66433E-09 8.29550E-09
 -1       561 8.87354E+03-1.16057E+05 3.00035E+02-1.53431E+05-1.33587E-08 8.36417E-09
 -1       562-1.86048E+04-8.87400E+04 1.28919E+02-1.22141E+05-6.02631E-09 6.18820E-09
 -1       563 8.63549E+03-1.15959E+05 5.88481E+01-1.53586E+05-5.87534E-10-4.04816E-09
 -1       564-1.86706E+04-8.86906E+04-7.01181E+00-1.22190E+05 5.48403E-09 1.83445E-09
 -1       565 8.65751E+03-1.15972E+05-7.68927E+01-1.53565E+05 2.21507E-09 1.71167E-09
 -1       566-1.85432E+04-8.87650E+04-2.13950E+02-1.22110E+05-1.42245E-09 4.56384E-09
 -1       567 8.88694E+03-1.16088E+05-4.65789E+02-1.53343E+05 5.54428E-09 7.48150E-09
 -1       568-1.81751E+04-8.90017E+04-1.00258E+03-1.21910E+05 6.22094E-10 5.52973E-09
 -1       569 8.41369E+03-1.16370E+05-2.28804E+03-1.52398E+05-8.20364E-10 2.84126E-09
 -1       570-1.69117E+04-9.05672E+04-4.51196E+03-1.21637E+05-1.38971E-09-7.99901E-09
 -1       571 2.45883E+05 8.29231E+03 1.24016E+04-5.69487E+04 1.09594E-09 1.33832E-09
 -1       572 2.47729E+05 2.83037E+03 6.07649E+03-6.23953E+04 1.90084E-10 2.05841E-09
 -1       573 2.46611E+05 6.22684E+02 2.69921E+03-5.67789E+04 5.44787E-10 4.84306E-10
 -1       574 2.46830E+05 1.51821E+02 1.35255E+03-6.25772E+04-3.13048E-09 2.52066E-09
 -1       575 2.46683E+05-3.37639E+01 6.37087E+02-5.67570E+04 6.93035E-09 4.83442E-09
 -1       576 2.46700E+05-5.99221E+01 3.23833E+02-6.26014E+04 1.95744E-08-3.06090E-09
 -1       577 2.46689E+05-6.53800E+01 1.58323E+02-5.67541E+04 7.19012E-10 1.90084E-09
 -1       578 2.46683E+05-6.80812E+01 8.39555E+01-6.26044E+04-1.93190E-08 2.24145E-09
 -1       579 2.46701E+05-6.60698E+01 4.68230E+01-5.67541E+04-9.89621E-09 3.96039E-09
 -1       580 2.46700E+05-7.50750E+01 3.62002E+01-6.26013E+04 2.56068E-09 9.15452E-09
 -1       581 2.46726E+05-7.69404E+01 4.04154E+01-5.67572E+04-1.65619E-09-1.20690E-09
 -1       582 2.46742E+05-8.34245E+01 7.09740E+01-6.25700E+04-1.33286E-09-5.22778E-09
 -1       583 2.46764E+05-6.82977E+01 1.31024E+02-5.67853E+04-2.55568E-10-7.86849E-09
 -1       584 2.46839E+05 2.00892E+01 2.92835E+02-6.23333E+04-3.44517E-09-2.92221E-09
 -1       585 2.46780E+05 2.76771E+02 5.90922E+02-5.69943E+04 4.22006E-10-4.40195E-09
 -1       586-3.61263E+03 7.62599E+04-5.33290E+03-1.79878E+05 1.89902E-09-3.06500E-10
 -1       587-7.16966E+02 7.54623E+04-1.35848E+03-1.97858E+05 3.27782E-09 4.33010E-09
 -1       588 8.57517E+02 7.57435E+04 1.91453E+03-1.79730E+05 2.09002E-09 1.33082E-08
 -1       589 3.75598E+03 7.69608E+04 6.63420E+03-1.97762E+05 3.95630E-09 1.57411E-08
 -1       590 1.02909E+04 7.49013E+04 1.45688E+04-1.79963E+05 2.10457E-09 8.81391E-09
 -1       591-5.36311E+04-1.67266E+04-1.86679E+04-2.94893E+04 6.58605E-09-2.90584E-09
 -1       592-5.49342E+04-2.17541E+04-1.01110E+04-3.48578E+04 1.12768E-08 1.41790E-09
 -1       593-5.55267E+04-1.53440E+04-4.20960E+03-3.08331E+04 5.14092E-09-8.79163E-09
 -1       594-5.23286E+04-1.90474E+04-2.09929E+03-3.49985E+04 2.64890E-11-7.55051E-10
 -1       595-5.56734E+04-1.53361E+04-9.64883E+02-3.08957E+04-1.05815E-08-3.78759E-09
 -1       596-5.21539E+04-1.89229E+04-4.91793E+02-3.49821E+04-2.02380E-09 1.06787E-08
 -1       597-5.56924E+04-1.53475E+04-2.70877E+02-3.08985E+04 5.58259E-10-2.30233E-09
 -1       598-5.21373E+04-1.89182E+04-2.23394E+02-3.49771E+04 2.83779E-09-3.39719E-09
 -1       599-5.56906E+04-1.53478E+04-2.92567E+02-3.08978E+04-1.06058E-09-6.01563E-09
 -1       600-5.21549E+04-1.89251E+04-5.49155E+02-3.49806E+04-1.56069E-09-2.35627E-09
 -1       601-5.56658E+04-1.53360E+04-1.08663E+03-3.08931E+04-2.44654E-09-3.56317E-09
 -1       602-5.23509E+04-1.90658E+04-2.36936E+03-3.49961E+04 3.43107E-10-3.65617E-09
 -1       603-5.54978E+04-1.53477E+04-4.75294E+03-3.08223E+04 2.07956E-09 8.99945E-09
 -1       604-5.52990E+04-2.21135E+04-1.14160E+04-3.48251E+04-3.68459E-10-1.03682E-09
 -1       605-5.33467E+04-1.69156E+04-2.10769E+04-2.93124E+04 2.18279E-10 2.74667E-09
 -1       606 3.97512E+04-1.18698E+04-2.14105E+04 3.90461E+04-1.98270E-10 1.66438E-09
 -1       607 3.60780E+04-3.80301E+03-1.06597E+04 4.38229E+04 1.41881E-08-3.89969E-09
 -1       608 3.81371E+04-6.18466E+02-4.77672E+03 3.87297E+04 1.59835E-08-7.20775E-11
 -1       609 3.77068E+04-1.18451E+02-2.41146E+03 4.41644E+04-1.05501E-09 4.26098E-09
 -1       610 3.79160E+04 7.72027E+01-1.15423E+03 3.86944E+04 4.19095E-09 1.24146E-10
 -1       611 3.78192E+04 1.13766E+02-5.81697E+02 4.42015E+04 6.18456E-09 3.92038E-09
 -1       612 3.78400E+04 1.11600E+02-2.80307E+02 3.86910E+04 5.69526E-09-1.43109E-09
 -1       613 3.77910E+04 1.38457E+02-1.28379E+02 4.42057E+04-8.40737E-09-7.93898E-09
 -1       614 3.77921E+04 1.24949E+02-3.90842E+01 3.86899E+04 2.42835E-10 2.10321E-09
 -1       615 3.77564E+04 1.56288E+02 3.38544E+01 4.42061E+04 1.04842E-08 1.77079E-09
 -1       616 3.77562E+04 1.41251E+02 1.19563E+02 3.86902E+04-3.36604E-09-3.25872E-09
 -1       617 3.77486E+04 1.95149E+02 2.80866E+02 4.42052E+04 3.57886E-09 1.82217E-09
 -1       618 3.77155E+04 2.32494E+02 5.68498E+02 3.86903E+04 1.34373E-08-1.48430E-09
 -1       619 3.79360E+04 6.43059E+02 1.27863E+03 4.42040E+04 2.17476E-08 4.47926E-09
 -1       620 3.75183E+04 1.58783E+03 2.57022E+03 3.86874E+04 1.16995E-08 3.02725E-09
 -1       621 5.58725E+02 2.82097E+05 4.63319E+03 5.36696E+02-7.27482E-10 3.35738E-09
 -1       622 6.20934E+02 2.83250E+05 3.70039E+03 9.05661E+02-7.99304E-10 8.55920E-09
 -1       623 2.58225E+01 2.82463E+05 3.95189E+03 5.34570E+02-8.10132E-10-3.17878E-09
 -1       624 1.71034E+03 2.84252E+05 7.23973E+03 9.04587E+02-9.34506E-10-4.80494E-10
 -1       625 1.71200E+03 2.81093E+05 1.24611E+04 5.39860E+02-8.65839E-10 1.00121E-09
 -1       626 2.20250E+05 6.40350E+04 4.09488E+03 1.23275E+05-6.50653E-09-2.29556E-09
 -1       627 2.16838E+05 6.67056E+04 1.97440E+03 1.28430E+05-9.11223E-09-1.89584E-09
 -1       628 2.20414E+05 6.20682E+04 8.32039E+02 1.23841E+05 3.24690E-09 1.35242E-09
 -1       629 2.16181E+05 6.62882E+04 4.09117E+02 1.28725E+05 4.07545E-09-1.90827E-08
 -1       630 2.20406E+05 6.19845E+04 1.88343E+02 1.23840E+05-8.97489E-09 1.38652E-09
 -1       631 2.16084E+05 6.62895E+04 1.02532E+02 1.28717E+05-2.85959E-08-1.19410E-09
 -1       632 2.20380E+05 6.20004E+04 6.87176E+01 1.23821E+05-1.84846E-08 1.71985E-09
 -1       633 2.16055E+05 6.63021E+04 7.94896E+01 1.28699E+05-6.07542E-09 3.96858E-09
 -1       634 2.20357E+05 6.20067E+04 1.30287E+02 1.23808E+05 8.86939E-09 1.09746E-08
 -1       635 2.16051E+05 6.63079E+04 2.65871E+02 1.28692E+05 8.67271E-09 7.69660E-09
 -1       636 2.20337E+05 6.20088E+04 5.37234E+02 1.23801E+05-4.48676E-09-6.28006E-10
 -1       637 2.16157E+05 6.63950E+04 1.18085E+03 1.28684E+05 2.24725E-09 7.33371E-09
 -1       638 2.20290E+05 6.22725E+04 2.42674E+03 1.23678E+05-1.44883E-09-3.51974E-09
 -1       639 2.17426E+05 6.81707E+04 5.74052E+03 1.28309E+05-3.76667E-09 1.03055E-08
 -1       640 2.20128E+05 6.75493E+04 1.19124E+04 1.21430E+05-1.08380E-08-1.23046E-08
 -1       656 6.12681E+04-1.54407E+06-1.47855E+05 1.02579E+03 6.25732E-10-1.42961E-09
 -1       657-8.09327E+04-1.61071E+06-1.22188E+05 1.14634E+04 2.13822E-09 1.18158E-09
 -1       658 1.93859E+04-1.56310E+06-7.48546E+04-1.09581E+03 1.52954E-09 9.44276E-10
 -1       659-8.64738E+04-1.61335E+06-1.29465E+05 1.28027E+04-1.88265E-10 2.64946E-09
 -1       660 6.67984E+04-1.54143E+06-1.60355E+05-3.13480E+02-1.72440E-09-2.55767E-10
 -1       661 2.43985E+05 2.69311E+04 2.29536E+04 9.55622E+04 4.62160E-09-3.78986E-09
 -1       662 2.55800E+05 4.50731E+04 1.54666E+04 9.17344E+04 4.26553E-10-3.42789E-09
 -1       663 2.48494E+05 3.42926E+04 5.41056E+03 9.42533E+04-2.61480E-11-6.43195E-09
 -1       664 2.50577E+05 3.64611E+04 3.23474E+03 9.33313E+04 3.44062E-09 5.38319E-09
 -1       665 2.49174E+05 3.53009E+04 1.27577E+03 9.40572E+04-5.53200E-09 2.91095E-09
 -1       666 2.49774E+05 3.53065E+04 7.43546E+02 9.35874E+04-1.61280E-08 1.62656E-09
 -1       667 2.49292E+05 3.54166E+04 3.90968E+02 9.40088E+04-5.03974E-10-2.54403E-10
 -1       668 2.49642E+05 3.52222E+04 3.89993E+02 9.36610E+04 7.25028E-09-7.87344E-09
 -1       669 2.49306E+05 3.53824E+04 5.20617E+02 9.39846E+04 5.33601E-09 4.52246E-09
 -1       670 2.49759E+05 3.55097E+04 1.12730E+03 9.36747E+04 1.68604E-08-5.10909E-10
 -1       671 2.49175E+05 3.51346E+04 1.99909E+03 9.39929E+04 7.86500E-10-4.76257E-09
 -1       672 2.50912E+05 3.74660E+04 5.11292E+03 9.34074E+04-6.16785E-09-5.71106E-09
 -1       673 2.48160E+05 3.34748E+04 8.56759E+03 9.42332E+04-9.67543E-09 6.18456E-11
 -1       674 2.59058E+05 5.12368E+04 2.45004E+04 9.10207E+04-2.63014E-09-2.01453E-10
 -1       675 2.41081E+05 2.17483E+04 3.63673E+04 9.62340E+04 3.94994E-09-3.16140E-09
 -1       676 2.59563E+01-3.04706E+05-1.19891E+03 1.41728E+02 3.50795E-09 5.45258E-09
 -1       677-3.17199E+02-3.04997E+05-2.19422E+03-2.83220E+02-7.25117E-09-5.07925E-09
 -1       678 2.12710E+02-3.04499E+05-3.87884E+03 1.41395E+02-3.54112E-09 4.58440E-09
 -1       679-3.87900E+03-3.07339E+05-9.21455E+03-2.82036E+02-1.18426E-08 3.71248E-09
 -1       680 2.31598E+03-3.02365E+05-1.48507E+04 1.38911E+02-3.20779E-09 2.92779E-09
 -1       771-3.30374E+06-4.90903E+05-1.46912E+05-1.25167E+06-2.19916E-09-6.47560E-10
 -1       772-3.33678E+06-5.07517E+05-7.95734E+04-1.26730E+06-2.54840E-09-3.57704E-09
 -1       773-3.31850E+06-4.80222E+05-3.30716E+04-1.26224E+06-7.66704E-10 4.28554E-09
 -1       774-3.31611E+06-4.86231E+05-1.64492E+04-1.26849E+06-3.41061E-10-1.18962E-09
 -1       775-3.31976E+06-4.80028E+05-7.49625E+03-1.26258E+06-4.95493E-09 2.13731E-10
 -1       776-3.31449E+06-4.85483E+05-3.67987E+03-1.26865E+06-8.43875E-09-1.34605E-09
 -1       777-3.32005E+06-4.79995E+05-1.76529E+03-1.26248E+06-3.72438E-09 1.61435E-09
 -1       778-3.31415E+06-4.85639E+05-9.64595E+02-1.26887E+06 4.56566E-10 5.16422E-09
 -1       779-3.32019E+06-4.79908E+05-6.81961E+02-1.26239E+06 3.37695E-09 4.47790E-09
 -1       780-3.31402E+06-4.85802E+05-8.19207E+02-1.26908E+06-1.09912E-09-2.00623E-09
 -1       781-3.32026E+06-4.79809E+05-1.38667E+03-1.26231E+06-1.16324E-09-2.16971E-09
 -1       782-3.31416E+06-4.86088E+05-2.89811E+03-1.26927E+06-2.92107E-09-2.70134E-09
 -1       783-3.32014E+06-4.79757E+05-5.76306E+03-1.26218E+06-2.19643E-09-2.24122E-09
 -1       784-3.31762E+06-4.89928E+05-1.38344E+04-1.26924E+06-1.68802E-09-1.13687E-09
 -1       785-3.31766E+06-4.81542E+05-2.55374E+04-1.26028E+06-1.70530E-09-1.66710E-09
 -1       786 2.79860E+05-1.32922E+04 3.07548E+04 2.32948E+02 1.91969E-09 1.22600E-09
 -1       787 2.93184E+05 1.53885E+04 2.17583E+04 2.02769E+01 1.06985E-09 1.53636E-09
 -1       788 2.85002E+05-2.08363E+03 7.96119E+03 1.91754E+02-1.14886E-09 1.39789E-09
 -1       789 2.87195E+05 2.41114E+03 5.00330E+03 7.80175E+01 9.47154E-09 5.60584E-09
 -1       790 2.85851E+05-3.25523E+02 2.03856E+03 1.75216E+02 2.59014E-06-1.57775E-09
 -1       791 2.86206E+05 3.79129E+02 1.20201E+03 9.75842E+01 5.14243E-06 4.64273E-09
 -1       792 2.85992E+05-5.31464E+01 5.58636E+02 1.72188E+02-3.77407E-06-8.44977E-10
 -1       793 2.86049E+05 7.96654E+01 3.86456E+02 9.19931E+01-1.26825E-05 7.40906E-09
 -1       794 2.86008E+05-2.62564E+01 3.17458E+02 1.80807E+02-6.36612E-06-4.15714E-09
 -1       795 2.86082E+05 1.47978E+02 5.04227E+02 5.89495E+01-1.95921E-08 6.29976E-09
 -1       796 2.85959E+05-1.21414E+02 7.82509E+02 2.05232E+02-1.09203E-09 1.39647E-09
 -1       797 2.86445E+05 8.93854E+02 1.86760E+03-1.77324E+01-1.43687E-09-2.09889E-09
 -1       798 2.85645E+05-7.71593E+02 2.95487E+03 2.57490E+02-1.41675E-09 3.88934E-09
 -1       799 2.88667E+05 5.69927E+03 8.06266E+03-1.77341E+02-2.12426E-09 2.74622E-09
 -1       800 2.83736E+05-4.92297E+03 1.13891E+04 3.64839E+02-7.79195E-10 5.65842E-09
 -1       801-1.76033E+05 4.21446E+06 4.15764E+05 8.31416E+03 8.48377E-09-8.79226E-10
 -1       802 2.48941E+05 4.46015E+06 3.84473E+05-1.30829E+05 2.14131E-08-2.35563E-09
 -1       803-7.00430E+04 4.28483E+06 2.76146E+05-6.48178E+04 1.46501E-08 7.10116E-09
 -1       804 3.79016E+05 4.52301E+06 5.54452E+05-1.35865E+05 1.92886E-08 9.84687E-09
 -1       805-3.05886E+05 4.15162E+06 7.07737E+05 1.33414E+04 5.41331E-09 4.35381E-08
 -1       806-2.66432E+05-6.34836E+04-2.53929E+04-1.17605E+05-9.86802E-10-6.37374E-09
 -1       807-2.67317E+05-6.04594E+04-1.24746E+04-1.25034E+05 1.36424E-11 2.23486E-09
 -1       808-2.67188E+05-5.42766E+04-5.29145E+03-1.21880E+05 2.80954E-09 3.20870E-09
 -1       809-2.64618E+05-5.70344E+04-2.58616E+03-1.25444E+05 3.12536E-09 2.02431E-09
 -1       810-2.67307E+05-5.39482E+04-1.18381E+03-1.22068E+05-8.75013E-09-5.09363E-09
 -1       811-2.64412E+05-5.69009E+04-5.86037E+02-1.25420E+05-1.38689E-08-4.96584E-09
 -1       812-2.67327E+05-5.39711E+04-2.90665E+02-1.22067E+05-3.13435E-09-1.60617E-09
 -1       813-2.64384E+05-5.69057E+04-1.80285E+02-1.25404E+05 2.77601E-09 3.95312E-09
 -1       814-2.67322E+05-5.39817E+04-1.64183E+02-1.22062E+05 1.03682E-10-3.34603E-09
 -1       815-2.64383E+05-5.69102E+04-2.51697E+02-1.25396E+05-2.76918E-09-7.03380E-09
 -1       816-2.67301E+05-5.39832E+04-4.68862E+02-1.22055E+05-7.39055E-09-9.75979E-09
 -1       817-2.64456E+05-5.69571E+04-1.00293E+03-1.25381E+05 2.93949E-09-1.19562E-08
 -1       818-2.67232E+05-5.41291E+04-2.04393E+03-1.21985E+05 1.96997E-09-1.79853E-09
 -1       819-2.65583E+05-5.81778E+04-4.80878E+03-1.25090E+05-2.69301E-09-2.33740E-10
 -1       820-2.66828E+05-5.77748E+04-9.78795E+03-1.20435E+05 6.36646E-12 3.35331E-09
 -1       821-3.51623E+05 1.97835E+04-4.57962E+04 3.22273E+02-1.59211E-09 4.22006E-10
 -1       822-3.71253E+05-2.29108E+04-3.23719E+04-2.71307E+03-1.62438E-09-2.43745E-09
 -1       823-3.59172E+05 3.10868E+03-1.18539E+04 7.89055E+02-8.34746E-11 1.16870E-09
 -1       824-3.62383E+05-3.59952E+03-7.45194E+03-2.94291E+03-5.37925E-10 8.47410E-09
 -1       825-3.60492E+05 4.87924E+02-3.07443E+03 5.52106E+02-2.48586E-09 4.82498E-09
 -1       826-3.60739E+05-5.70777E+02-1.80746E+03-1.90459E+03-6.28608E-09-1.51138E-09
 -1       827-3.60810E+05 7.83168E+01-9.87561E+02-2.49274E+02-6.78324E-09-5.03792E-09
 -1       828-3.60459E+05-1.63081E+02-7.81277E+02-1.53840E+02-1.14660E-08-5.36477E-09
 -1       829-3.60769E+05 7.88200E+01-9.85763E+02-1.19866E+03 1.45093E-10 1.89334E-09
 -1       830-3.60836E+05-5.70692E+02-1.84191E+03 1.39997E+03 5.04784E-09 2.89765E-09
 -1       831-3.60437E+05 4.89122E+02-3.09611E+03-1.80312E+03-7.28672E-09-3.84512E-09
 -1       832-3.62432E+05-3.62301E+03-7.53239E+03 1.95280E+03-5.28145E-09 5.17468E-09
 -1       833-3.59177E+05 3.13129E+03-1.19831E+04-1.75152E+03 3.42354E-10 3.15868E-09
 -1       834-3.71294E+05-2.31329E+04-3.26921E+04 1.22062E+03 1.53177E-09 4.32146E-09
 -1       835-3.51575E+05 1.99812E+04-4.62832E+04-1.07088E+03 7.92556E-09 3.36513E-10
 -1       836-1.15287E+03 3.45446E+05 2.05829E+04-3.68161E+04 4.97585E-09 4.34648E-09
 -1       837 4.66933E+03 3.51744E+05 1.75321E+04-7.37217E+04 6.55291E-09-8.36735E-11
 -1       838-3.67564E+02 3.47207E+05 1.80116E+04-3.67078E+04 5.78439E-09 2.55216E-09
 -1       839 1.16740E+04 3.56958E+05 3.42169E+04-7.37416E+04 7.19774E-09-8.30823E-10
 -1       840-3.40665E+03 3.40173E+05 5.46162E+04-3.67908E+04 5.23505E-09-5.45515E-09
 -1       856-1.31141E+05 1.01172E+04-2.66660E+04-7.19632E+02-5.58873E-09 3.94721E-09
 -1       857-1.42161E+05-1.18574E+04-1.83584E+04 5.71693E+03-4.33261E-09-5.15797E-09
 -1       858-1.35492E+05 1.41618E+03-6.92122E+03-7.58278E+02-7.02533E-09 2.84672E-10
 -1       859-1.37167E+05-1.63678E+03-4.18049E+03 5.78053E+03-1.03176E-09 8.19398E-10
 -1       860-1.36142E+05 1.95670E+02-1.75954E+03-7.83698E+02-2.57498E-09 3.02362E-09
 -1       861-1.36419E+05-2.05801E+02-9.83176E+02 5.81552E+03-6.93120E-09-1.61252E-09
 -1       862-1.36243E+05 2.49108E+01-4.39483E+02-7.93358E+02 1.15067E-08-1.79014E-09
 -1       863-1.36301E+05-5.93141E+00-2.29984E+02 5.81948E+03 1.80919E-08-4.71768E-09
 -1       864-1.36260E+05 2.74987E-01-9.78754E+01-7.87662E+02 6.94300E-09-3.38891E-09
 -1       865-1.36273E+05 2.60151E+01-2.82170E+01 5.79198E+03 1.49913E-09-1.27804E-08
 -1       866-1.36268E+05-8.53662E+00 2.31129E+01-7.65850E+02-3.35035E-09-5.49569E-09
 -1       867-1.36236E+05 6.90302E+01 1.10348E+02 5.73288E+03 3.06011E-09-8.12840E-10
 -1       868-1.36291E+05-4.57967E+01 1.93753E+02-7.28544E+02-1.55489E-09-4.91036E-09
 -1       869-1.36071E+05 3.66286E+02 5.38871E+02 5.63835E+03-8.46785E-09-8.90410E-09
 -1       870-1.36424E+05-3.03333E+02 7.75503E+02-6.71316E+02 2.84854E-09-3.21128E-09
 -1       871-5.28034E+03-8.96017E+03-1.64825E+04 1.06594E+05 5.06589E-09 4.99131E-09
 -1       872-2.44050E+03-1.26109E+04-6.65525E+03 1.38190E+05 7.78164E-09 5.37102E-09
 -1       873-2.24114E+02-1.09621E+04 1.10974E+03 1.06362E+05 5.25097E-09 1.09908E-08
 -1       874 2.38654E+03-8.42954E+03 9.69737E+03 1.38246E+05 1.11077E-08 1.09530E-08
 -1       875 6.00389E+03-1.32370E+04 2.13937E+04 1.06562E+05 3.31238E-09-8.94943E-10
 -1       876 2.76734E+05 4.82711E+04 1.50903E+04 1.12970E+05-1.62988E-08-3.87445E-10
 -1       877 2.77519E+05 5.16635E+04 8.05881E+03 1.17510E+05-2.22699E-08 2.59126E-09
 -1       878 2.78141E+05 4.66038E+04 3.37598E+03 1.14211E+05 1.76215E-09 4.43470E-09
 -1       879 2.75464E+05 4.96199E+04 1.68180E+03 1.17615E+05 9.83164E-10 2.45291E-09
 -1       880 2.78241E+05 4.65869E+04 7.82604E+02 1.14261E+05 5.77757E-09-4.84420E-09
 -1       881 2.75327E+05 4.95328E+04 4.16434E+02 1.17591E+05 2.32963E-08-3.58362E-09
 -1       882 2.78250E+05 4.66003E+04 2.63558E+02 1.14262E+05 1.92294E-08 6.90449E-09
 -1       883 2.75317E+05 4.95285E+04 2.78907E+02 1.17584E+05 9.86802E-10 1.25347E-08
 -1       884 2.78244E+05 4.65978E+04 4.39516E+02 1.14262E+05 4.97198E-09 5.03690E-10
 -1       885 2.75351E+05 4.95347E+04 8.81056E+02 1.17595E+05 8.10633E-09-1.06587E-09
 -1       886 2.78210E+05 4.65719E+04 1.77438E+03 1.14259E+05 1.56765E-08-2.11321E-09
 -1       887 2.75664E+05 4.97391E+04 3.87527E+03 1.17640E+05 1.22786E-08-1.35070E-08
 -1       888 2.77966E+05 4.66142E+04 7.80839E+03 1.14135E+05 1.48901E-08-5.73027E-09
 -1       889 2.80319E+05 5.45674E+04 1.86530E+04 1.17492E+05 5.20517E-09 5.71890E-09
 -1       890 2.74790E+05 5.03888E+04 3.49361E+04 1.11151E+05 1.22313E-08 1.67347E-10
 -1       891-2.26422E+02-1.58773E+05-1.85090E+03 3.15540E+04-5.65728E-09-1.11868E-09
 -1       892-3.84160E+02-1.59182E+05-2.02192E+03 4.76810E+04-2.70620E-09-2.80306E-09
 -1       893-1.10046E+02-1.58821E+05-2.89964E+03 3.15601E+04 4.48836E-10 9.80435E-10
 -1       894-1.68075E+03-1.60279E+05-6.02537E+03 4.75115E+04-7.31779E-09 1.47202E-09
 -1       895-1.31325E+03-1.57552E+05-1.06243E+04 3.17187E+04 8.37872E-10-5.16593E-10
 -1       956-3.45286E+05-5.06901E+03-1.28307E+04 2.18095E+04-1.17889E-08-3.11138E-09
 -1       957-3.47827E+05-1.68332E+03-6.58638E+03 2.62907E+04-7.90396E-09-2.89128E-09
 -1       958-3.46429E+05-1.07331E+02-2.96780E+03 2.16518E+04 2.32831E-09-3.72961E-09
 -1       959-3.46640E+05 1.58207E+01-1.51554E+03 2.64571E+04-5.20095E-09 3.97904E-10
 -1       960-3.46535E+05 7.54081E+01-7.38823E+02 2.16363E+04-5.44060E-09 5.11614E-09
 -1       961-3.46558E+05 8.25630E+01-3.91100E+02 2.64749E+04-6.80393E-09-1.76715E-09
 -1       962-3.46559E+05 7.26488E+01-2.22590E+02 2.16335E+04-1.79716E-09-1.79125E-09
 -1       963-3.46558E+05 8.63630E+01-1.75969E+02 2.64788E+04-1.04856E-08 1.13923E-08
 -1       964-3.46566E+05 7.68412E+01-2.10480E+02 2.16322E+04-2.24941E-09 1.58025E-10
 -1       965-3.46574E+05 9.17305E+01-3.60950E+02 2.64797E+04 8.38116E-09-1.90448E-09
 -1       966-3.46558E+05 8.77866E+01-6.76072E+02 2.16326E+04-3.80845E-09 1.00727E-09
 -1       967-3.46665E+05 3.94417E+01-1.38593E+03 2.64724E+04-1.10163E-10 3.57170E-09
 -1       968-3.46473E+05-7.11124E+01-2.71190E+03 2.16399E+04-9.03810E-10 6.25278E-13
 -1       969-3.47765E+05-1.50642E+03-6.02141E+03 2.63903E+04-6.40284E-10 5.41604E-09
 -1       970-3.45439E+05-4.60226E+03-1.17284E+04 2.17234E+04 1.58070E-09-3.05681E-09
 -1       971-3.32228E+05-1.77428E+03-1.00075E+04 1.65006E+04-9.17862E-09-2.38859E-09
 -1       972-3.34674E+05-1.24848E+03-5.44924E+03 2.31655E+04-4.57521E-09 2.80761E-09
 -1       973-3.33346E+05 1.74418E+01-2.44063E+03 1.63563E+04-5.30781E-09 2.93267E-09
 -1       974-3.33531E+05 3.43221E+01-1.26370E+03 2.33196E+04 2.94995E-09-3.91242E-09
 -1       975-3.33437E+05 6.74764E+01-6.29924E+02 1.63422E+04 3.26463E-09-3.27464E-09
 -1       976-3.33468E+05 8.96299E+01-3.59370E+02 2.33371E+04-7.49242E-09 3.71267E-09
 -1       977-3.33456E+05 6.92572E+01-2.54140E+02 1.63385E+04 8.01970E-09-1.48020E-09
 -1       978-3.33474E+05 9.70751E+01-2.87984E+02 2.33423E+04 2.41912E-08-1.21122E-09
 -1       979-3.33458E+05 7.79334E+01-4.54870E+02 1.63369E+04 1.52036E-08 3.34762E-09
 -1       980-3.33509E+05 1.00312E+02-8.73392E+02 2.33432E+04 1.25434E-08-2.41221E-09
 -1       981-3.33430E+05 9.94497E+01-1.68920E+03 1.63375E+04-8.94374E-10 1.82195E-09
 -1       982-3.33739E+05-2.52683E+01-3.49021E+03 2.33355E+04-1.01818E-08 5.50315E-09
 -1       983-3.33215E+05-9.91310E+00-6.78119E+03 1.63452E+04 2.40379E-09 6.52335E-10
 -1       984-3.36996E+05-3.56892E+03-1.51854E+04 2.32392E+04-1.44246E-09-2.53567E-09
 -1       985-3.30142E+05-4.97349E+03-2.78856E+04 1.64485E+04 1.44983E-08 4.72210E-09
 -3
    1PSTEP                        27          14           1          
  100CL  114 7.22168E-01         409                     0   14           1
 -4  DISP        4    1
 -5  D1          1    2    1    0
 -5  D2          1    2    2    0
 -5  D3          1    2    3    0
 -5  ALL         1    2    0    0    1ALL
 -1         1 3.75859E-03 0.00000E+00 0.00000E+00
 -1         2 3.87400E-03 3.81948E-27 2.64698E-23
 -1         3 5.08156E-05 6.48962E-28 0.00000E+00
 -1         5 7.02121E-05 9.42167E-27 0.00000E+00
 -1         8 3.71070E-03-2.07920E-06 0.00000E+00
 -1         9 3.74098E-03-5.65209E-06 0.00000E+00
 -1        10 5.08028E-05 9.47662E-07-3.30872E-24
 -1        12 6.85219E-05 7.69818E-07 0.00000E+00
 -1        15 3.65403E-03-2.38594E-06 0.00000E+00
 -1        16 3.65291E-03-5.62535E-06 0.00000E+00
 -1        17 5.07603E-05 1.95850E-06 0.00000E+00
 -1        18 6.20159E-05-1.11045E-05 0.00000E+00
 -1        19 6.34504E-05 1.53371E-06 0.00000E+00
 -1        20 6.36518E-05 3.38713E-05 0.00000E+00
 -1        21 6.29636E-05 6.64272E-05 0.00000E+00
 -1        24 2.51691E-05 1.08616E-06 0.00000E+00
 -1        25 5.48681E-05-1.09471E-05 0.00000E+00
 -1        26 5.65797E-05 2.15177E-06 0.00000E+00
 -1        27 5.44519E-05 3.04777E-05 0.00000E+00
 -1        28 5.35946E-05 6.57485E-05 0.00000E+00
 -1        32 0.00000E+00 0.00000E+00 0.00000E+00
 -1        33 4.75288E-05 2.89634E-06 0.00000E+00
 -1        34 4.54752E-05 3.04458E-05 0.00000E+00
 -1        35 4.34838E-05 6.53919E-05 0.00000E+00
 -1        51 3.75546E-03-3.25529E-07 0.00000E+00
 -1        52 3.74968E-03-6.53639E-07 0.00000E+00
 -1        53 3.74176E-03-9.90717E-07 0.00000E+00
 -1        54 3.73225E-03-1.33917E-06-6.61744E-24
 -1        55 3.72172E-03-1.69868E-06-6.61744E-24
 -1        56 3.75807E-03-1.72040E-06 2.64698E-23
 -1        57 3.75844E-03-5.95248E-06-1.32349E-23
 -1        58 3.75955E-03-1.21620E-05 0.00000E+00
 -1        59 3.76117E-03-1.97735E-05-1.32349E-23
 -1        60 3.76306E-03-2.81196E-05 0.00000E+00
 -1        61 3.76497E-03-3.65150E-05 0.00000E+00
 -1        62 3.76664E-03-4.42708E-05-2.64698E-23
 -1        63 3.76783E-03-5.07159E-05 1.32349E-23
 -1        64 3.76832E-03-5.52617E-05 0.00000E+00
 -1        65 3.76790E-03-5.73709E-05-1.32349E-23
 -1        66 3.76642E-03-5.66595E-05 0.00000E+00
 -1        67 3.76377E-03-5.28191E-05-1.32349E-23
 -1        68 3.75987E-03-4.57372E-05 0.00000E+00
 -1        69 3.75473E-03-3.53853E-05-1.32349E-23
 -1        70 3.74839E-03-2.19436E-05 0.00000E+00
 -1        86 3.86776E-03-7.04169E-07 2.64698E-23
 -1        87 3.84924E-03-1.55370E-06 0.00000E+00
 -1        88 3.82250E-03-2.57488E-06-1.32349E-23
 -1        89 3.79184E-03-3.69834E-06 0.00000E+00
 -1        90 3.76283E-03-4.77818E-06 6.61744E-24
 -1       121 5.08152E-05 1.57897E-07-6.61744E-24
 -1       122 5.08141E-05 3.15796E-07 0.00000E+00
 -1       123 5.08124E-05 4.73697E-07 0.00000E+00
 -1       124 5.08099E-05 6.31626E-07-3.30872E-24
 -1       125 5.08067E-05 7.89535E-07 0.00000E+00
 -1       191 7.01652E-05 1.28357E-07 0.00000E+00
 -1       192 7.00243E-05 2.56704E-07 0.00000E+00
 -1       193 6.97896E-05 3.85035E-07 0.00000E+00
 -1       194 6.94609E-05 5.13338E-07 0.00000E+00
 -1       195 6.90384E-05 6.41602E-07 0.00000E+00
 -1       251 3.71248E-03 4.62121E-06 1.32349E-23
 -1       252 3.71438E-03 6.21222E-06 2.64698E-23
 -1       253 3.71627E-03 4.86113E-06 0.00000E+00
 -1       254 3.71819E-03 2.49247E-06 0.00000E+00
 -1       255 3.72010E-03-4.60991E-07 0.00000E+00
 -1       256 3.72202E-03-3.61378E-06 0.00000E+00
 -1       257 3.72393E-03-6.87522E-06-5.29396E-23
 -1       258 3.72585E-03-1.01634E-05 0.00000E+00
 -1       259 3.72777E-03-1.34360E-05 0.00000E+00
 -1       260 3.72969E-03-1.66496E-05-2.64698E-23
 -1       261 3.73160E-03-1.96730E-05-5.29396E-23
 -1       262 3.73352E-03-2.23600E-05 2.64698E-23
 -1       263 3.73544E-03-2.40662E-05 5.29396E-23
 -1       264 3.73734E-03-2.40680E-05-2.64698E-23
 -1       265 3.73924E-03-1.91396E-05 0.00000E+00
 -1       266 3.70126E-03-2.15519E-06 0.00000E+00
 -1       267 3.69181E-03-2.20328E-06-3.30872E-24
 -1       268 3.68236E-03-2.25314E-06-3.30872E-24
 -1       269 3.67292E-03-2.29776E-06-8.27181E-25
 -1       270 3.66347E-03-2.34227E-06 0.00000E+00
 -1       271 3.70481E-03 4.09014E-06 0.00000E+00
 -1       272 3.70031E-03 6.30094E-06-5.29396E-23
 -1       273 3.69713E-03 5.00202E-06 1.05879E-22
 -1       274 3.69504E-03 7.39706E-07 0.00000E+00
 -1       275 3.69380E-03-5.79879E-06 1.05879E-22
 -1       276 3.69310E-03-1.38391E-05 0.00000E+00
 -1       277 3.69265E-03-2.25397E-05 1.05879E-22
 -1       278 3.69212E-03-3.10325E-05 5.29396E-23
 -1       279 3.69119E-03-3.84587E-05 0.00000E+00
 -1       280 3.68958E-03-4.40031E-05 5.29396E-23
 -1       281 3.68699E-03-4.69332E-05 0.00000E+00
 -1       282 3.68318E-03-4.66229E-05 5.29396E-23
 -1       283 3.67797E-03-4.25880E-05 1.05879E-22
 -1       284 3.67122E-03-3.44904E-05 0.00000E+00
 -1       285 3.66284E-03-2.21786E-05 0.00000E+00
 -1       301 3.72532E-03-5.65245E-06 0.00000E+00
 -1       302 3.71144E-03-5.62488E-06 0.00000E+00
 -1       303 3.69829E-03-5.58759E-06 0.00000E+00
 -1       304 3.68485E-03-5.55857E-06 0.00000E+00
 -1       305 3.67006E-03-5.55372E-06-6.61744E-24
 -1       306 3.63945E-03 1.77226E-04-1.05879E-22
 -1       307 3.31661E-03 6.22244E-04 0.00000E+00
 -1       308 2.74933E-03 1.23219E-03 1.05879E-22
 -1       309 1.99716E-03 1.91129E-03 0.00000E+00
 -1       310 1.21099E-03 2.60033E-03-1.05879E-22
 -1       311 5.52155E-04 3.25040E-03 0.00000E+00
 -1       312 1.14632E-04 3.78272E-03-2.11758E-22
 -1       313-8.05141E-05 4.09836E-03-3.17637E-22
 -1       314-9.06679E-05 4.09428E-03 0.00000E+00
 -1       315-3.14806E-05 3.75364E-03-5.29396E-23
 -1       316 6.22652E-06 3.11595E-03 0.00000E+00
 -1       317-1.72007E-05 2.28821E-03 0.00000E+00
 -1       318-5.51661E-05 1.42460E-03-1.05879E-22
 -1       319-4.54066E-05 6.81586E-04-5.29396E-23
 -1       320 1.08182E-05 1.80453E-04 0.00000E+00
 -1       336 5.07980E-05 1.11820E-06 0.00000E+00
 -1       337 5.07924E-05 1.28879E-06 0.00000E+00
 -1       338 5.07858E-05 1.45919E-06 0.00000E+00
 -1       339 5.07782E-05 1.62837E-06 1.65436E-24
 -1       340 5.07698E-05 1.79765E-06 1.65436E-24
 -1       406 6.79114E-05 8.97966E-07 0.00000E+00
 -1       407 6.72069E-05 1.02601E-06 0.00000E+00
 -1       408 6.64083E-05 1.15391E-06 0.00000E+00
 -1       409 6.55159E-05 1.28149E-06 0.00000E+00
 -1       410 6.45296E-05 1.40850E-06 0.00000E+00
 -1       521 3.55011E-03 1.77335E-04-1.05879E-22
 -1       522 3.22825E-03 6.20314E-04-5.29396E-23
 -1       523 2.66687E-03 1.22683E-03 1.05879E-22
 -1       524 1.92865E-03 1.90165E-03 0.00000E+00
 -1       525 1.15819E-03 2.58641E-03 0.00000E+00
 -1       526 5.09963E-04 3.23193E-03 0.00000E+00
 -1       527 7.87969E-05 3.75907E-03-2.11758E-22
 -1       528-1.13732E-04 4.06997E-03 0.00000E+00
 -1       529-1.23557E-04 4.06196E-03 0.00000E+00
 -1       530-6.52412E-05 3.72001E-03 1.05879E-22
 -1       531-2.74202E-05 3.08543E-03 2.11758E-22
 -1       532-4.72119E-05 2.26729E-03 0.00000E+00
 -1       533-8.07234E-05 1.41425E-03-1.05879E-22
 -1       534-6.94516E-05 6.77481E-04 0.00000E+00
 -1       535-1.37305E-05 1.79457E-04 0.00000E+00
 -1       536 5.14351E-05 1.72612E-06-1.32349E-23
 -1       537 5.21394E-05 1.02215E-06 6.61744E-24
 -1       538 5.28416E-05 5.88700E-08-1.32349E-23
 -1       539 5.35495E-05-9.59987E-07-1.32349E-23
 -1       540 5.42575E-05-2.00937E-06 0.00000E+00
 -1       541 5.49666E-05-3.06524E-06 1.32349E-23
 -1       542 5.56758E-05-4.12459E-06 0.00000E+00
 -1       543 5.63853E-05-5.18453E-06 1.32349E-23
 -1       544 5.70947E-05-6.24409E-06 2.64698E-23
 -1       545 5.78040E-05-7.30229E-06 0.00000E+00
 -1       546 5.85131E-05-8.35371E-06 0.00000E+00
 -1       547 5.92213E-05-9.39272E-06 0.00000E+00
 -1       548 5.99294E-05-1.03734E-05 0.00000E+00
 -1       549 6.06325E-05-1.12480E-05 6.61744E-24
 -1       550 6.13376E-05-1.16269E-05 0.00000E+00
 -1       551 4.81067E-05 1.82902E-06 0.00000E+00
 -1       552 4.34327E-05 1.69116E-06-1.65436E-24
 -1       553 3.77652E-05 1.54884E-06 0.00000E+00
 -1       554 3.21420E-05 1.40307E-06-1.32349E-23
 -1       555 2.76009E-05 1.25722E-06 0.00000E+00
 -1       556 5.08153E-05 1.69256E-06 0.00000E+00
 -1       557 5.09920E-05 1.10004E-06 0.00000E+00
 -1       558 5.12711E-05 2.34123E-07-3.30872E-24
 -1       559 5.16318E-05-8.50404E-07 0.00000E+00
 -1       560 5.20538E-05-2.09876E-06-3.30872E-24
 -1       561 5.25165E-05-3.45604E-06 8.27181E-25
 -1       562 5.29994E-05-4.86738E-06 0.00000E+00
 -1       563 5.34819E-05-6.27785E-06 2.06795E-25
 -1       564 5.39436E-05-7.63252E-06 0.00000E+00
 -1       565 5.43640E-05-8.87652E-06 4.13590E-25
 -1       566 5.47224E-05-9.95495E-06 0.00000E+00
 -1       567 5.49984E-05-1.08129E-05-8.27181E-25
 -1       568 5.51714E-05-1.13957E-05 0.00000E+00
 -1       569 5.52209E-05-1.16484E-05 0.00000E+00
 -1       570 5.51261E-05-1.15164E-05 0.00000E+00
 -1       571 6.21030E-05-1.02038E-05 1.65436E-24
 -1       572 6.21920E-05-9.36458E-06-8.27181E-25
 -1       573 6.22815E-05-8.57729E-06-1.65436E-24
 -1       574 6.23714E-05-7.83192E-06 8.27181E-25
 -1       575 6.24613E-05-7.11841E-06 3.30872E-24
 -1       576 6.25513E-05-6.42659E-06 0.00000E+00
 -1       577 6.26413E-05-5.74629E-06 0.00000E+00
 -1       578 6.27313E-05-5.06736E-06-1.65436E-24
 -1       579 6.28213E-05-4.37960E-06 3.30872E-24
 -1       580 6.29114E-05-3.67285E-06 1.65436E-24
 -1       581 6.30013E-05-2.93695E-06 0.00000E+00
 -1       582 6.30913E-05-2.16171E-06 0.00000E+00
 -1       583 6.31812E-05-1.33699E-06 0.00000E+00
 -1       584 6.32711E-05-4.52741E-07 0.00000E+00
 -1       585 6.33608E-05 5.01063E-07 0.00000E+00
 -1       586 6.08408E-05-1.10765E-05 1.65436E-24
 -1       587 5.96180E-05-1.10494E-05 0.00000E+00
 -1       588 5.83782E-05-1.10227E-05 4.13590E-25
 -1       589 5.71526E-05-1.09964E-05 0.00000E+00
 -1       590 5.59724E-05-1.09708E-05 0.00000E+00
 -1       591 6.16412E-05-1.01729E-05-1.03398E-25
 -1       592 6.12865E-05-9.30469E-06 0.00000E+00
 -1       593 6.09511E-05-8.48846E-06 0.00000E+00
 -1       594 6.06310E-05-7.71383E-06 4.13590E-25
 -1       595 6.03224E-05-6.97028E-06 8.27181E-25
 -1       596 6.00215E-05-6.24733E-06 0.00000E+00
 -1       597 5.97243E-05-5.53451E-06 0.00000E+00
 -1       598 5.94271E-05-4.82137E-06 4.13590E-25
 -1       599 5.91258E-05-4.09745E-06 0.00000E+00
 -1       600 5.88165E-05-3.35228E-06-2.06795E-25
 -1       601 5.84953E-05-2.57542E-06 8.27181E-25
 -1       602 5.81584E-05-1.75640E-06 2.06795E-25
 -1       603 5.78018E-05-8.84752E-07-2.58494E-25
 -1       604 5.74219E-05 5.00468E-08 0.00000E+00
 -1       605 5.70146E-05 1.05842E-06 8.27181E-25
 -1       606 6.34685E-05 2.77342E-06-6.61744E-24
 -1       607 6.34832E-05 4.16317E-06 3.30872E-24
 -1       608 6.34970E-05 5.69417E-06 0.00000E+00
 -1       609 6.35101E-05 7.35647E-06 0.00000E+00
 -1       610 6.35229E-05 9.14011E-06 0.00000E+00
 -1       611 6.35354E-05 1.10350E-05 0.00000E+00
 -1       612 6.35478E-05 1.30309E-05 0.00000E+00
 -1       613 6.35599E-05 1.51178E-05 0.00000E+00
 -1       614 6.35719E-05 1.72855E-05 0.00000E+00
 -1       615 6.35837E-05 1.95239E-05 1.65436E-24
 -1       616 6.35954E-05 2.18229E-05 0.00000E+00
 -1       617 6.36069E-05 2.41723E-05 0.00000E+00
 -1       618 6.36184E-05 2.65619E-05-1.65436E-24
 -1       619 6.36297E-05 2.89818E-05 0.00000E+00
 -1       620 6.36410E-05 3.14216E-05 0.00000E+00
 -1       621 6.23200E-05 1.63667E-06 0.00000E+00
 -1       622 6.11825E-05 1.74027E-06-1.65436E-24
 -1       623 6.00389E-05 1.84385E-06 0.00000E+00
 -1       624 5.88899E-05 1.94728E-06 0.00000E+00
 -1       625 5.77365E-05 2.05053E-06 3.30872E-24
 -1       626 6.30907E-05 2.80270E-06 0.00000E+00
 -1       627 6.26841E-05 4.19835E-06 0.00000E+00
 -1       628 6.22341E-05 5.70967E-06 0.00000E+00
 -1       629 6.17451E-05 7.32483E-06 0.00000E+00
 -1       630 6.12215E-05 9.03203E-06 0.00000E+00
 -1       631 6.06677E-05 1.08193E-05-3.30872E-24
 -1       632 6.00882E-05 1.26748E-05-6.61744E-24
 -1       633 5.94874E-05 1.45866E-05 1.65436E-24
 -1       634 5.88700E-05 1.65427E-05 0.00000E+00
 -1       635 5.82403E-05 1.85313E-05-1.65436E-24
 -1       636 5.76028E-05 2.05405E-05-3.30872E-24
 -1       637 5.69620E-05 2.25583E-05-1.65436E-24
 -1       638 5.63224E-05 2.45729E-05-3.30872E-24
 -1       639 5.56882E-05 2.65723E-05-8.27181E-25
 -1       640 5.50638E-05 2.85446E-05 1.65436E-24
 -1       656 6.15044E-05 3.33185E-05-6.61744E-24
 -1       657 5.98787E-05 3.27442E-05 0.00000E+00
 -1       658 5.85781E-05 3.21721E-05-1.32349E-23
 -1       659 5.73980E-05 3.16005E-05-6.61744E-24
 -1       660 5.61009E-05 3.10270E-05-6.61744E-24
 -1       661 6.28581E-05 3.62896E-05 1.65436E-24
 -1       662 6.20938E-05 3.86432E-05 0.00000E+00
 -1       663 6.13533E-05 4.09328E-05 0.00000E+00
 -1       664 6.06366E-05 4.31617E-05-1.65436E-24
 -1       665 5.99422E-05 4.53315E-05 0.00000E+00
 -1       666 5.92693E-05 4.74446E-05-1.65436E-24
 -1       667 5.86172E-05 4.95026E-05 0.00000E+00
 -1       668 5.79853E-05 5.15073E-05-1.65436E-24
 -1       669 5.73730E-05 5.34600E-05 3.30872E-24
 -1       670 5.67797E-05 5.53619E-05 0.00000E+00
 -1       671 5.62052E-05 5.72141E-05 0.00000E+00
 -1       672 5.56489E-05 5.90174E-05-1.65436E-24
 -1       673 5.51108E-05 6.07724E-05 0.00000E+00
 -1       674 5.45895E-05 6.24792E-05-8.27181E-25
 -1       675 5.40864E-05 6.41388E-05 8.27181E-25
 -1       676 6.13962E-05 6.63134E-05 0.00000E+00
 -1       677 5.98297E-05 6.61996E-05 0.00000E+00
 -1       678 5.82653E-05 6.60859E-05-3.30872E-24
 -1       679 5.67040E-05 6.59726E-05 0.00000E+00
 -1       680 5.51468E-05 6.58593E-05 3.30872E-24
 -1       771 2.38697E-05 3.84227E-07 2.64698E-23
 -1       772 2.24978E-05-2.09991E-07 1.32349E-23
 -1       773 2.10815E-05-6.92236E-07 0.00000E+00
 -1       774 1.96223E-05-1.06925E-06 2.64698E-23
 -1       775 1.81248E-05-1.34683E-06 0.00000E+00
 -1       776 1.65921E-05-1.53190E-06 2.64698E-23
 -1       777 1.50270E-05-1.63161E-06-5.29396E-23
 -1       778 1.34326E-05-1.65350E-06-2.64698E-23
 -1       779 1.18119E-05-1.60535E-06 0.00000E+00
 -1       780 1.01679E-05-1.49519E-06 2.64698E-23
 -1       781 8.50365E-06-1.33123E-06 0.00000E+00
 -1       782 6.82249E-06-1.12186E-06 2.64698E-23
 -1       783 5.12760E-06-8.75589E-07 0.00000E+00
 -1       784 3.42266E-06-6.00943E-07-2.64698E-23
 -1       785 1.71080E-06-3.06722E-07-5.29396E-23
 -1       786 5.49697E-05-1.00721E-05 1.65436E-24
 -1       787 5.50765E-05-9.24716E-06 8.27181E-25
 -1       788 5.51830E-05-8.45877E-06 3.30872E-24
 -1       789 5.52905E-05-7.69372E-06-1.65436E-24
 -1       790 5.53980E-05-6.94476E-06 0.00000E+00
 -1       791 5.55058E-05-6.20473E-06 1.65436E-24
 -1       792 5.56135E-05-5.46879E-06 0.00000E+00
 -1       793 5.57214E-05-4.73210E-06 0.00000E+00
 -1       794 5.58292E-05-3.98964E-06 3.30872E-24
 -1       795 5.59370E-05-3.23636E-06-1.65436E-24
 -1       796 5.60448E-05-2.46442E-06 0.00000E+00
 -1       797 5.61524E-05-1.66586E-06 0.00000E+00
 -1       798 5.62601E-05-8.25874E-07 0.00000E+00
 -1       799 5.63673E-05 7.05696E-08 1.65436E-24
 -1       800 5.64746E-05 1.05311E-06-3.30872E-24
 -1       801 5.07467E-05-9.11817E-06-2.64698E-23
 -1       802 4.05280E-05-7.25816E-06 0.00000E+00
 -1       803 2.73943E-05-5.43507E-06 0.00000E+00
 -1       804 1.42645E-05-3.62177E-06-1.32349E-23
 -1       805 4.06672E-06-1.76860E-06 0.00000E+00
 -1       806 5.44333E-05-1.01299E-05 0.00000E+00
 -1       807 5.40065E-05-9.34712E-06 0.00000E+00
 -1       808 5.35881E-05-8.58925E-06-3.30872E-24
 -1       809 5.31754E-05-7.84765E-06-1.65436E-24
 -1       810 5.27653E-05-7.11371E-06 0.00000E+00
 -1       811 5.23549E-05-6.37886E-06-1.65436E-24
 -1       812 5.19408E-05-5.63455E-06-3.30872E-24
 -1       813 5.15200E-05-4.87227E-06 0.00000E+00
 -1       814 5.10892E-05-4.08345E-06 0.00000E+00
 -1       815 5.06452E-05-3.25958E-06 0.00000E+00
 -1       816 5.01849E-05-2.39214E-06 1.65436E-24
 -1       817 4.97049E-05-1.47260E-06 8.27181E-25
 -1       818 4.92023E-05-4.92451E-07 0.00000E+00
 -1       819 4.86738E-05 5.56793E-07 8.27181E-25
 -1       820 4.81166E-05 1.68362E-06 1.65436E-24
 -1       821 5.64569E-05 2.91391E-06 8.27181E-25
 -1       822 5.63266E-05 2.89075E-06 0.00000E+00
 -1       823 5.61968E-05 2.37451E-06-3.30872E-24
 -1       824 5.60653E-05 1.66041E-06 0.00000E+00
 -1       825 5.59340E-05 1.09570E-06 0.00000E+00
 -1       826 5.58024E-05 1.02679E-06 0.00000E+00
 -1       827 5.56707E-05 1.66870E-06 0.00000E+00
 -1       828 5.55379E-05 3.23227E-06-1.65436E-24
 -1       829 5.54034E-05 5.68418E-06 0.00000E+00
 -1       830 5.52666E-05 8.98589E-06 0.00000E+00
 -1       831 5.51278E-05 1.28738E-05-3.30872E-24
 -1       832 5.49881E-05 1.70808E-05 0.00000E+00
 -1       833 5.48485E-05 2.12553E-05-3.30872E-24
 -1       834 5.47119E-05 2.50457E-05 1.65436E-24
 -1       835 5.45769E-05 2.82019E-05-8.27181E-25
 -1       836 5.52662E-05 2.27589E-06 3.30872E-24
 -1       837 5.37741E-05 2.40256E-06 0.00000E+00
 -1       838 5.21788E-05 2.52889E-06 0.00000E+00
 -1       839 5.05558E-05 2.65439E-06 0.00000E+00
 -1       840 4.89807E-05 2.77977E-06 0.00000E+00
 -1       856 5.44038E-05 3.23929E-05 0.00000E+00
 -1       857 5.43509E-05 3.44591E-05 0.00000E+00
 -1       858 5.42980E-05 3.66528E-05 0.00000E+00
 -1       859 5.42441E-05 3.89501E-05 8.27181E-25
 -1       860 5.41899E-05 4.13267E-05 0.00000E+00
 -1       861 5.41354E-05 4.37584E-05-8.27181E-25
 -1       862 5.40808E-05 4.62208E-05 0.00000E+00
 -1       863 5.40262E-05 4.86895E-05 0.00000E+00
 -1       864 5.39716E-05 5.11400E-05 1.65436E-24
 -1       865 5.39171E-05 5.35479E-05 0.00000E+00
 -1       866 5.38627E-05 5.58888E-05-1.65436E-24
 -1       867 5.38086E-05 5.81385E-05 8.27181E-25
 -1       868 5.37547E-05 6.02730E-05 1.65436E-24
 -1       869 5.37010E-05 6.22685E-05 8.27181E-25
 -1       870 5.36477E-05 6.41014E-05-1.65436E-24
 -1       871 5.28069E-05 3.04761E-05 4.13590E-25
 -1       872 5.12987E-05 3.04718E-05 0.00000E+00
 -1       873 4.98698E-05 3.04671E-05 0.00000E+00
 -1       874 4.84618E-05 3.04617E-05 2.06795E-25
 -1       875 4.70162E-05 3.04557E-05-1.24077E-24
 -1       876 5.38603E-05 3.24039E-05-3.30872E-24
 -1       877 5.32439E-05 3.44038E-05 1.65436E-24
 -1       878 5.26033E-05 3.64684E-05 0.00000E+00
 -1       879 5.19418E-05 3.85894E-05 1.65436E-24
 -1       880 5.12623E-05 4.07584E-05-3.30872E-24
 -1       881 5.05680E-05 4.29669E-05 1.65436E-24
 -1       882 4.98618E-05 4.52066E-05 0.00000E+00
 -1       883 4.91470E-05 4.74693E-05-1.65436E-24
 -1       884 4.84268E-05 4.97465E-05 0.00000E+00
 -1       885 4.77041E-05 5.20299E-05 1.65436E-24
 -1       886 4.69822E-05 5.43113E-05-3.30872E-24
 -1       887 4.62641E-05 5.65822E-05-1.65436E-24
 -1       888 4.55528E-05 5.88343E-05 3.30872E-24
 -1       889 4.48512E-05 6.10592E-05 1.65436E-24
 -1       890 4.41623E-05 6.32484E-05 0.00000E+00
 -1       891 5.20751E-05 6.56890E-05 1.65436E-24
 -1       892 5.05301E-05 6.56293E-05 8.27181E-25
 -1       893 4.89290E-05 6.55696E-05 8.27181E-25
 -1       894 4.72412E-05 6.55099E-05 0.00000E+00
 -1       895 4.54361E-05 6.54501E-05 1.24077E-24
 -1       956 4.74032E-05 4.28476E-06 3.30872E-24
 -1       957 4.72755E-05 5.75766E-06 8.27181E-25
 -1       958 4.71473E-05 7.30693E-06 3.30872E-24
 -1       959 4.70188E-05 8.92394E-06 1.65436E-24
 -1       960 4.68901E-05 1.06001E-05 3.30872E-24
 -1       961 4.67613E-05 1.23266E-05 0.00000E+00
 -1       962 4.66324E-05 1.40948E-05 0.00000E+00
 -1       963 4.65034E-05 1.58960E-05 1.65436E-24
 -1       964 4.63744E-05 1.77214E-05 3.30872E-24
 -1       965 4.62454E-05 1.95623E-05-1.65436E-24
 -1       966 4.61164E-05 2.14101E-05 3.30872E-24
 -1       967 4.59874E-05 2.32559E-05 0.00000E+00
 -1       968 4.58585E-05 2.50910E-05 0.00000E+00
 -1       969 4.57299E-05 2.69068E-05-1.65436E-24
 -1       970 4.56016E-05 2.86945E-05 0.00000E+00
 -1       971 4.53529E-05 3.22330E-05 1.65436E-24
 -1       972 4.52288E-05 3.41337E-05 0.00000E+00
 -1       973 4.51042E-05 3.61352E-05-3.30872E-24
 -1       974 4.49793E-05 3.82248E-05 1.65436E-24
 -1       975 4.48542E-05 4.03891E-05 0.00000E+00
 -1       976 4.47290E-05 4.26152E-05 1.65436E-24
 -1       977 4.46036E-05 4.48901E-05 0.00000E+00
 -1       978 4.44781E-05 4.72005E-05 0.00000E+00
 -1       979 4.43526E-05 4.95334E-05 0.00000E+00
 -1       980 4.42271E-05 5.18757E-05 1.65436E-24
 -1       981 4.41017E-05 5.42142E-05 3.30872E-24
 -1       982 4.39764E-05 5.65358E-05 1.65436E-24
 -1       983 4.38513E-05 5.88274E-05 0.00000E+00
 -1       984 4.37268E-05 6.10760E-05-1.65436E-24
 -1       985 4.36029E-05 6.32684E-05-3.30872E-24
 -3
    1PSTEP                        28          14           1          
  100CL  114 7.22168E-01         409                     0   14           1
 -4  STRESS      6    1
 -5  SXX         1    4    1    1
 -5  SYY         1    4    2    2
 -5  SZZ         1    4    3    3
 -5  SXY         1    4    1    2
 -5  SYZ         1    4    2    3
 -5  SZX         1    4    3    1
 -1         1-1.33519E+06-8.23748E+05-2.42470E+05-1.53271E+06 1.19690E-09-2.99697E-08
 -1         2 1.53625E+03-1.79623E+06 1.38587E+04-1.04523E+05-1.00545E-09 2.74603E-07
 -1         3-6.99311E+00 4.51803E+05-6.15203E+01 2.40990E-01 1.27856E-11-2.92120E-09
 -1         5-6.32098E+01 3.67524E+05 9.67550E+00 1.11633E+00 4.35100E-10 4.83305E-08
 -1         8-4.24298E+05-4.50878E+05 2.16730E+05-1.24577E+06 2.22644E-09-2.75322E-08
 -1         9 1.28672E+07 1.09715E+07 3.46588E+06 1.06214E+07-2.13273E-08-1.46870E-07
 -1        10 4.08908E+02 4.70826E+05 1.93734E+03 1.76656E+00-6.42899E-11-5.43823E-09
 -1        12-5.93750E+01 3.67545E+05 3.17411E+02 7.72809E+00 6.52989E-10 1.31404E-08
 -1        15 4.11909E+03 2.26385E+03 1.33153E+04 1.68250E+01-1.15131E-09 2.53687E-07
 -1        16 1.80145E+07 1.75565E+07 4.98837E+06 1.74320E+07 2.58830E-08-3.22315E-07
 -1        17 2.05072E+07 4.47857E+05 3.04021E+06-1.62122E+06 1.57295E-08-4.05023E-08
 -1        18 5.70356E+05 1.32150E+05 1.12575E+05-7.39540E+04 2.70938E-09 4.40878E-09
 -1        19 1.13024E+05 1.39140E+05-3.15530E+02 2.26162E+04-1.77315E-09-1.67565E-09
 -1        20-3.51958E+04-5.34314E+05-1.17076E+05 4.53012E+04 4.57082E-09-5.08044E-09
 -1        21-5.16399E+01-3.22449E+05-1.05460E+03-3.46646E+02-2.48376E-08 2.25498E-10
 -1        24 3.24517E+07-3.61051E+05 4.47333E+06-3.04318E+06 9.97958E-08 2.62468E-08
 -1        25 2.99921E+05 1.14732E+06 3.00826E+05-1.27521E+05 3.18687E-10 6.92889E-09
 -1        26-1.24120E+04 9.95832E+04-1.59464E+04-2.07558E+04 2.62044E-09 1.83541E-09
 -1        27-9.04684E+04-2.94778E+05-1.11243E+05 6.67402E+04 1.18345E-08-1.00711E-09
 -1        28 2.53260E+04-8.75402E+04 1.81652E+04 3.08017E+04 3.17715E-09 1.64492E-09
 -1        32-5.72376E+05 2.67560E+06 1.15851E+06-7.47278E+05-5.29690E-09 5.49162E-08
 -1        33-1.64797E+05 8.90616E+04 3.12882E+04-5.91530E+04 3.29730E-09 3.87142E-09
 -1        34-2.20640E+05-2.12550E+04 4.32446E+02 6.54103E+04 7.20637E-09 4.56506E-09
 -1        35-2.56248E+04-3.47458E+04-1.36656E+03 5.62044E+04 1.27996E-08-4.66631E-09
 -1        51-4.78595E+03-8.01912E+05 1.22625E+04-1.84123E+06-7.85803E-10-2.36352E-07
 -1        52 1.47693E+04-8.22107E+05 1.96055E+04-2.14817E+06-4.36557E-10-1.78828E-07
 -1        53 2.13692E+04-8.54819E+05 2.83847E+04-1.83466E+06 1.84809E-09-7.29342E-08
 -1        54 5.59351E+04-8.63781E+05 6.14518E+04-2.15453E+06 1.16415E-10-2.62495E-07
 -1        55 9.24907E+04-8.91576E+05 1.17792E+05-1.83304E+06 1.36788E-09 1.15317E-07
 -1        56-2.62561E+06-2.97547E+05-1.68011E+05-9.91293E+05 1.10922E-08 1.72950E-08
 -1        57-2.61352E+06-5.23821E+05-1.12445E+05-1.06881E+06 4.69399E-08-2.39204E-07
 -1        58-2.66721E+06-3.41394E+05-3.95424E+04-9.69312E+05-1.04117E-08 7.69196E-08
 -1        59-2.56529E+06-4.73648E+05-2.35180E+04-1.09835E+06 2.66875E-08-9.07125E-08
 -1        60-2.67516E+06-3.45159E+05-9.20517E+03-9.63424E+05 1.59404E-08-4.30965E-07
 -1        61-2.55937E+06-4.65051E+05-5.33084E+03-1.10049E+06-1.35897E-08-2.27460E-07
 -1        62-2.67312E+06-3.49753E+05-3.04878E+03-9.67274E+05-1.83718E-09 3.08894E-07
 -1        63-2.56835E+06-4.51190E+05-2.34656E+03-1.08372E+06 6.38784E-09-1.00477E-07
 -1        64-2.66460E+06-3.60035E+05-4.72276E+03-9.79081E+05-2.59224E-08-1.37162E-07
 -1        65-2.58949E+06-4.28895E+05-7.46689E+03-1.05283E+06 4.85506E-08-1.08265E-07
 -1        66-2.64986E+06-3.73481E+05-1.66714E+04-9.96601E+05-3.44517E-08-2.52621E-08
 -1        67-2.62822E+06-4.12290E+05-3.80606E+04-1.01261E+06 4.97839E-08-2.97099E-07
 -1        68-2.62472E+06-3.77767E+05-6.75226E+04-1.01824E+06-1.69471E-08-2.91213E-07
 -1        69-2.72776E+06-4.85461E+05-1.88810E+05-9.55445E+05 1.99946E-08 4.25614E-07
 -1        70-2.55135E+06-3.02423E+05-2.82121E+05-1.05319E+06 1.17943E-08-2.71102E-07
 -1        86-3.99663E+03-2.00881E+06-3.18000E+04 5.21882E+04 1.95328E-08 1.02268E-07
 -1        87-6.49257E+03-1.87634E+06-1.85338E+04-1.71850E+05 3.64116E-08 2.21267E-07
 -1        88 1.18002E+04-1.93484E+06-5.25688E+04 1.19559E+05 3.72966E-08 4.62530E-08
 -1        89-8.45728E+04-1.96912E+06-1.34505E+05-2.25982E+05 5.30272E-08-9.67511E-08
 -1        90 7.85093E+04-1.92170E+06-2.04170E+05 1.06486E+05 2.79542E-08-5.64305E-08
 -1       121 2.95719E+00 4.51854E+05-7.21917E+01-1.20496E-01-1.16636E-11-7.01329E-10
 -1       122-4.01950E+01 4.51781E+05-1.39484E+02 4.81463E-01-4.03926E-11-2.93095E-10
 -1       123 2.70558E+01 4.51875E+05-2.30352E+02-3.60994E-01-5.08749E-12 2.60388E-09
 -1       124-4.50766E+02 4.51535E+05-6.25438E+02 7.56644E-01-6.56826E-11-2.13682E-09
 -1       125 2.92063E+02 4.52100E+05-8.50412E+02-3.96260E-01 2.33626E-11 4.34625E-10
 -1       191-6.66543E+01 3.67543E+05 8.72016E+00-5.80347E-01 4.69616E-10 2.52821E-08
 -1       192-6.41360E+01 3.67525E+05 2.06238E+01 3.72382E+00 6.35506E-10-5.05406E-09
 -1       193-6.90968E+01 3.67543E+05 3.55878E+01-3.27965E+00 8.80435E-10-5.37148E-09
 -1       194-6.71073E+01 3.67528E+05 7.83453E+01 8.50877E+00 4.59630E-10 2.82762E-09
 -1       195-7.37854E+01 3.67540E+05 1.50470E+02-5.51676E+00 1.29846E-09 9.63882E-09
 -1       251 5.37644E+06-2.82881E+05 6.61179E+05 7.28048E+04 1.54150E-08 2.26108E-07
 -1       252 5.68858E+06 3.27023E+05 4.70212E+05-1.25905E+05 2.56478E-09 1.17288E-08
 -1       253 5.49962E+06-4.32617E+04 1.72184E+05-1.41316E+02-1.89391E-08-3.75803E-08
 -1       254 5.54669E+06 5.01934E+04 1.07715E+05-3.88614E+04 2.62181E-08-1.92325E-07
 -1       255 5.51806E+06-6.62288E+03 4.44225E+04-1.42167E+04-1.55324E-09 1.79054E-07
 -1       256 5.52555E+06 7.87935E+03 2.63903E+04-2.21817E+04 1.60336E-08 2.52126E-07
 -1       257 5.52103E+06-1.06669E+03 1.30501E+04-1.68217E+04-5.25366E-09 2.21881E-07
 -1       258 5.52248E+06 2.01915E+03 1.03304E+04-1.99507E+04-3.02786E-09 1.44776E-07
 -1       259 5.52120E+06-7.78357E+02 1.05241E+04-1.64480E+04 3.22512E-09 7.59883E-10
 -1       260 5.52424E+06 5.38083E+03 1.90610E+04-2.48908E+04 6.40904E-09 1.03137E-09
 -1       261 5.51923E+06-4.42118E+03 3.12953E+04-1.18814E+04-2.58424E-10 1.30167E-07
 -1       262 5.53955E+06 3.38276E+04 7.49734E+04-5.30773E+04-1.79864E-08 9.59571E-08
 -1       263 5.50578E+06-2.91917E+04 1.19843E+05 1.17389E+04 1.41891E-08 1.96305E-08
 -1       264 5.66830E+06 2.27213E+05 3.32766E+05-1.97749E+05-2.59449E-08 3.47936E-07
 -1       265 5.39277E+06-1.98537E+05 4.53428E+05 1.32785E+05 8.72660E-09 4.08938E-07
 -1       266-7.45602E+04-3.48418E+04 1.75055E+05-3.60202E+02 8.00355E-10 1.88837E-07
 -1       267 8.64456E+04 4.06456E+04 1.23668E+05 4.15355E+02 4.58385E-10 1.18101E-07
 -1       268-1.15918E+04-5.75455E+03 4.59704E+04-5.29371E+01 1.21872E-09 2.50547E-07
 -1       269 1.36870E+04 6.88919E+03 2.98768E+04 6.16490E+01 9.41782E-10 1.18864E-07
 -1       270-2.05443E+03-1.13185E+03 1.44221E+04-8.36682E+00 1.18325E-09 2.80786E-07
 -1       271-7.88581E+06-1.00204E+06-6.26228E+05-3.09813E+06 5.26270E-08-4.23170E-08
 -1       272-8.02333E+06-1.52765E+06-4.00203E+05-3.17237E+06 1.77452E-08-1.97950E-07
 -1       273-8.02553E+06-1.13320E+06-1.48372E+05-3.04522E+06-1.83663E-08-7.03294E-08
 -1       274-7.85931E+06-1.37083E+06-8.17647E+04-3.26229E+06 8.84629E-08-1.39478E-07
 -1       275-8.05699E+06-1.13198E+06-3.43523E+04-3.02350E+06-1.15069E-08 5.51336E-09
 -1       276-7.82800E+06-1.36884E+06-1.81271E+04-3.29582E+06 1.71567E-08-1.58797E-07
 -1       277-8.06384E+06-1.12827E+06-9.16931E+03-3.01768E+06 3.23053E-09 1.16546E-07
 -1       278-7.82820E+06-1.36362E+06-7.32942E+03-3.29180E+06 8.57654E-10 3.47368E-07
 -1       279-8.05556E+06-1.13775E+06-9.92159E+03-3.02675E+06-2.67828E-08 1.45474E-07
 -1       280-7.84965E+06-1.33950E+06-1.75924E+04-3.25360E+06 9.94096E-08-7.92206E-08
 -1       281-8.03327E+06-1.15841E+06-3.60354E+04-3.04932E+06-1.16452E-08-1.54927E-07
 -1       282-7.90453E+06-1.31503E+06-8.08402E+04-3.18757E+06 5.45024E-08 3.10771E-07
 -1       283-7.99006E+06-1.17139E+06-1.49570E+05-3.08390E+06-3.56777E-08-2.27832E-07
 -1       284-8.09201E+06-1.45111E+06-3.98414E+05-3.08103E+06-7.71615E-09-7.34472E-07
 -1       285-7.84404E+06-1.04557E+06-6.24570E+05-3.14389E+06 4.35612E-08-3.04688E-07
 -1       301-4.12308E+04 3.99232E+05 1.19012E+04 1.24877E+06-1.60799E-09 7.85803E-08
 -1       302-4.49814E+04 4.09907E+05 3.09463E+04 1.82987E+06 3.57977E-09-1.09751E-07
 -1       303-3.20026E+04 3.85503E+05 5.70993E+04 1.24646E+06-2.46655E-09 9.45111E-08
 -1       304-1.90646E+04 4.45344E+05 1.27653E+05 1.82894E+06 1.44064E-09 3.01345E-07
 -1       305-1.71782E+04 3.81983E+05 2.24737E+05 1.25048E+06-2.34286E-09-2.29193E-08
 -1       306-2.98898E+07-2.74735E+07-1.49950E+07-1.83236E+07 9.38307E-08-1.99245E-07
 -1       307 1.12930E+07 5.37379E+07 1.09730E+07 2.40142E+07 1.11302E-06-4.23461E-07
 -1       308-2.79133E+05-1.87267E+07-3.53256E+06-2.61905E+06 5.08735E-08-7.97445E-08
 -1       309-1.58383E+07 3.02394E+07 3.91428E+06-1.83768E+07-2.32423E-07 4.22024E-07
 -1       310 3.04012E+06-1.20998E+07-6.49090E+05 1.64320E+05-2.75453E-07 4.55184E-08
 -1       311-2.08172E+06 4.78423E+07 8.50324E+06 1.20154E+07-8.12463E-07 5.40982E-07
 -1       312-2.05365E+07-2.84287E+07-1.14399E+07-1.69598E+07-1.94355E-07-2.58558E-07
 -1       313 6.75722E+07 2.62613E+07 1.57696E+07 3.79740E+07 2.39641E-07-2.20112E-07
 -1       314-4.51393E+07-9.28901E+06-1.29844E+07-6.34147E+06-2.08849E-07-1.51631E-08
 -1       315 6.02645E+07 2.11348E+06 1.09975E+07-1.40204E+07 5.70028E-07 2.23401E-07
 -1       316-1.44408E+07-4.72315E+06-3.33579E+06 8.41923E+06 6.85803E-07 7.52218E-07
 -1       317-5.39788E+06 1.98173E+07 3.91846E+06-2.64788E+07-1.22697E-06 2.21145E-07
 -1       318-5.86243E+06-3.12727E+06-8.49388E+05 7.32461E+06 9.04431E-07 1.61650E-07
 -1       319 3.98725E+07 8.13663E+06 8.43287E+06-2.24241E+07 1.51602E-07 2.85334E-07
 -1       320-4.24119E+07-9.11543E+06-1.32951E+07 9.28679E+05-1.72295E-07-1.67056E-08
 -1       336-5.13244E+02 4.89067E+05 5.18951E+03-1.37147E+00 1.08230E-10-4.41534E-09
 -1       337 2.06217E+03 4.90933E+05 8.65876E+03 2.90729E+00-1.70530E-12-1.63593E-09
 -1       338-1.17129E+03 4.88473E+05 1.40450E+04-1.53438E+00 5.27507E-11 3.81168E-09
 -1       339 1.59510E+04 4.99342E+05 3.36413E+04 3.26904E+00-1.27329E-11-2.05560E-10
 -1       340-1.13272E+04 4.80652E+05 5.26173E+04-1.70231E+00-5.82077E-11 8.93454E-10
 -1       406-3.79013E+01 3.67526E+05 6.23733E+02-2.64167E+00 1.72145E-09-2.51930E-09
 -1       407 1.59450E+02 3.67655E+05 1.33188E+03-2.22854E+01 4.58726E-11-2.43754E-08
 -1       408 6.24299E+02 3.67429E+05 2.65631E+03 2.52896E+01 2.13231E-09-2.38106E-09
 -1       409 2.82142E+03 3.68503E+05 5.98606E+03-2.65654E+02 2.99224E-10 2.22017E-08
 -1       410 8.21261E+03 3.66666E+05 1.22178E+04 2.55298E+02 2.20825E-09 1.42700E-08
 -1       521-2.94746E+07-2.74856E+07-1.55547E+07-1.65243E+07 1.23633E-07-5.74160E-07
 -1       522 8.41750E+06 5.43331E+07 1.02611E+07 2.29314E+07 8.09057E-07 6.28061E-08
 -1       523-6.28983E+05-1.80636E+07-3.32450E+06-2.63617E+06 4.10306E-07 2.04891E-07
 -1       524-1.80693E+07 2.96860E+07 3.72102E+06-2.12935E+07-3.48839E-07 9.64559E-07
 -1       525 2.69904E+06-1.23598E+07-5.07121E+05-2.99003E+05-1.93148E-07 8.56875E-07
 -1       526-4.65923E+06 4.88713E+07 8.11600E+06 1.06091E+07-4.79282E-07 2.43308E-07
 -1       527-2.07988E+07-2.79313E+07-1.18456E+07-1.54333E+07-5.16593E-07 1.62050E-07
 -1       528 6.74632E+07 2.53527E+07 1.48877E+07 3.84883E+07-2.49362E-07-1.52970E-07
 -1       529-4.33830E+07-1.07965E+07-1.35030E+07-5.53439E+06-1.59955E-07-8.66130E-08
 -1       530 5.86369E+07 1.74376E+06 1.03526E+07-1.61931E+07-5.75092E-08-1.29745E-07
 -1       531-1.41548E+07-4.76514E+06-3.14317E+06 7.96345E+06 2.18395E-07 2.98256E-07
 -1       532-9.62193E+06 2.13190E+07 3.73134E+06-2.78647E+07-9.22970E-07 3.85800E-07
 -1       533-6.53126E+06-3.02218E+06-7.09945E+05 7.20923E+06-6.60890E-07 7.52334E-07
 -1       534 3.78176E+07 8.53428E+06 7.99693E+06-2.46006E+07 6.46018E-07-5.22909E-07
 -1       535-4.07336E+07-1.05021E+07-1.37842E+07 9.42442E+05 1.17230E-07-4.08909E-07
 -1       536 1.99682E+06-8.07525E+04 1.87051E+05 7.64181E+02-1.43879E-08 2.18279E-10
 -1       537 2.07797E+06 9.35016E+04 1.32323E+05-5.22972E+03 2.05353E-10-4.81123E-09
 -1       538 2.02820E+06-1.26549E+04 4.84736E+04-1.74552E+03-9.94172E-10 1.50612E-09
 -1       539 2.04151E+06 1.46521E+04 3.04982E+04-2.43292E+03 2.64597E-08-1.50412E-08
 -1       540 2.03337E+06-1.97956E+03 1.25188E+04-2.03258E+03 7.70541E-06-3.78304E-09
 -1       541 2.03553E+06 2.33329E+03 7.54056E+03-2.11346E+03 1.53561E-05 9.70249E-09
 -1       542 2.03422E+06-3.45982E+02 3.81635E+03-2.06503E+03 5.19589E-06 7.90294E-09
 -1       543 2.03467E+06 6.71245E+02 3.25873E+03-2.08465E+03-4.97602E-06-4.46108E-09
 -1       544 2.03424E+06-3.18659E+02 3.57218E+03-2.06139E+03-2.50361E-06-2.40709E-09
 -1       545 2.03540E+06 2.09839E+03 6.83388E+03-2.15229E+03-5.84231E-09 6.49914E-09
 -1       546 2.03348E+06-1.77213E+03 1.12482E+04-1.99738E+03 1.62750E-09 1.51431E-09
 -1       547 2.04076E+06 1.31114E+04 2.73253E+04-2.77010E+03 3.12816E-09-5.29326E-10
 -1       548 2.02885E+06-1.13228E+04 4.34122E+04-1.44354E+03 4.37655E-09-2.00089E-09
 -1       549 2.07371E+06 8.37405E+04 1.18548E+05-8.14439E+03 1.39148E-09-4.14730E-09
 -1       550 2.00045E+06-7.23372E+04 1.67406E+05 3.37669E+03-2.25171E-09 3.55067E-09
 -1       551-3.66270E+03-3.48299E+05-2.36130E+04-1.36917E+06-9.30231E-09-3.98722E-09
 -1       552 1.66407E+04-3.69558E+05 7.26625E+03-1.94954E+06-1.26165E-08-5.31509E-09
 -1       553 1.47626E+04-3.70957E+05 3.72905E+04-1.36588E+06-1.66765E-08 6.02904E-09
 -1       554 4.27526E+04-3.43505E+05 9.61474E+04-1.94927E+06-8.67294E-09 3.84171E-09
 -1       555 3.00705E+04-3.71372E+05 1.74761E+05-1.36954E+06-9.45874E-09 1.45519E-11
 -1       556-4.17852E+04-7.19983E+04-3.09935E+03-1.02491E+05-2.26100E-09 1.23546E-08
 -1       557-2.26157E+04-9.14813E+04-1.57234E+03-1.25637E+05-1.31768E-08-5.34783E-10
 -1       558-4.25922E+04-7.09344E+04-6.86470E+02-1.02609E+05-7.69433E-09 2.71302E-09
 -1       559-2.21926E+04-9.13483E+04-3.24033E+02-1.26258E+05-1.93722E-09 4.66372E-09
 -1       560-4.27898E+04-7.07981E+04-1.52923E+02-1.02706E+05-9.24592E-09 7.47514E-09
 -1       561-2.22947E+04-9.12956E+04-7.11678E+01-1.26377E+05-1.08321E-08 1.15019E-08
 -1       562-4.28474E+04-7.07662E+04-4.10047E+01-1.02741E+05-7.07223E-09 4.49108E-09
 -1       563-2.22923E+04-9.12974E+04-3.70738E+01-1.26377E+05 5.49221E-10 3.65617E-10
 -1       564-4.27895E+04-7.07994E+04-6.56314E+01-1.02703E+05 5.27143E-09 9.59335E-09
 -1       565-2.21525E+04-9.13584E+04-1.25783E+02-1.26278E+05 2.45927E-09 1.61526E-08
 -1       566-4.26198E+04-7.09031E+04-2.77864E+02-1.02595E+05-8.27640E-10 1.66619E-09
 -1       567-2.19263E+04-9.14782E+04-5.64945E+02-1.26055E+05 2.06091E-09-5.05679E-10
 -1       568-4.22879E+04-7.11165E+04-1.18632E+03-1.02418E+05-1.12414E-09-2.97769E-09
 -1       569-2.25782E+04-9.18462E+04-2.70053E+03-1.25215E+05 7.51243E-10 2.25918E-09
 -1       570-4.11189E+04-7.27255E+04-5.28350E+03-1.02104E+05-2.80124E-10-9.93168E-10
 -1       571 2.57505E+05 8.52483E+03 1.27801E+04-5.81823E+04-9.32232E-10 4.16549E-09
 -1       572 2.59408E+05 2.89469E+03 6.26200E+03-6.37407E+04-2.22781E-09-5.72027E-09
 -1       573 2.58254E+05 6.21829E+02 2.78157E+03-5.80036E+04 1.87174E-09-7.75799E-10
 -1       574 2.58480E+05 1.35235E+02 1.39384E+03-6.39302E+04 6.89397E-10 3.95084E-09
 -1       575 2.58327E+05-5.36821E+01 6.56448E+02-5.79806E+04 2.78442E-09-5.92445E-09
 -1       576 2.58344E+05-8.20347E+01 3.33565E+02-6.39555E+04 2.84354E-09-5.81167E-10
 -1       577 2.58331E+05-8.53781E+01 1.62824E+02-5.79776E+04 1.18187E-08-2.36014E-10
 -1       578 2.58326E+05-8.96139E+01 8.58284E+01-6.39585E+04 2.20855E-08-1.70530E-09
 -1       579 2.58342E+05-8.53301E+01 4.68956E+01-5.79776E+04 7.32143E-09-5.33237E-09
 -1       580 2.58341E+05-9.62378E+01 3.44520E+01-6.39554E+04 1.06957E-09-2.85081E-09
 -1       581 2.58367E+05-9.62914E+01 3.60326E+01-5.79807E+04-7.25777E-10 1.21508E-09
 -1       582 2.58383E+05-1.06313E+02 6.11243E+01-6.39240E+04 2.62162E-09-1.14505E-09
 -1       583 2.58406E+05-9.29655E+01 1.11069E+02-5.80089E+04 3.83625E-09-3.39537E-09
 -1       584 2.58474E+05-2.33014E+01 2.47741E+02-6.36860E+04-2.68756E-09-1.88447E-09
 -1       585 2.58429E+05 1.94211E+02 4.98687E+02-5.82189E+04-1.29603E-09-3.61797E-09
 -1       586-3.97324E+03 7.84878E+04-5.96088E+03-1.80483E+05 2.32683E-09-5.51290E-09
 -1       587-7.91393E+02 7.75842E+04-1.66400E+03-1.98502E+05 4.61660E-09-1.93158E-08
 -1       588 8.91710E+02 7.79235E+04 1.78273E+03-1.80325E+05 3.07409E-09-8.84188E-09
 -1       589 3.82575E+03 7.91178E+04 6.57654E+03-1.98423E+05 4.32919E-09-2.56114E-09
 -1       590 1.03714E+04 7.70675E+04 1.45586E+04-1.80547E+05 3.36104E-09 5.57066E-09
 -1       591-5.56931E+04-1.77287E+04-1.97018E+04-3.10460E+04-4.62262E-09 5.47516E-09
 -1       592-5.69789E+04-2.31237E+04-1.06709E+04-3.68112E+04-1.18453E-08-2.50418E-09
 -1       593-5.76952E+04-1.62682E+04-4.44280E+03-3.24637E+04-6.46560E-09-5.48084E-09
 -1       594-5.42283E+04-2.02682E+04-2.21553E+03-3.69619E+04-4.69299E-10 8.52225E-10
 -1       595-5.78505E+04-1.62595E+04-1.01833E+03-3.25300E+04-4.29964E-10 2.05802E-09
 -1       596-5.40443E+04-2.01368E+04-5.19019E+02-3.69450E+04 1.47111E-09 3.90457E-09
 -1       597-5.78707E+04-1.62714E+04-2.85894E+02-3.25330E+04-2.64862E-09-3.61433E-09
 -1       598-5.40268E+04-2.01318E+04-2.35814E+02-3.69398E+04 8.71523E-10-6.15273E-09
 -1       599-5.78686E+04-1.62719E+04-3.08913E+02-3.25322E+04 2.91243E-09-4.63990E-09
 -1       600-5.40451E+04-2.01392E+04-5.79875E+02-3.69432E+04-1.56388E-09-1.99088E-09
 -1       601-5.78421E+04-1.62596E+04-1.14750E+03-3.25270E+04-1.45474E-09 3.73120E-10
 -1       602-5.42515E+04-2.02879E+04-2.50202E+03-3.69590E+04-1.47338E-10-7.45069E-09
 -1       603-5.76641E+04-1.62724E+04-5.01917E+03-3.24519E+04-1.40062E-09-9.79071E-10
 -1       604-5.73649E+04-2.35053E+04-1.20551E+04-3.67762E+04-2.49725E-09 2.99588E-09
 -1       605-5.53911E+04-1.79292E+04-2.22571E+04-3.08576E+04-1.41745E-09 3.43698E-09
 -1       606 4.26861E+04-1.24273E+04-2.24303E+04 4.19913E+04-8.36553E-09-2.30830E-09
 -1       607 3.88361E+04-3.97299E+03-1.11671E+04 4.71261E+04-5.74801E-10-2.37401E-09
 -1       608 4.09885E+04-6.38217E+02-5.00479E+03 4.16496E+04 7.46695E-09-3.86126E-09
 -1       609 4.05336E+04-1.08993E+02-2.52633E+03 4.74928E+04-3.52520E-09 1.67847E-09
 -1       610 4.07501E+04 9.47333E+01-1.20976E+03 4.16116E+04-7.29415E-10 1.19871E-09
 -1       611 4.06440E+04 1.38322E+02-6.09561E+02 4.75326E+04 1.23691E-10-3.24053E-09
 -1       612 4.06646E+04 1.34399E+02-2.94174E+02 4.16079E+04 8.25821E-10 1.32331E-09
 -1       613 4.06084E+04 1.67545E+02-1.34835E+02 4.75370E+04-1.34623E-08 6.51016E-09
 -1       614 4.06098E+04 1.51312E+02-4.17215E+01 4.16067E+04-1.95905E-09 8.43147E-09
 -1       615 4.05675E+04 1.88838E+02 3.43188E+01 4.75374E+04 1.30021E-08-4.48426E-09
 -1       616 4.05687E+04 1.70565E+02 1.22927E+02 4.16071E+04-5.43787E-09-1.30740E-09
 -1       617 4.05557E+04 2.31027E+02 2.89585E+02 4.75364E+04-7.35326E-10 5.41922E-09
 -1       618 4.05240E+04 2.66327E+02 5.86297E+02 4.16071E+04 1.28766E-08-1.99725E-09
 -1       619 4.07467E+04 6.94298E+02 1.31887E+03 4.75350E+04 2.24500E-08-2.85581E-09
 -1       620 4.03193E+04 1.66513E+03 2.65108E+03 4.16037E+04 1.22966E-08-3.60069E-09
 -1       621 6.15487E+02 2.98427E+05 5.04494E+03-1.41640E+03-8.95170E-10 7.59655E-10
 -1       622 6.82510E+02 2.99682E+05 3.98854E+03-1.90848E+03-1.05462E-09-5.28578E-09
 -1       623 3.14552E+01 2.98831E+05 4.20288E+03-1.40966E+03-9.93737E-10-2.82995E-09
 -1       624 1.80846E+03 3.00717E+05 7.64636E+03-1.91893E+03-1.06184E-09-1.22640E-10
 -1       625 1.80751E+03 2.97390E+05 1.31349E+04-1.40332E+03-8.61746E-10-3.84796E-09
 -1       626 2.30572E+05 6.77427E+04 4.23790E+03 1.30018E+05-3.14321E-09 2.11367E-09
 -1       627 2.26911E+05 7.06371E+04 2.04369E+03 1.35496E+05-7.58882E-09 2.96268E-10
 -1       628 2.30744E+05 6.57009E+04 8.60746E+02 1.30592E+05 1.59234E-08 3.36995E-08
 -1       629 2.26216E+05 7.02159E+04 4.23537E+02 1.35808E+05 1.18671E-08 2.77487E-09
 -1       630 2.30731E+05 6.56162E+04 1.94736E+02 1.30587E+05-4.71300E-09 3.09456E-10
 -1       631 2.26110E+05 7.02200E+04 1.06267E+02 1.35796E+05-2.38424E-08-5.67016E-09
 -1       632 2.30700E+05 6.56348E+04 7.13557E+01 1.30565E+05-2.14850E-08-6.18127E-09
 -1       633 2.26075E+05 7.02347E+04 8.30645E+01 1.35775E+05-7.99491E-09-1.58013E-09
 -1       634 2.30673E+05 6.56426E+04 1.36388E+02 1.30550E+05 7.69796E-09-8.32642E-10
 -1       635 2.26070E+05 7.02417E+04 2.78652E+02 1.35766E+05-1.36106E-09-1.29198E-08
 -1       636 2.30651E+05 6.56457E+04 5.63079E+02 1.30541E+05-4.73756E-09-1.10231E-09
 -1       637 2.26179E+05 7.03333E+04 1.23767E+03 1.35757E+05 3.40231E-09 7.47741E-09
 -1       638 2.30601E+05 6.59222E+04 2.54348E+03 1.30412E+05-4.76348E-09-1.57570E-09
 -1       639 2.27510E+05 7.21946E+04 6.01659E+03 1.35364E+05-9.47250E-09-4.86034E-09
 -1       640 2.30434E+05 7.14512E+04 1.24852E+04 1.28054E+05-2.72212E-09 5.33646E-09
 -1       656 6.44901E+04-1.62388E+06-1.55622E+05 1.46044E+03 2.77214E-09-1.48333E-09
 -1       657-8.51853E+04-1.69399E+06-1.28589E+05 1.24428E+04 3.18050E-09 1.03074E-09
 -1       658 2.03970E+04-1.64390E+06-7.87496E+04-9.12157E+02 7.82848E-10 2.31193E-09
 -1       659-9.09548E+04-1.69675E+06-1.36165E+05 1.39242E+04-2.58296E-09 2.26164E-09
 -1       660 7.02489E+04-1.62113E+06-1.68633E+05-2.08845E+01-5.52973E-10 3.13267E-09
 -1       661 2.62129E+05 2.90180E+04 2.45726E+04 1.02727E+05 4.40332E-09 7.64885E-10
 -1       662 2.74749E+05 4.84677E+04 1.65574E+04 9.86622E+04 4.13831E-09-2.51703E-09
 -1       663 2.66958E+05 3.68967E+04 5.79221E+03 1.01324E+05 1.98736E-09-1.47588E-09
 -1       664 2.69155E+05 3.92518E+04 3.46289E+03 1.00375E+05 1.40722E-09 1.06240E-09
 -1       665 2.67687E+05 3.79748E+04 1.36572E+03 1.01112E+05-2.00487E-09-1.02028E-09
 -1       666 2.68293E+05 3.80184E+04 7.95881E+02 1.00652E+05-1.56442E-08 3.92798E-09
 -1       667 2.67816E+05 3.80973E+04 4.18293E+02 1.01059E+05-3.26344E-09-4.70954E-09
 -1       668 2.68148E+05 3.79307E+04 4.16932E+02 1.00734E+05 1.34949E-08-2.80190E-09
 -1       669 2.67832E+05 3.80594E+04 5.56215E+02 1.01032E+05 3.31312E-09 9.46727E-10
 -1       670 2.68271E+05 3.82406E+04 1.20414E+03 1.00752E+05 1.59246E-08 4.87148E-10
 -1       671 2.67693E+05 3.77932E+04 2.13520E+03 1.01039E+05 1.25908E-11 1.56354E-09
 -1       672 2.69499E+05 4.03331E+04 5.46096E+03 1.00470E+05-5.63350E-09 8.61064E-10
 -1       673 2.66610E+05 3.60189E+04 9.15072E+03 1.01294E+05-7.05552E-09 1.73350E-09
 -1       674 2.78196E+05 5.50435E+04 2.61677E+04 9.79241E+04 5.28598E-09-4.31055E-09
 -1       675 2.59052E+05 2.34936E+04 3.88424E+04 1.03429E+05 4.02270E-09-4.56566E-10
 -1       676 2.75715E+01-3.22359E+05-1.27107E+03 1.73329E+02-2.95236E-09 6.60507E-09
 -1       677-3.35864E+02-3.22669E+05-2.32631E+03-3.46344E+02-9.47114E-09 4.97150E-09
 -1       678 2.25574E+02-3.22140E+05-4.11235E+03 1.72898E+02-4.20141E-09 7.82346E-09
 -1       679-4.11218E+03-3.25151E+05-9.76937E+03-3.44827E+02-1.51505E-08 8.48880E-09
 -1       680 2.45555E+03-3.19878E+05-1.57448E+04 1.69811E+02-6.45923E-09 4.95045E-09
 -1       771-3.50130E+06-5.01731E+05-1.67802E+05-1.30020E+06-8.73115E-11 2.89583E-09
 -1       772-3.54599E+06-5.13910E+05-9.09065E+04-1.31023E+06-3.63798E-12 6.81848E-09
 -1       773-3.51768E+06-4.90015E+05-3.77595E+04-1.31277E+06-1.40062E-09 6.07724E-09
 -1       774-3.52311E+06-4.88826E+05-1.87871E+04-1.31069E+06-2.11048E-09-1.21236E-09
 -1       775-3.51885E+06-4.90065E+05-8.54994E+03-1.31342E+06-5.12227E-09 7.07541E-09
 -1       776-3.52166E+06-4.87532E+05-4.20119E+03-1.31033E+06-1.19617E-08 6.42240E-09
 -1       777-3.51895E+06-4.90244E+05-2.00890E+03-1.31352E+06-4.68935E-09 6.99919E-09
 -1       778-3.52161E+06-4.87362E+05-1.10597E+03-1.31014E+06-7.27368E-10 6.17274E-09
 -1       779-3.51893E+06-4.90321E+05-7.82127E+02-1.31359E+06-2.06910E-09 6.80984E-11
 -1       780-3.52171E+06-4.87268E+05-9.56077E+02-1.31003E+06 3.61069E-10 5.52700E-09
 -1       781-3.51887E+06-4.90347E+05-1.62344E+03-1.31364E+06-4.52928E-10-2.85922E-09
 -1       782-3.52207E+06-4.87399E+05-3.40312E+03-1.30999E+06 8.77662E-10-3.50383E-09
 -1       783-3.51863E+06-4.90379E+05-6.76870E+03-1.31358E+06 6.09589E-09 8.22729E-09
 -1       784-3.52625E+06-4.91790E+05-1.62542E+04-1.30980E+06 4.63274E-10-1.28762E-09
 -1       785-3.51567E+06-4.92516E+05-3.00030E+04-1.31138E+06-4.83851E-10-2.13186E-09
 -1       786 3.02805E+05-1.41017E+04 3.26284E+04 3.23381E+02 1.21722E-09-1.70076E-09
 -1       787 3.16942E+05 1.63258E+04 2.30840E+04 3.48254E+01 1.62675E-10 2.39197E-09
 -1       788 3.08261E+05-2.21045E+03 8.44639E+03 2.64444E+02-8.76746E-10 5.87806E-09
 -1       789 3.10588E+05 2.55802E+03 5.30846E+03 1.17769E+02 2.22366E-08 6.51823E-10
 -1       790 3.09162E+05-3.45293E+02 2.16333E+03 2.40449E+02 6.62278E-06-2.09798E-09
 -1       791 3.09538E+05 4.02396E+02 1.27641E+03 1.47757E+02 1.31787E-05-8.80222E-09
 -1       792 3.09312E+05-5.64430E+01 5.94825E+02 2.34457E+02-1.08178E-06 5.28090E-09
 -1       793 3.09372E+05 8.55188E+01 4.14710E+02 1.45438E+02-1.53407E-05 1.96095E-08
 -1       794 3.09328E+05-2.86237E+01 3.45329E+02 2.42768E+02-7.70571E-06-1.85658E-09
 -1       795 3.09410E+05 1.63268E+02 5.54560E+02 1.10156E+02-2.34155E-08 4.94975E-09
 -1       796 3.09274E+05-1.34141E+02 8.63966E+02 2.69739E+02-1.17280E-09-5.43358E-09
 -1       797 3.09812E+05 9.88427E+02 2.06467E+03 2.30744E+01-2.48148E-09-8.34888E-10
 -1       798 3.08926E+05-8.53186E+02 3.26749E+03 3.29851E+02-1.79810E-09 7.12157E-09
 -1       799 3.12270E+05 6.30274E+03 8.91651E+03-1.64485E+02-2.78706E-09 6.48470E-09
 -1       800 3.06814E+05-5.44420E+03 1.25951E+04 4.57296E+02-5.90692E-10 2.04454E-09
 -1       801-2.22727E+05 5.42836E+06 5.31669E+05 3.87522E+03 8.38190E-09-1.84386E-10
 -1       802 3.11505E+05 5.71114E+06 4.78074E+05-1.30299E+05 2.00380E-08 2.20552E-11
 -1       803-8.60615E+04 5.50551E+06 3.35065E+05-7.44622E+04 1.18234E-08 5.58856E-09
 -1       804 4.47319E+05 5.77393E+06 6.55436E+05-1.31430E+05 1.59780E-08 5.40882E-09
 -1       805-3.58271E+05 5.36550E+06 8.38342E+05 4.99834E+03 3.72529E-09 4.53413E-08
 -1       806-2.78967E+05-6.78441E+04-2.71955E+04-1.24545E+05 2.97860E-10-8.03084E-09
 -1       807-2.79804E+05-6.47167E+04-1.33601E+04-1.32628E+05-1.63141E-10 4.73710E-09
 -1       808-2.79784E+05-5.79775E+04-5.66703E+03-1.29119E+05 4.75461E-09-9.44056E-10
 -1       809-2.76907E+05-6.10559E+04-2.76957E+03-1.33077E+05 4.73926E-09 1.50209E-09
 -1       810-2.79913E+05-5.76244E+04-1.26771E+03-1.29321E+05 1.86986E-09 6.49334E-09
 -1       811-2.76687E+05-6.09133E+04-6.27343E+02-1.33053E+05 2.52265E-09-6.09293E-09
 -1       812-2.79936E+05-5.76483E+04-3.10784E+02-1.29320E+05-4.34284E-10-3.86081E-10
 -1       813-2.76658E+05-6.09185E+04-1.92139E+02-1.33037E+05-6.33645E-09 4.65752E-09
 -1       814-2.79931E+05-5.76597E+04-1.73963E+02-1.29314E+05-3.78486E-09 1.07184E-09
 -1       815-2.76655E+05-6.09234E+04-2.65629E+02-1.33028E+05-4.80122E-09-1.31186E-08
 -1       816-2.79907E+05-5.76618E+04-4.94230E+02-1.29307E+05-3.69619E-09 7.95217E-09
 -1       817-2.76732E+05-6.09733E+04-1.05680E+03-1.33011E+05 4.17867E-09 3.48427E-09
 -1       818-2.79833E+05-5.78166E+04-2.15371E+03-1.29231E+05-1.22600E-09-1.02182E-08
 -1       819-2.77918E+05-6.22588E+04-5.06680E+03-1.32701E+05-5.00131E-09-1.69894E-09
 -1       820-2.79405E+05-6.16596E+04-1.03134E+04-1.27598E+05-8.84029E-10 1.30649E-09
 -1       821-3.67226E+05 2.07381E+04-4.80944E+04 5.57676E+02-9.86688E-10 1.34969E-09
 -1       822-3.87425E+05-2.40256E+04-3.39249E+04-3.91204E+03-9.81714E-10-1.12414E-09
 -1       823-3.74965E+05 3.26746E+03-1.24398E+04 1.44631E+03-1.82293E-09 3.34830E-09
 -1       824-3.78263E+05-3.78424E+03-7.80949E+03-4.53925E+03 1.42671E-09 2.60741E-09
 -1       825-3.76389E+05 5.16183E+02-3.23523E+03 1.18490E+03 3.26253E-10 3.14878E-09
 -1       826-3.76316E+05-5.95040E+02-1.84120E+03-3.03244E+03 1.19669E-09 4.08534E-09
 -1       827-3.76900E+05 7.17287E+01-1.08182E+03-6.05238E+01-7.51545E-09 2.86059E-09
 -1       828-3.75867E+05-1.55271E+02-7.30816E+02-2.30389E+02-1.19562E-08-1.37006E-09
 -1       829-3.76831E+05 7.15166E+01-1.07314E+03-1.61716E+03 4.57362E-10-8.61135E-09
 -1       830-3.76475E+05-5.87744E+02-1.88187E+03 2.35281E+03-7.89398E-08-3.91253E-09
 -1       831-3.76302E+05 5.12042E+02-3.24294E+03-2.64379E+03-2.56104E-05 9.77579E-08
 -1       832-3.78321E+05-3.78549E+03-7.86910E+03 3.32612E+03-5.10071E-05 2.11508E-07
 -1       833-3.74993E+05 3.27322E+03-1.25401E+04-2.59053E+03-2.56076E-05 1.06042E-07
 -1       834-3.87390E+05-2.41703E+04-3.41412E+04 2.16391E+03-8.43238E-08 8.07495E-09
 -1       835-3.67228E+05 2.08741E+04-4.84561E+04-1.48147E+03 6.24445E-09-4.36557E-11
 -1       836-1.20081E+03 3.65612E+05 2.17277E+04-4.01852E+04 5.87897E-09 7.04404E-09
 -1       837 4.96891E+03 3.72240E+05 1.85046E+04-8.04125E+04 7.70797E-09 3.23166E-09
 -1       838-3.67535E+02 3.67468E+05 1.90047E+04-4.00697E+04 6.81757E-09 6.30405E-09
 -1       839 1.23547E+04 3.77738E+05 3.60975E+04-8.04304E+04 8.19091E-09-5.17571E-09
 -1       840-3.57694E+03 3.60052E+05 5.76139E+04-4.01607E+04 6.08998E-09-2.97268E-09
 -1       856-1.42492E+05 1.07898E+04-2.84402E+04-8.02245E+02-6.98628E-09 4.16549E-10
 -1       857-1.54246E+05-1.26437E+04-1.95797E+04 6.01342E+03-6.70110E-09-4.02997E-09
 -1       858-1.47132E+05 1.50995E+03-7.38180E+03-8.45851E+02-9.39752E-09-7.27232E-09
 -1       859-1.48920E+05-1.74292E+03-4.45874E+03 6.08555E+03 4.60130E-09 1.89004E-10
 -1       860-1.47824E+05 2.08264E+02-1.87699E+03-8.74939E+02-1.63763E-09-9.55424E-10
 -1       861-1.48123E+05-2.16665E+02-1.04938E+03 6.12562E+03-1.58188E-08-8.93110E-10
 -1       862-1.47932E+05 2.61972E+01-4.70277E+02-8.86024E+02 8.31034E-09-1.93472E-09
 -1       863-1.47998E+05-3.87495E+00-2.48631E+02 6.13008E+03 1.37220E-08-1.57527E-09
 -1       864-1.47951E+05 2.54229E-01-1.10666E+02-8.79412E+02 9.73372E-09-2.61749E-09
 -1       865-1.47969E+05 2.72815E+01-4.40068E+01 6.09835E+03 8.67809E-09-2.96332E-09
 -1       866-1.47958E+05-6.73942E+00-3.41499E-01-8.54287E+02-4.77405E-09-8.21601E-10
 -1       867-1.47940E+05 5.27179E+01 5.85560E+01 6.03031E+03-6.75612E-10 5.26897E-09
 -1       868-1.47973E+05-2.92123E+01 1.08458E+02-8.11349E+02 3.36860E-09 1.30788E-09
 -1       869-1.47834E+05 2.24768E+02 3.14809E+02 5.92204E+03-1.09227E-08-1.44996E-09
 -1       870-1.48054E+05-1.80686E+02 4.49019E+02-7.45993E+02 7.77845E-10 2.26976E-09
 -1       871-5.58260E+03-8.99498E+03-1.72730E+04 1.11410E+05 5.77165E-09-3.36240E-09
 -1       872-2.61522E+03-1.28105E+04-6.96146E+03 1.44434E+05 1.03137E-08-4.93674E-09
 -1       873-2.77693E+02-1.11002E+04 1.19371E+03 1.11169E+05 4.68435E-09-2.36469E-10
 -1       874 2.46190E+03-8.41633E+03 1.02338E+04 1.44494E+05 1.68875E-08 8.05721E-09
 -1       875 6.28570E+03-1.34961E+04 2.25553E+04 1.11379E+05 6.10271E-09 3.77440E-09
 -1       876 2.91465E+05 5.09633E+04 1.59476E+04 1.19129E+05-1.25848E-08-1.21281E-08
 -1       877 2.92281E+05 5.45628E+04 8.51669E+03 1.23940E+05-1.77067E-08 3.03498E-09
 -1       878 2.92950E+05 4.92020E+04 3.56774E+03 1.20440E+05 3.42880E-10-8.09132E-09
 -1       879 2.90108E+05 5.24033E+04 1.77734E+03 1.24050E+05-7.23048E-11 1.24146E-10
 -1       880 2.93056E+05 4.91845E+04 8.26992E+02 1.20493E+05 1.06697E-08 5.60215E-09
 -1       881 2.89963E+05 5.23111E+04 4.39986E+02 1.24025E+05 1.98718E-08 5.82841E-09
 -1       882 2.93065E+05 4.91990E+04 2.78286E+02 1.20495E+05 1.16468E-08-1.17442E-09
 -1       883 2.89952E+05 5.23065E+04 2.94238E+02 1.24016E+05 2.67835E-09 4.91083E-09
 -1       884 2.93059E+05 4.91964E+04 4.63410E+02 1.20495E+05-6.10339E-09 2.26362E-09
 -1       885 2.89989E+05 5.23130E+04 9.28781E+02 1.24028E+05 7.14454E-09 3.34364E-09
 -1       886 2.93023E+05 4.91691E+04 1.87039E+03 1.20491E+05 7.25461E-09-1.51203E-10
 -1       887 2.90318E+05 5.25285E+04 4.08488E+03 1.24076E+05-1.42061E-08-1.82661E-09
 -1       888 2.92766E+05 4.92135E+04 8.23067E+03 1.20360E+05 2.48019E-09 1.60844E-09
 -1       889 2.95225E+05 5.76175E+04 1.96617E+04 1.23920E+05 1.16245E-09 6.95763E-09
 -1       890 2.89420E+05 5.31910E+04 3.68254E+04 1.17214E+05 9.03856E-09-7.18501E-10
 -1       891-2.52609E+02-1.67523E+05-1.94914E+03 3.35864E+04-2.17892E-09 1.22654E-08
 -1       892-4.26436E+02-1.67946E+05-2.13043E+03 5.07356E+04-2.20120E-09 1.21674E-08
 -1       893-1.31436E+02-1.67572E+05-3.05683E+03 3.35928E+04-4.06908E-09 5.42514E-09
 -1       894-1.79576E+03-1.69098E+05-6.35255E+03 5.05553E+04-1.01572E-08-3.25917E-09
 -1       895-1.40268E+03-1.66230E+05-1.12024E+04 3.37610E+04-3.47200E-10 3.22871E-10
 -1       956-3.63169E+05-5.34698E+03-1.35508E+04 2.26837E+04-3.67618E-09-3.22461E-09
 -1       957-3.65853E+05-1.76945E+03-6.95595E+03 2.73533E+04 5.20549E-09-2.12640E-09
 -1       958-3.64376E+05-1.06528E+02-3.13444E+03 2.25160E+04 1.07739E-08 7.10088E-10
 -1       959-3.64601E+05 2.57073E+01-1.60057E+03 2.75291E+04-2.21189E-09 2.81329E-09
 -1       960-3.64489E+05 8.70601E+01-7.80311E+02 2.24994E+04-6.05178E-09-2.96041E-10
 -1       961-3.64516E+05 9.67776E+01-4.12949E+02 2.75482E+04-9.86233E-09 1.98747E-09
 -1       962-3.64515E+05 8.46409E+01-2.34907E+02 2.24964E+04-6.42103E-10 1.29080E-09
 -1       963-3.64517E+05 1.01247E+02-1.85394E+02 2.75526E+04-6.61566E-09 1.86446E-10
 -1       964-3.64524E+05 8.94279E+01-2.21413E+02 2.24949E+04-1.69621E-09-2.71712E-10
 -1       965-3.64534E+05 1.07236E+02-3.79373E+02 2.75537E+04 7.65203E-09 1.20122E-09
 -1       966-3.64515E+05 1.01199E+02-7.10417E+02 2.24952E+04-6.43468E-11-3.97836E-09
 -1       967-3.64630E+05 5.25080E+01-1.45625E+03 2.75463E+04 9.49490E-09 1.20781E-09
 -1       968-3.64427E+05-6.56159E+01-2.84948E+03 2.25027E+04 8.41214E-09 2.66397E-10
 -1       969-3.65786E+05-1.57176E+03-6.32697E+03 2.74626E+04 1.17825E-08 3.25642E-09
 -1       970-3.63340E+05-4.82664E+03-1.23236E+04 2.25894E+04 1.06834E-08 1.44792E-09
 -1       971-3.50326E+05-1.87370E+03-1.06032E+04 1.74434E+04-1.07675E-08 2.83819E-10
 -1       972-3.52920E+05-1.31274E+03-5.77342E+03 2.45180E+04-7.12134E-09-2.87446E-09
 -1       973-3.51511E+05 2.54787E+01-2.58599E+03 1.72892E+04-4.80850E-09 1.27784E-09
 -1       974-3.51711E+05 4.74084E+01-1.33882E+03 2.46823E+04 8.26230E-09-6.97719E-09
 -1       975-3.51609E+05 7.92994E+01-6.67345E+02 1.72739E+04 7.82757E-09-5.20686E-11
 -1       976-3.51645E+05 1.06746E+02-3.80448E+02 2.47014E+04-7.47218E-09 3.84944E-10
 -1       977-3.51630E+05 8.17109E+01-2.68700E+02 1.72698E+04 5.94537E-09 2.06046E-09
 -1       978-3.51653E+05 1.15050E+02-3.03920E+02 2.47072E+04 2.20614E-08-5.86795E-09
 -1       979-3.51632E+05 9.11068E+01-4.79609E+02 1.72680E+04 1.61228E-08 1.59116E-09
 -1       980-3.51689E+05 1.18577E+02-9.20618E+02 2.47082E+04 2.03530E-08-4.79486E-09
 -1       981-3.51602E+05 1.13733E+02-1.78044E+03 1.72686E+04 6.49516E-09 2.78067E-09
 -1       982-3.51932E+05-1.40168E+01-3.67870E+03 2.46998E+04 3.11229E-09 1.24146E-09
 -1       983-3.51376E+05-1.89157E+00-7.14748E+03 1.72770E+04 5.80485E-09 1.74850E-09
 -1       984-3.55364E+05-3.74971E+03-1.60056E+04 2.45973E+04 1.49157E-09-3.58079E-09
 -1       985-3.48136E+05-5.23399E+03-2.93919E+04 1.73888E+04 8.26412E-09-2.01362E-09
 -3
    1PSTEP                        29          15           1          
  100CL  115 7.32056E-01         409                     0   15           1
 -4  DISP        4    1
 -5  D1          1    2    1    0
 -5  D2          1    2    2    0
 -5  D3          1    2    3    0
 -5  ALL         1    2    0    0    1ALL
 -1         1 4.00929E-03 0.00000E+00 0.00000E+00
 -1         2 4.18506E-03 3.87977E-27 0.00000E+00
 -1         3 4.64289E-05-6.44314E-28 0.00000E+00
 -1         5 6.89122E-05 4.92466E-27 0.00000E+00
 -1         8 3.96045E-03-2.13725E-06 0.00000E+00
 -1         9 3.99291E-03-8.12538E-06 0.00000E+00
 -1        10 4.69123E-05 1.16822E-06 3.30872E-24
 -1        12 6.71620E-05 7.79370E-07 6.61744E-24
 -1        15 3.90268E-03-2.45522E-06 0.00000E+00
 -1        16 3.90195E-03-8.13461E-06 0.00000E+00
 -1        17 4.85213E-05 2.41563E-06 0.00000E+00
 -1        18 6.04602E-05-1.17402E-05 0.00000E+00
 -1        19 6.19106E-05 1.55263E-06 0.00000E+00
 -1        20 6.21141E-05 3.47776E-05 0.00000E+00
 -1        21 6.14199E-05 6.82700E-05-3.30872E-24
 -1        24 2.53140E-05 1.59372E-06 0.00000E+00
 -1        25 5.30285E-05-1.15819E-05 0.00000E+00
 -1        26 5.47705E-05 2.17884E-06 0.00000E+00
 -1        27 5.26158E-05 3.13418E-05 0.00000E+00
 -1        28 5.17405E-05 6.75816E-05 0.00000E+00
 -1        32 0.00000E+00 0.00000E+00 0.00000E+00
 -1        33 4.54105E-05 2.93330E-06 0.00000E+00
 -1        34 4.33304E-05 3.13093E-05 0.00000E+00
 -1        35 4.13116E-05 6.72199E-05 0.00000E+00
 -1        51 4.00610E-03-3.34222E-07 0.00000E+00
 -1        52 4.00020E-03-6.71375E-07 0.00000E+00
 -1        53 3.99212E-03-1.01789E-06 0.00000E+00
 -1        54 3.98243E-03-1.37622E-06-6.61744E-24
 -1        55 3.97169E-03-1.74599E-06-6.61744E-24
 -1        56 4.00881E-03-1.77765E-06 2.64698E-23
 -1        57 4.00927E-03-6.18829E-06 1.32349E-23
 -1        58 4.01051E-03-1.26797E-05-2.64698E-23
 -1        59 4.01228E-03-2.06559E-05 0.00000E+00
 -1        60 4.01435E-03-2.94259E-05 0.00000E+00
 -1        61 4.01644E-03-3.82790E-05 0.00000E+00
 -1        62 4.01831E-03-4.64992E-05 0.00000E+00
 -1        63 4.01968E-03-5.33877E-05 0.00000E+00
 -1        64 4.02034E-03-5.83280E-05 0.00000E+00
 -1        65 4.02006E-03-6.07558E-05 0.00000E+00
 -1        66 4.01869E-03-6.02615E-05 2.64698E-23
 -1        67 4.01609E-03-5.65131E-05 1.32349E-23
 -1        68 4.01220E-03-4.93787E-05-2.64698E-23
 -1        69 4.00699E-03-3.88125E-05-1.32349E-23
 -1        70 4.00052E-03-2.49841E-05 1.32349E-23
 -1        86 4.17523E-03-8.56531E-07-2.64698E-23
 -1        87 4.14604E-03-2.07511E-06 1.32349E-23
 -1        88 4.10486E-03-3.68140E-06 0.00000E+00
 -1        89 4.05942E-03-5.45848E-06-6.61744E-24
 -1        90 4.01905E-03-7.03713E-06-1.32349E-23
 -1       121 4.64423E-05 1.94647E-07 0.00000E+00
 -1       122 4.64824E-05 3.89295E-07 0.00000E+00
 -1       123 4.65494E-05 5.83947E-07 0.00000E+00
 -1       124 4.66433E-05 7.78631E-07 0.00000E+00
 -1       125 4.67642E-05 9.73289E-07 0.00000E+00
 -1       191 6.88635E-05 1.29953E-07 0.00000E+00
 -1       192 6.87177E-05 2.59895E-07 0.00000E+00
 -1       193 6.84747E-05 3.89819E-07 0.00000E+00
 -1       194 6.81344E-05 5.19715E-07 0.00000E+00
 -1       195 6.76968E-05 6.49569E-07 6.61744E-24
 -1       251 3.96236E-03 4.61666E-06 0.00000E+00
 -1       252 3.96440E-03 6.03507E-06 0.00000E+00
 -1       253 3.96643E-03 4.42485E-06 0.00000E+00
 -1       254 3.96848E-03 1.82466E-06 0.00000E+00
 -1       255 3.97053E-03-1.33665E-06 0.00000E+00
 -1       256 3.97258E-03-4.67893E-06-2.64698E-23
 -1       257 3.97464E-03-8.11906E-06 0.00000E+00
 -1       258 3.97669E-03-1.15824E-05-2.64698E-23
 -1       259 3.97875E-03-1.50325E-05 5.29396E-23
 -1       260 3.98080E-03-1.84317E-05 0.00000E+00
 -1       261 3.98286E-03-2.16587E-05-5.29396E-23
 -1       262 3.98491E-03-2.45774E-05 0.00000E+00
 -1       263 3.98696E-03-2.65451E-05 5.29396E-23
 -1       264 3.98901E-03-2.68370E-05 2.64698E-23
 -1       265 3.99104E-03-2.19984E-05 2.64698E-23
 -1       266 3.95082E-03-2.21568E-06-1.32349E-23
 -1       267 3.94120E-03-2.26558E-06 0.00000E+00
 -1       268 3.93157E-03-2.31728E-06 0.00000E+00
 -1       269 3.92194E-03-2.36363E-06 8.27181E-25
 -1       270 3.91231E-03-2.40985E-06 0.00000E+00
 -1       271 3.95444E-03 4.09711E-06 0.00000E+00
 -1       272 3.94988E-03 6.20276E-06 0.00000E+00
 -1       273 3.94670E-03 4.64219E-06 0.00000E+00
 -1       274 3.94466E-03-1.53417E-08 5.29396E-23
 -1       275 3.94350E-03-7.04988E-06-1.05879E-22
 -1       276 3.94291E-03-1.56478E-05 0.00000E+00
 -1       277 3.94257E-03-2.49233E-05 0.00000E+00
 -1       278 3.94214E-03-3.39632E-05 5.29396E-23
 -1       279 3.94129E-03-4.18646E-05 0.00000E+00
 -1       280 3.93971E-03-4.77726E-05 0.00000E+00
 -1       281 3.93710E-03-5.09224E-05 0.00000E+00
 -1       282 3.93322E-03-5.06643E-05-5.29396E-23
 -1       283 3.92786E-03-4.65020E-05 0.00000E+00
 -1       284 3.92089E-03-3.80968E-05 5.29396E-23
 -1       285 3.91222E-03-2.53093E-05 0.00000E+00
 -1       301 3.97672E-03-8.13199E-06 0.00000E+00
 -1       302 3.96238E-03-8.10943E-06 0.00000E+00
 -1       303 3.94883E-03-8.07630E-06 0.00000E+00
 -1       304 3.93496E-03-8.05187E-06 0.00000E+00
 -1       305 3.91969E-03-8.05333E-06-6.61744E-24
 -1       306 3.88679E-03 1.80990E-04 0.00000E+00
 -1       307 3.54889E-03 6.38013E-04 0.00000E+00
 -1       308 2.95265E-03 1.26092E-03 0.00000E+00
 -1       309 2.16058E-03 1.94986E-03 5.29396E-23
 -1       310 1.33073E-03 2.64834E-03 0.00000E+00
 -1       311 6.32674E-04 3.31198E-03-5.29396E-23
 -1       312 1.66692E-04 3.86182E-03 2.11758E-22
 -1       313-4.41074E-05 4.19507E-03 1.05879E-22
 -1       314-5.84580E-05 4.20033E-03 2.11758E-22
 -1       315 2.12534E-07 3.85844E-03 0.00000E+00
 -1       316 3.45227E-05 3.20741E-03 0.00000E+00
 -1       317 1.58214E-06 2.35855E-03 0.00000E+00
 -1       318-4.81322E-05 1.47070E-03 0.00000E+00
 -1       319-4.62683E-05 7.05025E-04 0.00000E+00
 -1       320 7.79983E-06 1.87621E-04 0.00000E+00
 -1       336 4.70914E-05 1.37845E-06 6.61744E-24
 -1       337 4.73056E-05 1.58876E-06-3.30872E-24
 -1       338 4.75553E-05 1.79884E-06 6.61744E-24
 -1       339 4.78408E-05 2.00755E-06 0.00000E+00
 -1       340 4.81627E-05 2.21635E-06 3.30872E-24
 -1       406 6.65298E-05 9.09101E-07 0.00000E+00
 -1       407 6.58003E-05 1.03873E-06 0.00000E+00
 -1       408 6.49735E-05 1.16820E-06 0.00000E+00
 -1       409 6.40493E-05 1.29734E-06 3.30872E-24
 -1       410 6.30281E-05 1.42589E-06 0.00000E+00
 -1       521 3.79454E-03 1.81036E-04-1.05879E-22
 -1       522 3.45770E-03 6.35967E-04 0.00000E+00
 -1       523 2.86778E-03 1.25547E-03 0.00000E+00
 -1       524 2.09059E-03 1.94048E-03 0.00000E+00
 -1       525 1.27752E-03 2.63513E-03 1.05879E-22
 -1       526 5.90879E-04 3.29442E-03 0.00000E+00
 -1       527 1.31810E-04 3.83901E-03 2.11758E-22
 -1       528-7.60334E-05 4.16726E-03-1.05879E-22
 -1       529-8.99280E-05 4.16826E-03 2.11758E-22
 -1       530-3.21435E-05 3.82474E-03-1.05879E-22
 -1       531 2.30083E-06 3.17674E-03 2.11758E-22
 -1       532-2.66772E-05 2.33764E-03 0.00000E+00
 -1       533-7.15116E-05 1.46058E-03-1.05879E-22
 -1       534-6.79595E-05 7.01198E-04 0.00000E+00
 -1       535-1.43685E-05 1.86824E-04 0.00000E+00
 -1       536 4.92377E-05 1.87142E-06 1.32349E-23
 -1       537 4.99848E-05 1.00332E-06 0.00000E+00
 -1       538 5.07297E-05-4.08995E-08 0.00000E+00
 -1       539 5.14805E-05-1.11964E-06-1.32349E-23
 -1       540 5.22315E-05-2.21713E-06 0.00000E+00
 -1       541 5.29836E-05-3.31826E-06 1.32349E-23
 -1       542 5.37358E-05-4.42131E-06-2.64698E-23
 -1       543 5.44883E-05-5.52462E-06 1.32349E-23
 -1       544 5.52408E-05-6.62752E-06 2.64698E-23
 -1       545 5.59931E-05-7.72934E-06 1.32349E-23
 -1       546 5.67452E-05-8.82536E-06 0.00000E+00
 -1       547 5.74963E-05-9.91065E-06-1.32349E-23
 -1       548 5.82474E-05-1.09408E-05-2.64698E-23
 -1       549 5.89931E-05-1.18697E-05 6.61744E-24
 -1       550 5.97409E-05-1.22809E-05 0.00000E+00
 -1       551 4.62279E-05 2.29429E-06 0.00000E+00
 -1       552 4.19086E-05 2.16500E-06 0.00000E+00
 -1       553 3.66055E-05 2.03162E-06 0.00000E+00
 -1       554 3.13718E-05 1.89478E-06 0.00000E+00
 -1       555 2.72606E-05 1.75747E-06 0.00000E+00
 -1       556 4.87079E-05 1.79932E-06 0.00000E+00
 -1       557 4.89937E-05 9.14224E-07 0.00000E+00
 -1       558 4.93615E-05-1.90371E-07 0.00000E+00
 -1       559 4.97924E-05-1.46409E-06 3.30872E-24
 -1       560 5.02676E-05-2.85655E-06 0.00000E+00
 -1       561 5.07682E-05-4.31725E-06-8.27181E-25
 -1       562 5.12756E-05-5.79576E-06 0.00000E+00
 -1       563 5.17707E-05-7.24159E-06 6.20385E-25
 -1       564 5.22347E-05-8.60426E-06-4.13590E-25
 -1       565 5.26489E-05-9.83334E-06-8.27181E-25
 -1       566 5.29942E-05-1.08784E-05 1.65436E-24
 -1       567 5.32518E-05-1.16889E-05 0.00000E+00
 -1       568 5.34028E-05-1.22146E-05 0.00000E+00
 -1       569 5.34283E-05-1.24052E-05 0.00000E+00
 -1       570 5.33093E-05-1.22104E-05 0.00000E+00
 -1       571 6.05484E-05-1.07954E-05 4.13590E-25
 -1       572 6.06383E-05-9.91270E-06-6.20385E-25
 -1       573 6.07288E-05-9.08259E-06 0.00000E+00
 -1       574 6.08196E-05-8.29499E-06-1.65436E-24
 -1       575 6.09106E-05-7.53976E-06-1.65436E-24
 -1       576 6.10015E-05-6.80668E-06 8.27181E-25
 -1       577 6.10926E-05-6.08554E-06 0.00000E+00
 -1       578 6.11836E-05-5.36612E-06 0.00000E+00
 -1       579 6.12746E-05-4.63818E-06-3.30872E-24
 -1       580 6.13656E-05-3.89149E-06 1.65436E-24
 -1       581 6.14566E-05-3.11583E-06 0.00000E+00
 -1       582 6.15475E-05-2.30098E-06 0.00000E+00
 -1       583 6.16384E-05-1.43673E-06 0.00000E+00
 -1       584 6.17293E-05-5.12969E-07 6.61744E-24
 -1       585 6.18200E-05 4.80369E-07 6.61744E-24
 -1       586 5.92399E-05-1.17119E-05 1.65436E-24
 -1       587 5.79709E-05-1.16847E-05 0.00000E+00
 -1       588 5.66842E-05-1.16579E-05 2.06795E-25
 -1       589 5.54108E-05-1.16315E-05 0.00000E+00
 -1       590 5.41821E-05-1.16057E-05 0.00000E+00
 -1       591 6.00688E-05-1.07648E-05 0.00000E+00
 -1       592 5.96979E-05-9.85397E-06 0.00000E+00
 -1       593 5.93466E-05-8.99616E-06 0.00000E+00
 -1       594 5.90108E-05-8.18078E-06 4.13590E-25
 -1       595 5.86869E-05-7.39710E-06 0.00000E+00
 -1       596 5.83707E-05-6.63446E-06 0.00000E+00
 -1       597 5.80585E-05-5.88220E-06-8.27181E-25
 -1       598 5.77462E-05-5.12969E-06 0.00000E+00
 -1       599 5.74297E-05-4.36627E-06 8.27181E-25
 -1       600 5.71052E-05-3.58129E-06-4.13590E-25
 -1       601 5.67686E-05-2.76412E-06 4.13590E-25
 -1       602 5.64159E-05-1.90408E-06-4.13590E-25
 -1       603 5.60433E-05-9.90545E-07-3.36042E-25
 -1       604 5.56470E-05-1.27864E-08 0.00000E+00
 -1       605 5.52228E-05 1.03981E-06 8.27181E-25
 -1       606 6.19290E-05 2.83426E-06 0.00000E+00
 -1       607 6.19439E-05 4.26854E-06 0.00000E+00
 -1       608 6.19578E-05 5.84650E-06 0.00000E+00
 -1       609 6.19711E-05 7.55804E-06 0.00000E+00
 -1       610 6.19840E-05 9.39303E-06 0.00000E+00
 -1       611 6.19967E-05 1.13412E-05 0.00000E+00
 -1       612 6.20092E-05 1.33921E-05 0.00000E+00
 -1       613 6.20214E-05 1.55356E-05 0.00000E+00
 -1       614 6.20335E-05 1.77614E-05 3.30872E-24
 -1       615 6.20455E-05 2.00590E-05 0.00000E+00
 -1       616 6.20573E-05 2.24182E-05 0.00000E+00
 -1       617 6.20689E-05 2.48288E-05 8.27181E-25
 -1       618 6.20805E-05 2.72803E-05 1.65436E-24
 -1       619 6.20919E-05 2.97625E-05 0.00000E+00
 -1       620 6.21032E-05 3.22650E-05 0.00000E+00
 -1       621 6.07387E-05 1.65695E-06-3.30872E-24
 -1       622 5.95579E-05 1.76191E-06 0.00000E+00
 -1       623 5.83694E-05 1.86686E-06 0.00000E+00
 -1       624 5.71745E-05 1.97165E-06-1.65436E-24
 -1       625 5.59744E-05 2.07626E-06 0.00000E+00
 -1       626 6.15364E-05 2.86382E-06 0.00000E+00
 -1       627 6.11145E-05 4.30396E-06 6.61744E-24
 -1       628 6.06483E-05 5.86188E-06 0.00000E+00
 -1       629 6.01424E-05 7.52557E-06 0.00000E+00
 -1       630 5.96012E-05 9.28303E-06 6.61744E-24
 -1       631 5.90293E-05 1.11221E-05 0.00000E+00
 -1       632 5.84311E-05 1.30308E-05 0.00000E+00
 -1       633 5.78113E-05 1.49969E-05 0.00000E+00
 -1       634 5.71744E-05 1.70083E-05 0.00000E+00
 -1       635 5.65249E-05 1.90530E-05 1.65436E-24
 -1       636 5.58675E-05 2.11189E-05-3.30872E-24
 -1       637 5.52066E-05 2.31938E-05 1.65436E-24
 -1       638 5.45467E-05 2.52656E-05-3.30872E-24
 -1       639 5.38923E-05 2.73224E-05 1.65436E-24
 -1       640 5.32477E-05 2.93518E-05 0.00000E+00
 -1       656 5.99084E-05 3.42179E-05 6.61744E-24
 -1       657 5.82319E-05 3.36365E-05 0.00000E+00
 -1       658 5.68852E-05 3.30572E-05 1.32349E-23
 -1       659 5.56608E-05 3.24786E-05 6.61744E-24
 -1       660 5.43172E-05 3.18979E-05-6.61744E-24
 -1       661 6.12989E-05 3.72586E-05-1.65436E-24
 -1       662 6.05132E-05 3.96741E-05 0.00000E+00
 -1       663 5.97516E-05 4.20253E-05-3.30872E-24
 -1       664 5.90140E-05 4.43150E-05 1.65436E-24
 -1       665 5.82989E-05 4.65451E-05 0.00000E+00
 -1       666 5.76056E-05 4.87179E-05-1.65436E-24
 -1       667 5.69333E-05 5.08351E-05 3.30872E-24
 -1       668 5.62814E-05 5.28983E-05-1.65436E-24
 -1       669 5.56493E-05 5.49088E-05 3.30872E-24
 -1       670 5.50366E-05 5.68680E-05 0.00000E+00
 -1       671 5.44428E-05 5.87767E-05 0.00000E+00
 -1       672 5.38676E-05 6.06358E-05 1.65436E-24
 -1       673 5.33108E-05 6.24458E-05 0.00000E+00
 -1       674 5.27711E-05 6.42068E-05 8.27181E-25
 -1       675 5.22501E-05 6.59196E-05 0.00000E+00
 -1       676 5.98005E-05 6.81546E-05 0.00000E+00
 -1       677 5.81821E-05 6.80392E-05 0.00000E+00
 -1       678 5.65658E-05 6.79239E-05 3.30872E-24
 -1       679 5.49527E-05 6.78089E-05 1.65436E-24
 -1       680 5.33440E-05 6.76940E-05 0.00000E+00
 -1       771 2.41802E-05 3.96670E-07 2.64698E-23
 -1       772 2.29412E-05-6.07518E-07-1.32349E-23
 -1       773 2.16272E-05-1.41835E-06-5.29396E-23
 -1       774 2.02416E-05-2.04729E-06 0.00000E+00
 -1       775 1.87907E-05-2.50495E-06 0.00000E+00
 -1       776 1.72796E-05-2.80344E-06 0.00000E+00
 -1       777 1.57131E-05-2.95522E-06 0.00000E+00
 -1       778 1.40963E-05-2.97342E-06 0.00000E+00
 -1       779 1.24344E-05-2.87152E-06 0.00000E+00
 -1       780 1.07326E-05-2.66350E-06 2.64698E-23
 -1       781 8.99633E-06-2.36356E-06-5.29396E-23
 -1       782 7.23108E-06-1.98629E-06 0.00000E+00
 -1       783 5.44244E-06-1.54646E-06 0.00000E+00
 -1       784 3.63653E-06-1.05895E-06 0.00000E+00
 -1       785 1.81886E-06-5.38971E-07 5.29396E-23
 -1       786 5.31318E-05-1.06589E-05 0.00000E+00
 -1       787 5.32405E-05-9.78903E-06 0.00000E+00
 -1       788 5.33489E-05-8.95786E-06 3.30872E-24
 -1       789 5.34584E-05-8.15134E-06 0.00000E+00
 -1       790 5.35678E-05-7.36188E-06 0.00000E+00
 -1       791 5.36775E-05-6.58193E-06-1.65436E-24
 -1       792 5.37872E-05-5.80649E-06 3.30872E-24
 -1       793 5.38969E-05-5.03056E-06 0.00000E+00
 -1       794 5.40066E-05-4.24900E-06 0.00000E+00
 -1       795 5.41163E-05-3.45668E-06 0.00000E+00
 -1       796 5.42260E-05-2.64561E-06 3.30872E-24
 -1       797 5.43356E-05-1.80768E-06 0.00000E+00
 -1       798 5.44452E-05-9.27744E-07-3.30872E-24
 -1       799 5.45543E-05 9.57411E-09-1.65436E-24
 -1       800 5.46635E-05 1.03479E-06-3.30872E-24
 -1       801 4.90017E-05-9.65254E-06 0.00000E+00
 -1       802 3.91640E-05-7.68484E-06 0.00000E+00
 -1       803 2.65573E-05-5.75167E-06 5.29396E-23
 -1       804 1.39591E-05-3.82835E-06-1.32349E-23
 -1       805 4.10563E-06-1.86788E-06 0.00000E+00
 -1       806 5.25742E-05-1.07172E-05 0.00000E+00
 -1       807 5.21286E-05-9.88860E-06 0.00000E+00
 -1       808 5.16920E-05-9.08644E-06 0.00000E+00
 -1       809 5.12615E-05-8.30185E-06-1.65436E-24
 -1       810 5.08340E-05-7.52602E-06 3.30872E-24
 -1       811 5.04065E-05-6.75014E-06-1.65436E-24
 -1       812 4.99756E-05-5.96549E-06 0.00000E+00
 -1       813 4.95382E-05-5.16331E-06 0.00000E+00
 -1       814 4.90908E-05-4.33484E-06 0.00000E+00
 -1       815 4.86303E-05-3.47136E-06 1.65436E-24
 -1       816 4.81534E-05-2.56413E-06-1.65436E-24
 -1       817 4.76567E-05-1.60441E-06 0.00000E+00
 -1       818 4.71371E-05-5.83487E-07-1.65436E-24
 -1       819 4.65914E-05 5.07336E-07 8.27181E-25
 -1       820 4.60164E-05 1.67676E-06 0.00000E+00
 -1       821 5.46465E-05 2.93007E-06 0.00000E+00
 -1       822 5.45150E-05 2.78112E-06 0.00000E+00
 -1       823 5.43839E-05 2.05864E-06-3.30872E-24
 -1       824 5.42511E-05 1.09278E-06 0.00000E+00
 -1       825 5.41183E-05 2.78282E-07 3.30872E-24
 -1       826 5.39856E-05 9.02117E-09-1.65436E-24
 -1       827 5.38526E-05 5.33170E-07-3.30872E-24
 -1       828 5.37186E-05 2.09419E-06 0.00000E+00
 -1       829 5.35826E-05 4.65858E-06 3.30872E-24
 -1       830 5.34439E-05 8.18687E-06-1.65436E-24
 -1       831 5.33027E-05 1.23822E-05 0.00000E+00
 -1       832 5.31603E-05 1.69437E-05 1.65436E-24
 -1       833 5.30181E-05 2.14726E-05 0.00000E+00
 -1       834 5.28791E-05 2.55704E-05-1.65436E-24
 -1       835 5.27422E-05 2.89533E-05 0.00000E+00
 -1       836 5.34074E-05 2.30461E-06 0.00000E+00
 -1       837 5.18631E-05 2.43296E-06 0.00000E+00
 -1       838 5.02141E-05 2.56096E-06-3.30872E-24
 -1       839 4.85377E-05 2.68813E-06 0.00000E+00
 -1       840 4.69109E-05 2.81517E-06-4.13590E-25
 -1       856 5.25667E-05 3.33136E-05 1.03398E-25
 -1       857 5.25127E-05 3.54386E-05 0.00000E+00
 -1       858 5.24587E-05 3.76929E-05 0.00000E+00
 -1       859 5.24036E-05 4.00521E-05 0.00000E+00
 -1       860 5.23482E-05 4.24918E-05 1.65436E-24
 -1       861 5.22926E-05 4.49873E-05 8.27181E-25
 -1       862 5.22369E-05 4.75140E-05 0.00000E+00
 -1       863 5.21811E-05 5.00471E-05 0.00000E+00
 -1       864 5.21253E-05 5.25616E-05 1.65436E-24
 -1       865 5.20697E-05 5.50329E-05-8.27181E-25
 -1       866 5.20142E-05 5.74363E-05 0.00000E+00
 -1       867 5.19589E-05 5.97471E-05 8.27181E-25
 -1       868 5.19039E-05 6.19410E-05 0.00000E+00
 -1       869 5.18491E-05 6.39940E-05-8.27181E-25
 -1       870 5.17947E-05 6.58820E-05 1.65436E-24
 -1       871 5.09174E-05 3.13401E-05 8.27181E-25
 -1       872 4.93574E-05 3.13358E-05 0.00000E+00
 -1       873 4.78778E-05 3.13310E-05-4.13590E-25
 -1       874 4.64193E-05 3.13255E-05 2.06795E-25
 -1       875 4.49230E-05 3.13193E-05 1.65436E-24
 -1       876 5.20044E-05 3.33247E-05-3.30872E-24
 -1       877 5.13680E-05 3.53824E-05 1.65436E-24
 -1       878 5.07070E-05 3.75057E-05 3.30872E-24
 -1       879 5.00248E-05 3.96862E-05-1.65436E-24
 -1       880 4.93244E-05 4.19152E-05 0.00000E+00
 -1       881 4.86089E-05 4.41844E-05 1.65436E-24
 -1       882 4.78814E-05 4.64852E-05 3.30872E-24
 -1       883 4.71452E-05 4.88093E-05 1.65436E-24
 -1       884 4.64034E-05 5.11481E-05-3.30872E-24
 -1       885 4.56592E-05 5.34932E-05 1.65436E-24
 -1       886 4.49158E-05 5.58362E-05 3.30872E-24
 -1       887 4.41763E-05 5.81685E-05-1.65436E-24
 -1       888 4.34437E-05 6.04818E-05 0.00000E+00
 -1       889 4.27208E-05 6.27674E-05 0.00000E+00
 -1       890 4.20109E-05 6.50169E-05 0.00000E+00
 -1       891 5.01703E-05 6.75213E-05 1.65436E-24
 -1       892 4.85743E-05 6.74608E-05-8.27181E-25
 -1       893 4.69214E-05 6.74002E-05 8.27181E-25
 -1       894 4.51806E-05 6.73396E-05-8.27181E-25
 -1       895 4.33208E-05 6.72790E-05 0.00000E+00
 -1       956 4.52834E-05 4.36809E-06 3.30872E-24
 -1       957 4.51540E-05 5.88848E-06 0.00000E+00
 -1       958 4.50242E-05 7.48629E-06 0.00000E+00
 -1       959 4.48940E-05 9.15278E-06 0.00000E+00
 -1       960 4.47636E-05 1.08792E-05-3.30872E-24
 -1       961 4.46332E-05 1.26569E-05-1.65436E-24
 -1       962 4.45026E-05 1.44769E-05 0.00000E+00
 -1       963 4.43720E-05 1.63304E-05 0.00000E+00
 -1       964 4.42413E-05 1.82087E-05-3.30872E-24
 -1       965 4.41106E-05 2.01029E-05 1.65436E-24
 -1       966 4.39799E-05 2.20042E-05-3.30872E-24
 -1       967 4.38492E-05 2.39038E-05 0.00000E+00
 -1       968 4.37187E-05 2.57929E-05-3.30872E-24
 -1       969 4.35883E-05 2.76626E-05-1.65436E-24
 -1       970 4.34584E-05 2.95043E-05 0.00000E+00
 -1       971 4.32064E-05 3.31510E-05-1.65436E-24
 -1       972 4.30806E-05 3.51079E-05 0.00000E+00
 -1       973 4.29543E-05 3.71671E-05 3.30872E-24
 -1       974 4.28277E-05 3.93155E-05 0.00000E+00
 -1       975 4.27009E-05 4.15399E-05 0.00000E+00
 -1       976 4.25739E-05 4.38269E-05 0.00000E+00
 -1       977 4.24468E-05 4.61634E-05 0.00000E+00
 -1       978 4.23196E-05 4.85359E-05 0.00000E+00
 -1       979 4.21924E-05 5.09313E-05-3.30872E-24
 -1       980 4.20652E-05 5.33361E-05 1.65436E-24
 -1       981 4.19380E-05 5.57371E-05 3.30872E-24
 -1       982 4.18109E-05 5.81210E-05 1.65436E-24
 -1       983 4.16841E-05 6.04745E-05 3.30872E-24
 -1       984 4.15579E-05 6.27843E-05 1.65436E-24
 -1       985 4.14323E-05 6.50370E-05 0.00000E+00
 -3
    1PSTEP                        30          15           1          
  100CL  115 7.32056E-01         409                     0   15           1
 -4  STRESS      6    1
 -5  SXX         1    4    1    1
 -5  SYY         1    4    2    2
 -5  SZZ         1    4    3    3
 -5  SXY         1    4    1    2
 -5  SYZ         1    4    2    3
 -5  SZX         1    4    3    1
 -1         1-1.30946E+06-8.23214E+05-2.35245E+05-1.54939E+06 6.73026E-10 2.68126E-07
 -1         2 1.08572E+04-1.90512E+06 5.40087E+04-1.95742E+05-2.07956E-09-2.38890E-07
 -1         3-8.96320E+00 5.56997E+05-8.10766E+01-1.12890E+01 6.94067E-12-4.35881E-09
 -1         5-6.77125E+01 3.72109E+05 9.79093E+00 1.18419E+00 2.28291E-10-2.06001E-08
 -1         8-3.71768E+05-4.48058E+05 2.36589E+05-1.27844E+06-5.09317E-10 1.21625E-07
 -1         9 1.36502E+07 1.18744E+07 3.69433E+06 1.14098E+07-2.11410E-08 3.60422E-08
 -1        10 4.89536E+02 5.80434E+05 2.21223E+03-8.22628E+01 1.11271E-10-5.10655E-10
 -1        12-6.38437E+01 3.72130E+05 3.21450E+02 8.16152E+00 7.10557E-10 6.72389E-09
 -1        15 4.21332E+03 2.31565E+03 1.36199E+04 1.75445E+01 9.49512E-10 1.51982E-07
 -1        16 1.91749E+07 1.90414E+07 5.33047E+06 1.87877E+07 3.13933E-08-1.33334E-07
 -1        17 2.18327E+07 4.23244E+05 3.21026E+06-1.84799E+06 1.81604E-08-3.72325E-08
 -1        18 6.02837E+05 1.39947E+05 1.20213E+05-7.44647E+04 3.22279E-09-2.52157E-09
 -1        19 1.14377E+05 1.40957E+05-3.07460E+02 2.29218E+04-1.71676E-09 1.12777E-09
 -1        20-3.51486E+04-5.40763E+05-1.18458E+05 4.60901E+04 9.45299E-09-2.37317E-09
 -1        21-5.22519E+01-3.26864E+05-1.06954E+03-3.63052E+02-1.76030E-08-1.52223E-09
 -1        24 3.46440E+07-4.72493E+05 4.72121E+06-3.40807E+06 9.87347E-08 2.87303E-08
 -1        25 3.14187E+05 1.21033E+06 3.16144E+05-1.26311E+05 1.43318E-09 7.66886E-09
 -1        26-1.18688E+04 1.01099E+05-1.60202E+04-2.13099E+04 2.60115E-09 2.77968E-09
 -1        27-9.15462E+04-2.98346E+05-1.12587E+05 6.76037E+04 1.05668E-08-3.48458E-09
 -1        28 2.56898E+04-8.86797E+04 1.84127E+04 3.13080E+04 1.25084E-08-6.73953E-10
 -1        32-5.55191E+05 2.82896E+06 1.20068E+06-7.50042E+05-4.74392E-09 5.99014E-08
 -1        33-1.66703E+05 9.02441E+04 3.16955E+04-6.01962E+04 3.42891E-09 1.27966E-09
 -1        34-2.23439E+05-2.14937E+04 4.34788E+02 6.61426E+04 1.16225E-08 2.57872E-09
 -1        35-2.59864E+04-3.51959E+04-1.38452E+03 5.69762E+04 1.75638E-08-5.42059E-09
 -1        51-5.79866E+03-8.22473E+05 1.09208E+04-1.87854E+06-1.45519E-10 1.12952E-07
 -1        52 1.51038E+04-8.43839E+05 1.92662E+04-2.19174E+06 2.12458E-09-1.82874E-07
 -1        53 2.21694E+04-8.77641E+05 2.86136E+04-1.87183E+06 4.00178E-09-2.41853E-07
 -1        54 5.78334E+04-8.87243E+05 6.25501E+04-2.19821E+06 1.61526E-09-1.50467E-07
 -1        55 9.50911E+04-9.15687E+05 1.20100E+05-1.87015E+06 3.05590E-09 4.63770E-08
 -1        56-2.58036E+06-2.92817E+05-1.62386E+05-9.72791E+05 3.19069E-08-2.42515E-07
 -1        57-2.56166E+06-5.17287E+05-1.08497E+05-1.05469E+06-9.68578E-09-2.74915E-07
 -1        58-2.62103E+06-3.34369E+05-3.82288E+04-9.50706E+05-5.25491E-08 1.50992E-07
 -1        59-2.51455E+06-4.69882E+05-2.26937E+04-1.08469E+06 8.34348E-10-2.09081E-07
 -1        60-2.62897E+06-3.37604E+05-8.89175E+03-9.44569E+05 4.96829E-09-1.20761E-07
 -1        61-2.50861E+06-4.61919E+05-5.15906E+03-1.08720E+06 7.18626E-08-4.69723E-08
 -1        62-2.62702E+06-3.42070E+05-2.98616E+03-9.48323E+05 5.09426E-08-1.08785E-07
 -1        63-2.51737E+06-4.48153E+05-2.29133E+03-1.07034E+06-2.82726E-08 1.37243E-07
 -1        64-2.61853E+06-3.52449E+05-4.78032E+03-9.60249E+05 2.57332E-08 4.72292E-08
 -1        65-2.53840E+06-4.25597E+05-7.43457E+03-1.03884E+06 9.34160E-08 4.25802E-07
 -1        66-2.60367E+06-3.66187E+05-1.68957E+04-9.78110E+05-3.33985E-08-2.95622E-08
 -1        67-2.57749E+06-4.08433E+05-3.82293E+04-9.97594E+05 3.60642E-08-2.20463E-07
 -1        68-2.57810E+06-3.70862E+05-6.82052E+04-1.00030E+06-2.52548E-08-2.55648E-07
 -1        69-2.67851E+06-4.81336E+05-1.90175E+05-9.38985E+05-3.23002E-08-6.08015E-08
 -1        70-2.50362E+06-2.95454E+05-2.84552E+05-1.03607E+06 1.17034E-08-1.15731E-07
 -1        86-1.38474E+04-2.43599E+06-5.77676E+04 9.75831E+04 3.10101E-08 1.27404E-07
 -1        87 3.92982E+03-2.11007E+06-4.59817E+03-3.08476E+05 5.50676E-08 2.92689E-07
 -1        88 1.21887E+04-2.25007E+06-6.06359E+04 2.10622E+05 5.17721E-08-2.57114E-09
 -1        89-8.23495E+04-2.24803E+06-1.45735E+05-3.74429E+05 7.67905E-08-6.39578E-07
 -1        90 8.07190E+04-2.30806E+06-2.56745E+05 1.63959E+05 3.00643E-08-7.03149E-08
 -1       121 3.24308E+00 5.57058E+05-9.56726E+01 5.64455E+00-3.95737E-11-1.32007E-09
 -1       122-4.99721E+01 5.56970E+05-1.83186E+02-2.25669E+01 5.23421E-11 1.36257E-09
 -1       123 3.31056E+01 5.57086E+05-3.05344E+02 1.69237E+01-1.06112E-10-2.64572E-09
 -1       124-5.57166E+02 5.56665E+05-8.14075E+02-3.73477E+01 9.97176E-11 3.35046E-09
 -1       125 3.60907E+02 5.57364E+05-1.13234E+03 2.04526E+01-1.09253E-10 2.16386E-09
 -1       191-7.13833E+01 3.72128E+05 8.63446E+00-6.16664E-01 5.32625E-10-4.97857E-09
 -1       192-6.86526E+01 3.72110E+05 2.08790E+01 3.90922E+00 8.45879E-10-5.29326E-10
 -1       193-7.38607E+01 3.72127E+05 3.58448E+01-3.44321E+00 9.64875E-10-2.76850E-09
 -1       194-7.16677E+01 3.72113E+05 7.93370E+01 8.91712E+00 5.47182E-10-3.45335E-09
 -1       195-7.86163E+01 3.72125E+05 1.52191E+02-5.79128E+00 1.38853E-09 3.62343E-09
 -1       251 5.76516E+06-2.99532E+05 7.00154E+05 7.84505E+04 9.21591E-09-6.14091E-09
 -1       252 6.09639E+06 3.46275E+05 4.98006E+05-1.36143E+05-2.07280E-09-1.98561E-08
 -1       253 5.89607E+06-4.57730E+04 1.82392E+05-2.13084E+03-1.89965E-09-2.25788E-07
 -1       254 5.94576E+06 5.31267E+04 1.14069E+05-4.10444E+04 1.30608E-08 2.86600E-08
 -1       255 5.91554E+06-7.00221E+03 4.70626E+04-1.66224E+04-1.50994E-09 1.27719E-07
 -1       256 5.92346E+06 8.34566E+03 2.79584E+04-2.40366E+04 1.73628E-08 1.27312E-07
 -1       257 5.91869E+06-1.12167E+03 1.38314E+04-1.91396E+04-4.86577E-09 2.36228E-07
 -1       258 5.92022E+06 2.14279E+03 1.09525E+04-2.18623E+04-9.21212E-09 4.13106E-07
 -1       259 5.91887E+06-8.16174E+02 1.11643E+04-1.87970E+04 8.25062E-09 1.07464E-08
 -1       260 5.92207E+06 5.69818E+03 2.02154E+04-2.66428E+04-2.79517E-08-1.78575E-07
 -1       261 5.91680E+06-4.66886E+03 3.32065E+04-1.43589E+04 2.15834E-08 1.74929E-07
 -1       262 5.93812E+06 3.57756E+04 7.94655E+04-5.56596E+04-1.12637E-08 4.68504E-07
 -1       263 5.90268E+06-3.08509E+04 1.27173E+05 1.02202E+04 6.87260E-09 9.10441E-08
 -1       264 6.07675E+06 2.40935E+05 3.53263E+05-2.15426E+05-3.87990E-09-9.87493E-08
 -1       265 5.78066E+06-2.10620E+05 4.80473E+05 1.45399E+05 2.98223E-09 3.58559E-08
 -1       266-7.62654E+04-3.56379E+04 1.79062E+05-3.75614E+02 8.29459E-10 3.18473E-07
 -1       267 8.84229E+04 4.15756E+04 1.26498E+05 4.33118E+02 2.97769E-09 1.32778E-07
 -1       268-1.18569E+04-5.88614E+03 4.70221E+04-5.52015E+01 2.57933E-09 3.87584E-08
 -1       269 1.40001E+04 7.04682E+03 3.05603E+04 6.42855E+01 7.09406E-11-5.13687E-08
 -1       270-2.10142E+03-1.15774E+03 1.47520E+04-8.72467E+00-1.97815E-10-1.35557E-07
 -1       271-8.09754E+06-1.02900E+06-6.44009E+05-3.18128E+06-1.15688E-08-3.68163E-08
 -1       272-8.23741E+06-1.56964E+06-4.11377E+05-3.25800E+06 6.59411E-08-2.29455E-07
 -1       273-8.24239E+06-1.16250E+06-1.52636E+05-3.12552E+06-3.85844E-08-1.38913E-07
 -1       274-8.06749E+06-1.41023E+06-8.40116E+04-3.35314E+06-5.08389E-08 1.35842E-07
 -1       275-8.27549E+06-1.16033E+06-3.53236E+04-3.10234E+06-1.27329E-09 4.69290E-07
 -1       276-8.03489E+06-1.40895E+06-1.86164E+04-3.38894E+06-7.35618E-08 5.40402E-07
 -1       277-8.28266E+06-1.15635E+06-9.42106E+03-3.09622E+06-1.95948E-08 5.19384E-07
 -1       278-8.03534E+06-1.40321E+06-7.52990E+03-3.38422E+06-8.30187E-09 1.48131E-07
 -1       279-8.27359E+06-1.16676E+06-1.03079E+04-3.10615E+06 3.54776E-08-8.17381E-08
 -1       280-8.05836E+06-1.37694E+06-1.81445E+04-3.34260E+06 3.68746E-08 1.91962E-07
 -1       281-8.24954E+06-1.18927E+06-3.74409E+04-3.13059E+06-5.90517E-08 9.91458E-08
 -1       282-8.11682E+06-1.34955E+06-8.35860E+04-3.27144E+06 8.78572E-08 1.06522E-07
 -1       283-8.20361E+06-1.20399E+06-1.54989E+05-3.16771E+06-1.67820E-08 1.00510E-07
 -1       284-8.31339E+06-1.48798E+06-4.12307E+05-3.15860E+06 3.15995E-08-1.55356E-07
 -1       285-8.05132E+06-1.07480E+06-6.46553E+05-3.23109E+06 2.73940E-09 4.89439E-07
 -1       301-4.58786E+04 4.06885E+05 3.86880E+03 1.30845E+06-3.12139E-09-6.85686E-08
 -1       302-4.98335E+04 4.15998E+05 2.67881E+04 1.91740E+06 2.89583E-09-3.40660E-08
 -1       303-3.46307E+04 3.91002E+05 5.52256E+04 1.30611E+06-2.85218E-09 1.59192E-07
 -1       304-2.32665E+04 4.53025E+05 1.26676E+05 1.91642E+06-4.43833E-10 1.39458E-07
 -1       305-2.14323E+04 3.89597E+05 2.23635E+05 1.31024E+06-2.91038E-10 1.31680E-07
 -1       306-3.10988E+07-2.94732E+07-1.59782E+07-1.93749E+07 1.02678E-07-4.76139E-08
 -1       307 1.18463E+07 5.83764E+07 1.17543E+07 2.51968E+07 1.04684E-06-4.16301E-07
 -1       308-2.51750E+05-1.99559E+07-3.88443E+06-2.15513E+06 5.73345E-08 8.78936E-09
 -1       309-1.49615E+07 3.12157E+07 4.24896E+06-2.05239E+07-2.29506E-07 5.78151E-07
 -1       310 3.26447E+06-1.22052E+07-6.33546E+05 8.70814E+05-1.66314E-07 8.63802E-08
 -1       311-2.58244E+06 5.12732E+07 8.96318E+06 1.13830E+07-7.45466E-07 5.91855E-07
 -1       312-2.05958E+07-3.07249E+07-1.21204E+07-1.75615E+07-1.99478E-07-2.75322E-07
 -1       313 7.06782E+07 2.92241E+07 1.66784E+07 4.09460E+07 3.88362E-07-2.79630E-07
 -1       314-4.75643E+07-9.83877E+06-1.38495E+07-6.89049E+06-4.18397E-07-3.01661E-08
 -1       315 6.49382E+07 2.42860E+06 1.17583E+07-1.46578E+07 2.59373E-07 2.24594E-07
 -1       316-1.50522E+07-5.33851E+06-3.68206E+06 8.99927E+06 7.41915E-07 7.92439E-07
 -1       317-5.65975E+06 2.19235E+07 4.25176E+06-2.74525E+07-1.00709E-06 2.97441E-07
 -1       318-5.38435E+06-3.47276E+06-8.38828E+05 7.59512E+06 9.24338E-07 1.71494E-07
 -1       319 4.18163E+07 9.23034E+06 8.90046E+06-2.39606E+07 8.87085E-08 3.07278E-07
 -1       320-4.44463E+07-9.59635E+06-1.40648E+07 1.37839E+06-1.57510E-07-2.17697E-08
 -1       336-6.21078E+02 6.02950E+05 6.05104E+03 6.18648E+01 5.78439E-10-3.11456E-09
 -1       337 2.38730E+03 6.05124E+05 9.90789E+03-1.33598E+02 1.05103E-09-6.13250E-09
 -1       338-1.32893E+03 6.02306E+05 1.59284E+04 7.16713E+01 5.82077E-10-3.31579E-09
 -1       339 1.80395E+04 6.14601E+05 3.80644E+04-1.54821E+02 5.76620E-10-5.88341E-09
 -1       340-1.28074E+04 5.93466E+05 5.95060E+04 8.17607E+01 6.14818E-10 2.54988E-09
 -1       406-4.22802E+01 3.72110E+05 6.31478E+02-2.84515E+00 1.87231E-09 8.79481E-09
 -1       407 1.57786E+02 3.72241E+05 1.34884E+03-2.28649E+01 2.70802E-10 9.36234E-09
 -1       408 6.28402E+02 3.72012E+05 2.68987E+03 2.60589E+01 2.16369E-09-7.82165E-11
 -1       409 2.85391E+03 3.73100E+05 6.06210E+03-2.74805E+02-2.52385E-11-2.67173E-08
 -1       410 8.31395E+03 3.71239E+05 1.23728E+04 2.64370E+02 2.46291E-09-1.20690E-08
 -1       521-3.06485E+07-2.93988E+07-1.65796E+07-1.73940E+07-4.07454E-09-5.61238E-07
 -1       522 8.95664E+06 5.89276E+07 1.09865E+07 2.40719E+07 8.21863E-07-1.50874E-07
 -1       523-6.14747E+05-1.91027E+07-3.65688E+06-2.15855E+06 4.81261E-07 3.25963E-09
 -1       524-1.70551E+07 3.04015E+07 4.03393E+06-2.35447E+07-3.36855E-07 7.92148E-07
 -1       525 2.95017E+06-1.24267E+07-4.79403E+05 3.94224E+05-1.20170E-07 7.38830E-07
 -1       526-5.13027E+06 5.22855E+07 8.55558E+06 9.87492E+06-4.72181E-07 1.92318E-07
 -1       527-2.09233E+07-3.00488E+07-1.25526E+07-1.59170E+07-5.41506E-07 1.76718E-07
 -1       528 7.06849E+07 2.82798E+07 1.57407E+07 4.15820E+07-2.21189E-07-2.74857E-07
 -1       529-4.56100E+07-1.14380E+07-1.44116E+07-5.98326E+06-2.24332E-07-5.12227E-08
 -1       530 6.33210E+07 2.02548E+06 1.10619E+07-1.68920E+07 9.03383E-07-1.14844E-07
 -1       531-1.46164E+07-5.36314E+06-3.47362E+06 8.45784E+06 8.26723E-07 3.40806E-07
 -1       532-1.00748E+07 2.35057E+07 4.04415E+06-2.87381E+07-1.07229E-06 3.86062E-07
 -1       533-6.01488E+06-3.33673E+06-6.87045E+05 7.45600E+06-7.55012E-07 7.57835E-07
 -1       534 3.96868E+07 9.71536E+06 8.44325E+06-2.61872E+07 6.35075E-07-5.31290E-07
 -1       535-4.25701E+07-1.10707E+07-1.45872E+07 1.36765E+06 9.52277E-08-4.17465E-07
 -1       536 2.11897E+06-8.39546E+04 1.94514E+05-2.84231E+02-1.63005E-08-1.64437E-09
 -1       537 2.20322E+06 9.72135E+04 1.37577E+05-4.49191E+03 3.97349E-10-4.90400E-09
 -1       538 2.15154E+06-1.31593E+04 5.04072E+04-2.07886E+03-7.79767E-11 1.23691E-10
 -1       539 2.16538E+06 1.52369E+04 3.17169E+04-2.51263E+03 1.29720E-08-5.01677E-09
 -1       540 2.15692E+06-2.05848E+03 1.30229E+04-2.26355E+03 5.06466E-06 4.86170E-09
 -1       541 2.15916E+06 2.42780E+03 7.85097E+03-2.30940E+03 1.00937E-05 1.65522E-08
 -1       542 2.15780E+06-3.60574E+02 3.98606E+03-2.28214E+03 1.58414E-06 6.62567E-09
 -1       543 2.15827E+06 7.05873E+02 3.42652E+03-2.29494E+03-6.92656E-06-1.22252E-08
 -1       544 2.15782E+06-3.37743E+02 3.78290E+03-2.27801E+03-3.48008E-06-9.13667E-09
 -1       545 2.15905E+06 2.23153E+03 7.26269E+03-2.35709E+03-8.55662E-09-5.16047E-09
 -1       546 2.15701E+06-1.88516E+03 1.19659E+04-2.21998E+03 3.47727E-09-5.65933E-09
 -1       547 2.16475E+06 1.39501E+04 2.90755E+04-2.96981E+03 1.30845E-09-4.16094E-10
 -1       548 2.15209E+06-1.20469E+04 4.61967E+04-1.66525E+03 4.71085E-09-1.03319E-09
 -1       549 2.19983E+06 8.91043E+04 1.26149E+05-8.86855E+03-1.79043E-10 1.03319E-09
 -1       550 2.12184E+06-7.69705E+04 1.78136E+05 3.67851E+03-1.30424E-09 4.38740E-09
 -1       551-4.84374E+03-3.27151E+05-2.54563E+04-1.38962E+06-8.10542E-09-6.21367E-09
 -1       552 1.54019E+04-3.48716E+05 6.49807E+03-1.97864E+06-1.21654E-08 2.61934E-10
 -1       553 1.39605E+04-3.50118E+05 3.72876E+04-1.38632E+06-1.53232E-08-7.64430E-09
 -1       554 4.16159E+04-3.21485E+05 9.69240E+04-1.97830E+06-7.94535E-09-2.05837E-08
 -1       555 2.88022E+04-3.49697E+05 1.76263E+05-1.39009E+06-7.77072E-09-8.96398E-09
 -1       556-4.77283E+04-6.81611E+04-6.92111E+03-9.73149E+04 6.45014E-09 3.99996E-09
 -1       557-3.09184E+04-8.59194E+04-3.56268E+03-1.19142E+05 7.25413E-09 9.36552E-10
 -1       558-4.86862E+04-6.64747E+04-1.51794E+03-9.78848E+04 3.78350E-09-7.23185E-09
 -1       559-2.99986E+04-8.52655E+04-7.37849E+02-1.19649E+05-6.49379E-10-8.90304E-09
 -1       560-4.88507E+04-6.63629E+04-3.39758E+02-9.79650E+04-1.83991E-09 2.11685E-09
 -1       561-3.00109E+04-8.52172E+04-1.64790E+02-1.19717E+05-3.47927E-09 5.76392E-09
 -1       562-4.88741E+04-6.63577E+04-8.59796E+01-9.79753E+04-6.29598E-09 3.90628E-09
 -1       563-2.99665E+04-8.52359E+04-6.14799E+01-1.19689E+05-5.90103E-09 1.13869E-09
 -1       564-4.87961E+04-6.64047E+04-8.15083E+01-9.79232E+04-4.83851E-10 3.65617E-10
 -1       565-2.98099E+04-8.53034E+04-1.38046E+02-1.19578E+05-3.49246E-10 2.69029E-09
 -1       566-4.86230E+04-6.65113E+04-2.94195E+02-9.78131E+04-1.26965E-09-4.63842E-10
 -1       567-2.95917E+04-8.54209E+04-5.89530E+02-1.19360E+05 6.19912E-09 2.33013E-09
 -1       568-4.83034E+04-6.67168E+04-1.23220E+03-9.76444E+04-2.92493E-09 4.12183E-09
 -1       569-3.02905E+04-8.58089E+04-2.80334E+03-1.18547E+05-1.10067E-08 1.68075E-09
 -1       570-4.71570E+04-6.83374E+04-5.47644E+03-9.73201E+04-4.44197E-09 3.78441E-09
 -1       571 2.60430E+05 8.58328E+03 1.28752E+04-5.84854E+04-1.47156E-09-1.97360E-10
 -1       572 2.62348E+05 2.91087E+03 6.30861E+03-6.40713E+04-2.40834E-09 4.01042E-09
 -1       573 2.61184E+05 6.21624E+02 2.80226E+03-5.83044E+04-1.67347E-09-2.85308E-09
 -1       574 2.61412E+05 1.31074E+02 1.40422E+03-6.42627E+04-3.39787E-09-7.40511E-09
 -1       575 2.61257E+05-5.86852E+01 6.61314E+02-5.82812E+04-1.39289E-09 3.56658E-09
 -1       576 2.61275E+05-8.75934E+01 3.36014E+02-6.42882E+04 2.39561E-09 9.36325E-10
 -1       577 2.61261E+05-9.04095E+01 1.63962E+02-5.82782E+04-4.19561E-09 2.35559E-09
 -1       578 2.61256E+05-9.50349E+01 8.63134E+01-6.42913E+04-1.30062E-08 2.58160E-09
 -1       579 2.61271E+05-9.01840E+01 4.69418E+01-5.82782E+04-1.01090E-08-2.68756E-09
 -1       580 2.61271E+05-1.01571E+02 3.40715E+01-6.42882E+04 2.05546E-10-8.47194E-10
 -1       581 2.61297E+05-1.01168E+02 3.50468E+01-5.82813E+04-5.32600E-09 7.43057E-10
 -1       582 2.61313E+05-1.12045E+02 5.88960E+01-6.42567E+04-2.71029E-09 8.02174E-10
 -1       583 2.61336E+05-9.90603E+01 1.06546E+02-5.83096E+04-1.15233E-09 7.08269E-10
 -1       584 2.61403E+05-3.36973E+01 2.37519E+02-6.40184E+04-5.72618E-09-8.30869E-09
 -1       585 2.61361E+05 1.74972E+02 4.77773E+02-5.85199E+04 2.74667E-10 6.29370E-10
 -1       586-4.06600E+03 7.90274E+04-6.12117E+03-1.80649E+05 2.83364E-09 5.73073E-09
 -1       587-8.11036E+02 7.80970E+04-1.74158E+03-1.98680E+05 2.88765E-09 1.62934E-08
 -1       588 9.00034E+02 7.84510E+04 1.75009E+03-1.80488E+05 2.13549E-09 1.05338E-08
 -1       589 3.84394E+03 7.96400E+04 6.56419E+03-1.98605E+05 4.67116E-09-4.54111E-09
 -1       590 1.03945E+04 7.75914E+04 1.45609E+04-1.80708E+05 2.92607E-09 3.81988E-10
 -1       591-5.61719E+04-1.79688E+04-1.99573E+04-3.14148E+04-2.88355E-09-5.04770E-10
 -1       592-5.74548E+04-2.34532E+04-1.08093E+04-3.72764E+04-5.76938E-09 7.92329E-09
 -1       593-5.82002E+04-1.64892E+04-4.50042E+03-3.28508E+04-4.16071E-09-4.07226E-10
 -1       594-5.46684E+04-2.05610E+04-2.24425E+03-3.74295E+04 3.29351E-10 4.50314E-09
 -1       595-5.83576E+04-1.64803E+04-1.03154E+03-3.29180E+04-6.07270E-09-2.61973E-09
 -1       596-5.44821E+04-2.04278E+04-5.25745E+02-3.74124E+04-5.79575E-10 6.93208E-09
 -1       597-5.83782E+04-1.64923E+04-2.89603E+02-3.29211E+04 4.28946E-09 7.18751E-09
 -1       598-5.44645E+04-2.04228E+04-2.38881E+02-3.74072E+04 8.22411E-10-1.10711E-08
 -1       599-5.83760E+04-1.64928E+04-3.12949E+02-3.29203E+04-2.88094E-09-7.37282E-09
 -1       600-5.44829E+04-2.04303E+04-5.87457E+02-3.74106E+04-9.33483E-10 7.67409E-09
 -1       601-5.83491E+04-1.64804E+04-1.16253E+03-3.29150E+04-1.00431E-09-2.06751E-09
 -1       602-5.46918E+04-2.05810E+04-2.53476E+03-3.74265E+04-3.01952E-10-5.38148E-09
 -1       603-5.81686E+04-1.64935E+04-5.08488E+03-3.28388E+04-1.52977E-09-7.13953E-10
 -1       604-5.78461E+04-2.38403E+04-1.22129E+04-3.72408E+04-1.35742E-09 5.27598E-09
 -1       605-5.58655E+04-1.81722E+04-2.25484E+04-3.12237E+04 8.99490E-10 3.98541E-09
 -1       606 4.34120E+04-1.25670E+04-2.26860E+04 4.27211E+04-9.10040E-09 8.25821E-10
 -1       607 3.95177E+04-4.01546E+03-1.12943E+04 4.79445E+04-1.06229E-09-2.25373E-09
 -1       608 4.16934E+04-6.43030E+02-5.06200E+03 4.23731E+04 7.72525E-09-6.56883E-10
 -1       609 4.12323E+04-1.06414E+02-2.55514E+03 4.83175E+04-5.15865E-09 4.54747E-13
 -1       610 4.14506E+04 9.93190E+01-1.22369E+03 4.23344E+04-3.30692E-09-6.26187E-10
 -1       611 4.13421E+04 1.44735E+02-6.16548E+02 4.83579E+04-8.85848E-10-8.10724E-09
 -1       612 4.13626E+04 1.40349E+02-2.97654E+02 4.23307E+04-8.92396E-09-1.14369E-09
 -1       613 4.13046E+04 1.75134E+02-1.36451E+02 4.83624E+04-3.19196E-08-1.78125E-09
 -1       614 4.13060E+04 1.58188E+02-4.23763E+01 4.23294E+04-1.10904E-08 2.98724E-09
 -1       615 4.12620E+04 1.97325E+02 3.44541E+01 4.83628E+04 9.44556E-09 2.15050E-09
 -1       616 4.12636E+04 1.78207E+02 1.23807E+02 4.23298E+04-8.58745E-09-4.30919E-09
 -1       617 4.12492E+04 2.40376E+02 2.91850E+02 4.83618E+04 2.59024E-09-9.84164E-09
 -1       618 4.12179E+04 2.75141E+02 5.90916E+02 4.23298E+04 1.30785E-09 1.79080E-09
 -1       619 4.14411E+04 7.07632E+02 1.32931E+03 4.83604E+04 4.80327E-09 1.66574E-09
 -1       620 4.10112E+04 1.68521E+03 2.67205E+03 4.23263E+04 4.33943E-09 3.69255E-09
 -1       621 6.29381E+02 3.02478E+05 5.14463E+03-1.88974E+03-9.13133E-10 9.53787E-09
 -1       622 6.97691E+02 3.03757E+05 4.05845E+03-2.59001E+03-8.30539E-10 1.62346E-08
 -1       623 3.30139E+01 3.02892E+05 4.26397E+03-1.88087E+03-9.49626E-10 7.48281E-09
 -1       624 1.83271E+03 3.04801E+05 7.74558E+03-2.60270E+03-1.05001E-09-2.19018E-09
 -1       625 1.83104E+03 3.01432E+05 1.32994E+04-1.87428E+03-8.77662E-10 5.66672E-10
 -1       626 2.33173E+05 6.86721E+04 4.27584E+03 1.31709E+05-3.98359E-10 4.34193E-09
 -1       627 2.29450E+05 7.16217E+04 2.06207E+03 1.37268E+05-2.72485E-09-8.89440E-09
 -1       628 2.33346E+05 6.66107E+04 8.68365E+02 1.32285E+05 1.06775E-08 9.79935E-09
 -1       629 2.28745E+05 7.11992E+04 4.27360E+02 1.37583E+05 8.21001E-09-6.17922E-09
 -1       630 2.33333E+05 6.65257E+04 1.96429E+02 1.32279E+05 7.31234E-09-2.68301E-10
 -1       631 2.28636E+05 7.12040E+04 1.07250E+02 1.37571E+05 3.08864E-09-1.08930E-08
 -1       632 2.33301E+05 6.65450E+04 7.20364E+01 1.32256E+05-5.59612E-09-3.62809E-09
 -1       633 2.28601E+05 7.12192E+04 8.39714E+01 1.37549E+05-7.83302E-09-4.16082E-09
 -1       634 2.33273E+05 6.65533E+04 1.37922E+02 1.32241E+05 1.13496E-08-1.99748E-09
 -1       635 2.28595E+05 7.12265E+04 2.81859E+02 1.37540E+05 1.25440E-08-2.16551E-09
 -1       636 2.33250E+05 6.65566E+04 5.69557E+02 1.32232E+05-6.33008E-10 8.43784E-09
 -1       637 2.28705E+05 7.13193E+04 1.25192E+03 1.37530E+05 3.35388E-09 4.13957E-09
 -1       638 2.33199E+05 6.68363E+04 2.57274E+03 1.32101E+05-3.74234E-09 1.81899E-12
 -1       639 2.30051E+05 7.32020E+04 6.08577E+03 1.37133E+05-1.25996E-08-5.27871E-09
 -1       640 2.33030E+05 7.24285E+04 1.26287E+04 1.29716E+05-2.70165E-09 1.27193E-09
 -1       656 6.52981E+04-1.64391E+06-1.57570E+05 1.57467E+03-2.11003E-10-7.45257E-09
 -1       657-8.62521E+04-1.71490E+06-1.30194E+05 1.26887E+04-2.14641E-10-2.31793E-09
 -1       658 2.06508E+04-1.66419E+06-7.97271E+04-8.62939E+02 2.67255E-09 4.95902E-10
 -1       659-9.20800E+04-1.71768E+06-1.37847E+05 1.42070E+04-2.76486E-10-1.54623E-09
 -1       660 7.11154E+04-1.64114E+06-1.70712E+05 5.63614E+01-9.96806E-10-5.12588E-09
 -1       661 2.66611E+05 2.95344E+04 2.49734E+04 1.04498E+05 6.78665E-09 3.12866E-10
 -1       662 2.79430E+05 4.93070E+04 1.68274E+04 1.00374E+05 1.73850E-09-4.69299E-09
 -1       663 2.71519E+05 3.75411E+04 5.88668E+03 1.03072E+05-3.33341E-09 7.36918E-10
 -1       664 2.73745E+05 3.99416E+04 3.51937E+03 1.02116E+05 4.94904E-09 4.50359E-09
 -1       665 2.72260E+05 3.86364E+04 1.38799E+03 1.02856E+05-5.93809E-09-4.78212E-09
 -1       666 2.72868E+05 3.86888E+04 8.08839E+02 1.02398E+05-1.87856E-08 4.81882E-09
 -1       667 2.72391E+05 3.87606E+04 4.25060E+02 1.02802E+05-2.23062E-09-4.90869E-09
 -1       668 2.72720E+05 3.86003E+04 4.23608E+02 1.02482E+05 5.21645E-09 8.66436E-11
 -1       669 2.72408E+05 3.87218E+04 5.65042E+02 1.02774E+05 3.78694E-09 2.17767E-10
 -1       670 2.72844E+05 3.89158E+04 1.22319E+03 1.02501E+05 1.58707E-08 8.43147E-09
 -1       671 2.72268E+05 3.84510E+04 2.16896E+03 1.02780E+05-4.45925E-09-2.78760E-10
 -1       672 2.74090E+05 4.10421E+04 5.54727E+03 1.02216E+05-6.55957E-09-3.91464E-09
 -1       673 2.71168E+05 3.66483E+04 9.29534E+03 1.03039E+05-3.74484E-09-1.50567E-09
 -1       674 2.82925E+05 5.59855E+04 2.65812E+04 9.96301E+04-5.21800E-09 3.56431E-09
 -1       675 2.63490E+05 2.39247E+04 3.94563E+04 1.05208E+05-2.22281E-09 2.02090E-09
 -1       676 2.79766E+01-3.26773E+05-1.28908E+03 1.81532E+02-4.93594E-09-4.41446E-09
 -1       677-3.40507E+02-3.27087E+05-2.35928E+03-3.62730E+02-1.57752E-08-3.55836E-09
 -1       678 2.28787E+02-3.26551E+05-4.17063E+03 1.81074E+02-2.63731E-09-2.08847E-09
 -1       679-4.17037E+03-3.29604E+05-9.90785E+03-3.61122E+02-1.35315E-08-3.95505E-09
 -1       680 2.49039E+03-3.24257E+05-1.59680E+04 1.77829E+02-3.05226E-09 3.20426E-09
 -1       771-3.55064E+06-5.04514E+05-1.72774E+05-1.31233E+06 3.68891E-09 1.30967E-09
 -1       772-3.59808E+06-5.15590E+05-9.35974E+04-1.32099E+06 2.23554E-09-9.95897E-09
 -1       773-3.56741E+06-4.92544E+05-3.88850E+04-1.32540E+06 3.96176E-09 1.50794E-09
 -1       774-3.57472E+06-4.89580E+05-1.93449E+04-1.32128E+06 6.18456E-10-2.45382E-09
 -1       775-3.56858E+06-4.92644E+05-8.81035E+03-1.32615E+06 1.85173E-09 5.28814E-09
 -1       776-3.57336E+06-4.88133E+05-4.32739E+03-1.32080E+06-3.59205E-09 4.27963E-09
 -1       777-3.56865E+06-4.92866E+05-2.07410E+03-1.32632E+06-6.20821E-09 8.69022E-10
 -1       778-3.57341E+06-4.87863E+05-1.14132E+03-1.32051E+06-3.20142E-10 6.65284E-09
 -1       779-3.56860E+06-4.92976E+05-8.10843E+02-1.32644E+06 4.63933E-09-2.90424E-09
 -1       780-3.57361E+06-4.87691E+05-9.90332E+02-1.32034E+06 1.22996E-08 6.11180E-09
 -1       781-3.56852E+06-4.93025E+05-1.68396E+03-1.32653E+06 4.50837E-09-5.13751E-09
 -1       782-3.57404E+06-4.87772E+05-3.52776E+03-1.32024E+06 1.36060E-09-3.20813E-09
 -1       783-3.56825E+06-4.93073E+05-7.01743E+03-1.32649E+06 7.36486E-09 7.99810E-09
 -1       784-3.57841E+06-4.92292E+05-1.68510E+04-1.32003E+06 6.31360E-10-1.31877E-09
 -1       785-3.56518E+06-4.95295E+05-3.11048E+04-1.32422E+06-7.63976E-11-2.27374E-09
 -1       786 3.08282E+05-1.42965E+04 3.30793E+04 3.46788E+02 2.08750E-09 6.93035E-10
 -1       787 3.22615E+05 1.65513E+04 2.34030E+04 3.92375E+01 1.31152E-09 3.14867E-09
 -1       788 3.13814E+05-2.24096E+03 8.56315E+03 2.83285E+02-2.85627E-10 5.80667E-09
 -1       789 3.16173E+05 2.59337E+03 5.38189E+03 1.28620E+02 2.58113E-08 1.97736E-09
 -1       790 3.14727E+05-3.50045E+02 2.19334E+03 2.57417E+02 7.78908E-06-4.79656E-09
 -1       791 3.15108E+05 4.07994E+02 1.29428E+03 1.61209E+02 1.55064E-05-1.21743E-08
 -1       792 3.14879E+05-5.72291E+01 6.03482E+02 2.50698E+02-2.01086E-07 3.11383E-09
 -1       793 3.14940E+05 8.69070E+01 4.21395E+02 1.59693E+02-1.59086E-05 1.12349E-08
 -1       794 3.14896E+05-2.91688E+01 3.51829E+02 2.58934E+02-7.99164E-06 3.26345E-09
 -1       795 3.14979E+05 1.66798E+02 5.66195E+02 1.23863E+02-2.37354E-08 6.43218E-09
 -1       796 3.14840E+05-1.37067E+02 8.82746E+02 2.86528E+02-6.88141E-10-2.26686E-09
 -1       797 3.15390E+05 1.01021E+03 2.11006E+03 3.42084E+01-2.08829E-09 7.85607E-09
 -1       798 3.14484E+05-8.71968E+02 3.33948E+03 3.48589E+02-1.40731E-09-4.69299E-10
 -1       799 3.17903E+05 6.44172E+03 9.11315E+03-1.60387E+02-2.89840E-09-8.46421E-09
 -1       800 3.12326E+05-5.56422E+03 1.28729E+04 4.81120E+02-5.49687E-10-5.62977E-10
 -1       801-2.34227E+05 5.72685E+06 5.60150E+05 2.73095E+03 7.74162E-09 4.55296E-09
 -1       802 3.26896E+05 6.01917E+06 5.01152E+05-1.29223E+05 1.94414E-08-1.65008E-09
 -1       803-9.00166E+04 5.80590E+06 3.49589E+05-7.58051E+04 1.15251E-08 3.42629E-09
 -1       804 4.64162E+05 6.08208E+06 6.80398E+05-1.29130E+05 1.52795E-08 3.76781E-09
 -1       805-3.71212E+05 5.66385E+06 8.70483E+05 2.63127E+03 3.20142E-09 4.56763E-08
 -1       806-2.82149E+05-6.89249E+04-2.76438E+04-1.26278E+05 8.12634E-10-5.44969E-09
 -1       807-2.82976E+05-6.57698E+04-1.35803E+04-1.34521E+05 1.55421E-09 4.99517E-09
 -1       808-2.82981E+05-5.88944E+04-5.76044E+03-1.30926E+05-2.56364E-09 7.70797E-10
 -1       809-2.80030E+05-6.20501E+04-2.81518E+03-1.34980E+05-4.11660E-09 8.90520E-09
 -1       810-2.83113E+05-5.85352E+04-1.28858E+03-1.31131E+05-1.65943E-09 6.76778E-10
 -1       811-2.79807E+05-6.19053E+04-6.37616E+02-1.34956E+05 9.69035E-09-1.26124E-09
 -1       812-2.83136E+05-5.85593E+04-3.15791E+02-1.31131E+05 9.22910E-09-4.83715E-09
 -1       813-2.79777E+05-6.19105E+04-1.95095E+02-1.34939E+05 1.37964E-08 1.63864E-08
 -1       814-2.83131E+05-5.85709E+04-1.76412E+02-1.31125E+05 5.52791E-09 9.60426E-10
 -1       815-2.79774E+05-6.19156E+04-2.69128E+02-1.34930E+05 8.64475E-10-5.93172E-09
 -1       816-2.83107E+05-5.85732E+04-5.00609E+02-1.31117E+05-2.18006E-09 1.21418E-09
 -1       817-2.79851E+05-6.19663E+04-1.07035E+03-1.34913E+05 8.84847E-09 2.42130E-09
 -1       818-2.83032E+05-5.87302E+04-2.18133E+03-1.31041E+05 6.53472E-09 7.25458E-09
 -1       819-2.81053E+05-6.32680E+04-5.13171E+03-1.34598E+05-1.06957E-09-1.02409E-09
 -1       820-2.82597E+05-6.26228E+04-1.04456E+04-1.29387E+05-2.90675E-09-2.01703E-09
 -1       821-3.70667E+05 2.09524E+04-4.86337E+04 6.48636E+02-5.91342E-10 1.66256E-09
 -1       822-3.90893E+05-2.42778E+04-3.42709E+04-4.32279E+03-4.68209E-10-3.94493E-09
 -1       823-3.78405E+05 3.30498E+03-1.25754E+04 1.69017E+03-2.59142E-09 1.43473E-09
 -1       824-3.81705E+05-3.82797E+03-7.88940E+03-5.09695E+03 8.46626E-10-7.00311E-10
 -1       825-3.79858E+05 5.23673E+02-3.27413E+03 1.42281E+03 1.95223E-09-6.80757E-10
 -1       826-3.79637E+05-5.99485E+02-1.83630E+03-3.42667E+03 1.20022E-09-8.02402E-10
 -1       827-3.80457E+05 6.77281E+01-1.11445E+03 1.98731E+01-5.90026E-09 1.22566E-09
 -1       828-3.79108E+05-1.49665E+02-6.98018E+02-2.49273E+02-1.43303E-08 1.20145E-08
 -1       829-3.80379E+05 6.72538E+01-1.10346E+03-1.75459E+03-1.30527E-10 3.34404E-09
 -1       830-3.79818E+05-5.89668E+02-1.87979E+03 2.70382E+03-3.66099E-08 5.04235E-09
 -1       831-3.79760E+05 5.17692E+02-3.27781E+03-2.93331E+03-1.32954E-05 5.52820E-08
 -1       832-3.81767E+05-3.82226E+03-7.94396E+03 3.82895E+03-2.64704E-05 1.18152E-07
 -1       833-3.78442E+05 3.30563E+03-1.26694E+04-2.87978E+03-1.32894E-05 5.35429E-08
 -1       834-3.90834E+05-2.44024E+04-3.44607E+04 2.51225E+03-4.18956E-08-2.29966E-09
 -1       835-3.70685E+05 2.10729E+04-4.89658E+04-1.61648E+03 8.48081E-09-6.87578E-09
 -1       836-1.21245E+03 3.70642E+05 2.20123E+04-4.09998E+04 6.41467E-09-2.00635E-09
 -1       837 5.04399E+03 3.77351E+05 1.87470E+04-8.20285E+04 8.05676E-09-4.47926E-09
 -1       838-3.67270E+02 3.72522E+05 1.92531E+04-4.08826E+04 6.91762E-09 1.53898E-09
 -1       839 1.25257E+04 3.82921E+05 3.65686E+04-8.20460E+04 8.53106E-09-2.50202E-09
 -1       840-3.61939E+03 3.65010E+05 5.83652E+04-4.09755E+04 6.35555E-09-2.49292E-09
 -1       856-1.45272E+05 1.09566E+04-2.88801E+04-8.23446E+02-8.89793E-09-2.94858E-09
 -1       857-1.57208E+05-1.28387E+04-1.98826E+04 6.08652E+03-6.41108E-09 1.36720E-09
 -1       858-1.49984E+05 1.53320E+03-7.49602E+03-8.68321E+02-1.03637E-08-5.64978E-09
 -1       859-1.51800E+05-1.76920E+03-4.52774E+03 6.16083E+03 1.39684E-09-4.30350E-09
 -1       860-1.50687E+05 2.11377E+02-1.90611E+03-8.98351E+02-4.24194E-10-5.47595E-09
 -1       861-1.50991E+05-2.19311E+02-1.06579E+03 6.20220E+03-1.05738E-08-5.96964E-09
 -1       862-1.50796E+05 2.65048E+01-4.77893E+02-9.09803E+02 1.05017E-08 1.20835E-09
 -1       863-1.50864E+05-3.31174E+00-2.53212E+02 6.20679E+03 2.25970E-08 2.48242E-09
 -1       864-1.50815E+05 2.33205E-01-1.13758E+02-9.02954E+02 1.76440E-08-3.90813E-10
 -1       865-1.50835E+05 2.76828E+01-4.77414E+01 6.17398E+03 1.58919E-08-2.08637E-09
 -1       866-1.50822E+05-6.34103E+00-5.83729E+00-8.76977E+02 1.28244E-09-1.51255E-09
 -1       867-1.50807E+05 4.90165E+01 4.64792E+01 6.10364E+03 5.98180E-09-1.96110E-09
 -1       868-1.50836E+05-2.53705E+01 8.85683E+01-8.32589E+02-1.27545E-09-1.19967E-09
 -1       869-1.50715E+05 1.91880E+02 2.62606E+02 5.99183E+03 3.49797E-09-6.05962E-09
 -1       870-1.50904E+05-1.52135E+02 3.72924E+02-7.65147E+02 1.10415E-08-5.50020E-09
 -1       871-5.65930E+03-9.00623E+03-1.74728E+04 1.12634E+05 5.68434E-09-9.09495E-11
 -1       872-2.65975E+03-1.28633E+04-7.03898E+03 1.46020E+05 1.17170E-08 3.85899E-09
 -1       873-2.91532E+02-1.11376E+04 1.21454E+03 1.12390E+05 7.52198E-09 2.28465E-09
 -1       874 2.48035E+03-8.41564E+03 1.03684E+04 1.46081E+05 1.48138E-08 8.19091E-09
 -1       875 6.35609E+03-1.35639E+04 2.28470E+04 1.12603E+05 8.33643E-09 3.84807E-09
 -1       876 2.95164E+05 5.16389E+04 1.61620E+04 1.20675E+05-5.69844E-09 3.04681E-10
 -1       877 2.95988E+05 5.52900E+04 8.63121E+03 1.25554E+05-1.35742E-08 3.59023E-10
 -1       878 2.96670E+05 4.98542E+04 3.61570E+03 1.22004E+05 1.04314E-08 7.81233E-09
 -1       879 2.93786E+05 5.31015E+04 1.80123E+03 1.25665E+05-1.43496E-09 2.00362E-09
 -1       880 2.96777E+05 4.98365E+04 8.38095E+02 1.22058E+05 3.61433E-09 3.55374E-09
 -1       881 2.93639E+05 5.30080E+04 4.45878E+02 1.25639E+05 1.34245E-08-1.35221E-09
 -1       882 2.96786E+05 4.98512E+04 2.81973E+02 1.22059E+05 1.83747E-08 4.82217E-09
 -1       883 2.93628E+05 5.30033E+04 2.98081E+02 1.25631E+05 2.62850E-09 5.20201E-09
 -1       884 2.96779E+05 4.98486E+04 4.69405E+02 1.22059E+05-2.55113E-10-7.40897E-10
 -1       885 2.93665E+05 5.30100E+04 9.40759E+02 1.25642E+05 1.40719E-08 4.23927E-09
 -1       886 2.96743E+05 4.98210E+04 1.89448E+03 1.22056E+05 7.11930E-09-1.61640E-09
 -1       887 2.93998E+05 5.32283E+04 4.13749E+03 1.25691E+05-1.58465E-08-6.48697E-09
 -1       888 2.96483E+05 4.98659E+04 8.33666E+03 1.21923E+05-6.35606E-09 8.10178E-09
 -1       889 2.98969E+05 5.83826E+04 1.99148E+04 1.25533E+05-1.31664E-08 1.73586E-08
 -1       890 2.93094E+05 5.38943E+04 3.72996E+04 1.18736E+05-2.75440E-09 7.41602E-09
 -1       891-2.59362E+02-1.69716E+05-1.97390E+03 3.40934E+04 5.56770E-09 6.95468E-09
 -1       892-4.37321E+02-1.70142E+05-2.15771E+03 5.14972E+04-6.90670E-09 6.63590E-09
 -1       893-1.36990E+02-1.69765E+05-3.09629E+03 3.40999E+04 3.09637E-09 2.95586E-10
 -1       894-1.82490E+03-1.71308E+05-6.43465E+03 5.13142E+04 7.94216E-10-1.40703E-08
 -1       895-1.42534E+03-1.68405E+05-1.13474E+04 3.42705E+04-4.19459E-09-5.18776E-09
 -1       956-3.67670E+05-5.41639E+03-1.37307E+04 2.29035E+04-5.76711E-09-5.71072E-09
 -1       957-3.70391E+05-1.79089E+03-7.04831E+03 2.76207E+04 4.20141E-09 1.24601E-09
 -1       958-3.68894E+05-1.06256E+02-3.17608E+03 2.27332E+04 1.05056E-08 2.06842E-09
 -1       959-3.69123E+05 2.82740E+01-1.62182E+03 2.77988E+04-1.50976E-09 4.95015E-09
 -1       960-3.69009E+05 9.00511E+01-7.90681E+02 2.27164E+04-1.21609E-08 3.17664E-09
 -1       961-3.69036E+05 1.00434E+02-4.18411E+02 2.78182E+04-2.53174E-08 2.91152E-09
 -1       962-3.69035E+05 8.77231E+01-2.37990E+02 2.27133E+04-9.52514E-09 1.19735E-09
 -1       963-3.69037E+05 1.05075E+02-1.87759E+02 2.78227E+04-1.15851E-08 6.29302E-09
 -1       964-3.69044E+05 9.26626E+01-2.24165E+02 2.27117E+04-4.61455E-09 6.33236E-10
 -1       965-3.69055E+05 1.11223E+02-3.84017E+02 2.78239E+04 6.51363E-09 4.59499E-09
 -1       966-3.69035E+05 1.04642E+02-7.19079E+02 2.27120E+04-4.91826E-09-1.58116E-09
 -1       967-3.69152E+05 5.58776E+01-1.47399E+03 2.78165E+04 7.92397E-10-1.51294E-09
 -1       968-3.68946E+05-6.41723E+01-2.88419E+03 2.27196E+04-5.50472E-10-5.74153E-09
 -1       969-3.70323E+05-1.58817E+03-6.40404E+03 2.77324E+04 6.31189E-10 9.41895E-10
 -1       970-3.67846E+05-4.88318E+03-1.24737E+04 2.28071E+04 6.40512E-09-1.04228E-09
 -1       971-3.54867E+05-1.89846E+03-1.07520E+04 1.76775E+04-1.11304E-08 2.47013E-09
 -1       972-3.57498E+05-1.32867E+03-5.85441E+03 2.48543E+04-1.12227E-08-4.06999E-09
 -1       973-3.56069E+05 2.75748E+01-2.62230E+03 1.75208E+04-8.26549E-09 1.55524E-09
 -1       974-3.56273E+05 5.08239E+01-1.35759E+03 2.50210E+04 1.74941E-09-1.02841E-09
 -1       975-3.56168E+05 8.23551E+01-6.76697E+02 1.75052E+04 5.13546E-09-2.54227E-09
 -1       976-3.56207E+05 1.11181E+02-3.85717E+02 2.50405E+04-5.25688E-09-4.07658E-09
 -1       977-3.56190E+05 8.49334E+01-2.72345E+02 1.75009E+04 5.90853E-09 3.95642E-09
 -1       978-3.56215E+05 1.19707E+02-3.07914E+02 2.50465E+04 2.78148E-08-1.90289E-09
 -1       979-3.56192E+05 9.45138E+01-4.85817E+02 1.74991E+04 1.23711E-08 5.30576E-10
 -1       980-3.56251E+05 1.23308E+02-9.32472E+02 2.50476E+04 5.03010E-09-3.26258E-09
 -1       981-3.56162E+05 1.17418E+02-1.80335E+03 1.74998E+04 3.18846E-09 3.27248E-09
 -1       982-3.56497E+05-1.10489E+01-3.72602E+03 2.50390E+04 4.39309E-09-1.14525E-09
 -1       983-3.55933E+05 2.17010E-01-7.23943E+03 1.75083E+04-1.65664E-09 4.30646E-09
 -1       984-3.59972E+05-3.79495E+03-1.62115E+04 2.49350E+04-1.40699E-08 3.96835E-09
 -1       985-3.52651E+05-5.29929E+03-2.97701E+04 1.76222E+04 5.81531E-09 2.55022E-09
 -3
    1PSTEP                        31          16           1          
  100CL  116 7.41943E-01         409                     0   16           1
 -4  DISP        4    1
 -5  D1          1    2    1    0
 -5  D2          1    2    2    0
 -5  D3          1    2    3    0
 -5  ALL         1    2    0    0    1ALL
 -1         1 4.26673E-03 0.00000E+00 0.00000E+00
 -1         2 4.57204E-03 2.85370E-27 0.00000E+00
 -1         3 4.19349E-05-1.48236E-27 0.00000E+00
 -1         5 6.75524E-05 6.15342E-27 0.00000E+00
 -1         8 4.21718E-03-2.19374E-06 0.00000E+00
 -1         9 4.25281E-03-1.50106E-05 0.00000E+00
 -1        10 4.29190E-05 1.40885E-06-3.30872E-24
 -1        12 6.57421E-05 7.88869E-07 0.00000E+00
 -1        15 4.15860E-03-2.52024E-06-8.27181E-25
 -1        16 4.15958E-03-1.50533E-05 0.00000E+00
 -1        17 4.62065E-05 2.91390E-06 0.00000E+00
 -1        18 5.88441E-05-1.23783E-05 0.00000E+00
 -1        19 6.03103E-05 1.57144E-06 0.00000E+00
 -1        20 6.05160E-05 3.56853E-05 0.00000E+00
 -1        21 5.98157E-05 7.01151E-05 3.30872E-24
 -1        24 2.54425E-05 2.14732E-06 0.00000E+00
 -1        25 5.11286E-05-1.22192E-05 0.00000E+00
 -1        26 5.29001E-05 2.20573E-06 0.00000E+00
 -1        27 5.07186E-05 3.22072E-05 0.00000E+00
 -1        28 4.98253E-05 6.94170E-05 0.00000E+00
 -1        32 0.00000E+00 0.00000E+00 0.00000E+00
 -1        33 4.32310E-05 2.97006E-06 0.00000E+00
 -1        34 4.11242E-05 3.21741E-05 0.00000E+00
 -1        35 3.90779E-05 6.90501E-05 0.00000E+00
 -1        51 4.26349E-03-3.42967E-07 0.00000E+00
 -1        52 4.25750E-03-6.89062E-07 0.00000E+00
 -1        53 4.24930E-03-1.04481E-06 0.00000E+00
 -1        54 4.23947E-03-1.41270E-06 6.61744E-24
 -1        55 4.22857E-03-1.79229E-06 3.30872E-24
 -1        56 4.26628E-03-1.88683E-06 2.64698E-23
 -1        57 4.26686E-03-6.61657E-06 0.00000E+00
 -1        58 4.26828E-03-1.36137E-05 0.00000E+00
 -1        59 4.27029E-03-2.22538E-05-1.32349E-23
 -1        60 4.27264E-03-3.18067E-05-2.64698E-23
 -1        61 4.27505E-03-4.15200E-05-1.32349E-23
 -1        62 4.27723E-03-5.06306E-05 0.00000E+00
 -1        63 4.27892E-03-5.83921E-05 1.32349E-23
 -1        64 4.27987E-03-6.41419E-05 0.00000E+00
 -1        65 4.27985E-03-6.72712E-05-1.32349E-23
 -1        66 4.27869E-03-6.73337E-05-2.64698E-23
 -1        67 4.27623E-03-6.39643E-05 0.00000E+00
 -1        68 4.27240E-03-5.70101E-05-2.64698E-23
 -1        69 4.26718E-03-4.64099E-05 0.00000E+00
 -1        70 4.26061E-03-3.23315E-05 0.00000E+00
 -1        86 4.55430E-03-1.11155E-06-2.64698E-23
 -1        87 4.50178E-03-3.39787E-06 0.00000E+00
 -1        88 4.42918E-03-6.83391E-06 0.00000E+00
 -1        89 4.35194E-03-1.05982E-05-1.32349E-23
 -1        90 4.28750E-03-1.35322E-05 0.00000E+00
 -1       121 4.19621E-05 2.34751E-07 0.00000E+00
 -1       122 4.20438E-05 4.69503E-07 0.00000E+00
 -1       123 4.21801E-05 7.04254E-07-6.61744E-24
 -1       124 4.23712E-05 9.39040E-07 0.00000E+00
 -1       125 4.26173E-05 1.17379E-06 6.61744E-24
 -1       191 6.75021E-05 1.31540E-07-6.61744E-24
 -1       192 6.73513E-05 2.63068E-07 0.00000E+00
 -1       193 6.70999E-05 3.94578E-07-6.61744E-24
 -1       194 6.67479E-05 5.26056E-07 0.00000E+00
 -1       195 6.62953E-05 6.57491E-07 6.61744E-24
 -1       251 4.21927E-03 4.48962E-06 2.64698E-23
 -1       252 4.22151E-03 5.48250E-06 2.64698E-23
 -1       253 4.22374E-03 3.30817E-06 0.00000E+00
 -1       254 4.22599E-03 1.81381E-07 0.00000E+00
 -1       255 4.22824E-03-3.47502E-06 5.29396E-23
 -1       256 4.23050E-03-7.28877E-06-2.64698E-23
 -1       257 4.23275E-03-1.11867E-05-5.29396E-23
 -1       258 4.23501E-03-1.51034E-05 0.00000E+00
 -1       259 4.23726E-03-1.90101E-05-5.29396E-23
 -1       260 4.23952E-03-2.28764E-05 0.00000E+00
 -1       261 4.24177E-03-2.65955E-05 0.00000E+00
 -1       262 4.24402E-03-3.00466E-05-2.64698E-23
 -1       263 4.24628E-03-3.25990E-05-5.29396E-23
 -1       264 4.24852E-03-3.35363E-05 0.00000E+00
 -1       265 4.25075E-03-2.90994E-05 0.00000E+00
 -1       266 4.20741E-03-2.27411E-06 1.32349E-23
 -1       267 4.19765E-03-2.32536E-06 0.00000E+00
 -1       268 4.18789E-03-2.37846E-06 0.00000E+00
 -1       269 4.17812E-03-2.42609E-06 0.00000E+00
 -1       270 4.16836E-03-2.47360E-06-8.27181E-25
 -1       271 4.21107E-03 4.02717E-06-5.29396E-23
 -1       272 4.20650E-03 5.88922E-06 0.00000E+00
 -1       273 4.20340E-03 3.86912E-06-1.05879E-22
 -1       274 4.20149E-03-1.43735E-06-5.29396E-23
 -1       275 4.20053E-03-9.27098E-06 0.00000E+00
 -1       276 4.20016E-03-1.87698E-05-5.29396E-23
 -1       277 4.20007E-03-2.89932E-05 0.00000E+00
 -1       278 4.19988E-03-3.89700E-05 5.29396E-23
 -1       279 4.19925E-03-4.77405E-05 0.00000E+00
 -1       280 4.19784E-03-5.43971E-05 0.00000E+00
 -1       281 4.19535E-03-5.81301E-05-1.05879E-22
 -1       282 4.19151E-03-5.82555E-05-5.29396E-23
 -1       283 4.18611E-03-5.42560E-05 1.05879E-22
 -1       284 4.17902E-03-4.57853E-05-5.29396E-23
 -1       285 4.17014E-03-3.27125E-05-5.29396E-23
 -1       301 4.23617E-03-1.50231E-05 0.00000E+00
 -1       302 4.22148E-03-1.50053E-05 0.00000E+00
 -1       303 4.20762E-03-1.49760E-05 3.30872E-24
 -1       304 4.19344E-03-1.49558E-05 0.00000E+00
 -1       305 4.17780E-03-1.49631E-05 0.00000E+00
 -1       306 4.14209E-03 1.80229E-04 0.00000E+00
 -1       307 3.78902E-03 6.48883E-04-5.29396E-23
 -1       308 3.16340E-03 1.28391E-03 1.05879E-22
 -1       309 2.33081E-03 1.98125E-03 5.29396E-23
 -1       310 1.45626E-03 2.68751E-03 0.00000E+00
 -1       311 7.17408E-04 3.36357E-03 0.00000E+00
 -1       312 2.21187E-04 3.93077E-03 0.00000E+00
 -1       313-6.79672E-06 4.28256E-03 0.00000E+00
 -1       314-2.61088E-05 4.29878E-03 0.00000E+00
 -1       315 3.19405E-05 3.95750E-03 1.05879E-22
 -1       316 6.30906E-05 3.29484E-03 0.00000E+00
 -1       317 2.08339E-05 2.42642E-03 0.00000E+00
 -1       318-4.06820E-05 1.51562E-03 1.05879E-22
 -1       319-4.69504E-05 7.28079E-04 5.29396E-23
 -1       320 4.76357E-06 1.94772E-04 0.00000E+00
 -1       336 4.32841E-05 1.66237E-06 6.61744E-24
 -1       337 4.37210E-05 1.91598E-06 3.30872E-24
 -1       338 4.42306E-05 2.16931E-06 6.61744E-24
 -1       339 4.48139E-05 2.42105E-06-3.30872E-24
 -1       340 4.54721E-05 2.67288E-06 3.30872E-24
 -1       406 6.50882E-05 9.20174E-07-6.61744E-24
 -1       407 6.43337E-05 1.05137E-06 0.00000E+00
 -1       408 6.34784E-05 1.18240E-06 0.00000E+00
 -1       409 6.25225E-05 1.31310E-06-6.61744E-24
 -1       410 6.14662E-05 1.44319E-06 0.00000E+00
 -1       521 4.04754E-03 1.80198E-04 0.00000E+00
 -1       522 3.69561E-03 6.46721E-04-5.29396E-23
 -1       523 3.07669E-03 1.27841E-03 1.05879E-22
 -1       524 2.25979E-03 1.97226E-03 5.29396E-23
 -1       525 1.40296E-03 2.67526E-03 1.05879E-22
 -1       526 6.76268E-04 3.34724E-03-1.05879E-22
 -1       527 1.87478E-04 3.90920E-03 2.11758E-22
 -1       528-3.72207E-05 4.25577E-03-1.05879E-22
 -1       529-5.59407E-05 4.26741E-03-2.11758E-22
 -1       530 1.20854E-06 3.92417E-03 0.00000E+00
 -1       531 3.24886E-05 3.26437E-03 2.11758E-22
 -1       532-5.52826E-06 2.40579E-03 5.29396E-23
 -1       533-6.17855E-05 1.50587E-03 0.00000E+00
 -1       534-6.62181E-05 7.24610E-04 0.00000E+00
 -1       535-1.49653E-05 1.94201E-04-2.11758E-22
 -1       536 4.69653E-05 2.05263E-06 0.00000E+00
 -1       537 4.77560E-05 1.02117E-06 6.61744E-24
 -1       538 4.85447E-05-1.01836E-07-2.64698E-23
 -1       539 4.93394E-05-1.24116E-06 0.00000E+00
 -1       540 5.01343E-05-2.38924E-06-2.64698E-23
 -1       541 5.09304E-05-3.53885E-06 0.00000E+00
 -1       542 5.17267E-05-4.68927E-06-2.64698E-23
 -1       543 5.25231E-05-5.83975E-06 0.00000E+00
 -1       544 5.33196E-05-6.98983E-06 0.00000E+00
 -1       545 5.41159E-05-8.13907E-06 1.32349E-23
 -1       546 5.49120E-05-9.28340E-06 0.00000E+00
 -1       547 5.57071E-05-1.04186E-05-1.32349E-23
 -1       548 5.65020E-05-1.15020E-05 0.00000E+00
 -1       549 5.72913E-05-1.24893E-05 0.00000E+00
 -1       550 5.80828E-05-1.29361E-05 1.32349E-23
 -1       551 4.42820E-05 2.80152E-06 0.00000E+00
 -1       552 4.03265E-05 2.68169E-06 1.65436E-24
 -1       553 3.53975E-05 2.55811E-06-6.61744E-24
 -1       554 3.05634E-05 2.43106E-06 0.00000E+00
 -1       555 2.68927E-05 2.30309E-06 0.00000E+00
 -1       556 4.65274E-05 1.93934E-06 3.30872E-24
 -1       557 4.69247E-05 7.54796E-07 0.00000E+00
 -1       558 4.73834E-05-5.94427E-07 0.00000E+00
 -1       559 4.78863E-05-2.06243E-06-8.27181E-25
 -1       560 4.84163E-05-3.60326E-06 0.00000E+00
 -1       561 4.89562E-05-5.17093E-06 0.00000E+00
 -1       562 4.94891E-05-6.71950E-06 4.13590E-25
 -1       563 4.99976E-05-8.20299E-06 3.10193E-25
 -1       564 5.04646E-05-9.57541E-06-1.65436E-24
 -1       565 5.08729E-05-1.07909E-05-8.27181E-25
 -1       566 5.12054E-05-1.18034E-05 0.00000E+00
 -1       567 5.14448E-05-1.25670E-05 0.00000E+00
 -1       568 5.15739E-05-1.30360E-05 0.00000E+00
 -1       569 5.15755E-05-1.31645E-05 0.00000E+00
 -1       570 5.14323E-05-1.29069E-05 0.00000E+00
 -1       571 5.89332E-05-1.13893E-05 1.65436E-24
 -1       572 5.90241E-05-1.04631E-05 2.06795E-25
 -1       573 5.91156E-05-9.59006E-06 1.65436E-24
 -1       574 5.92074E-05-8.76010E-06 0.00000E+00
 -1       575 5.92993E-05-7.96301E-06 3.30872E-24
 -1       576 5.93913E-05-7.18853E-06-8.27181E-25
 -1       577 5.94833E-05-6.42639E-06 3.30872E-24
 -1       578 5.95753E-05-5.66631E-06 1.65436E-24
 -1       579 5.96673E-05-4.89800E-06 0.00000E+00
 -1       580 5.97593E-05-4.11120E-06 0.00000E+00
 -1       581 5.98513E-05-3.29561E-06 0.00000E+00
 -1       582 5.99433E-05-2.44097E-06 0.00000E+00
 -1       583 6.00351E-05-1.53702E-06-6.61744E-24
 -1       584 6.01270E-05-5.73597E-07 6.61744E-24
 -1       585 6.02187E-05 4.59425E-07 0.00000E+00
 -1       586 5.75785E-05-1.23499E-05 1.65436E-24
 -1       587 5.62634E-05-1.23225E-05 0.00000E+00
 -1       588 5.49297E-05-1.22956E-05 6.20385E-25
 -1       589 5.36086E-05-1.22690E-05 0.00000E+00
 -1       590 5.23314E-05-1.22431E-05 0.00000E+00
 -1       591 5.84360E-05-1.13590E-05 0.00000E+00
 -1       592 5.80487E-05-1.04055E-05 0.00000E+00
 -1       593 5.76815E-05-9.50603E-06 0.00000E+00
 -1       594 5.73301E-05-8.64976E-06 4.13590E-25
 -1       595 5.69907E-05-7.82581E-06 0.00000E+00
 -1       596 5.66594E-05-7.02332E-06-4.13590E-25
 -1       597 5.63320E-05-6.23146E-06-8.27181E-25
 -1       598 5.60045E-05-5.43940E-06-4.13590E-25
 -1       599 5.56728E-05-4.63630E-06-8.27181E-25
 -1       600 5.53330E-05-3.81133E-06 4.13590E-25
 -1       601 5.49809E-05-2.95367E-06 0.00000E+00
 -1       602 5.46125E-05-2.05247E-06-3.10193E-25
 -1       603 5.42238E-05-1.09688E-06-2.97268E-25
 -1       604 5.38110E-05-7.60205E-08 0.00000E+00
 -1       605 5.33699E-05 1.02092E-06-8.27181E-25
 -1       606 6.03289E-05 2.89510E-06 0.00000E+00
 -1       607 6.03440E-05 4.37401E-06 0.00000E+00
 -1       608 6.03581E-05 5.99905E-06 0.00000E+00
 -1       609 6.03715E-05 7.75994E-06 0.00000E+00
 -1       610 6.03846E-05 9.64638E-06 0.00000E+00
 -1       611 6.03975E-05 1.16479E-05 0.00000E+00
 -1       612 6.04101E-05 1.37540E-05 0.00000E+00
 -1       613 6.04225E-05 1.59542E-05 0.00000E+00
 -1       614 6.04347E-05 1.82380E-05 3.30872E-24
 -1       615 6.04467E-05 2.05949E-05 0.00000E+00
 -1       616 6.04586E-05 2.30146E-05 0.00000E+00
 -1       617 6.04704E-05 2.54863E-05 0.00000E+00
 -1       618 6.04820E-05 2.79998E-05 0.00000E+00
 -1       619 6.04936E-05 3.05444E-05 4.13590E-25
 -1       620 6.05050E-05 3.31098E-05 0.00000E+00
 -1       621 5.90969E-05 1.67710E-06-3.30872E-24
 -1       622 5.78726E-05 1.78342E-06-1.65436E-24
 -1       623 5.66392E-05 1.88973E-06 0.00000E+00
 -1       624 5.53982E-05 1.99587E-06-1.65436E-24
 -1       625 5.41512E-05 2.10183E-06 0.00000E+00
 -1       626 5.99215E-05 2.92495E-06 0.00000E+00
 -1       627 5.94842E-05 4.40969E-06 0.00000E+00
 -1       628 5.90019E-05 6.01432E-06 0.00000E+00
 -1       629 5.84790E-05 7.72665E-06 0.00000E+00
 -1       630 5.79203E-05 9.53447E-06 0.00000E+00
 -1       631 5.73302E-05 1.14255E-05 0.00000E+00
 -1       632 5.67133E-05 1.33874E-05 6.61744E-24
 -1       633 5.60744E-05 1.54079E-05 0.00000E+00
 -1       634 5.54179E-05 1.74748E-05-3.30872E-24
 -1       635 5.47487E-05 1.95756E-05 0.00000E+00
 -1       636 5.40712E-05 2.16983E-05 3.30872E-24
 -1       637 5.33901E-05 2.38303E-05 1.65436E-24
 -1       638 5.27100E-05 2.59596E-05 3.30872E-24
 -1       639 5.20354E-05 2.80737E-05-1.65436E-24
 -1       640 5.13706E-05 3.01604E-05 3.30872E-24
 -1       656 5.82517E-05 3.51187E-05 6.61744E-24
 -1       657 5.65243E-05 3.45301E-05-6.61744E-24
 -1       658 5.51314E-05 3.39438E-05-1.32349E-23
 -1       659 5.38626E-05 3.33580E-05 6.61744E-24
 -1       660 5.24724E-05 3.27702E-05 0.00000E+00
 -1       661 5.96790E-05 3.82290E-05 0.00000E+00
 -1       662 5.88720E-05 4.07067E-05-1.65436E-24
 -1       663 5.80892E-05 4.31193E-05-3.30872E-24
 -1       664 5.73307E-05 4.54699E-05-1.65436E-24
 -1       665 5.65948E-05 4.77604E-05 0.00000E+00
 -1       666 5.58811E-05 4.99930E-05 1.65436E-24
 -1       667 5.51885E-05 5.21693E-05-3.30872E-24
 -1       668 5.45166E-05 5.42911E-05 0.00000E+00
 -1       669 5.38647E-05 5.63596E-05 3.30872E-24
 -1       670 5.32325E-05 5.83760E-05 0.00000E+00
 -1       671 5.26195E-05 6.03413E-05-3.30872E-24
 -1       672 5.20253E-05 6.22562E-05 0.00000E+00
 -1       673 5.14498E-05 6.41213E-05 0.00000E+00
 -1       674 5.08918E-05 6.59365E-05-8.27181E-25
 -1       675 5.03527E-05 6.77026E-05-8.27181E-25
 -1       676 5.81441E-05 6.99980E-05 3.30872E-24
 -1       677 5.64737E-05 6.98810E-05 0.00000E+00
 -1       678 5.48055E-05 6.97640E-05 0.00000E+00
 -1       679 5.31406E-05 6.96475E-05 0.00000E+00
 -1       680 5.14802E-05 6.95309E-05-3.30872E-24
 -1       771 2.44782E-05 4.44376E-07 0.00000E+00
 -1       772 2.33753E-05-9.79184E-07-1.32349E-23
 -1       773 2.21666E-05-2.12667E-06 0.00000E+00
 -1       774 2.08570E-05-3.01432E-06 2.64698E-23
 -1       775 1.94548E-05-3.65763E-06 0.00000E+00
 -1       776 1.79668E-05-4.07394E-06-2.64698E-23
 -1       777 1.64002E-05-4.28112E-06-5.29396E-23
 -1       778 1.47620E-05-4.29798E-06 0.00000E+00
 -1       779 1.30594E-05-4.14378E-06 5.29396E-23
 -1       780 1.13001E-05-3.83853E-06 0.00000E+00
 -1       781 9.49171E-06-3.40257E-06 5.29396E-23
 -1       782 7.64211E-06-2.85677E-06 0.00000E+00
 -1       783 5.75929E-06-2.22228E-06 0.00000E+00
 -1       784 3.85181E-06-1.52044E-06-2.64698E-23
 -1       785 1.92763E-06-7.73022E-07 5.29396E-23
 -1       786 5.12337E-05-1.12482E-05-1.65436E-24
 -1       787 5.13442E-05-1.03333E-05 0.00000E+00
 -1       788 5.14545E-05-9.45927E-06 3.30872E-24
 -1       789 5.15658E-05-8.61118E-06 1.65436E-24
 -1       790 5.16771E-05-7.78108E-06 0.00000E+00
 -1       791 5.17886E-05-6.96105E-06 0.00000E+00
 -1       792 5.19002E-05-6.14593E-06 3.30872E-24
 -1       793 5.20117E-05-5.33057E-06 0.00000E+00
 -1       794 5.21233E-05-4.50972E-06 3.30872E-24
 -1       795 5.22349E-05-3.67816E-06 0.00000E+00
 -1       796 5.23465E-05-2.82776E-06 0.00000E+00
 -1       797 5.24579E-05-1.95027E-06 0.00000E+00
 -1       798 5.25693E-05-1.03020E-06 0.00000E+00
 -1       799 5.26803E-05-5.18367E-08 0.00000E+00
 -1       800 5.27913E-05 1.01620E-06 0.00000E+00
 -1       801 4.72006E-05-1.01889E-05 0.00000E+00
 -1       802 3.77545E-05-8.11315E-06 0.00000E+00
 -1       803 2.56885E-05-6.06954E-06 0.00000E+00
 -1       804 1.36374E-05-4.03583E-06 0.00000E+00
 -1       805 4.14074E-06-1.96761E-06 0.00000E+00
 -1       806 5.06549E-05-1.13069E-05 0.00000E+00
 -1       807 5.01904E-05-1.04325E-05 0.00000E+00
 -1       808 4.97355E-05-9.58596E-06 0.00000E+00
 -1       809 4.92871E-05-8.75829E-06 0.00000E+00
 -1       810 4.88423E-05-7.94043E-06 0.00000E+00
 -1       811 4.83976E-05-7.12340E-06-1.65436E-24
 -1       812 4.79499E-05-6.29823E-06 0.00000E+00
 -1       813 4.74957E-05-5.45599E-06-1.65436E-24
 -1       814 4.70317E-05-4.58769E-06 0.00000E+00
 -1       815 4.65546E-05-3.68441E-06 0.00000E+00
 -1       816 4.60610E-05-2.73721E-06 0.00000E+00
 -1       817 4.55475E-05-1.73712E-06 8.27181E-25
 -1       818 4.50108E-05-6.75238E-07 0.00000E+00
 -1       819 4.44477E-05 4.57345E-07 0.00000E+00
 -1       820 4.38550E-05 1.66954E-06-1.65436E-24
 -1       821 5.27751E-05 2.93880E-06 8.27181E-25
 -1       822 5.26426E-05 2.64214E-06 1.65436E-24
 -1       823 5.25101E-05 1.68107E-06 0.00000E+00
 -1       824 5.23759E-05 4.24976E-07-1.65436E-24
 -1       825 5.22418E-05-6.77838E-07 0.00000E+00
 -1       826 5.21079E-05-1.17994E-06 0.00000E+00
 -1       827 5.19739E-05-7.95637E-07-3.30872E-24
 -1       828 5.18388E-05 7.55444E-07 1.65436E-24
 -1       829 5.17014E-05 3.43969E-06 0.00000E+00
 -1       830 5.15606E-05 7.21670E-06 0.00000E+00
 -1       831 5.14170E-05 1.17521E-05 0.00000E+00
 -1       832 5.12717E-05 1.67069E-05 0.00000E+00
 -1       833 5.11265E-05 2.16290E-05 0.00000E+00
 -1       834 5.09851E-05 2.60669E-05-1.65436E-24
 -1       835 5.08463E-05 2.96986E-05-8.27181E-25
 -1       836 5.14875E-05 2.33316E-06-3.30872E-24
 -1       837 4.98909E-05 2.46319E-06 0.00000E+00
 -1       838 4.81884E-05 2.59285E-06-3.30872E-24
 -1       839 4.64585E-05 2.72168E-06 0.00000E+00
 -1       840 4.47800E-05 2.85038E-06-4.13590E-25
 -1       856 5.06685E-05 3.42357E-05 0.00000E+00
 -1       857 5.06134E-05 3.64196E-05-4.13590E-25
 -1       858 5.05582E-05 3.87344E-05-1.65436E-24
 -1       859 5.05020E-05 4.11557E-05 8.27181E-25
 -1       860 5.04455E-05 4.36585E-05-1.65436E-24
 -1       861 5.03887E-05 4.62180E-05 8.27181E-25
 -1       862 5.03318E-05 4.88090E-05 1.65436E-24
 -1       863 5.02749E-05 5.14064E-05 8.27181E-25
 -1       864 5.02180E-05 5.39851E-05 0.00000E+00
 -1       865 5.01612E-05 5.65198E-05 8.27181E-25
 -1       866 5.01046E-05 5.89857E-05 1.65436E-24
 -1       867 5.00482E-05 6.13576E-05-8.27181E-25
 -1       868 4.99920E-05 6.36111E-05 1.65436E-24
 -1       869 4.99361E-05 6.57215E-05 8.27181E-25
 -1       870 4.98806E-05 6.76648E-05 0.00000E+00
 -1       871 4.89667E-05 3.22055E-05-4.13590E-25
 -1       872 4.73550E-05 3.22010E-05 0.00000E+00
 -1       873 4.58245E-05 3.21961E-05 0.00000E+00
 -1       874 4.43156E-05 3.21906E-05 3.10193E-25
 -1       875 4.27685E-05 3.21843E-05 1.24077E-24
 -1       876 5.00875E-05 3.42470E-05 3.30872E-24
 -1       877 4.94310E-05 3.63625E-05 0.00000E+00
 -1       878 4.87496E-05 3.85445E-05-3.30872E-24
 -1       879 4.80467E-05 4.07845E-05-1.65436E-24
 -1       880 4.73253E-05 4.30737E-05 3.30872E-24
 -1       881 4.65886E-05 4.54036E-05 0.00000E+00
 -1       882 4.58398E-05 4.77656E-05 0.00000E+00
 -1       883 4.50821E-05 5.01511E-05 1.65436E-24
 -1       884 4.43188E-05 5.25515E-05 3.30872E-24
 -1       885 4.35531E-05 5.49584E-05 0.00000E+00
 -1       886 4.27881E-05 5.73630E-05 0.00000E+00
 -1       887 4.20271E-05 5.97568E-05 1.65436E-24
 -1       888 4.12731E-05 6.21313E-05 0.00000E+00
 -1       889 4.05291E-05 6.44777E-05-1.65436E-24
 -1       890 3.97981E-05 6.67875E-05-1.65436E-24
 -1       891 4.82044E-05 6.93558E-05 0.00000E+00
 -1       892 4.65574E-05 6.92944E-05 0.00000E+00
 -1       893 4.48526E-05 6.92330E-05 1.65436E-24
 -1       894 4.30586E-05 6.91716E-05-4.13590E-25
 -1       895 4.11440E-05 6.91101E-05 1.65436E-24
 -1       956 4.31022E-05 4.45136E-06 1.65436E-24
 -1       957 4.29712E-05 6.01938E-06 8.27181E-25
 -1       958 4.28397E-05 7.66586E-06 0.00000E+00
 -1       959 4.27079E-05 9.38196E-06 0.00000E+00
 -1       960 4.25759E-05 1.11589E-05 3.30872E-24
 -1       961 4.24437E-05 1.29877E-05-1.65436E-24
 -1       962 4.23115E-05 1.48596E-05-3.30872E-24
 -1       963 4.21792E-05 1.67656E-05 0.00000E+00
 -1       964 4.20468E-05 1.86969E-05 0.00000E+00
 -1       965 4.19144E-05 2.06445E-05 0.00000E+00
 -1       966 4.17821E-05 2.25994E-05 3.30872E-24
 -1       967 4.16497E-05 2.45529E-05 0.00000E+00
 -1       968 4.15175E-05 2.64960E-05 3.30872E-24
 -1       969 4.13855E-05 2.84197E-05 0.00000E+00
 -1       970 4.12539E-05 3.03153E-05 0.00000E+00
 -1       971 4.09986E-05 3.40704E-05 1.65436E-24
 -1       972 4.08710E-05 3.60835E-05-1.65436E-24
 -1       973 4.07431E-05 3.82005E-05 0.00000E+00
 -1       974 4.06148E-05 4.04079E-05 0.00000E+00
 -1       975 4.04862E-05 4.26923E-05 3.30872E-24
 -1       976 4.03575E-05 4.50403E-05 0.00000E+00
 -1       977 4.02287E-05 4.74384E-05 0.00000E+00
 -1       978 4.00997E-05 4.98732E-05 0.00000E+00
 -1       979 3.99708E-05 5.23310E-05 0.00000E+00
 -1       980 3.98418E-05 5.47985E-05 0.00000E+00
 -1       981 3.97129E-05 5.72621E-05 3.30872E-24
 -1       982 3.95841E-05 5.97083E-05 1.65436E-24
 -1       983 3.94555E-05 6.21236E-05 0.00000E+00
 -1       984 3.93276E-05 6.44947E-05 0.00000E+00
 -1       985 3.92003E-05 6.68079E-05 0.00000E+00
 -3
    1PSTEP                        32          16           1          
  100CL  116 7.41943E-01         409                     0   16           1
 -4  STRESS      6    1
 -5  SXX         1    4    1    1
 -5  SYY         1    4    2    2
 -5  SZZ         1    4    3    3
 -5  SXY         1    4    1    2
 -5  SYZ         1    4    2    3
 -5  SZX         1    4    3    1
 -1         1-1.31217E+06-8.33555E+05-2.34361E+05-1.56955E+06 3.63798E-11-9.83200E-08
 -1         2 4.88809E+04-1.41020E+06 2.11619E+05-4.25496E+05-6.67205E-09-1.85577E-07
 -1         3-1.18063E+01 6.71813E+05-1.02121E+02-2.78262E+01 1.87770E-11-6.27711E-09
 -1         5-7.23854E+01 3.76669E+05 9.90454E+00 1.25395E+00 1.47079E-10 2.48256E-08
 -1         8-2.73093E+05-4.34157E+05 2.66877E+05-1.31152E+06-3.17959E-09 1.45097E-07
 -1         9 1.44821E+07 1.29242E+07 3.95656E+06 1.21884E+07-1.16648E-08-2.90480E-07
 -1        10 5.77148E+02 7.00070E+05 2.52037E+03-2.02012E+02 3.32179E-10-1.37711E-08
 -1        12-6.84841E+01 3.76691E+05 3.25442E+02 8.60535E+00 8.58051E-10-1.20417E-09
 -1        15 4.29778E+03 2.36209E+03 1.38929E+04 1.81460E+01-5.66843E-10-4.97089E-07
 -1        16 2.03384E+07 2.05873E+07 5.67866E+06 2.01875E+07 3.06172E-08-2.98023E-07
 -1        17 2.31603E+07 3.87572E+05 3.37636E+06-2.09841E+06 2.14994E-08-4.30766E-08
 -1        18 6.36058E+05 1.47921E+05 1.28032E+05-7.49824E+04 2.49429E-09-3.15367E-09
 -1        19 1.15727E+05 1.42766E+05-2.99717E+02 2.32304E+04-2.06419E-09-2.05328E-09
 -1        20-3.51080E+04-5.47215E+05-1.19842E+05 4.68770E+04 8.77753E-09-4.01997E-10
 -1        21-5.28560E+01-3.31279E+05-1.08448E+03-3.79792E+02-2.20366E-08-1.62671E-08
 -1        24 3.68469E+07-6.06949E+05 4.96229E+06-3.81424E+06 1.18229E-07 2.93270E-08
 -1        25 3.28463E+05 1.27365E+06 3.31530E+05-1.24872E+05 1.25747E-09 8.97635E-09
 -1        26-1.12748E+04 1.02622E+05-1.60835E+04-2.18609E+04 2.68337E-09 3.42895E-09
 -1        27-9.25556E+04-3.01899E+05-1.13914E+05 6.84740E+04 1.15541E-08-2.79457E-09
 -1        28 2.60539E+04-8.98198E+04 1.86604E+04 3.18129E+04 1.17638E-08-1.13165E-09
 -1        32-5.37872E+05 2.98323E+06 1.24304E+06-7.52111E+05-4.48199E-09 5.27016E-08
 -1        33-1.68617E+05 9.14254E+04 3.21029E+04-6.12293E+04 3.44479E-09-1.00954E-09
 -1        34-2.26242E+05-2.17324E+04 4.37196E+02 6.68770E+04 1.20511E-08 2.56750E-09
 -1        35-2.63482E+04-3.56463E+04-1.40250E+03 5.77481E+04 9.61501E-09-3.06318E-09
 -1        51-6.33733E+03-8.43931E+05 1.03577E+04-1.90778E+06-2.03727E-10 2.77942E-08
 -1        52 1.54626E+04-8.66132E+05 1.92445E+04-2.22589E+06 1.12050E-09-2.81609E-07
 -1        53 2.28239E+04-9.00823E+05 2.89002E+04-1.90096E+06-1.19326E-09-7.24685E-09
 -1        54 5.93313E+04-9.10911E+05 6.34556E+04-2.23244E+06 3.20142E-10 1.02533E-07
 -1        55 9.71196E+04-9.39845E+05 1.21910E+05-1.89924E+06 2.00816E-09 3.52542E-07
 -1        56-2.59001E+06-2.93875E+05-1.61617E+05-9.75151E+05-2.78233E-08-2.48117E-07
 -1        57-2.56579E+06-5.21127E+05-1.07721E+05-1.06152E+06-1.62245E-08 4.36703E-07
 -1        58-2.63125E+06-3.34018E+05-3.80713E+04-9.51912E+05 1.00304E-08-2.23863E-08
 -1        59-2.51800E+06-4.75664E+05-2.25236E+04-1.09364E+06-1.41916E-08-1.88401E-07
 -1        60-2.63961E+06-3.36531E+05-8.83934E+03-9.45014E+05-5.52500E-08 2.93639E-07
 -1        61-2.51160E+06-4.68497E+05-5.13969E+03-1.09717E+06 5.98392E-08-1.19087E-07
 -1        62-2.63781E+06-3.40843E+05-2.99379E+03-9.48606E+05 2.05455E-09 4.49339E-07
 -1        63-2.52024E+06-4.54586E+05-2.29170E+03-1.07990E+06 3.61492E-08 5.31201E-07
 -1        64-2.62914E+06-3.51616E+05-4.94305E+03-9.61002E+05-2.28656E-08 1.90133E-07
 -1        65-2.54174E+06-4.31033E+05-7.53534E+03-1.04673E+06-3.82670E-08 3.00057E-07
 -1        66-2.61369E+06-3.66159E+05-1.74833E+04-9.79849E+05-2.86145E-08-1.13276E-07
 -1        67-2.58239E+06-4.12471E+05-3.91370E+04-1.00296E+06-3.56304E-08 1.06273E-07
 -1        68-2.58691E+06-3.71602E+05-7.02861E+04-1.00337E+06 1.83413E-08 2.90747E-08
 -1        69-2.68747E+06-4.86064E+05-1.95348E+05-9.41157E+05 3.23053E-08 2.87953E-07
 -1        70-2.50956E+06-2.94821E+05-2.92722E+05-1.04094E+06-3.61797E-08-9.13133E-08
 -1        86-5.27555E+04-3.13161E+06-1.46866E+05 2.11048E+05 5.99766E-08 1.55080E-07
 -1        87 5.20995E+04-2.08622E+06 6.31869E+04-6.27034E+05 1.04897E-07 5.09831E-08
 -1        88 7.48322E+03-2.52552E+06-6.37987E+04 4.14786E+05 9.66356E-08-1.49254E-07
 -1        89-2.37426E+04-2.30822E+06-1.06431E+05-7.05068E+05 1.41454E-07-2.45662E-07
 -1        90 4.03716E+04-2.92925E+06-3.67530E+05 2.90442E+05 4.42524E-08-1.39808E-07
 -1       121 2.62472E+00 6.71885E+05-1.21407E+02 1.39134E+01-7.47988E-11-2.07842E-09
 -1       122-6.13466E+01 6.71780E+05-2.30301E+02-5.56532E+01 1.78799E-10-1.20679E-09
 -1       123 3.87527E+01 6.71918E+05-3.86616E+02 4.17443E+01-2.00288E-10-1.04842E-09
 -1       124-6.73974E+02 6.71411E+05-1.01787E+03-9.54928E+01 2.02007E-10 2.66482E-10
 -1       125 4.34978E+02 6.72255E+05-1.43652E+03 5.38209E+01-2.20439E-10-1.68166E-09
 -1       191-7.62908E+01 3.76687E+05 8.53790E+00-6.54104E-01 5.29614E-10 2.04509E-08
 -1       192-7.33393E+01 3.76670E+05 2.11307E+01 4.09822E+00 8.00402E-10 2.10002E-09
 -1       193-7.88031E+01 3.76687E+05 3.60870E+01-3.61031E+00 9.18284E-10 9.18590E-10
 -1       194-7.63981E+01 3.76673E+05 8.03166E+01 9.33278E+00 3.91808E-10 2.00725E-09
 -1       195-8.36253E+01 3.76685E+05 1.53880E+02-6.07169E+00 1.40179E-09 2.85763E-09
 -1       251 6.33376E+06-3.22946E+05 7.54814E+05 8.60951E+04-9.65974E-09 7.57573E-08
 -1       252 6.69231E+06 3.73353E+05 5.37081E+05-1.53418E+05 1.42320E-08-5.47348E-07
 -1       253 6.47580E+06-4.92776E+04 1.96736E+05-6.56436E+03-8.69611E-09-3.53917E-07
 -1       254 6.52916E+06 5.72471E+04 1.22993E+05-4.56898E+04 1.40799E-08 2.87564E-08
 -1       255 6.49671E+06-7.52096E+03 5.07788E+04-2.16024E+04-6.29608E-09-8.53652E-09
 -1       256 6.50524E+06 9.01232E+03 3.01724E+04-2.82742E+04 2.39870E-09 8.59181E-08
 -1       257 6.50010E+06-1.18731E+03 1.49498E+04-2.39813E+04-5.59568E-09-3.41201E-08
 -1       258 6.50175E+06 2.33714E+03 1.18698E+04-2.61858E+04 2.67993E-08-1.30493E-07
 -1       259 6.50030E+06-8.64196E+02 1.21415E+04-2.36912E+04 4.29075E-09-2.09368E-07
 -1       260 6.50375E+06 6.21188E+03 2.20137E+04-3.06484E+04-9.19408E-09-4.64679E-07
 -1       261 6.49805E+06-5.05234E+03 3.61951E+04-1.95184E+04 3.08518E-11 4.94620E-08
 -1       262 6.52092E+06 3.88781E+04 8.65088E+04-6.03729E+04 1.20265E-08 3.74612E-07
 -1       263 6.48292E+06-3.34722E+04 1.38662E+05 6.03387E+03 6.41194E-10 4.98927E-07
 -1       264 6.67410E+06 2.62539E+05 3.85223E+05-2.41729E+05 7.69717E-09-8.59509E-08
 -1       265 6.34762E+06-2.29563E+05 5.23046E+05 1.61825E+05-4.39104E-09 2.98227E-07
 -1       266-7.77936E+04-3.63513E+04 1.82654E+05-3.88497E+02 9.24047E-10 2.16435E-07
 -1       267 9.01950E+04 4.24091E+04 1.29033E+05 4.47965E+02 5.72072E-09 4.41595E-07
 -1       268-1.20945E+04-6.00405E+03 4.79648E+04-5.70943E+01 1.74987E-09-4.77831E-08
 -1       269 1.42807E+04 7.18810E+03 3.11728E+04 6.64893E+01 1.71667E-09 3.36150E-07
 -1       270-2.14352E+03-1.18092E+03 1.50477E+04-9.02377E+00 1.41063E-09 1.63597E-07
 -1       271-8.31307E+06-1.05569E+06-6.62656E+05-3.26481E+06-5.60685E-08-6.87724E-08
 -1       272-8.45467E+06-1.61191E+06-4.22976E+05-3.34418E+06 6.20203E-08-2.50373E-07
 -1       273-8.46372E+06-1.19110E+06-1.57155E+05-3.20556E+06-3.01225E-08 2.19006E-08
 -1       274-8.27809E+06-1.45059E+06-8.63261E+04-3.44598E+06-7.28651E-08 3.37312E-07
 -1       275-8.49892E+06-1.18746E+06-3.63574E+04-3.18043E+06 2.00507E-08 2.58791E-07
 -1       276-8.24387E+06-1.45058E+06-1.91133E+04-3.48506E+06-5.23523E-08 2.62249E-07
 -1       277-8.50665E+06-1.18292E+06-9.67236E+03-3.17373E+06 2.59397E-08 2.48929E-08
 -1       278-8.24438E+06-1.44455E+06-7.72641E+03-3.47995E+06 4.60541E-08-2.05127E-08
 -1       279-8.49681E+06-1.19428E+06-1.07046E+04-3.18452E+06-2.90529E-08-1.85084E-07
 -1       280-8.26892E+06-1.41599E+06-1.86831E+04-3.43448E+06 6.71571E-09 4.51051E-07
 -1       281-8.47078E+06-1.21894E+06-3.89150E+04-3.21108E+06 2.47601E-08-1.49303E-08
 -1       282-8.33122E+06-1.38515E+06-8.63256E+04-3.35720E+06-5.96265E-09-4.41665E-07
 -1       283-8.42170E+06-1.23586E+06-1.60566E+05-3.25122E+06 1.10449E-08-4.62795E-07
 -1       284-8.53764E+06-1.52513E+06-4.26306E+05-3.23684E+06-8.11142E-08-5.07425E-07
 -1       285-8.26261E+06-1.10377E+06-6.68894E+05-3.31856E+06-2.16969E-08-2.73372E-07
 -1       301-5.06091E+04 4.12052E+05-4.87116E+03 1.36955E+06-1.71713E-09 9.27103E-08
 -1       302-5.46017E+04 4.19285E+05 2.22525E+04 2.00699E+06 5.02041E-09 1.64615E-07
 -1       303-3.71163E+04 3.93760E+05 5.31604E+04 1.36717E+06-2.23372E-09-7.51970E-09
 -1       304-2.72709E+04 4.57872E+05 1.25545E+05 2.00597E+06-1.30967E-10 1.87407E-07
 -1       305-2.56095E+04 3.94544E+05 2.22335E+05 1.37141E+06-6.40284E-10-3.43425E-09
 -1       306-3.22938E+07-3.15442E+07-1.69883E+07-2.04490E+07 1.06869E-07-3.68746E-07
 -1       307 1.23490E+07 6.32506E+07 1.25594E+07 2.63224E+07 1.13811E-06-4.00760E-07
 -1       308-2.68843E+05-2.12375E+07-4.26538E+06-1.63450E+06 7.67905E-08 8.49250E-08
 -1       309-1.38607E+07 3.20399E+07 4.59524E+06-2.27698E+07-1.55123E-07 6.41172E-07
 -1       310 3.44274E+06-1.21970E+07-6.01351E+05 1.62530E+06-7.16245E-08 1.82423E-07
 -1       311-3.14877E+06 5.47013E+07 9.41157E+06 1.04521E+07-7.54750E-07 6.97095E-07
 -1       312-2.05125E+07-3.31394E+07-1.27988E+07-1.80747E+07-4.45696E-07-2.88012E-07
 -1       313 7.34984E+07 3.25061E+07 1.75864E+07 4.40099E+07 1.10711E-07-2.64263E-07
 -1       314-5.00068E+07-1.04184E+07-1.47353E+07-7.53727E+06-4.15603E-08-5.49335E-08
 -1       315 6.98020E+07 2.72571E+06 1.25413E+07-1.52134E+07 5.48083E-07 2.47674E-07
 -1       316-1.57309E+07-5.98260E+06-4.05641E+06 9.59330E+06 6.20203E-07 8.40751E-07
 -1       317-5.88773E+06 2.40655E+07 4.59630E+06-2.84251E+07-1.07600E-06 2.59257E-07
 -1       318-4.85310E+06-3.80629E+06-8.12469E+05 7.83332E+06 8.62288E-07 1.56302E-07
 -1       319 4.36367E+07 1.03775E+07 9.35597E+06-2.55321E+07 9.99717E-08 3.31784E-07
 -1       320-4.64593E+07-1.00746E+07-1.48344E+07 1.86173E+06-2.02213E-07-2.24099E-08
 -1       336-7.40699E+02 7.27249E+05 7.00642E+03 1.48329E+02 8.66066E-10-2.29329E-09
 -1       337 2.74777E+03 7.29768E+05 1.13063E+04-3.24990E+02 1.67086E-09-1.90403E-09
 -1       338-1.50768E+03 7.26546E+05 1.80466E+04 1.76523E+02 1.05319E-09-3.06068E-09
 -1       339 2.03909E+04 7.40451E+05 4.30468E+04-3.85313E+02 1.66301E-09-1.18217E-08
 -1       340-1.44767E+04 7.16555E+05 6.72673E+04 2.05582E+02 1.28057E-09-1.62231E-09
 -1       406-4.68430E+01 3.76670E+05 6.39121E+02-3.05632E+00 1.75010E-09 9.12223E-09
 -1       407 1.55918E+02 3.76803E+05 1.36559E+03-2.34339E+01 4.41560E-10 1.98743E-08
 -1       408 6.32224E+02 3.76571E+05 2.72303E+03 2.68220E+01 2.59888E-09 2.04345E-08
 -1       409 2.88581E+03 3.77673E+05 6.13723E+03-2.83967E+02 2.96041E-10 1.88966E-08
 -1       410 8.41391E+03 3.75787E+05 1.25260E+04 2.73467E+02 2.35741E-09 1.01791E-08
 -1       521-3.18202E+07-3.13790E+07-1.76358E+07-1.82848E+07 8.63802E-08-4.19968E-07
 -1       522 9.45300E+06 6.37662E+07 1.17355E+07 2.51682E+07 9.51957E-07 2.11876E-07
 -1       523-6.51544E+05-2.01848E+07-4.01966E+06-1.63395E+06 4.44910E-07 3.79048E-07
 -1       524-1.58002E+07 3.09535E+07 4.35921E+06-2.58824E+07-4.83473E-07 1.21517E-06
 -1       525 3.15926E+06-1.23864E+07-4.34799E+05 1.13162E+06-6.12490E-08 8.24162E-07
 -1       526-5.65739E+06 5.56978E+07 8.98600E+06 8.83573E+06-1.51718E-07 1.63447E-07
 -1       527-2.09242E+07-3.22699E+07-1.32592E+07-1.63240E+07-2.11701E-07 2.27476E-07
 -1       528 7.36272E+07 3.15409E+07 1.65942E+07 4.47881E+07-1.31608E-07-2.07627E-07
 -1       529-4.78629E+07-1.21084E+07-1.53457E+07-6.51884E+06-1.86847E-07-4.91273E-08
 -1       530 6.82231E+07 2.27815E+06 1.17931E+07-1.75136E+07 5.91855E-07-1.02911E-07
 -1       531-1.51416E+07-5.99056E+06-3.83349E+06 8.96003E+06 4.03437E-07 3.29397E-07
 -1       532-1.04882E+07 2.57291E+07 4.36908E+06-2.96093E+07-1.22464E-06 3.47733E-07
 -1       533-5.45001E+06-3.63747E+06-6.48381E+05 7.67132E+06-7.75035E-07 7.31583E-07
 -1       534 4.14378E+07 1.09585E+07 8.88042E+06-2.78141E+07 5.18543E-07-5.51838E-07
 -1       535-4.43901E+07-1.16381E+07-1.53926E+07 1.82299E+06 6.15837E-08-4.30038E-07
 -1       536 2.24390E+06-8.72297E+04 2.02140E+05-1.45905E+03-1.72117E-08-4.20550E-09
 -1       537 2.33137E+06 1.01009E+05 1.42955E+05-3.68055E+03 3.72978E-09-7.37964E-09
 -1       538 2.27771E+06-1.36743E+04 5.23845E+04-2.42503E+03 1.89134E-09 9.16771E-10
 -1       539 2.29209E+06 1.58341E+04 3.29630E+04-2.62688E+03 3.07748E-09 1.16415E-10
 -1       540 2.28330E+06-2.13901E+03 1.35386E+04-2.51285E+03 2.34017E-06-2.42835E-10
 -1       541 2.28563E+06 2.52434E+03 8.16843E+03-2.53158E+03 4.65291E-06 3.04794E-10
 -1       542 2.28422E+06-3.75433E+02 4.15968E+03-2.52038E+03-2.04626E-06-4.33624E-09
 -1       543 2.28471E+06 7.41310E+02 3.59821E+03-2.52822E+03-8.73233E-06-6.71420E-09
 -1       544 2.28423E+06-3.57215E+02 3.99856E+03-2.51622E+03-4.38249E-06-4.89126E-09
 -1       545 2.28554E+06 2.36775E+03 7.70152E+03-2.58416E+03-1.86903E-08-5.35510E-09
 -1       546 2.28338E+06-2.00074E+03 1.27003E+04-2.46444E+03 9.71191E-10-4.20187E-10
 -1       547 2.29159E+06 1.48080E+04 3.08664E+04-3.18685E+03 3.57791E-09-2.08365E-09
 -1       548 2.27815E+06-1.27874E+04 4.90460E+04-1.91347E+03 5.59503E-09 2.45382E-09
 -1       549 2.32885E+06 9.45919E+04 1.33927E+05-9.64841E+03-7.49978E-10 6.17729E-09
 -1       550 2.24601E+06-8.17107E+04 1.89114E+05 3.99682E+03-3.11292E-09-2.47383E-09
 -1       551-6.04318E+03-3.03216E+05-2.71003E+04-1.41006E+06-6.46287E-09 2.79397E-09
 -1       552 1.41144E+04-3.25010E+05 5.87285E+03-2.00775E+06-1.13068E-08 8.67294E-09
 -1       553 1.31004E+04-3.26461E+05 3.74157E+04-1.40677E+06-1.35478E-08 2.93130E-09
 -1       554 4.04364E+04-2.96545E+05 9.79210E+04-2.00734E+06-7.10133E-09-7.75617E-09
 -1       555 2.75128E+04-3.25211E+05 1.78132E+05-1.41064E+06-5.66797E-09-3.85626E-09
 -1       556-5.37486E+04-6.42937E+04-1.08411E+04-9.20454E+04 1.22418E-09 4.43470E-09
 -1       557-3.93353E+04-8.02952E+04-5.60286E+03-1.12535E+05 3.27145E-09 7.08258E-09
 -1       558-5.48710E+04-6.19633E+04-2.37263E+03-9.30827E+04-4.85670E-10-3.48808E-09
 -1       559-3.79184E+04-7.91039E+04-1.16256E+03-1.12934E+05-4.17640E-09-3.46336E-09
 -1       560-5.50091E+04-6.18718E+04-5.33001E+02-9.31514E+04 1.53705E-10 8.76298E-10
 -1       561-3.78482E+04-7.90558E+04-2.61152E+02-1.12956E+05 2.55713E-09 5.89262E-09
 -1       562-5.50036E+04-6.18902E+04-1.33120E+02-9.31401E+04 5.79894E-09-3.74439E-09
 -1       563-3.77682E+04-7.90886E+04-8.66688E+01-1.12905E+05 1.08630E-08-1.50303E-08
 -1       564-5.49096E+04-6.19485E+04-9.82560E+01-9.30770E+04 1.22582E-08-4.23006E-09
 -1       565-3.75996E+04-7.91604E+04-1.50582E+02-1.12785E+05 4.99676E-09 9.40418E-10
 -1       566-5.47359E+04-6.20563E+04-3.10968E+02-9.29669E+04 3.29601E-09-4.07454E-10
 -1       567-3.73928E+04-7.92742E+04-6.14430E+02-1.12573E+05 5.79348E-09 1.00881E-08
 -1       568-5.44301E+04-6.22530E+04-1.27876E+03-9.28075E+04 2.39015E-09-3.44698E-09
 -1       569-3.81403E+04-7.96818E+04-2.90757E+03-1.11788E+05 1.06229E-08 1.25874E-09
 -1       570-5.33068E+04-6.38853E+04-5.67227E+03-9.24730E+04 3.52520E-09-2.85672E-09
 -1       571 2.63355E+05 8.64079E+03 1.29689E+04-5.87740E+04-1.55524E-10 3.90219E-09
 -1       572 2.65287E+05 2.92670E+03 6.35457E+03-6.43861E+04-1.94586E-09 8.30642E-09
 -1       573 2.64114E+05 6.21311E+02 2.82266E+03-5.85909E+04 5.84805E-10-9.73159E-10
 -1       574 2.64344E+05 1.26844E+02 1.41445E+03-6.45793E+04 9.73159E-11 7.21730E-09
 -1       575 2.64187E+05-6.37337E+01 6.66113E+02-5.85674E+04 3.61297E-09 1.57843E-09
 -1       576 2.64205E+05-9.32027E+01 3.38430E+02-6.46050E+04 7.75242E-09 3.47109E-09
 -1       577 2.64191E+05-9.54871E+01 1.65085E+02-5.85644E+04 5.91535E-09 9.05675E-09
 -1       578 2.64186E+05-1.00508E+02 8.67951E+01-6.46081E+04 3.72893E-11 1.18143E-09
 -1       579 2.64201E+05-9.50847E+01 4.69944E+01-5.85643E+04 2.50202E-09 1.98133E-09
 -1       580 2.64201E+05-1.06954E+02 3.37111E+01-6.46050E+04 2.03217E-08-5.34783E-10
 -1       581 2.64227E+05-1.06084E+02 3.41045E+01-5.85674E+04 5.92445E-09-2.15277E-09
 -1       582 2.64242E+05-1.17805E+02 5.67620E+01-6.45735E+04-4.01087E-10 1.56069E-09
 -1       583 2.64266E+05-1.05139E+02 1.02214E+02-5.85957E+04 2.96404E-09 2.11116E-09
 -1       584 2.64331E+05-4.39194E+01 2.27725E+02-6.43349E+04-3.63434E-09-3.52020E-09
 -1       585 2.64292E+05 1.56302E+02 4.57736E+02-5.88063E+04 4.90218E-10-2.90129E-09
 -1       586-4.16143E+03 7.95441E+04-6.28533E+03-1.80776E+05 4.18584E-09-1.19062E-08
 -1       587-8.31695E+02 7.85863E+04-1.82110E+03-1.98814E+05 4.14548E-09-1.88780E-08
 -1       588 9.08011E+02 7.89554E+04 1.71650E+03-1.80612E+05 3.41606E-09 1.84946E-09
 -1       589 3.86181E+03 8.01389E+04 6.55115E+03-1.98743E+05 4.89308E-09 1.41144E-08
 -1       590 1.04171E+04 7.80921E+04 1.45624E+04-1.80829E+05 3.75780E-09 9.03765E-09
 -1       591-5.66210E+04-1.82021E+04-2.02105E+04-3.17692E+04-4.35989E-09 1.47884E-09
 -1       592-5.79016E+04-2.37745E+04-1.09464E+04-3.77256E+04-1.39316E-08-1.12268E-08
 -1       593-5.86753E+04-1.67034E+04-4.55754E+03-3.32234E+04 1.97133E-10 2.94585E-09
 -1       594-5.50798E+04-2.08459E+04-2.27272E+03-3.78812E+04 2.67028E-09 1.92614E-09
 -1       595-5.88349E+04-1.66944E+04-1.04463E+03-3.32915E+04-5.17707E-09-4.08676E-09
 -1       596-5.48912E+04-2.07110E+04-5.32413E+02-3.78640E+04-3.48496E-09 6.05041E-10
 -1       597-5.88557E+04-1.67065E+04-2.93280E+02-3.32946E+04-5.64657E-09-1.03690E-08
 -1       598-5.48733E+04-2.07059E+04-2.41919E+02-3.78587E+04-1.55353E-09-1.22543E-08
 -1       599-5.88535E+04-1.67070E+04-3.16946E+02-3.32938E+04-1.31581E-09-4.98358E-09
 -1       600-5.48919E+04-2.07135E+04-5.94966E+02-3.78621E+04-1.55069E-09-6.63931E-10
 -1       601-5.88261E+04-1.66946E+04-1.17741E+03-3.32884E+04-2.51816E-09-3.96881E-09
 -1       602-5.51034E+04-2.08662E+04-2.56718E+03-3.78780E+04 1.81467E-09-1.63936E-09
 -1       603-5.86431E+04-1.67079E+04-5.14995E+03-3.32112E+04-4.99995E-09-2.27828E-10
 -1       604-5.82980E+04-2.41669E+04-1.23691E+04-3.76894E+04-1.21972E-08-4.71891E-09
 -1       605-5.63104E+04-1.84084E+04-2.28369E+04-3.15753E+04-3.61115E-09 1.02973E-08
 -1       606 4.41357E+04-1.27063E+04-2.29412E+04 4.34498E+04-9.69158E-09-6.02085E-09
 -1       607 4.01971E+04-4.05772E+03-1.14212E+04 4.87618E+04-1.95178E-09-1.10776E-08
 -1       608 4.23961E+04-6.47737E+02-5.11907E+03 4.30956E+04 6.29552E-09-2.11071E-09
 -1       609 4.19287E+04-1.03706E+02-2.58388E+03 4.91410E+04-2.78305E-09 2.42835E-10
 -1       610 4.21487E+04 1.04016E+02-1.23759E+03 4.30562E+04-7.17046E-09-1.76215E-09
 -1       611 4.20379E+04 1.51294E+02-6.23520E+02 4.91821E+04-1.59807E-08-3.72893E-11
 -1       612 4.20583E+04 1.46430E+02-3.01127E+02 4.30524E+04-5.00222E-10 7.21229E-10
 -1       613 4.19984E+04 1.82888E+02-1.38061E+02 4.91866E+04 2.90311E-09-4.16185E-09
 -1       614 4.19999E+04 1.65214E+02-4.30281E+01 4.30511E+04 7.65249E-09-1.88356E-09
 -1       615 4.19542E+04 2.05993E+02 3.45949E+01 4.91871E+04 1.11731E-08 1.87629E-09
 -1       616 4.19561E+04 1.86011E+02 1.24696E+02 4.30515E+04 3.01316E-09 1.56706E-09
 -1       617 4.19402E+04 2.49919E+02 2.94134E+02 4.91860E+04 2.10657E-08-7.38646E-09
 -1       618 4.19094E+04 2.84130E+02 5.95572E+02 4.30515E+04 1.38721E-08-3.41697E-09
 -1       619 4.21331E+04 7.21193E+02 1.33983E+03 4.91845E+04 1.47793E-09 4.19550E-09
 -1       620 4.17007E+04 1.70557E+03 2.69319E+03 4.30478E+04 3.93243E-09-1.86765E-09
 -1       621 6.43145E+02 3.06506E+05 5.24280E+03-2.36335E+03-1.00295E-09 9.08142E-09
 -1       622 7.12775E+02 3.07810E+05 4.12726E+03-3.27180E+03-6.56705E-10 1.07995E-08
 -1       623 3.46421E+01 3.06929E+05 4.32406E+03-2.35236E+03-8.81982E-10 3.27452E-09
 -1       624 1.85669E+03 3.08862E+05 7.84312E+03-3.28671E+03-1.07104E-09 1.14585E-09
 -1       625 1.85427E+03 3.05453E+05 1.34612E+04-2.34552E+03-1.02227E-09-3.61743E-09
 -1       626 2.35776E+05 6.96030E+04 4.31488E+03 1.33401E+05-7.29324E-09-1.70621E-09
 -1       627 2.31991E+05 7.26075E+04 2.08098E+03 1.39041E+05-6.19912E-09 4.56566E-09
 -1       628 2.35951E+05 6.75214E+04 8.76204E+02 1.33980E+05 4.51655E-09 1.32650E-09
 -1       629 2.31276E+05 7.21835E+04 4.31292E+02 1.39361E+05 9.24774E-09-3.26509E-10
 -1       630 2.35936E+05 6.74362E+04 1.98170E+02 1.33973E+05-1.51358E-08 1.01775E-08
 -1       631 2.31165E+05 7.21891E+04 1.08256E+02 1.39348E+05-5.02177E-08-5.96512E-09
 -1       632 2.35903E+05 6.74562E+04 7.27267E+01 1.33949E+05-3.18141E-08-1.15955E-09
 -1       633 2.31128E+05 7.22048E+04 8.48825E+01 1.39325E+05-8.75116E-09-8.28095E-10
 -1       634 2.35874E+05 6.74649E+04 1.39455E+02 1.33933E+05 5.28144E-09-4.91627E-09
 -1       635 2.31122E+05 7.22124E+04 2.85060E+02 1.39315E+05 7.25618E-09 3.28328E-09
 -1       636 2.35850E+05 6.74685E+04 5.76023E+02 1.33924E+05-7.90260E-09-3.75803E-09
 -1       637 2.31233E+05 7.23064E+04 1.26613E+03 1.39305E+05 2.80511E-09 9.68021E-09
 -1       638 2.35799E+05 6.77514E+04 2.60194E+03 1.33792E+05-3.47632E-09-1.67847E-09
 -1       639 2.32594E+05 7.42104E+04 6.15482E+03 1.38904E+05-9.83664E-09-5.99084E-09
 -1       640 2.35629E+05 7.34067E+04 1.27719E+04 1.31379E+05-5.27143E-09 3.27645E-09
 -1       656 6.61063E+04-1.66395E+06-1.59518E+05 1.69170E+03-8.22183E-10-5.20686E-11
 -1       657-8.73192E+04-1.73581E+06-1.31800E+05 1.29357E+04 1.78716E-09-7.02177E-09
 -1       658 2.09046E+04-1.68447E+06-8.07048E+04-8.11816E+02 2.95995E-09 3.60303E-09
 -1       659-9.32058E+04-1.73862E+06-1.39530E+05 1.44916E+04-2.15550E-10 1.22300E-09
 -1       660 7.19823E+04-1.66114E+06-1.72792E+05 1.35853E+02 4.58385E-10-9.95698E-10
 -1       661 2.71077E+05 3.00495E+04 2.53729E+04 1.06264E+05 4.93583E-09-4.44470E-09
 -1       662 2.84096E+05 5.01435E+04 1.70966E+04 1.02080E+05-4.14275E-10-7.83825E-09
 -1       663 2.76063E+05 3.81837E+04 5.98087E+03 1.04814E+05-5.27746E-09 3.79714E-10
 -1       664 2.78318E+05 4.06292E+04 3.57567E+03 1.03851E+05 3.19017E-09-7.64953E-09
 -1       665 2.76817E+05 3.92962E+04 1.41019E+03 1.04595E+05-3.61047E-09-8.52293E-09
 -1       666 2.77427E+05 3.93571E+04 8.21758E+02 1.04139E+05-1.89225E-08 4.06649E-09
 -1       667 2.76950E+05 3.94221E+04 4.31808E+02 1.04539E+05-3.59060E-09 1.85317E-09
 -1       668 2.77276E+05 3.92678E+04 4.30268E+02 1.04225E+05 1.20882E-08-1.03130E-09
 -1       669 2.76968E+05 3.93822E+04 5.73847E+02 1.04510E+05 3.95846E-09-3.57545E-11
 -1       670 2.77401E+05 3.95889E+04 1.24221E+03 1.04245E+05 1.77233E-08-7.11339E-10
 -1       671 2.76826E+05 3.91069E+04 2.20263E+03 1.04517E+05-5.95043E-09-2.80613E-09
 -1       672 2.78666E+05 4.17491E+04 5.63339E+03 1.03956E+05-1.15506E-08-1.83491E-09
 -1       673 2.75709E+05 3.72758E+04 9.43962E+03 1.04779E+05-5.21459E-09-1.31377E-09
 -1       674 2.87637E+05 5.69250E+04 2.69937E+04 1.01331E+05-1.24396E-09-2.05409E-09
 -1       675 2.67912E+05 2.43546E+04 4.00687E+04 1.06981E+05 4.00451E-09-2.63935E-09
 -1       676 2.83823E+01-3.31186E+05-1.30709E+03 1.89903E+02-3.86382E-09-8.94381E-10
 -1       677-3.45140E+02-3.31505E+05-2.39223E+03-3.79449E+02-1.20778E-08-3.37241E-09
 -1       678 2.31999E+02-3.30961E+05-4.22889E+03 1.89417E+02-2.01567E-09 2.22074E-09
 -1       679-4.22852E+03-3.34058E+05-1.00463E+04-3.77748E+02-1.72319E-08-2.31265E-09
 -1       680 2.52521E+03-3.28635E+05-1.61910E+04 1.86010E+02-6.66296E-09 5.44163E-09
 -1       771-3.59999E+06-5.07238E+05-1.77665E+05-1.32435E+06 6.27915E-09 3.49246E-09
 -1       772-3.65016E+06-5.17184E+05-9.62414E+04-1.33160E+06 1.37697E-08 8.50196E-09
 -1       773-3.61716E+06-4.95018E+05-3.99964E+04-1.33791E+06 4.82760E-09-9.09495E-12
 -1       774-3.62635E+06-4.90251E+05-1.98942E+04-1.33172E+06-1.65528E-09-5.76637E-09
 -1       775-3.61832E+06-4.95165E+05-9.07072E+03-1.33877E+06 3.60887E-09-9.93623E-11
 -1       776-3.62509E+06-4.88641E+05-4.45247E+03-1.33113E+06 3.27873E-09 2.23304E-09
 -1       777-3.61837E+06-4.95426E+05-2.14141E+03-1.33901E+06-3.12684E-09-5.60499E-09
 -1       778-3.62527E+06-4.88263E+05-1.17687E+03-1.33076E+06-1.64346E-09 1.64073E-09
 -1       779-3.61829E+06-4.95564E+05-8.41296E+02-1.33920E+06-2.43108E-09-5.92513E-09
 -1       780-3.62556E+06-4.88005E+05-1.02490E+03-1.33051E+06 6.00267E-10 1.16029E-09
 -1       781-3.61820E+06-4.95635E+05-1.74560E+03-1.33934E+06 3.04954E-09-4.10705E-09
 -1       782-3.62608E+06-4.88031E+05-3.65291E+03-1.33037E+06 1.63163E-09-2.92653E-09
 -1       783-3.61791E+06-4.95697E+05-7.26742E+03-1.33932E+06-3.45381E-09-8.33143E-09
 -1       784-3.63065E+06-4.92677E+05-1.74501E+04-1.33012E+06-6.09475E-10-9.89530E-10
 -1       785-3.61473E+06-4.98002E+05-3.22111E+04-1.33699E+06 1.68984E-09-2.78123E-09
 -1       786 3.13614E+05-1.44863E+04 3.35186E+04 3.70580E+02 3.49356E-09 1.21145E-09
 -1       787 3.28137E+05 1.67711E+04 2.37139E+04 4.40306E+01 1.10903E-09 1.10631E-08
 -1       788 3.19219E+05-2.27069E+03 8.67692E+03 3.02470E+02-4.30823E-10 3.29192E-09
 -1       789 3.21609E+05 2.62781E+03 5.45343E+03 1.39895E+02 2.97095E-08 1.91540E-09
 -1       790 3.20144E+05-3.54674E+02 2.22258E+03 2.74728E+02 9.01792E-06-5.16786E-09
 -1       791 3.20530E+05 4.13448E+02 1.31169E+03 1.75081E+02 1.79554E-05-1.02994E-08
 -1       792 3.20298E+05-5.79912E+01 6.11891E+02 2.67285E+02 7.51279E-07-8.53987E-10
 -1       793 3.20360E+05 8.82490E+01 4.27849E+02 1.74362E+02-1.64542E-05 1.32312E-08
 -1       794 3.20315E+05-2.96872E+01 3.58054E+02 2.75447E+02-8.26756E-06 1.53004E-09
 -1       795 3.20400E+05 1.70159E+02 5.77283E+02 1.37992E+02-2.54114E-08 8.06926E-09
 -1       796 3.20258E+05-1.39847E+02 9.00616E+02 3.03656E+02-9.75199E-10-1.36538E-10
 -1       797 3.20819E+05 1.03092E+03 2.15324E+03 4.57891E+01-2.41719E-09-1.57820E-09
 -1       798 3.19895E+05-8.89826E+02 3.40796E+03 3.67651E+02-1.98099E-09 1.70712E-09
 -1       799 3.23384E+05 6.57387E+03 9.30016E+03-1.55822E+02-2.64211E-09-6.89397E-10
 -1       800 3.17692E+05-5.67836E+03 1.31370E+04 5.05263E+02-6.69083E-10-4.09273E-11
 -1       801-2.45782E+05 6.02674E+06 5.88757E+05 1.55497E+03 7.91624E-09-1.96218E-09
 -1       802 3.42353E+05 6.32873E+06 5.24346E+05-1.27651E+05 1.85100E-08-5.85374E-10
 -1       803-9.39941E+04 6.10776E+06 3.64179E+05-7.66781E+04 1.07357E-08 5.70742E-09
 -1       804 4.81071E+05 6.39183E+06 7.05484E+05-1.26221E+05 1.47629E-08 9.43419E-09
 -1       805-3.84210E+05 5.96353E+06 9.02732E+05 1.18073E+02 2.91038E-09 4.67082E-08
 -1       806-2.85349E+05-7.00021E+04-2.80918E+04-1.28010E+05 2.19848E-09 2.86673E-09
 -1       807-2.86168E+05-6.68183E+04-1.38003E+04-1.36412E+05-2.52282E-09-1.40813E-09
 -1       808-2.86196E+05-5.98079E+04-5.85378E+03-1.32732E+05-2.96154E-09-3.83352E-10
 -1       809-2.83172E+05-6.30399E+04-2.86076E+03-1.36880E+05 3.09228E-10 1.45469E-08
 -1       810-2.86331E+05-5.94425E+04-1.30943E+03-1.32941E+05-3.57471E-09-5.61624E-09
 -1       811-2.82946E+05-6.28927E+04-6.47884E+02-1.36856E+05 1.28113E-08 6.85236E-09
 -1       812-2.86354E+05-5.94669E+04-3.20797E+02-1.32940E+05 1.10231E-09-3.12980E-09
 -1       813-2.82915E+05-6.28981E+04-1.98050E+02-1.36839E+05-2.60741E-09 1.38502E-08
 -1       814-2.86349E+05-5.94787E+04-1.78863E+02-1.32934E+05-3.65208E-09-1.04865E-09
 -1       815-2.82912E+05-6.29033E+04-2.72633E+02-1.36830E+05-2.03568E-09-2.43426E-09
 -1       816-2.86324E+05-5.94812E+04-5.07002E+02-1.32927E+05-5.67525E-10 1.77201E-08
 -1       817-2.82990E+05-6.29547E+04-1.08393E+03-1.36812E+05 5.65888E-09 3.06841E-09
 -1       818-2.86248E+05-5.96403E+04-2.20901E+03-1.32849E+05 4.11637E-09 9.46784E-10
 -1       819-2.84207E+05-6.42728E+04-5.19677E+03-1.36493E+05 7.96717E-10 6.61112E-09
 -1       820-2.85807E+05-6.35827E+04-1.05781E+04-1.31174E+05-1.19144E-10-2.32285E-09
 -1       821-3.73821E+05 2.11516E+04-4.91511E+04 7.53312E+02-2.88054E-10 1.49157E-09
 -1       822-3.94003E+05-2.45136E+04-3.45906E+04-4.78079E+03-2.79229E-10-1.06957E-09
 -1       823-3.81529E+05 3.34106E+03-1.27043E+04 1.96824E+03-2.99480E-09 1.00044E-10
 -1       824-3.84817E+05-3.87007E+03-7.96347E+03-5.72262E+03 6.46800E-10-8.22638E-10
 -1       825-3.83013E+05 5.31392E+02-3.31211E+03 1.69517E+03 3.51089E-09 3.65128E-09
 -1       826-3.82604E+05-6.02922E+02-1.82353E+03-3.86920E+03 9.26498E-10 4.26755E-09
 -1       827-3.83724E+05 6.23221E+01-1.15240E+03 1.14796E+02-5.04940E-09-4.74273E-10
 -1       828-3.81972E+05-1.41873E+02-6.53179E+02-2.68078E+02-1.53990E-08 2.94073E-09
 -1       829-3.83633E+05 6.15362E+01-1.13885E+03-1.90594E+03 1.55168E-09-3.65961E-09
 -1       830-3.82810E+05-5.90221E+02-1.87037E+03 3.10345E+03 1.02352E-08-1.76587E-09
 -1       831-3.82902E+05 5.23316E+02-3.31151E+03-3.25682E+03 4.35777E-07-4.90945E-09
 -1       832-3.84884E+05-3.85669E+03-8.01299E+03 4.40057E+03 8.83710E-07-1.68257E-11
 -1       833-3.81574E+05 3.33615E+03-1.27923E+04-3.20316E+03 4.46878E-07-3.39605E-09
 -1       834-3.93919E+05-2.46173E+04-3.47535E+04 2.90926E+03 3.02386E-10 2.95768E-09
 -1       835-3.73855E+05 2.12563E+04-4.94538E+04-1.76535E+03 1.27381E-08-5.70435E-09
 -1       836-1.22388E+03 3.75665E+05 2.22956E+04-4.18007E+04 6.54200E-09 1.17325E-09
 -1       837 5.11903E+03 3.82455E+05 1.89886E+04-8.36163E+04 8.49195E-09-1.00590E-09
 -1       838-3.66883E+02 3.77568E+05 1.95012E+04-4.16818E+04 7.15227E-09 2.93767E-09
 -1       839 1.26971E+04 3.88096E+05 3.70397E+04-8.36333E+04 8.76935E-09-3.59069E-09
 -1       840-3.66176E+03 3.69960E+05 5.91167E+04-4.17765E+04 6.63931E-09-1.62390E-09
 -1       856-1.48034E+05 1.11230E+04-2.93190E+04-8.44927E+02-1.25077E-08-1.52977E-09
 -1       857-1.60153E+05-1.30331E+04-2.01847E+04 6.15914E+03-7.27539E-09-4.89126E-09
 -1       858-1.52818E+05 1.55638E+03-7.60997E+03-8.91083E+02-1.09323E-08-6.29461E-09
 -1       859-1.54663E+05-1.79539E+03-4.59657E+03 6.23565E+03 2.18461E-09 1.01096E-09
 -1       860-1.53532E+05 2.14477E+02-1.93515E+03-9.22066E+02 4.30242E-09-1.99623E-09
 -1       861-1.53842E+05-2.21928E+02-1.08215E+03 6.27834E+03-1.29555E-08-5.21658E-09
 -1       862-1.53643E+05 2.68063E+01-4.85484E+02-9.33888E+02 9.87505E-09-6.63937E-09
 -1       863-1.53712E+05-2.72533E+00-2.57768E+02 6.28306E+03 1.50906E-08-4.09315E-10
 -1       864-1.53662E+05 2.05661E-01-1.16816E+02-9.26799E+02 7.69506E-09-4.90450E-09
 -1       865-1.53683E+05 2.81179E+01-5.14113E+01 6.24915E+03 3.97608E-09-4.26621E-09
 -1       866-1.53669E+05-5.95982E+00-1.12213E+01-8.99959E+02 1.48475E-10-8.82989E-09
 -1       867-1.53657E+05 4.54374E+01 3.46676E+01 6.17648E+03-9.10916E-11-5.92375E-09
 -1       868-1.53681E+05-2.16230E+01 6.91143E+01-8.54105E+02 8.52879E-10-3.52122E-09
 -1       869-1.53578E+05 1.59756E+02 2.11563E+02 6.06110E+03 6.68763E-11-8.03558E-09
 -1       870-1.53737E+05-1.24227E+02 2.98510E+02-7.84554E+02 2.55534E-09-1.12966E-09
 -1       871-5.73646E+03-9.01678E+03-1.76731E+04 1.13863E+05 7.40511E-09-2.78033E-09
 -1       872-2.70470E+03-1.29155E+04-7.11673E+03 1.47615E+05 1.53195E-08 2.67300E-09
 -1       873-3.05636E+02-1.11744E+04 1.23537E+03 1.13618E+05 5.89216E-09 2.80966E-09
 -1       874 2.49852E+03-8.41421E+03 1.05033E+04 1.47677E+05 1.38953E-08 8.07813E-09
 -1       875 6.42636E+03-1.36311E+04 2.31392E+04 1.13834E+05 7.72161E-09 5.27234E-09
 -1       876 2.98868E+05 5.23154E+04 1.63764E+04 1.22223E+05-9.81527E-09-4.48108E-09
 -1       877 2.99700E+05 5.60180E+04 8.74572E+03 1.27169E+05-1.78024E-08-5.07794E-09
 -1       878 3.00394E+05 5.05071E+04 3.66365E+03 1.23570E+05 4.78258E-09 5.91763E-09
 -1       879 2.97469E+05 5.38004E+04 1.82513E+03 1.27282E+05-1.02864E-08 6.80996E-09
 -1       880 3.00502E+05 5.04894E+04 8.49197E+02 1.23625E+05 1.04001E-09 3.02748E-10
 -1       881 2.97320E+05 5.37057E+04 4.51772E+02 1.27256E+05 1.32416E-08-4.40234E-09
 -1       882 3.00511E+05 5.05043E+04 2.85663E+02 1.23626E+05 1.74223E-08 5.56828E-09
 -1       883 2.97309E+05 5.37010E+04 3.01928E+02 1.27247E+05 4.87444E-09 1.44032E-08
 -1       884 3.00504E+05 5.05017E+04 4.75406E+02 1.23626E+05-1.00454E-09 8.12486E-09
 -1       885 2.97346E+05 5.37077E+04 9.52751E+02 1.27258E+05 7.60758E-09 2.29761E-09
 -1       886 3.00468E+05 5.04737E+04 1.91861E+03 1.23622E+05 6.32497E-10-5.31145E-09
 -1       887 2.97684E+05 5.39287E+04 4.19017E+03 1.27308E+05-1.27654E-08 6.49391E-09
 -1       888 3.00204E+05 5.05191E+04 8.44278E+03 1.23488E+05 1.56820E-09 7.20456E-09
 -1       889 3.02718E+05 5.91486E+04 2.01683E+04 1.27148E+05 8.46374E-09 9.53469E-09
 -1       890 2.96773E+05 5.45985E+04 3.77743E+04 1.20260E+05 3.98677E-09-4.69299E-10
 -1       891-2.66225E+02-1.71910E+05-1.99873E+03 3.46002E+04-2.69438E-10 3.05567E-09
 -1       892-4.48371E+02-1.72340E+05-2.18504E+03 5.22586E+04-6.01358E-09-9.61154E-09
 -1       893-1.42654E+02-1.71960E+05-3.13580E+03 3.46068E+04 1.64209E-09-1.10504E-09
 -1       894-1.85423E+03-1.73520E+05-6.51682E+03 5.20729E+04-2.68210E-09 1.15556E-08
 -1       895-1.44814E+03-1.70581E+05-1.14926E+04 3.47797E+04 3.41538E-09 6.20003E-09
 -1       956-3.72181E+05-5.48567E+03-1.39105E+04 2.31224E+04-1.40826E-08-3.61706E-09
 -1       957-3.74938E+05-1.81225E+03-7.14056E+03 2.78871E+04-1.19289E-08-1.61117E-09
 -1       958-3.73421E+05-1.05938E+02-3.21768E+03 2.29497E+04 1.57070E-09 1.35196E-09
 -1       959-3.73653E+05 3.08977E+01-1.64305E+03 2.80676E+04-4.04179E-09 4.46335E-09
 -1       960-3.73538E+05 9.30877E+01-8.01039E+02 2.29325E+04-9.88894E-09 1.90403E-09
 -1       961-3.73566E+05 1.04148E+02-4.23869E+02 2.80873E+04-1.76960E-08 3.48587E-09
 -1       962-3.73565E+05 9.08526E+01-2.41072E+02 2.29294E+04-8.95761E-09-1.65596E-09
 -1       963-3.73567E+05 1.08963E+02-1.90126E+02 2.80919E+04-1.01822E-08 2.56296E-09
 -1       964-3.73574E+05 9.59458E+01-2.26923E+02 2.29278E+04-1.57956E-09-3.19233E-09
 -1       965-3.73585E+05 1.15269E+02-3.88674E+02 2.80932E+04 6.74862E-09-1.11254E-09
 -1       966-3.73565E+05 1.08134E+02-7.27767E+02 2.29281E+04-7.79923E-09-4.74188E-09
 -1       967-3.73683E+05 5.93053E+01-1.49179E+03 2.80857E+04-2.03005E-09 5.48312E-09
 -1       968-3.73474E+05-6.26862E+01-2.91900E+03 2.29357E+04-1.27534E-09-3.94664E-10
 -1       969-3.74868E+05-1.60459E+03-6.48135E+03 2.80012E+04 2.42471E-09 3.00417E-09
 -1       970-3.72361E+05-4.93986E+03-1.26243E+04 2.30241E+04 5.64751E-09 2.13731E-09
 -1       971-3.59413E+05-1.92318E+03-1.09008E+04 1.79109E+04-9.40236E-09 7.28392E-09
 -1       972-3.62082E+05-1.34452E+03-5.93540E+03 2.51898E+04-4.75211E-09 2.04636E-09
 -1       973-3.60632E+05 2.97193E+01-2.65862E+03 1.77518E+04-8.15817E-09 2.73167E-09
 -1       974-3.60839E+05 5.43167E+01-1.37635E+03 2.53591E+04 1.87174E-09 1.79398E-09
 -1       975-3.60733E+05 8.54647E+01-6.86050E+02 1.77358E+04 1.11368E-09 4.14730E-09
 -1       976-3.60773E+05 1.15698E+02-3.90987E+02 2.53790E+04-9.58903E-09 1.15801E-09
 -1       977-3.60755E+05 8.82136E+01-2.75991E+02 1.77314E+04-6.07542E-10 9.48489E-10
 -1       978-3.60781E+05 1.24450E+02-3.11912E+02 2.53852E+04 2.65136E-08-1.98656E-09
 -1       979-3.60757E+05 9.79804E+01-4.92031E+02 1.77295E+04 1.20378E-08 7.28960E-10
 -1       980-3.60818E+05 1.28126E+02-9.44339E+02 2.53863E+04 1.35572E-08-3.71358E-09
 -1       981-3.60727E+05 1.21163E+02-1.82628E+03 1.77302E+04-3.08864E-09 5.33629E-09
 -1       982-3.61067E+05-7.99798E+00-3.77339E+03 2.53776E+04-8.49457E-09 4.05777E-09
 -1       983-3.60495E+05 2.38139E+00-7.33150E+03 1.77390E+04-2.26464E-09 3.06727E-09
 -1       984-3.64586E+05-3.84018E+03-1.64177E+04 2.52720E+04 4.14502E-10 3.57056E-09
 -1       985-3.57171E+05-5.36463E+03-3.01487E+04 1.78550E+04 1.47506E-08 2.46655E-09
 -3
    1PSTEP                        33          17           1          
  100CL  117 7.56775E-01         409                     0   17           1
 -4  DISP        4    1
 -5  D1          1    2    1    0
 -5  D2          1    2    2    0
 -5  D3          1    2    3    0
 -5  ALL         1    2    0    0    1ALL
 -1         1 4.67934E-03 0.00000E+00 0.00000E+00
 -1         2 5.32619E-03 3.51558E-26 2.64698E-23
 -1         3 3.46215E-05 9.68471E-28 0.00000E+00
 -1         5 6.52192E-05 1.24130E-26 6.61744E-24
 -1         8 4.62991E-03-2.26781E-06 0.00000E+00
 -1         9 4.67519E-03-4.74037E-05 0.00000E+00
 -1        10 3.63952E-05 1.84510E-06-6.61744E-24
 -1        12 6.33167E-05 8.02896E-07-6.61744E-24
 -1        15 4.57164E-03-2.59233E-06 0.00000E+00
 -1        16 4.58179E-03-4.74699E-05 0.00000E+00
 -1        17 4.23603E-05 3.81627E-06 0.00000E+00
 -1        18 5.61185E-05-1.33622E-05 0.00000E+00
 -1        19 5.76081E-05 1.59920E-06 0.00000E+00
 -1        20 5.78168E-05 3.70685E-05 0.00000E+00
 -1        21 5.71075E-05 7.29259E-05 0.00000E+00
 -1        24 2.55707E-05 3.15298E-06 0.00000E+00
 -1        25 4.79709E-05-1.32021E-05 0.00000E+00
 -1        26 4.97839E-05 2.24542E-06 0.00000E+00
 -1        27 4.75626E-05 3.35271E-05 0.00000E+00
 -1        28 4.66424E-05 7.22132E-05 0.00000E+00
 -1        32 0.00000E+00 0.00000E+00 0.00000E+00
 -1        33 3.96438E-05 3.02443E-06 0.00000E+00
 -1        34 3.74968E-05 3.34930E-05 0.00000E+00
 -1        35 3.54091E-05 7.18386E-05 0.00000E+00
 -1        51 4.67610E-03-3.55974E-07 0.00000E+00
 -1        52 4.67012E-03-7.14574E-07 0.00000E+00
 -1        53 4.66194E-03-1.08266E-06 0.00000E+00
 -1        54 4.65213E-03-1.46274E-06-6.61744E-24
 -1        55 4.64126E-03-1.85440E-06 0.00000E+00
 -1        56 4.67892E-03-2.30717E-06 0.00000E+00
 -1        57 4.67979E-03-8.21268E-06 0.00000E+00
 -1        58 4.68176E-03-1.70890E-05 2.64698E-23
 -1        59 4.68455E-03-2.82330E-05 0.00000E+00
 -1        60 4.68785E-03-4.07811E-05 0.00000E+00
 -1        61 4.69134E-03-5.38295E-05 1.32349E-23
 -1        62 4.69466E-03-6.64395E-05 0.00000E+00
 -1        63 4.69748E-03-7.76857E-05 1.32349E-23
 -1        64 4.69951E-03-8.67374E-05 2.64698E-23
 -1        65 4.70045E-03-9.28295E-05-1.32349E-23
 -1        66 4.70009E-03-9.54009E-05 0.00000E+00
 -1        67 4.69823E-03-9.39954E-05 1.32349E-23
 -1        68 4.69480E-03-8.84301E-05-2.64698E-23
 -1        69 4.68976E-03-7.86411E-05 1.32349E-23
 -1        70 4.68316E-03-6.48588E-05 0.00000E+00
 -1        86 5.28752E-03-2.01667E-06 0.00000E+00
 -1        87 5.17359E-03-9.57401E-06 0.00000E+00
 -1        88 5.01856E-03-2.22042E-05 0.00000E+00
 -1        89 4.85830E-03-3.56321E-05 0.00000E+00
 -1        90 4.73141E-03-4.46491E-05 1.32349E-23
 -1       121 3.46705E-05 3.07470E-07-6.61744E-24
 -1       122 3.48175E-05 6.14936E-07-3.30872E-24
 -1       123 3.50629E-05 9.22391E-07-6.61744E-24
 -1       124 3.54072E-05 1.22988E-06 0.00000E+00
 -1       125 3.58510E-05 1.53729E-06 0.00000E+00
 -1       191 6.51664E-05 1.33883E-07 0.00000E+00
 -1       192 6.50079E-05 2.67755E-07 0.00000E+00
 -1       193 6.47436E-05 4.01605E-07 0.00000E+00
 -1       194 6.43737E-05 5.35421E-07 0.00000E+00
 -1       195 6.38981E-05 6.69189E-07 0.00000E+00
 -1       251 4.63260E-03 3.67436E-06 0.00000E+00
 -1       252 4.63544E-03 2.74377E-06 0.00000E+00
 -1       253 4.63827E-03-1.81571E-06 5.29396E-23
 -1       254 4.64113E-03-7.21260E-06-5.29396E-23
 -1       255 4.64398E-03-1.30516E-05 0.00000E+00
 -1       256 4.64684E-03-1.89915E-05 0.00000E+00
 -1       257 4.64969E-03-2.49835E-05 1.05879E-22
 -1       258 4.65255E-03-3.09853E-05-5.29396E-23
 -1       259 4.65541E-03-3.69830E-05-1.05879E-22
 -1       260 4.65827E-03-4.29623E-05 0.00000E+00
 -1       261 4.66113E-03-4.88551E-05 0.00000E+00
 -1       262 4.66398E-03-5.45830E-05 0.00000E+00
 -1       263 4.66684E-03-5.95883E-05-1.05879E-22
 -1       264 4.66969E-03-6.32256E-05-2.64698E-23
 -1       265 4.67253E-03-6.09300E-05 5.29396E-23
 -1       266 4.62020E-03-2.34829E-06 0.00000E+00
 -1       267 4.61049E-03-2.39916E-06 0.00000E+00
 -1       268 4.60077E-03-2.45190E-06 0.00000E+00
 -1       269 4.59106E-03-2.49909E-06-8.27181E-25
 -1       270 4.58135E-03-2.54615E-06 0.00000E+00
 -1       271 4.62382E-03 3.54096E-06-5.29396E-23
 -1       272 4.61948E-03 4.35586E-06 0.00000E+00
 -1       273 4.61684E-03 6.76057E-07 0.00000E+00
 -1       274 4.61561E-03-6.84758E-06 0.00000E+00
 -1       275 4.61547E-03-1.73675E-05-1.05879E-22
 -1       276 4.61606E-03-2.99082E-05 0.00000E+00
 -1       277 4.61699E-03-4.33948E-05-1.05879E-22
 -1       278 4.61787E-03-5.67108E-05 0.00000E+00
 -1       279 4.61827E-03-6.87481E-05 0.00000E+00
 -1       280 4.61783E-03-7.84556E-05 0.00000E+00
 -1       281 4.61619E-03-8.48955E-05 0.00000E+00
 -1       282 4.61304E-03-8.72757E-05 5.29396E-23
 -1       283 4.60814E-03-8.49996E-05-1.05879E-22
 -1       284 4.60133E-03-7.76723E-05 5.29396E-23
 -1       285 4.59251E-03-6.51507E-05 0.00000E+00
 -1       301 4.65837E-03-4.74204E-05 0.00000E+00
 -1       302 4.64368E-03-4.74061E-05 1.65436E-24
 -1       303 4.62989E-03-4.73791E-05 0.00000E+00
 -1       304 4.61579E-03-4.73614E-05 0.00000E+00
 -1       305 4.60016E-03-4.73726E-05 6.61744E-24
 -1       306 4.55751E-03 1.56776E-04 0.00000E+00
 -1       307 4.18100E-03 6.42516E-04 0.00000E+00
 -1       308 3.50914E-03 1.29462E-03 0.00000E+00
 -1       309 2.61232E-03 2.00204E-03 5.29396E-23
 -1       310 1.66562E-03 2.71697E-03 0.00000E+00
 -1       311 8.58872E-04 3.41002E-03 5.29396E-23
 -1       312 3.10208E-04 4.00453E-03 0.00000E+00
 -1       313 5.06513E-05 4.38842E-03-1.05879E-22
 -1       314 2.09875E-05 4.42718E-03 0.00000E+00
 -1       315 7.77213E-05 4.09315E-03 0.00000E+00
 -1       316 1.05174E-04 3.41812E-03 0.00000E+00
 -1       317 4.99900E-05 2.52427E-03 5.29396E-23
 -1       318-2.89806E-05 1.58165E-03-1.05879E-22
 -1       319-4.78669E-05 7.62618E-04 0.00000E+00
 -1       320-8.49642E-08 2.05749E-04 0.00000E+00
 -1       336 3.70547E-05 2.17703E-06 0.00000E+00
 -1       337 3.78449E-05 2.50907E-06 0.00000E+00
 -1       338 3.87680E-05 2.84069E-06 6.61744E-24
 -1       339 3.98264E-05 3.17031E-06 0.00000E+00
 -1       340 4.10228E-05 3.49993E-06-6.61744E-24
 -1       406 6.26295E-05 9.36522E-07 0.00000E+00
 -1       407 6.18365E-05 1.07003E-06 0.00000E+00
 -1       408 6.09377E-05 1.20337E-06 0.00000E+00
 -1       409 5.99331E-05 1.33636E-06 0.00000E+00
 -1       410 5.88229E-05 1.46872E-06-6.61744E-24
 -1       521 4.46277E-03 1.56635E-04-1.05879E-22
 -1       522 4.08739E-03 6.40255E-04 0.00000E+00
 -1       523 3.42251E-03 1.28927E-03 0.00000E+00
 -1       524 2.54213E-03 1.99406E-03-5.29396E-23
 -1       525 1.61403E-03 2.70686E-03 0.00000E+00
 -1       526 8.20106E-04 3.39651E-03-2.11758E-22
 -1       527 2.79361E-04 3.98605E-03-2.11758E-22
 -1       528 2.34426E-05 4.36466E-03 0.00000E+00
 -1       529-5.43632E-06 4.39844E-03 0.00000E+00
 -1       530 5.03794E-05 4.06189E-03 1.05879E-22
 -1       531 7.78734E-05 3.38928E-03 0.00000E+00
 -1       532 2.71518E-05 2.50505E-03 5.29396E-23
 -1       533-4.61961E-05 1.57311E-03 1.05879E-22
 -1       534-6.31523E-05 7.60021E-04 0.00000E+00
 -1       535-1.58509E-05 2.05644E-04 1.05879E-22
 -1       536 4.31869E-05 2.44767E-06 0.00000E+00
 -1       537 4.40477E-05 1.16060E-06 0.00000E+00
 -1       538 4.49064E-05-8.32711E-08 0.00000E+00
 -1       539 4.57716E-05-1.32064E-06 0.00000E+00
 -1       540 4.66370E-05-2.55455E-06 0.00000E+00
 -1       541 4.75037E-05-3.78793E-06 1.32349E-23
 -1       542 4.83705E-05-5.02103E-06-2.64698E-23
 -1       543 4.92376E-05-6.25405E-06 1.32349E-23
 -1       544 5.01046E-05-7.48674E-06-2.64698E-23
 -1       545 5.09714E-05-8.71890E-06 0.00000E+00
 -1       546 5.18382E-05-9.94740E-06 0.00000E+00
 -1       547 5.27036E-05-1.11690E-05 0.00000E+00
 -1       548 5.35690E-05-1.23444E-05 0.00000E+00
 -1       549 5.44281E-05-1.34326E-05 0.00000E+00
 -1       550 5.52898E-05-1.39430E-05 0.00000E+00
 -1       551 4.10335E-05 3.72070E-06 0.00000E+00
 -1       552 3.76711E-05 3.61857E-06 0.00000E+00
 -1       553 3.33534E-05 3.51327E-06 0.00000E+00
 -1       554 2.91718E-05 3.40441E-06 0.00000E+00
 -1       555 2.62177E-05 3.29381E-06 0.00000E+00
 -1       556 4.28972E-05 2.26491E-06 0.00000E+00
 -1       557 4.34743E-05 5.97366E-07 0.00000E+00
 -1       558 4.40798E-05-1.14733E-06 0.00000E+00
 -1       559 4.46992E-05-2.93042E-06-4.13590E-25
 -1       560 4.53184E-05-4.71305E-06 0.00000E+00
 -1       561 4.59229E-05-6.45639E-06 7.23783E-25
 -1       562 4.64982E-05-8.12164E-06 1.24077E-24
 -1       563 4.70298E-05-9.67001E-06 4.13590E-25
 -1       564 4.75033E-05-1.10627E-05-1.65436E-24
 -1       565 4.79042E-05-1.22609E-05 8.27181E-25
 -1       566 4.82178E-05-1.32260E-05-1.65436E-24
 -1       567 4.84298E-05-1.39192E-05 0.00000E+00
 -1       568 4.85254E-05-1.43017E-05 0.00000E+00
 -1       569 4.84903E-05-1.43351E-05 0.00000E+00
 -1       570 4.83098E-05-1.39809E-05 0.00000E+00
 -1       571 5.62090E-05-1.23055E-05-1.24077E-24
 -1       572 5.63013E-05-1.13125E-05 1.24077E-24
 -1       573 5.63943E-05-1.03735E-05-1.65436E-24
 -1       574 5.64876E-05-9.47837E-06 0.00000E+00
 -1       575 5.65810E-05-8.61681E-06-3.30872E-24
 -1       576 5.66744E-05-7.77849E-06 0.00000E+00
 -1       577 5.67679E-05-6.95308E-06-3.30872E-24
 -1       578 5.68614E-05-6.13025E-06-1.65436E-24
 -1       579 5.69549E-05-5.29963E-06 0.00000E+00
 -1       580 5.70484E-05-4.45088E-06 1.65436E-24
 -1       581 5.71418E-05-3.57367E-06 0.00000E+00
 -1       582 5.72352E-05-2.65765E-06 3.30872E-24
 -1       583 5.73286E-05-1.69249E-06-6.61744E-24
 -1       584 5.74219E-05-6.67968E-07-6.61744E-24
 -1       585 5.75151E-05 4.26108E-07 0.00000E+00
 -1       586 5.47838E-05-1.33336E-05 0.00000E+00
 -1       587 5.33985E-05-1.33061E-05 0.00000E+00
 -1       588 5.19934E-05-1.32790E-05-6.20385E-25
 -1       589 5.05997E-05-1.32523E-05 0.00000E+00
 -1       590 4.92487E-05-1.32262E-05 0.00000E+00
 -1       591 5.56848E-05-1.22758E-05-1.03398E-25
 -1       592 5.52726E-05-1.12568E-05 0.00000E+00
 -1       593 5.48809E-05-1.02932E-05-8.27181E-25
 -1       594 5.45055E-05-9.37403E-06 1.24077E-24
 -1       595 5.41424E-05-8.48803E-06 0.00000E+00
 -1       596 5.37876E-05-7.62409E-06 0.00000E+00
 -1       597 5.34368E-05-6.77112E-06 0.00000E+00
 -1       598 5.30860E-05-5.91801E-06-4.13590E-25
 -1       599 5.27310E-05-5.05366E-06 0.00000E+00
 -1       600 5.23676E-05-4.16697E-06 4.13590E-25
 -1       601 5.19916E-05-3.24685E-06-4.13590E-25
 -1       602 5.15990E-05-2.28216E-06-1.03398E-25
 -1       603 5.11856E-05-1.26183E-06-2.26182E-25
 -1       604 5.07475E-05-1.74666E-07 0.00000E+00
 -1       605 5.02804E-05 9.90390E-07 8.27181E-25
 -1       606 5.76271E-05 2.98726E-06 0.00000E+00
 -1       607 5.76425E-05 4.53448E-06 0.00000E+00
 -1       608 5.76568E-05 6.23149E-06-6.61744E-24
 -1       609 5.76705E-05 8.06777E-06 3.30872E-24
 -1       610 5.76838E-05 1.00327E-05 0.00000E+00
 -1       611 5.76969E-05 1.21157E-05 0.00000E+00
 -1       612 5.77097E-05 1.43058E-05 0.00000E+00
 -1       613 5.77222E-05 1.65924E-05 0.00000E+00
 -1       614 5.77346E-05 1.89648E-05 0.00000E+00
 -1       615 5.77468E-05 2.14121E-05 0.00000E+00
 -1       616 5.77589E-05 2.39237E-05 0.00000E+00
 -1       617 5.77708E-05 2.64887E-05 0.00000E+00
 -1       618 5.77826E-05 2.90964E-05 0.00000E+00
 -1       619 5.77942E-05 3.17362E-05 0.00000E+00
 -1       620 5.78058E-05 3.43971E-05 0.00000E+00
 -1       621 5.63310E-05 1.70685E-06-3.30872E-24
 -1       622 5.50401E-05 1.81517E-06 1.65436E-24
 -1       623 5.37377E-05 1.92348E-06 3.30872E-24
 -1       624 5.24261E-05 2.03162E-06 1.65436E-24
 -1       625 5.11074E-05 2.13957E-06 0.00000E+00
 -1       626 5.71971E-05 3.01753E-06-6.61744E-24
 -1       627 5.67361E-05 4.57053E-06 0.00000E+00
 -1       628 5.62289E-05 6.24661E-06 0.00000E+00
 -1       629 5.56802E-05 8.03326E-06 0.00000E+00
 -1       630 5.50945E-05 9.91802E-06 0.00000E+00
 -1       631 5.44766E-05 1.18883E-05 0.00000E+00
 -1       632 5.38312E-05 1.39315E-05-6.61744E-24
 -1       633 5.31631E-05 1.60351E-05 0.00000E+00
 -1       634 5.24769E-05 1.81864E-05 0.00000E+00
 -1       635 5.17774E-05 2.03729E-05-1.65436E-24
 -1       636 5.10693E-05 2.25821E-05 3.30872E-24
 -1       637 5.03575E-05 2.48013E-05 0.00000E+00
 -1       638 4.96465E-05 2.70180E-05 0.00000E+00
 -1       639 4.89409E-05 2.92196E-05 1.65436E-24
 -1       640 4.82453E-05 3.13935E-05-3.30872E-24
 -1       656 5.54634E-05 3.64916E-05 0.00000E+00
 -1       657 5.36582E-05 3.58922E-05 0.00000E+00
 -1       658 5.21947E-05 3.52952E-05-1.32349E-23
 -1       659 5.08579E-05 3.46988E-05 6.61744E-24
 -1       660 4.93966E-05 3.41003E-05-6.61744E-24
 -1       661 5.69468E-05 3.97076E-05 1.65436E-24
 -1       662 5.61072E-05 4.22798E-05 1.65436E-24
 -1       663 5.52921E-05 4.47860E-05-3.30872E-24
 -1       664 5.45017E-05 4.72294E-05 1.65436E-24
 -1       665 5.37343E-05 4.96118E-05 0.00000E+00
 -1       666 5.29893E-05 5.19354E-05 0.00000E+00
 -1       667 5.22659E-05 5.42018E-05 3.30872E-24
 -1       668 5.15634E-05 5.64127E-05 0.00000E+00
 -1       669 5.08814E-05 5.85695E-05 3.30872E-24
 -1       670 5.02194E-05 6.06731E-05 0.00000E+00
 -1       671 4.95770E-05 6.27246E-05 0.00000E+00
 -1       672 4.89538E-05 6.47246E-05-1.65436E-24
 -1       673 4.83498E-05 6.66736E-05 0.00000E+00
 -1       674 4.77636E-05 6.85716E-05 0.00000E+00
 -1       675 4.71970E-05 7.04190E-05 0.00000E+00
 -1       676 5.53564E-05 7.28064E-05-3.30872E-24
 -1       677 5.36065E-05 7.26869E-05 0.00000E+00
 -1       678 5.18589E-05 7.25675E-05 0.00000E+00
 -1       679 5.01149E-05 7.24485E-05 0.00000E+00
 -1       680 4.83757E-05 7.23295E-05 0.00000E+00
 -1       771 2.48806E-05 6.35541E-07-2.64698E-23
 -1       772 2.39996E-05-1.46466E-06 1.32349E-23
 -1       773 2.29635E-05-3.15697E-06-5.29396E-23
 -1       774 2.17799E-05-4.46515E-06 0.00000E+00
 -1       775 2.04603E-05-5.41250E-06 0.00000E+00
 -1       776 1.90144E-05-6.02464E-06 0.00000E+00
 -1       777 1.74525E-05-6.32804E-06 0.00000E+00
 -1       778 1.57850E-05-6.35054E-06 0.00000E+00
 -1       779 1.40227E-05-6.12065E-06-5.29396E-23
 -1       780 1.21766E-05-5.66796E-06 2.64698E-23
 -1       781 1.02580E-05-5.02261E-06 0.00000E+00
 -1       782 8.27870E-06-4.21552E-06 0.00000E+00
 -1       783 6.25044E-06-3.27799E-06 0.00000E+00
 -1       784 4.18572E-06-2.24173E-06-2.64698E-23
 -1       785 2.09641E-06-1.13893E-06 5.29396E-23
 -1       786 4.80785E-05-1.21578E-05-1.65436E-24
 -1       787 4.81916E-05-1.11738E-05 0.00000E+00
 -1       788 4.83044E-05-1.02339E-05 3.30872E-24
 -1       789 4.84183E-05-9.32188E-06 0.00000E+00
 -1       790 4.85323E-05-8.42917E-06 0.00000E+00
 -1       791 4.86464E-05-7.54736E-06-1.65436E-24
 -1       792 4.87606E-05-6.67103E-06 3.30872E-24
 -1       793 4.88748E-05-5.79480E-06 0.00000E+00
 -1       794 4.89890E-05-4.91329E-06 0.00000E+00
 -1       795 4.91032E-05-4.02113E-06 1.65436E-24
 -1       796 4.92174E-05-3.10997E-06 0.00000E+00
 -1       797 4.93315E-05-2.17139E-06 0.00000E+00
 -1       798 4.94455E-05-1.18939E-06 0.00000E+00
 -1       799 4.95590E-05-1.47775E-07-1.65436E-24
 -1       800 4.96726E-05 9.86127E-07 0.00000E+00
 -1       801 4.42112E-05-1.10163E-05 0.00000E+00
 -1       802 3.54109E-05-8.77380E-06 2.64698E-23
 -1       803 2.42329E-05-6.55990E-06-5.29396E-23
 -1       804 1.30821E-05-4.35594E-06 2.64698E-23
 -1       805 4.18095E-06-2.12145E-06 0.00000E+00
 -1       806 4.74675E-05-1.22171E-05 0.00000E+00
 -1       807 4.69742E-05-1.12724E-05 0.00000E+00
 -1       808 4.64912E-05-1.03578E-05-3.30872E-24
 -1       809 4.60154E-05-9.46387E-06 0.00000E+00
 -1       810 4.55438E-05-8.58134E-06 0.00000E+00
 -1       811 4.50728E-05-7.70090E-06 1.65436E-24
 -1       812 4.45991E-05-6.81327E-06 0.00000E+00
 -1       813 4.41192E-05-5.90922E-06 1.65436E-24
 -1       814 4.36297E-05-4.97946E-06 0.00000E+00
 -1       815 4.31270E-05-4.01475E-06 0.00000E+00
 -1       816 4.26076E-05-3.00586E-06 0.00000E+00
 -1       817 4.20682E-05-1.94352E-06 0.00000E+00
 -1       818 4.15053E-05-8.18506E-07-1.65436E-24
 -1       819 4.09156E-05 3.78380E-07 0.00000E+00
 -1       820 4.02957E-05 1.65636E-06 1.65436E-24
 -1       821 4.96577E-05 2.94205E-06 0.00000E+00
 -1       822 4.95237E-05 2.39337E-06-1.65436E-24
 -1       823 4.93894E-05 1.02875E-06 0.00000E+00
 -1       824 4.92531E-05-7.17361E-07-1.65436E-24
 -1       825 4.91170E-05-2.30747E-06-3.30872E-24
 -1       826 4.89814E-05-3.20495E-06 0.00000E+00
 -1       827 4.88460E-05-3.06147E-06 0.00000E+00
 -1       828 4.87096E-05-1.53499E-06 0.00000E+00
 -1       829 4.85703E-05 1.34086E-06-3.30872E-24
 -1       830 4.84265E-05 5.52429E-06 0.00000E+00
 -1       831 4.82789E-05 1.06184E-05 0.00000E+00
 -1       832 4.81289E-05 1.62207E-05-1.65436E-24
 -1       833 4.79792E-05 2.17904E-05 0.00000E+00
 -1       834 4.78338E-05 2.67873E-05 0.00000E+00
 -1       835 4.76921E-05 3.08260E-05 0.00000E+00
 -1       836 4.82958E-05 2.37531E-06-3.30872E-24
 -1       837 4.66195E-05 2.50784E-06-1.65436E-24
 -1       838 4.48355E-05 2.63998E-06-3.30872E-24
 -1       839 4.30244E-05 2.77127E-06 0.00000E+00
 -1       840 4.12671E-05 2.90244E-06-4.13590E-25
 -1       856 4.75110E-05 3.56420E-05 1.03398E-25
 -1       857 4.74542E-05 3.79154E-05 4.13590E-25
 -1       858 4.73974E-05 4.03225E-05 0.00000E+00
 -1       859 4.73395E-05 4.28382E-05 0.00000E+00
 -1       860 4.72813E-05 4.54371E-05-1.65436E-24
 -1       861 4.72228E-05 4.80938E-05 8.27181E-25
 -1       862 4.71641E-05 5.07826E-05 0.00000E+00
 -1       863 4.71055E-05 5.34779E-05 0.00000E+00
 -1       864 4.70468E-05 5.61541E-05-1.65436E-24
 -1       865 4.69883E-05 5.87853E-05 0.00000E+00
 -1       866 4.69300E-05 6.13462E-05-1.65436E-24
 -1       867 4.68719E-05 6.38113E-05 0.00000E+00
 -1       868 4.68140E-05 6.61553E-05 0.00000E+00
 -1       869 4.67565E-05 6.83534E-05 0.00000E+00
 -1       870 4.66993E-05 7.03808E-05 1.65436E-24
 -1       871 4.57292E-05 3.35252E-05-4.13590E-25
 -1       872 4.40384E-05 3.35206E-05 0.00000E+00
 -1       873 4.24304E-05 3.35156E-05 4.13590E-25
 -1       874 4.08445E-05 3.35099E-05-1.03398E-25
 -1       875 3.92200E-05 3.35034E-05 1.24077E-24
 -1       876 4.69014E-05 3.56534E-05 3.30872E-24
 -1       877 4.62142E-05 3.78570E-05 0.00000E+00
 -1       878 4.55017E-05 4.01285E-05 0.00000E+00
 -1       879 4.47672E-05 4.24591E-05 0.00000E+00
 -1       880 4.40139E-05 4.48399E-05 3.30872E-24
 -1       881 4.32449E-05 4.72622E-05 1.65436E-24
 -1       882 4.24636E-05 4.97173E-05 0.00000E+00
 -1       883 4.16732E-05 5.21963E-05 0.00000E+00
 -1       884 4.08771E-05 5.46905E-05 0.00000E+00
 -1       885 4.00785E-05 5.71912E-05 0.00000E+00
 -1       886 3.92808E-05 5.96897E-05 0.00000E+00
 -1       887 3.84870E-05 6.21771E-05 0.00000E+00
 -1       888 3.77005E-05 6.46448E-05-3.30872E-24
 -1       889 3.69241E-05 6.70837E-05-1.65436E-24
 -1       890 3.61611E-05 6.94852E-05 0.00000E+00
 -1       891 4.49441E-05 7.21508E-05 1.65436E-24
 -1       892 4.32190E-05 7.20881E-05 8.27181E-25
 -1       893 4.14351E-05 7.20254E-05 0.00000E+00
 -1       894 3.95601E-05 7.19627E-05-4.13590E-25
 -1       895 3.75620E-05 7.18999E-05-4.13590E-25
 -1       956 3.95125E-05 4.57705E-06 0.00000E+00
 -1       957 3.93791E-05 6.21803E-06 1.65436E-24
 -1       958 3.92451E-05 7.93899E-06 3.30872E-24
 -1       959 3.91107E-05 9.73097E-06 0.00000E+00
 -1       960 3.89762E-05 1.15850E-05-3.30872E-24
 -1       961 3.88416E-05 1.34921E-05 0.00000E+00
 -1       962 3.87068E-05 1.54433E-05 3.30872E-24
 -1       963 3.85719E-05 1.74294E-05 0.00000E+00
 -1       964 3.84371E-05 1.94415E-05 0.00000E+00
 -1       965 3.83021E-05 2.14704E-05-1.65436E-24
 -1       966 3.81672E-05 2.35072E-05 0.00000E+00
 -1       967 3.80324E-05 2.55428E-05 0.00000E+00
 -1       968 3.78976E-05 2.75682E-05 0.00000E+00
 -1       969 3.77630E-05 2.95743E-05 1.65436E-24
 -1       970 3.76289E-05 3.15522E-05 0.00000E+00
 -1       971 3.73687E-05 3.54725E-05-3.30872E-24
 -1       972 3.72385E-05 3.75713E-05 0.00000E+00
 -1       973 3.71080E-05 3.97762E-05 0.00000E+00
 -1       974 3.69771E-05 4.20734E-05-1.65436E-24
 -1       975 3.68460E-05 4.44493E-05 3.30872E-24
 -1       976 3.67147E-05 4.68900E-05 1.65436E-24
 -1       977 3.65832E-05 4.93820E-05 3.30872E-24
 -1       978 3.64517E-05 5.19113E-05 1.65436E-24
 -1       979 3.63201E-05 5.44643E-05-3.30872E-24
 -1       980 3.61885E-05 5.70270E-05 1.65436E-24
 -1       981 3.60569E-05 5.95858E-05 0.00000E+00
 -1       982 3.59255E-05 6.21269E-05 0.00000E+00
 -1       983 3.57944E-05 6.46364E-05 0.00000E+00
 -1       984 3.56638E-05 6.71007E-05 0.00000E+00
 -1       985 3.55340E-05 6.95059E-05 0.00000E+00
 -3
    1PSTEP                        34          17           1          
  100CL  117 7.56775E-01         409                     0   17           1
 -4  STRESS      6    1
 -5  SXX         1    4    1    1
 -5  SYY         1    4    2    2
 -5  SZZ         1    4    3    3
 -5  SXY         1    4    1    2
 -5  SYZ         1    4    2    3
 -5  SZX         1    4    3    1
 -1         1-1.46384E+06-9.03807E+05-2.65729E+05-1.61637E+06 1.32059E-09 3.74348E-08
 -1         2 2.64903E+05 2.56044E+06 1.06403E+06-1.33823E+06-1.11540E-08-7.93370E-08
 -1         3-1.81749E+01 8.80055E+05-1.39528E+02-6.59612E+01-5.59552E-14-5.58703E-09
 -1         5-7.98561E+01 3.83407E+05 1.00684E+01 1.36295E+00 5.28941E-10 2.67919E-08
 -1         8 1.03118E+05-3.58053E+05 3.63552E+05-1.36384E+06 2.61934E-10 1.77824E-07
 -1         9 1.60565E+07 1.52604E+07 4.54364E+06 1.32946E+07 2.56114E-10 1.99303E-07
 -1        10 7.35708E+02 9.17058E+05 3.10112E+03-4.77401E+02 6.39432E-10-2.74684E-09
 -1        12-7.59107E+01 3.83429E+05 3.31247E+02 9.29604E+00 6.61657E-10 1.24301E-08
 -1        15 4.37210E+03 2.40292E+03 1.41332E+04 1.83630E+01-3.54623E-09-4.67700E-07
 -1        16 2.21984E+07 2.30939E+07 6.23737E+06 2.24462E+07 3.65156E-08-1.52116E-08
 -1        17 2.51826E+07 3.07118E+05 3.61886E+06-2.53503E+06 2.23872E-08-4.74029E-08
 -1        18 6.89326E+05 1.60711E+05 1.40603E+05-7.57429E+04 3.71028E-09-2.52112E-09
 -1        19 1.17743E+05 1.45448E+05-2.88723E+02 2.37026E+04-1.89211E-09-1.36351E-09
 -1        20-3.50485E+04-5.56876E+05-1.21914E+05 4.80572E+04 1.18256E-08-1.85598E-09
 -1        21-5.37442E+01-3.37901E+05-1.10688E+03-4.05823E+02-2.40173E-08-2.18999E-08
 -1        24 4.02313E+07-8.72512E+05 5.31191E+06-4.53478E+06 1.08487E-07 2.71296E-08
 -1        25 3.50260E+05 1.37136E+06 3.55227E+05-1.21998E+05 1.83882E-09 8.31496E-09
 -1        26-1.02970E+04 1.04910E+05-1.61630E+04-2.26748E+04 2.70666E-09-1.57149E-10
 -1        27-9.39215E+04-3.07181E+05-1.15869E+05 6.97889E+04 1.01283E-08-6.30765E-09
 -1        28 2.66011E+04-9.15303E+04 1.90323E+04 3.25689E+04 1.45321E-08-3.60137E-09
 -1        32-5.10571E+05 3.22163E+06 1.30811E+06-7.53138E+05-3.02680E-09 6.28378E-08
 -1        33-1.71506E+05 9.31903E+04 3.27136E+04-6.27497E+04 3.64491E-09 5.25991E-10
 -1        34-2.30452E+05-2.20886E+04 4.40886E+02 6.79788E+04 1.12712E-08-6.67872E-10
 -1        35-2.68912E+04-3.63219E+04-1.42951E+03 5.89063E+04 1.59321E-08-5.07256E-09
 -1        51-4.64244E+03-8.80080E+05 1.35984E+04-1.90994E+06-1.68802E-09 1.65426E-07
 -1        52 1.60821E+04-9.01697E+05 2.08731E+04-2.22848E+06-3.34694E-10 1.57233E-07
 -1        53 2.29789E+04-9.36594E+05 2.96385E+04-1.90312E+06 6.11180E-10 5.60249E-08
 -1        54 5.93672E+04-9.46540E+05 6.38159E+04-2.23501E+06-1.14960E-09-2.80997E-07
 -1        55 9.70739E+04-9.75371E+05 1.22057E+05-1.90142E+06 2.27010E-09 1.27642E-07
 -1        56-2.88795E+06-3.25406E+05-1.85647E+05-1.08640E+06-4.24043E-08 1.85973E-08
 -1        57-2.86223E+06-5.78662E+05-1.22900E+05-1.17773E+06 6.48397E-08 2.44536E-07
 -1        58-2.93818E+06-3.67505E+05-4.38678E+04-1.05538E+06 2.34386E-08-6.72644E-08
 -1        59-2.80347E+06-5.32676E+05-2.56144E+04-1.22284E+06-3.77222E-08 1.52635E-07
 -1        60-2.94970E+06-3.67560E+05-1.01274E+04-1.04421E+06 1.12475E-08 1.16645E-07
 -1        61-2.79392E+06-5.27988E+05-5.89318E+03-1.23180E+06-9.49906E-08 7.67429E-09
 -1        62-2.94854E+06-3.71400E+05-3.37288E+03-1.04709E+06 9.68439E-08-2.24498E-07
 -1        63-2.80296E+06-5.12518E+05-2.57491E+03-1.21215E+06-2.81907E-08 2.37914E-07
 -1        64-2.93837E+06-3.84508E+05-5.75961E+03-1.06227E+06 5.02496E-08-1.73778E-07
 -1        65-2.82861E+06-4.83059E+05-8.36196E+03-1.17008E+06 4.44252E-08-1.15732E-07
 -1        66-2.91917E+06-4.03344E+05-2.03092E+04-1.08647E+06 9.71340E-10 8.71314E-08
 -1        67-2.87876E+06-4.57195E+05-4.43730E+04-1.11381E+06-2.57687E-08-4.30548E-07
 -1        68-2.88596E+06-4.12306E+05-8.07671E+04-1.11660E+06-7.55654E-08-7.99715E-07
 -1        69-3.00471E+06-5.36186E+05-2.23193E+05-1.03736E+06-5.59230E-08 2.14350E-07
 -1        70-2.79458E+06-3.26762E+05-3.35107E+05-1.16227E+06 4.81559E-08-1.76806E-08
 -1        86-2.72074E+05-5.50283E+06-6.11902E+05 6.51209E+05 1.25616E-07-4.76590E-07
 -1        87 3.52079E+05-6.58244E+05 4.48159E+05-1.65300E+06 2.14139E-07 2.25995E-07
 -1        88-3.15311E+04-2.63803E+06-3.82080E+04 9.90151E+05 1.99499E-07 2.44750E-07
 -1        89 3.96345E+05-1.04327E+06 2.53592E+05-1.75235E+06 2.75045E-07-1.69137E-07
 -1        90-2.72318E+05-5.16239E+06-8.68326E+05 7.57086E+05 9.33796E-08 6.56801E-08
 -1       121-1.27483E-01 8.80141E+05-1.67980E+02 3.29822E+01-1.77884E-11 4.32010E-11
 -1       122-8.32219E+01 8.80012E+05-3.14228E+02-1.32023E+02 3.68402E-10 2.61889E-09
 -1       123 4.72883E+01 8.80184E+05-5.32068E+02 9.90574E+01-2.86292E-10-4.65457E-09
 -1       124-8.87018E+02 8.79526E+05-1.38187E+03-2.35757E+02 5.10170E-10-5.37102E-09
 -1       125 5.67295E+02 8.80628E+05-1.97827E+03 1.36882E+02-3.85853E-10-2.84558E-09
 -1       191-8.41359E+01 3.83424E+05 8.36161E+00-7.12867E-01 5.75160E-10 1.09249E-08
 -1       192-8.08305E+01 3.83408E+05 2.14955E+01 4.39142E+00 8.20679E-10 5.35692E-10
 -1       193-8.66997E+01 3.83424E+05 3.64035E+01-3.87060E+00 1.01679E-09-2.72848E-09
 -1       194-8.39541E+01 3.83411E+05 8.17405E+01 9.97692E+00 5.25657E-10-8.64929E-09
 -1       195-9.16204E+01 3.83421E+05 1.56302E+02-6.50845E+00 1.55489E-09-4.95675E-09
 -1       251 8.06759E+06-3.91187E+05 9.13302E+05 1.06147E+05-7.26868E-09-1.20373E-07
 -1       252 8.50834E+06 4.52359E+05 6.50926E+05-2.19677E+05 3.77963E-08 4.71991E-08
 -1       253 8.24344E+06-5.92817E+04 2.38484E+05-2.94460E+04-1.22534E-08 9.53587E-08
 -1       254 8.30733E+06 6.92302E+04 1.48929E+05-6.80246E+04 1.62238E-08 2.66278E-07
 -1       255 8.26851E+06-8.91175E+03 6.16204E+04-4.54527E+04 9.64620E-09 1.28384E-08
 -1       256 8.27878E+06 1.10386E+04 3.66524E+04-5.01458E+04-1.74488E-08 1.26662E-07
 -1       257 8.27261E+06-1.27665E+03 1.82768E+04-4.73287E+04-5.26023E-09 7.06518E-08
 -1       258 8.27462E+06 3.02813E+03 1.46857E+04-4.84198E+04 7.51793E-09 1.36843E-08
 -1       259 8.27283E+06-9.23916E+02 1.52495E+04-4.71797E+04 2.50033E-09-1.02239E-07
 -1       260 8.27715E+06 7.98203E+03 2.78431E+04-5.16976E+04-1.57056E-08-2.77329E-07
 -1       261 8.26999E+06-6.21696E+03 4.59158E+04-4.40502E+04 2.08221E-08-1.65644E-07
 -1       262 8.29792E+06 4.91412E+04 1.09462E+05-8.10754E+04-2.31963E-08-2.17842E-08
 -1       263 8.25163E+06-4.19778E+04 1.76092E+05-1.77996E+04 1.20139E-09 1.87858E-07
 -1       264 8.49539E+06 3.33411E+05 4.88791E+05-3.27523E+05-1.82514E-08 1.86788E-07
 -1       265 8.07582E+06-2.91358E+05 6.62236E+05 2.02357E+05 6.32554E-09 2.27476E-07
 -1       266-7.91391E+04-3.69792E+04 1.85816E+05-3.93148E+02-1.31695E-09 1.29195E-07
 -1       267 9.17553E+04 4.31427E+04 1.31265E+05 4.53321E+02 1.93540E-09-1.96445E-07
 -1       268-1.23037E+04-6.10788E+03 4.87946E+04-5.77773E+01-1.90266E-09-5.23313E-07
 -1       269 1.45277E+04 7.31241E+03 3.17121E+04 6.72842E+01 1.70985E-10 1.65725E-07
 -1       270-2.18062E+03-1.20137E+03 1.53080E+04-9.13169E+00-1.50294E-09-1.34684E-07
 -1       271-8.64699E+06-1.09311E+06-6.94260E+05-3.38842E+06 4.42451E-08 1.45345E-07
 -1       272-8.78812E+06-1.67445E+06-4.42021E+05-3.47205E+06-4.90436E-08-3.64256E-07
 -1       273-8.80943E+06-1.22918E+06-1.65073E+05-3.32087E+06 4.57912E-08 1.35966E-07
 -1       274-8.59818E+06-1.51366E+06-9.00316E+04-3.59072E+06-7.03676E-08 1.90230E-08
 -1       275-8.84997E+06-1.22085E+06-3.82092E+04-3.29038E+06 2.23990E-08 3.58465E-07
 -1       276-8.56001E+06-1.51836E+06-1.98753E+04-3.63992E+06-7.97736E-08 3.03286E-07
 -1       277-8.85983E+06-1.21390E+06-1.00397E+04-3.28137E+06 6.91239E-09-4.85345E-07
 -1       278-8.55961E+06-1.51327E+06-8.00213E+03-3.63626E+06-3.06136E-09-1.02833E-07
 -1       279-8.84906E+06-1.22652E+06-1.13252E+04-3.29324E+06-4.81195E-08-1.51893E-07
 -1       280-8.58579E+06-1.48102E+06-1.94229E+04-3.58339E+06-8.27713E-08 6.66078E-08
 -1       281-8.81920E+06-1.25565E+06-4.14341E+04-3.32401E+06-4.77739E-08-2.41223E-07
 -1       282-8.65445E+06-1.44290E+06-9.03584E+04-3.49236E+06 8.62565E-09-2.81292E-07
 -1       283-8.76361E+06-1.27807E+06-1.69662E+05-3.37077E+06 6.00267E-10-9.63773E-08
 -1       284-8.87864E+06-1.58148E+06-4.47584E+05-3.35482E+06-3.81970E-08-6.11064E-07
 -1       285-8.59180E+06-1.14399E+06-7.03909E+05-3.44684E+06 3.79805E-08-5.68340E-07
 -1       301-5.73166E+04 4.08810E+05-2.19601E+04 1.46500E+06-3.02680E-09 3.47733E-07
 -1       302-6.04945E+04 4.11421E+05 1.32224E+04 2.14678E+06 4.86034E-09 6.64037E-07
 -1       303-3.95440E+04 3.85958E+05 4.88863E+04 1.46257E+06-5.45697E-10 2.13251E-07
 -1       304-3.14598E+04 4.52285E+05 1.22817E+05 2.14573E+06-1.06229E-09 1.32830E-07
 -1       305-3.07262E+04 3.90130E+05 2.19103E+05 1.46696E+06-3.18687E-09-1.79134E-07
 -1       306-3.41411E+07-3.48793E+07-1.86110E+07-2.21614E+07 1.20723E-07-3.32191E-07
 -1       307 1.30912E+07 7.13129E+07 1.38681E+07 2.79830E+07 1.14832E-06-1.10822E-06
 -1       308-4.20419E+05-2.33902E+07-4.94077E+06-7.19098E+05 7.13044E-10 1.50059E-07
 -1       309-1.16344E+07 3.29353E+07 5.15256E+06-2.64120E+07-2.03843E-07 5.50994E-07
 -1       310 3.62250E+06-1.18614E+07-4.93602E+05 2.89529E+06-1.19006E-07 2.22877E-07
 -1       311-4.17633E+06 5.98272E+07 1.00541E+07 8.18033E+06-9.62056E-07 7.88947E-07
 -1       312-1.99814E+07-3.71429E+07-1.38193E+07-1.85854E+07-5.94358E-07-2.53785E-07
 -1       313 7.69331E+07 3.84949E+07 1.89768E+07 4.89624E+07 3.74857E-08-3.09316E-07
 -1       314-5.37672E+07-1.14380E+07-1.61508E+07-8.86425E+06-2.69152E-07-5.19212E-08
 -1       315 7.78690E+07 3.08344E+06 1.38106E+07-1.56782E+07 4.28641E-07 2.24332E-07
 -1       316-1.70307E+07-7.01096E+06-4.71598E+06 1.05352E+07 7.50471E-07 8.26782E-07
 -1       317-6.03963E+06 2.73164E+07 5.15028E+06-2.99759E+07-1.22467E-06 1.78348E-07
 -1       318-3.89634E+06-4.24775E+06-7.18519E+05 8.11967E+06 8.35047E-07 2.10901E-07
 -1       319 4.60691E+07 1.22200E+07 1.00107E+07-2.79961E+07 5.63450E-08 3.49246E-07
 -1       320-4.94638E+07-1.07943E+07-1.60009E+07 2.67091E+06-1.70316E-07-2.81143E-08
 -1       336-9.61673E+02 9.52683E+05 8.78049E+03 3.40868E+02 1.49066E-09 3.45153E-10
 -1       337 3.41737E+03 9.55853E+05 1.39372E+04-7.60306E+02 3.16186E-09 1.11015E-09
 -1       338-1.84883E+03 9.51863E+05 2.20574E+04 4.19167E+02 2.18733E-09 5.32555E-09
 -1       339 2.48501E+04 9.68833E+05 5.25016E+04-9.26609E+02 3.48882E-09-1.28080E-09
 -1       340-1.76480E+04 9.39688E+05 8.20005E+04 5.00360E+02 2.57205E-09-1.09503E-09
 -1       406-5.41902E+01 3.83406E+05 6.50201E+02-3.38959E+00 2.08075E-09 4.93856E-09
 -1       407 1.52527E+02 3.83544E+05 1.38996E+03-2.42933E+01 4.32237E-10-1.91121E-08
 -1       408 6.37082E+02 3.83305E+05 2.77121E+03 2.79808E+01 2.30057E-09-1.00717E-08
 -1       409 2.93158E+03 3.84429E+05 6.24649E+03-2.98001E+02 1.80080E-10-4.48836E-09
 -1       410 8.55871E+03 3.82507E+05 1.27487E+04 2.87412E+02 2.90675E-09-1.16961E-09
 -1       521-3.36656E+07-3.45823E+07-1.93478E+07-1.97176E+07 6.93835E-08-6.73579E-07
 -1       522 1.02074E+07 7.18349E+07 1.29636E+07 2.68256E+07 9.27714E-07-3.81609E-07
 -1       523-8.49945E+05-2.20181E+07-4.67479E+06-7.28466E+05 5.94446E-07 2.65311E-07
 -1       524-1.32843E+07 3.14123E+07 4.88962E+06-2.96573E+07-4.11077E-07 9.95853E-07
 -1       525 3.39992E+06-1.20232E+07-3.06907E+05 2.37407E+06-6.14091E-09 8.90694E-07
 -1       526-6.60251E+06 6.08185E+07 9.61080E+06 6.35644E+06 1.57161E-07 2.58908E-07
 -1       527-2.05655E+07-3.59558E+07-1.43298E+07-1.67075E+07-3.04310E-07 2.16998E-07
 -1       528 7.72616E+07 3.75733E+07 1.79094E+07 5.00311E+07 2.83646E-07-2.83471E-07
 -1       529-5.13746E+07-1.32639E+07-1.68536E+07-7.64436E+06 6.01867E-07-1.13956E-07
 -1       530 7.64656E+07 2.53168E+06 1.29871E+07-1.80921E+07 6.91158E-07-1.22760E-07
 -1       531-1.61940E+07-7.00742E+06-4.47825E+06 9.75280E+06 9.17178E-07 3.90166E-07
 -1       532-1.09116E+07 2.91283E+07 4.89836E+06-3.10227E+07-1.32545E-06 3.76895E-07
 -1       533-4.45101E+06-4.02864E+06-5.35492E+05 7.92886E+06-7.47619E-07 7.44185E-07
 -1       534 4.37836E+07 1.29803E+07 9.51824E+06-3.03913E+07 7.48638E-07-5.83183E-07
 -1       535-4.71234E+07-1.24992E+07-1.66238E+07 2.58744E+06 1.11060E-07-4.53147E-07
 -1       536 2.44434E+06-9.24401E+04 2.14257E+05-3.56311E+03-1.90432E-08-1.92085E-09
 -1       537 2.53702E+06 1.07046E+05 1.51516E+05-2.26730E+03-5.99336E-09 2.35959E-08
 -1       538 2.48017E+06-1.44917E+04 5.55297E+04-2.99454E+03-2.32209E-06 2.24682E-08
 -1       539 2.49541E+06 1.67820E+04 3.49447E+04-2.88417E+03-4.64108E-06 3.29464E-09
 -1       540 2.48609E+06-2.26670E+03 1.43591E+04-2.94656E+03-4.18669E-06-1.55533E-08
 -1       541 2.48856E+06 2.67772E+03 8.67376E+03-2.93674E+03-3.74345E-06 1.24510E-09
 -1       542 2.48707E+06-3.98944E+02 4.43668E+03-2.94204E+03-7.49483E-06-1.08694E-08
 -1       543 2.48759E+06 7.98042E+02 3.87294E+03-2.94491E+03-1.12348E-05-7.81497E-09
 -1       544 2.48707E+06-3.88324E+02 4.34454E+03-2.93840E+03-5.62939E-06-1.01826E-08
 -1       545 2.48851E+06 2.58648E+03 8.40612E+03-2.99026E+03-1.55743E-08-2.79022E-09
 -1       546 2.48614E+06-2.18613E+03 1.38800E+04-2.89667E+03 2.35210E-09-1.73986E-09
 -1       547 2.49511E+06 1.61852E+04 3.37424E+04-3.56651E+03 1.69315E-09 7.27414E-09
 -1       548 2.48042E+06-1.39759E+04 5.36220E+04-2.36209E+03 1.38469E-09 3.31056E-09
 -1       549 2.53589E+06 1.03403E+05 1.46418E+05-1.09869E+04 2.11863E-10-3.89628E-09
 -1       550 2.44524E+06-8.93218E+04 2.06742E+05 4.52329E+03-1.55893E-10-8.73115E-11
 -1       551-7.91803E+03-2.56838E+05-2.90114E+04-1.44071E+06-3.55794E-09 7.75617E-09
 -1       552 1.19939E+04-2.78741E+05 5.34006E+03-2.05138E+06-9.48785E-09 2.02308E-08
 -1       553 1.16075E+04-2.80385E+05 3.79956E+04-1.43743E+06-1.12486E-08 1.73777E-08
 -1       554 3.84963E+04-2.48224E+05 1.00086E+05-2.05086E+06-5.31145E-09 1.05683E-08
 -1       555 2.54899E+04-2.77917E+05 1.82065E+05-1.44144E+06-2.43381E-09 6.98492E-09
 -1       556-6.32808E+04-5.82081E+04-1.72598E+04-8.36043E+04 1.46292E-09 2.33013E-09
 -1       557-5.27053E+04-7.13942E+04-8.94050E+03-1.01981E+05 1.78079E-09 2.11821E-09
 -1       558-6.46949E+04-5.48096E+04-3.77600E+03-8.54140E+04 7.23867E-09 5.82929E-09
 -1       559-5.05004E+04-6.93174E+04-1.85849E+03-1.02222E+05-3.44585E-09-1.01727E-08
 -1       560-6.48069E+04-5.47408E+04-8.52762E+02-8.54758E+04-3.50292E-09 1.91812E-09
 -1       561-5.03166E+04-6.92604E+04-4.19581E+02-1.02182E+05 3.46063E-10 5.93354E-09
 -1       562-6.47674E+04-5.47893E+04-2.12327E+02-8.54389E+04-1.28148E-09 1.59343E-09
 -1       563-5.01945E+04-6.93090E+04-1.28133E+02-1.02102E+05 9.76797E-10-4.31100E-10
 -1       564-6.46571E+04-5.48601E+04-1.26451E+02-8.53646E+04 2.90856E-09 1.40062E-09
 -1       565-5.00176E+04-6.93829E+04-1.70770E+02-1.01975E+05 4.07454E-10 5.45333E-09
 -1       566-6.44885E+04-5.49659E+04-3.37994E+02-8.52589E+04 6.40284E-10-3.17414E-09
 -1       567-4.98352E+04-6.94879E+04-6.53666E+02-1.01777E+05 1.38243E-09-1.61162E-09
 -1       568-6.42080E+04-5.51466E+04-1.35224E+03-8.51165E+04 3.04863E-09-1.52795E-10
 -1       569-5.06623E+04-6.99252E+04-3.07177E+03-1.01037E+05 1.05210E-08-3.19142E-09
 -1       570-6.31214E+04-5.67972E+04-5.98107E+03-8.47667E+04 4.20914E-09-3.80714E-09
 -1       571 2.67723E+05 8.72216E+03 1.31025E+04-5.91379E+04-1.14869E-09-5.77211E-09
 -1       572 2.69676E+05 2.94864E+03 6.42002E+03-6.47831E+04-3.18187E-09-1.63459E-09
 -1       573 2.68490E+05 6.20315E+02 2.85172E+03-5.89519E+04-1.66256E-09 1.04092E-09
 -1       574 2.68722E+05 1.20206E+02 1.42901E+03-6.49786E+04-2.60479E-09 2.48838E-09
 -1       575 2.68563E+05-7.14855E+01 6.72945E+02-5.89281E+04 7.42148E-10 3.66617E-09
 -1       576 2.68582E+05-1.01813E+02 3.41868E+02-6.50047E+04 1.66449E-09 1.65164E-09
 -1       577 2.68567E+05-1.03279E+02 1.66686E+02-5.89250E+04 7.23901E-10 3.45790E-09
 -1       578 2.68562E+05-1.08915E+02 8.74839E+01-6.50078E+04 1.52113E-10-1.00999E-09
 -1       579 2.68576E+05-1.02607E+02 4.70771E+01-5.89249E+04-1.29039E-08-1.29603E-09
 -1       580 2.68577E+05-1.15207E+02 3.32139E+01-6.50047E+04-1.75169E-08 7.48514E-10
 -1       581 2.68602E+05-1.13593E+02 3.27975E+01-5.89280E+04-1.30431E-08 1.22873E-09
 -1       582 2.68618E+05-1.26540E+02 5.37950E+01-6.49732E+04-2.18779E-09-1.31831E-09
 -1       583 2.68642E+05-1.14220E+02 9.61939E+01-5.89564E+04-5.51154E-10 1.81967E-09
 -1       584 2.68705E+05-5.88111E+01 2.14110E+02-6.47344E+04-5.60976E-09-4.10682E-09
 -1       585 2.68670E+05 1.29751E+02 4.29890E+02-5.91671E+04 8.60382E-10 4.31100E-10
 -1       586-4.31534E+03 8.02216E+04-6.54755E+03-1.80745E+05 3.66651E-09-5.00222E-11
 -1       587-8.66783E+02 7.92203E+04-1.94894E+03-1.98772E+05 5.29872E-09 4.40502E-09
 -1       588 9.18387E+02 7.96136E+04 1.66087E+03-1.80577E+05 3.05045E-09-2.00089E-10
 -1       589 3.88607E+03 8.07879E+04 6.52571E+03-1.98707E+05 4.08727E-09-4.20596E-09
 -1       590 1.04450E+04 7.87449E+04 1.45554E+04-1.80790E+05 3.38309E-09 1.46792E-09
 -1       591-5.71913E+04-1.85297E+04-2.05831E+04-3.22527E+04 3.21171E-09-3.99450E-09
 -1       592-5.84700E+04-2.42302E+04-1.11482E+04-3.83470E+04-3.05317E-09-1.04797E-09
 -1       593-5.92839E+04-1.70031E+04-4.64158E+03-3.37336E+04-7.00084E-09-6.57906E-09
 -1       594-5.55960E+04-2.12479E+04-2.31461E+03-3.85061E+04 3.18323E-10 5.46538E-09
 -1       595-5.94465E+04-1.69938E+04-1.06389E+03-3.38030E+04 1.30308E-09-2.33072E-09
 -1       596-5.54040E+04-2.11106E+04-5.42221E+02-3.84886E+04-2.35104E-10 3.75178E-09
 -1       597-5.94678E+04-1.70060E+04-2.98683E+02-3.38063E+04 8.05358E-10-5.94810E-10
 -1       598-5.53858E+04-2.11053E+04-2.46378E+02-3.84833E+04 1.73037E-09 2.05159E-09
 -1       599-5.94655E+04-1.70066E+04-3.22802E+02-3.38054E+04-2.84967E-09-7.67295E-09
 -1       600-5.54047E+04-2.11131E+04-6.05960E+02-3.84866E+04-2.20905E-09-2.34559E-09
 -1       601-5.94375E+04-1.69940E+04-1.19919E+03-3.37998E+04-2.08729E-09-4.97653E-09
 -1       602-5.56198E+04-2.12687E+04-2.61464E+03-3.85026E+04 1.47338E-09 1.43336E-09
 -1       603-5.92509E+04-1.70078E+04-5.24521E+03-3.37210E+04 3.64662E-09 4.91809E-09
 -1       604-5.88735E+04-2.46302E+04-1.25978E+04-3.83099E+04 1.17543E-08 7.71070E-09
 -1       605-5.68746E+04-1.87399E+04-2.32591E+04-3.20549E+04 2.97791E-09-4.56748E-09
 -1       606 4.52190E+04-1.29128E+04-2.33200E+04 4.45448E+04-8.87121E-09-9.11314E-10
 -1       607 4.12146E+04-4.12011E+03-1.16096E+04 4.99898E+04-1.43427E-09-1.20281E-09
 -1       608 4.34481E+04-6.54421E+02-5.20381E+03 4.41811E+04 8.33279E-09-2.15641E-09
 -1       609 4.29713E+04-9.92637E+01-2.62655E+03 5.03783E+04-2.60934E-09 8.88804E-10
 -1       610 4.31940E+04 1.11370E+02-1.25824E+03 4.41407E+04-1.23327E-08 4.10273E-09
 -1       611 4.30794E+04 1.61530E+02-6.33871E+02 5.04204E+04-2.49265E-08 3.00452E-09
 -1       612 4.30998E+04 1.55907E+02-3.06289E+02 4.41368E+04-4.69663E-09 3.20779E-09
 -1       613 4.30369E+04 1.94960E+02-1.40450E+02 5.04250E+04 6.83031E-10-4.55748E-09
 -1       614 4.30386E+04 1.76148E+02-4.39960E+01 4.41354E+04 3.09228E-10 1.85037E-09
 -1       615 4.29902E+04 2.19471E+02 3.48118E+01 5.04254E+04 6.19866E-09 1.80762E-09
 -1       616 4.29927E+04 1.98141E+02 1.26030E+02 4.41359E+04-4.28026E-08-7.35781E-10
 -1       617 4.29746E+04 2.64733E+02 2.97559E+02 5.04243E+04-6.97041E-08 4.04725E-11
 -1       618 4.29444E+04 2.98056E+02 6.02549E+02 4.41359E+04-3.40083E-08 8.80391E-10
 -1       619 4.31689E+04 7.42043E+02 1.35559E+03 5.04228E+04-1.86969E-09 3.04681E-09
 -1       620 4.27328E+04 1.73653E+03 2.72486E+03 4.41320E+04 9.37007E-10 3.57886E-09
 -1       621 6.63440E+02 3.12471E+05 5.38582E+03-3.09478E+03-1.25601E-09 1.84002E-09
 -1       622 7.35116E+02 3.13810E+05 4.22731E+03-4.32470E+03-9.89274E-10 3.19551E-09
 -1       623 3.72637E+01 3.12907E+05 4.41110E+03-3.08055E+03-1.08582E-09 5.14137E-09
 -1       624 1.89172E+03 3.14873E+05 7.98404E+03-4.34300E+03-1.34401E-09 7.59940E-09
 -1       625 1.88809E+03 3.11406E+05 1.36946E+04-3.07335E+03-1.03864E-09 2.74227E-09
 -1       626 2.39672E+05 7.10040E+04 4.37682E+03 1.35941E+05-3.49337E-09-5.16957E-09
 -1       627 2.35794E+05 7.40902E+04 2.11099E+03 1.41704E+05-1.90448E-09 8.82028E-09
 -1       628 2.39850E+05 6.88907E+04 8.88650E+02 1.36524E+05 4.43833E-09-2.09639E-10
 -1       629 2.35064E+05 7.36636E+04 4.37526E+02 1.42029E+05 1.02182E-08 4.12626E-09
 -1       630 2.39833E+05 6.88051E+04 2.00929E+02 1.36516E+05 1.15288E-08-1.01966E-08
 -1       631 2.34950E+05 7.36702E+04 1.09839E+02 1.42015E+05 1.57870E-08-2.15476E-09
 -1       632 2.39798E+05 6.88261E+04 7.37918E+01 1.36490E+05-6.04359E-09-1.38265E-08
 -1       633 2.34911E+05 7.36868E+04 8.62600E+01 1.41991E+05-1.11422E-08-3.86530E-09
 -1       634 2.39767E+05 6.88354E+04 1.41749E+02 1.36474E+05 1.30713E-08 7.48742E-09
 -1       635 2.34903E+05 7.36949E+04 2.89839E+02 1.41980E+05 7.90806E-09 4.22006E-09
 -1       636 2.39743E+05 6.88394E+04 5.85668E+02 1.36464E+05 1.50885E-09-2.60570E-10
 -1       637 2.35016E+05 7.37906E+04 1.28733E+03 1.41970E+05 2.05163E-08 5.57566E-09
 -1       638 2.39691E+05 6.91271E+04 2.64548E+03 1.36330E+05 9.74012E-10 6.86032E-09
 -1       639 2.36400E+05 7.57264E+04 6.25778E+03 1.41562E+05-2.60402E-08 2.14322E-09
 -1       640 2.39518E+05 7.48764E+04 1.29855E+04 1.33876E+05-1.27770E-08 4.82532E-09
 -1       656 6.73163E+04-1.69395E+06-1.62436E+05 1.87431E+03 1.17871E-09 1.12479E-09
 -1       657-8.89171E+04-1.76711E+06-1.34205E+05 1.33109E+04-2.99951E-09 5.16093E-09
 -1       658 2.12848E+04-1.71485E+06-8.21691E+04-7.29709E+02 1.51977E-09 1.90222E-09
 -1       659-9.48922E+04-1.76997E+06-1.42051E+05 1.49240E+04 6.36010E-09-5.78186E-09
 -1       660 7.32809E+04-1.69110E+06-1.75907E+05 2.61229E+02 1.28057E-09 2.67164E-11
 -1       661 2.77760E+05 3.08216E+04 2.59710E+04 1.08909E+05 4.51473E-09-1.20053E-10
 -1       662 2.91078E+05 5.13964E+04 1.74995E+04 1.04634E+05 6.69434E-09-5.28439E-09
 -1       663 2.82865E+05 3.91467E+04 6.12185E+03 1.07424E+05-3.33193E-09-2.96700E-09
 -1       664 2.85163E+05 4.16592E+04 3.65996E+03 1.06449E+05 2.63594E-09-2.99792E-09
 -1       665 2.83637E+05 4.02848E+04 1.44341E+03 1.07199E+05-2.97086E-09 2.23167E-09
 -1       666 2.84250E+05 4.03582E+04 8.41097E+02 1.06744E+05-1.44007E-08 6.68097E-09
 -1       667 2.83774E+05 4.04132E+04 4.41910E+02 1.07141E+05-9.80549E-11-3.61876E-09
 -1       668 2.84094E+05 4.02678E+04 4.40240E+02 1.06833E+05 1.59852E-08-1.59660E-09
 -1       669 2.83792E+05 4.03719E+04 5.87034E+02 1.07111E+05 1.30847E-08 6.40358E-09
 -1       670 2.84221E+05 4.05974E+04 1.27068E+03 1.06855E+05 2.26024E-08 9.95306E-09
 -1       671 2.83647E+05 4.00896E+04 2.25307E+03 1.07117E+05-2.86211E-09-4.74574E-09
 -1       672 2.85514E+05 4.28082E+04 5.76237E+03 1.06561E+05-5.62892E-09-4.41389E-09
 -1       673 2.82506E+05 3.82160E+04 9.65572E+03 1.07384E+05-4.42105E-09-3.24235E-09
 -1       674 2.94689E+05 5.83324E+04 2.76116E+04 1.03877E+05-1.83536E-09 3.75394E-09
 -1       675 2.74531E+05 2.49987E+04 4.09859E+04 1.09636E+05 6.46014E-09-3.36877E-09
 -1       676 2.89929E+01-3.37806E+05-1.33409E+03 2.02919E+02 1.94564E-09-2.04237E-09
 -1       677-3.52071E+02-3.38131E+05-2.44165E+03-4.05445E+02-8.19372E-09-7.16933E-09
 -1       678 2.36819E+02-3.37576E+05-4.31626E+03 2.02389E+02 2.61252E-10-1.06444E-09
 -1       679-4.31572E+03-3.40737E+05-1.02539E+04-4.03597E+02-1.47907E-08-2.41646E-09
 -1       680 2.57744E+03-3.35202E+05-1.65256E+04 1.98727E+02-3.04044E-09-1.76618E-09
 -1       771-3.67416E+06-5.10936E+05-1.84906E+05-1.34178E+06 2.81580E-09 3.17959E-09
 -1       772-3.72845E+06-5.19041E+05-1.00150E+05-1.34676E+06 1.54796E-09-3.10865E-09
 -1       773-3.69191E+06-4.98345E+05-4.16515E+04-1.35610E+06 1.56069E-09 4.38013E-09
 -1       774-3.70405E+06-4.90707E+05-2.07090E+04-1.34662E+06-6.04632E-09-5.12523E-09
 -1       775-3.69307E+06-4.98557E+05-9.46586E+03-1.35714E+06 4.23461E-09 5.83896E-09
 -1       776-3.70300E+06-4.88824E+05-4.63986E+03-1.34585E+06 4.93401E-09 5.98857E-09
 -1       777-3.69310E+06-4.98871E+05-2.24835E+03-1.35752E+06 1.67529E-09 7.42148E-10
 -1       778-3.70340E+06-4.88260E+05-1.23138E+03-1.34536E+06-7.27596E-11 1.27557E-09
 -1       779-3.69300E+06-4.99049E+05-8.91526E+02-1.35781E+06 3.88172E-09 3.94130E-09
 -1       780-3.70388E+06-4.87853E+05-1.07833E+03-1.34501E+06-1.55615E-09-2.78101E-09
 -1       781-3.69288E+06-4.99148E+05-1.84216E+03-1.35804E+06 3.63980E-09 3.92606E-09
 -1       782-3.70454E+06-4.87780E+05-3.84510E+03-1.34481E+06-1.81899E-10-6.86703E-09
 -1       783-3.69258E+06-4.99228E+05-7.65183E+03-1.35808E+06-4.23097E-09-7.80528E-09
 -1       784-3.70944E+06-4.92612E+05-1.83699E+04-1.34451E+06 6.93035E-10-9.20409E-10
 -1       785-3.68922E+06-5.01659E+05-3.39096E+04-1.35565E+06 5.61135E-09 1.93359E-09
 -1       786 3.21138E+05-1.47533E+04 3.41367E+04 4.07165E+02 3.56000E-09 6.20639E-09
 -1       787 3.35930E+05 1.70803E+04 2.41512E+04 5.22102E+01 2.57714E-09 6.29007E-09
 -1       788 3.26847E+05-2.31250E+03 8.83696E+03 3.32110E+02-2.59983E-10-5.25688E-10
 -1       789 3.29281E+05 2.67627E+03 5.55408E+03 1.57818E+02 3.59102E-08 1.15415E-09
 -1       790 3.27790E+05-3.61177E+02 2.26369E+03 3.01572E+02 1.09977E-05-6.79734E-09
 -1       791 3.28183E+05 4.21119E+02 1.33613E+03 1.96873E+02 2.19007E-05-1.72531E-08
 -1       792 3.27947E+05-5.90527E+01 6.23640E+02 2.93057E+02 2.31712E-06-3.22680E-09
 -1       793 3.28009E+05 9.01049E+01 4.36755E+02 1.97339E+02-1.72725E-05 1.66025E-08
 -1       794 3.27963E+05-3.03793E+01 3.66496E+02 3.01105E+02-8.68121E-06 4.79495E-09
 -1       795 3.28051E+05 1.74658E+02 5.92154E+02 1.60188E+02-2.70898E-08 4.73247E-09
 -1       796 3.27905E+05-1.43550E+02 9.24502E+02 3.30208E+02-3.94972E-10 3.20881E-10
 -1       797 3.28481E+05 1.05857E+03 2.21088E+03 6.42589E+01-2.53388E-09 2.54670E-09
 -1       798 3.27532E+05-9.13651E+02 3.49935E+03 3.97036E+02-1.66962E-09 3.18300E-09
 -1       799 3.31115E+05 6.75027E+03 9.54979E+03-1.47671E+02-3.12426E-09 7.14135E-09
 -1       800 3.25270E+05-5.83069E+03 1.34895E+04 5.42133E+02-8.86558E-10 1.20326E-09
 -1       801-2.63598E+05 6.48927E+06 6.32864E+05-3.27345E+02 7.45058E-09-4.52985E-10
 -1       802 3.66154E+05 6.80627E+06 5.60094E+05-1.23865E+05 1.71094E-08 2.15800E-09
 -1       803-1.00132E+05 6.57340E+06 3.86634E+05-7.68388E+04 9.58607E-09-1.18746E-09
 -1       804 5.07034E+05 6.86972E+06 7.44056E+05-1.20133E+05 1.37952E-08 4.19692E-09
 -1       805-4.04171E+05 6.42568E+06 9.52233E+05-4.06513E+03 2.61934E-09 5.22662E-08
 -1       806-2.90187E+05-7.16095E+04-2.87649E+04-1.30602E+05 4.93765E-09 2.12822E-09
 -1       807-2.90995E+05-6.83798E+04-1.41310E+04-1.39239E+05-1.59253E-09 4.72141E-09
 -1       808-2.91056E+05-6.11693E+04-5.99404E+03-1.35436E+05 2.54659E-11 1.16213E-08
 -1       809-2.87926E+05-6.45129E+04-2.92925E+03-1.39722E+05-3.02862E-10 8.93738E-09
 -1       810-2.91195E+05-6.07947E+04-1.34076E+03-1.35650E+05 4.90672E-10 5.77188E-09
 -1       811-2.87694E+05-6.43623E+04-6.63312E+02-1.39698E+05 5.42134E-09-1.28202E-08
 -1       812-2.91219E+05-6.08195E+04-3.28320E+02-1.35650E+05 1.58545E-08-1.95087E-09
 -1       813-2.87663E+05-6.43678E+04-2.02493E+02-1.39681E+05 1.72168E-08 7.95899E-09
 -1       814-2.91214E+05-6.08316E+04-1.82550E+02-1.35643E+05-1.91540E-09-1.78597E-08
 -1       815-2.87660E+05-6.43732E+04-2.77908E+02-1.39672E+05 1.39107E-09-6.25778E-09
 -1       816-2.91189E+05-6.08342E+04-5.16624E+02-1.35635E+05-5.42605E-09-5.73709E-09
 -1       817-2.87739E+05-6.44258E+04-1.10437E+03-1.39653E+05 8.63793E-09 3.98245E-09
 -1       818-2.91110E+05-6.09967E+04-2.25067E+03-1.35556E+05 5.34692E-09-1.84855E-09
 -1       819-2.88978E+05-6.57686E+04-5.29469E+03-1.39327E+05-2.05000E-09-1.29876E-09
 -1       820-2.90660E+05-6.50138E+04-1.07775E+04-1.33849E+05-1.86992E-09-4.00360E-09
 -1       821-3.77901E+05 2.14172E+04-4.98768E+04 9.29805E+02 4.02991E-10 1.36424E-09
 -1       822-3.97871E+05-2.48307E+04-3.50127E+04-5.53590E+03 5.99719E-10 1.08002E-09
 -1       823-3.85502E+05 3.39176E+03-1.28828E+04 2.43491E+03-4.61666E-09 6.77574E-10
 -1       824-3.88748E+05-3.92935E+03-8.06174E+03-6.76001E+03-4.33772E-10 3.51690E-09
 -1       825-3.87034E+05 5.43364E+02-3.36671E+03 2.15395E+03 6.66834E-09-1.53477E-10
 -1       826-3.86264E+05-6.05934E+02-1.78838E+03-4.60372E+03 2.49893E-09 6.02540E-12
 -1       827-3.87961E+05 5.13596E+01-1.21990E+03 2.78589E+02-1.25789E-09 3.36274E-09
 -1       828-3.85430E+05-1.25732E+02-5.61450E+02-2.96520E+02-1.66547E-08 9.67770E-10
 -1       829-3.87851E+05 4.99957E+01-1.20209E+03-2.15320E+03 2.82225E-09-2.60360E-09
 -1       830-3.86513E+05-5.88235E+02-1.84104E+03 3.77365E+03 8.23515E-08 2.64444E-09
 -1       831-3.86901E+05 5.31668E+02-3.35925E+03-3.79170E+03 2.25571E-05-1.18714E-07
 -1       832-3.88822E+05-3.90320E+03-8.10361E+03 5.35845E+03 4.49297E-05-2.47513E-07
 -1       833-3.85562E+05 3.37772E+03-1.29619E+04-3.73815E+03 2.25738E-05-1.27538E-07
 -1       834-3.97744E+05-2.49019E+04-3.51339E+04 3.57604E+03 6.84087E-08 1.59253E-09
 -1       835-3.77961E+05 2.14977E+04-5.01352E+04-2.00907E+03 1.14427E-08 2.00089E-10
 -1       836-1.24045E+03 3.83165E+05 2.27161E+04-4.29602E+04 6.68206E-09-1.65073E-09
 -1       837 5.23117E+03 3.90075E+05 1.93483E+04-8.59124E+04 8.71341E-09-3.38332E-09
 -1       838-3.66019E+02 3.85102E+05 1.98719E+04-4.28389E+04 7.41602E-09 4.01371E-09
 -1       839 1.29543E+04 3.95824E+05 3.77451E+04-8.59288E+04 8.98308E-09 4.77075E-09
 -1       840-3.72496E+03 3.77351E+05 6.02426E+04-4.29363E+04 6.69752E-09 2.43381E-09
 -1       856-1.52158E+05 1.13722E+04-2.99763E+04-8.77894E+02-8.34973E-09-1.12050E-09
 -1       857-1.64549E+05-1.33243E+04-2.06372E+04 6.26694E+03-7.64086E-09-6.74208E-09
 -1       858-1.57049E+05 1.59109E+03-7.78060E+03-9.25987E+02-4.16668E-09-3.20551E-09
 -1       859-1.58936E+05-1.83456E+03-4.69964E+03 6.34680E+03 6.39545E-09-5.60476E-10
 -1       860-1.57779E+05 2.19107E+02-1.97865E+03-9.58419E+02 3.62891E-09-5.45322E-09
 -1       861-1.58097E+05-2.25791E+02-1.10666E+03 6.39150E+03-1.42689E-08-7.45015E-09
 -1       862-1.57892E+05 2.72461E+01-4.96845E+02-9.70806E+02 1.37205E-08 2.56296E-09
 -1       863-1.57965E+05-1.78987E+00-2.64576E+02 6.39641E+03 2.16680E-08 3.04340E-10
 -1       864-1.57912E+05 1.51094E-01-1.21369E+02-9.63350E+02 1.36359E-08-9.24878E-10
 -1       865-1.57935E+05 2.88373E+01-5.68446E+01 6.36081E+03 1.55284E-08-5.15918E-09
 -1       866-1.57918E+05-5.41291E+00-1.91746E+01-9.35194E+02 1.20821E-09-1.69151E-09
 -1       867-1.57912E+05 4.02312E+01 1.72430E+01 6.28460E+03-2.21405E-09-4.36660E-09
 -1       868-1.57928E+05-1.61113E+01 4.04127E+01-8.87104E+02 9.74296E-11-2.03435E-09
 -1       869-1.57853E+05 1.12440E+02 1.36278E+02 6.16378E+03-1.07354E-08-6.20290E-09
 -1       870-1.57966E+05-8.30793E+01 1.88737E+02-8.14342E+02 8.58790E-09-5.72477E-09
 -1       871-5.85306E+03-9.02554E+03-1.79737E+04 1.15714E+05 8.60382E-09-3.23143E-09
 -1       872-2.77315E+03-1.29866E+04-7.23333E+03 1.50014E+05 1.41699E-08-3.96903E-09
 -1       873-3.27554E+02-1.12227E+04 1.26679E+03 1.15465E+05 4.49654E-09-1.23509E-09
 -1       874 2.52492E+03-8.40479E+03 1.07061E+04 1.50078E+05 1.16906E-08 7.52880E-09
 -1       875 6.53126E+03-1.37251E+04 2.35785E+04 1.15685E+05 5.14046E-09 2.07547E-09
 -1       876 3.04429E+05 5.33311E+04 1.66978E+04 1.24547E+05-8.48308E-09-3.16959E-09
 -1       877 3.05273E+05 5.71108E+04 8.91737E+03 1.29594E+05-1.51595E-08-9.94623E-09
 -1       878 3.05984E+05 5.14877E+04 3.73554E+03 1.25921E+05 6.51289E-09 2.87400E-09
 -1       879 3.02998E+05 5.48498E+04 1.86095E+03 1.29709E+05-3.23553E-09 5.34249E-09
 -1       880 3.06094E+05 5.14697E+04 8.65839E+02 1.25977E+05-9.63610E-10 3.19983E-09
 -1       881 3.02846E+05 5.47531E+04 4.60607E+02 1.29682E+05 8.38600E-09-1.16700E-10
 -1       882 3.06103E+05 5.14851E+04 2.91195E+02 1.25978E+05 1.80671E-08 6.07987E-09
 -1       883 3.02834E+05 5.47483E+04 3.07701E+02 1.29673E+05 5.01473E-09 1.02160E-08
 -1       884 3.06096E+05 5.14825E+04 4.84415E+02 1.25978E+05-9.88393E-10 8.94374E-10
 -1       885 3.02872E+05 5.47551E+04 9.70751E+02 1.29685E+05 1.07729E-08 3.41402E-09
 -1       886 3.06059E+05 5.14540E+04 1.95482E+03 1.25974E+05 2.02704E-09 3.44562E-09
 -1       887 3.03216E+05 5.49804E+04 4.26923E+03 1.29735E+05-2.16995E-08-3.30147E-09
 -1       888 3.05791E+05 5.15001E+04 8.60206E+03 1.25837E+05-5.86908E-09 3.22098E-09
 -1       889 3.08346E+05 6.02986E+04 2.05487E+04 1.29572E+05 1.03216E-08 3.02407E-10
 -1       890 3.02295E+05 5.56559E+04 3.84869E+04 1.22548E+05 1.32543E-08-9.42237E-10
 -1       891-2.76806E+02-1.75204E+05-2.03607E+03 3.53611E+04 4.04498E-09-1.94404E-09
 -1       892-4.65383E+02-1.75638E+05-2.22611E+03 5.34012E+04-3.64025E-10-1.19726E-08
 -1       893-1.51441E+02-1.75253E+05-3.19513E+03 3.53678E+04 9.67293E-09-1.79534E-09
 -1       894-1.89869E+03-1.76839E+05-6.64017E+03 5.32115E+04-5.75255E-09 2.41698E-09
 -1       895-1.48268E+03-1.73847E+05-1.17105E+04 3.55442E+04-4.01769E-10 5.10954E-09
 -1       956-3.78958E+05-5.58895E+03-1.41789E+04 2.34447E+04-6.05542E-09-2.75350E-09
 -1       957-3.81768E+05-1.84396E+03-7.27830E+03 2.82797E+04 6.89624E-09 3.27873E-10
 -1       958-3.80222E+05-1.05318E+02-3.27978E+03 2.32682E+04 1.27411E-08 4.57248E-10
 -1       959-3.80459E+05 3.49969E+01-1.67474E+03 2.84637E+04-4.09682E-09 3.91469E-09
 -1       960-3.80341E+05 9.77695E+01-8.16507E+02 2.32507E+04-1.15360E-08-4.10887E-09
 -1       961-3.80371E+05 1.09878E+02-4.32020E+02 2.84838E+04-1.86960E-08 2.58683E-09
 -1       962-3.80369E+05 9.56750E+01-2.45680E+02 2.32474E+04-6.90807E-09 2.39652E-10
 -1       963-3.80372E+05 1.14954E+02-1.93672E+02 2.84887E+04-1.13723E-08 1.63595E-09
 -1       964-3.80378E+05 1.00999E+02-2.31064E+02 2.32458E+04-1.93813E-09-3.62320E-09
 -1       965-3.80391E+05 1.21498E+02-3.95676E+02 2.84900E+04 9.23228E-09-8.78345E-09
 -1       966-3.80369E+05 1.13502E+02-7.40835E+02 2.32460E+04-5.31030E-09-5.40695E-10
 -1       967-3.80491E+05 6.46028E+01-1.51855E+03 2.84825E+04 1.87634E-09 4.82873E-09
 -1       968-3.80277E+05-6.03366E+01-2.97137E+03 2.32537E+04 1.25465E-09-1.95433E-09
 -1       969-3.81697E+05-1.62914E+03-6.59766E+03 2.83973E+04 1.10299E-09-1.45633E-10
 -1       970-3.79144E+05-5.02501E+03-1.28509E+04 2.33434E+04 3.80442E-09 1.79807E-09
 -1       971-3.66238E+05-1.96018E+03-1.11243E+04 1.82601E+04-1.34232E-08 2.36327E-09
 -1       972-3.68962E+05-1.36813E+03-6.05699E+03 2.56922E+04-8.10451E-09-2.12640E-09
 -1       973-3.67482E+05 3.30701E+01-2.71315E+03 1.80972E+04-1.68493E-08 1.71053E-09
 -1       974-3.67695E+05 5.97642E+01-1.40453E+03 2.58654E+04-9.92395E-09-3.09547E-09
 -1       975-3.67586E+05 9.02755E+01-7.00093E+02 1.80807E+04-9.98443E-09 2.31967E-09
 -1       976-3.67628E+05 1.22694E+02-3.98898E+02 2.58859E+04-1.50103E-08-7.68068E-10
 -1       977-3.67609E+05 9.32877E+01-2.81465E+02 1.80761E+04 4.38240E-09 3.93152E-09
 -1       978-3.67636E+05 1.31790E+02-3.17913E+02 2.58923E+04 3.07436E-08-4.47062E-09
 -1       979-3.67611E+05 1.03338E+02-5.01359E+02 1.80742E+04 1.67546E-08-1.67563E-09
 -1       980-3.67675E+05 1.35581E+02-9.62155E+02 2.58935E+04 7.33797E-09-5.82304E-09
 -1       981-3.67580E+05 1.26938E+02-1.86071E+03 1.80749E+04-4.74301E-10 6.50971E-10
 -1       982-3.67927E+05-3.19885E+00-3.84452E+03 2.58845E+04-5.42514E-10 1.63058E-09
 -1       983-3.67343E+05 5.77909E+00-7.46972E+03 1.80839E+04 1.11945E-08 1.73031E-09
 -1       984-3.71513E+05-3.90787E+03-1.67272E+04 2.57765E+04 1.44155E-10-1.67006E-09
 -1       985-3.63957E+05-5.46257E+03-3.07171E+04 1.82032E+04 1.38839E-08-4.83851E-10
 -3
    1PSTEP                        35          18           1          
  100CL  118 7.71606E-01         409                     0   18           1
 -4  DISP        4    1
 -5  D1          1    2    1    0
 -5  D2          1    2    2    0
 -5  D3          1    2    3    0
 -5  ALL         1    2    0    0    1ALL
 -1         1 5.13323E-03 0.00000E+00 0.00000E+00
 -1         2 6.13143E-03 1.40395E-26 0.00000E+00
 -1         3 2.64354E-05 2.01121E-28 1.32349E-23
 -1         5 6.24408E-05 1.22615E-26-6.61744E-24
 -1         8 5.08518E-03-2.33183E-06 0.00000E+00
 -1         9 5.14509E-03-1.03093E-04 0.00000E+00
 -1        10 2.90567E-05 2.38978E-06 0.00000E+00
 -1        12 6.04425E-05 8.16599E-07 3.30872E-24
 -1        15 5.02880E-03-2.63927E-06 0.00000E+00
 -1        16 5.05492E-03-1.03163E-04 0.00000E+00
 -1        17 3.79448E-05 4.94178E-06 0.00000E+00
 -1        18 5.29339E-05-1.43923E-05 0.00000E+00
 -1        19 5.44468E-05 1.62629E-06 0.00000E+00
 -1        20 5.46584E-05 3.84900E-05 0.00000E+00
 -1        21 5.39401E-05 7.58142E-05-3.30872E-24
 -1        24 2.56059E-05 4.41056E-06 0.00000E+00
 -1        25 4.43419E-05-1.42317E-05 0.00000E+00
 -1        26 4.61929E-05 2.28418E-06 0.00000E+00
 -1        27 4.39325E-05 3.48853E-05 0.00000E+00
 -1        28 4.29852E-05 7.50869E-05 0.00000E+00
 -1        32 0.00000E+00 0.00000E+00 0.00000E+00
 -1        33 3.55679E-05 3.07772E-06 0.00000E+00
 -1        34 3.33806E-05 3.48503E-05 0.00000E+00
 -1        35 3.12512E-05 7.47046E-05 0.00000E+00
 -1        51 5.13007E-03-3.69027E-07 0.00000E+00
 -1        52 5.12424E-03-7.39354E-07 0.00000E+00
 -1        53 5.11628E-03-1.11838E-06 0.00000E+00
 -1        54 5.10674E-03-1.50860E-06 0.00000E+00
 -1        55 5.09619E-03-1.90974E-06 3.30872E-24
 -1        56 5.13279E-03-2.98247E-06-2.64698E-23
 -1        57 5.13409E-03-1.07749E-05 0.00000E+00
 -1        58 5.13691E-03-2.27151E-05 5.29396E-23
 -1        59 5.14093E-03-3.80078E-05 0.00000E+00
 -1        60 5.14576E-03-5.55751E-05 0.00000E+00
 -1        61 5.15099E-03-7.42593E-05 0.00000E+00
 -1        62 5.15617E-03-9.28089E-05 5.29396E-23
 -1        63 5.16086E-03-1.09978E-04 0.00000E+00
 -1        64 5.16464E-03-1.24635E-04-5.29396E-23
 -1        65 5.16715E-03-1.35741E-04 0.00000E+00
 -1        66 5.16808E-03-1.42549E-04 0.00000E+00
 -1        67 5.16720E-03-1.44468E-04 0.00000E+00
 -1        68 5.16441E-03-1.41312E-04 0.00000E+00
 -1        69 5.15969E-03-1.33067E-04 0.00000E+00
 -1        70 5.15316E-03-1.20146E-04 1.32349E-23
 -1        86 6.07125E-03-3.53326E-06-5.29396E-23
 -1        87 5.89516E-03-2.03443E-05 0.00000E+00
 -1        88 5.65687E-03-4.91077E-05 0.00000E+00
 -1        89 5.41288E-03-7.92318E-05-1.32349E-23
 -1        90 5.22304E-03-9.84214E-05 0.00000E+00
 -1       121 2.65077E-05 3.98283E-07 1.32349E-23
 -1       122 2.67246E-05 7.96553E-07-6.61744E-24
 -1       123 2.70868E-05 1.19479E-06 1.32349E-23
 -1       124 2.75953E-05 1.59305E-06 0.00000E+00
 -1       125 2.82514E-05 1.99118E-06-1.32349E-23
 -1       191 6.23853E-05 1.36174E-07-6.61744E-24
 -1       192 6.22188E-05 2.72334E-07 0.00000E+00
 -1       193 6.19413E-05 4.08471E-07 0.00000E+00
 -1       194 6.15527E-05 5.44571E-07 0.00000E+00
 -1       195 6.10532E-05 6.80618E-07 0.00000E+00
 -1       251 5.08877E-03 2.16116E-06 5.29396E-23
 -1       252 5.09254E-03-2.11454E-06 5.29396E-23
 -1       253 5.09628E-03-1.07242E-05 1.05879E-22
 -1       254 5.10004E-03-1.99577E-05 5.29396E-23
 -1       255 5.10381E-03-2.94994E-05 0.00000E+00
 -1       256 5.10758E-03-3.90849E-05 5.29396E-23
 -1       257 5.11135E-03-4.86917E-05 1.05879E-22
 -1       258 5.11513E-03-5.83012E-05 0.00000E+00
 -1       259 5.11890E-03-6.79099E-05 0.00000E+00
 -1       260 5.12267E-03-7.75142E-05 5.29396E-23
 -1       261 5.12644E-03-8.70855E-05 0.00000E+00
 -1       262 5.13021E-03-9.65901E-05 5.29396E-23
 -1       263 5.13398E-03-1.05621E-04-1.05879E-22
 -1       264 5.13774E-03-1.13696E-04 0.00000E+00
 -1       265 5.14152E-03-1.15119E-04 0.00000E+00
 -1       266 5.07578E-03-2.40959E-06 0.00000E+00
 -1       267 5.06639E-03-2.45760E-06 0.00000E+00
 -1       268 5.05699E-03-2.50749E-06 0.00000E+00
 -1       269 5.04759E-03-2.55180E-06-8.27181E-25
 -1       270 5.03819E-03-2.59597E-06 8.27181E-25
 -1       271 5.07924E-03 2.65879E-06-5.29396E-23
 -1       272 5.07541E-03 1.71806E-06 0.00000E+00
 -1       273 5.07360E-03-4.63728E-06 0.00000E+00
 -1       274 5.07350E-03-1.56890E-05-5.29396E-23
 -1       275 5.07475E-03-3.04721E-05 0.00000E+00
 -1       276 5.07692E-03-4.78537E-05 0.00000E+00
 -1       277 5.07958E-03-6.65685E-05 0.00000E+00
 -1       278 5.08223E-03-8.52893E-05 5.29396E-23
 -1       279 5.08441E-03-1.02689E-04-1.05879E-22
 -1       280 5.08566E-03-1.17502E-04 0.00000E+00
 -1       281 5.08557E-03-1.28593E-04 0.00000E+00
 -1       282 5.08376E-03-1.35002E-04 5.29396E-23
 -1       283 5.07993E-03-1.36001E-04 0.00000E+00
 -1       284 5.07389E-03-1.31108E-04 0.00000E+00
 -1       285 5.06551E-03-1.20147E-04 0.00000E+00
 -1       301 5.12864E-03-1.03110E-04 0.00000E+00
 -1       302 5.11448E-03-1.03096E-04 0.00000E+00
 -1       303 5.10134E-03-1.03070E-04 0.00000E+00
 -1       304 5.08789E-03-1.03052E-04 0.00000E+00
 -1       305 5.07285E-03-1.03064E-04 0.00000E+00
 -1       306 5.02022E-03 1.09938E-04 1.05879E-22
 -1       307 4.61901E-03 6.12590E-04 5.29396E-23
 -1       308 3.89745E-03 1.28042E-03 0.00000E+00
 -1       309 2.93129E-03 1.99438E-03-5.29396E-23
 -1       310 1.90521E-03 2.71341E-03 0.00000E+00
 -1       311 1.02109E-03 3.42044E-03 0.00000E+00
 -1       312 4.09864E-04 4.04314E-03 0.00000E+00
 -1       313 1.10330E-04 4.46435E-03 0.00000E+00
 -1       314 6.60310E-05 4.53341E-03 2.11758E-22
 -1       315 1.20788E-04 4.21469E-03-1.05879E-22
 -1       316 1.45989E-04 3.53348E-03 0.00000E+00
 -1       317 7.93795E-05 2.61868E-03 0.00000E+00
 -1       318-1.66681E-05 1.64705E-03 1.05879E-22
 -1       319-4.87399E-05 7.97663E-04 0.00000E+00
 -1       320-5.42157E-06 2.17233E-04 0.00000E+00
 -1       336 3.00338E-05 2.81957E-06 0.00000E+00
 -1       337 3.12065E-05 3.24945E-06 0.00000E+00
 -1       338 3.25790E-05 3.67868E-06 1.32349E-23
 -1       339 3.41560E-05 4.10533E-06-6.61744E-24
 -1       340 3.59426E-05 4.53183E-06-6.61744E-24
 -1       406 5.97208E-05 9.52491E-07-6.61744E-24
 -1       407 5.88879E-05 1.08826E-06 0.00000E+00
 -1       408 5.79438E-05 1.22384E-06-6.61744E-24
 -1       409 5.68887E-05 1.35906E-06 0.00000E+00
 -1       410 5.57227E-05 1.49364E-06 0.00000E+00
 -1       521 4.92867E-03 1.09688E-04-2.11758E-22
 -1       522 4.52848E-03 6.10283E-04 0.00000E+00
 -1       523 3.81391E-03 1.27539E-03 1.05879E-22
 -1       524 2.86445E-03 1.98777E-03 0.00000E+00
 -1       525 1.85733E-03 2.70601E-03-1.05879E-22
 -1       526 9.86259E-04 3.41058E-03 0.00000E+00
 -1       527 3.83173E-04 4.02882E-03 0.00000E+00
 -1       528 8.74968E-05 4.44489E-03-1.05879E-22
 -1       529 4.41750E-05 4.50871E-03 0.00000E+00
 -1       530 9.80096E-05 4.18687E-03-1.05879E-22
 -1       531 1.23082E-04 3.50745E-03 0.00000E+00
 -1       532 6.09472E-05 2.60175E-03 0.00000E+00
 -1       533-2.93326E-05 1.64029E-03 0.00000E+00
 -1       534-5.95159E-05 7.96257E-04 5.29396E-23
 -1       535-1.67494E-05 2.17728E-04-1.05879E-22
 -1       536 3.88458E-05 3.01579E-06-1.32349E-23
 -1       537 3.97835E-05 1.45516E-06-1.32349E-23
 -1       538 4.07192E-05 8.48431E-08 0.00000E+00
 -1       539 4.16618E-05-1.26200E-06-1.32349E-23
 -1       540 4.26047E-05-2.59661E-06-2.64698E-23
 -1       541 4.35489E-05-3.92972E-06 0.00000E+00
 -1       542 4.44932E-05-5.26206E-06 0.00000E+00
 -1       543 4.54378E-05-6.59428E-06 0.00000E+00
 -1       544 4.63824E-05-7.92628E-06-2.64698E-23
 -1       545 4.73268E-05-9.25798E-06-1.32349E-23
 -1       546 4.82710E-05-1.05871E-05 2.64698E-23
 -1       547 4.92138E-05-1.19114E-05 0.00000E+00
 -1       548 5.01566E-05-1.31959E-05 2.64698E-23
 -1       549 5.10925E-05-1.44040E-05-1.32349E-23
 -1       550 5.20312E-05-1.49927E-05 1.32349E-23
 -1       551 3.72846E-05 4.86778E-06 0.00000E+00
 -1       552 3.45883E-05 4.78836E-06 0.00000E+00
 -1       553 3.09592E-05 4.70639E-06 6.61744E-24
 -1       554 2.75116E-05 4.62071E-06-6.61744E-24
 -1       555 2.53597E-05 4.53226E-06 0.00000E+00
 -1       556 3.87204E-05 2.75223E-06-5.16988E-26
 -1       557 3.94963E-05 5.49348E-07 0.00000E+00
 -1       558 4.02647E-05-1.63475E-06 8.27181E-25
 -1       559 4.10140E-05-3.76911E-06-2.06795E-25
 -1       560 4.17331E-05-5.82263E-06-2.06795E-25
 -1       561 4.24104E-05-7.76431E-06 0.00000E+00
 -1       562 4.30344E-05-9.56322E-06-1.65436E-24
 -1       563 4.35935E-05-1.11884E-05 0.00000E+00
 -1       564 4.40762E-05-1.26089E-05 0.00000E+00
 -1       565 4.44709E-05-1.37938E-05 0.00000E+00
 -1       566 4.47660E-05-1.47123E-05 0.00000E+00
 -1       567 4.49498E-05-1.53335E-05 0.00000E+00
 -1       568 4.50107E-05-1.56265E-05 0.00000E+00
 -1       569 4.49372E-05-1.55607E-05 0.00000E+00
 -1       570 4.47176E-05-1.51054E-05 0.00000E+00
 -1       571 5.30258E-05-1.32654E-05-8.27181E-25
 -1       572 5.31196E-05-1.22029E-05 6.20385E-25
 -1       573 5.32141E-05-1.11951E-05 8.27181E-25
 -1       574 5.33088E-05-1.02319E-05 1.65436E-24
 -1       575 5.34036E-05-9.30292E-06-3.30872E-24
 -1       576 5.34985E-05-8.39775E-06-8.27181E-25
 -1       577 5.35935E-05-7.50605E-06 0.00000E+00
 -1       578 5.36884E-05-6.61742E-06 0.00000E+00
 -1       579 5.37834E-05-5.72146E-06 0.00000E+00
 -1       580 5.38783E-05-4.80777E-06 0.00000E+00
 -1       581 5.39732E-05-3.86596E-06-3.30872E-24
 -1       582 5.40681E-05-2.88565E-06 0.00000E+00
 -1       583 5.41629E-05-1.85645E-06 0.00000E+00
 -1       584 5.42576E-05-7.68104E-07 0.00000E+00
 -1       585 5.43523E-05 3.89642E-07 0.00000E+00
 -1       586 5.15281E-05-1.43636E-05 0.00000E+00
 -1       587 5.00707E-05-1.43360E-05-1.65436E-24
 -1       588 4.85922E-05-1.43088E-05 0.00000E+00
 -1       589 4.71239E-05-1.42820E-05 0.00000E+00
 -1       590 4.56970E-05-1.42558E-05 0.00000E+00
 -1       591 5.24738E-05-1.32362E-05 4.13590E-25
 -1       592 5.20357E-05-1.21492E-05 0.00000E+00
 -1       593 5.16186E-05-1.11188E-05 8.27181E-25
 -1       594 5.12182E-05-1.01339E-05 4.13590E-25
 -1       595 5.08304E-05-9.18305E-06 8.27181E-25
 -1       596 5.04511E-05-8.25477E-06 0.00000E+00
 -1       597 5.00760E-05-7.33776E-06 0.00000E+00
 -1       598 4.97009E-05-6.42066E-06 4.13590E-25
 -1       599 4.93214E-05-5.49209E-06-8.27181E-25
 -1       600 4.89334E-05-4.54070E-06 4.13590E-25
 -1       601 4.85325E-05-3.55516E-06 4.13590E-25
 -1       602 4.81146E-05-2.52407E-06 3.10193E-25
 -1       603 4.76754E-05-1.43608E-06 6.62391E-26
 -1       604 4.72111E-05-2.79764E-07 0.00000E+00
 -1       605 4.67170E-05 9.56205E-07 0.00000E+00
 -1       606 5.44661E-05 3.08110E-06 6.61744E-24
 -1       607 5.44817E-05 4.69897E-06-3.30872E-24
 -1       608 5.44963E-05 6.47033E-06-6.61744E-24
 -1       609 5.45103E-05 8.38438E-06 3.30872E-24
 -1       610 5.45238E-05 1.04303E-05 0.00000E+00
 -1       611 5.45370E-05 1.25971E-05 0.00000E+00
 -1       612 5.45500E-05 1.48737E-05 0.00000E+00
 -1       613 5.45627E-05 1.72492E-05 0.00000E+00
 -1       614 5.45753E-05 1.97125E-05 0.00000E+00
 -1       615 5.45876E-05 2.22527E-05 0.00000E+00
 -1       616 5.45998E-05 2.48586E-05 0.00000E+00
 -1       617 5.46118E-05 2.75194E-05 0.00000E+00
 -1       618 5.46238E-05 3.02239E-05 0.00000E+00
 -1       619 5.46355E-05 3.29612E-05 4.13590E-25
 -1       620 5.46472E-05 3.57202E-05 0.00000E+00
 -1       621 5.31034E-05 1.73589E-06 0.00000E+00
 -1       622 5.17434E-05 1.84617E-06 0.00000E+00
 -1       623 5.03695E-05 1.95643E-06-3.30872E-24
 -1       624 4.89846E-05 2.06652E-06-1.65436E-24
 -1       625 4.75914E-05 2.17642E-06 0.00000E+00
 -1       626 5.40125E-05 3.11179E-06 0.00000E+00
 -1       627 5.35270E-05 4.73542E-06-3.30872E-24
 -1       628 5.29941E-05 6.48531E-06 0.00000E+00
 -1       629 5.24185E-05 8.34869E-06 6.61744E-24
 -1       630 5.18050E-05 1.03128E-05 0.00000E+00
 -1       631 5.11584E-05 1.23648E-05 0.00000E+00
 -1       632 5.04835E-05 1.44917E-05 0.00000E+00
 -1       633 4.97852E-05 1.66808E-05 0.00000E+00
 -1       634 4.90683E-05 1.89191E-05 0.00000E+00
 -1       635 4.83376E-05 2.11937E-05 0.00000E+00
 -1       636 4.75981E-05 2.34919E-05-3.30872E-24
 -1       637 4.68545E-05 2.58008E-05 0.00000E+00
 -1       638 4.61116E-05 2.81074E-05 3.30872E-24
 -1       639 4.53742E-05 3.03990E-05-8.27181E-25
 -1       640 4.46468E-05 3.26626E-05 3.30872E-24
 -1       656 5.22133E-05 3.79027E-05-6.61744E-24
 -1       657 5.03278E-05 3.72926E-05 0.00000E+00
 -1       658 4.87912E-05 3.66850E-05-1.32349E-23
 -1       659 4.73840E-05 3.60779E-05 6.61744E-24
 -1       660 4.58490E-05 3.54688E-05 0.00000E+00
 -1       661 5.37543E-05 4.12269E-05 0.00000E+00
 -1       662 5.28812E-05 4.38961E-05 1.65436E-24
 -1       663 5.20329E-05 4.64984E-05 0.00000E+00
 -1       664 5.12096E-05 4.90370E-05-1.65436E-24
 -1       665 5.04097E-05 5.15137E-05 0.00000E+00
 -1       666 4.96326E-05 5.39307E-05-1.65436E-24
 -1       667 4.88773E-05 5.62897E-05-3.30872E-24
 -1       668 4.81434E-05 5.85923E-05-1.65436E-24
 -1       669 4.74303E-05 6.08397E-05 3.30872E-24
 -1       670 4.67375E-05 6.30330E-05 0.00000E+00
 -1       671 4.60648E-05 6.51732E-05 0.00000E+00
 -1       672 4.54117E-05 6.72607E-05 0.00000E+00
 -1       673 4.47782E-05 6.92961E-05 0.00000E+00
 -1       674 4.41630E-05 7.12792E-05-8.27181E-25
 -1       675 4.35679E-05 7.32104E-05 8.27181E-25
 -1       676 5.21069E-05 7.56923E-05 0.00000E+00
 -1       677 5.02749E-05 7.55704E-05 1.65436E-24
 -1       678 4.84455E-05 7.54485E-05 3.30872E-24
 -1       679 4.66199E-05 7.53271E-05 1.65436E-24
 -1       680 4.47994E-05 7.52056E-05 0.00000E+00
 -1       771 2.52213E-05 9.93134E-07 2.64698E-23
 -1       772 2.45887E-05-1.85655E-06 0.00000E+00
 -1       773 2.37477E-05-4.15439E-06 0.00000E+00
 -1       774 2.27086E-05-5.93236E-06 0.00000E+00
 -1       775 2.14859E-05-7.22217E-06 0.00000E+00
 -1       776 2.00928E-05-8.05851E-06-2.64698E-23
 -1       777 1.85429E-05-8.47720E-06-5.29396E-23
 -1       778 1.68502E-05-8.51590E-06 0.00000E+00
 -1       779 1.50293E-05-8.21325E-06-5.29396E-23
 -1       780 1.30950E-05-7.60932E-06 2.64698E-23
 -1       781 1.10628E-05-6.74493E-06 5.29396E-23
 -1       782 8.94833E-06-5.66199E-06 0.00000E+00
 -1       783 6.76770E-06-4.40293E-06 0.00000E+00
 -1       784 4.53766E-06-3.01080E-06 0.00000E+00
 -1       785 2.27439E-06-1.52922E-06 5.29396E-23
 -1       786 4.44518E-05-1.31112E-05 0.00000E+00
 -1       787 4.45673E-05-1.20555E-05 0.00000E+00
 -1       788 4.46825E-05-1.10470E-05 3.30872E-24
 -1       789 4.47988E-05-1.00682E-05 0.00000E+00
 -1       790 4.49151E-05-9.11003E-06-3.30872E-24
 -1       791 4.50316E-05-8.16355E-06-1.65436E-24
 -1       792 4.51482E-05-7.22312E-06 0.00000E+00
 -1       793 4.52648E-05-6.28311E-06 1.65436E-24
 -1       794 4.53814E-05-5.33801E-06 0.00000E+00
 -1       795 4.54980E-05-4.38230E-06 0.00000E+00
 -1       796 4.56145E-05-3.40745E-06 0.00000E+00
 -1       797 4.57310E-05-2.40483E-06 1.65436E-24
 -1       798 4.58474E-05-1.35797E-06 3.30872E-24
 -1       799 4.59633E-05-2.50189E-07 0.00000E+00
 -1       800 4.60793E-05 9.52406E-07 3.30872E-24
 -1       801 4.07811E-05-1.18829E-05 0.00000E+00
 -1       802 3.27169E-05-9.46578E-06 2.64698E-23
 -1       803 2.25456E-05-7.07360E-06 0.00000E+00
 -1       804 1.24178E-05-4.69140E-06 0.00000E+00
 -1       805 4.20353E-06-2.28267E-06-1.32349E-23
 -1       806 4.38079E-05-1.31712E-05 0.00000E+00
 -1       807 4.32846E-05-1.21535E-05-1.65436E-24
 -1       808 4.27725E-05-1.11679E-05 3.30872E-24
 -1       809 4.22683E-05-1.02050E-05 1.65436E-24
 -1       810 4.17687E-05-9.25488E-06 0.00000E+00
 -1       811 4.12703E-05-8.30813E-06-1.65436E-24
 -1       812 4.07696E-05-7.35513E-06 3.30872E-24
 -1       813 4.02628E-05-6.38633E-06-1.65436E-24
 -1       814 3.97465E-05-5.39218E-06-3.30872E-24
 -1       815 3.92171E-05-4.36312E-06-1.65436E-24
 -1       816 3.86710E-05-3.28963E-06 3.30872E-24
 -1       817 3.81046E-05-2.16215E-06 0.00000E+00
 -1       818 3.75144E-05-9.71154E-07-1.65436E-24
 -1       819 3.68969E-05 2.92850E-07-1.65436E-24
 -1       820 3.62487E-05 1.63938E-06-1.65436E-24
 -1       821 4.60657E-05 2.93999E-06 0.00000E+00
 -1       822 4.59304E-05 2.12085E-06-1.65436E-24
 -1       823 4.57944E-05 3.24166E-07 0.00000E+00
 -1       824 4.56560E-05-1.94656E-06 0.00000E+00
 -1       825 4.55178E-05-4.05880E-06-3.30872E-24
 -1       826 4.53807E-05-5.38086E-06 1.65436E-24
 -1       827 4.52443E-05-5.49748E-06-3.30872E-24
 -1       828 4.51067E-05-4.00075E-06 1.65436E-24
 -1       829 4.49657E-05-9.24163E-07-3.30872E-24
 -1       830 4.48191E-05 3.68914E-06 1.65436E-24
 -1       831 4.46673E-05 9.37568E-06 3.30872E-24
 -1       832 4.45123E-05 1.56653E-05 1.65436E-24
 -1       833 4.43575E-05 2.19226E-05-3.30872E-24
 -1       834 4.42081E-05 2.75126E-05 0.00000E+00
 -1       835 4.40635E-05 3.19822E-05 8.27181E-25
 -1       836 4.46266E-05 2.41651E-06 0.00000E+00
 -1       837 4.28685E-05 2.55150E-06 0.00000E+00
 -1       838 4.10008E-05 2.68611E-06 0.00000E+00
 -1       839 3.91064E-05 2.81984E-06 0.00000E+00
 -1       840 3.72680E-05 2.95345E-06 4.13590E-25
 -1       856 4.38793E-05 3.70892E-05-2.06795E-25
 -1       857 4.38209E-05 3.94547E-05 4.13590E-25
 -1       858 4.37624E-05 4.19564E-05-1.65436E-24
 -1       859 4.37027E-05 4.45690E-05 0.00000E+00
 -1       860 4.36428E-05 4.72664E-05 0.00000E+00
 -1       861 4.35826E-05 5.00227E-05 0.00000E+00
 -1       862 4.35222E-05 5.28118E-05 0.00000E+00
 -1       863 4.34618E-05 5.56074E-05 8.27181E-25
 -1       864 4.34014E-05 5.83835E-05-1.65436E-24
 -1       865 4.33412E-05 6.11137E-05 8.27181E-25
 -1       866 4.32811E-05 6.37721E-05 0.00000E+00
 -1       867 4.32213E-05 6.63326E-05 0.00000E+00
 -1       868 4.31617E-05 6.87697E-05-1.65436E-24
 -1       869 4.31025E-05 7.10578E-05 8.27181E-25
 -1       870 4.30437E-05 7.31718E-05 1.65436E-24
 -1       871 4.20151E-05 3.48834E-05 0.00000E+00
 -1       872 4.02428E-05 3.48786E-05 0.00000E+00
 -1       873 3.85548E-05 3.48734E-05 0.00000E+00
 -1       874 3.68894E-05 3.48676E-05 2.06795E-25
 -1       875 3.51850E-05 3.48610E-05 1.65436E-24
 -1       876 4.32403E-05 3.71007E-05-3.30872E-24
 -1       877 4.25215E-05 3.93949E-05-1.65436E-24
 -1       878 4.17769E-05 4.17583E-05-3.30872E-24
 -1       879 4.10099E-05 4.41819E-05 0.00000E+00
 -1       880 4.02236E-05 4.66568E-05 3.30872E-24
 -1       881 3.94214E-05 4.91740E-05 0.00000E+00
 -1       882 3.86067E-05 5.17245E-05-3.30872E-24
 -1       883 3.77827E-05 5.42995E-05 1.65436E-24
 -1       884 3.69529E-05 5.68899E-05 3.30872E-24
 -1       885 3.61205E-05 5.94870E-05 0.00000E+00
 -1       886 3.52890E-05 6.20817E-05-3.30872E-24
 -1       887 3.44616E-05 6.46651E-05 0.00000E+00
 -1       888 3.36416E-05 6.72283E-05 3.30872E-24
 -1       889 3.28320E-05 6.97623E-05 0.00000E+00
 -1       890 3.20360E-05 7.22580E-05-1.65436E-24
 -1       891 4.12069E-05 7.50232E-05-1.65436E-24
 -1       892 3.94014E-05 7.49592E-05-8.27181E-25
 -1       893 3.75358E-05 7.48952E-05-8.27181E-25
 -1       894 3.55774E-05 7.48312E-05-4.13590E-25
 -1       895 3.34933E-05 7.47671E-05-4.13590E-25
 -1       956 3.54342E-05 4.70429E-06 0.00000E+00
 -1       957 3.52983E-05 6.42084E-06 1.65436E-24
 -1       958 3.51618E-05 8.21885E-06 0.00000E+00
 -1       959 3.50249E-05 1.00892E-05-1.65436E-24
 -1       960 3.48879E-05 1.20230E-05 0.00000E+00
 -1       961 3.47507E-05 1.40108E-05-1.65436E-24
 -1       962 3.46134E-05 1.60436E-05 3.30872E-24
 -1       963 3.44760E-05 1.81123E-05 1.65436E-24
 -1       964 3.43386E-05 2.02076E-05 0.00000E+00
 -1       965 3.42011E-05 2.23204E-05-1.65436E-24
 -1       966 3.40637E-05 2.44414E-05-3.30872E-24
 -1       967 3.39262E-05 2.65616E-05 1.65436E-24
 -1       968 3.37889E-05 2.86717E-05 0.00000E+00
 -1       969 3.36518E-05 3.07625E-05 0.00000E+00
 -1       970 3.35152E-05 3.28250E-05 0.00000E+00
 -1       971 3.32499E-05 3.69155E-05 3.30872E-24
 -1       972 3.31172E-05 3.91024E-05 1.65436E-24
 -1       973 3.29841E-05 4.13975E-05-3.30872E-24
 -1       974 3.28506E-05 4.37870E-05 0.00000E+00
 -1       975 3.27169E-05 4.62567E-05-3.30872E-24
 -1       976 3.25829E-05 4.87927E-05 1.65436E-24
 -1       977 3.24489E-05 5.13810E-05-3.30872E-24
 -1       978 3.23147E-05 5.40073E-05 0.00000E+00
 -1       979 3.21804E-05 5.66578E-05 0.00000E+00
 -1       980 3.20462E-05 5.93183E-05 0.00000E+00
 -1       981 3.19120E-05 6.19748E-05 0.00000E+00
 -1       982 3.17780E-05 6.46131E-05 1.65436E-24
 -1       983 3.16442E-05 6.72193E-05 0.00000E+00
 -1       984 3.15110E-05 6.97792E-05 0.00000E+00
 -1       985 3.13786E-05 7.22789E-05-3.30872E-24
 -3
    1PSTEP                        36          18           1          
  100CL  118 7.71606E-01         409                     0   18           1
 -4  STRESS      6    1
 -5  SXX         1    4    1    1
 -5  SYY         1    4    2    2
 -5  SZZ         1    4    3    3
 -5  SXY         1    4    1    2
 -5  SYZ         1    4    2    3
 -5  SZX         1    4    3    1
 -1         1-1.77178E+06-1.02660E+06-3.30808E+05-1.67519E+06 4.50382E-09 1.20184E-07
 -1         2 6.79289E+05 9.79250E+06 2.56021E+06-3.04526E+06-2.63826E-08 3.62030E-07
 -1         3-2.75550E+01 1.14020E+06-1.85395E+02-1.26563E+02 6.96332E-13-5.26234E-09
 -1         5-8.79991E+01 3.89995E+05 1.02228E+01 1.47783E+00 4.58983E-10-6.93035E-10
 -1         8 7.21626E+05-2.23200E+05 5.14543E+05-1.42677E+06 2.22644E-09-2.23663E-08
 -1         9 1.80084E+07 1.84717E+07 5.35012E+06 1.43261E+07 3.23635E-09-3.77465E-07
 -1        10 9.32740E+02 1.18813E+06 3.85105E+03-9.15516E+02 1.08207E-09-9.02660E-09
 -1        12-8.40161E+01 3.90017E+05 3.36794E+02 1.00206E+01 8.45631E-10 2.50848E-08
 -1        15 4.39246E+03 2.41409E+03 1.41990E+04 1.78502E+01 1.20525E-09-1.06628E-07
 -1        16 2.42133E+07 2.58841E+07 6.84813E+06 2.49421E+07 2.45248E-08-1.58170E-07
 -1        17 2.72668E+07 1.91947E+05 3.85488E+06-3.05681E+06 2.92493E-08-4.66127E-08
 -1        18 7.47825E+05 1.74763E+05 1.54455E+05-7.64768E+04 2.29466E-09 3.62888E-10
 -1        19 1.19741E+05 1.48086E+05-2.78326E+02 2.41873E+04-1.91430E-09-2.27592E-09
 -1        20-3.49801E+04-5.66498E+05-1.23978E+05 4.92410E+04 9.85498E-09-5.22292E-09
 -1        21-5.46078E+01-3.44524E+05-1.12928E+03-4.33174E+02-2.16649E-08-4.92552E-09
 -1        24 4.37447E+07-1.22299E+06 5.64702E+06-5.40974E+06 1.22781E-07 3.14394E-08
 -1        25 3.72796E+05 1.47380E+06 3.80006E+05-1.18037E+05 1.15797E-09 5.83677E-09
 -1        26-9.22550E+03 1.07196E+05-1.62277E+04-2.34701E+04 2.68628E-09 4.07601E-10
 -1        27-9.51126E+04-3.12398E+05-1.17777E+05 7.11104E+04 1.22163E-08-6.16304E-09
 -1        28 2.71498E+04-9.32399E+04 1.94044E+04 3.33249E+04 7.88384E-09-4.85711E-09
 -1        32-4.80926E+05 3.47214E+06 1.37582E+06-7.51064E+05-1.92085E-09 6.76863E-08
 -1        33-1.74412E+05 9.49447E+04 3.33231E+04-6.42333E+04 3.68527E-09-2.19279E-09
 -1        34-2.34663E+05-2.24411E+04 4.44611E+02 6.90772E+04 9.73159E-09 1.13687E-10
 -1        35-2.74349E+04-3.69971E+04-1.45653E+03 6.00649E+04 1.60724E-08-2.80124E-09
 -1        51-3.65575E+02-9.20765E+05 2.10655E+04-1.86863E+06-1.74623E-10-1.15833E-07
 -1        52 1.67744E+04-9.39895E+05 2.42160E+04-2.18035E+06-1.30967E-09-2.52781E-07
 -1        53 2.22671E+04-9.73829E+05 3.06861E+04-1.86197E+06 2.03727E-09 2.78960E-07
 -1        54 5.70996E+04-9.82737E+05 6.31228E+04-2.18672E+06-6.98492E-10 5.11754E-07
 -1        55 9.38078E+04-1.01060E+06 1.19504E+05-1.86040E+06 2.76486E-09-1.58128E-07
 -1        56-3.48058E+06-3.88369E+05-2.36083E+05-1.30956E+06-4.12074E-08 9.66247E-09
 -1        57-3.46391E+06-6.83585E+05-1.54705E+05-1.39616E+06-4.14002E-08-7.23230E-09
 -1        58-3.55024E+06-4.34502E+05-5.61675E+04-1.26183E+06-3.31011E-08-2.56063E-07
 -1        59-3.38110E+06-6.37191E+05-3.19742E+04-1.46962E+06-1.17364E-07-1.11409E-07
 -1        60-3.56874E+06-4.28835E+05-1.28880E+04-1.24090E+06-1.49535E-08-1.51182E-07
 -1        61-3.36473E+06-6.38430E+05-7.40930E+03-1.49143E+06-2.79626E-08-5.38926E-07
 -1        62-3.56903E+06-4.31310E+05-4.11439E+03-1.24182E+06 8.68467E-08-2.51751E-07
 -1        63-3.37468E+06-6.19940E+05-3.07936E+03-1.46727E+06-1.08835E-07 2.98527E-07
 -1        64-3.55569E+06-4.49345E+05-7.27030E+03-1.26294E+06 1.79371E-08-9.42828E-08
 -1        65-3.40928E+06-5.77841E+05-9.67977E+03-1.40622E+06-2.35750E-08 2.22166E-07
 -1        66-3.52852E+06-4.77388E+05-2.53736E+04-1.29866E+06 5.08244E-08-1.65583E-08
 -1        67-3.47951E+06-5.35924E+05-5.33840E+04-1.32401E+06-1.61381E-08-1.11919E-07
 -1        68-3.48212E+06-4.94033E+05-9.90131E+04-1.34232E+06-5.34756E-08-2.62866E-07
 -1        69-3.64568E+06-6.21977E+05-2.71775E+05-1.21992E+06 3.80244E-08 3.83960E-07
 -1        70-3.36514E+06-3.93543E+05-4.08586E+05-1.40273E+06 1.66619E-09 1.07393E-07
 -1        86-6.94583E+05-9.32150E+06-1.42878E+06 1.45453E+06 2.26188E-07 5.86740E-07
 -1        87 9.88471E+05 2.03915E+06 1.12777E+06-3.14783E+06 3.65602E-07 3.75700E-07
 -1        88-1.40288E+05-2.46193E+06 2.15610E+04 1.65687E+06 2.87389E-07 4.98849E-08
 -1        89 1.27326E+06 1.56965E+06 9.47788E+05-3.28733E+06 4.33447E-07-7.89532E-08
 -1        90-9.02710E+05-8.92109E+06-1.75874E+06 1.61076E+06 1.14655E-07 1.42405E-07
 -1       121-5.48110E+00 1.14030E+06-2.26079E+02 6.32866E+01-9.46656E-11 2.99679E-10
 -1       122-1.12052E+02 1.14014E+06-4.17340E+02-2.53521E+02 5.94703E-10 6.14364E-10
 -1       123 5.59016E+01 1.14035E+06-7.11617E+02 1.90277E+02-4.13507E-10-8.48559E-10
 -1       124-1.15469E+03 1.13951E+06-1.83020E+03-4.65884E+02 5.64896E-10-2.48838E-09
 -1       125 7.30042E+02 1.14093E+06-2.64387E+03 2.75983E+02-6.00949E-10-4.11092E-09
 -1       191-9.26862E+01 3.90010E+05 8.13974E+00-7.75179E-01 6.00804E-10 5.74801E-10
 -1       192-8.89938E+01 3.89995E+05 2.18421E+01 4.69829E+00 8.28323E-10-3.72893E-09
 -1       193-9.53004E+01 3.90010E+05 3.66526E+01-4.14471E+00 1.03764E-09 8.02174E-10
 -1       194-9.21811E+01 3.89999E+05 8.30995E+01 1.06506E+01 5.53598E-10-6.45377E-09
 -1       195-1.00317E+02 3.90008E+05 1.58564E+02-6.96838E+00 1.60331E-09 7.25413E-09
 -1       251 1.07333E+07-4.94710E+05 1.15234E+06 1.31562E+05 1.68957E-08 2.05706E-07
 -1       252 1.13039E+07 5.72700E+05 8.23691E+05-3.49833E+05-7.61572E-09-3.70666E-07
 -1       253 1.09632E+07-7.37552E+04 3.01789E+05-8.52374E+04-9.45658E-09-3.60014E-07
 -1       254 1.10429E+07 8.74154E+04 1.88158E+05-1.18113E+05 1.99465E-09-2.56106E-07
 -1       255 1.09946E+07-1.05863E+04 7.80989E+04-1.00060E+05 1.57874E-08-1.68602E-07
 -1       256 1.10075E+07 1.44339E+04 4.65054E+04-1.02298E+05 1.04001E-08-4.11326E-07
 -1       257 1.09997E+07-1.02346E+03 2.33802E+04-1.01064E+05 3.94536E-09 1.30281E-07
 -1       258 1.10023E+07 4.45478E+03 1.90480E+04-1.01337E+05-1.00297E-08 4.43692E-07
 -1       259 1.10000E+07-6.35985E+02 2.01266E+04-1.01023E+05 1.56325E-08 1.39011E-07
 -1       260 1.10057E+07 1.10773E+04 3.70169E+04-1.02954E+05-2.83076E-09-3.60083E-08
 -1       261 1.09962E+07-7.62712E+03 6.12439E+04-9.94452E+04 1.85675E-08-6.19366E-08
 -1       262 1.10322E+07 6.53206E+04 1.45557E+05-1.27465E+05-1.07418E-08-2.01513E-07
 -1       263 1.09726E+07-5.47085E+04 2.35037E+05-7.65037E+04 2.97422E-09 1.38098E-08
 -1       264 1.12995E+07 4.45835E+05 6.51745E+05-4.81749E+05 1.47937E-08 1.74565E-07
 -1       265 1.07327E+07-3.88854E+05 8.80816E+05 2.54732E+05 2.91038E-09 1.56520E-07
 -1       266-7.95076E+04-3.71509E+04 1.86682E+05-3.82172E+02 1.49885E-09 5.53152E-07
 -1       267 9.21826E+04 4.33432E+04 1.31876E+05 4.40663E+02 3.49246E-09 1.94329E-08
 -1       268-1.23610E+04-6.13626E+03 4.90218E+04-5.61641E+01 2.49565E-09 2.58887E-07
 -1       269 1.45954E+04 7.34640E+03 3.18597E+04 6.54055E+01 1.28057E-09 6.33368E-07
 -1       270-2.19078E+03-1.20696E+03 1.53792E+04-8.87671E+00 1.78670E-09 4.80513E-07
 -1       271-8.99466E+06-1.12775E+06-7.30112E+05-3.51008E+06 6.65386E-09-3.13448E-08
 -1       272-9.13221E+06-1.73425E+06-4.62807E+05-3.59620E+06 2.62535E-08-5.13821E-07
 -1       273-9.17244E+06-1.26185E+06-1.74444E+05-3.43058E+06 1.23982E-08-1.27999E-07
 -1       274-8.92538E+06-1.57794E+06-9.39314E+04-3.74021E+06-6.78847E-09 5.27927E-07
 -1       275-9.22087E+06-1.24575E+06-4.04776E+04-3.39180E+06-1.18234E-09-8.05030E-08
 -1       276-8.88212E+06-1.59046E+06-2.06205E+04-3.80617E+06-3.59159E-09-1.11991E-07
 -1       277-9.23441E+06-1.23441E+06-1.03892E+04-3.37873E+06-3.38794E-08 7.84180E-08
 -1       278-8.87996E+06-1.58784E+06-8.23610E+03-3.80659E+06 8.65330E-08-8.09760E-08
 -1       279-9.22297E+06-1.24814E+06-1.19726E+04-3.39143E+06-4.09855E-08-3.06234E-07
 -1       280-8.90674E+06-1.55165E+06-2.00566E+04-3.74415E+06-1.78370E-08 8.55653E-08
 -1       281-9.18825E+06-1.28332E+06-4.43896E+04-3.42771E+06-1.29148E-08-9.51513E-08
 -1       282-8.98193E+06-1.50392E+06-9.42662E+04-3.63344E+06 3.70346E-09-2.57845E-07
 -1       283-9.12400E+06-1.31394E+06-1.79783E+05-3.48367E+06-1.38170E-08-2.62968E-07
 -1       284-9.22720E+06-1.63677E+06-4.69200E+05-3.47133E+06-8.05794E-08-6.50703E-07
 -1       285-8.93651E+06-1.18065E+06-7.40948E+05-3.57183E+06 2.27265E-08-4.34869E-07
 -1       301-6.34425E+04 3.89854E+05-4.35215E+04 1.56557E+06-4.78030E-09 1.26311E-07
 -1       302-6.47340E+04 3.85727E+05 1.66699E+03 2.29389E+06 1.02009E-08 3.35480E-07
 -1       303-4.03626E+04 3.61372E+05 4.32176E+04 1.56308E+06-4.58385E-09 3.46112E-07
 -1       304-3.34559E+04 4.28847E+05 1.18754E+05 2.29285E+06-8.77480E-09 2.30386E-07
 -1       305-3.45380E+04 3.69209E+05 2.14083E+05 1.56760E+06-2.27010E-09-1.78887E-07
 -1       306-3.60667E+07-3.85662E+07-2.03964E+07-2.40287E+07 1.05822E-07-2.20200E-07
 -1       307 1.37933E+07 8.04965E+07 1.53245E+07 2.95561E+07 1.21887E-06-8.02742E-07
 -1       308-7.53131E+05-2.58642E+07-5.76441E+06 4.14979E+05-9.65520E-09-2.09548E-09
 -1       309-8.55390E+06 3.33224E+07 5.76510E+06-3.03809E+07-1.06673E-07 6.48884E-07
 -1       310 3.64431E+06-1.10413E+07-3.03736E+05 4.30850E+06 1.89786E-07 1.78872E-07
 -1       311-5.24532E+06 6.47810E+07 1.06646E+07 4.65500E+06-8.87783E-07 8.54605E-07
 -1       312-1.89309E+07-4.16671E+07-1.48536E+07-1.86467E+07-3.81900E-07-2.55764E-07
 -1       313 7.92002E+07 4.61144E+07 2.04187E+07 5.43155E+07-8.62638E-08-3.96918E-07
 -1       314-5.76438E+07-1.27190E+07-1.76991E+07-1.07241E+07-2.21306E-07-2.99769E-08
 -1       315 8.70448E+07 3.33882E+06 1.52187E+07-1.55530E+07 6.77770E-07 2.30270E-07
 -1       316-1.87418E+07-8.11763E+06-5.51661E+06 1.15636E+07 3.01865E-07 8.17759E-07
 -1       317-5.89928E+06 3.06138E+07 5.75872E+06-3.16959E+07-1.37865E-06 1.64408E-07
 -1       318-2.72381E+06-4.60011E+06-5.49172E+05 8.31313E+06 9.65723E-07 2.15208E-07
 -1       319 4.81364E+07 1.42391E+07 1.06355E+07-3.06045E+07-2.61498E-08 3.56173E-07
 -1       320-5.24753E+07-1.15279E+07-1.71955E+07 3.59832E+06-1.56113E-07-3.41679E-08
 -1       336-1.24261E+03 1.23430E+06 1.10424E+04 6.40263E+02 2.23804E-09 3.77304E-09
 -1       337 4.26997E+03 1.23831E+06 1.73291E+04-1.44890E+03 4.26576E-09 2.36946E-09
 -1       338-2.29452E+03 1.23332E+06 2.72561E+04 8.08236E+02 3.07409E-09 2.81989E-09
 -1       339 3.06336E+04 1.25429E+06 6.47774E+04-1.80520E+03 5.17321E-09-1.81899E-09
 -1       340-2.17697E+04 1.21831E+06 1.01135E+05 9.83997E+02 3.83443E-09-4.23188E-09
 -1       406-6.22698E+01 3.89993E+05 6.60737E+02-3.74474E+00 1.86560E-09 1.80880E-08
 -1       407 1.48283E+02 3.90134E+05 1.41324E+03-2.51750E+01 6.90648E-10 1.60253E-09
 -1       408 6.40680E+02 3.89889E+05 2.81719E+03 2.91719E+01 2.73258E-09 3.34512E-09
 -1       409 2.97439E+03 3.91033E+05 6.35086E+03-3.12552E+02-1.66438E-10-2.77396E-09
 -1       410 8.69622E+03 3.89077E+05 1.29614E+04 3.01876E+02 2.66300E-09-1.66438E-09
 -1       521-3.56243E+07-3.81326E+07-2.12458E+07-2.12924E+07 9.38307E-08-8.43196E-07
 -1       522 1.09339E+07 8.11004E+07 1.43386E+07 2.84396E+07 9.93488E-07-3.94357E-07
 -1       523-1.25303E+06-2.41413E+07-5.48741E+06 3.67424E+05 5.26547E-07 5.12227E-07
 -1       524-9.83254E+06 3.13209E+07 5.48071E+06-3.37371E+07-5.01954E-07 1.57690E-06
 -1       525 3.50182E+06-1.12034E+07-9.52665E+04 3.75931E+06-1.51282E-07 1.00798E-06
 -1       526-7.53968E+06 6.57621E+07 1.02140E+07 2.55876E+06-2.02388E-07 3.27826E-07
 -1       527-1.97459E+07-4.01139E+07-1.54210E+07-1.66894E+07-6.21134E-07 2.72179E-07
 -1       528 7.97110E+07 4.53461E+07 1.92790E+07 5.57641E+07-1.55240E-07-3.54194E-07
 -1       529-5.50427E+07-1.46700E+07-1.85181E+07-9.24800E+06-1.11759E-07-1.36381E-07
 -1       530 8.59634E+07 2.62613E+06 1.43187E+07-1.80936E+07 5.16709E-07-4.74392E-08
 -1       531-1.76285E+07-8.12308E+06-5.27329E+06 1.06157E+07 4.66476E-07 3.31551E-07
 -1       532-1.10330E+07 3.26074E+07 5.48763E+06-3.26251E+07-1.18854E-06 3.60189E-07
 -1       533-3.24746E+06-4.32863E+06-3.46521E+05 8.09996E+06-8.06176E-07 7.77625E-07
 -1       534 4.57716E+07 1.52261E+07 1.01377E+07-3.31457E+07 7.07485E-07-5.45348E-07
 -1       535-4.98725E+07-1.33825E+07-1.78935E+07 3.46540E+06 1.24332E-07-4.59608E-07
 -1       536 2.66463E+06-9.81000E+04 2.27396E+05-6.18886E+03-2.03790E-08-2.21189E-09
 -1       537 2.76312E+06 1.13601E+05 1.60827E+05-5.59251E+02 1.52785E-09-3.55249E-09
 -1       538 2.70273E+06-1.53764E+04 5.89455E+04-3.64016E+03-9.30726E-10-3.41970E-10
 -1       539 2.71890E+06 1.78085E+04 3.70959E+04-3.27363E+03-1.84970E-08 6.14318E-09
 -1       540 2.70902E+06-2.40475E+03 1.52507E+04-3.47508E+03-5.88507E-06-5.93536E-09
 -1       541 2.71163E+06 2.84405E+03 9.22309E+03-3.45004E+03-1.17587E-05-9.93589E-09
 -1       542 2.71005E+06-4.24280E+02 4.73872E+03-3.46383E+03-1.26370E-05-1.97584E-08
 -1       543 2.71060E+06 8.60222E+02 4.17377E+03-3.46397E+03-1.34888E-05-9.61379E-09
 -1       544 2.71005E+06-4.22307E+02 4.72475E+03-3.46116E+03-6.75551E-06-7.36543E-09
 -1       545 2.71162E+06 2.82717E+03 9.18135E+03-3.49769E+03-2.27584E-08 4.48040E-09
 -1       546 2.70903E+06-2.38984E+03 1.51784E+04-3.43009E+03 1.51171E-09-5.97265E-09
 -1       547 2.71884E+06 1.76999E+04 3.69073E+04-4.02969E+03 7.08106E-09-2.86946E-10
 -1       548 2.70277E+06-1.52828E+04 5.86583E+04-2.92908E+03 5.14866E-09 2.51748E-09
 -1       549 2.76349E+06 1.13098E+05 1.60164E+05-1.25820E+04 1.42118E-09 1.79352E-09
 -1       550 2.66423E+06-9.76958E+04 2.26137E+05 5.12175E+03-2.85948E-09-3.78350E-09
 -1       551-9.92377E+03-1.95501E+05-3.01975E+04-1.47142E+06-1.03682E-09 3.04135E-09
 -1       552 9.57649E+03-2.17187E+05 5.34318E+03-2.09511E+06-8.42556E-09 1.63673E-08
 -1       553 9.81178E+03-2.19194E+05 3.90988E+04-1.46817E+06-8.28004E-09 8.87121E-09
 -1       554 3.62848E+04-1.84331E+05 1.03165E+05-2.09448E+06-3.52156E-09 7.85803E-10
 -1       555 2.33159E+04-2.15535E+05 1.87543E+05-1.47233E+06 1.20781E-09 2.08092E-09
 -1       556-7.35997E+04-5.16408E+04-2.45073E+04-7.42841E+04 2.59388E-09 3.62525E-09
 -1       557-6.72497E+04-6.17214E+04-1.27050E+04-9.03651E+04-8.75275E-10 1.66347E-09
 -1       558-7.53735E+04-4.70180E+04-5.36593E+03-7.69754E+04 5.67070E-10-5.52109E-09
 -1       559-6.41907E+04-5.86367E+04-2.64496E+03-9.04540E+04-2.76077E-09-2.80124E-09
 -1       560-7.54794E+04-4.69599E+04-1.21843E+03-7.70454E+04-1.82899E-09 9.90531E-09
 -1       561-6.39079E+04-5.85571E+04-5.99372E+02-9.03630E+04-2.35559E-10 1.48566E-08
 -1       562-7.54201E+04-4.70310E+04-3.04567E+02-7.69928E+04 4.07272E-09 1.25783E-08
 -1       563-6.37608E+04-5.86136E+04-1.75270E+02-9.02650E+04-1.45155E-09-6.33736E-09
 -1       564-7.53050E+04-4.71073E+04-1.59371E+02-7.69153E+04 1.95723E-09-8.54925E-11
 -1       565-6.35900E+04-5.86829E+04-1.93103E+02-9.01393E+04 7.98536E-10 9.82709E-09
 -1       566-7.51508E+04-4.72057E+04-3.67889E+02-7.68206E+04 2.00453E-09 8.78936E-09
 -1       567-6.34436E+04-5.87740E+04-6.95810E+02-8.99619E+04 1.22964E-09 3.63798E-10
 -1       568-7.49025E+04-4.73660E+04-1.43127E+03-7.67002E+04-2.43745E-09-8.33097E-10
 -1       569-6.43608E+04-5.92412E+04-3.24796E+03-8.92740E+04-3.49246E-10 5.36602E-11
 -1       570-7.38568E+04-4.90351E+04-6.31284E+03-7.63347E+04-5.89353E-10-5.32600E-09
 -1       571 2.72056E+05 8.79580E+03 1.32247E+04-5.93974E+04-2.59843E-09 2.03727E-09
 -1       572 2.74027E+05 2.96776E+03 6.47993E+03-6.50657E+04-3.83397E-09-7.44853E-09
 -1       573 2.72829E+05 6.18506E+02 2.87832E+03-5.92086E+04-8.64929E-10-4.59659E-09
 -1       574 2.73064E+05 1.13123E+02 1.44234E+03-6.52633E+04 5.45697E-11 1.87310E-09
 -1       575 2.72903E+05-7.94987E+01 6.79199E+02-5.91845E+04 1.10822E-09 2.95177E-09
 -1       576 2.72922E+05-1.10709E+02 3.45015E+02-6.52896E+04 3.78077E-09 1.18462E-09
 -1       577 2.72906E+05-1.11323E+02 1.68150E+02-5.91814E+04 3.73694E-09 1.82627E-09
 -1       578 2.72901E+05-1.17607E+02 8.81136E+01-6.52928E+04 6.98492E-10 3.00179E-09
 -1       579 2.72915E+05-1.10374E+02 4.71544E+01-5.91814E+04-1.41167E-08 8.15817E-10
 -1       580 2.72916E+05-1.23711E+02 3.27615E+01-6.52896E+04-1.61174E-08 8.42601E-09
 -1       581 2.72940E+05-1.21291E+02 3.16116E+01-5.91845E+04-1.09685E-08 4.11092E-09
 -1       582 2.72956E+05-1.35413E+02 5.10974E+01-6.52581E+04 9.14042E-11-1.05501E-09
 -1       583 2.72980E+05-1.23268E+02 9.07302E+01-5.92128E+04 7.09406E-11 1.13505E-09
 -1       584 2.73042E+05-7.31925E+01 2.01745E+02-6.50195E+04-7.38873E-09 1.39130E-09
 -1       585 2.73011E+05 1.04900E+02 4.04613E+02-5.94234E+04-1.21054E-09-3.03771E-10
 -1       586-4.48507E+03 8.07549E+04-6.83335E+03-1.80362E+05 3.93362E-09 6.00130E-09
 -1       587-9.07968E+02 7.97067E+04-2.08967E+03-1.98343E+05 4.87307E-09 2.16575E-08
 -1       588 9.26234E+02 8.01265E+04 1.59686E+03-1.80191E+05 2.71029E-09 6.21094E-09
 -1       589 3.90584E+03 8.12895E+04 6.49008E+03-1.98285E+05 6.10999E-09-1.75878E-08
 -1       590 1.04619E+04 7.92528E+04 1.45315E+04-1.80400E+05 4.68094E-09-7.20684E-09
 -1       591-5.76174E+04-1.88270E+04-2.09459E+04-3.26700E+04-1.76300E-10-4.44925E-09
 -1       592-5.88958E+04-2.46506E+04-1.13447E+04-3.88966E+04 6.88942E-10-5.01404E-09
 -1       593-5.97472E+04-1.72732E+04-4.72339E+03-3.41771E+04-6.00267E-10-9.60404E-09
 -1       594-5.59711E+04-2.16160E+04-2.35540E+03-3.90590E+04 2.72962E-10-4.74171E-09
 -1       595-5.99128E+04-1.72636E+04-1.08264E+03-3.42478E+04-1.23237E-09-3.40154E-09
 -1       596-5.57759E+04-2.14762E+04-5.51765E+02-3.90414E+04 1.56933E-09 3.95676E-09
 -1       597-5.99345E+04-1.72761E+04-3.03935E+02-3.42512E+04-5.01245E-10-1.45758E-09
 -1       598-5.57574E+04-2.14709E+04-2.50699E+02-3.90360E+04 1.35526E-09-3.12497E-09
 -1       599-5.99322E+04-1.72767E+04-3.28465E+02-3.42502E+04-6.02222E-09-9.13406E-09
 -1       600-5.57765E+04-2.14788E+04-6.16580E+02-3.90393E+04-2.62014E-09 4.20255E-09
 -1       601-5.99035E+04-1.72639E+04-1.22023E+03-3.42445E+04-1.18871E-09-3.28032E-09
 -1       602-5.59952E+04-2.16373E+04-2.66047E+03-3.90554E+04 6.38647E-09 6.00721E-09
 -1       603-5.97135E+04-1.72781E+04-5.33719E+03-3.41642E+04-1.54660E-09-1.60435E-09
 -1       604-5.93059E+04-2.50574E+04-1.28186E+04-3.88585E+04-3.31283E-10 1.00226E-08
 -1       605-5.72951E+04-1.90409E+04-2.36669E+04-3.24688E+04 9.78389E-10-1.49521E-09
 -1       606 4.63023E+04-1.31154E+04-2.36924E+04 4.56452E+04-1.11941E-08 2.01908E-10
 -1       607 4.22332E+04-4.18093E+03-1.17949E+04 5.12237E+04-3.23780E-09-4.15457E-09
 -1       608 4.45004E+04-6.60534E+02-5.28715E+03 4.52719E+04 6.77755E-09 5.10408E-09
 -1       609 4.40143E+04-9.42646E+01-2.66850E+03 5.16216E+04-4.48472E-09 2.43472E-09
 -1       610 4.42395E+04 1.19172E+02-1.27856E+03 4.52305E+04-1.10322E-08-3.12184E-09
 -1       611 4.41211E+04 1.72335E+02-6.44051E+02 5.16647E+04-1.75824E-08-2.53749E-10
 -1       612 4.41414E+04 1.65893E+02-3.11375E+02 4.52265E+04-1.44009E-08-3.06500E-10
 -1       613 4.40755E+04 2.07661E+02-1.42800E+02 5.16694E+04-3.27118E-08-9.29958E-10
 -1       614 4.40773E+04 1.87644E+02-4.49511E+01 4.52251E+04-4.57476E-09-2.28692E-09
 -1       615 4.40261E+04 2.33622E+02 3.50300E+01 5.16698E+04 3.13339E-08-2.22235E-09
 -1       616 4.40293E+04 2.10872E+02 1.27349E+02 4.52255E+04 1.03619E-08-3.14731E-09
 -1       617 4.40088E+04 2.80250E+02 3.00950E+02 5.16686E+04 1.30531E-08-8.43238E-09
 -1       618 4.39793E+04 3.12597E+02 6.09452E+02 4.52256E+04 1.06133E-08-2.61934E-09
 -1       619 4.42044E+04 7.63559E+02 1.37119E+03 5.16671E+04 7.50106E-10 1.06320E-09
 -1       620 4.37648E+04 1.76795E+03 2.75620E+03 4.52215E+04 6.21753E-09 1.47929E-09
 -1       621 6.83351E+02 3.18329E+05 5.52362E+03-3.86488E+03-1.03591E-09 7.26743E-09
 -1       622 7.57178E+02 3.19701E+05 4.32335E+03-5.43337E+03-1.06643E-09 7.79391E-09
 -1       623 4.01530E+01 3.18777E+05 4.49405E+03-3.84728E+03-1.14130E-09 9.52218E-09
 -1       624 1.92549E+03 3.20774E+05 8.11767E+03-5.45515E+03-1.09776E-09 6.43368E-09
 -1       625 1.92051E+03 3.17252E+05 1.39156E+04-3.83974E+03-9.83164E-10 9.18669E-09
 -1       626 2.43549E+05 7.24111E+04 4.44316E+03 1.38481E+05-2.68665E-09 5.54428E-09
 -1       627 2.39578E+05 7.55787E+04 2.14312E+03 1.44368E+05-6.40284E-09 2.46519E-09
 -1       628 2.43729E+05 7.02642E+04 9.01984E+02 1.39070E+05-4.16730E-09 1.18598E-09
 -1       629 2.38832E+05 7.51488E+04 4.44195E+02 1.44700E+05-2.62298E-09 2.70561E-08
 -1       630 2.43710E+05 7.01781E+04 2.03880E+02 1.39060E+05-1.44901E-08-2.89645E-08
 -1       631 2.38713E+05 7.51565E+04 1.11515E+02 1.44685E+05 1.20563E-08 6.87402E-09
 -1       632 2.43673E+05 7.02003E+04 7.48940E+01 1.39033E+05-9.19590E-09-1.80682E-08
 -1       633 2.38673E+05 7.51739E+04 8.76497E+01 1.44659E+05-9.56152E-09-3.96881E-10
 -1       634 2.43641E+05 7.02103E+04 1.44031E+02 1.39016E+05 1.58125E-08 7.28937E-09
 -1       635 2.38664E+05 7.51825E+04 2.94580E+02 1.44647E+05 1.36799E-08 2.95358E-10
 -1       636 2.43616E+05 7.02147E+04 5.95224E+02 1.39005E+05-9.97397E-09 3.77668E-09
 -1       637 2.38778E+05 7.52799E+04 1.30833E+03 1.44637E+05-1.83535E-08-6.18547E-09
 -1       638 2.43562E+05 7.05071E+04 2.68861E+03 1.38868E+05 5.00677E-10 3.34785E-09
 -1       639 2.40185E+05 7.72472E+04 6.35976E+03 1.44222E+05 3.16049E-09-2.13877E-08
 -1       640 2.43388E+05 7.63496E+04 1.31971E+04 1.36374E+05-1.94223E-09-1.32645E-08
 -1       656 6.85222E+04-1.72384E+06-1.65343E+05 2.06665E+03 1.38243E-09-1.14917E-09
 -1       657-9.05098E+04-1.79831E+06-1.36601E+05 1.36935E+04-4.00178E-11 5.14977E-09
 -1       658 2.16637E+04-1.74511E+06-8.36284E+04-6.39805E+02-1.58070E-09 2.34401E-09
 -1       659-9.65735E+04-1.80121E+06-1.44563E+05 1.53648E+04-1.02773E-09-1.15572E-09
 -1       660 7.45753E+04-1.72095E+06-1.79012E+05 3.95344E+02-3.41970E-10-5.89608E-10
 -1       661 2.84441E+05 3.15953E+04 2.65687E+04 1.11555E+05 7.71479E-09-2.64663E-09
 -1       662 2.98059E+05 5.26501E+04 1.79022E+04 1.07190E+05 4.85670E-09-2.91766E-09
 -1       663 2.89664E+05 4.01111E+04 6.26275E+03 1.10034E+05-6.00494E-10 1.94473E-09
 -1       664 2.92007E+05 4.26904E+04 3.74419E+03 1.09047E+05 2.72931E-09-1.23259E-09
 -1       665 2.90455E+05 4.12749E+04 1.47662E+03 1.09804E+05-7.81091E-09-2.73587E-10
 -1       666 2.91071E+05 4.13604E+04 8.60426E+02 1.09351E+05-1.75770E-08 2.15622E-09
 -1       667 2.90595E+05 4.14056E+04 4.52008E+02 1.09744E+05 1.87157E-10-1.08619E-10
 -1       668 2.90911E+05 4.12690E+04 4.50209E+02 1.09443E+05 1.33379E-08-5.30690E-09
 -1       669 2.90614E+05 4.13629E+04 6.00219E+02 1.09713E+05 7.81696E-09 1.45567E-09
 -1       670 2.91039E+05 4.16071E+04 1.29916E+03 1.09467E+05 2.37721E-08-3.33429E-09
 -1       671 2.90467E+05 4.10737E+04 2.30351E+03 1.09718E+05-1.88750E-09-3.74496E-09
 -1       672 2.92360E+05 4.38686E+04 5.89134E+03 1.09168E+05-1.02681E-08-2.18267E-09
 -1       673 2.89301E+05 3.91576E+04 9.87180E+03 1.09991E+05-2.32831E-09-5.78348E-09
 -1       674 3.01739E+05 5.97411E+04 2.82294E+04 1.06425E+05 1.69860E-09-4.45652E-11
 -1       675 2.81148E+05 2.56442E+04 4.19031E+04 1.12293E+05 6.34918E-09-1.30785E-09
 -1       676 2.96066E+01-3.44426E+05-1.36109E+03 2.16595E+02 1.90454E-09 6.91371E-09
 -1       677-3.58979E+02-3.44758E+05-2.49108E+03-4.32759E+02-1.23918E-08-1.02486E-08
 -1       678 2.41642E+02-3.44192E+05-4.40365E+03 2.16018E+02-7.09861E-10-5.99130E-10
 -1       679-4.40292E+03-3.47417E+05-1.04615E+04-4.30754E+02-1.09753E-08 5.48459E-09
 -1       680 2.62969E+03-3.41770E+05-1.68602E+04 2.12087E+02-8.14907E-10 3.47029E-10
 -1       771-3.74853E+06-5.14030E+05-1.92065E+05-1.35827E+06 2.15368E-09 6.00994E-09
 -1       772-3.80705E+06-5.20067E+05-1.04004E+05-1.36074E+06 2.33194E-09-6.54836E-10
 -1       773-3.76686E+06-5.01074E+05-4.33027E+04-1.37338E+06-3.88900E-09 1.58116E-09
 -1       774-3.78215E+06-4.90299E+05-2.15168E+04-1.36032E+06-1.55378E-08-9.60426E-10
 -1       775-3.76805E+06-5.01343E+05-9.87107E+03-1.37464E+06-1.00626E-08 2.88128E-09
 -1       776-3.78137E+06-4.88101E+05-4.82845E+03-1.35939E+06-6.63749E-09 4.87034E-10
 -1       777-3.76806E+06-5.01702E+05-2.36506E+03-1.37518E+06 2.73940E-09 1.08284E-08
 -1       778-3.78206E+06-4.87314E+05-1.28809E+03-1.35876E+06-3.12866E-10 1.14801E-09
 -1       779-3.76795E+06-5.01910E+05-9.48892E+02-1.37562E+06 2.29556E-09 5.04406E-09
 -1       780-3.78277E+06-4.86727E+05-1.13445E+03-1.35833E+06-5.63887E-10 2.25191E-09
 -1       781-3.76784E+06-5.02031E+05-1.94541E+03-1.37595E+06 9.44056E-10-2.56568E-09
 -1       782-3.78363E+06-4.86534E+05-4.04505E+03-1.35806E+06 4.79122E-09 1.59048E-10
 -1       783-3.76751E+06-5.02124E+05-8.05247E+03-1.37606E+06 5.07680E-09 1.22691E-09
 -1       784-3.78888E+06-4.91548E+05-1.93261E+04-1.35771E+06 1.97451E-09-1.52613E-09
 -1       785-3.76399E+06-5.04684E+05-3.56762E+04-1.37354E+06 1.08309E-09-4.56930E-09
 -1       786 3.28032E+05-1.49956E+04 3.46976E+04 4.45003E+02 2.45065E-09 2.43745E-09
 -1       787 3.43066E+05 1.73609E+04 2.45481E+04 6.16941E+01-3.50539E-10 3.62206E-09
 -1       788 3.33834E+05-2.35044E+03 8.98221E+03 3.62968E+02-7.58480E-10 7.04495E-09
 -1       789 3.36308E+05 2.72024E+03 5.64540E+03 1.77067E+02 4.39175E-08-1.41927E-09
 -1       790 3.34792E+05-3.67069E+02 2.30098E+03 3.29645E+02 1.31649E-05-9.80674E-09
 -1       791 3.35192E+05 4.28079E+02 1.35826E+03 2.19967E+02 2.62235E-05-2.18397E-08
 -1       792 3.34952E+05-6.00008E+01 6.34197E+02 3.20069E+02 4.06143E-06-4.80230E-09
 -1       793 3.35016E+05 9.17466E+01 4.44601E+02 2.21612E+02-1.81108E-05 1.53730E-08
 -1       794 3.34969E+05-3.09562E+01 3.73729E+02 3.28000E+02-9.10459E-06 4.93906E-09
 -1       795 3.35058E+05 1.78431E+02 6.04665E+02 1.83720E+02-2.80993E-08 2.87174E-09
 -1       796 3.34909E+05-1.46629E+02 9.44483E+02 3.57962E+02-1.20041E-09-7.88987E-10
 -1       797 3.35498E+05 1.08164E+03 2.25902E+03 8.41968E+01-3.09916E-09 9.14525E-10
 -1       798 3.34528E+05-9.33515E+02 3.57564E+03 4.27525E+02-1.92528E-09-7.53516E-10
 -1       799 3.38190E+05 6.89746E+03 9.75813E+03-1.37740E+02-2.97831E-09-1.12959E-09
 -1       800 3.32217E+05-5.95779E+03 1.37836E+04 5.79894E+02-4.97991E-10 3.67527E-09
 -1       801-2.82255E+05 6.97384E+06 6.79045E+05-2.38379E+03 6.34464E-09-7.50640E-09
 -1       802 3.91036E+05 7.30670E+06 5.97504E+05-1.17946E+05 1.59744E-08-2.65322E-09
 -1       803-1.06557E+05 7.06134E+06 4.10078E+05-7.53134E+04 7.78527E-09 3.17777E-09
 -1       804 5.34047E+05 7.37064E+06 7.84270E+05-1.11485E+05 1.16343E-08 9.55333E-09
 -1       805-4.24944E+05 6.90973E+06 1.00369E+06-8.84908E+03 1.51340E-09 5.49469E-08
 -1       806-2.95064E+05-7.32078E+04-2.94412E+04-1.33187E+05 5.39876E-09 9.64428E-09
 -1       807-2.95865E+05-6.99287E+04-1.44631E+04-1.42056E+05-4.46539E-09 1.81615E-09
 -1       808-2.95956E+05-6.25206E+04-6.13496E+03-1.38134E+05-4.72164E-09 1.03455E-10
 -1       809-2.92722E+05-6.59729E+04-2.99806E+03-1.42554E+05-4.72028E-10 1.13078E-08
 -1       810-2.96098E+05-6.21368E+04-1.37225E+03-1.38353E+05-9.15099E-09 1.46709E-08
 -1       811-2.92485E+05-6.58188E+04-6.78814E+02-1.42530E+05-1.26756E-08 5.37034E-09
 -1       812-2.96124E+05-6.21619E+04-3.35878E+02-1.38352E+05-3.06522E-09-8.79709E-10
 -1       813-2.92454E+05-6.58244E+04-2.06955E+02-1.42513E+05 2.77498E-09-2.85945E-09
 -1       814-2.96118E+05-6.21743E+04-1.86251E+02-1.38346E+05 2.33513E-09 8.77071E-09
 -1       815-2.92450E+05-6.58300E+04-2.83202E+02-1.42503E+05-1.24510E-09 1.25146E-09
 -1       816-2.96092E+05-6.21772E+04-5.26281E+02-1.38338E+05-2.76032E-09 3.45335E-09
 -1       817-2.92530E+05-6.58837E+04-1.12489E+03-1.42483E+05 8.69113E-09-1.94632E-09
 -1       818-2.96012E+05-6.23430E+04-2.29248E+03-1.38256E+05 2.77760E-09 1.49794E-09
 -1       819-2.93792E+05-6.72515E+04-5.39298E+03-1.42150E+05-4.17413E-09 2.06501E-09
 -1       820-2.95553E+05-6.64350E+04-1.09777E+04-1.36517E+05-2.94585E-09-3.75621E-09
 -1       821-3.81193E+05 2.16430E+04-5.05411E+04 1.11859E+03 1.07363E-09 3.81260E-09
 -1       822-4.00778E+05-2.51041E+04-3.53659E+04-6.33518E+03 1.95050E-09 3.26190E-09
 -1       823-3.88619E+05 3.43820E+03-1.30433E+04 2.93421E+03-5.82027E-09 4.78758E-09
 -1       824-3.91790E+05-3.98381E+03-8.14470E+03-7.86285E+03 1.34042E-09 3.43505E-09
 -1       825-3.90198E+05 5.55745E+02-3.41822E+03 2.64632E+03 8.74945E-09 3.70983E-09
 -1       826-3.88979E+05-6.06428E+02-1.73497E+03-5.38573E+03 7.92664E-09 8.23093E-10
 -1       827-3.91397E+05 3.71233E+01-1.29934E+03 4.57038E+02-2.43514E-09 1.07514E-09
 -1       828-3.87887E+05-1.04466E+02-4.41604E+02-3.25513E+02-1.77345E-08 5.67483E-09
 -1       829-3.91266E+05 3.50343E+01-1.27699E+03-2.41380E+03 2.11665E-09-3.48854E-09
 -1       830-3.89274E+05-5.83016E+02-1.79398E+03 4.49099E+03 9.26201E-09 7.22923E-09
 -1       831-3.90041E+05 5.39921E+02-3.40357E+03-4.35960E+03-1.33439E-08-2.25486E-09
 -1       832-3.91873E+05-3.94360E+03-8.17874E+03 6.38350E+03-6.55228E-09 2.84774E-09
 -1       833-3.88694E+05 3.41424E+03-1.31136E+04-4.30655E+03-1.79284E-10-4.50564E-09
 -1       834-4.00608E+05-2.51411E+04-3.54441E+04 4.29088E+03-1.52735E-09-1.21190E-09
 -1       835-3.81282E+05 2.16985E+04-5.07545E+04-2.26667E+03 1.11694E-08 1.89539E-09
 -1       836-1.25621E+03 3.90620E+05 2.31305E+04-4.40660E+04 7.04404E-09-1.94632E-10
 -1       837 5.34271E+03 3.97647E+05 1.97041E+04-8.80981E+04 9.01264E-09-1.46611E-09
 -1       838-3.64763E+02 3.92590E+05 2.02406E+04-4.39424E+04 8.06995E-09-5.90830E-10
 -1       839 1.32116E+04 4.03505E+05 3.84484E+04-8.81138E+04 9.73250E-09-4.48597E-09
 -1       840-3.78763E+03 3.84696E+05 6.13660E+04-4.40422E+04 7.04313E-09-3.68800E-09
 -1       856-1.56274E+05 1.16212E+04-3.06332E+04-9.11937E+02-8.25014E-09-1.59343E-09
 -1       857-1.68937E+05-1.36153E+04-2.10894E+04 6.37324E+03-7.55213E-09-5.85942E-09
 -1       858-1.61272E+05 1.62576E+03-7.95114E+03-9.61987E+02-8.54584E-09-2.16596E-09
 -1       859-1.63201E+05-1.87363E+03-4.80266E+03 6.45649E+03 3.38105E-10-8.86757E-11
 -1       860-1.62018E+05 2.23720E+02-2.02213E+03-9.95897E+02 2.44128E-09-2.81750E-09
 -1       861-1.62344E+05-2.29577E+02-1.13114E+03 6.50323E+03-1.47309E-08-5.15234E-09
 -1       862-1.62133E+05 2.76698E+01-5.08197E+02-1.00886E+03 1.02652E-08-6.15569E-09
 -1       863-1.62209E+05-7.79357E-01-2.71375E+02 6.50835E+03 2.47588E-08-6.85395E-09
 -1       864-1.62153E+05 8.01869E-02-1.25910E+02-1.00103E+03 9.53642E-09-8.71779E-09
 -1       865-1.62179E+05 2.96344E+01-6.22512E+01 6.47103E+03 1.16192E-08-7.64926E-09
 -1       866-1.62159E+05-4.88651E+00-2.70833E+01-9.71524E+02 5.22675E-10-3.81988E-09
 -1       867-1.62158E+05 3.51350E+01-7.25631E-02 6.39118E+03 7.27397E-10 4.50822E-10
 -1       868-1.62167E+05-1.06512E+01 1.18861E+01-9.21150E+02-8.04221E-10 2.78447E-09
 -1       869-1.62118E+05 6.54892E+01 6.14652E+01 6.26481E+03-5.90870E-09-4.43249E-09
 -1       870-1.62188E+05-4.22063E+01 7.96420E+01-8.45113E+02 7.12532E-09-6.42656E-09
 -1       871-5.97067E+03-9.02237E+03-1.82736E+04 1.17567E+05 9.16043E-09 1.91358E-09
 -1       872-2.84298E+03-1.30453E+04-7.34951E+03 1.52416E+05 1.39025E-08 9.53287E-09
 -1       873-3.50571E+02-1.12590E+04 1.29856E+03 1.17314E+05 7.78800E-09 2.42403E-09
 -1       874 2.55000E+03-8.38304E+03 1.09094E+04 1.52482E+05 1.37572E-08-3.57068E-09
 -1       875 6.63530E+03-1.38072E+04 2.40187E+04 1.17538E+05 7.81256E-09-3.92538E-09
 -1       876 3.09989E+05 5.43477E+04 1.70188E+04 1.26872E+05-1.18571E-08-3.83079E-09
 -1       877 3.10845E+05 5.82041E+04 9.08881E+03 1.32020E+05-1.90787E-08-2.29011E-09
 -1       878 3.11573E+05 5.24691E+04 3.80733E+03 1.28273E+05 5.66024E-09-1.12504E-09
 -1       879 3.08526E+05 5.58997E+04 1.89672E+03 1.32137E+05-7.28505E-10 3.69903E-09
 -1       880 3.11686E+05 5.24510E+04 8.82461E+02 1.28329E+05 7.65976E-09-3.75167E-11
 -1       881 3.08372E+05 5.58012E+04 4.69433E+02 1.32109E+05 1.97879E-08 1.15841E-09
 -1       882 3.11695E+05 5.24667E+04 2.96723E+02 1.28331E+05 1.48966E-08 4.01809E-09
 -1       883 3.08360E+05 5.57962E+04 3.13471E+02 1.32099E+05 3.57181E-09 6.39068E-09
 -1       884 3.11688E+05 5.24641E+04 4.93423E+02 1.28331E+05-1.01977E-09-8.30141E-10
 -1       885 3.08398E+05 5.58031E+04 9.88754E+02 1.32111E+05 1.82161E-08 4.00462E-09
 -1       886 3.11650E+05 5.24350E+04 1.99104E+03 1.28327E+05 8.32642E-09-6.21003E-09
 -1       887 3.08749E+05 5.60326E+04 4.34831E+03 1.32163E+05-1.49275E-08-1.61549E-09
 -1       888 3.11377E+05 5.24820E+04 8.76137E+03 1.28188E+05 7.74770E-09 6.36646E-11
 -1       889 3.13973E+05 6.14492E+04 2.09292E+04 1.31997E+05 5.63151E-09 5.42786E-09
 -1       890 3.07817E+05 5.67142E+04 3.91996E+04 1.24837E+05 1.15410E-08 3.69255E-10
 -1       891-2.87796E+02-1.78496E+05-2.07349E+03 3.61235E+04-1.06115E-09 8.35462E-09
 -1       892-4.83013E+02-1.78935E+05-2.26721E+03 5.45458E+04 4.78667E-09 1.60730E-09
 -1       893-1.60644E+02-1.78546E+05-3.25446E+03 3.61304E+04 1.66892E-10 8.27640E-11
 -1       894-1.94377E+03-1.80157E+05-6.76351E+03 5.43520E+04-2.14641E-10-6.62294E-09
 -1       895-1.51766E+03-1.77113E+05-1.19284E+04 3.63103E+04 9.99194E-10-1.78807E-09
 -1       956-3.85737E+05-5.69129E+03-1.44453E+04 2.37569E+04-1.05247E-08-3.45335E-09
 -1       957-3.88601E+05-1.87518E+03-7.41505E+03 2.86607E+04-2.45609E-09-1.39835E-09
 -1       958-3.87025E+05-1.04489E+02-3.34145E+03 2.35768E+04 7.83166E-09-2.31239E-09
 -1       959-3.87268E+05 3.93291E+01-1.70620E+03 2.88480E+04-4.83624E-09 6.28143E-09
 -1       960-3.87147E+05 1.02631E+02-8.31866E+02 2.35589E+04-1.06347E-08 6.97128E-10
 -1       961-3.87178E+05 1.15830E+02-4.40116E+02 2.88686E+04-1.78461E-08 3.83329E-09
 -1       962-3.87176E+05 1.00677E+02-2.50262E+02 2.35555E+04-7.42648E-09 3.34239E-11
 -1       963-3.87180E+05 1.21167E+02-1.97208E+02 2.88736E+04-1.33227E-08 2.31125E-09
 -1       964-3.87185E+05 1.06233E+02-2.35206E+02 2.35538E+04-1.30740E-10 6.77801E-10
 -1       965-3.87199E+05 1.27949E+02-4.02689E+02 2.88750E+04 1.28873E-08 2.71734E-09
 -1       966-3.87177E+05 1.19049E+02-7.53928E+02 2.35540E+04-3.63576E-09-3.52202E-10
 -1       967-3.87301E+05 7.01209E+01-1.54538E+03 2.88675E+04-3.11888E-09-9.45647E-10
 -1       968-3.87083E+05-5.78116E+01-3.02385E+03 2.35618E+04 2.61480E-09-7.84411E-10
 -1       969-3.88529E+05-1.65354E+03-6.71421E+03 2.87817E+04 1.33232E-08 2.10042E-09
 -1       970-3.85930E+05-5.11017E+03-1.30779E+04 2.36528E+04 7.15727E-09-1.40517E-09
 -1       971-3.73064E+05-1.99706E+03-1.13481E+04 1.86080E+04-1.02646E-08 3.48933E-09
 -1       972-3.75844E+05-1.39152E+03-6.17878E+03 2.61937E+04-7.28278E-09-1.88629E-09
 -1       973-3.74334E+05 3.66144E+01-2.76777E+03 1.84413E+04-1.90812E-09-1.05456E-09
 -1       974-3.74552E+05 6.55091E+01-1.43275E+03 2.63707E+04 1.58252E-08-5.77757E-10
 -1       975-3.74440E+05 9.52953E+01-7.14160E+02 1.84244E+04 8.99308E-09 5.45356E-09
 -1       976-3.74484E+05 1.30002E+02-4.06821E+02 2.63919E+04-5.56224E-09-9.53150E-10
 -1       977-3.74464E+05 9.85800E+01-2.86946E+02 1.84196E+04 6.74845E-09-5.97083E-10
 -1       978-3.74494E+05 1.39450E+02-3.23917E+02 2.63985E+04 2.62107E-08-2.63117E-09
 -1       979-3.74466E+05 1.08918E+02-5.10691E+02 1.84175E+04 1.56227E-08 2.82625E-09
 -1       980-3.74532E+05 1.43358E+02-9.79974E+02 2.63997E+04 1.89756E-08-8.68909E-10
 -1       981-3.74434E+05 1.32934E+02-1.89515E+03 1.84183E+04 3.35604E-09 7.79323E-10
 -1       982-3.74790E+05 1.91837E+00-3.91565E+03 2.63905E+04-1.53614E-09 1.34924E-09
 -1       983-3.74193E+05 9.39307E+00-7.60796E+03 1.84275E+04 2.98223E-09 2.86946E-10
 -1       984-3.78441E+05-3.97527E+03-1.70368E+04 2.62802E+04 1.85355E-09 2.80124E-10
 -1       985-3.70744E+05-5.56032E+03-3.12856E+04 1.85501E+04 8.38099E-09 2.19188E-09
 -3
    1PSTEP                        37          19           1          
  100CL  119 7.86438E-01         409                     0   19           1
 -4  DISP        4    1
 -5  D1          1    2    1    0
 -5  D2          1    2    2    0
 -5  D3          1    2    3    0
 -5  ALL         1    2    0    0    1ALL
 -1         1 5.65171E-03 0.00000E+00 0.00000E+00
 -1         2 7.00958E-03 1.17399E-26-2.64698E-23
 -1         3 1.68841E-05 2.68260E-28 0.00000E+00
 -1         5 5.89722E-05 1.02541E-26 0.00000E+00
 -1         8 5.60631E-03-2.39088E-06 0.00000E+00
 -1         9 5.68595E-03-1.83443E-04 0.00000E+00
 -1        10 2.04443E-05 3.09159E-06-6.61744E-24
 -1        12 5.68722E-05 8.29823E-07 0.00000E+00
 -1        15 5.55341E-03-2.66746E-06 0.00000E+00
 -1        16 5.60238E-03-1.83515E-04 0.00000E+00
 -1        17 3.26443E-05 6.39065E-06 0.00000E+00
 -1        18 4.90353E-05-1.55034E-05 0.00000E+00
 -1        19 5.05708E-05 1.65241E-06 0.00000E+00
 -1        20 5.07851E-05 3.99798E-05 0.00000E+00
 -1        21 5.00581E-05 7.88425E-05 0.00000E+00
 -1        24 2.55060E-05 6.03289E-06 0.00000E+00
 -1        25 3.99753E-05-1.53426E-05 0.00000E+00
 -1        26 4.18593E-05 2.32159E-06 0.00000E+00
 -1        27 3.95612E-05 3.63122E-05 0.00000E+00
 -1        28 3.85863E-05 7.81004E-05 0.00000E+00
 -1        32 0.00000E+00 0.00000E+00 0.00000E+00
 -1        33 3.07242E-05 3.12944E-06 0.00000E+00
 -1        34 2.84964E-05 3.62762E-05 0.00000E+00
 -1        35 2.63251E-05 7.77102E-05 0.00000E+00
 -1        51 5.64871E-03-3.82875E-07 0.00000E+00
 -1        52 5.64318E-03-7.64928E-07 0.00000E+00
 -1        53 5.63565E-03-1.15432E-06 0.00000E+00
 -1        54 5.62663E-03-1.55350E-06 6.61744E-24
 -1        55 5.61667E-03-1.96244E-06-3.30872E-24
 -1        56 5.65123E-03-3.90455E-06 0.00000E+00
 -1        57 5.65308E-03-1.43122E-05 0.00000E+00
 -1        58 5.65706E-03-3.06109E-05 0.00000E+00
 -1        59 5.66282E-03-5.19438E-05-2.64698E-23
 -1        60 5.66986E-03-7.69276E-05 0.00000E+00
 -1        61 5.67763E-03-1.04016E-04 0.00000E+00
 -1        62 5.68552E-03-1.31443E-04 0.00000E+00
 -1        63 5.69291E-03-1.57428E-04 2.64698E-23
 -1        64 5.69923E-03-1.80339E-04 5.29396E-23
 -1        65 5.70393E-03-1.98686E-04 0.00000E+00
 -1        66 5.70663E-03-2.11452E-04 5.29396E-23
 -1        67 5.70701E-03-2.17871E-04 2.64698E-23
 -1        68 5.70499E-03-2.17830E-04 0.00000E+00
 -1        69 5.70060E-03-2.11500E-04 0.00000E+00
 -1        70 5.69409E-03-1.99698E-04 2.64698E-23
 -1        86 6.92719E-03-5.76273E-06 5.29396E-23
 -1        87 6.68847E-03-3.60431E-05 1.32349E-23
 -1        88 6.36661E-03-8.82976E-05-2.64698E-23
 -1        89 6.03880E-03-1.42517E-04 1.32349E-23
 -1        90 5.78591E-03-1.76137E-04 0.00000E+00
 -1       121 1.69820E-05 5.15311E-07 1.32349E-23
 -1       122 1.72761E-05 1.03059E-06 6.61744E-24
 -1       123 1.77673E-05 1.54582E-06-1.32349E-23
 -1       124 1.84575E-05 2.06102E-06 6.61744E-24
 -1       125 1.93488E-05 2.57603E-06-1.32349E-23
 -1       191 5.89139E-05 1.38385E-07 0.00000E+00
 -1       192 5.87389E-05 2.76755E-07 0.00000E+00
 -1       193 5.84473E-05 4.15100E-07 0.00000E+00
 -1       194 5.80389E-05 5.53404E-07 0.00000E+00
 -1       195 5.75139E-05 6.91650E-07 0.00000E+00
 -1       251 5.61113E-03-1.37758E-07 0.00000E+00
 -1       252 5.61615E-03-9.32982E-06 0.00000E+00
 -1       253 5.62110E-03-2.37820E-05 0.00000E+00
 -1       254 5.62610E-03-3.85025E-05 0.00000E+00
 -1       255 5.63109E-03-5.33461E-05 0.00000E+00
 -1       256 5.63610E-03-6.81958E-05-1.05879E-22
 -1       257 5.64110E-03-8.30483E-05 0.00000E+00
 -1       258 5.64610E-03-9.79008E-05 0.00000E+00
 -1       259 5.65111E-03-1.12753E-04 2.11758E-22
 -1       260 5.65611E-03-1.27606E-04 0.00000E+00
 -1       261 5.66112E-03-1.42454E-04 0.00000E+00
 -1       262 5.66611E-03-1.57294E-04-5.29396E-23
 -1       263 5.67111E-03-1.71958E-04 0.00000E+00
 -1       264 5.67608E-03-1.86238E-04 0.00000E+00
 -1       265 5.68112E-03-1.93006E-04 1.05879E-22
 -1       266 5.59749E-03-2.46331E-06 1.32349E-23
 -1       267 5.58867E-03-2.50619E-06 0.00000E+00
 -1       268 5.57986E-03-2.55095E-06 3.30872E-24
 -1       269 5.57104E-03-2.59017E-06-8.27181E-25
 -1       270 5.56222E-03-2.62925E-06 0.00000E+00
 -1       271 5.60068E-03 1.36662E-06 1.05879E-22
 -1       272 5.59760E-03-2.06481E-06 5.29396E-23
 -1       273 5.59700E-03-1.21626E-05 1.05879E-22
 -1       274 5.59850E-03-2.81327E-05 0.00000E+00
 -1       275 5.60171E-03-4.88629E-05 0.00000E+00
 -1       276 5.60611E-03-7.30163E-05 0.00000E+00
 -1       277 5.61118E-03-9.90736E-05-1.05879E-22
 -1       278 5.61635E-03-1.25424E-04 0.00000E+00
 -1       279 5.62105E-03-1.50440E-04 0.00000E+00
 -1       280 5.62474E-03-1.72561E-04 0.00000E+00
 -1       281 5.62690E-03-1.90377E-04 0.00000E+00
 -1       282 5.62708E-03-2.02690E-04-5.29396E-23
 -1       283 5.62491E-03-2.08588E-04 0.00000E+00
 -1       284 5.62013E-03-2.07464E-04 0.00000E+00
 -1       285 5.61258E-03-1.99086E-04-5.29396E-23
 -1       301 5.67037E-03-1.83459E-04 0.00000E+00
 -1       302 5.65730E-03-1.83447E-04-1.65436E-24
 -1       303 5.64536E-03-1.83421E-04 0.00000E+00
 -1       304 5.63315E-03-1.83404E-04 0.00000E+00
 -1       305 5.61929E-03-1.83416E-04 0.00000E+00
 -1       306 5.55335E-03 3.87106E-05 1.05879E-22
 -1       307 5.12513E-03 5.58632E-04 0.00000E+00
 -1       308 4.34830E-03 1.24090E-03 0.00000E+00
 -1       309 3.30499E-03 1.95694E-03-5.29396E-23
 -1       310 2.18898E-03 2.67378E-03 0.00000E+00
 -1       311 1.21393E-03 3.39017E-03-1.05879E-22
 -1       312 5.25667E-04 4.04154E-03 2.11758E-22
 -1       313 1.73960E-04 4.50645E-03 1.05879E-22
 -1       314 1.08631E-04 4.61582E-03 0.00000E+00
 -1       315 1.60154E-04 4.32266E-03 0.00000E+00
 -1       316 1.84952E-04 3.64266E-03 0.00000E+00
 -1       317 1.08924E-04 2.71175E-03-5.29396E-23
 -1       318-3.71168E-06 1.71361E-03 0.00000E+00
 -1       319-4.97539E-05 8.34379E-04-5.29396E-23
 -1       320-1.15861E-05 2.29687E-04 0.00000E+00
 -1       336 2.17758E-05 3.64741E-06-1.32349E-23
 -1       337 2.33774E-05 4.20324E-06 6.61744E-24
 -1       338 2.52563E-05 4.75812E-06 1.32349E-23
 -1       339 2.74206E-05 5.30957E-06 6.61744E-24
 -1       340 2.98797E-05 5.86060E-06-6.61744E-24
 -1       406 5.61136E-05 9.67900E-07 0.00000E+00
 -1       407 5.52383E-05 1.10584E-06 0.00000E+00
 -1       408 5.42461E-05 1.24359E-06 0.00000E+00
 -1       409 5.31372E-05 1.38096E-06 3.30872E-24
 -1       410 5.19118E-05 1.51767E-06 0.00000E+00
 -1       521 5.46837E-03 3.83017E-05-2.11758E-22
 -1       522 5.04101E-03 5.56242E-04-5.29396E-23
 -1       523 4.27095E-03 1.23622E-03-2.11758E-22
 -1       524 3.24416E-03 1.95187E-03-5.29396E-23
 -1       525 2.14694E-03 2.66947E-03 0.00000E+00
 -1       526 1.18481E-03 3.38453E-03 0.00000E+00
 -1       527 5.04654E-04 4.03215E-03 0.00000E+00
 -1       528 1.56887E-04 4.49227E-03-1.05879E-22
 -1       529 9.27288E-05 4.59625E-03 4.23516E-22
 -1       530 1.43355E-04 4.29937E-03 0.00000E+00
 -1       531 1.67787E-04 3.62039E-03-2.11758E-22
 -1       532 9.60413E-05 2.69785E-03-5.29396E-23
 -1       533-1.08916E-05 1.70912E-03 0.00000E+00
 -1       534-5.52133E-05 8.34454E-04 0.00000E+00
 -1       535-1.77233E-05 2.30928E-04 2.11758E-22
 -1       536 3.36296E-05 3.82676E-06-1.32349E-23
 -1       537 3.46549E-05 1.96092E-06 1.32349E-23
 -1       538 3.56784E-05 4.52479E-07 0.00000E+00
 -1       539 3.67092E-05-1.02225E-06-1.32349E-23
 -1       540 3.77403E-05-2.47972E-06-2.64698E-23
 -1       541 3.87728E-05-3.93557E-06 0.00000E+00
 -1       542 3.98055E-05-5.39061E-06 0.00000E+00
 -1       543 4.08384E-05-6.84557E-06 0.00000E+00
 -1       544 4.18713E-05-8.30041E-06 0.00000E+00
 -1       545 4.29040E-05-9.75511E-06 0.00000E+00
 -1       546 4.39365E-05-1.12083E-05 0.00000E+00
 -1       547 4.49676E-05-1.26584E-05 1.32349E-23
 -1       548 4.59984E-05-1.40764E-05 0.00000E+00
 -1       549 4.70218E-05-1.54313E-05-1.32349E-23
 -1       550 4.80483E-05-1.61189E-05 0.00000E+00
 -1       551 3.27597E-05 6.34510E-06 0.00000E+00
 -1       552 3.08448E-05 6.29559E-06 0.00000E+00
 -1       553 2.80258E-05 6.24423E-06 0.00000E+00
 -1       554 2.54401E-05 6.18889E-06 0.00000E+00
 -1       555 2.42252E-05 6.12943E-06-2.64698E-23
 -1       556 3.36943E-05 3.46584E-06 0.00000E+00
 -1       557 3.46993E-05 6.45200E-07 0.00000E+00
 -1       558 3.56559E-05-2.04701E-06 8.27181E-25
 -1       559 3.65557E-05-4.58876E-06 4.13590E-25
 -1       560 3.73911E-05-6.95784E-06 0.00000E+00
 -1       561 3.81538E-05-9.13220E-06 0.00000E+00
 -1       562 3.88357E-05-1.10899E-05 0.00000E+00
 -1       563 3.94285E-05-1.28089E-05 8.27181E-25
 -1       564 3.99241E-05-1.42672E-05 1.65436E-24
 -1       565 4.03140E-05-1.54430E-05 0.00000E+00
 -1       566 4.05901E-05-1.63144E-05 0.00000E+00
 -1       567 4.07441E-05-1.68594E-05 0.00000E+00
 -1       568 4.07677E-05-1.70563E-05 0.00000E+00
 -1       569 4.06527E-05-1.68833E-05 0.00000E+00
 -1       570 4.03908E-05-1.63188E-05 0.00000E+00
 -1       571 4.91286E-05-1.43015E-05 1.24077E-24
 -1       572 4.92238E-05-1.31646E-05 8.27181E-25
 -1       573 4.93197E-05-1.20831E-05 1.65436E-24
 -1       574 4.94158E-05-1.10467E-05 0.00000E+00
 -1       575 4.95121E-05-1.00450E-05 0.00000E+00
 -1       576 4.96084E-05-9.06775E-06 1.65436E-24
 -1       577 4.97048E-05-8.10446E-06 3.30872E-24
 -1       578 4.98011E-05-7.14474E-06 0.00000E+00
 -1       579 4.98975E-05-6.17816E-06-3.30872E-24
 -1       580 4.99939E-05-5.19430E-06 0.00000E+00
 -1       581 5.00902E-05-4.18276E-06 3.30872E-24
 -1       582 5.01865E-05-3.13312E-06 3.30872E-24
 -1       583 5.02827E-05-2.03500E-06 0.00000E+00
 -1       584 5.03789E-05-8.78088E-07 0.00000E+00
 -1       585 5.04749E-05 3.47869E-07 0.00000E+00
 -1       586 4.75545E-05-1.54746E-05 0.00000E+00
 -1       587 4.60211E-05-1.54469E-05 0.00000E+00
 -1       588 4.44656E-05-1.54197E-05 8.27181E-25
 -1       589 4.29188E-05-1.53929E-05 0.00000E+00
 -1       590 4.14120E-05-1.53668E-05 0.00000E+00
 -1       591 4.85472E-05-1.42730E-05-1.03398E-25
 -1       592 4.80815E-05-1.31132E-05 0.00000E+00
 -1       593 4.76373E-05-1.20113E-05 0.00000E+00
 -1       594 4.72101E-05-1.09558E-05 4.13590E-25
 -1       595 4.67959E-05-9.93502E-06 0.00000E+00
 -1       596 4.63903E-05-8.93737E-06 0.00000E+00
 -1       597 4.59890E-05-7.95124E-06 0.00000E+00
 -1       598 4.55876E-05-6.96502E-06-4.13590E-25
 -1       599 4.51819E-05-5.96710E-06 0.00000E+00
 -1       600 4.47674E-05-4.94588E-06-2.06795E-25
 -1       601 4.43398E-05-3.88979E-06 4.13590E-25
 -1       602 4.38948E-05-2.78719E-06-1.03398E-25
 -1       603 4.34281E-05-1.62648E-06 1.29247E-25
 -1       604 4.29356E-05-3.96004E-07 0.00000E+00
 -1       605 4.24129E-05 9.15815E-07 0.00000E+00
 -1       606 5.05905E-05 3.17806E-06 0.00000E+00
 -1       607 5.06064E-05 4.87074E-06 3.30872E-24
 -1       608 5.06213E-05 6.72063E-06 0.00000E+00
 -1       609 5.06354E-05 8.71668E-06 0.00000E+00
 -1       610 5.06491E-05 1.08478E-05 0.00000E+00
 -1       611 5.06626E-05 1.31027E-05 0.00000E+00
 -1       612 5.06757E-05 1.54702E-05 0.00000E+00
 -1       613 5.06886E-05 1.79389E-05 0.00000E+00
 -1       614 5.07013E-05 2.04976E-05 0.00000E+00
 -1       615 5.07137E-05 2.31349E-05 0.00000E+00
 -1       616 5.07260E-05 2.58397E-05 0.00000E+00
 -1       617 5.07382E-05 2.86006E-05 0.00000E+00
 -1       618 5.07502E-05 3.14063E-05 0.00000E+00
 -1       619 5.07621E-05 3.42456E-05 0.00000E+00
 -1       620 5.07738E-05 3.71072E-05 0.00000E+00
 -1       621 4.91571E-05 1.76388E-06 0.00000E+00
 -1       622 4.77234E-05 1.87606E-06 0.00000E+00
 -1       623 4.62733E-05 1.98821E-06 0.00000E+00
 -1       624 4.48102E-05 2.10019E-06 0.00000E+00
 -1       625 4.33377E-05 2.21197E-06 3.30872E-24
 -1       626 5.01118E-05 3.20917E-06 0.00000E+00
 -1       627 4.96002E-05 4.90757E-06 0.00000E+00
 -1       628 4.90400E-05 6.73548E-06 0.00000E+00
 -1       629 4.84360E-05 8.67983E-06 0.00000E+00
 -1       630 4.77930E-05 1.07276E-05-6.61744E-24
 -1       631 4.71160E-05 1.28656E-05 0.00000E+00
 -1       632 4.64099E-05 1.50806E-05 0.00000E+00
 -1       633 4.56798E-05 1.73595E-05 0.00000E+00
 -1       634 4.49304E-05 1.96891E-05 3.30872E-24
 -1       635 4.41669E-05 2.20563E-05-1.65436E-24
 -1       636 4.33942E-05 2.44480E-05 0.00000E+00
 -1       637 4.26171E-05 2.68510E-05 0.00000E+00
 -1       638 4.18407E-05 2.92520E-05 0.00000E+00
 -1       639 4.10697E-05 3.16381E-05-1.65436E-24
 -1       640 4.03088E-05 3.39959E-05 0.00000E+00
 -1       656 4.82439E-05 3.93822E-05-6.61744E-24
 -1       657 4.62737E-05 3.87615E-05 6.61744E-24
 -1       658 4.46597E-05 3.81432E-05-1.32349E-23
 -1       659 4.31777E-05 3.75256E-05 6.61744E-24
 -1       660 4.15647E-05 3.69059E-05-6.61744E-24
 -1       661 4.98454E-05 4.28190E-05-1.65436E-24
 -1       662 4.89370E-05 4.55896E-05-1.65436E-24
 -1       663 4.80538E-05 4.82925E-05-3.30872E-24
 -1       664 4.71960E-05 5.09307E-05 0.00000E+00
 -1       665 4.63620E-05 5.35062E-05 0.00000E+00
 -1       666 4.55510E-05 5.60211E-05 0.00000E+00
 -1       667 4.47622E-05 5.84771E-05-3.30872E-24
 -1       668 4.39951E-05 6.08758E-05-1.65436E-24
 -1       669 4.32492E-05 6.32183E-05 3.30872E-24
 -1       670 4.25241E-05 6.55059E-05-1.65436E-24
 -1       671 4.18193E-05 6.77392E-05 0.00000E+00
 -1       672 4.11346E-05 6.99187E-05 0.00000E+00
 -1       673 4.04700E-05 7.20450E-05 3.30872E-24
 -1       674 3.98241E-05 7.41176E-05 1.65436E-24
 -1       675 3.91988E-05 7.61372E-05-8.27181E-25
 -1       676 4.81382E-05 7.87180E-05 0.00000E+00
 -1       677 4.62197E-05 7.85937E-05 0.00000E+00
 -1       678 4.43039E-05 7.84694E-05 0.00000E+00
 -1       679 4.23921E-05 7.83454E-05 0.00000E+00
 -1       680 4.04859E-05 7.82216E-05-3.30872E-24
 -1       771 2.54760E-05 1.58130E-06 0.00000E+00
 -1       772 2.51337E-05-2.13175E-06-1.32349E-23
 -1       773 2.45227E-05-5.12961E-06 0.00000E+00
 -1       774 2.36564E-05-7.45348E-06 0.00000E+00
 -1       775 2.25528E-05-9.14461E-06 0.00000E+00
 -1       776 2.12286E-05-1.02479E-05-2.64698E-23
 -1       777 1.97014E-05-1.08099E-05 0.00000E+00
 -1       778 1.79892E-05-1.08792E-05-2.64698E-23
 -1       779 1.61107E-05-1.05061E-05 0.00000E+00
 -1       780 1.40853E-05-9.74253E-06 2.64698E-23
 -1       781 1.19328E-05-8.64140E-06 0.00000E+00
 -1       782 9.67377E-06-7.25715E-06 2.64698E-23
 -1       783 7.32891E-06-5.64485E-06-5.29396E-23
 -1       784 4.91989E-06-3.86045E-06-2.64698E-23
 -1       785 2.46779E-06-1.96057E-06-5.29396E-23
 -1       786 4.00872E-05-1.41411E-05-1.65436E-24
 -1       787 4.02047E-05-1.30087E-05 1.65436E-24
 -1       788 4.03220E-05-1.19265E-05-3.30872E-24
 -1       789 4.04403E-05-1.08760E-05-1.65436E-24
 -1       790 4.05587E-05-9.84735E-06 0.00000E+00
 -1       791 4.06773E-05-8.83122E-06 0.00000E+00
 -1       792 4.07960E-05-7.82168E-06 0.00000E+00
 -1       793 4.09147E-05-6.81288E-06 0.00000E+00
 -1       794 4.10334E-05-5.79916E-06 3.30872E-24
 -1       795 4.11521E-05-4.77485E-06 0.00000E+00
 -1       796 4.12707E-05-3.73125E-06 3.30872E-24
 -1       797 4.13892E-05-2.65952E-06 0.00000E+00
 -1       798 4.15077E-05-1.54273E-06 3.30872E-24
 -1       799 4.16257E-05-3.63753E-07 0.00000E+00
 -1       800 4.17437E-05 9.12500E-07 3.30872E-24
 -1       801 3.66608E-05-1.28180E-05-2.64698E-23
 -1       802 2.94752E-05-1.02124E-05-2.64698E-23
 -1       803 2.04987E-05-7.62803E-06-5.29396E-23
 -1       804 1.15865E-05-5.05365E-06 0.00000E+00
 -1       805 4.20118E-06-2.45681E-06 0.00000E+00
 -1       806 3.94087E-05-1.42016E-05 0.00000E+00
 -1       807 3.88536E-05-1.31059E-05 0.00000E+00
 -1       808 3.83104E-05-1.20444E-05 0.00000E+00
 -1       809 3.77758E-05-1.10072E-05 1.65436E-24
 -1       810 3.72464E-05-9.98451E-06 0.00000E+00
 -1       811 3.67187E-05-8.96634E-06 1.65436E-24
 -1       812 3.61889E-05-7.94286E-06 0.00000E+00
 -1       813 3.56534E-05-6.90425E-06 0.00000E+00
 -1       814 3.51085E-05-5.84064E-06 0.00000E+00
 -1       815 3.45505E-05-4.74220E-06 0.00000E+00
 -1       816 3.39757E-05-3.59912E-06 0.00000E+00
 -1       817 3.33804E-05-2.40155E-06 8.27181E-25
 -1       818 3.27610E-05-1.13967E-06 3.30872E-24
 -1       819 3.21139E-05 1.96287E-07 1.65436E-24
 -1       820 3.14356E-05 1.61613E-06 3.30872E-24
 -1       821 4.17314E-05 2.94244E-06 0.00000E+00
 -1       822 4.15950E-05 1.86094E-06 0.00000E+00
 -1       823 4.14574E-05-3.58331E-07 0.00000E+00
 -1       824 4.13170E-05-3.14360E-06 0.00000E+00
 -1       825 4.11768E-05-5.76815E-06 3.30872E-24
 -1       826 4.10383E-05-7.50615E-06 0.00000E+00
 -1       827 4.09009E-05-7.87589E-06-3.30872E-24
 -1       828 4.07626E-05-6.40410E-06-1.65436E-24
 -1       829 4.06201E-05-3.12401E-06 3.30872E-24
 -1       830 4.04706E-05 1.92003E-06 0.00000E+00
 -1       831 4.03146E-05 8.19856E-06-3.30872E-24
 -1       832 4.01544E-05 1.51744E-05-1.65436E-24
 -1       833 3.99945E-05 2.21183E-05 0.00000E+00
 -1       834 3.98410E-05 2.83015E-05-1.65436E-24
 -1       835 3.96936E-05 3.32036E-05 0.00000E+00
 -1       836 4.02105E-05 2.45632E-06 0.00000E+00
 -1       837 3.83663E-05 2.59375E-06 0.00000E+00
 -1       838 3.64109E-05 2.73077E-06 3.30872E-24
 -1       839 3.44291E-05 2.86690E-06 8.27181E-25
 -1       840 3.25054E-05 3.00292E-06 0.00000E+00
 -1       856 3.95065E-05 3.86095E-05 1.03398E-25
 -1       857 3.94463E-05 4.10715E-05 0.00000E+00
 -1       858 3.93861E-05 4.36724E-05 1.65436E-24
 -1       859 3.93247E-05 4.63863E-05 0.00000E+00
 -1       860 3.92630E-05 4.91866E-05 1.65436E-24
 -1       861 3.92010E-05 5.20470E-05-8.27181E-25
 -1       862 3.91389E-05 5.49408E-05 0.00000E+00
 -1       863 3.90767E-05 5.78413E-05 8.27181E-25
 -1       864 3.90145E-05 6.07216E-05 0.00000E+00
 -1       865 3.89525E-05 6.35552E-05 0.00000E+00
 -1       866 3.88907E-05 6.63155E-05 1.65436E-24
 -1       867 3.88291E-05 6.89760E-05 8.27181E-25
 -1       868 3.87678E-05 7.15105E-05-1.65436E-24
 -1       869 3.87069E-05 7.38931E-05 0.00000E+00
 -1       870 3.86464E-05 7.60982E-05 0.00000E+00
 -1       871 3.75553E-05 3.63102E-05-4.13590E-25
 -1       872 3.56970E-05 3.63053E-05 0.00000E+00
 -1       873 3.39244E-05 3.62999E-05 0.00000E+00
 -1       874 3.21751E-05 3.62939E-05 0.00000E+00
 -1       875 3.03864E-05 3.62871E-05-1.65436E-24
 -1       876 3.88362E-05 3.86211E-05-3.30872E-24
 -1       877 3.80842E-05 4.10104E-05 1.65436E-24
 -1       878 3.73058E-05 4.34701E-05 3.30872E-24
 -1       879 3.65045E-05 4.59913E-05-1.65436E-24
 -1       880 3.56837E-05 4.85647E-05-3.30872E-24
 -1       881 3.48466E-05 5.11812E-05 0.00000E+00
 -1       882 3.39967E-05 5.38317E-05 0.00000E+00
 -1       883 3.31375E-05 5.65070E-05 0.00000E+00
 -1       884 3.22722E-05 5.91981E-05-3.30872E-24
 -1       885 3.14044E-05 6.18958E-05 0.00000E+00
 -1       886 3.05375E-05 6.45912E-05 0.00000E+00
 -1       887 2.96747E-05 6.72751E-05 0.00000E+00
 -1       888 2.88196E-05 6.99383E-05 0.00000E+00
 -1       889 2.79749E-05 7.25716E-05-1.65436E-24
 -1       890 2.71443E-05 7.51660E-05-1.65436E-24
 -1       891 3.67236E-05 7.80354E-05-1.65436E-24
 -1       892 3.48332E-05 7.79702E-05 0.00000E+00
 -1       893 3.28816E-05 7.79048E-05 8.27181E-25
 -1       894 3.08353E-05 7.78395E-05 8.27181E-25
 -1       895 2.86608E-05 7.77741E-05 0.00000E+00
 -1       956 3.05881E-05 4.83456E-06 1.65436E-24
 -1       957 3.04496E-05 6.63122E-06 8.27181E-25
 -1       958 3.03106E-05 8.51078E-06-3.30872E-24
 -1       959 3.01712E-05 1.04640E-05 0.00000E+00
 -1       960 3.00316E-05 1.24818E-05-3.30872E-24
 -1       961 2.98919E-05 1.45548E-05 1.65436E-24
 -1       962 2.97521E-05 1.66737E-05 0.00000E+00
 -1       963 2.96121E-05 1.88292E-05 0.00000E+00
 -1       964 2.94722E-05 2.10121E-05-3.30872E-24
 -1       965 2.93321E-05 2.32130E-05 0.00000E+00
 -1       966 2.91921E-05 2.54226E-05 0.00000E+00
 -1       967 2.90522E-05 2.76316E-05-1.65436E-24
 -1       968 2.89123E-05 2.98307E-05 3.30872E-24
 -1       969 2.87727E-05 3.20107E-05 1.65436E-24
 -1       970 2.86335E-05 3.41622E-05 3.30872E-24
 -1       971 2.83632E-05 3.84314E-05 0.00000E+00
 -1       972 2.82279E-05 4.07109E-05 0.00000E+00
 -1       973 2.80922E-05 4.31007E-05-3.30872E-24
 -1       974 2.79561E-05 4.55869E-05-1.65436E-24
 -1       975 2.78197E-05 4.81549E-05 3.30872E-24
 -1       976 2.76831E-05 5.07906E-05 1.65436E-24
 -1       977 2.75464E-05 5.34795E-05 3.30872E-24
 -1       978 2.74095E-05 5.62074E-05 1.65436E-24
 -1       979 2.72727E-05 5.89599E-05 3.30872E-24
 -1       980 2.71358E-05 6.17226E-05 0.00000E+00
 -1       981 2.69989E-05 6.44812E-05 0.00000E+00
 -1       982 2.68622E-05 6.72213E-05 0.00000E+00
 -1       983 2.67258E-05 6.99285E-05 0.00000E+00
 -1       984 2.65900E-05 7.25886E-05-1.65436E-24
 -1       985 2.64550E-05 7.51871E-05 0.00000E+00
 -3
    1PSTEP                        38          19           1          
  100CL  119 7.86438E-01         409                     0   19           1
 -4  STRESS      6    1
 -5  SXX         1    4    1    1
 -5  SYY         1    4    2    2
 -5  SZZ         1    4    3    3
 -5  SXY         1    4    1    2
 -5  SYZ         1    4    2    3
 -5  SZX         1    4    3    1
 -1         1-2.24104E+06-1.19372E+06-4.28940E+05-1.73603E+06 3.95812E-09-1.64626E-07
 -1         2 1.35311E+06 2.01046E+07 4.69754E+06-6.00612E+06-3.71074E-08-6.66914E-08
 -1         3-4.10385E+01 1.47557E+06-2.43639E+02-2.22616E+02-5.75042E-11-1.08639E-09
 -1         5-9.70973E+01 3.96360E+05 1.03638E+01 1.60012E+00 5.49124E-10 2.72121E-09
 -1         8 1.60074E+06-2.57293E+04 7.24120E+05-1.51465E+06 9.21864E-09-2.13913E-07
 -1         9 2.03990E+07 2.26116E+07 6.38919E+06 1.52466E+07 8.56817E-09 4.07733E-07
 -1        10 1.18475E+03 1.53761E+06 4.84261E+03-1.61313E+03 1.36447E-09 8.26076E-09
 -1        12-9.30857E+01 3.96382E+05 3.41971E+02 1.07887E+01 8.20428E-10 2.82816E-08
 -1        15 4.36201E+03 2.39733E+03 1.41005E+04 1.66303E+01 5.27450E-09 1.26160E-06
 -1        16 2.64539E+07 2.90955E+07 7.53604E+06 2.77908E+07 2.98799E-08 3.30464E-07
 -1        17 2.94721E+07 3.36415E+04 4.08754E+06-3.69473E+06 2.75943E-08-5.13612E-08
 -1        18 8.14413E+05 1.90768E+05 1.70291E+05-7.71588E+04 2.58206E-09-2.07365E-09
 -1        19 1.21710E+05 1.50659E+05-2.68277E+02 2.46879E+04-1.97251E-09 9.49512E-10
 -1        20-3.48794E+04-5.76041E+05-1.26022E+05 5.04367E+04 8.59472E-09 2.75213E-09
 -1        21-5.54396E+01-3.51146E+05-1.15172E+03-4.62365E+02-1.10726E-08-1.33394E-08
 -1        24 4.74778E+07-1.68378E+06 5.96837E+06-6.49349E+06 1.26480E-07 3.20021E-08
 -1        25 3.96724E+05 1.58450E+06 4.06693E+05-1.12443E+05 1.35733E-09 9.98989E-09
 -1        26-8.12128E+03 1.09456E+05-1.62946E+04-2.42407E+04 2.65354E-09 2.78349E-09
 -1        27-9.61565E+04-3.17537E+05-1.19638E+05 7.24299E+04 1.05642E-08-4.58264E-09
 -1        28 2.77009E+04-9.49463E+04 1.97769E+04 3.40844E+04 1.06813E-08-3.18230E-09
 -1        32-4.47114E+05 3.74364E+06 1.44816E+06-7.44426E+05-8.73115E-10 6.86399E-08
 -1        33-1.77327E+05 9.66826E+04 3.39299E+04-6.56722E+04 3.95418E-09 4.39589E-10
 -1        34-2.38865E+05-2.27867E+04 4.48233E+02 7.01639E+04 1.41057E-08 5.79045E-10
 -1        35-2.79798E+04-3.76710E+04-1.48353E+03 6.12241E+04 1.54086E-08-1.50855E-09
 -1        51 6.38982E+03-9.67669E+05 3.26427E+04-1.78375E+06 6.98492E-10 3.25614E-07
 -1        52 1.75470E+04-9.82502E+05 2.92222E+04-2.08139E+06-3.44880E-09 7.73347E-07
 -1        53 2.07342E+04-1.01441E+06 3.20082E+04-1.77741E+06 1.38243E-09-1.83965E-07
 -1        54 5.26447E+04-1.02147E+06 6.13487E+04-2.08743E+06 6.83940E-10-1.01252E-07
 -1        55 8.74277E+04-1.04754E+06 1.14208E+05-1.77605E+06 1.99361E-09-2.07881E-07
 -1        56-4.36693E+06-4.83297E+05-3.13166E+05-1.64421E+06 7.50697E-09-7.20611E-08
 -1        57-4.37597E+06-8.23845E+05-2.02316E+05-1.70146E+06-4.06835E-08 3.54616E-07
 -1        58-4.47077E+06-5.31374E+05-7.54875E+04-1.56559E+06 2.03963E-08 2.28607E-07
 -1        59-4.24995E+06-7.84741E+05-4.11014E+04-1.82929E+06 4.41887E-08-3.66163E-07
 -1        60-4.50247E+06-5.12819E+05-1.72534E+04-1.52446E+06-3.95448E-08-2.61954E-07
 -1        61-4.22124E+06-7.99711E+05-9.56099E+03-1.87874E+06 3.83500E-08 3.55371E-07
 -1        62-4.50571E+06-5.11724E+05-5.17797E+03-1.52053E+06-7.02048E-08 4.81783E-07
 -1        63-4.23249E+06-7.76293E+05-3.60730E+03-1.84685E+06-7.34672E-08 2.89709E-07
 -1        64-4.48669E+06-5.39250E+05-9.76720E+03-1.55332E+06 8.47594E-08 1.22650E-07
 -1        65-4.28342E+06-7.09808E+05-1.09523E+04-1.74833E+06-1.73386E-08-2.83194E-07
 -1        66-4.44436E+06-5.85304E+05-3.32416E+04-1.61176E+06-1.22782E-08 1.27409E-07
 -1        67-4.39162E+06-6.35854E+05-6.56268E+04-1.61735E+06-4.50154E-08 4.64715E-07
 -1        68-4.37372E+06-6.17110E+05-1.25248E+05-1.68023E+06-3.15358E-08-1.15557E-07
 -1        69-4.62564E+06-7.25555E+05-3.40926E+05-1.46823E+06 1.86042E-08 3.00766E-07
 -1        70-4.21720E+06-4.96164E+05-5.12694E+05-1.76319E+06-3.40297E-08 1.49361E-07
 -1        86-1.38415E+06-1.46480E+07-2.60558E+06 2.82623E+06 3.14609E-07-2.48780E-07
 -1        87 2.13355E+06 5.71533E+06 2.09993E+06-5.32957E+06 5.20740E-07 1.16630E-07
 -1        88-3.83248E+05-2.01462E+06 1.19317E+05 2.42992E+06 3.70113E-07-1.25261E-07
 -1        89 2.78689E+06 5.23195E+06 1.96926E+06-5.53716E+06 5.65018E-07-1.37139E-07
 -1        90-1.92299E+06-1.42571E+07-3.05966E+06 3.06765E+06 1.03362E-07-5.71890E-09
 -1       121-1.42538E+01 1.47568E+06-3.00852E+02 1.11321E+02-1.17261E-10 2.79533E-09
 -1       122-1.50760E+02 1.47550E+06-5.48487E+02-4.46336E+02 8.00934E-10 6.52108E-09
 -1       123 6.49149E+01 1.47576E+06-9.40851E+02 3.35115E+02-5.98675E-10 4.16048E-09
 -1       124-1.50148E+03 1.47469E+06-2.40152E+03-8.38473E+02 8.73086E-10 6.68206E-09
 -1       125 9.37012E+02 1.47651E+06-3.49042E+03 5.04072E+02-7.65340E-10 3.87490E-09
 -1       191-1.02239E+02 3.96374E+05 7.85293E+00-8.42038E-01 5.98033E-10 1.10413E-08
 -1       192-9.81118E+01 3.96361E+05 2.21626E+01 5.02386E+00 8.24579E-10 7.95080E-09
 -1       193-1.04901E+02 3.96374E+05 3.68057E+01-4.43804E+00 1.13473E-09 4.77667E-09
 -1       194-1.01361E+02 3.96364E+05 8.43654E+01 1.13655E+01 6.43522E-10-1.45519E-10
 -1       195-1.10011E+02 3.96371E+05 1.60595E+02-7.46052E+00 1.73713E-09 1.21581E-08
 -1       251 1.44031E+07-6.36730E+05 1.47782E+06 1.55285E+05 3.55831E-08-8.05594E-08
 -1       252 1.51610E+07 7.39449E+05 1.06088E+06-5.82057E+05 2.35385E-08-4.29281E-09
 -1       253 1.47117E+07-9.16851E+04 3.88618E+05-2.01715E+05-4.39718E-09 3.88434E-07
 -1       254 1.48131E+07 1.12617E+05 2.41759E+05-2.17224E+05 1.80847E-09-2.66791E-07
 -1       255 1.47518E+07-1.16363E+04 1.00769E+05-2.09356E+05 2.04295E-10-6.05942E-07
 -1       256 1.47683E+07 2.01160E+04 6.00431E+04-2.09512E+05 3.01201E-08-2.10233E-07
 -1       257 1.47585E+07 4.81865E+02 3.04491E+04-2.09459E+05-7.86623E-09 1.66127E-07
 -1       258 1.47617E+07 7.53227E+03 2.51125E+04-2.09420E+05-7.00995E-09 2.32774E-07
 -1       259 1.47587E+07 9.10332E+02 2.69595E+04-2.09455E+05 1.01311E-08 9.29595E-08
 -1       260 1.47664E+07 1.64010E+04 4.98346E+04-2.09617E+05 1.80248E-08 4.07038E-07
 -1       261 1.47536E+07-8.36104E+03 8.27243E+04-2.09257E+05 2.07177E-09 4.12911E-09
 -1       262 1.48011E+07 8.80913E+04 1.95861E+05-2.21080E+05 1.19646E-08-5.70566E-07
 -1       263 1.47224E+07-7.05306E+04 3.17401E+05-1.97967E+05 2.11321E-09-2.35537E-07
 -1       264 1.51682E+07 6.04918E+05 8.79462E+05-7.41063E+05 6.82371E-09 5.32629E-07
 -1       265 1.43909E+07-5.25357E+05 1.18454E+06 3.10492E+05 2.70356E-08 7.56641E-07
 -1       266-7.89564E+04-3.68930E+04 1.85385E+05-3.56052E+02 3.74712E-09 2.50326E-07
 -1       267 9.15435E+04 4.30420E+04 1.30961E+05 4.10549E+02 8.84211E-09 4.83554E-07
 -1       268-1.22753E+04-6.09364E+03 4.86816E+04-5.23258E+01 4.82578E-09-1.98859E-07
 -1       269 1.44942E+04 7.29537E+03 3.16386E+04 6.09357E+01 5.79757E-09 5.03200E-07
 -1       270-2.17558E+03-1.19856E+03 1.52725E+04-8.27007E+00 2.37333E-09 2.13897E-07
 -1       271-9.36941E+06-1.16081E+06-7.71804E+05-3.63327E+06-1.86446E-08 2.41562E-08
 -1       272-9.49989E+06-1.79096E+06-4.85905E+05-3.71747E+06 1.29119E-07-1.74194E-07
 -1       273-9.56674E+06-1.29003E+06-1.85919E+05-3.53736E+06-2.89074E-08 1.10595E-07
 -1       274-9.27242E+06-1.64346E+06-9.80482E+04-3.89742E+06-1.46101E-08 8.40373E-08
 -1       275-9.62609E+06-1.26237E+06-4.33992E+04-3.48668E+06 7.36691E-09 7.42148E-08
 -1       276-9.22382E+06-1.66707E+06-2.13143E+04-3.98876E+06-8.77262E-08-2.65904E-08
 -1       277-9.64508E+06-1.24415E+06-1.07311E+04-3.46743E+06 1.65619E-09 1.88544E-07
 -1       278-9.21950E+06-1.66850E+06-8.40351E+03-3.99672E+06-6.64186E-08 1.45736E-07
 -1       279-9.63326E+06-1.25880E+06-1.26593E+04-3.48072E+06 1.06251E-07 2.73085E-07
 -1       280-9.24530E+06-1.62817E+06-2.05540E+04-3.92176E+06-7.01548E-08 3.68200E-07
 -1       281-9.59241E+06-1.30213E+06-4.80177E+04-3.52419E+06-3.27636E-08 3.24311E-07
 -1       282-9.32640E+06-1.56830E+06-9.80872E+04-3.78350E+06-9.74360E-08 6.72928E-07
 -1       283-9.51690E+06-1.34431E+06-1.91572E+05-3.59260E+06 4.78249E-08 4.69299E-08
 -1       284-9.59646E+06-1.69068E+06-4.91773E+05-3.58734E+06-1.03642E-07 2.18861E-08
 -1       285-9.31008E+06-1.21484E+06-7.81625E+05-3.69703E+06 5.45697E-12 4.12459E-07
 -1       301-6.90671E+04 3.50507E+05-7.01187E+04 1.67663E+06-4.36557E-10 3.12997E-07
 -1       302-6.71092E+04 3.37154E+05-1.27120E+04 2.45618E+06 9.08040E-09-1.41084E-07
 -1       303-3.93455E+04 3.14950E+05 3.59511E+04 1.67408E+06-2.11730E-09-2.58133E-08
 -1       304-3.29645E+04 3.82369E+05 1.13099E+05 2.45519E+06 8.01811E-09-6.88029E-07
 -1       305-3.69758E+04 3.26906E+05 2.06818E+05 1.67873E+06-9.31323E-09-4.44008E-07
 -1       306-3.81190E+07-4.27876E+07-2.24270E+07-2.61329E+07 1.36904E-07 1.41968E-07
 -1       307 1.44452E+07 9.13095E+07 1.69970E+07 3.09687E+07 1.28883E-06-1.53203E-07
 -1       308-1.34219E+06-2.87824E+07-6.79654E+06 1.88324E+06 4.15966E-08-1.85333E-07
 -1       309-4.28117E+06 3.30257E+07 6.45788E+06-3.47190E+07-9.61008E-08 4.91207E-07
 -1       310 3.43137E+06-9.54766E+06-4.13703E+03 5.84035E+06-7.47095E-08 2.32947E-07
 -1       311-6.06523E+06 6.92961E+07 1.12493E+07-5.56461E+05-1.10525E-06 9.86212E-07
 -1       312-1.72771E+07-4.68612E+07-1.59239E+07-1.79855E+07-2.68512E-07-3.50177E-07
 -1       313 7.98557E+07 5.61458E+07 2.19565E+07 6.00505E+07 2.10945E-07-3.99596E-07
 -1       314-6.16487E+07-1.44611E+07-1.94516E+07-1.33563E+07-2.30386E-07-4.91855E-09
 -1       315 9.77915E+07 3.50988E+06 1.68318E+07-1.44920E+07 9.11357E-07 2.61061E-07
 -1       316-2.10542E+07-9.31372E+06-6.51798E+06 1.27235E+07 7.96514E-07 9.06526E-07
 -1       317-5.30428E+06 3.39601E+07 6.44715E+06-3.37156E+07-1.24675E-06 1.54978E-07
 -1       318-1.26532E+06-4.82578E+06-2.78575E+05 8.39803E+06 1.03220E-06 1.89088E-07
 -1       319 4.98027E+07 1.65074E+07 1.12374E+07-3.34256E+07 1.21378E-07 3.98781E-07
 -1       320-5.55518E+07-1.22976E+07-1.84492E+07 4.68788E+06-2.13971E-07-3.47500E-08
 -1       336-1.61013E+03 1.59735E+06 1.40043E+04 1.11046E+03 3.10160E-09 1.66983E-09
 -1       337 5.38293E+03 1.60248E+06 2.18080E+04-2.54448E+03 6.08111E-09 7.56700E-10
 -1       338-2.88961E+03 1.59616E+06 3.41468E+04 1.43353E+03 4.42014E-09 2.91220E-09
 -1       339 3.82981E+04 1.62244E+06 8.10687E+04-3.23137E+03 7.30142E-09-4.86580E-11
 -1       340-2.72439E+04 1.57738E+06 1.26533E+05 1.77568E+03 4.99858E-09-2.87764E-09
 -1       406-7.13899E+01 3.96356E+05 6.70491E+02-4.12656E+00 2.22957E-09-1.82263E-09
 -1       407 1.42824E+02 3.96501E+05 1.43497E+03-2.61165E+01 4.47017E-10-3.01297E-08
 -1       408 6.42478E+02 3.96251E+05 2.85999E+03 3.04334E+01 2.62344E-09-5.70799E-09
 -1       409 3.01295E+03 3.97414E+05 6.44820E+03-3.28039E+02 6.79847E-11 5.22414E-09
 -1       410 8.82325E+03 3.95426E+05 1.31597E+04 3.17250E+02 2.79761E-09 2.36832E-09
 -1       521-3.77492E+07-4.21978E+07-2.34181E+07-2.30790E+07 5.58794E-08-6.82543E-07
 -1       522 1.16122E+07 9.20930E+07 1.59236E+07 2.99407E+07 1.05950E-06-5.05301E-07
 -1       523-1.94200E+06-2.66654E+07-6.52150E+06 1.75258E+06 5.88901E-07 2.70316E-07
 -1       524-5.08153E+06 3.04917E+07 6.15850E+06-3.81439E+07-5.12009E-07 1.21188E-06
 -1       525 3.39422E+06-9.74594E+06 2.28312E+05 5.26777E+06-2.14495E-07 9.60310E-07
 -1       526-8.13640E+06 7.02175E+07 1.08021E+07-3.01315E+06-2.20723E-07 3.80445E-07
 -1       527-1.83915E+07-4.48682E+07-1.65534E+07-1.60179E+07-3.84287E-07 3.50876E-07
 -1       528 8.04770E+07 5.56919E+07 2.07412E+07 6.19734E+07-1.90747E-07-3.76836E-07
 -1       529-5.88858E+07-1.65099E+07-2.04154E+07-1.15441E+07-5.87432E-07-1.34634E-07
 -1       530 9.72169E+07 2.55284E+06 1.58486E+07-1.71603E+07 3.63914E-07-3.63216E-08
 -1       531-1.96165E+07-9.36020E+06-6.28154E+06 1.15894E+07 3.79048E-07 3.28757E-07
 -1       532-1.06876E+07 3.61790E+07 6.16326E+06-3.45587E+07-1.42626E-06 3.59054E-07
 -1       533-1.77221E+06-4.49855E+06-5.51957E+04 8.17004E+06-9.73814E-07 7.79750E-07
 -1       534 4.73502E+07 1.77820E+07 1.07462E+07-3.61471E+07 7.93603E-07-5.80738E-07
 -1       535-5.26788E+07-1.43113E+07-1.92314E+07 4.49797E+06 1.77417E-07-4.68572E-07
 -1       536 2.91566E+06-1.04439E+05 2.42083E+05-9.58850E+03-2.39788E-08-3.37604E-09
 -1       537 3.02089E+06 1.20939E+05 1.71270E+05 1.58243E+03 3.91577E-09-6.92671E-09
 -1       538 2.95642E+06-1.63630E+04 6.27709E+04-4.40192E+03-2.06900E-09-3.53248E-09
 -1       539 2.97362E+06 1.89538E+04 3.95037E+04-3.85689E+03-3.51607E-08 1.05847E-08
 -1       540 2.96312E+06-2.55847E+03 1.62498E+04-4.15015E+03-9.47195E-06-1.02182E-08
 -1       541 2.96589E+06 3.03002E+03 9.83911E+03-4.12167E+03-1.89237E-05-2.66995E-08
 -1       542 2.96421E+06-4.52368E+02 5.07890E+03-4.13725E+03-1.72472E-05-3.16061E-08
 -1       543 2.96481E+06 9.30788E+02 4.51466E+03-4.13614E+03-1.55207E-05-1.42189E-08
 -1       544 2.96421E+06-4.60715E+02 5.15777E+03-4.13570E+03-7.76696E-06-1.41439E-08
 -1       545 2.96592E+06 3.10186E+03 1.00658E+04-4.15765E+03-2.34419E-08 3.32557E-09
 -1       546 2.96308E+06-2.62191E+03 1.66606E+04-4.11573E+03-4.03626E-10 7.91260E-10
 -1       547 2.97385E+06 1.94278E+04 4.05197E+04-4.61927E+03 8.04017E-09-2.27828E-10
 -1       548 2.95621E+06-1.67730E+04 6.44073E+04-3.67396E+03 3.50305E-09-1.06593E-09
 -1       549 3.02293E+06 1.24160E+05 1.75855E+05-1.45599E+04-1.54548E-09 5.54792E-10
 -1       550 2.91382E+06-1.07252E+05 2.48272E+05 5.82421E+03-1.13062E-09-2.47383E-10
 -1       551-1.21508E+04-1.12656E+05-3.04805E+04-1.50232E+06 2.66664E-09-2.22644E-09
 -1       552 6.69376E+03-1.33681E+05 6.02605E+03-2.13915E+06-5.35510E-09-5.59885E-09
 -1       553 7.56558E+03-1.36278E+05 4.08858E+04-1.49912E+06-4.40923E-09-8.05812E-10
 -1       554 3.36421E+04-9.80750E+04 1.07460E+05-2.13839E+06-1.65892E-09 5.52973E-10
 -1       555 2.08882E+04-1.31457E+05 1.95088E+05-1.50344E+06 4.52565E-09 5.98084E-09
 -1       556-8.51836E+04-4.42463E+04-3.30695E+04-6.35055E+04 2.66027E-09 5.27007E-09
 -1       557-8.36946E+04-5.07466E+04-1.71476E+04-7.69838E+04-6.18456E-11 2.33445E-09
 -1       558-8.74208E+04-3.81539E+04-7.25100E+03-6.72496E+04-2.82125E-09-5.54382E-09
 -1       559-7.96708E+04-4.64613E+04-3.57499E+03-7.69264E+04-1.81344E-08-3.15595E-09
 -1       560-8.75486E+04-3.80902E+04-1.65616E+03-6.73495E+04-7.69978E-09 1.38762E-08
 -1       561-7.93077E+04-4.63394E+04-8.12901E+02-7.67981E+04-3.66072E-09-1.01318E-09
 -1       562-8.74891E+04-3.81734E+04-4.17001E+02-6.72944E+04-7.33053E-09-2.95131E-09
 -1       563-7.91591E+04-4.63926E+04-2.31328E+02-7.66961E+04 3.24690E-09 2.12308E-08
 -1       564-8.73853E+04-3.82458E+04-1.99538E+02-6.72252E+04 2.68119E-09 7.25413E-09
 -1       565-7.90150E+04-4.64480E+04-2.18820E+02-7.65842E+04-1.38243E-09-1.92813E-09
 -1       566-8.72591E+04-3.83284E+04-4.02223E+02-6.71512E+04-3.91083E-09-6.99765E-09
 -1       567-7.89220E+04-4.65177E+04-7.42552E+02-7.64382E+04 9.49512E-10 2.05455E-09
 -1       568-8.70537E+04-3.84617E+04-1.51897E+03-6.70601E+04-1.86992E-09-5.15502E-09
 -1       569-7.99450E+04-4.70156E+04-3.44304E+03-7.58124E+04 3.78350E-09 1.46520E-08
 -1       570-8.60563E+04-4.01495E+04-6.68054E+03-6.66786E+04-1.80080E-09-1.00044E-10
 -1       571 2.76321E+05 8.85712E+03 1.33290E+04-5.94953E+04-1.21236E-09 1.55251E-09
 -1       572 2.78308E+05 2.98241E+03 6.53103E+03-6.51715E+04-2.04864E-09 4.64752E-10
 -1       573 2.77100E+05 6.15429E+02 2.90100E+03-5.93043E+04 8.32188E-09 3.84625E-09
 -1       574 2.77338E+05 1.05366E+02 1.45371E+03-6.53706E+04 1.82135E-08-1.35742E-09
 -1       575 2.77174E+05-8.78964E+01 6.84529E+02-5.92800E+04 1.14169E-08 1.27920E-09
 -1       576 2.77194E+05-1.20021E+02 3.47694E+02-6.53971E+04 6.15921E-09 3.23371E-09
 -1       577 2.77177E+05-1.19733E+02 1.69393E+02-5.92768E+04 5.92217E-09 3.79714E-09
 -1       578 2.77172E+05-1.26708E+02 8.86404E+01-6.54003E+04 3.19551E-09-2.96086E-09
 -1       579 2.77186E+05-1.18490E+02 4.72057E+01-5.92768E+04-2.84399E-09-1.38516E-09
 -1       580 2.77186E+05-1.32573E+02 3.23447E+01-6.53972E+04 4.18913E-09-2.13640E-09
 -1       581 2.77211E+05-1.29249E+02 3.05481E+01-5.92799E+04-1.80989E-10-1.71076E-09
 -1       582 2.77227E+05-1.44484E+02 4.86787E+01-6.53658E+04 2.70529E-09 4.01042E-09
 -1       583 2.77251E+05-1.32295E+02 8.58528E+01-5.93080E+04 1.21781E-09 2.53999E-09
 -1       584 2.77310E+05-8.70355E+01 1.90694E+02-6.51280E+04-9.32414E-09-1.43837E-09
 -1       585 2.77282E+05 8.18730E+01 3.82050E+02-5.95179E+04-2.55568E-09 1.76442E-09
 -1       586-4.67828E+03 8.10729E+04-7.15427E+03-1.79412E+05 4.31237E-09-2.12481E-08
 -1       587-9.58312E+02 7.99725E+04-2.25006E+03-1.97290E+05 5.03496E-09-3.52002E-08
 -1       588 9.30022E+02 8.04225E+04 1.51927E+03-1.79238E+05 3.93629E-09-7.35417E-09
 -1       589 3.91766E+03 8.15707E+04 6.43669E+03-1.97238E+05 5.13319E-09 1.83866E-08
 -1       590 1.04590E+04 7.95445E+04 1.44773E+04-1.79441E+05 2.78396E-09 6.77210E-09
 -1       591-5.78460E+04-1.90841E+04-2.12959E+04-3.29986E+04 1.96053E-09-9.62245E-10
 -1       592-5.91261E+04-2.50246E+04-1.15342E+04-3.93504E+04-8.92214E-10-9.16998E-10
 -1       593-6.00116E+04-1.75042E+04-4.80232E+03-3.45309E+04-1.55205E-09-3.97085E-09
 -1       594-5.61525E+04-2.19395E+04-2.39474E+03-3.95160E+04-4.40343E-09-1.09031E-08
 -1       595-6.01801E+04-1.74944E+04-1.10073E+03-3.46029E+04-2.55318E-09-5.61732E-09
 -1       596-5.59541E+04-2.17974E+04-5.60964E+02-3.94982E+04 7.93193E-10-8.76469E-10
 -1       597-6.02022E+04-1.75070E+04-3.08986E+02-3.46063E+04-3.49286E-09-2.83899E-09
 -1       598-5.59353E+04-2.17919E+04-2.54835E+02-3.94927E+04 1.33099E-09 5.43673E-09
 -1       599-6.01998E+04-1.75077E+04-3.33859E+02-3.46054E+04 7.27255E-10 1.40722E-09
 -1       600-5.59546E+04-2.18001E+04-6.26676E+02-3.94959E+04-1.86537E-09-3.19324E-09
 -1       601-6.01705E+04-1.74948E+04-1.24022E+03-3.45994E+04-2.56136E-09 3.88809E-10
 -1       602-5.61766E+04-2.19612E+04-2.70401E+03-3.95121E+04 1.63527E-09 2.54113E-09
 -1       603-5.99772E+04-1.75093E+04-5.42457E+03-3.45177E+04-4.71937E-09-2.84672E-10
 -1       604-5.95415E+04-2.54370E+04-1.30283E+04-3.93114E+04-5.36875E-09 9.24911E-09
 -1       605-5.75189E+04-1.93012E+04-2.40542E+04-3.27944E+04-5.66297E-09 3.24690E-09
 -1       606 4.73912E+04-1.33117E+04-2.40544E+04 4.67581E+04-1.09521E-08-2.02635E-09
 -1       607 4.32591E+04-4.23926E+03-1.19750E+04 5.24717E+04-2.35741E-09-3.79919E-09
 -1       608 4.55590E+04-6.65786E+02-5.36818E+03 4.63752E+04 8.05812E-09 4.06408E-09
 -1       609 4.50636E+04-8.84645E+01-2.70928E+03 5.28790E+04-3.18687E-09-8.67203E-10
 -1       610 4.52912E+04 1.27603E+02-1.29833E+03 4.63327E+04-1.38498E-08-9.67702E-10
 -1       611 4.51690E+04 1.83932E+02-6.53949E+02 5.29232E+04-2.52930E-08 4.15184E-10
 -1       612 4.51892E+04 1.76587E+02-3.16333E+02 4.63286E+04-1.17452E-08-7.27596E-12
 -1       613 4.51201E+04 2.21229E+02-1.45088E+02 5.29279E+04-1.67238E-08 2.48701E-09
 -1       614 4.51221E+04 1.99916E+02-4.58899E+01 4.63271E+04-9.93350E-09 5.07453E-09
 -1       615 4.50679E+04 2.48700E+02 3.52375E+01 5.29283E+04-2.45200E-09-1.91903E-10
 -1       616 4.50718E+04 2.24427E+02 1.28619E+02 4.63276E+04-2.46955E-08-1.03228E-09
 -1       617 4.50489E+04 2.96724E+02 3.04229E+02 5.29271E+04-1.73995E-08-2.50384E-09
 -1       618 4.50202E+04 3.27962E+02 6.16128E+02 4.63276E+04-1.01145E-08-2.26464E-09
 -1       619 4.52457E+04 7.85880E+02 1.38628E+03 5.29254E+04-2.86263E-10-1.05956E-10
 -1       620 4.48027E+04 1.79967E+03 2.78651E+03 4.63233E+04 4.99767E-09 6.47333E-09
 -1       621 7.02904E+02 3.24039E+05 5.65532E+03-4.70770E+03-1.08321E-09 3.12457E-09
 -1       622 7.79035E+02 3.25442E+05 4.41452E+03-6.64718E+03-1.29234E-09 1.08280E-08
 -1       623 4.34369E+01 3.24500E+05 4.57181E+03-4.68646E+03-1.28364E-09 9.41588E-09
 -1       624 1.95767E+03 3.26525E+05 8.24178E+03-6.67267E+03-1.18951E-09 5.90012E-09
 -1       625 1.95114E+03 3.22953E+05 1.41202E+04-4.67862E+03-1.22509E-09 5.55605E-09
 -1       626 2.47384E+05 7.38266E+04 4.51516E+03 1.41019E+05-6.02631E-09-8.03993E-09
 -1       627 2.43319E+05 7.70751E+04 2.17799E+03 1.47033E+05-5.09954E-09-4.53156E-10
 -1       628 2.47567E+05 7.16436E+04 9.16462E+02 1.41614E+05 2.31794E-08-5.66615E-09
 -1       629 2.42557E+05 7.66412E+04 4.51426E+02 1.47371E+05 4.34229E-08-1.95832E-08
 -1       630 2.47546E+05 7.15570E+04 2.07076E+02 1.41603E+05 1.07739E-08-6.62089E-09
 -1       631 2.42434E+05 7.66499E+04 1.13312E+02 1.47354E+05-2.53613E-08-3.93098E-09
 -1       632 2.47507E+05 7.15802E+04 7.60431E+01 1.41574E+05-2.69547E-08-1.31439E-08
 -1       633 2.42392E+05 7.66682E+04 8.90528E+01 1.47327E+05-7.45604E-09 7.60087E-09
 -1       634 2.47474E+05 7.15910E+04 1.46295E+02 1.41556E+05 6.02813E-09-1.34808E-08
 -1       635 2.42382E+05 7.66774E+04 2.99262E+02 1.47315E+05 4.16071E-09-7.80801E-09
 -1       636 2.47447E+05 7.15958E+04 6.04649E+02 1.41545E+05 6.40557E-09 1.10995E-08
 -1       637 2.42498E+05 7.67765E+04 1.32903E+03 1.47304E+05 1.42149E-08-1.09135E-08
 -1       638 2.47393E+05 7.18930E+04 2.73113E+03 1.41406E+05-1.42171E-09-3.59250E-10
 -1       639 2.43927E+05 7.87749E+04 6.46030E+03 1.46882E+05-2.66618E-08-8.60109E-09
 -1       640 2.47216E+05 7.78272E+04 1.34057E+04 1.38872E+05-7.58109E-09 8.91623E-09
 -1       656 6.97201E+04-1.75352E+06-1.68231E+05 2.27181E+03 5.96629E-10-9.28480E-10
 -1       657-9.20923E+04-1.82927E+06-1.38982E+05 1.40877E+04 4.86307E-09-1.23499E-09
 -1       658 2.20402E+04-1.77516E+06-8.50781E+04-5.38998E+02 1.93131E-09 6.45827E-10
 -1       659-9.82438E+04-1.83222E+06-1.47059E+05 1.58180E+04 2.41380E-09 9.28281E-10
 -1       660 7.58611E+04-1.75058E+06-1.82096E+05 5.41509E+02-3.20142E-10-4.81634E-10
 -1       661 2.91158E+05 3.23757E+04 2.71687E+04 1.14218E+05 7.56472E-09 1.93359E-09
 -1       662 3.05078E+05 5.39123E+04 1.83065E+04 1.09762E+05 9.43191E-09-6.61407E-09
 -1       663 2.96501E+05 4.10828E+04 6.40421E+03 1.12662E+05-1.87890E-09-1.34582E-09
 -1       664 2.98887E+05 4.37291E+04 3.82875E+03 1.11663E+05-3.80700E-09 4.21414E-09
 -1       665 2.97310E+05 4.22723E+04 1.50996E+03 1.12426E+05-6.05195E-09-4.66110E-09
 -1       666 2.97929E+05 4.23703E+04 8.79831E+02 1.11975E+05-1.80258E-08 5.56591E-09
 -1       667 2.97454E+05 4.24055E+04 4.62144E+02 1.12365E+05-5.01407E-09 7.45892E-12
 -1       668 2.97765E+05 4.22779E+04 4.60218E+02 1.12071E+05 1.01753E-08 1.47023E-09
 -1       669 2.97474E+05 4.23613E+04 6.13453E+02 1.12332E+05 7.26345E-10 3.59407E-09
 -1       670 2.97895E+05 4.26246E+04 1.32774E+03 1.12096E+05 1.40058E-08 5.03010E-09
 -1       671 2.97324E+05 4.20651E+04 2.35413E+03 1.12336E+05-2.80913E-10-1.34003E-09
 -1       672 2.99243E+05 4.49370E+04 6.02079E+03 1.11791E+05-1.07933E-08-6.31735E-09
 -1       673 2.96133E+05 4.01062E+04 1.00887E+04 1.12614E+05-2.50623E-09-6.35555E-09
 -1       674 3.08828E+05 6.11591E+04 2.88495E+04 1.08989E+05 3.21609E-09 1.26965E-09
 -1       675 2.87801E+05 2.62957E+04 4.28237E+04 1.14967E+05 3.81988E-11-2.08274E-09
 -1       676 3.02249E+01-3.51046E+05-1.38813E+03 2.31191E+02-9.89246E-10-2.29692E-09
 -1       677-3.65863E+02-3.51385E+05-2.54058E+03-4.61910E+02-2.01576E-08-3.48689E-09
 -1       678 2.46475E+02-3.50807E+05-4.49114E+03 2.30563E+02 1.50681E-09 2.74403E-09
 -1       679-4.49019E+03-3.54097E+05-1.06694E+04-4.59734E+02-5.55633E-09-8.17494E-10
 -1       680 2.68200E+03-3.48337E+05-1.71953E+04 2.26344E+02 3.71710E-09 8.46256E-10
 -1       771-3.82322E+06-5.16159E+05-1.99241E+05-1.37327E+06 5.98084E-09 5.90444E-09
 -1       772-3.88620E+06-5.19769E+05-1.07854E+05-1.37283E+06 8.01811E-09 1.99361E-09
 -1       773-3.84214E+06-5.02836E+05-4.49781E+04-1.38923E+06 7.94535E-09 3.79259E-10
 -1       774-3.86093E+06-4.88496E+05-2.23297E+04-1.37211E+06-1.10595E-09-8.54016E-09
 -1       775-3.84338E+06-5.03153E+05-1.02976E+04-1.39076E+06 8.73843E-09 3.31056E-10
 -1       776-3.86052E+06-4.85921E+05-5.02214E+03-1.37101E+06 1.15906E-08-8.92851E-09
 -1       777-3.84340E+06-5.03546E+05-2.49739E+03-1.39151E+06 4.98767E-09-3.35604E-09
 -1       778-3.86158E+06-4.84856E+05-1.34883E+03-1.37027E+06 1.57888E-09 3.54612E-09
 -1       779-3.84331E+06-5.03774E+05-1.01711E+03-1.39213E+06 2.23736E-09-1.93450E-09
 -1       780-3.86261E+06-4.84045E+05-1.19514E+03-1.36974E+06-4.83851E-10-1.38789E-09
 -1       781-3.84320E+06-5.03907E+05-2.05943E+03-1.39260E+06 9.31323E-10-8.10132E-09
 -1       782-3.86371E+06-4.83701E+05-4.25856E+03-1.36941E+06 7.84075E-09 1.58298E-09
 -1       783-3.84288E+06-5.04007E+05-8.48127E+03-1.39280E+06 7.54881E-10-4.70754E-09
 -1       784-3.86936E+06-4.88895E+05-2.03465E+04-1.36903E+06 1.04046E-09-5.09863E-09
 -1       785-3.83918E+06-5.06700E+05-3.75618E+04-1.39018E+06 1.28802E-09-1.34551E-08
 -1       786 3.34086E+05-1.52032E+04 3.51782E+04 4.84546E+02 4.51747E-09 5.79166E-09
 -1       787 3.49330E+05 1.76013E+04 2.48882E+04 7.28032E+01 2.27046E-09 4.25780E-09
 -1       788 3.39970E+05-2.38292E+03 9.10665E+03 3.95505E+02-2.06827E-10 2.29466E-09
 -1       789 3.42478E+05 2.75792E+03 5.72364E+03 1.97964E+02 5.26195E-08-1.35367E-09
 -1       790 3.40941E+05-3.72102E+02 2.33289E+03 3.59402E+02 1.55940E-05-1.20303E-08
 -1       791 3.41346E+05 4.34040E+02 1.37714E+03 2.44702E+02 3.10644E-05-2.37187E-08
 -1       792 3.41103E+05-6.07911E+01 6.43097E+02 3.48769E+02 6.03566E-06-3.96986E-09
 -1       793 3.41167E+05 9.30957E+01 4.51004E+02 2.47533E+02-1.90091E-05 2.01012E-08
 -1       794 3.41120E+05-3.13799E+01 3.79346E+02 3.56571E+02-9.56007E-06 4.39010E-09
 -1       795 3.41211E+05 1.81245E+02 6.14049E+02 2.08958E+02-3.02293E-08 6.21610E-09
 -1       796 3.41060E+05-1.48882E+02 9.59301E+02 3.87345E+02-1.45315E-09-2.60349E-09
 -1       797 3.41658E+05 1.09868E+03 2.29459E+03 1.06022E+02-3.97562E-09-3.32952E-09
 -1       798 3.40672E+05-9.48151E+02 3.63196E+03 4.59508E+02-2.16400E-09-3.45199E-09
 -1       799 3.44392E+05 7.00610E+03 9.91194E+03-1.25440E+02-3.64963E-09-1.43791E-09
 -1       800 3.38324E+05-6.05157E+03 1.40007E+04 6.18801E+02-8.01695E-10-6.78483E-10
 -1       801-3.02387E+05 7.49692E+06 7.28847E+05-4.69888E+03 5.87897E-09-1.59253E-09
 -1       802 4.17819E+05 7.84711E+06 6.37817E+05-1.08899E+05 1.45228E-08 4.83249E-09
 -1       803-1.13467E+05 7.58822E+06 4.35247E+05-7.14042E+04 5.96629E-09-5.80579E-09
 -1       804 5.62909E+05 7.91172E+06 8.27345E+05-9.91060E+04 9.41509E-09 9.78901E-10
 -1       805-4.47140E+05 7.43211E+06 1.05859E+06-1.44940E+04 6.40284E-10 5.25968E-08
 -1       806-2.99970E+05-7.47981E+04-3.01247E+04-1.35761E+05 5.54724E-09 3.72893E-09
 -1       807-3.00767E+05-7.14653E+04-1.47988E+04-1.44861E+05 2.72598E-09 6.38772E-09
 -1       808-3.00884E+05-6.38616E+04-6.27737E+03-1.40822E+05 8.99558E-09 3.22507E-09
 -1       809-2.97550E+05-6.74195E+04-3.06760E+03-1.45373E+05 1.24869E-08-1.01135E-08
 -1       810-3.01031E+05-6.34684E+04-1.40406E+03-1.41046E+05-8.02629E-10-1.34889E-09
 -1       811-2.97308E+05-6.72618E+04-6.94477E+02-1.45349E+05-4.14498E-09 1.16588E-08
 -1       812-3.01057E+05-6.34939E+04-3.43513E+02-1.41046E+05-1.60071E-09-6.82121E-11
 -1       813-2.97276E+05-6.72676E+04-2.11457E+02-1.45331E+05 2.75122E-11 8.48331E-10
 -1       814-3.01052E+05-6.35066E+04-1.89976E+02-1.41039E+05-6.66205E-09-1.08630E-08
 -1       815-2.97272E+05-6.72733E+04-2.88519E+02-1.45321E+05-2.48292E-09-8.00037E-09
 -1       816-3.01025E+05-6.35096E+04-5.35970E+02-1.41031E+05-1.26420E-09 3.14731E-09
 -1       817-2.97353E+05-6.73281E+04-1.14547E+03-1.45301E+05 1.00226E-08-4.55884E-10
 -1       818-3.00942E+05-6.36788E+04-2.33443E+03-1.40948E+05 3.21506E-09-1.43700E-10
 -1       819-2.98637E+05-6.87210E+04-5.49159E+03-1.44961E+05-3.12139E-09 3.52884E-10
 -1       820-3.00475E+05-6.78458E+04-1.11785E+04-1.39176E+05-2.70938E-09-1.90175E-09
 -1       821-3.83767E+05 2.18344E+04-5.11482E+04 1.30352E+03 1.65318E-09 1.13505E-09
 -1       822-4.02833E+05-2.53391E+04-3.56597E+04-7.12615E+03 2.12778E-09-5.87534E-10
 -1       823-3.90963E+05 3.48057E+03-1.31876E+04 3.42763E+03-7.06545E-09 1.23146E-09
 -1       824-3.94036E+05-4.03370E+03-8.21445E+03-8.95641E+03 1.60765E-09-2.41300E-09
 -1       825-3.92589E+05 5.68299E+02-3.46646E+03 3.13387E+03 1.14290E-08 1.21031E-09
 -1       826-3.90858E+05-6.04980E+02-1.66823E+03-6.16276E+03 1.20637E-08 6.05451E-09
 -1       827-3.94099E+05 2.05382E+01-1.38692E+03 6.33903E+02-4.96158E-10-2.77242E-09
 -1       828-3.89468E+05-7.94781E+01-3.01416E+02-3.55993E+02-1.91006E-08 2.78233E-09
 -1       829-3.93947E+05 1.75641E+01-1.36001E+03-2.67274E+03 2.95336E-09-3.04368E-09
 -1       830-3.91200E+05-5.75304E+02-1.73348E+03 5.20121E+03 8.93488E-09 1.73259E-10
 -1       831-3.92406E+05 5.47953E+02-3.44449E+03-4.92346E+03-1.42072E-08-6.00267E-09
 -1       832-3.94129E+05-3.97853E+03-8.24031E+03 7.39947E+03-8.70590E-09 3.49985E-09
 -1       833-3.91053E+05 3.44619E+03-1.32486E+04-4.87133E+03-2.56615E-09-4.55020E-09
 -1       834-4.02620E+05-2.53405E+04-3.56935E+04 4.99999E+03-2.89008E-09 3.39787E-09
 -1       835-3.83883E+05 2.18638E+04-5.13144E+04-2.52356E+03 1.33704E-08-6.75573E-09
 -1       836-1.27089E+03 3.98008E+05 2.35368E+04-4.51035E+04 7.52607E-09 3.87990E-09
 -1       837 5.45342E+03 4.05150E+05 2.00546E+04-9.01436E+04 9.60790E-09 1.32604E-09
 -1       838-3.62991E+02 4.00012E+05 2.06060E+04-4.49779E+04 8.44557E-09 6.95752E-09
 -1       839 1.34686E+04 4.11117E+05 3.91476E+04-9.01586E+04 1.00072E-08 1.97713E-09
 -1       840-3.84947E+03 3.91975E+05 6.24838E+04-4.50798E+04 7.62884E-09 2.24736E-09
 -1       856-1.60417E+05 1.18710E+04-3.12921E+04-9.47502E+02-1.30251E-08-3.83989E-09
 -1       857-1.73352E+05-1.39070E+04-2.15429E+04 6.47768E+03-6.10601E-09-2.68233E-09
 -1       858-1.65521E+05 1.66051E+03-8.12219E+03-9.99532E+02-7.55387E-09-2.09184E-09
 -1       859-1.67494E+05-1.91273E+03-4.90598E+03 6.56437E+03 4.23165E-09 2.68471E-10
 -1       860-1.66284E+05 2.28326E+02-2.06573E+03-1.03495E+03 8.46242E-09-3.43368E-09
 -1       861-1.66618E+05-2.33280E+02-1.15571E+03 6.61320E+03-7.62299E-09-7.45484E-09
 -1       862-1.66401E+05 2.80753E+01-5.19593E+02-1.04850E+03 1.62436E-08-5.04897E-09
 -1       863-1.66480E+05 3.26274E-01-2.78216E+02 6.61851E+03 1.96139E-08-5.24851E-09
 -1       864-1.66422E+05-8.15473E-03-1.30505E+02-1.04028E+03 1.41189E-08-5.59716E-09
 -1       865-1.66450E+05 3.05050E+01-6.77655E+01 6.57942E+03 1.63427E-08-2.89089E-09
 -1       866-1.66428E+05-4.35936E+00-3.51814E+01-1.00940E+03 3.30732E-09-3.08604E-09
 -1       867-1.66432E+05 2.99564E+01-1.78298E+01 6.49586E+03-4.71823E-09-1.84503E-09
 -1       868-1.66433E+05-5.06054E+00-1.73758E+01-9.56677E+02 5.02666E-09-3.49134E-09
 -1       869-1.66412E+05 1.73687E+01-1.52876E+01 6.36379E+03-1.17359E-08-7.79448E-09
 -1       870-1.66436E+05-2.81287E-01-3.22804E+01-8.77285E+02 6.76152E-09-2.95226E-09
 -1       871-6.08919E+03-8.99839E+03-1.85711E+04 1.19408E+05 8.56926E-09 1.28166E-08
 -1       872-2.91454E+03-1.30822E+04-7.46435E+03 1.54803E+05 1.71121E-08 3.06009E-08
 -1       873-3.75126E+02-1.12744E+04 1.33099E+03 1.19152E+05 1.09212E-08 2.21335E-08
 -1       874 2.57313E+03-8.33979E+03 1.11131E+04 1.54870E+05 1.37070E-08 1.77367E-08
 -1       875 6.73788E+03-1.38684E+04 2.44594E+04 1.19379E+05 4.71846E-09 6.90216E-09
 -1       876 3.15537E+05 5.53638E+04 1.73390E+04 1.29194E+05-1.11879E-08-3.51611E-09
 -1       877 3.16405E+05 5.92969E+04 9.25985E+03 1.34442E+05-1.86506E-08-8.05812E-09
 -1       878 3.17150E+05 5.34503E+04 3.87896E+03 1.30621E+05-6.22094E-10 2.28215E-09
 -1       879 3.14042E+05 5.69491E+04 1.93242E+03 1.34561E+05-7.97377E-09-4.71346E-10
 -1       880 3.17264E+05 5.34319E+04 8.99045E+02 1.30679E+05 7.27323E-09 2.19302E-09
 -1       881 3.13884E+05 5.68487E+04 4.78239E+02 1.34532E+05 1.81681E-08 1.23205E-09
 -1       882 3.17274E+05 5.34480E+04 3.02240E+02 1.30681E+05 2.01580E-08 1.11194E-08
 -1       883 3.13872E+05 5.68436E+04 3.19231E+02 1.34523E+05 8.93942E-09 9.52525E-09
 -1       884 3.17266E+05 5.34454E+04 5.02415E+02 1.30681E+05 3.40322E-09 9.41918E-09
 -1       885 3.13912E+05 5.68507E+04 1.00673E+03 1.34535E+05 5.45762E-09 4.76246E-09
 -1       886 3.17228E+05 5.34158E+04 2.02720E+03 1.30677E+05 1.11124E-08-3.97267E-09
 -1       887 3.14268E+05 5.70843E+04 4.42725E+03 1.34587E+05-1.33701E-08-4.45516E-09
 -1       888 3.16950E+05 5.34636E+04 8.92040E+03 1.30535E+05-3.52321E-09-5.05406E-09
 -1       889 3.19588E+05 6.25991E+04 2.13091E+04 1.34418E+05-7.02443E-11 5.94218E-09
 -1       890 3.13326E+05 5.77720E+04 3.99111E+04 1.27122E+05 1.11527E-08 4.07817E-09
 -1       891-2.99344E+02-1.81785E+05-2.11091E+03 3.68897E+04 7.22753E-09-2.93676E-09
 -1       892-5.01487E+02-1.82228E+05-2.30828E+03 5.56952E+04 7.42421E-09-1.24048E-08
 -1       893-1.70421E+02-1.81835E+05-3.31371E+03 3.68966E+04 1.14055E-08-1.09139E-09
 -1       894-1.98967E+03-1.83470E+05-6.88663E+03 5.54974E+04-9.42237E-10-2.54659E-11
 -1       895-1.55323E+03-1.80374E+05-1.21459E+04 3.70801E+04 4.67276E-09 3.05863E-09
 -1       956-3.92499E+05-5.79212E+03-1.47087E+04 2.40521E+04-2.14141E-08 8.78572E-10
 -1       957-3.95415E+05-1.90567E+03-7.55021E+03 2.90217E+04-2.15005E-08-1.03614E-09
 -1       958-3.93811E+05-1.03366E+02-3.40239E+03 2.38684E+04-1.43973E-09-1.08730E-09
 -1       959-3.94059E+05 4.39824E+01-1.73730E+03 2.92122E+04-5.04224E-09 2.23258E-09
 -1       960-3.93935E+05 1.07737E+02-8.47049E+02 2.38501E+04-1.02245E-08-4.60204E-10
 -1       961-3.93968E+05 1.22082E+02-4.48123E+02 2.92333E+04-2.12021E-08 4.45016E-09
 -1       962-3.93964E+05 1.05920E+02-2.54800E+02 2.38466E+04-9.91258E-09 1.12436E-09
 -1       963-3.93970E+05 1.27677E+02-2.00720E+02 2.92385E+04-1.36911E-08 3.91992E-09
 -1       964-3.93975E+05 1.11706E+02-2.39333E+02 2.38448E+04-3.47040E-09-4.03088E-09
 -1       965-3.93989E+05 1.34697E+02-4.09689E+02 2.92400E+04 8.91271E-09 2.47110E-09
 -1       966-3.93966E+05 1.24838E+02-7.67006E+02 2.38450E+04-6.13198E-09-2.59365E-09
 -1       967-3.94093E+05 7.59386E+01-1.57217E+03 2.92324E+04 2.63395E-09 3.33034E-09
 -1       968-3.93871E+05-5.50390E+01-3.07628E+03 2.38529E+04 3.44039E-09 2.47809E-10
 -1       969-3.95342E+05-1.67760E+03-6.83064E+03 2.91460E+04 1.00395E-08-1.24061E-09
 -1       970-3.92698E+05-5.19499E+03-1.33047E+04 2.39452E+04 8.60791E-09-2.50384E-09
 -1       971-3.79880E+05-2.03380E+03-1.15725E+04 1.89548E+04-1.39726E-08 2.84035E-09
 -1       972-3.82717E+05-1.41459E+03-6.30092E+03 2.66946E+04-6.37419E-09-7.23958E-10
 -1       973-3.81176E+05 4.04305E+01-2.82255E+03 1.87842E+04-1.37261E-08 2.32149E-09
 -1       974-3.81401E+05 7.16655E+01-1.46106E+03 2.68755E+04-1.51213E-08-4.21539E-09
 -1       975-3.81284E+05 1.00605E+02-7.28267E+02 1.87668E+04 5.14774E-10 2.91402E-09
 -1       976-3.81332E+05 1.37740E+02-4.14762E+02 2.68974E+04-1.01918E-08-7.27823E-10
 -1       977-3.81309E+05 1.04172E+02-2.92433E+02 1.87619E+04 4.45016E-09 2.24077E-09
 -1       978-3.81341E+05 1.47547E+02-3.29919E+02 2.69043E+04 3.36045E-08-2.29375E-09
 -1       979-3.81312E+05 1.14802E+02-5.20009E+02 1.87597E+04 1.36957E-08 3.79578E-09
 -1       980-3.81381E+05 1.51574E+02-9.97765E+02 2.69055E+04 1.78386E-08-2.34479E-09
 -1       981-3.81279E+05 1.39234E+02-1.92953E+03 1.87605E+04 4.84124E-09 4.76643E-09
 -1       982-3.81643E+05 7.47579E+00-3.98667E+03 2.68960E+04 9.35529E-10 1.53955E-09
 -1       983-3.81033E+05 1.33076E+01-7.74597E+03 1.87701E+04 5.06816E-09 1.99407E-09
 -1       984-3.85360E+05-4.04212E+03-1.73458E+04 2.67834E+04-5.29553E-09-2.45473E-09
 -1       985-3.77521E+05-5.65761E+03-3.18532E+04 1.88960E+04 1.11372E-08 2.72848E-10
 -3
    1PSTEP                        39          20           1          
  100CL  120 8.08685E-01         409                     0   20           1
 -4  DISP        4    1
 -5  D1          1    2    1    0
 -5  D2          1    2    2    0
 -5  D3          1    2    3    0
 -5  ALL         1    2    0    0    1ALL
 -1         1 7.06068E-03 0.00000E+00 0.00000E+00
 -1         2 9.37248E-03 1.28045E-27 0.00000E+00
 -1         3-1.11871E-05-2.52118E-28 0.00000E+00
 -1         5 4.69455E-05 2.94388E-27 0.00000E+00
 -1         8 7.02898E-03-2.49976E-06 0.00000E+00
 -1         9 7.17782E-03-5.14617E-04 0.00000E+00
 -1        10-5.23360E-06 5.55310E-06 0.00000E+00
 -1        12 4.46247E-05 8.45224E-07 0.00000E+00
 -1        15 6.99371E-03-2.64714E-06 0.00000E+00
 -1        16 7.13361E-03-5.14754E-04 0.00000E+00
 -1        17 1.59286E-05 1.14667E-05 0.00000E+00
 -1        18 3.60970E-05-1.80685E-05 0.00000E+00
 -1        19 3.76609E-05 1.68253E-06 0.00000E+00
 -1        20 3.78776E-05 4.29876E-05 0.00000E+00
 -1        21 3.71401E-05 8.49823E-05 0.00000E+00
 -1        24 2.41273E-05 1.17477E-05 0.00000E+00
 -1        25 2.60525E-05-1.79121E-05 0.00000E+00
 -1        26 2.79473E-05 2.36555E-06 0.00000E+00
 -1        27 2.56078E-05 3.92307E-05 0.00000E+00
 -1        28 2.45850E-05 8.42175E-05 0.00000E+00
 -1        32 0.00000E+00 0.00000E+00 0.00000E+00
 -1        33 1.57514E-05 3.19300E-06 0.00000E+00
 -1        34 1.34634E-05 3.91929E-05 0.00000E+00
 -1        35 1.12280E-05 8.38149E-05 0.00000E+00
 -1        51 7.05850E-03-4.17832E-07-1.32349E-23
 -1        52 7.05457E-03-8.26126E-07 0.00000E+00
 -1        53 7.04925E-03-1.23603E-06 0.00000E+00
 -1        54 7.04296E-03-1.64984E-06 1.65436E-24
 -1        55 7.03607E-03-2.06847E-06-6.61744E-24
 -1        56 7.06052E-03-9.08830E-06-5.29396E-23
 -1        57 7.06626E-03-3.50416E-05 5.29396E-23
 -1        58 7.07776E-03-7.79234E-05 1.05879E-22
 -1        59 7.09428E-03-1.36455E-04 0.00000E+00
 -1        60 7.11435E-03-2.06458E-04 1.05879E-22
 -1        61 7.13631E-03-2.82803E-04-5.29396E-23
 -1        62 7.15827E-03-3.59163E-04 0.00000E+00
 -1        63 7.17835E-03-4.29215E-04 5.29396E-23
 -1        64 7.19489E-03-4.87819E-04 0.00000E+00
 -1        65 7.20639E-03-5.30794E-04 5.29396E-23
 -1        66 7.21216E-03-5.56852E-04 0.00000E+00
 -1        67 7.21192E-03-5.66075E-04-5.29396E-23
 -1        68 7.20657E-03-5.61585E-04-1.05879E-22
 -1        69 7.19757E-03-5.47559E-04-2.64698E-23
 -1        70 7.18713E-03-5.29878E-04 5.29396E-23
 -1        86 9.22828E-03-1.55394E-05 0.00000E+00
 -1        87 8.82638E-03-1.01988E-04 2.64698E-23
 -1        88 8.29010E-03-2.52456E-04 0.00000E+00
 -1        89 7.74937E-03-4.05647E-04 0.00000E+00
 -1        90 7.33587E-03-4.96846E-04 0.00000E+00
 -1       121-1.10247E-05 9.25819E-07-2.64698E-23
 -1       122-1.05363E-05 1.85155E-06 0.00000E+00
 -1       123-9.71918E-06 2.77710E-06 2.64698E-23
 -1       124-8.56802E-06 3.70252E-06 1.32349E-23
 -1       125-7.07585E-06 4.62741E-06 0.00000E+00
 -1       191 4.68810E-05 1.40969E-07 0.00000E+00
 -1       192 4.66877E-05 2.81920E-07 1.32349E-23
 -1       193 4.63654E-05 4.22840E-07 0.00000E+00
 -1       194 4.59141E-05 5.63710E-07 0.00000E+00
 -1       195 4.53339E-05 7.04511E-07 1.32349E-23
 -1       251 7.03836E-03-1.03793E-05 0.00000E+00
 -1       252 7.04777E-03-4.03393E-05-1.05879E-22
 -1       253 7.05690E-03-7.86968E-05 0.00000E+00
 -1       254 7.06616E-03-1.15668E-04 0.00000E+00
 -1       255 7.07545E-03-1.52108E-04-2.11758E-22
 -1       256 7.08474E-03-1.88640E-04-1.05879E-22
 -1       257 7.09404E-03-2.25206E-04-2.11758E-22
 -1       258 7.10334E-03-2.61766E-04 0.00000E+00
 -1       259 7.11264E-03-2.98326E-04 2.11758E-22
 -1       260 7.12194E-03-3.34894E-04 0.00000E+00
 -1       261 7.13124E-03-3.71420E-04 0.00000E+00
 -1       262 7.14052E-03-4.07838E-04 1.05879E-22
 -1       263 7.14979E-03-4.44888E-04 0.00000E+00
 -1       264 7.15892E-03-4.83590E-04 1.05879E-22
 -1       265 7.16837E-03-5.12267E-04 2.11758E-22
 -1       266 7.02310E-03-2.54824E-06 1.32349E-23
 -1       267 7.01723E-03-2.56989E-06 3.30872E-24
 -1       268 7.01135E-03-2.59323E-06 3.30872E-24
 -1       269 7.00547E-03-2.61155E-06 8.27181E-25
 -1       270 6.99959E-03-2.62975E-06-8.27181E-25
 -1       271 7.02493E-03-3.92487E-06-1.05879E-22
 -1       272 7.02505E-03-1.71293E-05 5.29396E-23
 -1       273 7.02924E-03-4.17027E-05-1.05879E-22
 -1       274 7.03698E-03-7.66851E-05 0.00000E+00
 -1       275 7.04769E-03-1.20514E-04 0.00000E+00
 -1       276 7.06061E-03-1.71160E-04 0.00000E+00
 -1       277 7.07495E-03-2.26198E-04 1.05879E-22
 -1       278 7.08984E-03-2.82969E-04-5.29396E-23
 -1       279 7.10440E-03-3.38711E-04 0.00000E+00
 -1       280 7.11777E-03-3.90719E-04 0.00000E+00
 -1       281 7.12912E-03-4.36505E-04 0.00000E+00
 -1       282 7.13768E-03-4.73913E-04 0.00000E+00
 -1       283 7.14281E-03-5.01272E-04 0.00000E+00
 -1       284 7.14401E-03-5.17439E-04-5.29396E-23
 -1       285 7.14092E-03-5.21913E-04 5.29396E-23
 -1       301 7.16785E-03-5.14634E-04 0.00000E+00
 -1       302 7.16109E-03-5.14641E-04 0.00000E+00
 -1       303 7.15592E-03-5.14638E-04 0.00000E+00
 -1       304 7.15070E-03-5.14642E-04 0.00000E+00
 -1       305 7.14381E-03-5.14664E-04 1.32349E-23
 -1       306 7.02782E-03-2.73823E-04-2.11758E-22
 -1       307 6.53495E-03 2.82522E-04 0.00000E+00
 -1       308 5.61907E-03 9.87492E-04 2.11758E-22
 -1       309 4.38092E-03 1.68417E-03 0.00000E+00
 -1       310 3.02763E-03 2.35962E-03 1.05879E-22
 -1       311 1.79187E-03 3.06160E-03 0.00000E+00
 -1       312 8.58188E-04 3.76470E-03 0.00000E+00
 -1       313 3.18820E-04 4.34964E-03 1.05879E-22
 -1       314 1.61460E-04 4.60217E-03 0.00000E+00
 -1       315 1.91868E-04 4.42985E-03 1.05879E-22
 -1       316 2.28077E-04 3.80645E-03 2.11758E-22
 -1       317 1.52420E-04 2.87982E-03 5.29396E-23
 -1       318 1.79142E-05 1.84829E-03 1.05879E-22
 -1       319-5.55406E-05 9.15428E-04 0.00000E+00
 -1       320-2.99338E-05 2.59737E-04 2.11758E-22
 -1       336-2.98087E-06 6.55077E-06 0.00000E+00
 -1       337-2.51112E-07 7.54802E-06 0.00000E+00
 -1       338 2.97731E-06 8.54300E-06 2.64698E-23
 -1       339 6.72981E-06 9.53126E-06 0.00000E+00
 -1       340 1.10357E-05 1.05178E-05-1.32349E-23
 -1       406 4.37864E-05 9.85824E-07 1.32349E-23
 -1       407 4.28191E-05 1.12627E-06 0.00000E+00
 -1       408 4.17226E-05 1.26649E-06 1.32349E-23
 -1       409 4.04972E-05 1.40631E-06 0.00000E+00
 -1       410 3.91429E-05 1.54543E-06 0.00000E+00
 -1       521 6.98244E-03-2.75220E-04-2.11758E-22
 -1       522 6.48985E-03 2.79236E-04 0.00000E+00
 -1       523 5.57863E-03 9.82917E-04 2.11758E-22
 -1       524 4.35345E-03 1.68154E-03-5.29396E-23
 -1       525 3.01469E-03 2.36084E-03 0.00000E+00
 -1       526 1.78815E-03 3.06401E-03 0.00000E+00
 -1       527 8.59659E-04 3.76564E-03-4.23516E-22
 -1       528 3.22173E-04 4.34804E-03 0.00000E+00
 -1       529 1.65558E-04 4.59657E-03 4.23516E-22
 -1       530 1.95149E-04 4.42041E-03 1.05879E-22
 -1       531 2.30416E-04 3.79629E-03 0.00000E+00
 -1       532 1.57663E-04 2.87563E-03-5.29396E-23
 -1       533 2.75521E-05 1.85082E-03 1.05879E-22
 -1       534-4.51663E-05 9.20066E-04-5.29396E-23
 -1       535-2.07543E-05 2.63362E-04 2.11758E-22
 -1       536 1.71397E-05 7.12040E-06 0.00000E+00
 -1       537 1.84008E-05 4.43140E-06 1.32349E-23
 -1       538 1.96610E-05 2.55779E-06 0.00000E+00
 -1       539 2.09296E-05 7.05401E-07 0.00000E+00
 -1       540 2.21986E-05-1.13654E-06 2.64698E-23
 -1       541 2.34691E-05-2.97821E-06 2.64698E-23
 -1       542 2.47399E-05-4.81977E-06-5.29396E-23
 -1       543 2.60110E-05-6.66134E-06-2.64698E-23
 -1       544 2.72820E-05-8.50288E-06-5.29396E-23
 -1       545 2.85527E-05-1.03444E-05 2.64698E-23
 -1       546 2.98233E-05-1.21859E-05 0.00000E+00
 -1       547 3.10919E-05-1.40270E-05 0.00000E+00
 -1       548 3.23603E-05-1.58579E-05 0.00000E+00
 -1       549 3.36194E-05-1.76677E-05 0.00000E+00
 -1       550 3.48826E-05-1.86794E-05 2.64698E-23
 -1       551 1.83015E-05 1.15266E-05 0.00000E+00
 -1       552 1.87153E-05 1.15874E-05 0.00000E+00
 -1       553 1.83325E-05 1.16482E-05 0.00000E+00
 -1       554 1.83267E-05 1.17037E-05 0.00000E+00
 -1       555 1.98713E-05 1.17505E-05 0.00000E+00
 -1       556 1.77502E-05 6.46815E-06 0.00000E+00
 -1       557 1.94012E-05 1.90120E-06 0.00000E+00
 -1       558 2.08902E-05-2.23188E-06 0.00000E+00
 -1       559 2.22183E-05-5.93422E-06 0.00000E+00
 -1       560 2.33873E-05-9.20857E-06 0.00000E+00
 -1       561 2.43982E-05-1.20581E-05 0.00000E+00
 -1       562 2.52521E-05-1.44859E-05 0.00000E+00
 -1       563 2.59500E-05-1.64954E-05 0.00000E+00
 -1       564 2.64931E-05-1.80898E-05 0.00000E+00
 -1       565 2.68824E-05-1.92724E-05 0.00000E+00
 -1       566 2.71190E-05-2.00466E-05 0.00000E+00
 -1       567 2.72039E-05-2.04157E-05 0.00000E+00
 -1       568 2.71383E-05-2.03831E-05 0.00000E+00
 -1       569 2.69235E-05-1.99524E-05 0.00000E+00
 -1       570 2.65606E-05-1.91271E-05 0.00000E+00
 -1       571 3.61921E-05-1.67003E-05 1.65436E-24
 -1       572 3.62890E-05-1.53966E-05 1.24077E-24
 -1       573 3.63866E-05-1.41478E-05 2.48154E-24
 -1       574 3.64845E-05-1.29441E-05 1.65436E-24
 -1       575 3.65826E-05-1.17753E-05-3.30872E-24
 -1       576 3.66807E-05-1.06313E-05-8.27181E-25
 -1       577 3.67789E-05-9.50181E-06 0.00000E+00
 -1       578 3.68770E-05-8.37680E-06 0.00000E+00
 -1       579 3.69752E-05-7.24603E-06 3.30872E-24
 -1       580 3.70733E-05-6.09934E-06 1.65436E-24
 -1       581 3.71714E-05-4.92657E-06 0.00000E+00
 -1       582 3.72695E-05-3.71752E-06 0.00000E+00
 -1       583 3.73675E-05-2.46207E-06 6.61744E-24
 -1       584 3.74655E-05-1.15014E-06 0.00000E+00
 -1       585 3.75633E-05 2.28282E-07 0.00000E+00
 -1       586 3.44579E-05-1.80403E-05 0.00000E+00
 -1       587 3.27656E-05-1.80134E-05-8.27181E-25
 -1       588 3.10491E-05-1.79869E-05 0.00000E+00
 -1       589 2.93384E-05-1.79610E-05 2.06795E-25
 -1       590 2.76632E-05-1.79356E-05 0.00000E+00
 -1       591 3.55478E-05-1.66743E-05 1.03398E-25
 -1       592 3.50214E-05-1.53520E-05 0.00000E+00
 -1       593 3.45170E-05-1.40886E-05 0.00000E+00
 -1       594 3.40299E-05-1.28725E-05 4.13590E-25
 -1       595 3.35559E-05-1.16916E-05 0.00000E+00
 -1       596 3.30907E-05-1.05342E-05 0.00000E+00
 -1       597 3.26297E-05-9.38821E-06 0.00000E+00
 -1       598 3.21687E-05-8.24192E-06 0.00000E+00
 -1       599 3.17030E-05-7.08342E-06 8.27181E-25
 -1       600 3.12283E-05-5.90085E-06 0.00000E+00
 -1       601 3.07401E-05-4.68238E-06 0.00000E+00
 -1       602 3.02340E-05-3.41610E-06 0.00000E+00
 -1       603 2.97056E-05-2.09016E-06 2.58494E-25
 -1       604 2.91508E-05-6.92637E-07 0.00000E+00
 -1       605 2.85648E-05 7.88305E-07-8.27181E-25
 -1       606 3.76810E-05 3.36020E-06 0.00000E+00
 -1       607 3.76973E-05 5.21145E-06 0.00000E+00
 -1       608 3.77125E-05 7.22608E-06 0.00000E+00
 -1       609 3.77269E-05 9.39258E-06 0.00000E+00
 -1       610 3.77408E-05 1.16995E-05-6.61744E-24
 -1       611 3.77544E-05 1.41350E-05 0.00000E+00
 -1       612 3.77677E-05 1.66874E-05 0.00000E+00
 -1       613 3.77808E-05 1.93451E-05 0.00000E+00
 -1       614 3.77935E-05 2.20963E-05 0.00000E+00
 -1       615 3.78061E-05 2.49292E-05 0.00000E+00
 -1       616 3.78185E-05 2.78322E-05 0.00000E+00
 -1       617 3.78306E-05 3.07935E-05 0.00000E+00
 -1       618 3.78427E-05 3.38014E-05 0.00000E+00
 -1       619 3.78546E-05 3.68442E-05-8.27181E-25
 -1       620 3.78663E-05 3.99102E-05 0.00000E+00
 -1       621 3.60938E-05 1.79632E-06 3.30872E-24
 -1       622 3.44990E-05 1.91083E-06 0.00000E+00
 -1       623 3.28817E-05 2.02530E-06 0.00000E+00
 -1       624 3.12472E-05 2.13958E-06 0.00000E+00
 -1       625 2.96007E-05 2.25366E-06 0.00000E+00
 -1       626 3.71473E-05 3.39184E-06 0.00000E+00
 -1       627 3.65789E-05 5.24871E-06 0.00000E+00
 -1       628 3.59598E-05 7.24055E-06 0.00000E+00
 -1       629 3.52950E-05 9.35384E-06 0.00000E+00
 -1       630 3.45895E-05 1.15751E-05 6.61744E-24
 -1       631 3.38484E-05 1.38905E-05 0.00000E+00
 -1       632 3.30769E-05 1.62866E-05-6.61744E-24
 -1       633 3.22801E-05 1.87497E-05-6.61744E-24
 -1       634 3.14632E-05 2.12662E-05 0.00000E+00
 -1       635 3.06313E-05 2.38224E-05 1.65436E-24
 -1       636 2.97894E-05 2.64047E-05 3.30872E-24
 -1       637 2.89429E-05 2.89995E-05 0.00000E+00
 -1       638 2.80966E-05 3.15931E-05 0.00000E+00
 -1       639 2.72557E-05 3.41720E-05-1.65436E-24
 -1       640 2.64250E-05 3.67225E-05 3.30872E-24
 -1       656 3.51423E-05 4.23753E-05 0.00000E+00
 -1       657 3.29957E-05 4.17395E-05 0.00000E+00
 -1       658 3.12163E-05 4.11062E-05 1.32349E-23
 -1       659 2.95727E-05 4.04737E-05 0.00000E+00
 -1       660 2.77927E-05 3.98389E-05 6.61744E-24
 -1       661 3.68656E-05 4.60310E-05 0.00000E+00
 -1       662 3.58854E-05 4.90047E-05 0.00000E+00
 -1       663 3.49310E-05 5.19095E-05 3.30872E-24
 -1       664 3.40023E-05 5.47486E-05 0.00000E+00
 -1       665 3.30979E-05 5.75238E-05 0.00000E+00
 -1       666 3.22169E-05 6.02372E-05 1.65436E-24
 -1       667 3.13587E-05 6.28905E-05 0.00000E+00
 -1       668 3.05227E-05 6.54851E-05 1.65436E-24
 -1       669 2.97084E-05 6.80223E-05 3.30872E-24
 -1       670 2.89154E-05 7.05029E-05 0.00000E+00
 -1       671 2.81434E-05 7.29277E-05 3.30872E-24
 -1       672 2.73922E-05 7.52971E-05 0.00000E+00
 -1       673 2.66617E-05 7.76113E-05 0.00000E+00
 -1       674 2.59507E-05 7.98698E-05 1.65436E-24
 -1       675 2.52611E-05 8.20730E-05 0.00000E+00
 -1       676 3.50387E-05 8.48540E-05-3.30872E-24
 -1       677 3.29388E-05 8.47258E-05 0.00000E+00
 -1       678 3.08419E-05 8.45977E-05 0.00000E+00
 -1       679 2.87497E-05 8.44700E-05 0.00000E+00
 -1       680 2.66635E-05 8.43423E-05 0.00000E+00
 -1       771 2.51246E-05 4.39967E-06 0.00000E+00
 -1       772 2.56382E-05-1.74428E-06-2.64698E-23
 -1       773 2.57203E-05-6.72822E-06 0.00000E+00
 -1       774 2.53927E-05-1.06186E-05 0.00000E+00
 -1       775 2.46822E-05-1.34826E-05 5.29396E-23
 -1       776 2.36155E-05-1.53931E-05 0.00000E+00
 -1       777 2.22202E-05-1.64256E-05 0.00000E+00
 -1       778 2.05252E-05-1.66591E-05 0.00000E+00
 -1       779 1.85607E-05-1.61751E-05-5.29396E-23
 -1       780 1.63579E-05-1.50580E-05 2.64698E-23
 -1       781 1.39489E-05-1.33937E-05-5.29396E-23
 -1       782 1.13668E-05-1.12708E-05 2.64698E-23
 -1       783 8.64540E-06-8.77874E-06 5.29396E-23
 -1       784 5.81963E-06-6.00855E-06-2.64698E-23
 -1       785 2.92396E-06-3.05223E-06 0.00000E+00
 -1       786 2.61650E-05-1.65308E-05 1.65436E-24
 -1       787 2.62832E-05-1.52260E-05 1.65436E-24
 -1       788 2.64011E-05-1.39768E-05 0.00000E+00
 -1       789 2.65201E-05-1.27626E-05 0.00000E+00
 -1       790 2.66392E-05-1.15727E-05 0.00000E+00
 -1       791 2.67585E-05-1.03968E-05-1.65436E-24
 -1       792 2.68778E-05-9.22855E-06-3.30872E-24
 -1       793 2.69972E-05-8.06158E-06 0.00000E+00
 -1       794 2.71166E-05-6.88993E-06 0.00000E+00
 -1       795 2.72360E-05-5.70764E-06 0.00000E+00
 -1       796 2.73553E-05-4.50567E-06 0.00000E+00
 -1       797 2.74745E-05-3.27482E-06-1.65436E-24
 -1       798 2.75937E-05-1.99757E-06 0.00000E+00
 -1       799 2.77124E-05-6.56122E-07 0.00000E+00
 -1       800 2.78310E-05 7.85939E-07-3.30872E-24
 -1       801 2.35750E-05-1.49809E-05 0.00000E+00
 -1       802 1.91477E-05-1.19396E-05 2.64698E-23
 -1       803 1.38714E-05-8.91132E-06 0.00000E+00
 -1       804 8.72257E-06-5.89311E-06 2.64698E-23
 -1       805 3.98410E-06-2.86077E-06 0.00000E+00
 -1       806 2.54149E-05-1.65919E-05 0.00000E+00
 -1       807 2.47902E-05-1.53208E-05 1.65436E-24
 -1       808 2.41787E-05-1.40874E-05 0.00000E+00
 -1       809 2.35768E-05-1.28813E-05-1.65436E-24
 -1       810 2.29812E-05-1.16924E-05-3.30872E-24
 -1       811 2.23880E-05-1.05102E-05 0.00000E+00
 -1       812 2.17935E-05-9.32446E-06 0.00000E+00
 -1       813 2.11938E-05-8.12504E-06 1.65436E-24
 -1       814 2.05851E-05-6.90162E-06-3.30872E-24
 -1       815 1.99634E-05-5.64398E-06 0.00000E+00
 -1       816 1.93251E-05-4.34189E-06 0.00000E+00
 -1       817 1.86662E-05-2.98509E-06 0.00000E+00
 -1       818 1.79829E-05-1.56338E-06 1.65436E-24
 -1       819 1.72715E-05-6.65572E-08 0.00000E+00
 -1       820 1.65284E-05 1.51558E-06 1.65436E-24
 -1       821 2.78188E-05 3.04291E-06-8.27181E-25
 -1       822 2.76816E-05 1.78595E-06 1.65436E-24
 -1       823 2.75426E-05-7.72510E-07-3.30872E-24
 -1       824 2.74003E-05-3.99142E-06-1.65436E-24
 -1       825 2.72583E-05-7.04814E-06 0.00000E+00
 -1       826 2.71185E-05-9.12088E-06-1.65436E-24
 -1       827 2.69805E-05-9.65999E-06 0.00000E+00
 -1       828 2.68414E-05-8.12528E-06-1.65436E-24
 -1       829 2.66973E-05-4.54929E-06 0.00000E+00
 -1       830 2.65444E-05 1.02283E-06 1.65436E-24
 -1       831 2.63834E-05 7.99477E-06 0.00000E+00
 -1       832 2.62170E-05 1.57614E-05 1.65436E-24
 -1       833 2.60509E-05 2.34978E-05 0.00000E+00
 -1       834 2.58923E-05 3.03796E-05 0.00000E+00
 -1       835 2.57416E-05 3.58172E-05 8.27181E-25
 -1       836 2.61225E-05 2.50359E-06 0.00000E+00
 -1       837 2.40995E-05 2.64435E-06 0.00000E+00
 -1       838 2.19645E-05 2.78468E-06-3.30872E-24
 -1       839 1.98038E-05 2.92409E-06-1.65436E-24
 -1       840 1.77041E-05 3.06340E-06-4.13590E-25
 -1       856 2.55503E-05 4.17195E-05-1.03398E-25
 -1       857 2.54872E-05 4.43777E-05 0.00000E+00
 -1       858 2.54240E-05 4.71787E-05 0.00000E+00
 -1       859 2.53596E-05 5.00959E-05 8.27181E-25
 -1       860 2.52949E-05 5.31020E-05-1.65436E-24
 -1       861 2.52298E-05 5.61698E-05 0.00000E+00
 -1       862 2.51645E-05 5.92719E-05 1.65436E-24
 -1       863 2.50992E-05 6.23808E-05 8.27181E-25
 -1       864 2.50340E-05 6.54688E-05-1.65436E-24
 -1       865 2.49689E-05 6.85086E-05-8.27181E-25
 -1       866 2.49040E-05 7.14729E-05 0.00000E+00
 -1       867 2.48394E-05 7.43343E-05-8.27181E-25
 -1       868 2.47752E-05 7.70659E-05 1.65436E-24
 -1       869 2.47113E-05 7.96412E-05-8.27181E-25
 -1       870 2.46479E-05 8.20336E-05 1.65436E-24
 -1       871 2.34173E-05 3.92284E-05-8.27181E-25
 -1       872 2.13779E-05 3.92232E-05 0.00000E+00
 -1       873 1.94267E-05 3.92176E-05 0.00000E+00
 -1       874 1.74997E-05 3.92113E-05-1.03398E-25
 -1       875 1.55330E-05 3.92042E-05-1.24077E-24
 -1       876 2.48141E-05 4.17312E-05 0.00000E+00
 -1       877 2.39926E-05 4.43143E-05 0.00000E+00
 -1       878 2.31440E-05 4.69700E-05 0.00000E+00
 -1       879 2.22720E-05 4.96887E-05 0.00000E+00
 -1       880 2.13797E-05 5.24611E-05-3.30872E-24
 -1       881 2.04709E-05 5.52777E-05 1.65436E-24
 -1       882 1.95488E-05 5.81292E-05 3.30872E-24
 -1       883 1.86171E-05 6.10062E-05-1.65436E-24
 -1       884 1.76793E-05 6.38993E-05 3.30872E-24
 -1       885 1.67389E-05 6.67993E-05 1.65436E-24
 -1       886 1.57993E-05 6.96967E-05-3.30872E-24
 -1       887 1.48642E-05 7.25823E-05 1.65436E-24
 -1       888 1.39368E-05 7.54465E-05 3.30872E-24
 -1       889 1.30203E-05 7.82800E-05 0.00000E+00
 -1       890 1.21183E-05 8.10732E-05 1.65436E-24
 -1       891 2.25449E-05 8.41504E-05 1.65436E-24
 -1       892 2.04765E-05 8.40832E-05 8.27181E-25
 -1       893 1.83451E-05 8.40158E-05 0.00000E+00
 -1       894 1.61162E-05 8.39484E-05 0.00000E+00
 -1       895 1.37551E-05 8.38809E-05 4.13590E-25
 -1       956 1.56117E-05 5.06685E-06 0.00000E+00
 -1       957 1.54696E-05 7.03412E-06 8.27181E-25
 -1       958 1.53268E-05 9.08604E-06 3.30872E-24
 -1       959 1.51837E-05 1.12133E-05 1.65436E-24
 -1       960 1.50404E-05 1.34065E-05 3.30872E-24
 -1       961 1.48968E-05 1.56564E-05 0.00000E+00
 -1       962 1.47532E-05 1.79534E-05 0.00000E+00
 -1       963 1.46095E-05 2.02881E-05 0.00000E+00
 -1       964 1.44657E-05 2.26511E-05-3.30872E-24
 -1       965 1.43219E-05 2.50330E-05 0.00000E+00
 -1       966 1.41781E-05 2.74244E-05 0.00000E+00
 -1       967 1.40343E-05 2.98158E-05 1.65436E-24
 -1       968 1.38906E-05 3.21976E-05 0.00000E+00
 -1       969 1.37472E-05 3.45607E-05-1.65436E-24
 -1       970 1.36042E-05 3.68955E-05 0.00000E+00
 -1       971 1.33263E-05 4.15338E-05-3.30872E-24
 -1       972 1.31871E-05 4.40028E-05 0.00000E+00
 -1       973 1.30475E-05 4.65857E-05-3.30872E-24
 -1       974 1.29074E-05 4.92678E-05-1.65436E-24
 -1       975 1.27670E-05 5.20344E-05 0.00000E+00
 -1       976 1.26264E-05 5.48708E-05 1.65436E-24
 -1       977 1.24856E-05 5.77621E-05 0.00000E+00
 -1       978 1.23447E-05 6.06935E-05 1.65436E-24
 -1       979 1.22037E-05 6.36503E-05 3.30872E-24
 -1       980 1.20627E-05 6.66177E-05-1.65436E-24
 -1       981 1.19218E-05 6.95808E-05 0.00000E+00
 -1       982 1.17811E-05 7.25249E-05 0.00000E+00
 -1       983 1.16406E-05 7.54350E-05 0.00000E+00
 -1       984 1.15008E-05 7.82966E-05 0.00000E+00
 -1       985 1.13618E-05 8.10946E-05 3.30872E-24
 -3
    1PSTEP                        40          20           1          
  100CL  120 8.08685E-01         409                     0   20           1
 -4  STRESS      6    1
 -5  SXX         1    4    1    1
 -5  SYY         1    4    2    2
 -5  SZZ         1    4    3    3
 -5  SXY         1    4    1    2
 -5  SYZ         1    4    2    3
 -5  SZX         1    4    3    1
 -1         1-4.14500E+06-1.70689E+06-8.11219E+05-1.75563E+06 4.45289E-09-1.40863E-07
 -1         2 5.11110E+06 5.95467E+07 1.30743E+07-2.29984E+07-5.70435E-08 1.04922E-06
 -1         3-9.12812E+01 2.65315E+06-4.44207E+02-6.67030E+02 2.51450E-10 9.08676E-09
 -1         5-1.18353E+02 4.03840E+05 1.04568E+01 1.82898E+00 5.21153E-10 3.26254E-08
 -1         8 5.06438E+06 7.80301E+05 1.52242E+06-1.95863E+06 5.15865E-09 8.44011E-09
 -1         9 2.80762E+07 3.61641E+07 9.86860E+06 1.55041E+07 5.19212E-08 5.21541E-09
 -1        10 2.05473E+03 2.76476E+06 8.43793E+03-4.89762E+03 2.11207E-09 7.36452E-09
 -1        12-1.14367E+02 4.03863E+05 3.46421E+02 1.22252E+01 9.16444E-10 2.31375E-09
 -1        15 3.96160E+03 2.17725E+03 1.28053E+04 1.00692E+01 4.86125E-10 8.93303E-07
 -1        16 3.24792E+07 3.75102E+07 9.35720E+06 3.52747E+07-2.29726E-08-5.90924E-07
 -1        17 3.42475E+07-5.00662E+05 4.49133E+06-5.54124E+06 3.79398E-08-5.54242E-08
 -1        18 9.93262E+05 2.33862E+05 2.13437E+05-7.74153E+04 4.22642E-09 1.39516E-09
 -1        19 1.24351E+05 1.53941E+05-2.50018E+02 2.55575E+04-2.43126E-09-1.58034E-09
 -1        20-3.41986E+04-5.89341E+05-1.28836E+05 5.24179E+04 9.55333E-09-4.96645E-09
 -1        21-5.64970E+01-3.61079E+05-1.18583E+03-5.20401E+02-2.97106E-08 1.83342E-09
 -1        24 5.56181E+07-3.21508E+06 6.45764E+06-9.72098E+06 1.53159E-07 4.08048E-08
 -1        25 4.48908E+05 1.84124E+06 4.67802E+05-8.96784E+04 1.49266E-09 7.47314E-09
 -1        26-7.31264E+03 1.12342E+05-1.66785E+04-2.52682E+04 2.79251E-09-4.60318E-11
 -1        27-9.75898E+04-3.24697E+05-1.22255E+05 7.43114E+04 1.05573E-08-5.18806E-09
 -1        28 2.85473E+04-9.74517E+04 2.03353E+04 3.52986E+04 1.00047E-08-3.31853E-09
 -1        32-3.50012E+05 4.37963E+06 1.60744E+06-6.95331E+05 2.96859E-09 7.66709E-08
 -1        33-1.81597E+05 9.91241E+04 3.48040E+04-6.75278E+04 4.14180E-09-1.57646E-09
 -1        34-2.44964E+05-2.32210E+04 4.50991E+02 7.16079E+04 1.15814E-08 1.20993E-09
 -1        35-2.88073E+04-3.86608E+04-1.52311E+03 6.29671E+04 1.50224E-08-4.28554E-09
 -1        51 3.37600E+04-1.10046E+06 7.94760E+04-1.32276E+06-2.91038E-10 5.40182E-07
 -1        52 1.96666E+04-1.09685E+06 4.86551E+04-1.54386E+06-1.25874E-09 4.34666E-07
 -1        53 1.31953E+04-1.11961E+06 3.56105E+04-1.31826E+06 2.36469E-09-6.59202E-09
 -1        54 3.16328E+04-1.11929E+06 5.01789E+04-1.54808E+06-7.13044E-10-3.70779E-07
 -1        55 5.63523E+04-1.13682E+06 8.49527E+04-1.31778E+06 8.73115E-10 6.61941E-07
 -1        56-7.98575E+06-8.67632E+05-6.50600E+05-2.96872E+06-8.27604E-08-2.24158E-07
 -1        57-7.96204E+06-1.27169E+06-3.70251E+05-2.75515E+06-3.20942E-08 5.69911E-07
 -1        58-8.33119E+06-8.14386E+05-1.75473E+05-2.61429E+06-3.07045E-09 2.13462E-07
 -1        59-7.58558E+06-1.42341E+06-6.38609E+04-3.39695E+06-5.18612E-08-1.50336E-07
 -1        60-8.43060E+06-6.60453E+05-3.56214E+04-2.37688E+06-2.18060E-08 1.02486E-07
 -1        61-7.54396E+06-1.52915E+06-1.36323E+04-3.67170E+06 4.31120E-08-2.99960E-07
 -1        62-8.43319E+06-6.64200E+05-1.20587E+04-2.37602E+06 3.72202E-08-3.50487E-07
 -1        63-7.56347E+06-1.38770E+06 1.20530E+04-3.40386E+06-1.14233E-08 1.48074E-07
 -1        64-8.35071E+06-8.45667E+05-4.47321E+04-2.60847E+06-1.38971E-08 4.93550E-07
 -1        65-7.80639E+06-1.01337E+06 1.34778E+04-2.80317E+06 4.57803E-08 1.11011E-07
 -1        66-8.11964E+06-1.08883E+06-8.77761E+04-2.92801E+06-9.61882E-09-1.40186E-07
 -1        67-8.38557E+06-5.98530E+05-9.76788E+04-2.26949E+06 6.44359E-08-1.46887E-07
 -1        68-7.81722E+06-1.22887E+06-2.22619E+05-3.16777E+06-7.02221E-09-5.29515E-07
 -1        69-9.03418E+06-6.60486E+05-6.04658E+05-1.97359E+06 1.94414E-08 1.14203E-07
 -1        70-7.55243E+06-9.79677E+05-9.02805E+05-3.27874E+06-8.50414E-08-1.42551E-07
 -1        86-5.18469E+06-3.46026E+07-7.35157E+06 1.05094E+07 5.22996E-07 4.69125E-07
 -1        87 9.31121E+06 1.75586E+07 5.92734E+06-1.51312E+07 6.46658E-07-1.16814E-06
 -1        88-2.20265E+06 1.20181E+06 6.19368E+05 4.58164E+06 6.79232E-07 4.21613E-07
 -1        89 1.14632E+07 1.72040E+07 6.03722E+06-1.55438E+07 7.74206E-07-2.96641E-08
 -1        90-7.15147E+06-3.43766E+07-8.35579E+06 1.10346E+07 1.56666E-07 2.35712E-07
 -1       121-4.89892E+01 2.65329E+06-5.60605E+02 3.33574E+02-3.20412E-10 3.16504E-09
 -1       122-2.90855E+02 2.65302E+06-1.00066E+03-1.34129E+03 8.11482E-10 5.47425E-09
 -1       123 9.08486E+01 2.65343E+06-1.73305E+03 1.00815E+03-1.02727E-09 1.04137E-09
 -1       124-2.72535E+03 2.65157E+06-4.37520E+03-2.61026E+03 1.53068E-09-3.83807E-09
 -1       125 1.65210E+03 2.65478E+06-6.40533E+03 1.60460E+03-1.41335E-09-1.55524E-09
 -1       191-1.24547E+02 4.03850E+05 6.89168E+00-9.70843E-01 7.24006E-10 4.07817E-08
 -1       192-1.19392E+02 4.03840E+05 2.24113E+01 5.65317E+00 9.46630E-10 5.82604E-08
 -1       193-1.27265E+02 4.03850E+05 3.62253E+01-5.02550E+00 1.15733E-09 3.72129E-08
 -1       194-1.22715E+02 4.03844E+05 8.54338E+01 1.27625E+01 6.04274E-10 2.01780E-08
 -1       195-1.32480E+02 4.03847E+05 1.61639E+02-8.44654E+00 1.93977E-09 1.05028E-08
 -1       251 2.81836E+07-1.17060E+06 2.67577E+06 9.59572E+04 3.01857E-08-2.01399E-08
 -1       252 2.97330E+07 1.40527E+06 1.95621E+06-2.03776E+06 4.42715E-08-4.32890E-07
 -1       253 2.88272E+07-1.22236E+05 7.15290E+05-1.07663E+06-1.97724E-08 1.93773E-07
 -1       254 2.90167E+07 2.18292E+05 4.40840E+05-9.39022E+05 3.45417E-08-4.44365E-07
 -1       255 2.89053E+07 9.68828E+03 1.86750E+05-1.00194E+06-3.29583E-08 1.84402E-07
 -1       256 2.89337E+07 6.46768E+04 1.11003E+05-1.00961E+06 2.10018E-08 5.73040E-07
 -1       257 2.89172E+07 3.07292E+04 5.76214E+04-1.00632E+06 4.53711E-08 2.53131E-08
 -1       258 2.89230E+07 4.30315E+04 4.84481E+04-1.00523E+06-4.89507E-08 5.28902E-07
 -1       259 2.89175E+07 3.12677E+04 5.36244E+04-1.00637E+06 3.23707E-08-1.63658E-07
 -1       260 2.89313E+07 6.01010E+04 9.92009E+04-1.01048E+06 7.90465E-10-2.84905E-07
 -1       261 2.89076E+07 1.37099E+04 1.66214E+05-1.00103E+06 7.13185E-08-5.50936E-08
 -1       262 2.90035E+07 1.86935E+05 3.87955E+05-9.27524E+05-2.14684E-08-5.16768E-07
 -1       263 2.88391E+07-9.50381E+04 6.34825E+05-1.08908E+06-7.20320E-09-3.84258E-07
 -1       264 2.97650E+07 1.25786E+06 1.75603E+06-2.23922E+06 6.88742E-08 9.33011E-07
 -1       265 2.81481E+07-1.05155E+06 2.33704E+06 3.09663E+05 9.19672E-08 5.30388E-07
 -1       266-7.17061E+04-3.35066E+04 1.68344E+05-2.15566E+02-1.01863E-10-1.08264E-07
 -1       267 8.31364E+04 3.90865E+04 1.18931E+05 2.48581E+02 2.61934E-09-1.52185E-07
 -1       268-1.11478E+04-5.53371E+03 4.42091E+04-3.16813E+01 2.12640E-09 6.94045E-07
 -1       269 1.31633E+04 6.62516E+03 2.87324E+04 3.68954E+01-1.16961E-09 3.83837E-07
 -1       270-1.97557E+03-1.08824E+03 1.38697E+04-5.00729E+00 1.35515E-09-2.49277E-08
 -1       271-1.02511E+07-1.21265E+06-8.92015E+05-3.86552E+06 6.01540E-08-3.77535E-07
 -1       272-1.03339E+07-1.86314E+06-5.43188E+05-3.89877E+06-8.21092E-08-6.57499E-07
 -1       273-1.05134E+07-1.31302E+06-2.24759E+05-3.70634E+06 3.03990E-08-6.46454E-07
 -1       274-1.00456E+07-1.76173E+06-1.06059E+05-4.22574E+06-1.02751E-07-4.41854E-07
 -1       275-1.06142E+07-1.23546E+06-5.51542E+04-3.60627E+06 1.42827E-07-3.23416E-08
 -1       276-9.99696E+06-1.82556E+06-2.16100E+04-4.43467E+06-1.62370E-07 2.28770E-07
 -1       277-1.06564E+07-1.18388E+06-1.15038E+04-3.55851E+06 4.85743E-08 1.25522E-07
 -1       278-9.99349E+06-1.84431E+06-7.98196E+03-4.48923E+06 4.07363E-08-4.77858E-07
 -1       279-1.06472E+07-1.19686E+06-1.38493E+04-3.56958E+06 8.63656E-09 1.32437E-07
 -1       280-1.00012E+07-1.79905E+06-2.02325E+04-4.37312E+06-1.01263E-07-2.96626E-07
 -1       281-1.05877E+07-1.26973E+06-6.00818E+04-3.63733E+06 2.67901E-08 4.94278E-07
 -1       282-1.00744E+07-1.70618E+06-1.03983E+05-4.12435E+06-1.30647E-07 4.60106E-07
 -1       283-1.04746E+07-1.35782E+06-2.27482E+05-3.75176E+06-2.29338E-08 1.03144E-07
 -1       284-1.04049E+07-1.78052E+06-5.39753E+05-3.79094E+06-5.68689E-08 5.98375E-07
 -1       285-1.02074E+07-1.25702E+06-8.86508E+05-3.91681E+06 3.82497E-08-1.22469E-07
 -1       301-7.34299E+04 1.28486E+05-1.55278E+05 1.96860E+06-2.39525E-08 2.29469E-07
 -1       302-5.30962E+04 7.80869E+04-5.94343E+04 2.88188E+06-5.89353E-09 1.05245E-06
 -1       303-2.03578E+04 6.74303E+04 1.08914E+04 1.96544E+06 8.86212E-09-5.13508E-07
 -1       304-7.79219E+03 1.22507E+05 9.06598E+04 2.88137E+06 1.38098E-08-6.21963E-07
 -1       305-2.63329E+04 8.83640E+04 1.76419E+05 1.97050E+06-3.17668E-08-3.36149E-07
 -1       306-4.30215E+07-5.38305E+07-2.77594E+07-3.15996E+07 1.56229E-07 3.16417E-07
 -1       307 1.59550E+07 1.21502E+08 2.15320E+07 3.27987E+07 1.33441E-06-4.64206E-07
 -1       308-4.20639E+06-3.72847E+07-1.01533E+07 6.71401E+06-5.26779E-09 2.15136E-07
 -1       309 1.05058E+07 2.89139E+07 8.23993E+06-4.40041E+07 2.65427E-08 4.29223E-07
 -1       310 1.80884E+06-2.61738E+06 1.29094E+06 8.68738E+06 1.13097E-07 2.57045E-07
 -1       311-3.31749E+06 7.17413E+07 1.21306E+07-2.01539E+07-1.17486E-06 1.41482E-06
 -1       312-1.15095E+07-5.93342E+07-1.80258E+07-1.10684E+07-7.07543E-07-3.64031E-07
 -1       313 6.94764E+07 9.13885E+07 2.54359E+07 7.03038E+07 1.89524E-07-6.27944E-07
 -1       314-6.84178E+07-2.22651E+07-2.40378E+07-2.36146E+07 1.93948E-07 1.26311E-08
 -1       315 1.27272E+08 4.21602E+06 2.11971E+07-3.89602E+06 6.70203E-07 1.73983E-07
 -1       316-3.00938E+07-1.15585E+07-9.76640E+06 1.54149E+07 3.57977E-07 8.17119E-07
 -1       317 2.66219E+05 3.90279E+07 8.22958E+06-3.99341E+07-1.57981E-06 2.70782E-07
 -1       318 3.17050E+06-4.23440E+06 9.00608E+05 8.04635E+06 1.01875E-06 2.62298E-07
 -1       319 5.04707E+07 2.18896E+07 1.21926E+07-3.99227E+07 6.01940E-08 4.23344E-07
 -1       320-6.15275E+07-1.39082E+07-2.10627E+07 7.57427E+06-2.17929E-07-5.06989E-08
 -1       336-2.92303E+03 2.87213E+06 2.46115E+04 3.29821E+03 5.27962E-09 2.66755E-09
 -1       337 9.33193E+03 2.88135E+06 3.80152E+04-7.74539E+03 1.07939E-08 3.80987E-09
 -1       338-5.07531E+03 2.87012E+06 5.91957E+04 4.44742E+03 7.75253E-09 1.18052E-09
 -1       339 6.60918E+04 2.91591E+06 1.40362E+05-1.02282E+04 1.33878E-08-1.57888E-09
 -1       340-4.71823E+04 2.83761E+06 2.18997E+05 5.71488E+03 9.79344E-09-6.06087E-09
 -1       406-9.33804E+01 4.03832E+05 6.78182E+02-4.84189E+00 2.47405E-09-1.49521E-09
 -1       407 1.24722E+02 4.03983E+05 1.45368E+03-2.84616E+01 3.31966E-10-1.62436E-09
 -1       408 6.30080E+02 4.03726E+05 2.89597E+03 3.32919E+01 2.92584E-09 1.16415E-10
 -1       409 3.03374E+03 4.04908E+05 6.53150E+03-3.62015E+02 8.82210E-11 1.67074E-09
 -1       410 8.92109E+03 4.02887E+05 1.33288E+04 3.50451E+02 3.31784E-09 1.62800E-09
 -1       521-4.30432E+07-5.28904E+07-2.92284E+07-2.78294E+07-2.51457E-08-2.76836E-07
 -1       522 1.31621E+07 1.23503E+08 2.02783E+07 3.22292E+07 1.25403E-06-2.48547E-07
 -1       523-5.18678E+06-3.42757E+07-1.00133E+07 6.19032E+06 7.44942E-07 3.29921E-07
 -1       524 1.13352E+07 2.51546E+07 7.97156E+06-4.73625E+07-4.47035E-07 1.41528E-06
 -1       525 2.08959E+06-3.05486E+06 1.58889E+06 8.18160E+06-8.46339E-08 1.37399E-06
 -1       526-4.07526E+06 7.18584E+07 1.17628E+07-2.38822E+07 1.55997E-08 4.18222E-07
 -1       527-1.34547E+07-5.61754E+07-1.87806E+07-9.54807E+06-5.01939E-07 5.06174E-07
 -1       528 6.94165E+07 9.29758E+07 2.40651E+07 7.33966E+07 1.07510E-07-6.30622E-07
 -1       529-6.57961E+07-2.42183E+07-2.54728E+07-2.07267E+07 7.62055E-07-3.21830E-07
 -1       530 1.29035E+08 2.22914E+06 2.00281E+07-6.45317E+06 8.26665E-07 1.44937E-08
 -1       531-2.77283E+07-1.20038E+07-9.66231E+06 1.39115E+07 3.33996E-07 3.24682E-07
 -1       532-5.40732E+06 4.19854E+07 7.97684E+06-4.10418E+07-1.00504E-06 3.55300E-07
 -1       533 2.62385E+06-3.79529E+06 1.17359E+06 7.84290E+06-8.07748E-07 7.99264E-07
 -1       534 4.77407E+07 2.40867E+07 1.17918E+07-4.32030E+07 8.09479E-07-6.21250E-07
 -1       535-5.80735E+07-1.62619E+07-2.20369E+07 7.25961E+06 1.65775E-07-5.06785E-07
 -1       536 3.59312E+06-1.20253E+05 2.78524E+05-2.11432E+04-2.56019E-08-6.00994E-09
 -1       537 3.71653E+06 1.39219E+05 1.97423E+05 8.45447E+03 5.41053E-09-5.24233E-09
 -1       538 3.64122E+06-1.87951E+04 7.23116E+04-6.64558E+03 9.82908E-10-2.56841E-09
 -1       539 3.66098E+06 2.17825E+04 4.54992E+04-6.24078E+03 3.91424E-10-7.64885E-10
 -1       540 3.64893E+06-2.93563E+03 1.87475E+04-6.45044E+03 5.32571E-09-8.55835E-10
 -1       541 3.65210E+06 3.49262E+03 1.13853E+04-6.44030E+03-2.86247E-08 1.39926E-09
 -1       542 3.65019E+06-5.20691E+02 5.94846E+03-6.44625E+03-9.12824E-06-2.03925E-08
 -1       543 3.65088E+06 1.11716E+03 5.40993E+03-6.44455E+03-1.82068E-05-3.47632E-08
 -1       544 3.65017E+06-5.61850E+02 6.31960E+03-6.44623E+03-9.12799E-06-2.18545E-08
 -1       545 3.65229E+06 3.84647E+03 1.24579E+04-6.44440E+03-2.98219E-08 1.98338E-09
 -1       546 3.64876E+06-3.24806E+03 2.06782E+04-6.44635E+03 3.07342E-10-1.87356E-10
 -1       547 3.66213E+06 2.41069E+04 5.03122E+04-6.60663E+03 7.86116E-09 3.07682E-09
 -1       548 3.64023E+06-2.08049E+04 7.99959E+04-6.28379E+03 8.02195E-09-5.27507E-10
 -1       549 3.72328E+06 1.54141E+05 2.18398E+05-2.08038E+04 5.47020E-09-1.85901E-09
 -1       550 3.58733E+06-1.33147E+05 3.08258E+05 7.74966E+03-3.67777E-10-2.08092E-09
 -1       551-1.76790E+04 2.04068E+05-2.48617E+04-1.55072E+06 1.09312E-08-1.93540E-09
 -1       552-1.99229E+03 1.87503E+05 1.17672E+04-2.20844E+06-3.34694E-10-8.87303E-09
 -1       553 2.21221E+02 1.82358E+05 4.86124E+04-1.54770E+06 6.47560E-09 7.45786E-10
 -1       554 2.55842E+04 2.30771E+05 1.23175E+05-2.20732E+06 6.53381E-09 7.01402E-09
 -1       555 1.47434E+04 1.88774E+05 2.22322E+05-1.55233E+06 1.66947E-08 8.49832E-09
 -1       556-1.15672E+05-2.41359E+04-5.94739E+04-3.21126E+04 5.48971E-09 6.46469E-09
 -1       557-1.28194E+05-2.03474E+04-3.08205E+04-3.84722E+04 9.09495E-11 3.64344E-09
 -1       558-1.19568E+05-1.33653E+04-1.30993E+04-3.91510E+04 3.67072E-09-5.77529E-09
 -1       559-1.21429E+05-1.23155E+04-6.44704E+03-3.81624E+04-5.48607E-09 2.11730E-09
 -1       560-1.19928E+05-1.31796E+04-3.03515E+03-3.94527E+04-3.31056E-09 7.83075E-09
 -1       561-1.21021E+05-1.19766E+04-1.47641E+03-3.80484E+04 1.43882E-09 8.37008E-09
 -1       562-1.19997E+05-1.32201E+04-7.79975E+02-3.94793E+04-3.89264E-10 8.11815E-09
 -1       563-1.21022E+05-1.19513E+04-4.04616E+02-3.80300E+04 1.81899E-10-4.00178E-09
 -1       564-1.20021E+05-1.32222E+04-3.26988E+02-3.95006E+04 9.02583E-09 1.23691E-08
 -1       565-1.21065E+05-1.19174E+04-2.91303E+02-3.80263E+04-1.27511E-09 1.28330E-09
 -1       566-1.20039E+05-1.32203E+04-4.96146E+02-3.95305E+04-5.42059E-10 3.33785E-09
 -1       567-1.21189E+05-1.18961E+04-8.59556E+02-3.80118E+04 4.09273E-10 2.60843E-09
 -1       568-1.19989E+05-1.32558E+04-1.73729E+03-3.95463E+04-1.68438E-09-1.04719E-08
 -1       569-1.22519E+05-1.24558E+04-3.92611E+03-3.75804E+04 3.63798E-09-2.43926E-09
 -1       570-1.19141E+05-1.49689E+04-7.59155E+03-3.91330E+04 4.83851E-10-1.23964E-09
 -1       571 2.81928E+05 8.82461E+03 1.33032E+04-5.80624E+04 6.41194E-10 9.43601E-10
 -1       572 2.83913E+05 2.95935E+03 6.51836E+03-6.36002E+04-5.94810E-10 4.87034E-10
 -1       573 2.82707E+05 5.98282E+02 2.89537E+03-5.78720E+04 6.93581E-09-7.31234E-10
 -1       574 2.82946E+05 8.73100E+01 1.45085E+03-6.37967E+04 1.44682E-08-4.74574E-09
 -1       575 2.82781E+05-1.03981E+02 6.83152E+02-5.78478E+04 1.16206E-08-1.73213E-09
 -1       576 2.82802E+05-1.37719E+02 3.46947E+02-6.38229E+04 8.39441E-09-1.17871E-09
 -1       577 2.82784E+05-1.35580E+02 1.68967E+02-5.78447E+04 5.06975E-09 1.81171E-09
 -1       578 2.82780E+05-1.43967E+02 8.82925E+01-6.38260E+04 2.58819E-09 1.02773E-09
 -1       579 2.82792E+05-1.33672E+02 4.68340E+01-5.78447E+04-1.08048E-09-2.53840E-09
 -1       580 2.82792E+05-1.48916E+02 3.16882E+01-6.38230E+04 8.00151E-09-4.08818E-10
 -1       581 2.82815E+05-1.43330E+02 2.94211E+01-5.78477E+04 6.11908E-09 1.10003E-09
 -1       582 2.82830E+05-1.59785E+02 4.62296E+01-6.37927E+04 1.40421E-08 9.09949E-10
 -1       583 2.82852E+05-1.45952E+02 8.11864E+01-5.78749E+04 1.73923E-08-1.72690E-09
 -1       584 2.82908E+05-1.05351E+02 1.80023E+02-6.35630E+04 1.46283E-08 1.40517E-10
 -1       585 2.82882E+05 5.60632E+01 3.60573E+02-5.80776E+04 1.36297E-08-1.10595E-09
 -1       586-5.18565E+03 7.95279E+04-7.96387E+03-1.72161E+05 4.31481E-09-1.36783E-08
 -1       587-1.11946E+03 7.83002E+04-2.67927E+03-1.89298E+05 4.17094E-09-2.10839E-08
 -1       588 8.95218E+02 7.88291E+04 1.26377E+03-1.71985E+05 2.16096E-09-9.51343E-09
 -1       589 3.84824E+03 7.99162E+04 6.16191E+03-1.89262E+05 5.82804E-09-1.35833E-09
 -1       590 1.02297E+04 7.79546E+04 1.40527E+04-1.72170E+05 4.43492E-09-1.49430E-09
 -1       591-5.65315E+04-1.91506E+04-2.17207E+04-3.27689E+04 1.59801E-09-3.09956E-09
 -1       592-5.78241E+04-2.52229E+04-1.17643E+04-3.92597E+04-3.32147E-09-8.86757E-12
 -1       593-5.87400E+04-1.75397E+04-4.89812E+03-3.43326E+04-2.65891E-09-4.13115E-09
 -1       594-5.47914E+04-2.20762E+04-2.44248E+03-3.94287E+04 1.54989E-09-7.65340E-10
 -1       595-5.89119E+04-1.75296E+04-1.12263E+03-3.44061E+04 2.79670E-10-1.58326E-09
 -1       596-5.45892E+04-2.19311E+04-5.72052E+02-3.94105E+04-5.01359E-10 3.10914E-09
 -1       597-5.89344E+04-1.75425E+04-3.14947E+02-3.44096E+04-6.39176E-10-1.67950E-09
 -1       598-5.45699E+04-2.19256E+04-2.59488E+02-3.94048E+04 8.89884E-10 1.29899E-09
 -1       599-5.89319E+04-1.75432E+04-3.39653E+02-3.44086E+04-1.44447E-08-1.49760E-08
 -1       600-5.45893E+04-2.19340E+04-6.37297E+02-3.94081E+04-7.00538E-09-2.63981E-10
 -1       601-5.89020E+04-1.75303E+04-1.26114E+03-3.44024E+04-2.96859E-09 1.00431E-09
 -1       602-5.48148E+04-2.20979E+04-2.74949E+03-3.94243E+04-5.27507E-11 8.04948E-09
 -1       603-5.87051E+04-1.75452E+04-5.51583E+03-3.43192E+04-1.40562E-09-2.90447E-09
 -1       604-5.82363E+04-2.56317E+04-1.32473E+04-3.92192E+04 4.53224E-09 2.00453E-09
 -1       605-5.62053E+04-1.93674E+04-2.44586E+04-3.25665E+04 1.85742E-09-1.28421E-09
 -1       606 4.91434E+04-1.35415E+04-2.44884E+04 4.85984E+04-1.27420E-08-1.40062E-10
 -1       607 4.49348E+04-4.30209E+03-1.21907E+04 5.45343E+04-2.35013E-09-1.10435E-09
 -1       608 4.72729E+04-6.65850E+02-5.46550E+03 4.81989E+04 9.05493E-09-2.00271E-09
 -1       609 4.67645E+04-7.31451E+01-2.75817E+03 5.49573E+04-5.12955E-09 1.11368E-09
 -1       610 4.69946E+04 1.45236E+02-1.32219E+03 4.81546E+04-1.30767E-08-2.12003E-09
 -1       611 4.68658E+04 2.07466E+02-6.65854E+02 5.50031E+04-2.50293E-08-2.75577E-09
 -1       612 4.68860E+04 1.98065E+02-3.22417E+02 4.81503E+04-1.01336E-08 1.31331E-09
 -1       613 4.68112E+04 2.48174E+02-1.47894E+02 5.50080E+04-1.53887E-08-1.48884E-09
 -1       614 4.68139E+04 2.24199E+02-4.71740E+01 4.81488E+04-4.02906E-09-4.36603E-09
 -1       615 4.67542E+04 2.78271E+02 3.52996E+01 5.50083E+04 1.55942E-08-2.64845E-09
 -1       616 4.67599E+04 2.50930E+02 1.29753E+02 4.81493E+04-8.00355E-09-3.49792E-09
 -1       617 4.67319E+04 3.28489E+02 3.07413E+02 5.50070E+04 1.53887E-09-1.89175E-10
 -1       618 4.67056E+04 3.56883E+02 6.22635E+02 4.81493E+04 3.48064E-09 3.76986E-10
 -1       619 4.69290E+04 8.23862E+02 1.40104E+03 5.50053E+04-1.01090E-09-1.05956E-09
 -1       620 4.64847E+04 1.84491E+03 2.81616E+03 4.81446E+04 1.58207E-09-2.11321E-09
 -1       621 7.31043E+02 3.31369E+05 5.81488E+03-6.82783E+03-1.26488E-09 3.31420E-09
 -1       622 8.11864E+02 3.32808E+05 4.51846E+03-9.70860E+03-1.23538E-09 9.55424E-10
 -1       623 5.16510E+01 3.31844E+05 4.64980E+03-6.79777E+03-1.18791E-09-7.02937E-09
 -1       624 1.99359E+03 3.33892E+05 8.35385E+03-9.74255E+03-1.36890E-09-1.38980E-08
 -1       625 1.98297E+03 3.30278E+05 1.42980E+04-6.78982E+03-9.97716E-10-1.15224E-08
 -1       626 2.52613E+05 7.60155E+04 4.66567E+03 1.44773E+05-3.32057E-09 3.33239E-09
 -1       627 2.48400E+05 7.93856E+04 2.25080E+03 1.50999E+05-6.75936E-09 2.80852E-09
 -1       628 2.52800E+05 7.37589E+04 9.46779E+02 1.45385E+05 5.28962E-09-3.15049E-09
 -1       629 2.47606E+05 7.89404E+04 4.66479E+02 1.51348E+05 1.34132E-08-1.38471E-10
 -1       630 2.52776E+05 7.36707E+04 2.13720E+02 1.45371E+05 5.76620E-10-8.56926E-09
 -1       631 2.47477E+05 7.89508E+04 1.16896E+02 1.51328E+05-9.46147E-09-2.77484E-09
 -1       632 2.52733E+05 7.36960E+04 7.81079E+01 1.45341E+05-1.31113E-08 5.69622E-09
 -1       633 2.47431E+05 7.89707E+04 9.12258E+01 1.51299E+05-1.21036E-08-4.16298E-09
 -1       634 2.52697E+05 7.37080E+04 1.49489E+02 1.45320E+05 9.68976E-09-3.30965E-09
 -1       635 2.47419E+05 7.89808E+04 3.05718E+02 1.51285E+05 1.44485E-08 8.58950E-09
 -1       636 2.52669E+05 7.37136E+04 6.17537E+02 1.45308E+05-5.38739E-09-5.03360E-09
 -1       637 2.47536E+05 7.90824E+04 1.35730E+03 1.51273E+05 4.48722E-09 1.52568E-09
 -1       638 2.52613E+05 7.40173E+04 2.78915E+03 1.45166E+05 5.50020E-09-4.92901E-09
 -1       639 2.48995E+05 8.11230E+04 6.59746E+03 1.50842E+05 1.94518E-09-1.66633E-08
 -1       640 2.52434E+05 8.00764E+04 1.36901E+04 1.42578E+05 2.11503E-09 1.60162E-09
 -1       656 7.14231E+04-1.79538E+06-1.72338E+05 2.66768E+03 1.99361E-09-1.32275E-10
 -1       657-9.43429E+04-1.87297E+06-1.42363E+05 1.47901E+04 5.42059E-10 3.86090E-09
 -1       658 2.25739E+04-1.81755E+06-8.71331E+04-3.02096E+02 1.07707E-09 4.13988E-09
 -1       659-1.00609E+05-1.87597E+06-1.50589E+05 1.66051E+04 1.28057E-09 3.60909E-09
 -1       660 7.76785E+04-1.79239E+06-1.86457E+05 8.52710E+02 2.75031E-09-3.45067E-09
 -1       661 3.02027E+05 3.36555E+04 2.81242E+04 1.18540E+05 5.40422E-09 8.74934E-10
 -1       662 3.16420E+05 5.59654E+04 1.89502E+04 1.13946E+05 7.55904E-10 2.04273E-09
 -1       663 3.07559E+05 4.26674E+04 6.62945E+03 1.16929E+05-3.48655E-09 6.29143E-10
 -1       664 3.10009E+05 4.54265E+04 3.96339E+03 1.15917E+05 6.05317E-09 2.90038E-09
 -1       665 3.08397E+05 4.38979E+04 1.56305E+03 1.16683E+05-7.19916E-09-4.47460E-09
 -1       666 3.09016E+05 4.40215E+04 9.10709E+02 1.16241E+05-2.72421E-08 5.26240E-09
 -1       667 3.08547E+05 4.40350E+04 4.78253E+02 1.16618E+05-4.77189E-09-8.82606E-10
 -1       668 3.08844E+05 4.39275E+04 4.76072E+02 1.16342E+05 1.60460E-08 1.89846E-09
 -1       669 3.08569E+05 4.39884E+04 6.34376E+02 1.16583E+05 1.42258E-08 7.63123E-10
 -1       670 3.08977E+05 4.42878E+04 1.37288E+03 1.16371E+05 2.37200E-08 5.01461E-09
 -1       671 3.08415E+05 4.36811E+04 2.43407E+03 1.16587E+05 2.47618E-09 4.09159E-10
 -1       672 3.10368E+05 4.66807E+04 6.22521E+03 1.16058E+05-5.56929E-09-1.60401E-09
 -1       673 3.07184E+05 4.16547E+04 1.04312E+04 1.16873E+05-1.60833E-09-3.57750E-09
 -1       674 3.20277E+05 6.34548E+04 2.98287E+04 1.13163E+05 3.75701E-09 2.29011E-09
 -1       675 2.98570E+05 2.73751E+04 4.42773E+04 1.19305E+05 2.00635E-09-3.90173E-09
 -1       676 3.11895E+01-3.60977E+05-1.42924E+03 2.60211E+02 3.78424E-09 6.85526E-09
 -1       677-3.76125E+02-3.61326E+05-2.61584E+03-5.19868E+02-2.44914E-08 1.28573E-10
 -1       678 2.53848E+02-3.60730E+05-4.62420E+03 2.59483E+02-6.68024E-10-1.35395E-09
 -1       679-4.62270E+03-3.64118E+05-1.09855E+04-5.17362E+02-1.25852E-08-2.50603E-09
 -1       680 2.76158E+03-3.58187E+05-1.77048E+04 2.54694E+02-4.16367E-09-2.56949E-09
 -1       771-3.93867E+06-5.09332E+05-2.12352E+05-1.38072E+06 7.29779E-09 4.94401E-09
 -1       772-4.01170E+06-5.05648E+05-1.14801E+05-1.37176E+06 7.65431E-09-2.84490E-09
 -1       773-3.95871E+06-4.95352E+05-4.81769E+04-1.39858E+06 6.48288E-09 2.54659E-10
 -1       774-3.98661E+06-4.71165E+05-2.38374E+04-1.37035E+06-1.03246E-08-1.01909E-08
 -1       775-3.96018E+06-4.95685E+05-1.12124E+04-1.40093E+06 4.16912E-09-4.51291E-09
 -1       776-3.98755E+06-4.67497E+05-5.40721E+03-1.36894E+06 1.03792E-08-2.71029E-09
 -1       777-3.96038E+06-4.96058E+05-2.84096E+03-1.40238E+06 4.43106E-09-2.19916E-09
 -1       778-3.98987E+06-4.65576E+05-1.48549E+03-1.36800E+06 2.73576E-09 5.36602E-09
 -1       779-3.96046E+06-4.96247E+05-1.21201E+03-1.40358E+06 3.77622E-09-4.82032E-11
 -1       780-3.99194E+06-4.64068E+05-1.33385E+03-1.36736E+06 5.07862E-09 7.26550E-09
 -1       781-3.96049E+06-4.96343E+05-2.33419E+03-1.40451E+06 7.30870E-09-4.00360E-09
 -1       782-3.99386E+06-4.63238E+05-4.72797E+03-1.36696E+06 1.04992E-08 1.40676E-09
 -1       783-3.96024E+06-4.96411E+05-9.42992E+03-1.40501E+06 4.17640E-09 2.37787E-09
 -1       784-4.00055E+06-4.68735E+05-2.25836E+04-1.36652E+06 5.54883E-09 2.13731E-09
 -1       785-3.95620E+06-4.99367E+05-4.17003E+04-1.40224E+06 7.15204E-09-4.95857E-09
 -1       786 3.36537E+05-1.52159E+04 3.52077E+04 5.56947E+02 4.38961E-09-4.98403E-10
 -1       787 3.51795E+05 1.76161E+04 2.49093E+04 9.98702E+01 2.04992E-09 2.15505E-09
 -1       788 3.42426E+05-2.38477E+03 9.11425E+03 4.57406E+02-3.42281E-10 4.89308E-10
 -1       789 3.44937E+05 2.76027E+03 5.72834E+03 2.39846E+02 7.02100E-08-3.22098E-09
 -1       790 3.43398E+05-3.72273E+02 2.33456E+03 4.16990E+02 2.12564E-05-2.28598E-08
 -1       791 3.43804E+05 4.34386E+02 1.37766E+03 2.92631E+02 4.23513E-05-4.21463E-08
 -1       792 3.43560E+05-6.06483E+01 6.42432E+02 4.04624E+02 1.05330E-05-1.01929E-08
 -1       793 3.43624E+05 9.26973E+01 4.48722E+02 2.97542E+02-2.13133E-05 2.42573E-08
 -1       794 3.43578E+05-3.08071E+01 3.74841E+02 4.12079E+02-1.07240E-05 9.97825E-09
 -1       795 3.43666E+05 1.77904E+02 6.03459E+02 2.58454E+02-3.36155E-08 4.86571E-09
 -1       796 3.43519E+05-1.45799E+02 9.40971E+02 4.43712E+02-1.01386E-09-2.63674E-09
 -1       797 3.44105E+05 1.07685E+03 2.24936E+03 1.51907E+02-3.94832E-09-1.44840E-09
 -1       798 3.43139E+05-9.29104E+02 3.55986E+03 5.18627E+02-1.88485E-09-2.01453E-09
 -1       799 3.46785E+05 6.86666E+03 9.71502E+03-8.91578E+01-4.46444E-09 1.09628E-09
 -1       800 3.40836E+05-5.93099E+03 1.37220E+04 6.84772E+02-6.52125E-10 8.72205E-10
 -1       801-3.48845E+05 8.70585E+06 8.43533E+05-1.05656E+04 4.94765E-09-3.25838E-09
 -1       802 4.79074E+05 9.09692E+06 7.30138E+05-6.90618E+04 9.29504E-09-8.97367E-09
 -1       803-1.29061E+05 8.80677E+06 4.91951E+05-4.73430E+04 1.62981E-09-4.13773E-09
 -1       804 6.26661E+05 9.16350E+06 9.23151E+05-4.94874E+04 4.24916E-09-8.22610E-09
 -1       805-4.96061E+05 8.63904E+06 1.17913E+06-3.01336E+04-2.03727E-09 5.39237E-08
 -1       806-3.07259E+05-7.71710E+04-3.12415E+04-1.39525E+05-7.04858E-12-1.28130E-08
 -1       807-3.08074E+05-7.37267E+04-1.53474E+04-1.48974E+05-5.36602E-09-7.83302E-10
 -1       808-3.08209E+05-6.58277E+04-6.51010E+03-1.44773E+05 4.74256E-09 3.72984E-09
 -1       809-3.04735E+05-6.95336E+04-3.18124E+03-1.49509E+05 1.07057E-08 6.03040E-09
 -1       810-3.08362E+05-6.54193E+04-1.45605E+03-1.45006E+05-2.42585E-09-2.85695E-09
 -1       811-3.04485E+05-6.93702E+04-7.20046E+02-1.49485E+05-1.92219E-09-1.26420E-09
 -1       812-3.08390E+05-6.54452E+04-3.55924E+02-1.45006E+05 7.33928E-09-2.22303E-09
 -1       813-3.04452E+05-6.93760E+04-2.18680E+02-1.49468E+05 1.49278E-08-1.54523E-09
 -1       814-3.08385E+05-6.54582E+04-1.95771E+02-1.45000E+05 4.40468E-09-6.63931E-11
 -1       815-3.04448E+05-6.93819E+04-2.96600E+02-1.49458E+05-1.71349E-09-2.38379E-09
 -1       816-3.08357E+05-6.54615E+04-5.50554E+02-1.44991E+05-1.94541E-09 1.11322E-09
 -1       817-3.04531E+05-6.94385E+04-1.17642E+03-1.49437E+05 1.15601E-08-2.53658E-09
 -1       818-3.08272E+05-6.56354E+04-2.39745E+03-1.44905E+05 4.29100E-09 1.76806E-09
 -1       819-3.05848E+05-7.08699E+04-5.63979E+03-1.49088E+05-1.47202E-09 9.47148E-09
 -1       820-3.07792E+05-6.99140E+04-1.14803E+04-1.43083E+05-5.44514E-09-1.06470E-08
 -1       821-3.85826E+05 2.20718E+04-5.18885E+04 1.45522E+03 1.89135E-09 1.12414E-09
 -1       822-4.04298E+05-2.56304E+04-3.60246E+04-7.96152E+03 3.45067E-09-2.08229E-09
 -1       823-3.92763E+05 3.53244E+03-1.33647E+04 3.89574E+03-8.54726E-09 1.88629E-09
 -1       824-3.95720E+05-4.09570E+03-8.30116E+03-1.01041E+04 1.19321E-09-1.65210E-09
 -1       825-3.94437E+05 5.83893E+02-3.52423E+03 3.59795E+03 1.28671E-08-1.26420E-10
 -1       826-3.92120E+05-6.04928E+02-1.59322E+03-6.99133E+03 1.30041E-08 3.05508E-09
 -1       827-3.96309E+05 1.60810E+00-1.48858E+03 7.82831E+02 8.86075E-10-7.55733E-10
 -1       828-3.90381E+05-5.06506E+01-1.39264E+02-4.24955E+02-2.00247E-08 5.43372E-09
 -1       829-3.96135E+05-3.24473E+00-1.45670E+03-2.96818E+03 3.14429E-09-3.74772E-09
 -1       830-3.92510E+05-5.65385E+02-1.66253E+03 5.88848E+03 1.05912E-08 3.00267E-09
 -1       831-3.94230E+05 5.56366E+02-3.49199E+03-5.53079E+03-1.71588E-08-5.24346E-09
 -1       832-3.95824E+05-4.01757E+03-8.31092E+03 8.40207E+03-9.77046E-09 5.42332E-09
 -1       833-3.92866E+05 3.48228E+03-1.34035E+04-5.48223E+03 2.04923E-09-3.87536E-09
 -1       834-4.04034E+05-2.55688E+04-3.59800E+04 5.69584E+03-3.13860E-09 1.48066E-09
 -1       835-3.85977E+05 2.20532E+04-5.19585E+04-2.82399E+03 1.19566E-08-3.68527E-09
 -1       836-1.28452E+03 4.08493E+05 2.40803E+04-4.61626E+04 8.37554E-09 3.07409E-09
 -1       837 5.61132E+03 4.15785E+05 2.05339E+04-9.21898E+04 1.05588E-08 5.99084E-09
 -1       838-3.56664E+02 4.10540E+05 2.11210E+04-4.60355E+04 8.96034E-09 6.17842E-09
 -1       839 1.38444E+04 4.21916E+05 4.01477E+04-9.22033E+04 1.11249E-08-4.94219E-09
 -1       840-3.93438E+03 4.02297E+05 6.40895E+04-4.61393E+04 8.39282E-09-2.79942E-09
 -1       856-1.67346E+05 1.22635E+04-3.23278E+04-1.01293E+03-1.31491E-08-2.36469E-09
 -1       857-1.80712E+05-1.43650E+04-2.22559E+04 6.62251E+03-5.33487E-09-2.57342E-09
 -1       858-1.72620E+05 1.71504E+03-8.39109E+03-1.06796E+03-1.04498E-08-2.22781E-09
 -1       859-1.74660E+05-1.97359E+03-5.06844E+03 6.71455E+03 1.46935E-09-4.04907E-09
 -1       860-1.73407E+05 2.35453E+02-2.13434E+03-1.10582E+03-9.76570E-11-3.14537E-09
 -1       861-1.73756E+05-2.38503E+02-1.19446E+03 6.76675E+03-1.76695E-08-3.32255E-09
 -1       862-1.73529E+05 2.86028E+01-5.37770E+02-1.12031E+03 7.83533E-09-3.36982E-09
 -1       863-1.73613E+05 2.59646E+00-2.89532E+02 6.77234E+03 3.19710E-08-5.49856E-09
 -1       864-1.73550E+05-1.99212E-01-1.38782E+02-1.11144E+03 1.42078E-08-4.16330E-09
 -1       865-1.73583E+05 3.19276E+01-7.87743E+01 6.73031E+03 8.32492E-09-5.45447E-09
 -1       866-1.73555E+05-3.17180E+00-5.20929E+01-1.07826E+03-1.54279E-09-3.86072E-09
 -1       867-1.73570E+05 1.84642E+01-5.56816E+01 6.64060E+03 7.02073E-10-2.54379E-09
 -1       868-1.73554E+05 6.99760E+00-7.98159E+01-1.02168E+03 1.77954E-09-4.94415E-09
 -1       869-1.73594E+05-8.59228E+01-1.79575E+02 6.49919E+03-8.64219E-09-6.24597E-09
 -1       870-1.73519E+05 8.95879E+01-2.71576E+02-9.36800E+02 4.49177E-09-3.59216E-09
 -1       871-6.26731E+03-8.73335E+03-1.89759E+04 1.21891E+05 1.01445E-08 3.98268E-09
 -1       872-3.03265E+03-1.28955E+04-7.61558E+03 1.58021E+05 1.72467E-08 1.68566E-08
 -1       873-4.24007E+02-1.10641E+04 1.38747E+03 1.21630E+05 9.18726E-09 9.90394E-09
 -1       874 2.59115E+03-8.03843E+03 1.14192E+04 1.58092E+05 1.76078E-08 3.48882E-09
 -1       875 6.87756E+03-1.37263E+04 2.51142E+04 1.21864E+05 7.90351E-09-1.32695E-09
 -1       876 3.23597E+05 5.68647E+04 1.78110E+04 1.32597E+05-7.28232E-09-1.56797E-09
 -1       877 3.24482E+05 6.09124E+04 9.51195E+03 1.37993E+05-2.47614E-08-4.98949E-09
 -1       878 3.25254E+05 5.48998E+04 3.98453E+03 1.34064E+05 8.25776E-09-5.33646E-10
 -1       879 3.22054E+05 5.85007E+04 1.98502E+03 1.38115E+05-4.46130E-09 1.97679E-09
 -1       880 3.25371E+05 5.48812E+04 9.23482E+02 1.34123E+05 4.66571E-09-1.76863E-09
 -1       881 3.21892E+05 5.83975E+04 4.91208E+02 1.38085E+05 1.74578E-08-4.09365E-09
 -1       882 3.25380E+05 5.48978E+04 3.10349E+02 1.34125E+05 1.36411E-08 4.54926E-09
 -1       883 3.21880E+05 5.83923E+04 3.27675E+02 1.38075E+05 6.50448E-09 1.05530E-08
 -1       884 3.25373E+05 5.48953E+04 5.15574E+02 1.34125E+05 3.49280E-09 8.47876E-10
 -1       885 3.21920E+05 5.83995E+04 1.03301E+03 1.38087E+05 1.98748E-08 2.83092E-09
 -1       886 3.25333E+05 5.48649E+04 2.08006E+03 1.34120E+05 1.07210E-08-2.56068E-09
 -1       887 3.22286E+05 5.86393E+04 4.54267E+03 1.38142E+05-1.12982E-08-4.60420E-09
 -1       888 3.25048E+05 5.49137E+04 9.15292E+03 1.33975E+05 5.78996E-09 5.27461E-09
 -1       889 3.27745E+05 6.42975E+04 2.18644E+04 1.37968E+05 1.48540E-08 4.15912E-09
 -1       890 3.21331E+05 5.93333E+04 4.09514E+04 1.30472E+05 3.77531E-09 4.67480E-10
 -1       891-3.20859E+02-1.86626E+05-2.16555E+03 3.80852E+04 2.67346E-09 4.53838E-09
 -1       892-5.35515E+02-1.87074E+05-2.36832E+03 5.74844E+04-5.02496E-09 1.75714E-09
 -1       893-1.89454E+02-1.86677E+05-3.40042E+03 3.80923E+04 2.14595E-09 1.09230E-09
 -1       894-2.06400E+03-1.88346E+05-7.06684E+03 5.72804E+04-1.46201E-08-7.28596E-09
 -1       895-1.61024E+03-1.85175E+05-1.24644E+04 3.82810E+04-1.57297E-09-2.37742E-09
 -1       956-4.02218E+05-5.92858E+03-1.50721E+04 2.43135E+04-7.28141E-09-7.08269E-10
 -1       957-4.05209E+05-1.94461E+03-7.73673E+03 2.93482E+04 5.87443E-09 9.17680E-10
 -1       958-4.03563E+05-9.92694E+01-3.48649E+03 2.41248E+04 1.47702E-08-1.81831E-09
 -1       959-4.03819E+05 5.34402E+01-1.78023E+03 2.95427E+04-1.58616E-09 1.50953E-09
 -1       960-4.03690E+05 1.17229E+02-8.68011E+02 2.41060E+04-7.55699E-09-8.92442E-10
 -1       961-4.03726E+05 1.33669E+02-4.59201E+02 2.95643E+04-1.94113E-08 2.90606E-09
 -1       962-4.03721E+05 1.15545E+02-2.61116E+02 2.41023E+04-8.58472E-09-6.89170E-10
 -1       963-4.03728E+05 1.39583E+02-2.05674E+02 2.95697E+04-1.37177E-08 2.65163E-09
 -1       964-4.03732E+05 1.21638E+02-2.45237E+02 2.41004E+04-5.19117E-09-7.83302E-10
 -1       965-4.03749E+05 1.46940E+02-4.19768E+02 2.95714E+04 9.63672E-09 1.98133E-09
 -1       966-4.03723E+05 1.35242E+02-7.85869E+02 2.41006E+04-1.07268E-08-4.37922E-10
 -1       967-4.03855E+05 8.68817E+01-1.61084E+03 2.95638E+04-1.39840E-09 2.48860E-09
 -1       968-4.03626E+05-4.89226E+01-3.15194E+03 2.41085E+04 4.90763E-09-8.52680E-10
 -1       969-4.05135E+05-1.70970E+03-6.99868E+03 2.94774E+04 2.82603E-09 3.02944E-09
 -1       970-4.02424E+05-5.31518E+03-1.36320E+04 2.42024E+04 4.83396E-09-4.22915E-10
 -1       971-3.89880E+05-2.08815E+03-1.19168E+04 1.94759E+04-1.25629E-08 1.64698E-09
 -1       972-3.92803E+05-1.44710E+03-6.48825E+03 2.74552E+04-1.29635E-08-1.57866E-09
 -1       973-3.91215E+05 4.83013E+01-2.90658E+03 1.92992E+04-2.20180E-08 2.35900E-09
 -1       974-3.91449E+05 8.40538E+01-1.50445E+03 2.76421E+04-1.54573E-08-1.06320E-09
 -1       975-3.91327E+05 1.10805E+02-7.49870E+02 1.92810E+04-3.92629E-09 1.43768E-09
 -1       976-3.91379E+05 1.52591E+02-4.26863E+02 2.76649E+04-1.38787E-08-3.28987E-09
 -1       977-3.91353E+05 1.14829E+02-3.00697E+02 1.92758E+04 9.69339E-09 2.44199E-09
 -1       978-3.91390E+05 1.62971E+02-3.38811E+02 2.76722E+04 3.02205E-08-1.50362E-09
 -1       979-3.91356E+05 1.25908E+02-5.33688E+02 1.92735E+04 1.32906E-08 1.08366E-09
 -1       980-3.91431E+05 1.67184E+02-1.02379E+03 2.76736E+04 2.35920E-08-2.74508E-09
 -1       981-3.91323E+05 1.50943E+02-1.97979E+03 1.92743E+04 8.88031E-09 1.29074E-09
 -1       982-3.91699E+05 1.91770E+01-4.09047E+03 2.76637E+04-6.56746E-09-1.70827E-09
 -1       983-3.91070E+05 2.14973E+01-7.94770E+03 1.92843E+04 1.37566E-08 1.35333E-09
 -1       984-3.95513E+05-4.13631E+03-1.77976E+04 2.75474E+04-4.58704E-09-1.44803E-09
 -1       985-3.87466E+05-5.79738E+03-3.26828E+04 1.94159E+04 8.04721E-09 1.90448E-09
 -3
    1PSTEP                        41          21           1          
  100CL  121 8.08729E-01         409                     0   21           1
 -4  DISP        4    1
 -5  D1          1    2    1    0
 -5  D2          1    2    2    0
 -5  D3          1    2    3    0
 -5  ALL         1    2    0    0    1ALL
 -1         1 7.18501E-03 0.00000E+00 0.00000E+00
 -1         2 9.59256E-03-9.06933E-27 0.00000E+00
 -1         3-1.38289E-05-4.73586E-28 0.00000E+00
 -1         5 4.56385E-05 3.34446E-27 0.00000E+00
 -1         8 7.15495E-03-2.51050E-06 0.00000E+00
 -1         9 7.31059E-03-5.58759E-04 0.00000E+00
 -1        10-7.68317E-06 5.82070E-06-1.32349E-23
 -1        12 4.33045E-05 8.44425E-07 0.00000E+00
 -1        15 7.12179E-03-2.64571E-06 8.27181E-25
 -1        16 7.27377E-03-5.58906E-04 0.00000E+00
 -1        17 1.42486E-05 1.20184E-05 0.00000E+00
 -1        18 3.47381E-05-1.82424E-05 0.00000E+00
 -1        19 3.63011E-05 1.68090E-06 0.00000E+00
 -1        20 3.65175E-05 4.31388E-05 0.00000E+00
 -1        21 3.57805E-05 8.52946E-05-3.30872E-24
 -1        24 2.38940E-05 1.23723E-05 0.00000E+00
 -1        25 2.46385E-05-1.80868E-05 0.00000E+00
 -1        26 2.65261E-05 2.36338E-06 0.00000E+00
 -1        27 2.41895E-05 3.93826E-05 0.00000E+00
 -1        28 2.31654E-05 8.45296E-05 0.00000E+00
 -1        32 0.00000E+00 0.00000E+00 0.00000E+00
 -1        33 1.42726E-05 3.19053E-06 0.00000E+00
 -1        34 1.19846E-05 3.93448E-05 0.00000E+00
 -1        35 9.74897E-06 8.41270E-05 0.00000E+00
 -1        51 7.18293E-03-4.21274E-07-1.32349E-23
 -1        52 7.17919E-03-8.32155E-07 0.00000E+00
 -1        53 7.17414E-03-1.24410E-06-6.61744E-24
 -1        54 7.16816E-03-1.65936E-06 2.27475E-24
 -1        55 7.16164E-03-2.07898E-06-1.32349E-23
 -1        56 7.18534E-03-1.09195E-05-5.29396E-23
 -1        57 7.19281E-03-4.23680E-05 5.29396E-23
 -1        58 7.20701E-03-9.40644E-05 1.05879E-22
 -1        59 7.22688E-03-1.64028E-04 0.00000E+00
 -1        60 7.25055E-03-2.46744E-04-1.05879E-22
 -1        61 7.27596E-03-3.35575E-04-5.29396E-23
 -1        62 7.30087E-03-4.22677E-04 0.00000E+00
 -1        63 7.32306E-03-5.00358E-04 5.29396E-23
 -1        64 7.34061E-03-5.62774E-04 0.00000E+00
 -1        65 7.35182E-03-6.05421E-04 0.00000E+00
 -1        66 7.35606E-03-6.27604E-04 0.00000E+00
 -1        67 7.35326E-03-6.30356E-04-5.29396E-23
 -1        68 7.34484E-03-6.18346E-04 0.00000E+00
 -1        69 7.33294E-03-5.97409E-04 0.00000E+00
 -1        70 7.32046E-03-5.75041E-04 5.29396E-23
 -1        86 9.44164E-03-1.69196E-05 0.00000E+00
 -1        87 9.02316E-03-1.10936E-04 2.64698E-23
 -1        88 8.46552E-03-2.74643E-04 5.29396E-23
 -1        89 7.90384E-03-4.40969E-04 0.00000E+00
 -1        90 7.47450E-03-5.39626E-04 0.00000E+00
 -1       121-1.36614E-05 9.70446E-07 2.64698E-23
 -1       122-1.31577E-05 1.94080E-06 0.00000E+00
 -1       123-1.23146E-05 2.91096E-06 0.00000E+00
 -1       124-1.11266E-05 3.88097E-06 0.00000E+00
 -1       125-9.58607E-06 4.85042E-06 0.00000E+00
 -1       191 4.55737E-05 1.40837E-07 0.00000E+00
 -1       192 4.53792E-05 2.81656E-07 0.00000E+00
 -1       193 4.50551E-05 4.22443E-07 0.00000E+00
 -1       194 4.46013E-05 5.63180E-07 6.61744E-24
 -1       195 4.40178E-05 7.03847E-07 0.00000E+00
 -1       251 7.16481E-03-1.17415E-05-1.05879E-22
 -1       252 7.17465E-03-4.44625E-05 1.05879E-22
 -1       253 7.18418E-03-8.59714E-05 2.11758E-22
 -1       254 7.19386E-03-1.25884E-04 0.00000E+00
 -1       255 7.20356E-03-1.65196E-04-4.23516E-22
 -1       256 7.21327E-03-2.04622E-04 0.00000E+00
 -1       257 7.22299E-03-2.44090E-04 0.00000E+00
 -1       258 7.23271E-03-2.83549E-04 0.00000E+00
 -1       259 7.24243E-03-3.23009E-04 0.00000E+00
 -1       260 7.25214E-03-3.62478E-04 0.00000E+00
 -1       261 7.26186E-03-4.01898E-04 0.00000E+00
 -1       262 7.27156E-03-4.41186E-04-1.05879E-22
 -1       263 7.28124E-03-4.81175E-04 0.00000E+00
 -1       264 7.29077E-03-5.23026E-04 0.00000E+00
 -1       265 7.30065E-03-5.54606E-04 2.11758E-22
 -1       266 7.14942E-03-2.55663E-06 0.00000E+00
 -1       267 7.14390E-03-2.57629E-06 0.00000E+00
 -1       268 7.13837E-03-2.59762E-06-3.30872E-24
 -1       269 7.13284E-03-2.61399E-06 0.00000E+00
 -1       270 7.12731E-03-2.63025E-06 0.00000E+00
 -1       271 7.15109E-03-4.53809E-06 0.00000E+00
 -1       272 7.15159E-03-1.88861E-05-5.29396E-23
 -1       273 7.15634E-03-4.51786E-05 1.05879E-22
 -1       274 7.16483E-03-8.24547E-05 5.29396E-23
 -1       275 7.17643E-03-1.29114E-04-1.05879E-22
 -1       276 7.19038E-03-1.83058E-04 0.00000E+00
 -1       277 7.20585E-03-2.41762E-04 1.05879E-22
 -1       278 7.22193E-03-3.02442E-04-5.29396E-23
 -1       279 7.23773E-03-3.62202E-04-1.05879E-22
 -1       280 7.25233E-03-4.18194E-04 0.00000E+00
 -1       281 7.26489E-03-4.67789E-04 0.00000E+00
 -1       282 7.27459E-03-5.08707E-04-5.29396E-23
 -1       283 7.28076E-03-5.39171E-04 0.00000E+00
 -1       284 7.28286E-03-5.57958E-04-5.29396E-23
 -1       285 7.28052E-03-5.64521E-04 0.00000E+00
 -1       301 7.30168E-03-5.58776E-04 0.00000E+00
 -1       302 7.29608E-03-5.58786E-04 0.00000E+00
 -1       303 7.29215E-03-5.58787E-04 4.13590E-25
 -1       304 7.28822E-03-5.58795E-04 0.00000E+00
 -1       305 7.28264E-03-5.58819E-04 0.00000E+00
 -1       306 7.15960E-03-3.17100E-04 2.11758E-22
 -1       307 6.66216E-03 2.41531E-04-5.29396E-23
 -1       308 5.73545E-03 9.47451E-04-2.11758E-22
 -1       309 4.48175E-03 1.64100E-03 0.00000E+00
 -1       310 3.10839E-03 2.31046E-03 1.05879E-22
 -1       311 1.84856E-03 3.00800E-03 0.00000E+00
 -1       312 8.89849E-04 3.71323E-03-4.23516E-22
 -1       313 3.29307E-04 4.30868E-03 0.00000E+00
 -1       314 1.59862E-04 4.57704E-03 4.23516E-22
 -1       315 1.86621E-04 4.42056E-03 0.00000E+00
 -1       316 2.24815E-04 3.80773E-03-2.11758E-22
 -1       317 1.51849E-04 2.88638E-03 5.29396E-23
 -1       318 1.80201E-05 1.85568E-03 0.00000E+00
 -1       319-5.65167E-05 9.20720E-04 0.00000E+00
 -1       320-3.17206E-05 2.61971E-04-1.05879E-22
 -1       336-5.35476E-06 6.86641E-06 0.00000E+00
 -1       337-2.53106E-06 7.91165E-06 0.00000E+00
 -1       338 8.11380E-07 8.95447E-06-2.64698E-23
 -1       339 4.70014E-06 9.99020E-06 1.32349E-23
 -1       340 9.16706E-06 1.10240E-05-1.32349E-23
 -1       406 4.24615E-05 9.84889E-07 0.00000E+00
 -1       407 4.14886E-05 1.12519E-06 0.00000E+00
 -1       408 4.03859E-05 1.26528E-06 0.00000E+00
 -1       409 3.91535E-05 1.40496E-06 0.00000E+00
 -1       410 3.77915E-05 1.54394E-06 0.00000E+00
 -1       521 7.12168E-03-3.18691E-04 0.00000E+00
 -1       522 6.62445E-03 2.38052E-04 1.05879E-22
 -1       523 5.70194E-03 9.42752E-04-2.11758E-22
 -1       524 4.46041E-03 1.63828E-03 5.29396E-23
 -1       525 3.10057E-03 2.31159E-03 0.00000E+00
 -1       526 1.84897E-03 3.01034E-03-1.05879E-22
 -1       527 8.94559E-04 3.71431E-03-8.47033E-22
 -1       528 3.35155E-04 4.30764E-03 2.11758E-22
 -1       529 1.66115E-04 4.57250E-03 0.00000E+00
 -1       530 1.91994E-04 4.41252E-03 0.00000E+00
 -1       531 2.29227E-04 3.79895E-03 2.11758E-22
 -1       532 1.58990E-04 2.88336E-03 5.29396E-23
 -1       533 2.93266E-05 1.85905E-03-1.05879E-22
 -1       534-4.46305E-05 9.25895E-04-5.29396E-23
 -1       535-2.10995E-05 2.65867E-04 0.00000E+00
 -1       536 1.54789E-05 7.51306E-06 0.00000E+00
 -1       537 1.67600E-05 4.75149E-06 0.00000E+00
 -1       538 1.80403E-05 2.84522E-06 0.00000E+00
 -1       539 1.93292E-05 9.56729E-07 0.00000E+00
 -1       540 2.06184E-05-9.23025E-07-5.29396E-23
 -1       541 2.19092E-05-2.80260E-06 0.00000E+00
 -1       542 2.32002E-05-4.68211E-06-5.29396E-23
 -1       543 2.44915E-05-6.56162E-06-2.64698E-23
 -1       544 2.57828E-05-8.44111E-06 0.00000E+00
 -1       545 2.70737E-05-1.03206E-05 0.00000E+00
 -1       546 2.83645E-05-1.22000E-05 0.00000E+00
 -1       547 2.96533E-05-1.40793E-05 0.00000E+00
 -1       548 3.09419E-05-1.59502E-05 2.64698E-23
 -1       549 3.22211E-05-1.78040E-05 0.00000E+00
 -1       550 3.35044E-05-1.88484E-05 0.00000E+00
 -1       551 1.68311E-05 1.20904E-05 0.00000E+00
 -1       552 1.74665E-05 1.21638E-05 0.00000E+00
 -1       553 1.73180E-05 1.22372E-05 0.00000E+00
 -1       554 1.75593E-05 1.23053E-05 0.00000E+00
 -1       555 1.93642E-05 1.23642E-05-2.64698E-23
 -1       556 1.61394E-05 6.83403E-06 0.00000E+00
 -1       557 1.78482E-05 2.11024E-06 0.00000E+00
 -1       558 1.93851E-05-2.15269E-06 0.00000E+00
 -1       559 2.07521E-05-5.96013E-06 0.00000E+00
 -1       560 2.19515E-05-9.31705E-06 0.00000E+00
 -1       561 2.29853E-05-1.22288E-05 0.00000E+00
 -1       562 2.38554E-05-1.47010E-05 0.00000E+00
 -1       563 2.45637E-05-1.67390E-05 0.00000E+00
 -1       564 2.51122E-05-1.83484E-05 0.00000E+00
 -1       565 2.55027E-05-1.95347E-05 0.00000E+00
 -1       566 2.57370E-05-2.03037E-05 0.00000E+00
 -1       567 2.58173E-05-2.06608E-05 0.00000E+00
 -1       568 2.57453E-05-2.06117E-05 0.00000E+00
 -1       569 2.55232E-05-2.01623E-05 0.00000E+00
 -1       570 2.51530E-05-1.93183E-05 0.00000E+00
 -1       571 3.48331E-05-1.68637E-05-1.65436E-24
 -1       572 3.49300E-05-1.55492E-05-4.13590E-25
 -1       573 3.50276E-05-1.42895E-05 2.48154E-24
 -1       574 3.51254E-05-1.30747E-05-8.27181E-25
 -1       575 3.52234E-05-1.18946E-05 3.30872E-24
 -1       576 3.53215E-05-1.07392E-05-1.65436E-24
 -1       577 3.54196E-05-9.59841E-06 0.00000E+00
 -1       578 3.55177E-05-8.46206E-06 0.00000E+00
 -1       579 3.56158E-05-7.32002E-06 3.30872E-24
 -1       580 3.57138E-05-6.16220E-06 4.96308E-24
 -1       581 3.58119E-05-4.97847E-06 3.30872E-24
 -1       582 3.59099E-05-3.75870E-06-6.61744E-24
 -1       583 3.60079E-05-2.49281E-06-6.61744E-24
 -1       584 3.61057E-05-1.17078E-06-3.30872E-24
 -1       585 3.62035E-05 2.17366E-07 0.00000E+00
 -1       586 3.30901E-05-1.82143E-05 0.00000E+00
 -1       587 3.13890E-05-1.81875E-05 0.00000E+00
 -1       588 2.96637E-05-1.81612E-05 4.13590E-25
 -1       589 2.79440E-05-1.81354E-05 0.00000E+00
 -1       590 2.62593E-05-1.81101E-05 0.00000E+00
 -1       591 3.41852E-05-1.68380E-05 2.06795E-25
 -1       592 3.36551E-05-1.55053E-05 0.00000E+00
 -1       593 3.31469E-05-1.42315E-05 0.00000E+00
 -1       594 3.26559E-05-1.30047E-05-4.13590E-25
 -1       595 3.21781E-05-1.18132E-05 8.27181E-25
 -1       596 3.17089E-05-1.06449E-05 0.00000E+00
 -1       597 3.12441E-05-9.48810E-06-8.27181E-25
 -1       598 3.07790E-05-8.33090E-06 4.13590E-25
 -1       599 3.03094E-05-7.16146E-06 8.27181E-25
 -1       600 2.98307E-05-5.96794E-06 0.00000E+00
 -1       601 2.93386E-05-4.73852E-06-4.13590E-25
 -1       602 2.88285E-05-3.46132E-06-1.03398E-25
 -1       603 2.82961E-05-2.12451E-06 4.13590E-25
 -1       604 2.77374E-05-7.16175E-07 0.00000E+00
 -1       605 2.71475E-05 7.75501E-07 0.00000E+00
 -1       606 3.63212E-05 3.36747E-06 0.00000E+00
 -1       607 3.63375E-05 5.22774E-06 0.00000E+00
 -1       608 3.63526E-05 7.25150E-06 0.00000E+00
 -1       609 3.63670E-05 9.42726E-06 0.00000E+00
 -1       610 3.63809E-05 1.17435E-05 0.00000E+00
 -1       611 3.63945E-05 1.41884E-05 0.00000E+00
 -1       612 3.64078E-05 1.67504E-05 0.00000E+00
 -1       613 3.64208E-05 1.94177E-05 0.00000E+00
 -1       614 3.64336E-05 2.21786E-05 0.00000E+00
 -1       615 3.64461E-05 2.50212E-05 0.00000E+00
 -1       616 3.64585E-05 2.79340E-05 0.00000E+00
 -1       617 3.64706E-05 3.09051E-05 0.00000E+00
 -1       618 3.64827E-05 3.39229E-05 0.00000E+00
 -1       619 3.64945E-05 3.69756E-05-8.27181E-25
 -1       620 3.65063E-05 4.00515E-05 0.00000E+00
 -1       621 3.47246E-05 1.79460E-06 0.00000E+00
 -1       622 3.31200E-05 1.90902E-06 0.00000E+00
 -1       623 3.14925E-05 2.02340E-06 0.00000E+00
 -1       624 2.98474E-05 2.13759E-06 1.65436E-24
 -1       625 2.81902E-05 2.25158E-06-3.30872E-24
 -1       626 3.57841E-05 3.39909E-06 6.61744E-24
 -1       627 3.52122E-05 5.26497E-06 0.00000E+00
 -1       628 3.45897E-05 7.26594E-06-6.61744E-24
 -1       629 3.39213E-05 9.38848E-06 0.00000E+00
 -1       630 3.32123E-05 1.16191E-05 0.00000E+00
 -1       631 3.24676E-05 1.39440E-05 0.00000E+00
 -1       632 3.16925E-05 1.63496E-05 6.61744E-24
 -1       633 3.08920E-05 1.88224E-05 0.00000E+00
 -1       634 3.00714E-05 2.13486E-05 0.00000E+00
 -1       635 2.92357E-05 2.39146E-05-1.65436E-24
 -1       636 2.83901E-05 2.65067E-05 3.30872E-24
 -1       637 2.75398E-05 2.91114E-05 0.00000E+00
 -1       638 2.66897E-05 3.17150E-05 0.00000E+00
 -1       639 2.58450E-05 3.43039E-05 1.65436E-24
 -1       640 2.50105E-05 3.68643E-05-1.65436E-24
 -1       656 3.37724E-05 4.25266E-05 0.00000E+00
 -1       657 3.16162E-05 4.18909E-05-6.61744E-24
 -1       658 2.98273E-05 4.12578E-05-1.32349E-23
 -1       659 2.81741E-05 4.06253E-05 0.00000E+00
 -1       660 2.63844E-05 3.99907E-05 0.00000E+00
 -1       661 3.55018E-05 4.61921E-05 0.00000E+00
 -1       662 3.45180E-05 4.91758E-05 0.00000E+00
 -1       663 3.35598E-05 5.20906E-05 0.00000E+00
 -1       664 3.26275E-05 5.49398E-05 0.00000E+00
 -1       665 3.17193E-05 5.77251E-05 3.30872E-24
 -1       666 3.08346E-05 6.04486E-05 1.65436E-24
 -1       667 2.99726E-05 6.31120E-05 0.00000E+00
 -1       668 2.91329E-05 6.57167E-05-1.65436E-24
 -1       669 2.83148E-05 6.82640E-05 0.00000E+00
 -1       670 2.75181E-05 7.07548E-05 0.00000E+00
 -1       671 2.67424E-05 7.31897E-05 0.00000E+00
 -1       672 2.59874E-05 7.55692E-05 1.65436E-24
 -1       673 2.52531E-05 7.78934E-05 0.00000E+00
 -1       674 2.45385E-05 8.01620E-05 1.65436E-24
 -1       675 2.38451E-05 8.23752E-05-8.27181E-25
 -1       676 3.36690E-05 8.51663E-05 3.30872E-24
 -1       677 3.15591E-05 8.50381E-05-1.65436E-24
 -1       678 2.94522E-05 8.49100E-05 0.00000E+00
 -1       679 2.73500E-05 8.47822E-05 0.00000E+00
 -1       680 2.52539E-05 8.46545E-05 0.00000E+00
 -1       771 2.49869E-05 4.76543E-06 0.00000E+00
 -1       772 2.55813E-05-1.59690E-06-1.32349E-23
 -1       773 2.57303E-05-6.76064E-06 0.00000E+00
 -1       774 2.54562E-05-1.07944E-05 0.00000E+00
 -1       775 2.47868E-05-1.37678E-05 5.29396E-23
 -1       776 2.37495E-05-1.57561E-05 2.64698E-23
 -1       777 2.23727E-05-1.68372E-05 0.00000E+00
 -1       778 2.06864E-05-1.70930E-05 0.00000E+00
 -1       779 1.87217E-05-1.66074E-05 0.00000E+00
 -1       780 1.65108E-05-1.54678E-05-2.64698E-23
 -1       781 1.40868E-05-1.37631E-05 0.00000E+00
 -1       782 1.14841E-05-1.15845E-05-2.64698E-23
 -1       783 8.73736E-06-9.02463E-06 0.00000E+00
 -1       784 5.88284E-06-6.17753E-06 2.64698E-23
 -1       785 2.95612E-06-3.13822E-06-5.29396E-23
 -1       786 2.47506E-05-1.66942E-05 0.00000E+00
 -1       787 2.48683E-05-1.53783E-05 0.00000E+00
 -1       788 2.49858E-05-1.41181E-05-3.30872E-24
 -1       789 2.51044E-05-1.28930E-05-1.65436E-24
 -1       790 2.52230E-05-1.16924E-05 0.00000E+00
 -1       791 2.53418E-05-1.05058E-05 1.65436E-24
 -1       792 2.54607E-05-9.32687E-06 3.30872E-24
 -1       793 2.55797E-05-8.14927E-06 0.00000E+00
 -1       794 2.56986E-05-6.96699E-06 3.30872E-24
 -1       795 2.58175E-05-5.77406E-06-1.65436E-24
 -1       796 2.59364E-05-4.56141E-06 0.00000E+00
 -1       797 2.60552E-05-3.31984E-06 1.65436E-24
 -1       798 2.61739E-05-2.03183E-06 0.00000E+00
 -1       799 2.62921E-05-6.79607E-07-1.65436E-24
 -1       800 2.64103E-05 7.73178E-07 0.00000E+00
 -1       801 2.22504E-05-1.51280E-05 0.00000E+00
 -1       802 1.80999E-05-1.20571E-05 2.64698E-23
 -1       803 1.31908E-05-8.99867E-06 0.00000E+00
 -1       804 8.41445E-06-5.95033E-06 0.00000E+00
 -1       805 3.94437E-06-2.88834E-06 2.64698E-23
 -1       806 2.39967E-05-1.67552E-05 0.00000E+00
 -1       807 2.33677E-05-1.54728E-05 0.00000E+00
 -1       808 2.27520E-05-1.42282E-05-3.30872E-24
 -1       809 2.21459E-05-1.30110E-05 0.00000E+00
 -1       810 2.15461E-05-1.18109E-05-3.30872E-24
 -1       811 2.09488E-05-1.06177E-05 0.00000E+00
 -1       812 2.03502E-05-9.42105E-06 0.00000E+00
 -1       813 1.97464E-05-8.21078E-06 0.00000E+00
 -1       814 1.91336E-05-6.97660E-06-3.30872E-24
 -1       815 1.85079E-05-5.70829E-06 1.65436E-24
 -1       816 1.78656E-05-4.39563E-06-3.30872E-24
 -1       817 1.72028E-05-3.02836E-06 0.00000E+00
 -1       818 1.65156E-05-1.59628E-06 3.30872E-24
 -1       819 1.58003E-05-8.91999E-08 8.27181E-25
 -1       820 1.50534E-05 1.50308E-06 0.00000E+00
 -1       821 2.63977E-05 3.06126E-06 0.00000E+00
 -1       822 2.62606E-05 1.84474E-06 0.00000E+00
 -1       823 2.61218E-05-6.59291E-07-3.30872E-24
 -1       824 2.59797E-05-3.81580E-06-1.65436E-24
 -1       825 2.58380E-05-6.81041E-06 0.00000E+00
 -1       826 2.56984E-05-8.82966E-06 1.65436E-24
 -1       827 2.55604E-05-9.32965E-06 0.00000E+00
 -1       828 2.54213E-05-7.77594E-06 0.00000E+00
 -1       829 2.52773E-05-4.20102E-06 0.00000E+00
 -1       830 2.51246E-05 1.35015E-06 0.00000E+00
 -1       831 2.49638E-05 8.28711E-06-3.30872E-24
 -1       832 2.47978E-05 1.60107E-05 0.00000E+00
 -1       833 2.46321E-05 2.37043E-05 0.00000E+00
 -1       834 2.44738E-05 3.05516E-05 0.00000E+00
 -1       835 2.43233E-05 3.59692E-05 0.00000E+00
 -1       836 2.46912E-05 2.50137E-06 0.00000E+00
 -1       837 2.26585E-05 2.64208E-06 0.00000E+00
 -1       838 2.05141E-05 2.78236E-06 3.30872E-24
 -1       839 1.83441E-05 2.92172E-06-8.27181E-25
 -1       840 1.62350E-05 3.06098E-06 4.13590E-25
 -1       856 2.41319E-05 4.18815E-05 0.00000E+00
 -1       857 2.40687E-05 4.45497E-05 0.00000E+00
 -1       858 2.40055E-05 4.73608E-05 0.00000E+00
 -1       859 2.39410E-05 5.02881E-05 0.00000E+00
 -1       860 2.38762E-05 5.33042E-05 1.65436E-24
 -1       861 2.38110E-05 5.63821E-05 8.27181E-25
 -1       862 2.37457E-05 5.94942E-05 0.00000E+00
 -1       863 2.36803E-05 6.26131E-05 8.27181E-25
 -1       864 2.36150E-05 6.57112E-05 0.00000E+00
 -1       865 2.35498E-05 6.87610E-05 0.00000E+00
 -1       866 2.34848E-05 7.17353E-05-1.65436E-24
 -1       867 2.34201E-05 7.46066E-05 8.27181E-25
 -1       868 2.33558E-05 7.73483E-05 0.00000E+00
 -1       869 2.32919E-05 7.99335E-05 0.00000E+00
 -1       870 2.32284E-05 8.23359E-05 1.65436E-24
 -1       871 2.19888E-05 3.93803E-05-8.27181E-25
 -1       872 1.99394E-05 3.93751E-05 0.00000E+00
 -1       873 1.79780E-05 3.93696E-05 0.00000E+00
 -1       874 1.60410E-05 3.93632E-05 4.13590E-25
 -1       875 1.40642E-05 3.93561E-05-8.27181E-25
 -1       876 2.33920E-05 4.18932E-05 0.00000E+00
 -1       877 2.25667E-05 4.44863E-05 0.00000E+00
 -1       878 2.17143E-05 4.71520E-05-3.30872E-24
 -1       879 2.08385E-05 4.98807E-05 0.00000E+00
 -1       880 1.99424E-05 5.26631E-05 3.30872E-24
 -1       881 1.90297E-05 5.54897E-05 1.65436E-24
 -1       882 1.81039E-05 5.83513E-05 3.30872E-24
 -1       883 1.71684E-05 6.12383E-05 1.65436E-24
 -1       884 1.62267E-05 6.41414E-05 3.30872E-24
 -1       885 1.52825E-05 6.70514E-05-1.65436E-24
 -1       886 1.43392E-05 6.99589E-05 0.00000E+00
 -1       887 1.34003E-05 7.28544E-05 1.65436E-24
 -1       888 1.24691E-05 7.57286E-05 0.00000E+00
 -1       889 1.15489E-05 7.85720E-05 1.65436E-24
 -1       890 1.06430E-05 8.13753E-05 1.65436E-24
 -1       891 2.11154E-05 8.44626E-05 0.00000E+00
 -1       892 1.90371E-05 8.43953E-05 0.00000E+00
 -1       893 1.68958E-05 8.43279E-05 0.00000E+00
 -1       894 1.46570E-05 8.42605E-05 8.27181E-25
 -1       895 1.22860E-05 8.41930E-05-4.13590E-25
 -1       956 1.41329E-05 5.07427E-06 0.00000E+00
 -1       957 1.39908E-05 7.05134E-06-1.65436E-24
 -1       958 1.38481E-05 9.11300E-06 0.00000E+00
 -1       959 1.37049E-05 1.12499E-05 0.00000E+00
 -1       960 1.35616E-05 1.34528E-05 0.00000E+00
 -1       961 1.34181E-05 1.57122E-05-1.65436E-24
 -1       962 1.32745E-05 1.80187E-05 0.00000E+00
 -1       963 1.31307E-05 2.03630E-05 0.00000E+00
 -1       964 1.29870E-05 2.27356E-05 3.30872E-24
 -1       965 1.28431E-05 2.51270E-05 0.00000E+00
 -1       966 1.26993E-05 2.75279E-05 0.00000E+00
 -1       967 1.25555E-05 2.99289E-05 0.00000E+00
 -1       968 1.24118E-05 3.23204E-05 0.00000E+00
 -1       969 1.22684E-05 3.46931E-05-1.65436E-24
 -1       970 1.21255E-05 3.70376E-05 0.00000E+00
 -1       971 1.18476E-05 4.16956E-05 0.00000E+00
 -1       972 1.17084E-05 4.41745E-05-1.65436E-24
 -1       973 1.15687E-05 4.67674E-05-3.30872E-24
 -1       974 1.14285E-05 4.94595E-05 0.00000E+00
 -1       975 1.12881E-05 5.22361E-05 3.30872E-24
 -1       976 1.11475E-05 5.50824E-05 0.00000E+00
 -1       977 1.10067E-05 5.79838E-05-3.30872E-24
 -1       978 1.08658E-05 6.09253E-05 0.00000E+00
 -1       979 1.07248E-05 6.38921E-05 3.30872E-24
 -1       980 1.05838E-05 6.68696E-05 0.00000E+00
 -1       981 1.04429E-05 6.98427E-05-3.30872E-24
 -1       982 1.03021E-05 7.27968E-05-1.65436E-24
 -1       983 1.01616E-05 7.57170E-05 3.30872E-24
 -1       984 1.00218E-05 7.85886E-05 0.00000E+00
 -1       985 9.88274E-06 8.13967E-05 0.00000E+00
 -3
    1PSTEP                        42          21           1          
  100CL  121 8.08729E-01         409                     0   21           1
 -4  FORC        4    1
 -5  F1          1    2    1    0
 -5  F2          1    2    2    0
 -5  F3          1    2    3    0
 -5  ALL         1    2    0    0    1ALL
 -1         1 3.88223E-04 0.00000E+00 0.00000E+00
 -1         2 0.00000E+00 0.00000E+00 0.00000E+00
 -1         3 0.00000E+00 0.00000E+00 0.00000E+00
 -1         5 0.00000E+00 0.00000E+00 0.00000E+00
 -1         8 1.10716E-04-6.40134E-05 0.00000E+00
 -1         9-8.58186E-04 1.03065E-03 0.00000E+00
 -1        10 7.58027E-08 2.60132E-07 0.00000E+00
 -1        12 0.00000E+00 0.00000E+00 0.00000E+00
 -1        15 0.00000E+00 0.00000E+00 0.00000E+00
 -1        16-8.93990E-04-3.10251E-03 0.00000E+00
 -1        17-7.80921E-05-2.03898E-05 0.00000E+00
 -1        18 6.12017E-08 5.07311E-08 0.00000E+00
 -1        19 2.35332E-08-6.36194E-09 0.00000E+00
 -1        20-3.56334E-08 3.83982E-09 0.00000E+00
 -1        21 0.00000E+00 1.37661E-08 0.00000E+00
 -1        24-1.31602E-04-7.74874E-05 0.00000E+00
 -1        25-3.60005E-11-3.58468E-08 0.00000E+00
 -1        26-2.38682E-08-2.03242E-08 0.00000E+00
 -1        27-9.94799E-09 2.09543E-08 0.00000E+00
 -1        28-1.06747E-08 6.51639E-09 0.00000E+00
 -1        32 0.00000E+00 0.00000E+00 0.00000E+00
 -1        33-2.52179E-09-3.15090E-08 0.00000E+00
 -1        34-8.05782E-09-2.79095E-08 0.00000E+00
 -1        35-4.73332E-08-3.07527E-08 0.00000E+00
 -1        51 0.00000E+00 0.00000E+00 0.00000E+00
 -1        52 0.00000E+00 0.00000E+00 0.00000E+00
 -1        53 0.00000E+00 0.00000E+00 0.00000E+00
 -1        54 0.00000E+00 0.00000E+00 0.00000E+00
 -1        55 0.00000E+00 0.00000E+00 0.00000E+00
 -1        56 0.00000E+00 0.00000E+00 0.00000E+00
 -1        57 0.00000E+00 0.00000E+00 0.00000E+00
 -1        58 0.00000E+00 0.00000E+00 0.00000E+00
 -1        59 0.00000E+00 0.00000E+00 0.00000E+00
 -1        60 0.00000E+00 0.00000E+00 0.00000E+00
 -1        61 0.00000E+00 0.00000E+00 0.00000E+00
 -1        62 0.00000E+00 0.00000E+00 0.00000E+00
 -1        63 0.00000E+00 0.00000E+00 0.00000E+00
 -1        64 0.00000E+00 0.00000E+00 0.00000E+00
 -1        65 0.00000E+00 0.00000E+00 0.00000E+00
 -1        66 0.00000E+00 0.00000E+00 0.00000E+00
 -1        67 0.00000E+00 0.00000E+00 0.00000E+00
 -1        68 0.00000E+00 0.00000E+00 0.00000E+00
 -1        69 0.00000E+00 0.00000E+00 0.00000E+00
 -1        70 0.00000E+00 0.00000E+00 0.00000E+00
 -1        86 0.00000E+00 0.00000E+00 0.00000E+00
 -1        87 0.00000E+00 0.00000E+00 0.00000E+00
 -1        88 0.00000E+00 0.00000E+00 0.00000E+00
 -1        89 0.00000E+00 0.00000E+00 0.00000E+00
 -1        90 0.00000E+00 0.00000E+00 0.00000E+00
 -1       121 0.00000E+00 0.00000E+00 0.00000E+00
 -1       122 0.00000E+00 0.00000E+00 0.00000E+00
 -1       123 0.00000E+00 0.00000E+00 0.00000E+00
 -1       124 0.00000E+00 0.00000E+00 0.00000E+00
 -1       125 0.00000E+00 0.00000E+00 0.00000E+00
 -1       191 0.00000E+00 0.00000E+00 0.00000E+00
 -1       192 0.00000E+00 0.00000E+00 0.00000E+00
 -1       193 0.00000E+00 0.00000E+00 0.00000E+00
 -1       194 0.00000E+00 0.00000E+00 0.00000E+00
 -1       195 0.00000E+00 0.00000E+00 0.00000E+00
 -1       251 0.00000E+00 0.00000E+00 0.00000E+00
 -1       252 0.00000E+00 0.00000E+00 0.00000E+00
 -1       253 0.00000E+00 0.00000E+00 0.00000E+00
 -1       254 0.00000E+00 0.00000E+00 0.00000E+00
 -1       255 0.00000E+00 0.00000E+00 0.00000E+00
 -1       256 0.00000E+00 0.00000E+00 0.00000E+00
 -1       257 0.00000E+00 0.00000E+00 0.00000E+00
 -1       258 0.00000E+00 0.00000E+00 0.00000E+00
 -1       259 0.00000E+00 0.00000E+00 0.00000E+00
 -1       260 0.00000E+00 0.00000E+00 0.00000E+00
 -1       261 0.00000E+00 0.00000E+00 0.00000E+00
 -1       262 0.00000E+00 0.00000E+00 0.00000E+00
 -1       263 0.00000E+00 0.00000E+00 0.00000E+00
 -1       264 0.00000E+00 0.00000E+00 0.00000E+00
 -1       265 0.00000E+00 0.00000E+00 0.00000E+00
 -1       266 0.00000E+00 0.00000E+00 0.00000E+00
 -1       267 0.00000E+00 0.00000E+00 0.00000E+00
 -1       268 0.00000E+00 0.00000E+00 0.00000E+00
 -1       269 0.00000E+00 0.00000E+00 0.00000E+00
 -1       270 0.00000E+00 0.00000E+00 0.00000E+00
 -1       271 0.00000E+00 0.00000E+00 0.00000E+00
 -1       272 0.00000E+00 0.00000E+00 0.00000E+00
 -1       273 0.00000E+00 0.00000E+00 0.00000E+00
 -1       274 0.00000E+00 0.00000E+00 0.00000E+00
 -1       275 0.00000E+00 0.00000E+00 0.00000E+00
 -1       276 0.00000E+00 0.00000E+00 0.00000E+00
 -1       277 0.00000E+00 0.00000E+00 0.00000E+00
 -1       278 0.00000E+00 0.00000E+00 0.00000E+00
 -1       279 0.00000E+00 0.00000E+00 0.00000E+00
 -1       280 0.00000E+00 0.00000E+00 0.00000E+00
 -1       281 0.00000E+00 0.00000E+00 0.00000E+00
 -1       282 0.00000E+00 0.00000E+00 0.00000E+00
 -1       283 0.00000E+00 0.00000E+00 0.00000E+00
 -1       284 0.00000E+00 0.00000E+00 0.00000E+00
 -1       285 0.00000E+00 0.00000E+00 0.00000E+00
 -1       301 0.00000E+00 0.00000E+00 0.00000E+00
 -1       302 0.00000E+00 0.00000E+00 0.00000E+00
 -1       303 0.00000E+00 0.00000E+00 0.00000E+00
 -1       304 0.00000E+00 0.00000E+00 0.00000E+00
 -1       305 0.00000E+00 0.00000E+00 0.00000E+00
 -1       306 0.00000E+00 0.00000E+00 0.00000E+00
 -1       307 0.00000E+00 0.00000E+00 0.00000E+00
 -1       308 0.00000E+00 0.00000E+00 0.00000E+00
 -1       309 0.00000E+00 0.00000E+00 0.00000E+00
 -1       310 0.00000E+00 0.00000E+00 0.00000E+00
 -1       311 0.00000E+00 0.00000E+00 0.00000E+00
 -1       312 0.00000E+00 0.00000E+00 0.00000E+00
 -1       313 0.00000E+00 0.00000E+00 0.00000E+00
 -1       314 0.00000E+00 0.00000E+00 0.00000E+00
 -1       315 0.00000E+00 0.00000E+00 0.00000E+00
 -1       316 0.00000E+00 0.00000E+00 0.00000E+00
 -1       317 0.00000E+00 0.00000E+00 0.00000E+00
 -1       318 0.00000E+00 0.00000E+00 0.00000E+00
 -1       319 0.00000E+00 0.00000E+00 0.00000E+00
 -1       320 0.00000E+00 0.00000E+00 0.00000E+00
 -1       336 0.00000E+00 0.00000E+00 0.00000E+00
 -1       337 0.00000E+00 0.00000E+00 0.00000E+00
 -1       338 0.00000E+00 0.00000E+00 0.00000E+00
 -1       339 0.00000E+00 0.00000E+00 0.00000E+00
 -1       340 0.00000E+00 0.00000E+00 0.00000E+00
 -1       406 0.00000E+00 0.00000E+00 0.00000E+00
 -1       407 0.00000E+00 0.00000E+00 0.00000E+00
 -1       408 0.00000E+00 0.00000E+00 0.00000E+00
 -1       409 0.00000E+00 0.00000E+00 0.00000E+00
 -1       410 0.00000E+00 0.00000E+00 0.00000E+00
 -1       521 0.00000E+00 0.00000E+00 0.00000E+00
 -1       522 0.00000E+00 0.00000E+00 0.00000E+00
 -1       523 0.00000E+00 0.00000E+00 0.00000E+00
 -1       524 0.00000E+00 0.00000E+00 0.00000E+00
 -1       525 0.00000E+00 0.00000E+00 0.00000E+00
 -1       526 0.00000E+00 0.00000E+00 0.00000E+00
 -1       527 0.00000E+00 0.00000E+00 0.00000E+00
 -1       528 0.00000E+00 0.00000E+00 0.00000E+00
 -1       529 0.00000E+00 0.00000E+00 0.00000E+00
 -1       530 0.00000E+00 0.00000E+00 0.00000E+00
 -1       531 0.00000E+00 0.00000E+00 0.00000E+00
 -1       532 0.00000E+00 0.00000E+00 0.00000E+00
 -1       533 0.00000E+00 0.00000E+00 0.00000E+00
 -1       534 0.00000E+00 0.00000E+00 0.00000E+00
 -1       535 0.00000E+00 0.00000E+00 0.00000E+00
 -1       536 0.00000E+00 0.00000E+00 0.00000E+00
 -1       537 0.00000E+00 0.00000E+00 0.00000E+00
 -1       538 0.00000E+00 0.00000E+00 0.00000E+00
 -1       539 0.00000E+00 0.00000E+00 0.00000E+00
 -1       540 0.00000E+00 0.00000E+00 0.00000E+00
 -1       541 0.00000E+00 0.00000E+00 0.00000E+00
 -1       542 0.00000E+00 0.00000E+00 0.00000E+00
 -1       543 0.00000E+00 0.00000E+00 0.00000E+00
 -1       544 0.00000E+00 0.00000E+00 0.00000E+00
 -1       545 0.00000E+00 0.00000E+00 0.00000E+00
 -1       546 0.00000E+00 0.00000E+00 0.00000E+00
 -1       547 0.00000E+00 0.00000E+00 0.00000E+00
 -1       548 0.00000E+00 0.00000E+00 0.00000E+00
 -1       549 0.00000E+00 0.00000E+00 0.00000E+00
 -1       550 0.00000E+00 0.00000E+00 0.00000E+00
 -1       551 0.00000E+00 0.00000E+00 0.00000E+00
 -1       552 0.00000E+00 0.00000E+00 0.00000E+00
 -1       553 0.00000E+00 0.00000E+00 0.00000E+00
 -1       554 0.00000E+00 0.00000E+00 0.00000E+00
 -1       555 0.00000E+00 0.00000E+00 0.00000E+00
 -1       556 0.00000E+00 0.00000E+00 0.00000E+00
 -1       557 0.00000E+00 0.00000E+00 0.00000E+00
 -1       558 0.00000E+00 0.00000E+00 0.00000E+00
 -1       559 0.00000E+00 0.00000E+00 0.00000E+00
 -1       560 0.00000E+00 0.00000E+00 0.00000E+00
 -1       561 0.00000E+00 0.00000E+00 0.00000E+00
 -1       562 0.00000E+00 0.00000E+00 0.00000E+00
 -1       563 0.00000E+00 0.00000E+00 0.00000E+00
 -1       564 0.00000E+00 0.00000E+00 0.00000E+00
 -1       565 0.00000E+00 0.00000E+00 0.00000E+00
 -1       566 0.00000E+00 0.00000E+00 0.00000E+00
 -1       567 0.00000E+00 0.00000E+00 0.00000E+00
 -1       568 0.00000E+00 0.00000E+00 0.00000E+00
 -1       569 0.00000E+00 0.00000E+00 0.00000E+00
 -1       570 0.00000E+00 0.00000E+00 0.00000E+00
 -1       571 0.00000E+00 0.00000E+00 0.00000E+00
 -1       572 0.00000E+00 0.00000E+00 0.00000E+00
 -1       573 0.00000E+00 0.00000E+00 0.00000E+00
 -1       574 0.00000E+00 0.00000E+00 0.00000E+00
 -1       575 0.00000E+00 0.00000E+00 0.00000E+00
 -1       576 0.00000E+00 0.00000E+00 0.00000E+00
 -1       577 0.00000E+00 0.00000E+00 0.00000E+00
 -1       578 0.00000E+00 0.00000E+00 0.00000E+00
 -1       579 0.00000E+00 0.00000E+00 0.00000E+00
 -1       580 0.00000E+00 0.00000E+00 0.00000E+00
 -1       581 0.00000E+00 0.00000E+00 0.00000E+00
 -1       582 0.00000E+00 0.00000E+00 0.00000E+00
 -1       583 0.00000E+00 0.00000E+00 0.00000E+00
 -1       584 0.00000E+00 0.00000E+00 0.00000E+00
 -1       585 0.00000E+00 0.00000E+00 0.00000E+00
 -1       586 0.00000E+00 0.00000E+00 0.00000E+00
 -1       587 0.00000E+00 0.00000E+00 0.00000E+00
 -1       588 0.00000E+00 0.00000E+00 0.00000E+00
 -1       589 0.00000E+00 0.00000E+00 0.00000E+00
 -1       590 0.00000E+00 0.00000E+00 0.00000E+00
 -1       591 0.00000E+00 0.00000E+00 0.00000E+00
 -1       592 0.00000E+00 0.00000E+00 0.00000E+00
 -1       593 0.00000E+00 0.00000E+00 0.00000E+00
 -1       594 0.00000E+00 0.00000E+00 0.00000E+00
 -1       595 0.00000E+00 0.00000E+00 0.00000E+00
 -1       596 0.00000E+00 0.00000E+00 0.00000E+00
 -1       597 0.00000E+00 0.00000E+00 0.00000E+00
 -1       598 0.00000E+00 0.00000E+00 0.00000E+00
 -1       599 0.00000E+00 0.00000E+00 0.00000E+00
 -1       600 0.00000E+00 0.00000E+00 0.00000E+00
 -1       601 0.00000E+00 0.00000E+00 0.00000E+00
 -1       602 0.00000E+00 0.00000E+00 0.00000E+00
 -1       603 0.00000E+00 0.00000E+00 0.00000E+00
 -1       604 0.00000E+00 0.00000E+00 0.00000E+00
 -1       605 0.00000E+00 0.00000E+00 0.00000E+00
 -1       606 0.00000E+00 0.00000E+00 0.00000E+00
 -1       607 0.00000E+00 0.00000E+00 0.00000E+00
 -1       608 0.00000E+00 0.00000E+00 0.00000E+00
 -1       609 0.00000E+00 0.00000E+00 0.00000E+00
 -1       610 0.00000E+00 0.00000E+00 0.00000E+00
 -1       611 0.00000E+00 0.00000E+00 0.00000E+00
 -1       612 0.00000E+00 0.00000E+00 0.00000E+00
 -1       613 0.00000E+00 0.00000E+00 0.00000E+00
 -1       614 0.00000E+00 0.00000E+00 0.00000E+00
 -1       615 0.00000E+00 0.00000E+00 0.00000E+00
 -1       616 0.00000E+00 0.00000E+00 0.00000E+00
 -1       617 0.00000E+00 0.00000E+00 0.00000E+00
 -1       618 0.00000E+00 0.00000E+00 0.00000E+00
 -1       619 0.00000E+00 0.00000E+00 0.00000E+00
 -1       620 0.00000E+00 0.00000E+00 0.00000E+00
 -1       621 0.00000E+00 0.00000E+00 0.00000E+00
 -1       622 0.00000E+00 0.00000E+00 0.00000E+00
 -1       623 0.00000E+00 0.00000E+00 0.00000E+00
 -1       624 0.00000E+00 0.00000E+00 0.00000E+00
 -1       625 0.00000E+00 0.00000E+00 0.00000E+00
 -1       626 0.00000E+00 0.00000E+00 0.00000E+00
 -1       627 0.00000E+00 0.00000E+00 0.00000E+00
 -1       628 0.00000E+00 0.00000E+00 0.00000E+00
 -1       629 0.00000E+00 0.00000E+00 0.00000E+00
 -1       630 0.00000E+00 0.00000E+00 0.00000E+00
 -1       631 0.00000E+00 0.00000E+00 0.00000E+00
 -1       632 0.00000E+00 0.00000E+00 0.00000E+00
 -1       633 0.00000E+00 0.00000E+00 0.00000E+00
 -1       634 0.00000E+00 0.00000E+00 0.00000E+00
 -1       635 0.00000E+00 0.00000E+00 0.00000E+00
 -1       636 0.00000E+00 0.00000E+00 0.00000E+00
 -1       637 0.00000E+00 0.00000E+00 0.00000E+00
 -1       638 0.00000E+00 0.00000E+00 0.00000E+00
 -1       639 0.00000E+00 0.00000E+00 0.00000E+00
 -1       640 0.00000E+00 0.00000E+00 0.00000E+00
 -1       656 0.00000E+00 0.00000E+00 0.00000E+00
 -1       657 0.00000E+00 0.00000E+00 0.00000E+00
 -1       658 0.00000E+00 0.00000E+00 0.00000E+00
 -1       659 0.00000E+00 0.00000E+00 0.00000E+00
 -1       660 0.00000E+00 0.00000E+00 0.00000E+00
 -1       661 0.00000E+00 0.00000E+00 0.00000E+00
 -1       662 0.00000E+00 0.00000E+00 0.00000E+00
 -1       663 0.00000E+00 0.00000E+00 0.00000E+00
 -1       664 0.00000E+00 0.00000E+00 0.00000E+00
 -1       665 0.00000E+00 0.00000E+00 0.00000E+00
 -1       666 0.00000E+00 0.00000E+00 0.00000E+00
 -1       667 0.00000E+00 0.00000E+00 0.00000E+00
 -1       668 0.00000E+00 0.00000E+00 0.00000E+00
 -1       669 0.00000E+00 0.00000E+00 0.00000E+00
 -1       670 0.00000E+00 0.00000E+00 0.00000E+00
 -1       671 0.00000E+00 0.00000E+00 0.00000E+00
 -1       672 0.00000E+00 0.00000E+00 0.00000E+00
 -1       673 0.00000E+00 0.00000E+00 0.00000E+00
 -1       674 0.00000E+00 0.00000E+00 0.00000E+00
 -1       675 0.00000E+00 0.00000E+00 0.00000E+00
 -1       676 0.00000E+00 0.00000E+00 0.00000E+00
 -1       677 0.00000E+00 0.00000E+00 0.00000E+00
 -1       678 0.00000E+00 0.00000E+00 0.00000E+00
 -1       679 0.00000E+00 0.00000E+00 0.00000E+00
 -1       680 0.00000E+00 0.00000E+00 0.00000E+00
 -1       771 0.00000E+00 0.00000E+00 0.00000E+00
 -1       772 0.00000E+00 0.00000E+00 0.00000E+00
 -1       773 0.00000E+00 0.00000E+00 0.00000E+00
 -1       774 0.00000E+00 0.00000E+00 0.00000E+00
 -1       775 0.00000E+00 0.00000E+00 0.00000E+00
 -1       776 0.00000E+00 0.00000E+00 0.00000E+00
 -1       777 0.00000E+00 0.00000E+00 0.00000E+00
 -1       778 0.00000E+00 0.00000E+00 0.00000E+00
 -1       779 0.00000E+00 0.00000E+00 0.00000E+00
 -1       780 0.00000E+00 0.00000E+00 0.00000E+00
 -1       781 0.00000E+00 0.00000E+00 0.00000E+00
 -1       782 0.00000E+00 0.00000E+00 0.00000E+00
 -1       783 0.00000E+00 0.00000E+00 0.00000E+00
 -1       784 0.00000E+00 0.00000E+00 0.00000E+00
 -1       785 0.00000E+00 0.00000E+00 0.00000E+00
 -1       786 0.00000E+00 0.00000E+00 0.00000E+00
 -1       787 0.00000E+00 0.00000E+00 0.00000E+00
 -1       788 0.00000E+00 0.00000E+00 0.00000E+00
 -1       789 0.00000E+00 0.00000E+00 0.00000E+00
 -1       790 0.00000E+00 0.00000E+00 0.00000E+00
 -1       791 0.00000E+00 0.00000E+00 0.00000E+00
 -1       792 0.00000E+00 0.00000E+00 0.00000E+00
 -1       793 0.00000E+00 0.00000E+00 0.00000E+00
 -1       794 0.00000E+00 0.00000E+00 0.00000E+00
 -1       795 0.00000E+00 0.00000E+00 0.00000E+00
 -1       796 0.00000E+00 0.00000E+00 0.00000E+00
 -1       797 0.00000E+00 0.00000E+00 0.00000E+00
 -1       798 0.00000E+00 0.00000E+00 0.00000E+00
 -1       799 0.00000E+00 0.00000E+00 0.00000E+00
 -1       800 0.00000E+00 0.00000E+00 0.00000E+00
 -1       801 0.00000E+00 0.00000E+00 0.00000E+00
 -1       802 0.00000E+00 0.00000E+00 0.00000E+00
 -1       803 0.00000E+00 0.00000E+00 0.00000E+00
 -1       804 0.00000E+00 0.00000E+00 0.00000E+00
 -1       805 0.00000E+00 0.00000E+00 0.00000E+00
 -1       806 0.00000E+00 0.00000E+00 0.00000E+00
 -1       807 0.00000E+00 0.00000E+00 0.00000E+00
 -1       808 0.00000E+00 0.00000E+00 0.00000E+00
 -1       809 0.00000E+00 0.00000E+00 0.00000E+00
 -1       810 0.00000E+00 0.00000E+00 0.00000E+00
 -1       811 0.00000E+00 0.00000E+00 0.00000E+00
 -1       812 0.00000E+00 0.00000E+00 0.00000E+00
 -1       813 0.00000E+00 0.00000E+00 0.00000E+00
 -1       814 0.00000E+00 0.00000E+00 0.00000E+00
 -1       815 0.00000E+00 0.00000E+00 0.00000E+00
 -1       816 0.00000E+00 0.00000E+00 0.00000E+00
 -1       817 0.00000E+00 0.00000E+00 0.00000E+00
 -1       818 0.00000E+00 0.00000E+00 0.00000E+00
 -1       819 0.00000E+00 0.00000E+00 0.00000E+00
 -1       820 0.00000E+00 0.00000E+00 0.00000E+00
 -1       821 0.00000E+00 0.00000E+00 0.00000E+00
 -1       822 0.00000E+00 0.00000E+00 0.00000E+00
 -1       823 0.00000E+00 0.00000E+00 0.00000E+00
 -1       824 0.00000E+00 0.00000E+00 0.00000E+00
 -1       825 0.00000E+00 0.00000E+00 0.00000E+00
 -1       826 0.00000E+00 0.00000E+00 0.00000E+00
 -1       827 0.00000E+00 0.00000E+00 0.00000E+00
 -1       828 0.00000E+00 0.00000E+00 0.00000E+00
 -1       829 0.00000E+00 0.00000E+00 0.00000E+00
 -1       830 0.00000E+00 0.00000E+00 0.00000E+00
 -1       831 0.00000E+00 0.00000E+00 0.00000E+00
 -1       832 0.00000E+00 0.00000E+00 0.00000E+00
 -1       833 0.00000E+00 0.00000E+00 0.00000E+00
 -1       834 0.00000E+00 0.00000E+00 0.00000E+00
 -1       835 0.00000E+00 0.00000E+00 0.00000E+00
 -1       836 0.00000E+00 0.00000E+00 0.00000E+00
 -1       837 0.00000E+00 0.00000E+00 0.00000E+00
 -1       838 0.00000E+00 0.00000E+00 0.00000E+00
 -1       839 0.00000E+00 0.00000E+00 0.00000E+00
 -1       840 0.00000E+00 0.00000E+00 0.00000E+00
 -1       856 0.00000E+00 0.00000E+00 0.00000E+00
 -1       857 0.00000E+00 0.00000E+00 0.00000E+00
 -1       858 0.00000E+00 0.00000E+00 0.00000E+00
 -1       859 0.00000E+00 0.00000E+00 0.00000E+00
 -1       860 0.00000E+00 0.00000E+00 0.00000E+00
 -1       861 0.00000E+00 0.00000E+00 0.00000E+00
 -1       862 0.00000E+00 0.00000E+00 0.00000E+00
 -1       863 0.00000E+00 0.00000E+00 0.00000E+00
 -1       864 0.00000E+00 0.00000E+00 0.00000E+00
 -1       865 0.00000E+00 0.00000E+00 0.00000E+00
 -1       866 0.00000E+00 0.00000E+00 0.00000E+00
 -1       867 0.00000E+00 0.00000E+00 0.00000E+00
 -1       868 0.00000E+00 0.00000E+00 0.00000E+00
 -1       869 0.00000E+00 0.00000E+00 0.00000E+00
 -1       870 0.00000E+00 0.00000E+00 0.00000E+00
 -1       871 0.00000E+00 0.00000E+00 0.00000E+00
 -1       872 0.00000E+00 0.00000E+00 0.00000E+00
 -1       873 0.00000E+00 0.00000E+00 0.00000E+00
 -1       874 0.00000E+00 0.00000E+00 0.00000E+00
 -1       875 0.00000E+00 0.00000E+00 0.00000E+00
 -1       876 0.00000E+00 0.00000E+00 0.00000E+00
 -1       877 0.00000E+00 0.00000E+00 0.00000E+00
 -1       878 0.00000E+00 0.00000E+00 0.00000E+00
 -1       879 0.00000E+00 0.00000E+00 0.00000E+00
 -1       880 0.00000E+00 0.00000E+00 0.00000E+00
 -1       881 0.00000E+00 0.00000E+00 0.00000E+00
 -1       882 0.00000E+00 0.00000E+00 0.00000E+00
 -1       883 0.00000E+00 0.00000E+00 0.00000E+00
 -1       884 0.00000E+00 0.00000E+00 0.00000E+00
 -1       885 0.00000E+00 0.00000E+00 0.00000E+00
 -1       886 0.00000E+00 0.00000E+00 0.00000E+00
 -1       887 0.00000E+00 0.00000E+00 0.00000E+00
 -1       888 0.00000E+00 0.00000E+00 0.00000E+00
 -1       889 0.00000E+00 0.00000E+00 0.00000E+00
 -1       890 0.00000E+00 0.00000E+00 0.00000E+00
 -1       891 0.00000E+00 0.00000E+00 0.00000E+00
 -1       892 0.00000E+00 0.00000E+00 0.00000E+00
 -1       893 0.00000E+00 0.00000E+00 0.00000E+00
 -1       894 0.00000E+00 0.00000E+00 0.00000E+00
 -1       895 0.00000E+00 0.00000E+00 0.00000E+00
 -1       956 0.00000E+00 0.00000E+00 0.00000E+00
 -1       957 0.00000E+00 0.00000E+00 0.00000E+00
 -1       958 0.00000E+00 0.00000E+00 0.00000E+00
 -1       959 0.00000E+00 0.00000E+00 0.00000E+00
 -1       960 0.00000E+00 0.00000E+00 0.00000E+00
 -1       961 0.00000E+00 0.00000E+00 0.00000E+00
 -1       962 0.00000E+00 0.00000E+00 0.00000E+00
 -1       963 0.00000E+00 0.00000E+00 0.00000E+00
 -1       964 0.00000E+00 0.00000E+00 0.00000E+00
 -1       965 0.00000E+00 0.00000E+00 0.00000E+00
 -1       966 0.00000E+00 0.00000E+00 0.00000E+00
 -1       967 0.00000E+00 0.00000E+00 0.00000E+00
 -1       968 0.00000E+00 0.00000E+00 0.00000E+00
 -1       969 0.00000E+00 0.00000E+00 0.00000E+00
 -1       970 0.00000E+00 0.00000E+00 0.00000E+00
 -1       971 0.00000E+00 0.00000E+00 0.00000E+00
 -1       972 0.00000E+00 0.00000E+00 0.00000E+00
 -1       973 0.00000E+00 0.00000E+00 0.00000E+00
 -1       974 0.00000E+00 0.00000E+00 0.00000E+00
 -1       975 0.00000E+00 0.00000E+00 0.00000E+00
 -1       976 0.00000E+00 0.00000E+00 0.00000E+00
 -1       977 0.00000E+00 0.00000E+00 0.00000E+00
 -1       978 0.00000E+00 0.00000E+00 0.00000E+00
 -1       979 0.00000E+00 0.00000E+00 0.00000E+00
 -1       980 0.00000E+00 0.00000E+00 0.00000E+00
 -1       981 0.00000E+00 0.00000E+00 0.00000E+00
 -1       982 0.00000E+00 0.00000E+00 0.00000E+00
 -1       983 0.00000E+00 0.00000E+00 0.00000E+00
 -1       984 0.00000E+00 0.00000E+00 0.00000E+00
 -1       985 0.00000E+00 0.00000E+00 0.00000E+00
 -3
