    1C
    1UUSER                                                              
    1UDATE              11.october.2022                                 
    1UTIME              18:55:49                                        
    1UHOST                                                              
    1UPGM               CalculiX                                        
    1UVERSION           Version 2.20                             
    1UCOMPILETIME       Sun Jul 31 18:08:37 CEST 2022                    
    1UDIR                                                               
    1UDBN                                                               
    1UMAT    1MESH_MATERIAL                                             
    2C                           409                                     1
 -1         1 0.00000E+00 0.00000E+00 0.00000E+00
 -1         2 1.66667E-02 0.00000E+00 0.00000E+00
 -1         3 3.33333E-02 0.00000E+00 0.00000E+00
 -1         5 6.66667E-02 0.00000E+00 0.00000E+00
 -1         8 0.00000E+00 6.25000E-03 0.00000E+00
 -1         9 1.66667E-02 6.25000E-03 0.00000E+00
 -1        10 3.33333E-02 6.25000E-03 0.00000E+00
 -1        12 6.66667E-02 6.25000E-03 0.00000E+00
 -1        15 0.00000E+00 1.25000E-02 0.00000E+00
 -1        16 1.66667E-02 1.25000E-02 0.00000E+00
 -1        17 3.33333E-02 1.25000E-02 0.00000E+00
 -1        18 5.00000E-02 1.25000E-02 0.00000E+00
 -1        19 6.66667E-02 1.25000E-02 0.00000E+00
 -1        20 8.33333E-02 1.25000E-02 0.00000E+00
 -1        21 1.00000E-01 1.25000E-02 0.00000E+00
 -1        24 3.33333E-02 1.87500E-02 0.00000E+00
 -1        25 5.00000E-02 1.87500E-02 0.00000E+00
 -1        26 6.66667E-02 1.87500E-02 0.00000E+00
 -1        27 8.33333E-02 1.87500E-02 0.00000E+00
 -1        28 1.00000E-01 1.87500E-02 0.00000E+00
 -1        32 5.00000E-02 2.50000E-02 0.00000E+00
 -1        33 6.66667E-02 2.50000E-02 0.00000E+00
 -1        34 8.33333E-02 2.50000E-02 0.00000E+00
 -1        35 1.00000E-01 2.50000E-02 0.00000E+00
 -1        51 0.00000E+00 1.04167E-03 0.00000E+00
 -1        52 0.00000E+00 2.08333E-03 0.00000E+00
 -1        53 0.00000E+00 3.12500E-03 0.00000E+00
 -1        54 0.00000E+00 4.16667E-03 0.00000E+00
 -1        55 0.00000E+00 5.20833E-03 0.00000E+00
 -1        56 1.04167E-03 3.90630E-04 0.00000E+00
 -1        57 2.08333E-03 7.81250E-04 0.00000E+00
 -1        58 3.12500E-03 1.17188E-03 0.00000E+00
 -1        59 4.16667E-03 1.56250E-03 0.00000E+00
 -1        60 5.20833E-03 1.95312E-03 0.00000E+00
 -1        61 6.25000E-03 2.34375E-03 0.00000E+00
 -1        62 7.29167E-03 2.73438E-03 0.00000E+00
 -1        63 8.33333E-03 3.12500E-03 0.00000E+00
 -1        64 9.37500E-03 3.51563E-03 0.00000E+00
 -1        65 1.04167E-02 3.90625E-03 0.00000E+00
 -1        66 1.14583E-02 4.29688E-03 0.00000E+00
 -1        67 1.25000E-02 4.68750E-03 0.00000E+00
 -1        68 1.35417E-02 5.07813E-03 0.00000E+00
 -1        69 1.45833E-02 5.46875E-03 0.00000E+00
 -1        70 1.56250E-02 5.85938E-03 0.00000E+00
 -1        86 1.66667E-02 1.04167E-03 0.00000E+00
 -1        87 1.66667E-02 2.08333E-03 0.00000E+00
 -1        88 1.66667E-02 3.12500E-03 0.00000E+00
 -1        89 1.66667E-02 4.16667E-03 0.00000E+00
 -1        90 1.66667E-02 5.20833E-03 0.00000E+00
 -1       121 3.33333E-02 1.04167E-03 0.00000E+00
 -1       122 3.33333E-02 2.08333E-03 0.00000E+00
 -1       123 3.33333E-02 3.12500E-03 0.00000E+00
 -1       124 3.33333E-02 4.16667E-03 0.00000E+00
 -1       125 3.33333E-02 5.20833E-03 0.00000E+00
 -1       191 6.66667E-02 1.04167E-03 0.00000E+00
 -1       192 6.66667E-02 2.08333E-03 0.00000E+00
 -1       193 6.66667E-02 3.12500E-03 0.00000E+00
 -1       194 6.66667E-02 4.16667E-03 0.00000E+00
 -1       195 6.66667E-02 5.20833E-03 0.00000E+00
 -1       251 1.04167E-03 6.25000E-03 0.00000E+00
 -1       252 2.08333E-03 6.25000E-03 0.00000E+00
 -1       253 3.12500E-03 6.25000E-03 0.00000E+00
 -1       254 4.16667E-03 6.25000E-03 0.00000E+00
 -1       255 5.20833E-03 6.25000E-03 0.00000E+00
 -1       256 6.25000E-03 6.25000E-03 0.00000E+00
 -1       257 7.29167E-03 6.25000E-03 0.00000E+00
 -1       258 8.33333E-03 6.25000E-03 0.00000E+00
 -1       259 9.37500E-03 6.25000E-03 0.00000E+00
 -1       260 1.04167E-02 6.25000E-03 0.00000E+00
 -1       261 1.14583E-02 6.25000E-03 0.00000E+00
 -1       262 1.25000E-02 6.25000E-03 0.00000E+00
 -1       263 1.35417E-02 6.25000E-03 0.00000E+00
 -1       264 1.45833E-02 6.25000E-03 0.00000E+00
 -1       265 1.56250E-02 6.25000E-03 0.00000E+00
 -1       266 0.00000E+00 7.29167E-03 0.00000E+00
 -1       267 0.00000E+00 8.33333E-03 0.00000E+00
 -1       268 0.00000E+00 9.37500E-03 0.00000E+00
 -1       269 0.00000E+00 1.04167E-02 0.00000E+00
 -1       270 0.00000E+00 1.14583E-02 0.00000E+00
 -1       271 1.04167E-03 6.64063E-03 0.00000E+00
 -1       272 2.08333E-03 7.03125E-03 0.00000E+00
 -1       273 3.12500E-03 7.42188E-03 0.00000E+00
 -1       274 4.16667E-03 7.81250E-03 0.00000E+00
 -1       275 5.20833E-03 8.20313E-03 0.00000E+00
 -1       276 6.25000E-03 8.59375E-03 0.00000E+00
 -1       277 7.29167E-03 8.98438E-03 0.00000E+00
 -1       278 8.33333E-03 9.37500E-03 0.00000E+00
 -1       279 9.37500E-03 9.76562E-03 0.00000E+00
 -1       280 1.04167E-02 1.01562E-02 0.00000E+00
 -1       281 1.14583E-02 1.05469E-02 0.00000E+00
 -1       282 1.25000E-02 1.09375E-02 0.00000E+00
 -1       283 1.35417E-02 1.13281E-02 0.00000E+00
 -1       284 1.45833E-02 1.17188E-02 0.00000E+00
 -1       285 1.56250E-02 1.21094E-02 0.00000E+00
 -1       301 1.66667E-02 7.29167E-03 0.00000E+00
 -1       302 1.66667E-02 8.33333E-03 0.00000E+00
 -1       303 1.66667E-02 9.37500E-03 0.00000E+00
 -1       304 1.66667E-02 1.04167E-02 0.00000E+00
 -1       305 1.66667E-02 1.14583E-02 0.00000E+00
 -1       306 1.77083E-02 6.64063E-03 0.00000E+00
 -1       307 1.87500E-02 7.03125E-03 0.00000E+00
 -1       308 1.97917E-02 7.42188E-03 0.00000E+00
 -1       309 2.08333E-02 7.81250E-03 0.00000E+00
 -1       310 2.18750E-02 8.20313E-03 0.00000E+00
 -1       311 2.29167E-02 8.59375E-03 0.00000E+00
 -1       312 2.39583E-02 8.98438E-03 0.00000E+00
 -1       313 2.50000E-02 9.37500E-03 0.00000E+00
 -1       314 2.60417E-02 9.76562E-03 0.00000E+00
 -1       315 2.70833E-02 1.01562E-02 0.00000E+00
 -1       316 2.81250E-02 1.05469E-02 0.00000E+00
 -1       317 2.91667E-02 1.09375E-02 0.00000E+00
 -1       318 3.02083E-02 1.13281E-02 0.00000E+00
 -1       319 3.12500E-02 1.17188E-02 0.00000E+00
 -1       320 3.22917E-02 1.21094E-02 0.00000E+00
 -1       336 3.33333E-02 7.29167E-03 0.00000E+00
 -1       337 3.33333E-02 8.33333E-03 0.00000E+00
 -1       338 3.33333E-02 9.37500E-03 0.00000E+00
 -1       339 3.33333E-02 1.04167E-02 0.00000E+00
 -1       340 3.33333E-02 1.14583E-02 0.00000E+00
 -1       406 6.66667E-02 7.29167E-03 0.00000E+00
 -1       407 6.66667E-02 8.33333E-03 0.00000E+00
 -1       408 6.66667E-02 9.37500E-03 0.00000E+00
 -1       409 6.66667E-02 1.04167E-02 0.00000E+00
 -1       410 6.66667E-02 1.14583E-02 0.00000E+00
 -1       521 1.77083E-02 1.28906E-02 0.00000E+00
 -1       522 1.87500E-02 1.32813E-02 0.00000E+00
 -1       523 1.97917E-02 1.36719E-02 0.00000E+00
 -1       524 2.08333E-02 1.40625E-02 0.00000E+00
 -1       525 2.18750E-02 1.44531E-02 0.00000E+00
 -1       526 2.29167E-02 1.48437E-02 0.00000E+00
 -1       527 2.39583E-02 1.52344E-02 0.00000E+00
 -1       528 2.50000E-02 1.56250E-02 0.00000E+00
 -1       529 2.60417E-02 1.60156E-02 0.00000E+00
 -1       530 2.70833E-02 1.64062E-02 0.00000E+00
 -1       531 2.81250E-02 1.67969E-02 0.00000E+00
 -1       532 2.91667E-02 1.71875E-02 0.00000E+00
 -1       533 3.02083E-02 1.75781E-02 0.00000E+00
 -1       534 3.12500E-02 1.79687E-02 0.00000E+00
 -1       535 3.22917E-02 1.83594E-02 0.00000E+00
 -1       536 3.43750E-02 1.25000E-02 0.00000E+00
 -1       537 3.54167E-02 1.25000E-02 0.00000E+00
 -1       538 3.64583E-02 1.25000E-02 0.00000E+00
 -1       539 3.75000E-02 1.25000E-02 0.00000E+00
 -1       540 3.85417E-02 1.25000E-02 0.00000E+00
 -1       541 3.95833E-02 1.25000E-02 0.00000E+00
 -1       542 4.06250E-02 1.25000E-02 0.00000E+00
 -1       543 4.16667E-02 1.25000E-02 0.00000E+00
 -1       544 4.27083E-02 1.25000E-02 0.00000E+00
 -1       545 4.37500E-02 1.25000E-02 0.00000E+00
 -1       546 4.47917E-02 1.25000E-02 0.00000E+00
 -1       547 4.58333E-02 1.25000E-02 0.00000E+00
 -1       548 4.68750E-02 1.25000E-02 0.00000E+00
 -1       549 4.79167E-02 1.25000E-02 0.00000E+00
 -1       550 4.89583E-02 1.25000E-02 0.00000E+00
 -1       551 3.33333E-02 1.35417E-02 0.00000E+00
 -1       552 3.33333E-02 1.45833E-02 0.00000E+00
 -1       553 3.33333E-02 1.56250E-02 0.00000E+00
 -1       554 3.33333E-02 1.66667E-02 0.00000E+00
 -1       555 3.33333E-02 1.77083E-02 0.00000E+00
 -1       556 3.43750E-02 1.28906E-02 0.00000E+00
 -1       557 3.54167E-02 1.32813E-02 0.00000E+00
 -1       558 3.64583E-02 1.36719E-02 0.00000E+00
 -1       559 3.75000E-02 1.40625E-02 0.00000E+00
 -1       560 3.85417E-02 1.44531E-02 0.00000E+00
 -1       561 3.95833E-02 1.48437E-02 0.00000E+00
 -1       562 4.06250E-02 1.52344E-02 0.00000E+00
 -1       563 4.16667E-02 1.56250E-02 0.00000E+00
 -1       564 4.27083E-02 1.60156E-02 0.00000E+00
 -1       565 4.37500E-02 1.64062E-02 0.00000E+00
 -1       566 4.47917E-02 1.67969E-02 0.00000E+00
 -1       567 4.58333E-02 1.71875E-02 0.00000E+00
 -1       568 4.68750E-02 1.75781E-02 0.00000E+00
 -1       569 4.79167E-02 1.79687E-02 0.00000E+00
 -1       570 4.89583E-02 1.83594E-02 0.00000E+00
 -1       571 5.10417E-02 1.25000E-02 0.00000E+00
 -1       572 5.20833E-02 1.25000E-02 0.00000E+00
 -1       573 5.31250E-02 1.25000E-02 0.00000E+00
 -1       574 5.41667E-02 1.25000E-02 0.00000E+00
 -1       575 5.52083E-02 1.25000E-02 0.00000E+00
 -1       576 5.62500E-02 1.25000E-02 0.00000E+00
 -1       577 5.72917E-02 1.25000E-02 0.00000E+00
 -1       578 5.83333E-02 1.25000E-02 0.00000E+00
 -1       579 5.93750E-02 1.25000E-02 0.00000E+00
 -1       580 6.04167E-02 1.25000E-02 0.00000E+00
 -1       581 6.14583E-02 1.25000E-02 0.00000E+00
 -1       582 6.25000E-02 1.25000E-02 0.00000E+00
 -1       583 6.35417E-02 1.25000E-02 0.00000E+00
 -1       584 6.45833E-02 1.25000E-02 0.00000E+00
 -1       585 6.56250E-02 1.25000E-02 0.00000E+00
 -1       586 5.00000E-02 1.35417E-02 0.00000E+00
 -1       587 5.00000E-02 1.45833E-02 0.00000E+00
 -1       588 5.00000E-02 1.56250E-02 0.00000E+00
 -1       589 5.00000E-02 1.66667E-02 0.00000E+00
 -1       590 5.00000E-02 1.77083E-02 0.00000E+00
 -1       591 5.10417E-02 1.28906E-02 0.00000E+00
 -1       592 5.20833E-02 1.32813E-02 0.00000E+00
 -1       593 5.31250E-02 1.36719E-02 0.00000E+00
 -1       594 5.41667E-02 1.40625E-02 0.00000E+00
 -1       595 5.52083E-02 1.44531E-02 0.00000E+00
 -1       596 5.62500E-02 1.48437E-02 0.00000E+00
 -1       597 5.72917E-02 1.52344E-02 0.00000E+00
 -1       598 5.83333E-02 1.56250E-02 0.00000E+00
 -1       599 5.93750E-02 1.60156E-02 0.00000E+00
 -1       600 6.04167E-02 1.64062E-02 0.00000E+00
 -1       601 6.14583E-02 1.67969E-02 0.00000E+00
 -1       602 6.25000E-02 1.71875E-02 0.00000E+00
 -1       603 6.35417E-02 1.75781E-02 0.00000E+00
 -1       604 6.45833E-02 1.79687E-02 0.00000E+00
 -1       605 6.56250E-02 1.83594E-02 0.00000E+00
 -1       606 6.77083E-02 1.25000E-02 0.00000E+00
 -1       607 6.87500E-02 1.25000E-02 0.00000E+00
 -1       608 6.97917E-02 1.25000E-02 0.00000E+00
 -1       609 7.08333E-02 1.25000E-02 0.00000E+00
 -1       610 7.18750E-02 1.25000E-02 0.00000E+00
 -1       611 7.29167E-02 1.25000E-02 0.00000E+00
 -1       612 7.39583E-02 1.25000E-02 0.00000E+00
 -1       613 7.50000E-02 1.25000E-02 0.00000E+00
 -1       614 7.60417E-02 1.25000E-02 0.00000E+00
 -1       615 7.70833E-02 1.25000E-02 0.00000E+00
 -1       616 7.81250E-02 1.25000E-02 0.00000E+00
 -1       617 7.91667E-02 1.25000E-02 0.00000E+00
 -1       618 8.02083E-02 1.25000E-02 0.00000E+00
 -1       619 8.12500E-02 1.25000E-02 0.00000E+00
 -1       620 8.22917E-02 1.25000E-02 0.00000E+00
 -1       621 6.66667E-02 1.35417E-02 0.00000E+00
 -1       622 6.66667E-02 1.45833E-02 0.00000E+00
 -1       623 6.66667E-02 1.56250E-02 0.00000E+00
 -1       624 6.66667E-02 1.66667E-02 0.00000E+00
 -1       625 6.66667E-02 1.77083E-02 0.00000E+00
 -1       626 6.77083E-02 1.28906E-02 0.00000E+00
 -1       627 6.87500E-02 1.32813E-02 0.00000E+00
 -1       628 6.97917E-02 1.36719E-02 0.00000E+00
 -1       629 7.08333E-02 1.40625E-02 0.00000E+00
 -1       630 7.18750E-02 1.44531E-02 0.00000E+00
 -1       631 7.29167E-02 1.48437E-02 0.00000E+00
 -1       632 7.39583E-02 1.52344E-02 0.00000E+00
 -1       633 7.50000E-02 1.56250E-02 0.00000E+00
 -1       634 7.60417E-02 1.60156E-02 0.00000E+00
 -1       635 7.70833E-02 1.64062E-02 0.00000E+00
 -1       636 7.81250E-02 1.67969E-02 0.00000E+00
 -1       637 7.91667E-02 1.71875E-02 0.00000E+00
 -1       638 8.02083E-02 1.75781E-02 0.00000E+00
 -1       639 8.12500E-02 1.79687E-02 0.00000E+00
 -1       640 8.22917E-02 1.83594E-02 0.00000E+00
 -1       656 8.33333E-02 1.35417E-02 0.00000E+00
 -1       657 8.33333E-02 1.45833E-02 0.00000E+00
 -1       658 8.33333E-02 1.56250E-02 0.00000E+00
 -1       659 8.33333E-02 1.66667E-02 0.00000E+00
 -1       660 8.33333E-02 1.77083E-02 0.00000E+00
 -1       661 8.43750E-02 1.28906E-02 0.00000E+00
 -1       662 8.54167E-02 1.32813E-02 0.00000E+00
 -1       663 8.64583E-02 1.36719E-02 0.00000E+00
 -1       664 8.75000E-02 1.40625E-02 0.00000E+00
 -1       665 8.85417E-02 1.44531E-02 0.00000E+00
 -1       666 8.95833E-02 1.48437E-02 0.00000E+00
 -1       667 9.06250E-02 1.52344E-02 0.00000E+00
 -1       668 9.16667E-02 1.56250E-02 0.00000E+00
 -1       669 9.27083E-02 1.60156E-02 0.00000E+00
 -1       670 9.37500E-02 1.64062E-02 0.00000E+00
 -1       671 9.47917E-02 1.67969E-02 0.00000E+00
 -1       672 9.58333E-02 1.71875E-02 0.00000E+00
 -1       673 9.68750E-02 1.75781E-02 0.00000E+00
 -1       674 9.79167E-02 1.79687E-02 0.00000E+00
 -1       675 9.89583E-02 1.83594E-02 0.00000E+00
 -1       676 1.00000E-01 1.35417E-02 0.00000E+00
 -1       677 1.00000E-01 1.45833E-02 0.00000E+00
 -1       678 1.00000E-01 1.56250E-02 0.00000E+00
 -1       679 1.00000E-01 1.66667E-02 0.00000E+00
 -1       680 1.00000E-01 1.77083E-02 0.00000E+00
 -1       771 3.43750E-02 1.91406E-02 0.00000E+00
 -1       772 3.54167E-02 1.95312E-02 0.00000E+00
 -1       773 3.64583E-02 1.99219E-02 0.00000E+00
 -1       774 3.75000E-02 2.03125E-02 0.00000E+00
 -1       775 3.85417E-02 2.07031E-02 0.00000E+00
 -1       776 3.95833E-02 2.10938E-02 0.00000E+00
 -1       777 4.06250E-02 2.14844E-02 0.00000E+00
 -1       778 4.16667E-02 2.18750E-02 0.00000E+00
 -1       779 4.27083E-02 2.22656E-02 0.00000E+00
 -1       780 4.37500E-02 2.26563E-02 0.00000E+00
 -1       781 4.47917E-02 2.30469E-02 0.00000E+00
 -1       782 4.58333E-02 2.34375E-02 0.00000E+00
 -1       783 4.68750E-02 2.38281E-02 0.00000E+00
 -1       784 4.79167E-02 2.42187E-02 0.00000E+00
 -1       785 4.89583E-02 2.46094E-02 0.00000E+00
 -1       786 5.10417E-02 1.87500E-02 0.00000E+00
 -1       787 5.20833E-02 1.87500E-02 0.00000E+00
 -1       788 5.31250E-02 1.87500E-02 0.00000E+00
 -1       789 5.41667E-02 1.87500E-02 0.00000E+00
 -1       790 5.52083E-02 1.87500E-02 0.00000E+00
 -1       791 5.62500E-02 1.87500E-02 0.00000E+00
 -1       792 5.72917E-02 1.87500E-02 0.00000E+00
 -1       793 5.83333E-02 1.87500E-02 0.00000E+00
 -1       794 5.93750E-02 1.87500E-02 0.00000E+00
 -1       795 6.04167E-02 1.87500E-02 0.00000E+00
 -1       796 6.14583E-02 1.87500E-02 0.00000E+00
 -1       797 6.25000E-02 1.87500E-02 0.00000E+00
 -1       798 6.35417E-02 1.87500E-02 0.00000E+00
 -1       799 6.45833E-02 1.87500E-02 0.00000E+00
 -1       800 6.56250E-02 1.87500E-02 0.00000E+00
 -1       801 5.00000E-02 1.97917E-02 0.00000E+00
 -1       802 5.00000E-02 2.08333E-02 0.00000E+00
 -1       803 5.00000E-02 2.18750E-02 0.00000E+00
 -1       804 5.00000E-02 2.29167E-02 0.00000E+00
 -1       805 5.00000E-02 2.39583E-02 0.00000E+00
 -1       806 5.10417E-02 1.91406E-02 0.00000E+00
 -1       807 5.20833E-02 1.95312E-02 0.00000E+00
 -1       808 5.31250E-02 1.99219E-02 0.00000E+00
 -1       809 5.41667E-02 2.03125E-02 0.00000E+00
 -1       810 5.52083E-02 2.07031E-02 0.00000E+00
 -1       811 5.62500E-02 2.10938E-02 0.00000E+00
 -1       812 5.72917E-02 2.14844E-02 0.00000E+00
 -1       813 5.83333E-02 2.18750E-02 0.00000E+00
 -1       814 5.93750E-02 2.22656E-02 0.00000E+00
 -1       815 6.04167E-02 2.26563E-02 0.00000E+00
 -1       816 6.14583E-02 2.30469E-02 0.00000E+00
 -1       817 6.25000E-02 2.34375E-02 0.00000E+00
 -1       818 6.35417E-02 2.38281E-02 0.00000E+00
 -1       819 6.45833E-02 2.42187E-02 0.00000E+00
 -1       820 6.56250E-02 2.46094E-02 0.00000E+00
 -1       821 6.77083E-02 1.87500E-02 0.00000E+00
 -1       822 6.87500E-02 1.87500E-02 0.00000E+00
 -1       823 6.97917E-02 1.87500E-02 0.00000E+00
 -1       824 7.08333E-02 1.87500E-02 0.00000E+00
 -1       825 7.18750E-02 1.87500E-02 0.00000E+00
 -1       826 7.29167E-02 1.87500E-02 0.00000E+00
 -1       827 7.39583E-02 1.87500E-02 0.00000E+00
 -1       828 7.50000E-02 1.87500E-02 0.00000E+00
 -1       829 7.60417E-02 1.87500E-02 0.00000E+00
 -1       830 7.70833E-02 1.87500E-02 0.00000E+00
 -1       831 7.81250E-02 1.87500E-02 0.00000E+00
 -1       832 7.91667E-02 1.87500E-02 0.00000E+00
 -1       833 8.02083E-02 1.87500E-02 0.00000E+00
 -1       834 8.12500E-02 1.87500E-02 0.00000E+00
 -1       835 8.22917E-02 1.87500E-02 0.00000E+00
 -1       836 6.66667E-02 1.97917E-02 0.00000E+00
 -1       837 6.66667E-02 2.08333E-02 0.00000E+00
 -1       838 6.66667E-02 2.18750E-02 0.00000E+00
 -1       839 6.66667E-02 2.29167E-02 0.00000E+00
 -1       840 6.66667E-02 2.39583E-02 0.00000E+00
 -1       856 8.43750E-02 1.87500E-02 0.00000E+00
 -1       857 8.54167E-02 1.87500E-02 0.00000E+00
 -1       858 8.64583E-02 1.87500E-02 0.00000E+00
 -1       859 8.75000E-02 1.87500E-02 0.00000E+00
 -1       860 8.85417E-02 1.87500E-02 0.00000E+00
 -1       861 8.95833E-02 1.87500E-02 0.00000E+00
 -1       862 9.06250E-02 1.87500E-02 0.00000E+00
 -1       863 9.16667E-02 1.87500E-02 0.00000E+00
 -1       864 9.27083E-02 1.87500E-02 0.00000E+00
 -1       865 9.37500E-02 1.87500E-02 0.00000E+00
 -1       866 9.47917E-02 1.87500E-02 0.00000E+00
 -1       867 9.58333E-02 1.87500E-02 0.00000E+00
 -1       868 9.68750E-02 1.87500E-02 0.00000E+00
 -1       869 9.79167E-02 1.87500E-02 0.00000E+00
 -1       870 9.89583E-02 1.87500E-02 0.00000E+00
 -1       871 8.33333E-02 1.97917E-02 0.00000E+00
 -1       872 8.33333E-02 2.08333E-02 0.00000E+00
 -1       873 8.33333E-02 2.18750E-02 0.00000E+00
 -1       874 8.33333E-02 2.29167E-02 0.00000E+00
 -1       875 8.33333E-02 2.39583E-02 0.00000E+00
 -1       876 8.43750E-02 1.91406E-02 0.00000E+00
 -1       877 8.54167E-02 1.95312E-02 0.00000E+00
 -1       878 8.64583E-02 1.99219E-02 0.00000E+00
 -1       879 8.75000E-02 2.03125E-02 0.00000E+00
 -1       880 8.85417E-02 2.07031E-02 0.00000E+00
 -1       881 8.95833E-02 2.10938E-02 0.00000E+00
 -1       882 9.06250E-02 2.14844E-02 0.00000E+00
 -1       883 9.16667E-02 2.18750E-02 0.00000E+00
 -1       884 9.27083E-02 2.22656E-02 0.00000E+00
 -1       885 9.37500E-02 2.26563E-02 0.00000E+00
 -1       886 9.47917E-02 2.30469E-02 0.00000E+00
 -1       887 9.58333E-02 2.34375E-02 0.00000E+00
 -1       888 9.68750E-02 2.38281E-02 0.00000E+00
 -1       889 9.79167E-02 2.42187E-02 0.00000E+00
 -1       890 9.89583E-02 2.46094E-02 0.00000E+00
 -1       891 1.00000E-01 1.97917E-02 0.00000E+00
 -1       892 1.00000E-01 2.08333E-02 0.00000E+00
 -1       893 1.00000E-01 2.18750E-02 0.00000E+00
 -1       894 1.00000E-01 2.29167E-02 0.00000E+00
 -1       895 1.00000E-01 2.39583E-02 0.00000E+00
 -1       956 6.77083E-02 2.50000E-02 0.00000E+00
 -1       957 6.87500E-02 2.50000E-02 0.00000E+00
 -1       958 6.97917E-02 2.50000E-02 0.00000E+00
 -1       959 7.08333E-02 2.50000E-02 0.00000E+00
 -1       960 7.18750E-02 2.50000E-02 0.00000E+00
 -1       961 7.29167E-02 2.50000E-02 0.00000E+00
 -1       962 7.39583E-02 2.50000E-02 0.00000E+00
 -1       963 7.50000E-02 2.50000E-02 0.00000E+00
 -1       964 7.60417E-02 2.50000E-02 0.00000E+00
 -1       965 7.70833E-02 2.50000E-02 0.00000E+00
 -1       966 7.81250E-02 2.50000E-02 0.00000E+00
 -1       967 7.91667E-02 2.50000E-02 0.00000E+00
 -1       968 8.02083E-02 2.50000E-02 0.00000E+00
 -1       969 8.12500E-02 2.50000E-02 0.00000E+00
 -1       970 8.22917E-02 2.50000E-02 0.00000E+00
 -1       971 8.43750E-02 2.50000E-02 0.00000E+00
 -1       972 8.54167E-02 2.50000E-02 0.00000E+00
 -1       973 8.64583E-02 2.50000E-02 0.00000E+00
 -1       974 8.75000E-02 2.50000E-02 0.00000E+00
 -1       975 8.85417E-02 2.50000E-02 0.00000E+00
 -1       976 8.95833E-02 2.50000E-02 0.00000E+00
 -1       977 9.06250E-02 2.50000E-02 0.00000E+00
 -1       978 9.16667E-02 2.50000E-02 0.00000E+00
 -1       979 9.27083E-02 2.50000E-02 0.00000E+00
 -1       980 9.37500E-02 2.50000E-02 0.00000E+00
 -1       981 9.47917E-02 2.50000E-02 0.00000E+00
 -1       982 9.58333E-02 2.50000E-02 0.00000E+00
 -1       983 9.68750E-02 2.50000E-02 0.00000E+00
 -1       984 9.79167E-02 2.50000E-02 0.00000E+00
 -1       985 9.89583E-02 2.50000E-02 0.00000E+00
 -3
    3C                           211                                     1
 -1         1   12    0    1
 -2         1        52        51
 -1         2   12    0    1
 -2        52        54        53
 -1         3   12    0    1
 -2        54         8        55
 -1         4   12    0    1
 -2         1        57        56
 -1         5   12    0    1
 -2        57        59        58
 -1         6   12    0    1
 -2        59        61        60
 -1         7   12    0    1
 -2        61        63        62
 -1         8   12    0    1
 -2        63        65        64
 -1         9   12    0    1
 -2        65        67        66
 -1        10   12    0    1
 -2        67        69        68
 -1        11   12    0    1
 -2        69         9        70
 -1        12   12    0    1
 -2         2        87        86
 -1        13   12    0    1
 -2        87        89        88
 -1        14   12    0    1
 -2        89         9        90
 -1        15   12    0    1
 -2         3       122       121
 -1        16   12    0    1
 -2       122       124       123
 -1        17   12    0    1
 -2       124        10       125
 -1        18   12    0    1
 -2         5       192       191
 -1        19   12    0    1
 -2       192       194       193
 -1        20   12    0    1
 -2       194        12       195
 -1        21   12    0    1
 -2         8       252       251
 -1        22   12    0    1
 -2       252       254       253
 -1        23   12    0    1
 -2       254       256       255
 -1        24   12    0    1
 -2       256       258       257
 -1        25   12    0    1
 -2       258       260       259
 -1        26   12    0    1
 -2       260       262       261
 -1        27   12    0    1
 -2       262       264       263
 -1        28   12    0    1
 -2       264         9       265
 -1        29   12    0    1
 -2         8       267       266
 -1        30   12    0    1
 -2       267       269       268
 -1        31   12    0    1
 -2       269        15       270
 -1        32   12    0    1
 -2         8       272       271
 -1        33   12    0    1
 -2       272       274       273
 -1        34   12    0    1
 -2       274       276       275
 -1        35   12    0    1
 -2       276       278       277
 -1        36   12    0    1
 -2       278       280       279
 -1        37   12    0    1
 -2       280       282       281
 -1        38   12    0    1
 -2       282       284       283
 -1        39   12    0    1
 -2       284        16       285
 -1        40   12    0    1
 -2         9       302       301
 -1        41   12    0    1
 -2       302       304       303
 -1        42   12    0    1
 -2       304        16       305
 -1        43   12    0    1
 -2         9       307       306
 -1        44   12    0    1
 -2       307       309       308
 -1        45   12    0    1
 -2       309       311       310
 -1        46   12    0    1
 -2       311       313       312
 -1        47   12    0    1
 -2       313       315       314
 -1        48   12    0    1
 -2       315       317       316
 -1        49   12    0    1
 -2       317       319       318
 -1        50   12    0    1
 -2       319        17       320
 -1        51   12    0    1
 -2        10       337       336
 -1        52   12    0    1
 -2       337       339       338
 -1        53   12    0    1
 -2       339        17       340
 -1        54   12    0    1
 -2        12       407       406
 -1        55   12    0    1
 -2       407       409       408
 -1        56   12    0    1
 -2       409        19       410
 -1        57   12    0    1
 -2        16       522       521
 -1        58   12    0    1
 -2       522       524       523
 -1        59   12    0    1
 -2       524       526       525
 -1        60   12    0    1
 -2       526       528       527
 -1        61   12    0    1
 -2       528       530       529
 -1        62   12    0    1
 -2       530       532       531
 -1        63   12    0    1
 -2       532       534       533
 -1        64   12    0    1
 -2       534        24       535
 -1        65   12    0    1
 -2        17       537       536
 -1        66   12    0    1
 -2       537       539       538
 -1        67   12    0    1
 -2       539       541       540
 -1        68   12    0    1
 -2       541       543       542
 -1        69   12    0    1
 -2       543       545       544
 -1        70   12    0    1
 -2       545       547       546
 -1        71   12    0    1
 -2       547       549       548
 -1        72   12    0    1
 -2       549        18       550
 -1        73   12    0    1
 -2        17       552       551
 -1        74   12    0    1
 -2       552       554       553
 -1        75   12    0    1
 -2       554        24       555
 -1        76   12    0    1
 -2        17       557       556
 -1        77   12    0    1
 -2       557       559       558
 -1        78   12    0    1
 -2       559       561       560
 -1        79   12    0    1
 -2       561       563       562
 -1        80   12    0    1
 -2       563       565       564
 -1        81   12    0    1
 -2       565       567       566
 -1        82   12    0    1
 -2       567       569       568
 -1        83   12    0    1
 -2       569        25       570
 -1        84   12    0    1
 -2        18       572       571
 -1        85   12    0    1
 -2       572       574       573
 -1        86   12    0    1
 -2       574       576       575
 -1        87   12    0    1
 -2       576       578       577
 -1        88   12    0    1
 -2       578       580       579
 -1        89   12    0    1
 -2       580       582       581
 -1        90   12    0    1
 -2       582       584       583
 -1        91   12    0    1
 -2       584        19       585
 -1        92   12    0    1
 -2        18       587       586
 -1        93   12    0    1
 -2       587       589       588
 -1        94   12    0    1
 -2       589        25       590
 -1        95   12    0    1
 -2        18       592       591
 -1        96   12    0    1
 -2       592       594       593
 -1        97   12    0    1
 -2       594       596       595
 -1        98   12    0    1
 -2       596       598       597
 -1        99   12    0    1
 -2       598       600       599
 -1       100   12    0    1
 -2       600       602       601
 -1       101   12    0    1
 -2       602       604       603
 -1       102   12    0    1
 -2       604        26       605
 -1       103   12    0    1
 -2        19       607       606
 -1       104   12    0    1
 -2       607       609       608
 -1       105   12    0    1
 -2       609       611       610
 -1       106   12    0    1
 -2       611       613       612
 -1       107   12    0    1
 -2       613       615       614
 -1       108   12    0    1
 -2       615       617       616
 -1       109   12    0    1
 -2       617       619       618
 -1       110   12    0    1
 -2       619        20       620
 -1       111   12    0    1
 -2        19       622       621
 -1       112   12    0    1
 -2       622       624       623
 -1       113   12    0    1
 -2       624        26       625
 -1       114   12    0    1
 -2        19       627       626
 -1       115   12    0    1
 -2       627       629       628
 -1       116   12    0    1
 -2       629       631       630
 -1       117   12    0    1
 -2       631       633       632
 -1       118   12    0    1
 -2       633       635       634
 -1       119   12    0    1
 -2       635       637       636
 -1       120   12    0    1
 -2       637       639       638
 -1       121   12    0    1
 -2       639        27       640
 -1       122   12    0    1
 -2        20       657       656
 -1       123   12    0    1
 -2       657       659       658
 -1       124   12    0    1
 -2       659        27       660
 -1       125   12    0    1
 -2        20       662       661
 -1       126   12    0    1
 -2       662       664       663
 -1       127   12    0    1
 -2       664       666       665
 -1       128   12    0    1
 -2       666       668       667
 -1       129   12    0    1
 -2       668       670       669
 -1       130   12    0    1
 -2       670       672       671
 -1       131   12    0    1
 -2       672       674       673
 -1       132   12    0    1
 -2       674        28       675
 -1       133   12    0    1
 -2        21       677       676
 -1       134   12    0    1
 -2       677       679       678
 -1       135   12    0    1
 -2       679        28       680
 -1       136   12    0    1
 -2        24       772       771
 -1       137   12    0    1
 -2       772       774       773
 -1       138   12    0    1
 -2       774       776       775
 -1       139   12    0    1
 -2       776       778       777
 -1       140   12    0    1
 -2       778       780       779
 -1       141   12    0    1
 -2       780       782       781
 -1       142   12    0    1
 -2       782       784       783
 -1       143   12    0    1
 -2       784        32       785
 -1       144   12    0    1
 -2        25       787       786
 -1       145   12    0    1
 -2       787       789       788
 -1       146   12    0    1
 -2       789       791       790
 -1       147   12    0    1
 -2       791       793       792
 -1       148   12    0    1
 -2       793       795       794
 -1       149   12    0    1
 -2       795       797       796
 -1       150   12    0    1
 -2       797       799       798
 -1       151   12    0    1
 -2       799        26       800
 -1       152   12    0    1
 -2        25       802       801
 -1       153   12    0    1
 -2       802       804       803
 -1       154   12    0    1
 -2       804        32       805
 -1       155   12    0    1
 -2        25       807       806
 -1       156   12    0    1
 -2       807       809       808
 -1       157   12    0    1
 -2       809       811       810
 -1       158   12    0    1
 -2       811       813       812
 -1       159   12    0    1
 -2       813       815       814
 -1       160   12    0    1
 -2       815       817       816
 -1       161   12    0    1
 -2       817       819       818
 -1       162   12    0    1
 -2       819        33       820
 -1       163   12    0    1
 -2        26       822       821
 -1       164   12    0    1
 -2       822       824       823
 -1       165   12    0    1
 -2       824       826       825
 -1       166   12    0    1
 -2       826       828       827
 -1       167   12    0    1
 -2       828       830       829
 -1       168   12    0    1
 -2       830       832       831
 -1       169   12    0    1
 -2       832       834       833
 -1       170   12    0    1
 -2       834        27       835
 -1       171   12    0    1
 -2        26       837       836
 -1       172   12    0    1
 -2       837       839       838
 -1       173   12    0    1
 -2       839        33       840
 -1       174   12    0    1
 -2        27       857       856
 -1       175   12    0    1
 -2       857       859       858
 -1       176   12    0    1
 -2       859       861       860
 -1       177   12    0    1
 -2       861       863       862
 -1       178   12    0    1
 -2       863       865       864
 -1       179   12    0    1
 -2       865       867       866
 -1       180   12    0    1
 -2       867       869       868
 -1       181   12    0    1
 -2       869        28       870
 -1       182   12    0    1
 -2        27       872       871
 -1       183   12    0    1
 -2       872       874       873
 -1       184   12    0    1
 -2       874        34       875
 -1       185   12    0    1
 -2        27       877       876
 -1       186   12    0    1
 -2       877       879       878
 -1       187   12    0    1
 -2       879       881       880
 -1       188   12    0    1
 -2       881       883       882
 -1       189   12    0    1
 -2       883       885       884
 -1       190   12    0    1
 -2       885       887       886
 -1       191   12    0    1
 -2       887       889       888
 -1       192   12    0    1
 -2       889        35       890
 -1       193   12    0    1
 -2        28       892       891
 -1       194   12    0    1
 -2       892       894       893
 -1       195   12    0    1
 -2       894        35       895
 -1       196   12    0    1
 -2        33       957       956
 -1       197   12    0    1
 -2       957       959       958
 -1       198   12    0    1
 -2       959       961       960
 -1       199   12    0    1
 -2       961       963       962
 -1       200   12    0    1
 -2       963       965       964
 -1       201   12    0    1
 -2       965       967       966
 -1       202   12    0    1
 -2       967       969       968
 -1       203   12    0    1
 -2       969        34       970
 -1       204   12    0    1
 -2        34       972       971
 -1       205   12    0    1
 -2       972       974       973
 -1       206   12    0    1
 -2       974       976       975
 -1       207   12    0    1
 -2       976       978       977
 -1       208   12    0    1
 -2       978       980       979
 -1       209   12    0    1
 -2       980       982       981
 -1       210   12    0    1
 -2       982       984       983
 -1       211   12    0    1
 -2       984        35       985
 -3
    1PSTEP                         1           1           1          
  100CL  101 2.50000E-01         409                     0    1           1
 -4  DISP        4    1
 -5  D1          1    2    1    0
 -5  D2          1    2    2    0
 -5  D3          1    2    3    0
 -5  ALL         1    2    0    0    1ALL
 -1         1 6.52354E-05 0.00000E+00 0.00000E+00
 -1         2 6.02678E-05 1.91086E-29 0.00000E+00
 -1         3 5.54687E-05-2.67824E-27 3.30872E-24
 -1         5 4.00510E-05 4.96890E-26-1.65436E-24
 -1         8 5.20695E-05-4.68840E-07 0.00000E+00
 -1         9 5.28936E-05 3.09961E-07 0.00000E+00
 -1        10 5.14290E-05-7.59782E-07 1.65436E-24
 -1        12 3.97581E-05 2.75013E-07 8.27181E-25
 -1        15 3.64076E-05-5.01458E-07 2.06795E-25
 -1        16 3.76672E-05 2.49371E-07 0.00000E+00
 -1        17 3.83737E-05-1.59182E-06 0.00000E+00
 -1        18 3.83654E-05 7.10045E-08 0.00000E+00
 -1        19 3.88924E-05 5.45849E-07 0.00000E+00
 -1        20 3.89643E-05 8.11290E-06 0.00000E+00
 -1        21 3.86934E-05 1.53418E-05 0.00000E+00
 -1        24 9.81936E-06-2.11665E-06 0.00000E+00
 -1        25 3.74478E-05 1.33309E-07 0.00000E+00
 -1        26 3.79426E-05 7.59506E-07 0.00000E+00
 -1        27 3.71901E-05 6.90188E-06 0.00000E+00
 -1        28 3.69469E-05 1.51090E-05 0.00000E+00
 -1        32 0.00000E+00 0.00000E+00 0.00000E+00
 -1        33 3.63436E-05 1.01776E-06 0.00000E+00
 -1        34 3.56155E-05 6.89118E-06 0.00000E+00
 -1        35 3.49239E-05 1.49863E-05 0.00000E+00
 -1        51 6.43787E-05-7.81420E-08 0.00000E+00
 -1        52 6.27912E-05-1.53929E-07 0.00000E+00
 -1        53 6.06168E-05-2.29959E-07 0.00000E+00
 -1        54 5.80051E-05-3.06947E-07 0.00000E+00
 -1        55 5.51059E-05-3.85418E-07 1.75776E-24
 -1        56 6.46329E-05-3.64433E-07-1.32349E-23
 -1        57 6.40902E-05-9.55863E-07 0.00000E+00
 -1        58 6.36091E-05-1.70796E-06 0.00000E+00
 -1        59 6.31619E-05-2.56241E-06 1.32349E-23
 -1        60 6.27287E-05-3.45437E-06 2.64698E-23
 -1        61 6.22849E-05-4.31999E-06 1.32349E-23
 -1        62 6.18073E-05-5.09594E-06 2.64698E-23
 -1        63 6.12730E-05-5.72056E-06 0.00000E+00
 -1        64 6.06607E-05-6.13696E-06 0.00000E+00
 -1        65 5.99502E-05-6.29153E-06 1.32349E-23
 -1        66 5.91247E-05-6.13912E-06 0.00000E+00
 -1        67 5.81693E-05-5.63921E-06 0.00000E+00
 -1        68 5.70725E-05-4.76284E-06 2.64698E-23
 -1        69 5.58287E-05-3.48552E-06 6.61744E-24
 -1        70 5.44292E-05-1.79855E-06 0.00000E+00
 -1        86 6.00714E-05 5.52387E-08 0.00000E+00
 -1        87 5.94818E-05 1.10036E-07 0.00000E+00
 -1        88 5.84870E-05 1.64482E-07 0.00000E+00
 -1        89 5.70743E-05 2.16606E-07 0.00000E+00
 -1        90 5.52185E-05 2.68654E-07-1.65436E-24
 -1       121 5.53562E-05-1.26296E-07 0.00000E+00
 -1       122 5.50188E-05-2.52644E-07 1.65436E-24
 -1       123 5.44568E-05-3.79093E-07 3.30872E-24
 -1       124 5.36707E-05-5.05716E-07-1.65436E-24
 -1       125 5.26611E-05-6.32527E-07 0.00000E+00
 -1       191 4.00428E-05 4.58423E-08 1.65436E-24
 -1       192 4.00184E-05 9.16836E-08 0.00000E+00
 -1       193 3.99777E-05 1.37524E-07 1.65436E-24
 -1       194 3.99207E-05 1.83362E-07-8.27181E-25
 -1       195 3.98474E-05 2.29194E-07 0.00000E+00
 -1       251 5.21103E-05 1.69855E-06-1.65436E-24
 -1       252 5.21619E-05 2.99387E-06 0.00000E+00
 -1       253 5.22136E-05 3.56003E-06 0.00000E+00
 -1       254 5.22673E-05 3.53821E-06 8.27181E-25
 -1       255 5.23209E-05 3.05297E-06 1.65436E-24
 -1       256 5.23746E-05 2.22781E-06-8.27181E-25
 -1       257 5.24282E-05 1.17656E-06 0.00000E+00
 -1       258 5.24818E-05 1.25686E-08-8.27181E-25
 -1       259 5.25353E-05-1.15410E-06 0.00000E+00
 -1       260 5.25889E-05-2.21334E-06-8.27181E-25
 -1       261 5.26426E-05-3.05197E-06 1.65436E-24
 -1       262 5.26962E-05-3.55636E-06-8.27181E-25
 -1       263 5.27498E-05-3.60333E-06 0.00000E+00
 -1       264 5.28015E-05-3.06865E-06 1.03398E-25
 -1       265 5.28531E-05-1.81167E-06 0.00000E+00
 -1       266 4.94592E-05-4.80767E-07 3.30872E-24
 -1       267 4.68489E-05-4.85412E-07 0.00000E+00
 -1       268 4.42386E-05-4.90519E-07 8.27181E-25
 -1       269 4.16282E-05-4.94259E-07 0.00000E+00
 -1       270 3.90179E-05-4.97967E-07 0.00000E+00
 -1       271 5.04854E-05 1.47059E-06 0.00000E+00
 -1       272 4.91431E-05 2.69248E-06 0.00000E+00
 -1       273 4.80362E-05 3.29161E-06 0.00000E+00
 -1       274 4.71251E-05 3.35770E-06 1.32349E-23
 -1       275 4.63768E-05 2.98902E-06 2.64698E-23
 -1       276 4.57528E-05 2.28667E-06 1.32349E-23
 -1       277 4.52142E-05 1.35557E-06 0.00000E+00
 -1       278 4.47211E-05 3.02697E-07-1.32349E-23
 -1       279 4.42331E-05-7.63684E-07 0.00000E+00
 -1       280 4.37096E-05-1.73515E-06 0.00000E+00
 -1       281 4.31104E-05-2.50434E-06 2.64698E-23
 -1       282 4.23965E-05-2.96580E-06-1.32349E-23
 -1       283 4.15291E-05-3.01742E-06-2.64698E-23
 -1       284 4.04736E-05-2.56016E-06 0.00000E+00
 -1       285 3.91914E-05-1.50231E-06 1.32349E-23
 -1       301 5.03154E-05 2.96746E-07 0.00000E+00
 -1       302 4.77375E-05 2.91339E-07-8.27181E-25
 -1       303 4.51719E-05 2.86158E-07 1.65436E-24
 -1       304 4.26304E-05 2.80108E-07-1.65436E-24
 -1       305 4.01249E-05 2.72832E-07 0.00000E+00
 -1       306 5.12640E-05 2.18892E-06 1.32349E-23
 -1       307 4.98913E-05 3.30524E-06 0.00000E+00
 -1       308 4.87901E-05 3.70468E-06-2.64698E-23
 -1       309 4.79336E-05 3.43798E-06-1.32349E-23
 -1       310 4.72864E-05 2.61286E-06 0.00000E+00
 -1       311 4.68022E-05 1.34902E-06-1.32349E-23
 -1       312 4.64240E-05-1.98221E-07-2.64698E-23
 -1       313 4.60909E-05-1.86682E-06 1.32349E-23
 -1       314 4.57389E-05-3.48474E-06 0.00000E+00
 -1       315 4.53043E-05-4.88117E-06 0.00000E+00
 -1       316 4.47299E-05-5.90351E-06 0.00000E+00
 -1       317 4.39627E-05-6.40811E-06 1.32349E-23
 -1       318 4.29632E-05-6.29311E-06-2.64698E-23
 -1       319 4.17037E-05-5.46996E-06-1.32349E-23
 -1       320 4.01647E-05-3.91087E-06-1.32349E-23
 -1       336 4.99458E-05-8.97342E-07 3.30872E-24
 -1       337 4.81829E-05-1.03553E-06-1.65436E-24
 -1       338 4.61418E-05-1.17418E-06 3.30872E-24
 -1       339 4.38249E-05-1.31322E-06 0.00000E+00
 -1       340 4.12345E-05-1.45293E-06 3.30872E-24
 -1       406 3.96531E-05 3.20396E-07 0.00000E+00
 -1       407 3.95324E-05 3.65753E-07 0.00000E+00
 -1       408 3.93960E-05 4.11077E-07 0.00000E+00
 -1       409 3.92439E-05 4.56315E-07 8.27181E-25
 -1       410 3.90759E-05 5.01377E-07 1.65436E-24
 -1       521 3.54012E-05 1.64673E-06 2.64698E-23
 -1       522 3.34224E-05 2.13075E-06-2.64698E-23
 -1       523 3.17661E-05 1.76541E-06 0.00000E+00
 -1       524 3.03894E-05 6.27710E-07 2.64698E-23
 -1       525 2.92367E-05-1.10916E-06 0.00000E+00
 -1       526 2.82329E-05-3.24953E-06 2.64698E-23
 -1       527 2.72887E-05-5.55006E-06 0.00000E+00
 -1       528 2.63107E-05-7.76109E-06 0.00000E+00
 -1       529 2.52099E-05-9.64305E-06-5.29396E-23
 -1       530 2.39022E-05-1.09707E-05-2.64698E-23
 -1       531 2.23267E-05-1.15833E-05 5.29396E-23
 -1       532 2.04356E-05-1.13505E-05-2.64698E-23
 -1       533 1.82146E-05-1.02406E-05 5.29396E-23
 -1       534 1.56735E-05-8.25631E-06-2.64698E-23
 -1       535 1.28402E-05-5.50842E-06 0.00000E+00
 -1       536 3.83658E-05 1.07118E-06 0.00000E+00
 -1       537 3.83635E-05 3.07279E-06 0.00000E+00
 -1       538 3.83620E-05 4.48203E-06-4.13590E-25
 -1       539 3.83617E-05 5.36793E-06 0.00000E+00
 -1       540 3.83618E-05 5.79918E-06 0.00000E+00
 -1       541 3.83622E-05 5.84445E-06 0.00000E+00
 -1       542 3.83625E-05 5.57208E-06 0.00000E+00
 -1       543 3.83627E-05 5.05040E-06 0.00000E+00
 -1       544 3.83629E-05 4.34754E-06 0.00000E+00
 -1       545 3.83630E-05 3.53160E-06-6.46235E-27
 -1       546 3.83631E-05 2.67060E-06 2.58494E-26
 -1       547 3.83632E-05 1.83255E-06 0.00000E+00
 -1       548 3.83634E-05 1.08546E-06 0.00000E+00
 -1       549 3.83638E-05 4.97383E-07 5.16988E-26
 -1       550 3.83642E-05 1.36504E-07 2.06795E-25
 -1       551 3.45848E-05-1.67273E-06-3.30872E-24
 -1       552 3.00522E-05-1.75533E-06-1.65436E-24
 -1       553 2.50408E-05-1.84025E-06-3.30872E-24
 -1       554 1.98193E-05-1.92750E-06 0.00000E+00
 -1       555 1.46566E-05-2.01591E-06 0.00000E+00
 -1       556 3.73829E-05 9.80912E-07 0.00000E+00
 -1       557 3.66263E-05 2.94542E-06 0.00000E+00
 -1       558 3.60782E-05 4.35795E-06 0.00000E+00
 -1       559 3.57155E-05 5.27915E-06 0.00000E+00
 -1       560 3.55149E-05 5.76951E-06 0.00000E+00
 -1       561 3.54534E-05 5.88982E-06 0.00000E+00
 -1       562 3.55079E-05 5.70091E-06 0.00000E+00
 -1       563 3.56555E-05 5.26365E-06 0.00000E+00
 -1       564 3.58733E-05 4.63896E-06 0.00000E+00
 -1       565 3.61385E-05 3.88772E-06 0.00000E+00
 -1       566 3.64282E-05 3.07089E-06 4.13590E-25
 -1       567 3.67197E-05 2.24939E-06-2.06795E-25
 -1       568 3.69901E-05 1.48415E-06 0.00000E+00
 -1       569 3.72167E-05 8.36023E-07 0.00000E+00
 -1       570 3.73767E-05 3.65901E-07 0.00000E+00
 -1       571 3.83974E-05 1.21475E-07 0.00000E+00
 -1       572 3.84301E-05 1.50235E-07 4.13590E-25
 -1       573 3.84630E-05 1.61151E-07 4.13590E-25
 -1       574 3.84960E-05 1.58294E-07-2.06795E-25
 -1       575 3.85290E-05 1.45753E-07-8.27181E-25
 -1       576 3.85620E-05 1.27642E-07 0.00000E+00
 -1       577 3.85951E-05 1.08083E-07 0.00000E+00
 -1       578 3.86281E-05 9.11947E-08 0.00000E+00
 -1       579 3.86612E-05 8.11013E-08 0.00000E+00
 -1       580 3.86942E-05 8.19244E-08-8.27181E-25
 -1       581 3.87273E-05 9.77860E-08 1.65436E-24
 -1       582 3.87603E-05 1.32803E-07 0.00000E+00
 -1       583 3.87934E-05 1.91088E-07 0.00000E+00
 -1       584 3.88264E-05 2.76712E-07 0.00000E+00
 -1       585 3.88594E-05 3.93721E-07 0.00000E+00
 -1       586 3.82011E-05 8.20411E-08 0.00000E+00
 -1       587 3.80229E-05 9.27971E-08-1.03398E-25
 -1       588 3.78446E-05 1.03433E-07 0.00000E+00
 -1       589 3.76800E-05 1.13899E-07 0.00000E+00
 -1       590 3.75433E-05 1.24078E-07 0.00000E+00
 -1       591 3.83312E-05 1.38204E-07-7.75482E-26
 -1       592 3.83025E-05 1.87438E-07 0.00000E+00
 -1       593 3.82791E-05 2.22129E-07 0.00000E+00
 -1       594 3.82599E-05 2.45357E-07-2.06795E-25
 -1       595 3.82438E-05 2.60244E-07-4.13590E-25
 -1       596 3.82296E-05 2.69888E-07 0.00000E+00
 -1       597 3.82162E-05 2.77387E-07 0.00000E+00
 -1       598 3.82024E-05 2.85836E-07 0.00000E+00
 -1       599 3.81872E-05 2.98329E-07 0.00000E+00
 -1       600 3.81692E-05 3.17960E-07-1.03398E-25
 -1       601 3.81474E-05 3.47824E-07 0.00000E+00
 -1       602 3.81207E-05 3.91019E-07 5.16988E-26
 -1       603 3.80878E-05 4.50642E-07 7.75482E-26
 -1       604 3.80478E-05 5.29817E-07 0.00000E+00
 -1       605 3.79994E-05 6.31625E-07 0.00000E+00
 -1       606 3.88985E-05 7.73082E-07 0.00000E+00
 -1       607 3.89035E-05 1.04750E-06 0.00000E+00
 -1       608 3.89081E-05 1.36634E-06 0.00000E+00
 -1       609 3.89126E-05 1.72647E-06 0.00000E+00
 -1       610 3.89171E-05 2.12476E-06 1.65436E-24
 -1       611 3.89215E-05 2.55802E-06 0.00000E+00
 -1       612 3.89258E-05 3.02306E-06 0.00000E+00
 -1       613 3.89302E-05 3.51671E-06 0.00000E+00
 -1       614 3.89345E-05 4.03578E-06 0.00000E+00
 -1       615 3.89388E-05 4.57706E-06 0.00000E+00
 -1       616 3.89432E-05 5.13738E-06 0.00000E+00
 -1       617 3.89475E-05 5.71355E-06 0.00000E+00
 -1       618 3.89518E-05 6.30237E-06 0.00000E+00
 -1       619 3.89560E-05 6.90066E-06-2.06795E-25
 -1       620 3.89602E-05 7.50524E-06 0.00000E+00
 -1       621 3.87114E-05 5.81484E-07 0.00000E+00
 -1       622 3.85430E-05 6.17292E-07 0.00000E+00
 -1       623 3.83847E-05 6.53094E-07 8.27181E-25
 -1       624 3.82337E-05 6.88840E-07 0.00000E+00
 -1       625 3.80872E-05 7.24523E-07 0.00000E+00
 -1       626 3.88453E-05 7.84295E-07 0.00000E+00
 -1       627 3.87839E-05 1.06182E-06-1.65436E-24
 -1       628 3.87092E-05 1.37481E-06 1.65436E-24
 -1       629 3.86227E-05 1.71939E-06 0.00000E+00
 -1       630 3.85258E-05 2.09170E-06 0.00000E+00
 -1       631 3.84200E-05 2.48783E-06-1.65436E-24
 -1       632 3.83067E-05 2.90389E-06 0.00000E+00
 -1       633 3.81874E-05 3.33598E-06 0.00000E+00
 -1       634 3.80635E-05 3.78021E-06 0.00000E+00
 -1       635 3.79365E-05 4.23266E-06 8.27181E-25
 -1       636 3.78079E-05 4.68945E-06 0.00000E+00
 -1       637 3.76791E-05 5.14668E-06 4.13590E-25
 -1       638 3.75516E-05 5.60044E-06 0.00000E+00
 -1       639 3.74267E-05 6.04684E-06-4.13590E-25
 -1       640 3.73060E-05 6.48197E-06 0.00000E+00
 -1       656 3.84594E-05 7.91590E-06 3.30872E-24
 -1       657 3.81323E-05 7.71099E-06-1.65436E-24
 -1       658 3.79138E-05 7.50670E-06 0.00000E+00
 -1       659 3.77334E-05 7.30258E-06 0.00000E+00
 -1       660 3.75168E-05 7.09782E-06 0.00000E+00
 -1       661 3.87774E-05 8.70851E-06-4.13590E-25
 -1       662 3.86014E-05 9.27899E-06-4.13590E-25
 -1       663 3.84347E-05 9.82483E-06 0.00000E+00
 -1       664 3.82770E-05 1.03472E-05 0.00000E+00
 -1       665 3.81278E-05 1.08469E-05 8.27181E-25
 -1       666 3.79867E-05 1.13251E-05-4.13590E-25
 -1       667 3.78535E-05 1.17825E-05 0.00000E+00
 -1       668 3.77277E-05 1.22201E-05 4.13590E-25
 -1       669 3.76090E-05 1.26388E-05-8.27181E-25
 -1       670 3.74970E-05 1.30395E-05 4.13590E-25
 -1       671 3.73915E-05 1.34230E-05 0.00000E+00
 -1       672 3.72921E-05 1.37900E-05 4.13590E-25
 -1       673 3.71985E-05 1.41415E-05 0.00000E+00
 -1       674 3.71101E-05 1.44780E-05 4.13590E-25
 -1       675 3.70271E-05 1.48006E-05-2.06795E-25
 -1       676 3.84020E-05 1.53028E-05 0.00000E+00
 -1       677 3.81106E-05 1.52637E-05 4.13590E-25
 -1       678 3.78193E-05 1.52247E-05-8.27181E-25
 -1       679 3.75282E-05 1.51859E-05 4.13590E-25
 -1       680 3.72374E-05 1.51470E-05 8.27181E-25
 -1       771 7.87692E-06 1.55742E-06-1.32349E-23
 -1       772 6.18453E-06 4.55715E-06 0.00000E+00
 -1       773 4.73137E-06 6.92317E-06 0.00000E+00
 -1       774 3.50094E-06 8.69779E-06-1.32349E-23
 -1       775 2.47711E-06 9.92380E-06 0.00000E+00
 -1       776 1.64325E-06 1.06448E-05-6.61744E-24
 -1       777 9.82594E-07 1.09048E-05 0.00000E+00
 -1       778 4.78174E-07 1.07485E-05 0.00000E+00
 -1       779 1.12937E-07 1.02209E-05-1.32349E-23
 -1       780-1.30337E-07 9.36765E-06-6.61744E-24
 -1       781-2.68901E-07 8.23462E-06 0.00000E+00
 -1       782-3.20140E-07 6.86807E-06 0.00000E+00
 -1       783-3.01454E-07 5.31447E-06 1.32349E-23
 -1       784-2.30298E-07 3.62062E-06 0.00000E+00
 -1       785-1.24187E-07 1.83338E-06 0.00000E+00
 -1       786 3.74769E-05 1.34237E-07 4.13590E-25
 -1       787 3.75078E-05 1.35751E-07 4.13590E-25
 -1       788 3.75385E-05 1.38461E-07-8.27181E-25
 -1       789 3.75696E-05 1.42980E-07 4.13590E-25
 -1       790 3.76006E-05 1.50050E-07 0.00000E+00
 -1       791 3.76318E-05 1.60414E-07 0.00000E+00
 -1       792 3.76629E-05 1.75047E-07 8.27181E-25
 -1       793 3.76941E-05 1.94930E-07 0.00000E+00
 -1       794 3.77253E-05 2.21416E-07 8.27181E-25
 -1       795 3.77564E-05 2.55864E-07-4.13590E-25
 -1       796 3.77876E-05 3.00194E-07 0.00000E+00
 -1       797 3.78187E-05 3.56341E-07-4.13590E-25
 -1       798 3.78499E-05 4.27068E-07 0.00000E+00
 -1       799 3.78809E-05 5.15162E-07 0.00000E+00
 -1       800 3.79120E-05 6.24629E-07 8.27181E-25
 -1       801 3.49188E-05 1.36478E-07-4.13590E-25
 -1       802 2.73972E-05 1.15585E-07 0.00000E+00
 -1       803 1.75147E-05 7.58546E-08 0.00000E+00
 -1       804 7.90215E-06 3.50612E-08 0.00000E+00
 -1       805 1.18724E-06 1.68840E-08 0.00000E+00
 -1       806 3.74089E-05 1.13339E-07 8.27181E-25
 -1       807 3.73683E-05 9.36114E-08 4.13590E-25
 -1       808 3.73264E-05 7.65464E-08 0.00000E+00
 -1       809 3.72825E-05 6.41934E-08-4.13590E-25
 -1       810 3.72361E-05 5.85976E-08 1.65436E-24
 -1       811 3.71864E-05 6.17743E-08 0.00000E+00
 -1       812 3.71326E-05 7.57365E-08 8.27181E-25
 -1       813 3.70740E-05 1.02492E-07-8.27181E-25
 -1       814 3.70099E-05 1.44050E-07 1.65436E-24
 -1       815 3.69395E-05 2.02416E-07-8.27181E-25
 -1       816 3.68620E-05 2.79594E-07 0.00000E+00
 -1       817 3.67767E-05 3.77593E-07-8.27181E-25
 -1       818 3.66828E-05 4.98414E-07-8.27181E-25
 -1       819 3.65798E-05 6.44058E-07 0.00000E+00
 -1       820 3.64667E-05 8.16522E-07 0.00000E+00
 -1       821 3.78983E-05 9.23735E-07 4.13590E-25
 -1       822 3.78512E-05 1.12133E-06 0.00000E+00
 -1       823 3.78043E-05 1.35707E-06-1.65436E-24
 -1       824 3.77568E-05 1.63561E-06 0.00000E+00
 -1       825 3.77094E-05 1.95733E-06 1.65436E-24
 -1       826 3.76618E-05 2.32245E-06 0.00000E+00
 -1       827 3.76142E-05 2.72684E-06 1.65436E-24
 -1       828 3.75665E-05 3.16627E-06 0.00000E+00
 -1       829 3.75189E-05 3.63296E-06 0.00000E+00
 -1       830 3.74712E-05 4.11904E-06-8.27181E-25
 -1       831 3.74236E-05 4.61473E-06-1.65436E-24
 -1       832 3.73760E-05 5.11020E-06 0.00000E+00
 -1       833 3.73285E-05 5.59562E-06 1.65436E-24
 -1       834 3.72816E-05 6.06122E-06-4.13590E-25
 -1       835 3.72344E-05 6.49921E-06 0.00000E+00
 -1       836 3.77481E-05 8.02492E-07 0.00000E+00
 -1       837 3.74970E-05 8.46433E-07 0.00000E+00
 -1       838 3.72100E-05 8.90296E-07-8.27181E-25
 -1       839 3.69082E-05 9.33881E-07 4.13590E-25
 -1       840 3.66124E-05 9.77397E-07 0.00000E+00
 -1       856 3.71766E-05 7.31459E-06 0.00000E+00
 -1       857 3.71615E-05 7.77920E-06-1.03398E-25
 -1       858 3.71466E-05 8.28750E-06 0.00000E+00
 -1       859 3.71313E-05 8.83125E-06 0.00000E+00
 -1       860 3.71160E-05 9.40218E-06 0.00000E+00
 -1       861 3.71006E-05 9.99203E-06 0.00000E+00
 -1       862 3.70853E-05 1.05925E-05 4.13590E-25
 -1       863 3.70699E-05 1.11953E-05 0.00000E+00
 -1       864 3.70545E-05 1.17922E-05 4.13590E-25
 -1       865 3.70391E-05 1.23748E-05 0.00000E+00
 -1       866 3.70237E-05 1.29349E-05 0.00000E+00
 -1       867 3.70084E-05 1.34643E-05 2.06795E-25
 -1       868 3.69930E-05 1.39545E-05 0.00000E+00
 -1       869 3.69777E-05 1.43976E-05 0.00000E+00
 -1       870 3.69624E-05 1.47851E-05 0.00000E+00
 -1       871 3.68749E-05 6.90150E-06 2.06795E-25
 -1       872 3.66095E-05 6.90009E-06 0.00000E+00
 -1       873 3.63725E-05 6.89849E-06-2.06795E-25
 -1       874 3.61423E-05 6.89664E-06-5.16988E-26
 -1       875 3.58971E-05 6.89456E-06-3.10193E-25
 -1       876 3.70807E-05 7.31885E-06 0.00000E+00
 -1       877 3.69628E-05 7.76107E-06 0.00000E+00
 -1       878 3.68368E-05 8.22546E-06 1.65436E-24
 -1       879 3.67036E-05 8.70920E-06 0.00000E+00
 -1       880 3.65642E-05 9.20943E-06-1.65436E-24
 -1       881 3.64197E-05 9.72329E-06 0.00000E+00
 -1       882 3.62712E-05 1.02479E-05 0.00000E+00
 -1       883 3.61197E-05 1.07806E-05 0.00000E+00
 -1       884 3.59662E-05 1.13183E-05-1.65436E-24
 -1       885 3.58119E-05 1.18583E-05 0.00000E+00
 -1       886 3.56578E-05 1.23978E-05 0.00000E+00
 -1       887 3.55049E-05 1.29338E-05-4.13590E-25
 -1       888 3.53543E-05 1.34637E-05-8.27181E-25
 -1       889 3.52069E-05 1.39843E-05 4.13590E-25
 -1       890 3.50637E-05 1.44930E-05 4.13590E-25
 -1       891 3.66664E-05 1.50885E-05-4.13590E-25
 -1       892 3.63768E-05 1.50678E-05-2.06795E-25
 -1       893 3.60681E-05 1.50472E-05 4.13590E-25
 -1       894 3.57298E-05 1.50267E-05 0.00000E+00
 -1       895 3.53518E-05 1.50062E-05 1.03398E-25
 -1       956 3.62989E-05 1.27780E-06 0.00000E+00
 -1       957 3.62535E-05 1.56701E-06-4.13590E-25
 -1       958 3.62080E-05 1.88234E-06 0.00000E+00
 -1       959 3.61624E-05 2.22060E-06-8.27181E-25
 -1       960 3.61167E-05 2.57856E-06 8.27181E-25
 -1       961 3.60710E-05 2.95299E-06-4.13590E-25
 -1       962 3.60254E-05 3.34065E-06-1.65436E-24
 -1       963 3.59797E-05 3.73831E-06 0.00000E+00
 -1       964 3.59340E-05 4.14273E-06 0.00000E+00
 -1       965 3.58883E-05 4.55067E-06 0.00000E+00
 -1       966 3.58426E-05 4.95889E-06 1.65436E-24
 -1       967 3.57969E-05 5.36416E-06-8.27181E-25
 -1       968 3.57513E-05 5.76324E-06 1.65436E-24
 -1       969 3.57057E-05 6.15290E-06 0.00000E+00
 -1       970 3.56603E-05 6.52992E-06 0.00000E+00
 -1       971 3.55728E-05 7.26224E-06 0.00000E+00
 -1       972 3.55295E-05 7.67185E-06 8.27181E-25
 -1       973 3.54862E-05 8.11571E-06-8.27181E-25
 -1       974 3.54428E-05 8.58941E-06 4.13590E-25
 -1       975 3.53993E-05 9.08853E-06-8.27181E-25
 -1       976 3.53558E-05 9.60861E-06 0.00000E+00
 -1       977 3.53123E-05 1.01452E-05-1.65436E-24
 -1       978 3.52688E-05 1.06940E-05-8.27181E-25
 -1       979 3.52253E-05 1.12503E-05 0.00000E+00
 -1       980 3.51818E-05 1.18099E-05 0.00000E+00
 -1       981 3.51383E-05 1.23682E-05-1.65436E-24
 -1       982 3.50949E-05 1.29209E-05 2.48154E-24
 -1       983 3.50515E-05 1.34635E-05 1.65436E-24
 -1       984 3.50083E-05 1.39915E-05 0.00000E+00
 -1       985 3.49653E-05 1.45005E-05 0.00000E+00
 -3
    1PSTEP                         2           1           1          
  100CL  101 2.50000E-01         409                     0    1           1
 -4  STRESS      6    1
 -5  SXX         1    4    1    1
 -5  SYY         1    4    2    2
 -5  SZZ         1    4    3    3
 -5  SXY         1    4    1    2
 -5  SYZ         1    4    2    3
 -5  SZX         1    4    3    1
 -1         1-8.63913E+05-3.98587E+05-1.75235E+05-5.58306E+05 1.36424E-10 1.59343E-09
 -1         2 1.44472E+03 1.59904E+05 4.70694E+03 2.67209E+02-8.37304E-11 1.99441E-09
 -1         3-1.82442E+01-3.61027E+05 8.30051E+01-6.58673E+01-6.71321E-11-2.49202E-10
 -1         5-2.16276E+00 1.31160E+05 7.10148E+00-1.40276E+00 1.22942E-10 1.97019E-08
 -1         8-4.07011E+05-1.77337E+05-1.38794E+04-3.08513E+05 1.30967E-10-1.40426E-09
 -1         9-6.98540E+05-1.82670E+05-6.93990E+04-2.42749E+05 1.86992E-09 2.10712E-09
 -1        10-2.67829E+02-3.76118E+05-4.78246E+02-4.36356E+02-1.78170E-09-6.00132E-09
 -1        12 4.66656E-01 1.30511E+05 1.11216E+02-9.78374E-01 1.36424E-12 2.97847E-09
 -1        15 1.07552E+03 5.91054E+02 3.47660E+03 1.21403E+00-1.32083E-08-5.27343E-06
 -1        16-1.96248E+06-6.33005E+05-3.05147E+05-6.44098E+05 5.75771E-09-5.60734E-09
 -1        17-4.32367E+05-2.68020E+05-8.30961E+04-2.53409E+05-2.90747E-09-7.81438E-10
 -1        18 1.66459E+04 1.73395E+03-5.81874E+03-3.05496E+04 3.99325E-10 2.39197E-10
 -1        19 4.07052E+04 4.85299E+04-2.24954E+02 7.97973E+03-3.50974E-10 1.62509E-09
 -1        20-1.68922E+04-1.92426E+05-4.24275E+04 1.43311E+04 1.28292E-09 1.83263E-09
 -1        21-1.82278E+01-1.11628E+05-3.60532E+02-2.23172E+01-4.69888E-09-2.85494E-09
 -1        24-1.72163E+06-6.03022E+05-2.45939E+05-7.35748E+05-7.81802E-09-3.51914E-09
 -1        25 1.47775E+04-3.40271E+03 8.74983E+03-5.51367E+04 1.99316E-10 2.10130E-09
 -1        26-9.46088E+03 3.31585E+04-6.59314E+03-4.71631E+03 7.94171E-10 1.66058E-09
 -1        27-3.07956E+04-1.05587E+05-3.96074E+04 2.37959E+04 2.69730E-09-9.83164E-10
 -1        28 8.61997E+03-3.08424E+04 6.30012E+03 9.88979E+03 2.07658E-09 3.84272E-10
 -1        32-4.12825E+05-6.44701E+04 1.76852E+05-2.77050E+05-8.03266E-09 6.89133E-09
 -1        33-6.04119E+04 3.10580E+04 1.10112E+04-1.80081E+04 5.34593E-10-5.55095E-10
 -1        34-7.84114E+04-7.80639E+03 1.86433E+02 2.41167E+04 2.12799E-09-1.94897E-09
 -1        35-8.77228E+03-1.22701E+04-4.77858E+02 1.94405E+04 3.47410E-09-1.11504E-09
 -1        51 8.24148E+03-2.04642E+05 1.98531E+04-5.03526E+05 1.45519E-11-1.20781E-09
 -1        52 3.99438E+03-2.02591E+05 1.30354E+04-5.87267E+05 1.20053E-10-7.16682E-09
 -1        53 2.40204E+03-2.07358E+05 1.13525E+04-5.01823E+05 3.85626E-10 5.82077E-10
 -1        54 7.88655E+03-2.05267E+05 1.82958E+04-5.89084E+05 1.16415E-10 2.41562E-09
 -1        55 1.81376E+04-2.11867E+05 3.29157E+04-5.01614E+05 7.27596E-11 9.09495E-10
 -1        56-1.65950E+06-1.87756E+05-1.29608E+05-6.40158E+05-7.54881E-10-4.43106E-09
 -1        57-1.71219E+06-3.04316E+05-8.73504E+04-6.34468E+05 5.17957E-10-2.80215E-09
 -1        58-1.68527E+06-2.29059E+05-3.05157E+04-6.32360E+05 7.42602E-10-2.36832E-09
 -1        59-1.68239E+06-2.55897E+05-1.82174E+04-6.43840E+05 8.32529E-10-5.16343E-09
 -1        60-1.68906E+06-2.34795E+05-7.13393E+03-6.31284E+05 1.40517E-10-4.77417E-09
 -1        61-1.67828E+06-2.48903E+05-4.05760E+03-6.44770E+05 8.77435E-10-2.20271E-09
 -1        62-1.68933E+06-2.35879E+05-1.95512E+03-6.31485E+05-2.86491E-11 1.07360E-09
 -1        63-1.67861E+06-2.47159E+05-1.61164E+03-6.43826E+05-9.33653E-10 6.92273E-09
 -1        64-1.68871E+06-2.36534E+05-1.84670E+03-6.32218E+05-5.86283E-10 2.07115E-09
 -1        65-1.68062E+06-2.46313E+05-3.70630E+03-6.41872E+05-1.17075E-09-4.61739E-09
 -1        66-1.68729E+06-2.36761E+05-6.51019E+03-6.33412E+05 6.00380E-10 4.97948E-10
 -1        67-1.68655E+06-2.50403E+05-1.65341E+04-6.38409E+05 5.00904E-10-6.74504E-09
 -1        68-1.68279E+06-2.32622E+05-2.77417E+04-6.35607E+05 9.07676E-10-1.44973E-09
 -1        69-1.71553E+06-2.92463E+05-7.93202E+04-6.27714E+05 1.41995E-09-2.16914E-09
 -1        70-1.65853E+06-1.95956E+05-1.17748E+05-6.43651E+05-6.42103E-10-1.45519E-11
 -1        86-7.23808E+02 1.58504E+05 5.05317E+03-1.33612E+02 6.49152E-10 2.00464E-09
 -1        87 4.80647E+03 1.61540E+05 1.05281E+04 5.46770E+02 1.09230E-09-4.40252E-11
 -1        88-4.07565E+03 1.56869E+05 1.61343E+04-4.13173E+02 1.61981E-09 3.42607E-09
 -1        89 3.03758E+04 1.73436E+05 4.34885E+04 1.16537E+03 2.47019E-09-4.77087E-09
 -1        90-2.62093E+04 1.46613E+05 6.14518E+04-7.52029E+02 2.74667E-09 1.98429E-09
 -1       121-3.46398E+01-3.61144E+05 8.29844E+01 3.29143E+01 1.78542E-10-3.55340E-09
 -1       122 9.03892E+00-3.61008E+05 1.81878E+02-1.31882E+02-6.72438E-10 4.42651E-09
 -1       123-5.46892E+01-3.61163E+05 2.99064E+02 9.88546E+01 5.76279E-10 1.35606E-09
 -1       124 3.44689E+02-3.60801E+05 7.64511E+02-3.26940E+02-1.28227E-09-7.63976E-10
 -1       125-2.73415E+02-3.61353E+05 1.17703E+03 2.27994E+02 8.08768E-10-2.11548E-09
 -1       191-2.31818E+00 1.31171E+05 8.62368E+00 7.01213E-01-5.41007E-11 2.14318E-08
 -1       192-1.28996E+00 1.31161E+05 1.54063E+01-6.33275E+00-7.42091E-11 3.39637E-08
 -1       193 5.99802E-01 1.31170E+05 2.90689E+01 5.63087E+00-2.20780E-10 1.35592E-08
 -1       194 1.29210E+01 1.31167E+05 6.20570E+01-4.89051E+01-1.75135E-10 9.48603E-10
 -1       195 4.25523E+01 1.31165E+05 1.24130E+02 4.32811E+01-3.51065E-10 2.21303E-09
 -1       251 1.43036E+05-2.53674E+04 5.93076E+04 2.14992E+03-1.07207E-10-1.03682E-09
 -1       252 1.69594E+05 2.93638E+04 4.20015E+04-7.51010E+03 4.68390E-11 1.03546E-09
 -1       253 1.53143E+05-3.92908E+03 1.53535E+04 1.62179E+03-1.88493E-10-2.64208E-09
 -1       254 1.57729E+05 4.54260E+03 9.68329E+03-6.67101E+03 1.41824E-11-3.59478E-09
 -1       255 1.54868E+05-6.07463E+02 3.96722E+03 1.31094E+03 8.66294E-11 4.18390E-09
 -1       256 1.55679E+05 7.19734E+02 2.40747E+03-6.21023E+03 2.45279E-11 7.25379E-09
 -1       257 1.55178E+05-1.06551E+02 1.24101E+03 1.16100E+03-8.24514E-11 2.22030E-10
 -1       258 1.55366E+05 2.23292E+02 1.10066E+03-6.05845E+03-1.85368E-10-5.24668E-09
 -1       259 1.55177E+05-1.08814E+02 1.26242E+03 1.15916E+03-1.10845E-11-2.89990E-09
 -1       260 1.55687E+05 7.39579E+02 2.46838E+03-6.20339E+03 3.74527E-11-4.46278E-09
 -1       261 1.54861E+05-6.24827E+02 4.07847E+03 1.30594E+03 7.27226E-10-6.77801E-10
 -1       262 1.57789E+05 4.67359E+03 9.95800E+03-6.65626E+03-1.90809E-10-2.33558E-09
 -1       263 1.53091E+05-4.04195E+03 1.57964E+04 1.61204E+03-1.49782E-10 1.22509E-09
 -1       264 1.69981E+05 3.02089E+04 4.32049E+04-7.48649E+03-1.26391E-09 5.33373E-09
 -1       265 1.42701E+05-2.60959E+04 6.10193E+04 2.13605E+03-5.70139E-10 5.29690E-09
 -1       266-1.94707E+04-9.10513E+03 4.56808E+04-2.59756E+01-2.07019E-08-8.29652E-06
 -1       267 2.25717E+04 1.06112E+04 3.22881E+04 2.99723E+01-4.10305E-08-1.63954E-05
 -1       268-3.02684E+03-1.50290E+03 1.20012E+04-3.81886E+00-3.29869E-08-1.31486E-05
 -1       269 3.57379E+03 1.79859E+03 7.80069E+03 4.44852E+00-2.49145E-08-9.91288E-06
 -1       270-5.36430E+02-2.95525E+02 3.76550E+03-6.03672E-01-1.83161E-08-7.30936E-06
 -1       271-1.91280E+06-2.37682E+05-1.47078E+05-7.43898E+05-2.43745E-10-1.23691E-09
 -1       272-1.95252E+06-3.58183E+05-9.45784E+04-7.57826E+05-9.67475E-11-2.81489E-09
 -1       273-1.94045E+06-2.74334E+05-3.47393E+04-7.37391E+05-1.28466E-09-1.93722E-09
 -1       274-1.92036E+06-3.13120E+05-1.94644E+04-7.67737E+05-1.31831E-09-1.26420E-10
 -1       275-1.94455E+06-2.77860E+05-8.08112E+03-7.35959E+05-7.43057E-10 3.87445E-10
 -1       276-1.91556E+06-3.08934E+05-4.30271E+03-7.70027E+05-2.97405E-10 2.33138E-09
 -1       277-1.94540E+06-2.77905E+05-2.10396E+03-7.35431E+05 2.16914E-10 3.32818E-09
 -1       278-1.91473E+06-3.08804E+05-1.53158E+03-7.70660E+05 1.17848E-09 1.02455E-09
 -1       279-1.94545E+06-2.77897E+05-1.64245E+03-7.35401E+05-8.47194E-10-8.39236E-10
 -1       280-1.91529E+06-3.08809E+05-3.00973E+03-7.70176E+05 4.96584E-10-1.60298E-09
 -1       281-1.94478E+06-2.77968E+05-5.49657E+03-7.35857E+05 4.17458E-10 1.67347E-10
 -1       282-1.91879E+06-3.11317E+05-1.31355E+04-7.68237E+05-1.68484E-10 3.56522E-10
 -1       283-1.94179E+06-2.75840E+05-2.34286E+04-7.37076E+05 1.75987E-10-2.90675E-09
 -1       284-1.94095E+06-3.41099E+05-6.37137E+04-7.60832E+05-2.75008E-10-1.90903E-09
 -1       285-1.92280E+06-2.51542E+05-9.91379E+04-7.41865E+05 5.45697E-10 2.32831E-10
 -1       301 7.33941E+03-4.64649E+03 5.73883E+04-1.42744E+04-3.60160E-10 3.52873E-09
 -1       302 7.87886E+03 9.92626E+03 4.14461E+04-2.09903E+04 7.44762E-10 9.43402E-09
 -1       303 3.29866E+02 5.07513E+02 3.81583E+04-1.42958E+04-7.43967E-10-1.31035E-09
 -1       304 1.48776E+04 1.63791E+04 6.41945E+04-2.09351E+04 8.00355E-10-2.53749E-10
 -1       305 1.47494E+04-1.10693E+04 1.07723E+05-1.42993E+04-2.80124E-10 5.58862E-09
 -1       306-2.06387E+06-2.36049E+05-1.57196E+05-8.03077E+05 1.97178E-09 2.48838E-09
 -1       307-2.13866E+06-3.75291E+05-1.07206E+05-7.83204E+05 4.36103E-10 4.85306E-09
 -1       308-2.09865E+06-2.85772E+05-3.69785E+04-7.89359E+05 7.54881E-10-7.29415E-10
 -1       309-2.09630E+06-3.19522E+05-2.24330E+04-8.01777E+05-6.42217E-10 3.42425E-10
 -1       310-2.10606E+06-2.90861E+05-8.67611E+03-7.84856E+05 5.03539E-10-4.65889E-09
 -1       311-2.08691E+06-3.14525E+05-5.04266E+03-8.08150E+05 2.69165E-09 5.30110E-09
 -1       312-2.10808E+06-2.90592E+05-2.46348E+03-7.83076E+05-1.08784E-10 7.48190E-09
 -1       313-2.08515E+06-3.14534E+05-2.22286E+03-8.09660E+05-1.48295E-09 7.83112E-09
 -1       314-2.10784E+06-2.90821E+05-2.66816E+03-7.83367E+05-8.14623E-10 4.26667E-10
 -1       315-2.08792E+06-3.13794E+05-5.63898E+03-8.07020E+05-1.28594E-09-2.22326E-09
 -1       316-2.10528E+06-2.91379E+05-9.80060E+03-7.85680E+05 7.24889E-10 2.79351E-09
 -1       317-2.09880E+06-3.19261E+05-2.53869E+04-7.99588E+05-7.16682E-10-3.16368E-09
 -1       318-2.09693E+06-2.85550E+05-4.18631E+04-7.90700E+05-1.59071E-09-7.53062E-10
 -1       319-2.14642E+06-3.82832E+05-1.21403E+05-7.79079E+05-2.39652E-10-3.07409E-10
 -1       320-2.05785E+06-2.28872E+05-1.77969E+05-8.05807E+05 4.10364E-09-5.20231E-09
 -1       336 2.93900E+02-3.90962E+05-2.06942E+03 2.08189E+02-3.45040E-09-4.80577E-09
 -1       337-7.41812E+02-3.91564E+05-2.26810E+03-5.87321E+02-6.37505E-09-5.97538E-10
 -1       338 1.94846E+02-3.91024E+05-2.84217E+03 3.78327E+02-4.59443E-09 1.97997E-09
 -1       339-2.93795E+03-3.92904E+05-6.22958E+03-9.25185E+02-8.39952E-09 5.17684E-09
 -1       340 2.01034E+03-3.89632E+05-9.58958E+03 5.44322E+02-5.63159E-09 2.39834E-09
 -1       406-3.95911E+01 1.29858E+05 1.47619E+02-4.22917E+01 2.99679E-10 2.70302E-09
 -1       407 5.86193E+01 1.29888E+05 4.28156E+02 4.28762E+01 4.75779E-11-4.06999E-11
 -1       408 2.33286E+02 1.29820E+05 9.08387E+02-5.39031E-01 3.66413E-10-4.27917E-10
 -1       409 9.96436E+02 1.30188E+05 2.07168E+03-4.04646E+01 8.75389E-11-6.02950E-09
 -1       410 2.86776E+03 1.29558E+05 4.24121E+03 4.19157E+01 3.62434E-10-2.56546E-09
 -1       521-3.88765E+06-4.47695E+05-2.90904E+05-1.51035E+06 1.88811E-09-3.36149E-09
 -1       522-4.02700E+06-6.99861E+05-1.97741E+05-1.47275E+06-1.46338E-09-3.32875E-10
 -1       523-3.95238E+06-5.37706E+05-6.83937E+04-1.48459E+06 4.50200E-10-1.91358E-09
 -1       524-3.94823E+06-5.98663E+05-4.12839E+04-1.50752E+06 1.01704E-09 2.28738E-10
 -1       525-3.96592E+06-5.46691E+05-1.59842E+04-1.47634E+06 7.01903E-10 3.69255E-10
 -1       526-3.93212E+06-5.88661E+05-9.22038E+03-1.51781E+06 1.34298E-09-1.97952E-09
 -1       527-3.96849E+06-5.47330E+05-4.42575E+03-1.47446E+06 2.05250E-09 2.24031E-09
 -1       528-3.93216E+06-5.85196E+05-3.79482E+03-1.51644E+06-1.31672E-09 3.73538E-09
 -1       529-3.96583E+06-5.50144E+05-4.44458E+03-1.47768E+06-1.33355E-09 1.75305E-10
 -1       530-3.94186E+06-5.78421E+05-9.08481E+03-1.50583E+06 4.43720E-10-1.53250E-09
 -1       531-3.95866E+06-5.54244E+05-1.59368E+04-1.48495E+06 5.95094E-10-9.64974E-10
 -1       532-3.96506E+06-5.81213E+05-4.09091E+04-1.48755E+06-2.13788E-09-2.58524E-09
 -1       533-3.94265E+06-5.47708E+05-6.78865E+04-1.49583E+06 1.71713E-09-2.41926E-09
 -1       534-4.04563E+06-6.79775E+05-1.96242E+05-1.45129E+06 2.27647E-09 4.54747E-09
 -1       535-3.87880E+06-4.57722E+05-2.88599E+05-1.52061E+06-5.56611E-09 4.22006E-09
 -1       536-4.15947E+03-1.10705E+04 2.55212E+04 2.66510E+02-8.02899E-10-1.67347E-10
 -1       537 7.50430E+03 1.28104E+04 1.81573E+04-1.01041E+03-3.93007E-09 7.63976E-11
 -1       538 1.98313E+02-1.73486E+03 6.58782E+03 2.43037E+02 7.58433E-11 2.54704E-09
 -1       539 2.37627E+03 2.00353E+03 4.19050E+03-9.82760E+02 1.78029E-09 1.80006E-09
 -1       540 9.64114E+02-2.70037E+02 1.66628E+03 2.38864E+02 1.00032E-09 2.06774E-09
 -1       541 1.44694E+03 3.09485E+02 9.87630E+02-9.76658E+02-2.04615E-10 3.47590E-09
 -1       542 1.12499E+03-4.02318E+01 4.02115E+02 2.36931E+02-5.31131E-12 2.07680E-09
 -1       543 1.23702E+03 3.94697E+01 2.03023E+02-9.73701E+02-3.51280E-10-3.13094E-10
 -1       544 1.17237E+03 1.00219E+00 3.75205E+01 2.35906E+02 3.76987E-10 7.03267E-10
 -1       545 1.16035E+03-4.31935E+01-9.91144E+01-9.72453E+02-4.09297E-10 1.63590E-09
 -1       546 1.20090E+03 4.29274E+01-2.42835E+02 2.35683E+02 3.62960E-10 1.39310E-09
 -1       547 1.03038E+03-3.19520E+02-6.48913E+02-9.72755E+02-9.51285E-10 6.88715E-10
 -1       548 1.30249E+03 2.77019E+02-1.05438E+03 2.36209E+02-1.18326E-09 2.53158E-09
 -1       549 2.76915E+02-2.04282E+03-2.87980E+03-9.74055E+02-7.24286E-10 2.97359E-09
 -1       550 1.95548E+03 1.76410E+03-4.09894E+03 2.36981E+02 2.44711E-11 1.69871E-09
 -1       551 2.97861E+03-2.06461E+05 1.16053E+04-3.54340E+05-1.56997E-08-3.01225E-09
 -1       552 5.83895E+03-2.05796E+05 1.48398E+04-5.04117E+05-1.26929E-08-1.15324E-09
 -1       553 3.57777E+03-2.08514E+05 2.31336E+04-3.53230E+05-1.88375E-08-1.20417E-09
 -1       554 1.69033E+04-1.97806E+05 4.91089E+04-5.04597E+05-1.14087E-08-7.26720E-09
 -1       555 1.78836E+04-2.17988E+05 8.83661E+04-3.53738E+05-1.83427E-08-6.77210E-09
 -1       556 2.80187E+04-6.54680E+04 2.29915E+04-8.83160E+04-2.97223E-09-3.76531E-09
 -1       557 5.46648E+04-8.79931E+04 1.20059E+04-1.10224E+05-2.32831E-10 1.88493E-10
 -1       558 2.84930E+04-6.88541E+04 4.95467E+03-8.53660E+04-5.46424E-09-7.38964E-09
 -1       559 5.17066E+04-9.13459E+04 2.48123E+03-1.11373E+05 1.75169E-09 1.44610E-10
 -1       560 2.81387E+04-6.86000E+04 1.07791E+03-8.55505E+04 1.08048E-09 3.31875E-09
 -1       561 5.09962E+04-9.12584E+04 5.49011E+02-1.11812E+05-2.44472E-09-5.08385E-09
 -1       562 2.78200E+04-6.83709E+04 2.30437E+02-8.57851E+04 6.94854E-10-5.69344E-10
 -1       563 5.06039E+04-9.10930E+04 1.27124E+02-1.12062E+05 3.71074E-10 3.60728E-10
 -1       564 2.76205E+04-6.82376E+04 4.80105E+01-8.59293E+04-5.63887E-10-9.22137E-09
 -1       565 5.04030E+04-9.10091E+04 2.00201E+01-1.12187E+05 2.01544E-09 1.35515E-09
 -1       566 2.75536E+04-6.81902E+04-1.79907E+01-8.59797E+04-2.86946E-10-9.60426E-10
 -1       567 5.03706E+04-9.09927E+04-6.81112E+01-1.12174E+05 3.69528E-09 2.50111E-09
 -1       568 2.76365E+04-6.82466E+04-1.69623E+02-8.59525E+04-2.26464E-10 8.99490E-10
 -1       569 5.01676E+04-9.08810E+04-4.02179E+02-1.11735E+05-1.31558E-09-1.76442E-09
 -1       570 2.81507E+04-6.87669E+04-8.16160E+02-8.60444E+04 6.36646E-10-3.08319E-09
 -1       571 9.42216E+04 3.41617E+03 5.05885E+03-2.36292E+04-3.27873E-10 2.74440E-09
 -1       572 9.49761E+04 1.18847E+03 2.47826E+03-2.59019E+04-6.03450E-10 2.58638E-09
 -1       573 9.45284E+04 2.83381E+02 1.10092E+03-2.35676E+04-4.35421E-10-2.00657E-09
 -1       574 9.46189E+04 9.13993E+01 5.51430E+02-2.59711E+04 1.93836E-10 2.24441E-09
 -1       575 9.45646E+04 1.17109E+01 2.59852E+02-2.35594E+04 2.58069E-10 2.32626E-09
 -1       576 9.45713E+04 2.13104E+00 1.32171E+02-2.59804E+04 6.04416E-10 6.85304E-10
 -1       577 9.45700E+04-2.94345E+00 6.50588E+01-2.35583E+04 1.73037E-09-1.29444E-09
 -1       578 9.45655E+04-1.78174E+00 3.53642E+01-2.59814E+04 5.16593E-10 2.25714E-09
 -1       579 9.45734E+04-2.63442E+00 2.15882E+01-2.35584E+04-6.01631E-10-5.32509E-10
 -1       580 9.45691E+04-2.60450E+00 1.99853E+01-2.59799E+04-9.49512E-10-1.82968E-09
 -1       581 9.45784E+04-3.39560E+00 2.71781E+01-2.35598E+04-5.30235E-10 4.87944E-10
 -1       582 9.45804E+04 1.97573E+00 5.15442E+01-2.59658E+04-2.01908E-10 1.30967E-09
 -1       583 9.45830E+04 1.67233E+01 9.92832E+01-2.35725E+04-2.81943E-11-3.09342E-10
 -1       584 9.46223E+04 9.55464E+01 2.22237E+02-2.58604E+04-1.03864E-09-2.43767E-09
 -1       585 9.45648E+04 2.93065E+02 4.51989E+02-2.36653E+04 1.06411E-10 4.98403E-10
 -1       586-1.18399E+03 3.06523E+04-1.55422E+03-8.05561E+04 2.51248E-10 3.12423E-09
 -1       587-2.71244E+02 3.04469E+04-1.90403E+02-8.86456E+04 4.42014E-10 4.90778E-09
 -1       588 3.05766E+02 3.04857E+04 1.06615E+03-8.05071E+04 2.61480E-10 9.23455E-09
 -1       589 1.58735E+03 3.10657E+04 3.12783E+03-8.85721E+04 3.93811E-10 1.99864E-08
 -1       590 4.59090E+03 3.00828E+04 6.70828E+03-8.06299E+04 2.05091E-10 1.14533E-08
 -1       591-2.04466E+04-5.87281E+03-6.83705E+03-1.06229E+04-4.65877E-09-1.79170E-09
 -1       592-2.10863E+04-7.55269E+03-3.70323E+03-1.24066E+04-1.35874E-08-6.58792E-09
 -1       593-2.11376E+04-5.36917E+03-1.54167E+03-1.11163E+04-4.02821E-09 4.70652E-09
 -1       594-2.01331E+04-6.55909E+03-7.68930E+02-1.24537E+04 2.72848E-11-1.45050E-10
 -1       595-2.11903E+04-5.36705E+03-3.53373E+02-1.11388E+04-8.20307E-10-2.41791E-10
 -1       596-2.00684E+04-6.51363E+03-1.80146E+02-1.24468E+04-5.18412E-11 2.56052E-09
 -1       597-2.11970E+04-5.37147E+03-9.91702E+01-1.11397E+04 8.13500E-10 1.09537E-10
 -1       598-2.00623E+04-6.51188E+03-8.16914E+01-1.24450E+04-6.27111E-10-3.51866E-09
 -1       599-2.11966E+04-5.37140E+03-1.06775E+02-1.11396E+04-3.57147E-09-6.30047E-09
 -1       600-2.00695E+04-6.51414E+03-2.00342E+02-1.24469E+04 1.45837E-09 4.14616E-09
 -1       601-2.11885E+04-5.36642E+03-3.96186E+02-1.11384E+04 1.53625E-09 9.94646E-10
 -1       602-2.01424E+04-6.56506E+03-8.64106E+02-1.24541E+04-1.38016E-10-4.27917E-10
 -1       603-2.11288E+04-5.36948E+03-1.73307E+03-1.11133E+04-9.10859E-10-3.11081E-09
 -1       604-2.12177E+04-7.67816E+03-4.16335E+03-1.23963E+04 7.07132E-11 3.41527E-09
 -1       605-2.03475E+04-5.93896E+03-7.68637E+03-1.05625E+04-3.81135E-10 2.83308E-10
 -1       606 1.34651E+04-4.53243E+03-8.16675E+03 1.31875E+04-1.08694E-08-1.26875E-10
 -1       607 1.20668E+04-1.46181E+03-4.06683E+03 1.48038E+04-1.79084E-08-2.57216E-09
 -1       608 1.28658E+04-2.45465E+02-1.82058E+03 1.30823E+04-7.41238E-09-1.09492E-09
 -1       609 1.27099E+04-6.60216E+01-9.19770E+02 1.49202E+04-1.66256E-09 2.85161E-09
 -1       610 1.27984E+04 9.65101E+00-4.38916E+02 1.30705E+04-3.96267E-09-9.96238E-10
 -1       611 1.27709E+04 1.26196E+01-2.21534E+02 1.49330E+04-5.35874E-09-1.57002E-09
 -1       612 1.27837E+04 1.38333E+01-1.05744E+02 1.30694E+04-3.46154E-09 8.18204E-10
 -1       613 1.27749E+04 1.37791E+01-4.83254E+01 1.49346E+04-3.46790E-09 6.44468E-09
 -1       614 1.27770E+04 1.17283E+01-1.33889E+01 1.30689E+04-7.71252E-10 1.12675E-09
 -1       615 1.27732E+04 1.41538E+01 1.49375E+01 1.49349E+04 2.28829E-09-7.56017E-11
 -1       616 1.27718E+04 1.25896E+01 4.97634E+01 1.30691E+04-1.58184E-09-5.07612E-10
 -1       617 1.27790E+04 2.50730E+01 1.15293E+02 1.49346E+04-1.80194E-10 1.42359E-09
 -1       618 1.27615E+04 4.60660E+01 2.33144E+02 1.30691E+04 3.09683E-10-1.53398E-09
 -1       619 1.28612E+04 2.05626E+02 5.23977E+02 1.49344E+04-9.04947E-11 5.23642E-10
 -1       620 1.26839E+04 5.99555E+02 1.05335E+03 1.30689E+04 8.81073E-10 2.24986E-09
 -1       621 1.64498E+02 1.02565E+05 1.41747E+03 3.25628E+03-1.37632E-10 1.64323E-09
 -1       622 1.88001E+02 1.02916E+05 1.20256E+03 4.75108E+03-1.50692E-10 1.09623E-10
 -1       623 8.38488E+00 1.02666E+05 1.38238E+03 3.24084E+03-2.03656E-10 1.59747E-09
 -1       624 6.25992E+02 1.03318E+05 2.62458E+03 4.76632E+03-1.30626E-10 1.06229E-09
 -1       625 6.28153E+02 1.02161E+05 4.56247E+03 3.24115E+03-9.04947E-11-2.59600E-09
 -1       626 8.46555E+04 2.34855E+04 1.69297E+03 4.58030E+04-1.27602E-09-1.65892E-09
 -1       627 8.34940E+04 2.43401E+04 8.15401E+02 4.76606E+04-1.51203E-10-2.17602E-09
 -1       628 8.47239E+04 2.26828E+04 3.44722E+02 4.60602E+04 2.79761E-09 2.62423E-09
 -1       629 8.32540E+04 2.41464E+04 1.68774E+02 4.77754E+04 6.47105E-09 3.16396E-09
 -1       630 8.47316E+04 2.26428E+04 7.82065E+01 4.60691E+04 2.03499E-09-4.15523E-09
 -1       631 8.32277E+04 2.41408E+04 4.19414E+01 4.77791E+04-1.90198E-09 3.48702E-09
 -1       632 8.47301E+04 2.26443E+04 2.77506E+01 4.60670E+04 2.93994E-09-2.97592E-09
 -1       633 8.32238E+04 2.41424E+04 3.08898E+01 4.77776E+04 5.44196E-09-2.96220E-08
 -1       634 8.47270E+04 2.26438E+04 5.00583E+01 4.60658E+04 1.46956E-08 5.36204E-09
 -1       635 8.32269E+04 2.41428E+04 1.01493E+02 4.77781E+04 1.85798E-09-9.37348E-10
 -1       636 8.47220E+04 2.26432E+04 2.05082E+02 4.60645E+04 1.36077E-09-1.44735E-09
 -1       637 8.32686E+04 2.41755E+04 4.50785E+02 4.77760E+04-3.51573E-09-1.20017E-08
 -1       638 8.47037E+04 2.27441E+04 9.26601E+02 4.60178E+04 1.38601E-09-3.06477E-09
 -1       639 8.37520E+04 2.48539E+04 2.19213E+03 4.76311E+04-1.67256E-09 8.89713E-10
 -1       640 8.46368E+04 2.47631E+04 4.54951E+03 4.51606E+04-3.55010E-09-4.77053E-09
 -1       656 2.29502E+04-5.80962E+05-5.54183E+04-4.98561E+02 2.91038E-10-4.39266E-09
 -1       657-3.03240E+04-6.06000E+05-4.58306E+04 3.80914E+03-7.77618E-11-4.40710E-09
 -1       658 7.27551E+03-5.88110E+05-2.81267E+04-7.81157E+02-2.14129E-10-2.60880E-09
 -1       659-3.25088E+04-6.07026E+05-4.86999E+04 3.99457E+03-3.16504E-10-1.55791E-09
 -1       660 2.51287E+04-5.79937E+05-6.03604E+04-6.83982E+02-6.07542E-10-1.51922E-09
 -1       661 8.26063E+04 8.96142E+03 7.91679E+03 3.22350E+04 5.45469E-10 1.29603E-10
 -1       662 8.66985E+04 1.52016E+04 5.33456E+03 3.08928E+04-9.15520E-10-5.43764E-09
 -1       663 8.41539E+04 1.15081E+04 1.86608E+03 3.17917E+04-4.78565E-10-2.61036E-09
 -1       664 8.49103E+04 1.22178E+04 1.11557E+03 3.14288E+04 1.16687E-09-1.93614E-09
 -1       665 8.43828E+04 1.18616E+04 4.40111E+02 3.17305E+04 1.12607E-09-1.79601E-09
 -1       666 8.46442E+04 1.18087E+04 2.56551E+02 3.15049E+04 2.63753E-10-4.40167E-10
 -1       667 8.44185E+04 1.19066E+04 1.35310E+02 3.17196E+04 7.10415E-10 2.39193E-09
 -1       668 8.46087E+04 1.17697E+04 1.35422E+02 3.15189E+04 1.92250E-09-9.77520E-10
 -1       669 8.44181E+04 1.18995E+04 1.81513E+02 3.17168E+04 1.14639E-09 3.12322E-09
 -1       670 8.46597E+04 1.18604E+04 3.93337E+02 3.15125E+04 5.82789E-09 5.10288E-09
 -1       671 8.43677E+04 1.18178E+04 6.97904E+02 3.17252E+04 7.20881E-11-5.55076E-10
 -1       672 8.50716E+04 1.25342E+04 1.78507E+03 3.14085E+04-1.96937E-09-1.29512E-09
 -1       673 8.40085E+04 1.12428E+04 2.99138E+03 3.18144E+04-1.18609E-09 6.80302E-10
 -1       674 8.79244E+04 1.73354E+04 8.55508E+03 3.05661E+04 4.01059E-10-2.29204E-09
 -1       675 8.15335E+04 7.15097E+03 1.26979E+04 3.25171E+04 8.88122E-10-3.40651E-09
 -1       676 9.35285E+00-1.11598E+05-4.34530E+02 1.11589E+01 2.55866E-10-2.94884E-09
 -1       677-1.15345E+02-1.11703E+05-7.95199E+02-2.23167E+01-2.57694E-09-6.43897E-09
 -1       678 7.70037E+01-1.11523E+05-1.40568E+03 1.11501E+01-4.67367E-10-1.14600E-09
 -1       679-1.40581E+03-1.12551E+05-3.33901E+03-2.22740E+01-9.47523E-10-2.18675E-09
 -1       680 8.38892E+02-1.10749E+05-5.38143E+03 1.09878E+01 2.95586E-11 1.57001E-10
 -1       771-1.20096E+06-2.08274E+05-2.90874E+04-4.96862E+05-4.81305E-09-3.81988E-09
 -1       772-1.19331E+06-2.24802E+05-1.56586E+04-5.15264E+05-3.04863E-09 2.40107E-09
 -1       773-1.20469E+06-2.05394E+05-6.66736E+03-4.98490E+05-1.89175E-09 1.82990E-09
 -1       774-1.18901E+06-2.21226E+05-3.27111E+03-5.16617E+05 4.21096E-09-7.23048E-10
 -1       775-1.20534E+06-2.05024E+05-1.59353E+03-4.98582E+05-1.10231E-09 4.11092E-10
 -1       776-1.18884E+06-2.21169E+05-7.50793E+02-5.17181E+05-2.35013E-09 1.24055E-09
 -1       777-1.20573E+06-2.04763E+05-4.27302E+02-4.98614E+05 1.09139E-09 7.54881E-10
 -1       778-1.18892E+06-2.21239E+05-2.01341E+02-5.17642E+05 9.31323E-10 1.92267E-09
 -1       779-1.20603E+06-2.04539E+05-1.78432E+02-4.98639E+05-2.25555E-10-1.25237E-09
 -1       780-1.18902E+06-2.21305E+05-1.56621E+02-5.18015E+05-3.71074E-10 1.36424E-12
 -1       781-1.20624E+06-2.04356E+05-2.73649E+02-4.98655E+05-3.61251E-09-7.38510E-10
 -1       782-1.18913E+06-2.21382E+05-5.21799E+02-5.18290E+05-4.92219E-09-1.44462E-09
 -1       783-1.20636E+06-2.04240E+05-1.04149E+03-4.98654E+05-8.94943E-10-2.04278E-09
 -1       784-1.18980E+06-2.22080E+05-2.47692E+03-5.18431E+05-2.77942E-09-6.63931E-11
 -1       785-1.20598E+06-2.04510E+05-4.57730E+03-4.98324E+05-5.00950E-09 5.38876E-10
 -1       786 8.70292E+04-4.65546E+03 1.07697E+04 2.11321E+00 4.24292E-08 6.07997E-10
 -1       787 9.16961E+04 5.38953E+03 7.61954E+03-8.63886E+00 8.38281E-08 3.82170E-09
 -1       788 8.88298E+04-7.29791E+02 2.78743E+03 2.61063E+00 1.35222E-07 3.12241E-09
 -1       789 8.95986E+04 8.44408E+02 1.75137E+03-1.01966E+01 1.86720E-07-1.41256E-11
 -1       790 8.91269E+04-1.14004E+02 7.12603E+02 3.67101E+00 2.68352E-07-4.62887E-09
 -1       791 8.92518E+04 1.32456E+02 4.18384E+02-1.30293E+01 3.49902E-07 2.87238E-09
 -1       792 8.91766E+04-1.83718E+01 1.90933E+02 5.44341E+00 5.02151E-07-2.40281E-09
 -1       793 8.91958E+04 2.57967E+01 1.25095E+02-1.75456E+01 6.55154E-07 4.30494E-09
 -1       794 8.91830E+04-7.41451E+00 9.26340E+01 8.18730E+00 9.62241E-07-8.89229E-09
 -1       795 8.92013E+04 3.82459E+01 1.33951E+02-2.43981E+01 1.26771E-06 7.20089E-09
 -1       796 8.91711E+04-3.08123E+01 2.00630E+02 1.22961E+01 6.33810E-07-2.63035E-09
 -1       797 8.92922E+04 2.25859E+02 4.73030E+02-3.45702E+01 2.05011E-09 2.33869E-09
 -1       798 8.90920E+04-1.94890E+02 7.46696E+02 1.83595E+01-1.45373E-11 3.04101E-09
 -1       799 8.98521E+04 1.43895E+03 2.03556E+03-4.96212E+01-4.83759E-10 2.12722E-09
 -1       800 8.86112E+04-1.24293E+03 2.87556E+03 2.73472E+01 1.03704E-11 1.09969E-09
 -1       801-4.66237E+03 1.04668E+04 8.47067E+03 9.21181E+03 5.11477E-09-9.40304E-10
 -1       802 1.29329E+04 4.15591E+04 2.47771E+04-3.79435E+04 1.36652E-08-1.60890E-09
 -1       803-8.01766E+03 2.04237E+04 3.26517E+04 8.85904E+03 1.07793E-08 9.16431E-09
 -1       804 6.29762E+04 6.74210E+04 9.02636E+04-3.82724E+04 1.27848E-08 1.01700E-08
 -1       805-5.47096E+04-1.53042E+04 1.19573E+05 9.54019E+03 4.53292E-09 1.18710E-08
 -1       806-1.02741E+05-2.19941E+04-8.72382E+03-4.27653E+04-9.33483E-10 2.01453E-09
 -1       807-1.03256E+05-2.07431E+04-4.28579E+03-4.50766E+04 1.21418E-09 1.61884E-09
 -1       808-1.02989E+05-1.88425E+04-1.81810E+03-4.42455E+04 1.36583E-09 5.58710E-09
 -1       809-1.02342E+05-1.95530E+04-8.88839E+02-4.52002E+04-1.77050E-09-4.38229E-09
 -1       810-1.03028E+05-1.87310E+04-4.06978E+02-4.43109E+04 1.30092E-09 1.28750E-09
 -1       811-1.02272E+05-1.95058E+04-2.01847E+02-4.51903E+04 4.29964E-10 5.98106E-10
 -1       812-1.03035E+05-1.87389E+04-1.00675E+02-4.43111E+04 8.23093E-11-8.81982E-10
 -1       813-1.02264E+05-1.95069E+04-6.35285E+01-4.51855E+04 5.82077E-11-5.89051E-09
 -1       814-1.03035E+05-1.87415E+04-5.94831E+01-4.43101E+04 3.80396E-10-1.12914E-09
 -1       815-1.02266E+05-1.95077E+04-9.32293E+01-4.51848E+04-9.31550E-10 5.33646E-10
 -1       816-1.03030E+05-1.87402E+04-1.74578E+02-4.43093E+04-8.16499E-10 4.21483E-09
 -1       817-1.02296E+05-1.95242E+04-3.74582E+02-4.51827E+04 3.43346E-09 9.81368E-09
 -1       818-1.03009E+05-1.87920E+04-7.63251E+02-4.42850E+04 3.91083E-10 3.43198E-09
 -1       819-1.02719E+05-1.99822E+04-1.79680E+03-4.50819E+04-4.31100E-10 4.07420E-09
 -1       820-1.02864E+05-2.01502E+04-3.65654E+03-4.37065E+04-2.91038E-10 2.90021E-09
 -1       821-1.32676E+05 7.36648E+03-1.70387E+04-7.46504E-01-4.49851E-10-9.44056E-10
 -1       822-1.40058E+05-8.52794E+03-1.20566E+04-9.44796E+01-1.43820E-09 1.54500E-09
 -1       823-1.35525E+05 1.15480E+03-4.41307E+03-2.46250E+01 1.02709E-09 1.00499E-10
 -1       824-1.36739E+05-1.33663E+03-2.77729E+03-4.33335E+01-8.89768E-10 2.01226E-10
 -1       825-1.35994E+05 1.80831E+02-1.14081E+03-5.18943E+01-1.77364E-09-3.04419E-09
 -1       826-1.36193E+05-2.13273E+02-6.90224E+02 8.78858E+00-2.55258E-09-3.19311E-10
 -1       827-1.36071E+05 3.22665E+01-3.55936E+02-7.67482E+01-2.63685E-09-7.28676E-10
 -1       828-1.36117E+05-6.52079E+01-3.16176E+02 5.09156E+01 2.93808E-08-1.32451E-09
 -1       829-1.36070E+05 3.28797E+01-3.61318E+02-9.40221E+01 9.47246E-06-9.56430E-09
 -1       830-1.36197E+05-2.18491E+02-7.06310E+02 7.43017E+01 1.88543E-05-4.57289E-09
 -1       831-1.35991E+05 1.85457E+02-1.16909E+03-1.00135E+02-1.25147E-06 4.85727E-10
 -1       832-1.36758E+05-1.37098E+03-2.84871E+03 7.42638E+01-2.13504E-05 1.08197E-08
 -1       833-1.35509E+05 1.18453E+03-4.52642E+03-9.39838E+01-1.07244E-05 9.38144E-09
 -1       834-1.40162E+05-8.74758E+03-1.23673E+04 5.16680E+01-3.48835E-08 4.71846E-09
 -1       835-1.32588E+05 7.55623E+03-1.74777E+04-7.75364E+01 1.64615E-09 1.56433E-09
 -1       836-4.42824E+02 1.25857E+05 7.57674E+03-1.10163E+04 9.86802E-10 3.76349E-09
 -1       837 1.66203E+03 1.28206E+05 6.46551E+03-2.21462E+04 1.40392E-09 4.22642E-09
 -1       838-1.65928E+02 1.26514E+05 6.66446E+03-1.09774E+04 1.22759E-09 3.34057E-09
 -1       839 4.26997E+03 1.30156E+05 1.26833E+04-2.21610E+04 1.55524E-09 2.60075E-09
 -1       840-1.28931E+03 1.23898E+05 2.02560E+04-1.10010E+04 1.12232E-09 9.18021E-10
 -1       856-4.17333E+04 3.56163E+03-9.38460E+03-1.96622E+02-1.45883E-09 6.54836E-11
 -1       857-4.56110E+04-4.17820E+03-6.46149E+03 2.15928E+03-1.27139E-09 1.93108E-09
 -1       858-4.32653E+04 4.99272E+02-2.43553E+03-2.02410E+02-1.16847E-09-1.84662E-09
 -1       859-4.38505E+04-5.81863E+02-1.47121E+03 2.16825E+03 2.95074E-10 1.83957E-09
 -1       860-4.34946E+04 6.96023E+01-6.18588E+02-2.05635E+02-9.23748E-10-2.44731E-09
 -1       861-4.35859E+04-7.85466E+01-3.44717E+02 2.17259E+03-6.58953E-09-4.29853E-09
 -1       862-4.35303E+04 9.38164E+00-1.52078E+02-2.06754E+02 4.78842E-10-1.24899E-10
 -1       863-4.35437E+04-7.59740E+00-7.53358E+01 2.17310E+03 5.60429E-09 2.14574E-09
 -1       864-4.35368E+04 1.74064E-01-2.38904E+01-2.06142E+02 3.35574E-09-2.03243E-09
 -1       865-4.35321E+04 8.67647E+00 1.33509E+01 2.16988E+03 3.30400E-09-5.31222E-09
 -1       866-4.35416E+04-6.88565E+00 5.02113E+01-2.03543E+02 4.82743E-10-5.83782E-10
 -1       867-4.35037E+04 5.84123E+01 1.37902E+02 2.16287E+03 2.82540E-10 8.44693E-11
 -1       868-4.35645E+04-4.88372E+01 2.33349E+02-1.99131E+02-7.51669E-10-2.70897E-09
 -1       869-4.33305E+04 4.06740E+02 6.25587E+02 2.15056E+03-5.11427E-09-6.70792E-09
 -1       870-4.37137E+04-3.45987E+02 9.08364E+02-1.91227E+02 8.98126E-12-3.26327E-09
 -1       871-1.92317E+03-4.02441E+03-6.30248E+03 4.13343E+04 1.44473E-09 1.59343E-09
 -1       872-8.29870E+02-5.43077E+03-2.56675E+03 5.35857E+04 2.32353E-09 1.50180E-09
 -1       873-9.87739E+00-4.76198E+03 3.76406E+02 4.12422E+04 7.02812E-10 4.58323E-09
 -1       874 9.85193E+02-3.84480E+03 3.59823E+03 5.36053E+04 1.47884E-09 1.68984E-09
 -1       875 2.32193E+03-5.62322E+03 7.97569E+03 4.13170E+04 1.00863E-09-7.00084E-10
 -1       876 1.03560E+05 1.78295E+04 5.55308E+03 4.19943E+04-2.04042E-09 3.39742E-09
 -1       877 1.03876E+05 1.90491E+04 2.96536E+03 4.36390E+04-3.39674E-09-3.36178E-09
 -1       878 1.04080E+05 1.72139E+04 1.24243E+03 4.24500E+04 2.06182E-09 4.00962E-09
 -1       879 1.03121E+05 1.82972E+04 6.18834E+02 4.36798E+04 1.24606E-09 3.23908E-09
 -1       880 1.04119E+05 1.72063E+04 2.88143E+02 4.24686E+04 1.56604E-09 3.14446E-09
 -1       881 1.03071E+05 1.82654E+04 1.53397E+02 4.36731E+04 2.27561E-09-2.10811E-09
 -1       882 1.04123E+05 1.72104E+04 9.74089E+01 4.24691E+04 3.78606E-09 1.78956E-09
 -1       883 1.03067E+05 1.82641E+04 1.03492E+02 4.36715E+04 3.72296E-10 5.69173E-09
 -1       884 1.04121E+05 1.72090E+04 1.63566E+02 4.24692E+04-1.13587E-09 5.02004E-09
 -1       885 1.03080E+05 1.82664E+04 3.28199E+02 4.36758E+04 1.85545E-09 4.53042E-10
 -1       886 1.04108E+05 1.71994E+04 6.61201E+02 4.24679E+04 2.18795E-09-3.63741E-09
 -1       887 1.03196E+05 1.83426E+04 1.44426E+03 4.36922E+04-9.66949E-10 2.22855E-09
 -1       888 1.04017E+05 1.72158E+04 2.91030E+03 4.24217E+04-5.51125E-10 2.61912E-09
 -1       889 1.04931E+05 2.01431E+04 6.95282E+03 4.36364E+04 9.60991E-10-5.55360E-10
 -1       890 1.02830E+05 1.86252E+04 1.30217E+04 4.13126E+04 3.06454E-09 4.57021E-10
 -1       891-6.07407E+01-5.89080E+04-6.92667E+02 1.12040E+04 8.61576E-10-3.01492E-09
 -1       892-1.06053E+02-5.90771E+04-7.54877E+02 1.69599E+04 3.29578E-10-1.05661E-09
 -1       893-1.27708E+01-5.89321E+04-1.07954E+03 1.12059E+04 5.46379E-10-1.13005E-10
 -1       894-5.81573E+02-5.94983E+04-2.24299E+03 1.69003E+04-2.56932E-10 9.28594E-10
 -1       895-4.52049E+02-5.84707E+04-3.95171E+03 1.12631E+04 9.94959E-10 8.23093E-11
 -1       956-1.30046E+05-1.87614E+03-4.72242E+03 8.59723E+03-3.33785E-10 1.36333E-09
 -1       957-1.30978E+05-6.34391E+02-2.42451E+03 1.03468E+04 9.74978E-10 9.03583E-10
 -1       958-1.30462E+05-5.18660E+01-1.09212E+03 8.54169E+03 9.70249E-09-2.48576E-09
 -1       959-1.30535E+05-1.18949E+01-5.57942E+02 1.04069E+04 1.57698E-08 1.53477E-09
 -1       960-1.30497E+05 1.27672E+01-2.71857E+02 8.53670E+03 7.00084E-09 1.45394E-09
 -1       961-1.30501E+05 1.02664E+01-1.44202E+02 1.04124E+04-2.96711E-09 1.76942E-09
 -1       962-1.30503E+05 9.82316E+00-8.22985E+01 8.53612E+03 2.06114E-10-2.02704E-10
 -1       963-1.30498E+05 1.00602E+01-6.57174E+01 1.04132E+04-7.40329E-10-1.09554E-09
 -1       964-1.30504E+05 1.02465E+01-7.92544E+01 8.53591E+03-4.68503E-10-1.19690E-09
 -1       965-1.30502E+05 1.12604E+01-1.36517E+02 1.04131E+04 8.90907E-10-6.13909E-12
 -1       966-1.30500E+05 1.39884E+01-2.55938E+02 8.53616E+03-1.57934E-09-1.64857E-09
 -1       967-1.30537E+05-8.54074E+00-5.24764E+02 1.04100E+04 2.29647E-10 4.36444E-10
 -1       968-1.30469E+05-4.58028E+01-1.02673E+03 8.53904E+03 6.47219E-10-2.16282E-09
 -1       969-1.30955E+05-5.92921E+02-2.27960E+03 1.03750E+04 6.62226E-10-1.72567E-09
 -1       970-1.30078E+05-1.76040E+03-4.43991E+03 8.57195E+03 1.00090E-09 2.74122E-09
 -1       971-1.23619E+05-6.54508E+02-3.63926E+03 6.10362E+03-2.32080E-09-1.96948E-09
 -1       972-1.24504E+05-4.71621E+02-1.98228E+03 8.51183E+03-9.84187E-10-3.77509E-09
 -1       973-1.24021E+05-5.80532E+00-8.87238E+02 6.05421E+03-1.58502E-09-3.55590E-09
 -1       974-1.24081E+05-8.41869E+00-4.59790E+02 8.56468E+03-6.54268E-10-1.35174E-09
 -1       975-1.24050E+05 9.58029E+00-2.29085E+02 6.05043E+03 9.82254E-10 3.10678E-09
 -1       976-1.24053E+05 9.15876E+00-1.31253E+02 8.56896E+03-7.27596E-11-4.13075E-09
 -1       977-1.24055E+05 8.38864E+00-9.33569E+01 6.04990E+03 8.98126E-10 2.01248E-09
 -1       978-1.24053E+05 1.04135E+01-1.06804E+02 8.56968E+03 4.94879E-09 1.71241E-09
 -1       979-1.24054E+05 1.07574E+01-1.69369E+02 6.04970E+03 2.69580E-09 1.38851E-09
 -1       980-1.24065E+05 1.12272E+01-3.25632E+02 8.56972E+03 3.36070E-09 1.36254E-10
 -1       981-1.24044E+05 1.89364E+01-6.29838E+02 6.04986E+03 1.62743E-09-1.20065E-09
 -1       982-1.24152E+05-3.48484E+01-1.30139E+03 8.56753E+03-6.15330E-10-3.60567E-09
 -1       983-1.23965E+05-2.06715E+01-2.52817E+03 6.05195E+03 1.16552E-09-1.04239E-09
 -1       984-1.25370E+05-1.35395E+03-5.66130E+03 8.53400E+03 7.70683E-10 1.07303E-09
 -1       985-1.22822E+05-1.86985E+03-1.03959E+04 6.08477E+03 2.31285E-09 9.64064E-11
 -3
    1PSTEP                         3           2           1          
  100CL  102 3.12500E-01         409                     0    2           1
 -4  DISP        4    1
 -5  D1          1    2    1    0
 -5  D2          1    2    2    0
 -5  D3          1    2    3    0
 -5  ALL         1    2    0    0    1ALL
 -1         1 8.16617E-05 0.00000E+00 0.00000E+00
 -1         2 7.53872E-05 9.79666E-30 1.65436E-24
 -1         3 6.96183E-05-5.37241E-28 6.61744E-24
 -1         5 5.01572E-05 1.84349E-26-3.30872E-24
 -1         8 6.51884E-05-5.91540E-07 0.00000E+00
 -1         9 6.62398E-05 3.93701E-07 0.00000E+00
 -1        10 6.45239E-05-9.52286E-07 0.00000E+00
 -1        12 4.97945E-05 3.44004E-07 0.00000E+00
 -1        15 4.55884E-05-6.38519E-07-2.06795E-25
 -1        16 4.71601E-05 3.12450E-07 0.00000E+00
 -1        17 4.81091E-05-1.99915E-06 0.00000E+00
 -1        18 4.80633E-05 1.31245E-07 0.00000E+00
 -1        19 4.87222E-05 6.82768E-07 0.00000E+00
 -1        20 4.88116E-05 1.01044E-05 0.00000E+00
 -1        21 4.84747E-05 1.91016E-05-1.65436E-24
 -1        24 1.22977E-05-2.67576E-06 0.00000E+00
 -1        25 4.69295E-05 2.09304E-07 0.00000E+00
 -1        26 4.75499E-05 9.49989E-07 0.00000E+00
 -1        27 4.66082E-05 8.59008E-06 0.00000E+00
 -1        28 4.63039E-05 1.88106E-05 0.00000E+00
 -1        32 0.00000E+00 0.00000E+00 0.00000E+00
 -1        33 4.55650E-05 1.27286E-06 0.00000E+00
 -1        34 4.46545E-05 8.57660E-06 0.00000E+00
 -1        35 4.37893E-05 1.86570E-05 0.00000E+00
 -1        51 8.05900E-05-9.81359E-08 0.00000E+00
 -1        52 7.86039E-05-1.93467E-07 0.00000E+00
 -1        53 7.58834E-05-2.89320E-07 0.00000E+00
 -1        54 7.26156E-05-3.86606E-07 0.00000E+00
 -1        55 6.89879E-05-4.85927E-07-5.37667E-24
 -1        56 8.09129E-05-4.65317E-07 0.00000E+00
 -1        57 8.02460E-05-1.23339E-06-1.32349E-23
 -1        58 7.96616E-05-2.21713E-06 0.00000E+00
 -1        59 7.91232E-05-3.33841E-06 0.00000E+00
 -1        60 7.86033E-05-4.50949E-06 2.64698E-23
 -1        61 7.80686E-05-5.64369E-06 0.00000E+00
 -1        62 7.74880E-05-6.65540E-06 2.64698E-23
 -1        63 7.68304E-05-7.46171E-06 0.00000E+00
 -1        64 7.60677E-05-7.98785E-06 0.00000E+00
 -1        65 7.51742E-05-8.16456E-06 0.00000E+00
 -1        66 7.41289E-05-7.93663E-06 0.00000E+00
 -1        67 7.29145E-05-7.25660E-06-1.32349E-23
 -1        68 7.15193E-05-6.09552E-06 2.64698E-23
 -1        69 6.99397E-05-4.43218E-06 0.00000E+00
 -1        70 6.81698E-05-2.26903E-06 1.32349E-23
 -1        86 7.51464E-05 7.03862E-08 1.65436E-24
 -1        87 7.44232E-05 1.40182E-07 0.00000E+00
 -1        88 7.31991E-05 2.09454E-07 8.27181E-25
 -1        89 7.14537E-05 2.75679E-07 0.00000E+00
 -1        90 6.91477E-05 3.41587E-07 0.00000E+00
 -1       121 6.94764E-05-1.58201E-07 3.30872E-24
 -1       122 6.90507E-05-3.16482E-07 0.00000E+00
 -1       123 6.83416E-05-4.74925E-07-3.30872E-24
 -1       124 6.73501E-05-6.33633E-07 0.00000E+00
 -1       125 6.60770E-05-7.92642E-07 0.00000E+00
 -1       191 5.01472E-05 5.73430E-08-3.30872E-24
 -1       192 5.01169E-05 1.14685E-07 3.30872E-24
 -1       193 5.00664E-05 1.72025E-07-3.30872E-24
 -1       194 4.99958E-05 2.29362E-07 0.00000E+00
 -1       195 4.99051E-05 2.86692E-07-1.65436E-24
 -1       251 6.52400E-05 2.11594E-06-3.30872E-24
 -1       252 6.53059E-05 3.72338E-06-5.16988E-26
 -1       253 6.53720E-05 4.41719E-06-8.27181E-25
 -1       254 6.54405E-05 4.38102E-06 8.27181E-25
 -1       255 6.55090E-05 3.77207E-06 0.00000E+00
 -1       256 6.55777E-05 2.74590E-06 0.00000E+00
 -1       257 6.56460E-05 1.44282E-06 0.00000E+00
 -1       258 6.57143E-05 2.38642E-09 0.00000E+00
 -1       259 6.57826E-05-1.44093E-06-1.65436E-24
 -1       260 6.58509E-05-2.75263E-06 0.00000E+00
 -1       261 6.59195E-05-3.79337E-06 1.65436E-24
 -1       262 6.59880E-05-4.42311E-06-8.27181E-25
 -1       263 6.60565E-05-4.48675E-06 0.00000E+00
 -1       264 6.61226E-05-3.82756E-06 0.00000E+00
 -1       265 6.61884E-05-2.26261E-06 0.00000E+00
 -1       266 6.19218E-05-6.07485E-07 0.00000E+00
 -1       267 5.86551E-05-6.14326E-07 8.27181E-25
 -1       268 5.53884E-05-6.21743E-07 0.00000E+00
 -1       269 5.21217E-05-6.27452E-07-2.06795E-25
 -1       270 4.88551E-05-6.33122E-07 0.00000E+00
 -1       271 6.32034E-05 1.84010E-06-2.64698E-23
 -1       272 6.15197E-05 3.37868E-06 1.32349E-23
 -1       273 6.01309E-05 4.13758E-06 0.00000E+00
 -1       274 5.89887E-05 4.22576E-06 0.00000E+00
 -1       275 5.80521E-05 3.76467E-06 0.00000E+00
 -1       276 5.72730E-05 2.88072E-06 1.32349E-23
 -1       277 5.66025E-05 1.70623E-06 0.00000E+00
 -1       278 5.59898E-05 3.76881E-07 0.00000E+00
 -1       279 5.53834E-05-9.69613E-07-2.64698E-23
 -1       280 5.47320E-05-2.19529E-06 1.32349E-23
 -1       281 5.39844E-05-3.16387E-06 0.00000E+00
 -1       282 5.30913E-05-3.74210E-06-1.32349E-23
 -1       283 5.20040E-05-3.80203E-06 2.64698E-23
 -1       284 5.06797E-05-3.22087E-06-1.32349E-23
 -1       285 4.90709E-05-1.88669E-06 0.00000E+00
 -1       301 6.30076E-05 3.76249E-07 0.00000E+00
 -1       302 5.97767E-05 3.68543E-07 0.00000E+00
 -1       303 5.65619E-05 3.61129E-07 0.00000E+00
 -1       304 5.33777E-05 3.52645E-07-1.65436E-24
 -1       305 5.02389E-05 3.42654E-07 0.00000E+00
 -1       306 6.41931E-05 2.76899E-06 0.00000E+00
 -1       307 6.24601E-05 4.21211E-06 0.00000E+00
 -1       308 6.10705E-05 4.74948E-06 0.00000E+00
 -1       309 5.99998E-05 4.41960E-06 0.00000E+00
 -1       310 5.92056E-05 3.35160E-06-2.64698E-23
 -1       311 5.86301E-05 1.69520E-06-1.32349E-23
 -1       312 5.81964E-05-3.40827E-07 0.00000E+00
 -1       313 5.78219E-05-2.53629E-06 1.32349E-23
 -1       314 5.74187E-05-4.65478E-06 0.00000E+00
 -1       315 5.68997E-05-6.46229E-06 1.32349E-23
 -1       316 5.61888E-05-7.75629E-06 0.00000E+00
 -1       317 5.52171E-05-8.34976E-06 1.32349E-23
 -1       318 5.39388E-05-8.12577E-06 2.64698E-23
 -1       319 5.23251E-05-6.99007E-06 1.32349E-23
 -1       320 5.03654E-05-4.94405E-06 0.00000E+00
 -1       336 6.26553E-05-1.12495E-06 3.30872E-24
 -1       337 6.04355E-05-1.29854E-06 1.65436E-24
 -1       338 5.78673E-05-1.47288E-06-6.61744E-24
 -1       339 5.49541E-05-1.64788E-06 0.00000E+00
 -1       340 5.16999E-05-1.82392E-06 3.30872E-24
 -1       406 4.96644E-05 4.00771E-07-1.65436E-24
 -1       407 4.95150E-05 4.57505E-07 0.00000E+00
 -1       408 4.93460E-05 5.14198E-07 3.30872E-24
 -1       409 4.91576E-05 5.70781E-07 0.00000E+00
 -1       410 4.89495E-05 6.27145E-07 0.00000E+00
 -1       521 4.43439E-05 2.00744E-06-5.29396E-23
 -1       522 4.19358E-05 2.43114E-06 0.00000E+00
 -1       523 3.99838E-05 1.65203E-06 0.00000E+00
 -1       524 3.84307E-05-2.25925E-07-2.64698E-23
 -1       525 3.71867E-05-2.93244E-06 0.00000E+00
 -1       526 3.61334E-05-6.15667E-06 0.00000E+00
 -1       527 3.51287E-05-9.51203E-06 5.29396E-23
 -1       528 3.40261E-05-1.26056E-05 0.00000E+00
 -1       529 3.26934E-05-1.50820E-05-5.29396E-23
 -1       530 3.10102E-05-1.66192E-05 0.00000E+00
 -1       531 2.89053E-05-1.70308E-05 0.00000E+00
 -1       532 2.63319E-05-1.61906E-05 0.00000E+00
 -1       533 2.33071E-05-1.41532E-05-5.29396E-23
 -1       534 1.98848E-05-1.10336E-05 0.00000E+00
 -1       535 1.61532E-05-7.11054E-06 0.00000E+00
 -1       536 4.80962E-05 1.34713E-06 0.00000E+00
 -1       537 4.80907E-05 3.87461E-06-4.13590E-25
 -1       538 4.80863E-05 5.66437E-06-4.13590E-25
 -1       539 4.80839E-05 6.79755E-06 1.03398E-25
 -1       540 4.80819E-05 7.35769E-06-2.06795E-25
 -1       541 4.80803E-05 7.42835E-06 5.16988E-26
 -1       542 4.80786E-05 7.09482E-06 0.00000E+00
 -1       543 4.80768E-05 6.44237E-06 0.00000E+00
 -1       544 4.80749E-05 5.55739E-06 5.16988E-26
 -1       545 4.80729E-05 4.52624E-06 0.00000E+00
 -1       546 4.80708E-05 3.43584E-06 0.00000E+00
 -1       547 4.80688E-05 2.37306E-06 3.23117E-27
 -1       548 4.80669E-05 1.42468E-06 2.58494E-26
 -1       549 4.80653E-05 6.77504E-07 0.00000E+00
 -1       550 4.80638E-05 2.17662E-07 0.00000E+00
 -1       551 4.33591E-05-2.10253E-06-3.30872E-24
 -1       552 3.76773E-05-2.20887E-06-8.27181E-25
 -1       553 3.13948E-05-2.31874E-06-3.30872E-24
 -1       554 2.48473E-05-2.43183E-06-3.30872E-24
 -1       555 1.83705E-05-2.54630E-06 0.00000E+00
 -1       556 4.68649E-05 1.22883E-06 0.00000E+00
 -1       557 4.59143E-05 3.69503E-06 0.00000E+00
 -1       558 4.52254E-05 5.46979E-06 0.00000E+00
 -1       559 4.47690E-05 6.62897E-06 0.00000E+00
 -1       560 4.45159E-05 7.24824E-06 0.00000E+00
 -1       561 4.44371E-05 7.40365E-06 0.00000E+00
 -1       562 4.45038E-05 7.17134E-06 0.00000E+00
 -1       563 4.46873E-05 6.62749E-06 0.00000E+00
 -1       564 4.49589E-05 5.84834E-06 3.30872E-24
 -1       565 4.52900E-05 4.91011E-06 0.00000E+00
 -1       566 4.56521E-05 3.88910E-06-8.27181E-25
 -1       567 4.60167E-05 2.86158E-06 2.06795E-25
 -1       568 4.63552E-05 1.90381E-06 0.00000E+00
 -1       569 4.66390E-05 1.09198E-06 0.00000E+00
 -1       570 4.68398E-05 5.02311E-07 0.00000E+00
 -1       571 4.81033E-05 1.91792E-07-6.20385E-25
 -1       572 4.81442E-05 2.25133E-07-1.03398E-25
 -1       573 4.81853E-05 2.36113E-07 4.13590E-25
 -1       574 4.82266E-05 2.29831E-07 4.13590E-25
 -1       575 4.82679E-05 2.11412E-07 1.65436E-24
 -1       576 4.83092E-05 1.86013E-07-4.13590E-25
 -1       577 4.83505E-05 1.58794E-07 0.00000E+00
 -1       578 4.83918E-05 1.34920E-07-2.48154E-24
 -1       579 4.84331E-05 1.19555E-07 1.65436E-24
 -1       580 4.84745E-05 1.17866E-07 8.27181E-25
 -1       581 4.85158E-05 1.35016E-07 1.65436E-24
 -1       582 4.85571E-05 1.76164E-07 0.00000E+00
 -1       583 4.85984E-05 2.46464E-07-3.30872E-24
 -1       584 4.86397E-05 3.51016E-07 0.00000E+00
 -1       585 4.86810E-05 4.94891E-07 0.00000E+00
 -1       586 4.78603E-05 1.45069E-07 0.00000E+00
 -1       587 4.76398E-05 1.58543E-07-2.06795E-25
 -1       588 4.74190E-05 1.71867E-07 0.00000E+00
 -1       589 4.72155E-05 1.84979E-07 0.00000E+00
 -1       590 4.70467E-05 1.97734E-07 0.00000E+00
 -1       591 4.80215E-05 2.12762E-07-1.03398E-25
 -1       592 4.79865E-05 2.71779E-07 0.00000E+00
 -1       593 4.79582E-05 3.12579E-07 4.13590E-25
 -1       594 4.79351E-05 3.39018E-07-2.06795E-25
 -1       595 4.79159E-05 3.55003E-07 0.00000E+00
 -1       596 4.78991E-05 3.64414E-07 2.06795E-25
 -1       597 4.78833E-05 3.71127E-07 0.00000E+00
 -1       598 4.78671E-05 3.79017E-07 2.06795E-25
 -1       599 4.78489E-05 3.91956E-07-4.13590E-25
 -1       600 4.78275E-05 4.13818E-07-1.03398E-25
 -1       601 4.78012E-05 4.48477E-07 0.00000E+00
 -1       602 4.77687E-05 4.99810E-07 1.03398E-25
 -1       603 4.77286E-05 5.71694E-07 0.00000E+00
 -1       604 4.76795E-05 6.68040E-07 0.00000E+00
 -1       605 4.76199E-05 7.92703E-07 0.00000E+00
 -1       606 4.87298E-05 9.64627E-07 1.65436E-24
 -1       607 4.87360E-05 1.30544E-06 0.00000E+00
 -1       608 4.87418E-05 1.70175E-06 0.00000E+00
 -1       609 4.87474E-05 2.14966E-06 0.00000E+00
 -1       610 4.87530E-05 2.64523E-06 0.00000E+00
 -1       611 4.87584E-05 3.18451E-06 0.00000E+00
 -1       612 4.87639E-05 3.76349E-06-1.65436E-24
 -1       613 4.87693E-05 4.37822E-06 0.00000E+00
 -1       614 4.87747E-05 5.02470E-06 0.00000E+00
 -1       615 4.87800E-05 5.69893E-06 0.00000E+00
 -1       616 4.87854E-05 6.39696E-06 0.00000E+00
 -1       617 4.87907E-05 7.11478E-06 0.00000E+00
 -1       618 4.87960E-05 7.84841E-06-4.13590E-25
 -1       619 4.88013E-05 8.59388E-06 0.00000E+00
 -1       620 4.88065E-05 9.34719E-06 2.06795E-25
 -1       621 4.84982E-05 7.27335E-07-8.27181E-25
 -1       622 4.82902E-05 7.72120E-07 0.00000E+00
 -1       623 4.80948E-05 8.16898E-07 0.00000E+00
 -1       624 4.79085E-05 8.61606E-07-4.13590E-25
 -1       625 4.77280E-05 9.06236E-07 8.27181E-25
 -1       626 4.86642E-05 9.78645E-07 0.00000E+00
 -1       627 4.85882E-05 1.32334E-06 0.00000E+00
 -1       628 4.84957E-05 1.71233E-06 0.00000E+00
 -1       629 4.83884E-05 2.14078E-06 1.65436E-24
 -1       630 4.82682E-05 2.60385E-06 3.30872E-24
 -1       631 4.81367E-05 3.09669E-06-8.27181E-25
 -1       632 4.79960E-05 3.61441E-06 0.00000E+00
 -1       633 4.78477E-05 4.15215E-06-8.27181E-25
 -1       634 4.76937E-05 4.70503E-06-1.65436E-24
 -1       635 4.75359E-05 5.26819E-06-8.27181E-25
 -1       636 4.73760E-05 5.83676E-06 0.00000E+00
 -1       637 4.72159E-05 6.40586E-06 8.27181E-25
 -1       638 4.70574E-05 6.97062E-06 8.27181E-25
 -1       639 4.69022E-05 7.52617E-06-4.13590E-25
 -1       640 4.67521E-05 8.06764E-06 8.27181E-25
 -1       656 4.81824E-05 9.85801E-06 0.00000E+00
 -1       657 4.77752E-05 9.60178E-06-3.30872E-24
 -1       658 4.75040E-05 9.34635E-06 0.00000E+00
 -1       659 4.72815E-05 9.09112E-06-3.30872E-24
 -1       660 4.70139E-05 8.83509E-06 0.00000E+00
 -1       661 4.85788E-05 1.08464E-05 0.00000E+00
 -1       662 4.83598E-05 1.15569E-05 4.13590E-25
 -1       663 4.81523E-05 1.22365E-05 0.00000E+00
 -1       664 4.79561E-05 1.28867E-05 0.00000E+00
 -1       665 4.77706E-05 1.35088E-05 1.65436E-24
 -1       666 4.75952E-05 1.41038E-05 0.00000E+00
 -1       667 4.74296E-05 1.46730E-05 0.00000E+00
 -1       668 4.72732E-05 1.52175E-05 0.00000E+00
 -1       669 4.71257E-05 1.57385E-05 0.00000E+00
 -1       670 4.69866E-05 1.62370E-05 0.00000E+00
 -1       671 4.68556E-05 1.67141E-05 1.65436E-24
 -1       672 4.67321E-05 1.71707E-05 0.00000E+00
 -1       673 4.66160E-05 1.76078E-05 0.00000E+00
 -1       674 4.65063E-05 1.80263E-05 4.13590E-25
 -1       675 4.64033E-05 1.84273E-05-4.13590E-25
 -1       676 4.81123E-05 1.90528E-05-1.65436E-24
 -1       677 4.77500E-05 1.90040E-05-8.27181E-25
 -1       678 4.73879E-05 1.89553E-05 0.00000E+00
 -1       679 4.70262E-05 1.89067E-05 0.00000E+00
 -1       680 4.66648E-05 1.88581E-05 0.00000E+00
 -1       771 9.85638E-06 1.94434E-06 0.00000E+00
 -1       772 7.72900E-06 5.72012E-06 0.00000E+00
 -1       773 5.90226E-06 8.70125E-06 0.00000E+00
 -1       774 4.35566E-06 1.09398E-05 0.00000E+00
 -1       775 3.06916E-06 1.24887E-05 0.00000E+00
 -1       776 2.02199E-06 1.34019E-05 0.00000E+00
 -1       777 1.19317E-06 1.37343E-05 2.64698E-23
 -1       778 5.61431E-07 1.35416E-05 0.00000E+00
 -1       779 1.05357E-07 1.28804E-05 0.00000E+00
 -1       780-1.96719E-07 1.18078E-05 0.00000E+00
 -1       781-3.66521E-07 1.03816E-05-2.64698E-23
 -1       782-4.25976E-07 8.66007E-06 0.00000E+00
 -1       783-3.97045E-07 6.70190E-06 0.00000E+00
 -1       784-3.01781E-07 4.56622E-06 1.32349E-23
 -1       785-1.62315E-07 2.31232E-06 0.00000E+00
 -1       786 4.69660E-05 2.08574E-07-4.13590E-25
 -1       787 4.70047E-05 2.09228E-07 0.00000E+00
 -1       788 4.70432E-05 2.11773E-07 0.00000E+00
 -1       789 4.70822E-05 2.16719E-07 0.00000E+00
 -1       790 4.71211E-05 2.24792E-07 0.00000E+00
 -1       791 4.71602E-05 2.36719E-07-4.13590E-25
 -1       792 4.71992E-05 2.53573E-07 0.00000E+00
 -1       793 4.72383E-05 2.76433E-07 0.00000E+00
 -1       794 4.72774E-05 3.06913E-07-1.65436E-24
 -1       795 4.73165E-05 3.46637E-07 0.00000E+00
 -1       796 4.73555E-05 3.98053E-07 8.27181E-25
 -1       797 4.73946E-05 4.63627E-07 0.00000E+00
 -1       798 4.74336E-05 5.47081E-07-8.27181E-25
 -1       799 4.74725E-05 6.52170E-07 0.00000E+00
 -1       800 4.75115E-05 7.84566E-07 0.00000E+00
 -1       801 4.37599E-05 2.12730E-07-4.13590E-25
 -1       802 3.43294E-05 1.78393E-07 0.00000E+00
 -1       803 2.19395E-05 1.14512E-07-1.65436E-24
 -1       804 9.89054E-06 5.01474E-08 0.00000E+00
 -1       805 1.47759E-06 2.09482E-08-6.61744E-24
 -1       806 4.68817E-05 1.82047E-07 8.27181E-25
 -1       807 4.68318E-05 1.55001E-07-8.27181E-25
 -1       808 4.67804E-05 1.31202E-07 0.00000E+00
 -1       809 4.67266E-05 1.13222E-07 8.27181E-25
 -1       810 4.66695E-05 1.03627E-07-1.65436E-24
 -1       811 4.66084E-05 1.04948E-07 0.00000E+00
 -1       812 4.65422E-05 1.19711E-07-1.65436E-24
 -1       813 4.64699E-05 1.50436E-07-8.27181E-25
 -1       814 4.63908E-05 1.99644E-07 1.65436E-24
 -1       815 4.63038E-05 2.69853E-07 8.27181E-25
 -1       816 4.62079E-05 3.63578E-07 0.00000E+00
 -1       817 4.61023E-05 4.83336E-07-8.27181E-25
 -1       818 4.59861E-05 6.31643E-07 8.27181E-25
 -1       819 4.58582E-05 8.11004E-07 8.27181E-25
 -1       820 4.57179E-05 1.02393E-06 8.27181E-25
 -1       821 4.74944E-05 1.14775E-06-4.13590E-25
 -1       822 4.74355E-05 1.37736E-06-4.13590E-25
 -1       823 4.73768E-05 1.64920E-06 0.00000E+00
 -1       824 4.73175E-05 1.97354E-06 0.00000E+00
 -1       825 4.72581E-05 2.35407E-06 0.00000E+00
 -1       826 4.71986E-05 2.79432E-06 0.00000E+00
 -1       827 4.71390E-05 3.29031E-06 0.00000E+00
 -1       828 4.70794E-05 3.83790E-06 0.00000E+00
 -1       829 4.70197E-05 4.42648E-06 0.00000E+00
 -1       830 4.69601E-05 5.04531E-06 0.00000E+00
 -1       831 4.69004E-05 5.67986E-06-1.65436E-24
 -1       832 4.68409E-05 6.31557E-06 0.00000E+00
 -1       833 4.67815E-05 6.93770E-06 0.00000E+00
 -1       834 4.67227E-05 7.53157E-06-4.13590E-25
 -1       835 4.66637E-05 8.08604E-06-4.13590E-25
 -1       836 4.73092E-05 1.00373E-06 1.65436E-24
 -1       837 4.69975E-05 1.05867E-06 0.00000E+00
 -1       838 4.66410E-05 1.11351E-06 3.30872E-24
 -1       839 4.62660E-05 1.16800E-06 0.00000E+00
 -1       840 4.58986E-05 1.22240E-06 2.06795E-25
 -1       856 4.65913E-05 9.10353E-06 0.00000E+00
 -1       857 4.65725E-05 9.68184E-06 1.03398E-25
 -1       858 4.65537E-05 1.03148E-05 4.13590E-25
 -1       859 4.65346E-05 1.09920E-05 0.00000E+00
 -1       860 4.65155E-05 1.17033E-05 0.00000E+00
 -1       861 4.64963E-05 1.24382E-05 0.00000E+00
 -1       862 4.64770E-05 1.31864E-05 0.00000E+00
 -1       863 4.64577E-05 1.39376E-05 0.00000E+00
 -1       864 4.64385E-05 1.46813E-05 4.13590E-25
 -1       865 4.64192E-05 1.54072E-05 0.00000E+00
 -1       866 4.64000E-05 1.61049E-05-4.13590E-25
 -1       867 4.63808E-05 1.67642E-05 4.13590E-25
 -1       868 4.63616E-05 1.73746E-05 8.27181E-25
 -1       869 4.63424E-05 1.79260E-05-4.13590E-25
 -1       870 4.63232E-05 1.84080E-05 8.27181E-25
 -1       871 4.62166E-05 8.58959E-06 2.06795E-25
 -1       872 4.58873E-05 8.58781E-06 0.00000E+00
 -1       873 4.55935E-05 8.58580E-06-2.06795E-25
 -1       874 4.53082E-05 8.58347E-06-1.03398E-25
 -1       875 4.50041E-05 8.58085E-06-4.13590E-25
 -1       876 4.64723E-05 9.10887E-06 0.00000E+00
 -1       877 4.63259E-05 9.65922E-06 8.27181E-25
 -1       878 4.61692E-05 1.02373E-05 0.00000E+00
 -1       879 4.60035E-05 1.08396E-05 0.00000E+00
 -1       880 4.58302E-05 1.14624E-05-1.65436E-24
 -1       881 4.56505E-05 1.21023E-05 0.00000E+00
 -1       882 4.54657E-05 1.27558E-05-1.65436E-24
 -1       883 4.52771E-05 1.34191E-05 0.00000E+00
 -1       884 4.50862E-05 1.40889E-05 0.00000E+00
 -1       885 4.48942E-05 1.47615E-05 8.27181E-25
 -1       886 4.47024E-05 1.54334E-05-1.65436E-24
 -1       887 4.45122E-05 1.61011E-05 8.27181E-25
 -1       888 4.43248E-05 1.67610E-05 1.65436E-24
 -1       889 4.41413E-05 1.74094E-05-4.13590E-25
 -1       890 4.39632E-05 1.80429E-05 8.27181E-25
 -1       891 4.59555E-05 1.87849E-05 8.27181E-25
 -1       892 4.55960E-05 1.87591E-05 4.13590E-25
 -1       893 4.52124E-05 1.87333E-05 0.00000E+00
 -1       894 4.47919E-05 1.87076E-05 2.06795E-25
 -1       895 4.43218E-05 1.86819E-05-1.03398E-25
 -1       956 4.55091E-05 1.59537E-06-8.27181E-25
 -1       957 4.54523E-05 1.95438E-06 0.00000E+00
 -1       958 4.53954E-05 2.34608E-06 8.27181E-25
 -1       959 4.53384E-05 2.76646E-06 8.27181E-25
 -1       960 4.52813E-05 3.21151E-06 0.00000E+00
 -1       961 4.52242E-05 3.67717E-06 0.00000E+00
 -1       962 4.51670E-05 4.15939E-06 0.00000E+00
 -1       963 4.51099E-05 4.65412E-06 0.00000E+00
 -1       964 4.50527E-05 5.15732E-06 1.65436E-24
 -1       965 4.49956E-05 5.66493E-06 0.00000E+00
 -1       966 4.49385E-05 6.17290E-06 0.00000E+00
 -1       967 4.48814E-05 6.67717E-06-8.27181E-25
 -1       968 4.48243E-05 7.17370E-06 1.65436E-24
 -1       969 4.47673E-05 7.65845E-06-8.27181E-25
 -1       970 4.47105E-05 8.12739E-06-1.65436E-24
 -1       971 4.46011E-05 9.03805E-06 8.27181E-25
 -1       972 4.45470E-05 9.54766E-06 4.13590E-25
 -1       973 4.44927E-05 1.01001E-05 1.65436E-24
 -1       974 4.44384E-05 1.06898E-05 8.27181E-25
 -1       975 4.43840E-05 1.13113E-05 0.00000E+00
 -1       976 4.43297E-05 1.19590E-05-8.27181E-25
 -1       977 4.42752E-05 1.26274E-05 0.00000E+00
 -1       978 4.42208E-05 1.33109E-05 0.00000E+00
 -1       979 4.41664E-05 1.40039E-05 0.00000E+00
 -1       980 4.41120E-05 1.47010E-05 8.27181E-25
 -1       981 4.40576E-05 1.53965E-05-1.65436E-24
 -1       982 4.40032E-05 1.60850E-05-8.27181E-25
 -1       983 4.39489E-05 1.67608E-05 0.00000E+00
 -1       984 4.38949E-05 1.74184E-05-1.65436E-24
 -1       985 4.38411E-05 1.80523E-05 0.00000E+00
 -3
    1PSTEP                         4           2           1          
  100CL  102 3.12500E-01         409                     0    2           1
 -4  STRESS      6    1
 -5  SXX         1    4    1    1
 -5  SYY         1    4    2    2
 -5  SZZ         1    4    3    3
 -5  SXY         1    4    1    2
 -5  SYZ         1    4    2    3
 -5  SZX         1    4    3    1
 -1         1-1.07899E+06-4.96992E+05-2.19389E+05-6.97923E+05 1.30967E-10 5.67525E-10
 -1         2 1.81006E+03 2.03776E+05 5.90839E+03 4.17712E+02-1.04421E-10-1.77184E-09
 -1         3-3.09495E+01-4.52149E+05 1.04487E+02-1.03272E+02-1.16993E-10-1.45519E-11
 -1         5-3.22632E+00 1.64070E+05 8.88649E+00-1.69446E+00 1.41705E-10-1.09549E-08
 -1         8-5.08084E+05-2.21440E+05-1.71940E+04-3.85562E+05 1.56433E-10 2.06273E-09
 -1         9-8.72209E+05-2.25767E+05-8.63402E+04-3.01506E+05 2.20462E-09 2.40107E-09
 -1        10-3.43471E+02-4.71046E+05-6.01996E+02-6.89835E+02-2.10548E-09 8.90523E-09
 -1        12 4.01356E-03 1.63258E+05 1.39060E+02-9.58038E-01-5.91172E-12 2.05372E-09
 -1        15 1.34460E+03 7.38930E+02 4.34641E+03 1.89942E+00-2.14709E-09-6.57727E-07
 -1        16-2.45637E+06-7.89955E+05-3.81895E+05-8.02955E+05 7.54759E-09-4.93795E-09
 -1        17-5.41594E+05-3.34189E+05-1.04203E+05-3.15215E+05-3.74712E-09 3.29310E-09
 -1        18 1.92934E+04 1.80477E+03-7.65107E+03-3.82417E+04 4.75325E-10-8.60609E-10
 -1        19 5.08997E+04 6.06986E+04-2.82408E+02 9.97108E+03-3.92174E-10-2.72084E-09
 -1        20-2.11353E+04-2.40580E+05-5.30499E+04 1.78706E+04 2.11170E-09-1.63921E-09
 -1        21-2.27731E+01-1.39534E+05-4.50685E+02-3.46844E+01-5.45099E-09 2.39219E-09
 -1        24-2.15775E+06-7.49247E+05-3.07973E+05-9.13416E+05-1.03355E-08-4.36072E-09
 -1        25 1.91376E+04-2.15114E+03 1.14498E+04-6.90635E+04 2.50975E-10 4.06108E-09
 -1        26-1.17925E+04 4.14795E+04-8.23054E+03-5.92304E+03 1.02009E-09-6.99481E-10
 -1        27-3.85158E+04-1.32007E+05-4.95212E+04 2.97482E+04 3.62146E-09 7.45028E-10
 -1        28 1.07837E+04-3.85471E+04 7.87702E+03 1.23627E+04 2.45778E-09 3.01210E-10
 -1        32-5.14382E+05-7.44975E+04 2.22604E+05-3.46928E+05-1.02082E-08 1.01918E-08
 -1        33-7.55046E+04 3.88328E+04 1.37660E+04-2.25435E+04 8.12368E-10 4.42621E-10
 -1        34-9.80251E+04-9.75739E+03 2.31911E+02 3.01423E+04 2.34237E-09-1.18537E-10
 -1        35-1.09715E+04-1.53307E+04-5.98111E+02 2.43023E+04 3.08174E-09-2.15672E-09
 -1        51 9.89760E+03-2.54344E+05 2.43960E+04-6.29737E+05 1.89175E-10 4.24188E-09
 -1        52 5.22752E+03-2.52396E+05 1.61620E+04-7.34473E+05 6.14818E-10-1.09867E-09
 -1        53 3.43631E+03-2.59020E+05 1.41183E+04-6.27591E+05 5.85715E-10-1.38971E-09
 -1        54 1.07530E+04-2.56918E+05 2.28850E+04-7.36749E+05 1.09139E-10-4.70754E-09
 -1        55 2.35487E+04-2.65322E+05 4.11775E+04-6.27304E+05 4.58385E-10 3.58341E-09
 -1        56-2.07237E+06-2.34245E+05-1.61935E+05-7.99206E+05 1.20053E-10 1.52795E-10
 -1        57-2.13743E+06-3.80673E+05-1.09142E+05-7.92956E+05-9.87711E-10 1.69166E-09
 -1        58-2.10477E+06-2.85652E+05-3.81196E+04-7.89210E+05-5.40240E-10 3.61979E-10
 -1        59-2.09994E+06-3.20415E+05-2.27564E+04-8.04972E+05 2.28056E-10 6.51880E-10
 -1        60-2.10955E+06-2.92774E+05-8.90882E+03-7.87810E+05-7.09633E-10-5.98720E-09
 -1        61-2.09489E+06-3.11595E+05-5.06610E+03-8.06041E+05 1.65346E-09-4.48682E-09
 -1        62-2.10976E+06-2.94255E+05-2.44242E+03-7.88207E+05-2.62958E-10 2.27760E-09
 -1        63-2.09567E+06-3.09017E+05-2.00820E+03-8.04391E+05-1.02273E-09 4.26314E-09
 -1        64-2.10872E+06-2.95352E+05-2.31027E+03-7.89440E+05-3.45608E-10-2.42233E-09
 -1        65-2.09881E+06-3.07313E+05-4.62117E+03-8.01194E+05 1.27216E-10-4.80111E-09
 -1        66-2.10658E+06-2.96013E+05-8.13701E+03-7.91360E+05-7.27596E-11 1.06320E-09
 -1        67-2.10699E+06-3.11649E+05-2.06446E+04-7.95978E+05-7.35554E-11-3.61115E-09
 -1        68-2.10056E+06-2.91242E+05-3.46588E+04-7.94562E+05 7.79892E-10-1.22236E-09
 -1        69-2.14398E+06-3.63450E+05-9.90983E+04-7.81760E+05 3.41515E-10-1.52068E-09
 -1        70-2.06989E+06-2.45774E+05-1.47109E+05-8.05022E+05-2.89219E-10-2.52476E-09
 -1        86-9.07652E+02 2.01966E+05 6.33206E+03-2.08868E+02 8.06494E-10 8.05414E-10
 -1        87 6.02449E+03 2.05834E+05 1.32082E+04 8.58123E+02 1.34969E-09 1.87826E-09
 -1        88-5.11008E+03 1.99909E+05 2.02240E+04-6.49282E+02 2.02090E-09 1.47242E-09
 -1        89 3.80829E+04 2.20776E+05 5.45376E+04 1.84415E+03 3.04954E-09-5.56270E-10
 -1        90-3.28621E+04 1.87033E+05 7.70407E+04-1.19463E+03 3.46336E-09-6.04132E-10
 -1       121-5.42343E+01-4.52320E+05 9.90341E+01 5.15972E+01 2.32649E-10 2.59388E-09
 -1       122 3.40822E+00-4.52126E+05 2.28224E+02-2.06668E+02-8.34479E-10 2.00544E-10
 -1       123-7.91660E+01-4.52345E+05 3.69515E+02 1.54842E+02 6.66091E-10-5.38785E-09
 -1       124 4.24322E+02-4.51867E+05 9.57443E+02-4.92386E+02-1.67881E-09-7.15909E-09
 -1       125-3.52774E+02-4.52583E+05 1.46837E+03 3.37304E+02 1.11754E-09-3.45972E-09
 -1       191-3.44735E+00 1.64084E+05 1.07635E+01 8.46932E-01-7.35412E-11-1.49930E-09
 -1       192-2.13522E+00 1.64071E+05 1.92779E+01-7.75827E+00-9.33866E-11 4.92946E-10
 -1       193 1.98831E-01 1.64083E+05 3.63392E+01 6.91003E+00-2.76145E-10 8.31278E-10
 -1       194 1.56350E+01 1.64079E+05 7.76228E+01-6.04048E+01-2.38174E-10-5.04406E-09
 -1       195 5.26533E+01 1.64076E+05 1.55234E+02 5.35047E+01-4.44743E-10-3.18778E-09
 -1       251 1.82966E+05-3.18900E+04 7.45064E+04 2.93173E+03 1.84400E-10 1.57888E-09
 -1       252 2.16645E+05 3.69039E+04 5.28172E+04-9.77049E+03-3.07637E-10 3.80351E-09
 -1       253 1.95745E+05-4.93829E+03 1.92854E+04 2.08696E+03-9.40190E-10-3.91719E-09
 -1       254 2.01613E+05 5.70711E+03 1.21799E+04-8.43454E+03-2.83080E-11-1.05231E-08
 -1       255 1.97945E+05-7.63067E+02 4.98306E+03 1.59594E+03 2.47269E-12 3.18573E-09
 -1       256 1.98988E+05 9.05152E+02 3.02750E+03-7.70869E+03 2.57728E-10 3.76991E-09
 -1       257 1.98346E+05-1.33581E+02 1.55906E+03 1.36108E+03-5.60192E-11-3.14679E-09
 -1       258 1.98581E+05 2.81980E+02 1.38205E+03-7.47130E+03-1.85916E-10-4.41570E-09
 -1       259 1.98345E+05-1.36254E+02 1.58434E+03 1.35856E+03-1.72264E-10 2.34547E-09
 -1       260 1.98997E+05 9.28608E+02 3.09932E+03-7.69918E+03 5.03846E-11-2.36491E-09
 -1       261 1.97936E+05-7.83566E+02 5.11443E+03 1.58895E+03 9.00116E-10-1.02091E-10
 -1       262 2.01682E+05 5.86178E+03 1.25039E+04-8.41396E+03 4.36572E-10-1.29944E-09
 -1       263 1.95684E+05-5.07149E+03 1.98083E+04 2.07336E+03 1.25453E-10 4.77303E-09
 -1       264 2.17098E+05 3.79014E+04 5.42369E+04-9.73734E+03-1.11413E-09 1.87629E-09
 -1       265 1.82573E+05-3.27495E+04 7.65272E+04 2.91216E+03-7.05882E-10 5.51881E-09
 -1       266-2.43417E+04-1.13822E+04 5.71125E+04-4.06418E+01-3.28146E-09-1.04963E-06
 -1       267 2.82188E+04 1.32661E+04 4.03663E+04 4.68925E+01-6.38420E-09-2.07582E-06
 -1       268-3.78409E+03-1.87886E+03 1.50040E+04-5.97492E+00-5.11955E-09-1.66517E-06
 -1       269 4.46790E+03 2.24859E+03 9.75234E+03 6.95989E+00-3.88900E-09-1.25179E-06
 -1       270-6.70638E+02-3.69461E+02 4.70759E+03-9.44504E-01-2.92823E-09-9.23413E-07
 -1       271-2.39225E+06-2.97895E+05-1.84090E+05-9.31212E+05-2.78305E-10-6.22822E-09
 -1       272-2.44324E+06-4.47274E+05-1.18357E+05-9.46915E+05 7.94330E-10 2.50839E-09
 -1       273-2.42724E+06-3.43384E+05-4.34834E+04-9.22638E+05-8.85393E-10-7.73070E-10
 -1       274-2.40241E+06-3.91492E+05-2.43457E+04-9.60113E+05 6.58474E-10-1.01954E-09
 -1       275-2.43263E+06-3.47508E+05-1.01147E+04-9.20541E+05-6.89852E-10 2.05273E-09
 -1       276-2.39605E+06-3.86652E+05-5.37820E+03-9.63499E+05-4.07454E-10 1.47747E-09
 -1       277-2.43384E+06-3.47406E+05-2.63043E+03-9.19718E+05-6.00721E-10 5.67411E-09
 -1       278-2.39490E+06-3.86637E+05-1.91343E+03-9.64484E+05-1.64249E-10 8.56801E-10
 -1       279-2.43391E+06-3.47387E+05-2.05294E+03-9.19670E+05 3.37991E-10-6.53426E-09
 -1       280-2.39569E+06-3.86528E+05-3.76155E+03-9.63727E+05-2.52385E-11-4.38195E-09
 -1       281-2.43294E+06-3.47616E+05-6.88117E+03-9.20386E+05-2.86491E-11-4.54293E-10
 -1       282-2.40039E+06-3.89298E+05-1.64288E+04-9.60818E+05-1.97360E-10-3.27145E-09
 -1       283-2.42895E+06-3.45228E+05-2.93325E+04-9.22199E+05 1.30058E-10-3.85990E-09
 -1       284-2.42867E+06-4.25978E+05-7.97334E+04-9.50788E+05 1.51886E-10 5.58430E-10
 -1       285-2.40482E+06-3.15193E+05-1.24110E+05-9.28606E+05 1.03319E-09-1.93540E-09
 -1       301 9.18188E+03-5.60939E+03 7.16407E+04-1.76311E+04-3.67436E-10 2.53448E-09
 -1       302 9.86583E+03 1.25709E+04 5.17644E+04-2.59445E+04 1.28352E-09 3.76508E-09
 -1       303 4.32850E+02 8.20417E+02 4.77002E+04-1.76684E+04-5.30235E-10 3.53793E-10
 -1       304 1.86411E+04 2.06655E+04 8.02919E+04-2.58732E+04 9.75888E-10-2.44495E-09
 -1       305 1.84749E+04-1.36568E+04 1.34771E+05-1.76549E+04-3.49246E-10-5.95264E-10
 -1       306-2.57456E+06-2.96259E+05-1.96293E+05-1.00433E+06 1.61162E-09-7.24685E-09
 -1       307-2.67216E+06-4.65735E+05-1.33843E+05-9.74406E+05 2.22008E-09-8.84756E-09
 -1       308-2.61918E+06-3.57209E+05-4.61855E+04-9.85873E+05 1.84809E-09-2.80852E-09
 -1       309-2.61702E+06-3.98328E+05-2.79777E+04-1.00018E+06 3.93356E-10 3.73029E-09
 -1       310-2.62948E+06-3.62467E+05-1.08393E+04-9.78990E+05-1.54975E-09-1.45656E-09
 -1       311-2.60372E+06-3.93750E+05-6.28344E+03-1.01010E+06 3.54842E-09 3.27714E-09
 -1       312-2.63254E+06-3.61540E+05-3.07214E+03-9.76088E+05 1.58735E-10 2.54829E-09
 -1       313-2.60115E+06-3.94181E+05-2.76989E+03-1.01249E+06-1.42546E-09 7.75168E-09
 -1       314-2.63209E+06-3.61988E+05-3.33081E+03-9.76637E+05 9.89644E-11-5.38580E-09
 -1       315-2.60552E+06-3.92259E+05-7.01928E+03-1.00800E+06-1.34349E-09-1.93506E-09
 -1       316-2.62810E+06-3.63540E+05-1.22463E+04-9.80508E+05 1.45889E-09-3.91083E-11
 -1       317-2.62106E+06-3.97045E+05-3.16535E+04-9.96342E+05-7.48315E-10-4.96584E-10
 -1       318-2.61649E+06-3.57469E+05-5.22724E+04-9.88157E+05-3.64480E-09 5.11864E-09
 -1       319-2.68286E+06-4.74149E+05-1.51543E+05-9.68151E+05-1.57752E-09-3.05590E-09
 -1       320-2.56659E+06-2.87757E+05-2.22170E+05-1.00824E+06 5.42423E-09-1.71713E-09
 -1       336 3.54622E+02-4.89666E+05-2.60556E+03 3.52089E+02-4.36239E-09-8.64020E-11
 -1       337-9.39021E+02-4.90388E+05-2.85450E+03-9.49583E+02-7.97286E-09 9.73341E-09
 -1       338 2.33490E+02-4.89742E+05-3.59310E+03 5.95975E+02-5.68809E-09 4.61387E-09
 -1       339-3.71513E+03-4.92089E+05-7.86799E+03-1.43298E+03-1.03801E-08 4.05271E-09
 -1       340 2.52843E+03-4.87984E+05-1.21222E+04 8.32710E+02-6.94490E-09 6.03086E-09
 -1       406-5.00643E+01 1.62441E+05 1.84752E+02-5.25302E+01 2.58751E-10-6.14068E-09
 -1       407 7.28784E+01 1.62479E+05 5.35913E+02 5.34355E+01 1.00044E-11 1.05661E-09
 -1       408 2.91484E+02 1.62394E+05 1.13696E+03-8.35401E-01 4.31271E-10-2.04636E-11
 -1       409 1.24673E+03 1.62854E+05 2.59299E+03-4.96996E+01-1.59162E-11-1.98179E-09
 -1       410 3.58900E+03 1.62065E+05 5.30842E+03 5.19480E+01 4.22915E-10 1.60640E-09
 -1       521-4.86018E+06-5.61446E+05-3.63961E+05-1.89074E+06 4.72210E-09-6.24277E-09
 -1       522-5.03622E+06-8.74631E+05-2.47313E+05-1.84077E+06-1.55433E-09-5.09681E-09
 -1       523-4.94485E+06-6.70366E+05-8.55737E+04-1.85416E+06 7.46695E-10-3.99086E-09
 -1       524-4.93177E+06-7.54066E+05-5.15773E+04-1.89146E+06 7.07814E-10 2.72757E-09
 -1       525-4.96402E+06-6.79174E+05-1.99758E+04-1.84103E+06 2.75236E-10 7.98536E-10
 -1       526-4.90977E+06-7.43605E+05-1.15130E+04-1.90684E+06 2.13646E-10 3.25190E-09
 -1       527-4.96692E+06-6.80284E+05-5.52737E+03-1.83904E+06 2.97553E-09-1.76919E-09
 -1       528-4.91289E+06-7.35952E+05-4.69417E+03-1.90118E+06-5.86169E-10 1.65136E-09
 -1       529-4.96073E+06-6.86880E+05-5.61359E+03-1.84659E+06 1.43677E-09 2.65118E-10
 -1       530-4.93198E+06-7.20166E+05-1.12553E+04-1.87933E+06 6.57565E-10 3.28328E-10
 -1       531-4.94752E+06-6.96346E+05-2.00064E+04-1.86064E+06-5.21823E-10 7.22139E-10
 -1       532-4.96889E+06-7.15965E+05-5.10880E+04-1.84777E+06-1.46539E-09-6.44286E-09
 -1       533-4.92395E+06-6.91488E+05-8.49229E+04-1.87804E+06 1.89175E-10-4.58385E-09
 -1       534-5.07419E+06-8.35512E+05-2.45580E+05-1.79833E+06 5.06589E-10 2.29920E-09
 -1       535-4.84343E+06-5.79208E+05-3.61035E+05-1.90953E+06-6.59202E-09 6.06815E-09
 -1       536-1.09997E+04-1.36047E+04 3.13373E+04 2.99952E+02-7.63833E-10 4.43470E-09
 -1       537 3.50613E+03 1.57415E+04 2.23273E+04-1.20711E+03-4.87557E-09-1.87833E-09
 -1       538-5.62681E+03-2.13217E+03 8.08333E+03 2.84076E+02 2.80465E-10 8.70841E-10
 -1       539-2.83268E+03 2.46128E+03 5.16139E+03-1.20032E+03 2.01996E-09 4.46727E-09
 -1       540-4.66770E+03-3.31809E+02 2.04095E+03 2.93164E+02 6.37520E-10 4.52417E-09
 -1       541-4.00853E+03 3.79561E+02 1.21925E+03-1.21739E+03 2.64762E-10 6.13424E-09
 -1       542-4.45510E+03-4.91148E+01 4.89123E+02 3.01140E+02 2.60762E-10-4.58414E-09
 -1       543-4.29189E+03 4.69838E+01 2.46454E+02-1.23007E+03-1.21773E-10-5.88858E-09
 -1       544-4.38703E+03 2.47781E+00 3.55719E+01 3.05837E+02 3.06741E-11-7.20759E-09
 -1       545-4.40169E+03-6.06845E+01-1.44659E+02-1.23601E+03-3.87956E-12-5.46609E-09
 -1       546-4.34654E+03 5.93820E+01-3.38163E+02 3.07079E+02 1.75194E-10-1.11521E-09
 -1       547-4.57893E+03-4.39973E+02-8.94884E+02-1.23496E+03-1.72675E-09 9.70886E-10
 -1       548-4.20955E+03 3.81320E+02-1.45289E+03 3.04795E+02-1.53731E-09 2.96001E-09
 -1       549-5.60612E+03-2.81105E+03-3.96211E+03-1.22599E+03-8.79743E-10 2.81443E-09
 -1       550-3.31759E+03 2.42736E+03-5.64457E+03 2.98102E+02-5.41434E-12-2.35241E-09
 -1       551 4.25097E+03-2.57747E+05 1.43346E+04-4.42314E+05-1.90666E-08-1.22964E-09
 -1       552 8.66925E+03-2.57649E+05 1.85566E+04-6.29381E+05-1.40135E-08 7.21047E-09
 -1       553 5.52892E+03-2.61035E+05 2.89326E+04-4.40906E+05-2.33304E-08 8.17090E-09
 -1       554 2.27648E+04-2.48155E+05 6.14501E+04-6.29982E+05-1.49957E-08 1.99361E-09
 -1       555 2.33769E+04-2.72816E+05 1.10493E+05-4.41512E+05-2.34613E-08-1.67711E-09
 -1       556 3.57762E+04-8.22221E+04 2.85971E+04-1.10125E+05-5.44969E-09-2.04454E-09
 -1       557 6.91785E+04-1.10316E+05 1.49585E+04-1.37539E+05 1.27693E-09-2.56455E-09
 -1       558 3.61822E+04-8.63304E+04 6.13743E+03-1.06557E+05 1.38243E-10-7.38510E-10
 -1       559 6.52492E+04-1.14415E+05 3.08559E+03-1.39130E+05-5.96629E-09-1.66037E-08
 -1       560 3.55910E+04-8.59203E+04 1.32196E+03-1.06893E+05-7.63976E-10 5.17502E-09
 -1       561 6.41846E+04-1.14229E+05 6.81545E+02-1.39794E+05 5.61704E-09 1.72802E-08
 -1       562 3.50850E+04-8.55669E+04 2.78510E+02-1.07262E+05-6.54836E-10 3.11638E-09
 -1       563 6.35746E+04-1.13970E+05 1.59490E+02-1.40183E+05-3.03589E-09 5.71583E-09
 -1       564 3.47699E+04-8.53594E+04 5.91866E+01-1.07488E+05 4.38013E-09 4.35739E-09
 -1       565 6.32618E+04-1.13838E+05 2.79276E+01-1.40378E+05 1.51113E-09-2.79761E-09
 -1       566 3.46627E+04-8.52854E+04-2.04186E+01-1.07567E+05-9.29958E-10-2.18552E-09
 -1       567 6.32179E+04-1.13816E+05-8.23902E+01-1.40364E+05 4.76962E-09-4.39286E-09
 -1       568 3.47847E+04-8.53673E+04-2.13192E+02-1.07521E+05 1.80989E-10 4.07272E-09
 -1       569 6.30206E+04-1.13698E+05-5.03200E+02-1.39780E+05-2.03818E-09 2.41926E-09
 -1       570 3.54848E+04-8.60528E+04-1.03520E+03-1.07595E+05 1.39698E-09-2.26191E-09
 -1       571 1.17811E+05 4.27056E+03 6.32576E+03-2.96084E+04 9.28594E-10 4.21778E-09
 -1       572 1.18754E+05 1.48542E+03 3.09899E+03-3.24560E+04 1.08776E-09 2.99679E-10
 -1       573 1.18193E+05 3.54010E+02 1.37668E+03-2.95311E+04-4.99313E-10 3.31261E-09
 -1       574 1.18306E+05 1.14398E+02 6.89604E+02-3.25426E+04-1.53477E-09 4.76939E-09
 -1       575 1.18237E+05 1.49131E+01 3.24972E+02-2.95208E+04-5.68434E-10 1.99907E-09
 -1       576 1.18246E+05 3.13908E+00 1.65324E+02-3.25542E+04-6.08637E-10-3.77531E-09
 -1       577 1.18244E+05-3.31683E+00 8.13816E+01-2.95195E+04-5.81906E-10 1.69439E-09
 -1       578 1.18239E+05-1.93826E+00 4.42532E+01-3.25556E+04-6.82121E-10 4.49973E-10
 -1       579 1.18249E+05-3.38946E+00 2.69823E+01-2.95195E+04 9.34733E-10-8.53333E-10
 -1       580 1.18244E+05-3.71850E+00 2.49688E+01-3.25538E+04-2.22826E-10 1.46633E-09
 -1       581 1.18257E+05-5.36188E+00 3.38341E+01-2.95213E+04-3.71074E-10-1.99861E-10
 -1       582 1.18261E+05 6.67927E-01 6.42021E+01-3.25361E+04-2.72848E-11-1.37447E-09
 -1       583 1.18265E+05 1.81365E+01 1.23444E+02-2.95372E+04 7.46695E-10 2.41369E-09
 -1       584 1.18317E+05 1.15441E+02 2.76459E+02-3.24041E+04-1.11868E-09-1.99452E-09
 -1       585 1.18246E+05 3.60481E+02 5.61956E+02-2.96534E+04 1.10958E-10-2.84217E-09
 -1       586-1.46604E+03 3.84087E+04-1.93338E+03-1.00793E+05 3.41288E-10-9.67134E-10
 -1       587-3.27425E+02 3.81514E+04-2.33199E+02-1.10914E+05 5.11136E-10 2.19740E-09
 -1       588 3.89853E+02 3.82012E+04 1.33426E+03-1.00732E+05 3.30147E-10 1.45133E-08
 -1       589 1.99020E+03 3.89298E+04 3.90946E+03-1.10823E+05 4.85670E-10 1.66222E-08
 -1       590 5.73871E+03 3.77075E+04 8.38170E+03-1.00885E+05 2.43745E-10 7.63976E-09
 -1       591-2.56472E+04-7.35889E+03-8.55686E+03-1.33171E+04 3.83929E-09-4.88080E-09
 -1       592-2.64476E+04-9.46147E+03-4.63475E+03-1.55498E+04 4.27872E-09-5.62642E-09
 -1       593-2.65122E+04-6.72849E+03-1.92948E+03-1.39348E+04 3.07273E-09-1.65005E-09
 -1       594-2.52548E+04-8.21790E+03-9.62340E+02-1.56089E+04 1.84554E-09 1.85531E-09
 -1       595-2.65782E+04-6.72575E+03-4.42257E+02-1.39631E+04 1.58195E-09 3.97971E-09
 -1       596-2.51739E+04-8.16097E+03-2.25451E+02-1.56003E+04 2.16062E-09 2.65241E-09
 -1       597-2.65866E+04-6.73127E+03-1.24107E+02-1.39642E+04 1.32291E-09 7.19709E-09
 -1       598-2.51663E+04-8.15879E+03-1.02227E+02-1.55980E+04-4.19163E-10 3.85921E-09
 -1       599-2.65861E+04-6.73122E+03-1.33621E+02-1.39640E+04-2.73013E-09-6.36584E-09
 -1       600-2.51751E+04-8.16164E+03-2.50704E+02-1.56004E+04 1.00329E-10 4.66713E-10
 -1       601-2.65758E+04-6.72508E+03-4.95802E+02-1.39624E+04 2.37310E-09 1.31240E-09
 -1       602-2.52661E+04-8.22543E+03-1.08133E+03-1.56091E+04 9.81686E-10 1.95541E-11
 -1       603-2.65009E+04-6.72906E+03-2.16879E+03-1.39309E+04-9.75433E-10-3.32329E-09
 -1       604-2.66115E+04-9.61843E+03-5.20999E+03-1.55365E+04 2.06001E-10 1.25954E-09
 -1       605-2.55230E+04-7.44178E+03-9.61869E+03-1.32414E+04 3.59478E-10 5.89716E-09
 -1       606 1.68406E+04-5.66987E+03-1.02146E+04 1.64788E+04 6.99583E-09-5.77074E-10
 -1       607 1.50915E+04-1.82865E+03-5.08649E+03 1.84984E+04 1.64623E-08-3.15686E-09
 -1       608 1.60889E+04-3.07308E+02-2.27729E+03 1.63473E+04 9.43601E-09 3.74519E-09
 -1       609 1.58930E+04-8.15886E+01-1.15041E+03 1.86438E+04-9.62700E-10 1.70758E-10
 -1       610 1.60022E+04 1.31407E+01-5.49148E+02 1.63326E+04-1.50339E-09-2.45677E-09
 -1       611 1.59669E+04 1.80898E+01-2.77114E+02 1.86597E+04-4.96266E-09-1.05274E-09
 -1       612 1.59820E+04 1.95576E+01-1.32384E+02 1.63312E+04-1.97906E-09 1.88766E-09
 -1       613 1.59699E+04 2.06346E+01-6.04642E+01 1.86616E+04-3.05886E-09 3.17755E-10
 -1       614 1.59721E+04 1.78756E+01-1.68215E+01 1.63307E+04-2.23281E-10 2.43983E-09
 -1       615 1.59663E+04 2.19546E+01 1.86736E+01 1.86620E+04 3.63593E-09-2.99224E-10
 -1       616 1.59645E+04 1.96651E+01 6.21999E+01 1.63308E+04-9.01309E-10 2.21985E-09
 -1       617 1.59725E+04 3.62169E+01 1.44188E+02 1.86617E+04-2.42380E-10 2.14527E-10
 -1       618 1.59508E+04 6.20032E+01 2.91555E+02 1.63309E+04-6.49152E-10-1.76919E-09
 -1       619 1.60746E+04 2.62372E+02 6.55275E+02 1.86613E+04 6.60521E-11-5.06134E-10
 -1       620 1.58533E+04 7.54410E+02 1.31728E+03 1.63305E+04 8.20705E-10 7.35326E-10
 -1       621 2.05633E+02 1.28290E+05 1.77536E+03 4.10464E+03-2.50534E-10 5.94196E-09
 -1       622 2.34968E+02 1.28730E+05 1.50585E+03 5.99109E+03-1.28182E-10 3.57028E-09
 -1       623 1.01691E+01 1.28418E+05 1.73054E+03 4.08526E+03-2.14470E-10 6.93660E-10
 -1       624 7.83084E+02 1.29233E+05 3.28518E+03 6.01014E+03-1.44155E-10-4.18052E-09
 -1       625 7.85982E+02 1.27785E+05 5.71063E+03 4.08575E+03-1.39835E-10-8.60211E-10
 -1       626 1.05835E+05 2.93603E+04 2.11206E+03 5.72641E+04-1.50976E-09 2.59843E-09
 -1       627 1.04382E+05 3.04301E+04 1.01738E+03 5.95845E+04-1.40062E-09-3.50190E-09
 -1       628 1.05918E+05 2.83593E+04 4.29990E+02 5.75839E+04 5.69344E-10-4.91332E-09
 -1       629 1.04081E+05 3.01891E+04 2.10596E+02 5.97265E+04-1.18985E-09-8.33290E-09
 -1       630 1.05926E+05 2.83102E+04 9.75224E+01 5.75942E+04-1.20508E-10-1.15978E-09
 -1       631 1.04047E+05 3.01827E+04 5.23562E+01 5.97301E+04-2.40857E-09 1.76843E-09
 -1       632 1.05924E+05 2.83127E+04 3.46314E+01 5.75909E+04-3.88127E-09-1.35159E-09
 -1       633 1.04041E+05 3.01850E+04 3.86193E+01 5.97274E+04-4.73574E-09-8.00475E-09
 -1       634 1.05919E+05 2.83125E+04 6.25845E+01 5.75890E+04 6.50289E-11-8.76901E-09
 -1       635 1.04044E+05 3.01857E+04 1.26914E+02 5.97278E+04 1.53591E-09 3.12696E-09
 -1       636 1.05913E+05 2.83118E+04 2.56423E+02 5.75873E+04-8.28038E-10 6.43445E-09
 -1       637 1.04096E+05 3.02266E+04 5.63621E+02 5.97251E+04 1.34269E-10-4.56703E-09
 -1       638 1.05890E+05 2.84378E+04 1.15849E+03 5.75290E+04 7.63976E-11 5.66388E-10
 -1       639 1.04701E+05 3.10746E+04 2.74070E+03 5.95443E+04-1.99913E-09-1.18644E-09
 -1       640 1.05807E+05 3.09616E+04 5.68790E+03 5.64573E+04 7.06018E-09 1.77998E-08
 -1       656 2.86961E+04-7.26343E+05-6.92874E+04-5.10299E+02 4.87489E-10-1.19520E-09
 -1       657-3.79166E+04-7.57638E+05-5.72999E+04 4.75155E+03-8.23093E-11 1.90373E-09
 -1       658 9.09732E+03-7.35275E+05-3.51639E+04-9.52948E+02 2.20552E-10-3.66410E-09
 -1       659-4.06482E+04-7.58924E+05-6.08874E+04 5.04304E+03 7.42602E-10-4.92248E-09
 -1       660 3.14202E+04-7.25059E+05-7.54643E+04-8.01776E+02-4.18368E-10 1.92045E-10
 -1       661 1.03242E+05 1.12129E+04 9.89569E+03 4.03052E+04 1.54455E-09 2.23281E-10
 -1       662 1.08368E+05 1.90021E+04 6.66801E+03 3.86156E+04-8.98694E-10 1.08730E-09
 -1       663 1.05177E+05 1.43948E+04 2.33253E+03 3.97496E+04-1.40182E-09-4.17378E-09
 -1       664 1.06130E+05 1.52750E+04 1.39445E+03 3.92884E+04 1.60760E-09-2.76692E-09
 -1       665 1.05465E+05 1.48355E+04 5.50117E+02 3.96718E+04-1.75797E-09-2.61942E-09
 -1       666 1.05795E+05 1.47658E+04 3.20708E+02 3.93858E+04-5.13515E-09-2.37175E-09
 -1       667 1.05510E+05 1.48908E+04 1.69123E+02 3.96571E+04-2.58088E-09 6.13431E-10
 -1       668 1.05749E+05 1.47189E+04 1.69293E+02 3.94055E+04 1.34239E-09-3.82980E-09
 -1       669 1.05511E+05 1.48811E+04 2.26875E+02 3.96526E+04 1.76803E-09 2.12478E-09
 -1       670 1.05811E+05 1.48339E+04 4.91672E+02 3.93994E+04 2.88330E-09-5.54110E-10
 -1       671 1.05448E+05 1.47781E+04 8.72345E+02 3.96622E+04-1.85827E-09 1.10276E-11
 -1       672 1.06324E+05 1.56777E+04 2.23126E+03 3.92711E+04-3.16481E-09-7.00993E-10
 -1       673 1.05000E+05 1.40587E+04 3.73906E+03 3.97729E+04-8.19568E-10-4.13002E-09
 -1       674 1.09889E+05 2.16800E+04 1.06933E+04 3.82197E+04-1.22196E-09-1.88277E-09
 -1       675 1.01907E+05 8.94367E+03 1.58717E+04 4.06505E+04 1.07343E-09-1.95359E-09
 -1       676 1.16940E+01-1.39497E+05-5.43188E+02 1.73426E+01-2.16895E-09-2.15495E-09
 -1       677-1.44183E+02-1.39628E+05-9.94058E+02-3.46796E+01-2.28286E-09-6.38236E-09
 -1       678 9.62683E+01-1.39403E+05-1.75721E+03 1.73251E+01 4.24279E-10 4.55850E-10
 -1       679-1.75742E+03-1.40688E+05-4.17409E+03-3.46016E+01-2.06967E-09 4.14182E-09
 -1       680 1.04875E+03-1.38436E+05-6.72729E+03 1.70653E+01 3.80624E-10 1.28244E-09
 -1       771-1.50056E+06-2.60803E+05-3.64852E+04-6.21051E+05-6.19912E-09-4.43106E-09
 -1       772-1.49117E+06-2.81052E+05-1.96143E+04-6.43600E+05-3.94357E-09 1.81080E-09
 -1       773-1.50535E+06-2.57100E+05-8.39945E+03-6.23095E+05-2.17551E-09 2.58115E-09
 -1       774-1.48583E+06-2.76633E+05-4.10725E+03-6.45493E+05 5.54428E-09-8.74934E-10
 -1       775-1.50629E+06-2.56534E+05-2.03471E+03-6.23217E+05-1.42973E-09 5.56611E-10
 -1       776-1.48566E+06-2.76599E+05-9.49087E+02-6.46381E+05-2.52658E-09 1.33105E-09
 -1       777-1.50689E+06-2.56116E+05-5.62504E+02-6.23264E+05-3.78350E-10 8.86757E-10
 -1       778-1.48580E+06-2.76713E+05-2.57756E+02-6.47111E+05 2.70666E-09 2.23827E-09
 -1       779-1.50735E+06-2.55759E+05-2.40197E+02-6.23305E+05-1.84446E-09-1.63345E-09
 -1       780-1.48595E+06-2.76815E+05-1.98789E+02-6.47701E+05-1.61526E-09 1.09139E-10
 -1       781-1.50770E+06-2.55471E+05-3.50965E+02-6.23332E+05-4.66571E-09-9.94078E-10
 -1       782-1.48612E+06-2.76925E+05-6.54064E+02-6.48136E+05-6.59566E-09-1.84446E-09
 -1       783-1.50789E+06-2.55286E+05-1.30723E+03-6.23337E+05-4.68390E-09-7.52703E-09
 -1       784-1.48698E+06-2.77806E+05-3.10287E+03-6.48367E+05-3.83625E-09 8.41283E-11
 -1       785-1.50744E+06-2.55603E+05-5.73565E+03-6.22927E+05-5.43423E-09 4.71118E-10
 -1       786 1.09116E+05-5.82735E+03 1.34809E+04 1.49371E+00 9.42532E-08 1.10686E-09
 -1       787 1.14958E+05 6.74621E+03 9.53768E+03-7.16831E+00 1.87033E-07 2.41926E-09
 -1       788 1.11370E+05-9.13498E+02 3.48919E+03 2.48823E+00 2.66931E-07-5.30918E-10
 -1       789 1.12333E+05 1.05697E+03 2.19230E+03-9.79282E+00 3.46655E-07 4.61847E-09
 -1       790 1.11742E+05-1.42703E+02 8.92039E+02 4.11825E+00 4.73770E-07-4.08716E-09
 -1       791 1.11898E+05 1.65805E+02 5.23774E+02-1.39874E+01 6.01209E-07 6.74214E-09
 -1       792 1.11804E+05-2.30022E+01 2.39106E+02 6.68293E+00 8.40854E-07-5.21538E-09
 -1       793 1.11828E+05 3.23342E+01 1.56810E+02-2.05222E+01 1.07896E-06-1.87090E-09
 -1       794 1.11812E+05-9.32017E+00 1.16351E+02 1.06531E+01 5.39609E-07-1.08901E-08
 -1       795 1.11835E+05 4.81610E+01 1.68586E+02-3.05866E+01 1.79470E-09 1.40243E-09
 -1       796 1.11797E+05-3.88171E+01 2.52704E+02 1.67475E+01 1.72435E-11-5.16144E-09
 -1       797 1.11950E+05 2.84570E+02 5.95980E+02-4.60051E+01-1.34017E-11-3.02043E-09
 -1       798 1.11698E+05-2.45554E+02 9.40806E+02 2.60720E+01-3.43476E-11-1.12811E-09
 -1       799 1.12656E+05 1.81305E+03 2.56481E+03-6.97237E+01-3.13390E-10 3.91992E-09
 -1       800 1.11092E+05-1.56606E+03 3.62313E+03 4.04662E+01-8.90577E-11 1.80444E-09
 -1       801-6.37058E+03 1.16067E+04 9.97327E+03 1.15991E+04 6.43354E-09-1.58036E-09
 -1       802 1.66250E+04 5.82238E+04 3.19415E+04-4.77916E+04 1.72017E-08-7.33834E-10
 -1       803-9.85644E+03 2.81434E+04 4.09801E+04 1.09908E+04 1.35387E-08 1.37192E-08
 -1       804 7.92717E+04 9.14997E+04 1.14012E+05-4.83160E+04 1.59307E-08 1.30869E-08
 -1       805-6.90367E+04-2.15258E+04 1.48694E+05 1.21224E+04 5.60976E-09 1.44108E-08
 -1       806-1.28405E+05-2.75162E+04-1.09165E+04-5.34763E+04-1.08230E-10 1.68939E-09
 -1       807-1.29047E+05-2.59534E+04-5.36302E+03-5.63715E+04 1.10322E-09 1.07704E-09
 -1       808-1.28715E+05-2.35723E+04-2.27505E+03-5.53282E+04 1.73679E-09 1.05508E-09
 -1       809-1.27902E+05-2.44643E+04-1.11222E+03-5.65263E+04 3.71119E-09 9.92463E-09
 -1       810-1.28763E+05-2.34329E+04-5.09264E+02-5.54100E+04 1.27227E-09-3.44698E-10
 -1       811-1.27815E+05-2.44054E+04-2.52569E+02-5.65136E+04 4.83169E-10 2.17028E-10
 -1       812-1.28772E+05-2.34429E+04-1.25989E+02-5.54101E+04-2.76032E-10-5.23346E-09
 -1       813-1.27804E+05-2.44068E+04-7.94795E+01-5.65073E+04 4.17003E-10-3.31011E-09
 -1       814-1.28772E+05-2.34464E+04-7.44314E+01-5.54087E+04-5.13637E-10 3.11229E-09
 -1       815-1.27806E+05-2.44079E+04-1.16578E+02-5.65061E+04 9.41327E-10 6.09202E-09
 -1       816-1.28765E+05-2.34450E+04-2.18325E+02-5.54075E+04-6.59838E-10 6.67114E-09
 -1       817-1.27844E+05-2.44286E+04-4.68313E+02-5.65030E+04 1.93540E-09-1.56933E-09
 -1       818-1.28738E+05-2.35101E+04-9.54296E+02-5.53769E+04 7.34417E-10-7.62611E-10
 -1       819-1.28372E+05-2.50012E+04-2.24635E+03-5.63763E+04-1.06002E-09 1.33616E-09
 -1       820-1.28557E+05-2.52083E+04-4.57151E+03-5.46534E+04-9.61336E-10 5.48960E-09
 -1       821-1.65953E+05 9.21289E+03-2.13086E+04 9.44975E+00-5.15969E-10-1.55887E-09
 -1       822-1.75186E+05-1.06655E+04-1.50782E+04-1.85426E+02-1.58541E-09 4.08454E-09
 -1       823-1.69516E+05 1.44425E+03-5.51902E+03-2.34951E+01 6.77752E-10-1.84446E-09
 -1       824-1.71034E+05-1.67166E+03-3.47312E+03-1.08068E+02-1.29249E-10 4.93714E-09
 -1       825-1.70104E+05 2.26126E+02-1.42678E+03-6.79105E+01-2.61781E-09 1.36316E-09
 -1       826-1.70351E+05-2.66708E+02-8.62950E+02-1.95272E+01-4.08924E-09 3.14913E-10
 -1       827-1.70199E+05 4.03141E+01-4.45222E+02-1.12038E+02-2.62429E-09-6.85158E-09
 -1       828-1.70257E+05-8.15166E+01-3.95243E+02 5.70871E+01-3.51561E-09 9.48055E-10
 -1       829-1.70198E+05 4.10841E+01-4.51878E+02-1.44526E+02-9.62224E-10-1.63665E-09
 -1       830-1.70357E+05-2.73211E+02-8.83239E+02 1.02081E+02 1.60020E-09 7.55279E-10
 -1       831-1.70099E+05 2.31906E+02-1.46200E+03-1.57033E+02-1.41048E-09-1.00368E-09
 -1       832-1.71058E+05-1.71452E+03-3.56249E+03 1.04160E+02-1.34072E-09 5.14518E-09
 -1       833-1.69497E+05 1.48135E+03-5.66062E+03-1.46605E+02-1.06866E-09 6.49106E-09
 -1       834-1.75314E+05-1.09397E+04-1.54662E+04 6.40882E+01-6.89919E-10 4.46835E-09
 -1       835-1.65843E+05 9.44986E+03-2.18572E+04-1.16957E+02 2.80821E-09 2.26100E-09
 -1       836-5.53429E+02 1.57380E+05 9.47532E+03-1.38142E+04 1.18007E-09 4.56726E-09
 -1       837 2.08182E+03 1.60316E+05 8.08540E+03-2.77619E+04 1.66608E-09 1.84264E-09
 -1       838-2.05617E+02 1.58200E+05 8.33315E+03-1.37661E+04 1.36879E-09 4.12581E-09
 -1       839 5.34241E+03 1.62752E+05 1.58578E+04-2.77797E+04 1.89948E-09 5.12034E-09
 -1       840-1.61010E+03 1.54930E+05 2.53255E+04-1.37956E+04 1.34150E-09-2.32581E-09
 -1       856-5.21132E+04 4.45021E+03-1.17264E+04-2.51090E+02-1.27494E-09-3.04362E-09
 -1       857-5.69582E+04-5.22021E+03-8.07372E+03 2.68968E+03-1.37914E-09-4.90036E-09
 -1       858-5.40274E+04 6.23750E+02-3.04329E+03-2.59633E+02-2.89316E-09 7.55563E-10
 -1       859-5.47590E+04-7.26372E+02-1.83827E+03 2.70308E+03 4.80696E-10-4.22358E-09
 -1       860-5.43138E+04 8.68917E+01-7.72942E+02-2.64556E+02 4.78167E-10 1.20178E-09
 -1       861-5.44287E+04-9.73962E+01-4.30710E+02 2.70975E+03-3.12782E-09-3.33181E-10
 -1       862-5.43584E+04 1.16539E+01-1.89999E+02-2.66310E+02 3.54971E-09-2.11099E-09
 -1       863-5.43760E+04-8.72967E+00-9.40853E+01 2.71054E+03 6.82500E-09-6.08247E-09
 -1       864-5.43666E+04 1.38613E-01-2.97748E+01-2.65344E+02 4.26881E-09 3.37152E-09
 -1       865-5.43613E+04 1.15912E+01 1.68892E+01 2.70556E+03 4.31919E-09-1.82625E-09
 -1       866-5.43726E+04-8.73643E+00 6.30244E+01-2.61334E+02 8.97472E-10 1.67823E-10
 -1       867-5.43252E+04 7.38969E+01 1.73151E+02 2.69472E+03 1.27261E-09 1.86301E-09
 -1       868-5.44015E+04-6.14233E+01 2.92741E+02-2.54501E+02 1.32013E-09-1.08483E-09
 -1       869-5.41071E+04 5.10899E+02 7.85196E+02 2.67613E+03-9.51786E-10-5.06824E-09
 -1       870-5.45889E+04-4.34410E+02 1.13969E+03-2.42746E+02 1.60730E-09-4.27178E-09
 -1       871-2.41368E+03-5.03594E+03-7.88140E+03 5.16747E+04 1.58980E-09 4.91582E-10
 -1       872-1.04566E+03-6.79540E+03-3.20961E+03 6.69914E+04 3.42106E-09-3.63616E-09
 -1       873-1.80574E+01-5.96315E+03 4.69935E+02 5.15599E+04 1.60435E-09-2.19461E-09
 -1       874 1.22424E+03-4.81437E+03 4.49747E+03 6.70158E+04 3.08444E-09 1.71701E-09
 -1       875 2.89483E+03-7.03700E+03 9.96850E+03 5.16538E+04 1.25283E-09 2.81489E-10
 -1       876 1.29445E+05 2.23001E+04 6.94135E+03 5.25089E+04-2.76037E-09-4.81577E-10
 -1       877 1.29839E+05 2.38260E+04 3.70674E+03 5.45655E+04-4.01724E-09 3.48280E-09
 -1       878 1.30095E+05 2.15309E+04 1.55302E+03 5.30786E+04 5.09772E-10-4.15241E-09
 -1       879 1.28895E+05 2.28859E+04 7.73561E+02 5.46161E+04 6.51653E-10 2.27038E-09
 -1       880 1.30143E+05 2.15217E+04 3.60170E+02 5.31018E+04 1.20451E-09 5.24813E-09
 -1       881 1.28832E+05 2.28462E+04 1.91757E+02 5.46073E+04 5.03655E-09-1.39903E-09
 -1       882 1.30148E+05 2.15269E+04 1.21764E+02 5.31024E+04 4.13070E-09 3.04490E-09
 -1       883 1.28828E+05 2.28445E+04 1.29381E+02 5.46051E+04 2.00251E-09 5.86925E-09
 -1       884 1.30146E+05 2.15253E+04 2.04478E+02 5.31025E+04 5.62352E-10 3.44210E-09
 -1       885 1.28844E+05 2.28474E+04 4.10286E+02 5.46104E+04 3.70702E-09 2.51998E-09
 -1       886 1.30130E+05 2.15133E+04 8.26561E+02 5.31009E+04 2.60991E-09-6.50971E-10
 -1       887 1.28990E+05 2.29426E+04 1.80543E+03 5.46310E+04-3.65466E-09-6.79825E-09
 -1       888 1.30016E+05 2.15337E+04 3.63806E+03 5.30432E+04-2.31438E-10 5.24324E-09
 -1       889 1.31158E+05 2.51933E+04 8.69136E+03 5.45615E+04 2.79055E-09 8.11269E-10
 -1       890 1.28532E+05 2.32952E+04 1.62779E+04 5.16563E+04 1.11731E-09-2.12822E-09
 -1       891-7.78905E+01-7.36332E+04-8.66349E+02 1.40146E+04-2.56705E-10 1.49998E-09
 -1       892-1.35738E+02-7.38433E+04-9.43873E+02 2.12119E+04 6.16637E-10-5.43616E-09
 -1       893-1.85791E+01-7.36625E+04-1.34973E+03 1.40171E+04 1.44996E-09-3.74189E-09
 -1       894-7.31205E+02-7.43675E+04-2.80397E+03 2.11371E+04-2.26601E-09-2.30125E-09
 -1       895-5.69105E+02-7.30839E+04-4.94041E+03 1.40887E+04-5.99158E-10 2.41789E-09
 -1       956-1.62569E+05-2.34551E+03-5.90540E+03 1.07429E+04-1.97451E-09-1.98509E-09
 -1       957-1.63734E+05-7.92149E+02-3.03179E+03 1.29312E+04-7.54881E-10-2.67164E-09
 -1       958-1.63090E+05-6.38535E+01-1.36573E+03 1.06732E+04 1.58343E-09-2.86366E-09
 -1       959-1.63182E+05-1.31717E+01-6.97685E+02 1.30066E+04-1.68916E-09 1.50521E-09
 -1       960-1.63135E+05 1.74657E+01-3.39977E+02 1.06668E+04-3.12457E-09 1.25499E-09
 -1       961-1.63140E+05 1.49801E+01-1.80308E+02 1.30137E+04-5.48505E-09-4.13888E-09
 -1       962-1.63143E+05 1.41262E+01-1.02908E+02 1.06660E+04-3.62161E-09-1.67688E-10
 -1       963-1.63137E+05 1.49910E+01-8.21477E+01 1.30148E+04-3.04141E-09 3.82977E-09
 -1       964-1.63144E+05 1.48301E+01-9.90651E+01 1.06657E+04-2.99730E-09 3.09672E-09
 -1       965-1.63142E+05 1.65862E+01-1.70635E+02 1.30148E+04-5.23904E-09 4.55782E-09
 -1       966-1.63139E+05 1.95154E+01-3.19918E+02 1.06660E+04-6.42854E-09-2.79886E-09
 -1       967-1.63185E+05-8.24475E+00-6.55958E+02 1.30109E+04-9.66338E-10-4.01030E-09
 -1       968-1.63100E+05-5.53803E+01-1.28346E+03 1.06697E+04-1.76101E-09-7.49580E-10
 -1       969-1.63707E+05-7.38997E+02-2.84962E+03 1.29669E+04-6.83372E-10 6.46111E-10
 -1       970-1.62612E+05-2.19896E+03-5.55019E+03 1.07111E+04 6.66205E-10 5.69798E-10
 -1       971-1.54531E+05-8.17660E+02-4.54928E+03 7.60989E+03-2.75395E-09-7.61119E-10
 -1       972-1.55638E+05-5.88046E+02-2.47786E+03 1.06182E+04-1.13141E-09-5.90126E-09
 -1       973-1.55035E+05-6.24053E+00-1.10916E+03 7.54776E+03-8.23547E-10-1.71144E-09
 -1       974-1.55110E+05-8.45623E+00-5.74742E+02 1.06848E+04-1.43098E-09-2.28226E-09
 -1       975-1.55072E+05 1.34812E+01-2.86409E+02 7.54281E+03-2.81671E-09-4.11984E-09
 -1       976-1.55077E+05 1.39551E+01-1.64060E+02 1.06905E+04-5.06941E-09-3.53151E-09
 -1       977-1.55078E+05 1.23139E+01-1.16705E+02 7.54200E+03-1.62788E-09 2.99809E-09
 -1       978-1.55077E+05 1.57780E+01-1.33491E+02 1.06916E+04 1.74185E-09 1.29882E-09
 -1       979-1.55077E+05 1.54244E+01-2.11704E+02 7.54168E+03-4.69271E-10 3.48962E-10
 -1       980-1.55092E+05 1.68626E+01-4.07037E+02 1.06917E+04 3.21022E-09 4.04157E-11
 -1       981-1.55064E+05 2.56250E+01-7.87327E+02 7.54188E+03-8.53504E-10-6.46025E-10
 -1       982-1.55201E+05-4.08577E+01-1.62682E+03 1.06889E+04-2.39532E-09-3.87065E-09
 -1       983-1.54966E+05-2.40808E+01-3.16044E+03 7.54461E+03 2.12253E-09 1.42381E-09
 -1       984-1.56722E+05-1.69019E+03-7.07717E+03 1.06467E+04-1.52158E-09 7.80437E-09
 -1       985-1.53537E+05-2.33594E+03-1.29959E+04 7.58615E+03 1.19553E-09 4.56839E-09
 -3
    1PSTEP                         5           3           1          
  100CL  103 3.75000E-01         409                     0    3           1
 -4  DISP        4    1
 -5  D1          1    2    1    0
 -5  D2          1    2    2    0
 -5  D3          1    2    3    0
 -5  ALL         1    2    0    0    1ALL
 -1         1 9.81703E-05 0.00000E+00 0.00000E+00
 -1         2 9.05545E-05 7.52390E-30 1.65436E-24
 -1         3 8.39353E-05 2.71566E-28 6.61744E-24
 -1         5 6.03309E-05 2.46494E-28 0.00000E+00
 -1         8 7.83863E-05-7.16255E-07 0.00000E+00
 -1         9 7.96644E-05 4.79486E-07 0.00000E+00
 -1        10 7.77636E-05-1.14685E-06 0.00000E+00
 -1        12 5.99000E-05 4.13101E-07 0.00000E+00
 -1        15 5.48424E-05-7.80095E-07 2.06795E-25
 -1        16 5.67279E-05 3.74989E-07 0.00000E+00
 -1        17 5.79370E-05-2.41250E-06 0.00000E+00
 -1        18 5.78352E-05 2.12910E-07 0.00000E+00
 -1        19 5.86260E-05 8.19891E-07 0.00000E+00
 -1        20 5.87327E-05 1.20771E-05 0.00000E+00
 -1        21 5.83305E-05 2.28227E-05 1.65436E-24
 -1        24 1.47875E-05-3.24990E-06 0.00000E+00
 -1        25 5.64921E-05 3.06804E-07 0.00000E+00
 -1        26 5.72387E-05 1.14074E-06 0.00000E+00
 -1        27 5.61074E-05 1.02593E-05 0.00000E+00
 -1        28 5.57420E-05 2.24733E-05 0.00000E+00
 -1        32 0.00000E+00 0.00000E+00 0.00000E+00
 -1        33 5.48752E-05 1.52826E-06 0.00000E+00
 -1        34 5.37821E-05 1.02430E-05 0.00000E+00
 -1        35 5.27431E-05 2.22890E-05 0.00000E+00
 -1        51 9.68836E-05-1.18284E-07 0.00000E+00
 -1        52 9.44985E-05-2.33367E-07 0.00000E+00
 -1        53 9.12314E-05-3.49339E-07 0.00000E+00
 -1        54 8.73068E-05-4.67311E-07 0.00000E+00
 -1        55 8.29499E-05-5.87946E-07 1.13737E-24
 -1        56 9.72772E-05-5.71425E-07 2.64698E-23
 -1        57 9.64916E-05-1.53128E-06 1.32349E-23
 -1        58 9.58124E-05-2.76957E-06 0.00000E+00
 -1        59 9.51930E-05-4.18548E-06 1.32349E-23
 -1        60 9.45973E-05-5.66487E-06-2.64698E-23
 -1        61 9.39817E-05-7.09448E-06 0.00000E+00
 -1        62 9.33057E-05-8.36297E-06-2.64698E-23
 -1        63 9.25292E-05-9.36315E-06-1.32349E-23
 -1        64 9.16168E-05-1.00006E-05 0.00000E+00
 -1        65 9.05363E-05-1.01895E-05 0.00000E+00
 -1        66 8.92634E-05-9.86560E-06 0.00000E+00
 -1        67 8.77790E-05-8.97640E-06 0.00000E+00
 -1        68 8.60725E-05-7.49712E-06-2.64698E-23
 -1        69 8.41443E-05-5.41473E-06 0.00000E+00
 -1        70 8.19938E-05-2.74938E-06 2.64698E-23
 -1        86 9.02712E-05 8.59852E-08 0.00000E+00
 -1        87 8.94203E-05 1.71219E-07 0.00000E+00
 -1        88 8.79748E-05 2.55731E-07 0.00000E+00
 -1        89 8.59057E-05 3.36416E-07 5.16988E-26
 -1        90 8.31555E-05 4.16455E-07 0.00000E+00
 -1       121 8.37632E-05-1.90405E-07 0.00000E+00
 -1       122 8.32472E-05-3.80927E-07 0.00000E+00
 -1       123 8.23879E-05-5.71684E-07 6.61744E-24
 -1       124 8.11864E-05-7.62823E-07-3.30872E-24
 -1       125 7.96442E-05-9.54402E-07-6.61744E-24
 -1       191 6.03189E-05 6.88615E-08 0.00000E+00
 -1       192 6.02829E-05 1.37721E-07-1.65436E-24
 -1       193 6.02230E-05 2.06580E-07 0.00000E+00
 -1       194 6.01391E-05 2.75433E-07 0.00000E+00
 -1       195 6.00314E-05 3.44278E-07 0.00000E+00
 -1       251 7.84486E-05 2.53026E-06 0.00000E+00
 -1       252 7.85285E-05 4.44514E-06 0.00000E+00
 -1       253 7.86090E-05 5.26126E-06 0.00000E+00
 -1       254 7.86926E-05 5.20745E-06 8.27181E-25
 -1       255 7.87760E-05 4.47407E-06-1.65436E-24
 -1       256 7.88595E-05 3.24906E-06 0.00000E+00
 -1       257 7.89426E-05 1.69849E-06 3.30872E-24
 -1       258 7.90255E-05-1.27303E-08 1.65436E-24
 -1       259 7.91085E-05-1.72690E-06 0.00000E+00
 -1       260 7.91916E-05-3.28627E-06-1.65436E-24
 -1       261 7.92751E-05-4.52620E-06 0.00000E+00
 -1       262 7.93584E-05-5.28097E-06-8.27181E-25
 -1       263 7.94420E-05-5.36320E-06 1.65436E-24
 -1       264 7.95224E-05-4.58313E-06-1.03398E-25
 -1       265 7.96024E-05-2.71285E-06 0.00000E+00
 -1       266 7.44623E-05-7.36633E-07 3.30872E-24
 -1       267 7.05384E-05-7.46086E-07 8.27181E-25
 -1       268 6.66144E-05-7.56231E-07 0.00000E+00
 -1       269 6.26904E-05-7.64326E-07 2.06795E-25
 -1       270 5.87664E-05-7.72374E-07 0.00000E+00
 -1       271 7.59988E-05 2.21072E-06-2.64698E-23
 -1       272 7.39711E-05 4.07171E-06 0.00000E+00
 -1       273 7.22980E-05 4.99634E-06 0.00000E+00
 -1       274 7.09227E-05 5.11127E-06 0.00000E+00
 -1       275 6.97968E-05 4.56032E-06-2.64698E-23
 -1       276 6.88625E-05 3.49495E-06 1.32349E-23
 -1       277 6.80605E-05 2.07519E-06 2.64698E-23
 -1       278 6.73292E-05 4.66025E-07 0.00000E+00
 -1       279 6.66059E-05-1.16457E-06-2.64698E-23
 -1       280 6.58277E-05-2.64826E-06 1.32349E-23
 -1       281 6.49327E-05-3.81913E-06 2.64698E-23
 -1       282 6.38608E-05-4.51574E-06 1.32349E-23
 -1       283 6.25537E-05-4.58431E-06 0.00000E+00
 -1       284 6.09602E-05-3.87891E-06 0.00000E+00
 -1       285 5.90247E-05-2.26868E-06 2.64698E-23
 -1       301 7.57746E-05 4.57346E-07-3.30872E-24
 -1       302 7.18879E-05 4.46890E-07 1.65436E-24
 -1       303 6.80221E-05 4.36800E-07 0.00000E+00
 -1       304 6.41949E-05 4.25452E-07 0.00000E+00
 -1       305 6.04244E-05 4.12333E-07 6.61744E-24
 -1       306 7.71975E-05 3.36081E-06 2.64698E-23
 -1       307 7.50987E-05 5.14726E-06-1.32349E-23
 -1       308 7.34180E-05 5.83179E-06 0.00000E+00
 -1       309 7.21376E-05 5.42912E-06 0.00000E+00
 -1       310 7.12087E-05 4.08789E-06 0.00000E+00
 -1       311 7.05615E-05 1.98889E-06 0.00000E+00
 -1       312 7.00956E-05-5.96639E-07 5.29396E-23
 -1       313 6.97031E-05-3.37981E-06-2.64698E-23
 -1       314 6.92677E-05-6.04785E-06 5.29396E-23
 -1       315 6.86746E-05-8.29232E-06 0.00000E+00
 -1       316 6.78273E-05-9.85559E-06-2.64698E-23
 -1       317 6.66396E-05-1.05050E-05 1.32349E-23
 -1       318 6.50624E-05-1.01164E-05 0.00000E+00
 -1       319 6.30702E-05-8.60133E-06 0.00000E+00
 -1       320 6.06684E-05-6.01045E-06-2.64698E-23
 -1       336 7.55019E-05-1.35509E-06-6.61744E-24
 -1       337 7.28169E-05-1.56463E-06 0.00000E+00
 -1       338 6.97124E-05-1.77527E-06 6.61744E-24
 -1       339 6.61937E-05-1.98693E-06-3.30872E-24
 -1       340 6.22664E-05-2.20009E-06-6.61744E-24
 -1       406 5.97454E-05 4.81269E-07 0.00000E+00
 -1       407 5.95679E-05 5.49397E-07 0.00000E+00
 -1       408 5.93672E-05 6.17475E-07 0.00000E+00
 -1       409 5.91433E-05 6.85420E-07 0.00000E+00
 -1       410 5.88962E-05 7.53101E-07 0.00000E+00
 -1       521 5.34241E-05 2.19795E-06 0.00000E+00
 -1       522 5.07711E-05 2.06692E-06 2.64698E-23
 -1       523 4.88065E-05 1.13132E-07-5.29396E-23
 -1       524 4.74270E-05-3.44888E-06 0.00000E+00
 -1       525 4.64588E-05-8.11892E-06-5.29396E-23
 -1       526 4.56882E-05-1.33297E-05 2.64698E-23
 -1       527 4.48727E-05-1.84196E-05 0.00000E+00
 -1       528 4.37697E-05-2.27357E-05 0.00000E+00
 -1       529 4.21854E-05-2.57583E-05 5.29396E-23
 -1       530 3.99555E-05-2.70515E-05-2.64698E-23
 -1       531 3.70242E-05-2.64770E-05 5.29396E-23
 -1       532 3.33835E-05-2.40167E-05 2.64698E-23
 -1       533 2.91438E-05-1.99768E-05-5.29396E-23
 -1       534 2.44703E-05-1.47597E-05 2.64698E-23
 -1       535 1.95767E-05-8.97959E-06-5.29396E-23
 -1       536 5.79175E-05 1.63029E-06-1.65436E-24
 -1       537 5.79073E-05 4.70654E-06 8.27181E-25
 -1       538 5.78989E-05 6.90357E-06 0.00000E+00
 -1       539 5.78931E-05 8.30894E-06-2.06795E-25
 -1       540 5.78879E-05 9.01834E-06 2.06795E-25
 -1       541 5.78833E-05 9.12763E-06 0.00000E+00
 -1       542 5.78786E-05 8.73867E-06 0.00000E+00
 -1       543 5.78737E-05 7.95346E-06-1.03398E-25
 -1       544 5.78686E-05 6.87795E-06-1.03398E-25
 -1       545 5.78633E-05 5.61814E-06 0.00000E+00
 -1       546 5.78579E-05 4.28189E-06-1.03398E-25
 -1       547 5.78526E-05 2.97706E-06 0.00000E+00
 -1       548 5.78475E-05 1.81120E-06 0.00000E+00
 -1       549 5.78429E-05 8.91835E-07 0.00000E+00
 -1       550 5.78384E-05 3.24072E-07 0.00000E+00
 -1       551 5.22171E-05-2.53934E-06 0.00000E+00
 -1       552 4.53758E-05-2.67075E-06 0.00000E+00
 -1       553 3.78099E-05-2.80718E-06 1.65436E-24
 -1       554 2.99221E-05-2.94786E-06 0.00000E+00
 -1       555 2.21148E-05-3.09013E-06 0.00000E+00
 -1       556 5.64359E-05 1.47819E-06 0.00000E+00
 -1       557 5.52887E-05 4.45248E-06 6.61744E-24
 -1       558 5.44568E-05 6.59482E-06 1.32349E-23
 -1       559 5.39049E-05 7.99637E-06 0.00000E+00
 -1       560 5.35979E-05 8.74803E-06 0.00000E+00
 -1       561 5.35009E-05 8.94120E-06 0.00000E+00
 -1       562 5.35791E-05 8.66739E-06-6.61744E-24
 -1       563 5.37981E-05 8.01815E-06 0.00000E+00
 -1       564 5.41232E-05 7.08513E-06 0.00000E+00
 -1       565 5.45203E-05 5.95998E-06 8.27181E-25
 -1       566 5.49549E-05 4.73441E-06 8.27181E-25
 -1       567 5.53928E-05 3.50013E-06-4.13590E-25
 -1       568 5.57997E-05 2.34883E-06 0.00000E+00
 -1       569 5.61412E-05 1.37210E-06 0.00000E+00
 -1       570 5.63832E-05 6.61566E-07 0.00000E+00
 -1       571 5.78832E-05 2.82228E-07-4.13590E-25
 -1       572 5.79323E-05 3.18814E-07 0.00000E+00
 -1       573 5.79816E-05 3.28498E-07 1.24077E-24
 -1       574 5.80312E-05 3.17416E-07-8.27181E-25
 -1       575 5.80807E-05 2.91731E-07-8.27181E-25
 -1       576 5.81303E-05 2.57647E-07 0.00000E+00
 -1       577 5.81799E-05 2.21372E-07-1.65436E-24
 -1       578 5.82295E-05 1.89120E-07-8.27181E-25
 -1       579 5.82791E-05 1.67104E-07 1.65436E-24
 -1       580 5.83287E-05 1.61537E-07 0.00000E+00
 -1       581 5.83783E-05 1.78633E-07 0.00000E+00
 -1       582 5.84279E-05 2.24598E-07 0.00000E+00
 -1       583 5.84775E-05 3.05631E-07 0.00000E+00
 -1       584 5.85271E-05 4.27869E-07 0.00000E+00
 -1       585 5.85766E-05 5.97413E-07 0.00000E+00
 -1       586 5.75946E-05 2.29534E-07 0.00000E+00
 -1       587 5.73330E-05 2.45740E-07-2.06795E-25
 -1       588 5.70710E-05 2.61766E-07 0.00000E+00
 -1       589 5.68296E-05 2.77538E-07 0.00000E+00
 -1       590 5.66299E-05 2.92882E-07 0.00000E+00
 -1       591 5.77862E-05 3.07468E-07-5.16988E-26
 -1       592 5.77454E-05 3.74978E-07 0.00000E+00
 -1       593 5.77126E-05 4.20584E-07 0.00000E+00
 -1       594 5.76861E-05 4.48919E-07 0.00000E+00
 -1       595 5.76643E-05 4.64680E-07-4.13590E-25
 -1       596 5.76454E-05 4.72526E-07-2.06795E-25
 -1       597 5.76277E-05 4.77117E-07 4.13590E-25
 -1       598 5.76094E-05 4.83107E-07 0.00000E+00
 -1       599 5.75889E-05 4.95151E-07 0.00000E+00
 -1       600 5.75644E-05 5.17902E-07 1.03398E-25
 -1       601 5.75342E-05 5.56015E-07 0.00000E+00
 -1       602 5.74964E-05 6.14150E-07-1.03398E-25
 -1       603 5.74495E-05 6.96964E-07 1.03398E-25
 -1       604 5.73918E-05 8.09155E-07 0.00000E+00
 -1       605 5.73215E-05 9.55357E-07-4.13590E-25
 -1       606 5.86352E-05 1.15527E-06 0.00000E+00
 -1       607 5.86427E-05 1.56137E-06 0.00000E+00
 -1       608 5.86496E-05 2.03402E-06 0.00000E+00
 -1       609 5.86563E-05 2.56855E-06 0.00000E+00
 -1       610 5.86629E-05 3.16026E-06 0.00000E+00
 -1       611 5.86694E-05 3.80438E-06 0.00000E+00
 -1       612 5.86759E-05 4.49612E-06 0.00000E+00
 -1       613 5.86824E-05 5.23073E-06 0.00000E+00
 -1       614 5.86888E-05 6.00342E-06 0.00000E+00
 -1       615 5.86952E-05 6.80941E-06 0.00000E+00
 -1       616 5.87015E-05 7.64392E-06 0.00000E+00
 -1       617 5.87079E-05 8.50218E-06 0.00000E+00
 -1       618 5.87142E-05 9.37940E-06 0.00000E+00
 -1       619 5.87205E-05 1.02708E-05 0.00000E+00
 -1       620 5.87267E-05 1.11716E-05 0.00000E+00
 -1       621 5.83602E-05 8.73401E-07 0.00000E+00
 -1       622 5.81137E-05 9.27173E-07 8.27181E-25
 -1       623 5.78825E-05 9.80938E-07 0.00000E+00
 -1       624 5.76623E-05 1.03462E-06 8.27181E-25
 -1       625 5.74491E-05 1.08821E-06 0.00000E+00
 -1       626 5.85575E-05 1.17210E-06 0.00000E+00
 -1       627 5.84674E-05 1.58284E-06 0.00000E+00
 -1       628 5.83575E-05 2.04670E-06 0.00000E+00
 -1       629 5.82299E-05 2.55786E-06 1.65436E-24
 -1       630 5.80867E-05 3.11054E-06 3.30872E-24
 -1       631 5.79301E-05 3.69890E-06 0.00000E+00
 -1       632 5.77623E-05 4.31708E-06 0.00000E+00
 -1       633 5.75855E-05 4.95926E-06-8.27181E-25
 -1       634 5.74019E-05 5.61959E-06 0.00000E+00
 -1       635 5.72136E-05 6.29222E-06 8.27181E-25
 -1       636 5.70229E-05 6.97133E-06 0.00000E+00
 -1       637 5.68320E-05 7.65106E-06 0.00000E+00
 -1       638 5.66429E-05 8.32557E-06 0.00000E+00
 -1       639 5.64579E-05 8.98903E-06 4.13590E-25
 -1       640 5.62790E-05 9.63558E-06 0.00000E+00
 -1       656 5.79804E-05 1.17813E-05 3.30872E-24
 -1       657 5.74939E-05 1.14737E-05 0.00000E+00
 -1       658 5.71711E-05 1.11671E-05-6.61744E-24
 -1       659 5.69079E-05 1.08608E-05 3.30872E-24
 -1       660 5.65908E-05 1.05534E-05 0.00000E+00
 -1       661 5.84545E-05 1.29643E-05 0.00000E+00
 -1       662 5.81929E-05 1.38135E-05-8.27181E-25
 -1       663 5.79451E-05 1.46255E-05 0.00000E+00
 -1       664 5.77110E-05 1.54023E-05 8.27181E-25
 -1       665 5.74896E-05 1.61452E-05 0.00000E+00
 -1       666 5.72804E-05 1.68558E-05 8.27181E-25
 -1       667 5.70829E-05 1.75355E-05 0.00000E+00
 -1       668 5.68964E-05 1.81856E-05 8.27181E-25
 -1       669 5.67206E-05 1.88076E-05 0.00000E+00
 -1       670 5.65548E-05 1.94027E-05 8.27181E-25
 -1       671 5.63986E-05 1.99722E-05 0.00000E+00
 -1       672 5.62516E-05 2.05172E-05-8.27181E-25
 -1       673 5.61132E-05 2.10389E-05 1.65436E-24
 -1       674 5.59826E-05 2.15381E-05 4.13590E-25
 -1       675 5.58602E-05 2.20164E-05-4.13590E-25
 -1       676 5.78982E-05 2.27641E-05 1.65436E-24
 -1       677 5.74661E-05 2.27056E-05-8.27181E-25
 -1       678 5.70342E-05 2.26470E-05 0.00000E+00
 -1       679 5.66029E-05 2.25887E-05 8.27181E-25
 -1       680 5.61721E-05 2.25304E-05-1.65436E-24
 -1       771 1.18386E-05 2.33561E-06 2.64698E-23
 -1       772 9.26879E-06 6.90479E-06 0.00000E+00
 -1       773 7.06221E-06 1.05160E-05 2.64698E-23
 -1       774 5.19441E-06 1.32308E-05 0.00000E+00
 -1       775 3.64143E-06 1.51119E-05 0.00000E+00
 -1       776 2.37833E-06 1.62238E-05 0.00000E+00
 -1       777 1.37989E-06 1.66321E-05 2.64698E-23
 -1       778 6.20458E-07 1.64039E-05 1.32349E-23
 -1       779 7.41980E-08 1.56070E-05-2.64698E-23
 -1       780-2.85110E-07 1.43106E-05-1.32349E-23
 -1       781-4.83768E-07 1.25844E-05-2.64698E-23
 -1       782-5.48369E-07 1.04992E-05 1.32349E-23
 -1       783-5.05556E-07 8.12614E-06 0.00000E+00
 -1       784-3.82118E-07 5.53706E-06-1.32349E-23
 -1       785-2.04943E-07 2.80409E-06 0.00000E+00
 -1       786 5.65361E-05 3.03305E-07-4.13590E-25
 -1       787 5.65826E-05 3.02189E-07 0.00000E+00
 -1       788 5.66290E-05 3.03776E-07-1.65436E-24
 -1       789 5.66759E-05 3.08395E-07 0.00000E+00
 -1       790 5.67228E-05 3.16697E-07 0.00000E+00
 -1       791 5.67697E-05 3.29342E-07 0.00000E+00
 -1       792 5.68167E-05 3.47457E-07 0.00000E+00
 -1       793 5.68638E-05 3.72179E-07 0.00000E+00
 -1       794 5.69108E-05 4.05358E-07 1.65436E-24
 -1       795 5.69578E-05 4.48857E-07-8.27181E-25
 -1       796 5.70048E-05 5.05652E-07-1.65436E-24
 -1       797 5.70518E-05 5.78744E-07-8.27181E-25
 -1       798 5.70988E-05 6.72885E-07 0.00000E+00
 -1       799 5.71457E-05 7.92871E-07 0.00000E+00
 -1       800 5.71925E-05 9.46277E-07 8.27181E-25
 -1       801 5.26762E-05 3.09696E-07 4.13590E-25
 -1       802 4.13177E-05 2.57837E-07 4.13590E-25
 -1       803 2.63959E-05 1.63194E-07 3.30872E-24
 -1       804 1.18881E-05 6.90285E-08-3.30872E-24
 -1       805 1.76414E-06 2.55069E-08 1.32349E-23
 -1       806 5.64359E-05 2.71023E-07-1.65436E-24
 -1       807 5.63773E-05 2.35394E-07-8.27181E-25
 -1       808 5.63168E-05 2.03570E-07-1.65436E-24
 -1       809 5.62534E-05 1.78651E-07 0.00000E+00
 -1       810 5.61863E-05 1.63729E-07-1.65436E-24
 -1       811 5.61141E-05 1.61852E-07 0.00000E+00
 -1       812 5.60360E-05 1.76063E-07 0.00000E+00
 -1       813 5.59507E-05 2.09399E-07 0.00000E+00
 -1       814 5.58570E-05 2.64895E-07-1.65436E-24
 -1       815 5.57539E-05 3.45584E-07 0.00000E+00
 -1       816 5.56402E-05 4.54496E-07 0.00000E+00
 -1       817 5.55149E-05 5.94662E-07 0.00000E+00
 -1       818 5.53766E-05 7.69111E-07-1.65436E-24
 -1       819 5.52245E-05 9.80859E-07 8.27181E-25
 -1       820 5.50575E-05 1.23292E-06-1.65436E-24
 -1       821 5.71721E-05 1.36716E-06 8.27181E-25
 -1       822 5.71014E-05 1.61676E-06 0.00000E+00
 -1       823 5.70309E-05 1.90838E-06-1.65436E-24
 -1       824 5.69597E-05 2.26072E-06 8.27181E-25
 -1       825 5.68883E-05 2.68339E-06 0.00000E+00
 -1       826 5.68168E-05 3.18577E-06 0.00000E+00
 -1       827 5.67453E-05 3.76530E-06 1.65436E-24
 -1       828 5.66737E-05 4.41919E-06 0.00000E+00
 -1       829 5.66020E-05 5.13350E-06 0.00000E+00
 -1       830 5.65303E-05 5.89409E-06 8.27181E-25
 -1       831 5.64586E-05 6.67990E-06 0.00000E+00
 -1       832 5.63871E-05 7.46980E-06-8.27181E-25
 -1       833 5.63156E-05 8.24201E-06 0.00000E+00
 -1       834 5.62450E-05 8.97485E-06 0.00000E+00
 -1       835 5.61741E-05 9.65249E-06-8.27181E-25
 -1       836 5.69530E-05 1.20525E-06-1.65436E-24
 -1       837 5.65821E-05 1.27119E-06 8.27181E-25
 -1       838 5.61573E-05 1.33700E-06 0.00000E+00
 -1       839 5.57102E-05 1.40240E-06 4.13590E-25
 -1       840 5.52723E-05 1.46769E-06 2.06795E-25
 -1       856 5.60871E-05 1.08722E-05 0.00000E+00
 -1       857 5.60646E-05 1.15630E-05 0.00000E+00
 -1       858 5.60421E-05 1.23193E-05 0.00000E+00
 -1       859 5.60191E-05 1.31288E-05-2.06795E-25
 -1       860 5.59961E-05 1.39792E-05 0.00000E+00
 -1       861 5.59730E-05 1.48579E-05 0.00000E+00
 -1       862 5.59499E-05 1.57527E-05 8.27181E-25
 -1       863 5.59267E-05 1.66509E-05 4.13590E-25
 -1       864 5.59035E-05 1.75403E-05 0.00000E+00
 -1       865 5.58804E-05 1.84082E-05 0.00000E+00
 -1       866 5.58573E-05 1.92423E-05-8.27181E-25
 -1       867 5.58342E-05 2.00303E-05 0.00000E+00
 -1       868 5.58112E-05 2.07596E-05 0.00000E+00
 -1       869 5.57881E-05 2.14181E-05-4.13590E-25
 -1       870 5.57651E-05 2.19934E-05 0.00000E+00
 -1       871 5.56408E-05 1.02587E-05 0.00000E+00
 -1       872 5.52488E-05 1.02565E-05 0.00000E+00
 -1       873 5.48995E-05 1.02541E-05 0.00000E+00
 -1       874 5.45602E-05 1.02513E-05 0.00000E+00
 -1       875 5.41985E-05 1.02481E-05-6.20385E-25
 -1       876 5.59455E-05 1.08787E-05 1.65436E-24
 -1       877 5.57710E-05 1.15359E-05 0.00000E+00
 -1       878 5.55841E-05 1.22264E-05 0.00000E+00
 -1       879 5.53865E-05 1.29460E-05-8.27181E-25
 -1       880 5.51796E-05 1.36902E-05 0.00000E+00
 -1       881 5.49651E-05 1.44550E-05 8.27181E-25
 -1       882 5.47445E-05 1.52359E-05 0.00000E+00
 -1       883 5.45194E-05 1.60288E-05 0.00000E+00
 -1       884 5.42914E-05 1.68293E-05 0.00000E+00
 -1       885 5.40621E-05 1.76333E-05 0.00000E+00
 -1       886 5.38331E-05 1.84364E-05 1.65436E-24
 -1       887 5.36060E-05 1.92345E-05 0.00000E+00
 -1       888 5.33822E-05 2.00232E-05-1.65436E-24
 -1       889 5.31632E-05 2.07981E-05 0.00000E+00
 -1       890 5.29507E-05 2.15552E-05 0.00000E+00
 -1       891 5.53270E-05 2.24425E-05 0.00000E+00
 -1       892 5.48986E-05 2.24115E-05-4.13590E-25
 -1       893 5.44414E-05 2.23806E-05 4.13590E-25
 -1       894 5.39399E-05 2.23497E-05-2.06795E-25
 -1       895 5.33789E-05 2.23189E-05 6.20385E-25
 -1       956 5.48081E-05 1.91197E-06-8.27181E-25
 -1       957 5.47400E-05 2.33952E-06 0.00000E+00
 -1       958 5.46716E-05 2.80635E-06 0.00000E+00
 -1       959 5.46032E-05 3.30764E-06-8.27181E-25
 -1       960 5.45346E-05 3.83856E-06 1.65436E-24
 -1       961 5.44660E-05 4.39424E-06 0.00000E+00
 -1       962 5.43975E-05 4.96983E-06 1.65436E-24
 -1       963 5.43289E-05 5.56045E-06-8.27181E-25
 -1       964 5.42603E-05 6.16124E-06 0.00000E+00
 -1       965 5.41916E-05 6.76733E-06 0.00000E+00
 -1       966 5.41230E-05 7.37386E-06 1.65436E-24
 -1       967 5.40545E-05 7.97596E-06 8.27181E-25
 -1       968 5.39859E-05 8.56875E-06-1.65436E-24
 -1       969 5.39175E-05 9.14740E-06 0.00000E+00
 -1       970 5.38493E-05 9.70705E-06-1.65436E-24
 -1       971 5.37180E-05 1.07936E-05-1.65436E-24
 -1       972 5.36530E-05 1.14020E-05 0.00000E+00
 -1       973 5.35879E-05 1.20618E-05 0.00000E+00
 -1       974 5.35227E-05 1.27663E-05 0.00000E+00
 -1       975 5.34574E-05 1.35089E-05 1.65436E-24
 -1       976 5.33921E-05 1.42830E-05 0.00000E+00
 -1       977 5.33267E-05 1.50818E-05 1.65436E-24
 -1       978 5.32613E-05 1.58989E-05 0.00000E+00
 -1       979 5.31960E-05 1.67274E-05 1.65436E-24
 -1       980 5.31306E-05 1.75607E-05 8.27181E-25
 -1       981 5.30653E-05 1.83922E-05 0.00000E+00
 -1       982 5.30000E-05 1.92151E-05-8.27181E-25
 -1       983 5.29348E-05 2.00229E-05 0.00000E+00
 -1       984 5.28699E-05 2.08089E-05 0.00000E+00
 -1       985 5.28053E-05 2.15664E-05 0.00000E+00
 -3
    1PSTEP                         6           3           1          
  100CL  103 3.75000E-01         409                     0    3           1
 -4  STRESS      6    1
 -5  SXX         1    4    1    1
 -5  SYY         1    4    2    2
 -5  SZZ         1    4    3    3
 -5  SXY         1    4    1    2
 -5  SYZ         1    4    2    3
 -5  SZX         1    4    3    1
 -1         1-1.29410E+06-5.95024E+05-2.63785E+05-8.37618E+05 1.52795E-10-2.66300E-09
 -1         2 2.17682E+03 2.48961E+05 7.11875E+03 6.00544E+02-1.31621E-10-7.53397E-09
 -1         3-4.73380E+01-5.44091E+05 1.26365E+02-1.49852E+02-1.25713E-10-7.64066E-09
 -1         5-4.46818E+00 1.97034E+05 1.06756E+01-1.96188E+00 1.73532E-10-8.56107E-09
 -1         8-6.09137E+05-2.65455E+05-2.05310E+04-4.62460E+05 2.87400E-10-9.85892E-10
 -1         9-1.04586E+06-2.67898E+05-1.03160E+05-3.59562E+05 2.71102E-09 3.15486E-09
 -1        10-4.22882E+02-5.66829E+05-7.29022E+02-1.00609E+03-2.53976E-09-8.57740E-09
 -1        12-6.56385E-01 1.96058E+05 1.66933E+02-8.36313E-01 8.64020E-12 4.91681E-10
 -1        15 1.61341E+03 8.86659E+02 5.21533E+03 2.73775E+00-3.09740E-10-7.98951E-08
 -1        16-2.94996E+06-9.47533E+05-4.58764E+05-9.62435E+05 8.68264E-09-2.46412E-09
 -1        17-6.51330E+05-4.00028E+05-1.25443E+05-3.76220E+05-4.23315E-09 2.74740E-09
 -1        18 2.11521E+04 1.68612E+03-9.67992E+03-4.59623E+04 5.70367E-10-1.96064E-09
 -1        19 6.11033E+04 7.28828E+04-3.40448E+02 1.19610E+04-4.63297E-10-1.86046E-09
 -1        20-2.53911E+04-2.88760E+05-6.36806E+04 2.13908E+04 2.53385E-09 4.43197E-09
 -1        21-2.73102E+01-1.67440E+05-5.40841E+02-4.96451E+01-6.99588E-09-3.83775E-09
 -1        24-2.59865E+06-8.91580E+05-3.70287E+05-1.08617E+06-1.24540E-08-6.17001E-09
 -1        25 2.36978E+04-3.69594E+02 1.42811E+04-8.30759E+04 3.00406E-10 3.52120E-09
 -1        26-1.41134E+04 4.98131E+04-9.86406E+03-7.14037E+03 1.26856E-09 2.16493E-09
 -1        27-4.62432E+04-1.58441E+05-5.94406E+04 3.57034E+04 4.53557E-09-1.97664E-09
 -1        28 1.29508E+04-4.62501E+04 9.45467E+03 1.48350E+04 7.99488E-10-1.00062E-09
 -1        32-6.15414E+05-8.28514E+04 2.68812E+05-4.17156E+05-1.26092E-08 1.06929E-08
 -1        33-9.05960E+04 4.66123E+04 1.65218E+04-2.70906E+04 8.90301E-10 2.97086E-09
 -1        34-1.17645E+05-1.17087E+04 2.76965E+02 3.61680E+04 3.40392E-09-3.95691E-09
 -1        35-1.31731E+04-1.83889E+04-7.18690E+02 2.91646E+04 2.89719E-09-2.07365E-09
 -1        51 1.13958E+04-3.03367E+05 2.87808E+04-7.55953E+05 1.74623E-10 9.54606E-09
 -1        52 6.55573E+03-3.01766E+05 1.92401E+04-8.81689E+05 5.60249E-10 2.25555E-10
 -1        53 4.64424E+03-3.10517E+05 1.68557E+04-7.53357E+05 5.89353E-10 2.02272E-09
 -1        54 1.39774E+04-3.08610E+05 2.74776E+04-8.84422E+05-8.00355E-11 1.00044E-09
 -1        55 2.93081E+04-3.18878E+05 4.94452E+04-7.52983E+05 3.41970E-10 7.92352E-09
 -1        56-2.48525E+06-2.80617E+05-1.94308E+05-9.58137E+05 8.73115E-10-9.05857E-09
 -1        57-2.56231E+06-4.57355E+05-1.30966E+05-9.51767E+05-9.84073E-10-2.31012E-10
 -1        58-2.52440E+06-3.42027E+05-4.57316E+04-9.45799E+05-2.51021E-10 1.60435E-09
 -1        59-2.51698E+06-3.85376E+05-2.72998E+04-9.66600E+05 3.06954E-10-3.78350E-09
 -1        60-2.53020E+06-3.50512E+05-1.06844E+04-9.44044E+05-1.25874E-09 7.56427E-09
 -1        61-2.51101E+06-3.74675E+05-6.07421E+03-9.67747E+05 3.64082E-10 2.07092E-09
 -1        62-2.53028E+06-3.52470E+05-2.93090E+03-9.44725E+05-4.86580E-10 4.50746E-09
 -1        63-2.51247E+06-3.71030E+05-2.40184E+03-9.65114E+05-8.69591E-10-2.50805E-09
 -1        64-2.52866E+06-3.54169E+05-2.77712E+03-9.46640E+05-4.40195E-10-8.17226E-09
 -1        65-2.51708E+06-3.68114E+05-5.53159E+03-9.60263E+05-4.72937E-11-1.02710E-08
 -1        66-2.52560E+06-3.55462E+05-9.76828E+03-9.49514E+05 2.39879E-10-6.21412E-09
 -1        67-2.52789E+06-3.72319E+05-2.47534E+04-9.52864E+05 8.54357E-11-6.25732E-09
 -1        68-2.51787E+06-3.50238E+05-4.15824E+04-9.53927E+05 7.79437E-10 3.02498E-09
 -1        69-2.57323E+06-4.33584E+05-1.18897E+05-9.34803E+05 1.08821E-09 3.22507E-09
 -1        70-2.48067E+06-2.96059E+05-1.76495E+05-9.66928E+05-2.00089E-10-1.09139E-09
 -1        86-1.09243E+03 2.46723E+05 7.61745E+03-3.00290E+02 9.37462E-10 1.31877E-09
 -1        87 7.24851E+03 2.51449E+05 1.59065E+04 1.23890E+03 1.57343E-09 7.86770E-09
 -1        88-6.15033E+03 2.44238E+05 2.43357E+04-9.38660E+02 2.37560E-09-3.06284E-09
 -1        89 4.58337E+04 2.69472E+05 6.56569E+04 2.68535E+03 3.61251E-09-6.48959E-09
 -1        90-3.95543E+04 2.28715E+05 9.27167E+04-1.74636E+03 4.14366E-09 5.55218E-09
 -1       121-7.87884E+01-5.44329E+05 1.13035E+02 7.48571E+01 2.81325E-10-6.40284E-10
 -1       122-5.70733E+00-5.44064E+05 2.75123E+02-2.99765E+02-1.01361E-09 2.59615E-09
 -1       123-1.08519E+02-5.44359E+05 4.38297E+02 2.24500E+02 7.87736E-10 6.90034E-09
 -1       124 5.01628E+02-5.43755E+05 1.15189E+03-6.94457E+02-2.00384E-09-2.60934E-09
 -1       125-4.37260E+02-5.44646E+05 1.75948E+03 4.69461E+02 1.31558E-09 1.50976E-09
 -1       191-4.76398E+00 1.97050E+05 1.28988E+01 9.80461E-01-8.03766E-11-6.35237E-09
 -1       192-3.15874E+00 1.97035E+05 2.31581E+01-9.11523E+00-9.78844E-11-4.39468E-09
 -1       193-3.89917E-01 1.97049E+05 4.36140E+01 8.13256E+00-3.01725E-10-3.39787E-09
 -1       194 1.81742E+01 1.97044E+05 9.32131E+01-7.15603E+01-2.72507E-10-6.14796E-09
 -1       195 6.25747E+01 1.97040E+05 1.86376E+02 6.34411E+01-5.03860E-10-2.17915E-09
 -1       251 2.22935E+05-3.84163E+04 8.96915E+04 3.80960E+03-5.71958E-10-1.05829E-08
 -1       252 2.63865E+05 4.44437E+04 6.36457E+04-1.21779E+04 6.72742E-11-3.92538E-09
 -1       253 2.38423E+05-5.94728E+03 2.32132E+04 2.57306E+03-8.01947E-10-2.79579E-09
 -1       254 2.45611E+05 6.87053E+03 1.46800E+04-1.02316E+04 2.10889E-10-9.71909E-09
 -1       255 2.41111E+05-9.18373E+02 5.99804E+03 1.86347E+03-5.31003E-10-6.84850E-10
 -1       256 2.42393E+05 1.09067E+03 3.64806E+03-9.18554E+03 5.46322E-10 3.55271E-09
 -1       257 2.41607E+05-1.60439E+02 1.87703E+03 1.52696E+03-3.94053E-10 3.68169E-09
 -1       258 2.41888E+05 3.41140E+02 1.66324E+03-8.84588E+03 1.93567E-10-4.70594E-09
 -1       259 2.41606E+05-1.63505E+02 1.90601E+03 1.52383E+03-2.91493E-10-1.24970E-09
 -1       260 2.42403E+05 1.11758E+03 3.73032E+03-9.17362E+03 4.04171E-10-1.56842E-09
 -1       261 2.41102E+05-9.41872E+02 6.14860E+03 1.85469E+03 3.91907E-10-1.46952E-09
 -1       262 2.45689E+05 7.04783E+03 1.50511E+04-1.02057E+04 1.16501E-10 2.67391E-09
 -1       263 2.38354E+05-6.09991E+03 2.38125E+04 2.55591E+03-3.39980E-10 1.11049E-09
 -1       264 2.64381E+05 4.55866E+04 6.52720E+04-1.21359E+04-1.74268E-09 7.96717E-09
 -1       265 2.22487E+05-3.94009E+04 9.20077E+04 3.78471E+03-1.13562E-09 2.28829E-09
 -1       266-2.92077E+04-1.36566E+04 6.85337E+04-5.85826E+01-5.23869E-10-1.27695E-07
 -1       267 3.38602E+04 1.59184E+04 4.84365E+04 6.75887E+01-9.36780E-10-2.60625E-07
 -1       268-4.54058E+03-2.25442E+03 1.80038E+04-8.61220E+00-8.02174E-10-2.13028E-07
 -1       269 5.36111E+03 2.69814E+03 1.17020E+04 1.00317E+01-6.04473E-10-1.60686E-07
 -1       270-8.04709E+02-4.43323E+02 5.64874E+03-1.36138E+00-4.45198E-10-1.21476E-07
 -1       271-2.87141E+06-3.58327E+05-2.21133E+05-1.11876E+06-6.45741E-10 2.18279E-10
 -1       272-2.93425E+06-5.35965E+05-1.42147E+05-1.13547E+06-4.16776E-10 6.41012E-09
 -1       273-2.91388E+06-4.12510E+05-5.22365E+04-1.10794E+06-1.45974E-10 4.94765E-10
 -1       274-2.88451E+06-4.69712E+05-2.92243E+04-1.15228E+06-6.62112E-10 3.33966E-09
 -1       275-2.92068E+06-4.17111E+05-1.21507E+04-1.10505E+06 9.16771E-10 3.46245E-09
 -1       276-2.87645E+06-4.64387E+05-6.45150E+03-1.15698E+06-2.15050E-09-8.55152E-10
 -1       277-2.92233E+06-4.16792E+05-3.15615E+03-1.10386E+06-1.29148E-10 2.71837E-09
 -1       278-2.87490E+06-4.64553E+05-2.29388E+03-1.15841E+06 3.62689E-10 5.64455E-09
 -1       279-2.92242E+06-4.16755E+05-2.46220E+03-1.10379E+06-2.71257E-10-9.62928E-10
 -1       280-2.87598E+06-4.64283E+05-4.51078E+03-1.15732E+06-1.52727E-09-9.38826E-10
 -1       281-2.92110E+06-4.17202E+05-8.26603E+03-1.10482E+06-4.06544E-10 1.17780E-09
 -1       282-2.88201E+06-4.67161E+05-1.97157E+04-1.15324E+06 1.08685E-10 5.39194E-09
 -1       283-2.91600E+06-4.14668E+05-3.52373E+04-1.10735E+06 1.26147E-09-3.15958E-09
 -1       284-2.91663E+06-5.10492E+05-9.57405E+04-1.14028E+06-3.34694E-10-8.63656E-09
 -1       285-2.88659E+06-3.79048E+05-1.49078E+05-1.11554E+06 2.45564E-11 2.09548E-09
 -1       301 1.10309E+04-6.67151E+03 8.58581E+04-2.13693E+04-4.36557E-10 6.14966E-09
 -1       302 1.18644E+04 1.51017E+04 6.20652E+04-3.14668E+04 1.57161E-09 2.40789E-09
 -1       303 5.46684E+02 1.03006E+03 5.72392E+04-2.14270E+04-8.37645E-10-3.78259E-09
 -1       304 2.24233E+04 2.48476E+04 9.63984E+04-3.13757E+04 1.04774E-09 1.52500E-09
 -1       305 2.22151E+04-1.63470E+04 1.61846E+05-2.13921E+04-6.54836E-10-1.07775E-10
 -1       306-3.08215E+06-3.56916E+05-2.35198E+05-1.20548E+06 2.45927E-09-7.90169E-09
 -1       307-3.20437E+06-5.54489E+05-1.60337E+05-1.16325E+06 4.15184E-09-1.14960E-09
 -1       308-3.13711E+06-4.28536E+05-5.53574E+04-1.18172E+06 8.61291E-10 4.70391E-09
 -1       309-3.13537E+06-4.76594E+05-3.34749E+04-1.19744E+06-1.89740E-09 1.56433E-10
 -1       310-3.15084E+06-4.33373E+05-1.29980E+04-1.17179E+06 2.78106E-10-3.19778E-09
 -1       311-3.11737E+06-4.73322E+05-7.51016E+03-1.21195E+06 4.65343E-09-5.25722E-09
 -1       312-3.15523E+06-4.31476E+05-3.67577E+03-1.16741E+06 7.57240E-10 5.25495E-09
 -1       313-3.11384E+06-4.74331E+05-3.31049E+03-1.21541E+06-2.14061E-09 9.56391E-09
 -1       314-3.15443E+06-4.32294E+05-3.99250E+03-1.16839E+06-1.21611E-09-7.34485E-09
 -1       315-3.12044E+06-4.70546E+05-8.37771E+03-1.20826E+06 5.97993E-10-5.64000E-10
 -1       316-3.14851E+06-4.35385E+05-1.46927E+04-1.17444E+06 7.70115E-10 3.65890E-09
 -1       317-3.14175E+06-4.73474E+05-3.78668E+04-1.19102E+06-1.76556E-09 5.07453E-09
 -1       318-3.13302E+06-4.29715E+05-6.26400E+04-1.18544E+06-3.55431E-09 4.45289E-09
 -1       319-3.21877E+06-5.63044E+05-1.81536E+05-1.15407E+06-2.09184E-09-2.20643E-09
 -1       320-3.07191E+06-3.47374E+05-2.66149E+05-1.21089E+06 6.43195E-09-6.44650E-09
 -1       336 4.10373E+02-5.89270E+05-3.15402E+03 5.35738E+02-5.24392E-09-6.48743E-09
 -1       337-1.14206E+03-5.90104E+05-3.45585E+03-1.40488E+03-9.75285E-09-2.87628E-09
 -1       338 2.68963E+02-5.89360E+05-4.37156E+03 8.66570E+02-6.83349E-09-3.89082E-09
 -1       339-4.52080E+03-5.92184E+05-9.56578E+03-2.05935E+03-1.23393E-08 3.42698E-09
 -1       340 3.06205E+03-5.87224E+05-1.47509E+04 1.18609E+03-8.29141E-09 9.17225E-09
 -1       406-6.07371E+01 1.95077E+05 2.21987E+02-6.25821E+01 3.18323E-10 5.05952E-09
 -1       407 8.70109E+01 1.95122E+05 6.43974E+02 6.38732E+01-4.54747E-13-1.80921E-09
 -1       408 3.49671E+02 1.95021E+05 1.36617E+03-1.19217E+00 4.71687E-10-9.52696E-10
 -1       409 1.49756E+03 1.95573E+05 3.11574E+03-5.85441E+01-2.56932E-11-5.95719E-11
 -1       410 4.31209E+03 1.94625E+05 6.37854E+03 6.17520E+01 5.60249E-10 2.32649E-09
 -1       521-5.83614E+06-6.74141E+05-4.37394E+05-2.27027E+06 4.38013E-09-7.36327E-09
 -1       522-6.03930E+06-1.05637E+06-2.96840E+05-2.21682E+06-2.51930E-09-2.33922E-09
 -1       523-5.94539E+06-7.97115E+05-1.02877E+05-2.21722E+06 1.14233E-09-4.72937E-10
 -1       524-5.90362E+06-9.22691E+05-6.18335E+04-2.29127E+06 1.91824E-09 1.77170E-09
 -1       525-5.97141E+06-8.04098E+05-2.39418E+04-2.19728E+06 6.76664E-10-1.14051E-09
 -1       526-5.87729E+06-9.10368E+05-1.37786E+04-2.31030E+06 2.57995E-09-9.87143E-10
 -1       527-5.97191E+06-8.08674E+05-6.67731E+03-2.19860E+06 2.46200E-09 2.56813E-09
 -1       528-5.89149E+06-8.89587E+05-5.42690E+03-2.28951E+06 1.94404E-09 1.93938E-09
 -1       529-5.95653E+06-8.25264E+05-6.98345E+03-2.21761E+06 8.43102E-10-9.34051E-10
 -1       530-5.93156E+06-8.52810E+05-1.32032E+04-2.24246E+06-6.53472E-10 2.47837E-11
 -1       531-5.93120E+06-8.45977E+05-2.42259E+04-2.24513E+06-1.49112E-09 3.09046E-09
 -1       532-5.99137E+06-8.33449E+05-6.12093E+04-2.18895E+06-1.70141E-09-1.13596E-08
 -1       533-5.89737E+06-8.44806E+05-1.01950E+05-2.27132E+06 1.01500E-09-8.04721E-09
 -1       534-6.12100E+06-9.75241E+05-2.95091E+05-2.12812E+06-1.73713E-10 8.06176E-09
 -1       535-5.80360E+06-7.06762E+05-4.33648E+05-2.30570E+06-7.54517E-09 8.26549E-09
 -1       536-2.08547E+04-1.60197E+04 3.68717E+04 2.92415E+02-1.32979E-09 6.40284E-10
 -1       537-3.57895E+03 1.85346E+04 2.63068E+04-1.33654E+03-6.71690E-09-1.16370E-09
 -1       538-1.45168E+04-2.51126E+03 9.50291E+03 3.02168E+02-3.42865E-10 2.20598E-09
 -1       539-1.10749E+04 2.89768E+03 6.09333E+03-1.38472E+03 1.79111E-09 4.25473E-09
 -1       540-1.33680E+04-3.90918E+02 2.39411E+03 3.40590E+02 4.51863E-10 3.34671E-09
 -1       541-1.24995E+04 4.46236E+02 1.44384E+03-1.45296E+03 7.14039E-10 8.73086E-10
 -1       542-1.30981E+04-5.75089E+01 5.68905E+02 3.70389E+02 1.65542E-10 2.55545E-09
 -1       543-1.28679E+04 5.33753E+01 2.86586E+02-1.50025E+03-2.71044E-10-2.14721E-09
 -1       544-1.30037E+04 4.57813E+00 2.76349E+01 3.87887E+02-2.63366E-10-6.42402E-10
 -1       545-1.30198E+04-8.16724E+01-2.00932E+02-1.52242E+03-1.08567E-10 1.36543E-09
 -1       546-1.29481E+04 7.88423E+01-4.51541E+02 3.92556E+02 1.07452E-11-2.22326E-09
 -1       547-1.32524E+04-5.81603E+02-1.18455E+03-1.51876E+03-1.73137E-09-8.71083E-09
 -1       548-1.27708E+04 5.03907E+02-1.92187E+03 3.84232E+02-1.91731E-09 2.99724E-09
 -1       549-1.45973E+04-3.71369E+03-5.23347E+03-1.48782E+03-9.92642E-10 6.39147E-09
 -1       550-1.16006E+04 3.20663E+03-7.46226E+03 3.61608E+02-1.28608E-10-7.32143E-10
 -1       551 5.73201E+03-3.08986E+05 1.69887E+04-5.29888E+05-2.33958E-08 1.89902E-09
 -1       552 1.20524E+04-3.09753E+05 2.22737E+04-7.54112E+05-1.81244E-08 8.98217E-09
 -1       553 7.90842E+03-3.13808E+05 3.47374E+04-5.28169E+05-2.84344E-08 6.17729E-09
 -1       554 2.92968E+04-2.98972E+05 7.38195E+04-7.54836E+05-1.80444E-08 1.94086E-09
 -1       555 2.92978E+04-3.27888E+05 1.32641E+05-5.28859E+05-2.80488E-08-4.17640E-09
 -1       556 4.38843E+04-9.91760E+04 3.41492E+04-1.31867E+05-6.46833E-09-5.17321E-09
 -1       557 8.40975E+04-1.32826E+05 1.78939E+04-1.64813E+05-3.02316E-09-7.20775E-10
 -1       558 4.41450E+04-1.03956E+05 7.29809E+03-1.27730E+05-5.23869E-09 9.78434E-09
 -1       559 7.91012E+04-1.37634E+05 3.68388E+03-1.66911E+05-2.15005E-09 6.23459E-09
 -1       560 4.32554E+04-1.03352E+05 1.55559E+03-1.28261E+05-7.45058E-09 1.56251E-09
 -1       561 7.76087E+04-1.37318E+05 8.12200E+02-1.67847E+05-5.65342E-09 5.10408E-09
 -1       562 4.25173E+04-1.02846E+05 3.22567E+02-1.28796E+05-4.59477E-09 5.27825E-09
 -1       563 7.67310E+04-1.36943E+05 1.92092E+02-1.68408E+05-2.15186E-09 2.55568E-09
 -1       564 4.20589E+04-1.02547E+05 6.99700E+01-1.29124E+05-1.36060E-09-9.31686E-09
 -1       565 7.62800E+04-1.36752E+05 3.70472E+01-1.68690E+05 4.47471E-10 3.61979E-10
 -1       566 4.19009E+04-1.02440E+05-2.19479E+01-1.29239E+05-1.57797E-09-2.96859E-09
 -1       567 7.62224E+04-1.36723E+05-9.54238E+01-1.68677E+05 3.59614E-09 2.62571E-09
 -1       568 4.20692E+04-1.02552E+05-2.56973E+02-1.29168E+05-1.37879E-09 6.09361E-10
 -1       569 7.60533E+04-1.36608E+05-6.03914E+02-1.67935E+05-8.14907E-10 1.32750E-08
 -1       570 4.29783E+04-1.03417E+05-1.25936E+03-1.29210E+05 1.09139E-10-7.18501E-10
 -1       571 1.41420E+05 5.12557E+03 7.59416E+03-3.56210E+04-1.25056E-10 5.88716E-09
 -1       572 1.42551E+05 1.78253E+03 3.72049E+03-3.90467E+04 1.72349E-10 4.09727E-10
 -1       573 1.41876E+05 4.24675E+02 1.65277E+03-3.55279E+04 1.21418E-10 2.04409E-09
 -1       574 1.42011E+05 1.37570E+02 8.27973E+02-3.91509E+04-4.80668E-10-4.75166E-09
 -1       575 1.41928E+05 1.83226E+01 3.90187E+02-3.55156E+04 8.10815E-10 2.29193E-10
 -1       576 1.41938E+05 4.44540E+00 1.98538E+02-3.91648E+04 5.49392E-11-2.63390E-09
 -1       577 1.41936E+05-3.44875E+00 9.77363E+01-3.55139E+04 8.95398E-10-2.71393E-09
 -1       578 1.41930E+05-1.87427E+00 5.31673E+01-3.91665E+04-4.46221E-10-2.92721E-09
 -1       579 1.41943E+05-4.09288E+00 3.23801E+01-3.55139E+04-1.35196E-09 1.51294E-09
 -1       580 1.41938E+05-4.92267E+00 2.99543E+01-3.91643E+04-6.09361E-10 7.83075E-10
 -1       581 1.41954E+05-7.69789E+00 4.04456E+01-3.55161E+04-4.48381E-10 1.86674E-10
 -1       582 1.41961E+05-1.27928E+00 7.67924E+01-3.91431E+04-1.60526E-10-1.81353E-09
 -1       583 1.41968E+05 1.85108E+01 1.47385E+02-3.55351E+04 1.09230E-09-4.73949E-09
 -1       584 1.42032E+05 1.33842E+02 3.30248E+02-3.89845E+04-7.41693E-10-1.99680E-09
 -1       585 1.41948E+05 4.25735E+02 6.70915E+02-3.56749E+04-5.18412E-11-1.52431E-09
 -1       586-1.74237E+03 4.62077E+04-2.30816E+03-1.21087E+05 4.11092E-10-3.20802E-09
 -1       587-3.79057E+02 4.58985E+04-2.73640E+02-1.33246E+05 6.53017E-10-1.58229E-09
 -1       588 4.76877E+02 4.59595E+04 1.60345E+03-1.21013E+05 4.08363E-10 1.08785E-08
 -1       589 2.39556E+03 4.68383E+04 4.69176E+03-1.33136E+05 5.90262E-10 1.47670E-08
 -1       590 6.88731E+03 4.53790E+04 1.00552E+04-1.21198E+05 2.79215E-10 1.38334E-08
 -1       591-3.08862E+04-8.85219E+03-1.02811E+04-1.60274E+04 3.53759E-09-3.84352E-09
 -1       592-3.18477E+04-1.13784E+04-5.56868E+03-1.87100E+04 3.58801E-09-4.53974E-09
 -1       593-3.19256E+04-8.09467E+03-2.31829E+03-1.67697E+04 4.06772E-09-2.16755E-09
 -1       594-3.04148E+04-9.88422E+03-1.15625E+03-1.87812E+04 2.78101E-09-6.07088E-10
 -1       595-3.20051E+04-8.09129E+03-5.31370E+02-1.68037E+04 1.87174E-09 5.56349E-09
 -1       596-3.03177E+04-9.81580E+03-2.70869E+02-1.87710E+04 2.42926E-09 9.69558E-09
 -1       597-3.20152E+04-8.09789E+03-1.49104E+02-1.68050E+04 4.94605E-10 5.71910E-09
 -1       598-3.03085E+04-9.81318E+03-1.22809E+02-1.87682E+04 5.30292E-10-3.99552E-10
 -1       599-3.20145E+04-8.09787E+03-1.60532E+02-1.68048E+04 4.71346E-10-4.43777E-09
 -1       600-3.03190E+04-9.81664E+03-3.01182E+02-1.87709E+04-5.98675E-10-3.71506E-09
 -1       601-3.20020E+04-8.09061E+03-5.95659E+02-1.68028E+04 3.34353E-10-3.26020E-09
 -1       602-3.04281E+04-9.89334E+03-1.29907E+03-1.87812E+04 7.85803E-10-6.34202E-10
 -1       603-3.19118E+04-8.09557E+03-2.60554E+03-1.67649E+04 2.81034E-10 3.00383E-09
 -1       604-3.20440E+04-1.15669E+04-6.25906E+03-1.86937E+04-3.18323E-11 6.85759E-10
 -1       605-3.07368E+04-8.95191E+03-1.15555E+04-1.59363E+04 4.08704E-10 2.64663E-10
 -1       606 2.02186E+04-6.80935E+03-1.22653E+04 1.97665E+04 5.61613E-09-2.38879E-09
 -1       607 1.81181E+04-2.19616E+03-6.10757E+03 2.21889E+04 1.70294E-08-8.03550E-09
 -1       608 1.93133E+04-3.69393E+02-2.73472E+03 1.96088E+04 1.23309E-08 5.63841E-09
 -1       609 1.90770E+04-9.68313E+01-1.38138E+03 2.23631E+04 2.07365E-09 6.76732E-09
 -1       610 1.92065E+04 1.70201E+01-6.59605E+02 1.95912E+04-1.19599E-09-9.07676E-10
 -1       611 1.91629E+04 2.44354E+01-3.32786E+02 2.23822E+04-4.90627E-09-1.84900E-09
 -1       612 1.91800E+04 2.61434E+01-1.59111E+02 1.95894E+04-3.42152E-09-6.40739E-10
 -1       613 1.91641E+04 2.88001E+01-7.26283E+01 2.23845E+04-5.19731E-09 5.25984E-09
 -1       614 1.91662E+04 2.52606E+01-2.02878E+01 1.95888E+04 1.23373E-09 1.44587E-09
 -1       615 1.91580E+04 3.14030E+01 2.24134E+01 2.23849E+04 5.46925E-09-2.02203E-09
 -1       616 1.91557E+04 2.82609E+01 7.46417E+01 1.95890E+04-1.89175E-09-1.09821E-09
 -1       617 1.91642E+04 4.92528E+01 1.73128E+02 2.23845E+04-9.78616E-10-1.14119E-09
 -1       618 1.91384E+04 7.96604E+01 3.50047E+02 1.95891E+04-1.20099E-09 5.23346E-09
 -1       619 1.92860E+04 3.21217E+02 7.86762E+02 2.23840E+04 6.42899E-10 5.84373E-09
 -1       620 1.90209E+04 9.11273E+02 1.58158E+03 1.95885E+04 1.82888E-09 4.02906E-09
 -1       621 2.46743E+02 1.54051E+05 2.13446E+03 4.97101E+03-2.07933E-10 4.87398E-09
 -1       622 2.81899E+02 1.54580E+05 1.81012E+03 7.25814E+03-7.76481E-11 5.57361E-09
 -1       623 1.18313E+01 1.54204E+05 2.07974E+03 4.94762E+03-1.24260E-10 2.89185E-09
 -1       624 9.40443E+02 1.55185E+05 3.94763E+03 7.28103E+03-2.47610E-10-2.48662E-09
 -1       625 9.44158E+02 1.53444E+05 6.86198E+03 4.94834E+03-1.90084E-10-4.92972E-09
 -1       626 1.27025E+05 3.52363E+04 2.52963E+03 6.87300E+04-1.02273E-09-4.35284E-09
 -1       627 1.25281E+05 3.65217E+04 1.21868E+03 7.15124E+04-1.51886E-09-4.99904E-09
 -1       628 1.27123E+05 3.40379E+04 5.14918E+02 6.91120E+04 1.67711E-09-1.53477E-10
 -1       629 1.24918E+05 3.62339E+04 2.52283E+02 7.16811E+04 3.22188E-09 5.23795E-09
 -1       630 1.27131E+05 3.39801E+04 1.16750E+02 6.91232E+04 1.31968E-09-1.71968E-09
 -1       631 1.24875E+05 3.62269E+04 6.27457E+01 7.16841E+04-2.18392E-09-1.47091E-08
 -1       632 1.27126E+05 3.39838E+04 4.14913E+01 6.91184E+04-4.14457E-09-7.12257E-09
 -1       633 1.24867E+05 3.62302E+04 4.63533E+01 7.16801E+04-1.44246E-09 2.80679E-09
 -1       634 1.27120E+05 3.39840E+04 7.51179E+01 6.91156E+04-5.81167E-10-1.22296E-08
 -1       635 1.24871E+05 3.62312E+04 1.52360E+02 7.16801E+04 9.25411E-10 4.13661E-09
 -1       636 1.27112E+05 3.39833E+04 3.07802E+02 6.91135E+04-1.00687E-08-1.30863E-08
 -1       637 1.24933E+05 3.62802E+04 6.76535E+02 7.16769E+04-5.13388E-10 9.89075E-10
 -1       638 1.27085E+05 3.41344E+04 1.39051E+03 6.90436E+04 1.69393E-11 1.94177E-10
 -1       639 1.25660E+05 3.72979E+04 3.28958E+03 7.14602E+04-2.28977E-09 2.33467E-09
 -1       640 1.26986E+05 3.71631E+04 6.82690E+03 6.77574E+04 5.06543E-09 9.88223E-09
 -1       656 3.44459E+04-8.71798E+05-8.31639E+04-4.77344E+02 1.01863E-09 7.49282E-10
 -1       657-4.55147E+04-9.09352E+05-6.87753E+04 5.68837E+03 7.33053E-10 2.16788E-09
 -1       658 1.09205E+04-8.82514E+05-4.22042E+04-1.11637E+03 1.23282E-09 1.74919E-09
 -1       659-4.87935E+04-9.10899E+05-7.30816E+04 6.11072E+03-2.91038E-10 4.20464E-09
 -1       660 3.77162E+04-8.70254E+05-9.05758E+04-8.99680E+02-1.16415E-10-1.92360E-09
 -1       661 1.23862E+05 1.34678E+04 1.18739E+04 4.83768E+04 1.13641E-09 4.03634E-09
 -1       662 1.30027E+05 2.28010E+04 8.00100E+03 4.63349E+04 7.87281E-10-3.54169E-09
 -1       663 1.26187E+05 1.72841E+04 2.79882E+03 4.77083E+04-1.74083E-09-1.44394E-09
 -1       664 1.27339E+05 1.83319E+04 1.67326E+03 4.71455E+04-1.49024E-09-2.35138E-09
 -1       665 1.26533E+05 1.78115E+04 6.60082E+02 4.76135E+04-2.49514E-09-2.47954E-09
 -1       666 1.26934E+05 1.77234E+04 3.84853E+02 4.72653E+04-6.21645E-09-9.86269E-11
 -1       667 1.26589E+05 1.78767E+04 2.02921E+02 4.75945E+04-2.91324E-09-1.05945E-09
 -1       668 1.26876E+05 1.76694E+04 2.03162E+02 4.72914E+04 7.50056E-10-1.24984E-09
 -1       669 1.26590E+05 1.78640E+04 2.72222E+02 4.75879E+04-9.23706E-11 6.08551E-10
 -1       670 1.26949E+05 1.78095E+04 5.89983E+02 4.72865E+04 4.01281E-09-7.63578E-10
 -1       671 1.26517E+05 1.77395E+04 1.04673E+03 4.75982E+04-1.65705E-09 1.91250E-09
 -1       672 1.27563E+05 1.88237E+04 2.67730E+03 4.71347E+04-3.67513E-09 2.77873E-09
 -1       673 1.25980E+05 1.68754E+04 4.48650E+03 4.77300E+04-1.42199E-09-3.39605E-09
 -1       674 1.31838E+05 2.60273E+04 1.28307E+04 4.58748E+04 2.55022E-09-1.04949E-08
 -1       675 1.22269E+05 1.07374E+04 1.90444E+04 4.87822E+04 1.88857E-09-2.16460E-10
 -1       676 1.40367E+01-1.67395E+05-6.51850E+02 2.48232E+01 5.77757E-10-4.47322E-09
 -1       677-1.73016E+02-1.67553E+05-1.19293E+03-4.96328E+01 4.71019E-10-3.09794E-09
 -1       678 1.15538E+02-1.67283E+05-2.10877E+03 2.47925E+01-5.63659E-10-1.41196E-09
 -1       679-2.10908E+03-1.68826E+05-5.00924E+03-4.95044E+01-8.95682E-10-1.07790E-08
 -1       680 1.25865E+03-1.66123E+05-8.07327E+03 2.44100E+01 1.52568E-09-5.06946E-09
 -1       771-1.79985E+06-3.13599E+05-4.39274E+04-7.45318E+05-6.81393E-09-5.82077E-09
 -1       772-1.78878E+06-3.37424E+05-2.35827E+04-7.71856E+05-4.96220E-09 3.44789E-09
 -1       773-1.80575E+06-3.09030E+05-1.01583E+04-7.47777E+05-3.03407E-09 3.48518E-09
 -1       774-1.78241E+06-3.32188E+05-4.95066E+03-7.74374E+05 5.00950E-09-9.66793E-10
 -1       775-1.80703E+06-3.08224E+05-2.49489E+03-7.47932E+05 5.45697E-10 4.60386E-09
 -1       776-1.78225E+06-3.32193E+05-1.15213E+03-7.75663E+05-1.05865E-09 1.76442E-09
 -1       777-1.80790E+06-3.07610E+05-7.10781E+02-7.48000E+05 1.18598E-09 1.20599E-09
 -1       778-1.78246E+06-3.32363E+05-3.17019E+02-7.76730E+05 2.11730E-09 3.00906E-09
 -1       779-1.80857E+06-3.07087E+05-3.09979E+02-7.48060E+05-2.00453E-09-2.07820E-09
 -1       780-1.78269E+06-3.32510E+05-2.42286E+02-7.77594E+05-6.27551E-10-2.89219E-10
 -1       781-1.80908E+06-3.06667E+05-4.32237E+02-7.48103E+05-5.53337E-09-1.30467E-09
 -1       782-1.78292E+06-3.32656E+05-7.86572E+02-7.78229E+05-8.83574E-09-2.07729E-09
 -1       783-1.80938E+06-3.06394E+05-1.57424E+03-7.48116E+05-5.44969E-09-7.83371E-09
 -1       784-1.78398E+06-3.33724E+05-3.72882E+03-7.78574E+05-4.15275E-09 3.24803E-10
 -1       785-1.80887E+06-3.06750E+05-6.89475E+03-7.47628E+05-6.86396E-09 7.66704E-10
 -1       786 1.31326E+05-7.00243E+03 1.61997E+04 3.20866E-01 1.83753E-07 3.93538E-09
 -1       787 1.38346E+05 8.10661E+03 1.14611E+04-4.62403E+00 3.65579E-07 3.01930E-09
 -1       788 1.34035E+05-1.09771E+03 4.19290E+03 2.04352E+00 4.74118E-07-9.24956E-10
 -1       789 1.35191E+05 1.27011E+03 2.63445E+03-8.65919E+00 5.82756E-07 4.88004E-09
 -1       790 1.34482E+05-1.71481E+02 1.07199E+03 4.35606E+00 7.59567E-07-6.26494E-09
 -1       791 1.34669E+05 1.99248E+02 6.29477E+02-1.43994E+01 9.37226E-07 2.84839E-09
 -1       792 1.34556E+05-2.76474E+01 2.87451E+02 7.78385E+00 1.28329E-06-1.04376E-08
 -1       793 1.34585E+05 3.89059E+01 1.88693E+02-2.31299E+01 1.62655E-06-1.97645E-09
 -1       794 1.34566E+05-1.12443E+01 1.40280E+02 1.30867E+01 8.13604E-07-8.70974E-09
 -1       795 1.34594E+05 5.82080E+01 2.03649E+02-3.67734E+01 3.19035E-09 3.05819E-09
 -1       796 1.34548E+05-4.69352E+01 3.05492E+02 2.14276E+01-4.87188E-12 3.83071E-09
 -1       797 1.34732E+05 3.44116E+02 7.20679E+02-5.83270E+01 5.07345E-11 1.74158E-09
 -1       798 1.34427E+05-2.96942E+02 1.13769E+03 3.46407E+01-9.02718E-11 4.36785E-10
 -1       799 1.35586E+05 2.19250E+03 3.10164E+03-9.27371E+01-6.42311E-10 2.14862E-09
 -1       800 1.33694E+05-1.89383E+03 4.38139E+03 5.58379E+01 1.05358E-10 3.56044E-09
 -1       801-8.24338E+03 1.04375E+04 1.10571E+04 1.40454E+04 7.72798E-09-4.21642E-09
 -1       802 2.04264E+04 7.58038E+04 3.93903E+04-5.78412E+04 2.06687E-08-4.40602E-09
 -1       803-1.16037E+04 3.52715E+04 4.93043E+04 1.31133E+04 1.63072E-08 1.38730E-08
 -1       804 9.57204E+04 1.16914E+05 1.38142E+05-5.86061E+04 1.92522E-08 1.51396E-08
 -1       805-8.35789E+04-3.04635E+04 1.77332E+05 1.48085E+04 6.77392E-09 1.77572E-08
 -1       806-1.54065E+05-3.30466E+04-1.31135E+04-6.41951E+04 4.78394E-10 5.51381E-09
 -1       807-1.54833E+05-3.11725E+04-6.44235E+03-6.76764E+04 1.59162E-09 4.00922E-09
 -1       808-1.54437E+05-2.83089E+04-2.73288E+03-6.64195E+04 5.23414E-10-1.82904E-09
 -1       809-1.53458E+05-2.93839E+04-1.33604E+03-6.78624E+04 3.26111E-09 6.08134E-09
 -1       810-1.54496E+05-2.81417E+04-6.11748E+02-6.65177E+04 1.36811E-09 6.76334E-09
 -1       811-1.53353E+05-2.93132E+04-3.03385E+02-6.78470E+04-2.03727E-10 4.36103E-10
 -1       812-1.54506E+05-2.81539E+04-1.51356E+02-6.65176E+04 2.61252E-10-1.41426E-09
 -1       813-1.53340E+05-2.93149E+04-9.54562E+01-6.78391E+04 1.84855E-10-4.80554E-09
 -1       814-1.54505E+05-2.81583E+04-8.94108E+01-6.65157E+04 3.31056E-10-4.05612E-09
 -1       815-1.53342E+05-2.93164E+04-1.39946E+02-6.78372E+04-1.00590E-09-9.55856E-09
 -1       816-1.54496E+05-2.81570E+04-2.62118E+02-6.65141E+04 2.97860E-10 4.55952E-09
 -1       817-1.53387E+05-2.93413E+04-5.62089E+02-6.78329E+04 1.63163E-09 4.20278E-09
 -1       818-1.54463E+05-2.82355E+04-1.14545E+03-6.64770E+04-1.76942E-09-5.78643E-09
 -1       819-1.54020E+05-3.00287E+04-2.69610E+03-6.76801E+04-3.48700E-09-1.24783E-09
 -1       820-1.54246E+05-3.02740E+04-5.48691E+03-6.56084E+04-2.85445E-09 3.19460E-11
 -1       821-1.99274E+05 1.10613E+04-2.55826E+04 2.75706E+01-6.62404E-10 6.00267E-11
 -1       822-2.10360E+05-1.28053E+04-1.81029E+04-3.14636E+02-1.76928E-09 1.31695E-09
 -1       823-2.03553E+05 1.73401E+03-6.62604E+03-1.15210E+01 7.41968E-10-2.10730E-09
 -1       824-2.05374E+05-2.00707E+03-4.16953E+03-2.08774E+02-7.74696E-11 2.63384E-09
 -1       825-2.04259E+05 2.71451E+02-1.71313E+03-7.82956E+01-2.98905E-09-7.83757E-10
 -1       826-2.04552E+05-3.20181E+02-1.03559E+03-6.86465E+01-4.34750E-09-5.99613E-09
 -1       827-2.04374E+05 4.83303E+01-5.34728E+02-1.51651E+02-3.91764E-09-4.76466E-09
 -1       828-2.04440E+05-9.78047E+01-4.74179E+02 6.22005E+01-4.46031E-09 3.28979E-09
 -1       829-2.04372E+05 4.92654E+01-5.42585E+02-2.09145E+02-4.99284E-10 2.28599E-09
 -1       830-2.04562E+05-3.27954E+02-1.06028E+03 1.43759E+02 6.76422E-10-7.79536E-10
 -1       831-2.04252E+05 2.78380E+02-1.75518E+03-2.33212E+02-2.32392E-09-1.24908E-09
 -1       832-2.05404E+05-2.05838E+03-4.27694E+03 1.51484E+02-9.75276E-10-1.33696E-09
 -1       833-2.03530E+05 1.77845E+03-6.79595E+03-2.16869E+02-1.57174E-09-4.84306E-10
 -1       834-2.10513E+05-1.31341E+04-1.85682E+04 8.47896E+01-3.04727E-10 4.89308E-09
 -1       835-1.99144E+05 1.13454E+04-2.62412E+04-1.66511E+02 4.84801E-09-2.50111E-09
 -1       836-6.64041E+02 1.88928E+05 1.13758E+04-1.66278E+04 1.35196E-09-3.64980E-09
 -1       837 2.50331E+03 1.92451E+05 9.70685E+03-3.34056E+04 2.10798E-09-2.85581E-10
 -1       838-2.44620E+02 1.89911E+05 1.00030E+04-1.65707E+04 1.77306E-09-1.89630E-10
 -1       839 6.41686E+03 1.95373E+05 1.90341E+04-3.34262E+04 2.15005E-09-5.43753E-09
 -1       840-1.93034E+03 1.85986E+05 3.03977E+04-1.66061E+04 1.54978E-09-1.35719E-09
 -1       856-6.24646E+04 5.33790E+03-1.40659E+04-3.07582E+02-2.02380E-09 3.61706E-09
 -1       857-6.82759E+04-6.26102E+03-9.68439E+03 3.21639E+03-2.16907E-09-5.35647E-09
 -1       858-6.47605E+04 7.48068E+02-3.65050E+03-3.19402E+02-2.32140E-09-5.04110E-09
 -1       859-6.56385E+04-8.70480E+02-2.20496E+03 3.23510E+03-1.04694E-09 1.27997E-09
 -1       860-6.51039E+04 1.04132E+02-9.27149E+02-3.26377E+02-2.36240E-09-3.14162E-09
 -1       861-6.52426E+04-1.15936E+02-5.16612E+02 3.24459E+03-5.04477E-09-2.15590E-09
 -1       862-6.51574E+04 1.38945E+01-2.27870E+02-3.28909E+02 3.15045E-09-8.70074E-10
 -1       863-6.51794E+04-9.56274E+00-1.12791E+02 3.24572E+03 8.17024E-09-6.43290E-09
 -1       864-6.51672E+04 6.89381E-02-3.56099E+01-3.27509E+02 3.45564E-09-2.33680E-09
 -1       865-6.51615E+04 1.48007E+01 2.05356E+01 3.23859E+03 5.54365E-09-4.45428E-09
 -1       866-6.51745E+04-1.06458E+01 7.59899E+01-3.21785E+02 1.34293E-10-8.01671E-09
 -1       867-6.51175E+04 8.97684E+01 2.08824E+02 3.22309E+03 1.62028E-09-5.53741E-09
 -1       868-6.52095E+04-7.41993E+01 3.52743E+02-3.12007E+02 1.18877E-09-1.75663E-09
 -1       869-6.48538E+04 6.16360E+02 9.46588E+02 3.19696E+03-1.69530E-09-9.23494E-09
 -1       870-6.54356E+04-5.23878E+02 1.37343E+03-2.95659E+02-7.23617E-11-5.31531E-09
 -1       871-2.90804E+03-6.05085E+03-9.46198E+03 6.20205E+04 1.21963E-09 3.09501E-09
 -1       872-1.26462E+03-8.16412E+03-3.85309E+03 8.04044E+04 2.99769E-09 1.32604E-09
 -1       873-2.83773E+01-7.16981E+03 5.63190E+02 6.18833E+04 1.89448E-09 4.04737E-09
 -1       874 1.46060E+03-5.78854E+03 5.39662E+03 8.04336E+04 4.38740E-09 2.95847E-09
 -1       875 3.46488E+03-8.45522E+03 1.19610E+04 6.19964E+04 2.30375E-09 9.48603E-10
 -1       876 1.55331E+05 2.67762E+04 8.32966E+03 6.30305E+04-2.32649E-09-7.09861E-10
 -1       877 1.55803E+05 2.86088E+04 4.44815E+03 6.54994E+04-4.84317E-09 4.49063E-12
 -1       878 1.56110E+05 2.58536E+04 1.86362E+03 6.37143E+04 1.74919E-09-4.46448E-09
 -1       879 1.54669E+05 2.74807E+04 9.28299E+02 6.55596E+04 1.61299E-09 3.39679E-09
 -1       880 1.56168E+05 2.58428E+04 4.32195E+02 6.37421E+04 2.01908E-10-5.81167E-10
 -1       881 1.54594E+05 2.74330E+04 2.30123E+02 6.55486E+04 4.55424E-09 2.86857E-09
 -1       882 1.56174E+05 2.58492E+04 1.46122E+02 6.37429E+04 3.99757E-09 1.32288E-09
 -1       883 1.54589E+05 2.74308E+04 1.55278E+02 6.55457E+04 8.20080E-10 4.72420E-09
 -1       884 1.56171E+05 2.58474E+04 2.45402E+02 6.37431E+04-4.63513E-09-7.86264E-09
 -1       885 1.54608E+05 2.74343E+04 4.92395E+02 6.55520E+04 4.90461E-09-6.43041E-09
 -1       886 1.56152E+05 2.58330E+04 9.91959E+02 6.37411E+04 3.42322E-09 2.60388E-09
 -1       887 1.54783E+05 2.75485E+04 2.16668E+03 6.55769E+04-1.37285E-09-4.46363E-09
 -1       888 1.56015E+05 2.58573E+04 4.36596E+03 6.36718E+04 1.54358E-10-1.41995E-09
 -1       889 1.57385E+05 3.02495E+04 1.04302E+04 6.54937E+04 3.31148E-10 6.66296E-09
 -1       890 1.54235E+05 2.79709E+04 1.95346E+04 6.20069E+04 3.83852E-09 1.75169E-09
 -1       891-9.57902E+01-8.83587E+04-1.04025E+03 1.68287E+04 3.23780E-10-2.93301E-09
 -1       892-1.66637E+02-8.86091E+04-1.13300E+03 2.54681E+04-5.92195E-10-3.59341E-09
 -1       893-2.53955E+01-8.83928E+04-1.62005E+03 1.68318E+04 6.86668E-11 2.64299E-09
 -1       894-8.82486E+02-8.92354E+04-3.36510E+03 2.53780E+04-2.47155E-09 3.13594E-09
 -1       895-6.87748E+02-8.76962E+04-5.92951E+03 1.69177E+04-2.62162E-10-3.96994E-09
 -1       956-1.95100E+05-2.81509E+03-7.08941E+03 1.28881E+04-2.72303E-09-2.85377E-09
 -1       957-1.96500E+05-9.49622E+02-3.63958E+03 1.55159E+04-1.04592E-09-5.57566E-09
 -1       958-1.95727E+05-7.54826E+01-1.63959E+03 1.28041E+04 8.38554E-10-3.68152E-09
 -1       959-1.95838E+05-1.38062E+01-8.37541E+02 1.56067E+04-1.22418E-09 1.30910E-09
 -1       960-1.95782E+05 2.27374E+01-4.08165E+02 1.27963E+04-2.29966E-09-1.74384E-09
 -1       961-1.95788E+05 2.05191E+01-2.16439E+02 1.56154E+04-4.20778E-09-2.31012E-10
 -1       962-1.95792E+05 1.91407E+01-1.23534E+02 1.27953E+04-7.63976E-10-2.36355E-10
 -1       963-1.95785E+05 2.08562E+01-9.85800E+01 1.56169E+04-3.97898E-09-3.83341E-09
 -1       964-1.95794E+05 2.01960E+01-1.18877E+02 1.27949E+04 1.72986E-09-2.61514E-09
 -1       965-1.95792E+05 2.28850E+01-2.04752E+02 1.56169E+04 1.15258E-08 1.79682E-09
 -1       966-1.95788E+05 2.58282E+01-3.83907E+02 1.27952E+04 3.21631E-09 1.71667E-11
 -1       967-1.95844E+05-7.00882E+00-7.87173E+02 1.56122E+04-7.25777E-10 1.40676E-09
 -1       968-1.95740E+05-6.42380E+01-1.54025E+03 1.27997E+04 1.35310E-09-3.66958E-09
 -1       969-1.96470E+05-8.84266E+02-3.41978E+03 1.55593E+04 1.65528E-09-5.71762E-09
 -1       970-1.95154E+05-2.63700E+03-6.66077E+03 1.28497E+04 9.99989E-10 3.68618E-09
 -1       971-1.85449E+05-9.80643E+02-5.45934E+03 9.10838E+03-4.23688E-09-2.07245E-09
 -1       972-1.86777E+05-7.03911E+02-2.97342E+03 1.27160E+04-3.45153E-09 1.75100E-09
 -1       973-1.86054E+05-6.29638E+00-1.33112E+03 9.03340E+03-2.10093E-09 9.40531E-10
 -1       974-1.86146E+05-7.70392E+00-6.89691E+02 1.27964E+04 1.98338E-09-5.73453E-09
 -1       975-1.86099E+05 1.79565E+01-3.43751E+02 9.02717E+03 3.96994E-10 8.86075E-10
 -1       976-1.86106E+05 1.97167E+01-1.96863E+02 1.28037E+04-3.65367E-09-9.81800E-10
 -1       977-1.86107E+05 1.69424E+01-1.40058E+02 9.02602E+03 7.04654E-09 1.43831E-09
 -1       978-1.86107E+05 2.22097E+01-1.60173E+02 1.28053E+04 1.82586E-08-3.51275E-09
 -1       979-1.86107E+05 2.08544E+01-2.54040E+02 9.02555E+03 1.07866E-08-8.32756E-10
 -1       980-1.86125E+05 2.35923E+01-4.88448E+02 1.28055E+04 3.19440E-09-1.98258E-09
 -1       981-1.86091E+05 3.30675E+01-9.44842E+02 9.02581E+03 1.00522E-09-4.31507E-09
 -1       982-1.86256E+05-4.58241E+01-1.95231E+03 1.28020E+04-1.31240E-09-4.58624E-09
 -1       983-1.85973E+05-2.68154E+01-3.79285E+03 9.02922E+03 2.50157E-09 2.87901E-09
 -1       984-1.88081E+05-2.02560E+03-8.49337E+03 1.27512E+04 1.62754E-09-4.24052E-11
 -1       985-1.84257E+05-2.80155E+03-1.55965E+04 9.07968E+03 2.89924E-09-3.28782E-09
 -3
    1PSTEP                         7           4           1          
  100CL  104 4.68750E-01         409                     0    4           1
 -4  DISP        4    1
 -5  D1          1    2    1    0
 -5  D2          1    2    2    0
 -5  D3          1    2    3    0
 -5  ALL         1    2    0    0    1ALL
 -1         1 1.27096E-04 0.00000E+00 0.00000E+00
 -1         2 1.16519E-04 3.60912E-30 0.00000E+00
 -1         3 1.10135E-04-3.72219E-27 6.61744E-24
 -1         5 7.80135E-05-2.50280E-26-3.30872E-24
 -1         8 1.02689E-04-8.86052E-07 0.00000E+00
 -1         9 1.03383E-04 4.52908E-07 0.00000E+00
 -1        10 1.01911E-04-1.50244E-06 3.30872E-24
 -1        12 7.75148E-05 5.17543E-07-1.65436E-24
 -1        15 7.36242E-05-9.77557E-07 4.13590E-25
 -1        16 7.62662E-05 2.98161E-07 0.00000E+00
 -1        17 7.56349E-05-3.17288E-06 0.00000E+00
 -1        18 7.50487E-05 7.78494E-07 0.00000E+00
 -1        19 7.60406E-05 1.02717E-06 0.00000E+00
 -1        20 7.61723E-05 1.46279E-05 0.00000E+00
 -1        21 7.56713E-05 2.75422E-05 0.00000E+00
 -1        24 1.86444E-05-4.32011E-06 0.00000E+00
 -1        25 7.35651E-05 8.96982E-07 0.00000E+00
 -1        26 7.44921E-05 1.42850E-06 0.00000E+00
 -1        27 7.30736E-05 1.23505E-05 0.00000E+00
 -1        28 7.26211E-05 2.71054E-05 0.00000E+00
 -1        32 0.00000E+00 0.00000E+00 0.00000E+00
 -1        33 7.17322E-05 1.91301E-06 0.00000E+00
 -1        34 7.03627E-05 1.23298E-05 0.00000E+00
 -1        35 6.90615E-05 2.68746E-05 0.00000E+00
 -1        51 1.25509E-04-1.45655E-07 0.00000E+00
 -1        52 1.22568E-04-2.87395E-07 0.00000E+00
 -1        53 1.18538E-04-4.30624E-07 0.00000E+00
 -1        54 1.13696E-04-5.76778E-07 0.00000E+00
 -1        55 1.08321E-04-7.26582E-07 4.75629E-24
 -1        56 1.25953E-04-7.43480E-07 0.00000E+00
 -1        57 1.24955E-04-2.00578E-06 0.00000E+00
 -1        58 1.24099E-04-3.64113E-06 0.00000E+00
 -1        59 1.23323E-04-5.51277E-06 2.64698E-23
 -1        60 1.22577E-04-7.46327E-06-5.29396E-23
 -1        61 1.21800E-04-9.33588E-06 0.00000E+00
 -1        62 1.20936E-04-1.09780E-05-5.29396E-23
 -1        63 1.19932E-04-1.22446E-05 0.00000E+00
 -1        64 1.18742E-04-1.30136E-05 0.00000E+00
 -1        65 1.17325E-04-1.31777E-05 0.00000E+00
 -1        66 1.15654E-04-1.26671E-05 0.00000E+00
 -1        67 1.13713E-04-1.14322E-05 0.00000E+00
 -1        68 1.11496E-04-9.46827E-06 2.64698E-23
 -1        69 1.09017E-04-6.78996E-06 0.00000E+00
 -1        70 1.06289E-04-3.46123E-06-2.64698E-23
 -1        86 1.16176E-04 8.33938E-08 0.00000E+00
 -1        87 1.15148E-04 1.65797E-07 0.00000E+00
 -1        88 1.13402E-04 2.47160E-07 0.00000E+00
 -1        89 1.10905E-04 3.23605E-07 4.13590E-25
 -1        90 1.07588E-04 3.98897E-07-3.30872E-24
 -1       121 1.09906E-04-2.49138E-07 0.00000E+00
 -1       122 1.09217E-04-4.98483E-07 0.00000E+00
 -1       123 1.08072E-04-7.48241E-07 0.00000E+00
 -1       124 1.06470E-04-9.98656E-07 3.30872E-24
 -1       125 1.04415E-04-1.24986E-06 0.00000E+00
 -1       191 7.79996E-05 8.62715E-08 0.00000E+00
 -1       192 7.79580E-05 1.72541E-07-1.65436E-24
 -1       193 7.78886E-05 2.58808E-07-6.61744E-24
 -1       194 7.77916E-05 3.45069E-07 0.00000E+00
 -1       195 7.76669E-05 4.31319E-07-3.30872E-24
 -1       251 1.02712E-04 3.14224E-06 0.00000E+00
 -1       252 1.02755E-04 5.56396E-06 0.00000E+00
 -1       253 1.02799E-04 6.63846E-06 5.16988E-26
 -1       254 1.02847E-04 6.62211E-06-4.13590E-25
 -1       255 1.02895E-04 5.74366E-06 8.27181E-25
 -1       256 1.02943E-04 4.23006E-06 0.00000E+00
 -1       257 1.02990E-04 2.29201E-06 0.00000E+00
 -1       258 1.03036E-04 1.39324E-07 0.00000E+00
 -1       259 1.03083E-04-2.02376E-06 0.00000E+00
 -1       260 1.03130E-04-3.99296E-06 8.27181E-25
 -1       261 1.03178E-04-5.55901E-06 8.27181E-25
 -1       262 1.03225E-04-6.51187E-06 0.00000E+00
 -1       263 1.03273E-04-6.62573E-06 0.00000E+00
 -1       264 1.03317E-04-5.67306E-06 0.00000E+00
 -1       265 1.03361E-04-3.39931E-06 6.61744E-24
 -1       266 9.78448E-05-9.13253E-07 6.61744E-24
 -1       267 9.30007E-05-9.27047E-07 1.65436E-24
 -1       268 8.81566E-05-9.41690E-07 1.65436E-24
 -1       269 8.33124E-05-9.53818E-07 0.00000E+00
 -1       270 7.84683E-05-9.65888E-07 0.00000E+00
 -1       271 9.97404E-05 2.76630E-06 2.64698E-23
 -1       272 9.72181E-05 5.15482E-06 0.00000E+00
 -1       273 9.51222E-05 6.41907E-06 0.00000E+00
 -1       274 9.33889E-05 6.69832E-06 0.00000E+00
 -1       275 9.19635E-05 6.15613E-06-5.29396E-23
 -1       276 9.07786E-05 4.96820E-06 0.00000E+00
 -1       277 8.97644E-05 3.32321E-06 0.00000E+00
 -1       278 8.88473E-05 1.41775E-06 0.00000E+00
 -1       279 8.79522E-05-5.46567E-07 5.29396E-23
 -1       280 8.70034E-05-2.36703E-06 2.64698E-23
 -1       281 8.59264E-05-3.84382E-06-5.29396E-23
 -1       282 8.46491E-05-4.78314E-06-2.64698E-23
 -1       283 8.31020E-05-5.00176E-06 5.29396E-23
 -1       284 8.12248E-05-4.32773E-06 2.64698E-23
 -1       285 7.89528E-05-2.60975E-06-2.64698E-23
 -1       301 9.86844E-05 4.20118E-07 0.00000E+00
 -1       302 9.40078E-05 4.02506E-07-1.65436E-24
 -1       303 8.93902E-05 3.85582E-07-3.30872E-24
 -1       304 8.48693E-05 3.67444E-07 0.00000E+00
 -1       305 8.04823E-05 3.47472E-07 0.00000E+00
 -1       306 1.00339E-04 3.85347E-06 0.00000E+00
 -1       307 9.77729E-05 5.83777E-06 0.00000E+00
 -1       308 9.57659E-05 6.34914E-06 0.00000E+00
 -1       309 9.43059E-05 5.37635E-06 0.00000E+00
 -1       310 9.33195E-05 3.13645E-06-5.29396E-23
 -1       311 9.27014E-05-9.68256E-08 0.00000E+00
 -1       312 9.22952E-05-3.90022E-06 5.29396E-23
 -1       313 9.19333E-05-7.82397E-06 0.00000E+00
 -1       314 9.14422E-05-1.13997E-05 5.29396E-23
 -1       315 9.06537E-05-1.41756E-05 2.64698E-23
 -1       316 8.94432E-05-1.58205E-05-5.29396E-23
 -1       317 8.77069E-05-1.60563E-05 0.00000E+00
 -1       318 8.54156E-05-1.48162E-05 0.00000E+00
 -1       319 8.25780E-05-1.20991E-05 0.00000E+00
 -1       320 7.92621E-05-8.13206E-06 2.64698E-23
 -1       336 9.89025E-05-1.77605E-06 0.00000E+00
 -1       337 9.53346E-05-2.05179E-06-3.30872E-24
 -1       338 9.12145E-05-2.32949E-06 0.00000E+00
 -1       339 8.65511E-05-2.60906E-06 0.00000E+00
 -1       340 8.13541E-05-2.89121E-06 6.61744E-24
 -1       406 7.73360E-05 6.02944E-07 6.61744E-24
 -1       407 7.71306E-05 6.88295E-07 3.30872E-24
 -1       408 7.68983E-05 7.73584E-07 0.00000E+00
 -1       409 7.66392E-05 8.58705E-07 1.65436E-24
 -1       410 7.63532E-05 9.43495E-07 0.00000E+00
 -1       521 7.44522E-05-3.55795E-06 5.29396E-23
 -1       522 7.74188E-05-2.08091E-05 0.00000E+00
 -1       523 8.40914E-05-4.85493E-05 0.00000E+00
 -1       524 9.30565E-05-8.30321E-05-5.29396E-23
 -1       525 1.02546E-04-1.19058E-04 1.05879E-22
 -1       526 1.10747E-04-1.51303E-04 0.00000E+00
 -1       527 1.16071E-04-1.75255E-04 1.05879E-22
 -1       528 1.17074E-04-1.87099E-04 0.00000E+00
 -1       529 1.13129E-04-1.85597E-04-1.05879E-22
 -1       530 1.03981E-04-1.70591E-04-5.29396E-23
 -1       531 9.05174E-05-1.44743E-04 0.00000E+00
 -1       532 7.40536E-05-1.11550E-04 5.29396E-23
 -1       533 5.66251E-05-7.60229E-05 0.00000E+00
 -1       534 4.03920E-05-4.33358E-05 2.64698E-23
 -1       535 2.71891E-05-1.81044E-05-5.29396E-23
 -1       536 7.55794E-05 2.31309E-06 0.00000E+00
 -1       537 7.55351E-05 6.82037E-06 0.00000E+00
 -1       538 7.54942E-05 1.03175E-05 0.00000E+00
 -1       539 7.54576E-05 1.27744E-05 0.00000E+00
 -1       540 7.54228E-05 1.42362E-05-8.27181E-25
 -1       541 7.53892E-05 1.47493E-05-4.13590E-25
 -1       542 7.53557E-05 1.44281E-05-8.27181E-25
 -1       543 7.53219E-05 1.33884E-05 4.13590E-25
 -1       544 7.52873E-05 1.17977E-05-8.27181E-25
 -1       545 7.52521E-05 9.82409E-06 0.00000E+00
 -1       546 7.52166E-05 7.66326E-06 0.00000E+00
 -1       547 7.51812E-05 5.51118E-06 4.13590E-25
 -1       548 7.51462E-05 3.56312E-06-8.27181E-25
 -1       549 7.51124E-05 2.01413E-06 0.00000E+00
 -1       550 7.50790E-05 1.03073E-06-5.16988E-26
 -1       551 6.81181E-05-3.34385E-06 0.00000E+00
 -1       552 5.91290E-05-3.52335E-06 0.00000E+00
 -1       553 4.91737E-05-3.71138E-06 6.61744E-24
 -1       554 3.87660E-05-3.90602E-06 3.30872E-24
 -1       555 2.84195E-05-4.10276E-06 1.32349E-23
 -1       556 7.36483E-05 1.97134E-06 0.00000E+00
 -1       557 7.21252E-05 5.91907E-06 0.00000E+00
 -1       558 7.10152E-05 8.77963E-06 0.00000E+00
 -1       559 7.02723E-05 1.06710E-05 0.00000E+00
 -1       560 6.98505E-05 1.17110E-05 0.00000E+00
 -1       561 6.97046E-05 1.20180E-05 0.00000E+00
 -1       562 6.97892E-05 1.17106E-05 0.00000E+00
 -1       563 7.00597E-05 1.09074E-05 0.00000E+00
 -1       564 7.04712E-05 9.72742E-06 0.00000E+00
 -1       565 7.09792E-05 8.28932E-06 0.00000E+00
 -1       566 7.15393E-05 6.71207E-06 0.00000E+00
 -1       567 7.21068E-05 5.11461E-06-4.13590E-25
 -1       568 7.26375E-05 3.61584E-06 0.00000E+00
 -1       569 7.30870E-05 2.33455E-06 0.00000E+00
 -1       570 7.34106E-05 1.38953E-06 0.00000E+00
 -1       571 7.51089E-05 8.31605E-07 1.24077E-24
 -1       572 7.51704E-05 8.43606E-07 0.00000E+00
 -1       573 7.52324E-05 8.21870E-07-8.27181E-25
 -1       574 7.52944E-05 7.74158E-07 0.00000E+00
 -1       575 7.53566E-05 7.08263E-07 0.00000E+00
 -1       576 7.54188E-05 6.32030E-07 0.00000E+00
 -1       577 7.54810E-05 5.53309E-07 1.65436E-24
 -1       578 7.55432E-05 4.79957E-07 0.00000E+00
 -1       579 7.56054E-05 4.19830E-07 0.00000E+00
 -1       580 7.56677E-05 3.80786E-07 1.65436E-24
 -1       581 7.57299E-05 3.70680E-07 3.30872E-24
 -1       582 7.57921E-05 3.97360E-07 0.00000E+00
 -1       583 7.58543E-05 4.68667E-07 0.00000E+00
 -1       584 7.59164E-05 5.92361E-07-1.65436E-24
 -1       585 7.59786E-05 7.76156E-07 3.30872E-24
 -1       586 7.47792E-05 7.99460E-07 0.00000E+00
 -1       587 7.44834E-05 8.19911E-07-2.06795E-25
 -1       588 7.41876E-05 8.40139E-07 0.00000E+00
 -1       589 7.39184E-05 8.60049E-07 0.00000E+00
 -1       590 7.37023E-05 8.79416E-07 0.00000E+00
 -1       591 7.49996E-05 8.63911E-07 2.06795E-25
 -1       592 7.49606E-05 9.15840E-07 4.13590E-25
 -1       593 7.49316E-05 9.40670E-07 0.00000E+00
 -1       594 7.49103E-05 9.44148E-07 0.00000E+00
 -1       595 7.48948E-05 9.32103E-07 0.00000E+00
 -1       596 7.48829E-05 9.10317E-07 2.06795E-25
 -1       597 7.48724E-05 8.84569E-07-4.13590E-25
 -1       598 7.48613E-05 8.60636E-07 0.00000E+00
 -1       599 7.48473E-05 8.44292E-07 0.00000E+00
 -1       600 7.48283E-05 8.41313E-07 2.06795E-25
 -1       601 7.48021E-05 8.57473E-07-4.13590E-25
 -1       602 7.47667E-05 8.98553E-07 2.06795E-25
 -1       603 7.47198E-05 9.70333E-07-1.03398E-25
 -1       604 7.46595E-05 1.07864E-06 0.00000E+00
 -1       605 7.45836E-05 1.22922E-06 0.00000E+00
 -1       606 7.60520E-05 1.41990E-06 0.00000E+00
 -1       607 7.60612E-05 1.90045E-06 1.65436E-24
 -1       608 7.60698E-05 2.46368E-06 0.00000E+00
 -1       609 7.60782E-05 3.10377E-06 0.00000E+00
 -1       610 7.60863E-05 3.81487E-06 0.00000E+00
 -1       611 7.60944E-05 4.59107E-06 0.00000E+00
 -1       612 7.61024E-05 5.42643E-06 0.00000E+00
 -1       613 7.61104E-05 6.31502E-06 0.00000E+00
 -1       614 7.61183E-05 7.25092E-06 0.00000E+00
 -1       615 7.61262E-05 8.22816E-06 8.27181E-25
 -1       616 7.61340E-05 9.24084E-06 0.00000E+00
 -1       617 7.61418E-05 1.02830E-05 0.00000E+00
 -1       618 7.61496E-05 1.13487E-05 0.00000E+00
 -1       619 7.61573E-05 1.24321E-05 0.00000E+00
 -1       620 7.61649E-05 1.35271E-05 4.13590E-25
 -1       621 7.57359E-05 1.09410E-06 0.00000E+00
 -1       622 7.54572E-05 1.16136E-06 8.27181E-25
 -1       623 7.51991E-05 1.22862E-06 0.00000E+00
 -1       624 7.49559E-05 1.29576E-06 0.00000E+00
 -1       625 7.47221E-05 1.36279E-06 1.65436E-24
 -1       626 7.59650E-05 1.44104E-06 3.30872E-24
 -1       627 7.58627E-05 1.92750E-06-3.30872E-24
 -1       628 7.57358E-05 2.47980E-06 0.00000E+00
 -1       629 7.55870E-05 3.09070E-06 0.00000E+00
 -1       630 7.54189E-05 3.75301E-06 0.00000E+00
 -1       631 7.52342E-05 4.45943E-06 0.00000E+00
 -1       632 7.50357E-05 5.20270E-06 0.00000E+00
 -1       633 7.48260E-05 5.97555E-06 1.65436E-24
 -1       634 7.46080E-05 6.77070E-06 0.00000E+00
 -1       635 7.43843E-05 7.58089E-06-1.65436E-24
 -1       636 7.41577E-05 8.39885E-06 0.00000E+00
 -1       637 7.39309E-05 9.21730E-06 0.00000E+00
 -1       638 7.37066E-05 1.00290E-05 0.00000E+00
 -1       639 7.34874E-05 1.08266E-05 0.00000E+00
 -1       640 7.32758E-05 1.16029E-05-8.27181E-25
 -1       656 7.52617E-05 1.42573E-05 0.00000E+00
 -1       657 7.46817E-05 1.38719E-05 0.00000E+00
 -1       658 7.43072E-05 1.34878E-05 0.00000E+00
 -1       659 7.40095E-05 1.31040E-05 0.00000E+00
 -1       660 7.36457E-05 1.27189E-05 0.00000E+00
 -1       661 7.58358E-05 1.57055E-05-8.27181E-25
 -1       662 7.55204E-05 1.67349E-05-8.27181E-25
 -1       663 7.52223E-05 1.77175E-05 1.65436E-24
 -1       664 7.49415E-05 1.86557E-05 0.00000E+00
 -1       665 7.46767E-05 1.95513E-05-1.65436E-24
 -1       666 7.44272E-05 2.04065E-05 8.27181E-25
 -1       667 7.41922E-05 2.12231E-05 0.00000E+00
 -1       668 7.39711E-05 2.20028E-05-8.27181E-25
 -1       669 7.37631E-05 2.27475E-05-1.65436E-24
 -1       670 7.35677E-05 2.34587E-05-8.27181E-25
 -1       671 7.33843E-05 2.41381E-05 1.65436E-24
 -1       672 7.32121E-05 2.47871E-05-8.27181E-25
 -1       673 7.30507E-05 2.54072E-05-1.65436E-24
 -1       674 7.28990E-05 2.59995E-05 8.27181E-25
 -1       675 7.27574E-05 2.65657E-05 0.00000E+00
 -1       676 7.51617E-05 2.74689E-05-1.65436E-24
 -1       677 7.46522E-05 2.73957E-05-8.27181E-25
 -1       678 7.41433E-05 2.73226E-05 0.00000E+00
 -1       679 7.36349E-05 2.72496E-05 8.27181E-25
 -1       680 7.31275E-05 2.71767E-05-1.65436E-24
 -1       771 1.47364E-05 3.22044E-06 0.00000E+00
 -1       772 1.13405E-05 9.39714E-06 1.32349E-23
 -1       773 8.43555E-06 1.42851E-05 2.64698E-23
 -1       774 5.98898E-06 1.79647E-05 0.00000E+00
 -1       775 3.96880E-06 2.05181E-05-2.64698E-23
 -1       776 2.34161E-06 2.20309E-05 1.32349E-23
 -1       777 1.07353E-06 2.25900E-05 2.64698E-23
 -1       778 1.29996E-07 2.22851E-05 1.32349E-23
 -1       779-5.23873E-07 2.12074E-05 0.00000E+00
 -1       780-9.23570E-07 1.94499E-05 1.32349E-23
 -1       781-1.10472E-06 1.71071E-05 0.00000E+00
 -1       782-1.10344E-06 1.42748E-05-1.32349E-23
 -1       783-9.55925E-07 1.10498E-05-2.64698E-23
 -1       784-6.98628E-07 7.53001E-06 0.00000E+00
 -1       785-3.68134E-07 3.81366E-06 0.00000E+00
 -1       786 7.36197E-05 8.56618E-07 4.13590E-25
 -1       787 7.36775E-05 8.22305E-07 0.00000E+00
 -1       788 7.37350E-05 7.93574E-07 0.00000E+00
 -1       789 7.37932E-05 7.69969E-07 0.00000E+00
 -1       790 7.38515E-05 7.51724E-07 1.65436E-24
 -1       791 7.39098E-05 7.39087E-07-8.27181E-25
 -1       792 7.39682E-05 7.33057E-07 0.00000E+00
 -1       793 7.40265E-05 7.34655E-07 0.00000E+00
 -1       794 7.40849E-05 7.45925E-07 0.00000E+00
 -1       795 7.41433E-05 7.68938E-07 8.27181E-25
 -1       796 7.42017E-05 8.07341E-07 0.00000E+00
 -1       797 7.42600E-05 8.64827E-07 0.00000E+00
 -1       798 7.43184E-05 9.47649E-07 0.00000E+00
 -1       799 7.43766E-05 1.06213E-06 0.00000E+00
 -1       800 7.44348E-05 1.21885E-06-1.65436E-24
 -1       801 6.85952E-05 8.37772E-07 0.00000E+00
 -1       802 5.37166E-05 6.82161E-07-1.65436E-24
 -1       803 3.41874E-05 4.53784E-07 0.00000E+00
 -1       804 1.52756E-05 2.30076E-07-3.30872E-24
 -1       805 2.15657E-06 9.23580E-08-1.32349E-23
 -1       806 7.35085E-05 8.15328E-07-1.65436E-24
 -1       807 7.34485E-05 7.34845E-07 0.00000E+00
 -1       808 7.33858E-05 6.60037E-07-1.65436E-24
 -1       809 7.33192E-05 5.94711E-07 0.00000E+00
 -1       810 7.32476E-05 5.42667E-07 3.30872E-24
 -1       811 7.31695E-05 5.07644E-07 8.27181E-25
 -1       812 7.30836E-05 4.93380E-07 1.65436E-24
 -1       813 7.29885E-05 5.03600E-07 8.27181E-25
 -1       814 7.28829E-05 5.42031E-07-1.65436E-24
 -1       815 7.27652E-05 6.12392E-07-8.27181E-25
 -1       816 7.26342E-05 7.18403E-07-1.65436E-24
 -1       817 7.24885E-05 8.63780E-07-8.27181E-25
 -1       818 7.23266E-05 1.05224E-06 0.00000E+00
 -1       819 7.21473E-05 1.28748E-06 4.13590E-25
 -1       820 7.19493E-05 1.57320E-06 1.65436E-24
 -1       821 7.44086E-05 1.65828E-06 8.27181E-25
 -1       822 7.43200E-05 1.87610E-06-8.27181E-25
 -1       823 7.42317E-05 2.12174E-06 0.00000E+00
 -1       824 7.41425E-05 2.43485E-06 1.65436E-24
 -1       825 7.40531E-05 2.84260E-06 0.00000E+00
 -1       826 7.39635E-05 3.37174E-06-1.65436E-24
 -1       827 7.38739E-05 4.02653E-06 3.30872E-24
 -1       828 7.37841E-05 4.81075E-06-1.65436E-24
 -1       829 7.36942E-05 5.70416E-06 0.00000E+00
 -1       830 7.36042E-05 6.68608E-06 0.00000E+00
 -1       831 7.35143E-05 7.71946E-06 0.00000E+00
 -1       832 7.34245E-05 8.76701E-06 0.00000E+00
 -1       833 7.33348E-05 9.78879E-06 0.00000E+00
 -1       834 7.32461E-05 1.07450E-05 0.00000E+00
 -1       835 7.31572E-05 1.16080E-05 8.27181E-25
 -1       836 7.41681E-05 1.50917E-06 0.00000E+00
 -1       837 7.37377E-05 1.59161E-06-8.27181E-25
 -1       838 7.32399E-05 1.67390E-06 0.00000E+00
 -1       839 7.27137E-05 1.75566E-06-8.27181E-25
 -1       840 7.21981E-05 1.83729E-06-2.06795E-25
 -1       856 7.30485E-05 1.30845E-05 0.00000E+00
 -1       857 7.30206E-05 1.39157E-05 0.00000E+00
 -1       858 7.29927E-05 1.48288E-05 8.27181E-25
 -1       859 7.29643E-05 1.58085E-05-4.13590E-25
 -1       860 7.29358E-05 1.68392E-05 0.00000E+00
 -1       861 7.29072E-05 1.79054E-05-4.13590E-25
 -1       862 7.28785E-05 1.89917E-05 0.00000E+00
 -1       863 7.28498E-05 2.00824E-05-4.13590E-25
 -1       864 7.28211E-05 2.11620E-05-8.27181E-25
 -1       865 7.27924E-05 2.22149E-05-4.13590E-25
 -1       866 7.27638E-05 2.32255E-05 8.27181E-25
 -1       867 7.27352E-05 2.41784E-05 0.00000E+00
 -1       868 7.27067E-05 2.50582E-05-8.27181E-25
 -1       869 7.26781E-05 2.58494E-05 0.00000E+00
 -1       870 7.26497E-05 2.65369E-05 0.00000E+00
 -1       871 7.25229E-05 1.23496E-05-4.13590E-25
 -1       872 7.20657E-05 1.23469E-05 0.00000E+00
 -1       873 7.16619E-05 1.23438E-05 0.00000E+00
 -1       874 7.12706E-05 1.23402E-05-2.06795E-25
 -1       875 7.08510E-05 1.23362E-05-6.20385E-25
 -1       876 7.28834E-05 1.30926E-05 0.00000E+00
 -1       877 7.26773E-05 1.38820E-05-1.65436E-24
 -1       878 7.24558E-05 1.47131E-05-3.30872E-24
 -1       879 7.22209E-05 1.55804E-05 0.00000E+00
 -1       880 7.19744E-05 1.64786E-05-3.30872E-24
 -1       881 7.17183E-05 1.74024E-05 1.65436E-24
 -1       882 7.14547E-05 1.83465E-05 0.00000E+00
 -1       883 7.11854E-05 1.93054E-05 0.00000E+00
 -1       884 7.09125E-05 2.02740E-05 0.00000E+00
 -1       885 7.06380E-05 2.12469E-05 0.00000E+00
 -1       886 7.03638E-05 2.22188E-05-1.65436E-24
 -1       887 7.00920E-05 2.31843E-05-8.27181E-25
 -1       888 6.98243E-05 2.41381E-05-1.65436E-24
 -1       889 6.95627E-05 2.50749E-05 8.27181E-25
 -1       890 6.93090E-05 2.59892E-05 8.27181E-25
 -1       891 7.21336E-05 2.70668E-05 0.00000E+00
 -1       892 7.16295E-05 2.70281E-05 4.13590E-25
 -1       893 7.10894E-05 2.69893E-05 8.27181E-25
 -1       894 7.04941E-05 2.69507E-05-2.06795E-25
 -1       895 6.98245E-05 2.69121E-05 4.13590E-25
 -1       956 7.16482E-05 2.36328E-06 0.00000E+00
 -1       957 7.15628E-05 2.86844E-06-8.27181E-25
 -1       958 7.14772E-05 3.42278E-06 1.65436E-24
 -1       959 7.13914E-05 4.02021E-06-8.27181E-25
 -1       960 7.13056E-05 4.65468E-06-3.30872E-24
 -1       961 7.12196E-05 5.32008E-06 0.00000E+00
 -1       962 7.11337E-05 6.01028E-06-1.65436E-24
 -1       963 7.10478E-05 6.71919E-06 1.65436E-24
 -1       964 7.09618E-05 7.44068E-06 3.30872E-24
 -1       965 7.08758E-05 8.16862E-06-1.65436E-24
 -1       966 7.07899E-05 8.89691E-06 0.00000E+00
 -1       967 7.07040E-05 9.61942E-06 0.00000E+00
 -1       968 7.06181E-05 1.03300E-05 0.00000E+00
 -1       969 7.05324E-05 1.10227E-05 0.00000E+00
 -1       970 7.04469E-05 1.16912E-05 0.00000E+00
 -1       971 7.02825E-05 1.29863E-05 0.00000E+00
 -1       972 7.02011E-05 1.37149E-05 0.00000E+00
 -1       973 7.01196E-05 1.45077E-05 0.00000E+00
 -1       974 7.00379E-05 1.53563E-05 0.00000E+00
 -1       975 6.99561E-05 1.62526E-05 0.00000E+00
 -1       976 6.98743E-05 1.71881E-05-8.27181E-25
 -1       977 6.97925E-05 1.81545E-05-1.65436E-24
 -1       978 6.97106E-05 1.91437E-05-8.27181E-25
 -1       979 6.96287E-05 2.01472E-05 0.00000E+00
 -1       980 6.95468E-05 2.11567E-05 1.65436E-24
 -1       981 6.94650E-05 2.21639E-05 3.30872E-24
 -1       982 6.93832E-05 2.31604E-05 0.00000E+00
 -1       983 6.93016E-05 2.41381E-05 3.30872E-24
 -1       984 6.92203E-05 2.50885E-05 0.00000E+00
 -1       985 6.91394E-05 2.60034E-05 0.00000E+00
 -3
    1PSTEP                         8           4           1          
  100CL  104 4.68750E-01         409                     0    4           1
 -4  STRESS      6    1
 -5  SXX         1    4    1    1
 -5  SYY         1    4    2    2
 -5  SZZ         1    4    3    3
 -5  SXY         1    4    1    2
 -5  SYZ         1    4    2    3
 -5  SZX         1    4    3    1
 -1         1-1.66232E+06-7.54123E+05-3.41811E+05-1.05172E+06-3.63798E-12 4.22006E-10
 -1         2 2.65833E+03 2.42311E+05 8.71180E+03 7.05386E+02-1.20934E-10-1.23697E-09
 -1         3-8.81965E+01-7.11673E+05 1.66349E+02-2.59914E+02-1.32484E-10 5.17139E-09
 -1         5-5.94089E+00 2.46858E+05 1.33759E+01-2.18092E+00 1.79931E-10 3.36058E-10
 -1         8-7.84263E+05-3.32714E+05-3.40264E+04-5.65306E+05 9.45874E-11 3.49246E-09
 -1         9-1.37672E+06-3.63503E+05-1.40799E+05-4.61591E+05 3.37604E-09-2.00234E-09
 -1        10-5.77827E+02-7.41413E+05-9.84259E+02-1.75380E+03-3.48291E-09-1.46706E-08
 -1        12-1.20705E+00 2.45635E+05 2.09042E+02-4.39656E-01 1.54614E-11-5.49388E-09
 -1        15 1.97985E+03 1.08805E+03 6.39987E+03 4.14736E+00-7.49196E-11 3.30733E-09
 -1        16-3.52223E+06-1.21073E+06-5.55569E+05-1.24175E+06 1.15833E-08-4.92825E-09
 -1        17-8.48878E+05-5.15030E+05-1.64424E+05-4.75612E+05-5.43514E-09 1.26311E-09
 -1        18 6.13770E+03-2.82424E+03-1.71459E+04-5.81794E+04 7.57723E-10 1.60480E-09
 -1        19 7.65873E+04 9.12312E+04-4.40924E+02 1.49609E+04-5.55156E-10 2.28501E-09
 -1        20-3.22752E+04-3.61838E+05-7.98373E+04 2.64785E+04 2.51369E-09 7.98749E-09
 -1        21-3.40874E+01-2.09299E+05-6.75651E+02-7.31601E+01-5.62241E-09-2.14664E-08
 -1        24-3.25431E+06-1.02222E+06-4.49769E+05-1.25934E+06-2.06104E-08-8.83301E-09
 -1        25 2.29309E+04-3.24728E+04 1.02355E+04-1.05054E+05 3.90901E-10 7.66031E-09
 -1        26-1.80589E+04 6.22201E+04-1.24084E+04-8.76210E+03 1.38025E-09 1.43635E-09
 -1        27-5.77607E+04-1.98463E+05-7.44337E+04 4.47234E+04 4.87178E-09-1.80080E-10
 -1        28 1.62003E+04-5.78497E+04 1.18252E+04 1.84662E+04 2.70126E-09 5.50017E-09
 -1        32-7.84476E+05-1.80938E+05 3.19188E+05-5.24346E+05-1.63054E-08 1.14929E-08
 -1        33-1.13563E+05 5.83167E+04 2.06766E+04-3.36957E+04 9.03185E-10 8.57502E-10
 -1        34-1.47296E+05-1.46788E+04 3.46772E+02 4.53490E+04 3.09430E-09 3.50231E-09
 -1        35-1.64750E+04-2.29905E+04-9.01113E+02 3.64590E+04 4.22579E-09-7.15833E-09
 -1        51 1.40496E+04-3.66903E+05 3.63643E+04-9.31468E+05 1.74623E-10 6.81030E-09
 -1        52 8.82660E+03-3.65872E+05 2.43236E+04-1.08640E+06 5.96629E-10 8.38190E-09
 -1        53 6.64592E+03-3.78219E+05 2.10125E+04-9.28230E+05 5.67525E-10-5.89353E-09
 -1        54 1.90751E+04-3.76899E+05 3.40756E+04-1.08977E+06-2.54659E-10-1.65383E-08
 -1        55 3.79169E+04-3.89891E+05 6.10584E+04-9.27711E+05 4.07454E-10 3.53612E-09
 -1        56-3.19008E+06-3.59187E+05-2.51169E+05-1.22966E+06-2.54659E-10 1.96451E-09
 -1        57-3.28910E+06-5.88301E+05-1.69306E+05-1.22204E+06-8.58563E-10-7.26141E-09
 -1        58-3.24121E+06-4.38060E+05-5.90948E+04-1.21306E+06 8.18545E-10 2.74304E-09
 -1        59-3.22988E+06-4.95834E+05-3.52755E+04-1.24197E+06-1.16438E-09 2.04454E-09
 -1        60-3.24878E+06-4.48945E+05-1.37978E+04-1.21069E+06 1.08184E-09 7.81711E-10
 -1        61-3.22245E+06-4.81683E+05-7.83759E+03-1.24308E+06-1.41972E-09-7.73093E-09
 -1        62-3.24849E+06-4.51883E+05-3.78237E+03-1.21203E+06 1.36379E-09-3.17175E-09
 -1        63-3.22545E+06-4.75795E+05-3.07189E+03-1.23829E+06-2.22735E-09 8.42795E-09
 -1        64-3.24565E+06-4.54869E+05-3.56777E+03-1.21540E+06-3.57659E-09-2.06069E-09
 -1        65-3.23307E+06-4.70300E+05-7.04987E+03-1.23005E+06-3.37241E-09-2.25391E-08
 -1        66-3.24077E+06-4.57491E+05-1.24925E+04-1.22018E+06 1.75442E-09-1.37970E-09
 -1        67-3.24874E+06-4.73867E+05-3.16129E+04-1.21856E+06-1.19047E-09 2.03727E-10
 -1        68-3.23004E+06-4.51640E+05-5.31308E+04-1.22677E+06 2.24827E-09-6.43922E-09
 -1        69-3.30811E+06-5.50927E+05-1.51970E+05-1.19409E+06-2.84217E-10-5.51518E-09
 -1        70-3.18202E+06-3.82775E+05-2.25546E+05-1.24388E+06 3.09228E-10 1.74623E-10
 -1        86-1.33569E+03 2.39461E+05 9.30004E+03-3.52720E+02 1.13278E-09-9.00610E-09
 -1        87 8.85519E+03 2.45358E+05 1.94506E+04 1.45633E+03 1.90130E-09 5.28394E-09
 -1        88-7.51608E+03 2.36418E+05 2.97266E+04-1.10368E+03 2.84308E-09-9.92134E-09
 -1        89 5.60039E+04 2.67405E+05 8.02449E+04 3.17735E+03 4.35102E-09 1.23808E-08
 -1        90-4.83342E+04 2.17439E+05 1.13285E+05-2.07322E+03 5.00586E-09 6.05417E-09
 -1       121-1.38266E+02-7.12066E+05 1.31167E+02 1.29794E+02 3.86791E-10 8.93124E-10
 -1       122-3.28365E+01-7.11639E+05 3.59916E+02-5.19656E+02-1.34341E-09-8.64929E-09
 -1       123-1.76269E+02-7.12106E+05 5.54541E+02 3.88893E+02 1.12294E-09-3.61615E-09
 -1       124 6.33301E+02-7.11241E+05 1.50141E+03-1.16347E+03-2.62696E-09-2.33513E-09
 -1       125-6.04514E+02-7.12482E+05 2.27315E+03 7.73216E+02 1.76942E-09-6.45923E-09
 -1       191-6.32900E+00 2.46878E+05 1.61430E+01 1.08972E+00-1.01650E-10 5.17412E-09
 -1       192-4.30088E+00 2.46860E+05 2.90146E+01-1.03707E+01-9.69891E-11-1.17871E-09
 -1       193-8.51488E-01 2.46877E+05 5.46202E+01 9.27747E+00-3.42652E-10 5.98902E-10
 -1       194 2.24216E+01 2.46871E+05 1.16765E+02-8.24608E+01-3.21165E-10 6.16092E-09
 -1       195 7.80170E+01 2.46866E+05 2.33444E+02 7.32018E+01-5.65706E-10-5.10227E-10
 -1       251 1.19776E+05-4.12641E+04 9.61820E+04 3.90422E+03-2.52840E-10 6.54836E-09
 -1       252 1.64574E+05 4.77122E+04 6.84066E+04-1.37116E+04-5.95435E-10 2.71757E-09
 -1       253 1.36545E+05-6.39024E+03 2.48740E+04 2.96523E+03 6.57565E-10 4.45561E-09
 -1       254 1.44695E+05 7.37324E+03 1.58031E+04-1.22462E+04-3.66242E-10-1.84366E-08
 -1       255 1.39540E+05-9.87217E+02 6.42842E+03 2.43898E+03-1.75703E-10 1.75510E-09
 -1       256 1.41055E+05 1.17659E+03 3.93944E+03-1.14655E+04 7.40485E-10 1.56532E-08
 -1       257 1.40130E+05-1.73381E+02 2.03592E+03 2.18449E+03 1.53420E-10-1.64130E-09
 -1       258 1.40450E+05 3.83673E+02 1.83518E+03-1.12046E+04-5.86887E-10 3.25011E-09
 -1       259 1.40128E+05-1.83897E+02 2.13572E+03 2.17812E+03-1.21446E-10 7.53033E-09
 -1       260 1.41086E+05 1.26924E+03 4.22145E+03-1.14409E+04-3.27177E-10-5.95657E-09
 -1       261 1.39509E+05-1.06789E+03 6.94665E+03 2.42070E+03 1.46747E-09 6.00949E-09
 -1       262 1.44958E+05 7.98306E+03 1.70777E+04-1.21947E+04 3.21705E-10 6.14250E-09
 -1       263 1.36310E+05-6.91482E+03 2.69349E+04 2.93199E+03-6.56769E-10 3.79077E-09
 -1       264 1.66345E+05 5.16410E+04 7.39975E+04-1.36359E+04-2.66277E-09 1.20172E-08
 -1       265 1.18236E+05-4.46496E+04 1.04145E+05 3.86170E+03-8.81414E-10 8.75298E-09
 -1       266-3.58409E+04-1.67566E+04 8.41051E+04-8.87518E+01-3.27418E-11-7.54306E-09
 -1       267 4.15506E+04 1.95341E+04 5.94380E+04 1.02388E+02-3.72893E-11-1.90578E-08
 -1       268-5.57181E+03-2.76636E+03 2.20932E+04-1.30468E+01-4.82032E-11-1.18901E-08
 -1       269 6.57873E+03 3.31099E+03 1.43599E+04 1.51967E+01 6.59384E-12-2.78243E-09
 -1       270-9.87474E+02-5.44011E+02 6.93173E+03-2.06234E+00 6.82121E-13-2.34242E-10
 -1       271-3.50726E+06-4.38836E+05-2.69921E+05-1.36789E+06 1.95359E-09-4.65661E-10
 -1       272-3.58893E+06-6.50479E+05-1.73485E+05-1.38218E+06 8.59927E-10-8.96398E-09
 -1       273-3.55975E+06-5.04322E+05-6.37681E+04-1.35392E+06 7.43057E-10-1.53159E-09
 -1       274-3.52706E+06-5.70778E+05-3.56425E+04-1.40414E+06 1.28648E-09-1.07684E-09
 -1       275-3.56860E+06-5.09369E+05-1.48365E+04-1.34978E+06 1.82172E-09 1.96906E-09
 -1       276-3.51643E+06-5.65148E+05-7.85885E+03-1.41098E+06 5.18412E-11-4.06317E-09
 -1       277-3.57096E+06-5.08598E+05-3.84725E+03-1.34792E+06 6.49379E-10-2.52726E-09
 -1       278-3.51414E+06-5.65818E+05-2.78624E+03-1.41333E+06 2.10980E-09 4.51223E-10
 -1       279-3.57121E+06-5.08413E+05-2.98329E+03-1.34769E+06-4.26667E-10-2.47383E-10
 -1       280-3.51543E+06-5.65505E+05-5.46476E+03-1.41202E+06-3.34467E-10 1.06297E-09
 -1       281-3.56949E+06-5.09077E+05-1.00177E+04-1.34908E+06-2.24099E-09-5.10863E-09
 -1       282-3.52313E+06-5.68561E+05-2.38910E+04-1.40652E+06-2.90902E-09-2.24463E-09
 -1       283-3.56297E+06-5.06359E+05-4.27233E+04-1.35252E+06-1.33286E-09-2.42289E-09
 -1       284-3.56589E+06-6.20299E+05-1.16078E+05-1.38980E+06 9.99080E-10 6.50834E-09
 -1       285-3.52682E+06-4.63671E+05-1.80774E+05-1.36303E+06 1.25146E-09 5.90808E-09
 -1       301 1.44196E+04-1.74663E+04 1.10189E+05-4.48312E+04-8.84029E-10-1.22509E-09
 -1       302 1.55217E+04 1.04010E+04 7.88166E+04-6.60175E+04 1.44450E-09 6.19184E-09
 -1       303 8.64019E+02-7.43924E+03 7.14032E+04-4.49340E+04-8.49468E-10 5.36602E-09
 -1       304 2.78023E+04 2.18436E+04 1.18867E+05-6.57910E+04 7.51243E-10 1.15028E-08
 -1       305 2.74056E+04-2.86548E+04 1.98836E+05-4.49830E+04-8.87667E-10 4.00996E-09
 -1       306-3.92452E+06-4.58127E+05-2.98094E+05-1.53892E+06 1.29512E-09-8.84756E-09
 -1       307-4.08574E+06-7.01491E+05-2.03104E+05-1.47718E+06 1.74623E-09 3.69619E-09
 -1       308-3.99777E+06-5.45450E+05-7.02086E+04-1.50480E+06-3.26509E-10 2.56478E-09
 -1       309-3.99180E+06-6.09287E+05-4.23207E+04-1.52810E+06 4.48608E-10 4.27326E-09
 -1       310-4.01805E+06-5.48476E+05-1.64843E+04-1.48864E+06-3.23098E-10 2.78305E-09
 -1       311-3.96558E+06-6.08954E+05-9.49412E+03-1.55110E+06 6.06224E-09-4.43492E-09
 -1       312-4.02426E+06-5.45261E+05-4.64220E+03-1.48214E+06 3.10685E-10-9.14497E-10
 -1       313-3.96240E+06-6.08864E+05-4.16938E+03-1.55387E+06-1.22759E-09 9.13792E-09
 -1       314-4.02128E+06-5.48493E+05-5.11798E+03-1.48592E+06-2.71507E-09-3.47245E-09
 -1       315-3.97652E+06-5.97778E+05-1.05365E+04-1.53730E+06 1.29307E-09 4.67412E-09
 -1       316-4.00979E+06-5.56630E+05-1.88005E+04-1.49844E+06 1.61504E-09 1.55524E-10
 -1       317-4.01178E+06-5.93306E+05-4.80563E+04-1.50592E+06-9.45704E-10 6.30007E-09
 -1       318-3.98588E+06-5.53437E+05-7.97770E+04-1.51704E+06-5.26506E-09 6.36282E-09
 -1       319-4.11636E+06-7.01639E+05-2.31110E+05-1.45269E+06-4.02815E-09 5.32964E-09
 -1       320-3.90606E+06-4.50128E+05-3.38736E+05-1.55123E+06 9.79344E-09-7.13044E-10
 -1       336 4.96622E+02-7.70852E+05-4.21000E+03 9.78184E+02-7.03699E-09 4.80213E-09
 -1       337-1.53822E+03-7.71869E+05-4.65580E+03-2.48716E+03-1.30441E-08-3.81988E-09
 -1       338 3.34689E+02-7.70957E+05-5.98809E+03 1.50330E+03-9.17998E-09-9.26229E-09
 -1       339-6.21056E+03-7.74776E+05-1.31273E+04-3.52249E+03-1.68875E-08-2.33604E-09
 -1       340 4.18112E+03-7.68022E+05-2.02853E+04 2.00599E+03-1.11722E-08-1.03864E-09
 -1       406-7.64561E+01 2.44406E+05 2.78060E+02-7.27300E+01 4.76120E-10-1.85582E-09
 -1       407 1.08671E+02 2.44463E+05 8.06757E+02 7.46017E+01 9.05516E-11 1.48611E-09
 -1       408 4.37729E+02 2.44336E+05 1.71150E+03-1.72872E+00 6.08793E-10-4.03179E-09
 -1       409 1.87580E+03 2.45028E+05 3.90330E+03-6.68759E+01-2.25100E-11-4.66162E-09
 -1       410 5.40179E+03 2.43840E+05 7.99077E+03 7.15261E+01 6.83031E-10-2.77214E-09
 -1       521-7.36706E+06-7.74914E+05-5.67101E+05-2.72071E+06 1.98270E-09 4.30737E-09
 -1       522-7.08123E+06-1.58108E+06-3.49635E+05-3.07562E+06-2.83108E-08-6.10453E-09
 -1       523-7.58031E+06-7.77288E+05-1.31554E+05-2.48364E+06-1.42427E-09-1.80735E-08
 -1       524-6.87935E+06-1.54669E+06-7.24021E+04-3.37698E+06 2.32303E-08-3.18469E-08
 -1       525-7.60686E+06-7.76704E+05-2.94031E+04-2.44813E+06 2.44163E-08-2.06524E-08
 -1       526-6.89912E+06-1.42035E+06-4.18915E+03-3.23198E+06 9.68430E-09-7.66613E-09
 -1       527-7.53575E+06-9.20946E+05-2.66929E+04-2.61172E+06 1.55233E-08-4.48199E-09
 -1       528-7.12284E+06-1.09219E+06 2.03234E+04-2.79439E+06 2.27010E-09 1.98270E-09
 -1       529-7.34313E+06-1.13347E+06-3.21948E+04-2.85541E+06-1.15251E-08 3.13776E-09
 -1       530-7.56393E+06-7.09004E+05 2.82480E+03-2.38831E+06-1.65892E-09 1.72431E-08
 -1       531-7.11684E+06-1.28785E+06-3.49596E+04-3.03261E+06-2.93985E-08 4.60204E-09
 -1       532-7.90284E+06-5.19639E+05-7.10818E+04-2.20343E+06 3.16686E-09-2.82707E-08
 -1       533-7.04501E+06-1.29466E+06-1.24877E+05-3.07254E+06 9.65156E-09-5.21868E-08
 -1       534-7.89308E+06-8.11035E+05-3.52135E+05-2.23240E+06-1.22091E-08 3.71001E-08
 -1       535-7.11043E+06-1.01308E+06-5.54476E+05-2.98799E+06-1.07102E-08 2.74158E-08
 -1       536-1.03919E+05-1.75510E+04 4.04115E+04-6.28626E+02-8.19568E-10-1.31695E-09
 -1       537-8.48762E+04 2.03167E+04 2.88545E+04-7.42676E+00-8.11067E-09 6.50107E-09
 -1       538-9.72035E+04-2.76231E+03 1.03721E+04-2.39058E+02 1.45121E-10-7.23048E-10
 -1       539-9.28016E+04 3.18898E+03 6.75926E+03-8.33133E+02 4.86478E-09-7.48969E-10
 -1       540-9.59986E+04-4.37197E+02 2.56595E+03 1.97095E+02 2.89738E-09 7.67091E-09
 -1       541-9.43895E+04 4.94687E+02 1.64481E+03-1.63934E+03-3.75543E-10 1.23833E-08
 -1       542-9.56233E+04-6.48390E+01 5.56787E+02 5.67106E+02-3.67464E-10 3.36686E-09
 -1       543-9.49982E+04 4.47545E+01 2.80767E+02-2.25384E+03-1.05425E-09 1.14412E-09
 -1       544-9.53994E+04 1.94123E+01-1.14545E+02 8.11591E+02-1.70117E-09-6.82039E-09
 -1       545-9.53809E+04-1.90687E+02-5.23999E+02-2.58149E+03-1.01279E-09-5.39353E-09
 -1       546-9.52472E+04 1.75233E+02-1.02984E+03 8.94775E+02 8.80480E-10 3.34967E-09
 -1       547-9.59055E+04-1.27506E+03-2.61372E+03-2.57443E+03-3.85828E-09-5.36147E-09
 -1       548-9.48747E+04 1.10287E+03-4.22016E+03 8.04536E+02-3.43051E-09-1.55114E-09
 -1       549-9.88065E+04-8.12677E+03-1.14523E+04-2.22859E+03-1.77113E-09 7.25026E-09
 -1       550-9.23397E+04 7.01665E+03-1.63471E+04 5.48916E+02 9.41611E-11-1.27875E-09
 -1       551 8.69511E+03-3.98632E+05 2.08178E+04-6.75273E+05-3.02862E-08 1.74623E-10
 -1       552 1.91808E+04-4.01750E+05 2.77898E+04-9.61219E+05-2.26210E-08 1.19180E-08
 -1       553 1.30804E+04-4.06951E+05 4.31625E+04-6.72956E+05-3.61833E-08 1.14414E-08
 -1       554 4.15355E+04-3.90360E+05 9.17269E+04-9.62220E+05-2.27301E-08 2.71558E-09
 -1       555 3.97584E+04-4.24591E+05 1.64568E+05-6.73703E+05-3.73620E-08-5.40967E-09
 -1       556 6.10389E+04-1.29129E+05 4.36975E+04-1.68968E+05-6.57019E-09-2.27010E-09
 -1       557 1.13317E+05-1.72460E+05 2.29722E+04-2.11646E+05-4.58385E-10-1.25920E-09
 -1       558 6.08357E+04-1.34943E+05 9.26145E+03-1.63962E+05-4.78758E-09 5.18958E-09
 -1       559 1.06206E+05-1.78416E+05 4.71080E+03-2.14813E+05-6.55200E-09-7.85985E-09
 -1       560 5.92581E+04-1.33896E+05 1.93177E+03-1.64954E+05 6.18456E-10 1.78261E-09
 -1       561 1.03763E+05-1.77785E+05 1.03391E+03-2.16359E+05 1.13505E-08-1.13732E-09
 -1       562 5.79884E+04-1.33046E+05 3.85880E+02-1.65869E+05 3.04863E-09 2.15368E-09
 -1       563 1.02272E+05-1.77144E+05 2.49242E+02-2.17313E+05-2.39925E-09-6.60407E-10
 -1       564 5.71957E+04-1.32535E+05 8.72525E+01-1.66432E+05 6.83212E-09 2.72576E-09
 -1       565 1.01493E+05-1.76811E+05 5.88481E+01-2.17802E+05 4.55930E-09-1.44701E-09
 -1       566 5.69083E+04-1.32344E+05-1.58360E+01-1.66639E+05-1.11049E-09 3.96540E-10
 -1       567 1.01387E+05-1.76758E+05-1.00187E+02-2.17807E+05 3.26850E-09-6.47560E-09
 -1       568 5.71583E+04-1.32509E+05-3.02498E+02-1.66524E+05-1.49885E-09 9.20591E-09
 -1       569 1.01324E+05-1.76650E+05-7.07807E+02-2.16775E+05-1.45519E-10 8.28732E-09
 -1       570 5.84602E+04-1.33683E+05-1.52368E+03-1.66487E+05 1.98634E-09-7.11225E-10
 -1       571 1.77381E+05 6.45151E+03 9.55852E+03-4.50498E+04 1.42745E-09 2.99451E-10
 -1       572 1.78803E+05 2.24507E+03 4.68308E+03-4.93832E+04-3.52429E-10 2.98178E-09
 -1       573 1.77951E+05 5.36513E+02 2.08040E+03-4.49326E+04-2.46473E-10 1.60071E-10
 -1       574 1.78119E+05 1.76443E+02 1.04233E+03-4.95142E+04-1.09708E-09 2.74576E-09
 -1       575 1.78014E+05 2.64114E+01 4.91241E+02-4.49172E+04-2.32831E-10-1.69075E-09
 -1       576 1.78025E+05 9.65146E+00 2.50055E+02-4.95317E+04-2.86605E-10 7.88532E-10
 -1       577 1.78023E+05-8.83402E-01 1.23159E+02-4.49151E+04 1.64948E-09-2.34604E-09
 -1       578 1.78016E+05 1.12733E+00 6.71433E+01-4.95338E+04 1.05319E-09-3.10229E-09
 -1       579 1.78034E+05-2.92928E+00 4.10065E+01-4.49151E+04-7.96263E-10-3.99496E-09
 -1       580 1.78031E+05-4.63108E+00 3.82393E+01-4.95312E+04-1.93177E-09 1.12582E-08
 -1       581 1.78053E+05-9.98511E+00 5.16989E+01-4.49178E+04-1.14414E-09-1.05501E-10
 -1       582 1.78065E+05-3.00184E+00 9.85206E+01-4.95044E+04 9.60426E-10-1.17861E-08
 -1       583 1.78076E+05 2.01053E+01 1.88728E+02-4.49418E+04 3.11047E-10-4.43424E-09
 -1       584 1.78164E+05 1.66494E+02 4.23301E+02-4.93033E+04-1.12232E-09-3.99837E-09
 -1       585 1.78058E+05 5.38920E+02 8.59293E+02-4.51192E+04-4.43833E-10-2.14641E-10
 -1       586-2.12548E+03 5.83305E+04-2.81627E+03-1.53317E+05 3.18323E-10-6.68388E-09
 -1       587-4.43106E+02 5.79519E+04-2.94397E+02-1.68714E+05 6.38465E-10 2.99178E-09
 -1       588 6.16588E+02 5.80239E+04 2.05111E+03-1.53225E+05 4.68390E-10 2.89401E-09
 -1       589 3.03683E+03 5.91484E+04 5.94637E+03-1.68573E+05 6.07542E-10 1.14414E-09
 -1       590 8.70749E+03 5.73150E+04 1.27218E+04-1.53460E+05 2.91948E-10 2.48929E-09
 -1       591-3.89320E+04-1.10790E+04-1.28812E+04-2.01086E+04-7.94955E-10-6.81666E-09
 -1       592-4.01570E+04-1.42236E+04-6.97700E+03-2.34466E+04-1.14215E-09 3.51872E-09
 -1       593-4.02343E+04-1.01300E+04-2.90459E+03-2.10391E+04 1.02580E-09 2.58603E-09
 -1       594-3.83624E+04-1.23511E+04-1.44865E+03-2.35357E+04 1.06013E-09-1.82041E-11
 -1       595-4.03341E+04-1.01256E+04-6.65739E+02-2.10819E+04-9.15861E-10-1.49397E-09
 -1       596-3.82409E+04-1.22653E+04-3.39344E+02-2.35231E+04 2.14652E-09-4.67509E-09
 -1       597-4.03468E+04-1.01339E+04-1.86777E+02-2.10836E+04 6.16559E-10-5.68599E-09
 -1       598-3.82294E+04-1.22620E+04-1.53802E+02-2.35195E+04-1.22667E-09 6.14409E-09
 -1       599-4.03458E+04-1.01339E+04-2.01028E+02-2.10833E+04-1.27477E-09-3.97665E-09
 -1       600-3.82422E+04-1.22664E+04-3.77111E+02-2.35226E+04-6.46025E-10-6.43752E-09
 -1       601-4.03299E+04-1.01250E+04-7.45870E+02-2.10807E+04 4.68276E-10-1.21008E-09
 -1       602-3.83785E+04-1.23626E+04-1.62657E+03-2.35351E+04-1.50851E-09-2.73280E-09
 -1       603-4.02165E+04-1.01315E+04-3.26249E+03-2.10329E+04-1.40835E-09-3.45062E-09
 -1       604-4.04008E+04-1.44586E+04-7.83699E+03-2.34253E+04-6.66205E-11 3.62661E-10
 -1       605-3.87451E+04-1.12037E+04-1.44687E+04-1.99948E+04-7.16227E-10-1.27011E-09
 -1       606 2.51663E+04-8.54609E+03-1.53883E+04 2.45560E+04-2.76668E-09-6.49106E-09
 -1       607 2.25308E+04-2.75710E+03-7.66245E+03 2.75655E+04-9.35870E-10 3.66526E-10
 -1       608 2.40258E+04-4.65089E+02-3.43143E+03 2.43602E+04 1.59707E-09 1.62527E-09
 -1       609 2.37279E+04-1.20605E+02-1.73311E+03 2.77816E+04-1.35697E-09 1.97110E-09
 -1       610 2.38873E+04 2.25518E+01-8.27905E+02 2.43383E+04-3.01043E-09 8.90623E-10
 -1       611 2.38305E+04 3.42852E+01-4.17569E+02 2.78052E+04-6.39557E-09-3.48382E-09
 -1       612 2.38500E+04 3.64698E+01-1.99855E+02 2.43362E+04-4.64752E-09 3.25463E-09
 -1       613 2.38281E+04 4.20414E+01-9.11066E+01 2.78080E+04-5.74437E-09 2.99428E-09
 -1       614 2.38295E+04 3.73399E+01-2.54959E+01 2.43354E+04 3.98359E-10 2.70347E-10
 -1       615 2.38172E+04 4.70799E+01 2.83351E+01 2.78085E+04 5.52063E-09 3.47723E-09
 -1       616 2.38139E+04 4.25896E+01 9.40212E+01 2.43357E+04-5.15320E-09-3.22325E-09
 -1       617 2.38227E+04 7.08141E+01 2.18146E+02 2.78080E+04-2.21462E-09-2.45541E-09
 -1       618 2.37905E+04 1.08314E+02 4.40985E+02 2.43358E+04-1.65664E-09 2.36787E-09
 -1       619 2.39749E+04 4.14171E+02 9.91172E+02 2.78073E+04-1.79580E-09 6.38101E-09
 -1       620 2.36418E+04 1.15644E+03 1.99244E+03 2.43348E+04 2.43665E-09 1.66710E-09
 -1       621 3.03788E+02 1.92702E+05 2.64341E+03 6.68000E+03-3.56422E-10 2.02476E-09
 -1       622 3.47899E+02 1.93357E+05 2.25108E+03 9.75444E+03-1.74623E-10 6.55643E-09
 -1       623 1.41217E+01 1.92890E+05 2.59846E+03 6.64871E+03-2.69239E-10 2.34297E-09
 -1       624 1.17747E+03 1.94118E+05 4.94275E+03 9.78503E+03-2.19387E-10-2.06228E-10
 -1       625 1.18270E+03 1.91937E+05 8.59674E+03 6.64973E+03-2.12367E-10 5.96231E-10
 -1       626 1.59313E+05 4.40611E+04 3.17469E+03 8.60237E+04-1.69712E-09-1.59889E-09
 -1       627 1.57143E+05 4.56571E+04 1.52973E+03 8.94935E+04 7.27596E-12-1.03671E-09
 -1       628 1.59432E+05 4.25597E+04 6.46095E+02 8.65029E+04-7.91260E-11 9.46829E-09
 -1       629 1.56685E+05 4.52956E+04 3.16699E+02 8.97008E+04 4.81441E-09-8.37019E-10
 -1       630 1.59439E+05 4.24889E+04 1.46421E+02 8.65153E+04 9.19499E-10 2.12426E-08
 -1       631 1.56629E+05 4.52877E+04 7.87865E+01 8.97023E+04-2.54436E-08-2.41789E-09
 -1       632 1.59430E+05 4.24948E+04 5.20201E+01 8.65080E+04-1.14505E-08 1.03290E-08
 -1       633 1.56617E+05 4.52926E+04 5.81838E+01 8.96958E+04-4.52997E-09 1.57661E-09
 -1       634 1.59421E+05 4.24957E+04 9.42159E+01 8.65037E+04 1.11554E-08-4.58158E-10
 -1       635 1.56620E+05 4.52942E+04 1.91090E+02 8.96951E+04 2.28627E-08 4.04043E-10
 -1       636 1.59411E+05 4.24951E+04 3.85967E+02 8.65007E+04 6.18070E-09-2.21962E-09
 -1       637 1.56699E+05 4.53557E+04 8.48301E+02 8.96911E+04 1.62712E-09 5.23164E-09
 -1       638 1.59377E+05 4.26843E+04 1.74342E+03 8.64134E+04-2.22678E-09-5.07998E-09
 -1       639 1.57611E+05 4.66311E+04 4.12442E+03 8.94200E+04-9.87711E-10 5.14319E-10
 -1       640 1.59255E+05 4.64808E+04 8.55923E+03 8.48012E+04-6.54313E-09-1.60285E-08
 -1       656 4.31441E+04-1.09205E+06-1.04152E+05-3.64626E+02 5.63887E-10 6.35941E-09
 -1       657-5.70108E+04-1.13906E+06-8.61351E+04 7.03738E+03 8.87667E-10 2.87327E-09
 -1       658 1.36806E+04-1.10546E+06-5.28585E+04-1.36762E+03 6.08793E-10 4.21287E-09
 -1       659-6.11303E+04-1.14101E+06-9.15458E+04 7.70673E+03-1.26965E-09-2.67924E-09
 -1       660 4.72535E+04-1.09010E+06-1.13460E+05-1.03396E+03-6.54836E-10 3.72275E-09
 -1       661 1.53949E+05 1.67582E+04 1.47813E+04 6.01670E+04 7.58519E-10 1.07957E-09
 -1       662 1.61658E+05 2.83424E+04 9.96014E+03 5.75866E+04 1.57172E-10-5.47061E-09
 -1       663 1.56846E+05 2.15057E+04 3.48413E+03 5.93313E+04-2.35809E-09 2.46689E-09
 -1       664 1.58306E+05 2.27847E+04 2.08307E+03 5.86021E+04 8.69932E-10 4.79957E-10
 -1       665 1.57279E+05 2.21598E+04 8.21704E+02 5.92104E+04-3.54913E-09 4.60949E-09
 -1       666 1.57798E+05 2.20320E+04 4.79180E+02 5.87566E+04-7.08854E-09 4.56082E-09
 -1       667 1.57351E+05 2.22387E+04 2.52642E+02 5.91842E+04-2.31128E-09-3.32532E-09
 -1       668 1.57722E+05 2.19691E+04 2.53085E+02 5.87939E+04 3.33433E-09-1.33574E-08
 -1       669 1.57355E+05 2.22209E+04 3.39108E+02 5.91737E+04 4.77550E-09 4.72454E-09
 -1       670 1.57808E+05 2.21473E+04 7.35079E+02 5.87921E+04 5.46409E-09 5.64160E-09
 -1       671 1.57265E+05 2.20640E+04 1.30410E+03 5.91846E+04-1.61515E-09-5.03854E-09
 -1       672 1.58569E+05 2.34142E+04 3.33563E+03 5.86067E+04-1.60669E-09-3.78253E-09
 -1       673 1.56598E+05 2.09859E+04 5.58965E+03 5.93470E+04 8.74138E-10 7.92397E-10
 -1       674 1.63893E+05 3.23915E+04 1.59853E+04 5.70403E+04-2.94847E-10 3.09615E-09
 -1       675 1.51976E+05 1.33377E+04 2.37271E+04 6.06564E+04 4.22915E-09-3.58887E-09
 -1       676 1.75411E+01-2.09243E+05-8.14333E+02 3.65809E+01-4.95930E-10-4.38888E-09
 -1       677-2.16130E+02-2.09440E+05-1.49031E+03-7.31296E+01-6.75982E-10-7.51733E-10
 -1       678 1.44358E+02-2.09103E+05-2.63447E+03 3.65234E+01 5.29781E-11 2.08587E-09
 -1       679-2.63497E+03-2.11030E+05-6.25814E+03-7.29034E+01-2.33308E-09-4.76529E-09
 -1       680 1.57257E+03-2.07653E+05-1.00860E+04 3.59361E+01-5.69798E-10 5.11389E-09
 -1       771-2.24591E+06-3.98063E+05-5.57069E+04-9.36905E+05-8.68749E-09-6.25732E-09
 -1       772-2.23052E+06-4.28581E+05-2.98034E+04-9.71001E+05-9.54606E-09 5.59976E-09
 -1       773-2.25381E+06-3.91904E+05-1.30287E+04-9.40005E+05-1.05647E-08 2.06273E-09
 -1       774-2.22265E+06-4.22191E+05-6.29715E+03-9.74920E+05 5.40240E-09-8.84029E-10
 -1       775-2.25588E+06-3.90527E+05-3.30763E+03-9.40266E+05-1.66619E-09 3.43789E-10
 -1       776-2.22265E+06-4.22276E+05-1.49094E+03-9.77170E+05 3.92902E-10 1.62709E-09
 -1       777-2.25738E+06-3.89432E+05-1.00669E+03-9.40424E+05 1.46247E-09 1.66438E-09
 -1       778-2.22311E+06-4.22535E+05-4.19880E+02-9.79051E+05-2.60843E-09 3.92538E-09
 -1       779-2.25858E+06-3.88501E+05-4.52484E+02-9.40567E+05-3.75439E-09-2.67573E-09
 -1       780-2.22359E+06-4.22746E+05-3.01634E+02-9.80574E+05-1.90630E-09-1.86446E-11
 -1       781-2.25950E+06-3.87758E+05-5.48271E+02-9.40677E+05-7.14499E-09-1.20554E-09
 -1       782-2.22403E+06-4.22940E+05-9.26951E+02-9.81694E+05-1.04956E-08-2.58797E-09
 -1       783-2.26007E+06-3.87266E+05-1.86139E+03-9.40735E+05-2.96495E-09-5.64251E-09
 -1       784-2.22537E+06-4.24205E+05-4.37804E+03-9.82327E+05-5.90808E-09-2.30102E-10
 -1       785-2.25958E+06-3.87598E+05-8.10235E+03-9.40186E+05-9.73796E-09 9.34961E-10
 -1       786 1.63040E+05-8.74292E+03 2.02268E+04-9.15098E+00 9.52980E-07 1.13587E-08
 -1       787 1.71804E+05 1.01216E+04 1.43101E+04 1.93764E+00 1.89792E-06 1.19310E-08
 -1       788 1.66421E+05-1.37055E+03 5.23523E+03-4.59559E+00 2.00510E-06-1.79716E-09
 -1       789 1.67865E+05 1.58581E+03 3.28933E+03-6.81542E+00 2.10904E-06 1.13325E-08
 -1       790 1.66979E+05-2.14101E+02 1.33841E+03-3.98107E-01 2.34315E-06-1.23025E-08
 -1       791 1.67214E+05 2.48750E+02 7.85787E+02-1.61586E+01 2.57942E-06 9.34037E-10
 -1       792 1.67073E+05-3.44978E+01 3.58563E+02 4.74771E+00 3.16028E-06-2.10657E-08
 -1       793 1.67109E+05 4.84132E+01 2.34820E+02-2.88367E+01 3.73582E-06 1.34419E-08
 -1       794 1.67085E+05-1.38975E+01 1.73726E+02 1.22802E+01 1.86929E-06-8.89822E-09
 -1       795 1.67119E+05 7.16188E+01 2.50981E+02-4.83585E+01 5.99240E-09 7.41190E-09
 -1       796 1.67062E+05-5.76865E+01 3.75754E+02 2.42698E+01 2.23388E-10-2.57081E-09
 -1       797 1.67289E+05 4.22877E+02 8.85830E+02-8.00955E+01-2.35804E-10-1.19765E-08
 -1       798 1.66914E+05-3.64898E+02 1.39816E+03 4.40178E+01 2.16215E-10-1.46548E-09
 -1       799 1.68338E+05 2.69430E+03 3.81166E+03-1.33076E+02-5.26380E-10 7.00402E-09
 -1       800 1.66013E+05-2.32728E+03 5.38412E+03 7.72503E+01 1.17053E-10 8.75229E-09
 -1       801-5.01236E+03-1.72559E+05-5.15143E+03 1.88645E+04 1.00463E-08-1.51044E-09
 -1       802 1.78043E+04-7.23040E+04 3.87521E+04-7.28157E+04 2.71089E-08-4.41139E-09
 -1       803-1.19281E+04-1.29969E+05 5.41063E+04 2.11007E+04 2.13440E-08 2.07892E-08
 -1       804 1.12463E+05-1.78354E+04 1.63205E+05-7.31344E+04 2.51275E-08 2.20936E-08
 -1       805-9.97918E+04-2.26665E+05 2.02783E+05 1.91793E+04 8.92032E-09 2.32499E-08
 -1       806-1.93161E+05-4.12248E+04-1.63573E+04-8.02657E+04-1.63709E-11-5.72527E-10
 -1       807-1.94139E+05-3.88671E+04-8.03601E+03-8.45852E+04 2.13686E-09-1.38965E-09
 -1       808-1.93624E+05-3.53165E+04-3.40887E+03-8.30413E+04-2.01453E-10 3.52433E-09
 -1       809-1.92425E+05-3.66346E+04-1.66651E+03-8.48152E+04-5.15308E-09-3.25849E-09
 -1       810-1.93696E+05-3.51082E+04-7.63091E+02-8.31638E+04-4.40878E-09-9.17112E-10
 -1       811-1.92294E+05-3.65463E+04-3.78461E+02-8.47952E+04-3.21927E-09 8.56426E-09
 -1       812-1.93709E+05-3.51239E+04-1.88922E+02-8.31634E+04 1.95723E-09 1.11036E-08
 -1       813-1.92277E+05-3.65486E+04-1.19222E+02-8.47847E+04-8.86757E-12-1.89493E-09
 -1       814-1.93706E+05-3.51298E+04-1.11913E+02-8.31607E+04-1.52158E-09-6.11954E-09
 -1       815-1.92278E+05-3.65506E+04-1.75192E+02-8.47814E+04-1.52454E-09 2.80670E-09
 -1       816-1.93695E+05-3.51288E+04-3.28318E+02-8.31583E+04-9.34961E-10 5.15774E-09
 -1       817-1.92334E+05-3.65821E+04-7.03807E+02-8.47750E+04 6.03154E-09 5.94673E-09
 -1       818-1.93652E+05-3.52278E+04-1.43441E+03-8.31114E+04 7.25367E-09 4.37467E-09
 -1       819-1.93126E+05-3.74430E+04-3.37581E+03-8.45827E+04-1.44883E-09-9.80435E-09
 -1       820-1.93379E+05-3.77802E+04-6.87044E+03-8.20230E+04-1.96997E-09-2.95563E-09
 -1       821-2.49726E+05 1.38488E+04-3.20279E+04 8.64088E+01-4.49087E-10-9.62245E-09
 -1       822-2.63606E+05-1.60324E+04-2.26644E+04-6.07949E+02-1.80258E-09-4.39400E-09
 -1       823-2.55083E+05 2.17114E+03-8.29532E+03 5.49507E+01 6.97531E-10-1.27011E-09
 -1       824-2.57360E+05-2.51302E+03-5.21939E+03-4.63824E+02-4.74557E-10 7.00561E-09
 -1       825-2.55971E+05 3.39776E+02-2.14536E+03-5.77205E+01-2.95553E-09 5.04394E-09
 -1       826-2.56326E+05-4.00737E+02-1.29491E+03-2.01434E+02-5.34127E-09-1.57371E-09
 -1       827-2.56116E+05 6.02677E+01-6.70486E+02-2.07444E+02-4.18690E-09-3.77467E-09
 -1       828-2.56187E+05-1.22243E+02-5.92447E+02 7.84632E+01-5.16440E-09 8.26923E-09
 -1       829-2.56110E+05 6.15394E+01-6.80219E+02-3.37623E+02 2.72555E-10 3.52080E-09
 -1       830-2.56344E+05-4.10755E+02-1.32805E+03 2.70074E+02 2.63593E-09 4.56339E-09
 -1       831-2.55958E+05 3.48754E+02-2.19925E+03-3.99058E+02-2.43505E-09 6.97014E-09
 -1       832-2.57401E+05-2.57919E+03-5.35911E+03 3.01560E+02-2.82085E-09-2.06535E-09
 -1       833-2.55054E+05 2.22845E+03-8.51597E+03-3.69108E+02-2.03575E-09-6.63931E-10
 -1       834-2.63799E+05-1.64582E+04-2.32668E+04 1.63262E+02-1.02239E-09 3.20460E-09
 -1       835-2.49562E+05 1.42169E+04-3.28830E+04-2.60751E+02 5.12343E-09 3.33785E-09
 -1       836-8.31516E+02 2.36254E+05 1.42366E+04-2.05975E+04 1.58434E-09 1.84627E-10
 -1       837 3.13739E+03 2.40660E+05 1.21490E+04-4.13652E+04 2.33194E-09-4.23063E-09
 -1       838-3.03494E+02 2.37481E+05 1.25197E+04-2.05279E+04 2.00089E-09 3.96005E-09
 -1       839 8.03670E+03 2.44313E+05 2.38224E+04-4.13901E+04 2.66846E-09 8.01850E-09
 -1       840-2.41297E+03 2.32569E+05 3.80450E+04-2.05711E+04 1.76624E-09-9.79753E-10
 -1       856-7.71438E+04 6.64917E+03-1.75222E+04-3.93090E+02-3.46051E-09 2.99951E-09
 -1       857-8.43821E+04-7.79837E+03-1.20637E+04 3.99941E+03-4.36923E-09-1.10344E-09
 -1       858-8.00035E+04 9.31654E+02-4.54752E+03-4.10703E+02-5.73226E-09 6.05928E-09
 -1       859-8.10979E+04-1.08306E+03-2.74658E+03 4.02751E+03-4.62951E-09 1.74077E-09
 -1       860-8.04310E+04 1.29553E+02-1.15487E+03-4.21325E+02-1.23265E-10-4.74688E-09
 -1       861-8.06053E+04-1.42947E+02-6.43313E+02 4.04204E+03-6.60619E-09-3.05494E-09
 -1       862-8.04976E+04 1.71548E+01-2.83446E+02-4.25253E+02 4.33558E-09 2.51944E-10
 -1       863-8.05266E+04-1.03175E+01-1.39638E+02 4.04379E+03 7.97089E-09 1.65136E-09
 -1       864-8.05099E+04-1.66386E-01-4.27731E+01-4.23080E+02 4.06455E-09 1.86925E-09
 -1       865-8.05033E+04 2.06340E+01 2.91907E+01 4.03285E+03 4.57865E-09 3.42044E-09
 -1       866-8.05196E+04-1.41791E+01 1.00917E+02-4.14317E+02 3.32534E-12 2.15458E-10
 -1       867-8.04448E+04 1.18938E+02 2.75367E+02 4.00908E+03-6.26613E-10-1.77074E-09
 -1       868-8.05658E+04-9.78443E+01 4.64121E+02-3.99308E+02-1.99520E-11-2.52263E-09
 -1       869-8.00967E+04 8.11477E+02 1.24566E+03 3.96968E+03-3.78458E-09-7.89328E-09
 -1       870-8.08636E+04-6.89582E+02 1.80649E+03-3.74920E+02 2.84172E-09 4.95720E-09
 -1       871-3.66289E+03-7.66902E+03-1.18698E+04 7.78288E+04 2.51202E-09-4.86853E-09
 -1       872-1.59827E+03-1.03233E+04-4.83567E+03 1.00900E+05 4.66389E-09-1.15751E-08
 -1       873-4.40857E+01-9.08349E+03 6.98657E+02 7.76574E+04 1.95450E-09-4.64070E-09
 -1       874 1.81720E+03-7.35122E+03 6.75066E+03 1.00936E+05 3.56613E-09-1.27706E-08
 -1       875 4.32337E+03-1.06859E+04 1.49654E+04 7.78003E+04 2.00725E-09-2.70757E-09
 -1       876 1.94421E+05 3.35285E+04 1.04152E+04 7.89120E+04-2.70506E-09 2.28647E-09
 -1       877 1.95011E+05 3.58204E+04 5.56195E+03 8.19983E+04-5.59373E-09-6.71730E-09
 -1       878 1.95394E+05 3.23756E+04 2.33020E+03 7.97673E+04 3.76281E-09-1.43018E-09
 -1       879 1.93593E+05 3.44096E+04 1.16077E+03 8.20724E+04 2.26248E-09-6.88033E-10
 -1       880 1.95465E+05 3.23626E+04 5.40400E+02 7.98021E+04 3.77827E-09-6.36646E-09
 -1       881 1.93499E+05 3.43497E+04 2.87792E+02 8.20578E+04 6.16251E-09 5.11731E-09
 -1       882 1.95472E+05 3.23711E+04 1.82770E+02 7.98031E+04 6.09373E-09 1.58589E-09
 -1       883 1.93493E+05 3.43469E+04 1.94309E+02 8.20537E+04 9.53662E-10 8.74590E-09
 -1       884 1.95468E+05 3.23689E+04 3.07134E+02 7.98032E+04-4.22517E-09 4.27121E-10
 -1       885 1.93517E+05 3.43513E+04 6.16283E+02 8.20615E+04 4.82402E-09 2.81830E-10
 -1       886 1.95445E+05 3.23509E+04 1.24152E+03 7.98008E+04 6.75780E-09-1.45963E-09
 -1       887 1.93735E+05 3.44943E+04 2.71175E+03 8.20928E+04-2.47621E-09-2.80897E-09
 -1       888 1.95273E+05 3.23811E+04 5.46422E+03 7.97140E+04 9.95158E-10-7.08496E-10
 -1       889 1.96992E+05 3.78746E+04 1.30537E+04 8.19892E+04 7.31404E-10-2.34013E-09
 -1       890 1.93047E+05 3.50257E+04 2.44484E+04 7.76295E+04 2.45245E-09-1.80262E-09
 -1       891-1.23154E+02-1.10536E+05-1.30372E+03 2.10224E+04 2.19302E-10 7.25049E-09
 -1       892-2.13911E+02-1.10847E+05-1.41886E+03 3.18103E+04 2.33899E-09-7.04631E-09
 -1       893-3.64074E+01-1.10577E+05-2.02810E+03 2.10264E+04 2.53272E-09-1.09230E-08
 -1       894-1.11193E+03-1.11626E+05-4.21154E+03 3.16973E+04-1.86083E-09-1.25672E-08
 -1       895-8.68385E+02-1.09701E+05-7.42162E+03 2.11338E+04-1.43558E-09-7.31552E-09
 -1       956-2.44352E+05-3.52208E+03-8.87127E+03 1.61722E+04-3.94948E-09 2.36059E-09
 -1       957-2.46104E+05-1.18664E+03-4.55420E+03 1.94741E+04-1.81171E-09 6.98037E-11
 -1       958-2.45138E+05-9.29566E+01-2.05176E+03 1.60665E+04 1.49294E-09 8.51060E-10
 -1       959-2.45278E+05-1.43607E+01-1.04800E+03 1.95882E+04-1.75328E-09 7.38555E-09
 -1       960-2.45208E+05 3.10852E+01-5.10805E+02 1.60565E+04-3.68709E-09 6.35964E-10
 -1       961-2.45218E+05 2.95927E+01-2.70823E+02 1.95996E+04-5.88989E-09 1.45701E-09
 -1       962-2.45222E+05 2.73594E+01-1.54614E+02 1.60551E+04-3.76326E-09 8.87951E-09
 -1       963-2.45215E+05 3.06166E+01-1.23384E+02 1.96016E+04-5.17741E-09 1.11399E-08
 -1       964-2.45225E+05 2.90650E+01-1.48856E+02 1.60545E+04-5.98209E-09 2.37401E-09
 -1       965-2.45224E+05 3.33495E+01-2.56440E+02 1.96017E+04-4.56145E-09 5.88375E-09
 -1       966-2.45218E+05 3.61090E+01-4.80903E+02 1.60550E+04-6.45241E-09 3.09126E-09
 -1       967-2.45288E+05-4.31747E+00-9.86102E+02 1.95956E+04 8.08541E-10-7.89635E-09
 -1       968-2.45157E+05-7.71168E+01-1.92960E+03 1.60607E+04-2.66709E-10-3.96244E-09
 -1       969-2.46071E+05-1.10394E+03-4.28427E+03 1.95287E+04 1.07696E-09-3.46816E-09
 -1       970-2.44422E+05-3.30084E+03-8.34472E+03 1.61244E+04 5.93218E-10-1.78352E-09
 -1       971-2.32074E+05-1.22486E+03-6.82166E+03 1.13340E+04-3.08501E-09-1.94615E-09
 -1       972-2.33734E+05-8.77114E+02-3.71516E+03 1.58337E+04-1.64414E-09 3.06477E-09
 -1       973-2.32832E+05-6.25190E+00-1.66343E+03 1.12396E+04-4.02952E-09-3.61752E-10
 -1       974-2.32948E+05-5.93348E+00-8.61762E+02 1.59353E+04-2.68574E-09-1.06149E-09
 -1       975-2.32890E+05 2.51408E+01-4.29646E+02 1.12313E+04 5.61613E-10 7.03267E-10
 -1       976-2.32900E+05 2.93067E+01-2.46017E+02 1.59453E+04-2.06512E-09 3.40083E-09
 -1       977-2.32901E+05 2.45937E+01-1.75134E+02 1.12295E+04-2.71780E-09 7.88077E-10
 -1       978-2.32902E+05 3.29918E+01-2.00339E+02 1.59478E+04 1.26238E-09-1.88606E-09
 -1       979-2.32900E+05 2.98242E+01-3.17874E+02 1.12288E+04 8.48104E-10-4.35421E-10
 -1       980-2.32925E+05 3.48729E+01-6.11263E+02 1.59482E+04 6.05928E-09-4.27463E-11
 -1       981-2.32881E+05 4.50590E+01-1.18252E+03 1.12291E+04 1.06036E-09-1.97485E-09
 -1       982-2.33088E+05-5.22789E+01-2.44348E+03 1.59435E+04-1.10515E-09-2.06310E-09
 -1       983-2.32732E+05-3.03167E+01-4.74724E+03 1.12336E+04 1.77738E-09 5.60181E-09
 -1       984-2.35371E+05-2.53098E+03-1.06306E+04 1.58796E+04-5.79348E-10-1.76237E-09
 -1       985-2.30584E+05-3.50374E+03-1.95212E+04 1.12976E+04 1.41472E-09 4.92128E-09
 -3
    1PSTEP                         9           5           1          
  100CL  105 5.03906E-01         409                     0    5           1
 -4  DISP        4    1
 -5  D1          1    2    1    0
 -5  D2          1    2    2    0
 -5  D3          1    2    3    0
 -5  ALL         1    2    0    0    1ALL
 -1         1 1.52996E-04 0.00000E+00 0.00000E+00
 -1         2 1.37936E-04-9.41392E-31-4.13590E-25
 -1         3 1.35473E-04 1.54937E-27-6.61744E-24
 -1         5 9.22575E-05 7.09529E-27 0.00000E+00
 -1         8 1.28010E-04-8.82723E-07 0.00000E+00
 -1         9 1.25460E-04-6.63253E-08 0.00000E+00
 -1        10 1.25010E-04-1.83247E-06 0.00000E+00
 -1        12 9.18534E-05 5.58541E-07-1.65436E-24
 -1        15 9.82271E-05-9.77853E-07-4.13590E-25
 -1        16 1.02023E-04-2.43741E-07 0.00000E+00
 -1        17 9.17495E-05-3.88858E-06 0.00000E+00
 -1        18 8.95804E-05 2.53016E-06 0.00000E+00
 -1        19 9.06588E-05 1.10862E-06 0.00000E+00
 -1        20 9.07982E-05 1.41484E-05 0.00000E+00
 -1        21 9.02524E-05 2.62672E-05 1.65436E-24
 -1        24 2.04413E-05-5.36862E-06 0.00000E+00
 -1        25 8.86701E-05 2.65999E-06 0.00000E+00
 -1        26 8.96147E-05 1.53957E-06 0.00000E+00
 -1        27 8.80829E-05 1.16828E-05 0.00000E+00
 -1        28 8.76170E-05 2.57980E-05 0.00000E+00
 -1        32 0.00000E+00 0.00000E+00 0.00000E+00
 -1        33 8.73198E-05 2.06042E-06 0.00000E+00
 -1        34 8.58377E-05 1.16600E-05 0.00000E+00
 -1        35 8.44341E-05 2.55493E-05 0.00000E+00
 -1        51 1.51374E-04-1.45897E-07 0.00000E+00
 -1        52 1.48364E-04-2.86903E-07 0.00000E+00
 -1        53 1.44239E-04-4.29290E-07 0.00000E+00
 -1        54 1.39283E-04-5.74627E-07 3.30872E-24
 -1        55 1.33778E-04-7.23720E-07 5.73857E-24
 -1        56 1.51633E-04-8.02422E-07 0.00000E+00
 -1        57 1.50393E-04-2.08815E-06-1.32349E-23
 -1        58 1.49282E-04-3.71240E-06-5.29396E-23
 -1        59 1.48238E-04-5.54272E-06 0.00000E+00
 -1        60 1.47214E-04-7.42448E-06 0.00000E+00
 -1        61 1.46149E-04-9.20494E-06-2.64698E-23
 -1        62 1.44992E-04-1.07379E-05-5.29396E-23
 -1        63 1.43691E-04-1.18866E-05 2.64698E-23
 -1        64 1.42205E-04-1.25414E-05-5.29396E-23
 -1        65 1.40499E-04-1.26106E-05 0.00000E+00
 -1        66 1.38555E-04-1.20443E-05 0.00000E+00
 -1        67 1.36362E-04-1.08147E-05 2.64698E-23
 -1        68 1.33927E-04-8.94251E-06 5.29396E-23
 -1        69 1.31273E-04-6.46786E-06 0.00000E+00
 -1        70 1.28422E-04-3.48034E-06 0.00000E+00
 -1        86 1.37589E-04-3.57153E-09 0.00000E+00
 -1        87 1.36546E-04-8.14218E-09-4.13590E-25
 -1        88 1.34811E-04-1.37160E-08 0.00000E+00
 -1        89 1.32383E-04-2.40410E-08 1.65436E-24
 -1        90 1.29265E-04-3.50648E-08 0.00000E+00
 -1       121 1.35180E-04-3.03400E-07 0.00000E+00
 -1       122 1.34304E-04-6.07135E-07 0.00000E+00
 -1       123 1.32845E-04-9.11534E-07 0.00000E+00
 -1       124 1.30807E-04-1.21697E-06 3.30872E-24
 -1       125 1.28193E-04-1.52368E-06 0.00000E+00
 -1       191 9.22463E-05 9.31039E-08 0.00000E+00
 -1       192 9.22126E-05 1.86206E-07 1.65436E-24
 -1       193 9.21564E-05 2.79306E-07 6.61744E-24
 -1       194 9.20777E-05 3.72401E-07 0.00000E+00
 -1       195 9.19767E-05 4.65485E-07 0.00000E+00
 -1       251 1.27838E-04 3.39892E-06-6.61744E-24
 -1       252 1.27678E-04 6.31813E-06 0.00000E+00
 -1       253 1.27519E-04 7.94417E-06 6.61744E-24
 -1       254 1.27364E-04 8.35441E-06 0.00000E+00
 -1       255 1.27208E-04 7.72211E-06 0.00000E+00
 -1       256 1.27052E-04 6.22718E-06 3.30872E-24
 -1       257 1.26895E-04 4.11747E-06-6.61744E-24
 -1       258 1.26737E-04 1.64474E-06 0.00000E+00
 -1       259 1.26579E-04-9.10707E-07 6.61744E-24
 -1       260 1.26421E-04-3.26799E-06 3.30872E-24
 -1       261 1.26264E-04-5.16183E-06 6.61744E-24
 -1       262 1.26108E-04-6.32996E-06 0.00000E+00
 -1       263 1.25952E-04-6.56723E-06 0.00000E+00
 -1       264 1.25794E-04-5.67442E-06 0.00000E+00
 -1       265 1.25635E-04-3.54152E-06 6.61744E-24
 -1       266 1.23047E-04-9.10649E-07 0.00000E+00
 -1       267 1.18083E-04-9.25033E-07 1.65436E-24
 -1       268 1.13119E-04-9.40274E-07 0.00000E+00
 -1       269 1.08155E-04-9.52974E-07 4.13590E-25
 -1       270 1.03191E-04-9.65616E-07 0.00000E+00
 -1       271 1.25013E-04 2.93474E-06 0.00000E+00
 -1       272 1.22417E-04 5.55549E-06 0.00000E+00
 -1       273 1.20230E-04 7.09907E-06 0.00000E+00
 -1       274 1.18396E-04 7.68394E-06-2.64698E-23
 -1       275 1.16869E-04 7.45207E-06-5.29396E-23
 -1       276 1.15588E-04 6.55740E-06 0.00000E+00
 -1       277 1.14493E-04 5.16705E-06 5.29396E-23
 -1       278 1.13518E-04 3.45664E-06-2.64698E-23
 -1       279 1.12594E-04 1.60789E-06-5.29396E-23
 -1       280 1.11653E-04-1.94941E-07 0.00000E+00
 -1       281 1.10626E-04-1.76862E-06 0.00000E+00
 -1       282 1.09448E-04-2.93384E-06 2.64698E-23
 -1       283 1.08053E-04-3.51930E-06 0.00000E+00
 -1       284 1.06385E-04-3.36236E-06 0.00000E+00
 -1       285 1.04381E-04-2.31800E-06-2.64698E-23
 -1       301 1.21242E-04-1.06673E-07-6.61744E-24
 -1       302 1.17066E-04-1.28305E-07 0.00000E+00
 -1       303 1.12995E-04-1.48763E-07-6.61744E-24
 -1       304 1.09090E-04-1.69831E-07 3.30872E-24
 -1       305 1.05413E-04-1.92352E-07 0.00000E+00
 -1       306 1.22470E-04 2.24144E-06 2.64698E-23
 -1       307 1.20293E-04 2.20886E-06 2.64698E-23
 -1       308 1.18942E-04-1.83936E-08 0.00000E+00
 -1       309 1.18306E-04-4.19771E-06 2.64698E-23
 -1       310 1.18172E-04-9.73041E-06-5.29396E-23
 -1       311 1.18286E-04-1.59442E-05-2.64698E-23
 -1       312 1.18359E-04-2.20439E-05 0.00000E+00
 -1       313 1.18097E-04-2.72416E-05 0.00000E+00
 -1       314 1.17268E-04-3.09104E-05-5.29396E-23
 -1       315 1.15669E-04-3.25109E-05 0.00000E+00
 -1       316 1.13230E-04-3.18742E-05 0.00000E+00
 -1       317 1.09932E-04-2.89579E-05 0.00000E+00
 -1       318 1.05907E-04-2.41265E-05 0.00000E+00
 -1       319 1.01343E-04-1.78473E-05 2.64698E-23
 -1       320 9.65014E-05-1.08548E-05 0.00000E+00
 -1       336 1.21188E-04-2.16738E-06-1.32349E-23
 -1       337 1.16661E-04-2.50556E-06-3.30872E-24
 -1       338 1.11439E-04-2.84689E-06-6.61744E-24
 -1       339 1.05536E-04-3.19134E-06-3.30872E-24
 -1       340 9.89670E-05-3.53982E-06 6.61744E-24
 -1       406 9.17085E-05 6.50714E-07-3.30872E-24
 -1       407 9.15421E-05 7.42833E-07 1.65436E-24
 -1       408 9.13539E-05 8.34887E-07 0.00000E+00
 -1       409 9.11439E-05 9.26765E-07 1.65436E-24
 -1       410 9.09122E-05 1.01829E-06 3.30872E-24
 -1       521 1.03556E-04-1.34762E-05-5.29396E-23
 -1       522 1.15250E-04-5.63696E-05 0.00000E+00
 -1       523 1.34178E-04-1.21808E-04 0.00000E+00
 -1       524 1.57123E-04-2.00697E-04 0.00000E+00
 -1       525 1.80471E-04-2.80949E-04 1.05879E-22
 -1       526 2.00590E-04-3.50355E-04 5.29396E-23
 -1       527 2.14196E-04-3.99131E-04 1.05879E-22
 -1       528 2.18107E-04-4.19327E-04 5.29396E-23
 -1       529 2.10762E-04-4.09187E-04 0.00000E+00
 -1       530 1.91477E-04-3.69486E-04 5.29396E-23
 -1       531 1.62406E-04-3.07118E-04 0.00000E+00
 -1       532 1.26926E-04-2.30667E-04 0.00000E+00
 -1       533 9.02044E-05-1.51531E-04 0.00000E+00
 -1       534 5.76060E-05-8.12835E-05 0.00000E+00
 -1       535 3.32930E-05-2.97597E-05 5.29396E-23
 -1       536 9.16002E-05 4.53218E-06 0.00000E+00
 -1       537 9.14402E-05 1.47054E-05-1.65436E-24
 -1       538 9.12741E-05 2.54717E-05 3.30872E-24
 -1       539 9.11147E-05 3.56690E-05-1.65436E-24
 -1       540 9.09695E-05 4.42618E-05 0.00000E+00
 -1       541 9.08429E-05 5.02224E-05 0.00000E+00
 -1       542 9.07291E-05 5.31103E-05-3.30872E-24
 -1       543 9.06192E-05 5.25001E-05 0.00000E+00
 -1       544 9.05029E-05 4.87457E-05 0.00000E+00
 -1       545 9.03730E-05 4.22164E-05-1.65436E-24
 -1       546 9.02307E-05 3.39004E-05 0.00000E+00
 -1       547 9.00820E-05 2.47948E-05-1.65436E-24
 -1       548 8.99365E-05 1.60730E-05-3.30872E-24
 -1       549 8.98040E-05 8.90678E-06 0.00000E+00
 -1       550 8.96845E-05 4.12145E-06 0.00000E+00
 -1       551 8.23404E-05-4.10673E-06 0.00000E+00
 -1       552 7.11218E-05-4.33862E-06 1.65436E-24
 -1       553 5.87036E-05-4.58337E-06 1.65436E-24
 -1       554 4.57052E-05-4.83722E-06-6.61744E-24
 -1       555 3.27460E-05-5.09334E-06 0.00000E+00
 -1       556 8.92328E-05 2.62827E-06 0.00000E+00
 -1       557 8.72877E-05 7.67508E-06 0.00000E+00
 -1       558 8.58527E-05 1.13832E-05 0.00000E+00
 -1       559 8.48720E-05 1.38947E-05 0.00000E+00
 -1       560 8.42899E-05 1.53514E-05 0.00000E+00
 -1       561 8.40513E-05 1.58960E-05 0.00000E+00
 -1       562 8.41017E-05 1.56713E-05 0.00000E+00
 -1       563 8.43868E-05 1.48204E-05 0.00000E+00
 -1       564 8.48527E-05 1.34864E-05 0.00000E+00
 -1       565 8.54455E-05 1.18126E-05 1.65436E-24
 -1       566 8.61118E-05 9.94250E-06 0.00000E+00
 -1       567 8.67978E-05 8.01937E-06-4.13590E-25
 -1       568 8.74500E-05 6.18662E-06 0.00000E+00
 -1       569 8.80151E-05 4.58747E-06 0.00000E+00
 -1       570 8.84393E-05 3.36520E-06 0.00000E+00
 -1       571 8.96459E-05 2.47320E-06-8.27181E-25
 -1       572 8.97128E-05 2.37211E-06-8.27181E-25
 -1       573 8.97801E-05 2.23504E-06 0.00000E+00
 -1       574 8.98476E-05 2.07058E-06 0.00000E+00
 -1       575 8.99152E-05 1.88731E-06 1.65436E-24
 -1       576 8.99828E-05 1.69392E-06 0.00000E+00
 -1       577 9.00504E-05 1.49906E-06 0.00000E+00
 -1       578 9.01180E-05 1.31141E-06-1.65436E-24
 -1       579 9.01857E-05 1.13965E-06-3.30872E-24
 -1       580 9.02533E-05 9.92448E-07 1.65436E-24
 -1       581 9.03210E-05 8.78488E-07 0.00000E+00
 -1       582 9.03886E-05 8.06430E-07-3.30872E-24
 -1       583 9.04563E-05 7.84934E-07 0.00000E+00
 -1       584 9.05239E-05 8.22568E-07 0.00000E+00
 -1       585 9.05914E-05 9.27847E-07 0.00000E+00
 -1       586 8.93984E-05 2.55313E-06 1.65436E-24
 -1       587 8.91894E-05 2.57556E-06 0.00000E+00
 -1       588 8.89825E-05 2.59775E-06 0.00000E+00
 -1       589 8.88074E-05 2.61959E-06 0.00000E+00
 -1       590 8.86937E-05 2.64081E-06 0.00000E+00
 -1       591 8.95694E-05 2.51045E-06-2.06795E-25
 -1       592 8.95685E-05 2.45673E-06 0.00000E+00
 -1       593 8.95777E-05 2.37564E-06 0.00000E+00
 -1       594 8.95946E-05 2.27307E-06 0.00000E+00
 -1       595 8.96172E-05 2.15505E-06 0.00000E+00
 -1       596 8.96434E-05 2.02752E-06 0.00000E+00
 -1       597 8.96709E-05 1.89644E-06 0.00000E+00
 -1       598 8.96974E-05 1.76776E-06 0.00000E+00
 -1       599 8.97209E-05 1.64743E-06 0.00000E+00
 -1       600 8.97389E-05 1.54140E-06-2.06795E-25
 -1       601 8.97495E-05 1.45560E-06 0.00000E+00
 -1       602 8.97502E-05 1.39601E-06 2.06795E-25
 -1       603 8.97390E-05 1.36856E-06 1.03398E-25
 -1       604 8.97138E-05 1.37927E-06 5.16988E-26
 -1       605 8.96723E-05 1.43406E-06 0.00000E+00
 -1       606 9.06710E-05 1.44296E-06 0.00000E+00
 -1       607 9.06808E-05 1.86962E-06 1.65436E-24
 -1       608 9.06899E-05 2.38317E-06 0.00000E+00
 -1       609 9.06987E-05 2.97750E-06 0.00000E+00
 -1       610 9.07073E-05 3.64647E-06-3.30872E-24
 -1       611 9.07159E-05 4.38386E-06 0.00000E+00
 -1       612 9.07243E-05 5.18342E-06 0.00000E+00
 -1       613 9.07328E-05 6.03893E-06 0.00000E+00
 -1       614 9.07411E-05 6.94415E-06 0.00000E+00
 -1       615 9.07495E-05 7.89284E-06 0.00000E+00
 -1       616 9.07578E-05 8.87875E-06 0.00000E+00
 -1       617 9.07660E-05 9.89566E-06 0.00000E+00
 -1       618 9.07743E-05 1.09373E-05-8.27181E-25
 -1       619 9.07824E-05 1.19975E-05 0.00000E+00
 -1       620 9.07905E-05 1.30699E-05 0.00000E+00
 -1       621 9.04227E-05 1.18051E-06-1.65436E-24
 -1       622 9.02211E-05 1.25274E-06 0.00000E+00
 -1       623 9.00467E-05 1.32495E-06 0.00000E+00
 -1       624 8.98924E-05 1.39705E-06-8.27181E-25
 -1       625 8.97508E-05 1.46902E-06 1.65436E-24
 -1       626 9.06112E-05 1.46615E-06-3.30872E-24
 -1       627 9.05357E-05 1.89960E-06 0.00000E+00
 -1       628 9.04345E-05 2.40177E-06 0.00000E+00
 -1       629 9.03104E-05 2.96501E-06 0.00000E+00
 -1       630 9.01663E-05 3.58166E-06 0.00000E+00
 -1       631 9.00051E-05 4.24400E-06 0.00000E+00
 -1       632 8.98296E-05 4.94430E-06 0.00000E+00
 -1       633 8.96427E-05 5.67487E-06 0.00000E+00
 -1       634 8.94474E-05 6.42798E-06 3.30872E-24
 -1       635 8.92464E-05 7.19591E-06-1.65436E-24
 -1       636 8.90428E-05 7.97097E-06-1.65436E-24
 -1       637 8.88394E-05 8.74544E-06 0.00000E+00
 -1       638 8.86391E-05 9.51158E-06 1.65436E-24
 -1       639 8.84446E-05 1.02617E-05-8.27181E-25
 -1       640 8.82586E-05 1.09881E-05 0.00000E+00
 -1       656 8.99221E-05 1.37472E-05 0.00000E+00
 -1       657 8.93986E-05 1.33300E-05-3.30872E-24
 -1       658 8.90957E-05 1.29141E-05 1.32349E-23
 -1       659 8.88774E-05 1.24986E-05 0.00000E+00
 -1       660 8.85904E-05 1.20817E-05-6.61744E-24
 -1       661 9.04747E-05 1.52011E-05 0.00000E+00
 -1       662 9.01743E-05 1.62004E-05 8.27181E-25
 -1       663 8.98931E-05 1.71481E-05 1.65436E-24
 -1       664 8.96308E-05 1.80468E-05 8.27181E-25
 -1       665 8.93861E-05 1.88990E-05 0.00000E+00
 -1       666 8.91580E-05 1.97069E-05-8.27181E-25
 -1       667 8.89458E-05 2.04728E-05-1.65436E-24
 -1       668 8.87486E-05 2.11988E-05 0.00000E+00
 -1       669 8.85656E-05 2.18871E-05 0.00000E+00
 -1       670 8.83960E-05 2.25394E-05 0.00000E+00
 -1       671 8.82392E-05 2.31578E-05 0.00000E+00
 -1       672 8.80943E-05 2.37440E-05 0.00000E+00
 -1       673 8.79609E-05 2.42997E-05 0.00000E+00
 -1       674 8.78375E-05 2.48263E-05-8.27181E-25
 -1       675 8.77246E-05 2.53258E-05-4.13590E-25
 -1       676 8.98120E-05 2.61886E-05 0.00000E+00
 -1       677 8.93718E-05 2.61099E-05 8.27181E-25
 -1       678 8.89320E-05 2.60313E-05 0.00000E+00
 -1       679 8.84928E-05 2.59529E-05 0.00000E+00
 -1       680 8.80544E-05 2.58746E-05-1.65436E-24
 -1       771 1.56522E-05 4.24696E-06 5.29396E-23
 -1       772 1.15200E-05 1.21272E-05 0.00000E+00
 -1       773 8.01621E-06 1.83654E-05 0.00000E+00
 -1       774 5.09927E-06 2.30628E-05 0.00000E+00
 -1       775 2.72808E-06 2.63228E-05 0.00000E+00
 -1       776 8.59799E-07 2.82535E-05 0.00000E+00
 -1       777-5.48928E-07 2.89652E-05 0.00000E+00
 -1       778-1.54242E-06 2.85717E-05 2.64698E-23
 -1       779-2.16528E-06 2.71889E-05 0.00000E+00
 -1       780-2.46297E-06 2.49358E-05 0.00000E+00
 -1       781-2.48107E-06 2.19326E-05-2.64698E-23
 -1       782-2.26578E-06 1.83020E-05-1.32349E-23
 -1       783-1.86339E-06 1.41678E-05 0.00000E+00
 -1       784-1.32059E-06 9.65524E-06 1.32349E-23
 -1       785-6.84106E-07 4.89032E-06-2.64698E-23
 -1       786 8.87256E-05 2.48857E-06-4.13590E-25
 -1       787 8.87844E-05 2.33183E-06 0.00000E+00
 -1       788 8.88431E-05 2.18751E-06 1.65436E-24
 -1       789 8.89024E-05 2.05340E-06 0.00000E+00
 -1       790 8.89617E-05 1.92867E-06 0.00000E+00
 -1       791 8.90211E-05 1.81252E-06-8.27181E-25
 -1       792 8.90806E-05 1.70534E-06 0.00000E+00
 -1       793 8.91400E-05 1.60753E-06 0.00000E+00
 -1       794 8.91995E-05 1.52077E-06 0.00000E+00
 -1       795 8.92590E-05 1.44678E-06-8.27181E-25
 -1       796 8.93185E-05 1.38903E-06 0.00000E+00
 -1       797 8.93780E-05 1.35104E-06 0.00000E+00
 -1       798 8.94375E-05 1.33902E-06 0.00000E+00
 -1       799 8.94968E-05 1.35927E-06-8.27181E-25
 -1       800 8.95561E-05 1.42251E-06-1.65436E-24
 -1       801 8.26659E-05 2.35108E-06 0.00000E+00
 -1       802 6.43787E-05 1.88735E-06-3.30872E-24
 -1       803 4.04862E-05 1.31709E-06 0.00000E+00
 -1       804 1.77435E-05 7.65267E-07 0.00000E+00
 -1       805 2.24644E-06 3.40505E-07 0.00000E+00
 -1       806 8.86566E-05 2.44323E-06-1.65436E-24
 -1       807 8.86377E-05 2.23258E-06-8.27181E-25
 -1       808 8.86143E-05 2.03251E-06-3.30872E-24
 -1       809 8.85851E-05 1.84674E-06 0.00000E+00
 -1       810 8.85491E-05 1.67900E-06 1.65436E-24
 -1       811 8.85050E-05 1.53290E-06 0.00000E+00
 -1       812 8.84513E-05 1.41210E-06 3.30872E-24
 -1       813 8.83868E-05 1.32023E-06 8.27181E-25
 -1       814 8.83100E-05 1.26090E-06 1.65436E-24
 -1       815 8.82197E-05 1.23773E-06-8.27181E-25
 -1       816 8.81145E-05 1.25435E-06 0.00000E+00
 -1       817 8.79931E-05 1.31437E-06-8.27181E-25
 -1       818 8.78540E-05 1.42140E-06-1.65436E-24
 -1       819 8.76961E-05 1.57903E-06 0.00000E+00
 -1       820 8.75181E-05 1.79087E-06 0.00000E+00
 -1       821 8.95245E-05 1.66471E-06 0.00000E+00
 -1       822 8.94288E-05 1.75315E-06 8.27181E-25
 -1       823 8.93335E-05 1.85747E-06 3.30872E-24
 -1       824 8.92370E-05 2.03019E-06 0.00000E+00
 -1       825 8.91406E-05 2.31019E-06 0.00000E+00
 -1       826 8.90439E-05 2.73588E-06 1.65436E-24
 -1       827 8.89471E-05 3.31663E-06-3.30872E-24
 -1       828 8.88501E-05 4.06116E-06-1.65436E-24
 -1       829 8.87531E-05 4.94553E-06 0.00000E+00
 -1       830 8.86559E-05 5.94522E-06 0.00000E+00
 -1       831 8.85588E-05 7.01274E-06 3.30872E-24
 -1       832 8.84618E-05 8.10027E-06 0.00000E+00
 -1       833 8.83649E-05 9.15600E-06 0.00000E+00
 -1       834 8.82691E-05 1.01283E-05-8.27181E-25
 -1       835 8.81731E-05 1.09821E-05 0.00000E+00
 -1       836 8.93797E-05 1.62627E-06 0.00000E+00
 -1       837 8.90332E-05 1.71491E-06 0.00000E+00
 -1       838 8.86144E-05 1.80338E-06 0.00000E+00
 -1       839 8.81629E-05 1.89128E-06 8.27181E-25
 -1       840 8.77182E-05 1.97904E-06 0.00000E+00
 -1       856 8.80572E-05 1.23626E-05-2.06795E-25
 -1       857 8.80284E-05 1.31467E-05 0.00000E+00
 -1       858 8.79998E-05 1.40186E-05 0.00000E+00
 -1       859 8.79705E-05 1.49619E-05 0.00000E+00
 -1       860 8.79412E-05 1.59600E-05-8.27181E-25
 -1       861 8.79117E-05 1.69964E-05-4.13590E-25
 -1       862 8.78822E-05 1.80543E-05 0.00000E+00
 -1       863 8.78526E-05 1.91170E-05-4.13590E-25
 -1       864 8.78231E-05 2.01679E-05-8.27181E-25
 -1       865 8.77936E-05 2.11903E-05-4.13590E-25
 -1       866 8.77641E-05 2.21675E-05 0.00000E+00
 -1       867 8.77347E-05 2.30830E-05 0.00000E+00
 -1       868 8.77053E-05 2.39202E-05 8.27181E-25
 -1       869 8.76759E-05 2.46626E-05 0.00000E+00
 -1       870 8.76466E-05 2.52939E-05 0.00000E+00
 -1       871 8.76018E-05 1.16819E-05 4.13590E-25
 -1       872 8.72224E-05 1.16788E-05 0.00000E+00
 -1       873 8.69008E-05 1.16754E-05 0.00000E+00
 -1       874 8.65924E-05 1.16715E-05 2.06795E-25
 -1       875 8.62527E-05 1.16671E-05-6.20385E-25
 -1       876 8.79198E-05 1.23716E-05 0.00000E+00
 -1       877 8.77398E-05 1.31111E-05-1.65436E-24
 -1       878 8.75433E-05 1.38952E-05-3.30872E-24
 -1       879 8.73323E-05 1.47182E-05-1.65436E-24
 -1       880 8.71089E-05 1.55744E-05 6.61744E-24
 -1       881 8.68753E-05 1.64581E-05 0.00000E+00
 -1       882 8.66334E-05 1.73635E-05-3.30872E-24
 -1       883 8.63856E-05 1.82849E-05-1.65436E-24
 -1       884 8.61338E-05 1.92167E-05 0.00000E+00
 -1       885 8.58803E-05 2.01533E-05 0.00000E+00
 -1       886 8.56271E-05 2.10887E-05 0.00000E+00
 -1       887 8.53763E-05 2.20175E-05 8.27181E-25
 -1       888 8.51301E-05 2.29338E-05 1.65436E-24
 -1       889 8.48902E-05 2.38319E-05-8.27181E-25
 -1       890 8.46589E-05 2.47061E-05 8.27181E-25
 -1       891 8.71998E-05 2.57564E-05-8.27181E-25
 -1       892 8.67646E-05 2.57146E-05 4.13590E-25
 -1       893 8.62910E-05 2.56729E-05-8.27181E-25
 -1       894 8.57583E-05 2.56313E-05-2.06795E-25
 -1       895 8.51461E-05 2.55897E-05-4.13590E-25
 -1       956 8.72289E-05 2.44796E-06-1.65436E-24
 -1       957 8.71365E-05 2.89453E-06-1.65436E-24
 -1       958 8.70438E-05 3.39388E-06 1.65436E-24
 -1       959 8.69510E-05 3.93938E-06-8.27181E-25
 -1       960 8.68580E-05 4.52441E-06 0.00000E+00
 -1       961 8.67650E-05 5.14230E-06 8.27181E-25
 -1       962 8.66720E-05 5.78637E-06-3.30872E-24
 -1       963 8.65790E-05 6.44996E-06 0.00000E+00
 -1       964 8.64860E-05 7.12638E-06 0.00000E+00
 -1       965 8.63930E-05 7.80894E-06-1.65436E-24
 -1       966 8.62999E-05 8.49099E-06 0.00000E+00
 -1       967 8.62070E-05 9.16582E-06 0.00000E+00
 -1       968 8.61140E-05 9.82677E-06-3.30872E-24
 -1       969 8.60213E-05 1.04672E-05-1.65436E-24
 -1       970 8.59288E-05 1.10804E-05 0.00000E+00
 -1       971 8.57511E-05 1.22577E-05 0.00000E+00
 -1       972 8.56633E-05 1.29326E-05 1.65436E-24
 -1       973 8.55754E-05 1.36761E-05-3.30872E-24
 -1       974 8.54872E-05 1.44795E-05 8.27181E-25
 -1       975 8.53990E-05 1.53338E-05 0.00000E+00
 -1       976 8.53108E-05 1.62301E-05-1.65436E-24
 -1       977 8.52225E-05 1.71596E-05 3.30872E-24
 -1       978 8.51342E-05 1.81133E-05 0.00000E+00
 -1       979 8.50459E-05 1.90825E-05 0.00000E+00
 -1       980 8.49576E-05 2.00581E-05 0.00000E+00
 -1       981 8.48693E-05 2.10312E-05 0.00000E+00
 -1       982 8.47811E-05 2.19931E-05 1.65436E-24
 -1       983 8.46930E-05 2.29347E-05 3.30872E-24
 -1       984 8.46054E-05 2.38471E-05 1.65436E-24
 -1       985 8.45181E-05 2.47216E-05 0.00000E+00
 -3
    1PSTEP                        10           5           1          
  100CL  105 5.03906E-01         409                     0    5           1
 -4  STRESS      6    1
 -5  SXX         1    4    1    1
 -5  SYY         1    4    2    2
 -5  SZZ         1    4    3    3
 -5  SXY         1    4    1    2
 -5  SYZ         1    4    2    3
 -5  SZX         1    4    3    1
 -1         1-1.94898E+06-8.55089E+05-4.06924E+05-1.14604E+06 5.45697E-10-3.01225E-09
 -1         2 2.64709E+03-6.50620E+03 8.65554E+03-2.39194E+01-1.24970E-10 1.60975E-09
 -1         3-1.47457E+02-8.66324E+05 2.04850E+02-4.01601E+02-7.57545E-11-1.17889E-08
 -1         5-4.15477E+00 2.66403E+05 1.44013E+01-1.73879E+00 1.94603E-10 2.03636E-08
 -1         8-9.26665E+05-3.63490E+05-6.67371E+04-5.64438E+05 4.54747E-10 1.40426E-09
 -1         9-1.77023E+06-5.22841E+05-2.03603E+05-5.56404E+05 3.84753E-09-1.99652E-09
 -1        10-7.37208E+02-9.02528E+05-1.21973E+03-2.71550E+03-4.23915E-09-3.00602E-09
 -1        12 1.19883E+00 2.65084E+05 2.25156E+02-1.87199E-01-2.31921E-11-1.73176E-08
 -1        15 1.99991E+03 1.09907E+03 6.46471E+03 4.29295E+00-1.49555E-10-2.59564E-09
 -1        16-3.21325E+06-1.25162E+06-5.15984E+05-1.30615E+06 1.18453E-08-1.94026E-11
 -1        17-1.06756E+06-6.25658E+05-2.08873E+05-5.61889E+05-5.44678E-09-2.94240E-09
 -1        18-4.48118E+04-1.55417E+04-3.12622E+04-6.54957E+04 2.09604E-09 1.61617E-09
 -1        19 8.30256E+04 9.82220E+04-5.27224E+02 1.61834E+04-5.29326E-10 1.77170E-09
 -1        20-3.67713E+04-3.92271E+05-8.66788E+04 2.77498E+04 2.62450E-09-2.17369E-09
 -1        21-3.65851E+01-2.24996E+05-7.24474E+02-6.79620E+01-6.59345E-09 1.47693E-09
 -1        24-3.22550E+06-9.05679E+05-4.08909E+05-1.18630E+06-3.08113E-08-1.45519E-08
 -1        25-8.03094E+03-1.78259E+05-2.32833E+04-1.14267E+05 2.83217E-10 1.82295E-08
 -1        26-2.16853E+04 6.63522E+04-1.38360E+04-8.40965E+03 1.66110E-09 3.19585E-09
 -1        27-6.16525E+04-2.14839E+05-8.04508E+04 4.84288E+04 5.86662E-09 5.73073E-09
 -1        28 1.73913E+04-6.23937E+04 1.27254E+04 1.95213E+04 3.53288E-09 5.06247E-09
 -1        32-9.19650E+05-5.49083E+05 2.63208E+05-5.58666E+05-2.04964E-08 5.66885E-09
 -1        33-1.23526E+05 6.28262E+04 2.23163E+04-3.51498E+04 1.03343E-09 4.36618E-09
 -1        34-1.59259E+05-1.59613E+04 3.84825E+02 4.93602E+04 2.33167E-09-4.56703E-09
 -1        35-1.76944E+04-2.47917E+04-9.73510E+02 3.91943E+04 6.72699E-09-1.36000E-09
 -1        51 1.72829E+04-3.62516E+05 4.33947E+04-9.52233E+05 1.89175E-10 1.27184E-08
 -1        52 1.00473E+04-3.60456E+05 2.80265E+04-1.11058E+06 1.16415E-10-1.33587E-08
 -1        53 7.02397E+03-3.73925E+05 2.28997E+04-9.48902E+05 1.81899E-10-8.48377E-09
 -1        54 1.97842E+04-3.72592E+05 3.55823E+04-1.11404E+06-2.25555E-10 2.38651E-09
 -1        55 3.90457E+04-3.86013E+05 6.28093E+04-9.48361E+05 9.16771E-10 2.94312E-09
 -1        56-3.73276E+06-4.18891E+05-2.99230E+05-1.44035E+06-1.04774E-09 3.12866E-09
 -1        57-3.85641E+06-6.86473E+05-2.01751E+05-1.42490E+06 1.20053E-10-8.20000E-09
 -1        58-3.79341E+06-5.13212E+05-7.03863E+04-1.42089E+06-2.71029E-10 1.18271E-08
 -1        59-3.78624E+06-5.75764E+05-4.20179E+04-1.44806E+06 1.15642E-09-3.05226E-09
 -1        60-3.80223E+06-5.26390E+05-1.64246E+04-1.41829E+06-5.39330E-10-6.49015E-09
 -1        61-3.77767E+06-5.58606E+05-9.31899E+03-1.44905E+06 3.22700E-09-1.09034E-08
 -1        62-3.80180E+06-5.29978E+05-4.47224E+03-1.41999E+06-2.59001E-09-8.16735E-09
 -1        63-3.78128E+06-5.51576E+05-3.59986E+03-1.44338E+06 1.73532E-09-1.33861E-09
 -1        64-3.79849E+06-5.33444E+05-4.11112E+03-1.42389E+06-1.83945E-09-3.52543E-09
 -1        65-3.78996E+06-5.45394E+05-8.11709E+03-1.43413E+06-6.76505E-09-1.13903E-08
 -1        66-3.79305E+06-5.36260E+05-1.43097E+04-1.42916E+06-2.94131E-09 6.46742E-09
 -1        67-3.80735E+06-5.50171E+05-3.62945E+04-1.42178E+06-7.32246E-09 1.61740E-08
 -1        68-3.78122E+06-5.29027E+05-6.09130E+04-1.43614E+06-5.33873E-10 8.01083E-09
 -1        69-3.87413E+06-6.40030E+05-1.74412E+05-1.39530E+06 2.81943E-11-6.71571E-09
 -1        70-3.72704E+06-4.49084E+05-2.58747E+05-1.45479E+06-3.81988E-10 3.71074E-09
 -1        86-1.33043E+03-9.38274E+03 9.23284E+03 1.19385E+01 1.15938E-09-1.46852E-08
 -1        87 8.80635E+03-3.53100E+03 1.93126E+04-3.66130E+01 1.92699E-09-2.15843E-09
 -1        88-7.47003E+03-1.23570E+04 2.95312E+04 2.46265E+01 2.81943E-09-8.52077E-09
 -1        89 5.56429E+04 1.81900E+04 7.96669E+04 3.54313E+01 4.31555E-09-1.30965E-08
 -1        90-4.80068E+04-3.10848E+04 1.12562E+05-5.96040E+01 4.54747E-09-1.27055E-08
 -1       121-2.22050E+02-8.66928E+05 1.35122E+02 2.00465E+02 4.88946E-10-3.14685E-10
 -1       122-7.84914E+01-8.66287E+05 4.39790E+02-8.02671E+02-1.84952E-09-3.06318E-09
 -1       123-2.66808E+02-8.66977E+05 6.49499E+02 6.00205E+02 1.41841E-09-3.25417E-09
 -1       124 7.36922E+02-8.65812E+05 1.82572E+03-1.76010E+03-3.40106E-09-3.57068E-09
 -1       125-7.85231E+02-8.67437E+05 2.73609E+03 1.15684E+03 2.07456E-09 1.85537E-09
 -1       191-4.45763E+00 2.66425E+05 1.75001E+01 8.68931E-01-6.23359E-11 4.77030E-09
 -1       192-2.38013E+00 2.66405E+05 3.12420E+01-8.34652E+00-6.85887E-11-1.25683E-08
 -1       193 1.47570E+00 2.66424E+05 5.89619E+01 7.47566E+00-2.91038E-10-7.01675E-09
 -1       194 2.64900E+01 2.66417E+05 1.25858E+02-6.67063E+01-2.03158E-10 5.10272E-09
 -1       195 8.66989E+01 2.66412E+05 2.51760E+02 5.92490E+01-4.44288E-10-3.99723E-10
 -1       251-4.53024E+05-1.95869E+04 4.54606E+04-1.27514E+03 3.63116E-10 8.73115E-10
 -1       252-4.30722E+05 2.26328E+04 3.25383E+04-4.90348E+03 7.46923E-11 7.21866E-09
 -1       253-4.45228E+05-3.05863E+03 1.16842E+04 1.11220E+03-3.76417E-10 2.24736E-09
 -1       254-4.40175E+05 3.50716E+03 7.63137E+03-9.25787E+03 3.55840E-10 4.48460E-09
 -1       255-4.43638E+05-4.83860E+02 3.01215E+03 3.07908E+03-5.02666E-10 1.25741E-08
 -1       256-4.42326E+05 5.82121E+02 1.97660E+03-1.23878E+04 1.10776E-09 8.01640E-09
 -1       257-4.43147E+05-9.26031E+01 1.05688E+03 4.24215E+03-3.17186E-10-9.26823E-09
 -1       258-4.42875E+05 2.52164E+02 1.09867E+03-1.37069E+04-5.43139E-10 5.47513E-09
 -1       259-4.43125E+05-1.28679E+02 1.41924E+03 4.39822E+03-6.37073E-10 3.25213E-09
 -1       260-4.42312E+05 9.14573E+02 2.96393E+03-1.29874E+04 6.66716E-10 1.26698E-09
 -1       261-4.43689E+05-7.67888E+02 4.87305E+03 3.52265E+03 1.53818E-09 1.20201E-08
 -1       262-4.39309E+05 5.68183E+03 1.21638E+04-1.03565E+04 1.66187E-09 8.52469E-09
 -1       263-4.46062E+05-4.92723E+03 1.90368E+04 1.76728E+03-1.01159E-09-1.12132E-08
 -1       264-4.24260E+05 3.66512E+04 5.25130E+04-6.34057E+03-3.18926E-09-1.38498E-08
 -1       265-4.58653E+05-3.16799E+04 7.38351E+04-4.93351E+02-1.38596E-09 1.91721E-09
 -1       266-3.62039E+04-1.69263E+04 8.49576E+04-9.18679E+01 3.27418E-11-2.16914E-10
 -1       267 4.19715E+04 1.97321E+04 6.00402E+04 1.05982E+02 7.27596E-12 2.90407E-09
 -1       268-5.62826E+03-2.79439E+03 2.23171E+04-1.35048E+01 4.45652E-11 6.65217E-09
 -1       269 6.64538E+03 3.34454E+03 1.45054E+04 1.57302E+01 7.70797E-11 6.31654E-09
 -1       270-9.97479E+02-5.49523E+02 7.00196E+03-2.13474E+00 2.36469E-11 5.06947E-09
 -1       271-3.47702E+06-4.35056E+05-2.65960E+05-1.35543E+06-6.94854E-10-9.69158E-09
 -1       272-3.56277E+06-6.38515E+05-1.70969E+05-1.36366E+06 4.50200E-10-9.21136E-09
 -1       273-3.52861E+06-4.99769E+05-6.28339E+04-1.34182E+06 4.01087E-09-1.17507E-09
 -1       274-3.50179E+06-5.59864E+05-3.51257E+04-1.38506E+06 1.67711E-09 2.37196E-09
 -1       275-3.53732E+06-5.04764E+05-1.46283E+04-1.33772E+06-5.11136E-10-7.76708E-09
 -1       276-3.49111E+06-5.54476E+05-7.74175E+03-1.39193E+06-3.27282E-09 2.37628E-09
 -1       277-3.53980E+06-5.03862E+05-3.79819E+03-1.33573E+06 1.44291E-09 4.06362E-09
 -1       278-3.48847E+06-5.55545E+05-2.74047E+03-1.39475E+06 2.02692E-09 1.12040E-08
 -1       279-3.54031E+06-5.03386E+05-2.92529E+03-1.33520E+06-1.22961E-09 3.32216E-09
 -1       280-3.48921E+06-5.55865E+05-5.36413E+03-1.39429E+06 6.48470E-10-2.42744E-09
 -1       281-3.53902E+06-5.03623E+05-9.79392E+03-1.33613E+06 1.59889E-09 2.20280E-09
 -1       282-3.49609E+06-5.59663E+05-2.34248E+04-1.38996E+06 2.78760E-10 2.11403E-08
 -1       283-3.53310E+06-5.00456E+05-4.18105E+04-1.33900E+06 1.44973E-09 1.21363E-08
 -1       284-3.53716E+06-6.11318E+05-1.13753E+05-1.37479E+06-1.29057E-09-5.83714E-09
 -1       285-3.49820E+06-4.58065E+05-1.77034E+05-1.34872E+06 4.14730E-10 1.98634E-09
 -1       301 1.76962E+04-3.51539E+04 1.32234E+05-7.37207E+04-8.03993E-10-9.22682E-10
 -1       302 1.88200E+04-1.70841E+03 9.08649E+04-1.08503E+05 1.32763E-09 1.99043E-09
 -1       303 1.03392E+03-2.25373E+04 7.65282E+04-7.38430E+04-8.54925E-10 1.24601E-09
 -1       304 2.79751E+04 7.10501E+03 1.21030E+05-1.08117E+05 9.13133E-10 2.39852E-08
 -1       305 2.73008E+04-4.33387E+04 1.98977E+05-7.40979E+04-8.73115E-10 1.57852E-08
 -1       306-4.73070E+06-5.45004E+05-3.56693E+05-1.84314E+06 3.40515E-09-9.37143E-09
 -1       307-4.89327E+06-8.62331E+05-2.42409E+05-1.79930E+06-2.69847E-09 9.74978E-09
 -1       308-4.82552E+06-6.41136E+05-8.40212E+04-1.79279E+06 6.53927E-10 6.12272E-09
 -1       309-4.77418E+06-7.61013E+05-5.05389E+04-1.87164E+06 5.87465E-09 9.11768E-09
 -1       310-4.84992E+06-6.43604E+05-1.95661E+04-1.77204E+06-4.58726E-10 6.34191E-09
 -1       311-4.74969E+06-7.53998E+05-1.13530E+04-1.89175E+06 8.02834E-09 2.88810E-09
 -1       312-4.85039E+06-6.47462E+05-5.62370E+03-1.77314E+06-2.44245E-09 7.38650E-09
 -1       313-4.76401E+06-7.33365E+05-4.62305E+03-1.87020E+06-1.01068E-09 1.62381E-08
 -1       314-4.83486E+06-6.64704E+05-6.58691E+03-1.79306E+06-4.01951E-09 4.14639E-09
 -1       315-4.80516E+06-6.94708E+05-1.21082E+04-1.82066E+06-2.22576E-09 1.15506E-09
 -1       316-4.80845E+06-6.86732E+05-2.29526E+04-1.82207E+06 2.01999E-09-3.08319E-09
 -1       317-4.86725E+06-6.71967E+05-5.76122E+04-1.76441E+06 5.68627E-09-8.98945E-09
 -1       318-4.77338E+06-6.87496E+05-9.58669E+04-1.84955E+06-8.13634E-09 9.79344E-09
 -1       319-4.99447E+06-8.03309E+05-2.78282E+05-1.70272E+06-5.70253E-09-7.93079E-09
 -1       320-4.68308E+06-5.57078E+05-4.07406E+05-1.88383E+06 9.13133E-09-1.40717E-08
 -1       336 5.42672E+02-9.38498E+05-5.20339E+03 1.55335E+03-8.79982E-09 6.69388E-10
 -1       337-1.91440E+03-9.39612E+05-5.76419E+03-3.88230E+03-1.64671E-08-2.32831E-09
 -1       338 3.66587E+02-9.38618E+05-7.50118E+03 2.31794E+03-1.17163E-08 3.24144E-09
 -1       339-7.77481E+03-9.43309E+05-1.64283E+04-5.38482E+03-2.12895E-08 5.08498E-09
 -1       340 5.19426E+03-9.34947E+05-2.54328E+04 3.04390E+03-1.40117E-08 1.42427E-08
 -1       406-8.02289E+01 2.63758E+05 2.98288E+02-5.90305E+01 3.11047E-10-7.44444E-09
 -1       407 1.18729E+02 2.63818E+05 8.66234E+02 6.06699E+01-3.40492E-11-8.04175E-09
 -1       408 4.72317E+02 2.63682E+05 1.83819E+03-1.51092E+00 4.62933E-10-3.16732E-09
 -1       409 2.01658E+03 2.64425E+05 4.19216E+03-5.39119E+01-2.27374E-13-5.54792E-09
 -1       410 5.80338E+03 2.63150E+05 8.58233E+03 5.79703E+01 4.43833E-10-1.03939E-08
 -1       521-7.80673E+06-7.58579E+05-6.72463E+05-2.62921E+06-7.86895E-09-5.82077E-10
 -1       522-6.37754E+06-1.92450E+06-2.84357E+05-3.59807E+06-6.13672E-08-2.30793E-08
 -1       523-7.96708E+06-5.12399E+05-1.44113E+05-2.10673E+06-2.41198E-09-3.49173E-08
 -1       524-6.39525E+06-2.03066E+06-5.63118E+04-4.27682E+06 7.14113E-08-7.45476E-08
 -1       525-7.97656E+06-5.10948E+05-3.49584E+04-2.07166E+06 3.48009E-08-4.05053E-08
 -1       526-6.25415E+06-1.76294E+06 5.71596E+04-3.75865E+06 5.69053E-08 3.63798E-11
 -1       527-7.94923E+06-8.95369E+05-1.11359E+05-2.52525E+06 1.96742E-08 3.51865E-08
 -1       528-6.54741E+06-1.01153E+06 1.33831E+05-2.59424E+06-1.63782E-08 1.75332E-08
 -1       529-7.50228E+06-1.38998E+06-1.24522E+05-3.09168E+06 2.40107E-09-1.26420E-08
 -1       530-7.79090E+06-1.15278E+05 7.39131E+04-1.80549E+06-1.35587E-08 1.17216E-08
 -1       531-6.85524E+06-1.68250E+06-4.80414E+04-3.40886E+06-9.04038E-08 4.72573E-09
 -1       532-8.72658E+06 3.07733E+05-5.31031E+04-1.61066E+06 7.34690E-08-5.42586E-08
 -1       533-6.74660E+06-1.68907E+06-1.27347E+05-3.44357E+06 2.94749E-08-1.12403E-07
 -1       534-8.23324E+06-1.66860E+05-2.88842E+05-1.68198E+06-3.20251E-08 7.58773E-08
 -1       535-7.22909E+06-1.29475E+06-6.40581E+05-3.22806E+06-1.43191E-08 5.55301E-08
 -1       536-3.20026E+05-1.37606E+04 3.09748E+04-6.38685E+03-1.01014E-09 5.90262E-09
 -1       537-3.03682E+05 1.59094E+04 2.24320E+04 1.29051E+04-2.07171E-08 9.14110E-09
 -1       538-3.13352E+05-2.06230E+03 8.09271E+03-7.26090E+03 3.20634E-09 1.72149E-08
 -1       539-3.07918E+05 2.54626E+03 5.68897E+03 1.14782E+04 2.01611E-08 1.42828E-08
 -1       540-3.15742E+05-4.45944E+02 1.36877E+03-4.95920E+03 4.49870E-09 7.26106E-09
 -1       541-3.02896E+05 6.71904E+02 2.95565E+03 4.69997E+03 2.02135E-10 6.12130E-09
 -1       542-3.18220E+05-3.16596E+02-8.21604E+02-4.81632E+02 3.85955E-09 1.97730E-09
 -1       543-3.02699E+05 2.87071E+02 1.87276E+03-4.36985E+03-2.26407E-09-3.24950E-09
 -1       544-3.15932E+05-7.22604E+01-1.20150E+03 4.10920E+03-1.71048E-09-8.52728E-09
 -1       545-3.08802E+05-3.86665E+02-5.85807E+02-1.15444E+04-6.10083E-09-1.62981E-08
 -1       546-3.12269E+05 4.80731E+02-2.36169E+03 6.69318E+03-1.11959E-09-9.14952E-09
 -1       547-3.12623E+05-2.84482E+03-5.64674E+03-1.35780E+04-1.21420E-08-4.18549E-09
 -1       548-3.12178E+05 2.44250E+03-9.53557E+03 6.14366E+03-1.42055E-08-1.17261E-08
 -1       549-3.14664E+05-1.75363E+04-2.42408E+04-9.53468E+03-6.97518E-09-1.48320E-08
 -1       550-3.10107E+05 1.50580E+04-3.71393E+04 2.64857E+03 1.30512E-10-6.87032E-09
 -1       551 1.22561E+04-4.85785E+05 2.25454E+04-8.12996E+05-3.80605E-08-1.17579E-08
 -1       552 2.77073E+04-4.92497E+05 2.97463E+04-1.15756E+06-2.93949E-08 8.03266E-09
 -1       553 1.94216E+04-4.98207E+05 4.49523E+04-8.10061E+05-4.86907E-08-3.71074E-10
 -1       554 5.21441E+04-4.84274E+05 9.49213E+04-1.15881E+06-3.08210E-08-1.23600E-08
 -1       555 4.70454E+04-5.16555E+05 1.69559E+05-8.10877E+05-4.76502E-08-1.46792E-08
 -1       556 8.22756E+04-1.55735E+05 5.28814E+04-1.99962E+05-8.62929E-09-1.65164E-08
 -1       557 1.45684E+05-2.07639E+05 2.78876E+04-2.51195E+05-1.74623E-09 1.05774E-09
 -1       558 8.14395E+04-1.62445E+05 1.11082E+04-1.94230E+05-1.06811E-08-2.07365E-09
 -1       559 1.36257E+05-2.14625E+05 5.69253E+03-2.55569E+05 2.27737E-09-1.96997E-09
 -1       560 7.90290E+04-1.60866E+05 2.25724E+03-1.95795E+05-3.19415E-09 1.20417E-09
 -1       561 1.32677E+05-2.13596E+05 1.23978E+03-2.57847E+05-7.10497E-09-3.02089E-09
 -1       562 7.71044E+04-1.59597E+05 4.25123E+02-1.97179E+05-8.27276E-09 6.47105E-09
 -1       563 1.30418E+05-2.12621E+05 3.02581E+02-2.59293E+05-4.39468E-09 4.31476E-09
 -1       564 7.58770E+04-1.58812E+05 9.84197E+01-1.98049E+05-3.08137E-09 3.34057E-09
 -1       565 1.29189E+05-2.12092E+05 8.88472E+01-2.60067E+05-4.52565E-09 1.17871E-08
 -1       566 7.53833E+04-1.58490E+05 8.00328E+00-1.98402E+05-7.17046E-09 3.71801E-09
 -1       567 1.28949E+05-2.11977E+05-6.35231E+01-2.60148E+05 8.85802E-09 3.54703E-09
 -1       568 7.56588E+04-1.58672E+05-2.62960E+02-1.98278E+05-4.08545E-09-6.18638E-09
 -1       569 1.29015E+05-2.11839E+05-6.21102E+02-2.58901E+05-1.37570E-08-3.46517E-09
 -1       570 7.72704E+04-1.60042E+05-1.41876E+03-1.98185E+05-9.34961E-10-1.17143E-09
 -1       571 1.92882E+05 7.09240E+03 1.04929E+04-4.97630E+04 1.29376E-09 1.01454E-08
 -1       572 1.94441E+05 2.47632E+03 5.14097E+03-5.45561E+04 1.03273E-09 1.22554E-08
 -1       573 1.93506E+05 5.99948E+02 2.28386E+03-4.96373E+04-8.98717E-09 1.60571E-08
 -1       574 1.93689E+05 2.06108E+02 1.14436E+03-5.46975E+04-2.13240E-08 4.18686E-09
 -1       575 1.93575E+05 4.02541E+01 5.39405E+02-4.96207E+04-1.08121E-08-4.46062E-09
 -1       576 1.93586E+05 2.29241E+01 2.74731E+02-5.47164E+04-2.80151E-09-6.50380E-09
 -1       577 1.93586E+05 9.81325E+00 1.35554E+02-4.96185E+04-1.92131E-09 5.99948E-09
 -1       578 1.93578E+05 1.26893E+01 7.44112E+01-5.47187E+04-2.22917E-09 1.04210E-08
 -1       579 1.93600E+05 6.30519E+00 4.62739E+01-4.96184E+04-2.63753E-11 8.53652E-09
 -1       580 1.93597E+05 4.79719E+00 4.46332E+01-5.47158E+04-9.48148E-10 6.51698E-09
 -1       581 1.93624E+05-3.13292E+00 6.18093E+01-4.96214E+04 8.03084E-10-5.70844E-09
 -1       582 1.93640E+05 5.98790E+00 1.19076E+02-5.46859E+04 2.20143E-09-5.86078E-09
 -1       583 1.93653E+05 3.26455E+01 2.28640E+02-4.96483E+04 1.28330E-09 7.32689E-09
 -1       584 1.93761E+05 2.10922E+02 5.13317E+02-5.44605E+04-8.68567E-10 4.83169E-09
 -1       585 1.93632E+05 6.61605E+02 1.04209E+03-4.98471E+04-6.67569E-10 3.51247E-09
 -1       586-2.23206E+03 6.39727E+04-2.88891E+03-1.70900E+05-1.22782E-10 2.47542E-09
 -1       587-4.64828E+02 6.35935E+04-1.92606E+02-1.88076E+05 4.03816E-10-9.13133E-09
 -1       588 6.77778E+02 6.36504E+04 2.37133E+03-1.70803E+05-7.27596E-12 3.86171E-09
 -1       589 3.38658E+03 6.49352E+04 6.72725E+03-1.87907E+05 8.00355E-11-1.15670E-08
 -1       590 9.76658E+03 6.28725E+04 1.43392E+04-1.71073E+05-1.50976E-10-1.03500E-09
 -1       591-4.21581E+04-1.17476E+04-1.38783E+04-2.14552E+04-1.10816E-09-6.05633E-09
 -1       592-4.35763E+04-1.50376E+04-7.51713E+03-2.49400E+04-2.09593E-09-2.05625E-09
 -1       593-4.35598E+04-1.07266E+04-3.12942E+03-2.24592E+04-6.78369E-10-1.24571E-08
 -1       594-4.16442E+04-1.30185E+04-1.56078E+03-2.50341E+04 1.66341E-09-6.44994E-09
 -1       595-4.36672E+04-1.07220E+04-7.17235E+02-2.25053E+04 6.67171E-10 6.85361E-09
 -1       596-4.15133E+04-1.29260E+04-3.65551E+02-2.50204E+04 2.94784E-09-8.17505E-09
 -1       597-4.36808E+04-1.07309E+04-2.01102E+02-2.25071E+04-1.89708E-10-7.89385E-10
 -1       598-4.15008E+04-1.29224E+04-1.65421E+02-2.50165E+04-7.93648E-10 8.91225E-09
 -1       599-4.36798E+04-1.07310E+04-2.16003E+02-2.25068E+04 5.30235E-10-5.32032E-09
 -1       600-4.15146E+04-1.29272E+04-4.05025E+02-2.50198E+04 2.14641E-10-5.49977E-09
 -1       601-4.36627E+04-1.07215E+04-8.01003E+02-2.25040E+04-9.19272E-10 7.87327E-09
 -1       602-4.16608E+04-1.30305E+04-1.74673E+03-2.50332E+04 1.30206E-09-4.35193E-10
 -1       603-4.35409E+04-1.07284E+04-3.50350E+03-2.24526E+04 3.06045E-10 4.04134E-09
 -1       604-4.38312E+04-1.52826E+04-8.41589E+03-2.49168E+04-1.85628E-09 2.40311E-09
 -1       605-4.19618E+04-1.18788E+04-1.55375E+04-2.13367E+04-3.38787E-11 4.65934E-09
 -1       606 2.65243E+04-9.28777E+03-1.67164E+04 2.58104E+04-3.10865E-09-3.57340E-09
 -1       607 2.36618E+04-2.99951E+03-8.32378E+03 2.89747E+04-2.01908E-09-3.99859E-09
 -1       608 2.52849E+04-5.09157E+02-3.72763E+03 2.56053E+04 2.89947E-09-3.85739E-09
 -1       609 2.49616E+04-1.35219E+02-1.88268E+03 2.92018E+04 5.19321E-10-8.66726E-09
 -1       610 2.51339E+04 2.08561E+01-8.99367E+02 2.55824E+04-4.30737E-09-1.96110E-09
 -1       611 2.50727E+04 3.33049E+01-4.53553E+02 2.92266E+04-8.80073E-09 1.38243E-10
 -1       612 2.50930E+04 3.62132E+01-2.17007E+02 2.55801E+04-5.18412E-09-2.99451E-10
 -1       613 2.50696E+04 4.19457E+01-9.87223E+01 2.92296E+04-4.37785E-09 4.20027E-09
 -1       614 2.50704E+04 3.73330E+01-2.72164E+01 2.55793E+04 4.25644E-10 1.93177E-09
 -1       615 2.50576E+04 4.75841E+01 3.17947E+01 2.92300E+04 5.00950E-09 5.62591E-09
 -1       616 2.50532E+04 4.31841E+01 1.04127E+02 2.55796E+04-2.93767E-09 1.34719E-09
 -1       617 2.50636E+04 7.38293E+01 2.41159E+02 2.92295E+04 1.22282E-09-7.71161E-09
 -1       618 2.50274E+04 1.15818E+02 4.87319E+02 2.55797E+04 9.36780E-10-2.10730E-09
 -1       619 2.52318E+04 4.53221E+02 1.09521E+03 2.92288E+04 8.85393E-10-2.16801E-09
 -1       620 2.48630E+04 1.27393E+03 2.20153E+03 2.55786E+04 3.81192E-10 8.09632E-09
 -1       621 3.06796E+02 2.06869E+05 2.70370E+03 8.75914E+03-1.63482E-10-6.83872E-09
 -1       622 3.55386E+02 2.07537E+05 2.34428E+03 1.27768E+04-9.66338E-11-1.11977E-08
 -1       623 1.53314E+01 2.07053E+05 2.76039E+03 8.71793E+03-1.92884E-10-1.22122E-09
 -1       624 1.26639E+03 2.08370E+05 5.29802E+03 1.28176E+04-2.43119E-10-3.59069E-09
 -1       625 1.27260E+03 2.06027E+05 9.23687E+03 8.71851E+03 5.91172E-11-1.51431E-09
 -1       626 1.73357E+05 4.74123E+04 3.51152E+03 9.28557E+04-1.07821E-08 4.03088E-09
 -1       627 1.71068E+05 4.90670E+04 1.69212E+03 9.65676E+04-1.12755E-08 2.20443E-08
 -1       628 1.73482E+05 4.57585E+04 7.14695E+02 9.33933E+04-6.97491E-09 6.43058E-09
 -1       629 1.70568E+05 4.86596E+04 3.50274E+02 9.67883E+04 2.00816E-09 1.77431E-09
 -1       630 1.73488E+05 4.56808E+04 1.61901E+02 9.34078E+04-5.46788E-09-1.34276E-08
 -1       631 1.70507E+05 4.86502E+04 8.70078E+01 9.67892E+04-4.12183E-09-4.93341E-09
 -1       632 1.73479E+05 4.56873E+04 5.71626E+01 9.33999E+04-5.60431E-09 1.52852E-09
 -1       633 1.70494E+05 4.86554E+04 6.35491E+01 9.67821E+04-3.67436E-10 5.14234E-09
 -1       634 1.73469E+05 4.56884E+04 1.02532E+02 9.33954E+04-4.00951E-09 1.20347E-08
 -1       635 1.70498E+05 4.86570E+04 2.07691E+02 9.67815E+04-9.05902E-09 2.57041E-08
 -1       636 1.73458E+05 4.56875E+04 4.19368E+02 9.33923E+04-7.45558E-09-1.96451E-09
 -1       637 1.70584E+05 4.87237E+04 9.21662E+02 9.67774E+04 6.50294E-09 8.26685E-09
 -1       638 1.73422E+05 4.58929E+04 1.89409E+03 9.32978E+04-1.72508E-09-6.44877E-09
 -1       639 1.71575E+05 5.01088E+04 4.48087E+03 9.64829E+04-5.10977E-09-1.87110E-08
 -1       640 1.73290E+05 5.00177E+04 9.29887E+03 9.15471E+04-2.03090E-09 6.04200E-09
 -1       656 4.66694E+04-1.18232E+06-1.12660E+05-3.82500E+02 3.56522E-10-8.22649E-09
 -1       657-6.16765E+04-1.23317E+06-9.31865E+04 7.35619E+03 3.93811E-10-9.13684E-09
 -1       658 1.48067E+04-1.19682E+06-5.72052E+04-1.54624E+03 6.37669E-10 3.24163E-09
 -1       659-6.61879E+04-1.23531E+06-9.91120E+04 8.14709E+03 7.18501E-10-4.58167E-09
 -1       660 5.11700E+04-1.18019E+06-1.22852E+05-1.17338E+03-5.52973E-10 8.22180E-09
 -1       661 1.61941E+05 1.75989E+04 1.56353E+04 6.33039E+04 2.83626E-09 4.83215E-09
 -1       662 1.70147E+05 2.98002E+04 1.05357E+04 6.05149E+04 2.58848E-09 8.16783E-09
 -1       663 1.65006E+05 2.26194E+04 3.68542E+03 6.24185E+04 7.80915E-10-1.49998E-09
 -1       664 1.66599E+05 2.39239E+04 2.20351E+03 6.15919E+04 5.04770E-11-1.00788E-08
 -1       665 1.65466E+05 2.33102E+04 8.69214E+02 6.22892E+04-3.08324E-09-3.27154E-09
 -1       666 1.66060E+05 2.31299E+04 5.07026E+02 6.17577E+04-8.19432E-09 1.16467E-08
 -1       667 1.65543E+05 2.33927E+04 2.67464E+02 6.22604E+04 1.14602E-09 3.78468E-09
 -1       668 1.65977E+05 2.30651E+04 2.68291E+02 6.17991E+04 2.06853E-10-3.22430E-09
 -1       669 1.65548E+05 2.33730E+04 3.59753E+02 6.22485E+04 2.77173E-09-3.70608E-09
 -1       670 1.66067E+05 2.32557E+04 7.80118E+02 6.17986E+04 2.75730E-09 4.26635E-09
 -1       671 1.65453E+05 2.32059E+04 1.38407E+03 6.22594E+04-8.25878E-10-2.91601E-09
 -1       672 1.66874E+05 2.46013E+04 3.54026E+03 6.16029E+04 9.18448E-11-4.33852E-09
 -1       673 1.64745E+05 2.20612E+04 5.93259E+03 6.24312E+04 3.87104E-10-1.72236E-09
 -1       674 1.72523E+05 3.41302E+04 1.69659E+04 5.99414E+04-1.81916E-09-4.64183E-09
 -1       675 1.59840E+05 1.39435E+04 2.51828E+04 6.38204E+04 1.90948E-09-5.85715E-09
 -1       676 1.88054E+01-2.24936E+05-8.73177E+02 3.39818E+01-6.27722E-10 7.72572E-09
 -1       677-2.31789E+02-2.25147E+05-1.59801E+03-6.79293E+01-2.33402E-09-1.38436E-08
 -1       678 1.54792E+02-2.24785E+05-2.82486E+03 3.39241E+01-5.29440E-10-2.47738E-09
 -1       679-2.82549E+03-2.26852E+05-6.71048E+03-6.77055E+01-4.42242E-09-1.05375E-08
 -1       680 1.68628E+03-2.23231E+05-1.08150E+04 3.33703E+01-1.49294E-09-7.00368E-10
 -1       771-2.40608E+06-4.43675E+05-6.31963E+04-1.02260E+06-1.20999E-08-1.08121E-08
 -1       772-2.38412E+06-4.81075E+05-3.36387E+04-1.06466E+06-1.03464E-08 3.94721E-09
 -1       773-2.41571E+06-4.36124E+05-1.50209E+04-1.02616E+06-3.36149E-09 5.24233E-09
 -1       774-2.37571E+06-4.74081E+05-7.17480E+03-1.07013E+06 1.25874E-08-6.98492E-10
 -1       775-2.41870E+06-4.34072E+05-3.98486E+03-1.02668E+06-9.74978E-10 1.13505E-09
 -1       776-2.37623E+06-4.74130E+05-1.73773E+03-1.07350E+06-2.38288E-09 1.93722E-09
 -1       777-2.42097E+06-4.32396E+05-1.30765E+03-1.02708E+06 2.00816E-09 1.66801E-09
 -1       778-2.37724E+06-4.74347E+05-4.95669E+02-1.07632E+06 2.27010E-09 4.59113E-09
 -1       779-2.42283E+06-4.30971E+05-5.90085E+02-1.02742E+06-6.11180E-09-8.08723E-09
 -1       780-2.37818E+06-4.74511E+05-2.92813E+02-1.07861E+06-2.94312E-09 3.46517E-10
 -1       781-2.42426E+06-4.29839E+05-5.39806E+02-1.02769E+06-8.69477E-09-1.39607E-09
 -1       782-2.37897E+06-4.74651E+05-7.57173E+02-1.08029E+06-1.37406E-08-3.71915E-09
 -1       783-2.42519E+06-4.29082E+05-1.53065E+03-1.02787E+06-1.29512E-09-1.88606E-09
 -1       784-2.38032E+06-4.75653E+05-3.52565E+03-1.08127E+06-6.34464E-09-4.57021E-11
 -1       785-2.42504E+06-4.29167E+05-6.54045E+03-1.02749E+06-1.29057E-08 2.10366E-09
 -1       786 1.65993E+05-9.22958E+03 2.13528E+04-3.86409E+01 5.74646E-06 2.41207E-08
 -1       787 1.75246E+05 1.06850E+04 1.51066E+04 9.00186E+00 1.14479E-05 2.38394E-08
 -1       788 1.69563E+05-1.44684E+03 5.52649E+03-2.79453E+01 1.05823E-05-9.03083E-09
 -1       789 1.71088E+05 1.67405E+03 3.47208E+03-9.24312E+00 9.69278E-06 1.07532E-08
 -1       790 1.70152E+05-2.25990E+02 1.41220E+03-2.03971E+01 9.13414E-06-2.51048E-08
 -1       791 1.70400E+05 2.62397E+02 8.27994E+02-2.39127E+01 8.56783E-06 1.04766E-08
 -1       792 1.70251E+05-3.62448E+01 3.75629E+02-1.32757E+01 4.28741E-06-1.41430E-08
 -1       793 1.70288E+05 4.98012E+01 2.41532E+02-3.98078E+01 1.26236E-08 2.33690E-09
 -1       794 1.70264E+05-1.35329E+01 1.71860E+02-4.50172E+00 1.50000E-09-9.55229E-10
 -1       795 1.70295E+05 6.71323E+01 2.38398E+02-6.14714E+01-1.41336E-09-4.71191E-09
 -1       796 1.70244E+05-5.35597E+01 3.50927E+02 8.38838E+00 8.17177E-10-6.93480E-09
 -1       797 1.70453E+05 3.92015E+02 8.22347E+02-9.49762E+01-1.12488E-09 5.09502E-10
 -1       798 1.70106E+05-3.38179E+02 1.29637E+03 2.90036E+01 1.75385E-10-6.72514E-09
 -1       799 1.71425E+05 2.49691E+03 3.53272E+03-1.49931E+02-6.15644E-10-6.15671E-10
 -1       800 1.69271E+05-2.15676E+03 4.98967E+03 6.33438E+01 6.59135E-11-3.85398E-09
 -1       801 1.98126E+04-9.11139E+05-7.61011E+04 2.47865E+04 1.22382E-08-3.95266E-09
 -1       802-1.50646E+04-7.89178E+05-7.38735E+03-7.17094E+04 3.34876E-08-8.65629E-09
 -1       803-4.25863E+03-8.51148E+05 2.68795E+04 4.64198E+04 2.63244E-08 1.65725E-08
 -1       804 8.75536E+04-7.29398E+05 1.27836E+05-6.63722E+04 3.01134E-08 2.83514E-08
 -1       805-8.31197E+04-9.70397E+05 1.49500E+05 1.94437E+04 1.09940E-08 2.04398E-08
 -1       806-2.10351E+05-4.37658E+04-1.73213E+04-8.62371E+04 3.81078E-10 5.53791E-09
 -1       807-2.11494E+05-4.11617E+04-8.50962E+03-9.06881E+04 3.97176E-09 5.53149E-09
 -1       808-2.10835E+05-3.75155E+04-3.60980E+03-8.91825E+04-8.62724E-09 3.82343E-09
 -1       809-2.09685E+05-3.87907E+04-1.76481E+03-9.09229E+04-1.15551E-08 3.13628E-09
 -1       810-2.10910E+05-3.72958E+04-8.08203E+02-8.93125E+04-1.62322E-09 6.58679E-09
 -1       811-2.09546E+05-3.86966E+04-4.01003E+02-9.09005E+04-1.31899E-09-1.49316E-09
 -1       812-2.10923E+05-3.73128E+04-2.00556E+02-8.93121E+04-3.71074E-10-4.62933E-10
 -1       813-2.09528E+05-3.86988E+04-1.27106E+02-9.08889E+04-2.51930E-10 3.00145E-09
 -1       814-2.10920E+05-3.73192E+04-1.20297E+02-8.93093E+04 9.21318E-10-2.60161E-09
 -1       815-2.09530E+05-3.87009E+04-1.89169E+02-9.08851E+04-6.65750E-10 2.31910E-09
 -1       816-2.10907E+05-3.73181E+04-3.55123E+02-8.93067E+04 2.69665E-10-6.99765E-09
 -1       817-2.09591E+05-3.87349E+04-7.61412E+02-9.08782E+04 5.29099E-09 4.00178E-09
 -1       818-2.10862E+05-3.74251E+04-1.55198E+03-8.92560E+04 5.44969E-09 1.22000E-08
 -1       819-2.10446E+05-3.96678E+04-3.65240E+03-9.06721E+04-3.22689E-09-8.54925E-10
 -1       820-2.10568E+05-4.01852E+04-7.43343E+03-8.80772E+04-2.04909E-09 3.24656E-09
 -1       821-2.69760E+05 1.49258E+04-3.45183E+04 1.52249E+02 4.63105E-11 2.90129E-09
 -1       822-2.84718E+05-1.72792E+04-2.44267E+04-7.54041E+02-2.08625E-09 1.39698E-09
 -1       823-2.75532E+05 2.34012E+03-8.94025E+03 1.33369E+02 1.93241E-10 2.11548E-09
 -1       824-2.77984E+05-2.70848E+03-5.62482E+03-5.97054E+02 4.96944E-10 2.66368E-10
 -1       825-2.76492E+05 3.66161E+02-2.31277E+03-4.74161E+00-2.60976E-09 3.70505E-09
 -1       826-2.76866E+05-4.31752E+02-1.39449E+03-2.59360E+02-5.07323E-09 3.90968E-09
 -1       827-2.76650E+05 6.48121E+01-7.23972E+02-2.04331E+02-3.80632E-09-9.42129E-09
 -1       828-2.76715E+05-1.31762E+02-6.38327E+02 1.20302E+02-5.10173E-09 2.77987E-09
 -1       829-2.76642E+05 6.64522E+01-7.35613E+02-3.84411E+02-4.85297E-10-4.06897E-09
 -1       830-2.76890E+05-4.44129E+02-1.43562E+03 3.87802E+02 1.92300E-09-1.19945E-09
 -1       831-2.76475E+05 3.77241E+02-2.37840E+03-4.71836E+02-2.34492E-09 7.14863E-10
 -1       832-2.78035E+05-2.78945E+03-5.79581E+03 4.35085E+02-1.69475E-09 5.38375E-09
 -1       833-2.75498E+05 2.41014E+03-9.21046E+03-4.31693E+02-1.08935E-09 1.88993E-09
 -1       834-2.84951E+05-1.78000E+04-2.51630E+04 2.44584E+02-6.56065E-10 1.28784E-09
 -1       835-2.69561E+05 1.53759E+04-3.55648E+04-2.81324E+02 4.94673E-09 4.62023E-10
 -1       836-9.00104E+02 2.53893E+05 1.53345E+04-2.08412E+04 1.33696E-09 2.83762E-09
 -1       837 3.37033E+03 2.58645E+05 1.30937E+04-4.18625E+04 2.02908E-09-3.39753E-09
 -1       838-3.31946E+02 2.55213E+05 1.35040E+04-2.07695E+04 1.70758E-09-9.87256E-10
 -1       839 8.66422E+03 2.62590E+05 2.57059E+04-4.18908E+04 2.33194E-09 8.20208E-09
 -1       840-2.60734E+03 2.49910E+05 4.10583E+04-2.08115E+04 1.64619E-09-5.08680E-09
 -1       856-7.94415E+04 7.06588E+03-1.86206E+04-4.14335E+02-3.27810E-09 4.00632E-09
 -1       857-8.71324E+04-8.28751E+03-1.28197E+04 4.29018E+03-8.18005E-10 3.12639E-10
 -1       858-8.24803E+04 9.90036E+02-4.83252E+03-4.33971E+02-4.03207E-09 3.54134E-09
 -1       859-8.36429E+04-1.15118E+03-2.91851E+03 4.32146E+03 7.95808E-10-7.47605E-10
 -1       860-8.29346E+04 1.37682E+02-1.22689E+03-4.45739E+02 1.69413E-09-2.31921E-11
 -1       861-8.31196E+04-1.52028E+02-6.82840E+02 4.33757E+03-6.19158E-09-7.11239E-10
 -1       862-8.30052E+04 1.82053E+01-2.99698E+02-4.50105E+02 4.97903E-09 2.09498E-09
 -1       863-8.30358E+04-1.07013E+01-1.45153E+02 4.33955E+03 8.34139E-09-7.40886E-10
 -1       864-8.30186E+04-5.31571E-01-3.94169E+01-4.47723E+02 4.19799E-09-6.07305E-09
 -1       865-8.30092E+04 2.48591E+01 4.44822E+01 4.32751E+03 5.17542E-09-1.06757E-08
 -1       866-8.30304E+04-1.77764E+01 1.31218E+02-4.38070E+02-7.13641E-10 5.80712E-10
 -1       867-8.29363E+04 1.48730E+02 3.49741E+02 4.30131E+03 4.45027E-09 1.61675E-09
 -1       868-8.30884E+04-1.23387E+02 5.87519E+02-4.21515E+02 1.60344E-09 4.93407E-09
 -1       869-8.24975E+04 1.02396E+03 1.57434E+03 4.25794E+03-5.95469E-09-6.39605E-09
 -1       870-8.34646E+04-8.71016E+02 2.28326E+03-3.94714E+02 3.56385E-09-8.32642E-10
 -1       871-3.97211E+03-8.62696E+03-1.29089E+04 8.48814E+04 2.82307E-09-2.04818E-09
 -1       872-1.72136E+03-1.15202E+04-5.26898E+03 1.10044E+05 2.75895E-09-7.59428E-09
 -1       873-3.54773E+01-1.01690E+04 7.33954E+02 8.46948E+04 9.41327E-10-1.07888E-08
 -1       874 1.97878E+03-8.30229E+03 7.28084E+03 1.10082E+05 3.02111E-09 3.44880E-09
 -1       875 4.67948E+03-1.18966E+04 1.61580E+04 8.48509E+04 1.15233E-09-5.60703E-10
 -1       876 2.10123E+05 3.61751E+04 1.12091E+04 8.52152E+04-3.99831E-09-8.87667E-10
 -1       877 2.10767E+05 3.86318E+04 5.98595E+03 8.85258E+04-6.68388E-09 2.76486E-10
 -1       878 2.11170E+05 3.49345E+04 2.50783E+03 8.61357E+04 5.11386E-09 5.20299E-09
 -1       879 2.09242E+05 3.71132E+04 1.24929E+03 8.86050E+04-3.94266E-10 6.97491E-09
 -1       880 2.11246E+05 3.49208E+04 5.81638E+02 8.61732E+04 2.10980E-09 8.93738E-09
 -1       881 2.09141E+05 3.70487E+04 3.09852E+02 8.85890E+04 1.02739E-09 4.57624E-09
 -1       882 2.11254E+05 3.49300E+04 1.96937E+02 8.61742E+04 6.53142E-09 3.86309E-09
 -1       883 2.09134E+05 3.70456E+04 2.09633E+02 8.85844E+04 1.63686E-09-1.18780E-09
 -1       884 2.11249E+05 3.49277E+04 3.31590E+02 8.61744E+04 4.56004E-09 5.59118E-09
 -1       885 2.09160E+05 3.70504E+04 6.65502E+02 8.85927E+04 1.79168E-09-2.33328E-09
 -1       886 2.11224E+05 3.49083E+04 1.34074E+03 8.61718E+04 6.32198E-09 2.16482E-09
 -1       887 2.09396E+05 3.72048E+04 2.92847E+03 8.86266E+04-1.33980E-09 6.50766E-09
 -1       888 2.11039E+05 3.49408E+04 5.90092E+03 8.60780E+04-2.18876E-10-2.93721E-09
 -1       889 2.12912E+05 4.08555E+04 1.40968E+04 8.85152E+04-1.78206E-09-3.64616E-09
 -1       890 2.08635E+05 3.77967E+04 2.64023E+04 8.38269E+04 3.36627E-09 1.62709E-09
 -1       891-1.30224E+02-1.19210E+05-1.41144E+03 2.24606E+04-9.97034E-11 7.61474E-09
 -1       892-2.26851E+02-1.19549E+05-1.53392E+03 3.39904E+04-6.03904E-10-7.99878E-09
 -1       893-3.66407E+01-1.19254E+05-2.19047E+03 2.24650E+04 5.22505E-10-2.58842E-09
 -1       894-1.19655E+03-1.20387E+05-4.54702E+03 3.38693E+04-2.45291E-09 5.05861E-09
 -1       895-9.35754E+02-1.18308E+05-8.01246E+03 2.25801E+04-1.92466E-09 4.48381E-10
 -1       956-2.64584E+05-3.79520E+03-9.55289E+03 1.76656E+04-3.93402E-09 3.80669E-09
 -1       957-2.66470E+05-1.28038E+03-4.90406E+03 2.12734E+04-2.31648E-09-3.05317E-09
 -1       958-2.65432E+05-1.02123E+02-2.20943E+03 1.75520E+04 2.18279E-09 5.90489E-10
 -1       959-2.65582E+05-1.74859E+01-1.12852E+03 2.13965E+04-1.89357E-09 1.43314E-08
 -1       960-2.65508E+05 3.19457E+01-5.50102E+02 1.75412E+04-3.37241E-09-4.93856E-10
 -1       961-2.65518E+05 3.02553E+01-2.91714E+02 2.14089E+04-5.30122E-09-7.06427E-09
 -1       962-2.65523E+05 2.82307E+01-1.66689E+02 1.75395E+04-2.73349E-09-4.79463E-09
 -1       963-2.65515E+05 3.15558E+01-1.33275E+02 2.14111E+04-3.30283E-09 5.67252E-09
 -1       964-2.65527E+05 3.01678E+01-1.61133E+02 1.75389E+04 4.24041E-09 2.75804E-09
 -1       965-2.65525E+05 3.44836E+01-2.77882E+02 2.14112E+04 1.16971E-08-4.42969E-09
 -1       966-2.65518E+05 3.76666E+01-5.21312E+02 1.75394E+04 2.72053E-09-4.81919E-10
 -1       967-2.65594E+05-6.60644E+00-1.06906E+03 2.14043E+04 7.45104E-10-3.28646E-09
 -1       968-2.65452E+05-8.54310E+01-2.09203E+03 1.75459E+04 5.12273E-10-2.91411E-09
 -1       969-2.66442E+05-1.19922E+03-4.64490E+03 2.13294E+04 1.84764E-09-4.92537E-09
 -1       970-2.64654E+05-3.58094E+03-9.04727E+03 1.76167E+04 2.19188E-10 1.31968E-09
 -1       971-2.50519E+05-1.31665E+03-7.32136E+03 1.21350E+04-4.48017E-09 3.19994E-09
 -1       972-2.52299E+05-9.43625E+02-3.98723E+03 1.69485E+04-3.61524E-09 1.96053E-09
 -1       973-2.51333E+05-8.36014E+00-1.78536E+03 1.20339E+04-3.90901E-09 2.81898E-09
 -1       974-2.51456E+05-8.19528E+00-9.24932E+02 1.70576E+04 5.90944E-10-1.78215E-09
 -1       975-2.51396E+05 2.57317E+01-4.61273E+02 1.20248E+04-1.80125E-09-2.29466E-09
 -1       976-2.51406E+05 2.99834E+01-2.64277E+02 1.70687E+04-3.55897E-09-5.71652E-09
 -1       977-2.51407E+05 2.54169E+01-1.88461E+02 1.20227E+04-2.32444E-09 9.52014E-10
 -1       978-2.51409E+05 3.41557E+01-2.16007E+02 1.70716E+04 3.83426E-09 1.68507E-09
 -1       979-2.51407E+05 3.11911E+01-3.43132E+02 1.20219E+04 2.51987E-09-7.27084E-09
 -1       980-2.51434E+05 3.62430E+01-6.60087E+02 1.70720E+04 3.00055E-09-6.66364E-09
 -1       981-2.51386E+05 4.76342E+01-1.27713E+03 1.20222E+04-5.63091E-10-3.13759E-09
 -1       982-2.51609E+05-5.79710E+01-2.63906E+03 1.70670E+04 2.68608E-09 7.56060E-10
 -1       983-2.51226E+05-3.39131E+01-5.12729E+03 1.20271E+04 2.51930E-10 2.39845E-09
 -1       984-2.54075E+05-2.73536E+03-1.14817E+04 1.69984E+04-3.87172E-09 6.11976E-09
 -1       985-2.48905E+05-3.78557E+03-2.10842E+04 1.20955E+04 4.08863E-09 5.24869E-09
 -3
    1PSTEP                        11           6           1          
  100CL  106 5.39062E-01         409                     0    6           1
 -4  DISP        4    1
 -5  D1          1    2    1    0
 -5  D2          1    2    2    0
 -5  D3          1    2    3    0
 -5  ALL         1    2    0    0    1ALL
 -1         1 1.83157E-04 0.00000E+00 0.00000E+00
 -1         2 1.62687E-04-7.09642E-31 0.00000E+00
 -1         3 1.63616E-04-5.18410E-27 0.00000E+00
 -1         5 1.07205E-04-5.71606E-27-3.30872E-24
 -1         8 1.57745E-04-8.71086E-07 0.00000E+00
 -1         9 1.51553E-04-6.44680E-07 0.00000E+00
 -1        10 1.50555E-04-2.19925E-06-6.61744E-24
 -1        12 1.06936E-04 5.98370E-07 0.00000E+00
 -1        15 1.27426E-04-9.68855E-07 4.13590E-25
 -1        16 1.32470E-04-8.44144E-07 0.00000E+00
 -1        17 1.09267E-04-4.69360E-06 0.00000E+00
 -1        18 1.04970E-04 4.79385E-06 0.00000E+00
 -1        19 1.06140E-04 1.18777E-06 0.00000E+00
 -1        20 1.06286E-04 1.31507E-05 0.00000E+00
 -1        21 1.05690E-04 2.38678E-05-3.30872E-24
 -1        24 2.23271E-05-6.57133E-06 0.00000E+00
 -1        25 1.04894E-04 4.93379E-06 0.00000E+00
 -1        26 1.05796E-04 1.64719E-06 0.00000E+00
 -1        27 1.04158E-04 1.04890E-05 0.00000E+00
 -1        28 1.03689E-04 2.33660E-05 0.00000E+00
 -1        32 0.00000E+00 0.00000E+00 0.00000E+00
 -1        33 1.04210E-04 2.20482E-06 0.00000E+00
 -1        34 1.02610E-04 1.04637E-05 0.00000E+00
 -1        35 1.01102E-04 2.30993E-05 0.00000E+00
 -1        51 1.81508E-04-1.44911E-07 0.00000E+00
 -1        52 1.78448E-04-2.83859E-07 0.00000E+00
 -1        53 1.74254E-04-4.24035E-07 0.00000E+00
 -1        54 1.69213E-04-5.67142E-07 0.00000E+00
 -1        55 1.63614E-04-7.14069E-07-4.13590E-24
 -1        56 1.81552E-04-8.48030E-07 2.64698E-23
 -1        57 1.80034E-04-2.10836E-06 0.00000E+00
 -1        58 1.78622E-04-3.64283E-06-5.29396E-23
 -1        59 1.77256E-04-5.33062E-06-2.64698E-23
 -1        60 1.75894E-04-7.02965E-06 0.00000E+00
 -1        61 1.74481E-04-8.60168E-06-2.64698E-23
 -1        62 1.72974E-04-9.91818E-06 0.00000E+00
 -1        63 1.71326E-04-1.08617E-05-2.64698E-23
 -1        64 1.69505E-04-1.13455E-05 5.29396E-23
 -1        65 1.67487E-04-1.13016E-05 0.00000E+00
 -1        66 1.65262E-04-1.07058E-05 0.00000E+00
 -1        67 1.62829E-04-9.55594E-06-2.64698E-23
 -1        68 1.60205E-04-7.89654E-06 0.00000E+00
 -1        69 1.57421E-04-5.78934E-06-2.64698E-23
 -1        70 1.54505E-04-3.34022E-06 0.00000E+00
 -1        86 1.62354E-04-1.00656E-07 0.00000E+00
 -1        87 1.61354E-04-2.02266E-07-1.65436E-24
 -1        88 1.59723E-04-3.04746E-07 0.00000E+00
 -1        89 1.57500E-04-4.11644E-07 0.00000E+00
 -1        90 1.54753E-04-5.18663E-07 1.32349E-23
 -1       121 1.63251E-04-3.63455E-07 0.00000E+00
 -1       122 1.62155E-04-7.27430E-07 0.00000E+00
 -1       123 1.60333E-04-1.09244E-06 0.00000E+00
 -1       124 1.57787E-04-1.45904E-06-6.61744E-24
 -1       125 1.54525E-04-1.82762E-06-1.32349E-23
 -1       191 1.07198E-04 9.97412E-08 0.00000E+00
 -1       192 1.07175E-04 1.99481E-07 0.00000E+00
 -1       193 1.07138E-04 2.99219E-07 0.00000E+00
 -1       194 1.07086E-04 3.98952E-07 0.00000E+00
 -1       195 1.07018E-04 4.98675E-07 0.00000E+00
 -1       251 1.57353E-04 3.86194E-06 0.00000E+00
 -1       252 1.56962E-04 7.92270E-06-6.61744E-24
 -1       253 1.56575E-04 1.10107E-05 1.32349E-23
 -1       254 1.56190E-04 1.28405E-05 0.00000E+00
 -1       255 1.55807E-04 1.33632E-05 0.00000E+00
 -1       256 1.55424E-04 1.25500E-05 6.61744E-24
 -1       257 1.55039E-04 1.06232E-05 1.32349E-23
 -1       258 1.54652E-04 7.82256E-06 0.00000E+00
 -1       259 1.54263E-04 4.55172E-06-1.32349E-23
 -1       260 1.53875E-04 1.22187E-06 0.00000E+00
 -1       261 1.53487E-04-1.74474E-06 0.00000E+00
 -1       262 1.53102E-04-3.93164E-06-6.61744E-24
 -1       263 1.52717E-04-5.06873E-06 1.32349E-23
 -1       264 1.52332E-04-4.90236E-06 6.61744E-24
 -1       265 1.51947E-04-3.42376E-06 0.00000E+00
 -1       266 1.52692E-04-8.99484E-07-6.61744E-24
 -1       267 1.47639E-04-9.14304E-07 0.00000E+00
 -1       268 1.42586E-04-9.29983E-07 0.00000E+00
 -1       269 1.37533E-04-9.43115E-07 0.00000E+00
 -1       270 1.32479E-04-9.56187E-07 0.00000E+00
 -1       271 1.54723E-04 3.08638E-06-2.64698E-23
 -1       272 1.52078E-04 5.91587E-06 0.00000E+00
 -1       273 1.49824E-04 7.71762E-06 0.00000E+00
 -1       274 1.47912E-04 8.58998E-06-2.64698E-23
 -1       275 1.46304E-04 8.65380E-06-5.29396E-23
 -1       276 1.44948E-04 8.04154E-06 0.00000E+00
 -1       277 1.43791E-04 6.89881E-06 0.00000E+00
 -1       278 1.42774E-04 5.38016E-06 2.64698E-23
 -1       279 1.41837E-04 3.64717E-06 0.00000E+00
 -1       280 1.40919E-04 1.86522E-06-2.64698E-23
 -1       281 1.39957E-04 2.00481E-07 0.00000E+00
 -1       282 1.38890E-04-1.18280E-06 2.64698E-23
 -1       283 1.37660E-04-2.12583E-06-5.29396E-23
 -1       284 1.36212E-04-2.47591E-06 0.00000E+00
 -1       285 1.34488E-04-2.09481E-06 0.00000E+00
 -1       301 1.48019E-04-6.92388E-07-6.61744E-24
 -1       302 1.44514E-04-7.17672E-07-3.30872E-24
 -1       303 1.41123E-04-7.41439E-07-6.61744E-24
 -1       304 1.37929E-04-7.65363E-07 0.00000E+00
 -1       305 1.35017E-04-7.90575E-07 0.00000E+00
 -1       306 1.49633E-04-2.24858E-06 5.29396E-23
 -1       307 1.50683E-04-1.21077E-05 0.00000E+00
 -1       308 1.54124E-04-2.85569E-05 0.00000E+00
 -1       309 1.59151E-04-4.95035E-05-2.64698E-23
 -1       310 1.64687E-04-7.18947E-05-5.29396E-23
 -1       311 1.69620E-04-9.25804E-05 2.64698E-23
 -1       312 1.72950E-04-1.08773E-04 5.29396E-23
 -1       313 1.73757E-04-1.17999E-04-2.64698E-23
 -1       314 1.71612E-04-1.19257E-04 0.00000E+00
 -1       315 1.66274E-04-1.12091E-04 2.64698E-23
 -1       316 1.58178E-04-9.78060E-05 0.00000E+00
 -1       317 1.47976E-04-7.81758E-05 0.00000E+00
 -1       318 1.36793E-04-5.60833E-05-5.29396E-23
 -1       319 1.25856E-04-3.45628E-05 2.64698E-23
 -1       320 1.16305E-04-1.65468E-05 5.29396E-23
 -1       336 1.45792E-04-2.60293E-06 0.00000E+00
 -1       337 1.40157E-04-3.01149E-06-6.61744E-24
 -1       338 1.33665E-04-3.42491E-06 1.32349E-23
 -1       339 1.26337E-04-3.84323E-06 0.00000E+00
 -1       340 1.18196E-04-4.26765E-06-6.61744E-24
 -1       406 1.06840E-04 6.97119E-07 3.30872E-24
 -1       407 1.06729E-04 7.95815E-07-1.65436E-24
 -1       408 1.06603E-04 8.94443E-07 3.30872E-24
 -1       409 1.06463E-04 9.92887E-07 0.00000E+00
 -1       410 1.06309E-04 1.09096E-06-3.30872E-24
 -1       521 1.36465E-04-2.11476E-05-5.29396E-23
 -1       522 1.54166E-04-8.29846E-05 0.00000E+00
 -1       523 1.81202E-04-1.76186E-04 0.00000E+00
 -1       524 2.13160E-04-2.87712E-04 5.29396E-23
 -1       525 2.45417E-04-4.00373E-04 1.05879E-22
 -1       526 2.73349E-04-4.96870E-04-5.29396E-23
 -1       527 2.92541E-04-5.63590E-04 0.00000E+00
 -1       528 2.98447E-04-5.89653E-04-5.29396E-23
 -1       529 2.88497E-04-5.73029E-04 1.05879E-22
 -1       530 2.61379E-04-5.15322E-04-5.29396E-23
 -1       531 2.20045E-04-4.26512E-04 0.00000E+00
 -1       532 1.69450E-04-3.18808E-04 0.00000E+00
 -1       533 1.17350E-04-2.08091E-04-1.05879E-22
 -1       534 7.17613E-05-1.10417E-04-5.29396E-23
 -1       535 3.86748E-05-3.93568E-05 0.00000E+00
 -1       536 1.09054E-04 7.98301E-06 0.00000E+00
 -1       537 1.08745E-04 2.73447E-05 0.00000E+00
 -1       538 1.08358E-04 5.05712E-05 3.30872E-24
 -1       539 1.07949E-04 7.48219E-05-1.65436E-24
 -1       540 1.07585E-04 9.69882E-05 3.30872E-24
 -1       541 1.07319E-04 1.13973E-04 1.65436E-24
 -1       542 1.07141E-04 1.24009E-04 0.00000E+00
 -1       543 1.07011E-04 1.25368E-04 0.00000E+00
 -1       544 1.06860E-04 1.18519E-04-3.30872E-24
 -1       545 1.06630E-04 1.03976E-04 0.00000E+00
 -1       546 1.06316E-04 8.42114E-05 3.30872E-24
 -1       547 1.05947E-04 6.17260E-05 1.65436E-24
 -1       548 1.05588E-04 3.97227E-05 0.00000E+00
 -1       549 1.05302E-04 2.14021E-05 1.65436E-24
 -1       550 1.05100E-04 9.01921E-06 0.00000E+00
 -1       551 9.77249E-05-4.96763E-06 0.00000E+00
 -1       552 8.40296E-05-5.26228E-06 1.65436E-24
 -1       553 6.89059E-05-5.57531E-06 6.61744E-24
 -1       554 5.30907E-05-5.90038E-06-6.61744E-24
 -1       555 3.73205E-05-6.22760E-06-2.64698E-23
 -1       556 1.06139E-04 3.39304E-06 0.00000E+00
 -1       557 1.03704E-04 9.70509E-06-1.32349E-23
 -1       558 1.01888E-04 1.43978E-05 0.00000E+00
 -1       559 1.00624E-04 1.76395E-05 0.00000E+00
 -1       560 9.98461E-05 1.95980E-05 0.00000E+00
 -1       561 9.94884E-05 2.04423E-05 0.00000E+00
 -1       562 9.94860E-05 2.03417E-05 0.00000E+00
 -1       563 9.97743E-05 1.94658E-05 0.00000E+00
 -1       564 1.00289E-04 1.79843E-05 0.00000E+00
 -1       565 1.00967E-04 1.60672E-05 0.00000E+00
 -1       566 1.01744E-04 1.38845E-05 0.00000E+00
 -1       567 1.02556E-04 1.16062E-05 3.10193E-25
 -1       568 1.03341E-04 9.40246E-06 0.00000E+00
 -1       569 1.04034E-04 7.44309E-06 0.00000E+00
 -1       570 1.04573E-04 5.89806E-06 0.00000E+00
 -1       571 1.05041E-04 4.58767E-06 0.00000E+00
 -1       572 1.05114E-04 4.33543E-06-4.13590E-25
 -1       573 1.05187E-04 4.04604E-06 8.27181E-25
 -1       574 1.05260E-04 3.72885E-06 0.00000E+00
 -1       575 1.05333E-04 3.39325E-06 0.00000E+00
 -1       576 1.05407E-04 3.04868E-06 8.27181E-25
 -1       577 1.05480E-04 2.70459E-06 3.30872E-24
 -1       578 1.05553E-04 2.37045E-06 0.00000E+00
 -1       579 1.05627E-04 2.05570E-06 0.00000E+00
 -1       580 1.05700E-04 1.76982E-06-3.30872E-24
 -1       581 1.05773E-04 1.52226E-06 0.00000E+00
 -1       582 1.05847E-04 1.32246E-06 0.00000E+00
 -1       583 1.05920E-04 1.17987E-06 0.00000E+00
 -1       584 1.05994E-04 1.10383E-06 0.00000E+00
 -1       585 1.06067E-04 1.10362E-06-3.30872E-24
 -1       586 1.04918E-04 4.81867E-06 1.65436E-24
 -1       587 1.04839E-04 4.84291E-06-1.03398E-25
 -1       588 1.04765E-04 4.86687E-06 0.00000E+00
 -1       589 1.04728E-04 4.89043E-06 0.00000E+00
 -1       590 1.04761E-04 4.91328E-06 0.00000E+00
 -1       591 1.05012E-04 4.63059E-06 1.80946E-25
 -1       592 1.05063E-04 4.43477E-06-4.13590E-25
 -1       593 1.05124E-04 4.21300E-06 0.00000E+00
 -1       594 1.05192E-04 3.97112E-06 0.00000E+00
 -1       595 1.05266E-04 3.71508E-06 0.00000E+00
 -1       596 1.05342E-04 3.45077E-06 0.00000E+00
 -1       597 1.05419E-04 3.18406E-06-4.13590E-25
 -1       598 1.05495E-04 2.92085E-06 4.13590E-25
 -1       599 1.05567E-04 2.66700E-06 8.27181E-25
 -1       600 1.05634E-04 2.42839E-06-2.06795E-25
 -1       601 1.05693E-04 2.21090E-06 4.13590E-25
 -1       602 1.05742E-04 2.02042E-06 0.00000E+00
 -1       603 1.05778E-04 1.86283E-06 3.10193E-25
 -1       604 1.05800E-04 1.74407E-06-5.16988E-26
 -1       605 1.05806E-04 1.66998E-06 0.00000E+00
 -1       606 1.06153E-04 1.43670E-06 0.00000E+00
 -1       607 1.06163E-04 1.78143E-06 0.00000E+00
 -1       608 1.06173E-04 2.21634E-06-3.30872E-24
 -1       609 1.06182E-04 2.73506E-06-1.65436E-24
 -1       610 1.06191E-04 3.33125E-06 0.00000E+00
 -1       611 1.06200E-04 3.99842E-06-1.65436E-24
 -1       612 1.06209E-04 4.73012E-06 0.00000E+00
 -1       613 1.06217E-04 5.51987E-06 0.00000E+00
 -1       614 1.06226E-04 6.36120E-06 0.00000E+00
 -1       615 1.06235E-04 7.24763E-06 0.00000E+00
 -1       616 1.06244E-04 8.17269E-06 0.00000E+00
 -1       617 1.06252E-04 9.12990E-06 0.00000E+00
 -1       618 1.06261E-04 1.01128E-05 0.00000E+00
 -1       619 1.06269E-04 1.11149E-05 0.00000E+00
 -1       620 1.06278E-04 1.21297E-05 0.00000E+00
 -1       621 1.06000E-04 1.26445E-06-1.65436E-24
 -1       622 1.05906E-04 1.34145E-06 8.27181E-25
 -1       623 1.05848E-04 1.41842E-06-1.65436E-24
 -1       624 1.05816E-04 1.49527E-06 8.27181E-25
 -1       625 1.05802E-04 1.57199E-06 0.00000E+00
 -1       626 1.06131E-04 1.46216E-06 0.00000E+00
 -1       627 1.06093E-04 1.81480E-06-1.65436E-24
 -1       628 1.06028E-04 2.23811E-06 0.00000E+00
 -1       629 1.05941E-04 2.72402E-06 0.00000E+00
 -1       630 1.05832E-04 3.26448E-06-3.30872E-24
 -1       631 1.05707E-04 3.85137E-06 1.65436E-24
 -1       632 1.05567E-04 4.47658E-06 0.00000E+00
 -1       633 1.05416E-04 5.13199E-06-1.65436E-24
 -1       634 1.05256E-04 5.80949E-06 3.30872E-24
 -1       635 1.05091E-04 6.50097E-06 0.00000E+00
 -1       636 1.04924E-04 7.19832E-06-3.30872E-24
 -1       637 1.04757E-04 7.89343E-06 8.27181E-25
 -1       638 1.04595E-04 8.57818E-06-3.30872E-24
 -1       639 1.04439E-04 9.24446E-06 0.00000E+00
 -1       640 1.04293E-04 9.88413E-06-1.65436E-24
 -1       656 1.05478E-04 1.27176E-05 6.61744E-24
 -1       657 1.05044E-04 1.22673E-05 6.61744E-24
 -1       658 1.04846E-04 1.18183E-05-1.32349E-23
 -1       659 1.04740E-04 1.13697E-05 3.30872E-24
 -1       660 1.04565E-04 1.09196E-05 6.61744E-24
 -1       661 1.05988E-04 1.41430E-05 0.00000E+00
 -1       662 1.05715E-04 1.50759E-05-8.27181E-25
 -1       663 1.05464E-04 1.59516E-05 0.00000E+00
 -1       664 1.05234E-04 1.67734E-05-8.27181E-25
 -1       665 1.05022E-04 1.75440E-05 0.00000E+00
 -1       666 1.04829E-04 1.82663E-05 0.00000E+00
 -1       667 1.04654E-04 1.89429E-05-1.65436E-24
 -1       668 1.04494E-04 1.95764E-05 0.00000E+00
 -1       669 1.04350E-04 2.01692E-05 0.00000E+00
 -1       670 1.04220E-04 2.07237E-05 0.00000E+00
 -1       671 1.04103E-04 2.12423E-05 0.00000E+00
 -1       672 1.04000E-04 2.17270E-05 0.00000E+00
 -1       673 1.03908E-04 2.21799E-05 0.00000E+00
 -1       674 1.03826E-04 2.26029E-05 8.27181E-25
 -1       675 1.03755E-04 2.29982E-05 0.00000E+00
 -1       676 1.05356E-04 2.37837E-05-3.30872E-24
 -1       677 1.05022E-04 2.36996E-05-1.65436E-24
 -1       678 1.04688E-04 2.36155E-05 3.30872E-24
 -1       679 1.04354E-04 2.35317E-05-8.27181E-25
 -1       680 1.04021E-04 2.34480E-05 1.65436E-24
 -1       771 1.66086E-05 5.22948E-06 0.00000E+00
 -1       772 1.16999E-05 1.49070E-05 0.00000E+00
 -1       773 7.56499E-06 2.25730E-05 5.29396E-23
 -1       774 4.15244E-06 2.83495E-05-2.64698E-23
 -1       775 1.41165E-06 3.23621E-05 5.29396E-23
 -1       776-7.10236E-07 3.47419E-05-2.64698E-23
 -1       777-2.26658E-06 3.56232E-05 0.00000E+00
 -1       778-3.31201E-06 3.51451E-05 0.00000E+00
 -1       779-3.90144E-06 3.34494E-05-5.29396E-23
 -1       780-4.09083E-06 3.06818E-05-2.64698E-23
 -1       781-3.93623E-06 2.69901E-05 0.00000E+00
 -1       782-3.49454E-06 2.25250E-05 1.32349E-23
 -1       783-2.82265E-06 1.74386E-05 0.00000E+00
 -1       784-1.97802E-06 1.18854E-05 0.00000E+00
 -1       785-1.01808E-06 6.02039E-06-2.64698E-23
 -1       786 1.04947E-04 4.59063E-06 4.13590E-25
 -1       787 1.05003E-04 4.27328E-06 0.00000E+00
 -1       788 1.05059E-04 3.97732E-06-1.65436E-24
 -1       789 1.05116E-04 3.69838E-06 0.00000E+00
 -1       790 1.05172E-04 3.43433E-06-1.65436E-24
 -1       791 1.05229E-04 3.18304E-06 8.27181E-25
 -1       792 1.05286E-04 2.94408E-06 0.00000E+00
 -1       793 1.05342E-04 2.71704E-06 8.27181E-25
 -1       794 1.05399E-04 2.50307E-06 1.65436E-24
 -1       795 1.05456E-04 2.30335E-06 8.27181E-25
 -1       796 1.05513E-04 2.12094E-06-1.65436E-24
 -1       797 1.05570E-04 1.95890E-06-8.27181E-25
 -1       798 1.05626E-04 1.82301E-06 0.00000E+00
 -1       799 1.05683E-04 1.71908E-06 8.27181E-25
 -1       800 1.05740E-04 1.65710E-06 0.00000E+00
 -1       801 9.76354E-05 4.30188E-06 0.00000E+00
 -1       802 7.51577E-05 3.42880E-06 0.00000E+00
 -1       803 4.61952E-05 2.40672E-06 0.00000E+00
 -1       804 1.96679E-05 1.44154E-06 1.32349E-23
 -1       805 2.15765E-06 6.58013E-07 2.64698E-23
 -1       806 1.04939E-04 4.54128E-06 0.00000E+00
 -1       807 1.04975E-04 4.16178E-06 1.65436E-24
 -1       808 1.05004E-04 3.79958E-06-3.30872E-24
 -1       809 1.05025E-04 3.45814E-06-8.27181E-25
 -1       810 1.05036E-04 3.14090E-06-1.65436E-24
 -1       811 1.05038E-04 2.85121E-06 8.27181E-25
 -1       812 1.05028E-04 2.59242E-06 0.00000E+00
 -1       813 1.05004E-04 2.36790E-06 8.27181E-25
 -1       814 1.04967E-04 2.18097E-06 1.65436E-24
 -1       815 1.04915E-04 2.03497E-06-8.27181E-25
 -1       816 1.04845E-04 1.93324E-06 0.00000E+00
 -1       817 1.04759E-04 1.87910E-06 8.27181E-25
 -1       818 1.04653E-04 1.87589E-06 0.00000E+00
 -1       819 1.04526E-04 1.92691E-06-8.27181E-25
 -1       820 1.04379E-04 2.03547E-06 1.65436E-24
 -1       821 1.05699E-04 1.62754E-06 0.00000E+00
 -1       822 1.05597E-04 1.53757E-06-8.27181E-25
 -1       823 1.05495E-04 1.44594E-06 3.30872E-24
 -1       824 1.05392E-04 1.42131E-06 0.00000E+00
 -1       825 1.05289E-04 1.51811E-06-3.30872E-24
 -1       826 1.05186E-04 1.79018E-06 0.00000E+00
 -1       827 1.05082E-04 2.25421E-06 3.30872E-24
 -1       828 1.04978E-04 2.92598E-06 0.00000E+00
 -1       829 1.04875E-04 3.77721E-06 0.00000E+00
 -1       830 1.04771E-04 4.77879E-06-1.65436E-24
 -1       831 1.04667E-04 5.86971E-06 0.00000E+00
 -1       832 1.04563E-04 6.98857E-06 1.65436E-24
 -1       833 1.04460E-04 8.06799E-06 0.00000E+00
 -1       834 1.04357E-04 9.04084E-06-8.27181E-25
 -1       835 1.04255E-04 9.86247E-06 0.00000E+00
 -1       836 1.05689E-04 1.74001E-06 0.00000E+00
 -1       837 1.05469E-04 1.83491E-06 0.00000E+00
 -1       838 1.05173E-04 1.92964E-06 1.65436E-24
 -1       839 1.04840E-04 2.02376E-06-8.27181E-25
 -1       840 1.04506E-04 2.11773E-06 0.00000E+00
 -1       856 1.04133E-04 1.10772E-05 0.00000E+00
 -1       857 1.04104E-04 1.17766E-05 0.00000E+00
 -1       858 1.04075E-04 1.25697E-05 0.00000E+00
 -1       859 1.04045E-04 1.34390E-05-4.13590E-25
 -1       860 1.04016E-04 1.43668E-05 0.00000E+00
 -1       861 1.03986E-04 1.53354E-05 4.13590E-25
 -1       862 1.03956E-04 1.63271E-05 8.27181E-25
 -1       863 1.03927E-04 1.73242E-05 0.00000E+00
 -1       864 1.03897E-04 1.83088E-05 0.00000E+00
 -1       865 1.03867E-04 1.92631E-05-4.13590E-25
 -1       866 1.03838E-04 2.01695E-05 0.00000E+00
 -1       867 1.03808E-04 2.10102E-05 4.13590E-25
 -1       868 1.03778E-04 2.17677E-05 0.00000E+00
 -1       869 1.03749E-04 2.24244E-05 0.00000E+00
 -1       870 1.03719E-04 2.29629E-05 0.00000E+00
 -1       871 1.03785E-04 1.04879E-05-8.27181E-25
 -1       872 1.03522E-04 1.04845E-05 0.00000E+00
 -1       873 1.03322E-04 1.04807E-05 4.13590E-25
 -1       874 1.03135E-04 1.04763E-05-5.16988E-26
 -1       875 1.02914E-04 1.04715E-05 2.06795E-25
 -1       876 1.04037E-04 1.10871E-05 0.00000E+00
 -1       877 1.03897E-04 1.17393E-05-1.65436E-24
 -1       878 1.03740E-04 1.24391E-05 0.00000E+00
 -1       879 1.03567E-04 1.31803E-05 0.00000E+00
 -1       880 1.03381E-04 1.39570E-05-3.30872E-24
 -1       881 1.03184E-04 1.47630E-05 1.65436E-24
 -1       882 1.02978E-04 1.55922E-05 3.30872E-24
 -1       883 1.02766E-04 1.64386E-05 0.00000E+00
 -1       884 1.02550E-04 1.72961E-05 0.00000E+00
 -1       885 1.02332E-04 1.81587E-05 1.65436E-24
 -1       886 1.02114E-04 1.90203E-05 0.00000E+00
 -1       887 1.01899E-04 1.98749E-05 0.00000E+00
 -1       888 1.01688E-04 2.07163E-05 0.00000E+00
 -1       889 1.01484E-04 2.15385E-05-8.27181E-25
 -1       890 1.01290E-04 2.23353E-05-1.65436E-24
 -1       891 1.03378E-04 2.33214E-05 8.27181E-25
 -1       892 1.03048E-04 2.32766E-05 4.13590E-25
 -1       893 1.02678E-04 2.32318E-05 8.27181E-25
 -1       894 1.02244E-04 2.31872E-05 0.00000E+00
 -1       895 1.01726E-04 2.31426E-05-6.20385E-25
 -1       956 1.04112E-04 2.49913E-06-3.30872E-24
 -1       957 1.04012E-04 2.85650E-06 0.00000E+00
 -1       958 1.03912E-04 3.27011E-06 0.00000E+00
 -1       959 1.03812E-04 3.73273E-06-1.65436E-24
 -1       960 1.03711E-04 4.23716E-06-1.65436E-24
 -1       961 1.03611E-04 4.77612E-06 0.00000E+00
 -1       962 1.03511E-04 5.34232E-06-3.30872E-24
 -1       963 1.03410E-04 5.92849E-06 0.00000E+00
 -1       964 1.03310E-04 6.52736E-06-3.30872E-24
 -1       965 1.03209E-04 7.13164E-06 1.65436E-24
 -1       966 1.03109E-04 7.73405E-06 0.00000E+00
 -1       967 1.03009E-04 8.32731E-06 1.65436E-24
 -1       968 1.02908E-04 8.90412E-06 3.30872E-24
 -1       969 1.02808E-04 9.45726E-06-1.65436E-24
 -1       970 1.02708E-04 9.97947E-06 0.00000E+00
 -1       971 1.02517E-04 1.09657E-05 1.65436E-24
 -1       972 1.02423E-04 1.15497E-05-1.65436E-24
 -1       973 1.02328E-04 1.22068E-05 1.65436E-24
 -1       974 1.02233E-04 1.29275E-05-8.27181E-25
 -1       975 1.02139E-04 1.37025E-05 3.30872E-24
 -1       976 1.02044E-04 1.45221E-05 0.00000E+00
 -1       977 1.01949E-04 1.53771E-05 0.00000E+00
 -1       978 1.01854E-04 1.62579E-05 0.00000E+00
 -1       979 1.01759E-04 1.71551E-05 0.00000E+00
 -1       980 1.01664E-04 1.80592E-05 1.65436E-24
 -1       981 1.01569E-04 1.89608E-05 0.00000E+00
 -1       982 1.01475E-04 1.98503E-05 1.65436E-24
 -1       983 1.01380E-04 2.07183E-05-3.30872E-24
 -1       984 1.01286E-04 2.15554E-05 0.00000E+00
 -1       985 1.01192E-04 2.23521E-05 0.00000E+00
 -3
    1PSTEP                        12           6           1          
  100CL  106 5.39062E-01         409                     0    6           1
 -4  STRESS      6    1
 -5  SXX         1    4    1    1
 -5  SYY         1    4    2    2
 -5  SZZ         1    4    3    3
 -5  SXY         1    4    1    2
 -5  SYZ         1    4    2    3
 -5  SZX         1    4    3    1
 -1         1-2.25488E+06-9.61381E+05-4.76660E+05-1.24200E+06 1.60071E-10 6.56291E-09
 -1         2 2.61631E+03-2.84277E+05 8.52813E+03-8.14891E+02-7.17932E-11-1.63593E-08
 -1         3-2.35113E+02-1.03730E+06 2.48920E+02-5.99543E+02-2.51632E-10-7.63066E-09
 -1         5-2.24754E+00 2.85389E+05 1.53468E+01-1.14042E+00 8.58051E-11-1.48552E-08
 -1         8-1.07864E+06-3.95311E+05-1.02985E+05-5.57652E+05 1.63709E-10 5.68980E-09
 -1         9-2.17559E+06-7.10355E+05-2.71151E+05-6.72819E+05 4.91273E-09-8.91159E-09
 -1        10-9.26778E+02-1.08066E+06-1.48296E+03-4.05712E+03-5.61977E-09-2.81725E-08
 -1        12 3.70889E+00 2.83977E+05 2.39224E+02-1.52384E-02 1.04592E-11-3.34527E-09
 -1        15 2.00530E+03 1.10204E+03 6.48212E+03 4.38187E+00-1.06752E-10-1.23159E-08
 -1        16-2.84383E+06-1.24724E+06-4.62597E+05-1.32291E+06 1.11274E-08 6.94611E-09
 -1        17-1.27164E+06-7.17063E+05-2.45229E+05-6.36633E+05-6.33299E-09 9.72068E-10
 -1        18-4.03191E+04-1.46637E+04-3.18692E+04-7.35233E+04 5.41809E-09-6.87169E-09
 -1        19 8.97259E+04 1.05036E+05-6.34237E+02 1.75544E+04-3.60524E-10 3.48518E-10
 -1        20-4.22816E+04-4.24241E+05-9.39208E+04 2.86808E+04 3.96570E-09 1.11195E-08
 -1        21-3.90481E+01-2.40693E+05-7.72356E+02-5.52177E+01-4.57575E-09-1.86923E-08
 -1        24-3.10120E+06-7.88147E+05-3.53308E+05-1.12243E+06-3.83831E-08-2.01690E-08
 -1        25-5.12920E+04-3.62680E+05-6.63100E+04-1.20051E+05 1.67711E-10 7.11043E-09
 -1        26-2.71612E+04 7.00267E+04-1.57564E+04-7.34721E+03 1.37807E-09-1.57619E-09
 -1        27-6.49743E+04-2.31817E+05-8.65885E+04 5.23112E+04 5.22853E-09-7.92928E-09
 -1        28 1.85672E+04-6.70430E+04 1.36317E+04 2.04098E+04 3.08978E-09-1.05320E-08
 -1        32-1.07946E+06-1.02195E+06 1.82820E+05-5.74729E+05-2.45782E-08 2.12557E-09
 -1        33-1.34272E+05 6.74616E+04 2.40205E+04-3.57962E+04 5.18867E-10 4.98494E-09
 -1        34-1.71677E+05-1.73266E+04 4.29312E+02 5.36718E+04 2.62687E-09-1.09488E-09
 -1        35-1.89031E+04-2.66348E+04-1.04807E+03 4.19297E+04 4.75694E-09 4.95008E-09
 -1        51 2.08109E+04-3.54721E+05 5.09685E+04-9.67208E+05 2.18279E-10 7.29051E-09
 -1        52 1.13127E+04-3.51463E+05 3.19617E+04-1.12801E+06 5.16593E-10-3.02680E-09
 -1        53 7.34838E+03-3.66013E+05 2.48302E+04-9.63803E+05 1.67347E-10 1.72731E-08
 -1        54 2.03252E+04-3.64629E+05 3.69646E+04-1.13153E+06-3.20142E-10 1.39153E-08
 -1        55 3.98909E+04-3.78399E+05 6.42255E+04-9.63245E+05 5.82077E-11 1.89102E-08
 -1        56-4.31098E+06-4.82607E+05-3.50710E+05-1.66519E+06-1.68802E-09-1.64000E-08
 -1        57-4.46208E+06-7.90419E+05-2.36521E+05-1.64015E+06 1.36333E-09 1.86265E-09
 -1        58-4.38154E+06-5.93794E+05-8.24760E+04-1.64300E+06 1.41881E-10 2.21917E-09
 -1        59-4.38058E+06-6.59706E+05-4.92379E+04-1.66626E+06-2.55113E-09-1.05701E-08
 -1        60-4.39156E+06-6.09580E+05-1.92355E+04-1.64032E+06-1.76442E-09-1.69794E-08
 -1        61-4.37089E+06-6.39222E+05-1.09044E+04-1.66701E+06 3.75348E-09-1.19651E-08
 -1        62-4.39100E+06-6.13816E+05-5.20644E+03-1.64234E+06 6.97582E-10 1.87453E-09
 -1        63-4.37490E+06-6.31258E+05-4.16543E+03-1.66075E+06 1.56319E-10 1.30157E-08
 -1        64-4.38743E+06-6.17544E+05-4.68013E+03-1.64653E+06-1.35697E-09 2.10680E-08
 -1        65-4.38406E+06-6.25008E+05-9.25039E+03-1.65120E+06-1.38061E-09-1.30453E-08
 -1        66-4.38182E+06-6.20145E+05-1.62210E+04-1.65184E+06-5.01689E-09-5.02678E-09
 -1        67-4.40230E+06-6.32008E+05-4.12418E+04-1.63899E+06-1.00829E-09 4.71937E-09
 -1        68-4.36937E+06-6.10935E+05-6.91290E+04-1.65865E+06 1.67347E-10 4.11092E-10
 -1        69-4.47583E+06-7.36440E+05-1.98121E+05-1.61153E+06 1.50521E-09-1.07539E-08
 -1        70-4.30920E+06-5.18774E+05-2.93831E+05-1.67835E+06-2.69210E-10-3.49246E-09
 -1        86-1.31437E+03-2.87094E+05 9.10397E+03 4.07433E+02 1.10322E-09-6.91415E-09
 -1        87 8.69256E+03-2.81392E+05 1.90275E+04-1.57477E+03 1.81899E-09-2.07554E-08
 -1        88-7.36797E+03-2.89981E+05 2.91280E+04 1.16733E+03 2.60661E-09-3.02805E-10
 -1        89 5.48808E+04-2.60096E+05 7.85198E+04-2.88970E+03 3.95630E-09-1.64313E-08
 -1        90-4.73363E+04-3.08371E+05 1.11026E+05 1.72280E+03 3.91447E-09 2.04466E-10
 -1       121-3.44376E+02-1.03821E+06 1.26212E+02 2.99117E+02 5.42101E-10 9.14588E-09
 -1       122-1.49762E+02-1.03726E+06 5.29519E+02-1.19796E+03-2.28639E-09 1.87938E-08
 -1       123-3.95339E+02-1.03827E+06 7.41576E+02 8.94941E+02 1.83422E-09 9.17862E-09
 -1       124 8.34607E+02-1.03671E+06 2.18528E+03-2.58406E+03-3.95676E-09 1.06329E-08
 -1       125-1.01108E+03-1.03882E+06 3.23548E+03 1.68285E+03 2.76850E-09 6.34282E-09
 -1       191-2.45714E+00 2.85413E+05 1.87655E+01 5.69999E-01-5.71845E-11-1.07098E-08
 -1       192-3.37338E-01 2.85391E+05 3.32991E+01-5.52574E+00-4.15739E-11 3.83011E-09
 -1       193 3.93239E+00 2.85412E+05 6.29905E+01 4.95508E+00-1.87129E-10 2.06410E-09
 -1       194 3.06359E+01 2.85404E+05 1.34295E+02-4.43842E+01-1.77295E-10 7.59530E-09
 -1       195 9.53600E+01 2.85400E+05 2.68788E+02 3.94435E+01-3.72438E-10 1.09721E-08
 -1       251-1.09319E+06 5.00865E+03-1.19307E+04-9.27026E+03 7.39647E-10-6.23641E-09
 -1       252-1.09717E+06-5.76603E+03-8.18933E+03 1.14342E+04 1.50726E-09 1.08867E-09
 -1       253-1.09574E+06 7.17990E+02-3.22659E+03-4.71866E+03 2.29875E-10 2.29636E-09
 -1       254-1.09412E+06-8.54250E+02-1.58104E+03 7.79929E+02-1.01249E-09-9.91014E-09
 -1       255-1.09617E+06 5.93680E+01-9.23814E+02 1.38404E+03-8.37190E-10 1.26410E-08
 -1       256-1.09417E+06-8.00793E+01-1.28160E+02-1.05215E+04-1.55205E-09 1.34250E-08
 -1       257-1.09573E+06-2.12321E+01-1.06981E+02 6.58258E+03 7.03324E-10-1.00940E-09
 -1       258-1.09504E+06 1.21096E+02 3.07979E+02-1.79122E+04 4.30930E-10-8.96602E-09
 -1       259-1.09539E+06-6.93209E+01 6.10091E+02 8.77512E+03-9.02727E-10-4.78411E-09
 -1       260-1.09490E+06 5.34639E+02 1.51061E+03-1.84109E+04 3.09470E-10-2.72345E-09
 -1       261-1.09587E+06-4.26816E+02 2.51559E+03 7.08129E+03 1.56871E-09-7.05734E-09
 -1       262-1.09272E+06 3.06268E+03 6.55731E+03-1.18202E+04 3.32591E-10-1.06587E-08
 -1       263-1.09748E+06-2.65822E+03 9.97865E+03 2.18414E+03-9.27230E-10-4.88399E-10
 -1       264-1.08450E+06 1.95045E+04 2.80216E+04-8.37947E+02-2.03056E-09 4.14411E-09
 -1       265-1.10402E+06-1.68581E+04 3.90792E+04-3.90089E+03-1.30581E-09 1.18889E-08
 -1       266-3.63014E+04-1.69718E+04 8.51865E+04-9.37707E+01-4.36557E-11-3.12201E-08
 -1       267 4.20846E+04 1.97852E+04 6.02019E+04 1.08177E+02-2.64663E-10-6.20205E-08
 -1       268-5.64341E+03-2.80191E+03 2.23772E+04-1.37845E+01-3.09228E-10-4.55347E-08
 -1       269 6.66328E+03 3.35355E+03 1.45444E+04 1.60560E+01-2.36469E-10-3.93897E-08
 -1       270-1.00016E+03-5.51002E+02 7.02082E+03-2.17895E+00-2.00089E-10-2.57219E-08
 -1       271-3.41254E+06-4.27056E+05-2.59171E+05-1.32960E+06-3.49246E-10 3.82715E-09
 -1       272-3.50088E+06-6.20708E+05-1.66629E+05-1.33233E+06-2.27578E-09-1.86774E-08
 -1       273-3.46268E+06-4.90298E+05-6.12322E+04-1.31648E+06 1.93722E-09 2.33194E-09
 -1       274-3.44148E+06-5.43934E+05-3.42346E+04-1.35293E+06-5.18867E-10 1.94559E-08
 -1       275-3.47116E+06-4.95194E+05-1.42646E+04-1.31250E+06 2.21007E-10 2.23008E-09
 -1       276-3.43088E+06-5.38821E+05-7.54227E+03-1.35974E+06 2.21007E-10 6.58929E-09
 -1       277-3.47370E+06-4.94189E+05-3.71040E+03-1.31040E+06 5.05679E-10 9.06925E-09
 -1       278-3.42795E+06-5.40249E+05-2.66600E+03-1.36294E+06 1.23146E-09 1.57601E-08
 -1       279-3.47447E+06-4.93450E+05-2.84344E+03-1.30959E+06-2.05250E-09-1.41324E-09
 -1       280-3.42813E+06-5.41167E+05-5.21192E+03-1.36328E+06 1.43427E-09-1.01772E-08
 -1       281-3.47359E+06-4.93281E+05-9.48916E+03-1.31009E+06-5.15229E-10 3.92083E-09
 -1       282-3.43413E+06-5.45641E+05-2.27435E+04-1.36011E+06-3.81442E-09 1.09362E-08
 -1       283-3.46829E+06-4.89718E+05-4.05322E+04-1.31237E+06-2.00475E-09 3.73802E-09
 -1       284-3.47316E+06-5.96713E+05-1.10396E+05-1.34658E+06-2.36957E-09-8.57108E-09
 -1       285-3.43496E+06-4.48029E+05-1.71714E+05-1.32123E+06 1.24055E-09-9.77889E-09
 -1       301 2.11558E+04-5.27017E+04 1.56161E+05-1.01346E+05-8.44011E-10-9.72159E-09
 -1       302 2.22476E+04-1.31740E+04 1.03754E+05-1.49008E+05 1.15415E-09-5.27507E-11
 -1       303 1.12107E+03-3.72740E+04 8.16334E+04-1.01436E+05-7.78527E-10-1.44828E-08
 -1       304 2.77426E+04-7.48772E+03 1.22289E+05-1.48548E+05 5.52973E-10-2.29056E-08
 -1       305 2.68099E+04-5.73948E+04 1.97134E+05-1.01848E+05-8.44011E-10-1.47757E-08
 -1       306-5.67781E+06-6.12459E+05-4.29733E+05-2.14090E+06 1.32422E-09-1.56870E-08
 -1       307-5.63040E+06-1.15371E+06-2.79599E+05-2.28988E+06-2.19347E-08 1.77097E-08
 -1       308-5.82741E+06-6.63137E+05-1.00779E+05-2.00882E+06-6.07088E-10 9.40054E-09
 -1       309-5.46820E+06-1.09103E+06-5.84301E+04-2.45913E+06 9.08474E-09-4.64206E-09
 -1       310-5.85146E+06-6.63726E+05-2.27552E+04-1.98125E+06 1.14596E-09-1.47211E-08
 -1       311-5.47595E+06-1.02832E+06-9.34901E+03-2.40963E+06 1.72258E-08-5.58293E-09
 -1       312-5.81394E+06-7.29440E+05-1.23319E+04-2.05446E+06 8.52560E-09 2.16460E-09
 -1       313-5.59534E+06-8.64965E+05 4.33480E+03-2.20346E+06 1.11231E-09 7.46741E-09
 -1       314-5.71901E+06-8.36363E+05-1.60875E+04-2.17771E+06 6.02813E-09 1.04410E-08
 -1       315-5.80872E+06-6.68377E+05-6.73028E+03-1.98092E+06-1.37325E-08 1.13050E-09
 -1       316-5.60447E+06-9.23233E+05-2.96372E+04-2.27949E+06-3.02698E-08-1.08557E-08
 -1       317-5.99626E+06-5.66311E+05-6.68242E+04-1.85208E+06 2.67887E-08-2.18251E-08
 -1       318-5.54506E+06-9.29373E+05-1.12878E+05-2.31680E+06-2.78342E-08 1.15106E-08
 -1       319-6.08800E+06-7.70421E+05-3.27016E+05-1.82999E+06-1.02882E-08-1.10376E-08
 -1       320-5.51207E+06-7.23211E+05-4.88671E+05-2.29939E+06 1.68802E-08-5.64614E-09
 -1       336 5.61885E+02-1.12392E+06-6.32545E+03 2.36352E+03-1.13150E-08-1.46101E-08
 -1       337-2.33647E+03-1.12508E+06-7.00330E+03-5.83165E+03-2.04368E-08-1.74487E-08
 -1       338 3.78305E+02-1.12406E+06-9.21626E+03 3.44790E+03-1.47752E-08-4.57476E-09
 -1       339-9.52493E+03-1.12970E+06-2.01479E+04-7.95440E+03-2.64195E-08 4.23461E-09
 -1       340 6.31914E+03-1.11956E+06-3.12482E+04 4.46816E+03-1.73704E-08 2.57860E-08
 -1       406-8.38569E+01 2.82557E+05 3.14748E+02-3.94039E+01 2.38060E-10-5.42855E-09
 -1       407 1.27532E+02 2.82619E+05 9.17197E+02 4.05761E+01 2.34266E-11 9.22228E-09
 -1       408 5.02559E+02 2.82476E+05 1.94764E+03-1.07889E+00 2.77510E-10 1.49157E-09
 -1       409 2.13874E+03 2.83263E+05 4.44211E+03-3.57510E+01-5.97993E-11-2.30534E-09
 -1       410 6.15130E+03 2.81912E+05 9.09440E+03 3.86322E+01 2.97405E-10 2.72235E-09
 -1       521-8.17522E+06-7.90965E+05-7.90801E+05-2.55327E+06-1.21800E-08 7.77072E-09
 -1       522-5.66686E+06-2.10003E+06-2.02616E+05-3.95279E+06-9.05857E-08-4.00578E-08
 -1       523-8.17380E+06-3.38020E+05-1.55707E+05-1.79652E+06-1.83863E-08-4.77303E-08
 -1       524-6.03670E+06-2.27804E+06-3.55529E+04-4.96022E+06 9.06364E-08-9.63594E-08
 -1       525-8.17371E+06-3.37557E+05-4.32105E+04-1.76555E+06 6.80084E-08-6.15382E-08
 -1       526-5.58130E+06-1.94438E+06 1.34045E+05-4.10027E+06 5.57920E-08-3.11429E-08
 -1       527-8.29500E+06-9.17229E+05-2.15754E+05-2.46079E+06 5.79166E-08-2.47383E-10
 -1       528-5.75612E+06-8.97562E+05 2.71601E+05-2.31237E+06-2.23517E-08 1.96815E-09
 -1       529-7.65719E+06-1.62416E+06-2.34808E+05-3.26902E+06 1.12777E-08-8.05449E-09
 -1       530-7.76729E+06 4.03120E+05 1.58549E+05-1.32088E+06-5.99975E-08 6.64440E-08
 -1       531-6.59812E+06-1.98663E+06-6.21053E+04-3.64356E+06-9.54242E-08-1.39335E-09
 -1       532-9.30344E+06 9.99594E+05-3.02392E+04-1.23151E+06 8.57308E-08-1.01055E-07
 -1       533-6.45601E+06-1.99226E+06-1.30214E+05-3.67158E+06 2.92785E-08-1.57186E-07
 -1       534-8.31139E+06 4.04988E+05-2.06123E+05-1.23352E+06-4.07381E-08 1.21066E-07
 -1       535-7.34901E+06-1.55976E+06-7.40019E+05-3.40713E+06-7.94535E-09 7.29779E-08
 -1       536-3.90338E+05-1.90816E+04 3.32562E+04-1.33696E+04-2.70018E-09 2.13840E-08
 -1       537-3.31360E+05 2.14011E+04 3.13234E+04 3.20485E+04-3.66851E-08 2.91625E-08
 -1       538-3.61676E+05-2.06823E+03 9.95859E+03-1.95424E+04 3.03989E-09 3.55394E-08
 -1       539-3.48626E+05 3.04938E+03 8.20665E+03 3.49436E+04 3.95079E-08 2.62835E-08
 -1       540-3.73304E+05-5.38289E+02 4.05403E+01-1.62715E+04-2.26385E-09 3.26617E-08
 -1       541-3.12197E+05 1.98761E+03 1.10382E+04 1.99828E+04-8.25639E-09 2.98195E-08
 -1       542-3.97125E+05-1.82115E+03-6.88098E+03-4.56178E+03 1.28889E-08 1.86062E-08
 -1       543-2.95974E+05 2.21970E+03 1.29916E+04-5.98219E+03-4.51109E-09-2.81051E-09
 -1       544-3.89110E+05-1.13433E+03-6.22689E+03 9.67425E+03-1.02666E-08-1.45287E-08
 -1       545-3.30710E+05 1.13811E+02 4.50297E+03-2.88051E+04 1.49021E-09-3.01918E-08
 -1       546-3.63286E+05 1.02875E+03-3.10269E+03 1.82572E+04 5.78149E-09-2.38859E-08
 -1       547-3.55095E+05-3.39359E+03-5.29752E+03-3.66184E+04-3.57339E-08-2.76750E-08
 -1       548-3.65319E+05 2.88025E+03-1.17452E+04 1.75025E+04-2.96942E-08-2.25532E-08
 -1       549-3.32166E+05-1.72240E+04-2.09478E+04-2.59119E+04-2.48097E-08-9.81754E-09
 -1       550-3.85440E+05 1.41970E+04-4.80294E+04 7.53294E+03 1.09026E-09-1.38425E-09
 -1       551 1.72605E+04-5.80200E+05 2.43846E+04-9.65344E+05-4.66898E-08-1.19471E-08
 -1       552 3.91991E+04-5.91813E+05 3.18109E+04-1.37495E+06-3.55358E-08 4.46016E-09
 -1       553 2.79382E+04-5.97768E+05 4.65823E+04-9.61709E+05-5.74291E-08 1.23691E-08
 -1       554 6.58416E+04-5.87576E+05 9.75954E+04-1.37639E+06-3.83880E-08 7.82052E-09
 -1       555 5.61189E+04-6.16420E+05 1.73348E+05-9.62654E+05-5.75092E-08-7.88714E-09
 -1       556 1.00528E+05-1.86150E+05 6.21346E+04-2.35263E+05-9.58971E-09-3.30328E-09
 -1       557 1.76084E+05-2.47215E+05 3.28911E+04-2.95819E+05-5.00586E-09 5.92081E-09
 -1       558 9.87062E+04-1.93566E+05 1.29076E+04-2.28971E+05-1.07684E-08 5.34419E-09
 -1       559 1.63875E+05-2.55137E+05 6.67529E+03-3.01748E+05 4.68572E-09 4.03816E-09
 -1       560 9.51675E+04-1.91272E+05 2.53408E+03-2.31322E+05-5.19503E-09 1.25328E-09
 -1       561 1.58791E+05-2.53560E+05 1.43811E+03-3.05006E+05-7.22503E-09 3.60797E-09
 -1       562 9.23553E+04-1.89439E+05 4.35048E+02-2.33343E+05 2.18279E-10-2.62662E-09
 -1       563 1.55489E+05-2.52130E+05 3.52030E+02-3.07123E+05 9.11314E-09 4.37956E-09
 -1       564 9.05272E+04-1.88276E+05 9.57687E+01-2.34636E+05 8.92032E-09-2.77669E-09
 -1       565 1.53628E+05-2.51326E+05 1.13525E+02-3.08299E+05 4.35830E-09 2.70666E-09
 -1       566 8.97311E+04-1.87761E+05 1.61387E+01-2.35200E+05-1.33514E-09-2.18279E-11
 -1       567 1.53166E+05-2.51112E+05-5.92281E+01-3.08511E+05 9.43305E-09-3.37604E-09
 -1       568 9.00071E+04-1.87946E+05-2.96179E+02-2.35086E+05-5.12591E-09 8.40373E-10
 -1       569 1.53329E+05-2.50992E+05-7.12347E+02-3.07039E+05-1.37152E-08 1.68511E-08
 -1       570 9.19952E+04-1.89602E+05-1.67104E+03-2.34871E+05-1.52068E-09 6.45741E-09
 -1       571 2.09287E+05 7.70856E+03 1.13812E+04-5.42794E+04 1.17097E-09 2.78715E-09
 -1       572 2.10975E+05 2.70361E+03 5.57630E+03-5.95181E+04 1.35151E-09 1.50703E-09
 -1       573 2.09963E+05 6.66950E+02 2.47733E+03-5.41482E+04 1.04201E-08-1.30012E-09
 -1       574 2.10159E+05 2.41454E+02 1.24139E+03-5.96669E+04 1.88509E-08-2.44427E-09
 -1       575 2.10037E+05 5.96928E+01 5.85277E+02-5.41308E+04 8.23161E-09 5.20185E-09
 -1       576 2.10049E+05 4.21884E+01 2.98338E+02-5.96868E+04-1.11033E-09-3.96449E-09
 -1       577 2.10051E+05 2.56878E+01 1.47607E+02-5.41285E+04 1.69848E-10-2.19052E-09
 -1       578 2.10042E+05 2.96722E+01 8.18827E+01-5.96892E+04-1.63413E-09-5.96583E-09
 -1       579 2.10069E+05 2.00643E+01 5.23435E+01-5.41284E+04 3.30147E-10-1.11595E-09
 -1       580 2.10067E+05 1.90335E+01 5.29603E+01-5.96861E+04-5.05679E-10-6.90216E-09
 -1       581 2.10099E+05 7.78853E+00 7.57929E+01-5.41317E+04 2.48474E-09-7.90806E-10
 -1       582 2.10121E+05 2.04477E+01 1.48011E+02-5.96529E+04 3.49701E-10 1.73668E-09
 -1       583 2.10135E+05 5.27129E+01 2.85216E+02-5.41617E+04-1.91358E-09 1.34264E-09
 -1       584 2.10271E+05 2.76887E+02 6.40997E+02-5.94018E+04-1.05865E-09-9.91486E-09
 -1       585 2.10108E+05 8.39122E+02 1.30166E+03-5.43832E+04 6.36646E-12 7.09406E-09
 -1       586-2.49582E+03 6.91020E+04-3.15104E+03-1.86569E+05-8.09450E-11-7.54164E-09
 -1       587-5.52523E+02 6.86990E+04-1.56188E+02-2.05335E+05-2.18279E-11 4.58067E-09
 -1       588 7.23124E+02 6.87516E+04 2.71804E+03-1.86471E+05-1.89175E-10 2.00453E-09
 -1       589 3.78367E+03 7.02257E+04 7.64656E+03-2.05137E+05 1.54614E-10-1.74623E-09
 -1       590 1.10216E+04 6.78851E+04 1.62745E+04-1.86775E+05-4.34738E-10 9.16589E-09
 -1       591-4.45102E+04-1.21023E+04-1.48892E+04-2.22182E+04 3.63571E-10-1.55887E-09
 -1       592-4.62118E+04-1.54524E+04-8.06472E+03-2.57522E+04-1.03961E-09-6.05451E-09
 -1       593-4.60111E+04-1.10098E+04-3.35732E+03-2.32983E+04 1.22895E-10 2.13072E-09
 -1       594-4.41418E+04-1.32831E+04-1.67445E+03-2.58493E+04 1.32786E-10 1.80862E-09
 -1       595-4.61261E+04-1.10051E+04-7.69369E+02-2.33478E+04 3.45608E-11 7.71468E-09
 -1       596-4.40013E+04-1.31838E+04-3.91991E+02-2.58342E+04 2.00885E-09 3.46290E-09
 -1       597-4.61406E+04-1.10148E+04-2.15345E+02-2.33497E+04 4.68162E-10 1.42310E-08
 -1       598-4.39878E+04-1.31800E+04-1.76590E+02-2.58299E+04-3.72756E-09 4.03315E-09
 -1       599-4.61394E+04-1.10150E+04-2.29920E+02-2.33493E+04 7.73298E-10 9.95556E-10
 -1       600-4.40024E+04-1.31850E+04-4.30591E+02-2.58334E+04 3.73001E-09 3.74484E-10
 -1       601-4.61213E+04-1.10048E+04-8.51291E+02-2.33464E+04 2.89447E-10-3.33148E-09
 -1       602-4.41578E+04-1.32948E+04-1.85623E+03-2.58479E+04-1.12777E-09 2.29625E-09
 -1       603-4.59922E+04-1.10120E+04-3.72306E+03-2.32918E+04 2.78078E-09 8.39964E-09
 -1       604-4.64623E+04-1.56902E+04-8.94332E+03-2.57267E+04-2.04420E-09-3.18596E-09
 -1       605-4.43161E+04-1.22326E+04-1.65111E+04-2.21040E+04-1.90698E-09 1.15779E-09
 -1       606 2.76085E+04-1.00577E+04-1.80932E+04 2.67850E+04-1.60526E-09-2.00635E-09
 -1       607 2.45109E+04-3.25219E+03-9.00940E+03 3.00703E+04-1.03591E-09-2.40470E-09
 -1       608 2.62671E+04-5.56048E+02-4.03464E+03 2.65733E+04 1.07138E-09 3.92470E-09
 -1       609 2.59180E+04-1.52093E+02-2.03773E+03 3.03061E+04-4.00178E-11 2.91197E-09
 -1       610 2.61038E+04 1.75343E+01-9.73389E+02 2.65495E+04-3.04681E-09-7.39374E-09
 -1       611 2.60384E+04 3.02157E+01-4.90814E+02 3.03318E+04-5.20731E-09-1.27156E-08
 -1       612 2.60596E+04 3.40674E+01-2.34684E+02 2.65472E+04-3.21870E-09-5.94059E-09
 -1       613 2.60352E+04 3.94799E+01-1.06468E+02 3.03348E+04-6.41376E-09-1.35817E-08
 -1       614 2.60353E+04 3.51839E+01-2.86976E+01 2.65464E+04 8.37281E-09 4.79076E-10
 -1       615 2.60224E+04 4.55104E+01 3.59630E+01 3.03353E+04 2.63171E-08 9.72045E-09
 -1       616 2.60167E+04 4.14720E+01 1.15754E+02 2.65467E+04 7.58155E-09 3.33375E-09
 -1       617 2.60295E+04 7.43921E+01 2.67407E+02 3.03348E+04-6.47333E-10-5.91081E-09
 -1       618 2.59884E+04 1.21795E+02 5.40088E+02 2.65468E+04-6.73026E-10 8.94715E-10
 -1       619 2.62161E+04 4.94662E+02 1.21364E+03 3.03340E+04-2.61593E-10 6.99993E-09
 -1       620 2.58064E+04 1.40501E+03 2.43952E+03 2.65457E+04 1.79000E-09 4.33101E-09
 -1       621 3.00174E+02 2.20495E+05 2.68836E+03 1.13283E+04-1.95882E-10 7.44876E-09
 -1       622 3.54018E+02 2.21157E+05 2.38949E+03 1.65076E+04-1.69393E-10 9.35870E-10
 -1       623 1.73719E+01 2.20668E+05 2.88805E+03 1.12745E+04-1.51360E-10 4.05453E-09
 -1       624 1.34738E+03 2.22062E+05 5.60658E+03 1.65618E+04-1.27102E-10-3.41402E-09
 -1       625 1.35431E+03 2.19575E+05 9.80439E+03 1.12740E+04-4.36557E-11-5.73027E-09
 -1       626 1.88401E+05 5.08083E+04 3.93034E+03 9.98707E+04-1.05892E-08 2.64845E-09
 -1       627 1.86018E+05 5.24831E+04 1.89400E+03 1.03824E+05-2.28156E-08-5.93445E-09
 -1       628 1.88532E+05 4.89676E+04 8.00040E+02 1.00485E+05-5.46788E-09 1.28791E-08
 -1       629 1.85471E+05 5.20153E+04 3.91976E+02 1.04058E+05 7.29415E-10 1.17694E-09
 -1       630 1.88539E+05 4.88812E+04 1.81114E+02 1.00502E+05-4.36557E-11-1.61725E-09
 -1       631 1.85405E+05 5.20034E+04 9.70872E+01 1.04059E+05-2.28829E-09-8.72092E-10
 -1       632 1.88530E+05 4.88882E+04 6.32535E+01 1.00494E+05-4.95857E-09 1.73594E-09
 -1       633 1.85391E+05 5.20088E+04 6.95445E+01 1.04051E+05-4.60932E-09 1.89897E-09
 -1       634 1.88520E+05 4.88892E+04 1.11495E+02 1.00490E+05 2.64072E-09-1.98884E-09
 -1       635 1.85396E+05 5.20103E+04 2.25345E+02 1.04051E+05 2.65391E-09 1.42736E-08
 -1       636 1.88508E+05 4.88880E+04 4.54782E+02 1.00487E+05-1.96314E-09 3.76122E-09
 -1       637 1.85490E+05 5.20823E+04 9.99398E+02 1.04047E+05-1.17848E-09 3.46790E-09
 -1       638 1.88470E+05 4.91104E+04 2.05370E+03 1.00384E+05-1.16120E-09-3.13548E-09
 -1       639 1.86566E+05 5.35834E+04 4.85849E+03 1.03727E+05-2.60673E-09 8.03357E-09
 -1       640 1.88326E+05 5.35834E+04 1.00824E+04 9.84877E+04-1.25328E-09 9.93396E-09
 -1       656 5.03263E+04-1.27645E+06-1.21486E+05-4.32888E+02 2.11003E-10 6.36422E-09
 -1       657-6.65198E+04-1.33129E+06-1.00509E+05 7.57280E+03 1.50976E-10 6.69743E-09
 -1       658 1.59787E+04-1.29208E+06-6.17291E+04-1.77123E+03 3.39014E-10-1.13140E-09
 -1       659-7.14646E+04-1.33364E+06-1.07004E+05 8.50370E+03-1.06229E-09 6.37615E-09
 -1       660 5.52595E+04-1.27412E+06-1.32655E+05-1.36377E+03-6.54836E-10 3.50424E-09
 -1       661 1.68144E+05 1.82269E+04 1.63602E+04 6.57438E+04 2.49202E-09 5.04133E-09
 -1       662 1.76804E+05 3.09217E+04 1.10243E+04 6.27431E+04-2.14976E-09-3.53225E-09
 -1       663 1.71353E+05 2.34788E+04 3.85628E+03 6.48157E+04 7.29756E-10-4.30032E-09
 -1       664 1.73089E+05 2.47757E+04 2.30579E+03 6.38730E+04 1.90974E-09 1.68910E-09
 -1       665 1.71835E+05 2.42003E+04 9.09567E+02 6.46791E+04 3.15083E-10-9.68100E-10
 -1       666 1.72522E+05 2.39472E+04 5.30763E+02 6.40491E+04-4.35978E-09 7.96629E-09
 -1       667 1.71917E+05 2.42856E+04 2.80199E+02 6.46477E+04-2.00725E-09 4.91386E-10
 -1       668 1.72434E+05 2.38815E+04 2.81582E+02 6.40945E+04 3.35781E-09-2.19890E-09
 -1       669 1.71923E+05 2.42640E+04 3.77985E+02 6.46343E+04 2.54501E-09 1.40437E-09
 -1       670 1.72527E+05 2.40832E+04 8.20067E+02 6.40953E+04 3.28799E-09 7.45196E-09
 -1       671 1.71824E+05 2.40879E+04 1.45507E+03 6.46452E+04-1.93875E-09-9.38041E-09
 -1       672 1.73375E+05 2.54986E+04 3.72196E+03 6.38906E+04-3.11699E-09-9.19744E-09
 -1       673 1.71080E+05 2.28842E+04 6.23710E+03 6.48255E+04-1.50237E-09-4.34670E-09
 -1       674 1.79313E+05 3.55173E+04 1.78367E+04 6.21446E+04-6.59895E-10-1.10394E-08
 -1       675 1.65924E+05 1.43494E+04 2.64755E+04 6.62855E+04 1.49930E-09-1.06775E-09
 -1       676 2.00445E+01-2.40629E+05-9.30889E+02 2.76095E+01-1.83604E-10-6.17425E-09
 -1       677-2.47161E+02-2.40854E+05-1.70364E+03-5.51876E+01-3.68149E-09-1.29309E-08
 -1       678 1.65026E+02-2.40468E+05-3.01160E+03 2.75591E+01-1.42211E-09-3.27265E-09
 -1       679-3.01237E+03-2.42671E+05-7.15412E+03-5.49942E+01 2.29079E-10-3.14078E-09
 -1       680 1.79781E+03-2.38811E+05-1.15300E+04 2.71025E+01 1.52750E-09-4.18454E-09
 -1       771-2.56521E+06-4.90844E+05-7.15227E+04-1.10885E+06-1.49230E-08-1.09285E-08
 -1       772-2.53630E+06-5.35127E+05-3.78628E+04-1.15891E+06-1.03901E-08 5.86078E-09
 -1       773-2.57682E+06-4.81700E+05-1.72976E+04-1.11302E+06-5.32600E-09 5.64614E-09
 -1       774-2.52748E+06-5.27435E+05-8.16028E+03-1.16625E+06 1.12341E-08-1.40790E-09
 -1       775-2.58095E+06-4.78812E+05-4.79882E+03-1.11391E+06-1.07684E-09 1.37879E-09
 -1       776-2.52875E+06-5.27391E+05-2.02538E+03-1.17100E+06-2.33558E-09 2.31375E-09
 -1       777-2.58421E+06-4.76406E+05-1.68687E+03-1.11464E+06 3.60887E-09 1.86628E-09
 -1       778-2.53051E+06-5.27507E+05-5.87233E+02-1.17501E+06 4.32192E-09 4.27826E-09
 -1       779-2.58691E+06-4.74357E+05-7.66592E+02-1.11529E+06-9.05857E-09-8.13088E-09
 -1       780-2.53211E+06-5.27569E+05-2.76421E+02-1.17825E+06-5.68252E-09 6.33008E-10
 -1       781-2.58899E+06-4.72728E+05-5.21388E+02-1.11579E+06-1.36206E-08-8.87667E-10
 -1       782-2.53339E+06-5.27606E+05-5.17489E+02-1.18063E+06-1.58616E-08-3.74530E-09
 -1       783-2.59039E+06-4.71631E+05-1.06317E+03-1.11613E+06-2.85581E-09-6.92603E-09
 -1       784-2.53475E+06-5.28221E+05-2.32577E+03-1.18205E+06-8.35280E-09 4.68845E-10
 -1       785-2.59069E+06-4.71384E+05-4.34044E+03-1.11600E+06-1.57361E-08 2.67119E-09
 -1       786 1.58189E+05-9.43739E+03 2.18335E+04-7.38555E+01 1.29615E-09-4.49108E-09
 -1       787 1.67652E+05 1.09256E+04 1.54466E+04 1.81547E+01 1.78835E-09 4.31464E-09
 -1       788 1.61839E+05-1.47939E+03 5.65049E+03-5.59741E+01 9.44186E-10 5.45515E-09
 -1       789 1.63400E+05 1.71167E+03 3.54945E+03-1.12106E+01-3.23959E-10 1.19871E-09
 -1       790 1.62442E+05-2.31011E+02 1.44243E+03-4.44926E+01-1.32503E-10-7.00697E-09
 -1       791 1.62696E+05 2.67878E+02 8.43342E+02-3.20536E+01-1.00700E-09 1.27225E-08
 -1       792 1.62543E+05-3.66796E+01 3.77898E+02-3.51312E+01-2.82853E-10 8.26867E-09
 -1       793 1.62581E+05 4.81275E+01 2.33377E+02-5.13198E+01-9.77947E-11-3.94946E-09
 -1       794 1.62558E+05-1.14030E+01 1.51077E+02-2.52261E+01 6.71019E-10 1.48624E-09
 -1       795 1.62580E+05 5.05346E+01 1.87029E+02-7.43292E+01-2.49918E-10-9.68690E-10
 -1       796 1.62544E+05-3.90817E+01 2.61097E+02-1.21214E+01 4.24015E-10-5.25786E-09
 -1       797 1.62693E+05 2.84607E+02 5.99885E+02-1.07222E+02 3.30182E-10 7.14218E-09
 -1       798 1.62444E+05-2.45306E+02 9.41790E+02 7.66769E+00 5.08600E-10 1.02083E-08
 -1       799 1.63398E+05 1.81100E+03 2.56301E+03-1.58874E+02-1.11513E-10 1.15539E-08
 -1       800 1.61839E+05-1.56426E+03 3.61901E+03 3.95309E+01-5.69322E-13-1.35515E-09
 -1       801 5.10400E+04-1.86723E+06-1.68892E+05 3.41852E+04 1.48721E-08-9.48830E-09
 -1       802-5.68582E+04-1.70304E+06-6.56759E+04-6.17403E+04 4.07454E-08-8.22638E-10
 -1       803 5.15668E+03-1.77955E+06-9.75434E+03 8.71680E+04 3.16213E-08 2.60952E-08
 -1       804 5.22276E+04-1.64920E+06 7.79785E+04-4.18777E+04 3.43007E-08 3.35891E-08
 -1       805-5.87656E+04-1.92044E+06 7.71051E+04 1.43148E+04 1.26165E-08 2.28556E-08
 -1       806-2.29153E+05-4.60555E+04-1.80747E+04-9.23161E+04 9.62245E-10 5.24597E-09
 -1       807-2.30492E+05-4.31900E+04-8.87981E+03-9.67908E+04 4.22733E-09-3.90895E-09
 -1       808-2.29649E+05-3.95417E+04-3.76691E+03-9.53981E+04 3.65208E-09-3.62789E-09
 -1       809-2.28615E+05-4.07062E+04-1.84174E+03-9.70241E+04 7.41693E-09 2.46587E-09
 -1       810-2.29726E+05-3.93134E+04-8.43618E+02-9.55344E+04 4.73210E-09 3.79941E-09
 -1       811-2.28470E+05-4.06070E+04-4.18862E+02-9.69992E+04 1.07411E-09 3.07000E-09
 -1       812-2.29739E+05-3.93316E+04-2.10143E+02-9.55342E+04 4.95220E-10 2.32649E-09
 -1       813-2.28451E+05-4.06090E+04-1.34162E+02-9.69864E+04 2.36901E-09-3.27759E-09
 -1       814-2.29736E+05-3.93384E+04-1.28691E+02-9.55313E+04 7.21229E-10-3.82624E-09
 -1       815-2.28454E+05-4.06109E+04-2.03929E+02-9.69824E+04-2.03181E-09-2.06796E-09
 -1       816-2.29722E+05-3.93370E+04-3.83906E+02-9.55288E+04 4.94765E-10 8.94215E-09
 -1       817-2.28520E+05-4.06475E+04-8.23498E+02-9.69753E+04 2.37969E-09 8.79027E-09
 -1       818-2.29674E+05-3.94523E+04-1.67881E+03-9.54741E+04-3.91537E-09-7.95035E-09
 -1       819-2.29442E+05-4.16592E+04-3.95084E+03-9.67562E+04 2.11503E-09-1.73486E-10
 -1       820-2.29359E+05-4.24350E+04-8.04088E+03-9.41966E+04 1.23691E-10 4.39820E-09
 -1       821-2.88501E+05 1.59586E+04-3.69068E+04 2.43376E+02 9.50013E-10-6.51198E-09
 -1       822-3.04492E+05-1.84747E+04-2.61167E+04-9.25118E+02-1.22353E-09 2.07683E-09
 -1       823-2.94671E+05 2.50223E+03-9.55870E+03 2.46937E+02 2.54113E-10-3.46699E-09
 -1       824-2.97290E+05-2.89589E+03-6.01341E+03-7.61324E+02 5.71625E-10 7.88987E-10
 -1       825-2.95701E+05 3.91428E+02-2.47368E+03 7.95798E+01-1.56621E-09 1.58957E-09
 -1       826-2.96086E+05-4.61344E+02-1.48912E+03-3.29720E+02-3.38284E-09-1.27349E-09
 -1       827-2.95873E+05 6.90401E+01-7.76099E+02-1.84674E+02-3.50217E-09-7.08874E-09
 -1       828-2.95926E+05-1.40808E+02-6.81692E+02 1.81642E+02-5.19356E-09-9.25786E-09
 -1       829-2.95862E+05 7.11909E+01-7.89851E+02-4.31792E+02-2.28511E-10-4.24663E-09
 -1       830-2.96121E+05-4.76666E+02-1.54010E+03 5.51882E+02 2.12505E-09 8.29829E-09
 -1       831-2.95679E+05 4.05113E+02-2.55309E+03-5.54921E+02-3.21295E-09 4.20175E-09
 -1       832-2.97352E+05-2.99455E+03-6.22162E+03 6.21501E+02-2.04751E-09 6.75311E-09
 -1       833-2.94632E+05 2.58738E+03-9.88803E+03-5.01411E+02-1.76290E-09-5.52609E-09
 -1       834-3.04770E+05-1.91085E+04-2.70118E+04 3.60923E+02 4.16264E-10-5.26370E-09
 -1       835-2.88262E+05 1.65063E+04-3.81814E+04-2.94330E+02 5.08371E-09 4.39832E-09
 -1       836-9.70360E+02 2.71737E+05 1.64424E+04-1.99627E+04 5.74801E-10 8.12133E-09
 -1       837 3.60085E+03 2.76840E+05 1.40549E+04-4.01104E+04 1.28284E-09 8.00810E-09
 -1       838-3.63749E+02 2.73151E+05 1.45174E+04-1.98915E+04 1.10185E-09 7.95308E-09
 -1       839 9.31002E+03 2.81093E+05 2.76561E+04-4.01429E+04 1.67802E-09-2.63122E-09
 -1       840-2.81072E+03 2.67442E+05 4.41838E+04-1.99289E+04 1.13323E-09-5.80610E-09
 -1       856-7.99977E+04 7.44216E+03-1.96124E+04-4.30482E+02-1.53995E-09-2.93221E-09
 -1       857-8.80969E+04-8.72958E+03-1.35024E+04 4.57837E+03-1.40471E-09-8.33461E-09
 -1       858-8.31982E+04 1.04278E+03-5.08984E+03-4.51921E+02-2.65089E-09 5.40558E-09
 -1       859-8.44220E+04-1.21305E+03-3.07363E+03 4.61241E+03-1.29431E-09 1.20855E-09
 -1       860-8.36766E+04 1.45054E+02-1.29171E+03-4.64630E+02 1.29319E-09 2.63992E-09
 -1       861-8.38711E+04-1.60544E+02-7.18060E+02 4.62982E+03-5.69568E-09 3.96432E-09
 -1       862-8.37511E+04 1.91623E+01-3.13472E+02-4.69355E+02 4.25199E-09-2.93137E-09
 -1       863-8.37825E+04-1.11378E+01-1.48204E+02 4.63201E+03 7.73407E-09-5.22326E-09
 -1       864-8.37655E+04-1.04789E+00-3.27828E+01-4.66824E+02 5.55248E-09 7.64146E-10
 -1       865-8.37520E+04 3.01950E+01 6.63120E+01 4.61914E+03 6.39173E-09 1.09380E-09
 -1       866-8.37800E+04-2.26082E+01 1.72897E+02-4.56483E+02-2.74696E-10-2.02945E-10
 -1       867-8.36599E+04 1.88765E+02 4.50947E+02 4.59104E+03 1.36907E-10 4.79218E-09
 -1       868-8.38541E+04-1.57985E+02 7.55243E+02-4.38724E+02-5.45413E-10-3.87976E-09
 -1       869-8.30981E+04 1.31210E+03 2.02058E+03 4.54456E+03-2.97462E-09-7.57319E-09
 -1       870-8.43364E+04-1.11722E+03 2.93074E+03-4.10011E+02 2.00203E-10-1.30403E-08
 -1       871-4.29435E+03-9.74477E+03-1.40198E+04 9.25435E+04 1.83627E-09-2.67300E-09
 -1       872-1.84212E+03-1.28964E+04-5.73606E+03 1.19980E+05 2.74144E-09-5.18685E-09
 -1       873-1.82174E+01-1.14237E+04 7.61851E+02 9.23404E+04 1.53341E-09 2.08001E-09
 -1       874 2.15673E+03-9.42074E+03 7.82454E+03 1.20019E+05 3.20506E-09 3.37911E-09
 -1       875 5.05531E+03-1.32796E+04 1.73884E+04 9.25108E+04 1.85173E-09 1.93404E-09
 -1       876 2.26392E+05 3.88818E+04 1.20085E+04 9.17048E+04-3.31454E-09 2.93494E-09
 -1       877 2.27098E+05 4.14987E+04 6.41289E+03 9.52350E+04-5.45469E-09-9.11996E-09
 -1       878 2.27514E+05 3.75530E+04 2.68669E+03 9.26910E+04 2.26419E-09-2.83512E-09
 -1       879 2.25464E+05 3.98714E+04 1.33845E+03 9.53191E+04 2.88765E-10 2.38742E-11
 -1       880 2.27595E+05 3.75385E+04 6.23190E+02 9.27312E+04 1.50294E-09 4.08232E-09
 -1       881 2.25356E+05 3.98021E+04 3.32125E+02 9.53017E+04 1.94814E-09 2.61907E-09
 -1       882 2.27603E+05 3.75486E+04 2.11324E+02 9.27324E+04 6.44695E-09-4.18460E-10
 -1       883 2.25348E+05 3.97988E+04 2.25326E+02 9.52965E+04 3.40674E-09 6.13936E-09
 -1       884 2.27598E+05 3.75461E+04 3.56753E+02 9.27325E+04-2.85667E-09-1.11070E-08
 -1       885 2.25376E+05 3.98039E+04 7.16218E+02 9.53054E+04 5.20643E-09-7.60093E-09
 -1       886 2.27571E+05 3.75252E+04 1.44301E+03 9.27297E+04 3.94084E-09-1.18894E-09
 -1       887 2.25630E+05 3.99701E+04 3.15189E+03 9.53420E+04 3.16476E-10-4.39650E-09
 -1       888 2.27372E+05 3.75602E+04 6.35110E+03 9.26288E+04 9.54969E-11-5.35465E-09
 -1       889 2.29414E+05 4.38997E+04 1.51721E+04 9.52228E+04 1.87913E-09-6.11976E-09
 -1       890 2.24784E+05 4.06340E+04 2.84164E+04 9.02058E+04 1.72122E-09-2.79488E-09
 -1       891-1.35652E+02-1.28079E+05-1.52401E+03 2.38256E+04 4.39741E-10-2.24270E-09
 -1       892-2.37327E+02-1.28446E+05-1.65326E+03 3.60627E+04 7.99901E-10 2.35900E-09
 -1       893-3.48367E+01-1.28126E+05-2.35791E+03 2.38305E+04 2.85399E-09-1.01863E-09
 -1       894-1.28051E+03-1.29346E+05-4.89230E+03 3.59337E+04-2.93312E-11-6.23663E-09
 -1       895-1.00297E+03-1.27107E+05-8.62024E+03 2.39530E+04 2.48571E-09-1.05501E-10
 -1       956-2.85773E+05-4.06902E+03-1.02326E+04 1.92785E+04-1.61526E-09-2.79465E-09
 -1       957-2.87793E+05-1.37554E+03-5.25291E+03 2.32165E+04-2.30830E-09 1.46429E-10
 -1       958-2.86682E+05-1.12608E+02-2.36664E+03 1.91573E+04 1.59616E-09-5.43810E-09
 -1       959-2.86843E+05-2.21880E+01-1.20881E+03 2.33486E+04-1.89630E-09-7.03608E-09
 -1       960-2.86765E+05 3.15358E+01-5.89309E+02 1.91455E+04-2.52749E-09-2.96359E-09
 -1       961-2.86775E+05 2.93767E+01-3.12608E+02 2.33619E+04-1.67051E-09 7.18546E-09
 -1       962-2.86781E+05 2.78496E+01-1.78862E+02 1.91437E+04-3.65162E-10-3.91151E-09
 -1       963-2.86772E+05 3.09401E+01-1.43425E+02 2.33644E+04-3.22723E-09-6.82485E-09
 -1       964-2.86785E+05 2.99860E+01-1.73951E+02 1.91431E+04 3.22916E-09-3.04681E-09
 -1       965-2.86783E+05 3.39927E+01-3.00455E+02 2.33643E+04 1.03605E-08-7.93534E-10
 -1       966-2.86776E+05 3.78646E+01-5.63964E+02 1.91437E+04 1.14824E-10-4.27929E-09
 -1       967-2.86856E+05-1.08415E+01-1.15666E+03 2.33566E+04-3.77440E-09 7.80926E-09
 -1       968-2.86704E+05-9.58051E+01-2.26361E+03 1.91510E+04 1.62527E-09 1.07724E-09
 -1       969-2.87773E+05-1.30184E+03-5.02585E+03 2.32723E+04 3.94493E-09 3.59063E-09
 -1       970-2.85839E+05-3.87856E+03-9.78942E+03 1.92300E+04-3.99723E-10 1.94359E-09
 -1       971-2.69485E+05-1.40871E+03-7.81605E+03 1.29207E+04 3.30647E-09 1.16907E-09
 -1       972-2.71384E+05-1.01107E+03-4.25657E+03 1.80375E+04 1.05520E-08-3.12002E-09
 -1       973-2.70354E+05-1.15876E+01-1.90608E+03 1.28130E+04 1.68666E-09 1.68507E-09
 -1       974-2.70486E+05-1.20034E+01-9.87495E+02 1.81542E+04 1.13505E-09 1.24385E-09
 -1       975-2.70422E+05 2.52139E+01-4.92644E+02 1.28031E+04 1.04137E-09 2.47780E-09
 -1       976-2.70433E+05 2.91170E+01-2.82476E+02 1.81663E+04 2.34195E-11-3.55772E-09
 -1       977-2.70435E+05 2.51586E+01-2.01896E+02 1.28008E+04 1.76487E-09-3.79123E-09
 -1       978-2.70436E+05 3.37962E+01-2.32011E+02 1.81696E+04 8.94380E-09 2.69472E-09
 -1       979-2.70435E+05 3.15018E+01-3.69111E+02 1.27998E+04 2.34479E-09 5.92661E-09
 -1       980-2.70463E+05 3.60999E+01-7.10415E+02 1.81702E+04 4.21099E-09 9.27685E-11
 -1       981-2.70412E+05 4.91951E+01-1.37471E+03 1.28002E+04 5.19776E-10 2.56921E-09
 -1       982-2.70652E+05-6.53971E+01-2.84081E+03 1.81647E+04 7.95808E-13 2.08593E-09
 -1       983-2.70240E+05-3.87168E+01-5.51935E+03 1.28055E+04 2.50316E-09-1.81353E-09
 -1       984-2.73306E+05-2.94776E+03-1.23598E+04 1.80916E+04 9.09495E-13 2.53067E-10
 -1       985-2.67741E+05-4.07740E+03-2.26966E+04 1.28778E+04 1.55660E-09 3.29055E-09
 -3
    1PSTEP                        13           7           1          
  100CL  107 5.74219E-01         409                     0    7           1
 -4  DISP        4    1
 -5  D1          1    2    1    0
 -5  D2          1    2    2    0
 -5  D3          1    2    3    0
 -5  ALL         1    2    0    0    1ALL
 -1         1 5.32965E-04 0.00000E+00 0.00000E+00
 -1         2 4.92095E-04-2.10898E-31 0.00000E+00
 -1         3 2.15177E-04-4.42369E-27 0.00000E+00
 -1         5 1.29506E-04-8.54090E-27-3.30872E-24
 -1         8 5.10130E-04-7.45289E-07 0.00000E+00
 -1         9 4.92264E-04-1.89145E-06 0.00000E+00
 -1        10 1.96694E-04-2.81370E-06 6.61744E-24
 -1        12 1.29680E-04 6.44644E-07 0.00000E+00
 -1        15 4.82837E-04-8.26201E-07 2.06795E-25
 -1        16 4.89072E-04-2.33002E-06 0.00000E+00
 -1        17 1.38812E-04-6.08418E-06 0.00000E+00
 -1        18 1.28908E-04 1.10240E-05 0.00000E+00
 -1        19 1.30196E-04 1.27971E-06 0.00000E+00
 -1        20 1.30343E-04 8.45215E-06 0.00000E+00
 -1        21 1.29675E-04 1.36307E-05 0.00000E+00
 -1        24 2.47557E-05-8.58373E-06 0.00000E+00
 -1        25 1.31281E-04 1.11786E-05 0.00000E+00
 -1        26 1.32002E-04 1.77034E-06 0.00000E+00
 -1        27 1.30249E-04 5.55150E-06 0.00000E+00
 -1        28 1.29823E-04 1.30965E-05 0.00000E+00
 -1        32 0.00000E+00 0.00000E+00 0.00000E+00
 -1        33 1.32706E-04 2.37052E-06 0.00000E+00
 -1        34 1.30965E-04 5.52139E-06 0.00000E+00
 -1        35 1.29341E-04 1.28100E-05 0.00000E+00
 -1        51 5.31485E-04-1.27994E-07 0.00000E+00
 -1        52 5.28738E-04-2.47128E-07 0.00000E+00
 -1        53 5.24971E-04-3.66401E-07 0.00000E+00
 -1        54 5.20441E-04-4.87662E-07 0.00000E+00
 -1        55 5.15408E-04-6.12032E-07-2.06795E-24
 -1        56 5.30739E-04-7.27193E-07-5.29396E-23
 -1        57 5.28357E-04-1.28336E-06 0.00000E+00
 -1        58 5.25900E-04-1.62492E-06 5.29396E-23
 -1        59 5.23349E-04-1.75840E-06 0.00000E+00
 -1        60 5.20726E-04-1.70102E-06 5.29396E-23
 -1        61 5.18040E-04-1.48591E-06 2.64698E-23
 -1        62 5.15313E-04-1.16199E-06-5.29396E-23
 -1        63 5.12566E-04-7.84821E-07 0.00000E+00
 -1        64 5.09821E-04-4.15328E-07 0.00000E+00
 -1        65 5.07103E-04-1.14029E-07 0.00000E+00
 -1        66 5.04431E-04 6.57328E-08-5.29396E-23
 -1        67 5.01824E-04 7.77305E-08 2.64698E-23
 -1        68 4.99291E-04-1.07457E-07 0.00000E+00
 -1        69 4.96851E-04-5.03938E-07 0.00000E+00
 -1        70 4.94487E-04-1.11290E-06-5.29396E-23
 -1        86 4.92101E-04-3.11628E-07 0.00000E+00
 -1        87 4.92119E-04-6.23657E-07 0.00000E+00
 -1        88 4.92147E-04-9.35748E-07 0.00000E+00
 -1        89 4.92182E-04-1.25038E-06-6.61744E-24
 -1        90 4.92222E-04-1.56415E-06 0.00000E+00
 -1       121 2.14659E-04-4.62893E-07 0.00000E+00
 -1       122 2.13106E-04-9.26824E-07 0.00000E+00
 -1       123 2.10523E-04-1.39281E-06 0.00000E+00
 -1       124 2.06919E-04-1.86193E-06-6.61744E-24
 -1       125 2.02304E-04-2.33501E-06 0.00000E+00
 -1       191 1.29511E-04 1.07454E-07-3.30872E-24
 -1       192 1.29525E-04 2.14906E-07 0.00000E+00
 -1       193 1.29550E-04 3.22357E-07 0.00000E+00
 -1       194 1.29584E-04 4.29803E-07 1.65436E-24
 -1       195 1.29627E-04 5.37238E-07 0.00000E+00
 -1       251 5.09524E-04-5.40233E-06 0.00000E+00
 -1       252 5.08666E-04-2.83084E-05 6.61744E-24
 -1       253 5.07432E-04-6.48477E-05 0.00000E+00
 -1       254 5.05854E-04-1.10069E-04-6.61744E-24
 -1       255 5.04222E-04-1.56561E-04-1.32349E-23
 -1       256 5.02848E-04-1.96886E-04 0.00000E+00
 -1       257 5.01852E-04-2.25354E-04 1.32349E-23
 -1       258 5.01185E-04-2.36568E-04-6.61744E-24
 -1       259 5.00557E-04-2.29951E-04 0.00000E+00
 -1       260 4.99659E-04-2.05375E-04-6.61744E-24
 -1       261 4.98383E-04-1.67721E-04 0.00000E+00
 -1       262 4.96791E-04-1.22191E-04 0.00000E+00
 -1       263 4.95181E-04-7.62233E-05 1.32349E-23
 -1       264 4.93857E-04-3.72648E-05 6.61744E-24
 -1       265 4.92912E-04-1.07696E-05 0.00000E+00
 -1       266 5.05581E-04-7.69423E-07-3.30872E-24
 -1       267 5.01032E-04-7.81611E-07 8.27181E-25
 -1       268 4.96483E-04-7.94554E-07 8.27181E-25
 -1       269 4.91934E-04-8.05257E-07 0.00000E+00
 -1       270 4.87386E-04-8.15907E-07 0.00000E+00
 -1       271 5.07399E-04 3.02218E-06 0.00000E+00
 -1       272 5.04892E-04 6.08794E-06-1.32349E-23
 -1       273 5.02643E-04 8.47417E-06-2.64698E-23
 -1       274 5.00638E-04 1.01960E-05 0.00000E+00
 -1       275 4.98872E-04 1.12838E-05 0.00000E+00
 -1       276 4.97330E-04 1.17750E-05-1.32349E-23
 -1       277 4.95993E-04 1.17171E-05 0.00000E+00
 -1       278 4.94842E-04 1.11655E-05-1.32349E-23
 -1       279 4.93852E-04 1.01833E-05-2.64698E-23
 -1       280 4.92997E-04 8.84037E-06 0.00000E+00
 -1       281 4.92248E-04 7.21192E-06 0.00000E+00
 -1       282 4.91578E-04 5.37764E-06 1.32349E-23
 -1       283 4.90954E-04 3.42031E-06-2.64698E-23
 -1       284 4.90347E-04 1.42585E-06-1.32349E-23
 -1       285 4.89723E-04-5.22082E-07 0.00000E+00
 -1       301 4.91696E-04-1.98181E-06-6.61744E-24
 -1       302 4.90761E-04-2.04704E-06 0.00000E+00
 -1       303 4.89744E-04-2.11073E-06-6.61744E-24
 -1       304 4.88932E-04-2.17430E-06-6.61744E-24
 -1       305 4.88613E-04-2.23943E-06 0.00000E+00
 -1       306 5.06593E-04-5.28590E-05 5.29396E-23
 -1       307 5.47376E-04-2.00951E-04 2.64698E-23
 -1       308 6.02402E-04-4.21673E-04 0.00000E+00
 -1       309 6.63015E-04-6.83298E-04 0.00000E+00
 -1       310 7.23427E-04-9.43370E-04 0.00000E+00
 -1       311 7.77714E-04-1.15958E-03-2.64698E-23
 -1       312 8.16950E-04-1.30107E-03 0.00000E+00
 -1       313 8.28742E-04-1.34446E-03-2.64698E-23
 -1       314 8.02501E-04-1.28870E-03-1.05879E-22
 -1       315 7.31157E-04-1.14183E-03 2.64698E-23
 -1       316 6.21257E-04-9.29669E-04 0.00000E+00
 -1       317 4.86901E-04-6.81218E-04-2.64698E-23
 -1       318 3.51971E-04-4.31936E-04 5.29396E-23
 -1       319 2.40490E-04-2.17283E-04 0.00000E+00
 -1       320 1.67061E-04-6.65821E-05-5.29396E-23
 -1       336 1.89974E-04-3.33555E-06 1.32349E-23
 -1       337 1.82039E-04-3.86657E-06 0.00000E+00
 -1       338 1.72916E-04-4.40707E-06 1.32349E-23
 -1       339 1.62643E-04-4.95713E-06 0.00000E+00
 -1       340 1.51260E-04-5.51882E-06-1.32349E-23
 -1       406 1.29743E-04 7.51033E-07 0.00000E+00
 -1       407 1.29815E-04 8.57365E-07 1.65436E-24
 -1       408 1.29896E-04 9.63627E-07-3.30872E-24
 -1       409 1.29987E-04 1.06970E-06 0.00000E+00
 -1       410 1.30087E-04 1.17537E-06 0.00000E+00
 -1       521 5.05406E-04-6.23683E-05 0.00000E+00
 -1       522 5.50286E-04-2.33576E-04 0.00000E+00
 -1       523 6.09418E-04-4.88280E-04 1.05879E-22
 -1       524 6.73346E-04-7.89394E-04-5.29396E-23
 -1       525 7.37054E-04-1.08820E-03 0.00000E+00
 -1       526 7.95288E-04-1.33620E-03 0.00000E+00
 -1       527 8.38070E-04-1.49760E-03 0.00000E+00
 -1       528 8.50725E-04-1.54640E-03-5.29396E-23
 -1       529 8.19309E-04-1.48114E-03 0.00000E+00
 -1       530 7.34635E-04-1.31252E-03-5.29396E-23
 -1       531 6.03494E-04-1.06984E-03 1.05879E-22
 -1       532 4.42730E-04-7.86442E-04 5.29396E-23
 -1       533 2.81043E-04-5.01810E-04-1.05879E-22
 -1       534 1.47364E-04-2.55429E-04-1.05879E-22
 -1       535 5.93580E-05-8.10363E-05-1.05879E-22
 -1       536 1.38476E-04 1.37104E-05 6.61744E-24
 -1       537 1.37801E-04 4.70948E-05 0.00000E+00
 -1       538 1.36827E-04 8.89179E-05 3.30872E-24
 -1       539 1.35720E-04 1.33983E-04 0.00000E+00
 -1       540 1.34729E-04 1.76189E-04-3.30872E-24
 -1       541 1.34063E-04 2.09450E-04 0.00000E+00
 -1       542 1.33716E-04 2.30109E-04 3.30872E-24
 -1       543 1.33564E-04 2.34582E-04-1.65436E-24
 -1       544 1.33364E-04 2.23466E-04 0.00000E+00
 -1       545 1.32898E-04 1.97453E-04 1.65436E-24
 -1       546 1.32132E-04 1.61127E-04-3.30872E-24
 -1       547 1.31153E-04 1.19130E-04 0.00000E+00
 -1       548 1.30194E-04 7.76645E-05-3.30872E-24
 -1       549 1.29484E-04 4.29302E-05 1.65436E-24
 -1       550 1.29075E-04 1.92861E-05 1.65436E-24
 -1       551 1.23330E-04-6.44085E-06 0.00000E+00
 -1       552 1.05355E-04-6.83157E-06 0.00000E+00
 -1       553 8.56938E-05-7.25079E-06-9.92617E-24
 -1       554 6.51625E-05-7.68826E-06 0.00000E+00
 -1       555 4.45789E-05-8.12941E-06 0.00000E+00
 -1       556 1.34416E-04 5.24914E-06-2.64698E-23
 -1       557 1.30948E-04 1.42171E-05 0.00000E+00
 -1       558 1.28314E-04 2.10190E-05 0.00000E+00
 -1       559 1.26425E-04 2.58709E-05 0.00000E+00
 -1       560 1.25196E-04 2.89884E-05 0.00000E+00
 -1       561 1.24541E-04 3.05885E-05 0.00000E+00
 -1       562 1.24376E-04 3.08892E-05 0.00000E+00
 -1       563 1.24616E-04 3.01083E-05 0.00000E+00
 -1       564 1.25180E-04 2.84645E-05 1.32349E-23
 -1       565 1.25984E-04 2.61764E-05 3.30872E-24
 -1       566 1.26946E-04 2.34630E-05-3.30872E-24
 -1       567 1.27986E-04 2.05434E-05 0.00000E+00
 -1       568 1.29020E-04 1.76367E-05-1.65436E-24
 -1       569 1.29969E-04 1.49617E-05 0.00000E+00
 -1       570 1.30749E-04 1.27374E-05 0.00000E+00
 -1       571 1.28986E-04 1.03999E-05 8.27181E-25
 -1       572 1.29066E-04 9.72832E-06 4.13590E-25
 -1       573 1.29147E-04 9.01952E-06 1.65436E-24
 -1       574 1.29227E-04 8.28407E-06 1.65436E-24
 -1       575 1.29308E-04 7.53265E-06 0.00000E+00
 -1       576 1.29388E-04 6.77598E-06 0.00000E+00
 -1       577 1.29469E-04 6.02478E-06 0.00000E+00
 -1       578 1.29550E-04 5.28982E-06 0.00000E+00
 -1       579 1.29631E-04 4.58180E-06-3.30872E-24
 -1       580 1.29711E-04 3.91148E-06-1.65436E-24
 -1       581 1.29792E-04 3.28961E-06 0.00000E+00
 -1       582 1.29873E-04 2.72689E-06 0.00000E+00
 -1       583 1.29954E-04 2.23406E-06-6.61744E-24
 -1       584 1.30035E-04 1.82172E-06 0.00000E+00
 -1       585 1.30115E-04 1.50039E-06 0.00000E+00
 -1       586 1.29249E-04 1.10515E-05 0.00000E+00
 -1       587 1.29564E-04 1.10784E-05 2.06795E-25
 -1       588 1.29889E-04 1.11050E-05 0.00000E+00
 -1       589 1.30260E-04 1.11311E-05 0.00000E+00
 -1       590 1.30713E-04 1.11563E-05 0.00000E+00
 -1       591 1.29102E-04 1.04542E-05 0.00000E+00
 -1       592 1.29301E-04 9.85843E-06 2.06795E-25
 -1       593 1.29509E-04 9.24268E-06 0.00000E+00
 -1       594 1.29721E-04 8.61208E-06 0.00000E+00
 -1       595 1.29937E-04 7.97184E-06 0.00000E+00
 -1       596 1.30154E-04 7.32713E-06-4.13590E-25
 -1       597 1.30372E-04 6.68312E-06-4.13590E-25
 -1       598 1.30587E-04 6.04496E-06-2.06795E-25
 -1       599 1.30798E-04 5.41780E-06 4.13590E-25
 -1       600 1.31003E-04 4.80681E-06 0.00000E+00
 -1       601 1.31200E-04 4.21715E-06-4.13590E-25
 -1       602 1.31387E-04 3.65396E-06 1.03398E-25
 -1       603 1.31562E-04 3.12241E-06-4.13590E-25
 -1       604 1.31724E-04 2.62774E-06 1.03398E-25
 -1       605 1.31870E-04 2.17506E-06 8.27181E-25
 -1       606 1.30209E-04 1.23752E-06 0.00000E+00
 -1       607 1.30219E-04 1.28954E-06 0.00000E+00
 -1       608 1.30229E-04 1.43025E-06 0.00000E+00
 -1       609 1.30238E-04 1.65341E-06 0.00000E+00
 -1       610 1.30247E-04 1.95274E-06 3.30872E-24
 -1       611 1.30256E-04 2.32188E-06 1.65436E-24
 -1       612 1.30265E-04 2.75448E-06 0.00000E+00
 -1       613 1.30274E-04 3.24416E-06 0.00000E+00
 -1       614 1.30283E-04 3.78455E-06 0.00000E+00
 -1       615 1.30291E-04 4.36929E-06 8.27181E-25
 -1       616 1.30300E-04 4.99200E-06 0.00000E+00
 -1       617 1.30309E-04 5.64631E-06 0.00000E+00
 -1       618 1.30318E-04 6.32584E-06 8.27181E-25
 -1       619 1.30326E-04 7.02425E-06 0.00000E+00
 -1       620 1.30335E-04 7.73514E-06 0.00000E+00
 -1       621 1.30367E-04 1.36169E-06 1.65436E-24
 -1       622 1.30609E-04 1.44393E-06-8.27181E-25
 -1       623 1.30908E-04 1.52614E-06 0.00000E+00
 -1       624 1.31250E-04 1.60818E-06-8.27181E-25
 -1       625 1.31619E-04 1.69007E-06-1.65436E-24
 -1       626 1.30304E-04 1.26621E-06 0.00000E+00
 -1       627 1.30384E-04 1.32813E-06 0.00000E+00
 -1       628 1.30439E-04 1.45771E-06 3.30872E-24
 -1       629 1.30472E-04 1.64675E-06 0.00000E+00
 -1       630 1.30485E-04 1.88703E-06-3.30872E-24
 -1       631 1.30483E-04 2.17029E-06 0.00000E+00
 -1       632 1.30468E-04 2.48829E-06 3.30872E-24
 -1       633 1.30442E-04 2.83278E-06-1.65436E-24
 -1       634 1.30410E-04 3.19550E-06-3.30872E-24
 -1       635 1.30374E-04 3.56818E-06 0.00000E+00
 -1       636 1.30337E-04 3.94260E-06-3.30872E-24
 -1       637 1.30303E-04 4.31049E-06 0.00000E+00
 -1       638 1.30274E-04 4.66360E-06 1.65436E-24
 -1       639 1.30254E-04 4.99367E-06 1.65436E-24
 -1       640 1.30245E-04 5.29242E-06 0.00000E+00
 -1       656 1.29847E-04 7.98029E-06-6.61744E-24
 -1       657 1.29738E-04 7.48952E-06 0.00000E+00
 -1       658 1.29879E-04 7.00018E-06 0.00000E+00
 -1       659 1.30123E-04 6.51121E-06 0.00000E+00
 -1       660 1.30303E-04 6.02073E-06-6.61744E-24
 -1       661 1.30160E-04 9.13554E-06 8.27181E-25
 -1       662 1.30006E-04 9.75033E-06-8.27181E-25
 -1       663 1.29877E-04 1.02995E-05 0.00000E+00
 -1       664 1.29771E-04 1.07872E-05-8.27181E-25
 -1       665 1.29687E-04 1.12171E-05-1.65436E-24
 -1       666 1.29623E-04 1.15930E-05 0.00000E+00
 -1       667 1.29578E-04 1.19182E-05 0.00000E+00
 -1       668 1.29551E-04 1.21963E-05 0.00000E+00
 -1       669 1.29541E-04 1.24306E-05-1.65436E-24
 -1       670 1.29545E-04 1.26241E-05 0.00000E+00
 -1       671 1.29564E-04 1.27801E-05-1.65436E-24
 -1       672 1.29596E-04 1.29015E-05 8.27181E-25
 -1       673 1.29639E-04 1.29913E-05 0.00000E+00
 -1       674 1.29692E-04 1.30519E-05 0.00000E+00
 -1       675 1.29756E-04 1.30867E-05 4.13590E-25
 -1       676 1.29700E-04 1.35412E-05 0.00000E+00
 -1       677 1.29724E-04 1.34516E-05 0.00000E+00
 -1       678 1.29749E-04 1.33622E-05 0.00000E+00
 -1       679 1.29774E-04 1.32730E-05 0.00000E+00
 -1       680 1.29799E-04 1.31838E-05 1.65436E-24
 -1       771 1.72958E-05 7.44550E-06-5.29396E-23
 -1       772 1.09474E-05 2.05988E-05 0.00000E+00
 -1       773 5.65838E-06 3.10236E-05 0.00000E+00
 -1       774 1.35788E-06 3.88822E-05 0.00000E+00
 -1       775-2.02417E-06 4.43423E-05 0.00000E+00
 -1       776-4.56064E-06 4.75795E-05-5.29396E-23
 -1       777-6.32487E-06 4.87749E-05 5.29396E-23
 -1       778-7.39184E-06 4.81160E-05 2.64698E-23
 -1       779-7.83672E-06 4.57947E-05 0.00000E+00
 -1       780-7.73603E-06 4.20084E-05 2.64698E-23
 -1       781-7.16624E-06 3.69579E-05 0.00000E+00
 -1       782-6.20490E-06 3.08481E-05 0.00000E+00
 -1       783-4.92942E-06 2.38864E-05 0.00000E+00
 -1       784-3.41800E-06 1.62831E-05 0.00000E+00
 -1       785-1.74862E-06 8.24997E-06 0.00000E+00
 -1       786 1.31322E-04 1.03852E-05 1.03398E-25
 -1       787 1.31367E-04 9.63712E-06 0.00000E+00
 -1       788 1.31412E-04 8.92687E-06 0.00000E+00
 -1       789 1.31457E-04 8.24695E-06-8.27181E-25
 -1       790 1.31502E-04 7.59302E-06 0.00000E+00
 -1       791 1.31547E-04 6.96077E-06 8.27181E-25
 -1       792 1.31593E-04 6.34817E-06 1.65436E-24
 -1       793 1.31638E-04 5.75322E-06 8.27181E-25
 -1       794 1.31684E-04 5.17574E-06 1.65436E-24
 -1       795 1.31729E-04 4.61562E-06 0.00000E+00
 -1       796 1.31775E-04 4.07454E-06 0.00000E+00
 -1       797 1.31820E-04 3.55421E-06 0.00000E+00
 -1       798 1.31866E-04 3.05850E-06 1.65436E-24
 -1       799 1.31911E-04 2.59134E-06 0.00000E+00
 -1       800 1.31957E-04 2.15963E-06-1.65436E-24
 -1       801 1.13720E-04 9.70347E-06 0.00000E+00
 -1       802 5.97284E-05 6.93452E-06 0.00000E+00
 -1       803 6.03674E-06 4.18052E-06 0.00000E+00
 -1       804-1.06157E-05 2.66540E-06-1.32349E-23
 -1       805-6.71315E-06 1.34061E-06 0.00000E+00
 -1       806 1.31485E-04 1.03315E-05 0.00000E+00
 -1       807 1.31676E-04 9.51076E-06-8.27181E-25
 -1       808 1.31855E-04 8.72020E-06-1.65436E-24
 -1       809 1.32021E-04 7.96245E-06-8.27181E-25
 -1       810 1.32174E-04 7.24020E-06 0.00000E+00
 -1       811 1.32313E-04 6.55600E-06-8.27181E-25
 -1       812 1.32436E-04 5.91245E-06 1.65436E-24
 -1       813 1.32543E-04 5.31212E-06 1.65436E-24
 -1       814 1.32633E-04 4.75754E-06 3.30872E-24
 -1       815 1.32705E-04 4.25127E-06-1.65436E-24
 -1       816 1.32758E-04 3.79587E-06 0.00000E+00
 -1       817 1.32791E-04 3.39388E-06-8.27181E-25
 -1       818 1.32803E-04 3.04782E-06 0.00000E+00
 -1       819 1.32793E-04 2.76024E-06 8.27181E-25
 -1       820 1.32761E-04 2.53365E-06 0.00000E+00
 -1       821 1.31899E-04 1.33980E-06-8.27181E-25
 -1       822 1.31789E-04 7.85999E-07 8.27181E-25
 -1       823 1.31679E-04 2.02474E-07-3.30872E-24
 -1       824 1.31569E-04-3.17077E-07 0.00000E+00
 -1       825 1.31458E-04-6.93496E-07-3.30872E-24
 -1       826 1.31348E-04-8.48322E-07 0.00000E+00
 -1       827 1.31237E-04-7.53214E-07-3.30872E-24
 -1       828 1.31126E-04-3.81073E-07-1.65436E-24
 -1       829 1.31015E-04 2.32541E-07 3.30872E-24
 -1       830 1.30904E-04 1.05087E-06 0.00000E+00
 -1       831 1.30793E-04 1.99089E-06 0.00000E+00
 -1       832 1.30682E-04 2.96891E-06 0.00000E+00
 -1       833 1.30571E-04 3.89268E-06-3.30872E-24
 -1       834 1.30461E-04 4.67020E-06 8.27181E-25
 -1       835 1.30352E-04 5.24247E-06 8.27181E-25
 -1       836 1.32288E-04 1.87019E-06-3.30872E-24
 -1       837 1.32466E-04 1.97233E-06 0.00000E+00
 -1       838 1.32565E-04 2.07431E-06 0.00000E+00
 -1       839 1.32618E-04 2.17565E-06 0.00000E+00
 -1       840 1.32655E-04 2.27682E-06 0.00000E+00
 -1       856 1.30226E-04 5.79156E-06 4.13590E-25
 -1       857 1.30199E-04 6.14933E-06-1.03398E-25
 -1       858 1.30173E-04 6.60637E-06 4.13590E-25
 -1       859 1.30147E-04 7.14415E-06 0.00000E+00
 -1       860 1.30120E-04 7.74407E-06-8.27181E-25
 -1       861 1.30093E-04 8.38743E-06 4.13590E-25
 -1       862 1.30066E-04 9.05555E-06 8.27181E-25
 -1       863 1.30039E-04 9.72968E-06-4.13590E-25
 -1       864 1.30012E-04 1.03910E-05-8.27181E-25
 -1       865 1.29985E-04 1.10209E-05-4.13590E-25
 -1       866 1.29959E-04 1.16007E-05-8.27181E-25
 -1       867 1.29932E-04 1.21116E-05-4.13590E-25
 -1       868 1.29905E-04 1.25350E-05 8.27181E-25
 -1       869 1.29878E-04 1.28526E-05 4.13590E-25
 -1       870 1.29851E-04 1.30458E-05 8.27181E-25
 -1       871 1.30244E-04 5.54994E-06 4.13590E-25
 -1       872 1.30360E-04 5.54580E-06 0.00000E+00
 -1       873 1.30545E-04 5.54118E-06 0.00000E+00
 -1       874 1.30743E-04 5.53596E-06 0.00000E+00
 -1       875 1.30901E-04 5.53020E-06-4.13590E-25
 -1       876 1.30266E-04 5.80283E-06 0.00000E+00
 -1       877 1.30264E-04 6.11148E-06 0.00000E+00
 -1       878 1.30243E-04 6.47053E-06 3.30872E-24
 -1       879 1.30206E-04 6.87358E-06 0.00000E+00
 -1       880 1.30155E-04 7.31420E-06 0.00000E+00
 -1       881 1.30092E-04 7.78596E-06 1.65436E-24
 -1       882 1.30020E-04 8.28249E-06 0.00000E+00
 -1       883 1.29942E-04 8.79740E-06 0.00000E+00
 -1       884 1.29858E-04 9.32430E-06-3.30872E-24
 -1       885 1.29773E-04 9.85682E-06 1.65436E-24
 -1       886 1.29688E-04 1.03886E-05 0.00000E+00
 -1       887 1.29605E-04 1.09132E-05 1.65436E-24
 -1       888 1.29527E-04 1.14243E-05 0.00000E+00
 -1       889 1.29456E-04 1.19153E-05 0.00000E+00
 -1       890 1.29395E-04 1.23799E-05 0.00000E+00
 -1       891 1.29869E-04 1.30485E-05 0.00000E+00
 -1       892 1.29895E-04 1.30004E-05-8.27181E-25
 -1       893 1.29878E-04 1.29523E-05-1.65436E-24
 -1       894 1.29795E-04 1.29043E-05 0.00000E+00
 -1       895 1.29623E-04 1.28565E-05 4.13590E-25
 -1       956 1.32599E-04 2.33971E-06-1.65436E-24
 -1       957 1.32491E-04 2.37694E-06 0.00000E+00
 -1       958 1.32382E-04 2.47452E-06 0.00000E+00
 -1       959 1.32273E-04 2.62433E-06-8.27181E-25
 -1       960 1.32164E-04 2.81824E-06 3.30872E-24
 -1       961 1.32054E-04 3.04807E-06-1.65436E-24
 -1       962 1.31945E-04 3.30564E-06-3.30872E-24
 -1       963 1.31836E-04 3.58275E-06 0.00000E+00
 -1       964 1.31727E-04 3.87123E-06-3.30872E-24
 -1       965 1.31617E-04 4.16288E-06 0.00000E+00
 -1       966 1.31508E-04 4.44951E-06 3.30872E-24
 -1       967 1.31399E-04 4.72293E-06-1.65436E-24
 -1       968 1.31290E-04 4.97495E-06 3.30872E-24
 -1       969 1.31181E-04 5.19741E-06 0.00000E+00
 -1       970 1.31072E-04 5.38217E-06 3.30872E-24
 -1       971 1.30865E-04 5.67478E-06-1.65436E-24
 -1       972 1.30763E-04 5.91429E-06-8.27181E-25
 -1       973 1.30661E-04 6.23043E-06 0.00000E+00
 -1       974 1.30559E-04 6.61332E-06 0.00000E+00
 -1       975 1.30457E-04 7.05310E-06 3.30872E-24
 -1       976 1.30355E-04 7.53986E-06 0.00000E+00
 -1       977 1.30253E-04 8.06371E-06-3.30872E-24
 -1       978 1.30151E-04 8.61471E-06 0.00000E+00
 -1       979 1.30049E-04 9.18294E-06 3.30872E-24
 -1       980 1.29946E-04 9.75849E-06-1.65436E-24
 -1       981 1.29844E-04 1.03314E-05 3.30872E-24
 -1       982 1.29742E-04 1.08918E-05-1.65436E-24
 -1       983 1.29640E-04 1.14298E-05 0.00000E+00
 -1       984 1.29539E-04 1.19354E-05 0.00000E+00
 -1       985 1.29438E-04 1.23987E-05-1.65436E-24
 -3
    1PSTEP                        14           7           1          
  100CL  107 5.74219E-01         409                     0    7           1
 -4  STRESS      6    1
 -5  SXX         1    4    1    1
 -5  SYY         1    4    2    2
 -5  SZZ         1    4    3    3
 -5  SXY         1    4    1    2
 -5  SYZ         1    4    2    3
 -5  SZX         1    4    3    1
 -1         1-2.94130E+06-1.18348E+06-6.35034E+05-1.37274E+06-4.51109E-10-1.68948E-08
 -1         2 1.99789E+03-8.88693E+05 6.44979E+03 4.49286E+01 1.72292E-10 6.33598E-08
 -1         3-4.84069E+02-1.31963E+06 3.16810E+02-1.07913E+03-3.51488E-10 3.75985E-08
 -1         5-1.38366E+00 3.07457E+05 1.63913E+01 7.24483E-01-7.22622E-11 2.21373E-08
 -1         8-1.03730E+06-3.59082E+05-1.11394E+05-5.12758E+05 5.27507E-11 7.98536E-09
 -1         9-5.27378E+05-8.22117E+05-6.55808E+01-7.79361E+05 1.61177E-08-5.56465E-09
 -1        10-1.33731E+03-1.37489E+06-2.33398E+03-7.29926E+03-7.64430E-09 8.38156E-09
 -1        12 5.09656E+00 3.05936E+05 2.53409E+02-7.22682E-02 9.09495E-13-9.78060E-10
 -1        15 1.76437E+03 9.69623E+02 5.70330E+03 3.47064E+00-4.12683E-11 2.24809E-08
 -1        16 1.17026E+06-9.40755E+05 1.44899E+05-1.20796E+06 1.35333E-08 1.38922E-08
 -1        17-7.77646E+03 8.65401E+04 8.21417E+04 2.05047E+05-6.81030E-10 2.60945E-08
 -1        18 2.15005E+03-4.06389E+03-2.37004E+04-8.51820E+04 8.74240E-09-4.36921E-09
 -1        19 9.81320E+04 1.12700E+05-8.13548E+02 1.91880E+04 8.51287E-11 2.50220E-09
 -1        20-5.26919E+04-4.64249E+05-1.03226E+05 2.79903E+04 1.50627E-09-2.32527E-09
 -1        21-4.13134E+01-2.56389E+05-8.15869E+02 4.37213E+00-1.73237E-09-1.79677E-08
 -1        24-5.37589E+05 8.12669E+05 2.61481E+05 4.77417E+05-7.08145E-08-3.15486E-08
 -1        25-1.02642E+05-5.77653E+05-1.15807E+05-1.83397E+05-7.04313E-10 9.21937E-09
 -1        26-3.81629E+04 7.32260E+04-1.90188E+04-3.93002E+03 1.31731E-09-5.89446E-09
 -1        27-6.71353E+04-2.52463E+05-9.37207E+04 5.69731E+04 5.43529E-09 1.11625E-09
 -1        28 1.96579E+04-7.21832E+04 1.45631E+04 2.05321E+04 4.11376E-10-2.55795E-10
 -1        32-1.39722E+06-2.21019E+06-6.28057E+04-3.83398E+05-2.87127E-08-7.67565E-09
 -1        33-1.47955E+05 7.30918E+04 2.60760E+04-3.43302E+04-1.70587E-10 2.39985E-09
 -1        34-1.86207E+05-1.91996E+04 5.03139E+02 5.94969E+04 1.02013E-09-1.51807E-08
 -1        35-2.00594E+04-2.86688E+04-1.13226E+03 4.46597E+04 2.59567E-09 1.36909E-09
 -1        51 3.00830E+04-3.03827E+05 6.90657E+04-8.67111E+05 1.45519E-10-6.73317E-08
 -1        52 1.34046E+04-2.96027E+05 4.03442E+04-1.01118E+06 4.94765E-10 2.91038E-09
 -1        53 6.56304E+03-3.10766E+05 2.74947E+04-8.64029E+05 4.65661E-10-7.14499E-09
 -1        54 1.74143E+04-3.08562E+05 3.56937E+04-1.01437E+06 5.16593E-10-5.38676E-08
 -1        55 3.48970E+04-3.21027E+05 5.86819E+04-8.63554E+05 5.45697E-10-2.59388E-08
 -1        56-5.59815E+06-6.26502E+05-4.68334E+05-2.17042E+06-5.50062E-09-8.70205E-09
 -1        57-5.82665E+06-1.01170E+06-3.16000E+05-2.10657E+06-4.86943E-09 3.95376E-08
 -1        58-5.68730E+06-7.80366E+05-1.10092E+05-2.14662E+06 3.22143E-09-3.37895E-08
 -1        59-5.72479E+06-8.29682E+05-6.57268E+04-2.13311E+06-7.13044E-09-1.22864E-08
 -1        60-5.69857E+06-8.03562E+05-2.56597E+04-2.14542E+06-3.82806E-09 2.81962E-08
 -1        61-5.71244E+06-8.01779E+05-1.45594E+04-2.13362E+06 1.49885E-09 4.60273E-09
 -1        62-5.69936E+06-8.07605E+05-6.92150E+03-2.14627E+06 5.50347E-09-7.83991E-08
 -1        63-5.71146E+06-7.97681E+05-5.60940E+03-2.13289E+06-5.76720E-09-3.59643E-08
 -1        64-5.69950E+06-8.07582E+05-6.21994E+03-2.14616E+06-4.75893E-10 1.26779E-08
 -1        65-5.71171E+06-8.01461E+05-1.24739E+04-2.13405E+06-5.70492E-09 1.35642E-08
 -1        66-5.69914E+06-8.03890E+05-2.17332E+04-2.14510E+06-4.72937E-09 1.08948E-08
 -1        67-5.72144E+06-8.25647E+05-5.54858E+04-2.13438E+06-2.46018E-10-2.83608E-08
 -1        68-5.69001E+06-7.83958E+05-9.28979E+04-2.14570E+06-9.02219E-10-3.07591E-08
 -1        69-5.80666E+06-9.79901E+05-2.66576E+05-2.11280E+06-9.02219E-10 2.79833E-08
 -1        70-5.61519E+06-6.53838E+05-3.95207E+05-2.16539E+06-1.17143E-09 4.26517E-08
 -1        86-9.96471E+02-8.90419E+05 6.98541E+03-2.24649E+01 2.27374E-12-8.71551E-09
 -1        87 6.63878E+03-8.86449E+05 1.44782E+04 8.22811E+01-7.27596E-12 1.46666E-08
 -1        88-5.62267E+03-8.92657E+05 2.22768E+04-5.98197E+01 4.36557E-11-2.95650E-08
 -1        89 4.19307E+04-8.70071E+05 5.99580E+04 1.36531E+02-9.73159E-11-2.21552E-08
 -1        90-3.61689E+04-9.06756E+05 8.48492E+04-7.67205E+01-1.81899E-11-2.33272E-08
 -1       121-6.86005E+02-1.32136E+06 3.42451E+01 5.37704E+02 8.49099E-10-1.75351E-09
 -1       122-3.65761E+02-1.31960E+06 6.58679E+02-2.15586E+03-3.13253E-09 8.98763E-09
 -1       123-7.41098E+02-1.32145E+06 7.84392E+02 1.60708E+03 2.45268E-09-7.53789E-09
 -1       124 9.12659E+02-1.31897E+06 2.68501E+03-4.56398E+03-6.01040E-09 4.55111E-09
 -1       125-1.50396E+03-1.32216E+06 3.80922E+03 2.93807E+03 3.85808E-09 3.28946E-08
 -1       191-1.55191E+00 3.07484E+05 2.00967E+01-3.62131E-01 3.27809E-11 2.19711E-09
 -1       192 6.87926E-01 3.07459E+05 3.55735E+01 3.54983E+00 3.47988E-11-7.12339E-09
 -1       193 5.37247E+00 3.07482E+05 6.73650E+01-3.18746E+00 7.86713E-11-1.23896E-08
 -1       194 3.41078E+01 3.07473E+05 1.43593E+02 2.86806E+01 6.67058E-11 3.88354E-09
 -1       195 1.03979E+02 3.07469E+05 2.87502E+02-2.55036E+01 1.98497E-10 4.58522E-09
 -1       251-1.83482E+06 9.55361E+03-1.11703E+05 5.11855E+04-1.39516E-09-3.42698E-09
 -1       252-1.52056E+06-1.22516E+04-1.23998E+04-2.00139E+05-1.41654E-09-4.61623E-08
 -1       253-1.71462E+06-1.83359E+03-2.58858E+04 1.49014E+05 3.65162E-09 9.24229E-09
 -1       254-1.67412E+06 1.42295E+04-4.43775E+03-3.05838E+05-1.90187E-09 7.87338E-09
 -1       255-1.69740E+06-3.63192E+03-7.00147E+03 1.57577E+05-1.73723E-08 3.39044E-08
 -1       256-1.54835E+06 1.47799E+04 2.73206E+04-2.31383E+05-2.16278E-09 1.74646E-09
 -1       257-1.82818E+06-1.23502E+04-3.16171E+04 7.39704E+04-1.19671E-08 3.71405E-08
 -1       258-1.38936E+06 1.15961E+04 5.87778E+04-1.48402E+04-3.00633E-08 3.28333E-08
 -1       259-1.84076E+06-1.32061E+04-3.32277E+04-5.86834E+04 4.05271E-09 3.56380E-10
 -1       260-1.52049E+06 1.50701E+04 3.55128E+04 2.11389E+05-2.03058E-08-4.22331E-08
 -1       261-1.70999E+06-5.25171E+03-3.88547E+03-1.51766E+05-3.49282E-08 4.83385E-09
 -1       262-1.67187E+06 2.09185E+04 9.61361E+03 3.06739E+05-2.50407E-09 5.36925E-08
 -1       263-1.70438E+06-6.78065E+03-1.07075E+02-1.54699E+05-6.78847E-09 2.19275E-08
 -1       264-1.52712E+06 3.22012E+04 4.50994E+04 2.22182E+05-6.77737E-08 2.42217E-08
 -1       265-1.84110E+06-2.76254E+04-2.06007E+04-6.65787E+04-2.21371E-08 2.86273E-08
 -1       266-3.19402E+04-1.49337E+04 7.49480E+04-7.42672E+01 1.20053E-10 1.20020E-08
 -1       267 3.70282E+04 1.74079E+04 5.29685E+04 8.56817E+01 2.76486E-10 2.99073E-08
 -1       268-4.96538E+03-2.46532E+03 1.96884E+04-1.09178E+01 1.87356E-10 3.72402E-08
 -1       269 5.86270E+03 2.95060E+03 1.27969E+04 1.27171E+01 1.18007E-10 1.71284E-08
 -1       270-8.79996E+02-4.84800E+02 6.17726E+03-1.72582E+00 4.59295E-11 4.54609E-08
 -1       271-2.92713E+06-3.63419E+05-2.19965E+05-1.13592E+06 1.22236E-09-2.03727E-08
 -1       272-3.02092E+06-5.09818E+05-1.41541E+05-1.11777E+06-1.61961E-08-1.94268E-09
 -1       273-2.96870E+06-4.18236E+05-5.19508E+04-1.12590E+06 3.11661E-09 5.44969E-09
 -1       274-2.97154E+06-4.43222E+05-2.90952E+04-1.13330E+06 3.52884E-09 1.60994E-08
 -1       275-2.97542E+06-4.22968E+05-1.21109E+04-1.12303E+06 3.73620E-09 1.58361E-08
 -1       276-2.96261E+06-4.38550E+05-6.39274E+03-1.13841E+06-4.27326E-09 3.26697E-08
 -1       277-2.97765E+06-4.22098E+05-3.15386E+03-1.12115E+06-4.27735E-09 4.11710E-08
 -1       278-2.95927E+06-4.40497E+05-2.19051E+03-1.14186E+06 1.16033E-08 9.39656E-09
 -1       279-2.97893E+06-4.20841E+05-2.31195E+03-1.11974E+06-1.04224E-08-4.22472E-09
 -1       280-2.95771E+06-4.42998E+05-4.11690E+03-1.14429E+06 4.37694E-09 2.79851E-08
 -1       281-2.97939E+06-4.19522E+05-7.46913E+03-1.11884E+06-5.31145E-10 6.40284E-09
 -1       282-2.96008E+06-4.49107E+05-1.78883E+04-1.14505E+06 5.24597E-09 6.62931E-09
 -1       283-2.97677E+06-4.15096E+05-3.17896E+04-1.11891E+06 5.79803E-10-2.82707E-08
 -1       284-2.98775E+06-4.92561E+05-8.67463E+04-1.13860E+06-1.50508E-08-2.12167E-08
 -1       285-2.95248E+06-3.80360E+05-1.34741E+05-1.12375E+06 9.21682E-09-2.56478E-08
 -1       301 2.31870E+04-1.82030E+05 1.72476E+05-3.46477E+05 2.11003E-10 3.53684E-08
 -1       302 2.46376E+04-1.38746E+05 1.10418E+05-5.07314E+05-1.02773E-10-2.85156E-08
 -1       303 1.04251E+03-1.64912E+05 7.95357E+04-3.45821E+05-2.14641E-10-1.37952E-08
 -1       304 2.37323E+04-1.37374E+05 1.09862E+05-5.06826E+05 5.52973E-10 4.24116E-08
 -1       305 2.15911E+04-1.79970E+05 1.71017E+05-3.47032E+05-1.52795E-10-9.05857E-09
 -1       306-9.95286E+06-1.29558E+06-1.64830E+06-2.03689E+06-2.35741E-08-1.65310E-08
 -1       307 1.78684E+05-1.88272E+06 6.17700E+05-4.78542E+06-2.96524E-07 1.86410E-08
 -1       308-7.60172E+06 2.26212E+05-2.12814E+05-2.61641E+04-1.74623E-08 6.62585E-08
 -1       309-3.74036E+06-2.09371E+06 1.73337E+05-7.44148E+06 1.66888E-07 1.70157E-08
 -1       310-7.68492E+06 1.97701E+05-1.47971E+05-6.85837E+04 1.17725E-08-1.35788E-08
 -1       311 3.84094E+05-1.88887E+06 8.91657E+05-4.58404E+06 2.63331E-07-1.97688E-08
 -1       312-9.97914E+06-1.33359E+06-1.13308E+06-2.14188E+06 6.22531E-08 7.73798E-08
 -1       313 2.16794E+06 5.17328E+05 1.55410E+06 7.64769E+05-7.27596E-09 1.45446E-08
 -1       314-8.22808E+06-3.06808E+06-1.12936E+06-4.07236E+06 1.23138E-07 2.53785E-08
 -1       315-5.24382E+06 3.69573E+06 8.82796E+05 1.61382E+06-9.69158E-08-2.79178E-08
 -1       316-4.21801E+06-3.24653E+06-1.46811E+05-3.90731E+06-3.16941E-07-2.05568E-07
 -1       317-1.04088E+07 4.56485E+06 1.61397E+05-1.39382E+04 2.47079E-07-2.19341E-07
 -1       318-4.15129E+06-3.23718E+06-2.37770E+05-3.89307E+06-2.59752E-07 2.16023E-08
 -1       319-5.46262E+06 3.74205E+06 5.67674E+05 1.56119E+06-4.42087E-08 5.41331E-08
 -1       320-8.12456E+06-3.09072E+06-1.73689E+06-4.08407E+06 7.47386E-08-1.78625E-08
 -1       336 4.70374E+02-1.43043E+06-9.08251E+03 4.32965E+03-1.54469E-08 2.24099E-09
 -1       337-3.42082E+03-1.43169E+06-1.08673E+04-1.05397E+04-2.89028E-08-1.64437E-09
 -1       338 5.48327E+02-1.43041E+06-1.54192E+04 6.15720E+03-2.06119E-08-5.05679E-10
 -1       339-1.62389E+04-1.44010E+06-3.44190E+04-1.41063E+04-3.67086E-08 4.14730E-09
 -1       340 1.08430E+04-1.42266E+06-5.37020E+04 7.85428E+03-2.38360E-08 2.25700E-08
 -1       406-8.96570E+01 3.04407E+05 3.30175E+02 2.55582E+01-1.82581E-10 6.55996E-09
 -1       407 1.35199E+02 3.04471E+05 9.68926E+02-2.63764E+01-5.97709E-11-8.90395E-10
 -1       408 5.32501E+02 3.04321E+05 2.05989E+03 7.53510E-01-3.08546E-10-3.70574E-09
 -1       409 2.26344E+03 3.05152E+05 4.69909E+03 2.30126E+01-1.75987E-10-5.07953E-09
 -1       410 6.50835E+03 3.03724E+05 9.62105E+03-2.50015E+01-4.58613E-10-5.44082E-09
 -1       521-1.21714E+07-1.76271E+06-2.23650E+06-2.28169E+06-2.68919E-08 2.29338E-08
 -1       522 6.54877E+05-2.20497E+06 7.61995E+05-6.29503E+06-2.50919E-07-4.62605E-08
 -1       523-9.18253E+06 2.39595E+05-2.71904E+05 2.05315E+05 9.76434E-09-1.25714E-07
 -1       524-4.88755E+06-2.07257E+06 2.42175E+05-9.71662E+06 4.26387E-07-2.69716E-07
 -1       525-9.31902E+06 1.87742E+05-1.98654E+05 1.39804E+05 2.31143E-07-1.61639E-07
 -1       526 1.04235E+06-2.22744E+06 1.14051E+06-5.95350E+06 9.76142E-08-1.08666E-08
 -1       527-1.22198E+07-1.84137E+06-1.55937E+06-2.44977E+06-5.20959E-08 5.80330E-08
 -1       528 3.62585E+06 7.20130E+05 1.95920E+06 1.35560E+06-8.03266E-08 3.65399E-08
 -1       529-9.94335E+06-4.08890E+06-1.55065E+06-4.92892E+06 9.66829E-08-4.11528E-08
 -1       530-6.44826E+06 5.19297E+06 1.13157E+06 2.19397E+06-9.90258E-08 1.65193E-07
 -1       531-4.87021E+06-4.22779E+06-1.86605E+05-4.73799E+06-3.37779E-07 2.25264E-08
 -1       532-1.32885E+07 6.33147E+06 2.48620E+05-4.36682E+05 1.92285E-07-2.77558E-07
 -1       533-4.76448E+06-4.21489E+06-2.69720E+05-4.71312E+06-6.82485E-09-4.21860E-07
 -1       534-6.79122E+06 5.34644E+06 8.04750E+05 2.07016E+06-1.00335E-07 3.04251E-07
 -1       535-9.80672E+06-4.18767E+06-2.19757E+06-4.94075E+06-8.14907E-10 1.89862E-07
 -1       536-4.74074E+05-2.91319E+04 2.31597E+04-2.47787E+04-4.83897E-09 3.98868E-08
 -1       537-2.75108E+05 3.09021E+04 4.94637E+04 6.09450E+04-6.61722E-08 5.47911E-08
 -1       538-3.78034E+05-1.28040E+03 1.08570E+04-3.75398E+04 1.56181E-08 5.96588E-08
 -1       539-3.39670E+05 3.32426E+03 1.32697E+04 6.97466E+04 8.71845E-08 6.07986E-08
 -1       540-4.10932E+05-4.19238E+02-4.26370E+03-3.36554E+04-1.44521E-08 5.38233E-08
 -1       541-2.13395E+05 5.48412E+03 3.37312E+04 4.40665E+04-2.52057E-08 3.82345E-08
 -1       542-5.00925E+05-6.21187E+03-2.50029E+04-1.17237E+04 2.34404E-08 1.75129E-08
 -1       543-1.41355E+05 8.15255E+03 4.69000E+04-8.36283E+03-1.45058E-08-1.53569E-08
 -1       544-4.81062E+05-4.64689E+03-2.19935E+04 1.86596E+04-1.59914E-08-1.80366E-08
 -1       545-2.58482E+05 2.06896E+03 2.14955E+04-5.56716E+04 1.08139E-09-3.37509E-08
 -1       546-3.86893E+05 2.39687E+03-4.94008E+03 3.55415E+04 2.91880E-09-3.60473E-08
 -1       547-3.49287E+05-4.01947E+03-1.96970E+03-7.17172E+04-5.37641E-08-4.66179E-08
 -1       548-3.92637E+05 3.38679E+03-1.48935E+04 3.48122E+04-5.39535E-08-5.74996E-08
 -1       549-2.50566E+05-9.86009E+03-2.12123E+03-5.23899E+04-4.16172E-08-4.46639E-08
 -1       550-4.82864E+05 5.97909E+03-6.80341E+04 1.60967E+04 2.46291E-09-1.03028E-08
 -1       551 2.46686E+04-6.71211E+05 2.06631E+04-1.06810E+06-6.34027E-08-6.25732E-10
 -1       552 5.48171E+04-6.90345E+05 3.03563E+04-1.52211E+06-4.42815E-08 1.09139E-08
 -1       553 3.99076E+04-6.94756E+05 4.56727E+04-1.06367E+06-7.51388E-08 1.28493E-08
 -1       554 8.44191E+04-6.91478E+05 9.69228E+04-1.52380E+06-4.78904E-08 1.77397E-08
 -1       555 6.89562E+04-7.14723E+05 1.72156E+05-1.06439E+06-7.64267E-08-6.18456E-09
 -1       556 1.36246E+05-2.46732E+05 6.30297E+04-2.96909E+05-1.28639E-08-8.44011E-09
 -1       557 2.31436E+05-3.23350E+05 3.38600E+04-3.76203E+05-3.20142E-09 8.97762E-09
 -1       558 1.30816E+05-2.52116E+05 1.25247E+04-2.91904E+05-8.41101E-09 1.60871E-08
 -1       559 2.15007E+05-3.30671E+05 6.72011E+03-3.85764E+05 1.13214E-08-2.56114E-09
 -1       560 1.24447E+05-2.48045E+05 2.10297E+03-2.96272E+05 4.58385E-09 4.70754E-09
 -1       561 2.06441E+05-3.27657E+05 1.38329E+03-3.91376E+05-1.07684E-09 1.71894E-10
 -1       562 1.19437E+05-2.44849E+05 1.80981E+02-2.99866E+05 7.27596E-10-6.74845E-10
 -1       563 2.00559E+05-3.25097E+05 3.37941E+02-3.95167E+05-1.14487E-08-4.58431E-09
 -1       564 1.16074E+05-2.42730E+05 4.68798E+00-3.02240E+05-4.21278E-09 6.04359E-10
 -1       565 1.97036E+05-3.23567E+05 1.30523E+02-3.97402E+05 5.13683E-09 2.00998E-10
 -1       566 1.14422E+05-2.41674E+05-6.36872E-01-3.03401E+05-3.77986E-09-7.33235E-09
 -1       567 1.95842E+05-3.23035E+05-8.40910E+01-3.98063E+05 1.06784E-08 4.31100E-09
 -1       568 1.14532E+05-2.41758E+05-4.22573E+02-3.03416E+05-2.13549E-09 1.69894E-09
 -1       569 1.96033E+05-3.22964E+05-1.05257E+03-3.96300E+05-8.73115E-10 1.25074E-08
 -1       570 1.17175E+05-2.43961E+05-2.47633E+03-3.02928E+05 6.97037E-09 1.10722E-08
 -1       571 2.30803E+05 8.48709E+03 1.24554E+04-6.16999E+04-4.05180E-10 4.84624E-09
 -1       572 2.32645E+05 3.01542E+03 6.10277E+03-6.76788E+04-1.24601E-09 5.53018E-09
 -1       573 2.31542E+05 7.81559E+02 2.71138E+03-6.15657E+04 3.00861E-09 1.20190E-09
 -1       574 2.31752E+05 3.20884E+02 1.35887E+03-6.78356E+04 1.11709E-09 4.05453E-09
 -1       575 2.31625E+05 1.15948E+02 6.40950E+02-6.15478E+04-1.45076E-09 4.97494E-09
 -1       576 2.31634E+05 1.00870E+02 3.27252E+02-6.78565E+04-2.29977E-09-8.33052E-09
 -1       577 2.31645E+05 7.58713E+01 1.62775E+02-6.15454E+04-1.64482E-09-2.69210E-09
 -1       578 2.31634E+05 8.33469E+01 9.21769E+01-6.78592E+04-1.54250E-09-4.63433E-09
 -1       579 2.31672E+05 6.50038E+01 6.19554E+01-6.15453E+04 1.05047E-09-6.15091E-09
 -1       580 2.31672E+05 6.63955E+01 6.79259E+01-6.78556E+04-3.86035E-09-1.08380E-08
 -1       581 2.31715E+05 4.63511E+01 1.02054E+02-6.15491E+04 2.24281E-09-1.19117E-08
 -1       582 2.31748E+05 6.74363E+01 2.03293E+02-6.78164E+04 3.65253E-09-5.85305E-09
 -1       583 2.31764E+05 1.08186E+02 3.93564E+02-6.15845E+04 7.91260E-10-6.32031E-09
 -1       584 2.31954E+05 4.22186E+02 8.85934E+02-6.75185E+04 4.86580E-10-2.16858E-09
 -1       585 2.31725E+05 1.19681E+03 1.79961E+03-6.18473E+04-1.49157E-10 1.56797E-09
 -1       586-2.92536E+03 7.69996E+04-3.44839E+03-2.06238E+05-1.04956E-09 6.78403E-09
 -1       587-7.61949E+02 7.65885E+04-3.19262E+01-2.27011E+05-1.31331E-09-9.90121E-09
 -1       588 7.17286E+02 7.66139E+04 3.31524E+03-2.06142E+05-1.02591E-09 1.16415E-10
 -1       589 4.34160E+03 7.84084E+04 9.16840E+03-2.26770E+05-3.17596E-09 1.34060E-09
 -1       590 1.29959E+04 7.55988E+04 1.94556E+04-2.06497E+05-1.79170E-09 5.45697E-10
 -1       591-4.76479E+04-1.20763E+04-1.62551E+04-2.25712E+04-3.68027E-09 2.28010E-09
 -1       592-4.99570E+04-1.52837E+04-8.80478E+03-2.59158E+04 2.96168E-09-1.37543E-08
 -1       593-4.92796E+04-1.08906E+04-3.66523E+03-2.37571E+04-4.72022E-09 2.36128E-09
 -1       594-4.77039E+04-1.29080E+04-1.82803E+03-2.60123E+04-8.66021E-09 1.14990E-08
 -1       595-4.94043E+04-1.08861E+04-8.39678E+02-2.38112E+04-7.53920E-09 1.45611E-08
 -1       596-4.75503E+04-1.27993E+04-4.27443E+02-2.59949E+04 3.52468E-09 6.63351E-09
 -1       597-4.94199E+04-1.08969E+04-2.33988E+02-2.38132E+04 1.11240E-09-1.06339E-08
 -1       598-4.75353E+04-1.27951E+04-1.90362E+02-2.59900E+04-2.78396E-09-3.40623E-09
 -1       599-4.94188E+04-1.08972E+04-2.45985E+02-2.38129E+04-9.46898E-10-1.14633E-08
 -1       600-4.75510E+04-1.28003E+04-4.59213E+02-2.59938E+04 2.73030E-09-1.52636E-09
 -1       601-4.93998E+04-1.08863E+04-9.07093E+02-2.38099E+04-2.50566E-10-5.01734E-09
 -1       602-4.77168E+04-1.29174E+04-1.97752E+03-2.60100E+04-3.18641E-09-2.51669E-09
 -1       603-4.92629E+04-1.08933E+04-3.96607E+03-2.37518E+04-3.62888E-10-5.12546E-09
 -1       604-5.01671E+04-1.54744E+04-9.52722E+03-2.58879E+04-4.61569E-11-7.25936E-09
 -1       605-4.74825E+04-1.21889E+04-1.75889E+04-2.24822E+04-1.70701E-10-1.36242E-09
 -1       606 2.74436E+04-1.10790E+04-1.99098E+04 2.63422E+04 5.48425E-10 9.92077E-09
 -1       607 2.40370E+04-3.59306E+03-9.91422E+03 2.95781E+04-8.84938E-10-1.07434E-09
 -1       608 2.59712E+04-6.24438E+02-4.43940E+03 2.61375E+04-1.63891E-09-3.98018E-09
 -1       609 2.55907E+04-1.84018E+02-2.24228E+03 2.98103E+04-4.15548E-09 1.49198E-08
 -1       610 2.57954E+04 4.34328E+00-1.07071E+03 2.61143E+04-1.53159E-09 9.74296E-10
 -1       611 2.57274E+04 1.42492E+01-5.39817E+02 2.98356E+04 7.72616E-10-3.69982E-09
 -1       612 2.57502E+04 2.04199E+01-2.57582E+02 2.61120E+04-5.26597E-10-1.93791E-09
 -1       613 2.57274E+04 2.24748E+01-1.16210E+02 2.98386E+04-1.93359E-09-8.25548E-09
 -1       614 2.57260E+04 1.98939E+01-2.96543E+01 2.61112E+04-6.04814E-10 5.91058E-09
 -1       615 2.57161E+04 2.75712E+01 4.32645E+01 2.98391E+04 2.02226E-09 1.24705E-08
 -1       616 2.57075E+04 2.55626E+01 1.34679E+02 2.61115E+04-3.65389E-09 5.89239E-09
 -1       617 2.57270E+04 5.95075E+01 3.09426E+02 2.98385E+04 1.47065E-09-2.92994E-09
 -1       618 2.56767E+04 1.17249E+02 6.24360E+02 2.61116E+04-5.77529E-11 2.80761E-09
 -1       619 2.59442E+04 5.44295E+02 1.40259E+03 2.98377E+04 2.08126E-09-1.16461E-09
 -1       620 2.54673E+04 1.59960E+03 2.81923E+03 2.61109E+04 2.01624E-09-7.16682E-09
 -1       621 2.77818E+02 2.35593E+05 2.53210E+03 1.76317E+04 6.70752E-11 1.69302E-09
 -1       622 3.44852E+02 2.36209E+05 2.36464E+03 2.56513E+04 8.39009E-11-7.79619E-09
 -1       623 2.77007E+01 2.35732E+05 2.99844E+03 1.75477E+04 1.99236E-10 5.39922E-09
 -1       624 1.45256E+03 2.37205E+05 5.93830E+03 2.57370E+04 9.91065E-11 9.77707E-09
 -1       625 1.45686E+03 2.34560E+05 1.04382E+04 1.75450E+04 1.26875E-10-5.71129E-09
 -1       626 2.08302E+05 5.42026E+04 4.53594E+03 1.07657E+05-3.71210E-09 8.59472E-09
 -1       627 2.05931E+05 5.57586E+04 2.18582E+03 1.11793E+05-3.32784E-09 7.95285E-09
 -1       628 2.08436E+05 5.21002E+04 9.23662E+02 1.08393E+05-4.58112E-09 6.45423E-09
 -1       629 2.05329E+05 5.51916E+04 4.52201E+02 1.12038E+05-1.88720E-10-5.57557E-09
 -1       630 2.08445E+05 5.20006E+04 2.08972E+02 1.08419E+05 1.03255E-08 1.30858E-08
 -1       631 2.05259E+05 5.51741E+04 1.11570E+02 1.12038E+05 2.20462E-09 1.22962E-08
 -1       632 2.08437E+05 5.20071E+04 7.18285E+01 1.08411E+05-2.92312E-09 3.97961E-09
 -1       633 2.05246E+05 5.51787E+04 7.76210E+01 1.12031E+05-5.13228E-09 3.18181E-09
 -1       634 2.08428E+05 5.20073E+04 1.23260E+02 1.08408E+05-1.82058E-09 4.11001E-09
 -1       635 2.05254E+05 5.51795E+04 2.48226E+02 1.12032E+05 2.20433E-09 3.48609E-09
 -1       636 2.08417E+05 5.20050E+04 5.00598E+02 1.08405E+05 2.72519E-09 4.02633E-09
 -1       637 2.05359E+05 5.52582E+04 1.09999E+03 1.12029E+05 2.43523E-09-1.71804E-09
 -1       638 2.08376E+05 5.22491E+04 2.26018E+03 1.08294E+05 1.67761E-08 3.28350E-08
 -1       639 2.06545E+05 5.69090E+04 5.34710E+03 1.11678E+05 1.28614E-09 1.09521E-08
 -1       640 2.08216E+05 5.71741E+04 1.10962E+04 1.06210E+05-4.88762E-09-1.45960E-08
 -1       656 5.46921E+04-1.39113E+06-1.32028E+05-7.61647E+02 6.25732E-10-1.07298E-08
 -1       657-7.23145E+04-1.45075E+06-1.09284E+05 7.23810E+03 7.00311E-11 2.07217E-09
 -1       658 1.73924E+04-1.40810E+06-6.71899E+04-2.29471E+03 6.50743E-10 2.83757E-09
 -1       659-7.78811E+04-1.45339E+06-1.16596E+05 8.36251E+03-1.02591E-09-1.45563E-10
 -1       660 6.02459E+04-1.38850E+06-1.44601E+05-1.88604E+03-3.41970E-10-1.76129E-09
 -1       661 1.66125E+05 1.78636E+04 1.64984E+04 6.49653E+04 1.51795E-09-1.64619E-10
 -1       662 1.75030E+05 3.04967E+04 1.11177E+04 6.17451E+04 3.71506E-09-9.62382E-09
 -1       663 1.69363E+05 2.31585E+04 3.88879E+03 6.40276E+04 1.29376E-10 8.16999E-09
 -1       664 1.71280E+05 2.43017E+04 2.32551E+03 6.28879E+04 3.39730E-09 4.35114E-09
 -1       665 1.69851E+05 2.38845E+04 9.17381E+02 6.38879E+04 3.55840E-10 1.34117E-08
 -1       666 1.70705E+05 2.34691E+04 5.35793E+02 6.30686E+04 7.02073E-10 1.87613E-08
 -1       667 1.69935E+05 2.39693E+04 2.83425E+02 6.38549E+04-7.99133E-10 9.65257E-09
 -1       668 1.70614E+05 2.34051E+04 2.86105E+02 6.31165E+04 2.52746E-09-8.10801E-09
 -1       669 1.69942E+05 2.39466E+04 3.85141E+02 6.38406E+04 1.38544E-09 1.34002E-08
 -1       670 1.70709E+05 2.36119E+04 8.36599E+02 6.31181E+04 2.98268E-09-7.84075E-09
 -1       671 1.69840E+05 2.37667E+04 1.48475E+03 6.38515E+04 1.30372E-09-2.96257E-09
 -1       672 1.71574E+05 2.50563E+04 3.79814E+03 6.29090E+04 7.04148E-11-1.06618E-08
 -1       673 1.69081E+05 2.25385E+04 6.36487E+03 6.40357E+04 1.25794E-09-2.15300E-09
 -1       674 1.77634E+05 3.52804E+04 1.82021E+04 6.11274E+04 9.80435E-10-5.19503E-09
 -1       675 1.63820E+05 1.38287E+04 2.70180E+04 6.55254E+04 4.80213E-10 5.14592E-09
 -1       676 2.11669E+01-2.56321E+05-9.83334E+02-2.18611E+00 3.62149E-10-4.31880E-09
 -1       677-2.61159E+02-2.56559E+05-1.79964E+03 4.36945E+00 1.35606E-09-3.28268E-09
 -1       678 1.74323E+02-2.56152E+05-3.18130E+03-2.18185E+00 4.30077E-10 1.05180E-08
 -1       679-3.18224E+03-2.58479E+05-7.55730E+03 4.35312E+00 4.90218E-10 9.64394E-09
 -1       680 1.89917E+03-2.54402E+05-1.21798E+04-2.14517E+00-4.87489E-10-4.05329E-09
 -1       771-2.71155E+06-5.60858E+05-8.79891E+04-1.21402E+06-2.15514E-08-1.69675E-08
 -1       772-2.66795E+06-6.18122E+05-4.60658E+04-1.27937E+06-2.01981E-08 6.80484E-09
 -1       773-2.72734E+06-5.48381E+05-2.20241E+04-1.21978E+06-7.04313E-09 7.12316E-09
 -1       774-2.65919E+06-6.08880E+05-1.01423E+04-1.29085E+06 1.67056E-08-1.48793E-09
 -1       775-2.73412E+06-5.43577E+05-6.62710E+03-1.22180E+06-5.52973E-09 2.26282E-09
 -1       776-2.66265E+06-6.08359E+05-2.64110E+03-1.29877E+06-9.19681E-09 3.17050E-09
 -1       777-2.73972E+06-5.39470E+05-2.59653E+03-1.22355E+06 3.59432E-09 2.96131E-09
 -1       778-2.66656E+06-6.07990E+05-7.96100E+02-1.30549E+06 5.82077E-11 6.33008E-09
 -1       779-2.74441E+06-5.35952E+05-1.20484E+03-1.22506E+06-9.09495E-09-2.67937E-09
 -1       780-2.67002E+06-6.07603E+05-2.32556E+02-1.31095E+06-8.80027E-09 4.78212E-09
 -1       781-2.74808E+06-5.33153E+05-4.78391E+02-1.22625E+06-2.14859E-08 5.54792E-10
 -1       782-2.67266E+06-6.07238E+05 8.20691E+01-1.31495E+06-2.44181E-08-3.53430E-09
 -1       783-2.75063E+06-5.31242E+05 1.04143E+02-1.22708E+06-3.95812E-09-8.35053E-09
 -1       784-2.67417E+06-6.06796E+05 6.76304E+02-1.31740E+06-1.10886E-08 4.18368E-10
 -1       785-2.75204E+06-5.30175E+05 1.16452E+03-1.22759E+06-2.13913E-08 4.22006E-09
 -1       786 1.26296E+05-9.05896E+03 2.09574E+04-1.34136E+02 2.38133E-09-1.58343E-09
 -1       787 1.35383E+05 1.04875E+04 1.48268E+04 2.24509E+01 3.64870E-09-7.39146E-09
 -1       788 1.29800E+05-1.41999E+03 5.42283E+03-1.07553E+02 8.45936E-10 7.06677E-10
 -1       789 1.31301E+05 1.64286E+03 3.40524E+03-2.04035E+01-4.17827E-10 1.25451E-08
 -1       790 1.30379E+05-2.21564E+02 1.38092E+03-9.12866E+01-1.73864E-09 6.30678E-09
 -1       791 1.30625E+05 2.56141E+02 8.01879E+02-4.86698E+01-2.75868E-09 1.09058E-08
 -1       792 1.30476E+05-3.43024E+01 3.48368E+02-7.92875E+01-7.19343E-10 4.77905E-09
 -1       793 1.30510E+05 3.97128E+01 1.92476E+02-7.13091E+01 8.48015E-10-1.08810E-08
 -1       794 1.30493E+05-5.27305E+00 8.78022E+01-6.86470E+01 1.69465E-09 3.16384E-09
 -1       795 1.30490E+05 6.48780E+00 4.78621E+01-9.35258E+01-1.50397E-09 7.36215E-09
 -1       796 1.30496E+05-1.09393E+00 2.38222E+01-5.70705E+01 1.38577E-09 7.27013E-09
 -1       797 1.30488E+05 3.44832E+00 1.65788E+01-1.20065E+02 1.34901E-09 7.81129E-09
 -1       798 1.30496E+05-2.23732E+00 1.34176E+01-4.21075E+01 5.68491E-10 4.08318E-09
 -1       799 1.30494E+05 1.60616E+01 2.51567E+01-1.56580E+02 1.63102E-09 1.45186E-08
 -1       800 1.30490E+05-1.37074E+01 3.22951E+01-2.05550E+01-2.47411E-10 9.70357E-09
 -1       801 7.57989E+04-4.34926E+06-4.61731E+05 2.21912E+05 3.59141E-08-1.63818E-08
 -1       802-5.32107E+04-2.55964E+06 3.93615E+04-2.08988E+05 1.00223E-07-1.65667E-08
 -1       803-2.48362E+04-4.41670E+06-2.29186E+05 2.21310E+05 4.50382E-08 2.57760E-08
 -1       804-2.49166E+04-3.14757E+06 5.11016E+04 1.71685E+05-6.86350E-09-1.71997E-09
 -1       805 3.83068E+04-3.76656E+06-5.59564E+04-1.58538E+05-3.51702E-09-6.18721E-09
 -1       806-2.53765E+05-4.79052E+04-1.84837E+04-9.91285E+04-3.54248E-10-1.80626E-09
 -1       807-2.55421E+05-4.46857E+04-9.08084E+03-1.03374E+05 1.89993E-09 3.32288E-09
 -1       808-2.54257E+05-4.12596E+04-3.85249E+03-1.02297E+05-1.67665E-09 3.42493E-09
 -1       809-2.53521E+05-4.21265E+04-1.88380E+03-1.03589E+05-4.63069E-09 1.31286E-08
 -1       810-2.54334E+05-4.10280E+04-8.63330E+02-1.02438E+05-1.51340E-09-2.07956E-09
 -1       811-2.53375E+05-4.20227E+04-4.29239E+02-1.03561E+05 1.68643E-09 1.37708E-08
 -1       812-2.54347E+05-4.10471E+04-2.16744E+02-1.02438E+05-1.55069E-10-8.45148E-10
 -1       813-2.53356E+05-4.20237E+04-1.40431E+02-1.03547E+05-7.27596E-12-2.13049E-10
 -1       814-2.54343E+05-4.10538E+04-1.38273E+02-1.02436E+05-4.53838E-09 4.69572E-09
 -1       815-2.53361E+05-4.20250E+04-2.22348E+02-1.03543E+05-3.83170E-09-6.13909E-11
 -1       816-2.54329E+05-4.10516E+04-4.20758E+02-1.02434E+05-1.05229E-09 2.98587E-09
 -1       817-2.53435E+05-4.20646E+04-9.03396E+02-1.03537E+05-4.62114E-09 3.44698E-09
 -1       818-2.54278E+05-4.11771E+04-1.84220E+03-1.02375E+05-5.00313E-09-6.13591E-09
 -1       819-2.54443E+05-4.31799E+04-4.33546E+03-1.03304E+05-1.14237E-08-1.32547E-08
 -1       820-2.53939E+05-4.44448E+04-8.82375E+03-1.00969E+05-4.80122E-09 6.57860E-09
 -1       821-3.09138E+05 1.70921E+04-3.95304E+04 4.50481E+02 4.49000E-07-3.80878E-08
 -1       822-3.26258E+05-1.97868E+04-2.79719E+04-1.12400E+03 9.02756E-07 1.26984E-08
 -1       823-3.15741E+05 2.68018E+03-1.02378E+04 4.93626E+02 4.48160E-07 1.95632E-09
 -1       824-3.18540E+05-3.10123E+03-6.43957E+03-9.55288E+02 1.17730E-09 4.92275E-09
 -1       825-3.16853E+05 4.18959E+02-2.65125E+03 2.81772E+02 1.39002E-09 1.27513E-08
 -1       826-3.17236E+05-4.93322E+02-1.59107E+03-3.74719E+02-1.57160E-10 4.85974E-09
 -1       827-3.17044E+05 7.33901E+01-8.35418E+02-8.69521E+01-1.41831E-09-6.95499E-09
 -1       828-3.17063E+05-1.50725E+02-7.28136E+02 3.50255E+02-3.87802E-09-1.36619E-08
 -1       829-3.17025E+05 7.66664E+01-8.52462E+02-4.43216E+02 5.24313E-10-4.67728E-09
 -1       830-3.17288E+05-5.14339E+02-1.65909E+03 8.86077E+02 1.76972E-09 4.81862E-09
 -1       831-3.16820E+05 4.37551E+02-2.75357E+03-6.22784E+02-1.97768E-09-6.07281E-09
 -1       832-3.18621E+05-3.23055E+03-6.71024E+03 9.86096E+02-1.40741E-09 9.66895E-09
 -1       833-3.15695E+05 2.79113E+03-1.06667E+04-5.43236E+02-1.25445E-09 8.12543E-09
 -1       834-3.26608E+05-2.06110E+04-2.91334E+04 6.01205E+02-9.88003E-10 9.73614E-09
 -1       835-3.08834E+05 1.78040E+04-4.11882E+04-2.37879E+02 5.13795E-09-1.10995E-08
 -1       836-1.06094E+03 2.92454E+05 1.77872E+04-1.62403E+04-9.67702E-10 8.28913E-09
 -1       837 3.86493E+03 2.97991E+05 1.52175E+04-3.27016E+04-7.50788E-10 7.61543E-09
 -1       838-4.10385E+02 2.93984E+05 1.57384E+04-1.61755E+04-5.56611E-10 6.90488E-09
 -1       839 1.00699E+04 3.02616E+05 3.00018E+04-3.27417E+04-4.04725E-11 1.46904E-08
 -1       840-3.06242E+03 2.87786E+05 4.79420E+04-1.62000E+04-3.58341E-10-1.55188E-09
 -1       856-7.26116E+04 7.62958E+03-2.01062E+04-4.20638E+02-9.95783E-10 1.01581E-08
 -1       857-8.09109E+04-8.95228E+03-1.38420E+04 4.86555E+03-2.61252E-10 9.37871E-09
 -1       858-7.58925E+04 1.06923E+03-5.21772E+03-4.42706E+02 1.04308E-10-4.51109E-10
 -1       859-7.71442E+04-1.24644E+03-3.15025E+03 4.90009E+03 2.63975E-09 6.97099E-09
 -1       860-7.63829E+04 1.48945E+02-1.32286E+03-4.55218E+02 1.54529E-09 4.79019E-09
 -1       861-7.65797E+04-1.67178E+02-7.33196E+02 4.91722E+03-1.69618E-09 2.18947E-08
 -1       862-7.64593E+04 1.97391E+01-3.15739E+02-4.59853E+02 3.66527E-09-4.69126E-09
 -1       863-7.64879E+04-1.26005E+01-1.39896E+02 4.91950E+03 5.68260E-09-1.11028E-08
 -1       864-7.64750E+04-2.19491E+00-1.11243E+01-4.57500E+02 1.82897E-09-4.01943E-09
 -1       865-7.64504E+04 3.98293E+01 1.18029E+02 4.90724E+03 2.28444E-09-3.04053E-09
 -1       866-7.64951E+04-3.30102E+01 2.66587E+02-4.47592E+02-1.68467E-09 5.40496E-10
 -1       867-7.63172E+04 2.74868E+02 6.74730E+02 4.88029E+03-7.43057E-10 7.64518E-09
 -1       868-7.66044E+04-2.33868E+02 1.12554E+03-4.30545E+02 6.37215E-10-1.97053E-09
 -1       869-7.54862E+04 1.94521E+03 3.00394E+03 4.83548E+03 2.60798E-10-1.42469E-08
 -1       870-7.73200E+04-1.65926E+03 4.35828E+03-4.02781E+02 2.96382E-10-1.90971E-08
 -1       871-4.66729E+03-1.20284E+04-1.54870E+04 1.03024E+05 2.49202E-10 3.61615E-09
 -1       872-1.93624E+03-1.55370E+04-6.37548E+03 1.33572E+05-4.76575E-10 1.12868E-08
 -1       873 5.29552E+01-1.38859E+04 7.43028E+02 1.02798E+05-1.70985E-10 1.55310E-08
 -1       874 2.42485E+03-1.17472E+04 8.41266E+03 1.33611E+05-3.89264E-10 1.87754E-08
 -1       875 5.52910E+03-1.58839E+04 1.87644E+04 1.02988E+05-3.83807E-10-3.70528E-09
 -1       876 2.45277E+05 4.18697E+04 1.28486E+04 9.90571E+04 2.73587E-10 1.96633E-09
 -1       877 2.46069E+05 4.46323E+04 6.86157E+03 1.02795E+05-1.28057E-09-6.33281E-09
 -1       878 2.46477E+05 4.04480E+04 2.87468E+03 1.00112E+05-2.41744E-09 1.73145E-09
 -1       879 2.44322E+05 4.28904E+04 1.43219E+03 1.02884E+05-1.69621E-09 1.27612E-08
 -1       880 2.46564E+05 4.04327E+04 6.66960E+02 1.00155E+05-6.44059E-09 4.83431E-09
 -1       881 2.44206E+05 4.28162E+04 3.55753E+02 1.02865E+05-7.26129E-09 7.67201E-09
 -1       882 2.46572E+05 4.04436E+04 2.26898E+02 1.00156E+05-1.07138E-09 4.62870E-09
 -1       883 2.44198E+05 4.28125E+04 2.42793E+02 1.02859E+05-1.84991E-09 2.10705E-08
 -1       884 2.46567E+05 4.04410E+04 3.85205E+02 1.00157E+05-3.60302E-09-6.32667E-10
 -1       885 2.44228E+05 4.28180E+04 7.73840E+02 1.02869E+05 3.28910E-09 1.87902E-09
 -1       886 2.46537E+05 4.04184E+04 1.55935E+03 1.00154E+05 4.14543E-09 1.21872E-08
 -1       887 2.44503E+05 4.29977E+04 3.40609E+03 1.02908E+05-2.83194E-09-5.16854E-09
 -1       888 2.46322E+05 4.04562E+04 6.86336E+03 1.00045E+05 8.85990E-10 4.20323E-09
 -1       889 2.48591E+05 4.72452E+04 1.63957E+04 1.02781E+05 6.96297E-09 9.82141E-09
 -1       890 2.43525E+05 4.37788E+04 3.07083E+04 9.74270E+04 3.52065E-09-4.76575E-10
 -1       891-1.30390E+02-1.37843E+05-1.65813E+03 2.48386E+04 1.92586E-10 5.50904E-09
 -1       892-2.31637E+02-1.38252E+05-1.79188E+03 3.76200E+04-6.95081E-10 1.34362E-08
 -1       893-2.03164E+01-1.37896E+05-2.54853E+03 2.48440E+04 2.16005E-11 1.13705E-08
 -1       894-1.35632E+03-1.39221E+05-5.28277E+03 3.74844E+04 7.98082E-10 1.33568E-08
 -1       895-1.06557E+03-1.36795E+05-9.30620E+03 2.49732E+04-3.10081E-10 6.97946E-09
 -1       956-3.11363E+05-4.38272E+03-1.09866E+04 2.17765E+04-1.21418E-09-6.45491E-09
 -1       957-3.13529E+05-1.49272E+03-5.63989E+03 2.62188E+04-5.55883E-09-1.98086E-08
 -1       958-3.12341E+05-1.33676E+02-2.54106E+03 2.16467E+04 4.72301E-09-1.30967E-10
 -1       959-3.12511E+05-3.86679E+01-1.29788E+03 2.63623E+04 9.20681E-09 7.86201E-09
 -1       960-3.12431E+05 2.19552E+01-6.32841E+02 2.16340E+04 2.46700E-09 6.75891E-09
 -1       961-3.12439E+05 1.73289E+01-3.35906E+02 2.63769E+04-6.63249E-10 5.99584E-09
 -1       962-3.12449E+05 1.83804E+01-1.92632E+02 2.16320E+04 1.05547E-09 7.85758E-09
 -1       963-3.12437E+05 1.91433E+01-1.55282E+02 2.63795E+04-5.33873E-10 1.11513E-08
 -1       964-3.12453E+05 2.06064E+01-1.89384E+02 2.16314E+04-1.22719E-09 3.94084E-09
 -1       965-3.12447E+05 2.20644E+01-3.28006E+02 2.63792E+04 4.62194E-10 8.12884E-09
 -1       966-3.12442E+05 2.85790E+01-6.16269E+02 2.16323E+04 3.03385E-09-5.40763E-09
 -1       967-3.12526E+05-2.78503E+01-1.26417E+03 2.63698E+04-1.97008E-09-5.64137E-09
 -1       968-3.12361E+05-1.18634E+02-2.47430E+03 2.16409E+04-8.48104E-10-1.07408E-08
 -1       969-3.13526E+05-1.44021E+03-5.49351E+03 2.62692E+04 2.83671E-09 9.69661E-09
 -1       970-3.11414E+05-4.25465E+03-1.07007E+04 2.17330E+04 1.89857E-09-4.07363E-09
 -1       971-2.90844E+05-1.50080E+03-8.27323E+03 1.36303E+04-5.66888E-09 1.85992E-09
 -1       972-2.92850E+05-1.08329E+03-4.50552E+03 1.89928E+04-8.84711E-09-1.66492E-08
 -1       973-2.91765E+05-2.16000E+01-2.01771E+03 1.35178E+04-7.66840E-09-1.11304E-08
 -1       974-2.91899E+05-2.55351E+01-1.04547E+03 1.91158E+04 2.01908E-10 5.22789E-09
 -1       975-2.91837E+05 1.76655E+01-5.21954E+02 1.35072E+04 2.79670E-10 3.43391E-09
 -1       976-2.91844E+05 1.82595E+01-2.99955E+02 1.91290E+04-6.28233E-10-6.76812E-09
 -1       977-2.91851E+05 1.78449E+01-2.15615E+02 1.35046E+04-1.60071E-10-4.28690E-09
 -1       978-2.91848E+05 2.34067E+01-2.49462E+02 1.91328E+04 6.88306E-09-3.28487E-09
 -1       979-2.91851E+05 2.48006E+01-3.98359E+02 1.35034E+04 3.14327E-09 1.54125E-09
 -1       980-2.91877E+05 2.59369E+01-7.67645E+02 1.91334E+04 2.10895E-09 1.14096E-09
 -1       981-2.91826E+05 4.39437E+01-1.48595E+03 1.35039E+04 2.28306E-09 1.24070E-08
 -1       982-2.92081E+05-8.38044E+01-3.07097E+03 1.91276E+04-2.39743E-09-1.92969E-10
 -1       983-2.91639E+05-5.11326E+01-5.96667E+03 1.35094E+04 3.02157E-09-1.59321E-09
 -1       984-2.94951E+05-3.19988E+03-1.33617E+04 1.90507E+04 7.67250E-09 2.95324E-09
 -1       985-2.88938E+05-4.41717E+03-2.45364E+04 1.35831E+04 5.48016E-09 9.10404E-09
 -3
    1PSTEP                        15           8           1          
  100CL  108 6.09375E-01         409                     0    8           1
 -4  DISP        4    1
 -5  D1          1    2    1    0
 -5  D2          1    2    2    0
 -5  D3          1    2    3    0
 -5  ALL         1    2    0    0    1ALL
 -1         1 1.30197E-03 0.00000E+00 0.00000E+00
 -1         2 1.22691E-03 3.04486E-28 0.00000E+00
 -1         3 2.69083E-04 2.06148E-27-1.32349E-23
 -1         5 1.49471E-04-6.30313E-26-1.65436E-24
 -1         8 1.28244E-03-6.15929E-07 0.00000E+00
 -1         9 1.25092E-03-3.71108E-06 0.00000E+00
 -1        10 2.44824E-04-3.24175E-06 6.61744E-24
 -1        12 1.50358E-04 7.14150E-07 0.00000E+00
 -1        15 1.25901E-03-6.77737E-07 0.00000E+00
 -1        16 1.26584E-03-4.51207E-06 0.00000E+00
 -1        17 1.69335E-04-7.13558E-06 0.00000E+00
 -1        18 1.51564E-04 2.07390E-05 0.00000E+00
 -1        19 1.52979E-04 1.41717E-06 0.00000E+00
 -1        20 1.53125E-04 7.79702E-07 0.00000E+00
 -1        21 1.52371E-04-2.69689E-06 0.00000E+00
 -1        24 2.71929E-05-1.03267E-05 0.00000E+00
 -1        25 1.57440E-04 2.09238E-05 0.00000E+00
 -1        26 1.58141E-04 1.96097E-06 0.00000E+00
 -1        27 1.56212E-04-2.38467E-06 0.00000E+00
 -1        28 1.55836E-04-3.26479E-06 0.00000E+00
 -1        32 0.00000E+00 0.00000E+00 0.00000E+00
 -1        33 1.62249E-04 2.62403E-06 0.00000E+00
 -1        34 1.60359E-04-2.42416E-06 0.00000E+00
 -1        35 1.58615E-04-3.57250E-06 0.00000E+00
 -1        51 1.30070E-03-1.11078E-07 0.00000E+00
 -1        52 1.29836E-03-2.10005E-07 0.00000E+00
 -1        53 1.29514E-03-3.07834E-07 0.00000E+00
 -1        54 1.29127E-03-4.06565E-07 0.00000E+00
 -1        55 1.28696E-03-5.07566E-07-3.30872E-24
 -1        56 1.29894E-03-3.60698E-07 5.29396E-23
 -1        57 1.29532E-03 5.62370E-07 2.64698E-23
 -1        58 1.29128E-03 2.61547E-06 1.05879E-22
 -1        59 1.28689E-03 5.51838E-06-5.29396E-23
 -1        60 1.28232E-03 8.89224E-06-1.05879E-22
 -1        61 1.27773E-03 1.23193E-05 0.00000E+00
 -1        62 1.27328E-03 1.53760E-05 0.00000E+00
 -1        63 1.26913E-03 1.76623E-05-5.29396E-23
 -1        64 1.26537E-03 1.88822E-05 0.00000E+00
 -1        65 1.26210E-03 1.88106E-05 0.00000E+00
 -1        66 1.25934E-03 1.73962E-05 0.00000E+00
 -1        67 1.25707E-03 1.46782E-05-5.29396E-23
 -1        68 1.25520E-03 1.08702E-05 0.00000E+00
 -1        69 1.25365E-03 6.26546E-06-2.64698E-23
 -1        70 1.25224E-03 1.25215E-06 5.29396E-23
 -1        86 1.22798E-03-6.09236E-07 0.00000E+00
 -1        87 1.23115E-03-1.22288E-06 0.00000E+00
 -1        88 1.23578E-03-1.84187E-06 0.00000E+00
 -1        89 1.24123E-03-2.46556E-06 0.00000E+00
 -1        90 1.24657E-03-3.08847E-06 0.00000E+00
 -1       121 2.68402E-04-5.29980E-07 0.00000E+00
 -1       122 2.66362E-04-1.06174E-06 0.00000E+00
 -1       123 2.62969E-04-1.59704E-06 0.00000E+00
 -1       124 2.58237E-04-2.13768E-06 0.00000E+00
 -1       125 2.52181E-04-2.68512E-06 0.00000E+00
 -1       191 1.49496E-04 1.19052E-07 0.00000E+00
 -1       192 1.49570E-04 2.38101E-07-8.27181E-25
 -1       193 1.49693E-04 3.57143E-07 3.30872E-24
 -1       194 1.49866E-04 4.76174E-07 8.27181E-25
 -1       195 1.50087E-04 5.95184E-07-1.65436E-24
 -1       251 1.28176E-03-1.14176E-05 0.00000E+00
 -1       252 1.28036E-03-5.13079E-05-6.61744E-24
 -1       253 1.27797E-03-1.12448E-04-1.32349E-23
 -1       254 1.27473E-03-1.86470E-04 0.00000E+00
 -1       255 1.27144E-03-2.61280E-04 0.00000E+00
 -1       256 1.26890E-03-3.24767E-04 0.00000E+00
 -1       257 1.26736E-03-3.68105E-04-1.32349E-23
 -1       258 1.26662E-03-3.82962E-04-6.61744E-24
 -1       259 1.26589E-03-3.68929E-04 1.32349E-23
 -1       260 1.26439E-03-3.26347E-04 0.00000E+00
 -1       261 1.26189E-03-2.63497E-04 0.00000E+00
 -1       262 1.25863E-03-1.89157E-04 6.61744E-24
 -1       263 1.25541E-03-1.15438E-04 0.00000E+00
 -1       264 1.25302E-03-5.44397E-05 0.00000E+00
 -1       265 1.25162E-03-1.45671E-05 0.00000E+00
 -1       266 1.27853E-03-6.35176E-07 0.00000E+00
 -1       267 1.27463E-03-6.44387E-07 8.27181E-25
 -1       268 1.27072E-03-6.54233E-07 0.00000E+00
 -1       269 1.26682E-03-6.62197E-07 2.06795E-25
 -1       270 1.26292E-03-6.70117E-07-2.06795E-25
 -1       271 1.28003E-03 2.86725E-06-2.64698E-23
 -1       272 1.27767E-03 6.15169E-06 1.32349E-23
 -1       273 1.27541E-03 9.16548E-06 0.00000E+00
 -1       274 1.27328E-03 1.18255E-05 1.32349E-23
 -1       275 1.27131E-03 1.40573E-05 0.00000E+00
 -1       276 1.26953E-03 1.57895E-05 0.00000E+00
 -1       277 1.26796E-03 1.69581E-05 0.00000E+00
 -1       278 1.26663E-03 1.75055E-05 0.00000E+00
 -1       279 1.26554E-03 1.73823E-05 0.00000E+00
 -1       280 1.26473E-03 1.65475E-05-1.32349E-23
 -1       281 1.26419E-03 1.49691E-05 0.00000E+00
 -1       282 1.26394E-03 1.26247E-05 1.32349E-23
 -1       283 1.26397E-03 9.50134E-06 0.00000E+00
 -1       284 1.26430E-03 5.59719E-06 0.00000E+00
 -1       285 1.26492E-03 9.18030E-07 0.00000E+00
 -1       301 1.25359E-03-3.86446E-06 0.00000E+00
 -1       302 1.25550E-03-3.98972E-06 0.00000E+00
 -1       303 1.25717E-03-4.11248E-06 1.32349E-23
 -1       304 1.25910E-03-4.23520E-06 0.00000E+00
 -1       305 1.26182E-03-4.36139E-06 2.64698E-23
 -1       306 1.27733E-03-1.00716E-04 0.00000E+00
 -1       307 1.33746E-03-3.74763E-04 0.00000E+00
 -1       308 1.40521E-03-7.81837E-04-1.05879E-22
 -1       309 1.46963E-03-1.26157E-03 5.29396E-23
 -1       310 1.53457E-03-1.73235E-03 0.00000E+00
 -1       311 1.60221E-03-2.11342E-03 0.00000E+00
 -1       312 1.65740E-03-2.34937E-03-1.05879E-22
 -1       313 1.67105E-03-2.40371E-03-5.29396E-23
 -1       314 1.60962E-03-2.27844E-03 1.05879E-22
 -1       315 1.45069E-03-1.99968E-03 0.00000E+00
 -1       316 1.20407E-03-1.61643E-03 0.00000E+00
 -1       317 9.02166E-04-1.17999E-03-5.29396E-23
 -1       318 6.03809E-04-7.46850E-04 0.00000E+00
 -1       319 3.66880E-04-3.73819E-04 0.00000E+00
 -1       320 2.20116E-04-1.11436E-04 1.05879E-22
 -1       336 2.36023E-04-3.85148E-06 0.00000E+00
 -1       337 2.25641E-04-4.47639E-06 0.00000E+00
 -1       338 2.13724E-04-5.11738E-06 0.00000E+00
 -1       339 2.00327E-04-5.77464E-06 0.00000E+00
 -1       340 1.85508E-04-6.45125E-06-1.32349E-23
 -1       406 1.50676E-04 8.31976E-07 0.00000E+00
 -1       407 1.51041E-04 9.49724E-07 8.27181E-25
 -1       408 1.51454E-04 1.06738E-06-1.65436E-24
 -1       409 1.51914E-04 1.18479E-06 0.00000E+00
 -1       410 1.52423E-04 1.30174E-06-1.65436E-24
 -1       521 1.29348E-03-1.09980E-04 0.00000E+00
 -1       522 1.35455E-03-4.03488E-04 0.00000E+00
 -1       523 1.42092E-03-8.38436E-04 0.00000E+00
 -1       524 1.48185E-03-1.34912E-03 5.29396E-23
 -1       525 1.54364E-03-1.84960E-03 0.00000E+00
 -1       526 1.61053E-03-2.25498E-03 5.29396E-23
 -1       527 1.66659E-03-2.50497E-03 0.00000E+00
 -1       528 1.67984E-03-2.56165E-03 0.00000E+00
 -1       529 1.61191E-03-2.42644E-03 1.05879E-22
 -1       530 1.43785E-03-2.12978E-03-5.29396E-23
 -1       531 1.16737E-03-1.72365E-03 0.00000E+00
 -1       532 8.36445E-04-1.26290E-03 0.00000E+00
 -1       533 5.08901E-04-8.05083E-04 1.05879E-22
 -1       534 2.47610E-04-4.08100E-04-5.29396E-23
 -1       535 8.50936E-05-1.26277E-04 0.00000E+00
 -1       536 1.68834E-04 1.95760E-05-6.61744E-24
 -1       537 1.67650E-04 6.59571E-05-3.30872E-24
 -1       538 1.65850E-04 1.24807E-04 3.30872E-24
 -1       539 1.63744E-04 1.88859E-04 0.00000E+00
 -1       540 1.61848E-04 2.49314E-04 0.00000E+00
 -1       541 1.60598E-04 2.97391E-04 1.65436E-24
 -1       542 1.59998E-04 3.27810E-04 0.00000E+00
 -1       543 1.59815E-04 3.35399E-04 0.00000E+00
 -1       544 1.59561E-04 3.20833E-04 0.00000E+00
 -1       545 1.58789E-04 2.84941E-04 0.00000E+00
 -1       546 1.57413E-04 2.34114E-04-3.30872E-24
 -1       547 1.55588E-04 1.74836E-04 1.65436E-24
 -1       548 1.53790E-04 1.16028E-04 0.00000E+00
 -1       549 1.52482E-04 6.66094E-05 0.00000E+00
 -1       550 1.51781E-04 3.28046E-05 1.65436E-24
 -1       551 1.49754E-04-7.57993E-06 0.00000E+00
 -1       552 1.27374E-04-8.07568E-06 3.30872E-24
 -1       553 1.03054E-04-8.61246E-06-1.29118E-23
 -1       554 7.76690E-05-9.17581E-06-3.30872E-24
 -1       555 5.20921E-05-9.74618E-06 0.00000E+00
 -1       556 1.63571E-04 7.67907E-06 0.00000E+00
 -1       557 1.58961E-04 1.95671E-05 0.00000E+00
 -1       558 1.55394E-04 2.87651E-05 0.00000E+00
 -1       559 1.52764E-04 3.55291E-05 0.00000E+00
 -1       560 1.50966E-04 4.01148E-05 0.00000E+00
 -1       561 1.49898E-04 4.27802E-05 0.00000E+00
 -1       562 1.49457E-04 4.37837E-05 0.00000E+00
 -1       563 1.49543E-04 4.33846E-05 0.00000E+00
 -1       564 1.50058E-04 4.18426E-05 0.00000E+00
 -1       565 1.50903E-04 3.94179E-05-6.61744E-24
 -1       566 1.51979E-04 3.63709E-05 0.00000E+00
 -1       567 1.53190E-04 3.29624E-05 0.00000E+00
 -1       568 1.54438E-04 2.94532E-05 4.13590E-25
 -1       569 1.55627E-04 2.61040E-05 0.00000E+00
 -1       570 1.56660E-04 2.31754E-05 0.00000E+00
 -1       571 1.51650E-04 1.94898E-05 0.00000E+00
 -1       572 1.51738E-04 1.81859E-05-1.24077E-24
 -1       573 1.51826E-04 1.68396E-05 0.00000E+00
 -1       574 1.51914E-04 1.54640E-05-8.27181E-25
 -1       575 1.52003E-04 1.40719E-05 0.00000E+00
 -1       576 1.52091E-04 1.26766E-05 1.65436E-24
 -1       577 1.52180E-04 1.12910E-05 0.00000E+00
 -1       578 1.52268E-04 9.92836E-06 1.65436E-24
 -1       579 1.52357E-04 8.60163E-06 0.00000E+00
 -1       580 1.52446E-04 7.32394E-06 0.00000E+00
 -1       581 1.52534E-04 6.10840E-06-6.61744E-24
 -1       582 1.52623E-04 4.96805E-06 0.00000E+00
 -1       583 1.52712E-04 3.91599E-06 0.00000E+00
 -1       584 1.52801E-04 2.96512E-06 0.00000E+00
 -1       585 1.52890E-04 2.12827E-06 0.00000E+00
 -1       586 1.52494E-04 2.07717E-05 0.00000E+00
 -1       587 1.53392E-04 2.08038E-05 0.00000E+00
 -1       588 1.54297E-04 2.08356E-05 0.00000E+00
 -1       589 1.55248E-04 2.08668E-05 0.00000E+00
 -1       590 1.56283E-04 2.08969E-05 0.00000E+00
 -1       591 1.51981E-04 1.95603E-05 0.00000E+00
 -1       592 1.52402E-04 1.83585E-05 0.00000E+00
 -1       593 1.52830E-04 1.71392E-05 0.00000E+00
 -1       594 1.53262E-04 1.59076E-05 4.13590E-25
 -1       595 1.53697E-04 1.46685E-05-8.27181E-25
 -1       596 1.54133E-04 1.34270E-05 4.13590E-25
 -1       597 1.54568E-04 1.21879E-05 0.00000E+00
 -1       598 1.54999E-04 1.09562E-05 0.00000E+00
 -1       599 1.55427E-04 9.73677E-06-8.27181E-25
 -1       600 1.55848E-04 8.53460E-06-4.13590E-25
 -1       601 1.56260E-04 7.35461E-06 8.27181E-25
 -1       602 1.56663E-04 6.20171E-06 0.00000E+00
 -1       603 1.57054E-04 5.08083E-06-4.13590E-25
 -1       604 1.57431E-04 3.99700E-06-2.58494E-26
 -1       605 1.57793E-04 2.95508E-06 0.00000E+00
 -1       606 1.52992E-04 9.06617E-07 0.00000E+00
 -1       607 1.53002E-04 4.86501E-07 0.00000E+00
 -1       608 1.53012E-04 1.51510E-07 0.00000E+00
 -1       609 1.53021E-04-1.04340E-07 0.00000E+00
 -1       610 1.53029E-04-2.87084E-07 0.00000E+00
 -1       611 1.53038E-04-4.02822E-07 0.00000E+00
 -1       612 1.53047E-04-4.57664E-07 0.00000E+00
 -1       613 1.53056E-04-4.57726E-07 0.00000E+00
 -1       614 1.53065E-04-4.09127E-07-1.65436E-24
 -1       615 1.53073E-04-3.17985E-07 0.00000E+00
 -1       616 1.53082E-04-1.90416E-07 0.00000E+00
 -1       617 1.53091E-04-3.25388E-08 0.00000E+00
 -1       618 1.53100E-04 1.49527E-07 0.00000E+00
 -1       619 1.53108E-04 3.49668E-07 2.06795E-25
 -1       620 1.53117E-04 5.61765E-07 0.00000E+00
 -1       621 1.53645E-04 1.50811E-06 0.00000E+00
 -1       622 1.54418E-04 1.59934E-06-8.27181E-25
 -1       623 1.55277E-04 1.69047E-06-1.65436E-24
 -1       624 1.56198E-04 1.78139E-06 0.00000E+00
 -1       625 1.57160E-04 1.87210E-06 0.00000E+00
 -1       626 1.53270E-04 9.38373E-07-3.30872E-24
 -1       627 1.53537E-04 5.29621E-07 1.65436E-24
 -1       628 1.53780E-04 1.83129E-07 0.00000E+00
 -1       629 1.54003E-04-1.09265E-07-1.65436E-24
 -1       630 1.54208E-04-3.55741E-07 0.00000E+00
 -1       631 1.54400E-04-5.64508E-07-1.65436E-24
 -1       632 1.54581E-04-7.43774E-07 0.00000E+00
 -1       633 1.54753E-04-9.01753E-07-1.65436E-24
 -1       634 1.54921E-04-1.04665E-06 3.30872E-24
 -1       635 1.55087E-04-1.18668E-06 0.00000E+00
 -1       636 1.55254E-04-1.33006E-06 0.00000E+00
 -1       637 1.55425E-04-1.48498E-06-8.27181E-25
 -1       638 1.55604E-04-1.65966E-06-1.65436E-24
 -1       639 1.55793E-04-1.86234E-06-8.27181E-25
 -1       640 1.55995E-04-2.10123E-06-1.65436E-24
 -1       656 1.53132E-04 2.65138E-07 6.61744E-24
 -1       657 1.53539E-04-2.70182E-07 0.00000E+00
 -1       658 1.54208E-04-8.04089E-07-1.32349E-23
 -1       659 1.54993E-04-1.33763E-06-6.61744E-24
 -1       660 1.55718E-04-1.87279E-06 6.61744E-24
 -1       661 1.53129E-04 9.59406E-07-8.27181E-25
 -1       662 1.53167E-04 1.06101E-06 8.27181E-25
 -1       663 1.53231E-04 1.08842E-06 1.65436E-24
 -1       664 1.53322E-04 1.04680E-06-8.27181E-25
 -1       665 1.53438E-04 9.40686E-07 1.65436E-24
 -1       666 1.53575E-04 7.74695E-07 8.27181E-25
 -1       667 1.53734E-04 5.53212E-07 1.65436E-24
 -1       668 1.53912E-04 2.80566E-07-8.27181E-25
 -1       669 1.54107E-04-3.90821E-08-1.65436E-24
 -1       670 1.54319E-04-4.01653E-07 8.27181E-25
 -1       671 1.54545E-04-8.03189E-07-1.65436E-24
 -1       672 1.54784E-04-1.23984E-06 0.00000E+00
 -1       673 1.55034E-04-1.70779E-06 0.00000E+00
 -1       674 1.55295E-04-2.20358E-06-8.27181E-25
 -1       675 1.55564E-04-2.72316E-06 4.13590E-25
 -1       676 1.52951E-04-2.79210E-06 0.00000E+00
 -1       677 1.53530E-04-2.88726E-06-1.65436E-24
 -1       678 1.54108E-04-2.98238E-06-3.30872E-24
 -1       679 1.54686E-04-3.07721E-06 1.65436E-24
 -1       680 1.55262E-04-3.17203E-06 0.00000E+00
 -1       771 1.78603E-05 1.02120E-05 5.29396E-23
 -1       772 9.96607E-06 2.70732E-05 0.00000E+00
 -1       773 3.44175E-06 4.04404E-05 5.29396E-23
 -1       774-1.80552E-06 5.05177E-05 0.00000E+00
 -1       775-5.86707E-06 5.75161E-05 0.00000E+00
 -1       776-8.83789E-06 6.16582E-05 5.29396E-23
 -1       777-1.08132E-05 6.31736E-05 0.00000E+00
 -1       778-1.18903E-05 6.23015E-05 2.64698E-23
 -1       779-1.21663E-05 5.92866E-05-5.29396E-23
 -1       780-1.17401E-05 5.43817E-05 0.00000E+00
 -1       781-1.07102E-05 4.78441E-05 0.00000E+00
 -1       782-9.17649E-06 3.99373E-05-2.64698E-23
 -1       783-7.23825E-06 3.09277E-05 0.00000E+00
 -1       784-4.99595E-06 2.10861E-05 2.64698E-23
 -1       785-2.54949E-06 1.06854E-05 5.29396E-23
 -1       786 1.57480E-04 1.95229E-05 0.00000E+00
 -1       787 1.57523E-04 1.81697E-05 0.00000E+00
 -1       788 1.57567E-04 1.68561E-05-8.27181E-25
 -1       789 1.57610E-04 1.55744E-05 8.27181E-25
 -1       790 1.57654E-04 1.43202E-05 1.65436E-24
 -1       791 1.57698E-04 1.30888E-05 8.27181E-25
 -1       792 1.57742E-04 1.18781E-05 0.00000E+00
 -1       793 1.57786E-04 1.06861E-05 0.00000E+00
 -1       794 1.57831E-04 9.51247E-06 1.65436E-24
 -1       795 1.57875E-04 8.35709E-06 0.00000E+00
 -1       796 1.57919E-04 7.22165E-06 0.00000E+00
 -1       797 1.57963E-04 6.10786E-06 8.27181E-25
 -1       798 1.58007E-04 5.01968E-06 0.00000E+00
 -1       799 1.58052E-04 3.96112E-06 8.27181E-25
 -1       800 1.58096E-04 2.93918E-06 1.65436E-24
 -1       801 1.24857E-04 1.85800E-05-2.64698E-23
 -1       802 2.58686E-05 1.20151E-05-1.32349E-23
 -1       803-6.12794E-05 6.34558E-06 5.29396E-23
 -1       804-5.93350E-05 4.30539E-06 0.00000E+00
 -1       805-2.04291E-05 1.90042E-06-5.29396E-23
 -1       806 1.57864E-04 1.94633E-05-3.30872E-24
 -1       807 1.58273E-04 1.80294E-05 0.00000E+00
 -1       808 1.58671E-04 1.66264E-05 3.30872E-24
 -1       809 1.59055E-04 1.52576E-05 0.00000E+00
 -1       810 1.59425E-04 1.39260E-05 0.00000E+00
 -1       811 1.59780E-04 1.26349E-05 8.27181E-25
 -1       812 1.60119E-04 1.13873E-05 0.00000E+00
 -1       813 1.60440E-04 1.01863E-05 1.65436E-24
 -1       814 1.60743E-04 9.03498E-06 1.65436E-24
 -1       815 1.61026E-04 7.93642E-06-8.27181E-25
 -1       816 1.61288E-04 6.89368E-06 1.65436E-24
 -1       817 1.61528E-04 5.90981E-06-1.65436E-24
 -1       818 1.61745E-04 4.98788E-06-1.65436E-24
 -1       819 1.61938E-04 4.13094E-06 0.00000E+00
 -1       820 1.62106E-04 3.34199E-06 0.00000E+00
 -1       821 1.58027E-04 8.62912E-07 0.00000E+00
 -1       822 1.57905E-04-5.16199E-07-1.65436E-24
 -1       823 1.57784E-04-2.02365E-06 0.00000E+00
 -1       824 1.57662E-04-3.50600E-06 0.00000E+00
 -1       825 1.57540E-04-4.81616E-06 3.30872E-24
 -1       826 1.57418E-04-5.80793E-06-1.65436E-24
 -1       827 1.57296E-04-6.41362E-06 0.00000E+00
 -1       828 1.57174E-04-6.56768E-06-1.65436E-24
 -1       829 1.57052E-04-6.31587E-06 0.00000E+00
 -1       830 1.56931E-04-5.70618E-06 1.65436E-24
 -1       831 1.56809E-04-4.87480E-06 0.00000E+00
 -1       832 1.56687E-04-3.95918E-06 1.65436E-24
 -1       833 1.56565E-04-3.11753E-06 0.00000E+00
 -1       834 1.56445E-04-2.50764E-06 0.00000E+00
 -1       835 1.56325E-04-2.23035E-06-8.27181E-25
 -1       836 1.59012E-04 2.07112E-06-3.30872E-24
 -1       837 1.59767E-04 2.18391E-06 0.00000E+00
 -1       838 1.60438E-04 2.29658E-06 6.61744E-24
 -1       839 1.61054E-04 2.40858E-06-8.27181E-25
 -1       840 1.61648E-04 2.52040E-06 0.00000E+00
 -1       856 1.56192E-04-2.68856E-06 0.00000E+00
 -1       857 1.56169E-04-2.86763E-06 5.16988E-26
 -1       858 1.56146E-04-2.94136E-06 4.13590E-25
 -1       859 1.56122E-04-2.92930E-06 0.00000E+00
 -1       860 1.56099E-04-2.85109E-06 8.27181E-25
 -1       861 1.56075E-04-2.72642E-06 0.00000E+00
 -1       862 1.56052E-04-2.57504E-06 0.00000E+00
 -1       863 1.56028E-04-2.41670E-06-4.13590E-25
 -1       864 1.56004E-04-2.27117E-06-8.27181E-25
 -1       865 1.55981E-04-2.15821E-06-4.13590E-25
 -1       866 1.55957E-04-2.09753E-06 0.00000E+00
 -1       867 1.55933E-04-2.10884E-06-4.13590E-25
 -1       868 1.55909E-04-2.21173E-06 0.00000E+00
 -1       869 1.55885E-04-2.42575E-06 0.00000E+00
 -1       870 1.55861E-04-2.77033E-06-8.27181E-25
 -1       871 1.56772E-04-2.38740E-06 8.27181E-25
 -1       872 1.57464E-04-2.39303E-06 0.00000E+00
 -1       873 1.58229E-04-2.39924E-06 0.00000E+00
 -1       874 1.59006E-04-2.40610E-06-2.06795E-25
 -1       875 1.59736E-04-2.41352E-06-1.44757E-24
 -1       876 1.56441E-04-2.67588E-06 0.00000E+00
 -1       877 1.56650E-04-2.90600E-06-1.65436E-24
 -1       878 1.56839E-04-3.08238E-06 0.00000E+00
 -1       879 1.57011E-04-3.21179E-06 0.00000E+00
 -1       880 1.57167E-04-3.30106E-06 0.00000E+00
 -1       881 1.57312E-04-3.35698E-06 0.00000E+00
 -1       882 1.57446E-04-3.38632E-06 0.00000E+00
 -1       883 1.57573E-04-3.39585E-06 0.00000E+00
 -1       884 1.57695E-04-3.39232E-06 3.30872E-24
 -1       885 1.57815E-04-3.38248E-06 0.00000E+00
 -1       886 1.57934E-04-3.37310E-06 3.30872E-24
 -1       887 1.58057E-04-3.37096E-06-1.65436E-24
 -1       888 1.58184E-04-3.38281E-06 0.00000E+00
 -1       889 1.58319E-04-3.41557E-06-8.27181E-25
 -1       890 1.58463E-04-3.47597E-06 0.00000E+00
 -1       891 1.56432E-04-3.31640E-06 1.65436E-24
 -1       892 1.57006E-04-3.36816E-06 0.00000E+00
 -1       893 1.57535E-04-3.41986E-06-8.27181E-25
 -1       894 1.57995E-04-3.47138E-06-4.13590E-25
 -1       895 1.58363E-04-3.52273E-06 4.13590E-25
 -1       956 1.62133E-04 2.05528E-06 0.00000E+00
 -1       957 1.62015E-04 1.56405E-06 8.27181E-25
 -1       958 1.61897E-04 1.14141E-06 0.00000E+00
 -1       959 1.61778E-04 7.77929E-07 0.00000E+00
 -1       960 1.61660E-04 4.64154E-07 0.00000E+00
 -1       961 1.61541E-04 1.90593E-07 1.65436E-24
 -1       962 1.61423E-04-5.22517E-08 0.00000E+00
 -1       963 1.61304E-04-2.73894E-07 1.65436E-24
 -1       964 1.61186E-04-4.83843E-07 0.00000E+00
 -1       965 1.61067E-04-6.91607E-07 0.00000E+00
 -1       966 1.60949E-04-9.06705E-07 0.00000E+00
 -1       967 1.60830E-04-1.13864E-06 0.00000E+00
 -1       968 1.60712E-04-1.39692E-06 0.00000E+00
 -1       969 1.60594E-04-1.69103E-06 0.00000E+00
 -1       970 1.60476E-04-2.03041E-06 0.00000E+00
 -1       971 1.60251E-04-2.80947E-06 0.00000E+00
 -1       972 1.60142E-04-3.10540E-06 0.00000E+00
 -1       973 1.60033E-04-3.32179E-06-3.30872E-24
 -1       974 1.59923E-04-3.46891E-06 1.65436E-24
 -1       975 1.59813E-04-3.55699E-06 3.30872E-24
 -1       976 1.59704E-04-3.59630E-06 0.00000E+00
 -1       977 1.59594E-04-3.59715E-06-3.30872E-24
 -1       978 1.59484E-04-3.56981E-06-1.65436E-24
 -1       979 1.59375E-04-3.52460E-06 0.00000E+00
 -1       980 1.59265E-04-3.47180E-06-1.65436E-24
 -1       981 1.59155E-04-3.42174E-06 0.00000E+00
 -1       982 1.59046E-04-3.38470E-06 1.65436E-24
 -1       983 1.58937E-04-3.37100E-06 0.00000E+00
 -1       984 1.58828E-04-3.39092E-06 3.30872E-24
 -1       985 1.58719E-04-3.45474E-06 0.00000E+00
 -3
    1PSTEP                        16           8           1          
  100CL  108 6.09375E-01         409                     0    8           1
 -4  STRESS      6    1
 -5  SXX         1    4    1    1
 -5  SYY         1    4    2    2
 -5  SZZ         1    4    3    3
 -5  SXY         1    4    1    2
 -5  SYZ         1    4    2    3
 -5  SZX         1    4    3    1
 -1         1-3.72522E+06-1.43763E+06-8.15164E+05-1.51053E+06-1.74623E-10 9.69158E-09
 -1         2 8.06549E+02-1.73370E+06 2.89037E+03 1.57462E+04 7.09989E-10 1.66493E-07
 -1         3-8.47494E+02-1.50875E+06 3.67468E+02-1.62126E+03-4.02814E-10-2.01471E-08
 -1         5-1.76702E+01 3.40716E+05 1.83061E+01 3.57798E+00-3.92664E-10-2.06128E-08
 -1         8-8.02281E+05-2.74647E+05-7.58864E+04-4.52414E+05 3.89264E-10-5.58757E-08
 -1         9 3.70833E+06-6.98725E+05 6.82269E+05-7.94427E+05 2.50933E-08 1.04774E-09
 -1        10-1.76078E+03-1.57207E+06-3.20853E+03-1.09586E+04-1.08921E-08-4.20972E-08
 -1        12-1.23039E+01 3.39025E+05 2.80620E+02-9.77183E-01-5.91172E-11 5.54497E-08
 -1        15 1.48222E+03 8.14563E+02 4.79127E+03 2.50243E+00-9.89075E-12 7.10994E-08
 -1        16 9.32643E+06-3.93378E+05 1.34354E+06-1.07998E+06 1.63758E-08 1.78426E-07
 -1        17 3.21890E+06 2.11683E+06 8.83563E+05 2.18434E+06 9.59262E-09 1.83820E-08
 -1        18 6.19896E+04 1.19014E+04-1.16618E+04-9.94712E+04 1.19553E-08 7.28369E-09
 -1        19 1.07923E+05 1.24322E+05-8.65779E+02 2.02977E+04 6.50834E-10-6.45705E-09
 -1        20-6.46933E+04-5.08367E+05-1.13521E+05 2.67452E+04 1.99482E-10 2.44290E-09
 -1        21-4.32647E+01-2.72086E+05-8.58386E+02 1.08127E+02 6.06705E-09-2.19931E-08
 -1        24 5.02686E+06 4.51418E+06 1.58551E+06 4.11906E+06-1.14155E-07-4.46841E-08
 -1        25-8.01868E+03-2.22226E+05-2.53306E+04-3.69590E+05-4.27099E-10 1.89064E-08
 -1        26-4.60286E+04 8.06679E+04-2.14828E+04-1.60740E+03 8.10178E-10-3.51122E-09
 -1        27-7.09657E+04-2.75727E+05-1.01712E+05 6.17202E+04 4.75772E-09 1.20781E-09
 -1        28 2.06859E+04-7.74346E+04 1.54916E+04 2.05054E+04-1.13783E-09-1.75010E-09
 -1        32-1.53456E+06-2.69160E+06-1.39427E+05-3.06876E+04-3.35604E-08-5.10857E-09
 -1        33-1.60241E+05 8.10986E+04 2.86126E+04-3.58687E+04-1.33976E-09 2.18285E-08
 -1        34-2.01197E+05-2.15502E+04 5.79736E+02 6.60162E+04-1.76089E-09 8.35068E-10
 -1        35-2.11979E+04-3.07312E+04-1.21857E+03 4.73704E+04-3.87629E-10 3.96661E-09
 -1        51 4.06034E+04-2.52541E+05 8.95620E+04-7.37809E+05 2.18279E-10-4.85306E-08
 -1        52 1.57749E+04-2.39605E+05 4.97395E+04-8.60294E+05-4.00178E-11-6.38684E-08
 -1        53 5.65495E+03-2.54552E+05 3.02717E+04-7.35152E+05 1.63709E-10-1.02955E-07
 -1        54 1.39527E+04-2.51541E+05 3.36941E+04-8.63047E+05-1.01863E-10 7.63976E-09
 -1        55 2.87094E+04-2.62325E+05 5.12818E+04-7.34768E+05 7.49424E-10 1.71785E-08
 -1        56-7.06199E+06-7.95322E+05-6.02298E+05-2.75157E+06-9.35688E-09-3.69619E-08
 -1        57-7.39303E+06-1.25197E+06-4.06195E+05-2.62485E+06 9.22410E-09 1.33874E-07
 -1        58-7.16430E+06-1.00516E+06-1.41528E+05-2.73438E+06-6.56291E-09 5.65997E-08
 -1        59-7.27860E+06-1.00202E+06-8.44030E+04-2.64187E+06 9.54242E-09-5.59421E-08
 -1        60-7.17490E+06-1.03853E+06-3.29199E+04-2.73684E+06 1.28239E-09-4.03670E-08
 -1        61-7.26004E+06-9.68789E+05-1.86644E+04-2.64564E+06 3.03300E-08-1.39044E-08
 -1        62-7.18243E+06-1.03751E+06-8.99079E+03-2.73081E+06-8.86257E-09 3.47191E-08
 -1        63-7.23751E+06-9.83813E+05-7.11808E+03-2.66707E+06 3.13878E-08 1.44897E-07
 -1        64-7.19681E+06-1.02378E+06-8.41142E+03-2.71501E+06-5.58248E-09 5.87204E-09
 -1        65-7.20746E+06-1.01860E+06-1.62233E+04-2.70212E+06 4.52246E-09-1.02187E-07
 -1        66-7.21218E+06-1.00305E+06-2.90014E+04-2.69549E+06 3.50155E-10-4.29209E-08
 -1        67-7.19383E+06-1.07793E+06-7.33512E+04-2.73425E+06-2.29466E-09-6.96855E-09
 -1        68-7.21119E+06-9.64964E+05-1.23176E+05-2.68299E+06 2.24463E-09 3.01588E-08
 -1        69-7.29412E+06-1.29663E+06-3.53572E+05-2.72240E+06-2.22590E-08 5.21832E-08
 -1        70-7.11432E+06-7.89546E+05-5.24019E+05-2.70615E+06 4.97676E-09 5.43951E-08
 -1        86-5.02080E+02-1.74073E+06 1.75839E+03-7.87287E+03-3.48558E-09-8.23638E-09
 -1        87 2.33773E+03-1.73509E+06 5.04979E+03 2.66084E+04-6.13841E-09-1.35242E-07
 -1        88-1.85829E+03-1.73955E+06 7.01503E+03-1.87353E+04-6.38147E-09 2.82853E-08
 -1        89 1.36678E+04-1.73177E+06 1.91429E+04 3.67433E+04-9.41282E-09 1.24345E-07
 -1        90-1.16400E+04-1.74422E+06 2.67899E+04-1.80091E+04-5.60067E-09-2.08895E-08
 -1       121-1.17849E+03-1.51164E+06-1.55444E+02 8.06419E+02 1.13124E-09-1.26165E-08
 -1       122-6.96066E+02-1.50875E+06 7.40089E+02-3.24014E+03-4.00887E-09-1.07102E-08
 -1       123-1.22549E+03-1.51175E+06 6.64625E+02 2.40866E+03 3.31966E-09-5.28598E-09
 -1       124 8.09618E+02-1.50813E+06 2.95992E+03-6.79673E+03-7.89123E-09 2.27828E-08
 -1       125-2.06481E+03-1.51259E+06 3.94836E+03 4.34416E+03 5.03496E-09-2.18279E-11
 -1       191-1.86832E+01 3.40742E+05 2.15825E+01-1.78548E+00 1.53122E-10-1.49157E-08
 -1       192-1.54020E+01 3.40718E+05 3.97074E+01 1.78452E+01 2.59860E-10-2.34068E-08
 -1       193-1.11482E+01 3.40739E+05 7.41254E+01-1.60410E+01 5.67638E-10-1.58125E-08
 -1       194 2.14239E+01 3.40733E+05 1.59392E+02 1.45430E+02 4.59750E-10 1.12173E-08
 -1       195 9.73639E+01 3.40724E+05 3.18170E+02-1.29414E+02 9.56788E-10 2.75577E-08
 -1       251-2.08205E+06-2.07396E+04-1.81040E+05 1.00077E+05-1.56069E-09-1.43300E-08
 -1       252-1.25760E+06 2.29794E+04 3.83693E+04-3.50768E+05-6.47242E-09-6.13527E-08
 -1       253-1.74613E+06-1.13488E+04-3.62625E+04 2.49833E+05-4.55566E-09-2.18461E-08
 -1       254-1.65090E+06 4.66086E+04 5.72261E+03-5.02412E+05 2.49827E-08-1.28868E-07
 -1       255-1.72822E+06-1.18791E+04-1.43351E+04 2.54585E+05-6.88578E-09-3.85221E-08
 -1       256-1.28957E+06 3.96840E+04 8.18710E+04-3.70161E+05-7.61702E-09 2.03444E-07
 -1       257-2.07192E+06-3.35973E+04-8.44884E+04 1.14891E+05 8.50741E-09 1.88587E-07
 -1       258-9.05868E+05 3.05483E+04 1.55070E+05-1.33373E+03 7.01275E-08-6.31048E-08
 -1       259-2.07404E+06-3.37790E+04-8.34438E+04-1.12613E+05 4.40123E-08-7.96065E-08
 -1       260-1.28428E+06 4.06462E+04 8.68798E+04 3.68658E+05-6.73663E-09-1.06195E-08
 -1       261-1.73097E+06-1.30034E+04-7.11391E+03-2.53392E+05-7.26968E-08-6.10170E-08
 -1       262-1.64622E+06 5.52259E+04 2.46792E+04 5.02915E+05 4.18430E-08-1.31604E-07
 -1       263-1.74806E+06-1.87977E+04-5.33159E+03-2.49558E+05-1.58616E-08-1.88511E-08
 -1       264-1.23465E+06 8.11486E+04 1.20653E+05 3.54256E+05-9.60003E-08 6.37269E-08
 -1       265-2.10342E+06-7.09173E+04-6.26599E+04-1.01916E+05-3.33530E-08 1.14813E-07
 -1       266-2.68329E+04-1.25467E+04 6.29596E+04-5.35458E+01 1.20053E-10-3.00943E-08
 -1       267 3.11070E+04 1.46240E+04 4.44980E+04 6.17793E+01 3.12866E-10-6.41366E-08
 -1       268-4.17138E+03-2.07114E+03 1.65397E+04-7.87187E+00 2.08274E-10 4.27288E-08
 -1       269 4.92519E+03 2.47875E+03 1.07505E+04 9.16943E+00 6.78710E-11 1.22208E-09
 -1       270-7.39277E+02-4.07276E+02 5.18943E+03-1.24436E+00-2.34991E-10-2.24568E-08
 -1       271-2.43999E+06-2.98278E+05-1.82327E+05-9.40448E+05 9.83346E-09 1.34271E-07
 -1       272-2.54424E+06-3.93675E+05-1.17393E+05-8.96052E+05-1.04251E-08 5.27070E-08
 -1       273-2.47343E+06-3.44797E+05-4.30372E+04-9.33299E+05 5.93491E-09 2.04946E-08
 -1       274-2.50458E+06-3.36989E+05-2.41440E+04-9.07047E+05 1.72204E-08 2.15767E-07
 -1       275-2.47851E+06-3.49283E+05-1.00327E+04-9.31461E+05 8.75843E-10 8.86903E-08
 -1       276-2.49726E+06-3.32747E+05-5.28548E+03-9.10568E+05 2.22190E-09 4.87394E-08
 -1       277-2.48039E+06-3.48598E+05-2.63242E+03-9.29822E+05 7.52971E-09 4.59222E-08
 -1       278-2.49350E+06-3.35078E+05-1.74080E+03-9.13944E+05-1.06852E-08 5.97699E-08
 -1       279-2.48204E+06-3.47044E+05-1.90096E+03-9.27942E+05 1.47402E-08 2.31116E-08
 -1       280-2.49017E+06-3.38883E+05-3.14569E+03-9.17734E+05 1.20435E-08 4.19295E-08
 -1       281-2.48356E+06-3.44928E+05-5.88538E+03-9.25902E+05-3.47973E-09 5.32420E-08
 -1       282-2.48904E+06-3.46395E+05-1.37403E+04-9.21422E+05 1.04228E-08 9.38101E-08
 -1       283-2.48314E+06-3.39924E+05-2.46462E+04-9.24077E+05 1.79589E-08-4.85670E-09
 -1       284-2.50667E+06-3.83557E+05-6.68202E+04-9.20736E+05 1.76178E-08 2.88219E-09
 -1       285-2.46648E+06-3.11089E+05-1.04025E+05-9.25407E+05-2.44981E-08-2.35159E-08
 -1       301 1.94562E+04-3.44784E+05 1.73021E+05-6.24655E+05 1.12777E-09 7.10352E-08
 -1       302 2.09341E+04-3.01156E+05 1.07671E+05-9.13717E+05-8.84029E-10 4.16330E-08
 -1       303-1.88983E+03-3.28739E+05 7.12174E+04-6.23204E+05 5.45697E-10-7.88204E-08
 -1       304 1.36717E+04-3.02640E+05 8.97008E+04-9.13059E+05 1.38243E-10 7.47677E-08
 -1       305 1.02497E+04-3.35218E+05 1.32700E+05-6.25292E+05-7.27596E-12 9.43182E-08
 -1       306-1.78557E+07-3.25728E+06-4.32294E+06-1.85240E+06-5.33182E-08-2.70084E-08
 -1       307 1.10094E+07-5.64712E+05 2.59295E+06-8.08121E+06-5.33066E-07-4.94765E-08
 -1       308-8.17364E+06 1.07116E+05-4.05672E+05 2.38455E+06-6.20494E-08 1.14635E-07
 -1       309-3.22524E+06 8.15720E+05 8.27090E+05-1.32071E+07 2.49975E-07 2.24027E-08
 -1       310-9.17981E+06-5.52246E+04-6.04186E+05 2.19448E+06 7.63102E-08-2.13186E-08
 -1       311 1.33028E+07-1.25844E+06 3.09356E+06-6.50174E+06 6.18689E-07-6.98492E-10
 -1       312-1.80946E+07-3.23759E+06-3.78779E+06-2.79143E+06 1.26834E-07 8.62638E-08
 -1       313 2.00119E+07 4.42685E+06 5.02790E+06 8.37996E+06-2.65340E-07-3.27564E-08
 -1       314-1.28041E+07-7.79156E+06-3.59157E+06-7.33352E+06 7.02566E-08-5.67525E-08
 -1       315-2.25059E+06 1.24085E+07 2.79926E+06 6.61163E+06-3.71037E-07-3.57104E-08
 -1       316-1.97661E+06-6.26762E+06-3.49814E+05-4.35096E+06-7.41056E-07-1.97120E-07
 -1       317-1.45300E+07 1.20741E+07 8.06989E+05-1.42937E+06 3.70539E-07-4.46198E-07
 -1       318-2.46893E+06-6.54465E+06-6.81625E+05-4.54710E+06-6.42991E-07-4.49654E-08
 -1       319-5.28472E+05 1.27906E+07 2.81412E+06 7.16226E+06-1.33849E-07 1.22120E-07
 -1       320-1.37298E+07-8.09459E+06-4.63619E+06-7.20429E+06 1.11351E-07-3.93629E-08
 -1       336 1.40656E+02-1.63641E+06-1.16909E+04 6.54199E+03-2.08356E-08-1.19981E-08
 -1       337-4.46273E+03-1.63739E+06-1.47914E+04-1.58440E+04-3.76835E-08 3.61979E-09
 -1       338 6.26200E+02-1.63615E+06-2.21514E+04 9.18913E+03-2.68446E-08 8.47285E-09
 -1       339-2.35230E+04-1.65018E+06-5.00041E+04-2.10076E+04-4.78403E-08 2.30721E-08
 -1       340 1.57333E+04-1.62485E+06-7.83514E+04 1.16285E+04-3.12975E-08 3.39351E-08
 -1       406-1.15972E+02 3.37328E+05 3.72147E+02 1.30341E+02-9.19499E-10 1.18598E-09
 -1       407 1.37074E+02 3.37407E+05 1.09125E+03-1.34910E+02-2.22713E-10-3.41643E-08
 -1       408 5.83369E+02 3.37234E+05 2.31788E+03 4.26275E+00-1.17154E-09-2.21280E-08
 -1       409 2.53327E+03 3.38173E+05 5.28860E+03 1.15997E+02-1.95087E-10-3.67891E-09
 -1       410 7.31195E+03 3.36561E+05 1.08267E+04-1.27253E+02-1.31240E-09-1.87847E-08
 -1       521-1.98474E+07-4.07274E+06-5.23003E+06-1.80223E+06-6.67060E-08 1.79454E-07
 -1       522 1.17708E+07-5.10338E+05 2.71880E+06-1.03392E+07-3.73024E-07-3.08122E-07
 -1       523-9.39083E+06-3.89741E+04-4.57116E+05 2.78955E+06 8.63511E-08-2.84719E-07
 -1       524-5.25974E+06 1.98351E+06 9.44060E+05-1.59682E+07 6.67846E-07-4.62675E-07
 -1       525-1.05425E+07-2.84145E+05-6.96624E+05 2.57502E+06 6.03643E-07-5.23723E-08
 -1       526 1.48268E+07-1.42105E+06 3.39049E+06-8.39685E+06 2.44123E-07-1.02751E-07
 -1       527-2.01758E+07-4.16124E+06-4.50698E+06-2.88381E+06 1.33819E-07 9.72068E-09
 -1       528 2.26887E+07 4.90655E+06 5.45631E+06 9.77357E+06 2.14379E-07 1.53523E-08
 -1       529-1.42038E+07-9.30020E+06-4.26671E+06-7.96042E+06 1.89117E-07-2.06346E-07
 -1       530-3.87308E+06 1.51174E+07 3.08123E+06 7.15432E+06-2.86731E-07 2.37749E-07
 -1       531-2.28922E+06-7.44185E+06-3.84757E+05-4.89762E+06-5.42990E-07 3.96394E-08
 -1       532-1.77619E+07 1.44372E+07 9.45134E+05-3.13525E+06 4.31566E-07-4.78154E-07
 -1       533-2.76230E+06-7.71999E+06-7.37077E+05-5.06530E+06-5.06407E-08-7.06699E-07
 -1       534-2.09473E+06 1.55631E+07 3.07254E+06 7.76025E+06-8.56890E-08 5.03322E-07
 -1       535-1.51598E+07-9.68349E+06-5.42201E+06-7.80802E+06 4.57512E-08 3.19851E-07
 -1       536-5.77481E+05-3.84120E+04-3.63951E+03-3.76516E+04-4.08227E-09 6.06851E-08
 -1       537-1.80063E+05 3.87150E+04 6.73739E+04 8.99436E+04-8.49735E-08 7.47186E-08
 -1       538-3.87554E+05 4.72488E+02 8.69107E+03-5.43772E+04 1.05194E-08 7.36745E-08
 -1       539-3.12387E+05 3.11037E+03 1.86180E+04 1.02884E+05 9.90581E-08 9.14025E-08
 -1       540-4.48338E+05-2.03714E+02-1.09543E+04-5.08310E+04 1.58573E-08 9.41083E-08
 -1       541-6.25598E+04 1.02695E+04 6.46847E+04 6.89612E+04 3.59441E-08 5.96673E-08
 -1       542-6.30679E+05-1.22256E+04-5.03426E+04-2.00601E+04 3.70505E-08 3.22017E-08
 -1       543 9.10343E+04 1.64479E+04 9.45602E+04-1.05212E+04-1.84045E-08-9.88075E-09
 -1       544-5.97841E+05-9.74555E+03-4.46149E+04 2.83398E+04-2.43795E-08-4.17371E-08
 -1       545-1.38062E+05 5.13280E+03 4.63114E+04-8.25728E+04 3.21634E-08-6.54593E-08
 -1       546-4.07684E+05 4.10685E+03-7.89422E+03 5.18440E+04 3.26431E-08-4.40227E-08
 -1       547-3.25291E+05-4.52399E+03 3.22159E+03-1.05272E+05-1.04639E-07-8.44772E-08
 -1       548-4.15591E+05 4.02641E+03-1.87698E+04 5.13524E+04-7.87149E-08-7.39533E-08
 -1       549-1.23514E+05 1.17223E+03 2.48483E+04-7.97097E+04-5.00418E-08-6.05964E-08
 -1       550-6.04020E+05-6.09005E+03-9.44216E+04 2.59500E+04 5.39421E-09-2.96604E-08
 -1       551 3.11307E+04-7.30327E+05 7.45527E+03-1.13870E+06-8.00792E-08 4.10364E-09
 -1       552 6.98241E+04-7.59231E+05 2.29752E+04-1.62341E+06-5.83095E-08 4.15312E-08
 -1       553 5.22512E+04-7.60593E+05 4.07004E+04-1.13343E+06-9.48567E-08 3.64817E-08
 -1       554 1.02868E+05-7.66058E+05 9.10638E+04-1.62530E+06-5.75528E-08 1.74477E-08
 -1       555 8.16031E+04-7.81992E+05 1.63196E+05-1.13378E+06-9.72504E-08-1.73168E-09
 -1       556 1.70916E+05-3.02625E+05 5.20455E+04-3.45329E+05-1.99943E-08-2.04309E-08
 -1       557 2.81414E+05-3.91337E+05 2.87631E+04-4.41469E+05-5.64614E-09-6.45741E-10
 -1       558 1.60780E+05-3.03716E+05 9.37626E+03-3.43368E+05-1.76660E-08 9.93168E-09
 -1       559 2.61488E+05-3.96369E+05 5.44488E+03-4.55127E+05 1.53523E-08-1.39735E-08
 -1       560 1.51087E+05-2.97579E+05 9.21281E+02-3.50172E+05 1.80444E-09 2.96859E-09
 -1       561 2.48935E+05-3.91622E+05 9.93278E+02-4.63513E+05-6.40284E-09 6.98492E-10
 -1       562 1.43447E+05-2.92773E+05-3.30960E+02-3.55668E+05-3.66708E-09-1.78788E-08
 -1       563 2.39911E+05-3.87688E+05 2.19989E+02-4.69362E+05 1.52795E-10-5.50972E-09
 -1       564 1.38143E+05-2.89451E+05-2.01010E+02-3.59416E+05 5.95173E-09 5.27871E-09
 -1       565 2.34187E+05-3.85197E+05 9.52940E+01-4.73007E+05 5.62795E-09 7.22048E-09
 -1       566 1.35259E+05-2.87618E+05-9.41907E+01-3.61437E+05-2.06637E-09-6.84486E-09
 -1       567 2.31760E+05-3.84136E+05-2.03651E+02-4.74438E+05 1.14524E-08 4.06362E-09
 -1       568 1.34859E+05-2.87384E+05-7.19521E+02-3.61811E+05-4.60068E-09 6.47924E-09
 -1       569 2.31494E+05-3.84109E+05-1.81490E+03-4.72756E+05-6.29097E-09 4.93310E-09
 -1       570 1.37848E+05-2.90040E+05-4.05762E+03-3.61078E+05 3.13594E-09 1.47520E-09
 -1       571 2.54954E+05 9.28226E+03 1.34775E+04-7.53261E+04 1.20745E-08 1.77624E-08
 -1       572 2.56932E+05 3.37455E+03 6.60416E+03-8.26352E+04 2.17228E-08 1.03146E-08
 -1       573 2.55744E+05 9.48641E+02 2.93426E+03-7.51745E+04 8.64429E-09-5.39649E-09
 -1       574 2.55958E+05 4.62364E+02 1.47094E+03-8.28191E+04 1.65073E-09 2.23918E-09
 -1       575 2.55832E+05 2.29639E+02 6.94001E+02-7.51541E+04-2.59547E-09-5.73436E-09
 -1       576 2.55833E+05 2.23295E+02 3.54754E+02-8.28436E+04-5.76051E-09 1.06793E-08
 -1       577 2.55858E+05 1.82903E+02 1.76775E+02-7.51513E+04-1.74259E-09 1.09740E-08
 -1       578 2.55843E+05 1.98490E+02 1.01017E+02-8.28468E+04-1.99361E-09-8.59745E-09
 -1       579 2.55901E+05 1.62984E+02 6.87242E+01-7.51511E+04-5.36602E-09-8.28550E-09
 -1       580 2.55903E+05 1.69573E+02 7.74415E+01-8.28427E+04-2.38979E-08 1.07038E-08
 -1       581 2.55970E+05 1.30375E+02 1.16967E+02-7.51557E+04-5.92809E-09-2.85127E-09
 -1       582 2.56015E+05 1.57833E+02 2.35146E+02-8.27942E+04 1.55433E-09-6.26642E-09
 -1       583 2.56051E+05 1.87756E+02 4.53828E+02-7.51998E+04 1.95723E-09-1.59544E-08
 -1       584 2.56284E+05 5.53233E+02 1.02378E+03-8.24231E+04 3.52338E-09-1.52500E-09
 -1       585 2.56032E+05 1.43518E+03 2.07709E+03-7.55266E+04-7.85803E-10-1.31331E-08
 -1       586-3.10035E+03 9.31990E+04-3.22317E+03-2.24223E+05-3.47518E-09 1.31422E-10
 -1       587-9.69531E+02 9.28544E+04 3.02916E+02-2.46792E+05-4.50746E-09-2.68392E-09
 -1       588 6.12900E+02 9.27921E+04 3.91402E+03-2.24110E+05-2.48110E-09 1.10713E-08
 -1       589 4.67948E+03 9.48645E+04 1.04833E+04-2.46553E+05-4.98039E-09-9.40145E-09
 -1       590 1.45196E+04 9.16437E+04 2.21211E+04-2.24496E+05-2.18188E-09 2.79215E-09
 -1       591-5.87886E+04-1.36411E+04-1.88014E+04-2.63683E+04-4.37012E-09 4.01360E-09
 -1       592-6.18333E+04-1.69775E+04-1.01842E+04-2.98120E+04 1.36640E-09 4.02315E-09
 -1       593-6.06720E+04-1.22736E+04-4.23931E+03-2.77439E+04 2.11978E-09-5.66160E-09
 -1       594-5.92324E+04-1.42241E+04-2.11430E+03-2.99169E+04-2.85669E-09 5.11065E-09
 -1       595-6.08158E+04-1.22688E+04-9.70920E+02-2.78065E+04 3.26615E-09 1.67314E-08
 -1       596-5.90547E+04-1.40981E+04-4.93819E+02-2.98963E+04 4.20664E-09 3.45423E-09
 -1       597-6.08338E+04-1.22815E+04-2.69412E+02-2.78088E+04 7.08076E-09-2.36020E-09
 -1       598-5.90372E+04-1.40932E+04-2.17521E+02-2.98905E+04-1.83815E-09-3.93595E-09
 -1       599-6.08326E+04-1.22819E+04-2.79032E+02-2.78085E+04-2.35434E-09-7.91306E-09
 -1       600-5.90551E+04-1.40990E+04-5.19291E+02-2.98948E+04-1.16870E-10-9.74927E-09
 -1       601-6.08114E+04-1.22695E+04-1.02493E+03-2.78053E+04 1.35697E-09-3.43653E-09
 -1       602-5.92426E+04-1.42312E+04-2.23398E+03-2.99134E+04-1.57104E-09-8.41919E-09
 -1       603-6.06572E+04-1.22771E+04-4.48019E+03-2.77397E+04-9.53605E-10 3.24690E-09
 -1       604-6.20059E+04-1.71248E+04-1.07623E+04-2.97818E+04 2.54062E-09-7.69433E-10
 -1       605-5.86497E+04-1.37371E+04-1.98689E+04-2.63022E+04 3.88445E-09 1.69957E-08
 -1       606 2.70519E+04-1.23947E+04-2.22458E+04 2.52778E+04 2.32467E-09 5.78939E-09
 -1       607 2.32483E+04-4.03431E+03-1.10779E+04 2.83915E+04-1.47338E-09 3.61251E-09
 -1       608 2.54119E+04-7.14911E+02-4.95984E+03 2.50878E+04-3.79077E-09 1.00081E-08
 -1       609 2.49917E+04-2.28550E+02-2.50536E+03 2.86153E+04-2.32831E-10 1.55296E-09
 -1       610 2.52211E+04-1.57561E+01-1.19584E+03 2.50660E+04-7.20775E-09 5.47107E-09
 -1       611 2.51505E+04-1.03562E+01-6.02920E+02 2.86396E+04-1.29071E-08 6.30257E-09
 -1       612 2.51754E+04-7.92953E-01-2.87164E+02 2.50638E+04-5.25597E-09-8.20455E-09
 -1       613 2.51555E+04-3.94728E+00-1.29120E+02 2.86425E+04-1.52841E-09-8.48195E-09
 -1       614 2.51522E+04-3.82898E+00-3.16209E+01 2.50630E+04-2.41471E-09-3.92674E-10
 -1       615 2.51468E+04-4.22336E-01 5.10790E+01 2.86429E+04-9.23137E-10 3.26827E-09
 -1       616 2.51343E+04 7.17323E-01 1.55929E+02 2.50633E+04-1.25192E-09 2.00316E-10
 -1       617 2.51626E+04 3.46420E+01 3.56960E+02 2.86424E+04-6.09361E-10 1.83263E-09
 -1       618 2.51011E+04 1.05031E+02 7.19880E+02 2.50635E+04-1.87219E-09-1.43939E-08
 -1       619 2.54149E+04 5.92407E+02 1.61685E+03 2.86417E+04-1.55751E-10-1.99702E-09
 -1       620 2.48609E+04 1.81310E+03 3.24986E+03 2.50635E+04 1.08128E-09 4.00041E-09
 -1       621 3.62145E+02 2.62059E+05 3.07301E+03 2.72434E+04 5.53200E-10-4.87853E-09
 -1       622 4.60947E+02 2.62793E+05 2.79876E+03 3.95909E+04 6.08452E-10-1.17298E-08
 -1       623 6.19162E+01 2.62225E+05 3.45992E+03 2.71171E+04 6.60407E-10 4.78030E-09
 -1       624 1.70537E+03 2.63886E+05 6.78427E+03 3.97172E+04 5.65990E-10-7.09679E-09
 -1       625 1.69422E+03 2.60885E+05 1.18930E+04 2.71143E+04 8.44011E-10-1.54789E-08
 -1       626 2.29584E+05 5.70575E+04 4.77747E+03 1.15294E+05 9.43146E-10-9.09858E-09
 -1       627 2.27244E+05 5.85389E+04 2.30220E+03 1.19476E+05 3.25963E-09-1.98240E-08
 -1       628 2.29715E+05 5.48563E+04 9.73230E+02 1.16086E+05-6.09361E-10 4.04452E-09
 -1       629 2.26629E+05 5.79246E+04 4.76399E+02 1.19719E+05-2.05137E-09-4.52042E-09
 -1       630 2.29726E+05 5.47510E+04 2.20579E+02 1.16117E+05 2.14459E-09-1.23489E-08
 -1       631 2.26560E+05 5.79035E+04 1.18213E+02 1.19720E+05 5.36443E-09 1.50468E-08
 -1       632 2.29720E+05 5.47564E+04 7.69336E+01 1.16111E+05-3.46245E-09-1.87229E-08
 -1       633 2.26549E+05 5.79069E+04 8.43796E+01 1.19715E+05-1.70076E-09-1.87924E-09
 -1       634 2.29713E+05 5.47554E+04 1.35178E+02 1.16108E+05-9.10859E-10-5.49562E-10
 -1       635 2.26560E+05 5.79066E+04 2.72855E+02 1.19717E+05-2.82756E-09 2.00907E-09
 -1       636 2.29703E+05 5.47516E+04 5.50660E+02 1.16107E+05-8.21956E-09-1.40835E-09
 -1       637 2.26677E+05 5.79927E+04 1.21034E+03 1.19715E+05-1.24728E-08 2.11503E-09
 -1       638 2.29659E+05 5.50197E+04 2.48688E+03 1.15985E+05-1.21281E-09 1.65992E-08
 -1       639 2.27983E+05 5.98093E+04 5.88371E+03 1.19329E+05 3.19915E-10 1.52522E-08
 -1       640 2.29481E+05 6.04413E+04 1.22098E+04 1.13695E+05 1.94041E-09 3.02862E-09
 -1       656 5.94748E+04-1.51714E+06-1.43572E+05-1.42610E+03 2.91038E-11-1.21254E-08
 -1       657-7.86565E+04-1.58199E+06-1.18887E+05 6.45636E+03-7.82165E-11-1.54572E-08
 -1       658 1.89351E+04-1.53558E+06-7.31529E+04-3.16860E+03 1.98725E-10-5.17063E-09
 -1       659-8.48725E+04-1.58494E+06-1.27053E+05 7.80886E+03-1.13414E-09 2.42608E-10
 -1       660 6.56766E+04-1.51420E+06-1.57614E+05-2.77859E+03-1.23691E-09 8.86814E-09
 -1       661 1.62482E+05 1.72791E+04 1.65394E+04 6.35283E+04-6.45286E-10 3.45972E-09
 -1       662 1.71589E+05 2.97671E+04 1.11457E+04 6.00962E+04 1.62532E-09 9.01673E-09
 -1       663 1.65729E+05 2.25863E+04 3.89840E+03 6.25871E+04-4.24734E-10 9.71909E-09
 -1       664 1.67826E+05 2.35590E+04 2.33157E+03 6.12444E+04-1.35685E-10 5.09658E-09
 -1       665 1.66220E+05 2.33128E+04 9.19790E+02 6.24455E+04-2.04881E-09-6.55967E-09
 -1       666 1.67247E+05 2.27269E+04 5.37695E+02 6.14283E+04 1.77454E-09 5.88789E-09
 -1       667 1.66305E+05 2.33967E+04 2.85010E+02 6.24112E+04-1.84110E-09-8.50682E-09
 -1       668 1.67154E+05 2.26648E+04 2.89022E+02 6.14781E+04 3.02691E-11-9.30618E-09
 -1       669 1.66312E+05 2.33730E+04 3.90171E+02 6.23961E+04-1.55833E-09 2.75617E-09
 -1       670 1.67250E+05 2.28753E+04 8.48548E+02 6.14803E+04-2.38958E-09 8.87627E-09
 -1       671 1.66209E+05 2.31905E+04 1.50631E+03 6.24072E+04 9.50457E-10 7.02204E-09
 -1       672 1.68127E+05 2.43406E+04 3.85357E+03 6.12678E+04 3.04014E-09-5.13671E-09
 -1       673 1.65439E+05 2.19447E+04 6.45786E+03 6.25944E+04 1.55512E-09-4.81850E-09
 -1       674 1.74275E+05 3.47147E+04 1.84681E+04 5.94609E+04-1.62254E-09-1.14737E-08
 -1       675 1.60102E+05 1.31068E+04 2.74129E+04 6.41050E+04-2.04773E-09 2.62844E-09
 -1       676 2.22942E+01-2.72014E+05-1.03458E+03-5.40648E+01 4.02054E-10 1.67197E-09
 -1       677-2.74576E+02-2.72264E+05-1.89344E+03 1.08054E+02 3.57613E-09-1.54762E-08
 -1       678 1.83439E+02-2.71836E+05-3.34712E+03-5.39527E+01 3.47541E-10-1.00329E-08
 -1       679-3.34798E+03-2.74285E+05-7.95128E+03 1.07624E+02 3.60205E-09 1.11821E-09
 -1       680 1.99825E+03-2.69995E+05-1.28148E+04-5.30324E+01 2.99224E-10-2.05515E-09
 -1       771-2.85125E+06-6.36256E+05-1.15585E+05-1.31826E+06-2.97005E-08-2.03145E-08
 -1       772-2.79315E+06-7.07182E+05-6.00203E+04-1.39973E+06-2.40980E-08 1.63782E-08
 -1       773-2.87290E+06-6.19224E+05-2.96794E+04-1.32698E+06-1.40863E-08 1.02591E-08
 -1       774-2.78412E+06-6.94765E+05-1.34364E+04-1.41654E+06 1.85682E-08-1.40426E-09
 -1       775-2.88325E+06-6.11906E+05-9.44142E+03-1.33075E+06-8.58563E-09 3.55067E-09
 -1       776-2.79076E+06-6.93379E+05-3.63123E+03-1.42870E+06-1.24128E-08 3.43061E-09
 -1       777-2.89202E+06-6.05523E+05-3.95594E+03-1.33406E+06 2.60479E-09 3.08864E-09
 -1       778-2.79785E+06-6.92178E+05-1.15363E+03-1.43908E+06 7.47968E-09 5.73345E-09
 -1       779-2.89946E+06-6.00013E+05-1.91103E+03-1.33689E+06-9.24047E-09-5.88625E-09
 -1       780-2.80407E+06-6.91019E+05-3.25708E+02-1.44751E+06-3.44880E-09 3.05590E-10
 -1       781-2.90531E+06-5.95605E+05-7.25828E+02-1.33911E+06-2.34577E-08-1.11686E-09
 -1       782-2.80884E+06-6.90012E+05 2.67096E+02-1.45372E+06-3.18651E-08-4.38786E-09
 -1       783-2.90941E+06-5.92571E+05 4.24565E+02-1.34067E+06-7.80710E-09-1.23937E-08
 -1       784-2.81142E+06-6.88876E+05 1.72739E+03-1.45753E+06-1.31549E-08 4.91127E-10
 -1       785-2.91182E+06-5.90776E+05 3.05125E+03-1.34168E+06-2.50948E-08 1.02664E-08
 -1       786 1.23909E+05-9.31196E+03 2.15432E+04-2.11421E+02 1.85451E-09 5.81440E-09
 -1       787 1.33252E+05 1.07806E+04 1.52411E+04-4.24634E+01 2.26830E-09-3.87081E-09
 -1       788 1.27512E+05-1.45950E+03 5.57406E+03-1.81508E+02 2.98276E-09 1.33634E-08
 -1       789 1.29055E+05 1.68878E+03 3.49974E+03-8.95960E+01 2.04780E-10 6.54387E-09
 -1       790 1.28106E+05-2.27565E+02 1.41820E+03-1.64298E+02-2.60882E-09 6.35924E-09
 -1       791 1.28360E+05 2.63029E+02 8.21509E+02-1.19301E+02-4.35295E-09-4.25719E-09
 -1       792 1.28207E+05-3.48167E+01 3.52882E+02-1.51804E+02-2.42005E-09 4.30168E-09
 -1       793 1.28241E+05 3.85721E+01 1.86374E+02-1.42815E+02-1.37414E-09 5.68221E-09
 -1       794 1.28225E+05-3.25023E+00 6.94362E+01-1.40785E+02 2.87705E-09-4.38469E-10
 -1       795 1.28214E+05-8.49673E+00 1.28041E+00-1.65753E+02-2.33553E-09-1.40224E-09
 -1       796 1.28234E+05 1.22270E+01-5.80577E+01-1.28865E+02 1.65407E-09-3.03701E-09
 -1       797 1.28171E+05-9.44823E+01-1.86489E+02-1.92997E+02 2.95112E-09-5.66932E-09
 -1       798 1.28268E+05 8.26701E+01-3.10355E+02-1.13540E+02 1.49274E-09 7.26627E-09
 -1       799 1.27933E+05-6.10154E+02-8.60363E+02-2.30410E+02 3.98791E-09 1.44995E-08
 -1       800 1.28472E+05 5.27471E+02-1.21942E+03-9.14520E+01 1.37344E-10-4.15980E-09
 -1       801-1.41489E+04-6.80565E+06-8.61040E+05 6.98104E+05 6.53963E-08-4.84797E-08
 -1       802 2.64051E+05 9.88054E+05 9.36831E+05-7.97763E+05 1.83856E-07-2.32376E-08
 -1       803-2.43839E+05-8.60179E+06-9.26846E+05 4.60854E+05 5.94446E-08 1.99761E-08
 -1       804 9.63242E+04-9.27493E+05 6.58092E+05 4.19585E+05-7.30579E-08-6.03943E-08
 -1       805 1.17897E+05-4.90366E+06-1.47184E+05-5.16768E+05-3.03480E-08-3.55526E-08
 -1       806-2.75993E+05-5.26227E+04-2.01942E+04-1.08463E+05 8.20683E-09-2.93994E-09
 -1       807-2.77707E+05-4.92010E+04-9.92116E+03-1.13214E+05 2.46782E-08-1.94107E-08
 -1       808-2.76538E+05-4.53551E+04-4.20895E+03-1.11916E+05 2.31739E-09-6.60486E-09
 -1       809-2.75627E+05-4.64082E+04-2.05810E+03-1.13452E+05-6.86828E-09-4.19436E-09
 -1       810-2.76622E+05-4.51019E+04-9.43286E+02-1.12069E+05 5.56383E-09-2.19711E-09
 -1       811-2.75467E+05-4.62954E+04-4.69072E+02-1.13421E+05 9.77707E-10 1.77533E-09
 -1       812-2.76635E+05-4.51232E+04-2.37107E+02-1.12069E+05-2.11367E-09-4.77712E-09
 -1       813-2.75446E+05-4.62968E+04-1.53979E+02-1.13406E+05-2.32194E-09-1.49046E-08
 -1       814-2.76630E+05-4.51310E+04-1.52275E+02-1.12066E+05-1.97360E-09-9.75979E-09
 -1       815-2.75450E+05-4.62984E+04-2.45310E+02-1.13400E+05 2.02454E-09 3.64362E-08
 -1       816-2.76614E+05-4.51292E+04-4.64665E+02-1.12064E+05-1.36333E-09 2.47483E-08
 -1       817-2.75531E+05-4.63424E+04-9.97567E+02-1.13392E+05-1.24201E-08 1.83888E-08
 -1       818-2.76555E+05-4.52687E+04-2.03445E+03-1.11998E+05-6.42376E-09 9.99080E-10
 -1       819-2.76645E+05-4.75729E+04-4.78753E+03-1.13132E+05-2.35013E-09 2.11639E-09
 -1       820-2.76177E+05-4.88805E+04-9.74403E+03-1.10449E+05 3.25690E-09 2.11101E-08
 -1       821-3.39498E+05 1.87309E+04-4.33364E+04 8.65870E+02 6.59084E-09 2.23372E-09
 -1       822-3.58210E+05-2.16844E+04-3.06551E+04-1.63456E+03 1.38142E-10 1.23891E-08
 -1       823-3.46702E+05 2.93807E+03-1.12209E+04 1.07070E+03-4.45548E-09 2.95449E-09
 -1       824-3.49759E+05-3.39804E+03-7.05516E+03-1.55877E+03 2.22606E-10 1.26045E-09
 -1       825-3.47946E+05 4.58240E+02-2.91030E+03 7.90092E+02 5.97756E-09 1.21042E-09
 -1       826-3.48265E+05-5.37554E+02-1.72780E+03-6.52721E+02 7.36514E-09 1.26788E-08
 -1       827-3.48192E+05 7.74740E+01-9.27077E+02 1.64636E+02 2.06925E-09-9.31394E-09
 -1       828-3.48057E+05-1.62203E+02-7.77847E+02 6.30197E+02-1.55548E-09-2.56826E-09
 -1       829-3.48154E+05 8.28546E+01-9.40960E+02-4.92847E+02-9.80691E-11 1.09830E-08
 -1       830-3.48361E+05-5.63571E+02-1.80792E+03 1.64673E+03 8.21396E-10 7.90297E-09
 -1       831-3.47891E+05 4.80680E+02-3.01322E+03-8.51911E+02-1.89698E-09 1.86219E-09
 -1       832-3.49845E+05-3.53682E+03-7.34034E+03 1.88601E+03-1.11867E-09 1.88375E-08
 -1       833-3.46672E+05 3.05476E+03-1.16748E+04-7.32139E+02-2.68534E-09 1.94036E-08
 -1       834-3.58532E+05-2.25498E+04-3.18656E+04 1.21728E+03-1.97976E-09 1.39516E-09
 -1       835-3.39205E+05 1.94773E+04-4.50822E+04-1.83162E+02 5.08064E-09 5.84805E-09
 -1       836-1.20357E+03 3.23692E+05 1.98548E+04-1.60528E+04-3.33330E-09 4.75484E-09
 -1       837 4.27566E+03 3.29890E+05 1.68965E+04-3.24996E+04-3.47552E-09 3.83079E-09
 -1       838-4.70143E+02 3.25417E+05 1.73501E+04-1.59856E+04-2.99497E-09 3.86603E-09
 -1       839 1.10151E+04 3.34912E+05 3.29535E+04-3.25450E+04-3.03771E-09 8.06108E-09
 -1       840-3.37571E+03 3.18621E+05 5.26063E+04-1.60094E+04-2.79761E-09-7.74881E-09
 -1       856-6.38535E+04 7.76990E+03-2.04757E+04-4.03497E+02 1.78431E-09 7.60610E-09
 -1       857-7.22989E+04-9.12185E+03-1.40959E+04 5.17535E+03 1.62902E-09-3.38173E-09
 -1       858-6.71945E+04 1.08922E+03-5.31332E+03-4.26416E+02 7.00595E-10-1.04358E-08
 -1       859-6.84638E+04-1.27436E+03-3.20727E+03 5.21047E+03-2.28088E-09-5.72055E-09
 -1       860-6.76938E+04 1.52073E+02-1.34566E+03-4.38537E+02 8.42277E-10-9.25030E-09
 -1       861-6.78892E+04-1.74987E+02-7.43434E+02 5.22705E+03-1.70530E-09 3.35157E-09
 -1       862-6.77717E+04 2.03395E+01-3.15365E+02-4.42992E+02 2.09226E-09 7.54935E-09
 -1       863-6.77948E+04-1.60158E+01-1.29249E+02 5.22942E+03-1.86524E-09 2.14732E-09
 -1       864-6.77886E+04-3.33068E+00 1.33588E+01-4.40910E+02 1.82182E-09-1.93103E-09
 -1       865-6.77498E+04 4.84208E+01 1.75147E+02 5.21815E+03-3.36939E-10-1.39066E-08
 -1       866-6.78148E+04-4.42806E+01 3.69572E+02-4.31721E+02 5.47288E-10-6.42171E-09
 -1       867-6.75715E+04 3.67348E+02 9.20363E+02 5.19313E+03-2.51219E-10 7.23668E-09
 -1       868-6.79626E+04-3.16987E+02 1.53190E+03-4.15896E+02-1.82575E-09 2.55289E-09
 -1       869-6.64452E+04 2.63789E+03 4.08294E+03 5.15152E+03-1.28509E-09-5.93644E-09
 -1       870-6.89345E+04-2.25386E+03 5.92467E+03-3.90074E+02-2.79579E-09-7.93170E-09
 -1       871-5.02383E+03-1.58263E+04-1.71047E+04 1.14110E+05-1.75896E-09 1.21508E-09
 -1       872-1.97231E+03-1.97438E+04-7.09862E+03 1.47952E+05-4.89581E-09-1.31622E-08
 -1       873 1.81724E+02-1.78775E+04 6.77553E+02 1.13860E+05-2.44563E-09-6.95240E-09
 -1       874 2.76159E+03-1.56273E+04 8.95671E+03 1.47987E+05-4.91400E-09 1.24444E-08
 -1       875 6.04444E+03-2.00093E+04 2.00814E+04 1.14070E+05-2.08820E-09 8.94943E-10
 -1       876 2.64692E+05 4.49309E+04 1.37445E+04 1.06600E+05 1.97360E-10-6.94672E-09
 -1       877 2.65568E+05 4.78587E+04 7.34005E+03 1.10573E+05 3.24667E-09 1.06113E-08
 -1       878 2.65977E+05 4.34094E+04 3.07513E+03 1.07728E+05-7.16636E-09 8.70386E-10
 -1       879 2.63699E+05 4.59948E+04 1.53213E+03 1.10667E+05 2.95313E-09-1.80364E-09
 -1       880 2.66069E+05 4.33933E+04 7.13574E+02 1.07774E+05-4.50973E-09 4.99267E-09
 -1       881 2.63575E+05 4.59153E+04 3.80829E+02 1.10646E+05-1.82529E-08-1.23170E-08
 -1       882 2.66078E+05 4.34051E+04 2.43254E+02 1.07775E+05-2.04363E-09-8.99254E-09
 -1       883 2.63566E+05 4.59113E+04 2.60885E+02 1.10640E+05 4.81123E-10 1.64825E-08
 -1       884 2.66072E+05 4.34024E+04 4.14447E+02 1.07775E+05-1.86662E-09 3.26349E-09
 -1       885 2.63599E+05 4.59171E+04 8.32921E+02 1.10650E+05 1.42961E-10 9.36092E-09
 -1       886 2.66040E+05 4.33781E+04 1.67856E+03 1.07772E+05 4.41519E-09 1.22261E-08
 -1       887 2.63894E+05 4.61105E+04 3.66654E+03 1.10693E+05 6.12079E-09-3.33466E-09
 -1       888 2.65808E+05 4.34188E+04 7.38818E+03 1.07655E+05 1.70814E-09 1.01722E-08
 -1       889 2.68294E+05 5.06837E+04 1.76492E+04 1.10557E+05-3.07720E-09 1.12559E-08
 -1       890 2.62796E+05 4.69977E+04 3.30563E+04 1.04839E+05-1.77624E-09 4.68935E-09
 -1       891-1.14407E+02-1.47793E+05-1.79445E+03 2.57373E+04-5.32282E-10 8.92851E-09
 -1       892-2.09767E+02-1.48249E+05-1.93332E+03 3.90222E+04 1.14937E-09 1.33987E-08
 -1       893 5.03762E+00-1.47850E+05-2.74362E+03 2.57435E+04-4.16549E-10 7.01584E-09
 -1       894-1.41816E+03-1.49289E+05-5.68283E+03 3.88800E+04 1.10322E-09-1.61526E-09
 -1       895-1.11914E+03-1.46666E+05-1.00092E+04 2.58795E+04-2.72962E-10 4.78667E-09
 -1       956-3.37819E+05-4.80518E+03-1.19735E+04 2.54514E+04 2.64572E-09 5.37875E-09
 -1       957-3.40176E+05-1.65951E+03-6.14624E+03 3.06180E+04 2.00862E-09-4.15912E-09
 -1       958-3.38890E+05-1.72334E+02-2.76939E+03 2.53061E+04-2.35923E-09-4.33101E-09
 -1       959-3.39071E+05-7.27865E+01-1.41434E+03 3.07825E+04-9.53150E-10 2.67030E-08
 -1       960-3.38990E+05-7.47520E-01-6.89652E+02 2.52915E+04 4.05635E-09 7.43512E-10
 -1       961-3.38995E+05-1.01686E+01-3.65892E+02 3.07994E+04 1.68416E-09-4.68231E-09
 -1       962-3.39012E+05-3.52102E+00-2.09682E+02 2.52892E+04 1.26192E-10-1.50840E-09
 -1       963-3.38994E+05-7.48908E+00-1.68735E+02 3.08024E+04 1.58923E-09 1.87356E-10
 -1       964-3.39016E+05-8.71071E-01-2.05540E+02 2.52885E+04 3.29607E-10-1.08889E-09
 -1       965-3.39005E+05-4.52455E+00-3.55784E+02 3.08019E+04-3.07921E-09 1.25701E-08
 -1       966-3.39003E+05 7.13294E+00-6.68473E+02 2.52896E+04 2.67846E-09-8.56289E-10
 -1       967-3.39088E+05-5.97732E+01-1.37116E+03 3.07905E+04 2.22076E-09-5.54519E-09
 -1       968-3.38914E+05-1.54061E+02-2.68392E+03 2.52999E+04-1.05592E-09 6.47526E-09
 -1       969-3.40169E+05-1.59349E+03-5.95865E+03 3.06704E+04-2.80556E-09 4.41963E-09
 -1       970-3.37883E+05-4.64228E+03-1.16071E+04 2.54066E+04 3.12411E-10 6.79665E-09
 -1       971-3.12657E+05-1.58977E+03-8.68055E+03 1.43017E+04-4.24734E-10 7.35542E-09
 -1       972-3.14755E+05-1.15731E+03-4.72735E+03 1.98678E+04-8.87667E-10 1.57161E-09
 -1       973-3.13623E+05-3.74266E+01-2.11721E+03 1.41859E+04-6.45286E-09 6.12818E-09
 -1       974-3.13758E+05-4.73583E+01-1.09724E+03 1.99963E+04-8.56562E-09 1.78802E-08
 -1       975-3.13699E+05 4.01438E+00-5.48286E+02 1.41746E+04-4.10455E-09 1.88572E-09
 -1       976-3.13700E+05-1.21133E+00-3.15990E+02 2.00105E+04-1.94655E-09 4.52690E-09
 -1       977-3.13714E+05 4.39965E+00-2.28749E+02 1.41717E+04-1.48475E-09 1.54644E-08
 -1       978-3.13705E+05 4.34732E+00-2.66877E+02 2.00146E+04 1.54728E-09 1.53173E-08
 -1       979-3.13714E+05 1.19545E+01-4.28091E+02 1.41705E+04-9.81856E-10-7.68523E-09
 -1       980-3.13737E+05 7.08548E+00-8.26154E+02 2.00154E+04 2.59884E-09-1.12566E-08
 -1       981-3.13688E+05 3.25812E+01-1.59984E+03 1.41709E+04 2.08445E-09-1.25809E-08
 -1       982-3.13956E+05-1.11082E+02-3.30670E+03 2.00093E+04 1.17984E-09-6.34309E-09
 -1       983-3.13486E+05-6.98004E+01-6.42486E+03 1.41767E+04 4.47471E-10-2.98746E-09
 -1       984-3.17046E+05-3.46648E+03-1.43880E+04 1.99290E+04-1.57343E-09 1.12632E-08
 -1       985-3.10578E+05-4.77110E+03-2.64209E+04 1.42496E+04-2.05182E-09 8.30551E-09
 -3
    1PSTEP                        17           9           1          
  100CL  109 6.44531E-01         409                     0    9           1
 -4  DISP        4    1
 -5  D1          1    2    1    0
 -5  D2          1    2    2    0
 -5  D3          1    2    3    0
 -5  ALL         1    2    0    0    1ALL
 -1         1 2.12516E-03 0.00000E+00 0.00000E+00
 -1         2 1.84193E-03-1.35005E-26 0.00000E+00
 -1         3 3.16049E-04-4.66302E-28-1.32349E-23
 -1         5 1.67123E-04 4.76144E-26-2.89513E-24
 -1         8 2.10829E-03-5.15368E-07 0.00000E+00
 -1         9 2.06655E-03-1.07436E-05 0.00000E+00
 -1        10 2.86794E-04-3.50880E-06 0.00000E+00
 -1        12 1.68624E-04 7.80207E-07-1.65436E-24
 -1        15 2.08798E-03-5.63567E-07 2.06795E-25
 -1        16 2.09734E-03-1.19364E-05 0.00000E+00
 -1        17 1.96099E-04-7.86566E-06 0.00000E+00
 -1        18 1.71535E-04 2.92111E-05 0.00000E+00
 -1        19 1.73065E-04 1.54734E-06 0.00000E+00
 -1        20 1.73209E-04-5.75491E-06 0.00000E+00
 -1        21 1.72369E-04-1.66307E-05-3.30872E-24
 -1        24 2.95080E-05-1.17350E-05 0.00000E+00
 -1        25 1.80437E-04 2.94222E-05 0.00000E+00
 -1        26 1.81134E-04 2.14061E-06 0.00000E+00
 -1        27 1.79033E-04-9.17175E-06 0.00000E+00
 -1        28 1.78692E-04-1.72336E-05 0.00000E+00
 -1        32 0.00000E+00 0.00000E+00 0.00000E+00
 -1        33 1.88173E-04 2.86230E-06 0.00000E+00
 -1        34 1.86137E-04-9.22115E-06 0.00000E+00
 -1        35 1.84272E-04-1.75633E-05 0.00000E+00
 -1        51 2.12408E-03-9.81694E-08 6.61744E-24
 -1        52 2.12205E-03-1.81345E-07 0.00000E+00
 -1        53 2.11927E-03-2.62438E-07 0.00000E+00
 -1        54 2.11592E-03-3.43600E-07 0.00000E+00
 -1        55 2.11220E-03-4.26400E-07 4.13590E-25
 -1        56 2.12120E-03 5.92773E-07-5.29396E-23
 -1        57 2.11577E-03 4.64698E-06 0.00000E+00
 -1        58 2.10928E-03 1.15230E-05-1.05879E-22
 -1        59 2.10203E-03 2.02957E-05-5.29396E-23
 -1        60 2.09452E-03 2.97609E-05 1.05879E-22
 -1        61 2.08722E-03 3.86510E-05 0.00000E+00
 -1        62 2.08060E-03 4.57906E-05 0.00000E+00
 -1        63 2.07504E-03 5.01399E-05 0.00000E+00
 -1        64 2.07077E-03 5.11007E-05 0.00000E+00
 -1        65 2.06789E-03 4.83415E-05 0.00000E+00
 -1        66 2.06630E-03 4.21222E-05-1.05879E-22
 -1        67 2.06580E-03 3.29788E-05 5.29396E-23
 -1        68 2.06599E-03 2.19131E-05 1.05879E-22
 -1        69 2.06648E-03 1.00887E-05 0.00000E+00
 -1        70 2.06678E-03-1.22351E-06 0.00000E+00
 -1        86 1.85520E-03-1.09384E-06 0.00000E+00
 -1        87 1.89449E-03-2.84519E-06-1.32349E-23
 -1        88 1.94795E-03-5.19503E-06-2.64698E-23
 -1        89 2.00317E-03-7.63613E-06 0.00000E+00
 -1        90 2.04695E-03-9.56021E-06-2.64698E-23
 -1       121 3.15228E-04-5.69894E-07-1.32349E-23
 -1       122 3.12766E-04-1.14238E-06 0.00000E+00
 -1       123 3.08672E-04-1.72001E-06 1.32349E-23
 -1       124 3.02964E-04-2.30534E-06-6.61744E-24
 -1       125 2.95661E-04-2.90057E-06 0.00000E+00
 -1       191 1.67165E-04 1.30089E-07-8.27181E-25
 -1       192 1.67290E-04 2.60168E-07-1.03398E-24
 -1       193 1.67499E-04 3.90234E-07 4.13590E-25
 -1       194 1.67791E-04 5.20274E-07 0.00000E+00
 -1       195 1.68166E-04 6.50274E-07-3.30872E-24
 -1       251 2.10754E-03-1.48887E-05-1.32349E-23
 -1       252 2.10571E-03-6.43575E-05 6.61744E-24
 -1       253 2.10240E-03-1.39312E-04 0.00000E+00
 -1       254 2.09788E-03-2.29501E-04 6.61744E-24
 -1       255 2.09331E-03-3.20186E-04 1.32349E-23
 -1       256 2.08990E-03-3.96616E-04 0.00000E+00
 -1       257 2.08796E-03-4.48250E-04 0.00000E+00
 -1       258 2.08717E-03-4.65165E-04 0.00000E+00
 -1       259 2.08635E-03-4.47080E-04 0.00000E+00
 -1       260 2.08438E-03-3.94658E-04 6.61744E-24
 -1       261 2.08095E-03-3.18114E-04 1.32349E-23
 -1       262 2.07646E-03-2.28263E-04 6.61744E-24
 -1       263 2.07209E-03-1.39855E-04 0.00000E+00
 -1       264 2.06896E-03-6.76086E-05-1.32349E-23
 -1       265 2.06728E-03-2.14709E-05-2.64698E-23
 -1       266 2.10490E-03-5.30998E-07 0.00000E+00
 -1       267 2.10152E-03-5.38105E-07 0.00000E+00
 -1       268 2.09813E-03-5.45752E-07-8.27181E-25
 -1       269 2.09475E-03-5.51801E-07 0.00000E+00
 -1       270 2.09136E-03-5.57811E-07 0.00000E+00
 -1       271 2.10617E-03 2.68642E-06 0.00000E+00
 -1       272 2.10397E-03 5.99716E-06 0.00000E+00
 -1       273 2.10179E-03 9.27743E-06 0.00000E+00
 -1       274 2.09968E-03 1.23758E-05 0.00000E+00
 -1       275 2.09769E-03 1.51460E-05 0.00000E+00
 -1       276 2.09588E-03 1.74437E-05 0.00000E+00
 -1       277 2.09429E-03 1.91302E-05 0.00000E+00
 -1       278 2.09299E-03 2.00725E-05 1.32349E-23
 -1       279 2.09202E-03 2.01459E-05 2.64698E-23
 -1       280 2.09141E-03 1.92347E-05 1.32349E-23
 -1       281 2.09121E-03 1.72337E-05-2.64698E-23
 -1       282 2.09145E-03 1.40491E-05-1.32349E-23
 -1       283 2.09216E-03 9.59975E-06-2.64698E-23
 -1       284 2.09337E-03 3.81857E-06 0.00000E+00
 -1       285 2.09509E-03-3.34910E-06 0.00000E+00
 -1       301 2.07211E-03-1.09661E-05 1.32349E-23
 -1       302 2.07655E-03-1.11555E-05 0.00000E+00
 -1       303 2.08058E-03-1.13407E-05 0.00000E+00
 -1       304 2.08491E-03-1.15261E-05 0.00000E+00
 -1       305 2.09026E-03-1.17180E-05 2.64698E-23
 -1       306 2.10009E-03-1.42001E-04-1.05879E-22
 -1       307 2.16467E-03-5.05700E-04 0.00000E+00
 -1       308 2.22245E-03-1.04407E-03 0.00000E+00
 -1       309 2.26404E-03-1.67506E-03 0.00000E+00
 -1       310 2.30892E-03-2.28838E-03 0.00000E+00
 -1       311 2.37188E-03-2.77537E-03 0.00000E+00
 -1       312 2.43147E-03-3.06315E-03-1.05879E-22
 -1       313 2.44103E-03-3.11053E-03 0.00000E+00
 -1       314 2.34244E-03-2.92313E-03 0.00000E+00
 -1       315 2.09948E-03-2.54816E-03-5.29396E-23
 -1       316 1.72427E-03-2.05205E-03 1.05879E-22
 -1       317 1.26717E-03-1.49962E-03-5.29396E-23
 -1       318 8.20471E-04-9.54092E-04 0.00000E+00
 -1       319 4.73430E-04-4.80328E-04 0.00000E+00
 -1       320 2.65391E-04-1.43769E-04-1.05879E-22
 -1       336 2.76193E-04-4.17831E-06 1.32349E-23
 -1       337 2.63697E-04-4.86941E-06-6.61744E-24
 -1       338 2.49366E-04-5.58372E-06 0.00000E+00
 -1       339 2.33269E-04-6.32163E-06 0.00000E+00
 -1       340 2.15484E-04-7.08710E-06 0.00000E+00
 -1       406 1.69163E-04 9.08870E-07 0.00000E+00
 -1       407 1.69782E-04 1.03742E-06-8.27181E-25
 -1       408 1.70481E-04 1.16583E-06-2.48154E-24
 -1       409 1.71262E-04 1.29395E-06-1.44757E-24
 -1       410 1.72123E-04 1.42151E-06-1.65436E-24
 -1       521 2.13174E-03-1.52017E-04 0.00000E+00
 -1       522 2.19554E-03-5.34736E-04 0.00000E+00
 -1       523 2.24885E-03-1.09943E-03 1.05879E-22
 -1       524 2.28341E-03-1.75808E-03 5.29396E-23
 -1       525 2.32204E-03-2.39741E-03 0.00000E+00
 -1       526 2.38216E-03-2.90602E-03 0.00000E+00
 -1       527 2.44154E-03-3.20533E-03 1.05879E-22
 -1       528 2.44980E-03-3.25299E-03 0.00000E+00
 -1       529 2.34258E-03-3.05409E-03 1.05879E-22
 -1       530 2.08113E-03-2.66189E-03-5.29396E-23
 -1       531 1.67777E-03-2.14609E-03 0.00000E+00
 -1       532 1.18775E-03-1.57466E-03 5.29396E-23
 -1       533 7.08225E-04-1.00969E-03 1.05879E-22
 -1       534 3.33208E-04-5.15041E-04-5.29396E-23
 -1       535 1.07083E-04-1.59975E-04-1.05879E-22
 -1       536 1.95441E-04 2.41337E-05 6.61744E-24
 -1       537 1.93800E-04 7.96926E-05 0.00000E+00
 -1       538 1.91271E-04 1.50247E-04 0.00000E+00
 -1       539 1.88291E-04 2.27157E-04 1.65436E-24
 -1       540 1.85608E-04 2.99836E-04 0.00000E+00
 -1       541 1.83856E-04 3.57722E-04 0.00000E+00
 -1       542 1.83038E-04 3.94540E-04-3.30872E-24
 -1       543 1.82829E-04 4.04155E-04-1.65436E-24
 -1       544 1.82531E-04 3.87304E-04-3.30872E-24
 -1       545 1.81505E-04 3.44921E-04 0.00000E+00
 -1       546 1.79617E-04 2.84555E-04 3.30872E-24
 -1       547 1.77077E-04 2.13863E-04 0.00000E+00
 -1       548 1.74564E-04 1.43581E-04-3.30872E-24
 -1       549 1.72747E-04 8.44485E-05 1.65436E-24
 -1       550 1.71796E-04 4.38889E-05 1.65436E-24
 -1       551 1.72962E-04-8.39458E-06 0.00000E+00
 -1       552 1.46744E-04-8.99256E-06 0.00000E+00
 -1       553 1.18359E-04-9.64442E-06-6.61744E-24
 -1       554 8.87386E-05-1.03315E-05 6.61744E-24
 -1       555 5.88129E-05-1.10294E-05-2.64698E-23
 -1       556 1.89146E-04 9.94734E-06 0.00000E+00
 -1       557 1.83544E-04 2.43494E-05 0.00000E+00
 -1       558 1.79170E-04 3.56095E-05 0.00000E+00
 -1       559 1.75898E-04 4.40177E-05 0.00000E+00
 -1       560 1.73609E-04 4.98647E-05 0.00000E+00
 -1       561 1.72185E-04 5.34432E-05 0.00000E+00
 -1       562 1.71508E-04 5.50471E-05 0.00000E+00
 -1       563 1.71464E-04 5.49711E-05 0.00000E+00
 -1       564 1.71939E-04 5.35107E-05 0.00000E+00
 -1       565 1.72820E-04 5.09618E-05 0.00000E+00
 -1       566 1.73997E-04 4.76209E-05 0.00000E+00
 -1       567 1.75358E-04 4.37848E-05 1.65436E-24
 -1       568 1.76792E-04 3.97504E-05 1.65436E-24
 -1       569 1.78190E-04 3.58147E-05 0.00000E+00
 -1       570 1.79441E-04 3.22745E-05 0.00000E+00
 -1       571 1.71628E-04 2.74188E-05 0.00000E+00
 -1       572 1.71723E-04 2.55647E-05 0.00000E+00
 -1       573 1.71818E-04 2.36633E-05 3.30872E-24
 -1       574 1.71914E-04 2.17297E-05 8.27181E-25
 -1       575 1.72009E-04 1.97791E-05 0.00000E+00
 -1       576 1.72105E-04 1.78266E-05 1.65436E-24
 -1       577 1.72200E-04 1.58875E-05 3.30872E-24
 -1       578 1.72296E-04 1.39770E-05 0.00000E+00
 -1       579 1.72392E-04 1.21104E-05 0.00000E+00
 -1       580 1.72488E-04 1.03028E-05 0.00000E+00
 -1       581 1.72584E-04 8.56960E-06 0.00000E+00
 -1       582 1.72680E-04 6.92592E-06 0.00000E+00
 -1       583 1.72776E-04 5.38698E-06-6.61744E-24
 -1       584 1.72873E-04 3.96785E-06 0.00000E+00
 -1       585 1.72969E-04 2.68342E-06 0.00000E+00
 -1       586 1.72975E-04 2.92483E-05 0.00000E+00
 -1       587 1.74377E-04 2.92850E-05 4.13590E-25
 -1       588 1.75782E-04 2.93213E-05 8.27181E-25
 -1       589 1.77233E-04 2.93569E-05 0.00000E+00
 -1       590 1.78771E-04 2.93914E-05 0.00000E+00
 -1       591 1.72145E-04 2.75036E-05 0.00000E+00
 -1       592 1.72759E-04 2.57747E-05 0.00000E+00
 -1       593 1.73378E-04 2.40303E-05-8.27181E-25
 -1       594 1.74001E-04 2.22751E-05-4.13590E-25
 -1       595 1.74626E-04 2.05141E-05 0.00000E+00
 -1       596 1.75251E-04 1.87521E-05 0.00000E+00
 -1       597 1.75875E-04 1.69940E-05 0.00000E+00
 -1       598 1.76496E-04 1.52445E-05 0.00000E+00
 -1       599 1.77111E-04 1.35085E-05 0.00000E+00
 -1       600 1.77720E-04 1.17908E-05 4.13590E-25
 -1       601 1.78320E-04 1.00963E-05-8.27181E-25
 -1       602 1.78910E-04 8.42968E-06 4.13590E-25
 -1       603 1.79487E-04 6.79584E-06 0.00000E+00
 -1       604 1.80051E-04 5.19969E-06 1.03398E-25
 -1       605 1.80600E-04 3.64598E-06 0.00000E+00
 -1       606 1.73079E-04 6.32638E-07 0.00000E+00
 -1       607 1.73089E-04-1.93998E-07 1.65436E-24
 -1       608 1.73098E-04-9.37738E-07 0.00000E+00
 -1       609 1.73106E-04-1.60441E-06 0.00000E+00
 -1       610 1.73115E-04-2.19990E-06 0.00000E+00
 -1       611 1.73124E-04-2.73014E-06 0.00000E+00
 -1       612 1.73132E-04-3.20109E-06 0.00000E+00
 -1       613 1.73141E-04-3.61872E-06 0.00000E+00
 -1       614 1.73150E-04-3.98897E-06 0.00000E+00
 -1       615 1.73158E-04-4.31780E-06 0.00000E+00
 -1       616 1.73167E-04-4.61119E-06 0.00000E+00
 -1       617 1.73175E-04-4.87508E-06 4.13590E-25
 -1       618 1.73184E-04-5.11544E-06 0.00000E+00
 -1       619 1.73193E-04-5.33822E-06 0.00000E+00
 -1       620 1.73201E-04-5.54940E-06 0.00000E+00
 -1       621 1.74160E-04 1.64667E-06-1.65436E-24
 -1       622 1.75393E-04 1.74627E-06-1.65436E-24
 -1       623 1.76736E-04 1.84571E-06-3.30872E-24
 -1       624 1.78160E-04 1.94487E-06 8.27181E-25
 -1       625 1.79636E-04 2.04378E-06 1.65436E-24
 -1       626 1.73516E-04 6.67173E-07-3.30872E-24
 -1       627 1.73943E-04-1.46873E-07 0.00000E+00
 -1       628 1.74348E-04-9.02656E-07 0.00000E+00
 -1       629 1.74735E-04-1.60837E-06-1.65436E-24
 -1       630 1.75106E-04-2.27225E-06 0.00000E+00
 -1       631 1.75465E-04-2.90253E-06 1.65436E-24
 -1       632 1.75814E-04-3.50746E-06 3.30872E-24
 -1       633 1.76157E-04-4.09528E-06 0.00000E+00
 -1       634 1.76496E-04-4.67424E-06 0.00000E+00
 -1       635 1.76835E-04-5.25257E-06 0.00000E+00
 -1       636 1.77177E-04-5.83854E-06 0.00000E+00
 -1       637 1.77525E-04-6.44038E-06 1.65436E-24
 -1       638 1.77882E-04-7.06635E-06 0.00000E+00
 -1       639 1.78250E-04-7.72471E-06 0.00000E+00
 -1       640 1.78634E-04-8.42372E-06-1.65436E-24
 -1       656 1.73645E-04-6.31035E-06 6.61744E-24
 -1       657 1.74495E-04-6.88832E-06-6.61744E-24
 -1       658 1.75619E-04-7.46487E-06 1.32349E-23
 -1       659 1.76871E-04-8.04108E-06-6.61744E-24
 -1       660 1.78069E-04-8.61903E-06 6.61744E-24
 -1       661 1.73373E-04-6.00293E-06 0.00000E+00
 -1       662 1.73573E-04-6.33770E-06 0.00000E+00
 -1       663 1.73803E-04-6.75449E-06 0.00000E+00
 -1       664 1.74063E-04-7.24730E-06-8.27181E-25
 -1       665 1.74349E-04-7.81080E-06 0.00000E+00
 -1       666 1.74659E-04-8.43956E-06 8.27181E-25
 -1       667 1.74992E-04-9.12843E-06-1.65436E-24
 -1       668 1.75346E-04-9.87228E-06 0.00000E+00
 -1       669 1.75718E-04-1.06662E-05 1.65436E-24
 -1       670 1.76107E-04-1.15053E-05-8.27181E-25
 -1       671 1.76511E-04-1.23849E-05 0.00000E+00
 -1       672 1.76929E-04-1.33004E-05 0.00000E+00
 -1       673 1.77358E-04-1.42473E-05 1.65436E-24
 -1       674 1.77796E-04-1.52212E-05-8.27181E-25
 -1       675 1.78243E-04-1.62175E-05 0.00000E+00
 -1       676 1.73427E-04-1.67318E-05-3.30872E-24
 -1       677 1.74484E-04-1.68328E-05 1.65436E-24
 -1       678 1.75539E-04-1.69338E-05-3.30872E-24
 -1       679 1.76593E-04-1.70344E-05 0.00000E+00
 -1       680 1.77644E-04-1.71351E-05-1.65436E-24
 -1       771 1.85301E-05 1.26949E-05 0.00000E+00
 -1       772 9.27629E-06 3.27599E-05 0.00000E+00
 -1       773 1.66403E-06 4.86730E-05 0.00000E+00
 -1       774-4.41899E-06 6.06721E-05 2.64698E-23
 -1       775-9.08289E-06 6.90044E-05-5.29396E-23
 -1       776-1.24422E-05 7.39318E-05 0.00000E+00
 -1       777-1.46115E-05 7.57250E-05 0.00000E+00
 -1       778-1.57077E-05 7.46670E-05 0.00000E+00
 -1       779-1.58473E-05 7.10481E-05 0.00000E+00
 -1       780-1.51488E-05 6.51687E-05 2.64698E-23
 -1       781-1.37300E-05 5.73352E-05 5.29396E-23
 -1       782-1.17100E-05 4.78619E-05 0.00000E+00
 -1       783-9.20745E-06 3.70668E-05 1.05879E-22
 -1       784-6.34205E-06 2.52735E-05 0.00000E+00
 -1       785-3.23274E-06 1.28085E-05 0.00000E+00
 -1       786 1.80477E-04 2.74949E-05 5.16988E-26
 -1       787 1.80519E-04 2.56165E-05 4.13590E-25
 -1       788 1.80562E-04 2.37788E-05 0.00000E+00
 -1       789 1.80606E-04 2.19739E-05 0.00000E+00
 -1       790 1.80649E-04 2.01970E-05-1.65436E-24
 -1       791 1.80693E-04 1.84436E-05 8.27181E-25
 -1       792 1.80737E-04 1.67115E-05 0.00000E+00
 -1       793 1.80781E-04 1.49986E-05-8.27181E-25
 -1       794 1.80825E-04 1.33046E-05-1.65436E-24
 -1       795 1.80869E-04 1.16296E-05 0.00000E+00
 -1       796 1.80913E-04 9.97525E-06 1.65436E-24
 -1       797 1.80957E-04 8.34354E-06 0.00000E+00
 -1       798 1.81001E-04 6.73865E-06-1.65436E-24
 -1       799 1.81045E-04 5.16487E-06-8.27181E-25
 -1       800 1.81090E-04 3.62966E-06-1.65436E-24
 -1       801 1.39182E-04 2.63608E-05 0.00000E+00
 -1       802 1.42506E-05 1.66038E-05-2.64698E-23
 -1       803-9.32389E-05 8.48797E-06-5.29396E-23
 -1       804-8.40322E-05 5.86590E-06-2.64698E-23
 -1       805-2.79315E-05 2.38532E-06 0.00000E+00
 -1       806 1.81049E-04 2.74294E-05-1.65436E-24
 -1       807 1.81648E-04 2.54628E-05 1.65436E-24
 -1       808 1.82234E-04 2.35271E-05-3.30872E-24
 -1       809 1.82807E-04 2.16262E-05 0.00000E+00
 -1       810 1.83366E-04 1.97639E-05 0.00000E+00
 -1       811 1.83908E-04 1.79438E-05 1.65436E-24
 -1       812 1.84434E-04 1.61695E-05 0.00000E+00
 -1       813 1.84941E-04 1.44447E-05-1.65436E-24
 -1       814 1.85428E-04 1.27731E-05 3.30872E-24
 -1       815 1.85894E-04 1.11582E-05-8.27181E-25
 -1       816 1.86337E-04 9.60361E-06 1.65436E-24
 -1       817 1.86757E-04 8.11303E-06 0.00000E+00
 -1       818 1.87151E-04 6.69004E-06 1.65436E-24
 -1       819 1.87519E-04 5.33822E-06 0.00000E+00
 -1       820 1.87860E-04 4.06114E-06 1.65436E-24
 -1       821 1.81010E-04 3.33071E-07 0.00000E+00
 -1       822 1.80877E-04-2.15375E-06-1.65436E-24
 -1       823 1.80743E-04-5.03773E-06 0.00000E+00
 -1       824 1.80608E-04-8.03428E-06 0.00000E+00
 -1       825 1.80473E-04-1.08295E-05 0.00000E+00
 -1       826 1.80339E-04-1.31104E-05 1.65436E-24
 -1       827 1.80207E-04-1.47003E-05-3.30872E-24
 -1       828 1.80075E-04-1.54265E-05 1.65436E-24
 -1       829 1.79944E-04-1.53448E-05 3.30872E-24
 -1       830 1.79812E-04-1.45158E-05 0.00000E+00
 -1       831 1.79680E-04-1.31977E-05 0.00000E+00
 -1       832 1.79548E-04-1.16517E-05 1.65436E-24
 -1       833 1.79416E-04-1.01993E-05 3.30872E-24
 -1       834 1.79286E-04-9.16135E-06 0.00000E+00
 -1       835 1.79155E-04-8.74955E-06 0.00000E+00
 -1       836 1.82510E-04 2.26037E-06 0.00000E+00
 -1       837 1.83763E-04 2.38308E-06 0.00000E+00
 -1       838 1.84924E-04 2.50572E-06 0.00000E+00
 -1       839 1.86024E-04 2.62765E-06-8.27181E-25
 -1       840 1.87097E-04 2.74942E-06-8.27181E-25
 -1       856 1.79015E-04-9.94149E-06 8.27181E-25
 -1       857 1.78994E-04-1.05792E-05-1.29247E-26
 -1       858 1.78974E-04-1.11055E-05 0.00000E+00
 -1       859 1.78952E-04-1.15410E-05-2.06795E-25
 -1       860 1.78931E-04-1.19062E-05-4.13590E-25
 -1       861 1.78910E-04-1.22221E-05 4.13590E-25
 -1       862 1.78888E-04-1.25093E-05 8.27181E-25
 -1       863 1.78867E-04-1.27887E-05 0.00000E+00
 -1       864 1.78846E-04-1.30811E-05 0.00000E+00
 -1       865 1.78824E-04-1.34073E-05 0.00000E+00
 -1       866 1.78803E-04-1.37881E-05 0.00000E+00
 -1       867 1.78781E-04-1.42441E-05 0.00000E+00
 -1       868 1.78759E-04-1.47962E-05 0.00000E+00
 -1       869 1.78738E-04-1.54648E-05-4.13590E-25
 -1       870 1.78716E-04-1.62704E-05 8.27181E-25
 -1       871 1.80079E-04-9.17576E-06 0.00000E+00
 -1       872 1.81267E-04-9.18299E-06 0.00000E+00
 -1       873 1.82532E-04-9.19086E-06-4.13590E-25
 -1       874 1.83809E-04-9.19946E-06-2.06795E-25
 -1       875 1.85032E-04-9.20861E-06 0.00000E+00
 -1       876 1.79445E-04-9.92760E-06 0.00000E+00
 -1       877 1.79835E-04-1.06186E-05 0.00000E+00
 -1       878 1.80204E-04-1.12525E-05 0.00000E+00
 -1       879 1.80554E-04-1.18365E-05 1.65436E-24
 -1       880 1.80889E-04-1.23779E-05-3.30872E-24
 -1       881 1.81211E-04-1.28837E-05 1.65436E-24
 -1       882 1.81522E-04-1.33611E-05 0.00000E+00
 -1       883 1.81825E-04-1.38173E-05 1.65436E-24
 -1       884 1.82122E-04-1.42595E-05 0.00000E+00
 -1       885 1.82417E-04-1.46947E-05-1.65436E-24
 -1       886 1.82712E-04-1.51301E-05-3.30872E-24
 -1       887 1.83010E-04-1.55729E-05-1.65436E-24
 -1       888 1.83313E-04-1.60302E-05 0.00000E+00
 -1       889 1.83624E-04-1.65093E-05 1.65436E-24
 -1       890 1.83944E-04-1.70173E-05 0.00000E+00
 -1       891 1.79762E-04-1.72889E-05 0.00000E+00
 -1       892 1.80808E-04-1.73445E-05-8.27181E-25
 -1       893 1.81807E-04-1.73999E-05 8.27181E-25
 -1       894 1.82733E-04-1.74551E-05 0.00000E+00
 -1       895 1.83563E-04-1.75101E-05-4.13590E-25
 -1       956 1.88047E-04 1.82890E-06 0.00000E+00
 -1       957 1.87920E-04 8.81937E-07 8.27181E-25
 -1       958 1.87793E-04 1.13413E-08 0.00000E+00
 -1       959 1.87665E-04-7.93514E-07 1.65436E-24
 -1       960 1.87538E-04-1.54330E-06-3.30872E-24
 -1       961 1.87410E-04-2.24872E-06-1.65436E-24
 -1       962 1.87282E-04-2.92048E-06-3.30872E-24
 -1       963 1.87155E-04-3.56932E-06 0.00000E+00
 -1       964 1.87027E-04-4.20597E-06-3.30872E-24
 -1       965 1.86899E-04-4.84114E-06 0.00000E+00
 -1       966 1.86772E-04-5.48558E-06 3.30872E-24
 -1       967 1.86644E-04-6.15000E-06 0.00000E+00
 -1       968 1.86517E-04-6.84513E-06 3.30872E-24
 -1       969 1.86389E-04-7.58166E-06 1.65436E-24
 -1       970 1.86262E-04-8.37025E-06 0.00000E+00
 -1       971 1.86022E-04-1.00684E-05 0.00000E+00
 -1       972 1.85905E-04-1.08228E-05 0.00000E+00
 -1       973 1.85787E-04-1.14944E-05-3.30872E-24
 -1       974 1.85670E-04-1.20941E-05-1.65436E-24
 -1       975 1.85553E-04-1.26324E-05 0.00000E+00
 -1       976 1.85436E-04-1.31200E-05-1.65436E-24
 -1       977 1.85319E-04-1.35676E-05 0.00000E+00
 -1       978 1.85202E-04-1.39859E-05 0.00000E+00
 -1       979 1.85084E-04-1.43856E-05 0.00000E+00
 -1       980 1.84967E-04-1.47775E-05 1.65436E-24
 -1       981 1.84850E-04-1.51723E-05 3.30872E-24
 -1       982 1.84733E-04-1.55806E-05 0.00000E+00
 -1       983 1.84616E-04-1.60132E-05 3.30872E-24
 -1       984 1.84500E-04-1.64807E-05 0.00000E+00
 -1       985 1.84384E-04-1.69940E-05 0.00000E+00
 -3
    1PSTEP                        18           9           1          
  100CL  109 6.44531E-01         409                     0    9           1
 -4  STRESS      6    1
 -5  SXX         1    4    1    1
 -5  SYY         1    4    2    2
 -5  SZZ         1    4    3    3
 -5  SXY         1    4    1    2
 -5  SYZ         1    4    2    3
 -5  SZX         1    4    3    1
 -1         1-4.42963E+06-1.65128E+06-9.74365E+05-1.62388E+06-4.80213E-10 6.78119E-08
 -1         2 3.02056E+04-2.13480E+06 1.25920E+05 3.29489E+05 3.88536E-09 2.00622E-07
 -1         3-1.24302E+03-1.62005E+06 4.06072E+02-2.10255E+03-4.37215E-10-5.50062E-08
 -1         5-4.92632E+01 3.72427E+05 2.01385E+01 5.89142E+00-6.59426E-10-9.46966E-09
 -1         8-6.21585E+05-2.09497E+05-4.91776E+04-4.00595E+05 4.88399E-10 1.77206E-08
 -1         9 8.09551E+06-6.71726E+05 1.35487E+06-1.01665E+06 2.92668E-08 6.77770E-08
 -1        10-2.13286E+03-1.68820E+06-3.86849E+03-1.42078E+04-1.27347E-08-3.36566E-08
 -1        12-4.68370E+01 3.70569E+05 3.02016E+02-2.61069E+00-7.09406E-11 2.63308E-08
 -1        15 1.25875E+03 6.91752E+02 4.06890E+03 1.84229E+00 5.57279E-10 3.75011E-07
 -1        16 1.75966E+07-1.51069E+05 2.47686E+06-1.43396E+06 1.25146E-08-1.15872E-07
 -1        17 6.31889E+06 4.50826E+06 1.70244E+06 4.42724E+06 1.80997E-08 3.25381E-08
 -1        18 1.12990E+05 2.55577E+04-1.62573E+03-1.12183E+05 1.59118E-08 1.27757E-08
 -1        19 1.17189E+05 1.35448E+05-9.13336E+02 2.13817E+04 1.32968E-09-3.55903E-09
 -1        20-7.53900E+04-5.50177E+05-1.23232E+05 2.58928E+04-1.25632E-09 6.12757E-09
 -1        21-4.49583E+01-2.87782E+05-9.01975E+02 2.08719E+02 1.29465E-08-2.48871E-08
 -1        24 1.03404E+07 8.81605E+06 2.92713E+06 8.20070E+06-1.51185E-07-4.81571E-08
 -1        25 7.45331E+04 8.17541E+04 5.25066E+04-5.36998E+05-2.14004E-10 1.62445E-08
 -1        26-5.22927E+04 8.80321E+04-2.35710E+04 1.34968E+02 2.78669E-10 6.98966E-09
 -1        27-7.45414E+04-2.97788E+05-1.09292E+05 6.63336E+04 4.44561E-09 2.75395E-09
 -1        28 2.17218E+04-8.25640E+04 1.64117E+04 2.06718E+04-2.55812E-09 3.86012E-09
 -1        32-1.62993E+06-2.99669E+06-1.74565E+05 2.63891E+05-3.89264E-08-8.46035E-09
 -1        33-1.71916E+05 8.87002E+04 3.10301E+04-3.76940E+04-2.52097E-09 5.77226E-09
 -1        34-2.15630E+05-2.37529E+04 6.48463E+02 7.21322E+04-4.19268E-09-1.25071E-08
 -1        35-2.23427E+04-3.27508E+04-1.30255E+03 5.00796E+04-4.04719E-09 8.24366E-09
 -1        51 4.97307E+04-2.11641E+05 1.07545E+05-6.34962E+05-1.30967E-10 1.67747E-07
 -1        52 1.80157E+04-1.94470E+05 5.80827E+04-7.40299E+05 1.20053E-10-7.01693E-08
 -1        53 5.10287E+03-2.09954E+05 3.28694E+04-6.32648E+05 3.45608E-10 3.01807E-08
 -1        54 1.14770E+04-2.06410E+05 3.23185E+04-7.42698E+05-2.91038E-10 9.73014E-08
 -1        55 2.40534E+04-2.15914E+05 4.55108E+04-6.32331E+05 1.60071E-10 2.55604E-08
 -1        56-8.35202E+06-9.59372E+05-7.22399E+05-3.28205E+06-1.25874E-08-1.19908E-08
 -1        57-8.82286E+06-1.41977E+06-4.85231E+05-3.03449E+06 1.03755E-08 9.29504E-08
 -1        58-8.44554E+06-1.23574E+06-1.69596E+05-3.29029E+06 7.72343E-09 7.17991E-08
 -1        59-8.72216E+06-1.09010E+06-1.00711E+05-3.02495E+06 5.52427E-09-1.26820E-08
 -1        60-8.45396E+06-1.27871E+06-3.92518E+04-3.29671E+06-1.13509E-08-1.43713E-07
 -1        61-8.67888E+06-1.06878E+06-2.17337E+04-3.04841E+06 2.51566E-08-3.84935E-08
 -1        62-8.48680E+06-1.25699E+06-1.17368E+04-3.26595E+06-6.93399E-09-8.80191E-08
 -1        63-8.58682E+06-1.14499E+06-7.09419E+03-3.13494E+06 1.27411E-08-4.70936E-09
 -1        64-8.54139E+06-1.20548E+06-1.18910E+04-3.20682E+06-2.26701E-08 3.68686E-08
 -1        65-8.48344E+06-1.25452E+06-1.82618E+04-3.25490E+06-2.21316E-08 1.70846E-07
 -1        66-8.58999E+06-1.14774E+06-3.60801E+04-3.14586E+06 1.59653E-08-1.26221E-07
 -1        67-8.43128E+06-1.36945E+06-8.86320E+04-3.34904E+06-2.36550E-08-2.80553E-07
 -1        68-8.59859E+06-1.08840E+06-1.49507E+05-3.11579E+06 7.20684E-09-2.53858E-08
 -1        69-8.55765E+06-1.63313E+06-4.29727E+05-3.33379E+06 7.52698E-09 8.02538E-08
 -1        70-8.46797E+06-8.89567E+05-6.37515E+05-3.16061E+06-1.51340E-09 6.56582E-08
 -1        86-3.10353E+04-3.09784E+06-7.37476E+04-1.64027E+05-4.24709E-08-1.15338E-07
 -1        87 3.75748E+04-2.51609E+06 5.14250E+04 4.89080E+05-7.67650E-08-4.74729E-08
 -1        88-1.38330E+03-2.75722E+06-7.80010E+03-3.24570E+05-6.86432E-08 1.13820E-07
 -1        89 3.62986E+04-2.57016E+06 2.03957E+04 5.21319E+05-9.79771E-08-5.30363E-08
 -1        90-2.46545E+04-3.04944E+06-1.13910E+05-1.96535E+05-2.78724E-08 1.34842E-08
 -1       121-1.71188E+03-1.62420E+06-3.80438E+02 1.04387E+03 1.32535E-09-1.68038E-08
 -1       122-1.06147E+03-1.62009E+06 7.91907E+02-4.20468E+03-4.84346E-09 8.66930E-09
 -1       123-1.74388E+03-1.62433E+06 4.73446E+02 3.11682E+03 4.05009E-09 3.70928E-08
 -1       124 6.07779E+02-1.61955E+06 3.09961E+03-8.77915E+03-9.58335E-09 3.38205E-08
 -1       125-2.60804E+03-1.62525E+06 3.86877E+03 5.58412E+03 6.05178E-09-3.93266E-09
 -1       191-5.19006E+01 3.72449E+05 2.21485E+01-2.93013E+00 2.96609E-10 1.30422E-08
 -1       192-4.68248E+01 3.72429E+05 4.36495E+01 2.99141E+01 3.45494E-10-4.40923E-09
 -1       193-4.38926E+01 3.72446E+05 7.95132E+01-2.68947E+01 9.17225E-10 9.69521E-10
 -1       194-6.92559E+00 3.72444E+05 1.73645E+02 2.45764E+02 9.56561E-10 3.72456E-08
 -1       195 7.33629E+01 3.72426E+05 3.44877E+02-2.18807E+02 1.77715E-09 2.78951E-08
 -1       251-2.27308E+06-4.33697E+04-2.34162E+05 1.31198E+05-2.87400E-10-3.49537E-08
 -1       252-1.06785E+06 4.99253E+04 7.56295E+04-4.39995E+05 5.40604E-09-1.71092E-07
 -1       253-1.77391E+06-1.88505E+04-4.40956E+04 3.08648E+05-9.36780E-09-4.16767E-08
 -1       254-1.63755E+06 7.21937E+04 1.37499E+04-6.15112E+05 1.15707E-08 5.44613E-08
 -1       255-1.76011E+06-1.87948E+04-2.06913E+04 3.11392E+05-1.97188E-08 1.46384E-07
 -1       256-1.09292E+06 5.90449E+04 1.24437E+05-4.52215E+05-2.09184E-08 1.68857E-08
 -1       257-2.26480E+06-5.00355E+04-1.25162E+05 1.40838E+05 2.77469E-08 2.67967E-07
 -1       258-5.47071E+05 4.50011E+04 2.27701E+05 9.34009E+03 1.41727E-08 1.27889E-07
 -1       259-2.25193E+06-4.91507E+04-1.20491E+05-1.47041E+05 3.69837E-08 3.33318E-09
 -1       260-1.12030E+06 6.03444E+04 1.24194E+05 4.64615E+05-4.77676E-08-1.54222E-07
 -1       261-1.74849E+06-1.85852E+04-8.46656E+03-3.11635E+05-5.33555E-08-2.20125E-08
 -1       262-1.62896E+06 8.16600E+04 3.72769E+04 6.16473E+05 9.35306E-09-9.76297E-08
 -1       263-1.79394E+06-2.86194E+04-1.00030E+04-3.03520E+05-2.12603E-08 5.19194E-08
 -1       264-1.00487E+06 1.19424E+05 1.82571E+05 4.30925E+05-1.32150E-07 1.54982E-07
 -1       265-2.31308E+06-1.05243E+05-9.22634E+04-1.21036E+05-3.58159E-08 2.21718E-07
 -1       266-2.27876E+04-1.06558E+04 5.34651E+04-3.94187E+01 4.00178E-11-7.29554E-08
 -1       267 2.64171E+04 1.24191E+04 3.77890E+04 4.54821E+01 4.72937E-11 5.25605E-08
 -1       268-3.54249E+03-1.75891E+03 1.40459E+04-5.79517E+00-1.25510E-10-3.63963E-08
 -1       269 4.18263E+03 2.10502E+03 9.12967E+03 6.75055E+00 2.68301E-10 3.11169E-08
 -1       270-6.27819E+02-3.45873E+02 4.40702E+03-9.16095E-01-1.62572E-10 5.78241E-08
 -1       271-2.05173E+06-2.46685E+05-1.52384E+05-7.84892E+05-2.14641E-10 2.18723E-07
 -1       272-2.16178E+06-3.03521E+05-9.81080E+04-7.22008E+05-7.05404E-09-1.03682E-08
 -1       273-2.07916E+06-2.86050E+05-3.59557E+04-7.79529E+05-2.17087E-08 6.97055E-08
 -1       274-2.12934E+06-2.55441E+05-2.01789E+04-7.30353E+05-1.10762E-08-2.07760E-08
 -1       275-2.08320E+06-2.90030E+05-8.38092E+03-7.78212E+05-1.16870E-10-2.46388E-07
 -1       276-2.12308E+06-2.51857E+05-4.39127E+03-7.33044E+05 3.24981E-08-2.02997E-08
 -1       277-2.08488E+06-2.89428E+05-2.22041E+03-7.76690E+05 1.10140E-08-4.84183E-08
 -1       278-2.11898E+06-2.54419E+05-1.36396E+03-7.36213E+05 2.23999E-08-1.54473E-07
 -1       279-2.08664E+06-2.87830E+05-1.59489E+03-7.74599E+05-5.99903E-09-9.86347E-09
 -1       280-2.11449E+06-2.58811E+05-2.32783E+03-7.40365E+05-2.88383E-08 1.17808E-07
 -1       281-2.08864E+06-2.85515E+05-4.67114E+03-7.72018E+05 7.01039E-09 1.03213E-07
 -1       282-2.11104E+06-2.66628E+05-1.03224E+04-7.45147E+05-6.22094E-09 3.54726E-07
 -1       283-2.08944E+06-2.80708E+05-1.89914E+04-7.69247E+05-1.12268E-08 1.85112E-08
 -1       284-2.12124E+06-2.97509E+05-5.05864E+04-7.47428E+05 3.78450E-08-2.96151E-07
 -1       285-2.07828E+06-2.57510E+05-7.93708E+04-7.68472E+05-9.40054E-09-2.03359E-07
 -1       301 1.30140E+04-4.97636E+05 1.73749E+05-8.63602E+05 1.84082E-09 8.55071E-08
 -1       302 1.42531E+04-4.53151E+05 1.05707E+05-1.26238E+06-2.48838E-09 3.22161E-08
 -1       303-6.80891E+03-4.83665E+05 6.42804E+04-8.61445E+05 5.96629E-10-2.84163E-08
 -1       304 1.36485E+03-4.56920E+05 7.25901E+04-1.26161E+06 2.40107E-10 1.61031E-07
 -1       305-2.99068E+03-4.81294E+05 9.96075E+04-8.64146E+05 1.47702E-09 6.51635E-08
 -1       306-2.56808E+07-5.17945E+06-7.03797E+06-1.27219E+06-9.16189E-08 7.62520E-08
 -1       307 2.08627E+07 1.59323E+06 4.52355E+06-1.20486E+07-7.17540E-07 6.78701E-08
 -1       308-7.89510E+06-6.23167E+05-5.56776E+05 4.28136E+06-1.30007E-07 3.88922E-07
 -1       309-3.57575E+06 5.59909E+06 1.65517E+06-1.78926E+07 3.55096E-07 1.91183E-07
 -1       310-1.06951E+07-1.04641E+06-1.28011E+06 4.14140E+06-9.50531E-08-8.97271E-08
 -1       311 2.73278E+07-3.14993E+05 5.48529E+06-8.55330E+06 4.34229E-07 1.52650E-07
 -1       312-2.64888E+07-5.19175E+06-6.59301E+06-3.63004E+06 1.78115E-07 1.14858E-07
 -1       313 3.69212E+07 9.58153E+06 8.50246E+06 1.69526E+07-7.50588E-08 2.79106E-08
 -1       314-1.64434E+07-1.33303E+07-6.07571E+06-1.06300E+07 2.59781E-07-8.83592E-08
 -1       315-7.37906E+05 2.25075E+07 4.67846E+06 1.02778E+07-4.97384E-07-2.37778E-08
 -1       316-2.61996E+04-8.78643E+06-5.15090E+05-3.70934E+06-9.30813E-07-3.94473E-07
 -1       317-1.68264E+07 1.87527E+07 1.62509E+06-5.16006E+06 6.94730E-07-6.50631E-07
 -1       318-1.36881E+06-9.98192E+06-1.33721E+06-4.48158E+06-7.90867E-07 6.82194E-08
 -1       319 4.06057E+06 2.35911E+07 5.24686E+06 1.27294E+07-1.17012E-07 1.44821E-07
 -1       320-1.91326E+07-1.36763E+07-7.71923E+06-1.05257E+07 1.67871E-07-5.88770E-08
 -1       336-3.08608E+02-1.75826E+06-1.36608E+04 8.49575E+03-2.44972E-08-1.79971E-08
 -1       337-5.24163E+03-1.75868E+06-1.77421E+04-2.05479E+04-4.35282E-08 2.46291E-09
 -1       338 5.52426E+02-1.75782E+06-2.74206E+04 1.18608E+04-3.13739E-08-8.41828E-09
 -1       339-2.91177E+04-1.77505E+06-6.21045E+04-2.71139E+04-5.74591E-08 1.48630E-08
 -1       340 1.94367E+04-1.74378E+06-9.75836E+04 1.49496E+04-3.70055E-08 2.33740E-08
 -1       406-1.58016E+02 3.68712E+05 4.09837E+02 2.21480E+02-1.46247E-09 2.56596E-08
 -1       407 1.23110E+02 3.68808E+05 1.20717E+03-2.29810E+02-3.91537E-10 5.78439E-09
 -1       408 6.15738E+02 3.68610E+05 2.56269E+03 7.95819E+00-2.02078E-09 6.47196E-09
 -1       409 2.77623E+03 3.69656E+05 5.85008E+03 1.94933E+02-2.60115E-10 5.92991E-10
 -1       410 8.06480E+03 3.67863E+05 1.19743E+04-2.15761E+02-2.06273E-09 3.94903E-09
 -1       521-2.73154E+07-6.36289E+06-8.24373E+06-9.97118E+05-1.22818E-07-4.83124E-09
 -1       522 2.16498E+07 2.14532E+06 4.60939E+06-1.50112E+07-4.05969E-07-2.63070E-07
 -1       523-8.71329E+06-8.90420E+05-5.80857E+05 4.72782E+06 2.20316E-08-1.11788E-07
 -1       524-6.55980E+06 7.89255E+06 1.80268E+06-2.08046E+07 6.24997E-07-5.26776E-07
 -1       525-1.17115E+07-1.49267E+06-1.41364E+06 4.57557E+06 3.56638E-07-2.15849E-07
 -1       526 2.96858E+07-3.44558E+05 5.79410E+06-1.09538E+07 3.50497E-07-9.25793E-08
 -1       527-2.83111E+07-6.54307E+06-7.60706E+06-3.55112E+06 2.18628E-07 3.26690E-08
 -1       528 4.05047E+07 1.04973E+07 8.90839E+06 1.92366E+07 9.09786E-08-2.25642E-07
 -1       529-1.75268E+07-1.52079E+07-6.98530E+06-1.09003E+07 2.65078E-07-1.14145E-07
 -1       530-2.87696E+06 2.63732E+07 4.96584E+06 1.04108E+07 8.22038E-08 4.94067E-07
 -1       531-1.29943E+05-9.94238E+06-5.24811E+05-3.91841E+06-7.10526E-07 2.46218E-07
 -1       532-1.98716E+07 2.10803E+07 1.79512E+06-8.30442E+06 3.44691E-07-5.27667E-07
 -1       533-1.46892E+06-1.11499E+07-1.41447E+06-4.61578E+06-2.11527E-07-8.61648E-07
 -1       534 2.16408E+06 2.75538E+07 5.49270E+06 1.32610E+07-1.14582E-07 6.48433E-07
 -1       535-2.03194E+07-1.56688E+07-8.83653E+06-1.07790E+07 1.08150E-07 4.08327E-07
 -1       536-6.60264E+05-4.50399E+04-2.88368E+04-4.83869E+04-5.48107E-09 4.93710E-08
 -1       537-9.96405E+04 4.40297E+04 8.01729E+04 1.11732E+05-1.08109E-07 7.49887E-08
 -1       538-3.92418E+05 2.08990E+03 6.20470E+03-6.60430E+04 2.56630E-08 9.84087E-08
 -1       539-2.85406E+05 3.09139E+03 2.30241E+04 1.26215E+05 1.53807E-07 9.95534E-08
 -1       540-4.79096E+05-2.92433E+02-1.71994E+04-6.32882E+04-1.89666E-08 1.05816E-07
 -1       541 6.92623E+04 1.44929E+04 9.11113E+04 8.75621E+04 1.84627E-10 7.08438E-08
 -1       542-7.37545E+05-1.72546E+04-7.17735E+04-2.67070E+04 5.86638E-08 3.56613E-08
 -1       543 2.90051E+05 2.33712E+04 1.34790E+05-1.23155E+04 2.10321E-08-6.95536E-09
 -1       544-6.93978E+05-1.40546E+04-6.37646E+04 3.60628E+04-5.40149E-09-5.36257E-08
 -1       545-3.25896E+04 7.85745E+03 6.75122E+04-1.02568E+05-1.07422E-08-6.01292E-08
 -1       546-4.23544E+05 5.40565E+03-1.05945E+04 6.32790E+04 2.81077E-08-7.96033E-08
 -1       547-3.01541E+05-4.68216E+03 7.83522E+03-1.28926E+05-1.12966E-07-9.89216E-08
 -1       548-4.32231E+05 4.49045E+03-2.20077E+04 6.29614E+04-1.08840E-07-9.61604E-08
 -1       549-1.46968E+04 1.05914E+04 4.74906E+04-1.00152E+05-7.03704E-08-7.28858E-08
 -1       550-7.02703E+05-1.62712E+04-1.16384E+05 3.39414E+04 5.03496E-09-5.30999E-08
 -1       551 3.73412E+04-7.69165E+05-6.29304E+03-1.20996E+06-9.55915E-08-1.46683E-08
 -1       552 8.46434E+04-8.07977E+05 1.53668E+04-1.72547E+06-6.46542E-08 1.48066E-08
 -1       553 6.44946E+04-8.06302E+05 3.57168E+04-1.20383E+06-1.10231E-07 2.12458E-08
 -1       554 1.21242E+05-8.20335E+05 8.54179E+04-1.72742E+06-7.11298E-08 1.11031E-08
 -1       555 9.41291E+04-8.29051E+05 1.54674E+05-1.20387E+06-1.13418E-07-1.76296E-08
 -1       556 2.03316E+05-3.52768E+05 3.88908E+04-3.85192E+05-2.73867E-08-1.55705E-08
 -1       557 3.26962E+05-4.51551E+05 2.25572E+04-4.96232E+05-1.51776E-08-8.44557E-09
 -1       558 1.88419E+05-3.49293E+05 5.71682E+03-3.86731E+05-2.47092E-08-1.46320E-08
 -1       559 3.03639E+05-4.53946E+05 3.92578E+03-5.14008E+05 1.98488E-08-2.47383E-09
 -1       560 1.75342E+05-3.41065E+05-4.05269E+02-3.96068E+05 6.92671E-09 4.43833E-09
 -1       561 2.87025E+05-4.47425E+05 5.39217E+02-5.25249E+05-8.20728E-09 8.00355E-10
 -1       562 1.65007E+05-3.34616E+05-8.97620E+02-4.03534E+05-4.33647E-09-2.17951E-08
 -1       563 2.74768E+05-4.42082E+05 8.12478E+01-5.33233E+05 1.86265E-09-1.94086E-08
 -1       564 1.57694E+05-3.30051E+05-4.32274E+02-4.08711E+05 4.48199E-09-1.29658E-08
 -1       565 2.66750E+05-4.38591E+05 5.58066E+01-5.38350E+05 2.63753E-09 1.15897E-08
 -1       566 1.53510E+05-3.27400E+05-1.92498E+02-4.11639E+05-1.12777E-08-5.54246E-09
 -1       567 2.63002E+05-4.36959E+05-3.03690E+02-5.40609E+05 1.60690E-08 3.12830E-08
 -1       568 1.52536E+05-3.26808E+05-9.74931E+02-4.12416E+05-5.62795E-09 3.20506E-09
 -1       569 2.62228E+05-4.36917E+05-2.46397E+03-5.39067E+05-3.38241E-09-1.29803E-08
 -1       570 1.55792E+05-3.29833E+05-5.41689E+03-4.11496E+05 7.20320E-09-1.20135E-08
 -1       571 2.77630E+05 1.00583E+04 1.44502E+04-8.77897E+04 1.04510E-08 5.68298E-09
 -1       572 2.79735E+05 3.73810E+03 7.08139E+03-9.63121E+04 2.07060E-08-1.06702E-08
 -1       573 2.78468E+05 1.12767E+03 3.14641E+03-8.76219E+04 1.23255E-08 2.10975E-08
 -1       574 2.78683E+05 6.19356E+02 1.57767E+03-9.65216E+04 4.21210E-09 5.26688E-09
 -1       575 2.78559E+05 3.58075E+02 7.44513E+02-8.75991E+04 3.73632E-10 3.65708E-09
 -1       576 2.78551E+05 3.62012E+02 3.80947E+02-9.65495E+04-5.05383E-09 1.35096E-08
 -1       577 2.78594E+05 3.04482E+02 1.90035E+02-8.75960E+04-4.46562E-09 7.60338E-09
 -1       578 2.78573E+05 3.29361E+02 1.09306E+02-9.65534E+04-7.88168E-09 6.34282E-09
 -1       579 2.78654E+05 2.74667E+02 7.47868E+01-8.75957E+04 5.50062E-09 4.29100E-09
 -1       580 2.78658E+05 2.87334E+02 8.57950E+01-9.65488E+04-6.58474E-09-2.53385E-09
 -1       581 2.78750E+05 2.26635E+02 1.29568E+02-8.76011E+04 4.58567E-09 1.10049E-09
 -1       582 2.78807E+05 2.60446E+02 2.62293E+02-9.64920E+04-1.78261E-10-9.21045E-09
 -1       583 2.78866E+05 2.75470E+02 5.04469E+02-8.76530E+04 1.58252E-10 4.61569E-10
 -1       584 2.79140E+05 6.85179E+02 1.14022E+03-9.60551E+04 8.71660E-09-1.11927E-08
 -1       585 2.78874E+05 1.65332E+03 2.31055E+03-8.80375E+04-7.63976E-11-1.34387E-08
 -1       586-3.29767E+03 1.08115E+05-3.03884E+03-2.41125E+05-4.20914E-09-1.29010E-08
 -1       587-1.18975E+03 1.07828E+05 5.95370E+02-2.65381E+05-2.96495E-09-1.52390E-08
 -1       588 4.91439E+02 1.07685E+05 4.44869E+03-2.40996E+05-2.92675E-09 1.13114E-08
 -1       589 4.95365E+03 1.10011E+05 1.16640E+04-2.65146E+05-8.53106E-09 6.77028E-09
 -1       590 1.58620E+04 1.06419E+05 2.45169E+04-2.41410E+05-4.94219E-09 2.67155E-08
 -1       591-6.90855E+04-1.51628E+04-2.11724E+04-2.99748E+04-3.59069E-09 7.56427E-09
 -1       592-7.27777E+04-1.86567E+04-1.14686E+04-3.35534E+04 8.82196E-10-1.50311E-08
 -1       593-7.12042E+04-1.36252E+04-4.77386E+03-3.15260E+04 8.94354E-09-1.33120E-08
 -1       594-6.98524E+04-1.55522E+04-2.38086E+03-3.36668E+04-1.09733E-09-5.30588E-09
 -1       595-7.13658E+04-1.36200E+04-1.09315E+03-3.15965E+04 2.08637E-09 1.69733E-08
 -1       596-6.96522E+04-1.54102E+04-5.55672E+02-3.36432E+04 7.19224E-09-1.74035E-09
 -1       597-7.13861E+04-1.36344E+04-3.02503E+02-3.15992E+04 3.27441E-09-5.17622E-09
 -1       598-6.96325E+04-1.54046E+04-2.43040E+02-3.36366E+04 7.36009E-10 3.02532E-09
 -1       599-7.13848E+04-1.36349E+04-3.10283E+02-3.15989E+04 7.54278E-09-1.26920E-09
 -1       600-6.96524E+04-1.54109E+04-5.76267E+02-3.36413E+04 7.06359E-09 2.13909E-08
 -1       601-7.13614E+04-1.36211E+04-1.13678E+03-3.15955E+04-2.03204E-09-2.10548E-10
 -1       602-6.98604E+04-1.55576E+04-2.47745E+03-3.36622E+04-2.32114E-09 5.11227E-09
 -1       603-7.11906E+04-1.36293E+04-4.96829E+03-3.15228E+04-1.08435E-09-2.09548E-09
 -1       604-7.29214E+04-1.87701E+04-1.19349E+04-3.35208E+04 5.70219E-09 9.19022E-09
 -1       605-6.89667E+04-1.52462E+04-2.20334E+04-2.99267E+04 5.46075E-09 1.82790E-08
 -1       606 2.69700E+04-1.36265E+04-2.44362E+04 2.46080E+04 7.03039E-09-8.08996E-10
 -1       607 2.27938E+04-4.44568E+03-1.21690E+04 2.76480E+04 4.89490E-09-2.29431E-08
 -1       608 2.51721E+04-7.97662E+02-5.44790E+03 2.44300E+04-5.98448E-10 5.11113E-09
 -1       609 2.47141E+04-2.67489E+02-2.75205E+03 2.78668E+04 3.57159E-09 1.76133E-08
 -1       610 2.49665E+04-3.20645E+01-1.31324E+03 2.44091E+04 5.78530E-09 1.35537E-09
 -1       611 2.48928E+04-3.01656E+01-6.62120E+02 2.78905E+04 2.01135E-09-1.15897E-08
 -1       612 2.49196E+04-1.77462E+01-3.14983E+02 2.44070E+04-2.76668E-09 1.91972E-09
 -1       613 2.49017E+04-2.50901E+01-1.41311E+02 2.78933E+04 8.13998E-11 2.98542E-09
 -1       614 2.48969E+04-2.28107E+01-3.36440E+01 2.44063E+04 1.71894E-10 2.05500E-08
 -1       615 2.48950E+04-2.27502E+01 5.80882E+01 2.78938E+04 1.89539E-09-3.66845E-09
 -1       616 2.48792E+04-1.90787E+01 1.75220E+02 2.44065E+04 1.79443E-09-2.06819E-09
 -1       617 2.49149E+04 1.53452E+01 4.00227E+02 2.78933E+04 1.23032E-09-2.03863E-09
 -1       618 2.48435E+04 9.68792E+01 8.06859E+02 2.44068E+04 6.02995E-10 2.59729E-09
 -1       619 2.51990E+04 6.39683E+02 1.81198E+03 2.78926E+04 2.81841E-09-1.54319E-09
 -1       620 2.45751E+04 2.01058E+03 3.64204E+03 2.44077E+04 2.37264E-09 5.30054E-09
 -1       621 4.53510E+02 2.87320E+05 3.59564E+03 3.57243E+04 6.91216E-10-3.98722E-09
 -1       622 5.91073E+02 2.88162E+05 3.21555E+03 5.18809E+04 8.29914E-10 1.13259E-08
 -1       623 1.07581E+02 2.87507E+05 3.89800E+03 3.55614E+04 7.64203E-10-1.81808E-09
 -1       624 1.96521E+03 2.89338E+05 7.58329E+03 5.20420E+04 9.99876E-10-1.78932E-08
 -1       625 1.93292E+03 2.86006E+05 1.32648E+04 3.55585E+04 1.18644E-09 6.97128E-09
 -1       626 2.49558E+05 5.99376E+04 4.99777E+03 1.22733E+05-4.57476E-10-1.08539E-08
 -1       627 2.47221E+05 6.13759E+04 2.40838E+03 1.26986E+05-2.19370E-09-4.34443E-09
 -1       628 2.49687E+05 5.76446E+04 1.01840E+03 1.23574E+05-5.25961E-09-3.91310E-10
 -1       629 2.46591E+05 6.07204E+04 4.98484E+02 1.27228E+05-3.11047E-09 1.75581E-09
 -1       630 2.49701E+05 5.75343E+04 2.31146E+02 1.23608E+05-2.15368E-09-1.65726E-08
 -1       631 2.46524E+05 6.06964E+04 1.24296E+02 1.27229E+05 5.34851E-09-2.78726E-09
 -1       632 2.49696E+05 5.75389E+04 8.16376E+01 1.23603E+05 3.31238E-09-2.65425E-08
 -1       633 2.46514E+05 6.06989E+04 9.06916E+01 1.27225E+05 2.21326E-09 6.74891E-09
 -1       634 2.49690E+05 5.75368E+04 1.46339E+02 1.23602E+05 1.81865E-09 1.87954E-08
 -1       635 2.46527E+05 6.06977E+04 2.95988E+02 1.27229E+05-3.27861E-09-1.39864E-08
 -1       636 2.49681E+05 5.75318E+04 5.97678E+02 1.23601E+05 1.35742E-09-1.24087E-08
 -1       637 2.46656E+05 6.07908E+04 1.31401E+03 1.27228E+05-1.68609E-09 4.34761E-09
 -1       638 2.49634E+05 5.78222E+04 2.69985E+03 1.23470E+05 1.13050E-09 8.20364E-10
 -1       639 2.48074E+05 6.27632E+04 6.38782E+03 1.26810E+05 3.17209E-09 5.81099E-09
 -1       640 2.49439E+05 6.37107E+04 1.32559E+04 1.20986E+05 4.03770E-09 1.19712E-08
 -1       656 6.40487E+04-1.63716E+06-1.54610E+05-2.10092E+03 1.01863E-10 6.48811E-10
 -1       657-8.47207E+04-1.70702E+06-1.28063E+05 5.71409E+03-2.81943E-11 9.89228E-09
 -1       658 2.04071E+04-1.65701E+06-7.88438E+04-4.06350E+03 5.24096E-10-4.72144E-09
 -1       659-9.15381E+04-1.71025E+06-1.37022E+05 7.30358E+03-9.93168E-10 5.02414E-09
 -1       660 7.08508E+04-1.63393E+06-1.70012E+05-3.69040E+03-1.55705E-09-1.53002E-08
 -1       661 1.60926E+05 1.69488E+04 1.67277E+04 6.29108E+04-3.19915E-09 6.92671E-09
 -1       662 1.70285E+05 2.94323E+04 1.12731E+04 5.92692E+04-8.60155E-10-4.73119E-09
 -1       663 1.64211E+05 2.23156E+04 3.94273E+03 6.19578E+04-2.90129E-10 2.62503E-09
 -1       664 1.66477E+05 2.31556E+04 2.35838E+03 6.04329E+04 7.74151E-10 2.20700E-09
 -1       665 1.64709E+05 2.30492E+04 9.30365E+02 6.18131E+04-7.34531E-10-1.42544E-08
 -1       666 1.65889E+05 2.23163E+04 5.44308E+02 6.06214E+04 7.50634E-09-1.52023E-09
 -1       667 1.64795E+05 2.31330E+04 2.88986E+02 6.17772E+04 1.98352E-09 5.36403E-10
 -1       668 1.65793E+05 2.22554E+04 2.94163E+02 6.06735E+04-1.87528E-09-1.20436E-08
 -1       669 1.64803E+05 2.31083E+04 3.98014E+02 6.17612E+04-3.54305E-09-3.98893E-09
 -1       670 1.65890E+05 2.24711E+04 8.66460E+02 6.06763E+04-8.21393E-09-5.07112E-09
 -1       671 1.64698E+05 2.29218E+04 1.53839E+03 6.17725E+04-7.17677E-10-1.85969E-08
 -1       672 1.66787E+05 2.39679E+04 3.93587E+03 6.04593E+04 2.25752E-09-6.93075E-09
 -1       673 1.63911E+05 2.16494E+04 6.59586E+03 6.19638E+04 2.84979E-09-9.56516E-09
 -1       674 1.73064E+05 3.45645E+04 1.88627E+04 5.86147E+04-1.45599E-09-2.02390E-08
 -1       675 1.58461E+05 1.26219E+04 2.79989E+04 6.35057E+04-2.25873E-09-2.73394E-09
 -1       676 2.34863E+01-2.87707E+05-1.08712E+03-1.04362E+02 8.43613E-10-1.22243E-08
 -1       677-2.88026E+02-2.87970E+05-1.98960E+03 2.08564E+02 6.92125E-09-3.23053E-09
 -1       678 1.92820E+02-2.87520E+05-3.51712E+03-1.04133E+02 3.88354E-10 4.56401E-09
 -1       679-3.51760E+03-2.90093E+05-8.35519E+03 2.07688E+02 6.34373E-09-1.53826E-08
 -1       680 2.09987E+03-2.85585E+05-1.34657E+04-1.02331E+02 6.02085E-10-3.12643E-09
 -1       771-2.99236E+06-7.06371E+05-1.44447E+05-1.41458E+06-3.08064E-08-2.54367E-08
 -1       772-2.92207E+06-7.88470E+05-7.46157E+04-1.50930E+06-2.10566E-08 5.20231E-09
 -1       773-3.01985E+06-6.84850E+05-3.77176E+04-1.42661E+06-2.04309E-08 6.34464E-09
 -1       774-2.91286E+06-7.72623E+05-1.68940E+04-1.53151E+06 2.10712E-08-9.31323E-10
 -1       775-3.03386E+06-6.74983E+05-1.24222E+04-1.43230E+06 9.60426E-10 7.43603E-09
 -1       776-2.92289E+06-7.70289E+05-4.67983E+03-1.54807E+06 2.47383E-10 8.58563E-09
 -1       777-3.04593E+06-6.66247E+05-5.41082E+03-1.43731E+06 6.31553E-09 4.05271E-09
 -1       778-2.93340E+06-7.68151E+05-1.54113E+03-1.56227E+06 9.57516E-09 1.09103E-08
 -1       779-3.05625E+06-6.58648E+05-2.67944E+03-1.44160E+06-4.51109E-09-6.67205E-09
 -1       780-2.94264E+06-7.66107E+05-4.46102E+02-1.57382E+06-1.23400E-08 8.71296E-10
 -1       781-3.06443E+06-6.52540E+05-1.03291E+03-1.44496E+06-2.72848E-08-3.87081E-09
 -1       782-2.94975E+06-7.64362E+05 3.79200E+02-1.58235E+06-3.62052E-08-5.98084E-09
 -1       783-3.07018E+06-6.48309E+05 5.94975E+02-1.44731E+06-1.19544E-08-1.91521E-08
 -1       784-2.95366E+06-7.62554E+05 2.44022E+03-1.58760E+06-1.29075E-08 5.55428E-09
 -1       785-3.07357E+06-6.45791E+05 4.30961E+03-1.44882E+06-3.13667E-08 7.35781E-09
 -1       786 1.25198E+05-9.66067E+03 2.23505E+04-2.82800E+02 1.10814E-09 2.63944E-08
 -1       787 1.34891E+05 1.11846E+04 1.58121E+04-1.02847E+02 5.72113E-09 1.13778E-08
 -1       788 1.28936E+05-1.51398E+03 5.78274E+03-2.49514E+02 3.57187E-09-5.34146E-09
 -1       789 1.30537E+05 1.75215E+03 3.63045E+03-1.54328E+02 3.13081E-09 1.00649E-08
 -1       790 1.29553E+05-2.35866E+02 1.47048E+03-2.31334E+02-3.10482E-09 3.07830E-09
 -1       791 1.29816E+05 2.72792E+02 8.50417E+02-1.85537E+02-5.58157E-09 5.26097E-09
 -1       792 1.29657E+05-3.57279E+01 3.62583E+02-2.18308E+02-4.17899E-09 6.53188E-10
 -1       793 1.29692E+05 3.85934E+01 1.85607E+02-2.10073E+02 2.81479E-10-1.43055E-08
 -1       794 1.29677E+05-1.81630E+00 5.79830E+01-2.06797E+02 4.03239E-09 8.69989E-09
 -1       795 1.29659E+05-1.89528E+01-3.10236E+01-2.34127E+02-4.43896E-09 1.76435E-08
 -1       796 1.29690E+05 2.17865E+01-1.15964E+02-1.94253E+02 3.05986E-09-5.94917E-09
 -1       797 1.29587E+05-1.64095E+02-3.30887E+02-2.62960E+02 3.57435E-09-7.04662E-09
 -1       798 1.29749E+05 1.43217E+02-5.40833E+02-1.77964E+02 1.73927E-09 3.66120E-09
 -1       799 1.29176E+05-1.05598E+03-1.49092E+03-3.03117E+02 5.72203E-09-8.02686E-09
 -1       800 1.30102E+05 9.12938E+02-2.11082E+03-1.54097E+02 8.40880E-10-2.17040E-09
 -1       801-1.06500E+05-8.79584E+06-1.19141E+06 1.13024E+06 8.50123E-08-5.10154E-08
 -1       802 5.53268E+05 4.07369E+06 1.71007E+06-1.36482E+06 2.36796E-07-2.46737E-08
 -1       803-4.27541E+05-1.21308E+07-1.52594E+06 7.19310E+05 7.22939E-08 2.02490E-08
 -1       804 2.15191E+05 1.13847E+06 1.20556E+06 5.83408E+05-1.05316E-07-7.93934E-08
 -1       805 1.64664E+05-5.87578E+06-2.33125E+05-8.13364E+05-4.36412E-08-5.06225E-08
 -1       806-2.96997E+05-5.72294E+04-2.18929E+04-1.17431E+05-6.21185E-09 1.15847E-08
 -1       807-2.98757E+05-5.36178E+04-1.07557E+04-1.22698E+05 1.15779E-09 4.94489E-09
 -1       808-2.97595E+05-4.93430E+04-4.56295E+03-1.21165E+05-3.53339E-09-2.08433E-09
 -1       809-2.96498E+05-5.05942E+04-2.23118E+03-1.22960E+05 3.46699E-09 2.07087E-08
 -1       810-2.97685E+05-4.90683E+04-1.02265E+03-1.21331E+05 7.34190E-09 7.13044E-09
 -1       811-2.96323E+05-5.04725E+04-5.08565E+02-1.22926E+05 7.69433E-10-3.74266E-08
 -1       812-2.97699E+05-4.90918E+04-2.57202E+02-1.21330E+05-7.85440E-09-1.74350E-09
 -1       813-2.96299E+05-5.04744E+04-1.67194E+02-1.22909E+05-8.69477E-10-4.16435E-09
 -1       814-2.97693E+05-4.91008E+04-1.65694E+02-1.21326E+05 4.66298E-09 1.84787E-08
 -1       815-2.96303E+05-5.04764E+04-2.67072E+02-1.22902E+05 2.87946E-09-4.11524E-09
 -1       816-2.97674E+05-4.90996E+04-5.06160E+02-1.21323E+05-7.75799E-10-1.37366E-08
 -1       817-2.96390E+05-5.05246E+04-1.08645E+03-1.22892E+05-1.50958E-08-4.11865E-09
 -1       818-2.97608E+05-4.92525E+04-2.21590E+03-1.21251E+05-3.49064E-09 2.22099E-09
 -1       819-2.97603E+05-5.18637E+04-5.21408E+03-1.22606E+05-9.98625E-09 1.33750E-08
 -1       820-2.97192E+05-5.31896E+04-1.06124E+04-1.19567E+05-4.24097E-09-4.79213E-09
 -1       821-3.66873E+05 2.02148E+04-4.68607E+04 1.51214E+03 1.04756E-08-7.00129E-09
 -1       822-3.86729E+05-2.34070E+04-3.30820E+04-2.93231E+03 2.71809E-09-2.04818E-09
 -1       823-3.74469E+05 3.17603E+03-1.21225E+04 2.20565E+03-8.56756E-09 7.68887E-09
 -1       824-3.77717E+05-3.66872E+03-7.61109E+03-3.27059E+03 1.17296E-09 1.11027E-09
 -1       825-3.75884E+05 4.93634E+02-3.15773E+03 1.85047E+03 1.25435E-08-3.73075E-09
 -1       826-3.75841E+05-5.68765E+02-1.80229E+03-1.70649E+03 1.63434E-08-6.36450E-09
 -1       827-3.76334E+05 7.03212E+01-1.05260E+03 6.41494E+02 7.55419E-09-9.85494E-09
 -1       828-3.75479E+05-1.59561E+02-7.47889E+02 9.16218E+02-2.30340E-09 2.42231E-09
 -1       829-3.76242E+05 8.15073E+01-1.05584E+03-7.72269E+02 7.86542E-10 1.35097E-08
 -1       830-3.76050E+05-6.07000E+02-1.90862E+03 3.18545E+03-9.10205E-10-1.07271E-08
 -1       831-3.75773E+05 5.25014E+02-3.25254E+03-1.62777E+03-1.97243E-09 4.05498E-09
 -1       832-3.77804E+05-3.82060E+03-7.90749E+03 3.87720E+03-1.49816E-09 1.19107E-08
 -1       833-3.74494E+05 3.29701E+03-1.26031E+04-1.46403E+03-2.34950E-09-4.36512E-09
 -1       834-3.86941E+05-2.43027E+04-3.43116E+04 2.59558E+03-2.60578E-09-1.27052E-08
 -1       835-3.66632E+05 2.09846E+04-4.86810E+04-3.46116E+02 4.21217E-09 1.74987E-09
 -1       836-1.33806E+03 3.53498E+05 2.18092E+04-1.62793E+04-5.74710E-09-5.06270E-09
 -1       837 4.66533E+03 3.60321E+05 1.84876E+04-3.31389E+04-5.90671E-09-2.66959E-09
 -1       838-5.26084E+02 3.55407E+05 1.88829E+04-1.62090E+04-5.12773E-09-1.35446E-09
 -1       839 1.19181E+04 3.65724E+05 3.57662E+04-3.31888E+04-5.46743E-09-1.76531E-08
 -1       840-3.67354E+03 3.48040E+05 5.70538E+04-1.62338E+04-5.00586E-09-1.10165E-08
 -1       856-5.71676E+04 7.96102E+03-2.09791E+04-3.99034E+02 3.03453E-09-9.70704E-09
 -1       857-6.58144E+04-9.35090E+03-1.44421E+04 5.47912E+03 4.69328E-09-2.61125E-08
 -1       858-6.05905E+04 1.11628E+03-5.44373E+03-4.22958E+02 2.07064E-09-1.13525E-08
 -1       859-6.18859E+04-1.31040E+03-3.28541E+03 5.51514E+03-2.56512E-09-3.65549E-09
 -1       860-6.11020E+04 1.56147E+02-1.37751E+03-4.34856E+02-8.85962E-10-2.05489E-10
 -1       861-6.12975E+04-1.83737E+02-7.59057E+02 5.53138E+03-3.79774E-09 3.67652E-09
 -1       862-6.11819E+04 2.10519E+01-3.18056E+02-4.39184E+02-3.47651E-10 6.64099E-09
 -1       863-6.12000E+04-1.95810E+01-1.21593E+02 5.53382E+03-5.67475E-09 2.48991E-09
 -1       864-6.12000E+04-4.29354E+00 3.39203E+01-4.37290E+02-8.97089E-10-1.92864E-08
 -1       865-6.11482E+04 5.54779E+01 2.24494E+02 5.52323E+03-2.30682E-09-1.56604E-08
 -1       866-6.12315E+04-5.40973E+01 4.59039E+02-4.28604E+02 4.15525E-10-3.03976E-09
 -1       867-6.09305E+04 4.47431E+02 1.13416E+03 5.49961E+03 2.31321E-09 2.12167E-08
 -1       868-6.14130E+04-3.89378E+02 1.88564E+03-4.13669E+02-6.31644E-10-1.56115E-09
 -1       869-5.95468E+04 3.24051E+03 5.02244E+03 5.46053E+03 1.81529E-10-1.73988E-08
 -1       870-6.26079E+04-2.77162E+03 7.28842E+03-3.89447E+02-4.04134E-09-1.15333E-08
 -1       871-5.34889E+03-1.92485E+04-1.86252E+04 1.24471E+05-3.57068E-09-1.09712E-08
 -1       872-1.99129E+03-2.35546E+04-7.77365E+03 1.61392E+05-7.93352E-09-8.79481E-10
 -1       873 3.14590E+02-2.14839E+04 6.26945E+02 1.24198E+05-4.17504E-09-9.05050E-09
 -1       874 3.09908E+03-1.91258E+04 9.49339E+03 1.61424E+05-8.62565E-09 5.87647E-09
 -1       875 6.55307E+03-2.37449E+04 2.13672E+04 1.24427E+05-3.76895E-09-1.53577E-08
 -1       876 2.83455E+05 4.79051E+04 1.46271E+04 1.13907E+05 3.78441E-09 1.82181E-08
 -1       877 2.84408E+05 5.09997E+04 7.81143E+03 1.18116E+05 5.15047E-09-2.42982E-08
 -1       878 2.84823E+05 4.62852E+04 3.27261E+03 1.15106E+05-1.35065E-08-8.35257E-09
 -1       879 2.82420E+05 4.90157E+04 1.63058E+03 1.18215E+05-1.78807E-09 3.05636E-08
 -1       880 2.84921E+05 4.62684E+04 7.59473E+02 1.15155E+05-5.11818E-09 5.34055E-09
 -1       881 2.82288E+05 4.89309E+04 4.05490E+02 1.18193E+05-8.16215E-09-6.91196E-09
 -1       882 2.84930E+05 4.62811E+04 2.59273E+02 1.15156E+05-3.15117E-09-8.00721E-09
 -1       883 2.82278E+05 4.89265E+04 2.78510E+02 1.18186E+05-5.37148E-09-1.25259E-09
 -1       884 2.84924E+05 4.62784E+04 4.42844E+02 1.15157E+05-2.49111E-09-5.65132E-09
 -1       885 2.82314E+05 4.89327E+04 8.90237E+02 1.18196E+05 2.69102E-09-4.59522E-09
 -1       886 2.84889E+05 4.62524E+04 1.79418E+03 1.15153E+05-1.80542E-09 1.01645E-08
 -1       887 2.82629E+05 4.91394E+04 3.91912E+03 1.18242E+05 9.61847E-09 1.87242E-10
 -1       888 2.84641E+05 4.62960E+04 7.89713E+03 1.15028E+05-7.12780E-09 6.61930E-09
 -1       889 2.87331E+05 5.40283E+04 1.88649E+04 1.18097E+05-1.72761E-08-2.50566E-09
 -1       890 2.81419E+05 5.01235E+04 3.53333E+04 1.12021E+05-5.79848E-09 1.16252E-08
 -1       891-9.96542E+01-1.57516E+05-1.92471E+03 2.67125E+04 2.27828E-10 1.21433E-08
 -1       892-1.89756E+02-1.58017E+05-2.06955E+03 4.05395E+04 8.28550E-10-1.96292E-09
 -1       893 2.85124E+01-1.57577E+05-2.93272E+03 2.67195E+04-1.18689E-10 5.89262E-09
 -1       894-1.48003E+03-1.59126E+05-6.07141E+03 4.03904E+04 1.83491E-09-2.10603E-08
 -1       895-1.17265E+03-1.56312E+05-1.06924E+04 2.68628E+04-1.09230E-09 3.58978E-09
 -1       956-3.63142E+05-5.21712E+03-1.29264E+04 2.88489E+04 6.31098E-09 3.04112E-09
 -1       957-3.65682E+05-1.82516E+03-6.63509E+03 3.46819E+04 1.85082E-10 5.49335E-09
 -1       958-3.64302E+05-2.13446E+02-2.98987E+03 2.86891E+04-4.58476E-09 8.28209E-09
 -1       959-3.64493E+05-1.10070E+02-1.52677E+03 3.48661E+04-1.23146E-09 1.69196E-08
 -1       960-3.64413E+05-2.61989E+01-7.44506E+02 2.86729E+04-3.76804E-09-5.95810E-09
 -1       961-3.64414E+05-4.08479E+01-3.94819E+02 3.48853E+04-2.98792E-09-1.58202E-08
 -1       962-3.64439E+05-2.80430E+01-2.26111E+02 2.86702E+04-4.54747E-11-3.03089E-09
 -1       963-3.64414E+05-3.72264E+01-1.81651E+02 3.48887E+04 6.43649E-09 6.69979E-09
 -1       964-3.64444E+05-2.49349E+01-2.21008E+02 2.86694E+04-6.77716E-10 1.31570E-08
 -1       965-3.64426E+05-3.42224E+01-3.82341E+02 3.48881E+04-7.21013E-09-8.22092E-09
 -1       966-3.64429E+05-1.69606E+01-7.18377E+02 2.86708E+04 1.60458E-09-2.07115E-09
 -1       967-3.64513E+05-9.46870E+01-1.47343E+03 3.48748E+04 2.11480E-09 2.26960E-08
 -1       968-3.64330E+05-1.91691E+02-2.88431E+03 2.86826E+04 1.49021E-09 2.08615E-08
 -1       969-3.65672E+05-1.74459E+03-6.40326E+03 3.47371E+04 9.93623E-10 2.10995E-08
 -1       970-3.63219E+05-5.01681E+03-1.24737E+04 2.88022E+04-1.87265E-09-7.48150E-09
 -1       971-3.33853E+05-1.68026E+03-9.10048E+03 1.50148E+04-3.18141E-09 6.42717E-09
 -1       972-3.36048E+05-1.23175E+03-4.95602E+03 2.08018E+04-1.32500E-08-4.86898E-09
 -1       973-3.34867E+05-5.24493E+01-2.21977E+03 1.48952E+04 5.98448E-10-4.48949E-09
 -1       974-3.35003E+05-6.79001E+01-1.15055E+03 2.09361E+04 4.13115E-09 7.26163E-09
 -1       975-3.34947E+05-8.70989E+00-5.75331E+02 1.48832E+04-2.56341E-09 6.49720E-09
 -1       976-3.34942E+05-1.92778E+01-3.32299E+02 2.09513E+04 8.67431E-10-1.39587E-08
 -1       977-3.34963E+05-8.08250E+00-2.41854E+02 1.48800E+04-3.55135E-09-8.31278E-10
 -1       978-3.34948E+05-1.32733E+01-2.83939E+02 2.09559E+04-5.01541E-09-2.87946E-09
 -1       979-3.34963E+05 7.50400E-02-4.56993E+02 1.48786E+04-1.46531E-09-5.45845E-09
 -1       980-3.34982E+05-1.03227E+01-8.82893E+02 2.09569E+04 4.31100E-10-9.82413E-09
 -1       981-3.34935E+05 2.21323E+01-1.71022E+03 1.48791E+04 2.11537E-09 1.06155E-09
 -1       982-3.35216E+05-1.36681E+02-3.53513E+03 2.09504E+04 2.48883E-09-8.66045E-09
 -1       983-3.34719E+05-8.73672E+01-6.86886E+03 1.48851E+04 4.40878E-09-7.86076E-09
 -1       984-3.38520E+05-3.72406E+03-1.53825E+04 2.08665E+04 3.86990E-09-6.04268E-09
 -1       985-3.31609E+05-5.11359E+03-2.82470E+04 1.49575E+04-1.46429E-10-1.16543E-08
 -3
    1PSTEP                        19          10           1          
  100CL  110 6.53320E-01         409                     0   10           1
 -4  DISP        4    1
 -5  D1          1    2    1    0
 -5  D2          1    2    2    0
 -5  D3          1    2    3    0
 -5  ALL         1    2    0    0    1ALL
 -1         1 2.38253E-03 0.00000E+00 0.00000E+00
 -1         2 1.43623E-03-1.10662E-26 2.64698E-23
 -1         3 3.28402E-04 3.93322E-29 1.32349E-23
 -1         5 1.71714E-04-4.76464E-27 2.48154E-24
 -1         8 2.36757E-03-4.76022E-07 0.00000E+00
 -1         9 2.34914E-03-9.02689E-05 0.00000E+00
 -1        10 2.97882E-04-3.47663E-06 1.32349E-23
 -1        12 1.73391E-04 7.97483E-07-1.65436E-24
 -1        15 2.34989E-03-5.15082E-07 2.06795E-25
 -1        16 2.38784E-03-9.16425E-05 0.00000E+00
 -1        17 2.03202E-04-7.85094E-06 0.00000E+00
 -1        18 1.76791E-04 3.16087E-05 0.00000E+00
 -1        19 1.78351E-04 1.58127E-06 0.00000E+00
 -1        20 1.78493E-04-7.64397E-06 0.00000E+00
 -1        21 1.77629E-04-2.06513E-05 0.00000E+00
 -1        24 3.00360E-05-1.18861E-05 0.00000E+00
 -1        25 1.86557E-04 3.18266E-05 0.00000E+00
 -1        26 1.87248E-04 2.18715E-06 0.00000E+00
 -1        27 1.85101E-04-1.11269E-05 0.00000E+00
 -1        28 1.84771E-04-2.12632E-05 0.00000E+00
 -1        32 0.00000E+00 0.00000E+00 0.00000E+00
 -1        33 1.95125E-04 2.92389E-06 0.00000E+00
 -1        34 1.93051E-04-1.11793E-05 0.00000E+00
 -1        35 1.91154E-04-2.15989E-05 0.00000E+00
 -1        51 2.38155E-03-9.33768E-08 6.61744E-24
 -1        52 2.37974E-03-1.70595E-07 0.00000E+00
 -1        53 2.37727E-03-2.45239E-07 0.00000E+00
 -1        54 2.37430E-03-3.19492E-07 0.00000E+00
 -1        55 2.37101E-03-3.94996E-07-1.75776E-24
 -1        56 2.37810E-03 1.20275E-06 0.00000E+00
 -1        57 2.37181E-03 6.90980E-06 0.00000E+00
 -1        58 2.36436E-03 1.56559E-05 0.00000E+00
 -1        59 2.35640E-03 2.56556E-05 5.29396E-23
 -1        60 2.34872E-03 3.49370E-05 1.05879E-22
 -1        61 2.34204E-03 4.15774E-05 0.00000E+00
 -1        62 2.33694E-03 4.40952E-05-1.05879E-22
 -1        63 2.33382E-03 4.13487E-05 5.29396E-23
 -1        64 2.33275E-03 3.30791E-05 0.00000E+00
 -1        65 2.33362E-03 1.94910E-05 0.00000E+00
 -1        66 2.33600E-03 1.68876E-06-1.05879E-22
 -1        67 2.33936E-03-1.88645E-05 0.00000E+00
 -1        68 2.34302E-03-4.02386E-05-1.05879E-22
 -1        69 2.34628E-03-6.04250E-05 0.00000E+00
 -1        70 2.34847E-03-7.76313E-05 0.00000E+00
 -1        86 1.49321E-03-3.30444E-06 5.29396E-23
 -1        87 1.66003E-03-1.85175E-05-1.32349E-23
 -1        88 1.88434E-03-4.41168E-05 2.64698E-23
 -1        89 2.11115E-03-7.02811E-05 0.00000E+00
 -1        90 2.28413E-03-8.64692E-05 2.64698E-23
 -1       121 3.27545E-04-5.63235E-07 0.00000E+00
 -1       122 3.24977E-04-1.12929E-06-6.61744E-24
 -1       123 3.20707E-04-1.70094E-06 1.32349E-23
 -1       124 3.14752E-04-2.28096E-06 6.61744E-24
 -1       125 3.07133E-04-2.87176E-06 1.32349E-23
 -1       191 1.71760E-04 1.32978E-07-1.03398E-24
 -1       192 1.71900E-04 2.65945E-07 1.03398E-25
 -1       193 1.72134E-04 3.98895E-07-2.27475E-24
 -1       194 1.72460E-04 5.31814E-07 2.06795E-25
 -1       195 1.72879E-04 6.64687E-07 0.00000E+00
 -1       251 2.36693E-03-7.13989E-06 0.00000E+00
 -1       252 2.36598E-03-3.29075E-05-6.61744E-24
 -1       253 2.36457E-03-7.33377E-05 1.32349E-23
 -1       254 2.36273E-03-1.23610E-04 0.00000E+00
 -1       255 2.36079E-03-1.75997E-04-1.32349E-23
 -1       256 2.35912E-03-2.22722E-04 6.61744E-24
 -1       257 2.35790E-03-2.57686E-04 1.32349E-23
 -1       258 2.35712E-03-2.75091E-04 0.00000E+00
 -1       259 2.35648E-03-2.74264E-04 0.00000E+00
 -1       260 2.35566E-03-2.55007E-04 6.61744E-24
 -1       261 2.35453E-03-2.22494E-04-2.64698E-23
 -1       262 2.35313E-03-1.82237E-04 0.00000E+00
 -1       263 2.35173E-03-1.42048E-04 2.64698E-23
 -1       264 2.35060E-03-1.09735E-04 1.32349E-23
 -1       265 2.34979E-03-9.07650E-05 0.00000E+00
 -1       266 2.36462E-03-4.89553E-07 0.00000E+00
 -1       267 2.36168E-03-4.95208E-07 0.00000E+00
 -1       268 2.35873E-03-5.01361E-07 0.00000E+00
 -1       269 2.35579E-03-5.06036E-07-2.06795E-25
 -1       270 2.35284E-03-5.10677E-07-2.06795E-25
 -1       271 2.36598E-03 1.58812E-06 0.00000E+00
 -1       272 2.36482E-03 2.41895E-06 1.32349E-23
 -1       273 2.36412E-03 2.03074E-06 0.00000E+00
 -1       274 2.36387E-03 4.39251E-07 0.00000E+00
 -1       275 2.36406E-03-2.32524E-06 0.00000E+00
 -1       276 2.36466E-03-6.22285E-06-1.32349E-23
 -1       277 2.36567E-03-1.12021E-05 2.64698E-23
 -1       278 2.36705E-03-1.72016E-05 1.32349E-23
 -1       279 2.36879E-03-2.41499E-05-2.64698E-23
 -1       280 2.37084E-03-3.19665E-05-1.32349E-23
 -1       281 2.37317E-03-4.05623E-05-2.64698E-23
 -1       282 2.37576E-03-4.98412E-05 0.00000E+00
 -1       283 2.37856E-03-5.97000E-05 2.64698E-23
 -1       284 2.38153E-03-7.00294E-05 0.00000E+00
 -1       285 2.38464E-03-8.07172E-05 2.64698E-23
 -1       301 2.35615E-03-9.05233E-05-6.61744E-24
 -1       302 2.36187E-03-9.07420E-05 3.30872E-24
 -1       303 2.36709E-03-9.09553E-05-1.32349E-23
 -1       304 2.37262E-03-9.11691E-05 1.32349E-23
 -1       305 2.37927E-03-9.13913E-05 2.64698E-23
 -1       306 2.38445E-03-2.30973E-04 0.00000E+00
 -1       307 2.44897E-03-6.17184E-04-5.29396E-23
 -1       308 2.50212E-03-1.18655E-03-1.05879E-22
 -1       309 2.53585E-03-1.85064E-03-5.29396E-23
 -1       310 2.57449E-03-2.49177E-03 1.05879E-22
 -1       311 2.63577E-03-2.99434E-03 5.29396E-23
 -1       312 2.69477E-03-3.28169E-03 0.00000E+00
 -1       313 2.69857E-03-3.31363E-03 0.00000E+00
 -1       314 2.58182E-03-3.09840E-03 1.05879E-22
 -1       315 2.30574E-03-2.69087E-03-5.29396E-23
 -1       316 1.88497E-03-2.16231E-03-1.05879E-22
 -1       317 1.37673E-03-1.58004E-03-5.29396E-23
 -1       318 8.83515E-04-1.00668E-03 0.00000E+00
 -1       319 5.03351E-04-5.07574E-04 0.00000E+00
 -1       320 2.77734E-04-1.52109E-04 0.00000E+00
 -1       336 2.86819E-04-4.14370E-06 0.00000E+00
 -1       337 2.73778E-04-4.83423E-06 0.00000E+00
 -1       338 2.58820E-04-5.55008E-06 1.32349E-23
 -1       339 2.42016E-04-6.29184E-06 0.00000E+00
 -1       340 2.23447E-04-7.06369E-06-1.32349E-23
 -1       406 1.73992E-04 9.28973E-07 3.30872E-24
 -1       407 1.74683E-04 1.06034E-06 8.27181E-25
 -1       408 1.75465E-04 1.19155E-06 1.08567E-24
 -1       409 1.76337E-04 1.32244E-06-9.30578E-25
 -1       410 1.77299E-04 1.45275E-06-1.65436E-24
 -1       521 2.42391E-03-2.41392E-04 0.00000E+00
 -1       522 2.48724E-03-6.46797E-04 0.00000E+00
 -1       523 2.53517E-03-1.24245E-03 0.00000E+00
 -1       524 2.56112E-03-1.93372E-03 5.29396E-23
 -1       525 2.59296E-03-2.60022E-03 1.05879E-22
 -1       526 2.65111E-03-3.12392E-03 5.29396E-23
 -1       527 2.70979E-03-3.42208E-03 0.00000E+00
 -1       528 2.71192E-03-3.45348E-03 1.05879E-22
 -1       529 2.58542E-03-3.22598E-03-2.11758E-22
 -1       530 2.28918E-03-2.80117E-03 5.29396E-23
 -1       531 1.83823E-03-2.25369E-03 0.00000E+00
 -1       532 1.29526E-03-1.65374E-03 0.00000E+00
 -1       533 7.67567E-04-1.06219E-03 0.00000E+00
 -1       534 3.57905E-04-5.42758E-04 0.00000E+00
 -1       535 1.13262E-04-1.68774E-04 0.00000E+00
 -1       536 2.02500E-04 2.55127E-05 6.61744E-24
 -1       537 2.00731E-04 8.33652E-05-3.30872E-24
 -1       538 1.98002E-04 1.56811E-04 3.30872E-24
 -1       539 1.94784E-04 2.36873E-04-1.65436E-24
 -1       540 1.91886E-04 3.12533E-04 0.00000E+00
 -1       541 1.89999E-04 3.72793E-04 0.00000E+00
 -1       542 1.89123E-04 4.11152E-04-3.30872E-24
 -1       543 1.88906E-04 4.21247E-04 0.00000E+00
 -1       544 1.88597E-04 4.03833E-04 0.00000E+00
 -1       545 1.87503E-04 3.59873E-04 1.65436E-24
 -1       546 1.85478E-04 2.97190E-04 0.00000E+00
 -1       547 1.82744E-04 2.23721E-04 1.65436E-24
 -1       548 1.80038E-04 1.50647E-04 3.30872E-24
 -1       549 1.78083E-04 8.91490E-05 0.00000E+00
 -1       550 1.77064E-04 4.69390E-05 0.00000E+00
 -1       551 1.79110E-04-8.39909E-06 0.00000E+00
 -1       552 1.51862E-04-9.02145E-06 0.00000E+00
 -1       553 1.22386E-04-9.70145E-06-1.65436E-24
 -1       554 9.16276E-05-1.04193E-05 0.00000E+00
 -1       555 6.05308E-05-1.11491E-05 0.00000E+00
 -1       556 1.95927E-04 1.07679E-05 5.29396E-23
 -1       557 1.90059E-04 2.58445E-05 0.00000E+00
 -1       558 1.85467E-04 3.76566E-05 0.00000E+00
 -1       559 1.82024E-04 4.65037E-05 0.00000E+00
 -1       560 1.79604E-04 5.26857E-05 0.00000E+00
 -1       561 1.78086E-04 5.65049E-05 0.00000E+00
 -1       562 1.77348E-04 5.82646E-05 0.00000E+00
 -1       563 1.77271E-04 5.82692E-05 1.32349E-23
 -1       564 1.77737E-04 5.68239E-05 0.00000E+00
 -1       565 1.78632E-04 5.42343E-05 0.00000E+00
 -1       566 1.79838E-04 5.08066E-05 0.00000E+00
 -1       567 1.81242E-04 4.68475E-05 0.00000E+00
 -1       568 1.82730E-04 4.26637E-05 1.65436E-24
 -1       569 1.84187E-04 3.85619E-05 0.00000E+00
 -1       570 1.85500E-04 3.48488E-05 0.00000E+00
 -1       571 1.76886E-04 2.96622E-05-8.27181E-25
 -1       572 1.76983E-04 2.76521E-05 0.00000E+00
 -1       573 1.77080E-04 2.55934E-05-1.65436E-24
 -1       574 1.77177E-04 2.35019E-05 8.27181E-25
 -1       575 1.77274E-04 2.13931E-05-3.30872E-24
 -1       576 1.77372E-04 1.92830E-05-1.65436E-24
 -1       577 1.77469E-04 1.71873E-05 3.30872E-24
 -1       578 1.77567E-04 1.51219E-05 0.00000E+00
 -1       579 1.77664E-04 1.31025E-05 0.00000E+00
 -1       580 1.77762E-04 1.11450E-05-6.61744E-24
 -1       581 1.77860E-04 9.26521E-06 6.61744E-24
 -1       582 1.77958E-04 7.47895E-06 0.00000E+00
 -1       583 1.78056E-04 5.80199E-06 0.00000E+00
 -1       584 1.78154E-04 4.24996E-06 0.00000E+00
 -1       585 1.78253E-04 2.83833E-06 0.00000E+00
 -1       586 1.78376E-04 3.16471E-05 0.00000E+00
 -1       587 1.79922E-04 3.16850E-05 4.13590E-25
 -1       588 1.81470E-04 3.17224E-05-8.27181E-25
 -1       589 1.83064E-04 3.17592E-05 0.00000E+00
 -1       590 1.84746E-04 3.17948E-05 0.00000E+00
 -1       591 1.77456E-04 2.97511E-05 2.06795E-25
 -1       592 1.78125E-04 2.78726E-05 0.00000E+00
 -1       593 1.78798E-04 2.59792E-05 0.00000E+00
 -1       594 1.79475E-04 2.40757E-05-4.13590E-25
 -1       595 1.80154E-04 2.21669E-05 8.27181E-25
 -1       596 1.80833E-04 2.02575E-05 4.13590E-25
 -1       597 1.81510E-04 1.83525E-05-8.27181E-25
 -1       598 1.82184E-04 1.64564E-05 4.13590E-25
 -1       599 1.82853E-04 1.45742E-05 8.27181E-25
 -1       600 1.83515E-04 1.27106E-05-4.13590E-25
 -1       601 1.84168E-04 1.08702E-05 0.00000E+00
 -1       602 1.84811E-04 9.05803E-06-2.06795E-25
 -1       603 1.85441E-04 7.27870E-06 4.13590E-25
 -1       604 1.86058E-04 5.53711E-06-2.58494E-26
 -1       605 1.86660E-04 3.83797E-06 0.00000E+00
 -1       606 1.78364E-04 5.51110E-07 3.30872E-24
 -1       607 1.78374E-04-3.91894E-07 0.00000E+00
 -1       608 1.78383E-04-1.25285E-06-3.30872E-24
 -1       609 1.78392E-04-2.03753E-06-1.65436E-24
 -1       610 1.78400E-04-2.75176E-06 0.00000E+00
 -1       611 1.78409E-04-3.40142E-06 0.00000E+00
 -1       612 1.78417E-04-3.99240E-06 0.00000E+00
 -1       613 1.78426E-04-4.53059E-06 0.00000E+00
 -1       614 1.78434E-04-5.02191E-06-1.65436E-24
 -1       615 1.78443E-04-5.47224E-06 0.00000E+00
 -1       616 1.78451E-04-5.88749E-06 0.00000E+00
 -1       617 1.78460E-04-6.27356E-06 4.13590E-25
 -1       618 1.78468E-04-6.63634E-06 0.00000E+00
 -1       619 1.78477E-04-6.98174E-06 0.00000E+00
 -1       620 1.78485E-04-7.31565E-06 2.06795E-25
 -1       621 1.79567E-04 1.68276E-06 0.00000E+00
 -1       622 1.80932E-04 1.78450E-06-1.65436E-24
 -1       623 1.82413E-04 1.88606E-06-1.65436E-24
 -1       624 1.83980E-04 1.98732E-06 8.27181E-25
 -1       625 1.85602E-04 2.08830E-06 0.00000E+00
 -1       626 1.78847E-04 5.86375E-07 0.00000E+00
 -1       627 1.79320E-04-3.43706E-07 0.00000E+00
 -1       628 1.79771E-04-1.21683E-06 0.00000E+00
 -1       629 1.80205E-04-2.04119E-06 1.65436E-24
 -1       630 1.80623E-04-2.82500E-06-3.30872E-24
 -1       631 1.81029E-04-3.57650E-06 0.00000E+00
 -1       632 1.81427E-04-4.30392E-06-3.30872E-24
 -1       633 1.81818E-04-5.01551E-06 0.00000E+00
 -1       634 1.82207E-04-5.71949E-06 3.30872E-24
 -1       635 1.82595E-04-6.42411E-06 0.00000E+00
 -1       636 1.82987E-04-7.13760E-06 3.30872E-24
 -1       637 1.83386E-04-7.86821E-06-1.65436E-24
 -1       638 1.83794E-04-8.62417E-06 0.00000E+00
 -1       639 1.84214E-04-9.41375E-06-8.27181E-25
 -1       640 1.84649E-04-1.02452E-05-3.30872E-24
 -1       656 1.79053E-04-8.21010E-06 6.61744E-24
 -1       657 1.80030E-04-8.79922E-06-6.61744E-24
 -1       658 1.81284E-04-9.38694E-06-1.32349E-23
 -1       659 1.82669E-04-9.97432E-06-6.61744E-24
 -1       660 1.84002E-04-1.05635E-05-6.61744E-24
 -1       661 1.78703E-04-8.01597E-06 0.00000E+00
 -1       662 1.78950E-04-8.47708E-06 0.00000E+00
 -1       663 1.79228E-04-9.02231E-06 0.00000E+00
 -1       664 1.79536E-04-9.64547E-06 0.00000E+00
 -1       665 1.79871E-04-1.03410E-05 0.00000E+00
 -1       666 1.80231E-04-1.11032E-05 0.00000E+00
 -1       667 1.80614E-04-1.19267E-05 0.00000E+00
 -1       668 1.81017E-04-1.28062E-05-8.27181E-25
 -1       669 1.81440E-04-1.37366E-05-1.65436E-24
 -1       670 1.81880E-04-1.47128E-05 0.00000E+00
 -1       671 1.82336E-04-1.57298E-05-1.65436E-24
 -1       672 1.82804E-04-1.67828E-05 0.00000E+00
 -1       673 1.83284E-04-1.78671E-05 1.65436E-24
 -1       674 1.83774E-04-1.89783E-05 8.27181E-25
 -1       675 1.84271E-04-2.01112E-05 0.00000E+00
 -1       676 1.78823E-04-2.07539E-05 0.00000E+00
 -1       677 1.80017E-04-2.08564E-05 0.00000E+00
 -1       678 1.81209E-04-2.09589E-05-3.30872E-24
 -1       679 1.82399E-04-2.10611E-05-1.65436E-24
 -1       680 1.83587E-04-2.11633E-05 0.00000E+00
 -1       771 1.86119E-05 1.35963E-05 0.00000E+00
 -1       772 8.99063E-06 3.45259E-05 0.00000E+00
 -1       773 1.08596E-06 5.11234E-05 0.00000E+00
 -1       774-5.21990E-06 6.36361E-05 0.00000E+00
 -1       775-1.00423E-05 7.23207E-05 0.00000E+00
 -1       776-1.35013E-05 7.74498E-05 2.64698E-23
 -1       777-1.57167E-05 7.93053E-05-5.29396E-23
 -1       778-1.68110E-05 7.81821E-05 2.64698E-23
 -1       779-1.69061E-05 7.43831E-05 0.00000E+00
 -1       780-1.61257E-05 6.82217E-05 0.00000E+00
 -1       781-1.45931E-05 6.00177E-05 0.00000E+00
 -1       782-1.24327E-05 5.00993E-05 0.00000E+00
 -1       783-9.76834E-06 3.87987E-05 5.29396E-23
 -1       784-6.72509E-06 2.64543E-05 2.64698E-23
 -1       785-3.42704E-06 1.34069E-05 0.00000E+00
 -1       786 1.86595E-04 2.97497E-05 2.58494E-26
 -1       787 1.86638E-04 2.77221E-05 0.00000E+00
 -1       788 1.86680E-04 2.57357E-05 0.00000E+00
 -1       789 1.86724E-04 2.37823E-05-8.27181E-25
 -1       790 1.86767E-04 2.18573E-05 0.00000E+00
 -1       791 1.86810E-04 1.99561E-05-8.27181E-25
 -1       792 1.86854E-04 1.80763E-05 0.00000E+00
 -1       793 1.86897E-04 1.62160E-05 0.00000E+00
 -1       794 1.86941E-04 1.43748E-05 0.00000E+00
 -1       795 1.86984E-04 1.25528E-05 0.00000E+00
 -1       796 1.87028E-04 1.07517E-05-1.65436E-24
 -1       797 1.87072E-04 8.97340E-06 8.27181E-25
 -1       798 1.87116E-04 7.22220E-06-1.65436E-24
 -1       799 1.87159E-04 5.50240E-06-8.27181E-25
 -1       800 1.87203E-04 3.82151E-06-1.65436E-24
 -1       801 1.43158E-04 2.85635E-05 0.00000E+00
 -1       802 1.18332E-05 1.79059E-05 2.64698E-23
 -1       803-1.00729E-04 9.10077E-06 0.00000E+00
 -1       804-8.99616E-05 6.31182E-06 0.00000E+00
 -1       805-2.97920E-05 2.52317E-06 0.00000E+00
 -1       806 1.87223E-04 2.96826E-05 1.65436E-24
 -1       807 1.87875E-04 2.75648E-05 1.65436E-24
 -1       808 1.88515E-04 2.54781E-05 0.00000E+00
 -1       809 1.89142E-04 2.34264E-05 0.00000E+00
 -1       810 1.89753E-04 2.14137E-05 3.30872E-24
 -1       811 1.90349E-04 1.94437E-05 0.00000E+00
 -1       812 1.90928E-04 1.75203E-05 0.00000E+00
 -1       813 1.91487E-04 1.56472E-05-1.65436E-24
 -1       814 1.92027E-04 1.38282E-05 0.00000E+00
 -1       815 1.92545E-04 1.20670E-05 1.65436E-24
 -1       816 1.93040E-04 1.03674E-05 1.65436E-24
 -1       817 1.93510E-04 8.73310E-06-8.27181E-25
 -1       818 1.93955E-04 7.16791E-06 0.00000E+00
 -1       819 1.94373E-04 5.67553E-06 0.00000E+00
 -1       820 1.94763E-04 4.25964E-06-1.65436E-24
 -1       821 1.87121E-04 1.37436E-07-1.65436E-24
 -1       822 1.86985E-04-2.78504E-06 1.65436E-24
 -1       823 1.86847E-04-6.23819E-06 3.30872E-24
 -1       824 1.86708E-04-9.87665E-06 0.00000E+00
 -1       825 1.86569E-04-1.33058E-05 3.30872E-24
 -1       826 1.86432E-04-1.61321E-05 0.00000E+00
 -1       827 1.86296E-04-1.81239E-05 3.30872E-24
 -1       828 1.86162E-04-1.90549E-05 0.00000E+00
 -1       829 1.86029E-04-1.89833E-05 0.00000E+00
 -1       830 1.85894E-04-1.79733E-05-1.65436E-24
 -1       831 1.85760E-04-1.63412E-05 0.00000E+00
 -1       832 1.85625E-04-1.44071E-05 1.65436E-24
 -1       833 1.85490E-04-1.25719E-05-3.30872E-24
 -1       834 1.85357E-04-1.12364E-05-1.65436E-24
 -1       835 1.85225E-04-1.06674E-05 0.00000E+00
 -1       836 1.88768E-04 2.30937E-06-3.30872E-24
 -1       837 1.90163E-04 2.43463E-06 0.00000E+00
 -1       838 1.91464E-04 2.55982E-06-3.30872E-24
 -1       839 1.92704E-04 2.68431E-06-8.27181E-25
 -1       840 1.93913E-04 2.80863E-06-8.27181E-25
 -1       856 1.85084E-04-1.20306E-05 0.00000E+00
 -1       857 1.85063E-04-1.28005E-05 3.23117E-27
 -1       858 1.85043E-04-1.34575E-05 4.13590E-25
 -1       859 1.85023E-04-1.40223E-05-2.06795E-25
 -1       860 1.85002E-04-1.45160E-05 4.13590E-25
 -1       861 1.84981E-04-1.49596E-05-2.06795E-25
 -1       862 1.84961E-04-1.53740E-05-8.27181E-25
 -1       863 1.84940E-04-1.57803E-05 0.00000E+00
 -1       864 1.84919E-04-1.61997E-05 8.27181E-25
 -1       865 1.84899E-04-1.66531E-05 0.00000E+00
 -1       866 1.84878E-04-1.71617E-05 0.00000E+00
 -1       867 1.84857E-04-1.77463E-05-4.13590E-25
 -1       868 1.84836E-04-1.84280E-05 0.00000E+00
 -1       869 1.84815E-04-1.92275E-05 4.13590E-25
 -1       870 1.84793E-04-2.01657E-05-8.27181E-25
 -1       871 1.86286E-04-1.11313E-05 0.00000E+00
 -1       872 1.87616E-04-1.11390E-05 0.00000E+00
 -1       873 1.89024E-04-1.11474E-05 0.00000E+00
 -1       874 1.90443E-04-1.11565E-05 3.10193E-25
 -1       875 1.91807E-04-1.11662E-05-1.65436E-24
 -1       876 1.85565E-04-1.20164E-05 0.00000E+00
 -1       877 1.86007E-04-1.28401E-05 1.65436E-24
 -1       878 1.86427E-04-1.36060E-05-3.30872E-24
 -1       879 1.86829E-04-1.43211E-05 1.65436E-24
 -1       880 1.87215E-04-1.49930E-05 0.00000E+00
 -1       881 1.87587E-04-1.56287E-05 0.00000E+00
 -1       882 1.87949E-04-1.62357E-05 0.00000E+00
 -1       883 1.88302E-04-1.68211E-05 0.00000E+00
 -1       884 1.88651E-04-1.73921E-05 3.30872E-24
 -1       885 1.88996E-04-1.79561E-05-1.65436E-24
 -1       886 1.89342E-04-1.85201E-05-3.30872E-24
 -1       887 1.89690E-04-1.90916E-05 0.00000E+00
 -1       888 1.90043E-04-1.96777E-05 0.00000E+00
 -1       889 1.90404E-04-2.02858E-05 0.00000E+00
 -1       890 1.90775E-04-2.09232E-05 1.65436E-24
 -1       891 1.85975E-04-2.13196E-05 1.65436E-24
 -1       892 1.87157E-04-2.13761E-05 0.00000E+00
 -1       893 1.88290E-04-2.14326E-05-8.27181E-25
 -1       894 1.89351E-04-2.14888E-05 0.00000E+00
 -1       895 1.90313E-04-2.15447E-05 4.13590E-25
 -1       956 1.94997E-04 1.75785E-06-1.65436E-24
 -1       957 1.94867E-04 6.80616E-07 0.00000E+00
 -1       958 1.94737E-04-3.18191E-07 3.30872E-24
 -1       959 1.94607E-04-1.24952E-06-1.65436E-24
 -1       960 1.94477E-04-2.12438E-06 0.00000E+00
 -1       961 1.94347E-04-2.95380E-06-1.65436E-24
 -1       962 1.94217E-04-3.74881E-06 0.00000E+00
 -1       963 1.94087E-04-4.52048E-06 0.00000E+00
 -1       964 1.93957E-04-5.27987E-06-3.30872E-24
 -1       965 1.93827E-04-6.03802E-06 1.65436E-24
 -1       966 1.93697E-04-6.80600E-06 0.00000E+00
 -1       967 1.93567E-04-7.59488E-06 0.00000E+00
 -1       968 1.93437E-04-8.41567E-06 0.00000E+00
 -1       969 1.93308E-04-9.27943E-06 1.65436E-24
 -1       970 1.93178E-04-1.01971E-05 0.00000E+00
 -1       971 1.92933E-04-1.21593E-05-3.30872E-24
 -1       972 1.92814E-04-1.30455E-05-1.65436E-24
 -1       973 1.92695E-04-1.38484E-05 3.30872E-24
 -1       974 1.92576E-04-1.45785E-05 0.00000E+00
 -1       975 1.92456E-04-1.52468E-05 0.00000E+00
 -1       976 1.92337E-04-1.58639E-05 1.65436E-24
 -1       977 1.92218E-04-1.64407E-05-3.30872E-24
 -1       978 1.92099E-04-1.69879E-05 1.65436E-24
 -1       979 1.91980E-04-1.75164E-05 0.00000E+00
 -1       980 1.91861E-04-1.80370E-05-1.65436E-24
 -1       981 1.91742E-04-1.85604E-05 3.30872E-24
 -1       982 1.91623E-04-1.90976E-05 1.65436E-24
 -1       983 1.91504E-04-1.96593E-05-3.30872E-24
 -1       984 1.91385E-04-2.02562E-05-1.65436E-24
 -1       985 1.91268E-04-2.08992E-05 3.30872E-24
 -3
    1PSTEP                        20          10           1          
  100CL  110 6.53320E-01         409                     0   10           1
 -4  STRESS      6    1
 -5  SXX         1    4    1    1
 -5  SYY         1    4    2    2
 -5  SZZ         1    4    3    3
 -5  SXY         1    4    1    2
 -5  SYZ         1    4    2    3
 -5  SZX         1    4    3    1
 -1         1-4.75559E+06-1.68004E+06-1.03578E+06-1.59450E+06 1.54250E-09-5.91681E-08
 -1         2 6.13066E+05 8.40239E+06 2.31447E+06 2.77217E+06 1.76369E-08-2.39379E-09
 -1         3-1.35518E+03-1.60030E+06 4.07548E+02-2.16788E+03-6.67015E-10 2.48183E-08
 -1         5-6.12481E+01 3.80744E+05 2.06204E+01 6.53016E+00-7.49900E-10 7.80165E-09
 -1         8-7.90578E+05-2.55880E+05-9.90029E+04-3.33049E+05 6.78483E-10-7.28687E-09
 -1         9 9.58196E+06 1.32275E+06 1.96299E+06-7.20198E+05 5.61122E-09 1.22469E-08
 -1        10-2.21363E+03-1.66764E+06-3.92403E+03-1.46567E+04-1.29494E-08-1.53539E-08
 -1        12-6.00271E+01 3.78841E+05 3.06572E+02-3.18795E+00 5.27507E-11 2.02793E-08
 -1        15 1.16349E+03 6.39400E+02 3.76097E+03 1.48245E+00-4.23597E-10 2.65032E-07
 -1        16 1.99746E+07-2.08475E+05 2.77124E+06-1.73647E+06 2.56114E-09 1.83160E-08
 -1        17 7.26169E+06 5.29512E+06 1.95676E+06 5.13557E+06 2.01399E-08 2.79746E-08
 -1        18 1.26619E+05 2.92367E+04 1.06301E+03-1.15579E+05 1.35765E-08 3.57022E-09
 -1        19 1.19620E+05 1.38350E+05-9.27673E+02 2.16577E+04 1.41044E-09 9.82109E-09
 -1        20-7.83637E+04-5.61127E+05-1.25787E+05 2.55742E+04-1.08654E-09 1.06247E-08
 -1        21-4.52857E+01-2.91706E+05-9.12600E+02 2.38966E+02 1.20181E-08 2.19540E-09
 -1        24 1.19809E+07 1.02241E+07 3.34851E+06 9.49744E+06-1.53688E-07-4.97287E-08
 -1        25 9.77539E+04 1.67169E+05 7.43728E+04-5.86560E+05-2.70802E-09 1.73652E-08
 -1        26-5.38128E+04 8.99945E+04-2.40848E+04 6.45552E+02 1.18962E-10-1.01656E-08
 -1        27-7.51733E+04-3.03488E+05-1.11200E+05 6.75583E+04 4.52868E-09 8.64323E-09
 -1        28 2.19720E+04-8.38766E+04 1.66427E+04 2.06671E+04-3.93374E-09-1.19822E-09
 -1        32-1.65385E+06-3.08097E+06-1.84809E+05 3.52115E+05-4.03670E-08-1.08321E-08
 -1        33-1.74973E+05 9.07004E+04 3.16628E+04-3.80953E+04-2.50823E-09 4.74150E-10
 -1        34-2.19364E+05-2.43427E+04 6.67297E+02 7.37619E+04-2.97376E-09-6.28916E-09
 -1        35-2.26244E+04-3.32679E+04-1.32414E+03 5.07557E+04-3.59133E-09 1.36642E-08
 -1        51 5.34967E+04-1.97560E+05 1.14642E+05-5.77719E+05 7.27596E-11 3.60160E-08
 -1        52 1.89141E+04-1.78597E+05 6.13091E+04-6.73645E+05 7.27596E-11-1.20344E-07
 -1        53 4.83271E+03-1.94007E+05 3.37916E+04-5.75658E+05 4.40195E-10-1.27344E-07
 -1        54 1.02102E+04-1.90120E+05 3.15147E+04-6.75739E+05-7.27596E-11 4.64352E-08
 -1        55 2.17234E+04-1.98886E+05 4.27237E+04-5.75430E+05 5.67525E-10 2.91147E-08
 -1        56-8.84169E+06-1.03604E+06-7.69620E+05-3.50180E+06-3.09228E-08-6.01867E-08
 -1        57-9.48418E+06-1.37809E+06-5.15714E+05-3.07582E+06 3.61979E-09-2.20607E-08
 -1        58-8.93428E+06-1.33169E+06-1.79810E+05-3.51375E+06-5.34965E-08-2.61804E-07
 -1        59-9.35782E+06-1.04756E+06-1.06740E+05-3.08828E+06-1.80303E-08-2.01606E-07
 -1        60-8.96960E+06-1.35532E+06-4.25602E+04-3.49502E+06-1.08175E-08 8.33825E-08
 -1        61-9.23524E+06-1.08853E+06-2.10993E+04-3.17666E+06-4.80213E-10 2.18517E-07
 -1        62-9.04739E+06-1.29565E+06-1.53457E+04-3.41898E+06-2.51421E-08 5.06425E-08
 -1        63-9.06079E+06-1.24208E+06-5.05136E+03-3.35136E+06-1.74841E-08 2.03363E-09
 -1        64-9.13670E+06-1.20665E+06-1.46111E+04-3.31520E+06-1.35369E-08 3.03617E-08
 -1        65-8.92130E+06-1.40072E+06-1.86614E+04-3.54087E+06-4.19750E-08 7.93684E-08
 -1        66-9.19379E+06-1.13243E+06-3.81969E+04-3.23454E+06 2.74958E-08 1.04410E-08
 -1        67-8.88230E+06-1.51448E+06-9.50913E+04-3.63897E+06-3.31411E-08-2.31972E-07
 -1        68-9.18552E+06-1.08750E+06-1.60270E+05-3.22342E+06-4.94001E-08-6.80739E-08
 -1        69-9.06203E+06-1.74166E+06-4.59573E+05-3.54911E+06-1.38898E-08-9.05347E-08
 -1        70-9.01241E+06-9.15595E+05-6.86560E+05-3.31941E+06 2.46291E-08 1.35798E-07
 -1        86-6.22617E+05-8.75487E+06-1.26232E+06-1.32843E+06-1.83314E-07-6.77537E-08
 -1        87 8.96766E+05 1.44330E+06 1.04855E+06 2.93330E+06-3.18512E-07 9.07239E-08
 -1        88-1.27350E+05-2.59918E+06 8.38601E+04-1.57636E+06-2.82338E-07 3.38778E-08
 -1        89 1.21507E+06 1.31125E+06 1.05099E+06 3.00873E+06-4.24712E-07 1.25063E-07
 -1        90-9.07633E+05-8.65334E+06-1.38981E+06-1.41047E+06-9.34451E-08-8.30405E-08
 -1       121-1.86162E+03-1.60480E+06-4.55020E+02 1.07554E+03 1.36561E-09 2.05182E-09
 -1       122-1.17060E+03-1.60035E+06 7.85228E+02-4.33714E+03-4.89578E-09 2.18297E-08
 -1       123-1.88807E+03-1.60493E+06 3.82346E+02 3.21163E+03 4.42310E-09 2.20316E-08
 -1       124 4.92736E+02-1.59985E+06 3.04628E+03-9.06174E+03-9.81663E-09-5.50244E-09
 -1       125-2.73122E+03-1.60584E+06 3.70550E+03 5.76076E+03 5.95719E-09-1.18962E-09
 -1       191-6.45002E+01 3.80764E+05 2.21009E+01-3.24361E+00 3.39924E-10-4.23461E-09
 -1       192-5.87692E+01 3.80746E+05 4.46830E+01 3.33194E+01 4.19789E-10-1.33878E-09
 -1       193-5.63934E+01 3.80760E+05 8.06818E+01-2.99519E+01 1.09208E-09 6.94308E-09
 -1       194-1.81045E+01 3.80761E+05 1.77196E+02 2.74311E+02 9.34506E-10 1.82654E-08
 -1       195 6.29933E+01 3.80739E+05 3.51294E+02-2.44244E+02 1.93177E-09-4.96584E-10
 -1       251-1.92495E+06 2.15420E+04-1.47877E+05 5.14682E+04 2.43563E-09-8.37972E-08
 -1       252-1.58388E+06-2.53557E+04-2.99719E+04-1.84806E+05 1.09503E-08 8.17599E-08
 -1       253-1.80316E+06-1.59323E+03-3.63540E+04 1.61938E+05-1.35260E-08-8.80846E-08
 -1       254-1.75357E+06 1.65854E+04-8.10760E+03-3.09166E+05-7.02858E-09-2.66692E-07
 -1       255-1.77286E+06-4.43290E+03-8.11533E+03 1.76717E+05-2.14500E-08 1.52419E-07
 -1       256-1.63235E+06 1.82817E+04 2.64978E+04-2.38539E+05-2.29356E-08 1.58279E-07
 -1       257-1.91358E+06-1.37975E+04-3.30891E+04 9.06508E+04 9.46238E-09 1.29054E-07
 -1       258-1.45798E+06 1.25753E+04 6.14305E+04-1.03063E+04-1.92949E-09 2.21374E-07
 -1       259-1.93087E+06-1.33442E+04-3.45767E+04-5.14103E+04 2.20552E-08 6.03433E-08
 -1       260-1.59309E+06 1.42952E+04 3.81088E+04 2.31971E+05-3.05772E-08-1.12931E-07
 -1       261-1.79115E+06-3.17827E+03-1.24623E+03-1.50952E+05-3.25776E-08 8.02272E-08
 -1       262-1.74453E+06 2.14365E+04 1.57670E+04 3.30495E+05-1.67336E-08 8.81836E-08
 -1       263-1.79396E+06-7.02987E+03 6.86433E+03-1.50442E+05 2.83990E-09 9.70340E-08
 -1       264-1.57659E+06 4.63416E+04 7.14802E+04 2.30692E+05-8.84224E-08 2.54739E-07
 -1       265-1.94448E+06-4.17790E+04 7.05297E+03-5.06440E+04-1.85992E-08 7.89678E-08
 -1       266-2.10632E+04-9.84961E+03 4.94180E+04-3.17187E+01-1.12777E-10 9.35308E-09
 -1       267 2.44179E+04 1.14792E+04 3.49291E+04 3.65985E+01-2.44654E-10-2.35204E-07
 -1       268-3.27440E+03-1.62581E+03 1.29829E+04-4.66321E+00-7.45786E-11-5.30769E-08
 -1       269 3.86610E+03 1.94571E+03 8.43874E+03 5.43202E+00-3.04681E-10-5.39719E-08
 -1       270-5.80305E+02-3.19696E+02 4.07350E+03-7.37159E-01-7.58291E-11-1.71864E-08
 -1       271-1.83302E+06-2.25461E+05-1.35233E+05-7.06458E+05 1.42372E-08-1.85537E-08
 -1       272-1.88835E+06-3.15304E+05-8.66857E+04-6.95500E+05-6.45559E-09 1.09219E-07
 -1       273-1.85955E+06-2.57946E+05-3.21258E+04-6.99123E+05-1.32586E-08 8.85520E-08
 -1       274-1.85619E+06-2.76546E+05-1.77336E+04-7.07460E+05-3.92720E-09 2.56854E-07
 -1       275-1.86467E+06-2.59814E+05-7.63820E+03-6.96230E+05 2.62644E-08 2.43389E-07
 -1       276-1.84900E+06-2.75593E+05-3.79353E+03-7.13030E+05 3.48300E-08-5.26788E-08
 -1       277-1.86701E+06-2.58250E+05-2.05487E+03-6.93958E+05-2.09402E-08 1.50728E-07
 -1       278-1.84538E+06-2.78604E+05-1.13480E+03-7.17585E+05 4.42706E-08 1.38606E-07
 -1       279-1.86873E+06-2.56479E+05-1.28946E+03-6.92012E+05-2.97277E-08-3.29219E-08
 -1       280-1.84292E+06-2.81768E+05-1.87478E+03-7.21442E+05 1.64296E-08 1.70639E-08
 -1       281-1.86998E+06-2.54790E+05-3.53405E+03-6.90442E+05-2.68392E-09-4.04032E-08
 -1       282-1.84250E+06-2.86350E+05-8.16934E+03-7.24243E+05-2.50116E-08 1.70936E-07
 -1       283-1.86965E+06-2.51811E+05-1.46138E+04-6.89462E+05-1.09758E-08 1.43964E-07
 -1       284-1.85385E+06-3.07795E+05-3.97096E+04-7.23420E+05 6.20639E-09 3.36672E-08
 -1       285-1.85928E+06-2.35110E+05-6.17260E+04-6.90804E+05 8.64384E-09-2.37975E-07
 -1       301 8.34157E+03-5.57917E+05 1.70846E+05-9.73037E+05 9.90985E-09-8.33315E-08
 -1       302 9.35522E+03-5.13644E+05 1.03409E+05-1.42194E+06-7.49424E-10-9.11095E-08
 -1       303-9.98396E+03-5.45746E+05 6.11071E+04-9.70561E+05 8.70205E-09-1.80433E-07
 -1       304-5.21663E+03-5.17721E+05 6.61659E+04-1.42113E+06 6.40284E-10 1.05028E-08
 -1       305-9.80500E+03-5.39337E+05 8.74459E+04-9.73499E+05 8.54925E-10-1.39145E-07
 -1       306-2.77932E+07-5.67691E+06-7.78115E+06-9.85655E+05-9.45292E-08 1.68628E-07
 -1       307 2.31481E+07 2.30418E+06 5.00437E+06-1.34385E+07-7.40867E-07-1.74856E-07
 -1       308-7.55211E+06-8.14329E+05-5.30367E+05 4.73319E+06-2.75439E-07 2.97412E-07
 -1       309-3.47058E+06 7.02442E+06 1.93561E+06-1.91956E+07 1.71891E-07 7.84312E-08
 -1       310-1.14661E+07-1.43062E+06-1.59377E+06 4.63764E+06-7.17700E-08-2.52126E-07
 -1       311 3.22342E+07-1.48947E+05 6.28489E+06-8.77190E+06 5.43892E-07-1.03493E-07
 -1       312-2.89948E+07-5.88928E+06-7.47492E+06-4.20188E+06 3.16068E-07 1.49681E-07
 -1       313 4.10713E+07 1.18600E+07 9.50476E+06 1.99976E+07-9.69158E-09 2.98925E-07
 -1       314-1.69370E+07-1.53043E+07-6.75417E+06-1.15518E+07 2.54659E-07-8.94070E-08
 -1       315-1.10985E+06 2.57990E+07 5.15080E+06 1.06086E+07-5.16346E-07-2.84927E-08
 -1       316 6.41076E+05-9.34482E+06-4.94582E+05-3.23175E+06-9.82473E-07-2.75526E-07
 -1       317-1.70880E+07 2.05128E+07 1.90023E+06-6.75245E+06 6.87854E-07-6.07586E-07
 -1       318-1.20422E+06-1.12238E+07-1.63859E+06-4.39681E+06-7.94535E-07 8.99308E-08
 -1       319 5.54012E+06 2.72884E+07 6.05471E+06 1.45030E+07-7.73798E-08 2.87313E-07
 -1       320-2.07436E+07-1.54667E+07-8.69111E+06-1.15677E+07 1.66940E-07-6.54836E-09
 -1       336-4.97773E+02-1.73725E+06-1.38087E+04 8.74963E+03-2.51184E-08 2.32940E-08
 -1       337-5.33424E+03-1.73731E+06-1.79807E+04-2.11962E+04-4.69461E-08-1.47702E-09
 -1       338 4.40708E+02-1.73678E+06-2.80261E+04 1.22291E+04-3.40233E-08-4.17276E-09
 -1       339-2.97480E+04-1.75416E+06-6.34281E+04-2.79958E+04-5.98920E-08 3.18996E-08
 -1       340 1.97554E+04-1.72244E+06-9.97720E+04 1.54284E+04-3.95448E-08 2.23627E-08
 -1       406-1.72950E+02 3.76941E+05 4.19172E+02 2.47565E+02-1.60071E-09 6.00267E-10
 -1       407 1.15814E+02 3.77044E+05 1.23739E+03-2.57024E+02-3.80169E-10 1.07611E-08
 -1       408 6.20494E+02 3.76838E+05 2.62656E+03 9.11408E+00-2.27556E-09 3.21052E-09
 -1       409 2.83659E+03 3.77913E+05 5.99707E+03 2.17263E+02-3.48109E-10 1.90703E-08
 -1       410 8.25900E+03 3.76071E+05 1.22746E+04-2.41016E+02-2.53567E-09 1.27984E-08
 -1       521-2.93248E+07-6.96764E+06-9.07289E+06-6.56462E+05-6.40284E-08 4.65661E-10
 -1       522 2.38999E+07 3.03597E+06 5.08303E+06-1.66184E+07-4.70434E-07-1.02213E-07
 -1       523-8.25989E+06-1.09746E+06-5.38687E+05 5.17225E+06 1.34343E-07-1.04672E-07
 -1       524-6.68913E+06 9.61758E+06 2.09289E+06-2.21459E+07 9.01869E-07-5.01372E-07
 -1       525-1.23777E+07-1.94847E+06-1.75008E+06 5.06780E+06 9.29052E-07-1.80356E-07
 -1       526 3.49799E+07-2.03903E+05 6.59891E+06-1.12726E+07 9.12114E-08-7.06932E-08
 -1       527-3.07595E+07-7.38069E+06-8.59319E+06-4.08821E+06-2.71015E-07 2.40092E-07
 -1       528 4.48325E+07 1.30446E+07 9.90821E+06 2.26363E+07-3.46685E-07 7.73871E-08
 -1       529-1.79312E+07-1.72858E+07-7.73104E+06-1.16974E+07 2.18162E-07 3.76021E-08
 -1       530-3.41808E+06 3.00072E+07 5.44252E+06 1.04611E+07-1.74623E-08 6.59435E-07
 -1       531 5.81065E+05-1.04602E+07-4.88035E+05-3.33388E+06-8.38816E-07 3.82774E-07
 -1       532-1.99345E+07 2.26900E+07 2.07931E+06-1.03718E+07 4.21482E-07-8.56788E-07
 -1       533-1.27386E+06-1.23646E+07-1.73163E+06-4.39322E+06-2.47936E-07-8.97562E-07
 -1       534 3.56849E+06 3.16566E+07 6.29894E+06 1.50174E+07-8.96107E-08 6.92438E-07
 -1       535-2.18836E+07-1.75906E+07-9.92581E+06-1.17121E+07 9.86038E-08 4.25905E-07
 -1       536-6.81722E+05-4.60059E+04-3.74306E+04-5.12993E+04-4.38877E-09 6.32863E-08
 -1       537-7.87044E+04 4.45316E+04 8.22139E+04 1.17391E+05-1.01407E-07 9.69185E-08
 -1       538-3.93414E+05 2.64644E+03 5.07054E+03-6.89476E+04 1.93636E-08 1.06407E-07
 -1       539-2.77877E+05 2.99765E+03 2.39551E+04 1.32101E+05 1.62661E-07 1.34050E-07
 -1       540-4.87514E+05-3.46398E+02-1.90697E+04-6.64812E+04 5.48266E-09 9.45356E-08
 -1       541 1.05103E+05 1.56397E+04 9.82029E+04 9.24015E+04-2.57769E-08 9.02877E-08
 -1       542-7.66082E+05-1.85950E+04-7.75564E+04-2.84781E+04-2.95586E-09 3.99702E-08
 -1       543 3.43594E+05 2.52126E+04 1.45565E+05-1.27989E+04-4.71416E-08-3.60023E-08
 -1       544-7.19617E+05-1.52088E+04-6.89085E+04 3.81278E+04-1.20908E-08-4.51538E-08
 -1       545-4.03445E+03 8.60837E+03 7.32224E+04-1.07736E+05-3.52093E-08-6.88663E-08
 -1       546-4.27775E+05 5.73175E+03-1.13476E+04 6.61566E+04 3.41788E-09-7.90852E-08
 -1       547-2.94902E+05-4.68079E+03 9.10628E+03-1.34880E+05-1.02697E-07-1.30662E-07
 -1       548-4.36554E+05 4.60050E+03-2.28765E+04 6.58799E+04-1.04703E-07-9.57098E-08
 -1       549 1.45062E+04 1.31367E+04 5.35500E+04-1.05448E+05-6.73335E-08-5.91010E-08
 -1       550-7.28900E+05-1.90015E+04-1.22235E+05 3.60925E+04 7.46149E-09-3.98977E-08
 -1       551 3.89858E+04-7.63993E+05-1.05942E+04-1.22808E+06-9.77452E-08-1.60362E-08
 -1       552 8.86799E+04-8.05648E+05 1.29520E+04-1.75125E+06-7.03876E-08 4.37140E-08
 -1       553 6.78795E+04-8.03074E+05 3.41237E+04-1.22172E+06-1.14975E-07 1.59343E-08
 -1       554 1.26291E+05-8.19564E+05 8.35848E+04-1.75321E+06-7.16536E-08 2.44563E-08
 -1       555 9.75716E+04-8.26215E+05 1.51910E+05-1.22167E+06-1.17885E-07-1.12850E-08
 -1       556 2.12608E+05-3.66906E+05 3.32473E+04-3.95475E+05-2.77360E-08-3.42843E-08
 -1       557 3.39504E+05-4.68285E+05 1.98136E+04-5.10796E+05 8.87667E-10-1.67256E-08
 -1       558 1.96217E+05-3.61792E+05 4.24809E+03-3.98284E+05-2.00234E-08-1.38243E-10
 -1       559 3.15381E+05-4.69668E+05 3.28634E+03-5.29783E+05 2.00234E-08-1.21217E-08
 -1       560 1.82132E+05-3.52944E+05-8.87439E+02-4.08384E+05 8.67294E-09 1.41881E-10
 -1       561 2.97580E+05-4.62617E+05 3.61462E+02-5.41871E+05-3.97267E-09 2.12203E-08
 -1       562 1.70999E+05-3.46010E+05-1.08791E+03-4.16436E+05 1.12050E-09 1.26129E-08
 -1       563 2.84366E+05-4.56855E+05 2.95771E+01-5.50489E+05 6.69388E-09 6.76664E-10
 -1       564 1.63087E+05-3.41076E+05-5.07405E+02-4.22039E+05 1.07539E-08-6.78892E-09
 -1       565 2.75662E+05-4.53066E+05 4.17488E+01-5.56047E+05 6.10817E-09-1.22782E-09
 -1       566 1.58513E+05-3.38181E+05-2.22908E+02-4.25239E+05-8.29459E-10-1.83391E-08
 -1       567 2.71515E+05-4.51261E+05-3.30881E+02-5.58556E+05 2.60370E-08 1.23837E-08
 -1       568 1.57360E+05-3.37477E+05-1.04449E+03-4.26141E+05 8.37917E-09 2.56478E-08
 -1       569 2.70584E+05-4.51206E+05-2.63928E+03-5.57064E+05 6.38283E-09 5.71890E-09
 -1       570 1.60684E+05-3.40600E+05-5.78573E+03-4.25174E+05 2.09402E-08-1.27693E-09
 -1       571 2.83615E+05 1.02671E+04 1.47031E+04-9.11880E+04-5.74710E-09 5.06134E-09
 -1       572 2.85752E+05 3.84046E+03 7.20549E+03-1.00041E+05-1.58943E-08-9.18453E-09
 -1       573 2.84465E+05 1.18140E+03 3.20159E+03-9.10161E+04-7.71070E-09-8.69841E-09
 -1       574 2.84680E+05 6.68128E+02 1.60544E+03-1.00258E+05-1.63686E-09-4.44743E-09
 -1       575 2.84557E+05 3.98638E+02 7.57667E+02-9.09927E+04 5.66405E-09-2.81671E-09
 -1       576 2.84545E+05 4.05907E+02 3.87788E+02-1.00286E+05 1.00297E-08 7.34326E-09
 -1       577 2.84594E+05 3.43018E+02 1.93510E+02-9.09895E+04 2.65754E-09 1.98506E-08
 -1       578 2.84571E+05 3.70846E+02 1.11521E+02-1.00290E+05-1.04706E-08 1.13114E-08
 -1       579 2.84660E+05 3.10144E+02 7.64349E+01-9.09892E+04 4.09818E-09-4.01360E-09
 -1       580 2.84664E+05 3.24803E+02 8.81485E+01-1.00286E+05-6.41739E-09 1.43309E-08
 -1       581 2.84763E+05 2.57401E+02 1.33134E+02-9.09948E+04 4.87853E-09 6.77665E-09
 -1       582 2.84825E+05 2.93241E+02 2.70044E+02-1.00227E+05 1.94996E-09-5.18503E-09
 -1       583 2.84890E+05 3.03430E+02 5.18890E+02-9.10489E+04-7.91988E-09-1.18166E-09
 -1       584 2.85177E+05 7.25969E+02 1.17344E+03-9.97718E+04-9.47330E-09-9.99626E-09
 -1       585 2.84906E+05 1.71826E+03 2.37710E+03-9.14492E+04-9.60790E-09 6.33008E-10
 -1       586-3.35644E+03 1.12156E+05-2.98407E+03-2.45575E+05-4.13684E-09 5.53314E-09
 -1       587-1.25787E+03 1.11887E+05 6.76461E+02-2.70276E+05-6.92853E-09-2.69927E-09
 -1       588 4.49821E+02 1.11721E+05 4.59332E+03-2.45441E+05-3.56522E-09-4.91764E-09
 -1       589 5.01707E+03 1.14115E+05 1.19814E+04-2.70042E+05-7.89805E-09-3.49246E-10
 -1       590 1.62129E+04 1.10423E+05 2.51601E+04-2.45863E+05-6.77574E-09 3.52156E-09
 -1       591-7.18317E+04-1.55481E+04-2.18031E+04-3.09095E+04-9.19886E-09 6.02085E-09
 -1       592-7.57047E+04-1.90754E+04-1.18103E+04-3.45141E+04-8.73700E-09 6.18718E-09
 -1       593-7.40129E+04-1.39653E+04-4.91605E+03-3.25075E+04-9.01892E-10-1.05665E-08
 -1       594-7.26932E+04-1.58773E+04-2.45177E+03-3.46296E+04-1.24717E-09 1.58889E-09
 -1       595-7.41793E+04-1.39600E+04-1.12566E+03-3.25801E+04-2.31604E-09 3.34187E-08
 -1       596-7.24871E+04-1.57311E+04-5.72118E+02-3.46052E+04-2.35832E-09 4.05589E-08
 -1       597-7.42001E+04-1.39749E+04-3.11289E+02-3.25828E+04 1.50067E-11 2.10769E-08
 -1       598-7.24668E+04-1.57253E+04-2.49792E+02-3.45984E+04-5.35942E-09-7.90800E-09
 -1       599-7.41989E+04-1.39754E+04-3.18520E+02-3.25825E+04 4.71084E-09 1.33173E-08
 -1       600-7.24872E+04-1.57317E+04-5.91259E+02-3.46032E+04 8.24639E-09-4.52019E-10
 -1       601-7.41749E+04-1.39613E+04-1.16619E+03-3.25790E+04 1.36970E-09-1.92267E-09
 -1       602-7.27006E+04-1.58822E+04-2.54147E+03-3.46247E+04-4.63911E-09-1.67056E-08
 -1       603-7.39998E+04-1.39696E+04-5.09663E+03-3.25045E+04 8.07631E-10 1.21895E-08
 -1       604-7.58398E+04-1.91787E+04-1.22433E+04-3.44809E+04-4.93060E-10 2.91061E-09
 -1       605-7.17190E+04-1.56277E+04-2.26026E+04-3.08667E+04 3.80891E-09-2.46382E-09
 -1       606 2.68736E+04-1.39531E+04-2.50173E+04 2.43532E+04 5.86260E-09 1.48932E-08
 -1       607 2.25985E+04-4.55474E+03-1.24584E+04 2.73645E+04 3.19687E-09-6.01790E-09
 -1       608 2.50339E+04-8.19546E+02-5.57738E+03 2.41792E+04-2.65572E-10-7.08656E-09
 -1       609 2.45659E+04-2.77829E+02-2.81749E+03 2.75814E+04 6.76664E-10 3.62638E-09
 -1       610 2.48246E+04-3.64122E+01-1.34438E+03 2.41587E+04 2.21371E-08 7.37077E-09
 -1       611 2.47501E+04-3.55178E+01-6.77819E+02 2.76048E+04 4.46612E-08 5.87761E-10
 -1       612 2.47775E+04-2.23447E+01-3.22346E+02 2.41566E+04 2.06619E-08-6.99379E-09
 -1       613 2.47602E+04-3.08699E+01-1.44526E+02 2.76076E+04 3.38605E-09-2.16778E-08
 -1       614 2.47550E+04-2.80124E+01-3.41406E+01 2.41559E+04 2.36560E-09 5.78279E-09
 -1       615 2.47542E+04-2.89019E+01 6.00204E+01 2.76080E+04-6.00721E-10 1.88859E-08
 -1       616 2.47374E+04-2.45437E+01 1.80483E+02 2.41562E+04 2.89356E-09-5.31645E-09
 -1       617 2.47752E+04 9.98123E+00 4.12004E+02 2.76075E+04 7.17137E-10-1.08696E-08
 -1       618 2.47011E+04 9.45530E+01 8.30525E+02 2.41564E+04 1.76442E-09 1.64891E-09
 -1       619 2.50679E+04 6.52409E+02 1.86506E+03 2.76069E+04-6.02540E-10 6.73185E-09
 -1       620 2.44250E+04 2.06418E+03 3.74873E+03 2.41577E+04 9.93396E-10-2.10093E-10
 -1       621 4.79833E+02 2.93921E+05 3.73101E+03 3.81214E+04 8.95398E-10-6.82121E-11
 -1       622 6.30021E+02 2.94789E+05 3.32404E+03 5.53530E+04 1.33969E-09-1.90680E-08
 -1       623 1.23133E+02 2.94112E+05 4.01234E+03 3.79483E+04 9.45420E-10-7.87713E-09
 -1       624 2.03909E+03 2.95985E+05 7.79235E+03 5.55238E+04 1.01687E-09-2.42676E-09
 -1       625 1.99950E+03 2.92568E+05 1.36239E+04 3.79452E+04 1.20963E-09-1.94632E-09
 -1       626 2.54828E+05 6.06448E+04 5.05508E+03 1.24626E+05 8.41283E-11 5.14410E-09
 -1       627 2.52497E+05 6.20664E+04 2.43600E+03 1.28891E+05 7.58519E-10-1.86244E-08
 -1       628 2.54957E+05 5.83284E+04 1.03016E+03 1.25481E+05-1.39162E-08 4.77030E-10
 -1       629 2.51865E+05 6.13996E+04 5.04228E+02 1.29133E+05-1.23619E-08 2.15027E-08
 -1       630 2.54971E+05 5.82168E+04 2.33898E+02 1.25516E+05-6.84759E-09 1.24694E-08
 -1       631 2.51798E+05 6.13747E+04 1.25882E+02 1.29134E+05-1.08253E-09 1.43568E-08
 -1       632 2.54966E+05 5.82211E+04 8.28630E+01 1.25512E+05 4.99267E-09-1.40647E-08
 -1       633 2.51789E+05 6.13769E+04 9.23417E+01 1.29130E+05 8.76526E-10 1.16218E-08
 -1       634 2.54961E+05 5.82186E+04 1.49258E+02 1.25511E+05-2.42960E-09 1.50108E-08
 -1       635 2.51802E+05 6.13755E+04 3.02043E+02 1.29135E+05-3.05477E-09 2.98414E-08
 -1       636 2.54952E+05 5.82133E+04 6.09987E+02 1.25510E+05 3.48564E-10-1.24319E-08
 -1       637 2.51934E+05 6.14704E+04 1.34116E+03 1.29134E+05-2.27601E-09 1.97078E-08
 -1       638 2.54904E+05 5.85096E+04 2.75562E+03 1.25376E+05 4.25689E-09-4.03452E-09
 -1       639 2.53381E+05 6.34836E+04 6.51985E+03 1.28708E+05 5.39490E-09 1.15972E-08
 -1       640 2.54705E+05 6.45204E+04 1.35298E+04 1.22842E+05-2.80124E-10 4.24734E-09
 -1       656 6.52364E+04-1.66844E+06-1.57477E+05-2.30988E+03-4.14730E-10 1.85440E-09
 -1       657-8.62963E+04-1.73960E+06-1.30448E+05 5.46943E+03-1.04228E-09-1.31391E-08
 -1       658 2.07898E+04-1.68866E+06-8.03244E+04-4.32982E+03 2.87400E-10 1.02459E-08
 -1       659-9.32750E+04-1.74291E+06-1.39619E+05 7.12446E+03-1.75169E-09-8.36683E-09
 -1       660 7.21995E+04-1.66514E+06-1.73244E+05-3.96489E+03-1.06229E-09-4.37419E-09
 -1       661 1.60041E+05 1.68069E+04 1.67396E+04 6.25632E+04-1.63845E-09 1.07311E-08
 -1       662 1.69451E+05 2.92566E+04 1.12812E+04 5.88693E+04 7.10827E-10-1.05126E-08
 -1       663 1.63329E+05 2.21774E+04 3.94553E+03 6.16092E+04-1.43439E-09 1.15785E-08
 -1       664 1.65639E+05 2.29759E+04 2.36014E+03 6.00344E+04-9.80549E-10-1.01472E-08
 -1       665 1.63827E+05 2.29112E+04 9.31059E+02 6.14640E+04 1.00607E-09 2.26748E-09
 -1       666 1.65050E+05 2.21366E+04 5.44841E+02 6.02236E+04 3.26642E-09 2.28253E-08
 -1       667 1.63915E+05 2.29949E+04 2.89409E+02 6.14278E+04 3.51548E-10 1.19242E-09
 -1       668 1.64954E+05 2.20762E+04 2.94923E+02 6.02762E+04 2.33629E-09-1.48603E-08
 -1       669 1.63922E+05 2.29699E+04 3.99310E+02 6.14117E+04-3.54800E-09 4.49290E-09
 -1       670 1.65051E+05 2.22928E+04 8.69532E+02 6.02791E+04-8.80542E-09 6.19538E-09
 -1       671 1.63817E+05 2.27827E+04 1.54393E+03 6.14230E+04 5.81615E-10-8.33711E-09
 -1       672 1.65951E+05 2.37949E+04 3.95011E+03 6.00612E+04 5.64319E-09 4.68617E-10
 -1       673 1.63027E+05 2.15058E+04 6.61975E+03 6.16150E+04 1.82445E-09 3.63980E-09
 -1       674 1.72251E+05 3.44302E+04 1.89311E+04 5.82101E+04-2.36332E-09-2.39561E-09
 -1       675 1.57557E+05 1.24453E+04 2.81003E+04 6.31623E+04-2.07274E-09 1.84809E-09
 -1       676 2.37869E+01-2.91630E+05-1.09992E+03-1.19486E+02 1.06664E-09 4.03555E-09
 -1       677-2.91220E+02-2.91896E+05-2.01305E+03 2.38785E+02 7.26607E-09-1.48825E-08
 -1       678 1.95116E+02-2.91441E+05-3.55856E+03-1.19220E+02 6.59611E-10-1.00931E-08
 -1       679-3.55886E+03-2.94044E+05-8.45365E+03 2.37769E+02 9.36052E-09 1.16426E-08
 -1       680 2.12465E+03-2.89483E+05-1.36244E+04-1.17150E+02 1.45701E-09 1.00657E-08
 -1       771-3.02641E+06-7.25280E+05-1.53888E+05-1.43892E+06-3.67872E-08-2.66591E-08
 -1       772-2.95297E+06-8.10455E+05-7.94159E+04-1.53729E+06-3.09665E-08 8.89850E-09
 -1       773-3.05569E+06-7.02400E+05-4.03131E+04-1.45205E+06-1.36788E-08 1.68802E-08
 -1       774-2.94363E+06-7.93441E+05-1.80210E+04-1.56110E+06 1.84518E-08-8.03993E-10
 -1       775-3.07079E+06-6.91780E+05-1.33648E+04-1.45834E+06-5.61704E-09-2.61934E-10
 -1       776-2.95469E+06-7.90799E+05-5.01623E+03-1.57898E+06-8.96398E-09 4.10364E-09
 -1       777-3.08385E+06-6.82342E+05-5.86314E+03-1.46389E+06-3.49246E-10 2.75759E-09
 -1       778-2.96626E+06-7.88360E+05-1.66360E+03-1.59432E+06 8.14907E-10 6.80302E-09
 -1       779-3.09504E+06-6.74115E+05-2.91665E+03-1.46864E+06-8.22183E-09-7.45786E-09
 -1       780-2.97644E+06-7.86031E+05-4.84358E+02-1.60681E+06-1.01863E-08 7.13044E-10
 -1       781-3.10392E+06-6.67493E+05-1.12832E+03-1.47235E+06-2.93803E-08 3.58341E-10
 -1       782-2.98427E+06-7.84048E+05 4.11594E+02-1.61603E+06-3.95376E-08-4.51746E-09
 -1       783-3.11017E+06-6.62899E+05 6.43648E+02-1.47495E+06-9.99717E-09-1.36665E-08
 -1       784-2.98860E+06-7.82029E+05 2.65053E+03-1.62172E+06-1.73168E-08 6.60839E-09
 -1       785-3.11387E+06-6.60162E+05 4.68037E+03-1.47661E+06-3.65508E-08 7.01584E-09
 -1       786 1.24851E+05-9.72612E+03 2.25021E+04-3.01900E+02 4.03572E-09 7.20866E-09
 -1       787 1.34610E+05 1.12605E+04 1.59194E+04-1.18823E+02 4.77671E-09 7.05950E-09
 -1       788 1.28614E+05-1.52418E+03 5.82189E+03-2.67725E+02 1.24481E-09-4.83351E-09
 -1       789 1.30226E+05 1.76407E+03 3.65492E+03-1.71438E+02 2.16627E-09-1.62688E-08
 -1       790 1.29235E+05-2.37391E+02 1.48016E+03-2.49301E+02-4.80316E-09 3.52031E-09
 -1       791 1.29500E+05 2.74612E+02 8.55565E+02-2.03014E+02-7.19448E-09 1.16477E-08
 -1       792 1.29340E+05-3.58389E+01 3.63877E+02-2.36151E+02-3.48752E-09-2.00919E-09
 -1       793 1.29375E+05 3.83846E+01 1.84302E+02-2.27774E+02-3.32827E-10 1.12974E-08
 -1       794 1.29361E+05-1.31238E+00 5.37274E+01-2.24541E+02 3.43642E-09-7.05614E-09
 -1       795 1.29340E+05-2.24348E+01-4.19340E+01-2.52030E+02-5.33294E-09-3.73803E-09
 -1       796 1.29375E+05 2.49467E+01-1.35182E+02-2.11895E+02 2.93988E-09 3.02333E-09
 -1       797 1.29259E+05-1.87063E+02-3.78578E+02-2.81101E+02 3.60107E-09 2.90796E-09
 -1       798 1.29442E+05 1.63192E+02-6.16881E+02-1.95470E+02 1.62179E-09-1.12203E-09
 -1       799 1.28790E+05-1.20303E+03-1.69892E+03-3.21682E+02 6.68616E-09 4.46036E-09
 -1       800 1.29844E+05 1.04009E+03-2.40483E+03-1.71315E+02-6.05098E-11 3.87979E-09
 -1       801-1.35392E+05-9.34934E+06-1.28418E+06 1.25934E+06 8.73988E-08-3.81478E-08
 -1       802 6.37474E+05 4.93757E+06 1.92703E+06-1.53726E+06 2.43119E-07-3.76021E-08
 -1       803-4.78017E+05-1.31156E+07-1.69387E+06 7.99472E+05 7.46368E-08 1.92122E-08
 -1       804 2.48483E+05 1.71823E+06 1.35866E+06 6.27105E+05-1.12155E-07-8.85061E-08
 -1       805 1.76299E+05-6.14486E+06-2.57671E+05-8.99883E+05-4.66243E-08-6.06015E-08
 -1       806-3.02525E+05-5.84128E+04-2.23363E+04-1.19756E+05-1.08271E-08-1.66892E-10
 -1       807-3.04300E+05-5.47484E+04-1.09736E+04-1.25153E+05 1.30326E-08 2.70809E-08
 -1       808-3.03136E+05-5.03648E+04-4.65535E+03-1.23564E+05-7.61156E-09-7.58064E-10
 -1       809-3.01994E+05-5.16643E+04-2.27636E+03-1.25422E+05-1.75896E-08 1.50981E-08
 -1       810-3.03229E+05-5.00846E+04-1.04337E+03-1.23732E+05 7.76481E-09-3.18323E-10
 -1       811-3.01816E+05-5.15403E+04-5.18878E+02-1.25388E+05 9.22182E-09-4.14475E-08
 -1       812-3.03243E+05-5.01086E+04-2.62458E+02-1.23732E+05-4.54747E-10-5.60203E-09
 -1       813-3.01791E+05-5.15423E+04-1.70657E+02-1.25369E+05-7.00311E-09-1.34842E-08
 -1       814-3.03236E+05-5.01180E+04-1.69228E+02-1.23728E+05 1.11359E-08 1.68579E-08
 -1       815-3.01795E+05-5.15445E+04-2.72809E+02-1.25362E+05 2.02467E-08-1.68618E-08
 -1       816-3.03216E+05-5.01169E+04-5.17108E+02-1.23724E+05 1.46802E-08 6.95627E-09
 -1       817-3.01883E+05-5.15937E+04-1.10989E+03-1.25351E+05-1.20876E-08 2.83212E-08
 -1       818-3.03149E+05-5.02733E+04-2.26377E+03-1.23650E+05-1.80626E-09 6.62112E-10
 -1       819-3.03122E+05-5.29615E+04-5.32660E+03-1.25059E+05-7.98900E-09-2.49638E-08
 -1       820-3.02723E+05-5.42963E+04-1.08415E+04-1.21931E+05 8.00355E-10 1.53889E-08
 -1       821-3.73024E+05 2.05480E+04-4.77031E+04 1.77346E+03 1.17927E-08-9.45874E-11
 -1       822-3.92937E+05-2.37966E+04-3.36238E+04-3.55790E+03 3.23388E-09-6.47606E-09
 -1       823-3.80614E+05 3.23220E+03-1.23334E+04 2.71751E+03-9.52121E-09 5.07634E-09
 -1       824-3.83874E+05-3.73113E+03-7.73523E+03-4.12640E+03 1.53618E-10 3.89480E-09
 -1       825-3.82088E+05 5.02077E+02-3.22040E+03 2.34203E+03 1.72958E-08 5.58748E-09
 -1       826-3.81789E+05-5.70876E+02-1.79021E+03-2.26739E+03 2.13037E-08 1.26543E-08
 -1       827-3.82683E+05 6.22946E+01-1.10655E+03 8.58416E+02 8.06088E-09-9.04365E-09
 -1       828-3.81308E+05-1.50756E+02-6.94778E+02 9.99753E+02-2.02712E-09-3.77418E-09
 -1       829-3.82562E+05 7.65945E+01-1.10409E+03-9.25152E+02-1.94674E-10-1.06446E-08
 -1       830-3.82054E+05-6.15614E+02-1.90940E+03 3.88925E+03-3.73340E-10 6.60421E-09
 -1       831-3.81950E+05 5.38141E+02-3.31016E+03-2.03111E+03-3.59808E-09-9.49490E-09
 -1       832-3.83959E+05-3.88900E+03-8.03465E+03 4.81915E+03-1.54212E-09-1.21274E-08
 -1       833-3.80668E+05 3.35452E+03-1.28240E+04-1.85507E+03-2.28530E-09-6.38647E-09
 -1       834-3.93088E+05-2.47008E+04-3.48526E+04 3.25261E+03-1.52689E-09 9.04038E-09
 -1       835-3.72812E+05 2.13236E+04-4.95462E+04-4.64523E+02 5.69452E-09 1.67893E-08
 -1       836-1.37358E+03 3.61306E+05 2.23223E+04-1.62524E+04-6.39557E-09 1.21117E-08
 -1       837 4.76702E+03 3.68294E+05 1.89049E+04-3.31416E+04-6.95866E-09 2.08754E-08
 -1       838-5.41043E+02 3.63263E+05 1.92844E+04-1.61815E+04-5.53473E-09 8.18727E-09
 -1       839 1.21537E+04 3.73795E+05 3.65025E+04-3.31926E+04-5.74119E-09 9.64491E-09
 -1       840-3.75174E+03 3.55747E+05 5.82176E+04-1.62064E+04-5.38421E-09-5.62494E-10
 -1       856-5.50323E+04 7.99757E+03-2.10754E+04-3.98077E+02 4.36762E-09 6.85486E-09
 -1       857-6.37170E+04-9.39523E+03-1.45082E+04 5.55384E+03 3.76284E-09 5.91831E-09
 -1       858-5.84709E+04 1.12149E+03-5.46864E+03-4.22152E+02 3.63906E-09-5.05065E-09
 -1       859-5.97707E+04-1.31783E+03-3.30027E+03 5.58989E+03-2.29659E-09-5.37796E-09
 -1       860-5.89847E+04 1.56961E+02-1.38348E+03-4.33899E+02 6.64841E-10-2.49008E-09
 -1       861-5.91797E+04-1.85926E+02-7.61770E+02 5.60591E+03 1.28455E-09 1.89557E-08
 -1       862-5.90650E+04 2.12104E+01-3.18046E+02-4.38154E+02-1.24580E-09 8.48459E-09
 -1       863-5.90815E+04-2.06461E+01-1.19008E+02 5.60834E+03-2.13628E-10-1.04297E-08
 -1       864-5.90834E+04-4.56812E+00 3.99446E+01-4.36327E+02-1.11808E-09-3.92436E-09
 -1       865-5.90279E+04 5.73801E+01 2.38587E+02 5.59803E+03 2.22187E-10-4.71471E-09
 -1       866-5.91164E+04-5.68751E+01 4.84460E+02-4.27848E+02 6.35055E-10 8.72043E-09
 -1       867-5.87990E+04 4.70040E+02 1.19481E+03 5.57499E+03-3.27105E-10 2.13832E-08
 -1       868-5.93074E+04-4.09896E+02 1.98596E+03-4.13285E+02 6.40057E-11-1.78164E-08
 -1       869-5.73423E+04 3.41130E+03 5.28886E+03 5.53696E+03 3.12775E-09-2.13829E-08
 -1       870-6.05656E+04-2.91842E+03 7.67516E+03-3.89728E+02-3.76883E-09-1.28393E-08
 -1       871-5.42903E+03-2.02001E+04-1.90280E+04 1.27233E+05-4.50746E-09 9.20772E-09
 -1       872-1.98859E+03-2.46110E+04-7.95352E+03 1.64975E+05-9.65429E-09-1.99911E-08
 -1       873 3.55634E+02-2.24842E+04 6.10879E+02 1.26954E+05-6.20366E-09-8.78185E-09
 -1       874 3.19462E+03-2.01007E+04 9.62933E+03 1.65006E+05-1.11750E-08 2.29261E-09
 -1       875 6.69008E+03-2.47779E+04 2.16958E+04 1.27187E+05-3.79987E-09 5.63523E-09
 -1       876 2.88306E+05 4.86634E+04 1.48512E+04 1.15783E+05 1.47838E-09-2.57114E-09
 -1       877 2.89280E+05 5.17990E+04 7.93111E+03 1.20051E+05 6.64659E-09 6.45275E-09
 -1       878 2.89695E+05 4.70185E+04 3.32275E+03 1.17000E+05-4.20687E-09-1.08857E-08
 -1       879 2.87261E+05 4.97845E+04 1.65558E+03 1.20152E+05 1.22304E-09 1.24297E-08
 -1       880 2.89794E+05 4.70014E+04 7.71131E+02 1.17050E+05-5.72982E-11 3.10439E-09
 -1       881 2.87127E+05 4.96984E+04 4.11761E+02 1.20129E+05-2.33217E-09 2.66333E-09
 -1       882 2.89803E+05 4.70144E+04 2.63361E+02 1.17052E+05-5.30235E-10-1.14262E-08
 -1       883 2.87118E+05 4.96939E+04 2.83028E+02 1.20121E+05-4.36148E-09-1.45004E-08
 -1       884 2.89797E+05 4.70117E+04 4.50144E+02 1.17052E+05-2.18370E-09-3.38451E-08
 -1       885 2.87153E+05 4.97001E+04 9.04984E+02 1.20132E+05-2.99030E-09 1.55118E-08
 -1       886 2.89762E+05 4.69853E+04 1.82393E+03 1.17048E+05-2.30318E-09 1.36583E-08
 -1       887 2.87474E+05 4.99103E+04 3.98411E+03 1.20178E+05 7.48753E-09 6.43695E-09
 -1       888 2.89510E+05 4.70296E+04 8.02810E+03 1.16921E+05 4.10898E-09 7.09224E-09
 -1       889 2.92254E+05 5.48804E+04 1.91777E+04 1.20032E+05 2.62396E-10-1.28034E-08
 -1       890 2.86234E+05 5.09212E+04 3.59193E+04 1.13865E+05-3.77304E-09 1.38407E-08
 -1       891-9.49414E+01-1.60001E+05-1.95843E+03 2.69318E+04-2.08252E-09 1.22604E-08
 -1       892-1.83198E+02-1.60514E+05-2.10470E+03 4.08839E+04 2.58478E-09 1.37516E-09
 -1       893 3.55079E+01-1.60064E+05-2.98137E+03 2.69390E+04-1.41949E-09-6.11772E-09
 -1       894-1.49446E+03-1.61641E+05-6.17129E+03 4.07331E+04 2.51657E-09-1.83381E-08
 -1       895-1.18540E+03-1.58778E+05-1.08680E+04 2.70841E+04 5.46152E-10 3.76440E-09
 -1       956-3.69737E+05-5.32582E+03-1.31736E+04 2.97732E+04 4.92491E-09 7.79573E-09
 -1       957-3.72323E+05-1.87025E+03-6.76191E+03 3.57867E+04-1.23691E-09-3.59250E-11
 -1       958-3.70919E+05-2.25848E+02-3.04707E+03 2.96098E+04-3.58068E-09-3.86535E-11
 -1       959-3.71114E+05-1.21783E+02-1.55593E+03 3.59762E+04 3.08091E-09 3.02134E-09
 -1       960-3.71034E+05-3.44625E+01-7.58737E+02 2.95930E+04 4.47289E-09 9.92532E-09
 -1       961-3.71034E+05-5.07900E+01-4.02322E+02 3.59959E+04 1.24573E-08 7.25140E-09
 -1       962-3.71061E+05-3.60278E+01-2.30374E+02 2.95902E+04 7.02721E-09 1.56883E-08
 -1       963-3.71034E+05-4.69058E+01-1.85007E+02 3.59995E+04 1.55055E-08 8.35189E-09
 -1       964-3.71066E+05-3.28022E+01-2.25038E+02 2.95895E+04 3.51307E-09-6.80302E-09
 -1       965-3.71046E+05-4.39134E+01-3.89268E+02 3.59988E+04-6.25982E-09 8.43488E-09
 -1       966-3.71050E+05-2.48758E+01-7.31405E+02 2.95909E+04 1.74350E-09-3.70869E-09
 -1       967-3.71134E+05-1.05800E+02-1.50012E+03 3.59851E+04-5.52063E-10 1.14769E-08
 -1       968-3.70949E+05-2.03217E+02-2.93663E+03 2.96031E+04 1.59343E-09 5.84919E-09
 -1       969-3.72313E+05-1.78612E+03-6.51934E+03 3.58424E+04 1.81899E-10-1.59615E-08
 -1       970-3.69817E+05-5.11639E+03-1.26999E+04 2.97262E+04 2.81943E-11 2.27856E-08
 -1       971-3.39295E+05-1.70297E+03-9.20238E+03 1.51916E+04 3.31693E-09-3.56854E-09
 -1       972-3.41512E+05-1.25086E+03-5.01152E+03 2.10300E+04 8.91760E-10 4.10955E-09
 -1       973-3.40320E+05-5.68498E+01-2.24467E+03 1.50713E+04 4.91036E-09 8.56789E-09
 -1       974-3.40456E+05-7.39417E+01-1.16350E+03 2.11657E+04 7.59201E-10-6.14818E-10
 -1       975-3.40401E+05-1.25547E+01-5.81918E+02 1.50591E+04-1.68848E-09-7.23492E-09
 -1       976-3.40395E+05-2.47219E+01-3.36308E+02 2.11812E+04 4.06635E-09-1.99003E-08
 -1       977-3.40417E+05-1.18685E+01-2.45135E+02 1.50558E+04-1.87697E-09-5.19992E-09
 -1       978-3.40400E+05-1.86092E+01-2.88285E+02 2.11859E+04-2.67664E-09-2.15198E-08
 -1       979-3.40417E+05-3.55800E+00-4.64411E+02 1.50544E+04-2.66948E-09-3.87490E-09
 -1       980-3.40435E+05-1.56053E+01-8.97489E+02 2.11868E+04-3.62790E-09 4.45436E-09
 -1       981-3.40389E+05 1.88686E+01-1.73863E+03 1.50549E+04 2.84808E-09-5.17605E-09
 -1       982-3.40673E+05-1.44069E+02-3.59394E+03 2.11803E+04 1.31095E-08 2.03888E-08
 -1       983-3.40170E+05-9.24581E+01-6.98317E+03 1.50609E+04 4.74301E-09 5.65274E-09
 -1       984-3.44032E+05-3.79116E+03-1.56385E+04 2.10955E+04-4.03270E-09-1.00765E-08
 -1       985-3.37008E+05-5.20232E+03-2.87172E+04 1.51329E+04-3.95494E-09 8.16726E-09
 -3
    1PSTEP                        21          11           1          
  100CL  111 6.62109E-01         409                     0   11           1
 -4  DISP        4    1
 -5  D1          1    2    1    0
 -5  D2          1    2    2    0
 -5  D3          1    2    3    0
 -5  ALL         1    2    0    0    1ALL
 -1         1 2.73513E-03 0.00000E+00 0.00000E+00
 -1         2 1.26388E-03-6.34069E-27-5.29396E-23
 -1         3 3.42288E-04-1.00433E-27 0.00000E+00
 -1         5 1.76831E-04-6.97281E-27-1.65436E-24
 -1         8 2.72487E-03-3.91024E-07 0.00000E+00
 -1         9 2.71755E-03-2.21648E-04 0.00000E+00
 -1        10 3.10393E-04-3.36556E-06 0.00000E+00
 -1        12 1.78718E-04 8.16080E-07 0.00000E+00
 -1        15 2.71326E-03-4.12654E-07 0.00000E+00
 -1        16 2.79611E-03-2.23650E-04 0.00000E+00
 -1        17 2.11260E-04-7.68179E-06 0.00000E+00
 -1        18 1.82709E-04 3.44542E-05 0.00000E+00
 -1        19 1.84300E-04 1.61771E-06 0.00000E+00
 -1        20 1.84439E-04-9.94080E-06 0.00000E+00
 -1        21 1.83548E-04-2.55283E-05 3.30872E-24
 -1        24 3.05439E-05-1.18888E-05 0.00000E+00
 -1        25 1.93507E-04 3.46794E-05 0.00000E+00
 -1        26 1.94186E-04 2.23689E-06 0.00000E+00
 -1        27 1.91989E-04-1.34943E-05 0.00000E+00
 -1        28 1.91673E-04-2.61497E-05 0.00000E+00
 -1        32 0.00000E+00 0.00000E+00 0.00000E+00
 -1        33 2.03070E-04 2.98957E-06 0.00000E+00
 -1        34 2.00955E-04-1.35504E-05 0.00000E+00
 -1        35 1.99025E-04-2.64917E-05 0.00000E+00
 -1        51 2.73444E-03-8.29337E-08-6.61744E-24
 -1        52 2.73317E-03-1.47276E-07 0.00000E+00
 -1        53 2.73146E-03-2.08051E-07-3.30872E-24
 -1        54 2.72942E-03-2.67489E-07 0.00000E+00
 -1        55 2.72718E-03-3.27357E-07 8.27181E-25
 -1        56 2.72616E-03 1.16166E-05 0.00000E+00
 -1        57 2.70736E-03 4.72189E-05-5.29396E-23
 -1        58 2.68156E-03 9.93721E-05 0.00000E+00
 -1        59 2.65240E-03 1.59098E-04 0.00000E+00
 -1        60 2.62442E-03 2.16122E-04 0.00000E+00
 -1        61 2.60197E-03 2.60384E-04-5.29396E-23
 -1        62 2.58801E-03 2.84091E-04 0.00000E+00
 -1        63 2.58434E-03 2.81268E-04 0.00000E+00
 -1        64 2.59057E-03 2.50828E-04 0.00000E+00
 -1        65 2.60541E-03 1.94334E-04 0.00000E+00
 -1        66 2.62626E-03 1.18360E-04 1.05879E-22
 -1        67 2.65031E-03 3.14388E-05 5.29396E-23
 -1        68 2.67442E-03-5.57327E-05 0.00000E+00
 -1        69 2.69552E-03-1.32426E-04-5.29396E-23
 -1        70 2.71072E-03-1.89985E-04 0.00000E+00
 -1        86 1.35537E-03-6.87879E-06 0.00000E+00
 -1        87 1.61918E-03-4.37703E-05 2.64698E-23
 -1        88 1.97402E-03-1.07427E-04 0.00000E+00
 -1        89 2.33409E-03-1.73020E-04-1.32349E-23
 -1        90 2.61053E-03-2.13199E-04 0.00000E+00
 -1       121 3.41393E-04-5.43256E-07 0.00000E+00
 -1       122 3.38710E-04-1.08959E-06 0.00000E+00
 -1       123 3.34248E-04-1.64203E-06 1.32349E-23
 -1       124 3.28026E-04-2.20360E-06 0.00000E+00
 -1       125 3.20064E-04-2.77695E-06 1.32349E-23
 -1       191 1.76883E-04 1.36091E-07 3.30872E-24
 -1       192 1.77041E-04 2.72169E-07-1.44757E-24
 -1       193 1.77303E-04 4.08225E-07-1.65436E-24
 -1       194 1.77671E-04 5.44243E-07 1.09860E-24
 -1       195 1.78143E-04 6.80205E-07 1.65436E-24
 -1       251 2.72456E-03 1.61111E-06 6.61744E-24
 -1       252 2.72425E-03 3.63917E-06 3.30872E-24
 -1       253 2.72394E-03 4.53177E-06 0.00000E+00
 -1       254 2.72362E-03 3.14190E-06 0.00000E+00
 -1       255 2.72330E-03-1.32402E-06-6.61744E-24
 -1       256 2.72296E-03-9.62023E-06 0.00000E+00
 -1       257 2.72257E-03-2.19085E-05 0.00000E+00
 -1       258 2.72213E-03-3.82992E-05 0.00000E+00
 -1       259 2.72163E-03-5.82692E-05 0.00000E+00
 -1       260 2.72106E-03-8.12487E-05 0.00000E+00
 -1       261 2.72045E-03-1.06203E-04 1.32349E-23
 -1       262 2.71981E-03-1.32071E-04-6.61744E-24
 -1       263 2.71918E-03-1.57652E-04 0.00000E+00
 -1       264 2.71859E-03-1.81748E-04 6.61744E-24
 -1       265 2.71805E-03-2.03392E-04 0.00000E+00
 -1       266 2.72293E-03-4.00045E-07 0.00000E+00
 -1       267 2.72100E-03-4.02990E-07 0.00000E+00
 -1       268 2.71906E-03-4.06319E-07 0.00000E+00
 -1       269 2.71713E-03-4.08509E-07-2.06795E-25
 -1       270 2.71519E-03-4.10672E-07 0.00000E+00
 -1       271 2.72417E-03-2.25896E-07-1.32349E-23
 -1       272 2.72457E-03-3.05305E-06 0.00000E+00
 -1       273 2.72601E-03-8.68587E-06 0.00000E+00
 -1       274 2.72841E-03-1.69232E-05 0.00000E+00
 -1       275 2.73168E-03-2.75415E-05 1.32349E-23
 -1       276 2.73572E-03-4.03009E-05 6.61744E-24
 -1       277 2.74044E-03-5.49439E-05-1.32349E-23
 -1       278 2.74574E-03-7.11991E-05 0.00000E+00
 -1       279 2.75151E-03-8.87829E-05 0.00000E+00
 -1       280 2.75765E-03-1.07401E-04 0.00000E+00
 -1       281 2.76405E-03-1.26751E-04 1.32349E-23
 -1       282 2.77060E-03-1.46526E-04 0.00000E+00
 -1       283 2.77719E-03-1.66414E-04 0.00000E+00
 -1       284 2.78371E-03-1.86104E-04 0.00000E+00
 -1       285 2.79005E-03-2.05285E-04 0.00000E+00
 -1       301 2.73180E-03-2.22020E-04 6.61744E-24
 -1       302 2.74432E-03-2.22342E-04 0.00000E+00
 -1       303 2.75605E-03-2.22650E-04 0.00000E+00
 -1       304 2.76796E-03-2.22960E-04 0.00000E+00
 -1       305 2.78099E-03-2.23285E-04 0.00000E+00
 -1       306 2.75598E-03-3.78586E-04 0.00000E+00
 -1       307 2.81985E-03-7.94399E-04 0.00000E+00
 -1       308 2.86650E-03-1.40004E-03 0.00000E+00
 -1       309 2.89083E-03-2.09900E-03 5.29396E-23
 -1       310 2.92301E-03-2.76555E-03 0.00000E+00
 -1       311 2.98303E-03-3.27681E-03-5.29396E-23
 -1       312 3.04022E-03-3.55274E-03 0.00000E+00
 -1       313 3.03320E-03-3.55654E-03 5.29396E-23
 -1       314 2.88825E-03-3.30116E-03-1.05879E-22
 -1       315 2.56518E-03-2.85165E-03-5.29396E-23
 -1       316 2.08344E-03-2.28470E-03-1.05879E-22
 -1       317 1.50979E-03-1.66927E-03 0.00000E+00
 -1       318 9.58813E-04-1.06550E-03 0.00000E+00
 -1       319 5.38405E-04-5.38190E-04 0.00000E+00
 -1       320 2.91962E-04-1.61486E-04 0.00000E+00
 -1       336 2.98825E-04-4.01650E-06 0.00000E+00
 -1       337 2.85184E-04-4.69306E-06 0.00000E+00
 -1       338 2.69529E-04-5.39746E-06 0.00000E+00
 -1       339 2.51935E-04-6.13058E-06-6.61744E-24
 -1       340 2.32482E-04-6.89687E-06 0.00000E+00
 -1       406 1.79395E-04 9.50606E-07 0.00000E+00
 -1       407 1.80173E-04 1.08499E-06 1.71252E-25
 -1       408 1.81052E-04 1.21920E-06-2.89513E-24
 -1       409 1.82033E-04 1.35307E-06 2.06795E-25
 -1       410 1.83116E-04 1.48632E-06 4.13590E-25
 -1       521 2.83511E-03-3.89956E-04 1.05879E-22
 -1       522 2.89711E-03-8.26790E-04 5.29396E-23
 -1       523 2.93701E-03-1.46155E-03 0.00000E+00
 -1       524 2.95164E-03-2.19077E-03 0.00000E+00
 -1       525 2.97554E-03-2.88550E-03 1.05879E-22
 -1       526 3.03194E-03-3.41995E-03 0.00000E+00
 -1       527 3.08878E-03-3.70689E-03 2.11758E-22
 -1       528 3.07929E-03-3.70861E-03 0.00000E+00
 -1       529 2.92149E-03-3.43820E-03 2.11758E-22
 -1       530 2.57286E-03-2.96910E-03-5.29396E-23
 -1       531 2.05374E-03-2.38197E-03 0.00000E+00
 -1       532 1.43767E-03-1.74840E-03 5.29396E-23
 -1       533 8.45128E-04-1.12580E-03 0.00000E+00
 -1       534 3.89625E-04-5.76595E-04 0.00000E+00
 -1       535 1.21022E-04-1.79505E-04 0.00000E+00
 -1       536 2.10506E-04 2.72223E-05-6.61744E-24
 -1       537 2.08589E-04 8.76422E-05 1.65436E-24
 -1       538 2.05627E-04 1.64313E-04-3.30872E-24
 -1       539 2.02132E-04 2.47885E-04 1.65436E-24
 -1       540 1.98987E-04 3.26858E-04-3.30872E-24
 -1       541 1.96943E-04 3.89751E-04 0.00000E+00
 -1       542 1.95999E-04 4.29813E-04 0.00000E+00
 -1       543 1.95774E-04 4.40437E-04-1.65436E-24
 -1       544 1.95452E-04 4.22397E-04-3.30872E-24
 -1       545 1.94280E-04 3.76687E-04-1.65436E-24
 -1       546 1.92096E-04 3.11431E-04-3.30872E-24
 -1       547 1.89138E-04 2.34877E-04 1.65436E-24
 -1       548 1.86208E-04 1.58698E-04 0.00000E+00
 -1       549 1.84094E-04 9.45684E-05 0.00000E+00
 -1       550 1.82996E-04 5.05193E-05 0.00000E+00
 -1       551 1.86083E-04-8.24829E-06 0.00000E+00
 -1       552 1.57663E-04-8.89511E-06 0.00000E+00
 -1       553 1.26942E-04-9.60411E-06 0.00000E+00
 -1       554 9.48773E-05-1.03543E-05-3.30872E-24
 -1       555 6.24269E-05-1.11182E-05 1.32349E-23
 -1       556 2.03619E-04 1.18569E-05 0.00000E+00
 -1       557 1.97446E-04 2.77034E-05 0.00000E+00
 -1       558 1.92605E-04 4.01452E-05 0.00000E+00
 -1       559 1.88966E-04 4.94927E-05 0.00000E+00
 -1       560 1.86397E-04 5.60561E-05 0.00000E+00
 -1       561 1.84772E-04 6.01487E-05 0.00000E+00
 -1       562 1.83964E-04 6.20846E-05 0.00000E+00
 -1       563 1.83851E-04 6.21792E-05 1.32349E-23
 -1       564 1.84309E-04 6.07486E-05 0.00000E+00
 -1       565 1.85219E-04 5.81094E-05 0.00000E+00
 -1       566 1.86461E-04 5.45791E-05 0.00000E+00
 -1       567 1.87916E-04 5.04754E-05 3.30872E-24
 -1       568 1.89466E-04 4.61161E-05-1.65436E-24
 -1       569 1.90992E-04 4.18191E-05 0.00000E+00
 -1       570 1.92378E-04 3.79025E-05 0.00000E+00
 -1       571 1.82806E-04 3.23242E-05 1.65436E-24
 -1       572 1.82904E-04 3.01286E-05 1.24077E-24
 -1       573 1.83003E-04 2.78830E-05 3.30872E-24
 -1       574 1.83103E-04 2.56039E-05 0.00000E+00
 -1       575 1.83202E-04 2.33075E-05 0.00000E+00
 -1       576 1.83301E-04 2.10104E-05 0.00000E+00
 -1       577 1.83400E-04 1.87289E-05 0.00000E+00
 -1       578 1.83500E-04 1.64797E-05 0.00000E+00
 -1       579 1.83599E-04 1.42791E-05 6.61744E-24
 -1       580 1.83699E-04 1.21436E-05 0.00000E+00
 -1       581 1.83799E-04 1.00898E-05 6.61744E-24
 -1       582 1.83899E-04 8.13414E-06 0.00000E+00
 -1       583 1.83999E-04 6.29300E-06 0.00000E+00
 -1       584 1.84099E-04 4.58269E-06 0.00000E+00
 -1       585 1.84200E-04 3.01935E-06 0.00000E+00
 -1       586 1.84468E-04 3.44938E-05-1.65436E-24
 -1       587 1.86186E-04 3.45329E-05 8.27181E-25
 -1       588 1.87905E-04 3.45717E-05 0.00000E+00
 -1       589 1.89670E-04 3.46098E-05 0.00000E+00
 -1       590 1.91523E-04 3.46466E-05 0.00000E+00
 -1       591 1.83440E-04 3.24176E-05 1.03398E-25
 -1       592 1.84173E-04 3.03612E-05-2.06795E-25
 -1       593 1.84911E-04 2.82907E-05-8.27181E-25
 -1       594 1.85653E-04 2.62109E-05 4.13590E-25
 -1       595 1.86396E-04 2.41265E-05 8.27181E-25
 -1       596 1.87138E-04 2.20422E-05 0.00000E+00
 -1       597 1.87879E-04 1.99627E-05 0.00000E+00
 -1       598 1.88617E-04 1.78927E-05 0.00000E+00
 -1       599 1.89349E-04 1.58369E-05 0.00000E+00
 -1       600 1.90074E-04 1.37998E-05 4.13590E-25
 -1       601 1.90790E-04 1.17863E-05 8.27181E-25
 -1       602 1.91496E-04 9.80101E-06 0.00000E+00
 -1       603 1.92190E-04 7.84857E-06-4.13590E-25
 -1       604 1.92870E-04 5.93381E-06-2.58494E-26
 -1       605 1.93535E-04 4.06130E-06-4.13590E-25
 -1       606 1.84313E-04 4.48989E-07 0.00000E+00
 -1       607 1.84323E-04-6.33966E-07-1.65436E-24
 -1       608 1.84332E-04-1.63619E-06 0.00000E+00
 -1       609 1.84340E-04-2.56334E-06 0.00000E+00
 -1       610 1.84348E-04-3.42118E-06 0.00000E+00
 -1       611 1.84357E-04-4.21548E-06 0.00000E+00
 -1       612 1.84365E-04-4.95204E-06 0.00000E+00
 -1       613 1.84373E-04-5.63667E-06 0.00000E+00
 -1       614 1.84382E-04-6.27517E-06 0.00000E+00
 -1       615 1.84390E-04-6.87334E-06-8.27181E-25
 -1       616 1.84398E-04-7.43701E-06-1.65436E-24
 -1       617 1.84407E-04-7.97196E-06 4.13590E-25
 -1       618 1.84415E-04-8.48401E-06 0.00000E+00
 -1       619 1.84424E-04-8.97896E-06 0.00000E+00
 -1       620 1.84432E-04-9.46263E-06-2.06795E-25
 -1       621 1.85663E-04 1.72148E-06 3.30872E-24
 -1       622 1.87184E-04 1.82548E-06-1.65436E-24
 -1       623 1.88830E-04 1.92928E-06 1.65436E-24
 -1       624 1.90568E-04 2.03274E-06 0.00000E+00
 -1       625 1.92365E-04 2.13592E-06 1.65436E-24
 -1       626 1.84850E-04 4.85046E-07-3.30872E-24
 -1       627 1.85378E-04-5.84610E-07-3.30872E-24
 -1       628 1.85885E-04-1.59910E-06 0.00000E+00
 -1       629 1.86374E-04-2.56657E-06-4.96308E-24
 -1       630 1.86849E-04-3.49523E-06-3.30872E-24
 -1       631 1.87313E-04-4.39327E-06 0.00000E+00
 -1       632 1.87768E-04-5.26887E-06 0.00000E+00
 -1       633 1.88218E-04-6.13027E-06 0.00000E+00
 -1       634 1.88666E-04-6.98565E-06 0.00000E+00
 -1       635 1.89114E-04-7.84321E-06 0.00000E+00
 -1       636 1.89567E-04-8.71116E-06 0.00000E+00
 -1       637 1.90026E-04-9.59772E-06-1.65436E-24
 -1       638 1.90495E-04-1.05111E-05-1.65436E-24
 -1       639 1.90977E-04-1.14595E-05-8.27181E-25
 -1       640 1.91475E-04-1.24511E-05 1.65436E-24
 -1       656 1.85150E-04-1.05184E-05 0.00000E+00
 -1       657 1.86280E-04-1.11194E-05-6.61744E-24
 -1       658 1.87690E-04-1.17190E-05 0.00000E+00
 -1       659 1.89234E-04-1.23184E-05 0.00000E+00
 -1       660 1.90728E-04-1.29195E-05-6.61744E-24
 -1       661 1.84705E-04-1.04640E-05 8.27181E-25
 -1       662 1.85009E-04-1.10789E-05 0.00000E+00
 -1       663 1.85345E-04-1.17803E-05 0.00000E+00
 -1       664 1.85711E-04-1.25618E-05 0.00000E+00
 -1       665 1.86105E-04-1.34174E-05 0.00000E+00
 -1       666 1.86525E-04-1.43413E-05-8.27181E-25
 -1       667 1.86968E-04-1.53279E-05-1.65436E-24
 -1       668 1.87432E-04-1.63715E-05 0.00000E+00
 -1       669 1.87916E-04-1.74668E-05-1.65436E-24
 -1       670 1.88417E-04-1.86084E-05 0.00000E+00
 -1       671 1.88934E-04-1.97913E-05 1.65436E-24
 -1       672 1.89464E-04-2.10102E-05 0.00000E+00
 -1       673 1.90005E-04-2.22602E-05 0.00000E+00
 -1       674 1.90555E-04-2.35365E-05 4.13590E-25
 -1       675 1.91114E-04-2.48340E-05 0.00000E+00
 -1       676 1.84907E-04-2.56325E-05-3.30872E-24
 -1       677 1.86265E-04-2.57366E-05 1.65436E-24
 -1       678 1.87621E-04-2.58407E-05 3.30872E-24
 -1       679 1.88976E-04-2.59444E-05 0.00000E+00
 -1       680 1.90326E-04-2.60481E-05 1.65436E-24
 -1       771 1.85971E-05 1.48315E-05 0.00000E+00
 -1       772 8.54690E-06 3.67758E-05 0.00000E+00
 -1       773 3.02648E-07 5.41742E-05-5.29396E-23
 -1       774-6.26002E-06 6.72850E-05 0.00000E+00
 -1       775-1.12627E-05 7.63764E-05-5.29396E-23
 -1       776-1.48321E-05 8.17336E-05 2.64698E-23
 -1       777-1.70945E-05 8.36520E-05-5.29396E-23
 -1       778-1.81788E-05 8.24404E-05-2.64698E-23
 -1       779-1.82132E-05 7.84167E-05 5.29396E-23
 -1       780-1.73282E-05 7.19096E-05-2.64698E-23
 -1       781-1.56531E-05 6.32550E-05 5.29396E-23
 -1       782-1.33187E-05 5.27975E-05 2.64698E-23
 -1       783-1.04552E-05 4.08864E-05 5.29396E-23
 -1       784-7.19373E-06 2.78770E-05 0.00000E+00
 -1       785-3.66466E-06 1.41279E-05-5.29396E-23
 -1       786 1.93545E-04 3.24244E-05 1.29247E-26
 -1       787 1.93587E-04 3.02193E-05-4.13590E-25
 -1       788 1.93629E-04 2.80559E-05 0.00000E+00
 -1       789 1.93671E-04 2.59261E-05 0.00000E+00
 -1       790 1.93713E-04 2.38251E-05-1.65436E-24
 -1       791 1.93756E-04 2.17482E-05 0.00000E+00
 -1       792 1.93799E-04 1.96931E-05 0.00000E+00
 -1       793 1.93842E-04 1.76577E-05 8.27181E-25
 -1       794 1.93884E-04 1.56418E-05-1.65436E-24
 -1       795 1.93927E-04 1.36453E-05-8.27181E-25
 -1       796 1.93970E-04 1.16699E-05 1.65436E-24
 -1       797 1.94013E-04 9.71757E-06 8.27181E-25
 -1       798 1.94056E-04 7.79252E-06 1.65436E-24
 -1       799 1.94099E-04 5.89906E-06 0.00000E+00
 -1       800 1.94143E-04 4.04465E-06 0.00000E+00
 -1       801 1.47693E-04 3.11775E-05 2.64698E-23
 -1       802 9.17593E-06 1.94528E-05-2.64698E-23
 -1       803-1.09104E-04 9.83212E-06 0.00000E+00
 -1       804-9.66398E-05 6.84465E-06 2.64698E-23
 -1       805-3.19182E-05 2.68772E-06 0.00000E+00
 -1       806 1.94237E-04 3.23557E-05-3.30872E-24
 -1       807 1.94954E-04 3.00582E-05-1.65436E-24
 -1       808 1.95658E-04 2.77920E-05 0.00000E+00
 -1       809 1.96349E-04 2.55612E-05 1.65436E-24
 -1       810 1.97024E-04 2.33699E-05-3.30872E-24
 -1       811 1.97684E-04 2.12220E-05 0.00000E+00
 -1       812 1.98325E-04 1.91214E-05 0.00000E+00
 -1       813 1.98948E-04 1.70721E-05-1.65436E-24
 -1       814 1.99550E-04 1.50780E-05 0.00000E+00
 -1       815 2.00130E-04 1.31429E-05 8.27181E-25
 -1       816 2.00686E-04 1.12707E-05-1.65436E-24
 -1       817 2.01218E-04 9.46540E-06 1.65436E-24
 -1       818 2.01723E-04 7.73077E-06-1.65436E-24
 -1       819 2.02201E-04 6.07071E-06-1.65436E-24
 -1       820 2.02650E-04 4.48905E-06 0.00000E+00
 -1       821 1.94057E-04-1.17304E-07 1.65436E-24
 -1       822 1.93917E-04-3.60567E-06 1.65436E-24
 -1       823 1.93775E-04-7.80615E-06 0.00000E+00
 -1       824 1.93631E-04-1.22922E-05 1.65436E-24
 -1       825 1.93487E-04-1.65604E-05 0.00000E+00
 -1       826 1.93345E-04-2.01081E-05 0.00000E+00
 -1       827 1.93207E-04-2.26290E-05 0.00000E+00
 -1       828 1.93070E-04-2.38233E-05 0.00000E+00
 -1       829 1.92935E-04-2.37516E-05 0.00000E+00
 -1       830 1.92798E-04-2.24825E-05 0.00000E+00
 -1       831 1.92661E-04-2.04103E-05 0.00000E+00
 -1       832 1.92523E-04-1.79341E-05 1.65436E-24
 -1       833 1.92385E-04-1.55630E-05 0.00000E+00
 -1       834 1.92250E-04-1.38057E-05-1.65436E-24
 -1       835 1.92116E-04-1.30041E-05 0.00000E+00
 -1       836 1.95879E-04 2.36171E-06 0.00000E+00
 -1       837 1.97445E-04 2.48966E-06 0.00000E+00
 -1       838 1.98915E-04 2.61756E-06 0.00000E+00
 -1       839 2.00322E-04 2.74475E-06 0.00000E+00
 -1       840 2.01696E-04 2.87179E-06-8.27181E-25
 -1       856 1.91973E-04-1.45599E-05-8.27181E-25
 -1       857 1.91954E-04-1.54900E-05-2.58494E-26
 -1       858 1.91935E-04-1.63055E-05 0.00000E+00
 -1       859 1.91915E-04-1.70277E-05 2.06795E-25
 -1       860 1.91895E-04-1.76778E-05 4.13590E-25
 -1       861 1.91875E-04-1.82769E-05 0.00000E+00
 -1       862 1.91856E-04-1.88464E-05 0.00000E+00
 -1       863 1.91836E-04-1.94075E-05-4.13590E-25
 -1       864 1.91816E-04-1.99817E-05 0.00000E+00
 -1       865 1.91796E-04-2.05902E-05-4.13590E-25
 -1       866 1.91776E-04-2.12543E-05-8.27181E-25
 -1       867 1.91756E-04-2.19952E-05-4.13590E-25
 -1       868 1.91736E-04-2.28341E-05 0.00000E+00
 -1       869 1.91716E-04-2.37922E-05 4.13590E-25
 -1       870 1.91695E-04-2.48904E-05 0.00000E+00
 -1       871 1.93342E-04-1.34993E-05-8.27181E-25
 -1       872 1.94842E-04-1.35076E-05 0.00000E+00
 -1       873 1.96422E-04-1.35166E-05 0.00000E+00
 -1       874 1.98012E-04-1.35263E-05 3.10193E-25
 -1       875 1.99546E-04-1.35367E-05 6.20385E-25
 -1       876 1.92516E-04-1.45454E-05 3.30872E-24
 -1       877 1.93020E-04-1.55297E-05 0.00000E+00
 -1       878 1.93503E-04-1.64553E-05 0.00000E+00
 -1       879 1.93967E-04-1.73295E-05 1.65436E-24
 -1       880 1.94414E-04-1.81598E-05 0.00000E+00
 -1       881 1.94848E-04-1.89534E-05 0.00000E+00
 -1       882 1.95271E-04-1.97177E-05-3.30872E-24
 -1       883 1.95685E-04-2.04601E-05-1.65436E-24
 -1       884 1.96095E-04-2.11878E-05-3.30872E-24
 -1       885 1.96501E-04-2.19083E-05 0.00000E+00
 -1       886 1.96907E-04-2.26288E-05 3.30872E-24
 -1       887 1.97316E-04-2.33567E-05 1.65436E-24
 -1       888 1.97731E-04-2.40994E-05 0.00000E+00
 -1       889 1.98153E-04-2.48642E-05 0.00000E+00
 -1       890 1.98585E-04-2.56586E-05 1.65436E-24
 -1       891 1.93041E-04-2.62071E-05 0.00000E+00
 -1       892 1.94385E-04-2.62647E-05 8.27181E-25
 -1       893 1.95680E-04-2.63223E-05 8.27181E-25
 -1       894 1.96902E-04-2.63795E-05-4.13590E-25
 -1       895 1.98025E-04-2.64365E-05 4.13590E-25
 -1       956 2.02940E-04 1.66445E-06 1.65436E-24
 -1       957 2.02808E-04 4.30734E-07 1.65436E-24
 -1       958 2.02675E-04-7.22296E-07 0.00000E+00
 -1       959 2.02542E-04-1.80596E-06 1.65436E-24
 -1       960 2.02410E-04-2.83164E-06 0.00000E+00
 -1       961 2.02277E-04-3.81071E-06 0.00000E+00
 -1       962 2.02145E-04-4.75459E-06 0.00000E+00
 -1       963 2.02012E-04-5.67472E-06 1.65436E-24
 -1       964 2.01879E-04-6.58252E-06 0.00000E+00
 -1       965 2.01747E-04-7.48939E-06 1.65436E-24
 -1       966 2.01614E-04-8.40680E-06-3.30872E-24
 -1       967 2.01482E-04-9.34615E-06-1.65436E-24
 -1       968 2.01349E-04-1.03189E-05 6.61744E-24
 -1       969 2.01217E-04-1.13363E-05 3.30872E-24
 -1       970 2.01085E-04-1.24099E-05 0.00000E+00
 -1       971 2.00835E-04-1.46905E-05-3.30872E-24
 -1       972 2.00714E-04-1.57362E-05-1.65436E-24
 -1       973 2.00593E-04-1.66978E-05 3.30872E-24
 -1       974 2.00471E-04-1.75861E-05-1.65436E-24
 -1       975 2.00350E-04-1.84121E-05 3.30872E-24
 -1       976 2.00229E-04-1.91866E-05 0.00000E+00
 -1       977 2.00107E-04-1.99204E-05 0.00000E+00
 -1       978 1.99986E-04-2.06244E-05 0.00000E+00
 -1       979 1.99865E-04-2.13096E-05 0.00000E+00
 -1       980 1.99744E-04-2.19867E-05-1.65436E-24
 -1       981 1.99623E-04-2.26668E-05 3.30872E-24
 -1       982 1.99502E-04-2.33607E-05 0.00000E+00
 -1       983 1.99381E-04-2.40793E-05 0.00000E+00
 -1       984 1.99260E-04-2.48334E-05 1.65436E-24
 -1       985 1.99140E-04-2.56340E-05 0.00000E+00
 -3
    1PSTEP                        22          11           1          
  100CL  111 6.62109E-01         409                     0   11           1
 -4  STRESS      6    1
 -5  SXX         1    4    1    1
 -5  SYY         1    4    2    2
 -5  SZZ         1    4    3    3
 -5  SXY         1    4    1    2
 -5  SYZ         1    4    2    3
 -5  SZX         1    4    3    1
 -1         1-5.34091E+06-1.49701E+06-1.12537E+06-1.23002E+06-3.23053E-09 1.46450E-07
 -1         2 1.72223E+06 2.50236E+07 5.74890E+06 7.65562E+06 3.47209E-08-5.09026E-08
 -1         3-1.48234E+03-1.54243E+06 4.02460E+02-2.18514E+03-5.54426E-10-2.58733E-08
 -1         5-7.73412E+01 3.89718E+05 2.11430E+01 7.28837E+00-8.57234E-10-5.45697E-12
 -1         8-5.44068E+05-1.98762E+05-6.31870E+04-2.34579E+05 5.45697E-12-2.09333E-07
 -1         9 1.19344E+07 4.40942E+06 2.92930E+06-1.62936E+05 3.24799E-09-7.50646E-08
 -1        10-2.29487E+03-1.60732E+06-3.90595E+03-1.47886E+04-1.34587E-08-4.74574E-08
 -1        12-7.77908E+01 3.87765E+05 3.10634E+02-3.91061E+00-2.00089E-11-9.86873E-09
 -1        15 8.97429E+02 4.93182E+02 2.90091E+03 7.51043E-01-1.95612E-10 1.89608E-08
 -1        16 2.29173E+07-3.60118E+05 3.11203E+06-2.36767E+06-9.74008E-09 1.62981E-07
 -1        17 8.40608E+06 6.28623E+06 2.26867E+06 6.00971E+06 2.54367E-08 9.82545E-09
 -1        18 1.42237E+05 3.34804E+04 4.18203E+03-1.19376E+05 1.69484E-08 4.38376E-10
 -1        19 1.22234E+05 1.41461E+05-9.44366E+02 2.19378E+04 1.75551E-09 1.05501E-10
 -1        20-8.17998E+04-5.72866E+05-1.28544E+05 2.50987E+04-1.68969E-09 1.87841E-09
 -1        21-4.55129E+01-2.95631E+05-9.22817E+02 2.75565E+02 1.73337E-08 2.04020E-08
 -1        24 1.41530E+07 1.21588E+07 3.91271E+06 1.12554E+07-1.67357E-07-5.81495E-08
 -1        25 1.25124E+05 2.68055E+05 1.00160E+05-6.46552E+05-3.16795E-09 8.83720E-09
 -1        26-5.53765E+04 9.21362E+04-2.46115E+04 1.29006E+03-1.18598E-10-4.38002E-09
 -1        27-7.55286E+04-3.09515E+05-1.13159E+05 6.88697E+04 4.23688E-09 3.30601E-09
 -1        28 2.22112E+04-8.52345E+04 1.68754E+04 2.05923E+04-2.03960E-09 2.54884E-09
 -1        32-1.67884E+06-3.18054E+06-1.97981E+05 4.60659E+05-4.20696E-08-1.21947E-08
 -1        33-1.78227E+05 9.28656E+04 3.23415E+04-3.84317E+04-3.21825E-09 1.63621E-08
 -1        34-2.23291E+05-2.49929E+04 6.88697E+02 7.55455E+04-5.75720E-09-1.42618E-08
 -1        35-2.29004E+04-3.38027E+04-1.34660E+03 5.14302E+04-2.21513E-09-7.51970E-09
 -1        51 6.12657E+04-1.66445E+05 1.29380E+05-4.21057E+05 1.45519E-11-1.04410E-07
 -1        52 2.06503E+04-1.43720E+05 6.77254E+04-4.91112E+05-3.71983E-10 1.22327E-07
 -1        53 4.09521E+03-1.59017E+05 3.50016E+04-4.19629E+05 2.69210E-10 5.60103E-08
 -1        54 7.00878E+03-1.54790E+05 2.82262E+04-4.92496E+05 3.63798E-12-3.27273E-08
 -1        55 1.53141E+04-1.61547E+05 3.37055E+04-4.19561E+05 3.81988E-10-1.63514E-07
 -1        56-9.87094E+06-1.48328E+06-9.60480E+05-4.18598E+06 2.36323E-08-8.08213E-08
 -1        57-1.12913E+07-5.53063E+05-5.32116E+05-2.48729E+06 2.38069E-08 4.12474E-08
 -1        58-9.53303E+06-1.98968E+06-2.03726E+05-4.43523E+06-1.09212E-08 1.47811E-07
 -1        59-1.16483E+07 5.62767E+04-1.01978E+05-2.40669E+06-2.90765E-09-2.95477E-07
 -1        60-9.64675E+06-1.99102E+06-6.35666E+04-4.38331E+06 2.22644E-09-2.53734E-07
 -1        61-1.07409E+07-3.90384E+05 4.11249E+04-2.66504E+06-1.25947E-08 7.69796E-08
 -1        62-1.02260E+07-1.68829E+06-1.15541E+05-4.00215E+06-2.69793E-08-2.76290E-07
 -1        63-9.50838E+06-1.31995E+06 9.41884E+04-3.53122E+06 7.65431E-09 5.69562E-08
 -1        64-1.06989E+07-1.19083E+06-1.06754E+05-3.40646E+06 4.22006E-09-1.54665E-07
 -1        65-9.11362E+06-2.07934E+06 3.56142E+04-4.74633E+06-4.51982E-08 5.02046E-08
 -1        66-1.08230E+07-7.88418E+05-5.02966E+04-2.94151E+06 3.56013E-08-1.45221E-07
 -1        67-9.21485E+06-2.37546E+06-9.12932E+04-5.33593E+06-7.36436E-08-4.19728E-07
 -1        68-1.08029E+07-7.48765E+05-1.91508E+05-2.94011E+06-6.26824E-08-4.24625E-08
 -1        69-9.30770E+06-2.41556E+06-4.68639E+05-4.71706E+06-8.40009E-09-4.63915E-08
 -1        70-1.05363E+07-8.97955E+05-8.88085E+05-3.43992E+06 1.87138E-08-1.39116E-08
 -1        86-1.75823E+06-1.71925E+07-3.15119E+06-3.58435E+06-2.94112E-07 1.24506E-07
 -1        87 2.80848E+06 7.37923E+06 2.61901E+06 6.43779E+06-4.89192E-07 1.98244E-07
 -1        88-5.50946E+05-1.76081E+06 2.53004E+05-2.76691E+06-4.58329E-07 4.08386E-08
 -1        89 3.75636E+06 7.01460E+06 2.68768E+06 6.67017E+06-6.20334E-07-2.51173E-07
 -1        90-2.58963E+06-1.69194E+07-3.39482E+06-3.85550E+06-1.52508E-07-1.22120E-07
 -1       121-2.03030E+03-1.54731E+06-5.47306E+02 1.08299E+03 1.45059E-09-1.79862E-08
 -1       122-1.29875E+03-1.54249E+06 7.62332E+02-4.37464E+03-5.48653E-09 1.19617E-08
 -1       123-2.05011E+03-1.54744E+06 2.52207E+02 3.23461E+03 4.30441E-09-1.16197E-08
 -1       124 3.19824E+02-1.54204E+06 2.91919E+03-9.15993E+03-1.04928E-08 3.87317E-08
 -1       125-2.85109E+03-1.54833E+06 3.41775E+03 5.82249E+03 6.44286E-09 2.01944E-08
 -1       191-8.14178E+01 3.89734E+05 2.18836E+01-3.61387E+00 3.51775E-10-1.20599E-09
 -1       192-7.48222E+01 3.89719E+05 4.58009E+01 3.73886E+01 4.69640E-10-1.63236E-08
 -1       193-7.32266E+01 3.89731E+05 8.17394E+01-3.35984E+01 1.22554E-09-2.59388E-09
 -1       194-3.33666E+01 3.89734E+05 1.80877E+02 3.08487E+02 1.10367E-09 3.86535E-10
 -1       195 4.83205E+01 3.89707E+05 3.57739E+02-2.74690E+02 2.14641E-09-5.32054E-09
 -1       251-8.84261E+05 1.75235E+04-4.08866E+04-1.63399E+04-6.04182E-09-4.42342E-08
 -1       252-8.99653E+05-2.02861E+04-2.84329E+04 5.88654E+04 6.16319E-09 9.04438E-08
 -1       253-8.93521E+05 2.71016E+03-1.10421E+04-1.20088E+04-8.04835E-09-1.12493E-07
 -1       254-8.84072E+05-3.30129E+03-4.71950E+03 4.27838E+04 1.59380E-08-3.15307E-07
 -1       255-8.99070E+05 1.36853E+01-4.03916E+03-2.63259E+02-3.34785E-09 1.58898E-07
 -1       256-8.76985E+05-2.96092E+02 1.70869E+03 1.57706E+04 7.03949E-09 1.30374E-07
 -1       257-9.00002E+05-7.46270E+02-1.84152E+03 1.49877E+04-1.05260E-08 1.46805E-07
 -1       258-8.80385E+05 1.09807E+03 3.24257E+03-1.30699E+04 7.37009E-09 3.32025E-07
 -1       259-8.95958E+05-1.15521E+03 1.12062E+03 2.85727E+04-7.99059E-09 1.72884E-07
 -1       260-8.88910E+05 3.32696E+03 5.73883E+03-3.40512E+04-2.46448E-08-5.32305E-08
 -1       261-8.92301E+05-2.33689E+03 8.57802E+03 3.59924E+04 2.45692E-08-6.50753E-08
 -1       262-8.88606E+05 1.22018E+04 2.13779E+04-4.03043E+04-2.70682E-08-1.78332E-07
 -1       263-8.96602E+05-9.73178E+03 3.37646E+04 3.48399E+04 1.67117E-08 4.37321E-08
 -1       264-8.56848E+05 6.70130E+04 9.39165E+04-2.96521E+04 3.38562E-08-1.54163E-07
 -1       265-9.23435E+05-5.73803E+04 1.30031E+05 2.53217E+04 1.99582E-08 1.51667E-07
 -1       266-1.62467E+04-7.59781E+03 3.81153E+04-1.60686E+01 7.63976E-11 2.47545E-09
 -1       267 1.88341E+04 8.85408E+03 2.69414E+04 1.85417E+01 1.71440E-10-1.16435E-07
 -1       268-2.52563E+03-1.25405E+03 1.00139E+04-2.36244E+00-4.00178E-11-8.32652E-08
 -1       269 2.98201E+03 1.50076E+03 6.50897E+03 2.75199E+00 2.93880E-10 1.56830E-07
 -1       270-4.47601E+02-2.46588E+02 3.14197E+03-3.73460E-01 1.65869E-10 8.41265E-08
 -1       271-1.41549E+06-1.82186E+05-1.06907E+05-5.52162E+05 4.01742E-08 4.94547E-08
 -1       272-1.39885E+06-2.99727E+05-6.66287E+04-5.99946E+05-5.33291E-08-2.13104E-08
 -1       273-1.43838E+06-2.04051E+05-2.61202E+04-5.44075E+05 1.11977E-08 1.38112E-07
 -1       274-1.37349E+06-2.73170E+05-1.32891E+04-6.15856E+05-5.09863E-09 1.72384E-07
 -1       275-1.44406E+06-2.03118E+05-6.61843E+03-5.40178E+05 3.05918E-08 3.05936E-08
 -1       276-1.36844E+06-2.74402E+05-2.62494E+03-6.25213E+05-2.72921E-08-5.46424E-08
 -1       277-1.44699E+06-2.00220E+05-1.86213E+03-5.37361E+05 2.56841E-08 2.29166E-07
 -1       278-1.36669E+06-2.77641E+05-6.10680E+02-6.32065E+05 3.87718E-09 4.54234E-07
 -1       279-1.44885E+06-1.97926E+05-7.94772E+02-5.35414E+05-1.43718E-08 1.02632E-07
 -1       280-1.36597E+06-2.79976E+05-8.01611E+02-6.36475E+05-5.19990E-08-2.30011E-08
 -1       281-1.44982E+06-1.96558E+05-1.49403E+03-5.34358E+05-1.02727E-08-6.55682E-08
 -1       282-1.36635E+06-2.81838E+05-3.45737E+03-6.38172E+05-1.66334E-08 1.90719E-07
 -1       283-1.44939E+06-1.95581E+05-6.16536E+03-5.34287E+05 3.36283E-08-1.87852E-07
 -1       284-1.37192E+06-2.89665E+05-1.67717E+04-6.35941E+05-4.51728E-08-3.21193E-08
 -1       285-1.44394E+06-1.89836E+05-2.62985E+04-5.36015E+05 1.70185E-08 3.65544E-08
 -1       301-1.25471E+04-6.57437E+05 1.65944E+05-1.16234E+06-5.32600E-09 4.38013E-08
 -1       302-1.57541E+04-6.09270E+05 9.98860E+04-1.69581E+06-1.20490E-08-1.87021E-07
 -1       303-2.61858E+04-6.51220E+05 5.61510E+04-1.15907E+06-5.30417E-09 6.78792E-08
 -1       304-3.13117E+04-6.17439E+05 5.60042E+04-1.69534E+06 4.27826E-09 2.19985E-07
 -1       305-3.08035E+04-6.39738E+05 6.81865E+04-1.16214E+06 2.04818E-08 3.22383E-07
 -1       306-3.00126E+07-6.18144E+06-8.56689E+06-4.45738E+05-9.82545E-08-3.75439E-08
 -1       307 2.50030E+07 3.28814E+06 5.46424E+06-1.53243E+07-7.87215E-07-2.74304E-07
 -1       308-6.83485E+06-9.75178E+05-4.05595E+05 5.19057E+06-2.06404E-07 2.16794E-07
 -1       309-3.07417E+06 8.64397E+06 2.29554E+06-2.06954E+07 1.49361E-07 3.36109E-07
 -1       310-1.27793E+07-1.95676E+06-2.09798E+06 5.18877E+06 1.97731E-07 1.97309E-07
 -1       311 3.88898E+07-4.61559E+04 7.33988E+06-8.51958E+06 4.66971E-07-1.05269E-07
 -1       312-3.19546E+07-6.86893E+06-8.57320E+06-5.21651E+06 1.39116E-07-5.20231E-08
 -1       313 4.51386E+07 1.53662E+07 1.06772E+07 2.40408E+07 1.37050E-07 2.58675E-07
 -1       314-1.70062E+07-1.79060E+07-7.49984E+06-1.25038E+07 6.33008E-07-4.24916E-09
 -1       315-2.11592E+06 2.97902E+07 5.63350E+06 1.02638E+07-2.60407E-07-1.21538E-07
 -1       316 1.47718E+06-9.77592E+06-4.04542E+05-2.44612E+06-1.12434E-06-2.51457E-07
 -1       317-1.70459E+07 2.23979E+07 2.24623E+06-8.92126E+06 9.77496E-07-7.23783E-07
 -1       318-1.12167E+06-1.28999E+07-2.08828E+06-4.25681E+06-9.81963E-07 1.73692E-07
 -1       319 7.38701E+06 3.21125E+07 7.08736E+06 1.67415E+07-1.41015E-07 2.81347E-07
 -1       320-2.26586E+07-1.76825E+07-9.88609E+06-1.28405E+07 2.03378E-07-7.21193E-08
 -1       336-7.58277E+02-1.67501E+06-1.37142E+04 8.79696E+03-2.67555E-08 6.49015E-09
 -1       337-5.37092E+03-1.67451E+06-1.78815E+04-2.13838E+04-4.84579E-08-1.22855E-08
 -1       338 2.51525E+02-1.67451E+06-2.81813E+04 1.23364E+04-3.42334E-08 1.56106E-08
 -1       339-2.99117E+04-1.69156E+06-6.36680E+04-2.83209E+04-6.34063E-08 1.85246E-08
 -1       340 1.96685E+04-1.66011E+06-1.00310E+05 1.56038E+04-4.17785E-08 2.16169E-08
 -1       406-1.92397E+02 3.85818E+05 4.28867E+02 2.78850E+02-1.81717E-09-3.11411E-09
 -1       407 1.04868E+02 3.85929E+05 1.27002E+03-2.89664E+02-3.17868E-10-6.54018E-09
 -1       408 6.22538E+02 3.85714E+05 2.69558E+03 1.05403E+01-2.29386E-09 1.08048E-09
 -1       409 2.89925E+03 3.86821E+05 6.15632E+03 2.43961E+02-5.87875E-10-1.24846E-08
 -1       410 8.46696E+03 3.84925E+05 1.25997E+04-2.71267E+02-3.00133E-09-2.18934E-08
 -1       521-3.16777E+07-7.67300E+06-1.00640E+07-4.45998E+04-1.00466E-07-9.54606E-09
 -1       522 2.59960E+07 4.37960E+06 5.60469E+06-1.89147E+07-3.56871E-07-4.08996E-07
 -1       523-7.40468E+06-1.29790E+06-3.97103E+05 5.66096E+06 2.36032E-08-6.35773E-08
 -1       524-6.57290E+06 1.17996E+07 2.49923E+06-2.38464E+07 7.65096E-07-7.14223E-07
 -1       525-1.35933E+07-2.62370E+06-2.31968E+06 5.67088E+06 6.85803E-07-5.08298E-07
 -1       526 4.27218E+07-1.58030E+05 7.73852E+06-1.11850E+07 1.46450E-07 2.84635E-07
 -1       527-3.39367E+07-8.61014E+06-9.93371E+06-5.09571E+06 3.41097E-08 1.49652E-07
 -1       528 4.95104E+07 1.72684E+07 1.11910E+07 2.74990E+07-5.00586E-08-5.27652E-08
 -1       529-1.79782E+07-2.02255E+07-8.64338E+06-1.25665E+07 3.80911E-07-9.13860E-08
 -1       530-4.60994E+06 3.47745E+07 5.99470E+06 9.67205E+06 2.26835E-07 7.18283E-07
 -1       531 1.50220E+06-1.08710E+07-3.74934E+05-2.36213E+06-8.57850E-07 3.01050E-07
 -1       532-1.95260E+07 2.44637E+07 2.47114E+06-1.33485E+07 3.79558E-07-6.56444E-07
 -1       533-1.15579E+06-1.41124E+07-2.24047E+06-4.03625E+06-2.46015E-07-1.05979E-06
 -1       534 5.43545E+06 3.74948E+07 7.41561E+06 1.74103E+07-5.45115E-08 8.04197E-07
 -1       535-2.39202E+07-2.01890E+07-1.13943E+07-1.29571E+07 1.22469E-07 4.82076E-07
 -1       536-7.06070E+05-4.64972E+04-4.87750E+04-5.46749E+04-8.27049E-09 5.33773E-08
 -1       537-5.49884E+04 4.43967E+04 8.35221E+04 1.23849E+05-1.22391E-07 7.31879E-08
 -1       538-3.94442E+05 3.38350E+03 3.39509E+03-7.22084E+04 4.51390E-08 9.83309E-08
 -1       539-2.69117E+05 2.80527E+03 2.48190E+04 1.38754E+05 1.78151E-07 9.56367E-08
 -1       540-4.97322E+05-4.17418E+02-2.13536E+04-7.01151E+04 6.90898E-09 1.05696E-07
 -1       541 1.46592E+05 1.69617E+04 1.06356E+05 9.79463E+04-3.94866E-08 1.03826E-07
 -1       542-7.98951E+05-2.01346E+04-8.42476E+04-3.05256E+04 3.45312E-08 4.70785E-08
 -1       543 4.05366E+05 2.73271E+04 1.57975E+05-1.33511E+04 1.82458E-08-1.13478E-08
 -1       544-7.49155E+05-1.65399E+04-7.48471E+04 4.05128E+04-5.67375E-08-3.64547E-08
 -1       545 2.89984E+04 9.48615E+03 7.98212E+04-1.13628E+05-7.57040E-08-9.56061E-08
 -1       546-4.32692E+05 6.09525E+03-1.22318E+04 6.94048E+04 2.53526E-08-7.99810E-08
 -1       547-2.87148E+05-4.65472E+03 1.05917E+04-1.41596E+05-1.14490E-07-1.18728E-07
 -1       548-4.41508E+05 4.71907E+03-2.38748E+04 6.91722E+04-1.14949E-07-1.06033E-07
 -1       549 4.81438E+04 1.60877E+04 6.05378E+04-1.11494E+05-7.40620E-08-7.62616E-08
 -1       550-7.59012E+05-2.21552E+04-1.28949E+05 3.85870E+04 9.52969E-09-4.19805E-08
 -1       551 4.06362E+04-7.44991E+05-1.59629E+04-1.24502E+06-1.01063E-07-4.56930E-09
 -1       552 9.29739E+04-7.89867E+05 9.83448E+03-1.77517E+06-7.38801E-08 4.63551E-08
 -1       553 7.15574E+04-7.86299E+05 3.19302E+04-1.23839E+06-1.16983E-07 3.90719E-08
 -1       554 1.31709E+05-8.05754E+05 8.08434E+04-1.77712E+06-7.35454E-08 2.71320E-08
 -1       555 1.01262E+05-8.09941E+05 1.47669E+05-1.23821E+06-1.23619E-07-7.09406E-09
 -1       556 2.23512E+05-3.83385E+05 2.51674E+04-4.06806E+05-2.72121E-08-1.27184E-08
 -1       557 3.53834E+05-4.87618E+05 1.58410E+04-5.27192E+05-6.62112E-09 1.38898E-08
 -1       558 2.05278E+05-3.76092E+05 2.20078E+03-4.11299E+05-1.70257E-08-2.20462E-09
 -1       559 3.28928E+05-4.87620E+05 2.37757E+03-5.47613E+05 2.45782E-08 3.74712E-09
 -1       560 1.89994E+05-3.66508E+05-1.53007E+03-4.22312E+05 1.43191E-08 4.74392E-09
 -1       561 3.09733E+05-4.79933E+05 1.16294E+02-5.60704E+05 4.84579E-09 9.29867E-09
 -1       562 1.77911E+05-3.59002E+05-1.33136E+03-4.31061E+05 2.75031E-09-5.65342E-09
 -1       563 2.95382E+05-4.73676E+05-4.01416E+01-5.70077E+05 6.54836E-09-1.62399E-08
 -1       564 1.69287E+05-3.53629E+05-6.01829E+02-4.37172E+05 1.08994E-08-3.18960E-09
 -1       565 2.85861E+05-4.69529E+05 2.29077E+01-5.76160E+05 5.38421E-09 1.11677E-08
 -1       566 1.64245E+05-3.50439E+05-2.60496E+02-4.40699E+05-5.92991E-09-2.53058E-08
 -1       567 2.81232E+05-4.67516E+05-3.62635E+02-5.78971E+05 2.78542E-08 4.86398E-09
 -1       568 1.62874E+05-3.49600E+05-1.12490E+03-4.41753E+05 3.12957E-09-5.04588E-09
 -1       569 2.80107E+05-4.67441E+05-2.84090E+03-5.77546E+05 6.91216E-10-4.91491E-09
 -1       570 1.66268E+05-3.52829E+05-6.20983E+03-4.40737E+05 8.33825E-09-1.46074E-08
 -1       571 2.90102E+05 1.04950E+04 1.49707E+04-9.50507E+04 3.63616E-09 9.37143E-09
 -1       572 2.92271E+05 3.95650E+03 7.33686E+03-1.04280E+05 4.22369E-09-5.92445E-09
 -1       573 2.90964E+05 1.24531E+03 3.26000E+03-9.48745E+04-8.48559E-10 5.51609E-09
 -1       574 2.91177E+05 7.27543E+02 1.63486E+03-1.04504E+05-1.89198E-09-1.56415E-08
 -1       575 2.91057E+05 4.48590E+02 7.71610E+02-9.48504E+04-2.07763E-08-1.80025E-08
 -1       576 2.91042E+05 4.60030E+02 3.95060E+02-1.04534E+05-4.62087E-08 2.46819E-08
 -1       577 2.91097E+05 3.90581E+02 1.97220E+02-9.48471E+04-2.35405E-08 1.29385E-08
 -1       578 2.91072E+05 4.22054E+02 1.13935E+02-1.04538E+05-5.44605E-09 9.90076E-09
 -1       579 2.91169E+05 3.53996E+02 7.82709E+01-9.48468E+04-2.60661E-09 9.15043E-09
 -1       580 2.91173E+05 3.71168E+02 9.08620E+01-1.04533E+05-2.92785E-08-9.23319E-09
 -1       581 2.91283E+05 2.95591E+02 1.37279E+02-9.48527E+04-6.37374E-09 9.76797E-09
 -1       582 2.91348E+05 3.33983E+02 2.79116E+02-1.04472E+05 3.09228E-09-1.06593E-09
 -1       583 2.91423E+05 3.38186E+02 5.35762E+02-9.49092E+04 2.17187E-09-6.49879E-09
 -1       584 2.91723E+05 7.75930E+02 1.21236E+03-1.03996E+05 4.02906E-09-2.29618E-08
 -1       585 2.91448E+05 1.79626E+03 2.45502E+03-9.53277E+04-3.67072E-09-1.22673E-08
 -1       586-3.42254E+03 1.16723E+05-2.91205E+03-2.50357E+05-3.33011E-09-6.36396E-09
 -1       587-1.34000E+03 1.16475E+05 7.72223E+02-2.75537E+05-7.97081E-09-1.31861E-08
 -1       588 3.96156E+02 1.16281E+05 4.75694E+03-2.50219E+05-4.21096E-09 2.39288E-09
 -1       589 5.07939E+03 1.18753E+05 1.23364E+04-2.75304E+05-3.69255E-09 9.36780E-10
 -1       590 1.65964E+04 1.14948E+05 2.58777E+04-2.50651E+05-5.55156E-09-1.23364E-08
 -1       591-7.49016E+04-1.59539E+04-2.25002E+04-3.19222E+04-1.04303E-08-1.00445E-08
 -1       592-7.89852E+04-1.95073E+04-1.21879E+04-3.55432E+04-1.24765E-08-2.55804E-08
 -1       593-7.71519E+04-1.43212E+04-5.07322E+03-3.35720E+04-7.10261E-09 2.24873E-09
 -1       594-7.58786E+04-1.62057E+04-2.53014E+03-3.56608E+04-9.03560E-09 1.94490E-08
 -1       595-7.73234E+04-1.43159E+04-1.16159E+03-3.36469E+04-4.84575E-09 1.49185E-08
 -1       596-7.56659E+04-1.60547E+04-5.90285E+02-3.56355E+04 5.48459E-09-8.01913E-09
 -1       597-7.73449E+04-1.43312E+04-3.20977E+02-3.36498E+04-8.82096E-10-8.05699E-09
 -1       598-7.56450E+04-1.60487E+04-2.57201E+02-3.56284E+04 7.54881E-10 6.34353E-09
 -1       599-7.73437E+04-1.43318E+04-3.27514E+02-3.36494E+04 6.05246E-09-8.92408E-09
 -1       600-7.56660E+04-1.60552E+04-6.07591E+02-3.56334E+04 1.66310E-08 2.37491E-08
 -1       601-7.73191E+04-1.43172E+04-1.19822E+03-3.36459E+04 7.05677E-09-7.50151E-09
 -1       602-7.58853E+04-1.62098E+04-2.61116E+03-3.56556E+04-5.44685E-09-3.13885E-08
 -1       603-7.71393E+04-1.43257E+04-5.23634E+03-3.35694E+04 1.21008E-09 2.98132E-09
 -1       604-7.91094E+04-1.95980E+04-1.25789E+04-3.55094E+04 1.99304E-09 8.46558E-09
 -1       605-7.47968E+04-1.60286E+04-2.32222E+04-3.18861E+04 2.91698E-09 1.65119E-08
 -1       606 2.66629E+04-1.43102E+04-2.56526E+04 2.39614E+04 6.54200E-09 1.98406E-08
 -1       607 2.22798E+04-4.67397E+03-1.27749E+04 2.69277E+04 5.89353E-10 8.16726E-09
 -1       608 2.47778E+04-8.43463E+02-5.71890E+03 2.37930E+04-3.21597E-09 6.44741E-09
 -1       609 2.42990E+04-2.89253E+02-2.88904E+03 2.71415E+04 1.04046E-09-2.93403E-09
 -1       610 2.45645E+04-4.12915E+01-1.37839E+03 2.37730E+04 4.67298E-09-2.43267E-09
 -1       611 2.44894E+04-4.16197E+01-6.94974E+02 2.71646E+04 7.36736E-09-8.09450E-10
 -1       612 2.45175E+04-2.76150E+01-3.30372E+02 2.37709E+04 2.33740E-10 5.96401E-10
 -1       613 2.45010E+04-3.75474E+01-1.48015E+02 2.71673E+04 5.49835E-09-7.32007E-09
 -1       614 2.44954E+04-3.40371E+01-3.46298E+01 2.37702E+04 2.77214E-09-4.49950E-09
 -1       615 2.44958E+04-3.60702E+01 6.22286E+01 2.71678E+04-7.07587E-10 1.50046E-08
 -1       616 2.44780E+04-3.09259E+01 1.86427E+02 2.37705E+04 2.91629E-09-6.15000E-09
 -1       617 2.45182E+04 3.64661E+00 4.25271E+02 2.71673E+04-1.17416E-09-2.03056E-08
 -1       618 2.44411E+04 9.16633E+01 8.57177E+02 2.37708E+04-1.69030E-09-7.84485E-09
 -1       619 2.48208E+04 6.66410E+02 1.92484E+03 2.71667E+04-5.32509E-10-1.79905E-08
 -1       620 2.41564E+04 2.12425E+03 3.86887E+03 2.37724E+04 2.39788E-09 4.39286E-09
 -1       621 5.10673E+02 3.01030E+05 3.87833E+03 4.09536E+04 1.13096E-09 3.07409E-10
 -1       622 6.76686E+02 3.01925E+05 3.44219E+03 5.94544E+04 1.19462E-09 5.55156E-09
 -1       623 1.43090E+02 3.01224E+05 4.13665E+03 4.07683E+04 1.16415E-09 1.01227E-08
 -1       624 2.12435E+03 3.03142E+05 8.01960E+03 5.96368E+04 1.21645E-09 1.75601E-09
 -1       625 2.07534E+03 2.99634E+05 1.40140E+04 4.07651E+04 1.52977E-09 8.77844E-09
 -1       626 2.60532E+05 6.13316E+04 5.11400E+03 1.26574E+05 2.53112E-09-1.65137E-08
 -1       627 2.58217E+05 6.27270E+04 2.46439E+03 1.30842E+05 9.89530E-10 8.43283E-09
 -1       628 2.60660E+05 5.89916E+04 1.04226E+03 1.27443E+05-6.52744E-09-5.06907E-09
 -1       629 2.57582E+05 6.20478E+04 5.10133E+02 1.31082E+05-6.92489E-09 5.79347E-09
 -1       630 2.60674E+05 5.88785E+04 2.36739E+02 1.27480E+05-3.26827E-09 1.16861E-08
 -1       631 2.57516E+05 6.20219E+04 1.27529E+02 1.31084E+05 8.59586E-09 1.18516E-08
 -1       632 2.60671E+05 5.88825E+04 8.41506E+01 1.27476E+05 8.24275E-09-1.08419E-08
 -1       633 2.57507E+05 6.20237E+04 9.41004E+01 1.31080E+05 3.14890E-09-3.31011E-09
 -1       634 2.60666E+05 5.88796E+04 1.52385E+02 1.27475E+05-4.03651E-09 2.61668E-08
 -1       635 2.57522E+05 6.20220E+04 3.08545E+02 1.31085E+05-6.53117E-09-8.41328E-09
 -1       636 2.60657E+05 5.88739E+04 6.23207E+02 1.27475E+05 5.91876E-09-5.07043E-10
 -1       637 2.57657E+05 6.21189E+04 1.37034E+03 1.31085E+05 7.14272E-09-9.60972E-09
 -1       638 2.60609E+05 5.91765E+04 2.81556E+03 1.27338E+05 2.75804E-09-4.38058E-09
 -1       639 2.59135E+05 6.41759E+04 6.66175E+03 1.30649E+05 7.79960E-09 1.10285E-08
 -1       640 2.60404E+05 6.53191E+04 1.38243E+04 1.24750E+05 3.53884E-09 3.52361E-09
 -1       656 6.64948E+04-1.70176E+06-1.60514E+05-2.56757E+03 3.63798E-11-1.56852E-08
 -1       657-8.79669E+04-1.77430E+06-1.32977E+05 5.15031E+03 3.19233E-10-5.87229E-09
 -1       658 2.11962E+04-1.72236E+06-8.18975E+04-4.64620E+03-1.81899E-11-6.15474E-09
 -1       659-9.51236E+04-1.77770E+06-1.42382E+05 6.87721E+03-1.92813E-09-1.08066E-08
 -1       660 7.36356E+04-1.69837E+06-1.76684E+05-4.29446E+03-1.65892E-09-1.22716E-09
 -1       661 1.58404E+05 1.65748E+04 1.66985E+04 6.19222E+04-6.93944E-10-5.32418E-09
 -1       662 1.67845E+05 2.89413E+04 1.12536E+04 5.81760E+04-8.05812E-10-7.93250E-09
 -1       663 1.61684E+05 2.19320E+04 3.93579E+03 6.09703E+04-2.83512E-09-5.55769E-09
 -1       664 1.64042E+05 2.26765E+04 2.35442E+03 5.93387E+04-4.00405E-09 3.41811E-09
 -1       665 1.62182E+05 2.26637E+04 9.28805E+02 6.08251E+04-6.83599E-10 1.11766E-09
 -1       666 1.63453E+05 2.18398E+04 5.43680E+02 5.95281E+04 5.34283E-09 8.35484E-09
 -1       667 1.62269E+05 2.27469E+04 2.88970E+02 6.07887E+04-9.37064E-10 1.20780E-08
 -1       668 1.63357E+05 2.17800E+04 2.94885E+02 5.95810E+04-5.54022E-09-1.29743E-08
 -1       669 1.62277E+05 2.27218E+04 3.99597E+02 6.07725E+04-1.56965E-09 5.06677E-09
 -1       670 1.63454E+05 2.19970E+04 8.70468E+02 5.95839E+04-8.31536E-09 2.01954E-08
 -1       671 1.62172E+05 2.25344E+04 1.54570E+03 6.07838E+04 4.50711E-10-5.02268E-09
 -1       672 1.64355E+05 2.35008E+04 3.95472E+03 5.93656E+04 1.11050E-08-3.71006E-09
 -1       673 1.61381E+05 2.12562E+04 6.62751E+03 6.09762E+04 4.06567E-09 2.72848E-09
 -1       674 1.70663E+05 3.41486E+04 1.89533E+04 5.75125E+04-1.78829E-10-7.71161E-09
 -1       675 1.55905E+05 1.21848E+04 2.81334E+04 6.25251E+04-3.02862E-10 2.80670E-09
 -1       676 2.40863E+01-2.95553E+05-1.11224E+03-1.37787E+02 9.52497E-10 1.66876E-08
 -1       677-2.94204E+02-2.95822E+05-2.03559E+03 2.75352E+02 7.16278E-09-1.87603E-08
 -1       678 1.97335E+02-2.95362E+05-3.59841E+03-1.37475E+02 1.05047E-10-1.08689E-08
 -1       679-3.59846E+03-2.97995E+05-8.54834E+03 2.74164E+02 9.78162E-09-2.73114E-08
 -1       680 2.14850E+03-2.93382E+05-1.37770E+04-1.35080E+02 3.39878E-09-4.32526E-09
 -1       771-3.05850E+06-7.46761E+05-1.66391E+05-1.46447E+06-3.97558E-08-2.66882E-08
 -1       772-2.98147E+06-8.35692E+05-8.57991E+04-1.56728E+06-3.76895E-08 1.21290E-08
 -1       773-3.09004E+06-7.22174E+05-4.37123E+04-1.47906E+06-1.77242E-08 1.24710E-08
 -1       774-2.97189E+06-8.17083E+05-1.95079E+04-1.59304E+06 3.26982E-08 1.68075E-09
 -1       775-3.10649E+06-7.10634E+05-1.45754E+04-1.48612E+06-8.09086E-09 3.05590E-09
 -1       776-2.98425E+06-8.14036E+05-5.45343E+03-1.61253E+06-1.00117E-08 2.96131E-09
 -1       777-3.12076E+06-7.00336E+05-6.43411E+03-1.49234E+06-6.37374E-09 4.14002E-09
 -1       778-2.99715E+06-8.11206E+05-1.82014E+03-1.62928E+06-5.28235E-09 7.85803E-09
 -1       779-3.13303E+06-6.91337E+05-3.21337E+03-1.49766E+06-1.42609E-08-1.12123E-08
 -1       780-3.00851E+06-8.08508E+05-5.32737E+02-1.64292E+06-1.03610E-08 1.10595E-09
 -1       781-3.14279E+06-6.84083E+05-1.24703E+03-1.50182E+06-2.99624E-08 5.34783E-10
 -1       782-3.01726E+06-8.06218E+05 4.52384E+02-1.65299E+06-4.79340E-08-6.63294E-09
 -1       783-3.14966E+06-6.79042E+05 7.05557E+02-1.50474E+06-1.11031E-08-1.46688E-08
 -1       784-3.02211E+06-8.03927E+05 2.91554E+03-1.65921E+06-2.07619E-08 1.21463E-09
 -1       785-3.15372E+06-6.76033E+05 5.14801E+03-1.50659E+06-3.82643E-08 7.92170E-09
 -1       786 1.23649E+05-9.76537E+03 2.25931E+04-3.22665E+02 1.42391E-09 1.05865E-09
 -1       787 1.33448E+05 1.13061E+04 1.59837E+04-1.36268E+02 3.85724E-09-8.38463E-09
 -1       788 1.27427E+05-1.53026E+03 5.84534E+03-2.87582E+02 1.01960E-09 1.55767E-08
 -1       789 1.29047E+05 1.77124E+03 3.66950E+03-1.90010E+02-2.89176E-09-4.53360E-09
 -1       790 1.28051E+05-2.38255E+02 1.48575E+03-2.68940E+02-5.33960E-09 1.63460E-08
 -1       791 1.28317E+05 2.75678E+02 8.58186E+02-2.21905E+02-9.07141E-09-9.37155E-09
 -1       792 1.28157E+05-3.58116E+01 3.63770E+02-2.55689E+02-6.40144E-09-2.96397E-09
 -1       793 1.28191E+05 3.78967E+01 1.81579E+02-2.46828E+02 9.67475E-10-2.01426E-08
 -1       794 1.28178E+05-6.24108E-01 4.76536E+01-2.44018E+02 4.47676E-09-1.09170E-08
 -1       795 1.28154E+05-2.70710E+01-5.65829E+01-2.71175E+02-6.32424E-09 7.13679E-09
 -1       796 1.28194E+05 2.91197E+01-1.60671E+02-2.31342E+02 3.39130E-09 8.57575E-09
 -1       797 1.28060E+05-2.17403E+02-4.41609E+02-3.00277E+02 4.21302E-09-7.54591E-09
 -1       798 1.28271E+05 1.89565E+02-7.17321E+02-2.14916E+02 2.02076E-09 6.78406E-09
 -1       799 1.27516E+05-1.39722E+03-1.97357E+03-3.40938E+02 5.97014E-09 1.45883E-08
 -1       800 1.28738E+05 1.20797E+03-2.79305E+03-1.90682E+02 1.12621E-12 1.46815E-08
 -1       801-1.71167E+05-1.00012E+07-1.39393E+06 1.41652E+06 9.28121E-08-5.47225E-08
 -1       802 7.38748E+05 5.95807E+06 2.18359E+06-1.74859E+06 2.63055E-07-2.91120E-08
 -1       803-5.37116E+05-1.42785E+07-1.89268E+06 8.98038E+05 7.75217E-08 1.90012E-08
 -1       804 2.87604E+05 2.40360E+06 1.53912E+06 6.78166E+05-1.20537E-07-9.95715E-08
 -1       805 1.89460E+05-6.46076E+06-2.87334E+05-1.00457E+06-5.05388E-08-6.82448E-08
 -1       806-3.08453E+05-5.96606E+04-2.28066E+04-1.22225E+05-3.86035E-09 2.15882E-08
 -1       807-3.10247E+05-5.59385E+04-1.12046E+04-1.27760E+05 1.81899E-08-1.08670E-09
 -1       808-3.09079E+05-5.14413E+04-4.75337E+03-1.26111E+05-1.08957E-09-9.29242E-09
 -1       809-3.07891E+05-5.27901E+04-2.32428E+03-1.28035E+05-1.28055E-08-5.07907E-09
 -1       810-3.09174E+05-5.11551E+04-1.06535E+03-1.26282E+05 1.11809E-08 2.32460E-08
 -1       811-3.07709E+05-5.26636E+04-5.29824E+02-1.28000E+05 6.56064E-09 1.55560E-08
 -1       812-3.09188E+05-5.11798E+04-2.68050E+02-1.26282E+05-8.97762E-09-1.90707E-08
 -1       813-3.07684E+05-5.26658E+04-1.74358E+02-1.27981E+05-1.41395E-08-1.84345E-08
 -1       814-3.09181E+05-5.11895E+04-1.73035E+02-1.26278E+05-3.48791E-09-2.75622E-09
 -1       815-3.07688E+05-5.26681E+04-2.79013E+02-1.27973E+05 1.39107E-09 3.59796E-09
 -1       816-3.09160E+05-5.11886E+04-5.28964E+02-1.26274E+05 4.84761E-10-9.69203E-09
 -1       817-3.07777E+05-5.27185E+04-1.13528E+03-1.27962E+05-1.85437E-08 2.53008E-08
 -1       818-3.09091E+05-5.13489E+04-2.31561E+03-1.26198E+05-7.37418E-09 1.13969E-08
 -1       819-3.09045E+05-5.41174E+04-5.44846E+03-1.27661E+05-2.59979E-09-1.34958E-08
 -1       820-3.08654E+05-5.54648E+04-1.10896E+04-1.24440E+05-3.10138E-09-9.56106E-09
 -1       821-3.78664E+05 2.08520E+04-4.85309E+04 2.11173E+03 1.37705E-08 1.81899E-10
 -1       822-3.98389E+05-2.41554E+04-3.41135E+04-4.39836E+03 5.16626E-09 2.65900E-08
 -1       823-3.86139E+05 3.28645E+03-1.25359E+04 3.39914E+03-1.18105E-08 2.51021E-10
 -1       824-3.89372E+05-3.79010E+03-7.84776E+03-5.28877E+03 2.32328E-09 8.18829E-09
 -1       825-3.87687E+05 5.10632E+02-3.28511E+03 3.00226E+03 2.06295E-08 2.67097E-08
 -1       826-3.86962E+05-5.67573E+02-1.74754E+03-3.04028E+03 2.89629E-08-5.29866E-10
 -1       827-3.88524E+05 4.78455E+01-1.18458E+03 1.15051E+03 1.36593E-08-3.02441E-09
 -1       828-3.86272E+05-1.33363E+02-5.93712E+02 1.09660E+03 1.24588E-09-7.67401E-09
 -1       829-3.88365E+05 6.66918E+01-1.17400E+03-1.13466E+03 1.06897E-09-3.88906E-09
 -1       830-3.87307E+05-6.21923E+02-1.88461E+03 4.83021E+03 7.00091E-10 1.83862E-08
 -1       831-3.87511E+05 5.53587E+02-3.36742E+03-2.58312E+03-6.17206E-09-3.27054E-09
 -1       832-3.89452E+05-3.95661E+03-8.15035E+03 6.08920E+03-3.26877E-09 3.06409E-09
 -1       833-3.86235E+05 3.41058E+03-1.30391E+04-2.39370E+03-2.50689E-09-5.42059E-09
 -1       834-3.98454E+05-2.50688E+04-3.53370E+04 4.14122E+03-2.89639E-09-2.51302E-08
 -1       835-3.78492E+05 2.16333E+04-5.03999E+04-6.35061E+02 4.60395E-09 1.34787E-08
 -1       836-1.41224E+03 3.69718E+05 2.28780E+04-1.61215E+04-7.01857E-09 3.92447E-10
 -1       837 4.87657E+03 3.76884E+05 1.93556E+04-3.29474E+04-7.90283E-09 1.74168E-09
 -1       838-5.57445E+02 3.71728E+05 1.97162E+04-1.60500E+04-6.25960E-09 9.24888E-09
 -1       839 1.24057E+04 3.82491E+05 3.72924E+04-3.29998E+04-6.56610E-09 3.98954E-08
 -1       840-3.83587E+03 3.64051E+05 5.94656E+04-1.60749E+04-6.26096E-09 9.60404E-09
 -1       856-5.21844E+04 8.01670E+03-2.11257E+04-3.96635E+02 3.21506E-09 2.86491E-09
 -1       857-6.08876E+04-9.41943E+03-1.45428E+04 5.62740E+03 1.42109E-10-3.09285E-08
 -1       858-5.56311E+04 1.12427E+03-5.48161E+03-4.20724E+02 3.26469E-09-1.74668E-09
 -1       859-5.69321E+04-1.32273E+03-3.30790E+03 5.66323E+03-1.09810E-09 8.35939E-09
 -1       860-5.61460E+04 1.57456E+02-1.38633E+03-4.32192E+02 2.12651E-09 7.81893E-09
 -1       861-5.63398E+04-1.88042E+02-7.62634E+02 5.67885E+03 3.24314E-09 1.49619E-08
 -1       862-5.62266E+04 2.13359E+01-3.16983E+02-4.36320E+02-6.76277E-10 7.08209E-09
 -1       863-5.62411E+04-2.19088E+01-1.15391E+02 5.68125E+03-2.65717E-09-1.69784E-09
 -1       864-5.62453E+04-4.89700E+00 4.73266E+01-4.34588E+02-2.40325E-09-1.60534E-08
 -1       865-5.61853E+04 5.95627E+01 2.55374E+02 5.67135E+03 1.82098E-10-1.11781E-08
 -1       866-5.62801E+04-6.01513E+01 5.14567E+02-4.26431E+02 5.73891E-10 5.42286E-11
 -1       867-5.59433E+04 4.96690E+02 1.26650E+03 5.64921E+03 5.62608E-10 1.43318E-08
 -1       868-5.64823E+04-4.34127E+02 2.10453E+03-4.12444E+02-9.54799E-10-5.93730E-09
 -1       869-5.44005E+04 3.61304E+03 5.60363E+03 5.61279E+03 3.48496E-09-2.23563E-08
 -1       870-5.78152E+04-3.09186E+03 8.13214E+03-3.89900E+02-3.81738E-09-5.99039E-09
 -1       871-5.51014E+03-2.13038E+04-1.94658E+04 1.30255E+05-5.07680E-09-1.10640E-08
 -1       872-1.97807E+03-2.58305E+04-8.15072E+03 1.68896E+05-1.24546E-08-1.18812E-08
 -1       873 4.05925E+02-2.36408E+04 5.89338E+02 1.29969E+05-6.64568E-09 1.92881E-09
 -1       874 3.30365E+03-2.12333E+04 9.76760E+03 1.68925E+05-1.33323E-08 1.30203E-08
 -1       875 6.83944E+03-2.59678E+04 2.20348E+04 1.30207E+05-5.08408E-09-7.21957E-09
 -1       876 2.93398E+05 4.94462E+04 1.50808E+04 1.17737E+05 2.85263E-09 1.33841E-08
 -1       877 2.94395E+05 5.26222E+04 8.05372E+03 1.22063E+05 1.12773E-08-3.80169E-10
 -1       878 2.94809E+05 4.77756E+04 3.37411E+03 1.18972E+05-2.43699E-09 1.56529E-08
 -1       879 2.92345E+05 5.05763E+04 1.68119E+03 1.22165E+05 2.63049E-09-1.72154E-08
 -1       880 2.94910E+05 4.77584E+04 7.83080E+02 1.19023E+05 5.13182E-09-2.20181E-08
 -1       881 2.92209E+05 5.04888E+04 4.18200E+02 1.22142E+05-2.14823E-09 4.93154E-09
 -1       882 2.94919E+05 4.77716E+04 2.67577E+02 1.19025E+05 2.74417E-09-4.27718E-10
 -1       883 2.92200E+05 5.04843E+04 2.87719E+02 1.22134E+05 3.12457E-09-7.78036E-09
 -1       884 2.94912E+05 4.77688E+04 4.57749E+02 1.19025E+05-4.00723E-09-3.71205E-09
 -1       885 2.92236E+05 5.04906E+04 9.20363E+02 1.22145E+05-8.19566E-09-1.15137E-08
 -1       886 2.94876E+05 4.77420E+04 1.85497E+03 1.19021E+05-3.91268E-09-2.46075E-08
 -1       887 2.92562E+05 5.07044E+04 4.05193E+03 1.22192E+05 9.45627E-09 3.12832E-09
 -1       888 2.94620E+05 4.77871E+04 8.16475E+03 1.18892E+05 2.86082E-09 1.10922E-08
 -1       889 2.97423E+05 5.57593E+04 1.95041E+04 1.22043E+05-4.87289E-09 6.92944E-09
 -1       890 2.91288E+05 5.17458E+04 3.65307E+04 1.15784E+05-3.19960E-09-7.47605E-09
 -1       891-8.89279E+01-1.62568E+05-1.99398E+03 2.71159E+04 1.14323E-09 2.31080E-09
 -1       892-1.74665E+02-1.63095E+05-2.14153E+03 4.11776E+04 5.74664E-09 1.12807E-08
 -1       893 4.39792E+01-1.62632E+05-3.03212E+03 2.71233E+04-1.86219E-09-1.29417E-08
 -1       894-1.50767E+03-1.64240E+05-6.27532E+03 4.10252E+04 1.20690E-09-2.91402E-09
 -1       895-1.19740E+03-1.61325E+05-1.10508E+04 2.72701E+04 3.74598E-10-2.95768E-09
 -1       956-3.76734E+05-5.44283E+03-1.34357E+04 3.08150E+04 6.26551E-09-6.68115E-09
 -1       957-3.79370E+05-1.92015E+03-6.89632E+03 3.70312E+04-2.80852E-09-3.31611E-08
 -1       958-3.77941E+05-2.40717E+02-3.10770E+03 3.06476E+04-6.33918E-10-1.78043E-08
 -1       959-3.78137E+05-1.36233E+02-1.58684E+03 3.72264E+04 6.07270E-09 2.51066E-09
 -1       960-3.78059E+05-4.48797E+01-7.73819E+02 3.06303E+04 8.94852E-09-4.69936E-09
 -1       961-3.78057E+05-6.33159E+01-4.10272E+02 3.72468E+04 1.23530E-08-3.16329E-08
 -1       962-3.78087E+05-4.61199E+01-2.34892E+02 3.06274E+04-1.58389E-09-3.40606E-10
 -1       963-3.78057E+05-5.91411E+01-1.88566E+02 3.72505E+04 2.97973E-10 1.54903E-08
 -1       964-3.78092E+05-4.27754E+01-2.29317E+02 3.06267E+04-1.41395E-09 1.56767E-08
 -1       965-3.78070E+05-5.61854E+01-3.96628E+02 3.72498E+04-1.49586E-08 5.73800E-09
 -1       966-3.78076E+05-3.49404E+01-7.45256E+02 3.06282E+04-1.59480E-09-3.71779E-09
 -1       967-3.78159E+05-1.19641E+02-1.52850E+03 3.72354E+04 1.54819E-09 8.95398E-09
 -1       968-3.77972E+05-2.17195E+02-2.99226E+03 3.06408E+04 3.50155E-11-4.02520E-09
 -1       969-3.79358E+05-1.83238E+03-6.64275E+03 3.70872E+04-2.70802E-09-2.35332E-09
 -1       970-3.76817E+05-5.22407E+03-1.29405E+04 3.07678E+04-2.27374E-09 1.85692E-08
 -1       971-3.44954E+05-1.72562E+03-9.29935E+03 1.53632E+04 5.74801E-09-8.57022E-09
 -1       972-3.47193E+05-1.27049E+03-5.06433E+03 2.12467E+04 2.82080E-09 2.45391E-08
 -1       973-3.45990E+05-6.20744E+01-2.26836E+03 1.52422E+04 1.64528E-09-3.89127E-09
 -1       974-3.46125E+05-8.11551E+01-1.17584E+03 2.13837E+04 6.11180E-10-1.22259E-08
 -1       975-3.46072E+05-1.72596E+01-5.88225E+02 1.52299E+04-1.90585E-09-7.25822E-09
 -1       976-3.46064E+05-3.13765E+01-3.40204E+02 2.13994E+04 4.93969E-09 1.24776E-08
 -1       977-3.46089E+05-1.65209E+01-2.48418E+02 1.52265E+04-6.63476E-10 8.44091E-09
 -1       978-3.46069E+05-2.51637E+01-2.92752E+02 2.14043E+04-9.64599E-09 3.93732E-09
 -1       979-3.46088E+05-8.05587E+00-4.72122E+02 1.52251E+04-5.47539E-09-3.40867E-09
 -1       980-3.46104E+05-2.21071E+01-9.12712E+02 2.14052E+04-1.13015E-08-1.80898E-09
 -1       981-3.46059E+05 1.47584E+01-1.76829E+03 1.52256E+04-3.18175E-09 1.20214E-08
 -1       982-3.46347E+05-1.52762E+02-3.65534E+03 2.13986E+04-1.69825E-09-6.32009E-09
 -1       983-3.45836E+05-9.84661E+01-7.10252E+03 1.52316E+04-5.45106E-09-1.66631E-08
 -1       984-3.49763E+05-3.86219E+03-1.59059E+04 2.13131E+04-4.52565E-09 1.60799E-09
 -1       985-3.42621E+05-5.29564E+03-2.92081E+04 1.53029E+04-8.63793E-09-1.86446E-09
 -3
    1PSTEP                        23          12           1          
  100CL  112 6.62659E-01         409                     0   12           1
 -4  DISP        4    1
 -5  D1          1    2    1    0
 -5  D2          1    2    2    0
 -5  D3          1    2    3    0
 -5  ALL         1    2    0    0    1ALL
 -1         1 2.73121E-03 0.00000E+00 0.00000E+00
 -1         2 1.30391E-03 9.62186E-27-5.29396E-23
 -1         3 3.42652E-04-5.17973E-28 0.00000E+00
 -1         5 1.76984E-04-3.37784E-27 2.48154E-24
 -1         8 2.72069E-03-3.97038E-07 0.00000E+00
 -1         9 2.71375E-03-2.08685E-04 0.00000E+00
 -1        10 3.10710E-04-3.38311E-06 0.00000E+00
 -1        12 1.78873E-04 8.16817E-07 0.00000E+00
 -1        15 2.70874E-03-4.19492E-07 0.00000E+00
 -1        16 2.78703E-03-2.10608E-04 0.00000E+00
 -1        17 2.11458E-04-7.71977E-06 0.00000E+00
 -1        18 1.82869E-04 3.44866E-05 0.00000E+00
 -1        19 1.84460E-04 1.61917E-06 0.00000E+00
 -1        20 1.84600E-04-9.95174E-06 0.00000E+00
 -1        21 1.83707E-04-2.55546E-05-3.30872E-24
 -1        24 3.05846E-05-1.19375E-05 0.00000E+00
 -1        25 1.93676E-04 3.47121E-05 0.00000E+00
 -1        26 1.94356E-04 2.23892E-06 0.00000E+00
 -1        27 1.92157E-04-1.35082E-05 0.00000E+00
 -1        28 1.91841E-04-2.61765E-05 0.00000E+00
 -1        32 0.00000E+00 0.00000E+00 0.00000E+00
 -1        33 2.03248E-04 2.99228E-06 0.00000E+00
 -1        34 2.01131E-04-1.35644E-05 0.00000E+00
 -1        35 1.99199E-04-2.65188E-05 0.00000E+00
 -1        51 2.73050E-03-8.38128E-08 1.65436E-24
 -1        52 2.72920E-03-1.49100E-07 0.00000E+00
 -1        53 2.72745E-03-2.10855E-07 0.00000E+00
 -1        54 2.72536E-03-2.71311E-07-8.27181E-25
 -1        55 2.72306E-03-3.32234E-07-2.48154E-24
 -1        56 2.72276E-03 1.03232E-05-5.29396E-23
 -1        57 2.70551E-03 4.22376E-05-5.29396E-23
 -1        58 2.68205E-03 8.90185E-05-1.05879E-22
 -1        59 2.65564E-03 1.42542E-04 5.29396E-23
 -1        60 2.63033E-03 1.93526E-04 0.00000E+00
 -1        61 2.60997E-03 2.32894E-04-5.29396E-23
 -1        62 2.59722E-03 2.53639E-04 0.00000E+00
 -1        63 2.59373E-03 2.50406E-04 0.00000E+00
 -1        64 2.59920E-03 2.22257E-04-1.05879E-22
 -1        65 2.61251E-03 1.70630E-04 5.29396E-23
 -1        66 2.63134E-03 1.01461E-04-1.05879E-22
 -1        67 2.65312E-03 2.24323E-05 5.29396E-23
 -1        68 2.67496E-03-5.68380E-05 0.00000E+00
 -1        69 2.69403E-03-1.26701E-04 5.29396E-23
 -1        70 2.70770E-03-1.79355E-04 5.29396E-23
 -1        86 1.39260E-03-6.52924E-06-5.29396E-23
 -1        87 1.64874E-03-4.13285E-05 0.00000E+00
 -1        88 1.99320E-03-1.01271E-04-5.29396E-23
 -1        89 2.34255E-03-1.62960E-04 0.00000E+00
 -1        90 2.61048E-03-2.00729E-04 0.00000E+00
 -1       121 3.41756E-04-5.46129E-07 0.00000E+00
 -1       122 3.39068E-04-1.09534E-06 6.61744E-24
 -1       123 3.34600E-04-1.65068E-06 0.00000E+00
 -1       124 3.28369E-04-2.21518E-06 0.00000E+00
 -1       125 3.20395E-04-2.79149E-06 1.32349E-23
 -1       191 1.77036E-04 1.36214E-07-2.48154E-24
 -1       192 1.77194E-04 2.72415E-07-8.27181E-25
 -1       193 1.77457E-04 4.08593E-07-1.65436E-24
 -1       194 1.77825E-04 5.44734E-07 3.87741E-25
 -1       195 1.78297E-04 6.80820E-07 2.48154E-24
 -1       251 2.72039E-03 1.58672E-06 0.00000E+00
 -1       252 2.72008E-03 3.45437E-06 0.00000E+00
 -1       253 2.71978E-03 4.15203E-06 0.00000E+00
 -1       254 2.71947E-03 2.64041E-06 0.00000E+00
 -1       255 2.71916E-03-1.78478E-06 0.00000E+00
 -1       256 2.71882E-03-9.79139E-06-3.30872E-24
 -1       257 2.71845E-03-2.15045E-05 0.00000E+00
 -1       258 2.71803E-03-3.70029E-05 0.00000E+00
 -1       259 2.71755E-03-5.57922E-05 0.00000E+00
 -1       260 2.71702E-03-7.73364E-05 0.00000E+00
 -1       261 2.71646E-03-1.00682E-04 0.00000E+00
 -1       262 2.71587E-03-1.24854E-04 0.00000E+00
 -1       263 2.71529E-03-1.48752E-04 0.00000E+00
 -1       264 2.71473E-03-1.71277E-04 6.61744E-24
 -1       265 2.71423E-03-1.91541E-04-1.32349E-23
 -1       266 2.71870E-03-4.06285E-07 0.00000E+00
 -1       267 2.71671E-03-4.09356E-07 0.00000E+00
 -1       268 2.71471E-03-4.12819E-07 0.00000E+00
 -1       269 2.71272E-03-4.15123E-07-2.06795E-25
 -1       270 2.71073E-03-4.17399E-07 0.00000E+00
 -1       271 2.71993E-03-9.16573E-08 1.32349E-23
 -1       272 2.72020E-03-2.61470E-06 6.61744E-24
 -1       273 2.72146E-03-7.79338E-06 0.00000E+00
 -1       274 2.72363E-03-1.54414E-05 0.00000E+00
 -1       275 2.72662E-03-2.53507E-05 0.00000E+00
 -1       276 2.73036E-03-3.72975E-05 0.00000E+00
 -1       277 2.73474E-03-5.10410E-05-1.32349E-23
 -1       278 2.73967E-03-6.63268E-05 0.00000E+00
 -1       279 2.74507E-03-8.28884E-05 1.32349E-23
 -1       280 2.75082E-03-1.00449E-04-6.61744E-24
 -1       281 2.75682E-03-1.18725E-04-1.32349E-23
 -1       282 2.76298E-03-1.37426E-04-6.61744E-24
 -1       283 2.76918E-03-1.56259E-04-1.32349E-23
 -1       284 2.77533E-03-1.74928E-04 6.61744E-24
 -1       285 2.78131E-03-1.93142E-04 1.32349E-23
 -1       301 2.72706E-03-2.09042E-04-1.32349E-23
 -1       302 2.73867E-03-2.09350E-04 0.00000E+00
 -1       303 2.74953E-03-2.09647E-04 0.00000E+00
 -1       304 2.76057E-03-2.09945E-04 6.61744E-24
 -1       305 2.77276E-03-2.10257E-04 0.00000E+00
 -1       306 2.75199E-03-3.64831E-04 0.00000E+00
 -1       307 2.81585E-03-7.80298E-04-5.29396E-23
 -1       308 2.86242E-03-1.38629E-03 1.05879E-22
 -1       309 2.88641E-03-2.08640E-03 0.00000E+00
 -1       310 2.91813E-03-2.75477E-03 1.05879E-22
 -1       311 2.97790E-03-3.26834E-03 0.00000E+00
 -1       312 3.03535E-03-3.54677E-03 2.11758E-22
 -1       313 3.02918E-03-3.55287E-03 5.29396E-23
 -1       314 2.88549E-03-3.29927E-03 0.00000E+00
 -1       315 2.56380E-03-2.85096E-03-5.29396E-23
 -1       316 2.08315E-03-2.28466E-03 0.00000E+00
 -1       317 1.51009E-03-1.66951E-03 0.00000E+00
 -1       318 9.59286E-04-1.06582E-03 0.00000E+00
 -1       319 5.38797E-04-5.38454E-04 5.29396E-23
 -1       320 2.92216E-04-1.61613E-04 0.00000E+00
 -1       336 2.99126E-04-4.03733E-06 1.32349E-23
 -1       337 2.85466E-04-4.71723E-06 6.61744E-24
 -1       338 2.69792E-04-5.42504E-06-1.32349E-23
 -1       339 2.52177E-04-6.16161E-06 0.00000E+00
 -1       340 2.32702E-04-6.93140E-06 0.00000E+00
 -1       406 1.79551E-04 9.51464E-07 2.48154E-24
 -1       407 1.80329E-04 1.08597E-06 1.20361E-24
 -1       408 1.81209E-04 1.22030E-06-2.48154E-24
 -1       409 1.82191E-04 1.35429E-06-8.27181E-25
 -1       410 1.83275E-04 1.48766E-06 4.13590E-25
 -1       521 2.82585E-03-3.76083E-04 0.00000E+00
 -1       522 2.88787E-03-8.12271E-04 0.00000E+00
 -1       523 2.92779E-03-1.44688E-03 0.00000E+00
 -1       524 2.94225E-03-2.17660E-03 5.29396E-23
 -1       525 2.96582E-03-2.87253E-03 1.05879E-22
 -1       526 3.02199E-03-3.40883E-03 5.29396E-23
 -1       527 3.07905E-03-3.69810E-03 2.11758E-22
 -1       528 3.07048E-03-3.70223E-03 0.00000E+00
 -1       529 2.91425E-03-3.43394E-03-2.11758E-22
 -1       530 2.56758E-03-2.96642E-03 5.29396E-23
 -1       531 2.05037E-03-2.38033E-03-1.05879E-22
 -1       532 1.43585E-03-1.74742E-03 0.00000E+00
 -1       533 8.44371E-04-1.12528E-03 1.05879E-22
 -1       534 3.89429E-04-5.76411E-04-5.29396E-23
 -1       535 1.21024E-04-1.79504E-04 0.00000E+00
 -1       536 2.10703E-04 2.72149E-05 0.00000E+00
 -1       537 2.08783E-04 8.76824E-05 1.65436E-24
 -1       538 2.05816E-04 1.64411E-04 3.30872E-24
 -1       539 2.02316E-04 2.48046E-04-1.65436E-24
 -1       540 1.99167E-04 3.27078E-04-3.30872E-24
 -1       541 1.97120E-04 3.90018E-04 0.00000E+00
 -1       542 1.96175E-04 4.30109E-04-3.30872E-24
 -1       543 1.95950E-04 4.40743E-04 0.00000E+00
 -1       544 1.95627E-04 4.22693E-04 0.00000E+00
 -1       545 1.94454E-04 3.76953E-04 0.00000E+00
 -1       546 1.92267E-04 3.11654E-04 0.00000E+00
 -1       547 1.89306E-04 2.35048E-04 1.65436E-24
 -1       548 1.86372E-04 1.58816E-04-3.30872E-24
 -1       549 1.84255E-04 9.46426E-05-1.65436E-24
 -1       550 1.83155E-04 5.05631E-05 0.00000E+00
 -1       551 1.86256E-04-8.28790E-06 0.00000E+00
 -1       552 1.57809E-04-8.93648E-06 0.00000E+00
 -1       553 1.27061E-04-9.64731E-06-1.32349E-23
 -1       554 9.49685E-05-1.03993E-05 3.30872E-24
 -1       555 6.24917E-05-1.11651E-05-1.32349E-23
 -1       556 2.03809E-04 1.18386E-05 0.00000E+00
 -1       557 1.97628E-04 2.77017E-05-2.64698E-23
 -1       558 1.92783E-04 4.01572E-05 5.29396E-23
 -1       559 1.89139E-04 4.95156E-05 0.00000E+00
 -1       560 1.86567E-04 5.60876E-05 0.00000E+00
 -1       561 1.84939E-04 6.01865E-05 0.00000E+00
 -1       562 1.84130E-04 6.21268E-05 0.00000E+00
 -1       563 1.84015E-04 6.22240E-05-1.32349E-23
 -1       564 1.84473E-04 6.07944E-05 0.00000E+00
 -1       565 1.85383E-04 5.81552E-05 0.00000E+00
 -1       566 1.86625E-04 5.46237E-05 0.00000E+00
 -1       567 1.88081E-04 5.05181E-05 0.00000E+00
 -1       568 1.89631E-04 4.61564E-05 1.65436E-24
 -1       569 1.91159E-04 4.18568E-05 8.27181E-25
 -1       570 1.92546E-04 3.79375E-05 0.00000E+00
 -1       571 1.82965E-04 3.23546E-05-3.30872E-24
 -1       572 1.83064E-04 3.01570E-05 8.27181E-25
 -1       573 1.83163E-04 2.79094E-05-3.30872E-24
 -1       574 1.83262E-04 2.56282E-05 0.00000E+00
 -1       575 1.83361E-04 2.33297E-05-3.30872E-24
 -1       576 1.83461E-04 2.10304E-05 1.65436E-24
 -1       577 1.83560E-04 1.87468E-05 0.00000E+00
 -1       578 1.83660E-04 1.64954E-05 0.00000E+00
 -1       579 1.83759E-04 1.42927E-05 0.00000E+00
 -1       580 1.83859E-04 1.21552E-05 0.00000E+00
 -1       581 1.83959E-04 1.00995E-05 0.00000E+00
 -1       582 1.84059E-04 8.14192E-06 0.00000E+00
 -1       583 1.84159E-04 6.29900E-06 6.61744E-24
 -1       584 1.84260E-04 4.58704E-06 3.30872E-24
 -1       585 1.84360E-04 3.02217E-06 6.61744E-24
 -1       586 1.84629E-04 3.45263E-05 0.00000E+00
 -1       587 1.86348E-04 3.45654E-05 4.13590E-25
 -1       588 1.88069E-04 3.46042E-05 0.00000E+00
 -1       589 1.89835E-04 3.46423E-05 0.00000E+00
 -1       590 1.91690E-04 3.46792E-05 0.00000E+00
 -1       591 1.83600E-04 3.24482E-05 2.06795E-25
 -1       592 1.84334E-04 3.03898E-05 0.00000E+00
 -1       593 1.85073E-04 2.83175E-05-8.27181E-25
 -1       594 1.85815E-04 2.62357E-05 4.13590E-25
 -1       595 1.86558E-04 2.41494E-05 0.00000E+00
 -1       596 1.87302E-04 2.20631E-05 4.13590E-25
 -1       597 1.88043E-04 1.99816E-05 8.27181E-25
 -1       598 1.88781E-04 1.79096E-05 0.00000E+00
 -1       599 1.89514E-04 1.58518E-05 0.00000E+00
 -1       600 1.90240E-04 1.38128E-05 0.00000E+00
 -1       601 1.90957E-04 1.17974E-05-8.27181E-25
 -1       602 1.91664E-04 9.81020E-06 2.06795E-25
 -1       603 1.92358E-04 7.85591E-06-4.13590E-25
 -1       604 1.93039E-04 5.93932E-06 2.06795E-25
 -1       605 1.93704E-04 4.06504E-06-4.13590E-25
 -1       606 1.84474E-04 4.49291E-07 0.00000E+00
 -1       607 1.84483E-04-6.34747E-07 0.00000E+00
 -1       608 1.84492E-04-1.63798E-06 0.00000E+00
 -1       609 1.84501E-04-2.56609E-06 1.65436E-24
 -1       610 1.84509E-04-3.42482E-06 0.00000E+00
 -1       611 1.84517E-04-4.21996E-06 0.00000E+00
 -1       612 1.84526E-04-4.95730E-06 0.00000E+00
 -1       613 1.84534E-04-5.64267E-06 0.00000E+00
 -1       614 1.84542E-04-6.28187E-06 0.00000E+00
 -1       615 1.84551E-04-6.88072E-06 0.00000E+00
 -1       616 1.84559E-04-7.44502E-06 0.00000E+00
 -1       617 1.84567E-04-7.98059E-06 0.00000E+00
 -1       618 1.84576E-04-8.49323E-06 0.00000E+00
 -1       619 1.84584E-04-8.98877E-06-2.06795E-25
 -1       620 1.84592E-04-9.47300E-06 0.00000E+00
 -1       621 1.85824E-04 1.72303E-06-1.65436E-24
 -1       622 1.87347E-04 1.82714E-06-8.27181E-25
 -1       623 1.88995E-04 1.93103E-06 1.65436E-24
 -1       624 1.90735E-04 2.03459E-06 8.27181E-25
 -1       625 1.92533E-04 2.13786E-06 0.00000E+00
 -1       626 1.85011E-04 4.85375E-07 0.00000E+00
 -1       627 1.85539E-04-5.85355E-07 0.00000E+00
 -1       628 1.86047E-04-1.60087E-06-6.61744E-24
 -1       629 1.86537E-04-2.56933E-06 0.00000E+00
 -1       630 1.87012E-04-3.49894E-06 3.30872E-24
 -1       631 1.87476E-04-4.39790E-06 0.00000E+00
 -1       632 1.87932E-04-5.27441E-06 3.30872E-24
 -1       633 1.88382E-04-6.13670E-06 0.00000E+00
 -1       634 1.88830E-04-6.99296E-06-3.30872E-24
 -1       635 1.89279E-04-7.85141E-06 1.65436E-24
 -1       636 1.89732E-04-8.72026E-06 0.00000E+00
 -1       637 1.90192E-04-9.60772E-06 0.00000E+00
 -1       638 1.90662E-04-1.05220E-05 1.65436E-24
 -1       639 1.91144E-04-1.14713E-05 8.27181E-25
 -1       640 1.91642E-04-1.24640E-05 1.65436E-24
 -1       656 1.85311E-04-1.05298E-05-6.61744E-24
 -1       657 1.86442E-04-1.11313E-05 0.00000E+00
 -1       658 1.87854E-04-1.17315E-05-1.32349E-23
 -1       659 1.89399E-04-1.23313E-05 6.61744E-24
 -1       660 1.90895E-04-1.29329E-05 0.00000E+00
 -1       661 1.84866E-04-1.04755E-05 0.00000E+00
 -1       662 1.85170E-04-1.10911E-05-8.27181E-25
 -1       663 1.85506E-04-1.17933E-05 0.00000E+00
 -1       664 1.85873E-04-1.25755E-05 0.00000E+00
 -1       665 1.86267E-04-1.34320E-05-1.65436E-24
 -1       666 1.86687E-04-1.43569E-05-8.27181E-25
 -1       667 1.87131E-04-1.53444E-05 0.00000E+00
 -1       668 1.87596E-04-1.63890E-05 8.27181E-25
 -1       669 1.88080E-04-1.74854E-05 0.00000E+00
 -1       670 1.88582E-04-1.86281E-05 0.00000E+00
 -1       671 1.89099E-04-1.98121E-05-1.65436E-24
 -1       672 1.89629E-04-2.10321E-05 0.00000E+00
 -1       673 1.90171E-04-2.22833E-05-1.65436E-24
 -1       674 1.90722E-04-2.35609E-05-4.13590E-25
 -1       675 1.91281E-04-2.48596E-05 0.00000E+00
 -1       676 1.85068E-04-2.56589E-05 3.30872E-24
 -1       677 1.86427E-04-2.57631E-05-1.65436E-24
 -1       678 1.87785E-04-2.58672E-05 0.00000E+00
 -1       679 1.89140E-04-2.59711E-05 0.00000E+00
 -1       680 1.90493E-04-2.60749E-05 1.65436E-24
 -1       771 1.86286E-05 1.48020E-05-5.29396E-23
 -1       772 8.57056E-06 3.67627E-05 0.00000E+00
 -1       773 3.19593E-07 5.41749E-05 0.00000E+00
 -1       774-6.24870E-06 6.72968E-05 0.00000E+00
 -1       775-1.12560E-05 7.63968E-05 0.00000E+00
 -1       776-1.48291E-05 8.17603E-05 2.64698E-23
 -1       777-1.70943E-05 8.36827E-05-5.29396E-23
 -1       778-1.81806E-05 8.24732E-05 0.00000E+00
 -1       779-1.82164E-05 7.84495E-05 5.29396E-23
 -1       780-1.73320E-05 7.19410E-05 0.00000E+00
 -1       781-1.56571E-05 6.32834E-05 0.00000E+00
 -1       782-1.33224E-05 5.28218E-05-2.64698E-23
 -1       783-1.04583E-05 4.09055E-05-5.29396E-23
 -1       784-7.19596E-06 2.78902E-05 2.64698E-23
 -1       785-3.66582E-06 1.41347E-05 0.00000E+00
 -1       786 1.93714E-04 3.24552E-05-1.29247E-26
 -1       787 1.93756E-04 3.02482E-05 4.13590E-25
 -1       788 1.93797E-04 2.80830E-05 8.27181E-25
 -1       789 1.93840E-04 2.59512E-05 0.00000E+00
 -1       790 1.93882E-04 2.38483E-05 0.00000E+00
 -1       791 1.93925E-04 2.17694E-05 8.27181E-25
 -1       792 1.93968E-04 1.97124E-05 1.65436E-24
 -1       793 1.94011E-04 1.76750E-05-8.27181E-25
 -1       794 1.94054E-04 1.56571E-05 0.00000E+00
 -1       795 1.94097E-04 1.36586E-05 0.00000E+00
 -1       796 1.94140E-04 1.16813E-05 0.00000E+00
 -1       797 1.94183E-04 9.72696E-06-8.27181E-25
 -1       798 1.94226E-04 7.79998E-06 0.00000E+00
 -1       799 1.94269E-04 5.90462E-06-8.27181E-25
 -1       800 1.94312E-04 4.04839E-06-1.65436E-24
 -1       801 1.47832E-04 3.12073E-05 0.00000E+00
 -1       802 9.22745E-06 1.94694E-05 0.00000E+00
 -1       803-1.09133E-04 9.83780E-06 5.29396E-23
 -1       804-9.66782E-05 6.84861E-06 2.64698E-23
 -1       805-3.19320E-05 2.68919E-06-5.29396E-23
 -1       806 1.94407E-04 3.23864E-05 0.00000E+00
 -1       807 1.95124E-04 3.00869E-05-1.65436E-24
 -1       808 1.95829E-04 2.78187E-05 0.00000E+00
 -1       809 1.96520E-04 2.55860E-05 1.65436E-24
 -1       810 1.97196E-04 2.33927E-05 0.00000E+00
 -1       811 1.97856E-04 2.12428E-05 0.00000E+00
 -1       812 1.98498E-04 1.91402E-05 0.00000E+00
 -1       813 1.99121E-04 1.70890E-05 1.65436E-24
 -1       814 1.99724E-04 1.50929E-05 0.00000E+00
 -1       815 2.00305E-04 1.31559E-05 1.65436E-24
 -1       816 2.00862E-04 1.12818E-05 0.00000E+00
 -1       817 2.01394E-04 9.47469E-06-8.27181E-25
 -1       818 2.01900E-04 7.73830E-06-1.65436E-24
 -1       819 2.02378E-04 6.07656E-06 8.27181E-25
 -1       820 2.02827E-04 4.49329E-06 3.30872E-24
 -1       821 1.94227E-04-1.23115E-07 1.65436E-24
 -1       822 1.94087E-04-3.63163E-06 1.65436E-24
 -1       823 1.93945E-04-7.86087E-06 3.30872E-24
 -1       824 1.93800E-04-1.23806E-05 1.65436E-24
 -1       825 1.93656E-04-1.66820E-05-3.30872E-24
 -1       826 1.93514E-04-2.02577E-05 0.00000E+00
 -1       827 1.93375E-04-2.27978E-05 0.00000E+00
 -1       828 1.93239E-04-2.39987E-05 1.65436E-24
 -1       829 1.93103E-04-2.39213E-05 0.00000E+00
 -1       830 1.92967E-04-2.26343E-05-1.65436E-24
 -1       831 1.92829E-04-2.05355E-05 0.00000E+00
 -1       832 1.92691E-04-1.80278E-05-1.65436E-24
 -1       833 1.92553E-04-1.56255E-05-3.30872E-24
 -1       834 1.92418E-04-1.38420E-05 0.00000E+00
 -1       835 1.92284E-04-1.30230E-05 0.00000E+00
 -1       836 1.96051E-04 2.36385E-06 3.30872E-24
 -1       837 1.97618E-04 2.49192E-06 0.00000E+00
 -1       838 1.99089E-04 2.61993E-06 0.00000E+00
 -1       839 2.00497E-04 2.74724E-06 8.27181E-25
 -1       840 2.01873E-04 2.87440E-06-8.27181E-25
 -1       856 1.92141E-04-1.45749E-05 0.00000E+00
 -1       857 1.92122E-04-1.55058E-05 0.00000E+00
 -1       858 1.92102E-04-1.63222E-05 0.00000E+00
 -1       859 1.92083E-04-1.70452E-05 0.00000E+00
 -1       860 1.92063E-04-1.76959E-05 0.00000E+00
 -1       861 1.92043E-04-1.82956E-05-2.06795E-25
 -1       862 1.92023E-04-1.88658E-05 0.00000E+00
 -1       863 1.92004E-04-1.94275E-05-4.13590E-25
 -1       864 1.91984E-04-2.00023E-05 0.00000E+00
 -1       865 1.91964E-04-2.06115E-05 0.00000E+00
 -1       866 1.91944E-04-2.12763E-05 0.00000E+00
 -1       867 1.91924E-04-2.20179E-05-4.13590E-25
 -1       868 1.91904E-04-2.28577E-05 0.00000E+00
 -1       869 1.91883E-04-2.38167E-05 4.13590E-25
 -1       870 1.91863E-04-2.49160E-05 0.00000E+00
 -1       871 1.93511E-04-1.35131E-05 0.00000E+00
 -1       872 1.95013E-04-1.35215E-05 0.00000E+00
 -1       873 1.96594E-04-1.35305E-05 0.00000E+00
 -1       874 1.98186E-04-1.35403E-05 1.80946E-25
 -1       875 1.99721E-04-1.35506E-05-2.06795E-25
 -1       876 1.92684E-04-1.45603E-05 3.30872E-24
 -1       877 1.93189E-04-1.55456E-05 0.00000E+00
 -1       878 1.93672E-04-1.64721E-05 0.00000E+00
 -1       879 1.94136E-04-1.73472E-05 0.00000E+00
 -1       880 1.94584E-04-1.81783E-05 3.30872E-24
 -1       881 1.95018E-04-1.89727E-05 1.65436E-24
 -1       882 1.95442E-04-1.97378E-05-3.30872E-24
 -1       883 1.95857E-04-2.04810E-05 0.00000E+00
 -1       884 1.96266E-04-2.12095E-05 0.00000E+00
 -1       885 1.96673E-04-2.19307E-05 0.00000E+00
 -1       886 1.97080E-04-2.26520E-05-3.30872E-24
 -1       887 1.97489E-04-2.33806E-05 0.00000E+00
 -1       888 1.97904E-04-2.41240E-05 3.30872E-24
 -1       889 1.98326E-04-2.48897E-05-1.65436E-24
 -1       890 1.98759E-04-2.56848E-05-1.65436E-24
 -1       891 1.93210E-04-2.62340E-05 1.65436E-24
 -1       892 1.94555E-04-2.62917E-05-8.27181E-25
 -1       893 1.95851E-04-2.63492E-05-8.27181E-25
 -1       894 1.97074E-04-2.64065E-05-8.27181E-25
 -1       895 1.98199E-04-2.64636E-05-4.13590E-25
 -1       956 2.03118E-04 1.66581E-06 1.65436E-24
 -1       957 2.02985E-04 4.30834E-07 1.65436E-24
 -1       958 2.02853E-04-7.23380E-07 0.00000E+00
 -1       959 2.02720E-04-1.80816E-06-1.65436E-24
 -1       960 2.02587E-04-2.83489E-06 0.00000E+00
 -1       961 2.02454E-04-3.81497E-06 0.00000E+00
 -1       962 2.02322E-04-4.75982E-06 0.00000E+00
 -1       963 2.02189E-04-5.68089E-06-1.65436E-24
 -1       964 2.02056E-04-6.58961E-06 0.00000E+00
 -1       965 2.01924E-04-7.49741E-06 0.00000E+00
 -1       966 2.01791E-04-8.41573E-06 3.30872E-24
 -1       967 2.01658E-04-9.35602E-06 0.00000E+00
 -1       968 2.01526E-04-1.03297E-05 0.00000E+00
 -1       969 2.01393E-04-1.13481E-05 0.00000E+00
 -1       970 2.01261E-04-1.24227E-05 0.00000E+00
 -1       971 2.01011E-04-1.47056E-05 0.00000E+00
 -1       972 2.00890E-04-1.57522E-05 0.00000E+00
 -1       973 2.00768E-04-1.67148E-05 0.00000E+00
 -1       974 2.00647E-04-1.76040E-05 0.00000E+00
 -1       975 2.00526E-04-1.84309E-05 0.00000E+00
 -1       976 2.00404E-04-1.92061E-05 1.65436E-24
 -1       977 2.00283E-04-1.99407E-05-3.30872E-24
 -1       978 2.00162E-04-2.06454E-05-1.65436E-24
 -1       979 2.00040E-04-2.13313E-05 3.30872E-24
 -1       980 1.99919E-04-2.20092E-05 1.65436E-24
 -1       981 1.99798E-04-2.26900E-05 0.00000E+00
 -1       982 1.99677E-04-2.33846E-05-1.65436E-24
 -1       983 1.99556E-04-2.41039E-05 0.00000E+00
 -1       984 1.99435E-04-2.48588E-05 1.65436E-24
 -1       985 1.99315E-04-2.56603E-05 0.00000E+00
 -3
    1PSTEP                        24          12           1          
  100CL  112 6.62659E-01         409                     0   12           1
 -4  STRESS      6    1
 -5  SXX         1    4    1    1
 -5  SYY         1    4    2    2
 -5  SZZ         1    4    3    3
 -5  SXY         1    4    1    2
 -5  SYZ         1    4    2    3
 -5  SZX         1    4    3    1
 -1         1-5.34835E+06-1.54307E+06-1.13039E+06-1.28837E+06-2.51748E-09 1.53988E-07
 -1         2 1.60612E+06 2.34542E+07 5.42296E+06 7.12888E+06 3.38187E-08-1.17201E-07
 -1         3-1.48680E+03-1.55060E+06 4.04268E+02-2.19995E+03-5.71085E-10 6.52217E-08
 -1         5-7.74921E+01 3.90070E+05 2.11632E+01 7.29313E+00-9.03313E-10 2.99460E-08
 -1         8-5.47860E+05-1.99329E+05-6.25867E+04-2.39334E+05 7.82165E-11 2.61098E-08
 -1         9 1.18671E+07 4.12413E+06 2.86289E+06-2.49636E+05 4.19095E-10-9.77889E-10
 -1        10-2.30108E+03-1.61584E+06-3.92741E+03-1.48875E+04-1.37788E-08-2.64688E-08
 -1        12-7.79514E+01 3.88116E+05 3.10923E+02-3.92827E+00 8.36735E-11 1.58271E-08
 -1        15 9.12129E+02 5.01261E+02 2.94843E+03 7.85894E-01 1.35714E-10 1.42162E-08
 -1        16 2.29355E+07-3.45386E+05 3.11806E+06-2.32686E+06 1.97712E-08 1.53668E-07
 -1        17 8.40420E+06 6.29329E+06 2.26938E+06 6.01820E+06 2.71015E-08 3.87779E-08
 -1        18 1.42534E+05 3.35554E+04 4.22926E+03-1.19483E+05 1.53170E-08 3.30147E-09
 -1        19 1.22337E+05 1.41589E+05-9.44664E+02 2.19542E+04 1.72386E-09 1.39284E-08
 -1        20-8.18649E+04-5.73339E+05-1.28650E+05 2.51188E+04-1.97194E-09-2.44897E-09
 -1        21-4.55484E+01-2.95876E+05-9.23585E+02 2.76058E+02 1.95358E-08-4.66728E-08
 -1        24 1.41169E+07 1.21448E+07 3.90536E+06 1.12434E+07-1.70015E-07-5.71211E-08
 -1        25 1.25551E+05 2.69448E+05 1.00535E+05-6.47267E+05-2.09993E-09 7.96281E-09
 -1        26-5.53670E+04 9.22357E+04-2.46189E+04 1.27969E+03-1.19326E-10 8.90545E-09
 -1        27-7.55680E+04-3.09766E+05-1.13247E+05 6.89292E+04 4.65404E-09-5.23384E-09
 -1        28 2.22293E+04-8.53049E+04 1.68893E+04 2.06100E+04-2.79184E-09 5.59558E-09
 -1        32-1.67998E+06-3.18214E+06-1.97908E+05 4.61398E+05-4.25789E-08-8.47672E-09
 -1        33-1.78366E+05 9.29489E+04 3.23694E+04-3.84770E+04-2.94021E-09 1.66686E-08
 -1        34-2.23474E+05-2.50144E+04 6.89210E+02 7.56084E+04-5.49530E-09 4.38907E-09
 -1        35-2.29193E+04-3.38306E+04-1.34773E+03 5.14727E+04-4.15727E-09 3.40515E-09
 -1        51 6.10577E+04-1.68873E+05 1.29015E+05-4.28481E+05-1.16415E-10 4.42378E-09
 -1        52 2.06140E+04-1.46259E+05 6.75892E+04-4.99754E+05 3.28328E-10-3.09348E-07
 -1        53 4.13060E+03-1.61591E+05 3.50203E+04-4.27019E+05 5.11136E-10 3.22325E-08
 -1        54 7.15385E+03-1.57369E+05 2.84220E+04-5.01178E+05 2.47383E-10-1.93824E-07
 -1        55 1.56136E+04-1.64227E+05 3.41556E+04-4.26940E+05 3.41970E-10 2.25118E-08
 -1        56-9.83758E+06-1.43128E+06-9.39458E+05-4.14152E+06-1.18744E-08 3.79223E-08
 -1        57-1.11983E+07-6.81541E+05-5.40277E+05-2.59592E+06 3.59723E-08-1.36482E-07
 -1        58-9.56919E+06-1.91978E+06-2.02701E+05-4.36431E+06 3.50046E-08-2.95193E-07
 -1        59-1.14687E+07-1.06602E+05-1.05165E+05-2.51681E+06-5.43000E-08-1.16790E-07
 -1        60-9.67358E+06-1.92233E+06-6.06657E+04-4.31410E+06-3.24362E-08 2.37866E-07
 -1        61-1.06827E+07-5.02299E+05 2.88126E+04-2.77440E+06-2.80961E-08-8.21710E-08
 -1        62-1.01789E+07-1.64349E+06-9.65880E+04-3.96479E+06-1.72586E-08 1.11293E-07
 -1        63-9.60524E+06-1.33259E+06 7.48465E+04-3.56778E+06 2.63026E-08 2.16083E-07
 -1        64-1.06058E+07-1.19593E+06-8.90643E+04-3.43026E+06 1.19035E-08-2.00427E-07
 -1        65-9.21326E+06-2.02359E+06 2.45143E+04-4.64095E+06 9.99717E-09-8.48136E-08
 -1        66-1.07361E+07-8.37707E+05-4.87846E+04-3.01716E+06 5.15865E-09 4.68008E-08
 -1        67-9.26910E+06-2.30376E+06-9.44180E+04-5.15666E+06 1.14596E-09 1.83834E-07
 -1        68-1.07162E+07-7.98146E+05-1.89387E+05-3.01618E+06-9.58789E-08-1.29352E-07
 -1        69-9.40696E+06-2.36172E+06-4.78193E+05-4.60969E+06-1.38389E-08-3.55678E-07
 -1        70-1.04423E+07-9.01833E+05-8.65842E+05-3.46468E+06 2.36469E-08 1.37952E-08
 -1        86-1.63920E+06-1.64023E+07-2.97045E+06-3.34299E+06-2.80834E-07-5.27070E-08
 -1        87 2.59769E+06 6.84198E+06 2.46979E+06 6.09089E+06-4.68244E-07-2.53574E-07
 -1        88-4.99454E+05-1.85833E+06 2.36089E+05-2.66657E+06-4.42620E-07-7.22553E-08
 -1        89 3.47631E+06 6.51216E+06 2.53293E+06 6.30298E+06-5.97269E-07-2.92694E-07
 -1        90-2.41286E+06-1.61562E+07-3.20338E+06-3.58881E+06-1.49779E-07 4.60277E-08
 -1       121-2.03652E+03-1.55550E+06-5.48269E+02 1.09035E+03 1.42586E-09 2.17333E-08
 -1       122-1.30202E+03-1.55066E+06 7.66019E+02-4.40414E+03-5.56153E-09-2.14313E-08
 -1       123-2.05625E+03-1.55563E+06 2.55495E+02 3.25649E+03 4.20232E-09-3.29819E-08
 -1       124 3.25781E+02-1.55021E+06 2.93419E+03-9.21867E+03-1.05792E-08 2.80143E-08
 -1       125-2.86112E+03-1.55652E+06 3.43769E+03 5.85893E+03 6.18638E-09 1.82008E-08
 -1       191-8.15765E+01 3.90087E+05 2.19003E+01-3.61617E+00 3.45267E-10-5.67707E-09
 -1       192-7.49710E+01 3.90072E+05 4.58444E+01 3.74206E+01 5.21311E-10-4.10728E-09
 -1       193-7.33787E+01 3.90083E+05 8.18118E+01-3.36277E+01 1.18735E-09 1.20417E-09
 -1       194-3.34792E+01 3.90087E+05 1.81044E+02 3.08781E+02 9.55879E-10 1.03792E-08
 -1       195 4.82742E+01 3.90059E+05 3.58064E+02-2.74954E+02 2.09366E-09 7.54335E-09
 -1       251-8.65560E+05 1.65271E+04-3.85691E+04-1.49971E+04 6.99460E-09-8.78536E-08
 -1       252-8.80042E+05-1.91328E+04-2.68136E+04 5.34656E+04-9.55441E-09-1.69333E-07
 -1       253-8.74278E+05 2.53963E+03-1.04154E+04-1.06281E+04 4.18345E-09-1.15020E-07
 -1       254-8.65880E+05-3.09285E+03-4.53911E+03 3.82092E+04 0.00000E+00-2.38560E-07
 -1       255-8.79047E+05 3.44435E+01-3.69914E+03 2.55014E+02-1.97724E-09-6.92700E-08
 -1       256-8.59972E+05-2.76444E+02 1.38848E+03 1.34633E+04 2.21462E-10-5.89264E-09
 -1       257-8.79694E+05-6.41767E+02-1.54212E+03 1.41044E+04-7.37396E-09-7.20133E-08
 -1       258-8.63073E+05 9.86359E+02 2.90235E+03-1.26128E+04 1.50144E-08-1.94778E-08
 -1       259-8.76216E+05-1.02058E+03 1.29746E+03 2.63283E+04-1.38652E-09 6.72246E-08
 -1       260-8.70221E+05 3.09590E+03 5.65567E+03-3.14505E+04 1.35451E-08-2.90131E-07
 -1       261-8.73249E+05-2.20987E+03 8.67450E+03 3.29609E+04 1.81943E-08 6.22640E-09
 -1       262-8.69224E+05 1.19980E+04 2.15689E+04-3.69908E+04 4.74473E-09 2.00419E-07
 -1       263-8.77496E+05-9.67106E+03 3.41397E+04 3.18797E+04-2.18311E-08 1.98921E-07
 -1       264-8.38142E+05 6.73772E+04 9.46620E+04-2.73135E+04 5.93947E-08 1.63191E-07
 -1       265-9.03788E+05-5.77544E+04 1.31571E+05 2.32693E+04 5.81963E-09 2.56696E-07
 -1       266-1.65128E+04-7.72222E+03 3.87397E+04-1.68141E+01-3.45608E-11 1.37197E-07
 -1       267 1.91426E+04 8.99911E+03 2.73827E+04 1.94019E+01 9.09495E-11 1.43004E-07
 -1       268-2.56700E+03-1.27459E+03 1.01779E+04-2.47204E+00-1.24146E-10-1.19301E-08
 -1       269 3.03085E+03 1.52534E+03 6.61558E+03 2.87967E+00-4.52474E-11 1.21740E-07
 -1       270-4.54932E+02-2.50626E+02 3.19343E+03-3.90788E-01-1.04251E-10-7.27634E-08
 -1       271-1.44637E+06-1.85094E+05-1.09100E+05-5.63499E+05 1.02336E-08-5.63086E-08
 -1       272-1.43590E+06-3.00558E+05-6.82738E+04-6.06625E+05 3.98395E-08-2.58558E-07
 -1       273-1.46957E+06-2.07851E+05-2.65513E+04-5.55448E+05-7.39965E-09-3.33674E-07
 -1       274-1.40983E+06-2.73049E+05-1.36688E+04-6.22136E+05-2.67391E-08 4.16207E-07
 -1       275-1.47520E+06-2.07176E+05-6.66875E+03-5.51620E+05-1.04446E-08 2.03433E-07
 -1       276-1.40448E+06-2.74127E+05-2.73335E+03-6.31101E+05-3.55467E-08-1.46792E-09
 -1       277-1.47807E+06-2.04421E+05-1.86064E+03-5.48852E+05 6.11726E-09 5.25624E-08
 -1       278-1.40252E+06-2.77341E+05-6.61279E+02-6.37673E+05-1.41881E-08 4.83156E-07
 -1       279-1.47990E+06-2.02208E+05-8.27617E+02-5.46926E+05-9.13133E-10-7.84412E-08
 -1       280-1.40165E+06-2.79704E+05-8.93419E+02-6.41943E+05-2.64190E-08-6.99482E-08
 -1       281-1.48085E+06-2.00854E+05-1.65660E+03-5.45865E+05-4.62851E-08 1.80522E-07
 -1       282-1.40202E+06-2.81716E+05-3.84385E+03-6.43633E+05-1.24192E-08 3.21231E-08
 -1       283-1.48039E+06-1.99756E+05-6.84704E+03-5.45771E+05-1.70255E-08 5.64937E-08
 -1       284-1.40819E+06-2.90550E+05-1.86402E+04-6.41423E+05 7.58951E-09 1.40272E-07
 -1       285-1.47449E+06-1.93159E+05-2.91623E+04-5.47530E+05-5.78711E-08 1.70383E-07
 -1       301-9.93177E+03-6.53053E+05 1.66433E+05-1.15112E+06-1.04192E-08-1.87312E-07
 -1       302-1.24222E+04-6.05569E+05 1.00166E+05-1.67979E+06-2.48328E-08-2.56434E-07
 -1       303-2.40387E+04-6.46241E+05 5.64282E+04-1.14792E+06-5.68980E-09 7.61811E-08
 -1       304-2.81343E+04-6.13222E+05 5.64933E+04-1.67927E+06 5.36966E-09 9.20118E-08
 -1       305-2.85451E+04-6.34843E+05 6.90698E+04-1.15100E+06 3.87445E-09 1.55051E-07
 -1       306-3.00974E+07-6.20589E+06-8.59737E+06-4.69171E+05-8.06758E-08-3.38594E-07
 -1       307 2.51842E+07 3.29433E+06 5.49311E+06-1.53066E+07-8.74963E-07-4.07104E-07
 -1       308-6.88071E+06-9.99268E+05-4.23514E+05 5.20545E+06-2.34839E-07 3.32220E-07
 -1       309-3.14296E+06 8.71385E+06 2.29728E+06-2.07114E+07 2.84756E-07 3.69851E-07
 -1       310-1.27104E+07-1.95932E+06-2.07962E+06 5.21078E+06-3.96103E-07 2.20607E-08
 -1       311 3.87985E+07-1.89948E+04 7.33077E+06-8.64178E+06-1.09430E-08-1.52126E-07
 -1       312-3.19925E+07-6.84345E+06-8.57583E+06-5.15623E+06 8.56817E-08 1.69195E-07
 -1       313 4.53304E+07 1.52743E+07 1.06931E+07 2.40028E+07 6.12054E-08 3.81842E-08
 -1       314-1.71014E+07-1.78980E+07-7.52288E+06-1.25322E+07 2.63622E-07-1.95054E-07
 -1       315-2.01061E+06 2.98326E+07 5.65685E+06 1.03791E+07-4.78773E-07-2.13040E-08
 -1       316 1.45652E+06-9.81029E+06-4.18225E+05-2.46927E+06-1.25993E-06-1.94879E-07
 -1       317-1.70751E+07 2.24384E+07 2.24952E+06-8.91550E+06 6.25150E-07-6.64877E-07
 -1       318-1.10016E+06-1.28800E+07-2.07661E+06-4.24740E+06-9.42237E-07 1.51398E-07
 -1       319 7.34311E+06 3.21303E+07 7.08397E+06 1.67259E+07-1.03610E-07 2.04309E-07
 -1       320-2.26636E+07-1.77008E+07-9.89225E+06-1.28501E+07 1.69966E-07-6.04487E-08
 -1       336-7.54588E+02-1.68388E+06-1.37841E+04 8.85883E+03-2.57842E-08-3.36586E-08
 -1       337-5.39172E+03-1.68339E+06-1.79791E+04-2.15272E+04-4.87892E-08-1.21272E-08
 -1       338 2.61562E+02-1.68336E+06-2.83303E+04 1.24173E+04-3.50583E-08 1.36424E-08
 -1       339-3.00661E+04-1.70054E+06-6.40157E+04-2.85000E+04-6.22904E-08 7.81438E-09
 -1       340 1.97857E+04-1.66889E+06-1.00852E+05 1.57008E+04-4.12729E-08 4.61696E-08
 -1       406-1.92654E+02 3.86167E+05 4.29304E+02 2.79132E+02-1.80080E-09-1.54796E-09
 -1       407 1.04904E+02 3.86278E+05 1.27129E+03-2.89966E+02-3.93811E-10 1.61435E-08
 -1       408 6.23086E+02 3.86063E+05 2.69827E+03 1.05604E+01-2.47496E-09 1.37134E-08
 -1       409 2.90208E+03 3.87171E+05 6.16247E+03 2.44177E+02-3.92333E-10-1.98197E-08
 -1       410 8.47535E+03 3.85273E+05 1.26123E+04-2.71536E+02-2.89947E-09-9.70249E-09
 -1       521-3.17167E+07-7.68737E+06-1.00788E+07-7.04658E+04-5.76256E-08-9.21427E-08
 -1       522 2.61294E+07 4.36491E+06 5.62142E+06-1.88704E+07-5.56232E-07-1.06171E-07
 -1       523-7.45082E+06-1.31867E+06-4.14914E+05 5.66734E+06 1.58732E-07-1.04861E-07
 -1       524-6.64829E+06 1.18404E+07 2.49487E+06-2.38293E+07 8.99716E-07-9.37765E-07
 -1       525-1.35159E+07-2.61569E+06-2.29428E+06 5.68124E+06 4.01225E-07-4.89497E-07
 -1       526 4.25205E+07-1.23552E+05 7.71514E+06-1.13040E+07-1.38127E-07-1.98372E-07
 -1       527-3.39239E+07-8.57120E+06-9.91714E+06-5.02789E+06 2.91737E-07 5.73200E-08
 -1       528 4.96343E+07 1.71119E+07 1.11866E+07 2.73947E+07-4.40225E-07-4.09083E-07
 -1       529-1.80610E+07-2.01785E+07-8.65284E+06-1.25801E+07 7.14208E-08-2.71830E-07
 -1       530-4.50315E+06 3.47531E+07 6.00687E+06 9.80091E+06-1.37909E-07 5.92845E-07
 -1       531 1.47242E+06-1.08960E+07-3.89282E+05-2.39502E+06-1.05289E-06 4.13274E-07
 -1       532-1.95641E+07 2.44789E+07 2.46833E+06-1.33029E+07 3.67712E-07-6.76708E-07
 -1       533-1.13762E+06-1.40684E+07-2.22158E+06-4.03442E+06-1.02998E-07-1.01060E-06
 -1       534 5.36761E+06 3.74273E+07 7.39676E+06 1.73585E+07-4.91855E-09 7.46222E-07
 -1       535-2.38943E+07-2.01683E+07-1.13789E+07-1.29465E+07 9.23174E-08 4.73752E-07
 -1       536-7.06553E+05-4.66651E+04-4.86012E+04-5.47380E+04-4.86534E-09 6.60511E-08
 -1       537-5.45013E+04 4.45792E+04 8.38029E+04 1.23963E+05-1.13340E-07 1.15033E-07
 -1       538-3.94464E+05 3.37142E+03 3.46235E+03-7.22645E+04 3.08904E-08 1.13520E-07
 -1       539-2.68942E+05 2.83180E+03 2.48952E+04 1.38868E+05 1.63679E-07 1.06875E-07
 -1       540-4.97501E+05-4.23594E+02-2.13711E+04-7.01786E+04 4.55334E-08 1.03615E-07
 -1       541 1.47340E+05 1.69904E+04 1.06516E+05 9.80418E+04 1.68893E-09 9.89038E-08
 -1       542-7.99529E+05-2.01625E+04-8.43598E+04-3.05616E+04 6.68474E-08 6.11743E-08
 -1       543 4.06456E+05 2.73648E+04 1.58197E+05-1.33621E+04 5.60340E-09-1.32150E-09
 -1       544-7.49668E+05-1.65630E+04-7.49494E+04 4.05544E+04 2.18993E-08-3.75834E-08
 -1       545 2.95787E+04 9.50117E+03 7.99369E+04-1.13731E+05 1.98401E-08-6.76771E-08
 -1       546-4.32773E+05 6.10186E+03-1.22470E+04 6.94605E+04 5.24940E-08-9.94924E-08
 -1       547-2.87008E+05-4.65476E+03 1.06172E+04-1.41713E+05-1.18465E-07-1.36770E-07
 -1       548-4.41593E+05 4.72147E+03-2.38939E+04 6.92285E+04-1.12246E-07-1.00152E-07
 -1       549 4.87391E+04 1.61370E+04 6.06573E+04-1.11600E+05-6.41850E-08-5.53457E-08
 -1       550-7.59536E+05-2.22083E+04-1.29072E+05 3.86298E+04 1.06702E-08-4.79395E-08
 -1       551 4.07416E+04-7.47975E+05-1.59592E+04-1.24633E+06-1.02969E-07-5.44242E-09
 -1       552 9.31760E+04-7.92936E+05 9.86134E+03-1.77707E+06-7.10716E-08 3.91083E-08
 -1       553 7.17056E+04-7.89343E+05 3.19768E+04-1.23969E+06-1.18598E-07 2.93512E-08
 -1       554 1.31952E+05-8.08839E+05 8.09459E+04-1.77902E+06-7.69069E-08 1.46993E-08
 -1       555 1.01432E+05-8.12992E+05 1.47847E+05-1.23951E+06-1.26056E-07-1.43446E-08
 -1       556 2.23717E+05-3.83671E+05 2.54133E+04-4.07112E+05-2.43599E-08-2.73576E-08
 -1       557 3.54199E+05-4.87988E+05 1.59731E+04-5.27557E+05-2.37196E-09-1.57743E-08
 -1       558 2.05470E+05-3.76407E+05 2.24872E+03-4.11591E+05-2.52039E-08-2.32903E-08
 -1       559 3.29226E+05-4.88015E+05 2.40335E+03-5.48009E+05 2.08820E-08 8.12724E-09
 -1       560 1.90162E+05-3.66808E+05-1.52301E+03-4.22622E+05 1.21363E-08 2.21917E-08
 -1       561 3.09996E+05-4.80316E+05 1.21202E+02-5.61122E+05-1.99361E-09 1.19071E-08
 -1       562 1.78059E+05-3.59289E+05-1.33173E+03-4.31387E+05 2.11003E-09-8.76753E-09
 -1       563 2.95621E+05-4.74048E+05-3.92707E+01-5.70511E+05 5.16593E-10-3.87263E-09
 -1       564 1.69420E+05-3.53907E+05-6.02629E+02-4.37508E+05 1.10740E-08-7.83530E-09
 -1       565 2.86083E+05-4.69894E+05 2.31213E+01-5.76605E+05 1.78843E-08-2.46441E-08
 -1       566 1.64368E+05-3.50711E+05-2.60893E+02-4.41042E+05 1.85537E-09-1.22654E-08
 -1       567 2.81444E+05-4.67877E+05-3.62987E+02-5.79423E+05 1.28475E-08 8.71660E-09
 -1       568 1.62994E+05-3.49869E+05-1.12622E+03-4.42099E+05-5.27507E-09 1.06993E-08
 -1       569 2.80316E+05-4.67802E+05-2.84435E+03-5.77998E+05-7.99810E-09 2.57787E-08
 -1       570 1.66390E+05-3.53101E+05-6.21743E+03-4.41081E+05 7.65431E-09-7.44058E-09
 -1       571 2.90341E+05 1.05035E+04 1.49823E+04-9.51439E+04-7.51243E-09-3.90582E-09
 -1       572 2.92512E+05 3.96004E+03 7.34254E+03-1.04382E+05-1.72981E-08-1.51849E-08
 -1       573 2.91203E+05 1.24672E+03 3.26253E+03-9.49676E+04-5.03042E-09-2.00271E-09
 -1       574 2.91417E+05 7.28622E+02 1.63613E+03-1.04607E+05 6.18843E-09 5.04133E-09
 -1       575 2.91297E+05 4.49410E+02 7.72209E+02-9.49435E+04-1.28732E-08 1.65883E-08
 -1       576 2.91281E+05 4.60910E+02 3.95367E+02-1.04636E+05-2.98078E-08 3.22034E-08
 -1       577 2.91337E+05 3.91348E+02 1.97371E+02-9.49401E+04-1.58961E-08 2.23627E-08
 -1       578 2.91312E+05 4.22880E+02 1.14019E+02-1.04641E+05-2.18643E-09 2.16469E-08
 -1       579 2.91409E+05 3.54694E+02 7.83197E+01-9.49398E+04 8.41464E-09-1.19144E-10
 -1       580 2.91413E+05 3.71897E+02 9.09095E+01-1.04636E+05-7.42966E-09 3.81897E-09
 -1       581 2.91523E+05 2.96169E+02 1.37333E+02-9.49457E+04 5.35692E-09-2.61480E-09
 -1       582 2.91588E+05 3.34575E+02 2.79226E+02-1.04574E+05 1.61162E-09-2.97368E-08
 -1       583 2.91663E+05 3.38641E+02 5.35953E+02-9.50023E+04-1.47338E-09-9.63155E-10
 -1       584 2.91963E+05 7.76538E+02 1.21280E+03-1.04098E+05 6.27188E-09-1.69155E-08
 -1       585 2.91689E+05 1.79713E+03 2.45589E+03-9.54212E+04-3.51247E-09-1.51704E-09
 -1       586-3.42511E+03 1.16840E+05-2.91305E+03-2.50547E+05-9.27866E-09-6.58224E-09
 -1       587-1.34153E+03 1.16592E+05 7.73463E+02-2.75746E+05-5.27689E-09 5.71254E-09
 -1       588 3.95829E+02 1.16398E+05 4.76094E+03-2.50409E+05-4.17276E-09 2.54122E-08
 -1       589 5.08259E+03 1.18872E+05 1.23462E+04-2.75513E+05-8.24184E-09 6.40648E-09
 -1       590 1.66086E+04 1.15064E+05 2.58980E+04-2.50840E+05-4.76211E-09-2.51930E-09
 -1       591-7.49836E+04-1.59720E+04-2.25217E+04-3.19585E+04 3.35558E-09 4.86853E-09
 -1       592-7.90705E+04-1.95295E+04-1.21996E+04-3.55837E+04 5.61377E-09-2.74592E-08
 -1       593-7.72360E+04-1.43377E+04-5.07808E+03-3.36098E+04 1.16324E-08-2.19211E-09
 -1       594-7.59609E+04-1.62247E+04-2.53256E+03-3.57015E+04 1.65011E-08 3.92453E-08
 -1       595-7.74077E+04-1.43323E+04-1.16270E+03-3.36848E+04 3.98943E-09 1.16039E-08
 -1       596-7.57480E+04-1.60735E+04-5.90850E+02-3.56762E+04 8.65627E-09 1.80945E-08
 -1       597-7.74293E+04-1.43477E+04-3.21285E+02-3.36876E+04 3.32534E-09 1.07222E-08
 -1       598-7.57270E+04-1.60676E+04-2.57450E+02-3.56690E+04-9.15861E-10-1.14721E-09
 -1       599-7.74280E+04-1.43483E+04-3.27834E+02-3.36873E+04 7.11475E-09-1.36158E-08
 -1       600-7.57480E+04-1.60741E+04-6.08186E+02-3.56740E+04 1.71053E-08-4.94333E-09
 -1       601-7.74034E+04-1.43337E+04-1.19939E+03-3.36838E+04 1.01036E-08 6.81734E-09
 -1       602-7.59676E+04-1.62288E+04-2.61372E+03-3.56962E+04-3.71062E-09 1.88793E-08
 -1       603-7.72234E+04-1.43422E+04-5.24148E+03-3.36072E+04-2.39015E-09-8.93624E-09
 -1       604-7.91948E+04-1.96203E+04-1.25913E+04-3.55499E+04-2.77134E-09-1.65062E-08
 -1       605-7.48786E+04-1.60468E+04-2.32450E+04-3.19222E+04 3.87337E-09-8.00355E-09
 -1       606 2.66861E+04-1.43226E+04-2.56748E+04 2.39818E+04 6.26005E-09 2.43676E-09
 -1       607 2.22992E+04-4.67808E+03-1.27859E+04 2.69507E+04 2.74395E-09-6.08998E-09
 -1       608 2.47994E+04-8.44261E+02-5.72384E+03 2.38133E+04-3.65071E-09 1.37600E-08
 -1       609 2.43201E+04-2.89571E+02-2.89153E+03 2.71647E+04-1.85537E-10 2.71192E-08
 -1       610 2.45859E+04-4.13852E+01-1.37958E+03 2.37933E+04 4.78394E-09 2.20653E-08
 -1       611 2.45107E+04-4.17122E+01-6.95574E+02 2.71878E+04 1.02750E-08 2.46905E-09
 -1       612 2.45388E+04-2.76861E+01-3.30659E+02 2.37912E+04 2.83671E-09 1.52611E-08
 -1       613 2.45223E+04-3.76264E+01-1.48145E+02 2.71905E+04 1.63345E-09 3.59069E-09
 -1       614 2.45166E+04-3.41051E+01-3.46630E+01 2.37905E+04 2.06819E-09-6.23254E-09
 -1       615 2.45170E+04-3.61403E+01 6.22767E+01 2.71909E+04-1.20917E-09-2.71734E-09
 -1       616 2.44993E+04-3.09848E+01 1.86576E+02 2.37908E+04 1.19871E-09-1.54832E-08
 -1       617 2.45394E+04 3.61442E+00 4.25615E+02 2.71905E+04 4.13684E-09 3.80078E-09
 -1       618 2.44623E+04 9.17081E+01 8.57871E+02 2.37911E+04-2.05682E-09-2.95154E-09
 -1       619 2.48423E+04 6.66918E+02 1.92640E+03 2.71899E+04-7.28403E-09 9.24524E-09
 -1       620 2.41774E+04 2.12594E+03 3.87201E+03 2.37927E+04-1.85378E-09 7.15636E-09
 -1       621 5.11505E+02 3.01312E+05 3.88398E+03 4.09929E+04 9.93623E-10 6.51198E-09
 -1       622 6.77758E+02 3.02209E+05 3.44657E+03 5.95112E+04 1.21736E-09-1.28530E-08
 -1       623 1.43344E+02 3.01507E+05 4.14112E+03 4.08074E+04 1.17143E-09-6.50471E-09
 -1       624 2.12660E+03 3.03426E+05 8.02759E+03 5.96938E+04 1.43461E-09 1.75896E-09
 -1       625 2.07748E+03 2.99915E+05 1.40277E+04 4.08042E+04 1.23873E-09-1.13732E-09
 -1       626 2.60743E+05 6.13805E+04 5.11668E+03 1.26677E+05 4.27781E-09 2.30002E-08
 -1       627 2.58425E+05 6.27775E+04 2.46569E+03 1.30948E+05-1.80626E-09-1.39038E-08
 -1       628 2.60870E+05 5.90393E+04 1.04281E+03 1.27546E+05-2.23463E-09 1.79830E-09
 -1       629 2.57790E+05 6.20980E+04 5.10402E+02 1.31188E+05-9.43783E-09 3.35177E-08
 -1       630 2.60885E+05 5.89262E+04 2.36866E+02 1.27583E+05-1.69848E-09 1.82411E-09
 -1       631 2.57724E+05 6.20722E+04 1.27601E+02 1.31190E+05 1.10933E-08-1.54221E-08
 -1       632 2.60881E+05 5.89302E+04 8.42040E+01 1.27579E+05 9.70340E-09-4.98358E-09
 -1       633 2.57715E+05 6.20740E+04 9.41695E+01 1.31186E+05 1.96610E-09-8.79186E-09
 -1       634 2.60877E+05 5.89273E+04 1.52505E+02 1.27578E+05-5.84112E-09 7.06655E-09
 -1       635 2.57730E+05 6.20722E+04 3.08792E+02 1.31192E+05-3.80169E-09 1.73463E-08
 -1       636 2.60868E+05 5.89215E+04 6.23709E+02 1.27578E+05-4.47471E-09 1.26738E-08
 -1       637 2.57865E+05 6.21692E+04 1.37145E+03 1.31191E+05-1.97108E-08-1.11700E-08
 -1       638 2.60819E+05 5.92245E+04 2.81782E+03 1.27441E+05-3.88263E-09 3.17414E-09
 -1       639 2.59345E+05 6.42279E+04 6.66712E+03 1.30755E+05 9.03469E-09-8.22365E-09
 -1       640 2.60614E+05 6.53719E+04 1.38354E+04 1.24851E+05-4.39559E-09-3.15968E-08
 -1       656 6.65499E+04-1.70317E+06-1.60647E+05-2.57047E+03 1.81899E-10-4.07852E-10
 -1       657-8.80398E+04-1.77576E+06-1.33087E+05 5.15142E+03-4.92037E-10 1.47844E-09
 -1       658 2.12138E+04-1.72379E+06-8.19652E+04-4.65259E+03 1.46883E-10-3.04382E-09
 -1       659-9.52022E+04-1.77917E+06-1.42500E+05 6.88127E+03-2.21189E-09 5.97582E-09
 -1       660 7.36964E+04-1.69978E+06-1.76830E+05-4.30029E+03-1.35333E-09 1.10480E-08
 -1       661 1.58542E+05 1.65892E+04 1.67128E+04 6.19759E+04-3.88718E-09 2.03727E-09
 -1       662 1.67991E+05 2.89663E+04 1.12633E+04 5.82266E+04-9.95044E-10-1.82627E-08
 -1       663 1.61825E+05 2.19510E+04 3.93917E+03 6.10232E+04 1.32115E-09 4.24279E-09
 -1       664 1.64185E+05 2.26962E+04 2.35645E+03 5.93903E+04-2.89035E-09-6.53688E-09
 -1       665 1.62323E+05 2.26833E+04 9.29603E+02 6.08779E+04 3.47916E-09-4.44709E-09
 -1       666 1.63595E+05 2.18588E+04 5.44148E+02 5.95799E+04 8.25099E-09 1.72102E-08
 -1       667 1.62411E+05 2.27666E+04 2.89218E+02 6.08414E+04 3.75883E-09-1.80400E-10
 -1       668 1.63499E+05 2.17990E+04 2.95137E+02 5.96329E+04-5.05401E-09-2.45917E-08
 -1       669 1.62418E+05 2.27415E+04 3.99937E+02 6.08252E+04 2.82810E-09-1.30744E-08
 -1       670 1.63596E+05 2.20162E+04 8.71209E+02 5.96358E+04-6.01648E-09-4.71759E-09
 -1       671 1.62313E+05 2.25539E+04 1.54701E+03 6.08365E+04 3.56865E-09 8.09166E-10
 -1       672 1.64498E+05 2.35212E+04 3.95808E+03 5.94173E+04 3.46705E-09-4.96226E-09
 -1       673 1.61521E+05 2.12745E+04 6.63315E+03 6.10291E+04 2.27669E-09 8.31869E-09
 -1       674 1.70811E+05 3.41782E+04 1.89694E+04 5.75627E+04-1.38527E-09-8.75002E-09
 -1       675 1.56041E+05 1.21954E+04 2.81573E+04 6.25792E+04-2.11276E-09 1.36770E-08
 -1       676 2.41066E+01-2.95798E+05-1.11316E+03-1.38033E+02-6.38067E-11-2.63255E-08
 -1       677-2.94446E+02-2.96068E+05-2.03728E+03 2.75844E+02 8.44702E-09 3.07451E-09
 -1       678 1.97499E+02-2.95607E+05-3.60141E+03-1.37721E+02 1.24874E-09-7.38389E-10
 -1       679-3.60146E+03-2.98242E+05-8.55545E+03 2.74653E+02 7.89339E-09-2.32070E-08
 -1       680 2.15029E+03-2.93626E+05-1.37885E+04-1.35321E+02 1.02864E-09-8.28192E-09
 -1       771-3.06106E+06-7.47328E+05-1.66266E+05-1.46563E+06-3.11120E-08-2.90456E-08
 -1       772-2.98393E+06-8.36263E+05-8.57267E+04-1.56845E+06-2.20462E-08 1.51522E-08
 -1       773-3.09260E+06-7.22737E+05-4.36921E+04-1.48021E+06-9.66247E-09 8.38190E-09
 -1       774-2.97438E+06-8.17682E+05-1.94953E+04-1.59424E+06 3.60742E-08-7.77072E-09
 -1       775-3.10907E+06-7.11185E+05-1.45769E+04-1.48728E+06-2.91038E-11 1.51340E-09
 -1       776-2.98675E+06-8.14636E+05-5.45218E+03-1.61376E+06-1.11904E-08 3.31784E-09
 -1       777-3.12336E+06-7.00873E+05-6.43867E+03-1.49351E+06 5.82077E-09 2.85218E-09
 -1       778-2.99967E+06-8.11804E+05-1.82076E+03-1.63053E+06 2.32831E-09 6.57747E-09
 -1       779-3.13565E+06-6.91862E+05-3.21691E+03-1.49883E+06-1.18744E-08-6.81030E-09
 -1       780-3.01104E+06-8.09103E+05-5.33310E+02-1.64419E+06-1.11322E-09-8.73115E-11
 -1       781-3.14541E+06-6.84598E+05-1.24904E+03-1.50300E+06-2.61643E-08-1.90994E-09
 -1       782-3.01981E+06-8.06810E+05 4.51972E+02-1.65427E+06-4.29864E-08-7.37873E-09
 -1       783-3.15229E+06-6.79550E+05 7.04331E+02-1.50592E+06-1.02664E-08-1.59002E-08
 -1       784-3.02466E+06-8.04519E+05 2.91419E+03-1.66049E+06-2.13877E-08-1.94177E-09
 -1       785-3.15636E+06-6.76538E+05 5.14517E+03-1.50777E+06-3.83698E-08 9.13860E-09
 -1       786 1.23886E+05-9.77746E+03 2.26211E+04-3.23463E+02 3.14815E-09 8.01447E-09
 -1       787 1.33697E+05 1.13201E+04 1.60035E+04-1.36916E+02 5.60031E-09 5.79917E-09
 -1       788 1.27668E+05-1.53215E+03 5.85258E+03-2.88323E+02 1.71488E-09 1.84241E-09
 -1       789 1.29290E+05 1.77344E+03 3.67405E+03-1.90738E+02 1.08725E-09 2.22546E-08
 -1       790 1.28293E+05-2.38549E+02 1.48760E+03-2.69658E+02-2.75502E-09 3.54169E-09
 -1       791 1.28560E+05 2.76024E+02 8.59275E+02-2.22671E+02-7.39758E-09-2.24008E-08
 -1       792 1.28399E+05-3.58578E+01 3.64271E+02-2.56393E+02-3.00585E-09 1.38655E-10
 -1       793 1.28433E+05 3.79678E+01 1.81913E+02-2.47625E+02-2.15998E-09 1.15168E-08
 -1       794 1.28420E+05-6.43326E-01 4.79115E+01-2.44704E+02 5.26260E-09-8.78693E-10
 -1       795 1.28396E+05-2.69566E+01-5.61953E+01-2.72017E+02-4.84205E-09 1.10749E-08
 -1       796 1.28436E+05 2.90303E+01-1.60082E+02-2.32001E+02 4.04783E-09-4.77627E-11
 -1       797 1.28303E+05-2.16732E+02-4.40212E+02-3.01195E+02 5.10471E-09-3.28614E-08
 -1       798 1.28513E+05 1.88990E+02-7.15114E+02-2.15526E+02 1.93203E-09-2.91635E-10
 -1       799 1.27760E+05-1.39296E+03-1.96755E+03-3.41991E+02 6.16296E-09 3.32075E-08
 -1       800 1.28979E+05 1.20430E+03-2.78454E+03-1.91206E+02 1.93673E-10 1.87343E-08
 -1       801-1.71691E+05-1.00088E+07-1.39525E+06 1.41829E+06 9.26957E-08-5.48571E-08
 -1       802 7.39965E+05 5.96903E+06 2.18639E+06-1.75103E+06 2.58478E-07-3.44698E-08
 -1       803-5.37743E+05-1.42900E+07-1.89458E+06 8.99459E+05 7.70051E-08 1.17834E-08
 -1       804 2.88027E+05 2.40982E+06 1.54095E+06 6.78503E+05-1.20781E-07-1.04458E-07
 -1       805 1.89557E+05-6.46368E+06-2.87333E+05-1.00557E+06-4.99786E-08-6.97055E-08
 -1       806-3.08693E+05-5.97191E+04-2.28278E+04-1.22334E+05-2.61753E-09 1.20599E-08
 -1       807-3.10487E+05-5.59950E+04-1.12151E+04-1.27876E+05 1.35781E-08 3.61051E-09
 -1       808-3.09320E+05-5.14920E+04-4.75778E+03-1.26223E+05-1.41654E-09 8.60905E-09
 -1       809-3.08129E+05-5.28438E+04-2.32644E+03-1.28151E+05-9.18544E-09-1.96383E-08
 -1       810-3.09414E+05-5.12056E+04-1.06634E+03-1.26395E+05 7.33962E-09 1.64985E-08
 -1       811-3.07946E+05-5.27172E+04-5.30315E+02-1.28116E+05 1.13168E-08 1.19492E-08
 -1       812-3.09428E+05-5.12303E+04-2.68296E+02-1.26394E+05-5.59521E-09-3.92401E-09
 -1       813-3.07921E+05-5.27194E+04-1.74515E+02-1.28097E+05-4.86580E-09-2.00362E-08
 -1       814-3.09421E+05-5.12400E+04-1.73186E+02-1.26390E+05-2.22553E-09-1.54555E-08
 -1       815-3.07925E+05-5.27217E+04-2.79251E+02-1.28090E+05 5.90671E-09 2.02658E-09
 -1       816-3.09400E+05-5.12391E+04-5.29413E+02-1.26386E+05 2.03545E-09 5.60658E-09
 -1       817-3.08015E+05-5.27722E+04-1.13624E+03-1.28078E+05-1.41099E-08 2.35989E-08
 -1       818-3.09332E+05-5.13995E+04-2.31757E+03-1.26311E+05-4.71027E-09-1.13664E-08
 -1       819-3.09283E+05-5.41723E+04-5.45306E+03-1.27777E+05 3.10320E-09-3.11586E-08
 -1       820-3.08894E+05-5.55190E+04-1.10990E+04-1.24551E+05 2.54749E-09-8.13316E-10
 -1       821-3.78874E+05 2.08638E+04-4.85647E+04 2.12487E+03 1.41928E-08-4.32192E-09
 -1       822-3.98585E+05-2.41694E+04-3.41322E+04-4.43944E+03 5.22608E-09 5.50790E-09
 -1       823-3.86342E+05 3.28867E+03-1.25441E+04 3.42866E+03-1.27752E-08 1.22859E-08
 -1       824-3.89572E+05-3.79250E+03-7.85209E+03-5.34554E+03 1.79091E-10 2.96774E-08
 -1       825-3.87894E+05 5.11030E+02-3.28781E+03 3.03109E+03 1.92553E-08 1.55508E-08
 -1       826-3.87147E+05-5.67331E+02-1.74498E+03-3.07933E+03 2.88301E-08 4.67139E-10
 -1       827-3.88743E+05 4.70897E+01-1.18845E+03 1.16230E+03 1.28435E-08-3.61484E-09
 -1       828-3.86446E+05-1.32392E+02-5.88206E+02 1.09815E+03-2.10946E-10-1.23933E-09
 -1       829-3.88582E+05 6.61230E+01-1.17749E+03-1.14642E+03 7.71706E-10 6.26827E-09
 -1       830-3.87495E+05-6.22046E+02-1.88281E+03 4.87159E+03 9.02354E-10 1.77098E-08
 -1       831-3.87716E+05 5.54246E+02-3.36974E+03-2.61116E+03-5.72302E-09-6.51994E-09
 -1       832-3.89652E+05-3.95925E+03-8.15470E+03 6.14655E+03-1.01633E-09-2.15175E-09
 -1       833-3.86440E+05 3.41278E+03-1.30477E+04-2.42142E+03 2.81645E-10-4.88399E-10
 -1       834-3.98646E+05-2.50828E+04-3.53550E+04 4.18126E+03-6.03896E-09 2.48183E-08
 -1       835-3.78705E+05 2.16450E+04-5.04341E+04-6.45788E+02 5.71015E-09 1.23982E-08
 -1       836-1.41364E+03 3.70055E+05 2.28986E+04-1.61511E+04-7.01675E-09 1.39739E-08
 -1       837 4.88078E+03 3.77227E+05 1.93729E+04-3.30079E+04-7.77300E-09-1.26947E-08
 -1       838-5.58017E+02 3.72066E+05 1.97334E+04-1.60795E+04-6.46514E-09 1.58557E-08
 -1       839 1.24163E+04 3.82839E+05 3.73247E+04-3.30604E+04-6.89215E-09 1.62081E-08
 -1       840-3.83925E+03 3.64383E+05 5.95170E+04-1.61045E+04-6.25005E-09 9.63452E-09
 -1       856-5.22356E+04 8.02350E+03-2.11436E+04-3.96901E+02 3.08876E-09-1.51704E-09
 -1       857-6.09462E+04-9.42743E+03-1.45551E+04 5.63217E+03 2.89697E-09 4.09909E-09
 -1       858-5.56852E+04 1.12522E+03-5.48627E+03-4.21030E+02 2.02704E-09 4.08318E-09
 -1       859-5.69874E+04-1.32386E+03-3.31070E+03 5.66806E+03-3.83437E-09 3.75979E-08
 -1       860-5.62006E+04 1.57590E+02-1.38751E+03-4.32518E+02-1.24854E-09-3.68698E-09
 -1       861-5.63946E+04-1.88209E+02-7.63282E+02 5.68371E+03 5.19915E-09-5.73279E-09
 -1       862-5.62812E+04 2.13547E+01-3.17256E+02-4.36654E+02-4.42495E-09 2.86042E-09
 -1       863-5.62957E+04-2.19355E+01-1.15497E+02 5.68611E+03-4.09811E-09-3.78477E-09
 -1       864-5.63000E+04-4.89969E+00 4.73517E+01-4.34918E+02-5.28793E-09-6.76584E-09
 -1       865-5.62399E+04 5.95976E+01 2.55558E+02 5.67620E+03-9.62075E-10-1.62062E-08
 -1       866-5.63348E+04-6.01956E+01 5.14943E+02-4.26747E+02-9.91122E-10-1.37480E-08
 -1       867-5.59978E+04 4.97046E+02 1.26743E+03 5.65402E+03-2.54178E-09-1.36828E-09
 -1       868-5.65372E+04-4.34449E+02 2.10608E+03-4.12735E+02-3.62081E-09-1.06036E-09
 -1       869-5.44538E+04 3.61570E+03 5.60777E+03 5.61753E+03 1.54674E-09-5.60249E-09
 -1       870-5.78711E+04-3.09414E+03 8.13814E+03-3.90155E+02-3.25656E-09-9.03856E-09
 -1       871-5.51441E+03-2.13247E+04-1.94820E+04 1.30362E+05-4.62751E-09 1.71476E-08
 -1       872-1.97925E+03-2.58552E+04-8.15749E+03 1.69033E+05-1.17252E-08 1.31386E-08
 -1       873 4.06617E+02-2.36637E+04 5.89755E+02 1.30075E+05-6.39875E-09 1.52329E-08
 -1       874 3.30680E+03-2.12543E+04 9.77552E+03 1.69063E+05-1.14405E-08 1.11013E-08
 -1       875 6.84531E+03-2.59925E+04 2.20526E+04 1.30313E+05-5.07134E-09-1.17880E-08
 -1       876 2.93640E+05 4.94870E+04 1.50934E+04 1.17834E+05 1.39926E-09-2.12822E-10
 -1       877 2.94638E+05 5.26656E+04 8.06047E+03 1.22164E+05 5.81758E-09 2.22212E-09
 -1       878 2.95051E+05 4.78150E+04 3.37694E+03 1.19070E+05-8.96080E-09 7.91329E-09
 -1       879 2.92586E+05 5.06181E+04 1.68260E+03 1.22266E+05 3.87126E-09 6.51886E-09
 -1       880 2.95152E+05 4.77977E+04 7.83736E+02 1.19121E+05-5.04633E-09 6.88641E-09
 -1       881 2.92450E+05 5.05305E+04 4.18550E+02 1.22242E+05-1.82399E-08 4.23142E-10
 -1       882 2.95162E+05 4.78110E+04 2.67800E+02 1.19123E+05-8.62133E-09 8.42630E-09
 -1       883 2.92440E+05 5.05259E+04 2.87958E+02 1.22235E+05-6.28381E-09 2.58102E-09
 -1       884 2.95155E+05 4.78082E+04 4.58127E+02 1.19123E+05-2.24588E-09-1.75503E-08
 -1       885 2.92477E+05 5.05323E+04 9.21122E+02 1.22246E+05-3.35555E-09-7.09122E-09
 -1       886 2.95119E+05 4.77813E+04 1.85650E+03 1.19119E+05-4.81079E-09-3.21575E-09
 -1       887 2.92803E+05 5.07462E+04 4.05527E+03 1.22293E+05 5.64842E-09 2.03249E-09
 -1       888 2.94863E+05 4.78264E+04 8.17148E+03 1.18990E+05-3.86537E-09-6.49197E-09
 -1       889 2.97667E+05 5.58053E+04 1.95201E+04 1.22144E+05-1.51633E-08-1.85819E-08
 -1       890 2.91528E+05 5.17884E+04 3.65608E+04 1.15880E+05-6.21367E-09 1.60508E-08
 -1       891-8.89319E+01-1.62702E+05-1.99560E+03 2.71383E+04-1.18348E-09 1.32691E-08
 -1       892-1.74708E+02-1.63230E+05-2.14329E+03 4.12117E+04 4.06180E-09 1.71794E-08
 -1       893 4.40700E+01-1.62766E+05-3.03462E+03 2.71457E+04-2.95609E-09-1.93950E-09
 -1       894-1.50883E+03-1.64376E+05-6.28050E+03 4.10592E+04 7.65795E-10-2.20962E-09
 -1       895-1.19836E+03-1.61458E+05-1.10599E+04 2.72927E+04 4.69072E-10-1.64373E-08
 -1       956-3.77043E+05-5.44773E+03-1.34475E+04 3.08432E+04 8.02356E-09-1.82763E-08
 -1       957-3.79681E+05-1.92195E+03-6.90239E+03 3.70649E+04-2.03909E-09 1.29446E-08
 -1       958-3.78251E+05-2.41018E+02-3.11044E+03 3.06756E+04-5.03678E-09 2.63753E-11
 -1       959-3.78448E+05-1.36446E+02-1.58824E+03 3.72604E+04 3.05408E-09-3.72529E-09
 -1       960-3.78369E+05-4.49914E+01-7.74501E+02 3.06583E+04 8.32733E-09-7.10747E-09
 -1       961-3.78367E+05-6.34493E+01-4.10632E+02 3.72808E+04 1.31718E-08 1.34548E-08
 -1       962-3.78397E+05-4.62215E+01-2.35096E+02 3.06555E+04 2.83080E-09 5.48471E-09
 -1       963-3.78368E+05-5.92625E+01-1.88725E+02 3.72845E+04 1.63857E-09 7.30552E-10
 -1       964-3.78402E+05-4.28694E+01-2.29505E+02 3.06547E+04-6.13609E-09-1.38084E-09
 -1       965-3.78380E+05-5.63024E+01-3.96951E+02 3.72838E+04-1.72212E-08-5.59044E-09
 -1       966-3.78386E+05-3.50294E+01-7.45861E+02 3.06562E+04-1.86765E-09 1.11545E-08
 -1       967-3.78469E+05-1.19815E+02-1.52974E+03 3.72694E+04-7.63976E-10 5.56429E-09
 -1       968-3.78282E+05-2.17440E+02-2.99469E+03 3.06689E+04 6.18911E-10-9.90326E-09
 -1       969-3.79670E+05-1.83396E+03-6.64814E+03 3.71211E+04 1.07275E-09-1.42482E-08
 -1       970-3.77127E+05-5.22839E+03-1.29510E+04 3.07959E+04-2.66664E-09-2.99679E-09
 -1       971-3.45238E+05-1.72707E+03-9.30697E+03 1.53761E+04 5.60340E-09-1.71779E-08
 -1       972-3.47479E+05-1.27158E+03-5.06848E+03 2.12645E+04 3.46336E-09-1.90394E-08
 -1       973-3.46275E+05-6.21618E+01-2.27022E+03 1.52550E+04 1.68438E-09 9.04242E-09
 -1       974-3.46410E+05-8.12631E+01-1.17681E+03 2.14015E+04 1.98361E-09 1.42072E-08
 -1       975-3.46357E+05-1.73025E+01-5.88707E+02 1.52427E+04-4.55839E-09 1.08067E-08
 -1       976-3.46349E+05-3.14368E+01-3.40483E+02 2.14173E+04 1.89266E-09 2.99868E-08
 -1       977-3.46374E+05-1.65581E+01-2.48622E+02 1.52393E+04-1.52022E-09-1.05138E-09
 -1       978-3.46354E+05-2.52148E+01-2.92992E+02 2.14222E+04-8.29903E-09-9.56106E-09
 -1       979-3.46373E+05-8.08371E+00-4.72510E+02 1.52379E+04-5.08226E-09 3.36797E-09
 -1       980-3.46390E+05-2.21548E+01-9.13463E+02 2.14232E+04-5.53658E-09-1.60378E-09
 -1       981-3.46344E+05 1.47489E+01-1.76975E+03 1.52384E+04-4.55429E-10-9.05436E-09
 -1       982-3.46632E+05-1.52919E+02-3.65835E+03 2.14165E+04-4.43015E-09-2.37010E-08
 -1       983-3.46121E+05-9.85719E+01-7.10837E+03 1.52444E+04-1.40899E-08-5.74119E-09
 -1       984-3.50051E+05-3.86541E+03-1.59190E+04 2.13309E+04-1.97979E-08-3.34262E-09
 -1       985-3.42903E+05-5.30003E+03-2.92322E+04 1.53157E+04-8.20273E-09 2.63663E-08
 -3
    1PSTEP                        25          13           1          
  100CL  113 6.62796E-01         409                     0   13           1
 -4  DISP        4    1
 -5  D1          1    2    1    0
 -5  D2          1    2    2    0
 -5  D3          1    2    3    0
 -5  ALL         1    2    0    0    1ALL
 -1         1 2.72935E-03 0.00000E+00 0.00000E+00
 -1         2 1.31565E-03-4.85078E-27 0.00000E+00
 -1         3 3.42727E-04-6.05991E-28 0.00000E+00
 -1         5 1.77017E-04-1.15203E-27 0.00000E+00
 -1         8 2.71875E-03-3.98983E-07 0.00000E+00
 -1         9 2.71191E-03-2.04750E-04 0.00000E+00
 -1        10 3.10774E-04-3.38833E-06-6.61744E-24
 -1        12 1.78906E-04 8.16987E-07 0.00000E+00
 -1        15 2.70668E-03-4.21713E-07-1.03398E-25
 -1        16 2.78360E-03-2.06651E-04 0.00000E+00
 -1        17 2.11497E-04-7.73092E-06 0.00000E+00
 -1        18 1.82901E-04 3.44898E-05 0.00000E+00
 -1        19 1.84494E-04 1.61951E-06 0.00000E+00
 -1        20 1.84633E-04-9.95006E-06 0.00000E+00
 -1        21 1.83740E-04-2.55519E-05 0.00000E+00
 -1        24 3.05951E-05-1.19513E-05 0.00000E+00
 -1        25 1.93709E-04 3.47154E-05 0.00000E+00
 -1        26 1.94390E-04 2.23939E-06 0.00000E+00
 -1        27 1.92190E-04-1.35072E-05 0.00000E+00
 -1        28 1.91874E-04-2.61739E-05 0.00000E+00
 -1        32 0.00000E+00 0.00000E+00 0.00000E+00
 -1        33 2.03282E-04 2.99291E-06 0.00000E+00
 -1        34 2.01164E-04-1.35634E-05 0.00000E+00
 -1        35 1.99232E-04-2.65163E-05 0.00000E+00
 -1        51 2.72863E-03-8.40924E-08 3.30872E-24
 -1        52 2.72733E-03-1.49684E-07 0.00000E+00
 -1        53 2.72556E-03-2.11757E-07 0.00000E+00
 -1        54 2.72346E-03-2.72543E-07-1.65436E-24
 -1        55 2.72114E-03-3.33808E-07 0.00000E+00
 -1        56 2.72107E-03 9.91592E-06 0.00000E+00
 -1        57 2.70431E-03 4.06672E-05 0.00000E+00
 -1        58 2.68158E-03 8.57525E-05 1.05879E-22
 -1        59 2.65603E-03 1.37316E-04 0.00000E+00
 -1        60 2.63155E-03 1.86391E-04-1.05879E-22
 -1        61 2.61185E-03 2.24211E-04 5.29396E-23
 -1        62 2.59948E-03 2.44015E-04 0.00000E+00
 -1        63 2.59605E-03 2.40645E-04 5.29396E-23
 -1        64 2.60128E-03 2.13208E-04-1.05879E-22
 -1        65 2.61412E-03 1.63104E-04-5.29396E-23
 -1        66 2.63230E-03 9.60648E-05 0.00000E+00
 -1        67 2.65335E-03 1.95065E-05 0.00000E+00
 -1        68 2.67448E-03-5.72910E-05 0.00000E+00
 -1        69 2.69291E-03-1.25018E-04 0.00000E+00
 -1        70 2.70609E-03-1.76142E-04-1.05879E-22
 -1        86 1.40348E-03-6.42311E-06 0.00000E+00
 -1        87 1.65723E-03-4.05857E-05 2.64698E-23
 -1        88 1.99847E-03-9.93990E-05-2.64698E-23
 -1        89 2.34449E-03-1.59904E-04 0.00000E+00
 -1        90 2.60978E-03-1.96943E-04 5.29396E-23
 -1       121 3.41830E-04-5.46987E-07 0.00000E+00
 -1       122 3.39142E-04-1.09706E-06-6.61744E-24
 -1       123 3.34672E-04-1.65326E-06-1.32349E-23
 -1       124 3.28438E-04-2.21863E-06-6.61744E-24
 -1       125 3.20462E-04-2.79582E-06-1.32349E-23
 -1       191 1.77069E-04 1.36242E-07-1.65436E-24
 -1       192 1.77227E-04 2.72471E-07 1.44757E-24
 -1       193 1.77490E-04 4.08678E-07-3.30872E-24
 -1       194 1.77857E-04 5.44848E-07 4.78214E-25
 -1       195 1.78330E-04 6.80962E-07 1.65436E-24
 -1       251 2.71845E-03 1.59215E-06-6.61744E-24
 -1       252 2.71815E-03 3.44639E-06 0.00000E+00
 -1       253 2.71784E-03 4.13405E-06-6.61744E-24
 -1       254 2.71754E-03 2.63990E-06 0.00000E+00
 -1       255 2.71722E-03-1.72154E-06 6.61744E-24
 -1       256 2.71689E-03-9.60003E-06-3.30872E-24
 -1       257 2.71652E-03-2.11141E-05 0.00000E+00
 -1       258 2.71610E-03-3.63370E-05 0.00000E+00
 -1       259 2.71564E-03-5.47822E-05 0.00000E+00
 -1       260 2.71512E-03-7.59228E-05 0.00000E+00
 -1       261 2.71456E-03-9.88247E-05-1.32349E-23
 -1       262 2.71398E-03-1.22533E-04-6.61744E-24
 -1       263 2.71341E-03-1.45969E-04 1.32349E-23
 -1       264 2.71287E-03-1.68059E-04-6.61744E-24
 -1       265 2.71237E-03-1.87934E-04 0.00000E+00
 -1       266 2.71674E-03-4.08305E-07 1.65436E-24
 -1       267 2.71473E-03-4.11419E-07-4.13590E-25
 -1       268 2.71272E-03-4.14926E-07 0.00000E+00
 -1       269 2.71070E-03-4.17268E-07 2.06795E-25
 -1       270 2.70869E-03-4.19583E-07 0.00000E+00
 -1       271 2.71797E-03-4.96364E-08 1.32349E-23
 -1       272 2.71820E-03-2.47902E-06 0.00000E+00
 -1       273 2.71941E-03-7.51856E-06-1.32349E-23
 -1       274 2.72150E-03-1.49865E-05 0.00000E+00
 -1       275 2.72441E-03-2.46796E-05 0.00000E+00
 -1       276 2.72805E-03-3.63789E-05-1.32349E-23
 -1       277 2.73233E-03-4.98487E-05 0.00000E+00
 -1       278 2.73716E-03-6.48398E-05 0.00000E+00
 -1       279 2.74243E-03-8.10912E-05 0.00000E+00
 -1       280 2.74807E-03-9.83315E-05 0.00000E+00
 -1       281 2.75395E-03-1.16282E-04 0.00000E+00
 -1       282 2.75999E-03-1.34657E-04-6.61744E-24
 -1       283 2.76607E-03-1.53171E-04 1.32349E-23
 -1       284 2.77210E-03-1.71532E-04 6.61744E-24
 -1       285 2.77798E-03-1.89454E-04 0.00000E+00
 -1       301 2.72493E-03-2.05103E-04 0.00000E+00
 -1       302 2.73627E-03-2.05407E-04 6.61744E-24
 -1       303 2.74686E-03-2.05701E-04 0.00000E+00
 -1       304 2.75765E-03-2.05995E-04 0.00000E+00
 -1       305 2.76958E-03-2.06303E-04 0.00000E+00
 -1       306 2.75008E-03-3.60636E-04 0.00000E+00
 -1       307 2.81394E-03-7.75943E-04 5.29396E-23
 -1       308 2.86050E-03-1.38196E-03 0.00000E+00
 -1       309 2.88441E-03-2.08233E-03 5.29396E-23
 -1       310 2.91601E-03-2.75116E-03 0.00000E+00
 -1       311 2.97572E-03-3.26536E-03 5.29396E-23
 -1       312 3.03324E-03-3.54453E-03 0.00000E+00
 -1       313 3.02733E-03-3.55134E-03 5.29396E-23
 -1       314 2.88407E-03-3.29834E-03 0.00000E+00
 -1       315 2.56287E-03-2.85045E-03 0.00000E+00
 -1       316 2.08265E-03-2.28441E-03 0.00000E+00
 -1       317 1.50990E-03-1.66941E-03 0.00000E+00
 -1       318 9.59263E-04-1.06580E-03 0.00000E+00
 -1       319 5.38835E-04-5.38467E-04 0.00000E+00
 -1       320 2.92258E-04-1.61629E-04 1.05879E-22
 -1       336 2.99186E-04-4.04352E-06 0.00000E+00
 -1       337 2.85523E-04-4.72440E-06 6.61744E-24
 -1       338 2.69844E-04-5.43320E-06 1.32349E-23
 -1       339 2.52225E-04-6.17076E-06 0.00000E+00
 -1       340 2.32745E-04-6.94156E-06 1.32349E-23
 -1       406 1.79584E-04 9.51663E-07 0.00000E+00
 -1       407 1.80362E-04 1.08619E-06 7.39939E-25
 -1       408 1.81242E-04 1.22055E-06 4.13590E-25
 -1       409 1.82224E-04 1.35457E-06 2.06795E-25
 -1       410 1.83308E-04 1.48797E-06-2.06795E-24
 -1       521 2.82236E-03-3.71855E-04 1.05879E-22
 -1       522 2.88439E-03-8.07795E-04 0.00000E+00
 -1       523 2.92433E-03-1.44228E-03 0.00000E+00
 -1       524 2.93877E-03-2.17206E-03 0.00000E+00
 -1       525 2.96226E-03-2.86828E-03 1.05879E-22
 -1       526 3.01837E-03-3.40508E-03 0.00000E+00
 -1       527 3.07550E-03-3.69504E-03-2.11758E-22
 -1       528 3.06720E-03-3.69991E-03-5.29396E-23
 -1       529 2.91149E-03-3.43231E-03-2.11758E-22
 -1       530 2.56548E-03-2.96533E-03 5.29396E-23
 -1       531 2.04897E-03-2.37962E-03 0.00000E+00
 -1       532 1.43504E-03-1.74695E-03 0.00000E+00
 -1       533 8.43994E-04-1.12500E-03 0.00000E+00
 -1       534 3.89308E-04-5.76290E-04 5.29396E-23
 -1       535 1.21009E-04-1.79482E-04 0.00000E+00
 -1       536 2.10742E-04 2.72092E-05-6.61744E-24
 -1       537 2.08821E-04 8.76850E-05 0.00000E+00
 -1       538 2.05854E-04 1.64424E-04 0.00000E+00
 -1       539 2.02353E-04 2.48070E-04 0.00000E+00
 -1       540 1.99203E-04 3.27111E-04-3.30872E-24
 -1       541 1.97155E-04 3.90058E-04-1.65436E-24
 -1       542 1.96211E-04 4.30155E-04 3.30872E-24
 -1       543 1.95985E-04 4.40790E-04-1.65436E-24
 -1       544 1.95663E-04 4.22739E-04 3.30872E-24
 -1       545 1.94489E-04 3.76994E-04 1.65436E-24
 -1       546 1.92301E-04 3.11688E-04 0.00000E+00
 -1       547 1.89340E-04 2.35073E-04 0.00000E+00
 -1       548 1.86405E-04 1.58833E-04 0.00000E+00
 -1       549 1.84288E-04 9.46525E-05-1.65436E-24
 -1       550 1.83188E-04 5.05681E-05 0.00000E+00
 -1       551 1.86290E-04-8.29947E-06 0.00000E+00
 -1       552 1.57839E-04-8.94849E-06 0.00000E+00
 -1       553 1.27085E-04-9.65979E-06 6.61744E-24
 -1       554 9.49875E-05-1.04123E-05-3.30872E-24
 -1       555 6.25061E-05-1.11785E-05 0.00000E+00
 -1       556 2.03846E-04 1.18311E-05-5.29396E-23
 -1       557 1.97665E-04 2.76973E-05 0.00000E+00
 -1       558 1.92818E-04 4.01554E-05 0.00000E+00
 -1       559 1.89174E-04 4.95159E-05 0.00000E+00
 -1       560 1.86601E-04 5.60895E-05 0.00000E+00
 -1       561 1.84973E-04 6.01896E-05 0.00000E+00
 -1       562 1.84163E-04 6.21308E-05 0.00000E+00
 -1       563 1.84048E-04 6.22285E-05 0.00000E+00
 -1       564 1.84506E-04 6.07993E-05 0.00000E+00
 -1       565 1.85416E-04 5.81601E-05 6.61744E-24
 -1       566 1.86658E-04 5.46285E-05 0.00000E+00
 -1       567 1.88114E-04 5.05227E-05 0.00000E+00
 -1       568 1.89664E-04 4.61607E-05 0.00000E+00
 -1       569 1.91192E-04 4.18608E-05-8.27181E-25
 -1       570 1.92579E-04 3.79411E-05 0.00000E+00
 -1       571 1.82998E-04 3.23577E-05-1.65436E-24
 -1       572 1.83097E-04 3.01599E-05 8.27181E-25
 -1       573 1.83196E-04 2.79121E-05-1.65436E-24
 -1       574 1.83295E-04 2.56307E-05-8.27181E-25
 -1       575 1.83394E-04 2.33319E-05-3.30872E-24
 -1       576 1.83494E-04 2.10324E-05 1.65436E-24
 -1       577 1.83593E-04 1.87486E-05 0.00000E+00
 -1       578 1.83693E-04 1.64970E-05 0.00000E+00
 -1       579 1.83792E-04 1.42941E-05-6.61744E-24
 -1       580 1.83892E-04 1.21564E-05 0.00000E+00
 -1       581 1.83992E-04 1.01005E-05 0.00000E+00
 -1       582 1.84092E-04 8.14276E-06 6.61744E-24
 -1       583 1.84192E-04 6.29968E-06 0.00000E+00
 -1       584 1.84293E-04 4.58758E-06 0.00000E+00
 -1       585 1.84393E-04 3.02260E-06 0.00000E+00
 -1       586 1.84662E-04 3.45296E-05 0.00000E+00
 -1       587 1.86381E-04 3.45687E-05 0.00000E+00
 -1       588 1.88102E-04 3.46075E-05 8.27181E-25
 -1       589 1.89868E-04 3.46456E-05 0.00000E+00
 -1       590 1.91723E-04 3.46825E-05 0.00000E+00
 -1       591 1.83632E-04 3.24513E-05 0.00000E+00
 -1       592 1.84367E-04 3.03928E-05-2.06795E-25
 -1       593 1.85106E-04 2.83202E-05 0.00000E+00
 -1       594 1.85848E-04 2.62383E-05 4.13590E-25
 -1       595 1.86591E-04 2.41518E-05 8.27181E-25
 -1       596 1.87335E-04 2.20653E-05-4.13590E-25
 -1       597 1.88076E-04 1.99836E-05 0.00000E+00
 -1       598 1.88815E-04 1.79114E-05 0.00000E+00
 -1       599 1.89547E-04 1.58534E-05 0.00000E+00
 -1       600 1.90273E-04 1.38143E-05 4.13590E-25
 -1       601 1.90990E-04 1.17987E-05 0.00000E+00
 -1       602 1.91697E-04 9.81126E-06-2.06795E-25
 -1       603 1.92392E-04 7.85680E-06 0.00000E+00
 -1       604 1.93073E-04 5.94006E-06 1.29247E-25
 -1       605 1.93738E-04 4.06564E-06 0.00000E+00
 -1       606 1.84507E-04 4.49589E-07 0.00000E+00
 -1       607 1.84516E-04-6.34464E-07 0.00000E+00
 -1       608 1.84525E-04-1.63769E-06 0.00000E+00
 -1       609 1.84534E-04-2.56577E-06-1.65436E-24
 -1       610 1.84542E-04-3.42446E-06 3.30872E-24
 -1       611 1.84550E-04-4.21953E-06 0.00000E+00
 -1       612 1.84559E-04-4.95679E-06 0.00000E+00
 -1       613 1.84567E-04-5.64207E-06 0.00000E+00
 -1       614 1.84575E-04-6.28117E-06 0.00000E+00
 -1       615 1.84584E-04-6.87989E-06 0.00000E+00
 -1       616 1.84592E-04-7.44407E-06 0.00000E+00
 -1       617 1.84600E-04-7.97950E-06 0.00000E+00
 -1       618 1.84609E-04-8.49200E-06-8.27181E-25
 -1       619 1.84617E-04-8.98739E-06 0.00000E+00
 -1       620 1.84625E-04-9.47148E-06-2.06795E-25
 -1       621 1.85858E-04 1.72339E-06 3.30872E-24
 -1       622 1.87380E-04 1.82752E-06-8.27181E-25
 -1       623 1.89028E-04 1.93143E-06-1.65436E-24
 -1       624 1.90768E-04 2.03501E-06 0.00000E+00
 -1       625 1.92567E-04 2.13831E-06-3.30872E-24
 -1       626 1.85044E-04 4.85680E-07-3.30872E-24
 -1       627 1.85572E-04-5.85065E-07 3.30872E-24
 -1       628 1.86080E-04-1.60058E-06 6.61744E-24
 -1       629 1.86570E-04-2.56902E-06-1.65436E-24
 -1       630 1.87045E-04-3.49860E-06-3.30872E-24
 -1       631 1.87509E-04-4.39752E-06 1.65436E-24
 -1       632 1.87965E-04-5.27398E-06-3.30872E-24
 -1       633 1.88416E-04-6.13620E-06-1.65436E-24
 -1       634 1.88864E-04-6.99240E-06 3.30872E-24
 -1       635 1.89313E-04-7.85078E-06-1.65436E-24
 -1       636 1.89765E-04-8.71956E-06 0.00000E+00
 -1       637 1.90225E-04-9.60695E-06 1.65436E-24
 -1       638 1.90695E-04-1.05212E-05 1.65436E-24
 -1       639 1.91177E-04-1.14704E-05-8.27181E-25
 -1       640 1.91675E-04-1.24630E-05-1.65436E-24
 -1       656 1.85344E-04-1.05282E-05 6.61744E-24
 -1       657 1.86475E-04-1.11299E-05 0.00000E+00
 -1       658 1.87887E-04-1.17301E-05 0.00000E+00
 -1       659 1.89433E-04-1.23301E-05 6.61744E-24
 -1       660 1.90928E-04-1.29318E-05 0.00000E+00
 -1       661 1.84899E-04-1.04737E-05-8.27181E-25
 -1       662 1.85203E-04-1.10892E-05 0.00000E+00
 -1       663 1.85539E-04-1.17912E-05 0.00000E+00
 -1       664 1.85906E-04-1.25734E-05 0.00000E+00
 -1       665 1.86300E-04-1.34298E-05 0.00000E+00
 -1       666 1.86720E-04-1.43545E-05 8.27181E-25
 -1       667 1.87164E-04-1.53420E-05 0.00000E+00
 -1       668 1.87629E-04-1.63866E-05 8.27181E-25
 -1       669 1.88113E-04-1.74829E-05 0.00000E+00
 -1       670 1.88615E-04-1.86256E-05 0.00000E+00
 -1       671 1.89132E-04-1.98095E-05 1.65436E-24
 -1       672 1.89662E-04-2.10296E-05 8.27181E-25
 -1       673 1.90204E-04-2.22807E-05 0.00000E+00
 -1       674 1.90755E-04-2.35583E-05-4.13590E-25
 -1       675 1.91314E-04-2.48570E-05 2.06795E-25
 -1       676 1.85101E-04-2.56562E-05 0.00000E+00
 -1       677 1.86460E-04-2.57604E-05 1.65436E-24
 -1       678 1.87818E-04-2.58646E-05 0.00000E+00
 -1       679 1.89174E-04-2.59685E-05 0.00000E+00
 -1       680 1.90526E-04-2.60723E-05 3.30872E-24
 -1       771 1.86376E-05 1.47911E-05 0.00000E+00
 -1       772 8.57820E-06 3.67543E-05 0.00000E+00
 -1       773 3.26033E-07 5.41687E-05 5.29396E-23
 -1       774-6.24331E-06 6.72925E-05-2.64698E-23
 -1       775-1.12516E-05 7.63941E-05 0.00000E+00
 -1       776-1.48255E-05 8.17589E-05-2.64698E-23
 -1       777-1.70913E-05 8.36823E-05-5.29396E-23
 -1       778-1.81782E-05 8.24736E-05 0.00000E+00
 -1       779-1.82145E-05 7.84504E-05-5.29396E-23
 -1       780-1.73306E-05 7.19422E-05 0.00000E+00
 -1       781-1.56560E-05 6.32847E-05-5.29396E-23
 -1       782-1.33217E-05 5.28230E-05 2.64698E-23
 -1       783-1.04577E-05 4.09065E-05-5.29396E-23
 -1       784-7.19562E-06 2.78909E-05 2.64698E-23
 -1       785-3.66565E-06 1.41351E-05 0.00000E+00
 -1       786 1.93747E-04 3.24583E-05-1.29247E-26
 -1       787 1.93789E-04 3.02512E-05-4.13590E-25
 -1       788 1.93831E-04 2.80858E-05 0.00000E+00
 -1       789 1.93873E-04 2.59539E-05 0.00000E+00
 -1       790 1.93916E-04 2.38508E-05 0.00000E+00
 -1       791 1.93959E-04 2.17717E-05 0.00000E+00
 -1       792 1.94001E-04 1.97145E-05-1.65436E-24
 -1       793 1.94044E-04 1.76769E-05 0.00000E+00
 -1       794 1.94087E-04 1.56589E-05 1.65436E-24
 -1       795 1.94130E-04 1.36601E-05 0.00000E+00
 -1       796 1.94173E-04 1.16826E-05-1.65436E-24
 -1       797 1.94216E-04 9.72808E-06 0.00000E+00
 -1       798 1.94260E-04 7.80090E-06 1.65436E-24
 -1       799 1.94303E-04 5.90537E-06 8.27181E-25
 -1       800 1.94346E-04 4.04899E-06 0.00000E+00
 -1       801 1.47862E-04 3.12104E-05-2.64698E-23
 -1       802 9.24710E-06 1.94709E-05-2.64698E-23
 -1       803-1.09125E-04 9.83789E-06 5.29396E-23
 -1       804-9.66756E-05 6.84863E-06-2.64698E-23
 -1       805-3.19316E-05 2.68927E-06 5.29396E-23
 -1       806 1.94440E-04 3.23896E-05 3.30872E-24
 -1       807 1.95157E-04 3.00899E-05 0.00000E+00
 -1       808 1.95862E-04 2.78215E-05-3.30872E-24
 -1       809 1.96553E-04 2.55886E-05 1.65436E-24
 -1       810 1.97229E-04 2.33951E-05 3.30872E-24
 -1       811 1.97889E-04 2.12450E-05 1.65436E-24
 -1       812 1.98532E-04 1.91422E-05 3.30872E-24
 -1       813 1.99155E-04 1.70908E-05 1.65436E-24
 -1       814 1.99758E-04 1.50945E-05 0.00000E+00
 -1       815 2.00338E-04 1.31573E-05-8.27181E-25
 -1       816 2.00896E-04 1.12831E-05-1.65436E-24
 -1       817 2.01428E-04 9.47580E-06-1.65436E-24
 -1       818 2.01934E-04 7.73927E-06 0.00000E+00
 -1       819 2.02412E-04 6.07740E-06 8.27181E-25
 -1       820 2.02861E-04 4.49401E-06 0.00000E+00
 -1       821 1.94261E-04-1.24208E-07 0.00000E+00
 -1       822 1.94121E-04-3.63719E-06 0.00000E+00
 -1       823 1.93978E-04-7.87293E-06 0.00000E+00
 -1       824 1.93833E-04-1.24003E-05-1.65436E-24
 -1       825 1.93689E-04-1.67093E-05 0.00000E+00
 -1       826 1.93547E-04-2.02913E-05-1.65436E-24
 -1       827 1.93409E-04-2.28356E-05-3.30872E-24
 -1       828 1.93272E-04-2.40378E-05-1.65436E-24
 -1       829 1.93137E-04-2.39588E-05-3.30872E-24
 -1       830 1.93000E-04-2.26674E-05 0.00000E+00
 -1       831 1.92863E-04-2.05621E-05 0.00000E+00
 -1       832 1.92724E-04-1.80468E-05 0.00000E+00
 -1       833 1.92586E-04-1.56368E-05 0.00000E+00
 -1       834 1.92451E-04-1.38468E-05 0.00000E+00
 -1       835 1.92317E-04-1.30235E-05 8.27181E-25
 -1       836 1.96084E-04 2.36435E-06 0.00000E+00
 -1       837 1.97652E-04 2.49245E-06 1.65436E-24
 -1       838 1.99123E-04 2.62049E-06 3.30872E-24
 -1       839 2.00531E-04 2.74782E-06 0.00000E+00
 -1       840 2.01907E-04 2.87500E-06 8.27181E-25
 -1       856 1.92174E-04-1.45738E-05 0.00000E+00
 -1       857 1.92155E-04-1.55047E-05 0.00000E+00
 -1       858 1.92136E-04-1.63210E-05-2.06795E-25
 -1       859 1.92116E-04-1.70439E-05-2.06795E-25
 -1       860 1.92096E-04-1.76944E-05 4.13590E-25
 -1       861 1.92076E-04-1.82941E-05 2.06795E-25
 -1       862 1.92057E-04-1.88640E-05 4.13590E-25
 -1       863 1.92037E-04-1.94257E-05 0.00000E+00
 -1       864 1.92017E-04-2.00003E-05 8.27181E-25
 -1       865 1.91997E-04-2.06093E-05 4.13590E-25
 -1       866 1.91977E-04-2.12740E-05 0.00000E+00
 -1       867 1.91957E-04-2.20155E-05 4.13590E-25
 -1       868 1.91937E-04-2.28552E-05 8.27181E-25
 -1       869 1.91917E-04-2.38142E-05 0.00000E+00
 -1       870 1.91896E-04-2.49134E-05 8.27181E-25
 -1       871 1.93545E-04-1.35122E-05 0.00000E+00
 -1       872 1.95046E-04-1.35205E-05 0.00000E+00
 -1       873 1.96627E-04-1.35295E-05 0.00000E+00
 -1       874 1.98219E-04-1.35393E-05 7.75482E-26
 -1       875 1.99754E-04-1.35496E-05 8.27181E-25
 -1       876 1.92717E-04-1.45593E-05 0.00000E+00
 -1       877 1.93222E-04-1.55445E-05-1.65436E-24
 -1       878 1.93705E-04-1.64710E-05-3.30872E-24
 -1       879 1.94170E-04-1.73460E-05-1.65436E-24
 -1       880 1.94618E-04-1.81770E-05 3.30872E-24
 -1       881 1.95052E-04-1.89713E-05 0.00000E+00
 -1       882 1.95475E-04-1.97363E-05 3.30872E-24
 -1       883 1.95890E-04-2.04793E-05-1.65436E-24
 -1       884 1.96300E-04-2.12077E-05 0.00000E+00
 -1       885 1.96706E-04-2.19288E-05 1.65436E-24
 -1       886 1.97113E-04-2.26500E-05 3.30872E-24
 -1       887 1.97522E-04-2.33785E-05 0.00000E+00
 -1       888 1.97937E-04-2.41218E-05-3.30872E-24
 -1       889 1.98359E-04-2.48873E-05-1.65436E-24
 -1       890 1.98792E-04-2.56824E-05 0.00000E+00
 -1       891 1.93243E-04-2.62314E-05 1.65436E-24
 -1       892 1.94588E-04-2.62891E-05-8.27181E-25
 -1       893 1.95885E-04-2.63467E-05 1.65436E-24
 -1       894 1.97108E-04-2.64040E-05 4.13590E-25
 -1       895 1.98232E-04-2.64611E-05-4.13590E-25
 -1       956 2.03151E-04 1.66639E-06 1.65436E-24
 -1       957 2.03019E-04 4.31382E-07-8.27181E-25
 -1       958 2.02886E-04-7.22846E-07 0.00000E+00
 -1       959 2.02754E-04-1.80763E-06-1.65436E-24
 -1       960 2.02621E-04-2.83434E-06-3.30872E-24
 -1       961 2.02488E-04-3.81439E-06 0.00000E+00
 -1       962 2.02355E-04-4.75921E-06 0.00000E+00
 -1       963 2.02223E-04-5.68024E-06 0.00000E+00
 -1       964 2.02090E-04-6.58891E-06 3.30872E-24
 -1       965 2.01957E-04-7.49666E-06-1.65436E-24
 -1       966 2.01824E-04-8.41494E-06 0.00000E+00
 -1       967 2.01692E-04-9.35517E-06-1.65436E-24
 -1       968 2.01559E-04-1.03288E-05 0.00000E+00
 -1       969 2.01427E-04-1.13472E-05 0.00000E+00
 -1       970 2.01295E-04-1.24218E-05-3.30872E-24
 -1       971 2.01044E-04-1.47046E-05 3.30872E-24
 -1       972 2.00923E-04-1.57512E-05 0.00000E+00
 -1       973 2.00802E-04-1.67137E-05 0.00000E+00
 -1       974 2.00680E-04-1.76028E-05 0.00000E+00
 -1       975 2.00559E-04-1.84296E-05 3.30872E-24
 -1       976 2.00438E-04-1.92047E-05 1.65436E-24
 -1       977 2.00316E-04-1.99392E-05-3.30872E-24
 -1       978 2.00195E-04-2.06438E-05-1.65436E-24
 -1       979 2.00073E-04-2.13296E-05 3.30872E-24
 -1       980 1.99952E-04-2.20073E-05-1.65436E-24
 -1       981 1.99831E-04-2.26880E-05 0.00000E+00
 -1       982 1.99710E-04-2.33825E-05-1.65436E-24
 -1       983 1.99589E-04-2.41017E-05 3.30872E-24
 -1       984 1.99468E-04-2.48565E-05 0.00000E+00
 -1       985 1.99348E-04-2.56579E-05 0.00000E+00
 -3
    1PSTEP                        26          13           1          
  100CL  113 6.62796E-01         409                     0   13           1
 -4  STRESS      6    1
 -5  SXX         1    4    1    1
 -5  SYY         1    4    2    2
 -5  SZZ         1    4    3    3
 -5  SXY         1    4    1    2
 -5  SYZ         1    4    2    3
 -5  SZX         1    4    3    1
 -1         1-5.34854E+06-1.55675E+06-1.13155E+06-1.30602E+06 6.83940E-10 4.61296E-08
 -1         2 1.57118E+06 2.29751E+07 5.32354E+06 6.97081E+06 2.99478E-08 4.32046E-08
 -1         3-1.48780E+03-1.55304E+06 4.04793E+02-2.20413E+03-4.66528E-10-2.79979E-08
 -1         5-7.74994E+01 3.90151E+05 2.11678E+01 7.29292E+00-8.73747E-10-3.56958E-08
 -1         8-5.49832E+05-1.99713E+05-6.25693E+04-2.40804E+05 2.00089E-10 1.00481E-07
 -1         9 1.18430E+07 4.03704E+06 2.84206E+06-2.74797E+05-1.41794E-08 1.26660E-07
 -1        10-2.30266E+03-1.61838E+06-3.93355E+03-1.49154E+04-1.34478E-08-7.84419E-08
 -1        12-7.79578E+01 3.88197E+05 3.10997E+02-3.93170E+00 1.50976E-10-3.84569E-08
 -1        15 9.17034E+02 5.03955E+02 2.96429E+03 7.97577E-01-1.99918E-10 2.21611E-08
 -1        16 2.29344E+07-3.40868E+05 3.11905E+06-2.31384E+06-1.92861E-08-1.18045E-07
 -1        17 8.40131E+06 6.29317E+06 2.26894E+06 6.01875E+06 2.61003E-08 2.05007E-08
 -1        18 1.42586E+05 3.35679E+04 4.23620E+03-1.19505E+05 1.51513E-08-4.81987E-09
 -1        19 1.22360E+05 1.41619E+05-9.44713E+02 2.19583E+04 1.57706E-09 3.72529E-09
 -1        20-8.18761E+04-5.73449E+05-1.28674E+05 2.51255E+04-1.60132E-09 1.96930E-08
 -1        21-4.55581E+01-2.95937E+05-9.23781E+02 2.76121E+02 2.00079E-08 2.43695E-08
 -1        24 1.41022E+07 1.21366E+07 3.90209E+06 1.12362E+07-1.68686E-07-5.61704E-08
 -1        25 1.25614E+05 2.69633E+05 1.00587E+05-6.47344E+05-2.60761E-09 9.23901E-09
 -1        26-5.53613E+04 9.22594E+04-2.46200E+04 1.27543E+03-1.92813E-10 1.04313E-08
 -1        27-7.55786E+04-3.09824E+05-1.13267E+05 6.89433E+04 3.47488E-09 8.81209E-09
 -1        28 2.22340E+04-8.53220E+04 1.68928E+04 2.06151E+04-3.91066E-09-2.51433E-09
 -1        32-1.68025E+06-3.18238E+06-1.97859E+05 4.61380E+05-4.28117E-08-8.77844E-09
 -1        33-1.78398E+05 9.29680E+04 3.23758E+04-3.84891E+04-3.18479E-09-1.17658E-09
 -1        34-2.23518E+05-2.50192E+04 6.89311E+02 7.56225E+04-4.13157E-09 2.73909E-09
 -1        35-2.29241E+04-3.38374E+04-1.34800E+03 5.14834E+04-2.31068E-09-2.39743E-09
 -1        51 6.09784E+04-1.69653E+05 1.28873E+05-4.31007E+05-3.05590E-10 2.70185E-07
 -1        52 2.05991E+04-1.47080E+05 6.75338E+04-5.02694E+05-6.54836E-11 2.01504E-07
 -1        53 4.14244E+03-1.62421E+05 3.50227E+04-4.29533E+05 3.12866E-10-1.22403E-07
 -1        54 7.20319E+03-1.58202E+05 2.84867E+04-5.04132E+05 3.63798E-11-3.31682E-07
 -1        55 1.57155E+04-1.65094E+05 3.43080E+04-4.29451E+05 4.25644E-10-7.83984E-09
 -1        56-9.82578E+06-1.41520E+06-9.33062E+05-4.12686E+06-1.76951E-08 2.41562E-09
 -1        57-1.11663E+07-7.20809E+05-5.42516E+05-2.62916E+06 4.53365E-08-6.43267E-08
 -1        58-9.57851E+06-1.89765E+06-2.02355E+05-4.34103E+06-2.02053E-08 8.14471E-08
 -1        59-1.14107E+07-1.56794E+05-1.06075E+05-2.55132E+06-1.07138E-08-8.08432E-08
 -1        60-9.68008E+06-1.90058E+06-5.98055E+04-4.29138E+06-1.93686E-08-4.39468E-09
 -1        61-1.06611E+07-5.36621E+05 2.52008E+04-2.80765E+06-6.98492E-10 7.59428E-08
 -1        62-1.01629E+07-1.62954E+06-9.10217E+04-3.95234E+06-5.45697E-09-2.18017E-07
 -1        63-9.63102E+06-1.33596E+06 6.91725E+04-3.57757E+06-4.12983E-08-4.66971E-08
 -1        64-1.05752E+07-1.19770E+06-8.38738E+04-3.43700E+06-5.31145E-09 8.78026E-08
 -1        65-9.24168E+06-2.00508E+06 2.12596E+04-4.60697E+06-9.61809E-08-2.11243E-07
 -1        66-1.07066E+07-8.53242E+05-4.83382E+04-3.04001E+06 1.04264E-08-4.94147E-08
 -1        67-9.28505E+06-2.27973E+06-9.53127E+04-5.10002E+06-3.19578E-08 4.41047E-07
 -1        68-1.06868E+07-8.13709E+05-1.88719E+05-3.03915E+06-4.44779E-08-3.53175E-08
 -1        69-9.43520E+06-2.34369E+06-4.80846E+05-4.57519E+06-1.79480E-08-1.83143E-07
 -1        70-1.04116E+07-9.03312E+05-8.59085E+05-3.47166E+06 3.27109E-08-8.39354E-08
 -1        86-1.60340E+06-1.61610E+07-2.91540E+06-3.27049E+06-2.86178E-07-4.03088E-08
 -1        87 2.53459E+06 6.67687E+06 2.42427E+06 5.98574E+06-4.90742E-07 6.14018E-08
 -1        88-4.84246E+05-1.88747E+06 2.30948E+05-2.63555E+06-4.11837E-07-7.77027E-08
 -1        89 3.39250E+06 6.35732E+06 2.48572E+06 6.19182E+06-5.94293E-07-2.61825E-07
 -1        90-2.35973E+06-1.59228E+07-3.14510E+06-3.50885E+06-1.48055E-07 3.92029E-08
 -1       121-2.03794E+03-1.55794E+06-5.48347E+02 1.09244E+03 1.55649E-09-6.43195E-09
 -1       122-1.30267E+03-1.55310E+06 7.67114E+02-4.41247E+03-5.32566E-09-2.20971E-08
 -1       123-2.05765E+03-1.55808E+06 2.56704E+02 3.26269E+03 4.49256E-09-3.53321E-08
 -1       124 3.27843E+02-1.55266E+06 2.93871E+03-9.23521E+03-1.05510E-08 9.80071E-09
 -1       125-2.86372E+03-1.55897E+06 3.44397E+03 5.86919E+03 6.60839E-09-2.35159E-08
 -1       191-8.15841E+01 3.90168E+05 2.19056E+01-3.61605E+00 3.73745E-10-2.59406E-08
 -1       192-7.49778E+01 3.90153E+05 4.58543E+01 3.74213E+01 4.79474E-10 3.25690E-09
 -1       193-7.33847E+01 3.90164E+05 8.18303E+01-3.36284E+01 1.27329E-09-1.21527E-08
 -1       194-3.34773E+01 3.90168E+05 1.81084E+02 3.08793E+02 1.05410E-09-3.43789E-08
 -1       195 4.82938E+01 3.90140E+05 3.58144E+02-2.74965E+02 2.14277E-09-3.43061E-08
 -1       251-8.62601E+05 1.63201E+04-3.80915E+04-1.47022E+04-5.51751E-09 6.35500E-08
 -1       252-8.76921E+05-1.88920E+04-2.64841E+04 5.22266E+04 1.64321E-08 6.82462E-08
 -1       253-8.71182E+05 2.50498E+03-1.02808E+04-1.03609E+04-9.24138E-09-5.89444E-08
 -1       254-8.63093E+05-3.04811E+03-4.51433E+03 3.72093E+04 2.20953E-08-2.75612E-07
 -1       255-8.75779E+05 4.08871E+01-3.62154E+03 3.10930E+02-1.36347E-08 3.54615E-08
 -1       256-8.57426E+05-2.73674E+02 1.30949E+03 1.29898E+04 1.48211E-08 2.39245E-07
 -1       257-8.76379E+05-6.16639E+02-1.47539E+03 1.38461E+04 9.00400E-10 1.05745E-07
 -1       258-8.60432E+05 9.57675E+02 2.82373E+03-1.24760E+04-2.18134E-08 6.71385E-08
 -1       259-8.73036E+05-9.87793E+02 1.33378E+03 2.57741E+04-1.15165E-09 1.86556E-07
 -1       260-8.67266E+05 3.03783E+03 5.63162E+03-3.08500E+04-8.23633E-09-5.11122E-07
 -1       261-8.70221E+05-2.17665E+03 8.68565E+03 3.22379E+04 1.61187E-08 3.85244E-08
 -1       262-8.66120E+05 1.19357E+04 2.15864E+04-3.62374E+04 1.37568E-09 5.84019E-07
 -1       263-8.74451E+05-9.64397E+03 3.41829E+04 3.11721E+04 3.64071E-09 1.83760E-07
 -1       264-8.35221E+05 6.73765E+04 9.47180E+04-2.67719E+04 3.56254E-08 2.65165E-07
 -1       265-9.00596E+05-5.77686E+04 1.31758E+05 2.27588E+04 2.30614E-08 2.06492E-07
 -1       266-1.66016E+04-7.76376E+03 3.89482E+04-1.70643E+01-1.45519E-11 3.26965E-08
 -1       267 1.92456E+04 9.04753E+03 2.75300E+04 1.96906E+01 2.95586E-11 6.23572E-10
 -1       268-2.58081E+03-1.28145E+03 1.02327E+04-2.50882E+00-1.71440E-10-4.93815E-08
 -1       269 3.04716E+03 1.53355E+03 6.65117E+03 2.92251E+00-1.76215E-11-5.14263E-08
 -1       270-4.57383E+02-2.51977E+02 3.21061E+03-3.96600E-01-1.14710E-10-1.46153E-07
 -1       271-1.45625E+06-1.86044E+05-1.09801E+05-5.67135E+05 3.35058E-09 7.84130E-08
 -1       272-1.44767E+06-3.00886E+05-6.87930E+04-6.08831E+05-9.11314E-10 7.21921E-08
 -1       273-1.47955E+06-2.09080E+05-2.66913E+04-5.59094E+05 5.68616E-09 4.06180E-09
 -1       274-1.42137E+06-2.73077E+05-1.37877E+04-6.24226E+05 1.03155E-08 1.72909E-07
 -1       275-1.48516E+06-2.08483E+05-6.68678E+03-5.55289E+05 3.83043E-08 2.02873E-07
 -1       276-1.41594E+06-2.74105E+05-2.76688E+03-6.33073E+05 4.05762E-08-4.25362E-07
 -1       277-1.48802E+06-2.05771E+05-1.86124E+03-5.52535E+05-1.73004E-08 2.22428E-07
 -1       278-1.41391E+06-2.77311E+05-6.76946E+02-6.39563E+05 3.77913E-08 2.27335E-07
 -1       279-1.48983E+06-2.03582E+05-8.38416E+02-5.50616E+05-2.19006E-08-1.91148E-07
 -1       280-1.41300E+06-2.79683E+05-9.22426E+02-6.43792E+05 6.68310E-08-6.80247E-08
 -1       281-1.49078E+06-2.02232E+05-1.70819E+03-5.49552E+05 3.76076E-08 1.47307E-07
 -1       282-1.41337E+06-2.81743E+05-3.96635E+03-6.45482E+05-6.57974E-08 2.47297E-07
 -1       283-1.49031E+06-2.01094E+05-7.06328E+03-5.49450E+05 3.52925E-08 6.17019E-08
 -1       284-1.41973E+06-2.90897E+05-1.92324E+04-6.43278E+05-2.97106E-08-1.77169E-07
 -1       285-1.48427E+06-1.94228E+05-3.00709E+04-5.51219E+05-1.12723E-08-3.66801E-07
 -1       301-9.14280E+03-6.51558E+05 1.66578E+05-1.14744E+06 3.89991E-09 9.08767E-08
 -1       302-1.14239E+04-6.04275E+05 1.00251E+05-1.67453E+06-1.83063E-08-2.45345E-07
 -1       303-2.33961E+04-6.44559E+05 5.65176E+04-1.14426E+06 1.25146E-08 1.74459E-07
 -1       304-2.71786E+04-6.11765E+05 5.66566E+04-1.67399E+06-2.67319E-08 2.36716E-07
 -1       305-2.78603E+04-6.33195E+05 6.93681E+04-1.14735E+06-3.57250E-09-3.37750E-08
 -1       306-3.01170E+07-6.21178E+06-8.60441E+06-4.77070E+05-7.83475E-08-8.53906E-08
 -1       307 2.52322E+07 3.29387E+06 5.50038E+06-1.52976E+07-7.59377E-07-2.73809E-07
 -1       308-6.89541E+06-1.00579E+06-4.28914E+05 5.20879E+06-1.91212E-07 2.87662E-07
 -1       309-3.16326E+06 8.73020E+06 2.29701E+06-2.07128E+07 3.22056E-07 1.58172E-07
 -1       310-1.26880E+07-1.95890E+06-2.07330E+06 5.21581E+06 9.03965E-08-2.43512E-07
 -1       311 3.87582E+07-1.13914E+04 7.32595E+06-8.67705E+06 3.75527E-07-1.96102E-07
 -1       312-3.19971E+07-6.83418E+06-8.57426E+06-5.13686E+06 1.45985E-07-3.04237E-07
 -1       313 4.53768E+07 1.52405E+07 1.06951E+07 2.39833E+07 3.37604E-09-3.60655E-07
 -1       314-1.71286E+07-1.78901E+07-7.52788E+06-1.25384E+07 5.50353E-07-7.04895E-08
 -1       315-1.97839E+06 2.98362E+07 5.66248E+06 1.04130E+07-3.13652E-07 4.34957E-07
 -1       316 1.44898E+06-9.81934E+06-4.22327E+05-2.47762E+06-1.02256E-06-2.55008E-07
 -1       317-1.70837E+07 2.24462E+07 2.24972E+06-8.90911E+06 7.11043E-07-7.42031E-07
 -1       318-1.09418E+06-1.28708E+07-2.07231E+06-4.24511E+06-9.79926E-07 7.09551E-08
 -1       319 7.32697E+06 3.21249E+07 7.08082E+06 1.67168E+07-8.19928E-08 1.98605E-07
 -1       320-2.26611E+07-1.77013E+07-9.89148E+06-1.28501E+07 2.04891E-07-6.39993E-08
 -1       336-7.52983E+02-1.68653E+06-1.38041E+04 8.87638E+03-2.64008E-08-2.71975E-08
 -1       337-5.39754E+03-1.68605E+06-1.80070E+04-2.15678E+04-4.96648E-08-1.55396E-08
 -1       338 2.64823E+02-1.68601E+06-2.83724E+04 1.24402E+04-3.49037E-08 3.45244E-09
 -1       339-3.01096E+04-1.70323E+06-6.41141E+04-2.85504E+04-6.27915E-08 2.85909E-08
 -1       340 1.98192E+04-1.67152E+06-1.01004E+05 1.57281E+04-4.22042E-08 2.91366E-08
 -1       406-1.92684E+02 3.86248E+05 4.29408E+02 2.79147E+02-1.78625E-09-1.85955E-08
 -1       407 1.04939E+02 3.86358E+05 1.27159E+03-2.89984E+02-2.59206E-10-9.06493E-09
 -1       408 6.23239E+02 3.86143E+05 2.69889E+03 1.05630E+01-2.30159E-09 1.09267E-08
 -1       409 2.90275E+03 3.87251E+05 6.16387E+03 2.44183E+02-2.39424E-10-2.93858E-09
 -1       410 8.47729E+03 3.85353E+05 1.26151E+04-2.71549E+02-2.90129E-09-4.07999E-09
 -1       521-3.17229E+07-7.68995E+06-1.00809E+07-7.91608E+04-3.07336E-08 3.17232E-08
 -1       522 2.61631E+07 4.35776E+06 5.62509E+06-1.88530E+07-5.23287E-07-8.23056E-08
 -1       523-7.46583E+06-1.32415E+06-4.20297E+05 5.66820E+06 1.94908E-07 9.23174E-08
 -1       524-6.66983E+06 1.18472E+07 2.49277E+06-2.38208E+07 7.57194E-07-2.57154E-07
 -1       525-1.34914E+07-2.61194E+06-2.28584E+06 5.68285E+06 7.17293E-07-4.09374E-07
 -1       526 4.24467E+07-1.13766E+05 7.70609E+06-1.13379E+07 6.71658E-07-1.04570E-07
 -1       527-3.39135E+07-8.55759E+06-9.90959E+06-5.00644E+06-5.23869E-09-5.10190E-08
 -1       528 4.96601E+07 1.70582E+07 1.11827E+07 2.73546E+07-4.38944E-07-1.24768E-07
 -1       529-1.80846E+07-2.01588E+07-8.65361E+06-1.25822E+07 1.96509E-07-4.31784E-07
 -1       530-4.47018E+06 3.47369E+07 6.00917E+06 9.83957E+06-2.55532E-08 3.20666E-07
 -1       531 1.46213E+06-1.09024E+07-3.93614E+05-2.40651E+06-7.71397E-07 3.20026E-07
 -1       532-1.95761E+07 2.44797E+07 2.46670E+06-1.32835E+07 4.77390E-07-6.82572E-07
 -1       533-1.13265E+06-1.40522E+07-2.21511E+06-4.03475E+06-2.86294E-07-1.10379E-06
 -1       534 5.34467E+06 3.73954E+07 7.38904E+06 1.73389E+07-1.51165E-07 8.21194E-07
 -1       535-2.38827E+07-2.01569E+07-1.13714E+07-1.29408E+07 1.05472E-07 4.62052E-07
 -1       536-7.06640E+05-4.67119E+04-4.85281E+04-5.47488E+04-5.49062E-09 4.45980E-08
 -1       537-5.44121E+04 4.46314E+04 8.38801E+04 1.23982E+05-1.05204E-07 7.94867E-08
 -1       538-3.94468E+05 3.36644E+03 3.48496E+03-7.22737E+04 3.10658E-08 9.22291E-08
 -1       539-2.68910E+05 2.83972E+03 2.49150E+04 1.38886E+05 1.58720E-07 1.17291E-07
 -1       540-4.97532E+05-4.25173E+02-2.13713E+04-7.01892E+04-1.02505E-08 1.02255E-07
 -1       541 1.47466E+05 1.69958E+04 1.06544E+05 9.80574E+04-7.83057E-08 7.46483E-08
 -1       542-7.99624E+05-2.01672E+04-8.43777E+04-3.05675E+04 7.21348E-08 6.10713E-08
 -1       543 4.06638E+05 2.73711E+04 1.58234E+05-1.33641E+04 5.85339E-08 6.02267E-09
 -1       544-7.49752E+05-1.65668E+04-7.49661E+04 4.05613E+04 2.38674E-08-5.29609E-08
 -1       545 2.96747E+04 9.50360E+03 7.99560E+04-1.13749E+05-1.38955E-08-1.05615E-07
 -1       546-4.32786E+05 6.10299E+03-1.22495E+04 6.94696E+04-1.09585E-08-7.90168E-08
 -1       547-2.86984E+05-4.65485E+03 1.06213E+04-1.41732E+05-9.81885E-08-1.01983E-07
 -1       548-4.41607E+05 4.72190E+03-2.38972E+04 6.92378E+04-1.03965E-07-8.34953E-08
 -1       549 4.88382E+04 1.61448E+04 6.06768E+04-1.11617E+05-5.32974E-08-6.03814E-08
 -1       550-7.59623E+05-2.22168E+04-1.29093E+05 3.86368E+04 1.41035E-08-1.69657E-08
 -1       551 4.07681E+04-7.48863E+05-1.59469E+04-1.24667E+06-1.02664E-07-1.26020E-08
 -1       552 9.32244E+04-7.93842E+05 9.87549E+03-1.77756E+06-7.33125E-08 2.05036E-08
 -1       553 7.17400E+04-7.90243E+05 3.19946E+04-1.24002E+06-1.19820E-07 6.57747E-09
 -1       554 1.32010E+05-8.09745E+05 8.09806E+04-1.77951E+06-7.78964E-08 1.18835E-08
 -1       555 1.01472E+05-8.13894E+05 1.47906E+05-1.23985E+06-1.25794E-07-1.50994E-08
 -1       556 2.23753E+05-3.83718E+05 2.55002E+04-4.07175E+05-2.20607E-08-1.86556E-08
 -1       557 3.54273E+05-4.88053E+05 1.60190E+04-5.27627E+05-6.98492E-09 1.87356E-09
 -1       558 2.05505E+05-3.76466E+05 2.26667E+03-4.11647E+05-1.65310E-08 6.38829E-09
 -1       559 3.29282E+05-4.88089E+05 2.41259E+03-5.48084E+05 1.82772E-08-1.55342E-09
 -1       560 1.90193E+05-3.66865E+05-1.51965E+03-4.22681E+05 7.59610E-09 8.32370E-09
 -1       561 3.10046E+05-4.80388E+05 1.23115E+02-5.61201E+05-2.00816E-09 2.97041E-09
 -1       562 1.78087E+05-3.59344E+05-1.33131E+03-4.31448E+05-2.32831E-10 1.17798E-08
 -1       563 2.95665E+05-4.74119E+05-3.88754E+01-5.70594E+05-9.08040E-09-5.64887E-09
 -1       564 1.69445E+05-3.53960E+05-6.02654E+02-4.37572E+05 1.01281E-08 1.43041E-08
 -1       565 2.86124E+05-4.69964E+05 2.32219E+01-5.76690E+05 2.64845E-08 1.50239E-08
 -1       566 1.64391E+05-3.50763E+05-2.60926E+02-4.41107E+05 1.67347E-10-1.06465E-08
 -1       567 2.81484E+05-4.67945E+05-3.63022E+02-5.79508E+05 1.55396E-08 7.71979E-09
 -1       568 1.63016E+05-3.49920E+05-1.12642E+03-4.42164E+05-1.22418E-09 1.89211E-08
 -1       569 2.80356E+05-4.67870E+05-2.84491E+03-5.78084E+05-4.49108E-09 2.37997E-08
 -1       570 1.66413E+05-3.53153E+05-6.21871E+03-4.41146E+05 9.90985E-09 4.03725E-09
 -1       571 2.90395E+05 1.05054E+04 1.49850E+04-9.51623E+04 5.60794E-09 4.09273E-12
 -1       572 2.92567E+05 3.96080E+03 7.34388E+03-1.04403E+05 2.99769E-09-6.72117E-09
 -1       573 2.91258E+05 1.24698E+03 3.26312E+03-9.49859E+04 1.82263E-09-6.17092E-09
 -1       574 2.91471E+05 7.28800E+02 1.63643E+03-1.04627E+05 2.76668E-09 1.84036E-08
 -1       575 2.91351E+05 4.49536E+02 7.72349E+02-9.49618E+04-2.19616E-09 3.21324E-09
 -1       576 2.91335E+05 4.61043E+02 3.95439E+02-1.04657E+05-1.00611E-08-2.21853E-08
 -1       577 2.91391E+05 3.91463E+02 1.97406E+02-9.49585E+04-9.30413E-09 4.17276E-09
 -1       578 2.91366E+05 4.23005E+02 1.14038E+02-1.04661E+05-7.23185E-09-1.08739E-08
 -1       579 2.91463E+05 3.54798E+02 7.83297E+01-9.49581E+04 6.52108E-09 2.90402E-09
 -1       580 2.91468E+05 3.72004E+02 9.09173E+01-1.04656E+05-8.24730E-09 1.45646E-08
 -1       581 2.91577E+05 2.96251E+02 1.37339E+02-9.49640E+04 6.74481E-09-7.94898E-09
 -1       582 2.91643E+05 3.34655E+02 2.79239E+02-1.04594E+05 5.61522E-09-2.59533E-08
 -1       583 2.91717E+05 3.38695E+02 5.35971E+02-9.50206E+04 6.36646E-10 4.44379E-09
 -1       584 2.92018E+05 7.76604E+02 1.21285E+03-1.04118E+05 6.25732E-09 8.53061E-09
 -1       585 2.91743E+05 1.79722E+03 2.45598E+03-9.54396E+04 3.01952E-10-9.97898E-09
 -1       586-3.42569E+03 1.16864E+05-2.91349E+03-2.50591E+05-6.73936E-09-2.42071E-08
 -1       587-1.34179E+03 1.16616E+05 7.73616E+02-2.75794E+05-6.00085E-09-3.51519E-08
 -1       588 3.95851E+02 1.16422E+05 4.76173E+03-2.50453E+05-3.11775E-09-1.01118E-08
 -1       589 5.08338E+03 1.18896E+05 1.23482E+04-2.75561E+05-9.76615E-09 3.16504E-09
 -1       590 1.66113E+04 1.15088E+05 2.59022E+04-2.50884E+05-4.68754E-09-4.38376E-10
 -1       591-7.50004E+04-1.59763E+04-2.25264E+04-3.19666E+04-5.45629E-09-1.75132E-08
 -1       592-7.90878E+04-1.95348E+04-1.22021E+04-3.55931E+04-8.92449E-09 7.17137E-09
 -1       593-7.72534E+04-1.43417E+04-5.07912E+03-3.36183E+04-4.09441E-09 1.82399E-08
 -1       594-7.59776E+04-1.62294E+04-2.53309E+03-3.57108E+04 1.81026E-09 1.09953E-08
 -1       595-7.74251E+04-1.43363E+04-1.16294E+03-3.36933E+04-1.96215E-09 7.13194E-09
 -1       596-7.57646E+04-1.60782E+04-5.90973E+02-3.56855E+04 1.90150E-09 1.96329E-09
 -1       597-7.74467E+04-1.43517E+04-3.21353E+02-3.36962E+04 6.08730E-09-1.55403E-08
 -1       598-7.57436E+04-1.60722E+04-2.57506E+02-3.56784E+04-6.22117E-09 1.33052E-08
 -1       599-7.74454E+04-1.43522E+04-3.27906E+02-3.36958E+04-7.04722E-09-9.30186E-10
 -1       600-7.57646E+04-1.60787E+04-6.08321E+02-3.56834E+04-4.21721E-09 9.35717E-09
 -1       601-7.74208E+04-1.43377E+04-1.19966E+03-3.36924E+04-5.28553E-09-1.37420E-08
 -1       602-7.59843E+04-1.62335E+04-2.61431E+03-3.57056E+04-7.16318E-09-6.78028E-09
 -1       603-7.72408E+04-1.43461E+04-5.24265E+03-3.36157E+04 8.81982E-10-5.29053E-09
 -1       604-7.92122E+04-1.96258E+04-1.25941E+04-3.55592E+04 4.02849E-09-8.66748E-09
 -1       605-7.48954E+04-1.60511E+04-2.32502E+04-3.19304E+04 1.80648E-09 1.39189E-08
 -1       606 2.66931E+04-1.43254E+04-2.56797E+04 2.39884E+04 9.15679E-09-9.65360E-09
 -1       607 2.23053E+04-4.67900E+03-1.27884E+04 2.69581E+04 1.85810E-09-1.49607E-08
 -1       608 2.48060E+04-8.44437E+02-5.72494E+03 2.38199E+04-3.79805E-09 2.65186E-09
 -1       609 2.43267E+04-2.89637E+02-2.89209E+03 2.71722E+04-1.59162E-10 2.33440E-08
 -1       610 2.45924E+04-4.14018E+01-1.37985E+03 2.37998E+04 2.85127E-09 8.63633E-09
 -1       611 2.45172E+04-4.17260E+01-6.95708E+02 2.71953E+04 6.29370E-09-6.57815E-09
 -1       612 2.45454E+04-2.76955E+01-3.30723E+02 2.37978E+04 1.41517E-09-1.56053E-08
 -1       613 2.45288E+04-3.76352E+01-1.48174E+02 2.71980E+04 3.63616E-09-4.01710E-08
 -1       614 2.45232E+04-3.41120E+01-3.46714E+01 2.37971E+04 4.03452E-09 3.58114E-09
 -1       615 2.45236E+04-3.61455E+01 6.22857E+01 2.71984E+04 8.09905E-10 3.42516E-09
 -1       616 2.45058E+04-3.09884E+01 1.86606E+02 2.37973E+04 1.83081E-09-1.08323E-08
 -1       617 2.45460E+04 3.61822E+00 4.25685E+02 2.71979E+04 2.26237E-09 5.02087E-09
 -1       618 2.44688E+04 9.17266E+01 8.58013E+02 2.37976E+04 1.55887E-09-2.00816E-09
 -1       619 2.48489E+04 6.67033E+02 1.92672E+03 2.71973E+04-2.90629E-09 1.02400E-08
 -1       620 2.41839E+04 2.12630E+03 3.87264E+03 2.37992E+04-9.09040E-10 4.55520E-09
 -1       621 5.11675E+02 3.01378E+05 3.88527E+03 4.09981E+04 1.06775E-09 1.05583E-08
 -1       622 6.77962E+02 3.02274E+05 3.44757E+03 5.95188E+04 1.26010E-09-1.36347E-08
 -1       623 1.43372E+02 3.01572E+05 4.14212E+03 4.08126E+04 1.20826E-09 5.65979E-09
 -1       624 2.12706E+03 3.03492E+05 8.02939E+03 5.97013E+04 1.20548E-09 8.50559E-09
 -1       625 2.07793E+03 2.99980E+05 1.40307E+04 4.08094E+04 1.38471E-09 1.04592E-08
 -1       626 2.60790E+05 6.13930E+04 5.11732E+03 1.26702E+05 6.80802E-09 1.24073E-08
 -1       627 2.58473E+05 6.27905E+04 2.46599E+03 1.30974E+05 9.20227E-09 7.54289E-09
 -1       628 2.60918E+05 5.90515E+04 1.04294E+03 1.27572E+05-3.20142E-09-2.19347E-09
 -1       629 2.57837E+05 6.21109E+04 5.10466E+02 1.31214E+05-6.47060E-09 4.06462E-09
 -1       630 2.60933E+05 5.89383E+04 2.36895E+02 1.27608E+05 6.54245E-09-1.03388E-08
 -1       631 2.57771E+05 6.20850E+04 1.27618E+02 1.31216E+05 2.89701E-08 1.68161E-08
 -1       632 2.60929E+05 5.89423E+04 8.42164E+01 1.27604E+05 1.98515E-08-1.48193E-08
 -1       633 2.57762E+05 6.20869E+04 9.41854E+01 1.31212E+05 7.49810E-09-1.40917E-08
 -1       634 2.60925E+05 5.89395E+04 1.52532E+02 1.27604E+05-2.98212E-09 2.77555E-09
 -1       635 2.57777E+05 6.20851E+04 3.08849E+02 1.31218E+05-6.94632E-09 1.55096E-08
 -1       636 2.60915E+05 5.89337E+04 6.23824E+02 1.27603E+05 9.53742E-09 3.10092E-09
 -1       637 2.57912E+05 6.21822E+04 1.37170E+03 1.31217E+05 2.15077E-08-8.16090E-09
 -1       638 2.60867E+05 5.92366E+04 2.81834E+03 1.27466E+05 1.09558E-08-1.62872E-08
 -1       639 2.59392E+05 6.42412E+04 6.66834E+03 1.30781E+05 5.32668E-09-1.75646E-09
 -1       640 2.60662E+05 6.53852E+04 1.38380E+04 1.24876E+05 3.59205E-09-2.27374E-11
 -1       656 6.65629E+04-1.70350E+06-1.60679E+05-2.57074E+03 2.76486E-10-1.20303E-08
 -1       657-8.80569E+04-1.77611E+06-1.33113E+05 5.15242E+03-8.07631E-10-1.01489E-08
 -1       658 2.12179E+04-1.72412E+06-8.19811E+04-4.65374E+03 2.56478E-10-1.80793E-08
 -1       659-9.52206E+04-1.77951E+06-1.42528E+05 6.88294E+03-9.29504E-10-2.70194E-08
 -1       660 7.37107E+04-1.70011E+06-1.76864E+05-4.30125E+03-1.77533E-09-1.02136E-08
 -1       661 1.58585E+05 1.65938E+04 1.67169E+04 6.19925E+04 1.00408E-09-8.05721E-09
 -1       662 1.68036E+05 2.89741E+04 1.12661E+04 5.82423E+04-2.62798E-09-1.23373E-08
 -1       663 1.61868E+05 2.19569E+04 3.94015E+03 6.10396E+04 2.28056E-10 2.16914E-09
 -1       664 1.64228E+05 2.27024E+04 2.35703E+03 5.94064E+04-1.07363E-09-4.24484E-09
 -1       665 1.62367E+05 2.26894E+04 9.29833E+02 6.08942E+04 1.13687E-12 8.94249E-09
 -1       666 1.63639E+05 2.18648E+04 5.44282E+02 5.95960E+04 1.14383E-08 1.57333E-08
 -1       667 1.62454E+05 2.27727E+04 2.89289E+02 6.08577E+04 1.39360E-09 1.22638E-09
 -1       668 1.63543E+05 2.18050E+04 2.95209E+02 5.96490E+04-2.30564E-09 2.56011E-09
 -1       669 1.62462E+05 2.27475E+04 4.00033E+02 6.08415E+04 1.19422E-09 1.08480E-08
 -1       670 1.63640E+05 2.20222E+04 8.71417E+02 5.96519E+04-5.90217E-09-1.78209E-08
 -1       671 1.62357E+05 2.25599E+04 1.54738E+03 6.08528E+04-6.05453E-11-1.33137E-08
 -1       672 1.64542E+05 2.35276E+04 3.95903E+03 5.94334E+04 5.16535E-09-6.39193E-09
 -1       673 1.61565E+05 2.12802E+04 6.63473E+03 6.10454E+04 3.70972E-09-4.98221E-09
 -1       674 1.70856E+05 3.41872E+04 1.89739E+04 5.75783E+04 2.09332E-09-1.15051E-09
 -1       675 1.56083E+05 1.21990E+04 2.81640E+04 6.25959E+04-4.71255E-09-5.57702E-09
 -1       676 2.41117E+01-2.95860E+05-1.11340E+03-1.38065E+02 1.32198E-09 6.53901E-09
 -1       677-2.94509E+02-2.96129E+05-2.03771E+03 2.75907E+02 6.02563E-09-1.51304E-08
 -1       678 1.97541E+02-2.95668E+05-3.60217E+03-1.37752E+02 1.50499E-09 1.03134E-09
 -1       679-3.60222E+03-2.98304E+05-8.55727E+03 2.74715E+02 9.57323E-09 1.09507E-08
 -1       680 2.15074E+03-2.93686E+05-1.37914E+04-1.35351E+02 5.09317E-10 1.36923E-08
 -1       771-3.06172E+06-7.47444E+05-1.66204E+05-1.46590E+06-3.44298E-08-3.40515E-08
 -1       772-2.98457E+06-8.36373E+05-8.56927E+04-1.56872E+06-1.98488E-08 1.39626E-08
 -1       773-3.09326E+06-7.22855E+05-4.36792E+04-1.48048E+06-1.40280E-08 9.70613E-09
 -1       774-2.97503E+06-8.17803E+05-1.94885E+04-1.59452E+06 2.51748E-08-2.53931E-09
 -1       775-3.10973E+06-7.11301E+05-1.45748E+04-1.48755E+06-5.44242E-09 6.14091E-09
 -1       776-2.98740E+06-8.14757E+05-5.45090E+03-1.61404E+06-1.51340E-08 5.30054E-09
 -1       777-3.12402E+06-7.00988E+05-6.43875E+03-1.49378E+06-5.20959E-09 5.77711E-09
 -1       778-3.00032E+06-8.11926E+05-1.82061E+03-1.63081E+06 7.66886E-09 7.90897E-09
 -1       779-3.13631E+06-6.91975E+05-3.21728E+03-1.49911E+06-6.59202E-09-6.02813E-09
 -1       780-3.01169E+06-8.09225E+05-5.33368E+02-1.64447E+06-4.99131E-09-1.20417E-09
 -1       781-3.14608E+06-6.84710E+05-1.24936E+03-1.50327E+06-3.33239E-08 1.38243E-10
 -1       782-3.02046E+06-8.06932E+05 4.51771E+02-1.65456E+06-3.74930E-08-5.78984E-09
 -1       783-3.15296E+06-6.79661E+05 7.03857E+02-1.50619E+06-1.41808E-08-1.45369E-08
 -1       784-3.02531E+06-8.04640E+05 2.91325E+03-1.66078E+06-2.36760E-08 7.63885E-09
 -1       785-3.15703E+06-6.76648E+05 5.14340E+03-1.50804E+06-3.92465E-08 1.48539E-08
 -1       786 1.23955E+05-9.78080E+03 2.26289E+04-3.23646E+02 4.82915E-09-3.86353E-09
 -1       787 1.33770E+05 1.13240E+04 1.60090E+04-1.37064E+02 8.14782E-09 2.23281E-10
 -1       788 1.27739E+05-1.53267E+03 5.85459E+03-2.88492E+02 3.29203E-09 1.18030E-08
 -1       789 1.29361E+05 1.77404E+03 3.67531E+03-1.90906E+02-2.03949E-09-6.79074E-09
 -1       790 1.28364E+05-2.38631E+02 1.48811E+03-2.69821E+02-4.77810E-09 1.15961E-10
 -1       791 1.28631E+05 2.76120E+02 8.59578E+02-2.22849E+02-9.74457E-09-4.09079E-09
 -1       792 1.28470E+05-3.58709E+01 3.64413E+02-2.56552E+02-3.27803E-09 1.53348E-08
 -1       793 1.28504E+05 3.79889E+01 1.82014E+02-2.47812E+02 1.55118E-10-7.28444E-09
 -1       794 1.28491E+05-6.50213E-01 4.79972E+01-2.44858E+02 4.79257E-09-2.59504E-10
 -1       795 1.28467E+05-2.69146E+01-5.60551E+01-2.72216E+02-5.53310E-09 2.04611E-08
 -1       796 1.28507E+05 2.89963E+01-1.59862E+02-2.32147E+02 4.93540E-09-4.09828E-09
 -1       797 1.28374E+05-2.16479E+02-4.39686E+02-3.01415E+02 4.34606E-09-2.64822E-08
 -1       798 1.28584E+05 1.88772E+02-7.14280E+02-2.15658E+02 2.00729E-09-2.41624E-09
 -1       799 1.27832E+05-1.39135E+03-1.96528E+03-3.42250E+02 5.91377E-09 4.96090E-09
 -1       800 1.29049E+05 1.20291E+03-2.78133E+03-1.91314E+02 4.72037E-10 1.90040E-08
 -1       801-1.71763E+05-1.00096E+07-1.39540E+06 1.41846E+06 9.29867E-08-5.76001E-08
 -1       802 7.40098E+05 5.97002E+06 2.18665E+06-1.75127E+06 2.57249E-07-4.28881E-08
 -1       803-5.37799E+05-1.42909E+07-1.89471E+06 8.99652E+05 7.66486E-08 2.14568E-08
 -1       804 2.88065E+05 2.41017E+06 1.54109E+06 6.78494E+05-1.20806E-07-8.54920E-08
 -1       805 1.89558E+05-6.46385E+06-2.87271E+05-1.00563E+06-5.07644E-08-6.09552E-08
 -1       806-3.08749E+05-5.97330E+04-2.28328E+04-1.22360E+05-8.62383E-09 1.55910E-08
 -1       807-3.10542E+05-5.60086E+04-1.12175E+04-1.27903E+05 1.42309E-08 2.62810E-08
 -1       808-3.09375E+05-5.15041E+04-4.75883E+03-1.26250E+05 7.03949E-10-5.47959E-09
 -1       809-3.08184E+05-5.28567E+04-2.32695E+03-1.28179E+05-8.41555E-09-3.57841E-09
 -1       810-3.09470E+05-5.12176E+04-1.06658E+03-1.26422E+05-1.34878E-09-4.31191E-09
 -1       811-3.08001E+05-5.27301E+04-5.30431E+02-1.28143E+05 4.78622E-09 1.03948E-08
 -1       812-3.09484E+05-5.12423E+04-2.68354E+02-1.26421E+05-1.69985E-09 6.94899E-09
 -1       813-3.07976E+05-5.27323E+04-1.74552E+02-1.28124E+05-4.13456E-09-9.57698E-09
 -1       814-3.09477E+05-5.12520E+04-1.73221E+02-1.26417E+05 5.18594E-09 8.92214E-10
 -1       815-3.07980E+05-5.27346E+04-2.79305E+02-1.28117E+05 6.44332E-09-2.38265E-09
 -1       816-3.09456E+05-5.12512E+04-5.29516E+02-1.26413E+05 7.67159E-09 3.07305E-08
 -1       817-3.08069E+05-5.27851E+04-1.13646E+03-1.28105E+05-1.45847E-08 6.85941E-09
 -1       818-3.09387E+05-5.14116E+04-2.31802E+03-1.26337E+05 3.75348E-09-7.04858E-10
 -1       819-3.09338E+05-5.41854E+04-5.45412E+03-1.27805E+05 7.14726E-09-2.81943E-09
 -1       820-3.08950E+05-5.55319E+04-1.11011E+04-1.24578E+05 3.52793E-09-8.20751E-09
 -1       821-3.78923E+05 2.08666E+04-4.85727E+04 2.12785E+03 1.42560E-08 2.68847E-09
 -1       822-3.98630E+05-2.41726E+04-3.41366E+04-4.44919E+03 5.38474E-09 2.14641E-08
 -1       823-3.86389E+05 3.28919E+03-1.25460E+04 3.43550E+03-1.39725E-08-9.98944E-09
 -1       824-3.89619E+05-3.79306E+03-7.85311E+03-5.35900E+03-6.15330E-10-2.04263E-08
 -1       825-3.87941E+05 5.11126E+02-3.28845E+03 3.03779E+03 1.96524E-08 3.85398E-10
 -1       826-3.87190E+05-5.67275E+02-1.74437E+03-3.08864E+03 2.81615E-08 6.37226E-09
 -1       827-3.88794E+05 4.69115E+01-1.18936E+03 1.16498E+03 1.06725E-08 8.13014E-09
 -1       828-3.86486E+05-1.32161E+02-5.86901E+02 1.09839E+03-3.26916E-09 4.65081E-09
 -1       829-3.88632E+05 6.59871E+01-1.17832E+03-1.14927E+03 3.73157E-09 1.77715E-09
 -1       830-3.87538E+05-6.22070E+02-1.88238E+03 4.88121E+03 4.06310E-10 2.85596E-08
 -1       831-3.87763E+05 5.54399E+02-3.37028E+03-2.61785E+03-7.97701E-09 1.08519E-08
 -1       832-3.89699E+05-3.95987E+03-8.15571E+03 6.15995E+03-3.11239E-09-1.01820E-08
 -1       833-3.86488E+05 3.41329E+03-1.30496E+04-2.42805E+03-1.17556E-09 1.01963E-08
 -1       834-3.98691E+05-2.50860E+04-3.53591E+04 4.19060E+03-3.49971E-10-2.77578E-09
 -1       835-3.78755E+05 2.16477E+04-5.04421E+04-6.48431E+02 5.74312E-09 5.33691E-09
 -1       836-1.41395E+03 3.70133E+05 2.29033E+04-1.61598E+04-7.05495E-09 1.67843E-08
 -1       837 4.88175E+03 3.77307E+05 1.93768E+04-3.30255E+04-7.75009E-09 2.37965E-08
 -1       838-5.58145E+02 3.72145E+05 1.97374E+04-1.60882E+04-6.33554E-09 2.70231E-08
 -1       839 1.24187E+04 3.82920E+05 3.73322E+04-3.30780E+04-6.68842E-09 1.10958E-09
 -1       840-3.84004E+03 3.64460E+05 5.95289E+04-1.61131E+04-6.30826E-09 4.22222E-09
 -1       856-5.22561E+04 8.02539E+03-2.11486E+04-3.96979E+02 4.55691E-09 2.01335E-08
 -1       857-6.09687E+04-9.42965E+03-1.45585E+04 5.63337E+03 1.90130E-09-1.68848E-09
 -1       858-5.57065E+04 1.12549E+03-5.48756E+03-4.21119E+02 5.69747E-09-3.34808E-09
 -1       859-5.70089E+04-1.32417E+03-3.31148E+03 5.66928E+03-1.64208E-09 2.99790E-08
 -1       860-5.62220E+04 1.57627E+02-1.38784E+03-4.32613E+02 2.95236E-09-1.85643E-08
 -1       861-5.64160E+04-1.88252E+02-7.63464E+02 5.68493E+03 4.48225E-09-3.87630E-08
 -1       862-5.63026E+04 2.13598E+01-3.17335E+02-4.36751E+02-4.94325E-10-1.39943E-08
 -1       863-5.63171E+04-2.19404E+01-1.15535E+02 5.68734E+03-2.33424E-09-2.82682E-09
 -1       864-5.63214E+04-4.89978E+00 4.73434E+01-4.35015E+02-2.88387E-09-1.66438E-09
 -1       865-5.62613E+04 5.96030E+01 2.55575E+02 5.67742E+03-5.19276E-09 4.03003E-09
 -1       866-5.63562E+04-6.02013E+01 5.14987E+02-4.26838E+02-8.24230E-10-3.53089E-09
 -1       867-5.60191E+04 4.97091E+02 1.26755E+03 5.65523E+03-6.90989E-10 1.28301E-09
 -1       868-5.65586E+04-4.34489E+02 2.10628E+03-4.12818E+02-3.47814E-09 1.07361E-08
 -1       869-5.44750E+04 3.61603E+03 5.60829E+03 5.61872E+03-7.47832E-10-4.46713E-08
 -1       870-5.78926E+04-3.09443E+03 8.13888E+03-3.90225E+02-3.86558E-09-1.26611E-08
 -1       871-5.51545E+03-2.13283E+04-1.94856E+04 1.30385E+05-4.91673E-09-9.60426E-10
 -1       872-1.97961E+03-2.58597E+04-8.15899E+03 1.69064E+05-1.06029E-08 1.45701E-08
 -1       873 4.06706E+02-2.36677E+04 5.89917E+02 1.30098E+05-6.91489E-09-1.37663E-09
 -1       874 3.30747E+03-2.12579E+04 9.77747E+03 1.69093E+05-1.21427E-08 6.43695E-10
 -1       875 6.84666E+03-2.59970E+04 2.20570E+04 1.30337E+05-5.20231E-09 4.35284E-09
 -1       876 2.93698E+05 4.94969E+04 1.50965E+04 1.17858E+05 5.87204E-09 1.19562E-08
 -1       877 2.94696E+05 5.26762E+04 8.06213E+03 1.22188E+05 1.43530E-08-1.00265E-08
 -1       878 2.95110E+05 4.78245E+04 3.37763E+03 1.19094E+05-9.30868E-10-7.56518E-09
 -1       879 2.92644E+05 5.06282E+04 1.68295E+03 1.22290E+05 8.83119E-10 4.99767E-09
 -1       880 2.95211E+05 4.78073E+04 7.83897E+02 1.19145E+05-9.20636E-09 1.60601E-08
 -1       881 2.92507E+05 5.05406E+04 4.18635E+02 1.22267E+05-1.16460E-08 1.67745E-08
 -1       882 2.95220E+05 4.78205E+04 2.67855E+02 1.19146E+05-7.20524E-09-1.72158E-08
 -1       883 2.92498E+05 5.05361E+04 2.88015E+02 1.22259E+05-4.55935E-09-8.39795E-09
 -1       884 2.95213E+05 4.78177E+04 4.58218E+02 1.19146E+05-5.50358E-10-8.31500E-09
 -1       885 2.92534E+05 5.05424E+04 9.21305E+02 1.22270E+05-6.00429E-09-2.58751E-09
 -1       886 2.95177E+05 4.77909E+04 1.85687E+03 1.19143E+05-5.37509E-09-2.76145E-09
 -1       887 2.92861E+05 5.07564E+04 4.05607E+03 1.22317E+05 5.36252E-09-6.49163E-09
 -1       888 2.94921E+05 4.78360E+04 8.17310E+03 1.19013E+05 3.08376E-09-9.17680E-09
 -1       889 2.97726E+05 5.58165E+04 1.95240E+04 1.22168E+05 6.37956E-09-1.57161E-09
 -1       890 2.91585E+05 5.17987E+04 3.65680E+04 1.15903E+05 4.69754E-10-1.22254E-08
 -1       891-8.89457E+01-1.62735E+05-1.99599E+03 2.71443E+04-2.14914E-09 1.09890E-09
 -1       892-1.74739E+02-1.63262E+05-2.14371E+03 4.12207E+04 1.77829E-09 1.52240E-08
 -1       893 4.40780E+01-1.62799E+05-3.03522E+03 2.71516E+04-2.99997E-09 1.97224E-09
 -1       894-1.50914E+03-1.64409E+05-6.28175E+03 4.10682E+04 2.95927E-09-9.33460E-09
 -1       895-1.19860E+03-1.61490E+05-1.10621E+04 2.72986E+04-6.53358E-10 9.56334E-09
 -1       956-3.77116E+05-5.44888E+03-1.34503E+04 3.08490E+04 7.26686E-09 3.16618E-09
 -1       957-3.79755E+05-1.92236E+03-6.90383E+03 3.70719E+04 8.05812E-10-1.51304E-08
 -1       958-3.78325E+05-2.41071E+02-3.11109E+03 3.06814E+04-3.08592E-09-9.48739E-09
 -1       959-3.78521E+05-1.36475E+02-1.58857E+03 3.72675E+04 1.50567E-09-6.63204E-09
 -1       960-3.78443E+05-4.50007E+01-7.74663E+02 3.06641E+04 5.98629E-09-2.60297E-09
 -1       961-3.78441E+05-6.34603E+01-4.10717E+02 3.72879E+04 7.13408E-09 4.32510E-09
 -1       962-3.78470E+05-4.62287E+01-2.35144E+02 3.06612E+04 2.30284E-09 5.86624E-10
 -1       963-3.78441E+05-5.92707E+01-1.88762E+02 3.72915E+04 2.25555E-09-7.84576E-09
 -1       964-3.78476E+05-4.28746E+01-2.29550E+02 3.06605E+04 3.71200E-09 8.64020E-12
 -1       965-3.78453E+05-5.63093E+01-3.97027E+02 3.72908E+04 1.04873E-08-1.69875E-08
 -1       966-3.78459E+05-3.50331E+01-7.46004E+02 3.06620E+04 1.15965E-08-9.07539E-09
 -1       967-3.78543E+05-1.19834E+02-1.53004E+03 3.72765E+04 4.46198E-09-8.11724E-09
 -1       968-3.78356E+05-2.17479E+02-2.99527E+03 3.06746E+04-5.12046E-10-2.10889E-09
 -1       969-3.79743E+05-1.83430E+03-6.64941E+03 3.71281E+04-7.03949E-10 8.31406E-09
 -1       970-3.77200E+05-5.22939E+03-1.29534E+04 3.08017E+04-1.26147E-09 5.40695E-09
 -1       971-3.45307E+05-1.72744E+03-9.30892E+03 1.53794E+04 4.60477E-09 3.04302E-09
 -1       972-3.47548E+05-1.27184E+03-5.06954E+03 2.12691E+04 2.16869E-09 1.24687E-08
 -1       973-3.46344E+05-6.21756E+01-2.27070E+03 1.52583E+04 4.90763E-09 2.25605E-08
 -1       974-3.46479E+05-8.12786E+01-1.17705E+03 2.14061E+04 4.62319E-09 2.09800E-08
 -1       975-3.46426E+05-1.73048E+01-5.88831E+02 1.52460E+04-3.60251E-09 3.77179E-09
 -1       976-3.46418E+05-3.14400E+01-3.40554E+02 2.14219E+04 2.08456E-09-9.02514E-09
 -1       977-3.46443E+05-1.65588E+01-2.48673E+02 1.52426E+04-9.74069E-10-1.55865E-10
 -1       978-3.46423E+05-2.52156E+01-2.93051E+02 2.14268E+04-7.26914E-09 1.71076E-09
 -1       979-3.46442E+05-8.08216E+00-4.72604E+02 1.52411E+04-5.48147E-09-1.30930E-08
 -1       980-3.46458E+05-2.21546E+01-9.13644E+02 2.14278E+04 3.62661E-11 1.29472E-08
 -1       981-3.46413E+05 1.47548E+01-1.77010E+03 1.52417E+04 2.38924E-09-3.31937E-09
 -1       982-3.46701E+05-1.52945E+02-3.65908E+03 2.14211E+04-2.81943E-10 4.60528E-09
 -1       983-3.46190E+05-9.85893E+01-7.10978E+03 1.52477E+04 2.28101E-09-2.92721E-09
 -1       984-3.50121E+05-3.86617E+03-1.59221E+04 2.13355E+04 1.16077E-08 1.30374E-08
 -1       985-3.42971E+05-5.30108E+03-2.92379E+04 1.53190E+04 2.12185E-09 1.35478E-08
 -3
    1PSTEP                        27          14           1          
  100CL  114 6.62933E-01         409                     0   14           1
 -4  DISP        4    1
 -5  D1          1    2    1    0
 -5  D2          1    2    2    0
 -5  D3          1    2    3    0
 -5  ALL         1    2    0    0    1ALL
 -1         1 2.72663E-03 0.00000E+00 0.00000E+00
 -1         2 1.32902E-03 2.22587E-27 0.00000E+00
 -1         3 3.42785E-04-5.73970E-28-1.32349E-23
 -1         5 1.77044E-04-2.11728E-27 3.30872E-24
 -1         8 2.71593E-03-4.01342E-07 0.00000E+00
 -1         9 2.70918E-03-2.00140E-04 0.00000E+00
 -1        10 3.10823E-04-3.39436E-06 0.00000E+00
 -1        12 1.78933E-04 8.17144E-07 0.00000E+00
 -1        15 2.70373E-03-4.24415E-07 0.00000E+00
 -1        16 2.77903E-03-2.02014E-04 0.00000E+00
 -1        17 2.11526E-04-7.74368E-06 0.00000E+00
 -1        18 1.82927E-04 3.44884E-05 0.00000E+00
 -1        19 1.84520E-04 1.61982E-06 0.00000E+00
 -1        20 1.84659E-04-9.94409E-06 0.00000E+00
 -1        21 1.83766E-04-2.55402E-05 3.30872E-24
 -1        24 3.06058E-05-1.19667E-05 0.00000E+00
 -1        25 1.93734E-04 3.47140E-05 0.00000E+00
 -1        26 1.94415E-04 2.23983E-06 0.00000E+00
 -1        27 1.92215E-04-1.35019E-05 0.00000E+00
 -1        28 1.91899E-04-2.61623E-05 0.00000E+00
 -1        32 0.00000E+00 0.00000E+00 0.00000E+00
 -1        33 2.03305E-04 2.99350E-06 0.00000E+00
 -1        34 2.01187E-04-1.35581E-05 0.00000E+00
 -1        35 1.99255E-04-2.65048E-05 0.00000E+00
 -1        51 2.72591E-03-8.44282E-08 3.30872E-24
 -1        52 2.72460E-03-1.50389E-07 0.00000E+00
 -1        53 2.72281E-03-2.12846E-07 0.00000E+00
 -1        54 2.72069E-03-2.74034E-07 1.65436E-24
 -1        55 2.71835E-03-3.35716E-07 3.30872E-24
 -1        56 2.71855E-03 9.43037E-06 5.29396E-23
 -1        57 2.70237E-03 3.87943E-05-5.29396E-23
 -1        58 2.68051E-03 8.18559E-05 0.00000E+00
 -1        59 2.65598E-03 1.31080E-04 0.00000E+00
 -1        60 2.63250E-03 1.77875E-04 1.05879E-22
 -1        61 2.61358E-03 2.13845E-04 0.00000E+00
 -1        62 2.60167E-03 2.32523E-04-1.05879E-22
 -1        63 2.59831E-03 2.28986E-04 0.00000E+00
 -1        64 2.60326E-03 2.02394E-04 0.00000E+00
 -1        65 2.61552E-03 1.54099E-04 5.29396E-23
 -1        66 2.63294E-03 8.95920E-05-1.05879E-22
 -1        67 2.65312E-03 1.59710E-05 0.00000E+00
 -1        68 2.67339E-03-5.78875E-05-1.05879E-22
 -1        69 2.69104E-03-1.23076E-04 0.00000E+00
 -1        70 2.70365E-03-1.72385E-04 0.00000E+00
 -1        86 1.41583E-03-6.29871E-06 0.00000E+00
 -1        87 1.66675E-03-3.97144E-05 0.00000E+00
 -1        88 2.00417E-03-9.72044E-05 0.00000E+00
 -1        89 2.34624E-03-1.56322E-04 1.32349E-23
 -1        90 2.60842E-03-1.92506E-04-5.29396E-23
 -1       121 3.41888E-04-5.47982E-07 1.32349E-23
 -1       122 3.39199E-04-1.09905E-06 0.00000E+00
 -1       123 3.34728E-04-1.65626E-06 0.00000E+00
 -1       124 3.28492E-04-2.22263E-06 0.00000E+00
 -1       125 3.20513E-04-2.80083E-06 1.32349E-23
 -1       191 1.77097E-04 1.36268E-07-2.48154E-24
 -1       192 1.77254E-04 2.72523E-07 1.24077E-24
 -1       193 1.77517E-04 4.08757E-07-1.24077E-24
 -1       194 1.77885E-04 5.44952E-07 7.49632E-25
 -1       195 1.78357E-04 6.81092E-07-8.27181E-25
 -1       251 2.71563E-03 1.60713E-06-6.61744E-24
 -1       252 2.71533E-03 3.46920E-06 3.30872E-24
 -1       253 2.71503E-03 4.17781E-06-6.61744E-24
 -1       254 2.71472E-03 2.74021E-06 3.30872E-24
 -1       255 2.71441E-03-1.51257E-06 6.61744E-24
 -1       256 2.71408E-03-9.21443E-06 0.00000E+00
 -1       257 2.71371E-03-2.04792E-05 6.61744E-24
 -1       258 2.71330E-03-3.53763E-05 0.00000E+00
 -1       259 2.71284E-03-5.34280E-05 0.00000E+00
 -1       260 2.71233E-03-7.41170E-05 0.00000E+00
 -1       261 2.71178E-03-9.65280E-05 0.00000E+00
 -1       262 2.71122E-03-1.19725E-04-6.61744E-24
 -1       263 2.71066E-03-1.42654E-04 1.32349E-23
 -1       264 2.71013E-03-1.64262E-04 0.00000E+00
 -1       265 2.70964E-03-1.83699E-04 0.00000E+00
 -1       266 2.71390E-03-4.10759E-07 0.00000E+00
 -1       267 2.71186E-03-4.13925E-07 0.00000E+00
 -1       268 2.70983E-03-4.17487E-07-4.13590E-25
 -1       269 2.70780E-03-4.19877E-07 0.00000E+00
 -1       270 2.70576E-03-4.22239E-07-2.06795E-25
 -1       271 2.71512E-03 5.19783E-10 1.32349E-23
 -1       272 2.71531E-03-2.31816E-06-6.61744E-24
 -1       273 2.71645E-03-7.19378E-06 0.00000E+00
 -1       274 2.71846E-03-1.44499E-05-1.32349E-23
 -1       275 2.72128E-03-2.38890E-05 0.00000E+00
 -1       276 2.72480E-03-3.52977E-05 0.00000E+00
 -1       277 2.72896E-03-4.84464E-05 2.64698E-23
 -1       278 2.73366E-03-6.30920E-05 1.32349E-23
 -1       279 2.73880E-03-7.89796E-05 0.00000E+00
 -1       280 2.74429E-03-9.58444E-05 6.61744E-24
 -1       281 2.75004E-03-1.13413E-04 1.32349E-23
 -1       282 2.75593E-03-1.31409E-04-6.61744E-24
 -1       283 2.76188E-03-1.49549E-04 1.32349E-23
 -1       284 2.76778E-03-1.67550E-04 0.00000E+00
 -1       285 2.77353E-03-1.85132E-04 0.00000E+00
 -1       301 2.72187E-03-2.00488E-04 0.00000E+00
 -1       302 2.73289E-03-2.00788E-04 6.61744E-24
 -1       303 2.74318E-03-2.01077E-04 1.32349E-23
 -1       304 2.75367E-03-2.01367E-04 0.00000E+00
 -1       305 2.76531E-03-2.01671E-04-2.64698E-23
 -1       306 2.74729E-03-3.55705E-04 1.05879E-22
 -1       307 2.81114E-03-7.70780E-04-1.58819E-22
 -1       308 2.85771E-03-1.37677E-03 1.05879E-22
 -1       309 2.88155E-03-2.07735E-03 0.00000E+00
 -1       310 2.91303E-03-2.74666E-03-1.05879E-22
 -1       311 2.97266E-03-3.26156E-03 0.00000E+00
 -1       312 3.03027E-03-3.54157E-03 0.00000E+00
 -1       313 3.02468E-03-3.54922E-03 0.00000E+00
 -1       314 2.88194E-03-3.29695E-03 1.05879E-22
 -1       315 2.56136E-03-2.84960E-03 0.00000E+00
 -1       316 2.08174E-03-2.28392E-03 0.00000E+00
 -1       317 1.50945E-03-1.66914E-03-5.29396E-23
 -1       318 9.59104E-04-1.06567E-03 1.05879E-22
 -1       319 5.38815E-04-5.38429E-04 0.00000E+00
 -1       320 2.92280E-04-1.61632E-04-1.05879E-22
 -1       336 2.99232E-04-4.05066E-06 1.32349E-23
 -1       337 2.85565E-04-4.73265E-06 0.00000E+00
 -1       338 2.69883E-04-5.44258E-06-1.32349E-23
 -1       339 2.52260E-04-6.18128E-06 6.61744E-24
 -1       340 2.32777E-04-6.95321E-06 0.00000E+00
 -1       406 1.79611E-04 9.51845E-07-1.65436E-24
 -1       407 1.80389E-04 1.08640E-06 1.87408E-25
 -1       408 1.81269E-04 1.22079E-06-4.13590E-25
 -1       409 1.82251E-04 1.35483E-06-3.10193E-25
 -1       410 1.83335E-04 1.48826E-06 4.13590E-25
 -1       521 2.81772E-03-3.66887E-04 0.00000E+00
 -1       522 2.87976E-03-8.02494E-04-5.29396E-23
 -1       523 2.91975E-03-1.43677E-03-1.05879E-22
 -1       524 2.93418E-03-2.16656E-03 5.29396E-23
 -1       525 2.95760E-03-2.86304E-03 0.00000E+00
 -1       526 3.01365E-03-3.40039E-03 0.00000E+00
 -1       527 3.07085E-03-3.69113E-03 0.00000E+00
 -1       528 3.06289E-03-3.69689E-03 5.29396E-23
 -1       529 2.90781E-03-3.43012E-03-2.11758E-22
 -1       530 2.56263E-03-2.96383E-03-5.29396E-23
 -1       531 2.04701E-03-2.37860E-03 0.00000E+00
 -1       532 1.43388E-03-1.74627E-03-5.29396E-23
 -1       533 8.43434E-04-1.12459E-03 1.05879E-22
 -1       534 3.89115E-04-5.76096E-04-5.29396E-23
 -1       535 1.20977E-04-1.79438E-04 0.00000E+00
 -1       536 2.10771E-04 2.71999E-05 0.00000E+00
 -1       537 2.08850E-04 8.76804E-05-1.65436E-24
 -1       538 2.05882E-04 1.64425E-04 0.00000E+00
 -1       539 2.02381E-04 2.48076E-04 0.00000E+00
 -1       540 1.99231E-04 3.27122E-04 3.30872E-24
 -1       541 1.97183E-04 3.90074E-04 1.65436E-24
 -1       542 1.96238E-04 4.30173E-04 0.00000E+00
 -1       543 1.96013E-04 4.40810E-04 1.65436E-24
 -1       544 1.95690E-04 4.22758E-04 0.00000E+00
 -1       545 1.94516E-04 3.77011E-04 0.00000E+00
 -1       546 1.92328E-04 3.11701E-04 3.30872E-24
 -1       547 1.89366E-04 2.35082E-04 0.00000E+00
 -1       548 1.86431E-04 1.58838E-04 3.30872E-24
 -1       549 1.84314E-04 9.46539E-05 0.00000E+00
 -1       550 1.83214E-04 5.05673E-05-1.65436E-24
 -1       551 1.86316E-04-8.31266E-06 0.00000E+00
 -1       552 1.57861E-04-8.96214E-06 0.00000E+00
 -1       553 1.27104E-04-9.67389E-06-6.61744E-24
 -1       554 9.50030E-05-1.04268E-05-3.30872E-24
 -1       555 6.25188E-05-1.11935E-05-1.32349E-23
 -1       556 2.03875E-04 1.18209E-05 0.00000E+00
 -1       557 1.97692E-04 2.76891E-05 2.64698E-23
 -1       558 1.92845E-04 4.01489E-05 0.00000E+00
 -1       559 1.89200E-04 4.95108E-05-2.64698E-23
 -1       560 1.86627E-04 5.60856E-05 0.00000E+00
 -1       561 1.84998E-04 6.01865E-05 0.00000E+00
 -1       562 1.84188E-04 6.21284E-05 0.00000E+00
 -1       563 1.84073E-04 6.22266E-05 0.00000E+00
 -1       564 1.84531E-04 6.07976E-05 0.00000E+00
 -1       565 1.85441E-04 5.81586E-05 0.00000E+00
 -1       566 1.86683E-04 5.46271E-05 0.00000E+00
 -1       567 1.88138E-04 5.05213E-05 0.00000E+00
 -1       568 1.89689E-04 4.61593E-05-1.65436E-24
 -1       569 1.91217E-04 4.18593E-05-8.27181E-25
 -1       570 1.92604E-04 3.79397E-05 0.00000E+00
 -1       571 1.83024E-04 3.23564E-05-2.48154E-24
 -1       572 1.83123E-04 3.01588E-05 8.27181E-25
 -1       573 1.83222E-04 2.79111E-05 1.65436E-24
 -1       574 1.83321E-04 2.56297E-05 1.65436E-24
 -1       575 1.83420E-04 2.33311E-05 3.30872E-24
 -1       576 1.83520E-04 2.10316E-05 0.00000E+00
 -1       577 1.83619E-04 1.87479E-05 0.00000E+00
 -1       578 1.83719E-04 1.64964E-05 0.00000E+00
 -1       579 1.83818E-04 1.42936E-05 0.00000E+00
 -1       580 1.83918E-04 1.21560E-05-3.30872E-24
 -1       581 1.84018E-04 1.01002E-05 0.00000E+00
 -1       582 1.84118E-04 8.14252E-06 0.00000E+00
 -1       583 1.84218E-04 6.29956E-06 0.00000E+00
 -1       584 1.84319E-04 4.58759E-06 0.00000E+00
 -1       585 1.84419E-04 3.02275E-06 6.61744E-24
 -1       586 1.84687E-04 3.45281E-05-1.65436E-24
 -1       587 1.86406E-04 3.45673E-05-4.13590E-25
 -1       588 1.88127E-04 3.46061E-05-8.27181E-25
 -1       589 1.89893E-04 3.46442E-05 0.00000E+00
 -1       590 1.91748E-04 3.46811E-05 0.00000E+00
 -1       591 1.83658E-04 3.24500E-05-2.06795E-25
 -1       592 1.84392E-04 3.03916E-05 2.06795E-25
 -1       593 1.85131E-04 2.83192E-05 0.00000E+00
 -1       594 1.85873E-04 2.62374E-05 0.00000E+00
 -1       595 1.86617E-04 2.41509E-05 8.27181E-25
 -1       596 1.87360E-04 2.20646E-05 0.00000E+00
 -1       597 1.88102E-04 1.99830E-05 0.00000E+00
 -1       598 1.88840E-04 1.79109E-05 4.13590E-25
 -1       599 1.89573E-04 1.58530E-05 0.00000E+00
 -1       600 1.90299E-04 1.38139E-05 4.13590E-25
 -1       601 1.91016E-04 1.17984E-05 0.00000E+00
 -1       602 1.91723E-04 9.81111E-06 2.06795E-25
 -1       603 1.92417E-04 7.85677E-06 8.27181E-25
 -1       604 1.93098E-04 5.94017E-06-2.06795E-25
 -1       605 1.93763E-04 4.06591E-06 0.00000E+00
 -1       606 1.84533E-04 4.50104E-07 3.30872E-24
 -1       607 1.84543E-04-6.33717E-07 0.00000E+00
 -1       608 1.84552E-04-1.63668E-06 0.00000E+00
 -1       609 1.84560E-04-2.56448E-06 0.00000E+00
 -1       610 1.84568E-04-3.42286E-06 0.00000E+00
 -1       611 1.84577E-04-4.21760E-06 0.00000E+00
 -1       612 1.84585E-04-4.95451E-06 0.00000E+00
 -1       613 1.84593E-04-5.63942E-06 0.00000E+00
 -1       614 1.84602E-04-6.27814E-06 0.00000E+00
 -1       615 1.84610E-04-6.87647E-06 0.00000E+00
 -1       616 1.84618E-04-7.44024E-06 0.00000E+00
 -1       617 1.84627E-04-7.97526E-06 0.00000E+00
 -1       618 1.84635E-04-8.48733E-06 0.00000E+00
 -1       619 1.84644E-04-8.98229E-06 0.00000E+00
 -1       620 1.84652E-04-9.46594E-06 0.00000E+00
 -1       621 1.85884E-04 1.72372E-06 0.00000E+00
 -1       622 1.87406E-04 1.82787E-06 0.00000E+00
 -1       623 1.89054E-04 1.93181E-06 3.30872E-24
 -1       624 1.90794E-04 2.03541E-06-1.65436E-24
 -1       625 1.92592E-04 2.13872E-06-1.65436E-24
 -1       626 1.85070E-04 4.86200E-07 0.00000E+00
 -1       627 1.85598E-04-5.84311E-07 0.00000E+00
 -1       628 1.86106E-04-1.59957E-06 0.00000E+00
 -1       629 1.86596E-04-2.56774E-06-4.96308E-24
 -1       630 1.87071E-04-3.49702E-06 0.00000E+00
 -1       631 1.87535E-04-4.39563E-06-1.65436E-24
 -1       632 1.87991E-04-5.27177E-06 0.00000E+00
 -1       633 1.88441E-04-6.13366E-06 0.00000E+00
 -1       634 1.88889E-04-6.98952E-06-3.30872E-24
 -1       635 1.89338E-04-7.84755E-06-1.65436E-24
 -1       636 1.89791E-04-8.71597E-06 0.00000E+00
 -1       637 1.90250E-04-9.60301E-06-1.65436E-24
 -1       638 1.90720E-04-1.05169E-05 1.65436E-24
 -1       639 1.91202E-04-1.14658E-05 0.00000E+00
 -1       640 1.91700E-04-1.24580E-05 0.00000E+00
 -1       656 1.85370E-04-1.05223E-05 0.00000E+00
 -1       657 1.86501E-04-1.11241E-05-6.61744E-24
 -1       658 1.87912E-04-1.17245E-05 0.00000E+00
 -1       659 1.89458E-04-1.23245E-05 6.61744E-24
 -1       660 1.90953E-04-1.29264E-05 6.61744E-24
 -1       661 1.84925E-04-1.04673E-05-8.27181E-25
 -1       662 1.85229E-04-1.10824E-05-8.27181E-25
 -1       663 1.85565E-04-1.17840E-05-1.65436E-24
 -1       664 1.85932E-04-1.25657E-05-8.27181E-25
 -1       665 1.86326E-04-1.34218E-05 0.00000E+00
 -1       666 1.86746E-04-1.43461E-05 0.00000E+00
 -1       667 1.87189E-04-1.53332E-05 0.00000E+00
 -1       668 1.87654E-04-1.63775E-05-8.27181E-25
 -1       669 1.88138E-04-1.74734E-05 0.00000E+00
 -1       670 1.88640E-04-1.86158E-05 0.00000E+00
 -1       671 1.89157E-04-1.97994E-05 1.65436E-24
 -1       672 1.89687E-04-2.10191E-05 8.27181E-25
 -1       673 1.90229E-04-2.22700E-05-1.65436E-24
 -1       674 1.90779E-04-2.35473E-05-4.13590E-25
 -1       675 1.91338E-04-2.48457E-05-2.06795E-25
 -1       676 1.85126E-04-2.56445E-05 0.00000E+00
 -1       677 1.86486E-04-2.57488E-05 1.65436E-24
 -1       678 1.87843E-04-2.58529E-05-3.30872E-24
 -1       679 1.89199E-04-2.59568E-05-1.65436E-24
 -1       680 1.90551E-04-2.60607E-05 1.65436E-24
 -1       771 1.86476E-05 1.47766E-05 0.00000E+00
 -1       772 8.58750E-06 3.67408E-05 0.00000E+00
 -1       773 3.34617E-07 5.41563E-05 0.00000E+00
 -1       774-6.23545E-06 6.72811E-05-2.64698E-23
 -1       775-1.12444E-05 7.63838E-05-5.29396E-23
 -1       776-1.48190E-05 8.17497E-05 0.00000E+00
 -1       777-1.70856E-05 8.36741E-05 0.00000E+00
 -1       778-1.81731E-05 8.24663E-05-2.64698E-23
 -1       779-1.82101E-05 7.84442E-05-5.29396E-23
 -1       780-1.73269E-05 7.19369E-05-2.64698E-23
 -1       781-1.56529E-05 6.32804E-05 0.00000E+00
 -1       782-1.33192E-05 5.28196E-05-2.64698E-23
 -1       783-1.04559E-05 4.09039E-05-5.29396E-23
 -1       784-7.19439E-06 2.78892E-05 0.00000E+00
 -1       785-3.66504E-06 1.41342E-05 5.29396E-23
 -1       786 1.93772E-04 3.24571E-05 0.00000E+00
 -1       787 1.93814E-04 3.02501E-05-4.13590E-25
 -1       788 1.93856E-04 2.80848E-05 0.00000E+00
 -1       789 1.93898E-04 2.59530E-05 0.00000E+00
 -1       790 1.93941E-04 2.38500E-05-1.65436E-24
 -1       791 1.93983E-04 2.17711E-05-8.27181E-25
 -1       792 1.94026E-04 1.97140E-05 1.65436E-24
 -1       793 1.94069E-04 1.76765E-05 0.00000E+00
 -1       794 1.94112E-04 1.56585E-05 1.65436E-24
 -1       795 1.94155E-04 1.36598E-05 0.00000E+00
 -1       796 1.94198E-04 1.16824E-05-1.65436E-24
 -1       797 1.94241E-04 9.72799E-06 8.27181E-25
 -1       798 1.94285E-04 7.80092E-06 0.00000E+00
 -1       799 1.94328E-04 5.90550E-06 0.00000E+00
 -1       800 1.94371E-04 4.04926E-06 0.00000E+00
 -1       801 1.47887E-04 3.12091E-05 2.64698E-23
 -1       802 9.27333E-06 1.94699E-05-2.64698E-23
 -1       803-1.09101E-04 9.83670E-06 5.29396E-23
 -1       804-9.66613E-05 6.84770E-06 0.00000E+00
 -1       805-3.19275E-05 2.68906E-06 0.00000E+00
 -1       806 1.94465E-04 3.23883E-05-1.65436E-24
 -1       807 1.95182E-04 3.00887E-05-1.65436E-24
 -1       808 1.95886E-04 2.78205E-05-3.30872E-24
 -1       809 1.96578E-04 2.55876E-05-1.65436E-24
 -1       810 1.97254E-04 2.33942E-05-3.30872E-24
 -1       811 1.97914E-04 2.12442E-05-1.65436E-24
 -1       812 1.98556E-04 1.91416E-05-3.30872E-24
 -1       813 1.99179E-04 1.70902E-05-1.65436E-24
 -1       814 1.99782E-04 1.50941E-05 3.30872E-24
 -1       815 2.00362E-04 1.31570E-05 8.27181E-25
 -1       816 2.00920E-04 1.12829E-05 0.00000E+00
 -1       817 2.01452E-04 9.47573E-06-8.27181E-25
 -1       818 2.01958E-04 7.73933E-06-1.65436E-24
 -1       819 2.02436E-04 6.07762E-06-8.27181E-25
 -1       820 2.02885E-04 4.49441E-06-1.65436E-24
 -1       821 1.94286E-04-1.24949E-07 1.65436E-24
 -1       822 1.94146E-04-3.64182E-06 1.65436E-24
 -1       823 1.94003E-04-7.88336E-06 3.30872E-24
 -1       824 1.93858E-04-1.24176E-05-1.65436E-24
 -1       825 1.93714E-04-1.67335E-05-3.30872E-24
 -1       826 1.93572E-04-2.03212E-05-1.65436E-24
 -1       827 1.93434E-04-2.28691E-05 0.00000E+00
 -1       828 1.93297E-04-2.40723E-05 1.65436E-24
 -1       829 1.93162E-04-2.39916E-05 0.00000E+00
 -1       830 1.93025E-04-2.26957E-05 0.00000E+00
 -1       831 1.92888E-04-2.05840E-05 0.00000E+00
 -1       832 1.92749E-04-1.80612E-05 1.65436E-24
 -1       833 1.92611E-04-1.56438E-05 0.00000E+00
 -1       834 1.92476E-04-1.38476E-05 0.00000E+00
 -1       835 1.92342E-04-1.30198E-05-8.27181E-25
 -1       836 1.96109E-04 2.36481E-06 0.00000E+00
 -1       837 1.97676E-04 2.49293E-06 1.65436E-24
 -1       838 1.99148E-04 2.62100E-06-3.30872E-24
 -1       839 2.00555E-04 2.74836E-06 0.00000E+00
 -1       840 2.01930E-04 2.87557E-06 0.00000E+00
 -1       856 1.92199E-04-1.45682E-05-8.27181E-25
 -1       857 1.92180E-04-1.54987E-05 0.00000E+00
 -1       858 1.92160E-04-1.63146E-05-2.06795E-25
 -1       859 1.92141E-04-1.70370E-05-2.06795E-25
 -1       860 1.92121E-04-1.76872E-05 4.13590E-25
 -1       861 1.92101E-04-1.82864E-05 0.00000E+00
 -1       862 1.92081E-04-1.88559E-05 4.13590E-25
 -1       863 1.92061E-04-1.94171E-05 0.00000E+00
 -1       864 1.92042E-04-1.99913E-05-8.27181E-25
 -1       865 1.92022E-04-2.05999E-05 0.00000E+00
 -1       866 1.92002E-04-2.12641E-05 0.00000E+00
 -1       867 1.91982E-04-2.20053E-05-4.13590E-25
 -1       868 1.91962E-04-2.28446E-05 8.27181E-25
 -1       869 1.91941E-04-2.38032E-05-4.13590E-25
 -1       870 1.91921E-04-2.49021E-05 0.00000E+00
 -1       871 1.93569E-04-1.35068E-05-8.27181E-25
 -1       872 1.95070E-04-1.35151E-05 0.00000E+00
 -1       873 1.96651E-04-1.35242E-05 0.00000E+00
 -1       874 1.98243E-04-1.35339E-05 2.58494E-25
 -1       875 1.99778E-04-1.35443E-05 6.20385E-25
 -1       876 1.92742E-04-1.45536E-05 3.30872E-24
 -1       877 1.93247E-04-1.55385E-05 0.00000E+00
 -1       878 1.93730E-04-1.64646E-05 3.30872E-24
 -1       879 1.94194E-04-1.73392E-05 0.00000E+00
 -1       880 1.94642E-04-1.81698E-05 3.30872E-24
 -1       881 1.95076E-04-1.89637E-05-1.65436E-24
 -1       882 1.95499E-04-1.97283E-05-3.30872E-24
 -1       883 1.95914E-04-2.04710E-05-1.65436E-24
 -1       884 1.96323E-04-2.11990E-05 3.30872E-24
 -1       885 1.96730E-04-2.19197E-05 1.65436E-24
 -1       886 1.97136E-04-2.26404E-05-3.30872E-24
 -1       887 1.97546E-04-2.33686E-05 0.00000E+00
 -1       888 1.97960E-04-2.41115E-05 0.00000E+00
 -1       889 1.98383E-04-2.48766E-05-1.65436E-24
 -1       890 1.98815E-04-2.56713E-05 0.00000E+00
 -1       891 1.93267E-04-2.62199E-05 0.00000E+00
 -1       892 1.94612E-04-2.62776E-05 0.00000E+00
 -1       893 1.95908E-04-2.63351E-05 1.65436E-24
 -1       894 1.97131E-04-2.63925E-05-4.13590E-25
 -1       895 1.98255E-04-2.64495E-05 4.13590E-25
 -1       956 2.03175E-04 1.66720E-06 0.00000E+00
 -1       957 2.03043E-04 4.32439E-07 1.65436E-24
 -1       958 2.02910E-04-7.21529E-07 0.00000E+00
 -1       959 2.02777E-04-1.80604E-06 1.65436E-24
 -1       960 2.02644E-04-2.83246E-06 0.00000E+00
 -1       961 2.02512E-04-3.81222E-06 1.65436E-24
 -1       962 2.02379E-04-4.75673E-06 0.00000E+00
 -1       963 2.02246E-04-5.67745E-06 0.00000E+00
 -1       964 2.02113E-04-6.58580E-06 0.00000E+00
 -1       965 2.01981E-04-7.49323E-06-1.65436E-24
 -1       966 2.01848E-04-8.41118E-06 0.00000E+00
 -1       967 2.01715E-04-9.35110E-06 1.65436E-24
 -1       968 2.01582E-04-1.03244E-05 0.00000E+00
 -1       969 2.01450E-04-1.13425E-05 0.00000E+00
 -1       970 2.01318E-04-1.24167E-05 3.30872E-24
 -1       971 2.01067E-04-1.46989E-05-3.30872E-24
 -1       972 2.00946E-04-1.57452E-05 0.00000E+00
 -1       973 2.00825E-04-1.67073E-05 0.00000E+00
 -1       974 2.00703E-04-1.75962E-05 1.65436E-24
 -1       975 2.00582E-04-1.84225E-05-3.30872E-24
 -1       976 2.00461E-04-1.91972E-05 0.00000E+00
 -1       977 2.00339E-04-1.99313E-05-3.30872E-24
 -1       978 2.00218E-04-2.06355E-05 1.65436E-24
 -1       979 2.00097E-04-2.13209E-05 0.00000E+00
 -1       980 1.99975E-04-2.19982E-05 0.00000E+00
 -1       981 1.99854E-04-2.26785E-05 0.00000E+00
 -1       982 1.99733E-04-2.33725E-05-1.65436E-24
 -1       983 1.99612E-04-2.40913E-05 0.00000E+00
 -1       984 1.99491E-04-2.48458E-05 0.00000E+00
 -1       985 1.99371E-04-2.56467E-05 0.00000E+00
 -3
    1PSTEP                        28          14           1          
  100CL  114 6.62933E-01         409                     0   14           1
 -4  STRESS      6    1
 -5  SXX         1    4    1    1
 -5  SYY         1    4    2    2
 -5  SZZ         1    4    3    3
 -5  SXY         1    4    1    2
 -5  SYZ         1    4    2    3
 -5  SZX         1    4    3    1
 -1         1-5.34726E+06-1.57250E+06-1.13263E+06-1.32662E+06-1.06229E-09-2.24769E-07
 -1         2 1.53043E+06 2.24120E+07 5.20677E+06 6.78669E+06 2.96568E-08 1.01296E-07
 -1         3-1.48868E+03-1.55588E+06 4.05387E+02-2.20879E+03-6.70916E-10-3.11484E-08
 -1         5-7.74770E+01 3.90226E+05 2.11720E+01 7.29133E+00-8.05905E-10-2.11712E-08
 -1         8-5.52762E+05-2.00323E+05-6.26747E+04-2.42548E+05-3.63798E-12-4.23206E-08
 -1         9 1.18119E+07 3.93470E+06 2.81712E+06-3.03493E+05 6.94999E-09-9.42498E-08
 -1        10-2.30428E+03-1.62134E+06-3.94044E+03-1.49464E+04-1.35769E-08-1.21562E-08
 -1        12-7.79312E+01 3.88271E+05 3.11072E+02-3.93417E+00 3.63798E-12 2.96780E-08
 -1        15 9.23101E+02 5.07289E+02 2.98390E+03 8.12086E-01-5.88415E-10-3.76454E-07
 -1        16 2.29277E+07-3.35536E+05 3.11955E+06-2.29810E+06 2.73964E-08 5.40943E-08
 -1        17 8.39606E+06 6.29122E+06 2.26787E+06 6.01777E+06 2.59432E-08 2.72528E-08
 -1        18 1.42616E+05 3.35743E+04 4.23840E+03-1.19523E+05 1.48948E-08 1.90084E-09
 -1        19 1.22382E+05 1.41646E+05-9.44738E+02 2.19623E+04 1.68711E-09-3.39060E-09
 -1        20-8.18826E+04-5.73550E+05-1.28696E+05 2.51338E+04-1.59919E-09 1.98118E-08
 -1        21-4.55685E+01-2.95998E+05-9.23982E+02 2.76124E+02 1.68114E-08 2.67658E-08
 -1        24 1.40819E+07 1.21240E+07 3.89742E+06 1.12249E+07-1.71218E-07-4.93601E-08
 -1        25 1.25636E+05 2.69658E+05 1.00600E+05-6.47320E+05-4.55930E-10 3.24981E-09
 -1        26-5.53525E+04 9.22819E+04-2.46203E+04 1.26954E+03-2.18279E-12-4.27160E-09
 -1        27-7.55901E+04-3.09878E+05-1.13287E+05 6.89566E+04 4.14669E-09 2.64451E-09
 -1        28 2.22387E+04-8.53387E+04 1.68962E+04 2.06210E+04-3.35137E-09-6.77716E-09
 -1        32-1.68051E+06-3.18247E+06-1.97782E+05 4.61163E+05-4.28481E-08-9.64042E-09
 -1        33-1.78429E+05 9.29855E+04 3.23818E+04-3.85020E+04-3.27293E-09 6.76998E-09
 -1        34-2.23560E+05-2.50233E+04 6.89385E+02 7.56350E+04-4.73087E-09 5.87503E-09
 -1        35-2.29290E+04-3.38440E+04-1.34826E+03 5.14940E+04-4.80056E-09 1.71664E-08
 -1        51 6.08736E+04-1.70595E+05 1.28684E+05-4.34162E+05 8.73115E-11 1.51937E-07
 -1        52 2.05787E+04-1.48076E+05 6.74585E+04-5.06368E+05 5.06589E-10 5.12373E-08
 -1        53 4.15711E+03-1.63428E+05 3.50229E+04-4.32674E+05 2.69210E-10 3.65399E-08
 -1        54 7.26486E+03-1.59212E+05 2.85663E+04-5.07822E+05-4.11092E-10 1.16843E-07
 -1        55 1.58429E+04-1.66146E+05 3.44979E+04-4.32588E+05 4.94765E-10-4.82614E-08
 -1        56-9.81066E+06-1.39618E+06-9.25556E+05-4.10886E+06 2.48256E-08-7.08387E-08
 -1        57-1.11261E+07-7.66829E+05-5.44955E+05-2.66810E+06 1.06302E-08 1.06433E-07
 -1        58-9.58804E+06-1.87112E+06-2.01913E+05-4.31260E+06-1.33732E-08-1.53253E-07
 -1        59-1.13402E+07-2.15869E+05-1.07083E+05-2.59228E+06-6.38784E-09-4.42167E-07
 -1        60-9.68632E+06-1.87453E+06-5.87999E+04-4.26364E+06-1.69166E-09-5.02405E-08
 -1        61-1.06332E+07-5.76910E+05 2.10671E+04-2.84647E+06-2.46473E-08-7.22794E-08
 -1        62-1.01428E+07-1.61299E+06-8.46342E+04-3.93700E+06-4.42669E-08-3.35058E-08
 -1        63-9.65856E+06-1.33956E+06 6.26682E+04-3.58805E+06-1.13432E-08-1.98143E-08
 -1        64-1.05377E+07-1.19989E+06-7.79191E+04-3.44449E+06-6.31553E-09 4.43470E-08
 -1        65-9.27344E+06-1.98234E+06 1.75418E+04-4.56587E+06-1.97033E-08 1.57588E-08
 -1        66-1.06698E+07-8.71698E+05-4.78070E+04-3.06656E+06-2.99333E-08 5.99175E-08
 -1        67-9.30304E+06-2.25010E+06-9.62990E+04-5.03232E+06-4.51573E-08-7.21557E-08
 -1        68-1.06500E+07-8.32198E+05-1.87900E+05-3.06581E+06-5.44806E-08-2.33194E-07
 -1        69-9.46669E+06-2.32145E+06-4.83761E+05-4.53355E+06-6.80620E-08-2.63724E-07
 -1        70-1.03739E+07-9.05206E+05-8.51158E+05-3.47938E+06 8.58745E-09-1.57161E-09
 -1        86-1.56161E+06-1.58772E+07-2.85076E+06-3.18600E+06-2.79415E-07-3.42552E-08
 -1        87 2.46127E+06 6.48232E+06 2.37082E+06 5.86264E+06-4.69132E-07 1.10213E-08
 -1        88-4.66602E+05-1.92121E+06 2.24954E+05-2.59886E+06-4.07032E-07-2.85258E-08
 -1        89 3.29511E+06 6.17463E+06 2.43030E+06 6.06176E+06-5.97516E-07-2.47919E-07
 -1        90-2.29776E+06-1.56482E+07-3.07669E+06-3.41576E+06-1.59685E-07-1.87298E-07
 -1       121-2.03921E+03-1.56078E+06-5.48267E+02 1.09475E+03 1.41807E-09-1.04192E-08
 -1       122-1.30317E+03-1.55594E+06 7.68379E+02-4.42173E+03-5.70240E-09-1.67638E-08
 -1       123-2.05892E+03-1.56091E+06 2.58291E+02 3.26958E+03 4.31032E-09 6.05360E-09
 -1       124 3.30461E+02-1.55549E+06 2.94400E+03-9.25355E+03-1.01354E-08 1.68075E-09
 -1       125-2.86640E+03-1.56181E+06 3.45149E+03 5.88057E+03 6.92853E-09 7.01039E-09
 -1       191-8.15607E+01 3.90242E+05 2.19120E+01-3.61528E+00 3.54333E-10-1.92958E-08
 -1       192-7.49549E+01 3.90228E+05 4.58635E+01 3.74147E+01 5.45128E-10-2.14932E-08
 -1       193-7.33595E+01 3.90239E+05 8.18490E+01-3.36227E+01 1.24646E-09-2.77469E-08
 -1       194-3.34462E+01 3.90242E+05 1.81122E+02 3.08745E+02 1.06002E-09-2.49838E-09
 -1       195 4.83437E+01 3.90215E+05 3.58221E+02-2.74923E+02 2.11730E-09 1.31968E-08
 -1       251-8.61208E+05 1.61515E+04-3.77049E+04-1.44332E+04 3.77058E-09-5.34037E-08
 -1       252-8.75427E+05-1.86941E+04-2.62223E+04 5.10439E+04-1.49475E-09 3.43607E-08
 -1       253-8.69651E+05 2.47758E+03-1.01663E+04-1.01477E+04-5.77643E-09 1.41161E-07
 -1       254-8.61921E+05-3.00917E+03-4.50918E+03 3.62957E+04 3.22245E-09 8.23738E-08
 -1       255-8.74089E+05 4.95232E+01-3.54830E+03 3.11160E+02-3.89264E-10 1.09861E-07
 -1       256-8.56468E+05-2.72209E+02 1.22642E+03 1.25846E+04-6.74925E-09 1.57511E-07
 -1       257-8.74657E+05-5.90517E+02-1.41210E+03 1.35516E+04 7.01812E-09 9.66697E-08
 -1       258-8.59362E+05 9.27342E+02 2.74543E+03-1.23165E+04-4.74290E-09 1.78850E-07
 -1       259-8.71450E+05-9.53847E+02 1.36535E+03 2.52099E+04-6.05337E-09 4.84146E-08
 -1       260-8.65887E+05 2.97643E+03 5.60225E+03-3.02695E+04 2.08752E-09 1.15722E-07
 -1       261-8.68779E+05-2.14044E+03 8.68501E+03 3.15214E+04 2.96064E-08 2.05530E-07
 -1       262-8.64605E+05 1.18588E+04 2.15758E+04-3.55194E+04-1.83591E-08 3.78214E-07
 -1       263-8.72989E+05-9.60414E+03 3.41803E+04 3.04695E+04 4.52945E-09 1.85841E-07
 -1       264-8.33916E+05 6.72877E+04 9.46514E+04-2.62465E+04 2.37399E-08 6.00958E-08
 -1       265-8.98963E+05-5.77070E+04 1.31767E+05 2.22359E+04 3.13973E-08-1.07917E-07
 -1       266-1.67115E+04-7.81512E+03 3.92059E+04-1.73747E+01 2.18279E-11 1.31752E-07
 -1       267 1.93729E+04 9.10739E+03 2.77122E+04 2.00487E+01-1.13687E-11 4.62799E-08
 -1       268-2.59788E+03-1.28993E+03 1.03004E+04-2.55445E+00-4.68390E-11-7.64602E-08
 -1       269 3.06732E+03 1.54369E+03 6.69518E+03 2.97566E+00-4.41105E-11-2.92381E-07
 -1       270-4.60409E+02-2.53644E+02 3.23186E+03-4.03813E-01-2.67164E-11-3.73170E-09
 -1       271-1.46817E+06-1.87205E+05-1.10644E+05-5.71528E+05 4.99676E-09 2.73860E-07
 -1       272-1.46181E+06-3.01321E+05-6.94144E+04-6.11538E+05-2.03927E-08-3.22148E-07
 -1       273-1.49159E+06-2.10571E+05-2.68613E+04-5.63499E+05 8.36735E-09 1.78048E-07
 -1       274-1.43525E+06-2.73152E+05-1.39294E+04-6.26798E+05 2.71775E-08-2.74122E-08
 -1       275-1.49719E+06-2.10066E+05-6.70957E+03-5.59719E+05 2.44800E-08-9.56634E-08
 -1       276-1.42972E+06-2.74121E+05-2.80644E+03-6.35510E+05-3.44899E-08 2.24089E-07
 -1       277-1.50002E+06-2.07404E+05-1.86246E+03-5.56983E+05-7.71797E-09 2.87188E-07
 -1       278-1.42762E+06-2.77318E+05-6.95319E+02-6.41905E+05-3.20961E-09 7.75071E-08
 -1       279-1.50182E+06-2.05242E+05-8.51403E+02-5.55071E+05-5.19740E-08 9.94828E-08
 -1       280-1.42666E+06-2.79701E+05-9.56953E+02-6.46088E+05-6.19584E-08-3.76604E-08
 -1       281-1.50277E+06-2.03894E+05-1.76992E+03-5.54004E+05 3.47845E-08 9.50345E-08
 -1       282-1.42703E+06-2.81819E+05-4.11311E+03-6.47778E+05-9.45147E-09 8.16749E-09
 -1       283-1.50228E+06-2.02710E+05-7.32263E+03-5.53892E+05 4.09018E-08 1.06206E-07
 -1       284-1.43360E+06-2.91358E+05-1.99427E+04-6.45582E+05-4.23435E-08-3.09159E-07
 -1       285-1.49607E+06-1.95521E+05-3.11614E+04-5.55672E+05 3.10829E-08-7.29415E-08
 -1       301-8.22139E+03-6.49683E+05 1.66746E+05-1.14294E+06-1.72295E-08 1.63811E-07
 -1       302-1.02625E+04-6.02631E+05 1.00350E+05-1.66809E+06-3.20142E-09 1.58525E-07
 -1       303-2.26489E+04-6.42462E+05 5.66264E+04-1.13979E+06-7.21775E-09-2.73676E-07
 -1       304-2.60639E+04-6.09929E+05 5.68592E+04-1.66753E+06-6.59202E-09 1.44355E-08
 -1       305-2.70572E+04-6.31146E+05 6.97400E+04-1.14288E+06 1.58088E-08-7.25413E-08
 -1       306-3.01349E+07-6.21746E+06-8.61087E+06-4.86947E+05-1.16997E-07-1.83587E-07
 -1       307 2.52827E+07 3.29147E+06 5.50769E+06-1.52840E+07-8.29852E-07-1.10333E-07
 -1       308-6.91323E+06-1.01278E+06-4.35199E+05 5.21176E+06-1.04454E-07 9.87638E-08
 -1       309-3.18660E+06 8.74545E+06 2.29605E+06-2.07118E+07 4.94583E-07 2.19763E-07
 -1       310-1.26605E+07-1.95744E+06-2.06530E+06 5.22039E+06 7.61938E-08-1.71960E-07
 -1       311 3.87011E+07-3.03171E+03 7.31864E+06-8.71690E+06 5.56611E-07-5.38712E-08
 -1       312-3.19968E+07-6.82207E+06-8.57052E+06-5.11333E+06 7.25267E-08-1.05501E-08
 -1       313 4.54216E+07 1.51961E+07 1.06953E+07 2.39542E+07-4.77885E-07-4.83997E-07
 -1       314-1.71589E+07-1.78765E+07-7.53212E+06-1.25437E+07 3.13623E-07-1.95869E-07
 -1       315-1.94048E+06 2.98330E+07 5.66793E+06 1.04517E+07-3.73679E-07 5.85860E-08
 -1       316 1.43913E+06-9.82882E+06-4.27084E+05-2.48843E+06-1.22322E-06-2.85072E-07
 -1       317-1.70937E+07 2.24517E+07 2.24931E+06-8.89792E+06 8.07238E-07-6.90488E-07
 -1       318-1.08762E+06-1.28574E+07-2.06668E+06-4.24287E+06-9.23348E-07 9.90112E-08
 -1       319 7.30581E+06 3.21099E+07 7.07544E+06 1.67027E+07-6.30098E-08 1.90339E-07
 -1       320-2.26549E+07-1.76979E+07-9.88847E+06-1.28478E+07 1.80909E-07-6.27188E-08
 -1       336-7.50715E+02-1.68960E+06-1.38267E+04 8.89593E+03-2.65627E-08 1.81753E-08
 -1       337-5.40397E+03-1.68913E+06-1.80384E+04-2.16128E+04-4.80620E-08 3.71074E-09
 -1       338 2.68816E+02-1.68908E+06-2.84190E+04 1.24655E+04-3.41606E-08 6.82485E-09
 -1       339-3.01580E+04-1.70634E+06-6.42235E+04-2.86061E+04-6.31499E-08 3.05154E-08
 -1       340 1.98568E+04-1.67457E+06-1.01174E+05 1.57584E+04-4.08036E-08 2.95004E-08
 -1       406-1.92681E+02 3.86322E+05 4.29507E+02 2.79107E+02-1.68984E-09-6.41558E-09
 -1       407 1.05000E+02 3.86432E+05 1.27185E+03-2.89945E+02-3.02862E-10-1.10449E-08
 -1       408 6.23407E+02 3.86217E+05 2.69946E+03 1.05633E+01-2.34650E-09-7.89441E-10
 -1       409 2.90339E+03 3.87325E+05 6.16516E+03 2.44142E+02-5.29440E-10 1.80344E-08
 -1       410 8.47909E+03 3.85427E+05 1.26178E+04-2.71510E+02-3.02680E-09 6.94126E-09
 -1       521-3.17255E+07-7.69156E+06-1.00815E+07-9.00275E+04-9.11532E-08-1.90630E-07
 -1       522 2.61972E+07 4.34723E+06 5.62826E+06-1.88294E+07-5.77304E-07-3.73373E-07
 -1       523-7.48422E+06-1.32989E+06-4.26579E+05 5.66833E+06 3.20433E-08-4.40094E-07
 -1       524-6.69400E+06 1.18508E+07 2.48968E+06-2.38084E+07 8.66246E-07-4.58800E-07
 -1       525-1.34617E+07-2.60648E+06-2.27536E+06 5.68353E+06 7.69563E-07-3.74275E-08
 -1       526 4.23503E+07-1.02877E+05 7.69392E+06-1.13758E+07 1.54483E-07-8.49832E-08
 -1       527-3.38961E+07-8.54020E+06-9.89873E+06-4.98062E+06-8.47504E-08 1.67362E-07
 -1       528 4.96806E+07 1.69902E+07 1.11760E+07 2.73010E+07 2.45869E-07-2.91155E-07
 -1       529-1.81110E+07-2.01314E+07-8.65281E+06-1.25831E+07 1.91736E-07-2.31550E-07
 -1       530-4.43114E+06 3.47102E+07 6.01076E+06 9.88447E+06-2.76123E-07 3.72936E-07
 -1       531 1.44910E+06-1.09090E+07-3.98664E+05-2.42118E+06-7.56976E-07 5.56465E-08
 -1       532-1.95907E+07 2.44778E+07 2.46415E+06-1.32563E+07 3.39889E-07-7.21600E-07
 -1       533-1.12725E+06-1.40310E+07-2.20694E+06-4.03585E+06-3.08326E-07-1.04646E-06
 -1       534 5.31591E+06 3.73490E+07 7.37841E+06 1.73128E+07-4.68572E-08 7.68341E-07
 -1       535-2.38661E+07-2.01393E+07-1.13603E+07-1.29323E+07 1.15368E-07 4.65719E-07
 -1       536-7.06694E+05-4.67632E+04-4.84261E+04-5.47549E+04 2.06455E-10 7.09333E-08
 -1       537-5.43547E+04 4.46899E+04 8.39641E+04 1.23992E+05-1.08850E-07 1.04125E-07
 -1       538-3.94471E+05 3.35957E+03 3.51321E+03-7.22783E+04 5.92065E-08 1.07426E-07
 -1       539-2.68891E+05 2.84887E+03 2.49356E+04 1.38895E+05 1.76568E-07 1.25194E-07
 -1       540-4.97548E+05-4.26781E+02-2.13674E+04-7.01945E+04-1.42304E-08 1.16640E-07
 -1       541 1.47532E+05 1.69994E+04 1.06561E+05 9.80650E+04-3.43935E-08 7.30965E-08
 -1       542-7.99673E+05-2.01697E+04-8.43858E+04-3.05705E+04 6.92080E-08 2.98794E-08
 -1       543 4.06730E+05 2.73744E+04 1.58253E+05-1.33654E+04 2.29472E-08-2.01148E-08
 -1       544-7.49793E+05-1.65686E+04-7.49742E+04 4.05647E+04-3.24476E-08-3.91562E-08
 -1       545 2.97229E+04 9.50474E+03 7.99656E+04-1.13757E+05 1.07336E-08-5.18860E-08
 -1       546-4.32792E+05 6.10362E+03-1.22507E+04 6.94741E+04 2.18788E-08-7.00028E-08
 -1       547-2.86972E+05-4.65502E+03 1.06232E+04-1.41742E+05-1.17445E-07-1.14821E-07
 -1       548-4.41613E+05 4.72219E+03-2.38991E+04 6.92423E+04-1.17554E-07-9.16248E-08
 -1       549 4.88889E+04 1.61483E+04 6.06860E+04-1.11626E+05-6.87370E-08-6.32472E-08
 -1       550-7.59665E+05-2.22207E+04-1.29104E+05 3.86401E+04 6.89033E-09-4.47162E-08
 -1       551 4.07947E+04-7.49889E+05-1.59236E+04-1.24701E+06-1.00539E-07-6.98492E-10
 -1       552 9.32706E+04-7.94881E+05 9.89687E+03-1.77807E+06-7.35017E-08 2.34650E-08
 -1       553 7.17718E+04-7.91279E+05 3.20184E+04-1.24036E+06-1.19049E-07 1.82627E-08
 -1       554 1.32064E+05-8.10782E+05 8.10243E+04-1.78001E+06-7.61793E-08 2.31576E-08
 -1       555 1.01510E+05-8.14930E+05 1.47980E+05-1.24019E+06-1.24230E-07-1.15706E-08
 -1       556 2.23772E+05-3.83741E+05 2.56118E+04-4.07226E+05-2.49420E-08-9.40054E-09
 -1       557 3.54329E+05-4.88090E+05 1.60774E+04-5.27675E+05-2.40107E-09 1.70367E-08
 -1       558 2.05528E+05-3.76507E+05 2.29040E+03-4.11686E+05-1.64146E-08 1.21290E-08
 -1       559 3.29320E+05-4.88140E+05 2.42455E+03-5.48136E+05 2.30648E-08-2.87037E-09
 -1       560 1.90214E+05-3.66904E+05-1.51472E+03-4.22722E+05 1.00990E-08-4.07454E-10
 -1       561 3.10079E+05-4.80438E+05 1.25694E+02-5.61256E+05 1.21654E-08 1.47083E-08
 -1       562 1.78105E+05-3.59381E+05-1.33041E+03-4.31491E+05 1.54250E-09-8.40373E-09
 -1       563 2.95696E+05-4.74167E+05-3.83072E+01-5.70651E+05-3.38332E-09-3.54785E-08
 -1       564 1.69461E+05-3.53996E+05-6.02509E+02-4.37616E+05 1.76806E-08-1.26997E-08
 -1       565 2.86153E+05-4.70011E+05 2.33684E+01-5.76748E+05 2.35741E-08-6.68842E-09
 -1       566 1.64407E+05-3.50798E+05-2.60894E+02-4.41152E+05-2.62662E-09-4.16403E-08
 -1       567 2.81511E+05-4.67993E+05-3.63004E+02-5.79567E+05 1.69020E-08 4.25644E-09
 -1       568 1.63032E+05-3.49956E+05-1.12651E+03-4.42209E+05 1.29330E-09 9.68066E-09
 -1       569 2.80383E+05-4.67918E+05-2.84518E+03-5.78143E+05 4.28372E-10 1.10304E-08
 -1       570 1.66428E+05-3.53189E+05-6.21938E+03-4.41191E+05 6.91216E-09-6.60384E-09
 -1       571 2.90444E+05 1.05072E+04 1.49876E+04-9.51759E+04-1.25146E-09 1.20499E-08
 -1       572 2.92616E+05 3.96144E+03 7.34513E+03-1.04417E+05 3.66481E-09 2.89310E-09
 -1       573 2.91307E+05 1.24716E+03 3.26368E+03-9.49994E+04 4.17731E-09-2.38106E-09
 -1       574 2.91520E+05 7.28891E+02 1.63671E+03-1.04642E+05 5.57156E-09 9.69158E-09
 -1       575 2.91400E+05 4.49584E+02 7.72481E+02-9.49753E+04-1.22493E-09 1.08221E-08
 -1       576 2.91384E+05 4.61093E+02 3.95507E+02-1.04672E+05-5.32782E-09 9.10586E-09
 -1       577 2.91440E+05 3.91505E+02 1.97439E+02-9.49720E+04-4.03179E-09-3.66981E-09
 -1       578 2.91415E+05 4.23049E+02 1.14055E+02-1.04676E+05-2.59024E-09 1.94468E-08
 -1       579 2.91512E+05 3.54834E+02 7.83376E+01-9.49716E+04 5.98629E-09-2.90947E-09
 -1       580 2.91516E+05 3.72038E+02 9.09211E+01-1.04671E+05-1.02646E-08-7.22139E-09
 -1       581 2.91626E+05 2.96272E+02 1.37339E+02-9.49776E+04 3.81624E-09-4.97766E-09
 -1       582 2.91692E+05 3.34670E+02 2.79236E+02-1.04609E+05-6.76664E-10 2.07174E-08
 -1       583 2.91766E+05 3.38692E+02 5.35962E+02-9.50341E+04 1.40790E-09 1.57427E-08
 -1       584 2.92067E+05 7.76587E+02 1.21283E+03-1.04133E+05 8.39646E-09-1.77579E-10
 -1       585 2.91792E+05 1.79717E+03 2.45593E+03-9.54531E+04 1.02227E-09-9.20045E-09
 -1       586-3.42623E+03 1.16882E+05-2.91410E+03-2.50631E+05-6.47742E-09 6.10680E-09
 -1       587-1.34192E+03 1.16634E+05 7.73615E+02-2.75838E+05-7.73252E-09 2.00866E-08
 -1       588 3.95975E+02 1.16440E+05 4.76232E+03-2.50493E+05-5.91353E-09 1.86365E-08
 -1       589 5.08414E+03 1.18915E+05 1.23499E+04-2.75605E+05-9.50968E-09-5.72891E-09
 -1       590 1.66136E+04 1.15106E+05 2.59057E+04-2.50925E+05-3.29965E-09 1.89521E-08
 -1       591-7.50138E+04-1.59803E+04-2.25303E+04-3.19739E+04 3.69960E-09-4.80304E-09
 -1       592-7.91013E+04-1.95401E+04-1.22042E+04-3.56016E+04 1.28498E-08-1.72449E-08
 -1       593-7.72671E+04-1.43454E+04-5.08001E+03-3.36259E+04 7.82521E-10-7.91215E-09
 -1       594-7.59905E+04-1.62340E+04-2.53353E+03-3.57194E+04-2.23275E-09 1.47407E-08
 -1       595-7.74389E+04-1.43400E+04-1.16315E+03-3.37009E+04-2.47832E-09 8.47299E-09
 -1       596-7.57775E+04-1.60828E+04-5.91076E+02-3.56941E+04 3.90855E-09 1.42098E-08
 -1       597-7.74604E+04-1.43554E+04-3.21410E+02-3.37038E+04 7.61077E-09-4.71692E-09
 -1       598-7.57565E+04-1.60769E+04-2.57554E+02-3.56870E+04 5.24290E-09-1.67840E-08
 -1       599-7.74592E+04-1.43559E+04-3.27970E+02-3.37034E+04 1.11474E-08-2.38822E-08
 -1       600-7.57775E+04-1.60834E+04-6.08442E+02-3.56920E+04 1.61831E-08 5.62386E-09
 -1       601-7.74345E+04-1.43414E+04-1.19990E+03-3.36999E+04 5.69048E-09 7.61133E-09
 -1       602-7.59972E+04-1.62382E+04-2.61483E+03-3.57142E+04-7.73787E-09-1.03045E-08
 -1       603-7.72545E+04-1.43499E+04-5.24370E+03-3.36233E+04-1.51954E-09 2.00052E-08
 -1       604-7.92258E+04-1.96311E+04-1.25966E+04-3.55678E+04 4.73415E-09 1.53882E-08
 -1       605-7.49086E+04-1.60552E+04-2.32548E+04-3.19376E+04 7.97849E-09 1.26638E-08
 -1       606 2.67013E+04-1.43278E+04-2.56841E+04 2.39965E+04 7.18774E-09 4.12047E-09
 -1       607 2.23128E+04-4.67981E+03-1.27906E+04 2.69671E+04-2.32103E-09-7.15499E-09
 -1       608 2.48138E+04-8.44591E+02-5.72592E+03 2.38278E+04-4.45471E-09-1.01379E-08
 -1       609 2.43345E+04-2.89691E+02-2.89258E+03 2.71813E+04 4.07454E-10 1.99407E-09
 -1       610 2.46003E+04-4.14118E+01-1.38008E+03 2.38078E+04 5.70435E-09 1.90551E-08
 -1       611 2.45250E+04-4.17306E+01-6.95827E+02 2.72044E+04 9.79117E-09 5.58362E-09
 -1       612 2.45531E+04-2.76968E+01-3.30781E+02 2.38058E+04 7.45786E-10-9.33551E-09
 -1       613 2.45366E+04-3.76332E+01-1.48200E+02 2.72071E+04 2.32467E-09-1.59687E-08
 -1       614 2.45310E+04-3.41092E+01-3.46799E+01 2.38051E+04-8.59836E-09 2.24052E-08
 -1       615 2.45313E+04-3.61387E+01 6.22919E+01 2.72076E+04-2.63894E-08 2.82571E-08
 -1       616 2.45136E+04-3.09812E+01 1.86629E+02 2.38053E+04-1.13446E-08 5.99448E-09
 -1       617 2.45538E+04 3.63358E+00 4.25739E+02 2.72071E+04 7.90351E-10-1.94871E-08
 -1       618 2.44766E+04 9.17522E+01 8.58122E+02 2.38056E+04 6.53017E-10 4.46721E-09
 -1       619 2.48567E+04 6.67135E+02 1.92696E+03 2.72065E+04-6.52108E-10 1.56660E-08
 -1       620 2.41916E+04 2.12659E+03 3.87314E+03 2.38072E+04-2.79897E-10 1.16461E-08
 -1       621 5.11809E+02 3.01438E+05 3.88645E+03 4.09988E+04 9.32687E-10 2.04454E-09
 -1       622 6.78104E+02 3.02335E+05 3.44847E+03 5.95198E+04 1.01363E-09 2.52435E-08
 -1       623 1.43367E+02 3.01632E+05 4.14303E+03 4.08134E+04 1.26170E-09 4.34738E-10
 -1       624 2.12741E+03 3.03552E+05 8.03098E+03 5.97024E+04 1.46377E-09-9.37985E-09
 -1       625 2.07829E+03 3.00040E+05 1.40335E+04 4.08101E+04 1.69621E-09-5.34101E-09
 -1       626 2.60833E+05 6.14056E+04 5.11792E+03 1.26726E+05 1.93995E-09 3.41788E-09
 -1       627 2.58515E+05 6.28038E+04 2.46629E+03 1.30999E+05 3.63025E-09-1.04383E-08
 -1       628 2.60961E+05 5.90638E+04 1.04306E+03 1.27596E+05-6.20457E-09-2.57387E-09
 -1       629 2.57880E+05 6.21241E+04 5.10527E+02 1.31239E+05-8.27640E-09-5.83516E-09
 -1       630 2.60976E+05 5.89507E+04 2.36924E+02 1.27633E+05-7.00129E-09 1.90330E-08
 -1       631 2.57813E+05 6.20983E+04 1.27633E+02 1.31241E+05-2.60388E-09 2.33856E-08
 -1       632 2.60972E+05 5.89546E+04 8.42280E+01 1.27629E+05 5.11000E-09 1.21972E-08
 -1       633 2.57805E+05 6.21001E+04 9.42000E+01 1.31238E+05 6.12590E-09 6.20389E-09
 -1       634 2.60968E+05 5.89518E+04 1.52557E+02 1.27628E+05 3.86052E-09 5.70481E-09
 -1       635 2.57819E+05 6.20984E+04 3.08900E+02 1.31243E+05 2.16835E-09-1.28102E-09
 -1       636 2.60958E+05 5.89460E+04 6.23928E+02 1.27628E+05 7.08405E-09-2.75486E-09
 -1       637 2.57954E+05 6.21954E+04 1.37193E+03 1.31243E+05 4.25393E-09-8.83165E-09
 -1       638 2.60910E+05 5.92490E+04 2.81881E+03 1.27491E+05 1.58252E-09-5.96765E-09
 -1       639 2.59435E+05 6.42548E+04 6.66946E+03 1.30807E+05 4.46016E-09-1.26781E-08
 -1       640 2.60705E+05 6.53987E+04 1.38403E+04 1.24900E+05 2.70802E-09-1.72220E-08
 -1       656 6.65751E+04-1.70381E+06-1.60708E+05-2.57058E+03-2.11003E-10 1.22094E-09
 -1       657-8.80731E+04-1.77643E+06-1.33137E+05 5.15410E+03-1.72167E-09 4.31054E-09
 -1       658 2.12218E+04-1.72443E+06-8.19960E+04-4.65443E+03 5.91172E-11 5.88372E-10
 -1       659-9.52379E+04-1.77983E+06-1.42553E+05 6.88525E+03-1.56797E-09 9.16790E-09
 -1       660 7.37240E+04-1.70041E+06-1.76896E+05-4.30171E+03-1.98634E-09 1.77247E-08
 -1       661 1.58635E+05 1.65993E+04 1.67216E+04 6.20121E+04-2.77669E-09 6.28461E-09
 -1       662 1.68088E+05 2.89833E+04 1.12692E+04 5.82611E+04 4.53383E-10-1.97233E-08
 -1       663 1.61920E+05 2.19639E+04 3.94126E+03 6.10589E+04-1.44792E-09-1.04874E-08
 -1       664 1.64280E+05 2.27098E+04 2.35770E+03 5.94255E+04 3.17903E-09-2.16313E-08
 -1       665 1.62418E+05 2.26966E+04 9.30094E+02 6.09135E+04-1.60867E-10-1.18818E-08
 -1       666 1.63690E+05 2.18720E+04 5.44435E+02 5.96152E+04 7.36276E-09 3.75864E-09
 -1       667 1.62505E+05 2.27799E+04 2.89369E+02 6.08770E+04-1.05800E-09-8.13856E-10
 -1       668 1.63594E+05 2.18122E+04 2.95289E+02 5.96682E+04-5.31043E-09 7.09316E-09
 -1       669 1.62513E+05 2.27548E+04 4.00139E+02 6.08607E+04 9.06653E-12 8.30212E-09
 -1       670 1.63691E+05 2.20295E+04 8.71647E+02 5.96712E+04-1.21694E-08 8.70881E-09
 -1       671 1.62408E+05 2.25671E+04 1.54779E+03 6.08720E+04 2.27879E-09-1.25539E-08
 -1       672 1.64593E+05 2.35353E+04 3.96007E+03 5.94526E+04 5.71420E-09 4.07590E-09
 -1       673 1.61616E+05 2.12871E+04 6.63648E+03 6.10647E+04 4.06351E-09 4.33874E-09
 -1       674 1.70910E+05 3.41976E+04 1.89789E+04 5.75970E+04-2.09968E-09-2.80124E-10
 -1       675 1.56132E+05 1.22034E+04 2.81714E+04 6.26156E+04-1.67665E-09-3.65071E-09
 -1       676 2.41169E+01-2.95921E+05-1.11364E+03-1.38066E+02 5.67269E-10-4.04916E-09
 -1       677-2.94573E+02-2.96191E+05-2.03816E+03 2.75910E+02 9.45849E-09-1.18186E-08
 -1       678 1.97584E+02-2.95729E+05-3.60296E+03-1.37753E+02 2.84354E-09-1.85091E-09
 -1       679-3.60300E+03-2.98366E+05-8.55913E+03 2.74718E+02 6.93035E-09 5.35476E-09
 -1       680 2.15121E+03-2.93747E+05-1.37944E+04-1.35352E+02 1.81899E-11-9.45803E-10
 -1       771-3.06240E+06-7.47535E+05-1.66113E+05-1.46617E+06-3.58850E-08-2.90747E-08
 -1       772-2.98523E+06-8.36449E+05-8.56432E+04-1.56897E+06-2.40398E-08 1.32604E-08
 -1       773-3.09393E+06-7.22951E+05-4.36586E+04-1.48073E+06-1.27184E-08 1.36351E-08
 -1       774-2.97570E+06-8.17894E+05-1.94783E+04-1.59476E+06 3.03698E-08-3.72529E-09
 -1       775-3.11040E+06-7.11397E+05-1.45702E+04-1.48780E+06-7.10133E-09 2.89583E-09
 -1       776-2.98807E+06-8.14851E+05-5.44867E+03-1.61428E+06-2.03727E-09 4.29281E-09
 -1       777-3.12469E+06-7.01083E+05-6.43779E+03-1.49403E+06 2.73576E-09 2.73576E-09
 -1       778-3.00099E+06-8.12020E+05-1.82015E+03-1.63106E+06 1.03319E-08 1.03901E-08
 -1       779-3.13698E+06-6.92070E+05-3.21714E+03-1.49936E+06-1.37516E-08-8.25094E-09
 -1       780-3.01236E+06-8.09320E+05-5.33344E+02-1.64472E+06 5.31145E-10-6.69388E-10
 -1       781-3.14675E+06-6.84804E+05-1.24949E+03-1.50352E+06-2.69210E-08-5.30417E-09
 -1       782-3.02113E+06-8.07028E+05 4.51475E+02-1.65481E+06-3.41097E-08-2.56750E-09
 -1       783-3.15363E+06-6.79755E+05 7.03222E+02-1.50644E+06-6.80302E-09-1.37288E-08
 -1       784-3.02598E+06-8.04737E+05 2.91174E+03-1.66103E+06-2.05000E-08 1.77442E-09
 -1       785-3.15770E+06-6.76743E+05 5.14059E+03-1.50829E+06-3.59905E-08 8.74206E-09
 -1       786 1.24035E+05-9.78445E+03 2.26373E+04-3.23813E+02 3.34224E-09-1.13914E-08
 -1       787 1.33853E+05 1.13282E+04 1.60150E+04-1.37198E+02 9.26193E-09 1.17211E-09
 -1       788 1.27820E+05-1.53324E+03 5.85677E+03-2.88645E+02 4.88138E-09 2.24532E-08
 -1       789 1.29443E+05 1.77470E+03 3.67669E+03-1.91061E+02-2.30618E-09-3.21870E-09
 -1       790 1.28445E+05-2.38720E+02 1.48868E+03-2.69968E+02-2.98565E-09 6.72435E-09
 -1       791 1.28712E+05 2.76225E+02 8.59910E+02-2.23014E+02-6.28737E-09 5.69041E-09
 -1       792 1.28551E+05-3.58856E+01 3.64571E+02-2.56694E+02-4.57522E-09-8.25875E-09
 -1       793 1.28585E+05 3.80133E+01 1.82130E+02-2.47986E+02 1.05533E-09-1.15107E-08
 -1       794 1.28572E+05-6.59105E-01 4.81034E+01-2.44996E+02 5.54936E-09 8.81828E-09
 -1       795 1.28549E+05-2.68596E+01-5.58729E+01-2.72403E+02-5.10731E-09-6.67638E-09
 -1       796 1.28588E+05 2.89510E+01-1.59572E+02-2.32276E+02 4.30581E-09 4.35108E-10
 -1       797 1.28455E+05-2.16143E+02-4.38987E+02-3.01627E+02 4.25218E-09 9.59767E-09
 -1       798 1.28665E+05 1.88482E+02-7.13172E+02-2.15772E+02 1.49276E-09 7.63768E-09
 -1       799 1.27914E+05-1.38921E+03-1.96225E+03-3.42504E+02 6.24171E-09 1.47941E-08
 -1       800 1.29129E+05 1.20106E+03-2.77706E+03-1.91401E+02 6.87111E-10 1.00830E-08
 -1       801-1.71778E+05-1.00094E+07-1.39537E+06 1.41837E+06 9.27830E-08-5.33582E-08
 -1       802 7.40062E+05 5.96931E+06 2.18649E+06-1.75116E+06 2.60225E-07-3.59587E-08
 -1       803-5.37757E+05-1.42898E+07-1.89449E+06 8.99687E+05 7.68778E-08 1.15033E-08
 -1       804 2.88039E+05 2.40934E+06 1.54093E+06 6.78394E+05-1.20675E-07-8.95639E-08
 -1       805 1.89537E+05-6.46349E+06-2.87150E+05-1.00551E+06-4.94765E-08-7.14654E-08
 -1       806-3.08800E+05-5.97463E+04-2.28376E+04-1.22384E+05-1.08084E-08-7.80665E-09
 -1       807-3.10594E+05-5.60216E+04-1.12199E+04-1.27929E+05 8.29959E-09 2.28098E-08
 -1       808-3.09427E+05-5.15157E+04-4.75982E+03-1.26275E+05-6.83804E-09 5.96663E-09
 -1       809-3.08235E+05-5.28691E+04-2.32743E+03-1.28205E+05-1.07273E-08-2.14649E-08
 -1       810-3.09522E+05-5.12292E+04-1.06680E+03-1.26447E+05 4.45198E-09 1.13057E-08
 -1       811-3.08052E+05-5.27424E+04-5.30541E+02-1.28169E+05 7.82165E-09 7.94284E-09
 -1       812-3.09536E+05-5.12539E+04-2.68409E+02-1.26446E+05-4.14730E-10 4.66571E-10
 -1       813-3.08027E+05-5.27446E+04-1.74586E+02-1.28150E+05-3.23507E-09-2.96286E-08
 -1       814-3.09529E+05-5.12636E+04-1.73253E+02-1.26442E+05-3.88354E-09-7.72570E-09
 -1       815-3.08030E+05-5.27469E+04-2.79355E+02-1.28143E+05-1.67847E-08-6.37624E-09
 -1       816-3.09508E+05-5.12627E+04-5.29609E+02-1.26438E+05-2.37014E-09 9.74023E-09
 -1       817-3.08120E+05-5.27974E+04-1.13666E+03-1.28131E+05-1.58889E-08 2.47273E-08
 -1       818-3.09439E+05-5.14232E+04-2.31842E+03-1.26362E+05-5.98538E-09-5.71254E-09
 -1       819-3.09389E+05-5.41980E+04-5.45507E+03-1.27831E+05 8.19637E-09-2.75031E-09
 -1       820-3.09001E+05-5.55442E+04-1.11031E+04-1.24602E+05 4.22824E-09 3.87854E-09
 -1       821-3.78969E+05 2.08691E+04-4.85801E+04 2.13052E+03 1.41489E-08 1.02300E-08
 -1       822-3.98672E+05-2.41757E+04-3.41407E+04-4.45840E+03 6.09493E-09-9.13178E-09
 -1       823-3.86433E+05 3.28968E+03-1.25478E+04 3.44180E+03-1.29116E-08 1.32331E-08
 -1       824-3.89662E+05-3.79360E+03-7.85406E+03-5.37171E+03 1.24961E-09 2.97973E-10
 -1       825-3.87986E+05 5.11217E+02-3.28904E+03 3.04396E+03 2.22492E-08-1.95032E-08
 -1       826-3.87229E+05-5.67224E+02-1.74379E+03-3.09748E+03 2.76350E-08 2.92289E-10
 -1       827-3.88841E+05 4.67450E+01-1.19022E+03 1.16741E+03 1.31017E-08 4.17407E-09
 -1       828-3.86523E+05-1.31943E+02-5.85675E+02 1.09849E+03 1.17325E-10 1.50791E-08
 -1       829-3.88679E+05 6.58586E+01-1.17909E+03-1.15204E+03 4.18675E-09 1.17308E-09
 -1       830-3.87579E+05-6.22090E+02-1.88198E+03 4.89010E+03-1.36129E-09-4.55793E-09
 -1       831-3.87807E+05 5.54540E+02-3.37079E+03-2.62422E+03-5.23601E-09-2.74486E-09
 -1       832-3.89742E+05-3.96044E+03-8.15666E+03 6.17239E+03-1.38798E-09-1.74987E-09
 -1       833-3.86532E+05 3.41377E+03-1.30515E+04-2.43437E+03-2.25596E-09 1.48439E-08
 -1       834-3.98732E+05-2.50890E+04-3.53630E+04 4.19928E+03-3.94654E-09 2.64736E-08
 -1       835-3.78800E+05 2.16502E+04-5.04496E+04-6.51027E+02 5.39004E-09 6.34464E-09
 -1       836-1.41424E+03 3.70205E+05 2.29076E+04-1.61696E+04-7.05768E-09 1.24651E-08
 -1       837 4.88263E+03 3.77380E+05 1.93804E+04-3.30454E+04-7.86986E-09 1.53086E-08
 -1       838-5.58258E+02 3.72217E+05 1.97411E+04-1.60980E+04-6.27369E-09-9.74524E-10
 -1       839 1.24210E+04 3.82994E+05 3.73391E+04-3.30979E+04-6.81302E-09-7.55034E-09
 -1       840-3.84076E+03 3.64531E+05 5.95400E+04-1.61230E+04-6.15546E-09-7.35862E-09
 -1       856-5.22839E+04 8.02746E+03-2.11541E+04-3.97067E+02 3.84443E-09 7.52789E-09
 -1       857-6.09988E+04-9.43207E+03-1.45623E+04 5.63458E+03 5.67255E-09-8.53288E-09
 -1       858-5.57353E+04 1.12578E+03-5.48897E+03-4.21220E+02 4.06146E-09 1.24210E-08
 -1       859-5.70381E+04-1.32451E+03-3.31234E+03 5.67051E+03-1.50638E-09 1.51992E-08
 -1       860-5.62509E+04 1.57668E+02-1.38820E+03-4.32721E+02 1.00630E-09 3.92595E-09
 -1       861-5.64450E+04-1.88295E+02-7.63666E+02 5.68617E+03 3.33263E-09 2.44254E-08
 -1       862-5.63316E+04 2.13653E+01-3.17425E+02-4.36862E+02-1.33692E-09 3.53285E-09
 -1       863-5.63461E+04-2.19435E+01-1.15583E+02 5.68857E+03-7.08854E-09-9.60242E-09
 -1       864-5.63503E+04-4.89928E+00 4.73210E+01-4.35124E+02 7.68793E-10-6.61471E-09
 -1       865-5.62903E+04 5.96051E+01 2.55564E+02 5.67865E+03-5.15058E-09 5.18781E-10
 -1       866-5.63852E+04-6.02018E+01 5.14982E+02-4.26942E+02 1.34804E-09 5.54726E-09
 -1       867-5.60481E+04 4.97094E+02 1.26755E+03 5.65644E+03 1.79477E-09 1.03752E-08
 -1       868-5.65876E+04-4.34491E+02 2.10628E+03-4.12912E+02-1.50868E-09 2.18404E-09
 -1       869-5.45039E+04 3.61604E+03 5.60830E+03 5.61991E+03 1.41151E-09 2.40789E-09
 -1       870-5.79216E+04-3.09444E+03 8.13890E+03-3.90303E+02-1.08366E-09-1.28598E-08
 -1       871-5.51647E+03-2.13303E+04-1.94889E+04 1.30406E+05-4.94038E-09-4.73301E-09
 -1       872-1.98003E+03-2.58625E+04-8.16032E+03 1.69091E+05-1.07002E-08 1.56597E-08
 -1       873 4.06714E+02-2.36702E+04 5.90137E+02 1.30119E+05-6.62931E-09-3.57454E-09
 -1       874 3.30801E+03-2.12599E+04 9.77940E+03 1.69121E+05-1.28603E-08 9.67020E-09
 -1       875 6.84789E+03-2.59999E+04 2.20613E+04 1.30358E+05-4.86580E-09-2.91220E-09
 -1       876 2.93753E+05 4.95065E+04 1.50995E+04 1.17880E+05 4.97039E-09-3.58432E-09
 -1       877 2.94751E+05 5.26866E+04 8.06376E+03 1.22212E+05 4.77871E-09-2.25361E-08
 -1       878 2.95165E+05 4.78338E+04 3.37831E+03 1.19117E+05-8.08632E-09-6.10248E-09
 -1       879 2.92699E+05 5.06382E+04 1.68329E+03 1.22314E+05 5.63819E-09 3.40901E-09
 -1       880 2.95266E+05 4.78166E+04 7.84055E+02 1.19168E+05 2.24372E-09-4.31646E-09
 -1       881 2.92563E+05 5.05505E+04 4.18720E+02 1.22290E+05 2.62548E-09-6.07800E-09
 -1       882 2.95275E+05 4.78298E+04 2.67908E+02 1.19169E+05 3.81874E-09-1.72561E-09
 -1       883 2.92553E+05 5.05460E+04 2.88071E+02 1.22283E+05-4.58658E-09 1.38320E-08
 -1       884 2.95269E+05 4.78270E+04 4.58306E+02 1.19169E+05-5.46947E-10-8.93004E-09
 -1       885 2.92589E+05 5.05523E+04 9.21482E+02 1.22294E+05-3.25250E-09-2.79015E-08
 -1       886 2.95233E+05 4.78002E+04 1.85722E+03 1.19166E+05 5.92494E-09 1.81651E-08
 -1       887 2.92916E+05 5.07663E+04 4.05685E+03 1.22341E+05 9.02514E-09 2.20280E-08
 -1       888 2.94977E+05 4.78453E+04 8.17466E+03 1.19036E+05 5.40714E-09-6.46469E-09
 -1       889 2.97782E+05 5.58274E+04 1.95277E+04 1.22192E+05 1.45678E-09-3.76649E-08
 -1       890 2.91640E+05 5.18088E+04 3.65750E+04 1.15925E+05 2.15687E-09 5.99539E-09
 -1       891-8.89719E+01-1.62767E+05-1.99635E+03 2.71506E+04-3.24439E-09 8.45830E-10
 -1       892-1.74788E+02-1.63294E+05-2.14411E+03 4.12303E+04 3.19596E-09-3.92356E-09
 -1       893 4.40716E+01-1.62831E+05-3.03580E+03 2.71580E+04 7.42602E-10 9.00400E-11
 -1       894-1.50945E+03-1.64441E+05-6.28296E+03 4.10777E+04 2.53749E-09 6.14637E-09
 -1       895-1.19885E+03-1.61522E+05-1.10642E+04 2.73050E+04-2.20780E-10 1.52550E-08
 -1       956-3.77185E+05-5.44994E+03-1.34530E+04 3.08536E+04 9.07039E-09-1.10047E-08
 -1       957-3.79824E+05-1.92272E+03-6.90519E+03 3.70775E+04 6.21185E-10-2.83153E-08
 -1       958-3.78394E+05-2.41104E+02-3.11170E+03 3.06860E+04-4.83942E-09-2.31453E-08
 -1       959-3.78590E+05-1.36481E+02-1.58888E+03 3.72730E+04 4.71118E-09 1.16543E-08
 -1       960-3.78512E+05-4.49920E+01-7.74816E+02 3.06687E+04 4.93219E-09 1.49450E-08
 -1       961-3.78510E+05-6.34495E+01-4.10798E+02 3.72935E+04 9.67566E-09-8.13770E-09
 -1       962-3.78539E+05-4.62181E+01-2.35190E+02 3.06658E+04 4.29964E-09-7.72411E-09
 -1       963-3.78510E+05-5.92574E+01-1.88798E+02 3.72971E+04 5.13762E-09 1.37029E-08
 -1       964-3.78545E+05-4.28621E+01-2.29592E+02 3.06650E+04-6.24966E-09 5.41218E-09
 -1       965-3.78522E+05-5.62944E+01-3.97099E+02 3.72964E+04-1.45944E-08 1.10927E-08
 -1       966-3.78529E+05-3.50186E+01-7.46138E+02 3.06666E+04-2.84490E-09-7.87145E-09
 -1       967-3.78612E+05-1.19830E+02-1.53031E+03 3.72821E+04-2.15482E-09-5.39603E-09
 -1       968-3.78425E+05-2.17498E+02-2.99580E+03 3.06792E+04 4.85352E-09-6.71650E-09
 -1       969-3.79812E+05-1.83461E+03-6.65060E+03 3.71337E+04 1.95996E-09 8.82324E-10
 -1       970-3.77268E+05-5.23031E+03-1.29558E+04 3.08063E+04-4.21642E-09 1.00945E-08
 -1       971-3.45373E+05-1.72781E+03-9.31093E+03 1.53828E+04 1.60526E-09-1.50266E-10
 -1       972-3.47615E+05-1.27211E+03-5.07063E+03 2.12738E+04-3.76713E-09-4.89081E-09
 -1       973-3.46411E+05-6.21816E+01-2.27119E+03 1.52617E+04 5.17412E-09 8.57199E-10
 -1       974-3.46546E+05-8.12828E+01-1.17731E+03 2.14109E+04 4.50382E-09 1.25940E-08
 -1       975-3.46493E+05-1.72989E+01-5.88957E+02 1.52493E+04-5.32555E-09-5.20845E-09
 -1       976-3.46484E+05-3.14314E+01-3.40626E+02 2.14267E+04 2.58115E-09 3.31795E-09
 -1       977-3.46509E+05-1.65513E+01-2.48724E+02 1.52459E+04-2.72712E-09 3.06238E-09
 -1       978-3.46490E+05-2.52046E+01-2.93108E+02 2.14315E+04-2.86059E-09-7.38430E-09
 -1       979-3.46509E+05-8.07230E+00-4.72695E+02 1.52445E+04 1.23777E-09-4.11978E-09
 -1       980-3.46525E+05-2.21427E+01-9.13819E+02 2.14325E+04-4.50582E-09 2.09859E-08
 -1       981-3.46480E+05 1.47689E+01-1.77043E+03 1.52450E+04-1.72940E-09 9.28844E-09
 -1       982-3.46768E+05-1.52959E+02-3.65977E+03 2.14259E+04-1.43018E-09 1.08608E-08
 -1       983-3.46257E+05-9.85979E+01-7.11113E+03 1.52510E+04-5.23096E-09-5.79507E-09
 -1       984-3.50188E+05-3.86689E+03-1.59252E+04 2.13402E+04-1.03682E-08 1.90691E-08
 -1       985-3.43037E+05-5.30208E+03-2.92435E+04 1.53224E+04-7.96354E-09-6.00448E-09
 -3
    1PSTEP                        29          15           1          
  100CL  115 6.63036E-01         409                     0   15           1
 -4  DISP        4    1
 -5  D1          1    2    1    0
 -5  D2          1    2    2    0
 -5  D3          1    2    3    0
 -5  ALL         1    2    0    0    1ALL
 -1         1 2.72349E-03 0.00000E+00 0.00000E+00
 -1         2 1.34116E-03-1.61075E-27 5.29396E-23
 -1         3 3.42808E-04-5.84521E-28 0.00000E+00
 -1         5 1.77058E-04-1.53358E-27 2.48154E-24
 -1         8 2.71269E-03-4.03646E-07 0.00000E+00
 -1         9 2.70600E-03-1.95806E-04 0.00000E+00
 -1        10 3.10840E-04-3.39993E-06 6.61744E-24
 -1        12 1.78946E-04 8.17243E-07 1.65436E-24
 -1        15 2.70034E-03-4.27062E-07 1.03398E-25
 -1        16 2.77413E-03-1.97655E-04 0.00000E+00
 -1        17 2.11535E-04-7.75532E-06 0.00000E+00
 -1        18 1.82938E-04 3.44812E-05 0.00000E+00
 -1        19 1.84531E-04 1.62002E-06 0.00000E+00
 -1        20 1.84670E-04-9.93403E-06 0.00000E+00
 -1        21 1.83777E-04-2.55197E-05-3.30872E-24
 -1        24 3.06143E-05-1.19804E-05 0.00000E+00
 -1        25 1.93741E-04 3.47068E-05 0.00000E+00
 -1        26 1.94423E-04 2.24012E-06 0.00000E+00
 -1        27 1.92223E-04-1.34923E-05 0.00000E+00
 -1        28 1.91906E-04-2.61419E-05 0.00000E+00
 -1        32 0.00000E+00 0.00000E+00 0.00000E+00
 -1        33 2.03310E-04 2.99388E-06 0.00000E+00
 -1        34 2.01191E-04-1.35484E-05 0.00000E+00
 -1        35 1.99259E-04-2.64844E-05 0.00000E+00
 -1        51 2.72276E-03-8.47525E-08-1.65436E-24
 -1        52 2.72144E-03-1.51072E-07 3.30872E-24
 -1        53 2.71964E-03-2.13905E-07 0.00000E+00
 -1        54 2.71749E-03-2.75486E-07 0.00000E+00
 -1        55 2.71513E-03-3.37577E-07 1.65436E-24
 -1        56 2.71560E-03 8.96612E-06 0.00000E+00
 -1        57 2.69997E-03 3.70026E-05 0.00000E+00
 -1        58 2.67894E-03 7.81269E-05-1.05879E-22
 -1        59 2.65539E-03 1.25111E-04 0.00000E+00
 -1        60 2.63284E-03 1.69722E-04 1.05879E-22
 -1        61 2.61467E-03 2.03919E-04 0.00000E+00
 -1        62 2.60320E-03 2.21519E-04 0.00000E+00
 -1        63 2.59992E-03 2.17819E-04 0.00000E+00
 -1        64 2.60460E-03 1.92030E-04 0.00000E+00
 -1        65 2.61630E-03 1.45459E-04-5.29396E-23
 -1        66 2.63298E-03 8.33673E-05-1.05879E-22
 -1        67 2.65233E-03 1.25471E-05 0.00000E+00
 -1        68 2.67176E-03-5.85092E-05 0.00000E+00
 -1        69 2.68868E-03-1.21280E-04 5.29396E-23
 -1        70 2.70074E-03-1.68859E-04 1.05879E-22
 -1        86 1.42699E-03-6.18174E-06 0.00000E+00
 -1        87 1.67522E-03-3.88944E-05 2.64698E-23
 -1        88 2.00900E-03-9.51396E-05 2.64698E-23
 -1        89 2.34732E-03-1.52953E-04 0.00000E+00
 -1        90 2.60653E-03-1.88334E-04 5.29396E-23
 -1       121 3.41910E-04-5.48904E-07 0.00000E+00
 -1       122 3.39221E-04-1.10090E-06-6.61744E-24
 -1       123 3.34749E-04-1.65903E-06 0.00000E+00
 -1       124 3.28512E-04-2.22633E-06-6.61744E-24
 -1       125 3.20532E-04-2.80546E-06-1.32349E-23
 -1       191 1.77110E-04 1.36285E-07 8.27181E-25
 -1       192 1.77268E-04 2.72556E-07 1.03398E-24
 -1       193 1.77530E-04 4.08806E-07-4.13590E-25
 -1       194 1.77898E-04 5.45018E-07-7.36708E-25
 -1       195 1.78370E-04 6.81175E-07-2.48154E-24
 -1       251 2.71239E-03 1.63044E-06-6.61744E-24
 -1       252 2.71208E-03 3.52506E-06 0.00000E+00
 -1       253 2.71178E-03 4.28835E-06-6.61744E-24
 -1       254 2.71147E-03 2.94247E-06 0.00000E+00
 -1       255 2.71116E-03-1.17184E-06 6.61744E-24
 -1       256 2.71083E-03-8.67934E-06 0.00000E+00
 -1       257 2.71047E-03-1.96926E-05 6.61744E-24
 -1       258 2.71006E-03-3.42803E-05-3.30872E-24
 -1       259 2.70960E-03-5.19723E-05-6.61744E-24
 -1       260 2.70910E-03-7.22593E-05-6.61744E-24
 -1       261 2.70857E-03-9.42401E-05 1.32349E-23
 -1       262 2.70801E-03-1.16993E-04 0.00000E+00
 -1       263 2.70746E-03-1.39480E-04 0.00000E+00
 -1       264 2.70694E-03-1.60665E-04 6.61744E-24
 -1       265 2.70646E-03-1.79711E-04 0.00000E+00
 -1       266 2.71063E-03-4.13156E-07 0.00000E+00
 -1       267 2.70857E-03-4.16375E-07-4.13590E-25
 -1       268 2.70651E-03-4.19993E-07 0.00000E+00
 -1       269 2.70446E-03-4.22430E-07-2.06795E-25
 -1       270 2.70240E-03-4.24840E-07-2.06795E-25
 -1       271 2.71185E-03 4.86867E-08 0.00000E+00
 -1       272 2.71200E-03-2.16486E-06 0.00000E+00
 -1       273 2.71307E-03-6.88538E-06 0.00000E+00
 -1       274 2.71501E-03-1.39415E-05 1.32349E-23
 -1       275 2.71773E-03-2.31409E-05 0.00000E+00
 -1       276 2.72115E-03-3.42759E-05 0.00000E+00
 -1       277 2.72519E-03-4.71223E-05 0.00000E+00
 -1       278 2.72977E-03-6.14428E-05 0.00000E+00
 -1       279 2.73478E-03-7.69885E-05 0.00000E+00
 -1       280 2.74014E-03-9.35003E-05 0.00000E+00
 -1       281 2.74576E-03-1.10711E-04-1.32349E-23
 -1       282 2.75152E-03-1.28350E-04 6.61744E-24
 -1       283 2.75734E-03-1.46140E-04-1.32349E-23
 -1       284 2.76311E-03-1.63804E-04-6.61744E-24
 -1       285 2.76874E-03-1.81068E-04 0.00000E+00
 -1       301 2.71838E-03-1.96149E-04-6.61744E-24
 -1       302 2.72911E-03-1.96446E-04 6.61744E-24
 -1       303 2.73911E-03-1.96731E-04 0.00000E+00
 -1       304 2.74932E-03-1.97017E-04 0.00000E+00
 -1       305 2.76068E-03-1.97317E-04 0.00000E+00
 -1       306 2.74403E-03-3.51053E-04-1.05879E-22
 -1       307 2.80790E-03-7.65860E-04-5.29396E-23
 -1       308 2.85447E-03-1.37174E-03 0.00000E+00
 -1       309 2.87828E-03-2.07245E-03-5.29396E-23
 -1       310 2.90967E-03-2.74213E-03 0.00000E+00
 -1       311 2.96924E-03-3.25763E-03 5.29396E-23
 -1       312 3.02693E-03-3.53840E-03 1.05879E-22
 -1       313 3.02163E-03-3.54686E-03 5.29396E-23
 -1       314 2.87941E-03-3.29532E-03 0.00000E+00
 -1       315 2.55949E-03-2.84854E-03 5.29396E-23
 -1       316 2.08053E-03-2.28325E-03-1.05879E-22
 -1       317 1.50878E-03-1.66872E-03-5.29396E-23
 -1       318 9.58807E-04-1.06544E-03 0.00000E+00
 -1       319 5.38726E-04-5.38333E-04 0.00000E+00
 -1       320 2.92270E-04-1.61615E-04 1.05879E-22
 -1       336 2.99248E-04-4.05724E-06 0.00000E+00
 -1       337 2.85579E-04-4.74026E-06-6.61744E-24
 -1       338 2.69896E-04-5.45121E-06 0.00000E+00
 -1       339 2.52271E-04-6.19092E-06 6.61744E-24
 -1       340 2.32787E-04-6.96387E-06 0.00000E+00
 -1       406 1.79623E-04 9.51961E-07 3.30872E-24
 -1       407 1.80401E-04 1.08653E-06 3.23117E-27
 -1       408 1.81281E-04 1.22094E-06 1.24077E-24
 -1       409 1.82263E-04 1.35499E-06-1.24077E-24
 -1       410 1.83346E-04 1.48844E-06 1.65436E-24
 -1       521 2.81276E-03-3.62201E-04 0.00000E+00
 -1       522 2.87481E-03-7.97448E-04 0.00000E+00
 -1       523 2.91485E-03-1.43145E-03 0.00000E+00
 -1       524 2.92930E-03-2.16118E-03-5.29396E-23
 -1       525 2.95268E-03-2.85783E-03-1.05879E-22
 -1       526 3.00867E-03-3.39564E-03 0.00000E+00
 -1       527 3.06595E-03-3.68710E-03 2.11758E-22
 -1       528 3.05831E-03-3.69370E-03 0.00000E+00
 -1       529 2.90385E-03-3.42777E-03 2.11758E-22
 -1       530 2.55952E-03-2.96217E-03 0.00000E+00
 -1       531 2.04483E-03-2.37745E-03 1.05879E-22
 -1       532 1.43256E-03-1.74548E-03-5.29396E-23
 -1       533 8.42776E-04-1.12409E-03 0.00000E+00
 -1       534 3.88878E-04-5.75856E-04 0.00000E+00
 -1       535 1.20933E-04-1.79377E-04-2.11758E-22
 -1       536 2.10780E-04 2.71881E-05-6.61744E-24
 -1       537 2.08860E-04 8.76675E-05 0.00000E+00
 -1       538 2.05892E-04 1.64410E-04 0.00000E+00
 -1       539 2.02391E-04 2.48059E-04 0.00000E+00
 -1       540 1.99240E-04 3.27104E-04 3.30872E-24
 -1       541 1.97192E-04 3.90054E-04 0.00000E+00
 -1       542 1.96248E-04 4.30152E-04 0.00000E+00
 -1       543 1.96022E-04 4.40788E-04 0.00000E+00
 -1       544 1.95700E-04 4.22736E-04 0.00000E+00
 -1       545 1.94526E-04 3.76991E-04 0.00000E+00
 -1       546 1.92338E-04 3.11684E-04 0.00000E+00
 -1       547 1.89377E-04 2.35067E-04 0.00000E+00
 -1       548 1.86442E-04 1.58826E-04 0.00000E+00
 -1       549 1.84325E-04 9.46440E-05-1.65436E-24
 -1       550 1.83225E-04 5.05592E-05-1.65436E-24
 -1       551 1.86325E-04-8.32465E-06 0.00000E+00
 -1       552 1.57869E-04-8.97448E-06 0.00000E+00
 -1       553 1.27111E-04-9.68657E-06 6.61744E-24
 -1       554 9.50099E-05-1.04398E-05 3.30872E-24
 -1       555 6.25261E-05-1.12068E-05 1.32349E-23
 -1       556 2.03884E-04 1.18095E-05 0.00000E+00
 -1       557 1.97701E-04 2.76779E-05 0.00000E+00
 -1       558 1.92854E-04 4.01380E-05 0.00000E+00
 -1       559 1.89209E-04 4.95001E-05 0.00000E+00
 -1       560 1.86636E-04 5.60751E-05 0.00000E+00
 -1       561 1.85007E-04 6.01763E-05 0.00000E+00
 -1       562 1.84197E-04 6.21183E-05 0.00000E+00
 -1       563 1.84081E-04 6.22167E-05 0.00000E+00
 -1       564 1.84539E-04 6.07880E-05 0.00000E+00
 -1       565 1.85449E-04 5.81492E-05 0.00000E+00
 -1       566 1.86691E-04 5.46180E-05 0.00000E+00
 -1       567 1.88146E-04 5.05125E-05 0.00000E+00
 -1       568 1.89697E-04 4.61508E-05 0.00000E+00
 -1       569 1.91225E-04 4.18512E-05 0.00000E+00
 -1       570 1.92611E-04 3.79320E-05 0.00000E+00
 -1       571 1.83035E-04 3.23497E-05-2.48154E-24
 -1       572 1.83133E-04 3.01526E-05 8.27181E-25
 -1       573 1.83232E-04 2.79054E-05-1.65436E-24
 -1       574 1.83332E-04 2.56245E-05-8.27181E-25
 -1       575 1.83431E-04 2.33263E-05 3.30872E-24
 -1       576 1.83530E-04 2.10274E-05 0.00000E+00
 -1       577 1.83630E-04 1.87441E-05 0.00000E+00
 -1       578 1.83729E-04 1.64930E-05 0.00000E+00
 -1       579 1.83829E-04 1.42907E-05 0.00000E+00
 -1       580 1.83929E-04 1.21536E-05-3.30872E-24
 -1       581 1.84029E-04 1.00982E-05 0.00000E+00
 -1       582 1.84129E-04 8.14095E-06 3.30872E-24
 -1       583 1.84229E-04 6.29843E-06 0.00000E+00
 -1       584 1.84330E-04 4.58690E-06 3.30872E-24
 -1       585 1.84430E-04 3.02251E-06 0.00000E+00
 -1       586 1.84698E-04 3.45209E-05 1.65436E-24
 -1       587 1.86416E-04 3.45601E-05-8.27181E-25
 -1       588 1.88136E-04 3.45989E-05 0.00000E+00
 -1       589 1.89902E-04 3.46370E-05 0.00000E+00
 -1       590 1.91756E-04 3.46739E-05 0.00000E+00
 -1       591 1.83669E-04 3.24433E-05-1.03398E-25
 -1       592 1.84403E-04 3.03854E-05 2.06795E-25
 -1       593 1.85141E-04 2.83135E-05-8.27181E-25
 -1       594 1.85883E-04 2.62321E-05 0.00000E+00
 -1       595 1.86627E-04 2.41461E-05 0.00000E+00
 -1       596 1.87370E-04 2.20602E-05 0.00000E+00
 -1       597 1.88111E-04 1.99791E-05 8.27181E-25
 -1       598 1.88849E-04 1.79074E-05-4.13590E-25
 -1       599 1.89582E-04 1.58499E-05 0.00000E+00
 -1       600 1.90308E-04 1.38113E-05-4.13590E-25
 -1       601 1.91025E-04 1.17963E-05-8.27181E-25
 -1       602 1.91731E-04 9.80944E-06 0.00000E+00
 -1       603 1.92425E-04 7.85557E-06 4.13590E-25
 -1       604 1.93106E-04 5.93945E-06 1.55096E-25
 -1       605 1.93771E-04 4.06568E-06 0.00000E+00
 -1       606 1.84544E-04 4.50771E-07 0.00000E+00
 -1       607 1.84554E-04-6.32554E-07-1.65436E-24
 -1       608 1.84562E-04-1.63500E-06 0.00000E+00
 -1       609 1.84571E-04-2.56225E-06-1.65436E-24
 -1       610 1.84579E-04-3.42005E-06-3.30872E-24
 -1       611 1.84587E-04-4.21420E-06 0.00000E+00
 -1       612 1.84596E-04-4.95050E-06 0.00000E+00
 -1       613 1.84604E-04-5.63479E-06 0.00000E+00
 -1       614 1.84612E-04-6.27286E-06 0.00000E+00
 -1       615 1.84621E-04-6.87053E-06 0.00000E+00
 -1       616 1.84629E-04-7.43363E-06 0.00000E+00
 -1       617 1.84638E-04-7.96797E-06 0.00000E+00
 -1       618 1.84646E-04-8.47936E-06 8.27181E-25
 -1       619 1.84654E-04-8.97363E-06 0.00000E+00
 -1       620 1.84663E-04-9.45658E-06 0.00000E+00
 -1       621 1.85894E-04 1.72394E-06 0.00000E+00
 -1       622 1.87416E-04 1.82810E-06-8.27181E-25
 -1       623 1.89063E-04 1.93205E-06-3.30872E-24
 -1       624 1.90803E-04 2.03567E-06-8.27181E-25
 -1       625 1.92600E-04 2.13899E-06 1.65436E-24
 -1       626 1.85081E-04 4.86870E-07-6.61744E-24
 -1       627 1.85609E-04-5.83144E-07 6.61744E-24
 -1       628 1.86116E-04-1.59788E-06 6.61744E-24
 -1       629 1.86606E-04-2.56551E-06 4.96308E-24
 -1       630 1.87081E-04-3.49423E-06 3.30872E-24
 -1       631 1.87545E-04-4.39226E-06 0.00000E+00
 -1       632 1.88000E-04-5.26780E-06 3.30872E-24
 -1       633 1.88450E-04-6.12909E-06 0.00000E+00
 -1       634 1.88898E-04-6.98433E-06 3.30872E-24
 -1       635 1.89347E-04-7.84174E-06 0.00000E+00
 -1       636 1.89799E-04-8.70953E-06 0.00000E+00
 -1       637 1.90259E-04-9.59593E-06-1.65436E-24
 -1       638 1.90728E-04-1.05092E-05-1.65436E-24
 -1       639 1.91210E-04-1.14574E-05-8.27181E-25
 -1       640 1.91708E-04-1.24490E-05-3.30872E-24
 -1       656 1.85381E-04-1.05124E-05 6.61744E-24
 -1       657 1.86511E-04-1.11142E-05 0.00000E+00
 -1       658 1.87921E-04-1.17146E-05 1.32349E-23
 -1       659 1.89466E-04-1.23147E-05 6.61744E-24
 -1       660 1.90961E-04-1.29167E-05 0.00000E+00
 -1       661 1.84936E-04-1.04566E-05-8.27181E-25
 -1       662 1.85240E-04-1.10709E-05 0.00000E+00
 -1       663 1.85575E-04-1.17719E-05-1.65436E-24
 -1       664 1.85942E-04-1.25529E-05-8.27181E-25
 -1       665 1.86336E-04-1.34083E-05 0.00000E+00
 -1       666 1.86755E-04-1.43320E-05 0.00000E+00
 -1       667 1.87199E-04-1.53184E-05 0.00000E+00
 -1       668 1.87663E-04-1.63620E-05 0.00000E+00
 -1       669 1.88147E-04-1.74573E-05 0.00000E+00
 -1       670 1.88648E-04-1.85991E-05 8.27181E-25
 -1       671 1.89165E-04-1.97820E-05 1.65436E-24
 -1       672 1.89695E-04-2.10011E-05 0.00000E+00
 -1       673 1.90237E-04-2.22514E-05-1.65436E-24
 -1       674 1.90787E-04-2.35281E-05 4.13590E-25
 -1       675 1.91346E-04-2.48259E-05 0.00000E+00
 -1       676 1.85137E-04-2.56240E-05-3.30872E-24
 -1       677 1.86495E-04-2.57283E-05 0.00000E+00
 -1       678 1.87853E-04-2.58325E-05-3.30872E-24
 -1       679 1.89207E-04-2.59364E-05 1.65436E-24
 -1       680 1.90559E-04-2.60403E-05 1.65436E-24
 -1       771 1.86565E-05 1.47613E-05 0.00000E+00
 -1       772 8.59665E-06 3.67243E-05 0.00000E+00
 -1       773 3.43837E-07 5.41390E-05 5.29396E-23
 -1       774-6.22633E-06 6.72635E-05 0.00000E+00
 -1       775-1.12356E-05 7.63663E-05-5.29396E-23
 -1       776-1.48105E-05 8.17326E-05-2.64698E-23
 -1       777-1.70776E-05 8.36578E-05 5.29396E-23
 -1       778-1.81658E-05 8.24511E-05 0.00000E+00
 -1       779-1.82035E-05 7.84303E-05-5.29396E-23
 -1       780-1.73210E-05 7.19245E-05 0.00000E+00
 -1       781-1.56479E-05 6.32697E-05-5.29396E-23
 -1       782-1.33152E-05 5.28109E-05 0.00000E+00
 -1       783-1.04528E-05 4.08973E-05 0.00000E+00
 -1       784-7.19233E-06 2.78848E-05 0.00000E+00
 -1       785-3.66400E-06 1.41319E-05-5.29396E-23
 -1       786 1.93779E-04 3.24504E-05 0.00000E+00
 -1       787 1.93821E-04 3.02439E-05 0.00000E+00
 -1       788 1.93863E-04 2.80791E-05-8.27181E-25
 -1       789 1.93906E-04 2.59478E-05-8.27181E-25
 -1       790 1.93948E-04 2.38453E-05-1.65436E-24
 -1       791 1.93991E-04 2.17668E-05 8.27181E-25
 -1       792 1.94034E-04 1.97101E-05 0.00000E+00
 -1       793 1.94077E-04 1.76731E-05 8.27181E-25
 -1       794 1.94120E-04 1.56555E-05 0.00000E+00
 -1       795 1.94163E-04 1.36573E-05 0.00000E+00
 -1       796 1.94206E-04 1.16803E-05 1.65436E-24
 -1       797 1.94249E-04 9.72636E-06-8.27181E-25
 -1       798 1.94292E-04 7.79974E-06-1.65436E-24
 -1       799 1.94336E-04 5.90479E-06-8.27181E-25
 -1       800 1.94379E-04 4.04903E-06 0.00000E+00
 -1       801 1.47900E-04 3.12025E-05-2.64698E-23
 -1       802 9.30153E-06 1.94657E-05 0.00000E+00
 -1       803-1.09063E-04 9.83412E-06 5.29396E-23
 -1       804-9.66352E-05 6.84577E-06-2.64698E-23
 -1       805-3.19195E-05 2.68853E-06 5.29396E-23
 -1       806 1.94472E-04 3.23816E-05-1.65436E-24
 -1       807 1.95189E-04 3.00825E-05-1.65436E-24
 -1       808 1.95893E-04 2.78147E-05 0.00000E+00
 -1       809 1.96584E-04 2.55824E-05-1.65436E-24
 -1       810 1.97260E-04 2.33894E-05 3.30872E-24
 -1       811 1.97920E-04 2.12399E-05 1.65436E-24
 -1       812 1.98562E-04 1.91377E-05 0.00000E+00
 -1       813 1.99185E-04 1.70868E-05-1.65436E-24
 -1       814 1.99788E-04 1.50911E-05-3.30872E-24
 -1       815 2.00368E-04 1.31544E-05 8.27181E-25
 -1       816 2.00925E-04 1.12808E-05-1.65436E-24
 -1       817 2.01457E-04 9.47414E-06 0.00000E+00
 -1       818 2.01962E-04 7.73822E-06 1.65436E-24
 -1       819 2.02440E-04 6.07700E-06 8.27181E-25
 -1       820 2.02889E-04 4.49428E-06 1.65436E-24
 -1       821 1.94294E-04-1.25044E-07-1.65436E-24
 -1       822 1.94154E-04-3.64410E-06 0.00000E+00
 -1       823 1.94011E-04-7.88908E-06-3.30872E-24
 -1       824 1.93866E-04-1.24275E-05 0.00000E+00
 -1       825 1.93722E-04-1.67475E-05-3.30872E-24
 -1       826 1.93580E-04-2.03385E-05-1.65436E-24
 -1       827 1.93441E-04-2.28886E-05 0.00000E+00
 -1       828 1.93305E-04-2.40921E-05 1.65436E-24
 -1       829 1.93169E-04-2.40098E-05 3.30872E-24
 -1       830 1.93033E-04-2.27106E-05-1.65436E-24
 -1       831 1.92895E-04-2.05944E-05 0.00000E+00
 -1       832 1.92757E-04-1.80663E-05 0.00000E+00
 -1       833 1.92619E-04-1.56435E-05-3.30872E-24
 -1       834 1.92484E-04-1.38427E-05 0.00000E+00
 -1       835 1.92349E-04-1.30117E-05 0.00000E+00
 -1       836 1.96117E-04 2.36511E-06 0.00000E+00
 -1       837 1.97683E-04 2.49325E-06 0.00000E+00
 -1       838 1.99154E-04 2.62133E-06 0.00000E+00
 -1       839 2.00561E-04 2.74871E-06-8.27181E-25
 -1       840 2.01935E-04 2.87593E-06 8.27181E-25
 -1       856 1.92206E-04-1.45579E-05-8.27181E-25
 -1       857 1.92187E-04-1.54878E-05-1.29247E-26
 -1       858 1.92168E-04-1.63030E-05 2.06795E-25
 -1       859 1.92148E-04-1.70247E-05-2.06795E-25
 -1       860 1.92128E-04-1.76742E-05-4.13590E-25
 -1       861 1.92109E-04-1.82727E-05 2.06795E-25
 -1       862 1.92089E-04-1.88415E-05 4.13590E-25
 -1       863 1.92069E-04-1.94020E-05 0.00000E+00
 -1       864 1.92049E-04-1.99755E-05 0.00000E+00
 -1       865 1.92029E-04-2.05834E-05 4.13590E-25
 -1       866 1.92009E-04-2.12469E-05 8.27181E-25
 -1       867 1.91989E-04-2.19874E-05 4.13590E-25
 -1       868 1.91969E-04-2.28260E-05-8.27181E-25
 -1       869 1.91949E-04-2.37840E-05 0.00000E+00
 -1       870 1.91928E-04-2.48823E-05 0.00000E+00
 -1       871 1.93576E-04-1.34972E-05 8.27181E-25
 -1       872 1.95077E-04-1.35055E-05 0.00000E+00
 -1       873 1.96657E-04-1.35145E-05 0.00000E+00
 -1       874 1.98248E-04-1.35243E-05 2.58494E-25
 -1       875 1.99782E-04-1.35346E-05-4.13590E-25
 -1       876 1.92749E-04-1.45433E-05 3.30872E-24
 -1       877 1.93254E-04-1.55276E-05-1.65436E-24
 -1       878 1.93737E-04-1.64530E-05 0.00000E+00
 -1       879 1.94201E-04-1.73270E-05 1.65436E-24
 -1       880 1.94648E-04-1.81569E-05-3.30872E-24
 -1       881 1.95082E-04-1.89501E-05-1.65436E-24
 -1       882 1.95505E-04-1.97141E-05 0.00000E+00
 -1       883 1.95919E-04-2.04560E-05-1.65436E-24
 -1       884 1.96329E-04-2.11833E-05 3.30872E-24
 -1       885 1.96735E-04-2.19034E-05-1.65436E-24
 -1       886 1.97141E-04-2.26234E-05 0.00000E+00
 -1       887 1.97551E-04-2.33509E-05 0.00000E+00
 -1       888 1.97965E-04-2.40931E-05-3.30872E-24
 -1       889 1.98387E-04-2.48576E-05 1.65436E-24
 -1       890 1.98819E-04-2.56516E-05 0.00000E+00
 -1       891 1.93274E-04-2.61995E-05-1.65436E-24
 -1       892 1.94618E-04-2.62572E-05-8.27181E-25
 -1       893 1.95914E-04-2.63148E-05-8.27181E-25
 -1       894 1.97136E-04-2.63721E-05 8.27181E-25
 -1       895 1.98259E-04-2.64292E-05-4.13590E-25
 -1       956 2.03179E-04 1.66812E-06 1.65436E-24
 -1       957 2.03047E-04 4.33893E-07-8.27181E-25
 -1       958 2.02914E-04-7.19525E-07 0.00000E+00
 -1       959 2.02781E-04-1.80347E-06 0.00000E+00
 -1       960 2.02649E-04-2.82933E-06-3.30872E-24
 -1       961 2.02516E-04-3.80852E-06 0.00000E+00
 -1       962 2.02383E-04-4.75245E-06 0.00000E+00
 -1       963 2.02250E-04-5.67258E-06 1.65436E-24
 -1       964 2.02117E-04-6.58035E-06 3.30872E-24
 -1       965 2.01985E-04-7.48718E-06 0.00000E+00
 -1       966 2.01852E-04-8.40454E-06 0.00000E+00
 -1       967 2.01719E-04-9.34386E-06 0.00000E+00
 -1       968 2.01587E-04-1.03166E-05 0.00000E+00
 -1       969 2.01454E-04-1.13340E-05-3.30872E-24
 -1       970 2.01322E-04-1.24077E-05-3.30872E-24
 -1       971 2.01072E-04-1.46887E-05-3.30872E-24
 -1       972 2.00950E-04-1.57343E-05 0.00000E+00
 -1       973 2.00829E-04-1.66958E-05 0.00000E+00
 -1       974 2.00707E-04-1.75840E-05 1.65436E-24
 -1       975 2.00586E-04-1.84097E-05-3.30872E-24
 -1       976 2.00465E-04-1.91837E-05 0.00000E+00
 -1       977 2.00343E-04-1.99171E-05 3.30872E-24
 -1       978 2.00222E-04-2.06206E-05-1.65436E-24
 -1       979 2.00100E-04-2.13053E-05 3.30872E-24
 -1       980 1.99979E-04-2.19819E-05 1.65436E-24
 -1       981 1.99858E-04-2.26615E-05 3.30872E-24
 -1       982 1.99737E-04-2.33549E-05 0.00000E+00
 -1       983 1.99615E-04-2.40730E-05 0.00000E+00
 -1       984 1.99495E-04-2.48267E-05 0.00000E+00
 -1       985 1.99375E-04-2.56270E-05 3.30872E-24
 -3
    1PSTEP                        30          15           1          
  100CL  115 6.63036E-01         409                     0   15           1
 -4  STRESS      6    1
 -5  SXX         1    4    1    1
 -5  SYY         1    4    2    2
 -5  SZZ         1    4    3    3
 -5  SXY         1    4    1    2
 -5  SYZ         1    4    2    3
 -5  SZX         1    4    3    1
 -1         1-5.34444E+06-1.58698E+06-1.13335E+06-1.34584E+06 6.98492E-10-1.96742E-07
 -1         2 1.49229E+06 2.18811E+07 5.09671E+06 6.61468E+06 3.11702E-08-1.05021E-07
 -1         3-1.48920E+03-1.55850E+06 4.05923E+02-2.21288E+03-6.65551E-10-5.07571E-08
 -1         5-7.74218E+01 3.90273E+05 2.11746E+01 7.28838E+00-8.61782E-10 4.07508E-08
 -1         8-5.56212E+05-2.01074E+05-6.29162E+04-2.44212E+05 1.15506E-10 1.02267E-07
 -1         9 1.17795E+07 3.83818E+06 2.79311E+06-3.29646E+05-1.45403E-08-1.01863E-07
 -1        10-2.30553E+03-1.62408E+06-3.94658E+03-1.49737E+04-1.41281E-08-3.85560E-08
 -1        12-7.78685E+01 3.88318E+05 3.11131E+02-3.93477E+00-7.82165E-11-2.69551E-08
 -1        15 9.29150E+02 5.10614E+02 3.00346E+03 8.26608E-01-2.65189E-10-2.89565E-08
 -1        16 2.29156E+07-3.30482E+05 3.11927E+06-2.28276E+06-8.45951E-09 1.27281E-08
 -1        17 8.38906E+06 6.28738E+06 2.26629E+06 6.01506E+06 2.30968E-08 1.28639E-08
 -1        18 1.42611E+05 3.35711E+04 4.23390E+03-1.19531E+05 1.53586E-08-4.52474E-09
 -1        19 1.22395E+05 1.41664E+05-9.44725E+02 2.19653E+04 1.67129E-09 4.84870E-09
 -1        20-8.18811E+04-5.73615E+05-1.28710E+05 2.51421E+04-1.54281E-09 4.37891E-09
 -1        21-4.55772E+01-2.96044E+05-9.24138E+02 2.76050E+02 1.88730E-08 2.00572E-08
 -1        24 1.40595E+07 1.21086E+07 3.89211E+06 1.12112E+07-1.75593E-07-5.49092E-08
 -1        25 1.25599E+05 2.69470E+05 1.00557E+05-6.47173E+05-2.07701E-09 1.52388E-08
 -1        26-5.53419E+04 9.22972E+04-2.46196E+04 1.26302E+03-1.60799E-10 1.54517E-08
 -1        27-7.55998E+04-3.09914E+05-1.13300E+05 6.89657E+04 3.56173E-09 3.85686E-09
 -1        28 2.22424E+04-8.53506E+04 1.68988E+04 2.06264E+04-2.59556E-09-8.55952E-09
 -1        32-1.68068E+06-3.18234E+06-1.97686E+05 4.60743E+05-4.26371E-08-1.14895E-08
 -1        33-1.78449E+05 9.29963E+04 3.23857E+04-3.85127E+04-3.00717E-09 6.77755E-09
 -1        34-2.23589E+05-2.50256E+04 6.89406E+02 7.56424E+04-5.53274E-09-2.32209E-09
 -1        35-2.29327E+04-3.38487E+04-1.34845E+03 5.15020E+04-3.78805E-09-9.26472E-09
 -1        51 6.07620E+04-1.71510E+05 1.28480E+05-4.37343E+05-1.89175E-10-7.21702E-08
 -1        52 2.05564E+04-1.49048E+05 6.73762E+04-5.10072E+05-1.50067E-10 2.42944E-08
 -1        53 4.17178E+03-1.64410E+05 3.50204E+04-4.35842E+05 3.87445E-10 1.68729E-08
 -1        54 7.32707E+03-1.60196E+05 2.86451E+04-5.11543E+05 2.54659E-11-3.16513E-07
 -1        55 1.59714E+04-1.67173E+05 3.46889E+04-4.35752E+05 3.41970E-10 5.21795E-08
 -1        56-9.79500E+06-1.37815E+06-9.18487E+05-4.09107E+06-1.94996E-08-9.57516E-09
 -1        57-1.10855E+07-8.10026E+05-5.47049E+05-2.70459E+06 3.94066E-08 4.51320E-07
 -1        58-9.59542E+06-1.84561E+06-2.01465E+05-4.28467E+06-5.01313E-09-5.45697E-09
 -1        59-1.12715E+07-2.71590E+05-1.07978E+05-2.63121E+06-2.80916E-08-2.91911E-07
 -1        60-9.69063E+06-1.84950E+06-5.78647E+04-4.23638E+06 2.29193E-09 1.08412E-08
 -1        61-1.06041E+07-6.14789E+05 1.72848E+04-2.88270E+06-2.27010E-08 3.30423E-07
 -1        62-1.01224E+07-1.59722E+06-7.87791E+04-3.92176E+06-3.68891E-08 3.62634E-08
 -1        63-9.68151E+06-1.34255E+06 5.67131E+04-3.59683E+06 3.86353E-09-6.48724E-08
 -1        64-1.05006E+07-1.20204E+06-7.24645E+04-3.45103E+06-3.78350E-10 1.14833E-07
 -1        65-9.30153E+06-1.95994E+06 1.41446E+04-4.52591E+06-3.42407E-08 1.33551E-07
 -1        66-1.06328E+07-8.89290E+05-4.73103E+04-3.09120E+06 4.46016E-09 3.24450E-07
 -1        67-9.31909E+06-2.22078E+06-9.71730E+04-4.96733E+06-5.38821E-08 1.08188E-07
 -1        68-1.06132E+07-8.49822E+05-1.87103E+05-3.09054E+06-6.14382E-08 8.73988E-08
 -1        69-9.49446E+06-2.29944E+06-4.86295E+05-4.49314E+06-6.70498E-08 3.78765E-07
 -1        70-1.03368E+07-9.07144E+05-8.43699E+05-3.48610E+06 2.44327E-08 1.03202E-07
 -1        86-1.52251E+06-1.56096E+07-2.78987E+06-3.10702E+06-2.74937E-07-8.68167E-08
 -1        87 2.39289E+06 6.29826E+06 2.32045E+06 5.74700E+06-4.42298E-07-2.18497E-08
 -1        88-4.50243E+05-1.95261E+06 2.19324E+05-2.56403E+06-3.96853E-07-1.51984E-07
 -1        89 3.20429E+06 6.00153E+06 2.37807E+06 5.93968E+06-5.59005E-07-3.32813E-07
 -1        90-2.23980E+06-1.53889E+07-3.01227E+06-3.32885E+06-1.40943E-07-1.98037E-07
 -1       121-2.03997E+03-1.56341E+06-5.48001E+02 1.09680E+03 1.48623E-09-2.62080E-08
 -1       122-1.30335E+03-1.55857E+06 7.69546E+02-4.42987E+03-5.44000E-09-1.04410E-09
 -1       123-2.05970E+03-1.56355E+06 2.59970E+02 3.27565E+03 4.38615E-09 1.26456E-08
 -1       124 3.33146E+02-1.55812E+06 2.94895E+03-9.26962E+03-1.05078E-08 2.34322E-08
 -1       125-2.86851E+03-1.56444E+06 3.45876E+03 5.89053E+03 6.69570E-09-1.32204E-08
 -1       191-8.15027E+01 3.90289E+05 2.19182E+01-3.61383E+00 3.56295E-10 2.46073E-08
 -1       192-7.48994E+01 3.90275E+05 4.58692E+01 3.74005E+01 4.37581E-10 1.54687E-08
 -1       193-7.33001E+01 3.90286E+05 8.18635E+01-3.36101E+01 1.21827E-09-9.34779E-09
 -1       194-3.33850E+01 3.90289E+05 1.81147E+02 3.08632E+02 1.11640E-09-2.34177E-08
 -1       195 4.84206E+01 3.90262E+05 3.58275E+02-2.74823E+02 2.09184E-09 4.69663E-09
 -1       251-8.62256E+05 1.60771E+04-3.75387E+04-1.42627E+04 8.56438E-09 9.04220E-09
 -1       252-8.76481E+05-1.86046E+04-2.61180E+04 5.02203E+04-1.77114E-08-2.48996E-07
 -1       253-8.70599E+05 2.46637E+03-1.01082E+04-1.00543E+04 1.00613E-08-1.22266E-07
 -1       254-8.63203E+05-2.98824E+03-4.53228E+03 3.57123E+04-1.12605E-08-3.36576E-08
 -1       255-8.74929E+05 5.85673E+01-3.49898E+03 2.41735E+02-1.20167E-09 1.64584E-07
 -1       256-8.57880E+05-2.73277E+02 1.15679E+03 1.23632E+04 1.03756E-08 5.39328E-07
 -1       257-8.75488E+05-5.69592E+02-1.36821E+03 1.32836E+04-2.47110E-09 2.31979E-07
 -1       258-8.60668E+05 9.01740E+02 2.68513E+03-1.21674E+04 1.19473E-09-9.56036E-08
 -1       259-8.72386E+05-9.26597E+02 1.38339E+03 2.47701E+04-1.38175E-09-8.91787E-08
 -1       260-8.66964E+05 2.92484E+03 5.57232E+03-2.98551E+04 1.53514E-08-1.85484E-07
 -1       261-8.69819E+05-2.10902E+03 8.66887E+03 3.09872E+04 1.13762E-08 6.30234E-08
 -1       262-8.65592E+05 1.17805E+04 2.15303E+04-3.50197E+04-8.80712E-09 1.55180E-07
 -1       263-8.74006E+05-9.55704E+03 3.41175E+04 2.99439E+04 1.91204E-09 1.55616E-07
 -1       264-8.35102E+05 6.71031E+04 9.44377E+04-2.58689E+04 2.48285E-08 5.78275E-08
 -1       265-8.99818E+05-5.75598E+04 1.31539E+05 2.18244E+04-1.04162E-08 1.19820E-07
 -1       266-1.68210E+04-7.86631E+03 3.94628E+04-1.76854E+01 1.23691E-10-1.99743E-07
 -1       267 1.94999E+04 9.16707E+03 2.78938E+04 2.04072E+01 1.95087E-10-2.42380E-08
 -1       268-2.61491E+03-1.29838E+03 1.03679E+04-2.60014E+00 2.72848E-12 1.95512E-07
 -1       269 3.08742E+03 1.55381E+03 6.73905E+03 3.02888E+00 1.20508E-10 7.38189E-08
 -1       270-4.63426E+02-2.55306E+02 3.25303E+03-4.11036E-01 9.16316E-11 3.73970E-07
 -1       271-1.47974E+06-1.88344E+05-1.11461E+05-5.75797E+05 6.28461E-09 9.08913E-08
 -1       272-1.47547E+06-3.01783E+05-7.00122E+04-6.14211E+05 3.42570E-08-2.49108E-07
 -1       273-1.50327E+06-2.12027E+05-2.70273E+04-5.67780E+05 2.95258E-08 8.25639E-08
 -1       274-1.44867E+06-2.73268E+05-1.40651E+04-6.29346E+05 1.63054E-08-2.38389E-07
 -1       275-1.50885E+06-2.11607E+05-6.73277E+03-5.64024E+05 2.44436E-08 8.68167E-08
 -1       276-1.44305E+06-2.74181E+05-2.84404E+03-6.37932E+05-2.10057E-08 3.47449E-07
 -1       277-1.51167E+06-2.08991E+05-1.86424E+03-5.61304E+05 2.05382E-08 6.00512E-08
 -1       278-1.44088E+06-2.77368E+05-7.12756E+02-6.44240E+05 1.02409E-09-4.03666E-08
 -1       279-1.51346E+06-2.06854E+05-8.64117E+02-5.59398E+05-3.44571E-08-3.26895E-08
 -1       280-1.43987E+06-2.79763E+05-9.90141E+02-6.48381E+05 2.86382E-08 1.43564E-07
 -1       281-1.51441E+06-2.05509E+05-1.82946E+03-5.58327E+05 3.09728E-08 1.44601E-07
 -1       282-1.44024E+06-2.81938E+05-4.25462E+03-6.50074E+05 8.97217E-10 1.24647E-07
 -1       283-1.51391E+06-2.04279E+05-7.57286E+03-5.58206E+05 1.04333E-09 6.03854E-08
 -1       284-1.44703E+06-2.91848E+05-2.06279E+04-6.47883E+05-3.04963E-08 1.61825E-07
 -1       285-1.50753E+06-1.96779E+05-3.22139E+04-5.59997E+05 3.56054E-08-2.97841E-08
 -1       301-7.35897E+03-6.47789E+05 1.66902E+05-1.13851E+06 1.74623E-10-7.75326E-08
 -1       302-9.18029E+03-6.00949E+05 1.00444E+05-1.66173E+06 7.08678E-09-2.17431E-07
 -1       303-2.19529E+04-6.40355E+05 5.67331E+04-1.13537E+06 8.02538E-09-5.24942E-08
 -1       304-2.50215E+04-6.08063E+05 5.70616E+04-1.66115E+06-8.58563E-09 2.76355E-07
 -1       305-2.63015E+04-6.29092E+05 7.01136E+04-1.13847E+06 2.54295E-09-2.45403E-07
 -1       306-3.01461E+07-6.22144E+06-8.61497E+06-4.96916E+05-4.24916E-08-1.71072E-07
 -1       307 2.53239E+07 3.28715E+06 5.51324E+06-1.52680E+07-7.65373E-07-2.16532E-08
 -1       308-6.93064E+06-1.01862E+06-4.41056E+05 5.21349E+06-8.75152E-08 2.13899E-07
 -1       309-3.20804E+06 8.75545E+06 2.29445E+06-2.07077E+07 6.40328E-07 1.83623E-07
 -1       310-1.26333E+07-1.95500E+06-2.05712E+06 5.22325E+06-4.07454E-08-2.67697E-07
 -1       311 3.86365E+07 4.20180E+03 7.30995E+06-8.75273E+06 3.12371E-07-8.05594E-08
 -1       312-3.19904E+07-6.80931E+06-8.56490E+06-5.09029E+06 4.61005E-08 1.33223E-07
 -1       313 4.54532E+07 1.51491E+07 1.06931E+07 2.39198E+07-1.34431E-07-1.25641E-07
 -1       314-1.71858E+07-1.78589E+07-7.53433E+06-1.25464E+07 4.69736E-07-2.54542E-07
 -1       315-1.90466E+06 2.98218E+07 5.67176E+06 1.04871E+07-6.54254E-07-2.78524E-08
 -1       316 1.42875E+06-9.83646E+06-4.31500E+05-2.49975E+06-1.22716E-06-2.57307E-07
 -1       317-1.71029E+07 2.24527E+07 2.24821E+06-8.88331E+06 8.30143E-07-8.72504E-07
 -1       318-1.08195E+06-1.28420E+07-2.06073E+06-4.24126E+06-9.57894E-07 1.40513E-07
 -1       319 7.28343E+06 3.20862E+07 7.06851E+06 1.66856E+07-1.01383E-07 2.59286E-07
 -1       320-2.26455E+07-1.76901E+07-9.88330E+06-1.28432E+07 1.90688E-07-3.80678E-08
 -1       336-7.48152E+02-1.69245E+06-1.38469E+04 8.91318E+03-2.67282E-08-2.24900E-08
 -1       337-5.40958E+03-1.69198E+06-1.80664E+04-2.16523E+04-4.89977E-08 1.30967E-09
 -1       338 2.72757E+02-1.69193E+06-2.84601E+04 1.24878E+04-3.49828E-08-2.83035E-09
 -1       339-3.02004E+04-1.70922E+06-6.43199E+04-2.86549E+04-6.30862E-08-1.36806E-08
 -1       340 1.98903E+04-1.67739E+06-1.01323E+05 1.57848E+04-4.25280E-08 1.61053E-08
 -1       406-1.92636E+02 3.86368E+05 4.29574E+02 2.79007E+02-1.86083E-09-1.10922E-08
 -1       407 1.05078E+02 3.86478E+05 1.27202E+03-2.89843E+02-4.71118E-10 1.00335E-08
 -1       408 6.23554E+02 3.86263E+05 2.69981E+03 1.05606E+01-2.35639E-09 6.49379E-10
 -1       409 2.90383E+03 3.87372E+05 6.16596E+03 2.44050E+02-3.63002E-10-1.03882E-08
 -1       410 8.48024E+03 3.85473E+05 1.26194E+04-2.71412E+02-2.82671E-09-2.15550E-09
 -1       521-3.17230E+07-7.69151E+06-1.00799E+07-1.00991E+05-5.40167E-08-1.10827E-07
 -1       522 2.62231E+07 4.33494E+06 5.62998E+06-1.88036E+07-4.64846E-07-2.42639E-07
 -1       523-7.50238E+06-1.33453E+06-4.32455E+05 5.66748E+06 1.06520E-08-3.87488E-07
 -1       524-6.71556E+06 1.18492E+07 2.48608E+06-2.37940E+07 7.61902E-07-7.73409E-07
 -1       525-1.34328E+07-2.60018E+06-2.26485E+06 5.68283E+06 4.71133E-07-2.31666E-07
 -1       526 4.22485E+07-9.32955E+04 7.68074E+06-1.14096E+07 1.53203E-07-3.81144E-07
 -1       527-3.38740E+07-8.52225E+06-9.88628E+06-4.95560E+06-1.44704E-07-1.74085E-07
 -1       528 4.96894E+07 1.69209E+07 1.11674E+07 2.72432E+07-6.10540E-07 8.90286E-08
 -1       529-1.81344E+07-2.01008E+07-8.65018E+06-1.25821E+07-4.51575E-07-1.51922E-07
 -1       530-4.39399E+06 3.46764E+07 6.01100E+06 9.92623E+06-1.64713E-07 6.60541E-07
 -1       531 1.43575E+06-1.09142E+07-4.03383E+05-2.43629E+06-8.81511E-07 3.26894E-07
 -1       532-1.96047E+07 2.44725E+07 2.46105E+06-1.32258E+07 5.02943E-07-5.13828E-07
 -1       533-1.12266E+06-1.40085E+07-2.19862E+06-4.03766E+06-3.09083E-07-8.54372E-07
 -1       534 5.28677E+06 3.72953E+07 7.36664E+06 1.72847E+07-6.61821E-08 7.63044E-07
 -1       535-2.38472E+07-2.01183E+07-1.13475E+07-1.29221E+07 1.08965E-07 4.59491E-07
 -1       536-7.06691E+05-4.68077E+04-4.83124E+04-5.47533E+04-4.15457E-09 6.24850E-08
 -1       537-5.43527E+04 4.47421E+04 8.40358E+04 1.23988E+05-1.12873E-07 1.06916E-07
 -1       538-3.94471E+05 3.35195E+03 3.54170E+03-7.22757E+04 2.01361E-08 1.00892E-07
 -1       539-2.68892E+05 2.85735E+03 2.49521E+04 1.38890E+05 1.47208E-07 9.24304E-08
 -1       540-4.97542E+05-4.28026E+02-2.13592E+04-7.01917E+04-1.94163E-08 1.17982E-07
 -1       541 1.47504E+05 1.69999E+04 1.06560E+05 9.80603E+04-7.23908E-08 8.70305E-08
 -1       542-7.99647E+05-2.01687E+04-8.43791E+04-3.05689E+04 4.46016E-08 4.20831E-08
 -1       543 4.06683E+05 2.73729E+04 1.58245E+05-1.33653E+04 2.81689E-08-2.58465E-08
 -1       544-7.49769E+05-1.65675E+04-7.49690E+04 4.05627E+04-2.41298E-08-4.01214E-08
 -1       545 2.96970E+04 9.50392E+03 7.99604E+04-1.13753E+05 8.22502E-09-7.34706E-08
 -1       546-4.32786E+05 6.10344E+03-1.22498E+04 6.94713E+04 2.37931E-08-8.64342E-08
 -1       547-2.86977E+05-4.65525E+03 1.06219E+04-1.41737E+05-1.13786E-07-1.07273E-07
 -1       548-4.41609E+05 4.72221E+03-2.38987E+04 6.92395E+04-9.78150E-08-9.65683E-08
 -1       549 4.88641E+04 1.61453E+04 6.06797E+04-1.11621E+05-6.65045E-08-4.99258E-08
 -1       550-7.59641E+05-2.22177E+04-1.29101E+05 3.86378E+04 3.39878E-09-3.74075E-08
 -1       551 4.08148E+04-7.50837E+05-1.58917E+04-1.24728E+06-1.01893E-07-2.25555E-08
 -1       552 9.33025E+04-7.95835E+05 9.92226E+03-1.77846E+06-7.25558E-08 3.31784E-08
 -1       553 7.17921E+04-7.92231E+05 3.20440E+04-1.24063E+06-1.22032E-07 3.34840E-08
 -1       554 1.32101E+05-8.11728E+05 8.10686E+04-1.78041E+06-7.51970E-08 1.61654E-08
 -1       555 1.01536E+05-8.15881E+05 1.48054E+05-1.24046E+06-1.22876E-07-1.27184E-08
 -1       556 2.23767E+05-3.83726E+05 2.57274E+04-4.07247E+05-2.15659E-08-2.61934E-08
 -1       557 3.54348E+05-4.88083E+05 1.61374E+04-5.27684E+05 2.09548E-09 2.36105E-09
 -1       558 2.05529E+05-3.76513E+05 2.31570E+03-4.11694E+05-1.64146E-08-1.79498E-08
 -1       559 3.29325E+05-4.88148E+05 2.43704E+03-5.48145E+05 2.39816E-08 1.13432E-08
 -1       560 1.90216E+05-3.66910E+05-1.50901E+03-4.22730E+05 1.23691E-08 2.02053E-08
 -1       561 3.10083E+05-4.80447E+05 1.28493E+02-5.61266E+05-5.04951E-09-4.36557E-11
 -1       562 1.78107E+05-3.59387E+05-1.32909E+03-4.31499E+05 4.35102E-09-1.58543E-08
 -1       563 2.95699E+05-4.74175E+05-3.76570E+01-5.70661E+05 4.01633E-09-2.27001E-08
 -1       564 1.69463E+05-3.54002E+05-6.02180E+02-4.37624E+05 1.03028E-08-4.57794E-09
 -1       565 2.86156E+05-4.70020E+05 2.35377E+01-5.76758E+05 7.78527E-09 8.36690E-09
 -1       566 1.64409E+05-3.50804E+05-2.60786E+02-4.41159E+05-1.19762E-08-1.49485E-08
 -1       567 2.81515E+05-4.68001E+05-3.62923E+02-5.79577E+05 1.41081E-08 1.73895E-08
 -1       568 1.63034E+05-3.49962E+05-1.12642E+03-4.42217E+05-7.94989E-09 1.43809E-08
 -1       569 2.80387E+05-4.67926E+05-2.84500E+03-5.78152E+05-7.91624E-09 3.09956E-08
 -1       570 1.66431E+05-3.53195E+05-6.21909E+03-4.41198E+05 6.67205E-09 1.69266E-08
 -1       571 2.90474E+05 1.05083E+04 1.49893E+04-9.51798E+04 1.20135E-08-7.83530E-10
 -1       572 2.92646E+05 3.96175E+03 7.34597E+03-1.04422E+05 2.18820E-08-8.57472E-09
 -1       573 2.91336E+05 1.24718E+03 3.26405E+03-9.50033E+04 1.40599E-08 2.28138E-08
 -1       574 2.91550E+05 7.28844E+02 1.63690E+03-1.04646E+05 5.21777E-09 3.51001E-08
 -1       575 2.91430E+05 4.49519E+02 7.72569E+02-9.49792E+04-3.44414E-10 2.33222E-08
 -1       576 2.91414E+05 4.61021E+02 3.95551E+02-1.04676E+05-8.15999E-09 9.19226E-09
 -1       577 2.91470E+05 3.91440E+02 1.97460E+02-9.49759E+04-5.21322E-09 1.05210E-08
 -1       578 2.91445E+05 4.22979E+02 1.14065E+02-1.04680E+05-7.44694E-09 1.77943E-08
 -1       579 2.91542E+05 3.54771E+02 7.83408E+01-9.49755E+04 1.39353E-08 8.40373E-10
 -1       580 2.91546E+05 3.71969E+02 9.09189E+01-1.04675E+05 8.20364E-09-1.81071E-08
 -1       581 2.91656E+05 2.96208E+02 1.37331E+02-9.49815E+04 1.61581E-08-1.17871E-08
 -1       582 2.91721E+05 3.34596E+02 2.79216E+02-1.04614E+05 4.99494E-09-1.14924E-08
 -1       583 2.91796E+05 3.38615E+02 5.35920E+02-9.50380E+04 4.27099E-09-7.21911E-10
 -1       584 2.92097E+05 7.76466E+02 1.21273E+03-1.04137E+05 9.74978E-09-8.35985E-09
 -1       585 2.91822E+05 1.79697E+03 2.45573E+03-9.54570E+04 1.72258E-09 6.06087E-09
 -1       586-3.42655E+03 1.16889E+05-2.91479E+03-2.50657E+05-5.00495E-09 2.09877E-08
 -1       587-1.34187E+03 1.16641E+05 7.73415E+02-2.75866E+05-5.24051E-09-9.70499E-09
 -1       588 3.96200E+02 1.16447E+05 4.76251E+03-2.50519E+05-1.92631E-09-1.27729E-08
 -1       589 5.08469E+03 1.18922E+05 1.23506E+04-2.75633E+05-1.12614E-08-1.47002E-08
 -1       590 1.66148E+04 1.15112E+05 2.59072E+04-2.50950E+05-6.39284E-09-9.61154E-09
 -1       591-7.50192E+04-1.59830E+04-2.25324E+04-3.19783E+04 5.41377E-10 8.35644E-09
 -1       592-7.91064E+04-1.95438E+04-1.22053E+04-3.56071E+04-4.77006E-09 1.09185E-09
 -1       593-7.72727E+04-1.43480E+04-5.08047E+03-3.36304E+04 8.42268E-09 1.50330E-08
 -1       594-7.59953E+04-1.62375E+04-2.53376E+03-3.57249E+04 1.36483E-08 8.08572E-09
 -1       595-7.74445E+04-1.43426E+04-1.16325E+03-3.37054E+04 1.32769E-08 3.70102E-09
 -1       596-7.57823E+04-1.60863E+04-5.91130E+02-3.56996E+04 1.88477E-08 1.11470E-08
 -1       597-7.74661E+04-1.43580E+04-3.21441E+02-3.37083E+04 7.15744E-09 2.33524E-09
 -1       598-7.57613E+04-1.60803E+04-2.57581E+02-3.56925E+04-3.00230E-09 2.19211E-09
 -1       599-7.74648E+04-1.43585E+04-3.28008E+02-3.37079E+04 1.29467E-09-1.87094E-08
 -1       600-7.57823E+04-1.60868E+04-6.08514E+02-3.56975E+04-5.20697E-09-5.85004E-09
 -1       601-7.74402E+04-1.43440E+04-1.20004E+03-3.37045E+04-2.34445E-09-1.63709E-09
 -1       602-7.60020E+04-1.62416E+04-2.61514E+03-3.57197E+04-7.25367E-09-1.07275E-09
 -1       603-7.72601E+04-1.43525E+04-5.24433E+03-3.36278E+04-5.18412E-10 7.19319E-09
 -1       604-7.92310E+04-1.96349E+04-1.25981E+04-3.55732E+04 8.92669E-10 1.22789E-08
 -1       605-7.49140E+04-1.60580E+04-2.32576E+04-3.19419E+04 2.89572E-09-5.36966E-09
 -1       606 2.67089E+04-1.43293E+04-2.56866E+04 2.40044E+04 5.79712E-09 9.03128E-10
 -1       607 2.23200E+04-4.68028E+03-1.27918E+04 2.69760E+04 2.08820E-09-1.90248E-08
 -1       608 2.48213E+04-8.44678E+02-5.72648E+03 2.38357E+04 1.50430E-09-2.11185E-09
 -1       609 2.43419E+04-2.89715E+02-2.89287E+03 2.71902E+04 7.94898E-09 9.07357E-09
 -1       610 2.46077E+04-4.14106E+01-1.38022E+03 2.38156E+04 6.93490E-09 3.13389E-09
 -1       611 2.45325E+04-4.17222E+01-6.95896E+02 2.72134E+04 8.40919E-09-4.03156E-09
 -1       612 2.45606E+04-2.76871E+01-3.30815E+02 2.38136E+04 4.65570E-09 1.45735E-08
 -1       613 2.45440E+04-3.76178E+01-1.48217E+02 2.72161E+04 4.07454E-10 1.35315E-08
 -1       614 2.45384E+04-3.40943E+01-3.46864E+01 2.38129E+04 1.50330E-08 1.06581E-08
 -1       615 2.45387E+04-3.61179E+01 6.22927E+01 2.72165E+04 3.19287E-08 1.34546E-08
 -1       616 2.45210E+04-3.09618E+01 1.86637E+02 2.38132E+04 1.79894E-08-1.15992E-08
 -1       617 2.45612E+04 3.66011E+00 4.25759E+02 2.72160E+04 6.35919E-09 6.72935E-09
 -1       618 2.44840E+04 9.17806E+01 8.58164E+02 2.38135E+04 5.65296E-09-3.05317E-09
 -1       619 2.48641E+04 6.67196E+02 1.92706E+03 2.72154E+04 2.54249E-09-2.24945E-08
 -1       620 2.41990E+04 2.12671E+03 3.87333E+03 2.38151E+04 6.07429E-10-1.13296E-08
 -1       621 5.11861E+02 3.01476E+05 3.88718E+03 4.09936E+04 9.88621E-10 3.37968E-09
 -1       622 6.78129E+02 3.02373E+05 3.44902E+03 5.95122E+04 1.15369E-09-1.59889E-09
 -1       623 1.43319E+02 3.01671E+05 4.14356E+03 4.08081E+04 1.11709E-09 2.07774E-08
 -1       624 2.12755E+03 3.03591E+05 8.03192E+03 5.96947E+04 1.05251E-09 6.08452E-10
 -1       625 2.07845E+03 3.00078E+05 1.40350E+04 4.08049E+04 1.33014E-09-7.82120E-09
 -1       626 2.60860E+05 6.14154E+04 5.11834E+03 1.26744E+05 6.51517E-09 1.63418E-08
 -1       627 2.58540E+05 6.28141E+04 2.46649E+03 1.31018E+05 5.51518E-09 1.50703E-08
 -1       628 2.60988E+05 5.90734E+04 1.04314E+03 1.27614E+05-3.78441E-09 1.92867E-08
 -1       629 2.57905E+05 6.21344E+04 5.10569E+02 1.31258E+05-7.03949E-09-3.64216E-09
 -1       630 2.61002E+05 5.89602E+04 2.36943E+02 1.27650E+05 5.10545E-09 3.14628E-10
 -1       631 2.57838E+05 6.21086E+04 1.27644E+02 1.31260E+05 1.36451E-08-2.02022E-08
 -1       632 2.60998E+05 5.89642E+04 8.42356E+01 1.27646E+05 1.19653E-08-3.83129E-08
 -1       633 2.57830E+05 6.21104E+04 9.42093E+01 1.31256E+05 4.11546E-10-3.09228E-08
 -1       634 2.60994E+05 5.89613E+04 1.52573E+02 1.27646E+05-6.60003E-09 5.36647E-09
 -1       635 2.57844E+05 6.21087E+04 3.08932E+02 1.31262E+05-1.40381E-08 1.90007E-08
 -1       636 2.60985E+05 5.89555E+04 6.23993E+02 1.27645E+05 2.99633E-09 1.82627E-09
 -1       637 2.57979E+05 6.22057E+04 1.37207E+03 1.31261E+05-2.24213E-09 2.16983E-09
 -1       638 2.60936E+05 5.92586E+04 2.81910E+03 1.27508E+05 8.19000E-10 2.72394E-09
 -1       639 2.59460E+05 6.42653E+04 6.67015E+03 1.30825E+05 2.24259E-09 1.27329E-10
 -1       640 2.60731E+05 6.54088E+04 1.38417E+04 1.24917E+05 1.42290E-09-1.24899E-08
 -1       656 6.65833E+04-1.70401E+06-1.60728E+05-2.56988E+03 5.09317E-11 9.12939E-09
 -1       657-8.80838E+04-1.77664E+06-1.33154E+05 5.15627E+03-1.45519E-10 4.80988E-10
 -1       658 2.12243E+04-1.72463E+06-8.20058E+04-4.65438E+03 3.89946E-10-1.18489E-08
 -1       659-9.52492E+04-1.78004E+06-1.42570E+05 6.88782E+03-1.17871E-09-1.03755E-08
 -1       660 7.37327E+04-1.70062E+06-1.76917E+05-4.30143E+03-1.93540E-09 3.62454E-09
 -1       661 1.58683E+05 1.66047E+04 1.67259E+04 6.20308E+04 2.51703E-09-8.02720E-09
 -1       662 1.68138E+05 2.89921E+04 1.12721E+04 5.82792E+04-3.76531E-10-2.38596E-08
 -1       663 1.61968E+05 2.19706E+04 3.94226E+03 6.10773E+04-5.70367E-10-2.89410E-08
 -1       664 1.64329E+05 2.27170E+04 2.35829E+03 5.94439E+04-3.28276E-09 2.10949E-09
 -1       665 1.62467E+05 2.27035E+04 9.30330E+02 6.09318E+04 2.02203E-09-6.48475E-09
 -1       666 1.63739E+05 2.18790E+04 5.44572E+02 5.96336E+04 9.25860E-09 1.50601E-08
 -1       667 1.62554E+05 2.27868E+04 2.89440E+02 6.08954E+04 6.87550E-10-4.51573E-09
 -1       668 1.63643E+05 2.18192E+04 2.95359E+02 5.96867E+04-8.94268E-09 2.16749E-08
 -1       669 1.62562E+05 2.27616E+04 4.00233E+02 6.08791E+04-4.18811E-09 1.93083E-08
 -1       670 1.63740E+05 2.20366E+04 8.71849E+02 5.96896E+04-8.01074E-09-1.37904E-08
 -1       671 1.62457E+05 2.25739E+04 1.54815E+03 6.08904E+04-2.05727E-09-1.18913E-08
 -1       672 1.64642E+05 2.35427E+04 3.96098E+03 5.94710E+04 1.37347E-08 1.49239E-08
 -1       673 1.61664E+05 2.12936E+04 6.63801E+03 6.10831E+04-1.62288E-09 1.46674E-08
 -1       674 1.70960E+05 3.42075E+04 1.89833E+04 5.76150E+04-4.02292E-09-9.23615E-09
 -1       675 1.56180E+05 1.22079E+04 2.81779E+04 6.26343E+04-5.63887E-10 2.46473E-09
 -1       676 2.41208E+01-2.95967E+05-1.11383E+03-1.38029E+02 2.30497E-09 8.16123E-09
 -1       677-2.94624E+02-2.96237E+05-2.03850E+03 2.75836E+02 8.69127E-09-9.28434E-09
 -1       678 1.97617E+02-2.95775E+05-3.60356E+03-1.37716E+02 9.08358E-10 9.69636E-09
 -1       679-3.60361E+03-2.98412E+05-8.56057E+03 2.74644E+02 6.51107E-09-4.52088E-09
 -1       680 2.15157E+03-2.93793E+05-1.37967E+04-1.35316E+02 6.83031E-10 1.34650E-08
 -1       771-3.06293E+06-7.47570E+05-1.66005E+05-1.46634E+06-3.41097E-08-2.62808E-08
 -1       772-2.98576E+06-8.36464E+05-8.55860E+04-1.56912E+06-2.58442E-08 1.37297E-08
 -1       773-3.09445E+06-7.22995E+05-4.36332E+04-1.48090E+06-8.90577E-09 1.51922E-08
 -1       774-2.97624E+06-8.17926E+05-1.94662E+04-1.59492E+06 2.39233E-08-1.04046E-09
 -1       775-3.11091E+06-7.11442E+05-1.45636E+04-1.48796E+06-1.75787E-08 9.13860E-09
 -1       776-2.98860E+06-8.14885E+05-5.44578E+03-1.61443E+06-1.98197E-08 1.43773E-08
 -1       777-3.12520E+06-7.01130E+05-6.43572E+03-1.49419E+06-5.38421E-09 2.43745E-09
 -1       778-3.00151E+06-8.12057E+05-1.81941E+03-1.63121E+06-1.10158E-08 8.07631E-09
 -1       779-3.13749E+06-6.92119E+05-3.21639E+03-1.49952E+06-2.01981E-08-4.02360E-09
 -1       780-3.01288E+06-8.09358E+05-5.33219E+02-1.64487E+06-9.60426E-09-9.62245E-10
 -1       781-3.14726E+06-6.84854E+05-1.24935E+03-1.50368E+06-3.37313E-08-5.98448E-09
 -1       782-3.02165E+06-8.07067E+05 4.51129E+02-1.65495E+06-4.19968E-08-5.06134E-09
 -1       783-3.15414E+06-6.79805E+05 7.02535E+02-1.50660E+06-6.94854E-09-1.28898E-08
 -1       784-3.02650E+06-8.04777E+05 2.90985E+03-1.66118E+06-1.87574E-08-8.62656E-10
 -1       785-3.15821E+06-6.76793E+05 5.13713E+03-1.50845E+06-3.57686E-08 1.39426E-08
 -1       786 1.24107E+05-9.78759E+03 2.26446E+04-3.23917E+02 1.07152E-09 7.85076E-09
 -1       787 1.33928E+05 1.13319E+04 1.60201E+04-1.37280E+02 7.19605E-09 7.54062E-09
 -1       788 1.27894E+05-1.53374E+03 5.85865E+03-2.88738E+02 3.74308E-09 2.06983E-08
 -1       789 1.29517E+05 1.77527E+03 3.67787E+03-1.91158E+02-1.81716E-09 1.73335E-08
 -1       790 1.28519E+05-2.38797E+02 1.48916E+03-2.70056E+02-2.85715E-09 3.34967E-09
 -1       791 1.28786E+05 2.76315E+02 8.60199E+02-2.23120E+02-1.00077E-08 2.29545E-09
 -1       792 1.28625E+05-3.58986E+01 3.64711E+02-2.56779E+02-4.79639E-09 9.29165E-09
 -1       793 1.28659E+05 3.80359E+01 1.82239E+02-2.48100E+02-1.59619E-09-2.75537E-09
 -1       794 1.28646E+05-6.68388E-01 4.82097E+01-2.45077E+02 4.52319E-09-1.26818E-10
 -1       795 1.28623E+05-2.68013E+01-5.56816E+01-2.72529E+02-4.95268E-09 5.46432E-09
 -1       796 1.28662E+05 2.89024E+01-1.59262E+02-2.32350E+02 3.67213E-09-7.55581E-09
 -1       797 1.28529E+05-2.15784E+02-4.38239E+02-3.01774E+02 4.10460E-09-1.14748E-08
 -1       798 1.28739E+05 1.88172E+02-7.11986E+02-2.15832E+02 2.78064E-09 1.68735E-08
 -1       799 1.27989E+05-1.38692E+03-1.95901E+03-3.42688E+02 4.71857E-09 6.84727E-09
 -1       800 1.29203E+05 1.19908E+03-2.77248E+03-1.91437E+02 3.03087E-10-2.07818E-08
 -1       801-1.71714E+05-1.00078E+07-1.39511E+06 1.41795E+06 9.31614E-08-5.52100E-08
 -1       802 7.39819E+05 5.96657E+06 2.18581E+06-1.75062E+06 2.56754E-07-2.64363E-08
 -1       803-5.37598E+05-1.42864E+07-1.89389E+06 8.99507E+05 7.64303E-08 1.32350E-08
 -1       804 2.87935E+05 2.40719E+06 1.54042E+06 6.78201E+05-1.20021E-07-9.96620E-08
 -1       805 1.89492E+05-6.46252E+06-2.86982E+05-1.00519E+06-5.02987E-08-6.62749E-08
 -1       806-3.08833E+05-5.97555E+04-2.28408E+04-1.22400E+05-8.12315E-09-6.58019E-09
 -1       807-3.10626E+05-5.60306E+04-1.12214E+04-1.27947E+05 1.67977E-08 6.47769E-09
 -1       808-3.09460E+05-5.15237E+04-4.76049E+03-1.26291E+05-5.75665E-09-1.85196E-09
 -1       809-3.08267E+05-5.28776E+04-2.32776E+03-1.28222E+05-1.53996E-08 1.57149E-09
 -1       810-3.09555E+05-5.12371E+04-1.06695E+03-1.26464E+05 4.59340E-09 4.48426E-09
 -1       811-3.08084E+05-5.27510E+04-5.30615E+02-1.28187E+05-2.91493E-10 1.55956E-08
 -1       812-3.09569E+05-5.12618E+04-2.68446E+02-1.26463E+05 1.13050E-09-7.56518E-09
 -1       813-3.08059E+05-5.27532E+04-1.74609E+02-1.28168E+05 9.41554E-09-2.14332E-08
 -1       814-3.09562E+05-5.12715E+04-1.73273E+02-1.26459E+05 1.55342E-09-1.00031E-08
 -1       815-3.08063E+05-5.27554E+04-2.79386E+02-1.28161E+05-3.18778E-10-1.02377E-08
 -1       816-3.09541E+05-5.12707E+04-5.29667E+02-1.26455E+05 4.87671E-09 2.59711E-08
 -1       817-3.08153E+05-5.28059E+04-1.13678E+03-1.28149E+05-1.35096E-08 2.43299E-08
 -1       818-3.09472E+05-5.14312E+04-2.31867E+03-1.26379E+05-3.16504E-09-8.39782E-09
 -1       819-3.09422E+05-5.42067E+04-5.45566E+03-1.27848E+05 5.32782E-09-1.16049E-08
 -1       820-3.09034E+05-5.55526E+04-1.11043E+04-1.24619E+05 3.50610E-09 5.48630E-09
 -1       821-3.78999E+05 2.08708E+04-4.85850E+04 2.13212E+03 1.40082E-08 1.01136E-09
 -1       822-3.98699E+05-2.41777E+04-3.41434E+04-4.46460E+03 5.71350E-09 1.15292E-08
 -1       823-3.86461E+05 3.29001E+03-1.25490E+04 3.44581E+03-1.14075E-08 3.29451E-08
 -1       824-3.89690E+05-3.79395E+03-7.85469E+03-5.38026E+03 2.53615E-09 1.18467E-08
 -1       825-3.88015E+05 5.11281E+02-3.28943E+03 3.04790E+03 2.08293E-08-2.47508E-09
 -1       826-3.87255E+05-5.67193E+02-1.74342E+03-3.10348E+03 2.67846E-08-1.19939E-08
 -1       827-3.88872E+05 4.66359E+01-1.19078E+03 1.16889E+03 1.32955E-08 5.28883E-09
 -1       828-3.86547E+05-1.31798E+02-5.84863E+02 1.09837E+03-2.26510E-09 2.07897E-08
 -1       829-3.88710E+05 6.57722E+01-1.17961E+03-1.15399E+03 1.97682E-09-1.31086E-08
 -1       830-3.87605E+05-6.22098E+02-1.88170E+03 4.89580E+03 1.12720E-09 1.59775E-09
 -1       831-3.87836E+05 5.54631E+02-3.37112E+03-2.62856E+03-5.10084E-09-7.33280E-10
 -1       832-3.89770E+05-3.96081E+03-8.15727E+03 6.18047E+03-6.39210E-09-1.00272E-09
 -1       833-3.86561E+05 3.41408E+03-1.30527E+04-2.43870E+03-2.04869E-09-8.55016E-09
 -1       834-3.98759E+05-2.50910E+04-3.53656E+04 4.20490E+03-3.67694E-09-1.14974E-08
 -1       835-3.78830E+05 2.16519E+04-5.04545E+04-6.52911E+02 6.45457E-09 1.27693E-08
 -1       836-1.41441E+03 3.70251E+05 2.29101E+04-1.61786E+04-7.11498E-09 1.78015E-08
 -1       837 4.88318E+03 3.77427E+05 1.93827E+04-3.30633E+04-7.47718E-09 6.23004E-10
 -1       838-5.58323E+02 3.72263E+05 1.97434E+04-1.61070E+04-6.29279E-09-1.33309E-09
 -1       839 1.24225E+04 3.83041E+05 3.73436E+04-3.31158E+04-7.27414E-09 1.99117E-08
 -1       840-3.84122E+03 3.64576E+05 5.95472E+04-1.61320E+04-6.42467E-09 5.70068E-10
 -1       856-5.23145E+04 8.02925E+03-2.11588E+04-3.97147E+02 3.02543E-09 9.21318E-09
 -1       857-6.10314E+04-9.43417E+03-1.45655E+04 5.63549E+03 6.52688E-09 1.17591E-08
 -1       858-5.57666E+04 1.12603E+03-5.49020E+03-4.21311E+02 4.71618E-09-8.89622E-09
 -1       859-5.70697E+04-1.32479E+03-3.31308E+03 5.67144E+03-5.70125E-10 4.09000E-09
 -1       860-5.62824E+04 1.57702E+02-1.38851E+03-4.32820E+02 6.68734E-10-1.71455E-08
 -1       861-5.64765E+04-1.88330E+02-7.63842E+02 5.68711E+03 2.45902E-09-1.30937E-08
 -1       862-5.63630E+04 2.13698E+01-3.17508E+02-4.36964E+02-1.62562E-09-1.56275E-08
 -1       863-5.63776E+04-2.19436E+01-1.15633E+02 5.68952E+03-4.81759E-09-2.01108E-08
 -1       864-5.63818E+04-4.89816E+00 4.72858E+01-4.35224E+02-5.41959E-09 1.01687E-08
 -1       865-5.63218E+04 5.96025E+01 2.55519E+02 5.67959E+03-5.05736E-10 7.47923E-09
 -1       866-5.64167E+04-6.01954E+01 5.14915E+02-4.27036E+02-5.58032E-10-1.61423E-08
 -1       867-5.60796E+04 4.97041E+02 1.26740E+03 5.65736E+03 6.21185E-10-1.17315E-08
 -1       868-5.66190E+04-4.34442E+02 2.10603E+03-4.12995E+02-1.53864E-09-9.90553E-10
 -1       869-5.45356E+04 3.61562E+03 5.60766E+03 5.62080E+03 7.01880E-09-1.15186E-08
 -1       870-5.79529E+04-3.09408E+03 8.13796E+03-3.90370E+02-6.52142E-09-6.96127E-09
 -1       871-5.51720E+03-2.13298E+04-1.94909E+04 1.30419E+05-4.96766E-09-7.51334E-09
 -1       872-1.98043E+03-2.58624E+04-8.16108E+03 1.69107E+05-1.07111E-08-8.03993E-10
 -1       873 4.06614E+02-2.36700E+04 5.90376E+02 1.30132E+05-5.46925E-09 2.59365E-09
 -1       874 3.30826E+03-2.12592E+04 9.78082E+03 1.69137E+05-1.21090E-08 7.16500E-09
 -1       875 6.84867E+03-2.60000E+04 2.20643E+04 1.30371E+05-6.58292E-09 4.99313E-10
 -1       876 2.93791E+05 4.95134E+04 1.51018E+04 1.17896E+05 2.47076E-09-1.94177E-08
 -1       877 2.94790E+05 5.26940E+04 8.06494E+03 1.22228E+05 9.76979E-09 3.28055E-09
 -1       878 2.95204E+05 4.78405E+04 3.37881E+03 1.19133E+05-9.48785E-09-7.30097E-09
 -1       879 2.92737E+05 5.06453E+04 1.68354E+03 1.22330E+05 8.14816E-09 3.10902E-08
 -1       880 2.95305E+05 4.78232E+04 7.84170E+02 1.19184E+05-1.78829E-09 8.56807E-09
 -1       881 2.92601E+05 5.05576E+04 4.18780E+02 1.22307E+05-6.14136E-09 4.03067E-09
 -1       882 2.95314E+05 4.78365E+04 2.67946E+02 1.19185E+05-2.43836E-09 7.04103E-09
 -1       883 2.92591E+05 5.05531E+04 2.88111E+02 1.22299E+05-1.61356E-09 1.08387E-08
 -1       884 2.95307E+05 4.78337E+04 4.58368E+02 1.19185E+05 4.11535E-09-4.90002E-09
 -1       885 2.92627E+05 5.05594E+04 9.21605E+02 1.22310E+05-5.23941E-09 1.45769E-09
 -1       886 2.95272E+05 4.78068E+04 1.85747E+03 1.19182E+05-7.99470E-09 4.37922E-09
 -1       887 2.92954E+05 5.07735E+04 4.05739E+03 1.22357E+05-1.63914E-09 5.57930E-09
 -1       888 2.95015E+05 4.78520E+04 8.17575E+03 1.19052E+05-7.95315E-09-1.03796E-08
 -1       889 2.97821E+05 5.58352E+04 1.95303E+04 1.22208E+05-4.56857E-09-1.10767E-08
 -1       890 2.91678E+05 5.18160E+04 3.65799E+04 1.15941E+05-9.26320E-10 1.90721E-08
 -1       891-8.90077E+01-1.62789E+05-1.99660E+03 2.71558E+04-6.72571E-10-9.14542E-09
 -1       892-1.74849E+02-1.63317E+05-2.14439E+03 4.12381E+04 1.98133E-09 2.43672E-08
 -1       893 4.40482E+01-1.62854E+05-3.03621E+03 2.71632E+04-1.11186E-09 7.31006E-09
 -1       894-1.50970E+03-1.64464E+05-6.28381E+03 4.10855E+04 2.64390E-09 6.10771E-09
 -1       895-1.19905E+03-1.61544E+05-1.10657E+04 2.73102E+04-1.75203E-09-1.72104E-08
 -1       956-3.77231E+05-5.45064E+03-1.34548E+04 3.08555E+04-1.56433E-10 1.51529E-08
 -1       957-3.79871E+05-1.92294E+03-6.90612E+03 3.70798E+04-1.68902E-08 1.54582E-08
 -1       958-3.78440E+05-2.41101E+02-3.11212E+03 3.06879E+04-1.44501E-08 2.06546E-09
 -1       959-3.78636E+05-1.36456E+02-1.58910E+03 3.72754E+04 1.04819E-09-7.72434E-09
 -1       960-3.78558E+05-4.49619E+01-7.74920E+02 3.06706E+04 1.13414E-09 5.17070E-09
 -1       961-3.78556E+05-6.34132E+01-4.10852E+02 3.72958E+04 1.34414E-08 6.13613E-09
 -1       962-3.78586E+05-4.61871E+01-2.35221E+02 3.06677E+04 6.89488E-09 4.37353E-09
 -1       963-3.78557E+05-5.92193E+01-1.88822E+02 3.72995E+04 6.84031E-09 1.73529E-08
 -1       964-3.78591E+05-4.28297E+01-2.29620E+02 3.06669E+04-5.97325E-10 8.16408E-09
 -1       965-3.78569E+05-5.62549E+01-3.97147E+02 3.72988E+04-3.95568E-09-1.64071E-08
 -1       966-3.78575E+05-3.49842E+01-7.46227E+02 3.06684E+04 6.84577E-09-3.63002E-09
 -1       967-3.78658E+05-1.19798E+02-1.53050E+03 3.72844E+04 8.70864E-09-2.52749E-09
 -1       968-3.78471E+05-2.17485E+02-2.99616E+03 3.06811E+04 6.31826E-09-8.11895E-09
 -1       969-3.79859E+05-1.83478E+03-6.65140E+03 3.71360E+04-2.75759E-09 7.81429E-09
 -1       970-3.77315E+05-5.23090E+03-1.29573E+04 3.08082E+04-3.22962E-09 3.78714E-09
 -1       971-3.45420E+05-1.72808E+03-9.31250E+03 1.53854E+04 3.78623E-09-8.11274E-09
 -1       972-3.47662E+05-1.27230E+03-5.07149E+03 2.12775E+04-1.24601E-09-1.63204E-08
 -1       973-3.46458E+05-6.21759E+01-2.27157E+03 1.52643E+04 5.02223E-09 2.71939E-10
 -1       974-3.46593E+05-8.12714E+01-1.17750E+03 2.14146E+04 2.94904E-10 4.34125E-09
 -1       975-3.46540E+05-1.72837E+01-5.89056E+02 1.52519E+04-4.87034E-10 3.34239E-10
 -1       976-3.46532E+05-3.14099E+01-3.40681E+02 2.14304E+04 3.75439E-09-5.56929E-09
 -1       977-3.46556E+05-1.65348E+01-2.48762E+02 1.52485E+04-1.86583E-09 3.50985E-09
 -1       978-3.46537E+05-2.51811E+01-2.93150E+02 2.14353E+04-4.00053E-09 2.00089E-11
 -1       979-3.46556E+05-8.05411E+00-4.72759E+02 1.52471E+04-3.49286E-09 3.96233E-09
 -1       980-3.46572E+05-2.21185E+01-9.13941E+02 2.14363E+04-4.79001E-09 8.23900E-09
 -1       981-3.46527E+05 1.47900E+01-1.77067E+03 1.52476E+04 3.13548E-09 6.36555E-09
 -1       982-3.46815E+05-1.52953E+02-3.66026E+03 2.14296E+04 5.70355E-09 3.92782E-09
 -1       983-3.46304E+05-9.85928E+01-7.11208E+03 1.52536E+04-1.90539E-10-1.58191E-08
 -1       984-3.50236E+05-3.86739E+03-1.59273E+04 2.13440E+04 8.78208E-09 1.02330E-09
 -1       985-3.43084E+05-5.30278E+03-2.92474E+04 1.53250E+04 1.84264E-09-8.78936E-09
 -3
    1PSTEP                        31          16           1          
  100CL  116 6.63139E-01         409                     0   16           1
 -4  DISP        4    1
 -5  D1          1    2    1    0
 -5  D2          1    2    2    0
 -5  D3          1    2    3    0
 -5  ALL         1    2    0    0    1ALL
 -1         1 2.70721E-03 0.00000E+00 0.00000E+00
 -1         2 1.37790E-03 2.12803E-27-5.29396E-23
 -1         3 3.42582E-04-5.63230E-28 0.00000E+00
 -1         5 1.76988E-04-1.46300E-27 2.48154E-24
 -1         8 2.69601E-03-4.12171E-07 0.00000E+00
 -1         9 2.68939E-03-1.81109E-04 0.00000E+00
 -1        10 3.10627E-04-3.41788E-06 6.61744E-24
 -1        12 1.78870E-04 8.17131E-07 0.00000E+00
 -1        15 2.68313E-03-4.36936E-07 0.00000E+00
 -1        16 2.75182E-03-1.82876E-04 0.00000E+00
 -1        17 2.11392E-04-7.79147E-06 0.00000E+00
 -1        18 1.82844E-04 3.44016E-05 0.00000E+00
 -1        19 1.84436E-04 1.61981E-06 0.00000E+00
 -1        20 1.84576E-04-9.85799E-06 0.00000E+00
 -1        21 1.83684E-04-2.53606E-05 0.00000E+00
 -1        24 3.06271E-05-1.20185E-05 0.00000E+00
 -1        25 1.93616E-04 3.46271E-05 0.00000E+00
 -1        26 1.94300E-04 2.23987E-06 0.00000E+00
 -1        27 1.92100E-04-1.34159E-05 0.00000E+00
 -1        28 1.91782E-04-2.59829E-05 0.00000E+00
 -1        32 0.00000E+00 0.00000E+00 0.00000E+00
 -1        33 2.03156E-04 2.99357E-06 0.00000E+00
 -1        34 2.01037E-04-1.34720E-05 0.00000E+00
 -1        35 1.99105E-04-2.63254E-05 0.00000E+00
 -1        51 2.70646E-03-8.59183E-08 6.61744E-24
 -1        52 2.70509E-03-1.53560E-07 0.00000E+00
 -1        53 2.70322E-03-2.17784E-07 0.00000E+00
 -1        54 2.70100E-03-2.80825E-07 1.65436E-24
 -1        55 2.69855E-03-3.44439E-07-8.27181E-25
 -1        56 2.69998E-03 7.34788E-06 0.00000E+00
 -1        57 2.68628E-03 3.07491E-05 0.00000E+00
 -1        58 2.66812E-03 6.51039E-05 1.05879E-22
 -1        59 2.64793E-03 1.04257E-04 0.00000E+00
 -1        60 2.62865E-03 1.41231E-04-1.05879E-22
 -1        61 2.61306E-03 1.69229E-04 0.00000E+00
 -1        62 2.60313E-03 1.83054E-04-1.05879E-22
 -1        63 2.60010E-03 1.78775E-04 5.29396E-23
 -1        64 2.60385E-03 1.55775E-04-1.05879E-22
 -1        65 2.61362E-03 1.15194E-04 0.00000E+00
 -1        66 2.62770E-03 6.14890E-05 1.05879E-22
 -1        67 2.64411E-03 3.91689E-07 0.00000E+00
 -1        68 2.66059E-03-6.09438E-05-1.05879E-22
 -1        69 2.67491E-03-1.15333E-04 5.29396E-23
 -1        70 2.68505E-03-1.56934E-04 5.29396E-23
 -1        86 1.46033E-03-5.78468E-06 0.00000E+00
 -1        87 1.69915E-03-3.61054E-05 0.00000E+00
 -1        88 2.02022E-03-8.81225E-05 0.00000E+00
 -1        89 2.34545E-03-1.41516E-04 0.00000E+00
 -1        90 2.59435E-03-1.74181E-04 0.00000E+00
 -1       121 3.41684E-04-5.51909E-07 1.32349E-23
 -1       122 3.38996E-04-1.10691E-06-6.61744E-24
 -1       123 3.34526E-04-1.66803E-06 0.00000E+00
 -1       124 3.28291E-04-2.23833E-06 0.00000E+00
 -1       125 3.20315E-04-2.82044E-06 0.00000E+00
 -1       191 1.77041E-04 1.36265E-07-8.27181E-25
 -1       192 1.77198E-04 2.72518E-07 8.27181E-25
 -1       193 1.77459E-04 4.08749E-07-8.27181E-25
 -1       194 1.77826E-04 5.44942E-07-9.27347E-25
 -1       195 1.78296E-04 6.81080E-07-2.48154E-24
 -1       251 2.69570E-03 1.79188E-06 6.61744E-24
 -1       252 2.69538E-03 4.02145E-06 0.00000E+00
 -1       253 2.69507E-03 5.28237E-06 0.00000E+00
 -1       254 2.69476E-03 4.59279E-06-3.30872E-24
 -1       255 2.69444E-03 1.27388E-06 0.00000E+00
 -1       256 2.69410E-03-5.31943E-06 0.00000E+00
 -1       257 2.69374E-03-1.53239E-05 1.32349E-23
 -1       258 2.69334E-03-2.88323E-05-6.61744E-24
 -1       259 2.69290E-03-4.53942E-05-1.32349E-23
 -1       260 2.69241E-03-6.45194E-05 0.00000E+00
 -1       261 2.69188E-03-8.53197E-05 0.00000E+00
 -1       262 2.69135E-03-1.06886E-04 0.00000E+00
 -1       263 2.69081E-03-1.28190E-04 0.00000E+00
 -1       264 2.69030E-03-1.48207E-04 6.61744E-24
 -1       265 2.68983E-03-1.66112E-04-1.32349E-23
 -1       266 2.69386E-03-4.22048E-07 0.00000E+00
 -1       267 2.69172E-03-4.25475E-07 8.27181E-25
 -1       268 2.68957E-03-4.29310E-07-8.27181E-25
 -1       269 2.68743E-03-4.31935E-07-2.06795E-25
 -1       270 2.68528E-03-4.34532E-07 0.00000E+00
 -1       271 2.69509E-03 2.21199E-07 1.32349E-23
 -1       272 2.69508E-03-1.62623E-06 0.00000E+00
 -1       273 2.69593E-03-5.81174E-06 0.00000E+00
 -1       274 2.69760E-03-1.21814E-05 0.00000E+00
 -1       275 2.70000E-03-2.05609E-05 0.00000E+00
 -1       276 2.70306E-03-3.07614E-05-1.32349E-23
 -1       277 2.70671E-03-4.25780E-05 0.00000E+00
 -1       278 2.71087E-03-5.57934E-05 0.00000E+00
 -1       279 2.71545E-03-7.01785E-05 2.64698E-23
 -1       280 2.72036E-03-8.54948E-05 0.00000E+00
 -1       281 2.72552E-03-1.01496E-04-2.64698E-23
 -1       282 2.73084E-03-1.17930E-04 0.00000E+00
 -1       283 2.73622E-03-1.34542E-04 0.00000E+00
 -1       284 2.74157E-03-1.51074E-04 0.00000E+00
 -1       285 2.74680E-03-1.67270E-04 0.00000E+00
 -1       301 2.70074E-03-1.81436E-04 0.00000E+00
 -1       302 2.71048E-03-1.81719E-04 6.61744E-24
 -1       303 2.71953E-03-1.81992E-04 0.00000E+00
 -1       304 2.72883E-03-1.82266E-04 0.00000E+00
 -1       305 2.73928E-03-1.82553E-04 0.00000E+00
 -1       306 2.72715E-03-3.35113E-04 0.00000E+00
 -1       307 2.79104E-03-7.48551E-04 5.29396E-23
 -1       308 2.83781E-03-1.35338E-03 0.00000E+00
 -1       309 2.86171E-03-2.05373E-03-5.29396E-23
 -1       310 2.89298E-03-2.72393E-03 1.05879E-22
 -1       311 2.95240E-03-3.24094E-03-5.29396E-23
 -1       312 3.01035E-03-3.52411E-03-1.05879E-22
 -1       313 3.00612E-03-3.53542E-03 0.00000E+00
 -1       314 2.86595E-03-3.28674E-03-1.05879E-22
 -1       315 2.54884E-03-2.84240E-03 0.00000E+00
 -1       316 2.07300E-03-2.27896E-03-1.05879E-22
 -1       317 1.50413E-03-1.66579E-03 5.29396E-23
 -1       318 9.56412E-04-1.06361E-03 0.00000E+00
 -1       319 5.37746E-04-5.37445E-04 0.00000E+00
 -1       320 2.91946E-04-1.61376E-04 0.00000E+00
 -1       336 2.99041E-04-4.07837E-06 0.00000E+00
 -1       337 2.85380E-04-4.76454E-06 6.61744E-24
 -1       338 2.69706E-04-5.47859E-06 0.00000E+00
 -1       339 2.52094E-04-6.22133E-06 6.61744E-24
 -1       340 2.32625E-04-6.99723E-06 0.00000E+00
 -1       406 1.79545E-04 9.51831E-07 2.48154E-24
 -1       407 1.80321E-04 1.08639E-06 1.44757E-24
 -1       408 1.81198E-04 1.22077E-06 1.24077E-24
 -1       409 1.82176E-04 1.35482E-06 6.20385E-25
 -1       410 1.83256E-04 1.48824E-06-1.65436E-24
 -1       521 2.79019E-03-3.46153E-04 1.05879E-22
 -1       522 2.85232E-03-7.79737E-04 0.00000E+00
 -1       523 2.89270E-03-1.41219E-03 0.00000E+00
 -1       524 2.90745E-03-2.14093E-03 0.00000E+00
 -1       525 2.93087E-03-2.83750E-03 1.05879E-22
 -1       526 2.98675E-03-3.37638E-03 0.00000E+00
 -1       527 3.04427E-03-3.67009E-03 2.11758E-22
 -1       528 3.03777E-03-3.67966E-03-1.05879E-22
 -1       529 2.88571E-03-3.41696E-03 0.00000E+00
 -1       530 2.54486E-03-2.95418E-03 0.00000E+00
 -1       531 2.03421E-03-2.37166E-03 0.00000E+00
 -1       532 1.42586E-03-1.74137E-03 0.00000E+00
 -1       533 8.39312E-04-1.12141E-03-1.05879E-22
 -1       534 3.87552E-04-5.74491E-04 0.00000E+00
 -1       535 1.20648E-04-1.78985E-04 0.00000E+00
 -1       536 2.10638E-04 2.71196E-05-6.61744E-24
 -1       537 2.08721E-04 8.75432E-05-1.65436E-24
 -1       538 2.05758E-04 1.64215E-04 0.00000E+00
 -1       539 2.02264E-04 2.47786E-04 0.00000E+00
 -1       540 1.99119E-04 3.26757E-04 3.30872E-24
 -1       541 1.97074E-04 3.89648E-04-1.65436E-24
 -1       542 1.96131E-04 4.29709E-04 3.30872E-24
 -1       543 1.95906E-04 4.40334E-04-1.65436E-24
 -1       544 1.95584E-04 4.22297E-04 3.30872E-24
 -1       545 1.94412E-04 3.76591E-04 0.00000E+00
 -1       546 1.92228E-04 3.11342E-04 0.00000E+00
 -1       547 1.89271E-04 2.34796E-04 0.00000E+00
 -1       548 1.86342E-04 1.58625E-04 0.00000E+00
 -1       549 1.84228E-04 9.45043E-05-1.65436E-24
 -1       550 1.83130E-04 5.04619E-05 1.65436E-24
 -1       551 1.86202E-04-8.36139E-06 0.00000E+00
 -1       552 1.57769E-04-9.01167E-06 0.00000E+00
 -1       553 1.27035E-04-9.72411E-06-3.30872E-24
 -1       554 9.49609E-05-1.04776E-05-6.61744E-24
 -1       555 6.25065E-05-1.12447E-05 0.00000E+00
 -1       556 2.03748E-04 1.17548E-05-5.29396E-23
 -1       557 1.97572E-04 2.76079E-05 0.00000E+00
 -1       558 1.92729E-04 4.00555E-05 0.00000E+00
 -1       559 1.89088E-04 4.94078E-05 0.00000E+00
 -1       560 1.86518E-04 5.59754E-05 0.00000E+00
 -1       561 1.84891E-04 6.00714E-05 0.00000E+00
 -1       562 1.84082E-04 6.20104E-05 0.00000E+00
 -1       563 1.83967E-04 6.21075E-05 0.00000E+00
 -1       564 1.84425E-04 6.06792E-05 0.00000E+00
 -1       565 1.85334E-04 5.80421E-05-6.61744E-24
 -1       566 1.86575E-04 5.45138E-05 0.00000E+00
 -1       567 1.88029E-04 5.04121E-05 0.00000E+00
 -1       568 1.89578E-04 4.60551E-05 0.00000E+00
 -1       569 1.91104E-04 4.17606E-05-8.27181E-25
 -1       570 1.92489E-04 3.78468E-05 0.00000E+00
 -1       571 1.82941E-04 3.22754E-05 8.27181E-25
 -1       572 1.83039E-04 3.00835E-05 0.00000E+00
 -1       573 1.83138E-04 2.78416E-05 1.65436E-24
 -1       574 1.83238E-04 2.55659E-05-1.65436E-24
 -1       575 1.83337E-04 2.32730E-05 3.30872E-24
 -1       576 1.83436E-04 2.09793E-05 1.65436E-24
 -1       577 1.83536E-04 1.87012E-05 3.30872E-24
 -1       578 1.83635E-04 1.64553E-05 0.00000E+00
 -1       579 1.83735E-04 1.42580E-05 0.00000E+00
 -1       580 1.83835E-04 1.21258E-05 3.30872E-24
 -1       581 1.83935E-04 1.00753E-05 6.61744E-24
 -1       582 1.84035E-04 8.12287E-06 0.00000E+00
 -1       583 1.84135E-04 6.28502E-06 0.00000E+00
 -1       584 1.84235E-04 4.57803E-06 0.00000E+00
 -1       585 1.84336E-04 3.01804E-06 0.00000E+00
 -1       586 1.84598E-04 3.44413E-05 1.65436E-24
 -1       587 1.86312E-04 3.44805E-05-4.13590E-25
 -1       588 1.88027E-04 3.45193E-05-8.27181E-25
 -1       589 1.89787E-04 3.45574E-05 0.00000E+00
 -1       590 1.91636E-04 3.45942E-05 0.00000E+00
 -1       591 1.83573E-04 3.23689E-05-1.03398E-25
 -1       592 1.84305E-04 3.03161E-05 0.00000E+00
 -1       593 1.85042E-04 2.82491E-05 0.00000E+00
 -1       594 1.85782E-04 2.61727E-05 4.13590E-25
 -1       595 1.86523E-04 2.40917E-05 8.27181E-25
 -1       596 1.87265E-04 2.20107E-05 0.00000E+00
 -1       597 1.88004E-04 1.99344E-05-8.27181E-25
 -1       598 1.88741E-04 1.78677E-05 0.00000E+00
 -1       599 1.89472E-04 1.58151E-05 0.00000E+00
 -1       600 1.90195E-04 1.37813E-05-4.13590E-25
 -1       601 1.90910E-04 1.17711E-05 0.00000E+00
 -1       602 1.91615E-04 9.78923E-06-4.13590E-25
 -1       603 1.92308E-04 7.84029E-06-4.13590E-25
 -1       604 1.92986E-04 5.92913E-06-2.58494E-26
 -1       605 1.93650E-04 4.06037E-06 0.00000E+00
 -1       606 1.84450E-04 4.54765E-07 3.30872E-24
 -1       607 1.84459E-04-6.24249E-07 0.00000E+00
 -1       608 1.84468E-04-1.62228E-06 0.00000E+00
 -1       609 1.84477E-04-2.54502E-06 0.00000E+00
 -1       610 1.84485E-04-3.39823E-06 3.30872E-24
 -1       611 1.84493E-04-4.18771E-06 0.00000E+00
 -1       612 1.84502E-04-4.91926E-06 0.00000E+00
 -1       613 1.84510E-04-5.59873E-06 0.00000E+00
 -1       614 1.84518E-04-6.23193E-06 0.00000E+00
 -1       615 1.84527E-04-6.82468E-06 0.00000E+00
 -1       616 1.84535E-04-7.38282E-06 1.65436E-24
 -1       617 1.84544E-04-7.91216E-06 0.00000E+00
 -1       618 1.84552E-04-8.41851E-06 0.00000E+00
 -1       619 1.84560E-04-8.90773E-06 2.06795E-25
 -1       620 1.84569E-04-9.38561E-06 0.00000E+00
 -1       621 1.85796E-04 1.72372E-06 0.00000E+00
 -1       622 1.87313E-04 1.82787E-06 8.27181E-25
 -1       623 1.88955E-04 1.93181E-06 0.00000E+00
 -1       624 1.90690E-04 2.03543E-06 1.65436E-24
 -1       625 1.92482E-04 2.13875E-06 0.00000E+00
 -1       626 1.84985E-04 4.90857E-07-3.30872E-24
 -1       627 1.85511E-04-5.74854E-07 0.00000E+00
 -1       628 1.86017E-04-1.58518E-06 0.00000E+00
 -1       629 1.86505E-04-2.54831E-06-1.65436E-24
 -1       630 1.86979E-04-3.47244E-06-3.30872E-24
 -1       631 1.87441E-04-4.36580E-06 0.00000E+00
 -1       632 1.87894E-04-5.23659E-06-3.30872E-24
 -1       633 1.88343E-04-6.09306E-06 1.65436E-24
 -1       634 1.88788E-04-6.94341E-06 3.30872E-24
 -1       635 1.89235E-04-7.79587E-06-1.65436E-24
 -1       636 1.89686E-04-8.65867E-06 0.00000E+00
 -1       637 1.90143E-04-9.54004E-06-1.65436E-24
 -1       638 1.90611E-04-1.04482E-05 3.30872E-24
 -1       639 1.91091E-04-1.13914E-05 0.00000E+00
 -1       640 1.91587E-04-1.23778E-05 3.30872E-24
 -1       656 1.85282E-04-1.04363E-05 0.00000E+00
 -1       657 1.86407E-04-1.10380E-05 6.61744E-24
 -1       658 1.87813E-04-1.16384E-05-1.32349E-23
 -1       659 1.89353E-04-1.22385E-05 0.00000E+00
 -1       660 1.90843E-04-1.28404E-05 6.61744E-24
 -1       661 1.84840E-04-1.03754E-05 8.27181E-25
 -1       662 1.85142E-04-1.09846E-05 0.00000E+00
 -1       663 1.85476E-04-1.16804E-05 0.00000E+00
 -1       664 1.85840E-04-1.24563E-05 8.27181E-25
 -1       665 1.86232E-04-1.33064E-05 0.00000E+00
 -1       666 1.86650E-04-1.42249E-05 8.27181E-25
 -1       667 1.87092E-04-1.52061E-05-1.65436E-24
 -1       668 1.87554E-04-1.62444E-05 0.00000E+00
 -1       669 1.88036E-04-1.73345E-05 1.65436E-24
 -1       670 1.88536E-04-1.84709E-05 0.00000E+00
 -1       671 1.89051E-04-1.96487E-05-1.65436E-24
 -1       672 1.89579E-04-2.08626E-05-8.27181E-25
 -1       673 1.90118E-04-2.21076E-05 0.00000E+00
 -1       674 1.90667E-04-2.33792E-05 4.13590E-25
 -1       675 1.91224E-04-2.46719E-05-2.06795E-25
 -1       676 1.85038E-04-2.54650E-05 3.30872E-24
 -1       677 1.86392E-04-2.55692E-05 0.00000E+00
 -1       678 1.87744E-04-2.56734E-05 3.30872E-24
 -1       679 1.89093E-04-2.57773E-05 0.00000E+00
 -1       680 1.90440E-04-2.58812E-05 3.30872E-24
 -1       771 1.86816E-05 1.46925E-05 0.00000E+00
 -1       772 8.63145E-06 3.66308E-05 0.00000E+00
 -1       773 3.85952E-07 5.40267E-05-5.29396E-23
 -1       774-6.17911E-06 6.71378E-05 2.64698E-23
 -1       775-1.11853E-05 7.62322E-05 0.00000E+00
 -1       776-1.47590E-05 8.15950E-05-2.64698E-23
 -1       777-1.70265E-05 8.35210E-05 5.29396E-23
 -1       778-1.81167E-05 8.23192E-05-2.64698E-23
 -1       779-1.81576E-05 7.83068E-05 0.00000E+00
 -1       780-1.72796E-05 7.18126E-05 0.00000E+00
 -1       781-1.56119E-05 6.31722E-05 5.29396E-23
 -1       782-1.32853E-05 5.27300E-05 2.64698E-23
 -1       783-1.04299E-05 4.08350E-05-5.29396E-23
 -1       784-7.17676E-06 2.78424E-05-2.64698E-23
 -1       785-3.65613E-06 1.41105E-05-5.29396E-23
 -1       786 1.93655E-04 3.23758E-05 0.00000E+00
 -1       787 1.93697E-04 3.01744E-05 0.00000E+00
 -1       788 1.93738E-04 2.80147E-05-8.27181E-25
 -1       789 1.93781E-04 2.58884E-05 0.00000E+00
 -1       790 1.93824E-04 2.37909E-05-1.65436E-24
 -1       791 1.93867E-04 2.17173E-05-8.27181E-25
 -1       792 1.93910E-04 1.96656E-05 0.00000E+00
 -1       793 1.93953E-04 1.76335E-05 0.00000E+00
 -1       794 1.93996E-04 1.56208E-05-1.65436E-24
 -1       795 1.94039E-04 1.36275E-05 8.27181E-25
 -1       796 1.94082E-04 1.16553E-05 1.65436E-24
 -1       797 1.94125E-04 9.70626E-06 8.27181E-25
 -1       798 1.94169E-04 7.78454E-06 0.00000E+00
 -1       799 1.94212E-04 5.89452E-06 0.00000E+00
 -1       800 1.94256E-04 4.04373E-06 0.00000E+00
 -1       801 1.47839E-04 3.11294E-05 0.00000E+00
 -1       802 9.43082E-06 1.94217E-05-2.64698E-23
 -1       803-1.08790E-04 9.81171E-06 0.00000E+00
 -1       804-9.64277E-05 6.82930E-06 2.64698E-23
 -1       805-3.18540E-05 2.68362E-06 0.00000E+00
 -1       806 1.94345E-04 3.23070E-05 1.65436E-24
 -1       807 1.95060E-04 3.00131E-05-1.65436E-24
 -1       808 1.95763E-04 2.77504E-05 0.00000E+00
 -1       809 1.96452E-04 2.55230E-05 0.00000E+00
 -1       810 1.97126E-04 2.33351E-05 0.00000E+00
 -1       811 1.97784E-04 2.11906E-05 1.65436E-24
 -1       812 1.98424E-04 1.90934E-05 0.00000E+00
 -1       813 1.99045E-04 1.70474E-05 1.65436E-24
 -1       814 1.99646E-04 1.50566E-05-3.30872E-24
 -1       815 2.00225E-04 1.31249E-05-8.27181E-25
 -1       816 2.00780E-04 1.12562E-05 0.00000E+00
 -1       817 2.01310E-04 9.45440E-06 8.27181E-25
 -1       818 2.01814E-04 7.72336E-06 0.00000E+00
 -1       819 2.02290E-04 6.06700E-06-1.65436E-24
 -1       820 2.02737E-04 4.48914E-06-1.65436E-24
 -1       821 1.94170E-04-1.19678E-07-1.65436E-24
 -1       822 1.94030E-04-3.63206E-06 0.00000E+00
 -1       823 1.93888E-04-7.86967E-06 3.30872E-24
 -1       824 1.93743E-04-1.24003E-05 1.65436E-24
 -1       825 1.93599E-04-1.67128E-05 3.30872E-24
 -1       826 1.93457E-04-2.02968E-05 1.65436E-24
 -1       827 1.93318E-04-2.28407E-05 0.00000E+00
 -1       828 1.93182E-04-2.40391E-05 0.00000E+00
 -1       829 1.93046E-04-2.39529E-05 3.30872E-24
 -1       830 1.92910E-04-2.26508E-05-1.65436E-24
 -1       831 1.92772E-04-2.05324E-05 0.00000E+00
 -1       832 1.92634E-04-1.80024E-05 0.00000E+00
 -1       833 1.92496E-04-1.55777E-05-3.30872E-24
 -1       834 1.92361E-04-1.37744E-05 0.00000E+00
 -1       835 1.92226E-04-1.29399E-05-8.27181E-25
 -1       836 1.95988E-04 2.36485E-06 0.00000E+00
 -1       837 1.97549E-04 2.49298E-06 0.00000E+00
 -1       838 1.99015E-04 2.62106E-06-3.30872E-24
 -1       839 2.00416E-04 2.74843E-06 0.00000E+00
 -1       840 2.01786E-04 2.87564E-06 0.00000E+00
 -1       856 1.92083E-04-1.44764E-05 0.00000E+00
 -1       857 1.92064E-04-1.54011E-05 1.29247E-26
 -1       858 1.92045E-04-1.62111E-05 0.00000E+00
 -1       859 1.92025E-04-1.69276E-05 0.00000E+00
 -1       860 1.92005E-04-1.75719E-05-4.13590E-25
 -1       861 1.91985E-04-1.81651E-05 0.00000E+00
 -1       862 1.91965E-04-1.87287E-05 0.00000E+00
 -1       863 1.91945E-04-1.92840E-05 4.13590E-25
 -1       864 1.91925E-04-1.98523E-05 8.27181E-25
 -1       865 1.91906E-04-2.04550E-05 0.00000E+00
 -1       866 1.91886E-04-2.11133E-05 8.27181E-25
 -1       867 1.91865E-04-2.18487E-05 4.13590E-25
 -1       868 1.91845E-04-2.26822E-05-8.27181E-25
 -1       869 1.91825E-04-2.36350E-05-4.13590E-25
 -1       870 1.91804E-04-2.47283E-05 0.00000E+00
 -1       871 1.93448E-04-1.34208E-05 8.27181E-25
 -1       872 1.94943E-04-1.34291E-05 0.00000E+00
 -1       873 1.96518E-04-1.34381E-05 4.13590E-25
 -1       874 1.98104E-04-1.34479E-05 3.36042E-25
 -1       875 1.99633E-04-1.34582E-05-1.24077E-24
 -1       876 1.92624E-04-1.44618E-05-3.30872E-24
 -1       877 1.93127E-04-1.54409E-05 1.65436E-24
 -1       878 1.93608E-04-1.63612E-05 0.00000E+00
 -1       879 1.94070E-04-1.72300E-05 0.00000E+00
 -1       880 1.94515E-04-1.80547E-05 0.00000E+00
 -1       881 1.94947E-04-1.88428E-05-1.65436E-24
 -1       882 1.95368E-04-1.96015E-05-3.30872E-24
 -1       883 1.95781E-04-2.03383E-05-1.65436E-24
 -1       884 1.96188E-04-2.10604E-05 0.00000E+00
 -1       885 1.96593E-04-2.17753E-05-1.65436E-24
 -1       886 1.96997E-04-2.24902E-05 0.00000E+00
 -1       887 1.97404E-04-2.32125E-05 0.00000E+00
 -1       888 1.97817E-04-2.39495E-05 3.30872E-24
 -1       889 1.98237E-04-2.47088E-05 1.65436E-24
 -1       890 1.98667E-04-2.54977E-05-1.65436E-24
 -1       891 1.93145E-04-2.60404E-05 1.65436E-24
 -1       892 1.94484E-04-2.60981E-05 0.00000E+00
 -1       893 1.95775E-04-2.61557E-05 0.00000E+00
 -1       894 1.96992E-04-2.62130E-05-4.13590E-25
 -1       895 1.98110E-04-2.62701E-05 0.00000E+00
 -1       956 2.03025E-04 1.67262E-06 3.30872E-24
 -1       957 2.02893E-04 4.43173E-07-8.27181E-25
 -1       958 2.02760E-04-7.05487E-07 0.00000E+00
 -1       959 2.02627E-04-1.78469E-06 1.65436E-24
 -1       960 2.02494E-04-2.80582E-06-3.30872E-24
 -1       961 2.02362E-04-3.78028E-06-1.65436E-24
 -1       962 2.02229E-04-4.71949E-06 3.30872E-24
 -1       963 2.02096E-04-5.63488E-06 0.00000E+00
 -1       964 2.01963E-04-6.53791E-06-3.30872E-24
 -1       965 2.01831E-04-7.43998E-06 1.65436E-24
 -1       966 2.01698E-04-8.35255E-06 3.30872E-24
 -1       967 2.01565E-04-9.28706E-06 1.65436E-24
 -1       968 2.01433E-04-1.02549E-05 0.00000E+00
 -1       969 2.01300E-04-1.12675E-05-3.30872E-24
 -1       970 2.01168E-04-1.23362E-05-3.30872E-24
 -1       971 2.00918E-04-1.46072E-05 0.00000E+00
 -1       972 2.00796E-04-1.56478E-05 0.00000E+00
 -1       973 2.00675E-04-1.66041E-05 0.00000E+00
 -1       974 2.00553E-04-1.74872E-05-1.65436E-24
 -1       975 2.00432E-04-1.83077E-05 3.30872E-24
 -1       976 2.00311E-04-1.90766E-05 1.65436E-24
 -1       977 2.00189E-04-1.98047E-05 3.30872E-24
 -1       978 2.00068E-04-2.05031E-05-1.65436E-24
 -1       979 1.99946E-04-2.11825E-05-3.30872E-24
 -1       980 1.99825E-04-2.18540E-05 0.00000E+00
 -1       981 1.99704E-04-2.25283E-05 0.00000E+00
 -1       982 1.99583E-04-2.32165E-05 1.65436E-24
 -1       983 1.99461E-04-2.39294E-05 0.00000E+00
 -1       984 1.99341E-04-2.46780E-05 0.00000E+00
 -1       985 1.99221E-04-2.54731E-05 0.00000E+00
 -3
    1PSTEP                        32          16           1          
  100CL  116 6.63139E-01         409                     0   16           1
 -4  STRESS      6    1
 -5  SXX         1    4    1    1
 -5  SYY         1    4    2    2
 -5  SZZ         1    4    3    3
 -5  SXY         1    4    1    2
 -5  SYZ         1    4    2    3
 -5  SZX         1    4    3    1
 -1         1-5.32069E+06-1.63260E+06-1.13307E+06-1.40920E+06-1.16415E-09-5.73636E-08
 -1         2 1.36419E+06 2.00683E+07 4.72125E+06 6.03919E+06 2.40107E-08-8.46339E-08
 -1         3-1.48792E+03-1.56709E+06 4.07530E+02-2.22407E+03-5.15062E-10-1.70912E-08
 -1         5-7.69122E+01 3.90216E+05 2.11710E+01 7.26443E+00-8.18147E-10 2.93039E-08
 -1         8-5.74372E+05-2.05254E+05-6.50691E+04-2.50062E+05-8.82210E-11-4.91527E-08
 -1         9 1.16385E+07 3.50833E+06 2.70635E+06-4.11622E+05 3.56231E-09 4.65894E-08
 -1        10-2.30728E+03-1.63304E+06-3.96418E+03-1.50477E+04-1.33095E-08-4.13356E-08
 -1        12-7.73009E+01 3.88261E+05 3.11215E+02-3.92055E+00 2.91038E-11 2.57290E-09
 -1        15 9.52693E+02 5.23559E+02 3.07951E+03 8.83793E-01-9.35074E-12 6.80651E-07
 -1        16 2.28195E+07-3.12978E+05 3.11136E+06-2.22571E+06 6.67448E-09 1.85954E-07
 -1        17 8.34592E+06 6.25550E+06 2.25534E+06 5.98890E+06 2.51341E-08 3.40980E-08
 -1        18 1.42270E+05 3.34739E+04 4.15652E+03-1.19474E+05 1.37186E-08 5.57657E-09
 -1        19 1.22379E+05 1.41649E+05-9.44337E+02 2.19677E+04 1.66910E-09-5.65124E-09
 -1        20-8.18050E+04-5.73550E+05-1.28691E+05 2.51753E+04-2.82034E-09 1.42124E-08
 -1        21-4.55972E+01-2.96090E+05-9.24358E+02 2.75067E+02 1.88548E-08-3.14155E-08
 -1        24 1.39516E+07 1.20239E+07 3.86540E+06 1.11352E+07-1.75865E-07-5.94300E-08
 -1        25 1.24919E+05 2.66832E+05 9.98965E+04-6.45495E+05-4.92219E-10-1.09003E-08
 -1        26-5.52835E+04 9.22940E+04-2.46074E+04 1.23160E+03-6.07542E-11 1.45267E-08
 -1        27-7.56225E+04-3.09888E+05-1.13297E+05 6.89633E+04 4.73847E-09-2.35923E-09
 -1        28 2.22477E+04-8.53553E+04 1.69010E+04 2.06429E+04-3.28677E-09-6.65261E-09
 -1        32-1.68066E+06-3.17989E+06-1.97139E+05 4.57280E+05-4.26371E-08-9.78275E-09
 -1        33-1.78437E+05 9.29812E+04 3.23824E+04-3.85353E+04-3.05120E-09-1.42736E-08
 -1        34-2.23587E+05-2.50184E+04 6.89016E+02 7.56255E+04-5.76509E-09-4.95932E-09
 -1        35-2.29372E+04-3.38507E+04-1.34849E+03 5.15102E+04-4.11124E-09 1.98852E-08
 -1        51 6.02651E+04-1.74853E+05 1.27558E+05-4.50048E+05-1.16415E-10 6.61603E-08
 -1        52 2.04519E+04-1.52636E+05 6.69933E+04-5.24869E+05 1.09139E-10 3.67294E-07
 -1        53 4.22953E+03-1.68026E+05 3.49864E+04-4.48492E+05 6.65750E-10 1.18322E-07
 -1        54 7.57621E+03-1.63826E+05 2.89487E+04-5.26402E+05-7.63976E-11-2.04684E-07
 -1        55 1.64854E+04-1.70970E+05 3.54477E+04-4.48387E+05 3.85626E-10 1.43249E-07
 -1        56-9.72830E+06-1.31602E+06-8.94415E+05-4.02349E+06-2.85218E-09-2.12691E-07
 -1        57-1.09238E+07-9.54114E+05-5.52323E+05-2.82534E+06 5.00368E-08 1.68926E-07
 -1        58-9.60490E+06-1.75519E+06-1.99611E+05-4.18052E+06 8.80391E-10 2.59221E-07
 -1        59-1.10182E+07-4.59539E+05-1.10477E+05-2.76416E+06 1.96783E-08 7.46077E-08
 -1        60-9.68981E+06-1.76084E+06-5.47409E+04-4.13481E+06 3.54557E-08-1.60100E-07
 -1        61-1.04813E+07-7.41496E+05 5.41627E+03-3.00128E+06-3.93193E-08-1.46969E-07
 -1        62-1.00393E+07-1.54240E+06-6.02729E+04-3.86337E+06 2.66300E-09-3.24675E-07
 -1        63-9.73285E+06-1.34912E+06 3.79613E+04-3.61674E+06-1.69312E-08-3.20098E-07
 -1        64-1.03590E+07-1.20969E+06-5.52501E+04-3.46827E+06 2.53203E-09-1.72273E-07
 -1        65-9.37896E+06-1.87617E+06 3.55198E+03-4.38038E+06-3.30474E-08-1.38902E-07
 -1        66-1.04871E+07-9.49720E+05-4.55879E+04-3.17038E+06-1.14960E-08-5.45442E-08
 -1        67-9.36293E+06-2.11063E+06-9.95769E+04-4.73777E+06-2.81689E-08-1.19482E-07
 -1        68-1.04679E+07-9.10348E+05-1.84089E+05-3.16990E+06-3.48091E-08-4.16039E-08
 -1        69-9.57020E+06-2.21638E+06-4.92969E+05-4.34674E+06 3.96903E-09 3.09461E-07
 -1        70-1.01957E+07-9.14587E+05-8.18318E+05-3.50350E+06-1.16270E-08 5.48898E-08
 -1        86-1.39109E+06-1.46947E+07-2.58241E+06-2.84248E+06-2.58457E-07-3.78350E-09
 -1        87 2.16528E+06 5.66571E+06 2.14876E+06 5.35535E+06-4.44626E-07 1.11699E-07
 -1        88-3.96058E+05-2.05638E+06 2.00411E+05-2.44327E+06-3.86879E-07-1.58715E-07
 -1        89 2.90192E+06 5.40467E+06 2.20000E+06 5.52693E+06-5.83968E-07-2.39779E-08
 -1        90-2.04518E+06-1.45014E+07-2.79289E+06-3.03846E+06-1.31553E-07 8.03266E-09
 -1       121-2.03853E+03-1.57199E+06-5.45296E+02 1.10240E+03 1.41374E-09-1.05356E-08
 -1       122-1.30109E+03-1.56715E+06 7.73293E+02-4.45203E+03-5.49521E-09-1.55705E-08
 -1       123-2.05842E+03-1.57213E+06 2.67431E+02 3.29228E+03 4.33363E-09-6.31626E-08
 -1       124 3.44348E+02-1.56670E+06 2.96547E+03-9.31286E+03-1.03864E-08-2.42417E-08
 -1       125-2.87187E+03-1.57303E+06 3.48519E+03 5.91734E+03 6.47015E-09-1.00845E-08
 -1       191-8.09671E+01 3.90233E+05 2.19409E+01-3.60215E+00 2.93483E-10 1.51485E-08
 -1       192-7.43896E+01 3.90218E+05 4.58618E+01 3.72761E+01 3.57545E-10 1.22536E-08
 -1       193-7.27623E+01 3.90229E+05 8.18830E+01-3.34991E+01 1.19462E-09 1.99761E-08
 -1       194-3.28758E+01 3.90233E+05 1.81143E+02 3.07603E+02 8.73115E-10 1.83618E-08
 -1       195 4.89625E+01 3.90205E+05 3.58296E+02-2.73908E+02 2.11548E-09 2.91584E-09
 -1       251-8.88014E+05 1.66204E+04-3.88457E+04-1.44180E+04 4.89854E-09-2.20825E-09
 -1       252-9.03176E+05-1.92113E+04-2.71006E+04 4.99594E+04-1.63306E-08-2.75028E-07
 -1       253-8.96277E+05 2.56417E+03-1.03809E+04-1.07075E+04 2.21348E-09 6.21180E-08
 -1       254-8.90033E+05-3.06094E+03-4.88116E+03 3.61794E+04-1.28580E-10 8.90941E-09
 -1       255-9.00588E+05 1.00834E+02-3.50709E+03-6.40630E+02 2.72439E-09 1.70666E-07
 -1       256-8.84550E+05-2.96561E+02 9.80393E+02 1.30360E+04 2.12606E-09 4.70211E-07
 -1       257-9.01315E+05-5.25521E+02-1.35220E+03 1.24260E+04-5.95242E-09-5.92098E-08
 -1       258-8.86959E+05 8.40059E+02 2.58747E+03-1.16735E+04 6.29598E-09-6.80488E-08
 -1       259-8.98391E+05-8.68561E+02 1.34385E+03 2.40661E+04-1.12459E-09-4.74687E-08
 -1       260-8.92985E+05 2.79834E+03 5.44320E+03-2.96379E+04 5.79007E-09-2.44277E-08
 -1       261-8.95891E+05-2.01717E+03 8.47009E+03 3.04046E+04 2.55923E-08-1.66572E-07
 -1       262-8.91636E+05 1.14471E+04 2.10426E+04-3.49151E+04-1.09031E-08-3.04002E-07
 -1       263-8.99981E+05-9.29688E+03 3.33430E+04 2.93519E+04-2.28511E-09 4.05089E-09
 -1       264-8.61872E+05 6.55192E+04 9.22909E+04-2.56483E+04 1.93928E-08-6.58310E-08
 -1       265-9.25176E+05-5.62142E+04 1.28559E+05 2.11268E+04 1.55741E-08-7.09551E-08
 -1       266-1.72468E+04-8.06542E+03 4.04623E+04-1.89093E+01-2.00089E-11-9.12701E-08
 -1       267 1.99936E+04 9.39921E+03 2.86001E+04 2.18194E+01 2.34650E-10 2.02889E-08
 -1       268-2.68110E+03-1.33124E+03 1.06304E+04-2.78007E+00-2.74667E-10-3.29639E-08
 -1       269 3.16561E+03 1.59317E+03 6.90970E+03 3.23846E+00 1.09935E-10 1.84395E-07
 -1       270-4.75144E+02-2.61755E+02 3.33541E+03-4.39475E-01-2.27487E-10 2.39856E-07
 -1       271-1.52195E+06-1.92608E+05-1.14415E+05-5.91425E+05 4.18040E-08 1.10223E-07
 -1       272-1.52489E+06-3.03776E+05-7.21472E+04-6.24320E+05-3.51647E-08-2.79615E-08
 -1       273-1.54590E+06-2.17402E+05-2.76376E+04-5.83442E+05 2.71029E-08 3.10138E-09
 -1       274-1.49725E+06-2.74030E+05-1.45451E+04-6.39054E+05-9.49149E-09 1.10793E-07
 -1       275-1.55145E+06-2.17275E+05-6.82456E+03-5.79768E+05 4.67444E-08-7.59528E-08
 -1       276-1.49132E+06-2.74741E+05-2.97415E+03-6.47227E+05 4.80304E-09 1.02556E-07
 -1       277-1.55419E+06-2.14809E+05-1.87438E+03-5.77103E+05-2.94494E-09 1.39242E-07
 -1       278-1.48893E+06-2.77897E+05-7.72237E+02-6.53251E+05-1.81535E-09 2.20003E-07
 -1       279-1.55595E+06-2.12750E+05-9.10202E+02-5.75214E+05-1.26147E-08 7.37487E-08
 -1       280-1.48776E+06-2.80336E+05-1.10741E+03-6.57264E+05 8.61291E-10-8.32222E-08
 -1       281-1.55690E+06-2.11406E+05-2.04239E+03-5.74128E+05-1.72877E-08 2.47934E-09
 -1       282-1.48813E+06-2.82720E+05-4.76197E+03-6.58976E+05-3.47725E-08 7.36343E-08
 -1       283-1.55636E+06-2.10011E+05-8.47219E+03-5.73967E+05 6.09668E-09-2.28511E-08
 -1       284-1.49567E+06-2.93974E+05-2.30905E+04-6.56809E+05-5.14968E-08-1.16454E-07
 -1       285-1.54939E+06-2.01396E+05-3.60020E+04-5.75795E+05-7.57336E-09 8.84938E-08
 -1       301-4.46893E+03-6.40193E+05 1.67419E+05-1.12169E+06 1.36351E-08-1.87705E-07
 -1       302-5.59236E+03-5.94032E+05 1.00767E+05-1.63757E+06-2.34504E-08-3.04857E-07
 -1       303-1.96467E+04-6.32010E+05 5.71362E+04-1.11864E+06 5.65342E-09-2.32376E-08
 -1       304-2.15303E+04-6.00509E+05 5.78555E+04-1.63693E+06-4.58385E-09-1.21367E-07
 -1       305-2.37266E+04-6.21000E+05 7.15960E+04-1.12175E+06-1.51886E-09-1.24957E-07
 -1       306-3.01320E+07-6.22215E+06-8.61021E+06-5.37053E+05-4.97093E-08 1.71451E-07
 -1       307 2.54034E+07 3.25318E+06 5.51938E+06-1.51830E+07-8.81861E-07 1.81608E-08
 -1       308-6.99559E+06-1.03152E+06-4.60337E+05 5.20932E+06-1.40484E-07 3.62052E-07
 -1       309-3.27599E+06 8.74836E+06 2.28228E+06-2.06654E+07 6.28534E-07 6.11468E-07
 -1       310-1.25290E+07-1.93660E+06-2.02329E+06 5.21936E+06-3.13157E-08-1.51733E-07
 -1       311 3.83141E+07 2.25783E+04 7.26333E+06-8.85849E+06 2.20229E-07 1.79862E-08
 -1       312-3.19105E+07-6.75311E+06-8.52608E+06-5.00381E+06 2.11759E-07 2.63157E-07
 -1       313 4.54600E+07 1.49411E+07 1.06624E+07 2.37376E+07 2.53931E-07 1.37981E-07
 -1       314-1.72613E+07-1.77539E+07-7.52496E+06-1.25351E+07 5.61296E-07 3.95812E-08
 -1       315-1.78194E+06 2.97064E+07 5.67254E+06 1.05965E+07-3.77462E-07 1.55385E-07
 -1       316 1.38302E+06-9.85023E+06-4.45875E+05-2.54885E+06-1.00538E-06-1.17987E-07
 -1       317-1.71320E+07 2.24181E+07 2.23777E+06-8.79530E+06 6.45508E-07-8.04910E-07
 -1       318-1.06742E+06-1.27633E+07-2.03438E+06-4.24046E+06-1.00228E-06 1.82597E-07
 -1       319 7.18395E+06 3.19160E+07 7.02739E+06 1.65913E+07-5.50644E-08 3.40980E-07
 -1       320-2.25798E+07-1.76214E+07-9.84372E+06-1.28033E+07 1.97324E-07-5.82950E-08
 -1       336-7.35416E+02-1.70174E+06-1.39054E+04 8.96083E+03-2.61607E-08-2.69938E-09
 -1       337-5.42446E+03-1.70132E+06-1.81471E+04-2.17598E+04-4.91100E-08 1.60217E-08
 -1       338 2.87874E+02-1.70123E+06-2.85718E+04 1.25484E+04-3.47191E-08 1.75860E-08
 -1       339-3.03161E+04-1.71862E+06-6.45855E+04-2.87857E+04-6.34345E-08 2.96750E-08
 -1       340 1.99863E+04-1.68663E+06-1.01731E+05 1.58557E+04-4.19459E-08 3.22289E-08
 -1       406-1.92083E+02 3.86312E+05 4.29561E+02 2.78074E+02-1.77897E-09 6.51744E-09
 -1       407 1.05543E+02 3.86422E+05 1.27181E+03-2.88875E+02-3.98131E-10 2.13986E-08
 -1       408 6.23938E+02 3.86207E+05 2.69936E+03 1.05223E+01-2.41721E-09-6.45923E-09
 -1       409 2.90374E+03 3.87316E+05 6.16486E+03 2.43238E+02-3.78350E-10-3.55785E-08
 -1       410 8.47912E+03 3.85417E+05 1.26172E+04-2.70508E+02-2.97041E-09-1.56724E-08
 -1       521-3.16665E+07-7.67648E+06-1.00545E+07-1.45201E+05-1.35507E-07-1.54309E-07
 -1       522 2.62536E+07 4.27082E+06 5.62394E+06-1.86826E+07-4.94765E-07-3.49799E-07
 -1       523-7.57208E+06-1.34315E+06-4.52047E+05 5.65541E+06-7.32252E-08-9.12114E-08
 -1       524-6.77773E+06 1.17972E+07 2.46728E+06-2.37183E+07 8.44848E-07-4.42218E-07
 -1       525-1.33261E+07-2.56774E+06-2.22313E+06 5.66789E+06 6.76198E-07-4.33065E-07
 -1       526 4.17988E+07-6.72266E+04 7.61972E+06-1.15054E+07 2.07277E-07-1.21072E-08
 -1       527-3.37451E+07-8.44624E+06-9.82305E+06-4.86383E+06-1.88709E-07 2.24347E-07
 -1       528 4.96187E+07 1.66345E+07 1.11164E+07 2.69776E+07-3.81959E-07-3.18309E-07
 -1       529-1.82001E+07-1.99523E+07-8.62357E+06-1.25620E+07 2.14146E-07-1.80095E-07
 -1       530-4.26404E+06 3.44810E+07 6.00014E+06 1.00631E+07-1.98008E-07 6.00412E-07
 -1       531 1.38011E+06-1.09214E+07-4.19057E+05-2.49994E+06-6.96135E-07 3.55067E-07
 -1       532-1.96562E+07 2.44231E+07 2.44399E+06-1.30760E+07 4.63202E-07-7.97590E-07
 -1       533-1.11169E+06-1.39085E+07-2.16434E+06-4.05111E+06-2.89991E-07-9.77016E-07
 -1       534 5.16805E+06 3.70185E+07 7.31007E+06 1.71566E+07 4.20841E-08 7.24103E-07
 -1       535-2.37522E+07-2.00040E+07-1.12803E+07-1.28671E+07 1.25030E-07 4.65661E-07
 -1       536-7.06179E+05-4.69223E+04-4.77571E+04-5.46780E+04-5.63614E-09 5.32209E-08
 -1       537-5.48390E+04 4.48912E+04 8.42104E+04 1.23841E+05-1.13207E-07 9.16680E-08
 -1       538-3.94453E+05 3.31528E+03 3.65645E+03-7.22015E+04 7.46434E-09 1.02319E-07
 -1       539-2.69079E+05 2.88481E+03 2.49799E+04 1.38737E+05 1.66005E-07 1.09445E-07
 -1       540-4.97319E+05-4.29715E+02-2.12880E+04-7.01088E+04-1.10986E-08 1.07319E-07
 -1       541 1.46561E+05 1.69734E+04 1.06385E+05 9.79320E+04-3.16734E-08 8.58560E-08
 -1       542-7.98892E+05-2.01340E+04-8.42210E+04-3.05217E+04 3.56786E-08 4.25461E-08
 -1       543 4.05266E+05 2.73248E+04 1.57962E+05-1.33537E+04 3.62331E-08-3.76303E-09
 -1       544-7.49086E+05-1.65367E+04-7.48310E+04 4.05075E+04 1.89939E-08-4.89189E-08
 -1       545 2.89358E+04 9.48325E+03 7.98083E+04-1.13619E+05-3.91774E-08-6.69484E-08
 -1       546-4.32669E+05 6.09550E+03-1.22290E+04 6.93969E+04 1.80064E-08-8.61681E-08
 -1       547-2.87154E+05-4.65665E+03 1.05869E+04-1.41584E+05-1.34300E-07-1.02546E-07
 -1       548-4.41494E+05 4.71989E+03-2.38769E+04 6.91640E+04-1.17959E-07-8.91459E-08
 -1       549 4.80946E+04 1.60753E+04 6.05168E+04-1.11482E+05-6.86343E-08-7.57414E-08
 -1       550-7.58947E+05-2.21435E+04-1.28950E+05 3.85795E+04 7.68887E-09-3.37641E-08
 -1       551 4.08361E+04-7.53897E+05-1.56904E+04-1.24768E+06-1.05239E-07 5.90808E-09
 -1       552 9.33010E+04-7.98842E+05 1.00584E+04-1.77907E+06-6.97473E-08 1.81317E-08
 -1       553 7.17715E+04-7.95255E+05 3.21615E+04-1.24104E+06-1.18293E-07 1.85246E-08
 -1       554 1.32090E+05-8.14674E+05 8.12497E+04-1.78102E+06-7.62375E-08 1.98233E-08
 -1       555 1.01531E+05-8.18892E+05 1.48349E+05-1.24087E+06-1.21159E-07-1.72076E-08
 -1       556 2.23521E+05-3.83340E+05 2.62210E+04-4.07072E+05-3.09956E-08-3.79223E-08
 -1       557 3.54101E+05-4.87659E+05 1.63888E+04-5.27369E+05 5.09317E-09 9.09495E-11
 -1       558 2.05342E+05-3.76231E+05 2.42965E+03-4.11445E+05-2.57278E-08-1.49375E-08
 -1       559 3.29054E+05-4.87794E+05 2.49111E+03-5.47800E+05 1.57888E-08-7.39965E-09
 -1       560 1.90055E+05-3.66644E+05-1.47943E+03-4.22460E+05 1.32131E-08 2.23445E-08
 -1       561 3.09839E+05-4.80107E+05 1.41500E+02-5.60900E+05-3.63798E-10 3.96685E-08
 -1       562 1.77966E+05-3.59133E+05-1.32022E+03-4.31215E+05-2.64845E-09 8.81846E-09
 -1       563 2.95479E+05-4.73847E+05-3.43588E+01-5.70279E+05-7.85803E-09-6.22822E-09
 -1       564 1.69338E+05-3.53757E+05-5.99242E+02-4.37329E+05 6.00994E-09 1.44028E-08
 -1       565 2.85953E+05-4.69698E+05 2.44106E+01-5.76365E+05 8.44011E-09 8.17181E-09
 -1       566 1.64293E+05-3.50565E+05-2.59685E+02-4.40858E+05-8.45466E-09-1.46320E-08
 -1       567 2.81323E+05-4.67684E+05-3.62038E+02-5.79178E+05 2.23499E-08-2.06164E-08
 -1       568 1.62924E+05-3.49726E+05-1.12450E+03-4.41912E+05-4.20641E-09 2.08383E-08
 -1       569 2.80200E+05-4.67610E+05-2.84030E+03-5.77751E+05-5.99630E-09 2.13513E-08
 -1       570 1.66320E+05-3.52958E+05-6.20946E+03-4.40894E+05 7.10861E-09 6.44013E-09
 -1       571 2.90421E+05 1.05065E+04 1.49885E+04-9.51099E+04 2.67119E-09 6.92899E-09
 -1       572 2.92593E+05 3.96018E+03 7.34556E+03-1.04345E+05 5.64796E-10 1.09503E-08
 -1       573 2.91283E+05 1.24588E+03 3.26387E+03-9.49334E+04-3.28328E-10 8.67385E-09
 -1       574 2.91497E+05 7.27437E+02 1.63680E+03-1.04569E+05 2.83922E-09 1.41526E-08
 -1       575 2.91377E+05 4.48265E+02 7.72522E+02-9.49093E+04-2.86818E-09-5.24687E-09
 -1       576 2.91361E+05 4.59655E+02 3.95522E+02-1.04599E+05-9.37939E-09-3.53321E-08
 -1       577 2.91417E+05 3.90234E+02 1.97441E+02-9.49060E+04-8.39918E-09 7.37509E-09
 -1       578 2.91391E+05 4.21681E+02 1.14042E+02-1.04603E+05-6.28415E-09-3.46336E-09
 -1       579 2.91489E+05 3.53652E+02 7.83114E+01-9.49056E+04-1.78261E-09-3.34057E-09
 -1       580 2.91493E+05 3.70777E+02 9.08561E+01-1.04598E+05-2.71348E-08 2.05146E-08
 -1       581 2.91602E+05 2.95209E+02 1.37221E+02-9.49115E+04 5.23869E-10 1.52249E-09
 -1       582 2.91668E+05 3.33512E+02 2.78969E+02-1.04537E+05 5.74801E-09 4.49927E-09
 -1       583 2.91742E+05 3.37654E+02 5.35450E+02-9.49680E+04-1.59707E-09 7.21934E-09
 -1       584 2.92043E+05 7.75065E+02 1.21165E+03-1.04061E+05 3.83261E-09-4.40832E-09
 -1       585 2.91768E+05 1.79475E+03 2.45356E+03-9.53867E+04-3.27236E-09 8.56380E-09
 -1       586-3.42605E+03 1.16812E+05-2.91821E+03-2.50628E+05-4.75256E-09 7.04040E-09
 -1       587-1.33996E+03 1.16563E+05 7.70856E+02-2.75835E+05-6.31553E-09 3.65843E-08
 -1       588 3.97984E+02 1.16370E+05 4.75960E+03-2.50490E+05-4.94401E-09 3.16686E-09
 -1       589 5.08496E+03 1.18843E+05 1.23451E+04-2.75602E+05-8.59109E-09-2.29811E-08
 -1       590 1.66102E+04 1.15036E+05 2.58966E+04-2.50921E+05-4.08909E-09 3.31420E-09
 -1       591-7.49703E+04-1.59822E+04-2.25235E+04-3.19694E+04 3.84671E-09-1.03864E-08
 -1       592-7.90523E+04-1.95452E+04-1.22005E+04-3.56008E+04 6.28027E-09-2.57619E-08
 -1       593-7.72230E+04-1.43478E+04-5.07846E+03-3.36207E+04 1.11215E-08 5.42968E-09
 -1       594-7.59424E+04-1.62402E+04-2.53276E+03-3.57187E+04 9.48728E-09-1.35242E-08
 -1       595-7.73947E+04-1.43424E+04-1.16280E+03-3.36958E+04 1.28423E-08-7.26692E-09
 -1       596-7.57295E+04-1.60890E+04-5.90902E+02-3.56934E+04 1.76586E-08-4.11052E-09
 -1       597-7.74163E+04-1.43578E+04-3.21324E+02-3.36986E+04 7.81779E-09 6.19070E-09
 -1       598-7.57085E+04-1.60831E+04-2.57502E+02-3.56863E+04-4.84170E-09 2.71251E-08
 -1       599-7.74150E+04-1.43583E+04-3.27925E+02-3.36983E+04 4.55566E-09 8.68999E-09
 -1       600-7.57295E+04-1.60896E+04-6.08375E+02-3.56913E+04 1.58078E-08 5.90126E-09
 -1       601-7.73904E+04-1.43438E+04-1.19978E+03-3.36948E+04 5.95105E-09-1.59259E-08
 -1       602-7.59491E+04-1.62444E+04-2.61457E+03-3.57135E+04-3.54896E-09-1.17047E-08
 -1       603-7.72103E+04-1.43522E+04-5.24318E+03-3.36181E+04-4.21778E-10 1.16097E-09
 -1       604-7.91775E+04-1.96369E+04-1.25953E+04-3.55670E+04 4.85215E-10 2.14732E-08
 -1       605-7.48647E+04-1.60574E+04-2.32525E+04-3.19327E+04 2.29142E-09 1.32923E-08
 -1       606 2.67348E+04-1.43258E+04-2.56804E+04 2.40347E+04 9.13951E-09-1.53034E-08
 -1       607 2.23469E+04-4.67908E+03-1.27888E+04 2.70099E+04 2.48929E-09-8.00901E-09
 -1       608 2.48475E+04-8.44420E+02-5.72511E+03 2.38657E+04-4.44561E-09 1.81160E-08
 -1       609 2.43682E+04-2.89545E+02-2.89217E+03 2.72244E+04-9.99535E-10 2.73635E-08
 -1       610 2.46339E+04-4.13068E+01-1.37989E+03 2.38456E+04 5.31600E-09 7.43012E-09
 -1       611 2.45587E+04-4.15729E+01-6.95731E+02 2.72475E+04 7.04449E-09-6.70025E-09
 -1       612 2.45867E+04-2.75514E+01-3.30742E+02 2.38435E+04 1.20053E-10 7.76731E-09
 -1       613 2.45702E+04-3.74369E+01-1.48188E+02 2.72503E+04 4.43197E-09-6.33440E-09
 -1       614 2.45645E+04-3.39285E+01-3.46941E+01 2.38428E+04 7.39237E-09 1.11527E-08
 -1       615 2.45648E+04-3.59121E+01 6.22487E+01 2.72507E+04-1.32331E-10-2.13731E-11
 -1       616 2.45471E+04-3.07758E+01 1.86534E+02 2.38431E+04-7.71252E-10-1.99771E-09
 -1       617 2.45872E+04 3.86462E+00 4.25538E+02 2.72502E+04 6.35282E-10 7.04586E-09
 -1       618 2.45101E+04 9.19185E+01 8.57721E+02 2.38434E+04 9.83664E-09 8.40737E-09
 -1       619 2.48900E+04 6.67071E+02 1.92607E+03 2.72496E+04 1.92530E-08-9.73978E-09
 -1       620 2.42252E+04 2.12581E+03 3.87134E+03 2.38450E+04 1.04297E-08-6.16637E-09
 -1       621 5.11347E+02 3.01433E+05 3.88614E+03 4.09195E+04 8.02174E-10 5.16502E-09
 -1       622 6.77198E+02 3.02331E+05 3.44807E+03 5.94050E+04 1.11322E-09 1.23255E-08
 -1       623 1.42750E+02 3.01628E+05 4.14246E+03 4.07344E+04 1.28330E-09 2.11849E-08
 -1       624 2.12611E+03 3.03548E+05 8.02979E+03 5.95872E+04 1.30422E-09-1.48566E-08
 -1       625 2.07729E+03 3.00036E+05 1.40313E+04 4.07312E+04 1.38925E-09-1.27604E-08
 -1       626 2.60813E+05 6.14282E+04 5.11828E+03 1.26752E+05 4.04589E-09-1.29785E-08
 -1       627 2.58492E+05 6.28291E+04 2.46646E+03 1.31028E+05 8.42965E-09-1.96172E-08
 -1       628 2.60941E+05 5.90860E+04 1.04313E+03 1.27622E+05-3.41424E-09-8.72888E-10
 -1       629 2.57857E+05 6.21496E+04 5.10563E+02 1.31269E+05-1.04806E-08-1.14287E-08
 -1       630 2.60956E+05 5.89729E+04 2.36937E+02 1.27658E+05-8.25275E-09-8.92555E-09
 -1       631 2.57790E+05 6.21238E+04 1.27640E+02 1.31271E+05-1.62199E-08-1.24347E-08
 -1       632 2.60952E+05 5.89768E+04 8.42301E+01 1.27654E+05 8.65430E-09-3.22621E-09
 -1       633 2.57781E+05 6.21256E+04 9.41985E+01 1.31267E+05 2.53062E-08-2.71643E-09
 -1       634 2.60948E+05 5.89740E+04 1.52551E+02 1.27654E+05 3.65924E-09 3.35963E-08
 -1       635 2.57796E+05 6.21239E+04 3.08886E+02 1.31272E+05-1.54779E-08 3.06495E-08
 -1       636 2.60938E+05 5.89682E+04 6.23898E+02 1.27653E+05-3.80692E-09 4.00314E-09
 -1       637 2.57931E+05 6.22209E+04 1.37186E+03 1.31272E+05 2.06091E-09 1.77172E-08
 -1       638 2.60890E+05 5.92713E+04 2.81867E+03 1.27516E+05 1.07129E-08 3.68664E-08
 -1       639 2.59411E+05 6.42802E+04 6.66911E+03 1.30836E+05-1.16506E-09-8.46558E-09
 -1       640 2.60685E+05 6.54205E+04 1.38396E+04 1.24925E+05 7.45194E-09 5.98880E-09
 -1       656 6.65798E+04-1.70388E+06-1.60719E+05-2.56246E+03-1.40426E-09-2.19637E-09
 -1       657-8.80789E+04-1.77650E+06-1.33146E+05 5.16910E+03-1.00499E-09-1.26269E-08
 -1       658 2.12230E+04-1.72450E+06-8.20005E+04-4.64750E+03-3.68573E-10 1.55088E-08
 -1       659-9.52422E+04-1.77990E+06-1.42560E+05 6.90026E+03-2.76486E-09 6.36510E-09
 -1       660 7.37271E+04-1.70048E+06-1.76904E+05-4.29361E+03-3.06318E-09-4.71888E-09
 -1       661 1.58851E+05 1.66244E+04 1.67386E+04 6.20962E+04-1.13141E-09 2.19134E-08
 -1       662 1.68311E+05 2.90232E+04 1.12806E+04 5.83441E+04 6.02199E-10-1.08776E-09
 -1       663 1.62138E+05 2.19945E+04 3.94525E+03 6.11421E+04-2.47633E-09 9.40167E-09
 -1       664 1.64499E+05 2.27434E+04 2.36008E+03 5.95097E+04-2.51842E-09-1.39101E-08
 -1       665 1.62637E+05 2.27279E+04 9.31034E+02 6.09965E+04-8.56915E-10-5.20265E-09
 -1       666 1.63909E+05 2.19047E+04 5.44978E+02 5.96996E+04 8.29266E-09-3.21295E-09
 -1       667 1.62725E+05 2.28112E+04 2.89649E+02 6.09600E+04 1.06007E-09-1.07216E-08
 -1       668 1.63812E+05 2.18448E+04 2.95557E+02 5.97527E+04-2.72742E-09 8.56630E-11
 -1       669 1.62733E+05 2.27861E+04 4.00487E+02 6.09437E+04-6.74277E-10 9.54708E-09
 -1       670 1.63910E+05 2.20624E+04 8.72391E+02 5.97556E+04-9.55512E-09-2.56053E-08
 -1       671 1.62627E+05 2.25982E+04 1.54910E+03 6.09550E+04 1.37195E-09-2.79649E-08
 -1       672 1.64812E+05 2.35695E+04 3.96343E+03 5.95369E+04 3.85876E-09-1.18648E-08
 -1       673 1.61834E+05 2.13171E+04 6.64211E+03 6.11478E+04 4.13138E-10 2.00039E-08
 -1       674 1.71134E+05 3.42409E+04 1.89950E+04 5.76798E+04-3.11820E-09 2.40279E-08
 -1       675 1.56346E+05 1.22258E+04 2.81953E+04 6.27000E+04-4.33783E-09 1.29676E-08
 -1       676 2.41256E+01-2.96013E+05-1.11410E+03-1.37538E+02 2.99960E-09-1.25308E-09
 -1       677-2.94703E+02-2.96283E+05-2.03899E+03 2.74854E+02 9.11928E-09-1.35696E-09
 -1       678 1.97663E+02-2.95821E+05-3.60442E+03-1.37226E+02 3.54930E-10-9.77046E-10
 -1       679-3.60448E+03-2.98459E+05-8.56261E+03 2.73666E+02 8.49730E-09 9.29651E-09
 -1       680 2.15209E+03-2.93838E+05-1.38000E+04-1.34834E+02-1.08685E-09-1.59115E-09
 -1       771-3.06375E+06-7.47216E+05-1.65442E+05-1.46631E+06-3.57686E-08-2.55532E-08
 -1       772-2.98662E+06-8.35976E+05-8.52916E+04-1.56893E+06-2.27446E-08 1.02445E-08
 -1       773-3.09518E+06-7.22702E+05-4.34904E+04-1.48080E+06-1.07102E-08 1.83063E-08
 -1       774-2.97714E+06-8.17519E+05-1.94008E+04-1.59467E+06 2.61934E-08 1.45883E-09
 -1       775-3.11161E+06-7.11173E+05-1.45193E+04-1.48784E+06-1.14087E-08-2.63390E-09
 -1       776-2.98946E+06-8.14494E+05-5.42842E+03-1.61415E+06-8.52742E-09-4.01633E-09
 -1       777-3.12586E+06-7.00883E+05-6.41774E+03-1.49405E+06 7.36327E-09 9.60426E-10
 -1       778-3.00234E+06-8.11679E+05-1.81400E+03-1.63089E+06 1.54250E-08 7.53062E-09
 -1       779-3.13812E+06-6.91892E+05-3.20792E+03-1.49936E+06-8.45466E-09-6.34827E-09
 -1       780-3.01367E+06-8.08992E+05-5.31825E+02-1.64452E+06-7.97445E-09-1.68802E-09
 -1       781-3.14787E+06-6.84643E+05-1.24640E+03-1.50351E+06-1.89757E-08 5.63523E-09
 -1       782-3.02241E+06-8.06711E+05 4.49323E+02-1.65458E+06-2.91911E-08-6.20457E-09
 -1       783-3.15473E+06-6.79606E+05 6.99357E+02-1.50642E+06 1.84082E-09-1.24928E-08
 -1       784-3.02725E+06-8.04430E+05 2.89905E+03-1.66080E+06-1.09285E-08 8.66157E-09
 -1       785-3.15879E+06-6.76602E+05 5.11775E+03-1.50826E+06-3.50556E-08 1.41645E-08
 -1       786 1.24334E+05-9.79548E+03 2.26628E+04-3.23772E+02 2.07817E-09-1.65064E-08
 -1       787 1.34163E+05 1.13410E+04 1.60330E+04-1.37143E+02 6.58278E-09-2.05364E-09
 -1       788 1.28123E+05-1.53497E+03 5.86338E+03-2.88583E+02 4.98883E-09 1.73975E-08
 -1       789 1.29748E+05 1.77671E+03 3.68085E+03-1.91041E+02-2.29615E-09 8.28408E-09
 -1       790 1.28749E+05-2.38992E+02 1.49038E+03-2.69892E+02-5.04922E-09 1.52397E-08
 -1       791 1.29016E+05 2.76543E+02 8.60943E+02-2.23020E+02-7.68781E-09 1.09337E-08
 -1       792 1.28855E+05-3.59352E+01 3.65101E+02-2.56607E+02-3.92470E-09-2.17177E-09
 -1       793 1.28889E+05 3.81087E+01 1.82597E+02-2.48017E+02 2.34680E-10-1.40721E-08
 -1       794 1.28876E+05-7.08516E-01 4.86317E+01-2.44894E+02 4.67622E-09-4.06929E-09
 -1       795 1.28853E+05-2.65429E+01-5.48448E+01-2.72478E+02-4.32984E-09-1.57448E-08
 -1       796 1.28892E+05 2.86802E+01-1.57872E+02-2.32147E+02 3.72685E-09-1.72637E-08
 -1       797 1.28760E+05-2.14153E+02-4.34847E+02-3.01781E+02 3.97910E-09 8.55241E-09
 -1       798 1.28968E+05 1.86760E+02-7.06596E+02-2.15591E+02 2.58574E-09 1.37919E-09
 -1       799 1.28224E+05-1.37651E+03-1.94429E+03-3.42796E+02 6.49592E-09-2.74099E-09
 -1       800 1.29428E+05 1.19008E+03-2.75167E+03-1.91133E+02 5.97666E-10 9.76593E-09
 -1       801-1.70767E+05-9.98984E+06-1.39210E+06 1.41347E+06 9.06875E-08-5.40604E-08
 -1       802 7.37005E+05 5.93765E+06 2.17856E+06-1.74460E+06 2.55997E-07-3.15031E-08
 -1       803-5.35928E+05-1.42527E+07-1.88809E+06 8.96897E+05 7.72598E-08 2.54513E-08
 -1       804 2.86831E+05 2.38696E+06 1.53523E+06 6.76614E+05-1.20996E-07-9.67275E-08
 -1       805 1.89098E+05-6.45326E+06-2.85903E+05-1.00209E+06-5.03642E-08-6.16164E-08
 -1       806-3.08801E+05-5.97549E+04-2.28399E+04-1.22394E+05-2.81307E-09-4.90581E-09
 -1       807-3.10594E+05-5.60306E+04-1.12210E+04-1.27941E+05 1.49137E-08-3.32736E-09
 -1       808-3.09428E+05-5.15234E+04-4.76031E+03-1.26285E+05-3.09365E-09 2.36832E-09
 -1       809-3.08234E+05-5.28779E+04-2.32767E+03-1.28216E+05-1.92067E-08 1.54017E-08
 -1       810-3.09522E+05-5.12368E+04-1.06690E+03-1.26457E+05 6.13227E-09 2.06508E-08
 -1       811-3.08052E+05-5.27512E+04-5.30592E+02-1.28181E+05 6.40148E-09-2.48656E-09
 -1       812-3.09536E+05-5.12615E+04-2.68431E+02-1.26456E+05-3.70983E-09-1.19185E-08
 -1       813-3.08026E+05-5.27534E+04-1.74594E+02-1.28162E+05-4.79122E-09-1.36160E-08
 -1       814-3.09529E+05-5.12712E+04-1.73251E+02-1.26452E+05 1.90539E-09-2.23067E-08
 -1       815-3.08030E+05-5.27557E+04-2.79342E+02-1.28155E+05 7.17773E-09-1.05422E-08
 -1       816-3.09508E+05-5.12704E+04-5.29579E+02-1.26448E+05 3.41788E-09 2.45936E-08
 -1       817-3.08120E+05-5.28062E+04-1.13659E+03-1.28143E+05-2.22194E-08 2.64627E-08
 -1       818-3.09439E+05-5.14309E+04-2.31829E+03-1.26373E+05-3.13958E-09-6.15819E-09
 -1       819-3.09389E+05-5.42067E+04-5.45475E+03-1.27842E+05 7.86167E-09-1.25749E-08
 -1       820-3.09002E+05-5.55516E+04-1.11024E+04-1.24613E+05 4.94128E-09-1.01704E-09
 -1       821-3.78977E+05 2.08700E+04-4.85824E+04 2.12895E+03 1.43678E-08 1.57415E-08
 -1       822-3.98679E+05-2.41767E+04-3.41420E+04-4.46236E+03 5.12173E-09 8.96262E-09
 -1       823-3.86440E+05 3.28987E+03-1.25484E+04 3.44133E+03-1.29082E-08 1.10363E-08
 -1       824-3.89669E+05-3.79382E+03-7.85437E+03-5.37695E+03 5.08193E-10-6.94718E-09
 -1       825-3.87993E+05 5.11281E+02-3.28920E+03 3.04365E+03 2.11771E-08 4.28554E-09
 -1       826-3.87235E+05-5.67252E+02-1.74369E+03-3.10205E+03 2.84050E-08 4.00405E-10
 -1       827-3.88849E+05 4.67182E+01-1.19043E+03 1.16630E+03 1.16795E-08 2.12920E-08
 -1       828-3.86528E+05-1.31875E+02-5.85360E+02 1.09604E+03-2.69856E-09 1.25285E-08
 -1       829-3.88687E+05 6.58084E+01-1.17930E+03-1.15447E+03 2.18122E-09-4.33124E-09
 -1       830-3.87585E+05-6.22035E+02-1.88184E+03 4.89002E+03 7.51641E-10 5.41621E-09
 -1       831-3.87815E+05 5.54543E+02-3.37091E+03-2.62771E+03-5.10720E-09-5.92581E-09
 -1       832-3.89749E+05-3.96050E+03-8.15687E+03 6.17359E+03-3.98996E-09 6.31042E-09
 -1       833-3.86539E+05 3.41386E+03-1.30519E+04-2.43808E+03-2.73262E-09 1.21236E-08
 -1       834-3.98739E+05-2.50897E+04-3.53639E+04 4.19998E+03-3.12633E-09 3.47427E-09
 -1       835-3.78808E+05 2.16508E+04-5.04512E+04-6.54018E+02 6.13488E-09 8.69477E-10
 -1       836-1.41407E+03 3.70202E+05 2.29058E+04-1.62062E+04-7.21229E-09 4.16185E-09
 -1       837 4.88242E+03 3.77377E+05 1.93795E+04-3.31171E+04-7.73616E-09-3.87195E-09
 -1       838-5.58163E+02 3.72214E+05 1.97409E+04-1.61345E+04-6.32690E-09 9.39349E-09
 -1       839 1.24214E+04 3.82991E+05 3.73396E+04-3.31696E+04-6.70798E-09 8.72012E-09
 -1       840-3.84075E+03 3.64528E+05 5.95411E+04-1.61596E+04-6.30462E-09-1.52409E-08
 -1       856-5.24594E+04 8.03383E+03-2.11709E+04-3.97392E+02 4.18038E-09-7.21047E-09
 -1       857-6.11813E+04-9.43949E+03-1.45738E+04 5.63650E+03 1.43896E-09 1.40506E-08
 -1       858-5.59135E+04 1.12667E+03-5.49333E+03-4.21587E+02 1.25567E-09 1.47975E-09
 -1       859-5.72174E+04-1.32549E+03-3.31498E+03 5.67250E+03-4.93964E-09 4.93515E-09
 -1       860-5.64295E+04 1.57788E+02-1.38932E+03-4.33122E+02-3.56977E-10-5.83975E-09
 -1       861-5.66238E+04-1.88381E+02-7.64314E+02 5.68822E+03 3.28772E-09-3.31566E-09
 -1       862-5.65102E+04 2.13799E+01-3.17759E+02-4.37276E+02-1.59159E-09 4.92699E-09
 -1       863-5.65248E+04-2.19170E+01-1.15849E+02 5.69063E+03-7.43412E-09-2.14662E-08
 -1       864-5.65290E+04-4.88806E+00 4.70332E+01-4.35531E+02-5.92236E-09-1.13553E-08
 -1       865-5.64691E+04 5.95500E+01 2.55043E+02 5.68067E+03-2.66880E-10-1.12760E-08
 -1       866-5.65638E+04-6.01089E+01 5.14097E+02-4.27319E+02 2.25924E-09-2.11003E-09
 -1       867-5.62272E+04 4.96336E+02 1.26548E+03 5.65838E+03 1.22586E-09-1.62222E-08
 -1       868-5.67659E+04-4.33798E+02 2.10286E+03-4.13238E+02-6.04814E-10-5.65478E-09
 -1       869-5.46855E+04 3.61025E+03 5.59926E+03 5.62171E+03 1.48731E-10-6.63704E-09
 -1       870-5.80977E+04-3.08946E+03 8.12577E+03-3.90546E+02-6.68547E-09-9.98079E-09
 -1       871-5.51756E+03-2.13053E+04-1.94873E+04 1.30390E+05-2.75395E-09 1.83591E-08
 -1       872-1.98178E+03-2.58366E+04-8.15907E+03 1.69070E+05-9.42873E-09 7.13953E-09
 -1       873 4.05261E+02-2.36451E+04 5.91494E+02 1.30103E+05-6.94763E-09-1.82354E-09
 -1       874 3.30665E+03-2.12338E+04 9.78187E+03 1.69099E+05-1.28884E-08 1.77206E-08
 -1       875 6.84769E+03-2.59753E+04 2.20657E+04 1.30342E+05-5.42786E-09 1.66792E-08
 -1       876 2.93791E+05 4.95162E+04 1.51031E+04 1.17899E+05 9.91088E-09 1.74950E-08
 -1       877 2.94789E+05 5.26974E+04 8.06567E+03 1.22232E+05 2.54840E-09 1.90914E-09
 -1       878 2.95204E+05 4.78432E+04 3.37911E+03 1.19136E+05-1.70212E-09 2.88742E-09
 -1       879 2.92737E+05 5.06485E+04 1.68369E+03 1.22334E+05 5.82872E-09-6.32372E-09
 -1       880 2.95305E+05 4.78259E+04 7.84240E+02 1.19187E+05 2.18574E-09-6.63931E-11
 -1       881 2.92600E+05 5.05609E+04 4.18815E+02 1.22311E+05 9.31664E-10-5.82844E-09
 -1       882 2.95314E+05 4.78392E+04 2.67964E+02 1.19189E+05 2.80329E-09 2.48836E-09
 -1       883 2.92591E+05 5.05563E+04 2.88124E+02 1.22303E+05-1.77545E-09 1.00911E-08
 -1       884 2.95307E+05 4.78364E+04 4.58382E+02 1.19189E+05 2.12037E-09-1.46526E-08
 -1       885 2.92627E+05 5.05627E+04 9.21628E+02 1.22314E+05-4.01602E-09-1.24292E-08
 -1       886 2.95272E+05 4.78095E+04 1.85751E+03 1.19185E+05-5.39879E-09 1.33412E-08
 -1       887 2.92953E+05 5.07767E+04 4.05748E+03 1.22361E+05 5.62267E-10 1.04819E-10
 -1       888 2.95015E+05 4.78547E+04 8.17595E+03 1.19056E+05-5.18511E-09 2.05546E-10
 -1       889 2.97821E+05 5.58386E+04 1.95308E+04 1.22212E+05-5.01144E-09 1.05374E-08
 -1       890 2.91678E+05 5.18187E+04 3.65808E+04 1.15944E+05-1.37379E-09 3.47973E-09
 -1       891-8.92348E+01-1.62799E+05-1.99655E+03 2.71664E+04 3.77895E-10-1.17957E-08
 -1       892-1.75201E+02-1.63327E+05-2.14439E+03 4.12538E+04 1.59298E-09-6.92216E-09
 -1       893 4.38043E+01-1.62863E+05-3.03628E+03 2.71738E+04-1.66278E-09 1.51658E-08
 -1       894-1.51012E+03-1.64474E+05-6.28399E+03 4.11012E+04 3.35240E-09 1.19639E-08
 -1       895-1.19936E+03-1.61554E+05-1.10661E+04 2.73209E+04-1.13289E-09 3.25599E-10
 -1       956-3.77213E+05-5.45011E+03-1.34543E+04 3.08390E+04 3.80169E-09-1.11306E-08
 -1       957-3.79853E+05-1.92248E+03-6.90588E+03 3.70601E+04-1.04210E-08-6.88487E-10
 -1       958-3.78422E+05-2.40776E+02-3.11201E+03 3.06714E+04-1.28330E-08-1.60385E-08
 -1       959-3.78619E+05-1.36075E+02-1.58904E+03 3.72557E+04 8.03539E-10 8.70568E-09
 -1       960-3.78540E+05-4.46538E+01-7.74893E+02 3.06541E+04 3.43607E-09-1.10708E-08
 -1       961-3.78538E+05-6.30423E+01-4.10838E+02 3.72761E+04 8.89713E-09-4.36762E-09
 -1       962-3.78568E+05-4.58835E+01-2.35213E+02 3.06512E+04 4.64433E-09 2.28522E-08
 -1       963-3.78539E+05-5.88500E+01-1.88814E+02 3.72797E+04 3.29055E-09 7.14090E-09
 -1       964-3.78573E+05-4.25246E+01-2.29609E+02 3.06504E+04-2.60054E-09-2.41221E-09
 -1       965-3.78551E+05-5.58807E+01-3.97126E+02 3.72790E+04-7.45717E-09-1.02893E-08
 -1       966-3.78557E+05-3.46716E+01-7.46187E+02 3.06519E+04-1.26042E-08-2.04932E-09
 -1       967-3.78641E+05-1.19409E+02-1.53041E+03 3.72647E+04-3.44862E-08 2.07390E-08
 -1       968-3.78453E+05-2.17148E+02-2.99600E+03 3.06646E+04-2.22249E-08 2.27942E-09
 -1       969-3.79841E+05-1.83429E+03-6.65104E+03 3.71164E+04 7.76254E-10-2.27303E-08
 -1       970-3.77297E+05-5.23027E+03-1.29566E+04 3.07916E+04-4.36376E-09 3.07864E-09
 -1       971-3.45432E+05-1.72838E+03-9.31485E+03 1.53891E+04 5.38421E-09 5.07652E-09
 -1       972-3.47675E+05-1.27242E+03-5.07277E+03 2.12833E+04 2.11867E-09 5.07043E-09
 -1       973-3.46470E+05-6.20495E+01-2.27214E+03 1.52679E+04 1.02682E-08 1.80798E-08
 -1       974-3.46606E+05-8.10871E+01-1.17780E+03 2.14204E+04 6.83144E-09 1.11586E-08
 -1       975-3.46552E+05-1.71419E+01-5.89198E+02 1.52555E+04-1.42927E-09-3.79305E-09
 -1       976-3.46544E+05-3.12091E+01-3.40754E+02 2.14362E+04 2.01180E-09-1.64258E-08
 -1       977-3.46569E+05-1.63905E+01-2.48799E+02 1.52521E+04 3.21620E-09-8.43431E-09
 -1       978-3.46549E+05-2.49769E+01-2.93172E+02 2.14411E+04-7.48958E-09 6.26994E-09
 -1       979-3.46569E+05-7.90820E+00-4.72776E+02 1.52507E+04-3.87985E-09 3.42220E-09
 -1       980-3.46585E+05-2.19135E+01-9.13964E+02 2.14421E+04-5.45076E-09-3.39946E-09
 -1       981-3.46539E+05 1.49359E+01-1.77071E+03 1.52512E+04-4.16117E-09-3.51190E-09
 -1       982-3.46828E+05-1.52752E+02-3.66034E+03 2.14355E+04-6.26733E-09 3.98808E-09
 -1       983-3.46316E+05-9.84518E+01-7.11223E+03 1.52573E+04-6.98128E-09 1.15133E-08
 -1       984-3.50249E+05-3.86726E+03-1.59276E+04 2.13498E+04-8.30460E-09 3.91583E-09
 -1       985-3.43096E+05-5.30274E+03-2.92480E+04 1.53287E+04-3.65526E-09 9.34779E-09
 -3
    1PSTEP                        33          17           1          
  100CL  117 6.63178E-01         409                     0   17           1
 -4  DISP        4    1
 -5  D1          1    2    1    0
 -5  D2          1    2    2    0
 -5  D3          1    2    3    0
 -5  ALL         1    2    0    0    1ALL
 -1         1 2.75369E-03 0.00000E+00 0.00000E+00
 -1         2 1.29815E-03-3.37647E-27 0.00000E+00
 -1         3 3.43484E-04-4.77883E-28 0.00000E+00
 -1         5 1.77291E-04-3.51842E-27-3.30872E-24
 -1         8 2.74340E-03-3.91669E-07 0.00000E+00
 -1         9 2.73640E-03-2.16641E-04 0.00000E+00
 -1        10 3.11460E-04-3.37567E-06-1.32349E-23
 -1        12 1.79193E-04 8.17927E-07 1.65436E-24
 -1        15 2.73175E-03-4.13348E-07 1.03398E-25
 -1        16 2.81282E-03-2.18615E-04 0.00000E+00
 -1        17 2.11942E-04-7.70810E-06 0.00000E+00
 -1        18 1.83224E-04 3.46583E-05 0.00000E+00
 -1        19 1.84818E-04 1.62134E-06 0.00000E+00
 -1        20 1.84957E-04-1.00907E-05 0.00000E+00
 -1        21 1.84063E-04-2.58497E-05 0.00000E+00
 -1        24 3.06146E-05-1.19361E-05 0.00000E+00
 -1        25 1.94094E-04 3.48843E-05 0.00000E+00
 -1        26 1.94774E-04 2.24188E-06 0.00000E+00
 -1        27 1.92572E-04-1.36514E-05 0.00000E+00
 -1        28 1.92256E-04-2.64721E-05 0.00000E+00
 -1        32 0.00000E+00 0.00000E+00 0.00000E+00
 -1        33 2.03726E-04 2.99618E-06 0.00000E+00
 -1        34 2.01606E-04-1.37078E-05 0.00000E+00
 -1        35 1.99673E-04-2.68148E-05 0.00000E+00
 -1        51 2.75299E-03-8.30914E-08 3.30872E-24
 -1        52 2.75172E-03-1.47542E-07 3.30872E-24
 -1        53 2.75001E-03-2.08415E-07 3.30872E-24
 -1        54 2.74796E-03-2.67947E-07 0.00000E+00
 -1        55 2.74572E-03-3.27909E-07-1.65436E-24
 -1        56 2.74490E-03 1.11282E-05 0.00000E+00
 -1        57 2.72668E-03 4.53490E-05 0.00000E+00
 -1        58 2.70178E-03 9.54904E-05 0.00000E+00
 -1        59 2.67369E-03 1.52889E-04 0.00000E+00
 -1        60 2.64675E-03 2.07642E-04-1.05879E-22
 -1        61 2.62511E-03 2.50055E-04 0.00000E+00
 -1        62 2.61160E-03 2.72630E-04-1.05879E-22
 -1        63 2.60799E-03 2.69626E-04 5.29396E-23
 -1        64 2.61394E-03 2.40026E-04-1.05879E-22
 -1        65 2.62822E-03 1.85357E-04 5.29396E-23
 -1        66 2.64834E-03 1.11963E-04-1.05879E-22
 -1        67 2.67158E-03 2.80558E-05 5.29396E-23
 -1        68 2.69488E-03-5.60924E-05 1.05879E-22
 -1        69 2.71524E-03-1.30177E-04-5.29396E-23
 -1        70 2.72987E-03-1.85868E-04 0.00000E+00
 -1        86 1.38867E-03-6.75238E-06 0.00000E+00
 -1        87 1.64984E-03-4.28529E-05 2.64698E-23
 -1        88 2.00106E-03-1.05080E-04-5.29396E-23
 -1        89 2.35734E-03-1.69148E-04-1.32349E-23
 -1        90 2.63075E-03-2.08383E-04 0.00000E+00
 -1       121 3.42585E-04-5.44800E-07 0.00000E+00
 -1       122 3.39891E-04-1.09270E-06 6.61744E-24
 -1       123 3.35412E-04-1.64676E-06 0.00000E+00
 -1       124 3.29164E-04-2.21002E-06 0.00000E+00
 -1       125 3.21170E-04-2.78516E-06 0.00000E+00
 -1       191 1.77344E-04 1.36399E-07 0.00000E+00
 -1       192 1.77503E-04 2.72786E-07-8.27181E-25
 -1       193 1.77767E-04 4.09150E-07-2.89513E-24
 -1       194 1.78138E-04 5.45476E-07 8.27181E-25
 -1       195 1.78613E-04 6.81746E-07 0.00000E+00
 -1       251 2.74311E-03 1.50757E-06 0.00000E+00
 -1       252 2.74280E-03 3.22218E-06-3.30872E-24
 -1       253 2.74250E-03 3.69237E-06-6.61744E-24
 -1       254 2.74220E-03 1.87370E-06 0.00000E+00
 -1       255 2.74189E-03-2.93487E-06 0.00000E+00
 -1       256 2.74155E-03-1.13974E-05 0.00000E+00
 -1       257 2.74117E-03-2.36305E-05 0.00000E+00
 -1       258 2.74075E-03-3.97037E-05-3.30872E-24
 -1       259 2.74027E-03-5.91121E-05 6.61744E-24
 -1       260 2.73973E-03-8.13088E-05 6.61744E-24
 -1       261 2.73915E-03-1.05329E-04 0.00000E+00
 -1       262 2.73855E-03-1.30187E-04 0.00000E+00
 -1       263 2.73796E-03-1.54770E-04-1.32349E-23
 -1       264 2.73740E-03-1.77969E-04 6.61744E-24
 -1       265 2.73688E-03-1.98884E-04-1.32349E-23
 -1       266 2.74146E-03-4.00701E-07 0.00000E+00
 -1       267 2.73952E-03-4.03653E-07 0.00000E+00
 -1       268 2.73758E-03-4.06991E-07 0.00000E+00
 -1       269 2.73564E-03-4.09188E-07-2.06795E-25
 -1       270 2.73370E-03-4.11359E-07-2.06795E-25
 -1       271 2.74269E-03-1.85573E-07-1.32349E-23
 -1       272 2.74305E-03-2.90555E-06 6.61744E-24
 -1       273 2.74443E-03-8.37039E-06-1.32349E-23
 -1       274 2.74674E-03-1.63848E-05 6.61744E-24
 -1       275 2.74991E-03-2.67314E-05 0.00000E+00
 -1       276 2.75383E-03-3.91768E-05 0.00000E+00
 -1       277 2.75843E-03-5.34703E-05 1.32349E-23
 -1       278 2.76359E-03-6.93474E-05 0.00000E+00
 -1       279 2.76922E-03-8.65315E-05 1.32349E-23
 -1       280 2.77521E-03-1.04736E-04 6.61744E-24
 -1       281 2.78146E-03-1.23665E-04 1.32349E-23
 -1       282 2.78786E-03-1.43020E-04-6.61744E-24
 -1       283 2.79430E-03-1.62496E-04 0.00000E+00
 -1       284 2.80068E-03-1.81789E-04 6.61744E-24
 -1       285 2.80689E-03-2.00595E-04-1.32349E-23
 -1       301 2.75028E-03-2.17008E-04-1.32349E-23
 -1       302 2.76242E-03-2.17325E-04 0.00000E+00
 -1       303 2.77379E-03-2.17629E-04 0.00000E+00
 -1       304 2.78535E-03-2.17934E-04 0.00000E+00
 -1       305 2.79804E-03-2.18255E-04 0.00000E+00
 -1       306 2.77485E-03-3.73879E-04 0.00000E+00
 -1       307 2.83865E-03-7.91189E-04 5.29396E-23
 -1       308 2.88479E-03-1.39935E-03-1.05879E-22
 -1       309 2.90820E-03-2.10147E-03 5.29396E-23
 -1       310 2.93953E-03-2.77123E-03 0.00000E+00
 -1       311 2.99925E-03-3.28516E-03 5.29396E-23
 -1       312 3.05657E-03-3.56274E-03 0.00000E+00
 -1       313 3.04968E-03-3.56702E-03 0.00000E+00
 -1       314 2.90420E-03-3.31095E-03 0.00000E+00
 -1       315 2.57956E-03-2.86014E-03 0.00000E+00
 -1       316 2.09515E-03-2.29164E-03-1.05879E-22
 -1       317 1.51811E-03-1.67462E-03 5.29396E-23
 -1       318 9.63810E-04-1.06923E-03 1.05879E-22
 -1       319 5.40897E-04-5.40239E-04-5.29396E-23
 -1       320 2.93070E-04-1.62164E-04 1.05879E-22
 -1       336 2.99846E-04-4.02879E-06 0.00000E+00
 -1       337 2.86151E-04-4.70772E-06 0.00000E+00
 -1       338 2.70435E-04-5.41471E-06 0.00000E+00
 -1       339 2.52773E-04-6.15064E-06 0.00000E+00
 -1       340 2.33245E-04-6.91997E-06-1.32349E-23
 -1       406 1.79876E-04 9.52755E-07 2.48154E-24
 -1       407 1.80659E-04 1.08744E-06 9.17653E-25
 -1       408 1.81545E-04 1.22195E-06-2.89513E-24
 -1       409 1.82534E-04 1.35611E-06-5.16988E-25
 -1       410 1.83625E-04 1.48966E-06 1.65436E-24
 -1       521 2.85183E-03-3.85205E-04 0.00000E+00
 -1       522 2.91375E-03-8.23382E-04-5.29396E-23
 -1       523 2.95313E-03-1.46039E-03-1.05879E-22
 -1       524 2.96686E-03-2.19238E-03 0.00000E+00
 -1       525 2.98994E-03-2.88994E-03-1.05879E-22
 -1       526 3.04602E-03-3.42678E-03 0.00000E+00
 -1       527 3.10296E-03-3.71522E-03 0.00000E+00
 -1       528 3.09360E-03-3.71742E-03-5.29396E-23
 -1       529 2.93534E-03-3.44644E-03 2.11758E-22
 -1       530 2.58531E-03-2.97624E-03 5.29396E-23
 -1       531 2.06380E-03-2.38783E-03 0.00000E+00
 -1       532 1.44471E-03-1.75299E-03 5.29396E-23
 -1       533 8.49182E-04-1.12907E-03 1.05879E-22
 -1       534 3.91391E-04-5.78448E-04-5.29396E-23
 -1       535 1.21503E-04-1.80155E-04 0.00000E+00
 -1       536 2.11184E-04 2.73182E-05 6.61744E-24
 -1       537 2.09255E-04 8.79375E-05-1.65436E-24
 -1       538 2.06275E-04 1.64857E-04 0.00000E+00
 -1       539 2.02758E-04 2.48698E-04 0.00000E+00
 -1       540 1.99594E-04 3.27924E-04 0.00000E+00
 -1       541 1.97537E-04 3.91019E-04 1.65436E-24
 -1       542 1.96588E-04 4.31210E-04-3.30872E-24
 -1       543 1.96363E-04 4.41875E-04 0.00000E+00
 -1       544 1.96039E-04 4.23788E-04 3.30872E-24
 -1       545 1.94861E-04 3.77945E-04 0.00000E+00
 -1       546 1.92665E-04 3.12495E-04-3.30872E-24
 -1       547 1.89690E-04 2.35708E-04-1.65436E-24
 -1       548 1.86743E-04 1.59294E-04 0.00000E+00
 -1       549 1.84616E-04 9.49659E-05 0.00000E+00
 -1       550 1.83512E-04 5.07782E-05 0.00000E+00
 -1       551 1.86675E-04-8.27731E-06 0.00000E+00
 -1       552 1.58159E-04-8.92735E-06 0.00000E+00
 -1       553 1.27335E-04-9.63992E-06 9.92617E-24
 -1       554 9.51642E-05-1.03939E-05-3.30872E-24
 -1       555 6.26057E-05-1.11617E-05-1.32349E-23
 -1       556 2.04271E-04 1.19055E-05 0.00000E+00
 -1       557 1.98073E-04 2.78147E-05 0.00000E+00
 -1       558 1.93212E-04 4.03080E-05 0.00000E+00
 -1       559 1.89557E-04 4.96964E-05 0.00000E+00
 -1       560 1.86976E-04 5.62912E-05 0.00000E+00
 -1       561 1.85341E-04 6.04065E-05 0.00000E+00
 -1       562 1.84528E-04 6.23573E-05 0.00000E+00
 -1       563 1.84411E-04 6.24599E-05 0.00000E+00
 -1       564 1.84868E-04 6.10312E-05 0.00000E+00
 -1       565 1.85779E-04 5.83889E-05 0.00000E+00
 -1       566 1.87024E-04 5.48513E-05 0.00000E+00
 -1       567 1.88482E-04 5.07370E-05 6.61744E-24
 -1       568 1.90037E-04 4.63647E-05 0.00000E+00
 -1       569 1.91569E-04 4.20534E-05 0.00000E+00
 -1       570 1.92960E-04 3.81218E-05 0.00000E+00
 -1       571 1.83321E-04 3.25153E-05-8.27181E-25
 -1       572 1.83420E-04 3.03065E-05 0.00000E+00
 -1       573 1.83519E-04 2.80476E-05 1.65436E-24
 -1       574 1.83618E-04 2.57550E-05 0.00000E+00
 -1       575 1.83718E-04 2.34452E-05-3.30872E-24
 -1       576 1.83817E-04 2.11346E-05 0.00000E+00
 -1       577 1.83917E-04 1.88398E-05 3.30872E-24
 -1       578 1.84016E-04 1.65773E-05-6.61744E-24
 -1       579 1.84116E-04 1.43637E-05 0.00000E+00
 -1       580 1.84216E-04 1.22155E-05 0.00000E+00
 -1       581 1.84316E-04 1.01493E-05 0.00000E+00
 -1       582 1.84416E-04 8.18145E-06 3.30872E-24
 -1       583 1.84516E-04 6.32863E-06 6.61744E-24
 -1       584 1.84617E-04 4.60711E-06-3.30872E-24
 -1       585 1.84718E-04 3.03308E-06 0.00000E+00
 -1       586 1.84995E-04 3.46981E-05 1.65436E-24
 -1       587 1.86725E-04 3.47373E-05 0.00000E+00
 -1       588 1.88456E-04 3.47762E-05-8.27181E-25
 -1       589 1.90232E-04 3.48144E-05 0.00000E+00
 -1       590 1.92098E-04 3.48513E-05 0.00000E+00
 -1       591 1.83959E-04 3.26091E-05-1.03398E-25
 -1       592 1.84697E-04 3.05400E-05 0.00000E+00
 -1       593 1.85440E-04 2.84570E-05-8.27181E-25
 -1       594 1.86186E-04 2.63646E-05 0.00000E+00
 -1       595 1.86933E-04 2.42676E-05 0.00000E+00
 -1       596 1.87681E-04 2.21708E-05 4.13590E-25
 -1       597 1.88426E-04 2.00788E-05 8.27181E-25
 -1       598 1.89168E-04 1.79963E-05 4.13590E-25
 -1       599 1.89905E-04 1.59280E-05 0.00000E+00
 -1       600 1.90634E-04 1.38786E-05 0.00000E+00
 -1       601 1.91355E-04 1.18527E-05 8.27181E-25
 -1       602 1.92066E-04 9.85502E-06 0.00000E+00
 -1       603 1.92764E-04 7.89028E-06 0.00000E+00
 -1       604 1.93449E-04 5.96323E-06 1.55096E-25
 -1       605 1.94118E-04 4.07849E-06-4.13590E-25
 -1       606 1.84831E-04 4.43090E-07 0.00000E+00
 -1       607 1.84841E-04-6.49406E-07 0.00000E+00
 -1       608 1.84850E-04-1.66118E-06 0.00000E+00
 -1       609 1.84858E-04-2.59790E-06 0.00000E+00
 -1       610 1.84866E-04-3.46532E-06 3.30872E-24
 -1       611 1.84875E-04-4.26920E-06 0.00000E+00
 -1       612 1.84883E-04-5.01535E-06 0.00000E+00
 -1       613 1.84891E-04-5.70958E-06 0.00000E+00
 -1       614 1.84900E-04-6.35769E-06 0.00000E+00
 -1       615 1.84908E-04-6.96548E-06 0.00000E+00
 -1       616 1.84916E-04-7.53877E-06 0.00000E+00
 -1       617 1.84925E-04-8.08335E-06 0.00000E+00
 -1       618 1.84933E-04-8.60503E-06 0.00000E+00
 -1       619 1.84942E-04-9.10961E-06 0.00000E+00
 -1       620 1.84950E-04-9.60291E-06-2.06795E-25
 -1       621 1.86191E-04 1.72534E-06 0.00000E+00
 -1       622 1.87723E-04 1.82958E-06-1.65436E-24
 -1       623 1.89381E-04 1.93360E-06 0.00000E+00
 -1       624 1.91131E-04 2.03729E-06-8.27181E-25
 -1       625 1.92940E-04 2.14069E-06-3.30872E-24
 -1       626 1.85372E-04 4.79222E-07 0.00000E+00
 -1       627 1.85903E-04-5.99945E-07 0.00000E+00
 -1       628 1.86414E-04-1.62401E-06 0.00000E+00
 -1       629 1.86908E-04-2.60112E-06 0.00000E+00
 -1       630 1.87386E-04-3.53949E-06 3.30872E-24
 -1       631 1.87854E-04-4.44731E-06 1.65436E-24
 -1       632 1.88313E-04-5.33278E-06-3.30872E-24
 -1       633 1.88767E-04-6.20413E-06 1.65436E-24
 -1       634 1.89219E-04-7.06955E-06 0.00000E+00
 -1       635 1.89671E-04-7.93725E-06 0.00000E+00
 -1       636 1.90128E-04-8.81544E-06 0.00000E+00
 -1       637 1.90591E-04-9.71233E-06-1.65436E-24
 -1       638 1.91065E-04-1.06361E-05-3.30872E-24
 -1       639 1.91551E-04-1.15951E-05-1.65436E-24
 -1       640 1.92053E-04-1.25974E-05-3.30872E-24
 -1       656 1.85678E-04-1.06694E-05 0.00000E+00
 -1       657 1.86818E-04-1.12717E-05 6.61744E-24
 -1       658 1.88239E-04-1.18725E-05-1.32349E-23
 -1       659 1.89794E-04-1.24731E-05 0.00000E+00
 -1       660 1.91300E-04-1.30754E-05 6.61744E-24
 -1       661 1.85227E-04-1.06237E-05-8.27181E-25
 -1       662 1.85534E-04-1.12486E-05 8.27181E-25
 -1       663 1.85874E-04-1.19602E-05 0.00000E+00
 -1       664 1.86244E-04-1.27520E-05 0.00000E+00
 -1       665 1.86642E-04-1.36182E-05-1.65436E-24
 -1       666 1.87066E-04-1.45528E-05 0.00000E+00
 -1       667 1.87513E-04-1.55502E-05 1.65436E-24
 -1       668 1.87982E-04-1.66048E-05 0.00000E+00
 -1       669 1.88470E-04-1.77111E-05-1.65436E-24
 -1       670 1.88975E-04-1.88638E-05-8.27181E-25
 -1       671 1.89496E-04-2.00578E-05 1.65436E-24
 -1       672 1.90030E-04-2.12879E-05 0.00000E+00
 -1       673 1.90575E-04-2.25491E-05 0.00000E+00
 -1       674 1.91130E-04-2.38367E-05-4.13590E-25
 -1       675 1.91692E-04-2.51453E-05 2.06795E-25
 -1       676 1.85433E-04-2.59540E-05-3.30872E-24
 -1       677 1.86803E-04-2.60583E-05 1.65436E-24
 -1       678 1.88171E-04-2.61625E-05 3.30872E-24
 -1       679 1.89536E-04-2.62665E-05 1.65436E-24
 -1       680 1.90898E-04-2.63704E-05 3.30872E-24
 -1       771 1.86269E-05 1.48785E-05-5.29396E-23
 -1       772 8.54281E-06 3.69007E-05 5.29396E-23
 -1       773 2.71257E-07 5.43614E-05 0.00000E+00
 -1       774-6.31258E-06 6.75195E-05 0.00000E+00
 -1       775-1.13308E-05 7.66442E-05 0.00000E+00
 -1       776-1.49105E-05 8.20215E-05-2.64698E-23
 -1       777-1.71785E-05 8.39476E-05 0.00000E+00
 -1       778-1.82641E-05 8.27326E-05 0.00000E+00
 -1       779-1.82962E-05 7.86953E-05-5.29396E-23
 -1       780-1.74054E-05 7.21656E-05 2.64698E-23
 -1       781-1.57217E-05 6.34806E-05 0.00000E+00
 -1       782-1.33765E-05 5.29861E-05-2.64698E-23
 -1       783-1.05002E-05 4.10326E-05 5.29396E-23
 -1       784-7.22453E-06 2.79768E-05 0.00000E+00
 -1       785-3.68030E-06 1.41786E-05 0.00000E+00
 -1       786 1.94132E-04 3.26166E-05-1.29247E-26
 -1       787 1.94174E-04 3.03989E-05 0.00000E+00
 -1       788 1.94215E-04 2.82230E-05 0.00000E+00
 -1       789 1.94258E-04 2.60806E-05-8.27181E-25
 -1       790 1.94300E-04 2.39670E-05 1.65436E-24
 -1       791 1.94343E-04 2.18776E-05-8.27181E-25
 -1       792 1.94386E-04 1.98099E-05 0.00000E+00
 -1       793 1.94429E-04 1.77620E-05 8.27181E-25
 -1       794 1.94471E-04 1.57336E-05 0.00000E+00
 -1       795 1.94514E-04 1.37245E-05 0.00000E+00
 -1       796 1.94557E-04 1.17367E-05 0.00000E+00
 -1       797 1.94600E-04 9.77185E-06 8.27181E-25
 -1       798 1.94643E-04 7.83437E-06 0.00000E+00
 -1       799 1.94687E-04 5.92853E-06 8.27181E-25
 -1       800 1.94730E-04 4.06183E-06 1.65436E-24
 -1       801 1.48108E-04 3.13651E-05 0.00000E+00
 -1       802 9.08087E-06 1.95627E-05-2.64698E-23
 -1       803-1.09617E-04 9.88179E-06 0.00000E+00
 -1       804-9.70671E-05 6.88067E-06 0.00000E+00
 -1       805-3.20571E-05 2.69912E-06 5.29396E-23
 -1       806 1.94829E-04 3.25477E-05 0.00000E+00
 -1       807 1.95550E-04 3.02374E-05 1.65436E-24
 -1       808 1.96258E-04 2.79584E-05 0.00000E+00
 -1       809 1.96953E-04 2.57148E-05 0.00000E+00
 -1       810 1.97633E-04 2.35107E-05 0.00000E+00
 -1       811 1.98297E-04 2.13501E-05-1.65436E-24
 -1       812 1.98943E-04 1.92369E-05 3.30872E-24
 -1       813 1.99570E-04 1.71750E-05 0.00000E+00
 -1       814 2.00177E-04 1.51683E-05-3.30872E-24
 -1       815 2.00761E-04 1.32208E-05-8.27181E-25
 -1       816 2.01322E-04 1.13363E-05-1.65436E-24
 -1       817 2.01858E-04 9.51886E-06 0.00000E+00
 -1       818 2.02367E-04 7.77224E-06-3.30872E-24
 -1       819 2.02849E-04 6.10037E-06 0.00000E+00
 -1       820 2.03302E-04 4.50709E-06-3.30872E-24
 -1       821 1.94644E-04-1.39299E-07-1.65436E-24
 -1       822 1.94504E-04-3.68425E-06 0.00000E+00
 -1       823 1.94361E-04-7.96196E-06 0.00000E+00
 -1       824 1.94216E-04-1.25368E-05 0.00000E+00
 -1       825 1.94072E-04-1.68930E-05 0.00000E+00
 -1       826 1.93930E-04-2.05156E-05 0.00000E+00
 -1       827 1.93791E-04-2.30899E-05 0.00000E+00
 -1       828 1.93654E-04-2.43075E-05-1.65436E-24
 -1       829 1.93519E-04-2.42294E-05 0.00000E+00
 -1       830 1.93382E-04-2.29245E-05 0.00000E+00
 -1       831 1.93244E-04-2.07958E-05 0.00000E+00
 -1       832 1.93106E-04-1.82514E-05-1.65436E-24
 -1       833 1.92968E-04-1.58127E-05 0.00000E+00
 -1       834 1.92833E-04-1.40004E-05 0.00000E+00
 -1       835 1.92698E-04-1.31651E-05-8.27181E-25
 -1       836 1.96479E-04 2.36696E-06 0.00000E+00
 -1       837 1.98056E-04 2.49520E-06 1.65436E-24
 -1       838 1.99538E-04 2.62337E-06 0.00000E+00
 -1       839 2.00956E-04 2.75084E-06 8.27181E-25
 -1       840 2.02341E-04 2.87815E-06 0.00000E+00
 -1       856 1.92555E-04-1.47278E-05-8.27181E-25
 -1       857 1.92536E-04-1.56685E-05 2.58494E-26
 -1       858 1.92517E-04-1.64945E-05-2.06795E-25
 -1       859 1.92497E-04-1.72269E-05 2.06795E-25
 -1       860 1.92478E-04-1.78871E-05-4.13590E-25
 -1       861 1.92458E-04-1.84963E-05 0.00000E+00
 -1       862 1.92438E-04-1.90758E-05 0.00000E+00
 -1       863 1.92418E-04-1.96470E-05 1.24077E-24
 -1       864 1.92399E-04-2.02311E-05 0.00000E+00
 -1       865 1.92379E-04-2.08497E-05 0.00000E+00
 -1       866 1.92359E-04-2.15238E-05-8.27181E-25
 -1       867 1.92339E-04-2.22750E-05 0.00000E+00
 -1       868 1.92319E-04-2.31243E-05 0.00000E+00
 -1       869 1.92299E-04-2.40929E-05 4.13590E-25
 -1       870 1.92278E-04-2.52018E-05-8.27181E-25
 -1       871 1.93936E-04-1.36564E-05 0.00000E+00
 -1       872 1.95448E-04-1.36647E-05 0.00000E+00
 -1       873 1.97039E-04-1.36738E-05 0.00000E+00
 -1       874 1.98641E-04-1.36836E-05-2.06795E-25
 -1       875 2.00186E-04-1.36940E-05 0.00000E+00
 -1       876 1.93102E-04-1.47133E-05-3.30872E-24
 -1       877 1.93611E-04-1.57083E-05-1.65436E-24
 -1       878 1.94098E-04-1.66445E-05 0.00000E+00
 -1       879 1.94566E-04-1.75292E-05-1.65436E-24
 -1       880 1.95018E-04-1.83698E-05-3.30872E-24
 -1       881 1.95455E-04-1.91738E-05-1.65436E-24
 -1       882 1.95882E-04-1.99484E-05-3.30872E-24
 -1       883 1.96301E-04-2.07011E-05 0.00000E+00
 -1       884 1.96714E-04-2.14391E-05-3.30872E-24
 -1       885 1.97125E-04-2.21698E-05 1.65436E-24
 -1       886 1.97535E-04-2.29005E-05 0.00000E+00
 -1       887 1.97948E-04-2.36386E-05 0.00000E+00
 -1       888 1.98367E-04-2.43915E-05 0.00000E+00
 -1       889 1.98793E-04-2.51666E-05 0.00000E+00
 -1       890 1.99229E-04-2.59713E-05 0.00000E+00
 -1       891 1.93635E-04-2.65297E-05-1.65436E-24
 -1       892 1.94990E-04-2.65874E-05 0.00000E+00
 -1       893 1.96296E-04-2.66450E-05 1.65436E-24
 -1       894 1.97529E-04-2.67024E-05 8.27181E-25
 -1       895 1.98663E-04-2.67595E-05 8.27181E-25
 -1       956 2.03596E-04 1.66010E-06 0.00000E+00
 -1       957 2.03463E-04 4.15671E-07 0.00000E+00
 -1       958 2.03330E-04-7.47863E-07 0.00000E+00
 -1       959 2.03198E-04-1.84185E-06 0.00000E+00
 -1       960 2.03065E-04-2.87770E-06-3.30872E-24
 -1       961 2.02932E-04-3.86683E-06 0.00000E+00
 -1       962 2.02799E-04-4.82068E-06 3.30872E-24
 -1       963 2.02666E-04-5.75073E-06-1.65436E-24
 -1       964 2.02533E-04-6.66842E-06 0.00000E+00
 -1       965 2.02400E-04-7.58521E-06 0.00000E+00
 -1       966 2.02267E-04-8.51257E-06 0.00000E+00
 -1       967 2.02135E-04-9.46196E-06 0.00000E+00
 -1       968 2.02002E-04-1.04448E-05-6.61744E-24
 -1       969 2.01869E-04-1.14726E-05 3.30872E-24
 -1       970 2.01737E-04-1.25566E-05 0.00000E+00
 -1       971 2.01486E-04-1.48587E-05 0.00000E+00
 -1       972 2.01365E-04-1.59150E-05-1.65436E-24
 -1       973 2.01244E-04-1.68871E-05 3.30872E-24
 -1       974 2.01122E-04-1.77859E-05 0.00000E+00
 -1       975 2.01001E-04-1.86223E-05 0.00000E+00
 -1       976 2.00879E-04-1.94071E-05 0.00000E+00
 -1       977 2.00758E-04-2.01511E-05-3.30872E-24
 -1       978 2.00636E-04-2.08654E-05-1.65436E-24
 -1       979 2.00515E-04-2.15607E-05 0.00000E+00
 -1       980 2.00393E-04-2.22481E-05 0.00000E+00
 -1       981 2.00272E-04-2.29384E-05 0.00000E+00
 -1       982 2.00151E-04-2.36425E-05 1.65436E-24
 -1       983 2.00030E-04-2.43713E-05 3.30872E-24
 -1       984 1.99909E-04-2.51357E-05 0.00000E+00
 -1       985 1.99789E-04-2.59467E-05 0.00000E+00
 -3
    1PSTEP                        34          17           1          
  100CL  117 6.63178E-01         409                     0   17           1
 -4  FORC        4    1
 -5  F1          1    2    1    0
 -5  F2          1    2    2    0
 -5  F3          1    2    3    0
 -5  ALL         1    2    0    0    1ALL
 -1         1 1.10140E-02 0.00000E+00 0.00000E+00
 -1         2 0.00000E+00 0.00000E+00 0.00000E+00
 -1         3 0.00000E+00 0.00000E+00 0.00000E+00
 -1         5 0.00000E+00 0.00000E+00 0.00000E+00
 -1         8 5.36473E-04-4.08308E-04 0.00000E+00
 -1         9-3.39008E-02 8.03330E-03 0.00000E+00
 -1        10-1.08792E-07 6.46743E-07 0.00000E+00
 -1        12 1.35554E-09 1.81217E-07 0.00000E+00
 -1        15 0.00000E+00 0.00000E+00 0.00000E+00
 -1        16-5.77173E-03-5.48972E-02 0.00000E+00
 -1        17-7.53361E-04 4.20598E-04 0.00000E+00
 -1        18 7.09080E-06 5.85677E-06 0.00000E+00
 -1        19 2.02406E-06-4.63265E-07 0.00000E+00
 -1        20-3.33733E-06 3.70678E-07 0.00000E+00
 -1        21 0.00000E+00 1.32720E-06 0.00000E+00
 -1        24-2.10070E-03 6.70962E-04 0.00000E+00
 -1        25 3.89688E-06-3.63103E-06 0.00000E+00
 -1        26-2.15793E-06-1.53933E-06 0.00000E+00
 -1        27-1.11002E-06 2.11663E-06 0.00000E+00
 -1        28-1.03462E-06 6.31409E-07 0.00000E+00
 -1        32 0.00000E+00 0.00000E+00 0.00000E+00
 -1        33-1.44078E-07-2.71512E-06 0.00000E+00
 -1        34-7.90177E-07-2.79903E-06 0.00000E+00
 -1        35-4.69436E-06-3.01793E-06 0.00000E+00
 -1        51 0.00000E+00 0.00000E+00 0.00000E+00
 -1        52 0.00000E+00 0.00000E+00 0.00000E+00
 -1        53 0.00000E+00 0.00000E+00 0.00000E+00
 -1        54 0.00000E+00 0.00000E+00 0.00000E+00
 -1        55 0.00000E+00 0.00000E+00 0.00000E+00
 -1        56 0.00000E+00 0.00000E+00 0.00000E+00
 -1        57 0.00000E+00 0.00000E+00 0.00000E+00
 -1        58 0.00000E+00 0.00000E+00 0.00000E+00
 -1        59 0.00000E+00 0.00000E+00 0.00000E+00
 -1        60 0.00000E+00 0.00000E+00 0.00000E+00
 -1        61 0.00000E+00 0.00000E+00 0.00000E+00
 -1        62 0.00000E+00 0.00000E+00 0.00000E+00
 -1        63 0.00000E+00 0.00000E+00 0.00000E+00
 -1        64 0.00000E+00 0.00000E+00 0.00000E+00
 -1        65 0.00000E+00 0.00000E+00 0.00000E+00
 -1        66 0.00000E+00 0.00000E+00 0.00000E+00
 -1        67 0.00000E+00 0.00000E+00 0.00000E+00
 -1        68 0.00000E+00 0.00000E+00 0.00000E+00
 -1        69 0.00000E+00 0.00000E+00 0.00000E+00
 -1        70 0.00000E+00 0.00000E+00 0.00000E+00
 -1        86 0.00000E+00 0.00000E+00 0.00000E+00
 -1        87 0.00000E+00 0.00000E+00 0.00000E+00
 -1        88 0.00000E+00 0.00000E+00 0.00000E+00
 -1        89 0.00000E+00 0.00000E+00 0.00000E+00
 -1        90 0.00000E+00 0.00000E+00 0.00000E+00
 -1       121 0.00000E+00 0.00000E+00 0.00000E+00
 -1       122 0.00000E+00 0.00000E+00 0.00000E+00
 -1       123 0.00000E+00 0.00000E+00 0.00000E+00
 -1       124 0.00000E+00 0.00000E+00 0.00000E+00
 -1       125 0.00000E+00 0.00000E+00 0.00000E+00
 -1       191 0.00000E+00 0.00000E+00 0.00000E+00
 -1       192 0.00000E+00 0.00000E+00 0.00000E+00
 -1       193 0.00000E+00 0.00000E+00 0.00000E+00
 -1       194 0.00000E+00 0.00000E+00 0.00000E+00
 -1       195 0.00000E+00 0.00000E+00 0.00000E+00
 -1       251 0.00000E+00 0.00000E+00 0.00000E+00
 -1       252 0.00000E+00 0.00000E+00 0.00000E+00
 -1       253 0.00000E+00 0.00000E+00 0.00000E+00
 -1       254 0.00000E+00 0.00000E+00 0.00000E+00
 -1       255 0.00000E+00 0.00000E+00 0.00000E+00
 -1       256 0.00000E+00 0.00000E+00 0.00000E+00
 -1       257 0.00000E+00 0.00000E+00 0.00000E+00
 -1       258 0.00000E+00 0.00000E+00 0.00000E+00
 -1       259 0.00000E+00 0.00000E+00 0.00000E+00
 -1       260 0.00000E+00 0.00000E+00 0.00000E+00
 -1       261 0.00000E+00 0.00000E+00 0.00000E+00
 -1       262 0.00000E+00 0.00000E+00 0.00000E+00
 -1       263 0.00000E+00 0.00000E+00 0.00000E+00
 -1       264 0.00000E+00 0.00000E+00 0.00000E+00
 -1       265 0.00000E+00 0.00000E+00 0.00000E+00
 -1       266 0.00000E+00 0.00000E+00 0.00000E+00
 -1       267 0.00000E+00 0.00000E+00 0.00000E+00
 -1       268 0.00000E+00 0.00000E+00 0.00000E+00
 -1       269 0.00000E+00 0.00000E+00 0.00000E+00
 -1       270 0.00000E+00 0.00000E+00 0.00000E+00
 -1       271 0.00000E+00 0.00000E+00 0.00000E+00
 -1       272 0.00000E+00 0.00000E+00 0.00000E+00
 -1       273 0.00000E+00 0.00000E+00 0.00000E+00
 -1       274 0.00000E+00 0.00000E+00 0.00000E+00
 -1       275 0.00000E+00 0.00000E+00 0.00000E+00
 -1       276 0.00000E+00 0.00000E+00 0.00000E+00
 -1       277 0.00000E+00 0.00000E+00 0.00000E+00
 -1       278 0.00000E+00 0.00000E+00 0.00000E+00
 -1       279 0.00000E+00 0.00000E+00 0.00000E+00
 -1       280 0.00000E+00 0.00000E+00 0.00000E+00
 -1       281 0.00000E+00 0.00000E+00 0.00000E+00
 -1       282 0.00000E+00 0.00000E+00 0.00000E+00
 -1       283 0.00000E+00 0.00000E+00 0.00000E+00
 -1       284 0.00000E+00 0.00000E+00 0.00000E+00
 -1       285 0.00000E+00 0.00000E+00 0.00000E+00
 -1       301 0.00000E+00 0.00000E+00 0.00000E+00
 -1       302 0.00000E+00 0.00000E+00 0.00000E+00
 -1       303 0.00000E+00 0.00000E+00 0.00000E+00
 -1       304 0.00000E+00 0.00000E+00 0.00000E+00
 -1       305 0.00000E+00 0.00000E+00 0.00000E+00
 -1       306 0.00000E+00 0.00000E+00 0.00000E+00
 -1       307 0.00000E+00 0.00000E+00 0.00000E+00
 -1       308 0.00000E+00 0.00000E+00 0.00000E+00
 -1       309 0.00000E+00 0.00000E+00 0.00000E+00
 -1       310 0.00000E+00 0.00000E+00 0.00000E+00
 -1       311 0.00000E+00 0.00000E+00 0.00000E+00
 -1       312 0.00000E+00 0.00000E+00 0.00000E+00
 -1       313 0.00000E+00 0.00000E+00 0.00000E+00
 -1       314 0.00000E+00 0.00000E+00 0.00000E+00
 -1       315 0.00000E+00 0.00000E+00 0.00000E+00
 -1       316 0.00000E+00 0.00000E+00 0.00000E+00
 -1       317 0.00000E+00 0.00000E+00 0.00000E+00
 -1       318 0.00000E+00 0.00000E+00 0.00000E+00
 -1       319 0.00000E+00 0.00000E+00 0.00000E+00
 -1       320 0.00000E+00 0.00000E+00 0.00000E+00
 -1       336 0.00000E+00 0.00000E+00 0.00000E+00
 -1       337 0.00000E+00 0.00000E+00 0.00000E+00
 -1       338 0.00000E+00 0.00000E+00 0.00000E+00
 -1       339 0.00000E+00 0.00000E+00 0.00000E+00
 -1       340 0.00000E+00 0.00000E+00 0.00000E+00
 -1       406 0.00000E+00 0.00000E+00 0.00000E+00
 -1       407 0.00000E+00 0.00000E+00 0.00000E+00
 -1       408 0.00000E+00 0.00000E+00 0.00000E+00
 -1       409 0.00000E+00 0.00000E+00 0.00000E+00
 -1       410 0.00000E+00 0.00000E+00 0.00000E+00
 -1       521 0.00000E+00 0.00000E+00 0.00000E+00
 -1       522 0.00000E+00 0.00000E+00 0.00000E+00
 -1       523 0.00000E+00 0.00000E+00 0.00000E+00
 -1       524 0.00000E+00 0.00000E+00 0.00000E+00
 -1       525 0.00000E+00 0.00000E+00 0.00000E+00
 -1       526 0.00000E+00 0.00000E+00 0.00000E+00
 -1       527 0.00000E+00 0.00000E+00 0.00000E+00
 -1       528 0.00000E+00 0.00000E+00 0.00000E+00
 -1       529 0.00000E+00 0.00000E+00 0.00000E+00
 -1       530 0.00000E+00 0.00000E+00 0.00000E+00
 -1       531 0.00000E+00 0.00000E+00 0.00000E+00
 -1       532 0.00000E+00 0.00000E+00 0.00000E+00
 -1       533 0.00000E+00 0.00000E+00 0.00000E+00
 -1       534 0.00000E+00 0.00000E+00 0.00000E+00
 -1       535 0.00000E+00 0.00000E+00 0.00000E+00
 -1       536 0.00000E+00 0.00000E+00 0.00000E+00
 -1       537 0.00000E+00 0.00000E+00 0.00000E+00
 -1       538 0.00000E+00 0.00000E+00 0.00000E+00
 -1       539 0.00000E+00 0.00000E+00 0.00000E+00
 -1       540 0.00000E+00 0.00000E+00 0.00000E+00
 -1       541 0.00000E+00 0.00000E+00 0.00000E+00
 -1       542 0.00000E+00 0.00000E+00 0.00000E+00
 -1       543 0.00000E+00 0.00000E+00 0.00000E+00
 -1       544 0.00000E+00 0.00000E+00 0.00000E+00
 -1       545 0.00000E+00 0.00000E+00 0.00000E+00
 -1       546 0.00000E+00 0.00000E+00 0.00000E+00
 -1       547 0.00000E+00 0.00000E+00 0.00000E+00
 -1       548 0.00000E+00 0.00000E+00 0.00000E+00
 -1       549 0.00000E+00 0.00000E+00 0.00000E+00
 -1       550 0.00000E+00 0.00000E+00 0.00000E+00
 -1       551 0.00000E+00 0.00000E+00 0.00000E+00
 -1       552 0.00000E+00 0.00000E+00 0.00000E+00
 -1       553 0.00000E+00 0.00000E+00 0.00000E+00
 -1       554 0.00000E+00 0.00000E+00 0.00000E+00
 -1       555 0.00000E+00 0.00000E+00 0.00000E+00
 -1       556 0.00000E+00 0.00000E+00 0.00000E+00
 -1       557 0.00000E+00 0.00000E+00 0.00000E+00
 -1       558 0.00000E+00 0.00000E+00 0.00000E+00
 -1       559 0.00000E+00 0.00000E+00 0.00000E+00
 -1       560 0.00000E+00 0.00000E+00 0.00000E+00
 -1       561 0.00000E+00 0.00000E+00 0.00000E+00
 -1       562 0.00000E+00 0.00000E+00 0.00000E+00
 -1       563 0.00000E+00 0.00000E+00 0.00000E+00
 -1       564 0.00000E+00 0.00000E+00 0.00000E+00
 -1       565 0.00000E+00 0.00000E+00 0.00000E+00
 -1       566 0.00000E+00 0.00000E+00 0.00000E+00
 -1       567 0.00000E+00 0.00000E+00 0.00000E+00
 -1       568 0.00000E+00 0.00000E+00 0.00000E+00
 -1       569 0.00000E+00 0.00000E+00 0.00000E+00
 -1       570 0.00000E+00 0.00000E+00 0.00000E+00
 -1       571 0.00000E+00 0.00000E+00 0.00000E+00
 -1       572 0.00000E+00 0.00000E+00 0.00000E+00
 -1       573 0.00000E+00 0.00000E+00 0.00000E+00
 -1       574 0.00000E+00 0.00000E+00 0.00000E+00
 -1       575 0.00000E+00 0.00000E+00 0.00000E+00
 -1       576 0.00000E+00 0.00000E+00 0.00000E+00
 -1       577 0.00000E+00 0.00000E+00 0.00000E+00
 -1       578 0.00000E+00 0.00000E+00 0.00000E+00
 -1       579 0.00000E+00 0.00000E+00 0.00000E+00
 -1       580 0.00000E+00 0.00000E+00 0.00000E+00
 -1       581 0.00000E+00 0.00000E+00 0.00000E+00
 -1       582 0.00000E+00 0.00000E+00 0.00000E+00
 -1       583 0.00000E+00 0.00000E+00 0.00000E+00
 -1       584 0.00000E+00 0.00000E+00 0.00000E+00
 -1       585 0.00000E+00 0.00000E+00 0.00000E+00
 -1       586 0.00000E+00 0.00000E+00 0.00000E+00
 -1       587 0.00000E+00 0.00000E+00 0.00000E+00
 -1       588 0.00000E+00 0.00000E+00 0.00000E+00
 -1       589 0.00000E+00 0.00000E+00 0.00000E+00
 -1       590 0.00000E+00 0.00000E+00 0.00000E+00
 -1       591 0.00000E+00 0.00000E+00 0.00000E+00
 -1       592 0.00000E+00 0.00000E+00 0.00000E+00
 -1       593 0.00000E+00 0.00000E+00 0.00000E+00
 -1       594 0.00000E+00 0.00000E+00 0.00000E+00
 -1       595 0.00000E+00 0.00000E+00 0.00000E+00
 -1       596 0.00000E+00 0.00000E+00 0.00000E+00
 -1       597 0.00000E+00 0.00000E+00 0.00000E+00
 -1       598 0.00000E+00 0.00000E+00 0.00000E+00
 -1       599 0.00000E+00 0.00000E+00 0.00000E+00
 -1       600 0.00000E+00 0.00000E+00 0.00000E+00
 -1       601 0.00000E+00 0.00000E+00 0.00000E+00
 -1       602 0.00000E+00 0.00000E+00 0.00000E+00
 -1       603 0.00000E+00 0.00000E+00 0.00000E+00
 -1       604 0.00000E+00 0.00000E+00 0.00000E+00
 -1       605 0.00000E+00 0.00000E+00 0.00000E+00
 -1       606 0.00000E+00 0.00000E+00 0.00000E+00
 -1       607 0.00000E+00 0.00000E+00 0.00000E+00
 -1       608 0.00000E+00 0.00000E+00 0.00000E+00
 -1       609 0.00000E+00 0.00000E+00 0.00000E+00
 -1       610 0.00000E+00 0.00000E+00 0.00000E+00
 -1       611 0.00000E+00 0.00000E+00 0.00000E+00
 -1       612 0.00000E+00 0.00000E+00 0.00000E+00
 -1       613 0.00000E+00 0.00000E+00 0.00000E+00
 -1       614 0.00000E+00 0.00000E+00 0.00000E+00
 -1       615 0.00000E+00 0.00000E+00 0.00000E+00
 -1       616 0.00000E+00 0.00000E+00 0.00000E+00
 -1       617 0.00000E+00 0.00000E+00 0.00000E+00
 -1       618 0.00000E+00 0.00000E+00 0.00000E+00
 -1       619 0.00000E+00 0.00000E+00 0.00000E+00
 -1       620 0.00000E+00 0.00000E+00 0.00000E+00
 -1       621 0.00000E+00 0.00000E+00 0.00000E+00
 -1       622 0.00000E+00 0.00000E+00 0.00000E+00
 -1       623 0.00000E+00 0.00000E+00 0.00000E+00
 -1       624 0.00000E+00 0.00000E+00 0.00000E+00
 -1       625 0.00000E+00 0.00000E+00 0.00000E+00
 -1       626 0.00000E+00 0.00000E+00 0.00000E+00
 -1       627 0.00000E+00 0.00000E+00 0.00000E+00
 -1       628 0.00000E+00 0.00000E+00 0.00000E+00
 -1       629 0.00000E+00 0.00000E+00 0.00000E+00
 -1       630 0.00000E+00 0.00000E+00 0.00000E+00
 -1       631 0.00000E+00 0.00000E+00 0.00000E+00
 -1       632 0.00000E+00 0.00000E+00 0.00000E+00
 -1       633 0.00000E+00 0.00000E+00 0.00000E+00
 -1       634 0.00000E+00 0.00000E+00 0.00000E+00
 -1       635 0.00000E+00 0.00000E+00 0.00000E+00
 -1       636 0.00000E+00 0.00000E+00 0.00000E+00
 -1       637 0.00000E+00 0.00000E+00 0.00000E+00
 -1       638 0.00000E+00 0.00000E+00 0.00000E+00
 -1       639 0.00000E+00 0.00000E+00 0.00000E+00
 -1       640 0.00000E+00 0.00000E+00 0.00000E+00
 -1       656 0.00000E+00 0.00000E+00 0.00000E+00
 -1       657 0.00000E+00 0.00000E+00 0.00000E+00
 -1       658 0.00000E+00 0.00000E+00 0.00000E+00
 -1       659 0.00000E+00 0.00000E+00 0.00000E+00
 -1       660 0.00000E+00 0.00000E+00 0.00000E+00
 -1       661 0.00000E+00 0.00000E+00 0.00000E+00
 -1       662 0.00000E+00 0.00000E+00 0.00000E+00
 -1       663 0.00000E+00 0.00000E+00 0.00000E+00
 -1       664 0.00000E+00 0.00000E+00 0.00000E+00
 -1       665 0.00000E+00 0.00000E+00 0.00000E+00
 -1       666 0.00000E+00 0.00000E+00 0.00000E+00
 -1       667 0.00000E+00 0.00000E+00 0.00000E+00
 -1       668 0.00000E+00 0.00000E+00 0.00000E+00
 -1       669 0.00000E+00 0.00000E+00 0.00000E+00
 -1       670 0.00000E+00 0.00000E+00 0.00000E+00
 -1       671 0.00000E+00 0.00000E+00 0.00000E+00
 -1       672 0.00000E+00 0.00000E+00 0.00000E+00
 -1       673 0.00000E+00 0.00000E+00 0.00000E+00
 -1       674 0.00000E+00 0.00000E+00 0.00000E+00
 -1       675 0.00000E+00 0.00000E+00 0.00000E+00
 -1       676 0.00000E+00 0.00000E+00 0.00000E+00
 -1       677 0.00000E+00 0.00000E+00 0.00000E+00
 -1       678 0.00000E+00 0.00000E+00 0.00000E+00
 -1       679 0.00000E+00 0.00000E+00 0.00000E+00
 -1       680 0.00000E+00 0.00000E+00 0.00000E+00
 -1       771 0.00000E+00 0.00000E+00 0.00000E+00
 -1       772 0.00000E+00 0.00000E+00 0.00000E+00
 -1       773 0.00000E+00 0.00000E+00 0.00000E+00
 -1       774 0.00000E+00 0.00000E+00 0.00000E+00
 -1       775 0.00000E+00 0.00000E+00 0.00000E+00
 -1       776 0.00000E+00 0.00000E+00 0.00000E+00
 -1       777 0.00000E+00 0.00000E+00 0.00000E+00
 -1       778 0.00000E+00 0.00000E+00 0.00000E+00
 -1       779 0.00000E+00 0.00000E+00 0.00000E+00
 -1       780 0.00000E+00 0.00000E+00 0.00000E+00
 -1       781 0.00000E+00 0.00000E+00 0.00000E+00
 -1       782 0.00000E+00 0.00000E+00 0.00000E+00
 -1       783 0.00000E+00 0.00000E+00 0.00000E+00
 -1       784 0.00000E+00 0.00000E+00 0.00000E+00
 -1       785 0.00000E+00 0.00000E+00 0.00000E+00
 -1       786 0.00000E+00 0.00000E+00 0.00000E+00
 -1       787 0.00000E+00 0.00000E+00 0.00000E+00
 -1       788 0.00000E+00 0.00000E+00 0.00000E+00
 -1       789 0.00000E+00 0.00000E+00 0.00000E+00
 -1       790 0.00000E+00 0.00000E+00 0.00000E+00
 -1       791 0.00000E+00 0.00000E+00 0.00000E+00
 -1       792 0.00000E+00 0.00000E+00 0.00000E+00
 -1       793 0.00000E+00 0.00000E+00 0.00000E+00
 -1       794 0.00000E+00 0.00000E+00 0.00000E+00
 -1       795 0.00000E+00 0.00000E+00 0.00000E+00
 -1       796 0.00000E+00 0.00000E+00 0.00000E+00
 -1       797 0.00000E+00 0.00000E+00 0.00000E+00
 -1       798 0.00000E+00 0.00000E+00 0.00000E+00
 -1       799 0.00000E+00 0.00000E+00 0.00000E+00
 -1       800 0.00000E+00 0.00000E+00 0.00000E+00
 -1       801 0.00000E+00 0.00000E+00 0.00000E+00
 -1       802 0.00000E+00 0.00000E+00 0.00000E+00
 -1       803 0.00000E+00 0.00000E+00 0.00000E+00
 -1       804 0.00000E+00 0.00000E+00 0.00000E+00
 -1       805 0.00000E+00 0.00000E+00 0.00000E+00
 -1       806 0.00000E+00 0.00000E+00 0.00000E+00
 -1       807 0.00000E+00 0.00000E+00 0.00000E+00
 -1       808 0.00000E+00 0.00000E+00 0.00000E+00
 -1       809 0.00000E+00 0.00000E+00 0.00000E+00
 -1       810 0.00000E+00 0.00000E+00 0.00000E+00
 -1       811 0.00000E+00 0.00000E+00 0.00000E+00
 -1       812 0.00000E+00 0.00000E+00 0.00000E+00
 -1       813 0.00000E+00 0.00000E+00 0.00000E+00
 -1       814 0.00000E+00 0.00000E+00 0.00000E+00
 -1       815 0.00000E+00 0.00000E+00 0.00000E+00
 -1       816 0.00000E+00 0.00000E+00 0.00000E+00
 -1       817 0.00000E+00 0.00000E+00 0.00000E+00
 -1       818 0.00000E+00 0.00000E+00 0.00000E+00
 -1       819 0.00000E+00 0.00000E+00 0.00000E+00
 -1       820 0.00000E+00 0.00000E+00 0.00000E+00
 -1       821 0.00000E+00 0.00000E+00 0.00000E+00
 -1       822 0.00000E+00 0.00000E+00 0.00000E+00
 -1       823 0.00000E+00 0.00000E+00 0.00000E+00
 -1       824 0.00000E+00 0.00000E+00 0.00000E+00
 -1       825 0.00000E+00 0.00000E+00 0.00000E+00
 -1       826 0.00000E+00 0.00000E+00 0.00000E+00
 -1       827 0.00000E+00 0.00000E+00 0.00000E+00
 -1       828 0.00000E+00 0.00000E+00 0.00000E+00
 -1       829 0.00000E+00 0.00000E+00 0.00000E+00
 -1       830 0.00000E+00 0.00000E+00 0.00000E+00
 -1       831 0.00000E+00 0.00000E+00 0.00000E+00
 -1       832 0.00000E+00 0.00000E+00 0.00000E+00
 -1       833 0.00000E+00 0.00000E+00 0.00000E+00
 -1       834 0.00000E+00 0.00000E+00 0.00000E+00
 -1       835 0.00000E+00 0.00000E+00 0.00000E+00
 -1       836 0.00000E+00 0.00000E+00 0.00000E+00
 -1       837 0.00000E+00 0.00000E+00 0.00000E+00
 -1       838 0.00000E+00 0.00000E+00 0.00000E+00
 -1       839 0.00000E+00 0.00000E+00 0.00000E+00
 -1       840 0.00000E+00 0.00000E+00 0.00000E+00
 -1       856 0.00000E+00 0.00000E+00 0.00000E+00
 -1       857 0.00000E+00 0.00000E+00 0.00000E+00
 -1       858 0.00000E+00 0.00000E+00 0.00000E+00
 -1       859 0.00000E+00 0.00000E+00 0.00000E+00
 -1       860 0.00000E+00 0.00000E+00 0.00000E+00
 -1       861 0.00000E+00 0.00000E+00 0.00000E+00
 -1       862 0.00000E+00 0.00000E+00 0.00000E+00
 -1       863 0.00000E+00 0.00000E+00 0.00000E+00
 -1       864 0.00000E+00 0.00000E+00 0.00000E+00
 -1       865 0.00000E+00 0.00000E+00 0.00000E+00
 -1       866 0.00000E+00 0.00000E+00 0.00000E+00
 -1       867 0.00000E+00 0.00000E+00 0.00000E+00
 -1       868 0.00000E+00 0.00000E+00 0.00000E+00
 -1       869 0.00000E+00 0.00000E+00 0.00000E+00
 -1       870 0.00000E+00 0.00000E+00 0.00000E+00
 -1       871 0.00000E+00 0.00000E+00 0.00000E+00
 -1       872 0.00000E+00 0.00000E+00 0.00000E+00
 -1       873 0.00000E+00 0.00000E+00 0.00000E+00
 -1       874 0.00000E+00 0.00000E+00 0.00000E+00
 -1       875 0.00000E+00 0.00000E+00 0.00000E+00
 -1       876 0.00000E+00 0.00000E+00 0.00000E+00
 -1       877 0.00000E+00 0.00000E+00 0.00000E+00
 -1       878 0.00000E+00 0.00000E+00 0.00000E+00
 -1       879 0.00000E+00 0.00000E+00 0.00000E+00
 -1       880 0.00000E+00 0.00000E+00 0.00000E+00
 -1       881 0.00000E+00 0.00000E+00 0.00000E+00
 -1       882 0.00000E+00 0.00000E+00 0.00000E+00
 -1       883 0.00000E+00 0.00000E+00 0.00000E+00
 -1       884 0.00000E+00 0.00000E+00 0.00000E+00
 -1       885 0.00000E+00 0.00000E+00 0.00000E+00
 -1       886 0.00000E+00 0.00000E+00 0.00000E+00
 -1       887 0.00000E+00 0.00000E+00 0.00000E+00
 -1       888 0.00000E+00 0.00000E+00 0.00000E+00
 -1       889 0.00000E+00 0.00000E+00 0.00000E+00
 -1       890 0.00000E+00 0.00000E+00 0.00000E+00
 -1       891 0.00000E+00 0.00000E+00 0.00000E+00
 -1       892 0.00000E+00 0.00000E+00 0.00000E+00
 -1       893 0.00000E+00 0.00000E+00 0.00000E+00
 -1       894 0.00000E+00 0.00000E+00 0.00000E+00
 -1       895 0.00000E+00 0.00000E+00 0.00000E+00
 -1       956 0.00000E+00 0.00000E+00 0.00000E+00
 -1       957 0.00000E+00 0.00000E+00 0.00000E+00
 -1       958 0.00000E+00 0.00000E+00 0.00000E+00
 -1       959 0.00000E+00 0.00000E+00 0.00000E+00
 -1       960 0.00000E+00 0.00000E+00 0.00000E+00
 -1       961 0.00000E+00 0.00000E+00 0.00000E+00
 -1       962 0.00000E+00 0.00000E+00 0.00000E+00
 -1       963 0.00000E+00 0.00000E+00 0.00000E+00
 -1       964 0.00000E+00 0.00000E+00 0.00000E+00
 -1       965 0.00000E+00 0.00000E+00 0.00000E+00
 -1       966 0.00000E+00 0.00000E+00 0.00000E+00
 -1       967 0.00000E+00 0.00000E+00 0.00000E+00
 -1       968 0.00000E+00 0.00000E+00 0.00000E+00
 -1       969 0.00000E+00 0.00000E+00 0.00000E+00
 -1       970 0.00000E+00 0.00000E+00 0.00000E+00
 -1       971 0.00000E+00 0.00000E+00 0.00000E+00
 -1       972 0.00000E+00 0.00000E+00 0.00000E+00
 -1       973 0.00000E+00 0.00000E+00 0.00000E+00
 -1       974 0.00000E+00 0.00000E+00 0.00000E+00
 -1       975 0.00000E+00 0.00000E+00 0.00000E+00
 -1       976 0.00000E+00 0.00000E+00 0.00000E+00
 -1       977 0.00000E+00 0.00000E+00 0.00000E+00
 -1       978 0.00000E+00 0.00000E+00 0.00000E+00
 -1       979 0.00000E+00 0.00000E+00 0.00000E+00
 -1       980 0.00000E+00 0.00000E+00 0.00000E+00
 -1       981 0.00000E+00 0.00000E+00 0.00000E+00
 -1       982 0.00000E+00 0.00000E+00 0.00000E+00
 -1       983 0.00000E+00 0.00000E+00 0.00000E+00
 -1       984 0.00000E+00 0.00000E+00 0.00000E+00
 -1       985 0.00000E+00 0.00000E+00 0.00000E+00
 -3
