    1C
    1UUSER                                                              
    1UDATE              11.october.2022                                 
    1UTIME              19:09:34                                        
    1UHOST                                                              
    1UPGM               CalculiX                                        
    1UVERSION           Version 2.20                             
    1UCOMPILETIME       Sun Jul 31 18:08:37 CEST 2022                    
    1UDIR                                                               
    1UDBN                                                               
    1UMAT    1MESH_MATERIAL                                             
    2C                           409                                     1
 -1         1 0.00000E+00 0.00000E+00 0.00000E+00
 -1         2 1.66667E-02 0.00000E+00 0.00000E+00
 -1         3 3.33333E-02 0.00000E+00 0.00000E+00
 -1         5 6.66667E-02 0.00000E+00 0.00000E+00
 -1         8 0.00000E+00 6.25000E-03 0.00000E+00
 -1         9 1.66667E-02 6.25000E-03 0.00000E+00
 -1        10 3.33333E-02 6.25000E-03 0.00000E+00
 -1        12 6.66667E-02 6.25000E-03 0.00000E+00
 -1        15 0.00000E+00 1.25000E-02 0.00000E+00
 -1        16 1.66667E-02 1.25000E-02 0.00000E+00
 -1        17 3.33333E-02 1.25000E-02 0.00000E+00
 -1        18 5.00000E-02 1.25000E-02 0.00000E+00
 -1        19 6.66667E-02 1.25000E-02 0.00000E+00
 -1        20 8.33333E-02 1.25000E-02 0.00000E+00
 -1        21 1.00000E-01 1.25000E-02 0.00000E+00
 -1        24 3.33333E-02 1.87500E-02 0.00000E+00
 -1        25 5.00000E-02 1.87500E-02 0.00000E+00
 -1        26 6.66667E-02 1.87500E-02 0.00000E+00
 -1        27 8.33333E-02 1.87500E-02 0.00000E+00
 -1        28 1.00000E-01 1.87500E-02 0.00000E+00
 -1        32 5.00000E-02 2.50000E-02 0.00000E+00
 -1        33 6.66667E-02 2.50000E-02 0.00000E+00
 -1        34 8.33333E-02 2.50000E-02 0.00000E+00
 -1        35 1.00000E-01 2.50000E-02 0.00000E+00
 -1        51 0.00000E+00 1.04167E-03 0.00000E+00
 -1        52 0.00000E+00 2.08333E-03 0.00000E+00
 -1        53 0.00000E+00 3.12500E-03 0.00000E+00
 -1        54 0.00000E+00 4.16667E-03 0.00000E+00
 -1        55 0.00000E+00 5.20833E-03 0.00000E+00
 -1        56 1.04167E-03 3.90630E-04 0.00000E+00
 -1        57 2.08333E-03 7.81250E-04 0.00000E+00
 -1        58 3.12500E-03 1.17188E-03 0.00000E+00
 -1        59 4.16667E-03 1.56250E-03 0.00000E+00
 -1        60 5.20833E-03 1.95312E-03 0.00000E+00
 -1        61 6.25000E-03 2.34375E-03 0.00000E+00
 -1        62 7.29167E-03 2.73438E-03 0.00000E+00
 -1        63 8.33333E-03 3.12500E-03 0.00000E+00
 -1        64 9.37500E-03 3.51563E-03 0.00000E+00
 -1        65 1.04167E-02 3.90625E-03 0.00000E+00
 -1        66 1.14583E-02 4.29688E-03 0.00000E+00
 -1        67 1.25000E-02 4.68750E-03 0.00000E+00
 -1        68 1.35417E-02 5.07813E-03 0.00000E+00
 -1        69 1.45833E-02 5.46875E-03 0.00000E+00
 -1        70 1.56250E-02 5.85938E-03 0.00000E+00
 -1        86 1.66667E-02 1.04167E-03 0.00000E+00
 -1        87 1.66667E-02 2.08333E-03 0.00000E+00
 -1        88 1.66667E-02 3.12500E-03 0.00000E+00
 -1        89 1.66667E-02 4.16667E-03 0.00000E+00
 -1        90 1.66667E-02 5.20833E-03 0.00000E+00
 -1       121 3.33333E-02 1.04167E-03 0.00000E+00
 -1       122 3.33333E-02 2.08333E-03 0.00000E+00
 -1       123 3.33333E-02 3.12500E-03 0.00000E+00
 -1       124 3.33333E-02 4.16667E-03 0.00000E+00
 -1       125 3.33333E-02 5.20833E-03 0.00000E+00
 -1       191 6.66667E-02 1.04167E-03 0.00000E+00
 -1       192 6.66667E-02 2.08333E-03 0.00000E+00
 -1       193 6.66667E-02 3.12500E-03 0.00000E+00
 -1       194 6.66667E-02 4.16667E-03 0.00000E+00
 -1       195 6.66667E-02 5.20833E-03 0.00000E+00
 -1       251 1.04167E-03 6.25000E-03 0.00000E+00
 -1       252 2.08333E-03 6.25000E-03 0.00000E+00
 -1       253 3.12500E-03 6.25000E-03 0.00000E+00
 -1       254 4.16667E-03 6.25000E-03 0.00000E+00
 -1       255 5.20833E-03 6.25000E-03 0.00000E+00
 -1       256 6.25000E-03 6.25000E-03 0.00000E+00
 -1       257 7.29167E-03 6.25000E-03 0.00000E+00
 -1       258 8.33333E-03 6.25000E-03 0.00000E+00
 -1       259 9.37500E-03 6.25000E-03 0.00000E+00
 -1       260 1.04167E-02 6.25000E-03 0.00000E+00
 -1       261 1.14583E-02 6.25000E-03 0.00000E+00
 -1       262 1.25000E-02 6.25000E-03 0.00000E+00
 -1       263 1.35417E-02 6.25000E-03 0.00000E+00
 -1       264 1.45833E-02 6.25000E-03 0.00000E+00
 -1       265 1.56250E-02 6.25000E-03 0.00000E+00
 -1       266 0.00000E+00 7.29167E-03 0.00000E+00
 -1       267 0.00000E+00 8.33333E-03 0.00000E+00
 -1       268 0.00000E+00 9.37500E-03 0.00000E+00
 -1       269 0.00000E+00 1.04167E-02 0.00000E+00
 -1       270 0.00000E+00 1.14583E-02 0.00000E+00
 -1       271 1.04167E-03 6.64063E-03 0.00000E+00
 -1       272 2.08333E-03 7.03125E-03 0.00000E+00
 -1       273 3.12500E-03 7.42188E-03 0.00000E+00
 -1       274 4.16667E-03 7.81250E-03 0.00000E+00
 -1       275 5.20833E-03 8.20313E-03 0.00000E+00
 -1       276 6.25000E-03 8.59375E-03 0.00000E+00
 -1       277 7.29167E-03 8.98438E-03 0.00000E+00
 -1       278 8.33333E-03 9.37500E-03 0.00000E+00
 -1       279 9.37500E-03 9.76562E-03 0.00000E+00
 -1       280 1.04167E-02 1.01562E-02 0.00000E+00
 -1       281 1.14583E-02 1.05469E-02 0.00000E+00
 -1       282 1.25000E-02 1.09375E-02 0.00000E+00
 -1       283 1.35417E-02 1.13281E-02 0.00000E+00
 -1       284 1.45833E-02 1.17188E-02 0.00000E+00
 -1       285 1.56250E-02 1.21094E-02 0.00000E+00
 -1       301 1.66667E-02 7.29167E-03 0.00000E+00
 -1       302 1.66667E-02 8.33333E-03 0.00000E+00
 -1       303 1.66667E-02 9.37500E-03 0.00000E+00
 -1       304 1.66667E-02 1.04167E-02 0.00000E+00
 -1       305 1.66667E-02 1.14583E-02 0.00000E+00
 -1       306 1.77083E-02 6.64063E-03 0.00000E+00
 -1       307 1.87500E-02 7.03125E-03 0.00000E+00
 -1       308 1.97917E-02 7.42188E-03 0.00000E+00
 -1       309 2.08333E-02 7.81250E-03 0.00000E+00
 -1       310 2.18750E-02 8.20313E-03 0.00000E+00
 -1       311 2.29167E-02 8.59375E-03 0.00000E+00
 -1       312 2.39583E-02 8.98438E-03 0.00000E+00
 -1       313 2.50000E-02 9.37500E-03 0.00000E+00
 -1       314 2.60417E-02 9.76562E-03 0.00000E+00
 -1       315 2.70833E-02 1.01562E-02 0.00000E+00
 -1       316 2.81250E-02 1.05469E-02 0.00000E+00
 -1       317 2.91667E-02 1.09375E-02 0.00000E+00
 -1       318 3.02083E-02 1.13281E-02 0.00000E+00
 -1       319 3.12500E-02 1.17188E-02 0.00000E+00
 -1       320 3.22917E-02 1.21094E-02 0.00000E+00
 -1       336 3.33333E-02 7.29167E-03 0.00000E+00
 -1       337 3.33333E-02 8.33333E-03 0.00000E+00
 -1       338 3.33333E-02 9.37500E-03 0.00000E+00
 -1       339 3.33333E-02 1.04167E-02 0.00000E+00
 -1       340 3.33333E-02 1.14583E-02 0.00000E+00
 -1       406 6.66667E-02 7.29167E-03 0.00000E+00
 -1       407 6.66667E-02 8.33333E-03 0.00000E+00
 -1       408 6.66667E-02 9.37500E-03 0.00000E+00
 -1       409 6.66667E-02 1.04167E-02 0.00000E+00
 -1       410 6.66667E-02 1.14583E-02 0.00000E+00
 -1       521 1.77083E-02 1.28906E-02 0.00000E+00
 -1       522 1.87500E-02 1.32813E-02 0.00000E+00
 -1       523 1.97917E-02 1.36719E-02 0.00000E+00
 -1       524 2.08333E-02 1.40625E-02 0.00000E+00
 -1       525 2.18750E-02 1.44531E-02 0.00000E+00
 -1       526 2.29167E-02 1.48437E-02 0.00000E+00
 -1       527 2.39583E-02 1.52344E-02 0.00000E+00
 -1       528 2.50000E-02 1.56250E-02 0.00000E+00
 -1       529 2.60417E-02 1.60156E-02 0.00000E+00
 -1       530 2.70833E-02 1.64062E-02 0.00000E+00
 -1       531 2.81250E-02 1.67969E-02 0.00000E+00
 -1       532 2.91667E-02 1.71875E-02 0.00000E+00
 -1       533 3.02083E-02 1.75781E-02 0.00000E+00
 -1       534 3.12500E-02 1.79687E-02 0.00000E+00
 -1       535 3.22917E-02 1.83594E-02 0.00000E+00
 -1       536 3.43750E-02 1.25000E-02 0.00000E+00
 -1       537 3.54167E-02 1.25000E-02 0.00000E+00
 -1       538 3.64583E-02 1.25000E-02 0.00000E+00
 -1       539 3.75000E-02 1.25000E-02 0.00000E+00
 -1       540 3.85417E-02 1.25000E-02 0.00000E+00
 -1       541 3.95833E-02 1.25000E-02 0.00000E+00
 -1       542 4.06250E-02 1.25000E-02 0.00000E+00
 -1       543 4.16667E-02 1.25000E-02 0.00000E+00
 -1       544 4.27083E-02 1.25000E-02 0.00000E+00
 -1       545 4.37500E-02 1.25000E-02 0.00000E+00
 -1       546 4.47917E-02 1.25000E-02 0.00000E+00
 -1       547 4.58333E-02 1.25000E-02 0.00000E+00
 -1       548 4.68750E-02 1.25000E-02 0.00000E+00
 -1       549 4.79167E-02 1.25000E-02 0.00000E+00
 -1       550 4.89583E-02 1.25000E-02 0.00000E+00
 -1       551 3.33333E-02 1.35417E-02 0.00000E+00
 -1       552 3.33333E-02 1.45833E-02 0.00000E+00
 -1       553 3.33333E-02 1.56250E-02 0.00000E+00
 -1       554 3.33333E-02 1.66667E-02 0.00000E+00
 -1       555 3.33333E-02 1.77083E-02 0.00000E+00
 -1       556 3.43750E-02 1.28906E-02 0.00000E+00
 -1       557 3.54167E-02 1.32813E-02 0.00000E+00
 -1       558 3.64583E-02 1.36719E-02 0.00000E+00
 -1       559 3.75000E-02 1.40625E-02 0.00000E+00
 -1       560 3.85417E-02 1.44531E-02 0.00000E+00
 -1       561 3.95833E-02 1.48437E-02 0.00000E+00
 -1       562 4.06250E-02 1.52344E-02 0.00000E+00
 -1       563 4.16667E-02 1.56250E-02 0.00000E+00
 -1       564 4.27083E-02 1.60156E-02 0.00000E+00
 -1       565 4.37500E-02 1.64062E-02 0.00000E+00
 -1       566 4.47917E-02 1.67969E-02 0.00000E+00
 -1       567 4.58333E-02 1.71875E-02 0.00000E+00
 -1       568 4.68750E-02 1.75781E-02 0.00000E+00
 -1       569 4.79167E-02 1.79687E-02 0.00000E+00
 -1       570 4.89583E-02 1.83594E-02 0.00000E+00
 -1       571 5.10417E-02 1.25000E-02 0.00000E+00
 -1       572 5.20833E-02 1.25000E-02 0.00000E+00
 -1       573 5.31250E-02 1.25000E-02 0.00000E+00
 -1       574 5.41667E-02 1.25000E-02 0.00000E+00
 -1       575 5.52083E-02 1.25000E-02 0.00000E+00
 -1       576 5.62500E-02 1.25000E-02 0.00000E+00
 -1       577 5.72917E-02 1.25000E-02 0.00000E+00
 -1       578 5.83333E-02 1.25000E-02 0.00000E+00
 -1       579 5.93750E-02 1.25000E-02 0.00000E+00
 -1       580 6.04167E-02 1.25000E-02 0.00000E+00
 -1       581 6.14583E-02 1.25000E-02 0.00000E+00
 -1       582 6.25000E-02 1.25000E-02 0.00000E+00
 -1       583 6.35417E-02 1.25000E-02 0.00000E+00
 -1       584 6.45833E-02 1.25000E-02 0.00000E+00
 -1       585 6.56250E-02 1.25000E-02 0.00000E+00
 -1       586 5.00000E-02 1.35417E-02 0.00000E+00
 -1       587 5.00000E-02 1.45833E-02 0.00000E+00
 -1       588 5.00000E-02 1.56250E-02 0.00000E+00
 -1       589 5.00000E-02 1.66667E-02 0.00000E+00
 -1       590 5.00000E-02 1.77083E-02 0.00000E+00
 -1       591 5.10417E-02 1.28906E-02 0.00000E+00
 -1       592 5.20833E-02 1.32813E-02 0.00000E+00
 -1       593 5.31250E-02 1.36719E-02 0.00000E+00
 -1       594 5.41667E-02 1.40625E-02 0.00000E+00
 -1       595 5.52083E-02 1.44531E-02 0.00000E+00
 -1       596 5.62500E-02 1.48437E-02 0.00000E+00
 -1       597 5.72917E-02 1.52344E-02 0.00000E+00
 -1       598 5.83333E-02 1.56250E-02 0.00000E+00
 -1       599 5.93750E-02 1.60156E-02 0.00000E+00
 -1       600 6.04167E-02 1.64062E-02 0.00000E+00
 -1       601 6.14583E-02 1.67969E-02 0.00000E+00
 -1       602 6.25000E-02 1.71875E-02 0.00000E+00
 -1       603 6.35417E-02 1.75781E-02 0.00000E+00
 -1       604 6.45833E-02 1.79687E-02 0.00000E+00
 -1       605 6.56250E-02 1.83594E-02 0.00000E+00
 -1       606 6.77083E-02 1.25000E-02 0.00000E+00
 -1       607 6.87500E-02 1.25000E-02 0.00000E+00
 -1       608 6.97917E-02 1.25000E-02 0.00000E+00
 -1       609 7.08333E-02 1.25000E-02 0.00000E+00
 -1       610 7.18750E-02 1.25000E-02 0.00000E+00
 -1       611 7.29167E-02 1.25000E-02 0.00000E+00
 -1       612 7.39583E-02 1.25000E-02 0.00000E+00
 -1       613 7.50000E-02 1.25000E-02 0.00000E+00
 -1       614 7.60417E-02 1.25000E-02 0.00000E+00
 -1       615 7.70833E-02 1.25000E-02 0.00000E+00
 -1       616 7.81250E-02 1.25000E-02 0.00000E+00
 -1       617 7.91667E-02 1.25000E-02 0.00000E+00
 -1       618 8.02083E-02 1.25000E-02 0.00000E+00
 -1       619 8.12500E-02 1.25000E-02 0.00000E+00
 -1       620 8.22917E-02 1.25000E-02 0.00000E+00
 -1       621 6.66667E-02 1.35417E-02 0.00000E+00
 -1       622 6.66667E-02 1.45833E-02 0.00000E+00
 -1       623 6.66667E-02 1.56250E-02 0.00000E+00
 -1       624 6.66667E-02 1.66667E-02 0.00000E+00
 -1       625 6.66667E-02 1.77083E-02 0.00000E+00
 -1       626 6.77083E-02 1.28906E-02 0.00000E+00
 -1       627 6.87500E-02 1.32813E-02 0.00000E+00
 -1       628 6.97917E-02 1.36719E-02 0.00000E+00
 -1       629 7.08333E-02 1.40625E-02 0.00000E+00
 -1       630 7.18750E-02 1.44531E-02 0.00000E+00
 -1       631 7.29167E-02 1.48437E-02 0.00000E+00
 -1       632 7.39583E-02 1.52344E-02 0.00000E+00
 -1       633 7.50000E-02 1.56250E-02 0.00000E+00
 -1       634 7.60417E-02 1.60156E-02 0.00000E+00
 -1       635 7.70833E-02 1.64062E-02 0.00000E+00
 -1       636 7.81250E-02 1.67969E-02 0.00000E+00
 -1       637 7.91667E-02 1.71875E-02 0.00000E+00
 -1       638 8.02083E-02 1.75781E-02 0.00000E+00
 -1       639 8.12500E-02 1.79687E-02 0.00000E+00
 -1       640 8.22917E-02 1.83594E-02 0.00000E+00
 -1       656 8.33333E-02 1.35417E-02 0.00000E+00
 -1       657 8.33333E-02 1.45833E-02 0.00000E+00
 -1       658 8.33333E-02 1.56250E-02 0.00000E+00
 -1       659 8.33333E-02 1.66667E-02 0.00000E+00
 -1       660 8.33333E-02 1.77083E-02 0.00000E+00
 -1       661 8.43750E-02 1.28906E-02 0.00000E+00
 -1       662 8.54167E-02 1.32813E-02 0.00000E+00
 -1       663 8.64583E-02 1.36719E-02 0.00000E+00
 -1       664 8.75000E-02 1.40625E-02 0.00000E+00
 -1       665 8.85417E-02 1.44531E-02 0.00000E+00
 -1       666 8.95833E-02 1.48437E-02 0.00000E+00
 -1       667 9.06250E-02 1.52344E-02 0.00000E+00
 -1       668 9.16667E-02 1.56250E-02 0.00000E+00
 -1       669 9.27083E-02 1.60156E-02 0.00000E+00
 -1       670 9.37500E-02 1.64062E-02 0.00000E+00
 -1       671 9.47917E-02 1.67969E-02 0.00000E+00
 -1       672 9.58333E-02 1.71875E-02 0.00000E+00
 -1       673 9.68750E-02 1.75781E-02 0.00000E+00
 -1       674 9.79167E-02 1.79687E-02 0.00000E+00
 -1       675 9.89583E-02 1.83594E-02 0.00000E+00
 -1       676 1.00000E-01 1.35417E-02 0.00000E+00
 -1       677 1.00000E-01 1.45833E-02 0.00000E+00
 -1       678 1.00000E-01 1.56250E-02 0.00000E+00
 -1       679 1.00000E-01 1.66667E-02 0.00000E+00
 -1       680 1.00000E-01 1.77083E-02 0.00000E+00
 -1       771 3.43750E-02 1.91406E-02 0.00000E+00
 -1       772 3.54167E-02 1.95312E-02 0.00000E+00
 -1       773 3.64583E-02 1.99219E-02 0.00000E+00
 -1       774 3.75000E-02 2.03125E-02 0.00000E+00
 -1       775 3.85417E-02 2.07031E-02 0.00000E+00
 -1       776 3.95833E-02 2.10938E-02 0.00000E+00
 -1       777 4.06250E-02 2.14844E-02 0.00000E+00
 -1       778 4.16667E-02 2.18750E-02 0.00000E+00
 -1       779 4.27083E-02 2.22656E-02 0.00000E+00
 -1       780 4.37500E-02 2.26563E-02 0.00000E+00
 -1       781 4.47917E-02 2.30469E-02 0.00000E+00
 -1       782 4.58333E-02 2.34375E-02 0.00000E+00
 -1       783 4.68750E-02 2.38281E-02 0.00000E+00
 -1       784 4.79167E-02 2.42187E-02 0.00000E+00
 -1       785 4.89583E-02 2.46094E-02 0.00000E+00
 -1       786 5.10417E-02 1.87500E-02 0.00000E+00
 -1       787 5.20833E-02 1.87500E-02 0.00000E+00
 -1       788 5.31250E-02 1.87500E-02 0.00000E+00
 -1       789 5.41667E-02 1.87500E-02 0.00000E+00
 -1       790 5.52083E-02 1.87500E-02 0.00000E+00
 -1       791 5.62500E-02 1.87500E-02 0.00000E+00
 -1       792 5.72917E-02 1.87500E-02 0.00000E+00
 -1       793 5.83333E-02 1.87500E-02 0.00000E+00
 -1       794 5.93750E-02 1.87500E-02 0.00000E+00
 -1       795 6.04167E-02 1.87500E-02 0.00000E+00
 -1       796 6.14583E-02 1.87500E-02 0.00000E+00
 -1       797 6.25000E-02 1.87500E-02 0.00000E+00
 -1       798 6.35417E-02 1.87500E-02 0.00000E+00
 -1       799 6.45833E-02 1.87500E-02 0.00000E+00
 -1       800 6.56250E-02 1.87500E-02 0.00000E+00
 -1       801 5.00000E-02 1.97917E-02 0.00000E+00
 -1       802 5.00000E-02 2.08333E-02 0.00000E+00
 -1       803 5.00000E-02 2.18750E-02 0.00000E+00
 -1       804 5.00000E-02 2.29167E-02 0.00000E+00
 -1       805 5.00000E-02 2.39583E-02 0.00000E+00
 -1       806 5.10417E-02 1.91406E-02 0.00000E+00
 -1       807 5.20833E-02 1.95312E-02 0.00000E+00
 -1       808 5.31250E-02 1.99219E-02 0.00000E+00
 -1       809 5.41667E-02 2.03125E-02 0.00000E+00
 -1       810 5.52083E-02 2.07031E-02 0.00000E+00
 -1       811 5.62500E-02 2.10938E-02 0.00000E+00
 -1       812 5.72917E-02 2.14844E-02 0.00000E+00
 -1       813 5.83333E-02 2.18750E-02 0.00000E+00
 -1       814 5.93750E-02 2.22656E-02 0.00000E+00
 -1       815 6.04167E-02 2.26563E-02 0.00000E+00
 -1       816 6.14583E-02 2.30469E-02 0.00000E+00
 -1       817 6.25000E-02 2.34375E-02 0.00000E+00
 -1       818 6.35417E-02 2.38281E-02 0.00000E+00
 -1       819 6.45833E-02 2.42187E-02 0.00000E+00
 -1       820 6.56250E-02 2.46094E-02 0.00000E+00
 -1       821 6.77083E-02 1.87500E-02 0.00000E+00
 -1       822 6.87500E-02 1.87500E-02 0.00000E+00
 -1       823 6.97917E-02 1.87500E-02 0.00000E+00
 -1       824 7.08333E-02 1.87500E-02 0.00000E+00
 -1       825 7.18750E-02 1.87500E-02 0.00000E+00
 -1       826 7.29167E-02 1.87500E-02 0.00000E+00
 -1       827 7.39583E-02 1.87500E-02 0.00000E+00
 -1       828 7.50000E-02 1.87500E-02 0.00000E+00
 -1       829 7.60417E-02 1.87500E-02 0.00000E+00
 -1       830 7.70833E-02 1.87500E-02 0.00000E+00
 -1       831 7.81250E-02 1.87500E-02 0.00000E+00
 -1       832 7.91667E-02 1.87500E-02 0.00000E+00
 -1       833 8.02083E-02 1.87500E-02 0.00000E+00
 -1       834 8.12500E-02 1.87500E-02 0.00000E+00
 -1       835 8.22917E-02 1.87500E-02 0.00000E+00
 -1       836 6.66667E-02 1.97917E-02 0.00000E+00
 -1       837 6.66667E-02 2.08333E-02 0.00000E+00
 -1       838 6.66667E-02 2.18750E-02 0.00000E+00
 -1       839 6.66667E-02 2.29167E-02 0.00000E+00
 -1       840 6.66667E-02 2.39583E-02 0.00000E+00
 -1       856 8.43750E-02 1.87500E-02 0.00000E+00
 -1       857 8.54167E-02 1.87500E-02 0.00000E+00
 -1       858 8.64583E-02 1.87500E-02 0.00000E+00
 -1       859 8.75000E-02 1.87500E-02 0.00000E+00
 -1       860 8.85417E-02 1.87500E-02 0.00000E+00
 -1       861 8.95833E-02 1.87500E-02 0.00000E+00
 -1       862 9.06250E-02 1.87500E-02 0.00000E+00
 -1       863 9.16667E-02 1.87500E-02 0.00000E+00
 -1       864 9.27083E-02 1.87500E-02 0.00000E+00
 -1       865 9.37500E-02 1.87500E-02 0.00000E+00
 -1       866 9.47917E-02 1.87500E-02 0.00000E+00
 -1       867 9.58333E-02 1.87500E-02 0.00000E+00
 -1       868 9.68750E-02 1.87500E-02 0.00000E+00
 -1       869 9.79167E-02 1.87500E-02 0.00000E+00
 -1       870 9.89583E-02 1.87500E-02 0.00000E+00
 -1       871 8.33333E-02 1.97917E-02 0.00000E+00
 -1       872 8.33333E-02 2.08333E-02 0.00000E+00
 -1       873 8.33333E-02 2.18750E-02 0.00000E+00
 -1       874 8.33333E-02 2.29167E-02 0.00000E+00
 -1       875 8.33333E-02 2.39583E-02 0.00000E+00
 -1       876 8.43750E-02 1.91406E-02 0.00000E+00
 -1       877 8.54167E-02 1.95312E-02 0.00000E+00
 -1       878 8.64583E-02 1.99219E-02 0.00000E+00
 -1       879 8.75000E-02 2.03125E-02 0.00000E+00
 -1       880 8.85417E-02 2.07031E-02 0.00000E+00
 -1       881 8.95833E-02 2.10938E-02 0.00000E+00
 -1       882 9.06250E-02 2.14844E-02 0.00000E+00
 -1       883 9.16667E-02 2.18750E-02 0.00000E+00
 -1       884 9.27083E-02 2.22656E-02 0.00000E+00
 -1       885 9.37500E-02 2.26563E-02 0.00000E+00
 -1       886 9.47917E-02 2.30469E-02 0.00000E+00
 -1       887 9.58333E-02 2.34375E-02 0.00000E+00
 -1       888 9.68750E-02 2.38281E-02 0.00000E+00
 -1       889 9.79167E-02 2.42187E-02 0.00000E+00
 -1       890 9.89583E-02 2.46094E-02 0.00000E+00
 -1       891 1.00000E-01 1.97917E-02 0.00000E+00
 -1       892 1.00000E-01 2.08333E-02 0.00000E+00
 -1       893 1.00000E-01 2.18750E-02 0.00000E+00
 -1       894 1.00000E-01 2.29167E-02 0.00000E+00
 -1       895 1.00000E-01 2.39583E-02 0.00000E+00
 -1       956 6.77083E-02 2.50000E-02 0.00000E+00
 -1       957 6.87500E-02 2.50000E-02 0.00000E+00
 -1       958 6.97917E-02 2.50000E-02 0.00000E+00
 -1       959 7.08333E-02 2.50000E-02 0.00000E+00
 -1       960 7.18750E-02 2.50000E-02 0.00000E+00
 -1       961 7.29167E-02 2.50000E-02 0.00000E+00
 -1       962 7.39583E-02 2.50000E-02 0.00000E+00
 -1       963 7.50000E-02 2.50000E-02 0.00000E+00
 -1       964 7.60417E-02 2.50000E-02 0.00000E+00
 -1       965 7.70833E-02 2.50000E-02 0.00000E+00
 -1       966 7.81250E-02 2.50000E-02 0.00000E+00
 -1       967 7.91667E-02 2.50000E-02 0.00000E+00
 -1       968 8.02083E-02 2.50000E-02 0.00000E+00
 -1       969 8.12500E-02 2.50000E-02 0.00000E+00
 -1       970 8.22917E-02 2.50000E-02 0.00000E+00
 -1       971 8.43750E-02 2.50000E-02 0.00000E+00
 -1       972 8.54167E-02 2.50000E-02 0.00000E+00
 -1       973 8.64583E-02 2.50000E-02 0.00000E+00
 -1       974 8.75000E-02 2.50000E-02 0.00000E+00
 -1       975 8.85417E-02 2.50000E-02 0.00000E+00
 -1       976 8.95833E-02 2.50000E-02 0.00000E+00
 -1       977 9.06250E-02 2.50000E-02 0.00000E+00
 -1       978 9.16667E-02 2.50000E-02 0.00000E+00
 -1       979 9.27083E-02 2.50000E-02 0.00000E+00
 -1       980 9.37500E-02 2.50000E-02 0.00000E+00
 -1       981 9.47917E-02 2.50000E-02 0.00000E+00
 -1       982 9.58333E-02 2.50000E-02 0.00000E+00
 -1       983 9.68750E-02 2.50000E-02 0.00000E+00
 -1       984 9.79167E-02 2.50000E-02 0.00000E+00
 -1       985 9.89583E-02 2.50000E-02 0.00000E+00
 -3
    3C                           211                                     1
 -1         1   12    0    1
 -2         1        52        51
 -1         2   12    0    1
 -2        52        54        53
 -1         3   12    0    1
 -2        54         8        55
 -1         4   12    0    1
 -2         1        57        56
 -1         5   12    0    1
 -2        57        59        58
 -1         6   12    0    1
 -2        59        61        60
 -1         7   12    0    1
 -2        61        63        62
 -1         8   12    0    1
 -2        63        65        64
 -1         9   12    0    1
 -2        65        67        66
 -1        10   12    0    1
 -2        67        69        68
 -1        11   12    0    1
 -2        69         9        70
 -1        12   12    0    1
 -2         2        87        86
 -1        13   12    0    1
 -2        87        89        88
 -1        14   12    0    1
 -2        89         9        90
 -1        15   12    0    1
 -2         3       122       121
 -1        16   12    0    1
 -2       122       124       123
 -1        17   12    0    1
 -2       124        10       125
 -1        18   12    0    1
 -2         5       192       191
 -1        19   12    0    1
 -2       192       194       193
 -1        20   12    0    1
 -2       194        12       195
 -1        21   12    0    1
 -2         8       252       251
 -1        22   12    0    1
 -2       252       254       253
 -1        23   12    0    1
 -2       254       256       255
 -1        24   12    0    1
 -2       256       258       257
 -1        25   12    0    1
 -2       258       260       259
 -1        26   12    0    1
 -2       260       262       261
 -1        27   12    0    1
 -2       262       264       263
 -1        28   12    0    1
 -2       264         9       265
 -1        29   12    0    1
 -2         8       267       266
 -1        30   12    0    1
 -2       267       269       268
 -1        31   12    0    1
 -2       269        15       270
 -1        32   12    0    1
 -2         8       272       271
 -1        33   12    0    1
 -2       272       274       273
 -1        34   12    0    1
 -2       274       276       275
 -1        35   12    0    1
 -2       276       278       277
 -1        36   12    0    1
 -2       278       280       279
 -1        37   12    0    1
 -2       280       282       281
 -1        38   12    0    1
 -2       282       284       283
 -1        39   12    0    1
 -2       284        16       285
 -1        40   12    0    1
 -2         9       302       301
 -1        41   12    0    1
 -2       302       304       303
 -1        42   12    0    1
 -2       304        16       305
 -1        43   12    0    1
 -2         9       307       306
 -1        44   12    0    1
 -2       307       309       308
 -1        45   12    0    1
 -2       309       311       310
 -1        46   12    0    1
 -2       311       313       312
 -1        47   12    0    1
 -2       313       315       314
 -1        48   12    0    1
 -2       315       317       316
 -1        49   12    0    1
 -2       317       319       318
 -1        50   12    0    1
 -2       319        17       320
 -1        51   12    0    1
 -2        10       337       336
 -1        52   12    0    1
 -2       337       339       338
 -1        53   12    0    1
 -2       339        17       340
 -1        54   12    0    1
 -2        12       407       406
 -1        55   12    0    1
 -2       407       409       408
 -1        56   12    0    1
 -2       409        19       410
 -1        57   12    0    1
 -2        16       522       521
 -1        58   12    0    1
 -2       522       524       523
 -1        59   12    0    1
 -2       524       526       525
 -1        60   12    0    1
 -2       526       528       527
 -1        61   12    0    1
 -2       528       530       529
 -1        62   12    0    1
 -2       530       532       531
 -1        63   12    0    1
 -2       532       534       533
 -1        64   12    0    1
 -2       534        24       535
 -1        65   12    0    1
 -2        17       537       536
 -1        66   12    0    1
 -2       537       539       538
 -1        67   12    0    1
 -2       539       541       540
 -1        68   12    0    1
 -2       541       543       542
 -1        69   12    0    1
 -2       543       545       544
 -1        70   12    0    1
 -2       545       547       546
 -1        71   12    0    1
 -2       547       549       548
 -1        72   12    0    1
 -2       549        18       550
 -1        73   12    0    1
 -2        17       552       551
 -1        74   12    0    1
 -2       552       554       553
 -1        75   12    0    1
 -2       554        24       555
 -1        76   12    0    1
 -2        17       557       556
 -1        77   12    0    1
 -2       557       559       558
 -1        78   12    0    1
 -2       559       561       560
 -1        79   12    0    1
 -2       561       563       562
 -1        80   12    0    1
 -2       563       565       564
 -1        81   12    0    1
 -2       565       567       566
 -1        82   12    0    1
 -2       567       569       568
 -1        83   12    0    1
 -2       569        25       570
 -1        84   12    0    1
 -2        18       572       571
 -1        85   12    0    1
 -2       572       574       573
 -1        86   12    0    1
 -2       574       576       575
 -1        87   12    0    1
 -2       576       578       577
 -1        88   12    0    1
 -2       578       580       579
 -1        89   12    0    1
 -2       580       582       581
 -1        90   12    0    1
 -2       582       584       583
 -1        91   12    0    1
 -2       584        19       585
 -1        92   12    0    1
 -2        18       587       586
 -1        93   12    0    1
 -2       587       589       588
 -1        94   12    0    1
 -2       589        25       590
 -1        95   12    0    1
 -2        18       592       591
 -1        96   12    0    1
 -2       592       594       593
 -1        97   12    0    1
 -2       594       596       595
 -1        98   12    0    1
 -2       596       598       597
 -1        99   12    0    1
 -2       598       600       599
 -1       100   12    0    1
 -2       600       602       601
 -1       101   12    0    1
 -2       602       604       603
 -1       102   12    0    1
 -2       604        26       605
 -1       103   12    0    1
 -2        19       607       606
 -1       104   12    0    1
 -2       607       609       608
 -1       105   12    0    1
 -2       609       611       610
 -1       106   12    0    1
 -2       611       613       612
 -1       107   12    0    1
 -2       613       615       614
 -1       108   12    0    1
 -2       615       617       616
 -1       109   12    0    1
 -2       617       619       618
 -1       110   12    0    1
 -2       619        20       620
 -1       111   12    0    1
 -2        19       622       621
 -1       112   12    0    1
 -2       622       624       623
 -1       113   12    0    1
 -2       624        26       625
 -1       114   12    0    1
 -2        19       627       626
 -1       115   12    0    1
 -2       627       629       628
 -1       116   12    0    1
 -2       629       631       630
 -1       117   12    0    1
 -2       631       633       632
 -1       118   12    0    1
 -2       633       635       634
 -1       119   12    0    1
 -2       635       637       636
 -1       120   12    0    1
 -2       637       639       638
 -1       121   12    0    1
 -2       639        27       640
 -1       122   12    0    1
 -2        20       657       656
 -1       123   12    0    1
 -2       657       659       658
 -1       124   12    0    1
 -2       659        27       660
 -1       125   12    0    1
 -2        20       662       661
 -1       126   12    0    1
 -2       662       664       663
 -1       127   12    0    1
 -2       664       666       665
 -1       128   12    0    1
 -2       666       668       667
 -1       129   12    0    1
 -2       668       670       669
 -1       130   12    0    1
 -2       670       672       671
 -1       131   12    0    1
 -2       672       674       673
 -1       132   12    0    1
 -2       674        28       675
 -1       133   12    0    1
 -2        21       677       676
 -1       134   12    0    1
 -2       677       679       678
 -1       135   12    0    1
 -2       679        28       680
 -1       136   12    0    1
 -2        24       772       771
 -1       137   12    0    1
 -2       772       774       773
 -1       138   12    0    1
 -2       774       776       775
 -1       139   12    0    1
 -2       776       778       777
 -1       140   12    0    1
 -2       778       780       779
 -1       141   12    0    1
 -2       780       782       781
 -1       142   12    0    1
 -2       782       784       783
 -1       143   12    0    1
 -2       784        32       785
 -1       144   12    0    1
 -2        25       787       786
 -1       145   12    0    1
 -2       787       789       788
 -1       146   12    0    1
 -2       789       791       790
 -1       147   12    0    1
 -2       791       793       792
 -1       148   12    0    1
 -2       793       795       794
 -1       149   12    0    1
 -2       795       797       796
 -1       150   12    0    1
 -2       797       799       798
 -1       151   12    0    1
 -2       799        26       800
 -1       152   12    0    1
 -2        25       802       801
 -1       153   12    0    1
 -2       802       804       803
 -1       154   12    0    1
 -2       804        32       805
 -1       155   12    0    1
 -2        25       807       806
 -1       156   12    0    1
 -2       807       809       808
 -1       157   12    0    1
 -2       809       811       810
 -1       158   12    0    1
 -2       811       813       812
 -1       159   12    0    1
 -2       813       815       814
 -1       160   12    0    1
 -2       815       817       816
 -1       161   12    0    1
 -2       817       819       818
 -1       162   12    0    1
 -2       819        33       820
 -1       163   12    0    1
 -2        26       822       821
 -1       164   12    0    1
 -2       822       824       823
 -1       165   12    0    1
 -2       824       826       825
 -1       166   12    0    1
 -2       826       828       827
 -1       167   12    0    1
 -2       828       830       829
 -1       168   12    0    1
 -2       830       832       831
 -1       169   12    0    1
 -2       832       834       833
 -1       170   12    0    1
 -2       834        27       835
 -1       171   12    0    1
 -2        26       837       836
 -1       172   12    0    1
 -2       837       839       838
 -1       173   12    0    1
 -2       839        33       840
 -1       174   12    0    1
 -2        27       857       856
 -1       175   12    0    1
 -2       857       859       858
 -1       176   12    0    1
 -2       859       861       860
 -1       177   12    0    1
 -2       861       863       862
 -1       178   12    0    1
 -2       863       865       864
 -1       179   12    0    1
 -2       865       867       866
 -1       180   12    0    1
 -2       867       869       868
 -1       181   12    0    1
 -2       869        28       870
 -1       182   12    0    1
 -2        27       872       871
 -1       183   12    0    1
 -2       872       874       873
 -1       184   12    0    1
 -2       874        34       875
 -1       185   12    0    1
 -2        27       877       876
 -1       186   12    0    1
 -2       877       879       878
 -1       187   12    0    1
 -2       879       881       880
 -1       188   12    0    1
 -2       881       883       882
 -1       189   12    0    1
 -2       883       885       884
 -1       190   12    0    1
 -2       885       887       886
 -1       191   12    0    1
 -2       887       889       888
 -1       192   12    0    1
 -2       889        35       890
 -1       193   12    0    1
 -2        28       892       891
 -1       194   12    0    1
 -2       892       894       893
 -1       195   12    0    1
 -2       894        35       895
 -1       196   12    0    1
 -2        33       957       956
 -1       197   12    0    1
 -2       957       959       958
 -1       198   12    0    1
 -2       959       961       960
 -1       199   12    0    1
 -2       961       963       962
 -1       200   12    0    1
 -2       963       965       964
 -1       201   12    0    1
 -2       965       967       966
 -1       202   12    0    1
 -2       967       969       968
 -1       203   12    0    1
 -2       969        34       970
 -1       204   12    0    1
 -2        34       972       971
 -1       205   12    0    1
 -2       972       974       973
 -1       206   12    0    1
 -2       974       976       975
 -1       207   12    0    1
 -2       976       978       977
 -1       208   12    0    1
 -2       978       980       979
 -1       209   12    0    1
 -2       980       982       981
 -1       210   12    0    1
 -2       982       984       983
 -1       211   12    0    1
 -2       984        35       985
 -3
    1PSTEP                         1           1           1          
  100CL  101 2.50000E-01         409                     0    1           1
 -4  DISP        4    1
 -5  D1          1    2    1    0
 -5  D2          1    2    2    0
 -5  D3          1    2    3    0
 -5  ALL         1    2    0    0    1ALL
 -1         1 6.52357E-05 0.00000E+00 0.00000E+00
 -1         2 6.02682E-05 2.04189E-29 1.65436E-24
 -1         3 5.54702E-05-2.69153E-27-3.30872E-24
 -1         5 4.00388E-05 4.87179E-26 0.00000E+00
 -1         8 5.20698E-05-4.68842E-07 0.00000E+00
 -1         9 5.28940E-05 3.09980E-07 0.00000E+00
 -1        10 5.14303E-05-7.59755E-07 1.65436E-24
 -1        12 3.97522E-05 2.72215E-07 0.00000E+00
 -1        15 3.64078E-05-5.01461E-07-2.06795E-25
 -1        16 3.76674E-05 2.49390E-07 0.00000E+00
 -1        17 3.83743E-05-1.59177E-06 0.00000E+00
 -1        18 3.83658E-05 7.42083E-08 0.00000E+00
 -1        19 3.88928E-05 5.42957E-07 0.00000E+00
 -1        20 3.89648E-05 8.10439E-06 0.00000E+00
 -1        21 3.86942E-05 1.53331E-05 0.00000E+00
 -1        24 9.81935E-06-2.11659E-06 0.00000E+00
 -1        25 3.74472E-05 1.36409E-07 0.00000E+00
 -1        26 3.79422E-05 7.56370E-07 0.00000E+00
 -1        27 3.71920E-05 6.89379E-06 0.00000E+00
 -1        28 3.69483E-05 1.51003E-05 0.00000E+00
 -1        32 0.00000E+00 0.00000E+00 0.00000E+00
 -1        33 3.63451E-05 1.01477E-06 0.00000E+00
 -1        34 3.56173E-05 6.88309E-06 0.00000E+00
 -1        35 3.49259E-05 1.49776E-05 0.00000E+00
 -1        51 6.43790E-05-7.81424E-08 0.00000E+00
 -1        52 6.27915E-05-1.53929E-07 0.00000E+00
 -1        53 6.06171E-05-2.29961E-07 0.00000E+00
 -1        54 5.80054E-05-3.06949E-07 0.00000E+00
 -1        55 5.51062E-05-3.85420E-07-1.03398E-24
 -1        56 6.46332E-05-3.64433E-07 0.00000E+00
 -1        57 6.40905E-05-9.55868E-07-6.61744E-24
 -1        58 6.36094E-05-1.70797E-06 1.32349E-23
 -1        59 6.31623E-05-2.56244E-06 0.00000E+00
 -1        60 6.27291E-05-3.45441E-06 0.00000E+00
 -1        61 6.22852E-05-4.32003E-06 0.00000E+00
 -1        62 6.18077E-05-5.09600E-06 0.00000E+00
 -1        63 6.12734E-05-5.72063E-06 1.32349E-23
 -1        64 6.06610E-05-6.13704E-06 0.00000E+00
 -1        65 5.99506E-05-6.29161E-06 1.32349E-23
 -1        66 5.91251E-05-6.13919E-06 0.00000E+00
 -1        67 5.81697E-05-5.63929E-06 1.32349E-23
 -1        68 5.70729E-05-4.76290E-06 0.00000E+00
 -1        69 5.58291E-05-3.48556E-06 0.00000E+00
 -1        70 5.44296E-05-1.79856E-06 1.32349E-23
 -1        86 6.00719E-05 5.52419E-08 0.00000E+00
 -1        87 5.94823E-05 1.10042E-07 0.00000E+00
 -1        88 5.84875E-05 1.64491E-07 8.27181E-25
 -1        89 5.70747E-05 2.16619E-07 0.00000E+00
 -1        90 5.52189E-05 2.68670E-07-1.65436E-24
 -1       121 5.53577E-05-1.26291E-07 0.00000E+00
 -1       122 5.50203E-05-2.52634E-07 1.65436E-24
 -1       123 5.44583E-05-3.79079E-07 3.30872E-24
 -1       124 5.36721E-05-5.05698E-07 0.00000E+00
 -1       125 5.26624E-05-6.32504E-07 0.00000E+00
 -1       191 4.00308E-05 4.53722E-08 0.00000E+00
 -1       192 4.00069E-05 9.07437E-08-1.65436E-24
 -1       193 3.99671E-05 1.36115E-07-1.65436E-24
 -1       194 3.99114E-05 1.81485E-07 0.00000E+00
 -1       195 3.98398E-05 2.26852E-07 0.00000E+00
 -1       251 5.21105E-05 1.69855E-06-1.65436E-24
 -1       252 5.21622E-05 2.99387E-06 5.16988E-26
 -1       253 5.22139E-05 3.56002E-06-8.27181E-25
 -1       254 5.22676E-05 3.53819E-06 0.00000E+00
 -1       255 5.23212E-05 3.05294E-06 0.00000E+00
 -1       256 5.23749E-05 2.22777E-06 0.00000E+00
 -1       257 5.24285E-05 1.17653E-06-1.65436E-24
 -1       258 5.24821E-05 1.25266E-08-8.27181E-25
 -1       259 5.25356E-05-1.15414E-06 0.00000E+00
 -1       260 5.25892E-05-2.21338E-06 8.27181E-25
 -1       261 5.26430E-05-3.05201E-06 0.00000E+00
 -1       262 5.26966E-05-3.55640E-06 0.00000E+00
 -1       263 5.27502E-05-3.60336E-06-8.27181E-25
 -1       264 5.28019E-05-3.06868E-06-1.03398E-25
 -1       265 5.28535E-05-1.81168E-06-1.65436E-24
 -1       266 4.94595E-05-4.80770E-07 0.00000E+00
 -1       267 4.68492E-05-4.85415E-07 0.00000E+00
 -1       268 4.42388E-05-4.90521E-07 0.00000E+00
 -1       269 4.16285E-05-4.94262E-07 2.06795E-25
 -1       270 3.90181E-05-4.97970E-07 2.06795E-25
 -1       271 5.04857E-05 1.47059E-06 1.32349E-23
 -1       272 4.91434E-05 2.69248E-06 1.32349E-23
 -1       273 4.80365E-05 3.29161E-06 2.64698E-23
 -1       274 4.71254E-05 3.35769E-06 0.00000E+00
 -1       275 4.63771E-05 2.98900E-06 0.00000E+00
 -1       276 4.57530E-05 2.28664E-06 0.00000E+00
 -1       277 4.52145E-05 1.35553E-06 2.64698E-23
 -1       278 4.47214E-05 3.02651E-07 0.00000E+00
 -1       279 4.42333E-05-7.63738E-07 0.00000E+00
 -1       280 4.37098E-05-1.73521E-06-1.32349E-23
 -1       281 4.31107E-05-2.50440E-06 2.64698E-23
 -1       282 4.23967E-05-2.96586E-06-1.32349E-23
 -1       283 4.15293E-05-3.01746E-06 2.64698E-23
 -1       284 4.04738E-05-2.56020E-06 1.32349E-23
 -1       285 3.91916E-05-1.50232E-06 0.00000E+00
 -1       301 5.03157E-05 2.96765E-07 0.00000E+00
 -1       302 4.77378E-05 2.91358E-07 0.00000E+00
 -1       303 4.51722E-05 2.86177E-07 0.00000E+00
 -1       304 4.26306E-05 2.80127E-07 0.00000E+00
 -1       305 4.01251E-05 2.72851E-07 0.00000E+00
 -1       306 5.12644E-05 2.18896E-06 0.00000E+00
 -1       307 4.98917E-05 3.30527E-06-1.32349E-23
 -1       308 4.87905E-05 3.70468E-06 2.64698E-23
 -1       309 4.79341E-05 3.43793E-06 0.00000E+00
 -1       310 4.72869E-05 2.61274E-06 0.00000E+00
 -1       311 4.68028E-05 1.34884E-06 1.32349E-23
 -1       312 4.64246E-05-1.98475E-07 0.00000E+00
 -1       313 4.60915E-05-1.86714E-06 0.00000E+00
 -1       314 4.57396E-05-3.48510E-06-2.64698E-23
 -1       315 4.53050E-05-4.88156E-06 1.32349E-23
 -1       316 4.47306E-05-5.90390E-06 0.00000E+00
 -1       317 4.39634E-05-6.40847E-06 0.00000E+00
 -1       318 4.29639E-05-6.29342E-06 0.00000E+00
 -1       319 4.17043E-05-5.47017E-06 1.32349E-23
 -1       320 4.01654E-05-3.91097E-06 0.00000E+00
 -1       336 4.99470E-05-8.97309E-07 0.00000E+00
 -1       337 4.81840E-05-1.03549E-06-1.65436E-24
 -1       338 4.61428E-05-1.17414E-06 3.30872E-24
 -1       339 4.38257E-05-1.31317E-06 1.65436E-24
 -1       340 4.12352E-05-1.45287E-06 3.30872E-24
 -1       406 3.96487E-05 3.17572E-07 0.00000E+00
 -1       407 3.95293E-05 3.62912E-07-8.27181E-25
 -1       408 3.93940E-05 4.08222E-07 0.00000E+00
 -1       409 3.92427E-05 4.53447E-07-8.27181E-25
 -1       410 3.90756E-05 4.98497E-07 0.00000E+00
 -1       521 3.54013E-05 1.64677E-06 0.00000E+00
 -1       522 3.34225E-05 2.13080E-06 2.64698E-23
 -1       523 3.17662E-05 1.76546E-06 0.00000E+00
 -1       524 3.03896E-05 6.27749E-07 0.00000E+00
 -1       525 2.92368E-05-1.10914E-06 0.00000E+00
 -1       526 2.82330E-05-3.24955E-06 0.00000E+00
 -1       527 2.72888E-05-5.55011E-06 5.29396E-23
 -1       528 2.63109E-05-7.76116E-06 0.00000E+00
 -1       529 2.52101E-05-9.64316E-06 0.00000E+00
 -1       530 2.39023E-05-1.09709E-05 0.00000E+00
 -1       531 2.23268E-05-1.15835E-05 0.00000E+00
 -1       532 2.04357E-05-1.13506E-05 0.00000E+00
 -1       533 1.82147E-05-1.02406E-05 5.29396E-23
 -1       534 1.56736E-05-8.25635E-06-2.64698E-23
 -1       535 1.28402E-05-5.50842E-06 0.00000E+00
 -1       536 3.83664E-05 1.07144E-06-1.65436E-24
 -1       537 3.83641E-05 3.07332E-06 0.00000E+00
 -1       538 3.83625E-05 4.48286E-06-4.13590E-25
 -1       539 3.83622E-05 5.36907E-06 0.00000E+00
 -1       540 3.83623E-05 5.80062E-06 0.00000E+00
 -1       541 3.83626E-05 5.84615E-06 0.00000E+00
 -1       542 3.83629E-05 5.57401E-06 0.00000E+00
 -1       543 3.83632E-05 5.05253E-06-8.07794E-28
 -1       544 3.83633E-05 4.34984E-06-1.29247E-26
 -1       545 3.83634E-05 3.53404E-06 0.00000E+00
 -1       546 3.83635E-05 2.67316E-06 0.00000E+00
 -1       547 3.83636E-05 1.83522E-06-2.58494E-26
 -1       548 3.83637E-05 1.08825E-06 5.16988E-26
 -1       549 3.83641E-05 5.00298E-07 5.16988E-26
 -1       550 3.83646E-05 1.39556E-07-2.06795E-25
 -1       551 3.45853E-05-1.67267E-06 0.00000E+00
 -1       552 3.00525E-05-1.75527E-06-1.24077E-24
 -1       553 2.50410E-05-1.84020E-06 0.00000E+00
 -1       554 1.98194E-05-1.92744E-06-3.30872E-24
 -1       555 1.46567E-05-2.01585E-06 0.00000E+00
 -1       556 3.73834E-05 9.81145E-07 6.61744E-24
 -1       557 3.66267E-05 2.94585E-06 0.00000E+00
 -1       558 3.60785E-05 4.35858E-06 0.00000E+00
 -1       559 3.57158E-05 5.28001E-06 0.00000E+00
 -1       560 3.55151E-05 5.77059E-06 0.00000E+00
 -1       561 3.54535E-05 5.89113E-06 0.00000E+00
 -1       562 3.55079E-05 5.70245E-06 0.00000E+00
 -1       563 3.56554E-05 5.26542E-06 0.00000E+00
 -1       564 3.58731E-05 4.64094E-06 0.00000E+00
 -1       565 3.61382E-05 3.88992E-06 0.00000E+00
 -1       566 3.64279E-05 3.07328E-06 0.00000E+00
 -1       567 3.67193E-05 2.25197E-06-2.06795E-25
 -1       568 3.69897E-05 1.48689E-06 0.00000E+00
 -1       569 3.72163E-05 8.38913E-07 0.00000E+00
 -1       570 3.73762E-05 3.68910E-07 0.00000E+00
 -1       571 3.83977E-05 1.24772E-07 4.13590E-25
 -1       572 3.84304E-05 1.53541E-07 3.10193E-25
 -1       573 3.84633E-05 1.64386E-07 4.13590E-25
 -1       574 3.84963E-05 1.61382E-07-4.13590E-25
 -1       575 3.85294E-05 1.48623E-07 0.00000E+00
 -1       576 3.85624E-05 1.30229E-07 0.00000E+00
 -1       577 3.85955E-05 1.10322E-07 0.00000E+00
 -1       578 3.86285E-05 9.30313E-08 8.27181E-25
 -1       579 3.86616E-05 8.24819E-08 0.00000E+00
 -1       580 3.86946E-05 8.28012E-08 8.27181E-25
 -1       581 3.87277E-05 9.81157E-08 0.00000E+00
 -1       582 3.87608E-05 1.32547E-07-1.65436E-24
 -1       583 3.87938E-05 1.90212E-07 0.00000E+00
 -1       584 3.88268E-05 2.75187E-07 0.00000E+00
 -1       585 3.88599E-05 3.91523E-07 0.00000E+00
 -1       586 3.82013E-05 8.52319E-08-8.27181E-25
 -1       587 3.80229E-05 9.59709E-08 0.00000E+00
 -1       588 3.78444E-05 1.06589E-07 0.00000E+00
 -1       589 3.76797E-05 1.17036E-07 0.00000E+00
 -1       590 3.75428E-05 1.27197E-07 0.00000E+00
 -1       591 3.83314E-05 1.41380E-07-5.16988E-26
 -1       592 3.83026E-05 1.90237E-07 0.00000E+00
 -1       593 3.82793E-05 2.24269E-07-2.06795E-25
 -1       594 3.82602E-05 2.46619E-07 0.00000E+00
 -1       595 3.82442E-05 2.60474E-07-4.13590E-25
 -1       596 3.82303E-05 2.68995E-07 1.03398E-25
 -1       597 3.82171E-05 2.75343E-07 0.00000E+00
 -1       598 3.82036E-05 2.82678E-07 1.03398E-25
 -1       599 3.81885E-05 2.94156E-07-2.06795E-25
 -1       600 3.81707E-05 3.12936E-07-1.03398E-25
 -1       601 3.81489E-05 3.42175E-07 0.00000E+00
 -1       602 3.81221E-05 3.85036E-07-5.16988E-26
 -1       603 3.80890E-05 4.44678E-07 0.00000E+00
 -1       604 3.80486E-05 5.24292E-07 0.00000E+00
 -1       605 3.79997E-05 6.27018E-07 0.00000E+00
 -1       606 3.88990E-05 7.69554E-07 0.00000E+00
 -1       607 3.89039E-05 1.04339E-06 0.00000E+00
 -1       608 3.89086E-05 1.36170E-06-1.65436E-24
 -1       609 3.89131E-05 1.72135E-06 0.00000E+00
 -1       610 3.89175E-05 2.11919E-06 1.65436E-24
 -1       611 3.89219E-05 2.55206E-06 0.00000E+00
 -1       612 3.89263E-05 3.01674E-06 0.00000E+00
 -1       613 3.89307E-05 3.51007E-06 0.00000E+00
 -1       614 3.89350E-05 4.02883E-06 0.00000E+00
 -1       615 3.89393E-05 4.56984E-06 0.00000E+00
 -1       616 3.89437E-05 5.12991E-06 0.00000E+00
 -1       617 3.89480E-05 5.70585E-06 0.00000E+00
 -1       618 3.89523E-05 6.29445E-06 4.13590E-25
 -1       619 3.89565E-05 6.89254E-06 0.00000E+00
 -1       620 3.89608E-05 7.49692E-06 0.00000E+00
 -1       621 3.87125E-05 5.78550E-07 0.00000E+00
 -1       622 3.85447E-05 6.14314E-07 0.00000E+00
 -1       623 3.83865E-05 6.50073E-07 8.27181E-25
 -1       624 3.82353E-05 6.85776E-07 0.00000E+00
 -1       625 3.80881E-05 7.21418E-07 0.00000E+00
 -1       626 3.88460E-05 7.80751E-07 1.65436E-24
 -1       627 3.87847E-05 1.05768E-06 0.00000E+00
 -1       628 3.87102E-05 1.37012E-06-1.65436E-24
 -1       629 3.86239E-05 1.71420E-06 1.65436E-24
 -1       630 3.85272E-05 2.08606E-06 0.00000E+00
 -1       631 3.84214E-05 2.48179E-06 0.00000E+00
 -1       632 3.83082E-05 2.89748E-06 1.65436E-24
 -1       633 3.81890E-05 3.32925E-06 0.00000E+00
 -1       634 3.80652E-05 3.77320E-06-1.65436E-24
 -1       635 3.79383E-05 4.22541E-06-8.27181E-25
 -1       636 3.78097E-05 4.68199E-06 8.27181E-25
 -1       637 3.76810E-05 5.13904E-06 0.00000E+00
 -1       638 3.75535E-05 5.59265E-06 8.27181E-25
 -1       639 3.74287E-05 6.03893E-06 0.00000E+00
 -1       640 3.73079E-05 6.47396E-06 0.00000E+00
 -1       656 3.84601E-05 7.90746E-06 0.00000E+00
 -1       657 3.81334E-05 7.70262E-06 0.00000E+00
 -1       658 3.79151E-05 7.49841E-06 0.00000E+00
 -1       659 3.77350E-05 7.29436E-06 0.00000E+00
 -1       660 3.75186E-05 7.08967E-06 0.00000E+00
 -1       661 3.87780E-05 8.69984E-06 0.00000E+00
 -1       662 3.86022E-05 9.27020E-06 0.00000E+00
 -1       663 3.84355E-05 9.81597E-06 8.27181E-25
 -1       664 3.82778E-05 1.03383E-05 0.00000E+00
 -1       665 3.81287E-05 1.08380E-05 8.27181E-25
 -1       666 3.79877E-05 1.13162E-05 4.13590E-25
 -1       667 3.78545E-05 1.17736E-05 0.00000E+00
 -1       668 3.77287E-05 1.22113E-05 0.00000E+00
 -1       669 3.76100E-05 1.26301E-05 0.00000E+00
 -1       670 3.74981E-05 1.30308E-05-4.13590E-25
 -1       671 3.73926E-05 1.34143E-05 8.27181E-25
 -1       672 3.72932E-05 1.37814E-05 0.00000E+00
 -1       673 3.71997E-05 1.41329E-05 8.27181E-25
 -1       674 3.71114E-05 1.44694E-05 0.00000E+00
 -1       675 3.70284E-05 1.47919E-05 2.06795E-25
 -1       676 3.84028E-05 1.52940E-05-8.27181E-25
 -1       677 3.81115E-05 1.52550E-05-4.13590E-25
 -1       678 3.78203E-05 1.52160E-05 0.00000E+00
 -1       679 3.75294E-05 1.51772E-05-4.13590E-25
 -1       680 3.72387E-05 1.51383E-05 0.00000E+00
 -1       771 7.87688E-06 1.55752E-06 0.00000E+00
 -1       772 6.18448E-06 4.55730E-06 1.32349E-23
 -1       773 4.73132E-06 6.92335E-06 0.00000E+00
 -1       774 3.50087E-06 8.69799E-06 0.00000E+00
 -1       775 2.47703E-06 9.92401E-06 2.64698E-23
 -1       776 1.64317E-06 1.06450E-05 0.00000E+00
 -1       777 9.82518E-07 1.09050E-05 0.00000E+00
 -1       778 4.78100E-07 1.07487E-05 0.00000E+00
 -1       779 1.12868E-07 1.02211E-05 0.00000E+00
 -1       780-1.30400E-07 9.36783E-06 0.00000E+00
 -1       781-2.68956E-07 8.23477E-06 1.32349E-23
 -1       782-3.20185E-07 6.86820E-06-6.61744E-24
 -1       783-3.01488E-07 5.31457E-06-1.32349E-23
 -1       784-2.30322E-07 3.62068E-06 0.00000E+00
 -1       785-1.24198E-07 1.83341E-06 0.00000E+00
 -1       786 3.74764E-05 1.37251E-07 4.13590E-25
 -1       787 3.75072E-05 1.38366E-07 0.00000E+00
 -1       788 3.75380E-05 1.40432E-07 0.00000E+00
 -1       789 3.75690E-05 1.44127E-07 0.00000E+00
 -1       790 3.76001E-05 1.50248E-07-8.27181E-25
 -1       791 3.76313E-05 1.59589E-07 0.00000E+00
 -1       792 3.76624E-05 1.73177E-07-8.27181E-25
 -1       793 3.76936E-05 1.92040E-07 0.00000E+00
 -1       794 3.77248E-05 2.17581E-07 0.00000E+00
 -1       795 3.77560E-05 2.51209E-07 0.00000E+00
 -1       796 3.77871E-05 2.94904E-07 0.00000E+00
 -1       797 3.78183E-05 3.50660E-07-4.13590E-25
 -1       798 3.78494E-05 4.21318E-07-8.27181E-25
 -1       799 3.78805E-05 5.09742E-07 4.13590E-25
 -1       800 3.79116E-05 6.20045E-07 0.00000E+00
 -1       801 3.49182E-05 1.39073E-07 4.13590E-25
 -1       802 2.73965E-05 1.17655E-07 0.00000E+00
 -1       803 1.75140E-05 7.74020E-08 0.00000E+00
 -1       804 7.90170E-06 3.60879E-08 0.00000E+00
 -1       805 1.18709E-06 1.73884E-08-6.61744E-24
 -1       806 3.74083E-05 1.16455E-07-8.27181E-25
 -1       807 3.73677E-05 9.66695E-08 4.13590E-25
 -1       808 3.73258E-05 7.94771E-08 0.00000E+00
 -1       809 3.72821E-05 6.69312E-08 0.00000E+00
 -1       810 3.72357E-05 6.10819E-08 1.65436E-24
 -1       811 3.71861E-05 6.39489E-08-4.13590E-25
 -1       812 3.71324E-05 7.75498E-08-8.27181E-25
 -1       813 3.70740E-05 1.03897E-07 4.13590E-25
 -1       814 3.70100E-05 1.45005E-07-1.65436E-24
 -1       815 3.69397E-05 2.02882E-07 0.00000E+00
 -1       816 3.68624E-05 2.79540E-07-8.27181E-25
 -1       817 3.67773E-05 3.76988E-07 0.00000E+00
 -1       818 3.66837E-05 4.97236E-07 8.27181E-25
 -1       819 3.65808E-05 6.42287E-07-8.27181E-25
 -1       820 3.64680E-05 8.14143E-07-8.27181E-25
 -1       821 3.78980E-05 9.22234E-07 0.00000E+00
 -1       822 3.78511E-05 1.12123E-06 0.00000E+00
 -1       823 3.78043E-05 1.35804E-06-1.65436E-24
 -1       824 3.77570E-05 1.63727E-06 8.27181E-25
 -1       825 3.77097E-05 1.95926E-06 1.65436E-24
 -1       826 3.76623E-05 2.32424E-06 0.00000E+00
 -1       827 3.76148E-05 2.72809E-06 0.00000E+00
 -1       828 3.75673E-05 3.16662E-06-8.27181E-25
 -1       829 3.75198E-05 3.63215E-06 0.00000E+00
 -1       830 3.74723E-05 4.11689E-06 0.00000E+00
 -1       831 3.74248E-05 4.61117E-06-1.65436E-24
 -1       832 3.73774E-05 5.10525E-06-8.27181E-25
 -1       833 3.73300E-05 5.58944E-06 0.00000E+00
 -1       834 3.72832E-05 6.05405E-06 0.00000E+00
 -1       835 3.72362E-05 6.49139E-06 0.00000E+00
 -1       836 3.77466E-05 7.99386E-07-8.27181E-25
 -1       837 3.74953E-05 8.43351E-07 0.00000E+00
 -1       838 3.72088E-05 8.87236E-07-8.27181E-25
 -1       839 3.69078E-05 9.30843E-07 4.13590E-25
 -1       840 3.66130E-05 9.74381E-07 0.00000E+00
 -1       856 3.71785E-05 7.30645E-06 0.00000E+00
 -1       857 3.71634E-05 7.77102E-06 0.00000E+00
 -1       858 3.71484E-05 8.27928E-06 0.00000E+00
 -1       859 3.71331E-05 8.82301E-06-2.06795E-25
 -1       860 3.71178E-05 9.39393E-06 0.00000E+00
 -1       861 3.71024E-05 9.98376E-06 0.00000E+00
 -1       862 3.70870E-05 1.05842E-05-4.13590E-25
 -1       863 3.70715E-05 1.11870E-05 0.00000E+00
 -1       864 3.70561E-05 1.17839E-05 0.00000E+00
 -1       865 3.70407E-05 1.23665E-05-2.06795E-25
 -1       866 3.70253E-05 1.29266E-05-4.13590E-25
 -1       867 3.70099E-05 1.34558E-05-2.06795E-25
 -1       868 3.69945E-05 1.39461E-05-4.13590E-25
 -1       869 3.69791E-05 1.43890E-05 2.06795E-25
 -1       870 3.69638E-05 1.47765E-05 0.00000E+00
 -1       871 3.68769E-05 6.89342E-06 0.00000E+00
 -1       872 3.66114E-05 6.89201E-06 0.00000E+00
 -1       873 3.63744E-05 6.89041E-06 0.00000E+00
 -1       874 3.61441E-05 6.88856E-06 7.75482E-26
 -1       875 3.58989E-05 6.88648E-06-3.10193E-25
 -1       876 3.70826E-05 7.31071E-06 0.00000E+00
 -1       877 3.69648E-05 7.75287E-06 0.00000E+00
 -1       878 3.68387E-05 8.21722E-06 0.00000E+00
 -1       879 3.67055E-05 8.70092E-06 0.00000E+00
 -1       880 3.65662E-05 9.20112E-06 0.00000E+00
 -1       881 3.64217E-05 9.71494E-06 8.27181E-25
 -1       882 3.62731E-05 1.02396E-05-1.65436E-24
 -1       883 3.61216E-05 1.07722E-05-8.27181E-25
 -1       884 3.59682E-05 1.13099E-05 1.65436E-24
 -1       885 3.58139E-05 1.18499E-05 0.00000E+00
 -1       886 3.56598E-05 1.23893E-05 0.00000E+00
 -1       887 3.55069E-05 1.29253E-05-8.27181E-25
 -1       888 3.53563E-05 1.34551E-05 8.27181E-25
 -1       889 3.52088E-05 1.39757E-05-4.13590E-25
 -1       890 3.50657E-05 1.44844E-05-8.27181E-25
 -1       891 3.66679E-05 1.50797E-05 4.13590E-25
 -1       892 3.63784E-05 1.50591E-05 0.00000E+00
 -1       893 3.60698E-05 1.50385E-05-4.13590E-25
 -1       894 3.57316E-05 1.50180E-05-1.03398E-25
 -1       895 3.53537E-05 1.49975E-05 3.10193E-25
 -1       956 3.63004E-05 1.27422E-06 8.27181E-25
 -1       957 3.62550E-05 1.56288E-06 4.13590E-25
 -1       958 3.62095E-05 1.87770E-06-8.27181E-25
 -1       959 3.61639E-05 2.21548E-06 0.00000E+00
 -1       960 3.61183E-05 2.57300E-06 0.00000E+00
 -1       961 3.60726E-05 2.94703E-06 4.13590E-25
 -1       962 3.60270E-05 3.33432E-06-8.27181E-25
 -1       963 3.59813E-05 3.73165E-06-8.27181E-25
 -1       964 3.59356E-05 4.13577E-06 0.00000E+00
 -1       965 3.58900E-05 4.54345E-06 8.27181E-25
 -1       966 3.58443E-05 4.95144E-06-1.65436E-24
 -1       967 3.57986E-05 5.35652E-06 0.00000E+00
 -1       968 3.57530E-05 5.75544E-06 0.00000E+00
 -1       969 3.57075E-05 6.14497E-06-8.27181E-25
 -1       970 3.56621E-05 6.52190E-06 0.00000E+00
 -1       971 3.55746E-05 7.25412E-06-8.27181E-25
 -1       972 3.55314E-05 7.66368E-06 8.27181E-25
 -1       973 3.54880E-05 8.10750E-06-8.27181E-25
 -1       974 3.54446E-05 8.58118E-06-8.27181E-25
 -1       975 3.54011E-05 9.08026E-06-8.27181E-25
 -1       976 3.53577E-05 9.60031E-06-8.27181E-25
 -1       977 3.53142E-05 1.01369E-05 0.00000E+00
 -1       978 3.52707E-05 1.06856E-05 8.27181E-25
 -1       979 3.52272E-05 1.12419E-05-1.65436E-24
 -1       980 3.51837E-05 1.18015E-05-8.27181E-25
 -1       981 3.51402E-05 1.23598E-05 0.00000E+00
 -1       982 3.50968E-05 1.29124E-05-8.27181E-25
 -1       983 3.50534E-05 1.34549E-05 0.00000E+00
 -1       984 3.50102E-05 1.39829E-05 8.27181E-25
 -1       985 3.49672E-05 1.44919E-05 0.00000E+00
 -3
    1PSTEP                         2           1           1          
  100CL  101 2.50000E-01         409                     0    1           1
 -4  STRESS      6    1
 -5  SXX         1    4    1    1
 -5  SYY         1    4    2    2
 -5  SZZ         1    4    3    3
 -5  SXY         1    4    1    2
 -5  SYZ         1    4    2    3
 -5  SZX         1    4    3    1
 -1         1-8.63907E+05-3.98586E+05-1.75233E+05-5.58306E+05 1.69166E-10-7.05768E-10
 -1         2 1.44472E+03 1.59913E+05 4.70696E+03 2.67226E+02-7.94245E-11-3.85134E-09
 -1         3-1.82469E+01-3.61014E+05 8.30028E+01-6.58685E+01-7.34008E-11-4.67298E-09
 -1         5-2.14229E+00 1.29814E+05 3.39838E+00-5.15091E-02 5.43642E-11 5.06634E-09
 -1         8-4.07008E+05-1.77336E+05-1.38783E+04-3.08515E+05 9.36780E-11 4.59477E-09
 -1         9-6.98528E+05-1.82665E+05-6.93968E+04-2.42747E+05 1.82772E-09 2.76486E-09
 -1        10-2.67822E+02-3.76104E+05-4.78212E+02-4.36363E+02-1.72554E-09-1.26340E-08
 -1        12-7.47251E-01 1.29821E+05 1.10155E+02-1.07162E-01 1.22439E-10 2.11003E-09
 -1        15 1.07553E+03 5.91057E+02 3.47662E+03 1.21404E+00-1.32139E-08-5.27180E-06
 -1        16-1.96249E+06-6.33009E+05-3.05149E+05-6.44101E+05 5.94931E-09-1.49400E-09
 -1        17-4.32370E+05-2.68017E+05-8.30971E+04-2.53405E+05-3.16577E-09 3.22325E-09
 -1        18 1.64886E+04 1.64396E+03-5.90961E+03-3.05808E+04 4.27974E-10-8.86303E-10
 -1        19 4.06933E+04 4.84994E+04-2.27853E+02 8.00805E+03-2.94403E-10-2.02017E-09
 -1        20-1.68352E+04-1.92344E+05-4.24058E+04 1.43489E+04 1.77480E-09-9.39205E-10
 -1        21-1.82305E+01-1.11628E+05-3.60584E+02-2.23087E+01-2.83890E-09-1.23173E-08
 -1        24-1.72164E+06-6.03025E+05-2.45941E+05-7.35749E+05-8.31885E-09-3.62585E-09
 -1        25 1.47012E+04-3.72324E+03 8.67909E+03-5.51397E+04 1.94177E-10-1.38680E-09
 -1        26-9.54784E+03 3.30489E+04-6.74583E+03-4.63853E+03 8.55289E-10 1.13723E-09
 -1        27-3.07447E+04-1.05536E+05-3.95796E+04 2.37852E+04 2.78302E-09-1.58540E-09
 -1        28 8.62020E+03-3.08365E+04 6.29966E+03 9.89942E+03 1.91669E-09-3.20090E-09
 -1        32-4.13013E+05-6.52489E+04 1.76669E+05-2.77032E+05-8.01811E-09 7.61592E-09
 -1        33-6.03988E+04 3.10729E+04 1.10137E+04-1.79259E+04 6.42274E-10 8.13846E-10
 -1        34-7.83860E+04-7.80458E+03 1.86057E+02 2.41033E+04 2.02281E-09-2.23001E-09
 -1        35-8.77269E+03-1.22677E+04-4.77740E+02 1.94403E+04 3.98328E-09 1.69681E-09
 -1        51 8.24139E+03-2.04643E+05 1.98530E+04-5.03528E+05 2.18279E-11 3.92902E-09
 -1        52 3.99437E+03-2.02592E+05 1.30353E+04-5.87269E+05 2.72848E-10-4.58022E-09
 -1        53 2.40205E+03-2.07359E+05 1.13525E+04-5.01825E+05 3.12866E-10-2.29920E-09
 -1        54 7.88659E+03-2.05268E+05 1.82958E+04-5.89086E+05-1.16415E-10-5.51518E-09
 -1        55 1.81377E+04-2.11868E+05 3.29158E+04-5.01616E+05 6.69388E-10 3.28873E-09
 -1        56-1.65949E+06-1.87755E+05-1.29607E+05-6.40154E+05-6.56655E-10-2.90311E-09
 -1        57-1.71218E+06-3.04314E+05-8.73496E+04-6.34464E+05 4.56566E-10 5.69707E-09
 -1        58-1.68526E+06-2.29057E+05-3.05154E+04-6.32355E+05 1.09139E-10 6.12090E-09
 -1        59-1.68238E+06-2.55895E+05-1.82172E+04-6.43836E+05-9.01537E-11 1.65164E-09
 -1        60-1.68905E+06-2.34793E+05-7.13387E+03-6.31279E+05-8.29004E-10 2.15232E-09
 -1        61-1.67827E+06-2.48901E+05-4.05757E+03-6.44766E+05 1.33457E-09-1.41569E-09
 -1        62-1.68932E+06-2.35877E+05-1.95510E+03-6.31481E+05-6.08338E-10 8.32500E-10
 -1        63-1.67860E+06-2.47157E+05-1.61163E+03-6.43822E+05 7.94671E-11 7.09088E-09
 -1        64-1.68870E+06-2.36532E+05-1.84669E+03-6.32214E+05-8.96307E-10 4.40764E-09
 -1        65-1.68061E+06-2.46311E+05-3.70628E+03-6.41868E+05 1.65585E-10-2.23736E-09
 -1        66-1.68728E+06-2.36760E+05-6.51016E+03-6.33408E+05-4.62705E-10 2.34695E-09
 -1        67-1.68654E+06-2.50401E+05-1.65341E+04-6.38405E+05 2.80522E-11 9.48603E-10
 -1        68-1.68278E+06-2.32620E+05-2.77415E+04-6.35603E+05-6.09361E-11 4.05635E-10
 -1        69-1.71551E+06-2.92461E+05-7.93198E+04-6.27710E+05 1.97133E-10-2.26464E-09
 -1        70-1.65852E+06-1.95955E+05-1.17748E+05-6.43647E+05 2.74667E-10 1.54250E-09
 -1        86-7.23811E+02 1.58513E+05 5.05319E+03-1.33620E+02 6.54836E-10 9.53747E-10
 -1        87 4.80649E+03 1.61549E+05 1.05282E+04 5.46807E+02 1.08525E-09-2.35934E-09
 -1        88-4.07566E+03 1.56878E+05 1.61343E+04-4.13200E+02 1.60253E-09 1.34168E-09
 -1        89 3.03759E+04 1.73445E+05 4.34886E+04 1.16545E+03 2.49429E-09-3.00247E-10
 -1        90-2.62094E+04 1.46622E+05 6.14521E+04-7.52080E+02 2.79761E-09-1.21435E-09
 -1       121-3.46431E+01-3.61131E+05 8.29799E+01 3.29149E+01 1.81558E-10-1.65437E-09
 -1       122 9.03519E+00-3.60995E+05 1.81872E+02-1.31885E+02-6.77415E-10 4.58749E-09
 -1       123-5.46918E+01-3.61150E+05 2.99053E+02 9.88564E+01 5.49647E-10 4.63297E-09
 -1       124 3.44673E+02-3.60788E+05 7.64487E+02-3.26949E+02-1.29347E-09 5.57020E-09
 -1       125-2.73410E+02-3.61340E+05 1.17699E+03 2.28001E+02 7.98536E-10-4.68754E-09
 -1       191-2.36190E+00 1.29825E+05 4.07808E+00 2.55946E-02 8.39294E-11-1.04865E-09
 -1       192-2.45418E+00 1.29814E+05 7.19511E+00 1.57065E-01 1.25767E-10-4.94742E-09
 -1       193-3.19147E+00 1.29825E+05 1.33970E+01-1.83783E-01 1.52971E-10-1.99452E-09
 -1       194-3.45808E+00 1.29815E+05 2.72154E+01 4.94769E-01 7.35234E-11 1.00954E-10
 -1       195-4.78614E+00 1.29824E+05 5.32519E+01-3.14121E-01 2.31950E-10 8.83574E-10
 -1       251 1.43058E+05-2.53684E+04 5.93098E+04 2.15003E+03 9.47011E-11 2.83399E-09
 -1       252 1.69618E+05 2.93649E+04 4.20030E+04-7.51031E+03-1.36680E-10-2.01953E-09
 -1       253 1.53166E+05-3.92923E+03 1.53541E+04 1.62183E+03-2.25100E-11-3.98359E-09
 -1       254 1.57752E+05 4.54277E+03 9.68365E+03-6.67109E+03 1.94063E-10-5.40012E-09
 -1       255 1.54891E+05-6.07486E+02 3.96737E+03 1.31093E+03-1.50322E-10 1.98429E-09
 -1       256 1.55702E+05 7.19760E+02 2.40756E+03-6.21025E+03-1.69074E-10 5.50247E-09
 -1       257 1.55200E+05-1.06555E+02 1.24106E+03 1.16097E+03 2.04430E-10 3.72324E-12
 -1       258 1.55388E+05 2.23298E+02 1.10069E+03-6.05845E+03-3.37473E-10 4.12741E-09
 -1       259 1.55200E+05-1.08817E+02 1.26245E+03 1.15913E+03-1.37426E-10 2.85087E-09
 -1       260 1.55710E+05 7.39596E+02 2.46844E+03-6.20342E+03 3.18117E-10-4.85699E-09
 -1       261 1.54883E+05-6.24841E+02 4.07857E+03 1.30594E+03 6.21043E-10-1.09003E-09
 -1       262 1.57811E+05 4.67370E+03 9.95824E+03-6.65635E+03 1.60981E-10-1.11061E-09
 -1       263 1.53114E+05-4.04205E+03 1.57968E+04 1.61208E+03-5.21197E-10 2.16733E-09
 -1       264 1.70004E+05 3.02096E+04 4.32060E+04-7.48670E+03-8.67487E-10 1.91221E-09
 -1       265 1.42724E+05-2.60965E+04 6.10207E+04 2.13616E+03-4.58840E-10-2.87400E-10
 -1       266-1.94708E+04-9.10517E+03 4.56810E+04-2.59758E+01-2.07383E-08-8.29529E-06
 -1       267 2.25718E+04 1.06113E+04 3.22882E+04 2.99725E+01-4.09618E-08-1.63942E-05
 -1       268-3.02685E+03-1.50291E+03 1.20013E+04-3.81889E+00-3.28978E-08-1.31480E-05
 -1       269 3.57381E+03 1.79860E+03 7.80073E+03 4.44856E+00-2.47637E-08-9.90974E-06
 -1       270-5.36433E+02-2.95527E+02 3.76552E+03-6.03677E-01-1.82423E-08-7.29926E-06
 -1       271-1.91281E+06-2.37683E+05-1.47079E+05-7.43902E+05 2.41926E-10 3.15777E-09
 -1       272-1.95253E+06-3.58185E+05-9.45790E+04-7.57831E+05-1.16381E-09-4.33101E-09
 -1       273-1.94047E+06-2.74335E+05-3.47395E+04-7.37396E+05 6.23004E-10 8.73115E-10
 -1       274-1.92037E+06-3.13121E+05-1.94645E+04-7.67742E+05 4.15639E-10 6.03359E-09
 -1       275-1.94456E+06-2.77862E+05-8.08117E+03-7.35963E+05-1.57343E-10 3.46063E-09
 -1       276-1.91557E+06-3.08936E+05-4.30273E+03-7.70032E+05-1.81444E-10 2.12549E-09
 -1       277-1.94541E+06-2.77907E+05-2.10397E+03-7.35436E+05 9.29276E-10 4.90559E-10
 -1       278-1.91474E+06-3.08806E+05-1.53159E+03-7.70664E+05 1.95735E-09 1.45047E-09
 -1       279-1.94546E+06-2.77898E+05-1.64246E+03-7.35405E+05 7.05086E-10-1.91767E-09
 -1       280-1.91530E+06-3.08811E+05-3.00974E+03-7.70181E+05 3.18323E-11-3.35342E-09
 -1       281-1.94479E+06-2.77970E+05-5.49661E+03-7.35862E+05-6.04359E-10 1.18007E-09
 -1       282-1.91880E+06-3.11319E+05-1.31356E+04-7.68241E+05 6.35737E-10 2.73531E-09
 -1       283-1.94181E+06-2.75842E+05-2.34288E+04-7.37081E+05-9.77707E-10-1.56797E-09
 -1       284-1.94096E+06-3.41101E+05-6.37141E+04-7.60836E+05-2.43745E-10-3.13321E-09
 -1       285-1.92281E+06-2.51543E+05-9.91385E+04-7.41870E+05 2.67391E-10-6.54836E-11
 -1       301 7.33932E+03-4.64643E+03 5.73877E+04-1.42746E+04-5.47516E-10-3.56835E-10
 -1       302 7.87878E+03 9.92616E+03 4.14458E+04-2.09906E+04 1.13391E-09 2.69364E-09
 -1       303 3.29868E+02 5.07493E+02 3.81583E+04-1.42960E+04-4.89308E-10-5.89398E-09
 -1       304 1.48777E+04 1.63791E+04 6.41948E+04-2.09354E+04 4.15639E-10-1.09834E-08
 -1       305 1.47495E+04-1.10694E+04 1.07724E+05-1.42995E+04-4.40195E-10 8.54243E-10
 -1       306-2.06384E+06-2.36046E+05-1.57194E+05-8.03067E+05 1.50612E-09-1.78989E-09
 -1       307-2.13863E+06-3.75287E+05-1.07205E+05-7.83195E+05 1.33105E-09-5.34055E-09
 -1       308-2.09863E+06-2.85768E+05-3.69780E+04-7.89348E+05 8.79936E-10-1.54978E-09
 -1       309-2.09628E+06-3.19519E+05-2.24327E+04-8.01768E+05 9.34108E-10 9.24047E-10
 -1       310-2.10603E+06-2.90857E+05-8.67601E+03-7.84846E+05-4.78700E-10-2.19188E-09
 -1       311-2.08688E+06-3.14522E+05-5.04259E+03-8.08141E+05 2.70552E-09-2.15550E-10
 -1       312-2.10806E+06-2.90589E+05-2.46345E+03-7.83066E+05 4.02437E-10-1.62578E-09
 -1       313-2.08512E+06-3.14531E+05-2.22283E+03-8.09651E+05-2.04876E-09 1.70121E-09
 -1       314-2.10781E+06-2.90817E+05-2.66813E+03-7.83357E+05-1.78574E-09-4.14514E-09
 -1       315-2.08789E+06-3.13791E+05-5.63892E+03-8.07010E+05-3.15822E-10 3.19301E-09
 -1       316-2.10525E+06-2.91375E+05-9.80049E+03-7.85670E+05 3.12176E-09 6.47105E-10
 -1       317-2.09877E+06-3.19257E+05-2.53866E+04-7.99579E+05 1.02943E-09 1.66983E-09
 -1       318-2.09690E+06-2.85547E+05-4.18627E+04-7.90691E+05-1.76533E-09 6.51744E-09
 -1       319-2.14639E+06-3.82828E+05-1.21402E+05-7.79069E+05-2.52112E-09-3.09046E-09
 -1       320-2.05783E+06-2.28869E+05-1.77967E+05-8.05797E+05 4.03816E-09 7.42148E-10
 -1       336 2.93882E+02-3.90948E+05-2.06932E+03 2.08189E+02-3.38753E-09 2.59934E-09
 -1       337-7.41775E+02-3.91549E+05-2.26795E+03-5.87329E+02-6.27364E-09-2.26555E-09
 -1       338 1.94822E+02-3.91010E+05-2.84195E+03 3.78333E+02-4.51871E-09 2.99679E-09
 -1       339-2.93770E+03-3.92889E+05-6.22904E+03-9.25203E+02-8.30812E-09 5.75938E-09
 -1       340 2.01016E+03-3.89618E+05-9.58875E+03 5.44335E+02-5.44469E-09 5.30417E-09
 -1       406 7.68008E+00 1.29819E+05 2.17495E+02 4.16671E-01 3.23269E-10-1.92813E-10
 -1       407 7.50775E+01 1.29859E+05 4.62238E+02-5.65554E+00 5.65024E-11-2.95722E-09
 -1       408 2.37193E+02 1.29786E+05 9.23225E+02 5.28769E+00 3.45835E-10-4.42469E-10
 -1       409 9.97555E+02 1.30154E+05 2.07850E+03-4.74487E+01-9.00400E-11-2.93960E-09
 -1       410 2.86750E+03 1.29523E+05 4.24325E+03 4.30718E+01 3.57431E-10-2.29306E-09
 -1       521-3.88767E+06-4.47697E+05-2.90906E+05-1.51036E+06 3.78350E-09-4.91855E-09
 -1       522-4.02703E+06-6.99865E+05-1.97743E+05-1.47276E+06-8.88576E-10-2.79215E-09
 -1       523-3.95241E+06-5.37709E+05-6.83941E+04-1.48460E+06-5.19321E-10-1.31331E-09
 -1       524-3.94826E+06-5.98667E+05-4.12841E+04-1.50753E+06 8.86757E-10 1.53204E-09
 -1       525-3.96595E+06-5.46694E+05-1.59843E+04-1.47634E+06 1.14142E-10 1.06047E-09
 -1       526-3.93214E+06-5.88665E+05-9.22043E+03-1.51781E+06 1.35918E-09 1.77579E-09
 -1       527-3.96852E+06-5.47333E+05-4.42578E+03-1.47447E+06 1.54000E-09 4.38149E-10
 -1       528-3.93219E+06-5.85200E+05-3.79484E+03-1.51645E+06-6.00153E-10 8.58620E-11
 -1       529-3.96585E+06-5.50148E+05-4.44462E+03-1.47769E+06-2.03454E-09 9.43146E-10
 -1       530-3.94188E+06-5.78425E+05-9.08487E+03-1.50584E+06-3.47882E-10-2.09184E-10
 -1       531-3.95868E+06-5.54248E+05-1.59369E+04-1.48496E+06 5.69003E-10 1.54705E-09
 -1       532-3.96509E+06-5.81216E+05-4.09094E+04-1.48756E+06-1.01340E-09-1.82263E-09
 -1       533-3.94268E+06-5.47712E+05-6.78870E+04-1.49583E+06-1.21872E-10-3.43789E-09
 -1       534-4.04566E+06-6.79779E+05-1.96244E+05-1.45130E+06 7.74889E-10 2.12640E-09
 -1       535-3.87882E+06-4.57724E+05-2.88601E+05-1.52062E+06-6.04632E-09 4.78758E-09
 -1       536-4.20152E+03-1.10686E+04 2.55169E+04 2.66257E+02-1.34830E-09 4.46380E-09
 -1       537 7.46030E+03 1.28083E+04 1.81543E+04-1.00999E+03-4.48414E-09 3.42720E-09
 -1       538 1.55496E+02-1.73457E+03 6.58670E+03 2.42906E+02-3.87956E-11 9.60426E-10
 -1       539 2.33316E+03 2.00319E+03 4.18979E+03-9.82551E+02 2.15518E-09 1.57991E-09
 -1       540 9.21168E+02-2.69992E+02 1.66597E+03 2.38823E+02 6.52712E-10 2.49770E-09
 -1       541 1.40398E+03 3.09427E+02 9.87421E+02-9.76603E+02-1.00792E-09 3.38669E-09
 -1       542 1.08203E+03-4.02195E+01 4.01950E+02 2.36953E+02-7.86397E-10 5.48337E-09
 -1       543 1.19404E+03 3.94197E+01 2.02783E+02-9.73746E+02 1.00724E-09 1.14973E-09
 -1       544 1.12943E+03 1.03959E+00 3.71351E+01 2.35965E+02-1.00469E-10-8.45041E-10
 -1       545 1.11725E+03-4.34653E+01-9.99688E+01-9.72543E+02-4.75012E-10 2.00747E-09
 -1       546 1.15807E+03 4.31615E+01-2.44295E+02 2.35750E+02 1.75883E-10-2.35812E-09
 -1       547 9.86570E+02-3.21253E+02-6.52505E+02-9.72836E+02-1.01791E-09-1.24322E-09
 -1       548 1.26026E+03 2.78516E+02-1.06010E+03 2.36258E+02-1.16838E-09-2.84206E-09
 -1       549 2.28801E+02-2.05387E+03-2.89543E+03-9.74069E+02-5.57941E-10 6.61544E-10
 -1       550 1.91694E+03 1.77365E+03-4.12104E+03 2.36983E+02-4.67892E-11 4.79758E-10
 -1       551 2.97867E+03-2.06460E+05 1.16049E+04-3.54336E+05-1.59143E-08-1.31695E-09
 -1       552 5.83898E+03-2.05795E+05 1.48396E+04-5.04111E+05-1.14378E-08 7.03039E-09
 -1       553 3.57781E+03-2.08513E+05 2.31335E+04-3.53226E+05-1.89430E-08 4.13092E-09
 -1       554 1.69033E+04-1.97805E+05 4.91090E+04-5.04591E+05-1.14305E-08 2.89128E-09
 -1       555 1.78836E+04-2.17987E+05 8.83664E+04-3.53734E+05-1.85428E-08-2.57205E-09
 -1       556 2.80189E+04-6.54642E+04 2.29914E+04-8.83108E+04-3.21961E-09-1.89175E-10
 -1       557 5.46639E+04-8.79881E+04 1.20058E+04-1.10218E+05 1.45519E-10 1.91358E-09
 -1       558 2.84932E+04-6.88503E+04 4.95466E+03-8.53609E+04-1.76806E-09-1.00772E-09
 -1       559 5.17057E+04-9.13409E+04 2.48122E+03-1.11366E+05 2.61389E-09-1.93859E-09
 -1       560 2.81390E+04-6.85962E+04 1.07791E+03-8.55453E+04 1.89902E-09-1.03137E-09
 -1       561 5.09954E+04-9.12534E+04 5.49013E+02-1.11806E+05 1.81899E-12 1.90425E-09
 -1       562 2.78203E+04-6.83671E+04 2.30445E+02-8.57800E+04 7.47968E-09-5.44537E-09
 -1       563 5.06030E+04-9.10880E+04 1.27146E+02-1.12056E+05 1.21072E-08-1.27533E-08
 -1       564 2.76208E+04-6.82339E+04 4.80581E+01-8.59241E+04 8.62929E-09-5.88398E-09
 -1       565 5.04021E+04-9.10041E+04 2.01261E+01-1.12180E+05 2.17597E-09 2.51384E-09
 -1       566 2.75539E+04-6.81865E+04-1.77713E+01-8.59745E+04 1.49339E-09-5.36238E-09
 -1       567 5.03698E+04-9.09877E+04-6.76302E+01-1.12167E+05 4.23825E-10-1.19348E-08
 -1       568 2.76368E+04-6.82428E+04-1.68644E+02-8.59473E+04-6.36646E-10-1.64709E-09
 -1       569 5.01673E+04-9.08754E+04-3.99864E+02-1.11728E+05-1.86265E-09-1.05501E-09
 -1       570 2.81506E+04-6.87622E+04-8.11687E+02-8.60397E+04 7.14863E-10 9.74978E-10
 -1       571 9.42419E+04 3.40247E+03 5.03862E+03-2.36561E+04 1.47566E-10 1.25647E-09
 -1       572 9.49933E+04 1.18369E+03 2.46835E+03-2.59310E+04-2.11912E-10 1.86810E-09
 -1       573 9.45474E+04 2.82231E+02 1.09652E+03-2.35943E+04 7.82848E-10 5.38648E-10
 -1       574 9.46375E+04 9.10330E+01 5.49229E+02-2.60004E+04 8.55380E-10 5.55929E-10
 -1       575 9.45835E+04 1.16713E+01 2.58819E+02-2.35861E+04 8.75957E-10 4.26348E-09
 -1       576 9.45900E+04 2.14092E+00 1.31655E+02-2.60097E+04-1.57479E-09 5.71845E-10
 -1       577 9.45888E+04-2.91127E+00 6.48209E+01-2.35850E+04-3.00724E-09-2.11207E-09
 -1       578 9.45842E+04-1.74851E+00 3.52675E+01-2.60108E+04-2.38117E-09-3.42629E-09
 -1       579 9.45921E+04-2.60229E+00 2.15886E+01-2.35850E+04 1.28239E-10-1.11231E-09
 -1       580 9.45879E+04-2.56533E+00 2.00838E+01-2.60093E+04 8.64929E-10 4.63274E-09
 -1       581 9.45971E+04-3.34744E+00 2.74208E+01-2.35865E+04 9.45420E-10 1.38448E-09
 -1       582 9.45992E+04 2.10622E+00 5.20842E+01-2.59951E+04 3.72893E-11 8.27640E-10
 -1       583 9.46017E+04 1.70435E+01 1.00374E+02-2.35992E+04-3.03771E-10 3.62058E-09
 -1       584 9.46415E+04 9.67681E+01 2.24699E+02-2.58898E+04-9.37462E-10 1.25226E-09
 -1       585 9.45832E+04 2.96497E+02 4.57018E+02-2.36919E+04 5.47516E-10-8.40373E-10
 -1       586-1.20293E+03 3.05999E+04-1.58232E+03-8.05794E+04 2.70575E-10-4.65207E-10
 -1       587-2.77842E+02 3.03903E+04-2.04233E+02-8.86712E+04 4.22915E-10-4.86307E-09
 -1       588 3.04136E+02 3.04317E+04 1.05987E+03-8.05303E+04 2.52840E-10 9.61109E-10
 -1       589 1.58657E+03 3.10110E+04 3.12436E+03-8.85976E+04 4.04725E-10 1.80285E-09
 -1       590 4.59001E+03 3.00287E+04 6.70598E+03-8.06531E+04 2.01453E-10 7.68068E-10
 -1       591-2.09133E+04-5.79215E+03-6.88518E+03-1.07419E+04 1.57542E-10 3.65071E-09
 -1       592-2.15809E+04-7.60719E+03-3.74795E+03-1.25210E+04-8.86757E-10 3.10456E-09
 -1       593-2.16292E+04-5.36850E+03-1.55683E+03-1.12117E+04 1.32292E-09 4.14434E-09
 -1       594-2.06085E+04-6.58441E+03-7.77664E+02-1.25719E+04 2.07987E-09 6.38195E-09
 -1       595-2.16837E+04-5.36907E+03-3.57025E+02-1.12339E+04-1.24948E-09-3.22524E-09
 -1       596-2.05418E+04-6.53624E+03-1.82091E+02-1.25653E+04 1.68200E-10 5.34612E-10
 -1       597-2.16905E+04-5.37347E+03-1.00255E+02-1.12348E+04 1.96192E-10 9.89616E-10
 -1       598-2.05356E+04-6.53428E+03-8.26751E+01-1.25635E+04-3.18323E-12-7.45842E-10
 -1       599-2.16901E+04-5.37340E+03-1.08163E+02-1.12347E+04 4.71584E-09-3.37002E-09
 -1       600-2.05429E+04-6.53678E+03-2.03099E+02-1.25654E+04 9.76820E-09 1.18121E-09
 -1       601-2.16819E+04-5.36843E+03-4.01552E+02-1.12334E+04 4.44595E-09 6.42956E-10
 -1       602-2.06183E+04-6.59093E+03-8.76744E+02-1.25723E+04 2.28050E-09 1.34537E-09
 -1       603-2.16199E+04-5.36846E+03-1.75578E+03-1.12086E+04 1.06775E-09-4.61955E-09
 -1       604-2.17187E+04-7.74065E+03-4.22730E+03-1.25100E+04 9.50422E-11-8.73115E-11
 -1       605-2.08081E+04-5.84948E+03-7.76561E+03-1.06826E+04-1.03682E-10 9.89075E-10
 -1       606 1.34807E+04-4.52991E+03-8.16214E+03 1.32028E+04-1.86310E-09-8.14907E-10
 -1       607 1.20831E+04-1.46101E+03-4.06453E+03 1.48209E+04-1.15688E-09-1.00920E-09
 -1       608 1.28817E+04-2.45351E+02-1.81956E+03 1.30974E+04-9.73159E-11 8.38554E-10
 -1       609 1.27258E+04-6.60003E+01-9.19251E+02 1.49375E+04-2.56659E-09 1.77249E-09
 -1       610 1.28142E+04 9.63346E+00-4.38671E+02 1.30856E+04-4.79486E-09 1.09560E-09
 -1       611 1.27868E+04 1.26088E+01-2.21411E+02 1.49503E+04-4.61387E-09-3.04897E-09
 -1       612 1.27996E+04 1.38246E+01-1.05689E+02 1.30845E+04-1.93004E-08 6.53358E-10
 -1       613 1.27907E+04 1.37780E+01-4.83052E+01 1.49518E+04-3.94687E-08-1.29080E-09
 -1       614 1.27928E+04 1.17302E+01-1.33956E+01 1.30840E+04-8.99854E-09 2.91084E-09
 -1       615 1.27891E+04 1.41607E+01 1.49011E+01 1.49521E+04 2.35220E-08 1.45235E-09
 -1       616 1.27877E+04 1.25976E+01 4.96802E+01 1.30842E+04 8.18682E-09-7.14522E-10
 -1       617 1.27949E+04 2.50702E+01 1.15113E+02 1.49519E+04-7.02130E-10-9.50877E-10
 -1       618 1.27774E+04 4.60282E+01 2.32785E+02 1.30842E+04-7.50788E-10-1.35276E-09
 -1       619 1.28769E+04 2.05351E+02 5.23173E+02 1.49516E+04-8.89202E-10-5.95833E-10
 -1       620 1.26998E+04 5.98672E+02 1.05174E+03 1.30840E+04 2.74440E-10-1.26101E-09
 -1       621 1.63167E+02 1.02439E+05 1.40465E+03 3.37102E+03-1.33964E-10 7.33962E-10
 -1       622 1.86281E+02 1.02786E+05 1.18914E+03 4.91995E+03-1.50862E-10-8.30738E-10
 -1       623 8.23336E+00 1.02540E+05 1.36360E+03 3.35574E+03-1.21062E-10 4.79031E-09
 -1       624 6.16531E+02 1.03182E+05 2.58602E+03 4.93433E+03-1.63482E-10 5.94537E-09
 -1       625 6.18625E+02 1.02042E+05 4.49406E+03 3.35674E+03-6.00267E-11 4.65575E-09
 -1       626 8.45894E+04 2.34805E+04 1.68885E+03 4.57873E+04 1.43018E-10-1.80989E-09
 -1       627 8.34266E+04 2.43370E+04 8.13416E+02 4.76449E+04-1.20963E-09-2.65482E-09
 -1       628 8.46578E+04 2.26794E+04 3.43881E+02 4.60435E+04 6.88487E-10 1.52227E-09
 -1       629 8.31870E+04 2.41440E+04 1.68365E+02 4.77597E+04 2.07524E-09 1.51036E-09
 -1       630 8.46655E+04 2.26396E+04 7.80191E+01 4.60524E+04 3.11502E-10 4.90417E-10
 -1       631 8.31607E+04 2.41384E+04 4.18470E+01 4.77634E+04-1.35151E-09 1.18897E-09
 -1       632 8.46640E+04 2.26411E+04 2.77011E+01 4.60503E+04-2.83853E-09 9.97886E-10
 -1       633 8.31568E+04 2.41401E+04 3.08531E+01 4.77618E+04-2.07717E-09 3.47211E-09
 -1       634 8.46608E+04 2.26406E+04 5.00155E+01 4.60491E+04 1.93131E-09-6.74618E-10
 -1       635 8.31599E+04 2.41404E+04 1.01418E+02 4.77624E+04 2.07660E-09 2.88765E-10
 -1       636 8.46559E+04 2.26400E+04 2.04934E+02 4.60478E+04-6.60293E-10 1.43393E-09
 -1       637 8.32016E+04 2.41731E+04 4.50462E+02 4.77603E+04 6.88047E-10 1.06729E-09
 -1       638 8.46375E+04 2.27408E+04 9.25939E+02 4.60012E+04 2.27487E-10-4.27235E-10
 -1       639 8.36846E+04 2.48510E+04 2.19057E+03 4.76155E+04 2.53226E-09 4.27667E-09
 -1       640 8.45707E+04 2.47584E+04 4.54626E+03 4.51445E+04-5.45697E-12 1.12618E-09
 -1       656 2.29433E+04-5.80757E+05-5.54016E+04-4.99292E+02 7.27596E-11 2.48325E-09
 -1       657-3.03146E+04-6.05788E+05-4.58163E+04 3.81105E+03 2.88765E-10 6.14883E-09
 -1       658 7.27305E+03-5.87903E+05-2.81172E+04-7.81821E+02 6.12147E-10-2.16264E-10
 -1       659-3.24969E+04-6.06812E+05-4.86822E+04 3.99629E+03 1.29148E-10-8.92502E-10
 -1       660 2.51193E+04-5.79734E+05-6.03380E+04-6.84520E+02-4.36557E-11 2.50190E-09
 -1       661 8.27098E+04 8.97335E+03 7.92431E+03 3.22749E+04 1.02273E-09 1.63982E-09
 -1       662 8.68046E+04 1.52208E+04 5.33962E+03 3.09330E+04 6.94939E-10-4.25985E-10
 -1       663 8.42589E+04 1.15225E+04 1.86785E+03 3.18312E+04-1.06297E-09-1.27807E-09
 -1       664 8.50147E+04 1.22342E+04 1.11662E+03 3.14695E+04-6.63064E-10-3.36627E-10
 -1       665 8.44881E+04 1.18763E+04 4.40528E+02 3.17699E+04-5.57321E-10-3.98704E-09
 -1       666 8.47484E+04 1.18247E+04 2.56791E+02 3.15456E+04-4.33067E-09-1.58779E-09
 -1       667 8.45238E+04 1.19213E+04 1.35432E+02 3.17590E+04 7.59428E-10-2.59525E-09
 -1       668 8.47128E+04 1.17857E+04 1.35533E+02 3.15597E+04 2.00030E-09-5.23110E-09
 -1       669 8.45234E+04 1.19143E+04 1.81652E+02 3.17562E+04 2.48939E-09-6.13767E-10
 -1       670 8.47639E+04 1.18764E+04 3.93632E+02 3.15533E+04 2.99781E-09 2.62997E-09
 -1       671 8.44729E+04 1.18325E+04 6.98425E+02 3.17646E+04-7.82720E-10-2.11307E-09
 -1       672 8.51761E+04 1.25507E+04 1.78640E+03 3.14491E+04-2.93114E-09-1.08923E-09
 -1       673 8.41135E+04 1.12571E+04 2.99360E+03 3.18539E+04-9.95101E-10 1.23566E-09
 -1       674 8.80310E+04 1.73555E+04 8.56144E+03 3.06062E+04-2.28701E-09 1.14335E-09
 -1       675 8.16367E+04 7.16217E+03 1.27074E+04 3.25571E+04 1.30944E-09-1.71894E-09
 -1       676 9.35421E+00-1.11598E+05-4.34593E+02 1.11546E+01 1.17751E-10-1.66990E-09
 -1       677-1.15361E+02-1.11703E+05-7.95315E+02-2.23082E+01-7.85249E-10-6.96564E-09
 -1       678 7.70149E+01-1.11523E+05-1.40589E+03 1.11458E+01-6.64841E-10 4.33970E-10
 -1       679-1.40601E+03-1.12551E+05-3.33950E+03-2.22655E+01-3.41993E-09-5.03407E-10
 -1       680 8.39014E+02-1.10749E+05-5.38222E+03 1.09836E+01-9.06311E-10-2.24729E-09
 -1       771-1.20096E+06-2.08275E+05-2.90873E+04-4.96863E+05-4.69299E-09-4.21278E-09
 -1       772-1.19331E+06-2.24803E+05-1.56586E+04-5.15265E+05-3.03589E-09 1.20781E-09
 -1       773-1.20469E+06-2.05395E+05-6.66733E+03-4.98491E+05-1.00772E-09 2.01362E-09
 -1       774-1.18901E+06-2.21227E+05-3.27110E+03-5.16618E+05 3.36149E-09-5.79348E-10
 -1       775-1.20534E+06-2.05025E+05-1.59352E+03-4.98583E+05-8.29459E-10 4.00178E-10
 -1       776-1.18884E+06-2.21170E+05-7.50785E+02-5.17182E+05-2.91038E-10 6.15273E-10
 -1       777-1.20573E+06-2.04764E+05-4.27291E+02-4.98614E+05 6.33008E-10 7.08496E-10
 -1       778-1.18892E+06-2.21239E+05-2.01315E+02-5.17643E+05 1.29512E-09 1.95405E-09
 -1       779-1.20603E+06-2.04540E+05-1.78379E+02-4.98640E+05-1.46974E-09-1.35060E-09
 -1       780-1.18902E+06-2.21306E+05-1.56505E+02-5.18016E+05-8.84029E-10 2.36469E-11
 -1       781-1.20624E+06-2.04357E+05-2.73410E+02-4.98656E+05-3.53975E-09-6.57110E-10
 -1       782-1.18913E+06-2.21383E+05-5.21273E+02-5.18292E+05-5.84259E-09-1.33787E-09
 -1       783-1.20636E+06-2.04241E+05-1.04043E+03-4.98655E+05-1.19780E-09-2.07439E-09
 -1       784-1.18980E+06-2.22080E+05-2.47438E+03-5.18432E+05-3.05772E-09-1.41313E-10
 -1       785-1.20598E+06-2.04510E+05-4.57261E+03-4.98325E+05-5.18639E-09 5.53428E-10
 -1       786 8.70498E+04-4.65793E+03 1.07754E+04 2.35789E+00 3.69134E-08 9.00400E-10
 -1       787 9.17191E+04 5.39239E+03 7.62358E+03-9.64274E+00 7.29520E-08 1.45656E-09
 -1       788 8.88513E+04-7.30179E+02 2.78890E+03 2.75189E+00 1.26188E-07-3.65389E-10
 -1       789 8.96205E+04 8.44855E+02 1.75228E+03-1.10451E+01 1.79890E-07 7.83302E-09
 -1       790 8.91486E+04-1.14063E+02 7.12931E+02 3.76030E+00 2.63091E-07-4.19931E-10
 -1       791 8.92736E+04 1.32512E+02 4.18496E+02-1.38165E+01 3.46517E-07 4.31306E-09
 -1       792 8.91983E+04-1.83690E+01 1.90828E+02 5.52333E+00 4.99133E-07-7.28668E-09
 -1       793 8.92174E+04 2.57163E+01 1.24706E+02-1.83552E+01 6.52826E-07 3.84894E-09
 -1       794 8.92048E+04-7.33686E+00 9.18566E+01 8.29911E+00 9.61144E-07-4.68752E-09
 -1       795 8.92227E+04 3.76580E+01 1.32120E+02-2.53176E+01 1.26750E-06 5.73330E-09
 -1       796 8.91931E+04-3.03025E+01 1.97459E+02 1.24858E+01 6.33913E-07-7.94461E-09
 -1       797 8.93121E+04 2.22080E+02 4.65201E+02-3.57025E+01 2.06916E-09 2.32086E-09
 -1       798 8.91153E+04-1.91623E+02 7.34220E+02 1.86842E+01-1.11590E-10-1.67844E-09
 -1       799 8.98626E+04 1.41483E+03 2.00146E+03-5.11004E+01-3.74426E-10-1.88231E-09
 -1       800 8.86425E+04-1.22209E+03 2.82734E+03 2.78838E+01-4.92650E-11 2.72985E-09
 -1       801-4.60502E+03 8.97933E+03 8.33434E+03 9.21260E+03 5.11636E-09 1.57570E-10
 -1       802 1.28580E+04 4.00103E+04 2.46656E+04-3.79268E+04 1.36833E-08-2.73371E-09
 -1       803-8.00043E+03 1.89183E+04 3.25856E+04 8.87678E+03 1.08030E-08 9.46353E-09
 -1       804 6.29015E+04 6.58714E+04 9.01523E+04-3.82519E+04 1.27784E-08 1.14499E-08
 -1       805-5.46525E+04-1.67909E+04 1.19438E+05 9.53712E+03 4.54747E-09 1.19018E-08
 -1       806-1.02766E+05-2.20073E+04-8.72336E+03-4.27879E+04-4.58726E-10 9.55424E-10
 -1       807-1.03280E+05-2.07579E+04-4.28556E+03-4.51008E+04 6.81496E-10-3.41686E-10
 -1       808-1.03014E+05-1.88557E+04-1.81800E+03-4.42679E+04 3.87513E-09 8.37635E-09
 -1       809-1.02365E+05-1.95680E+04-8.88793E+02-4.52246E+04 1.21150E-09-3.22530E-10
 -1       810-1.03053E+05-1.87443E+04-4.06959E+02-4.43333E+04 1.23885E-09 3.19892E-09
 -1       811-1.02296E+05-1.95208E+04-2.01842E+02-4.52147E+04 7.47946E-10 3.76167E-09
 -1       812-1.03060E+05-1.87522E+04-1.00682E+02-4.43335E+04 2.96723E-09 8.66544E-09
 -1       813-1.02287E+05-1.95219E+04-6.35528E+01-4.52099E+04 1.30967E-10-2.83563E-09
 -1       814-1.03060E+05-1.87548E+04-5.95367E+01-4.43325E+04 8.00355E-11-6.72003E-10
 -1       815-1.02289E+05-1.95227E+04-9.33474E+01-4.52092E+04 1.25056E-10 1.68143E-09
 -1       816-1.03055E+05-1.87534E+04-1.74822E+02-4.43317E+04-2.70575E-09-5.31304E-09
 -1       817-1.02320E+05-1.95392E+04-3.75118E+02-4.52072E+04 2.00896E-09-6.39261E-10
 -1       818-1.03034E+05-1.88053E+04-7.64348E+02-4.43074E+04 3.39242E-10-1.98838E-09
 -1       819-1.02743E+05-1.99980E+04-1.79938E+03-4.51063E+04-1.57968E-09 2.54147E-09
 -1       820-1.02889E+05-2.01654E+04-3.66181E+03-4.37279E+04 1.47793E-10 2.69779E-09
 -1       821-1.32249E+05 7.37193E+03-1.70513E+04-1.20835E+00-3.25858E-10-6.70298E-10
 -1       822-1.39637E+05-8.53425E+03-1.20655E+04-9.35138E+01-1.55038E-09 4.37240E-10
 -1       823-1.35100E+05 1.15566E+03-4.41632E+03-2.48047E+01 1.12779E-09-1.43086E-09
 -1       824-1.36315E+05-1.33762E+03-2.77933E+03-4.29944E+01-7.01673E-10 2.19916E-09
 -1       825-1.35570E+05 1.80963E+02-1.14159E+03-5.17295E+01-1.38685E-09 2.05512E-09
 -1       826-1.35769E+05-2.13416E+02-6.90622E+02 8.45874E+00-2.12868E-09 1.33620E-09
 -1       827-1.35646E+05 3.22775E+01-3.55973E+02-7.62589E+01-2.77477E-09-1.39059E-09
 -1       828-1.35693E+05-6.51555E+01-3.15921E+02 5.00383E+01 2.85981E-08 3.33319E-09
 -1       829-1.35645E+05 3.28165E+01-3.60693E+02-9.33098E+01 9.39728E-06-4.59148E-09
 -1       830-1.35773E+05-2.17998E+02-7.04779E+02 7.31367E+01 1.87047E-05-4.21286E-09
 -1       831-1.35567E+05 1.85027E+02-1.16642E+03-9.93578E+01-1.15894E-06-4.59409E-10
 -1       832-1.36332E+05-1.36779E+03-2.84210E+03 7.31442E+01-2.10160E-05 1.01259E-08
 -1       833-1.35086E+05 1.18177E+03-4.51587E+03-9.33170E+01-1.05562E-05 1.20701E-08
 -1       834-1.39728E+05-8.72718E+03-1.23384E+04 5.09179E+01-3.40134E-08 3.93788E-09
 -1       835-1.32171E+05 7.53860E+03-1.74369E+04-7.71289E+01 2.35421E-09 2.07547E-09
 -1       836-4.39674E+02 1.25925E+05 7.52924E+03-1.08840E+04 8.96080E-10-4.20005E-09
 -1       837 1.65198E+03 1.28259E+05 6.43768E+03-2.18801E+04 1.32297E-09-2.85308E-09
 -1       838-1.65723E+02 1.26575E+05 6.65355E+03-1.08456E+04 1.16779E-09 3.11610E-09
 -1       839 4.27003E+03 1.30217E+05 1.26797E+04-2.18945E+04 1.55524E-09 2.29539E-09
 -1       840-1.28963E+03 1.23958E+05 2.02580E+04-1.08691E+04 1.11868E-09-3.00838E-09
 -1       856-4.18369E+04 3.56393E+03-9.39067E+03-1.96708E+02-1.05311E-09-1.84082E-09
 -1       857-4.57171E+04-4.18090E+03-6.46568E+03 2.15979E+03-9.96238E-10 2.45200E-09
 -1       858-4.33699E+04 4.99596E+02-2.43710E+03-2.02509E+02-1.60193E-09 9.45988E-10
 -1       859-4.39555E+04-5.82241E+02-1.47217E+03 2.16878E+03 5.77103E-10 5.53158E-09
 -1       860-4.35993E+04 6.96476E+01-6.18999E+02-2.05742E+02 5.59140E-10-4.05936E-09
 -1       861-4.36907E+04-7.86001E+01-3.44963E+02 2.17313E+03-3.26673E-09-1.98749E-09
 -1       862-4.36351E+04 9.38929E+00-1.52221E+02-2.06864E+02 1.98531E-09-3.36846E-09
 -1       863-4.36485E+04-7.61605E+00-7.54796E+01 2.17364E+03 5.62995E-09-5.62182E-09
 -1       864-4.36416E+04 1.85296E-01-2.40834E+01-2.06250E+02 2.42518E-09 4.51340E-10
 -1       865-4.36369E+04 8.58863E+00 1.29646E+01 2.17042E+03 2.18873E-09 4.03439E-09
 -1       866-4.36463E+04-6.81048E+00 4.95382E+01-2.03644E+02-1.30231E-09-1.72356E-09
 -1       867-4.36088E+04 5.77837E+01 1.36315E+02 2.16339E+03 4.85215E-10 2.79340E-09
 -1       868-4.36689E+04-4.82997E+01 2.30726E+02-1.99221E+02 9.03327E-10 1.19432E-09
 -1       869-4.34375E+04 4.02241E+02 6.18632E+02 2.15104E+03-6.82462E-10-4.68837E-09
 -1       870-4.38165E+04-3.42154E+02 8.98263E+02-1.91300E+02-7.28164E-11-1.18860E-09
 -1       871-1.92211E+03-4.02506E+03-6.29895E+03 4.13016E+04 1.22691E-09 9.80435E-10
 -1       872-8.29405E+02-5.43062E+03-2.56516E+03 5.35433E+04 2.48679E-09 7.79596E-09
 -1       873-9.86196E+00-4.76223E+03 3.76575E+02 4.12096E+04 1.76203E-09 4.50666E-09
 -1       874 9.84853E+02-3.84535E+03 3.59710E+03 5.35629E+04 2.64640E-09 4.56367E-09
 -1       875 2.32111E+03-5.62316E+03 7.97292E+03 4.12843E+04 5.37966E-10 2.79215E-09
 -1       876 1.03528E+05 1.78260E+04 5.55319E+03 4.19837E+04-2.72283E-09-3.11411E-09
 -1       877 1.03843E+05 1.90460E+04 2.96542E+03 4.36288E+04-2.19734E-09-1.67324E-09
 -1       878 1.04048E+05 1.72104E+04 1.24245E+03 4.24393E+04 1.68188E-09-2.45257E-09
 -1       879 1.03088E+05 1.82941E+04 6.18845E+02 4.36696E+04 2.01396E-10-1.28097E-10
 -1       880 1.04087E+05 1.72028E+04 2.88147E+02 4.24579E+04-1.49828E-09-2.34900E-09
 -1       881 1.03038E+05 1.82624E+04 1.53396E+02 4.36629E+04 1.62385E-09-1.21570E-09
 -1       882 1.04091E+05 1.72069E+04 9.74012E+01 4.24584E+04-1.79693E-09-1.07743E-09
 -1       883 1.03035E+05 1.82610E+04 1.03474E+02 4.36613E+04-7.10585E-09 6.43203E-09
 -1       884 1.04089E+05 1.72055E+04 1.63527E+02 4.24585E+04-4.28017E-09-9.14326E-11
 -1       885 1.03048E+05 1.82634E+04 3.28114E+02 4.36656E+04 3.07256E-09-6.91841E-10
 -1       886 1.04076E+05 1.71959E+04 6.61027E+02 4.24572E+04 8.07439E-10 1.69052E-10
 -1       887 1.03164E+05 1.83395E+04 1.44388E+03 4.36820E+04-1.89539E-09-1.16813E-09
 -1       888 1.03985E+05 1.72123E+04 2.90953E+03 4.24111E+04 7.90436E-10-1.45519E-10
 -1       889 1.04898E+05 2.01395E+04 6.95098E+03 4.36262E+04 2.51829E-09 9.33369E-11
 -1       890 1.02798E+05 1.86213E+04 1.30183E+04 4.13022E+04 1.84218E-09 3.58796E-10
 -1       891-6.07111E+01-5.88968E+04-6.92357E+02 1.12076E+04 4.38831E-10-3.93584E-10
 -1       892-1.06009E+02-5.90659E+04-7.54615E+02 1.69654E+04 1.28694E-10 1.06348E-09
 -1       893-1.27707E+01-5.89209E+04-1.07925E+03 1.12095E+04 3.63798E-12-5.31190E-09
 -1       894-5.81437E+02-5.94870E+04-2.24243E+03 1.69057E+04 5.08862E-10-4.09273E-10
 -1       895-4.51947E+02-5.84597E+04-3.95075E+03 1.12668E+04 1.26636E-09 1.46338E-09
 -1       956-1.29993E+05-1.87463E+03-4.71859E+03 8.59815E+03-1.73804E-09 3.20938E-10
 -1       957-1.30924E+05-6.33889E+02-2.42255E+03 1.03478E+04 2.56932E-11-8.73570E-10
 -1       958-1.30409E+05-5.18350E+01-1.09123E+03 8.54255E+03 8.30369E-10-3.30783E-09
 -1       959-1.30482E+05-1.18940E+01-5.57490E+02 1.04079E+04-7.59769E-10 3.52475E-09
 -1       960-1.30444E+05 1.27501E+01-2.71638E+02 8.53755E+03-2.63071E-09 1.91278E-09
 -1       961-1.30448E+05 1.02536E+01-1.44088E+02 1.04134E+04-3.94243E-09-2.72348E-09
 -1       962-1.30450E+05 9.81249E+00-8.22363E+01 8.53697E+03-8.93692E-10 1.85651E-09
 -1       963-1.30445E+05 1.00515E+01-6.56725E+01 1.04142E+04-5.74005E-10-9.88223E-10
 -1       964-1.30451E+05 1.02394E+01-7.92066E+01 8.53676E+03-6.32838E-10-1.69393E-09
 -1       965-1.30449E+05 1.12544E+01-1.36440E+02 1.04142E+04 7.71847E-10-2.13475E-09
 -1       966-1.30447E+05 1.39822E+01-2.55796E+02 8.53701E+03-8.25139E-10 1.03557E-09
 -1       967-1.30484E+05-8.53300E+00-5.24474E+02 1.04111E+04 6.55177E-10 2.33030E-09
 -1       968-1.30416E+05-4.57736E+01-1.02616E+03 8.53989E+03-9.51786E-10-1.47386E-09
 -1       969-1.30902E+05-5.92589E+02-2.27834E+03 1.03761E+04-1.15278E-09-7.42261E-10
 -1       970-1.30026E+05-1.75943E+03-4.43746E+03 8.57274E+03 1.42006E-09-2.11230E-09
 -1       971-1.23589E+05-6.54491E+02-3.63916E+03 6.10448E+03-3.33580E-09 2.95769E-09
 -1       972-1.24474E+05-4.71608E+02-1.98223E+03 8.51302E+03-1.65517E-09 1.73941E-09
 -1       973-1.23991E+05-5.80508E+00-8.87214E+02 6.05506E+03-4.10182E-10 2.18597E-09
 -1       974-1.24051E+05-8.41791E+00-4.59776E+02 8.56587E+03-5.97538E-10-2.35411E-09
 -1       975-1.24020E+05 9.58045E+00-2.29077E+02 6.05128E+03 4.40878E-10-7.89726E-10
 -1       976-1.24023E+05 9.15932E+00-1.31245E+02 8.57015E+03-1.45451E-09 1.06616E-09
 -1       977-1.24025E+05 8.38884E+00-9.33449E+01 6.05075E+03 1.60492E-09-8.60837E-10
 -1       978-1.24023E+05 1.04140E+01-1.06782E+02 8.57088E+03 5.18619E-09 2.53021E-09
 -1       979-1.24024E+05 1.07568E+01-1.69326E+02 6.05056E+03 2.77572E-09 1.22867E-09
 -1       980-1.24035E+05 1.12274E+01-3.25545E+02 8.57092E+03 2.51606E-09-2.32546E-10
 -1       981-1.24014E+05 1.89334E+01-6.29668E+02 6.05071E+03 2.29932E-10 2.37856E-09
 -1       982-1.24122E+05-3.48360E+01-1.30103E+03 8.56873E+03-7.41409E-10-1.56319E-12
 -1       983-1.23935E+05-2.06641E+01-2.52749E+03 6.05280E+03 1.85696E-09 2.09320E-09
 -1       984-1.25339E+05-1.35358E+03-5.65976E+03 8.53519E+03-1.54660E-09 4.38104E-09
 -1       985-1.22792E+05-1.86934E+03-1.03931E+04 6.08563E+03 2.08297E-09 3.87854E-09
 -3
    1PSTEP                         3           2           1          
  100CL  102 3.12500E-01         409                     0    2           1
 -4  DISP        4    1
 -5  D1          1    2    1    0
 -5  D2          1    2    2    0
 -5  D3          1    2    3    0
 -5  ALL         1    2    0    0    1ALL
 -1         1 8.16621E-05 0.00000E+00 0.00000E+00
 -1         2 7.53878E-05 1.29511E-29 0.00000E+00
 -1         3 6.96202E-05-4.43701E-27 3.30872E-24
 -1         5 5.01421E-05 2.64554E-26 0.00000E+00
 -1         8 6.51887E-05-5.91543E-07 0.00000E+00
 -1         9 6.62403E-05 3.93725E-07 0.00000E+00
 -1        10 6.45255E-05-9.52253E-07 3.30872E-24
 -1        12 4.97872E-05 3.40506E-07 1.65436E-24
 -1        15 4.55887E-05-6.38523E-07 2.06795E-25
 -1        16 4.71603E-05 3.12473E-07 0.00000E+00
 -1        17 4.81098E-05-1.99908E-06 0.00000E+00
 -1        18 4.80638E-05 1.35219E-07 0.00000E+00
 -1        19 4.87228E-05 6.79153E-07 0.00000E+00
 -1        20 4.88123E-05 1.00938E-05 0.00000E+00
 -1        21 4.84756E-05 1.90908E-05 1.65436E-24
 -1        24 1.22977E-05-2.67569E-06 0.00000E+00
 -1        25 4.69288E-05 2.13148E-07 0.00000E+00
 -1        26 4.75494E-05 9.46069E-07 0.00000E+00
 -1        27 4.66106E-05 8.58003E-06 0.00000E+00
 -1        28 4.63056E-05 1.87998E-05 0.00000E+00
 -1        32 0.00000E+00 0.00000E+00 0.00000E+00
 -1        33 4.55668E-05 1.26912E-06 0.00000E+00
 -1        34 4.46567E-05 8.56656E-06 0.00000E+00
 -1        35 4.37918E-05 1.86462E-05 0.00000E+00
 -1        51 8.05904E-05-9.81364E-08 0.00000E+00
 -1        52 7.86042E-05-1.93468E-07 0.00000E+00
 -1        53 7.58837E-05-2.89322E-07 0.00000E+00
 -1        54 7.26159E-05-3.86608E-07 0.00000E+00
 -1        55 6.89883E-05-4.85930E-07-3.20532E-24
 -1        56 8.09133E-05-4.65317E-07 0.00000E+00
 -1        57 8.02464E-05-1.23339E-06 0.00000E+00
 -1        58 7.96620E-05-2.21715E-06 0.00000E+00
 -1        59 7.91236E-05-3.33843E-06 0.00000E+00
 -1        60 7.86037E-05-4.50953E-06 2.64698E-23
 -1        61 7.80691E-05-5.64375E-06 1.32349E-23
 -1        62 7.74885E-05-6.65548E-06 2.64698E-23
 -1        63 7.68308E-05-7.46179E-06 0.00000E+00
 -1        64 7.60682E-05-7.98794E-06 0.00000E+00
 -1        65 7.51747E-05-8.16466E-06-1.32349E-23
 -1        66 7.41294E-05-7.93673E-06-2.64698E-23
 -1        67 7.29150E-05-7.25668E-06 1.32349E-23
 -1        68 7.15198E-05-6.09560E-06 0.00000E+00
 -1        69 6.99402E-05-4.43224E-06 0.00000E+00
 -1        70 6.81703E-05-2.26904E-06 1.32349E-23
 -1        86 7.51469E-05 7.03902E-08 0.00000E+00
 -1        87 7.44238E-05 1.40190E-07 0.00000E+00
 -1        88 7.31997E-05 2.09466E-07-8.27181E-25
 -1        89 7.14543E-05 2.75695E-07 0.00000E+00
 -1        90 6.91482E-05 3.41606E-07 3.30872E-24
 -1       121 6.94782E-05-1.58195E-07 0.00000E+00
 -1       122 6.90525E-05-3.16471E-07 0.00000E+00
 -1       123 6.83434E-05-4.74908E-07-3.30872E-24
 -1       124 6.73518E-05-6.33611E-07 0.00000E+00
 -1       125 6.60787E-05-7.92614E-07-6.61744E-24
 -1       191 5.01323E-05 5.67552E-08-3.30872E-24
 -1       192 5.01027E-05 1.13509E-07 0.00000E+00
 -1       193 5.00534E-05 1.70263E-07 0.00000E+00
 -1       194 4.99844E-05 2.27014E-07 0.00000E+00
 -1       195 4.98957E-05 2.83763E-07 0.00000E+00
 -1       251 6.52404E-05 2.11594E-06 0.00000E+00
 -1       252 6.53062E-05 3.72338E-06 0.00000E+00
 -1       253 6.53723E-05 4.41718E-06 0.00000E+00
 -1       254 6.54409E-05 4.38099E-06 8.27181E-25
 -1       255 6.55094E-05 3.77203E-06 0.00000E+00
 -1       256 6.55781E-05 2.74585E-06 0.00000E+00
 -1       257 6.56464E-05 1.44277E-06 1.65436E-24
 -1       258 6.57147E-05 2.33515E-09 8.27181E-25
 -1       259 6.57830E-05-1.44098E-06 0.00000E+00
 -1       260 6.58513E-05-2.75267E-06 0.00000E+00
 -1       261 6.59200E-05-3.79342E-06-1.65436E-24
 -1       262 6.59884E-05-4.42316E-06-8.27181E-25
 -1       263 6.60570E-05-4.48679E-06 0.00000E+00
 -1       264 6.61231E-05-3.82759E-06 1.03398E-25
 -1       265 6.61889E-05-2.26263E-06 0.00000E+00
 -1       266 6.19221E-05-6.07488E-07 3.30872E-24
 -1       267 5.86554E-05-6.14329E-07 0.00000E+00
 -1       268 5.53887E-05-6.21747E-07 8.27181E-25
 -1       269 5.21220E-05-6.27456E-07 2.06795E-25
 -1       270 4.88554E-05-6.33125E-07 0.00000E+00
 -1       271 6.32037E-05 1.84010E-06-2.64698E-23
 -1       272 6.15200E-05 3.37869E-06-1.32349E-23
 -1       273 6.01312E-05 4.13758E-06-2.64698E-23
 -1       274 5.89890E-05 4.22575E-06 1.32349E-23
 -1       275 5.80524E-05 3.76465E-06 2.64698E-23
 -1       276 5.72733E-05 2.88068E-06 0.00000E+00
 -1       277 5.66028E-05 1.70618E-06-2.64698E-23
 -1       278 5.59901E-05 3.76823E-07 0.00000E+00
 -1       279 5.53837E-05-9.69681E-07 2.64698E-23
 -1       280 5.47322E-05-2.19536E-06 0.00000E+00
 -1       281 5.39847E-05-3.16394E-06 2.64698E-23
 -1       282 5.30915E-05-3.74218E-06 1.32349E-23
 -1       283 5.20043E-05-3.80209E-06 0.00000E+00
 -1       284 5.06799E-05-3.22091E-06-1.32349E-23
 -1       285 4.90712E-05-1.88670E-06-2.64698E-23
 -1       301 6.30080E-05 3.76273E-07 0.00000E+00
 -1       302 5.97771E-05 3.68566E-07 0.00000E+00
 -1       303 5.65622E-05 3.61152E-07-3.30872E-24
 -1       304 5.33780E-05 3.52668E-07 1.65436E-24
 -1       305 5.02392E-05 3.42678E-07 0.00000E+00
 -1       306 6.41936E-05 2.76904E-06 0.00000E+00
 -1       307 6.24606E-05 4.21215E-06 0.00000E+00
 -1       308 6.10710E-05 4.74947E-06-2.64698E-23
 -1       309 6.00004E-05 4.41952E-06 0.00000E+00
 -1       310 5.92062E-05 3.35142E-06 0.00000E+00
 -1       311 5.86308E-05 1.69493E-06 1.32349E-23
 -1       312 5.81971E-05-3.41188E-07 2.64698E-23
 -1       313 5.78227E-05-2.53673E-06 1.32349E-23
 -1       314 5.74195E-05-4.65527E-06 0.00000E+00
 -1       315 5.69005E-05-6.46282E-06-1.32349E-23
 -1       316 5.61897E-05-7.75681E-06 0.00000E+00
 -1       317 5.52179E-05-8.35024E-06 0.00000E+00
 -1       318 5.39396E-05-8.12617E-06 2.64698E-23
 -1       319 5.23259E-05-6.99035E-06 0.00000E+00
 -1       320 5.03661E-05-4.94418E-06-1.32349E-23
 -1       336 6.26568E-05-1.12491E-06 3.30872E-24
 -1       337 6.04369E-05-1.29849E-06 0.00000E+00
 -1       338 5.78685E-05-1.47283E-06 6.61744E-24
 -1       339 5.49552E-05-1.64782E-06-1.65436E-24
 -1       340 5.17008E-05-1.82386E-06 0.00000E+00
 -1       406 4.96591E-05 3.97240E-07-3.30872E-24
 -1       407 4.95112E-05 4.53953E-07 0.00000E+00
 -1       408 4.93435E-05 5.10628E-07 3.30872E-24
 -1       409 4.91562E-05 5.67196E-07 0.00000E+00
 -1       410 4.89492E-05 6.23544E-07 0.00000E+00
 -1       521 4.43441E-05 2.00749E-06 5.29396E-23
 -1       522 4.19359E-05 2.43120E-06 0.00000E+00
 -1       523 3.99839E-05 1.65207E-06 5.29396E-23
 -1       524 3.84309E-05-2.25917E-07-2.64698E-23
 -1       525 3.71869E-05-2.93248E-06 5.29396E-23
 -1       526 3.61336E-05-6.15677E-06 0.00000E+00
 -1       527 3.51289E-05-9.51218E-06 0.00000E+00
 -1       528 3.40263E-05-1.26058E-05-2.64698E-23
 -1       529 3.26936E-05-1.50823E-05 0.00000E+00
 -1       530 3.10104E-05-1.66195E-05-2.64698E-23
 -1       531 2.89055E-05-1.70311E-05-5.29396E-23
 -1       532 2.63321E-05-1.61908E-05 0.00000E+00
 -1       533 2.33072E-05-1.41533E-05-5.29396E-23
 -1       534 1.98848E-05-1.10337E-05-2.64698E-23
 -1       535 1.61532E-05-7.11054E-06 5.29396E-23
 -1       536 4.80969E-05 1.34745E-06-1.65436E-24
 -1       537 4.80913E-05 3.87529E-06 0.00000E+00
 -1       538 4.80870E-05 5.66545E-06 0.00000E+00
 -1       539 4.80845E-05 6.79904E-06 0.00000E+00
 -1       540 4.80825E-05 7.35956E-06 2.06795E-25
 -1       541 4.80809E-05 7.43057E-06 0.00000E+00
 -1       542 4.80792E-05 7.09732E-06-1.03398E-25
 -1       543 4.80774E-05 6.44511E-06 0.00000E+00
 -1       544 4.80755E-05 5.56033E-06 0.00000E+00
 -1       545 4.80734E-05 4.52934E-06 0.00000E+00
 -1       546 4.80713E-05 3.43907E-06 0.00000E+00
 -1       547 4.80693E-05 2.37641E-06 0.00000E+00
 -1       548 4.80674E-05 1.42816E-06 2.58494E-26
 -1       549 4.80658E-05 6.81126E-07-5.16988E-26
 -1       550 4.80643E-05 2.21447E-07 2.06795E-25
 -1       551 4.33597E-05-2.10247E-06 0.00000E+00
 -1       552 3.76777E-05-2.20880E-06 0.00000E+00
 -1       553 3.13951E-05-2.31867E-06 0.00000E+00
 -1       554 2.48474E-05-2.43176E-06 0.00000E+00
 -1       555 1.83706E-05-2.54623E-06-1.32349E-23
 -1       556 4.68655E-05 1.22912E-06 1.32349E-23
 -1       557 4.59148E-05 3.69556E-06-6.61744E-24
 -1       558 4.52258E-05 5.47057E-06 0.00000E+00
 -1       559 4.47694E-05 6.63003E-06 0.00000E+00
 -1       560 4.45161E-05 7.24957E-06 0.00000E+00
 -1       561 4.44372E-05 7.40527E-06 0.00000E+00
 -1       562 4.45038E-05 7.17324E-06 0.00000E+00
 -1       563 4.46872E-05 6.62967E-06 0.00000E+00
 -1       564 4.49587E-05 5.85079E-06 0.00000E+00
 -1       565 4.52898E-05 4.91283E-06 0.00000E+00
 -1       566 4.56518E-05 3.89206E-06 0.00000E+00
 -1       567 4.60163E-05 2.86477E-06-2.06795E-25
 -1       568 4.63547E-05 1.90721E-06 0.00000E+00
 -1       569 4.66385E-05 1.09556E-06 0.00000E+00
 -1       570 4.68391E-05 5.06040E-07 0.00000E+00
 -1       571 4.81038E-05 1.95884E-07-6.20385E-25
 -1       572 4.81447E-05 2.29237E-07 1.03398E-25
 -1       573 4.81858E-05 2.40129E-07-8.27181E-25
 -1       574 4.82271E-05 2.33665E-07-4.13590E-25
 -1       575 4.82684E-05 2.14975E-07 0.00000E+00
 -1       576 4.83097E-05 1.89221E-07 4.13590E-25
 -1       577 4.83510E-05 1.61570E-07-3.30872E-24
 -1       578 4.83923E-05 1.37192E-07-8.27181E-25
 -1       579 4.84337E-05 1.21259E-07-1.65436E-24
 -1       580 4.84750E-05 1.18942E-07 0.00000E+00
 -1       581 4.85163E-05 1.35410E-07-1.65436E-24
 -1       582 4.85577E-05 1.75828E-07 0.00000E+00
 -1       583 4.85990E-05 2.45356E-07-3.30872E-24
 -1       584 4.86403E-05 3.49101E-07 3.30872E-24
 -1       585 4.86816E-05 4.92138E-07 3.30872E-24
 -1       586 4.78605E-05 1.49026E-07 0.00000E+00
 -1       587 4.76398E-05 1.62479E-07-1.03398E-25
 -1       588 4.74188E-05 1.75781E-07-4.13590E-25
 -1       589 4.72152E-05 1.88870E-07 0.00000E+00
 -1       590 4.70462E-05 2.01601E-07 0.00000E+00
 -1       591 4.80217E-05 2.16703E-07-1.03398E-25
 -1       592 4.79867E-05 2.75250E-07 1.03398E-25
 -1       593 4.79584E-05 3.15227E-07-4.13590E-25
 -1       594 4.79355E-05 3.40570E-07 0.00000E+00
 -1       595 4.79165E-05 3.55266E-07 4.13590E-25
 -1       596 4.79000E-05 3.63274E-07 0.00000E+00
 -1       597 4.78845E-05 3.68550E-07 0.00000E+00
 -1       598 4.78685E-05 3.75047E-07 0.00000E+00
 -1       599 4.78506E-05 3.86719E-07 2.06795E-25
 -1       600 4.78293E-05 4.07519E-07-1.03398E-25
 -1       601 4.78031E-05 4.41398E-07 0.00000E+00
 -1       602 4.77705E-05 4.92316E-07-2.06795E-25
 -1       603 4.77301E-05 5.64228E-07-1.55096E-25
 -1       604 4.76806E-05 6.61125E-07 0.00000E+00
 -1       605 4.76203E-05 7.86940E-07-4.13590E-25
 -1       606 4.87304E-05 9.60221E-07 0.00000E+00
 -1       607 4.87366E-05 1.30031E-06 0.00000E+00
 -1       608 4.87424E-05 1.69597E-06 0.00000E+00
 -1       609 4.87481E-05 2.14327E-06 0.00000E+00
 -1       610 4.87536E-05 2.63831E-06 0.00000E+00
 -1       611 4.87591E-05 3.17709E-06 0.00000E+00
 -1       612 4.87645E-05 3.75562E-06 0.00000E+00
 -1       613 4.87699E-05 4.36995E-06 0.00000E+00
 -1       614 4.87753E-05 5.01605E-06 0.00000E+00
 -1       615 4.87807E-05 5.68995E-06 0.00000E+00
 -1       616 4.87860E-05 6.38767E-06 8.27181E-25
 -1       617 4.87914E-05 7.10521E-06 0.00000E+00
 -1       618 4.87967E-05 7.83857E-06 0.00000E+00
 -1       619 4.88020E-05 8.58378E-06 0.00000E+00
 -1       620 4.88072E-05 9.33685E-06 0.00000E+00
 -1       621 4.84997E-05 7.23667E-07-8.27181E-25
 -1       622 4.82923E-05 7.68398E-07 0.00000E+00
 -1       623 4.80971E-05 8.13122E-07 0.00000E+00
 -1       624 4.79105E-05 8.57776E-07 4.13590E-25
 -1       625 4.77292E-05 9.02355E-07 8.27181E-25
 -1       626 4.86650E-05 9.74219E-07 0.00000E+00
 -1       627 4.85893E-05 1.31817E-06 0.00000E+00
 -1       628 4.84970E-05 1.70648E-06 0.00000E+00
 -1       629 4.83899E-05 2.13431E-06 0.00000E+00
 -1       630 4.82699E-05 2.59683E-06 0.00000E+00
 -1       631 4.81386E-05 3.08916E-06-8.27181E-25
 -1       632 4.79979E-05 3.60643E-06 0.00000E+00
 -1       633 4.78498E-05 4.14378E-06 0.00000E+00
 -1       634 4.76959E-05 4.69631E-06 0.00000E+00
 -1       635 4.75381E-05 5.25917E-06 0.00000E+00
 -1       636 4.73783E-05 5.82747E-06 0.00000E+00
 -1       637 4.72183E-05 6.39635E-06 0.00000E+00
 -1       638 4.70598E-05 6.96093E-06-8.27181E-25
 -1       639 4.69047E-05 7.51634E-06-8.27181E-25
 -1       640 4.67546E-05 8.05768E-06 0.00000E+00
 -1       656 4.81834E-05 9.84752E-06 3.30872E-24
 -1       657 4.77766E-05 9.59138E-06 0.00000E+00
 -1       658 4.75057E-05 9.33604E-06 6.61744E-24
 -1       659 4.72835E-05 9.08090E-06-3.30872E-24
 -1       660 4.70162E-05 8.82496E-06 0.00000E+00
 -1       661 4.85796E-05 1.08356E-05 8.27181E-25
 -1       662 4.83607E-05 1.15460E-05-4.13590E-25
 -1       663 4.81533E-05 1.22255E-05 0.00000E+00
 -1       664 4.79572E-05 1.28757E-05 0.00000E+00
 -1       665 4.77717E-05 1.34977E-05-1.65436E-24
 -1       666 4.75965E-05 1.40927E-05 0.00000E+00
 -1       667 4.74309E-05 1.46620E-05 1.65436E-24
 -1       668 4.72745E-05 1.52066E-05-8.27181E-25
 -1       669 4.71271E-05 1.57276E-05 0.00000E+00
 -1       670 4.69880E-05 1.62262E-05 8.27181E-25
 -1       671 4.68570E-05 1.67033E-05 0.00000E+00
 -1       672 4.67336E-05 1.71600E-05-4.13590E-25
 -1       673 4.66175E-05 1.75972E-05 0.00000E+00
 -1       674 4.65078E-05 1.80156E-05-4.13590E-25
 -1       675 4.64049E-05 1.84166E-05 4.13590E-25
 -1       676 4.81134E-05 1.90420E-05 1.65436E-24
 -1       677 4.77512E-05 1.89932E-05-8.27181E-25
 -1       678 4.73893E-05 1.89445E-05 0.00000E+00
 -1       679 4.70276E-05 1.88959E-05-8.27181E-25
 -1       680 4.66664E-05 1.88473E-05 0.00000E+00
 -1       771 9.85634E-06 1.94447E-06 2.64698E-23
 -1       772 7.72894E-06 5.72030E-06-1.32349E-23
 -1       773 5.90219E-06 8.70147E-06 0.00000E+00
 -1       774 4.35558E-06 1.09401E-05-1.32349E-23
 -1       775 3.06907E-06 1.24889E-05 0.00000E+00
 -1       776 2.02190E-06 1.34021E-05 0.00000E+00
 -1       777 1.19308E-06 1.37345E-05-2.64698E-23
 -1       778 5.61339E-07 1.35419E-05-1.32349E-23
 -1       779 1.05271E-07 1.28806E-05 0.00000E+00
 -1       780-1.96797E-07 1.18080E-05-1.32349E-23
 -1       781-3.66589E-07 1.03818E-05-2.64698E-23
 -1       782-4.26033E-07 8.66023E-06 0.00000E+00
 -1       783-3.97089E-07 6.70203E-06 0.00000E+00
 -1       784-3.01810E-07 4.56630E-06-1.32349E-23
 -1       785-1.62330E-07 2.31237E-06-2.64698E-23
 -1       786 4.69653E-05 2.12314E-07-4.13590E-25
 -1       787 4.70040E-05 2.12476E-07-4.13590E-25
 -1       788 4.70426E-05 2.14227E-07-8.27181E-25
 -1       789 4.70815E-05 2.18162E-07 0.00000E+00
 -1       790 4.71205E-05 2.25070E-07 0.00000E+00
 -1       791 4.71596E-05 2.35746E-07 0.00000E+00
 -1       792 4.71986E-05 2.51318E-07 8.27181E-25
 -1       793 4.72377E-05 2.72923E-07 8.27181E-25
 -1       794 4.72768E-05 3.02234E-07 0.00000E+00
 -1       795 4.73159E-05 3.40937E-07 8.27181E-25
 -1       796 4.73549E-05 3.91552E-07-8.27181E-25
 -1       797 4.73940E-05 4.56618E-07 4.13590E-25
 -1       798 4.74330E-05 5.39958E-07 0.00000E+00
 -1       799 4.74720E-05 6.45426E-07 4.13590E-25
 -1       800 4.75110E-05 7.78842E-07 8.27181E-25
 -1       801 4.37591E-05 2.15948E-07 0.00000E+00
 -1       802 3.43285E-05 1.80959E-07-4.13590E-25
 -1       803 2.19386E-05 1.16429E-07 0.00000E+00
 -1       804 9.88990E-06 5.14195E-08-1.65436E-24
 -1       805 1.47738E-06 2.15736E-08 6.61744E-24
 -1       806 4.68810E-05 1.85913E-07 0.00000E+00
 -1       807 4.68311E-05 1.58797E-07 8.27181E-25
 -1       808 4.67797E-05 1.34841E-07-1.65436E-24
 -1       809 4.67260E-05 1.16621E-07 0.00000E+00
 -1       810 4.66690E-05 1.06711E-07 0.00000E+00
 -1       811 4.66080E-05 1.07647E-07 0.00000E+00
 -1       812 4.65419E-05 1.21960E-07-1.65436E-24
 -1       813 4.64699E-05 1.52177E-07-4.13590E-25
 -1       814 4.63909E-05 2.00824E-07 1.65436E-24
 -1       815 4.63041E-05 2.70424E-07 8.27181E-25
 -1       816 4.62085E-05 3.63499E-07 0.00000E+00
 -1       817 4.61032E-05 4.82573E-07 0.00000E+00
 -1       818 4.59871E-05 6.30165E-07 8.27181E-25
 -1       819 4.58595E-05 8.08787E-07 4.13590E-25
 -1       820 4.57195E-05 1.02095E-06 8.27181E-25
 -1       821 4.74941E-05 1.14595E-06 0.00000E+00
 -1       822 4.74354E-05 1.37752E-06-4.13590E-25
 -1       823 4.73769E-05 1.65099E-06 0.00000E+00
 -1       824 4.73177E-05 1.97651E-06-8.27181E-25
 -1       825 4.72585E-05 2.35768E-06 0.00000E+00
 -1       826 4.71992E-05 2.79795E-06 8.27181E-25
 -1       827 4.71398E-05 3.29336E-06-1.65436E-24
 -1       828 4.70803E-05 3.83984E-06 0.00000E+00
 -1       829 4.70209E-05 4.42686E-06 1.65436E-24
 -1       830 4.69614E-05 5.04381E-06-8.27181E-25
 -1       831 4.69020E-05 5.67636E-06-1.65436E-24
 -1       832 4.68427E-05 6.31007E-06 0.00000E+00
 -1       833 4.67834E-05 6.93040E-06 0.00000E+00
 -1       834 4.67247E-05 7.52284E-06-4.13590E-25
 -1       835 4.66659E-05 8.07636E-06 0.00000E+00
 -1       836 4.73073E-05 9.99853E-07 0.00000E+00
 -1       837 4.69954E-05 1.05482E-06-8.27181E-25
 -1       838 4.66395E-05 1.10968E-06 0.00000E+00
 -1       839 4.62655E-05 1.16420E-06 0.00000E+00
 -1       840 4.58993E-05 1.21863E-06 2.06795E-25
 -1       856 4.65937E-05 9.09341E-06-1.03398E-25
 -1       857 4.65748E-05 9.67168E-06 0.00000E+00
 -1       858 4.65560E-05 1.03046E-05 0.00000E+00
 -1       859 4.65369E-05 1.09818E-05 2.06795E-25
 -1       860 4.65177E-05 1.16930E-05 0.00000E+00
 -1       861 4.64984E-05 1.24279E-05 2.06795E-25
 -1       862 4.64791E-05 1.31762E-05 4.13590E-25
 -1       863 4.64598E-05 1.39273E-05 0.00000E+00
 -1       864 4.64405E-05 1.46710E-05 4.13590E-25
 -1       865 4.64212E-05 1.53969E-05 0.00000E+00
 -1       866 4.64019E-05 1.60946E-05 0.00000E+00
 -1       867 4.63827E-05 1.67538E-05 0.00000E+00
 -1       868 4.63634E-05 1.73641E-05-8.27181E-25
 -1       869 4.63442E-05 1.79154E-05 0.00000E+00
 -1       870 4.63250E-05 1.83973E-05 0.00000E+00
 -1       871 4.62191E-05 8.57954E-06 0.00000E+00
 -1       872 4.58898E-05 8.57776E-06 0.00000E+00
 -1       873 4.55959E-05 8.57575E-06 0.00000E+00
 -1       874 4.53104E-05 8.57342E-06 0.00000E+00
 -1       875 4.50063E-05 8.57081E-06 2.06795E-25
 -1       876 4.64748E-05 9.09875E-06 0.00000E+00
 -1       877 4.63284E-05 9.64904E-06 0.00000E+00
 -1       878 4.61717E-05 1.02271E-05 1.65436E-24
 -1       879 4.60060E-05 1.08293E-05 8.27181E-25
 -1       880 4.58327E-05 1.14521E-05 0.00000E+00
 -1       881 4.56529E-05 1.20920E-05 0.00000E+00
 -1       882 4.54681E-05 1.27454E-05 0.00000E+00
 -1       883 4.52796E-05 1.34087E-05 0.00000E+00
 -1       884 4.50886E-05 1.40784E-05 0.00000E+00
 -1       885 4.48966E-05 1.47510E-05 0.00000E+00
 -1       886 4.47048E-05 1.54229E-05-1.65436E-24
 -1       887 4.45146E-05 1.60905E-05-8.27181E-25
 -1       888 4.43272E-05 1.67504E-05 1.65436E-24
 -1       889 4.41438E-05 1.73988E-05-8.27181E-25
 -1       890 4.39657E-05 1.80322E-05 0.00000E+00
 -1       891 4.59574E-05 1.87741E-05-8.27181E-25
 -1       892 4.55980E-05 1.87483E-05 0.00000E+00
 -1       893 4.52145E-05 1.87225E-05-4.13590E-25
 -1       894 4.47942E-05 1.86968E-05-2.06795E-25
 -1       895 4.43241E-05 1.86712E-05 0.00000E+00
 -1       956 4.55110E-05 1.59090E-06 8.27181E-25
 -1       957 4.54543E-05 1.94922E-06 4.13590E-25
 -1       958 4.53973E-05 2.34029E-06-8.27181E-25
 -1       959 4.53403E-05 2.76008E-06 0.00000E+00
 -1       960 4.52833E-05 3.20458E-06 0.00000E+00
 -1       961 4.52262E-05 3.66974E-06 0.00000E+00
 -1       962 4.51691E-05 4.15150E-06-1.65436E-24
 -1       963 4.51119E-05 4.64583E-06-8.27181E-25
 -1       964 4.50548E-05 5.14866E-06 0.00000E+00
 -1       965 4.49977E-05 5.65594E-06 8.27181E-25
 -1       966 4.49406E-05 6.16363E-06-1.65436E-24
 -1       967 4.48835E-05 6.66766E-06 0.00000E+00
 -1       968 4.48264E-05 7.16400E-06-1.65436E-24
 -1       969 4.47695E-05 7.64859E-06 0.00000E+00
 -1       970 4.47127E-05 8.11741E-06 0.00000E+00
 -1       971 4.46033E-05 9.02795E-06 0.00000E+00
 -1       972 4.45492E-05 9.53751E-06 4.13590E-25
 -1       973 4.44950E-05 1.00899E-05 1.65436E-24
 -1       974 4.44407E-05 1.06796E-05 0.00000E+00
 -1       975 4.43863E-05 1.13010E-05 1.65436E-24
 -1       976 4.43320E-05 1.19487E-05 8.27181E-25
 -1       977 4.42776E-05 1.26170E-05 1.65436E-24
 -1       978 4.42232E-05 1.33005E-05 8.27181E-25
 -1       979 4.41687E-05 1.39935E-05-1.65436E-24
 -1       980 4.41143E-05 1.46905E-05 8.27181E-25
 -1       981 4.40599E-05 1.53860E-05 0.00000E+00
 -1       982 4.40056E-05 1.60744E-05 8.27181E-25
 -1       983 4.39513E-05 1.67502E-05-1.65436E-24
 -1       984 4.38973E-05 1.74077E-05 0.00000E+00
 -1       985 4.38435E-05 1.80416E-05-1.65436E-24
 -3
    1PSTEP                         4           2           1          
  100CL  102 3.12500E-01         409                     0    2           1
 -4  STRESS      6    1
 -5  SXX         1    4    1    1
 -5  SYY         1    4    2    2
 -5  SZZ         1    4    3    3
 -5  SXY         1    4    1    2
 -5  SYZ         1    4    2    3
 -5  SZX         1    4    3    1
 -1         1-1.07898E+06-4.96990E+05-2.19388E+05-6.97923E+05 5.82077E-11 1.01863E-09
 -1         2 1.81007E+03 2.03787E+05 5.90841E+03 4.17739E+02-9.13190E-11 1.13596E-08
 -1         3-3.09538E+01-4.52133E+05 1.04484E+02-1.03274E+02-4.07283E-11-1.23164E-08
 -1         5-3.18603E+00 1.62387E+05 4.25287E+00-2.28857E-02 6.19037E-11 1.10176E-08
 -1         8-5.08080E+05-2.21440E+05-1.71925E+04-3.85564E+05 3.34694E-10-7.93079E-10
 -1         9-8.72194E+05-2.25761E+05-8.63375E+04-3.01504E+05 2.36469E-09-7.56700E-10
 -1        10-3.43463E+02-4.71029E+05-6.01955E+02-6.89847E+02-2.00180E-09 8.89372E-09
 -1        12-1.44078E+00 1.62396E+05 1.37880E+02 1.11257E-01 1.55168E-10 4.48767E-09
 -1        15 1.34461E+03 7.38933E+02 4.34643E+03 1.89944E+00-2.17275E-09-6.61605E-07
 -1        16-2.45638E+06-7.89960E+05-3.81897E+05-8.02959E+05 7.00432E-09-1.64922E-09
 -1        17-5.41597E+05-3.34185E+05-1.04204E+05-3.15210E+05-3.70055E-09 2.03727E-11
 -1        18 1.90975E+04 1.69243E+03-7.76456E+03-3.82810E+04 5.05679E-10-9.05402E-10
 -1        19 5.08849E+04 6.06605E+04-2.86043E+02 1.00064E+04-4.48017E-10-3.07409E-10
 -1        20-2.10643E+04-2.40478E+05-5.30230E+04 1.78928E+04 2.28071E-09 4.73695E-09
 -1        21-2.27765E+01-1.39534E+05-4.50750E+02-3.46713E+01-4.85150E-09-5.64965E-09
 -1        24-2.15776E+06-7.49250E+05-3.07975E+05-9.13416E+05-1.01621E-08-5.20959E-09
 -1        25 1.90426E+04-2.54873E+03 1.13621E+04-6.90653E+04 2.53021E-10 3.85353E-09
 -1        26-1.19018E+04 4.13425E+04-8.42163E+03-5.82551E+03 1.10376E-09 3.50735E-09
 -1        27-3.84520E+04-1.31944E+05-4.94865E+04 2.97349E+04 3.70998E-09 2.93767E-10
 -1        28 1.07840E+04-3.85398E+04 7.87644E+03 1.23747E+04 1.85007E-09-1.27390E-10
 -1        32-5.14615E+05-7.54638E+04 2.22377E+05-3.46899E+05-9.97534E-09 7.40546E-09
 -1        33-7.54884E+04 3.88515E+04 1.37692E+04-2.24404E+04 6.95498E-10 3.17292E-09
 -1        34-9.79935E+04-9.75518E+03 2.31444E+02 3.01257E+04 2.29989E-09-3.32170E-09
 -1        35-1.09720E+04-1.53277E+04-5.97964E+02 2.43019E+04 4.17668E-09-2.04333E-10
 -1        51 9.89748E+03-2.54346E+05 2.43958E+04-6.29739E+05-7.27596E-11 1.05501E-09
 -1        52 5.22750E+03-2.52397E+05 1.61619E+04-7.34476E+05 1.20053E-10 5.23869E-09
 -1        53 3.43633E+03-2.59022E+05 1.41182E+04-6.27593E+05 2.40107E-10 6.93399E-09
 -1        54 1.07530E+04-2.56920E+05 2.28850E+04-7.36751E+05-6.54836E-11-1.06811E-08
 -1        55 2.35488E+04-2.65323E+05 4.11777E+04-6.27307E+05 7.20320E-10-9.24047E-10
 -1        56-2.07236E+06-2.34244E+05-1.61933E+05-7.99201E+05 5.78439E-10-3.56522E-09
 -1        57-2.13742E+06-3.80671E+05-1.09141E+05-7.92951E+05-7.94898E-10 5.22050E-09
 -1        58-2.10476E+06-2.85650E+05-3.81193E+04-7.89205E+05-8.05812E-10 6.69024E-09
 -1        59-2.09993E+06-3.20413E+05-2.27562E+04-8.04967E+05 1.15460E-09 2.35104E-09
 -1        60-2.10954E+06-2.92771E+05-8.90874E+03-7.87804E+05-3.41061E-12-1.32195E-09
 -1        61-2.09487E+06-3.11593E+05-5.06606E+03-8.06036E+05-1.05462E-09-1.93063E-09
 -1        62-2.10975E+06-2.94253E+05-2.44240E+03-7.88201E+05 4.62592E-10-1.33075E-09
 -1        63-2.09565E+06-3.09015E+05-2.00818E+03-8.04385E+05 1.15648E-09-1.44772E-09
 -1        64-2.10871E+06-2.95350E+05-2.31026E+03-7.89434E+05 8.53106E-10 6.05951E-11
 -1        65-2.09879E+06-3.07311E+05-4.62115E+03-8.01189E+05-3.05135E-10-9.60677E-09
 -1        66-2.10657E+06-2.96011E+05-8.13697E+03-7.91355E+05 5.46152E-10-4.48517E-09
 -1        67-2.10697E+06-3.11647E+05-2.06445E+04-7.95973E+05-1.62288E-09-1.22373E-09
 -1        68-2.10054E+06-2.91240E+05-3.46586E+04-7.94557E+05 2.73985E-09 2.53567E-09
 -1        69-2.14397E+06-3.63448E+05-9.90978E+04-7.81755E+05 1.40471E-09 7.44512E-09
 -1        70-2.06987E+06-2.45772E+05-1.47108E+05-8.05016E+05-1.21145E-09 3.23053E-09
 -1        86-9.07655E+02 2.01977E+05 6.33208E+03-2.08882E+02 8.08313E-10 5.43770E-09
 -1        87 6.02451E+03 2.05846E+05 1.32082E+04 8.58180E+02 1.34878E-09 6.49825E-09
 -1        88-5.11010E+03 1.99920E+05 2.02241E+04-6.49325E+02 1.98452E-09 2.07990E-10
 -1        89 3.80831E+04 2.20787E+05 5.45378E+04 1.84428E+03 3.04135E-09-5.75973E-09
 -1        90-3.28622E+04 1.87045E+05 7.70410E+04-1.19471E+03 3.49246E-09-3.60711E-09
 -1       121-5.42395E+01-4.52304E+05 9.90281E+01 5.15982E+01 2.38828E-10-7.49424E-10
 -1       122 3.40278E+00-4.52110E+05 2.28218E+02-2.06671E+02-8.98032E-10 7.08678E-09
 -1       123-7.91703E+01-4.52329E+05 3.69501E+02 1.54844E+02 7.20433E-10 6.42467E-09
 -1       124 4.24302E+02-4.51851E+05 9.57414E+02-4.92398E+02-1.60117E-09-1.10504E-10
 -1       125-3.52768E+02-4.52567E+05 1.46833E+03 3.37313E+02 1.07389E-09-9.80435E-10
 -1       191-3.48578E+00 1.62401E+05 5.07789E+00 1.11582E-02 1.04875E-10 1.92449E-09
 -1       192-3.57662E+00 1.62387E+05 9.00536E+00 2.76170E-01 1.58201E-10-1.65915E-09
 -1       193-4.52450E+00 1.62400E+05 1.67426E+01-2.89288E-01 1.78924E-10-2.79715E-09
 -1       194-4.83371E+00 1.62388E+05 3.40651E+01 7.75934E-01 1.05855E-10-1.58411E-09
 -1       195-6.52105E+00 1.62399E+05 6.66290E+01-4.91942E-01 2.84043E-10 2.57023E-09
 -1       251 1.82994E+05-3.18912E+04 7.45092E+04 2.93190E+03 2.62730E-10 2.00089E-10
 -1       252 2.16674E+05 3.69053E+04 5.28191E+04-9.77079E+03-2.42608E-10 1.12777E-10
 -1       253 1.95773E+05-4.93847E+03 1.92861E+04 2.08700E+03-2.63867E-10 3.27054E-09
 -1       254 2.01641E+05 5.70732E+03 1.21804E+04-8.43466E+03 5.55588E-10-5.49971E-09
 -1       255 1.97973E+05-7.63095E+02 4.98325E+03 1.59593E+03-1.30342E-10 2.61480E-10
 -1       256 1.99016E+05 9.05185E+02 3.02761E+03-7.70871E+03 1.51967E-09 1.65937E-09
 -1       257 1.98374E+05-1.33586E+02 1.55911E+03 1.36104E+03 1.73131E-10 3.22132E-10
 -1       258 1.98609E+05 2.81988E+02 1.38209E+03-7.47129E+03-3.26646E-10 1.21237E-09
 -1       259 1.98373E+05-1.36258E+02 1.58438E+03 1.35851E+03-1.49242E-10-8.39066E-10
 -1       260 1.99025E+05 9.28629E+02 3.09939E+03-7.69920E+03 1.19222E-10 4.08181E-09
 -1       261 1.97965E+05-7.83584E+02 5.11455E+03 1.58894E+03 8.42988E-10 4.75848E-09
 -1       262 2.01710E+05 5.86192E+03 1.25042E+04-8.41408E+03-1.48887E-10-4.49290E-10
 -1       263 1.95712E+05-5.07161E+03 1.98087E+04 2.07342E+03-7.25322E-10 9.09495E-12
 -1       264 2.17126E+05 3.79022E+04 5.42382E+04-9.73765E+03-1.50146E-09 7.54153E-09
 -1       265 1.82601E+05-3.27503E+04 7.65290E+04 2.91234E+03-7.88077E-10-7.20320E-10
 -1       266-2.43418E+04-1.13823E+04 5.71127E+04-4.06422E+01-3.29965E-09-1.04812E-06
 -1       267 2.82190E+04 1.32662E+04 4.03665E+04 4.68929E+01-6.47378E-09-2.07385E-06
 -1       268-3.78411E+03-1.87887E+03 1.50040E+04-5.97497E+00-5.17321E-09-1.66031E-06
 -1       269 4.46792E+03 2.24860E+03 9.75238E+03 6.95995E+00-3.88900E-09-1.25006E-06
 -1       270-6.70641E+02-3.69463E+02 4.70762E+03-9.44512E-01-2.91766E-09-9.16326E-07
 -1       271-2.39227E+06-2.97896E+05-1.84091E+05-9.31217E+05-3.96540E-10-1.94268E-09
 -1       272-2.44325E+06-4.47277E+05-1.18357E+05-9.46921E+05-3.43448E-10-4.15275E-09
 -1       273-2.42725E+06-3.43386E+05-4.34836E+04-9.22644E+05-2.33968E-09 2.64663E-09
 -1       274-2.40243E+06-3.91494E+05-2.43458E+04-9.60119E+05-4.99085E-10 8.90714E-09
 -1       275-2.43264E+06-3.47510E+05-1.01148E+04-9.20546E+05 8.67658E-10-2.45564E-11
 -1       276-2.39607E+06-3.86654E+05-5.37823E+03-9.63504E+05-1.00567E-09-3.46790E-09
 -1       277-2.43386E+06-3.47408E+05-2.63044E+03-9.19723E+05-1.03637E-09 3.88764E-09
 -1       278-2.39491E+06-3.86639E+05-1.91344E+03-9.64490E+05-9.36780E-11 3.46768E-09
 -1       279-2.43392E+06-3.47389E+05-2.05295E+03-9.19676E+05-1.21906E-09-3.15595E-09
 -1       280-2.39571E+06-3.86530E+05-3.76158E+03-9.63733E+05-2.33740E-09-5.77802E-09
 -1       281-2.43295E+06-3.47618E+05-6.88121E+03-9.20391E+05 3.49701E-10 1.63391E-09
 -1       282-2.40041E+06-3.89300E+05-1.64289E+04-9.60824E+05-4.13820E-10 5.01677E-09
 -1       283-2.42897E+06-3.45230E+05-2.93327E+04-9.22205E+05 5.28871E-10 3.16504E-10
 -1       284-2.42868E+06-4.25980E+05-7.97339E+04-9.50794E+05-2.70120E-10-1.16106E-08
 -1       285-2.40483E+06-3.15195E+05-1.24110E+05-9.28611E+05-5.54792E-11-7.57427E-09
 -1       301 9.18177E+03-5.60932E+03 7.16399E+04-1.76313E+04-3.96540E-10 2.52231E-09
 -1       302 9.86573E+03 1.25708E+04 5.17640E+04-2.59449E+04 9.67702E-10-4.63444E-09
 -1       303 4.32853E+02 8.20391E+02 4.77002E+04-1.76686E+04-6.83940E-10-6.15273E-10
 -1       304 1.86412E+04 2.06655E+04 8.02922E+04-2.58736E+04 8.84938E-10-2.08342E-09
 -1       305 1.84750E+04-1.36570E+04 1.34772E+05-1.76551E+04-6.98492E-10-2.46473E-10
 -1       306-2.57452E+06-2.96255E+05-1.96291E+05-1.00432E+06 9.71340E-10-2.48110E-09
 -1       307-2.67213E+06-4.65730E+05-1.33841E+05-9.74395E+05 5.63887E-10 4.07454E-10
 -1       308-2.61915E+06-3.57204E+05-4.61849E+04-9.85860E+05 9.17680E-10 4.97494E-09
 -1       309-2.61699E+06-3.98324E+05-2.79774E+04-1.00017E+06 7.47036E-10 1.12777E-10
 -1       310-2.62944E+06-3.62462E+05-1.08391E+04-9.78977E+05-1.72824E-09 2.06910E-10
 -1       311-2.60369E+06-3.93747E+05-6.28336E+03-1.01009E+06 3.62604E-09-4.23961E-09
 -1       312-2.63251E+06-3.61536E+05-3.07210E+03-9.76075E+05-5.66899E-10 5.62636E-10
 -1       313-2.60111E+06-3.94178E+05-2.76986E+03-1.01248E+06-1.98153E-09 4.64740E-09
 -1       314-2.63205E+06-3.61983E+05-3.33077E+03-9.76625E+05-1.68529E-09-1.58548E-09
 -1       315-2.60549E+06-3.92255E+05-7.01919E+03-1.00799E+06-2.26066E-10 4.53838E-10
 -1       316-2.62806E+06-3.63535E+05-1.22462E+04-9.80495E+05 8.04505E-10 4.06817E-09
 -1       317-2.62103E+06-3.97040E+05-3.16531E+04-9.96330E+05-1.13442E-09-2.10275E-09
 -1       318-2.61646E+06-3.57465E+05-5.22718E+04-9.88145E+05-2.87218E-09 4.32556E-09
 -1       319-2.68283E+06-4.74143E+05-1.51542E+05-9.68138E+05-8.73570E-10 2.64845E-09
 -1       320-2.56655E+06-2.87754E+05-2.22167E+05-1.00823E+06 4.17640E-09-2.92493E-09
 -1       336 3.54598E+02-4.89648E+05-2.60544E+03 3.52092E+02-4.47653E-09-8.46194E-09
 -1       337-9.38978E+02-4.90370E+05-2.85432E+03-9.49597E+02-8.14714E-09-2.04864E-09
 -1       338 2.33461E+02-4.89725E+05-3.59283E+03 5.95985E+02-5.67104E-09 2.78487E-09
 -1       339-3.71483E+03-4.92072E+05-7.86735E+03-1.43301E+03-1.01759E-08 4.98403E-09
 -1       340 2.52820E+03-4.87967E+05-1.21212E+04 8.32728E+02-6.80166E-09 1.65619E-09
 -1       406 9.08346E+00 1.62393E+05 2.72209E+02 3.72878E-01 3.48138E-10-1.96360E-09
 -1       407 9.34715E+01 1.62443E+05 5.78569E+02-6.68141E+00 8.19114E-11 1.93495E-10
 -1       408 2.96369E+02 1.62351E+05 1.15553E+03 6.38331E+00 3.79487E-10 4.18368E-11
 -1       409 1.24813E+03 1.62813E+05 2.60154E+03-5.83527E+01-1.68257E-11 7.83075E-10
 -1       410 3.58868E+03 1.62023E+05 5.31098E+03 5.33801E+01 4.01087E-10-2.95881E-09
 -1       521-4.86021E+06-5.61450E+05-3.63963E+05-1.89075E+06 3.28873E-09-4.38013E-09
 -1       522-5.03625E+06-8.74636E+05-2.47315E+05-1.84078E+06-1.56160E-09-6.59202E-09
 -1       523-4.94488E+06-6.70370E+05-8.55743E+04-1.85417E+06-6.90306E-10 2.43745E-10
 -1       524-4.93180E+06-7.54071E+05-5.15776E+04-1.89147E+06 1.77545E-09 4.38195E-09
 -1       525-4.96405E+06-6.79177E+05-1.99759E+04-1.84104E+06 9.14497E-10-1.27966E-09
 -1       526-4.90979E+06-7.43610E+05-1.15130E+04-1.90685E+06 2.83535E-10-1.07229E-09
 -1       527-4.96695E+06-6.80288E+05-5.52741E+03-1.83905E+06 6.86555E-10 1.84514E-09
 -1       528-4.91292E+06-7.35957E+05-4.69420E+03-1.90119E+06-3.09228E-11 1.50612E-09
 -1       529-4.96076E+06-6.86884E+05-5.61364E+03-1.84660E+06-1.04205E-09 1.93268E-10
 -1       530-4.93200E+06-7.20171E+05-1.12554E+04-1.87934E+06-2.11844E-09-2.70370E-09
 -1       531-4.94755E+06-6.96350E+05-2.00065E+04-1.86065E+06-6.35509E-10 9.76797E-10
 -1       532-4.96892E+06-7.15969E+05-5.10884E+04-1.84778E+06-1.31308E-11-3.17505E-09
 -1       533-4.92398E+06-6.91492E+05-8.49235E+04-1.87805E+06 8.54925E-10-6.16637E-09
 -1       534-5.07422E+06-8.35517E+05-2.45582E+05-1.79834E+06-2.03727E-10 3.55794E-09
 -1       535-4.84345E+06-5.79212E+05-3.61038E+05-1.90954E+06-7.33417E-09 4.49654E-09
 -1       536-1.10478E+04-1.36026E+04 3.13324E+04 2.99586E+02-1.04748E-09 5.88807E-09
 -1       537 3.45573E+03 1.57390E+04 2.23238E+04-1.20651E+03-5.01441E-09 6.81894E-10
 -1       538-5.67581E+03-2.13184E+03 8.08205E+03 2.83883E+02-7.54881E-11-1.90857E-09
 -1       539-2.88201E+03 2.46090E+03 5.16058E+03-1.20002E+03 1.50530E-09 1.80808E-09
 -1       540-4.71685E+03-3.31758E+02 2.04059E+03 2.93103E+02 4.65377E-10 1.68575E-09
 -1       541-4.05769E+03 3.79494E+02 1.21901E+03-1.21732E+03-5.03064E-12 8.08930E-09
 -1       542-4.50427E+03-4.91004E+01 4.88924E+02 3.01172E+02-4.26226E-10-2.37407E-09
 -1       543-4.34106E+03 4.69228E+01 2.46163E+02-1.23014E+03 3.60458E-11 2.82810E-09
 -1       544-4.43617E+03 2.52391E+00 3.50974E+01 3.05924E+02 3.43579E-10-5.88703E-09
 -1       545-4.45103E+03-6.10198E+01-1.45712E+02-1.23615E+03-9.21677E-10-5.49814E-09
 -1       546-4.39554E+03 5.96708E+01-3.39964E+02 3.07179E+02 9.11107E-11-4.09921E-09
 -1       547-4.62915E+03-4.42110E+02-8.99315E+02-1.23509E+03-1.31990E-09-3.45139E-10
 -1       548-4.25781E+03 3.83168E+02-1.45994E+03 3.04869E+02-1.41494E-09-3.51775E-09
 -1       549-5.66163E+03-2.82469E+03-3.98139E+03-1.22602E+03-8.02901E-10 1.38294E-09
 -1       550-3.36130E+03 2.43915E+03-5.67183E+03 2.98106E+02 3.14486E-11-1.24464E-09
 -1       551 4.25109E+03-2.57746E+05 1.43341E+04-4.42309E+05-1.95796E-08-1.58616E-09
 -1       552 8.66932E+03-2.57648E+05 1.85564E+04-6.29374E+05-1.46611E-08 6.67933E-09
 -1       553 5.52898E+03-2.61034E+05 2.89326E+04-4.40901E+05-2.37196E-08 5.88807E-09
 -1       554 2.27648E+04-2.48154E+05 6.14502E+04-6.29975E+05-1.40499E-08 3.06034E-09
 -1       555 2.33769E+04-2.72815E+05 1.10493E+05-4.41507E+05-2.32976E-08-3.18141E-09
 -1       556 3.57765E+04-8.22174E+04 2.85969E+04-1.10119E+05-4.76211E-09-2.00816E-09
 -1       557 6.91774E+04-1.10310E+05 1.49585E+04-1.37531E+05-4.07454E-10 1.22409E-08
 -1       558 3.61825E+04-8.63257E+04 6.13741E+03-1.06551E+05-2.45927E-09 4.52928E-10
 -1       559 6.52481E+04-1.14409E+05 3.08557E+03-1.39122E+05 4.13274E-09 1.00226E-09
 -1       560 3.55914E+04-8.59157E+04 1.32196E+03-1.06887E+05 4.21278E-09 7.39055E-09
 -1       561 6.41835E+04-1.14223E+05 6.81547E+02-1.39786E+05-3.78350E-10 3.24917E-09
 -1       562 3.50854E+04-8.55623E+04 2.78521E+02-1.07256E+05-6.12636E-09 1.49521E-09
 -1       563 6.35736E+04-1.13963E+05 1.59517E+02-1.40175E+05-1.15269E-08-4.34625E-10
 -1       564 3.47703E+04-8.53548E+04 5.92454E+01-1.07482E+05-1.80080E-09 1.28694E-09
 -1       565 6.32608E+04-1.13832E+05 2.80593E+01-1.40370E+05 1.00817E-09 2.53021E-09
 -1       566 3.46631E+04-8.52807E+04-2.01451E+01-1.07561E+05-2.68483E-09 3.09592E-09
 -1       567 6.32169E+04-1.13809E+05-8.17904E+01-1.40356E+05 3.07273E-09 8.51287E-10
 -1       568 3.47851E+04-8.53627E+04-2.11969E+02-1.07514E+05-5.02951E-10 1.00408E-09
 -1       569 6.30203E+04-1.13691E+05-5.00312E+02-1.39772E+05-1.21508E-09 5.96629E-10
 -1       570 3.54847E+04-8.60471E+04-1.02962E+03-1.07590E+05 1.23327E-09 6.41194E-10
 -1       571 1.17837E+05 4.25342E+03 6.30046E+03-2.96424E+04-5.36147E-10 3.30851E-09
 -1       572 1.18776E+05 1.47944E+03 3.08660E+03-3.24928E+04-1.23282E-09-2.36241E-10
 -1       573 1.18217E+05 3.52569E+02 1.37117E+03-2.95648E+04 1.05047E-10-8.33779E-10
 -1       574 1.18329E+05 1.13940E+02 6.86852E+02-3.25798E+04 3.03430E-10-5.87079E-09
 -1       575 1.18261E+05 1.48658E+01 3.23680E+02-2.95545E+04 6.69047E-10-3.64389E-09
 -1       576 1.18269E+05 3.15652E+00 1.64678E+02-3.25914E+04-6.13568E-10 3.54794E-09
 -1       577 1.18268E+05-3.27018E+00 8.10842E+01-2.95532E+04-7.13953E-11 5.63341E-09
 -1       578 1.18262E+05-1.88799E+00 4.41324E+01-3.25928E+04-5.07043E-11 2.21257E-09
 -1       579 1.18273E+05-3.33996E+00 2.69832E+01-2.95532E+04-1.25283E-10-5.64796E-09
 -1       580 1.18268E+05-3.65850E+00 2.50924E+01-3.25909E+04-1.19826E-10-6.32781E-09
 -1       581 1.18281E+05-5.29072E+00 3.41382E+01-2.95550E+04-2.80579E-10-5.69571E-10
 -1       582 1.18285E+05 8.43189E-01 6.48782E+01-3.25732E+04 8.54925E-10-4.55475E-09
 -1       583 1.18289E+05 1.85485E+01 1.24810E+02-2.95709E+04 8.65839E-10 1.66051E-09
 -1       584 1.18341E+05 1.16982E+02 2.79541E+02-3.24413E+04-1.24419E-09-3.21961E-10
 -1       585 1.18269E+05 3.64788E+02 5.68252E+02-2.96871E+04-2.86491E-10-2.54568E-09
 -1       586-1.48972E+03 3.83436E+04-1.96852E+03-1.00823E+05 2.95586E-10-1.83866E-09
 -1       587-3.35664E+02 3.80810E+04-2.50491E+02-1.10947E+05 5.09317E-10-3.80942E-09
 -1       588 3.87826E+02 3.81339E+04 1.32642E+03-1.00761E+05 3.21052E-10 4.83897E-09
 -1       589 1.98924E+03 3.88617E+04 3.90514E+03-1.10855E+05 4.98858E-10 3.40424E-09
 -1       590 5.73762E+03 3.76401E+04 8.37885E+03-1.00915E+05 2.28283E-10-1.97224E-09
 -1       591-2.62324E+04-7.25806E+03-8.61722E+03-1.34664E+04-1.85906E-10 2.47019E-09
 -1       592-2.70677E+04-9.52979E+03-4.69078E+03-1.56932E+04 9.01935E-10 1.03287E-08
 -1       593-2.71285E+04-6.72775E+03-1.94847E+03-1.40545E+04-1.41313E-10 2.54363E-09
 -1       594-2.58509E+04-8.24967E+03-9.73285E+02-1.57572E+04-1.20551E-09 4.60915E-10
 -1       595-2.71969E+04-6.72839E+03-4.46835E+02-1.40824E+04-3.51088E-09 3.08862E-09
 -1       596-2.57675E+04-8.18937E+03-2.27888E+02-1.57490E+04-1.04541E-08-1.37760E-09
 -1       597-2.72054E+04-6.73388E+03-1.25465E+02-1.40836E+04-4.36312E-09-2.25569E-09
 -1       598-2.57597E+04-8.18692E+03-1.03459E+02-1.57467E+04 6.87109E-10-5.15820E-09
 -1       599-2.72049E+04-6.73383E+03-1.35360E+02-1.40834E+04 4.10694E-09 1.82018E-09
 -1       600-2.57688E+04-8.19008E+03-2.54156E+02-1.57490E+04 9.95288E-09 4.63328E-09
 -1       601-2.71944E+04-6.72771E+03-5.02523E+02-1.40817E+04 3.88127E-10-4.89013E-09
 -1       602-2.58629E+04-8.25789E+03-1.09716E+03-1.57574E+04-4.13655E-09-1.56151E-08
 -1       603-2.71167E+04-6.72789E+03-2.19724E+03-1.40506E+04 5.92763E-10-2.28374E-09
 -1       604-2.72396E+04-9.69674E+03-5.29006E+03-1.56792E+04-1.43245E-11 4.06544E-10
 -1       605-2.61006E+04-7.32994E+03-9.71795E+03-1.33921E+04 2.32490E-10 4.43697E-09
 -1       606 1.68600E+04-5.66674E+03-1.02088E+04 1.64978E+04-1.14333E-08-4.42378E-09
 -1       607 1.51119E+04-1.82766E+03-5.08363E+03 1.85197E+04-1.75660E-08-5.71265E-09
 -1       608 1.61086E+04-3.07174E+02-2.27601E+03 1.63661E+04-7.67886E-09 1.80466E-09
 -1       609 1.59129E+04-8.15678E+01-1.14976E+03 1.86652E+04-2.92130E-09 1.90835E-09
 -1       610 1.60220E+04 1.31145E+01-5.48843E+02 1.63514E+04-3.89718E-09 3.26509E-10
 -1       611 1.59867E+04 1.80738E+01-2.76962E+02 1.86812E+04-6.47924E-09 4.59931E-09
 -1       612 1.60018E+04 1.95451E+01-1.32316E+02 1.63500E+04-1.59343E-09 2.85900E-09
 -1       613 1.59896E+04 2.06333E+01-6.04392E+01 1.86831E+04-2.70211E-09-5.29781E-11
 -1       614 1.59918E+04 1.78785E+01-1.68300E+01 1.63494E+04 7.24413E-09 1.94825E-09
 -1       615 1.59861E+04 2.19652E+01 1.86284E+01 1.86834E+04 1.92322E-08 1.37186E-09
 -1       616 1.59842E+04 1.96772E+01 6.20963E+01 1.63496E+04 4.03134E-09 2.77123E-09
 -1       617 1.59922E+04 3.62167E+01 1.43965E+02 1.86832E+04-8.31392E-10-3.66208E-09
 -1       618 1.59706E+04 6.19594E+01 2.91109E+02 1.63497E+04 2.97109E-09 2.84695E-09
 -1       619 1.60942E+04 2.62034E+02 6.54275E+02 1.86828E+04 2.06097E-09-1.41904E-09
 -1       620 1.58732E+04 7.53315E+02 1.31527E+03 1.63493E+04 1.52778E-09-1.67893E-09
 -1       621 2.03960E+02 1.28133E+05 1.75931E+03 4.24834E+03-2.36479E-10 5.16820E-09
 -1       622 2.32805E+02 1.28569E+05 1.48906E+03 6.20256E+03-1.70360E-10 5.33373E-09
 -1       623 9.97304E+00 1.28259E+05 1.70706E+03 4.22914E+03-1.03071E-10 6.82309E-09
 -1       624 7.71239E+02 1.29063E+05 3.23696E+03 6.22056E+03-2.23679E-10 7.78246E-09
 -1       625 7.74055E+02 1.27637E+05 5.62508E+03 4.23051E+03-2.40561E-10 2.85650E-09
 -1       626 1.05752E+05 2.93539E+04 2.10691E+03 5.72444E+04-6.36192E-10-2.39743E-09
 -1       627 1.04298E+05 3.04261E+04 1.01490E+03 5.95648E+04-9.53150E-10-2.75838E-09
 -1       628 1.05836E+05 2.83551E+04 4.28938E+02 5.75632E+04 1.11777E-09 4.48495E-09
 -1       629 1.03997E+05 3.01860E+04 2.10086E+02 5.97068E+04 2.65572E-10-4.72446E-09
 -1       630 1.05844E+05 2.83061E+04 9.72878E+01 5.75734E+04 7.10770E-10-1.43552E-09
 -1       631 1.03963E+05 3.01797E+04 5.22381E+01 5.97104E+04-1.79625E-09-4.03627E-09
 -1       632 1.05841E+05 2.83086E+04 3.45693E+01 5.75700E+04-3.95539E-09-4.40235E-09
 -1       633 1.03957E+05 3.01820E+04 3.85734E+01 5.97078E+04-2.07274E-09-1.64619E-10
 -1       634 1.05837E+05 2.83084E+04 6.25310E+01 5.75681E+04 2.78078E-09-4.62819E-10
 -1       635 1.03961E+05 3.01827E+04 1.26820E+02 5.97081E+04 1.56120E-09 5.74801E-09
 -1       636 1.05830E+05 2.83077E+04 2.56239E+02 5.75664E+04-7.33507E-10 5.08089E-09
 -1       637 1.04013E+05 3.02235E+04 5.63219E+02 5.97054E+04 9.94623E-10 7.69433E-10
 -1       638 1.05807E+05 2.84337E+04 1.15766E+03 5.75082E+04-9.45477E-10-3.98268E-09
 -1       639 1.04617E+05 3.10710E+04 2.73875E+03 5.95247E+04-5.44549E-09-4.70209E-09
 -1       640 1.05725E+05 3.09557E+04 5.68385E+03 5.64372E+04-7.13499E-10-1.80273E-09
 -1       656 2.86875E+04-7.26088E+05-6.92666E+04-5.11294E+02 8.18545E-10 4.23231E-09
 -1       657-3.79049E+04-7.57374E+05-5.72821E+04 4.75390E+03 4.23825E-10-9.30616E-10
 -1       658 9.09426E+03-7.35017E+05-3.51521E+04-9.53838E+02 2.15778E-10-4.89592E-10
 -1       659-4.06334E+04-7.58658E+05-6.08655E+04 5.04508E+03 2.32831E-10 1.13297E-09
 -1       660 3.14085E+04-7.24806E+05-7.54365E+04-8.02467E+02-5.09317E-11 2.60495E-09
 -1       661 1.03371E+05 1.12278E+04 9.90506E+03 4.03549E+04 6.49152E-10 5.24960E-09
 -1       662 1.08500E+05 1.90260E+04 6.67432E+03 3.86656E+04 2.49355E-09-2.02454E-09
 -1       663 1.05308E+05 1.44127E+04 2.33474E+03 3.97988E+04 4.14786E-10 3.76303E-10
 -1       664 1.06260E+05 1.52954E+04 1.39577E+03 3.93390E+04 5.26583E-10-2.64791E-09
 -1       665 1.05596E+05 1.48538E+04 5.50636E+02 3.97210E+04-1.70152E-09-8.82892E-10
 -1       666 1.05925E+05 1.47857E+04 3.21006E+02 3.94366E+04-6.84079E-09 9.63578E-10
 -1       667 1.05641E+05 1.49092E+04 1.69274E+02 3.97062E+04-8.65057E-10-1.44614E-09
 -1       668 1.05879E+05 1.47388E+04 1.69432E+02 3.94562E+04 2.28629E-09-1.10366E-08
 -1       669 1.05642E+05 1.48994E+04 2.27050E+02 3.97018E+04 2.04014E-09-3.07442E-09
 -1       670 1.05941E+05 1.48539E+04 4.92039E+02 3.94502E+04 1.99493E-09 4.03467E-09
 -1       671 1.05580E+05 1.47964E+04 8.72993E+02 3.97113E+04 1.25207E-09-2.00828E-09
 -1       672 1.06454E+05 1.56983E+04 2.23291E+03 3.93218E+04-2.05640E-09-3.33367E-09
 -1       673 1.05131E+05 1.40764E+04 3.74183E+03 3.98220E+04-2.28533E-09-1.04751E-09
 -1       674 1.10021E+05 2.17051E+04 1.07012E+04 3.82696E+04-1.21059E-09-1.92028E-09
 -1       675 1.02036E+05 8.95762E+03 1.58835E+04 4.07003E+04-6.11635E-10 1.92631E-09
 -1       676 1.16957E+01-1.39497E+05-5.43267E+02 1.73361E+01-3.71529E-10-2.43511E-10
 -1       677-1.44203E+02-1.39628E+05-9.94202E+02-3.46666E+01-3.62536E-09-4.33662E-09
 -1       678 9.62822E+01-1.39403E+05-1.75747E+03 1.73185E+01-4.31896E-10-4.52045E-09
 -1       679-1.75767E+03-1.40689E+05-4.17469E+03-3.45886E+01-1.56615E-09 1.80322E-09
 -1       680 1.04890E+03-1.38436E+05-6.72826E+03 1.70589E+01 1.27329E-10 3.85244E-09
 -1       771-1.50056E+06-2.60804E+05-3.64851E+04-6.21052E+05-5.94810E-09-4.40923E-09
 -1       772-1.49117E+06-2.81053E+05-1.96142E+04-6.43601E+05-4.98767E-09 2.05000E-09
 -1       773-1.50535E+06-2.57100E+05-8.39943E+03-6.23096E+05-9.89530E-10 6.43922E-09
 -1       774-1.48583E+06-2.76634E+05-4.10723E+03-6.45494E+05 3.89628E-09-1.81899E-10
 -1       775-1.50629E+06-2.56534E+05-2.03470E+03-6.23218E+05-9.49512E-10 4.58385E-10
 -1       776-1.48566E+06-2.76600E+05-9.49078E+02-6.46382E+05 3.05590E-10 5.99994E-09
 -1       777-1.50689E+06-2.56116E+05-5.62491E+02-6.23265E+05-3.12866E-10 8.90395E-10
 -1       778-1.48580E+06-2.76714E+05-2.57723E+02-6.47112E+05 1.22236E-09 2.62480E-09
 -1       779-1.50735E+06-2.55760E+05-2.40132E+02-6.23306E+05-1.88811E-09-1.37607E-09
 -1       780-1.48595E+06-2.76816E+05-1.98644E+02-6.47703E+05-8.00355E-10 5.82077E-11
 -1       781-1.50770E+06-2.55472E+05-3.50670E+02-6.23333E+05-9.64428E-09 8.82210E-10
 -1       782-1.48612E+06-2.76926E+05-6.53412E+02-6.48138E+05-1.93249E-08-3.15288E-09
 -1       783-1.50789E+06-2.55287E+05-1.30592E+03-6.23338E+05-5.62432E-09-9.66907E-10
 -1       784-1.48698E+06-2.77806E+05-3.09972E+03-6.48368E+05-3.92720E-09-2.19188E-10
 -1       785-1.50744E+06-2.55603E+05-5.72983E+03-6.22928E+05-6.91398E-09 9.14952E-10
 -1       786 1.09140E+05-5.83037E+03 1.34879E+04 1.80955E+00 8.38027E-08 3.98541E-09
 -1       787 1.14985E+05 6.74972E+03 9.54263E+03-8.46412E+00 1.66329E-07 2.07342E-09
 -1       788 1.11395E+05-9.13973E+02 3.49099E+03 2.64458E+00 2.50329E-07 1.18598E-09
 -1       789 1.12358E+05 1.05752E+03 2.19340E+03-1.08501E+01 3.34811E-07 3.35800E-09
 -1       790 1.11768E+05-1.42775E+02 8.92438E+02 4.19556E+00 4.64919E-07-5.00262E-09
 -1       791 1.11924E+05 1.65873E+02 5.23907E+02-1.49506E+01 5.95871E-07 8.86502E-09
 -1       792 1.11830E+05-2.29984E+01 2.38970E+02 6.74513E+00 8.37202E-07-6.89475E-09
 -1       793 1.11854E+05 3.22330E+01 1.56320E+02-2.15164E+01 1.07684E-06 2.61213E-09
 -1       794 1.11838E+05-9.22276E+00 1.15376E+02 1.07615E+01 5.38850E-07-5.60313E-09
 -1       795 1.11860E+05 4.74237E+01 1.66289E+02-3.17430E+01 1.86457E-09 7.45376E-09
 -1       796 1.11823E+05-3.81778E+01 2.48726E+02 1.69719E+01 5.39662E-11-3.54078E-10
 -1       797 1.11973E+05 2.79830E+02 5.86163E+02-4.74845E+01-2.58370E-10-3.42809E-09
 -1       798 1.11725E+05-2.41457E+02 9.25161E+02 2.65033E+01-2.49069E-10-9.48603E-10
 -1       799 1.12667E+05 1.78280E+03 2.52204E+03-7.17459E+01-4.63766E-10 5.38887E-09
 -1       800 1.11129E+05-1.53993E+03 3.56266E+03 4.12335E+01-2.79456E-11 1.54023E-09
 -1       801-6.29950E+03 9.76143E+03 9.80414E+03 1.16004E+04 6.40216E-09-4.46050E-09
 -1       802 1.65321E+04 5.63032E+04 3.18033E+04-4.77658E+04 1.72245E-08-3.41980E-09
 -1       803-9.83526E+03 2.62763E+04 4.08981E+04 1.10184E+04 1.35569E-08 1.06291E-08
 -1       804 7.91790E+04 8.95774E+04 1.13874E+05-4.82842E+04 1.60144E-08 1.33670E-08
 -1       805-6.89658E+04-2.33694E+04 1.48526E+05 1.21177E+04 5.68252E-09 1.50517E-08
 -1       806-1.28436E+05-2.75327E+04-1.09160E+04-5.35047E+04-7.47605E-10-1.06274E-09
 -1       807-1.29076E+05-2.59721E+04-5.36276E+03-5.64020E+04-2.44381E-09-4.51854E-09
 -1       808-1.28746E+05-2.35889E+04-2.27494E+03-5.53564E+04 2.61480E-11 3.07395E-10
 -1       809-1.27932E+05-2.44832E+04-1.11217E+03-5.65569E+04 3.19005E-10 5.47345E-10
 -1       810-1.28795E+05-2.34496E+04-5.09243E+02-5.54382E+04 1.05820E-09 1.24328E-09
 -1       811-1.27845E+05-2.44242E+04-2.52564E+02-5.65443E+04 8.95739E-10 7.63634E-10
 -1       812-1.28804E+05-2.34596E+04-1.25998E+02-5.54382E+04-2.60843E-09-1.05701E-08
 -1       813-1.27834E+05-2.44256E+04-7.95102E+01-5.65380E+04-7.78527E-10 5.40194E-09
 -1       814-1.28803E+05-2.34630E+04-7.44987E+01-5.54368E+04-9.48148E-10-3.87718E-09
 -1       815-1.27836E+05-2.44267E+04-1.16726E+02-5.65368E+04 2.17369E-10-2.61525E-09
 -1       816-1.28797E+05-2.34616E+04-2.18631E+02-5.54357E+04 1.92722E-09 1.34030E-08
 -1       817-1.27874E+05-2.44475E+04-4.68985E+02-5.65337E+04 1.03955E-09 2.56216E-09
 -1       818-1.28770E+05-2.35268E+04-9.55672E+02-5.54050E+04 7.55335E-10 1.33150E-09
 -1       819-1.28402E+05-2.50210E+04-2.24960E+03-5.64069E+04-4.13593E-10 5.04872E-09
 -1       820-1.28589E+05-2.52274E+04-4.57812E+03-5.46804E+04 6.38920E-10 3.57363E-09
 -1       821-1.65418E+05 9.21969E+03-2.13243E+04 8.59455E+00-5.39336E-10-3.25690E-09
 -1       822-1.74658E+05-1.06733E+04-1.50893E+04-1.83444E+02-1.52097E-09-2.83808E-09
 -1       823-1.68984E+05 1.44531E+03-5.52308E+03-2.39864E+01 1.05985E-09-2.34445E-09
 -1       824-1.70504E+05-1.67289E+03-3.47566E+03-1.07018E+02 1.17806E-10 2.84098E-09
 -1       825-1.69572E+05 2.26292E+02-1.42776E+03-6.78340E+01-2.41578E-09-3.07477E-09
 -1       826-1.69820E+05-2.66887E+02-8.63452E+02-1.96438E+01-3.93254E-09-2.85014E-09
 -1       827-1.69668E+05 4.03285E+01-4.45266E+02-1.11362E+02-2.82382E-09-1.97716E-09
 -1       828-1.69725E+05-8.14517E+01-3.94927E+02 5.59246E+01-3.13435E-09 4.32398E-10
 -1       829-1.69667E+05 4.10054E+01-4.51095E+02-1.43404E+02-1.54039E-10 1.92996E-09
 -1       830-1.69825E+05-2.72593E+02-8.81324E+02 1.00319E+02 1.33901E-09 1.04808E-09
 -1       831-1.69568E+05 2.31367E+02-1.45865E+03-1.55757E+02-1.84922E-09-1.87345E-09
 -1       832-1.70525E+05-1.71053E+03-3.55421E+03 1.02432E+02-1.50334E-09-1.61117E-09
 -1       833-1.68967E+05 1.47789E+03-5.64742E+03-1.45516E+02-6.96407E-10-4.09273E-09
 -1       834-1.74771E+05-1.09142E+04-1.54302E+04 6.30207E+01-1.13299E-10 6.41967E-09
 -1       835-1.65322E+05 9.42780E+03-2.18062E+04-1.16342E+02 4.06851E-09 5.07225E-09
 -1       836-5.49471E+02 1.57466E+05 9.41598E+03-1.36484E+04 1.20281E-09 2.30830E-09
 -1       837 2.06923E+03 1.60384E+05 8.05064E+03-2.74285E+04 1.79296E-09-1.59650E-09
 -1       838-2.05385E+02 1.58278E+05 8.31954E+03-1.36010E+04 1.55046E-09 4.59102E-09
 -1       839 5.34244E+03 1.62829E+05 1.58534E+04-2.74459E+04 1.99748E-09-1.14596E-10
 -1       840-1.61054E+03 1.55006E+05 2.53281E+04-1.36303E+04 1.31422E-09-6.81780E-10
 -1       856-5.22423E+04 4.45308E+03-1.17339E+04-2.51209E+02-3.06210E-09-8.98126E-10
 -1       857-5.70904E+04-5.22358E+03-8.07893E+03 2.69029E+03-1.83817E-09-4.44265E-09
 -1       858-5.41577E+04 6.24153E+02-3.04526E+03-2.59772E+02-2.83202E-09-5.11022E-10
 -1       859-5.48898E+04-7.26842E+02-1.83946E+03 2.70373E+03 5.41888E-10-9.43601E-10
 -1       860-5.44443E+04 8.69481E+01-7.73454E+02-2.64707E+02 2.25802E-09-2.32123E-09
 -1       861-5.45593E+04-9.74627E+01-4.31017E+02 2.71041E+03-3.17502E-10 1.71269E-10
 -1       862-5.44889E+04 1.16634E+01-1.90177E+02-2.66466E+02 5.09223E-09 3.18465E-11
 -1       863-5.45065E+04-8.75271E+00-9.42644E+01 2.71120E+03 6.98278E-09-7.62304E-09
 -1       864-5.44971E+04 1.52563E-01-3.00152E+01-2.65497E+02 1.96429E-09-3.23883E-09
 -1       865-5.44918E+04 1.14819E+01 1.64081E+01 2.70621E+03 3.12822E-09-2.12350E-09
 -1       866-5.45031E+04-8.64284E+00 6.21859E+01-2.61476E+02-1.37192E-10-3.91503E-09
 -1       867-5.44561E+04 7.31139E+01 1.71174E+02 2.69534E+03 6.42203E-10 3.22507E-09
 -1       868-5.45316E+04-6.07537E+01 2.89473E+02-2.54625E+02 5.34243E-10-3.95892E-09
 -1       869-5.42404E+04 5.05295E+02 7.76531E+02 2.67670E+03-1.90117E-09-7.73292E-09
 -1       870-5.47170E+04-4.29635E+02 1.12711E+03-2.42845E+02 1.74077E-09 2.78305E-10
 -1       871-2.41235E+03-5.03691E+03-7.87700E+03 5.16340E+04 1.71894E-09 6.82076E-09
 -1       872-1.04507E+03-6.79538E+03-3.20763E+03 6.69386E+04 2.87173E-09 9.38326E-09
 -1       873-1.80351E+01-5.96360E+03 4.70141E+02 5.15193E+04 1.83059E-09 1.00162E-08
 -1       874 1.22382E+03-4.81521E+03 4.49605E+03 6.69630E+04 4.34466E-09 6.73992E-09
 -1       875 2.89382E+03-7.03708E+03 9.96503E+03 5.16131E+04 1.17916E-09 1.88493E-09
 -1       876 1.29405E+05 2.22957E+04 6.94149E+03 5.24956E+04-2.66795E-09-3.05135E-10
 -1       877 1.29799E+05 2.38221E+04 3.70681E+03 5.45528E+04-4.04953E-09-3.01873E-09
 -1       878 1.30055E+05 2.15266E+04 1.55305E+03 5.30653E+04 6.40694E-09 6.40489E-09
 -1       879 1.28854E+05 2.28821E+04 7.73575E+02 5.46034E+04 1.31649E-09 6.17615E-09
 -1       880 1.30103E+05 2.15173E+04 3.60174E+02 5.30885E+04 1.47793E-10-1.94311E-09
 -1       881 1.28792E+05 2.28424E+04 1.91755E+02 5.45946E+04 2.29687E-09-6.19707E-10
 -1       882 1.30108E+05 2.15226E+04 1.21755E+02 5.30892E+04 6.20969E-09-3.26363E-09
 -1       883 1.28787E+05 2.28407E+04 1.29358E+02 5.45924E+04 1.01084E-08 3.32439E-09
 -1       884 1.30106E+05 2.15209E+04 2.04430E+02 5.30892E+04 2.89364E-09-1.99711E-09
 -1       885 1.28804E+05 2.28436E+04 4.10180E+02 5.45977E+04 3.00204E-10 1.24896E-09
 -1       886 1.30090E+05 2.15090E+04 8.26345E+02 5.30876E+04 3.45341E-09 5.27928E-09
 -1       887 1.28949E+05 2.29387E+04 1.80496E+03 5.46183E+04-2.96906E-09-3.11047E-09
 -1       888 1.29976E+05 2.15293E+04 3.63710E+03 5.30299E+04 3.42823E-10 3.66003E-09
 -1       889 1.31117E+05 2.51888E+04 8.68908E+03 5.45488E+04 1.03283E-09-1.75351E-09
 -1       890 1.28492E+05 2.32904E+04 1.62736E+04 5.16434E+04 2.38674E-09-3.23507E-09
 -1       891-7.78536E+01-7.36194E+04-8.65963E+02 1.40191E+04 2.22713E-09-1.32104E-09
 -1       892-1.35683E+02-7.38293E+04-9.43547E+02 2.12187E+04-2.03590E-09 6.14818E-10
 -1       893-1.85793E+01-7.36486E+04-1.34936E+03 1.40216E+04 1.62538E-09 8.33120E-09
 -1       894-7.31037E+02-7.43534E+04-2.80328E+03 2.11439E+04 7.15772E-10 6.78483E-09
 -1       895-5.68979E+02-7.30702E+04-4.93922E+03 1.40932E+04 1.46710E-09-6.82121E-11
 -1       956-1.62503E+05-2.34363E+03-5.90061E+03 1.07442E+04-2.03772E-09-7.72388E-10
 -1       957-1.63668E+05-7.91527E+02-3.02934E+03 1.29326E+04-4.70209E-10-3.38468E-09
 -1       958-1.63024E+05-6.38191E+01-1.36462E+03 1.06744E+04 1.69257E-09-2.83956E-09
 -1       959-1.63116E+05-1.31747E+01-6.97121E+02 1.30080E+04-1.42245E-09 1.11061E-09
 -1       960-1.63069E+05 1.74410E+01-3.39704E+02 1.06680E+04-1.66892E-09 2.07751E-09
 -1       961-1.63074E+05 1.49611E+01-1.80165E+02 1.30151E+04-3.99905E-09 1.74703E-09
 -1       962-1.63077E+05 1.41106E+01-1.02831E+02 1.06672E+04 2.49997E-09 2.06785E-09
 -1       963-1.63071E+05 1.49782E+01-8.20917E+01 1.30162E+04 4.20721E-09 1.87401E-09
 -1       964-1.63078E+05 1.48198E+01-9.90055E+01 1.06669E+04 2.66613E-09 9.54401E-10
 -1       965-1.63076E+05 1.65776E+01-1.70538E+02 1.30162E+04 2.93434E-09 2.75213E-09
 -1       966-1.63073E+05 1.95073E+01-3.19741E+02 1.06672E+04-1.20048E-09 2.28135E-09
 -1       967-1.63119E+05-8.23532E+00-6.55597E+02 1.30123E+04 1.16825E-09-1.29603E-11
 -1       968-1.63034E+05-5.53435E+01-1.28276E+03 1.06709E+04-4.55657E-09-2.29396E-09
 -1       969-1.63641E+05-7.38582E+02-2.84805E+03 1.29684E+04-1.11031E-08-3.54974E-09
 -1       970-1.62546E+05-2.19774E+03-5.54714E+03 1.07122E+04-4.32806E-09 2.24645E-10
 -1       971-1.54494E+05-8.17638E+02-4.54915E+03 7.61095E+03-3.41015E-09-4.34000E-10
 -1       972-1.55600E+05-5.88030E+02-2.47779E+03 1.06197E+04-1.69939E-09-3.46631E-09
 -1       973-1.54997E+05-6.24017E+00-1.10913E+03 7.54882E+03-2.41471E-09-1.59048E-09
 -1       974-1.55073E+05-8.45508E+00-5.74725E+02 1.06862E+04 1.81637E-09 1.63016E-09
 -1       975-1.55034E+05 1.34815E+01-2.86398E+02 7.54387E+03 3.04681E-11-2.82125E-09
 -1       976-1.55039E+05 1.39560E+01-1.64049E+02 1.06920E+04-2.24054E-09 2.50765E-09
 -1       977-1.55040E+05 1.23144E+01-1.16690E+02 7.54306E+03 7.75913E-10 1.00721E-09
 -1       978-1.55039E+05 1.57789E+01-1.33463E+02 1.06931E+04 5.48954E-09-9.69351E-10
 -1       979-1.55040E+05 1.54239E+01-2.11651E+02 7.54274E+03 3.71034E-09 3.60734E-09
 -1       980-1.55055E+05 1.68631E+01-4.06929E+02 1.06932E+04 4.69186E-09 5.94918E-09
 -1       981-1.55027E+05 2.56214E+01-7.87115E+02 7.54294E+03 3.11275E-09 1.59113E-09
 -1       982-1.55163E+05-4.08422E+01-1.62638E+03 1.06903E+04-1.77408E-10-2.04011E-09
 -1       983-1.54929E+05-2.40717E+01-3.15959E+03 7.54567E+03 9.06607E-09-3.53475E-09
 -1       984-1.56684E+05-1.68973E+03-7.07525E+03 1.06482E+04 1.63139E-08 1.56854E-09
 -1       985-1.53500E+05-2.33531E+03-1.29924E+04 7.58722E+03 1.15188E-08 1.36333E-09
 -3
    1PSTEP                         5           3           1          
  100CL  103 3.75000E-01         409                     0    3           1
 -4  DISP        4    1
 -5  D1          1    2    1    0
 -5  D2          1    2    2    0
 -5  D3          1    2    3    0
 -5  ALL         1    2    0    0    1ALL
 -1         1 9.81708E-05 0.00000E+00 0.00000E+00
 -1         2 9.05552E-05 5.81254E-30 1.65436E-24
 -1         3 8.39375E-05 3.37851E-28 0.00000E+00
 -1         5 6.03130E-05 1.40994E-26 0.00000E+00
 -1         8 7.83867E-05-7.16259E-07 0.00000E+00
 -1         9 7.96650E-05 4.79514E-07 0.00000E+00
 -1        10 7.77655E-05-1.14681E-06 3.30872E-24
 -1        12 5.98914E-05 4.08901E-07 0.00000E+00
 -1        15 5.48428E-05-7.80100E-07 0.00000E+00
 -1        16 5.67282E-05 3.75016E-07 0.00000E+00
 -1        17 5.79378E-05-2.41243E-06 0.00000E+00
 -1        18 5.78358E-05 2.17638E-07 0.00000E+00
 -1        19 5.86268E-05 8.15553E-07 0.00000E+00
 -1        20 5.87335E-05 1.20645E-05 0.00000E+00
 -1        21 5.83316E-05 2.28099E-05-1.65436E-24
 -1        24 1.47875E-05-3.24982E-06 0.00000E+00
 -1        25 5.64913E-05 3.11377E-07 0.00000E+00
 -1        26 5.72381E-05 1.13604E-06 0.00000E+00
 -1        27 5.61104E-05 1.02473E-05 0.00000E+00
 -1        28 5.57441E-05 2.24605E-05 0.00000E+00
 -1        32 0.00000E+00 0.00000E+00 0.00000E+00
 -1        33 5.48774E-05 1.52377E-06 0.00000E+00
 -1        34 5.37848E-05 1.02310E-05 0.00000E+00
 -1        35 5.27460E-05 2.22762E-05 0.00000E+00
 -1        51 9.68840E-05-1.18284E-07 0.00000E+00
 -1        52 9.44990E-05-2.33369E-07 0.00000E+00
 -1        53 9.12318E-05-3.49341E-07 0.00000E+00
 -1        54 8.73072E-05-4.67314E-07 0.00000E+00
 -1        55 8.29503E-05-5.87950E-07-4.75629E-24
 -1        56 9.72777E-05-5.71426E-07-2.64698E-23
 -1        57 9.64921E-05-1.53129E-06 0.00000E+00
 -1        58 9.58129E-05-2.76959E-06 0.00000E+00
 -1        59 9.51936E-05-4.18552E-06 0.00000E+00
 -1        60 9.45978E-05-5.66492E-06-2.64698E-23
 -1        61 9.39822E-05-7.09455E-06 0.00000E+00
 -1        62 9.33063E-05-8.36305E-06 0.00000E+00
 -1        63 9.25297E-05-9.36325E-06 0.00000E+00
 -1        64 9.16174E-05-1.00007E-05 0.00000E+00
 -1        65 9.05369E-05-1.01896E-05 0.00000E+00
 -1        66 8.92640E-05-9.86572E-06 0.00000E+00
 -1        67 8.77796E-05-8.97651E-06 1.32349E-23
 -1        68 8.60731E-05-7.49720E-06 0.00000E+00
 -1        69 8.41449E-05-5.41479E-06 1.32349E-23
 -1        70 8.19944E-05-2.74940E-06 0.00000E+00
 -1        86 9.02719E-05 8.59900E-08 0.00000E+00
 -1        87 8.94210E-05 1.71229E-07 8.27181E-25
 -1        88 8.79755E-05 2.55745E-07 1.65436E-24
 -1        89 8.59064E-05 3.36436E-07-5.16988E-26
 -1        90 8.31562E-05 4.16479E-07 0.00000E+00
 -1       121 8.37654E-05-1.90398E-07 0.00000E+00
 -1       122 8.32494E-05-3.80914E-07 3.30872E-24
 -1       123 8.23900E-05-5.71665E-07 6.61744E-24
 -1       124 8.11885E-05-7.62797E-07 0.00000E+00
 -1       125 7.96462E-05-9.54370E-07 0.00000E+00
 -1       191 6.03013E-05 6.81558E-08 3.30872E-24
 -1       192 6.02661E-05 1.36310E-07 0.00000E+00
 -1       193 6.02076E-05 2.04464E-07 0.00000E+00
 -1       194 6.01256E-05 2.72615E-07 0.00000E+00
 -1       195 6.00202E-05 3.40761E-07 0.00000E+00
 -1       251 7.84490E-05 2.53026E-06 0.00000E+00
 -1       252 7.85289E-05 4.44513E-06-5.16988E-26
 -1       253 7.86095E-05 5.26123E-06 0.00000E+00
 -1       254 7.86930E-05 5.20741E-06 0.00000E+00
 -1       255 7.87765E-05 4.47401E-06-1.65436E-24
 -1       256 7.88599E-05 3.24900E-06 1.65436E-24
 -1       257 7.89431E-05 1.69843E-06 0.00000E+00
 -1       258 7.90260E-05-1.27903E-08 0.00000E+00
 -1       259 7.91090E-05-1.72695E-06 3.30872E-24
 -1       260 7.91921E-05-3.28632E-06 0.00000E+00
 -1       261 7.92756E-05-4.52625E-06-1.65436E-24
 -1       262 7.93590E-05-5.28102E-06 8.27181E-25
 -1       263 7.94425E-05-5.36324E-06 0.00000E+00
 -1       264 7.95230E-05-4.58316E-06 0.00000E+00
 -1       265 7.96029E-05-2.71286E-06 0.00000E+00
 -1       266 7.44627E-05-7.36637E-07 3.30872E-24
 -1       267 7.05388E-05-7.46090E-07 8.27181E-25
 -1       268 6.66148E-05-7.56235E-07 0.00000E+00
 -1       269 6.26907E-05-7.64331E-07-2.06795E-25
 -1       270 5.87668E-05-7.72378E-07-4.13590E-25
 -1       271 7.59992E-05 2.21073E-06 0.00000E+00
 -1       272 7.39715E-05 4.07171E-06 0.00000E+00
 -1       273 7.22984E-05 4.99634E-06-2.64698E-23
 -1       274 7.09231E-05 5.11126E-06 0.00000E+00
 -1       275 6.97972E-05 4.56030E-06-2.64698E-23
 -1       276 6.88629E-05 3.49491E-06 1.32349E-23
 -1       277 6.80609E-05 2.07514E-06 0.00000E+00
 -1       278 6.73296E-05 4.65955E-07 1.32349E-23
 -1       279 6.66062E-05-1.16465E-06 0.00000E+00
 -1       280 6.58281E-05-2.64835E-06 0.00000E+00
 -1       281 6.49331E-05-3.81922E-06-2.64698E-23
 -1       282 6.38612E-05-4.51583E-06 0.00000E+00
 -1       283 6.25541E-05-4.58438E-06 0.00000E+00
 -1       284 6.09606E-05-3.87896E-06 0.00000E+00
 -1       285 5.90250E-05-2.26869E-06-2.64698E-23
 -1       301 7.57751E-05 4.57375E-07 3.30872E-24
 -1       302 7.18884E-05 4.46918E-07 0.00000E+00
 -1       303 6.80225E-05 4.36828E-07 3.30872E-24
 -1       304 6.41953E-05 4.25480E-07 0.00000E+00
 -1       305 6.04247E-05 4.12361E-07 0.00000E+00
 -1       306 7.71981E-05 3.36087E-06 0.00000E+00
 -1       307 7.50993E-05 5.14729E-06-1.32349E-23
 -1       308 7.34187E-05 5.83175E-06 0.00000E+00
 -1       309 7.21384E-05 5.42898E-06 0.00000E+00
 -1       310 7.12095E-05 4.08763E-06 2.64698E-23
 -1       311 7.05623E-05 1.98851E-06 0.00000E+00
 -1       312 7.00965E-05-5.97141E-07 0.00000E+00
 -1       313 6.97040E-05-3.38041E-06 2.64698E-23
 -1       314 6.92687E-05-6.04852E-06 0.00000E+00
 -1       315 6.86757E-05-8.29302E-06 1.32349E-23
 -1       316 6.78284E-05-9.85628E-06 0.00000E+00
 -1       317 6.66407E-05-1.05056E-05 1.32349E-23
 -1       318 6.50635E-05-1.01169E-05 2.64698E-23
 -1       319 6.30712E-05-8.60169E-06 0.00000E+00
 -1       320 6.06693E-05-6.01060E-06 2.64698E-23
 -1       336 7.55037E-05-1.35505E-06-6.61744E-24
 -1       337 7.28185E-05-1.56458E-06-3.30872E-24
 -1       338 6.97139E-05-1.77521E-06-6.61744E-24
 -1       339 6.61950E-05-1.98687E-06-3.30872E-24
 -1       340 6.22675E-05-2.20002E-06 0.00000E+00
 -1       406 5.97391E-05 4.77030E-07 0.00000E+00
 -1       407 5.95634E-05 5.45133E-07 0.00000E+00
 -1       408 5.93643E-05 6.13190E-07 0.00000E+00
 -1       409 5.91417E-05 6.81117E-07 0.00000E+00
 -1       410 5.88958E-05 7.48780E-07 0.00000E+00
 -1       521 5.34243E-05 2.19800E-06 0.00000E+00
 -1       522 5.07713E-05 2.06694E-06 0.00000E+00
 -1       523 4.88068E-05 1.13078E-07-5.29396E-23
 -1       524 4.74272E-05-3.44904E-06 0.00000E+00
 -1       525 4.64591E-05-8.11922E-06 0.00000E+00
 -1       526 4.56886E-05-1.33301E-05-2.64698E-23
 -1       527 4.48730E-05-1.84201E-05 0.00000E+00
 -1       528 4.37701E-05-2.27364E-05 2.64698E-23
 -1       529 4.21858E-05-2.57589E-05 0.00000E+00
 -1       530 3.99558E-05-2.70521E-05 2.64698E-23
 -1       531 3.70245E-05-2.64776E-05-5.29396E-23
 -1       532 3.33838E-05-2.40172E-05-2.64698E-23
 -1       533 2.91440E-05-1.99771E-05 5.29396E-23
 -1       534 2.44704E-05-1.47599E-05 2.64698E-23
 -1       535 1.95767E-05-8.97962E-06 5.29396E-23
 -1       536 5.79184E-05 1.63068E-06 0.00000E+00
 -1       537 5.79081E-05 4.70736E-06 0.00000E+00
 -1       538 5.78997E-05 6.90490E-06 0.00000E+00
 -1       539 5.78938E-05 8.31078E-06-2.06795E-25
 -1       540 5.78887E-05 9.02067E-06 2.06795E-25
 -1       541 5.78840E-05 9.13037E-06 0.00000E+00
 -1       542 5.78793E-05 8.74177E-06 2.06795E-25
 -1       543 5.78744E-05 7.95684E-06 0.00000E+00
 -1       544 5.78693E-05 6.88156E-06 0.00000E+00
 -1       545 5.78640E-05 5.62191E-06 0.00000E+00
 -1       546 5.78586E-05 4.28580E-06 0.00000E+00
 -1       547 5.78533E-05 2.98110E-06 0.00000E+00
 -1       548 5.78481E-05 1.81536E-06 0.00000E+00
 -1       549 5.78435E-05 8.96153E-07 0.00000E+00
 -1       550 5.78390E-05 3.28575E-07 0.00000E+00
 -1       551 5.22177E-05-2.53927E-06 3.30872E-24
 -1       552 4.53762E-05-2.67068E-06-8.27181E-25
 -1       553 3.78103E-05-2.80710E-06-3.30872E-24
 -1       554 2.99223E-05-2.94778E-06 0.00000E+00
 -1       555 2.21148E-05-3.09006E-06-1.32349E-23
 -1       556 5.64366E-05 1.47853E-06-1.32349E-23
 -1       557 5.52893E-05 4.45310E-06 0.00000E+00
 -1       558 5.44573E-05 6.59575E-06 0.00000E+00
 -1       559 5.39054E-05 7.99762E-06 0.00000E+00
 -1       560 5.35982E-05 8.74961E-06 0.00000E+00
 -1       561 5.35011E-05 8.94312E-06 0.00000E+00
 -1       562 5.35792E-05 8.66964E-06 0.00000E+00
 -1       563 5.37980E-05 8.02073E-06 0.00000E+00
 -1       564 5.41231E-05 7.08804E-06 0.00000E+00
 -1       565 5.45200E-05 5.96320E-06 0.00000E+00
 -1       566 5.49545E-05 4.73793E-06-8.27181E-25
 -1       567 5.53923E-05 3.50392E-06-4.13590E-25
 -1       568 5.57991E-05 2.35287E-06 0.00000E+00
 -1       569 5.61406E-05 1.37635E-06 0.00000E+00
 -1       570 5.63825E-05 6.65999E-07 0.00000E+00
 -1       571 5.78838E-05 2.87099E-07-2.06795E-25
 -1       572 5.79329E-05 3.23702E-07-6.20385E-25
 -1       573 5.79822E-05 3.33282E-07 8.27181E-25
 -1       574 5.80318E-05 3.21982E-07-4.13590E-25
 -1       575 5.80813E-05 2.95972E-07 8.27181E-25
 -1       576 5.81309E-05 2.61464E-07 8.27181E-25
 -1       577 5.81805E-05 2.24672E-07 0.00000E+00
 -1       578 5.82302E-05 1.91817E-07-8.27181E-25
 -1       579 5.82798E-05 1.69120E-07 1.65436E-24
 -1       580 5.83294E-05 1.62802E-07 0.00000E+00
 -1       581 5.83790E-05 1.79082E-07 0.00000E+00
 -1       582 5.84286E-05 2.24174E-07 0.00000E+00
 -1       583 5.84782E-05 3.04284E-07 0.00000E+00
 -1       584 5.85278E-05 4.25558E-07 0.00000E+00
 -1       585 5.85773E-05 5.94102E-07 0.00000E+00
 -1       586 5.75949E-05 2.34242E-07 0.00000E+00
 -1       587 5.73330E-05 2.50423E-07-2.06795E-25
 -1       588 5.70708E-05 2.66422E-07 0.00000E+00
 -1       589 5.68292E-05 2.82166E-07 0.00000E+00
 -1       590 5.66293E-05 2.97483E-07 0.00000E+00
 -1       591 5.77865E-05 3.12159E-07 5.16988E-26
 -1       592 5.77456E-05 3.79106E-07 0.00000E+00
 -1       593 5.77129E-05 4.23727E-07-4.13590E-25
 -1       594 5.76866E-05 4.50749E-07-2.06795E-25
 -1       595 5.76650E-05 4.64964E-07 0.00000E+00
 -1       596 5.76465E-05 4.71128E-07-2.06795E-25
 -1       597 5.76291E-05 4.73996E-07 0.00000E+00
 -1       598 5.76112E-05 4.78317E-07 0.00000E+00
 -1       599 5.75910E-05 4.88842E-07 4.13590E-25
 -1       600 5.75666E-05 5.10320E-07 2.06795E-25
 -1       601 5.75364E-05 5.47501E-07 0.00000E+00
 -1       602 5.74986E-05 6.05140E-07 1.03398E-25
 -1       603 5.74514E-05 6.87991E-07 1.55096E-25
 -1       604 5.73931E-05 8.00848E-07 5.16988E-26
 -1       605 5.73220E-05 9.48436E-07 0.00000E+00
 -1       606 5.86360E-05 1.14999E-06 0.00000E+00
 -1       607 5.86434E-05 1.55523E-06 0.00000E+00
 -1       608 5.86504E-05 2.02710E-06 0.00000E+00
 -1       609 5.86571E-05 2.56091E-06 0.00000E+00
 -1       610 5.86637E-05 3.15198E-06 0.00000E+00
 -1       611 5.86702E-05 3.79551E-06 0.00000E+00
 -1       612 5.86767E-05 4.48672E-06 0.00000E+00
 -1       613 5.86832E-05 5.22085E-06 0.00000E+00
 -1       614 5.86896E-05 5.99310E-06 1.65436E-24
 -1       615 5.86960E-05 6.79869E-06 0.00000E+00
 -1       616 5.87024E-05 7.63284E-06 0.00000E+00
 -1       617 5.87087E-05 8.49076E-06-4.13590E-25
 -1       618 5.87150E-05 9.36766E-06 0.00000E+00
 -1       619 5.87213E-05 1.02588E-05 0.00000E+00
 -1       620 5.87275E-05 1.11593E-05 0.00000E+00
 -1       621 5.83620E-05 8.68999E-07 0.00000E+00
 -1       622 5.81163E-05 9.22706E-07 0.00000E+00
 -1       623 5.78853E-05 9.76407E-07 1.65436E-24
 -1       624 5.76648E-05 1.03002E-06 8.27181E-25
 -1       625 5.74505E-05 1.08355E-06 0.00000E+00
 -1       626 5.85585E-05 1.16680E-06 3.30872E-24
 -1       627 5.84688E-05 1.57665E-06 0.00000E+00
 -1       628 5.83591E-05 2.03970E-06 0.00000E+00
 -1       629 5.82317E-05 2.55013E-06 0.00000E+00
 -1       630 5.80887E-05 3.10215E-06 0.00000E+00
 -1       631 5.79323E-05 3.68990E-06 3.30872E-24
 -1       632 5.77647E-05 4.30755E-06-3.30872E-24
 -1       633 5.75880E-05 4.94926E-06 8.27181E-25
 -1       634 5.74045E-05 5.60917E-06 1.65436E-24
 -1       635 5.72163E-05 6.28145E-06 0.00000E+00
 -1       636 5.70257E-05 6.96024E-06 0.00000E+00
 -1       637 5.68348E-05 7.63972E-06 0.00000E+00
 -1       638 5.66458E-05 8.31401E-06-1.65436E-24
 -1       639 5.64609E-05 8.97729E-06-8.27181E-25
 -1       640 5.62819E-05 9.62370E-06-8.27181E-25
 -1       656 5.79816E-05 1.17688E-05 0.00000E+00
 -1       657 5.74956E-05 1.14613E-05-3.30872E-24
 -1       658 5.71732E-05 1.11548E-05 0.00000E+00
 -1       659 5.69104E-05 1.08486E-05-3.30872E-24
 -1       660 5.65936E-05 1.05413E-05 0.00000E+00
 -1       661 5.84555E-05 1.29514E-05 0.00000E+00
 -1       662 5.81940E-05 1.38004E-05-8.27181E-25
 -1       663 5.79464E-05 1.46124E-05-1.65436E-24
 -1       664 5.77123E-05 1.53891E-05 0.00000E+00
 -1       665 5.74910E-05 1.61320E-05 1.65436E-24
 -1       666 5.72819E-05 1.68426E-05 0.00000E+00
 -1       667 5.70844E-05 1.75224E-05 0.00000E+00
 -1       668 5.68980E-05 1.81726E-05 0.00000E+00
 -1       669 5.67222E-05 1.87947E-05 0.00000E+00
 -1       670 5.65565E-05 1.93899E-05-8.27181E-25
 -1       671 5.64003E-05 1.99594E-05 0.00000E+00
 -1       672 5.62533E-05 2.05045E-05 8.27181E-25
 -1       673 5.61150E-05 2.10262E-05 1.65436E-24
 -1       674 5.59845E-05 2.15255E-05 0.00000E+00
 -1       675 5.58621E-05 2.20037E-05-4.13590E-25
 -1       676 5.78995E-05 2.27513E-05-1.65436E-24
 -1       677 5.74675E-05 2.26927E-05-8.27181E-25
 -1       678 5.70359E-05 2.26342E-05 0.00000E+00
 -1       679 5.66046E-05 2.25759E-05 0.00000E+00
 -1       680 5.61740E-05 2.25175E-05 0.00000E+00
 -1       771 1.18386E-05 2.33576E-06 2.64698E-23
 -1       772 9.26872E-06 6.90500E-06-1.32349E-23
 -1       773 7.06212E-06 1.05162E-05 2.64698E-23
 -1       774 5.19431E-06 1.32310E-05 0.00000E+00
 -1       775 3.64132E-06 1.51122E-05 2.64698E-23
 -1       776 2.37821E-06 1.62241E-05 1.32349E-23
 -1       777 1.37977E-06 1.66325E-05-2.64698E-23
 -1       778 6.20347E-07 1.64042E-05 0.00000E+00
 -1       779 7.40938E-08 1.56073E-05 0.00000E+00
 -1       780-2.85205E-07 1.43109E-05 1.32349E-23
 -1       781-4.83851E-07 1.25847E-05-2.64698E-23
 -1       782-5.48438E-07 1.04994E-05 1.32349E-23
 -1       783-5.05609E-07 8.12629E-06 0.00000E+00
 -1       784-3.82153E-07 5.53716E-06 0.00000E+00
 -1       785-2.04961E-07 2.80415E-06 0.00000E+00
 -1       786 5.65353E-05 3.07757E-07-4.13590E-25
 -1       787 5.65818E-05 3.06058E-07 0.00000E+00
 -1       788 5.66282E-05 3.06705E-07 0.00000E+00
 -1       789 5.66751E-05 3.10130E-07 8.27181E-25
 -1       790 5.67220E-05 3.17060E-07 0.00000E+00
 -1       791 5.67690E-05 3.28232E-07 0.00000E+00
 -1       792 5.68160E-05 3.44836E-07 0.00000E+00
 -1       793 5.68630E-05 3.68077E-07-8.27181E-25
 -1       794 5.69101E-05 3.99870E-07 0.00000E+00
 -1       795 5.69571E-05 4.42149E-07 0.00000E+00
 -1       796 5.70041E-05 4.97975E-07-1.65436E-24
 -1       797 5.70511E-05 5.70437E-07-8.27181E-25
 -1       798 5.70981E-05 6.64410E-07 0.00000E+00
 -1       799 5.71450E-05 7.84815E-07-8.27181E-25
 -1       800 5.71919E-05 9.39413E-07-8.27181E-25
 -1       801 5.26753E-05 3.13523E-07-4.13590E-25
 -1       802 4.13166E-05 2.60888E-07 0.00000E+00
 -1       803 2.63946E-05 1.65473E-07-3.30872E-24
 -1       804 1.18872E-05 7.05405E-08 0.00000E+00
 -1       805 1.76386E-06 2.62508E-08 1.32349E-23
 -1       806 5.64351E-05 2.75625E-07-1.65436E-24
 -1       807 5.63764E-05 2.39914E-07 0.00000E+00
 -1       808 5.63160E-05 2.07903E-07-1.65436E-24
 -1       809 5.62527E-05 1.82700E-07-8.27181E-25
 -1       810 5.61857E-05 1.67402E-07 0.00000E+00
 -1       811 5.61137E-05 1.65065E-07-8.27181E-25
 -1       812 5.60357E-05 1.78739E-07 1.65436E-24
 -1       813 5.59506E-05 2.11468E-07 8.27181E-25
 -1       814 5.58572E-05 2.66293E-07 1.65436E-24
 -1       815 5.57544E-05 3.46255E-07 0.00000E+00
 -1       816 5.56409E-05 4.54390E-07 8.27181E-25
 -1       817 5.55158E-05 5.93737E-07 0.00000E+00
 -1       818 5.53779E-05 7.67330E-07-8.27181E-25
 -1       819 5.52261E-05 9.78194E-07 4.13590E-25
 -1       820 5.50594E-05 1.22935E-06-8.27181E-25
 -1       821 5.71717E-05 1.36512E-06-8.27181E-25
 -1       822 5.71012E-05 1.61742E-06 0.00000E+00
 -1       823 5.70310E-05 1.91151E-06 1.65436E-24
 -1       824 5.69599E-05 2.26580E-06 0.00000E+00
 -1       825 5.68888E-05 2.68973E-06 1.65436E-24
 -1       826 5.68176E-05 3.19251E-06-8.27181E-25
 -1       827 5.67462E-05 3.77158E-06-1.65436E-24
 -1       828 5.66748E-05 4.42415E-06-8.27181E-25
 -1       829 5.66034E-05 5.13642E-06 0.00000E+00
 -1       830 5.65319E-05 5.89443E-06 8.27181E-25
 -1       831 5.64605E-05 6.67739E-06 0.00000E+00
 -1       832 5.63892E-05 7.46442E-06 0.00000E+00
 -1       833 5.63179E-05 8.23402E-06 0.00000E+00
 -1       834 5.62475E-05 8.96477E-06 0.00000E+00
 -1       835 5.61768E-05 9.64103E-06-8.27181E-25
 -1       836 5.69508E-05 1.20059E-06 0.00000E+00
 -1       837 5.65796E-05 1.26657E-06 0.00000E+00
 -1       838 5.61554E-05 1.33242E-06 0.00000E+00
 -1       839 5.57096E-05 1.39784E-06-4.13590E-25
 -1       840 5.52732E-05 1.46317E-06 0.00000E+00
 -1       856 5.60900E-05 1.08602E-05 0.00000E+00
 -1       857 5.60674E-05 1.15509E-05 0.00000E+00
 -1       858 5.60449E-05 1.23071E-05 0.00000E+00
 -1       859 5.60219E-05 1.31166E-05 2.06795E-25
 -1       860 5.59988E-05 1.39669E-05-8.27181E-25
 -1       861 5.59756E-05 1.48457E-05 0.00000E+00
 -1       862 5.59524E-05 1.57404E-05-8.27181E-25
 -1       863 5.59292E-05 1.66387E-05 0.00000E+00
 -1       864 5.59060E-05 1.75280E-05 0.00000E+00
 -1       865 5.58828E-05 1.83959E-05 0.00000E+00
 -1       866 5.58596E-05 1.92300E-05 0.00000E+00
 -1       867 5.58365E-05 2.00179E-05-4.13590E-25
 -1       868 5.58134E-05 2.07471E-05 0.00000E+00
 -1       869 5.57903E-05 2.14055E-05 0.00000E+00
 -1       870 5.57673E-05 2.19807E-05 0.00000E+00
 -1       871 5.56437E-05 1.02467E-05-4.13590E-25
 -1       872 5.52517E-05 1.02445E-05 0.00000E+00
 -1       873 5.49023E-05 1.02421E-05-2.06795E-25
 -1       874 5.45629E-05 1.02393E-05-2.06795E-25
 -1       875 5.42011E-05 1.02361E-05 0.00000E+00
 -1       876 5.59485E-05 1.08666E-05 0.00000E+00
 -1       877 5.57740E-05 1.15238E-05 0.00000E+00
 -1       878 5.55871E-05 1.22142E-05-1.65436E-24
 -1       879 5.53895E-05 1.29337E-05 8.27181E-25
 -1       880 5.51826E-05 1.36779E-05 0.00000E+00
 -1       881 5.49681E-05 1.44426E-05 8.27181E-25
 -1       882 5.47474E-05 1.52235E-05 0.00000E+00
 -1       883 5.45223E-05 1.60164E-05 8.27181E-25
 -1       884 5.42943E-05 1.68169E-05 1.65436E-24
 -1       885 5.40650E-05 1.76208E-05-8.27181E-25
 -1       886 5.38360E-05 1.84239E-05 0.00000E+00
 -1       887 5.36089E-05 1.92219E-05 8.27181E-25
 -1       888 5.33851E-05 2.00106E-05-1.65436E-24
 -1       889 5.31661E-05 2.07855E-05-8.27181E-25
 -1       890 5.29536E-05 2.15424E-05 0.00000E+00
 -1       891 5.53292E-05 2.24297E-05 0.00000E+00
 -1       892 5.49010E-05 2.23987E-05 0.00000E+00
 -1       893 5.44439E-05 2.23678E-05-4.13590E-25
 -1       894 5.39426E-05 2.23369E-05 2.06795E-25
 -1       895 5.33817E-05 2.23061E-05 0.00000E+00
 -1       956 5.48104E-05 1.90661E-06 0.00000E+00
 -1       957 5.47423E-05 2.33334E-06-4.13590E-25
 -1       958 5.46740E-05 2.79942E-06 0.00000E+00
 -1       959 5.46055E-05 3.30000E-06 0.00000E+00
 -1       960 5.45370E-05 3.83027E-06 1.65436E-24
 -1       961 5.44684E-05 4.38536E-06 0.00000E+00
 -1       962 5.43999E-05 4.96040E-06 0.00000E+00
 -1       963 5.43313E-05 5.55053E-06 8.27181E-25
 -1       964 5.42627E-05 6.15089E-06-1.65436E-24
 -1       965 5.41942E-05 6.75660E-06 0.00000E+00
 -1       966 5.41256E-05 7.36279E-06-1.65436E-24
 -1       967 5.40570E-05 7.96461E-06 0.00000E+00
 -1       968 5.39885E-05 8.55717E-06 0.00000E+00
 -1       969 5.39201E-05 9.13563E-06 0.00000E+00
 -1       970 5.38520E-05 9.69515E-06 1.65436E-24
 -1       971 5.37207E-05 1.07816E-05 0.00000E+00
 -1       972 5.36557E-05 1.13899E-05 8.27181E-25
 -1       973 5.35906E-05 1.20496E-05 0.00000E+00
 -1       974 5.35254E-05 1.27541E-05 0.00000E+00
 -1       975 5.34601E-05 1.34967E-05 0.00000E+00
 -1       976 5.33948E-05 1.42707E-05-8.27181E-25
 -1       977 5.33295E-05 1.50695E-05 1.65436E-24
 -1       978 5.32641E-05 1.58865E-05-8.27181E-25
 -1       979 5.31988E-05 1.67150E-05 1.65436E-24
 -1       980 5.31334E-05 1.75482E-05 0.00000E+00
 -1       981 5.30681E-05 1.83797E-05 0.00000E+00
 -1       982 5.30028E-05 1.92026E-05-8.27181E-25
 -1       983 5.29377E-05 2.00103E-05 0.00000E+00
 -1       984 5.28728E-05 2.07963E-05 0.00000E+00
 -1       985 5.28082E-05 2.15537E-05 0.00000E+00
 -3
    1PSTEP                         6           3           1          
  100CL  103 3.75000E-01         409                     0    3           1
 -4  STRESS      6    1
 -5  SXX         1    4    1    1
 -5  SYY         1    4    2    2
 -5  SZZ         1    4    3    3
 -5  SXY         1    4    1    2
 -5  SYZ         1    4    2    3
 -5  SZX         1    4    3    1
 -1         1-1.29410E+06-5.95022E+05-2.63783E+05-8.37617E+05-9.45874E-11 5.87170E-09
 -1         2 2.17683E+03 2.48975E+05 7.11877E+03 6.00581E+02-1.38982E-10 2.93780E-08
 -1         3-4.73441E+01-5.44073E+05 1.26362E+02-1.49855E+02-1.24102E-10-4.33192E-09
 -1         5-4.40305E+00 1.95012E+05 5.10951E+00 2.14852E-02 1.01057E-10 6.19320E-09
 -1         8-6.09133E+05-2.65455E+05-2.05293E+04-4.62462E+05 2.51021E-10 5.66433E-09
 -1         9-1.04584E+06-2.67890E+05-1.03157E+05-3.59559E+05 2.95404E-09 1.65310E-09
 -1        10-4.22874E+02-5.66809E+05-7.28975E+02-1.00611E+03-2.69256E-09-2.52655E-08
 -1        12-2.30737E+00 1.95023E+05 1.65683E+02 4.22368E-01 1.23581E-10 5.34328E-11
 -1        15 1.61342E+03 8.86663E+02 5.21536E+03 2.73778E+00-3.52799E-10-7.77056E-08
 -1        16-2.94998E+06-9.47539E+05-4.58767E+05-9.62441E+05 9.00279E-09 1.71713E-09
 -1        17-6.51332E+05-4.00023E+05-1.25444E+05-3.76214E+05-4.28772E-09-4.86034E-10
 -1        18 2.09180E+04 1.55151E+03-9.81599E+03-4.60097E+04 5.94014E-10-3.37036E-09
 -1        19 6.10857E+04 7.28372E+04-3.44823E+02 1.20034E+04-4.69845E-10-7.58155E-10
 -1        20-2.53063E+04-2.88638E+05-6.36484E+04 2.14174E+04 2.55689E-09 4.56506E-09
 -1        21-2.73142E+01-1.67440E+05-5.40919E+02-4.96267E+01-1.70739E-09-4.89278E-09
 -1        24-2.59866E+06-8.91584E+05-3.70289E+05-1.08617E+06-1.22333E-08-5.03011E-09
 -1        25 2.35842E+04-8.42652E+02 1.41767E+04-8.30758E+04 3.05045E-10 3.90064E-09
 -1        26-1.42453E+04 4.96484E+04-1.00937E+04-7.02294E+03 1.20126E-09 3.65759E-10
 -1        27-4.61664E+04-1.58365E+05-5.93991E+04 3.56874E+04 4.98509E-09-2.96601E-09
 -1        28 1.29511E+04-4.62414E+04 9.45398E+03 1.48493E+04 1.70368E-09-2.47519E-09
 -1        32-6.15691E+05-8.40017E+04 2.68541E+05-4.17114E+05-1.22236E-08 9.86515E-09
 -1        33-9.05768E+04 4.66349E+04 1.65257E+04-2.69666E+04 8.87098E-10 4.07529E-09
 -1        34-1.17607E+05-1.17061E+04 2.76409E+02 3.61483E+04 1.37720E-09 2.62116E-09
 -1        35-1.31737E+04-1.83853E+04-7.18514E+02 2.91642E+04 3.50512E-09-1.42002E-09
 -1        51 1.13957E+04-3.03368E+05 2.87805E+04-7.55955E+05 1.01863E-10-2.91038E-09
 -1        52 6.55570E+03-3.01767E+05 1.92400E+04-8.81692E+05 6.91216E-10-1.33878E-09
 -1        53 4.64426E+03-3.10518E+05 1.68557E+04-7.53360E+05 4.14730E-10 2.28465E-09
 -1        54 1.39775E+04-3.08612E+05 2.74776E+04-8.84426E+05-1.89175E-10 6.47560E-09
 -1        55 2.93082E+04-3.18880E+05 4.94454E+04-7.52985E+05 4.43833E-10 1.47702E-09
 -1        56-2.48524E+06-2.80615E+05-1.94306E+05-9.58130E+05 4.25644E-10-1.40426E-09
 -1        57-2.56229E+06-4.57352E+05-1.30965E+05-9.51760E+05 4.54747E-10 3.69255E-10
 -1        58-2.52439E+06-3.42025E+05-4.57312E+04-9.45792E+05 1.54614E-10-2.63208E-09
 -1        59-2.51696E+06-3.85373E+05-2.72996E+04-9.66594E+05 1.54614E-11-4.18049E-09
 -1        60-2.53018E+06-3.50510E+05-1.06843E+04-9.44038E+05 2.62617E-10-4.84306E-09
 -1        61-2.51099E+06-3.74673E+05-6.07415E+03-9.67741E+05-6.28518E-10 5.77893E-09
 -1        62-2.53026E+06-3.52467E+05-2.93088E+03-9.44718E+05 1.10731E-10 7.33365E-10
 -1        63-2.51245E+06-3.71028E+05-2.40182E+03-9.65108E+05 1.44030E-09-6.05394E-09
 -1        64-2.52865E+06-3.54166E+05-2.77710E+03-9.46633E+05 3.47882E-11-6.16660E-09
 -1        65-2.51706E+06-3.68112E+05-5.53156E+03-9.60257E+05 4.64183E-10-1.17119E-08
 -1        66-2.52558E+06-3.55459E+05-9.76823E+03-9.49507E+05-8.44921E-10 3.82897E-09
 -1        67-2.52787E+06-3.72316E+05-2.47533E+04-9.52858E+05-1.17507E-09 1.58593E-08
 -1        68-2.51785E+06-3.50236E+05-4.15822E+04-9.53921E+05 3.01588E-09 1.92267E-09
 -1        69-2.57321E+06-4.33581E+05-1.18896E+05-9.34797E+05 7.18501E-10 0.00000E+00
 -1        70-2.48065E+06-2.96057E+05-1.76494E+05-9.66922E+05-9.02219E-10 1.83354E-09
 -1        86-1.09244E+03 2.46737E+05 7.61748E+03-3.00308E+02 9.40872E-10 2.60917E-09
 -1        87 7.24854E+03 2.51463E+05 1.59066E+04 1.23898E+03 1.59548E-09 2.58353E-09
 -1        88-6.15035E+03 2.44251E+05 2.43358E+04-9.38720E+02 2.35104E-09 3.79129E-09
 -1        89 4.58339E+04 2.69486E+05 6.56571E+04 2.68552E+03 3.60433E-09-3.52898E-09
 -1        90-3.95544E+04 2.28729E+05 9.27171E+04-1.74648E+03 4.17276E-09 8.67317E-09
 -1       121-7.87960E+01-5.44311E+05 1.13027E+02 7.48585E+01 2.86811E-10 3.49610E-09
 -1       122-5.71477E+00-5.44046E+05 2.75115E+02-2.99771E+02-9.84432E-10-3.15322E-09
 -1       123-1.08525E+02-5.44340E+05 4.38280E+02 2.24504E+02 8.20421E-10-4.06362E-09
 -1       124 5.01603E+02-5.43737E+05 1.15186E+03-6.94473E+02-1.89391E-09-2.08547E-09
 -1       125-4.37256E+02-5.44627E+05 1.75942E+03 4.69474E+02 1.24737E-09-4.36739E-09
 -1       191-4.79156E+00 1.95029E+05 6.07158E+00-1.11983E-02 1.13978E-10-1.62208E-09
 -1       192-4.87267E+00 1.95013E+05 1.08205E+01 4.25175E-01 1.47545E-10-3.89264E-10
 -1       193-6.04026E+00 1.95029E+05 2.00888E+01-4.17068E-01 2.20873E-10 7.58519E-10
 -1       194-6.38401E+00 1.95014E+05 4.09342E+01 1.11581E+00 1.14552E-10-3.94084E-09
 -1       195-8.44020E+00 1.95027E+05 8.00355E+01-7.06893E-01 3.03476E-10 1.43564E-09
 -1       251 2.22968E+05-3.84177E+04 8.96948E+04 3.80984E+03-3.17868E-10-6.57019E-09
 -1       252 2.63900E+05 4.44454E+04 6.36480E+04-1.21783E+04 1.01238E-10-1.35524E-08
 -1       253 2.38457E+05-5.94749E+03 2.32141E+04 2.57313E+03 3.49701E-10-2.32740E-09
 -1       254 2.45645E+05 6.87078E+03 1.46805E+04-1.02318E+04 1.11271E-09 3.37081E-09
 -1       255 2.41145E+05-9.18406E+02 5.99826E+03 1.86344E+03 9.03242E-10 5.48653E-10
 -1       256 2.42427E+05 1.09071E+03 3.64819E+03-9.18554E+03 6.03663E-10 2.86792E-09
 -1       257 2.41641E+05-1.60445E+02 1.87710E+03 1.52689E+03 1.64135E-10 1.43598E-09
 -1       258 2.41922E+05 3.41150E+02 1.66329E+03-8.84585E+03-6.25835E-10-2.53601E-09
 -1       259 2.41640E+05-1.63509E+02 1.90606E+03 1.52376E+03 1.99478E-10-8.37076E-10
 -1       260 2.42437E+05 1.11760E+03 3.73040E+03-9.17364E+03-6.54524E-10-8.85802E-09
 -1       261 2.41136E+05-9.41894E+02 6.14875E+03 1.85467E+03 1.10376E-09-3.79669E-09
 -1       262 2.45723E+05 7.04799E+03 1.50515E+04-1.02059E+04-3.37621E-10-5.36784E-09
 -1       263 2.38387E+05-6.10005E+03 2.38131E+04 2.55599E+03-4.22460E-10-1.14414E-09
 -1       264 2.64416E+05 4.55877E+04 6.52736E+04-1.21363E+04-2.47570E-09 3.36877E-09
 -1       265 2.22520E+05-3.94018E+04 9.20098E+04 3.78496E+03-8.19682E-10 5.72982E-09
 -1       266-2.92078E+04-1.36567E+04 6.85340E+04-5.85831E+01-4.98403E-10-1.33069E-07
 -1       267 3.38604E+04 1.59185E+04 4.84367E+04 6.75893E+01-9.67702E-10-2.63951E-07
 -1       268-4.54060E+03-2.25443E+03 1.80038E+04-8.61227E+00-8.52197E-10-2.12917E-07
 -1       269 5.36113E+03 2.69815E+03 1.17021E+04 1.00318E+01-5.99471E-10-1.61087E-07
 -1       270-8.04712E+02-4.43325E+02 5.64877E+03-1.36139E+00-4.77257E-10-1.13700E-07
 -1       271-2.87143E+06-3.58329E+05-2.21134E+05-1.11876E+06-5.09317E-11 8.87667E-10
 -1       272-2.93427E+06-5.35969E+05-1.42148E+05-1.13548E+06 5.03519E-10-7.87259E-09
 -1       273-2.91390E+06-4.12512E+05-5.22368E+04-1.10795E+06 3.01043E-10-8.66930E-09
 -1       274-2.88453E+06-4.69715E+05-2.92245E+04-1.15228E+06 2.08320E-09 8.40737E-09
 -1       275-2.92070E+06-4.17113E+05-1.21508E+04-1.10506E+06 1.40608E-09 5.56611E-09
 -1       276-2.87647E+06-4.64390E+05-6.45154E+03-1.15699E+06-1.48862E-09 2.05546E-10
 -1       277-2.92234E+06-4.16794E+05-3.15616E+03-1.10387E+06-4.67026E-10-1.11299E-09
 -1       278-2.87492E+06-4.64556E+05-2.29389E+03-1.15842E+06 1.33653E-09 8.45807E-09
 -1       279-2.92244E+06-4.16758E+05-2.46221E+03-1.10380E+06-1.81808E-09 4.11660E-09
 -1       280-2.87600E+06-4.64286E+05-4.51080E+03-1.15732E+06-9.11996E-10 4.30327E-09
 -1       281-2.92111E+06-4.17204E+05-8.26607E+03-1.10483E+06 3.63798E-10-1.89266E-09
 -1       282-2.88203E+06-4.67164E+05-1.97158E+04-1.15324E+06-1.16415E-09 2.30102E-09
 -1       283-2.91601E+06-4.14670E+05-3.52375E+04-1.10736E+06-4.12001E-10 4.38376E-10
 -1       284-2.91664E+06-5.10495E+05-9.57411E+04-1.14028E+06 7.45786E-10-1.26820E-08
 -1       285-2.88660E+06-3.79050E+05-1.49079E+05-1.11555E+06 4.38376E-10-2.19006E-09
 -1       301 1.10308E+04-6.67144E+03 8.58572E+04-2.13696E+04-5.63887E-10 6.12545E-10
 -1       302 1.18643E+04 1.51016E+04 6.20647E+04-3.14673E+04 9.80663E-10-2.47019E-09
 -1       303 5.46689E+02 1.03002E+03 5.72392E+04-2.14273E+04-4.72937E-10 2.87446E-09
 -1       304 2.24234E+04 2.48477E+04 9.63988E+04-3.13762E+04 1.12777E-09 1.23746E-08
 -1       305 2.22152E+04-1.63472E+04 1.61847E+05-2.13925E+04-6.98492E-10 1.26961E-08
 -1       306-3.08211E+06-3.56911E+05-2.35195E+05-1.20546E+06 1.45883E-09-6.49015E-09
 -1       307-3.20433E+06-5.54484E+05-1.60335E+05-1.16324E+06 3.13048E-09 7.33417E-09
 -1       308-3.13707E+06-4.28530E+05-5.53567E+04-1.18170E+06 1.19326E-09 8.70932E-09
 -1       309-3.13533E+06-4.76589E+05-3.34745E+04-1.19743E+06 9.36922E-10 6.19639E-09
 -1       310-3.15081E+06-4.33367E+05-1.29979E+04-1.17178E+06 1.01963E-09-2.56296E-09
 -1       311-3.11733E+06-4.73318E+05-7.51007E+03-1.21194E+06 9.89075E-10-1.45178E-10
 -1       312-3.15519E+06-4.31470E+05-3.67572E+03-1.16739E+06 3.03203E-10-2.57444E-09
 -1       313-3.11380E+06-4.74327E+05-3.31045E+03-1.21539E+06-2.48204E-09-2.40578E-09
 -1       314-3.15439E+06-4.32288E+05-3.99245E+03-1.16837E+06-1.53079E-09-4.71277E-09
 -1       315-3.12040E+06-4.70541E+05-8.37760E+03-1.20825E+06 9.27685E-11-1.04933E-10
 -1       316-3.14847E+06-4.35379E+05-1.46925E+04-1.17443E+06 1.93427E-09 1.39244E-09
 -1       317-3.14171E+06-4.73468E+05-3.78664E+04-1.19100E+06-1.56251E-09 7.32507E-09
 -1       318-3.13298E+06-4.29710E+05-6.26393E+04-1.18543E+06-2.84581E-09 6.54109E-09
 -1       319-3.21873E+06-5.63036E+05-1.81534E+05-1.15405E+06-2.03181E-09 5.18412E-10
 -1       320-3.07187E+06-3.47371E+05-2.66146E+05-1.21087E+06 6.35919E-09-4.08909E-09
 -1       336 4.10344E+02-5.89250E+05-3.15388E+03 5.35744E+02-5.28576E-09-8.42101E-09
 -1       337-1.14201E+03-5.90083E+05-3.45564E+03-1.40490E+03-9.60222E-09-1.49385E-09
 -1       338 2.68927E+02-5.89340E+05-4.37126E+03 8.66586E+02-6.89408E-09 7.97900E-09
 -1       339-4.52046E+03-5.92164E+05-9.56505E+03-2.05939E+03-1.25183E-08 3.30874E-09
 -1       340 3.06179E+03-5.87204E+05-1.47498E+04 1.18612E+03-8.57654E-09 8.47012E-09
 -1       406 1.03115E+01 1.95020E+05 3.27068E+02 2.72492E-01 4.25956E-10-2.79670E-09
 -1       407 1.11747E+02 1.95080E+05 6.95228E+02-7.55272E+00 9.26548E-12-2.79124E-09
 -1       408 3.55535E+02 1.94970E+05 1.38848E+03 7.38579E+00 4.79986E-10-1.17652E-08
 -1       409 1.49924E+03 1.95524E+05 3.12601E+03-6.88269E+01-1.43245E-11-2.07481E-08
 -1       410 4.31172E+03 1.94575E+05 6.38164E+03 6.34535E+01 4.72937E-10-9.58926E-09
 -1       521-5.83618E+06-6.74145E+05-4.37397E+05-2.27028E+06 3.82715E-09-8.14907E-09
 -1       522-6.03934E+06-1.05637E+06-2.96842E+05-2.21684E+06-2.13186E-09-5.52609E-09
 -1       523-5.94542E+06-7.97120E+05-1.02877E+05-2.21723E+06-1.30967E-10-1.76806E-09
 -1       524-5.90365E+06-9.22698E+05-6.18339E+04-2.29129E+06 2.44768E-09 1.67347E-10
 -1       525-5.97145E+06-8.04102E+05-2.39419E+04-2.19729E+06 1.64573E-09-2.05273E-09
 -1       526-5.87732E+06-9.10375E+05-1.37787E+04-2.31031E+06 2.36935E-09 4.34852E-10
 -1       527-5.97194E+06-8.08678E+05-6.67736E+03-2.19861E+06 3.47291E-09-2.18367E-09
 -1       528-5.89153E+06-8.89593E+05-5.42692E+03-2.28952E+06 1.24533E-09-1.66665E-09
 -1       529-5.95656E+06-8.25269E+05-6.98352E+03-2.21762E+06-5.15229E-10 5.14319E-10
 -1       530-5.93160E+06-8.52815E+05-1.32032E+04-2.24248E+06-5.45788E-09 1.93177E-09
 -1       531-5.93124E+06-8.45983E+05-2.42261E+04-2.24514E+06-2.20916E-09 4.67480E-10
 -1       532-5.99141E+06-8.33452E+05-6.12098E+04-2.18896E+06-1.86589E-09-1.15660E-08
 -1       533-5.89740E+06-8.44812E+05-1.01951E+05-2.27134E+06 7.85803E-10-6.28643E-09
 -1       534-6.12103E+06-9.75246E+05-2.95093E+05-2.12813E+06 2.66573E-09 6.60657E-09
 -1       535-5.80363E+06-7.06767E+05-4.33651E+05-2.30572E+06-8.60746E-09 8.87667E-09
 -1       536-2.09067E+04-1.60174E+04 3.68664E+04 2.91932E+02-1.47810E-09 8.65657E-09
 -1       537-3.63361E+03 1.85319E+04 2.63029E+04-1.33575E+03-6.15868E-09-1.73532E-09
 -1       538-1.45699E+04-2.51090E+03 9.50150E+03 3.01906E+02 3.65660E-10-1.02091E-09
 -1       539-1.11283E+04 2.89726E+03 6.09244E+03-1.38432E+03 3.97359E-09 2.45689E-09
 -1       540-1.34213E+04-3.90862E+02 2.39371E+03 3.40502E+02 1.42379E-09 4.16514E-09
 -1       541-1.25528E+04 4.46163E+02 1.44358E+03-1.45286E+03-3.16177E-10 4.58539E-09
 -1       542-1.31514E+04-5.74928E+01 5.68675E+02 3.70429E+02 1.39806E-10 1.13403E-10
 -1       543-1.29211E+04 5.33039E+01 2.86248E+02-1.50036E+03-1.09438E-10-1.66178E-09
 -1       544-1.30570E+04 4.63262E+00 2.70749E+01 3.88003E+02 4.48601E-10-1.04240E-08
 -1       545-1.30732E+04-8.20692E+01-2.02176E+02-1.52262E+03-8.63031E-10-5.05245E-09
 -1       546-1.30012E+04 7.91842E+01-4.53671E+02 3.92693E+02 2.28759E-10 4.02866E-09
 -1       547-1.33069E+04-5.84133E+02-1.18979E+03-1.51895E+03-1.77246E-09-5.47033E-10
 -1       548-1.28230E+04 5.06092E+02-1.93021E+03 3.84333E+02-1.87438E-09-7.38851E-10
 -1       549-1.46581E+04-3.72983E+03-5.25628E+03-1.48788E+03-1.01807E-09-1.03626E-10
 -1       550-1.16474E+04 3.22057E+03-7.49451E+03 3.61614E+02-2.67875E-11 6.71662E-10
 -1       551 5.73219E+03-3.08985E+05 1.69881E+04-5.29882E+05-2.25591E-08 6.98492E-10
 -1       552 1.20526E+04-3.09753E+05 2.22734E+04-7.54104E+05-1.83063E-08 5.76983E-09
 -1       553 7.90851E+03-3.13807E+05 3.47374E+04-5.28163E+05-2.84272E-08 6.58110E-09
 -1       554 2.92969E+04-2.98971E+05 7.38196E+04-7.54828E+05-1.74041E-08 5.89216E-09
 -1       555 2.92978E+04-3.27887E+05 1.32641E+05-5.28853E+05-2.82234E-08-3.51065E-09
 -1       556 4.38846E+04-9.91705E+04 3.41491E+04-1.31860E+05-5.56611E-09-2.96131E-09
 -1       557 8.40961E+04-1.32819E+05 1.78938E+04-1.64804E+05 8.44011E-10 4.16321E-09
 -1       558 4.41454E+04-1.03951E+05 7.29807E+03-1.27723E+05-1.12050E-09 6.43195E-09
 -1       559 7.90999E+04-1.37627E+05 3.68387E+03-1.66901E+05 3.28873E-09 2.52157E-09
 -1       560 4.32559E+04-1.03346E+05 1.55559E+03-1.28254E+05-3.07773E-09-4.46653E-09
 -1       561 7.76075E+04-1.37311E+05 8.12202E+02-1.67838E+05-1.89902E-09 2.66937E-10
 -1       562 4.25178E+04-1.02841E+05 3.22579E+02-1.28789E+05-1.66256E-09 8.61519E-09
 -1       563 7.67298E+04-1.36936E+05 1.92124E+02-1.68399E+05-1.23018E-08-3.90048E-09
 -1       564 4.20594E+04-1.02542E+05 7.00398E+01-1.29116E+05-4.23643E-09 1.12414E-09
 -1       565 7.62788E+04-1.36745E+05 3.72044E+01-1.68681E+05 3.06500E-10 1.13232E-09
 -1       566 4.19014E+04-1.02435E+05-2.16207E+01-1.29232E+05-4.86762E-09 5.02587E-09
 -1       567 7.62212E+04-1.36716E+05-9.47060E+01-1.68668E+05-7.80483E-09 1.25801E-08
 -1       568 4.20696E+04-1.02547E+05-2.55508E+02-1.29161E+05-9.56788E-09 6.44832E-09
 -1       569 7.60530E+04-1.36600E+05-6.00455E+02-1.67926E+05-3.60160E-09-2.66664E-09
 -1       570 4.29781E+04-1.03410E+05-1.25268E+03-1.29203E+05-9.09495E-10-5.37284E-09
 -1       571 1.41451E+05 5.10498E+03 7.56378E+03-3.56624E+04-2.93312E-10 4.70436E-10
 -1       572 1.42578E+05 1.77534E+03 3.70561E+03-3.90915E+04-8.37417E-10 2.85763E-09
 -1       573 1.41906E+05 4.22941E+02 1.64616E+03-3.55690E+04 3.28782E-10 1.96064E-09
 -1       574 1.42039E+05 1.37020E+02 8.24668E+02-3.91961E+04-6.06292E-10-2.82853E-10
 -1       575 1.41957E+05 1.82685E+01 3.88636E+02-3.55566E+04-2.91948E-10-1.02182E-09
 -1       576 1.41966E+05 4.47259E+00 1.97762E+02-3.92101E+04 1.91676E-10-2.45564E-10
 -1       577 1.41965E+05-3.38494E+00 9.73794E+01-3.55549E+04 6.48697E-10 1.50158E-09
 -1       578 1.41959E+05-1.80333E+00 5.30224E+01-3.92117E+04-1.09139E-09-1.18052E-09
 -1       579 1.41972E+05-4.02219E+00 3.23815E+01-3.55549E+04 2.57387E-10 1.28057E-09
 -1       580 1.41967E+05-4.83735E+00 3.01030E+01-3.92096E+04 5.10227E-10 2.11321E-09
 -1       581 1.41983E+05-7.59935E+00 4.08115E+01-3.55571E+04 7.27596E-12-4.50382E-09
 -1       582 1.41990E+05-1.05445E+00 7.76052E+01-3.91883E+04-1.96906E-10-4.05817E-09
 -1       583 1.41996E+05 1.90192E+01 1.49028E+02-3.55762E+04 3.16504E-10-1.20781E-09
 -1       584 1.42061E+05 1.35708E+02 3.33952E+02-3.90298E+04-4.98403E-10-5.15456E-10
 -1       585 1.41977E+05 4.30922E+02 6.78482E+02-3.57159E+04-3.84716E-10 1.91085E-09
 -1       586-1.77079E+03 4.61299E+04-2.35034E+03-1.21123E+05 3.64253E-10-4.99813E-09
 -1       587-3.88932E+02 4.58143E+04-2.94397E+02-1.33285E+05 6.32099E-10 2.95967E-09
 -1       588 4.74457E+02 4.58791E+04 1.59403E+03-1.21049E+05 3.58341E-10 6.17865E-09
 -1       589 2.39442E+03 4.67569E+04 4.68658E+03-1.33175E+05 5.31145E-10-7.19865E-10
 -1       590 6.88603E+03 4.52984E+04 1.00518E+04-1.21233E+05 2.81034E-10 1.49794E-09
 -1       591-3.15906E+04-8.73119E+03-1.03538E+04-1.62072E+04-1.93324E-10-2.43062E-09
 -1       592-3.25942E+04-1.14607E+04-5.63608E+03-1.88828E+04-2.21257E-09-3.40344E-09
 -1       593-3.26675E+04-8.09392E+03-2.34115E+03-1.69140E+04 2.16119E-10-2.32956E-09
 -1       594-3.11323E+04-9.92253E+03-1.16942E+03-1.89598E+04-5.79632E-10-2.31833E-09
 -1       595-3.27498E+04-8.09459E+03-5.36878E+02-1.69475E+04-6.12192E-09-9.86837E-10
 -1       596-3.10322E+04-9.85004E+03-2.73801E+02-1.89500E+04-1.02244E-08 6.14989E-10
 -1       597-3.27600E+04-8.10116E+03-1.50739E+02-1.69489E+04-5.97854E-09-4.81938E-09
 -1       598-3.10228E+04-9.84710E+03-1.24291E+02-1.89473E+04 1.24942E-10 1.21247E-09
 -1       599-3.27593E+04-8.10115E+03-1.62623E+02-1.69487E+04 4.64917E-09 3.53111E-09
 -1       600-3.10336E+04-9.85093E+03-3.05331E+02-1.89499E+04 8.99610E-09 3.38514E-09
 -1       601-3.27466E+04-8.09391E+03-6.03740E+02-1.69466E+04-3.17527E-10-5.34862E-09
 -1       602-3.11465E+04-9.93247E+03-1.31809E+03-1.89598E+04 2.46689E-09 6.75919E-09
 -1       603-3.26529E+04-8.09431E+03-2.63975E+03-1.69091E+04 1.79148E-09-4.56748E-09
 -1       604-3.28001E+04-1.16612E+04-6.35532E+03-1.88655E+04-6.72799E-10-1.87288E-09
 -1       605-3.14320E+04-8.81771E+03-1.16749E+04-1.61178E+04 6.15046E-11 3.22052E-09
 -1       606 2.02418E+04-6.80562E+03-1.22585E+04 1.97891E+04 6.70389E-09-2.19006E-09
 -1       607 1.81424E+04-2.19500E+03-6.10417E+03 2.22143E+04 1.79957E-08-1.81308E-09
 -1       608 1.93369E+04-3.69242E+02-2.73320E+03 1.96312E+04 1.27984E-08 3.38764E-09
 -1       609 1.91008E+04-9.68132E+01-1.38061E+03 2.23887E+04 1.25874E-09 1.98804E-09
 -1       610 1.92302E+04 1.69835E+01-6.59243E+02 1.96136E+04-2.74122E-09-6.90761E-10
 -1       611 1.91865E+04 2.44133E+01-3.32604E+02 2.24078E+04-7.03676E-09-2.79488E-09
 -1       612 1.92036E+04 2.61265E+01-1.59030E+02 1.96118E+04-3.15868E-09 1.51749E-09
 -1       613 1.91878E+04 2.87985E+01-7.25985E+01 2.24101E+04-3.63389E-09-2.79806E-09
 -1       614 1.91898E+04 2.52646E+01-2.02982E+01 1.96112E+04 1.86992E-09-5.24915E-09
 -1       615 1.91816E+04 3.14180E+01 2.23593E+01 2.24105E+04 4.90400E-09 3.22825E-09
 -1       616 1.91793E+04 2.82780E+01 7.45178E+01 1.96114E+04-3.57477E-09-2.73349E-09
 -1       617 1.91877E+04 4.92566E+01 1.72860E+02 2.24102E+04-9.86347E-10 2.36696E-09
 -1       618 1.91620E+04 7.96120E+01 3.49514E+02 1.96115E+04 6.60748E-10 1.10208E-09
 -1       619 1.93094E+04 3.20818E+02 7.85568E+02 2.24097E+04 9.82254E-10-2.93767E-10
 -1       620 1.90447E+04 9.09969E+02 1.57918E+03 1.96109E+04 2.39754E-09 7.53971E-10
 -1       621 2.44725E+02 1.53863E+05 2.11519E+03 5.14377E+03-1.72854E-10-6.09361E-10
 -1       622 2.79287E+02 1.54387E+05 1.78995E+03 7.51237E+03-1.45064E-10 1.12379E-10
 -1       623 1.15885E+01 1.54015E+05 2.05154E+03 5.12060E+03-2.08502E-10 3.84455E-09
 -1       624 9.26206E+02 1.54980E+05 3.88973E+03 7.53401E+03-2.19870E-10-1.18442E-09
 -1       625 9.29825E+02 1.53266E+05 6.75927E+03 5.12237E+03-2.04864E-10-5.20620E-09
 -1       626 1.26926E+05 3.52286E+04 2.52345E+03 6.87065E+04-1.34833E-09-5.02041E-10
 -1       627 1.25181E+05 3.65169E+04 1.21570E+03 7.14889E+04-1.30603E-09-4.20437E-09
 -1       628 1.27025E+05 3.40328E+04 5.13656E+02 6.90871E+04 5.31236E-09 8.30778E-09
 -1       629 1.24818E+05 3.62302E+04 2.51670E+02 7.16575E+04 4.31328E-09 3.04811E-09
 -1       630 1.27032E+05 3.39752E+04 1.16468E+02 6.90982E+04 1.79534E-09-3.98239E-09
 -1       631 1.24776E+05 3.62232E+04 6.26040E+01 7.16605E+04 8.72433E-10 2.07869E-09
 -1       632 1.27028E+05 3.39789E+04 4.14166E+01 6.90934E+04-4.33647E-09-5.61022E-09
 -1       633 1.24767E+05 3.62265E+04 4.62983E+01 7.16565E+04-2.18915E-09-6.18309E-09
 -1       634 1.27021E+05 3.39790E+04 7.50537E+01 6.90906E+04 3.73370E-09-6.16433E-09
 -1       635 1.24771E+05 3.62275E+04 1.52247E+02 7.16565E+04 2.62844E-09 3.58227E-10
 -1       636 1.27013E+05 3.39784E+04 3.07581E+02 6.90884E+04-6.26414E-10 6.54995E-09
 -1       637 1.24833E+05 3.62766E+04 6.76054E+02 7.16533E+04 1.09333E-09 5.11943E-09
 -1       638 1.26986E+05 3.41294E+04 1.38953E+03 6.90186E+04 8.68454E-10 7.03949E-10
 -1       639 1.25559E+05 3.72935E+04 3.28725E+03 7.14368E+04-1.89937E-09-1.46747E-09
 -1       640 1.26888E+05 3.71560E+04 6.82206E+03 6.77333E+04-4.67026E-10 3.68368E-09
 -1       656 3.44357E+04-8.71495E+05-8.31391E+04-4.78633E+02 1.18234E-09-4.49648E-09
 -1       657-4.55008E+04-9.09037E+05-6.87540E+04 5.69114E+03 9.76797E-10 4.46019E-09
 -1       658 1.09169E+04-8.82208E+05-4.21901E+04-1.11751E+03 4.07681E-10 2.72641E-09
 -1       659-4.87759E+04-9.10582E+05-7.30554E+04 6.11304E+03-9.09495E-13-3.40203E-09
 -1       660 3.77022E+04-8.69952E+05-9.05425E+04-9.00530E+02 6.62112E-10-3.22332E-09
 -1       661 1.24016E+05 1.34856E+04 1.18851E+04 4.84363E+04 7.90806E-10 5.93036E-09
 -1       662 1.30184E+05 2.28296E+04 8.00855E+03 4.63947E+04 3.93095E-09-1.60014E-09
 -1       663 1.26343E+05 1.73055E+04 2.80146E+03 4.77671E+04 4.93969E-10-2.12378E-09
 -1       664 1.27494E+05 1.83563E+04 1.67484E+03 4.72061E+04 7.43043E-10 8.00782E-10
 -1       665 1.26690E+05 1.78334E+04 6.60703E+02 4.76722E+04-1.86134E-09 3.25343E-10
 -1       666 1.27089E+05 1.77472E+04 3.85209E+02 4.73260E+04-1.83178E-09 3.33874E-09
 -1       667 1.26745E+05 1.78987E+04 2.03102E+02 4.76532E+04-1.33009E-09 1.56721E-09
 -1       668 1.27031E+05 1.76932E+04 2.03327E+02 4.73521E+04 1.37737E-09 3.05254E-09
 -1       669 1.26747E+05 1.78860E+04 2.72430E+02 4.76466E+04 9.56533E-11 4.73696E-09
 -1       670 1.27104E+05 1.78334E+04 5.90423E+02 4.73472E+04 2.84965E-09 2.36810E-09
 -1       671 1.26673E+05 1.77614E+04 1.04751E+03 4.76570E+04-3.78805E-10 4.67429E-09
 -1       672 1.27718E+05 1.88483E+04 2.67928E+03 4.71953E+04-1.48762E-09-7.78186E-10
 -1       673 1.26136E+05 1.68966E+04 4.48982E+03 4.77888E+04-1.71241E-09 1.45837E-09
 -1       674 1.31997E+05 2.60573E+04 1.28402E+04 4.59345E+04-1.71985E-09 5.86806E-09
 -1       675 1.22423E+05 1.07540E+04 1.90585E+04 4.88418E+04 8.04448E-10 6.74845E-10
 -1       676 1.40387E+01-1.67395E+05-6.51944E+02 2.48139E+01 1.49716E-09-4.76388E-09
 -1       677-1.73041E+02-1.67553E+05-1.19310E+03-4.96143E+01-4.15444E-09-1.13042E-08
 -1       678 1.15554E+02-1.67283E+05-2.10907E+03 2.47833E+01 4.38831E-10-4.58103E-09
 -1       679-2.10938E+03-1.68826E+05-5.00996E+03-4.94861E+01-3.63571E-09-1.34253E-08
 -1       680 1.25883E+03-1.66123E+05-8.07443E+03 2.44009E+01-1.25056E-10-6.41325E-09
 -1       771-1.79985E+06-3.13600E+05-4.39273E+04-7.45319E+05-6.86487E-09-5.66070E-09
 -1       772-1.78878E+06-3.37425E+05-2.35826E+04-7.71858E+05-4.68208E-09 1.53887E-09
 -1       773-1.80575E+06-3.09030E+05-1.01583E+04-7.47779E+05-1.26602E-09 3.11775E-09
 -1       774-1.78241E+06-3.32190E+05-4.95065E+03-7.74376E+05 8.18909E-09-1.91994E-09
 -1       775-1.80704E+06-3.08225E+05-2.49489E+03-7.47933E+05 2.71393E-09-6.89397E-10
 -1       776-1.78225E+06-3.32194E+05-1.15212E+03-7.75664E+05 2.73576E-09-6.02449E-09
 -1       777-1.80790E+06-3.07611E+05-7.10767E+02-7.48001E+05 4.14366E-09-2.09184E-10
 -1       778-1.78246E+06-3.32365E+05-3.16980E+02-7.76732E+05 3.91810E-09 2.21189E-09
 -1       779-1.80857E+06-3.07088E+05-3.09902E+02-7.48061E+05 4.22006E-10-2.75941E-09
 -1       780-1.78269E+06-3.32511E+05-2.42114E+02-7.77595E+05-3.07045E-09-4.21619E-09
 -1       781-1.80908E+06-3.06668E+05-4.31886E+02-7.48104E+05-2.14277E-09-2.57296E-09
 -1       782-1.78292E+06-3.32657E+05-7.85796E+02-7.78231E+05-5.43514E-09-1.70915E-08
 -1       783-1.80938E+06-3.06395E+05-1.57268E+03-7.48117E+05 3.00497E-09-4.65906E-09
 -1       784-1.78398E+06-3.33724E+05-3.72507E+03-7.78576E+05-2.36469E-09-8.03539E-10
 -1       785-1.80887E+06-3.06750E+05-6.88783E+03-7.47630E+05-6.66751E-09 4.39286E-10
 -1       786 1.31353E+05-7.00598E+03 1.62079E+04 7.12023E-01 1.65773E-07 3.70892E-09
 -1       787 1.38376E+05 8.11072E+03 1.14669E+04-6.22884E+00 3.29805E-07 1.77852E-09
 -1       788 1.34063E+05-1.09826E+03 4.19500E+03 2.20775E+00 4.44928E-07 2.00680E-09
 -1       789 1.35220E+05 1.27075E+03 2.63575E+03-9.92624E+00 5.60008E-07 4.66156E-09
 -1       790 1.34510E+05-1.71565E+02 1.07245E+03 4.40945E+00 7.43710E-07-5.87903E-09
 -1       791 1.34698E+05 1.99328E+02 6.29629E+02-1.55334E+01 9.28297E-07 6.01335E-09
 -1       792 1.34585E+05-2.76425E+01 2.87284E+02 7.81505E+00 1.27884E-06-9.13519E-09
 -1       793 1.34613E+05 3.87836E+01 1.88101E+02-2.43035E+01 1.62685E-06-1.92605E-09
 -1       794 1.34594E+05-1.11269E+01 1.39104E+02 1.31797E+01 8.13586E-07-1.45653E-08
 -1       795 1.34622E+05 5.73200E+01 2.00883E+02-3.81682E+01 2.87119E-09-2.44862E-10
 -1       796 1.34576E+05-4.61654E+01 3.00702E+02 2.16800E+01 1.31343E-10 1.26416E-09
 -1       797 1.34758E+05 3.38408E+02 7.08858E+02-6.01735E+01 4.42333E-11 1.55825E-09
 -1       798 1.34458E+05-2.92008E+02 1.11885E+03 3.51853E+01 2.99094E-12 1.13687E-13
 -1       799 1.35597E+05 2.15607E+03 3.05015E+03-9.53659E+01-3.27406E-10 3.04766E-09
 -1       800 1.33737E+05-1.86236E+03 4.30858E+03 5.68727E+01-3.92371E-11 2.45313E-09
 -1       801-8.15888E+03 8.24148E+03 1.08558E+04 1.40473E+04 7.72843E-09-3.03976E-09
 -1       802 2.03159E+04 7.35192E+04 3.92260E+04-5.78045E+04 2.07942E-08-3.75303E-09
 -1       803-1.15788E+04 3.30502E+04 4.92067E+04 1.31529E+04 1.62945E-08 1.68766E-08
 -1       804 9.56100E+04 1.14626E+05 1.37977E+05-5.85607E+04 1.92376E-08 1.64671E-08
 -1       805-8.34946E+04-3.26564E+04 1.77132E+05 1.48017E+04 6.86123E-09 1.78088E-08
 -1       806-1.54104E+05-3.30666E+04-1.31129E+04-6.42294E+04-3.31420E-09 6.31371E-09
 -1       807-1.54869E+05-3.11950E+04-6.44207E+03-6.77133E+04-4.50041E-09 1.25116E-08
 -1       808-1.54476E+05-2.83290E+04-2.73276E+03-6.64535E+04-4.90923E-09 2.33821E-09
 -1       809-1.53494E+05-2.94066E+04-1.33598E+03-6.78994E+04-3.05772E-09 2.61423E-09
 -1       810-1.54534E+05-2.81617E+04-6.11725E+02-6.65517E+04-1.61094E-09 1.86867E-09
 -1       811-1.53389E+05-2.93358E+04-3.03380E+02-6.78840E+04-7.34417E-11-5.85351E-09
 -1       812-1.54545E+05-2.81739E+04-1.51367E+02-6.65516E+04-1.20531E-09-3.47836E-09
 -1       813-1.53376E+05-2.93376E+04-9.54934E+01-6.78761E+04-1.97588E-10-1.83445E-09
 -1       814-1.54544E+05-2.81783E+04-8.94916E+01-6.65497E+04 1.82035E-09 2.46018E-09
 -1       815-1.53378E+05-2.93390E+04-1.40124E+02-6.78742E+04 1.81899E-10-1.33309E-09
 -1       816-1.54535E+05-2.81770E+04-2.62486E+02-6.65481E+04-6.07997E-10 4.65889E-09
 -1       817-1.53423E+05-2.93641E+04-5.62899E+02-6.78699E+04 2.87628E-10-6.05860E-09
 -1       818-1.54502E+05-2.82556E+04-1.14711E+03-6.65110E+04-4.04816E-09-1.21761E-08
 -1       819-1.54057E+05-3.00525E+04-2.70001E+03-6.77170E+04-9.69521E-10 1.53614E-09
 -1       820-1.54284E+05-3.02970E+04-5.49488E+03-6.56410E+04 2.67391E-10 2.28272E-09
 -1       821-1.98632E+05 1.10694E+04-2.56015E+04 2.61396E+01-5.60802E-10 4.83305E-09
 -1       822-2.09726E+05-1.28147E+04-1.81163E+04-3.11097E+02-1.65636E-09 1.62777E-09
 -1       823-2.02914E+05 1.73529E+03-6.63090E+03-1.25877E+01 9.57488E-10 4.50200E-10
 -1       824-2.04736E+05-2.00855E+03-4.17258E+03-2.06463E+02 1.14682E-11 2.66715E-09
 -1       825-2.03620E+05 2.71650E+02-1.71430E+03-7.84981E+01-2.84880E-09 1.10924E-09
 -1       826-2.03914E+05-3.20397E+02-1.03620E+03-6.82479E+01-5.23232E-09-2.35639E-09
 -1       827-2.03735E+05 4.83489E+01-5.34774E+02-1.50805E+02-4.04391E-09 2.94449E-09
 -1       828-2.03802E+05-9.77282E+01-4.73807E+02 6.07014E+01-3.98752E-09 5.19361E-09
 -1       829-2.03733E+05 4.91715E+01-5.41641E+02-2.07450E+02 1.23108E-10-6.13099E-10
 -1       830-2.03923E+05-3.27213E+02-1.05798E+03 1.41072E+02 2.13838E-09 3.69909E-09
 -1       831-2.03614E+05 2.77733E+02-1.75116E+03-2.31177E+02-1.80682E-09-6.36760E-10
 -1       832-2.04763E+05-2.05358E+03-4.26700E+03 1.48751E+02-7.05799E-10 1.54688E-09
 -1       833-2.02893E+05 1.77429E+03-6.78010E+03-2.15129E+02-4.29978E-10-6.31871E-09
 -1       834-2.09860E+05-1.31034E+04-1.85249E+04 8.31788E+01-9.19245E-10 2.27487E-09
 -1       835-1.98518E+05 1.13189E+04-2.61799E+04-1.65599E+02 4.69267E-09 1.79534E-09
 -1       836-6.59268E+02 1.89032E+05 1.13047E+04-1.64283E+04 1.43837E-09-2.87764E-09
 -1       837 2.48817E+03 1.92533E+05 9.66515E+03-3.30046E+04 2.09161E-09 1.74521E-09
 -1       838-2.44370E+02 1.90005E+05 9.98672E+03-1.63721E+04 1.77033E-09 1.57149E-09
 -1       839 6.41685E+03 1.95466E+05 1.90289E+04-3.30247E+04 2.15732E-09 8.86317E-10
 -1       840-1.93090E+03 1.86078E+05 3.04009E+04-1.64072E+04 1.63527E-09 1.24305E-09
 -1       856-6.26189E+04 5.34133E+03-1.40750E+04-3.07739E+02-3.45955E-09 2.04636E-10
 -1       857-6.84339E+04-6.26504E+03-9.69061E+03 3.21710E+03-3.18948E-09-3.14503E-09
 -1       858-6.49162E+04 7.48548E+02-3.65285E+03-3.19587E+02-1.60247E-09-6.19139E-10
 -1       859-6.57948E+04-8.71042E+02-2.20638E+03 3.23585E+03 2.06052E-09-2.64441E-09
 -1       860-6.52599E+04 1.04199E+02-9.27761E+02-3.26580E+02 8.81798E-10-3.44869E-10
 -1       861-6.53987E+04-1.16015E+02-5.16978E+02 3.24537E+03-3.28717E-09-2.21042E-09
 -1       862-6.53134E+04 1.39058E+01-2.28082E+02-3.29118E+02 3.20820E-09-3.33561E-09
 -1       863-6.53355E+04-9.59006E+00-1.13005E+02 3.24650E+03 7.94497E-09-1.71489E-09
 -1       864-6.53232E+04 8.55569E-02-3.58973E+01-3.27714E+02 4.12251E-09 1.25699E-09
 -1       865-6.53176E+04 1.46703E+01 1.99605E+01 3.23936E+03 4.10597E-09-3.08956E-09
 -1       866-6.53305E+04-1.05340E+01 7.49875E+01-3.21975E+02-1.57351E-09-3.58818E-09
 -1       867-6.52740E+04 8.88326E+01 2.06460E+02 3.22381E+03-5.53086E-10-6.14683E-09
 -1       868-6.53650E+04-7.33990E+01 3.48837E+02-3.12171E+02 9.19613E-10 6.77771E-09
 -1       869-6.50131E+04 6.09660E+02 9.36231E+02 3.19762E+03-2.87929E-09-5.83248E-09
 -1       870-6.55888E+04-5.18170E+02 1.35839E+03-2.95788E+02 1.67910E-09-1.87720E-09
 -1       871-2.90644E+03-6.05221E+03-9.45673E+03 6.19719E+04 2.49474E-09-5.29008E-09
 -1       872-1.26392E+03-8.16429E+03-3.85074E+03 8.03414E+04 4.42014E-09-3.81078E-09
 -1       873-2.83474E+01-7.17055E+03 5.63432E+02 6.18347E+04 1.28557E-09-1.11311E-09
 -1       874 1.46010E+03-5.78975E+03 5.39492E+03 8.03705E+04 4.33101E-09 4.79326E-09
 -1       875 3.46368E+03-8.45551E+03 1.19568E+04 6.19478E+04 1.44701E-09-2.11367E-09
 -1       876 1.55283E+05 2.67710E+04 8.32984E+03 6.30146E+04-4.16918E-09-3.55521E-09
 -1       877 1.55754E+05 2.86043E+04 4.44824E+03 6.54843E+04-4.50621E-09-5.33890E-09
 -1       878 1.56063E+05 2.58484E+04 1.86366E+03 6.36984E+04 6.52153E-09 4.66230E-09
 -1       879 1.54621E+05 2.74761E+04 9.28317E+02 6.55444E+04 2.12617E-09 8.38415E-09
 -1       880 1.56120E+05 2.58376E+04 4.32201E+02 6.37263E+04 1.49953E-09 8.02373E-09
 -1       881 1.54546E+05 2.74284E+04 2.30121E+02 6.55335E+04 3.95409E-09 5.41250E-09
 -1       882 1.56126E+05 2.58440E+04 1.46111E+02 6.37271E+04 6.89045E-09-3.31562E-09
 -1       883 1.54541E+05 2.74262E+04 1.55251E+02 6.55305E+04 5.83373E-09-6.51035E-09
 -1       884 1.56123E+05 2.58422E+04 2.45344E+02 6.37272E+04 3.40913E-09-1.33582E-11
 -1       885 1.54560E+05 2.74298E+04 4.92269E+02 6.55368E+04 3.87324E-09-5.30463E-10
 -1       886 1.56104E+05 2.58278E+04 9.91701E+02 6.37252E+04 2.48431E-09-3.68402E-09
 -1       887 1.54734E+05 2.75439E+04 2.16611E+03 6.55617E+04-8.43414E-10 2.11338E-09
 -1       888 1.55967E+05 2.58521E+04 4.36481E+03 6.36559E+04-3.45665E-10-1.97792E-09
 -1       889 1.57336E+05 3.02442E+04 1.04275E+04 6.54785E+04 2.54143E-09-4.39195E-09
 -1       890 1.54188E+05 2.79651E+04 1.95295E+04 6.19915E+04 3.52088E-09-1.06320E-09
 -1       891-9.57460E+01-8.83422E+04-1.03979E+03 1.68341E+04 1.28307E-09 1.70689E-09
 -1       892-1.66571E+02-8.85924E+04-1.13261E+03 2.54762E+04 1.59275E-09-7.35326E-10
 -1       893-2.53962E+01-8.83762E+04-1.61961E+03 1.68371E+04 1.09708E-09 4.74438E-09
 -1       894-8.82286E+02-8.92186E+04-3.36427E+03 2.53861E+04 7.41238E-11 1.11038E-08
 -1       895-6.87599E+02-8.76798E+04-5.92808E+03 1.69231E+04-1.64050E-10 8.05403E-09
 -1       956-1.95022E+05-2.81284E+03-7.08367E+03 1.28898E+04-2.48656E-09 2.20598E-09
 -1       957-1.96421E+05-9.48883E+02-3.63663E+03 1.55177E+04-1.74805E-09-3.69891E-09
 -1       958-1.95649E+05-7.54464E+01-1.63827E+03 1.28057E+04 2.66391E-09 6.62567E-10
 -1       959-1.95759E+05-1.38147E+01-8.36865E+02 1.56086E+04-2.04864E-10 5.09124E-09
 -1       960-1.95703E+05 2.27040E+01-4.07838E+02 1.27979E+04-5.36602E-10 4.41901E-10
 -1       961-1.95710E+05 2.04927E+01-2.16268E+02 1.56173E+04-2.07967E-09-1.46133E-09
 -1       962-1.95713E+05 1.91193E+01-1.23441E+02 1.27968E+04 1.12414E-09-2.06819E-09
 -1       963-1.95707E+05 2.08384E+01-9.85130E+01 1.56187E+04 1.36532E-09-1.36697E-09
 -1       964-1.95715E+05 2.01821E+01-1.18806E+02 1.27964E+04 2.39743E-09 1.16358E-09
 -1       965-1.95714E+05 2.28735E+01-2.04637E+02 1.56188E+04 4.22055E-09 4.31066E-09
 -1       966-1.95709E+05 2.58179E+01-3.83695E+02 1.27968E+04 1.48532E-09-2.73496E-09
 -1       967-1.95765E+05-6.99769E+00-7.86741E+02 1.56140E+04 4.38013E-09 2.95131E-10
 -1       968-1.95662E+05-6.41934E+01-1.53940E+03 1.28012E+04 4.19936E-09 2.89546E-09
 -1       969-1.96391E+05-8.83769E+02-3.41790E+03 1.55613E+04 6.07531E-09 3.93794E-09
 -1       970-1.95076E+05-2.63554E+03-6.65711E+03 1.28512E+04 4.37763E-09 1.60526E-09
 -1       971-1.85404E+05-9.80615E+02-5.45919E+03 9.10965E+03-1.49112E-09-1.03782E-09
 -1       972-1.86732E+05-7.03891E+02-2.97333E+03 1.27177E+04-3.58023E-09 1.53887E-09
 -1       973-1.86009E+05-6.29586E+00-1.33108E+03 9.03466E+03-6.07133E-09-3.70960E-10
 -1       974-1.86101E+05-7.70231E+00-6.89670E+02 1.27982E+04 1.51203E-10-2.74667E-10
 -1       975-1.86055E+05 1.79571E+01-3.43738E+02 9.02843E+03 2.08365E-09 3.09046E-09
 -1       976-1.86062E+05 1.97181E+01-1.96850E+02 1.28055E+04-3.70619E-09-2.56364E-11
 -1       977-1.86062E+05 1.69431E+01-1.40039E+02 9.02728E+03 3.01338E-09-6.81666E-10
 -1       978-1.86062E+05 2.22111E+01-1.60140E+02 1.28071E+04 9.46403E-09-3.54134E-10
 -1       979-1.86062E+05 2.08541E+01-2.53977E+02 9.02681E+03 9.86006E-10-9.32346E-10
 -1       980-1.86081E+05 2.35932E+01-4.88319E+02 1.28073E+04 2.14871E-09-4.31896E-10
 -1       981-1.86046E+05 3.30635E+01-9.44589E+02 9.02707E+03 9.74865E-10 2.05412E-09
 -1       982-1.86211E+05-4.58052E+01-1.95178E+03 1.28038E+04-1.07514E-09 1.82239E-09
 -1       983-1.85928E+05-2.68043E+01-3.79183E+03 9.03048E+03 1.18735E-09 5.13717E-09
 -1       984-1.88036E+05-2.02505E+03-8.49108E+03 1.27530E+04-5.54894E-09-3.22814E-10
 -1       985-1.84213E+05-2.80080E+03-1.55923E+04 9.08095E+03 2.14936E-09-7.89441E-10
 -3
    1PSTEP                         7           4           1          
  100CL  104 4.68750E-01         409                     0    4           1
 -4  DISP        4    1
 -5  D1          1    2    1    0
 -5  D2          1    2    2    0
 -5  D3          1    2    3    0
 -5  ALL         1    2    0    0    1ALL
 -1         1 1.27097E-04 0.00000E+00 0.00000E+00
 -1         2 1.16520E-04 3.55951E-30 0.00000E+00
 -1         3 1.10139E-04 6.45144E-28 0.00000E+00
 -1         5 7.79933E-05 4.48459E-27 0.00000E+00
 -1         8 1.02690E-04-8.86053E-07 0.00000E+00
 -1         9 1.03384E-04 4.52908E-07 0.00000E+00
 -1        10 1.01914E-04-1.50241E-06 0.00000E+00
 -1        12 7.75055E-05 5.12292E-07 0.00000E+00
 -1        15 7.36256E-05-9.77557E-07 0.00000E+00
 -1        16 7.62676E-05 2.98158E-07 0.00000E+00
 -1        17 7.56365E-05-3.17283E-06 0.00000E+00
 -1        18 7.50501E-05 7.84096E-07 0.00000E+00
 -1        19 7.60422E-05 1.02175E-06 0.00000E+00
 -1        20 7.61740E-05 1.46127E-05 0.00000E+00
 -1        21 7.56733E-05 2.75269E-05 1.65436E-24
 -1        24 1.86444E-05-4.32008E-06 0.00000E+00
 -1        25 7.35647E-05 9.02398E-07 0.00000E+00
 -1        26 7.44919E-05 1.42264E-06 0.00000E+00
 -1        27 7.30778E-05 1.23360E-05 0.00000E+00
 -1        28 7.26242E-05 2.70902E-05 0.00000E+00
 -1        32 0.00000E+00 0.00000E+00 0.00000E+00
 -1        33 7.17354E-05 1.90743E-06 0.00000E+00
 -1        34 7.03665E-05 1.23153E-05 0.00000E+00
 -1        35 6.90656E-05 2.68594E-05 0.00000E+00
 -1        51 1.25511E-04-1.45655E-07 0.00000E+00
 -1        52 1.22569E-04-2.87395E-07 0.00000E+00
 -1        53 1.18540E-04-4.30624E-07 0.00000E+00
 -1        54 1.13698E-04-5.76778E-07 3.30872E-24
 -1        55 1.08322E-04-7.26583E-07-1.44757E-24
 -1        56 1.25954E-04-7.43480E-07-2.64698E-23
 -1        57 1.24956E-04-2.00579E-06 0.00000E+00
 -1        58 1.24101E-04-3.64114E-06-2.64698E-23
 -1        59 1.23325E-04-5.51279E-06-2.64698E-23
 -1        60 1.22578E-04-7.46329E-06 5.29396E-23
 -1        61 1.21801E-04-9.33591E-06 2.64698E-23
 -1        62 1.20938E-04-1.09781E-05 5.29396E-23
 -1        63 1.19934E-04-1.22447E-05-2.64698E-23
 -1        64 1.18743E-04-1.30136E-05 0.00000E+00
 -1        65 1.17326E-04-1.31777E-05 2.64698E-23
 -1        66 1.15656E-04-1.26672E-05-5.29396E-23
 -1        67 1.13714E-04-1.14323E-05 2.64698E-23
 -1        68 1.11497E-04-9.46830E-06 2.64698E-23
 -1        69 1.09018E-04-6.78999E-06 1.32349E-23
 -1        70 1.06290E-04-3.46124E-06-2.64698E-23
 -1        86 1.16178E-04 8.33939E-08 0.00000E+00
 -1        87 1.15149E-04 1.65797E-07-8.27181E-25
 -1        88 1.13404E-04 2.47161E-07 0.00000E+00
 -1        89 1.10906E-04 3.23605E-07 4.13590E-25
 -1        90 1.07590E-04 3.98897E-07 0.00000E+00
 -1       121 1.09909E-04-2.49133E-07-6.61744E-24
 -1       122 1.09221E-04-4.98474E-07-3.30872E-24
 -1       123 1.08075E-04-7.48227E-07 0.00000E+00
 -1       124 1.06473E-04-9.98638E-07 0.00000E+00
 -1       125 1.04418E-04-1.24983E-06 6.61744E-24
 -1       191 7.79798E-05 8.53892E-08 3.30872E-24
 -1       192 7.79391E-05 1.70777E-07-1.65436E-24
 -1       193 7.78714E-05 2.56163E-07-3.30872E-24
 -1       194 7.77765E-05 3.41546E-07-1.65436E-24
 -1       195 7.76546E-05 4.26923E-07 0.00000E+00
 -1       251 1.02713E-04 3.14224E-06 0.00000E+00
 -1       252 1.02756E-04 5.56395E-06 8.27181E-25
 -1       253 1.02801E-04 6.63845E-06 0.00000E+00
 -1       254 1.02849E-04 6.62210E-06-4.13590E-25
 -1       255 1.02897E-04 5.74364E-06 0.00000E+00
 -1       256 1.02944E-04 4.23004E-06-8.27181E-25
 -1       257 1.02991E-04 2.29199E-06 1.65436E-24
 -1       258 1.03038E-04 1.39297E-07 0.00000E+00
 -1       259 1.03085E-04-2.02379E-06 0.00000E+00
 -1       260 1.03132E-04-3.99299E-06 8.27181E-25
 -1       261 1.03179E-04-5.55903E-06-8.27181E-25
 -1       262 1.03227E-04-6.51190E-06 0.00000E+00
 -1       263 1.03275E-04-6.62575E-06 5.16988E-26
 -1       264 1.03319E-04-5.67308E-06 0.00000E+00
 -1       265 1.03362E-04-3.39933E-06 6.61744E-24
 -1       266 9.78462E-05-9.13253E-07-6.61744E-24
 -1       267 9.30021E-05-9.27048E-07 0.00000E+00
 -1       268 8.81580E-05-9.41691E-07 0.00000E+00
 -1       269 8.33139E-05-9.53819E-07 0.00000E+00
 -1       270 7.84698E-05-9.65888E-07-4.13590E-25
 -1       271 9.97419E-05 2.76630E-06-2.64698E-23
 -1       272 9.72195E-05 5.15483E-06-1.32349E-23
 -1       273 9.51236E-05 6.41908E-06 5.29396E-23
 -1       274 9.33904E-05 6.69834E-06 0.00000E+00
 -1       275 9.19649E-05 6.15616E-06 5.29396E-23
 -1       276 9.07800E-05 4.96824E-06 0.00000E+00
 -1       277 8.97658E-05 3.32326E-06 0.00000E+00
 -1       278 8.88487E-05 1.41780E-06 2.64698E-23
 -1       279 8.79536E-05-5.46513E-07 0.00000E+00
 -1       280 8.70049E-05-2.36697E-06 2.64698E-23
 -1       281 8.59278E-05-3.84376E-06-5.29396E-23
 -1       282 8.46505E-05-4.78309E-06 2.64698E-23
 -1       283 8.31034E-05-5.00172E-06-5.29396E-23
 -1       284 8.12262E-05-4.32770E-06 0.00000E+00
 -1       285 7.89542E-05-2.60973E-06 0.00000E+00
 -1       301 9.86858E-05 4.20118E-07 6.61744E-24
 -1       302 9.40092E-05 4.02506E-07-1.65436E-24
 -1       303 8.93917E-05 3.85582E-07 0.00000E+00
 -1       304 8.48707E-05 3.67442E-07 0.00000E+00
 -1       305 8.04837E-05 3.47470E-07 1.32349E-23
 -1       306 1.00340E-04 3.85344E-06 2.64698E-23
 -1       307 9.77745E-05 5.83762E-06 0.00000E+00
 -1       308 9.57676E-05 6.34880E-06 0.00000E+00
 -1       309 9.43076E-05 5.37575E-06 0.00000E+00
 -1       310 9.33213E-05 3.13559E-06 5.29396E-23
 -1       311 9.27033E-05-9.79429E-08 0.00000E+00
 -1       312 9.22972E-05-3.90156E-06-5.29396E-23
 -1       313 9.19354E-05-7.82546E-06 2.64698E-23
 -1       314 9.14443E-05-1.14012E-05 0.00000E+00
 -1       315 9.06558E-05-1.41771E-05 0.00000E+00
 -1       316 8.94453E-05-1.58219E-05 0.00000E+00
 -1       317 8.77090E-05-1.60575E-05 2.64698E-23
 -1       318 8.54176E-05-1.48172E-05 0.00000E+00
 -1       319 8.25798E-05-1.20998E-05 0.00000E+00
 -1       320 7.92638E-05-8.13235E-06-2.64698E-23
 -1       336 9.89054E-05-1.77602E-06 6.61744E-24
 -1       337 9.53373E-05-2.05175E-06 3.30872E-24
 -1       338 9.12170E-05-2.32945E-06-6.61744E-24
 -1       339 8.65533E-05-2.60902E-06-3.30872E-24
 -1       340 8.13561E-05-2.89116E-06 6.61744E-24
 -1       406 7.73293E-05 5.97646E-07 0.00000E+00
 -1       407 7.71260E-05 6.82968E-07 0.00000E+00
 -1       408 7.68956E-05 7.68232E-07 0.00000E+00
 -1       409 7.66381E-05 8.53332E-07 0.00000E+00
 -1       410 7.63535E-05 9.38101E-07 3.30872E-24
 -1       521 7.44539E-05-3.55872E-06 0.00000E+00
 -1       522 7.74212E-05-2.08121E-05 0.00000E+00
 -1       523 8.40950E-05-4.85555E-05-1.05879E-22
 -1       524 9.30614E-05-8.30422E-05 0.00000E+00
 -1       525 1.02552E-04-1.19072E-04 1.05879E-22
 -1       526 1.10754E-04-1.51320E-04-5.29396E-23
 -1       527 1.16079E-04-1.75274E-04 0.00000E+00
 -1       528 1.17083E-04-1.87119E-04-5.29396E-23
 -1       529 1.13137E-04-1.85616E-04 1.05879E-22
 -1       530 1.03988E-04-1.70609E-04 0.00000E+00
 -1       531 9.05233E-05-1.44757E-04 0.00000E+00
 -1       532 7.40579E-05-1.11561E-04 0.00000E+00
 -1       533 5.66278E-05-7.60295E-05 1.05879E-22
 -1       534 4.03934E-05-4.33391E-05 2.64698E-23
 -1       535 2.71895E-05-1.81053E-05-5.29396E-23
 -1       536 7.55810E-05 2.31357E-06 3.30872E-24
 -1       537 7.55367E-05 6.82145E-06 0.00000E+00
 -1       538 7.54958E-05 1.03192E-05 1.65436E-24
 -1       539 7.54591E-05 1.27769E-05 0.00000E+00
 -1       540 7.54243E-05 1.42394E-05 8.27181E-25
 -1       541 7.53907E-05 1.47530E-05 0.00000E+00
 -1       542 7.53572E-05 1.44322E-05-8.27181E-25
 -1       543 7.53233E-05 1.33929E-05 0.00000E+00
 -1       544 7.52888E-05 1.18024E-05-8.27181E-25
 -1       545 7.52536E-05 9.82896E-06 4.13590E-25
 -1       546 7.52180E-05 7.66821E-06 8.27181E-25
 -1       547 7.51826E-05 5.51617E-06-4.13590E-25
 -1       548 7.51476E-05 3.56817E-06 0.00000E+00
 -1       549 7.51137E-05 2.01930E-06 2.06795E-25
 -1       550 7.50804E-05 1.03606E-06 0.00000E+00
 -1       551 6.81194E-05-3.34380E-06 0.00000E+00
 -1       552 5.91300E-05-3.52331E-06-1.65436E-24
 -1       553 4.91744E-05-3.71134E-06 3.30872E-24
 -1       554 3.87665E-05-3.90598E-06 3.30872E-24
 -1       555 2.84198E-05-4.10273E-06 1.32349E-23
 -1       556 7.36498E-05 1.97174E-06 0.00000E+00
 -1       557 7.21265E-05 5.91985E-06 0.00000E+00
 -1       558 7.10164E-05 8.78079E-06 0.00000E+00
 -1       559 7.02733E-05 1.06726E-05 0.00000E+00
 -1       560 6.98514E-05 1.17129E-05-1.32349E-23
 -1       561 6.97053E-05 1.20203E-05 0.00000E+00
 -1       562 6.97899E-05 1.17133E-05 0.00000E+00
 -1       563 7.00602E-05 1.09106E-05 0.00000E+00
 -1       564 7.04716E-05 9.73091E-06 0.00000E+00
 -1       565 7.09794E-05 8.29316E-06 0.00000E+00
 -1       566 7.15393E-05 6.71625E-06 0.00000E+00
 -1       567 7.21068E-05 5.11911E-06 2.06795E-25
 -1       568 7.26374E-05 3.62062E-06 0.00000E+00
 -1       569 7.30867E-05 2.33957E-06 0.00000E+00
 -1       570 7.34103E-05 1.39477E-06 0.00000E+00
 -1       571 7.51103E-05 8.37386E-07 0.00000E+00
 -1       572 7.51719E-05 8.49408E-07 2.06795E-25
 -1       573 7.52338E-05 8.27543E-07 8.27181E-25
 -1       574 7.52959E-05 7.79561E-07 4.13590E-25
 -1       575 7.53581E-05 7.13264E-07-1.65436E-24
 -1       576 7.54203E-05 6.36506E-07 0.00000E+00
 -1       577 7.54825E-05 5.57148E-07 0.00000E+00
 -1       578 7.55447E-05 4.83055E-07 0.00000E+00
 -1       579 7.56069E-05 4.22093E-07 0.00000E+00
 -1       580 7.56692E-05 3.82129E-07 0.00000E+00
 -1       581 7.57314E-05 3.71029E-07 0.00000E+00
 -1       582 7.57936E-05 3.96650E-07 0.00000E+00
 -1       583 7.58558E-05 4.66841E-07 0.00000E+00
 -1       584 7.59180E-05 5.89373E-07 3.30872E-24
 -1       585 7.59802E-05 7.71969E-07 0.00000E+00
 -1       586 7.47802E-05 8.05039E-07 0.00000E+00
 -1       587 7.44841E-05 8.25460E-07 0.00000E+00
 -1       588 7.41880E-05 8.45656E-07 0.00000E+00
 -1       589 7.39185E-05 8.65532E-07 0.00000E+00
 -1       590 7.37022E-05 8.84866E-07 0.00000E+00
 -1       591 7.50007E-05 8.69473E-07 1.03398E-25
 -1       592 7.49615E-05 9.20710E-07 0.00000E+00
 -1       593 7.49326E-05 9.44327E-07 0.00000E+00
 -1       594 7.49115E-05 9.46186E-07-2.06795E-25
 -1       595 7.48964E-05 9.32236E-07 0.00000E+00
 -1       596 7.48848E-05 9.08375E-07 0.00000E+00
 -1       597 7.48748E-05 8.80504E-07 0.00000E+00
 -1       598 7.48641E-05 8.54516E-07 2.06795E-25
 -1       599 7.48504E-05 8.36305E-07 4.13590E-25
 -1       600 7.48316E-05 8.31764E-07 0.00000E+00
 -1       601 7.48055E-05 8.46786E-07 0.00000E+00
 -1       602 7.47699E-05 8.87271E-07-1.03398E-25
 -1       603 7.47226E-05 9.59115E-07-4.13590E-25
 -1       604 7.46617E-05 1.06827E-06 1.03398E-25
 -1       605 7.45847E-05 1.22059E-06 0.00000E+00
 -1       606 7.60536E-05 1.41337E-06 0.00000E+00
 -1       607 7.60628E-05 1.89291E-06 1.65436E-24
 -1       608 7.60715E-05 2.45521E-06 0.00000E+00
 -1       609 7.60798E-05 3.09445E-06 1.65436E-24
 -1       610 7.60880E-05 3.80479E-06 0.00000E+00
 -1       611 7.60961E-05 4.58030E-06 0.00000E+00
 -1       612 7.61041E-05 5.41503E-06 0.00000E+00
 -1       613 7.61121E-05 6.30306E-06 0.00000E+00
 -1       614 7.61200E-05 7.23843E-06 0.00000E+00
 -1       615 7.61279E-05 8.21521E-06 0.00000E+00
 -1       616 7.61357E-05 9.22746E-06 0.00000E+00
 -1       617 7.61435E-05 1.02692E-05 0.00000E+00
 -1       618 7.61513E-05 1.13346E-05 0.00000E+00
 -1       619 7.61590E-05 1.24176E-05 0.00000E+00
 -1       620 7.61667E-05 1.35123E-05 0.00000E+00
 -1       621 7.57387E-05 1.08861E-06-1.65436E-24
 -1       622 7.54610E-05 1.15579E-06 0.00000E+00
 -1       623 7.52031E-05 1.22297E-06 0.00000E+00
 -1       624 7.49595E-05 1.29003E-06 8.27181E-25
 -1       625 7.47243E-05 1.35699E-06 1.65436E-24
 -1       626 7.59669E-05 1.43448E-06 0.00000E+00
 -1       627 7.58650E-05 1.91990E-06 0.00000E+00
 -1       628 7.57384E-05 2.47123E-06 0.00000E+00
 -1       629 7.55899E-05 3.08127E-06 0.00000E+00
 -1       630 7.54220E-05 3.74279E-06 0.00000E+00
 -1       631 7.52375E-05 4.44850E-06-1.65436E-24
 -1       632 7.50392E-05 5.19114E-06 0.00000E+00
 -1       633 7.48297E-05 5.96343E-06 0.00000E+00
 -1       634 7.46119E-05 6.75810E-06 3.30872E-24
 -1       635 7.43883E-05 7.56786E-06 0.00000E+00
 -1       636 7.41618E-05 8.38546E-06 1.65436E-24
 -1       637 7.39350E-05 9.20361E-06-8.27181E-25
 -1       638 7.37107E-05 1.00150E-05 1.65436E-24
 -1       639 7.34916E-05 1.08124E-05 8.27181E-25
 -1       640 7.32800E-05 1.15886E-05-1.65436E-24
 -1       656 7.52639E-05 1.42423E-05-6.61744E-24
 -1       657 7.46844E-05 1.38570E-05-3.30872E-24
 -1       658 7.43104E-05 1.34730E-05-6.61744E-24
 -1       659 7.40132E-05 1.30893E-05-3.30872E-24
 -1       660 7.36497E-05 1.27044E-05 6.61744E-24
 -1       661 7.58378E-05 1.56900E-05 8.27181E-25
 -1       662 7.55225E-05 1.67193E-05 8.27181E-25
 -1       663 7.52246E-05 1.77017E-05 0.00000E+00
 -1       664 7.49439E-05 1.86399E-05 0.00000E+00
 -1       665 7.46791E-05 1.95355E-05 0.00000E+00
 -1       666 7.44297E-05 2.03908E-05 8.27181E-25
 -1       667 7.41948E-05 2.12074E-05 0.00000E+00
 -1       668 7.39737E-05 2.19873E-05 0.00000E+00
 -1       669 7.37658E-05 2.27320E-05 0.00000E+00
 -1       670 7.35704E-05 2.34434E-05 0.00000E+00
 -1       671 7.33870E-05 2.41229E-05 0.00000E+00
 -1       672 7.32149E-05 2.47720E-05-8.27181E-25
 -1       673 7.30536E-05 2.53921E-05 0.00000E+00
 -1       674 7.29019E-05 2.59844E-05-8.27181E-25
 -1       675 7.27604E-05 2.65506E-05 0.00000E+00
 -1       676 7.51639E-05 2.74537E-05-1.65436E-24
 -1       677 7.46547E-05 2.73805E-05 8.27181E-25
 -1       678 7.41459E-05 2.73073E-05-1.65436E-24
 -1       679 7.36377E-05 2.72344E-05 0.00000E+00
 -1       680 7.31304E-05 2.71615E-05 0.00000E+00
 -1       771 1.47363E-05 3.22065E-06-2.64698E-23
 -1       772 1.13404E-05 9.39750E-06 1.32349E-23
 -1       773 8.43539E-06 1.42856E-05-2.64698E-23
 -1       774 5.98878E-06 1.79652E-05 1.32349E-23
 -1       775 3.96859E-06 2.05188E-05-2.64698E-23
 -1       776 2.34138E-06 2.20315E-05 1.32349E-23
 -1       777 1.07330E-06 2.25907E-05 0.00000E+00
 -1       778 1.29767E-07 2.22858E-05 0.00000E+00
 -1       779-5.24090E-07 2.12080E-05 2.64698E-23
 -1       780-9.23768E-07 1.94505E-05 1.32349E-23
 -1       781-1.10490E-06 1.71075E-05 2.64698E-23
 -1       782-1.10359E-06 1.42752E-05-1.32349E-23
 -1       783-9.56037E-07 1.10502E-05 0.00000E+00
 -1       784-6.98704E-07 7.53023E-06 1.32349E-23
 -1       785-3.68172E-07 3.81377E-06 2.64698E-23
 -1       786 7.36193E-05 8.61894E-07 4.13590E-25
 -1       787 7.36771E-05 8.26875E-07 4.13590E-25
 -1       788 7.37347E-05 7.97004E-07 0.00000E+00
 -1       789 7.37929E-05 7.71957E-07 8.27181E-25
 -1       790 7.38511E-05 7.52059E-07-1.65436E-24
 -1       791 7.39095E-05 7.37648E-07 0.00000E+00
 -1       792 7.39678E-05 7.29801E-07 0.00000E+00
 -1       793 7.40262E-05 7.29612E-07-8.27181E-25
 -1       794 7.40846E-05 7.39203E-07-1.65436E-24
 -1       795 7.41430E-05 7.60724E-07 0.00000E+00
 -1       796 7.42014E-05 7.97928E-07 1.65436E-24
 -1       797 7.42597E-05 8.54612E-07 8.27181E-25
 -1       798 7.43181E-05 9.37190E-07 0.00000E+00
 -1       799 7.43763E-05 1.05214E-06 8.27181E-25
 -1       800 7.44345E-05 1.21031E-06 0.00000E+00
 -1       801 6.85945E-05 8.42306E-07 0.00000E+00
 -1       802 5.37154E-05 6.85771E-07-1.65436E-24
 -1       803 3.41857E-05 4.56473E-07 3.30872E-24
 -1       804 1.52743E-05 2.31860E-07 0.00000E+00
 -1       805 2.15614E-06 9.32375E-08-1.32349E-23
 -1       806 7.35080E-05 8.20788E-07 0.00000E+00
 -1       807 7.34480E-05 7.40212E-07 0.00000E+00
 -1       808 7.33854E-05 6.65183E-07 0.00000E+00
 -1       809 7.33189E-05 5.99516E-07 0.00000E+00
 -1       810 7.32474E-05 5.47018E-07 3.30872E-24
 -1       811 7.31695E-05 5.11438E-07 8.27181E-25
 -1       812 7.30838E-05 4.96521E-07 1.65436E-24
 -1       813 7.29890E-05 5.06003E-07-8.27181E-25
 -1       814 7.28836E-05 5.43618E-07-3.30872E-24
 -1       815 7.27663E-05 6.13094E-07 0.00000E+00
 -1       816 7.26356E-05 7.18159E-07 1.65436E-24
 -1       817 7.24902E-05 8.62538E-07 8.27181E-25
 -1       818 7.23287E-05 1.04995E-06-1.65436E-24
 -1       819 7.21498E-05 1.28412E-06 4.13590E-25
 -1       820 7.19521E-05 1.56873E-06-1.65436E-24
 -1       821 7.44087E-05 1.65613E-06 0.00000E+00
 -1       822 7.43203E-05 1.87846E-06 8.27181E-25
 -1       823 7.42323E-05 2.12878E-06-1.65436E-24
 -1       824 7.41433E-05 2.44615E-06 0.00000E+00
 -1       825 7.40542E-05 2.85721E-06 3.30872E-24
 -1       826 7.39649E-05 3.38824E-06 0.00000E+00
 -1       827 7.38755E-05 4.04332E-06 3.30872E-24
 -1       828 7.37860E-05 4.82608E-06 0.00000E+00
 -1       829 7.36964E-05 5.71650E-06 0.00000E+00
 -1       830 7.36067E-05 6.69417E-06 0.00000E+00
 -1       831 7.35171E-05 7.72255E-06 0.00000E+00
 -1       832 7.34276E-05 8.76488E-06 0.00000E+00
 -1       833 7.33381E-05 9.78181E-06-1.65436E-24
 -1       834 7.32497E-05 1.07341E-05 0.00000E+00
 -1       835 7.31611E-05 1.15945E-05 0.00000E+00
 -1       836 7.41658E-05 1.50336E-06-1.65436E-24
 -1       837 7.37351E-05 1.58585E-06 0.00000E+00
 -1       838 7.32381E-05 1.66819E-06-1.65436E-24
 -1       839 7.27135E-05 1.74999E-06 0.00000E+00
 -1       840 7.21998E-05 1.83166E-06 0.00000E+00
 -1       856 7.30527E-05 1.30700E-05-2.06795E-25
 -1       857 7.30247E-05 1.39011E-05 0.00000E+00
 -1       858 7.29967E-05 1.48142E-05 0.00000E+00
 -1       859 7.29682E-05 1.57938E-05 0.00000E+00
 -1       860 7.29397E-05 1.68245E-05 0.00000E+00
 -1       861 7.29110E-05 1.78908E-05 4.13590E-25
 -1       862 7.28822E-05 1.89771E-05 8.27181E-25
 -1       863 7.28535E-05 2.00678E-05 0.00000E+00
 -1       864 7.28247E-05 2.11473E-05 0.00000E+00
 -1       865 7.27960E-05 2.22002E-05 0.00000E+00
 -1       866 7.27673E-05 2.32108E-05 8.27181E-25
 -1       867 7.27386E-05 2.41636E-05 0.00000E+00
 -1       868 7.27100E-05 2.50433E-05 0.00000E+00
 -1       869 7.26814E-05 2.58344E-05 0.00000E+00
 -1       870 7.26529E-05 2.65218E-05-8.27181E-25
 -1       871 7.25270E-05 1.23352E-05 4.13590E-25
 -1       872 7.20698E-05 1.23325E-05 0.00000E+00
 -1       873 7.16659E-05 1.23294E-05 0.00000E+00
 -1       874 7.12745E-05 1.23258E-05-1.03398E-25
 -1       875 7.08548E-05 1.23218E-05 4.13590E-25
 -1       876 7.28876E-05 1.30781E-05 1.65436E-24
 -1       877 7.26815E-05 1.38675E-05 0.00000E+00
 -1       878 7.24600E-05 1.46984E-05-3.30872E-24
 -1       879 7.22251E-05 1.55657E-05-1.65436E-24
 -1       880 7.19786E-05 1.64639E-05 3.30872E-24
 -1       881 7.17225E-05 1.73877E-05-3.30872E-24
 -1       882 7.14588E-05 1.83317E-05 3.30872E-24
 -1       883 7.11896E-05 1.92906E-05 0.00000E+00
 -1       884 7.09166E-05 2.02592E-05 0.00000E+00
 -1       885 7.06421E-05 2.12320E-05 1.65436E-24
 -1       886 7.03679E-05 2.22039E-05 0.00000E+00
 -1       887 7.00960E-05 2.31693E-05 0.00000E+00
 -1       888 6.98284E-05 2.41231E-05 1.65436E-24
 -1       889 6.95667E-05 2.50598E-05-8.27181E-25
 -1       890 6.93130E-05 2.59741E-05-8.27181E-25
 -1       891 7.21370E-05 2.70516E-05 0.00000E+00
 -1       892 7.16330E-05 2.70128E-05 4.13590E-25
 -1       893 7.10931E-05 2.69741E-05 0.00000E+00
 -1       894 7.04980E-05 2.69355E-05 2.06795E-25
 -1       895 6.98285E-05 2.68969E-05-2.06795E-25
 -1       956 7.16515E-05 2.35664E-06 0.00000E+00
 -1       957 7.15662E-05 2.86082E-06 1.65436E-24
 -1       958 7.14806E-05 3.41424E-06-1.65436E-24
 -1       959 7.13948E-05 4.01083E-06 1.65436E-24
 -1       960 7.13090E-05 4.64452E-06 3.30872E-24
 -1       961 7.12231E-05 5.30921E-06 8.27181E-25
 -1       962 7.11372E-05 5.99878E-06-1.65436E-24
 -1       963 7.10513E-05 6.70711E-06 8.27181E-25
 -1       964 7.09653E-05 7.42809E-06-3.30872E-24
 -1       965 7.08794E-05 8.15558E-06 1.65436E-24
 -1       966 7.07935E-05 8.88349E-06 0.00000E+00
 -1       967 7.07076E-05 9.60568E-06-1.65436E-24
 -1       968 7.06218E-05 1.03160E-05 0.00000E+00
 -1       969 7.05361E-05 1.10085E-05 1.65436E-24
 -1       970 7.04507E-05 1.16769E-05 0.00000E+00
 -1       971 7.02863E-05 1.29718E-05-1.65436E-24
 -1       972 7.02049E-05 1.37004E-05 0.00000E+00
 -1       973 7.01234E-05 1.44931E-05 1.65436E-24
 -1       974 7.00417E-05 1.53417E-05 0.00000E+00
 -1       975 6.99600E-05 1.62379E-05 0.00000E+00
 -1       976 6.98782E-05 1.71734E-05 0.00000E+00
 -1       977 6.97964E-05 1.81398E-05 0.00000E+00
 -1       978 6.97145E-05 1.91289E-05 8.27181E-25
 -1       979 6.96327E-05 2.01323E-05 3.30872E-24
 -1       980 6.95508E-05 2.11418E-05 0.00000E+00
 -1       981 6.94690E-05 2.21490E-05 0.00000E+00
 -1       982 6.93872E-05 2.31455E-05 0.00000E+00
 -1       983 6.93056E-05 2.41231E-05-3.30872E-24
 -1       984 6.92243E-05 2.50735E-05 0.00000E+00
 -1       985 6.91435E-05 2.59883E-05 0.00000E+00
 -3
    1PSTEP                         8           4           1          
  100CL  104 4.68750E-01         409                     0    4           1
 -4  STRESS      6    1
 -5  SXX         1    4    1    1
 -5  SYY         1    4    2    2
 -5  SZZ         1    4    3    3
 -5  SXY         1    4    1    2
 -5  SYZ         1    4    2    3
 -5  SZX         1    4    3    1
 -1         1-1.66231E+06-7.54122E+05-3.41810E+05-1.05172E+06 6.18456E-11-1.13941E-08
 -1         2 2.65833E+03 2.42311E+05 8.71179E+03 7.05389E+02-1.47310E-10-1.67392E-09
 -1         3-8.82078E+01-7.11660E+05 1.66347E+02-2.59924E+02-1.52117E-10-6.01722E-09
 -1         5-5.84880E+00 2.44331E+05 6.40139E+00 1.09985E-01 1.14782E-10 3.84171E-09
 -1         8-7.84263E+05-3.32714E+05-3.40262E+04-5.65306E+05 1.72804E-10 7.71252E-10
 -1         9-1.37671E+06-3.63502E+05-1.40798E+05-4.61590E+05 3.24217E-09-5.49480E-09
 -1        10-5.77827E+02-7.41399E+05-9.84223E+02-1.75386E+03-3.56204E-09-2.33748E-08
 -1        12-3.22570E+00 2.44344E+05 2.07580E+02 9.96534E-01 1.38218E-10-1.96223E-09
 -1        15 1.97985E+03 1.08805E+03 6.39987E+03 4.14736E+00-8.51514E-11 9.31025E-09
 -1        16-3.52222E+06-1.21074E+06-5.55567E+05-1.24176E+06 1.10207E-08-3.14321E-09
 -1        17-8.48882E+05-5.15026E+05-1.64425E+05-4.75607E+05-5.12809E-09 8.49541E-09
 -1        18 5.85094E+03-2.99094E+03-1.73152E+04-5.82409E+04 7.55335E-10 2.08775E-09
 -1        19 7.65667E+04 9.11759E+04-4.46369E+02 1.50131E+04-5.78802E-10 7.15700E-09
 -1        20-3.21736E+04-3.61693E+05-7.97991E+04 2.65103E+04 3.54188E-09 1.47035E-09
 -1        21-3.40922E+01-2.09299E+05-6.75745E+02-7.31342E+01-6.86689E-09-9.31705E-09
 -1        24-3.25431E+06-1.02222E+06-4.49768E+05-1.25933E+06-2.10857E-08-1.01572E-08
 -1        25 2.27923E+04-3.30329E+04 1.01116E+04-1.05052E+05 3.57340E-10 3.69801E-09
 -1        26-1.82292E+04 6.20142E+04-1.26970E+04-8.61474E+03 1.56142E-09 3.72128E-09
 -1        27-5.76636E+04-1.98372E+05-7.43826E+04 4.47040E+04 5.74831E-09-3.25599E-10
 -1        28 1.62007E+04-5.78392E+04 1.18244E+04 1.84834E+04 2.55699E-09 1.07646E-09
 -1        32-7.84804E+05-1.82300E+05 3.18868E+05-5.24279E+05-1.64728E-08 1.11950E-08
 -1        33-1.13541E+05 5.83463E+04 2.06818E+04-3.35399E+04 9.91444E-10 6.80302E-10
 -1        34-1.47251E+05-1.46761E+04 3.46107E+02 4.53257E+04 2.64606E-09 1.50097E-09
 -1        35-1.64757E+04-2.29862E+04-9.00902E+02 3.64585E+04 6.37954E-09-2.39197E-09
 -1        51 1.40496E+04-3.66903E+05 3.63642E+04-9.31468E+05 1.16415E-10-5.42786E-09
 -1        52 8.82660E+03-3.65872E+05 2.43236E+04-1.08640E+06 4.14730E-10-3.02680E-09
 -1        53 6.64593E+03-3.78219E+05 2.10125E+04-9.28230E+05 4.14730E-10 3.40515E-09
 -1        54 1.90751E+04-3.76899E+05 3.40756E+04-1.08977E+06 4.14730E-10 6.96309E-09
 -1        55 3.79169E+04-3.89892E+05 6.10584E+04-9.27711E+05 3.49246E-10 6.65386E-09
 -1        56-3.19008E+06-3.59186E+05-2.51168E+05-1.22966E+06-6.54836E-11-8.52742E-09
 -1        57-3.28910E+06-5.88301E+05-1.69305E+05-1.22204E+06 7.84894E-10 3.92902E-09
 -1        58-3.24121E+06-4.38059E+05-5.90948E+04-1.21306E+06-4.33829E-10 1.23218E-08
 -1        59-3.22988E+06-4.95834E+05-3.52754E+04-1.24197E+06-8.06722E-10-4.76393E-09
 -1        60-3.24877E+06-4.48945E+05-1.37978E+04-1.21068E+06-6.39830E-10-9.02037E-09
 -1        61-3.22245E+06-4.81682E+05-7.83758E+03-1.24308E+06 1.83661E-09-1.80999E-08
 -1        62-3.24849E+06-4.51883E+05-3.78237E+03-1.21203E+06 1.12141E-09-3.98896E-09
 -1        63-3.22545E+06-4.75794E+05-3.07189E+03-1.23829E+06-3.22302E-10-3.25622E-09
 -1        64-3.24564E+06-4.54869E+05-3.56777E+03-1.21540E+06-2.00725E-09-1.50817E-09
 -1        65-3.23306E+06-4.70299E+05-7.04987E+03-1.23005E+06 1.31331E-09-9.91531E-09
 -1        66-3.24077E+06-4.57490E+05-1.24925E+04-1.22018E+06 2.15778E-10-1.21690E-09
 -1        67-3.24874E+06-4.73867E+05-3.16129E+04-1.21856E+06-1.20991E-09 1.38825E-08
 -1        68-3.23003E+06-4.51640E+05-5.31307E+04-1.22677E+06 2.51248E-09 6.62112E-10
 -1        69-3.30811E+06-5.50926E+05-1.51970E+05-1.19409E+06 2.63162E-09-1.95269E-08
 -1        70-3.18202E+06-3.82774E+05-2.25546E+05-1.24388E+06-4.58385E-10-2.76486E-09
 -1        86-1.33569E+03 2.39462E+05 9.30003E+03-3.52721E+02 1.13346E-09 4.49648E-09
 -1        87 8.85518E+03 2.45359E+05 1.94506E+04 1.45633E+03 1.92654E-09 3.20483E-09
 -1        88-7.51606E+03 2.36418E+05 2.97265E+04-1.10369E+03 2.85581E-09-7.62878E-09
 -1        89 5.60038E+04 2.67406E+05 8.02447E+04 3.17736E+03 4.38285E-09-1.51535E-08
 -1        90-4.83341E+04 2.17439E+05 1.13284E+05-2.07323E+03 5.00586E-09-8.13611E-09
 -1       121-1.38280E+02-7.12053E+05 1.31158E+02 1.29799E+02 3.82592E-10 1.67347E-10
 -1       122-3.28485E+01-7.11626E+05 3.59911E+02-5.19676E+02-1.33757E-09 7.69160E-09
 -1       123-1.76283E+02-7.12092E+05 5.54525E+02 3.88908E+02 1.08412E-09 5.03860E-09
 -1       124 6.33277E+02-7.11228E+05 1.50139E+03-1.16351E+03-2.63390E-09 6.28233E-09
 -1       125-6.04520E+02-7.12468E+05 2.27311E+03 7.73247E+02 1.72122E-09-2.32649E-09
 -1       191-6.35201E+00 2.44351E+05 7.58981E+00-5.56864E-02 1.40892E-10-5.16229E-09
 -1       192-6.43759E+00 2.44331E+05 1.35568E+01 6.61859E-01 2.02488E-10-5.06770E-09
 -1       193-7.91721E+00 2.44351E+05 2.51521E+01-6.10852E-01 2.62809E-10-4.92673E-09
 -1       194-8.33220E+00 2.44333E+05 5.12860E+01 1.63061E+00 1.82493E-10 1.05865E-09
 -1       195-1.09251E+01 2.44349E+05 1.00258E+02-1.03197E+00 3.79046E-10 4.12456E-10
 -1       251 1.19781E+05-4.12643E+04 9.61825E+04 3.90427E+03-1.21304E-10-7.20320E-10
 -1       252 1.64579E+05 4.77124E+04 6.84069E+04-1.37117E+04 7.73923E-10-5.99721E-09
 -1       253 1.36550E+05-6.39027E+03 2.48741E+04 2.96525E+03-1.83718E-10 1.12050E-09
 -1       254 1.44700E+05 7.37328E+03 1.58031E+04-1.22463E+04-3.47740E-10 8.56789E-09
 -1       255 1.39545E+05-9.87222E+02 6.42845E+03 2.43897E+03 1.89175E-10 1.18459E-08
 -1       256 1.41060E+05 1.17660E+03 3.93946E+03-1.14655E+04 2.93994E-10 1.42451E-08
 -1       257 1.40135E+05-1.73382E+02 2.03593E+03 2.18448E+03-2.11529E-10 5.70350E-09
 -1       258 1.40454E+05 3.83674E+02 1.83518E+03-1.12046E+04-6.23630E-10-9.25875E-09
 -1       259 1.40133E+05-1.83897E+02 2.13573E+03 2.17811E+03-1.39096E-10-6.39659E-10
 -1       260 1.41091E+05 1.26925E+03 4.22146E+03-1.14409E+04 6.13170E-10-4.34744E-09
 -1       261 1.39514E+05-1.06789E+03 6.94666E+03 2.42070E+03 9.40759E-10 9.00400E-10
 -1       262 1.44963E+05 7.98307E+03 1.70777E+04-1.21948E+04-1.09355E-09-6.06110E-09
 -1       263 1.36314E+05-6.91483E+03 2.69350E+04 2.93201E+03-1.56842E-09 4.68390E-09
 -1       264 1.66350E+05 5.16411E+04 7.39977E+04-1.36360E+04-3.25781E-09 1.43555E-08
 -1       265 1.18241E+05-4.46497E+04 1.04145E+05 3.86175E+03-1.54228E-09 8.00355E-09
 -1       266-3.58409E+04-1.67566E+04 8.41052E+04-8.87519E+01 5.09317E-11-5.37099E-09
 -1       267 4.15506E+04 1.95342E+04 5.94381E+04 1.02388E+02-7.27596E-12-3.50468E-09
 -1       268-5.57181E+03-2.76636E+03 2.20932E+04-1.30468E+01-9.09495E-12-1.00244E-08
 -1       269 6.57873E+03 3.31099E+03 1.43599E+04 1.51967E+01 5.82077E-11-9.57820E-09
 -1       270-9.87475E+02-5.44011E+02 6.93173E+03-2.06234E+00 3.56977E-11 2.93269E-09
 -1       271-3.50726E+06-4.38837E+05-2.69921E+05-1.36789E+06 2.09548E-09 3.92902E-09
 -1       272-3.58893E+06-6.50480E+05-1.73485E+05-1.38218E+06-1.83741E-09-8.07631E-10
 -1       273-3.55975E+06-5.04323E+05-6.37681E+04-1.35392E+06-9.59972E-10 1.18671E-08
 -1       274-3.52706E+06-5.70778E+05-3.56425E+04-1.40414E+06 1.95178E-09 1.26884E-08
 -1       275-3.56860E+06-5.09369E+05-1.48366E+04-1.34978E+06-6.48470E-10-1.26511E-09
 -1       276-3.51643E+06-5.65148E+05-7.85886E+03-1.41098E+06 1.14369E-09-4.97380E-09
 -1       277-3.57096E+06-5.08598E+05-3.84726E+03-1.34792E+06-5.78439E-10 3.52156E-09
 -1       278-3.51414E+06-5.65818E+05-2.78625E+03-1.41333E+06 1.38158E-09 8.62440E-09
 -1       279-3.57121E+06-5.08413E+05-2.98329E+03-1.34769E+06 3.04681E-11 1.09026E-09
 -1       280-3.51543E+06-5.65505E+05-5.46476E+03-1.41202E+06-1.66028E-09-3.45403E-09
 -1       281-3.56949E+06-5.09077E+05-1.00177E+04-1.34908E+06-3.88809E-10-3.98813E-09
 -1       282-3.52314E+06-5.68561E+05-2.38910E+04-1.40652E+06 8.69477E-10-6.80302E-10
 -1       283-3.56297E+06-5.06359E+05-4.27233E+04-1.35252E+06-1.12868E-09-3.53248E-09
 -1       284-3.56589E+06-6.20299E+05-1.16078E+05-1.38980E+06-6.36646E-10-8.28732E-09
 -1       285-3.52682E+06-4.63672E+05-1.80774E+05-1.36303E+06 1.43882E-09-9.24047E-10
 -1       301 1.44196E+04-1.74676E+04 1.10189E+05-4.48340E+04-8.80391E-10-4.57271E-09
 -1       302 1.55217E+04 1.03997E+04 7.88164E+04-6.60216E+04 1.11891E-09 1.93177E-09
 -1       303 8.64041E+02-7.44053E+03 7.14032E+04-4.49368E+04-1.45519E-09-3.86808E-09
 -1       304 2.78024E+04 2.18423E+04 1.18867E+05-6.57950E+04 8.44011E-10-1.32227E-08
 -1       305 2.74057E+04-2.86561E+04 1.98837E+05-4.49857E+04-7.93079E-10-3.78714E-09
 -1       306-3.92450E+06-4.58124E+05-2.98092E+05-1.53891E+06 2.55386E-09-4.84579E-09
 -1       307-4.08572E+06-7.01490E+05-2.03102E+05-1.47718E+06 7.05768E-10 7.89441E-10
 -1       308-3.99775E+06-5.45446E+05-7.02082E+04-1.50479E+06 7.54881E-10 6.71935E-09
 -1       309-3.99178E+06-6.09286E+05-4.23204E+04-1.52809E+06 2.73701E-10 4.96766E-09
 -1       310-4.01803E+06-5.48472E+05-1.64842E+04-1.48863E+06-2.94961E-10 4.49018E-09
 -1       311-3.96556E+06-6.08953E+05-9.49406E+03-1.55110E+06 3.91833E-09 3.50758E-09
 -1       312-4.02424E+06-5.45257E+05-4.64217E+03-1.48213E+06-1.25041E-10 6.10851E-09
 -1       313-3.96238E+06-6.08863E+05-4.16935E+03-1.55387E+06-3.41583E-09 3.25622E-09
 -1       314-4.02125E+06-5.48490E+05-5.11797E+03-1.48591E+06-2.01317E-09-5.55724E-09
 -1       315-3.97650E+06-5.97775E+05-1.05364E+04-1.53729E+06-2.75429E-09 9.41122E-09
 -1       316-4.00977E+06-5.56628E+05-1.88005E+04-1.49844E+06 2.40095E-09 5.92354E-09
 -1       317-4.01176E+06-5.93302E+05-4.80561E+04-1.50591E+06 1.21946E-09-1.89175E-10
 -1       318-3.98586E+06-5.53436E+05-7.97767E+04-1.51703E+06-5.82440E-09 3.75439E-09
 -1       319-4.11635E+06-7.01633E+05-2.31109E+05-1.45268E+06-4.57931E-09-9.71340E-10
 -1       320-3.90604E+06-4.50127E+05-3.38735E+05-1.55123E+06 9.09495E-09-1.86265E-09
 -1       336 4.96589E+02-7.70838E+05-4.20990E+03 9.78217E+02-6.94149E-09-3.94721E-10
 -1       337-1.53818E+03-7.71855E+05-4.65564E+03-2.48725E+03-1.27878E-08-6.38829E-09
 -1       338 3.34651E+02-7.70943E+05-5.98786E+03 1.50336E+03-8.92760E-09 2.39925E-09
 -1       339-6.21030E+03-7.74762E+05-1.31267E+04-3.52263E+03-1.62797E-08 1.06465E-08
 -1       340 4.18091E+03-7.68008E+05-2.02845E+04 2.00607E+03-1.12450E-08 7.75435E-09
 -1       406 1.25686E+01 2.44340E+05 4.09751E+02 1.73915E-02 4.81350E-10 1.19599E-09
 -1       407 1.39670E+02 2.44416E+05 8.71006E+02-8.06626E+00 6.01688E-11-2.04454E-09
 -1       408 4.45086E+02 2.44277E+05 1.73950E+03 8.20107E+00 6.50061E-10 2.85822E-08
 -1       409 1.87796E+03 2.44972E+05 3.91626E+03-7.87750E+01 2.01680E-10 5.82495E-08
 -1       410 5.40146E+03 2.43782E+05 7.99485E+03 7.34904E+01 6.02995E-10 2.78469E-08
 -1       521-7.36710E+06-7.74911E+05-5.67108E+05-2.72070E+06 1.82263E-09-2.27010E-09
 -1       522-7.08119E+06-1.58112E+06-3.49632E+05-3.07567E+06-2.66007E-08-1.07684E-09
 -1       523-7.58036E+06-7.77264E+05-1.31555E+05-2.48361E+06-1.50249E-09-1.45155E-08
 -1       524-6.87931E+06-1.54674E+06-7.24011E+04-3.37706E+06 2.55617E-08-3.01952E-08
 -1       525-7.60691E+06-7.76680E+05-2.94031E+04-2.44810E+06 2.64899E-08-1.67256E-08
 -1       526-6.89908E+06-1.42039E+06-4.18592E+03-3.23204E+06 1.50103E-08-5.33237E-09
 -1       527-7.53579E+06-9.20942E+05-2.66973E+04-2.61171E+06-3.63798E-10 3.18323E-10
 -1       528-7.12282E+06-1.09219E+06 2.03295E+04-2.79438E+06-1.36351E-08 4.80486E-09
 -1       529-7.34315E+06-1.13349E+06-3.21999E+04-2.85543E+06 1.44501E-08-2.45018E-09
 -1       530-7.56397E+06-7.08959E+05 2.82888E+03-2.38827E+06-1.89593E-08 1.73895E-08
 -1       531-7.11683E+06-1.28789E+06-3.49603E+04-3.03265E+06-2.53312E-08-7.80346E-10
 -1       532-7.90292E+06-5.19573E+05-7.10807E+04-2.20338E+06 3.01916E-08-3.71901E-08
 -1       533-7.04499E+06-1.29469E+06-1.24877E+05-3.07258E+06 7.68705E-09-5.24815E-08
 -1       534-7.89313E+06-8.10986E+05-3.52133E+05-2.23235E+06-1.09358E-08 4.23497E-08
 -1       535-7.11044E+06-1.01310E+06-5.54482E+05-2.98801E+06-9.54606E-09 2.98605E-08
 -1       536-1.03960E+05-1.75492E+04 4.04075E+04-6.29207E+02-1.19499E-09 9.90440E-09
 -1       537-8.49187E+04 2.03146E+04 2.88516E+04-6.46262E+00-9.56473E-09 2.87582E-09
 -1       538-9.72447E+04-2.76204E+03 1.03710E+04-2.39481E+02 1.80790E-10 7.98445E-09
 -1       539-9.28430E+04 3.18866E+03 6.75859E+03-8.32537E+02 3.74771E-09 7.58803E-09
 -1       540-9.60400E+04-4.37158E+02 2.56562E+03 1.96882E+02 4.02864E-10-2.16119E-10
 -1       541-9.44306E+04 4.94632E+02 1.64460E+03-1.63916E+03 2.39169E-10-1.90425E-09
 -1       542-9.56647E+04-6.48260E+01 5.56542E+02 5.67102E+02 4.86850E-10 4.74813E-10
 -1       543-9.50395E+04 4.46756E+01 2.80402E+02-2.25402E+03-2.86906E-10 1.45844E-09
 -1       544-9.54407E+04 1.94764E+01-1.15206E+02 8.11741E+02-1.35131E-10-3.07892E-10
 -1       545-9.54224E+04-1.91160E+02-5.25470E+02-2.58189E+03-1.06795E-09-4.83904E-09
 -1       546-9.52883E+04 1.75641E+02-1.03237E+03 8.94988E+02 7.50166E-10-2.05284E-09
 -1       547-9.59483E+04-1.27807E+03-2.61995E+03-2.57486E+03-3.05317E-09 1.92040E-09
 -1       548-9.49147E+04 1.10548E+03-4.23009E+03 8.04705E+02-3.59487E-09-1.07320E-09
 -1       549-9.88567E+04-8.14597E+03-1.14794E+04-2.22882E+03-1.45475E-09-4.06362E-09
 -1       550-9.23734E+04 7.03324E+03-1.63855E+04 5.48933E+02 9.33795E-11 2.64572E-09
 -1       551 8.69553E+03-3.98634E+05 2.08173E+04-6.75270E+05-3.02098E-08 3.36877E-09
 -1       552 1.91812E+04-4.01753E+05 2.77895E+04-9.61216E+05-2.33849E-08 7.10133E-09
 -1       553 1.30808E+04-4.06953E+05 4.31624E+04-6.72954E+05-3.73402E-08 6.13727E-09
 -1       554 4.15359E+04-3.90362E+05 9.17269E+04-9.62217E+05-2.30793E-08 5.24716E-09
 -1       555 3.97586E+04-4.24593E+05 1.64568E+05-6.73701E+05-3.82133E-08-1.01863E-09
 -1       556 6.10395E+04-1.29124E+05 4.36976E+04-1.68961E+05-1.46247E-09 1.37006E-08
 -1       557 1.13316E+05-1.72453E+05 2.29723E+04-2.11637E+05 3.78350E-10 8.86394E-09
 -1       558 6.08364E+04-1.34938E+05 9.26148E+03-1.63955E+05-3.01225E-09 9.14588E-09
 -1       559 1.06205E+05-1.78410E+05 4.71081E+03-2.14804E+05 4.13274E-09 3.04135E-09
 -1       560 5.92589E+04-1.33891E+05 1.93178E+03-1.64947E+05-2.35013E-09-3.87627E-09
 -1       561 1.03762E+05-1.77779E+05 1.03392E+03-2.16351E+05-1.64437E-09-2.10548E-10
 -1       562 5.79892E+04-1.33042E+05 3.85895E+02-1.65862E+05-6.99220E-09 1.88220E-09
 -1       563 1.02271E+05-1.77138E+05 2.49282E+02-2.17304E+05-4.04543E-09 2.43940E-08
 -1       564 5.71966E+04-1.32530E+05 8.73365E+01-1.66425E+05-1.64073E-09 3.08228E-09
 -1       565 1.01493E+05-1.76805E+05 5.90390E+01-2.17794E+05 5.45697E-10 2.75122E-09
 -1       566 5.69091E+04-1.32340E+05-1.54394E+01-1.66633E+05-7.28687E-09-1.52431E-09
 -1       567 1.01386E+05-1.76752E+05-9.93166E+01-2.17798E+05-1.52204E-09 1.23036E-08
 -1       568 5.71590E+04-1.32504E+05-3.00722E+02-1.66517E+05-6.19002E-09 3.45062E-09
 -1       569 1.01324E+05-1.76642E+05-7.03613E+02-2.16767E+05-2.73576E-09 9.13133E-10
 -1       570 5.84601E+04-1.33677E+05-1.51557E+03-1.66481E+05 1.49885E-09 8.13088E-10
 -1       571 1.77423E+05 6.42572E+03 9.52049E+03-4.51047E+04 3.49246E-10-9.09495E-13
 -1       572 1.78839E+05 2.23607E+03 4.66446E+03-4.94428E+04 1.10958E-10 2.50111E-10
 -1       573 1.77991E+05 5.34339E+02 2.07213E+03-4.49871E+04 6.25732E-10 8.69659E-09
 -1       574 1.78157E+05 1.75760E+02 1.03820E+03-4.95742E+04-7.05313E-10 7.31143E-09
 -1       575 1.78053E+05 2.63527E+01 4.89299E+02-4.49716E+04 1.69848E-10 1.45656E-09
 -1       576 1.78064E+05 9.70123E+00 2.49085E+02-4.95917E+04 9.29589E-10 1.10049E-09
 -1       577 1.78062E+05-7.85701E-01 1.22712E+02-4.49696E+04-1.28125E-10 2.34922E-09
 -1       578 1.78055E+05 1.23886E+00 6.69621E+01-4.95939E+04 9.54969E-12 1.73350E-09
 -1       579 1.78073E+05-2.81804E+00 4.10083E+01-4.49695E+04-2.66482E-10 1.55069E-09
 -1       580 1.78070E+05-4.49854E+00 3.84250E+01-4.95912E+04-5.94810E-10-2.69665E-10
 -1       581 1.78092E+05-9.83805E+00 5.21558E+01-4.49722E+04-1.72804E-10 4.04270E-10
 -1       582 1.78104E+05-2.69612E+00 9.95351E+01-4.95644E+04 2.59206E-11 4.06317E-09
 -1       583 1.78115E+05 2.07610E+01 1.90778E+02-4.49963E+04 5.43878E-10 6.62112E-10
 -1       584 1.78203E+05 1.68842E+02 4.27924E+02-4.93634E+04-5.29326E-10-1.00385E-09
 -1       585 1.78097E+05 5.45408E+02 8.68735E+02-4.51736E+04 5.02951E-10 2.16096E-09
 -1       586-2.16092E+03 5.82372E+04-2.86891E+03-1.53365E+05 3.44698E-10 6.09566E-09
 -1       587-4.55396E+02 5.78507E+04-3.20270E+02-1.68766E+05 6.66660E-10 4.46994E-09
 -1       588 6.13608E+02 5.79275E+04 2.03943E+03-1.53272E+05 3.39242E-10 1.30058E-10
 -1       589 3.03551E+03 5.90508E+04 5.94008E+03-1.68625E+05 5.53882E-10 1.96951E-09
 -1       590 8.70613E+03 5.72183E+04 1.27179E+04-1.53508E+05 2.62844E-10-5.80894E-09
 -1       591-3.98172E+04-1.09289E+04-1.29729E+04-2.03364E+04 4.89990E-11-3.28237E-09
 -1       592-4.10956E+04-1.43278E+04-7.06178E+03-2.36650E+04 3.04215E-09 1.28474E-08
 -1       593-4.11665E+04-1.01306E+04-2.93337E+03-2.12224E+04 1.38118E-09-9.23001E-09
 -1       594-3.92646E+04-1.24001E+04-1.46521E+03-2.37615E+04-3.62093E-11-6.28141E-09
 -1       595-4.12698E+04-1.01313E+04-6.72671E+02-2.12645E+04 3.78924E-09-2.07820E-10
 -1       596-3.91393E+04-1.23093E+04-3.43033E+02-2.37494E+04 1.15546E-08 6.97003E-09
 -1       597-4.12828E+04-1.01395E+04-1.88832E+02-2.12664E+04 1.92549E-09-4.08619E-09
 -1       598-3.91275E+04-1.23056E+04-1.55664E+02-2.37459E+04 5.68292E-10 1.88982E-09
 -1       599-4.12818E+04-1.01395E+04-2.03655E+02-2.12661E+04 7.76481E-10-1.12118E-09
 -1       600-3.91408E+04-1.23104E+04-3.82321E+02-2.37489E+04-2.29124E-09 6.10271E-10
 -1       601-4.12655E+04-1.01307E+04-7.56016E+02-2.12633E+04-4.00428E-09-1.12504E-09
 -1       602-3.92817E+04-1.24127E+04-1.65045E+03-2.37609E+04 1.16552E-09-6.65977E-10
 -1       603-4.11479E+04-1.01315E+04-3.30544E+03-2.12161E+04-1.23919E-10-2.33854E-09
 -1       604-4.13513E+04-1.45777E+04-7.95780E+03-2.36426E+04 3.26395E-10-3.66435E-09
 -1       605-3.96189E+04-1.10373E+04-1.46187E+04-2.02246E+04 2.01339E-10 5.40240E-10
 -1       606 2.51942E+04-8.54170E+03-1.53802E+04 2.45829E+04 6.29916E-09 8.43102E-10
 -1       607 2.25601E+04-2.75575E+03-7.65842E+03 2.75958E+04 1.67938E-08-3.00849E-09
 -1       608 2.40543E+04-4.64928E+02-3.42963E+03 2.43869E+04 9.26957E-09 8.12634E-10
 -1       609 2.37565E+04-1.20597E+02-1.73220E+03 2.78121E+04-6.27551E-11 3.13912E-09
 -1       610 2.39158E+04 2.24981E+01-8.27476E+02 2.43650E+04-1.57706E-09 2.79556E-09
 -1       611 2.38590E+04 3.42525E+01-4.17353E+02 2.78358E+04-6.55609E-09-5.12614E-09
 -1       612 2.38784E+04 3.64453E+01-1.99760E+02 2.43629E+04-2.70029E-09 2.89856E-09
 -1       613 2.38565E+04 4.20385E+01-9.10716E+01 2.78386E+04-5.10545E-09-6.90534E-10
 -1       614 2.38579E+04 3.73450E+01-2.55090E+01 2.43621E+04-5.15683E-10-2.05864E-09
 -1       615 2.38456E+04 4.71008E+01 2.82704E+01 2.78390E+04 5.94264E-09-2.74690E-09
 -1       616 2.38423E+04 4.26135E+01 9.38730E+01 2.43624E+04-3.57977E-09-6.03177E-09
 -1       617 2.38511E+04 7.08245E+01 2.17826E+02 2.78385E+04-2.75804E-10-4.93401E-10
 -1       618 2.38189E+04 1.08262E+02 4.40347E+02 2.43625E+04 9.49967E-10-6.48606E-09
 -1       619 2.40030E+04 4.13702E+02 9.89744E+02 2.78378E+04 4.31442E-10 1.71963E-09
 -1       620 2.36703E+04 1.15489E+03 1.98957E+03 2.43615E+04 2.35536E-09-2.42949E-09
 -1       621 3.01287E+02 1.92471E+05 2.61951E+03 6.89623E+03-1.39920E-10 4.30487E-09
 -1       622 3.44654E+02 1.93120E+05 2.22599E+03 1.00726E+04-2.81830E-10-4.12734E-09
 -1       623 1.38182E+01 1.92657E+05 2.56331E+03 6.86519E+03-2.28056E-10 4.79531E-09
 -1       624 1.15969E+03 1.93867E+05 4.87053E+03 1.01016E+04-2.25356E-10 2.68227E-09
 -1       625 1.16480E+03 1.91719E+05 8.46857E+03 6.86750E+03-1.46883E-10 1.42958E-09
 -1       626 1.59195E+05 4.40515E+04 3.16708E+03 8.59950E+04-4.61705E-09-6.03177E-09
 -1       627 1.57023E+05 4.56508E+04 1.52606E+03 8.94647E+04 1.54705E-09 9.17430E-09
 -1       628 1.59313E+05 4.25533E+04 6.44541E+02 8.64724E+04 1.78625E-09 4.70436E-09
 -1       629 1.56565E+05 4.52907E+04 3.15944E+02 8.96719E+04 4.41833E-09 6.73697E-09
 -1       630 1.59320E+05 4.24827E+04 1.46074E+02 8.64847E+04 1.51249E-09 6.99629E-10
 -1       631 1.56509E+05 4.52829E+04 7.86122E+01 8.96734E+04-2.23736E-10 3.79805E-09
 -1       632 1.59312E+05 4.24886E+04 5.19281E+01 8.64774E+04-6.31735E-09-7.38191E-09
 -1       633 1.56497E+05 4.52878E+04 5.81167E+01 8.96669E+04-3.64207E-09 1.00188E-08
 -1       634 1.59302E+05 4.24895E+04 9.41381E+01 8.64731E+04 3.63434E-09 1.13162E-08
 -1       635 1.56500E+05 4.52894E+04 1.90954E+02 8.96662E+04 2.24225E-09 8.94192E-09
 -1       636 1.59292E+05 4.24889E+04 3.85701E+02 8.64701E+04-3.08512E-09 1.77579E-09
 -1       637 1.56578E+05 4.53509E+04 8.47721E+02 8.96622E+04 2.21877E-09 3.97426E-09
 -1       638 1.59258E+05 4.26780E+04 1.74223E+03 8.63828E+04-4.26212E-10-1.03682E-09
 -1       639 1.57490E+05 4.66255E+04 4.12160E+03 8.93913E+04-7.32030E-10-8.34007E-10
 -1       640 1.59136E+05 4.64719E+04 8.55339E+03 8.47717E+04-4.00837E-09-2.41630E-09
 -1       656 4.31320E+04-1.09169E+06-1.04123E+05-3.66328E+02 6.43922E-10-6.39693E-09
 -1       657-5.69944E+04-1.13869E+06-8.61100E+04 7.04063E+03 2.25555E-10-8.63120E-09
 -1       658 1.36763E+04-1.10509E+06-5.28417E+04-1.36909E+03 1.03387E-09 1.91847E-13
 -1       659-6.11093E+04-1.14064E+06-9.15147E+04 7.70931E+03 2.06455E-10-2.88106E-09
 -1       660 4.72369E+04-1.08974E+06-1.13420E+05-1.03500E+03-3.78350E-10-5.46919E-10
 -1       661 1.54135E+05 1.67796E+04 1.47948E+04 6.02385E+04 5.61613E-10 3.80169E-10
 -1       662 1.61848E+05 2.83768E+04 9.96922E+03 5.76586E+04 2.59570E-09 9.83050E-10
 -1       663 1.57034E+05 2.15315E+04 3.48731E+03 5.94021E+04-3.26395E-10-6.47219E-10
 -1       664 1.58493E+05 2.28140E+04 2.08496E+03 5.86750E+04 1.82115E-09-5.98092E-09
 -1       665 1.57468E+05 2.21862E+04 8.22452E+02 5.92811E+04-1.42597E-09-4.46218E-09
 -1       666 1.57984E+05 2.20606E+04 4.79609E+02 5.88296E+04-5.07303E-09-7.36122E-09
 -1       667 1.57540E+05 2.22652E+04 2.52860E+02 5.92549E+04-1.29970E-09-1.09386E-09
 -1       668 1.57908E+05 2.19977E+04 2.53284E+02 5.88669E+04 4.26064E-09 3.94965E-09
 -1       669 1.57544E+05 2.22473E+04 3.39359E+02 5.92444E+04 1.52055E-09 6.89388E-09
 -1       670 1.57994E+05 2.21761E+04 7.35607E+02 5.88651E+04 3.52640E-09 9.13587E-10
 -1       671 1.57454E+05 2.20903E+04 1.30503E+03 5.92553E+04-2.28535E-09-5.15820E-09
 -1       672 1.58756E+05 2.34439E+04 3.33800E+03 5.86796E+04-3.99389E-09-1.01518E-08
 -1       673 1.56786E+05 2.10114E+04 5.59364E+03 5.94177E+04-2.63367E-09 8.12406E-10
 -1       674 1.64083E+05 3.24276E+04 1.59967E+04 5.71121E+04-1.21810E-09 3.20051E-09
 -1       675 1.52161E+05 1.33578E+04 2.37440E+04 6.07280E+04 1.72804E-11-5.99357E-09
 -1       676 1.75436E+01-2.09243E+05-8.14446E+02 3.65680E+01 7.58291E-11 1.61264E-09
 -1       677-2.16160E+02-2.09440E+05-1.49052E+03-7.31037E+01-7.15170E-09 3.64845E-09
 -1       678 1.44378E+02-2.09103E+05-2.63483E+03 3.65105E+01-1.32104E-09 1.79133E-10
 -1       679-2.63533E+03-2.11030E+05-6.25901E+03-7.28776E+01-2.60434E-09 3.41236E-10
 -1       680 1.57279E+03-2.07653E+05-1.00874E+04 3.59234E+01-5.88443E-10-2.02967E-11
 -1       771-2.24591E+06-3.98065E+05-5.57070E+04-9.36907E+05-9.02219E-09-8.52742E-09
 -1       772-2.23052E+06-4.28583E+05-2.98034E+04-9.71004E+05-6.27551E-09 3.09228E-09
 -1       773-2.25381E+06-3.91906E+05-1.30287E+04-9.40007E+05-1.25874E-09 3.73257E-09
 -1       774-2.22265E+06-4.22193E+05-6.29715E+03-9.74924E+05 1.00408E-08-1.62254E-09
 -1       775-2.25588E+06-3.90529E+05-3.30764E+03-9.40268E+05-7.05768E-10-5.03860E-09
 -1       776-2.22265E+06-4.22278E+05-1.49093E+03-9.77173E+05-4.39104E-09-9.93896E-09
 -1       777-2.25738E+06-3.89434E+05-1.00669E+03-9.40427E+05 2.56114E-09 2.00089E-10
 -1       778-2.22311E+06-4.22538E+05-4.19838E+02-9.79054E+05 2.55750E-09-9.67702E-10
 -1       779-2.25859E+06-3.88503E+05-4.52400E+02-9.40570E+05 4.87489E-10-3.49246E-09
 -1       780-2.22359E+06-4.22748E+05-3.01433E+02-9.80578E+05 2.20098E-10 1.76897E-10
 -1       781-2.25950E+06-3.87759E+05-5.47860E+02-9.40680E+05-6.21731E-09-7.64157E-09
 -1       782-2.22403E+06-4.22942E+05-9.26034E+02-9.81698E+05 1.42609E-09-3.49019E-10
 -1       783-2.26007E+06-3.87268E+05-1.85955E+03-9.40738E+05 3.04863E-09-6.15069E-09
 -1       784-2.22537E+06-4.24206E+05-4.37360E+03-9.82331E+05-6.18456E-09-4.36557E-10
 -1       785-2.25958E+06-3.87599E+05-8.09416E+03-9.40190E+05-9.78707E-09 7.94898E-10
 -1       786 1.63053E+05-8.74656E+03 2.02353E+04-8.64458E+00 8.91533E-07 6.55564E-09
 -1       787 1.71822E+05 1.01258E+04 1.43160E+04-1.38935E-01 1.77561E-06 1.10522E-08
 -1       788 1.66436E+05-1.37112E+03 5.23739E+03-4.43129E+00 1.90847E-06-8.83642E-09
 -1       789 1.67881E+05 1.58647E+03 3.29065E+03-8.38653E+00 2.03865E-06-1.10731E-09
 -1       790 1.66995E+05-2.14187E+02 1.33887E+03-3.97179E-01 2.29736E-06-2.01000E-08
 -1       791 1.67229E+05 2.48826E+02 7.85902E+02-1.75320E+01 2.55800E-06 8.42977E-09
 -1       792 1.67088E+05-3.44882E+01 3.58315E+02 4.71428E+00 3.15793E-06-1.58509E-08
 -1       793 1.67124E+05 4.82530E+01 2.34044E+02-3.02610E+01 3.75225E-06 5.23951E-09
 -1       794 1.67100E+05-1.37470E+01 1.72215E+02 1.23321E+01 1.87751E-06-1.19823E-08
 -1       795 1.67134E+05 7.04839E+01 2.47443E+02-5.00968E+01 6.07667E-09 6.83963E-09
 -1       796 1.67078E+05-5.67029E+01 3.69633E+02 2.45504E+01 3.28368E-10 2.77466E-09
 -1       797 1.67301E+05 4.15586E+02 8.70728E+02-8.24974E+01-5.84883E-11-1.82069E-10
 -1       798 1.66933E+05-3.58596E+02 1.37410E+03 4.47332E+01 8.27924E-11-7.36452E-09
 -1       799 1.68332E+05 2.64776E+03 3.74588E+03-1.36674E+02-5.24773E-10-8.54732E-09
 -1       800 1.66047E+05-2.28708E+03 5.29110E+03 7.87271E+01-2.83060E-10-7.77891E-09
 -1       801-4.91285E+03-1.75159E+05-5.38971E+03 1.88680E+04 1.01209E-08-8.50355E-09
 -1       802 1.76741E+04-7.50025E+04 3.85587E+04-7.27606E+04 2.71189E-08-1.99549E-09
 -1       803-1.18994E+04-1.32595E+05 5.39909E+04 2.11622E+04 2.14350E-08 1.73271E-08
 -1       804 1.12332E+05-2.05412E+04 1.63011E+05-7.30645E+04 2.49984E-08 2.30857E-08
 -1       805-9.96919E+04-2.29257E+05 2.02547E+05 1.91680E+04 8.94943E-09 2.20466E-08
 -1       806-1.93214E+05-4.12502E+04-1.63572E+04-8.03096E+04-3.59432E-09-5.48016E-09
 -1       807-1.94189E+05-3.88954E+04-8.03592E+03-8.46323E+04 3.63713E-09 1.52145E-08
 -1       808-1.93677E+05-3.53418E+04-3.40882E+03-8.30850E+04 1.91221E-10-9.06915E-10
 -1       809-1.92475E+05-3.66632E+04-1.66649E+03-8.48625E+04 1.11231E-09 9.35142E-09
 -1       810-1.93749E+05-3.51335E+04-7.63086E+02-8.32074E+04 4.03315E-09 9.34710E-09
 -1       811-1.92343E+05-3.65749E+04-3.78466E+02-8.48426E+04-5.33964E-09-1.44378E-08
 -1       812-1.93761E+05-3.51492E+04-1.88942E+02-8.32070E+04-6.34464E-09-1.02339E-08
 -1       813-1.92326E+05-3.65772E+04-1.19272E+02-8.48321E+04-2.01021E-09-1.08611E-08
 -1       814-1.93759E+05-3.51552E+04-1.12017E+02-8.32044E+04-6.90306E-10 4.42924E-10
 -1       815-1.92328E+05-3.65792E+04-1.75419E+02-8.48288E+04 1.63936E-09-2.88674E-09
 -1       816-1.93747E+05-3.51541E+04-3.28786E+02-8.32019E+04 1.83718E-10 1.24101E-09
 -1       817-1.92384E+05-3.66108E+04-7.04835E+02-8.48224E+04 2.39856E-09-1.28603E-09
 -1       818-1.93705E+05-3.52532E+04-1.43652E+03-8.31550E+04 7.23048E-10-2.91175E-09
 -1       819-1.93176E+05-3.74731E+04-3.38078E+03-8.46300E+04-1.72463E-09-8.47194E-10
 -1       820-1.93431E+05-3.78093E+04-6.88056E+03-8.20648E+04-1.02682E-09 2.31887E-09
 -1       821-2.48925E+05 1.38592E+04-3.20518E+04 8.35283E+01-5.21996E-10-4.40195E-10
 -1       822-2.62815E+05-1.60444E+04-2.26813E+04-6.00324E+02-1.96570E-09 6.26960E-09
 -1       823-2.54286E+05 2.17276E+03-8.30149E+03 5.19670E+01 8.78556E-10-2.14413E-09
 -1       824-2.56564E+05-2.51489E+03-5.22327E+03-4.57563E+02 5.05212E-10 2.06381E-09
 -1       825-2.55174E+05 3.40031E+02-2.14682E+03-5.92364E+01-2.77877E-09-1.44166E-09
 -1       826-2.55530E+05-4.01016E+02-1.29574E+03-1.99005E+02-4.78466E-09-2.23646E-09
 -1       827-2.55319E+05 6.02982E+01-6.70523E+02-2.06596E+02-3.96881E-09-3.02936E-09
 -1       828-2.55390E+05-1.22157E+02-5.92032E+02 7.63207E+01-5.48396E-09-4.88300E-09
 -1       829-2.55314E+05 6.14267E+01-6.79031E+02-3.34567E+02 1.86375E-11 1.33929E-09
 -1       830-2.55547E+05-4.09837E+02-1.32520E+03 2.64646E+02 9.79939E-10 5.09567E-09
 -1       831-2.55162E+05 3.47949E+02-2.19426E+03-3.94926E+02-3.35519E-09-7.78414E-09
 -1       832-2.56602E+05-2.57322E+03-5.34674E+03 2.95581E+02-2.50406E-10-2.90288E-09
 -1       833-2.54260E+05 2.22328E+03-8.49623E+03-3.65501E+02-1.62091E-10-2.81943E-10
 -1       834-2.62985E+05-1.64200E+04-2.32128E+04 1.59723E+02 3.57197E-10 6.63522E-09
 -1       835-2.48780E+05 1.41839E+04-3.28066E+04-2.59058E+02 4.74845E-09 2.97223E-09
 -1       836-8.25502E+02 2.36388E+05 1.41479E+04-2.03472E+04 1.59798E-09 4.14047E-09
 -1       837 3.11846E+03 2.40767E+05 1.20971E+04-4.08619E+04 2.25464E-09-2.32706E-09
 -1       838-3.03224E+02 2.37603E+05 1.24995E+04-2.02786E+04 2.13822E-09 1.59548E-09
 -1       839 8.03672E+03 2.44435E+05 2.38164E+04-4.08862E+04 2.72985E-09-4.52957E-09
 -1       840-2.41376E+03 2.32688E+05 3.80497E+04-2.03214E+04 1.96269E-09 4.22256E-09
 -1       856-7.73293E+04 6.65327E+03-1.75330E+04-3.93301E+02-4.19516E-09-1.97269E-09
 -1       857-8.45721E+04-7.80319E+03-1.20712E+04 4.00023E+03-4.63467E-09-1.76101E-09
 -1       858-8.01908E+04 9.32229E+02-4.55034E+03-4.10957E+02-4.86068E-09-1.65278E-09
 -1       859-8.12859E+04-1.08373E+03-2.74829E+03 4.02841E+03-1.03557E-09 3.04556E-09
 -1       860-8.06186E+04 1.29633E+02-1.15560E+03-4.21605E+02-9.90212E-11 2.94904E-09
 -1       861-8.07930E+04-1.43041E+02-6.43752E+02 4.04297E+03-4.96592E-09 9.12507E-10
 -1       862-8.06852E+04 1.71682E+01-2.83701E+02-4.25542E+02 4.60489E-09 2.44731E-09
 -1       863-8.07143E+04-1.03498E+01-1.39895E+02 4.04472E+03 1.10584E-08-6.07504E-09
 -1       864-8.06975E+04-1.46517E-01-4.31185E+01-4.23364E+02 3.60002E-09-2.62435E-09
 -1       865-8.06911E+04 2.04774E+01 2.84993E+01 4.03376E+03 1.78986E-09-5.89076E-09
 -1       866-8.07072E+04-1.40448E+01 9.97116E+01-4.14578E+02 1.35969E-10-2.00772E-09
 -1       867-8.06330E+04 1.17813E+02 2.72525E+02 4.00993E+03 3.99169E-10-4.48954E-09
 -1       868-8.07529E+04-9.68821E+01 4.59423E+02-3.99530E+02-5.33760E-11-9.46869E-10
 -1       869-8.02883E+04 8.03420E+02 1.23320E+03 3.97043E+03-3.12673E-09-5.53251E-09
 -1       870-8.10478E+04-6.82718E+02 1.78840E+03-3.75089E+02 1.83223E-09 1.07661E-09
 -1       871-3.66098E+03-7.67201E+03-1.18636E+04 7.77705E+04 2.26646E-09-2.06910E-09
 -1       872-1.59743E+03-1.03248E+04-4.83289E+03 1.00824E+05 4.03861E-09 7.29938E-09
 -1       873-4.40492E+01-9.08571E+03 6.98908E+02 7.75993E+04 2.48360E-09 8.35030E-09
 -1       874 1.81659E+03-7.35403E+03 6.74857E+03 1.00860E+05 4.39150E-09 7.27402E-09
 -1       875 4.32191E+03-1.06876E+04 1.49603E+04 7.77420E+04 1.47247E-09 2.27783E-09
 -1       876 1.94363E+05 3.35223E+04 1.04155E+04 7.88930E+04-4.51269E-09-7.63066E-10
 -1       877 1.94952E+05 3.58150E+04 5.56209E+03 8.19801E+04-6.92512E-09-3.95266E-09
 -1       878 1.95337E+05 3.23694E+04 2.33026E+03 7.97482E+04-2.91584E-09-5.99698E-09
 -1       879 1.93535E+05 3.44042E+04 1.16080E+03 8.20542E+04-2.92357E-09 3.66458E-09
 -1       880 1.95408E+05 3.23564E+04 5.40409E+02 7.97831E+04 1.97429E-09 2.41846E-09
 -1       881 1.93441E+05 3.43443E+04 2.87790E+02 8.20397E+04 3.82090E-09 6.18496E-09
 -1       882 1.95415E+05 3.23649E+04 1.82757E+02 7.97840E+04 1.21838E-09 5.83566E-09
 -1       883 1.93434E+05 3.43415E+04 1.94276E+02 8.20356E+04-1.11298E-08 5.12922E-09
 -1       884 1.95411E+05 3.23627E+04 3.07064E+02 7.97842E+04-4.33107E-09-3.31573E-09
 -1       885 1.93459E+05 3.43459E+04 6.16131E+02 8.20433E+04 4.64549E-09-7.70081E-09
 -1       886 1.95387E+05 3.23447E+04 1.24121E+03 7.97817E+04 2.88202E-09-5.33885E-09
 -1       887 1.93677E+05 3.44889E+04 2.71107E+03 8.20747E+04-1.08295E-09-2.26385E-09
 -1       888 1.95216E+05 3.23749E+04 5.46285E+03 7.96950E+04 2.05623E-09 4.45880E-09
 -1       889 1.96933E+05 3.78683E+04 1.30504E+04 8.19711E+04 3.95932E-09 4.28395E-09
 -1       890 1.92990E+05 3.50188E+04 2.44423E+04 7.76111E+04 2.93380E-09 7.74889E-10
 -1       891-1.23101E+02-1.10516E+05-1.30316E+03 2.10288E+04-1.61151E-09 5.70174E-09
 -1       892-2.13833E+02-1.10827E+05-1.41839E+03 3.18201E+04-8.59700E-10 4.67253E-11
 -1       893-3.64091E+01-1.10557E+05-2.02757E+03 2.10328E+04 2.57160E-10 6.66387E-09
 -1       894-1.11169E+03-1.11606E+05-4.21054E+03 3.17071E+04-1.75896E-09 5.44242E-09
 -1       895-8.68209E+02-1.09682E+05-7.41991E+03 2.11403E+04 1.42404E-09 6.30280E-09
 -1       956-2.44258E+05-3.51933E+03-8.86423E+03 1.61752E+04-3.12730E-09 4.44095E-09
 -1       957-2.46009E+05-1.18574E+03-4.55059E+03 1.94774E+04-6.65750E-10-1.64198E-09
 -1       958-2.45044E+05-9.29211E+01-2.05013E+03 1.60694E+04 2.35377E-09-1.05588E-08
 -1       959-2.45184E+05-1.43788E+01-1.04717E+03 1.95917E+04-7.91715E-10-3.33603E-09
 -1       960-2.45114E+05 3.10382E+01-5.10405E+02 1.60594E+04-3.02271E-09 4.43379E-11
 -1       961-2.45123E+05 2.95554E+01-2.70613E+02 1.96030E+04-5.31509E-09-2.67255E-09
 -1       962-2.45128E+05 2.73296E+01-1.54501E+02 1.60579E+04-3.37559E-09 2.00873E-09
 -1       963-2.45121E+05 3.05923E+01-1.23302E+02 1.96051E+04-3.64719E-09 4.22710E-09
 -1       964-2.45131E+05 2.90469E+01-1.48770E+02 1.60574E+04 2.39561E-09-1.10185E-09
 -1       965-2.45130E+05 3.33352E+01-2.56299E+02 1.96052E+04 1.14841E-08-9.95897E-11
 -1       966-2.45123E+05 3.60972E+01-4.80646E+02 1.60578E+04-1.11606E-09-3.76349E-09
 -1       967-2.45193E+05-4.30235E+00-9.85578E+02 1.95991E+04-9.63382E-09 8.87360E-09
 -1       968-2.45063E+05-7.70604E+01-1.92857E+03 1.60635E+04-2.09411E-10 3.78347E-09
 -1       969-2.45976E+05-1.10333E+03-4.28199E+03 1.95322E+04 1.08474E-08 1.69962E-11
 -1       970-2.44328E+05-3.29907E+03-8.34030E+03 1.61271E+04 6.80984E-09 5.78621E-09
 -1       971-2.32020E+05-1.22482E+03-6.82142E+03 1.13354E+04-2.98087E-09-3.61922E-09
 -1       972-2.33680E+05-8.77082E+02-3.71503E+03 1.58357E+04-3.02521E-09-1.98270E-09
 -1       973-2.32778E+05-6.25089E+00-1.66337E+03 1.12410E+04-4.13820E-09-2.45768E-09
 -1       974-2.32894E+05-5.93084E+00-8.61730E+02 1.59373E+04 1.89448E-09 6.68308E-09
 -1       975-2.32836E+05 2.51418E+01-4.29627E+02 1.12327E+04 2.00816E-09 4.65650E-09
 -1       976-2.32846E+05 2.93090E+01-2.46000E+02 1.59473E+04-2.54158E-09 2.67312E-09
 -1       977-2.32847E+05 2.45950E+01-1.75112E+02 1.12309E+04 2.90561E-09-1.44996E-09
 -1       978-2.32848E+05 3.29940E+01-2.00299E+02 1.59498E+04 1.28983E-08-1.53841E-09
 -1       979-2.32846E+05 2.98242E+01-3.17797E+02 1.12302E+04 4.17180E-09 3.86422E-10
 -1       980-2.32872E+05 3.48745E+01-6.11108E+02 1.59502E+04 3.90332E-09-9.14747E-09
 -1       981-2.32827E+05 4.50544E+01-1.18222E+03 1.12306E+04-1.90880E-09-1.64437E-09
 -1       982-2.33034E+05-5.22559E+01-2.44285E+03 1.59455E+04-6.65977E-10 3.69269E-10
 -1       983-2.32679E+05-3.03034E+01-4.74601E+03 1.12351E+04-1.92722E-09 2.55841E-09
 -1       984-2.35317E+05-2.53032E+03-1.06279E+04 1.58816E+04-1.20717E-08 3.59182E-09
 -1       985-2.30531E+05-3.50284E+03-1.95162E+04 1.12991E+04-1.71167E-09 5.33419E-09
 -3
    1PSTEP                         9           5           1          
  100CL  105 5.03906E-01         409                     0    5           1
 -4  DISP        4    1
 -5  D1          1    2    1    0
 -5  D2          1    2    2    0
 -5  D3          1    2    3    0
 -5  ALL         1    2    0    0    1ALL
 -1         1 1.52998E-04 0.00000E+00 0.00000E+00
 -1         2 1.37937E-04 2.49091E-31 0.00000E+00
 -1         3 1.35476E-04-4.32920E-28 0.00000E+00
 -1         5 9.22416E-05-3.35451E-28 0.00000E+00
 -1         8 1.28012E-04-8.82722E-07 0.00000E+00
 -1         9 1.25461E-04-6.63340E-08 0.00000E+00
 -1        10 1.25012E-04-1.83246E-06 6.61744E-24
 -1        12 9.18464E-05 5.52909E-07 1.65436E-24
 -1        15 9.82286E-05-9.77852E-07-4.13590E-25
 -1        16 1.02025E-04-2.43751E-07 0.00000E+00
 -1        17 9.17509E-05-3.88858E-06 0.00000E+00
 -1        18 8.95823E-05 2.53482E-06 0.00000E+00
 -1        19 9.06610E-05 1.10284E-06 0.00000E+00
 -1        20 9.08005E-05 1.41344E-05 0.00000E+00
 -1        21 9.02550E-05 2.62540E-05 1.65436E-24
 -1        24 2.04413E-05-5.36863E-06 0.00000E+00
 -1        25 8.86699E-05 2.66448E-06 0.00000E+00
 -1        26 8.96142E-05 1.53335E-06 0.00000E+00
 -1        27 8.80871E-05 1.16694E-05 0.00000E+00
 -1        28 8.76203E-05 2.57847E-05 0.00000E+00
 -1        32 0.00000E+00 0.00000E+00 0.00000E+00
 -1        33 8.73228E-05 2.05453E-06 0.00000E+00
 -1        34 8.58412E-05 1.16466E-05 0.00000E+00
 -1        35 8.44379E-05 2.55361E-05 0.00000E+00
 -1        51 1.51375E-04-1.45897E-07 0.00000E+00
 -1        52 1.48365E-04-2.86902E-07 0.00000E+00
 -1        53 1.44241E-04-4.29289E-07 0.00000E+00
 -1        54 1.39284E-04-5.74627E-07 0.00000E+00
 -1        55 1.33780E-04-7.23719E-07-1.55096E-24
 -1        56 1.51635E-04-8.02422E-07-2.64698E-23
 -1        57 1.50394E-04-2.08815E-06 0.00000E+00
 -1        58 1.49284E-04-3.71240E-06 0.00000E+00
 -1        59 1.48240E-04-5.54272E-06 0.00000E+00
 -1        60 1.47215E-04-7.42447E-06 0.00000E+00
 -1        61 1.46151E-04-9.20493E-06-2.64698E-23
 -1        62 1.44994E-04-1.07379E-05 5.29396E-23
 -1        63 1.43692E-04-1.18865E-05 0.00000E+00
 -1        64 1.42206E-04-1.25414E-05 0.00000E+00
 -1        65 1.40500E-04-1.26106E-05 0.00000E+00
 -1        66 1.38556E-04-1.20443E-05-5.29396E-23
 -1        67 1.36363E-04-1.08147E-05 0.00000E+00
 -1        68 1.33928E-04-8.94250E-06 0.00000E+00
 -1        69 1.31274E-04-6.46785E-06 0.00000E+00
 -1        70 1.28423E-04-3.48034E-06 0.00000E+00
 -1        86 1.37590E-04-3.57299E-09-8.27181E-25
 -1        87 1.36548E-04-8.14510E-09 0.00000E+00
 -1        88 1.34812E-04-1.37204E-08-1.65436E-24
 -1        89 1.32384E-04-2.40469E-08-1.65436E-24
 -1        90 1.29267E-04-3.50721E-08 6.61744E-24
 -1       121 1.35183E-04-3.03399E-07-6.61744E-24
 -1       122 1.34307E-04-6.07133E-07 0.00000E+00
 -1       123 1.32848E-04-9.11531E-07 0.00000E+00
 -1       124 1.30810E-04-1.21697E-06 0.00000E+00
 -1       125 1.28196E-04-1.52368E-06 0.00000E+00
 -1       191 9.22306E-05 9.21575E-08 3.30872E-24
 -1       192 9.21977E-05 1.84314E-07-1.65436E-24
 -1       193 9.21428E-05 2.76469E-07-3.30872E-24
 -1       194 9.20659E-05 3.68622E-07 0.00000E+00
 -1       195 9.19672E-05 4.60769E-07 0.00000E+00
 -1       251 1.27839E-04 3.39892E-06 0.00000E+00
 -1       252 1.27679E-04 6.31813E-06 3.30872E-24
 -1       253 1.27521E-04 7.94418E-06 6.61744E-24
 -1       254 1.27365E-04 8.35442E-06 0.00000E+00
 -1       255 1.27210E-04 7.72214E-06 0.00000E+00
 -1       256 1.27054E-04 6.22720E-06-3.30872E-24
 -1       257 1.26897E-04 4.11749E-06-6.61744E-24
 -1       258 1.26739E-04 1.64476E-06 0.00000E+00
 -1       259 1.26581E-04-9.10691E-07-6.61744E-24
 -1       260 1.26423E-04-3.26798E-06-3.30872E-24
 -1       261 1.26266E-04-5.16182E-06 0.00000E+00
 -1       262 1.26110E-04-6.32995E-06 0.00000E+00
 -1       263 1.25954E-04-6.56723E-06 6.61744E-24
 -1       264 1.25796E-04-5.67442E-06 0.00000E+00
 -1       265 1.25636E-04-3.54153E-06 6.61744E-24
 -1       266 1.23048E-04-9.10648E-07-6.61744E-24
 -1       267 1.18084E-04-9.25032E-07 0.00000E+00
 -1       268 1.13120E-04-9.40273E-07-1.65436E-24
 -1       269 1.08156E-04-9.52973E-07 0.00000E+00
 -1       270 1.03193E-04-9.65615E-07-4.13590E-25
 -1       271 1.25014E-04 2.93474E-06 0.00000E+00
 -1       272 1.22418E-04 5.55549E-06-1.32349E-23
 -1       273 1.20231E-04 7.09908E-06-5.29396E-23
 -1       274 1.18398E-04 7.68395E-06 0.00000E+00
 -1       275 1.16870E-04 7.45209E-06-5.29396E-23
 -1       276 1.15590E-04 6.55743E-06-2.64698E-23
 -1       277 1.14495E-04 5.16709E-06 0.00000E+00
 -1       278 1.13519E-04 3.45668E-06-2.64698E-23
 -1       279 1.12595E-04 1.60794E-06 0.00000E+00
 -1       280 1.11654E-04-1.94888E-07 0.00000E+00
 -1       281 1.10628E-04-1.76857E-06 5.29396E-23
 -1       282 1.09450E-04-2.93379E-06 0.00000E+00
 -1       283 1.08054E-04-3.51926E-06 0.00000E+00
 -1       284 1.06386E-04-3.36233E-06 2.64698E-23
 -1       285 1.04382E-04-2.31798E-06-2.64698E-23
 -1       301 1.21243E-04-1.06682E-07 0.00000E+00
 -1       302 1.17068E-04-1.28314E-07 0.00000E+00
 -1       303 1.12997E-04-1.48772E-07 6.61744E-24
 -1       304 1.09092E-04-1.69841E-07 3.30872E-24
 -1       305 1.05414E-04-1.92362E-07-1.32349E-23
 -1       306 1.22472E-04 2.24136E-06 2.64698E-23
 -1       307 1.20295E-04 2.20857E-06 0.00000E+00
 -1       308 1.18944E-04-1.89780E-08 0.00000E+00
 -1       309 1.18308E-04-4.19866E-06 0.00000E+00
 -1       310 1.18174E-04-9.73174E-06 5.29396E-23
 -1       311 1.18288E-04-1.59459E-05 2.64698E-23
 -1       312 1.18361E-04-2.20458E-05 5.29396E-23
 -1       313 1.18099E-04-2.72438E-05 0.00000E+00
 -1       314 1.17271E-04-3.09126E-05 5.29396E-23
 -1       315 1.15671E-04-3.25130E-05 0.00000E+00
 -1       316 1.13232E-04-3.18760E-05 0.00000E+00
 -1       317 1.09934E-04-2.89594E-05-2.64698E-23
 -1       318 1.05909E-04-2.41276E-05 5.29396E-23
 -1       319 1.01345E-04-1.78480E-05 0.00000E+00
 -1       320 9.65029E-05-1.08551E-05 2.64698E-23
 -1       336 1.21191E-04-2.16737E-06 0.00000E+00
 -1       337 1.16663E-04-2.50556E-06 3.30872E-24
 -1       338 1.11441E-04-2.84689E-06 0.00000E+00
 -1       339 1.05538E-04-3.19133E-06 3.30872E-24
 -1       340 9.89687E-05-3.53982E-06 6.61744E-24
 -1       406 9.17037E-05 6.45036E-07 3.30872E-24
 -1       407 9.15390E-05 7.37129E-07 1.65436E-24
 -1       408 9.13523E-05 8.29162E-07 0.00000E+00
 -1       409 9.11437E-05 9.21023E-07-1.65436E-24
 -1       410 9.09132E-05 1.01253E-06 3.30872E-24
 -1       521 1.03558E-04-1.34767E-05 0.00000E+00
 -1       522 1.15252E-04-5.63712E-05 0.00000E+00
 -1       523 1.34180E-04-1.21811E-04 0.00000E+00
 -1       524 1.57126E-04-2.00702E-04 0.00000E+00
 -1       525 1.80475E-04-2.80957E-04 0.00000E+00
 -1       526 2.00594E-04-3.50364E-04-5.29396E-23
 -1       527 2.14201E-04-3.99141E-04 0.00000E+00
 -1       528 2.18111E-04-4.19337E-04-5.29396E-23
 -1       529 2.10767E-04-4.09197E-04 0.00000E+00
 -1       530 1.91481E-04-3.69495E-04 0.00000E+00
 -1       531 1.62409E-04-3.07126E-04-1.05879E-22
 -1       532 1.26928E-04-2.30672E-04 5.29396E-23
 -1       533 9.02060E-05-1.51534E-04 0.00000E+00
 -1       534 5.76068E-05-8.12854E-05 5.29396E-23
 -1       535 3.32933E-05-2.97603E-05 0.00000E+00
 -1       536 9.16016E-05 4.53183E-06 0.00000E+00
 -1       537 9.14417E-05 1.47035E-05-1.65436E-24
 -1       538 9.12756E-05 2.54673E-05 0.00000E+00
 -1       539 9.11162E-05 3.56617E-05-1.65436E-24
 -1       540 9.09711E-05 4.42518E-05 0.00000E+00
 -1       541 9.08445E-05 5.02100E-05 0.00000E+00
 -1       542 9.07307E-05 5.30966E-05 0.00000E+00
 -1       543 9.06208E-05 5.24862E-05 1.65436E-24
 -1       544 9.05046E-05 4.87329E-05 3.30872E-24
 -1       545 9.03747E-05 4.22057E-05 0.00000E+00
 -1       546 9.02324E-05 3.38926E-05 0.00000E+00
 -1       547 9.00837E-05 2.47903E-05 1.65436E-24
 -1       548 8.99383E-05 1.60719E-05 3.30872E-24
 -1       549 8.98058E-05 8.90850E-06 8.27181E-25
 -1       550 8.96863E-05 4.12520E-06 0.00000E+00
 -1       551 8.23416E-05-4.10673E-06 6.61744E-24
 -1       552 7.11227E-05-4.33863E-06 1.65436E-24
 -1       553 5.87042E-05-4.58338E-06-1.65436E-24
 -1       554 4.57056E-05-4.83723E-06-3.30872E-24
 -1       555 3.27463E-05-5.09335E-06 0.00000E+00
 -1       556 8.92341E-05 2.62856E-06 0.00000E+00
 -1       557 8.72889E-05 7.67567E-06 0.00000E+00
 -1       558 8.58538E-05 1.13841E-05 0.00000E+00
 -1       559 8.48730E-05 1.38959E-05 0.00000E+00
 -1       560 8.42907E-05 1.53529E-05 0.00000E+00
 -1       561 8.40520E-05 1.58978E-05 0.00000E+00
 -1       562 8.41023E-05 1.56734E-05 0.00000E+00
 -1       563 8.43873E-05 1.48228E-05 0.00000E+00
 -1       564 8.48531E-05 1.34891E-05-6.61744E-24
 -1       565 8.54458E-05 1.18156E-05 0.00000E+00
 -1       566 8.61120E-05 9.94579E-06 0.00000E+00
 -1       567 8.67979E-05 8.02293E-06-3.10193E-25
 -1       568 8.74500E-05 6.19043E-06 0.00000E+00
 -1       569 8.80150E-05 4.59153E-06 0.00000E+00
 -1       570 8.84391E-05 3.36948E-06 0.00000E+00
 -1       571 8.96478E-05 2.47806E-06-8.27181E-25
 -1       572 8.97147E-05 2.37700E-06 0.00000E+00
 -1       573 8.97820E-05 2.23982E-06 8.27181E-25
 -1       574 8.98495E-05 2.07509E-06-8.27181E-25
 -1       575 8.99171E-05 1.89142E-06 1.65436E-24
 -1       576 8.99848E-05 1.69751E-06 8.27181E-25
 -1       577 9.00524E-05 1.50202E-06 0.00000E+00
 -1       578 9.01201E-05 1.31364E-06 1.65436E-24
 -1       579 9.01877E-05 1.14106E-06-3.30872E-24
 -1       580 9.02554E-05 9.92967E-07 0.00000E+00
 -1       581 9.03231E-05 8.78051E-07 0.00000E+00
 -1       582 9.03907E-05 8.04984E-07 0.00000E+00
 -1       583 9.04584E-05 7.82438E-07-3.30872E-24
 -1       584 9.05260E-05 8.18993E-07 0.00000E+00
 -1       585 9.05936E-05 9.23176E-07 0.00000E+00
 -1       586 8.93999E-05 2.55777E-06 0.00000E+00
 -1       587 8.91904E-05 2.58017E-06-2.06795E-25
 -1       588 8.89832E-05 2.60233E-06 0.00000E+00
 -1       589 8.88078E-05 2.62414E-06 0.00000E+00
 -1       590 8.86938E-05 2.64533E-06 0.00000E+00
 -1       591 8.95709E-05 2.51509E-06-1.03398E-25
 -1       592 8.95698E-05 2.46069E-06 0.00000E+00
 -1       593 8.95791E-05 2.37838E-06 4.13590E-25
 -1       594 8.95962E-05 2.27418E-06 0.00000E+00
 -1       595 8.96191E-05 2.15424E-06 8.27181E-25
 -1       596 8.96457E-05 2.02463E-06 4.13590E-25
 -1       597 8.96736E-05 1.89141E-06 0.00000E+00
 -1       598 8.97005E-05 1.76067E-06 0.00000E+00
 -1       599 8.97242E-05 1.63848E-06 4.13590E-25
 -1       600 8.97425E-05 1.53090E-06 0.00000E+00
 -1       601 8.97530E-05 1.44401E-06-4.13590E-25
 -1       602 8.97535E-05 1.38387E-06 1.03398E-25
 -1       603 8.97419E-05 1.35657E-06 4.13590E-25
 -1       604 8.97159E-05 1.36824E-06 1.03398E-25
 -1       605 8.96733E-05 1.42490E-06 0.00000E+00
 -1       606 9.06732E-05 1.43621E-06 3.30872E-24
 -1       607 9.06829E-05 1.86198E-06 0.00000E+00
 -1       608 9.06921E-05 2.37472E-06 0.00000E+00
 -1       609 9.07009E-05 2.96832E-06 0.00000E+00
 -1       610 9.07095E-05 3.63664E-06 3.30872E-24
 -1       611 9.07181E-05 4.37343E-06 0.00000E+00
 -1       612 9.07265E-05 5.17246E-06 0.00000E+00
 -1       613 9.07350E-05 6.02749E-06 0.00000E+00
 -1       614 9.07434E-05 6.93228E-06 0.00000E+00
 -1       615 9.07517E-05 7.88057E-06-8.27181E-25
 -1       616 9.07600E-05 8.86614E-06 1.65436E-24
 -1       617 9.07683E-05 9.88272E-06-4.13590E-25
 -1       618 9.07765E-05 1.09241E-05 0.00000E+00
 -1       619 9.07847E-05 1.19840E-05 0.00000E+00
 -1       620 9.07928E-05 1.30561E-05 0.00000E+00
 -1       621 9.04260E-05 1.17466E-06-1.65436E-24
 -1       622 9.02251E-05 1.24681E-06 8.27181E-25
 -1       623 9.00509E-05 1.31894E-06 0.00000E+00
 -1       624 8.98960E-05 1.39096E-06 0.00000E+00
 -1       625 8.97530E-05 1.46286E-06 0.00000E+00
 -1       626 9.06137E-05 1.45937E-06-3.30872E-24
 -1       627 9.05384E-05 1.89190E-06 1.65436E-24
 -1       628 9.04375E-05 2.39323E-06-3.30872E-24
 -1       629 9.03137E-05 2.95572E-06-1.65436E-24
 -1       630 9.01698E-05 3.57169E-06 0.00000E+00
 -1       631 9.00087E-05 4.23341E-06 1.65436E-24
 -1       632 8.98334E-05 4.93318E-06 0.00000E+00
 -1       633 8.96467E-05 5.66327E-06-1.65436E-24
 -1       634 8.94514E-05 6.41597E-06 0.00000E+00
 -1       635 8.92506E-05 7.18356E-06-1.65436E-24
 -1       636 8.90470E-05 7.95832E-06 0.00000E+00
 -1       637 8.88437E-05 8.73254E-06-8.27181E-25
 -1       638 8.86433E-05 9.49850E-06-1.65436E-24
 -1       639 8.84488E-05 1.02485E-05 8.27181E-25
 -1       640 8.82629E-05 1.09747E-05-1.65436E-24
 -1       656 8.99248E-05 1.37333E-05-6.61744E-24
 -1       657 8.94017E-05 1.33162E-05-3.30872E-24
 -1       658 8.90992E-05 1.29004E-05 0.00000E+00
 -1       659 8.88812E-05 1.24850E-05-3.30872E-24
 -1       660 8.85946E-05 1.20683E-05 0.00000E+00
 -1       661 9.04772E-05 1.51868E-05-8.27181E-25
 -1       662 9.01768E-05 1.61860E-05 8.27181E-25
 -1       663 8.98958E-05 1.71336E-05 1.65436E-24
 -1       664 8.96336E-05 1.80324E-05 0.00000E+00
 -1       665 8.93889E-05 1.88846E-05 1.65436E-24
 -1       666 8.91609E-05 1.96926E-05 8.27181E-25
 -1       667 8.89487E-05 2.04586E-05 1.65436E-24
 -1       668 8.87515E-05 2.11848E-05 8.27181E-25
 -1       669 8.85685E-05 2.18732E-05 1.65436E-24
 -1       670 8.83990E-05 2.25257E-05-8.27181E-25
 -1       671 8.82422E-05 2.31443E-05 0.00000E+00
 -1       672 8.80973E-05 2.37306E-05 0.00000E+00
 -1       673 8.79639E-05 2.42864E-05 0.00000E+00
 -1       674 8.78406E-05 2.48131E-05-8.27181E-25
 -1       675 8.77278E-05 2.53126E-05 0.00000E+00
 -1       676 8.98147E-05 2.61753E-05 0.00000E+00
 -1       677 8.93746E-05 2.60967E-05-8.27181E-25
 -1       678 8.89350E-05 2.60180E-05 1.65436E-24
 -1       679 8.84959E-05 2.59397E-05 0.00000E+00
 -1       680 8.80576E-05 2.58613E-05-1.65436E-24
 -1       771 1.56521E-05 4.24710E-06 0.00000E+00
 -1       772 1.15199E-05 1.21274E-05 0.00000E+00
 -1       773 8.01609E-06 1.83658E-05 0.00000E+00
 -1       774 5.09911E-06 2.30632E-05 0.00000E+00
 -1       775 2.72791E-06 2.63234E-05 0.00000E+00
 -1       776 8.59610E-07 2.82541E-05 0.00000E+00
 -1       777-5.49122E-07 2.89657E-05 0.00000E+00
 -1       778-1.54261E-06 2.85722E-05 0.00000E+00
 -1       779-2.16546E-06 2.71894E-05-2.64698E-23
 -1       780-2.46314E-06 2.49362E-05 1.32349E-23
 -1       781-2.48121E-06 2.19330E-05-2.64698E-23
 -1       782-2.26590E-06 1.83024E-05-1.32349E-23
 -1       783-1.86349E-06 1.41681E-05 2.64698E-23
 -1       784-1.32065E-06 9.65542E-06-1.32349E-23
 -1       785-6.84139E-07 4.89041E-06 0.00000E+00
 -1       786 8.87253E-05 2.49295E-06 0.00000E+00
 -1       787 8.87841E-05 2.33552E-06 4.13590E-25
 -1       788 8.88428E-05 2.19007E-06 1.65436E-24
 -1       789 8.89020E-05 2.05451E-06 0.00000E+00
 -1       790 8.89613E-05 1.92813E-06-1.65436E-24
 -1       791 8.90208E-05 1.81020E-06 0.00000E+00
 -1       792 8.90802E-05 1.70120E-06 0.00000E+00
 -1       793 8.91397E-05 1.60159E-06 8.27181E-25
 -1       794 8.91992E-05 1.51316E-06-1.65436E-24
 -1       795 8.92586E-05 1.43769E-06 0.00000E+00
 -1       796 8.93181E-05 1.37877E-06 1.65436E-24
 -1       797 8.93776E-05 1.34002E-06-8.27181E-25
 -1       798 8.94370E-05 1.32782E-06 0.00000E+00
 -1       799 8.94963E-05 1.34863E-06 8.27181E-25
 -1       800 8.95556E-05 1.41344E-06-1.65436E-24
 -1       801 8.26653E-05 2.35484E-06 0.00000E+00
 -1       802 6.43769E-05 1.89033E-06-3.30872E-24
 -1       803 4.04837E-05 1.31930E-06 0.00000E+00
 -1       804 1.77417E-05 7.66733E-07 0.00000E+00
 -1       805 2.24589E-06 3.41232E-07-2.64698E-23
 -1       806 8.86563E-05 2.44781E-06 0.00000E+00
 -1       807 8.86374E-05 2.23710E-06-8.27181E-25
 -1       808 8.86140E-05 2.03685E-06-3.30872E-24
 -1       809 8.85849E-05 1.85078E-06 8.27181E-25
 -1       810 8.85490E-05 1.68262E-06 1.65436E-24
 -1       811 8.85050E-05 1.53601E-06 0.00000E+00
 -1       812 8.84515E-05 1.41460E-06-3.30872E-24
 -1       813 8.83872E-05 1.32202E-06-1.65436E-24
 -1       814 8.83107E-05 1.26191E-06 0.00000E+00
 -1       815 8.82207E-05 1.23790E-06-8.27181E-25
 -1       816 8.81158E-05 1.25361E-06-1.65436E-24
 -1       817 8.79947E-05 1.31266E-06 1.65436E-24
 -1       818 8.78560E-05 1.41869E-06 1.65436E-24
 -1       819 8.76984E-05 1.57528E-06-8.27181E-25
 -1       820 8.75208E-05 1.78606E-06 0.00000E+00
 -1       821 8.95243E-05 1.66270E-06 8.27181E-25
 -1       822 8.94289E-05 1.75674E-06 0.00000E+00
 -1       823 8.93339E-05 1.86722E-06 0.00000E+00
 -1       824 8.92378E-05 2.04583E-06 1.65436E-24
 -1       825 8.91416E-05 2.33072E-06-3.30872E-24
 -1       826 8.90452E-05 2.75956E-06 0.00000E+00
 -1       827 8.89487E-05 3.34142E-06 0.00000E+00
 -1       828 8.88520E-05 4.08471E-06-1.65436E-24
 -1       829 8.87552E-05 4.96578E-06 3.30872E-24
 -1       830 8.86584E-05 5.96037E-06-1.65436E-24
 -1       831 8.85615E-05 7.02167E-06 0.00000E+00
 -1       832 8.84649E-05 8.10259E-06 0.00000E+00
 -1       833 8.83683E-05 9.15211E-06 0.00000E+00
 -1       834 8.82728E-05 1.01194E-05-8.27181E-25
 -1       835 8.81771E-05 1.09699E-05 8.27181E-25
 -1       836 8.93771E-05 1.62013E-06-1.65436E-24
 -1       837 8.90302E-05 1.70882E-06 0.00000E+00
 -1       838 8.86122E-05 1.79734E-06 0.00000E+00
 -1       839 8.81624E-05 1.88529E-06 0.00000E+00
 -1       840 8.77196E-05 1.97311E-06-4.13590E-25
 -1       856 8.80614E-05 1.23492E-05 0.00000E+00
 -1       857 8.80326E-05 1.31332E-05 0.00000E+00
 -1       858 8.80039E-05 1.40052E-05 0.00000E+00
 -1       859 8.79745E-05 1.49485E-05 4.13590E-25
 -1       860 8.79451E-05 1.59467E-05 0.00000E+00
 -1       861 8.79156E-05 1.69831E-05 0.00000E+00
 -1       862 8.78860E-05 1.80410E-05 0.00000E+00
 -1       863 8.78564E-05 1.91038E-05 0.00000E+00
 -1       864 8.78268E-05 2.01548E-05-8.27181E-25
 -1       865 8.77972E-05 2.11772E-05-4.13590E-25
 -1       866 8.77677E-05 2.21545E-05 0.00000E+00
 -1       867 8.77382E-05 2.30700E-05 0.00000E+00
 -1       868 8.77087E-05 2.39071E-05 0.00000E+00
 -1       869 8.76793E-05 2.46495E-05 0.00000E+00
 -1       870 8.76499E-05 2.52808E-05 0.00000E+00
 -1       871 8.76060E-05 1.16685E-05 0.00000E+00
 -1       872 8.72265E-05 1.16655E-05 0.00000E+00
 -1       873 8.69047E-05 1.16620E-05 0.00000E+00
 -1       874 8.65961E-05 1.16581E-05-1.55096E-25
 -1       875 8.62563E-05 1.16537E-05 6.20385E-25
 -1       876 8.79241E-05 1.23581E-05 3.30872E-24
 -1       877 8.77441E-05 1.30976E-05 0.00000E+00
 -1       878 8.75475E-05 1.38817E-05-3.30872E-24
 -1       879 8.73365E-05 1.47048E-05-1.65436E-24
 -1       880 8.71131E-05 1.55610E-05 3.30872E-24
 -1       881 8.68794E-05 1.64447E-05 0.00000E+00
 -1       882 8.66375E-05 1.73501E-05 3.30872E-24
 -1       883 8.63896E-05 1.82716E-05 0.00000E+00
 -1       884 8.61378E-05 1.92034E-05 0.00000E+00
 -1       885 8.58843E-05 2.01400E-05 1.65436E-24
 -1       886 8.56310E-05 2.10755E-05 0.00000E+00
 -1       887 8.53803E-05 2.20043E-05-8.27181E-25
 -1       888 8.51340E-05 2.29206E-05-1.65436E-24
 -1       889 8.48941E-05 2.38187E-05 0.00000E+00
 -1       890 8.46627E-05 2.46929E-05 0.00000E+00
 -1       891 8.72032E-05 2.57431E-05 0.00000E+00
 -1       892 8.67681E-05 2.57014E-05 8.27181E-25
 -1       893 8.62946E-05 2.56597E-05 8.27181E-25
 -1       894 8.57620E-05 2.56181E-05 0.00000E+00
 -1       895 8.51499E-05 2.55765E-05 0.00000E+00
 -1       956 8.72319E-05 2.44107E-06-1.65436E-24
 -1       957 8.71396E-05 2.88671E-06 0.00000E+00
 -1       958 8.70469E-05 3.38521E-06-1.65436E-24
 -1       959 8.69541E-05 3.92994E-06-1.65436E-24
 -1       960 8.68612E-05 4.51428E-06-3.30872E-24
 -1       961 8.67683E-05 5.13155E-06 1.65436E-24
 -1       962 8.66753E-05 5.77507E-06 3.30872E-24
 -1       963 8.65823E-05 6.43818E-06-1.65436E-24
 -1       964 8.64893E-05 7.11418E-06 3.30872E-24
 -1       965 8.63963E-05 7.79640E-06 0.00000E+00
 -1       966 8.63033E-05 8.47816E-06 0.00000E+00
 -1       967 8.62104E-05 9.15277E-06 0.00000E+00
 -1       968 8.61175E-05 9.81355E-06 0.00000E+00
 -1       969 8.60247E-05 1.04538E-05-1.65436E-24
 -1       970 8.59323E-05 1.10670E-05-6.61744E-24
 -1       971 8.57546E-05 1.22443E-05-1.65436E-24
 -1       972 8.56669E-05 1.29192E-05 8.27181E-25
 -1       973 8.55789E-05 1.36628E-05-3.30872E-24
 -1       974 8.54908E-05 1.44661E-05-1.65436E-24
 -1       975 8.54027E-05 1.53204E-05-1.65436E-24
 -1       976 8.53144E-05 1.62168E-05 0.00000E+00
 -1       977 8.52262E-05 1.71463E-05 0.00000E+00
 -1       978 8.51379E-05 1.81001E-05 1.65436E-24
 -1       979 8.50496E-05 1.90692E-05 0.00000E+00
 -1       980 8.49613E-05 2.00449E-05-1.65436E-24
 -1       981 8.48730E-05 2.10180E-05-3.30872E-24
 -1       982 8.47849E-05 2.19799E-05 0.00000E+00
 -1       983 8.46968E-05 2.29215E-05 0.00000E+00
 -1       984 8.46091E-05 2.38339E-05 1.65436E-24
 -1       985 8.45219E-05 2.47084E-05 0.00000E+00
 -3
    1PSTEP                        10           5           1          
  100CL  105 5.03906E-01         409                     0    5           1
 -4  STRESS      6    1
 -5  SXX         1    4    1    1
 -5  SYY         1    4    2    2
 -5  SZZ         1    4    3    3
 -5  SXY         1    4    1    2
 -5  SYZ         1    4    2    3
 -5  SZX         1    4    3    1
 -1         1-1.94899E+06-8.55090E+05-4.06925E+05-1.14604E+06 5.34783E-10-2.77942E-09
 -1         2 2.64708E+03-6.51040E+03 8.65552E+03-2.39319E+01-1.19655E-10-1.45388E-09
 -1         3-1.47469E+02-8.66321E+05 2.04850E+02-4.01615E+02-1.42643E-10 1.40190E-08
 -1         5-4.11719E+00 2.63692E+05 6.88071E+00 1.16173E-01 8.09617E-11 4.26053E-09
 -1         8-9.26666E+05-3.63490E+05-6.67375E+04-5.64437E+05 3.92902E-10 3.56522E-09
 -1         9-1.77023E+06-5.22843E+05-2.03603E+05-5.56405E+05 4.04834E-09 7.08387E-09
 -1        10-7.37216E+02-9.02525E+05-1.21972E+03-2.71559E+03-4.19277E-09-1.30086E-08
 -1        12-1.29639E+00 2.63707E+05 2.22964E+02 9.69942E-01 8.60609E-11-1.21563E-08
 -1        15 1.99991E+03 1.09907E+03 6.46471E+03 4.29295E+00 3.94493E-11 6.44096E-09
 -1        16-3.21323E+06-1.25162E+06-5.15982E+05-1.30615E+06 1.10158E-08 3.31784E-09
 -1        17-1.06756E+06-6.25656E+05-2.08871E+05-5.61889E+05-5.43514E-09 4.22297E-09
 -1        18-4.51003E+04-1.57154E+04-3.14412E+04-6.55667E+04 1.98975E-09-4.11683E-09
 -1        19 8.30083E+04 9.81694E+04-5.32827E+02 1.62366E+04-4.78030E-10-1.75423E-09
 -1        20-3.66775E+04-3.92141E+05-8.66443E+04 2.77793E+04 2.96450E-09-2.06152E-10
 -1        21-3.65896E+01-2.24996E+05-7.24562E+02-6.79447E+01-8.77813E-09-1.60163E-08
 -1        24-3.22550E+06-9.05672E+05-4.08906E+05-1.18629E+06-3.02947E-08-1.35236E-08
 -1        25-8.16137E+03-1.78727E+05-2.33869E+04-1.14269E+05 3.03135E-10 1.40501E-08
 -1        26-2.18834E+04 6.61317E+04-1.41504E+04-8.25291E+03 1.60217E-09 8.23119E-09
 -1        27-6.15460E+04-2.14753E+05-8.03995E+04 4.84103E+04 5.54959E-09-1.42093E-09
 -1        28 1.73917E+04-6.23838E+04 1.27246E+04 1.95375E+04 1.72867E-09 3.69068E-09
 -1        32-9.19922E+05-5.50215E+05 2.62942E+05-5.58595E+05-2.02272E-08 6.82527E-09
 -1        33-1.23509E+05 6.28615E+04 2.23230E+04-3.49827E+04 9.16581E-10 2.47170E-09
 -1        34-1.59217E+05-1.59599E+04 3.84202E+02 4.93398E+04 2.42383E-09-5.98978E-09
 -1        35-1.76951E+04-2.47875E+04-9.73313E+02 3.91938E+04 5.30892E-09 5.97781E-09
 -1        51 1.72829E+04-3.62516E+05 4.33947E+04-9.52232E+05 8.73115E-11-9.31323E-09
 -1        52 1.00473E+04-3.60455E+05 2.80265E+04-1.11058E+06 1.30967E-10-1.22236E-08
 -1        53 7.02397E+03-3.73924E+05 2.28997E+04-9.48901E+05 5.38421E-10-8.73115E-09
 -1        54 1.97842E+04-3.72592E+05 3.55823E+04-1.11404E+06-5.67525E-10-1.26311E-08
 -1        55 3.90456E+04-3.86013E+05 6.28093E+04-9.48360E+05 4.94765E-10 4.26371E-09
 -1        56-3.73277E+06-4.18891E+05-2.99230E+05-1.44036E+06-1.36788E-09-1.10740E-08
 -1        57-3.85642E+06-6.86473E+05-2.01752E+05-1.42490E+06 2.15459E-09-7.20320E-10
 -1        58-3.79342E+06-5.13212E+05-7.03864E+04-1.42089E+06 4.56566E-10-3.60160E-10
 -1        59-3.78624E+06-5.75764E+05-4.20180E+04-1.44806E+06 1.06797E-09-5.63159E-09
 -1        60-3.80224E+06-5.26391E+05-1.64246E+04-1.41829E+06-3.57977E-09-7.62611E-09
 -1        61-3.77767E+06-5.58607E+05-9.31900E+03-1.44905E+06-2.15141E-09 3.31295E-09
 -1        62-3.80181E+06-5.29979E+05-4.47224E+03-1.41999E+06-1.47338E-10-2.90368E-09
 -1        63-3.78129E+06-5.51576E+05-3.59986E+03-1.44338E+06-9.59631E-10-5.14700E-09
 -1        64-3.79849E+06-5.33445E+05-4.11112E+03-1.42389E+06 1.10504E-10-3.67345E-09
 -1        65-3.78997E+06-5.45394E+05-8.11710E+03-1.43413E+06 5.83100E-10-1.51540E-08
 -1        66-3.79306E+06-5.36260E+05-1.43097E+04-1.42916E+06-1.28807E-10 1.96906E-09
 -1        67-3.80735E+06-5.50172E+05-3.62946E+04-1.42178E+06-3.89889E-10 7.99901E-10
 -1        68-3.78123E+06-5.29027E+05-6.09130E+04-1.43615E+06 1.55615E-09-5.09317E-10
 -1        69-3.87414E+06-6.40030E+05-1.74412E+05-1.39530E+06 1.31240E-09-5.13683E-09
 -1        70-3.72704E+06-4.49084E+05-2.58747E+05-1.45479E+06-1.14596E-09 1.25874E-08
 -1        86-1.33043E+03-9.38693E+03 9.23282E+03 1.19447E+01 1.15688E-09 3.40913E-09
 -1        87 8.80633E+03-3.53520E+03 1.93126E+04-3.66379E+01 1.92631E-09 2.53200E-09
 -1        88-7.47001E+03-1.23611E+04 2.95312E+04 2.46452E+01 2.80124E-09 5.97510E-09
 -1        89 5.56428E+04 1.81858E+04 7.96668E+04 3.53812E+01 4.30009E-09-1.30387E-08
 -1        90-4.80067E+04-3.10889E+04 1.12561E+05-5.95725E+01 4.51109E-09-7.57552E-09
 -1       121-2.22065E+02-8.66925E+05 1.35115E+02 2.00471E+02 5.22540E-10 2.46473E-09
 -1       122-7.85033E+01-8.66284E+05 4.39790E+02-8.02698E+02-1.84932E-09 6.67387E-09
 -1       123-2.66823E+02-8.66974E+05 6.49491E+02 6.00225E+02 1.32229E-09 1.55705E-09
 -1       124 7.36908E+02-8.65809E+05 1.82571E+03-1.76016E+03-3.41697E-09-3.39060E-09
 -1       125-7.85244E+02-8.67434E+05 2.73608E+03 1.15688E+03 2.23372E-09-1.62963E-08
 -1       191-4.55108E+00 2.63715E+05 8.26784E+00-5.85183E-02 1.17098E-10 2.85900E-09
 -1       192-4.74904E+00 2.63693E+05 1.45663E+01 5.90558E-01 1.55854E-10-7.71411E-09
 -1       193-6.23119E+00 2.63715E+05 2.71315E+01-5.35073E-01 1.83087E-10-3.80805E-09
 -1       194-6.78246E+00 2.63695E+05 5.50909E+01 1.42964E+00 1.25368E-10-7.13317E-09
 -1       195-9.46005E+00 2.63713E+05 1.07802E+02-9.03112E-01 2.66120E-10-1.15460E-08
 -1       251-4.53030E+05-1.95866E+04 4.54599E+04-1.27520E+03-3.27645E-10 3.72165E-09
 -1       252-4.30729E+05 2.26325E+04 3.25378E+04-4.90335E+03-2.24730E-10 6.19366E-10
 -1       253-4.45235E+05-3.05858E+03 1.16840E+04 1.11217E+03-9.90099E-10-8.28595E-09
 -1       254-4.40182E+05 3.50711E+03 7.63126E+03-9.25781E+03 4.21750E-10-2.40243E-09
 -1       255-4.43645E+05-4.83853E+02 3.01211E+03 3.07908E+03 7.95239E-11 7.21798E-10
 -1       256-4.42333E+05 5.82113E+02 1.97657E+03-1.23878E+04 7.59428E-10 2.24259E-09
 -1       257-4.43154E+05-9.26020E+01 1.05686E+03 4.24218E+03-2.97575E-10 1.66170E-09
 -1       258-4.42882E+05 2.52162E+02 1.09866E+03-1.37069E+04-1.51550E-09-5.80383E-09
 -1       259-4.43132E+05-1.28678E+02 1.41923E+03 4.39825E+03-9.30726E-10 1.60134E-09
 -1       260-4.42319E+05 9.14568E+02 2.96391E+03-1.29874E+04 9.35486E-10 4.95766E-09
 -1       261-4.43696E+05-7.67883E+02 4.87302E+03 3.52266E+03 8.22581E-10 8.33279E-09
 -1       262-4.39316E+05 5.68180E+03 1.21637E+04-1.03565E+04-8.19114E-10 4.07067E-09
 -1       263-4.46069E+05-4.92719E+03 1.90367E+04 1.76726E+03-6.81666E-10 2.03909E-09
 -1       264-4.24267E+05 3.66510E+04 5.25127E+04-6.34048E+03-2.39993E-09 2.16369E-09
 -1       265-4.58660E+05-3.16797E+04 7.38346E+04-4.93400E+02-2.79056E-09-2.41926E-09
 -1       266-3.62039E+04-1.69263E+04 8.49575E+04-9.18678E+01 2.91038E-11 4.31172E-09
 -1       267 4.19715E+04 1.97321E+04 6.00402E+04 1.05982E+02 8.45830E-11-4.81570E-09
 -1       268-5.62825E+03-2.79438E+03 2.23171E+04-1.35048E+01 6.63931E-11-1.87706E-09
 -1       269 6.64538E+03 3.34453E+03 1.45054E+04 1.57302E+01 4.66116E-11 2.98932E-10
 -1       270-9.97478E+02-5.49523E+02 7.00196E+03-2.13473E+00-9.23137E-11 1.35166E-08
 -1       271-3.47702E+06-4.35056E+05-2.65960E+05-1.35543E+06-7.63976E-11 2.38651E-09
 -1       272-3.56276E+06-6.38515E+05-1.70969E+05-1.36366E+06-3.48109E-10-1.60944E-08
 -1       273-3.52860E+06-4.99769E+05-6.28338E+04-1.34181E+06 2.48747E-10 1.84446E-09
 -1       274-3.50179E+06-5.59863E+05-3.51256E+04-1.38506E+06-1.83127E-09 1.72076E-08
 -1       275-3.53732E+06-5.04763E+05-1.46283E+04-1.33772E+06 7.44876E-10 8.77480E-09
 -1       276-3.49111E+06-5.54475E+05-7.74174E+03-1.39193E+06-2.79761E-09 1.02227E-08
 -1       277-3.53979E+06-5.03862E+05-3.79819E+03-1.33573E+06 9.17225E-10 9.84778E-09
 -1       278-3.48847E+06-5.55544E+05-2.74047E+03-1.39475E+06-5.62522E-10-3.21413E-09
 -1       279-3.54031E+06-5.03386E+05-2.92528E+03-1.33520E+06 5.18241E-10 5.62022E-09
 -1       280-3.48921E+06-5.55864E+05-5.36412E+03-1.39429E+06 7.88532E-10-4.59841E-09
 -1       281-3.53902E+06-5.03622E+05-9.79391E+03-1.33613E+06 9.95897E-10-2.63208E-09
 -1       282-3.49608E+06-5.59662E+05-2.34248E+04-1.38996E+06 1.93904E-09-4.99131E-09
 -1       283-3.53309E+06-5.00455E+05-4.18104E+04-1.33900E+06 2.16687E-09 3.18687E-09
 -1       284-3.53715E+06-6.11317E+05-1.13753E+05-1.37479E+06-1.43216E-09-2.32831E-09
 -1       285-3.49820E+06-4.58065E+05-1.77034E+05-1.34872E+06 1.46247E-09-6.62112E-10
 -1       301 1.76962E+04-3.51546E+04 1.32234E+05-7.37222E+04-8.40373E-10-5.63887E-10
 -1       302 1.88200E+04-1.70917E+03 9.08649E+04-1.08506E+05 1.48293E-09-1.01300E-08
 -1       303 1.03393E+03-2.25381E+04 7.65282E+04-7.38444E+04-7.38510E-10 8.08723E-09
 -1       304 2.79751E+04 7.10423E+03 1.21030E+05-1.08119E+05 8.40373E-10 1.23437E-08
 -1       305 2.73008E+04-4.33395E+04 1.98977E+05-7.40994E+04-4.43833E-10 8.60746E-09
 -1       306-4.73070E+06-5.45003E+05-3.56693E+05-1.84314E+06 2.16096E-09-5.45697E-09
 -1       307-4.89326E+06-8.62334E+05-2.42408E+05-1.79930E+06-2.44199E-09 4.00178E-11
 -1       308-4.82552E+06-6.41134E+05-8.40212E+04-1.79278E+06-7.53971E-10 4.02360E-09
 -1       309-4.77418E+06-7.61017E+05-5.05388E+04-1.87164E+06-2.39766E-10 5.13683E-09
 -1       310-4.84992E+06-6.43602E+05-1.95661E+04-1.77204E+06 1.47350E-09-1.35515E-09
 -1       311-4.74969E+06-7.54001E+05-1.13530E+04-1.89175E+06 6.55137E-09-5.82713E-09
 -1       312-4.85039E+06-6.47460E+05-5.62372E+03-1.77314E+06 4.96175E-09-1.30131E-08
 -1       313-4.76400E+06-7.33366E+05-4.62298E+03-1.87020E+06-3.18096E-09-4.70197E-09
 -1       314-4.83486E+06-6.64704E+05-6.58698E+03-1.79306E+06-2.62480E-09-7.06223E-09
 -1       315-4.80516E+06-6.94707E+05-1.21081E+04-1.82066E+06 1.30831E-09 3.38105E-09
 -1       316-4.80844E+06-6.86733E+05-2.29526E+04-1.82207E+06 1.99316E-09-2.94858E-09
 -1       317-4.86726E+06-6.71963E+05-5.76122E+04-1.76441E+06 5.55366E-09 1.07684E-09
 -1       318-4.77338E+06-6.87498E+05-9.58669E+04-1.84956E+06-1.12796E-08 9.55697E-09
 -1       319-4.99447E+06-8.03304E+05-2.78282E+05-1.70271E+06-7.21866E-09-1.42609E-09
 -1       320-4.68308E+06-5.57080E+05-4.07406E+05-1.88383E+06 1.01718E-08 4.27826E-09
 -1       336 5.42649E+02-9.38494E+05-5.20337E+03 1.55340E+03-8.68749E-09-2.41926E-10
 -1       337-1.91440E+03-9.39609E+05-5.76415E+03-3.88242E+03-1.63222E-08 1.10049E-10
 -1       338 3.66563E+02-9.38615E+05-7.50113E+03 2.31801E+03-1.13489E-08 7.26504E-09
 -1       339-7.77474E+03-9.43306E+05-1.64281E+04-5.38500E+03-2.10257E-08 4.37194E-09
 -1       340 5.19419E+03-9.34944E+05-2.54326E+04 3.04400E+03-1.37998E-08 1.25528E-08
 -1       406 1.57749E+01 2.63703E+05 4.40228E+02-7.94166E-02 4.06686E-10 2.12549E-09
 -1       407 1.52174E+02 2.63784E+05 9.35544E+02-6.31847E+00 9.96465E-11 2.30011E-09
 -1       408 4.80308E+02 2.63635E+05 1.86852E+03 6.53444E+00 4.84988E-10 3.37332E-09
 -1       409 2.01908E+03 2.64381E+05 4.20648E+03-6.35362E+01-9.22000E-11 1.74241E-08
 -1       410 5.80348E+03 2.63104E+05 8.58739E+03 5.95442E+01 5.18412E-10 1.39844E-08
 -1       521-7.80675E+06-7.58580E+05-6.72469E+05-2.62920E+06-3.08864E-09 7.71252E-09
 -1       522-6.37750E+06-1.92451E+06-2.84353E+05-3.59809E+06-6.53581E-08-2.08966E-08
 -1       523-7.96709E+06-5.12388E+05-1.44114E+05-2.10671E+06-6.02449E-09-3.50265E-08
 -1       524-6.39522E+06-2.03068E+06-5.63107E+04-4.27686E+06 7.19267E-08-5.76656E-08
 -1       525-7.97657E+06-5.10937E+05-3.49588E+04-2.07164E+06 4.74647E-08-4.48099E-08
 -1       526-6.25411E+06-1.76296E+06 5.71635E+04-3.75867E+06 2.25409E-08-3.85844E-08
 -1       527-7.94925E+06-8.95369E+05-1.11365E+05-2.52525E+06 8.35280E-09-7.76708E-09
 -1       528-6.54737E+06-1.01152E+06 1.33838E+05-2.59423E+06-1.91576E-08 1.64873E-08
 -1       529-7.50229E+06-1.39000E+06-1.24528E+05-3.09169E+06 5.55883E-09-6.35191E-09
 -1       530-7.79090E+06-1.15249E+05 7.39176E+04-1.80546E+06-6.81612E-08 6.46687E-08
 -1       531-6.85523E+06-1.68251E+06-4.80422E+04-3.40887E+06-8.37827E-08 8.02902E-09
 -1       532-8.72661E+06 3.07774E+05-5.31020E+04-1.61063E+06 3.20538E-08-6.45869E-08
 -1       533-6.74659E+06-1.68909E+06-1.27347E+05-3.44358E+06 3.56522E-09-1.06465E-07
 -1       534-8.23325E+06-1.66827E+05-2.88838E+05-1.68196E+06-3.08937E-08 8.06303E-08
 -1       535-7.22909E+06-1.29477E+06-6.40586E+05-3.22807E+06-8.90577E-09 5.36384E-08
 -1       536-3.19993E+05-1.37615E+04 3.09779E+04-6.38527E+03-1.47602E-09 1.16324E-08
 -1       537-3.03652E+05 1.59105E+04 2.24336E+04 1.29004E+04-2.15981E-08 9.69885E-09
 -1       538-3.13321E+05-2.06256E+03 8.09332E+03-7.25804E+03 3.53550E-09 1.49466E-08
 -1       539-3.07887E+05 2.54646E+03 5.68922E+03 1.14725E+04 2.20061E-08 2.13766E-08
 -1       540-3.15709E+05-4.45958E+02 1.36918E+03-4.95666E+03 5.11739E-09 1.63094E-08
 -1       541-3.02870E+05 6.71744E+02 2.95459E+03 4.69629E+03-6.83508E-09 1.68491E-08
 -1       542-3.18185E+05-3.16393E+02-8.20893E+02-4.80828E+02 6.70872E-09 7.17554E-09
 -1       543-3.02675E+05 2.86763E+02 1.87104E+03-4.36961E+03 3.78589E-09-8.97616E-09
 -1       544-3.15898E+05-7.20784E+01-1.20148E+03 4.10783E+03-3.68209E-09-1.08550E-08
 -1       545-3.08774E+05-3.87168E+02-5.87783E+02-1.15406E+04-3.44696E-09-1.23556E-08
 -1       546-3.12237E+05 4.81036E+02-2.36399E+03 6.69042E+03 1.24372E-09-1.38338E-08
 -1       547-3.12594E+05-2.84760E+03-5.65265E+03-1.35730E+04-1.09272E-08-1.54416E-08
 -1       548-3.12145E+05 2.44489E+03-9.54463E+03 6.14099E+03-1.38882E-08-1.31922E-08
 -1       549-3.14646E+05-1.75544E+04-2.42668E+04-9.53115E+03-7.18457E-09-5.21732E-09
 -1       550-3.10065E+05 1.50737E+04-3.71740E+04 2.64739E+03 9.79981E-10-1.18234E-10
 -1       551 1.22566E+04-4.85789E+05 2.25451E+04-8.12997E+05-3.82279E-08-7.88714E-09
 -1       552 2.77079E+04-4.92500E+05 2.97462E+04-1.15756E+06-2.86309E-08 1.09649E-08
 -1       553 1.94221E+04-4.98210E+05 4.49523E+04-8.10062E+05-4.61441E-08 7.37782E-09
 -1       554 5.21446E+04-4.84277E+05 9.49212E+04-1.15881E+06-2.90238E-08 6.38056E-09
 -1       555 4.70457E+04-5.16558E+05 1.69559E+05-8.10878E+05-4.70463E-08-2.52112E-09
 -1       556 8.22749E+04-1.55733E+05 5.28815E+04-1.99959E+05-9.69158E-09-8.07631E-09
 -1       557 1.45683E+05-2.07636E+05 2.78876E+04-2.51191E+05-1.71713E-09 8.11178E-09
 -1       558 8.14388E+04-1.62443E+05 1.11082E+04-1.94227E+05 1.89175E-09 6.76300E-09
 -1       559 1.36256E+05-2.14622E+05 5.69255E+03-2.55566E+05 2.17406E-08 1.32004E-08
 -1       560 7.90284E+04-1.60864E+05 2.25724E+03-1.95792E+05 2.56114E-09 1.83718E-10
 -1       561 1.32676E+05-2.13594E+05 1.23979E+03-2.57843E+05-6.37010E-09 8.61428E-09
 -1       562 7.71039E+04-1.59595E+05 4.25140E+02-1.97176E+05-7.85803E-10 8.49468E-10
 -1       563 1.30417E+05-2.12618E+05 3.02621E+02-2.59289E+05 7.76708E-09-3.23712E-09
 -1       564 7.58764E+04-1.58810E+05 9.85029E+01-1.98046E+05 4.47471E-09-3.94539E-09
 -1       565 1.29188E+05-2.12089E+05 8.90319E+01-2.60063E+05-7.89623E-09 1.79534E-09
 -1       566 7.53828E+04-1.58488E+05 8.38492E+00-1.98399E+05-7.46422E-09-6.82667E-09
 -1       567 1.28948E+05-2.11974E+05-6.26862E+01-2.60145E+05 6.31996E-09-8.53470E-09
 -1       568 7.56581E+04-1.58670E+05-2.61256E+02-1.98275E+05 2.10275E-09 1.13632E-08
 -1       569 1.29015E+05-2.11835E+05-6.17074E+02-2.58897E+05-2.70757E-09-4.51109E-10
 -1       570 7.72691E+04-1.60038E+05-1.41098E+03-1.98183E+05 2.41562E-09 2.18279E-10
 -1       571 1.92936E+05 7.06452E+03 1.04518E+04-4.98299E+04 8.94943E-10-1.42559E-08
 -1       572 1.94488E+05 2.46659E+03 5.12083E+03-5.46288E+04-1.63800E-09-4.10500E-09
 -1       573 1.93557E+05 5.97612E+02 2.27491E+03-4.97038E+04 1.34605E-10 4.13820E-09
 -1       574 1.93739E+05 2.05388E+02 1.13988E+03-5.47707E+04 6.86441E-10 5.82259E-09
 -1       575 1.93625E+05 4.02089E+01 5.37305E+02-4.96871E+04-4.81123E-10 8.12179E-09
 -1       576 1.93636E+05 2.29984E+01 2.73681E+02-5.47896E+04-1.67120E-11 9.19908E-09
 -1       577 1.93636E+05 9.93672E+00 1.35070E+02-4.96849E+04 1.47202E-09-3.23462E-09
 -1       578 1.93628E+05 1.28279E+01 7.42136E+01-5.47919E+04 1.10640E-09 5.82895E-09
 -1       579 1.93650E+05 6.43878E+00 4.62723E+01-4.96849E+04 7.77163E-10-5.70390E-09
 -1       580 1.93647E+05 4.95147E+00 4.48267E+01-5.47890E+04-7.05313E-10 1.08457E-09
 -1       581 1.93674E+05-2.97017E+00 6.22882E+01-4.96878E+04 3.41970E-10 2.90675E-09
 -1       582 1.93691E+05 6.31342E+00 1.20141E+02-5.47591E+04-1.01636E-09 2.05409E-09
 -1       583 1.93703E+05 3.33300E+01 2.30791E+02-4.97148E+04 7.44876E-10-6.68092E-09
 -1       584 1.93812E+05 2.13379E+02 5.18171E+02-5.45337E+04-8.10360E-10-3.67993E-09
 -1       585 1.93682E+05 6.68401E+02 1.05200E+03-4.99136E+04-4.21096E-10-4.90400E-09
 -1       586-2.26989E+03 6.38866E+04-2.94508E+03-1.70960E+05 5.54792E-11-9.67452E-09
 -1       587-4.77912E+02 6.34989E+04-2.20133E+02-1.88141E+05 5.08408E-10-7.73400E-09
 -1       588 6.74667E+02 6.35609E+04 2.35906E+03-1.70862E+05 2.80124E-10 4.20914E-09
 -1       589 3.38541E+03 6.48445E+04 6.72099E+03-1.87972E+05 1.62800E-10-7.22139E-10
 -1       590 9.76578E+03 6.27826E+04 1.43360E+04-1.71133E+05-2.53749E-10 1.24592E-08
 -1       591-4.31075E+04-1.15913E+04-1.39781E+04-2.17068E+04-1.99861E-09-3.74075E-09
 -1       592-4.45853E+04-1.51535E+04-7.60902E+03-2.51795E+04-4.88626E-10 1.81183E-09
 -1       593-4.45600E+04-1.07325E+04-3.16066E+03-2.26630E+04 1.68916E-09 5.20640E-09
 -1       594-4.26139E+04-1.30748E+04-1.57874E+03-2.52816E+04 5.02484E-09 1.40731E-08
 -1       595-4.46712E+04-1.07334E+04-7.24754E+02-2.27084E+04-4.43089E-09 8.35138E-09
 -1       596-4.24790E+04-1.29769E+04-3.69552E+02-2.52684E+04-9.96499E-09 7.15954E-09
 -1       597-4.46851E+04-1.07423E+04-2.03330E+02-2.27104E+04-8.70768E-09 3.45045E-09
 -1       598-4.24661E+04-1.29729E+04-1.67435E+02-2.52646E+04 5.37170E-10 5.10335E-09
 -1       599-4.46840E+04-1.07424E+04-2.18840E+02-2.27100E+04 1.50180E-09 6.31417E-09
 -1       600-4.24804E+04-1.29781E+04-4.10649E+02-2.52678E+04-2.25509E-09 5.84714E-09
 -1       601-4.46666E+04-1.07329E+04-8.11958E+02-2.27071E+04 2.91038E-11 3.68675E-09
 -1       602-4.26317E+04-1.30879E+04-1.77250E+03-2.52807E+04-6.41194E-10 5.16138E-11
 -1       603-4.45402E+04-1.07337E+04-3.54987E+03-2.26563E+04 6.36419E-10-3.78532E-09
 -1       604-4.48530E+04-1.54143E+04-8.54625E+03-2.51551E+04-1.01966E-09-7.41761E-09
 -1       605-4.28992E+04-1.17055E+04-1.56997E+04-2.15903E+04-7.91601E-10 7.40420E-09
 -1       606 2.65505E+04-9.28388E+03-1.67092E+04 2.58349E+04 8.45921E-09-1.03682E-09
 -1       607 2.36892E+04-2.99831E+03-8.32019E+03 2.90022E+04 2.13013E-08 6.89965E-09
 -1       608 2.53116E+04-5.09021E+02-3.72603E+03 2.56297E+04 1.31095E-08 6.39375E-10
 -1       609 2.49884E+04-1.35218E+02-1.88187E+03 2.92296E+04-1.13687E-09 1.59503E-09
 -1       610 2.51606E+04 2.08034E+01-8.98986E+02 2.56067E+04-3.98541E-09 5.16025E-09
 -1       611 2.50994E+04 3.32718E+01-4.53362E+02 2.92544E+04-7.54153E-09-1.18393E-09
 -1       612 2.51197E+04 3.61884E+01-2.16923E+02 2.56044E+04-4.37194E-09-1.14187E-09
 -1       613 2.50962E+04 4.19410E+01-9.86918E+01 2.92573E+04-4.78758E-09 4.91582E-10
 -1       614 2.50970E+04 3.73361E+01-2.72293E+01 2.56036E+04-1.61890E-10 7.81552E-09
 -1       615 2.50842E+04 4.76019E+01 3.17348E+01 2.92578E+04 5.53882E-09 8.19114E-09
 -1       616 2.50798E+04 4.32050E+01 1.03990E+02 2.56039E+04-2.64299E-09-1.38857E-09
 -1       617 2.50902E+04 7.38380E+01 2.40865E+02 2.92572E+04 5.98448E-10-3.70505E-09
 -1       618 2.50540E+04 1.15769E+02 4.86733E+02 2.56040E+04 7.93989E-10-2.24213E-09
 -1       619 2.52581E+04 4.52789E+02 1.09390E+03 2.92565E+04-6.70866E-10 3.98859E-09
 -1       620 2.48898E+04 1.27251E+03 2.19889E+03 2.56029E+04 1.86697E-09-4.97903E-09
 -1       621 3.04296E+02 2.06641E+05 2.67912E+03 8.98885E+03-2.16119E-10 1.16984E-09
 -1       622 3.52114E+02 2.07304E+05 2.31806E+03 1.31147E+04-3.35945E-10-3.95323E-09
 -1       623 1.50587E+01 2.06825E+05 2.72321E+03 8.94786E+03-1.87313E-10-3.06727E-10
 -1       624 1.24755E+03 2.08122E+05 5.22128E+03 1.31539E+04-1.10703E-10-3.36263E-09
 -1       625 1.25360E+03 2.05814E+05 9.10055E+03 8.94976E+03 3.27418E-11 9.58664E-10
 -1       626 1.73244E+05 4.74020E+04 3.50380E+03 9.28273E+04 8.56289E-10 9.53696E-09
 -1       627 1.70954E+05 4.90599E+04 1.68840E+03 9.65390E+04-4.10773E-09-8.95682E-09
 -1       628 1.73369E+05 4.57514E+04 7.13120E+02 9.33632E+04-1.03646E-08-2.93699E-09
 -1       629 1.70454E+05 4.86539E+04 3.49509E+02 9.67596E+04-1.78588E-08 6.45571E-09
 -1       630 1.73376E+05 4.56739E+04 1.61550E+02 9.33776E+04-9.18135E-09 1.12675E-09
 -1       631 1.70393E+05 4.86446E+04 8.68316E+01 9.67605E+04 1.34787E-09 5.50840E-09
 -1       632 1.73367E+05 4.56805E+04 5.70703E+01 9.33697E+04-5.87625E-09-9.34529E-09
 -1       633 1.70380E+05 4.86498E+04 6.34830E+01 9.67533E+04-2.17369E-09 2.69819E-09
 -1       634 1.73357E+05 4.56815E+04 1.02457E+02 9.33652E+04 2.62980E-09 7.28733E-09
 -1       635 1.70384E+05 4.86514E+04 2.07562E+02 9.67527E+04 1.35242E-09 7.27937E-09
 -1       636 1.73346E+05 4.56807E+04 4.19116E+02 9.33621E+04-1.36538E-09 6.69388E-10
 -1       637 1.70470E+05 4.87181E+04 9.21112E+02 9.67486E+04 5.83968E-09 8.58336E-09
 -1       638 1.73310E+05 4.58859E+04 1.89297E+03 9.32676E+04 1.52784E-09 8.78026E-09
 -1       639 1.71461E+05 5.01024E+04 4.47821E+03 9.64543E+04-1.48248E-09 3.33421E-09
 -1       640 1.73177E+05 5.00083E+04 9.29334E+03 9.15179E+04-1.79466E-09 1.25192E-09
 -1       656 4.66588E+04-1.18200E+06-1.12634E+05-3.84027E+02 3.41970E-10-9.84463E-09
 -1       657-6.16620E+04-1.23284E+06-9.31642E+04 7.35918E+03 1.61890E-09-6.11612E-09
 -1       658 1.48028E+04-1.19649E+06-5.71903E+04-1.54754E+03 1.12550E-11-2.42159E-09
 -1       659-6.61690E+04-1.23498E+06-9.90840E+04 8.14941E+03-8.69477E-10-1.23520E-08
 -1       660 5.11551E+04-1.17987E+06-1.22816E+05-1.17424E+03 7.93079E-10 2.21671E-09
 -1       661 1.62114E+05 1.76190E+04 1.56480E+04 6.33709E+04 2.96768E-09 3.23689E-09
 -1       662 1.70325E+05 2.98326E+04 1.05442E+04 6.05824E+04 5.86675E-09-2.41994E-09
 -1       663 1.65182E+05 2.26435E+04 3.68841E+03 6.24848E+04 1.97360E-10 4.64615E-09
 -1       664 1.66774E+05 2.39515E+04 2.20529E+03 6.16602E+04-1.30999E-09-1.53659E-09
 -1       665 1.65642E+05 2.33349E+04 8.69917E+02 6.23555E+04-2.82159E-09 4.91929E-09
 -1       666 1.66234E+05 2.31568E+04 5.07430E+02 6.18261E+04-6.46162E-09 5.59197E-09
 -1       667 1.65719E+05 2.34174E+04 2.67668E+02 6.23267E+04-2.28980E-09-4.34724E-09
 -1       668 1.66152E+05 2.30920E+04 2.68478E+02 6.18675E+04 2.18665E-09-1.00542E-09
 -1       669 1.65724E+05 2.33977E+04 3.59988E+02 6.23147E+04 1.38668E-09 2.14195E-09
 -1       670 1.66242E+05 2.32827E+04 7.80613E+02 6.18670E+04 4.81191E-09-3.75360E-09
 -1       671 1.65629E+05 2.32306E+04 1.38495E+03 6.23256E+04 6.68074E-10 2.17500E-09
 -1       672 1.67050E+05 2.46291E+04 3.54249E+03 6.16713E+04-5.74229E-09-4.35989E-09
 -1       673 1.64921E+05 2.20852E+04 5.93632E+03 6.24975E+04-2.43676E-09-4.62478E-10
 -1       674 1.72702E+05 3.41640E+04 1.69766E+04 6.00088E+04 3.81988E-10-4.53883E-09
 -1       675 1.60013E+05 1.39623E+04 2.51987E+04 6.38876E+04 2.06046E-09-1.21872E-10
 -1       676 1.88077E+01-2.24936E+05-8.73283E+02 3.39732E+01-5.53769E-10 3.88225E-10
 -1       677-2.31817E+02-2.25147E+05-1.59821E+03-6.79120E+01-2.88259E-09 6.80700E-10
 -1       678 1.54811E+02-2.24785E+05-2.82521E+03 3.39154E+01-7.15318E-10 3.15090E-10
 -1       679-2.82583E+03-2.26852E+05-6.71129E+03-6.76882E+01-3.09319E-09 5.06223E-09
 -1       680 1.68648E+03-2.23231E+05-1.08164E+04 3.33618E+01-9.50422E-10-5.07305E-09
 -1       771-2.40608E+06-4.43677E+05-6.31965E+04-1.02261E+06-1.19762E-08-9.34233E-09
 -1       772-2.38412E+06-4.81077E+05-3.36387E+04-1.06466E+06-7.97445E-09 5.55519E-09
 -1       773-2.41571E+06-4.36126E+05-1.50210E+04-1.02617E+06-3.23053E-09 5.19503E-09
 -1       774-2.37571E+06-4.74084E+05-7.17481E+03-1.07014E+06 1.09358E-08-7.05768E-10
 -1       775-2.41870E+06-4.34073E+05-3.98489E+03-1.02668E+06 1.89175E-09-3.89264E-10
 -1       776-2.37623E+06-4.74132E+05-1.73773E+03-1.07350E+06 7.95262E-09 3.43243E-09
 -1       777-2.42097E+06-4.32398E+05-1.30766E+03-1.02708E+06 5.12227E-09-9.09495E-11
 -1       778-2.37724E+06-4.74349E+05-4.95636E+02-1.07633E+06 1.36060E-09 4.09636E-09
 -1       779-2.42283E+06-4.30973E+05-5.90020E+02-1.02743E+06-8.35280E-09-8.13998E-09
 -1       780-2.37818E+06-4.74513E+05-2.92646E+02-1.07861E+06-1.14233E-09-3.86535E-10
 -1       781-2.42426E+06-4.29840E+05-5.39467E+02-1.02770E+06-3.91447E-09 3.24144E-09
 -1       782-2.37897E+06-4.74654E+05-7.56414E+02-1.08029E+06-1.12268E-08-3.66686E-09
 -1       783-2.42519E+06-4.29083E+05-1.52912E+03-1.02787E+06-2.23736E-09-5.17809E-09
 -1       784-2.38032E+06-4.75654E+05-3.52198E+03-1.08127E+06-6.44195E-09-1.79170E-10
 -1       785-2.42504E+06-4.29168E+05-6.53367E+03-1.02750E+06-1.37061E-08 2.06637E-09
 -1       786 1.65946E+05-9.23089E+03 2.13559E+04-3.80972E+01 5.56191E-06 2.52221E-08
 -1       787 1.75200E+05 1.06865E+04 1.51087E+04 6.85005E+00 1.10803E-05 2.69611E-08
 -1       788 1.69516E+05-1.44704E+03 5.52724E+03-2.77639E+01 1.02962E-05-9.77525E-09
 -1       789 1.71041E+05 1.67429E+03 3.47251E+03-1.08606E+01 9.48853E-06 1.01222E-08
 -1       790 1.70105E+05-2.26018E+02 1.41228E+03-2.03878E+01 9.00796E-06-2.06426E-08
 -1       791 1.70354E+05 2.62404E+02 8.27873E+02-2.53218E+01 8.51973E-06 1.13189E-08
 -1       792 1.70204E+05-3.62230E+01 3.75237E+02-1.33026E+01 4.26316E-06-1.55290E-08
 -1       793 1.70242E+05 4.96063E+01 2.40587E+02-4.12694E+01 1.30857E-08-1.71281E-08
 -1       794 1.70217E+05-1.33595E+01 1.70108E+02-4.43990E+00 1.01950E-09-1.00386E-08
 -1       795 1.70248E+05 6.58355E+01 2.34345E+02-6.32599E+01-6.33734E-10 1.20853E-09
 -1       796 1.70198E+05-5.24370E+01 3.43935E+02 8.68833E+00 1.11029E-09 8.84611E-10
 -1       797 1.70402E+05 3.83694E+02 8.05108E+02-9.74556E+01-4.69508E-10-6.92880E-09
 -1       798 1.70063E+05-3.30986E+02 1.26890E+03 2.97564E+01 2.88059E-10 1.24639E-08
 -1       799 1.71354E+05 2.44380E+03 3.45765E+03-1.53657E+02-3.14380E-10 1.48998E-08
 -1       800 1.69246E+05-2.11089E+03 4.88352E+03 6.48902E+01-3.59872E-11 1.54091E-09
 -1       801 1.98938E+04-9.13293E+05-7.62979E+04 2.47921E+04 1.23400E-08-3.65799E-09
 -1       802-1.51711E+04-7.91403E+05-7.54511E+03-7.16568E+04 3.31602E-08-7.93665E-09
 -1       803-4.23570E+03-8.53321E+05 2.67842E+04 4.64818E+04 2.63390E-08 2.06339E-08
 -1       804 8.74446E+04-7.31639E+05 1.27675E+05-6.62992E+04 3.01970E-08 2.66870E-08
 -1       805-8.30363E+04-9.72536E+05 1.49306E+05 1.94289E+04 1.10304E-08 2.19504E-08
 -1       806-2.10419E+05-4.37944E+04-1.73228E+04-8.62869E+04-5.16138E-10 5.08680E-09
 -1       807-2.11559E+05-4.11928E+04-8.51035E+03-9.07415E+04 2.32944E-09-1.23518E-09
 -1       808-2.10903E+05-3.75434E+04-3.61011E+03-8.92324E+04 5.17048E-09 1.08923E-09
 -1       809-2.09750E+05-3.88218E+04-1.76497E+03-9.09766E+04 1.13164E-08 1.02792E-08
 -1       810-2.10978E+05-3.73236E+04-8.08276E+02-8.93624E+04 4.98881E-09-4.54725E-09
 -1       811-2.09611E+05-3.87277E+04-4.01048E+02-9.09542E+04-1.14869E-09 5.50767E-09
 -1       812-2.10991E+05-3.73406E+04-2.00595E+02-8.93620E+04-2.29056E-09-3.87172E-09
 -1       813-2.09593E+05-3.87300E+04-1.27170E+02-9.09425E+04 8.59700E-10-5.79234E-09
 -1       814-2.10988E+05-3.73470E+04-1.20415E+02-8.93591E+04 4.41105E-10-9.65770E-09
 -1       815-2.09595E+05-3.87320E+04-1.89422E+02-9.09388E+04 8.06494E-10 7.82893E-09
 -1       816-2.10975E+05-3.73459E+04-3.55641E+02-8.93566E+04 4.45652E-10 6.32190E-09
 -1       817-2.09655E+05-3.87661E+04-7.62551E+02-9.09319E+04 1.74487E-09-3.39242E-09
 -1       818-2.10929E+05-3.74531E+04-1.55432E+03-8.93058E+04 2.23554E-09 1.25328E-09
 -1       819-2.10511E+05-3.97005E+04-3.65791E+03-9.07257E+04 4.35648E-10 3.37423E-09
 -1       820-2.10635E+05-4.02172E+04-7.44464E+03-8.81250E+04-5.06589E-10 7.83075E-10
 -1       821-2.68911E+05 1.49377E+04-3.45458E+04 1.48459E+02 1.78196E-10-2.72485E-09
 -1       822-2.83882E+05-1.72930E+04-2.44462E+04-7.44039E+02-1.61229E-09 1.00626E-08
 -1       823-2.74689E+05 2.34197E+03-8.94736E+03 1.28923E+02 5.05755E-10 2.09639E-10
 -1       824-2.77143E+05-2.71063E+03-5.62930E+03-5.88112E+02-1.41064E-10-1.09685E-09
 -1       825-2.75649E+05 3.66455E+02-2.31446E+03-7.47096E+00-1.85919E-09 5.77143E-09
 -1       826-2.76024E+05-4.32081E+02-1.39549E+03-2.55366E+02-4.41059E-09 8.12554E-09
 -1       827-2.75807E+05 6.48544E+01-7.24023E+02-2.03830E+02-3.32691E-09 2.47780E-10
 -1       828-2.75873E+05-1.31683E+02-6.37958E+02 1.17856E+02-4.28625E-09-1.32831E-09
 -1       829-2.75799E+05 6.63378E+01-7.34359E+02-3.80699E+02 2.90354E-10 5.61920E-09
 -1       830-2.76048E+05-4.43168E+02-1.43265E+03 3.80464E+02 2.14932E-09 9.96113E-09
 -1       831-2.75633E+05 3.76395E+02-2.37315E+03-4.66443E+02-2.13934E-09 6.50198E-09
 -1       832-2.77189E+05-2.78317E+03-5.78283E+03 4.26692E+02-7.78081E-10-3.20085E-09
 -1       833-2.74658E+05 2.40472E+03-9.18972E+03-4.26926E+02-1.43889E-09-1.37788E-10
 -1       834-2.84090E+05-1.77599E+04-2.51064E+04 2.39479E+02-1.10034E-09 1.18871E-08
 -1       835-2.68734E+05 1.53413E+04-3.54847E+04-2.79220E+02 5.61737E-09 8.25821E-10
 -1       836-8.93618E+02 2.54049E+05 1.52397E+04-2.05732E+04 1.19053E-09 7.68523E-09
 -1       837 3.35021E+03 2.58771E+05 1.30384E+04-4.13234E+04 1.94950E-09-3.81988E-11
 -1       838-3.31626E+02 2.55356E+05 1.34830E+04-2.05025E+04 1.65710E-09 5.72493E-09
 -1       839 8.66475E+03 2.62733E+05 2.57007E+04-4.13511E+04 2.31330E-09 7.93261E-09
 -1       840-2.60828E+03 2.50051E+05 4.10654E+04-2.05441E+04 1.80262E-09-4.81259E-09
 -1       856-7.96154E+04 7.06967E+03-1.86306E+04-4.14531E+02-2.53482E-09 6.94126E-09
 -1       857-8.73105E+04-8.29197E+03-1.28266E+04 4.29100E+03-2.69600E-09-1.13050E-09
 -1       858-8.26558E+04 9.90568E+02-4.83512E+03-4.34210E+02-3.11553E-09 5.47243E-09
 -1       859-8.38190E+04-1.15180E+03-2.92009E+03 4.32235E+03 2.98698E-10 7.66198E-09
 -1       860-8.31104E+04 1.37756E+02-1.22757E+03-4.46004E+02 1.31431E-09 7.36725E-09
 -1       861-8.32955E+04-1.52115E+02-6.83246E+02 4.33849E+03-5.57668E-09 6.05938E-09
 -1       862-8.31811E+04 1.82177E+01-2.99935E+02-4.50380E+02 3.56441E-09 3.49959E-09
 -1       863-8.32117E+04-1.07310E+01-1.45393E+02 4.34047E+03 1.02919E-08-4.36656E-09
 -1       864-8.31945E+04-5.13008E-01-3.97401E+01-4.47992E+02 4.96568E-09 2.16982E-09
 -1       865-8.31852E+04 2.47129E+01 4.38343E+01 4.32841E+03 6.10812E-09-7.32130E-09
 -1       866-8.32062E+04-1.76505E+01 1.30088E+02-4.38317E+02 2.23395E-11-3.13761E-09
 -1       867-8.31128E+04 1.47676E+02 3.47077E+02 4.30214E+03-7.23929E-10 2.06444E-09
 -1       868-8.32638E+04-1.22485E+02 5.83116E+02-4.21723E+02 2.76799E-09-2.59519E-09
 -1       869-8.26770E+04 1.01641E+03 1.56266E+03 4.25869E+03-4.52266E-09-7.10102E-09
 -1       870-8.36372E+04-8.64582E+02 2.26630E+03-3.94868E+02 2.03295E-09-1.15006E-09
 -1       871-3.97040E+03-8.63388E+03-1.29034E+04 8.48275E+04 2.53385E-09 1.22873E-09
 -1       872-1.72064E+03-1.15258E+04-5.26654E+03 1.09974E+05 3.88491E-09-5.42695E-09
 -1       873-3.54650E+01-1.01753E+04 7.34070E+02 8.46410E+04 1.63755E-09 5.74948E-09
 -1       874 1.97815E+03-8.30909E+03 7.27871E+03 1.10012E+05 3.33785E-09 8.37736E-09
 -1       875 4.67802E+03-1.19023E+04 1.61530E+04 8.47970E+04 2.01817E-09-7.52152E-10
 -1       876 2.10069E+05 3.61695E+04 1.12096E+04 8.51976E+04-4.62262E-09-1.94086E-08
 -1       877 2.10713E+05 3.86270E+04 5.98617E+03 8.85091E+04-5.39512E-09-5.01257E-09
 -1       878 2.11116E+05 3.49289E+04 2.50792E+03 8.61181E+04 9.77934E-10 3.30147E-10
 -1       879 2.09188E+05 3.71084E+04 1.24934E+03 8.85883E+04-1.48214E-09 4.23125E-09
 -1       880 2.11193E+05 3.49152E+04 5.81656E+02 8.61556E+04 3.63343E-10 5.33203E-09
 -1       881 2.09087E+05 3.70439E+04 3.09855E+02 8.85723E+04 4.32829E-09 1.34184E-08
 -1       882 2.11200E+05 3.49244E+04 1.96927E+02 8.61566E+04 1.69473E-09 6.94499E-09
 -1       883 2.09079E+05 3.70408E+04 2.09604E+02 8.85677E+04-7.50583E-09 2.50805E-09
 -1       884 2.11196E+05 3.49221E+04 3.31525E+02 8.61568E+04-6.15569E-09 4.68447E-10
 -1       885 2.09106E+05 3.70455E+04 6.65361E+02 8.85760E+04 3.48446E-09 4.90886E-09
 -1       886 2.11170E+05 3.49026E+04 1.34045E+03 8.61542E+04 5.07612E-09 7.65272E-09
 -1       887 2.09341E+05 3.71999E+04 2.92784E+03 8.86099E+04-2.90970E-09 2.22599E-09
 -1       888 2.10985E+05 3.49352E+04 5.89964E+03 8.60604E+04-2.95404E-09-5.51609E-09
 -1       889 2.12857E+05 4.08498E+04 1.40938E+04 8.84986E+04 4.89564E-12-5.85715E-10
 -1       890 2.08581E+05 3.77904E+04 2.63965E+04 8.38098E+04 1.07593E-09-5.48334E-09
 -1       891-1.30175E+02-1.19192E+05-1.41092E+03 2.24666E+04 6.35396E-10 6.13636E-09
 -1       892-2.26780E+02-1.19530E+05-1.53349E+03 3.39996E+04 1.08298E-09 1.37788E-10
 -1       893-3.66438E+01-1.19236E+05-2.18998E+03 2.24710E+04 1.89198E-09-4.29645E-09
 -1       894-1.19633E+03-1.20368E+05-4.54609E+03 3.38784E+04-3.29464E-09-8.03993E-10
 -1       895-9.35591E+02-1.18289E+05-8.01085E+03 2.25861E+04-8.86189E-10 9.12223E-10
 -1       956-2.64497E+05-3.79246E+03-9.54583E+03 1.76715E+04-2.24281E-09 2.76270E-09
 -1       957-2.66382E+05-1.27948E+03-4.90043E+03 2.12802E+04-1.64800E-09-8.48104E-10
 -1       958-2.65344E+05-1.02089E+02-2.20780E+03 1.75578E+04 2.55022E-09-3.28214E-09
 -1       959-2.65494E+05-1.75028E+01-1.12769E+03 2.14035E+04-1.49839E-09-7.04108E-09
 -1       960-2.65420E+05 3.19002E+01-5.49701E+02 1.75469E+04-3.37832E-09-3.19551E-09
 -1       961-2.65430E+05 3.02220E+01-2.91504E+02 2.14159E+04-6.05723E-09 2.88628E-09
 -1       962-2.65435E+05 2.82049E+01-1.66576E+02 1.75453E+04-1.33855E-09 1.46019E-09
 -1       963-2.65427E+05 3.15376E+01-1.33194E+02 2.14181E+04-3.18369E-09 7.34985E-09
 -1       964-2.65439E+05 3.01553E+01-1.61048E+02 1.75447E+04 2.62514E-09-2.08979E-09
 -1       965-2.65437E+05 3.44768E+01-2.77747E+02 2.14182E+04 1.07962E-08-5.02553E-09
 -1       966-2.65431E+05 3.76614E+01-5.21065E+02 1.75452E+04-3.00463E-09-4.45880E-10
 -1       967-2.65506E+05-6.58435E+00-1.06855E+03 2.14113E+04-9.67054E-09-4.42265E-09
 -1       968-2.65365E+05-8.53705E+01-2.09105E+03 1.75516E+04 2.66459E-09-1.13047E-08
 -1       969-2.66354E+05-1.19863E+03-4.64272E+03 2.13365E+04 1.07511E-08-8.36280E-09
 -1       970-2.64567E+05-3.57924E+03-9.04303E+03 1.76224E+04 5.45788E-09 8.81300E-10
 -1       971-2.50469E+05-1.31659E+03-7.32098E+03 1.21361E+04-9.09768E-09 8.69818E-10
 -1       972-2.52249E+05-9.43574E+02-3.98702E+03 1.69499E+04-1.13782E-08 1.48475E-10
 -1       973-2.51282E+05-8.35760E+00-1.78526E+03 1.20349E+04-8.66385E-09 1.24601E-09
 -1       974-2.51406E+05-8.19083E+00-9.24882E+02 1.70591E+04-2.00384E-09-1.61879E-09
 -1       975-2.51345E+05 2.57333E+01-4.61245E+02 1.20258E+04 1.29103E-09-2.36184E-09
 -1       976-2.51356E+05 2.99865E+01-2.64257E+02 1.70702E+04-3.10899E-09-8.65850E-09
 -1       977-2.51357E+05 2.54188E+01-1.88438E+02 1.20238E+04-3.81078E-10-6.68069E-09
 -1       978-2.51359E+05 3.41587E+01-2.15968E+02 1.70730E+04 1.07721E-08-4.71744E-09
 -1       979-2.51357E+05 3.11916E+01-3.43060E+02 1.20229E+04 5.25870E-09-1.67120E-11
 -1       980-2.51384E+05 3.62453E+01-6.59942E+02 1.70735E+04 3.98379E-09 1.90801E-09
 -1       981-2.51336E+05 4.76305E+01-1.27684E+03 1.20233E+04 2.76827E-10 2.48451E-09
 -1       982-2.51559E+05-5.79487E+01-2.63847E+03 1.70684E+04-4.54168E-09-6.85812E-09
 -1       983-2.51175E+05-3.39000E+01-5.12614E+03 1.20282E+04-2.30420E-09-5.87761E-09
 -1       984-2.54025E+05-2.73474E+03-1.14792E+04 1.69999E+04-9.08017E-09-2.99633E-09
 -1       985-2.48855E+05-3.78472E+03-2.10795E+04 1.20966E+04-1.44837E-09 3.12320E-09
 -3
    1PSTEP                        11           6           1          
  100CL  106 5.39062E-01         409                     0    6           1
 -4  DISP        4    1
 -5  D1          1    2    1    0
 -5  D2          1    2    2    0
 -5  D3          1    2    3    0
 -5  ALL         1    2    0    0    1ALL
 -1         1 1.83157E-04 0.00000E+00 0.00000E+00
 -1         2 1.62688E-04-4.30041E-30-3.30872E-24
 -1         3 1.63618E-04 1.44049E-28-1.32349E-23
 -1         5 1.07195E-04 5.34879E-28-3.30872E-24
 -1         8 1.57746E-04-8.71086E-07 0.00000E+00
 -1         9 1.51553E-04-6.44685E-07 0.00000E+00
 -1        10 1.50556E-04-2.19926E-06 6.61744E-24
 -1        12 1.06932E-04 5.92379E-07 1.65436E-24
 -1        15 1.27427E-04-9.68854E-07 0.00000E+00
 -1        16 1.32471E-04-8.44149E-07 0.00000E+00
 -1        17 1.09267E-04-4.69362E-06 0.00000E+00
 -1        18 1.04972E-04 4.79696E-06 0.00000E+00
 -1        19 1.06142E-04 1.18167E-06 0.00000E+00
 -1        20 1.06289E-04 1.31386E-05 0.00000E+00
 -1        21 1.05693E-04 2.38576E-05 0.00000E+00
 -1        24 2.23271E-05-6.57136E-06 0.00000E+00
 -1        25 1.04894E-04 4.93675E-06 0.00000E+00
 -1        26 1.05795E-04 1.64069E-06 0.00000E+00
 -1        27 1.04162E-04 1.04774E-05 0.00000E+00
 -1        28 1.03692E-04 2.33558E-05 0.00000E+00
 -1        32 0.00000E+00 0.00000E+00 0.00000E+00
 -1        33 1.04212E-04 2.19868E-06 0.00000E+00
 -1        34 1.02613E-04 1.04521E-05 0.00000E+00
 -1        35 1.01105E-04 2.30891E-05 0.00000E+00
 -1        51 1.81508E-04-1.44911E-07 0.00000E+00
 -1        52 1.78449E-04-2.83859E-07 0.00000E+00
 -1        53 1.74255E-04-4.24035E-07 0.00000E+00
 -1        54 1.69214E-04-5.67141E-07 3.30872E-24
 -1        55 1.63615E-04-7.14069E-07 6.41065E-24
 -1        56 1.81553E-04-8.48029E-07 0.00000E+00
 -1        57 1.80035E-04-2.10836E-06-2.64698E-23
 -1        58 1.78623E-04-3.64283E-06 0.00000E+00
 -1        59 1.77257E-04-5.33062E-06 0.00000E+00
 -1        60 1.75894E-04-7.02964E-06-5.29396E-23
 -1        61 1.74482E-04-8.60167E-06 0.00000E+00
 -1        62 1.72974E-04-9.91817E-06 0.00000E+00
 -1        63 1.71326E-04-1.08617E-05-2.64698E-23
 -1        64 1.69506E-04-1.13455E-05 0.00000E+00
 -1        65 1.67488E-04-1.13016E-05 0.00000E+00
 -1        66 1.65262E-04-1.07058E-05-5.29396E-23
 -1        67 1.62830E-04-9.55593E-06 2.64698E-23
 -1        68 1.60205E-04-7.89653E-06 0.00000E+00
 -1        69 1.57422E-04-5.78934E-06-2.64698E-23
 -1        70 1.54505E-04-3.34022E-06 0.00000E+00
 -1        86 1.62354E-04-1.00657E-07 3.30872E-24
 -1        87 1.61354E-04-2.02268E-07 1.65436E-24
 -1        88 1.59724E-04-3.04749E-07-3.30872E-24
 -1        89 1.57501E-04-4.11648E-07-3.30872E-24
 -1        90 1.54753E-04-5.18667E-07 1.32349E-23
 -1       121 1.63252E-04-3.63457E-07 1.32349E-23
 -1       122 1.62157E-04-7.27433E-07 6.61744E-24
 -1       123 1.60334E-04-1.09244E-06 0.00000E+00
 -1       124 1.57789E-04-1.45905E-06 0.00000E+00
 -1       125 1.54526E-04-1.82763E-06 0.00000E+00
 -1       191 1.07188E-04 9.87346E-08-3.30872E-24
 -1       192 1.07166E-04 1.97468E-07-1.65436E-24
 -1       193 1.07129E-04 2.96201E-07-3.30872E-24
 -1       194 1.07078E-04 3.94932E-07 1.65436E-24
 -1       195 1.07012E-04 4.93659E-07 0.00000E+00
 -1       251 1.57354E-04 3.86195E-06 1.32349E-23
 -1       252 1.56963E-04 7.92271E-06 0.00000E+00
 -1       253 1.56576E-04 1.10107E-05 0.00000E+00
 -1       254 1.56191E-04 1.28406E-05 0.00000E+00
 -1       255 1.55808E-04 1.33632E-05 1.32349E-23
 -1       256 1.55425E-04 1.25501E-05-6.61744E-24
 -1       257 1.55040E-04 1.06233E-05 0.00000E+00
 -1       258 1.54653E-04 7.82265E-06 0.00000E+00
 -1       259 1.54264E-04 4.55181E-06 0.00000E+00
 -1       260 1.53876E-04 1.22194E-06 6.61744E-24
 -1       261 1.53488E-04-1.74468E-06 0.00000E+00
 -1       262 1.53102E-04-3.93160E-06 0.00000E+00
 -1       263 1.52718E-04-5.06870E-06 0.00000E+00
 -1       264 1.52333E-04-4.90235E-06 6.61744E-24
 -1       265 1.51948E-04-3.42376E-06 0.00000E+00
 -1       266 1.52693E-04-8.99483E-07 0.00000E+00
 -1       267 1.47640E-04-9.14303E-07 0.00000E+00
 -1       268 1.42587E-04-9.29982E-07-1.65436E-24
 -1       269 1.37533E-04-9.43114E-07-4.13590E-25
 -1       270 1.32480E-04-9.56187E-07 0.00000E+00
 -1       271 1.54724E-04 3.08638E-06 2.64698E-23
 -1       272 1.52079E-04 5.91587E-06 0.00000E+00
 -1       273 1.49825E-04 7.71762E-06 5.29396E-23
 -1       274 1.47913E-04 8.58998E-06-2.64698E-23
 -1       275 1.46305E-04 8.65381E-06 0.00000E+00
 -1       276 1.44949E-04 8.04156E-06 0.00000E+00
 -1       277 1.43792E-04 6.89883E-06-5.29396E-23
 -1       278 1.42775E-04 5.38018E-06 0.00000E+00
 -1       279 1.41838E-04 3.64719E-06 0.00000E+00
 -1       280 1.40920E-04 1.86525E-06 0.00000E+00
 -1       281 1.39958E-04 2.00505E-07 5.29396E-23
 -1       282 1.38891E-04-1.18278E-06-2.64698E-23
 -1       283 1.37661E-04-2.12581E-06 0.00000E+00
 -1       284 1.36213E-04-2.47589E-06 1.32349E-23
 -1       285 1.34489E-04-2.09480E-06 0.00000E+00
 -1       301 1.48020E-04-6.92393E-07 0.00000E+00
 -1       302 1.44515E-04-7.17677E-07-3.30872E-24
 -1       303 1.41123E-04-7.41444E-07 0.00000E+00
 -1       304 1.37929E-04-7.65369E-07 0.00000E+00
 -1       305 1.35018E-04-7.90581E-07 1.32349E-23
 -1       306 1.49634E-04-2.24870E-06 0.00000E+00
 -1       307 1.50684E-04-1.21082E-05 0.00000E+00
 -1       308 1.54125E-04-2.85577E-05-5.29396E-23
 -1       309 1.59152E-04-4.95049E-05 2.64698E-23
 -1       310 1.64689E-04-7.18966E-05 0.00000E+00
 -1       311 1.69621E-04-9.25828E-05 0.00000E+00
 -1       312 1.72952E-04-1.08776E-04-5.29396E-23
 -1       313 1.73759E-04-1.18002E-04 0.00000E+00
 -1       314 1.71614E-04-1.19260E-04 0.00000E+00
 -1       315 1.66276E-04-1.12094E-04 2.64698E-23
 -1       316 1.58180E-04-9.78082E-05-5.29396E-23
 -1       317 1.47977E-04-7.81775E-05 0.00000E+00
 -1       318 1.36794E-04-5.60844E-05 0.00000E+00
 -1       319 1.25857E-04-3.45634E-05-2.64698E-23
 -1       320 1.16305E-04-1.65470E-05 5.29396E-23
 -1       336 1.45794E-04-2.60294E-06 1.32349E-23
 -1       337 1.40158E-04-3.01150E-06 0.00000E+00
 -1       338 1.33666E-04-3.42492E-06-1.32349E-23
 -1       339 1.26338E-04-3.84325E-06 6.61744E-24
 -1       340 1.18197E-04-4.26767E-06 6.61744E-24
 -1       406 1.06837E-04 6.91087E-07 6.61744E-24
 -1       407 1.06727E-04 7.89761E-07 0.00000E+00
 -1       408 1.06603E-04 8.88375E-07 3.30872E-24
 -1       409 1.06464E-04 9.86807E-07 1.65436E-24
 -1       410 1.06310E-04 1.08487E-06 0.00000E+00
 -1       521 1.36466E-04-2.11478E-05 0.00000E+00
 -1       522 1.54167E-04-8.29852E-05 5.29396E-23
 -1       523 1.81203E-04-1.76188E-04-1.05879E-22
 -1       524 2.13162E-04-2.87715E-04-5.29396E-23
 -1       525 2.45419E-04-4.00376E-04 0.00000E+00
 -1       526 2.73351E-04-4.96874E-04 0.00000E+00
 -1       527 2.92543E-04-5.63594E-04 1.05879E-22
 -1       528 2.98449E-04-5.89658E-04-5.29396E-23
 -1       529 2.88499E-04-5.73034E-04 1.05879E-22
 -1       530 2.61381E-04-5.15326E-04-5.29396E-23
 -1       531 2.20047E-04-4.26515E-04 1.05879E-22
 -1       532 1.69452E-04-3.18811E-04-5.29396E-23
 -1       533 1.17351E-04-2.08093E-04 0.00000E+00
 -1       534 7.17617E-05-1.10418E-04 0.00000E+00
 -1       535 3.86749E-05-3.93570E-05 0.00000E+00
 -1       536 1.09055E-04 7.98184E-06 6.61744E-24
 -1       537 1.08746E-04 2.73398E-05 3.30872E-24
 -1       538 1.08359E-04 5.05607E-05 3.30872E-24
 -1       539 1.07950E-04 7.48049E-05 1.65436E-24
 -1       540 1.07587E-04 9.69647E-05 3.30872E-24
 -1       541 1.07321E-04 1.13944E-04-1.65436E-24
 -1       542 1.07143E-04 1.23977E-04 0.00000E+00
 -1       543 1.07013E-04 1.25335E-04 1.65436E-24
 -1       544 1.06861E-04 1.18487E-04 0.00000E+00
 -1       545 1.06631E-04 1.03948E-04 0.00000E+00
 -1       546 1.06317E-04 8.41893E-05 0.00000E+00
 -1       547 1.05949E-04 6.17107E-05 0.00000E+00
 -1       548 1.05590E-04 3.97142E-05 0.00000E+00
 -1       549 1.05304E-04 2.13996E-05-1.65436E-24
 -1       550 1.05102E-04 9.02070E-06 1.65436E-24
 -1       551 9.77256E-05-4.96765E-06 6.61744E-24
 -1       552 8.40301E-05-5.26231E-06 0.00000E+00
 -1       553 6.89063E-05-5.57533E-06-3.30872E-24
 -1       554 5.30910E-05-5.90042E-06 0.00000E+00
 -1       555 3.73207E-05-6.22763E-06 0.00000E+00
 -1       556 1.06139E-04 3.39316E-06 0.00000E+00
 -1       557 1.03704E-04 9.70536E-06 0.00000E+00
 -1       558 1.01888E-04 1.43983E-05 0.00000E+00
 -1       559 1.00624E-04 1.76401E-05 0.00000E+00
 -1       560 9.98466E-05 1.95987E-05 0.00000E+00
 -1       561 9.94888E-05 2.04432E-05 0.00000E+00
 -1       562 9.94864E-05 2.03428E-05 0.00000E+00
 -1       563 9.97745E-05 1.94670E-05 0.00000E+00
 -1       564 1.00289E-04 1.79858E-05 6.61744E-24
 -1       565 1.00967E-04 1.60689E-05 0.00000E+00
 -1       566 1.01744E-04 1.38864E-05-1.65436E-24
 -1       567 1.02556E-04 1.16083E-05-3.10193E-25
 -1       568 1.03340E-04 9.40473E-06 0.00000E+00
 -1       569 1.04034E-04 7.44558E-06 0.00000E+00
 -1       570 1.04572E-04 5.90078E-06 0.00000E+00
 -1       571 1.05043E-04 4.59099E-06 0.00000E+00
 -1       572 1.05116E-04 4.33880E-06-4.13590E-25
 -1       573 1.05189E-04 4.04931E-06 8.27181E-25
 -1       574 1.05262E-04 3.73187E-06 0.00000E+00
 -1       575 1.05336E-04 3.39589E-06 1.65436E-24
 -1       576 1.05409E-04 3.05083E-06-8.27181E-25
 -1       577 1.05482E-04 2.70615E-06 0.00000E+00
 -1       578 1.05556E-04 2.37133E-06-1.65436E-24
 -1       579 1.05629E-04 2.05583E-06 0.00000E+00
 -1       580 1.05702E-04 1.76913E-06 0.00000E+00
 -1       581 1.05776E-04 1.52071E-06 0.00000E+00
 -1       582 1.05849E-04 1.32001E-06 0.00000E+00
 -1       583 1.05923E-04 1.17651E-06 0.00000E+00
 -1       584 1.05996E-04 1.09954E-06 0.00000E+00
 -1       585 1.06069E-04 1.09841E-06 0.00000E+00
 -1       586 1.04920E-04 4.82176E-06 0.00000E+00
 -1       587 1.04840E-04 4.84597E-06-1.03398E-25
 -1       588 1.04765E-04 4.86991E-06 0.00000E+00
 -1       589 1.04728E-04 4.89344E-06 0.00000E+00
 -1       590 1.04761E-04 4.91626E-06 0.00000E+00
 -1       591 1.05014E-04 4.63370E-06-1.29247E-26
 -1       592 1.05065E-04 4.43723E-06-2.06795E-25
 -1       593 1.05126E-04 4.21429E-06 0.00000E+00
 -1       594 1.05194E-04 3.97084E-06 4.13590E-25
 -1       595 1.05268E-04 3.71294E-06-8.27181E-25
 -1       596 1.05344E-04 3.44661E-06 4.13590E-25
 -1       597 1.05422E-04 3.17785E-06 0.00000E+00
 -1       598 1.05498E-04 2.91266E-06-2.06795E-25
 -1       599 1.05571E-04 2.65703E-06-4.13590E-25
 -1       600 1.05637E-04 2.41698E-06-2.06795E-25
 -1       601 1.05696E-04 2.19849E-06 0.00000E+00
 -1       602 1.05745E-04 2.00757E-06-1.03398E-25
 -1       603 1.05781E-04 1.85023E-06-2.06795E-25
 -1       604 1.05802E-04 1.73253E-06 0.00000E+00
 -1       605 1.05807E-04 1.66042E-06 0.00000E+00
 -1       606 1.06155E-04 1.42984E-06 0.00000E+00
 -1       607 1.06166E-04 1.77389E-06 0.00000E+00
 -1       608 1.06175E-04 2.20817E-06 0.00000E+00
 -1       609 1.06184E-04 2.72635E-06 0.00000E+00
 -1       610 1.06193E-04 3.32204E-06 0.00000E+00
 -1       611 1.06202E-04 3.98878E-06-1.65436E-24
 -1       612 1.06211E-04 4.72008E-06 0.00000E+00
 -1       613 1.06220E-04 5.50949E-06 0.00000E+00
 -1       614 1.06229E-04 6.35052E-06 0.00000E+00
 -1       615 1.06237E-04 7.23667E-06 0.00000E+00
 -1       616 1.06246E-04 8.16149E-06-1.65436E-24
 -1       617 1.06255E-04 9.11849E-06 0.00000E+00
 -1       618 1.06263E-04 1.01012E-05 0.00000E+00
 -1       619 1.06272E-04 1.11031E-05 4.13590E-25
 -1       620 1.06280E-04 1.21177E-05 0.00000E+00
 -1       621 1.06004E-04 1.25828E-06 1.65436E-24
 -1       622 1.05910E-04 1.33520E-06 0.00000E+00
 -1       623 1.05852E-04 1.41211E-06-1.65436E-24
 -1       624 1.05820E-04 1.48889E-06-8.27181E-25
 -1       625 1.05804E-04 1.56553E-06 1.65436E-24
 -1       626 1.06133E-04 1.45527E-06 0.00000E+00
 -1       627 1.06096E-04 1.80720E-06 1.65436E-24
 -1       628 1.06032E-04 2.22986E-06 0.00000E+00
 -1       629 1.05944E-04 2.71520E-06 0.00000E+00
 -1       630 1.05836E-04 3.25514E-06 0.00000E+00
 -1       631 1.05710E-04 3.84157E-06-1.65436E-24
 -1       632 1.05571E-04 4.46637E-06 3.30872E-24
 -1       633 1.05419E-04 5.12144E-06 0.00000E+00
 -1       634 1.05260E-04 5.79866E-06 0.00000E+00
 -1       635 1.05095E-04 6.48989E-06 0.00000E+00
 -1       636 1.04928E-04 7.18705E-06 0.00000E+00
 -1       637 1.04761E-04 7.88202E-06-1.65436E-24
 -1       638 1.04599E-04 8.56667E-06-1.65436E-24
 -1       639 1.04443E-04 9.23288E-06 8.27181E-25
 -1       640 1.04297E-04 9.87254E-06 1.65436E-24
 -1       656 1.05481E-04 1.27056E-05 0.00000E+00
 -1       657 1.05047E-04 1.22553E-05 6.61744E-24
 -1       658 1.04849E-04 1.18064E-05 0.00000E+00
 -1       659 1.04744E-04 1.13579E-05 3.30872E-24
 -1       660 1.04569E-04 1.09080E-05 0.00000E+00
 -1       661 1.05991E-04 1.41307E-05 0.00000E+00
 -1       662 1.05718E-04 1.50636E-05 0.00000E+00
 -1       663 1.05467E-04 1.59393E-05-1.65436E-24
 -1       664 1.05236E-04 1.67612E-05 8.27181E-25
 -1       665 1.05025E-04 1.75319E-05 0.00000E+00
 -1       666 1.04832E-04 1.82544E-05 0.00000E+00
 -1       667 1.04657E-04 1.89312E-05 0.00000E+00
 -1       668 1.04497E-04 1.95649E-05-8.27181E-25
 -1       669 1.04353E-04 2.01579E-05 1.65436E-24
 -1       670 1.04223E-04 2.07127E-05 8.27181E-25
 -1       671 1.04106E-04 2.12315E-05 0.00000E+00
 -1       672 1.04002E-04 2.17163E-05 0.00000E+00
 -1       673 1.03910E-04 2.21695E-05-1.65436E-24
 -1       674 1.03829E-04 2.25926E-05-8.27181E-25
 -1       675 1.03758E-04 2.29880E-05 0.00000E+00
 -1       676 1.05359E-04 2.37735E-05 0.00000E+00
 -1       677 1.05025E-04 2.36894E-05 0.00000E+00
 -1       678 1.04691E-04 2.36053E-05 3.30872E-24
 -1       679 1.04357E-04 2.35215E-05 8.27181E-25
 -1       680 1.04024E-04 2.34378E-05-1.65436E-24
 -1       771 1.66086E-05 5.22953E-06 0.00000E+00
 -1       772 1.16999E-05 1.49071E-05 0.00000E+00
 -1       773 7.56493E-06 2.25731E-05 5.29396E-23
 -1       774 4.15237E-06 2.83498E-05 0.00000E+00
 -1       775 1.41156E-06 3.23624E-05-5.29396E-23
 -1       776-7.10327E-07 3.47421E-05-2.64698E-23
 -1       777-2.26668E-06 3.56234E-05-5.29396E-23
 -1       778-3.31211E-06 3.51453E-05-2.64698E-23
 -1       779-3.90153E-06 3.34497E-05-5.29396E-23
 -1       780-4.09091E-06 3.06821E-05 0.00000E+00
 -1       781-3.93631E-06 2.69903E-05 0.00000E+00
 -1       782-3.49460E-06 2.25251E-05 1.32349E-23
 -1       783-2.82270E-06 1.74388E-05 0.00000E+00
 -1       784-1.97805E-06 1.18855E-05 1.32349E-23
 -1       785-1.01809E-06 6.02044E-06 0.00000E+00
 -1       786 1.04947E-04 4.59354E-06 0.00000E+00
 -1       787 1.05003E-04 4.27555E-06 0.00000E+00
 -1       788 1.05059E-04 3.97850E-06 0.00000E+00
 -1       789 1.05115E-04 3.69817E-06 0.00000E+00
 -1       790 1.05172E-04 3.43250E-06 0.00000E+00
 -1       791 1.05228E-04 3.17948E-06 0.00000E+00
 -1       792 1.05285E-04 2.93875E-06-1.65436E-24
 -1       793 1.05342E-04 2.70999E-06-8.27181E-25
 -1       794 1.05398E-04 2.49441E-06 0.00000E+00
 -1       795 1.05455E-04 2.29330E-06 0.00000E+00
 -1       796 1.05512E-04 2.10980E-06 0.00000E+00
 -1       797 1.05569E-04 1.94711E-06 0.00000E+00
 -1       798 1.05625E-04 1.81115E-06 0.00000E+00
 -1       799 1.05682E-04 1.70790E-06 0.00000E+00
 -1       800 1.05739E-04 1.64763E-06-1.65436E-24
 -1       801 9.76343E-05 4.30436E-06 1.32349E-23
 -1       802 7.51548E-05 3.43073E-06 0.00000E+00
 -1       803 4.61912E-05 2.40813E-06-1.32349E-23
 -1       804 1.96651E-05 1.44248E-06 0.00000E+00
 -1       805 2.15687E-06 6.58489E-07-2.64698E-23
 -1       806 1.04938E-04 4.54438E-06 0.00000E+00
 -1       807 1.04974E-04 4.16489E-06 0.00000E+00
 -1       808 1.05003E-04 3.80257E-06 1.65436E-24
 -1       809 1.05024E-04 3.46090E-06 0.00000E+00
 -1       810 1.05036E-04 3.14331E-06-1.65436E-24
 -1       811 1.05038E-04 2.85317E-06 0.00000E+00
 -1       812 1.05027E-04 2.59385E-06-1.65436E-24
 -1       813 1.05004E-04 2.36871E-06 8.27181E-25
 -1       814 1.04967E-04 2.18108E-06 0.00000E+00
 -1       815 1.04915E-04 2.03432E-06 8.27181E-25
 -1       816 1.04846E-04 1.93177E-06-1.65436E-24
 -1       817 1.04760E-04 1.87677E-06-1.65436E-24
 -1       818 1.04654E-04 1.87264E-06 0.00000E+00
 -1       819 1.04528E-04 1.92272E-06 8.27181E-25
 -1       820 1.04381E-04 2.03032E-06-3.30872E-24
 -1       821 1.05699E-04 1.62577E-06 0.00000E+00
 -1       822 1.05597E-04 1.54273E-06 0.00000E+00
 -1       823 1.05495E-04 1.45913E-06 0.00000E+00
 -1       824 1.05392E-04 1.44256E-06 1.65436E-24
 -1       825 1.05289E-04 1.54635E-06 0.00000E+00
 -1       826 1.05186E-04 1.82333E-06 0.00000E+00
 -1       827 1.05083E-04 2.28965E-06 0.00000E+00
 -1       828 1.04980E-04 2.96061E-06 1.65436E-24
 -1       829 1.04876E-04 3.80821E-06 0.00000E+00
 -1       830 1.04773E-04 4.80364E-06 0.00000E+00
 -1       831 1.04669E-04 5.88681E-06 0.00000E+00
 -1       832 1.04566E-04 6.99725E-06 0.00000E+00
 -1       833 1.04463E-04 8.06866E-06 0.00000E+00
 -1       834 1.04360E-04 9.03498E-06 0.00000E+00
 -1       835 1.04258E-04 9.85231E-06 0.00000E+00
 -1       836 1.05686E-04 1.73359E-06 0.00000E+00
 -1       837 1.05466E-04 1.82855E-06 0.00000E+00
 -1       838 1.05171E-04 1.92334E-06 0.00000E+00
 -1       839 1.04838E-04 2.01752E-06 0.00000E+00
 -1       840 1.04507E-04 2.11154E-06-4.13590E-25
 -1       856 1.04136E-04 1.10657E-05 2.06795E-25
 -1       857 1.04107E-04 1.17651E-05 0.00000E+00
 -1       858 1.04078E-04 1.25583E-05 8.27181E-25
 -1       859 1.04049E-04 1.34277E-05 0.00000E+00
 -1       860 1.04019E-04 1.43556E-05-8.27181E-25
 -1       861 1.03990E-04 1.53244E-05 0.00000E+00
 -1       862 1.03960E-04 1.63162E-05 0.00000E+00
 -1       863 1.03930E-04 1.73134E-05 0.00000E+00
 -1       864 1.03900E-04 1.82981E-05 0.00000E+00
 -1       865 1.03871E-04 1.92526E-05 0.00000E+00
 -1       866 1.03841E-04 2.01591E-05-8.27181E-25
 -1       867 1.03811E-04 2.09999E-05 0.00000E+00
 -1       868 1.03781E-04 2.17574E-05 8.27181E-25
 -1       869 1.03752E-04 2.24142E-05 0.00000E+00
 -1       870 1.03722E-04 2.29527E-05-8.27181E-25
 -1       871 1.03789E-04 1.04763E-05-4.13590E-25
 -1       872 1.03526E-04 1.04729E-05 0.00000E+00
 -1       873 1.03325E-04 1.04691E-05 0.00000E+00
 -1       874 1.03138E-04 1.04647E-05 0.00000E+00
 -1       875 1.02917E-04 1.04599E-05 0.00000E+00
 -1       876 1.04040E-04 1.10755E-05 0.00000E+00
 -1       877 1.03901E-04 1.17278E-05 1.65436E-24
 -1       878 1.03743E-04 1.24276E-05 0.00000E+00
 -1       879 1.03571E-04 1.31690E-05 0.00000E+00
 -1       880 1.03385E-04 1.39458E-05 3.30872E-24
 -1       881 1.03188E-04 1.47518E-05 0.00000E+00
 -1       882 1.02982E-04 1.55811E-05 3.30872E-24
 -1       883 1.02770E-04 1.64277E-05-1.65436E-24
 -1       884 1.02553E-04 1.72853E-05 0.00000E+00
 -1       885 1.02335E-04 1.81480E-05 1.65436E-24
 -1       886 1.02117E-04 1.90097E-05 3.30872E-24
 -1       887 1.01902E-04 1.98644E-05 0.00000E+00
 -1       888 1.01691E-04 2.07059E-05 3.30872E-24
 -1       889 1.01487E-04 2.15282E-05 0.00000E+00
 -1       890 1.01293E-04 2.23251E-05 8.27181E-25
 -1       891 1.03381E-04 2.33112E-05 1.65436E-24
 -1       892 1.03051E-04 2.32664E-05-4.13590E-25
 -1       893 1.02681E-04 2.32216E-05 0.00000E+00
 -1       894 1.02247E-04 2.31770E-05 2.06795E-25
 -1       895 1.01729E-04 2.31324E-05 6.20385E-25
 -1       956 1.04114E-04 2.49210E-06-1.65436E-24
 -1       957 1.04014E-04 2.84866E-06 0.00000E+00
 -1       958 1.03914E-04 3.26155E-06 1.65436E-24
 -1       959 1.03814E-04 3.72354E-06 0.00000E+00
 -1       960 1.03714E-04 4.22741E-06 0.00000E+00
 -1       961 1.03614E-04 4.76588E-06-1.65436E-24
 -1       962 1.03513E-04 5.33167E-06 3.30872E-24
 -1       963 1.03413E-04 5.91751E-06-1.65436E-24
 -1       964 1.03312E-04 6.51611E-06 3.30872E-24
 -1       965 1.03212E-04 7.12017E-06-1.65436E-24
 -1       966 1.03112E-04 7.72243E-06 0.00000E+00
 -1       967 1.03011E-04 8.31559E-06 1.65436E-24
 -1       968 1.02911E-04 8.89237E-06-3.30872E-24
 -1       969 1.02811E-04 9.44551E-06-1.65436E-24
 -1       970 1.02711E-04 9.96777E-06 3.30872E-24
 -1       971 1.02520E-04 1.09542E-05-1.65436E-24
 -1       972 1.02425E-04 1.15383E-05-1.65436E-24
 -1       973 1.02331E-04 1.21955E-05-3.30872E-24
 -1       974 1.02236E-04 1.29164E-05-1.65436E-24
 -1       975 1.02141E-04 1.36914E-05 0.00000E+00
 -1       976 1.02047E-04 1.45111E-05 0.00000E+00
 -1       977 1.01952E-04 1.53662E-05-3.30872E-24
 -1       978 1.01857E-04 1.62471E-05-1.65436E-24
 -1       979 1.01762E-04 1.71444E-05 3.30872E-24
 -1       980 1.01667E-04 1.80486E-05-1.65436E-24
 -1       981 1.01572E-04 1.89502E-05 0.00000E+00
 -1       982 1.01477E-04 1.98398E-05 0.00000E+00
 -1       983 1.01383E-04 2.07080E-05 0.00000E+00
 -1       984 1.01289E-04 2.15451E-05 0.00000E+00
 -1       985 1.01195E-04 2.23419E-05 0.00000E+00
 -3
    1PSTEP                        12           6           1          
  100CL  106 5.39062E-01         409                     0    6           1
 -4  STRESS      6    1
 -5  SXX         1    4    1    1
 -5  SYY         1    4    2    2
 -5  SZZ         1    4    3    3
 -5  SXY         1    4    1    2
 -5  SYZ         1    4    2    3
 -5  SZX         1    4    3    1
 -1         1-2.25488E+06-9.61381E+05-4.76660E+05-1.24200E+06 3.56522E-10-9.26957E-09
 -1         2 2.61631E+03-2.84279E+05 8.52812E+03-8.14897E+02-6.85532E-11 1.34735E-08
 -1         3-2.35121E+02-1.03731E+06 2.48921E+02-5.99555E+02-1.77661E-10-9.55515E-09
 -1         5-2.26867E+00 2.82506E+05 7.29663E+00 9.48962E-02 2.48941E-11 3.37513E-09
 -1         8-1.07864E+06-3.95311E+05-1.02985E+05-5.57651E+05 1.78261E-10 1.20053E-09
 -1         9-2.17560E+06-7.10356E+05-2.71151E+05-6.72820E+05 4.65661E-09 5.64614E-09
 -1        10-9.26788E+02-1.08067E+06-1.48298E+03-4.05720E+03-5.65706E-09-7.20686E-09
 -1        12 7.24842E-01 2.82521E+05 2.36288E+02 7.51354E-01 1.44066E-10 2.12276E-08
 -1        15 2.00530E+03 1.10203E+03 6.48212E+03 4.38186E+00-2.16573E-10 1.37569E-09
 -1        16-2.84382E+06-1.24724E+06-4.62595E+05-1.32291E+06 1.06714E-08 6.15061E-09
 -1        17-1.27165E+06-7.17064E+05-2.45230E+05-6.36634E+05-5.69271E-09 1.16066E-08
 -1        18-4.06330E+04-1.48506E+04-3.20652E+04-7.36037E+04 5.10681E-09-1.02386E-08
 -1        19 8.97136E+04 1.04989E+05-6.39724E+02 1.76069E+04-3.69073E-10 4.60568E-10
 -1        20-4.22015E+04-4.24135E+05-9.38924E+04 2.87062E+04 2.70347E-09-7.92291E-09
 -1        21-3.90520E+01-2.40693E+05-7.72433E+02-5.52147E+01-4.16345E-09 6.26313E-09
 -1        24-3.10119E+06-7.88143E+05-3.53306E+05-1.12243E+06-4.02651E-08-1.85682E-08
 -1        25-5.14023E+04-3.62993E+05-6.63794E+04-1.20065E+05-1.32059E-10 6.31735E-09
 -1        26-2.73901E+04 6.97927E+04-1.60975E+04-7.18465E+03 1.74041E-09 1.09520E-08
 -1        27-6.48600E+04-2.31740E+05-8.65388E+04 5.22947E+04 5.59301E-09-2.92312E-09
 -1        28 1.85675E+04-6.70344E+04 1.36310E+04 2.04240E+04 3.10320E-09 6.19863E-10
 -1        32-1.07964E+06-1.02270E+06 1.82642E+05-5.74666E+05-2.36832E-08 5.51228E-09
 -1        33-1.34263E+05 6.75026E+04 2.40288E+04-3.56214E+04 6.28631E-10 6.23034E-09
 -1        34-1.71641E+05-1.73270E+04 4.28768E+02 5.36558E+04 2.59663E-09 3.38332E-10
 -1        35-1.89038E+04-2.66310E+04-1.04790E+03 4.19293E+04 1.69628E-09 5.58975E-09
 -1        51 2.08109E+04-3.54721E+05 5.09686E+04-9.67207E+05 1.89175E-10-1.58470E-08
 -1        52 1.13127E+04-3.51463E+05 3.19617E+04-1.12801E+06 4.00178E-10 5.29690E-09
 -1        53 7.34838E+03-3.66013E+05 2.48302E+04-9.63803E+05 6.11180E-10 3.65253E-09
 -1        54 2.03252E+04-3.64629E+05 3.69646E+04-1.13153E+06 5.16593E-10-6.00267E-09
 -1        55 3.98908E+04-3.78399E+05 6.42255E+04-9.63245E+05 8.58563E-10 3.72165E-09
 -1        56-4.31098E+06-4.82607E+05-3.50710E+05-1.66519E+06 7.13044E-10-2.00234E-08
 -1        57-4.46208E+06-7.90419E+05-2.36521E+05-1.64015E+06 1.44701E-09 1.78334E-08
 -1        58-4.38154E+06-5.93794E+05-8.24760E+04-1.64300E+06-2.98314E-10-2.87400E-10
 -1        59-4.38059E+06-6.59706E+05-4.92379E+04-1.66626E+06-1.21645E-09-2.45618E-08
 -1        60-4.39156E+06-6.09580E+05-1.92355E+04-1.64032E+06 6.12090E-10-8.54470E-09
 -1        61-4.37089E+06-6.39222E+05-1.09044E+04-1.66701E+06 2.86332E-09-2.06103E-09
 -1        62-4.39101E+06-6.13816E+05-5.20644E+03-1.64234E+06 4.64070E-10-1.29774E-10
 -1        63-4.37491E+06-6.31259E+05-4.16543E+03-1.66075E+06 2.11003E-10-2.88765E-11
 -1        64-4.38743E+06-6.17544E+05-4.68014E+03-1.64653E+06 1.06343E-09-1.60003E-09
 -1        65-4.38406E+06-6.25009E+05-9.25040E+03-1.65121E+06-1.98270E-10-2.07569E-09
 -1        66-4.38182E+06-6.20146E+05-1.62210E+04-1.65184E+06 1.44968E-09-1.39707E-08
 -1        67-4.40231E+06-6.32008E+05-4.12418E+04-1.63899E+06-3.62530E-09 3.86763E-09
 -1        68-4.36937E+06-6.10935E+05-6.91290E+04-1.65866E+06-1.65073E-09 2.29193E-09
 -1        69-4.47583E+06-7.36441E+05-1.98121E+05-1.61154E+06-1.47429E-09-9.06766E-09
 -1        70-4.30921E+06-5.18774E+05-2.93832E+05-1.67835E+06 2.18279E-11 1.02300E-08
 -1        86-1.31437E+03-2.87097E+05 9.10396E+03 4.07436E+02 1.12027E-09-1.88840E-09
 -1        87 8.69255E+03-2.81394E+05 1.90274E+04-1.57478E+03 1.82445E-09-1.44989E-08
 -1        88-7.36796E+03-2.89983E+05 2.91280E+04 1.16734E+03 2.61389E-09-4.97664E-10
 -1        89 5.48807E+04-2.60098E+05 7.85197E+04-2.88972E+03 3.90992E-09-1.89377E-08
 -1        90-4.73363E+04-3.08373E+05 1.11026E+05 1.72281E+03 3.82715E-09 2.93659E-09
 -1       121-3.44386E+02-1.03821E+06 1.26208E+02 2.99123E+02 6.46978E-10-7.29415E-09
 -1       122-1.49769E+02-1.03727E+06 5.29521E+02-1.19798E+03-2.10841E-09 1.43136E-08
 -1       123-3.95350E+02-1.03827E+06 7.41574E+02 8.94958E+02 1.70041E-09 5.05679E-10
 -1       124 8.34604E+02-1.03671E+06 2.18529E+03-2.58411E+03-4.36671E-09-4.54384E-09
 -1       125-1.01109E+03-1.03883E+06 3.23549E+03 1.68288E+03 2.64572E-09-1.15233E-08
 -1       191-2.62533E+00 2.82531E+05 8.87370E+00-4.76416E-02 6.52995E-11 5.32464E-09
 -1       192-2.93763E+00 2.82507E+05 1.54414E+01 4.28546E-01 1.24225E-10 5.36716E-09
 -1       193-4.40460E+00 2.82530E+05 2.88644E+01-3.82377E-01 8.78853E-11-2.64026E-09
 -1       194-5.09070E+00 2.82509E+05 5.83869E+01 1.02257E+00 5.45182E-11-1.70796E-08
 -1       195-7.82406E+00 2.82529E+05 1.14355E+02-6.44881E-01 2.62979E-10 5.29553E-09
 -1       251-1.09320E+06 5.00882E+03-1.19311E+04-9.27032E+03-1.83775E-10 2.22872E-09
 -1       252-1.09718E+06-5.76623E+03-8.18962E+03 1.14343E+04-2.01823E-10 5.34010E-09
 -1       253-1.09574E+06 7.18017E+02-3.22669E+03-4.71873E+03-5.57066E-10 4.27349E-10
 -1       254-1.09412E+06-8.54280E+02-1.58110E+03 7.80062E+02 3.38559E-10-1.01560E-08
 -1       255-1.09618E+06 5.93714E+01-9.23842E+02 1.38400E+03 9.62928E-10 7.62566E-09
 -1       256-1.09417E+06-8.00839E+01-1.28174E+02-1.05214E+04-7.34872E-10 1.11871E-08
 -1       257-1.09573E+06-2.12318E+01-1.06990E+02 6.58259E+03-1.40528E-09 6.96002E-09
 -1       258-1.09504E+06 1.21095E+02 3.07974E+02-1.79123E+04-2.02179E-09 3.32761E-10
 -1       259-1.09540E+06-6.93205E+01 6.10084E+02 8.77517E+03-9.69557E-10 1.83408E-09
 -1       260-1.09491E+06 5.34636E+02 1.51060E+03-1.84109E+04 9.80847E-10-8.63400E-09
 -1       261-1.09588E+06-4.26813E+02 2.51557E+03 7.08134E+03 1.95814E-09 6.78710E-09
 -1       262-1.09273E+06 3.06265E+03 6.55727E+03-1.18202E+04-1.56831E-10-1.01794E-08
 -1       263-1.09748E+06-2.65820E+03 9.97857E+03 2.18417E+03-3.80055E-10-7.48514E-09
 -1       264-1.08451E+06 1.95044E+04 2.80214E+04-8.37953E+02-8.96080E-10 1.57811E-08
 -1       265-1.10402E+06-1.68580E+04 3.90789E+04-3.90089E+03-1.87254E-09 5.18776E-09
 -1       266-3.63014E+04-1.69718E+04 8.51864E+04-9.37707E+01-1.81899E-10-2.55470E-08
 -1       267 4.20845E+04 1.97852E+04 6.02019E+04 1.08177E+02-2.79215E-10-5.39280E-08
 -1       268-5.64341E+03-2.80191E+03 2.23772E+04-1.37845E+01-2.63753E-10-5.46997E-08
 -1       269 6.66327E+03 3.35355E+03 1.45444E+04 1.60560E+01-9.45874E-11-3.10686E-08
 -1       270-1.00016E+03-5.51001E+02 7.02082E+03-2.17895E+00-8.02629E-11-9.23413E-09
 -1       271-3.41254E+06-4.27055E+05-2.59171E+05-1.32960E+06 6.91216E-11-9.35688E-09
 -1       272-3.50087E+06-6.20708E+05-1.66629E+05-1.33233E+06 1.57161E-09-6.27915E-09
 -1       273-3.46267E+06-4.90298E+05-6.12322E+04-1.31648E+06 1.04137E-10-5.03132E-09
 -1       274-3.44148E+06-5.43933E+05-3.42346E+04-1.35293E+06-1.03319E-09 4.04179E-09
 -1       275-3.47116E+06-4.95193E+05-1.42646E+04-1.31250E+06 1.19053E-09 2.12149E-08
 -1       276-3.43088E+06-5.38821E+05-7.54227E+03-1.35974E+06-2.39379E-09 1.42857E-08
 -1       277-3.47370E+06-4.94189E+05-3.71040E+03-1.31040E+06 3.79714E-10 4.52519E-09
 -1       278-3.42794E+06-5.40249E+05-2.66600E+03-1.36294E+06 3.11707E-09 3.13321E-09
 -1       279-3.47447E+06-4.93450E+05-2.84344E+03-1.30959E+06-2.26657E-09 9.26843E-09
 -1       280-3.42813E+06-5.41166E+05-5.21192E+03-1.36328E+06-7.38396E-10-4.59067E-10
 -1       281-3.47358E+06-4.93281E+05-9.48915E+03-1.31009E+06-5.32054E-11 1.31677E-08
 -1       282-3.43413E+06-5.45641E+05-2.27435E+04-1.36011E+06-1.54409E-09 1.30349E-08
 -1       283-3.46829E+06-4.89718E+05-4.05322E+04-1.31237E+06 1.93313E-09-9.57880E-09
 -1       284-3.47316E+06-5.96713E+05-1.10396E+05-1.34658E+06 1.71030E-09-7.46513E-09
 -1       285-3.43495E+06-4.48029E+05-1.71714E+05-1.32123E+06 8.56744E-10 3.69619E-09
 -1       301 2.11558E+04-5.27022E+04 1.56161E+05-1.01347E+05-6.33008E-10 1.05056E-08
 -1       302 2.22476E+04-1.31744E+04 1.03754E+05-1.49010E+05 9.34961E-10 2.63617E-09
 -1       303 1.12107E+03-3.72745E+04 8.16334E+04-1.01437E+05-6.68479E-10-5.41695E-09
 -1       304 2.77426E+04-7.48814E+03 1.22289E+05-1.48549E+05 8.73115E-10-2.41926E-09
 -1       305 2.68099E+04-5.73952E+04 1.97134E+05-1.01849E+05-7.27596E-10-2.06819E-09
 -1       306-5.67782E+06-6.12458E+05-4.29733E+05-2.14089E+06 8.84029E-10-2.32831E-09
 -1       307-5.63039E+06-1.15371E+06-2.79599E+05-2.28989E+06-2.03981E-08-1.71349E-09
 -1       308-5.82741E+06-6.63134E+05-1.00779E+05-2.00881E+06-3.13207E-09 1.37516E-09
 -1       309-5.46819E+06-1.09103E+06-5.84300E+04-2.45914E+06 6.21458E-09 1.51340E-09
 -1       310-5.85147E+06-6.63723E+05-2.27552E+04-1.98125E+06-5.60522E-09-9.27685E-10
 -1       311-5.47595E+06-1.02833E+06-9.34878E+03-2.40964E+06 2.30384E-08 1.13878E-08
 -1       312-5.81394E+06-7.29439E+05-1.23322E+04-2.05446E+06-2.85945E-09 1.99998E-08
 -1       313-5.59534E+06-8.64965E+05 4.33532E+03-2.20346E+06-1.74223E-08 1.54487E-08
 -1       314-5.71901E+06-8.36365E+05-1.60879E+04-2.17771E+06-2.87400E-09-7.39419E-09
 -1       315-5.80873E+06-6.68372E+05-6.72988E+03-1.98092E+06-2.40561E-08-5.57066E-10
 -1       316-5.60447E+06-9.23237E+05-2.96373E+04-2.27950E+06-2.23008E-08-6.30462E-09
 -1       317-5.99626E+06-5.66304E+05-6.68241E+04-1.85207E+06 1.03432E-08-1.14505E-08
 -1       318-5.54506E+06-9.29376E+05-1.12878E+05-2.31680E+06-3.02607E-08 1.61017E-08
 -1       319-6.08800E+06-7.70415E+05-3.27015E+05-1.82999E+06-1.22254E-08 7.51970E-09
 -1       320-5.51207E+06-7.23214E+05-4.88671E+05-2.29939E+06 1.78843E-08 3.23053E-09
 -1       336 5.61876E+02-1.12392E+06-6.32550E+03 2.36356E+03-1.11336E-08 3.83807E-10
 -1       337-2.33649E+03-1.12509E+06-7.00336E+03-5.83177E+03-2.02403E-08-5.66070E-09
 -1       338 3.78300E+02-1.12406E+06-9.21635E+03 3.44796E+03-1.40599E-08-8.58381E-09
 -1       339-9.52503E+03-1.12971E+06-2.01481E+04-7.95456E+03-2.62953E-08 5.69980E-09
 -1       340 6.31919E+03-1.11956E+06-3.12485E+04 4.46824E+03-1.72167E-08 2.23554E-08
 -1       406 1.89197E+01 2.82518E+05 4.66643E+02-1.13350E-01 2.72649E-10 1.96965E-08
 -1       407 1.63351E+02 2.82603E+05 9.91439E+02-4.06847E+00 5.40155E-11 1.09123E-08
 -1       408 5.11176E+02 2.82447E+05 1.98029E+03 4.28086E+00 2.44881E-10-2.45632E-09
 -1       409 2.14162E+03 2.83236E+05 4.45783E+03-4.21378E+01-9.41327E-11-1.71049E-08
 -1       410 6.15194E+03 2.81884E+05 9.10058E+03 3.96546E+01 3.56522E-10-1.40060E-08
 -1       521-8.17524E+06-7.90966E+05-7.90804E+05-2.55326E+06-1.20126E-08 2.31375E-08
 -1       522-5.66684E+06-2.10003E+06-2.02614E+05-3.95280E+06-9.47621E-08-1.00117E-08
 -1       523-8.17381E+06-3.38016E+05-1.55708E+05-1.79652E+06-2.47383E-10-4.64424E-08
 -1       524-6.03670E+06-2.27805E+06-3.55522E+04-4.96024E+06 9.69346E-08-9.52155E-08
 -1       525-8.17371E+06-3.37552E+05-4.32108E+04-1.76554E+06 8.60600E-08-5.78875E-08
 -1       526-5.58128E+06-1.94439E+06 1.34048E+05-4.10028E+06 5.10481E-08 1.01209E-08
 -1       527-8.29501E+06-9.17230E+05-2.15757E+05-2.46079E+06 1.94414E-08-5.38421E-10
 -1       528-5.75610E+06-8.97559E+05 2.71605E+05-2.31236E+06-4.48490E-08-1.42063E-08
 -1       529-7.65720E+06-1.62416E+06-2.34812E+05-3.26903E+06 2.29920E-09 1.47120E-08
 -1       530-7.76728E+06 4.03135E+05 1.58552E+05-1.32086E+06-9.03310E-08 8.13125E-08
 -1       531-6.59811E+06-1.98664E+06-6.21058E+04-3.64356E+06-9.45802E-08-3.30328E-09
 -1       532-9.30346E+06 9.99613E+05-3.02385E+04-1.23150E+06 8.45739E-08-8.16790E-08
 -1       533-6.45600E+06-1.99227E+06-1.30214E+05-3.67158E+06 1.70839E-08-1.52399E-07
 -1       534-8.31139E+06 4.05005E+05-2.06121E+05-1.23351E+06-4.53147E-08 1.18742E-07
 -1       535-7.34901E+06-1.55977E+06-7.40022E+05-3.40714E+06-9.31323E-09 7.46659E-08
 -1       536-3.90307E+05-1.90802E+04 3.32611E+04-1.33665E+04-1.91039E-09 3.05226E-08
 -1       537-3.31362E+05 2.14001E+04 3.13207E+04 3.20392E+04-3.56148E-08 3.41392E-08
 -1       538-3.61661E+05-2.06860E+03 9.95897E+03-1.95364E+04 1.05905E-08 2.35418E-08
 -1       539-3.48617E+05 3.04959E+03 8.20597E+03 3.49314E+04 4.94648E-08 4.39209E-08
 -1       540-3.73285E+05-5.38388E+02 4.15611E+01-1.62656E+04-4.13604E-09 2.59464E-08
 -1       541-3.12209E+05 1.98685E+03 1.10330E+04 1.99742E+04-6.41921E-09 2.31553E-08
 -1       542-3.97090E+05-1.82010E+03-6.87685E+03-4.55937E+03 3.54248E-10 1.58098E-08
 -1       543-2.96000E+05 2.21820E+03 1.29833E+04-5.98205E+03-1.52581E-08-1.45819E-08
 -1       544-3.89077E+05-1.13341E+03-6.22383E+03 9.67145E+03-7.22605E-09-1.26535E-08
 -1       545-3.30716E+05 1.12835E+02 4.49736E+03-2.87966E+04 3.44045E-09-2.81916E-08
 -1       546-3.63269E+05 1.02887E+03-3.10500E+03 1.82513E+04 3.21279E-09-3.42088E-08
 -1       547-3.55087E+05-3.39669E+03-5.30505E+03-3.66067E+04-3.46506E-08-2.99175E-08
 -1       548-3.65301E+05 2.88298E+03-1.17552E+04 1.74965E+04-3.36950E-08-2.11385E-08
 -1       549-3.32184E+05-1.72466E+04-2.09817E+04-2.59033E+04-2.14103E-08-1.29803E-08
 -1       550-3.85398E+05 1.42170E+04-4.80663E+04 7.53007E+03 1.65687E-09-5.65888E-09
 -1       551 1.72608E+04-5.80202E+05 2.43846E+04-9.65346E+05-4.70682E-08-2.80852E-09
 -1       552 3.91995E+04-5.91815E+05 3.18109E+04-1.37496E+06-3.65544E-08 2.45054E-08
 -1       553 2.79385E+04-5.97770E+05 4.65823E+04-9.61710E+05-5.88625E-08 1.11686E-08
 -1       554 6.58419E+04-5.87578E+05 9.75954E+04-1.37640E+06-3.64671E-08 3.46222E-09
 -1       555 5.61191E+04-6.16422E+05 1.73348E+05-9.62655E+05-5.76256E-08-4.87125E-09
 -1       556 1.00529E+05-1.86151E+05 6.21347E+04-2.35263E+05-9.86620E-09-6.30098E-09
 -1       557 1.76085E+05-2.47216E+05 3.28912E+04-2.95819E+05 6.02449E-09 7.07951E-09
 -1       558 9.87068E+04-1.93567E+05 1.29077E+04-2.28971E+05 1.28057E-09 2.40107E-09
 -1       559 1.63876E+05-2.55138E+05 6.67531E+03-3.01749E+05 1.00626E-08-1.14578E-08
 -1       560 9.51682E+04-1.91272E+05 2.53410E+03-2.31322E+05 9.86620E-09 1.32131E-08
 -1       561 1.58792E+05-2.53560E+05 1.43813E+03-3.05006E+05 2.41562E-09 9.94532E-09
 -1       562 9.23560E+04-1.89439E+05 4.35074E+02-2.33343E+05 8.51287E-10-1.38234E-08
 -1       563 1.55490E+05-2.52131E+05 3.52072E+02-3.07123E+05 8.30914E-09-4.96016E-10
 -1       564 9.05279E+04-1.88276E+05 9.58540E+01-2.34636E+05 5.52245E-09-6.23459E-09
 -1       565 1.53629E+05-2.51326E+05 1.13702E+02-3.08299E+05 4.22006E-10 8.36053E-09
 -1       566 8.97318E+04-1.87762E+05 1.64987E+01-2.35200E+05-1.59343E-09 3.46517E-09
 -1       567 1.53167E+05-2.51113E+05-5.84433E+01-3.08512E+05 1.32110E-08 3.07045E-09
 -1       568 9.00078E+04-1.87946E+05-2.94588E+02-2.35086E+05 8.20364E-10 8.84029E-09
 -1       569 1.53331E+05-2.50992E+05-7.08578E+02-3.07040E+05-5.45879E-09-6.78665E-09
 -1       570 9.19954E+04-1.89601E+05-1.66377E+03-2.34872E+05 5.52973E-09 2.91129E-09
 -1       571 2.09353E+05 7.67820E+03 1.13364E+04-5.43577E+04 6.35282E-10 2.97041E-09
 -1       572 2.11034E+05 2.69304E+03 5.55436E+03-5.96033E+04-1.58980E-09 1.62731E-09
 -1       573 2.10026E+05 6.64433E+02 2.46758E+03-5.42261E+04-1.53250E-10 1.29294E-08
 -1       574 2.10221E+05 2.40700E+02 1.23652E+03-5.97527E+04 5.32054E-11 2.74213E-09
 -1       575 2.10100E+05 5.96700E+01 5.82989E+02-5.42087E+04-3.62434E-10-5.71617E-10
 -1       576 2.10111E+05 4.22958E+01 2.97194E+02-5.97726E+04-7.61077E-10 1.08457E-08
 -1       577 2.10113E+05 2.58433E+01 1.47078E+02-5.42064E+04 1.24624E-09 6.32372E-09
 -1       578 2.10105E+05 2.98422E+01 8.16631E+01-5.97751E+04-2.06001E-10-2.34058E-09
 -1       579 2.10131E+05 2.02217E+01 5.23327E+01-5.42062E+04-9.00400E-11-2.00998E-09
 -1       580 2.10130E+05 1.92087E+01 5.31525E+01-5.97719E+04-1.99543E-09 1.35924E-09
 -1       581 2.10161E+05 7.96239E+00 7.62769E+01-5.42095E+04-3.65617E-10 8.91123E-09
 -1       582 2.10184E+05 2.07812E+01 1.49093E+02-5.97387E+04-1.55069E-10 4.63569E-09
 -1       583 2.10197E+05 5.33993E+01 2.87400E+02-5.42395E+04-1.30422E-09-8.11951E-09
 -1       584 2.10334E+05 2.79367E+02 6.45926E+02-5.94875E+04-1.33150E-09-5.06191E-09
 -1       585 2.10169E+05 8.46001E+02 1.31172E+03-5.44611E+04 1.29330E-09 6.13181E-09
 -1       586-2.53607E+03 6.90289E+04-3.21078E+03-1.86644E+05-2.40561E-10 6.48242E-10
 -1       587-5.66414E+02 6.86169E+04-1.85375E+02-2.05418E+05-3.36513E-10 1.89075E-08
 -1       588 7.19884E+02 6.86749E+04 2.70521E+03-1.86545E+05-5.47516E-10 1.37661E-08
 -1       589 3.78269E+03 7.01479E+04 7.64040E+03-2.05219E+05-3.56522E-10-1.67756E-08
 -1       590 1.10215E+04 6.78081E+04 1.62721E+04-1.86850E+05-6.90306E-10 1.90266E-09
 -1       591-4.55002E+04-1.19421E+04-1.49956E+04-2.24928E+04 1.89095E-09-2.52840E-10
 -1       592-4.72687E+04-1.55809E+04-8.16298E+03-2.60100E+04-5.75255E-10 3.47777E-08
 -1       593-4.70556E+04-1.10236E+04-3.39069E+03-2.35214E+04 8.61974E-10-4.09636E-09
 -1       594-4.51566E+04-1.33480E+04-1.69365E+03-2.61157E+04 2.24810E-09-8.57426E-09
 -1       595-4.71745E+04-1.10248E+04-7.77405E+02-2.35701E+04-9.92554E-09-1.32047E-08
 -1       596-4.50117E+04-1.32427E+04-3.96266E+02-2.61012E+04-8.15139E-09 2.24514E-09
 -1       597-4.71894E+04-1.10344E+04-2.17724E+02-2.35722E+04-9.94145E-09-7.43893E-09
 -1       598-4.49978E+04-1.32385E+04-1.78738E+02-2.60970E+04-2.22263E-09 5.80508E-09
 -1       599-4.71882E+04-1.10346E+04-2.32944E+02-2.35718E+04 2.92755E-09 7.37327E-09
 -1       600-4.50130E+04-1.32440E+04-4.36582E+02-2.61004E+04-1.81876E-09 3.22802E-09
 -1       601-4.71697E+04-1.10245E+04-8.62962E+02-2.35687E+04 1.55796E-09 6.95832E-09
 -1       602-4.51737E+04-1.33608E+04-1.88368E+03-2.61143E+04 3.42084E-10-4.71687E-09
 -1       603-4.70356E+04-1.10252E+04-3.77246E+03-2.35148E+04-2.28397E-09 6.57019E-09
 -1       604-4.75325E+04-1.58351E+04-9.08215E+03-2.59834E+04-1.29330E-09 1.57388E-09
 -1       605-4.52937E+04-1.20560E+04-1.66841E+04-2.23801E+04 1.21668E-09-1.02227E-09
 -1       606 2.76315E+04-1.00546E+04-1.80875E+04 2.68054E+04-1.08857E-08-5.96719E-09
 -1       607 2.45348E+04-3.25124E+03-9.00655E+03 3.00932E+04-1.80926E-08-1.03453E-08
 -1       608 2.62904E+04-5.55946E+02-4.03337E+03 2.65935E+04-7.84712E-09-4.94310E-09
 -1       609 2.59415E+04-1.52097E+02-2.03709E+03 3.03292E+04-3.21688E-09-1.62640E-09
 -1       610 2.61271E+04 1.74881E+01-9.73086E+02 2.65697E+04-5.60249E-09-3.43766E-09
 -1       611 2.60618E+04 3.01863E+01-4.90662E+02 3.03549E+04-5.88352E-09-7.88827E-09
 -1       612 2.60830E+04 3.40453E+01-2.34618E+02 2.65674E+04-6.98492E-10 4.03520E-09
 -1       613 2.60585E+04 3.94748E+01-1.06445E+02 3.03579E+04-4.71846E-09 3.02794E-09
 -1       614 2.60586E+04 3.51856E+01-2.87098E+01 2.65666E+04-3.01225E-09 2.01248E-09
 -1       615 2.60456E+04 4.55246E+01 3.59115E+01 3.03584E+04 4.43106E-09 1.10331E-08
 -1       616 2.60400E+04 4.14891E+01 1.15638E+02 2.65669E+04-3.97722E-09-2.69665E-10
 -1       617 2.60527E+04 7.43989E+01 2.67158E+02 3.03578E+04 5.38193E-10-7.47832E-10
 -1       618 2.60116E+04 1.21753E+02 5.39591E+02 2.65670E+04 1.13459E-09 1.25897E-09
 -1       619 2.62391E+04 4.94296E+02 1.21253E+03 3.03571E+04-1.70394E-09 1.97406E-09
 -1       620 2.58298E+04 1.40380E+03 2.43729E+03 2.65659E+04 1.10811E-09-8.70523E-09
 -1       621 2.97822E+02 2.20284E+05 2.66410E+03 1.15658E+04-7.61702E-11-2.85104E-09
 -1       622 3.50881E+02 2.20940E+05 2.36278E+03 1.68570E+04-7.67386E-11-9.71647E-09
 -1       623 1.71544E+01 2.20456E+05 2.84932E+03 1.15122E+04-7.06279E-12-8.67340E-09
 -1       624 1.32765E+03 2.21830E+05 5.52604E+03 1.69096E+04-2.47269E-11-7.54693E-09
 -1       625 1.33437E+03 2.19380E+05 9.66105E+03 1.15131E+04 3.77440E-11-5.53086E-09
 -1       626 1.88302E+05 5.07976E+04 3.92277E+03 9.98439E+04-3.63434E-09-1.01318E-09
 -1       627 1.85917E+05 5.24754E+04 1.89035E+03 1.03796E+05-4.96993E-09-6.60543E-09
 -1       628 1.88432E+05 4.89601E+04 7.98495E+02 1.00456E+05 7.99719E-09-3.96312E-09
 -1       629 1.85370E+05 5.20088E+04 3.91225E+02 1.04031E+05 2.60502E-08-2.71393E-09
 -1       630 1.88439E+05 4.88739E+04 1.80770E+02 1.00474E+05 1.56551E-08 4.33079E-09
 -1       631 1.85304E+05 5.19970E+04 9.69150E+01 1.04031E+05-2.56159E-09-6.96062E-10
 -1       632 1.88430E+05 4.88809E+04 6.31642E+01 1.00466E+05-6.63749E-09 2.97069E-09
 -1       633 1.85290E+05 5.20024E+04 6.94823E+01 1.04024E+05-4.45107E-09-3.65549E-09
 -1       634 1.88419E+05 4.88819E+04 1.11426E+02 1.00461E+05 4.76484E-09 1.55433E-09
 -1       635 1.85295E+05 5.20039E+04 2.25229E+02 1.04023E+05-2.47337E-09-3.68118E-09
 -1       636 1.88408E+05 4.88807E+04 4.54557E+02 1.00458E+05-2.50793E-10-9.86597E-09
 -1       637 1.85388E+05 5.20759E+04 9.98908E+02 1.04019E+05-1.03717E-09-7.30051E-09
 -1       638 1.88370E+05 4.91029E+04 2.05270E+03 1.00356E+05 1.89675E-09 2.70893E-09
 -1       639 1.86464E+05 5.35763E+04 4.85612E+03 1.03700E+05-2.55045E-09-1.29614E-08
 -1       640 1.88226E+05 5.35738E+04 1.00775E+04 9.84601E+04-8.92669E-10-4.67662E-09
 -1       656 5.03178E+04-1.27620E+06-1.21466E+05-4.34094E+02 4.51109E-10 7.01621E-09
 -1       657-6.65082E+04-1.33103E+06-1.00491E+05 7.57536E+03-4.69299E-10 1.64378E-08
 -1       658 1.59755E+04-1.29182E+06-6.17170E+04-1.77223E+03 1.48816E-10 8.01398E-09
 -1       659-7.14491E+04-1.33337E+06-1.06981E+05 8.50563E+03-1.96906E-09-1.03637E-08
 -1       660 5.52472E+04-1.27386E+06-1.32626E+05-1.36435E+03-9.53150E-10 2.00308E-09
 -1       661 1.68296E+05 1.82444E+04 1.63714E+04 6.58024E+04 1.60026E-09 1.42973E-08
 -1       662 1.76960E+05 3.09501E+04 1.10318E+04 6.28021E+04 1.91039E-09-1.75282E-09
 -1       663 1.71507E+05 2.34999E+04 3.85891E+03 6.48737E+04 1.15779E-09-8.85211E-09
 -1       664 1.73242E+05 2.47998E+04 2.30736E+03 6.39328E+04 9.56334E-10-6.70377E-09
 -1       665 1.71990E+05 2.42219E+04 9.10184E+02 6.47370E+04-7.20888E-10 5.59297E-09
 -1       666 1.72675E+05 2.39707E+04 5.31118E+02 6.41090E+04-4.64033E-09 9.84077E-09
 -1       667 1.72072E+05 2.43072E+04 2.80378E+02 6.47056E+04-3.80794E-09 4.31664E-09
 -1       668 1.72587E+05 2.39050E+04 2.81747E+02 6.41544E+04 7.13399E-10 9.12000E-09
 -1       669 1.72078E+05 2.42857E+04 3.78190E+02 6.46922E+04-1.89699E-09 1.44607E-08
 -1       670 1.72680E+05 2.41068E+04 8.20500E+02 6.41553E+04 4.43200E-09-3.79032E-09
 -1       671 1.71978E+05 2.41095E+04 1.45583E+03 6.47031E+04-2.77110E-09-5.86454E-09
 -1       672 1.73528E+05 2.55230E+04 3.72391E+03 6.39504E+04-7.20059E-09-9.78429E-09
 -1       673 1.71234E+05 2.29051E+04 6.24037E+03 6.48834E+04-3.06011E-09-6.62499E-09
 -1       674 1.79470E+05 3.55469E+04 1.78460E+04 6.22036E+04-1.27687E-09 2.76850E-09
 -1       675 1.66075E+05 1.43659E+04 2.64893E+04 6.63442E+04 7.89896E-10-1.63891E-09
 -1       676 2.00465E+01-2.40629E+05-9.30982E+02 2.76080E+01-1.16876E-09-1.49079E-09
 -1       677-2.47186E+02-2.40854E+05-1.70381E+03-5.51846E+01-4.62018E-09-4.94965E-09
 -1       678 1.65042E+02-2.40468E+05-3.01190E+03 2.75576E+01-1.18337E-09 3.20672E-09
 -1       679-3.01267E+03-2.42672E+05-7.15483E+03-5.49912E+01-4.14957E-11-1.89820E-08
 -1       680 1.79799E+03-2.38811E+05-1.15312E+04 2.71010E+01 1.47429E-09-5.57168E-09
 -1       771-2.56521E+06-4.90845E+05-7.15228E+04-1.10885E+06-1.41881E-08-1.26311E-08
 -1       772-2.53630E+06-5.35128E+05-3.78629E+04-1.15891E+06-1.08339E-08 4.54020E-09
 -1       773-2.57682E+06-4.81701E+05-1.72977E+04-1.11302E+06-7.97445E-09 5.52973E-09
 -1       774-2.52748E+06-5.27436E+05-8.16029E+03-1.16625E+06 1.19035E-08 2.73758E-09
 -1       775-2.58095E+06-4.78813E+05-4.79884E+03-1.11391E+06-6.82485E-09 2.22281E-09
 -1       776-2.52875E+06-5.27393E+05-2.02538E+03-1.17100E+06-9.52423E-09 9.57698E-09
 -1       777-2.58421E+06-4.76407E+05-1.68687E+03-1.11464E+06-2.37196E-09 3.65981E-09
 -1       778-2.53051E+06-5.27508E+05-5.87211E+02-1.17501E+06-1.25146E-09 3.40151E-10
 -1       779-2.58691E+06-4.74357E+05-7.66549E+02-1.11529E+06-2.85218E-09-3.53430E-09
 -1       780-2.53211E+06-5.27570E+05-2.76311E+02-1.17825E+06-5.86442E-09-9.71340E-10
 -1       781-2.58899E+06-4.72729E+05-5.21165E+02-1.11579E+06-1.84154E-08-7.34872E-09
 -1       782-2.53339E+06-5.27608E+05-5.16989E+02-1.18063E+06-1.76151E-08-3.54635E-09
 -1       783-2.59039E+06-4.71632E+05-1.06216E+03-1.11613E+06-2.60479E-09-6.95854E-09
 -1       784-2.53475E+06-5.28221E+05-2.32335E+03-1.18206E+06-9.20409E-09 2.83762E-10
 -1       785-2.59069E+06-4.71385E+05-4.33597E+03-1.11600E+06-1.59289E-08 3.07045E-09
 -1       786 1.58064E+05-9.43551E+03 2.18292E+04-7.32647E+01 1.13277E-09-1.64619E-10
 -1       787 1.67525E+05 1.09234E+04 1.54435E+04 1.60284E+01 2.20963E-09 3.96813E-09
 -1       788 1.61714E+05-1.47910E+03 5.64934E+03-5.57415E+01 9.40739E-10 2.43267E-09
 -1       789 1.63274E+05 1.71133E+03 3.54868E+03-1.28084E+01 1.51155E-10 6.26471E-10
 -1       790 1.62316E+05-2.30961E+02 1.44202E+03-4.44303E+01 7.45155E-11 4.42265E-09
 -1       791 1.62571E+05 2.67791E+02 8.42907E+02-3.34448E+01-3.81730E-10 2.19221E-09
 -1       792 1.62417E+05-3.66420E+01 3.77322E+02-3.51051E+01-7.83274E-10-6.37448E-09
 -1       793 1.62455E+05 4.78908E+01 2.32228E+02-5.27607E+01-3.27041E-10-3.56073E-09
 -1       794 1.62432E+05-1.12034E+01 1.49047E+02-2.51141E+01 4.90034E-10-4.31788E-09
 -1       795 1.62453E+05 4.90541E+01 1.82391E+02-7.60853E+01-4.03731E-10 1.19810E-08
 -1       796 1.62419E+05-3.78012E+01 2.53116E+02-1.17802E+01 5.92846E-10-1.05043E-08
 -1       797 1.62563E+05 2.75119E+02 5.80222E+02-1.09638E+02-3.04584E-10 1.78090E-09
 -1       798 1.62323E+05-2.37105E+02 9.10465E+02 8.43936E+00 8.18385E-11 6.39778E-09
 -1       799 1.63244E+05 1.75044E+03 2.47740E+03-1.62463E+02 7.04099E-10 4.40920E-09
 -1       800 1.61737E+05-1.51194E+03 3.49797E+03 4.10461E+01 3.48681E-11 8.28550E-10
 -1       801 5.10913E+04-1.86865E+06-1.69021E+05 3.41955E+04 1.49230E-08-5.22186E-09
 -1       802-5.69254E+04-1.70448E+06-6.57746E+04-6.17053E+04 4.13474E-08 2.47792E-09
 -1       803 5.17061E+03-1.78098E+06-9.81750E+03 8.72165E+04 3.18760E-08 2.76220E-08
 -1       804 5.21546E+04-1.65068E+06 7.78708E+04-4.18140E+04 3.45171E-08 3.07870E-08
 -1       805-5.87091E+04-1.92184E+06 7.69804E+04 1.42963E+04 1.27548E-08 2.19695E-08
 -1       806-2.29238E+05-4.60869E+04-1.80784E+04-9.23713E+04-4.27235E-09-1.04305E-08
 -1       807-2.30575E+05-4.32233E+04-8.88165E+03-9.68500E+04 1.64448E-09 4.19658E-09
 -1       808-2.29734E+05-3.95715E+04-3.76769E+03-9.54538E+04-4.42333E-09 1.87381E-09
 -1       809-2.28697E+05-4.07392E+04-1.84213E+03-9.70835E+04-1.04110E-08-4.01360E-09
 -1       810-2.29812E+05-3.93432E+04-8.43796E+02-9.55902E+04-1.87583E-09 2.96291E-09
 -1       811-2.28552E+05-4.06400E+04-4.18959E+02-9.70586E+04 1.59707E-09-1.87129E-09
 -1       812-2.29825E+05-3.93613E+04-2.10208E+02-9.55899E+04-2.70120E-09-9.17544E-09
 -1       813-2.28533E+05-4.06420E+04-1.34242E+02-9.70459E+04-1.49089E-09-3.31545E-09
 -1       814-2.29821E+05-3.93681E+04-1.28824E+02-9.55870E+04-1.57888E-09-7.65431E-09
 -1       815-2.28536E+05-4.06439E+04-2.04207E+02-9.70418E+04 2.67892E-09 1.02873E-08
 -1       816-2.29807E+05-3.93667E+04-3.84470E+02-9.55845E+04-3.67800E-09 3.07682E-09
 -1       817-2.28602E+05-4.06806E+04-8.24735E+02-9.70347E+04-2.94676E-10 1.00868E-08
 -1       818-2.29759E+05-3.94823E+04-1.68134E+03-9.55297E+04-3.18232E-09 9.72204E-09
 -1       819-2.29526E+05-4.16940E+04-3.95680E+03-9.68155E+04-2.34832E-09 1.87629E-08
 -1       820-2.29444E+05-4.24693E+04-8.05303E+03-9.42501E+04-5.54064E-09 5.47857E-09
 -1       821-2.87628E+05 1.59729E+04-3.69400E+04 2.38496E+02 9.19247E-10-2.46291E-09
 -1       822-3.03633E+05-1.84914E+04-2.61402E+04-9.12218E+02-1.75780E-09-3.64798E-09
 -1       823-2.93803E+05 2.50447E+03-9.56730E+03 2.40522E+02-5.39888E-10-3.22871E-11
 -1       824-2.96424E+05-2.89849E+03-6.01883E+03-7.48823E+02 6.20536E-10-5.87875E-10
 -1       825-2.94834E+05 3.91785E+02-2.47572E+03 7.50988E+01-9.91211E-10-3.49223E-09
 -1       826-2.95221E+05-4.61752E+02-1.49041E+03-3.23510E+02-3.19575E-09-1.06008E-08
 -1       827-2.95006E+05 6.91032E+01-7.76188E+02-1.84799E+02-3.35182E-09-5.50969E-09
 -1       828-2.95060E+05-1.40750E+02-6.81444E+02 1.78904E+02-5.01076E-09 7.28831E-10
 -1       829-2.94995E+05 7.10816E+01-7.88562E+02-4.27323E+02 3.17225E-10 5.34152E-09
 -1       830-2.95254E+05-4.75691E+02-1.53711E+03 5.41991E+02 2.00863E-09-2.36321E-09
 -1       831-2.94812E+05 4.04245E+02-2.54774E+03-5.47894E+02-2.62822E-09 1.44269E-10
 -1       832-2.96482E+05-2.98815E+03-6.20838E+03 6.09771E+02-1.18286E-09 4.54258E-09
 -1       833-2.93768E+05 2.58184E+03-9.86686E+03-4.95104E+02-1.71257E-09 6.58110E-09
 -1       834-3.03885E+05-1.90676E+04-2.69541E+04 3.53584E+02-1.55571E-09-6.96127E-09
 -1       835-2.87411E+05 1.64710E+04-3.80995E+04-2.91695E+02 6.73746E-09-2.19188E-09
 -1       836-9.63381E+02 2.71915E+05 1.63414E+04-1.96826E+04 7.73070E-10 6.00312E-09
 -1       837 3.57955E+03 2.76986E+05 1.39962E+04-3.95470E+04 1.40153E-09-1.54755E-08
 -1       838-3.63341E+02 2.73315E+05 1.44955E+04-1.96125E+04 1.22463E-09-3.18278E-09
 -1       839 9.31117E+03 2.81258E+05 2.76518E+04-3.95788E+04 1.82763E-09-3.07728E-09
 -1       840-2.81178E+03 2.67603E+05 4.41934E+04-1.96495E+04 1.20235E-09-7.87622E-10
 -1       856-8.01498E+04 7.44541E+03-1.96209E+04-4.30651E+02-3.97449E-10-1.61526E-09
 -1       857-8.82525E+04-8.73339E+03-1.35083E+04 4.57915E+03-1.03822E-09-9.84232E-09
 -1       858-8.33517E+04 1.04323E+03-5.09206E+03-4.52130E+02-3.42112E-09-1.10208E-09
 -1       859-8.45760E+04-1.21358E+03-3.07498E+03 4.61326E+03-2.02742E-09 7.01510E-09
 -1       860-8.38303E+04 1.45117E+02-1.29229E+03-4.64864E+02 5.11591E-13 1.12649E-08
 -1       861-8.40249E+04-1.60617E+02-7.18408E+02 4.63070E+03-4.69532E-09 5.05503E-09
 -1       862-8.39048E+04 1.91729E+01-3.13675E+02-4.69599E+02 4.03021E-09-7.66249E-09
 -1       863-8.39362E+04-1.11627E+01-1.48411E+02 4.63289E+03 7.85379E-09-7.81360E-09
 -1       864-8.39193E+04-1.03174E+00-3.30646E+01-4.67062E+02 3.86972E-09-1.34655E-09
 -1       865-8.39058E+04 3.00680E+01 6.57460E+01 4.62000E+03 5.21618E-09 3.32368E-09
 -1       866-8.39337E+04-2.24982E+01 1.71909E+02-4.56700E+02-9.96295E-10-7.42710E-09
 -1       867-8.38141E+04 1.87844E+02 4.48618E+02 4.59184E+03 3.52247E-09-7.18799E-10
 -1       868-8.40075E+04-1.57197E+02 7.51393E+02-4.38905E+02-9.71909E-10-6.63715E-09
 -1       869-8.32551E+04 1.30549E+03 2.01037E+03 4.54528E+03-3.81308E-09-1.22322E-08
 -1       870-8.44873E+04-1.11160E+03 2.91591E+03-4.10142E+02 2.06353E-09-1.40176E-09
 -1       871-4.29297E+03-9.75634E+03-1.40152E+04 9.24973E+04 2.04091E-09-2.94131E-09
 -1       872-1.84156E+03-1.29070E+04-5.73415E+03 1.19920E+05 2.21917E-09-6.06474E-09
 -1       873-1.82374E+01-1.14347E+04 7.61793E+02 9.22943E+04 1.82695E-09-8.93317E-09
 -1       874 2.15610E+03-9.43225E+03 7.82247E+03 1.19959E+05 2.22371E-09 8.98149E-09
 -1       875 5.05391E+03-1.32901E+04 1.73837E+04 9.24646E+04 2.48201E-09 6.98719E-09
 -1       876 2.26345E+05 3.88772E+04 1.20091E+04 9.16897E+04-1.93052E-09-1.69675E-08
 -1       877 2.27050E+05 4.14948E+04 6.41320E+03 9.52209E+04 4.28827E-10-7.71593E-09
 -1       878 2.27467E+05 3.75483E+04 2.68682E+03 9.26760E+04 1.82990E-09-2.87241E-09
 -1       879 2.25417E+05 3.98675E+04 1.33851E+03 9.53049E+04-3.67095E-10-3.75297E-09
 -1       880 2.27548E+05 3.75339E+04 6.23216E+02 9.27162E+04-5.48243E-09-6.53159E-09
 -1       881 2.25308E+05 3.97982E+04 3.32133E+02 9.52875E+04-8.15226E-09 8.88619E-09
 -1       882 2.27556E+05 3.75439E+04 2.11318E+02 9.27173E+04-1.43791E-09-1.56528E-09
 -1       883 2.25301E+05 3.97949E+04 2.25301E+02 9.52823E+04 1.90573E-09-4.41560E-10
 -1       884 2.27551E+05 3.75414E+04 3.56697E+02 9.27175E+04-2.99707E-09-6.22686E-09
 -1       885 2.25329E+05 3.98000E+04 7.16096E+02 9.52912E+04 1.84932E-09-1.28395E-08
 -1       886 2.27524E+05 3.75205E+04 1.44276E+03 9.27146E+04 1.75035E-09 6.72037E-09
 -1       887 2.25582E+05 3.99662E+04 3.15133E+03 9.53278E+04-1.30845E-09 3.09592E-09
 -1       888 2.27325E+05 3.75555E+04 6.34998E+03 9.26137E+04 4.53079E-09-1.93813E-09
 -1       889 2.29366E+05 4.38951E+04 1.51695E+04 9.52086E+04 2.17522E-10-4.03452E-09
 -1       890 2.24738E+05 4.06287E+04 2.84114E+04 9.01912E+04 3.65389E-09 2.61934E-09
 -1       891-1.35612E+02-1.28062E+05-1.52356E+03 2.38309E+04-7.83757E-10 8.84972E-09
 -1       892-2.37268E+02-1.28430E+05-1.65288E+03 3.60707E+04 6.61657E-11 1.04767E-08
 -1       893-3.48419E+01-1.28110E+05-2.35748E+03 2.38358E+04 6.94399E-10 2.50338E-09
 -1       894-1.28032E+03-1.29329E+05-4.89148E+03 3.59417E+04 1.07684E-09 1.14285E-08
 -1       895-1.00283E+03-1.27090E+05-8.61884E+03 2.39584E+04-1.01500E-09 1.45610E-09
 -1       956-2.85698E+05-4.06638E+03-1.02258E+04 1.92878E+04-3.09592E-09-5.99243E-10
 -1       957-2.87717E+05-1.37468E+03-5.24942E+03 2.32274E+04-1.54614E-09-1.87865E-08
 -1       958-2.86607E+05-1.12577E+02-2.36508E+03 1.91664E+04 2.01908E-09-3.48632E-09
 -1       959-2.86767E+05-2.22023E+01-1.20801E+03 2.33597E+04-3.49382E-09 6.06576E-09
 -1       960-2.86689E+05 3.14945E+01-5.88923E+02 1.91547E+04-4.10546E-09 4.89194E-09
 -1       961-2.86699E+05 2.93502E+01-3.12406E+02 2.33731E+04-2.38197E-09-2.80102E-09
 -1       962-2.86706E+05 2.78302E+01-1.78754E+02 1.91529E+04 1.68029E-10-3.42561E-09
 -1       963-2.86696E+05 3.09307E+01-1.43349E+02 2.33755E+04-5.27848E-10 1.26929E-08
 -1       964-2.86709E+05 2.99813E+01-1.73873E+02 1.91522E+04 9.15179E-11 2.39743E-09
 -1       965-2.86707E+05 3.39955E+01-3.00332E+02 2.33755E+04 1.70411E-09 1.50749E-10
 -1       966-2.86700E+05 3.78678E+01-5.63740E+02 1.91529E+04 3.52657E-10 3.07864E-09
 -1       967-2.86781E+05-1.08119E+01-1.15621E+03 2.33677E+04 5.85578E-09 1.09844E-08
 -1       968-2.86628E+05-9.57424E+01-2.26272E+03 1.91601E+04 3.17641E-09 4.35932E-10
 -1       969-2.87697E+05-1.30130E+03-5.02388E+03 2.32836E+04 2.54545E-09-2.65013E-09
 -1       970-2.85764E+05-3.87701E+03-9.78558E+03 1.92391E+04 9.94532E-10-5.47516E-10
 -1       971-2.69441E+05-1.40861E+03-7.81552E+03 1.29212E+04-9.34324E-09 5.81935E-10
 -1       972-2.71341E+05-1.01099E+03-4.25627E+03 1.80382E+04-1.41922E-08-6.39466E-09
 -1       973-2.70311E+05-1.15827E+01-1.90595E+03 1.28136E+04-3.64616E-09-2.95790E-09
 -1       974-2.70442E+05-1.19962E+01-9.87426E+02 1.81549E+04 8.17636E-10-3.24917E-09
 -1       975-2.70378E+05 2.52168E+01-4.92608E+02 1.28036E+04-1.18689E-09-4.61523E-09
 -1       976-2.70389E+05 2.91218E+01-2.82451E+02 1.81671E+04-4.33465E-09-1.62909E-08
 -1       977-2.70392E+05 2.51615E+01-2.01873E+02 1.28013E+04 3.29010E-10 6.18911E-10
 -1       978-2.70392E+05 3.38005E+01-2.31975E+02 1.81703E+04 8.71182E-09 3.05397E-09
 -1       979-2.70391E+05 3.15035E+01-3.69048E+02 1.28003E+04-4.75802E-09 6.28825E-09
 -1       980-2.70419E+05 3.61035E+01-7.10288E+02 1.81709E+04-1.09725E-08-7.42432E-09
 -1       981-2.70369E+05 4.91930E+01-1.37446E+03 1.28007E+04-8.15089E-09-4.80497E-09
 -1       982-2.70608E+05-6.53761E+01-2.84030E+03 1.81654E+04-4.11183E-09 7.24073E-09
 -1       983-2.70196E+05-3.87043E+01-5.51836E+03 1.28060E+04-1.36833E-09 7.73434E-09
 -1       984-2.73262E+05-2.94722E+03-1.23576E+04 1.80923E+04-8.91305E-10-1.90198E-09
 -1       985-2.67698E+05-4.07666E+03-2.26925E+04 1.28783E+04 2.62116E-09 2.63753E-10
 -3
    1PSTEP                        13           7           1          
  100CL  107 5.74219E-01         409                     0    7           1
 -4  DISP        4    1
 -5  D1          1    2    1    0
 -5  D2          1    2    2    0
 -5  D3          1    2    3    0
 -5  ALL         1    2    0    0    1ALL
 -1         1 5.32960E-04 0.00000E+00 0.00000E+00
 -1         2 4.92090E-04 5.23517E-29 0.00000E+00
 -1         3 2.15172E-04 3.69098E-28 0.00000E+00
 -1         5 1.29515E-04-1.68114E-26 3.30872E-24
 -1         8 5.10124E-04-7.45290E-07 0.00000E+00
 -1         9 4.92258E-04-1.89144E-06 0.00000E+00
 -1        10 1.96690E-04-2.81378E-06 6.61744E-24
 -1        12 1.29686E-04 6.38302E-07-1.65436E-24
 -1        15 4.82831E-04-8.26202E-07-2.06795E-25
 -1        16 4.89067E-04-2.33001E-06 0.00000E+00
 -1        17 1.38810E-04-6.08432E-06 0.00000E+00
 -1        18 1.28911E-04 1.10203E-05 0.00000E+00
 -1        19 1.30199E-04 1.27336E-06 0.00000E+00
 -1        20 1.30347E-04 8.44898E-06 0.00000E+00
 -1        21 1.29679E-04 1.36345E-05 3.30872E-24
 -1        24 2.47557E-05-8.58382E-06 0.00000E+00
 -1        25 1.31280E-04 1.11749E-05 0.00000E+00
 -1        26 1.31999E-04 1.76373E-06 0.00000E+00
 -1        27 1.30251E-04 5.54843E-06 0.00000E+00
 -1        28 1.29825E-04 1.31003E-05 0.00000E+00
 -1        32 0.00000E+00 0.00000E+00 0.00000E+00
 -1        33 1.32705E-04 2.36436E-06 0.00000E+00
 -1        34 1.30964E-04 5.51827E-06 0.00000E+00
 -1        35 1.29340E-04 1.28138E-05 0.00000E+00
 -1        51 5.31480E-04-1.27994E-07 0.00000E+00
 -1        52 5.28733E-04-2.47128E-07 0.00000E+00
 -1        53 5.24965E-04-3.66402E-07 0.00000E+00
 -1        54 5.20436E-04-4.87663E-07-3.30872E-24
 -1        55 5.15403E-04-6.12033E-07-2.89513E-24
 -1        56 5.30734E-04-7.27195E-07-5.29396E-23
 -1        57 5.28352E-04-1.28337E-06 0.00000E+00
 -1        58 5.25895E-04-1.62493E-06-5.29396E-23
 -1        59 5.23344E-04-1.75842E-06-2.64698E-23
 -1        60 5.20720E-04-1.70106E-06 5.29396E-23
 -1        61 5.18035E-04-1.48596E-06 2.64698E-23
 -1        62 5.15308E-04-1.16205E-06 5.29396E-23
 -1        63 5.12561E-04-7.84892E-07-2.64698E-23
 -1        64 5.09816E-04-4.15404E-07 5.29396E-23
 -1        65 5.07098E-04-1.14105E-07-2.64698E-23
 -1        66 5.04425E-04 6.56613E-08 0.00000E+00
 -1        67 5.01818E-04 7.76685E-08 0.00000E+00
 -1        68 4.99286E-04-1.07505E-07-5.29396E-23
 -1        69 4.96846E-04-5.03969E-07 0.00000E+00
 -1        70 4.94482E-04-1.11291E-06 0.00000E+00
 -1        86 4.92096E-04-3.11626E-07 0.00000E+00
 -1        87 4.92114E-04-6.23653E-07 6.61744E-24
 -1        88 4.92141E-04-9.35743E-07-1.32349E-23
 -1        89 4.92177E-04-1.25037E-06-6.61744E-24
 -1        90 4.92217E-04-1.56414E-06 1.32349E-23
 -1       121 2.14654E-04-4.62906E-07 0.00000E+00
 -1       122 2.13101E-04-9.26850E-07 0.00000E+00
 -1       123 2.10519E-04-1.39285E-06 0.00000E+00
 -1       124 2.06915E-04-1.86198E-06-6.61744E-24
 -1       125 2.02300E-04-2.33508E-06 0.00000E+00
 -1       191 1.29520E-04 1.06388E-07 0.00000E+00
 -1       192 1.29534E-04 2.12774E-07 1.65436E-24
 -1       193 1.29558E-04 3.19161E-07 0.00000E+00
 -1       194 1.29591E-04 4.25546E-07-1.65436E-24
 -1       195 1.29634E-04 5.31927E-07 3.30872E-24
 -1       251 5.09519E-04-5.40228E-06 1.32349E-23
 -1       252 5.08661E-04-2.83082E-05-6.61744E-24
 -1       253 5.07427E-04-6.48473E-05 0.00000E+00
 -1       254 5.05849E-04-1.10068E-04 0.00000E+00
 -1       255 5.04217E-04-1.56561E-04 0.00000E+00
 -1       256 5.02842E-04-1.96885E-04 0.00000E+00
 -1       257 5.01846E-04-2.25353E-04 0.00000E+00
 -1       258 5.01180E-04-2.36566E-04-6.61744E-24
 -1       259 5.00551E-04-2.29950E-04 0.00000E+00
 -1       260 4.99653E-04-2.05374E-04 0.00000E+00
 -1       261 4.98377E-04-1.67720E-04 0.00000E+00
 -1       262 4.96786E-04-1.22191E-04 6.61744E-24
 -1       263 4.95176E-04-7.62230E-05 0.00000E+00
 -1       264 4.93852E-04-3.72646E-05 0.00000E+00
 -1       265 4.92907E-04-1.07696E-05 0.00000E+00
 -1       266 5.05576E-04-7.69424E-07 0.00000E+00
 -1       267 5.01027E-04-7.81612E-07-8.27181E-25
 -1       268 4.96478E-04-7.94556E-07 0.00000E+00
 -1       269 4.91929E-04-8.05258E-07 0.00000E+00
 -1       270 4.87380E-04-8.15909E-07 0.00000E+00
 -1       271 5.07394E-04 3.02218E-06 2.64698E-23
 -1       272 5.04886E-04 6.08794E-06 0.00000E+00
 -1       273 5.02637E-04 8.47416E-06 0.00000E+00
 -1       274 5.00633E-04 1.01960E-05 0.00000E+00
 -1       275 4.98867E-04 1.12838E-05 0.00000E+00
 -1       276 4.97324E-04 1.17750E-05-1.32349E-23
 -1       277 4.95988E-04 1.17171E-05 0.00000E+00
 -1       278 4.94836E-04 1.11654E-05 0.00000E+00
 -1       279 4.93846E-04 1.01833E-05-2.64698E-23
 -1       280 4.92991E-04 8.84032E-06 1.32349E-23
 -1       281 4.92243E-04 7.21186E-06-2.64698E-23
 -1       282 4.91572E-04 5.37758E-06-1.32349E-23
 -1       283 4.90948E-04 3.42026E-06 0.00000E+00
 -1       284 4.90342E-04 1.42582E-06 0.00000E+00
 -1       285 4.89717E-04-5.22096E-07-2.64698E-23
 -1       301 4.91691E-04-1.98180E-06 6.61744E-24
 -1       302 4.90756E-04-2.04703E-06 0.00000E+00
 -1       303 4.89738E-04-2.11072E-06 0.00000E+00
 -1       304 4.88926E-04-2.17429E-06 0.00000E+00
 -1       305 4.88608E-04-2.23942E-06 0.00000E+00
 -1       306 5.06588E-04-5.28587E-05 0.00000E+00
 -1       307 5.47370E-04-2.00950E-04-2.64698E-23
 -1       308 6.02397E-04-4.21671E-04 0.00000E+00
 -1       309 6.63009E-04-6.83294E-04-2.64698E-23
 -1       310 7.23421E-04-9.43366E-04 0.00000E+00
 -1       311 7.77708E-04-1.15957E-03 2.64698E-23
 -1       312 8.16944E-04-1.30106E-03-1.05879E-22
 -1       313 8.28735E-04-1.34445E-03 0.00000E+00
 -1       314 8.02495E-04-1.28869E-03 0.00000E+00
 -1       315 7.31151E-04-1.14183E-03 0.00000E+00
 -1       316 6.21252E-04-9.29664E-04-1.05879E-22
 -1       317 4.86896E-04-6.81214E-04 0.00000E+00
 -1       318 3.51968E-04-4.31933E-04 0.00000E+00
 -1       319 2.40487E-04-2.17282E-04 2.64698E-23
 -1       320 1.67058E-04-6.65816E-05 0.00000E+00
 -1       336 1.89970E-04-3.33564E-06 0.00000E+00
 -1       337 1.82035E-04-3.86667E-06 6.61744E-24
 -1       338 1.72913E-04-4.40718E-06-1.32349E-23
 -1       339 1.62640E-04-4.95726E-06 0.00000E+00
 -1       340 1.51258E-04-5.51895E-06 1.32349E-23
 -1       406 1.29748E-04 7.44664E-07 3.30872E-24
 -1       407 1.29819E-04 8.50991E-07-1.65436E-24
 -1       408 1.29900E-04 9.57256E-07-3.30872E-24
 -1       409 1.29990E-04 1.06333E-06 0.00000E+00
 -1       410 1.30090E-04 1.16901E-06 0.00000E+00
 -1       521 5.05400E-04-6.23679E-05 1.05879E-22
 -1       522 5.50280E-04-2.33574E-04-5.29396E-23
 -1       523 6.09412E-04-4.88277E-04 0.00000E+00
 -1       524 6.73340E-04-7.89389E-04 0.00000E+00
 -1       525 7.37047E-04-1.08819E-03 0.00000E+00
 -1       526 7.95282E-04-1.33619E-03 0.00000E+00
 -1       527 8.38063E-04-1.49759E-03 0.00000E+00
 -1       528 8.50718E-04-1.54639E-03 5.29396E-23
 -1       529 8.19303E-04-1.48113E-03 0.00000E+00
 -1       530 7.34630E-04-1.31252E-03 0.00000E+00
 -1       531 6.03490E-04-1.06983E-03 1.05879E-22
 -1       532 4.42726E-04-7.86437E-04-5.29396E-23
 -1       533 2.81041E-04-5.01806E-04-1.05879E-22
 -1       534 1.47363E-04-2.55427E-04-5.29396E-23
 -1       535 5.93577E-05-8.10358E-05-1.05879E-22
 -1       536 1.38474E-04 1.37070E-05-6.61744E-24
 -1       537 1.37799E-04 4.70826E-05 0.00000E+00
 -1       538 1.36826E-04 8.88928E-05 0.00000E+00
 -1       539 1.35719E-04 1.33943E-04 1.65436E-24
 -1       540 1.34729E-04 1.76134E-04 3.30872E-24
 -1       541 1.34064E-04 2.09383E-04 1.65436E-24
 -1       542 1.33716E-04 2.30032E-04 0.00000E+00
 -1       543 1.33564E-04 2.34503E-04 0.00000E+00
 -1       544 1.33365E-04 2.23388E-04 0.00000E+00
 -1       545 1.32899E-04 1.97384E-04 0.00000E+00
 -1       546 1.32134E-04 1.61069E-04 0.00000E+00
 -1       547 1.31155E-04 1.19087E-04 0.00000E+00
 -1       548 1.30197E-04 7.76366E-05 0.00000E+00
 -1       549 1.29487E-04 4.29146E-05-1.65436E-24
 -1       550 1.29078E-04 1.92792E-05 0.00000E+00
 -1       551 1.23328E-04-6.44098E-06 6.61744E-24
 -1       552 1.05354E-04-6.83169E-06 0.00000E+00
 -1       553 8.56929E-05-7.25091E-06-1.65436E-24
 -1       554 6.51619E-05-7.68836E-06 0.00000E+00
 -1       555 4.45787E-05-8.12951E-06-2.64698E-23
 -1       556 1.34414E-04 5.24851E-06-2.64698E-23
 -1       557 1.30946E-04 1.42159E-05 0.00000E+00
 -1       558 1.28312E-04 2.10174E-05 0.00000E+00
 -1       559 1.26424E-04 2.58688E-05 0.00000E+00
 -1       560 1.25195E-04 2.89858E-05 0.00000E+00
 -1       561 1.24540E-04 3.05855E-05 0.00000E+00
 -1       562 1.24375E-04 3.08857E-05 0.00000E+00
 -1       563 1.24616E-04 3.01045E-05 0.00000E+00
 -1       564 1.25179E-04 2.84604E-05 0.00000E+00
 -1       565 1.25983E-04 2.61721E-05 3.30872E-24
 -1       566 1.26946E-04 2.34586E-05 0.00000E+00
 -1       567 1.27985E-04 2.05389E-05 0.00000E+00
 -1       568 1.29020E-04 1.76322E-05 1.65436E-24
 -1       569 1.29968E-04 1.49573E-05 0.00000E+00
 -1       570 1.30748E-04 1.27333E-05 0.00000E+00
 -1       571 1.28990E-04 1.03966E-05 8.27181E-25
 -1       572 1.29069E-04 9.72526E-06-8.27181E-25
 -1       573 1.29150E-04 9.01654E-06 0.00000E+00
 -1       574 1.29230E-04 8.28105E-06-1.65436E-24
 -1       575 1.29311E-04 7.52949E-06-1.65436E-24
 -1       576 1.29392E-04 6.77259E-06-1.65436E-24
 -1       577 1.29472E-04 6.02110E-06 0.00000E+00
 -1       578 1.29553E-04 5.28578E-06-1.65436E-24
 -1       579 1.29634E-04 4.57739E-06 0.00000E+00
 -1       580 1.29715E-04 3.90669E-06 1.65436E-24
 -1       581 1.29796E-04 3.28443E-06 0.00000E+00
 -1       582 1.29876E-04 2.72136E-06 0.00000E+00
 -1       583 1.29957E-04 2.22822E-06 0.00000E+00
 -1       584 1.30038E-04 1.81562E-06 0.00000E+00
 -1       585 1.30119E-04 1.49412E-06 0.00000E+00
 -1       586 1.29251E-04 1.10479E-05-1.65436E-24
 -1       587 1.29566E-04 1.10747E-05 0.00000E+00
 -1       588 1.29890E-04 1.11013E-05 0.00000E+00
 -1       589 1.30261E-04 1.11274E-05 0.00000E+00
 -1       590 1.30712E-04 1.11526E-05 0.00000E+00
 -1       591 1.29104E-04 1.04507E-05-1.03398E-25
 -1       592 1.29304E-04 9.85464E-06-2.06795E-25
 -1       593 1.29511E-04 9.23809E-06 0.00000E+00
 -1       594 1.29723E-04 8.60635E-06 0.00000E+00
 -1       595 1.29939E-04 7.96475E-06-8.27181E-25
 -1       596 1.30157E-04 7.31855E-06-4.13590E-25
 -1       597 1.30374E-04 6.67303E-06 8.27181E-25
 -1       598 1.30589E-04 6.03346E-06 2.06795E-25
 -1       599 1.30800E-04 5.40509E-06 4.13590E-25
 -1       600 1.31005E-04 4.79319E-06 0.00000E+00
 -1       601 1.31202E-04 4.20303E-06 4.13590E-25
 -1       602 1.31388E-04 3.63987E-06 0.00000E+00
 -1       603 1.31563E-04 3.10898E-06 0.00000E+00
 -1       604 1.31724E-04 2.61570E-06 1.03398E-25
 -1       605 1.31869E-04 2.16524E-06 0.00000E+00
 -1       606 1.30213E-04 1.23125E-06 0.00000E+00
 -1       607 1.30223E-04 1.28338E-06 0.00000E+00
 -1       608 1.30232E-04 1.42421E-06 0.00000E+00
 -1       609 1.30242E-04 1.64751E-06 0.00000E+00
 -1       610 1.30251E-04 1.94701E-06 0.00000E+00
 -1       611 1.30260E-04 2.31633E-06 0.00000E+00
 -1       612 1.30269E-04 2.74912E-06 0.00000E+00
 -1       613 1.30277E-04 3.23901E-06 0.00000E+00
 -1       614 1.30286E-04 3.77963E-06 0.00000E+00
 -1       615 1.30295E-04 4.36459E-06 0.00000E+00
 -1       616 1.30304E-04 4.98754E-06 0.00000E+00
 -1       617 1.30313E-04 5.64210E-06-4.13590E-25
 -1       618 1.30321E-04 6.32189E-06 0.00000E+00
 -1       619 1.30330E-04 7.02055E-06 0.00000E+00
 -1       620 1.30339E-04 7.73170E-06 0.00000E+00
 -1       621 1.30371E-04 1.35529E-06-1.65436E-24
 -1       622 1.30613E-04 1.43748E-06-8.27181E-25
 -1       623 1.30911E-04 1.51963E-06 1.65436E-24
 -1       624 1.31252E-04 1.60163E-06 0.00000E+00
 -1       625 1.31619E-04 1.68348E-06 0.00000E+00
 -1       626 1.30307E-04 1.25992E-06-3.30872E-24
 -1       627 1.30387E-04 1.32193E-06 0.00000E+00
 -1       628 1.30442E-04 1.45161E-06 3.30872E-24
 -1       629 1.30475E-04 1.64076E-06 1.65436E-24
 -1       630 1.30489E-04 1.88118E-06 0.00000E+00
 -1       631 1.30486E-04 2.16460E-06-1.65436E-24
 -1       632 1.30471E-04 2.48278E-06 0.00000E+00
 -1       633 1.30445E-04 2.82746E-06 4.96308E-24
 -1       634 1.30413E-04 3.19039E-06 0.00000E+00
 -1       635 1.30377E-04 3.56331E-06 0.00000E+00
 -1       636 1.30340E-04 3.93798E-06 3.30872E-24
 -1       637 1.30305E-04 4.30614E-06 0.00000E+00
 -1       638 1.30277E-04 4.65954E-06-3.30872E-24
 -1       639 1.30256E-04 4.98991E-06 0.00000E+00
 -1       640 1.30247E-04 5.28899E-06 0.00000E+00
 -1       656 1.29850E-04 7.97713E-06-6.61744E-24
 -1       657 1.29741E-04 7.48638E-06 0.00000E+00
 -1       658 1.29882E-04 6.99705E-06 1.32349E-23
 -1       659 1.30126E-04 6.50811E-06 0.00000E+00
 -1       660 1.30305E-04 6.01764E-06 6.61744E-24
 -1       661 1.30164E-04 9.13266E-06 8.27181E-25
 -1       662 1.30010E-04 9.74778E-06 0.00000E+00
 -1       663 1.29880E-04 1.02973E-05-1.65436E-24
 -1       664 1.29774E-04 1.07854E-05 8.27181E-25
 -1       665 1.29690E-04 1.12158E-05 1.65436E-24
 -1       666 1.29626E-04 1.15921E-05 8.27181E-25
 -1       667 1.29581E-04 1.19178E-05 1.65436E-24
 -1       668 1.29554E-04 1.21964E-05 0.00000E+00
 -1       669 1.29543E-04 1.24311E-05 0.00000E+00
 -1       670 1.29548E-04 1.26252E-05 0.00000E+00
 -1       671 1.29566E-04 1.27816E-05 1.65436E-24
 -1       672 1.29598E-04 1.29035E-05 8.27181E-25
 -1       673 1.29641E-04 1.29937E-05 1.65436E-24
 -1       674 1.29694E-04 1.30549E-05 0.00000E+00
 -1       675 1.29758E-04 1.30901E-05-4.13590E-25
 -1       676 1.29703E-04 1.35449E-05-3.30872E-24
 -1       677 1.29727E-04 1.34554E-05 0.00000E+00
 -1       678 1.29752E-04 1.33659E-05 0.00000E+00
 -1       679 1.29776E-04 1.32767E-05 1.65436E-24
 -1       680 1.29801E-04 1.31875E-05 0.00000E+00
 -1       771 1.72959E-05 7.44516E-06 0.00000E+00
 -1       772 1.09475E-05 2.05983E-05-2.64698E-23
 -1       773 5.65862E-06 3.10229E-05 0.00000E+00
 -1       774 1.35816E-06 3.88814E-05 0.00000E+00
 -1       775-2.02385E-06 4.43414E-05 0.00000E+00
 -1       776-4.56030E-06 4.75786E-05 0.00000E+00
 -1       777-6.32453E-06 4.87740E-05-5.29396E-23
 -1       778-7.39151E-06 4.81151E-05 0.00000E+00
 -1       779-7.83641E-06 4.57939E-05 0.00000E+00
 -1       780-7.73575E-06 4.20077E-05 0.00000E+00
 -1       781-7.16599E-06 3.69572E-05 0.00000E+00
 -1       782-6.20469E-06 3.08475E-05 2.64698E-23
 -1       783-4.92925E-06 2.38860E-05 0.00000E+00
 -1       784-3.41789E-06 1.62828E-05 0.00000E+00
 -1       785-1.74856E-06 8.24981E-06-2.64698E-23
 -1       786 1.31321E-04 1.03817E-05-1.03398E-25
 -1       787 1.31366E-04 9.63327E-06 4.13590E-25
 -1       788 1.31410E-04 8.92226E-06 0.00000E+00
 -1       789 1.31455E-04 8.24131E-06 8.27181E-25
 -1       790 1.31501E-04 7.58615E-06 0.00000E+00
 -1       791 1.31546E-04 6.95259E-06 8.27181E-25
 -1       792 1.31591E-04 6.33866E-06 1.65436E-24
 -1       793 1.31636E-04 5.74245E-06-8.27181E-25
 -1       794 1.31682E-04 5.16387E-06 0.00000E+00
 -1       795 1.31727E-04 4.60287E-06 0.00000E+00
 -1       796 1.31772E-04 4.06124E-06 1.65436E-24
 -1       797 1.31818E-04 3.54078E-06-8.27181E-25
 -1       798 1.31863E-04 3.04551E-06 0.00000E+00
 -1       799 1.31908E-04 2.57950E-06 8.27181E-25
 -1       800 1.31954E-04 2.14985E-06 0.00000E+00
 -1       801 1.13727E-04 9.70016E-06 2.64698E-23
 -1       802 5.97614E-05 6.93277E-06 1.32349E-23
 -1       803 6.08687E-06 4.17996E-06-2.64698E-23
 -1       804-1.05818E-05 2.66488E-06 0.00000E+00
 -1       805-6.70444E-06 1.34036E-06 0.00000E+00
 -1       806 1.31484E-04 1.03281E-05 1.65436E-24
 -1       807 1.31675E-04 9.50773E-06 8.27181E-25
 -1       808 1.31853E-04 8.71735E-06-1.65436E-24
 -1       809 1.32020E-04 7.95971E-06 0.00000E+00
 -1       810 1.32172E-04 7.23747E-06-1.65436E-24
 -1       811 1.32311E-04 6.55321E-06 8.27181E-25
 -1       812 1.32434E-04 5.90954E-06-3.30872E-24
 -1       813 1.32541E-04 5.30900E-06 8.27181E-25
 -1       814 1.32632E-04 4.75417E-06 0.00000E+00
 -1       815 1.32704E-04 4.24761E-06 0.00000E+00
 -1       816 1.32756E-04 3.79187E-06 1.65436E-24
 -1       817 1.32789E-04 3.38949E-06 8.27181E-25
 -1       818 1.32802E-04 3.04302E-06 0.00000E+00
 -1       819 1.32792E-04 2.75500E-06 8.27181E-25
 -1       820 1.32760E-04 2.52796E-06 1.65436E-24
 -1       821 1.31896E-04 1.33869E-06 0.00000E+00
 -1       822 1.31787E-04 7.93923E-07-8.27181E-25
 -1       823 1.31677E-04 2.21488E-07 0.00000E+00
 -1       824 1.31567E-04-2.86396E-07 0.00000E+00
 -1       825 1.31457E-04-6.52146E-07 0.00000E+00
 -1       826 1.31346E-04-7.98866E-07 0.00000E+00
 -1       827 1.31236E-04-6.99079E-07 3.30872E-24
 -1       828 1.31125E-04-3.26524E-07 0.00000E+00
 -1       829 1.31015E-04 2.83518E-07 3.30872E-24
 -1       830 1.30904E-04 1.09459E-06 0.00000E+00
 -1       831 1.30793E-04 2.02491E-06 3.30872E-24
 -1       832 1.30683E-04 2.99208E-06 0.00000E+00
 -1       833 1.30572E-04 3.90537E-06 0.00000E+00
 -1       834 1.30463E-04 4.67434E-06 0.00000E+00
 -1       835 1.30353E-04 5.24102E-06 0.00000E+00
 -1       836 1.32283E-04 1.86367E-06 0.00000E+00
 -1       837 1.32460E-04 1.96588E-06-1.65436E-24
 -1       838 1.32560E-04 2.06794E-06-3.30872E-24
 -1       839 1.32614E-04 2.16935E-06 8.27181E-25
 -1       840 1.32653E-04 2.27060E-06-4.13590E-25
 -1       856 1.30228E-04 5.78887E-06 0.00000E+00
 -1       857 1.30201E-04 6.14704E-06 0.00000E+00
 -1       858 1.30175E-04 6.60448E-06-4.13590E-25
 -1       859 1.30149E-04 7.14270E-06-4.13590E-25
 -1       860 1.30122E-04 7.74305E-06 8.27181E-25
 -1       861 1.30095E-04 8.38686E-06 0.00000E+00
 -1       862 1.30068E-04 9.05543E-06 8.27181E-25
 -1       863 1.30041E-04 9.73001E-06 0.00000E+00
 -1       864 1.30014E-04 1.03918E-05 8.27181E-25
 -1       865 1.29987E-04 1.10222E-05 4.13590E-25
 -1       866 1.29960E-04 1.16024E-05 0.00000E+00
 -1       867 1.29933E-04 1.21137E-05-4.13590E-25
 -1       868 1.29906E-04 1.25376E-05-8.27181E-25
 -1       869 1.29879E-04 1.28556E-05 0.00000E+00
 -1       870 1.29853E-04 1.30492E-05 8.27181E-25
 -1       871 1.30245E-04 5.54685E-06-8.27181E-25
 -1       872 1.30361E-04 5.54271E-06 0.00000E+00
 -1       873 1.30545E-04 5.53808E-06 0.00000E+00
 -1       874 1.30743E-04 5.53285E-06 1.55096E-25
 -1       875 1.30900E-04 5.52709E-06-2.06795E-25
 -1       876 1.30268E-04 5.80013E-06 0.00000E+00
 -1       877 1.30265E-04 6.10918E-06 0.00000E+00
 -1       878 1.30244E-04 6.46863E-06-3.30872E-24
 -1       879 1.30207E-04 6.87210E-06 0.00000E+00
 -1       880 1.30156E-04 7.31314E-06 3.30872E-24
 -1       881 1.30093E-04 7.78534E-06-1.65436E-24
 -1       882 1.30021E-04 8.28231E-06 3.30872E-24
 -1       883 1.29942E-04 8.79767E-06 0.00000E+00
 -1       884 1.29859E-04 9.32502E-06 3.30872E-24
 -1       885 1.29773E-04 9.85799E-06 0.00000E+00
 -1       886 1.29688E-04 1.03902E-05 3.30872E-24
 -1       887 1.29605E-04 1.09153E-05-1.65436E-24
 -1       888 1.29527E-04 1.14268E-05 3.30872E-24
 -1       889 1.29456E-04 1.19182E-05-8.27181E-25
 -1       890 1.29394E-04 1.23832E-05 1.65436E-24
 -1       891 1.29871E-04 1.30523E-05 0.00000E+00
 -1       892 1.29896E-04 1.30042E-05 8.27181E-25
 -1       893 1.29879E-04 1.29561E-05-8.27181E-25
 -1       894 1.29795E-04 1.29081E-05 4.13590E-25
 -1       895 1.29623E-04 1.28603E-05 4.13590E-25
 -1       956 1.32598E-04 2.33320E-06 1.65436E-24
 -1       957 1.32490E-04 2.37017E-06-1.65436E-24
 -1       958 1.32381E-04 2.46760E-06-1.65436E-24
 -1       959 1.32272E-04 2.61734E-06-1.65436E-24
 -1       960 1.32163E-04 2.81127E-06 0.00000E+00
 -1       961 1.32053E-04 3.04120E-06 1.65436E-24
 -1       962 1.31944E-04 3.29893E-06-3.30872E-24
 -1       963 1.31835E-04 3.57628E-06-1.65436E-24
 -1       964 1.31726E-04 3.86505E-06 0.00000E+00
 -1       965 1.31616E-04 4.15704E-06 0.00000E+00
 -1       966 1.31507E-04 4.44405E-06 3.30872E-24
 -1       967 1.31398E-04 4.71789E-06-1.65436E-24
 -1       968 1.31289E-04 4.97036E-06 0.00000E+00
 -1       969 1.31180E-04 5.19330E-06 0.00000E+00
 -1       970 1.31071E-04 5.37855E-06 0.00000E+00
 -1       971 1.30864E-04 5.67213E-06 1.65436E-24
 -1       972 1.30762E-04 5.91211E-06 0.00000E+00
 -1       973 1.30660E-04 6.22871E-06 0.00000E+00
 -1       974 1.30558E-04 6.61206E-06-1.65436E-24
 -1       975 1.30456E-04 7.05228E-06 0.00000E+00
 -1       976 1.30354E-04 7.53948E-06 0.00000E+00
 -1       977 1.30252E-04 8.06376E-06-3.30872E-24
 -1       978 1.30150E-04 8.61518E-06 0.00000E+00
 -1       979 1.30048E-04 9.18384E-06-3.30872E-24
 -1       980 1.29946E-04 9.75981E-06 1.65436E-24
 -1       981 1.29843E-04 1.03332E-05 0.00000E+00
 -1       982 1.29741E-04 1.08940E-05 0.00000E+00
 -1       983 1.29640E-04 1.14323E-05 0.00000E+00
 -1       984 1.29538E-04 1.19383E-05 3.30872E-24
 -1       985 1.29437E-04 1.24020E-05 0.00000E+00
 -3
    1PSTEP                        14           7           1          
  100CL  107 5.74219E-01         409                     0    7           1
 -4  STRESS      6    1
 -5  SXX         1    4    1    1
 -5  SYY         1    4    2    2
 -5  SZZ         1    4    3    3
 -5  SXY         1    4    1    2
 -5  SYZ         1    4    2    3
 -5  SZX         1    4    3    1
 -1         1-2.94130E+06-1.18348E+06-6.35033E+05-1.37274E+06 2.91038E-11 1.07684E-09
 -1         2 1.99790E+03-8.88688E+05 6.44982E+03 4.49066E+01 1.29575E-10 8.41681E-08
 -1         3-4.84035E+02-1.31967E+06 3.16814E+02-1.07912E+03-3.80375E-10 1.04883E-08
 -1         5-1.44238E+00 3.04405E+05 7.72327E+00-7.49424E-02-8.14951E-11-3.26415E-08
 -1         8-1.03730E+06-3.59082E+05-1.11394E+05-5.12759E+05 4.87489E-10 1.48102E-08
 -1         9-5.27395E+05-8.22117E+05-6.84482E+01-7.79361E+05 1.50758E-08-1.38883E-08
 -1        10-1.33731E+03-1.37492E+06-2.33409E+03-7.29921E+03-8.18545E-09-2.45873E-08
 -1        12 1.72747E+00 3.04421E+05 2.50029E+02-5.67866E-01-8.21814E-11 3.83477E-09
 -1        15 1.76437E+03 9.69624E+02 5.70331E+03 3.47065E+00-1.31536E-10-3.26149E-08
 -1        16 1.17020E+06-9.40760E+05 1.44890E+05-1.20796E+06 1.49788E-08 2.99187E-08
 -1        17-7.81278E+03 8.65151E+04 8.21320E+04 2.05032E+05-6.89761E-10 1.03028E-08
 -1        18 1.79575E+03-4.26884E+03-2.39242E+04-8.52828E+04 9.43180E-09-1.50721E-08
 -1        19 9.81351E+04 1.12674E+05-8.18351E+02 1.92329E+04 8.69477E-11-5.00368E-09
 -1        20-5.26604E+04-4.64224E+05-1.03218E+05 2.80010E+04 2.65209E-09 9.79223E-10
 -1        21-4.13153E+01-2.56389E+05-8.15906E+02 4.30487E+00 2.25281E-10-1.92082E-08
 -1        24-5.37626E+05 8.12646E+05 2.61472E+05 4.77394E+05-7.40353E-08-3.04426E-08
 -1        25-1.02766E+05-5.77809E+05-1.15850E+05-1.83365E+05-6.34009E-10 2.16987E-09
 -1        26-3.84604E+04 7.29765E+04-1.94003E+04-3.76645E+03 1.58834E-09-1.08213E-08
 -1        27-6.70072E+04-2.52423E+05-9.36803E+04 5.69642E+04 5.17313E-09 5.64190E-10
 -1        28 1.96581E+04-7.21791E+04 1.45628E+04 2.05389E+04 1.34912E-09 1.63915E-08
 -1        32-1.39714E+06-2.20983E+06-6.27210E+04-3.83593E+05-2.89547E-08-2.53272E-09
 -1        33-1.47969E+05 7.31453E+04 2.60881E+04-3.41477E+04-1.81463E-10-3.12684E-09
 -1        34-1.86192E+05-1.92051E+04 5.02881E+02 5.94958E+04 7.92809E-10 3.22871E-09
 -1        35-2.00600E+04-2.86666E+04-1.13218E+03 4.46594E+04 2.73998E-09 6.09483E-09
 -1        51 3.00829E+04-3.03828E+05 6.90656E+04-8.67112E+05-1.45519E-11 3.09519E-08
 -1        52 1.34046E+04-2.96027E+05 4.03441E+04-1.01118E+06 1.38243E-10-6.97764E-09
 -1        53 6.56305E+03-3.10767E+05 2.74947E+04-8.64030E+05 3.20142E-10 5.80621E-09
 -1        54 1.74143E+04-3.08563E+05 3.56938E+04-1.01437E+06-2.69210E-10 8.44011E-10
 -1        55 3.48970E+04-3.21027E+05 5.86819E+04-8.63555E+05 2.25555E-10 3.12102E-08
 -1        56-5.59814E+06-6.26501E+05-4.68334E+05-2.17042E+06-2.80852E-09 8.55653E-09
 -1        57-5.82665E+06-1.01170E+06-3.15999E+05-2.10656E+06 6.49015E-09-4.39832E-09
 -1        58-5.68729E+06-7.80365E+05-1.10092E+05-2.14662E+06-3.63252E-09 9.60426E-09
 -1        59-5.72479E+06-8.29681E+05-6.57267E+04-2.13311E+06-1.15324E-09-2.92239E-08
 -1        60-5.69856E+06-8.03560E+05-2.56597E+04-2.14542E+06-3.81715E-09 6.66478E-09
 -1        61-5.71243E+06-8.01778E+05-1.45594E+04-2.13362E+06 5.66877E-09 1.91922E-08
 -1        62-5.69935E+06-8.07604E+05-6.92150E+03-2.14627E+06-3.71801E-09-8.77253E-09
 -1        63-5.71146E+06-7.97680E+05-5.60940E+03-2.13289E+06 3.86556E-09 4.39850E-08
 -1        64-5.69949E+06-8.07581E+05-6.21993E+03-2.14616E+06 6.63761E-09 1.40440E-08
 -1        65-5.71171E+06-8.01460E+05-1.24739E+04-2.13405E+06 2.23736E-10-3.67693E-08
 -1        66-5.69914E+06-8.03888E+05-2.17332E+04-2.14510E+06-2.10503E-09 2.92839E-08
 -1        67-5.72144E+06-8.25646E+05-5.54858E+04-2.13437E+06-8.96762E-10-2.03345E-08
 -1        68-5.69001E+06-7.83957E+05-9.28977E+04-2.14570E+06 2.87218E-09-2.94531E-08
 -1        69-5.80665E+06-9.79900E+05-2.66576E+05-2.11280E+06-1.01791E-08-1.65601E-08
 -1        70-5.61518E+06-6.53838E+05-3.95206E+05-2.16539E+06 3.44153E-09 2.52476E-08
 -1        86-9.96476E+02-8.90414E+05 6.98544E+03-2.24539E+01-6.59384E-12 3.61479E-08
 -1        87 6.63881E+03-8.86444E+05 1.44783E+04 8.22409E+01-8.89031E-11-5.33652E-09
 -1        88-5.62270E+03-8.92652E+05 2.22769E+04-5.97905E+01 1.45519E-11 1.66428E-08
 -1        89 4.19309E+04-8.70066E+05 5.99582E+04 1.36465E+02-1.50976E-10 2.82301E-08
 -1        90-3.61690E+04-9.06751E+05 8.48496E+04-7.66830E+01-6.18456E-11-9.53698E-09
 -1       121-6.85960E+02-1.32140E+06 3.42725E+01 5.37702E+02 8.92513E-10 9.78616E-10
 -1       122-3.65725E+02-1.31964E+06 6.58691E+02-2.15585E+03-3.09679E-09-3.22871E-09
 -1       123-7.41056E+02-1.32148E+06 7.84435E+02 1.60707E+03 2.53090E-09-7.46513E-09
 -1       124 9.12727E+02-1.31900E+06 2.68507E+03-4.56395E+03-6.00221E-09 8.20910E-09
 -1       125-1.50394E+03-1.32220E+06 3.80933E+03 2.93804E+03 3.60978E-09 5.01677E-09
 -1       191-1.77259E+00 3.04431E+05 9.44105E+00 3.75717E-02-5.90146E-11-8.45034E-09
 -1       192-2.14994E+00 3.04405E+05 1.63417E+01-3.05137E-01-5.33424E-11 5.91047E-09
 -1       193-3.65472E+00 3.04431E+05 3.05943E+01 2.68380E-01-1.24949E-10-9.54060E-10
 -1       194-4.42729E+00 3.04407E+05 6.17844E+01-7.17809E-01-9.34897E-11-1.73968E-08
 -1       195-7.27181E+00 3.04429E+05 1.21056E+02 4.52261E-01-1.61684E-10-2.09257E-08
 -1       251-1.83481E+06 9.55376E+03-1.11702E+05 5.11852E+04-1.00954E-09 3.13667E-08
 -1       252-1.52056E+06-1.22518E+04-1.24001E+04-2.00138E+05 1.04774E-09-7.03085E-09
 -1       253-1.71462E+06-1.83360E+03-2.58858E+04 1.49013E+05-5.48243E-09-2.22881E-08
 -1       254-1.67412E+06 1.42292E+04-4.43784E+03-3.05837E+05-9.38766E-09-9.16768E-08
 -1       255-1.69740E+06-3.63194E+03-7.00146E+03 1.57576E+05-7.56972E-09 3.62190E-08
 -1       256-1.54835E+06 1.47797E+04 2.73203E+04-2.31382E+05-1.76574E-08 2.09322E-08
 -1       257-1.82818E+06-1.23501E+04-3.16169E+04 7.39701E+04-2.14095E-09 1.15767E-08
 -1       258-1.38936E+06 1.15960E+04 5.87772E+04-1.48403E+04 1.08234E-08 5.66990E-09
 -1       259-1.84076E+06-1.32060E+04-3.32274E+04-5.86830E+04 1.26256E-08 2.62736E-09
 -1       260-1.52049E+06 1.50699E+04 3.55125E+04 2.11388E+05-6.53063E-09-4.68309E-08
 -1       261-1.70999E+06-5.25174E+03-3.88547E+03-1.51766E+05-3.43857E-08-4.16566E-09
 -1       262-1.67187E+06 2.09182E+04 9.61349E+03 3.06738E+05 9.32641E-09 7.74662E-08
 -1       263-1.70438E+06-6.78064E+03-1.07075E+02-1.54698E+05 4.20187E-09 2.56000E-08
 -1       264-1.52712E+06 3.22009E+04 4.50990E+04 2.22181E+05-6.30052E-08 3.66108E-08
 -1       265-1.84110E+06-2.76252E+04-2.06005E+04-6.65784E+04-2.46619E-08 4.20696E-08
 -1       266-3.19402E+04-1.49338E+04 7.49481E+04-7.42674E+01 1.70985E-10 1.46900E-08
 -1       267 3.70282E+04 1.74079E+04 5.29686E+04 8.56820E+01 2.04636E-10 1.83583E-08
 -1       268-4.96539E+03-2.46532E+03 1.96884E+04-1.09178E+01 1.77351E-10 4.86792E-08
 -1       269 5.86271E+03 2.95061E+03 1.27969E+04 1.27171E+01 6.84395E-11 5.51357E-08
 -1       270-8.79997E+02-4.84801E+02 6.17727E+03-1.72583E+00-1.45519E-11 6.96662E-09
 -1       271-2.92714E+06-3.63420E+05-2.19965E+05-1.13592E+06-6.12636E-09 3.61324E-08
 -1       272-3.02093E+06-5.09819E+05-1.41541E+05-1.11777E+06 9.40440E-09-1.48611E-08
 -1       273-2.96870E+06-4.18236E+05-5.19509E+04-1.12590E+06-7.98946E-09 1.56178E-08
 -1       274-2.97155E+06-4.43223E+05-2.90953E+04-1.13331E+06 3.59250E-10-3.98541E-09
 -1       275-2.97542E+06-4.22969E+05-1.21110E+04-1.12303E+06-1.63709E-11-1.90266E-08
 -1       276-2.96261E+06-4.38550E+05-6.39275E+03-1.13841E+06-5.95173E-09 1.98786E-08
 -1       277-2.97765E+06-4.22099E+05-3.15387E+03-1.12116E+06-3.09228E-10-4.78040E-08
 -1       278-2.95928E+06-4.40498E+05-2.19051E+03-1.14186E+06 2.85581E-09 1.48557E-08
 -1       279-2.97894E+06-4.20841E+05-2.31196E+03-1.11974E+06-1.26802E-08 5.42832E-09
 -1       280-2.95771E+06-4.42999E+05-4.11690E+03-1.14429E+06 1.36199E-08 6.83585E-09
 -1       281-2.97940E+06-4.19522E+05-7.46915E+03-1.11884E+06-5.79303E-09 4.45486E-08
 -1       282-2.96008E+06-4.49108E+05-1.78883E+04-1.14505E+06 2.93653E-09 5.26545E-08
 -1       283-2.97678E+06-4.15097E+05-3.17896E+04-1.11891E+06-4.84306E-09 7.45786E-11
 -1       284-2.98775E+06-4.92562E+05-8.67465E+04-1.13861E+06 7.93079E-10-4.92128E-08
 -1       285-2.95248E+06-3.80360E+05-1.34741E+05-1.12375E+06 7.96717E-10-1.76078E-08
 -1       301 2.31871E+04-1.82029E+05 1.72476E+05-3.46475E+05 2.76486E-10 1.73241E-08
 -1       302 2.46376E+04-1.38745E+05 1.10418E+05-5.07311E+05-2.91038E-11 4.57185E-08
 -1       303 1.04252E+03-1.64910E+05 7.95358E+04-3.45819E+05-2.20098E-10-2.41289E-08
 -1       304 2.37324E+04-1.37372E+05 1.09862E+05-5.06823E+05 5.63887E-10-4.26735E-08
 -1       305 2.15911E+04-1.79969E+05 1.71017E+05-3.47030E+05-1.67347E-10-5.02150E-08
 -1       306-9.95283E+06-1.29557E+06-1.64829E+06-2.03689E+06-2.94240E-08-4.33356E-08
 -1       307 1.78632E+05-1.88272E+06 6.17691E+05-4.78541E+06-3.06311E-07 1.09154E-07
 -1       308-7.60172E+06 2.26208E+05-2.12814E+05-2.61762E+04-4.50382E-08 1.18343E-07
 -1       309-3.74037E+06-2.09372E+06 1.73333E+05-7.44145E+06 1.59838E-07 5.70217E-08
 -1       310-7.68492E+06 1.97696E+05-1.47971E+05-6.85961E+04-1.84664E-08-2.29520E-08
 -1       311 3.84044E+05-1.88887E+06 8.91649E+05-4.58403E+06 2.24303E-07-1.31167E-08
 -1       312-9.97912E+06-1.33358E+06-1.13307E+06-2.14188E+06 3.18978E-08 5.88552E-08
 -1       313 2.16786E+06 5.17318E+05 1.55408E+06 7.64743E+05-1.54731E-07 1.74623E-10
 -1       314-8.22806E+06-3.06807E+06-1.12935E+06-4.07235E+06 1.51165E-07-4.95056E-08
 -1       315-5.24385E+06 3.69569E+06 8.82787E+05 1.61380E+06-6.14091E-08-2.03800E-08
 -1       316-4.21802E+06-3.24652E+06-1.46810E+05-3.90730E+06-3.40937E-07-1.67027E-07
 -1       317-1.04088E+07 4.56482E+06 1.61393E+05-1.39396E+04 3.17474E-07-2.24729E-07
 -1       318-4.15131E+06-3.23717E+06-2.37771E+05-3.89307E+06-3.13768E-07 3.16504E-09
 -1       319-5.46263E+06 3.74201E+06 5.67667E+05 1.56117E+06-7.29706E-08 4.71118E-08
 -1       320-8.12455E+06-3.09070E+06-1.73688E+06-4.08406E+06 7.72416E-08-6.05360E-09
 -1       336 4.70470E+02-1.43047E+06-9.08281E+03 4.32963E+03-1.57333E-08-4.68572E-09
 -1       337-3.42092E+03-1.43173E+06-1.08678E+04-1.05396E+04-2.85785E-08 1.50030E-08
 -1       338 5.48445E+02-1.43045E+06-1.54199E+04 6.15716E+03-2.01962E-08 1.13469E-08
 -1       339-1.62397E+04-1.44015E+06-3.44208E+04-1.41061E+04-3.68900E-08 1.49157E-09
 -1       340 1.08436E+04-1.42270E+06-5.37049E+04 7.85422E+03-2.47819E-08 2.24027E-08
 -1       406 2.10282E+01 3.04418E+05 4.93826E+02 1.19741E-01-2.43531E-10-1.84646E-08
 -1       407 1.73804E+02 3.04507E+05 1.04908E+03 2.53946E+00-1.68768E-10-2.24442E-08
 -1       408 5.41892E+02 3.04342E+05 2.09547E+03-2.72811E+00-2.94108E-10-4.12497E-08
 -1       409 2.26699E+03 3.05176E+05 4.71697E+03 2.72590E+01-7.82165E-11-4.48656E-08
 -1       410 6.51035E+03 3.03747E+05 9.62964E+03-2.57684E+01-3.23325E-10-2.67655E-08
 -1       521-1.21713E+07-1.76270E+06-2.23648E+06-2.28169E+06-4.31901E-08 6.58911E-08
 -1       522 6.54790E+05-2.20498E+06 7.61981E+05-6.29501E+06-2.43279E-07-2.49784E-08
 -1       523-9.18252E+06 2.39591E+05-2.71904E+05 2.05293E+05-4.00469E-08-1.20286E-07
 -1       524-4.88756E+06-2.07259E+06 2.42170E+05-9.71657E+06 3.40196E-07-2.50226E-07
 -1       525-9.31901E+06 1.87739E+05-1.98652E+05 1.39782E+05 2.83733E-07-1.54021E-07
 -1       526 1.04226E+06-2.22744E+06 1.14049E+06-5.95348E+06 1.93657E-07-6.23695E-08
 -1       527-1.22197E+07-1.84136E+06-1.55935E+06-2.44977E+06 2.03843E-07 8.93488E-09
 -1       528 3.62571E+06 7.20107E+05 1.95918E+06 1.35555E+06 3.64380E-08 4.16185E-08
 -1       529-9.94332E+06-4.08886E+06-1.55063E+06-4.92890E+06-1.12283E-07-2.67173E-08
 -1       530-6.44830E+06 5.19291E+06 1.13156E+06 2.19392E+06 1.88156E-08 1.41561E-07
 -1       531-4.87023E+06-4.22777E+06-1.86604E+05-4.73799E+06-3.13696E-07-1.18016E-08
 -1       532-1.32885E+07 6.33140E+06 2.48615E+05-4.36676E+05 1.52180E-07-2.97476E-07
 -1       533-4.76451E+06-4.21487E+06-2.69719E+05-4.71311E+06-6.30098E-09-4.12707E-07
 -1       534-6.79125E+06 5.34637E+06 8.04735E+05 2.07012E+06-2.08674E-08 2.99355E-07
 -1       535-9.80669E+06-4.18763E+06-2.19755E+06-4.94073E+06 1.12341E-08 1.87552E-07
 -1       536-4.73987E+05-2.91241E+04 2.31775E+04-2.47704E+04-6.40466E-09 3.44862E-08
 -1       537-2.75173E+05 3.08954E+04 4.94483E+04 6.09231E+04-6.96372E-08 4.73156E-08
 -1       538-3.78017E+05-1.28148E+03 1.08583E+04-3.75260E+04 1.53662E-08 5.53669E-08
 -1       539-3.39678E+05 3.32456E+03 1.32661E+04 6.97187E+04 8.57926E-08 4.37009E-08
 -1       540-4.10901E+05-4.19780E+02-4.26005E+03-3.36411E+04-1.34216E-08 7.39825E-08
 -1       541-2.13486E+05 5.48105E+03 3.37105E+04 4.40453E+04-3.07285E-08 4.57678E-08
 -1       542-5.00827E+05-6.20770E+03-2.49857E+04-1.17167E+04 1.26363E-08 2.97512E-08
 -1       543-1.41508E+05 8.14656E+03 4.68662E+04-8.36264E+03 5.79416E-09 9.46841E-09
 -1       544-4.80970E+05-4.64311E+03-2.19783E+04 1.86526E+04 1.06002E-08-3.18022E-08
 -1       545-2.58559E+05 2.06613E+03 2.14759E+04-5.56507E+04-1.22163E-08-4.95554E-08
 -1       546-3.86869E+05 2.39616E+03-4.94125E+03 3.55279E+04 3.01941E-09-5.54359E-08
 -1       547-3.49297E+05-4.02292E+03-1.98136E+03-7.16896E+04-5.95169E-08-6.96764E-08
 -1       548-3.92610E+05 3.38962E+03-1.49037E+04 3.47984E+04-6.24584E-08-5.12277E-08
 -1       549-2.50658E+05-9.89260E+03-2.17517E+03-5.23680E+04-3.51140E-08-3.03726E-08
 -1       550-4.82760E+05 6.00900E+03-6.80651E+04 1.60889E+04 1.54932E-09-3.07264E-08
 -1       551 2.46676E+04-6.71207E+05 2.06641E+04-1.06810E+06-6.22240E-08-5.54428E-09
 -1       552 5.48158E+04-6.90340E+05 3.03569E+04-1.52211E+06-4.70027E-08 7.68341E-09
 -1       553 3.99067E+04-6.94752E+05 4.56730E+04-1.06367E+06-7.48041E-08 1.55414E-08
 -1       554 8.44181E+04-6.91474E+05 9.69231E+04-1.52380E+06-4.83560E-08 1.28066E-08
 -1       555 6.89557E+04-7.14720E+05 1.72156E+05-1.06438E+06-7.71615E-08-9.56425E-09
 -1       556 1.36250E+05-2.46743E+05 6.30298E+04-2.96923E+05-1.66765E-08-1.00408E-08
 -1       557 2.31443E+05-3.23366E+05 3.38601E+04-3.76222E+05-4.08909E-09 2.62535E-08
 -1       558 1.30819E+05-2.52127E+05 1.25248E+04-2.91918E+05-1.83063E-08 4.88217E-09
 -1       559 2.15014E+05-3.30686E+05 6.72015E+03-3.85783E+05 7.49424E-10-3.57977E-09
 -1       560 1.24450E+05-2.48057E+05 2.10304E+03-2.96286E+05-4.51109E-10 8.40373E-09
 -1       561 2.06448E+05-3.27672E+05 1.38333E+03-3.91395E+05-4.77303E-09 2.77123E-09
 -1       562 1.19440E+05-2.44860E+05 1.81063E+02-2.99881E+05 6.18456E-09 8.78026E-09
 -1       563 2.00566E+05-3.25112E+05 3.38004E+02-3.95186E+05-2.67028E-09-4.64229E-09
 -1       564 1.16077E+05-2.42741E+05 4.80615E+00-3.02255E+05 3.14321E-09-8.55107E-09
 -1       565 1.97043E+05-3.23582E+05 1.30677E+02-3.97421E+05-5.34783E-10 2.03727E-10
 -1       566 1.14426E+05-2.41686E+05-3.46192E-01-3.03416E+05-4.67480E-09-1.59598E-08
 -1       567 1.95850E+05-3.23050E+05-8.35068E+01-3.98082E+05 1.58379E-08-5.18776E-09
 -1       568 1.14536E+05-2.41769E+05-4.21434E+02-3.03431E+05 7.02130E-10 8.86939E-09
 -1       569 1.96042E+05-3.22979E+05-1.04983E+03-3.96318E+05-3.25963E-09 7.04313E-09
 -1       570 1.17180E+05-2.43972E+05-2.47115E+03-3.02943E+05 4.83124E-09 4.05362E-09
 -1       571 2.30898E+05 8.45307E+03 1.24051E+04-6.18045E+04-3.10592E-10 7.02494E-09
 -1       572 2.32732E+05 3.00364E+03 6.07811E+03-6.77932E+04-1.01181E-09 5.17775E-09
 -1       573 2.31634E+05 7.78818E+02 2.70043E+03-6.16700E+04 2.72848E-10-1.02727E-09
 -1       574 2.31842E+05 3.20127E+02 1.35339E+03-6.79504E+04 7.36691E-10 1.79307E-09
 -1       575 2.31716E+05 1.15997E+02 6.38379E+02-6.16520E+04 2.08706E-09 2.86946E-09
 -1       576 2.31726E+05 1.01063E+02 3.25964E+02-6.79714E+04-1.08969E-10-2.51930E-10
 -1       577 2.31736E+05 7.60980E+01 1.62176E+02-6.16496E+04-9.69339E-09 7.33144E-09
 -1       578 2.31725E+05 8.35807E+01 9.19203E+01-6.79740E+04-2.21082E-08 2.85354E-09
 -1       579 2.31763E+05 6.51992E+01 6.19218E+01-6.16494E+04 7.43967E-10-1.08589E-08
 -1       580 2.31763E+05 6.65940E+01 6.80994E+01-6.79705E+04 1.62941E-08-1.66792E-08
 -1       581 2.31806E+05 4.65157E+01 1.02510E+02-6.16532E+04 9.64064E-09-1.37697E-08
 -1       582 2.31839E+05 6.77332E+01 2.04326E+02-6.79312E+04-1.12232E-09-9.84801E-09
 -1       583 2.31856E+05 1.08783E+02 3.95649E+02-6.16887E+04 5.45697E-11-3.98313E-09
 -1       584 2.32047E+05 4.24479E+02 8.90649E+02-6.76330E+04 3.08228E-09 5.45356E-10
 -1       585 2.31816E+05 1.20328E+03 1.80923E+03-6.19518E+04 3.89264E-10-6.20821E-09
 -1       586-2.96834E+03 7.69695E+04-3.51208E+03-2.06351E+05-2.16824E-09 4.82601E-10
 -1       587-7.76697E+02 7.65487E+04-6.27667E+01-2.27135E+05-2.42289E-09-2.96859E-09
 -1       588 7.14038E+02 7.65798E+04 3.30223E+03-2.06255E+05-1.32786E-09 1.10540E-08
 -1       589 4.34135E+03 7.83734E+04 9.16342E+03-2.26894E+05-1.66983E-09-2.65754E-09
 -1       590 1.29979E+04 7.55642E+04 1.94564E+04-2.06610E+05-1.62527E-09 8.60200E-09
 -1       591-4.86687E+04-1.19211E+04-1.63710E+04-2.28858E+04 1.38778E-09 8.93942E-09
 -1       592-5.10590E+04-1.54355E+04-8.91187E+03-2.62028E+04 1.80148E-09 1.56422E-09
 -1       593-5.03599E+04-1.09252E+04-3.70159E+03-2.40154E+04 2.49770E-10 2.15323E-10
 -1       594-4.87597E+04-1.29904E+04-1.84895E+03-2.63089E+04 1.10140E-09-5.43150E-09
 -1       595-5.04890E+04-1.09272E+04-8.48431E+02-2.40687E+04-1.70485E-09-2.67435E-09
 -1       596-4.86014E+04-1.28753E+04-4.32097E+02-2.62922E+04-2.31817E-09-4.92889E-10
 -1       597-5.05050E+04-1.09380E+04-2.36571E+02-2.40709E+04-4.93102E-09-6.65898E-09
 -1       598-4.85860E+04-1.28706E+04-1.92685E+02-2.62873E+04-8.14708E-10 3.89505E-09
 -1       599-5.05038E+04-1.09382E+04-2.49243E+02-2.40706E+04 1.29739E-09 2.96120E-09
 -1       600-4.86023E+04-1.28764E+04-4.65657E+02-2.62911E+04-4.43612E-09-6.02711E-09
 -1       601-5.04844E+04-1.09273E+04-9.19642E+02-2.40674E+04 1.77874E-09-4.16435E-09
 -1       602-4.87738E+04-1.30008E+04-2.00702E+03-2.63065E+04-3.32830E-09 6.46469E-09
 -1       603-5.03423E+04-1.09275E+04-4.01921E+03-2.40100E+04-2.03545E-09 8.58540E-09
 -1       604-5.12823E+04-1.56423E+04-9.67634E+03-2.61740E+04 5.92081E-10 1.22984E-08
 -1       605-4.84915E+04-1.20210E+04-1.77753E+04-2.27968E+04 1.31377E-09 3.47791E-09
 -1       606 2.74546E+04-1.10785E+04-1.99088E+04 2.63484E+04-1.63527E-09 5.75801E-09
 -1       607 2.40482E+04-3.59289E+03-9.91372E+03 2.95850E+04 2.24099E-09-7.15454E-09
 -1       608 2.59822E+04-6.24416E+02-4.43917E+03 2.61437E+04 5.24778E-09-3.61160E-09
 -1       609 2.56017E+04-1.84011E+02-2.24217E+03 2.98173E+04-1.91903E-09 4.88080E-09
 -1       610 2.58065E+04 4.34224E+00-1.07066E+03 2.61204E+04-6.30644E-09 2.28533E-09
 -1       611 2.57384E+04 1.42548E+01-5.39792E+02 2.98427E+04-1.05283E-08-6.72344E-09
 -1       612 2.57612E+04 2.04261E+01-2.57572E+02 2.61182E+04-2.34231E-08-5.04542E-10
 -1       613 2.57384E+04 2.24876E+01-1.16209E+02 2.98456E+04-3.60487E-08-9.39622E-09
 -1       614 2.57371E+04 1.99070E+01-2.96623E+01 2.61174E+04-1.77415E-08 5.79621E-09
 -1       615 2.57271E+04 2.75897E+01 4.32437E+01 2.98461E+04-5.09317E-11-2.84126E-09
 -1       616 2.57185E+04 2.55802E+01 1.34636E+02 2.61177E+04-4.95038E-09-7.90624E-09
 -1       617 2.57380E+04 5.95223E+01 3.09334E+02 2.98456E+04-5.40240E-10-1.07073E-08
 -1       618 2.56877E+04 1.17244E+02 6.24178E+02 2.61178E+04-1.09353E-08-3.24258E-09
 -1       619 2.59551E+04 5.44173E+02 1.40218E+03 2.98448E+04-1.78308E-08-5.13387E-09
 -1       620 2.54784E+04 1.59916E+03 2.81841E+03 2.61170E+04-8.28379E-09-2.35559E-09
 -1       621 2.76018E+02 2.35446E+05 2.51058E+03 1.78675E+04 1.97815E-10 2.23872E-09
 -1       622 3.42324E+02 2.36055E+05 2.33895E+03 2.59977E+04 2.24873E-10 3.31784E-09
 -1       623 2.76480E+01 2.35584E+05 2.95916E+03 1.77835E+04 1.14824E-10-1.04196E-08
 -1       624 1.43235E+03 2.37035E+05 5.85519E+03 2.60822E+04 8.36593E-11-1.58874E-08
 -1       625 1.43634E+03 2.34429E+05 1.02896E+04 1.77820E+04 3.16504E-10-1.76624E-08
 -1       626 2.08249E+05 5.41918E+04 4.52973E+03 1.07638E+05-1.15779E-09-5.73527E-09
 -1       627 2.05878E+05 5.57495E+04 2.18282E+03 1.11772E+05-3.09228E-10 1.43791E-09
 -1       628 2.08383E+05 5.20921E+04 9.22396E+02 1.08373E+05-6.34191E-09-6.39784E-09
 -1       629 2.05276E+05 5.51836E+04 4.51585E+02 1.12017E+05-3.11047E-09 4.00883E-09
 -1       630 2.08392E+05 5.19926E+04 2.08691E+02 1.08398E+05-3.90992E-09 4.69885E-09
 -1       631 2.05206E+05 5.51662E+04 1.11431E+02 1.12018E+05-5.16047E-09-9.19613E-10
 -1       632 2.08384E+05 5.19992E+04 7.17590E+01 1.08391E+05 7.62611E-10-8.44125E-09
 -1       633 2.05193E+05 5.51707E+04 7.75769E+01 1.12011E+05 2.37833E-09-7.83996E-09
 -1       634 2.08375E+05 5.19994E+04 1.23219E+02 1.08387E+05 4.24461E-09 5.90921E-09
 -1       635 2.05201E+05 5.51715E+04 2.48161E+02 1.12012E+05-1.94427E-09 1.41790E-08
 -1       636 2.08364E+05 5.19971E+04 5.00476E+02 1.08385E+05-4.25547E-09-4.77758E-09
 -1       637 2.05306E+05 5.52502E+04 1.09972E+03 1.12009E+05 2.74326E-10-3.81624E-09
 -1       638 2.08323E+05 5.22412E+04 2.25964E+03 1.08273E+05 9.88848E-10-7.24958E-09
 -1       639 2.06491E+05 5.69006E+04 5.34582E+03 1.11657E+05 5.58794E-09 1.50703E-09
 -1       640 2.08163E+05 5.71650E+04 1.10936E+04 1.06190E+05 5.10681E-10-1.16181E-08
 -1       656 5.46910E+04-1.39109E+06-1.32025E+05-7.61528E+02 9.60426E-10 9.04302E-09
 -1       657-7.23127E+04-1.45070E+06-1.09281E+05 7.23926E+03 3.71074E-10 1.32734E-09
 -1       658 1.73918E+04-1.40805E+06-6.71874E+04-2.29450E+03 2.22826E-10 3.64555E-09
 -1       659-7.78774E+04-1.45334E+06-1.16591E+05 8.36339E+03-2.92857E-10-6.51057E-09
 -1       660 6.02428E+04-1.38845E+06-1.44594E+05-1.88564E+03-3.05590E-10 9.90650E-09
 -1       661 1.66197E+05 1.78719E+04 1.65038E+04 6.49930E+04 2.11094E-09-4.59295E-10
 -1       662 1.75104E+05 3.05103E+04 1.11214E+04 6.17731E+04 8.02174E-10-3.67254E-09
 -1       663 1.69436E+05 2.31685E+04 3.89008E+03 6.40550E+04-7.57609E-10-5.90580E-09
 -1       664 1.71352E+05 2.43133E+04 2.32628E+03 6.29163E+04-2.48406E-10-7.66894E-09
 -1       665 1.69924E+05 2.38948E+04 9.17684E+02 6.39153E+04-3.70721E-09-4.25558E-10
 -1       666 1.70777E+05 2.34804E+04 5.35966E+02 6.30971E+04-6.69525E-09 6.99801E-09
 -1       667 1.70008E+05 2.39796E+04 2.83513E+02 6.38824E+04-2.45848E-11-6.87387E-09
 -1       668 1.70686E+05 2.34164E+04 2.86184E+02 6.31450E+04-3.31056E-10-1.41529E-08
 -1       669 1.70015E+05 2.39569E+04 3.85239E+02 6.38680E+04 8.11767E-10 3.78071E-09
 -1       670 1.70781E+05 2.36232E+04 8.36804E+02 6.31466E+04 9.44915E-10-2.65217E-10
 -1       671 1.69913E+05 2.37769E+04 1.48511E+03 6.38790E+04-5.75994E-10-2.42267E-09
 -1       672 1.71646E+05 2.50680E+04 3.79907E+03 6.29375E+04-2.75543E-09 7.41244E-09
 -1       673 1.69154E+05 2.25485E+04 6.36642E+03 6.40632E+04-1.44075E-09 5.42468E-09
 -1       674 1.77707E+05 3.52945E+04 1.82065E+04 6.11555E+04-2.42181E-09 3.27191E-09
 -1       675 1.63892E+05 1.38365E+04 2.70246E+04 6.55532E+04 1.11640E-09 5.87534E-09
 -1       676 2.11678E+01-2.56321E+05-9.83379E+02-2.15248E+00 6.47105E-10-3.43169E-10
 -1       677-2.61171E+02-2.56559E+05-1.79972E+03 4.30224E+00-1.42234E-09-3.90606E-09
 -1       678 1.74331E+02-2.56152E+05-3.18144E+03-2.14829E+00-1.29728E-09-7.39507E-09
 -1       679-3.18238E+03-2.58479E+05-7.55764E+03 4.28616E+00 6.33804E-10-5.41233E-09
 -1       680 1.89925E+03-2.54402E+05-1.21804E+04-2.11217E+00-9.86802E-11 2.42179E-09
 -1       771-2.71155E+06-5.60855E+05-8.79888E+04-1.21402E+06-1.70548E-08-1.25729E-08
 -1       772-2.66795E+06-6.18119E+05-4.60657E+04-1.27937E+06-1.25438E-08 8.80391E-09
 -1       773-2.72734E+06-5.48379E+05-2.20239E+04-1.21978E+06-7.36327E-09 8.09814E-09
 -1       774-2.65919E+06-6.08877E+05-1.01423E+04-1.29084E+06 1.58252E-08-2.14641E-09
 -1       775-2.73412E+06-5.43575E+05-6.62702E+03-1.22180E+06-3.41970E-09 5.96629E-10
 -1       776-2.66265E+06-6.08356E+05-2.64108E+03-1.29877E+06-2.15368E-09-4.90036E-09
 -1       777-2.73972E+06-5.39467E+05-2.59648E+03-1.22355E+06 1.12923E-08 5.97356E-09
 -1       778-2.66656E+06-6.07987E+05-7.96096E+02-1.30549E+06 5.60249E-10 4.56930E-09
 -1       779-2.74441E+06-5.35950E+05-1.20483E+03-1.22506E+06-1.58616E-09 3.12866E-10
 -1       780-2.67002E+06-6.07600E+05-2.32589E+02-1.31094E+06-2.49202E-09-2.47383E-10
 -1       781-2.74808E+06-5.33150E+05-4.78454E+02-1.22624E+06-1.56069E-08 3.42334E-09
 -1       782-2.67267E+06-6.07235E+05 8.18943E+01-1.31495E+06-2.24682E-08-3.89900E-09
 -1       783-2.75063E+06-5.31240E+05 1.03795E+02-1.22708E+06-6.05360E-09-1.36260E-08
 -1       784-2.67417E+06-6.06793E+05 6.75450E+02-1.31740E+06-9.60063E-09-2.00316E-10
 -1       785-2.75204E+06-5.30174E+05 1.16295E+03-1.22759E+06-2.14004E-08 3.62161E-09
 -1       786 1.25937E+05-9.04750E+03 2.09309E+04-1.33296E+02 1.30303E-09-6.15728E-09
 -1       787 1.35013E+05 1.04742E+04 1.48080E+04 2.06846E+01 2.94616E-09 1.00044E-11
 -1       788 1.29436E+05-1.41819E+03 5.41593E+03-1.07039E+02 1.98552E-09 1.13525E-08
 -1       789 1.30935E+05 1.64078E+03 3.40085E+03-2.16881E+01-4.37268E-10 7.81188E-09
 -1       790 1.30014E+05-2.21278E+02 1.37901E+03-9.09292E+01-1.15091E-09-1.00016E-09
 -1       791 1.30260E+05 2.55774E+02 8.00525E+02-4.97579E+01-1.10031E-09-1.04385E-08
 -1       792 1.30112E+05-3.42209E+01 3.47291E+02-7.89700E+01-1.70374E-09-7.63751E-09
 -1       793 1.30146E+05 3.93754E+01 1.90835E+02-7.24175E+01 1.39614E-10-1.00672E-08
 -1       794 1.30129E+05-5.01660E+00 8.51558E+01-6.82692E+01 1.16493E-09-8.17870E-10
 -1       795 1.30125E+05 4.61672E+00 4.19693E+01-9.48615E+01-2.34424E-09 2.24813E-09
 -1       796 1.30132E+05 5.20163E-01 1.37409E+01-5.65257E+01 6.07682E-10-3.20325E-09
 -1       797 1.30118E+05-8.51054E+00-8.21693E+00-1.21870E+02 9.89129E-10 2.55199E-09
 -1       798 1.30136E+05 8.09918E+00-2.60671E+01-4.12599E+01 3.62084E-10-1.59337E-10
 -1       799 1.30094E+05-6.02742E+01-8.27579E+01-1.59187E+02 1.01933E-09 7.72404E-10
 -1       800 1.30156E+05 5.22310E+01-1.20259E+02-1.92086E+01 1.28867E-10 8.51175E-09
 -1       801 7.58255E+04-4.34812E+06-4.61550E+05 2.21706E+05 3.59287E-08-1.41317E-08
 -1       802-5.33222E+04-2.56086E+06 3.90307E+04-2.08753E+05 9.98371E-08-1.14212E-08
 -1       803-2.47544E+04-4.41496E+06-2.28912E+05 2.21240E+05 4.48817E-08 2.97532E-08
 -1       804-2.49384E+04-3.14814E+06 5.09133E+04 1.71537E+05-6.60748E-09-8.48740E-09
 -1       805 3.82528E+04-3.76608E+06-5.59229E+04-1.58362E+05-3.54521E-09-3.76940E-09
 -1       806-2.53894E+05-4.79409E+04-1.84933E+04-9.91940E+04-3.95494E-09-1.34196E-09
 -1       807-2.55550E+05-4.47214E+04-9.08551E+03-1.03443E+05 6.01881E-09 1.40965E-08
 -1       808-2.54387E+05-4.12917E+04-3.85447E+03-1.02364E+05-4.97266E-09 3.15435E-09
 -1       809-2.53648E+05-4.21610E+04-1.88477E+03-1.03659E+05 2.48656E-09-6.39193E-09
 -1       810-2.54464E+05-4.10600E+04-8.63776E+02-1.02505E+05-2.62980E-09-1.55683E-09
 -1       811-2.53502E+05-4.20571E+04-4.29468E+02-1.03631E+05-1.22855E-08-8.07381E-09
 -1       812-2.54477E+05-4.10791E+04-2.16874E+02-1.02505E+05-4.30418E-09-3.24781E-09
 -1       813-2.53484E+05-4.20582E+04-1.40549E+02-1.03617E+05-4.09318E-09-1.24123E-08
 -1       814-2.54473E+05-4.10857E+04-1.38438E+02-1.02503E+05-3.59250E-09-9.78071E-09
 -1       815-2.53489E+05-4.20594E+04-2.22670E+02-1.03613E+05-1.57888E-09 2.13277E-09
 -1       816-2.54459E+05-4.10836E+04-4.21401E+02-1.02501E+05 2.28647E-09 1.33373E-08
 -1       817-2.53562E+05-4.20992E+04-9.04800E+02-1.03607E+05-6.53381E-09-6.29552E-09
 -1       818-2.54407E+05-4.12092E+04-1.84507E+03-1.02442E+05 1.57706E-09 1.65473E-08
 -1       819-2.54572E+05-4.32164E+04-4.34223E+03-1.03374E+05 1.39698E-09 4.47540E-09
 -1       820-2.54068E+05-4.44819E+04-8.83753E+03-1.01034E+05 1.41517E-09 6.02995E-10
 -1       821-3.08264E+05 1.71111E+04-3.95741E+04 4.43925E+02 7.12984E-07-3.06882E-08
 -1       822-3.25403E+05-1.98088E+04-2.80030E+04-1.10724E+03 1.43606E-06 1.34551E-08
 -1       823-3.14875E+05 2.68313E+03-1.02491E+04 4.83898E+02 7.13523E-07 6.83031E-09
 -1       824-3.17677E+05-3.10467E+03-6.44673E+03-9.37407E+02 1.49768E-09 8.42465E-09
 -1       825-3.15987E+05 4.19433E+02-2.65395E+03 2.74095E+02 1.33748E-09-2.11742E-09
 -1       826-3.16372E+05-4.93886E+02-1.59290E+03-3.64934E+02 3.50582E-11-7.35588E-09
 -1       827-3.16178E+05 7.34967E+01-8.35587E+02-8.85843E+01-5.01373E-10-1.13706E-08
 -1       828-3.16200E+05-1.50720E+02-7.28181E+02 3.47160E+02-4.26300E-09-4.24752E-10
 -1       829-3.16160E+05 7.65751E+01-8.51182E+02-4.38011E+02-5.23958E-10 7.34656E-09
 -1       830-3.16424E+05-5.13394E+02-1.65628E+03 8.72075E+02 9.94133E-10 5.97242E-09
 -1       831-3.15955E+05 4.36694E+02-2.74838E+03-6.13510E+02-3.01945E-09-9.02799E-09
 -1       832-3.17753E+05-3.22432E+03-6.69739E+03 9.68798E+02-1.97310E-09-6.19718E-09
 -1       833-3.14832E+05 2.78575E+03-1.06461E+04-5.34734E+02-1.78811E-09-1.75714E-09
 -1       834-3.25726E+05-2.05713E+04-2.90774E+04 5.89924E+02-8.87544E-10-9.41645E-09
 -1       835-3.07983E+05 1.77697E+04-4.11085E+04-2.34623E+02 5.29109E-09 8.20364E-10
 -1       836-1.05333E+03 2.92677E+05 1.76796E+04-1.59495E+04-9.73159E-10 8.45876E-09
 -1       837 3.84273E+03 2.98180E+05 1.51556E+04-3.21167E+04-9.35529E-10-6.60293E-10
 -1       838-4.09743E+02 2.94193E+05 1.57165E+04-1.58858E+04-3.67436E-10 9.36780E-10
 -1       839 1.00729E+04 3.02825E+05 3.00008E+04-3.21561E+04 7.27596E-12 4.35136E-10
 -1       840-3.06373E+03 2.87990E+05 4.79583E+04-1.59098E+04-2.78305E-10 5.00046E-09
 -1       856-7.26833E+04 7.63087E+03-2.01096E+04-4.20737E+02-1.10919E-09 1.47938E-08
 -1       857-8.09841E+04-8.95379E+03-1.38443E+04 4.86612E+03 4.01883E-10-5.08044E-09
 -1       858-7.59648E+04 1.06942E+03-5.21861E+03-4.42826E+02-1.99844E-09-3.89628E-09
 -1       859-7.72167E+04-1.24664E+03-3.15079E+03 4.90070E+03 4.70436E-10 6.71508E-09
 -1       860-7.64553E+04 1.48970E+02-1.32309E+03-4.55351E+02-9.85580E-10-5.94235E-09
 -1       861-7.66521E+04-1.67203E+02-7.33336E+02 4.91785E+03-7.63741E-10-1.00616E-08
 -1       862-7.65317E+04 1.97431E+01-3.15825E+02-4.59992E+02 8.51536E-10-9.38923E-09
 -1       863-7.65603E+04-1.26077E+01-1.39989E+02 4.92013E+03 6.38431E-09-8.04050E-10
 -1       864-7.65474E+04-2.18769E+00-1.12545E+01-4.57637E+02 7.91289E-10 5.37794E-09
 -1       865-7.65228E+04 3.97733E+01 1.17764E+02 4.90786E+03 2.22778E-09-3.45085E-09
 -1       866-7.65674E+04-3.29587E+01 2.66122E+02-4.47719E+02-2.82029E-09 5.88557E-09
 -1       867-7.63898E+04 2.74437E+02 6.73632E+02 4.88088E+03-8.69676E-10-5.71784E-09
 -1       868-7.66765E+04-2.33497E+02 1.12373E+03-4.30654E+02-3.62149E-10 2.89754E-09
 -1       869-7.55602E+04 1.94210E+03 2.99913E+03 4.83603E+03-1.50749E-09-1.21129E-08
 -1       870-7.73911E+04-1.65661E+03 4.35129E+03-4.02864E+02-1.02807E-09 2.12549E-09
 -1       871-4.66705E+03-1.20525E+04-1.54861E+04 1.03006E+05-1.52795E-10-7.94262E-09
 -1       872-1.93624E+03-1.55608E+04-6.37533E+03 1.33548E+05-4.61114E-10-1.34169E-08
 -1       873 5.28411E+01-1.39098E+04 7.42463E+02 1.02780E+05-5.94355E-10 5.14399E-09
 -1       874 2.42428E+03-1.17714E+04 8.41096E+03 1.33587E+05-4.88853E-11 9.99808E-09
 -1       875 5.52802E+03-1.59073E+04 1.87610E+04 1.02969E+05-1.65528E-10 1.38434E-08
 -1       876 2.45255E+05 4.18685E+04 1.28497E+04 9.90510E+04-1.24714E-10 2.10730E-09
 -1       877 2.46047E+05 4.46318E+04 6.86211E+03 1.02790E+05-9.07448E-10-1.01966E-09
 -1       878 2.46455E+05 4.04466E+04 2.87491E+03 1.00106E+05-3.16959E-09 2.61912E-09
 -1       879 2.44300E+05 4.28897E+04 1.43230E+03 1.02879E+05 1.98270E-09 1.12614E-08
 -1       880 2.46542E+05 4.04314E+04 6.67010E+02 1.00149E+05 9.03356E-09-5.13239E-09
 -1       881 2.44184E+05 4.28155E+04 3.55775E+02 1.02860E+05 1.46508E-08-1.13294E-08
 -1       882 2.46550E+05 4.04422E+04 2.26904E+02 1.00150E+05 5.52586E-09-8.18324E-09
 -1       883 2.44175E+05 4.28118E+04 2.42786E+02 1.02854E+05 1.18035E-09 2.27046E-08
 -1       884 2.46545E+05 4.04396E+04 3.85181E+02 1.00151E+05 1.51203E-11 5.81389E-09
 -1       885 2.44206E+05 4.28173E+04 7.73785E+02 1.02863E+05 2.11460E-09-9.40190E-09
 -1       886 2.46515E+05 4.04170E+04 1.55923E+03 1.00148E+05 5.31443E-09-4.16469E-09
 -1       887 2.44480E+05 4.29969E+04 3.40584E+03 1.02903E+05 9.05072E-09-8.28959E-09
 -1       888 2.46300E+05 4.04548E+04 6.86285E+03 1.00039E+05 4.84729E-09 8.44693E-09
 -1       889 2.48568E+05 4.72442E+04 1.63945E+04 1.02775E+05 4.04857E-09 8.20705E-09
 -1       890 2.43503E+05 4.37772E+04 3.07060E+04 9.74212E+04 3.95062E-09-3.93811E-09
 -1       891-1.30388E+02-1.37836E+05-1.65792E+03 2.48411E+04 7.66931E-10 1.19712E-09
 -1       892-2.31635E+02-1.38244E+05-1.79170E+03 3.76239E+04 8.41283E-10-3.46836E-09
 -1       893-2.03356E+01-1.37888E+05-2.54833E+03 2.48466E+04 5.84578E-10 3.75530E-09
 -1       894-1.35626E+03-1.39213E+05-5.28239E+03 3.74882E+04 1.29944E-09 3.69619E-09
 -1       895-1.06553E+03-1.36787E+05-9.30555E+03 2.49758E+04 6.13340E-11 1.31649E-08
 -1       956-3.11331E+05-4.38062E+03-1.09812E+04 2.17949E+04-1.84627E-10 5.30054E-09
 -1       957-3.13496E+05-1.49203E+03-5.63710E+03 2.62407E+04-4.05998E-09 1.22855E-08
 -1       958-3.12309E+05-1.33649E+02-2.53981E+03 2.16649E+04 5.63887E-11 8.94943E-10
 -1       959-3.12479E+05-3.86671E+01-1.29724E+03 2.63844E+04-1.48066E-09-3.44244E-10
 -1       960-3.12398E+05 2.19348E+01-6.32534E+02 2.16521E+04-1.33969E-09-1.80239E-09
 -1       961-3.12407E+05 1.73290E+01-3.35746E+02 2.63991E+04-9.18590E-11 1.69512E-08
 -1       962-3.12417E+05 1.83845E+01-1.92549E+02 2.16501E+04 5.03837E-09 1.50424E-08
 -1       963-3.12404E+05 1.91625E+01-1.55227E+02 2.64017E+04 1.84218E-09 6.06497E-09
 -1       964-3.12421E+05 2.06259E+01-1.89333E+02 2.16495E+04-4.14940E-09 5.55110E-09
 -1       965-3.12415E+05 2.20951E+01-3.27931E+02 2.64014E+04-1.15617E-09-8.05585E-10
 -1       966-3.12410E+05 2.86051E+01-6.16137E+02 2.16504E+04-7.64885E-10-4.38695E-09
 -1       967-3.12494E+05-2.78041E+01-1.26391E+03 2.63919E+04-9.91918E-10 1.00372E-08
 -1       968-3.12329E+05-1.18575E+02-2.47378E+03 2.16591E+04-3.98359E-10 5.07470E-10
 -1       969-3.13494E+05-1.43987E+03-5.49236E+03 2.62914E+04 8.96307E-10 1.08907E-08
 -1       970-3.11382E+05-4.25373E+03-1.06984E+04 2.17512E+04 5.54792E-11 4.05907E-09
 -1       971-2.90824E+05-1.50062E+03-8.27228E+03 1.36292E+04 3.39787E-09-4.26982E-09
 -1       972-2.92830E+05-1.08315E+03-4.50500E+03 1.89912E+04 6.23140E-09-6.33645E-09
 -1       973-2.91745E+05-2.15841E+01-2.01748E+03 1.35167E+04 1.37788E-10-3.09501E-09
 -1       974-2.91879E+05-2.55143E+01-1.04535E+03 1.91143E+04 4.13274E-09-6.86737E-09
 -1       975-2.91817E+05 1.76762E+01-5.21894E+02 1.35061E+04 1.11459E-09 1.71804E-09
 -1       976-2.91824E+05 1.82747E+01-2.99923E+02 1.91275E+04-9.18362E-10 4.43686E-09
 -1       977-2.91831E+05 1.78550E+01-2.15594E+02 1.35034E+04-2.66255E-10-8.30141E-10
 -1       978-2.91828E+05 2.34207E+01-2.49441E+02 1.91312E+04 9.67088E-09 7.40397E-09
 -1       979-2.91831E+05 2.48097E+01-3.98327E+02 1.35023E+04 4.65354E-09 4.38297E-09
 -1       980-2.91857E+05 2.59502E+01-7.67586E+02 1.91319E+04-1.23873E-09 7.08440E-09
 -1       981-2.91806E+05 4.39509E+01-1.48583E+03 1.35027E+04-1.98997E-09 1.76300E-09
 -1       982-2.92061E+05-8.37831E+01-3.07073E+03 1.91261E+04-2.11583E-09-7.40961E-09
 -1       983-2.91619E+05-5.11183E+01-5.96622E+03 1.35083E+04 1.92495E-09-8.36076E-09
 -1       984-2.94930E+05-3.19962E+03-1.33607E+04 1.90492E+04-9.40872E-10 2.71677E-09
 -1       985-2.88918E+05-4.41683E+03-2.45345E+04 1.35820E+04 2.53840E-09 1.06156E-08
 -3
    1PSTEP                        15           8           1          
  100CL  108 6.09375E-01         409                     0    8           1
 -4  DISP        4    1
 -5  D1          1    2    1    0
 -5  D2          1    2    2    0
 -5  D3          1    2    3    0
 -5  ALL         1    2    0    0    1ALL
 -1         1 1.30195E-03 0.00000E+00 0.00000E+00
 -1         2 1.22690E-03 8.40647E-28 1.32349E-23
 -1         3 2.69062E-04-2.58380E-27 1.32349E-23
 -1         5 1.49516E-04-1.13906E-25-1.65436E-24
 -1         8 1.28242E-03-6.15931E-07 0.00000E+00
 -1         9 1.25090E-03-3.71104E-06 0.00000E+00
 -1        10 2.44807E-04-3.24201E-06 6.61744E-24
 -1        12 1.50383E-04 7.07254E-07 8.27181E-25
 -1        15 1.25899E-03-6.77739E-07-2.06795E-25
 -1        16 1.26582E-03-4.51203E-06 0.00000E+00
 -1        17 1.69326E-04-7.13604E-06 0.00000E+00
 -1        18 1.51571E-04 2.07190E-05 0.00000E+00
 -1        19 1.52987E-04 1.41040E-06 0.00000E+00
 -1        20 1.53133E-04 7.96271E-07 0.00000E+00
 -1        21 1.52379E-04-2.65878E-06 0.00000E+00
 -1        24 2.71929E-05-1.03269E-05 0.00000E+00
 -1        25 1.57438E-04 2.09039E-05 0.00000E+00
 -1        26 1.58134E-04 1.95404E-06 0.00000E+00
 -1        27 1.56211E-04-2.36861E-06 0.00000E+00
 -1        28 1.55836E-04-3.22667E-06 0.00000E+00
 -1        32 0.00000E+00 0.00000E+00 0.00000E+00
 -1        33 1.62241E-04 2.61772E-06 0.00000E+00
 -1        34 1.60351E-04-2.40818E-06 0.00000E+00
 -1        35 1.58606E-04-3.53438E-06 0.00000E+00
 -1        51 1.30069E-03-1.11078E-07 0.00000E+00
 -1        52 1.29834E-03-2.10005E-07 0.00000E+00
 -1        53 1.29512E-03-3.07835E-07 0.00000E+00
 -1        54 1.29125E-03-4.06566E-07 0.00000E+00
 -1        55 1.28694E-03-5.07568E-07-2.89513E-24
 -1        56 1.29893E-03-3.60704E-07 0.00000E+00
 -1        57 1.29530E-03 5.62346E-07 0.00000E+00
 -1        58 1.29126E-03 2.61541E-06 0.00000E+00
 -1        59 1.28687E-03 5.51829E-06 0.00000E+00
 -1        60 1.28230E-03 8.89211E-06 0.00000E+00
 -1        61 1.27772E-03 1.23191E-05 0.00000E+00
 -1        62 1.27327E-03 1.53758E-05 0.00000E+00
 -1        63 1.26911E-03 1.76621E-05 0.00000E+00
 -1        64 1.26535E-03 1.88820E-05 0.00000E+00
 -1        65 1.26209E-03 1.88104E-05-5.29396E-23
 -1        66 1.25932E-03 1.73960E-05 1.05879E-22
 -1        67 1.25705E-03 1.46781E-05-5.29396E-23
 -1        68 1.25518E-03 1.08701E-05 0.00000E+00
 -1        69 1.25363E-03 6.26541E-06 0.00000E+00
 -1        70 1.25222E-03 1.25214E-06 0.00000E+00
 -1        86 1.22796E-03-6.09231E-07 0.00000E+00
 -1        87 1.23113E-03-1.22287E-06 6.61744E-24
 -1        88 1.23577E-03-1.84185E-06-2.64698E-23
 -1        89 1.24121E-03-2.46553E-06 0.00000E+00
 -1        90 1.24655E-03-3.08844E-06 0.00000E+00
 -1       121 2.68381E-04-5.30026E-07 0.00000E+00
 -1       122 2.66342E-04-1.06184E-06 0.00000E+00
 -1       123 2.62949E-04-1.59718E-06 0.00000E+00
 -1       124 2.58218E-04-2.13786E-06 6.61744E-24
 -1       125 2.52162E-04-2.68534E-06 0.00000E+00
 -1       191 1.49540E-04 1.17893E-07-1.65436E-24
 -1       192 1.49612E-04 2.35782E-07-8.27181E-25
 -1       193 1.49733E-04 3.53667E-07 1.65436E-24
 -1       194 1.49901E-04 4.71544E-07-8.27181E-25
 -1       195 1.50118E-04 5.89408E-07 1.65436E-24
 -1       251 1.28174E-03-1.14176E-05 0.00000E+00
 -1       252 1.28034E-03-5.13077E-05 0.00000E+00
 -1       253 1.27795E-03-1.12447E-04 1.32349E-23
 -1       254 1.27471E-03-1.86469E-04 6.61744E-24
 -1       255 1.27142E-03-2.61279E-04 0.00000E+00
 -1       256 1.26888E-03-3.24766E-04 0.00000E+00
 -1       257 1.26734E-03-3.68104E-04 0.00000E+00
 -1       258 1.26660E-03-3.82961E-04 0.00000E+00
 -1       259 1.26588E-03-3.68928E-04 1.32349E-23
 -1       260 1.26437E-03-3.26346E-04 0.00000E+00
 -1       261 1.26187E-03-2.63496E-04 0.00000E+00
 -1       262 1.25861E-03-1.89156E-04 0.00000E+00
 -1       263 1.25539E-03-1.15438E-04 0.00000E+00
 -1       264 1.25300E-03-5.44396E-05 0.00000E+00
 -1       265 1.25160E-03-1.45670E-05 2.64698E-23
 -1       266 1.27851E-03-6.35178E-07-3.30872E-24
 -1       267 1.27461E-03-6.44389E-07 8.27181E-25
 -1       268 1.27071E-03-6.54235E-07 0.00000E+00
 -1       269 1.26680E-03-6.62199E-07 2.06795E-25
 -1       270 1.26290E-03-6.70119E-07 2.06795E-25
 -1       271 1.28002E-03 2.86725E-06 0.00000E+00
 -1       272 1.27765E-03 6.15169E-06 0.00000E+00
 -1       273 1.27539E-03 9.16547E-06 2.64698E-23
 -1       274 1.27326E-03 1.18255E-05-1.32349E-23
 -1       275 1.27129E-03 1.40572E-05 0.00000E+00
 -1       276 1.26951E-03 1.57895E-05-1.32349E-23
 -1       277 1.26794E-03 1.69581E-05-2.64698E-23
 -1       278 1.26661E-03 1.75054E-05 0.00000E+00
 -1       279 1.26552E-03 1.73822E-05 0.00000E+00
 -1       280 1.26471E-03 1.65474E-05 0.00000E+00
 -1       281 1.26417E-03 1.49690E-05 2.64698E-23
 -1       282 1.26392E-03 1.26246E-05 0.00000E+00
 -1       283 1.26396E-03 9.50126E-06 0.00000E+00
 -1       284 1.26429E-03 5.59714E-06 1.32349E-23
 -1       285 1.26490E-03 9.18020E-07 0.00000E+00
 -1       301 1.25357E-03-3.86442E-06 6.61744E-24
 -1       302 1.25549E-03-3.98968E-06 0.00000E+00
 -1       303 1.25715E-03-4.11244E-06 0.00000E+00
 -1       304 1.25908E-03-4.23516E-06 0.00000E+00
 -1       305 1.26180E-03-4.36135E-06 0.00000E+00
 -1       306 1.27731E-03-1.00715E-04 0.00000E+00
 -1       307 1.33744E-03-3.74762E-04 0.00000E+00
 -1       308 1.40519E-03-7.81834E-04 0.00000E+00
 -1       309 1.46961E-03-1.26157E-03 0.00000E+00
 -1       310 1.53455E-03-1.73234E-03-1.05879E-22
 -1       311 1.60219E-03-2.11341E-03 5.29396E-23
 -1       312 1.65739E-03-2.34936E-03 0.00000E+00
 -1       313 1.67103E-03-2.40370E-03 0.00000E+00
 -1       314 1.60961E-03-2.27843E-03-1.05879E-22
 -1       315 1.45067E-03-1.99967E-03 5.29396E-23
 -1       316 1.20406E-03-1.61642E-03 0.00000E+00
 -1       317 9.02150E-04-1.17998E-03 5.29396E-23
 -1       318 6.03795E-04-7.46845E-04 0.00000E+00
 -1       319 3.66868E-04-3.73815E-04 0.00000E+00
 -1       320 2.20105E-04-1.11435E-04 0.00000E+00
 -1       336 2.36006E-04-3.85179E-06-1.32349E-23
 -1       337 2.25626E-04-4.47673E-06-6.61744E-24
 -1       338 2.13710E-04-5.11776E-06 0.00000E+00
 -1       339 2.00314E-04-5.77505E-06 0.00000E+00
 -1       340 1.85497E-04-6.45169E-06-1.32349E-23
 -1       406 1.50697E-04 8.25073E-07 1.65436E-24
 -1       407 1.51058E-04 9.42838E-07-1.65436E-24
 -1       408 1.51468E-04 1.06052E-06 1.65436E-24
 -1       409 1.51926E-04 1.17796E-06 8.27181E-25
 -1       410 1.52433E-04 1.29494E-06 1.65436E-24
 -1       521 1.29347E-03-1.09979E-04 2.11758E-22
 -1       522 1.35453E-03-4.03485E-04 5.29396E-23
 -1       523 1.42090E-03-8.38430E-04-1.05879E-22
 -1       524 1.48184E-03-1.34911E-03 0.00000E+00
 -1       525 1.54362E-03-1.84959E-03-1.05879E-22
 -1       526 1.61052E-03-2.25496E-03 0.00000E+00
 -1       527 1.66657E-03-2.50495E-03 0.00000E+00
 -1       528 1.67982E-03-2.56164E-03 0.00000E+00
 -1       529 1.61189E-03-2.42643E-03 1.05879E-22
 -1       530 1.43783E-03-2.12976E-03 0.00000E+00
 -1       531 1.16735E-03-1.72364E-03 1.05879E-22
 -1       532 8.36435E-04-1.26289E-03-5.29396E-23
 -1       533 5.08895E-04-8.05076E-04 1.05879E-22
 -1       534 2.47607E-04-4.08096E-04 0.00000E+00
 -1       535 8.50927E-05-1.26275E-04 0.00000E+00
 -1       536 1.68825E-04 1.95676E-05 0.00000E+00
 -1       537 1.67642E-04 6.59287E-05-3.30872E-24
 -1       538 1.65844E-04 1.24750E-04 3.30872E-24
 -1       539 1.63740E-04 1.88768E-04 0.00000E+00
 -1       540 1.61845E-04 2.49190E-04 0.00000E+00
 -1       541 1.60597E-04 2.97239E-04-1.65436E-24
 -1       542 1.59997E-04 3.27638E-04 0.00000E+00
 -1       543 1.59815E-04 3.35219E-04 0.00000E+00
 -1       544 1.59561E-04 3.20657E-04 3.30872E-24
 -1       545 1.58789E-04 2.84781E-04 0.00000E+00
 -1       546 1.57414E-04 2.33980E-04-3.30872E-24
 -1       547 1.55591E-04 1.74733E-04 0.00000E+00
 -1       548 1.53795E-04 1.15955E-04 3.30872E-24
 -1       549 1.52488E-04 6.65638E-05-1.65436E-24
 -1       550 1.51788E-04 3.27776E-05-1.65436E-24
 -1       551 1.49747E-04-7.58035E-06 0.00000E+00
 -1       552 1.27369E-04-8.07605E-06 0.00000E+00
 -1       553 1.03050E-04-8.61280E-06-4.32977E-24
 -1       554 7.76664E-05-9.17611E-06 6.61744E-24
 -1       555 5.20909E-05-9.74644E-06 0.00000E+00
 -1       556 1.63563E-04 7.67659E-06 0.00000E+00
 -1       557 1.58954E-04 1.95625E-05 0.00000E+00
 -1       558 1.55387E-04 2.87584E-05 0.00000E+00
 -1       559 1.52758E-04 3.55203E-05 0.00000E+00
 -1       560 1.50961E-04 4.01039E-05 0.00000E+00
 -1       561 1.49893E-04 4.27673E-05 0.00000E+00
 -1       562 1.49453E-04 4.37689E-05-2.64698E-23
 -1       563 1.49540E-04 4.33681E-05 0.00000E+00
 -1       564 1.50056E-04 4.18246E-05 0.00000E+00
 -1       565 1.50900E-04 3.93986E-05 6.61744E-24
 -1       566 1.51977E-04 3.63507E-05 0.00000E+00
 -1       567 1.53188E-04 3.29415E-05 0.00000E+00
 -1       568 1.54437E-04 2.94319E-05 8.27181E-25
 -1       569 1.55626E-04 2.60827E-05 0.00000E+00
 -1       570 1.56658E-04 2.31546E-05 0.00000E+00
 -1       571 1.51657E-04 1.94710E-05 0.00000E+00
 -1       572 1.51745E-04 1.81680E-05 8.27181E-25
 -1       573 1.51833E-04 1.68225E-05 1.65436E-24
 -1       574 1.51922E-04 1.54475E-05-8.27181E-25
 -1       575 1.52010E-04 1.40561E-05 3.30872E-24
 -1       576 1.52099E-04 1.26613E-05-1.65436E-24
 -1       577 1.52187E-04 1.12763E-05-3.30872E-24
 -1       578 1.52276E-04 9.91416E-06 0.00000E+00
 -1       579 1.52365E-04 8.58797E-06 0.00000E+00
 -1       580 1.52453E-04 7.31089E-06 0.00000E+00
 -1       581 1.52542E-04 6.09603E-06 0.00000E+00
 -1       582 1.52631E-04 4.95649E-06 0.00000E+00
 -1       583 1.52720E-04 3.90535E-06 0.00000E+00
 -1       584 1.52809E-04 2.95558E-06 0.00000E+00
 -1       585 1.52898E-04 2.12000E-06 0.00000E+00
 -1       586 1.52500E-04 2.07518E-05 1.65436E-24
 -1       587 1.53396E-04 2.07839E-05 4.13590E-25
 -1       588 1.54300E-04 2.08157E-05 0.00000E+00
 -1       589 1.55249E-04 2.08469E-05 0.00000E+00
 -1       590 1.56283E-04 2.08770E-05 0.00000E+00
 -1       591 1.51987E-04 1.95414E-05 0.00000E+00
 -1       592 1.52408E-04 1.83400E-05 6.20385E-25
 -1       593 1.52835E-04 1.71209E-05 0.00000E+00
 -1       594 1.53267E-04 1.58890E-05 0.00000E+00
 -1       595 1.53701E-04 1.46496E-05 8.27181E-25
 -1       596 1.54137E-04 1.34076E-05-4.13590E-25
 -1       597 1.54571E-04 1.21680E-05 8.27181E-25
 -1       598 1.55002E-04 1.09360E-05-4.13590E-25
 -1       599 1.55429E-04 9.71644E-06 0.00000E+00
 -1       600 1.55850E-04 8.51445E-06 0.00000E+00
 -1       601 1.56261E-04 7.33505E-06 4.13590E-25
 -1       602 1.56663E-04 6.18324E-06 2.06795E-25
 -1       603 1.57053E-04 5.06408E-06 2.06795E-25
 -1       604 1.57429E-04 3.98268E-06 0.00000E+00
 -1       605 1.57789E-04 2.94399E-06 0.00000E+00
 -1       606 1.53000E-04 9.01552E-07-3.30872E-24
 -1       607 1.53010E-04 4.83094E-07 0.00000E+00
 -1       608 1.53019E-04 1.49718E-07 0.00000E+00
 -1       609 1.53028E-04-1.04560E-07-1.65436E-24
 -1       610 1.53037E-04-2.85770E-07 0.00000E+00
 -1       611 1.53046E-04-4.00009E-07 0.00000E+00
 -1       612 1.53055E-04-4.53383E-07 0.00000E+00
 -1       613 1.53064E-04-4.52008E-07 0.00000E+00
 -1       614 1.53073E-04-4.01996E-07 0.00000E+00
 -1       615 1.53081E-04-3.09464E-07 0.00000E+00
 -1       616 1.53090E-04-1.80524E-07 1.65436E-24
 -1       617 1.53099E-04-2.12922E-08 0.00000E+00
 -1       618 1.53108E-04 1.62116E-07 8.27181E-25
 -1       619 1.53116E-04 3.63589E-07 2.06795E-25
 -1       620 1.53125E-04 5.77012E-07 0.00000E+00
 -1       621 1.53651E-04 1.50131E-06 0.00000E+00
 -1       622 1.54423E-04 1.59250E-06 8.27181E-25
 -1       623 1.55280E-04 1.68360E-06 1.65436E-24
 -1       624 1.56199E-04 1.77449E-06 1.65436E-24
 -1       625 1.57158E-04 1.86518E-06 0.00000E+00
 -1       626 1.53278E-04 9.33303E-07-3.30872E-24
 -1       627 1.53543E-04 5.26198E-07 1.65436E-24
 -1       628 1.53786E-04 1.81302E-07 0.00000E+00
 -1       629 1.54008E-04-1.09542E-07 1.65436E-24
 -1       630 1.54213E-04-3.54513E-07-3.30872E-24
 -1       631 1.54404E-04-5.61814E-07 1.65436E-24
 -1       632 1.54584E-04-7.39649E-07 6.61744E-24
 -1       633 1.54757E-04-8.96230E-07-1.65436E-24
 -1       634 1.54924E-04-1.03976E-06 0.00000E+00
 -1       635 1.55089E-04-1.17844E-06-1.65436E-24
 -1       636 1.55256E-04-1.32048E-06 3.30872E-24
 -1       637 1.55427E-04-1.47409E-06 1.65436E-24
 -1       638 1.55605E-04-1.64748E-06 0.00000E+00
 -1       639 1.55793E-04-1.84886E-06 0.00000E+00
 -1       640 1.55995E-04-2.08646E-06 1.65436E-24
 -1       656 1.53139E-04 2.81625E-07 0.00000E+00
 -1       657 1.53545E-04-2.53782E-07 0.00000E+00
 -1       658 1.54212E-04-7.87774E-07 0.00000E+00
 -1       659 1.54995E-04-1.32140E-06-6.61744E-24
 -1       660 1.55719E-04-1.85665E-06-6.61744E-24
 -1       661 1.53137E-04 9.77304E-07 0.00000E+00
 -1       662 1.53173E-04 1.08023E-06 0.00000E+00
 -1       663 1.53237E-04 1.10897E-06 0.00000E+00
 -1       664 1.53328E-04 1.06868E-06 0.00000E+00
 -1       665 1.53443E-04 9.63896E-07 0.00000E+00
 -1       666 1.53580E-04 7.99235E-07-8.27181E-25
 -1       667 1.53738E-04 5.79085E-07 0.00000E+00
 -1       668 1.53916E-04 3.07776E-07 0.00000E+00
 -1       669 1.54110E-04-1.05317E-08 1.65436E-24
 -1       670 1.54321E-04-3.71757E-07 0.00000E+00
 -1       671 1.54547E-04-7.71942E-07 1.65436E-24
 -1       672 1.54785E-04-1.20723E-06 8.27181E-25
 -1       673 1.55036E-04-1.67381E-06 0.00000E+00
 -1       674 1.55295E-04-2.16823E-06-8.27181E-25
 -1       675 1.55564E-04-2.68643E-06 0.00000E+00
 -1       676 1.52957E-04-2.75398E-06 0.00000E+00
 -1       677 1.53535E-04-2.84914E-06 0.00000E+00
 -1       678 1.54112E-04-2.94426E-06 0.00000E+00
 -1       679 1.54688E-04-3.03909E-06-1.65436E-24
 -1       680 1.55263E-04-3.13390E-06 0.00000E+00
 -1       771 1.78606E-05 1.02108E-05 0.00000E+00
 -1       772 9.96673E-06 2.70712E-05 0.00000E+00
 -1       773 3.44267E-06 4.04377E-05 0.00000E+00
 -1       774-1.80442E-06 5.05146E-05 0.00000E+00
 -1       775-5.86584E-06 5.75126E-05-5.29396E-23
 -1       776-8.83659E-06 6.16546E-05 0.00000E+00
 -1       777-1.08119E-05 6.31699E-05 0.00000E+00
 -1       778-1.18890E-05 6.22978E-05 0.00000E+00
 -1       779-1.21651E-05 5.92831E-05 5.29396E-23
 -1       780-1.17390E-05 5.43785E-05 0.00000E+00
 -1       781-1.07093E-05 4.78414E-05 0.00000E+00
 -1       782-9.17566E-06 3.99350E-05 2.64698E-23
 -1       783-7.23761E-06 3.09259E-05 0.00000E+00
 -1       784-4.99551E-06 2.10849E-05-2.64698E-23
 -1       785-2.54927E-06 1.06848E-05 0.00000E+00
 -1       786 1.57478E-04 1.95040E-05 0.00000E+00
 -1       787 1.57521E-04 1.81511E-05-4.13590E-25
 -1       788 1.57564E-04 1.68376E-05 0.00000E+00
 -1       789 1.57607E-04 1.55558E-05 0.00000E+00
 -1       790 1.57651E-04 1.43012E-05-1.65436E-24
 -1       791 1.57695E-04 1.30694E-05-8.27181E-25
 -1       792 1.57738E-04 1.18584E-05 0.00000E+00
 -1       793 1.57782E-04 1.06662E-05 0.00000E+00
 -1       794 1.57826E-04 9.49254E-06 0.00000E+00
 -1       795 1.57870E-04 8.33738E-06 0.00000E+00
 -1       796 1.57914E-04 7.20251E-06 0.00000E+00
 -1       797 1.57958E-04 6.08975E-06 0.00000E+00
 -1       798 1.58002E-04 5.00316E-06 1.65436E-24
 -1       799 1.58046E-04 3.94688E-06 0.00000E+00
 -1       800 1.58090E-04 2.92808E-06 1.65436E-24
 -1       801 1.24877E-04 1.85618E-05-2.64698E-23
 -1       802 2.59533E-05 1.20041E-05 0.00000E+00
 -1       803-6.11516E-05 6.33960E-06 0.00000E+00
 -1       804-5.92480E-05 4.30092E-06-2.64698E-23
 -1       805-2.04063E-05 1.89914E-06 0.00000E+00
 -1       806 1.57861E-04 1.94445E-05 0.00000E+00
 -1       807 1.58270E-04 1.80117E-05 0.00000E+00
 -1       808 1.58667E-04 1.66098E-05 0.00000E+00
 -1       809 1.59051E-04 1.52419E-05 0.00000E+00
 -1       810 1.59421E-04 1.39113E-05 0.00000E+00
 -1       811 1.59775E-04 1.26211E-05 0.00000E+00
 -1       812 1.60114E-04 1.13743E-05-1.65436E-24
 -1       813 1.60435E-04 1.01742E-05 8.27181E-25
 -1       814 1.60737E-04 9.02367E-06-1.65436E-24
 -1       815 1.61020E-04 7.92588E-06 8.27181E-25
 -1       816 1.61281E-04 6.88389E-06 1.65436E-24
 -1       817 1.61521E-04 5.90075E-06 8.27181E-25
 -1       818 1.61738E-04 4.97953E-06-3.30872E-24
 -1       819 1.61930E-04 4.12328E-06 0.00000E+00
 -1       820 1.62098E-04 3.33501E-06-1.65436E-24
 -1       821 1.58021E-04 8.65033E-07 0.00000E+00
 -1       822 1.57900E-04-4.96360E-07 1.65436E-24
 -1       823 1.57779E-04-1.98043E-06-3.30872E-24
 -1       824 1.57657E-04-3.43676E-06 0.00000E+00
 -1       825 1.57535E-04-4.72193E-06 0.00000E+00
 -1       826 1.57414E-04-5.69340E-06-1.65436E-24
 -1       827 1.57292E-04-6.28578E-06-3.30872E-24
 -1       828 1.57171E-04-6.43577E-06 0.00000E+00
 -1       829 1.57049E-04-6.18885E-06 3.30872E-24
 -1       830 1.56928E-04-5.59264E-06-1.65436E-24
 -1       831 1.56806E-04-4.78067E-06 3.30872E-24
 -1       832 1.56685E-04-3.88763E-06 0.00000E+00
 -1       833 1.56564E-04-3.06818E-06-3.30872E-24
 -1       834 1.56444E-04-2.47657E-06 0.00000E+00
 -1       835 1.56324E-04-2.21119E-06 8.27181E-25
 -1       836 1.59002E-04 2.06432E-06-3.30872E-24
 -1       837 1.59756E-04 2.17721E-06 0.00000E+00
 -1       838 1.60427E-04 2.28998E-06-3.30872E-24
 -1       839 1.61044E-04 2.40208E-06 0.00000E+00
 -1       840 1.61639E-04 2.51400E-06 4.13590E-25
 -1       856 1.56191E-04-2.67119E-06 0.00000E+00
 -1       857 1.56168E-04-2.84894E-06 5.16988E-26
 -1       858 1.56145E-04-2.92133E-06-4.13590E-25
 -1       859 1.56122E-04-2.90791E-06 2.06795E-25
 -1       860 1.56098E-04-2.82834E-06 0.00000E+00
 -1       861 1.56075E-04-2.70230E-06-4.13590E-25
 -1       862 1.56051E-04-2.54954E-06 0.00000E+00
 -1       863 1.56027E-04-2.38981E-06 0.00000E+00
 -1       864 1.56004E-04-2.24289E-06 0.00000E+00
 -1       865 1.55980E-04-2.12853E-06 4.13590E-25
 -1       866 1.55956E-04-2.06645E-06-8.27181E-25
 -1       867 1.55933E-04-2.07635E-06-4.13590E-25
 -1       868 1.55909E-04-2.17783E-06-8.27181E-25
 -1       869 1.55885E-04-2.39044E-06 0.00000E+00
 -1       870 1.55861E-04-2.73361E-06 8.27181E-25
 -1       871 1.56770E-04-2.37135E-06 0.00000E+00
 -1       872 1.57461E-04-2.37700E-06 0.00000E+00
 -1       873 1.58224E-04-2.38322E-06 0.00000E+00
 -1       874 1.59000E-04-2.39010E-06-4.13590E-25
 -1       875 1.59728E-04-2.39753E-06 1.44757E-24
 -1       876 1.56440E-04-2.65850E-06-3.30872E-24
 -1       877 1.56648E-04-2.88729E-06 1.65436E-24
 -1       878 1.56837E-04-3.06232E-06 3.30872E-24
 -1       879 1.57008E-04-3.19037E-06 0.00000E+00
 -1       880 1.57164E-04-3.27828E-06 0.00000E+00
 -1       881 1.57308E-04-3.33282E-06 0.00000E+00
 -1       882 1.57442E-04-3.36078E-06 0.00000E+00
 -1       883 1.57568E-04-3.36891E-06 0.00000E+00
 -1       884 1.57690E-04-3.36398E-06-3.30872E-24
 -1       885 1.57809E-04-3.35275E-06 0.00000E+00
 -1       886 1.57928E-04-3.34197E-06 3.30872E-24
 -1       887 1.58050E-04-3.33842E-06 0.00000E+00
 -1       888 1.58177E-04-3.34887E-06 0.00000E+00
 -1       889 1.58311E-04-3.38024E-06 8.27181E-25
 -1       890 1.58455E-04-3.43924E-06 1.65436E-24
 -1       891 1.56430E-04-3.27827E-06-1.65436E-24
 -1       892 1.57003E-04-3.33004E-06 4.13590E-25
 -1       893 1.57531E-04-3.38174E-06-8.27181E-25
 -1       894 1.57989E-04-3.43326E-06 4.13590E-25
 -1       895 1.58356E-04-3.48461E-06 0.00000E+00
 -1       956 1.62124E-04 2.04979E-06 0.00000E+00
 -1       957 1.62006E-04 1.55950E-06 0.00000E+00
 -1       958 1.61888E-04 1.13792E-06-1.65436E-24
 -1       959 1.61770E-04 7.75614E-07 0.00000E+00
 -1       960 1.61651E-04 4.63114E-07-3.30872E-24
 -1       961 1.61533E-04 1.90915E-07 0.00000E+00
 -1       962 1.61414E-04-5.04941E-08 3.30872E-24
 -1       963 1.61296E-04-2.70639E-07-1.65436E-24
 -1       964 1.61177E-04-4.79040E-07-3.30872E-24
 -1       965 1.61058E-04-6.85221E-07 0.00000E+00
 -1       966 1.60940E-04-8.98710E-07-3.30872E-24
 -1       967 1.60821E-04-1.12903E-06 0.00000E+00
 -1       968 1.60703E-04-1.38569E-06 0.00000E+00
 -1       969 1.60585E-04-1.67818E-06-1.65436E-24
 -1       970 1.60467E-04-2.01598E-06-3.30872E-24
 -1       971 1.60243E-04-2.79201E-06 1.65436E-24
 -1       972 1.60133E-04-3.08649E-06-1.65436E-24
 -1       973 1.60024E-04-3.30145E-06 3.30872E-24
 -1       974 1.59914E-04-3.44715E-06 0.00000E+00
 -1       975 1.59805E-04-3.53383E-06 3.30872E-24
 -1       976 1.59695E-04-3.57176E-06 1.65436E-24
 -1       977 1.59585E-04-3.57123E-06 0.00000E+00
 -1       978 1.59476E-04-3.54254E-06-1.65436E-24
 -1       979 1.59366E-04-3.49596E-06 0.00000E+00
 -1       980 1.59256E-04-3.44182E-06 0.00000E+00
 -1       981 1.59147E-04-3.39041E-06 3.30872E-24
 -1       982 1.59037E-04-3.35203E-06-1.65436E-24
 -1       983 1.58928E-04-3.33697E-06-3.30872E-24
 -1       984 1.58819E-04-3.35553E-06 0.00000E+00
 -1       985 1.58710E-04-3.41799E-06 1.65436E-24
 -3
    1PSTEP                        16           8           1          
  100CL  108 6.09375E-01         409                     0    8           1
 -4  STRESS      6    1
 -5  SXX         1    4    1    1
 -5  SYY         1    4    2    2
 -5  SZZ         1    4    3    3
 -5  SXY         1    4    1    2
 -5  SYZ         1    4    2    3
 -5  SZX         1    4    3    1
 -1         1-3.72521E+06-1.43763E+06-8.15162E+05-1.51053E+06 5.82077E-10-1.15542E-08
 -1         2 8.06571E+02-1.73369E+06 2.89043E+03 1.57457E+04 4.82970E-10 7.26124E-08
 -1         3-8.47306E+02-1.50888E+06 3.67477E+02-1.62123E+03-2.98410E-10 1.26201E-08
 -1         5-1.72955E+01 3.37393E+05 8.66144E+00-4.81182E-01-1.69520E-10-1.41890E-08
 -1         8-8.02284E+05-2.74648E+05-7.58868E+04-4.52415E+05 6.91216E-10 3.29565E-08
 -1         9 3.70829E+06-6.98725E+05 6.82263E+05-7.94426E+05 2.61003E-08 2.40514E-08
 -1        10-1.76072E+03-1.57221E+06-3.20895E+03-1.09584E+04-1.00990E-08-2.58078E-08
 -1        12-1.37701E+01 3.37411E+05 2.81466E+02-3.46734E+00-2.84700E-10 1.56228E-08
 -1        15 1.48223E+03 8.14566E+02 4.79128E+03 2.50245E+00 1.04308E-10 1.28035E-07
 -1        16 9.32626E+06-3.93388E+05 1.34351E+06-1.07998E+06 1.40669E-08 1.33994E-07
 -1        17 3.21881E+06 2.11674E+06 8.83536E+05 2.18430E+06 9.87784E-09 1.85508E-08
 -1        18 6.15062E+04 1.16498E+04-1.19437E+04-9.96100E+04 1.06779E-08-4.90172E-09
 -1        19 1.07946E+05 1.24316E+05-8.70879E+02 2.03338E+04 7.99628E-10 1.45737E-08
 -1        20-6.47275E+04-5.08456E+05-1.13542E+05 2.67362E+04 2.19643E-10 1.99361E-09
 -1        21-4.32649E+01-2.72086E+05-8.58370E+02 1.07862E+02 6.07369E-09-7.21856E-09
 -1        24 5.02677E+06 4.51410E+06 1.58548E+06 4.11898E+06-1.14878E-07-4.55378E-08
 -1        25-8.35987E+03-2.22890E+05-2.55154E+04-3.69287E+05-2.54477E-10 1.01791E-09
 -1        26-4.64518E+04 8.03816E+04-2.19328E+04-1.42559E+03 1.22491E-09 2.99086E-09
 -1        27-7.08040E+04-2.75735E+05-1.01680E+05 6.17205E+04 4.50412E-09-3.87051E-09
 -1        28 2.06860E+04-7.74364E+04 1.54918E+04 2.05024E+04-1.31087E-09 5.97541E-09
 -1        32-1.53446E+06-2.69104E+06-1.39304E+05-3.15353E+04-3.35640E-08-6.23692E-09
 -1        33-1.60292E+05 8.11739E+04 2.86313E+04-3.56519E+04-1.12937E-09-7.06890E-09
 -1        34-2.01211E+05-2.15633E+04 5.79859E+02 6.60359E+04-1.76495E-09-6.98022E-09
 -1        35-2.11984E+04-3.07310E+04-1.21861E+03 4.73702E+04-3.45040E-11 3.20991E-09
 -1        51 4.06033E+04-2.52542E+05 8.95618E+04-7.37811E+05 1.45519E-10 1.09343E-07
 -1        52 1.57748E+04-2.39606E+05 4.97394E+04-8.60296E+05 5.09317E-10 1.13876E-07
 -1        53 5.65497E+03-2.54553E+05 3.02717E+04-7.35154E+05 2.94676E-10-7.08678E-09
 -1        54 1.39527E+04-2.51542E+05 3.36942E+04-8.63049E+05 5.82077E-11-3.17814E-08
 -1        55 2.87095E+04-2.62326E+05 5.12819E+04-7.34770E+05 4.07454E-10 2.32285E-08
 -1        56-7.06198E+06-7.95321E+05-6.02297E+05-2.75156E+06-5.70435E-09 4.83997E-08
 -1        57-7.39302E+06-1.25197E+06-4.06194E+05-2.62485E+06 3.34203E-08 1.40903E-07
 -1        58-7.16429E+06-1.00516E+06-1.41528E+05-2.73438E+06-2.20825E-09 1.10012E-08
 -1        59-7.27859E+06-1.00201E+06-8.44028E+04-2.64187E+06-4.99858E-09-1.76661E-07
 -1        60-7.17489E+06-1.03853E+06-3.29198E+04-2.73683E+06-1.46597E-08-7.89314E-08
 -1        61-7.26003E+06-9.68787E+05-1.86644E+04-2.64564E+06-1.94246E-08 5.11309E-08
 -1        62-7.18242E+06-1.03751E+06-8.99077E+03-2.73081E+06-1.66074E-09-7.26686E-09
 -1        63-7.23750E+06-9.83812E+05-7.11807E+03-2.66707E+06-1.96014E-08 1.30698E-08
 -1        64-7.19679E+06-1.02378E+06-8.41139E+03-2.71501E+06 6.18274E-09 4.87667E-08
 -1        65-7.20745E+06-1.01860E+06-1.62232E+04-2.70212E+06-4.19323E-09-9.78118E-08
 -1        66-7.21216E+06-1.00305E+06-2.90014E+04-2.69549E+06 1.16124E-08-7.98173E-09
 -1        67-7.19382E+06-1.07793E+06-7.33510E+04-2.73425E+06-1.85100E-08-8.40373E-09
 -1        68-7.21117E+06-9.64962E+05-1.23176E+05-2.68298E+06-3.83079E-09-7.00675E-09
 -1        69-7.29411E+06-1.29663E+06-3.53572E+05-2.72240E+06-1.92449E-09-6.65277E-08
 -1        70-7.11431E+06-7.89545E+05-5.24018E+05-2.70614E+06 1.77533E-09-1.30385E-08
 -1        86-5.02085E+02-1.74071E+06 1.75852E+03-7.87260E+03-3.41385E-09-2.41935E-08
 -1        87 2.33782E+03-1.73508E+06 5.04999E+03 2.66075E+04-5.93224E-09 8.48465E-08
 -1        88-1.85837E+03-1.73953E+06 7.01537E+03-1.87347E+04-6.37601E-09 9.35946E-08
 -1        89 1.36684E+04-1.73176E+06 1.91438E+04 3.67423E+04-9.52627E-09 4.40103E-08
 -1        90-1.16406E+04-1.74421E+06 2.67912E+04-1.80087E+04-5.60067E-09 7.21598E-08
 -1       121-1.17824E+03-1.51178E+06-1.55307E+02 8.06404E+02 1.18187E-09-8.80755E-09
 -1       122-6.95873E+02-1.50888E+06 7.40126E+02-3.24007E+03-4.05852E-09-1.76224E-08
 -1       123-1.22526E+03-1.51189E+06 6.64820E+02 2.40861E+03 3.31954E-09-1.78261E-10
 -1       124 8.09920E+02-1.50826E+06 2.96013E+03-6.79655E+03-7.70024E-09-1.20508E-08
 -1       125-2.06466E+03-1.51272E+06 3.94879E+03 4.34404E+03 4.99494E-09-4.74029E-09
 -1       191-1.84395E+01 3.37420E+05 9.79451E+00 2.43907E-01-2.54646E-10 5.45242E-09
 -1       192-1.80986E+01 3.37394E+05 1.83655E+01-1.74416E+00-3.70145E-10 2.04864E-09
 -1       193-2.05708E+01 3.37419E+05 3.36111E+01 1.52141E+00-5.30017E-10-1.63382E-08
 -1       194-2.06811E+01 3.37396E+05 6.95302E+01-4.03344E+00-2.50764E-10-3.28450E-08
 -1       195-2.46651E+01 3.37417E+05 1.35457E+02 2.56123E+00-7.12561E-10-1.23437E-08
 -1       251-2.08204E+06-2.07393E+04-1.81039E+05 1.00076E+05-3.93629E-09 1.66365E-08
 -1       252-1.25760E+06 2.29791E+04 3.83688E+04-3.50767E+05 6.72526E-09-1.09221E-07
 -1       253-1.74613E+06-1.13487E+04-3.62624E+04 2.49832E+05-1.46156E-08-5.11700E-08
 -1       254-1.65090E+06 4.66083E+04 5.72252E+03-5.02411E+05 2.68986E-09-3.71383E-08
 -1       255-1.72822E+06-1.18790E+04-1.43350E+04 2.54584E+05-8.00355E-11 4.15239E-08
 -1       256-1.28958E+06 3.96837E+04 8.18704E+04-3.70160E+05 5.98811E-09 1.05400E-07
 -1       257-2.07192E+06-3.35971E+04-8.44879E+04 1.14890E+05-4.32519E-08 5.36074E-08
 -1       258-9.05873E+05 3.05481E+04 1.55069E+05-1.33386E+03-5.41104E-08-7.55217E-08
 -1       259-2.07404E+06-3.37788E+04-8.34433E+04-1.12612E+05-7.99264E-09-9.38549E-08
 -1       260-1.28428E+06 4.06459E+04 8.68793E+04 3.68656E+05 4.05271E-09 2.38106E-08
 -1       261-1.73097E+06-1.30033E+04-7.11388E+03-2.53391E+05-4.26935E-08-3.42723E-08
 -1       262-1.64622E+06 5.52255E+04 2.46790E+04 5.02914E+05-6.59196E-09-1.15351E-07
 -1       263-1.74806E+06-1.87976E+04-5.33152E+03-2.49557E+05-1.14478E-08 1.19882E-07
 -1       264-1.23466E+06 8.11482E+04 1.20652E+05 3.54255E+05-1.06683E-07 2.17289E-07
 -1       265-2.10342E+06-7.09169E+04-6.26594E+04-1.01915E+05-2.83762E-08 9.83437E-08
 -1       266-2.68330E+04-1.25467E+04 6.29598E+04-5.35461E+01-1.01863E-10-5.93478E-08
 -1       267 3.11071E+04 1.46241E+04 4.44981E+04 6.17797E+01 1.53705E-10-8.91749E-08
 -1       268-4.17140E+03-2.07114E+03 1.65398E+04-7.87191E+00 2.45564E-11-5.08827E-08
 -1       269 4.92520E+03 2.47876E+03 1.07505E+04 9.16949E+00-9.20863E-12 4.37345E-08
 -1       270-7.39279E+02-4.07278E+02 5.18944E+03-1.24437E+00 1.12664E-10 1.80855E-07
 -1       271-2.44000E+06-2.98279E+05-1.82328E+05-9.40451E+05 4.54020E-09-7.67759E-08
 -1       272-2.54425E+06-3.93677E+05-1.17394E+05-8.96055E+05 2.81580E-09-9.50604E-08
 -1       273-2.47344E+06-3.44798E+05-4.30374E+04-9.33302E+05-2.86082E-09 8.39536E-08
 -1       274-2.50458E+06-3.36991E+05-2.41441E+04-9.07050E+05-4.10637E-10 2.02399E-07
 -1       275-2.47851E+06-3.49284E+05-1.00328E+04-9.31464E+05 1.31263E-08 8.74879E-08
 -1       276-2.49727E+06-3.32749E+05-5.28550E+03-9.10571E+05-2.90352E-08-9.28776E-09
 -1       277-2.48040E+06-3.48599E+05-2.63243E+03-9.29825E+05 2.11912E-09 3.49169E-08
 -1       278-2.49351E+06-3.35079E+05-1.74081E+03-9.13947E+05 1.91767E-09 7.98184E-08
 -1       279-2.48204E+06-3.47045E+05-1.90097E+03-9.27945E+05-1.39962E-08-5.60531E-08
 -1       280-2.49018E+06-3.38884E+05-3.14570E+03-9.17738E+05-6.81803E-09 3.08737E-08
 -1       281-2.48356E+06-3.44929E+05-5.88540E+03-9.25905E+05 3.43607E-09 7.52448E-09
 -1       282-2.48905E+06-3.46397E+05-1.37403E+04-9.21426E+05 1.77442E-08 2.32059E-07
 -1       283-2.48315E+06-3.39925E+05-2.46463E+04-9.24080E+05-6.43740E-09-7.47423E-09
 -1       284-2.50667E+06-3.83559E+05-6.68204E+04-9.20739E+05-1.77761E-08-2.61899E-07
 -1       285-2.46649E+06-3.11090E+05-1.04025E+05-9.25410E+05-6.76664E-09-1.02445E-08
 -1       301 1.94562E+04-3.44782E+05 1.73021E+05-6.24651E+05 3.05590E-10 5.61704E-08
 -1       302 2.09342E+04-3.01154E+05 1.07672E+05-9.13712E+05-1.37152E-09-5.84259E-09
 -1       303-1.88977E+03-3.28736E+05 7.12176E+04-6.23200E+05 2.43745E-10-4.56948E-08
 -1       304 1.36719E+04-3.02637E+05 8.97012E+04-9.13054E+05 2.91038E-10 2.43599E-08
 -1       305 1.02499E+04-3.35216E+05 1.32701E+05-6.25288E+05-1.03682E-10 4.04980E-08
 -1       306-1.78556E+07-3.25726E+06-4.32292E+06-1.85240E+06-5.89644E-08-1.00845E-07
 -1       307 1.10093E+07-5.64730E+05 2.59293E+06-8.08119E+06-5.79166E-07 8.39937E-08
 -1       308-8.17364E+06 1.07123E+05-4.05668E+05 2.38453E+06-1.51398E-07 1.35062E-07
 -1       309-3.22523E+06 8.15679E+05 8.27085E+05-1.32071E+07 3.92662E-07 3.59141E-08
 -1       310-9.17982E+06-5.52203E+04-6.04186E+05 2.19446E+06 3.53029E-08-8.92360E-08
 -1       311 1.33027E+07-1.25845E+06 3.09355E+06-6.50170E+06 3.98140E-07 7.23230E-09
 -1       312-1.80945E+07-3.23758E+06-3.78777E+06-2.79144E+06 1.34401E-07 6.98783E-08
 -1       313 2.00117E+07 4.42684E+06 5.02787E+06 8.37990E+06 1.92202E-07-1.72338E-07
 -1       314-1.28040E+07-7.79152E+06-3.59154E+06-7.33350E+06 2.78116E-07 9.18226E-08
 -1       315-2.25069E+06 1.24084E+07 2.79923E+06 6.61156E+06-2.22353E-07 3.90573E-08
 -1       316-1.97661E+06-6.26758E+06-3.49803E+05-4.35096E+06-6.14818E-07-3.02520E-07
 -1       317-1.45300E+07 1.20740E+07 8.06985E+05-1.42933E+06 5.01812E-07-4.90822E-07
 -1       318-2.46898E+06-6.54464E+06-6.81631E+05-4.54712E+06-5.99975E-07-2.35741E-09
 -1       319-5.28420E+05 1.27905E+07 2.81412E+06 7.16226E+06-1.10544E-07 1.88054E-07
 -1       320-1.37298E+07-8.09453E+06-4.63618E+06-7.20427E+06 1.25379E-07-7.34872E-09
 -1       336 1.41109E+02-1.63655E+06-1.16919E+04 6.54190E+03-1.98606E-08 4.62023E-10
 -1       337-4.46305E+03-1.63754E+06-1.47933E+04-1.58437E+04-3.70601E-08-1.20053E-08
 -1       338 6.26725E+02-1.63629E+06-2.21541E+04 9.18892E+03-2.67855E-08-1.19908E-08
 -1       339-2.35261E+04-1.65033E+06-5.00108E+04-2.10070E+04-4.79813E-08 1.66037E-08
 -1       340 1.57358E+04-1.62499E+06-7.83617E+04 1.16282E+04-3.15595E-08 3.96321E-08
 -1       406 7.18619E+00 3.37404E+05 5.55102E+02 9.79313E-01-9.51097E-10 1.50549E-08
 -1       407 1.80042E+02 3.37509E+05 1.18099E+03 1.21028E+01-3.52813E-10 1.41504E-08
 -1       408 5.93788E+02 3.37319E+05 2.35792E+03-1.34099E+01-1.22895E-09 6.90761E-09
 -1       409 2.53757E+03 3.38262E+05 5.30942E+03 1.37255E+02-3.47427E-10 4.50427E-09
 -1       410 7.31548E+03 3.36647E+05 1.08384E+04-1.30835E+02-1.45974E-09 6.70025E-09
 -1       521-1.98472E+07-4.07269E+06-5.22996E+06-1.80225E+06-7.07805E-08 4.31319E-08
 -1       522 1.17705E+07-5.10386E+05 2.71876E+06-1.03391E+07-4.35393E-07-1.70316E-07
 -1       523-9.39084E+06-3.89585E+04-4.57112E+05 2.78950E+06 3.96394E-08-1.32568E-07
 -1       524-5.25971E+06 1.98340E+06 9.44045E+05-1.59681E+07 4.82200E-07-4.75815E-07
 -1       525-1.05425E+07-2.84127E+05-6.96614E+05 2.57497E+06 2.37167E-07-2.51312E-07
 -1       526 1.48265E+07-1.42107E+06 3.39044E+06-8.39678E+06 2.04222E-07-9.75560E-08
 -1       527-2.01757E+07-4.16120E+06-4.50692E+06-2.88380E+06 1.06287E-07 9.65811E-08
 -1       528 2.26883E+07 4.90647E+06 5.45623E+06 9.77339E+06-1.33296E-07 9.92586E-08
 -1       529-1.42037E+07-9.30009E+06-4.26665E+06-7.96036E+06-7.59610E-08 3.18396E-08
 -1       530-3.87316E+06 1.51172E+07 3.08118E+06 7.15421E+06-1.25729E-07 1.02242E-07
 -1       531-2.28926E+06-7.44178E+06-3.84748E+05-4.89763E+06-5.81873E-07 7.16536E-08
 -1       532-1.77618E+07 1.44371E+07 9.45118E+05-3.13516E+06 2.90071E-07-4.14548E-07
 -1       533-2.76235E+06-7.71993E+06-7.37072E+05-5.06531E+06-5.08153E-08-6.30855E-07
 -1       534-2.09478E+06 1.55629E+07 3.07250E+06 7.76016E+06-7.04313E-08 4.98752E-07
 -1       535-1.51597E+07-9.68336E+06-5.42194E+06-7.80796E+06 3.76021E-08 3.14059E-07
 -1       536-5.77231E+05-3.83871E+04-3.58580E+03-3.76281E+04-6.98174E-09 4.25462E-08
 -1       537-1.80289E+05 3.86927E+04 6.73241E+04 8.98893E+04-8.30892E-08 6.34041E-08
 -1       538-3.87517E+05 4.69854E+02 8.69544E+03-5.43453E+04 2.48883E-08 7.10756E-08
 -1       539-3.12433E+05 3.11029E+03 1.86062E+04 1.02819E+05 1.16825E-07 9.13079E-08
 -1       540-4.48263E+05-2.04971E+02-1.09432E+04-5.07964E+04-7.31166E-09 8.47534E-08
 -1       541-6.28533E+04 1.02600E+04 6.46224E+04 6.89076E+04-1.60653E-08 4.88405E-08
 -1       542-6.30401E+05-1.22130E+04-5.02904E+04-2.00402E+04 2.28156E-08 2.67432E-08
 -1       543 9.05452E+04 1.64299E+04 9.44576E+04-1.05214E+04-5.04792E-08-1.11270E-08
 -1       544-5.97576E+05-9.73388E+03-4.45660E+04 2.83215E+04-3.19287E-08-1.74292E-08
 -1       545-1.38326E+05 5.12469E+03 4.62531E+04-8.25214E+04-2.54387E-08-6.12696E-08
 -1       546-4.07626E+05 4.10428E+03-7.89079E+03 5.18126E+04 1.01643E-08-8.21469E-08
 -1       547-3.25339E+05-4.52801E+03 3.19982E+03-1.05207E+05-8.33949E-08-7.97754E-08
 -1       548-4.15534E+05 4.02901E+03-1.87781E+04 5.13201E+04-7.91811E-08-6.08647E-08
 -1       549-1.23787E+05 1.11791E+03 2.47479E+04-7.96546E+04-4.77608E-08-4.86648E-08
 -1       550-6.03743E+05-6.03762E+03-9.44275E+04 2.59288E+04 5.39785E-09-2.25282E-08
 -1       551 3.11258E+04-7.30309E+05 7.45870E+03-1.13870E+06-7.92279E-08 3.65253E-09
 -1       552 6.98183E+04-7.59211E+05 2.29773E+04-1.62341E+06-5.45988E-08 4.80941E-08
 -1       553 5.22472E+04-7.60577E+05 4.07013E+04-1.13343E+06-9.48639E-08 2.70593E-08
 -1       554 1.02864E+05-7.66042E+05 9.10647E+04-1.62530E+06-5.87752E-08 1.71258E-08
 -1       555 8.16008E+04-7.81978E+05 1.63197E+05-1.13378E+06-9.44856E-08-5.79894E-09
 -1       556 1.70931E+05-3.02668E+05 5.20453E+04-3.45382E+05-2.27010E-08-1.87720E-08
 -1       557 2.81443E+05-3.91392E+05 2.87632E+04-4.41538E+05 4.65661E-10-9.36598E-09
 -1       558 1.60794E+05-3.03757E+05 9.37634E+03-3.43421E+05-8.70205E-09 9.85892E-09
 -1       559 2.61515E+05-3.96423E+05 5.44499E+03-4.55198E+05 1.60653E-08-7.07951E-09
 -1       560 1.51100E+05-2.97619E+05 9.21508E+02-3.50226E+05 3.81260E-09-3.41242E-09
 -1       561 2.48960E+05-3.91676E+05 9.93428E+02-4.63584E+05-2.51021E-09 1.67074E-08
 -1       562 1.43460E+05-2.92813E+05-3.30661E+02-3.55723E+05-8.06176E-09 7.33417E-09
 -1       563 2.39936E+05-3.87742E+05 2.20162E+02-4.69434E+05-1.15251E-08-2.58933E-09
 -1       564 1.38155E+05-2.89491E+05-2.00695E+02-3.59471E+05 1.89175E-09 7.27778E-09
 -1       565 2.34213E+05-3.85252E+05 9.55161E+01-4.73078E+05 1.06120E-08-2.92084E-09
 -1       566 1.35272E+05-2.87659E+05-9.38340E+01-3.61491E+05-2.71393E-09-5.21140E-09
 -1       567 2.31788E+05-3.84191E+05-2.03155E+02-4.74508E+05 1.37043E-08-1.40499E-08
 -1       568 1.34874E+05-2.87426E+05-7.18696E+02-3.61865E+05-2.27510E-09-7.27596E-12
 -1       569 2.31525E+05-3.84164E+05-1.81287E+03-4.72824E+05-1.06438E-08 2.68919E-08
 -1       570 1.37865E+05-2.90082E+05-4.05410E+03-3.61131E+05 6.80302E-09 1.97715E-08
 -1       571 2.55096E+05 9.24329E+03 1.34197E+04-7.54819E+04 4.29736E-09 1.18528E-08
 -1       572 2.57065E+05 3.36116E+03 6.57584E+03-8.28059E+04 8.29914E-09-2.26282E-09
 -1       573 2.55882E+05 9.45632E+02 2.92168E+03-7.53298E+04 4.57112E-09 2.73349E-09
 -1       574 2.56095E+05 4.61651E+02 1.46465E+03-8.29902E+04 1.27761E-09 1.46874E-08
 -1       575 2.55970E+05 2.29832E+02 6.91048E+02-7.53093E+04 2.68583E-08 8.15635E-09
 -1       576 2.55970E+05 2.23655E+02 3.53275E+02-8.30148E+04 4.98876E-08-6.56473E-09
 -1       577 2.55996E+05 1.83268E+02 1.76085E+02-7.53065E+04 2.53431E-08 3.42880E-09
 -1       578 2.55981E+05 1.98852E+02 1.00719E+02-8.30180E+04-1.44064E-09 1.81317E-08
 -1       579 2.56039E+05 1.63255E+02 6.86748E+01-7.53063E+04 1.47420E-08-3.17141E-09
 -1       580 2.56041E+05 1.69821E+02 7.76222E+01-8.30139E+04 1.40581E-08 1.34605E-10
 -1       581 2.56108E+05 1.30523E+02 1.17447E+02-7.53109E+04 1.44501E-08-9.52150E-09
 -1       582 2.56153E+05 1.58081E+02 2.36248E+02-8.29653E+04 2.60752E-09-2.50748E-09
 -1       583 2.56189E+05 1.88250E+02 4.56036E+02-7.53551E+04 2.62298E-09-1.01757E-08
 -1       584 2.56424E+05 5.55489E+02 1.02879E+03-8.25936E+04 2.73667E-09-2.68165E-09
 -1       585 2.56170E+05 1.44184E+03 2.08730E+03-7.56825E+04 3.03771E-10 2.93221E-09
 -1       586-3.14815E+03 9.32173E+04-3.29397E+03-2.24406E+05-2.30420E-09-3.02543E-09
 -1       587-9.85728E+02 9.28619E+04 2.69101E+02-2.46993E+05-3.89628E-09-1.86101E-08
 -1       588 6.09710E+02 9.28059E+04 3.90071E+03-2.24293E+05-2.84126E-09-8.01720E-09
 -1       589 4.68062E+03 9.48779E+04 1.04805E+04-2.46754E+05-4.67116E-09 5.97083E-09
 -1       590 1.45257E+04 9.16567E+04 2.21274E+04-2.24678E+05-3.34876E-09 3.12139E-09
 -1       591-5.99880E+04-1.34848E+04-1.89419E+04-2.67655E+04-1.20463E-09-5.78257E-09
 -1       592-6.31363E+04-1.71689E+04-1.03116E+04-3.01686E+04 1.43842E-10 1.16596E-08
 -1       593-6.19409E+04-1.23365E+04-4.28283E+03-2.80764E+04-2.58069E-10-5.24892E-09
 -1       594-6.04811E+04-1.43343E+04-2.13924E+03-3.02847E+04 2.16528E-09-4.78462E-09
 -1       595-6.20898E+04-1.23391E+04-9.81379E+02-2.81381E+04 8.21544E-10-7.62806E-09
 -1       596-6.02978E+04-1.42009E+04-4.99366E+02-3.02649E+04 1.88072E-09-3.17351E-09
 -1       597-6.21082E+04-1.23518E+04-2.72477E+02-2.81407E+04-2.85092E-09 1.77687E-09
 -1       598-6.02799E+04-1.41954E+04-2.20246E+02-3.02591E+04-4.94401E-09-1.49147E-08
 -1       599-6.21070E+04-1.23521E+04-2.82821E+02-2.81403E+04-3.14299E-09-6.69161E-10
 -1       600-6.02983E+04-1.42018E+04-5.26759E+02-3.02633E+04-4.10910E-09 1.84993E-08
 -1       601-6.20853E+04-1.23398E+04-1.03947E+03-2.81370E+04 5.06270E-09 1.50371E-08
 -1       602-6.04924E+04-1.43424E+04-2.26809E+03-3.02812E+04-2.93562E-09 2.38068E-08
 -1       603-6.19251E+04-1.23395E+04-4.54180E+03-2.80722E+04-4.99267E-09 2.71530E-09
 -1       604-6.33225E+04-1.73324E+04-1.09346E+04-3.01377E+04 5.79348E-10 3.19915E-10
 -1       605-5.98374E+04-1.35717E+04-2.00865E+04-2.66978E+04 4.00576E-09 5.71254E-09
 -1       606 2.70470E+04-1.23973E+04-2.22507E+04 2.52646E+04 2.74122E-09-1.32031E-08
 -1       607 2.32425E+04-4.03506E+03-1.10803E+04 2.83767E+04-4.29281E-10-2.87514E-09
 -1       608 2.54066E+04-7.14940E+02-4.96094E+03 2.50747E+04 1.27511E-09-1.15415E-09
 -1       609 2.49863E+04-2.28472E+02-2.50592E+03 2.86003E+04 1.06320E-09 3.69891E-09
 -1       610 2.52158E+04-1.56496E+01-1.19611E+03 2.50529E+04-6.00267E-11 2.00450E-08
 -1       611 2.51452E+04-1.02492E+01-6.03054E+02 2.86246E+04 7.75344E-10 1.32909E-08
 -1       612 2.51701E+04-7.01080E-01-2.87225E+02 2.50507E+04-1.28239E-10 7.15386E-09
 -1       613 2.51501E+04-3.85540E+00-1.29146E+02 2.86275E+04 1.45519E-10-1.33844E-08
 -1       614 2.51469E+04-3.75232E+00-3.16219E+01 2.50500E+04 4.68390E-10 1.50976E-09
 -1       615 2.51415E+04-3.42592E-01 5.11008E+01 2.86280E+04 4.03361E-10 4.73551E-09
 -1       616 2.51290E+04 7.84286E-01 1.55985E+02 2.50502E+04 5.35238E-10-4.16480E-09
 -1       617 2.51573E+04 3.47239E+01 3.57082E+02 2.86274E+04 1.98725E-10-1.67399E-08
 -1       618 2.50958E+04 1.05126E+02 7.20125E+02 2.50504E+04 1.15706E-08 1.23623E-09
 -1       619 2.54097E+04 5.92672E+02 1.61740E+03 2.86267E+04 2.13938E-08-8.52447E-09
 -1       620 2.48555E+04 1.81377E+03 3.25096E+03 2.50505E+04 1.15499E-08 1.19126E-08
 -1       621 3.60544E+02 2.61955E+05 3.05119E+03 2.74935E+04 5.30690E-10 2.73212E-08
 -1       622 4.58686E+02 2.62684E+05 2.77166E+03 3.99583E+04 6.37783E-10-9.93214E-09
 -1       623 6.20629E+01 2.62120E+05 3.41750E+03 2.73671E+04 5.27507E-10-1.29739E-09
 -1       624 1.68365E+03 2.63758E+05 6.69387E+03 4.00835E+04 4.69356E-10 2.87173E-10
 -1       625 1.67204E+03 2.60798E+05 1.17312E+04 2.73655E+04 8.84029E-10 1.55386E-08
 -1       626 2.29592E+05 5.70462E+04 4.77320E+03 1.15284E+05 1.42654E-09 6.46287E-09
 -1       627 2.27253E+05 5.85275E+04 2.30015E+03 1.19464E+05 1.48611E-09-2.01300E-08
 -1       628 2.29723E+05 5.48469E+04 9.72364E+02 1.16075E+05 5.45151E-09 1.99088E-08
 -1       629 2.26638E+05 5.79138E+04 4.75976E+02 1.19706E+05 5.08362E-09 1.70171E-08
 -1       630 2.29735E+05 5.47417E+04 2.20389E+02 1.16106E+05 1.01609E-08 1.66484E-08
 -1       631 2.26570E+05 5.78927E+04 1.18120E+02 1.19707E+05 1.80808E-09 1.17103E-08
 -1       632 2.29729E+05 5.47471E+04 7.68911E+01 1.16100E+05-1.73395E-09-1.23568E-08
 -1       633 2.26559E+05 5.78961E+04 8.43598E+01 1.19702E+05 3.04590E-09-1.35481E-08
 -1       634 2.29722E+05 5.47461E+04 1.35172E+02 1.16097E+05-2.31444E-09-1.81244E-08
 -1       635 2.26569E+05 5.78958E+04 2.72856E+02 1.19705E+05-2.42105E-09-1.22986E-09
 -1       636 2.29711E+05 5.47423E+04 5.50671E+02 1.16096E+05-3.84603E-09-1.13637E-08
 -1       637 2.26687E+05 5.79819E+04 1.21037E+03 1.19703E+05-1.93359E-09-5.27098E-09
 -1       638 2.29667E+05 5.50104E+04 2.48694E+03 1.15974E+05-1.22873E-09-3.48609E-09
 -1       639 2.27992E+05 5.97985E+04 5.88385E+03 1.19317E+05 4.01906E-09 1.41372E-08
 -1       640 2.29489E+05 6.04321E+04 1.22101E+04 1.13684E+05 2.42790E-09-3.32011E-09
 -1       656 5.94838E+04-1.51738E+06-1.43594E+05-1.42351E+03-3.63798E-11-4.28963E-09
 -1       657-7.86684E+04-1.58225E+06-1.18904E+05 6.45614E+03-3.63798E-11-4.47592E-09
 -1       658 1.89379E+04-1.53583E+06-7.31637E+04-3.16610E+03 3.03316E-10-1.08776E-08
 -1       659-8.48849E+04-1.58520E+06-1.27072E+05 7.80895E+03-1.10867E-09 4.17077E-09
 -1       660 6.56861E+04-1.51444E+06-1.57637E+05-2.77630E+03-1.42609E-09-4.31282E-09
 -1       661 1.62447E+05 1.72751E+04 1.65373E+04 6.35152E+04 4.15639E-10-3.60706E-09
 -1       662 1.71553E+05 2.97613E+04 1.11443E+04 6.00832E+04 6.77005E-11 9.71590E-09
 -1       663 1.65694E+05 2.25816E+04 3.89791E+03 6.25741E+04-4.85443E-11 7.77163E-10
 -1       664 1.67791E+05 2.35540E+04 2.33128E+03 6.12313E+04-2.32149E-10-6.21893E-09
 -1       665 1.66185E+05 2.33080E+04 9.19675E+02 6.24325E+04-8.97899E-10-4.44831E-09
 -1       666 1.67212E+05 2.27219E+04 5.37628E+02 6.14151E+04 2.09918E-09-8.82354E-09
 -1       667 1.66270E+05 2.33919E+04 2.84975E+02 6.23982E+04 2.14649E-09-8.47116E-10
 -1       668 1.67119E+05 2.26599E+04 2.88988E+02 6.14650E+04-8.13927E-10 1.46154E-09
 -1       669 1.66277E+05 2.33683E+04 3.90126E+02 6.23831E+04-8.76241E-10 3.76926E-09
 -1       670 1.67214E+05 2.28703E+04 8.48450E+02 6.14671E+04-1.49669E-10-1.98466E-08
 -1       671 1.66174E+05 2.31858E+04 1.50613E+03 6.23942E+04-1.74179E-09-7.24322E-09
 -1       672 1.68092E+05 2.43355E+04 3.85312E+03 6.12546E+04 3.30461E-09-1.54716E-09
 -1       673 1.65403E+05 2.19401E+04 6.45711E+03 6.25814E+04 2.09786E-09-5.54110E-10
 -1       674 1.74239E+05 3.47084E+04 1.84659E+04 5.94479E+04-9.59517E-10 3.71415E-09
 -1       675 1.60067E+05 1.31032E+04 2.74098E+04 6.40918E+04-2.80988E-09 1.08303E-08
 -1       676 2.22937E+01-2.72014E+05-1.03456E+03-5.39324E+01 4.13621E-10-7.02007E-09
 -1       677-2.74572E+02-2.72264E+05-1.89340E+03 1.07789E+02 3.88172E-09-2.69467E-09
 -1       678 1.83435E+02-2.71836E+05-3.34705E+03-5.38206E+01 5.81508E-10 6.59280E-09
 -1       679-3.34792E+03-2.74285E+05-7.95112E+03 1.07361E+02 3.39253E-09-1.26204E-08
 -1       680 1.99821E+03-2.69995E+05-1.28145E+04-5.29025E+01 1.90084E-10 2.26436E-09
 -1       771-2.85125E+06-6.36245E+05-1.15584E+05-1.31825E+06-2.38506E-08-1.77533E-08
 -1       772-2.79316E+06-7.07169E+05-6.00199E+04-1.39972E+06-1.73459E-08 9.86620E-09
 -1       773-2.87290E+06-6.19214E+05-2.96787E+04-1.32697E+06-9.02219E-09 9.64064E-09
 -1       774-2.78413E+06-6.94751E+05-1.34362E+04-1.41653E+06 2.30502E-08-2.27737E-09
 -1       775-2.88326E+06-6.11896E+05-9.44100E+03-1.33074E+06-1.39698E-09 6.68661E-09
 -1       776-2.79077E+06-6.93366E+05-3.63113E+03-1.42869E+06-3.78350E-09 6.34464E-09
 -1       777-2.89202E+06-6.05514E+05-3.95567E+03-1.33404E+06 3.65253E-09 3.36149E-09
 -1       778-2.79785E+06-6.92165E+05-1.15360E+03-1.43906E+06 1.35333E-09 6.18274E-09
 -1       779-2.89946E+06-6.00004E+05-1.91091E+03-1.33688E+06-6.72298E-09-1.46247E-09
 -1       780-2.80407E+06-6.91006E+05-3.25799E+02-1.44749E+06-6.86123E-09 4.51109E-10
 -1       781-2.90531E+06-5.95597E+05-7.25989E+02-1.33910E+06-2.10275E-08-1.96451E-10
 -1       782-2.80884E+06-6.90000E+05 2.66547E+02-1.45370E+06-3.06900E-08-3.92856E-09
 -1       783-2.90941E+06-5.92563E+05 4.23479E+02-1.34066E+06-9.95351E-09-1.49932E-08
 -1       784-2.81143E+06-6.88864E+05 1.72469E+03-1.45752E+06-1.63636E-08 2.76486E-10
 -1       785-2.91182E+06-5.90768E+05 3.04628E+03-1.34167E+06-2.92493E-08 1.12414E-09
 -1       786 1.23143E+05-9.28494E+03 2.14806E+04-2.09667E+02 3.98316E-10 7.83166E-09
 -1       787 1.32458E+05 1.07493E+04 1.51968E+04-4.35189E+01 3.19557E-09 9.16248E-09
 -1       788 1.26734E+05-1.45527E+03 5.55783E+03-1.80148E+02 1.98604E-09 2.00903E-08
 -1       789 1.28273E+05 1.68388E+03 3.48947E+03-9.00734E+01-5.44927E-10-9.15088E-09
 -1       790 1.27328E+05-2.26898E+02 1.41387E+03-1.63123E+02-2.14706E-09-2.33752E-09
 -1       791 1.27580E+05 2.62207E+02 8.18660E+02-1.19539E+02-4.83297E-09-3.21847E-09
 -1       792 1.27428E+05-3.46643E+01 3.50988E+02-1.50684E+02-2.17435E-09-1.22292E-09
 -1       793 1.27461E+05 3.80675E+01 1.83921E+02-1.43041E+02 3.38918E-11-8.20903E-09
 -1       794 1.27446E+05-2.89991E+00 6.57662E+01-1.39621E+02 2.49384E-09-2.00760E-09
 -1       795 1.27433E+05-1.10203E+01-6.70283E+00-1.66160E+02-3.05308E-09-1.18750E-08
 -1       796 1.27456E+05 1.43969E+01-7.16395E+01-1.27564E+02 2.07193E-09 5.90836E-09
 -1       797 1.27384E+05-1.10562E+02-2.19843E+02-1.93790E+02 3.42435E-09-1.06039E-08
 -1       798 1.27496E+05 9.65665E+01-3.63448E+02-1.11991E+02 1.56163E-09-3.31639E-09
 -1       799 1.27106E+05-7.12791E+02-1.00546E+03-2.31862E+02 3.27527E-09 5.16164E-09
 -1       800 1.27734E+05 6.16128E+02-1.42453E+03-8.94916E+01 3.23196E-10-6.69218E-10
 -1       801-1.40026E+04-6.80089E+06-8.60274E+05 6.97092E+05 6.61530E-08-4.52164E-08
 -1       802 2.63401E+05 9.80451E+05 9.34928E+05-7.96479E+05 1.84489E-07-2.50579E-08
 -1       803-2.43362E+05-8.59244E+06-9.25251E+05 4.60412E+05 6.00157E-08 2.35432E-08
 -1       804 9.60093E+04-9.33085E+05 6.56646E+05 4.19083E+05-7.33107E-08-6.04716E-08
 -1       805 1.17763E+05-4.90090E+06-1.46870E+05-5.16000E+05-3.06791E-08-3.61169E-08
 -1       806-2.76204E+05-5.26653E+04-2.02113E+04-1.08548E+05-1.74578E-09-1.91130E-09
 -1       807-2.77919E+05-4.92407E+04-9.92959E+03-1.13303E+05 9.47512E-09-1.60149E-08
 -1       808-2.76749E+05-4.53915E+04-4.21252E+03-1.12003E+05-1.71940E-09-3.04453E-10
 -1       809-2.75837E+05-4.64456E+04-2.05985E+03-1.13541E+05-8.34189E-09-7.91806E-09
 -1       810-2.76833E+05-4.51381E+04-9.44090E+02-1.12157E+05 7.66204E-09 8.65180E-09
 -1       811-2.75677E+05-4.63327E+04-4.69479E+02-1.13510E+05 1.11913E-09-5.05827E-09
 -1       812-2.76846E+05-4.51594E+04-2.37327E+02-1.12157E+05-5.59612E-09-4.96902E-09
 -1       813-2.75656E+05-4.63342E+04-1.54156E+02-1.13495E+05-4.94492E-09-2.70629E-08
 -1       814-2.76841E+05-4.51671E+04-1.52498E+02-1.12154E+05-8.89486E-10-1.49580E-08
 -1       815-2.75660E+05-4.63357E+04-2.45724E+02-1.13490E+05 7.27596E-10-1.10408E-08
 -1       816-2.76824E+05-4.51654E+04-4.65483E+02-1.12151E+05 1.06411E-09 2.23645E-09
 -1       817-2.75741E+05-4.63798E+04-9.99346E+02-1.13481E+05-9.53878E-09 1.99800E-08
 -1       818-2.76766E+05-4.53051E+04-2.03809E+03-1.12085E+05-2.90038E-09-1.41335E-09
 -1       819-2.76856E+05-4.76127E+04-4.79610E+03-1.13221E+05 4.45198E-10 2.65459E-09
 -1       820-2.76388E+05-4.89232E+04-9.76148E+03-1.10533E+05 1.13050E-09-5.17275E-09
 -1       821-3.38528E+05 1.87535E+04-4.33873E+04 8.53270E+02 6.40770E-09 1.46938E-08
 -1       822-3.57266E+05-2.17105E+04-3.06920E+04-1.60143E+03 3.63372E-11 1.17493E-08
 -1       823-3.45743E+05 2.94151E+03-1.12343E+04 1.04827E+03-3.39984E-09-7.43375E-09
 -1       824-3.48804E+05-3.40209E+03-7.06369E+03-1.51826E+03 5.08081E-10 8.31164E-10
 -1       825-3.46986E+05 4.58811E+02-2.91334E+03 7.70108E+02 5.25082E-09 3.91935E-09
 -1       826-3.47312E+05-5.38346E+02-1.73065E+03-6.27661E+02 6.60252E-09-8.53746E-09
 -1       827-3.47230E+05 7.77405E+01-9.26772E+02 1.57660E+02 1.88912E-09-1.64469E-08
 -1       828-3.47106E+05-1.62377E+02-7.78930E+02 6.25980E+02-8.95291E-10 7.79612E-09
 -1       829-3.47193E+05 8.28417E+01-9.39179E+02-4.83553E+02-3.13257E-10 5.73652E-09
 -1       830-3.47406E+05-5.62578E+02-1.80537E+03 1.61570E+03 4.67537E-12-1.48324E-09
 -1       831-3.46933E+05 4.79697E+02-3.00765E+03-8.32081E+02-2.01333E-09 7.79244E-09
 -1       832-3.48884E+05-3.53011E+03-7.32671E+03 1.84538E+03-1.62320E-09 3.55294E-09
 -1       833-3.45716E+05 3.04899E+03-1.16527E+04-7.13232E+02-2.03832E-09 4.48199E-09
 -1       834-3.57558E+05-2.25076E+04-3.18064E+04 1.18954E+03-1.67696E-09-2.73940E-09
 -1       835-3.38260E+05 1.94409E+04-4.49964E+04-1.76222E+02 5.00782E-09 1.12832E-08
 -1       836-1.19485E+03 3.23992E+05 1.97380E+04-1.57116E+04-3.49701E-09-1.40017E-09
 -1       837 4.25242E+03 3.30154E+05 1.68303E+04-3.18130E+04-3.63968E-09 1.03851E-08
 -1       838-4.69112E+02 3.25702E+05 1.73287E+04-1.56456E+04-3.06500E-09 1.08967E-08
 -1       839 1.10212E+04 3.35199E+05 3.29582E+04-3.18578E+04-2.88992E-09 2.07522E-08
 -1       840-3.37737E+03 3.18900E+05 5.26340E+04-1.56688E+04-2.69574E-09-3.61953E-09
 -1       856-6.38177E+04 7.76853E+03-2.04721E+04-4.03623E+02 1.06519E-09-1.12814E-08
 -1       857-7.22616E+04-9.12023E+03-1.40934E+04 5.17558E+03 2.29409E-09-5.65728E-09
 -1       858-6.71581E+04 1.08903E+03-5.31238E+03-4.26530E+02-3.44130E-10-7.71297E-09
 -1       859-6.84272E+04-1.27413E+03-3.20671E+03 5.21069E+03 8.17835E-10 1.24469E-08
 -1       860-6.76573E+04 1.52045E+02-1.34542E+03-4.38647E+02 5.66757E-10 3.82238E-09
 -1       861-6.78527E+04-1.74941E+02-7.43293E+02 5.22726E+03 4.62450E-10-3.37450E-09
 -1       862-6.77352E+04 2.03340E+01-3.15290E+02-4.43101E+02 3.76823E-09-1.26536E-08
 -1       863-6.77583E+04-1.59933E+01-1.29186E+02 5.22963E+03 9.89267E-09-2.67953E-08
 -1       864-6.77521E+04-3.33595E+00 1.34319E+01-4.41020E+02 3.01463E-09-5.35489E-09
 -1       865-6.77132E+04 4.84657E+01 1.75284E+02 5.21836E+03-2.32006E-10-3.57072E-09
 -1       866-6.77783E+04-4.43078E+01 3.69806E+02-4.31837E+02-2.82432E-09-1.44335E-08
 -1       867-6.75349E+04 3.67579E+02 9.20913E+02 5.19336E+03-6.22322E-10-2.98328E-10
 -1       868-6.79262E+04-3.17174E+02 1.53281E+03-4.16021E+02-2.75338E-09-1.53534E-09
 -1       869-6.64079E+04 2.63946E+03 4.08535E+03 5.15177E+03 1.13630E-10-5.55610E-09
 -1       870-6.88986E+04-2.25519E+03 5.92816E+03-3.90210E+02-1.05138E-09 1.22791E-08
 -1       871-5.02523E+03-1.58699E+04-1.71088E+04 1.14129E+05-1.89902E-09 1.60171E-08
 -1       872-1.97315E+03-1.97882E+04-7.10094E+03 1.47977E+05-5.06407E-09 1.38543E-08
 -1       873 1.81429E+02-1.79215E+04 6.76224E+02 1.13879E+05-2.51976E-09 1.49635E-08
 -1       874 2.76101E+03-1.56715E+04 8.95539E+03 1.48011E+05-5.24051E-09 2.29047E-08
 -1       875 6.04367E+03-2.00531E+04 2.00795E+04 1.14089E+05-2.20462E-09 7.90715E-09
 -1       876 2.64703E+05 4.49344E+04 1.37462E+04 1.06606E+05 1.83218E-09 9.06766E-09
 -1       877 2.65579E+05 4.78628E+04 7.34097E+03 1.10580E+05 4.61409E-09-1.24028E-08
 -1       878 2.65988E+05 4.34126E+04 3.07552E+03 1.07734E+05-3.49200E-09 7.70751E-09
 -1       879 2.63710E+05 4.59987E+04 1.53232E+03 1.10674E+05 2.52157E-09 6.60941E-09
 -1       880 2.66081E+05 4.33965E+04 7.13661E+02 1.07780E+05 3.93288E-09 1.27752E-08
 -1       881 2.63586E+05 4.59191E+04 3.80874E+02 1.10654E+05-2.73792E-09 4.58860E-09
 -1       882 2.66089E+05 4.34083E+04 2.43277E+02 1.07782E+05-5.43650E-09-5.14291E-10
 -1       883 2.63577E+05 4.59151E+04 2.60902E+02 1.10647E+05-1.47786E-08 2.70003E-08
 -1       884 2.66083E+05 4.34056E+04 4.14468E+02 1.07782E+05-5.04906E-09 1.28761E-08
 -1       885 2.63610E+05 4.59209E+04 8.32957E+02 1.10657E+05-1.55404E-09 4.03361E-09
 -1       886 2.66051E+05 4.33813E+04 1.67863E+03 1.07778E+05-1.81149E-09 1.29148E-09
 -1       887 2.63905E+05 4.61143E+04 3.66669E+03 1.10700E+05-6.00011E-10 3.16732E-10
 -1       888 2.65820E+05 4.34221E+04 7.38848E+03 1.07661E+05-4.68955E-09 6.28097E-09
 -1       889 2.68304E+05 5.06877E+04 1.76500E+04 1.10564E+05-4.95021E-09 1.17961E-08
 -1       890 2.62807E+05 4.70011E+04 3.30577E+04 1.04846E+05-1.02000E-09-7.87622E-10
 -1       891-1.14489E+02-1.47796E+05-1.79456E+03 2.57364E+04-6.97810E-10 8.18136E-09
 -1       892-2.09891E+02-1.48253E+05-1.93342E+03 3.90207E+04 9.61791E-10 1.98124E-08
 -1       893 4.96804E+00-1.47854E+05-2.74373E+03 2.57426E+04-6.35737E-10 1.44232E-08
 -1       894-1.41831E+03-1.49293E+05-5.68303E+03 3.88785E+04 1.19712E-09 7.68978E-10
 -1       895-1.11925E+03-1.46670E+05-1.00095E+04 2.58786E+04-9.57243E-11 2.90675E-09
 -1       956-3.37846E+05-4.80352E+03-1.19692E+04 2.54840E+04 2.49565E-09-9.89348E-09
 -1       957-3.40202E+05-1.65896E+03-6.14402E+03 3.06572E+04 2.06910E-10-1.24803E-08
 -1       958-3.38916E+05-1.72303E+02-2.76840E+03 2.53384E+04-3.44244E-09 4.82669E-09
 -1       959-3.39097E+05-7.27572E+01-1.41383E+03 3.08219E+04 1.86947E-09 4.96448E-09
 -1       960-3.39017E+05-7.35612E-01-6.89411E+02 2.53238E+04-9.41782E-10 1.15058E-08
 -1       961-3.39022E+05-1.01236E+01-3.65767E+02 3.08388E+04-6.15933E-09 8.91168E-09
 -1       962-3.39039E+05-3.47746E+00-2.09622E+02 2.53215E+04-7.81938E-09 2.23486E-09
 -1       963-3.39020E+05-7.42009E+00-1.68702E+02 3.08418E+04 1.35060E-09 2.18699E-08
 -1       964-3.39043E+05-8.09976E-01-2.05522E+02 2.53208E+04 2.15431E-09 2.76555E-09
 -1       965-3.39032E+05-4.44489E+00-3.55771E+02 3.08414E+04-2.60451E-09 3.75235E-09
 -1       966-3.39030E+05 7.19810E+00-6.68460E+02 2.53219E+04 5.87988E-10-1.49137E-08
 -1       967-3.39115E+05-5.96951E+01-1.37114E+03 3.08300E+04-4.10819E-09-4.48199E-09
 -1       968-3.38940E+05-1.54002E+02-2.68389E+03 2.53322E+04 7.45194E-09 8.70693E-09
 -1       969-3.40196E+05-1.59340E+03-5.95858E+03 3.07098E+04 1.24808E-08-9.56967E-09
 -1       970-3.37910E+05-4.64218E+03-1.16070E+04 2.54390E+04 4.93537E-09-2.48110E-09
 -1       971-3.12669E+05-1.58943E+03-8.67893E+03 1.42980E+04-4.32101E-09-1.07354E-08
 -1       972-3.14767E+05-1.15704E+03-4.72647E+03 1.98628E+04-1.01427E-08 7.19592E-09
 -1       973-3.13635E+05-3.73768E+01-2.11682E+03 1.41822E+04-3.55431E-09-1.73031E-10
 -1       974-3.13770E+05-4.72927E+01-1.09704E+03 1.99912E+04 1.39607E-10-7.95524E-09
 -1       975-3.13711E+05 4.05382E+00-5.48189E+02 1.41709E+04-9.65429E-10-1.18066E-08
 -1       976-3.13712E+05-1.15678E+00-3.15943E+02 2.00054E+04 1.67074E-09-7.52812E-09
 -1       977-3.13726E+05 4.43747E+00-2.28728E+02 1.41680E+04-1.89607E-09-3.42118E-09
 -1       978-3.13716E+05 4.39959E+00-2.66873E+02 2.00096E+04 7.90578E-10 8.91873E-09
 -1       979-3.13726E+05 1.19915E+01-4.28102E+02 1.41668E+04 2.22371E-10 6.46696E-09
 -1       980-3.13748E+05 7.13695E+00-8.26186E+02 2.00104E+04-3.65890E-09 1.24637E-08
 -1       981-3.13700E+05 3.26189E+01-1.59990E+03 1.41673E+04 2.58285E-09 1.88322E-09
 -1       982-3.13968E+05-1.11035E+02-3.30684E+03 2.00042E+04 1.34310E-09-5.68757E-09
 -1       983-3.13498E+05-6.97657E+01-6.42513E+03 1.41730E+04 2.11230E-10 2.05500E-09
 -1       984-3.17058E+05-3.46658E+03-1.43886E+04 1.99240E+04-3.25031E-09 4.50871E-09
 -1       985-3.10589E+05-4.77127E+03-2.64220E+04 1.42459E+04 1.16188E-09-8.29459E-09
 -3
    1PSTEP                        17           9           1          
  100CL  109 6.44531E-01         409                     0    9           1
 -4  DISP        4    1
 -5  D1          1    2    1    0
 -5  D2          1    2    2    0
 -5  D3          1    2    3    0
 -5  ALL         1    2    0    0    1ALL
 -1         1 2.12514E-03 0.00000E+00 0.00000E+00
 -1         2 1.84192E-03 1.09817E-27 0.00000E+00
 -1         3 3.16016E-04 5.31634E-27 0.00000E+00
 -1         5 1.67197E-04-1.85417E-26 2.99853E-24
 -1         8 2.10826E-03-5.15371E-07 0.00000E+00
 -1         9 2.06652E-03-1.07423E-05 0.00000E+00
 -1        10 2.86765E-04-3.50923E-06 6.61744E-24
 -1        12 1.68667E-04 7.72777E-07 2.06795E-25
 -1        15 2.08795E-03-5.63571E-07 0.00000E+00
 -1        16 2.09731E-03-1.19352E-05 0.00000E+00
 -1        17 1.96083E-04-7.86637E-06 0.00000E+00
 -1        18 1.71546E-04 2.91771E-05 0.00000E+00
 -1        19 1.73077E-04 1.54015E-06 0.00000E+00
 -1        20 1.73220E-04-5.72138E-06 0.00000E+00
 -1        21 1.72381E-04-1.65629E-05 0.00000E+00
 -1        24 2.95078E-05-1.17352E-05 0.00000E+00
 -1        25 1.80434E-04 2.93883E-05 0.00000E+00
 -1        26 1.81125E-04 2.13336E-06 0.00000E+00
 -1        27 1.79030E-04-9.13925E-06 0.00000E+00
 -1        28 1.78690E-04-1.71658E-05 0.00000E+00
 -1        32 0.00000E+00 0.00000E+00 0.00000E+00
 -1        33 1.88157E-04 2.85582E-06 0.00000E+00
 -1        34 1.86121E-04-9.18876E-06 0.00000E+00
 -1        35 1.84256E-04-1.74955E-05 0.00000E+00
 -1        51 2.12405E-03-9.81697E-08-6.61744E-24
 -1        52 2.12202E-03-1.81345E-07 0.00000E+00
 -1        53 2.11924E-03-2.62439E-07 0.00000E+00
 -1        54 2.11590E-03-3.43602E-07 0.00000E+00
 -1        55 2.11217E-03-4.26402E-07 1.24077E-24
 -1        56 2.12117E-03 5.92754E-07 0.00000E+00
 -1        57 2.11574E-03 4.64690E-06 0.00000E+00
 -1        58 2.10925E-03 1.15228E-05 0.00000E+00
 -1        59 2.10201E-03 2.02955E-05 5.29396E-23
 -1        60 2.09449E-03 2.97606E-05 0.00000E+00
 -1        61 2.08719E-03 3.86507E-05 5.29396E-23
 -1        62 2.08057E-03 4.57903E-05 0.00000E+00
 -1        63 2.07501E-03 5.01397E-05 0.00000E+00
 -1        64 2.07074E-03 5.11006E-05 0.00000E+00
 -1        65 2.06786E-03 4.83416E-05 5.29396E-23
 -1        66 2.06628E-03 4.21225E-05-1.05879E-22
 -1        67 2.06577E-03 3.29794E-05 0.00000E+00
 -1        68 2.06596E-03 2.19139E-05 1.05879E-22
 -1        69 2.06645E-03 1.00896E-05 0.00000E+00
 -1        70 2.06675E-03-1.22239E-06-5.29396E-23
 -1        86 1.85520E-03-1.09380E-06 2.64698E-23
 -1        87 1.89448E-03-2.84496E-06 0.00000E+00
 -1        88 1.94794E-03-5.19445E-06 0.00000E+00
 -1        89 2.00315E-03-7.63520E-06 1.32349E-23
 -1        90 2.04692E-03-9.55905E-06 0.00000E+00
 -1       121 3.15194E-04-5.69969E-07 0.00000E+00
 -1       122 3.12732E-04-1.14253E-06 6.61744E-24
 -1       123 3.08640E-04-1.72023E-06 1.32349E-23
 -1       124 3.02932E-04-2.30564E-06 0.00000E+00
 -1       125 2.95631E-04-2.90094E-06 0.00000E+00
 -1       191 1.67238E-04 1.28838E-07 3.20532E-24
 -1       192 1.67361E-04 2.57668E-07 5.68687E-25
 -1       193 1.67565E-04 3.86486E-07-6.20385E-25
 -1       194 1.67851E-04 5.15283E-07-8.78879E-25
 -1       195 1.68218E-04 6.44050E-07-2.06795E-24
 -1       251 2.10751E-03-1.48888E-05 0.00000E+00
 -1       252 2.10568E-03-6.43577E-05 0.00000E+00
 -1       253 2.10238E-03-1.39312E-04 0.00000E+00
 -1       254 2.09785E-03-2.29502E-04 0.00000E+00
 -1       255 2.09329E-03-3.20186E-04-1.32349E-23
 -1       256 2.08987E-03-3.96617E-04 0.00000E+00
 -1       257 2.08793E-03-4.48251E-04-1.32349E-23
 -1       258 2.08714E-03-4.65166E-04 6.61744E-24
 -1       259 2.08632E-03-4.47081E-04 1.32349E-23
 -1       260 2.08435E-03-3.94658E-04-6.61744E-24
 -1       261 2.08092E-03-3.18114E-04 0.00000E+00
 -1       262 2.07643E-03-2.28263E-04 0.00000E+00
 -1       263 2.07206E-03-1.39854E-04 0.00000E+00
 -1       264 2.06893E-03-6.76077E-05 0.00000E+00
 -1       265 2.06725E-03-2.14698E-05-2.64698E-23
 -1       266 2.10487E-03-5.31001E-07 3.30872E-24
 -1       267 2.10149E-03-5.38108E-07 0.00000E+00
 -1       268 2.09810E-03-5.45755E-07 0.00000E+00
 -1       269 2.09472E-03-5.51804E-07 0.00000E+00
 -1       270 2.09133E-03-5.57814E-07 0.00000E+00
 -1       271 2.10614E-03 2.68644E-06 0.00000E+00
 -1       272 2.10395E-03 5.99721E-06 1.32349E-23
 -1       273 2.10177E-03 9.27753E-06 0.00000E+00
 -1       274 2.09965E-03 1.23759E-05 0.00000E+00
 -1       275 2.09766E-03 1.51462E-05 2.64698E-23
 -1       276 2.09585E-03 1.74440E-05 0.00000E+00
 -1       277 2.09426E-03 1.91306E-05 0.00000E+00
 -1       278 2.09296E-03 2.00729E-05 0.00000E+00
 -1       279 2.09199E-03 2.01464E-05 0.00000E+00
 -1       280 2.09138E-03 1.92353E-05 0.00000E+00
 -1       281 2.09118E-03 1.72345E-05 2.64698E-23
 -1       282 2.09142E-03 1.40499E-05 0.00000E+00
 -1       283 2.09213E-03 9.60069E-06 0.00000E+00
 -1       284 2.09334E-03 3.81959E-06 0.00000E+00
 -1       285 2.09506E-03-3.34797E-06 2.64698E-23
 -1       301 2.07208E-03-1.09649E-05 1.32349E-23
 -1       302 2.07652E-03-1.11543E-05-6.61744E-24
 -1       303 2.08055E-03-1.13395E-05-1.32349E-23
 -1       304 2.08488E-03-1.15249E-05 1.32349E-23
 -1       305 2.09023E-03-1.17168E-05 0.00000E+00
 -1       306 2.10006E-03-1.41999E-04 0.00000E+00
 -1       307 2.16464E-03-5.05697E-04-5.29396E-23
 -1       308 2.22242E-03-1.04406E-03-1.05879E-22
 -1       309 2.26401E-03-1.67505E-03-5.29396E-23
 -1       310 2.30889E-03-2.28837E-03-1.05879E-22
 -1       311 2.37186E-03-2.77536E-03 5.29396E-23
 -1       312 2.43144E-03-3.06314E-03 1.05879E-22
 -1       313 2.44100E-03-3.11052E-03-5.29396E-23
 -1       314 2.34242E-03-2.92312E-03-1.05879E-22
 -1       315 2.09945E-03-2.54815E-03 0.00000E+00
 -1       316 1.72424E-03-2.05204E-03 1.05879E-22
 -1       317 1.26714E-03-1.49961E-03 0.00000E+00
 -1       318 8.20448E-04-9.54085E-04 1.05879E-22
 -1       319 4.73411E-04-4.80323E-04 0.00000E+00
 -1       320 2.65374E-04-1.43767E-04 0.00000E+00
 -1       336 2.76165E-04-4.17881E-06 0.00000E+00
 -1       337 2.63671E-04-4.86997E-06 6.61744E-24
 -1       338 2.49342E-04-5.58432E-06-1.32349E-23
 -1       339 2.33248E-04-6.32227E-06 6.61744E-24
 -1       340 2.15466E-04-7.08778E-06 0.00000E+00
 -1       406 1.69198E-04 9.01451E-07 2.99853E-24
 -1       407 1.69811E-04 1.03004E-06 9.30578E-25
 -1       408 1.70505E-04 1.15850E-06 1.86116E-24
 -1       409 1.71281E-04 1.28666E-06-1.03398E-24
 -1       410 1.72138E-04 1.41427E-06-1.65436E-24
 -1       521 2.13171E-03-1.52015E-04-1.05879E-22
 -1       522 2.19551E-03-5.34731E-04-5.29396E-23
 -1       523 2.24883E-03-1.09942E-03 1.05879E-22
 -1       524 2.28339E-03-1.75807E-03 0.00000E+00
 -1       525 2.32201E-03-2.39740E-03 0.00000E+00
 -1       526 2.38213E-03-2.90600E-03 0.00000E+00
 -1       527 2.44151E-03-3.20531E-03-1.05879E-22
 -1       528 2.44978E-03-3.25297E-03 0.00000E+00
 -1       529 2.34255E-03-3.05408E-03 2.11758E-22
 -1       530 2.08111E-03-2.66187E-03 0.00000E+00
 -1       531 1.67775E-03-2.14608E-03 1.05879E-22
 -1       532 1.18774E-03-1.57464E-03 5.29396E-23
 -1       533 7.08216E-04-1.00968E-03-1.05879E-22
 -1       534 3.33203E-04-5.15035E-04-5.29396E-23
 -1       535 1.07081E-04-1.59973E-04 1.05879E-22
 -1       536 1.95426E-04 2.41219E-05 0.00000E+00
 -1       537 1.93786E-04 7.96537E-05 3.30872E-24
 -1       538 1.91260E-04 1.50170E-04-3.30872E-24
 -1       539 1.88284E-04 2.27035E-04 1.65436E-24
 -1       540 1.85603E-04 2.99669E-04 0.00000E+00
 -1       541 1.83854E-04 3.57517E-04-1.65436E-24
 -1       542 1.83037E-04 3.94309E-04 0.00000E+00
 -1       543 1.82827E-04 4.03912E-04 0.00000E+00
 -1       544 1.82530E-04 3.87066E-04 0.00000E+00
 -1       545 1.81505E-04 3.44704E-04 1.65436E-24
 -1       546 1.79619E-04 2.84370E-04 3.30872E-24
 -1       547 1.77081E-04 2.13718E-04 0.00000E+00
 -1       548 1.74571E-04 1.43478E-04 3.30872E-24
 -1       549 1.72756E-04 8.43803E-05-1.65436E-24
 -1       550 1.71806E-04 4.38453E-05-1.65436E-24
 -1       551 1.72950E-04-8.39521E-06 0.00000E+00
 -1       552 1.46735E-04-8.99311E-06 0.00000E+00
 -1       553 1.18352E-04-9.64490E-06 3.30872E-24
 -1       554 8.87343E-05-1.03319E-05 3.30872E-24
 -1       555 5.88108E-05-1.10298E-05 0.00000E+00
 -1       556 1.89131E-04 9.94327E-06 0.00000E+00
 -1       557 1.83532E-04 2.43419E-05 0.00000E+00
 -1       558 1.79158E-04 3.55984E-05 5.29396E-23
 -1       559 1.75888E-04 4.40031E-05 0.00000E+00
 -1       560 1.73601E-04 4.98467E-05 0.00000E+00
 -1       561 1.72177E-04 5.34218E-05 0.00000E+00
 -1       562 1.71502E-04 5.50226E-05 0.00000E+00
 -1       563 1.71459E-04 5.49438E-05 0.00000E+00
 -1       564 1.71935E-04 5.34808E-05 0.00000E+00
 -1       565 1.72817E-04 5.09297E-05 0.00000E+00
 -1       566 1.73994E-04 4.75870E-05 6.61744E-24
 -1       567 1.75355E-04 4.37497E-05 0.00000E+00
 -1       568 1.76790E-04 3.97147E-05 1.65436E-24
 -1       569 1.78188E-04 3.57788E-05 0.00000E+00
 -1       570 1.79439E-04 3.22392E-05 0.00000E+00
 -1       571 1.71639E-04 2.73865E-05 0.00000E+00
 -1       572 1.71734E-04 2.55339E-05 8.27181E-25
 -1       573 1.71829E-04 2.36340E-05-3.30872E-24
 -1       574 1.71924E-04 2.17017E-05-1.65436E-24
 -1       575 1.72020E-04 1.97524E-05-3.30872E-24
 -1       576 1.72116E-04 1.78011E-05 1.65436E-24
 -1       577 1.72211E-04 1.58632E-05 3.30872E-24
 -1       578 1.72307E-04 1.39540E-05 0.00000E+00
 -1       579 1.72403E-04 1.20887E-05 0.00000E+00
 -1       580 1.72499E-04 1.02826E-05 6.61744E-24
 -1       581 1.72595E-04 8.55102E-06 6.61744E-24
 -1       582 1.72691E-04 6.90912E-06 0.00000E+00
 -1       583 1.72788E-04 5.37218E-06 0.00000E+00
 -1       584 1.72884E-04 3.95529E-06-3.30872E-24
 -1       585 1.72980E-04 2.67339E-06 0.00000E+00
 -1       586 1.72983E-04 2.92144E-05 1.65436E-24
 -1       587 1.74383E-04 2.92510E-05 0.00000E+00
 -1       588 1.75786E-04 2.92873E-05 0.00000E+00
 -1       589 1.77235E-04 2.93230E-05 0.00000E+00
 -1       590 1.78771E-04 2.93575E-05 0.00000E+00
 -1       591 1.72154E-04 2.74713E-05-1.03398E-25
 -1       592 1.72767E-04 2.57436E-05-2.06795E-25
 -1       593 1.73386E-04 2.40000E-05 0.00000E+00
 -1       594 1.74008E-04 2.22454E-05 0.00000E+00
 -1       595 1.74632E-04 2.04849E-05 8.27181E-25
 -1       596 1.75256E-04 1.87233E-05-4.13590E-25
 -1       597 1.75879E-04 1.69656E-05 0.00000E+00
 -1       598 1.76499E-04 1.52167E-05 0.00000E+00
 -1       599 1.77113E-04 1.34815E-05 0.00000E+00
 -1       600 1.77721E-04 1.17649E-05 0.00000E+00
 -1       601 1.78320E-04 1.00719E-05 8.27181E-25
 -1       602 1.78908E-04 8.40728E-06 0.00000E+00
 -1       603 1.79484E-04 6.77608E-06 4.13590E-25
 -1       604 1.80046E-04 5.18327E-06-1.55096E-25
 -1       605 1.80593E-04 3.63368E-06-4.13590E-25
 -1       606 1.73090E-04 6.28559E-07 0.00000E+00
 -1       607 1.73100E-04-1.95080E-07 0.00000E+00
 -1       608 1.73109E-04-9.35923E-07 0.00000E+00
 -1       609 1.73118E-04-1.59979E-06 0.00000E+00
 -1       610 1.73127E-04-2.19257E-06 0.00000E+00
 -1       611 1.73135E-04-2.72018E-06 0.00000E+00
 -1       612 1.73144E-04-3.18856E-06 0.00000E+00
 -1       613 1.73152E-04-3.60369E-06 0.00000E+00
 -1       614 1.73161E-04-3.97150E-06 0.00000E+00
 -1       615 1.73170E-04-4.29794E-06 0.00000E+00
 -1       616 1.73178E-04-4.58898E-06 0.00000E+00
 -1       617 1.73187E-04-4.85057E-06 4.13590E-25
 -1       618 1.73196E-04-5.08864E-06 0.00000E+00
 -1       619 1.73204E-04-5.30917E-06 2.06795E-25
 -1       620 1.73213E-04-5.51810E-06 0.00000E+00
 -1       621 1.74168E-04 1.63947E-06-1.65436E-24
 -1       622 1.75399E-04 1.73905E-06 0.00000E+00
 -1       623 1.76739E-04 1.83847E-06-1.65436E-24
 -1       624 1.78160E-04 1.93762E-06 1.65436E-24
 -1       625 1.79632E-04 2.03651E-06-1.65436E-24
 -1       626 1.73526E-04 6.63099E-07 3.30872E-24
 -1       627 1.73952E-04-1.47953E-07 0.00000E+00
 -1       628 1.74357E-04-9.00853E-07 0.00000E+00
 -1       629 1.74742E-04-1.60379E-06-1.65436E-24
 -1       630 1.75113E-04-2.26499E-06-3.30872E-24
 -1       631 1.75470E-04-2.89268E-06-1.65436E-24
 -1       632 1.75818E-04-3.49509E-06 0.00000E+00
 -1       633 1.76160E-04-4.08047E-06 0.00000E+00
 -1       634 1.76499E-04-4.65706E-06 0.00000E+00
 -1       635 1.76837E-04-5.23308E-06-1.65436E-24
 -1       636 1.77178E-04-5.81680E-06 0.00000E+00
 -1       637 1.77525E-04-6.41643E-06-1.65436E-24
 -1       638 1.77881E-04-7.04022E-06-1.65436E-24
 -1       639 1.78249E-04-7.69643E-06 1.65436E-24
 -1       640 1.78632E-04-8.39332E-06 0.00000E+00
 -1       656 1.73654E-04-6.27699E-06 0.00000E+00
 -1       657 1.74502E-04-6.85513E-06 0.00000E+00
 -1       658 1.75623E-04-7.43186E-06 0.00000E+00
 -1       659 1.76873E-04-8.00824E-06-6.61744E-24
 -1       660 1.78068E-04-8.58636E-06-6.61744E-24
 -1       661 1.73384E-04-5.96717E-06 8.27181E-25
 -1       662 1.73583E-04-6.29975E-06 0.00000E+00
 -1       663 1.73812E-04-6.71438E-06 0.00000E+00
 -1       664 1.74071E-04-7.20506E-06-8.27181E-25
 -1       665 1.74356E-04-7.76646E-06-1.65436E-24
 -1       666 1.74665E-04-8.39312E-06-8.27181E-25
 -1       667 1.74997E-04-9.07990E-06 1.65436E-24
 -1       668 1.75350E-04-9.82166E-06 0.00000E+00
 -1       669 1.75722E-04-1.06135E-05 0.00000E+00
 -1       670 1.76110E-04-1.14505E-05 0.00000E+00
 -1       671 1.76513E-04-1.23280E-05 1.65436E-24
 -1       672 1.76930E-04-1.32414E-05 8.27181E-25
 -1       673 1.77358E-04-1.41861E-05 1.65436E-24
 -1       674 1.77796E-04-1.51579E-05 0.00000E+00
 -1       675 1.78242E-04-1.61520E-05 0.00000E+00
 -1       676 1.73436E-04-1.66640E-05 3.30872E-24
 -1       677 1.74491E-04-1.67650E-05 0.00000E+00
 -1       678 1.75544E-04-1.68660E-05 3.30872E-24
 -1       679 1.76595E-04-1.69666E-05 0.00000E+00
 -1       680 1.77644E-04-1.70673E-05-1.65436E-24
 -1       771 1.85306E-05 1.26930E-05-5.29396E-23
 -1       772 9.27732E-06 3.27566E-05 0.00000E+00
 -1       773 1.66549E-06 4.86686E-05 0.00000E+00
 -1       774-4.41721E-06 6.06670E-05 2.64698E-23
 -1       775-9.08090E-06 6.89988E-05 5.29396E-23
 -1       776-1.24401E-05 7.39258E-05 0.00000E+00
 -1       777-1.46094E-05 7.57190E-05 0.00000E+00
 -1       778-1.57056E-05 7.46610E-05-2.64698E-23
 -1       779-1.58453E-05 7.10424E-05 0.00000E+00
 -1       780-1.51470E-05 6.51635E-05 0.00000E+00
 -1       781-1.37283E-05 5.73307E-05 5.29396E-23
 -1       782-1.17086E-05 4.78581E-05 0.00000E+00
 -1       783-9.20639E-06 3.70638E-05-5.29396E-23
 -1       784-6.34133E-06 2.52715E-05 0.00000E+00
 -1       785-3.23237E-06 1.28074E-05 0.00000E+00
 -1       786 1.80473E-04 2.74626E-05-2.58494E-26
 -1       787 1.80516E-04 2.55853E-05 4.13590E-25
 -1       788 1.80558E-04 2.37484E-05 0.00000E+00
 -1       789 1.80601E-04 2.19439E-05 8.27181E-25
 -1       790 1.80644E-04 2.01675E-05-1.65436E-24
 -1       791 1.80688E-04 1.84146E-05-8.27181E-25
 -1       792 1.80731E-04 1.66830E-05 0.00000E+00
 -1       793 1.80775E-04 1.49707E-05 8.27181E-25
 -1       794 1.80818E-04 1.32776E-05 0.00000E+00
 -1       795 1.80862E-04 1.16037E-05-8.27181E-25
 -1       796 1.80905E-04 9.95095E-06 1.65436E-24
 -1       797 1.80949E-04 8.32124E-06 0.00000E+00
 -1       798 1.80993E-04 6.71893E-06 0.00000E+00
 -1       799 1.81037E-04 5.14842E-06 8.27181E-25
 -1       800 1.81081E-04 3.61732E-06 0.00000E+00
 -1       801 1.39207E-04 2.63298E-05 0.00000E+00
 -1       802 1.43614E-05 1.65846E-05-2.64698E-23
 -1       803-9.30717E-05 8.47704E-06-5.29396E-23
 -1       804-8.39176E-05 5.85784E-06 2.64698E-23
 -1       805-2.79011E-05 2.38310E-06 5.29396E-23
 -1       806 1.81046E-04 2.73973E-05 1.65436E-24
 -1       807 1.81643E-04 2.54325E-05 0.00000E+00
 -1       808 1.82229E-04 2.34986E-05 3.30872E-24
 -1       809 1.82801E-04 2.15995E-05 0.00000E+00
 -1       810 1.83359E-04 1.97389E-05 3.30872E-24
 -1       811 1.83900E-04 1.79205E-05-1.65436E-24
 -1       812 1.84425E-04 1.61479E-05-3.30872E-24
 -1       813 1.84931E-04 1.44249E-05 0.00000E+00
 -1       814 1.85418E-04 1.27549E-05-1.65436E-24
 -1       815 1.85883E-04 1.11417E-05 0.00000E+00
 -1       816 1.86326E-04 9.58884E-06 0.00000E+00
 -1       817 1.86744E-04 8.09994E-06 0.00000E+00
 -1       818 1.87138E-04 6.67861E-06 1.65436E-24
 -1       819 1.87505E-04 5.32845E-06-1.65436E-24
 -1       820 1.87845E-04 4.05302E-06-1.65436E-24
 -1       821 1.81001E-04 3.44161E-07 0.00000E+00
 -1       822 1.80868E-04-2.09891E-06 0.00000E+00
 -1       823 1.80735E-04-4.92162E-06 0.00000E+00
 -1       824 1.80601E-04-7.84738E-06 1.65436E-24
 -1       825 1.80466E-04-1.05728E-05 3.30872E-24
 -1       826 1.80333E-04-1.27956E-05 0.00000E+00
 -1       827 1.80201E-04-1.43462E-05 3.30872E-24
 -1       828 1.80069E-04-1.50590E-05-1.65436E-24
 -1       829 1.79938E-04-1.49895E-05 0.00000E+00
 -1       830 1.79807E-04-1.41979E-05-1.65436E-24
 -1       831 1.79675E-04-1.29349E-05-3.30872E-24
 -1       832 1.79543E-04-1.14540E-05 0.00000E+00
 -1       833 1.79412E-04-1.00663E-05 3.30872E-24
 -1       834 1.79282E-04-9.08236E-06-1.65436E-24
 -1       835 1.79152E-04-8.70647E-06-8.27181E-25
 -1       836 1.82497E-04 2.25327E-06 0.00000E+00
 -1       837 1.83748E-04 2.37612E-06 0.00000E+00
 -1       838 1.84909E-04 2.49887E-06 0.00000E+00
 -1       839 1.86010E-04 2.62093E-06 8.27181E-25
 -1       840 1.87082E-04 2.74283E-06 0.00000E+00
 -1       856 1.79012E-04-9.90687E-06-8.27181E-25
 -1       857 1.78992E-04-1.05425E-05 0.00000E+00
 -1       858 1.78971E-04-1.10666E-05-4.13590E-25
 -1       859 1.78950E-04-1.14999E-05-2.06795E-25
 -1       860 1.78928E-04-1.18630E-05 0.00000E+00
 -1       861 1.78907E-04-1.21767E-05 0.00000E+00
 -1       862 1.78886E-04-1.24617E-05 8.27181E-25
 -1       863 1.78864E-04-1.27389E-05-4.13590E-25
 -1       864 1.78843E-04-1.30291E-05 0.00000E+00
 -1       865 1.78822E-04-1.33531E-05 4.13590E-25
 -1       866 1.78800E-04-1.37316E-05 8.27181E-25
 -1       867 1.78779E-04-1.41854E-05 0.00000E+00
 -1       868 1.78757E-04-1.47352E-05 0.00000E+00
 -1       869 1.78735E-04-1.54015E-05 4.13590E-25
 -1       870 1.78713E-04-1.62049E-05 0.00000E+00
 -1       871 1.80074E-04-9.14327E-06 0.00000E+00
 -1       872 1.81260E-04-9.15052E-06 0.00000E+00
 -1       873 1.82523E-04-9.15842E-06 0.00000E+00
 -1       874 1.83798E-04-9.16703E-06-3.10193E-25
 -1       875 1.85019E-04-9.17621E-06-1.44757E-24
 -1       876 1.79441E-04-9.89297E-06 0.00000E+00
 -1       877 1.79830E-04-1.05818E-05-1.65436E-24
 -1       878 1.80199E-04-1.12136E-05-3.30872E-24
 -1       879 1.80548E-04-1.17954E-05-1.65436E-24
 -1       880 1.80882E-04-1.23346E-05 0.00000E+00
 -1       881 1.81203E-04-1.28382E-05 0.00000E+00
 -1       882 1.81513E-04-1.33134E-05 0.00000E+00
 -1       883 1.81815E-04-1.37674E-05-1.65436E-24
 -1       884 1.82112E-04-1.42073E-05 0.00000E+00
 -1       885 1.82406E-04-1.46403E-05-1.65436E-24
 -1       886 1.82701E-04-1.50735E-05-3.30872E-24
 -1       887 1.82998E-04-1.55140E-05 0.00000E+00
 -1       888 1.83300E-04-1.59691E-05-3.30872E-24
 -1       889 1.83609E-04-1.64460E-05 0.00000E+00
 -1       890 1.83929E-04-1.69518E-05 0.00000E+00
 -1       891 1.79757E-04-1.72211E-05 0.00000E+00
 -1       892 1.80801E-04-1.72767E-05 0.00000E+00
 -1       893 1.81797E-04-1.73321E-05 8.27181E-25
 -1       894 1.82722E-04-1.73873E-05-8.27181E-25
 -1       895 1.83550E-04-1.74423E-05-4.13590E-25
 -1       956 1.88032E-04 1.82422E-06 1.65436E-24
 -1       957 1.87905E-04 8.79225E-07 1.65436E-24
 -1       958 1.87777E-04 1.07411E-08 0.00000E+00
 -1       959 1.87650E-04-7.91873E-07 0.00000E+00
 -1       960 1.87522E-04-1.53930E-06-3.30872E-24
 -1       961 1.87394E-04-2.24227E-06 1.65436E-24
 -1       962 1.87267E-04-2.91151E-06 0.00000E+00
 -1       963 1.87139E-04-3.55777E-06-1.65436E-24
 -1       964 1.87012E-04-4.19178E-06 0.00000E+00
 -1       965 1.86884E-04-4.82429E-06 0.00000E+00
 -1       966 1.86756E-04-5.46607E-06 0.00000E+00
 -1       967 1.86629E-04-6.12783E-06 0.00000E+00
 -1       968 1.86501E-04-6.82033E-06 0.00000E+00
 -1       969 1.86374E-04-7.55427E-06-1.65436E-24
 -1       970 1.86247E-04-8.34032E-06 0.00000E+00
 -1       971 1.86006E-04-1.00337E-05-3.30872E-24
 -1       972 1.85889E-04-1.07857E-05 1.65436E-24
 -1       973 1.85772E-04-1.14551E-05 0.00000E+00
 -1       974 1.85655E-04-1.20525E-05 0.00000E+00
 -1       975 1.85537E-04-1.25886E-05 3.30872E-24
 -1       976 1.85420E-04-1.30739E-05 0.00000E+00
 -1       977 1.85303E-04-1.35194E-05 0.00000E+00
 -1       978 1.85186E-04-1.39355E-05 1.65436E-24
 -1       979 1.85069E-04-1.43331E-05 3.30872E-24
 -1       980 1.84951E-04-1.47228E-05 0.00000E+00
 -1       981 1.84834E-04-1.51154E-05-3.30872E-24
 -1       982 1.84717E-04-1.55215E-05-1.65436E-24
 -1       983 1.84600E-04-1.59519E-05 0.00000E+00
 -1       984 1.84484E-04-1.64173E-05 1.65436E-24
 -1       985 1.84368E-04-1.69284E-05 0.00000E+00
 -3
    1PSTEP                        18           9           1          
  100CL  109 6.44531E-01         409                     0    9           1
 -4  STRESS      6    1
 -5  SXX         1    4    1    1
 -5  SYY         1    4    2    2
 -5  SZZ         1    4    3    3
 -5  SXY         1    4    1    2
 -5  SYZ         1    4    2    3
 -5  SZX         1    4    3    1
 -1         1-4.42962E+06-1.65127E+06-9.74362E+05-1.62388E+06 1.22236E-09 1.75234E-07
 -1         2 3.01979E+04-2.13493E+06 1.25888E+05 3.29442E+05 4.78212E-09 5.97847E-08
 -1         3-1.24264E+03-1.62027E+06 4.06081E+02-2.10252E+03-5.69795E-10 2.55059E-08
 -1         5-4.80205E+01 3.68841E+05 9.52267E+00-9.77843E-01-4.07848E-10-1.23564E-08
 -1         8-6.21586E+05-2.09497E+05-4.91773E+04-4.00597E+05-3.36513E-11-7.23230E-09
 -1         9 8.09546E+06-6.71751E+05 1.35486E+06-1.01666E+06 3.15020E-08 5.73695E-08
 -1        10-2.13269E+03-1.68843E+06-3.86917E+03-1.42075E+04-1.28548E-08-1.60514E-08
 -1        12-4.42155E+01 3.68861E+05 3.11422E+02-6.79061E+00-6.20620E-10 6.36464E-09
 -1        15 1.25876E+03 6.91755E+02 4.06892E+03 1.84231E+00-1.17694E-10-7.13726E-08
 -1        16 1.75964E+07-1.51073E+05 2.47683E+06-1.43395E+06 1.57937E-08 9.77889E-09
 -1        17 6.31878E+06 4.50812E+06 1.70240E+06 4.42718E+06 1.67551E-08 2.50060E-08
 -1        18 1.12393E+05 2.52640E+04-1.95991E+03-1.12356E+05 9.21796E-09-1.00522E-08
 -1        19 1.17230E+05 1.35458E+05-9.18857E+02 2.14105E+04 1.32586E-09-7.05950E-09
 -1        20-7.54797E+04-5.50364E+05-1.23278E+05 2.58673E+04-1.23737E-09 5.01435E-09
 -1        21-4.49584E+01-2.87782E+05-9.01915E+02 2.08261E+02 1.45988E-08-1.66538E-08
 -1        24 1.03403E+07 8.81589E+06 2.92710E+06 8.20057E+06-1.49972E-07-4.88556E-08
 -1        25 7.40136E+04 8.07074E+04 5.22116E+04-5.36408E+05-4.24006E-10 1.28088E-08
 -1        26-5.28630E+04 8.77024E+04-2.40921E+04 3.39208E+02 7.16318E-10 3.05059E-08
 -1        27-7.43786E+04-2.97844E+05-1.09275E+05 6.63376E+04 4.04361E-09-5.86776E-09
 -1        28 2.17219E+04-8.25707E+04 1.64123E+04 2.06607E+04-2.81455E-09 6.46545E-09
 -1        32-1.62982E+06-2.99597E+06-1.74413E+05 2.62365E+05-3.88100E-08-1.16788E-08
 -1        33-1.71998E+05 8.87944E+04 3.10544E+04-3.74446E+04-2.28689E-09 6.39435E-09
 -1        34-2.15668E+05-2.37726E+04 6.48891E+02 7.21692E+04-4.17487E-09-5.92369E-09
 -1        35-2.23432E+04-3.27523E+04-1.30269E+03 5.00796E+04-3.01434E-09 2.87279E-09
 -1        51 4.97306E+04-2.11642E+05 1.07545E+05-6.34965E+05 7.27596E-11 1.22018E-08
 -1        52 1.80157E+04-1.94471E+05 5.80826E+04-7.40303E+05 5.23869E-10-9.91931E-08
 -1        53 5.10289E+03-2.09956E+05 3.28694E+04-6.32651E+05 9.67702E-10 4.92291E-08
 -1        54 1.14770E+04-2.06411E+05 3.23186E+04-7.42701E+05 2.47383E-10-1.46840E-07
 -1        55 2.40536E+04-2.15915E+05 4.55109E+04-6.32334E+05 6.54836E-10-3.83261E-08
 -1        56-8.35201E+06-9.59370E+05-7.22398E+05-3.28204E+06 3.01225E-09-9.60717E-08
 -1        57-8.82284E+06-1.41977E+06-4.85230E+05-3.03449E+06 5.46061E-09-3.05299E-08
 -1        58-8.44552E+06-1.23574E+06-1.69595E+05-3.29028E+06-4.69299E-09-4.49654E-09
 -1        59-8.72214E+06-1.09010E+06-1.00711E+05-3.02494E+06-1.01863E-09-2.62338E-07
 -1        60-8.45394E+06-1.27871E+06-3.92517E+04-3.29670E+06-3.80442E-09-1.55322E-07
 -1        61-8.67886E+06-1.06877E+06-2.17337E+04-3.04840E+06-1.14278E-09-1.60734E-07
 -1        62-8.48678E+06-1.25699E+06-1.17368E+04-3.26595E+06-7.78527E-10 6.24050E-08
 -1        63-8.58680E+06-1.14498E+06-7.09422E+03-3.13494E+06-6.44286E-09-2.06182E-09
 -1        64-8.54137E+06-1.20547E+06-1.18909E+04-3.20682E+06-9.80981E-09-2.16914E-07
 -1        65-8.48343E+06-1.25452E+06-1.82618E+04-3.25489E+06-4.72573E-09-1.91388E-07
 -1        66-8.58997E+06-1.14774E+06-3.60800E+04-3.14586E+06 3.06136E-08-1.29806E-07
 -1        67-8.43126E+06-1.36945E+06-8.86318E+04-3.34903E+06-1.08985E-08 1.33334E-07
 -1        68-8.59857E+06-1.08840E+06-1.49506E+05-3.11579E+06-3.35422E-08 2.36978E-07
 -1        69-8.55763E+06-1.63313E+06-4.29726E+05-3.33378E+06-1.66274E-08-2.44690E-08
 -1        70-8.46795E+06-8.89566E+05-6.37514E+05-3.16061E+06 6.03904E-09-4.55184E-08
 -1        86-3.10276E+04-3.09773E+06-7.37305E+04-1.64004E+05-4.40250E-08-7.03385E-08
 -1        87 3.75645E+04-2.51613E+06 5.14108E+04 4.89014E+05-7.32539E-08 1.82316E-07
 -1        88-1.38260E+03-2.75719E+06-7.80094E+03-3.24528E+05-6.59938E-08-4.51689E-08
 -1        89 3.62847E+04-2.57019E+06 2.03828E+04 5.21253E+05-1.00419E-07-1.15402E-07
 -1        90-2.46439E+04-3.04934E+06-1.13890E+05-1.96510E+05-2.71230E-08-7.23976E-08
 -1       121-1.71138E+03-1.62442E+06-3.80175E+02 1.04386E+03 1.32529E-09 2.43745E-08
 -1       122-1.06109E+03-1.62031E+06 7.91963E+02-4.20462E+03-4.93111E-09-2.28465E-09
 -1       123-1.74341E+03-1.62455E+06 4.73802E+02 3.11678E+03 3.76201E-09 4.73301E-09
 -1       124 6.08334E+02-1.61977E+06 3.09995E+03-8.77893E+03-9.89712E-09 6.80120E-09
 -1       125-2.60771E+03-1.62547E+06 3.86951E+03 5.58398E+03 5.76802E-09-8.18909E-09
 -1       191-5.07102E+01 3.68863E+05 9.30052E+00 5.03698E-01-4.32111E-10-1.93704E-08
 -1       192-4.89230E+01 3.68841E+05 2.02629E+01-3.26140E+00-6.34632E-10-5.40185E-08
 -1       193-5.30947E+01 3.68863E+05 3.56584E+01 2.84890E+00-9.23222E-10-2.05910E-08
 -1       194-5.18203E+01 3.68844E+05 7.68883E+01-7.44558E+00-4.04874E-10-3.38177E-08
 -1       195-5.76730E+01 3.68860E+05 1.48363E+02 4.79208E+00-1.25172E-09-1.74041E-08
 -1       251-2.27309E+06-4.33704E+04-2.34163E+05 1.31199E+05 8.76753E-09-3.99814E-08
 -1       252-1.06784E+06 4.99260E+04 7.56305E+04-4.39997E+05-2.64663E-08-1.99505E-07
 -1       253-1.77391E+06-1.88506E+04-4.40956E+04 3.08649E+05 3.71601E-08-1.22222E-07
 -1       254-1.63755E+06 7.21942E+04 1.37501E+04-6.15114E+05 6.06641E-08 5.56186E-08
 -1       255-1.76011E+06-1.87949E+04-2.06914E+04 3.11393E+05 3.40515E-09 7.12475E-08
 -1       256-1.09291E+06 5.90452E+04 1.24438E+05-4.52216E+05-4.01942E-08 7.23367E-09
 -1       257-2.26480E+06-5.00359E+04-1.25163E+05 1.40839E+05-3.33275E-08-1.31262E-07
 -1       258-5.47064E+05 4.50014E+04 2.27702E+05 9.34032E+03 1.27329E-08 8.94902E-08
 -1       259-2.25194E+06-4.91510E+04-1.20492E+05-1.47042E+05 2.95586E-08-1.96649E-07
 -1       260-1.12029E+06 6.03449E+04 1.24195E+05 4.64617E+05-2.17779E-08-1.53073E-07
 -1       261-1.74849E+06-1.85854E+04-8.46663E+03-3.11636E+05-7.67695E-08-2.21963E-07
 -1       262-1.62896E+06 8.16606E+04 3.72771E+04 6.16474E+05 2.28307E-08 8.99945E-09
 -1       263-1.79394E+06-2.86196E+04-1.00032E+04-3.03521E+05 7.93989E-09 1.35885E-07
 -1       264-1.00487E+06 1.19425E+05 1.82572E+05 4.30926E+05-1.26654E-07 2.98234E-07
 -1       265-2.31308E+06-1.05243E+05-9.22645E+04-1.21037E+05-2.82707E-08 1.61013E-07
 -1       266-2.27877E+04-1.06558E+04 5.34654E+04-3.94191E+01 3.23780E-10-4.25126E-08
 -1       267 2.64172E+04 1.24192E+04 3.77891E+04 4.54825E+01 5.19776E-10 7.06888E-08
 -1       268-3.54251E+03-1.75892E+03 1.40460E+04-5.79523E+00-4.34738E-10-3.00897E-07
 -1       269 4.18265E+03 2.10503E+03 9.12971E+03 6.75062E+00 2.92403E-10 3.51401E-08
 -1       270-6.27822E+02-3.45874E+02 4.40704E+03-9.16104E-01-1.41199E-10-1.07174E-07
 -1       271-2.05174E+06-2.46687E+05-1.52384E+05-7.84896E+05 3.76531E-09 2.47404E-07
 -1       272-2.16179E+06-3.03523E+05-9.81086E+04-7.22012E+05-2.07638E-08 1.20737E-07
 -1       273-2.07917E+06-2.86052E+05-3.59559E+04-7.79533E+05-4.45471E-09 5.79093E-08
 -1       274-2.12936E+06-2.55443E+05-2.01790E+04-7.30357E+05 1.34944E-08-4.36648E-08
 -1       275-2.08321E+06-2.90032E+05-8.38096E+03-7.78216E+05 2.02926E-08 1.09594E-07
 -1       276-2.12309E+06-2.51858E+05-4.39130E+03-7.33048E+05-1.78588E-08 1.66770E-07
 -1       277-2.08489E+06-2.89430E+05-2.22042E+03-7.76694E+05-1.72167E-09 1.77569E-07
 -1       278-2.11899E+06-2.54421E+05-1.36397E+03-7.36217E+05-3.77486E-08-1.34151E-07
 -1       279-2.08665E+06-2.87832E+05-1.59490E+03-7.74603E+05-7.77982E-09-2.68788E-08
 -1       280-2.11450E+06-2.58812E+05-2.32785E+03-7.40369E+05-8.25185E-09 1.27769E-07
 -1       281-2.08865E+06-2.85517E+05-4.67117E+03-7.72023E+05 4.66007E-08 1.12702E-07
 -1       282-2.11105E+06-2.66629E+05-1.03224E+04-7.45151E+05-2.59533E-08 3.94471E-09
 -1       283-2.08946E+06-2.80710E+05-1.89915E+04-7.69251E+05 2.27737E-09-2.61426E-07
 -1       284-2.12126E+06-2.97511E+05-5.05868E+04-7.47432E+05-3.38059E-09-1.26447E-07
 -1       285-2.07829E+06-2.57511E+05-7.93714E+04-7.68476E+05-1.94195E-08 1.17911E-07
 -1       301 1.30141E+04-4.97632E+05 1.73749E+05-8.63597E+05 1.70257E-09-1.86192E-08
 -1       302 1.42533E+04-4.53147E+05 1.05707E+05-1.26237E+06-2.16096E-09-1.49041E-07
 -1       303-6.80877E+03-4.83661E+05 6.42807E+04-8.61440E+05-1.74623E-10-7.14608E-08
 -1       304 1.36523E+03-4.56916E+05 7.25907E+04-1.26160E+06 5.45697E-10-1.13927E-07
 -1       305-2.99026E+03-4.81290E+05 9.96085E+04-8.64141E+05 8.84029E-10-2.05328E-08
 -1       306-2.56807E+07-5.17943E+06-7.03794E+06-1.27220E+06-7.57864E-08-1.88738E-07
 -1       307 2.08626E+07 1.59321E+06 4.52353E+06-1.20485E+07-8.46790E-07-3.69764E-08
 -1       308-7.89510E+06-6.23153E+05-5.56771E+05 4.28134E+06-2.25555E-07 3.50017E-07
 -1       309-3.57573E+06 5.59903E+06 1.65516E+06-1.78926E+07 4.43164E-07 1.09681E-07
 -1       310-1.06951E+07-1.04640E+06-1.28011E+06 4.14138E+06-3.75439E-08-2.39204E-07
 -1       311 2.73277E+07-3.15010E+05 5.48528E+06-8.55324E+06 4.84113E-07 1.73095E-07
 -1       312-2.64887E+07-5.19175E+06-6.59298E+06-3.63006E+06-3.35276E-08 1.20373E-07
 -1       313 3.69209E+07 9.58152E+06 8.50242E+06 1.69526E+07 7.64849E-08 1.65426E-07
 -1       314-1.64433E+07-1.33303E+07-6.07567E+06-1.06300E+07 5.72705E-07 1.79280E-08
 -1       315-7.38041E+05 2.25074E+07 4.67842E+06 1.02777E+07-5.14701E-07-9.61591E-08
 -1       316-2.61866E+04-8.78638E+06-5.15069E+05-3.70934E+06-1.01427E-06-3.00410E-07
 -1       317-1.68264E+07 1.87526E+07 1.62509E+06-5.15998E+06 5.87614E-07-7.86065E-07
 -1       318-1.36888E+06-9.98193E+06-1.33723E+06-4.48163E+06-8.42090E-07 1.06840E-07
 -1       319 4.06072E+06 2.35910E+07 5.24686E+06 1.27294E+07-1.90485E-08 2.71626E-07
 -1       320-1.91327E+07-1.36762E+07-7.71921E+06-1.05256E+07 1.91736E-07-4.28699E-08
 -1       336-3.07757E+02-1.75850E+06-1.36624E+04 8.49569E+03-2.45100E-08 1.08048E-08
 -1       337-5.24211E+03-1.75892E+06-1.77451E+04-2.05475E+04-4.50109E-08-1.03555E-08
 -1       338 5.53388E+02-1.75805E+06-2.74250E+04 1.18606E+04-3.21688E-08-4.18731E-09
 -1       339-2.91229E+04-1.77529E+06-6.21155E+04-2.71132E+04-5.75019E-08 2.00671E-08
 -1       340 1.94410E+04-1.74401E+06-9.76005E+04 1.49492E+04-3.75512E-08 1.55160E-08
 -1       406-2.24558E+01 3.68846E+05 6.12687E+02 2.29063E+00-1.57608E-09-1.27329E-09
 -1       407 1.70395E+02 3.68969E+05 1.30672E+03 1.92839E+01-4.85688E-10 7.03858E-09
 -1       408 6.27028E+02 3.68751E+05 2.60705E+03-2.19834E+01-2.00862E-09 1.27147E-09
 -1       409 2.78104E+03 3.69801E+05 5.87350E+03 2.30904E+02-2.08672E-10-1.84373E-08
 -1       410 8.06945E+03 3.68004E+05 1.19886E+04-2.21779E+02-2.37196E-09-1.91385E-08
 -1       521-2.73152E+07-6.36282E+06-8.24364E+06-9.97148E+05-7.95117E-08-2.46218E-08
 -1       522 2.16495E+07 2.14523E+06 4.60934E+06-1.50111E+07-4.87547E-07-3.13536E-07
 -1       523-8.71333E+06-8.90387E+05-5.80852E+05 4.72776E+06 3.92029E-08-4.75426E-07
 -1       524-6.55975E+06 7.89235E+06 1.80266E+06-2.08044E+07 7.81059E-07-5.99110E-07
 -1       525-1.17115E+07-1.49263E+06-1.41362E+06 4.57551E+06 6.98026E-07-2.25366E-07
 -1       526 2.96854E+07-3.44598E+05 5.79403E+06-1.09537E+07 1.01514E-07 1.50147E-07
 -1       527-2.83109E+07-6.54301E+06-7.60697E+06-3.55111E+06 1.68337E-07 1.35638E-07
 -1       528 4.05041E+07 1.04971E+07 8.90829E+06 1.92363E+07 4.78467E-08 2.73692E-07
 -1       529-1.75267E+07-1.52077E+07-6.98521E+06-1.09002E+07-3.62052E-08-1.11875E-07
 -1       530-2.87704E+06 2.63729E+07 4.96577E+06 1.04107E+07-4.50906E-07 4.79340E-07
 -1       531-1.29986E+05-9.94230E+06-5.24796E+05-3.91844E+06-7.35541E-07 1.87749E-07
 -1       532-1.98715E+07 2.10801E+07 1.79509E+06-8.30421E+06 2.97747E-07-7.16285E-07
 -1       533-1.46899E+06-1.11499E+07-1.41446E+06-4.61583E+06-1.98139E-07-9.25444E-07
 -1       534 2.16407E+06 2.75534E+07 5.49264E+06 1.32609E+07-3.79805E-09 6.50674E-07
 -1       535-2.03193E+07-1.56686E+07-8.83644E+06-1.07789E+07 7.54371E-08 4.03001E-07
 -1       536-6.59877E+05-4.50000E+04-2.87527E+04-4.83495E+04-3.57750E-09 4.43597E-08
 -1       537-1.00005E+05 4.39934E+04 8.00937E+04 1.11653E+05-1.03206E-07 7.56513E-08
 -1       538-3.92366E+05 2.08622E+03 6.21178E+03-6.59987E+04 2.50302E-08 1.10344E-07
 -1       539-2.85488E+05 3.08998E+03 2.30047E+04 1.26124E+05 1.88939E-07 1.16041E-07
 -1       540-4.78984E+05-2.93716E+02-1.71815E+04-6.32384E+04 7.40783E-09 9.78310E-08
 -1       541 6.87946E+04 1.44774E+04 9.10134E+04 8.74824E+04-2.63406E-08 7.83448E-08
 -1       542-7.37118E+05-1.72351E+04-7.16918E+04-2.66757E+04 3.47100E-08 3.58573E-08
 -1       543 2.89275E+05 2.33431E+04 1.34629E+05-1.23166E+04-1.33432E-08-1.73468E-08
 -1       544-6.93566E+05-1.40362E+04-6.36869E+04 3.60350E+04 3.36331E-08-2.80143E-08
 -1       545-3.30184E+04 7.84439E+03 6.74200E+04-1.02493E+05 2.51202E-09-1.00266E-07
 -1       546-4.23455E+05 5.40195E+03-1.05865E+04 6.32349E+04 1.52907E-08-8.22874E-08
 -1       547-3.01627E+05-4.68749E+03 7.80403E+03-1.28835E+05-1.18422E-07-1.07078E-07
 -1       548-4.32152E+05 4.49303E+03-2.20147E+04 6.29163E+04-9.55338E-08-7.49365E-08
 -1       549-1.51222E+04 1.05181E+04 4.73509E+04-1.00071E+05-6.40813E-08-5.57241E-08
 -1       550-7.02284E+05-1.61995E+04-1.16370E+05 3.39084E+04 5.68480E-09-3.16541E-08
 -1       551 3.73323E+04-7.69135E+05-6.28771E+03-1.20996E+06-9.58244E-08-1.14378E-08
 -1       552 8.46330E+04-8.07943E+05 1.53701E+04-1.72546E+06-6.58038E-08 1.33441E-08
 -1       553 6.44873E+04-8.06275E+05 3.57182E+04-1.20383E+06-1.08761E-07 1.63709E-08
 -1       554 1.21233E+05-8.20307E+05 8.54192E+04-1.72742E+06-7.16609E-08 1.10758E-08
 -1       555 9.41248E+04-8.29028E+05 1.54675E+05-1.20387E+06-1.10398E-07-1.24528E-08
 -1       556 2.03343E+05-3.52837E+05 3.88903E+04-3.85277E+05-2.75613E-08-1.78115E-08
 -1       557 3.27009E+05-4.51642E+05 2.25572E+04-4.96345E+05-1.92085E-08-4.18913E-09
 -1       558 1.88442E+05-3.49361E+05 5.71692E+03-3.86819E+05-2.49129E-08 8.00355E-09
 -1       559 3.03682E+05-4.54035E+05 3.92596E+03-5.14123E+05 1.49594E-08-1.84518E-08
 -1       560 1.75362E+05-3.41131E+05-4.04858E+02-3.96158E+05 7.65431E-09 1.11831E-08
 -1       561 2.87066E+05-4.47513E+05 5.39488E+02-5.25366E+05-4.83124E-09 1.37334E-08
 -1       562 1.65027E+05-3.34681E+05-8.97062E+02-4.03624E+05-3.41970E-09-1.18234E-09
 -1       563 2.74809E+05-4.42169E+05 8.15516E+01-5.33350E+05-2.45200E-09-1.11459E-08
 -1       564 1.57713E+05-3.30116E+05-4.31711E+02-4.08801E+05 1.74623E-09-5.23733E-09
 -1       565 2.66791E+05-4.38679E+05 5.61219E+01-5.38467E+05-4.70754E-09 1.69248E-08
 -1       566 1.53531E+05-3.27466E+05-1.92020E+02-4.11728E+05-8.89122E-09-2.32139E-08
 -1       567 2.63046E+05-4.37048E+05-3.03249E+02-5.40724E+05 1.57052E-08 1.56069E-09
 -1       568 1.52559E+05-3.26876E+05-9.74356E+02-4.12504E+05-2.66164E-09 1.83936E-08
 -1       569 2.62276E+05-4.37007E+05-2.46259E+03-5.39178E+05-4.85943E-09 2.39088E-08
 -1       570 1.55820E+05-3.29904E+05-5.41490E+03-4.11582E+05 4.35830E-09-1.47920E-08
 -1       571 2.77816E+05 1.00149E+04 1.43856E+04-8.79911E+04 2.84672E-09-1.58657E-08
 -1       572 2.79910E+05 3.72333E+03 7.04974E+03-9.65330E+04 4.95538E-09 1.25510E-10
 -1       573 2.78649E+05 1.12449E+03 3.13236E+03-8.78228E+04 7.21320E-09 6.16546E-09
 -1       574 2.78863E+05 6.18759E+02 1.57064E+03-9.67430E+04 2.32399E-09-8.18545E-09
 -1       575 2.78740E+05 3.58464E+02 7.41215E+02-8.77999E+04 2.47265E-08 1.26147E-09
 -1       576 2.78731E+05 3.62594E+02 3.79296E+02-9.67710E+04 4.78460E-08 1.22327E-09
 -1       577 2.78774E+05 3.05030E+02 1.89264E+02-8.77968E+04 2.53021E-08 7.63703E-09
 -1       578 2.78753E+05 3.29898E+02 1.08973E+02-9.67749E+04 1.15142E-09-1.40271E-08
 -1       579 2.78835E+05 2.75049E+02 7.47244E+01-8.77965E+04 7.19410E-09 2.76395E-09
 -1       580 2.78838E+05 2.87666E+02 8.59863E+01-9.67703E+04-9.09495E-09 2.75577E-10
 -1       581 2.78930E+05 2.26789E+02 1.30075E+02-8.78020E+04 2.95768E-09 3.07227E-08
 -1       582 2.78988E+05 2.60665E+02 2.63471E+02-9.67134E+04 7.77618E-10 1.71958E-08
 -1       583 2.79047E+05 2.75870E+02 5.06816E+02-8.78539E+04 2.05182E-09-3.68345E-09
 -1       584 2.79323E+05 6.87417E+02 1.14556E+03-9.62756E+04 8.07631E-09 9.24956E-10
 -1       585 2.79055E+05 1.66019E+03 2.32140E+03-8.82393E+04 1.29512E-09 2.23372E-09
 -1       586-3.35010E+03 1.08175E+05-3.11640E+03-2.41368E+05-3.29965E-09 3.83784E-08
 -1       587-1.20742E+03 1.07876E+05 5.58687E+02-2.65649E+05-1.45337E-09 5.91377E-08
 -1       588 4.88191E+02 1.07740E+05 4.43498E+03-2.41238E+05-3.77440E-09 1.81735E-08
 -1       589 4.95589E+03 1.10065E+05 1.16629E+04-2.65413E+05-8.03811E-09-2.51894E-08
 -1       590 1.58715E+04 1.06473E+05 2.45280E+04-2.41653E+05-5.52791E-09 3.82897E-09
 -1       591-7.04575E+04-1.50039E+04-2.13361E+04-3.04482E+04-4.93037E-09 2.82307E-09
 -1       592-7.42736E+04-1.88844E+04-1.16151E+04-3.39750E+04-3.60787E-09 8.33870E-09
 -1       593-7.26550E+04-1.37130E+04-4.82410E+03-3.19270E+04-5.36708E-09 7.73457E-09
 -1       594-7.12862E+04-1.56876E+04-2.40956E+03-3.41010E+04 6.48259E-09-1.30763E-09
 -1       595-7.28225E+04-1.37161E+04-1.10521E+03-3.19965E+04-4.84718E-10 1.58101E-08
 -1       596-7.10797E+04-1.55372E+04-5.62056E+02-3.40783E+04-3.53575E-09 1.60406E-08
 -1       597-7.28432E+04-1.37304E+04-3.06020E+02-3.19994E+04-1.05186E-08 4.18311E-10
 -1       598-7.10595E+04-1.55310E+04-2.46144E+02-3.40717E+04-7.47769E-09-1.47287E-08
 -1       599-7.28420E+04-1.37309E+04-3.14572E+02-3.19991E+04 8.79822E-09 7.67864E-09
 -1       600-7.10801E+04-1.55379E+04-5.84696E+02-3.40764E+04-5.28689E-09 1.28582E-08
 -1       601-7.28180E+04-1.37172E+04-1.15318E+03-3.19955E+04 1.10031E-08 7.79823E-09
 -1       602-7.12955E+04-1.56939E+04-2.51589E+03-3.40964E+04-8.25935E-10-7.21730E-09
 -1       603-7.26405E+04-1.37167E+04-5.03784E+03-3.19237E+04-7.21434E-09 8.54061E-09
 -1       604-7.44313E+04-1.90141E+04-1.21289E+04-3.39418E+04 1.52306E-09 3.22802E-09
 -1       605-7.03271E+04-1.50812E+04-2.22802E+04-3.03972E+04 1.18365E-09 1.40244E-08
 -1       606 2.69518E+04-1.36318E+04-2.44463E+04 2.45782E+04 7.26413E-09-1.97160E-08
 -1       607 2.27738E+04-4.44720E+03-1.21740E+04 2.76144E+04 8.18545E-12-1.19471E-08
 -1       608 2.51532E+04-7.97712E+02-5.45015E+03 2.44003E+04-6.51562E-09 7.50401E-09
 -1       609 2.46950E+04-2.67323E+02-2.75318E+03 2.78330E+04 9.09495E-10 1.48956E-08
 -1       610 2.49476E+04-3.18422E+01-1.31378E+03 2.43795E+04 3.26690E-09 1.67329E-08
 -1       611 2.48739E+04-2.99437E+01-6.62390E+02 2.78567E+04 1.13641E-09 2.83751E-08
 -1       612 2.49008E+04-1.75562E+01-3.15105E+02 2.43774E+04 4.80031E-09 1.28955E-08
 -1       613 2.48829E+04-2.49015E+01-1.41361E+02 2.78595E+04 7.02994E-09-7.35849E-09
 -1       614 2.48781E+04-2.26540E+01-3.36392E+01 2.43767E+04 3.41424E-09-2.66550E-09
 -1       615 2.48762E+04-2.25882E+01 5.81459E+01 2.78599E+04-3.10820E-09-1.24346E-08
 -1       616 2.48604E+04-1.89431E+01 1.75360E+02 2.43769E+04 1.28530E-08-1.06443E-08
 -1       617 2.48961E+04 1.55147E+01 4.00530E+02 2.78594E+04 3.33964E-08 6.85736E-09
 -1       618 2.48247E+04 9.70852E+01 8.07466E+02 2.43772E+04 1.21991E-08-2.33513E-10
 -1       619 2.51804E+04 6.40309E+02 1.81334E+03 2.78588E+04-1.58224E-08-4.03475E-09
 -1       620 2.45561E+04 2.01221E+03 3.64477E+03 2.43781E+04-6.32531E-09 8.09496E-09
 -1       621 4.51985E+02 2.87251E+05 3.57311E+03 3.59890E+04 8.15362E-10-2.08092E-09
 -1       622 5.88955E+02 2.88087E+05 3.18689E+03 5.22695E+04 9.65429E-10-6.39966E-09
 -1       623 1.07878E+02 2.87437E+05 3.85247E+03 3.58259E+04 1.12402E-09 7.25049E-09
 -1       624 1.94200E+03 2.89243E+05 7.48586E+03 5.24298E+04 1.26897E-09 1.57715E-08
 -1       625 1.90913E+03 2.85956E+05 1.30902E+04 3.58241E+04 1.45837E-09 1.82968E-08
 -1       626 2.49620E+05 5.99256E+04 4.99517E+03 1.22730E+05 2.44654E-09 2.19716E-08
 -1       627 2.47285E+05 6.13624E+04 2.40713E+03 1.26980E+05 1.92085E-09-9.97147E-10
 -1       628 2.49749E+05 5.76340E+04 1.01787E+03 1.23571E+05-4.29463E-09 1.01504E-08
 -1       629 2.46656E+05 6.07070E+04 4.98227E+02 1.27222E+05 6.97128E-10 1.61311E-08
 -1       630 2.49762E+05 5.75237E+04 2.31033E+02 1.23605E+05-1.65946E-08-1.10262E-08
 -1       631 2.46588E+05 6.06830E+04 1.24243E+02 1.27223E+05-9.27662E-09 1.80586E-08
 -1       632 2.49758E+05 5.75283E+04 8.16183E+01 1.23600E+05-9.44965E-09 1.32138E-08
 -1       633 2.46579E+05 6.06854E+04 9.06935E+01 1.27219E+05-3.22723E-09 2.06928E-08
 -1       634 2.49752E+05 5.75261E+04 1.46363E+02 1.23599E+05-8.73501E-09 6.20003E-09
 -1       635 2.46592E+05 6.06843E+04 2.96050E+02 1.27223E+05-6.55430E-09-3.51065E-10
 -1       636 2.49743E+05 5.75211E+04 5.97811E+02 1.23599E+05-4.20994E-09 2.85581E-09
 -1       637 2.46720E+05 6.07774E+04 1.31431E+03 1.27222E+05-2.77714E-09-2.35141E-08
 -1       638 2.49696E+05 5.78117E+04 2.70046E+03 1.23467E+05-2.71984E-09-9.21000E-09
 -1       639 2.48139E+05 6.27502E+04 6.38927E+03 1.26804E+05 6.88897E-09 1.07812E-08
 -1       640 2.49501E+05 6.37014E+04 1.32589E+04 1.20983E+05 4.28145E-09 5.54041E-09
 -1       656 6.40667E+04-1.63766E+06-1.54654E+05-2.09617E+03-2.18279E-11 8.36536E-09
 -1       657-8.47446E+04-1.70754E+06-1.28099E+05 5.71272E+03 1.26420E-10-1.12311E-08
 -1       658 2.04129E+04-1.65751E+06-7.88662E+04-4.05901E+03 2.21917E-10-2.48374E-09
 -1       659-9.15644E+04-1.71077E+06-1.37061E+05 7.30310E+03-1.19417E-09-2.24474E-08
 -1       660 7.08713E+04-1.63443E+06-1.70061E+05-3.68654E+03-1.57161E-09 2.84325E-09
 -1       661 1.60802E+05 1.69347E+04 1.67194E+04 6.28639E+04-4.74756E-10 1.25519E-08
 -1       662 1.70159E+05 2.94105E+04 1.12675E+04 5.92223E+04 2.16050E-09-1.29700E-08
 -1       663 1.64086E+05 2.22989E+04 3.94078E+03 6.19114E+04-1.77840E-09-1.64498E-08
 -1       664 1.66353E+05 2.31369E+04 2.35722E+03 6.03854E+04 1.16219E-09-3.34444E-09
 -1       665 1.64584E+05 2.30321E+04 9.29906E+02 6.17667E+04 1.04939E-09 1.17304E-08
 -1       666 1.65765E+05 2.22980E+04 5.44043E+02 6.05738E+04 5.86806E-09 7.82573E-09
 -1       667 1.64670E+05 2.31159E+04 2.88850E+02 6.17308E+04-7.71081E-10-2.01834E-09
 -1       668 1.65669E+05 2.22371E+04 2.94035E+02 6.06260E+04-3.73937E-09-1.18658E-08
 -1       669 1.64678E+05 2.30912E+04 3.97850E+02 6.17149E+04-1.59835E-09 5.21106E-09
 -1       670 1.65766E+05 2.24528E+04 8.66110E+02 6.06287E+04-6.27626E-09 2.64616E-09
 -1       671 1.64573E+05 2.29047E+04 1.53777E+03 6.17261E+04 5.22768E-10-1.50248E-08
 -1       672 1.66662E+05 2.39489E+04 3.93429E+03 6.04118E+04 6.63438E-09 1.47503E-09
 -1       673 1.63786E+05 2.16329E+04 6.59321E+03 6.19174E+04 4.14673E-09 5.07271E-09
 -1       674 1.72937E+05 3.45412E+04 1.88552E+04 5.85678E+04-1.63891E-09 3.67663E-10
 -1       675 1.58338E+05 1.26090E+04 2.79877E+04 6.34587E+04-2.26282E-09 3.45062E-09
 -1       676 2.34844E+01-2.87707E+05-1.08704E+03-1.04133E+02 1.26406E-09 1.25959E-09
 -1       677-2.88010E+02-2.87970E+05-1.98947E+03 2.08107E+02 6.76533E-09-2.09456E-08
 -1       678 1.92807E+02-2.87520E+05-3.51689E+03-1.03904E+02 2.06796E-09-1.48888E-08
 -1       679-3.51737E+03-2.90093E+05-8.35464E+03 2.07233E+02 7.42818E-09 1.08436E-09
 -1       680 2.09973E+03-2.85585E+05-1.34648E+04-1.02107E+02 1.19417E-09 8.16601E-09
 -1       771-2.99237E+06-7.06353E+05-1.44445E+05-1.41457E+06-3.52447E-08-2.32249E-08
 -1       772-2.92209E+06-7.88447E+05-7.46150E+04-1.50928E+06-2.64845E-08 2.21844E-08
 -1       773-3.01986E+06-6.84832E+05-3.77163E+04-1.42659E+06-1.65310E-08 9.90985E-09
 -1       774-2.91288E+06-7.72601E+05-1.68936E+04-1.53149E+06 2.35887E-08-1.37516E-09
 -1       775-3.03387E+06-6.74967E+05-1.24214E+04-1.43228E+06-6.95582E-09 6.35191E-09
 -1       776-2.92290E+06-7.70267E+05-4.67962E+03-1.54805E+06 5.82077E-11 9.09495E-09
 -1       777-3.04593E+06-6.66232E+05-5.41028E+03-1.43730E+06 3.02680E-09 2.84490E-09
 -1       778-2.93341E+06-7.68129E+05-1.54104E+03-1.56224E+06 4.03816E-09 7.07223E-09
 -1       779-3.05625E+06-6.58634E+05-2.67918E+03-1.44159E+06-9.09495E-09-6.42103E-09
 -1       780-2.94265E+06-7.66086E+05-4.46240E+02-1.57380E+06-8.65839E-10-8.85848E-10
 -1       781-3.06443E+06-6.52526E+05-1.03314E+03-1.44494E+06-2.32685E-08 3.05590E-09
 -1       782-2.94976E+06-7.64342E+05 3.78314E+02-1.58232E+06-2.95404E-08-1.46883E-09
 -1       783-3.07018E+06-6.48296E+05 5.93224E+02-1.44730E+06-6.13363E-09-1.22263E-08
 -1       784-2.95367E+06-7.62535E+05 2.43584E+03-1.58757E+06-1.86847E-08 7.68523E-11
 -1       785-3.07357E+06-6.45778E+05 4.30154E+03-1.44880E+06-3.12939E-08 1.16870E-08
 -1       786 1.24072E+05-9.61992E+03 2.22562E+04-2.79827E+02 1.12093E-09-1.14005E-08
 -1       787 1.33725E+05 1.11375E+04 1.57454E+04-1.02944E+02 7.65862E-09 1.87399E-08
 -1       788 1.27794E+05-1.50760E+03 5.75827E+03-2.47016E+02 1.14749E-09 1.30988E-08
 -1       789 1.29389E+05 1.74475E+03 3.61498E+03-1.53735E+02-6.47686E-10-1.05829E-08
 -1       790 1.28409E+05-2.34864E+02 1.46400E+03-2.29051E+02-2.76800E-09 1.25124E-09
 -1       791 1.28670E+05 2.71567E+02 8.46249E+02-1.84657E+02-8.39394E-09 6.48899E-09
 -1       792 1.28513E+05-3.55143E+01 3.59965E+02-2.16096E+02-4.94289E-09 8.98974E-09
 -1       793 1.28546E+05 3.79385E+01 1.82433E+02-2.09153E+02 1.60829E-09 1.50706E-08
 -1       794 1.28533E+05-1.38372E+00 5.34006E+01-2.04555E+02 4.40583E-09 1.59829E-08
 -1       795 1.28512E+05-2.20605E+01-4.08724E+01-2.33354E+02-4.32083E-09 4.34927E-09
 -1       796 1.28547E+05 2.44512E+01-1.32671E+02-1.91894E+02 3.40609E-09-5.34962E-09
 -1       797 1.28432E+05-1.83857E+02-3.71882E+02-2.62514E+02 4.40792E-09-4.31391E-09
 -1       798 1.28612E+05 1.60290E+02-6.06076E+02-1.75395E+02 2.10052E-09-7.72530E-09
 -1       799 1.27972E+05-1.18210E+03-1.66922E+03-3.03239E+02 4.90077E-09-1.28783E-08
 -1       800 1.29007E+05 1.02188E+03-2.36284E+03-1.51170E+02 2.18646E-10 1.25392E-08
 -1       801-1.06206E+05-8.78811E+06-1.19016E+06 1.12839E+06 8.36153E-08-5.24269E-08
 -1       802 5.52132E+05 4.06094E+06 1.70687E+06-1.36242E+06 2.33209E-07-3.61388E-08
 -1       803-4.26770E+05-1.21150E+07-1.52324E+06 7.18447E+05 7.02166E-08 1.81408E-08
 -1       804 2.14631E+05 1.12873E+06 1.20306E+06 5.82566E+05-1.04628E-07-8.34682E-08
 -1       805 1.64504E+05-5.87106E+06-2.32561E+05-8.11989E+05-4.34011E-08-6.48670E-08
 -1       806-2.97278E+05-5.72783E+04-2.19168E+04-1.17533E+05-4.75075E-09-8.49923E-10
 -1       807-2.99042E+05-5.36613E+04-1.07675E+04-1.22803E+05 8.85370E-09-5.40041E-10
 -1       808-2.97876E+05-4.93833E+04-4.56793E+03-1.21271E+05-5.06361E-09-2.45336E-09
 -1       809-2.96780E+05-5.06344E+04-2.23361E+03-1.23066E+05-7.51606E-09-6.82371E-09
 -1       810-2.97967E+05-4.91083E+04-1.02377E+03-1.21437E+05 7.13862E-09-8.13156E-09
 -1       811-2.96605E+05-5.05126E+04-5.09129E+02-1.23033E+05 2.81216E-09-2.41134E-08
 -1       812-2.97981E+05-4.91318E+04-2.57502E+02-1.21436E+05-3.13412E-09-3.19596E-09
 -1       813-2.96581E+05-5.05145E+04-1.67422E+02-1.23015E+05 2.70302E-09-1.28134E-08
 -1       814-2.97975E+05-4.91408E+04-1.65969E+02-1.21433E+05-6.51198E-10 2.95586E-10
 -1       815-2.96585E+05-5.05165E+04-2.67570E+02-1.23008E+05 3.42516E-09 1.48186E-08
 -1       816-2.97955E+05-4.91396E+04-5.07136E+02-1.21429E+05 1.72895E-09 2.24877E-08
 -1       817-2.96672E+05-5.05648E+04-1.08857E+03-1.22998E+05-1.48484E-08 2.58879E-08
 -1       818-2.97890E+05-4.92927E+04-2.22023E+03-1.21357E+05-4.31282E-09-2.95950E-09
 -1       819-2.97887E+05-5.19067E+04-5.22429E+03-1.22712E+05 3.65890E-09 2.47360E-09
 -1       820-2.97474E+05-5.32373E+04-1.06332E+04-1.19670E+05 1.68166E-09 9.55515E-09
 -1       821-3.65932E+05 2.02471E+04-4.69275E+04 1.48274E+03 1.01678E-08-7.67250E-09
 -1       822-3.85853E+05-2.34440E+04-3.31353E+04-2.84502E+03 2.96862E-09-6.24641E-09
 -1       823-3.73557E+05 3.18059E+03-1.21407E+04 2.14364E+03-7.79131E-09 1.74068E-08
 -1       824-3.76815E+05-3.67430E+03-7.62342E+03-3.15340E+03 2.14412E-10 1.29535E-08
 -1       825-3.74968E+05 4.94367E+02-3.16128E+03 1.79116E+03 1.43918E-08 1.07558E-08
 -1       826-3.74958E+05-5.70504E+02-1.81006E+03-1.62774E+03 1.72937E-08 2.59513E-09
 -1       827-3.75403E+05 7.15091E+01-1.04915E+03 6.17926E+02 7.54517E-09-1.41947E-08
 -1       828-3.74608E+05-1.60939E+02-7.55684E+02 9.11070E+02 9.54060E-10-1.57635E-08
 -1       829-3.75314E+05 8.21546E+01-1.05125E+03-7.47676E+02 1.23191E-09-7.12532E-10
 -1       830-3.75158E+05-6.06337E+02-1.90953E+03 3.09922E+03 7.32570E-11 1.67498E-09
 -1       831-3.74862E+05 5.23727E+02-3.24718E+03-1.57026E+03-4.44745E-09 6.27733E-09
 -1       832-3.76896E+05-3.81414E+03-7.89563E+03 3.75903E+03-2.71920E-09-2.02635E-09
 -1       833-3.73583E+05 3.29155E+03-1.25821E+04-1.40750E+03-2.92098E-09-7.89578E-09
 -1       834-3.86037E+05-2.42653E+04-3.42611E+04 2.51313E+03-2.50746E-09-2.26282E-09
 -1       835-3.65717E+05 2.09528E+04-4.85980E+04-3.24323E+02 5.03275E-09 1.38098E-08
 -1       836-1.32820E+03 3.53867E+05 2.16837E+04-1.58896E+04-5.69344E-09 1.93713E-08
 -1       837 4.64121E+03 3.60650E+05 1.84172E+04-3.23546E+04-6.07827E-09-3.18323E-11
 -1       838-5.24614E+02 3.55758E+05 1.88617E+04-1.58207E+04-5.20686E-09 1.67149E-08
 -1       839 1.19271E+04 3.66078E+05 3.57758E+04-3.24039E+04-5.41877E-09 3.46063E-08
 -1       840-3.67543E+03 3.48384E+05 5.70911E+04-1.58447E+04-4.80941E-09 9.57572E-09
 -1       856-5.70426E+04 7.95743E+03-2.09697E+04-3.99264E+02 4.88342E-09-8.09814E-09
 -1       857-6.56856E+04-9.34667E+03-1.44356E+04 5.47902E+03 6.62251E-09-2.64572E-09
 -1       858-6.04640E+04 1.11578E+03-5.44128E+03-4.23146E+02 3.65435E-09-8.91123E-09
 -1       859-6.17588E+04-1.30979E+03-3.28392E+03 5.51497E+03-2.72284E-09 3.87689E-09
 -1       860-6.09752E+04 1.56074E+02-1.37688E+03-4.35023E+02-1.36191E-09-3.85296E-09
 -1       861-6.11707E+04-1.83631E+02-7.58682E+02 5.53119E+03 1.85698E-09-1.19744E-09
 -1       862-6.10551E+04 2.10385E+01-3.17848E+02-4.39344E+02-1.56018E-09 2.75244E-09
 -1       863-6.10732E+04-1.95319E+01-1.21401E+02 5.53362E+03-2.18280E-09-1.37382E-08
 -1       864-6.10732E+04-4.30925E+00 3.41619E+01-4.37456E+02 2.14868E-09-1.45589E-09
 -1       865-6.10214E+04 5.56085E+01 2.24965E+02 5.52306E+03 1.93332E-09-1.52933E-08
 -1       866-6.11048E+04-5.41897E+01 4.59853E+02-4.28788E+02 7.40329E-10-1.09377E-08
 -1       867-6.08034E+04 4.48213E+02 1.13608E+03 5.49949E+03 4.55961E-09 7.28048E-09
 -1       868-6.12865E+04-3.90028E+02 1.88880E+03-4.13885E+02-2.43517E-09-1.34248E-08
 -1       869-5.94173E+04 3.24596E+03 5.03083E+03 5.46048E+03 5.04383E-09-2.32481E-08
 -1       870-6.24835E+04-2.77624E+03 7.30060E+03-3.89708E+02-4.58419E-09 3.46063E-09
 -1       871-5.35163E+03-1.93091E+04-1.86335E+04 1.24521E+05-4.36194E-09-8.68476E-09
 -1       872-1.99280E+03-2.36170E+04-7.77804E+03 1.61457E+05-9.66338E-09-1.26256E-08
 -1       873 3.14167E+02-2.15453E+04 6.24959E+02 1.24248E+05-4.22642E-09 6.79393E-10
 -1       874 3.09851E+03-1.91872E+04 9.49234E+03 1.61489E+05-9.56607E-09 6.38579E-09
 -1       875 6.55254E+03-2.38062E+04 2.13666E+04 1.24477E+05-4.27644E-09-2.99679E-09
 -1       876 2.83494E+05 4.79126E+04 1.46294E+04 1.13924E+05 5.07271E-09-8.49559E-09
 -1       877 2.84447E+05 5.10077E+04 7.81266E+03 1.18133E+05 7.10406E-09-2.51180E-09
 -1       878 2.84861E+05 4.62924E+04 3.27312E+03 1.15123E+05-5.34237E-09-7.29096E-09
 -1       879 2.82458E+05 4.90234E+04 1.63084E+03 1.18233E+05 2.81875E-09-6.90363E-09
 -1       880 2.84960E+05 4.62755E+04 7.59592E+02 1.15172E+05 8.43670E-09 8.71603E-09
 -1       881 2.82326E+05 4.89386E+04 4.05552E+02 1.18210E+05-5.92649E-10-2.03152E-08
 -1       882 2.84969E+05 4.62883E+04 2.59311E+02 1.15173E+05-2.62116E-09-1.71188E-08
 -1       883 2.82316E+05 4.89342E+04 2.78547E+02 1.18203E+05 2.48519E-10-9.05288E-09
 -1       884 2.84962E+05 4.62855E+04 4.42900E+02 1.15173E+05 1.91619E-09-1.00842E-08
 -1       885 2.82352E+05 4.89403E+04 8.90348E+02 1.18214E+05-9.21688E-10-2.06278E-08
 -1       886 2.84928E+05 4.62595E+04 1.79440E+03 1.15170E+05-4.65186E-09-5.97720E-09
 -1       887 2.82667E+05 4.91471E+04 3.91960E+03 1.18259E+05-1.14517E-09 1.08116E-08
 -1       888 2.84680E+05 4.63032E+04 7.89810E+03 1.15045E+05-6.85631E-09 4.63979E-09
 -1       889 2.87369E+05 5.40366E+04 1.88672E+04 1.18115E+05-4.71239E-10-2.79761E-09
 -1       890 2.81458E+05 5.01311E+04 3.53377E+04 1.12037E+05-2.71211E-09 7.21775E-09
 -1       891-9.98168E+01-1.57529E+05-1.92511E+03 2.67088E+04-1.34673E-09 2.62617E-09
 -1       892-1.90000E+02-1.58030E+05-2.06988E+03 4.05337E+04 9.70203E-10-3.06954E-09
 -1       893 2.83898E+01-1.57590E+05-2.93309E+03 2.67157E+04 9.25411E-11 9.03628E-09
 -1       894-1.48038E+03-1.59139E+05-6.07210E+03 4.03846E+04 2.95586E-09-3.31102E-09
 -1       895-1.17289E+03-1.56325E+05-1.06936E+04 2.68590E+04-5.10340E-10-3.93175E-09
 -1       956-3.63217E+05-5.21579E+03-1.29229E+04 2.88938E+04 7.59428E-09-1.19860E-08
 -1       957-3.65756E+05-1.82472E+03-6.63329E+03 3.47360E+04-1.64982E-09-1.51254E-08
 -1       958-3.64376E+05-2.13422E+02-2.98906E+03 2.87337E+04-8.96307E-09-1.01957E-08
 -1       959-3.64568E+05-1.10027E+02-1.52636E+03 3.49205E+04-4.24370E-09 8.01583E-09
 -1       960-3.64488E+05-2.61681E+01-7.44312E+02 2.87174E+04 6.92853E-09-1.31524E-08
 -1       961-3.64489E+05-4.07738E+01-3.94720E+02 3.49397E+04 1.21838E-08-5.96970E-09
 -1       962-3.64514E+05-2.79728E+01-2.26067E+02 2.87147E+04 4.19232E-09 1.90994E-10
 -1       963-3.64489E+05-3.71231E+01-1.81635E+02 3.49431E+04 6.42603E-09-1.08166E-08
 -1       964-3.64519E+05-2.48451E+01-2.21016E+02 2.87139E+04-4.14246E-10 1.02525E-08
 -1       965-3.64501E+05-3.41097E+01-3.82377E+02 3.49425E+04-9.63274E-09 2.46434E-08
 -1       966-3.64504E+05-1.68703E+01-7.18460E+02 2.87153E+04 4.42583E-09-7.78346E-09
 -1       967-3.64589E+05-9.45920E+01-1.47361E+03 3.49293E+04 5.99789E-09-1.78591E-08
 -1       968-3.64405E+05-1.91641E+02-2.88466E+03 2.87271E+04 7.15363E-09 1.92398E-09
 -1       969-3.65747E+05-1.74473E+03-6.40405E+03 3.47913E+04 9.43919E-09 7.08312E-09
 -1       970-3.63294E+05-5.01739E+03-1.24752E+04 2.88469E+04 1.23191E-09-6.79393E-10
 -1       971-3.33892E+05-1.67977E+03-9.09829E+03 1.50088E+04 6.12908E-09 2.19976E-08
 -1       972-3.36085E+05-1.23135E+03-4.95484E+03 2.07937E+04 8.06585E-09 2.39102E-08
 -1       973-3.34905E+05-5.23635E+01-2.21924E+03 1.48893E+04 4.76120E-09-1.44337E-09
 -1       974-3.35041E+05-6.77870E+01-1.15028E+03 2.09280E+04 7.74889E-10-3.68732E-09
 -1       975-3.34985E+05-8.63918E+00-5.75201E+02 1.48773E+04-3.09228E-10-1.14150E-08
 -1       976-3.34980E+05-1.91805E+01-3.32239E+02 2.09432E+04 2.75577E-09-1.63493E-09
 -1       977-3.35001E+05-8.01448E+00-2.41834E+02 1.48741E+04 4.34511E-10 7.50390E-09
 -1       978-3.34986E+05-1.31794E+01-2.83950E+02 2.09478E+04 2.45655E-09-9.24160E-10
 -1       979-3.35001E+05 1.42235E-01-4.57039E+02 1.48727E+04 2.16460E-09 5.53837E-09
 -1       980-3.35020E+05-1.02297E+01-8.83000E+02 2.09487E+04-1.40872E-09-9.38667E-09
 -1       981-3.34973E+05 2.22025E+01-1.71044E+03 1.48732E+04 9.49910E-09-9.29225E-09
 -1       982-3.35254E+05-1.36603E+02-3.53559E+03 2.09423E+04 1.01545E-08-1.18284E-08
 -1       983-3.34757E+05-8.73084E+01-6.86974E+03 1.48791E+04-1.95541E-09-1.48568E-08
 -1       984-3.38559E+05-3.72444E+03-1.53845E+04 2.08584E+04-9.65883E-10-7.72843E-10
 -1       985-3.31647E+05-5.11417E+03-2.82507E+04 1.49515E+04-1.55023E-09-3.25053E-09
 -3
    1PSTEP                        19          10           1          
  100CL  110 6.53320E-01         409                     0   10           1
 -4  DISP        4    1
 -5  D1          1    2    1    0
 -5  D2          1    2    2    0
 -5  D3          1    2    3    0
 -5  ALL         1    2    0    0    1ALL
 -1         1 2.38248E-03 0.00000E+00 0.00000E+00
 -1         2 1.43631E-03 5.86440E-27 2.64698E-23
 -1         3 3.28365E-04-1.15811E-28 1.32349E-23
 -1         5 1.71797E-04-3.44178E-27 1.86116E-24
 -1         8 2.36753E-03-4.76028E-07 0.00000E+00
 -1         9 2.34909E-03-9.02451E-05 0.00000E+00
 -1        10 2.97849E-04-3.47712E-06 6.61744E-24
 -1        12 1.73438E-04 7.89917E-07-1.44757E-24
 -1        15 2.34985E-03-5.15090E-07 2.06795E-25
 -1        16 2.38778E-03-9.16187E-05 0.00000E+00
 -1        17 2.03184E-04-7.85176E-06 0.00000E+00
 -1        18 1.76803E-04 3.15706E-05 0.00000E+00
 -1        19 1.78363E-04 1.57399E-06 0.00000E+00
 -1        20 1.78505E-04-7.60549E-06 0.00000E+00
 -1        21 1.77641E-04-2.05748E-05 0.00000E+00
 -1        24 3.00358E-05-1.18864E-05 0.00000E+00
 -1        25 1.86553E-04 3.17886E-05 0.00000E+00
 -1        26 1.87237E-04 2.17983E-06 0.00000E+00
 -1        27 1.85097E-04-1.10896E-05 0.00000E+00
 -1        28 1.84768E-04-2.11868E-05 0.00000E+00
 -1        32 0.00000E+00 0.00000E+00 0.00000E+00
 -1        33 1.95107E-04 2.91738E-06 0.00000E+00
 -1        34 1.93033E-04-1.11421E-05 0.00000E+00
 -1        35 1.91136E-04-2.15224E-05 0.00000E+00
 -1        51 2.38151E-03-9.33777E-08 0.00000E+00
 -1        52 2.37970E-03-1.70596E-07 0.00000E+00
 -1        53 2.37722E-03-2.45242E-07 0.00000E+00
 -1        54 2.37425E-03-3.19496E-07 0.00000E+00
 -1        55 2.37096E-03-3.95001E-07 1.91286E-24
 -1        56 2.37806E-03 1.20270E-06-5.29396E-23
 -1        57 2.37176E-03 6.90965E-06 5.29396E-23
 -1        58 2.36431E-03 1.56558E-05 0.00000E+00
 -1        59 2.35635E-03 2.56559E-05 0.00000E+00
 -1        60 2.34867E-03 3.49382E-05-1.05879E-22
 -1        61 2.34200E-03 4.15799E-05-5.29396E-23
 -1        62 2.33690E-03 4.40996E-05 0.00000E+00
 -1        63 2.33378E-03 4.13557E-05 5.29396E-23
 -1        64 2.33270E-03 3.30888E-05 0.00000E+00
 -1        65 2.33357E-03 1.95037E-05-5.29396E-23
 -1        66 2.33595E-03 1.70430E-06 0.00000E+00
 -1        67 2.33931E-03-1.88463E-05 0.00000E+00
 -1        68 2.34297E-03-4.02181E-05 0.00000E+00
 -1        69 2.34623E-03-6.04028E-05 5.29396E-23
 -1        70 2.34842E-03-7.76080E-05 5.29396E-23
 -1        86 1.49327E-03-3.30378E-06-5.29396E-23
 -1        87 1.66007E-03-1.85128E-05 0.00000E+00
 -1        88 1.88435E-03-4.41051E-05 0.00000E+00
 -1        89 2.11113E-03-7.02622E-05-1.32349E-23
 -1        90 2.28408E-03-8.64462E-05-2.64698E-23
 -1       121 3.27507E-04-5.63323E-07 0.00000E+00
 -1       122 3.24939E-04-1.12947E-06 6.61744E-24
 -1       123 3.20670E-04-1.70120E-06 0.00000E+00
 -1       124 3.14716E-04-2.28131E-06 0.00000E+00
 -1       125 3.07099E-04-2.87219E-06 0.00000E+00
 -1       191 1.71843E-04 1.31704E-07 0.00000E+00
 -1       192 1.71979E-04 2.63399E-07-6.20385E-25
 -1       193 1.72207E-04 3.95078E-07 0.00000E+00
 -1       194 1.72526E-04 5.26731E-07 4.13590E-25
 -1       195 1.72937E-04 6.58347E-07 8.27181E-25
 -1       251 2.36688E-03-7.14417E-06 0.00000E+00
 -1       252 2.36593E-03-3.29246E-05-6.61744E-24
 -1       253 2.36452E-03-7.33736E-05-1.32349E-23
 -1       254 2.36268E-03-1.23668E-04 0.00000E+00
 -1       255 2.36074E-03-1.76076E-04-1.32349E-23
 -1       256 2.35907E-03-2.22818E-04 0.00000E+00
 -1       257 2.35785E-03-2.57792E-04 2.64698E-23
 -1       258 2.35707E-03-2.75199E-04 0.00000E+00
 -1       259 2.35643E-03-2.74365E-04 0.00000E+00
 -1       260 2.35561E-03-2.55092E-04 6.61744E-24
 -1       261 2.35448E-03-2.22557E-04-2.64698E-23
 -1       262 2.35308E-03-1.82276E-04 0.00000E+00
 -1       263 2.35168E-03-1.42062E-04 2.64698E-23
 -1       264 2.35055E-03-1.09729E-04 0.00000E+00
 -1       265 2.34974E-03-9.07459E-05 2.64698E-23
 -1       266 2.36458E-03-4.89560E-07 3.30872E-24
 -1       267 2.36163E-03-4.95215E-07 0.00000E+00
 -1       268 2.35869E-03-5.01368E-07 0.00000E+00
 -1       269 2.35574E-03-5.06043E-07-2.06795E-25
 -1       270 2.35279E-03-5.10684E-07 0.00000E+00
 -1       271 2.36593E-03 1.58844E-06 0.00000E+00
 -1       272 2.36477E-03 2.42001E-06-1.32349E-23
 -1       273 2.36408E-03 2.03294E-06 0.00000E+00
 -1       274 2.36382E-03 4.42897E-07 1.32349E-23
 -1       275 2.36401E-03-2.31988E-06 2.64698E-23
 -1       276 2.36461E-03-6.21557E-06 0.00000E+00
 -1       277 2.36562E-03-1.11928E-05 0.00000E+00
 -1       278 2.36700E-03-1.71901E-05 0.00000E+00
 -1       279 2.36874E-03-2.41363E-05-2.64698E-23
 -1       280 2.37079E-03-3.19508E-05 0.00000E+00
 -1       281 2.37312E-03-4.05446E-05 0.00000E+00
 -1       282 2.37571E-03-4.98217E-05 0.00000E+00
 -1       283 2.37851E-03-5.96789E-05 0.00000E+00
 -1       284 2.38148E-03-7.00071E-05 1.32349E-23
 -1       285 2.38458E-03-8.06939E-05 2.64698E-23
 -1       301 2.35610E-03-9.04995E-05 1.32349E-23
 -1       302 2.36181E-03-9.07182E-05 6.61744E-24
 -1       303 2.36704E-03-9.09315E-05-1.32349E-23
 -1       304 2.37257E-03-9.11453E-05 0.00000E+00
 -1       305 2.37922E-03-9.13675E-05-2.64698E-23
 -1       306 2.38439E-03-2.30948E-04 0.00000E+00
 -1       307 2.44892E-03-6.17157E-04 0.00000E+00
 -1       308 2.50207E-03-1.18653E-03 1.05879E-22
 -1       309 2.53579E-03-1.85061E-03 5.29396E-23
 -1       310 2.57444E-03-2.49174E-03 1.05879E-22
 -1       311 2.63571E-03-2.99431E-03 0.00000E+00
 -1       312 2.69472E-03-3.28166E-03 0.00000E+00
 -1       313 2.69852E-03-3.31360E-03-5.29396E-23
 -1       314 2.58177E-03-3.09838E-03 1.05879E-22
 -1       315 2.30569E-03-2.69085E-03-5.29396E-23
 -1       316 1.88493E-03-2.16229E-03 0.00000E+00
 -1       317 1.37670E-03-1.58003E-03 5.29396E-23
 -1       318 8.83486E-04-1.00667E-03-1.05879E-22
 -1       319 5.03328E-04-5.07567E-04 5.29396E-23
 -1       320 2.77715E-04-1.52106E-04 0.00000E+00
 -1       336 2.86788E-04-4.14428E-06 0.00000E+00
 -1       337 2.73749E-04-4.83487E-06 0.00000E+00
 -1       338 2.58793E-04-5.55079E-06 1.32349E-23
 -1       339 2.41992E-04-6.29260E-06 0.00000E+00
 -1       340 2.23426E-04-7.06448E-06 0.00000E+00
 -1       406 1.74031E-04 9.21422E-07 2.68834E-24
 -1       407 1.74715E-04 1.05283E-06 5.16988E-25
 -1       408 1.75491E-04 1.18409E-06-2.68834E-24
 -1       409 1.76357E-04 1.31504E-06-6.72084E-25
 -1       410 1.77315E-04 1.44541E-06 3.30872E-24
 -1       521 2.42385E-03-2.41367E-04 0.00000E+00
 -1       522 2.48719E-03-6.46769E-04 0.00000E+00
 -1       523 2.53512E-03-1.24242E-03 1.05879E-22
 -1       524 2.56107E-03-1.93368E-03 0.00000E+00
 -1       525 2.59291E-03-2.60018E-03 1.05879E-22
 -1       526 2.65106E-03-3.12388E-03-5.29396E-23
 -1       527 2.70974E-03-3.42204E-03-2.11758E-22
 -1       528 2.71187E-03-3.45344E-03 0.00000E+00
 -1       529 2.58537E-03-3.22595E-03 0.00000E+00
 -1       530 2.28914E-03-2.80114E-03 0.00000E+00
 -1       531 1.83820E-03-2.25367E-03 0.00000E+00
 -1       532 1.29524E-03-1.65373E-03 0.00000E+00
 -1       533 7.67554E-04-1.06218E-03-1.05879E-22
 -1       534 3.57899E-04-5.42751E-04 0.00000E+00
 -1       535 1.13260E-04-1.68771E-04 0.00000E+00
 -1       536 2.02483E-04 2.54998E-05 0.00000E+00
 -1       537 2.00716E-04 8.33235E-05 3.30872E-24
 -1       538 1.97989E-04 1.56728E-04 0.00000E+00
 -1       539 1.94775E-04 2.36743E-04 0.00000E+00
 -1       540 1.91881E-04 3.12355E-04 0.00000E+00
 -1       541 1.89996E-04 3.72574E-04 0.00000E+00
 -1       542 1.89121E-04 4.10904E-04-3.30872E-24
 -1       543 1.88904E-04 4.20987E-04 1.65436E-24
 -1       544 1.88596E-04 4.03579E-04 0.00000E+00
 -1       545 1.87503E-04 3.59640E-04-1.65436E-24
 -1       546 1.85479E-04 2.96992E-04 0.00000E+00
 -1       547 1.82749E-04 2.23566E-04 0.00000E+00
 -1       548 1.80045E-04 1.50535E-04-3.30872E-24
 -1       549 1.78093E-04 8.90744E-05 1.65436E-24
 -1       550 1.77075E-04 4.68906E-05 0.00000E+00
 -1       551 1.79096E-04-8.39982E-06 0.00000E+00
 -1       552 1.51851E-04-9.02210E-06 0.00000E+00
 -1       553 1.22379E-04-9.70200E-06-1.32349E-23
 -1       554 9.16227E-05-1.04198E-05 0.00000E+00
 -1       555 6.05284E-05-1.11495E-05 0.00000E+00
 -1       556 1.95912E-04 1.07633E-05 0.00000E+00
 -1       557 1.90045E-04 2.58361E-05 2.64698E-23
 -1       558 1.85454E-04 3.76442E-05 0.00000E+00
 -1       559 1.82012E-04 4.64874E-05 0.00000E+00
 -1       560 1.79594E-04 5.26655E-05 0.00000E+00
 -1       561 1.78077E-04 5.64809E-05 0.00000E+00
 -1       562 1.77340E-04 5.82372E-05 0.00000E+00
 -1       563 1.77265E-04 5.82386E-05 0.00000E+00
 -1       564 1.77732E-04 5.67904E-05 0.00000E+00
 -1       565 1.78628E-04 5.41984E-05 0.00000E+00
 -1       566 1.79835E-04 5.07688E-05 0.00000E+00
 -1       567 1.81239E-04 4.68083E-05 0.00000E+00
 -1       568 1.82727E-04 4.26237E-05 1.65436E-24
 -1       569 1.84184E-04 3.85217E-05 0.00000E+00
 -1       570 1.85497E-04 3.48093E-05 0.00000E+00
 -1       571 1.76897E-04 2.96260E-05 8.27181E-25
 -1       572 1.76994E-04 2.76176E-05-8.27181E-25
 -1       573 1.77091E-04 2.55605E-05-3.30872E-24
 -1       574 1.77189E-04 2.34705E-05 0.00000E+00
 -1       575 1.77286E-04 2.13632E-05 0.00000E+00
 -1       576 1.77383E-04 1.92545E-05 0.00000E+00
 -1       577 1.77481E-04 1.71602E-05-6.61744E-24
 -1       578 1.77579E-04 1.50963E-05 6.61744E-24
 -1       579 1.77676E-04 1.30785E-05 0.00000E+00
 -1       580 1.77774E-04 1.11227E-05 0.00000E+00
 -1       581 1.77872E-04 9.24483E-06 0.00000E+00
 -1       582 1.77970E-04 7.46064E-06 0.00000E+00
 -1       583 1.78068E-04 5.78599E-06-6.61744E-24
 -1       584 1.78167E-04 4.23654E-06 0.00000E+00
 -1       585 1.78265E-04 2.82781E-06 6.61744E-24
 -1       586 1.78385E-04 3.16090E-05 1.65436E-24
 -1       587 1.79928E-04 3.16469E-05 0.00000E+00
 -1       588 1.81474E-04 3.16844E-05-8.27181E-25
 -1       589 1.83065E-04 3.17212E-05 0.00000E+00
 -1       590 1.84745E-04 3.17568E-05 0.00000E+00
 -1       591 1.77466E-04 2.97148E-05-1.03398E-25
 -1       592 1.78133E-04 2.78377E-05 0.00000E+00
 -1       593 1.78806E-04 2.59454E-05 0.00000E+00
 -1       594 1.79482E-04 2.40427E-05 0.00000E+00
 -1       595 1.80160E-04 2.21346E-05 0.00000E+00
 -1       596 1.80838E-04 2.02260E-05-4.13590E-25
 -1       597 1.81514E-04 1.83216E-05-8.27181E-25
 -1       598 1.82187E-04 1.64264E-05 4.13590E-25
 -1       599 1.82855E-04 1.45452E-05 0.00000E+00
 -1       600 1.83516E-04 1.26830E-05 0.00000E+00
 -1       601 1.84168E-04 1.08444E-05 0.00000E+00
 -1       602 1.84809E-04 9.03452E-06-2.06795E-25
 -1       603 1.85438E-04 7.25809E-06 4.13590E-25
 -1       604 1.86053E-04 5.52012E-06-1.29247E-25
 -1       605 1.86652E-04 3.82536E-06 0.00000E+00
 -1       606 1.78377E-04 5.47335E-07 0.00000E+00
 -1       607 1.78386E-04-3.92283E-07 0.00000E+00
 -1       608 1.78395E-04-1.24997E-06 0.00000E+00
 -1       609 1.78404E-04-2.03149E-06 0.00000E+00
 -1       610 1.78413E-04-2.74267E-06-3.30872E-24
 -1       611 1.78421E-04-3.38936E-06 0.00000E+00
 -1       612 1.78430E-04-3.97745E-06 0.00000E+00
 -1       613 1.78438E-04-4.51284E-06 0.00000E+00
 -1       614 1.78447E-04-5.00142E-06 0.00000E+00
 -1       615 1.78455E-04-5.44907E-06 0.00000E+00
 -1       616 1.78464E-04-5.86169E-06 0.00000E+00
 -1       617 1.78472E-04-6.24517E-06 0.00000E+00
 -1       618 1.78481E-04-6.60540E-06-8.27181E-25
 -1       619 1.78489E-04-6.94827E-06 0.00000E+00
 -1       620 1.78497E-04-7.27967E-06 0.00000E+00
 -1       621 1.79577E-04 1.67546E-06 1.65436E-24
 -1       622 1.80938E-04 1.77718E-06 8.27181E-25
 -1       623 1.82416E-04 1.87873E-06 3.30872E-24
 -1       624 1.83979E-04 1.97998E-06-8.27181E-25
 -1       625 1.85597E-04 2.08096E-06 1.65436E-24
 -1       626 1.78858E-04 5.82608E-07 0.00000E+00
 -1       627 1.79330E-04-3.44089E-07 0.00000E+00
 -1       628 1.79780E-04-1.21396E-06-6.61744E-24
 -1       629 1.80212E-04-2.03518E-06-1.65436E-24
 -1       630 1.80630E-04-2.81597E-06 0.00000E+00
 -1       631 1.81035E-04-3.56455E-06-1.65436E-24
 -1       632 1.81431E-04-4.28914E-06 3.30872E-24
 -1       633 1.81822E-04-4.99799E-06 0.00000E+00
 -1       634 1.82209E-04-5.69931E-06 3.30872E-24
 -1       635 1.82597E-04-6.40134E-06 1.65436E-24
 -1       636 1.82988E-04-7.11231E-06-3.30872E-24
 -1       637 1.83386E-04-7.84044E-06-1.65436E-24
 -1       638 1.83792E-04-8.59397E-06 1.65436E-24
 -1       639 1.84212E-04-9.38116E-06 1.65436E-24
 -1       640 1.84646E-04-1.02102E-05 1.65436E-24
 -1       656 1.79063E-04-8.17182E-06-6.61744E-24
 -1       657 1.80037E-04-8.76114E-06 0.00000E+00
 -1       658 1.81288E-04-9.34906E-06-1.32349E-23
 -1       659 1.82671E-04-9.93664E-06 6.61744E-24
 -1       660 1.84001E-04-1.05260E-05 6.61744E-24
 -1       661 1.78714E-04-7.97500E-06-8.27181E-25
 -1       662 1.78960E-04-8.43367E-06 0.00000E+00
 -1       663 1.79237E-04-8.97651E-06 1.65436E-24
 -1       664 1.79544E-04-9.59730E-06 0.00000E+00
 -1       665 1.79878E-04-1.02905E-05 0.00000E+00
 -1       666 1.80237E-04-1.10503E-05-8.27181E-25
 -1       667 1.80619E-04-1.18716E-05 0.00000E+00
 -1       668 1.81022E-04-1.27488E-05 0.00000E+00
 -1       669 1.81444E-04-1.36768E-05 0.00000E+00
 -1       670 1.81883E-04-1.46507E-05-8.27181E-25
 -1       671 1.82337E-04-1.56654E-05-1.65436E-24
 -1       672 1.82805E-04-1.67161E-05 0.00000E+00
 -1       673 1.83284E-04-1.77980E-05 0.00000E+00
 -1       674 1.83773E-04-1.89067E-05 8.27181E-25
 -1       675 1.84269E-04-2.00372E-05 4.13590E-25
 -1       676 1.78833E-04-2.06774E-05 0.00000E+00
 -1       677 1.80024E-04-2.07800E-05 0.00000E+00
 -1       678 1.81214E-04-2.08824E-05 3.30872E-24
 -1       679 1.82402E-04-2.09846E-05 0.00000E+00
 -1       680 1.83586E-04-2.10868E-05 0.00000E+00
 -1       771 1.86124E-05 1.35942E-05 0.00000E+00
 -1       772 8.99181E-06 3.45222E-05 0.00000E+00
 -1       773 1.08762E-06 5.11185E-05 0.00000E+00
 -1       774-5.21788E-06 6.36302E-05 2.64698E-23
 -1       775-1.00400E-05 7.23142E-05 0.00000E+00
 -1       776-1.34989E-05 7.74430E-05 2.64698E-23
 -1       777-1.57143E-05 7.92984E-05 0.00000E+00
 -1       778-1.68086E-05 7.81754E-05 0.00000E+00
 -1       779-1.69038E-05 7.43767E-05 0.00000E+00
 -1       780-1.61236E-05 6.82158E-05-2.64698E-23
 -1       781-1.45912E-05 6.00126E-05 0.00000E+00
 -1       782-1.24311E-05 5.00950E-05 0.00000E+00
 -1       783-9.76715E-06 3.87954E-05 0.00000E+00
 -1       784-6.72427E-06 2.64520E-05 0.00000E+00
 -1       785-3.42663E-06 1.34058E-05-5.29396E-23
 -1       786 1.86591E-04 2.97134E-05 2.58494E-26
 -1       787 1.86634E-04 2.76871E-05 4.13590E-25
 -1       788 1.86676E-04 2.57017E-05-8.27181E-25
 -1       789 1.86718E-04 2.37491E-05 0.00000E+00
 -1       790 1.86761E-04 2.18247E-05 1.65436E-24
 -1       791 1.86804E-04 1.99242E-05 0.00000E+00
 -1       792 1.86847E-04 1.80452E-05 0.00000E+00
 -1       793 1.86890E-04 1.61858E-05-8.27181E-25
 -1       794 1.86933E-04 1.43458E-05 1.65436E-24
 -1       795 1.86977E-04 1.25251E-05 0.00000E+00
 -1       796 1.87020E-04 1.07259E-05 1.65436E-24
 -1       797 1.87063E-04 8.94991E-06 8.27181E-25
 -1       798 1.87106E-04 7.20159E-06 0.00000E+00
 -1       799 1.87150E-04 5.48534E-06 0.00000E+00
 -1       800 1.87193E-04 3.80883E-06 0.00000E+00
 -1       801 1.43185E-04 2.85287E-05 0.00000E+00
 -1       802 1.19508E-05 1.78844E-05 0.00000E+00
 -1       803-1.00552E-04 9.08839E-06 0.00000E+00
 -1       804-8.98398E-05 6.30270E-06 2.64698E-23
 -1       805-2.97595E-05 2.52068E-06-5.29396E-23
 -1       806 1.87218E-04 2.96466E-05-1.65436E-24
 -1       807 1.87870E-04 2.75308E-05 0.00000E+00
 -1       808 1.88509E-04 2.54460E-05-3.30872E-24
 -1       809 1.89135E-04 2.33963E-05 1.65436E-24
 -1       810 1.89746E-04 2.13856E-05-3.30872E-24
 -1       811 1.90340E-04 1.94176E-05 0.00000E+00
 -1       812 1.90918E-04 1.74962E-05-3.30872E-24
 -1       813 1.91477E-04 1.56251E-05 0.00000E+00
 -1       814 1.92016E-04 1.38080E-05 3.30872E-24
 -1       815 1.92533E-04 1.20488E-05-8.27181E-25
 -1       816 1.93027E-04 1.03511E-05 0.00000E+00
 -1       817 1.93496E-04 8.71883E-06 8.27181E-25
 -1       818 1.93940E-04 7.15559E-06-1.65436E-24
 -1       819 1.94357E-04 5.66515E-06 8.27181E-25
 -1       820 1.94746E-04 4.25120E-06 3.30872E-24
 -1       821 1.87111E-04 1.52713E-07 0.00000E+00
 -1       822 1.86975E-04-2.71376E-06 0.00000E+00
 -1       823 1.86838E-04-6.08770E-06 0.00000E+00
 -1       824 1.86699E-04-9.63411E-06-1.65436E-24
 -1       825 1.86561E-04-1.29722E-05 0.00000E+00
 -1       826 1.86424E-04-1.57224E-05 1.65436E-24
 -1       827 1.86289E-04-1.76626E-05 3.30872E-24
 -1       828 1.86155E-04-1.85757E-05-1.65436E-24
 -1       829 1.86022E-04-1.85199E-05-3.30872E-24
 -1       830 1.85888E-04-1.75589E-05 1.65436E-24
 -1       831 1.85754E-04-1.59993E-05 0.00000E+00
 -1       832 1.85620E-04-1.41509E-05 0.00000E+00
 -1       833 1.85485E-04-1.24012E-05-3.30872E-24
 -1       834 1.85353E-04-1.11371E-05 1.65436E-24
 -1       835 1.85221E-04-1.06157E-05 0.00000E+00
 -1       836 1.88754E-04 2.30221E-06-3.30872E-24
 -1       837 1.90147E-04 2.42760E-06-1.65436E-24
 -1       838 1.91448E-04 2.55293E-06 0.00000E+00
 -1       839 1.92687E-04 2.67754E-06 8.27181E-25
 -1       840 1.93897E-04 2.80200E-06 0.00000E+00
 -1       856 1.85080E-04-1.19910E-05 0.00000E+00
 -1       857 1.85060E-04-1.27585E-05-3.23117E-27
 -1       858 1.85040E-04-1.34131E-05-4.13590E-25
 -1       859 1.85019E-04-1.39756E-05 2.06795E-25
 -1       860 1.84999E-04-1.44668E-05 0.00000E+00
 -1       861 1.84978E-04-1.49079E-05 0.00000E+00
 -1       862 1.84957E-04-1.53199E-05 0.00000E+00
 -1       863 1.84937E-04-1.57238E-05-4.13590E-25
 -1       864 1.84916E-04-1.61408E-05-8.27181E-25
 -1       865 1.84895E-04-1.65917E-05 4.13590E-25
 -1       866 1.84875E-04-1.70978E-05 0.00000E+00
 -1       867 1.84854E-04-1.76799E-05 0.00000E+00
 -1       868 1.84833E-04-1.83591E-05 0.00000E+00
 -1       869 1.84812E-04-1.91561E-05-4.13590E-25
 -1       870 1.84790E-04-2.00918E-05 0.00000E+00
 -1       871 1.86280E-04-1.10940E-05 8.27181E-25
 -1       872 1.87607E-04-1.11018E-05 0.00000E+00
 -1       873 1.89013E-04-1.11102E-05 0.00000E+00
 -1       874 1.90430E-04-1.11193E-05-3.10193E-25
 -1       875 1.91792E-04-1.11290E-05 1.03398E-24
 -1       876 1.85560E-04-1.19767E-05-6.61744E-24
 -1       877 1.86001E-04-1.27981E-05 1.65436E-24
 -1       878 1.86421E-04-1.35615E-05 3.30872E-24
 -1       879 1.86822E-04-1.42743E-05-1.65436E-24
 -1       880 1.87207E-04-1.49437E-05-3.30872E-24
 -1       881 1.87578E-04-1.55770E-05 0.00000E+00
 -1       882 1.87939E-04-1.61815E-05 0.00000E+00
 -1       883 1.88292E-04-1.67644E-05 1.65436E-24
 -1       884 1.88639E-04-1.73330E-05 3.30872E-24
 -1       885 1.88983E-04-1.78945E-05 0.00000E+00
 -1       886 1.89328E-04-1.84561E-05-3.30872E-24
 -1       887 1.89675E-04-1.90251E-05 0.00000E+00
 -1       888 1.90028E-04-1.96087E-05 0.00000E+00
 -1       889 1.90388E-04-2.02143E-05-1.65436E-24
 -1       890 1.90758E-04-2.08492E-05 0.00000E+00
 -1       891 1.85970E-04-2.12431E-05 0.00000E+00
 -1       892 1.87149E-04-2.12997E-05 0.00000E+00
 -1       893 1.88280E-04-2.13561E-05 0.00000E+00
 -1       894 1.89338E-04-2.14123E-05 4.13590E-25
 -1       895 1.90298E-04-2.14683E-05 4.13590E-25
 -1       956 1.94979E-04 1.75343E-06 0.00000E+00
 -1       957 1.94850E-04 6.78461E-07 8.27181E-25
 -1       958 1.94720E-04-3.17929E-07 0.00000E+00
 -1       959 1.94590E-04-1.24671E-06 0.00000E+00
 -1       960 1.94460E-04-2.11891E-06-3.30872E-24
 -1       961 1.94330E-04-2.94556E-06 0.00000E+00
 -1       962 1.94200E-04-3.73773E-06 0.00000E+00
 -1       963 1.94070E-04-4.50650E-06 0.00000E+00
 -1       964 1.93940E-04-5.26294E-06 3.30872E-24
 -1       965 1.93810E-04-6.01812E-06 0.00000E+00
 -1       966 1.93680E-04-6.78313E-06 0.00000E+00
 -1       967 1.93550E-04-7.56904E-06-1.65436E-24
 -1       968 1.93420E-04-8.38691E-06 0.00000E+00
 -1       969 1.93290E-04-9.24778E-06 0.00000E+00
 -1       970 1.93160E-04-1.01627E-05 0.00000E+00
 -1       971 1.92915E-04-1.21195E-05 3.30872E-24
 -1       972 1.92796E-04-1.30032E-05 0.00000E+00
 -1       973 1.92677E-04-1.38035E-05-3.30872E-24
 -1       974 1.92558E-04-1.45312E-05 1.65436E-24
 -1       975 1.92439E-04-1.51969E-05-3.30872E-24
 -1       976 1.92319E-04-1.58116E-05 0.00000E+00
 -1       977 1.92200E-04-1.63860E-05 3.30872E-24
 -1       978 1.92081E-04-1.69308E-05 0.00000E+00
 -1       979 1.91962E-04-1.74569E-05 3.30872E-24
 -1       980 1.91843E-04-1.79750E-05 0.00000E+00
 -1       981 1.91724E-04-1.84961E-05 0.00000E+00
 -1       982 1.91605E-04-1.90308E-05 0.00000E+00
 -1       983 1.91486E-04-1.95901E-05-3.30872E-24
 -1       984 1.91367E-04-2.01846E-05 1.65436E-24
 -1       985 1.91250E-04-2.08252E-05 0.00000E+00
 -3
    1PSTEP                        20          10           1          
  100CL  110 6.53320E-01         409                     0   10           1
 -4  STRESS      6    1
 -5  SXX         1    4    1    1
 -5  SYY         1    4    2    2
 -5  SZZ         1    4    3    3
 -5  SXY         1    4    1    2
 -5  SYZ         1    4    2    3
 -5  SZX         1    4    3    1
 -1         1-4.75555E+06-1.68005E+06-1.03578E+06-1.59451E+06-5.82077E-10-3.46918E-08
 -1         2 6.12878E+05 8.39923E+06 2.31382E+06 2.77138E+06 1.95287E-08 6.52726E-08
 -1         3-1.35475E+03-1.60056E+06 4.07559E+02-2.16788E+03-5.58522E-10-5.31436E-08
 -1         5-5.96730E+01 3.77089E+05 9.74073E+00-1.13969E+00-4.66427E-10 2.44054E-08
 -1         8-7.90494E+05-2.55857E+05-9.89811E+04-3.33072E+05-1.34605E-10-9.67011E-08
 -1         9 9.58180E+06 1.32215E+06 1.96285E+06-7.20328E+05 5.04078E-09-4.36092E-08
 -1        10-2.21343E+03-1.66790E+06-3.92482E+03-1.46567E+04-1.26911E-08-4.51206E-08
 -1        12-5.58097E+01 3.77110E+05 3.19269E+02-7.84501E+00-6.03208E-10 7.65795E-09
 -1        15 1.16351E+03 6.39408E+02 3.76101E+03 1.48251E+00-7.40954E-11-1.78465E-07
 -1        16 1.99742E+07-2.08455E+05 2.77120E+06-1.73640E+06 1.00311E-08 7.01596E-08
 -1        17 7.26152E+06 5.29492E+06 1.95670E+06 5.13547E+06 1.88302E-08 3.07919E-08
 -1        18 1.25990E+05 2.89314E+04 7.14478E+02-1.15761E+05 1.45576E-08-1.20963E-10
 -1        19 1.19666E+05 1.38365E+05-9.33308E+02 2.16841E+04 1.37643E-09-4.00651E-09
 -1        20-7.84691E+04-5.61343E+05-1.25841E+05 2.55441E+04-1.79792E-09-8.93245E-09
 -1        21-4.52860E+01-2.91706E+05-9.12528E+02 2.38449E+02 1.27923E-08-2.70278E-09
 -1        24 1.19807E+07 1.02238E+07 3.34844E+06 9.49723E+06-1.57423E-07-5.00004E-08
 -1        25 9.71822E+04 1.66012E+05 7.40458E+04-5.85875E+05-1.11595E-09 1.44621E-08
 -1        26-5.44438E+04 8.96482E+04-2.46297E+04 8.56719E+02 4.75484E-10-7.19126E-10
 -1        27-7.50266E+04-3.03562E+05-1.11191E+05 6.75621E+04 4.04695E-09-2.37833E-09
 -1        28 2.19722E+04-8.38845E+04 1.66434E+04 2.06538E+04-3.45332E-09-4.52635E-09
 -1        32-1.65374E+06-3.08020E+06-1.84647E+05 3.50371E+05-4.03452E-08-1.08100E-08
 -1        33-1.75063E+05 9.07995E+04 3.16887E+04-3.78368E+04-2.81974E-09 1.35636E-09
 -1        34-2.19408E+05-2.43641E+04 6.67805E+02 7.38036E+04-4.73852E-09-1.28933E-08
 -1        35-2.26249E+04-3.32698E+04-1.32431E+03 5.07556E+04-3.82639E-09 8.52985E-09
 -1        51 5.34962E+04-1.97562E+05 1.14641E+05-5.77729E+05-8.73115E-11 1.24746E-07
 -1        52 1.89140E+04-1.78599E+05 6.13088E+04-6.73656E+05 7.20320E-10-1.36410E-07
 -1        53 4.83275E+03-1.94010E+05 3.37915E+04-5.75668E+05 3.12866E-10 1.94173E-07
 -1        54 1.02104E+04-1.90123E+05 3.15148E+04-6.75750E+05 1.23691E-10 2.17078E-08
 -1        55 2.17238E+04-1.98889E+05 4.27241E+04-5.75440E+05 5.52973E-10 1.94654E-07
 -1        56-8.84163E+06-1.03603E+06-7.69615E+05-3.50178E+06 4.91855E-09-1.61439E-07
 -1        57-9.48408E+06-1.37811E+06-5.15711E+05-3.07583E+06-1.42027E-08 4.21205E-08
 -1        58-8.93422E+06-1.33168E+06-1.79809E+05-3.51373E+06-1.22709E-08-2.79178E-08
 -1        59-9.35775E+06-1.04758E+06-1.06740E+05-3.08828E+06 2.94785E-08-4.71722E-07
 -1        60-8.96954E+06-1.35532E+06-4.25595E+04-3.49501E+06-2.14595E-08-1.61352E-07
 -1        61-9.23518E+06-1.08852E+06-2.10997E+04-3.17665E+06 4.42451E-08 2.16005E-09
 -1        62-9.04731E+06-1.29566E+06-1.53449E+04-3.41897E+06-2.77978E-08 1.16015E-07
 -1        63-9.06075E+06-1.24206E+06-5.05182E+03-3.35133E+06 1.67602E-08 2.07838E-07
 -1        64-9.13662E+06-1.20667E+06-1.46108E+04-3.31520E+06 4.13638E-09-3.04362E-08
 -1        65-8.92126E+06-1.40070E+06-1.86613E+04-3.54083E+06 2.68483E-09-6.51403E-08
 -1        66-9.19371E+06-1.13244E+06-3.81969E+04-3.23454E+06 1.12195E-08 3.10138E-08
 -1        67-8.88225E+06-1.51447E+06-9.50906E+04-3.63894E+06-5.80621E-08 1.56830E-07
 -1        68-9.18545E+06-1.08750E+06-1.60268E+05-3.22342E+06-1.16652E-08-1.29854E-07
 -1        69-9.06196E+06-1.74166E+06-4.59570E+05-3.54910E+06-3.60251E-08-2.39139E-07
 -1        70-9.01235E+06-9.15593E+05-6.86554E+05-3.31940E+06 2.61134E-08 1.30123E-07
 -1        86-6.22427E+05-8.75324E+06-1.26197E+06-1.32806E+06-1.83307E-07 1.53035E-07
 -1        87 8.96465E+05 1.44212E+06 1.04825E+06 2.93266E+06-3.14059E-07 5.70799E-09
 -1        88-1.27297E+05-2.59930E+06 8.38297E+04-1.57609E+06-2.77329E-07-8.41965E-09
 -1        89 1.21467E+06 1.31008E+06 1.05068E+06 3.00807E+06-3.91256E-07-3.36842E-07
 -1        90-9.07349E+05-8.65171E+06-1.38942E+06-1.41009E+06-8.50923E-08-1.53741E-08
 -1       121-1.86105E+03-1.60505E+06-4.54715E+02 1.07554E+03 1.43166E-09-1.04628E-08
 -1       122-1.17016E+03-1.60061E+06 7.85293E+02-4.33712E+03-5.06546E-09 5.32418E-09
 -1       123-1.88752E+03-1.60518E+06 3.82761E+02 3.21164E+03 4.12683E-09 2.98533E-08
 -1       124 4.93384E+02-1.60010E+06 3.04667E+03-9.06163E+03-1.00263E-08 3.17050E-09
 -1       125-2.73085E+03-1.60610E+06 3.70637E+03 5.76069E+03 6.40102E-09-2.31375E-09
 -1       191-6.29453E+01 3.77110E+05 8.97941E+00 5.90220E-01-5.22679E-10 1.53304E-08
 -1       192-6.06035E+01 3.77090E+05 2.07527E+01-3.72981E+00-7.04302E-10 1.36506E-08
 -1       193-6.54000E+01 3.77110E+05 3.60036E+01 3.26482E+00-9.60851E-10 1.60926E-08
 -1       194-6.35893E+01 3.77093E+05 7.88104E+01-8.49006E+00-4.45731E-10-8.41010E-09
 -1       195-7.01125E+01 3.77107E+05 1.51555E+02 5.49062E+00-1.46359E-09 5.38421E-10
 -1       251-1.92504E+06 2.15162E+04-1.47907E+05 5.15055E+04-6.38829E-09-1.52708E-07
 -1       252-1.58364E+06-2.53280E+04-2.99296E+04-1.84929E+05-2.07365E-09 2.64690E-08
 -1       253-1.80311E+06-1.60261E+03-3.63582E+04 1.62014E+05-5.17502E-09 2.27101E-08
 -1       254-1.75349E+06 1.66040E+04-8.10056E+03-3.09322E+05 2.22997E-10-2.82727E-07
 -1       255-1.77281E+06-4.44001E+03-8.11887E+03 1.76788E+05-8.85439E-09-2.97432E-08
 -1       256-1.63213E+06 1.82965E+04 2.65303E+04-2.38646E+05 1.29694E-09 2.91081E-07
 -1       257-1.91366E+06-1.38108E+04-3.31212E+04 9.06776E+04-2.59570E-09-1.95828E-08
 -1       258-1.45761E+06 1.25870E+04 6.14904E+04-1.03008E+04-2.72576E-08 6.28575E-08
 -1       259-1.93095E+06-1.33574E+04-3.46087E+04-5.14518E+04 3.44007E-08 4.94245E-08
 -1       260-1.59287E+06 1.43083E+04 3.81408E+04 2.32084E+05-5.83714E-09-9.94985E-08
 -1       261-1.79110E+06-3.18528E+03-1.25004E+03-1.51032E+05-2.63967E-08 8.94488E-10
 -1       262-1.74445E+06 2.14532E+04 1.57741E+04 3.30642E+05-9.43550E-09-1.11203E-07
 -1       263-1.79392E+06-7.03879E+03 6.85949E+03-1.50518E+05 8.62747E-09-5.07780E-08
 -1       264-1.57635E+06 4.63676E+04 7.15222E+04 2.30793E+05-4.25530E-08 3.25135E-07
 -1       265-1.94457E+06-4.18039E+04 7.02243E+03-5.06763E+04-2.21698E-08 2.14341E-07
 -1       266-2.10634E+04-9.84973E+03 4.94186E+04-3.17201E+01 2.40107E-10-1.01272E-07
 -1       267 2.44182E+04 1.14793E+04 3.49295E+04 3.66000E+01-6.23004E-11-4.50839E-07
 -1       268-3.27444E+03-1.62583E+03 1.29831E+04-4.66341E+00-8.50378E-11-1.32284E-07
 -1       269 3.86615E+03 1.94573E+03 8.43884E+03 5.43225E+00 2.17824E-10 7.01041E-08
 -1       270-5.80312E+02-3.19700E+02 4.07355E+03-7.37191E-01 1.01181E-11 7.84060E-08
 -1       271-1.83306E+06-2.25464E+05-1.35237E+05-7.06473E+05 1.79516E-08 8.51287E-10
 -1       272-1.88841E+06-3.15295E+05-8.66883E+04-6.95499E+05 8.47831E-09 1.02118E-08
 -1       273-1.85960E+06-2.57951E+05-3.21265E+04-6.99140E+05 6.97401E-09 7.85258E-08
 -1       274-1.85625E+06-2.76535E+05-1.77342E+04-7.07457E+05-1.62609E-08-1.12324E-07
 -1       275-1.86472E+06-2.59819E+05-7.63833E+03-6.96247E+05 1.75678E-08-2.07028E-08
 -1       276-1.84906E+06-2.75581E+05-3.79368E+03-7.13026E+05 1.61590E-08-1.44424E-07
 -1       277-1.86705E+06-2.58256E+05-2.05491E+03-6.93975E+05-2.44163E-08-7.70883E-08
 -1       278-1.84545E+06-2.78593E+05-1.13486E+03-7.17580E+05 6.86141E-08 1.19906E-07
 -1       279-1.86877E+06-2.56485E+05-1.28954E+03-6.92028E+05-2.47710E-08-7.51188E-08
 -1       280-1.84298E+06-2.81757E+05-1.87488E+03-7.21438E+05-2.97805E-08 7.19203E-08
 -1       281-1.87002E+06-2.54796E+05-3.53430E+03-6.90459E+05 1.55806E-08 1.19276E-08
 -1       282-1.84256E+06-2.86340E+05-8.16980E+03-7.24239E+05-4.74502E-08 5.24526E-08
 -1       283-1.86970E+06-2.51816E+05-1.46147E+04-6.89478E+05-1.29248E-08 1.78261E-07
 -1       284-1.85391E+06-3.07787E+05-3.97119E+04-7.23418E+05 4.16439E-08-1.35984E-07
 -1       285-1.85933E+06-2.35113E+05-6.17297E+04-6.90819E+05 1.16888E-08-7.43821E-08
 -1       301 8.34244E+03-5.57906E+05 1.70847E+05-9.73017E+05 6.17001E-09-8.93851E-08
 -1       302 9.35615E+03-5.13633E+05 1.03410E+05-1.42191E+06-9.38599E-10-1.38389E-08
 -1       303-9.98338E+03-5.45735E+05 6.11078E+04-9.70540E+05-4.72210E-09 3.03844E-08
 -1       304-5.21539E+03-5.17711E+05 6.61672E+04-1.42110E+06-6.57747E-09 1.99008E-07
 -1       305-9.80365E+03-5.39327E+05 8.74482E+04-9.73479E+05 4.20914E-09-1.12632E-08
 -1       306-2.77931E+07-5.67688E+06-7.78110E+06-9.85687E+05-9.47621E-08-9.28121E-08
 -1       307 2.31479E+07 2.30413E+06 5.00434E+06-1.34384E+07-7.62360E-07 1.77737E-07
 -1       308-7.55217E+06-8.14325E+05-5.30377E+05 4.73317E+06-2.34519E-07 3.58123E-07
 -1       309-3.47063E+06 7.02434E+06 1.93559E+06-1.91955E+07 1.67140E-07 5.19540E-08
 -1       310-1.14660E+07-1.43059E+06-1.59374E+06 4.63762E+06 2.06928E-07-2.21422E-07
 -1       311 3.22338E+07-1.48941E+05 6.28483E+06-8.77193E+06 4.88333E-07 1.77359E-07
 -1       312-2.89946E+07-5.88921E+06-7.47485E+06-4.20181E+06-5.58794E-08 2.14946E-07
 -1       313 4.10709E+07 1.18598E+07 9.50468E+06 1.99973E+07-3.51574E-07 1.44093E-07
 -1       314-1.69370E+07-1.53041E+07-6.75411E+06-1.15517E+07 1.97731E-07 3.93484E-08
 -1       315-1.10985E+06 2.57987E+07 5.15076E+06 1.06086E+07-4.37140E-07 1.44355E-07
 -1       316 6.41029E+05-9.34475E+06-4.94572E+05-3.23180E+06-9.86140E-07-6.90634E-08
 -1       317-1.70880E+07 2.05127E+07 1.90022E+06-6.75224E+06 6.65837E-07-5.72712E-07
 -1       318-1.20429E+06-1.12237E+07-1.63858E+06-4.39686E+06-9.37609E-07 1.13796E-07
 -1       319 5.54017E+06 2.72880E+07 6.05466E+06 1.45030E+07-9.18881E-08 1.49477E-07
 -1       320-2.07436E+07-1.54665E+07-8.69104E+06-1.15676E+07 1.58558E-07-3.62343E-08
 -1       336-4.96779E+02-1.73753E+06-1.38106E+04 8.74971E+03-2.50966E-08-7.59610E-09
 -1       337-5.33477E+03-1.73758E+06-1.79842E+04-2.11962E+04-4.61923E-08 2.28320E-08
 -1       338 4.41830E+02-1.73705E+06-2.80311E+04 1.22291E+04-3.29337E-08 2.27701E-08
 -1       339-2.97539E+04-1.75444E+06-6.34408E+04-2.79954E+04-6.01931E-08 2.68665E-09
 -1       340 1.97603E+04-1.72271E+06-9.97913E+04 1.54282E+04-3.93811E-08 4.99167E-08
 -1       406-3.40187E+01 3.77093E+05 6.27584E+02 2.75138E+00-1.69549E-09 3.97085E-09
 -1       407 1.64268E+02 3.77221E+05 1.33967E+03 2.11910E+01-4.13849E-10-1.80307E-08
 -1       408 6.31990E+02 3.76995E+05 2.67208E+03-2.43275E+01-2.36082E-09 4.82214E-09
 -1       409 2.84149E+03 3.78074E+05 6.02115E+03 2.57431E+02-4.42924E-10 6.96309E-09
 -1       410 8.26388E+03 3.76228E+05 1.22895E+04-2.47727E+02-2.74486E-09 5.72436E-09
 -1       521-2.93245E+07-6.96755E+06-9.07277E+06-6.56522E+05-1.01631E-07-7.49715E-08
 -1       522 2.38996E+07 3.03583E+06 5.08296E+06-1.66181E+07-5.41128E-07-5.46803E-07
 -1       523-8.25998E+06-1.09744E+06-5.38701E+05 5.17219E+06-3.84171E-08-2.17478E-07
 -1       524-6.68915E+06 9.61733E+06 2.09284E+06-2.21457E+07 7.77320E-07-2.85199E-07
 -1       525-1.23776E+07-1.94840E+06-1.75002E+06 5.06774E+06 3.65486E-07-4.10568E-07
 -1       526 3.49790E+07-2.03905E+05 6.59878E+06-1.12726E+07 2.34519E-07-2.30822E-07
 -1       527-3.07592E+07-7.38055E+06-8.59303E+06-4.08810E+06 3.94415E-07 3.02098E-08
 -1       528 4.48319E+07 1.30441E+07 9.90805E+06 2.26357E+07 9.91859E-08-6.19330E-08
 -1       529-1.79312E+07-1.72854E+07-7.73092E+06-1.16973E+07 9.09786E-08-5.69853E-08
 -1       530-3.41799E+06 3.00066E+07 5.44244E+06 1.04611E+07-2.09824E-07 7.17002E-07
 -1       531 5.80956E+05-1.04601E+07-4.88037E+05-3.33399E+06-7.70218E-07 2.12662E-07
 -1       532-1.99345E+07 2.26898E+07 2.07927E+06-1.03714E+07 3.45914E-07-7.00311E-07
 -1       533-1.27391E+06-1.23645E+07-1.73158E+06-4.39328E+06-2.00554E-07-9.62289E-07
 -1       534 3.56836E+06 3.16559E+07 6.29881E+06 1.50172E+07-3.91447E-08 7.00122E-07
 -1       535-2.18834E+07-1.75903E+07-9.92565E+06-1.17119E+07 1.02096E-07 4.36965E-07
 -1       536-6.81296E+05-4.59619E+04-3.73373E+04-5.12577E+04-5.97311E-09 6.43304E-08
 -1       537-7.91088E+04 4.44915E+04 8.21266E+04 1.17303E+05-1.10665E-07 1.02435E-07
 -1       538-3.93357E+05 2.64245E+03 5.07852E+03-6.88998E+04 2.80457E-08 1.02344E-07
 -1       539-2.77970E+05 2.99574E+03 2.39334E+04 1.32002E+05 1.54671E-07 1.23142E-07
 -1       540-4.87390E+05-3.47593E+02-1.90497E+04-6.64270E+04-9.58335E-09 8.91316E-08
 -1       541 1.04584E+05 1.56224E+04 9.80948E+04 9.23142E+04-6.87726E-08 6.48802E-08
 -1       542-7.65612E+05-1.85735E+04-7.74662E+04-2.84434E+04 3.42848E-08 3.37189E-08
 -1       543 3.42736E+05 2.51816E+04 1.45387E+05-1.28003E+04 2.90356E-08-3.64898E-08
 -1       544-7.19163E+05-1.51885E+04-6.88225E+04 3.80971E+04-1.52736E-08-4.88904E-08
 -1       545-4.51111E+03 8.59383E+03 7.31204E+04-1.07655E+05 1.74668E-08-8.93754E-08
 -1       546-4.27677E+05 5.72780E+03-1.13382E+04 6.61089E+04 3.33350E-08-8.87194E-08
 -1       547-2.95000E+05-4.68659E+03 9.07231E+03-1.34781E+05-1.13798E-07-1.08436E-07
 -1       548-4.36469E+05 4.60310E+03-2.28830E+04 6.58311E+04-9.08988E-08-8.03925E-08
 -1       549 1.40373E+04 1.30579E+04 5.33992E+04-1.05360E+05-6.26250E-08-5.44230E-08
 -1       550-7.28440E+05-1.89244E+04-1.22215E+05 3.60559E+04 2.34741E-09-4.12874E-08
 -1       551 3.89757E+04-7.63963E+05-1.05881E+04-1.22808E+06-9.79053E-08 5.82077E-11
 -1       552 8.86681E+04-8.05613E+05 1.29558E+04-1.75125E+06-7.06495E-08 4.16112E-08
 -1       553 6.78711E+04-8.03047E+05 3.41253E+04-1.22172E+06-1.14509E-07 2.14495E-08
 -1       554 1.26282E+05-8.19536E+05 8.35863E+04-1.75320E+06-7.25850E-08 1.99889E-08
 -1       555 9.75666E+04-8.26193E+05 1.51912E+05-1.22166E+06-1.16481E-07-6.60657E-09
 -1       556 2.12637E+05-3.66984E+05 3.32472E+04-3.95570E+05-2.29047E-08-5.58794E-09
 -1       557 3.39557E+05-4.68386E+05 1.98140E+04-5.10921E+05 6.98492E-10 5.88261E-09
 -1       558 1.96242E+05-3.61866E+05 4.24833E+03-3.98381E+05-1.84518E-08 2.56550E-08
 -1       559 3.15428E+05-4.69767E+05 3.28661E+03-5.29911E+05 1.65310E-08 7.47968E-09
 -1       560 1.82155E+05-3.53017E+05-8.86931E+02-4.08483E+05 1.55123E-08 6.39557E-09
 -1       561 2.97625E+05-4.62714E+05 3.61789E+02-5.42001E+05 5.12227E-09 3.32693E-08
 -1       562 1.71019E+05-3.46082E+05-1.08725E+03-4.16536E+05 3.27418E-09-8.31642E-09
 -1       563 2.84410E+05-4.56952E+05 2.99277E+01-5.50620E+05-1.39698E-09 2.87946E-09
 -1       564 1.63108E+05-3.41148E+05-5.06757E+02-4.22139E+05 8.90577E-09-6.96855E-09
 -1       565 2.75708E+05-4.53163E+05 4.20959E+01-5.56176E+05 1.21508E-08-3.82774E-08
 -1       566 1.58535E+05-3.38254E+05-2.22386E+02-4.25338E+05 2.53931E-09-8.76025E-09
 -1       567 2.71564E+05-4.51359E+05-3.30456E+02-5.58683E+05 1.88884E-08 1.52795E-10
 -1       568 1.57386E+05-3.37552E+05-1.04399E+03-4.26238E+05-2.34286E-09-8.00355E-09
 -1       569 2.70637E+05-4.51305E+05-2.63810E+03-5.57187E+05-1.86628E-09 1.54469E-08
 -1       570 1.60715E+05-3.40678E+05-5.78422E+03-4.25269E+05 6.94854E-09-5.22414E-09
 -1       571 2.83813E+05 1.02226E+04 1.46367E+04-9.14018E+04 1.30376E-08 2.75122E-09
 -1       572 2.85939E+05 3.82535E+03 7.17298E+03-1.00276E+05 2.39606E-08-1.88375E-08
 -1       573 2.84658E+05 1.17818E+03 3.18715E+03-9.12294E+04 1.02491E-08 8.96034E-09
 -1       574 2.84871E+05 6.67576E+02 1.59823E+03-1.00493E+05-8.28095E-10 1.22500E-08
 -1       575 2.84750E+05 3.99091E+02 7.54279E+02-9.12059E+04 4.30794E-09 3.99177E-09
 -1       576 2.84738E+05 4.06561E+02 3.86093E+02-1.00522E+05 1.20581E-08-3.95630E-09
 -1       577 2.84787E+05 3.43624E+02 1.92718E+02-9.12027E+04 6.33008E-09 1.19690E-08
 -1       578 2.84764E+05 3.71438E+02 1.11179E+02-1.00526E+05 1.19144E-09-7.89260E-09
 -1       579 2.84853E+05 3.10560E+02 7.63691E+01-9.12024E+04 6.91398E-09-4.93856E-09
 -1       580 2.84857E+05 3.25161E+02 8.83429E+01-1.00521E+05-6.15182E-09 2.33013E-09
 -1       581 2.84957E+05 2.57555E+02 1.33647E+02-9.12080E+04 6.37374E-09-1.02045E-08
 -1       582 2.85018E+05 2.93450E+02 2.71243E+02-1.00462E+05 2.31739E-09 1.16524E-08
 -1       583 2.85084E+05 3.03796E+02 5.21274E+02-9.12622E+04-8.00355E-10-2.76577E-09
 -1       584 2.85372E+05 7.28193E+02 1.17888E+03-1.00006E+05 5.02769E-09-1.07918E-08
 -1       585 2.85100E+05 1.72518E+03 2.38812E+03-9.16634E+04-9.18590E-10-7.06495E-09
 -1       586-3.41008E+03 1.12228E+05-3.06338E+03-2.45834E+05-5.39239E-09 1.04203E-08
 -1       587-1.27593E+03 1.11947E+05 6.39042E+02-2.70562E+05-7.74889E-09 3.15022E-08
 -1       588 4.46555E+02 1.11788E+05 4.57952E+03-2.45701E+05-5.04406E-09 2.82307E-09
 -1       589 5.01960E+03 1.14182E+05 1.19808E+04-2.70327E+05-7.15772E-09-3.83625E-08
 -1       590 1.62232E+04 1.10489E+05 2.51725E+04-2.46123E+05-4.26735E-09 3.54157E-09
 -1       591-7.32505E+04-1.53891E+04-2.19732E+04-3.14040E+04 7.34417E-11 5.97447E-09
 -1       592-7.72529E+04-1.93131E+04-1.19619E+04-3.49538E+04-5.40497E-09-1.74393E-08
 -1       593-7.55130E+04-1.40603E+04-4.96813E+03-3.29276E+04 2.52182E-09-2.16824E-09
 -1       594-7.41773E+04-1.60199E+04-2.48149E+03-3.50823E+04 3.82647E-09-9.87114E-09
 -1       595-7.56854E+04-1.40635E+04-1.13816E+03-3.29992E+04-1.32006E-09-3.25728E-08
 -1       596-7.39646E+04-1.58650E+04-5.78730E+02-3.50588E+04 2.09833E-09-3.40231E-08
 -1       597-7.57067E+04-1.40783E+04-3.14928E+02-3.30022E+04 9.16089E-10-2.54664E-09
 -1       598-7.39438E+04-1.58585E+04-2.52996E+02-3.50520E+04 6.04723E-09 1.17681E-08
 -1       599-7.57054E+04-1.40788E+04-3.22941E+02-3.30018E+04 9.70863E-09 8.66135E-09
 -1       600-7.39649E+04-1.58655E+04-5.99942E+02-3.50567E+04-1.13948E-09-7.21707E-09
 -1       601-7.56809E+04-1.40648E+04-1.18309E+03-3.29982E+04 8.52992E-09 1.32036E-08
 -1       602-7.41860E+04-1.60256E+04-2.58106E+03-3.50774E+04-2.48622E-09 2.14242E-08
 -1       603-7.54989E+04-1.40642E+04-5.16829E+03-3.29245E+04-5.74573E-09 1.18212E-08
 -1       604-7.74021E+04-1.94328E+04-1.24430E+04-3.49200E+04 2.63344E-09-3.74098E-09
 -1       605-7.31262E+04-1.54635E+04-2.28571E+04-3.13580E+04 5.06623E-09 1.71403E-08
 -1       606 2.68517E+04-1.39592E+04-2.50289E+04 2.43186E+04 5.81167E-09-8.85530E-09
 -1       607 2.25747E+04-4.55649E+03-1.24642E+04 2.73255E+04 3.20142E-09-2.81641E-08
 -1       608 2.50113E+04-8.19599E+02-5.57995E+03 2.41448E+04-1.04228E-09 8.05039E-09
 -1       609 2.45431E+04-2.77633E+02-2.81880E+03 2.75421E+04-7.69433E-10 1.92448E-08
 -1       610 2.48019E+04-3.61529E+01-1.34499E+03 2.41243E+04 4.09364E-09 1.63830E-08
 -1       611 2.47275E+04-3.52584E+01-6.78130E+02 2.75655E+04 6.70843E-09 6.26096E-09
 -1       612 2.47550E+04-2.21226E+01-3.22486E+02 2.41222E+04 5.43878E-10-3.29578E-09
 -1       613 2.47377E+04-3.06487E+01-1.44582E+02 2.75683E+04 7.53971E-10-1.54796E-08
 -1       614 2.47325E+04-2.78284E+01-3.41343E+01 2.41215E+04 9.27685E-11 8.41283E-12
 -1       615 2.47316E+04-2.87113E+01 6.00882E+01 2.75687E+04-3.51747E-09 7.72752E-09
 -1       616 2.47149E+04-2.43841E+01 1.80646E+02 2.41218E+04 8.29505E-09-4.21142E-09
 -1       617 2.47527E+04 1.01810E+01 4.12359E+02 2.75683E+04 1.91303E-08-1.25594E-08
 -1       618 2.46786E+04 9.47953E+01 8.31235E+02 2.41221E+04-3.18323E-12 1.30040E-08
 -1       619 2.50458E+04 6.53142E+02 1.86666E+03 2.75676E+04-1.59863E-08 3.82238E-09
 -1       620 2.44023E+04 2.06610E+03 3.75193E+03 2.41233E+04-4.64718E-09-3.25008E-09
 -1       621 4.78321E+02 2.93862E+05 3.70834E+03 3.83888E+04 7.03949E-10 1.25783E-08
 -1       622 6.27937E+02 2.94724E+05 3.29501E+03 5.57455E+04 1.05001E-09-2.00043E-09
 -1       623 1.23465E+02 2.94052E+05 3.96608E+03 3.82154E+04 1.11299E-09 2.39825E-08
 -1       624 2.01552E+03 2.95900E+05 7.69323E+03 5.59156E+04 1.16654E-09 6.71207E-09
 -1       625 1.97533E+03 2.92529E+05 1.34462E+04 3.82134E+04 1.13278E-09 1.80714E-08
 -1       626 2.54906E+05 6.06328E+04 5.05303E+03 1.24626E+05 8.21501E-09 3.86535E-09
 -1       627 2.52578E+05 6.20522E+04 2.43501E+03 1.28888E+05 1.25788E-08-2.15125E-08
 -1       628 2.55035E+05 5.83175E+04 1.02975E+03 1.25481E+05 3.86990E-09 1.02636E-09
 -1       629 2.51946E+05 6.13855E+04 5.04025E+02 1.29129E+05-1.24055E-09-4.86202E-09
 -1       630 2.55049E+05 5.82058E+04 2.33810E+02 1.25516E+05 2.58979E-09-1.36807E-08
 -1       631 2.51879E+05 6.13606E+04 1.25842E+02 1.29130E+05 5.71436E-09 1.28496E-08
 -1       632 2.55045E+05 5.82101E+04 8.28513E+01 1.25511E+05 3.94584E-09 4.03588E-10
 -1       633 2.51870E+05 6.13628E+04 9.23508E+01 1.29126E+05-2.62867E-09-4.06674E-08
 -1       634 2.55040E+05 5.82076E+04 1.49292E+02 1.25511E+05-3.12934E-09-6.20935E-09
 -1       635 2.51884E+05 6.13613E+04 3.02126E+02 1.29131E+05 3.25855E-10-2.70852E-08
 -1       636 2.55030E+05 5.82023E+04 6.10160E+02 1.25510E+05-8.80618E-10-1.76547E-08
 -1       637 2.52015E+05 6.14563E+04 1.34155E+03 1.29130E+05-2.88401E-09-5.54155E-09
 -1       638 2.54982E+05 5.84987E+04 2.75642E+03 1.25376E+05-5.87079E-09-4.10773E-09
 -1       639 2.53463E+05 6.34701E+04 6.52174E+03 1.28704E+05 7.06882E-09 2.18711E-09
 -1       640 2.54783E+05 6.45113E+04 1.35338E+04 1.22841E+05 9.47512E-09 1.18907E-08
 -1       656 6.52570E+04-1.66902E+06-1.57526E+05-2.30452E+03-5.45697E-10-4.74080E-09
 -1       657-8.63237E+04-1.74020E+06-1.30489E+05 5.46774E+03-4.91127E-10-1.28176E-08
 -1       658 2.07965E+04-1.68924E+06-8.03503E+04-4.32477E+03-2.30557E-10 1.08153E-08
 -1       659-9.33055E+04-1.74351E+06-1.39664E+05 7.12385E+03-6.14818E-10-5.38503E-09
 -1       660 7.22232E+04-1.66571E+06-1.73300E+05-3.96061E+03-9.96806E-10-2.02877E-09
 -1       661 1.59893E+05 1.67901E+04 1.67297E+04 6.25071E+04-2.26919E-10 2.37333E-08
 -1       662 1.69300E+05 2.92305E+04 1.12745E+04 5.88131E+04-1.64755E-09 7.67898E-09
 -1       663 1.63179E+05 2.21574E+04 3.94318E+03 6.15537E+04-1.22657E-09 4.03179E-09
 -1       664 1.65490E+05 2.29535E+04 2.35874E+03 5.99775E+04 2.33626E-09 9.72116E-09
 -1       665 1.63678E+05 2.28908E+04 9.30506E+02 6.14085E+04 1.08992E-09-4.64672E-09
 -1       666 1.64901E+05 2.21147E+04 5.44523E+02 6.01667E+04 7.34454E-09-1.80504E-08
 -1       667 1.63765E+05 2.29744E+04 2.89246E+02 6.13724E+04 1.32837E-09-2.96148E-09
 -1       668 1.64805E+05 2.20543E+04 2.94769E+02 6.02193E+04-5.82524E-09-2.48788E-08
 -1       669 1.63773E+05 2.29494E+04 3.99114E+02 6.13563E+04-2.66391E-09 1.16024E-08
 -1       670 1.64902E+05 2.22708E+04 8.69113E+02 6.02221E+04-1.16542E-08 1.06519E-08
 -1       671 1.63667E+05 2.27623E+04 1.54319E+03 6.13675E+04-8.61263E-10 5.47175E-10
 -1       672 1.65802E+05 2.37722E+04 3.94822E+03 6.00043E+04 5.90613E-09-9.96351E-10
 -1       673 1.62878E+05 2.14860E+04 6.61658E+03 6.15595E+04 1.18166E-09-1.42336E-10
 -1       674 1.72099E+05 3.44023E+04 1.89220E+04 5.81540E+04-7.32712E-10 7.02107E-09
 -1       675 1.57410E+05 1.24299E+04 2.80869E+04 6.31061E+04-3.69027E-09-4.20914E-09
 -1       676 2.37846E+01-2.91630E+05-1.09984E+03-1.19228E+02 3.82775E-09-9.32629E-09
 -1       677-2.91201E+02-2.91896E+05-2.01289E+03 2.38269E+02 9.86802E-09-9.80987E-09
 -1       678 1.95100E+02-2.91441E+05-3.55828E+03-1.18962E+02 1.63845E-09-5.92277E-09
 -1       679-3.55859E+03-2.94044E+05-8.45299E+03 2.37255E+02 6.41501E-09-2.28668E-09
 -1       680 2.12449E+03-2.89483E+05-1.36233E+04-1.16897E+02-4.60204E-10-1.39372E-09
 -1       771-3.02642E+06-7.25258E+05-1.53885E+05-1.43891E+06-2.86673E-08-2.75613E-08
 -1       772-2.95299E+06-8.10429E+05-7.94147E+04-1.53727E+06-1.52359E-08 8.41101E-09
 -1       773-3.05570E+06-7.02379E+05-4.03116E+04-1.45203E+06-9.89530E-09 8.84756E-09
 -1       774-2.94365E+06-7.93415E+05-1.80205E+04-1.56108E+06 2.11294E-08-2.88128E-09
 -1       775-3.07080E+06-6.91762E+05-1.33637E+04-1.45832E+06 5.52973E-10 2.24827E-09
 -1       776-2.95470E+06-7.90774E+05-5.01597E+03-1.57895E+06-1.32422E-09 6.54836E-09
 -1       777-3.08385E+06-6.82325E+05-5.86248E+03-1.46387E+06-1.97906E-09-2.74304E-09
 -1       778-2.96627E+06-7.88336E+05-1.66350E+03-1.59429E+06-1.45519E-09 6.42831E-09
 -1       779-3.09504E+06-6.74098E+05-2.91634E+03-1.46862E+06-1.00554E-08-6.59566E-09
 -1       780-2.97645E+06-7.86007E+05-4.84506E+02-1.60678E+06-3.19415E-09-1.83172E-09
 -1       781-3.10393E+06-6.67477E+05-1.12856E+03-1.47233E+06-2.09257E-08 3.67982E-09
 -1       782-2.98428E+06-7.84024E+05 4.10607E+02-1.61600E+06-3.58850E-08-7.86486E-09
 -1       783-3.11017E+06-6.62884E+05 6.41700E+02-1.47493E+06-1.41299E-08-1.80662E-08
 -1       784-2.98861E+06-7.82007E+05 2.64564E+03-1.62168E+06-1.87720E-08-2.53749E-10
 -1       785-3.11387E+06-6.60148E+05 4.67138E+03-1.47659E+06-3.48737E-08 6.44286E-09
 -1       786 1.23620E+05-9.68134E+03 2.23985E+04-2.98507E+02 1.14939E-09 5.73345E-09
 -1       787 1.33335E+05 1.12087E+04 1.58460E+04-1.18577E+02 6.47402E-09 1.52966E-08
 -1       788 1.27366E+05-1.51716E+03 5.79501E+03-2.64830E+02 5.54102E-09 2.17033E-08
 -1       789 1.28971E+05 1.75593E+03 3.63794E+03-1.70468E+02 3.11664E-10 4.75762E-09
 -1       790 1.27984E+05-2.36291E+02 1.47305E+03-2.46632E+02-4.64249E-09-4.72335E-09
 -1       791 1.28248E+05 2.73269E+02 8.51010E+02-2.01743E+02-4.98222E-09-7.27673E-09
 -1       792 1.28089E+05-3.56078E+01 3.61049E+02-2.33557E+02-1.80109E-09-1.03047E-09
 -1       793 1.28123E+05 3.76864E+01 1.80922E+02-2.26453E+02-1.76908E-10-1.46885E-09
 -1       794 1.28109E+05-8.57042E-01 4.88880E+01-2.21922E+02 3.43777E-09-1.39077E-08
 -1       795 1.28087E+05-2.57063E+01-5.23056E+01-2.50844E+02-3.68040E-09-2.83296E-08
 -1       796 1.28125E+05 2.77494E+01-1.52764E+02-2.09166E+02 3.69577E-09-4.94589E-09
 -1       797 1.27997E+05-2.07854E+02-4.21711E+02-2.80220E+02 3.77003E-09 1.70303E-08
 -1       798 1.28199E+05 1.81154E+02-6.85523E+02-1.92545E+02 1.64875E-09 1.15077E-08
 -1       799 1.27477E+05-1.33573E+03-1.88651E+03-3.21335E+02 4.79482E-09 5.74096E-09
 -1       800 1.28646E+05 1.15470E+03-2.66999E+03-1.68052E+02 6.25320E-10 5.19663E-09
 -1       801-1.35045E+05-9.34075E+06-1.28279E+06 1.25721E+06 8.51578E-08-4.77339E-08
 -1       802 6.36188E+05 4.92333E+06 1.92346E+06-1.53450E+06 2.45840E-07-3.99987E-08
 -1       803-4.77167E+05-1.30981E+07-1.69086E+06 7.98471E+05 7.47277E-08 1.73895E-08
 -1       804 2.47853E+05 1.70730E+06 1.35586E+06 6.26158E+05-1.12064E-07-8.34888E-08
 -1       805 1.76136E+05-6.13959E+06-2.57036E+05-8.98313E+05-4.64643E-08-6.04678E-08
 -1       806-3.02825E+05-5.84632E+04-2.23620E+04-1.19862E+05-4.71346E-09 1.39721E-08
 -1       807-3.04605E+05-5.47926E+04-1.09862E+04-1.25264E+05-7.47605E-10 2.32205E-11
 -1       808-3.03437E+05-5.04060E+04-4.66072E+03-1.23674E+05-9.70294E-09-7.28448E-09
 -1       809-3.02296E+05-5.17050E+04-2.27898E+03-1.25533E+05-5.99630E-09-4.61057E-09
 -1       810-3.03530E+05-5.01254E+04-1.04458E+03-1.23843E+05 4.94174E-09-9.86734E-09
 -1       811-3.02117E+05-5.15808E+04-5.19485E+02-1.25498E+05 3.92174E-09-1.36656E-08
 -1       812-3.03544E+05-5.01494E+04-2.62780E+02-1.23842E+05-2.08183E-09-5.93946E-09
 -1       813-3.02093E+05-5.15829E+04-1.70900E+02-1.25480E+05-7.13862E-09 7.30461E-09
 -1       814-3.03537E+05-5.01588E+04-1.69517E+02-1.23838E+05 3.93266E-09-7.25504E-09
 -1       815-3.02097E+05-5.15850E+04-2.73329E+02-1.25473E+05 1.78788E-08-8.31756E-09
 -1       816-3.03517E+05-5.01577E+04-5.18127E+02-1.23835E+05 6.72298E-09 2.21339E-08
 -1       817-3.02185E+05-5.16343E+04-1.11210E+03-1.25462E+05-1.99088E-08 1.53204E-08
 -1       818-3.03450E+05-5.03144E+04-2.26828E+03-1.23761E+05-9.34415E-09-6.60611E-09
 -1       819-3.03426E+05-5.30051E+04-5.33724E+03-1.25169E+05 2.29829E-09-1.28221E-08
 -1       820-3.03023E+05-5.43452E+04-1.08632E+04-1.22038E+05 2.14550E-09-1.21104E-08
 -1       821-3.72162E+05 2.05869E+04-4.77794E+04 1.73642E+03 1.19267E-08-2.60479E-09
 -1       822-3.92168E+05-2.38408E+04-3.36882E+04-3.44479E+03 3.65031E-09 1.61185E-08
 -1       823-3.79793E+05 3.23748E+03-1.23544E+04 2.63682E+03-1.04355E-08 1.51358E-08
 -1       824-3.83068E+05-3.73766E+03-7.75005E+03-3.97229E+03 2.03405E-09 4.03372E-09
 -1       825-3.81263E+05 5.02863E+02-3.22426E+03 2.26398E+03 1.59165E-08-2.08581E-09
 -1       826-3.81014E+05-5.73258E+02-1.80149E+03-2.16245E+03 1.86978E-08 1.04231E-08
 -1       827-3.81832E+05 6.41589E+01-1.10073E+03 8.26903E+02 7.60750E-09-7.50555E-09
 -1       828-3.80555E+05-1.53062E+02-7.07703E+02 9.94594E+02-1.08144E-09 7.17593E-10
 -1       829-3.81716E+05 7.77809E+01-1.09735E+03-8.93102E+02 2.05247E-10 1.37458E-08
 -1       830-3.81269E+05-6.15290E+02-1.91318E+03 3.77671E+03 1.12230E-09 7.68719E-09
 -1       831-3.81131E+05 5.36685E+02-3.30517E+03-1.95525E+03-5.14016E-09-3.75451E-09
 -1       832-3.83147E+05-3.88305E+03-8.02479E+03 4.66369E+03-8.74614E-10 3.85205E-09
 -1       833-3.79847E+05 3.34957E+03-1.28048E+04-1.78010E+03-1.33282E-09 8.47285E-09
 -1       834-3.92294E+05-2.46690E+04-3.48115E+04 3.14377E+03-2.93070E-09 1.41445E-08
 -1       835-3.71975E+05 2.12970E+04-4.94694E+04-4.35276E+02 4.87231E-09 4.11455E-09
 -1       836-1.36340E+03 3.61692E+05 2.21946E+04-1.58495E+04-6.42285E-09 2.50111E-09
 -1       837 4.74276E+03 3.68639E+05 1.88335E+04-3.23305E+04-6.85407E-09 3.04067E-09
 -1       838-5.39433E+02 3.63632E+05 1.92633E+04-1.57799E+04-5.51972E-09-5.35761E-09
 -1       839 1.21635E+04 3.74168E+05 3.65133E+04-3.23810E+04-5.85032E-09-1.29876E-09
 -1       840-3.75366E+03 3.56108E+05 5.82576E+04-1.58040E+04-5.57338E-09 2.97773E-09
 -1       856-5.48828E+04 7.99337E+03-2.10643E+04-3.98350E+02 2.32808E-09-5.37511E-09
 -1       857-6.35630E+04-9.39028E+03-1.45006E+04 5.55364E+03 5.73687E-09-1.49148E-08
 -1       858-5.83196E+04 1.12090E+03-5.46577E+03-4.22374E+02 2.74463E-09-6.93990E-09
 -1       859-5.96188E+04-1.31711E+03-3.29853E+03 5.58961E+03-1.70597E-09-5.13870E-09
 -1       860-5.88331E+04 1.56876E+02-1.38273E+03-4.34095E+02-1.49754E-10-1.41654E-10
 -1       861-5.90281E+04-1.85802E+02-7.61330E+02 5.60560E+03 2.53615E-09-8.86166E-09
 -1       862-5.89134E+04 2.11948E+01-3.17802E+02-4.38341E+02-3.45769E-09 1.33244E-09
 -1       863-5.89299E+04-2.05892E+01-1.18781E+02 5.60802E+03-1.36666E-09 7.06015E-09
 -1       864-5.89318E+04-4.58670E+00 4.02326E+01-4.36520E+02-3.26621E-09-1.92860E-08
 -1       865-5.88762E+04 5.75346E+01 2.39149E+02 5.59774E+03 9.12934E-10-5.32432E-09
 -1       866-5.89649E+04-5.69855E+01 4.85433E+02-4.28064E+02 1.95280E-09-5.69872E-09
 -1       867-5.86470E+04 4.70974E+02 1.19710E+03 5.57476E+03-2.83137E-10-9.57550E-09
 -1       868-5.91562E+04-4.10673E+02 1.98975E+03-4.13540E+02-1.37504E-09 1.13516E-09
 -1       869-5.71875E+04 3.41782E+03 5.29889E+03 5.53682E+03 5.83032E-09-1.64539E-08
 -1       870-6.04168E+04-2.92395E+03 7.68973E+03-3.90038E+02-3.43675E-09-1.23709E-08
 -1       871-5.43214E+03-2.02653E+04-1.90374E+04 1.27291E+05-3.79259E-09 1.33041E-08
 -1       872-1.99028E+03-2.46782E+04-7.95849E+03 1.65051E+05-9.97443E-09 1.83841E-08
 -1       873 3.55177E+02-2.25504E+04 6.08711E+02 1.27012E+05-5.02678E-09-3.16618E-09
 -1       874 3.19405E+03-2.01668E+04 9.62836E+03 1.65081E+05-9.62973E-09 2.70795E-08
 -1       875 6.68962E+03-2.48439E+04 2.16955E+04 1.27245E+05-3.67982E-09-1.18616E-08
 -1       876 2.88352E+05 4.86719E+04 1.48537E+04 1.15803E+05 4.58954E-09-1.83718E-09
 -1       877 2.89326E+05 5.18081E+04 7.93243E+03 1.20071E+05 2.31676E-08-1.86466E-08
 -1       878 2.89741E+05 4.70268E+04 3.32330E+03 1.17020E+05-4.68390E-11-1.02068E-08
 -1       879 2.87307E+05 4.97933E+04 1.65586E+03 1.20172E+05-9.11768E-10-5.37182E-09
 -1       880 2.89841E+05 4.70097E+04 7.71259E+02 1.17070E+05-3.72620E-09-2.47370E-08
 -1       881 2.87173E+05 4.97071E+04 4.11829E+02 1.20149E+05-1.97258E-09-1.63198E-08
 -1       882 2.89850E+05 4.70227E+04 2.63403E+02 1.17071E+05-3.72643E-09-2.02390E-08
 -1       883 2.87163E+05 4.97027E+04 2.83071E+02 1.20141E+05 5.26427E-10 2.43773E-08
 -1       884 2.89843E+05 4.70199E+04 4.50210E+02 1.17071E+05-8.14566E-10 2.32546E-10
 -1       885 2.87199E+05 4.97089E+04 9.05115E+02 1.20152E+05-4.45351E-09 2.58478E-09
 -1       886 2.89808E+05 4.69935E+04 1.82419E+03 1.17068E+05-2.36337E-09-1.92995E-09
 -1       887 2.87520E+05 4.99191E+04 3.98469E+03 1.20198E+05 6.43627E-09 1.96414E-08
 -1       888 2.89556E+05 4.70379E+04 8.02926E+03 1.16940E+05 3.72927E-09-8.42192E-09
 -1       889 2.92300E+05 5.48899E+04 1.91805E+04 1.20052E+05 4.33737E-09 1.65574E-09
 -1       890 2.86280E+05 5.09300E+04 3.59245E+04 1.13884E+05 2.16687E-09 6.86123E-09
 -1       891-9.51284E+01-1.60016E+05-1.95890E+03 2.69273E+04-8.52197E-10 5.23755E-09
 -1       892-1.83479E+02-1.60530E+05-2.10509E+03 4.08769E+04-2.09320E-09-9.04788E-09
 -1       893 3.53686E+01-1.60079E+05-2.98181E+03 2.69344E+04-1.14983E-09-1.22254E-08
 -1       894-1.49487E+03-1.61657E+05-6.17211E+03 4.07261E+04 2.77123E-09 5.58384E-09
 -1       895-1.18568E+03-1.58793E+05-1.08694E+04 2.70795E+04-1.46861E-09-6.64841E-10
 -1       956-3.69825E+05-5.32458E+03-1.31703E+04 2.98214E+04 3.37877E-09-1.54548E-08
 -1       957-3.72411E+05-1.86984E+03-6.76021E+03 3.58448E+04-8.48559E-10-1.02534E-08
 -1       958-3.71008E+05-2.25827E+02-3.04631E+03 2.96576E+04-2.68665E-09-2.48565E-09
 -1       959-3.71202E+05-1.21737E+02-1.55555E+03 3.60346E+04 2.83762E-10-1.69803E-09
 -1       960-3.71122E+05-3.44272E+01-7.58555E+02 2.96408E+04 3.73529E-09 5.50472E-10
 -1       961-3.71122E+05-5.07086E+01-4.02230E+02 3.60544E+04 1.35915E-08 1.35653E-08
 -1       962-3.71149E+05-3.59509E+01-2.30335E+02 2.96380E+04 3.85671E-09-6.23231E-09
 -1       963-3.71122E+05-4.67938E+01-1.84996E+02 3.60579E+04 5.72663E-09 3.44692E-08
 -1       964-3.71154E+05-3.27054E+01-2.25053E+02 2.96373E+04-2.16289E-11 8.48058E-09
 -1       965-3.71134E+05-4.37927E+01-3.89318E+02 3.60573E+04-8.78714E-09-7.24594E-09
 -1       966-3.71138E+05-2.47797E+01-7.31514E+02 2.96387E+04-5.48584E-09-2.66482E-09
 -1       967-3.71223E+05-1.05701E+02-1.50036E+03 3.60435E+04-1.30503E-08-1.71344E-08
 -1       968-3.71037E+05-2.03171E+02-2.93709E+03 2.96509E+04-3.06136E-09-3.01782E-09
 -1       969-3.72401E+05-1.78632E+03-6.52037E+03 3.59007E+04 2.21416E-09-2.57188E-09
 -1       970-3.69905E+05-5.11715E+03-1.27019E+04 2.97742E+04-3.24053E-09 9.48876E-09
 -1       971-3.39340E+05-1.70245E+03-9.20005E+03 1.51850E+04 2.14732E-09-4.38891E-09
 -1       972-3.41557E+05-1.25043E+03-5.01025E+03 2.10211E+04 1.57479E-09 7.94762E-09
 -1       973-3.40365E+05-5.67526E+01-2.24410E+03 1.50647E+04 4.73392E-09-3.73393E-09
 -1       974-3.40501E+05-7.38136E+01-1.16321E+03 2.11567E+04 2.64663E-10-2.57342E-09
 -1       975-3.40446E+05-1.24740E+01-5.81780E+02 1.50525E+04 2.20507E-09-5.05202E-09
 -1       976-3.40440E+05-2.46109E+01-3.36244E+02 2.11722E+04 2.07001E-09-1.22367E-08
 -1       977-3.40463E+05-1.17907E+01-2.45115E+02 1.50492E+04-1.04433E-09-3.42675E-09
 -1       978-3.40445E+05-1.85019E+01-2.88300E+02 2.11769E+04-2.21632E-09 9.85460E-09
 -1       979-3.40462E+05-3.48109E+00-4.64467E+02 1.50478E+04 2.66141E-09-3.84625E-09
 -1       980-3.40480E+05-1.54990E+01-8.97617E+02 2.11779E+04 3.60001E-09-5.95946E-09
 -1       981-3.40434E+05 1.89491E+01-1.73889E+03 1.50483E+04 2.83569E-09 3.81931E-10
 -1       982-3.40719E+05-1.43980E+02-3.59448E+03 2.11713E+04 1.24328E-09 5.93195E-09
 -1       983-3.40215E+05-9.23912E+01-6.98422E+03 1.50543E+04-9.81890E-09 2.70984E-09
 -1       984-3.44078E+05-3.79162E+03-1.56409E+04 2.10866E+04-1.07748E-08 5.77461E-09
 -1       985-3.37053E+05-5.20301E+03-2.87215E+04 1.51263E+04-5.98538E-09 5.01132E-09
 -3
    1PSTEP                        21          11           1          
  100CL  111 6.62109E-01         409                     0   11           1
 -4  DISP        4    1
 -5  D1          1    2    1    0
 -5  D2          1    2    2    0
 -5  D3          1    2    3    0
 -5  ALL         1    2    0    0    1ALL
 -1         1 2.73512E-03 0.00000E+00 0.00000E+00
 -1         2 1.26382E-03 1.64610E-26 0.00000E+00
 -1         3 3.42246E-04-8.50975E-28 0.00000E+00
 -1         5 1.76925E-04-1.58523E-27 2.48154E-24
 -1         8 2.72485E-03-3.91019E-07 0.00000E+00
 -1         9 2.71753E-03-2.21660E-04 0.00000E+00
 -1        10 3.10356E-04-3.36608E-06 0.00000E+00
 -1        12 1.78772E-04 8.08372E-07-1.24077E-24
 -1        15 2.71324E-03-4.12648E-07 0.00000E+00
 -1        16 2.79610E-03-2.23663E-04 0.00000E+00
 -1        17 2.11241E-04-7.68261E-06 0.00000E+00
 -1        18 1.82722E-04 3.44113E-05 0.00000E+00
 -1        19 1.84314E-04 1.61033E-06 0.00000E+00
 -1        20 1.84453E-04-9.89666E-06 0.00000E+00
 -1        21 1.83562E-04-2.54421E-05-3.30872E-24
 -1        24 3.05437E-05-1.18890E-05 0.00000E+00
 -1        25 1.93503E-04 3.46368E-05 0.00000E+00
 -1        26 1.94175E-04 2.22951E-06 0.00000E+00
 -1        27 1.91985E-04-1.34516E-05 0.00000E+00
 -1        28 1.91670E-04-2.60634E-05 0.00000E+00
 -1        32 0.00000E+00 0.00000E+00 0.00000E+00
 -1        33 2.03051E-04 2.98303E-06 0.00000E+00
 -1        34 2.00935E-04-1.35078E-05 0.00000E+00
 -1        35 1.99005E-04-2.64054E-05 0.00000E+00
 -1        51 2.73442E-03-8.29329E-08-3.30872E-24
 -1        52 2.73315E-03-1.47274E-07 0.00000E+00
 -1        53 2.73144E-03-2.08049E-07 0.00000E+00
 -1        54 2.72940E-03-2.67486E-07 8.27181E-25
 -1        55 2.72716E-03-3.27353E-07-2.48154E-24
 -1        56 2.72614E-03 1.16179E-05 5.29396E-23
 -1        57 2.70734E-03 4.72238E-05 0.00000E+00
 -1        58 2.68153E-03 9.93822E-05 1.05879E-22
 -1        59 2.65237E-03 1.59114E-04 0.00000E+00
 -1        60 2.62439E-03 2.16144E-04-1.05879E-22
 -1        61 2.60195E-03 2.60411E-04 0.00000E+00
 -1        62 2.58798E-03 2.84120E-04 0.00000E+00
 -1        63 2.58431E-03 2.81298E-04 0.00000E+00
 -1        64 2.59054E-03 2.50856E-04-1.05879E-22
 -1        65 2.60538E-03 1.94357E-04-5.29396E-23
 -1        66 2.62624E-03 1.18377E-04 0.00000E+00
 -1        67 2.65028E-03 3.14480E-05 0.00000E+00
 -1        68 2.67440E-03-5.57311E-05 0.00000E+00
 -1        69 2.69550E-03-1.32431E-04 0.00000E+00
 -1        70 2.71070E-03-1.89994E-04 0.00000E+00
 -1        86 1.35531E-03-6.87912E-06 0.00000E+00
 -1        87 1.61913E-03-4.37726E-05-2.64698E-23
 -1        88 1.97398E-03-1.07433E-04 0.00000E+00
 -1        89 2.33406E-03-1.73029E-04-1.32349E-23
 -1        90 2.61051E-03-2.13211E-04 0.00000E+00
 -1       121 3.41351E-04-5.43348E-07 1.32349E-23
 -1       122 3.38668E-04-1.08977E-06 0.00000E+00
 -1       123 3.34208E-04-1.64230E-06-1.32349E-23
 -1       124 3.27986E-04-2.20395E-06 6.61744E-24
 -1       125 3.20026E-04-2.77738E-06 1.32349E-23
 -1       191 1.76976E-04 1.34792E-07-1.65436E-24
 -1       192 1.77130E-04 2.69573E-07 8.27181E-25
 -1       193 1.77386E-04 4.04334E-07-1.65436E-24
 -1       194 1.77745E-04 5.39063E-07 4.13590E-25
 -1       195 1.78207E-04 6.73746E-07 0.00000E+00
 -1       251 2.72454E-03 1.61127E-06-6.61744E-24
 -1       252 2.72423E-03 3.63989E-06 3.30872E-24
 -1       253 2.72392E-03 4.53324E-06 0.00000E+00
 -1       254 2.72361E-03 3.14412E-06 0.00000E+00
 -1       255 2.72329E-03-1.32123E-06 6.61744E-24
 -1       256 2.72294E-03-9.61723E-06 6.61744E-24
 -1       257 2.72255E-03-2.19057E-05-1.32349E-23
 -1       258 2.72211E-03-3.82972E-05 0.00000E+00
 -1       259 2.72161E-03-5.82685E-05 0.00000E+00
 -1       260 2.72104E-03-8.12497E-05 0.00000E+00
 -1       261 2.72043E-03-1.06206E-04 0.00000E+00
 -1       262 2.71980E-03-1.32076E-04 6.61744E-24
 -1       263 2.71917E-03-1.57660E-04-1.32349E-23
 -1       264 2.71857E-03-1.81757E-04-6.61744E-24
 -1       265 2.71803E-03-2.03403E-04-1.32349E-23
 -1       266 2.72292E-03-4.00040E-07 1.65436E-24
 -1       267 2.72098E-03-4.02985E-07 0.00000E+00
 -1       268 2.71904E-03-4.06314E-07-4.13590E-25
 -1       269 2.71711E-03-4.08504E-07-2.06795E-25
 -1       270 2.71517E-03-4.10667E-07-2.06795E-25
 -1       271 2.72415E-03-2.26012E-07 0.00000E+00
 -1       272 2.72456E-03-3.05344E-06-6.61744E-24
 -1       273 2.72600E-03-8.68668E-06 0.00000E+00
 -1       274 2.72839E-03-1.69245E-05 6.61744E-24
 -1       275 2.73166E-03-2.75435E-05 1.32349E-23
 -1       276 2.73570E-03-4.03037E-05 6.61744E-24
 -1       277 2.74042E-03-5.49475E-05-1.32349E-23
 -1       278 2.74572E-03-7.12036E-05-6.61744E-24
 -1       279 2.75149E-03-8.87883E-05 1.32349E-23
 -1       280 2.75763E-03-1.07407E-04 0.00000E+00
 -1       281 2.76403E-03-1.26759E-04 1.32349E-23
 -1       282 2.77058E-03-1.46535E-04 6.61744E-24
 -1       283 2.77718E-03-1.66424E-04 1.32349E-23
 -1       284 2.78370E-03-1.86115E-04 0.00000E+00
 -1       285 2.79004E-03-2.05297E-04 1.32349E-23
 -1       301 2.73179E-03-2.22032E-04 6.61744E-24
 -1       302 2.74430E-03-2.22354E-04-3.30872E-24
 -1       303 2.75604E-03-2.22663E-04 0.00000E+00
 -1       304 2.76794E-03-2.22972E-04 0.00000E+00
 -1       305 2.78098E-03-2.23297E-04 0.00000E+00
 -1       306 2.75596E-03-3.78600E-04-1.05879E-22
 -1       307 2.81983E-03-7.94413E-04 0.00000E+00
 -1       308 2.86648E-03-1.40005E-03 0.00000E+00
 -1       309 2.89081E-03-2.09901E-03 5.29396E-23
 -1       310 2.92299E-03-2.76556E-03 0.00000E+00
 -1       311 2.98301E-03-3.27682E-03-5.29396E-23
 -1       312 3.04021E-03-3.55275E-03-1.05879E-22
 -1       313 3.03318E-03-3.55654E-03 0.00000E+00
 -1       314 2.88822E-03-3.30115E-03 0.00000E+00
 -1       315 2.56516E-03-2.85164E-03 0.00000E+00
 -1       316 2.08341E-03-2.28469E-03-1.05879E-22
 -1       317 1.50976E-03-1.66926E-03-5.29396E-23
 -1       318 9.58788E-04-1.06549E-03-1.05879E-22
 -1       319 5.38381E-04-5.38185E-04 0.00000E+00
 -1       320 2.91941E-04-1.61483E-04 1.05879E-22
 -1       336 2.98790E-04-4.01709E-06-1.32349E-23
 -1       337 2.85151E-04-4.69372E-06 0.00000E+00
 -1       338 2.69500E-04-5.39818E-06 0.00000E+00
 -1       339 2.51909E-04-6.13135E-06 0.00000E+00
 -1       340 2.32459E-04-6.89767E-06 0.00000E+00
 -1       406 1.79439E-04 9.42920E-07-3.30872E-24
 -1       407 1.80209E-04 1.07735E-06 1.24077E-24
 -1       408 1.81081E-04 1.21162E-06-2.48154E-24
 -1       409 1.82057E-04 1.34555E-06 6.20385E-25
 -1       410 1.83135E-04 1.47887E-06 2.06795E-24
 -1       521 2.83509E-03-3.89968E-04 0.00000E+00
 -1       522 2.89710E-03-8.26801E-04 5.29396E-23
 -1       523 2.93700E-03-1.46156E-03 1.05879E-22
 -1       524 2.95163E-03-2.19078E-03 0.00000E+00
 -1       525 2.97553E-03-2.88550E-03 1.05879E-22
 -1       526 3.03193E-03-3.41994E-03 0.00000E+00
 -1       527 3.08877E-03-3.70689E-03 0.00000E+00
 -1       528 3.07928E-03-3.70861E-03-1.05879E-22
 -1       529 2.92148E-03-3.43819E-03 2.11758E-22
 -1       530 2.57285E-03-2.96909E-03-5.29396E-23
 -1       531 2.05373E-03-2.38196E-03 0.00000E+00
 -1       532 1.43766E-03-1.74839E-03 5.29396E-23
 -1       533 8.45121E-04-1.12580E-03 0.00000E+00
 -1       534 3.89621E-04-5.76591E-04 5.29396E-23
 -1       535 1.21020E-04-1.79503E-04 0.00000E+00
 -1       536 2.10488E-04 2.72085E-05 0.00000E+00
 -1       537 2.08573E-04 8.75976E-05 0.00000E+00
 -1       538 2.05613E-04 1.64225E-04 0.00000E+00
 -1       539 2.02123E-04 2.47746E-04 0.00000E+00
 -1       540 1.98982E-04 3.26667E-04 0.00000E+00
 -1       541 1.96940E-04 3.89517E-04 0.00000E+00
 -1       542 1.95998E-04 4.29548E-04 0.00000E+00
 -1       543 1.95773E-04 4.40160E-04 0.00000E+00
 -1       544 1.95451E-04 4.22125E-04 0.00000E+00
 -1       545 1.94280E-04 3.76437E-04 0.00000E+00
 -1       546 1.92098E-04 3.11218E-04 0.00000E+00
 -1       547 1.89144E-04 2.34709E-04 0.00000E+00
 -1       548 1.86217E-04 1.58576E-04 0.00000E+00
 -1       549 1.84105E-04 9.44868E-05 0.00000E+00
 -1       550 1.83008E-04 5.04655E-05-1.65436E-24
 -1       551 1.86068E-04-8.24900E-06 0.00000E+00
 -1       552 1.57651E-04-8.89573E-06 0.00000E+00
 -1       553 1.26934E-04-9.60462E-06 9.92617E-24
 -1       554 9.48719E-05-1.03547E-05-3.30872E-24
 -1       555 6.24243E-05-1.11185E-05-1.32349E-23
 -1       556 2.03602E-04 1.18519E-05 0.00000E+00
 -1       557 1.97430E-04 2.76940E-05 0.00000E+00
 -1       558 1.92591E-04 4.01315E-05 0.00000E+00
 -1       559 1.88954E-04 4.94745E-05 0.00000E+00
 -1       560 1.86387E-04 5.60337E-05 0.00000E+00
 -1       561 1.84763E-04 6.01221E-05 0.00000E+00
 -1       562 1.83956E-04 6.20542E-05 0.00000E+00
 -1       563 1.83844E-04 6.21451E-05 1.32349E-23
 -1       564 1.84304E-04 6.07113E-05 0.00000E+00
 -1       565 1.85215E-04 5.80693E-05 0.00000E+00
 -1       566 1.86457E-04 5.45368E-05 0.00000E+00
 -1       567 1.87913E-04 5.04314E-05 0.00000E+00
 -1       568 1.89463E-04 4.60713E-05 0.00000E+00
 -1       569 1.90990E-04 4.17742E-05-8.27181E-25
 -1       570 1.92375E-04 3.78582E-05 0.00000E+00
 -1       571 1.82819E-04 3.22834E-05 2.48154E-24
 -1       572 1.82917E-04 3.00898E-05-8.27181E-25
 -1       573 1.83016E-04 2.78461E-05 0.00000E+00
 -1       574 1.83116E-04 2.55687E-05 0.00000E+00
 -1       575 1.83215E-04 2.32740E-05-3.30872E-24
 -1       576 1.83314E-04 2.09785E-05 0.00000E+00
 -1       577 1.83414E-04 1.86987E-05 3.30872E-24
 -1       578 1.83513E-04 1.64512E-05 0.00000E+00
 -1       579 1.83613E-04 1.42525E-05 0.00000E+00
 -1       580 1.83713E-04 1.21190E-05 3.30872E-24
 -1       581 1.83812E-04 1.00674E-05 0.00000E+00
 -1       582 1.83913E-04 8.11411E-06 0.00000E+00
 -1       583 1.84013E-04 6.27563E-06 0.00000E+00
 -1       584 1.84113E-04 4.56830E-06 0.00000E+00
 -1       585 1.84214E-04 3.00827E-06 6.61744E-24
 -1       586 1.84478E-04 3.44510E-05 0.00000E+00
 -1       587 1.86193E-04 3.44902E-05 0.00000E+00
 -1       588 1.87909E-04 3.45290E-05-8.27181E-25
 -1       589 1.89671E-04 3.45671E-05 0.00000E+00
 -1       590 1.91522E-04 3.46039E-05 0.00000E+00
 -1       591 1.83451E-04 3.23769E-05 1.03398E-25
 -1       592 1.84183E-04 3.03221E-05 2.06795E-25
 -1       593 1.84920E-04 2.82530E-05-8.27181E-25
 -1       594 1.85660E-04 2.61743E-05 0.00000E+00
 -1       595 1.86402E-04 2.40909E-05 0.00000E+00
 -1       596 1.87144E-04 2.20076E-05 4.13590E-25
 -1       597 1.87884E-04 1.99291E-05 8.27181E-25
 -1       598 1.88620E-04 1.78602E-05 0.00000E+00
 -1       599 1.89351E-04 1.58057E-05 8.27181E-25
 -1       600 1.90075E-04 1.37704E-05 0.00000E+00
 -1       601 1.90790E-04 1.17590E-05 0.00000E+00
 -1       602 1.91494E-04 9.77630E-06-4.13590E-25
 -1       603 1.92186E-04 7.82707E-06-4.13590E-25
 -1       604 1.92864E-04 5.91620E-06 2.06795E-25
 -1       605 1.93527E-04 4.04836E-06 0.00000E+00
 -1       606 1.84327E-04 4.45587E-07 3.30872E-24
 -1       607 1.84337E-04-6.33531E-07 0.00000E+00
 -1       608 1.84346E-04-1.63205E-06 0.00000E+00
 -1       609 1.84354E-04-2.55564E-06 0.00000E+00
 -1       610 1.84362E-04-3.41003E-06 0.00000E+00
 -1       611 1.84371E-04-4.20099E-06 0.00000E+00
 -1       612 1.84379E-04-4.93430E-06 0.00000E+00
 -1       613 1.84387E-04-5.61577E-06 0.00000E+00
 -1       614 1.84396E-04-6.25119E-06-1.65436E-24
 -1       615 1.84404E-04-6.84636E-06 8.27181E-25
 -1       616 1.84412E-04-7.40707E-06 0.00000E+00
 -1       617 1.84421E-04-7.93913E-06 0.00000E+00
 -1       618 1.84429E-04-8.44832E-06 8.27181E-25
 -1       619 1.84437E-04-8.94044E-06 0.00000E+00
 -1       620 1.84446E-04-9.42129E-06 2.06795E-25
 -1       621 1.85673E-04 1.71408E-06 3.30872E-24
 -1       622 1.87190E-04 1.81808E-06 1.65436E-24
 -1       623 1.88833E-04 1.92187E-06-3.30872E-24
 -1       624 1.90567E-04 2.02533E-06-8.27181E-25
 -1       625 1.92359E-04 2.12851E-06-1.65436E-24
 -1       626 1.84863E-04 4.81656E-07 3.30872E-24
 -1       627 1.85389E-04-5.84163E-07 0.00000E+00
 -1       628 1.85894E-04-1.59496E-06 0.00000E+00
 -1       629 1.86383E-04-2.55889E-06 0.00000E+00
 -1       630 1.86856E-04-3.48414E-06 0.00000E+00
 -1       631 1.87319E-04-4.37888E-06-1.65436E-24
 -1       632 1.87773E-04-5.25130E-06 0.00000E+00
 -1       633 1.88222E-04-6.10961E-06-1.65436E-24
 -1       634 1.88668E-04-6.96201E-06 0.00000E+00
 -1       635 1.89116E-04-7.81666E-06-1.65436E-24
 -1       636 1.89567E-04-8.68179E-06 3.30872E-24
 -1       637 1.90026E-04-9.56558E-06-1.65436E-24
 -1       638 1.90494E-04-1.04762E-05-1.65436E-24
 -1       639 1.90975E-04-1.14219E-05-8.27181E-25
 -1       640 1.91472E-04-1.24110E-05 1.65436E-24
 -1       656 1.85161E-04-1.04744E-05 0.00000E+00
 -1       657 1.86288E-04-1.10757E-05-6.61744E-24
 -1       658 1.87694E-04-1.16756E-05 0.00000E+00
 -1       659 1.89236E-04-1.22752E-05-6.61744E-24
 -1       660 1.90727E-04-1.28765E-05 0.00000E+00
 -1       661 1.84718E-04-1.04171E-05 0.00000E+00
 -1       662 1.85021E-04-1.10293E-05-8.27181E-25
 -1       663 1.85355E-04-1.17280E-05 1.65436E-24
 -1       664 1.85721E-04-1.25068E-05-8.27181E-25
 -1       665 1.86114E-04-1.33599E-05-1.65436E-24
 -1       666 1.86532E-04-1.42812E-05 0.00000E+00
 -1       667 1.86974E-04-1.52652E-05 0.00000E+00
 -1       668 1.87438E-04-1.63063E-05 8.27181E-25
 -1       669 1.87921E-04-1.73990E-05 0.00000E+00
 -1       670 1.88421E-04-1.85381E-05 0.00000E+00
 -1       671 1.88936E-04-1.97184E-05 0.00000E+00
 -1       672 1.89465E-04-2.09347E-05-8.27181E-25
 -1       673 1.90005E-04-2.21821E-05-1.65436E-24
 -1       674 1.90554E-04-2.34558E-05 0.00000E+00
 -1       675 1.91112E-04-2.47506E-05 0.00000E+00
 -1       676 1.84918E-04-2.55463E-05-3.30872E-24
 -1       677 1.86273E-04-2.56504E-05 0.00000E+00
 -1       678 1.87627E-04-2.57544E-05 0.00000E+00
 -1       679 1.88978E-04-2.58582E-05 0.00000E+00
 -1       680 1.90326E-04-2.59619E-05-3.30872E-24
 -1       771 1.85976E-05 1.48293E-05-5.29396E-23
 -1       772 8.54812E-06 3.67719E-05 0.00000E+00
 -1       773 3.04397E-07 5.41690E-05-5.29396E-23
 -1       774-6.25787E-06 6.72788E-05-2.64698E-23
 -1       775-1.12603E-05 7.63695E-05 0.00000E+00
 -1       776-1.48296E-05 8.17264E-05 0.00000E+00
 -1       777-1.70919E-05 8.36446E-05 0.00000E+00
 -1       778-1.81762E-05 8.24332E-05-2.64698E-23
 -1       779-1.82108E-05 7.84098E-05-5.29396E-23
 -1       780-1.73260E-05 7.19033E-05 0.00000E+00
 -1       781-1.56511E-05 6.32495E-05 0.00000E+00
 -1       782-1.33171E-05 5.27929E-05 5.29396E-23
 -1       783-1.04539E-05 4.08828E-05 5.29396E-23
 -1       784-7.19285E-06 2.78746E-05 0.00000E+00
 -1       785-3.66421E-06 1.41267E-05 0.00000E+00
 -1       786 1.93541E-04 3.23837E-05 0.00000E+00
 -1       787 1.93582E-04 3.01802E-05 0.00000E+00
 -1       788 1.93624E-04 2.80179E-05 8.27181E-25
 -1       789 1.93666E-04 2.58891E-05-8.27181E-25
 -1       790 1.93708E-04 2.37890E-05 0.00000E+00
 -1       791 1.93750E-04 2.17130E-05-8.27181E-25
 -1       792 1.93792E-04 1.96590E-05-1.65436E-24
 -1       793 1.93834E-04 1.76249E-05 0.00000E+00
 -1       794 1.93877E-04 1.56104E-05 0.00000E+00
 -1       795 1.93919E-04 1.36156E-05-8.27181E-25
 -1       796 1.93961E-04 1.16424E-05 1.65436E-24
 -1       797 1.94004E-04 9.69276E-06-8.27181E-25
 -1       798 1.94047E-04 7.77093E-06 0.00000E+00
 -1       799 1.94089E-04 5.88135E-06 0.00000E+00
 -1       800 1.94132E-04 4.03163E-06 0.00000E+00
 -1       801 1.47722E-04 3.11384E-05 0.00000E+00
 -1       802 9.30073E-06 1.94286E-05 0.00000E+00
 -1       803-1.08917E-04 9.81809E-06 5.29396E-23
 -1       804-9.65104E-05 6.83432E-06-2.64698E-23
 -1       805-3.18836E-05 2.68491E-06-5.29396E-23
 -1       806 1.94233E-04 3.23153E-05 0.00000E+00
 -1       807 1.94949E-04 3.00199E-05 1.65436E-24
 -1       808 1.95652E-04 2.77560E-05-3.30872E-24
 -1       809 1.96341E-04 2.55274E-05 1.65436E-24
 -1       810 1.97016E-04 2.33384E-05 3.30872E-24
 -1       811 1.97674E-04 2.11928E-05 0.00000E+00
 -1       812 1.98315E-04 1.90945E-05 0.00000E+00
 -1       813 1.98937E-04 1.70474E-05 0.00000E+00
 -1       814 1.99538E-04 1.50556E-05 0.00000E+00
 -1       815 2.00117E-04 1.31227E-05 8.27181E-25
 -1       816 2.00672E-04 1.12529E-05 1.65436E-24
 -1       817 2.01203E-04 9.44981E-06-8.27181E-25
 -1       818 2.01707E-04 7.71745E-06 0.00000E+00
 -1       819 2.02184E-04 6.05967E-06 8.27181E-25
 -1       820 2.02632E-04 4.48027E-06 1.65436E-24
 -1       821 1.94047E-04-9.75986E-08 0.00000E+00
 -1       822 1.93907E-04-3.51705E-06 0.00000E+00
 -1       823 1.93766E-04-7.61942E-06-3.30872E-24
 -1       824 1.93622E-04-1.19910E-05 0.00000E+00
 -1       825 1.93478E-04-1.61456E-05 0.00000E+00
 -1       826 1.93337E-04-1.95980E-05 0.00000E+00
 -1       827 1.93199E-04-2.20542E-05 0.00000E+00
 -1       828 1.93063E-04-2.32259E-05-1.65436E-24
 -1       829 1.92928E-04-2.31738E-05 0.00000E+00
 -1       830 1.92792E-04-2.19659E-05 0.00000E+00
 -1       831 1.92655E-04-1.99843E-05 3.30872E-24
 -1       832 1.92517E-04-1.76157E-05 1.65436E-24
 -1       833 1.92380E-04-1.53520E-05 3.30872E-24
 -1       834 1.92245E-04-1.36845E-05 0.00000E+00
 -1       835 1.92111E-04-1.29430E-05-8.27181E-25
 -1       836 1.95864E-04 2.35449E-06-6.61744E-24
 -1       837 1.97428E-04 2.48259E-06-1.65436E-24
 -1       838 1.98897E-04 2.61063E-06 3.30872E-24
 -1       839 2.00304E-04 2.73796E-06 0.00000E+00
 -1       840 2.01678E-04 2.86513E-06 8.27181E-25
 -1       856 1.91969E-04-1.45146E-05 0.00000E+00
 -1       857 1.91950E-04-1.54420E-05 0.00000E+00
 -1       858 1.91931E-04-1.62549E-05-2.06795E-25
 -1       859 1.91911E-04-1.69744E-05 0.00000E+00
 -1       860 1.91891E-04-1.76218E-05-4.13590E-25
 -1       861 1.91872E-04-1.82182E-05 0.00000E+00
 -1       862 1.91852E-04-1.87850E-05 4.13590E-25
 -1       863 1.91832E-04-1.93435E-05 4.13590E-25
 -1       864 1.91812E-04-1.99149E-05 8.27181E-25
 -1       865 1.91793E-04-2.05207E-05-4.13590E-25
 -1       866 1.91773E-04-2.11820E-05 0.00000E+00
 -1       867 1.91753E-04-2.19202E-05-4.13590E-25
 -1       868 1.91733E-04-2.27563E-05 0.00000E+00
 -1       869 1.91713E-04-2.37116E-05 0.00000E+00
 -1       870 1.91692E-04-2.48070E-05-8.27181E-25
 -1       871 1.93336E-04-1.34565E-05-8.27181E-25
 -1       872 1.94833E-04-1.34648E-05 0.00000E+00
 -1       873 1.96410E-04-1.34739E-05 0.00000E+00
 -1       874 1.97998E-04-1.34837E-05 1.03398E-25
 -1       875 1.99529E-04-1.34940E-05 1.03398E-24
 -1       876 1.92511E-04-1.45000E-05 0.00000E+00
 -1       877 1.93014E-04-1.54817E-05 0.00000E+00
 -1       878 1.93496E-04-1.64046E-05 0.00000E+00
 -1       879 1.93959E-04-1.72761E-05 0.00000E+00
 -1       880 1.94405E-04-1.81037E-05 0.00000E+00
 -1       881 1.94838E-04-1.88946E-05 0.00000E+00
 -1       882 1.95260E-04-1.96562E-05-3.30872E-24
 -1       883 1.95673E-04-2.03958E-05 1.65436E-24
 -1       884 1.96082E-04-2.11208E-05 0.00000E+00
 -1       885 1.96487E-04-2.18386E-05 0.00000E+00
 -1       886 1.96892E-04-2.25564E-05 0.00000E+00
 -1       887 1.97300E-04-2.32815E-05 0.00000E+00
 -1       888 1.97714E-04-2.40214E-05 3.30872E-24
 -1       889 1.98135E-04-2.47835E-05-1.65436E-24
 -1       890 1.98566E-04-2.55751E-05 0.00000E+00
 -1       891 1.93035E-04-2.61209E-05 0.00000E+00
 -1       892 1.94376E-04-2.61785E-05 0.00000E+00
 -1       893 1.95668E-04-2.62360E-05-1.65436E-24
 -1       894 1.96887E-04-2.62933E-05 8.27181E-25
 -1       895 1.98008E-04-2.63503E-05-4.13590E-25
 -1       956 2.02920E-04 1.66034E-06-1.65436E-24
 -1       957 2.02788E-04 4.29238E-07-8.27181E-25
 -1       958 2.02656E-04-7.21028E-07 0.00000E+00
 -1       959 2.02523E-04-1.80179E-06-1.65436E-24
 -1       960 2.02390E-04-2.82444E-06 0.00000E+00
 -1       961 2.02258E-04-3.80039E-06 0.00000E+00
 -1       962 2.02125E-04-4.74107E-06-3.30872E-24
 -1       963 2.01992E-04-5.65794E-06 1.65436E-24
 -1       964 2.01860E-04-6.56243E-06-3.30872E-24
 -1       965 2.01727E-04-7.46599E-06 0.00000E+00
 -1       966 2.01595E-04-8.38008E-06-3.30872E-24
 -1       967 2.01462E-04-9.31613E-06 0.00000E+00
 -1       968 2.01329E-04-1.02856E-05 0.00000E+00
 -1       969 2.01197E-04-1.12998E-05 0.00000E+00
 -1       970 2.01065E-04-1.23703E-05-3.30872E-24
 -1       971 2.00815E-04-1.46450E-05-3.30872E-24
 -1       972 2.00694E-04-1.56878E-05 0.00000E+00
 -1       973 2.00573E-04-1.66466E-05-3.30872E-24
 -1       974 2.00451E-04-1.75322E-05-1.65436E-24
 -1       975 2.00330E-04-1.83554E-05 0.00000E+00
 -1       976 2.00209E-04-1.91272E-05 1.65436E-24
 -1       977 2.00088E-04-1.98583E-05 3.30872E-24
 -1       978 1.99966E-04-2.05596E-05 0.00000E+00
 -1       979 1.99845E-04-2.12421E-05 3.30872E-24
 -1       980 1.99724E-04-2.19166E-05 0.00000E+00
 -1       981 1.99603E-04-2.25940E-05-3.30872E-24
 -1       982 1.99482E-04-2.32852E-05 0.00000E+00
 -1       983 1.99361E-04-2.40011E-05 3.30872E-24
 -1       984 1.99240E-04-2.47526E-05 0.00000E+00
 -1       985 1.99120E-04-2.55505E-05 0.00000E+00
 -3
    1PSTEP                        22          11           1          
  100CL  111 6.62109E-01         409                     0   11           1
 -4  STRESS      6    1
 -5  SXX         1    4    1    1
 -5  SYY         1    4    2    2
 -5  SZZ         1    4    3    3
 -5  SXY         1    4    1    2
 -5  SYZ         1    4    2    3
 -5  SZX         1    4    3    1
 -1         1-5.34089E+06-1.49697E+06-1.12537E+06-1.22996E+06 2.18279E-10 2.36614E-08
 -1         2 1.72234E+06 2.50251E+07 5.74920E+06 7.65611E+06 2.97732E-08-2.27665E-07
 -1         3-1.48184E+03-1.54269E+06 4.02467E+02-2.18515E+03-6.36426E-10 2.23736E-08
 -1         5-7.53201E+01 3.85991E+05 9.97079E+00-1.34024E+00-5.79767E-10-2.94385E-08
 -1         8-5.44073E+05-1.98764E+05-6.31895E+04-2.34575E+05 3.36513E-11 2.42144E-08
 -1         9 1.19345E+07 4.40968E+06 2.92937E+06-1.62859E+05-1.74623E-09-1.01421E-07
 -1        10-2.29461E+03-1.60759E+06-3.90679E+03-1.47886E+04-1.34878E-08-8.43331E-08
 -1        12-7.14061E+01 3.86012E+05 3.27776E+02-9.13774E+00-6.79282E-10 1.46792E-08
 -1        15 8.97420E+02 4.93178E+02 2.90088E+03 7.51020E-01-3.24576E-10-1.09494E-07
 -1        16 2.29172E+07-3.60133E+05 3.11200E+06-2.36770E+06-1.48624E-08 2.11876E-08
 -1        17 8.40601E+06 6.28608E+06 2.26864E+06 6.00966E+06 2.51865E-08 3.03495E-08
 -1        18 1.41573E+05 3.31625E+04 3.81743E+03-1.19570E+05 1.05795E-08-6.37237E-09
 -1        19 1.22287E+05 1.41482E+05-9.50123E+02 2.19612E+04 1.61581E-09-1.42096E-08
 -1        20-8.19244E+04-5.73117E+05-1.28606E+05 2.50629E+04-2.40971E-09-3.23538E-09
 -1        21-4.55137E+01-2.95631E+05-9.22731E+02 2.74982E+02 1.51303E-08 7.29454E-09
 -1        24 1.41530E+07 1.21587E+07 3.91270E+06 1.12554E+07-1.71606E-07-4.92243E-08
 -1        25 1.24492E+05 2.66778E+05 9.97975E+04-6.45757E+05-2.69210E-10 4.47053E-09
 -1        26-5.60889E+04 9.17686E+04-2.51859E+04 1.50849E+03 4.96948E-10 1.16100E-08
 -1        27-7.54093E+04-3.09614E+05-1.13163E+05 6.88738E+04 5.08498E-09 2.08517E-09
 -1        28 2.22115E+04-8.52440E+04 1.68763E+04 2.05762E+04-3.56926E-09 5.38622E-09
 -1        32-1.67872E+06-3.17971E+06-1.97809E+05 4.58658E+05-4.27754E-08-1.19683E-08
 -1        33-1.78327E+05 9.29705E+04 3.23691E+04-3.81629E+04-3.09319E-09 5.79045E-11
 -1        34-2.23343E+05-2.50165E+04 6.89302E+02 7.55927E+04-5.26974E-09-1.52960E-08
 -1        35-2.29009E+04-3.38051E+04-1.34681E+03 5.14302E+04-3.84898E-09 1.02288E-08
 -1        51 6.12659E+04-1.66442E+05 1.29380E+05-4.21053E+05 2.91038E-11 9.72504E-08
 -1        52 2.06503E+04-1.43718E+05 6.77255E+04-4.91106E+05 9.00400E-11 8.79372E-08
 -1        53 4.09519E+03-1.59015E+05 3.50016E+04-4.19624E+05 1.60071E-10 3.48882E-08
 -1        54 7.00869E+03-1.54788E+05 2.82261E+04-4.92490E+05-6.91216E-11-3.95157E-08
 -1        55 1.53139E+04-1.61544E+05 3.37052E+04-4.19556E+05 3.85626E-10 2.63695E-07
 -1        56-9.87096E+06-1.48333E+06-9.60500E+05-4.18602E+06-1.30385E-08 1.05327E-07
 -1        57-1.12914E+07-5.52929E+05-5.32105E+05-2.48718E+06 5.07862E-09-1.14524E-08
 -1        58-9.53298E+06-1.98973E+06-2.03723E+05-4.43529E+06 7.53062E-09-5.97720E-08
 -1        59-1.16484E+07 5.64500E+04-1.01969E+05-2.40658E+06-1.42709E-08 1.07430E-07
 -1        60-9.64670E+06-1.99107E+06-6.35658E+04-4.38338E+06 1.85901E-08-1.35464E-07
 -1        61-1.07409E+07-3.90268E+05 4.11394E+04-2.66494E+06 4.95929E-08 5.87715E-08
 -1        62-1.02261E+07-1.68834E+06-1.15560E+05-4.00219E+06 6.83940E-10-3.87081E-08
 -1        63-9.50828E+06-1.31993E+06 9.42080E+04-3.53118E+06 3.56958E-08 1.80196E-07
 -1        64-1.06990E+07-1.19082E+06-1.06770E+05-3.40643E+06-1.68948E-08 7.71397E-08
 -1        65-9.11350E+06-2.07938E+06 3.56298E+04-4.74643E+06-2.02272E-08-2.04862E-07
 -1        66-1.08231E+07-7.88355E+05-5.02920E+04-2.94143E+06 1.86774E-08-9.21791E-08
 -1        67-9.21477E+06-2.37551E+06-9.12822E+04-5.33610E+06-6.36719E-08-1.26742E-07
 -1        68-1.08030E+07-7.48702E+05-1.91503E+05-2.94004E+06-6.11108E-08-1.49841E-07
 -1        69-9.30758E+06-2.41560E+06-4.68624E+05-4.71717E+06-3.91447E-08-1.59562E-08
 -1        70-1.05363E+07-8.97947E+05-8.88105E+05-3.43989E+06-1.28312E-08-8.84756E-09
 -1        86-1.75833E+06-1.71932E+07-3.15136E+06-3.58458E+06-2.83544E-07-1.47731E-07
 -1        87 2.80872E+06 7.37976E+06 2.61916E+06 6.43811E+06-4.76197E-07-2.42289E-07
 -1        88-5.50956E+05-1.76067E+06 2.53036E+05-2.76700E+06-4.71417E-07 2.44700E-09
 -1        89 3.75667E+06 7.01510E+06 2.68784E+06 6.67051E+06-6.17467E-07-3.27327E-07
 -1        90-2.58979E+06-1.69201E+07-3.39499E+06-3.85575E+06-1.79141E-07 1.23808E-07
 -1       121-2.02964E+03-1.54757E+06-5.46961E+02 1.08300E+03 1.51303E-09 1.69530E-08
 -1       122-1.29824E+03-1.54275E+06 7.62395E+02-4.37464E+03-5.25154E-09-1.54068E-08
 -1       123-2.04948E+03-1.54771E+06 2.52664E+02 3.23463E+03 4.48074E-09 2.69210E-08
 -1       124 3.20545E+02-1.54231E+06 2.91959E+03-9.15983E+03-1.03728E-08 4.65534E-08
 -1       125-2.85063E+03-1.54859E+06 3.41867E+03 5.82243E+03 6.58656E-09-1.50067E-08
 -1       191-7.93728E+01 3.86009E+05 8.47092E+00 6.98900E-01-6.05852E-10-1.68729E-08
 -1       192-7.62829E+01 3.85991E+05 2.12778E+01-4.30090E+00-8.13779E-10-2.58660E-09
 -1       193-8.19069E+01 3.86008E+05 3.62182E+01 3.77820E+00-1.03368E-09-8.41646E-09
 -1       194-7.93694E+01 3.85995E+05 8.08896E+01-9.76117E+00-6.09603E-10-3.01343E-08
 -1       195-8.67707E+01 3.86006E+05 1.54858E+02 6.35269E+00-1.56407E-09-2.38106E-09
 -1       251-8.84310E+05 1.75255E+04-4.08914E+04-1.63424E+04 7.04429E-09 2.33724E-07
 -1       252-8.99704E+05-2.02884E+04-2.84363E+04 5.88750E+04 5.77830E-09 1.82270E-07
 -1       253-8.93571E+05 2.71053E+03-1.10434E+04-1.20119E+04-1.24928E-08-2.67064E-08
 -1       254-8.84121E+05-3.30170E+03-4.72005E+03 4.27926E+04 1.69316E-08 7.56131E-08
 -1       255-8.99121E+05 1.36855E+01-4.03975E+03-2.64953E+02-6.82576E-10 4.95908E-08
 -1       256-8.77031E+05-2.96095E+02 1.70918E+03 1.57754E+04-9.25331E-09-5.37489E-08
 -1       257-9.00054E+05-7.46264E+02-1.84199E+03 1.49886E+04 1.02582E-08 4.07935E-08
 -1       258-8.80431E+05 1.09857E+03 3.24329E+03-1.30703E+04-1.05374E-08 1.59628E-07
 -1       259-8.96008E+05-1.15488E+03 1.12048E+03 2.85762E+04-3.77440E-10-1.99695E-07
 -1       260-8.88958E+05 3.32807E+03 5.73923E+03-3.40558E+04-1.91703E-08-4.50086E-07
 -1       261-8.92350E+05-2.33619E+03 8.57809E+03 3.59974E+04 1.83484E-08-1.46273E-07
 -1       262-8.88655E+05 1.22030E+04 2.13777E+04-4.03103E+04-2.24057E-10-2.96505E-07
 -1       263-8.96652E+05-9.73090E+03 3.37638E+04 3.48449E+04-7.98764E-10 7.02985E-08
 -1       264-8.56897E+05 6.70123E+04 9.39143E+04-2.96563E+04 4.60705E-08 1.97029E-07
 -1       265-9.23485E+05-5.73784E+04 1.30027E+05 2.53250E+04 1.06752E-08-5.50353E-08
 -1       266-1.62465E+04-7.59772E+03 3.81148E+04-1.60681E+01 5.82077E-11 2.63084E-07
 -1       267 1.88339E+04 8.85398E+03 2.69411E+04 1.85411E+01 2.57842E-10-2.77803E-07
 -1       268-2.52560E+03-1.25404E+03 1.00138E+04-2.36236E+00 6.82121E-11 6.86939E-08
 -1       269 2.98198E+03 1.50074E+03 6.50889E+03 2.75190E+00-5.10454E-11 9.60989E-08
 -1       270-4.47595E+02-2.46584E+02 3.14193E+03-3.73449E-01-1.33696E-10 3.64245E-08
 -1       271-1.41546E+06-1.82184E+05-1.06905E+05-5.52152E+05 5.14774E-09-1.69530E-08
 -1       272-1.39882E+06-2.99726E+05-6.66272E+04-5.99940E+05 3.99632E-08-8.61182E-08
 -1       273-1.43836E+06-2.04048E+05-2.61198E+04-5.44065E+05-2.84417E-08 1.94126E-07
 -1       274-1.37346E+06-2.73170E+05-1.32887E+04-6.15851E+05 2.09257E-08 2.85622E-07
 -1       275-1.44403E+06-2.03114E+05-6.61832E+03-5.40168E+05-5.42786E-09 3.88718E-09
 -1       276-1.36841E+06-2.74403E+05-2.62475E+03-6.25208E+05 3.31347E-08 2.17651E-07
 -1       277-1.44697E+06-2.00216E+05-1.86203E+03-5.37351E+05-9.48785E-09-6.71298E-09
 -1       278-1.36666E+06-2.77642E+05-6.10507E+02-6.32060E+05 3.82943E-08-2.74214E-07
 -1       279-1.44883E+06-1.97922E+05-7.94607E+02-5.35404E+05-3.92720E-08 1.04705E-07
 -1       280-1.36594E+06-2.79976E+05-8.01380E+02-6.36471E+05 2.12008E-08 2.09971E-07
 -1       281-1.44979E+06-1.96554E+05-1.49373E+03-5.34348E+05 5.89898E-09 3.85305E-08
 -1       282-1.36632E+06-2.81838E+05-3.45686E+03-6.38168E+05 1.61788E-09 3.52547E-07
 -1       283-1.44936E+06-1.95577E+05-6.16457E+03-5.34277E+05 5.87590E-09-4.95597E-08
 -1       284-1.37189E+06-2.89664E+05-1.67697E+04-6.35937E+05-3.36331E-09-9.38489E-08
 -1       285-1.44392E+06-1.89833E+05-2.62956E+04-5.36005E+05 9.44965E-10-1.23579E-07
 -1       301-1.25494E+04-6.57439E+05 1.65944E+05-1.16235E+06 3.55067E-09 1.16270E-07
 -1       302-1.57571E+04-6.09272E+05 9.98860E+04-1.69582E+06 6.86850E-09 1.66256E-07
 -1       303-2.61877E+04-6.51223E+05 5.61511E+04-1.15908E+06 1.60944E-08 4.76739E-08
 -1       304-3.13144E+04-6.17441E+05 5.60042E+04-1.69535E+06 4.84579E-09 1.49328E-07
 -1       305-3.08053E+04-6.39741E+05 6.81863E+04-1.16215E+06 5.11318E-09-2.00394E-07
 -1       306-3.00125E+07-6.18142E+06-8.56688E+06-4.45710E+05-9.30158E-08-2.10217E-07
 -1       307 2.50028E+07 3.28814E+06 5.46421E+06-1.53244E+07-9.83375E-07-1.16066E-07
 -1       308-6.83480E+06-9.75151E+05-4.05572E+05 5.19056E+06-9.06293E-08 3.30823E-07
 -1       309-3.07407E+06 8.64392E+06 2.29555E+06-2.06954E+07 4.62926E-07 2.83380E-07
 -1       310-1.27795E+07-1.95677E+06-2.09802E+06 5.18876E+06-1.44937E-08-2.94283E-07
 -1       311 3.88901E+07-4.61857E+04 7.33991E+06-8.51940E+06 3.47412E-07 4.31901E-08
 -1       312-3.19546E+07-6.86899E+06-8.57322E+06-5.21662E+06 2.37953E-07 1.17667E-07
 -1       313 4.51384E+07 1.53664E+07 1.06772E+07 2.40409E+07-5.48869E-07-1.38476E-07
 -1       314-1.70061E+07-1.79061E+07-7.49980E+06-1.25037E+07 3.03437E-07-8.96398E-09
 -1       315-2.11618E+06 2.97901E+07 5.63346E+06 1.02636E+07-3.12430E-07 6.05360E-08
 -1       316 1.47726E+06-9.77584E+06-4.04500E+05-2.44607E+06-1.17465E-06-3.18891E-07
 -1       317-1.70459E+07 2.23980E+07 2.24624E+06-8.92124E+06 7.42162E-07-7.87251E-07
 -1       318-1.12177E+06-1.29000E+07-2.08834E+06-4.25689E+06-8.76404E-07 8.28877E-08
 -1       319 7.38734E+06 3.21125E+07 7.08742E+06 1.67417E+07-8.44302E-08 2.76836E-07
 -1       320-2.26588E+07-1.76824E+07-9.88612E+06-1.28405E+07 1.65077E-07-4.69445E-08
 -1       336-7.57155E+02-1.67530E+06-1.37162E+04 8.79709E+03-2.63171E-08-1.26602E-08
 -1       337-5.37143E+03-1.67479E+06-1.78853E+04-2.13837E+04-4.91420E-08 4.84943E-09
 -1       338 2.52789E+02-1.67479E+06-2.81866E+04 1.23364E+04-3.28728E-08-7.17773E-09
 -1       339-2.99179E+04-1.69185E+06-6.36815E+04-2.83205E+04-6.15146E-08-8.22183E-10
 -1       340 1.96738E+04-1.66039E+06-1.00331E+05 1.56036E+04-4.14875E-08 3.94321E-08
 -1       406-4.97308E+01 3.85991E+05 6.43578E+02 3.33848E+00-1.98634E-09 1.86119E-08
 -1       407 1.54614E+02 3.86126E+05 1.37538E+03 2.34367E+01-6.10946E-10-8.20728E-09
 -1       408 6.34237E+02 3.85891E+05 2.74239E+03-2.70944E+01-2.57205E-09-2.00089E-08
 -1       409 2.90424E+03 3.87002E+05 6.18112E+03 2.89159E+02-1.77920E-10 2.91038E-09
 -1       410 8.47211E+03 3.85102E+05 1.26154E+04-2.78812E+02-2.71575E-09-6.61566E-09
 -1       521-3.16775E+07-7.67294E+06-1.00640E+07-4.45978E+04-1.10478E-07-6.75209E-08
 -1       522 2.59957E+07 4.37954E+06 5.60464E+06-1.89146E+07-5.47821E-07-1.51922E-07
 -1       523-7.40466E+06-1.29785E+06-3.97081E+05 5.66093E+06 8.85921E-08-4.37125E-07
 -1       524-6.57278E+06 1.17994E+07 2.49922E+06-2.38463E+07 8.22984E-07-4.34284E-07
 -1       525-1.35934E+07-2.62368E+06-2.31970E+06 5.67083E+06 8.21019E-07-2.62895E-07
 -1       526 4.27217E+07-1.58090E+05 7.73850E+06-1.11848E+07 1.44122E-07 5.16884E-08
 -1       527-3.39366E+07-8.61015E+06-9.93367E+06-5.09578E+06 2.00234E-07-4.38158E-08
 -1       528 4.95099E+07 1.72684E+07 1.11910E+07 2.74989E+07-1.56520E-07-3.10276E-07
 -1       529-1.79780E+07-2.02254E+07-8.64330E+06-1.25664E+07 3.09083E-08-2.76254E-07
 -1       530-4.61011E+06 3.47743E+07 5.99464E+06 9.67184E+06 8.52306E-08 4.35975E-07
 -1       531 1.50223E+06-1.08709E+07-3.74902E+05-2.36213E+06-8.88016E-07 3.85859E-07
 -1       532-1.95260E+07 2.44637E+07 2.47113E+06-1.33484E+07 3.48897E-07-6.76700E-07
 -1       533-1.15586E+06-1.41125E+07-2.24050E+06-4.03631E+06-3.25119E-07-1.07998E-06
 -1       534 5.43561E+06 3.74946E+07 7.41559E+06 1.74103E+07-2.66591E-08 7.53207E-07
 -1       535-2.39203E+07-2.01889E+07-1.13943E+07-1.29570E+07 1.02562E-07 4.61063E-07
 -1       536-7.05600E+05-4.64479E+04-4.86727E+04-5.46284E+04-1.01772E-09 5.04151E-08
 -1       537-5.54378E+04 4.43515E+04 8.34247E+04 1.23753E+05-1.18973E-07 9.22373E-08
 -1       538-3.94381E+05 3.37931E+03 3.40372E+03-7.21568E+04 2.53481E-08 1.17107E-07
 -1       539-2.69223E+05 2.80260E+03 2.47946E+04 1.38647E+05 1.73444E-07 1.15980E-07
 -1       540-4.97186E+05-4.18450E+02-2.13314E+04-7.00560E+04 1.41849E-08 1.13039E-07
 -1       541 1.46018E+05 1.69424E+04 1.06236E+05 9.78503E+04-9.64587E-09 8.45342E-08
 -1       542-7.98434E+05-2.01110E+04-8.41480E+04-3.04869E+04 7.82143E-08 4.50787E-08
 -1       543 4.04416E+05 2.72929E+04 1.57779E+05-1.33530E+04 2.91730E-08-4.16771E-08
 -1       544-7.48654E+05-1.65173E+04-7.47518E+04 4.04790E+04 3.79305E-09-3.42524E-08
 -1       545 2.84677E+04 9.46991E+03 7.97080E+04-1.13539E+05-1.41182E-08-9.82006E-08
 -1       546-4.32582E+05 6.09106E+03-1.22207E+04 6.93531E+04 3.76317E-08-8.74552E-08
 -1       547-2.87259E+05-4.66112E+03 1.05545E+04-1.41489E+05-1.25888E-07-1.17874E-07
 -1       548-4.41415E+05 4.72170E+03-2.38809E+04 6.91195E+04-1.03310E-07-1.03063E-07
 -1       549 4.76266E+04 1.60029E+04 6.03746E+04-1.11397E+05-6.20219E-08-6.95511E-08
 -1       550-7.58507E+05-2.20718E+04-1.28922E+05 3.85464E+04 1.80808E-09-3.11720E-08
 -1       551 4.06245E+04-7.44951E+05-1.59566E+04-1.24502E+06-1.01121E-07-9.02219E-10
 -1       552 9.29604E+04-7.89821E+05 9.83838E+03-1.77517E+06-7.19010E-08 3.13739E-08
 -1       553 7.15479E+04-7.86262E+05 3.19318E+04-1.23838E+06-1.17492E-07 2.66155E-08
 -1       554 1.31698E+05-8.05716E+05 8.08447E+04-1.77712E+06-7.65431E-08 1.13596E-08
 -1       555 1.01257E+05-8.09909E+05 1.47671E+05-1.23821E+06-1.25081E-07-1.39353E-08
 -1       556 2.23546E+05-3.83472E+05 2.51661E+04-4.06913E+05-2.41562E-08 8.17818E-09
 -1       557 3.53894E+05-4.87731E+05 1.58408E+04-5.27332E+05 5.23869E-10 1.95287E-08
 -1       558 2.05306E+05-3.76177E+05 2.20076E+03-4.11409E+05-2.48838E-08 2.89729E-08
 -1       559 3.28982E+05-4.87731E+05 2.37775E+03-5.47757E+05 6.92671E-09 3.32875E-08
 -1       560 1.90019E+05-3.66590E+05-1.52955E+03-4.22424E+05 8.17818E-09 3.22325E-09
 -1       561 3.09783E+05-4.80042E+05 1.16640E+02-5.60850E+05-1.81899E-09-9.76434E-09
 -1       562 1.77934E+05-3.59083E+05-1.33063E+03-4.31174E+05-1.24710E-08-1.27184E-08
 -1       563 2.95431E+05-4.73784E+05-3.97450E+01-5.70224E+05-1.56797E-08-4.74392E-09
 -1       564 1.69310E+05-3.53710E+05-6.01085E+02-4.37285E+05 2.59024E-09-1.87647E-08
 -1       565 2.85912E+05-4.69639E+05 2.32915E+01-5.76306E+05 7.50879E-09-2.75531E-09
 -1       566 1.64270E+05-3.50521E+05-2.59923E+02-4.40811E+05-7.62520E-09-5.55519E-09
 -1       567 2.81286E+05-4.67627E+05-3.62235E+02-5.79115E+05 1.50030E-08 2.98314E-10
 -1       568 1.62903E+05-3.49684E+05-1.12451E+03-4.41862E+05-1.16152E-08 9.94623E-09
 -1       569 2.80167E+05-4.67554E+05-2.84000E+03-5.77685E+05-7.35599E-09 1.93504E-08
 -1       570 1.66303E+05-3.52917E+05-6.20897E+03-4.40843E+05 1.57161E-09 1.55887E-09
 -1       571 2.90315E+05 1.04492E+04 1.49024E+04-9.52792E+04-7.70615E-09 1.45219E-08
 -1       572 2.92474E+05 3.94104E+03 7.30341E+03-1.04531E+05-2.08775E-08 2.81943E-10
 -1       573 2.91172E+05 1.24208E+03 3.24515E+03-9.51024E+04-6.05814E-09 3.09956E-09
 -1       574 2.91384E+05 7.27059E+02 1.62744E+03-1.04755E+05 6.76937E-09 2.00362E-09
 -1       575 2.91265E+05 4.49129E+02 7.68125E+02-9.50782E+04-1.22149E-08 1.03237E-08
 -1       576 2.91249E+05 4.60777E+02 3.93317E+02-1.04785E+05-2.91150E-08 2.22190E-08
 -1       577 2.91305E+05 3.91263E+02 1.96404E+02-9.50749E+04-1.77715E-08 1.05774E-08
 -1       578 2.91280E+05 4.22718E+02 1.13582E+02-1.04789E+05-7.39328E-09-1.87902E-08
 -1       579 2.91377E+05 3.54458E+02 7.82014E+01-9.50745E+04 6.71207E-09-7.47968E-09
 -1       580 2.91382E+05 3.71562E+02 9.10600E+01-1.04785E+05-1.05902E-08 9.73250E-09
 -1       581 2.91491E+05 2.95750E+02 1.37800E+02-9.50805E+04 3.93084E-09 1.39044E-08
 -1       582 2.91557E+05 3.34182E+02 2.80338E+02-1.04723E+05 1.96451E-09 7.30870E-09
 -1       583 2.91632E+05 3.38514E+02 5.38185E+02-9.51371E+04 3.18323E-09-1.21190E-09
 -1       584 2.91934E+05 7.78134E+02 1.21789E+03-1.04246E+05 8.39646E-09 2.55550E-08
 -1       585 2.91658E+05 1.80323E+03 2.46623E+03-9.55566E+04-3.14685E-10-6.23186E-09
 -1       586-3.47750E+03 1.16810E+05-2.99323E+03-2.50637E+05-5.29872E-09 1.21531E-09
 -1       587-1.35849E+03 1.16550E+05 7.34039E+02-2.75844E+05-7.85622E-09 3.48483E-08
 -1       588 3.92863E+02 1.16363E+05 4.74310E+03-2.50499E+05-4.68208E-09-1.24874E-09
 -1       589 5.08227E+03 1.18835E+05 1.23365E+04-2.75611E+05-8.56744E-09-5.88479E-08
 -1       590 1.66079E+04 1.15029E+05 2.58918E+04-2.50930E+05-4.89126E-09-2.06655E-08
 -1       591-7.63727E+04-1.57955E+04-2.26776E+04-3.24412E+04 1.67779E-09-2.66573E-09
 -1       592-8.05921E+04-1.97567E+04-1.23454E+04-3.60036E+04-3.14258E-09 2.15891E-08
 -1       593-7.87070E+04-1.44248E+04-5.12738E+03-3.40143E+04-3.40320E-09 1.12345E-08
 -1       594-7.74192E+04-1.63566E+04-2.56102E+03-3.61347E+04 9.68433E-09-7.71394E-09
 -1       595-7.88848E+04-1.44283E+04-1.17458E+03-3.40882E+04-2.70715E-09 3.94439E-09
 -1       596-7.71997E+04-1.61966E+04-5.97154E+02-3.61103E+04-2.47687E-09-1.42330E-09
 -1       597-7.89068E+04-1.44436E+04-3.24753E+02-3.40912E+04-1.14679E-08-1.58793E-08
 -1       598-7.71782E+04-1.61899E+04-2.60519E+02-3.61032E+04-7.44200E-09-2.55862E-08
 -1       599-7.89055E+04-1.44441E+04-3.32082E+02-3.40909E+04 1.19276E-08 6.64772E-09
 -1       600-7.71999E+04-1.61971E+04-6.16555E+02-3.61081E+04-5.60806E-09-2.73758E-10
 -1       601-7.88803E+04-1.44296E+04-1.21566E+03-3.40873E+04 7.41579E-09 5.04474E-09
 -1       602-7.74271E+04-1.63616E+04-2.65201E+03-3.61294E+04-4.16412E-09 1.99801E-08
 -1       603-7.86935E+04-1.44290E+04-5.31032E+03-3.40116E+04-1.19023E-08-8.18181E-09
 -1       604-8.07305E+04-1.98637E+04-1.27850E+04-3.59693E+04-1.89061E-10 1.81544E-08
 -1       605-7.62564E+04-1.58660E+04-2.34853E+04-3.24014E+04 8.90935E-09 7.91169E-09
 -1       606 2.66366E+04-1.43173E+04-2.56661E+04 2.39209E+04 6.77119E-09-1.19062E-08
 -1       607 2.22512E+04-4.67599E+03-1.27816E+04 2.68821E+04-1.99998E-09-1.91092E-08
 -1       608 2.47507E+04-8.43521E+02-5.72189E+03 2.37527E+04-5.90262E-09-7.52061E-09
 -1       609 2.42716E+04-2.89022E+02-2.89055E+03 2.70956E+04 9.74978E-10 1.62029E-08
 -1       610 2.45374E+04-4.09867E+01-1.37910E+03 2.37327E+04 4.94401E-09-1.13137E-08
 -1       611 2.44622E+04-4.13139E+01-6.95334E+02 2.71186E+04 7.10861E-09-1.38043E-08
 -1       612 2.44904E+04-2.73529E+01-3.30534E+02 2.37307E+04 5.76074E-09 1.21317E-08
 -1       613 2.44739E+04-3.72855E+01-1.48080E+02 2.71213E+04 1.05983E-08-3.78259E-09
 -1       614 2.44683E+04-3.38191E+01-3.46217E+01 2.37300E+04 1.80262E-09 8.69750E-09
 -1       615 2.44687E+04-3.58437E+01 6.23090E+01 2.71218E+04-2.81761E-09 1.14881E-08
 -1       616 2.44510E+04-3.07359E+01 1.86619E+02 2.37303E+04 5.06498E-09 4.81714E-09
 -1       617 2.44912E+04 3.88442E+00 4.25690E+02 2.71213E+04 6.50220E-09 7.97058E-09
 -1       618 2.44141E+04 9.19510E+01 8.58014E+02 2.37306E+04 3.24903E-08 2.59488E-08
 -1       619 2.47942E+04 6.67276E+02 1.92672E+03 2.71207E+04 5.38407E-08 2.45388E-08
 -1       620 2.41292E+04 2.12651E+03 3.87264E+03 2.37321E+04 2.71216E-08-5.45606E-09
 -1       621 5.09178E+02 3.00985E+05 3.85557E+03 4.12233E+04 1.05729E-09 2.61571E-09
 -1       622 6.74647E+02 3.01874E+05 3.41284E+03 5.98502E+04 1.25419E-09 6.46105E-09
 -1       623 1.43458E+02 3.01179E+05 4.08967E+03 4.10377E+04 1.30285E-09 8.52924E-09
 -1       624 2.10043E+03 3.03070E+05 7.91882E+03 6.00319E+04 1.30819E-09-1.34442E-08
 -1       625 2.05080E+03 2.99609E+05 1.38333E+04 4.10355E+04 1.33105E-09-3.66094E-09
 -1       626 2.60631E+05 6.13194E+04 5.11266E+03 1.26577E+05 4.78394E-10-7.57154E-09
 -1       627 2.58319E+05 6.27121E+04 2.46375E+03 1.30841E+05 6.22640E-09-3.50553E-09
 -1       628 2.60759E+05 5.89803E+04 1.04199E+03 1.27446E+05 4.54747E-11 2.28231E-08
 -1       629 2.57685E+05 6.20328E+04 5.10001E+02 1.31080E+05-7.53425E-09-1.75650E-08
 -1       630 2.60773E+05 5.88672E+04 2.36685E+02 1.27483E+05-2.15232E-09-1.04711E-08
 -1       631 2.57618E+05 6.20069E+04 1.27507E+02 1.31082E+05 7.78209E-09 1.14613E-08
 -1       632 2.60770E+05 5.88711E+04 8.41488E+01 1.27479E+05 1.67151E-08 1.47406E-09
 -1       633 2.57610E+05 6.20087E+04 9.41189E+01 1.31079E+05 7.87941E-09 4.75757E-09
 -1       634 2.60765E+05 5.88682E+04 1.52433E+02 1.27478E+05-3.63605E-09 1.49923E-08
 -1       635 2.57624E+05 6.20070E+04 3.08654E+02 1.31084E+05-5.17812E-09 1.69994E-08
 -1       636 2.60756E+05 5.88624E+04 6.23434E+02 1.27478E+05 1.00067E-09 2.18029E-08
 -1       637 2.57759E+05 6.21039E+04 1.37085E+03 1.31084E+05-6.45196E-09 3.05213E-08
 -1       638 2.60708E+05 5.91652E+04 2.81659E+03 1.27341E+05 4.16821E-09 2.04163E-08
 -1       639 2.59239E+05 6.41617E+04 6.66421E+03 1.30648E+05 7.75617E-09 9.92372E-09
 -1       640 2.60503E+05 6.53100E+04 1.38294E+04 1.24752E+05 6.51789E-09 7.92238E-09
 -1       656 6.65188E+04-1.70243E+06-1.60572E+05-2.56152E+03-4.65661E-10-3.54765E-09
 -1       657-8.79988E+04-1.77499E+06-1.33025E+05 5.14818E+03-1.35515E-10-2.80048E-08
 -1       658 2.12041E+04-1.72304E+06-8.19276E+04-4.64054E+03-4.80441E-10-2.42237E-08
 -1       659-9.51592E+04-1.77839E+06-1.42435E+05 6.87640E+03-2.17551E-09-8.15947E-09
 -1       660 7.36632E+04-1.69904E+06-1.76750E+05-4.28972E+03-2.56841E-09 3.63286E-09
 -1       661 1.58227E+05 1.65546E+04 1.66864E+04 6.18548E+04-4.09091E-09-2.17733E-09
 -1       662 1.67664E+05 2.89098E+04 1.12455E+04 5.81086E+04-1.07428E-09 9.27355E-09
 -1       663 1.61505E+05 2.19080E+04 3.93296E+03 6.09036E+04 1.69018E-09 7.41102E-09
 -1       664 1.63863E+05 2.26495E+04 2.35274E+03 5.92705E+04 3.54953E-09-4.81720E-10
 -1       665 1.62002E+05 2.26391E+04 9.28139E+02 6.07585E+04 1.69860E-09 5.49261E-09
 -1       666 1.63275E+05 2.18134E+04 5.43296E+02 5.94597E+04 8.56679E-09-9.22610E-10
 -1       667 1.62089E+05 2.27223E+04 2.88774E+02 6.07221E+04 1.60020E-09 7.82592E-11
 -1       668 1.63179E+05 2.17537E+04 2.94700E+02 5.95125E+04-8.90140E-10 5.99085E-09
 -1       669 1.62097E+05 2.26972E+04 3.99361E+02 6.07059E+04-3.94883E-09-3.73001E-09
 -1       670 1.63276E+05 2.19705E+04 8.69965E+02 5.95154E+04-1.21755E-08-1.52940E-08
 -1       671 1.61992E+05 2.25099E+04 1.54481E+03 6.07173E+04 1.89787E-09-9.08580E-09
 -1       672 1.64176E+05 2.34734E+04 3.95245E+03 5.92972E+04 7.15613E-09 1.19899E-08
 -1       673 1.61201E+05 2.12324E+04 6.62371E+03 6.09096E+04 3.31318E-09 1.05592E-08
 -1       674 1.70480E+05 3.41151E+04 1.89424E+04 5.74451E+04-2.21348E-10-1.21872E-08
 -1       675 1.55729E+05 1.21663E+04 2.81172E+04 6.24575E+04-1.36561E-09-1.50922E-08
 -1       676 2.40834E+01-2.95553E+05-1.11213E+03-1.37495E+02 2.89404E-09 9.06990E-09
 -1       677-2.94181E+02-2.95822E+05-2.03540E+03 2.74769E+02 1.13942E-08-1.23081E-08
 -1       678 1.97316E+02-2.95362E+05-3.59808E+03-1.37184E+02 1.14937E-09-9.33777E-09
 -1       679-3.59813E+03-2.97994E+05-8.54754E+03 2.73584E+02 9.29538E-09-1.15968E-08
 -1       680 2.14829E+03-2.93382E+05-1.37757E+04-1.34794E+02 3.41697E-09 6.13866E-10
 -1       771-3.05851E+06-7.46738E+05-1.66388E+05-1.46445E+06-2.84635E-08-2.13913E-08
 -1       772-2.98149E+06-8.35664E+05-8.57984E+04-1.56725E+06-2.68337E-08 8.90941E-09
 -1       773-3.09005E+06-7.22152E+05-4.37108E+04-1.47904E+06-1.85391E-08 5.42786E-09
 -1       774-2.97191E+06-8.17056E+05-1.95075E+04-1.59302E+06 2.50293E-08-2.76486E-09
 -1       775-3.10650E+06-7.10614E+05-1.45743E+04-1.48610E+06-4.94765E-09 5.93718E-09
 -1       776-2.98426E+06-8.14009E+05-5.45316E+03-1.61251E+06-1.57161E-08 3.50701E-09
 -1       777-3.12077E+06-7.00317E+05-6.43338E+03-1.49232E+06-1.62399E-08 2.91766E-09
 -1       778-2.99716E+06-8.11180E+05-1.82003E+03-1.62925E+06-2.27301E-08 1.53232E-08
 -1       779-3.13304E+06-6.91319E+05-3.21302E+03-1.49764E+06-2.30793E-08-6.74845E-09
 -1       780-3.00852E+06-8.08482E+05-5.32901E+02-1.64289E+06-7.71979E-09 3.30510E-09
 -1       781-3.14279E+06-6.84066E+05-1.24730E+03-1.50180E+06-3.04135E-08-9.45874E-11
 -1       782-3.01727E+06-8.06193E+05 4.51282E+02-1.65296E+06-3.15486E-08 3.41515E-10
 -1       783-3.14966E+06-6.79026E+05 7.03384E+02-1.50471E+06-7.58882E-09-1.47779E-08
 -1       784-3.02212E+06-8.03904E+05 2.91009E+03-1.65917E+06-2.00562E-08 1.13778E-09
 -1       785-3.15372E+06-6.76018E+05 5.13796E+03-1.50656E+06-4.15821E-08 2.57751E-09
 -1       786 1.22292E+05-9.71571E+03 2.24782E+04-3.18730E+02 7.57328E-10-3.32511E-09
 -1       787 1.32041E+05 1.12486E+04 1.59024E+04-1.35572E+02 4.59838E-09 1.27800E-08
 -1       788 1.26051E+05-1.52247E+03 5.81553E+03-2.84175E+02 2.99201E-09 8.01106E-09
 -1       789 1.27662E+05 1.76222E+03 3.65067E+03-1.88550E+02 2.57830E-09 1.30494E-08
 -1       790 1.26671E+05-2.37037E+02 1.47788E+03-2.65770E+02-2.92098E-09 5.15291E-09
 -1       791 1.26936E+05 2.74191E+02 8.53164E+02-2.20126E+02-9.23938E-09 1.56284E-09
 -1       792 1.26777E+05-3.55597E+01 3.60690E+02-2.52601E+02-6.00362E-09 1.19907E-08
 -1       793 1.26810E+05 3.71468E+01 1.77954E+02-2.44985E+02 1.54288E-10 1.09262E-08
 -1       794 1.26797E+05-1.42199E-01 4.25113E+01-2.40911E+02 5.30335E-09-1.14759E-09
 -1       795 1.26772E+05-3.05352E+01-6.75683E+01-2.69448E+02-4.29227E-09 1.88242E-08
 -1       796 1.26815E+05 3.20841E+01-1.79279E+02-2.28137E+02 3.46078E-09-1.63017E-08
 -1       797 1.26669E+05-2.39402E+02-4.87249E+02-2.98824E+02 4.00529E-09-1.22421E-08
 -1       798 1.26900E+05 2.08568E+02-7.89948E+02-2.11535E+02 2.63950E-09 1.22000E-08
 -1       799 1.26070E+05-1.53762E+03-2.17206E+03-3.39972E+02 6.22143E-09-9.04598E-09
 -1       800 1.27414E+05 1.32924E+03-3.07359E+03-1.86990E+02 1.41014E-10 5.91763E-09
 -1       801-1.70756E+05-9.99162E+06-1.39237E+06 1.41406E+06 9.21718E-08-4.03597E-08
 -1       802 7.37292E+05 5.94219E+06 2.17960E+06-1.74540E+06 2.57605E-07-3.53657E-08
 -1       803-5.36180E+05-1.42589E+07-1.88930E+06 8.96874E+05 7.58773E-08 1.09503E-08
 -1       804 2.86895E+05 2.39133E+06 1.53598E+06 6.77096E+05-1.20654E-07-9.88771E-08
 -1       805 1.89299E+05-6.45487E+06-2.86619E+05-1.00277E+06-4.97239E-08-7.45549E-08
 -1       806-3.08776E+05-5.97126E+04-2.28345E+04-1.22336E+05-7.67432E-09 8.91305E-11
 -1       807-3.10575E+05-5.59834E+04-1.12184E+04-1.27875E+05 1.40119E-08 4.83342E-09
 -1       808-3.09403E+05-5.14832E+04-4.75919E+03-1.26226E+05 5.67525E-10 6.43831E-09
 -1       809-3.08216E+05-5.28311E+04-2.32713E+03-1.28150E+05-1.35112E-08 4.21142E-09
 -1       810-3.09498E+05-5.11967E+04-1.06666E+03-1.26399E+05 9.90167E-09 4.42835E-08
 -1       811-3.08034E+05-5.27045E+04-5.30483E+02-1.28115E+05-1.16415E-09 1.60890E-08
 -1       812-3.09512E+05-5.12214E+04-2.68399E+02-1.26398E+05-6.87942E-09-2.19784E-08
 -1       813-3.08009E+05-5.27067E+04-1.74618E+02-1.28096E+05-1.96269E-09-2.24345E-08
 -1       814-3.09505E+05-5.12311E+04-1.73340E+02-1.26394E+05-3.19324E-09 5.61113E-09
 -1       815-3.08012E+05-5.27089E+04-2.79559E+02-1.28089E+05-7.39510E-09-5.24824E-09
 -1       816-3.09484E+05-5.12302E+04-5.30031E+02-1.26390E+05-2.78578E-09 3.26336E-08
 -1       817-3.08102E+05-5.27595E+04-1.13760E+03-1.28077E+05-2.49129E-08-3.18323E-11
 -1       818-3.09415E+05-5.13908E+04-2.32034E+03-1.26314E+05-9.19226E-09 1.17143E-09
 -1       819-3.09372E+05-5.41615E+04-5.45960E+03-1.27776E+05-2.84217E-10 1.03846E-08
 -1       820-3.08977E+05-5.55149E+04-1.11123E+04-1.24553E+05 2.41107E-09 8.40168E-09
 -1       821-3.77933E+05 2.09004E+04-4.86209E+04 2.06680E+03 1.38760E-08-1.52795E-10
 -1       822-3.97795E+05-2.42101E+04-3.41943E+04-4.25817E+03 4.28633E-09 5.37148E-09
 -1       823-3.85467E+05 3.29278E+03-1.25612E+04 3.29885E+03-1.22876E-08 1.73359E-08
 -1       824-3.88723E+05-3.79799E+03-7.86626E+03-5.09566E+03 2.85912E-10-7.17910E-09
 -1       825-3.87010E+05 5.11459E+02-3.28947E+03 2.90440E+03 1.99328E-08-6.56428E-09
 -1       826-3.86362E+05-5.70880E+02-1.76399E+03-2.90746E+03 2.47413E-08 1.03822E-09
 -1       827-3.87805E+05 5.07100E+01-1.17524E+03 1.11051E+03 1.10040E-08-6.69456E-09
 -1       828-3.85708E+05-1.37073E+02-6.14364E+02 1.09166E+03-1.50027E-09-1.12169E-08
 -1       829-3.87652E+05 6.87135E+01-1.16399E+03-1.09476E+03 1.97554E-09 4.98554E-09
 -1       830-3.86693E+05-6.22151E+02-1.89284E+03 4.68996E+03 1.31191E-09-1.19599E-09
 -1       831-3.86841E+05 5.51903E+02-3.36300E+03-2.48780E+03-5.58414E-09-1.14849E-08
 -1       832-3.88797E+05-3.95151E+03-8.14364E+03 5.89427E+03-2.82528E-09-2.09922E-08
 -1       833-3.85563E+05 3.40643E+03-1.30230E+04-2.29912E+03-3.79933E-09-9.50786E-09
 -1       834-3.97837E+05-2.50459E+04-3.53106E+04 4.00435E+03-4.42154E-09-6.00903E-09
 -1       835-3.77786E+05 2.16149E+04-5.03333E+04-5.97803E+02 5.09183E-09-7.03585E-09
 -1       836-1.40171E+03 3.70124E+05 2.27481E+04-1.57035E+04-6.82121E-09 2.36419E-08
 -1       837 4.85221E+03 3.77248E+05 1.92832E+04-3.21058E+04-7.37691E-09 8.05198E-09
 -1       838-5.55664E+02 3.72116E+05 1.96953E+04-1.56334E+04-6.47560E-09 6.29666E-09
 -1       839 1.24165E+04 3.82884E+05 3.73048E+04-3.21578E+04-6.89397E-09-1.00752E-08
 -1       840-3.83782E+03 3.64431E+05 5.95086E+04-1.56574E+04-6.15546E-09-2.16695E-08
 -1       856-5.20051E+04 8.01177E+03-2.11127E+04-3.96965E+02 4.44197E-09-1.22682E-08
 -1       857-6.07030E+04-9.41361E+03-1.45338E+04 5.62708E+03 5.57654E-09-9.86438E-09
 -1       858-5.54496E+04 1.12358E+03-5.47824E+03-4.20993E+02 2.52294E-09-2.23736E-09
 -1       859-5.67499E+04-1.32189E+03-3.30585E+03 5.66281E+03-6.25516E-09 1.06666E-08
 -1       860-5.59643E+04 1.57357E+02-1.38546E+03-4.32429E+02-4.99938E-10-1.57428E-09
 -1       861-5.61580E+04-1.87897E+02-7.62116E+02 5.67839E+03 2.76597E-09 1.36002E-08
 -1       862-5.60448E+04 2.13177E+01-3.16695E+02-4.36545E+02-5.02054E-09-2.98317E-09
 -1       863-5.60593E+04-2.18427E+01-1.15121E+02 5.68078E+03-7.45218E-09-1.70993E-08
 -1       864-5.60635E+04-4.91903E+00 4.76708E+01-4.34820E+02-1.69869E-09-1.80876E-10
 -1       865-5.60035E+04 5.97461E+01 2.56047E+02 5.67092E+03-2.61556E-09 1.30270E-08
 -1       866-5.60984E+04-6.02835E+01 5.15733E+02-4.26691E+02 6.08111E-09-8.03192E-09
 -1       867-5.57610E+04 4.97808E+02 1.26924E+03 5.64886E+03 6.01116E-09 1.01317E-08
 -1       868-5.63010E+04-4.35059E+02 2.10907E+03-4.12751E+02 1.99503E-09-1.60651E-08
 -1       869-5.42149E+04 3.62085E+03 5.61566E+03 5.61254E+03 7.70828E-09-2.56913E-08
 -1       870-5.76368E+04-3.09849E+03 8.14961E+03-3.90274E+02-1.83582E-09-1.77433E-08
 -1       871-5.51368E+03-2.13745E+04-1.94767E+04 1.30324E+05-4.86216E-09 8.30278E-09
 -1       872-1.97997E+03-2.59035E+04-8.15637E+03 1.68984E+05-1.14151E-08-1.76628E-08
 -1       873 4.05438E+02-2.37126E+04 5.86952E+02 1.30037E+05-4.82441E-09-6.40080E-09
 -1       874 3.30310E+03-2.13050E+04 9.76672E+03 1.69013E+05-1.18043E-08 2.66994E-08
 -1       875 6.83907E+03-2.60395E+04 2.20349E+04 1.30276E+05-5.67888E-09 2.75886E-08
 -1       876 2.93453E+05 4.94561E+04 1.50834E+04 1.17760E+05 8.06199E-09-4.75484E-09
 -1       877 2.94450E+05 5.26326E+04 8.05513E+03 1.22087E+05 7.68614E-09 2.31904E-08
 -1       878 2.94864E+05 4.77852E+04 3.37470E+03 1.18996E+05-3.90219E-09 4.66071E-09
 -1       879 2.92400E+05 5.05864E+04 1.68149E+03 1.22189E+05 4.38558E-09 3.29021E-09
 -1       880 2.94965E+05 4.77680E+04 7.83218E+02 1.19046E+05-1.70826E-09 1.19222E-08
 -1       881 2.92264E+05 5.04989E+04 4.18273E+02 1.22165E+05-3.21450E-09 1.57310E-08
 -1       882 2.94974E+05 4.77812E+04 2.67623E+02 1.19048E+05-9.23546E-09 3.07261E-09
 -1       883 2.92254E+05 5.04944E+04 2.87768E+02 1.22158E+05-3.80510E-09 2.83693E-08
 -1       884 2.94967E+05 4.77784E+04 4.57827E+02 1.19048E+05 7.14067E-10-1.56945E-09
 -1       885 2.92291E+05 5.05007E+04 9.20520E+02 1.22169E+05 3.10956E-09 1.72690E-10
 -1       886 2.94932E+05 4.77516E+04 1.85528E+03 1.19044E+05 3.60925E-09 5.61113E-09
 -1       887 2.92617E+05 5.07145E+04 4.05261E+03 1.22216E+05 1.13502E-08-1.07984E-08
 -1       888 2.94675E+05 4.77967E+04 8.16613E+03 1.18915E+05 1.37389E-09-8.95852E-10
 -1       889 2.97478E+05 5.57703E+04 1.95074E+04 1.22067E+05-1.43945E-09 1.15406E-08
 -1       890 2.91342E+05 5.17560E+04 3.65369E+04 1.15807E+05-6.25278E-09 1.04046E-08
 -1       891-8.91438E+01-1.62587E+05-1.99455E+03 2.71105E+04-2.12890E-09 3.70846E-09
 -1       892-1.74990E+02-1.63114E+05-2.14200E+03 4.11691E+04 1.03341E-09 1.75148E-08
 -1       893 4.38206E+01-1.62651E+05-3.03264E+03 2.71178E+04-2.67823E-09 1.46028E-08
 -1       894-1.50815E+03-1.64259E+05-6.27630E+03 4.10168E+04 4.45357E-09-5.49335E-09
 -1       895-1.19773E+03-1.61343E+05-1.10524E+04 2.72646E+04 2.07046E-09 9.41327E-09
 -1       956-3.76838E+05-5.44171E+03-1.34326E+04 3.08671E+04 6.55928E-09 7.74980E-09
 -1       957-3.79473E+05-1.91977E+03-6.89475E+03 3.70940E+04-5.11591E-10 1.14519E-08
 -1       958-3.78045E+05-2.40700E+02-3.10700E+03 3.06993E+04-4.21915E-09-3.54839E-09
 -1       959-3.78241E+05-1.36187E+02-1.58648E+03 3.72896E+04 5.69116E-09-3.41515E-09
 -1       960-3.78163E+05-4.48410E+01-7.73653E+02 3.06820E+04 6.52108E-09 2.15027E-09
 -1       961-3.78161E+05-6.32284E+01-4.10188E+02 3.73101E+04 8.97876E-09 8.26117E-09
 -1       962-3.78191E+05-4.60371E+01-2.34859E+02 3.06791E+04 4.80622E-09 1.76960E-08
 -1       963-3.78161E+05-5.90216E+01-1.88560E+02 3.73137E+04 2.29159E-09 2.58979E-10
 -1       964-3.78196E+05-4.26723E+01-2.29340E+02 3.06784E+04 1.45697E-09-9.93782E-09
 -1       965-3.78174E+05-5.60579E+01-3.96694E+02 3.73130E+04-2.08655E-09 9.01605E-09
 -1       966-3.78180E+05-3.48398E+01-7.45396E+02 3.06799E+04 1.33791E-08-5.15956E-09
 -1       967-3.78263E+05-1.19542E+02-1.52880E+03 3.72987E+04 1.60569E-08-4.34511E-09
 -1       968-3.78076E+05-2.17156E+02-2.99286E+03 3.06925E+04 1.20172E-08 6.90943E-09
 -1       969-3.79462E+05-1.83266E+03-6.64406E+03 3.71502E+04 5.04633E-09-2.46273E-08
 -1       970-3.76921E+05-5.22506E+03-1.29430E+04 3.08197E+04-4.62569E-09-1.15097E-08
 -1       971-3.45008E+05-1.72505E+03-9.29684E+03 1.53558E+04 2.22553E-09-1.68565E-08
 -1       972-3.47246E+05-1.27001E+03-5.06297E+03 2.12368E+04 4.09864E-09 9.39235E-09
 -1       973-3.46044E+05-6.19638E+01-2.26775E+03 1.52349E+04 3.33512E-09-8.54766E-09
 -1       974-3.46179E+05-8.10094E+01-1.17553E+03 2.13737E+04-2.33013E-09-2.64279E-08
 -1       975-3.46126E+05-1.71670E+01-5.88077E+02 1.52226E+04-5.88898E-10-4.06783E-09
 -1       976-3.46118E+05-3.12494E+01-3.40137E+02 2.13894E+04 3.44698E-10-1.43632E-08
 -1       977-3.46142E+05-1.64317E+01-2.48399E+02 1.52192E+04-5.09863E-09-1.29045E-08
 -1       978-3.46123E+05-2.50406E+01-2.92772E+02 2.13943E+04-3.52782E-09-1.60429E-08
 -1       979-3.46142E+05-7.96750E+00-4.72189E+02 1.52177E+04-5.41206E-09 1.07873E-08
 -1       980-3.46158E+05-2.19851E+01-9.12865E+02 2.13953E+04-1.67620E-09 1.71508E-08
 -1       981-3.46113E+05 1.48511E+01-1.76860E+03 1.52182E+04 5.24392E-09-3.22831E-09
 -1       982-3.46401E+05-1.52661E+02-3.65598E+03 2.13886E+04-1.22964E-09 3.68263E-09
 -1       983-3.45890E+05-9.83897E+01-7.10376E+03 1.52243E+04 7.03039E-10 1.40174E-08
 -1       984-3.49818E+05-3.86274E+03-1.59087E+04 2.13031E+04 5.25915E-09 6.10657E-09
 -1       985-3.42674E+05-5.29647E+03-2.92132E+04 1.52955E+04 2.61753E-09-2.56478E-10
 -3
    1PSTEP                        23          12           1          
  100CL  112 6.62659E-01         409                     0   12           1
 -4  DISP        4    1
 -5  D1          1    2    1    0
 -5  D2          1    2    2    0
 -5  D3          1    2    3    0
 -5  ALL         1    2    0    0    1ALL
 -1         1 2.73120E-03 0.00000E+00 0.00000E+00
 -1         2 1.30384E-03 1.20360E-27-5.29396E-23
 -1         3 3.42611E-04-6.57341E-28 0.00000E+00
 -1         5 1.77078E-04-2.83873E-27 8.27181E-25
 -1         8 2.72068E-03-3.97030E-07 0.00000E+00
 -1         9 2.71374E-03-2.08703E-04 0.00000E+00
 -1        10 3.10674E-04-3.38362E-06-6.61744E-24
 -1        12 1.78927E-04 8.09102E-07 1.24077E-24
 -1        15 2.70873E-03-4.19482E-07 0.00000E+00
 -1        16 2.78703E-03-2.10627E-04 0.00000E+00
 -1        17 2.11439E-04-7.72058E-06 0.00000E+00
 -1        18 1.82881E-04 3.44437E-05 0.00000E+00
 -1        19 1.84474E-04 1.61178E-06 0.00000E+00
 -1        20 1.84614E-04-9.90759E-06 0.00000E+00
 -1        21 1.83721E-04-2.54684E-05 3.30872E-24
 -1        24 3.05843E-05-1.19377E-05 0.00000E+00
 -1        25 1.93672E-04 3.46695E-05 0.00000E+00
 -1        26 1.94345E-04 2.23153E-06 0.00000E+00
 -1        27 1.92153E-04-1.34655E-05 0.00000E+00
 -1        28 1.91838E-04-2.60902E-05 0.00000E+00
 -1        32 0.00000E+00 0.00000E+00 0.00000E+00
 -1        33 2.03229E-04 2.98574E-06 0.00000E+00
 -1        34 2.01111E-04-1.35217E-05 0.00000E+00
 -1        35 1.99179E-04-2.64325E-05 0.00000E+00
 -1        51 2.73049E-03-8.38117E-08 3.30872E-24
 -1        52 2.72919E-03-1.49098E-07 0.00000E+00
 -1        53 2.72744E-03-2.10852E-07 0.00000E+00
 -1        54 2.72535E-03-2.71306E-07 8.27181E-25
 -1        55 2.72305E-03-3.32228E-07-2.48154E-24
 -1        56 2.72275E-03 1.03251E-05 5.29396E-23
 -1        57 2.70550E-03 4.22449E-05 0.00000E+00
 -1        58 2.68203E-03 8.90339E-05 0.00000E+00
 -1        59 2.65562E-03 1.42566E-04-5.29396E-23
 -1        60 2.63030E-03 1.93560E-04 0.00000E+00
 -1        61 2.60994E-03 2.32935E-04 0.00000E+00
 -1        62 2.59719E-03 2.53684E-04 0.00000E+00
 -1        63 2.59370E-03 2.50452E-04 0.00000E+00
 -1        64 2.59917E-03 2.22299E-04 1.05879E-22
 -1        65 2.61249E-03 1.70666E-04 0.00000E+00
 -1        66 2.63132E-03 1.01487E-04 1.05879E-22
 -1        67 2.65310E-03 2.24465E-05 5.29396E-23
 -1        68 2.67495E-03-5.68354E-05 1.05879E-22
 -1        69 2.69402E-03-1.26708E-04-5.29396E-23
 -1        70 2.70769E-03-1.79369E-04-5.29396E-23
 -1        86 1.39253E-03-6.52973E-06-5.29396E-23
 -1        87 1.64868E-03-4.13319E-05-2.64698E-23
 -1        88 1.99316E-03-1.01279E-04 0.00000E+00
 -1        89 2.34252E-03-1.62974E-04 1.32349E-23
 -1        90 2.61046E-03-2.00746E-04-5.29396E-23
 -1       121 3.41714E-04-5.46219E-07 0.00000E+00
 -1       122 3.39027E-04-1.09552E-06 0.00000E+00
 -1       123 3.34560E-04-1.65095E-06 1.32349E-23
 -1       124 3.28329E-04-2.21553E-06-6.61744E-24
 -1       125 3.20357E-04-2.79192E-06 0.00000E+00
 -1       191 1.77129E-04 1.34914E-07 1.65436E-24
 -1       192 1.77283E-04 2.69817E-07-1.24077E-24
 -1       193 1.77540E-04 4.04700E-07-1.65436E-24
 -1       194 1.77900E-04 5.39550E-07-1.65436E-24
 -1       195 1.78362E-04 6.74355E-07 0.00000E+00
 -1       251 2.72038E-03 1.58681E-06 6.61744E-24
 -1       252 2.72007E-03 3.45483E-06 0.00000E+00
 -1       253 2.71977E-03 4.15298E-06 0.00000E+00
 -1       254 2.71946E-03 2.64177E-06 0.00000E+00
 -1       255 2.71915E-03-1.78326E-06 0.00000E+00
 -1       256 2.71881E-03-9.79008E-06-3.30872E-24
 -1       257 2.71844E-03-2.15039E-05-6.61744E-24
 -1       258 2.71802E-03-3.70035E-05 3.30872E-24
 -1       259 2.71754E-03-5.57944E-05-6.61744E-24
 -1       260 2.71701E-03-7.73408E-05 0.00000E+00
 -1       261 2.71645E-03-1.00689E-04 0.00000E+00
 -1       262 2.71586E-03-1.24864E-04 0.00000E+00
 -1       263 2.71528E-03-1.48764E-04 1.32349E-23
 -1       264 2.71472E-03-1.71291E-04 0.00000E+00
 -1       265 2.71422E-03-1.91558E-04 0.00000E+00
 -1       266 2.71869E-03-4.06277E-07 0.00000E+00
 -1       267 2.71670E-03-4.09348E-07-4.13590E-25
 -1       268 2.71470E-03-4.12810E-07 0.00000E+00
 -1       269 2.71271E-03-4.15114E-07 2.06795E-25
 -1       270 2.71072E-03-4.17390E-07 0.00000E+00
 -1       271 2.71992E-03-9.18406E-08-1.32349E-23
 -1       272 2.72019E-03-2.61531E-06 6.61744E-24
 -1       273 2.72145E-03-7.79461E-06 0.00000E+00
 -1       274 2.72362E-03-1.54434E-05 6.61744E-24
 -1       275 2.72661E-03-2.53538E-05 0.00000E+00
 -1       276 2.73035E-03-3.73017E-05 1.32349E-23
 -1       277 2.73473E-03-5.10464E-05-1.32349E-23
 -1       278 2.73967E-03-6.63335E-05 0.00000E+00
 -1       279 2.74506E-03-8.28966E-05 0.00000E+00
 -1       280 2.75081E-03-1.00459E-04-6.61744E-24
 -1       281 2.75682E-03-1.18736E-04 0.00000E+00
 -1       282 2.76297E-03-1.37439E-04 0.00000E+00
 -1       283 2.76918E-03-1.56273E-04 1.32349E-23
 -1       284 2.77532E-03-1.74943E-04-6.61744E-24
 -1       285 2.78131E-03-1.93158E-04 0.00000E+00
 -1       301 2.72705E-03-2.09060E-04 0.00000E+00
 -1       302 2.73867E-03-2.09368E-04-6.61744E-24
 -1       303 2.74952E-03-2.09665E-04 1.32349E-23
 -1       304 2.76057E-03-2.09963E-04-6.61744E-24
 -1       305 2.77276E-03-2.10275E-04 2.64698E-23
 -1       306 2.75198E-03-3.64850E-04-1.05879E-22
 -1       307 2.81584E-03-7.80319E-04 0.00000E+00
 -1       308 2.86241E-03-1.38631E-03 0.00000E+00
 -1       309 2.88640E-03-2.08642E-03 0.00000E+00
 -1       310 2.91812E-03-2.75479E-03 1.05879E-22
 -1       311 2.97789E-03-3.26835E-03-5.29396E-23
 -1       312 3.03534E-03-3.54678E-03 2.11758E-22
 -1       313 3.02916E-03-3.55287E-03 0.00000E+00
 -1       314 2.88548E-03-3.29927E-03 0.00000E+00
 -1       315 2.56378E-03-2.85096E-03 0.00000E+00
 -1       316 2.08312E-03-2.28466E-03 1.05879E-22
 -1       317 1.51007E-03-1.66951E-03 5.29396E-23
 -1       318 9.59261E-04-1.06582E-03 1.05879E-22
 -1       319 5.38773E-04-5.38449E-04 0.00000E+00
 -1       320 2.92195E-04-1.61610E-04 1.05879E-22
 -1       336 2.99092E-04-4.03791E-06 0.00000E+00
 -1       337 2.85434E-04-4.71788E-06 0.00000E+00
 -1       338 2.69763E-04-5.42575E-06 1.32349E-23
 -1       339 2.52151E-04-6.16236E-06 0.00000E+00
 -1       340 2.32679E-04-6.93218E-06 1.32349E-23
 -1       406 1.79595E-04 9.43772E-07 1.65436E-24
 -1       407 1.80365E-04 1.07833E-06 8.27181E-25
 -1       408 1.81239E-04 1.21272E-06-1.65436E-24
 -1       409 1.82215E-04 1.34677E-06-8.27181E-25
 -1       410 1.83294E-04 1.48021E-06-4.13590E-25
 -1       521 2.82585E-03-3.76102E-04 0.00000E+00
 -1       522 2.88787E-03-8.12290E-04 0.00000E+00
 -1       523 2.92779E-03-1.44690E-03 0.00000E+00
 -1       524 2.94225E-03-2.17662E-03-5.29396E-23
 -1       525 2.96582E-03-2.87254E-03 0.00000E+00
 -1       526 3.02199E-03-3.40884E-03-5.29396E-23
 -1       527 3.07905E-03-3.69811E-03 0.00000E+00
 -1       528 3.07047E-03-3.70223E-03-5.29396E-23
 -1       529 2.91425E-03-3.43393E-03-2.11758E-22
 -1       530 2.56757E-03-2.96641E-03 0.00000E+00
 -1       531 2.05037E-03-2.38033E-03-1.05879E-22
 -1       532 1.43585E-03-1.74741E-03 0.00000E+00
 -1       533 8.44365E-04-1.12527E-03 1.05879E-22
 -1       534 3.89426E-04-5.76408E-04 0.00000E+00
 -1       535 1.21023E-04-1.79502E-04-2.11758E-22
 -1       536 2.10684E-04 2.72011E-05-6.61744E-24
 -1       537 2.08766E-04 8.76379E-05 0.00000E+00
 -1       538 2.05803E-04 1.64323E-04-3.30872E-24
 -1       539 2.02307E-04 2.47907E-04-1.65436E-24
 -1       540 1.99161E-04 3.26887E-04 0.00000E+00
 -1       541 1.97117E-04 3.89784E-04-1.65436E-24
 -1       542 1.96173E-04 4.29845E-04-3.30872E-24
 -1       543 1.95948E-04 4.40466E-04 0.00000E+00
 -1       544 1.95626E-04 4.22421E-04 3.30872E-24
 -1       545 1.94454E-04 3.76704E-04-1.65436E-24
 -1       546 1.92269E-04 3.11441E-04-3.30872E-24
 -1       547 1.89311E-04 2.34880E-04 1.65436E-24
 -1       548 1.86381E-04 1.58695E-04 0.00000E+00
 -1       549 1.84266E-04 9.45611E-05 0.00000E+00
 -1       550 1.83168E-04 5.05093E-05 0.00000E+00
 -1       551 1.86241E-04-8.28860E-06 0.00000E+00
 -1       552 1.57798E-04-8.93707E-06 0.00000E+00
 -1       553 1.27052E-04-9.64780E-06-3.30872E-24
 -1       554 9.49631E-05-1.03997E-05 6.61744E-24
 -1       555 6.24891E-05-1.11654E-05 0.00000E+00
 -1       556 2.03791E-04 1.18336E-05 0.00000E+00
 -1       557 1.97613E-04 2.76924E-05 0.00000E+00
 -1       558 1.92769E-04 4.01435E-05 0.00000E+00
 -1       559 1.89127E-04 4.94975E-05 0.00000E+00
 -1       560 1.86556E-04 5.60652E-05 0.00000E+00
 -1       561 1.84930E-04 6.01599E-05 0.00000E+00
 -1       562 1.84122E-04 6.20963E-05 0.00000E+00
 -1       563 1.84009E-04 6.21899E-05 0.00000E+00
 -1       564 1.84468E-04 6.07571E-05 0.00000E+00
 -1       565 1.85379E-04 5.81151E-05 0.00000E+00
 -1       566 1.86622E-04 5.45814E-05 0.00000E+00
 -1       567 1.88078E-04 5.04742E-05 0.00000E+00
 -1       568 1.89629E-04 4.61116E-05 0.00000E+00
 -1       569 1.91157E-04 4.18119E-05-8.27181E-25
 -1       570 1.92543E-04 3.78933E-05 0.00000E+00
 -1       571 1.82978E-04 3.23139E-05 0.00000E+00
 -1       572 1.83077E-04 3.01183E-05 1.24077E-24
 -1       573 1.83176E-04 2.78725E-05 0.00000E+00
 -1       574 1.83275E-04 2.55929E-05 8.27181E-25
 -1       575 1.83375E-04 2.32961E-05 3.30872E-24
 -1       576 1.83474E-04 2.09985E-05 0.00000E+00
 -1       577 1.83574E-04 1.87165E-05-3.30872E-24
 -1       578 1.83673E-04 1.64669E-05 6.61744E-24
 -1       579 1.83773E-04 1.42661E-05 6.61744E-24
 -1       580 1.83873E-04 1.21306E-05 3.30872E-24
 -1       581 1.83973E-04 1.00770E-05 0.00000E+00
 -1       582 1.84073E-04 8.12187E-06 3.30872E-24
 -1       583 1.84173E-04 6.28163E-06 6.61744E-24
 -1       584 1.84273E-04 4.57264E-06 3.30872E-24
 -1       585 1.84374E-04 3.01109E-06 0.00000E+00
 -1       586 1.84639E-04 3.44835E-05-1.65436E-24
 -1       587 1.86355E-04 3.45227E-05-8.27181E-25
 -1       588 1.88073E-04 3.45615E-05 0.00000E+00
 -1       589 1.89837E-04 3.45996E-05 0.00000E+00
 -1       590 1.91689E-04 3.46365E-05 0.00000E+00
 -1       591 1.83611E-04 3.24074E-05 1.03398E-25
 -1       592 1.84344E-04 3.03508E-05 0.00000E+00
 -1       593 1.85081E-04 2.82797E-05 0.00000E+00
 -1       594 1.85822E-04 2.61991E-05 0.00000E+00
 -1       595 1.86565E-04 2.41138E-05 0.00000E+00
 -1       596 1.87307E-04 2.20284E-05 0.00000E+00
 -1       597 1.88048E-04 1.99480E-05-8.27181E-25
 -1       598 1.88785E-04 1.78771E-05 0.00000E+00
 -1       599 1.89517E-04 1.58207E-05 8.27181E-25
 -1       600 1.90241E-04 1.37834E-05-4.13590E-25
 -1       601 1.90957E-04 1.17701E-05-8.27181E-25
 -1       602 1.91662E-04 9.78548E-06 0.00000E+00
 -1       603 1.92354E-04 7.83439E-06 0.00000E+00
 -1       604 1.93033E-04 5.92170E-06-5.16988E-26
 -1       605 1.93696E-04 4.05209E-06 0.00000E+00
 -1       606 1.84488E-04 4.45885E-07 0.00000E+00
 -1       607 1.84497E-04-6.34315E-07 0.00000E+00
 -1       608 1.84506E-04-1.63385E-06 0.00000E+00
 -1       609 1.84515E-04-2.55839E-06 1.65436E-24
 -1       610 1.84523E-04-3.41366E-06 3.30872E-24
 -1       611 1.84531E-04-4.20546E-06 0.00000E+00
 -1       612 1.84540E-04-4.93955E-06 0.00000E+00
 -1       613 1.84548E-04-5.62177E-06 0.00000E+00
 -1       614 1.84556E-04-6.25789E-06 0.00000E+00
 -1       615 1.84565E-04-6.85373E-06 0.00000E+00
 -1       616 1.84573E-04-7.41508E-06 0.00000E+00
 -1       617 1.84581E-04-7.94775E-06 0.00000E+00
 -1       618 1.84590E-04-8.45753E-06 0.00000E+00
 -1       619 1.84598E-04-8.95024E-06 0.00000E+00
 -1       620 1.84606E-04-9.43166E-06 0.00000E+00
 -1       621 1.85835E-04 1.71563E-06 1.65436E-24
 -1       622 1.87354E-04 1.81973E-06-1.65436E-24
 -1       623 1.88998E-04 1.92361E-06 0.00000E+00
 -1       624 1.90734E-04 2.02717E-06 8.27181E-25
 -1       625 1.92527E-04 2.13044E-06 0.00000E+00
 -1       626 1.85024E-04 4.81982E-07 3.30872E-24
 -1       627 1.85550E-04-5.84911E-07 0.00000E+00
 -1       628 1.86056E-04-1.59674E-06 0.00000E+00
 -1       629 1.86545E-04-2.56165E-06 0.00000E+00
 -1       630 1.87019E-04-3.48785E-06 0.00000E+00
 -1       631 1.87482E-04-4.38351E-06 0.00000E+00
 -1       632 1.87937E-04-5.25684E-06-3.30872E-24
 -1       633 1.88386E-04-6.11604E-06 0.00000E+00
 -1       634 1.88833E-04-6.96932E-06 0.00000E+00
 -1       635 1.89281E-04-7.82486E-06 1.65436E-24
 -1       636 1.89733E-04-8.69088E-06 0.00000E+00
 -1       637 1.90192E-04-9.57557E-06 0.00000E+00
 -1       638 1.90660E-04-1.04871E-05 3.30872E-24
 -1       639 1.91142E-04-1.14338E-05-8.27181E-25
 -1       640 1.91639E-04-1.24238E-05 3.30872E-24
 -1       656 1.85322E-04-1.04859E-05-6.61744E-24
 -1       657 1.86450E-04-1.10876E-05 0.00000E+00
 -1       658 1.87858E-04-1.16880E-05 0.00000E+00
 -1       659 1.89401E-04-1.22881E-05 0.00000E+00
 -1       660 1.90894E-04-1.28899E-05 0.00000E+00
 -1       661 1.84879E-04-1.04286E-05-8.27181E-25
 -1       662 1.85182E-04-1.10415E-05 0.00000E+00
 -1       663 1.85517E-04-1.17410E-05 0.00000E+00
 -1       664 1.85882E-04-1.25206E-05-8.27181E-25
 -1       665 1.86276E-04-1.33745E-05 0.00000E+00
 -1       666 1.86695E-04-1.42967E-05 0.00000E+00
 -1       667 1.87137E-04-1.52817E-05 0.00000E+00
 -1       668 1.87601E-04-1.63238E-05 0.00000E+00
 -1       669 1.88085E-04-1.74176E-05-1.65436E-24
 -1       670 1.88585E-04-1.85578E-05 8.27181E-25
 -1       671 1.89101E-04-1.97392E-05 0.00000E+00
 -1       672 1.89630E-04-2.09567E-05 0.00000E+00
 -1       673 1.90171E-04-2.22052E-05 0.00000E+00
 -1       674 1.90721E-04-2.34801E-05 0.00000E+00
 -1       675 1.91279E-04-2.47761E-05 0.00000E+00
 -1       676 1.85079E-04-2.55726E-05 3.30872E-24
 -1       677 1.86435E-04-2.56768E-05 0.00000E+00
 -1       678 1.87790E-04-2.57810E-05 0.00000E+00
 -1       679 1.89143E-04-2.58848E-05 0.00000E+00
 -1       680 1.90492E-04-2.59886E-05 0.00000E+00
 -1       771 1.86292E-05 1.47998E-05 0.00000E+00
 -1       772 8.57177E-06 3.67588E-05-2.64698E-23
 -1       773 3.21324E-07 5.41697E-05 0.00000E+00
 -1       774-6.24657E-06 6.72906E-05-2.64698E-23
 -1       775-1.12536E-05 7.63900E-05-5.29396E-23
 -1       776-1.48265E-05 8.17531E-05 2.64698E-23
 -1       777-1.70917E-05 8.36754E-05 5.29396E-23
 -1       778-1.81780E-05 8.24660E-05-2.64698E-23
 -1       779-1.82139E-05 7.84427E-05-5.29396E-23
 -1       780-1.73298E-05 7.19347E-05 0.00000E+00
 -1       781-1.56551E-05 6.32779E-05-5.29396E-23
 -1       782-1.33208E-05 5.28172E-05 0.00000E+00
 -1       783-1.04570E-05 4.09019E-05-5.29396E-23
 -1       784-7.19509E-06 2.78877E-05 0.00000E+00
 -1       785-3.66537E-06 1.41334E-05 0.00000E+00
 -1       786 1.93710E-04 3.24145E-05 3.23117E-27
 -1       787 1.93751E-04 3.02091E-05 4.13590E-25
 -1       788 1.93792E-04 2.80450E-05 8.27181E-25
 -1       789 1.93834E-04 2.59142E-05 0.00000E+00
 -1       790 1.93877E-04 2.38122E-05 0.00000E+00
 -1       791 1.93919E-04 2.17343E-05-8.27181E-25
 -1       792 1.93961E-04 1.96783E-05 1.65436E-24
 -1       793 1.94004E-04 1.76422E-05 0.00000E+00
 -1       794 1.94046E-04 1.56257E-05-1.65436E-24
 -1       795 1.94088E-04 1.36290E-05 0.00000E+00
 -1       796 1.94131E-04 1.16538E-05-1.65436E-24
 -1       797 1.94174E-04 9.70214E-06-8.27181E-25
 -1       798 1.94216E-04 7.77837E-06-1.65436E-24
 -1       799 1.94259E-04 5.88690E-06 8.27181E-25
 -1       800 1.94302E-04 4.03537E-06-1.65436E-24
 -1       801 1.47861E-04 3.11683E-05 0.00000E+00
 -1       802 9.35226E-06 1.94452E-05 2.64698E-23
 -1       803-1.08945E-04 9.82377E-06 5.29396E-23
 -1       804-9.65488E-05 6.83827E-06 0.00000E+00
 -1       805-3.18974E-05 2.68638E-06-5.29396E-23
 -1       806 1.94402E-04 3.23460E-05 3.30872E-24
 -1       807 1.95118E-04 3.00487E-05 0.00000E+00
 -1       808 1.95822E-04 2.77827E-05 3.30872E-24
 -1       809 1.96512E-04 2.55522E-05 1.65436E-24
 -1       810 1.97188E-04 2.33612E-05 0.00000E+00
 -1       811 1.97847E-04 2.12135E-05-1.65436E-24
 -1       812 1.98488E-04 1.91133E-05-3.30872E-24
 -1       813 1.99110E-04 1.70643E-05 0.00000E+00
 -1       814 1.99712E-04 1.50704E-05-3.30872E-24
 -1       815 2.00291E-04 1.31357E-05-1.65436E-24
 -1       816 2.00848E-04 1.12640E-05 0.00000E+00
 -1       817 2.01379E-04 9.45909E-06-1.65436E-24
 -1       818 2.01884E-04 7.72498E-06 0.00000E+00
 -1       819 2.02361E-04 6.06551E-06 0.00000E+00
 -1       820 2.02809E-04 4.48450E-06 1.65436E-24
 -1       821 1.94216E-04-1.03257E-07 0.00000E+00
 -1       822 1.94077E-04-3.54239E-06-1.65436E-24
 -1       823 1.93935E-04-7.67284E-06 3.30872E-24
 -1       824 1.93791E-04-1.20772E-05-1.65436E-24
 -1       825 1.93647E-04-1.62643E-05-3.30872E-24
 -1       826 1.93506E-04-1.97441E-05 1.65436E-24
 -1       827 1.93368E-04-2.22189E-05 0.00000E+00
 -1       828 1.93232E-04-2.33970E-05 0.00000E+00
 -1       829 1.93097E-04-2.33394E-05 0.00000E+00
 -1       830 1.92961E-04-2.21140E-05 0.00000E+00
 -1       831 1.92823E-04-2.01066E-05 0.00000E+00
 -1       832 1.92686E-04-1.77074E-05 1.65436E-24
 -1       833 1.92548E-04-1.54131E-05-3.30872E-24
 -1       834 1.92413E-04-1.37202E-05 0.00000E+00
 -1       835 1.92279E-04-1.29618E-05 8.27181E-25
 -1       836 1.96035E-04 2.35663E-06-3.30872E-24
 -1       837 1.97601E-04 2.48484E-06-1.65436E-24
 -1       838 1.99071E-04 2.61300E-06 0.00000E+00
 -1       839 2.00479E-04 2.74044E-06-8.27181E-25
 -1       840 2.01855E-04 2.86773E-06 0.00000E+00
 -1       856 1.92137E-04-1.45295E-05 0.00000E+00
 -1       857 1.92118E-04-1.54578E-05 0.00000E+00
 -1       858 1.92098E-04-1.62716E-05 2.06795E-25
 -1       859 1.92079E-04-1.69918E-05 2.06795E-25
 -1       860 1.92059E-04-1.76399E-05 4.13590E-25
 -1       861 1.92039E-04-1.82370E-05 2.06795E-25
 -1       862 1.92020E-04-1.88044E-05 0.00000E+00
 -1       863 1.92000E-04-1.93635E-05 0.00000E+00
 -1       864 1.91980E-04-1.99356E-05-8.27181E-25
 -1       865 1.91960E-04-2.05420E-05-4.13590E-25
 -1       866 1.91941E-04-2.12040E-05-8.27181E-25
 -1       867 1.91921E-04-2.19429E-05 0.00000E+00
 -1       868 1.91901E-04-2.27799E-05-8.27181E-25
 -1       869 1.91880E-04-2.37361E-05 4.13590E-25
 -1       870 1.91860E-04-2.48326E-05 0.00000E+00
 -1       871 1.93505E-04-1.34704E-05 8.27181E-25
 -1       872 1.95004E-04-1.34787E-05 0.00000E+00
 -1       873 1.96582E-04-1.34878E-05-4.13590E-25
 -1       874 1.98172E-04-1.34976E-05-2.06795E-25
 -1       875 1.99704E-04-1.35079E-05 6.20385E-25
 -1       876 1.92679E-04-1.45149E-05 0.00000E+00
 -1       877 1.93183E-04-1.54976E-05 0.00000E+00
 -1       878 1.93665E-04-1.64214E-05 3.30872E-24
 -1       879 1.94128E-04-1.72938E-05 1.65436E-24
 -1       880 1.94575E-04-1.81222E-05 0.00000E+00
 -1       881 1.95008E-04-1.89139E-05-1.65436E-24
 -1       882 1.95431E-04-1.96763E-05 0.00000E+00
 -1       883 1.95845E-04-2.04167E-05 1.65436E-24
 -1       884 1.96253E-04-2.11425E-05 0.00000E+00
 -1       885 1.96659E-04-2.18610E-05 0.00000E+00
 -1       886 1.97065E-04-2.25795E-05 0.00000E+00
 -1       887 1.97473E-04-2.33054E-05 0.00000E+00
 -1       888 1.97887E-04-2.40460E-05 0.00000E+00
 -1       889 1.98308E-04-2.48089E-05-1.65436E-24
 -1       890 1.98740E-04-2.56013E-05-1.65436E-24
 -1       891 1.93204E-04-2.61477E-05-1.65436E-24
 -1       892 1.94546E-04-2.62054E-05 0.00000E+00
 -1       893 1.95840E-04-2.62630E-05 8.27181E-25
 -1       894 1.97060E-04-2.63203E-05 4.13590E-25
 -1       895 1.98181E-04-2.63773E-05 0.00000E+00
 -1       956 2.03098E-04 1.66170E-06 3.30872E-24
 -1       957 2.02966E-04 4.29331E-07-1.65436E-24
 -1       958 2.02833E-04-7.22117E-07 0.00000E+00
 -1       959 2.02701E-04-1.80399E-06 0.00000E+00
 -1       960 2.02568E-04-2.82770E-06-3.30872E-24
 -1       961 2.02435E-04-3.80465E-06-1.65436E-24
 -1       962 2.02302E-04-4.74630E-06 0.00000E+00
 -1       963 2.02169E-04-5.66411E-06 0.00000E+00
 -1       964 2.02037E-04-6.56953E-06-3.30872E-24
 -1       965 2.01904E-04-7.47400E-06 1.65436E-24
 -1       966 2.01771E-04-8.38901E-06 3.30872E-24
 -1       967 2.01639E-04-9.32599E-06 0.00000E+00
 -1       968 2.01506E-04-1.02964E-05-6.61744E-24
 -1       969 2.01373E-04-1.13116E-05 0.00000E+00
 -1       970 2.01241E-04-1.23831E-05-3.30872E-24
 -1       971 2.00991E-04-1.46600E-05 0.00000E+00
 -1       972 2.00870E-04-1.57039E-05 1.65436E-24
 -1       973 2.00749E-04-1.66636E-05 0.00000E+00
 -1       974 2.00627E-04-1.75501E-05 1.65436E-24
 -1       975 2.00506E-04-1.83742E-05 0.00000E+00
 -1       976 2.00384E-04-1.91467E-05 1.65436E-24
 -1       977 2.00263E-04-1.98785E-05 0.00000E+00
 -1       978 2.00142E-04-2.05806E-05 0.00000E+00
 -1       979 2.00020E-04-2.12638E-05 0.00000E+00
 -1       980 1.99899E-04-2.19390E-05 1.65436E-24
 -1       981 1.99778E-04-2.26172E-05-3.30872E-24
 -1       982 1.99657E-04-2.33091E-05 0.00000E+00
 -1       983 1.99536E-04-2.40258E-05 0.00000E+00
 -1       984 1.99415E-04-2.47780E-05-1.65436E-24
 -1       985 1.99295E-04-2.55767E-05 0.00000E+00
 -3
    1PSTEP                        24          12           1          
  100CL  112 6.62659E-01         409                     0   12           1
 -4  STRESS      6    1
 -5  SXX         1    4    1    1
 -5  SYY         1    4    2    2
 -5  SZZ         1    4    3    3
 -5  SXY         1    4    1    2
 -5  SYZ         1    4    2    3
 -5  SZX         1    4    3    1
 -1         1-5.34835E+06-1.54301E+06-1.13039E+06-1.28828E+06-4.04543E-09 1.81375E-07
 -1         2 1.60628E+06 2.34564E+07 5.42342E+06 7.12961E+06 2.79106E-08 1.82394E-07
 -1         3-1.48630E+03-1.55086E+06 4.04274E+02-2.19995E+03-6.73122E-10-4.96148E-08
 -1         5-7.54672E+01 3.86340E+05 9.98060E+00-1.34384E+00-5.28778E-10-1.81717E-09
 -1         8-5.47859E+05-1.99329E+05-6.25884E+04-2.39327E+05 1.54614E-10 1.50794E-07
 -1         9 1.18672E+07 4.12453E+06 2.86299E+06-2.49527E+05-2.59141E-08-1.97208E-08
 -1        10-2.30081E+03-1.61611E+06-3.92824E+03-1.48874E+04-1.32331E-08-1.56779E-08
 -1        12-7.15497E+01 3.86362E+05 3.28103E+02-9.16001E+00-6.14861E-10 1.26229E-08
 -1        15 9.12110E+02 5.01250E+02 2.94837E+03 7.85847E-01-4.72696E-10-3.33758E-07
 -1        16 2.29354E+07-3.45408E+05 3.11804E+06-2.32690E+06-1.62205E-08 1.37370E-08
 -1        17 8.40416E+06 6.29315E+06 2.26936E+06 6.01817E+06 2.30328E-08 2.99304E-08
 -1        18 1.41869E+05 3.32373E+04 3.86433E+03-1.19676E+05 1.22943E-08 7.78027E-09
 -1        19 1.22390E+05 1.41610E+05-9.50430E+02 2.19776E+04 1.61999E-09 3.77986E-10
 -1        20-8.19896E+04-5.73590E+05-1.28712E+05 2.50830E+04-3.11911E-09 1.35800E-08
 -1        21-4.55492E+01-2.95876E+05-9.23498E+02 2.75474E+02 1.37343E-08-1.80275E-08
 -1        24 1.41170E+07 1.21447E+07 3.90536E+06 1.12433E+07-1.69957E-07-6.07300E-08
 -1        25 1.24919E+05 2.68172E+05 1.00172E+05-6.46472E+05 6.49015E-10 7.31707E-09
 -1        26-5.60822E+04 9.18673E+04-2.51944E+04 1.49847E+03 5.09317E-10 6.62444E-09
 -1        27-7.54503E+04-3.09865E+05-1.13250E+05 6.89332E+04 3.81366E-09-9.02522E-10
 -1        28 2.22295E+04-8.53145E+04 1.68903E+04 2.05939E+04-4.43424E-09-1.56479E-09
 -1        32-1.67987E+06-3.18131E+06-1.97736E+05 4.59396E+05-4.22588E-08-1.00665E-08
 -1        33-1.78467E+05 9.30539E+04 3.23970E+04-3.82078E+04-2.90629E-09 3.99086E-09
 -1        34-2.23527E+05-2.50381E+04 6.89815E+02 7.56556E+04-4.70232E-09-1.18319E-08
 -1        35-2.29198E+04-3.38330E+04-1.34794E+03 5.14727E+04-5.30860E-09-1.15651E-08
 -1        51 6.10580E+04-1.68869E+05 1.29016E+05-4.28472E+05-5.82077E-11 1.55371E-07
 -1        52 2.06141E+04-1.46255E+05 6.75894E+04-4.99743E+05-6.09361E-11 7.59173E-08
 -1        53 4.13055E+03-1.61587E+05 3.50203E+04-4.27009E+05 1.49157E-10-1.37341E-07
 -1        54 7.15367E+03-1.57366E+05 2.84218E+04-5.01167E+05-5.82077E-11-3.18052E-07
 -1        55 1.56132E+04-1.64223E+05 3.41550E+04-4.26931E+05 5.45697E-11-1.06545E-07
 -1        56-9.83763E+06-1.43135E+06-9.39488E+05-4.14159E+06 9.60426E-10-2.02475E-07
 -1        57-1.11984E+07-6.81356E+05-5.40266E+05-2.59577E+06 3.27054E-08-2.38710E-07
 -1        58-9.56915E+06-1.91989E+06-2.02702E+05-4.36442E+06 1.82699E-08 2.29629E-08
 -1        59-1.14690E+07-1.06365E+05-1.05161E+05-2.51664E+06-1.13225E-07 1.39851E-07
 -1        60-9.67354E+06-1.92243E+06-6.06698E+04-4.31421E+06 4.07235E-08 1.08928E-07
 -1        61-1.06828E+07-5.02137E+05 2.88298E+04-2.77424E+06-2.76887E-08 1.50245E-07
 -1        62-1.01790E+07-1.64356E+06-9.66146E+04-3.96484E+06 9.09495E-09-6.59929E-09
 -1        63-9.60512E+06-1.33257E+06 7.48737E+04-3.56773E+06-6.69970E-08 1.41246E-07
 -1        64-1.06059E+07-1.19592E+06-8.90892E+04-3.43023E+06 7.78527E-09 3.81951E-08
 -1        65-9.21312E+06-2.02368E+06 2.45299E+04-4.64110E+06-4.23461E-08-1.85194E-07
 -1        66-1.07362E+07-8.37635E+05-4.87868E+04-3.01705E+06 6.26460E-09 1.09159E-07
 -1        67-9.26902E+06-2.30387E+06-9.44138E+04-5.15692E+06-6.15873E-08-1.36220E-07
 -1        68-1.07163E+07-7.98073E+05-1.89390E+05-3.01608E+06-2.91693E-08-8.67294E-09
 -1        69-9.40682E+06-2.36180E+06-4.78180E+05-4.60985E+06-3.06773E-08-2.21480E-08
 -1        70-1.04425E+07-9.01826E+05-8.65874E+05-3.46465E+06 9.89712E-09-3.08501E-08
 -1        86-1.63937E+06-1.64034E+07-2.97071E+06-3.34333E+06-2.80728E-07-1.10827E-07
 -1        87 2.59798E+06 6.84273E+06 2.47000E+06 6.09137E+06-4.96046E-07-1.19402E-07
 -1        88-4.99524E+05-1.85819E+06 2.36113E+05-2.66671E+06-4.12745E-07-5.22896E-08
 -1        89 3.47669E+06 6.51286E+06 2.53315E+06 6.30348E+06-6.14535E-07-3.33959E-07
 -1        90-2.41310E+06-1.61573E+07-3.20365E+06-3.58918E+06-1.54447E-07-1.05458E-07
 -1       121-2.03586E+03-1.55575E+06-5.47924E+02 1.09036E+03 1.41368E-09 1.23473E-08
 -1       122-1.30151E+03-1.55092E+06 7.66079E+02-4.40413E+03-5.41384E-09 1.52504E-08
 -1       123-2.05562E+03-1.55589E+06 2.55950E+02 3.25651E+03 4.35227E-09 2.18279E-08
 -1       124 3.26499E+02-1.55047E+06 2.93458E+03-9.21855E+03-1.06093E-08-3.83079E-09
 -1       125-2.86067E+03-1.55678E+06 3.43860E+03 5.85885E+03 6.31007E-09-9.12405E-09
 -1       191-7.95274E+01 3.86358E+05 8.47556E+00 7.00782E-01-5.80373E-10-8.13998E-09
 -1       192-7.64309E+01 3.86341E+05 2.12989E+01-4.30957E+00-7.50426E-10 1.62354E-08
 -1       193-8.20641E+01 3.86358E+05 3.62505E+01 3.78551E+00-1.04542E-09-1.18562E-08
 -1       194-7.95207E+01 3.86344E+05 8.09702E+01-9.77965E+00-7.28910E-10-4.60041E-08
 -1       195-8.69331E+01 3.86355E+05 1.55009E+02 6.36492E+00-1.62518E-09-2.40034E-08
 -1       251-8.65601E+05 1.65291E+04-3.85736E+04-1.49994E+04 5.91807E-09-1.75593E-07
 -1       252-8.80084E+05-1.91351E+04-2.68168E+04 5.34749E+04-1.03075E-08-4.35962E-08
 -1       253-8.74320E+05 2.53996E+03-1.04165E+04-1.06307E+04-2.23463E-09 8.75707E-09
 -1       254-8.65921E+05-3.09324E+03-4.53956E+03 3.82173E+04 1.45250E-08-1.67870E-07
 -1       255-8.79090E+05 3.44249E+01-3.69973E+03 2.53862E+02-1.10288E-08 7.91437E-08
 -1       256-8.60010E+05-2.76489E+02 1.38895E+03 1.34675E+04 1.91903E-08 2.81986E-07
 -1       257-8.79738E+05-6.41926E+02-1.54261E+03 1.41057E+04-9.84505E-09 1.23471E-07
 -1       258-8.63111E+05 9.86520E+02 2.90288E+03-1.26134E+04 1.16490E-08 7.84947E-08
 -1       259-8.76259E+05-1.02079E+03 1.29716E+03 2.63319E+04-2.20621E-09 5.54083E-08
 -1       260-8.70262E+05 3.09624E+03 5.65578E+03-3.14548E+04 1.33298E-09-3.17005E-07
 -1       261-8.73290E+05-2.21006E+03 8.67429E+03 3.29659E+04 2.76530E-08-5.52623E-08
 -1       262-8.69266E+05 1.19982E+04 2.15684E+04-3.69964E+04 2.07397E-09 5.09831E-08
 -1       263-8.77537E+05-9.67109E+03 3.41389E+04 3.18846E+04 1.16186E-08-9.86183E-08
 -1       264-8.38184E+05 6.73762E+04 9.46602E+04-2.73175E+04 1.24994E-08-2.11221E-08
 -1       265-9.03831E+05-5.77535E+04 1.31567E+05 2.32726E+04 1.16401E-08-1.25292E-07
 -1       266-1.65124E+04-7.72206E+03 3.87389E+04-1.68131E+01 5.63887E-11-7.48665E-08
 -1       267 1.91422E+04 8.99892E+03 2.73821E+04 1.94008E+01-6.36646E-11-4.41142E-07
 -1       268-2.56694E+03-1.27456E+03 1.01777E+04-2.47190E+00 4.36557E-11-6.16620E-08
 -1       269 3.03079E+03 1.52531E+03 6.61544E+03 2.87950E+00 7.91260E-11 1.77779E-07
 -1       270-4.54923E+02-2.50621E+02 3.19336E+03-3.90766E-01-6.36646E-12 2.15753E-07
 -1       271-1.44633E+06-1.85090E+05-1.09097E+05-5.63483E+05-1.30731E-08 2.81660E-07
 -1       272-1.43585E+06-3.00557E+05-6.82715E+04-6.06616E+05 1.92795E-08-2.37624E-08
 -1       273-1.46953E+06-2.07846E+05-2.65507E+04-5.55432E+05-1.52722E-08-7.41329E-08
 -1       274-1.40978E+06-2.73050E+05-1.36683E+04-6.22128E+05 1.55342E-09-2.23052E-07
 -1       275-1.47516E+06-2.07170E+05-6.66867E+03-5.51605E+05 1.84591E-08 5.66488E-08
 -1       276-1.40443E+06-2.74127E+05-2.73320E+03-6.31093E+05-5.88079E-09-9.20663E-08
 -1       277-1.47803E+06-2.04415E+05-1.86064E+03-5.48836E+05 2.02908E-08 1.36989E-07
 -1       278-1.40247E+06-2.77341E+05-6.61208E+02-6.37666E+05-4.22879E-08 3.30369E-07
 -1       279-1.47985E+06-2.02202E+05-8.27569E+02-5.46911E+05 6.86850E-09-1.73782E-07
 -1       280-1.40160E+06-2.79704E+05-8.93287E+02-6.41936E+05-9.10422E-08 5.80417E-09
 -1       281-1.48081E+06-2.00848E+05-1.65636E+03-5.45849E+05 1.38534E-08 4.74072E-07
 -1       282-1.40197E+06-2.81716E+05-3.84329E+03-6.43626E+05-1.18894E-08 2.12992E-07
 -1       283-1.48035E+06-1.99750E+05-6.84605E+03-5.45755E+05 7.82165E-10 2.67100E-08
 -1       284-1.40814E+06-2.90549E+05-1.86375E+04-6.41416E+05-1.44145E-08-2.04915E-07
 -1       285-1.47445E+06-1.93154E+05-2.91581E+04-5.47514E+05-2.10348E-08-2.96943E-07
 -1       301-9.93547E+03-6.53058E+05 1.66432E+05-1.15113E+06-7.13044E-10 2.31375E-08
 -1       302-1.24269E+04-6.05574E+05 1.00166E+05-1.67981E+06-1.31258E-08 6.71935E-09
 -1       303-2.40417E+04-6.46247E+05 5.64279E+04-1.14793E+06 2.15950E-08 8.32260E-08
 -1       304-2.81387E+04-6.13227E+05 5.64928E+04-1.67929E+06 8.14907E-10 4.18804E-08
 -1       305-2.85481E+04-6.34849E+05 6.90690E+04-1.15101E+06-8.51287E-10 5.25906E-08
 -1       306-3.00974E+07-6.20587E+06-8.59736E+06-4.69126E+05-2.01399E-08-4.76139E-08
 -1       307 2.51840E+07 3.29435E+06 5.49308E+06-1.53067E+07-9.25036E-07-3.76953E-07
 -1       308-6.88063E+06-9.99238E+05-4.23483E+05 5.20545E+06-2.79164E-07 3.39394E-07
 -1       309-3.14283E+06 8.71380E+06 2.29729E+06-2.07115E+07 4.36532E-07 1.40397E-07
 -1       310-1.27106E+07-1.95934E+06-2.07967E+06 5.21077E+06 1.93017E-07-1.54629E-07
 -1       311 3.87989E+07-1.90323E+04 7.33083E+06-8.64156E+06 7.74657E-07-1.53523E-07
 -1       312-3.19926E+07-6.84354E+06-8.57587E+06-5.15638E+06 2.97558E-07 3.19531E-07
 -1       313 4.53302E+07 1.52746E+07 1.06931E+07 2.40030E+07 1.28231E-07 3.39642E-07
 -1       314-1.71013E+07-1.78981E+07-7.52286E+06-1.25322E+07 3.29281E-07 3.23053E-08
 -1       315-2.01092E+06 2.98326E+07 5.65680E+06 1.03788E+07-4.71933E-07 3.96103E-08
 -1       316 1.45661E+06-9.81021E+06-4.18178E+05-2.46920E+06-1.28393E-06-2.97267E-07
 -1       317-1.70750E+07 2.24385E+07 2.24953E+06-8.91552E+06 5.73724E-07-7.38233E-07
 -1       318-1.10027E+06-1.28802E+07-2.07667E+06-4.24748E+06-9.04867E-07 7.15372E-08
 -1       319 7.34349E+06 3.21304E+07 7.08404E+06 1.67262E+07-9.61591E-08 2.17231E-07
 -1       320-2.26638E+07-1.77008E+07-9.89230E+06-1.28501E+07 1.88593E-07-3.97558E-08
 -1       336-7.53469E+02-1.68416E+06-1.37860E+04 8.85893E+03-2.65482E-08 1.40353E-08
 -1       337-5.39223E+03-1.68367E+06-1.79828E+04-2.15272E+04-4.97550E-08 2.02999E-09
 -1       338 2.62821E+02-1.68365E+06-2.83356E+04 1.24173E+04-3.48673E-08 3.13230E-09
 -1       339-3.00723E+04-1.70083E+06-6.40292E+04-2.84996E+04-6.29852E-08 2.11894E-08
 -1       340 1.97910E+04-1.66917E+06-1.00872E+05 1.57006E+04-4.19786E-08 1.97069E-08
 -1       406-4.98565E+01 3.86341E+05 6.44217E+02 3.35010E+00-1.98546E-09 2.95786E-08
 -1       407 1.54696E+02 3.86475E+05 1.37675E+03 2.34421E+01-5.78339E-10 2.85727E-08
 -1       408 6.34795E+02 3.86240E+05 2.74512E+03-2.71114E+01-2.32853E-09 4.40377E-09
 -1       409 2.90707E+03 3.87352E+05 6.18728E+03 2.89420E+02-1.64164E-10-3.83889E-08
 -1       410 8.48050E+03 3.85450E+05 1.26280E+04-2.79089E+02-2.96131E-09-2.56023E-08
 -1       521-3.17166E+07-7.68732E+06-1.00788E+07-7.04450E+04-7.81147E-08 9.84292E-08
 -1       522 2.61291E+07 4.36488E+06 5.62138E+06-1.88704E+07-5.67758E-07-3.14205E-07
 -1       523-7.45077E+06-1.31863E+06-4.14885E+05 5.66731E+06 1.21014E-07-2.71131E-07
 -1       524-6.64815E+06 1.18402E+07 2.49487E+06-2.38292E+07 7.39310E-07-6.45989E-07
 -1       525-1.35161E+07-2.61568E+06-2.29431E+06 5.68120E+06 5.08619E-07-4.14351E-07
 -1       526 4.25206E+07-1.23623E+05 7.71515E+06-1.13038E+07 2.61061E-07-2.47674E-07
 -1       527-3.39238E+07-8.57124E+06-9.91712E+06-5.02800E+06 2.04192E-07-2.20432E-07
 -1       528 4.96339E+07 1.71120E+07 1.11866E+07 2.73947E+07 5.21890E-07-1.72062E-07
 -1       529-1.80608E+07-2.01784E+07-8.65278E+06-1.25800E+07 6.51344E-08 1.48546E-07
 -1       530-4.50338E+06 3.47530E+07 6.00682E+06 9.80065E+06-2.73678E-07 4.53321E-07
 -1       531 1.47246E+06-1.08959E+07-3.89245E+05-2.39499E+06-8.78092E-07 4.57512E-07
 -1       532-1.95640E+07 2.44788E+07 2.46833E+06-1.33029E+07 4.33894E-07-5.56145E-07
 -1       533-1.13770E+06-1.40685E+07-2.22161E+06-4.03447E+06-2.67231E-07-1.00111E-06
 -1       534 5.36782E+06 3.74272E+07 7.39677E+06 1.73587E+07-3.16068E-08 8.19156E-07
 -1       535-2.38943E+07-2.01682E+07-1.13789E+07-1.29465E+07 8.77772E-08 4.83473E-07
 -1       536-7.06083E+05-4.66157E+04-4.84990E+04-5.46915E+04-2.85854E-09 5.29162E-08
 -1       537-5.49509E+04 4.45339E+04 8.37054E+04 1.23868E+05-1.19148E-07 9.71463E-08
 -1       538-3.94402E+05 3.36723E+03 3.47094E+03-7.22129E+04 4.76684E-08 1.21780E-07
 -1       539-2.69047E+05 2.82912E+03 2.48708E+04 1.38761E+05 1.70942E-07 1.32991E-07
 -1       540-4.97365E+05-4.24622E+02-2.13489E+04-7.01195E+04 2.86827E-08 9.84797E-08
 -1       541 1.46766E+05 1.69711E+04 1.06396E+05 9.79458E+04 1.30794E-08 6.23576E-08
 -1       542-7.99011E+05-2.01388E+04-8.42602E+04-3.05228E+04 6.76168E-08 4.18851E-08
 -1       543 4.05506E+05 2.73306E+04 1.58000E+05-1.33641E+04-2.40641E-08 1.06356E-08
 -1       544-7.49166E+05-1.65404E+04-7.48541E+04 4.05206E+04 6.34464E-09-3.68272E-08
 -1       545 2.90478E+04 9.48493E+03 7.98237E+04-1.13642E+05 3.94142E-08-7.11846E-08
 -1       546-4.32664E+05 6.09767E+03-1.22359E+04 6.94088E+04 8.76526E-10-9.97607E-08
 -1       547-2.87119E+05-4.66118E+03 1.05800E+04-1.41606E+05-1.20895E-07-1.21691E-07
 -1       548-4.41500E+05 4.72410E+03-2.39000E+04 6.91759E+04-1.07420E-07-8.01042E-08
 -1       549 4.82218E+04 1.60521E+04 6.04941E+04-1.11503E+05-7.19338E-08-5.48612E-08
 -1       550-7.59031E+05-2.21249E+04-1.29046E+05 3.85893E+04 8.29095E-09-3.21961E-08
 -1       551 4.07299E+04-7.47933E+05-1.59531E+04-1.24633E+06-1.02678E-07-7.77072E-09
 -1       552 9.31625E+04-7.92889E+05 9.86518E+03-1.77707E+06-7.01548E-08 2.43308E-08
 -1       553 7.16962E+04-7.89304E+05 3.19783E+04-1.23968E+06-1.18598E-07 2.53640E-08
 -1       554 1.31942E+05-8.08800E+05 8.09471E+04-1.77902E+06-7.66886E-08 1.04192E-08
 -1       555 1.01426E+05-8.12959E+05 1.47848E+05-1.23951E+06-1.21545E-07-1.72513E-08
 -1       556 2.23751E+05-3.83759E+05 2.54118E+04-4.07219E+05-2.24391E-08-5.82077E-11
 -1       557 3.54259E+05-4.88102E+05 1.59728E+04-5.27698E+05-3.72529E-09-5.91535E-09
 -1       558 2.05498E+05-3.76492E+05 2.24866E+03-4.11702E+05-1.40572E-08-1.42390E-08
 -1       559 3.29280E+05-4.88126E+05 2.40351E+03-5.48154E+05 3.33821E-08 1.39917E-08
 -1       560 1.90187E+05-3.66890E+05-1.52251E+03-4.22735E+05 9.19681E-09 1.96160E-08
 -1       561 3.10047E+05-4.80426E+05 1.21543E+02-5.61269E+05 6.85395E-09 9.67702E-10
 -1       562 1.78082E+05-3.59370E+05-1.33099E+03-4.31500E+05 4.19095E-09 1.22491E-08
 -1       563 2.95670E+05-4.74157E+05-3.88749E+01-5.70659E+05 7.25413E-09-2.91229E-08
 -1       564 1.69444E+05-3.53988E+05-6.01884E+02-4.37622E+05 1.21072E-08-2.84217E-10
 -1       565 2.86134E+05-4.70004E+05 2.35054E+01-5.76752E+05 9.05129E-09-1.25146E-08
 -1       566 1.64394E+05-3.50793E+05-2.60319E+02-4.41154E+05-1.25438E-08-1.59416E-08
 -1       567 2.81499E+05-4.67988E+05-3.62588E+02-5.79567E+05 1.20199E-08 4.80941E-09
 -1       568 1.63023E+05-3.49954E+05-1.12582E+03-4.42208E+05-1.11932E-08-4.20550E-09
 -1       569 2.80376E+05-4.67914E+05-2.84345E+03-5.78137E+05-2.58296E-08 2.48474E-09
 -1       570 1.66425E+05-3.53189E+05-6.21658E+03-4.41188E+05-1.46974E-09 9.62518E-09
 -1       571 2.90554E+05 1.04577E+04 1.49140E+04-9.53727E+04 2.54295E-09 6.34418E-09
 -1       572 2.92715E+05 3.94457E+03 7.30907E+03-1.04633E+05-3.59705E-10-1.01536E-08
 -1       573 2.91412E+05 1.24349E+03 3.24766E+03-9.51957E+04 4.08272E-09 1.59225E-08
 -1       574 2.91624E+05 7.28139E+02 1.62870E+03-1.04858E+05 3.15526E-09 4.10546E-09
 -1       575 2.91505E+05 4.49951E+02 7.68721E+02-9.51715E+04 7.66744E-09 7.36691E-11
 -1       576 2.91489E+05 4.61659E+02 3.93623E+02-1.04888E+05 8.18000E-09-4.18913E-09
 -1       577 2.91545E+05 3.92032E+02 1.96555E+02-9.51682E+04 2.09366E-09 4.09000E-09
 -1       578 2.91520E+05 4.23546E+02 1.13667E+02-1.04892E+05-3.99814E-09 6.78756E-09
 -1       579 2.91617E+05 3.55158E+02 7.82502E+01-9.51678E+04 8.51105E-09-8.18818E-09
 -1       580 2.91622E+05 3.72292E+02 9.11078E+01-1.04887E+05-5.50062E-09 2.15368E-09
 -1       581 2.91732E+05 2.96328E+02 1.37854E+02-9.51738E+04 6.48470E-09-3.08592E-09
 -1       582 2.91798E+05 3.34775E+02 2.80450E+02-1.04826E+05-3.05590E-09 2.62999E-08
 -1       583 2.91872E+05 3.38970E+02 5.38379E+02-9.52304E+04-1.58616E-09 1.84921E-08
 -1       584 2.92175E+05 7.78746E+02 1.21834E+03-1.04348E+05 8.41101E-09-8.36303E-09
 -1       585 2.91899E+05 1.80411E+03 2.46712E+03-9.56503E+04 1.66074E-09-7.70888E-09
 -1       586-3.48012E+03 1.16927E+05-2.99430E+03-2.50827E+05-6.58065E-09 4.97039E-10
 -1       587-1.36004E+03 1.16667E+05 7.35247E+02-2.76053E+05-5.94446E-09-9.33903E-09
 -1       588 3.92533E+02 1.16480E+05 4.74709E+03-2.50689E+05-5.42241E-09-1.13232E-08
 -1       589 5.08548E+03 1.18955E+05 1.23463E+04-2.75820E+05-8.88213E-09-2.91038E-09
 -1       590 1.66201E+04 1.15145E+05 2.59121E+04-2.51120E+05-6.78210E-09 6.73754E-09
 -1       591-7.64566E+04-1.58135E+04-2.26993E+04-3.24780E+04-1.43905E-09 1.39335E-09
 -1       592-8.06794E+04-1.97791E+04-1.23572E+04-3.60447E+04-5.77472E-09 1.80772E-08
 -1       593-7.87931E+04-1.44414E+04-5.13229E+03-3.40526E+04-3.99124E-09-5.06498E-09
 -1       594-7.75033E+04-1.63758E+04-2.56347E+03-3.61759E+04 6.73535E-09-1.14346E-09
 -1       595-7.89711E+04-1.44449E+04-1.17570E+03-3.41266E+04-4.86180E-09 5.83827E-09
 -1       596-7.72836E+04-1.62156E+04-5.97727E+02-3.61515E+04-4.70914E-09 2.43282E-08
 -1       597-7.89931E+04-1.44602E+04-3.25066E+02-3.41297E+04-1.04598E-08 8.92345E-09
 -1       598-7.72621E+04-1.62089E+04-2.60772E+02-3.61444E+04-1.20583E-08-1.32140E-08
 -1       599-7.89919E+04-1.44607E+04-3.32407E+02-3.41294E+04 4.55884E-09-7.96763E-09
 -1       600-7.72839E+04-1.62161E+04-6.17159E+02-3.61493E+04-8.84938E-09-6.84253E-09
 -1       601-7.89666E+04-1.44462E+04-1.21686E+03-3.41257E+04 1.64164E-09 7.54449E-09
 -1       602-7.75113E+04-1.63807E+04-2.65462E+03-3.61706E+04-4.15298E-10 1.53887E-09
 -1       603-7.87796E+04-1.44456E+04-5.31553E+03-3.40499E+04-8.40669E-09 1.42354E-08
 -1       604-8.08179E+04-1.98863E+04-1.27976E+04-3.60103E+04 9.04993E-09-5.96697E-09
 -1       605-7.63400E+04-1.58840E+04-2.35083E+04-3.24382E+04 1.01404E-08 5.82077E-10
 -1       606 2.66598E+04-1.43297E+04-2.56882E+04 2.39412E+04 8.02083E-09 3.35149E-09
 -1       607 2.22706E+04-4.68010E+03-1.27926E+04 2.69050E+04 1.35242E-09-1.72604E-08
 -1       608 2.47722E+04-8.44319E+02-5.72683E+03 2.37730E+04-6.62112E-09 1.06209E-08
 -1       609 2.42927E+04-2.89340E+02-2.89304E+03 2.71187E+04-8.43102E-10 1.69621E-09
 -1       610 2.45587E+04-4.10799E+01-1.38030E+03 2.37530E+04 5.69617E-09 3.56363E-09
 -1       611 2.44835E+04-4.14059E+01-6.95934E+02 2.71417E+04 7.88850E-09 1.65414E-08
 -1       612 2.45117E+04-2.74236E+01-3.30821E+02 2.37509E+04 2.40925E-09-2.29147E-09
 -1       613 2.44951E+04-3.73642E+01-1.48210E+02 2.71444E+04 5.27234E-09-8.13975E-09
 -1       614 2.44896E+04-3.38868E+01-3.46549E+01 2.37502E+04-6.26642E-10 4.86489E-09
 -1       615 2.44899E+04-3.59134E+01 6.23571E+01 2.71449E+04-2.21507E-09 4.15002E-09
 -1       616 2.44722E+04-3.07946E+01 1.86769E+02 2.37505E+04 1.48520E-09-2.36605E-09
 -1       617 2.45125E+04 3.85255E+00 4.26034E+02 2.71444E+04 5.90444E-09-4.24620E-09
 -1       618 2.44353E+04 9.19962E+01 8.58709E+02 2.37508E+04 1.67074E-09 1.03494E-08
 -1       619 2.48156E+04 6.67785E+02 1.92828E+03 2.71438E+04-6.10260E-09 1.51067E-09
 -1       620 2.41501E+04 2.12820E+03 3.87578E+03 2.37524E+04-1.67552E-09 6.15546E-09
 -1       621 5.10008E+02 3.01268E+05 3.86119E+03 4.12628E+04 7.85349E-10-4.84215E-09
 -1       622 6.75716E+02 3.02158E+05 3.41719E+03 5.99074E+04 1.06775E-09-2.28142E-08
 -1       623 1.43713E+02 3.01462E+05 4.09409E+03 4.10770E+04 1.18257E-09 1.66847E-08
 -1       624 2.10267E+03 3.03354E+05 7.92673E+03 6.00893E+04 1.37709E-09-3.07227E-09
 -1       625 2.05292E+03 2.99890E+05 1.38468E+04 4.10749E+04 1.52977E-09 1.35456E-08
 -1       626 2.60842E+05 6.13683E+04 5.11535E+03 1.26680E+05-1.62345E-09-1.03191E-08
 -1       627 2.58528E+05 6.27626E+04 2.46505E+03 1.30947E+05 5.26052E-09-5.69798E-09
 -1       628 2.60970E+05 5.90280E+04 1.04254E+03 1.27549E+05-3.10774E-09 2.15591E-08
 -1       629 2.57893E+05 6.20831E+04 5.10271E+02 1.31187E+05-5.96538E-09 1.07742E-08
 -1       630 2.60984E+05 5.89149E+04 2.36811E+02 1.27586E+05-3.09274E-09 5.25461E-10
 -1       631 2.57826E+05 6.20571E+04 1.27578E+02 1.31188E+05 5.62977E-09-1.44610E-10
 -1       632 2.60980E+05 5.89188E+04 8.42023E+01 1.27582E+05 1.46988E-08 1.11934E-08
 -1       633 2.57818E+05 6.20589E+04 9.41880E+01 1.31185E+05 2.79897E-09 3.56999E-09
 -1       634 2.60976E+05 5.89159E+04 1.52553E+02 1.27581E+05-5.97817E-09-5.35942E-09
 -1       635 2.57833E+05 6.20572E+04 3.08902E+02 1.31190E+05-1.05264E-08 6.96127E-09
 -1       636 2.60967E+05 5.89101E+04 6.23936E+02 1.27581E+05 2.96859E-09-2.21189E-09
 -1       637 2.57968E+05 6.21542E+04 1.37195E+03 1.31190E+05-9.37007E-10-2.08847E-08
 -1       638 2.60918E+05 5.92131E+04 2.81887E+03 1.27444E+05 6.64068E-09 9.95169E-09
 -1       639 2.59448E+05 6.42137E+04 6.66958E+03 1.30754E+05 7.46877E-09-6.89397E-10
 -1       640 2.60713E+05 6.53629E+04 1.38405E+04 1.24853E+05 1.69985E-09-1.76715E-09
 -1       656 6.65739E+04-1.70384E+06-1.60705E+05-2.56441E+03 3.34694E-10-4.01542E-10
 -1       657-8.80717E+04-1.77646E+06-1.33135E+05 5.14930E+03 2.54659E-10 4.72642E-09
 -1       658 2.12216E+04-1.72446E+06-8.19953E+04-4.64693E+03-9.18817E-10 4.42212E-09
 -1       659-9.52379E+04-1.77986E+06-1.42553E+05 6.88045E+03-2.81216E-09 5.44992E-09
 -1       660 7.37241E+04-1.70045E+06-1.76896E+05-4.29555E+03-2.09548E-09-8.65893E-09
 -1       661 1.58365E+05 1.65690E+04 1.67008E+04 6.19085E+04-9.35415E-10 1.82881E-08
 -1       662 1.67809E+05 2.89348E+04 1.12552E+04 5.81591E+04 3.37241E-09-8.13714E-09
 -1       663 1.61646E+05 2.19270E+04 3.93634E+03 6.09565E+04 1.59025E-09-8.64566E-09
 -1       664 1.64006E+05 2.26692E+04 2.35476E+03 5.93220E+04-2.48565E-09-2.40391E-09
 -1       665 1.62143E+05 2.26587E+04 9.28936E+02 6.08112E+04 2.27396E-09-4.22457E-09
 -1       666 1.63417E+05 2.18324E+04 5.43764E+02 5.95114E+04 9.74805E-09 2.04454E-09
 -1       667 1.62231E+05 2.27419E+04 2.89021E+02 6.07748E+04-2.40021E-10 2.92470E-09
 -1       668 1.63321E+05 2.17726E+04 2.94952E+02 5.95644E+04-5.60311E-09-5.72018E-09
 -1       669 1.62239E+05 2.27168E+04 3.99701E+02 6.07586E+04-7.12066E-09 3.69923E-09
 -1       670 1.63418E+05 2.19897E+04 8.70706E+02 5.95673E+04-9.49468E-09-6.52813E-09
 -1       671 1.62133E+05 2.25294E+04 1.54612E+03 6.07699E+04-2.59640E-09 1.52602E-08
 -1       672 1.64319E+05 2.34939E+04 3.95582E+03 5.93489E+04 8.66221E-09-1.50761E-08
 -1       673 1.61342E+05 2.12507E+04 6.62935E+03 6.09624E+04 4.48051E-09 2.94858E-09
 -1       674 1.70629E+05 3.41447E+04 1.89586E+04 5.74953E+04 5.21709E-10 1.22534E-08
 -1       675 1.55864E+05 1.21769E+04 2.81412E+04 6.25117E+04-4.38558E-09-2.54477E-09
 -1       676 2.41037E+01-2.95798E+05-1.11306E+03-1.37741E+02 1.23435E-10 1.20760E-08
 -1       677-2.94424E+02-2.96068E+05-2.03709E+03 2.75261E+02 1.09504E-08 3.96994E-10
 -1       678 1.97480E+02-2.95607E+05-3.60107E+03-1.37429E+02 4.43379E-11-1.72227E-08
 -1       679-3.60112E+03-2.98242E+05-8.55465E+03 2.74072E+02 9.48978E-09 4.98909E-09
 -1       680 2.15008E+03-2.93626E+05-1.37872E+04-1.35034E+02 9.09495E-13 1.13647E-08
 -1       771-3.06108E+06-7.47305E+05-1.66264E+05-1.46561E+06-3.68746E-08-3.33530E-08
 -1       772-2.98395E+06-8.36236E+05-8.57261E+04-1.56843E+06-2.56550E-08 1.33623E-08
 -1       773-3.09261E+06-7.22715E+05-4.36906E+04-1.48019E+06-1.35333E-08 1.67202E-08
 -1       774-2.97440E+06-8.17655E+05-1.94949E+04-1.59422E+06 2.09548E-08 1.12050E-09
 -1       775-3.10908E+06-7.11164E+05-1.45759E+04-1.48726E+06-1.04192E-08 3.34694E-09
 -1       776-2.98677E+06-8.14609E+05-5.45192E+03-1.61373E+06-1.10449E-08 4.01633E-09
 -1       777-3.12337E+06-7.00854E+05-6.43795E+03-1.49349E+06 6.11180E-09 4.38740E-09
 -1       778-2.99968E+06-8.11778E+05-1.82065E+03-1.63050E+06-5.09317E-10 6.92671E-09
 -1       779-3.13565E+06-6.91845E+05-3.21655E+03-1.49881E+06-1.03028E-08-8.31642E-09
 -1       780-3.01105E+06-8.09078E+05-5.33475E+02-1.64416E+06-1.12341E-08-8.14907E-10
 -1       781-3.14542E+06-6.84582E+05-1.24931E+03-1.50298E+06-3.02680E-08-1.34605E-10
 -1       782-3.01982E+06-8.06785E+05 4.50869E+02-1.65424E+06-4.19823E-08-2.87582E-09
 -1       783-3.15229E+06-6.79534E+05 7.02157E+02-1.50590E+06-1.05356E-08-1.51122E-08
 -1       784-3.02467E+06-8.04496E+05 2.90873E+03-1.66046E+06-2.05873E-08 4.00087E-09
 -1       785-3.15636E+06-6.76524E+05 5.13512E+03-1.50775E+06-3.80496E-08 7.79073E-09
 -1       786 1.22527E+05-9.72773E+03 2.25060E+04-3.19520E+02 5.94129E-09-3.61069E-09
 -1       787 1.32288E+05 1.12626E+04 1.59221E+04-1.36217E+02 8.80773E-09 2.70845E-08
 -1       788 1.26290E+05-1.52436E+03 5.82273E+03-2.84909E+02 3.23758E-09 2.46530E-08
 -1       789 1.27903E+05 1.76440E+03 3.65520E+03-1.89273E+02 2.85030E-11-2.07598E-08
 -1       790 1.26912E+05-2.37329E+02 1.47972E+03-2.66481E+02-4.22220E-09 2.42306E-08
 -1       791 1.27177E+05 2.74535E+02 8.54248E+02-2.20886E+02-7.40740E-09-3.49783E-09
 -1       792 1.27017E+05-3.56055E+01 3.61187E+02-2.53298E+02-5.43891E-09-8.57015E-09
 -1       793 1.27051E+05 3.72171E+01 1.78285E+02-2.45777E+02-1.39457E-10-6.53353E-09
 -1       794 1.27038E+05-1.60954E-01 4.27640E+01-2.41591E+02 5.68655E-09-8.87887E-10
 -1       795 1.27012E+05-3.04243E+01-6.71917E+01-2.70285E+02-5.13907E-09 9.54225E-09
 -1       796 1.27055E+05 3.19977E+01-1.78708E+02-2.28789E+02 4.82303E-09 1.24324E-08
 -1       797 1.26910E+05-2.38754E+02-4.85898E+02-2.99738E+02 3.86421E-09 3.94778E-11
 -1       798 1.27140E+05 2.08012E+02-7.87813E+02-2.12137E+02 1.98149E-09-3.09137E-09
 -1       799 1.26313E+05-1.53350E+03-2.16623E+03-3.41023E+02 5.69728E-09 4.02895E-09
 -1       800 1.27653E+05 1.32568E+03-3.06537E+03-1.87506E+02 3.53227E-10 5.48653E-10
 -1       801-1.71279E+05-9.99927E+06-1.39370E+06 1.41584E+06 9.11241E-08-4.93710E-08
 -1       802 7.38508E+05 5.95315E+06 2.18240E+06-1.74784E+06 2.57685E-07-3.34148E-08
 -1       803-5.36808E+05-1.42704E+07-1.89121E+06 8.98294E+05 7.71324E-08 1.38280E-08
 -1       804 2.87317E+05 2.39756E+06 1.53781E+06 6.77433E+05-1.19879E-07-1.13463E-07
 -1       805 1.89396E+05-6.45778E+06-2.86617E+05-1.00377E+06-4.96439E-08-7.36118E-08
 -1       806-3.09016E+05-5.97711E+04-2.28558E+04-1.22445E+05-7.56108E-09-1.08976E-08
 -1       807-3.10815E+05-5.60400E+04-1.12288E+04-1.27991E+05 7.76708E-09 1.40087E-08
 -1       808-3.09644E+05-5.15340E+04-4.76361E+03-1.26339E+05-7.27459E-09 1.90371E-08
 -1       809-3.08454E+05-5.28849E+04-2.32929E+03-1.28267E+05-2.40236E-08 4.99995E-09
 -1       810-3.09739E+05-5.12472E+04-1.06765E+03-1.26511E+05 4.08363E-10-1.73247E-08
 -1       811-3.08271E+05-5.27582E+04-5.30974E+02-1.28231E+05 3.71801E-09-2.89556E-08
 -1       812-3.09753E+05-5.12719E+04-2.68645E+02-1.26511E+05-4.98494E-09 2.23827E-09
 -1       813-3.08246E+05-5.27604E+04-1.74775E+02-1.28212E+05 1.03228E-10-1.12414E-09
 -1       814-3.09746E+05-5.12816E+04-1.73492E+02-1.26506E+05-1.42063E-09-1.99261E-08
 -1       815-3.08250E+05-5.27626E+04-2.79797E+02-1.28205E+05 1.92995E-09 1.65323E-09
 -1       816-3.09725E+05-5.12807E+04-5.30482E+02-1.26503E+05 2.94312E-09 2.34954E-08
 -1       817-3.08340E+05-5.28132E+04-1.13856E+03-1.28193E+05-2.94858E-09 3.41979E-08
 -1       818-3.09656E+05-5.14414E+04-2.32230E+03-1.26427E+05 2.55841E-09 2.17369E-10
 -1       819-3.09611E+05-5.42164E+04-5.46422E+03-1.27892E+05 1.09503E-09-4.12206E-09
 -1       820-3.09218E+05-5.55691E+04-1.11217E+04-1.24664E+05-6.43922E-10-2.51953E-08
 -1       821-3.78150E+05 2.09126E+04-4.86553E+04 2.07966E+03 1.39595E-08 6.76664E-09
 -1       822-3.97999E+05-2.42246E+04-3.42138E+04-4.29824E+03 4.83158E-09 2.58278E-08
 -1       823-3.85678E+05 3.29505E+03-1.25696E+04 3.32766E+03-1.34431E-08 6.35373E-09
 -1       824-3.88931E+05-3.80045E+03-7.87076E+03-5.15100E+03 8.91932E-10 1.54296E-08
 -1       825-3.87224E+05 5.11857E+02-3.29219E+03 2.93252E+03 1.95498E-08 1.19384E-08
 -1       826-3.86555E+05-5.70678E+02-1.76166E+03-2.94548E+03 2.69126E-08-1.49232E-08
 -1       827-3.88031E+05 5.00001E+01-1.17895E+03 1.12200E+03 1.08078E-08-1.38504E-08
 -1       828-3.85890E+05-1.36167E+02-6.09220E+02 1.09323E+03-1.44702E-09-7.25810E-09
 -1       829-3.87876E+05 6.81850E+01-1.16733E+03-1.10622E+03 4.40102E-09 4.35696E-09
 -1       830-3.86889E+05-6.22302E+02-1.89126E+03 4.73033E+03 2.94931E-09 7.01053E-09
 -1       831-3.87053E+05 5.52552E+02-3.36535E+03-2.51512E+03-4.01346E-09-1.02270E-08
 -1       832-3.89006E+05-3.95420E+03-8.14814E+03 5.95018E+03-5.59179E-09-2.58694E-09
 -1       833-3.85775E+05 3.40867E+03-1.30317E+04-2.32612E+03-1.77005E-09-2.43836E-09
 -1       834-3.98038E+05-2.50603E+04-3.53292E+04 4.04337E+03-3.77776E-09 1.19908E-08
 -1       835-3.78005E+05 2.16269E+04-5.03680E+04-6.08226E+02 4.78650E-09-7.13044E-10
 -1       836-1.40309E+03 3.70462E+05 2.27686E+04-1.57326E+04-7.23048E-09 2.91484E-08
 -1       837 4.85641E+03 3.77592E+05 1.93004E+04-3.21654E+04-7.83314E-09 2.15732E-09
 -1       838-5.56232E+02 3.72455E+05 1.97126E+04-1.56624E+04-6.34918E-09 2.10207E-08
 -1       839 1.24270E+04 3.83232E+05 3.73371E+04-3.22174E+04-7.04813E-09 1.27424E-08
 -1       840-3.84121E+03 3.64764E+05 5.95600E+04-1.56865E+04-6.16274E-09 1.19209E-08
 -1       856-5.20562E+04 8.01857E+03-2.11306E+04-3.97232E+02 4.08272E-09 3.49246E-10
 -1       857-6.07615E+04-9.42161E+03-1.45461E+04 5.63185E+03 5.52154E-09-4.71141E-09
 -1       858-5.55037E+04 1.12453E+03-5.48289E+03-4.21300E+02 3.29698E-09-1.04658E-08
 -1       859-5.68051E+04-1.32302E+03-3.30866E+03 5.66765E+03-2.10446E-09-1.18171E-08
 -1       860-5.60188E+04 1.57491E+02-1.38664E+03-4.32755E+02-1.89829E-09-4.46306E-09
 -1       861-5.62126E+04-1.88064E+02-7.62764E+02 5.68325E+03 2.35794E-10-4.80314E-09
 -1       862-5.60994E+04 2.13365E+01-3.16967E+02-4.36879E+02-1.71684E-09-1.14591E-09
 -1       863-5.61139E+04-2.18693E+01-1.15226E+02 5.68564E+03-2.42605E-09 2.13416E-09
 -1       864-5.61181E+04-4.92175E+00 4.76961E+01-4.35151E+02-2.02380E-09-1.46472E-08
 -1       865-5.60580E+04 5.97811E+01 2.56231E+02 5.67577E+03-6.02355E-10-2.47056E-11
 -1       866-5.61530E+04-6.03278E+01 5.16110E+02-4.27007E+02-4.55827E-10-1.44965E-08
 -1       867-5.58153E+04 4.98164E+02 1.27018E+03 5.65366E+03 6.27375E-09-1.82491E-08
 -1       868-5.63558E+04-4.35381E+02 2.11062E+03-4.13043E+02 3.65958E-10-9.06380E-09
 -1       869-5.42681E+04 3.62351E+03 5.61981E+03 5.61729E+03 6.60182E-09-1.78347E-08
 -1       870-5.76926E+04-3.10078E+03 8.15562E+03-3.90529E+02-3.86990E-10 8.15589E-09
 -1       871-5.51795E+03-2.13954E+04-1.94929E+04 1.30430E+05-4.44743E-09 2.90838E-08
 -1       872-1.98115E+03-2.59283E+04-8.16315E+03 1.69122E+05-1.13278E-08 3.17550E-09
 -1       873 4.06129E+02-2.37355E+04 5.87366E+02 1.30143E+05-5.03223E-09-1.06116E-08
 -1       874 3.30626E+03-2.13260E+04 9.77463E+03 1.69151E+05-9.49240E-09 1.72704E-08
 -1       875 6.84494E+03-2.60643E+04 2.20528E+04 1.30382E+05-4.52928E-09 1.15697E-08
 -1       876 2.93695E+05 4.94968E+04 1.50960E+04 1.17857E+05 5.36932E-09 4.82578E-09
 -1       877 2.94693E+05 5.26761E+04 8.06189E+03 1.22187E+05 1.14483E-08-7.54881E-10
 -1       878 2.95107E+05 4.78245E+04 3.37753E+03 1.19094E+05-2.48838E-09-4.13820E-10
 -1       879 2.92641E+05 5.06282E+04 1.68290E+03 1.22289E+05 2.81511E-09-2.87048E-09
 -1       880 2.95208E+05 4.78073E+04 7.83874E+02 1.19144E+05-5.60021E-10-9.20727E-09
 -1       881 2.92505E+05 5.05406E+04 4.18623E+02 1.22266E+05-5.56611E-09 9.66853E-09
 -1       882 2.95217E+05 4.78205E+04 2.67846E+02 1.19146E+05-4.58499E-09-8.93413E-09
 -1       883 2.92495E+05 5.05360E+04 2.88007E+02 1.22258E+05-6.81752E-09-2.10239E-08
 -1       884 2.95210E+05 4.78177E+04 4.58205E+02 1.19146E+05 3.21620E-10-9.84568E-09
 -1       885 2.92531E+05 5.05423E+04 9.21279E+02 1.22269E+05-4.59005E-09 1.21804E-09
 -1       886 2.95174E+05 4.77909E+04 1.85681E+03 1.19142E+05-9.03242E-11-5.50426E-09
 -1       887 2.92858E+05 5.07563E+04 4.05595E+03 1.22316E+05 4.27389E-09-2.53056E-09
 -1       888 2.94918E+05 4.78360E+04 8.17286E+03 1.19013E+05 2.66952E-09 7.86486E-09
 -1       889 2.97723E+05 5.58163E+04 1.95234E+04 1.22167E+05-2.14003E-09-1.44300E-08
 -1       890 2.91582E+05 5.17986E+04 3.65669E+04 1.15902E+05-4.06635E-09 4.05817E-09
 -1       891-8.91480E+01-1.62721E+05-1.99617E+03 2.71329E+04-1.51067E-09 1.32588E-08
 -1       892-1.75033E+02-1.63248E+05-2.14376E+03 4.12032E+04 3.82784E-09 1.44937E-08
 -1       893 4.39112E+01-1.62785E+05-3.03514E+03 2.71402E+04-1.58934E-09-5.64251E-09
 -1       894-1.50931E+03-1.64395E+05-6.28148E+03 4.10507E+04 3.02452E-09-4.83533E-09
 -1       895-1.19869E+03-1.61476E+05-1.10616E+04 2.72872E+04-2.11344E-10-8.37736E-09
 -1       956-3.77147E+05-5.44660E+03-1.34445E+04 3.08953E+04 5.54428E-09 1.30058E-10
 -1       957-3.79785E+05-1.92157E+03-6.90082E+03 3.71278E+04 2.62617E-09-2.44891E-08
 -1       958-3.78355E+05-2.41001E+02-3.10974E+03 3.07274E+04-7.27960E-09-2.01189E-08
 -1       959-3.78552E+05-1.36399E+02-1.58788E+03 3.73237E+04-2.33558E-09-1.32304E-08
 -1       960-3.78473E+05-4.49527E+01-7.74334E+02 3.07101E+04 1.03473E-08 6.80643E-09
 -1       961-3.78471E+05-6.33618E+01-4.10547E+02 3.73441E+04 1.41174E-08 2.46675E-08
 -1       962-3.78501E+05-4.61387E+01-2.35062E+02 3.07072E+04 1.81490E-09 2.15982E-08
 -1       963-3.78472E+05-5.91430E+01-1.88719E+02 3.73478E+04 2.77578E-09 1.17650E-08
 -1       964-3.78507E+05-4.27662E+01-2.29529E+02 3.07064E+04-2.11045E-10 2.69324E-09
 -1       965-3.78484E+05-5.61749E+01-3.97017E+02 3.73471E+04-1.91602E-09-3.62547E-09
 -1       966-3.78490E+05-3.49287E+01-7.46002E+02 3.07079E+04 5.09726E-09-1.84150E-09
 -1       967-3.78574E+05-1.19715E+02-1.53004E+03 3.73327E+04 1.25488E-09-5.49699E-09
 -1       968-3.78386E+05-2.17401E+02-2.99528E+03 3.07206E+04-3.81033E-09-1.23937E-08
 -1       969-3.79774E+05-1.83423E+03-6.64945E+03 3.71842E+04 3.60524E-09-2.38086E-08
 -1       970-3.77230E+05-5.22938E+03-1.29535E+04 3.08479E+04 8.41283E-10-4.54202E-09
 -1       971-3.45292E+05-1.72651E+03-9.30446E+03 1.53687E+04 4.60659E-09-2.66859E-08
 -1       972-3.47532E+05-1.27110E+03-5.06711E+03 2.12546E+04 6.92853E-09-1.01077E-08
 -1       973-3.46329E+05-6.20511E+01-2.26961E+03 1.52477E+04 5.75164E-09-7.80574E-10
 -1       974-3.46464E+05-8.11172E+01-1.17649E+03 2.13915E+04-1.25624E-09 5.54473E-09
 -1       975-3.46411E+05-1.72098E+01-5.88560E+02 1.52354E+04 1.04365E-09 1.02284E-09
 -1       976-3.46403E+05-3.13095E+01-3.40416E+02 2.14073E+04 8.94033E-10-2.17257E-08
 -1       977-3.46428E+05-1.64688E+01-2.48603E+02 1.52320E+04-4.11069E-09-6.08566E-10
 -1       978-3.46408E+05-2.50917E+01-2.93012E+02 2.14122E+04-9.16725E-09-8.09337E-09
 -1       979-3.46427E+05-7.99526E+00-4.72577E+02 1.52305E+04-3.97529E-09 4.48233E-09
 -1       980-3.46443E+05-2.20326E+01-9.13616E+02 2.14131E+04-2.63117E-09 5.87397E-09
 -1       981-3.46398E+05 1.48417E+01-1.77005E+03 1.52310E+04 6.70775E-09-5.31981E-09
 -1       982-3.46686E+05-1.52818E+02-3.65899E+03 2.14065E+04 1.07125E-08-1.60674E-08
 -1       983-3.46175E+05-9.84954E+01-7.10961E+03 1.52371E+04 9.19044E-10-6.22913E-09
 -1       984-3.50106E+05-3.86595E+03-1.59218E+04 2.13209E+04-1.01500E-09 2.60818E-08
 -1       985-3.42956E+05-5.30086E+03-2.92373E+04 1.53084E+04-3.94039E-09 5.98993E-09
 -3
    1PSTEP                        25          13           1          
  100CL  113 6.62796E-01         409                     0   13           1
 -4  DISP        4    1
 -5  D1          1    2    1    0
 -5  D2          1    2    2    0
 -5  D3          1    2    3    0
 -5  ALL         1    2    0    0    1ALL
 -1         1 2.72934E-03 0.00000E+00 0.00000E+00
 -1         2 1.31557E-03-1.09994E-27 0.00000E+00
 -1         3 3.42685E-04-5.33306E-28 1.32349E-23
 -1         5 1.77111E-04-1.52503E-27 1.65436E-24
 -1         8 2.71874E-03-3.98973E-07 0.00000E+00
 -1         9 2.71190E-03-2.04770E-04 0.00000E+00
 -1        10 3.10738E-04-3.38884E-06 0.00000E+00
 -1        12 1.78960E-04 8.09270E-07 4.13590E-25
 -1        15 2.70668E-03-4.21702E-07-1.03398E-25
 -1        16 2.78360E-03-2.06671E-04 0.00000E+00
 -1        17 2.11478E-04-7.73172E-06 0.00000E+00
 -1        18 1.82914E-04 3.44470E-05 0.00000E+00
 -1        19 1.84508E-04 1.61212E-06 0.00000E+00
 -1        20 1.84647E-04-9.90593E-06 0.00000E+00
 -1        21 1.83754E-04-2.54657E-05-3.30872E-24
 -1        24 3.05948E-05-1.19515E-05 0.00000E+00
 -1        25 1.93705E-04 3.46728E-05 0.00000E+00
 -1        26 1.94379E-04 2.23200E-06 0.00000E+00
 -1        27 1.92186E-04-1.34645E-05 0.00000E+00
 -1        28 1.91871E-04-2.60877E-05 0.00000E+00
 -1        32 0.00000E+00 0.00000E+00 0.00000E+00
 -1        33 2.03263E-04 2.98637E-06 0.00000E+00
 -1        34 2.01144E-04-1.35208E-05 0.00000E+00
 -1        35 1.99212E-04-2.64301E-05 0.00000E+00
 -1        51 2.72863E-03-8.40910E-08-4.96308E-24
 -1        52 2.72732E-03-1.49681E-07 0.00000E+00
 -1        53 2.72556E-03-2.11752E-07 0.00000E+00
 -1        54 2.72345E-03-2.72537E-07 0.00000E+00
 -1        55 2.72114E-03-3.33801E-07 3.30872E-24
 -1        56 2.72106E-03 9.91812E-06 0.00000E+00
 -1        57 2.70430E-03 4.06757E-05-5.29396E-23
 -1        58 2.68156E-03 8.57702E-05 0.00000E+00
 -1        59 2.65601E-03 1.37345E-04-5.29396E-23
 -1        60 2.63152E-03 1.86430E-04 0.00000E+00
 -1        61 2.61182E-03 2.24258E-04-5.29396E-23
 -1        62 2.59945E-03 2.44067E-04 1.05879E-22
 -1        63 2.59602E-03 2.40698E-04 0.00000E+00
 -1        64 2.60126E-03 2.13257E-04 1.05879E-22
 -1        65 2.61409E-03 1.63145E-04 0.00000E+00
 -1        66 2.63228E-03 9.60945E-05 0.00000E+00
 -1        67 2.65334E-03 1.95230E-05 5.29396E-23
 -1        68 2.67447E-03-5.72879E-05 1.05879E-22
 -1        69 2.69290E-03-1.25026E-04 0.00000E+00
 -1        70 2.70608E-03-1.76158E-04 5.29396E-23
 -1        86 1.40340E-03-6.42366E-06 5.29396E-23
 -1        87 1.65717E-03-4.05895E-05 0.00000E+00
 -1        88 1.99842E-03-9.94088E-05 0.00000E+00
 -1        89 2.34446E-03-1.59920E-04-1.32349E-23
 -1        90 2.60977E-03-1.96962E-04-5.29396E-23
 -1       121 3.41788E-04-5.47077E-07 0.00000E+00
 -1       122 3.39101E-04-1.09724E-06 0.00000E+00
 -1       123 3.34632E-04-1.65353E-06 0.00000E+00
 -1       124 3.28399E-04-2.21898E-06 6.61744E-24
 -1       125 3.20424E-04-2.79625E-06 0.00000E+00
 -1       191 1.77162E-04 1.34942E-07 1.65436E-24
 -1       192 1.77316E-04 2.69873E-07 1.24077E-24
 -1       193 1.77573E-04 4.04784E-07-8.27181E-25
 -1       194 1.77932E-04 5.39662E-07 1.65436E-24
 -1       195 1.78395E-04 6.74495E-07 2.48154E-24
 -1       251 2.71844E-03 1.59220E-06 0.00000E+00
 -1       252 2.71814E-03 3.44673E-06 0.00000E+00
 -1       253 2.71784E-03 4.13475E-06 0.00000E+00
 -1       254 2.71753E-03 2.64085E-06-3.30872E-24
 -1       255 2.71722E-03-1.72060E-06-6.61744E-24
 -1       256 2.71688E-03-9.59950E-06 0.00000E+00
 -1       257 2.71651E-03-2.11145E-05 0.00000E+00
 -1       258 2.71610E-03-3.63387E-05-3.30872E-24
 -1       259 2.71563E-03-5.47858E-05 6.61744E-24
 -1       260 2.71511E-03-7.59287E-05 0.00000E+00
 -1       261 2.71455E-03-9.88332E-05 0.00000E+00
 -1       262 2.71398E-03-1.22544E-04 0.00000E+00
 -1       263 2.71341E-03-1.45983E-04 0.00000E+00
 -1       264 2.71286E-03-1.68075E-04 6.61744E-24
 -1       265 2.71236E-03-1.87952E-04-1.32349E-23
 -1       266 2.71673E-03-4.08295E-07-1.65436E-24
 -1       267 2.71472E-03-4.11409E-07-4.13590E-25
 -1       268 2.71271E-03-4.14916E-07-4.13590E-25
 -1       269 2.71070E-03-4.17258E-07 0.00000E+00
 -1       270 2.70869E-03-4.19572E-07 0.00000E+00
 -1       271 2.71796E-03-4.98488E-08-1.32349E-23
 -1       272 2.71819E-03-2.47972E-06-6.61744E-24
 -1       273 2.71940E-03-7.51998E-06 1.32349E-23
 -1       274 2.72150E-03-1.49889E-05 0.00000E+00
 -1       275 2.72441E-03-2.46831E-05 0.00000E+00
 -1       276 2.72805E-03-3.63837E-05 0.00000E+00
 -1       277 2.73233E-03-4.98549E-05 0.00000E+00
 -1       278 2.73715E-03-6.48475E-05-6.61744E-24
 -1       279 2.74243E-03-8.11005E-05-1.32349E-23
 -1       280 2.74806E-03-9.83425E-05 0.00000E+00
 -1       281 2.75395E-03-1.16294E-04 0.00000E+00
 -1       282 2.75999E-03-1.34672E-04-6.61744E-24
 -1       283 2.76607E-03-1.53187E-04 1.32349E-23
 -1       284 2.77210E-03-1.71549E-04 6.61744E-24
 -1       285 2.77798E-03-1.89473E-04 0.00000E+00
 -1       301 2.72492E-03-2.05123E-04-6.61744E-24
 -1       302 2.73626E-03-2.05428E-04-3.30872E-24
 -1       303 2.74685E-03-2.05721E-04 1.32349E-23
 -1       304 2.75765E-03-2.06015E-04-6.61744E-24
 -1       305 2.76958E-03-2.06324E-04 0.00000E+00
 -1       306 2.75008E-03-3.60658E-04 0.00000E+00
 -1       307 2.81394E-03-7.75966E-04 5.29396E-23
 -1       308 2.86049E-03-1.38199E-03 1.05879E-22
 -1       309 2.88441E-03-2.08235E-03 0.00000E+00
 -1       310 2.91601E-03-2.75118E-03-1.05879E-22
 -1       311 2.97571E-03-3.26538E-03-5.29396E-23
 -1       312 3.03324E-03-3.54454E-03-2.11758E-22
 -1       313 3.02733E-03-3.55135E-03-5.29396E-23
 -1       314 2.88406E-03-3.29834E-03 1.05879E-22
 -1       315 2.56285E-03-2.85044E-03 5.29396E-23
 -1       316 2.08263E-03-2.28441E-03 0.00000E+00
 -1       317 1.50988E-03-1.66940E-03 0.00000E+00
 -1       318 9.59239E-04-1.06579E-03 0.00000E+00
 -1       319 5.38812E-04-5.38462E-04 5.29396E-23
 -1       320 2.92238E-04-1.61627E-04-1.05879E-22
 -1       336 2.99152E-04-4.04410E-06 0.00000E+00
 -1       337 2.85491E-04-4.72504E-06-6.61744E-24
 -1       338 2.69815E-04-5.43390E-06 1.32349E-23
 -1       339 2.52198E-04-6.17151E-06 0.00000E+00
 -1       340 2.32722E-04-6.94234E-06 1.32349E-23
 -1       406 1.79627E-04 9.43968E-07-2.48154E-24
 -1       407 1.80398E-04 1.07855E-06-8.27181E-25
 -1       408 1.81272E-04 1.21297E-06-1.65436E-24
 -1       409 1.82248E-04 1.34705E-06-4.13590E-25
 -1       410 1.83327E-04 1.48051E-06-1.65436E-24
 -1       521 2.82236E-03-3.71877E-04 0.00000E+00
 -1       522 2.88439E-03-8.07817E-04 0.00000E+00
 -1       523 2.92433E-03-1.44230E-03 0.00000E+00
 -1       524 2.93877E-03-2.17208E-03-5.29396E-23
 -1       525 2.96226E-03-2.86829E-03 1.05879E-22
 -1       526 3.01838E-03-3.40509E-03 5.29396E-23
 -1       527 3.07550E-03-3.69505E-03 0.00000E+00
 -1       528 3.06721E-03-3.69991E-03 1.05879E-22
 -1       529 2.91149E-03-3.43230E-03 0.00000E+00
 -1       530 2.56548E-03-2.96533E-03 5.29396E-23
 -1       531 2.04896E-03-2.37961E-03 0.00000E+00
 -1       532 1.43504E-03-1.74695E-03 5.29396E-23
 -1       533 8.43989E-04-1.12500E-03 0.00000E+00
 -1       534 3.89304E-04-5.76287E-04 5.29396E-23
 -1       535 1.21007E-04-1.79480E-04-2.11758E-22
 -1       536 2.10723E-04 2.71955E-05 6.61744E-24
 -1       537 2.08805E-04 8.76406E-05 0.00000E+00
 -1       538 2.05840E-04 1.64336E-04 0.00000E+00
 -1       539 2.02344E-04 2.47930E-04 1.65436E-24
 -1       540 1.99198E-04 3.26920E-04 0.00000E+00
 -1       541 1.97153E-04 3.89825E-04 0.00000E+00
 -1       542 1.96209E-04 4.29891E-04 0.00000E+00
 -1       543 1.95984E-04 4.40514E-04-1.65436E-24
 -1       544 1.95661E-04 4.22467E-04 3.30872E-24
 -1       545 1.94489E-04 3.76745E-04 1.65436E-24
 -1       546 1.92304E-04 3.11475E-04 0.00000E+00
 -1       547 1.89345E-04 2.34905E-04 1.65436E-24
 -1       548 1.86414E-04 1.58712E-04 3.30872E-24
 -1       549 1.84299E-04 9.45710E-05 0.00000E+00
 -1       550 1.83201E-04 5.05144E-05 0.00000E+00
 -1       551 1.86275E-04-8.30017E-06 0.00000E+00
 -1       552 1.57827E-04-8.94908E-06 0.00000E+00
 -1       553 1.27076E-04-9.66027E-06-1.32349E-23
 -1       554 9.49822E-05-1.04126E-05-6.61744E-24
 -1       555 6.25035E-05-1.11787E-05 1.32349E-23
 -1       556 2.03829E-04 1.18262E-05 0.00000E+00
 -1       557 1.97649E-04 2.76880E-05 0.00000E+00
 -1       558 1.92804E-04 4.01417E-05 0.00000E+00
 -1       559 1.89161E-04 4.94978E-05-2.64698E-23
 -1       560 1.86590E-04 5.60671E-05 0.00000E+00
 -1       561 1.84964E-04 6.01631E-05 0.00000E+00
 -1       562 1.84155E-04 6.21003E-05 0.00000E+00
 -1       563 1.84042E-04 6.21945E-05 0.00000E+00
 -1       564 1.84501E-04 6.07620E-05 0.00000E+00
 -1       565 1.85412E-04 5.81200E-05 0.00000E+00
 -1       566 1.86655E-04 5.45862E-05 0.00000E+00
 -1       567 1.88111E-04 5.04788E-05 0.00000E+00
 -1       568 1.89662E-04 4.61159E-05-1.65436E-24
 -1       569 1.91190E-04 4.18158E-05 0.00000E+00
 -1       570 1.92576E-04 3.78969E-05 0.00000E+00
 -1       571 1.83011E-04 3.23170E-05 1.65436E-24
 -1       572 1.83110E-04 3.01212E-05-8.27181E-25
 -1       573 1.83209E-04 2.78752E-05-3.30872E-24
 -1       574 1.83308E-04 2.55954E-05-8.27181E-25
 -1       575 1.83407E-04 2.32984E-05-3.30872E-24
 -1       576 1.83507E-04 2.10005E-05-1.65436E-24
 -1       577 1.83606E-04 1.87184E-05 0.00000E+00
 -1       578 1.83706E-04 1.64686E-05 0.00000E+00
 -1       579 1.83806E-04 1.42675E-05 0.00000E+00
 -1       580 1.83906E-04 1.21318E-05 0.00000E+00
 -1       581 1.84006E-04 1.00781E-05-6.61744E-24
 -1       582 1.84106E-04 8.12271E-06 0.00000E+00
 -1       583 1.84206E-04 6.28231E-06 0.00000E+00
 -1       584 1.84307E-04 4.57318E-06 0.00000E+00
 -1       585 1.84407E-04 3.01151E-06-6.61744E-24
 -1       586 1.84672E-04 3.44868E-05 1.65436E-24
 -1       587 1.86388E-04 3.45260E-05 8.27181E-25
 -1       588 1.88106E-04 3.45648E-05 0.00000E+00
 -1       589 1.89870E-04 3.46030E-05 0.00000E+00
 -1       590 1.91722E-04 3.46398E-05 0.00000E+00
 -1       591 1.83644E-04 3.24105E-05 0.00000E+00
 -1       592 1.84377E-04 3.03537E-05-2.06795E-25
 -1       593 1.85114E-04 2.82825E-05 0.00000E+00
 -1       594 1.85855E-04 2.62017E-05 0.00000E+00
 -1       595 1.86598E-04 2.41162E-05 0.00000E+00
 -1       596 1.87341E-04 2.20306E-05 0.00000E+00
 -1       597 1.88081E-04 1.99500E-05 8.27181E-25
 -1       598 1.88818E-04 1.78789E-05 4.13590E-25
 -1       599 1.89550E-04 1.58223E-05-8.27181E-25
 -1       600 1.90275E-04 1.37848E-05 4.13590E-25
 -1       601 1.90990E-04 1.17713E-05 8.27181E-25
 -1       602 1.91695E-04 9.78654E-06-4.13590E-25
 -1       603 1.92388E-04 7.83528E-06-4.13590E-25
 -1       604 1.93067E-04 5.92244E-06 1.55096E-25
 -1       605 1.93730E-04 4.05269E-06 4.13590E-25
 -1       606 1.84521E-04 4.46181E-07 0.00000E+00
 -1       607 1.84530E-04-6.34036E-07-1.65436E-24
 -1       608 1.84539E-04-1.63356E-06 3.30872E-24
 -1       609 1.84548E-04-2.55808E-06 0.00000E+00
 -1       610 1.84556E-04-3.41331E-06 0.00000E+00
 -1       611 1.84564E-04-4.20504E-06 0.00000E+00
 -1       612 1.84573E-04-4.93905E-06 0.00000E+00
 -1       613 1.84581E-04-5.62117E-06 0.00000E+00
 -1       614 1.84589E-04-6.25719E-06 0.00000E+00
 -1       615 1.84598E-04-6.85291E-06-8.27181E-25
 -1       616 1.84606E-04-7.41414E-06 0.00000E+00
 -1       617 1.84614E-04-7.94667E-06 0.00000E+00
 -1       618 1.84623E-04-8.45631E-06 0.00000E+00
 -1       619 1.84631E-04-8.94887E-06-2.06795E-25
 -1       620 1.84639E-04-9.43015E-06 0.00000E+00
 -1       621 1.85868E-04 1.71599E-06 3.30872E-24
 -1       622 1.87387E-04 1.82011E-06-8.27181E-25
 -1       623 1.89031E-04 1.92401E-06-1.65436E-24
 -1       624 1.90767E-04 2.02759E-06 8.27181E-25
 -1       625 1.92561E-04 2.13089E-06-3.30872E-24
 -1       626 1.85057E-04 4.82284E-07-3.30872E-24
 -1       627 1.85583E-04-5.84624E-07 0.00000E+00
 -1       628 1.86090E-04-1.59645E-06 0.00000E+00
 -1       629 1.86578E-04-2.56135E-06 0.00000E+00
 -1       630 1.87053E-04-3.48751E-06-3.30872E-24
 -1       631 1.87516E-04-4.38313E-06 1.65436E-24
 -1       632 1.87970E-04-5.25641E-06-3.30872E-24
 -1       633 1.88419E-04-6.11556E-06-1.65436E-24
 -1       634 1.88866E-04-6.96877E-06 3.30872E-24
 -1       635 1.89314E-04-7.82424E-06-1.65436E-24
 -1       636 1.89766E-04-8.69019E-06 0.00000E+00
 -1       637 1.90225E-04-9.57482E-06 1.65436E-24
 -1       638 1.90694E-04-1.04863E-05-3.30872E-24
 -1       639 1.91175E-04-1.14329E-05-8.27181E-25
 -1       640 1.91672E-04-1.24229E-05 3.30872E-24
 -1       656 1.85355E-04-1.04843E-05 0.00000E+00
 -1       657 1.86483E-04-1.10862E-05 0.00000E+00
 -1       658 1.87891E-04-1.16867E-05 1.32349E-23
 -1       659 1.89434E-04-1.22869E-05 0.00000E+00
 -1       660 1.90927E-04-1.28888E-05 6.61744E-24
 -1       661 1.84912E-04-1.04268E-05 0.00000E+00
 -1       662 1.85215E-04-1.10396E-05 0.00000E+00
 -1       663 1.85550E-04-1.17389E-05 0.00000E+00
 -1       664 1.85916E-04-1.25184E-05 0.00000E+00
 -1       665 1.86309E-04-1.33723E-05 0.00000E+00
 -1       666 1.86728E-04-1.42944E-05 8.27181E-25
 -1       667 1.87170E-04-1.52794E-05 1.65436E-24
 -1       668 1.87634E-04-1.63214E-05 0.00000E+00
 -1       669 1.88118E-04-1.74151E-05 1.65436E-24
 -1       670 1.88618E-04-1.85553E-05-8.27181E-25
 -1       671 1.89134E-04-1.97367E-05 0.00000E+00
 -1       672 1.89663E-04-2.09541E-05 0.00000E+00
 -1       673 1.90204E-04-2.22027E-05 0.00000E+00
 -1       674 1.90754E-04-2.34776E-05 4.13590E-25
 -1       675 1.91312E-04-2.47736E-05 0.00000E+00
 -1       676 1.85112E-04-2.55700E-05 0.00000E+00
 -1       677 1.86469E-04-2.56742E-05-1.65436E-24
 -1       678 1.87824E-04-2.57784E-05 0.00000E+00
 -1       679 1.89176E-04-2.58822E-05 0.00000E+00
 -1       680 1.90526E-04-2.59861E-05 3.30872E-24
 -1       771 1.86381E-05 1.47889E-05-5.29396E-23
 -1       772 8.57940E-06 3.67504E-05 0.00000E+00
 -1       773 3.27757E-07 5.41635E-05 0.00000E+00
 -1       774-6.24120E-06 6.72863E-05-2.64698E-23
 -1       775-1.12492E-05 7.63873E-05 5.29396E-23
 -1       776-1.48229E-05 8.17517E-05 0.00000E+00
 -1       777-1.70887E-05 8.36750E-05 0.00000E+00
 -1       778-1.81757E-05 8.24664E-05-2.64698E-23
 -1       779-1.82121E-05 7.84437E-05 1.05879E-22
 -1       780-1.73284E-05 7.19359E-05 0.00000E+00
 -1       781-1.56540E-05 6.32792E-05 0.00000E+00
 -1       782-1.33200E-05 5.28184E-05 2.64698E-23
 -1       783-1.04565E-05 4.09030E-05 0.00000E+00
 -1       784-7.19475E-06 2.78885E-05 2.64698E-23
 -1       785-3.66521E-06 1.41338E-05-5.29396E-23
 -1       786 1.93743E-04 3.24177E-05 0.00000E+00
 -1       787 1.93785E-04 3.02121E-05 0.00000E+00
 -1       788 1.93826E-04 2.80478E-05 0.00000E+00
 -1       789 1.93868E-04 2.59169E-05-8.27181E-25
 -1       790 1.93910E-04 2.38147E-05 0.00000E+00
 -1       791 1.93952E-04 2.17366E-05 8.27181E-25
 -1       792 1.93995E-04 1.96804E-05 1.65436E-24
 -1       793 1.94037E-04 1.76441E-05 8.27181E-25
 -1       794 1.94080E-04 1.56275E-05 0.00000E+00
 -1       795 1.94122E-04 1.36305E-05 8.27181E-25
 -1       796 1.94165E-04 1.16551E-05-1.65436E-24
 -1       797 1.94207E-04 9.70326E-06-8.27181E-25
 -1       798 1.94250E-04 7.77929E-06 0.00000E+00
 -1       799 1.94293E-04 5.88765E-06-8.27181E-25
 -1       800 1.94336E-04 4.03596E-06 0.00000E+00
 -1       801 1.47891E-04 3.11713E-05 2.64698E-23
 -1       802 9.37188E-06 1.94467E-05 2.64698E-23
 -1       803-1.08937E-04 9.82387E-06-5.29396E-23
 -1       804-9.65463E-05 6.83829E-06 0.00000E+00
 -1       805-3.18970E-05 2.68646E-06-5.29396E-23
 -1       806 1.94436E-04 3.23492E-05 1.65436E-24
 -1       807 1.95152E-04 3.00517E-05 0.00000E+00
 -1       808 1.95856E-04 2.77855E-05-3.30872E-24
 -1       809 1.96546E-04 2.55548E-05-1.65436E-24
 -1       810 1.97221E-04 2.33636E-05-3.30872E-24
 -1       811 1.97880E-04 2.12157E-05-1.65436E-24
 -1       812 1.98522E-04 1.91153E-05-3.30872E-24
 -1       813 1.99144E-04 1.70661E-05 0.00000E+00
 -1       814 1.99746E-04 1.50721E-05-3.30872E-24
 -1       815 2.00325E-04 1.31371E-05 0.00000E+00
 -1       816 2.00881E-04 1.12652E-05 0.00000E+00
 -1       817 2.01413E-04 9.46021E-06 8.27181E-25
 -1       818 2.01917E-04 7.72595E-06 0.00000E+00
 -1       819 2.02395E-04 6.06634E-06 0.00000E+00
 -1       820 2.02843E-04 4.48522E-06 0.00000E+00
 -1       821 1.94250E-04-1.04317E-07 0.00000E+00
 -1       822 1.94110E-04-3.54781E-06 1.65436E-24
 -1       823 1.93969E-04-7.68459E-06-3.30872E-24
 -1       824 1.93824E-04-1.20964E-05-1.65436E-24
 -1       825 1.93681E-04-1.62909E-05 0.00000E+00
 -1       826 1.93540E-04-1.97769E-05 0.00000E+00
 -1       827 1.93402E-04-2.22558E-05 0.00000E+00
 -1       828 1.93265E-04-2.34352E-05-1.65436E-24
 -1       829 1.93130E-04-2.33760E-05-3.30872E-24
 -1       830 1.92994E-04-2.21463E-05 0.00000E+00
 -1       831 1.92857E-04-2.01325E-05-3.30872E-24
 -1       832 1.92719E-04-1.77258E-05 0.00000E+00
 -1       833 1.92581E-04-1.54241E-05 0.00000E+00
 -1       834 1.92447E-04-1.37249E-05 0.00000E+00
 -1       835 1.92312E-04-1.29622E-05 0.00000E+00
 -1       836 1.96069E-04 2.35713E-06 0.00000E+00
 -1       837 1.97634E-04 2.48537E-06 0.00000E+00
 -1       838 1.99105E-04 2.61355E-06 0.00000E+00
 -1       839 2.00513E-04 2.74102E-06 0.00000E+00
 -1       840 2.01889E-04 2.86833E-06 0.00000E+00
 -1       856 1.92170E-04-1.45285E-05 0.00000E+00
 -1       857 1.92151E-04-1.54567E-05 0.00000E+00
 -1       858 1.92132E-04-1.62704E-05-2.06795E-25
 -1       859 1.92112E-04-1.69906E-05 0.00000E+00
 -1       860 1.92092E-04-1.76385E-05 0.00000E+00
 -1       861 1.92073E-04-1.82354E-05 0.00000E+00
 -1       862 1.92053E-04-1.88027E-05 4.13590E-25
 -1       863 1.92033E-04-1.93616E-05 4.13590E-25
 -1       864 1.92013E-04-1.99336E-05 8.27181E-25
 -1       865 1.91994E-04-2.05398E-05-4.13590E-25
 -1       866 1.91974E-04-2.12017E-05-8.27181E-25
 -1       867 1.91954E-04-2.19405E-05 4.13590E-25
 -1       868 1.91934E-04-2.27774E-05-8.27181E-25
 -1       869 1.91913E-04-2.37336E-05 0.00000E+00
 -1       870 1.91893E-04-2.48300E-05-8.27181E-25
 -1       871 1.93538E-04-1.34694E-05 8.27181E-25
 -1       872 1.95037E-04-1.34778E-05 0.00000E+00
 -1       873 1.96615E-04-1.34868E-05 0.00000E+00
 -1       874 1.98205E-04-1.34966E-05 3.10193E-25
 -1       875 1.99737E-04-1.35070E-05-6.20385E-25
 -1       876 1.92712E-04-1.45139E-05 0.00000E+00
 -1       877 1.93216E-04-1.54965E-05 1.65436E-24
 -1       878 1.93698E-04-1.64203E-05 3.30872E-24
 -1       879 1.94162E-04-1.72926E-05 0.00000E+00
 -1       880 1.94609E-04-1.81209E-05 0.00000E+00
 -1       881 1.95042E-04-1.89125E-05 0.00000E+00
 -1       882 1.95464E-04-1.96748E-05-3.30872E-24
 -1       883 1.95878E-04-2.04151E-05 0.00000E+00
 -1       884 1.96287E-04-2.11407E-05 0.00000E+00
 -1       885 1.96692E-04-2.18591E-05 1.65436E-24
 -1       886 1.97098E-04-2.25775E-05 0.00000E+00
 -1       887 1.97506E-04-2.33033E-05 1.65436E-24
 -1       888 1.97920E-04-2.40439E-05 0.00000E+00
 -1       889 1.98341E-04-2.48066E-05-1.65436E-24
 -1       890 1.98773E-04-2.55990E-05 1.65436E-24
 -1       891 1.93237E-04-2.61452E-05-1.65436E-24
 -1       892 1.94579E-04-2.62029E-05 0.00000E+00
 -1       893 1.95873E-04-2.62605E-05-1.65436E-24
 -1       894 1.97093E-04-2.63178E-05 8.27181E-25
 -1       895 1.98214E-04-2.63748E-05 4.13590E-25
 -1       956 2.03132E-04 1.66228E-06-3.30872E-24
 -1       957 2.03000E-04 4.29876E-07 0.00000E+00
 -1       958 2.02867E-04-7.21587E-07 0.00000E+00
 -1       959 2.02734E-04-1.80346E-06 0.00000E+00
 -1       960 2.02602E-04-2.82715E-06 0.00000E+00
 -1       961 2.02469E-04-3.80409E-06 0.00000E+00
 -1       962 2.02336E-04-4.74570E-06 0.00000E+00
 -1       963 2.02203E-04-5.66347E-06 0.00000E+00
 -1       964 2.02070E-04-6.56884E-06 0.00000E+00
 -1       965 2.01938E-04-7.47326E-06 1.65436E-24
 -1       966 2.01805E-04-8.38822E-06 3.30872E-24
 -1       967 2.01672E-04-9.32515E-06 0.00000E+00
 -1       968 2.01540E-04-1.02955E-05 0.00000E+00
 -1       969 2.01407E-04-1.13107E-05 3.30872E-24
 -1       970 2.01275E-04-1.23822E-05-3.30872E-24
 -1       971 2.01025E-04-1.46591E-05 3.30872E-24
 -1       972 2.00903E-04-1.57028E-05 0.00000E+00
 -1       973 2.00782E-04-1.66625E-05 3.30872E-24
 -1       974 2.00661E-04-1.75489E-05 0.00000E+00
 -1       975 2.00539E-04-1.83729E-05-3.30872E-24
 -1       976 2.00418E-04-1.91453E-05 1.65436E-24
 -1       977 2.00296E-04-1.98771E-05 0.00000E+00
 -1       978 2.00175E-04-2.05790E-05 1.65436E-24
 -1       979 2.00054E-04-2.12621E-05-3.30872E-24
 -1       980 1.99932E-04-2.19372E-05 0.00000E+00
 -1       981 1.99811E-04-2.26152E-05 0.00000E+00
 -1       982 1.99690E-04-2.33070E-05-1.65436E-24
 -1       983 1.99569E-04-2.40236E-05 0.00000E+00
 -1       984 1.99448E-04-2.47757E-05 0.00000E+00
 -1       985 1.99328E-04-2.55744E-05-3.30872E-24
 -3
    1PSTEP                        26          13           1          
  100CL  113 6.62796E-01         409                     0   13           1
 -4  STRESS      6    1
 -5  SXX         1    4    1    1
 -5  SYY         1    4    2    2
 -5  SZZ         1    4    3    3
 -5  SXY         1    4    1    2
 -5  SYZ         1    4    2    3
 -5  SZX         1    4    3    1
 -1         1-5.34854E+06-1.55668E+06-1.13154E+06-1.30593E+06-9.45874E-10 8.14616E-08
 -1         2 1.57136E+06 2.29775E+07 5.32406E+06 6.97163E+06 2.94531E-08 1.04425E-07
 -1         3-1.48730E+03-1.55330E+06 4.04798E+02-2.20413E+03-4.55653E-10-1.55705E-08
 -1         5-7.54744E+01 3.86420E+05 9.98291E+00-1.34443E+00-4.64234E-10 3.12139E-09
 -1         8-5.49828E+05-1.99713E+05-6.25706E+04-2.40796E+05 1.00954E-10 1.63724E-07
 -1         9 1.18432E+07 4.03749E+06 2.84217E+06-2.74675E+05-1.32713E-08 9.79286E-08
 -1        10-2.30240E+03-1.61865E+06-3.93438E+03-1.49153E+04-1.43991E-08-2.34062E-08
 -1        12-7.15561E+01 3.86442E+05 3.28178E+02-9.16357E+00-5.18252E-10 1.99607E-08
 -1        15 9.17011E+02 5.03942E+02 2.96421E+03 7.97523E-01 1.35799E-10 5.35563E-07
 -1        16 2.29343E+07-3.40893E+05 3.11903E+06-2.31390E+06 8.80876E-09-4.05901E-08
 -1        17 8.40127E+06 6.29304E+06 2.26891E+06 6.01873E+06 2.15194E-08 3.00235E-08
 -1        18 1.41921E+05 3.32497E+04 3.87122E+03-1.19698E+05 1.26590E-08 9.63519E-09
 -1        19 1.22413E+05 1.41640E+05-9.50482E+02 2.19817E+04 1.73277E-09-8.21819E-10
 -1        20-8.20009E+04-5.73700E+05-1.28737E+05 2.50896E+04-2.19143E-09 4.44985E-09
 -1        21-4.55589E+01-2.95937E+05-9.23695E+02 2.75537E+02 1.52772E-08-7.50934E-09
 -1        24 1.41023E+07 1.21366E+07 3.90210E+06 1.12361E+07-1.64340E-07-6.06912E-08
 -1        25 1.24983E+05 2.68357E+05 1.00225E+05-6.46548E+05-2.66937E-09 9.92459E-09
 -1        26-5.60772E+04 9.18907E+04-2.51956E+04 1.49429E+03 5.51518E-10 3.46438E-09
 -1        27-7.54613E+04-3.09924E+05-1.13271E+05 6.89473E+04 4.14730E-09-6.65932E-09
 -1        28 2.22342E+04-8.53316E+04 1.68937E+04 2.05991E+04-1.74055E-09-5.60375E-09
 -1        32-1.68014E+06-3.18155E+06-1.97688E+05 4.59378E+05-4.32774E-08-6.04064E-09
 -1        33-1.78499E+05 9.30730E+04 3.24035E+04-3.82199E+04-3.06939E-09-7.95111E-09
 -1        34-2.23570E+05-2.50428E+04 6.89916E+02 7.56697E+04-5.64937E-09 2.16323E-09
 -1        35-2.29246E+04-3.38398E+04-1.34821E+03 5.14834E+04-4.89683E-09-1.34096E-08
 -1        51 6.09788E+04-1.69649E+05 1.28874E+05-4.30995E+05-1.30967E-10 1.17114E-07
 -1        52 2.05992E+04-1.47076E+05 6.75341E+04-5.02680E+05 3.97449E-10-3.90868E-07
 -1        53 4.14238E+03-1.62417E+05 3.50227E+04-4.29521E+05 3.25599E-10-7.03367E-08
 -1        54 7.20296E+03-1.58198E+05 2.84864E+04-5.04118E+05-1.45519E-10 2.00060E-07
 -1        55 1.57151E+04-1.65090E+05 3.43073E+04-4.29439E+05 3.38332E-10-2.55022E-08
 -1        56-9.82584E+06-1.41528E+06-9.33097E+05-4.12694E+06 1.01572E-08 4.88071E-08
 -1        57-1.11664E+07-7.20600E+05-5.42504E+05-2.62898E+06 1.94486E-08-6.78847E-08
 -1        58-9.57846E+06-1.89777E+06-2.02357E+05-4.34116E+06-2.33704E-08 4.04179E-08
 -1        59-1.14110E+07-1.56525E+05-1.06071E+05-2.55114E+06-3.38960E-08-2.45214E-07
 -1        60-9.68004E+06-1.90070E+06-5.98101E+04-4.29151E+06-1.47702E-09-2.74813E-07
 -1        61-1.06613E+07-5.36437E+05 2.52199E+04-2.80747E+06 3.72092E-08 9.01891E-08
 -1        62-1.01630E+07-1.62962E+06-9.10511E+04-3.95241E+06 2.07074E-08-1.85428E-07
 -1        63-9.63089E+06-1.33594E+06 6.92026E+04-3.57752E+06 1.47847E-08-1.45948E-07
 -1        64-1.05753E+07-1.19770E+06-8.39013E+04-3.43697E+06 2.10130E-08 7.96681E-08
 -1        65-9.24153E+06-2.00518E+06 2.12768E+04-4.60715E+06-3.59432E-08-1.60510E-07
 -1        66-1.07068E+07-8.53159E+05-4.83407E+04-3.03989E+06 1.27038E-08 8.89122E-08
 -1        67-9.28497E+06-2.27986E+06-9.53081E+04-5.10033E+06-6.23550E-08 3.45208E-07
 -1        68-1.06869E+07-8.13625E+05-1.88722E+05-3.03902E+06-2.11166E-08 7.47823E-08
 -1        69-9.43505E+06-2.34378E+06-4.80832E+05-4.57538E+06-3.97267E-08-3.72529E-07
 -1        70-1.04118E+07-9.03303E+05-8.59121E+05-3.47162E+06-2.81052E-08-3.41737E-07
 -1        86-1.60358E+06-1.61622E+07-2.91568E+06-3.27087E+06-2.75442E-07-1.93511E-07
 -1        87 2.53492E+06 6.67773E+06 2.42450E+06 5.98629E+06-4.73992E-07-3.04390E-08
 -1        88-4.84325E+05-1.88732E+06 2.30975E+05-2.63572E+06-4.19270E-07 8.72842E-09
 -1        89 3.39293E+06 6.35813E+06 2.48597E+06 6.19239E+06-5.80127E-07-2.25594E-07
 -1        90-2.36000E+06-1.59240E+07-3.14540E+06-3.50926E+06-1.45727E-07-3.78350E-09
 -1       121-2.03728E+03-1.55820E+06-5.48003E+02 1.09244E+03 1.41272E-09-5.34783E-09
 -1       122-1.30217E+03-1.55336E+06 7.67174E+02-4.41246E+03-5.38692E-09 1.08957E-08
 -1       123-2.05702E+03-1.55833E+06 2.57158E+02 3.26270E+03 4.36228E-09 1.34169E-08
 -1       124 3.28559E+02-1.55292E+06 2.93911E+03-9.23508E+03-1.02632E-08 5.23869E-08
 -1       125-2.86326E+03-1.55923E+06 3.44487E+03 5.86911E+03 6.73208E-09-6.04632E-09
 -1       191-7.95351E+01 3.86439E+05 8.47804E+00 7.01081E-01-5.48779E-10-6.30644E-09
 -1       192-7.64384E+01 3.86421E+05 2.13038E+01-4.31082E+00-7.48267E-10-3.23271E-08
 -1       193-8.20724E+01 3.86438E+05 3.62593E+01 3.78648E+00-1.05725E-09 7.29415E-10
 -1       194-7.95289E+01 3.86424E+05 8.09888E+01-9.78220E+00-6.69999E-10 1.22745E-08
 -1       195-8.69425E+01 3.86436E+05 1.55045E+02 6.36655E+00-1.59660E-09-9.33323E-09
 -1       251-8.62636E+05 1.63219E+04-3.80957E+04-1.47045E+04 4.14069E-09 3.22616E-08
 -1       252-8.76958E+05-1.88941E+04-2.64870E+04 5.22355E+04-6.53972E-09-2.31457E-07
 -1       253-8.71218E+05 2.50528E+03-1.02819E+04-1.03632E+04-2.91379E-09 9.75433E-10
 -1       254-8.63127E+05-3.04847E+03-4.51471E+03 3.72169E+04 2.80795E-09 5.68756E-08
 -1       255-8.75816E+05 4.08627E+01-3.62210E+03 3.10011E+02 6.50607E-09 1.49884E-07
 -1       256-8.57459E+05-2.73713E+02 1.30996E+03 1.29937E+04-1.28390E-08 1.47544E-07
 -1       257-8.76417E+05-6.16797E+02-1.47587E+03 1.38475E+04 6.11453E-09 2.21209E-07
 -1       258-8.60465E+05 9.57841E+02 2.82425E+03-1.24766E+04-5.77484E-09-2.41873E-07
 -1       259-8.73073E+05-9.87999E+02 1.33350E+03 2.57778E+04-1.14551E-09-3.06461E-07
 -1       260-8.67301E+05 3.03818E+03 5.63174E+03-3.08542E+04 1.27204E-08-3.96522E-08
 -1       261-8.70257E+05-2.17684E+03 8.68548E+03 3.22428E+04 8.76980E-09 8.02411E-08
 -1       262-8.66156E+05 1.19359E+04 2.15861E+04-3.62429E+04 1.70616E-08-9.82634E-08
 -1       263-8.74487E+05-9.64404E+03 3.41823E+04 3.11769E+04-7.35389E-09 5.16029E-08
 -1       264-8.35256E+05 6.73758E+04 9.47167E+04-2.67758E+04 5.37853E-08 1.43829E-07
 -1       265-9.00633E+05-5.77679E+04 1.31755E+05 2.27622E+04 4.24563E-09 3.02571E-07
 -1       266-1.66012E+04-7.76357E+03 3.89472E+04-1.70631E+01 7.27596E-11 3.34625E-07
 -1       267 1.92451E+04 9.04730E+03 2.75293E+04 1.96892E+01-7.77618E-11-3.76014E-07
 -1       268-2.58074E+03-1.28142E+03 1.02324E+04-2.50865E+00-8.41283E-11-1.26492E-07
 -1       269 3.04708E+03 1.53351E+03 6.65100E+03 2.92231E+00 1.54159E-10 1.38464E-07
 -1       270-4.57371E+02-2.51971E+02 3.21053E+03-3.96573E-01-1.26192E-10 4.82918E-09
 -1       271-1.45620E+06-1.86040E+05-1.09797E+05-5.67117E+05-1.03300E-08 5.15429E-08
 -1       272-1.44761E+06-3.00885E+05-6.87903E+04-6.08821E+05 3.94793E-08 3.26818E-08
 -1       273-1.47950E+06-2.09074E+05-2.66906E+04-5.59076E+05-2.73722E-08 2.44205E-07
 -1       274-1.42132E+06-2.73077E+05-1.37871E+04-6.24216E+05 2.57569E-09 2.72688E-07
 -1       275-1.48511E+06-2.08476E+05-6.68669E+03-5.55270E+05 2.35850E-08 2.46691E-08
 -1       276-1.41588E+06-2.74105E+05-2.76670E+03-6.33063E+05 2.57096E-08 1.08444E-07
 -1       277-1.48797E+06-2.05764E+05-1.86124E+03-5.52517E+05-5.19049E-08 2.95177E-07
 -1       278-1.41385E+06-2.77311E+05-6.76865E+02-6.39554E+05 7.76708E-09 5.83420E-08
 -1       279-1.48978E+06-2.03575E+05-8.38359E+02-5.50597E+05-2.92493E-09-2.46406E-07
 -1       280-1.41294E+06-2.79684E+05-9.22273E+02-6.43784E+05 3.44280E-08-5.44362E-08
 -1       281-1.49073E+06-2.02225E+05-1.70792E+03-5.49533E+05 2.25918E-09-4.40942E-08
 -1       282-1.41332E+06-2.81744E+05-3.96570E+03-6.45473E+05-1.46099E-08-2.48260E-08
 -1       283-1.49026E+06-2.01087E+05-7.06213E+03-5.49431E+05 1.77924E-08 1.82634E-07
 -1       284-1.41967E+06-2.90896E+05-1.92293E+04-6.43269E+05-2.46239E-08-1.69948E-08
 -1       285-1.48422E+06-1.94222E+05-3.00660E+04-5.51200E+05 1.65355E-08-2.53351E-07
 -1       301-9.14698E+03-6.51564E+05 1.66578E+05-1.14746E+06 2.96859E-09 1.24579E-07
 -1       302-1.14291E+04-6.04280E+05 1.00250E+05-1.67456E+06-3.96540E-09-2.17169E-07
 -1       303-2.33994E+04-6.44566E+05 5.65173E+04-1.14428E+06 1.98124E-08 1.33399E-07
 -1       304-2.71835E+04-6.11771E+05 5.66560E+04-1.67402E+06-1.53086E-08 3.04328E-07
 -1       305-2.78637E+04-6.33203E+05 6.93670E+04-1.14737E+06 1.37516E-09 1.10231E-07
 -1       306-3.01170E+07-6.21177E+06-8.60440E+06-4.77018E+05-4.86616E-08-1.63796E-07
 -1       307 2.52320E+07 3.29390E+06 5.50035E+06-1.52977E+07-8.49293E-07 4.65661E-10
 -1       308-6.89532E+06-1.00575E+06-4.28880E+05 5.20879E+06-2.21480E-07 3.13288E-07
 -1       309-3.16312E+06 8.73016E+06 2.29703E+06-2.07129E+07 5.79603E-07-1.96593E-07
 -1       310-1.26882E+07-1.95892E+06-2.07336E+06 5.21580E+06-4.16185E-08-1.47076E-07
 -1       311 3.87587E+07-1.14318E+04 7.32601E+06-8.67681E+06 2.95695E-08-2.53611E-07
 -1       312-3.19972E+07-6.83427E+06-8.57430E+06-5.13703E+06-1.20606E-07 1.85188E-07
 -1       313 4.53766E+07 1.52408E+07 1.06951E+07 2.39835E+07-7.95408E-08 3.42872E-07
 -1       314-1.71284E+07-1.78902E+07-7.52786E+06-1.25384E+07 2.55299E-07-7.03731E-08
 -1       315-1.97872E+06 2.98362E+07 5.66244E+06 1.04127E+07-5.14963E-07 5.18048E-09
 -1       316 1.44907E+06-9.81926E+06-4.22278E+05-2.47754E+06-9.96777E-07-6.06815E-08
 -1       317-1.70837E+07 2.24463E+07 2.24973E+06-8.90914E+06 8.22874E-07-7.75195E-07
 -1       318-1.09429E+06-1.28710E+07-2.07239E+06-4.24518E+06-9.57516E-07 1.28348E-07
 -1       319 7.32737E+06 3.21250E+07 7.08091E+06 1.67171E+07-2.84199E-08 2.34460E-07
 -1       320-2.26613E+07-1.77013E+07-9.89154E+06-1.28502E+07 2.22703E-07-5.01168E-08
 -1       336-7.51867E+02-1.68680E+06-1.38061E+04 8.87647E+03-2.62808E-08-1.42973E-08
 -1       337-5.39805E+03-1.68633E+06-1.80107E+04-2.15677E+04-4.89272E-08-1.43555E-08
 -1       338 2.66080E+02-1.68629E+06-2.83776E+04 1.24401E+04-3.56758E-08 8.09814E-09
 -1       339-3.01158E+04-1.70351E+06-6.41275E+04-2.85499E+04-6.27588E-08 2.01544E-08
 -1       340 1.98245E+04-1.67180E+06-1.01025E+05 1.57279E+04-4.08836E-08 5.33146E-08
 -1       406-4.98574E+01 3.86421E+05 6.44364E+02 3.35211E+00-1.75258E-09-1.19981E-08
 -1       407 1.54741E+02 3.86556E+05 1.37707E+03 2.34391E+01-4.06231E-10-3.53011E-08
 -1       408 6.34950E+02 3.86321E+05 2.74575E+03-2.71106E+01-2.65504E-09-2.73430E-08
 -1       409 2.90775E+03 3.87432E+05 6.18870E+03 2.89428E+02-3.66299E-10 3.34985E-08
 -1       410 8.48245E+03 3.85530E+05 1.26309E+04-2.79103E+02-2.98314E-09 2.21571E-08
 -1       521-3.17228E+07-7.68991E+06-1.00809E+07-7.91322E+04-1.16532E-07 6.40284E-08
 -1       522 2.61628E+07 4.35775E+06 5.62505E+06-1.88530E+07-5.27274E-07-2.99187E-07
 -1       523-7.46577E+06-1.32410E+06-4.20265E+05 5.66817E+06 2.03727E-07-2.75977E-07
 -1       524-6.66967E+06 1.18471E+07 2.49277E+06-2.38208E+07 9.59495E-07-6.71207E-07
 -1       525-1.34915E+07-2.61193E+06-2.28588E+06 5.68282E+06 7.28527E-07-3.92873E-07
 -1       526 4.24469E+07-1.13841E+05 7.70611E+06-1.13376E+07 7.79517E-07 1.03581E-07
 -1       527-3.39134E+07-8.55764E+06-9.90959E+06-5.00656E+06-1.59256E-07-1.95432E-08
 -1       528 4.96596E+07 1.70584E+07 1.11827E+07 2.73547E+07 2.29338E-07-4.22762E-07
 -1       529-1.80844E+07-2.01588E+07-8.65355E+06-1.25822E+07 1.20315E-07-4.55184E-08
 -1       530-4.47044E+06 3.47368E+07 6.00912E+06 9.83928E+06-1.52679E-07 7.99890E-07
 -1       531 1.46219E+06-1.09024E+07-3.93575E+05-2.40647E+06-8.83083E-07 4.76954E-07
 -1       532-1.95761E+07 2.44797E+07 2.46669E+06-1.32835E+07 3.35713E-07-7.35919E-07
 -1       533-1.13273E+06-1.40523E+07-2.21515E+06-4.03480E+06-1.70228E-07-1.05932E-06
 -1       534 5.34490E+06 3.73954E+07 7.38907E+06 1.73391E+07-3.03262E-08 7.79342E-07
 -1       535-2.38827E+07-2.01568E+07-1.13714E+07-1.29408E+07 9.34815E-08 4.68863E-07
 -1       536-7.06170E+05-4.66624E+04-4.84260E+04-5.47024E+04-2.36514E-09 4.96520E-08
 -1       537-5.48616E+04 4.45860E+04 8.37825E+04 1.23887E+05-1.08694E-07 9.65942E-08
 -1       538-3.94406E+05 3.36226E+03 3.49353E+03-7.22221E+04 2.03185E-08 1.09520E-07
 -1       539-2.69016E+05 2.83702E+03 2.48906E+04 1.38779E+05 1.55165E-07 1.12957E-07
 -1       540-4.97396E+05-4.26201E+02-2.13491E+04-7.01301E+04 2.95827E-08 1.22182E-07
 -1       541 1.46892E+05 1.69765E+04 1.06424E+05 9.79615E+04-1.74775E-08 7.38903E-08
 -1       542-7.99107E+05-2.01436E+04-8.42781E+04-3.05288E+04 3.22389E-08 2.38375E-08
 -1       543 4.05688E+05 2.73369E+04 1.58038E+05-1.33661E+04 1.57261E-08 5.01041E-09
 -1       544-7.49251E+05-1.65442E+04-7.48708E+04 4.05274E+04 3.84262E-10-3.28850E-08
 -1       545 2.91439E+04 9.48736E+03 7.98429E+04-1.13659E+05-7.72604E-09-5.99928E-08
 -1       546-4.32676E+05 6.09881E+03-1.22384E+04 6.94180E+04 5.94059E-09-7.49965E-08
 -1       547-2.87095E+05-4.66127E+03 1.05841E+04-1.41625E+05-1.18878E-07-1.33964E-07
 -1       548-4.41513E+05 4.72454E+03-2.39033E+04 6.91851E+04-1.10310E-07-1.14028E-07
 -1       549 4.83210E+04 1.60599E+04 6.05135E+04-1.11520E+05-6.10926E-08-7.64139E-08
 -1       550-7.59117E+05-2.21335E+04-1.29067E+05 3.85962E+04 1.38079E-08-3.43080E-08
 -1       551 4.07564E+04-7.48820E+05-1.59408E+04-1.24666E+06-1.02125E-07-1.70839E-08
 -1       552 9.32108E+04-7.93794E+05 9.87930E+03-1.77756E+06-7.30943E-08 2.08966E-08
 -1       553 7.17305E+04-7.90204E+05 3.19961E+04-1.24002E+06-1.19806E-07 3.03116E-08
 -1       554 1.31999E+05-8.09705E+05 8.09818E+04-1.77950E+06-7.50879E-08 2.85818E-08
 -1       555 1.01466E+05-8.13860E+05 1.47908E+05-1.23984E+06-1.22403E-07-1.08885E-08
 -1       556 2.23786E+05-3.83806E+05 2.54986E+04-4.07282E+05-2.54076E-08 1.02154E-08
 -1       557 3.54332E+05-4.88167E+05 1.60186E+04-5.27768E+05 1.86265E-09 6.72298E-09
 -1       558 2.05534E+05-3.76551E+05 2.26658E+03-4.11758E+05-2.57569E-08 2.37924E-09
 -1       559 3.29336E+05-4.88201E+05 2.41274E+03-5.48229E+05 1.59780E-08 1.37661E-08
 -1       560 1.90218E+05-3.66947E+05-1.51915E+03-4.22794E+05 1.74041E-08 1.71858E-08
 -1       561 3.10096E+05-4.80498E+05 1.23453E+02-5.61348E+05 1.57161E-09 2.10403E-08
 -1       562 1.78110E+05-3.59425E+05-1.33058E+03-4.31562E+05-2.35741E-09 5.01313E-09
 -1       563 2.95715E+05-4.74228E+05-3.84800E+01-5.70741E+05-1.58907E-08-2.70538E-08
 -1       564 1.69469E+05-3.54041E+05-6.01910E+02-4.37686E+05-1.16415E-09-1.54232E-08
 -1       565 2.86175E+05-4.70073E+05 2.36060E+01-5.76836E+05 1.20199E-08 1.30512E-10
 -1       566 1.64417E+05-3.50845E+05-2.60352E+02-4.41219E+05-6.83940E-09-5.08771E-09
 -1       567 2.81539E+05-4.68057E+05-3.62622E+02-5.79652E+05 2.26810E-08 2.43017E-09
 -1       568 1.63046E+05-3.50005E+05-1.12603E+03-4.42274E+05 2.35013E-09 2.13877E-08
 -1       569 2.80416E+05-4.67983E+05-2.84401E+03-5.78223E+05-2.95313E-09 4.07490E-08
 -1       570 1.66448E+05-3.53241E+05-6.21786E+03-4.41253E+05 1.60071E-09-1.09494E-08
 -1       571 2.90609E+05 1.04597E+04 1.49167E+04-9.53911E+04 1.05774E-09 1.61331E-08
 -1       572 2.92769E+05 3.94533E+03 7.31040E+03-1.04653E+05-6.69843E-10 1.08412E-09
 -1       573 2.91466E+05 1.24375E+03 3.24826E+03-9.52141E+04-1.11686E-09-1.35424E-09
 -1       574 2.91679E+05 7.28318E+02 1.62900E+03-1.04878E+05 1.86537E-09-1.65355E-08
 -1       575 2.91559E+05 4.50077E+02 7.68862E+02-9.51899E+04-1.02888E-08-1.97451E-08
 -1       576 2.91543E+05 4.61794E+02 3.93695E+02-1.04908E+05-2.28663E-08-9.31232E-09
 -1       577 2.91599E+05 3.92148E+02 1.96590E+02-9.51866E+04-1.38280E-08-1.37961E-08
 -1       578 2.91574E+05 4.23672E+02 1.13686E+02-1.04912E+05-5.91172E-09-1.16434E-08
 -1       579 2.91672E+05 3.55263E+02 7.82603E+01-9.51862E+04 2.87946E-09 6.72844E-09
 -1       580 2.91676E+05 3.72400E+02 9.11157E+01-1.04908E+05-1.30713E-08 7.17046E-09
 -1       581 2.91786E+05 2.96410E+02 1.37861E+02-9.51922E+04 3.69255E-09-4.89308E-09
 -1       582 2.91852E+05 3.34856E+02 2.80463E+02-1.04846E+05 1.97906E-09-2.12622E-08
 -1       583 2.91927E+05 3.39025E+02 5.38399E+02-9.52488E+04 2.89583E-09-1.37143E-08
 -1       584 2.92229E+05 7.78813E+02 1.21839E+03-1.04369E+05 9.02946E-09-2.33740E-10
 -1       585 2.91953E+05 1.80420E+03 2.46721E+03-9.56688E+04 1.09503E-09-9.25138E-09
 -1       586-3.48072E+03 1.16951E+05-2.99475E+03-2.50871E+05-5.70708E-09 1.65596E-09
 -1       587-1.36030E+03 1.16691E+05 7.35392E+02-2.76102E+05-3.18687E-09 5.78211E-09
 -1       588 3.92554E+02 1.16504E+05 4.74788E+03-2.50732E+05-3.50883E-09-2.14732E-09
 -1       589 5.08626E+03 1.18979E+05 1.23483E+04-2.75869E+05-9.11859E-09-2.52621E-08
 -1       590 1.66228E+04 1.15169E+05 2.59163E+04-2.51164E+05-5.41877E-09-7.91260E-10
 -1       591-7.64739E+04-1.58177E+04-2.27040E+04-3.24863E+04-1.72372E-09 1.19253E-08
 -1       592-8.06972E+04-1.97845E+04-1.23598E+04-3.60541E+04 2.70231E-09-1.02057E-08
 -1       593-7.88109E+04-1.44454E+04-5.13335E+03-3.40612E+04 5.32012E-10-1.53889E-08
 -1       594-7.75205E+04-1.63805E+04-2.56400E+03-3.61854E+04 7.91147E-09 4.87319E-10
 -1       595-7.89889E+04-1.44488E+04-1.17595E+03-3.41352E+04-6.45674E-09 1.50187E-08
 -1       596-7.73007E+04-1.62203E+04-5.97851E+02-3.61610E+04-3.39250E-09 1.80813E-08
 -1       597-7.90109E+04-1.44642E+04-3.25134E+02-3.41383E+04-1.25077E-08-9.31800E-09
 -1       598-7.72792E+04-1.62136E+04-2.60828E+02-3.61539E+04-5.53956E-09 1.07245E-08
 -1       599-7.90097E+04-1.44647E+04-3.32480E+02-3.41380E+04 1.26897E-09-7.74060E-09
 -1       600-7.73010E+04-1.62208E+04-6.17296E+02-3.61588E+04-4.78940E-09 1.82819E-08
 -1       601-7.89844E+04-1.44502E+04-1.21713E+03-3.41343E+04 8.38531E-09-1.37106E-10
 -1       602-7.75284E+04-1.63855E+04-2.65521E+03-3.61801E+04 5.28632E-09-4.27281E-09
 -1       603-7.87973E+04-1.44495E+04-5.31671E+03-3.40585E+04-6.21844E-09 1.09549E-08
 -1       604-8.08358E+04-1.98918E+04-1.28004E+04-3.60198E+04 1.94547E-09 9.16975E-09
 -1       605-7.63573E+04-1.58883E+04-2.35136E+04-3.24464E+04 7.71763E-09 1.79298E-08
 -1       606 2.66668E+04-1.43325E+04-2.56932E+04 2.39478E+04 5.76256E-09 4.87944E-10
 -1       607 2.22768E+04-4.68102E+03-1.27951E+04 2.69124E+04-2.34468E-09 1.17325E-09
 -1       608 2.47788E+04-8.44495E+02-5.72793E+03 2.37795E+04-5.89353E-09 6.15819E-09
 -1       609 2.42993E+04-2.89406E+02-2.89360E+03 2.71261E+04 1.49157E-09 1.91199E-09
 -1       610 2.45653E+04-4.10964E+01-1.38056E+03 2.37595E+04 4.54929E-09-1.69546E-08
 -1       611 2.44900E+04-4.14196E+01-6.96068E+02 2.71492E+04 1.05820E-08-2.79097E-08
 -1       612 2.45183E+04-2.74330E+01-3.30886E+02 2.37575E+04 3.10047E-09 1.03694E-08
 -1       613 2.45017E+04-3.73729E+01-1.48239E+02 2.71519E+04 4.81259E-09 1.13300E-08
 -1       614 2.44961E+04-3.38937E+01-3.46633E+01 2.37568E+04-1.63345E-09 5.95401E-09
 -1       615 2.44965E+04-3.59186E+01 6.23661E+01 2.71524E+04-7.94398E-09 4.30236E-09
 -1       616 2.44788E+04-3.07982E+01 1.86799E+02 2.37570E+04 3.89446E-09 1.24746E-08
 -1       617 2.45190E+04 3.85633E+00 4.26104E+02 2.71519E+04 5.02973E-09 1.78943E-09
 -1       618 2.44418E+04 9.20146E+01 8.58850E+02 2.37573E+04 2.39879E-09 5.39853E-09
 -1       619 2.48222E+04 6.67900E+02 1.92859E+03 2.71513E+04-1.10549E-09 8.89463E-09
 -1       620 2.41566E+04 2.12856E+03 3.87642E+03 2.37589E+04 1.67995E-09 9.17862E-09
 -1       621 5.10177E+02 3.01333E+05 3.86248E+03 4.12681E+04 9.60881E-10 1.27184E-08
 -1       622 6.75920E+02 3.02223E+05 3.41818E+03 5.99151E+04 1.07639E-09 2.45127E-08
 -1       623 1.43742E+02 3.01527E+05 4.09509E+03 4.10823E+04 1.28512E-09 7.28232E-09
 -1       624 2.10312E+03 3.03420E+05 7.92850E+03 6.00969E+04 1.36225E-09 2.26107E-08
 -1       625 2.05336E+03 2.99955E+05 1.38498E+04 4.10802E+04 1.47884E-09-6.99742E-09
 -1       626 2.60890E+05 6.13808E+04 5.11599E+03 1.26705E+05 2.32194E-09 4.86398E-09
 -1       627 2.58575E+05 6.27756E+04 2.46535E+03 1.30973E+05-3.71529E-10 1.52975E-08
 -1       628 2.61017E+05 5.90401E+04 1.04267E+03 1.27574E+05-7.69342E-09 1.32923E-08
 -1       629 2.57940E+05 6.20959E+04 5.10335E+02 1.31213E+05-6.97491E-09 1.19198E-08
 -1       630 2.61032E+05 5.89270E+04 2.36841E+02 1.27611E+05-2.91493E-09 2.49042E-09
 -1       631 2.57874E+05 6.20700E+04 1.27595E+02 1.31215E+05 4.22187E-09 7.76498E-09
 -1       632 2.61028E+05 5.89309E+04 8.42147E+01 1.27607E+05 1.09503E-09-1.94307E-08
 -1       633 2.57865E+05 6.20718E+04 9.42039E+01 1.31211E+05-1.46088E-09-1.13089E-08
 -1       634 2.61024E+05 5.89280E+04 1.52581E+02 1.27607E+05-3.36553E-09 8.29755E-09
 -1       635 2.57880E+05 6.20701E+04 3.08958E+02 1.31217E+05-7.48190E-09-1.00895E-08
 -1       636 2.61015E+05 5.89222E+04 6.24051E+02 1.27606E+05-2.09798E-09-2.11680E-08
 -1       637 2.58015E+05 6.21671E+04 1.37221E+03 1.31216E+05 1.30899E-09-1.24583E-08
 -1       638 2.60966E+05 5.92253E+04 2.81938E+03 1.27469E+05 7.15954E-09 3.14049E-09
 -1       639 2.59496E+05 6.42270E+04 6.67081E+03 1.30780E+05 1.17559E-08-4.10728E-09
 -1       640 2.60761E+05 6.53762E+04 1.38431E+04 1.24878E+05 4.86807E-09-9.81800E-09
 -1       656 6.65869E+04-1.70417E+06-1.60736E+05-2.56468E+03-3.63798E-11 1.09586E-08
 -1       657-8.80889E+04-1.77680E+06-1.33161E+05 5.15029E+03-1.04046E-09 2.20533E-08
 -1       658 2.12257E+04-1.72480E+06-8.20112E+04-4.64807E+03-1.03660E-09 4.83217E-09
 -1       659-9.52563E+04-1.78021E+06-1.42581E+05 6.88213E+03-1.48066E-09-1.65535E-08
 -1       660 7.37383E+04-1.70078E+06-1.76931E+05-4.29651E+03-1.36060E-09 6.49408E-09
 -1       661 1.58408E+05 1.65736E+04 1.67049E+04 6.19251E+04 9.91349E-11 2.15186E-09
 -1       662 1.67854E+05 2.89426E+04 1.12580E+04 5.81749E+04-3.87672E-10 1.29664E-08
 -1       663 1.61689E+05 2.19329E+04 3.93732E+03 6.09728E+04-8.32415E-10-5.12273E-09
 -1       664 1.64050E+05 2.26754E+04 2.35534E+03 5.93381E+04-2.73613E-09-7.31188E-09
 -1       665 1.62187E+05 2.26648E+04 9.29167E+02 6.08275E+04 1.67324E-09-1.39228E-08
 -1       666 1.63461E+05 2.18384E+04 5.43898E+02 5.95276E+04 7.99230E-09-7.75792E-09
 -1       667 1.62274E+05 2.27480E+04 2.89092E+02 6.07911E+04 1.87904E-09 1.51408E-09
 -1       668 1.63364E+05 2.17786E+04 2.95024E+02 5.95805E+04-5.11143E-09-1.57897E-08
 -1       669 1.62282E+05 2.27229E+04 3.99797E+02 6.07749E+04-3.04746E-09-6.95593E-10
 -1       670 1.63462E+05 2.19958E+04 8.70915E+02 5.95834E+04-7.76482E-09 1.19095E-08
 -1       671 1.62177E+05 2.25354E+04 1.54649E+03 6.07862E+04-9.09104E-10-6.36112E-09
 -1       672 1.64363E+05 2.35003E+04 3.95676E+03 5.93650E+04 1.01310E-08-1.60092E-08
 -1       673 1.61385E+05 2.12565E+04 6.63093E+03 6.09787E+04 4.41651E-09-7.50833E-09
 -1       674 1.70674E+05 3.41536E+04 1.89631E+04 5.75109E+04 2.25828E-09-1.41672E-08
 -1       675 1.55906E+05 1.21805E+04 2.81479E+04 6.25283E+04-9.39508E-10-8.23638E-09
 -1       676 2.41088E+01-2.95860E+05-1.11330E+03-1.37773E+02 3.24775E-09-1.19647E-08
 -1       677-2.94486E+02-2.96129E+05-2.03752E+03 2.75323E+02 9.18121E-09-3.04661E-08
 -1       678 1.97522E+02-2.95668E+05-3.60184E+03-1.37461E+02 1.33286E-09 6.98014E-09
 -1       679-3.60189E+03-2.98304E+05-8.55647E+03 2.74134E+02 8.91214E-09 1.63752E-08
 -1       680 2.15054E+03-2.93687E+05-1.37901E+04-1.35065E+02 3.15595E-09 3.73753E-09
 -1       771-3.06173E+06-7.47421E+05-1.66202E+05-1.46589E+06-2.95695E-08-2.11876E-08
 -1       772-2.98459E+06-8.36345E+05-8.56922E+04-1.56870E+06-2.34286E-08 1.26347E-08
 -1       773-3.09327E+06-7.22833E+05-4.36778E+04-1.48046E+06-1.04483E-08 1.65019E-08
 -1       774-2.97505E+06-8.17775E+05-1.94882E+04-1.59449E+06 2.64263E-08 5.82077E-10
 -1       775-3.10974E+06-7.11281E+05-1.45738E+04-1.48753E+06-2.61934E-10 8.19273E-09
 -1       776-2.98742E+06-8.14730E+05-5.45064E+03-1.61401E+06-1.02882E-08-1.89175E-10
 -1       777-3.12403E+06-7.00969E+05-6.43803E+03-1.49376E+06-5.82077E-11 9.89530E-10
 -1       778-3.00033E+06-8.11900E+05-1.82050E+03-1.63078E+06-2.75031E-09 7.67977E-09
 -1       779-3.13631E+06-6.91958E+05-3.21692E+03-1.49908E+06-1.11904E-08-7.10133E-09
 -1       780-3.01170E+06-8.09200E+05-5.33534E+02-1.64444E+06-1.55997E-08 2.87400E-10
 -1       781-3.14608E+06-6.84693E+05-1.24962E+03-1.50325E+06-2.74013E-08-5.47516E-10
 -1       782-3.02047E+06-8.06907E+05 4.50669E+02-1.65452E+06-4.16476E-08-9.27639E-09
 -1       783-3.15296E+06-6.79645E+05 7.01684E+02-1.50617E+06-9.80071E-09-1.38866E-08
 -1       784-3.02532E+06-8.04618E+05 2.90780E+03-1.66075E+06-2.31994E-08 3.22598E-09
 -1       785-3.15703E+06-6.76634E+05 5.13335E+03-1.50802E+06-3.77659E-08 7.21775E-09
 -1       786 1.22596E+05-9.73107E+03 2.25137E+04-3.19702E+02 3.47002E-09 9.13042E-09
 -1       787 1.32360E+05 1.12664E+04 1.59275E+04-1.36364E+02 6.69253E-09-1.36042E-08
 -1       788 1.26361E+05-1.52488E+03 5.82473E+03-2.85077E+02 4.99557E-09 1.98493E-08
 -1       789 1.27974E+05 1.76501E+03 3.65646E+03-1.89441E+02-2.26137E-09 8.58790E-10
 -1       790 1.26982E+05-2.37411E+02 1.48024E+03-2.66644E+02-3.67891E-09-1.37845E-09
 -1       791 1.27248E+05 2.74631E+02 8.54550E+02-2.21064E+02-6.84813E-09 2.25893E-08
 -1       792 1.27088E+05-3.56186E+01 3.61328E+02-2.53457E+02-5.57081E-09 1.61735E-08
 -1       793 1.27121E+05 3.72381E+01 1.78385E+02-2.45963E+02-1.65362E-10 1.09460E-08
 -1       794 1.27109E+05-1.67759E-01 4.28488E+01-2.41744E+02 3.53050E-09 1.14794E-08
 -1       795 1.27083E+05-3.03829E+01-6.70534E+01-2.70484E+02-5.38778E-09-5.37759E-09
 -1       796 1.27126E+05 3.19642E+01-1.78491E+02-2.28935E+02 3.33870E-09 5.49271E-09
 -1       797 1.26981E+05-2.38505E+02-4.85379E+02-2.99959E+02 3.32700E-09-6.11087E-09
 -1       798 1.27211E+05 2.07798E+02-7.86992E+02-2.12269E+02 2.60489E-09 1.56051E-08
 -1       799 1.26384E+05-1.53191E+03-2.16399E+03-3.41283E+02 6.72575E-09-5.37639E-09
 -1       800 1.27723E+05 1.32431E+03-3.06220E+03-1.87613E+02 3.48917E-10-2.54454E-09
 -1       801-1.71351E+05-1.00001E+07-1.39384E+06 1.41601E+06 9.18808E-08-5.31509E-08
 -1       802 7.38641E+05 5.95415E+06 2.18266E+06-1.74808E+06 2.58427E-07-3.44517E-08
 -1       803-5.36864E+05-1.42713E+07-1.89133E+06 8.98487E+05 7.82275E-08 1.67602E-08
 -1       804 2.87356E+05 2.39791E+06 1.53796E+06 6.77424E+05-1.18947E-07-1.06460E-07
 -1       805 1.89397E+05-6.45796E+06-2.86555E+05-1.00383E+06-4.95202E-08-7.04758E-08
 -1       806-3.09072E+05-5.97851E+04-2.28608E+04-1.22471E+05-3.61388E-09 1.39744E-08
 -1       807-3.10870E+05-5.60535E+04-1.12313E+04-1.28018E+05 1.46083E-08 1.95303E-08
 -1       808-3.09700E+05-5.15461E+04-4.76466E+03-1.26366E+05-8.40191E-09-9.07835E-09
 -1       809-3.08509E+05-5.28978E+04-2.32980E+03-1.28294E+05-1.27902E-08 2.13606E-08
 -1       810-3.09794E+05-5.12593E+04-1.06789E+03-1.26538E+05-1.99179E-09 4.04725E-11
 -1       811-3.08326E+05-5.27710E+04-5.31091E+02-1.28259E+05-7.01766E-09 2.20552E-09
 -1       812-3.09808E+05-5.12840E+04-2.68703E+02-1.26537E+05-9.75160E-09 1.50794E-09
 -1       813-3.08301E+05-5.27732E+04-1.74812E+02-1.28240E+05 1.09640E-09 2.07292E-08
 -1       814-3.09801E+05-5.12937E+04-1.73527E+02-1.26533E+05 2.65754E-09 1.02059E-08
 -1       815-3.08305E+05-5.27755E+04-2.79852E+02-1.28232E+05 1.07957E-09 1.42404E-08
 -1       816-3.09780E+05-5.12928E+04-5.30585E+02-1.26529E+05 5.12864E-09 3.21265E-08
 -1       817-3.08395E+05-5.28261E+04-1.13878E+03-1.28221E+05-1.95960E-08 2.27471E-08
 -1       818-3.09711E+05-5.14536E+04-2.32275E+03-1.26454E+05-1.42345E-08 3.13867E-09
 -1       819-3.09666E+05-5.42296E+04-5.46527E+03-1.27920E+05-1.83886E-08 1.75176E-08
 -1       820-3.09273E+05-5.55820E+04-1.11238E+04-1.24690E+05-1.10667E-08 1.57206E-09
 -1       821-3.78200E+05 2.09155E+04-4.86633E+04 2.08257E+03 1.42222E-08 7.03585E-09
 -1       822-3.98046E+05-2.42280E+04-3.42184E+04-4.30776E+03 4.89376E-09 2.10421E-08
 -1       823-3.85727E+05 3.29558E+03-1.25715E+04 3.33434E+03-1.16915E-08 1.09849E-08
 -1       824-3.88979E+05-3.80103E+03-7.87181E+03-5.16413E+03 1.21569E-09 2.20757E-08
 -1       825-3.87274E+05 5.11952E+02-3.29283E+03 2.93905E+03 2.01946E-08 2.50145E-09
 -1       826-3.86599E+05-5.70631E+02-1.76110E+03-2.95455E+03 2.45404E-08 5.65390E-09
 -1       827-3.88083E+05 4.98326E+01-1.17982E+03 1.12462E+03 1.12968E-08-2.78408E-09
 -1       828-3.85933E+05-1.35952E+02-6.08000E+02 1.09347E+03-2.07051E-09 1.13214E-08
 -1       829-3.87928E+05 6.80586E+01-1.16812E+03-1.10900E+03 4.08295E-09 1.97022E-08
 -1       830-3.86935E+05-6.22333E+02-1.89088E+03 4.73972E+03 1.93480E-09 1.97765E-08
 -1       831-3.87102E+05 5.52703E+02-3.36590E+03-2.52164E+03-6.25901E-09 4.01883E-09
 -1       832-3.89054E+05-3.95482E+03-8.14918E+03 5.96325E+03-5.09210E-09 1.28452E-08
 -1       833-3.85824E+05 3.40919E+03-1.30337E+04-2.33258E+03-1.34835E-09 1.70076E-08
 -1       834-3.98084E+05-2.50636E+04-3.53336E+04 4.05248E+03-4.38970E-09 2.01130E-08
 -1       835-3.78056E+05 2.16297E+04-5.03760E+04-6.10798E+02 5.99547E-09 1.07684E-08
 -1       836-1.40341E+03 3.70540E+05 2.27733E+04-1.57411E+04-6.93763E-09-2.56478E-10
 -1       837 4.85737E+03 3.77672E+05 1.93043E+04-3.21827E+04-7.52595E-09 9.47080E-09
 -1       838-5.56360E+02 3.72533E+05 1.97165E+04-1.56709E+04-6.46105E-09 3.49910E-08
 -1       839 1.24295E+04 3.83313E+05 3.73446E+04-3.22347E+04-7.06495E-09 1.56530E-08
 -1       840-3.84199E+03 3.64841E+05 5.95719E+04-1.56950E+04-6.15182E-09 3.80211E-09
 -1       856-5.20767E+04 8.02045E+03-2.11356E+04-3.97309E+02 3.69232E-09 1.70348E-08
 -1       857-6.07840E+04-9.42383E+03-1.45496E+04 5.63305E+03 3.39600E-09 1.40908E-08
 -1       858-5.55250E+04 1.12479E+03-5.48418E+03-4.21388E+02 1.95746E-09 1.59944E-08
 -1       859-5.68267E+04-1.32333E+03-3.30944E+03 5.66886E+03-3.53651E-10 2.33854E-08
 -1       860-5.60402E+04 1.57528E+02-1.38696E+03-4.32850E+02-5.86937E-10 1.05564E-09
 -1       861-5.62341E+04-1.88107E+02-7.62947E+02 5.68447E+03 3.51132E-09 2.41822E-09
 -1       862-5.61208E+04 2.13416E+01-3.17047E+02-4.36976E+02-1.99966E-09 2.28096E-09
 -1       863-5.61353E+04-2.18742E+01-1.15264E+02 5.68687E+03-2.95798E-09 1.51254E-08
 -1       864-5.61395E+04-4.92184E+00 4.76877E+01-4.35248E+02-2.61339E-09 1.84376E-08
 -1       865-5.60794E+04 5.97864E+01 2.56248E+02 5.67699E+03-4.76183E-09 2.66749E-09
 -1       866-5.61745E+04-6.03335E+01 5.16154E+02-4.27099E+02-3.72324E-11-9.14497E-10
 -1       867-5.58368E+04 4.98209E+02 1.27030E+03 5.65487E+03-1.07593E-09 6.82718E-09
 -1       868-5.63773E+04-4.35421E+02 2.11081E+03-4.13126E+02-2.96791E-09 8.23775E-09
 -1       869-5.42893E+04 3.62384E+03 5.62032E+03 5.61848E+03-4.10182E-10-2.49925E-08
 -1       870-5.77141E+04-3.10106E+03 8.15636E+03-3.90599E+02-5.25040E-09 3.37832E-09
 -1       871-5.51900E+03-2.13990E+04-1.94965E+04 1.30454E+05-5.53337E-09 1.24855E-08
 -1       872-1.98151E+03-2.59328E+04-8.16465E+03 1.69153E+05-1.14051E-08 7.59701E-09
 -1       873 4.06218E+02-2.37396E+04 5.87528E+02 1.30167E+05-7.04404E-09-4.50007E-09
 -1       874 3.30692E+03-2.13296E+04 9.77659E+03 1.69182E+05-1.11286E-08 2.86495E-08
 -1       875 6.84629E+03-2.60688E+04 2.20572E+04 1.30406E+05-4.46198E-09 1.28075E-08
 -1       876 2.93753E+05 4.95067E+04 1.50992E+04 1.17880E+05 3.33148E-09 1.99161E-08
 -1       877 2.94751E+05 5.26867E+04 8.06354E+03 1.22212E+05 1.58327E-08 4.08590E-09
 -1       878 2.95165E+05 4.78341E+04 3.37823E+03 1.19117E+05-5.77211E-09-1.24692E-09
 -1       879 2.92698E+05 5.06383E+04 1.68324E+03 1.22314E+05 2.00271E-09 4.73153E-09
 -1       880 2.95266E+05 4.78168E+04 7.84035E+02 1.19168E+05-3.04226E-10-1.14363E-09
 -1       881 2.92562E+05 5.05507E+04 4.18709E+02 1.22290E+05-3.90537E-09-5.81005E-09
 -1       882 2.95275E+05 4.78301E+04 2.67901E+02 1.19169E+05-2.23486E-09 2.64205E-09
 -1       883 2.92552E+05 5.05462E+04 2.88065E+02 1.22283E+05-4.19618E-09 1.31787E-08
 -1       884 2.95268E+05 4.78273E+04 4.58296E+02 1.19170E+05-6.40625E-10 2.16039E-08
 -1       885 2.92589E+05 5.05525E+04 9.21461E+02 1.22294E+05-2.71972E-09-3.96801E-09
 -1       886 2.95233E+05 4.78004E+04 1.85718E+03 1.19166E+05-7.83399E-09-1.09480E-09
 -1       887 2.92915E+05 5.07665E+04 4.05676E+03 1.22341E+05 4.65130E-09-1.32820E-09
 -1       888 2.94976E+05 4.78456E+04 8.17448E+03 1.19036E+05 9.65684E-10 1.33400E-08
 -1       889 2.97782E+05 5.58275E+04 1.95273E+04 1.22192E+05 3.10358E-09 1.22018E-08
 -1       890 2.91640E+05 5.18089E+04 3.65742E+04 1.15925E+05-3.86171E-09 3.64525E-09
 -1       891-8.91617E+01-1.62753E+05-1.99655E+03 2.71388E+04 6.63931E-11 1.20874E-08
 -1       892-1.75063E+02-1.63281E+05-2.14418E+03 4.12122E+04 2.31807E-09 2.47574E-08
 -1       893 4.39192E+01-1.62818E+05-3.03574E+03 2.71462E+04-2.00180E-09 2.19597E-09
 -1       894-1.50961E+03-1.64428E+05-6.28273E+03 4.10597E+04 2.86332E-09-1.04783E-08
 -1       895-1.19893E+03-1.61509E+05-1.10638E+04 2.72932E+04 1.25124E-09-2.88092E-08
 -1       956-3.77220E+05-5.44775E+03-1.34473E+04 3.09012E+04 7.52334E-09-3.92538E-09
 -1       957-3.79858E+05-1.92198E+03-6.90226E+03 3.71348E+04-2.21416E-09-1.85778E-08
 -1       958-3.78428E+05-2.41055E+02-3.11039E+03 3.07332E+04-5.91081E-09 1.96451E-09
 -1       959-3.78625E+05-1.36428E+02-1.58821E+03 3.73307E+04 1.55160E-09-1.37670E-08
 -1       960-3.78547E+05-4.49621E+01-7.74495E+02 3.07159E+04 8.44375E-09-3.86285E-09
 -1       961-3.78545E+05-6.33729E+01-4.10632E+02 3.73512E+04 1.08757E-08 1.67940E-08
 -1       962-3.78574E+05-4.61459E+01-2.35110E+02 3.07130E+04 4.74029E-09 1.08853E-08
 -1       963-3.78545E+05-5.91512E+01-1.88757E+02 3.73549E+04 1.52158E-09 8.53333E-10
 -1       964-3.78580E+05-4.27715E+01-2.29574E+02 3.07122E+04-1.44111E-09-8.94261E-10
 -1       965-3.78557E+05-5.61818E+01-3.97093E+02 3.73542E+04 1.21480E-09-1.39805E-08
 -1       966-3.78564E+05-3.49324E+01-7.46144E+02 3.07137E+04 6.94172E-09 2.64367E-09
 -1       967-3.78647E+05-1.19735E+02-1.53033E+03 3.73398E+04-1.21122E-09 9.50149E-09
 -1       968-3.78460E+05-2.17441E+02-2.99586E+03 3.07264E+04-9.86802E-10-1.12497E-08
 -1       969-3.79847E+05-1.83458E+03-6.65072E+03 3.71912E+04 5.87988E-10-1.18084E-09
 -1       970-3.77303E+05-5.23038E+03-1.29560E+04 3.08537E+04-1.95905E-09 1.76260E-09
 -1       971-3.45361E+05-1.72687E+03-9.30641E+03 1.53720E+04 1.07775E-09-6.56225E-09
 -1       972-3.47601E+05-1.27137E+03-5.06818E+03 2.12591E+04-6.38283E-09 3.76440E-09
 -1       973-3.46398E+05-6.20649E+01-2.27009E+03 1.52510E+04-2.50566E-09-9.72614E-09
 -1       974-3.46533E+05-8.11327E+01-1.17674E+03 2.13961E+04-2.34832E-09-2.03863E-09
 -1       975-3.46480E+05-1.72121E+01-5.88683E+02 1.52386E+04-1.32377E-09 8.24457E-10
 -1       976-3.46472E+05-3.13127E+01-3.40487E+02 2.14119E+04 3.81692E-09-5.98448E-10
 -1       977-3.46496E+05-1.64696E+01-2.48654E+02 1.52353E+04 3.43471E-09-8.40305E-09
 -1       978-3.46477E+05-2.50924E+01-2.93071E+02 2.14168E+04-3.53282E-09-2.10707E-09
 -1       979-3.46496E+05-7.99372E+00-4.72671E+02 1.52338E+04-6.21839E-09 1.17902E-08
 -1       980-3.46512E+05-2.20325E+01-9.13797E+02 2.14178E+04-4.66360E-09 1.87338E-08
 -1       981-3.46467E+05 1.48476E+01-1.77040E+03 1.52343E+04 1.36242E-09 9.38383E-09
 -1       982-3.46755E+05-1.52844E+02-3.65972E+03 2.14111E+04-5.75699E-09 2.81174E-09
 -1       983-3.46244E+05-9.85128E+01-7.11102E+03 1.52404E+04-6.22686E-09 1.06736E-08
 -1       984-3.50176E+05-3.86672E+03-1.59249E+04 2.13255E+04 4.20459E-09 1.36224E-08
 -1       985-3.43025E+05-5.30191E+03-2.92431E+04 1.53117E+04-3.27782E-09-2.47201E-09
 -3
    1PSTEP                        27          14           1          
  100CL  114 6.62933E-01         409                     0   14           1
 -4  DISP        4    1
 -5  D1          1    2    1    0
 -5  D2          1    2    2    0
 -5  D3          1    2    3    0
 -5  ALL         1    2    0    0    1ALL
 -1         1 2.72663E-03 0.00000E+00 0.00000E+00
 -1         2 1.32894E-03-6.39641E-28-5.29396E-23
 -1         3 3.42744E-04-6.11325E-28 0.00000E+00
 -1         5 1.77138E-04-2.03920E-27-8.27181E-25
 -1         8 2.71593E-03-4.01330E-07 0.00000E+00
 -1         9 2.70918E-03-2.00165E-04 0.00000E+00
 -1        10 3.10787E-04-3.39486E-06-6.61744E-24
 -1        12 1.78987E-04 8.09425E-07-1.65436E-24
 -1        15 2.70373E-03-4.24401E-07-1.03398E-25
 -1        16 2.77904E-03-2.02039E-04 0.00000E+00
 -1        17 2.11507E-04-7.74446E-06 0.00000E+00
 -1        18 1.82940E-04 3.44456E-05 0.00000E+00
 -1        19 1.84534E-04 1.61243E-06 0.00000E+00
 -1        20 1.84673E-04-9.90000E-06 0.00000E+00
 -1        21 1.83781E-04-2.54541E-05-3.30872E-24
 -1        24 3.06055E-05-1.19669E-05 0.00000E+00
 -1        25 1.93730E-04 3.46714E-05 0.00000E+00
 -1        26 1.94404E-04 2.23244E-06 0.00000E+00
 -1        27 1.92211E-04-1.34592E-05 0.00000E+00
 -1        28 1.91896E-04-2.60762E-05 0.00000E+00
 -1        32 0.00000E+00 0.00000E+00 0.00000E+00
 -1        33 2.03286E-04 2.98696E-06 0.00000E+00
 -1        34 2.01168E-04-1.35155E-05 0.00000E+00
 -1        35 1.99235E-04-2.64186E-05 0.00000E+00
 -1        51 2.72591E-03-8.44265E-08 4.96308E-24
 -1        52 2.72460E-03-1.50385E-07-3.30872E-24
 -1        53 2.72281E-03-2.12840E-07 0.00000E+00
 -1        54 2.72069E-03-2.74026E-07 0.00000E+00
 -1        55 2.71835E-03-3.35706E-07 3.30872E-24
 -1        56 2.71855E-03 9.43308E-06-5.29396E-23
 -1        57 2.70237E-03 3.88048E-05-5.29396E-23
 -1        58 2.68050E-03 8.18777E-05 1.05879E-22
 -1        59 2.65597E-03 1.31115E-04 5.29396E-23
 -1        60 2.63247E-03 1.77923E-04 1.05879E-22
 -1        61 2.61355E-03 2.13903E-04 5.29396E-23
 -1        62 2.60164E-03 2.32588E-04 0.00000E+00
 -1        63 2.59828E-03 2.29052E-04 5.29396E-23
 -1        64 2.60324E-03 2.02455E-04 1.05879E-22
 -1        65 2.61549E-03 1.54150E-04 5.29396E-23
 -1        66 2.63292E-03 8.96288E-05 0.00000E+00
 -1        67 2.65311E-03 1.59914E-05 0.00000E+00
 -1        68 2.67337E-03-5.78834E-05-1.05879E-22
 -1        69 2.69104E-03-1.23087E-04 5.29396E-23
 -1        70 2.70365E-03-1.72405E-04-1.05879E-22
 -1        86 1.41575E-03-6.29938E-06 0.00000E+00
 -1        87 1.66668E-03-3.97191E-05-2.64698E-23
 -1        88 2.00412E-03-9.72163E-05 2.64698E-23
 -1        89 2.34622E-03-1.56341E-04 1.32349E-23
 -1        90 2.60841E-03-1.92530E-04 0.00000E+00
 -1       121 3.41846E-04-5.48071E-07-1.32349E-23
 -1       122 3.39158E-04-1.09923E-06-6.61744E-24
 -1       123 3.34688E-04-1.65652E-06 0.00000E+00
 -1       124 3.28453E-04-2.22298E-06-6.61744E-24
 -1       125 3.20476E-04-2.80126E-06-1.32349E-23
 -1       191 1.77189E-04 1.34968E-07-3.30872E-24
 -1       192 1.77343E-04 2.69925E-07 4.13590E-25
 -1       193 1.77600E-04 4.04861E-07 1.65436E-24
 -1       194 1.77960E-04 5.39765E-07 0.00000E+00
 -1       195 1.78422E-04 6.74624E-07-2.48154E-24
 -1       251 2.71563E-03 1.60711E-06 0.00000E+00
 -1       252 2.71533E-03 3.46933E-06 3.30872E-24
 -1       253 2.71503E-03 4.17809E-06-6.61744E-24
 -1       254 2.71472E-03 2.74047E-06-3.30872E-24
 -1       255 2.71441E-03-1.51262E-06 6.61744E-24
 -1       256 2.71408E-03-9.21522E-06 3.30872E-24
 -1       257 2.71371E-03-2.04812E-05-6.61744E-24
 -1       258 2.71330E-03-3.53800E-05 3.30872E-24
 -1       259 2.71284E-03-5.34339E-05-6.61744E-24
 -1       260 2.71233E-03-7.41255E-05 0.00000E+00
 -1       261 2.71178E-03-9.65394E-05 1.32349E-23
 -1       262 2.71122E-03-1.19740E-04 6.61744E-24
 -1       263 2.71066E-03-1.42671E-04 0.00000E+00
 -1       264 2.71013E-03-1.64282E-04 0.00000E+00
 -1       265 2.70964E-03-1.83722E-04 1.32349E-23
 -1       266 2.71390E-03-4.10746E-07 0.00000E+00
 -1       267 2.71186E-03-4.13912E-07 0.00000E+00
 -1       268 2.70983E-03-4.17474E-07-4.13590E-25
 -1       269 2.70780E-03-4.19863E-07 0.00000E+00
 -1       270 2.70576E-03-4.22225E-07 0.00000E+00
 -1       271 2.71512E-03 2.52998E-10 0.00000E+00
 -1       272 2.71531E-03-2.31902E-06 6.61744E-24
 -1       273 2.71645E-03-7.19552E-06 1.32349E-23
 -1       274 2.71846E-03-1.44528E-05 0.00000E+00
 -1       275 2.72128E-03-2.38932E-05 0.00000E+00
 -1       276 2.72481E-03-3.53035E-05 0.00000E+00
 -1       277 2.72897E-03-4.84540E-05-2.64698E-23
 -1       278 2.73366E-03-6.31015E-05 0.00000E+00
 -1       279 2.73881E-03-7.89911E-05 1.32349E-23
 -1       280 2.74430E-03-9.58579E-05 6.61744E-24
 -1       281 2.75004E-03-1.13429E-04 0.00000E+00
 -1       282 2.75594E-03-1.31426E-04 6.61744E-24
 -1       283 2.76189E-03-1.49568E-04-1.32349E-23
 -1       284 2.76779E-03-1.67572E-04 0.00000E+00
 -1       285 2.77354E-03-1.85155E-04 0.00000E+00
 -1       301 2.72187E-03-2.00513E-04 1.32349E-23
 -1       302 2.73290E-03-2.00813E-04 3.30872E-24
 -1       303 2.74318E-03-2.01102E-04 0.00000E+00
 -1       304 2.75367E-03-2.01392E-04 6.61744E-24
 -1       305 2.76532E-03-2.01696E-04-2.64698E-23
 -1       306 2.74729E-03-3.55732E-04 0.00000E+00
 -1       307 2.81114E-03-7.70809E-04-5.29396E-23
 -1       308 2.85771E-03-1.37680E-03 0.00000E+00
 -1       309 2.88155E-03-2.07738E-03-5.29396E-23
 -1       310 2.91303E-03-2.74668E-03 0.00000E+00
 -1       311 2.97266E-03-3.26158E-03 5.29396E-23
 -1       312 3.03027E-03-3.54158E-03 2.11758E-22
 -1       313 3.02468E-03-3.54923E-03 0.00000E+00
 -1       314 2.88193E-03-3.29696E-03 1.05879E-22
 -1       315 2.56135E-03-2.84960E-03-5.29396E-23
 -1       316 2.08172E-03-2.28392E-03 1.05879E-22
 -1       317 1.50943E-03-1.66913E-03-5.29396E-23
 -1       318 9.59081E-04-1.06566E-03 0.00000E+00
 -1       319 5.38793E-04-5.38424E-04 0.00000E+00
 -1       320 2.92260E-04-1.61629E-04 0.00000E+00
 -1       336 2.99198E-04-4.05123E-06 1.32349E-23
 -1       337 2.85533E-04-4.73329E-06 6.61744E-24
 -1       338 2.69854E-04-5.44328E-06 0.00000E+00
 -1       339 2.52234E-04-6.18202E-06 0.00000E+00
 -1       340 2.32755E-04-6.95398E-06 0.00000E+00
 -1       406 1.79655E-04 9.44149E-07-8.27181E-25
 -1       407 1.80425E-04 1.07876E-06 8.27181E-25
 -1       408 1.81298E-04 1.21320E-06-1.65436E-24
 -1       409 1.82275E-04 1.34731E-06 2.06795E-25
 -1       410 1.83353E-04 1.48080E-06 2.89513E-24
 -1       521 2.81773E-03-3.66914E-04 1.05879E-22
 -1       522 2.87977E-03-8.02521E-04 5.29396E-23
 -1       523 2.91976E-03-1.43679E-03 0.00000E+00
 -1       524 2.93419E-03-2.16659E-03-5.29396E-23
 -1       525 2.95761E-03-2.86306E-03 1.05879E-22
 -1       526 3.01366E-03-3.40041E-03 5.29396E-23
 -1       527 3.07086E-03-3.69114E-03 0.00000E+00
 -1       528 3.06290E-03-3.69689E-03 0.00000E+00
 -1       529 2.90782E-03-3.43013E-03-2.11758E-22
 -1       530 2.56263E-03-2.96383E-03-5.29396E-23
 -1       531 2.04701E-03-2.37860E-03-1.05879E-22
 -1       532 1.43388E-03-1.74627E-03 0.00000E+00
 -1       533 8.43430E-04-1.12458E-03 1.05879E-22
 -1       534 3.89112E-04-5.76093E-04 0.00000E+00
 -1       535 1.20976E-04-1.79436E-04 0.00000E+00
 -1       536 2.10752E-04 2.71862E-05-6.61744E-24
 -1       537 2.08834E-04 8.76360E-05 1.65436E-24
 -1       538 2.05869E-04 1.64337E-04-3.30872E-24
 -1       539 2.02372E-04 2.47937E-04 0.00000E+00
 -1       540 1.99225E-04 3.26932E-04-3.30872E-24
 -1       541 1.97180E-04 3.89841E-04 0.00000E+00
 -1       542 1.96236E-04 4.29910E-04 0.00000E+00
 -1       543 1.96011E-04 4.40533E-04 1.65436E-24
 -1       544 1.95689E-04 4.22486E-04 0.00000E+00
 -1       545 1.94516E-04 3.76762E-04-1.65436E-24
 -1       546 1.92331E-04 3.11488E-04 0.00000E+00
 -1       547 1.89372E-04 2.34914E-04 0.00000E+00
 -1       548 1.86440E-04 1.58717E-04 3.30872E-24
 -1       549 1.84326E-04 9.45725E-05 1.65436E-24
 -1       550 1.83227E-04 5.05136E-05-1.65436E-24
 -1       551 1.86301E-04-8.31335E-06 0.00000E+00
 -1       552 1.57850E-04-8.96272E-06 0.00000E+00
 -1       553 1.27095E-04-9.67436E-06 1.32349E-23
 -1       554 9.49977E-05-1.04272E-05-3.30872E-24
 -1       555 6.25162E-05-1.11937E-05 1.32349E-23
 -1       556 2.03857E-04 1.18159E-05 0.00000E+00
 -1       557 1.97677E-04 2.76798E-05-2.64698E-23
 -1       558 1.92831E-04 4.01353E-05 0.00000E+00
 -1       559 1.89188E-04 4.94928E-05 0.00000E+00
 -1       560 1.86616E-04 5.60632E-05 0.00000E+00
 -1       561 1.84989E-04 6.01601E-05 0.00000E+00
 -1       562 1.84181E-04 6.20980E-05 0.00000E+00
 -1       563 1.84067E-04 6.21926E-05 0.00000E+00
 -1       564 1.84526E-04 6.07604E-05 0.00000E+00
 -1       565 1.85436E-04 5.81186E-05 0.00000E+00
 -1       566 1.86679E-04 5.45849E-05 0.00000E+00
 -1       567 1.88136E-04 5.04774E-05 0.00000E+00
 -1       568 1.89687E-04 4.61145E-05 1.65436E-24
 -1       569 1.91215E-04 4.18144E-05-8.27181E-25
 -1       570 1.92601E-04 3.78955E-05 0.00000E+00
 -1       571 1.83037E-04 3.23158E-05 2.48154E-24
 -1       572 1.83136E-04 3.01200E-05 4.13590E-25
 -1       573 1.83235E-04 2.78742E-05 0.00000E+00
 -1       574 1.83334E-04 2.55945E-05 8.27181E-25
 -1       575 1.83434E-04 2.32976E-05-3.30872E-24
 -1       576 1.83533E-04 2.09998E-05 1.65436E-24
 -1       577 1.83633E-04 1.87177E-05-3.30872E-24
 -1       578 1.83732E-04 1.64680E-05 0.00000E+00
 -1       579 1.83832E-04 1.42670E-05 0.00000E+00
 -1       580 1.83932E-04 1.21314E-05 0.00000E+00
 -1       581 1.84032E-04 1.00777E-05 0.00000E+00
 -1       582 1.84132E-04 8.12249E-06 6.61744E-24
 -1       583 1.84232E-04 6.28219E-06 0.00000E+00
 -1       584 1.84333E-04 4.57319E-06 0.00000E+00
 -1       585 1.84433E-04 3.01166E-06 6.61744E-24
 -1       586 1.84698E-04 3.44854E-05 3.30872E-24
 -1       587 1.86414E-04 3.45246E-05-8.27181E-25
 -1       588 1.88132E-04 3.45634E-05 8.27181E-25
 -1       589 1.89895E-04 3.46016E-05 0.00000E+00
 -1       590 1.91747E-04 3.46385E-05 0.00000E+00
 -1       591 1.83670E-04 3.24093E-05-1.03398E-25
 -1       592 1.84403E-04 3.03526E-05 0.00000E+00
 -1       593 1.85140E-04 2.82815E-05 0.00000E+00
 -1       594 1.85881E-04 2.62008E-05 0.00000E+00
 -1       595 1.86624E-04 2.41153E-05 0.00000E+00
 -1       596 1.87366E-04 2.20299E-05-4.13590E-25
 -1       597 1.88107E-04 1.99493E-05 0.00000E+00
 -1       598 1.88844E-04 1.78784E-05 4.13590E-25
 -1       599 1.89576E-04 1.58218E-05 0.00000E+00
 -1       600 1.90300E-04 1.37845E-05 4.13590E-25
 -1       601 1.91016E-04 1.17711E-05 8.27181E-25
 -1       602 1.91721E-04 9.78639E-06 4.13590E-25
 -1       603 1.92413E-04 7.83526E-06 0.00000E+00
 -1       604 1.93092E-04 5.92255E-06-2.06795E-25
 -1       605 1.93755E-04 4.05295E-06 0.00000E+00
 -1       606 1.84547E-04 4.46691E-07 0.00000E+00
 -1       607 1.84557E-04-6.33295E-07 0.00000E+00
 -1       608 1.84566E-04-1.63257E-06-3.30872E-24
 -1       609 1.84574E-04-2.55679E-06 0.00000E+00
 -1       610 1.84582E-04-3.41172E-06 0.00000E+00
 -1       611 1.84591E-04-4.20312E-06 0.00000E+00
 -1       612 1.84599E-04-4.93679E-06 0.00000E+00
 -1       613 1.84607E-04-5.61855E-06 0.00000E+00
 -1       614 1.84616E-04-6.25419E-06 0.00000E+00
 -1       615 1.84624E-04-6.84951E-06 0.00000E+00
 -1       616 1.84632E-04-7.41034E-06 1.65436E-24
 -1       617 1.84641E-04-7.94246E-06 0.00000E+00
 -1       618 1.84649E-04-8.45167E-06 0.00000E+00
 -1       619 1.84658E-04-8.94381E-06 0.00000E+00
 -1       620 1.84666E-04-9.42465E-06-2.06795E-25
 -1       621 1.85894E-04 1.71632E-06 0.00000E+00
 -1       622 1.87413E-04 1.82046E-06 1.65436E-24
 -1       623 1.89057E-04 1.92439E-06-1.65436E-24
 -1       624 1.90793E-04 2.02799E-06-8.27181E-25
 -1       625 1.92587E-04 2.13130E-06-3.30872E-24
 -1       626 1.85083E-04 4.82800E-07-3.30872E-24
 -1       627 1.85610E-04-5.83876E-07 0.00000E+00
 -1       628 1.86116E-04-1.59545E-06 0.00000E+00
 -1       629 1.86604E-04-2.56007E-06 1.65436E-24
 -1       630 1.87079E-04-3.48594E-06 3.30872E-24
 -1       631 1.87541E-04-4.38126E-06 0.00000E+00
 -1       632 1.87996E-04-5.25422E-06-3.30872E-24
 -1       633 1.88445E-04-6.11303E-06-1.65436E-24
 -1       634 1.88892E-04-6.96591E-06 0.00000E+00
 -1       635 1.89340E-04-7.82103E-06 1.65436E-24
 -1       636 1.89791E-04-8.68663E-06-3.30872E-24
 -1       637 1.90250E-04-9.57091E-06-1.65436E-24
 -1       638 1.90719E-04-1.04821E-05 3.30872E-24
 -1       639 1.91200E-04-1.14283E-05-8.27181E-25
 -1       640 1.91697E-04-1.24179E-05 0.00000E+00
 -1       656 1.85381E-04-1.04785E-05 0.00000E+00
 -1       657 1.86509E-04-1.10805E-05 6.61744E-24
 -1       658 1.87917E-04-1.16811E-05 1.32349E-23
 -1       659 1.89459E-04-1.22813E-05 0.00000E+00
 -1       660 1.90952E-04-1.28834E-05-6.61744E-24
 -1       661 1.84938E-04-1.04204E-05 8.27181E-25
 -1       662 1.85241E-04-1.10328E-05 0.00000E+00
 -1       663 1.85576E-04-1.17317E-05 0.00000E+00
 -1       664 1.85941E-04-1.25109E-05-8.27181E-25
 -1       665 1.86335E-04-1.33643E-05-1.65436E-24
 -1       666 1.86754E-04-1.42861E-05 0.00000E+00
 -1       667 1.87196E-04-1.52707E-05 0.00000E+00
 -1       668 1.87660E-04-1.63124E-05 0.00000E+00
 -1       669 1.88143E-04-1.74058E-05 0.00000E+00
 -1       670 1.88643E-04-1.85456E-05 0.00000E+00
 -1       671 1.89159E-04-1.97266E-05 1.65436E-24
 -1       672 1.89688E-04-2.09438E-05 8.27181E-25
 -1       673 1.90229E-04-2.21920E-05-1.65436E-24
 -1       674 1.90779E-04-2.34666E-05 4.13590E-25
 -1       675 1.91336E-04-2.47623E-05 2.06795E-25
 -1       676 1.85138E-04-2.55584E-05 3.30872E-24
 -1       677 1.86494E-04-2.56626E-05 0.00000E+00
 -1       678 1.87849E-04-2.57668E-05 0.00000E+00
 -1       679 1.89201E-04-2.58707E-05 0.00000E+00
 -1       680 1.90550E-04-2.59745E-05 1.65436E-24
 -1       771 1.86482E-05 1.47744E-05 0.00000E+00
 -1       772 8.58869E-06 3.67370E-05 0.00000E+00
 -1       773 3.36327E-07 5.41512E-05 0.00000E+00
 -1       774-6.23335E-06 6.72751E-05-7.94093E-23
 -1       775-1.12421E-05 7.63771E-05 0.00000E+00
 -1       776-1.48165E-05 8.17426E-05 2.64698E-23
 -1       777-1.70830E-05 8.36669E-05 0.00000E+00
 -1       778-1.81706E-05 8.24592E-05 0.00000E+00
 -1       779-1.82077E-05 7.84375E-05-5.29396E-23
 -1       780-1.73247E-05 7.19307E-05 2.64698E-23
 -1       781-1.56509E-05 6.32749E-05 0.00000E+00
 -1       782-1.33176E-05 5.28150E-05-2.64698E-23
 -1       783-1.04546E-05 4.09004E-05 0.00000E+00
 -1       784-7.19353E-06 2.78868E-05 0.00000E+00
 -1       785-3.66460E-06 1.41330E-05 5.29396E-23
 -1       786 1.93768E-04 3.24165E-05 0.00000E+00
 -1       787 1.93809E-04 3.02110E-05 4.13590E-25
 -1       788 1.93851E-04 2.80469E-05 0.00000E+00
 -1       789 1.93893E-04 2.59161E-05-8.27181E-25
 -1       790 1.93935E-04 2.38140E-05 0.00000E+00
 -1       791 1.93977E-04 2.17360E-05 8.27181E-25
 -1       792 1.94020E-04 1.96799E-05 0.00000E+00
 -1       793 1.94062E-04 1.76437E-05 8.27181E-25
 -1       794 1.94105E-04 1.56271E-05 1.65436E-24
 -1       795 1.94147E-04 1.36302E-05 0.00000E+00
 -1       796 1.94190E-04 1.16549E-05 0.00000E+00
 -1       797 1.94232E-04 9.70317E-06-8.27181E-25
 -1       798 1.94275E-04 7.77931E-06 0.00000E+00
 -1       799 1.94318E-04 5.88778E-06-8.27181E-25
 -1       800 1.94361E-04 4.03623E-06 0.00000E+00
 -1       801 1.47917E-04 3.11700E-05 0.00000E+00
 -1       802 9.39805E-06 1.94457E-05 2.64698E-23
 -1       803-1.08913E-04 9.82268E-06 0.00000E+00
 -1       804-9.65321E-05 6.83737E-06 0.00000E+00
 -1       805-3.18929E-05 2.68625E-06 5.29396E-23
 -1       806 1.94460E-04 3.23479E-05 1.65436E-24
 -1       807 1.95177E-04 3.00506E-05 0.00000E+00
 -1       808 1.95880E-04 2.77845E-05 0.00000E+00
 -1       809 1.96570E-04 2.55539E-05 1.65436E-24
 -1       810 1.97246E-04 2.33628E-05 0.00000E+00
 -1       811 1.97905E-04 2.12150E-05 0.00000E+00
 -1       812 1.98546E-04 1.91147E-05 0.00000E+00
 -1       813 1.99168E-04 1.70656E-05-1.65436E-24
 -1       814 1.99770E-04 1.50716E-05-3.30872E-24
 -1       815 2.00349E-04 1.31368E-05 8.27181E-25
 -1       816 2.00905E-04 1.12651E-05-3.30872E-24
 -1       817 2.01437E-04 9.46014E-06 0.00000E+00
 -1       818 2.01941E-04 7.72602E-06 1.65436E-24
 -1       819 2.02419E-04 6.06657E-06 8.27181E-25
 -1       820 2.02867E-04 4.48562E-06 0.00000E+00
 -1       821 1.94275E-04-1.05028E-07 1.65436E-24
 -1       822 1.94136E-04-3.55232E-06 0.00000E+00
 -1       823 1.93994E-04-7.69476E-06 0.00000E+00
 -1       824 1.93850E-04-1.21133E-05 0.00000E+00
 -1       825 1.93706E-04-1.63145E-05 0.00000E+00
 -1       826 1.93565E-04-1.98059E-05 0.00000E+00
 -1       827 1.93427E-04-2.22884E-05 3.30872E-24
 -1       828 1.93290E-04-2.34688E-05 0.00000E+00
 -1       829 1.93155E-04-2.34079E-05 0.00000E+00
 -1       830 1.93019E-04-2.21739E-05-1.65436E-24
 -1       831 1.92882E-04-2.01539E-05 0.00000E+00
 -1       832 1.92744E-04-1.77398E-05-1.65436E-24
 -1       833 1.92606E-04-1.54309E-05 3.30872E-24
 -1       834 1.92472E-04-1.37255E-05 0.00000E+00
 -1       835 1.92337E-04-1.29586E-05 0.00000E+00
 -1       836 1.96094E-04 2.35759E-06 3.30872E-24
 -1       837 1.97659E-04 2.48585E-06-1.65436E-24
 -1       838 1.99130E-04 2.61406E-06-3.30872E-24
 -1       839 2.00537E-04 2.74156E-06 0.00000E+00
 -1       840 2.01912E-04 2.86890E-06-8.27181E-25
 -1       856 1.92195E-04-1.45228E-05 0.00000E+00
 -1       857 1.92176E-04-1.54507E-05 0.00000E+00
 -1       858 1.92156E-04-1.62640E-05 0.00000E+00
 -1       859 1.92137E-04-1.69838E-05 2.06795E-25
 -1       860 1.92117E-04-1.76313E-05 0.00000E+00
 -1       861 1.92097E-04-1.82278E-05 0.00000E+00
 -1       862 1.92078E-04-1.87946E-05 4.13590E-25
 -1       863 1.92058E-04-1.93531E-05 4.13590E-25
 -1       864 1.92038E-04-1.99246E-05 0.00000E+00
 -1       865 1.92018E-04-2.05305E-05 0.00000E+00
 -1       866 1.91998E-04-2.11919E-05-8.27181E-25
 -1       867 1.91978E-04-2.19304E-05 0.00000E+00
 -1       868 1.91958E-04-2.27669E-05-8.27181E-25
 -1       869 1.91938E-04-2.37227E-05-4.13590E-25
 -1       870 1.91918E-04-2.48188E-05 0.00000E+00
 -1       871 1.93563E-04-1.34641E-05 8.27181E-25
 -1       872 1.95061E-04-1.34725E-05 0.00000E+00
 -1       873 1.96639E-04-1.34815E-05 0.00000E+00
 -1       874 1.98229E-04-1.34913E-05-2.84343E-25
 -1       875 1.99761E-04-1.35017E-05-2.06795E-25
 -1       876 1.92737E-04-1.45083E-05 3.30872E-24
 -1       877 1.93241E-04-1.54905E-05 1.65436E-24
 -1       878 1.93723E-04-1.64139E-05-3.30872E-24
 -1       879 1.94186E-04-1.72859E-05-1.65436E-24
 -1       880 1.94633E-04-1.81138E-05-3.30872E-24
 -1       881 1.95066E-04-1.89050E-05-1.65436E-24
 -1       882 1.95488E-04-1.96669E-05 0.00000E+00
 -1       883 1.95902E-04-2.04068E-05 0.00000E+00
 -1       884 1.96310E-04-2.11321E-05 3.30872E-24
 -1       885 1.96716E-04-2.18500E-05 0.00000E+00
 -1       886 1.97122E-04-2.25680E-05 0.00000E+00
 -1       887 1.97530E-04-2.32934E-05-1.65436E-24
 -1       888 1.97943E-04-2.40336E-05 0.00000E+00
 -1       889 1.98365E-04-2.47959E-05 0.00000E+00
 -1       890 1.98796E-04-2.55879E-05 0.00000E+00
 -1       891 1.93261E-04-2.61337E-05 0.00000E+00
 -1       892 1.94603E-04-2.61914E-05 0.00000E+00
 -1       893 1.95897E-04-2.62490E-05-1.65436E-24
 -1       894 1.97117E-04-2.63063E-05-4.13590E-25
 -1       895 1.98238E-04-2.63634E-05-4.13590E-25
 -1       956 2.03156E-04 1.66309E-06 3.30872E-24
 -1       957 2.03023E-04 4.30927E-07-1.65436E-24
 -1       958 2.02891E-04-7.20280E-07 0.00000E+00
 -1       959 2.02758E-04-1.80188E-06 1.65436E-24
 -1       960 2.02625E-04-2.82529E-06 3.30872E-24
 -1       961 2.02492E-04-3.80193E-06 1.65436E-24
 -1       962 2.02359E-04-4.74324E-06 3.30872E-24
 -1       963 2.02227E-04-5.66070E-06 0.00000E+00
 -1       964 2.02094E-04-6.56575E-06 0.00000E+00
 -1       965 2.01961E-04-7.46986E-06 0.00000E+00
 -1       966 2.01828E-04-8.38450E-06 0.00000E+00
 -1       967 2.01696E-04-9.32111E-06 0.00000E+00
 -1       968 2.01563E-04-1.02912E-05-6.61744E-24
 -1       969 2.01430E-04-1.13060E-05 0.00000E+00
 -1       970 2.01298E-04-1.23772E-05 0.00000E+00
 -1       971 2.01048E-04-1.46535E-05 0.00000E+00
 -1       972 2.00927E-04-1.56969E-05 0.00000E+00
 -1       973 2.00805E-04-1.66562E-05 0.00000E+00
 -1       974 2.00684E-04-1.75423E-05 1.65436E-24
 -1       975 2.00562E-04-1.83659E-05 3.30872E-24
 -1       976 2.00441E-04-1.91379E-05 1.65436E-24
 -1       977 2.00319E-04-1.98692E-05 3.30872E-24
 -1       978 2.00198E-04-2.05708E-05 0.00000E+00
 -1       979 2.00077E-04-2.12535E-05 0.00000E+00
 -1       980 1.99955E-04-2.19281E-05-1.65436E-24
 -1       981 1.99834E-04-2.26057E-05 3.30872E-24
 -1       982 1.99713E-04-2.32972E-05-1.65436E-24
 -1       983 1.99592E-04-2.40133E-05 3.30872E-24
 -1       984 1.99471E-04-2.47650E-05 0.00000E+00
 -1       985 1.99351E-04-2.55633E-05-3.30872E-24
 -3
    1PSTEP                        28          14           1          
  100CL  114 6.62933E-01         409                     0   14           1
 -4  STRESS      6    1
 -5  SXX         1    4    1    1
 -5  SYY         1    4    2    2
 -5  SZZ         1    4    3    3
 -5  SXY         1    4    1    2
 -5  SYZ         1    4    2    3
 -5  SZX         1    4    3    1
 -1         1-5.34727E+06-1.57241E+06-1.13263E+06-1.32650E+06 1.45519E-10-1.65281E-07
 -1         2 1.53065E+06 2.24151E+07 5.20740E+06 6.78768E+06 3.18978E-08-2.81085E-07
 -1         3-1.48819E+03-1.55613E+06 4.05392E+02-2.20878E+03-5.01174E-10 7.84203E-08
 -1         5-7.54529E+01 3.86494E+05 9.98507E+00-1.34472E+00-4.77974E-10 1.68620E-08
 -1         8-5.52750E+05-2.00320E+05-6.26751E+04-2.42539E+05 3.19233E-10-1.98965E-07
 -1         9 1.18121E+07 3.93524E+06 2.81726E+06-3.03347E+05-7.34581E-09 5.01750E-08
 -1        10-2.30402E+03-1.62161E+06-3.94126E+03-1.49463E+04-1.36279E-08-5.28514E-08
 -1        12-7.15337E+01 3.86516E+05 3.28246E+02-9.16516E+00-7.11911E-10-1.84536E-08
 -1        15 9.23070E+02 5.07272E+02 2.98380E+03 8.12009E-01-1.86148E-10-1.69794E-07
 -1        16 2.29277E+07-3.35566E+05 3.11953E+06-2.29818E+06-1.60459E-08 9.46069E-08
 -1        17 8.39603E+06 6.29110E+06 2.26785E+06 6.01776E+06 2.45054E-08 2.10828E-08
 -1        18 1.41951E+05 3.32561E+04 3.87341E+03-1.19716E+05 1.23493E-08-7.32189E-09
 -1        19 1.22435E+05 1.41668E+05-9.50509E+02 2.19857E+04 1.71694E-09 7.13298E-09
 -1        20-8.20073E+04-5.73801E+05-1.28759E+05 2.50980E+04-2.00059E-09 9.85892E-10
 -1        21-4.55693E+01-2.95998E+05-9.23895E+02 2.75541E+02 1.42827E-08-1.83733E-08
 -1        24 1.40821E+07 1.21239E+07 3.89744E+06 1.12249E+07-1.62894E-07-5.51615E-08
 -1        25 1.25005E+05 2.68383E+05 1.00238E+05-6.46526E+05-2.23827E-10 1.71420E-08
 -1        26-5.60689E+04 9.19131E+04-2.51962E+04 1.48849E+03 4.71846E-10 8.49311E-09
 -1        27-7.54731E+04-3.09978E+05-1.13291E+05 6.89606E+04 4.08621E-09 4.82942E-10
 -1        28 2.22389E+04-8.53483E+04 1.68972E+04 2.06050E+04-4.26735E-09-1.46959E-08
 -1        32-1.68040E+06-3.18164E+06-1.97610E+05 4.59163E+05-4.25280E-08-1.04095E-08
 -1        33-1.78530E+05 9.30905E+04 3.24095E+04-3.82327E+04-3.26982E-09 8.05752E-09
 -1        34-2.23612E+05-2.50470E+04 6.89989E+02 7.56822E+04-6.29205E-09 9.12269E-09
 -1        35-2.29294E+04-3.38464E+04-1.34847E+03 5.14941E+04-5.55835E-09-9.01734E-09
 -1        51 6.08742E+04-1.70590E+05 1.28685E+05-4.34146E+05-2.91038E-11-5.82440E-08
 -1        52 2.05789E+04-1.48070E+05 6.74589E+04-5.06349E+05 4.21096E-10-3.72358E-07
 -1        53 4.15704E+03-1.63423E+05 3.50230E+04-4.32658E+05 5.45697E-10-4.95857E-08
 -1        54 7.26454E+03-1.59206E+05 2.85659E+04-5.07803E+05 2.14641E-10-1.26165E-08
 -1        55 1.58423E+04-1.66140E+05 3.44970E+04-4.32572E+05 5.71163E-10-5.48425E-09
 -1        56-9.81075E+06-1.39629E+06-9.25597E+05-4.10896E+06-3.22761E-08-3.18920E-07
 -1        57-1.11263E+07-7.66575E+05-5.44942E+05-2.66788E+06 1.57888E-09-9.99717E-09
 -1        58-9.58799E+06-1.87126E+06-2.01916E+05-4.31276E+06-2.89729E-08 1.90681E-07
 -1        59-1.13406E+07-2.15541E+05-1.07078E+05-2.59205E+06-6.26028E-08-5.60103E-08
 -1        60-9.68629E+06-1.87468E+06-5.88054E+04-4.26379E+06-3.83989E-08 5.10991E-08
 -1        61-1.06334E+07-5.76686E+05 2.10897E+04-2.84625E+06-4.98621E-08 1.46134E-07
 -1        62-1.01429E+07-1.61308E+06-8.46691E+04-3.93709E+06 1.12050E-08 8.84465E-08
 -1        63-9.65842E+06-1.33954E+06 6.27038E+04-3.58800E+06-2.49202E-08 1.87618E-07
 -1        64-1.05379E+07-1.19988E+06-7.79517E+04-3.44445E+06-5.40022E-08-1.25390E-07
 -1        65-9.27327E+06-1.98247E+06 1.75621E+04-4.56610E+06 1.65892E-09-1.45036E-07
 -1        66-1.06700E+07-8.71595E+05-4.78100E+04-3.06642E+06 1.23036E-08 4.07095E-07
 -1        67-9.30294E+06-2.25026E+06-9.62937E+04-5.03270E+06-4.66644E-08 1.72246E-07
 -1        68-1.06503E+07-8.32095E+05-1.87905E+05-3.06566E+06-3.61779E-08 1.92871E-07
 -1        69-9.46652E+06-2.32158E+06-4.83746E+05-4.53378E+06-5.63969E-08-2.92785E-08
 -1        70-1.03742E+07-9.05195E+05-8.51202E+05-3.47934E+06 5.57702E-09-7.50879E-09
 -1        86-1.56183E+06-1.58788E+07-2.85111E+06-3.18645E+06-2.81019E-07-7.18283E-08
 -1        87 2.46166E+06 6.48337E+06 2.37111E+06 5.86330E+06-4.62373E-07-1.84604E-07
 -1        88-4.66696E+05-1.92103E+06 2.24986E+05-2.59906E+06-4.07272E-07-2.26007E-07
 -1        89 3.29563E+06 6.17562E+06 2.43060E+06 6.06246E+06-5.91455E-07-3.38330E-07
 -1        90-2.29809E+06-1.56497E+07-3.07706E+06-3.41626E+06-1.74270E-07-1.33601E-07
 -1       121-2.03855E+03-1.56103E+06-5.47924E+02 1.09476E+03 1.38709E-09-4.30009E-09
 -1       122-1.30267E+03-1.55619E+06 7.68438E+02-4.42171E+03-5.53729E-09-1.89793E-08
 -1       123-2.05828E+03-1.56117E+06 2.58742E+02 3.26958E+03 4.09273E-09-3.07045E-09
 -1       124 3.31173E+02-1.55575E+06 2.94439E+03-9.25341E+03-1.04769E-08 1.91794E-08
 -1       125-2.86594E+03-1.56206E+06 3.45238E+03 5.88048E+03 7.07223E-09 1.59052E-08
 -1       191-7.95126E+01 3.86512E+05 8.48179E+00 7.01212E-01-5.72894E-10 1.86083E-09
 -1       192-7.64170E+01 3.86495E+05 2.13083E+01-4.31117E+00-7.72989E-10-9.82527E-09
 -1       193-8.20504E+01 3.86512E+05 3.62689E+01 3.78663E+00-1.03855E-09 7.00493E-09
 -1       194-7.95082E+01 3.86498E+05 8.10057E+01-9.78273E+00-5.52323E-10 1.13314E-08
 -1       195-8.69215E+01 3.86509E+05 1.55079E+02 6.36679E+00-1.52453E-09-1.52831E-08
 -1       251-8.61233E+05 1.61530E+04-3.77084E+04-1.44353E+04 1.00422E-09-4.82032E-08
 -1       252-8.75453E+05-1.86959E+04-2.62248E+04 5.10524E+04-8.51287E-10-2.17547E-07
 -1       253-8.69677E+05 2.47784E+03-1.01673E+04-1.01497E+04-6.05860E-09-2.65853E-07
 -1       254-8.61944E+05-3.00949E+03-4.50943E+03 3.63027E+04 1.96828E-08-2.54601E-08
 -1       255-8.74116E+05 4.94862E+01-3.54883E+03 3.10624E+02-9.59358E-09 7.59669E-08
 -1       256-8.56490E+05-2.72237E+02 1.22692E+03 1.25880E+04 7.73503E-09 2.69942E-07
 -1       257-8.74683E+05-5.90680E+02-1.41255E+03 1.35532E+04 8.50605E-10-1.69355E-07
 -1       258-8.59384E+05 9.27520E+02 2.74594E+03-1.23173E+04-8.66066E-09 9.94591E-08
 -1       259-8.71476E+05-9.54059E+02 1.36510E+03 2.52135E+04 4.73551E-09-7.10227E-08
 -1       260-8.65911E+05 2.97680E+03 5.60240E+03-3.02736E+04-2.09088E-08 2.91762E-07
 -1       261-8.68804E+05-2.14065E+03 8.68492E+03 3.15263E+04 4.30389E-08-1.36569E-07
 -1       262-8.64630E+05 1.18592E+04 2.15757E+04-3.55245E+04-4.73889E-08-1.70672E-07
 -1       263-8.73014E+05-9.60430E+03 3.41799E+04 3.04743E+04 1.38766E-08 3.25042E-07
 -1       264-8.33940E+05 6.72876E+04 9.46509E+04-2.62503E+04 3.33125E-08 8.92760E-09
 -1       265-8.98989E+05-5.77068E+04 1.31766E+05 2.22393E+04 8.17874E-09 1.37596E-07
 -1       266-1.67109E+04-7.81485E+03 3.92046E+04-1.73731E+01 7.27596E-11 2.01443E-07
 -1       267 1.93723E+04 9.10708E+03 2.77112E+04 2.00468E+01 1.86901E-10 2.37469E-07
 -1       268-2.59780E+03-1.28989E+03 1.03000E+04-2.55422E+00 1.24146E-10 4.76181E-08
 -1       269 3.06722E+03 1.54364E+03 6.69495E+03 2.97539E+00 1.81899E-11-1.65485E-08
 -1       270-4.60393E+02-2.53636E+02 3.23175E+03-4.03777E-01 9.86802E-11 2.30257E-07
 -1       271-1.46810E+06-1.87198E+05-1.10640E+05-5.71504E+05-1.25328E-09 7.23376E-08
 -1       272-1.46173E+06-3.01319E+05-6.94110E+04-6.11524E+05 4.62023E-09-2.61762E-08
 -1       273-1.49152E+06-2.10563E+05-2.68604E+04-5.63476E+05 1.32459E-08 2.65991E-08
 -1       274-1.43518E+06-2.73152E+05-1.39286E+04-6.26784E+05-4.64588E-08-1.33969E-08
 -1       275-1.49712E+06-2.10057E+05-6.70945E+03-5.59696E+05 1.19326E-09-3.14762E-07
 -1       276-1.42965E+06-2.74121E+05-2.80623E+03-6.35497E+05 3.52156E-08-9.18117E-08
 -1       277-1.49996E+06-2.07395E+05-1.86245E+03-5.56960E+05-3.42079E-08 1.81482E-07
 -1       278-1.42754E+06-2.77318E+05-6.95219E+02-6.41892E+05 4.93037E-09 2.43155E-07
 -1       279-1.50176E+06-2.05233E+05-8.51331E+02-5.55047E+05 4.37831E-09-8.77039E-08
 -1       280-1.42658E+06-2.79701E+05-9.56763E+02-6.46076E+05-2.73390E-08-3.64427E-08
 -1       281-1.50271E+06-2.03885E+05-1.76958E+03-5.53980E+05-1.44246E-09 4.31817E-08
 -1       282-1.42696E+06-2.81819E+05-4.11230E+03-6.47766E+05-7.10997E-09 2.85154E-07
 -1       283-1.50222E+06-2.02701E+05-7.32119E+03-5.53868E+05-2.78978E-08 1.80300E-07
 -1       284-1.43353E+06-2.91356E+05-1.99388E+04-6.45570E+05 5.27548E-08 3.37783E-07
 -1       285-1.49601E+06-1.95514E+05-3.11554E+04-5.55648E+05-1.20954E-08 8.72642E-08
 -1       301-8.22644E+03-6.49692E+05 1.66746E+05-1.14297E+06 6.72298E-09 1.78552E-08
 -1       302-1.02688E+04-6.02639E+05 1.00350E+05-1.66813E+06 1.17288E-08-7.10570E-08
 -1       303-2.26529E+04-6.42472E+05 5.66260E+04-1.13981E+06-1.29367E-08-1.15799E-07
 -1       304-2.60698E+04-6.09938E+05 5.68583E+04-1.66757E+06-2.09257E-08 1.03260E-07
 -1       305-2.70614E+04-6.31156E+05 6.97384E+04-1.14290E+06 5.73345E-09-4.99567E-08
 -1       306-3.01349E+07-6.21745E+06-8.61086E+06-4.86882E+05-7.35745E-08-1.39378E-07
 -1       307 2.52825E+07 3.29151E+06 5.50767E+06-1.52842E+07-8.20655E-07 6.93544E-08
 -1       308-6.91312E+06-1.01274E+06-4.35159E+05 5.21176E+06-1.42871E-07 3.97413E-08
 -1       309-3.18644E+06 8.74542E+06 2.29608E+06-2.07118E+07 5.32862E-07-9.25211E-08
 -1       310-1.26607E+07-1.95747E+06-2.06537E+06 5.22038E+06-2.18861E-07-7.89587E-08
 -1       311 3.87017E+07-3.07715E+03 7.31872E+06-8.71664E+06 2.53378E-07 1.27940E-07
 -1       312-3.19970E+07-6.82218E+06-8.57058E+06-5.11352E+06-1.12923E-08-8.34989E-08
 -1       313 4.54214E+07 1.51965E+07 1.06953E+07 2.39545E+07-6.93835E-08 1.67172E-07
 -1       314-1.71587E+07-1.78767E+07-7.53210E+06-1.25436E+07 1.94297E-07 1.85682E-08
 -1       315-1.94084E+06 2.98331E+07 5.66789E+06 1.04514E+07-3.02811E-07 2.37196E-07
 -1       316 1.43924E+06-9.82873E+06-4.27030E+05-2.48834E+06-1.04336E-06-4.34113E-07
 -1       317-1.70936E+07 2.24517E+07 2.24933E+06-8.89799E+06 7.60745E-07-7.21557E-07
 -1       318-1.08773E+06-1.28576E+07-2.06677E+06-4.24294E+06-9.11969E-07 8.77189E-08
 -1       319 7.30624E+06 3.21101E+07 7.07554E+06 1.67030E+07-8.23638E-09 2.06404E-07
 -1       320-2.26551E+07-1.76979E+07-9.88854E+06-1.28479E+07 1.99652E-07-5.66652E-08
 -1       336-7.49603E+02-1.68987E+06-1.38286E+04 8.89600E+03-2.68992E-08-2.76414E-08
 -1       337-5.40448E+03-1.68941E+06-1.80421E+04-2.16126E+04-4.87062E-08-1.67711E-09
 -1       338 2.70067E+02-1.68936E+06-2.84243E+04 1.24655E+04-3.38487E-08 1.54905E-08
 -1       339-3.01641E+04-1.70662E+06-6.42369E+04-2.86056E+04-6.20385E-08 2.78396E-08
 -1       340 1.98621E+04-1.67484E+06-1.01194E+05 1.57581E+04-4.13565E-08 2.06783E-08
 -1       406-4.98287E+01 3.86495E+05 6.44500E+02 3.35325E+00-1.95153E-09-6.06087E-09
 -1       407 1.54810E+02 3.86629E+05 1.37735E+03 2.34318E+01-4.64667E-10-9.08585E-09
 -1       408 6.35121E+02 3.86394E+05 2.74633E+03-2.71048E+01-2.50066E-09-2.48419E-08
 -1       409 2.90839E+03 3.87506E+05 6.18999E+03 2.89381E+02-4.73847E-10-3.23707E-08
 -1       410 8.48424E+03 3.85604E+05 1.26335E+04-2.79063E+02-2.82125E-09-1.35205E-08
 -1       521-3.17254E+07-7.69152E+06-1.00814E+07-8.99844E+04-1.62749E-07-1.23517E-07
 -1       522 2.61968E+07 4.34724E+06 5.62822E+06-1.88295E+07-5.32251E-07-1.72702E-07
 -1       523-7.48413E+06-1.32984E+06-4.26541E+05 5.66831E+06 8.56817E-08-4.46598E-08
 -1       524-6.69383E+06 1.18506E+07 2.48968E+06-2.38085E+07 7.88677E-07-4.21696E-07
 -1       525-1.34619E+07-2.60649E+06-2.27541E+06 5.68350E+06 4.45172E-07-3.33035E-07
 -1       526 4.23507E+07-1.02959E+05 7.69396E+06-1.13756E+07-2.28174E-08-1.80444E-07
 -1       527-3.38961E+07-8.54028E+06-9.89875E+06-4.98077E+06-9.39472E-08-1.01587E-07
 -1       528 4.96802E+07 1.69905E+07 1.11760E+07 2.73011E+07-2.43308E-07-1.11730E-07
 -1       529-1.81108E+07-2.01314E+07-8.65276E+06-1.25830E+07 3.24799E-08-1.63447E-07
 -1       530-4.43143E+06 3.47101E+07 6.01071E+06 9.88414E+06-9.86765E-08 8.13918E-07
 -1       531 1.44917E+06-1.09089E+07-3.98620E+05-2.42112E+06-9.66349E-07 4.98432E-07
 -1       532-1.95906E+07 2.44777E+07 2.46415E+06-1.32563E+07 4.91971E-07-7.51956E-07
 -1       533-1.12733E+06-1.40311E+07-2.20700E+06-4.03589E+06-2.12662E-07-1.09983E-06
 -1       534 5.31618E+06 3.73490E+07 7.37845E+06 1.73130E+07 1.37370E-08 7.86618E-07
 -1       535-2.38662E+07-2.01393E+07-1.13604E+07-1.29323E+07 1.06636E-07 4.80853E-07
 -1       536-7.06224E+05-4.67137E+04-4.83243E+04-5.47085E+04-3.79623E-09 5.03251E-08
 -1       537-5.48039E+04 4.46445E+04 8.38665E+04 1.23897E+05-1.27218E-07 1.08324E-07
 -1       538-3.94409E+05 3.35540E+03 3.52174E+03-7.22268E+04 2.95280E-08 1.03090E-07
 -1       539-2.68996E+05 2.84617E+03 2.49112E+04 1.38788E+05 1.54266E-07 1.21367E-07
 -1       540-4.97412E+05-4.27808E+02-2.13453E+04-7.01355E+04 3.87440E-08 9.96797E-08
 -1       541 1.46958E+05 1.69801E+04 1.06442E+05 9.79692E+04 1.34605E-10 6.31554E-08
 -1       542-7.99156E+05-2.01461E+04-8.42863E+04-3.05318E+04 3.55572E-08 3.71548E-08
 -1       543 4.05780E+05 2.73402E+04 1.58057E+05-1.33673E+04-4.89333E-08-9.81481E-09
 -1       544-7.49292E+05-1.65461E+04-7.48790E+04 4.05308E+04-3.99928E-08-3.88144E-08
 -1       545 2.91925E+04 9.48851E+03 7.98525E+04-1.13668E+05-5.93536E-09-8.71951E-08
 -1       546-4.32682E+05 6.09944E+03-1.22395E+04 6.94225E+04 1.84018E-08-8.05803E-08
 -1       547-2.87083E+05-4.66144E+03 1.05861E+04-1.41635E+05-1.16368E-07-1.25278E-07
 -1       548-4.41520E+05 4.72483E+03-2.39052E+04 6.91897E+04-1.15967E-07-1.10123E-07
 -1       549 4.83721E+04 1.60635E+04 6.05229E+04-1.11529E+05-6.07024E-08-6.02629E-08
 -1       550-7.59161E+05-2.21374E+04-1.29078E+05 3.85996E+04 1.08757E-08-3.41297E-08
 -1       551 4.07830E+04-7.49845E+05-1.59175E+04-1.24701E+06-1.02576E-07-3.49246E-09
 -1       552 9.32571E+04-7.94832E+05 9.90062E+03-1.77806E+06-6.93835E-08 5.01750E-08
 -1       553 7.17623E+04-7.91239E+05 3.20199E+04-1.24036E+06-1.17565E-07 3.72529E-08
 -1       554 1.32054E+05-8.10741E+05 8.10255E+04-1.78001E+06-7.40547E-08 2.02399E-08
 -1       555 1.01505E+05-8.14896E+05 1.47981E+05-1.24019E+06-1.20388E-07-1.47411E-08
 -1       556 2.23806E+05-3.83829E+05 2.56100E+04-4.07333E+05-2.08674E-08-1.28930E-08
 -1       557 3.54389E+05-4.88204E+05 1.60769E+04-5.27816E+05-3.08501E-09-1.48102E-08
 -1       558 2.05557E+05-3.76592E+05 2.29027E+03-4.11797E+05-9.51695E-09 6.91216E-09
 -1       559 3.29374E+05-4.88252E+05 2.42468E+03-5.48281E+05 3.07627E-08 1.59780E-08
 -1       560 1.90239E+05-3.66986E+05-1.51424E+03-4.22835E+05 5.26779E-09 3.15922E-08
 -1       561 3.10130E+05-4.80548E+05 1.26028E+02-5.61403E+05-1.22091E-08 1.36679E-08
 -1       562 1.78128E+05-3.59463E+05-1.32967E+03-4.31605E+05 1.77533E-09-1.70985E-09
 -1       563 2.95745E+05-4.74277E+05-3.79130E+01-5.70799E+05 3.92902E-09-1.84264E-08
 -1       564 1.69485E+05-3.54077E+05-6.01766E+02-4.37730E+05 7.33417E-09-3.81124E-09
 -1       565 2.86204E+05-4.70121E+05 2.37522E+01-5.76895E+05 9.64792E-09-1.38089E-08
 -1       566 1.64432E+05-3.50881E+05-2.60321E+02-4.41264E+05-2.06637E-09-1.00954E-09
 -1       567 2.81566E+05-4.68104E+05-3.62604E+02-5.79712E+05 1.22236E-08-2.22062E-08
 -1       568 1.63061E+05-3.50041E+05-1.12611E+03-4.42319E+05-8.69750E-09-7.07951E-09
 -1       569 2.80443E+05-4.68031E+05-2.84428E+03-5.78282E+05-7.94444E-09 1.93177E-08
 -1       570 1.66463E+05-3.53277E+05-6.21853E+03-4.41298E+05 9.47330E-09 6.64295E-09
 -1       571 2.90658E+05 1.04614E+04 1.49192E+04-9.54047E+04 1.06320E-09 8.55698E-09
 -1       572 2.92819E+05 3.94596E+03 7.31165E+03-1.04668E+05 2.16187E-09-1.62254E-09
 -1       573 2.91515E+05 1.24393E+03 3.24881E+03-9.52277E+04-5.80803E-09 1.87856E-08
 -1       574 2.91728E+05 7.28409E+02 1.62928E+03-1.04893E+05-1.12550E-10 1.87556E-08
 -1       575 2.91608E+05 4.50125E+02 7.68993E+02-9.52034E+04-1.63693E-08 7.68159E-09
 -1       576 2.91592E+05 4.61844E+02 3.93762E+02-1.04923E+05-4.30866E-08-5.82077E-11
 -1       577 2.91648E+05 3.92190E+02 1.96623E+02-9.52001E+04-2.26173E-08 6.51107E-09
 -1       578 2.91623E+05 4.23717E+02 1.13703E+02-1.04927E+05-4.50927E-09 1.12159E-08
 -1       579 2.91721E+05 3.55299E+02 7.82682E+01-9.51998E+04 8.21092E-09-1.90084E-09
 -1       580 2.91725E+05 3.72434E+02 9.11197E+01-1.04923E+05-1.36752E-08 1.84327E-08
 -1       581 2.91835E+05 2.96432E+02 1.37861E+02-9.52057E+04 2.09911E-09 1.73350E-09
 -1       582 2.91901E+05 3.34871E+02 2.80462E+02-1.04861E+05 3.81624E-09-4.89490E-09
 -1       583 2.91976E+05 3.39022E+02 5.38391E+02-9.52624E+04-7.42511E-09-7.09292E-09
 -1       584 2.92278E+05 7.78798E+02 1.21837E+03-1.04383E+05-1.67638E-08-6.00903E-09
 -1       585 2.92002E+05 1.80416E+03 2.46718E+03-9.56824E+04-1.14505E-08 8.57472E-09
 -1       586-3.48126E+03 1.16969E+05-2.99538E+03-2.50911E+05-5.17957E-09 2.64774E-08
 -1       587-1.36044E+03 1.16709E+05 7.35384E+02-2.76146E+05-6.88851E-09 2.33222E-08
 -1       588 3.92677E+02 1.16522E+05 4.74847E+03-2.50773E+05-4.22551E-09 3.24899E-08
 -1       589 5.08702E+03 1.18997E+05 1.23499E+04-2.75913E+05-7.13408E-09-1.96596E-08
 -1       590 1.66251E+04 1.15187E+05 2.59198E+04-2.51205E+05-2.09729E-09-2.87946E-08
 -1       591-7.64876E+04-1.58217E+04-2.27080E+04-3.24937E+04-4.38740E-09 1.27739E-08
 -1       592-8.07111E+04-1.97898E+04-1.23620E+04-3.60628E+04-3.64236E-09 2.51764E-08
 -1       593-7.88250E+04-1.44491E+04-5.13425E+03-3.40689E+04-5.00218E-09-5.48698E-09
 -1       594-7.75338E+04-1.63852E+04-2.56445E+03-3.61941E+04 6.82556E-09 4.94285E-09
 -1       595-7.90031E+04-1.44526E+04-1.17615E+03-3.41429E+04-6.49632E-09 1.42223E-08
 -1       596-7.73140E+04-1.62250E+04-5.97956E+02-3.61697E+04-7.57692E-09 1.79921E-08
 -1       597-7.90251E+04-1.44679E+04-3.25193E+02-3.41460E+04-1.03090E-08-3.27191E-10
 -1       598-7.72925E+04-1.62183E+04-2.60877E+02-3.61626E+04-7.87054E-09-3.95858E-09
 -1       599-7.90239E+04-1.44685E+04-3.32545E+02-3.41457E+04 1.05921E-08-1.83419E-08
 -1       600-7.73143E+04-1.62255E+04-6.17419E+02-3.61675E+04 9.24774E-09-4.14298E-09
 -1       601-7.89986E+04-1.44539E+04-1.21737E+03-3.41420E+04 1.14183E-08 1.50769E-08
 -1       602-7.75418E+04-1.63902E+04-2.65574E+03-3.61888E+04-8.03539E-10-8.71012E-09
 -1       603-7.88115E+04-1.44533E+04-5.31778E+03-3.40662E+04-6.07520E-09 3.14003E-09
 -1       604-8.08498E+04-1.98972E+04-1.28030E+04-3.60284E+04 7.37145E-09-1.55478E-08
 -1       605-7.63709E+04-1.58924E+04-2.35183E+04-3.24538E+04 1.04033E-08 1.77461E-08
 -1       606 2.66750E+04-1.43349E+04-2.56975E+04 2.39559E+04 8.59291E-09-9.48398E-09
 -1       607 2.22842E+04-4.68183E+03-1.27973E+04 2.69215E+04 1.41881E-10 1.46520E-09
 -1       608 2.47867E+04-8.44649E+02-5.72891E+03 2.37875E+04-2.85036E-09 5.67070E-10
 -1       609 2.43071E+04-2.89460E+02-2.89409E+03 2.71353E+04 2.96313E-09-1.85205E-08
 -1       610 2.45731E+04-4.11064E+01-1.38080E+03 2.37675E+04-5.50244E-10 8.93647E-09
 -1       611 2.44978E+04-4.14243E+01-6.96188E+02 2.71583E+04 2.34832E-09 7.46945E-09
 -1       612 2.45261E+04-2.74343E+01-3.30943E+02 2.37655E+04 7.54881E-10 2.98928E-09
 -1       613 2.45095E+04-3.73711E+01-1.48265E+02 2.71610E+04 2.32558E-09 1.29407E-08
 -1       614 2.45039E+04-3.38910E+01-3.46718E+01 2.37648E+04 1.46792E-09 1.29430E-08
 -1       615 2.45043E+04-3.59119E+01 6.23722E+01 2.71615E+04-8.00355E-11 2.02697E-08
 -1       616 2.44866E+04-3.07911E+01 1.86822E+02 2.37650E+04 1.23555E-09 1.14833E-08
 -1       617 2.45268E+04 3.87158E+00 4.26158E+02 2.71610E+04 2.71189E-09-1.30544E-08
 -1       618 2.44496E+04 9.20401E+01 8.58960E+02 2.37653E+04 5.56292E-09 6.12090E-09
 -1       619 2.48301E+04 6.68002E+02 1.92884E+03 2.71604E+04-3.45779E-09 2.36482E-08
 -1       620 2.41644E+04 2.12884E+03 3.87691E+03 2.37669E+04-2.73099E-09 5.61613E-10
 -1       621 5.10310E+02 3.01393E+05 3.86365E+03 4.12689E+04 1.08912E-09 1.62436E-09
 -1       622 6.76061E+02 3.02283E+05 3.41907E+03 5.99163E+04 1.33969E-09-7.44740E-09
 -1       623 1.43737E+02 3.01587E+05 4.09598E+03 4.10831E+04 1.11913E-09-3.74894E-09
 -1       624 2.10347E+03 3.03481E+05 7.93007E+03 6.00981E+04 1.23504E-09-2.12267E-08
 -1       625 2.05371E+03 3.00015E+05 1.38525E+04 4.10810E+04 1.53250E-09-3.07591E-09
 -1       626 2.60933E+05 6.13934E+04 5.11659E+03 1.26729E+05 3.27827E-09 1.47857E-08
 -1       627 2.58617E+05 6.27889E+04 2.46564E+03 1.30998E+05 5.27598E-09 1.42791E-09
 -1       628 2.61060E+05 5.90524E+04 1.04279E+03 1.27599E+05-3.58705E-09 1.44798E-08
 -1       629 2.57982E+05 6.21091E+04 5.10395E+02 1.31238E+05-2.80761E-09 1.54283E-08
 -1       630 2.61075E+05 5.89393E+04 2.36869E+02 1.27636E+05-2.54386E-09-3.91083E-11
 -1       631 2.57916E+05 6.20832E+04 1.27611E+02 1.31240E+05 3.78986E-09-1.03041E-08
 -1       632 2.61071E+05 5.89432E+04 8.42263E+01 1.27632E+05 7.41375E-09-1.06927E-08
 -1       633 2.57907E+05 6.20850E+04 9.42186E+01 1.31236E+05 2.58979E-09-5.74983E-09
 -1       634 2.61067E+05 5.89404E+04 1.52606E+02 1.27631E+05 7.88987E-11 1.96096E-08
 -1       635 2.57922E+05 6.20833E+04 3.09010E+02 1.31242E+05-4.04663E-09 8.83392E-09
 -1       636 2.61058E+05 5.89346E+04 6.24156E+02 1.27631E+05-2.59206E-11 1.21395E-08
 -1       637 2.58057E+05 6.21804E+04 1.37243E+03 1.31241E+05-2.47746E-09 2.92985E-08
 -1       638 2.61009E+05 5.92377E+04 2.81986E+03 1.27494E+05-5.71390E-09-9.53924E-09
 -1       639 2.59538E+05 6.42405E+04 6.67193E+03 1.30805E+05 6.36237E-09 2.57960E-08
 -1       640 2.60804E+05 6.53896E+04 1.38454E+04 1.24902E+05 4.62887E-09-2.70211E-09
 -1       656 6.65991E+04-1.70448E+06-1.60766E+05-2.56452E+03-2.61934E-10-9.93816E-09
 -1       657-8.81050E+04-1.77712E+06-1.33186E+05 5.15197E+03-8.07631E-10-9.21347E-09
 -1       658 2.12296E+04-1.72511E+06-8.20261E+04-4.64877E+03 3.78577E-10-6.07687E-09
 -1       659-9.52735E+04-1.78053E+06-1.42606E+05 6.88444E+03-1.85719E-09 7.96216E-09
 -1       660 7.37516E+04-1.70108E+06-1.76962E+05-4.29698E+03-1.88447E-09 6.80566E-09
 -1       661 1.58458E+05 1.65791E+04 1.67096E+04 6.19447E+04-3.88400E-09-1.01900E-08
 -1       662 1.67907E+05 2.89518E+04 1.12611E+04 5.81937E+04-3.96938E-09-9.09495E-10
 -1       663 1.61740E+05 2.19399E+04 3.93843E+03 6.09922E+04-1.49589E-09-6.34668E-09
 -1       664 1.64101E+05 2.26828E+04 2.35601E+03 5.93572E+04-6.44576E-10 1.19725E-08
 -1       665 1.62238E+05 2.26720E+04 9.29429E+02 6.08468E+04 3.19005E-10 9.94939E-09
 -1       666 1.63512E+05 2.18456E+04 5.44051E+02 5.95468E+04 5.83211E-09 6.62348E-09
 -1       667 1.62326E+05 2.27553E+04 2.89172E+02 6.08104E+04 3.48865E-09 4.10316E-09
 -1       668 1.63416E+05 2.17858E+04 2.95104E+02 5.95998E+04-6.89860E-09-6.56353E-09
 -1       669 1.62334E+05 2.27301E+04 3.99903E+02 6.07942E+04-6.27026E-09 1.08906E-08
 -1       670 1.63513E+05 2.20030E+04 8.71145E+02 5.96027E+04-1.13486E-08 1.08341E-08
 -1       671 1.62228E+05 2.25426E+04 1.54690E+03 6.08055E+04-3.57259E-09 6.07258E-09
 -1       672 1.64415E+05 2.35080E+04 3.95780E+03 5.93842E+04 7.15109E-09 5.06645E-10
 -1       673 1.61436E+05 2.12633E+04 6.63268E+03 6.09980E+04 4.27121E-10 1.81308E-09
 -1       674 1.70727E+05 3.41641E+04 1.89681E+04 5.75297E+04-3.84080E-09-1.02993E-08
 -1       675 1.55956E+05 1.21849E+04 2.81553E+04 6.25481E+04-5.74119E-09 3.31420E-09
 -1       676 2.41140E+01-2.95921E+05-1.11354E+03-1.37775E+02 1.55879E-09 1.12067E-08
 -1       677-2.94551E+02-2.96191E+05-2.03797E+03 2.75327E+02 1.12811E-08-1.94935E-08
 -1       678 1.97565E+02-2.95729E+05-3.60262E+03-1.37462E+02-1.29921E-09-9.39364E-09
 -1       679-3.60267E+03-2.98365E+05-8.55833E+03 2.74138E+02 5.95378E-09-1.24277E-08
 -1       680 2.15101E+03-2.93748E+05-1.37931E+04-1.35066E+02 1.09685E-09-7.53404E-09
 -1       771-3.06241E+06-7.47512E+05-1.66111E+05-1.46615E+06-3.26254E-08-2.70084E-08
 -1       772-2.98525E+06-8.36422E+05-8.56428E+04-1.56894E+06-2.01399E-08 1.33805E-08
 -1       773-3.09394E+06-7.22930E+05-4.36572E+04-1.48071E+06-1.46392E-08 1.26165E-08
 -1       774-2.97572E+06-8.17867E+05-1.94780E+04-1.59474E+06 2.85363E-08-1.28057E-09
 -1       775-3.11040E+06-7.11377E+05-1.45692E+04-1.48778E+06-7.36327E-09 2.60479E-09
 -1       776-2.98809E+06-8.14824E+05-5.44843E+03-1.61426E+06-1.74477E-08 1.36788E-09
 -1       777-3.12470E+06-7.01065E+05-6.43708E+03-1.49401E+06 2.24099E-09 3.31056E-09
 -1       778-3.00100E+06-8.11995E+05-1.82004E+03-1.63103E+06-2.79397E-09 7.31961E-09
 -1       779-3.13698E+06-6.92053E+05-3.21679E+03-1.49934E+06-9.95351E-09-5.69707E-09
 -1       780-3.01237E+06-8.09295E+05-5.33510E+02-1.64469E+06-3.63070E-09-8.73115E-10
 -1       781-3.14675E+06-6.84788E+05-1.24976E+03-1.50350E+06-3.48373E-08-9.56788E-10
 -1       782-3.02114E+06-8.07004E+05 4.50373E+02-1.65477E+06-3.82133E-08-5.09226E-09
 -1       783-3.15363E+06-6.79740E+05 7.01050E+02-1.50642E+06-1.28784E-08-1.38630E-08
 -1       784-3.02599E+06-8.04714E+05 2.90629E+03-1.66100E+06-2.93549E-08 2.82262E-09
 -1       785-3.15770E+06-6.76728E+05 5.13055E+03-1.50827E+06-4.18804E-08 1.33005E-08
 -1       786 1.22676E+05-9.73472E+03 2.25222E+04-3.19870E+02 2.95135E-09 1.14442E-08
 -1       787 1.32444E+05 1.12706E+04 1.59335E+04-1.36499E+02 5.96672E-09 1.14305E-08
 -1       788 1.26442E+05-1.52545E+03 5.82692E+03-2.85230E+02 2.59629E-09 1.28632E-08
 -1       789 1.28056E+05 1.76567E+03 3.65783E+03-1.89595E+02-3.77396E-09 3.90656E-09
 -1       790 1.27064E+05-2.37500E+02 1.48080E+03-2.66790E+02-4.50655E-09 2.50932E-08
 -1       791 1.27329E+05 2.74736E+02 8.54882E+02-2.21229E+02-6.63978E-09 1.09420E-08
 -1       792 1.27169E+05-3.56333E+01 3.61487E+02-2.53599E+02-4.83129E-09-6.75001E-10
 -1       793 1.27203E+05 3.72625E+01 1.78501E+02-2.46137E+02-2.61768E-09-1.16212E-08
 -1       794 1.27190E+05-1.76602E-01 4.29545E+01-2.41882E+02 4.82535E-09 6.57380E-10
 -1       795 1.27164E+05-3.03282E+01-6.68722E+01-2.70672E+02-5.48410E-09 3.94646E-08
 -1       796 1.27207E+05 3.19192E+01-1.78203E+02-2.29064E+02 4.04003E-09-3.42681E-10
 -1       797 1.27062E+05-2.38171E+02-4.84685E+02-3.00172E+02 4.57502E-09 8.71034E-09
 -1       798 1.27292E+05 2.07510E+02-7.85892E+02-2.12382E+02 1.94520E-09 7.09775E-09
 -1       799 1.26466E+05-1.52978E+03-2.16099E+03-3.41539E+02 7.07228E-09-3.93035E-09
 -1       800 1.27803E+05 1.32248E+03-3.05796E+03-1.87698E+02 4.54262E-10 9.53787E-09
 -1       801-1.71366E+05-9.99986E+06-1.39381E+06 1.41592E+06 9.01346E-08-4.65297E-08
 -1       802 7.38607E+05 5.95345E+06 2.18250E+06-1.74797E+06 2.57794E-07-3.52011E-08
 -1       803-5.36822E+05-1.42702E+07-1.89112E+06 8.98523E+05 7.60483E-08 1.66365E-08
 -1       804 2.87330E+05 2.39709E+06 1.53780E+06 6.77325E+05-1.20432E-07-1.02516E-07
 -1       805 1.89376E+05-6.45760E+06-2.86435E+05-1.00372E+06-5.01313E-08-6.68342E-08
 -1       806-3.09123E+05-5.97984E+04-2.28655E+04-1.22495E+05-6.57565E-10 1.29012E-09
 -1       807-3.10922E+05-5.60665E+04-1.12336E+04-1.28044E+05 1.47704E-08 1.41707E-08
 -1       808-3.09751E+05-5.15577E+04-4.76565E+03-1.26391E+05 4.60705E-09 2.68492E-08
 -1       809-3.08560E+05-5.29102E+04-2.33029E+03-1.28320E+05 2.19734E-09 4.27724E-09
 -1       810-3.09846E+05-5.12708E+04-1.06811E+03-1.26563E+05 7.17591E-09 8.92101E-09
 -1       811-3.08377E+05-5.27834E+04-5.31200E+02-1.28285E+05 3.05954E-09 1.88306E-08
 -1       812-3.09860E+05-5.12955E+04-2.68758E+02-1.26562E+05-7.10224E-09 4.89490E-09
 -1       813-3.08352E+05-5.27856E+04-1.74846E+02-1.28266E+05-7.49833E-09-1.86969E-08
 -1       814-3.09853E+05-5.13052E+04-1.73559E+02-1.26558E+05-1.82627E-09-1.01313E-08
 -1       815-3.08355E+05-5.27878E+04-2.79902E+02-1.28258E+05 6.96718E-09 2.16282E-08
 -1       816-3.09832E+05-5.13044E+04-5.30678E+02-1.26554E+05 4.06817E-09 1.44892E-08
 -1       817-3.08446E+05-5.28384E+04-1.13898E+03-1.28247E+05-2.07092E-08 7.14863E-09
 -1       818-3.09763E+05-5.14651E+04-2.32316E+03-1.26479E+05-7.24413E-09-4.33056E-09
 -1       819-3.09717E+05-5.42421E+04-5.46623E+03-1.27946E+05 1.10595E-09 3.94721E-09
 -1       820-3.09325E+05-5.55943E+04-1.11258E+04-1.24715E+05 1.87265E-09-7.20479E-09
 -1       821-3.78247E+05 2.09181E+04-4.86709E+04 2.08518E+03 1.37586E-08-7.99628E-09
 -1       822-3.98090E+05-2.42311E+04-3.42226E+04-4.31676E+03 4.79686E-09 1.95678E-09
 -1       823-3.85772E+05 3.29608E+03-1.25733E+04 3.34049E+03-1.20210E-08-3.56522E-10
 -1       824-3.89024E+05-3.80157E+03-7.87279E+03-5.17654E+03 1.00346E-09 1.77008E-08
 -1       825-3.87320E+05 5.12043E+02-3.29343E+03 2.94507E+03 1.96567E-08 3.69857E-08
 -1       826-3.86641E+05-5.70589E+02-1.76058E+03-2.96317E+03 2.47154E-08 6.46625E-09
 -1       827-3.88132E+05 4.96761E+01-1.18064E+03 1.12698E+03 1.08908E-08 3.83679E-09
 -1       828-3.85972E+05-1.35748E+02-6.06853E+02 1.09357E+03-3.63927E-09 4.21222E-09
 -1       829-3.87977E+05 6.79389E+01-1.16886E+03-1.11170E+03 1.72858E-09 2.13685E-08
 -1       830-3.86977E+05-6.22359E+02-1.89052E+03 4.74839E+03 1.48968E-09 3.60490E-09
 -1       831-3.87148E+05 5.52843E+02-3.36641E+03-2.52785E+03-4.55409E-09 8.16704E-09
 -1       832-3.89099E+05-3.95540E+03-8.15016E+03 5.97539E+03-2.59295E-09 8.97444E-09
 -1       833-3.85870E+05 3.40968E+03-1.30356E+04-2.33874E+03-2.87224E-09 6.37738E-09
 -1       834-3.98127E+05-2.50668E+04-3.53376E+04 4.06093E+03-3.65611E-09-2.41562E-09
 -1       835-3.78103E+05 2.16323E+04-5.03836E+04-6.13328E+02 4.32493E-09 8.33825E-09
 -1       836-1.40369E+03 3.70611E+05 2.27775E+04-1.57509E+04-7.16045E-09-4.93446E-09
 -1       837 4.85825E+03 3.77745E+05 1.93079E+04-3.22024E+04-7.96024E-09 3.33648E-09
 -1       838-5.56473E+02 3.72606E+05 1.97202E+04-1.56807E+04-6.57974E-09 3.05306E-08
 -1       839 1.24318E+04 3.83387E+05 3.73516E+04-3.22544E+04-6.57155E-09 2.40311E-08
 -1       840-3.84271E+03 3.64912E+05 5.95830E+04-1.57048E+04-6.23550E-09 1.40031E-09
 -1       856-5.21046E+04 8.02252E+03-2.11411E+04-3.97397E+02 6.07793E-09 5.29326E-09
 -1       857-6.08142E+04-9.42626E+03-1.45533E+04 5.63426E+03 5.42127E-09 1.04558E-08
 -1       858-5.55539E+04 1.12508E+03-5.48560E+03-4.21489E+02 1.45911E-09-3.45290E-09
 -1       859-5.68559E+04-1.32367E+03-3.31029E+03 5.67009E+03-2.49304E-09-2.46229E-09
 -1       860-5.60692E+04 1.57568E+02-1.38732E+03-4.32958E+02 6.86754E-10-2.56006E-09
 -1       861-5.62631E+04-1.88151E+02-7.63148E+02 5.68571E+03 3.41115E-09-9.81160E-10
 -1       862-5.61498E+04 2.13470E+01-3.17137E+02-4.37088E+02-5.82208E-10 8.08259E-09
 -1       863-5.61643E+04-2.18774E+01-1.15312E+02 5.68811E+03-3.95150E-09 8.03624E-12
 -1       864-5.61685E+04-4.92133E+00 4.76652E+01-4.35357E+02-5.63645E-09-1.30942E-08
 -1       865-5.61084E+04 5.97885E+01 2.56237E+02 5.67822E+03-6.65210E-09-1.96377E-09
 -1       866-5.62035E+04-6.03339E+01 5.16149E+02-4.27203E+02-2.31876E-09 4.84550E-09
 -1       867-5.58657E+04 4.98212E+02 1.27029E+03 5.65609E+03 3.08887E-09 1.74589E-09
 -1       868-5.64063E+04-4.35422E+02 2.11081E+03-4.13219E+02-8.55152E-10 6.83644E-09
 -1       869-5.43183E+04 3.62385E+03 5.62033E+03 5.61967E+03-2.76464E-09-4.35807E-09
 -1       870-5.77431E+04-3.10107E+03 8.15637E+03-3.90677E+02-2.35286E-09 8.22820E-09
 -1       871-5.52001E+03-2.14011E+04-1.94998E+04 1.30475E+05-4.18913E-09 1.58489E-08
 -1       872-1.98193E+03-2.59356E+04-8.16598E+03 1.69180E+05-1.12123E-08-1.71631E-08
 -1       873 4.06226E+02-2.37421E+04 5.87748E+02 1.30188E+05-5.17048E-09-1.98648E-08
 -1       874 3.30746E+03-2.13316E+04 9.77852E+03 1.69209E+05-1.09658E-08-2.27601E-10
 -1       875 6.84752E+03-2.60717E+04 2.20614E+04 1.30427E+05-5.38967E-09-1.14887E-08
 -1       876 2.93808E+05 4.95164E+04 1.51022E+04 1.17903E+05 3.63639E-09-3.72711E-09
 -1       877 2.94806E+05 5.26970E+04 8.06517E+03 1.22235E+05 1.42336E-08-2.39432E-08
 -1       878 2.95220E+05 4.78434E+04 3.37891E+03 1.19140E+05-7.47468E-09-8.92328E-09
 -1       879 2.92754E+05 5.06482E+04 1.68358E+03 1.22337E+05-6.82212E-09 1.30285E-08
 -1       880 2.95322E+05 4.78261E+04 7.84193E+02 1.19191E+05-2.45859E-09 4.22995E-09
 -1       881 2.92617E+05 5.05606E+04 4.18793E+02 1.22314E+05-6.29825E-09 9.20824E-09
 -1       882 2.95331E+05 4.78394E+04 2.67954E+02 1.19192E+05-1.85332E-09-2.90339E-09
 -1       883 2.92608E+05 5.05561E+04 2.88121E+02 1.22306E+05-1.39289E-09-1.48342E-08
 -1       884 2.95324E+05 4.78366E+04 4.58384E+02 1.19192E+05-4.96232E-09-4.91963E-09
 -1       885 2.92644E+05 5.05624E+04 9.21638E+02 1.22317E+05-1.61227E-08 1.25642E-08
 -1       886 2.95288E+05 4.78097E+04 1.85754E+03 1.19189E+05-6.42809E-09 8.97398E-09
 -1       887 2.92970E+05 5.07764E+04 4.05753E+03 1.22364E+05 7.17546E-09 9.50467E-09
 -1       888 2.95032E+05 4.78549E+04 8.17604E+03 1.19059E+05-4.98356E-09-1.48884E-09
 -1       889 2.97838E+05 5.58384E+04 1.95310E+04 1.22215E+05-5.45468E-09-2.36050E-08
 -1       890 2.91695E+05 5.18190E+04 3.65812E+04 1.15947E+05-2.45200E-09-2.86491E-09
 -1       891-8.91878E+01-1.62785E+05-1.99691E+03 2.71451E+04-2.75872E-09 2.36771E-08
 -1       892-1.75112E+02-1.63313E+05-2.14458E+03 4.12218E+04 4.34238E-09 5.63887E-11
 -1       893 4.39129E+01-1.62850E+05-3.03632E+03 2.71525E+04-2.79942E-09-2.28647E-09
 -1       894-1.50993E+03-1.64460E+05-6.28394E+03 4.10693E+04 6.26642E-10-1.13673E-08
 -1       895-1.19918E+03-1.61540E+05-1.10659E+04 2.72995E+04-2.32910E-09 6.87578E-10
 -1       956-3.77289E+05-5.44881E+03-1.34499E+04 3.09058E+04 7.26141E-09 1.94366E-08
 -1       957-3.79928E+05-1.92234E+03-6.90363E+03 3.71404E+04 1.41654E-09-8.23798E-09
 -1       958-3.78498E+05-2.41088E+02-3.11100E+03 3.07378E+04-5.46606E-09-1.10876E-08
 -1       959-3.78694E+05-1.36435E+02-1.58852E+03 3.73363E+04-2.65118E-09 9.77070E-09
 -1       960-3.78616E+05-4.49535E+01-7.74648E+02 3.07205E+04 1.21418E-09 2.42608E-10
 -1       961-3.78614E+05-6.33622E+01-4.10713E+02 3.73568E+04 6.82462E-09-5.14387E-09
 -1       962-3.78643E+05-4.61354E+01-2.35156E+02 3.07176E+04 3.07864E-10 1.22079E-08
 -1       963-3.78614E+05-5.91380E+01-1.88792E+02 3.73605E+04 3.24007E-09 1.03853E-08
 -1       964-3.78649E+05-4.27591E+01-2.29616E+02 3.07168E+04-1.63077E-09-7.43557E-09
 -1       965-3.78626E+05-5.61670E+01-3.97164E+02 3.73598E+04-6.40938E-09 1.51672E-08
 -1       966-3.78633E+05-3.49180E+01-7.46278E+02 3.07183E+04-1.15051E-09 2.24009E-09
 -1       967-3.78716E+05-1.19731E+02-1.53061E+03 3.73454E+04-4.56021E-09 1.99063E-08
 -1       968-3.78529E+05-2.17459E+02-2.99639E+03 3.07310E+04-5.96265E-09 1.02697E-08
 -1       969-3.79917E+05-1.83488E+03-6.65191E+03 3.71968E+04 2.24827E-09-9.74950E-10
 -1       970-3.77372E+05-5.23130E+03-1.29583E+04 3.08583E+04-2.60570E-09 1.04801E-08
 -1       971-3.45428E+05-1.72724E+03-9.30842E+03 1.53754E+04-2.52294E-09-4.19969E-09
 -1       972-3.47668E+05-1.27164E+03-5.06927E+03 2.12638E+04-2.91448E-09 1.27743E-08
 -1       973-3.46465E+05-6.20709E+01-2.27058E+03 1.52543E+04-2.53567E-09-6.45355E-09
 -1       974-3.46600E+05-8.11370E+01-1.17699E+03 2.14009E+04-2.71302E-09 3.18869E-09
 -1       975-3.46547E+05-1.72062E+01-5.88810E+02 1.52420E+04-3.52884E-09 1.54058E-08
 -1       976-3.46538E+05-3.13042E+01-3.40559E+02 2.14167E+04 2.05546E-09-2.07342E-09
 -1       977-3.46563E+05-1.64621E+01-2.48705E+02 1.52386E+04-7.11520E-09-2.05421E-08
 -1       978-3.46544E+05-2.50815E+01-2.93129E+02 2.14215E+04-1.08448E-08-1.79340E-08
 -1       979-3.46563E+05-7.98390E+00-4.72762E+02 1.52371E+04-2.60763E-09-7.98070E-09
 -1       980-3.46579E+05-2.20206E+01-9.13971E+02 2.14225E+04-6.49754E-09 2.32741E-08
 -1       981-3.46534E+05 1.48616E+01-1.77074E+03 1.52377E+04-6.61862E-09 1.64835E-09
 -1       982-3.46822E+05-1.52858E+02-3.66041E+03 2.14159E+04 1.43973E-09-5.44759E-09
 -1       983-3.46311E+05-9.85214E+01-7.11238E+03 1.52437E+04-4.09636E-09 4.62410E-09
 -1       984-3.50243E+05-3.86744E+03-1.59280E+04 2.13303E+04 9.52696E-11 2.22143E-08
 -1       985-3.43091E+05-5.30291E+03-2.92487E+04 1.53150E+04-2.81170E-09 4.77849E-09
 -3
    1PSTEP                        29          15           1          
  100CL  115 6.62985E-01         409                     0   15           1
 -4  DISP        4    1
 -5  D1          1    2    1    0
 -5  D2          1    2    2    0
 -5  D3          1    2    3    0
 -5  ALL         1    2    0    0    1ALL
 -1         1 2.72525E-03 0.00000E+00 0.00000E+00
 -1         2 1.33465E-03 2.71090E-28 0.00000E+00
 -1         3 3.42759E-04-5.91750E-28 0.00000E+00
 -1         5 1.77146E-04-1.95833E-27 0.00000E+00
 -1         8 2.71450E-03-4.02391E-07 0.00000E+00
 -1         9 2.70778E-03-1.98148E-04 0.00000E+00
 -1        10 3.10799E-04-3.39747E-06-6.61744E-24
 -1        12 1.78994E-04 8.09477E-07 0.00000E+00
 -1        15 2.70224E-03-4.25619E-07-1.03398E-25
 -1        16 2.77685E-03-2.00011E-04 0.00000E+00
 -1        17 2.11514E-04-7.74993E-06 0.00000E+00
 -1        18 1.82947E-04 3.44431E-05 0.00000E+00
 -1        19 1.84541E-04 1.61253E-06 0.00000E+00
 -1        20 1.84680E-04-9.89593E-06 0.00000E+00
 -1        21 1.83787E-04-2.54459E-05-3.30872E-24
 -1        24 3.06097E-05-1.19734E-05 0.00000E+00
 -1        25 1.93736E-04 3.46689E-05 0.00000E+00
 -1        26 1.94410E-04 2.23259E-06 0.00000E+00
 -1        27 1.92217E-04-1.34553E-05 0.00000E+00
 -1        28 1.91901E-04-2.60680E-05 0.00000E+00
 -1        32 0.00000E+00 0.00000E+00 0.00000E+00
 -1        33 2.03291E-04 2.98716E-06 0.00000E+00
 -1        34 2.01172E-04-1.35116E-05 0.00000E+00
 -1        35 1.99240E-04-2.64105E-05 0.00000E+00
 -1        51 2.72453E-03-8.45764E-08-4.96308E-24
 -1        52 2.72321E-03-1.50701E-07 0.00000E+00
 -1        53 2.72142E-03-2.13329E-07 0.00000E+00
 -1        54 2.71928E-03-2.74695E-07 0.00000E+00
 -1        55 2.71693E-03-3.36564E-07-1.65436E-24
 -1        56 2.71726E-03 9.21797E-06 0.00000E+00
 -1        57 2.70133E-03 3.79747E-05 0.00000E+00
 -1        58 2.67985E-03 8.01502E-05-1.05879E-22
 -1        59 2.65577E-03 1.28350E-04-5.29396E-23
 -1        60 2.63271E-03 1.74147E-04 0.00000E+00
 -1        61 2.61413E-03 2.09305E-04 0.00000E+00
 -1        62 2.60243E-03 2.27491E-04 1.05879E-22
 -1        63 2.59910E-03 2.23880E-04 0.00000E+00
 -1        64 2.60393E-03 1.97656E-04 1.05879E-22
 -1        65 2.61593E-03 1.50150E-04-5.29396E-23
 -1        66 2.63301E-03 8.67485E-05-1.05879E-22
 -1        67 2.65282E-03 1.44098E-05 0.00000E+00
 -1        68 2.67270E-03-5.81657E-05-1.05879E-22
 -1        69 2.69002E-03-1.22247E-04 0.00000E+00
 -1        70 2.70238E-03-1.70764E-04-1.05879E-22
 -1        86 1.42100E-03-6.24496E-06 0.00000E+00
 -1        87 1.67069E-03-3.93376E-05 0.00000E+00
 -1        88 2.00644E-03-9.62557E-05 0.00000E+00
 -1        89 2.34679E-03-1.54774E-04 0.00000E+00
 -1        90 2.60761E-03-1.90589E-04 5.29396E-23
 -1       121 3.41861E-04-5.48502E-07 0.00000E+00
 -1       122 3.39173E-04-1.10009E-06 0.00000E+00
 -1       123 3.34702E-04-1.65781E-06 0.00000E+00
 -1       124 3.28467E-04-2.22471E-06 6.61744E-24
 -1       125 3.20488E-04-2.80342E-06 0.00000E+00
 -1       191 1.77197E-04 1.34977E-07 0.00000E+00
 -1       192 1.77351E-04 2.69942E-07-1.65436E-24
 -1       193 1.77608E-04 4.04887E-07 0.00000E+00
 -1       194 1.77967E-04 5.39800E-07 0.00000E+00
 -1       195 1.78430E-04 6.74668E-07 0.00000E+00
 -1       251 2.71420E-03 1.61674E-06 0.00000E+00
 -1       252 2.71390E-03 3.49075E-06-3.30872E-24
 -1       253 2.71360E-03 4.22030E-06 6.61744E-24
 -1       254 2.71329E-03 2.82022E-06 3.30872E-24
 -1       255 2.71298E-03-1.37327E-06 0.00000E+00
 -1       256 2.71265E-03-8.98920E-06 0.00000E+00
 -1       257 2.71228E-03-2.01404E-05 0.00000E+00
 -1       258 2.71187E-03-3.48957E-05 3.30872E-24
 -1       259 2.71142E-03-5.27809E-05 0.00000E+00
 -1       260 2.71091E-03-7.32824E-05 6.61744E-24
 -1       261 2.71037E-03-9.54920E-05 1.32349E-23
 -1       262 2.70981E-03-1.18481E-04-6.61744E-24
 -1       263 2.70926E-03-1.41202E-04-1.32349E-23
 -1       264 2.70873E-03-1.62612E-04-6.61744E-24
 -1       265 2.70824E-03-1.81867E-04 1.32349E-23
 -1       266 2.71246E-03-4.11850E-07 1.65436E-24
 -1       267 2.71041E-03-4.15040E-07 0.00000E+00
 -1       268 2.70837E-03-4.18628E-07 0.00000E+00
 -1       269 2.70632E-03-4.21039E-07 0.00000E+00
 -1       270 2.70428E-03-4.23423E-07 0.00000E+00
 -1       271 2.71368E-03 2.25325E-08 0.00000E+00
 -1       272 2.71385E-03-2.24796E-06-6.61744E-24
 -1       273 2.71496E-03-7.05243E-06 0.00000E+00
 -1       274 2.71694E-03-1.42168E-05 1.32349E-23
 -1       275 2.71971E-03-2.35458E-05 0.00000E+00
 -1       276 2.72319E-03-3.48288E-05 0.00000E+00
 -1       277 2.72729E-03-4.78386E-05 0.00000E+00
 -1       278 2.73194E-03-6.23349E-05 0.00000E+00
 -1       279 2.73702E-03-7.80654E-05 1.32349E-23
 -1       280 2.74245E-03-9.47679E-05-6.61744E-24
 -1       281 2.74813E-03-1.12172E-04 1.32349E-23
 -1       282 2.75397E-03-1.30004E-04 6.61744E-24
 -1       283 2.75986E-03-1.47983E-04 0.00000E+00
 -1       284 2.76570E-03-1.65829E-04 6.61744E-24
 -1       285 2.77139E-03-1.83264E-04 0.00000E+00
 -1       301 2.72033E-03-1.98494E-04-6.61744E-24
 -1       302 2.73122E-03-1.98792E-04 3.30872E-24
 -1       303 2.74137E-03-1.99080E-04 1.32349E-23
 -1       304 2.75173E-03-1.99368E-04 6.61744E-24
 -1       305 2.76325E-03-1.99670E-04 0.00000E+00
 -1       306 2.74586E-03-3.53569E-04-1.05879E-22
 -1       307 2.80972E-03-7.68529E-04 0.00000E+00
 -1       308 2.85628E-03-1.37448E-03 0.00000E+00
 -1       309 2.88011E-03-2.07513E-03 5.29396E-23
 -1       310 2.91154E-03-2.74462E-03 0.00000E+00
 -1       311 2.97114E-03-3.25980E-03 5.29396E-23
 -1       312 3.02879E-03-3.54016E-03 0.00000E+00
 -1       313 3.02333E-03-3.54819E-03-5.29396E-23
 -1       314 2.88083E-03-3.29624E-03 0.00000E+00
 -1       315 2.56054E-03-2.84915E-03 0.00000E+00
 -1       316 2.08121E-03-2.28364E-03 1.05879E-22
 -1       317 1.50915E-03-1.66896E-03 0.00000E+00
 -1       318 9.58963E-04-1.06557E-03-1.05879E-22
 -1       319 5.38761E-04-5.38388E-04-5.29396E-23
 -1       320 2.92259E-04-1.61624E-04 1.05879E-22
 -1       336 2.99209E-04-4.05431E-06-1.32349E-23
 -1       337 2.85544E-04-4.73685E-06-6.61744E-24
 -1       338 2.69863E-04-5.44732E-06 0.00000E+00
 -1       339 2.52242E-04-6.18654E-06 0.00000E+00
 -1       340 2.32762E-04-6.95898E-06 1.32349E-23
 -1       406 1.79662E-04 9.44210E-07 0.00000E+00
 -1       407 1.80433E-04 1.07883E-06 0.00000E+00
 -1       408 1.81306E-04 1.21328E-06-1.65436E-24
 -1       409 1.82282E-04 1.34739E-06-1.44757E-24
 -1       410 1.83361E-04 1.48089E-06 8.27181E-25
 -1       521 2.81550E-03-3.64735E-04 0.00000E+00
 -1       522 2.87755E-03-8.00181E-04 0.00000E+00
 -1       523 2.91756E-03-1.43434E-03 0.00000E+00
 -1       524 2.93200E-03-2.16411E-03 5.29396E-23
 -1       525 2.95539E-03-2.86068E-03 1.05879E-22
 -1       526 3.01141E-03-3.39824E-03 5.29396E-23
 -1       527 3.06865E-03-3.68932E-03 2.11758E-22
 -1       528 3.06084E-03-3.69546E-03-5.29396E-23
 -1       529 2.90604E-03-3.42907E-03-2.11758E-22
 -1       530 2.56125E-03-2.96309E-03 0.00000E+00
 -1       531 2.04604E-03-2.37809E-03 0.00000E+00
 -1       532 1.43329E-03-1.74592E-03-5.29396E-23
 -1       533 8.43142E-04-1.12436E-03-1.05879E-22
 -1       534 3.89009E-04-5.75989E-04 0.00000E+00
 -1       535 1.20957E-04-1.79410E-04 0.00000E+00
 -1       536 2.10759E-04 2.71811E-05 6.61744E-24
 -1       537 2.08840E-04 8.76311E-05 0.00000E+00
 -1       538 2.05876E-04 1.64332E-04 0.00000E+00
 -1       539 2.02379E-04 2.47932E-04 0.00000E+00
 -1       540 1.99232E-04 3.26927E-04 0.00000E+00
 -1       541 1.97187E-04 3.89836E-04 1.65436E-24
 -1       542 1.96243E-04 4.29905E-04 0.00000E+00
 -1       543 1.96018E-04 4.40529E-04 0.00000E+00
 -1       544 1.95695E-04 4.22481E-04 0.00000E+00
 -1       545 1.94523E-04 3.76757E-04 1.65436E-24
 -1       546 1.92337E-04 3.11484E-04 0.00000E+00
 -1       547 1.89379E-04 2.34911E-04 1.65436E-24
 -1       548 1.86447E-04 1.58713E-04 0.00000E+00
 -1       549 1.84332E-04 9.45694E-05 0.00000E+00
 -1       550 1.83234E-04 5.05108E-05 1.65436E-24
 -1       551 1.86307E-04-8.31898E-06 0.00000E+00
 -1       552 1.57855E-04-8.96853E-06 0.00000E+00
 -1       553 1.27100E-04-9.68034E-06-3.30872E-24
 -1       554 9.50019E-05-1.04333E-05 0.00000E+00
 -1       555 6.25202E-05-1.12000E-05 1.32349E-23
 -1       556 2.03864E-04 1.18108E-05 0.00000E+00
 -1       557 1.97683E-04 2.76751E-05 0.00000E+00
 -1       558 1.92837E-04 4.01309E-05 0.00000E+00
 -1       559 1.89194E-04 4.94886E-05 2.64698E-23
 -1       560 1.86622E-04 5.60593E-05 0.00000E+00
 -1       561 1.84995E-04 6.01563E-05 0.00000E+00
 -1       562 1.84187E-04 6.20944E-05 0.00000E+00
 -1       563 1.84073E-04 6.21891E-05 0.00000E+00
 -1       564 1.84532E-04 6.07570E-05 0.00000E+00
 -1       565 1.85442E-04 5.81153E-05 0.00000E+00
 -1       566 1.86685E-04 5.45817E-05 0.00000E+00
 -1       567 1.88141E-04 5.04744E-05 0.00000E+00
 -1       568 1.89693E-04 4.61116E-05 0.00000E+00
 -1       569 1.91220E-04 4.18116E-05 0.00000E+00
 -1       570 1.92607E-04 3.78928E-05 0.00000E+00
 -1       571 1.83044E-04 3.23134E-05-2.48154E-24
 -1       572 1.83143E-04 3.01179E-05-8.27181E-25
 -1       573 1.83242E-04 2.78722E-05 3.30872E-24
 -1       574 1.83341E-04 2.55927E-05-8.27181E-25
 -1       575 1.83440E-04 2.32959E-05 3.30872E-24
 -1       576 1.83540E-04 2.09983E-05-1.65436E-24
 -1       577 1.83640E-04 1.87164E-05 0.00000E+00
 -1       578 1.83739E-04 1.64668E-05 0.00000E+00
 -1       579 1.83839E-04 1.42660E-05 0.00000E+00
 -1       580 1.83939E-04 1.21305E-05 0.00000E+00
 -1       581 1.84039E-04 1.00770E-05 0.00000E+00
 -1       582 1.84139E-04 8.12194E-06 0.00000E+00
 -1       583 1.84239E-04 6.28181E-06 0.00000E+00
 -1       584 1.84340E-04 4.57297E-06 0.00000E+00
 -1       585 1.84440E-04 3.01160E-06 6.61744E-24
 -1       586 1.84704E-04 3.44828E-05 0.00000E+00
 -1       587 1.86420E-04 3.45220E-05 8.27181E-25
 -1       588 1.88138E-04 3.45609E-05 8.27181E-25
 -1       589 1.89901E-04 3.45990E-05 0.00000E+00
 -1       590 1.91753E-04 3.46359E-05 0.00000E+00
 -1       591 1.83677E-04 3.24069E-05-1.03398E-25
 -1       592 1.84409E-04 3.03504E-05 0.00000E+00
 -1       593 1.85147E-04 2.82795E-05-8.27181E-25
 -1       594 1.85888E-04 2.61989E-05-4.13590E-25
 -1       595 1.86630E-04 2.41137E-05-8.27181E-25
 -1       596 1.87373E-04 2.20284E-05-4.13590E-25
 -1       597 1.88113E-04 1.99480E-05 8.27181E-25
 -1       598 1.88850E-04 1.78772E-05 4.13590E-25
 -1       599 1.89582E-04 1.58208E-05 0.00000E+00
 -1       600 1.90306E-04 1.37836E-05-4.13590E-25
 -1       601 1.91022E-04 1.17703E-05 0.00000E+00
 -1       602 1.91727E-04 9.78582E-06 0.00000E+00
 -1       603 1.92419E-04 7.83486E-06 4.13590E-25
 -1       604 1.93098E-04 5.92233E-06 1.03398E-25
 -1       605 1.93761E-04 4.05291E-06 0.00000E+00
 -1       606 1.84554E-04 4.46975E-07 0.00000E+00
 -1       607 1.84564E-04-6.32819E-07 0.00000E+00
 -1       608 1.84573E-04-1.63188E-06 3.30872E-24
 -1       609 1.84581E-04-2.55590E-06 0.00000E+00
 -1       610 1.84589E-04-3.41059E-06 0.00000E+00
 -1       611 1.84598E-04-4.20176E-06 0.00000E+00
 -1       612 1.84606E-04-4.93519E-06 0.00000E+00
 -1       613 1.84614E-04-5.61669E-06 0.00000E+00
 -1       614 1.84623E-04-6.25207E-06 1.65436E-24
 -1       615 1.84631E-04-6.84713E-06 0.00000E+00
 -1       616 1.84639E-04-7.40768E-06 1.65436E-24
 -1       617 1.84648E-04-7.93952E-06 4.13590E-25
 -1       618 1.84656E-04-8.44846E-06-8.27181E-25
 -1       619 1.84664E-04-8.94031E-06 0.00000E+00
 -1       620 1.84673E-04-9.42087E-06 0.00000E+00
 -1       621 1.85901E-04 1.71643E-06 1.65436E-24
 -1       622 1.87420E-04 1.82058E-06-8.27181E-25
 -1       623 1.89064E-04 1.92451E-06 1.65436E-24
 -1       624 1.90799E-04 2.02812E-06 8.27181E-25
 -1       625 1.92593E-04 2.13144E-06-1.65436E-24
 -1       626 1.85090E-04 4.83086E-07 0.00000E+00
 -1       627 1.85616E-04-5.83397E-07 0.00000E+00
 -1       628 1.86122E-04-1.59477E-06 0.00000E+00
 -1       629 1.86611E-04-2.55918E-06-1.65436E-24
 -1       630 1.87085E-04-3.48483E-06 0.00000E+00
 -1       631 1.87548E-04-4.37992E-06-1.65436E-24
 -1       632 1.88002E-04-5.25263E-06 3.30872E-24
 -1       633 1.88451E-04-6.11121E-06 0.00000E+00
 -1       634 1.88898E-04-6.96384E-06 0.00000E+00
 -1       635 1.89346E-04-7.81871E-06 0.00000E+00
 -1       636 1.89798E-04-8.68406E-06-3.30872E-24
 -1       637 1.90256E-04-9.56808E-06 0.00000E+00
 -1       638 1.90725E-04-1.04790E-05-1.65436E-24
 -1       639 1.91206E-04-1.14250E-05 8.27181E-25
 -1       640 1.91703E-04-1.24143E-05 0.00000E+00
 -1       656 1.85388E-04-1.04744E-05 0.00000E+00
 -1       657 1.86515E-04-1.10765E-05 6.61744E-24
 -1       658 1.87923E-04-1.16771E-05 0.00000E+00
 -1       659 1.89465E-04-1.22774E-05-6.61744E-24
 -1       660 1.90958E-04-1.28795E-05-6.61744E-24
 -1       661 1.84945E-04-1.04161E-05 0.00000E+00
 -1       662 1.85248E-04-1.10281E-05 0.00000E+00
 -1       663 1.85583E-04-1.17268E-05 1.65436E-24
 -1       664 1.85948E-04-1.25057E-05 8.27181E-25
 -1       665 1.86341E-04-1.33589E-05 0.00000E+00
 -1       666 1.86760E-04-1.42804E-05 8.27181E-25
 -1       667 1.87202E-04-1.52647E-05 0.00000E+00
 -1       668 1.87666E-04-1.63061E-05 0.00000E+00
 -1       669 1.88149E-04-1.73993E-05-1.65436E-24
 -1       670 1.88649E-04-1.85388E-05-8.27181E-25
 -1       671 1.89165E-04-1.97196E-05-1.65436E-24
 -1       672 1.89694E-04-2.09365E-05 8.27181E-25
 -1       673 1.90235E-04-2.21845E-05 0.00000E+00
 -1       674 1.90784E-04-2.34589E-05 4.13590E-25
 -1       675 1.91342E-04-2.47544E-05 0.00000E+00
 -1       676 1.85144E-04-2.55501E-05 3.30872E-24
 -1       677 1.86501E-04-2.56544E-05 0.00000E+00
 -1       678 1.87855E-04-2.57586E-05 0.00000E+00
 -1       679 1.89207E-04-2.58625E-05-1.65436E-24
 -1       680 1.90556E-04-2.59663E-05-1.65436E-24
 -1       771 1.86524E-05 1.47675E-05 0.00000E+00
 -1       772 8.59290E-06 3.67298E-05 0.00000E+00
 -1       773 3.40460E-07 5.41439E-05 0.00000E+00
 -1       774-6.22935E-06 6.72678E-05 2.64698E-23
 -1       775-1.12382E-05 7.63700E-05 5.29396E-23
 -1       776-1.48129E-05 8.17357E-05-2.64698E-23
 -1       777-1.70796E-05 8.36604E-05 0.00000E+00
 -1       778-1.81676E-05 8.24533E-05 2.64698E-23
 -1       779-1.82050E-05 7.84321E-05 5.29396E-23
 -1       780-1.73223E-05 7.19259E-05-2.64698E-23
 -1       781-1.56489E-05 6.32709E-05 0.00000E+00
 -1       782-1.33159E-05 5.28117E-05 0.00000E+00
 -1       783-1.04534E-05 4.08979E-05 0.00000E+00
 -1       784-7.19269E-06 2.78851E-05-2.64698E-23
 -1       785-3.66418E-06 1.41321E-05-5.29396E-23
 -1       786 1.93774E-04 3.24141E-05 0.00000E+00
 -1       787 1.93815E-04 3.02088E-05 4.13590E-25
 -1       788 1.93856E-04 2.80449E-05 8.27181E-25
 -1       789 1.93898E-04 2.59143E-05 0.00000E+00
 -1       790 1.93941E-04 2.38123E-05 1.65436E-24
 -1       791 1.93983E-04 2.17345E-05-8.27181E-25
 -1       792 1.94025E-04 1.96786E-05-1.65436E-24
 -1       793 1.94068E-04 1.76425E-05 0.00000E+00
 -1       794 1.94110E-04 1.56261E-05 0.00000E+00
 -1       795 1.94153E-04 1.36294E-05-8.27181E-25
 -1       796 1.94195E-04 1.16542E-05-1.65436E-24
 -1       797 1.94238E-04 9.70263E-06-8.27181E-25
 -1       798 1.94281E-04 7.77893E-06 1.65436E-24
 -1       799 1.94324E-04 5.88756E-06 8.27181E-25
 -1       800 1.94367E-04 4.03619E-06 1.65436E-24
 -1       801 1.47924E-04 3.11677E-05 0.00000E+00
 -1       802 9.41068E-06 1.94442E-05 0.00000E+00
 -1       803-1.08898E-04 9.82168E-06 0.00000E+00
 -1       804-9.65217E-05 6.83662E-06 0.00000E+00
 -1       805-3.18898E-05 2.68605E-06-5.29396E-23
 -1       806 1.94466E-04 3.23456E-05 0.00000E+00
 -1       807 1.95182E-04 3.00484E-05 0.00000E+00
 -1       808 1.95886E-04 2.77825E-05 3.30872E-24
 -1       809 1.96576E-04 2.55521E-05 0.00000E+00
 -1       810 1.97251E-04 2.33611E-05 0.00000E+00
 -1       811 1.97910E-04 2.12135E-05 0.00000E+00
 -1       812 1.98551E-04 1.91133E-05 0.00000E+00
 -1       813 1.99173E-04 1.70644E-05 1.65436E-24
 -1       814 1.99775E-04 1.50706E-05 3.30872E-24
 -1       815 2.00354E-04 1.31360E-05-8.27181E-25
 -1       816 2.00910E-04 1.12644E-05 1.65436E-24
 -1       817 2.01441E-04 9.45961E-06 8.27181E-25
 -1       818 2.01946E-04 7.72567E-06 3.30872E-24
 -1       819 2.02423E-04 6.06640E-06 8.27181E-25
 -1       820 2.02871E-04 4.48563E-06-3.30872E-24
 -1       821 1.94281E-04-1.05143E-07 0.00000E+00
 -1       822 1.94141E-04-3.55362E-06-1.65436E-24
 -1       823 1.94000E-04-7.69788E-06 0.00000E+00
 -1       824 1.93855E-04-1.21186E-05 0.00000E+00
 -1       825 1.93712E-04-1.63220E-05 0.00000E+00
 -1       826 1.93571E-04-1.98152E-05 0.00000E+00
 -1       827 1.93432E-04-2.22988E-05 0.00000E+00
 -1       828 1.93296E-04-2.34794E-05 0.00000E+00
 -1       829 1.93161E-04-2.34178E-05 0.00000E+00
 -1       830 1.93025E-04-2.21821E-05 1.65436E-24
 -1       831 1.92887E-04-2.01599E-05-3.30872E-24
 -1       832 1.92750E-04-1.77432E-05 0.00000E+00
 -1       833 1.92612E-04-1.54317E-05-3.30872E-24
 -1       834 1.92477E-04-1.37240E-05 1.65436E-24
 -1       835 1.92343E-04-1.29554E-05 0.00000E+00
 -1       836 1.96100E-04 2.35774E-06-3.30872E-24
 -1       837 1.97664E-04 2.48602E-06-1.65436E-24
 -1       838 1.99135E-04 2.61423E-06 0.00000E+00
 -1       839 2.00542E-04 2.74174E-06 8.27181E-25
 -1       840 2.01917E-04 2.86909E-06 0.00000E+00
 -1       856 1.92201E-04-1.45187E-05 0.00000E+00
 -1       857 1.92181E-04-1.54464E-05 5.16988E-26
 -1       858 1.92162E-04-1.62594E-05 2.06795E-25
 -1       859 1.92142E-04-1.69789E-05 0.00000E+00
 -1       860 1.92123E-04-1.76261E-05-4.13590E-25
 -1       861 1.92103E-04-1.82223E-05-2.06795E-25
 -1       862 1.92083E-04-1.87888E-05 4.13590E-25
 -1       863 1.92063E-04-1.93471E-05-4.13590E-25
 -1       864 1.92044E-04-1.99183E-05 8.27181E-25
 -1       865 1.92024E-04-2.05238E-05 0.00000E+00
 -1       866 1.92004E-04-2.11850E-05 0.00000E+00
 -1       867 1.91984E-04-2.19232E-05 0.00000E+00
 -1       868 1.91964E-04-2.27594E-05 8.27181E-25
 -1       869 1.91944E-04-2.37150E-05 4.13590E-25
 -1       870 1.91923E-04-2.48108E-05-8.27181E-25
 -1       871 1.93568E-04-1.34603E-05 8.27181E-25
 -1       872 1.95066E-04-1.34686E-05 0.00000E+00
 -1       873 1.96644E-04-1.34777E-05 0.00000E+00
 -1       874 1.98233E-04-1.34875E-05-4.13590E-25
 -1       875 1.99765E-04-1.34978E-05 1.24077E-24
 -1       876 1.92743E-04-1.45042E-05-3.30872E-24
 -1       877 1.93246E-04-1.54862E-05 0.00000E+00
 -1       878 1.93728E-04-1.64093E-05-3.30872E-24
 -1       879 1.94191E-04-1.72810E-05-1.65436E-24
 -1       880 1.94638E-04-1.81086E-05 3.30872E-24
 -1       881 1.95071E-04-1.88996E-05-1.65436E-24
 -1       882 1.95493E-04-1.96612E-05 3.30872E-24
 -1       883 1.95907E-04-2.04008E-05 0.00000E+00
 -1       884 1.96315E-04-2.11258E-05 0.00000E+00
 -1       885 1.96721E-04-2.18435E-05 0.00000E+00
 -1       886 1.97126E-04-2.25612E-05 0.00000E+00
 -1       887 1.97534E-04-2.32863E-05-1.65436E-24
 -1       888 1.97948E-04-2.40262E-05 0.00000E+00
 -1       889 1.98369E-04-2.47883E-05-1.65436E-24
 -1       890 1.98801E-04-2.55800E-05 0.00000E+00
 -1       891 1.93267E-04-2.61255E-05 0.00000E+00
 -1       892 1.94608E-04-2.61832E-05 0.00000E+00
 -1       893 1.95902E-04-2.62408E-05 8.27181E-25
 -1       894 1.97121E-04-2.62981E-05 8.27181E-25
 -1       895 1.98242E-04-2.63552E-05-4.13590E-25
 -1       956 2.03160E-04 1.66349E-06 1.65436E-24
 -1       957 2.03028E-04 4.31539E-07-8.27181E-25
 -1       958 2.02895E-04-7.19454E-07 0.00000E+00
 -1       959 2.02762E-04-1.80084E-06 0.00000E+00
 -1       960 2.02630E-04-2.82402E-06 3.30872E-24
 -1       961 2.02497E-04-3.80044E-06-1.65436E-24
 -1       962 2.02364E-04-4.74152E-06-3.30872E-24
 -1       963 2.02231E-04-5.65874E-06-1.65436E-24
 -1       964 2.02098E-04-6.56356E-06 0.00000E+00
 -1       965 2.01965E-04-7.46744E-06 0.00000E+00
 -1       966 2.01833E-04-8.38183E-06 3.30872E-24
 -1       967 2.01700E-04-9.31821E-06 0.00000E+00
 -1       968 2.01567E-04-1.02880E-05-6.61744E-24
 -1       969 2.01435E-04-1.13027E-05 0.00000E+00
 -1       970 2.01302E-04-1.23736E-05-3.30872E-24
 -1       971 2.01052E-04-1.46494E-05-3.30872E-24
 -1       972 2.00931E-04-1.56926E-05 1.65436E-24
 -1       973 2.00810E-04-1.66516E-05 3.30872E-24
 -1       974 2.00688E-04-1.75374E-05 1.65436E-24
 -1       975 2.00567E-04-1.83607E-05 3.30872E-24
 -1       976 2.00445E-04-1.91325E-05 0.00000E+00
 -1       977 2.00324E-04-1.98636E-05 0.00000E+00
 -1       978 2.00202E-04-2.05649E-05 0.00000E+00
 -1       979 2.00081E-04-2.12472E-05 0.00000E+00
 -1       980 1.99960E-04-2.19216E-05 1.65436E-24
 -1       981 1.99838E-04-2.25989E-05 0.00000E+00
 -1       982 1.99717E-04-2.32901E-05 0.00000E+00
 -1       983 1.99596E-04-2.40059E-05 3.30872E-24
 -1       984 1.99475E-04-2.47574E-05 1.65436E-24
 -1       985 1.99355E-04-2.55554E-05 0.00000E+00
 -3
    1PSTEP                        30          15           1          
  100CL  115 6.62985E-01         409                     0   15           1
 -4  STRESS      6    1
 -5  SXX         1    4    1    1
 -5  SYY         1    4    2    2
 -5  SZZ         1    4    3    3
 -5  SXY         1    4    1    2
 -5  SYZ         1    4    2    3
 -5  SZX         1    4    3    1
 -1         1-5.34617E+06-1.57919E+06-1.13300E+06-1.33547E+06 1.09139E-09 2.41853E-08
 -1         2 1.51288E+06 2.21682E+07 5.15623E+06 6.70751E+06 2.74740E-08 1.47556E-07
 -1         3-1.48847E+03-1.55736E+06 4.05645E+02-2.21073E+03-5.11193E-10-8.54052E-08
 -1         5-7.54324E+01 3.86519E+05 9.98582E+00-1.34469E+00-4.83036E-10 1.33823E-08
 -1         8-5.54262E+05-2.00646E+05-6.27682E+04-2.43310E+05 2.23736E-10 4.32592E-08
 -1         9 1.17975E+07 3.89037E+06 2.80617E+06-3.15622E+05-2.28174E-09-1.13156E-08
 -1        10-2.30464E+03-1.62289E+06-3.94416E+03-1.49593E+04-1.42991E-08-4.63818E-08
 -1        12-7.15129E+01 3.86540E+05 3.28269E+02-9.16492E+00-6.30383E-10 2.92284E-08
 -1        15 9.25841E+02 5.08795E+02 2.99276E+03 8.18652E-01-4.40536E-10-1.73711E-07
 -1        16 2.29228E+07-3.33220E+05 3.11950E+06-2.29111E+06 5.62674E-10-5.53361E-08
 -1        17 8.39306E+06 6.28959E+06 2.26719E+06 6.01674E+06 2.30677E-08 2.28290E-08
 -1        18 1.41953E+05 3.32558E+04 3.87221E+03-1.19721E+05 1.18655E-08-9.89985E-09
 -1        19 1.22442E+05 1.41677E+05-9.50509E+02 2.19872E+04 1.68893E-09 5.30381E-09
 -1        20-8.20076E+04-5.73835E+05-1.28766E+05 2.51018E+04-3.00755E-09 2.12694E-08
 -1        21-4.55735E+01-2.96021E+05-9.23972E+02 2.75517E+02 1.63705E-08-2.72621E-08
 -1        24 1.40721E+07 1.21172E+07 3.89509E+06 1.12190E+07-1.71616E-07-5.67913E-08
 -1        25 1.24995E+05 2.68324E+05 1.00225E+05-6.46474E+05-1.92285E-09 2.49154E-08
 -1        26-5.60644E+04 9.19209E+04-2.51960E+04 1.48561E+03 6.34100E-10 7.40029E-09
 -1        27-7.54779E+04-3.09997E+05-1.13298E+05 6.89653E+04 3.75546E-09 1.96269E-09
 -1        28 2.22407E+04-8.53543E+04 1.68984E+04 2.06075E+04-1.91395E-09 5.56683E-09
 -1        32-1.68049E+06-3.18161E+06-1.97569E+05 4.58997E+05-4.22224E-08-6.75573E-09
 -1        33-1.78540E+05 9.30963E+04 3.24115E+04-3.82379E+04-3.42910E-09 2.58412E-08
 -1        34-2.23627E+05-2.50482E+04 6.90005E+02 7.56863E+04-4.90034E-09 5.43984E-09
 -1        35-2.29313E+04-3.38488E+04-1.34857E+03 5.14981E+04-3.59443E-09-7.97930E-09
 -1        51 6.08240E+04-1.71012E+05 1.28593E+05-4.35598E+05 7.27596E-11-1.32131E-07
 -1        52 2.05689E+04-1.48518E+05 6.74222E+04-5.08040E+05-1.40972E-10 1.37163E-07
 -1        53 4.16375E+03-1.63875E+05 3.50222E+04-4.34104E+05 2.38288E-10-1.64779E-07
 -1        54 7.29294E+03-1.59660E+05 2.86020E+04-5.09502E+05 4.36557E-10-2.32920E-07
 -1        55 1.59009E+04-1.66614E+05 3.45842E+04-4.34016E+05 3.49246E-10 1.71027E-07
 -1        56-9.80365E+06-1.38792E+06-9.22309E+05-4.10079E+06-7.15954E-09 9.42091E-08
 -1        57-1.11078E+07-7.86689E+05-5.45941E+05-2.68488E+06 5.25542E-08-2.07394E-07
 -1        58-9.59163E+06-1.85946E+06-2.01710E+05-4.29991E+06-3.48809E-08 8.15198E-08
 -1        59-1.13090E+07-2.41451E+05-1.07499E+05-2.61013E+06 6.33054E-09-1.91365E-07
 -1        60-9.68850E+06-1.86309E+06-5.83674E+04-4.25126E+06-1.87683E-08-6.53454E-08
 -1        61-1.06202E+07-5.94317E+05 1.93168E+04-2.86316E+06 1.08885E-08-1.02213E-07
 -1        62-1.01336E+07-1.60577E+06-8.19247E+04-3.93010E+06-5.27507E-08-4.17836E-07
 -1        63-9.66948E+06-1.34098E+06 5.99116E+04-3.59222E+06-1.70548E-08-9.12223E-09
 -1        64-1.05209E+07-1.20087E+06-7.53940E+04-3.44756E+06-1.12341E-08 5.72036E-08
 -1        65-9.28658E+06-1.97217E+06 1.59701E+04-4.54767E+06-2.19443E-08-1.57743E-07
 -1        66-1.06531E+07-8.79749E+05-4.75760E+04-3.07793E+06-4.70027E-09-1.97379E-08
 -1        67-9.31053E+06-2.23680E+06-9.67043E+04-5.00262E+06-4.69572E-08-1.99352E-07
 -1        68-1.06334E+07-8.40263E+05-1.87535E+05-3.07722E+06-6.34100E-08-1.29570E-07
 -1        69-9.47969E+06-2.31147E+06-4.84950E+05-4.51514E+06 8.60382E-10-3.02265E-07
 -1        70-1.03571E+07-9.06077E+05-8.47732E+05-3.48254E+06 3.43507E-08-7.31088E-08
 -1        86-1.54361E+06-1.57543E+07-2.82279E+06-3.14965E+06-2.64929E-07-1.68482E-07
 -1        87 2.42979E+06 6.39788E+06 2.34769E+06 5.80948E+06-4.59142E-07-6.46942E-08
 -1        88-4.59041E+05-1.93566E+06 2.22372E+05-2.58290E+06-4.26067E-07-8.55566E-08
 -1        89 3.25330E+06 6.09526E+06 2.40632E+06 6.00564E+06-6.09718E-07-1.19371E-07
 -1        90-2.27108E+06-1.55292E+07-3.04710E+06-3.37575E+06-1.45894E-07 1.14334E-07
 -1       121-2.03896E+03-1.56226E+06-5.47826E+02 1.09572E+03 1.49853E-09-3.78277E-08
 -1       122-1.30279E+03-1.55742E+06 7.68984E+02-4.42557E+03-5.42269E-09 2.59170E-08
 -1       123-2.05870E+03-1.56240E+06 2.59498E+02 3.27246E+03 4.14377E-09-9.45874E-11
 -1       124 3.32392E+02-1.55697E+06 2.94669E+03-9.26104E+03-1.01791E-08-2.55095E-08
 -1       125-2.86698E+03-1.56329E+06 3.45574E+03 5.88521E+03 7.03039E-09 7.28323E-09
 -1       191-7.94912E+01 3.86537E+05 8.48374E+00 7.01189E-01-5.47542E-10 2.14095E-09
 -1       192-7.63967E+01 3.86519E+05 2.13099E+01-4.31092E+00-8.17319E-10-6.03904E-10
 -1       193-8.20292E+01 3.86537E+05 3.62727E+01 3.78633E+00-1.13177E-09-6.56473E-09
 -1       194-7.94880E+01 3.86523E+05 8.10114E+01-9.78206E+00-5.57954E-10-5.03860E-09
 -1       195-8.69005E+01 3.86534E+05 1.55091E+02 6.36628E+00-1.57332E-09 4.93856E-09
 -1       251-8.61399E+05 1.61069E+04-3.76041E+04-1.43449E+04-5.20864E-09-2.99005E-08
 -1       252-8.75609E+05-1.86410E+04-2.61568E+04 5.06309E+04 1.05873E-08-2.60728E-07
 -1       253-8.69793E+05 2.47067E+03-1.01334E+04-1.00920E+04-5.64683E-09 1.90973E-07
 -1       254-8.62216E+05-2.99758E+03-4.51630E+03 3.59946E+04 1.30011E-08 2.51431E-07
 -1       255-8.74176E+05 5.36192E+01-3.52323E+03 2.87618E+02-6.51380E-09 9.11984E-09
 -1       256-8.56831E+05-2.72322E+02 1.19352E+03 1.24637E+04 6.72480E-09 4.85920E-08
 -1       257-8.74737E+05-5.80383E+02-1.39004E+03 1.34274E+04-5.09090E-10 1.06476E-07
 -1       258-8.59677E+05 9.15350E+02 2.71623E+03-1.22479E+04 1.04956E-09 1.24015E-07
 -1       259-8.71581E+05-9.40663E+02 1.37508E+03 2.49969E+04-2.50930E-09-1.22201E-07
 -1       260-8.66089E+05 2.95215E+03 5.58888E+03-3.00633E+04 2.01064E-08 1.61183E-07
 -1       261-8.68962E+05-2.12558E+03 8.67956E+03 3.12592E+04 7.86559E-09 8.01251E-08
 -1       262-8.64761E+05 1.18238E+04 2.15593E+04-3.52687E+04 1.51010E-08-1.12741E-07
 -1       263-8.73161E+05-9.58360E+03 3.41589E+04 3.02118E+04-1.19175E-08-8.77590E-08
 -1       264-8.34163E+05 6.72156E+04 9.45720E+04-2.60591E+04 4.56572E-08-2.38018E-07
 -1       265-8.99061E+05-5.76503E+04 1.31692E+05 2.20372E+04 1.14381E-08-2.00962E-07
 -1       266-1.67610E+04-7.83830E+03 3.93223E+04-1.75152E+01 2.18279E-11 3.99289E-08
 -1       267 1.94304E+04 9.13442E+03 2.77944E+04 2.02108E+01 1.10049E-10 2.13347E-07
 -1       268-2.60559E+03-1.29376E+03 1.03309E+04-2.57511E+00 7.54881E-11-1.80236E-07
 -1       269 3.07642E+03 1.54827E+03 6.71505E+03 2.99973E+00 2.04182E-10 1.60276E-07
 -1       270-4.61775E+02-2.54397E+02 3.24145E+03-4.07079E-01 9.11768E-11 3.65061E-07
 -1       271-1.47344E+06-1.87723E+05-1.11017E+05-5.73474E+05-8.32915E-09 1.68031E-07
 -1       272-1.46805E+06-3.01528E+05-6.96876E+04-6.12752E+05-2.40052E-08 4.52355E-08
 -1       273-1.49691E+06-2.11234E+05-2.69369E+04-5.65451E+05-2.56478E-09-2.02181E-08
 -1       274-1.44138E+06-2.73201E+05-1.39914E+04-6.27954E+05 1.99070E-08 1.05199E-07
 -1       275-1.50251E+06-2.10768E+05-6.72000E+03-5.61682E+05 1.81462E-08 9.20718E-08
 -1       276-1.43581E+06-2.74144E+05-2.82365E+03-6.36608E+05 9.24047E-09-3.64107E-08
 -1       277-1.50533E+06-2.08127E+05-1.86317E+03-5.58953E+05-2.37342E-08 2.60431E-07
 -1       278-1.43367E+06-2.77336E+05-7.03269E+02-6.42963E+05-8.65202E-09-1.20788E-07
 -1       279-1.50713E+06-2.05977E+05-8.57138E+02-5.57044E+05 3.08883E-08-1.50850E-07
 -1       280-1.43269E+06-2.79725E+05-9.72069E+02-6.47127E+05-2.62498E-08-5.32327E-08
 -1       281-1.50808E+06-2.04630E+05-1.79705E+03-5.55975E+05 2.63663E-09 1.79870E-07
 -1       282-1.43306E+06-2.81869E+05-4.17768E+03-6.48818E+05 1.81467E-08 3.25947E-07
 -1       283-1.50758E+06-2.03425E+05-7.43682E+03-5.55859E+05-1.05102E-08-9.79935E-09
 -1       284-1.43973E+06-2.91577E+05-2.02555E+04-6.46624E+05-1.64152E-08-5.18703E-08
 -1       285-1.50130E+06-1.96094E+05-3.16418E+04-5.57644E+05-2.26760E-08-3.06252E-07
 -1       301-7.82450E+03-6.48828E+05 1.66819E+05-1.14093E+06-2.18279E-09-1.86919E-07
 -1       302-9.76389E+03-6.01874E+05 1.00393E+05-1.66520E+06-3.73257E-09 1.38010E-07
 -1       303-2.23282E+04-6.41509E+05 5.66751E+04-1.13778E+06 5.85715E-09 3.74519E-07
 -1       304-2.55839E+04-6.09087E+05 5.69510E+04-1.66464E+06 1.58179E-08-7.89187E-08
 -1       305-2.67097E+04-6.30217E+05 6.99092E+04-1.14087E+06 1.99343E-08-1.59605E-07
 -1       306-3.01409E+07-6.21949E+06-8.61304E+06-4.91427E+05-1.09314E-07-1.87807E-07
 -1       307 2.53025E+07 3.28979E+06 5.51043E+06-1.52772E+07-8.82428E-07-1.40019E-07
 -1       308-6.92113E+06-1.01556E+06-4.37892E+05 5.21271E+06-2.44734E-07 2.02315E-07
 -1       309-3.19649E+06 8.75066E+06 2.29543E+06-2.07104E+07 2.03338E-07 1.33528E-07
 -1       310-1.26483E+07-1.95648E+06-2.06165E+06 5.22191E+06-1.35915E-07-4.74218E-07
 -1       311 3.86731E+07 3.75853E+02 7.31493E+06-8.73354E+06 5.20435E-07-2.02883E-07
 -1       312-3.19948E+07-6.81643E+06-8.56825E+06-5.10292E+06 3.25614E-07 1.23546E-08
 -1       313 4.54375E+07 1.51753E+07 1.06946E+07 2.39394E+07-4.20696E-07-2.85800E-07
 -1       314-1.71714E+07-1.78691E+07-7.53337E+06-1.25452E+07 1.97615E-07-2.91038E-09
 -1       315-1.92420E+06 2.98290E+07 5.66985E+06 1.04680E+07-3.79019E-07 1.12457E-07
 -1       316 1.43457E+06-9.83246E+06-4.29093E+05-2.49345E+06-1.27328E-06-8.18109E-08
 -1       317-1.70979E+07 2.24528E+07 2.24892E+06-8.89175E+06 7.93836E-07-8.30179E-07
 -1       318-1.08503E+06-1.28508E+07-2.06409E+06-4.24213E+06-9.80537E-07 1.77417E-07
 -1       319 7.29616E+06 3.21004E+07 7.07257E+06 1.66956E+07-1.31338E-07 2.89030E-07
 -1       320-2.26512E+07-1.76949E+07-9.88646E+06-1.28461E+07 1.73924E-07-3.45171E-08
 -1       336-7.48469E+02-1.69120E+06-1.38382E+04 8.90418E+03-2.73212E-08-3.52884E-09
 -1       337-5.40714E+03-1.69074E+06-1.80554E+04-2.16314E+04-4.89308E-08-7.83803E-09
 -1       338 2.71875E+02-1.69069E+06-2.84437E+04 1.24760E+04-3.44262E-08 1.17871E-08
 -1       339-3.01843E+04-1.70797E+06-6.42826E+04-2.86288E+04-6.24459E-08 3.80678E-08
 -1       340 1.98779E+04-1.67616E+06-1.01265E+05 1.57707E+04-4.11310E-08 3.82934E-08
 -1       406-4.98051E+01 3.86520E+05 6.44547E+02 3.35330E+00-1.83752E-09 1.59889E-09
 -1       407 1.54847E+02 3.86654E+05 1.37745E+03 2.34272E+01-5.66587E-10-3.00770E-09
 -1       408 6.35192E+02 3.86419E+05 2.74652E+03-2.71005E+01-2.29238E-09-1.66674E-08
 -1       409 2.90861E+03 3.87531E+05 6.19042E+03 2.89339E+02-1.84627E-10-6.89397E-09
 -1       410 8.48485E+03 3.85628E+05 1.26344E+04-2.79025E+02-2.87764E-09-9.29504E-09
 -1       521-3.17249E+07-7.69171E+06-1.00810E+07-9.49841E+04-3.58559E-08-3.11411E-08
 -1       522 2.62097E+07 4.34184E+06 5.62919E+06-1.88180E+07-5.57164E-07-2.94647E-07
 -1       523-7.49246E+06-1.33210E+06-4.29280E+05 5.66805E+06-6.52508E-08-4.50818E-08
 -1       524-6.70402E+06 1.18506E+07 2.48810E+06-2.38021E+07 8.79270E-07-1.86268E-07
 -1       525-1.34486E+07-2.60372E+06-2.27061E+06 5.68336E+06 4.87489E-07 4.73228E-08
 -1       526 4.23048E+07-9.84098E+04 7.68807E+06-1.13915E+07-1.67114E-07 7.82602E-08
 -1       527-3.38866E+07-8.53214E+06-9.89326E+06-4.96923E+06 2.60537E-07-2.85800E-07
 -1       528 4.96858E+07 1.69590E+07 1.11723E+07 2.72752E+07-9.62173E-08-5.62286E-08
 -1       529-1.81218E+07-2.01179E+07-8.65180E+06-1.25828E+07-2.15368E-09-7.38073E-08
 -1       530-4.41420E+06 3.46956E+07 6.01099E+06 9.90364E+06-2.27257E-07 7.16653E-07
 -1       531 1.44311E+06-1.09115E+07-4.00819E+05-2.42797E+06-1.02734E-06 3.37197E-07
 -1       532-1.95971E+07 2.44758E+07 2.46281E+06-1.32428E+07 4.17771E-07-7.17337E-07
 -1       533-1.12513E+06-1.40209E+07-2.20321E+06-4.03663E+06-2.88681E-07-1.01532E-06
 -1       534 5.30290E+06 3.73254E+07 7.37321E+06 1.73004E+07-1.15513E-07 7.35803E-07
 -1       535-2.38579E+07-2.01301E+07-1.13547E+07-1.29278E+07 9.63919E-08 4.83764E-07
 -1       536-7.06230E+05-4.67349E+04-4.82739E+04-5.47088E+04-8.65384E-10 6.72353E-08
 -1       537-5.47958E+04 4.46692E+04 8.39008E+04 1.23896E+05-1.16951E-07 8.87062E-08
 -1       538-3.94410E+05 3.35202E+03 3.53474E+03-7.22265E+04 3.48880E-08 1.06804E-07
 -1       539-2.68994E+05 2.85013E+03 2.49192E+04 1.38788E+05 1.68507E-07 1.13660E-07
 -1       540-4.97412E+05-4.28423E+02-2.13420E+04-7.01352E+04 3.02184E-08 1.04282E-07
 -1       541 1.46958E+05 1.69807E+04 1.06443E+05 9.79686E+04-4.70482E-09 1.04688E-07
 -1       542-7.99154E+05-2.01461E+04-8.42852E+04-3.05316E+04 7.33330E-08 3.99783E-08
 -1       543 4.05777E+05 2.73401E+04 1.58057E+05-1.33675E+04 1.77206E-08-6.09816E-09
 -1       544-7.49290E+05-1.65460E+04-7.48783E+04 4.05306E+04-4.33074E-08-4.46707E-08
 -1       545 2.91902E+04 9.48839E+03 7.98520E+04-1.13668E+05-4.17167E-08-1.13478E-07
 -1       546-4.32681E+05 6.09946E+03-1.22394E+04 6.94221E+04 4.96798E-08-9.61946E-08
 -1       547-2.87083E+05-4.66153E+03 1.05859E+04-1.41635E+05-1.04722E-07-9.48821E-08
 -1       548-4.41519E+05 4.72487E+03-2.39054E+04 6.91893E+04-1.00142E-07-1.03587E-07
 -1       549 4.83705E+04 1.60629E+04 6.05220E+04-1.11528E+05-5.92436E-08-8.49859E-08
 -1       550-7.59158E+05-2.21369E+04-1.29078E+05 3.85993E+04 1.14605E-08-3.56267E-08
 -1       551 4.07930E+04-7.50289E+05-1.59041E+04-1.24714E+06-1.05021E-07 1.42318E-08
 -1       552 9.32735E+04-7.95279E+05 9.91172E+03-1.77825E+06-7.11443E-08 4.75702E-08
 -1       553 7.17731E+04-7.91685E+05 3.20313E+04-1.24049E+06-1.16735E-07 3.58268E-08
 -1       554 1.32073E+05-8.11186E+05 8.10456E+04-1.78020E+06-7.44767E-08 1.55596E-08
 -1       555 1.01518E+05-8.15341E+05 1.48015E+05-1.24032E+06-1.22840E-07-1.69093E-08
 -1       556 2.23807E+05-3.83827E+05 2.56624E+04-4.07346E+05-2.56114E-08-2.00816E-09
 -1       557 3.54402E+05-4.88207E+05 1.61042E+04-5.27826E+05-1.74623E-10 1.13505E-08
 -1       558 2.05560E+05-3.76599E+05 2.30164E+03-4.11804E+05-1.41736E-08 1.75642E-08
 -1       559 3.29380E+05-4.88261E+05 2.43032E+03-5.48291E+05 2.84344E-08 1.67638E-08
 -1       560 1.90242E+05-3.66993E+05-1.51173E+03-4.22843E+05 1.44064E-08 2.32903E-08
 -1       561 3.10135E+05-4.80558E+05 1.27280E+02-5.61414E+05 2.77942E-09-4.45289E-09
 -1       562 1.78131E+05-3.59469E+05-1.32912E+03-4.31613E+05 3.11411E-09-6.45014E-09
 -1       563 2.95750E+05-4.74286E+05-3.76263E+01-5.70809E+05-1.89175E-09-7.22048E-09
 -1       564 1.69488E+05-3.54084E+05-6.01640E+02-4.37738E+05 4.61296E-09 1.99020E-08
 -1       565 2.86208E+05-4.70130E+05 2.38267E+01-5.76905E+05-1.55705E-09 3.14380E-08
 -1       566 1.64435E+05-3.50888E+05-2.60281E+02-4.41272E+05-6.69388E-09-1.04592E-08
 -1       567 2.81571E+05-4.68113E+05-3.62575E+02-5.79722E+05 1.86265E-08-1.62618E-09
 -1       568 1.63063E+05-3.50047E+05-1.12610E+03-4.42327E+05 2.56114E-09 6.47560E-10
 -1       569 2.80448E+05-4.68039E+05-2.84425E+03-5.78293E+05-3.98722E-09-4.69663E-09
 -1       570 1.66466E+05-3.53284E+05-6.21852E+03-4.41306E+05 7.92352E-09-5.16957E-09
 -1       571 2.90674E+05 1.04620E+04 1.49201E+04-9.54077E+04 4.64752E-09 1.91767E-09
 -1       572 2.92835E+05 3.94615E+03 7.31209E+03-1.04672E+05 3.85262E-09 5.12046E-09
 -1       573 2.91532E+05 1.24396E+03 3.24900E+03-9.52307E+04 6.12272E-09 1.02118E-08
 -1       574 2.91744E+05 7.28405E+02 1.62938E+03-1.04897E+05 5.12387E-09-1.41563E-08
 -1       575 2.91625E+05 4.50110E+02 7.69039E+02-9.52065E+04-5.66264E-09 1.36897E-08
 -1       576 2.91608E+05 4.61826E+02 3.93785E+02-1.04926E+05-1.24892E-08 8.16271E-09
 -1       577 2.91664E+05 3.92174E+02 1.96634E+02-9.52031E+04-7.28596E-09 1.08848E-08
 -1       578 2.91639E+05 4.23699E+02 1.13708E+02-1.04931E+05-7.96763E-09-2.87491E-09
 -1       579 2.91737E+05 3.55283E+02 7.82703E+01-9.52028E+04 5.88443E-09-1.44619E-08
 -1       580 2.91741E+05 3.72416E+02 9.11195E+01-1.04926E+05-6.45377E-09-2.90129E-09
 -1       581 2.91851E+05 2.96413E+02 1.37859E+02-9.52087E+04 7.72707E-09 1.17207E-08
 -1       582 2.91917E+05 3.34848E+02 2.80455E+02-1.04864E+05 2.24554E-09 5.65524E-09
 -1       583 2.91992E+05 3.38997E+02 5.38376E+02-9.52654E+04-1.13650E-08 3.27555E-09
 -1       584 2.92294E+05 7.78756E+02 1.21834E+03-1.04387E+05-1.52431E-08-8.73160E-09
 -1       585 2.92018E+05 1.80409E+03 2.46711E+03-9.56854E+04-1.03792E-08 1.64073E-09
 -1       586-3.48144E+03 1.16974E+05-2.99569E+03-2.50924E+05-6.13818E-09-1.59253E-08
 -1       587-1.36044E+03 1.16714E+05 7.35316E+02-2.76161E+05-6.10635E-09-1.00265E-08
 -1       588 3.92766E+02 1.16527E+05 4.74861E+03-2.50786E+05-2.88492E-09 1.57615E-09
 -1       589 5.08730E+03 1.19002E+05 1.23504E+04-2.75928E+05-4.90400E-09 2.57933E-08
 -1       590 1.66258E+04 1.15191E+05 2.59207E+04-2.51218E+05-5.94810E-09 3.15285E-08
 -1       591-7.64912E+04-1.58231E+04-2.27091E+04-3.24961E+04 4.84897E-09 1.00808E-08
 -1       592-8.07146E+04-1.97917E+04-1.23626E+04-3.60657E+04 9.53463E-09 1.36200E-08
 -1       593-7.88288E+04-1.44504E+04-5.13452E+03-3.40714E+04 5.72430E-09-7.55949E-09
 -1       594-7.75372E+04-1.63869E+04-2.56459E+03-3.61970E+04 8.01546E-09-1.46562E-08
 -1       595-7.90069E+04-1.44539E+04-1.17622E+03-3.41454E+04-5.48447E-09-1.71585E-08
 -1       596-7.73174E+04-1.62267E+04-5.97988E+02-3.61726E+04-4.12284E-09-2.33515E-08
 -1       597-7.90289E+04-1.44692E+04-3.25210E+02-3.41484E+04-1.24729E-08 4.12047E-09
 -1       598-7.72959E+04-1.62200E+04-2.60892E+02-3.61655E+04-6.02216E-09-1.55535E-09
 -1       599-7.90276E+04-1.44698E+04-3.32566E+02-3.41481E+04 1.35327E-08-9.95408E-09
 -1       600-7.73176E+04-1.62272E+04-6.17459E+02-3.61704E+04-2.15505E-09-6.84804E-09
 -1       601-7.90024E+04-1.44553E+04-1.21745E+03-3.41444E+04 1.02800E-08-7.86235E-09
 -1       602-7.75451E+04-1.63919E+04-2.65591E+03-3.61918E+04 5.04724E-09-8.69125E-09
 -1       603-7.88152E+04-1.44546E+04-5.31812E+03-3.40686E+04-7.93648E-09 1.26283E-09
 -1       604-8.08534E+04-1.98991E+04-1.28038E+04-3.60313E+04 4.43055E-09 1.46836E-08
 -1       605-7.63745E+04-1.58938E+04-2.35198E+04-3.24561E+04 1.12155E-08 9.69339E-09
 -1       606 2.66786E+04-1.43357E+04-2.56989E+04 2.39595E+04 1.10222E-08-7.62680E-09
 -1       607 2.22876E+04-4.68209E+03-1.27980E+04 2.69256E+04 4.25644E-09-9.18294E-09
 -1       608 2.47902E+04-8.44698E+02-5.72922E+03 2.37911E+04-5.17321E-09-8.04539E-09
 -1       609 2.43105E+04-2.89475E+02-2.89425E+03 2.71394E+04-1.41881E-10-2.62312E-08
 -1       610 2.45766E+04-4.11074E+01-1.38087E+03 2.37711E+04 6.12090E-10 5.14774E-09
 -1       611 2.45013E+04-4.14221E+01-6.96226E+02 2.71625E+04 5.45469E-09 4.11546E-09
 -1       612 2.45295E+04-2.74313E+01-3.30962E+02 2.37691E+04 4.69481E-09 1.51335E-08
 -1       613 2.45130E+04-3.73658E+01-1.48274E+02 2.71652E+04 3.73757E-09-2.74122E-09
 -1       614 2.45074E+04-3.38857E+01-3.46750E+01 2.37684E+04 3.00588E-09 1.54148E-08
 -1       615 2.45077E+04-3.59042E+01 6.23733E+01 2.71656E+04-2.04773E-09 1.86565E-08
 -1       616 2.44900E+04-3.07839E+01 1.86827E+02 2.37686E+04 1.64391E-09 1.83672E-09
 -1       617 2.45302E+04 3.88224E+00 4.26172E+02 2.71651E+04-6.86668E-10-1.18903E-08
 -1       618 2.44530E+04 9.20527E+01 8.58987E+02 2.37689E+04-5.52063E-10 1.03876E-08
 -1       619 2.48335E+04 6.68035E+02 1.92890E+03 2.71645E+04 7.45786E-11 1.30972E-08
 -1       620 2.41678E+04 2.12892E+03 3.87704E+03 2.37705E+04-1.40449E-09 1.24837E-08
 -1       621 5.10344E+02 3.01413E+05 3.86404E+03 4.12673E+04 8.94943E-10 4.69026E-09
 -1       622 6.76087E+02 3.02304E+05 3.41936E+03 5.99139E+04 1.11959E-09 1.98306E-08
 -1       623 1.43720E+02 3.01607E+05 4.09627E+03 4.10815E+04 1.27329E-09 1.33587E-08
 -1       624 2.10356E+03 3.03501E+05 7.93058E+03 6.00958E+04 1.43666E-09-6.03200E-09
 -1       625 2.05381E+03 3.00035E+05 1.38534E+04 4.10794E+04 1.43746E-09-3.79282E-09
 -1       626 2.60947E+05 6.13983E+04 5.11681E+03 1.26738E+05 5.26188E-09-3.06318E-09
 -1       627 2.58631E+05 6.27939E+04 2.46575E+03 1.31008E+05 7.74162E-09 8.63486E-09
 -1       628 2.61075E+05 5.90572E+04 1.04284E+03 1.27608E+05-4.72482E-09-8.84961E-09
 -1       629 2.57996E+05 6.21142E+04 5.10417E+02 1.31248E+05-1.29130E-08 4.71449E-09
 -1       630 2.61089E+05 5.89440E+04 2.36879E+02 1.27645E+05-3.53293E-09-1.14743E-08
 -1       631 2.57929E+05 6.20883E+04 1.27617E+02 1.31249E+05 4.86398E-09 1.14467E-08
 -1       632 2.61086E+05 5.89479E+04 8.42303E+01 1.27641E+05 7.79528E-09-1.29301E-08
 -1       633 2.57921E+05 6.20901E+04 9.42235E+01 1.31246E+05 2.87014E-09 8.86325E-09
 -1       634 2.61081E+05 5.89451E+04 1.52614E+02 1.27640E+05-4.79815E-09-6.45741E-10
 -1       635 2.57936E+05 6.20884E+04 3.09027E+02 1.31251E+05-5.35704E-09-8.00082E-09
 -1       636 2.61072E+05 5.89393E+04 6.24190E+02 1.27640E+05 4.44970E-10-6.61021E-09
 -1       637 2.58071E+05 6.21854E+04 1.37251E+03 1.31251E+05 8.39918E-10 4.62205E-09
 -1       638 2.61023E+05 5.92424E+04 2.82001E+03 1.27503E+05 2.46018E-10-6.78028E-10
 -1       639 2.59552E+05 6.42457E+04 6.67230E+03 1.30815E+05 3.02202E-09-7.74889E-10
 -1       640 2.60818E+05 6.53947E+04 1.38462E+04 1.24911E+05 4.88126E-09-1.55296E-09
 -1       656 6.66034E+04-1.70458E+06-1.60776E+05-2.56427E+03-4.72937E-10 9.22256E-09
 -1       657-8.81106E+04-1.77723E+06-1.33194E+05 5.15290E+03-1.18962E-09-5.62795E-09
 -1       658 2.12309E+04-1.72522E+06-8.20312E+04-4.64884E+03 4.72482E-10 3.33061E-09
 -1       659-9.52794E+04-1.78064E+06-1.42615E+05 6.88558E+03-1.55342E-09 5.15715E-09
 -1       660 7.37562E+04-1.70119E+06-1.76973E+05-4.29694E+03-1.04046E-09 8.28484E-09
 -1       661 1.58480E+05 1.65816E+04 1.67116E+04 6.19534E+04 2.42790E-09 2.39834E-08
 -1       662 1.67930E+05 2.89559E+04 1.12625E+04 5.82021E+04-1.39130E-09 9.75388E-09
 -1       663 1.61763E+05 2.19430E+04 3.93890E+03 6.10008E+04-8.23775E-10 1.07148E-08
 -1       664 1.64124E+05 2.26862E+04 2.35629E+03 5.93658E+04 2.06776E-09 8.75389E-10
 -1       665 1.62261E+05 2.26752E+04 9.29540E+02 6.08554E+04 3.23070E-09 6.17291E-10
 -1       666 1.63535E+05 2.18489E+04 5.44116E+02 5.95554E+04 1.02948E-08-5.90888E-09
 -1       667 1.62348E+05 2.27585E+04 2.89206E+02 6.08190E+04 2.07785E-09-1.10728E-09
 -1       668 1.63439E+05 2.17891E+04 2.95137E+02 5.96083E+04-4.15451E-09 8.60442E-09
 -1       669 1.62356E+05 2.27333E+04 3.99948E+02 6.08027E+04-1.46096E-09 8.85390E-09
 -1       670 1.63536E+05 2.20063E+04 8.71241E+02 5.96113E+04-4.84476E-09-1.95576E-08
 -1       671 1.62251E+05 2.25458E+04 1.54707E+03 6.08140E+04-6.13156E-10-1.10331E-08
 -1       672 1.64438E+05 2.35114E+04 3.95824E+03 5.93928E+04 6.46860E-09-3.50605E-09
 -1       673 1.61459E+05 2.12663E+04 6.63341E+03 6.10066E+04 3.15481E-09-8.48831E-09
 -1       674 1.70751E+05 3.41687E+04 1.89702E+04 5.75380E+04-2.38686E-09 6.09884E-09
 -1       675 1.55978E+05 1.21869E+04 2.81584E+04 6.25568E+04-2.01271E-09 2.21917E-10
 -1       676 2.41160E+01-2.95944E+05-1.11363E+03-1.37763E+02 2.13939E-09 6.49245E-09
 -1       677-2.94576E+02-2.96214E+05-2.03814E+03 2.75303E+02 8.03365E-09-4.64808E-09
 -1       678 1.97581E+02-2.95752E+05-3.60292E+03-1.37450E+02 8.49695E-10-7.99992E-09
 -1       679-3.60297E+03-2.98389E+05-8.55904E+03 2.74114E+02 7.88259E-09-3.41992E-09
 -1       680 2.15119E+03-2.93770E+05-1.37942E+04-1.35055E+02 2.11730E-09-9.45684E-09
 -1       771-3.06267E+06-7.47535E+05-1.66064E+05-1.46624E+06-3.19560E-08-2.64554E-08
 -1       772-2.98551E+06-8.36437E+05-8.56176E+04-1.56903E+06-2.31084E-08 1.22454E-08
 -1       773-3.09419E+06-7.22957E+05-4.36462E+04-1.48080E+06-9.80799E-09 1.16706E-08
 -1       774-2.97598E+06-8.17890E+05-1.94727E+04-1.59482E+06 2.97878E-08 1.27693E-09
 -1       775-3.11066E+06-7.11404E+05-1.45664E+04-1.48787E+06 1.92085E-09 9.09495E-10
 -1       776-2.98835E+06-8.14848E+05-5.44719E+03-1.61434E+06-8.73115E-09-3.89991E-09
 -1       777-3.12495E+06-7.01092E+05-6.43628E+03-1.49410E+06 5.47152E-09 4.27826E-09
 -1       778-3.00126E+06-8.12019E+05-1.81974E+03-1.63111E+06 1.08557E-08 7.06132E-09
 -1       779-3.13723E+06-6.92081E+05-3.21653E+03-1.49942E+06-7.93079E-09-5.96992E-09
 -1       780-3.01263E+06-8.09320E+05-5.33466E+02-1.64477E+06-5.03496E-09 2.00816E-09
 -1       781-3.14700E+06-6.84816E+05-1.24973E+03-1.50359E+06-2.72412E-08 2.59024E-09
 -1       782-3.02139E+06-8.07029E+05 4.50222E+02-1.65485E+06-4.32410E-08-4.70845E-09
 -1       783-3.15388E+06-6.79768E+05 7.00743E+02-1.50650E+06-1.04701E-08-1.57925E-08
 -1       784-3.02625E+06-8.04740E+05 2.90547E+03-1.66108E+06-1.73350E-08 7.78437E-09
 -1       785-3.15795E+06-6.76757E+05 5.12905E+03-1.50835E+06-3.87299E-08 6.54109E-09
 -1       786 1.22710E+05-9.73622E+03 2.25257E+04-3.19926E+02 1.74778E-09 1.93422E-08
 -1       787 1.32479E+05 1.12724E+04 1.59360E+04-1.36544E+02 7.76024E-09 9.95669E-09
 -1       788 1.26476E+05-1.52569E+03 5.82782E+03-2.85281E+02-4.11962E-10 3.19435E-08
 -1       789 1.28091E+05 1.76594E+03 3.65840E+03-1.89648E+02 2.45109E-10 2.11502E-08
 -1       790 1.27098E+05-2.37537E+02 1.48103E+03-2.66839E+02-2.33266E-09 8.68067E-09
 -1       791 1.27364E+05 2.74779E+02 8.55020E+02-2.21285E+02-6.09157E-09 2.49818E-08
 -1       792 1.27204E+05-3.56395E+01 3.61553E+02-2.53646E+02-5.71036E-09 5.77640E-09
 -1       793 1.27237E+05 3.72731E+01 1.78552E+02-2.46198E+02-1.87384E-09-8.44597E-09
 -1       794 1.27225E+05-1.80795E-01 4.30032E+01-2.41926E+02 3.08873E-09-1.15294E-08
 -1       795 1.27199E+05-3.03019E+01-6.67859E+01-2.70738E+02-3.98108E-09 6.87595E-09
 -1       796 1.27242E+05 3.18974E+01-1.78064E+02-2.29105E+02 4.47688E-09 1.31583E-08
 -1       797 1.27097E+05-2.38010E+02-4.84349E+02-3.00248E+02 3.50813E-09 7.86702E-09
 -1       798 1.27327E+05 2.07371E+02-7.85359E+02-2.12417E+02 2.33378E-09 1.07048E-09
 -1       799 1.26502E+05-1.52876E+03-2.15953E+03-3.41633E+02 7.03987E-09 9.06596E-09
 -1       800 1.27838E+05 1.32159E+03-3.05590E+03-1.87721E+02 3.70054E-10 1.02405E-08
 -1       801-1.71347E+05-9.99931E+06-1.39373E+06 1.41577E+06 9.25793E-08-6.22858E-08
 -1       802 7.38523E+05 5.95246E+06 2.18225E+06-1.74778E+06 2.59097E-07-3.14349E-08
 -1       803-5.36765E+05-1.42689E+07-1.89090E+06 8.98469E+05 7.63030E-08 9.96442E-09
 -1       804 2.87293E+05 2.39628E+06 1.53761E+06 6.77249E+05-1.20679E-07-1.09080E-07
 -1       805 1.89358E+05-6.45724E+06-2.86365E+05-1.00359E+06-5.02114E-08-6.32763E-08
 -1       806-3.09141E+05-5.98031E+04-2.28672E+04-1.22504E+05-1.34378E-09 2.63194E-08
 -1       807-3.10939E+05-5.60712E+04-1.12344E+04-1.28053E+05 1.48339E-08 4.16577E-10
 -1       808-3.09769E+05-5.15618E+04-4.76600E+03-1.26399E+05 3.38832E-09 1.62572E-08
 -1       809-3.08577E+05-5.29146E+04-2.33046E+03-1.28329E+05-6.54836E-10-7.88236E-09
 -1       810-3.09863E+05-5.12749E+04-1.06819E+03-1.26572E+05 1.14765E-08 2.94076E-08
 -1       811-3.08394E+05-5.27878E+04-5.31239E+02-1.28294E+05 5.43150E-09 1.28366E-08
 -1       812-3.09877E+05-5.12996E+04-2.68777E+02-1.26571E+05-6.44832E-10-2.32781E-08
 -1       813-3.08369E+05-5.27900E+04-1.74858E+02-1.28275E+05 9.27230E-10-3.07527E-08
 -1       814-3.09870E+05-5.13093E+04-1.73570E+02-1.26567E+05-4.26735E-09-7.82575E-09
 -1       815-3.08373E+05-5.27922E+04-2.79918E+02-1.28268E+05 2.78533E-09 2.47965E-08
 -1       816-3.09849E+05-5.13085E+04-5.30709E+02-1.26563E+05 6.43013E-09 2.22085E-08
 -1       817-3.08463E+05-5.28428E+04-1.13904E+03-1.28256E+05-1.71931E-08 1.70610E-08
 -1       818-3.09780E+05-5.14692E+04-2.32329E+03-1.26487E+05-6.62476E-09-1.11559E-08
 -1       819-3.09734E+05-5.42466E+04-5.46654E+03-1.27955E+05 7.73070E-12-2.01783E-08
 -1       820-3.09342E+05-5.55987E+04-1.11264E+04-1.24723E+05 3.13776E-09 5.97811E-09
 -1       821-3.78263E+05 2.09191E+04-4.86735E+04 2.08603E+03 1.38532E-08 6.94854E-09
 -1       822-3.98106E+05-2.42322E+04-3.42241E+04-4.31990E+03 5.15391E-09 2.62844E-09
 -1       823-3.85787E+05 3.29625E+03-1.25740E+04 3.34256E+03-1.22208E-08 3.31511E-10
 -1       824-3.89040E+05-3.80176E+03-7.87313E+03-5.18087E+03 1.22467E-09-4.44118E-09
 -1       825-3.87335E+05 5.12076E+02-3.29364E+03 2.94711E+03 1.95002E-08-5.53405E-09
 -1       826-3.86655E+05-5.70575E+02-1.76040E+03-2.96620E+03 2.64045E-08 5.61451E-09
 -1       827-3.88149E+05 4.96222E+01-1.18092E+03 1.12776E+03 1.21592E-08 7.31686E-09
 -1       828-3.85985E+05-1.35678E+02-6.06456E+02 1.09354E+03-5.35991E-10-4.31969E-09
 -1       829-3.87993E+05 6.78971E+01-1.16912E+03-1.11267E+03 2.18552E-09-1.21094E-08
 -1       830-3.86991E+05-6.22367E+02-1.89039E+03 4.75133E+03 9.56646E-10 1.33852E-08
 -1       831-3.87164E+05 5.52890E+02-3.36659E+03-2.53004E+03-6.59503E-09 7.70797E-11
 -1       832-3.89114E+05-3.95560E+03-8.15049E+03 5.97953E+03-5.67170E-09 5.51836E-09
 -1       833-3.85886E+05 3.40985E+03-1.30363E+04-2.34092E+03-3.57123E-09-9.38599E-09
 -1       834-3.98142E+05-2.50678E+04-3.53390E+04 4.06382E+03-1.86359E-09-2.09893E-08
 -1       835-3.78120E+05 2.16332E+04-5.03862E+04-6.14258E+02 6.44772E-09-5.40240E-09
 -1       836-1.40378E+03 3.70636E+05 2.27789E+04-1.57550E+04-6.99856E-09 2.86491E-11
 -1       837 4.85854E+03 3.77770E+05 1.93091E+04-3.22108E+04-7.63328E-09 1.85009E-08
 -1       838-5.56509E+02 3.72630E+05 1.97215E+04-1.56848E+04-6.40102E-09 1.56706E-09
 -1       839 1.24326E+04 3.83412E+05 3.73539E+04-3.22628E+04-6.78665E-09 4.66969E-09
 -1       840-3.84296E+03 3.64935E+05 5.95868E+04-1.57090E+04-6.08270E-09 6.03282E-09
 -1       856-5.21183E+04 8.02338E+03-2.11433E+04-3.97435E+02 5.37398E-09 2.30093E-08
 -1       857-6.08288E+04-9.42726E+03-1.45549E+04 5.63471E+03 3.16518E-09-3.19574E-09
 -1       858-5.55679E+04 1.12520E+03-5.48618E+03-4.21532E+02 3.05033E-09 7.65908E-09
 -1       859-5.68701E+04-1.32381E+03-3.31065E+03 5.67055E+03-7.04568E-09 3.49473E-08
 -1       860-5.60833E+04 1.57585E+02-1.38747E+03-4.33005E+02 1.28261E-09-6.11016E-09
 -1       861-5.62773E+04-1.88168E+02-7.63232E+02 5.68618E+03 1.46746E-09-5.04416E-09
 -1       862-5.61639E+04 2.13492E+01-3.17176E+02-4.37135E+02-2.10501E-09-1.08747E-09
 -1       863-5.61784E+04-2.18779E+01-1.15335E+02 5.68858E+03-1.35640E-09-4.85136E-09
 -1       864-5.61826E+04-4.92088E+00 4.76506E+01-4.35404E+02-1.78603E-09-8.50019E-09
 -1       865-5.61226E+04 5.97879E+01 2.56221E+02 5.67869E+03 9.00741E-10-6.87436E-09
 -1       866-5.62176E+04-6.03318E+01 5.16126E+02-4.27247E+02 2.94619E-09 7.53866E-09
 -1       867-5.58799E+04 4.98194E+02 1.27024E+03 5.65655E+03-5.96089E-10 6.56576E-09
 -1       868-5.64204E+04-4.35406E+02 2.11073E+03-4.13259E+02 8.88178E-10 1.38833E-08
 -1       869-5.43325E+04 3.62371E+03 5.62011E+03 5.62011E+03-4.19618E-10-1.50176E-08
 -1       870-5.77572E+04-3.10095E+03 8.15605E+03-3.90709E+02 6.81666E-10 4.32783E-09
 -1       871-5.52039E+03-2.14011E+04-1.95009E+04 1.30481E+05-6.27915E-09-1.70621E-09
 -1       872-1.98211E+03-2.59359E+04-8.16640E+03 1.69189E+05-1.16679E-08-1.16761E-08
 -1       873 4.06194E+02-2.37423E+04 5.87855E+02 1.30194E+05-6.02631E-09-3.29430E-09
 -1       874 3.30761E+03-2.13317E+04 9.77923E+03 1.69218E+05-1.35296E-08 1.48952E-09
 -1       875 6.84794E+03-2.60721E+04 2.20630E+04 1.30434E+05-5.55701E-09-8.41464E-09
 -1       876 2.93828E+05 4.95199E+04 1.51033E+04 1.17911E+05 9.62507E-09 8.10542E-09
 -1       877 2.94826E+05 5.27008E+04 8.06577E+03 1.22244E+05 4.38922E-09 2.13181E-08
 -1       878 2.95240E+05 4.78468E+04 3.37916E+03 1.19148E+05-1.18966E-08 5.48562E-09
 -1       879 2.92773E+05 5.06519E+04 1.68371E+03 1.22346E+05-6.29711E-09 1.98091E-08
 -1       880 2.95341E+05 4.78295E+04 7.84251E+02 1.19199E+05-8.22706E-09-5.82941E-09
 -1       881 2.92637E+05 5.05642E+04 4.18824E+02 1.22322E+05-2.82205E-09-1.54871E-08
 -1       882 2.95350E+05 4.78428E+04 2.67973E+02 1.19200E+05-3.67299E-09-4.12939E-10
 -1       883 2.92627E+05 5.05597E+04 2.88141E+02 1.22315E+05-1.13448E-09 1.40014E-08
 -1       884 2.95344E+05 4.78400E+04 4.58416E+02 1.19201E+05-8.16658E-09 1.34497E-09
 -1       885 2.92664E+05 5.05660E+04 9.21701E+02 1.22326E+05-1.60128E-08-1.14842E-08
 -1       886 2.95308E+05 4.78131E+04 1.85766E+03 1.19197E+05-6.46581E-09 9.63973E-09
 -1       887 2.92990E+05 5.07801E+04 4.05781E+03 1.22373E+05 6.24490E-09 6.28972E-09
 -1       888 2.95052E+05 4.78583E+04 8.17660E+03 1.19067E+05 2.95519E-09-1.11690E-08
 -1       889 2.97858E+05 5.58423E+04 1.95324E+04 1.22224E+05 2.01226E-10 5.40240E-10
 -1       890 2.91714E+05 5.18227E+04 3.65837E+04 1.15955E+05-6.52108E-10 1.81717E-09
 -1       891-8.92029E+01-1.62797E+05-1.99704E+03 2.71477E+04-1.34128E-09 1.56449E-08
 -1       892-1.75139E+02-1.63325E+05-2.14472E+03 4.12256E+04 3.04840E-09 1.13976E-08
 -1       893 4.39044E+01-1.62861E+05-3.03653E+03 2.71550E+04-3.62229E-09-6.63931E-10
 -1       894-1.51005E+03-1.64472E+05-6.28437E+03 4.10731E+04 5.27166E-09 5.04997E-09
 -1       895-1.19928E+03-1.61552E+05-1.10667E+04 2.73020E+04-3.75849E-10-9.35688E-09
 -1       956-3.77313E+05-5.44917E+03-1.34509E+04 3.09070E+04 6.85850E-09-6.59179E-09
 -1       957-3.79952E+05-1.92246E+03-6.90410E+03 3.71418E+04-1.40653E-09-4.44811E-08
 -1       958-3.78522E+05-2.41091E+02-3.11122E+03 3.07390E+04-7.20956E-09-1.06666E-08
 -1       959-3.78718E+05-1.36427E+02-1.58863E+03 3.73378E+04 4.21142E-09 1.22768E-08
 -1       960-3.78640E+05-4.49425E+01-7.74702E+02 3.07217E+04 1.24655E-08 1.11909E-08
 -1       961-3.78638E+05-6.33489E+01-4.10741E+02 3.73583E+04 2.26264E-08-3.44103E-08
 -1       962-3.78667E+05-4.61239E+01-2.35172E+02 3.07188E+04 8.47876E-09-1.35326E-08
 -1       963-3.78638E+05-5.91237E+01-1.88805E+02 3.73619E+04 4.19323E-09 2.08888E-08
 -1       964-3.78673E+05-4.27468E+01-2.29630E+02 3.07180E+04-1.17126E-09 6.06656E-09
 -1       965-3.78650E+05-5.61521E+01-3.97189E+02 3.73612E+04-9.27866E-09-1.31708E-08
 -1       966-3.78657E+05-3.49048E+01-7.46325E+02 3.07195E+04-1.11959E-09 2.15111E-08
 -1       967-3.78740E+05-1.19720E+02-1.53070E+03 3.73469E+04-5.51449E-09-2.63663E-09
 -1       968-3.78553E+05-2.17457E+02-2.99658E+03 3.07322E+04-2.51021E-09-1.27329E-09
 -1       969-3.79941E+05-1.83498E+03-6.65233E+03 3.71982E+04 1.16552E-09 1.15661E-08
 -1       970-3.77396E+05-5.23161E+03-1.29591E+04 3.08595E+04-5.58430E-10 3.38860E-08
 -1       971-3.45452E+05-1.72738E+03-9.30919E+03 1.53767E+04 2.31739E-09-1.59822E-08
 -1       972-3.47692E+05-1.27173E+03-5.06969E+03 2.12657E+04 6.43786E-09-1.04428E-08
 -1       973-3.46489E+05-6.20698E+01-2.27077E+03 1.52556E+04 7.24685E-09-1.05806E-08
 -1       974-3.46624E+05-8.11338E+01-1.17709E+03 2.14027E+04 1.88811E-09-2.39152E-09
 -1       975-3.46571E+05-1.72005E+01-5.88858E+02 1.52433E+04-3.39332E-09 8.05812E-09
 -1       976-3.46562E+05-3.12960E+01-3.40586E+02 2.14185E+04-8.88349E-10 3.77509E-08
 -1       977-3.46587E+05-1.64557E+01-2.48724E+02 1.52399E+04 3.37354E-09 1.44889E-08
 -1       978-3.46568E+05-2.50724E+01-2.93150E+02 2.14234E+04-4.65639E-09 3.96949E-09
 -1       979-3.46587E+05-7.97666E+00-4.72795E+02 1.52384E+04-5.51313E-09 6.20707E-09
 -1       980-3.46603E+05-2.20112E+01-9.14034E+02 2.14244E+04-2.57552E-09-1.61222E-08
 -1       981-3.46558E+05 1.48704E+01-1.77086E+03 1.52389E+04 4.03884E-09-6.60248E-09
 -1       982-3.46846E+05-1.52858E+02-3.66066E+03 2.14177E+04 7.25220E-09-1.35140E-08
 -1       983-3.46335E+05-9.85209E+01-7.11286E+03 1.52450E+04 6.73026E-09 1.10485E-08
 -1       984-3.50267E+05-3.86769E+03-1.59291E+04 2.13321E+04 6.44104E-09 2.38538E-09
 -1       985-3.43114E+05-5.30327E+03-2.92506E+04 1.53163E+04-2.32012E-09-5.18048E-09
 -3
    1PSTEP                        31          16           1          
  100CL  116 6.63036E-01         409                     0   16           1
 -4  DISP        4    1
 -5  D1          1    2    1    0
 -5  D2          1    2    2    0
 -5  D3          1    2    3    0
 -5  ALL         1    2    0    0    1ALL
 -1         1 2.72350E-03 0.00000E+00 0.00000E+00
 -1         2 1.34105E-03-5.67379E-28 0.00000E+00
 -1         3 3.42767E-04-5.66160E-28-1.32349E-23
 -1         5 1.77152E-04-1.81392E-27 1.65436E-24
 -1         8 2.71270E-03-4.03628E-07 0.00000E+00
 -1         9 2.70601E-03-1.95841E-04 0.00000E+00
 -1        10 3.10804E-04-3.40042E-06-6.61744E-24
 -1        12 1.79000E-04 8.09524E-07 1.24077E-24
 -1        15 2.70035E-03-4.27041E-07 1.03398E-25
 -1        16 2.77416E-03-1.97690E-04 0.00000E+00
 -1        17 2.11517E-04-7.75608E-06 0.00000E+00
 -1        18 1.82951E-04 3.44385E-05 0.00000E+00
 -1        19 1.84545E-04 1.61262E-06 0.00000E+00
 -1        20 1.84684E-04-9.89002E-06 0.00000E+00
 -1        21 1.83791E-04-2.54337E-05 3.30872E-24
 -1        24 3.06140E-05-1.19806E-05 0.00000E+00
 -1        25 1.93738E-04 3.46643E-05 0.00000E+00
 -1        26 1.94412E-04 2.23272E-06 0.00000E+00
 -1        27 1.92219E-04-1.34496E-05 0.00000E+00
 -1        28 1.91903E-04-2.60559E-05 0.00000E+00
 -1        32 0.00000E+00 0.00000E+00 0.00000E+00
 -1        33 2.03291E-04 2.98734E-06 0.00000E+00
 -1        34 2.01172E-04-1.35059E-05 0.00000E+00
 -1        35 1.99239E-04-2.63984E-05 0.00000E+00
 -1        51 2.72277E-03-8.47500E-08-4.96308E-24
 -1        52 2.72145E-03-1.51067E-07 0.00000E+00
 -1        53 2.71965E-03-2.13897E-07 0.00000E+00
 -1        54 2.71750E-03-2.75475E-07-1.65436E-24
 -1        55 2.71514E-03-3.37562E-07-8.27181E-25
 -1        56 2.71561E-03 8.96987E-06-5.29396E-23
 -1        57 2.69997E-03 3.70170E-05-5.29396E-23
 -1        58 2.67894E-03 7.81570E-05-1.05879E-22
 -1        59 2.65538E-03 1.25159E-04 5.29396E-23
 -1        60 2.63282E-03 1.69788E-04-1.05879E-22
 -1        61 2.61465E-03 2.03999E-04 0.00000E+00
 -1        62 2.60317E-03 2.21608E-04 0.00000E+00
 -1        63 2.59989E-03 2.17909E-04 5.29396E-23
 -1        64 2.60457E-03 1.92114E-04 1.05879E-22
 -1        65 2.61628E-03 1.45529E-04 5.29396E-23
 -1        66 2.63296E-03 8.34181E-05-1.05879E-22
 -1        67 2.65233E-03 1.25754E-05 0.00000E+00
 -1        68 2.67176E-03-5.85035E-05 0.00000E+00
 -1        69 2.68869E-03-1.21294E-04 5.29396E-23
 -1        70 2.70075E-03-1.68887E-04 0.00000E+00
 -1        86 1.42689E-03-6.18266E-06 0.00000E+00
 -1        87 1.67514E-03-3.89008E-05 2.64698E-23
 -1        88 2.00894E-03-9.51558E-05 0.00000E+00
 -1        89 2.34729E-03-1.52979E-04 0.00000E+00
 -1        90 2.60653E-03-1.88367E-04 0.00000E+00
 -1       121 3.41869E-04-5.48991E-07 1.32349E-23
 -1       122 3.39180E-04-1.10107E-06 0.00000E+00
 -1       123 3.34709E-04-1.65928E-06 0.00000E+00
 -1       124 3.28473E-04-2.22667E-06 0.00000E+00
 -1       125 3.20495E-04-2.80588E-06 0.00000E+00
 -1       191 1.77203E-04 1.34985E-07 0.00000E+00
 -1       192 1.77357E-04 2.69957E-07 0.00000E+00
 -1       193 1.77614E-04 4.04910E-07-2.48154E-24
 -1       194 1.77973E-04 5.39831E-07 4.13590E-25
 -1       195 1.78435E-04 6.74706E-07-8.27181E-25
 -1       251 2.71240E-03 1.63031E-06 0.00000E+00
 -1       252 2.71209E-03 3.52480E-06-3.30872E-24
 -1       253 2.71179E-03 4.28783E-06 0.00000E+00
 -1       254 2.71149E-03 2.94143E-06-3.30872E-24
 -1       255 2.71117E-03-1.17378E-06 0.00000E+00
 -1       256 2.71084E-03-8.68266E-06 3.30872E-24
 -1       257 2.71048E-03-1.96978E-05 0.00000E+00
 -1       258 2.71007E-03-3.42879E-05-3.30872E-24
 -1       259 2.70962E-03-5.19828E-05 6.61744E-24
 -1       260 2.70911E-03-7.22731E-05 0.00000E+00
 -1       261 2.70858E-03-9.42574E-05 0.00000E+00
 -1       262 2.70802E-03-1.17014E-04 6.61744E-24
 -1       263 2.70747E-03-1.39505E-04 0.00000E+00
 -1       264 2.70695E-03-1.60693E-04 0.00000E+00
 -1       265 2.70647E-03-1.79743E-04 1.32349E-23
 -1       266 2.71064E-03-4.13138E-07 0.00000E+00
 -1       267 2.70858E-03-4.16356E-07 0.00000E+00
 -1       268 2.70653E-03-4.19974E-07 8.27181E-25
 -1       269 2.70447E-03-4.22411E-07 0.00000E+00
 -1       270 2.70241E-03-4.24820E-07 2.06795E-25
 -1       271 2.71186E-03 4.83106E-08 1.32349E-23
 -1       272 2.71201E-03-2.16606E-06-6.61744E-24
 -1       273 2.71309E-03-6.88781E-06 1.32349E-23
 -1       274 2.71502E-03-1.39455E-05 1.32349E-23
 -1       275 2.71774E-03-2.31468E-05 0.00000E+00
 -1       276 2.72116E-03-3.42839E-05 0.00000E+00
 -1       277 2.72521E-03-4.71327E-05 0.00000E+00
 -1       278 2.72979E-03-6.14558E-05 0.00000E+00
 -1       279 2.73480E-03-7.70042E-05 0.00000E+00
 -1       280 2.74016E-03-9.35188E-05 0.00000E+00
 -1       281 2.74578E-03-1.10733E-04-1.32349E-23
 -1       282 2.75154E-03-1.28374E-04-6.61744E-24
 -1       283 2.75736E-03-1.46167E-04 0.00000E+00
 -1       284 2.76313E-03-1.63834E-04 0.00000E+00
 -1       285 2.76876E-03-1.81100E-04 0.00000E+00
 -1       301 2.71840E-03-1.96184E-04 6.61744E-24
 -1       302 2.72912E-03-1.96480E-04 3.30872E-24
 -1       303 2.73912E-03-1.96765E-04 1.32349E-23
 -1       304 2.74934E-03-1.97051E-04 6.61744E-24
 -1       305 2.76071E-03-1.97352E-04 0.00000E+00
 -1       306 2.74405E-03-3.51090E-04 0.00000E+00
 -1       307 2.80791E-03-7.65900E-04 0.00000E+00
 -1       308 2.85449E-03-1.37178E-03 0.00000E+00
 -1       309 2.87829E-03-2.07249E-03-5.29396E-23
 -1       310 2.90968E-03-2.74217E-03-1.05879E-22
 -1       311 2.96925E-03-3.25766E-03 5.29396E-23
 -1       312 3.02694E-03-3.53843E-03 0.00000E+00
 -1       313 3.02164E-03-3.54688E-03 5.29396E-23
 -1       314 2.87941E-03-3.29533E-03 0.00000E+00
 -1       315 2.55948E-03-2.84855E-03 0.00000E+00
 -1       316 2.08051E-03-2.28325E-03-1.05879E-22
 -1       317 1.50876E-03-1.66872E-03-5.29396E-23
 -1       318 9.58786E-04-1.06543E-03 0.00000E+00
 -1       319 5.38704E-04-5.38329E-04 5.29396E-23
 -1       320 2.92250E-04-1.61613E-04 1.05879E-22
 -1       336 2.99214E-04-4.05780E-06 1.32349E-23
 -1       337 2.85548E-04-4.74088E-06 6.61744E-24
 -1       338 2.69867E-04-5.45189E-06 0.00000E+00
 -1       339 2.52245E-04-6.19164E-06 0.00000E+00
 -1       340 2.32765E-04-6.96462E-06-1.32349E-23
 -1       406 1.79667E-04 9.44264E-07-3.30872E-24
 -1       407 1.80437E-04 1.07889E-06-1.24077E-24
 -1       408 1.81311E-04 1.21335E-06 1.65436E-24
 -1       409 1.82286E-04 1.34747E-06-1.24077E-24
 -1       410 1.83365E-04 1.48098E-06-2.48154E-24
 -1       521 2.81278E-03-3.62237E-04 0.00000E+00
 -1       522 2.87484E-03-7.97486E-04 0.00000E+00
 -1       523 2.91488E-03-1.43149E-03-1.05879E-22
 -1       524 2.92933E-03-2.16121E-03 5.29396E-23
 -1       525 2.95270E-03-2.85787E-03-1.05879E-22
 -1       526 3.00869E-03-3.39567E-03 5.29396E-23
 -1       527 3.06597E-03-3.68713E-03-2.11758E-22
 -1       528 3.05833E-03-3.69372E-03 1.05879E-22
 -1       529 2.90387E-03-3.42778E-03 0.00000E+00
 -1       530 2.55953E-03-2.96217E-03 0.00000E+00
 -1       531 2.04483E-03-2.37745E-03 0.00000E+00
 -1       532 1.43256E-03-1.74548E-03 5.29396E-23
 -1       533 8.42775E-04-1.12409E-03-1.05879E-22
 -1       534 3.88876E-04-5.75854E-04 0.00000E+00
 -1       535 1.20932E-04-1.79375E-04 2.11758E-22
 -1       536 2.10762E-04 2.71744E-05 0.00000E+00
 -1       537 2.08843E-04 8.76232E-05 1.65436E-24
 -1       538 2.05878E-04 1.64322E-04-3.30872E-24
 -1       539 2.02382E-04 2.47920E-04-1.65436E-24
 -1       540 1.99235E-04 3.26914E-04-3.30872E-24
 -1       541 1.97190E-04 3.89821E-04-1.65436E-24
 -1       542 1.96246E-04 4.29888E-04 0.00000E+00
 -1       543 1.96021E-04 4.40512E-04 0.00000E+00
 -1       544 1.95699E-04 4.22465E-04 3.30872E-24
 -1       545 1.94526E-04 3.76742E-04-1.65436E-24
 -1       546 1.92341E-04 3.11471E-04 3.30872E-24
 -1       547 1.89382E-04 2.34900E-04-1.65436E-24
 -1       548 1.86451E-04 1.58705E-04 0.00000E+00
 -1       549 1.84336E-04 9.45627E-05 0.00000E+00
 -1       550 1.83238E-04 5.05056E-05 1.65436E-24
 -1       551 1.86310E-04-8.32532E-06 0.00000E+00
 -1       552 1.57857E-04-8.97503E-06 0.00000E+00
 -1       553 1.27102E-04-9.68703E-06 3.30872E-24
 -1       554 9.50046E-05-1.04402E-05-3.30872E-24
 -1       555 6.25234E-05-1.12071E-05 1.32349E-23
 -1       556 2.03867E-04 1.18046E-05 0.00000E+00
 -1       557 1.97686E-04 2.76687E-05 0.00000E+00
 -1       558 1.92840E-04 4.01244E-05-5.29396E-23
 -1       559 1.89196E-04 4.94822E-05 0.00000E+00
 -1       560 1.86625E-04 5.60528E-05 0.00000E+00
 -1       561 1.84998E-04 6.01499E-05 0.00000E+00
 -1       562 1.84189E-04 6.20880E-05 0.00000E+00
 -1       563 1.84075E-04 6.21828E-05 0.00000E+00
 -1       564 1.84534E-04 6.07509E-05 0.00000E+00
 -1       565 1.85445E-04 5.81093E-05 0.00000E+00
 -1       566 1.86688E-04 5.45759E-05 0.00000E+00
 -1       567 1.88144E-04 5.04687E-05 0.00000E+00
 -1       568 1.89695E-04 4.61062E-05 1.65436E-24
 -1       569 1.91222E-04 4.18064E-05 0.00000E+00
 -1       570 1.92609E-04 3.78879E-05 0.00000E+00
 -1       571 1.83048E-04 3.23091E-05-1.65436E-24
 -1       572 1.83146E-04 3.01139E-05 0.00000E+00
 -1       573 1.83246E-04 2.78685E-05-1.65436E-24
 -1       574 1.83345E-04 2.55893E-05-8.27181E-25
 -1       575 1.83444E-04 2.32929E-05 0.00000E+00
 -1       576 1.83544E-04 2.09955E-05 0.00000E+00
 -1       577 1.83643E-04 1.87139E-05-3.30872E-24
 -1       578 1.83743E-04 1.64646E-05 0.00000E+00
 -1       579 1.83843E-04 1.42641E-05 0.00000E+00
 -1       580 1.83943E-04 1.21290E-05 0.00000E+00
 -1       581 1.84043E-04 1.00757E-05 6.61744E-24
 -1       582 1.84143E-04 8.12094E-06-3.30872E-24
 -1       583 1.84243E-04 6.28108E-06 0.00000E+00
 -1       584 1.84344E-04 4.57251E-06 0.00000E+00
 -1       585 1.84444E-04 3.01142E-06 0.00000E+00
 -1       586 1.84708E-04 3.44783E-05 0.00000E+00
 -1       587 1.86423E-04 3.45175E-05 8.27181E-25
 -1       588 1.88141E-04 3.45563E-05-8.27181E-25
 -1       589 1.89904E-04 3.45945E-05 0.00000E+00
 -1       590 1.91755E-04 3.46314E-05 0.00000E+00
 -1       591 1.83680E-04 3.24027E-05-2.06795E-25
 -1       592 1.84413E-04 3.03464E-05 2.06795E-25
 -1       593 1.85151E-04 2.82758E-05 0.00000E+00
 -1       594 1.85891E-04 2.61956E-05 0.00000E+00
 -1       595 1.86634E-04 2.41106E-05 8.27181E-25
 -1       596 1.87376E-04 2.20256E-05 4.13590E-25
 -1       597 1.88116E-04 1.99455E-05 0.00000E+00
 -1       598 1.88853E-04 1.78750E-05-4.13590E-25
 -1       599 1.89585E-04 1.58188E-05 0.00000E+00
 -1       600 1.90309E-04 1.37819E-05 0.00000E+00
 -1       601 1.91025E-04 1.17689E-05-8.27181E-25
 -1       602 1.91729E-04 9.78474E-06 0.00000E+00
 -1       603 1.92422E-04 7.83407E-06 4.13590E-25
 -1       604 1.93100E-04 5.92183E-06 1.55096E-25
 -1       605 1.93763E-04 4.05273E-06 0.00000E+00
 -1       606 1.84558E-04 4.47352E-07 3.30872E-24
 -1       607 1.84568E-04-6.32142E-07 0.00000E+00
 -1       608 1.84577E-04-1.63089E-06 0.00000E+00
 -1       609 1.84585E-04-2.55458E-06-1.65436E-24
 -1       610 1.84593E-04-3.40894E-06 0.00000E+00
 -1       611 1.84602E-04-4.19975E-06 0.00000E+00
 -1       612 1.84610E-04-4.93282E-06 0.00000E+00
 -1       613 1.84618E-04-5.61395E-06 0.00000E+00
 -1       614 1.84627E-04-6.24895E-06 0.00000E+00
 -1       615 1.84635E-04-6.84362E-06 0.00000E+00
 -1       616 1.84643E-04-7.40378E-06 0.00000E+00
 -1       617 1.84652E-04-7.93523E-06 0.00000E+00
 -1       618 1.84660E-04-8.44377E-06 0.00000E+00
 -1       619 1.84668E-04-8.93521E-06-2.06795E-25
 -1       620 1.84677E-04-9.41536E-06-2.06795E-25
 -1       621 1.85905E-04 1.71653E-06-3.30872E-24
 -1       622 1.87423E-04 1.82069E-06 8.27181E-25
 -1       623 1.89067E-04 1.92463E-06-3.30872E-24
 -1       624 1.90802E-04 2.02824E-06 0.00000E+00
 -1       625 1.92595E-04 2.13157E-06-1.65436E-24
 -1       626 1.85094E-04 4.83464E-07-3.30872E-24
 -1       627 1.85620E-04-5.82720E-07 0.00000E+00
 -1       628 1.86126E-04-1.59378E-06-6.61744E-24
 -1       629 1.86615E-04-2.55786E-06 0.00000E+00
 -1       630 1.87089E-04-3.48318E-06 3.30872E-24
 -1       631 1.87551E-04-4.37792E-06 0.00000E+00
 -1       632 1.88005E-04-5.25029E-06 0.00000E+00
 -1       633 1.88454E-04-6.10851E-06 0.00000E+00
 -1       634 1.88901E-04-6.96077E-06 0.00000E+00
 -1       635 1.89349E-04-7.81527E-06-1.65436E-24
 -1       636 1.89800E-04-8.68024E-06 0.00000E+00
 -1       637 1.90259E-04-9.56389E-06 0.00000E+00
 -1       638 1.90727E-04-1.04744E-05 0.00000E+00
 -1       639 1.91208E-04-1.14200E-05 0.00000E+00
 -1       640 1.91705E-04-1.24090E-05-3.30872E-24
 -1       656 1.85392E-04-1.04686E-05-6.61744E-24
 -1       657 1.86519E-04-1.10706E-05 0.00000E+00
 -1       658 1.87926E-04-1.16713E-05 0.00000E+00
 -1       659 1.89468E-04-1.22717E-05 0.00000E+00
 -1       660 1.90960E-04-1.28738E-05-6.61744E-24
 -1       661 1.84949E-04-1.04098E-05 8.27181E-25
 -1       662 1.85252E-04-1.10214E-05 0.00000E+00
 -1       663 1.85586E-04-1.17197E-05-1.65436E-24
 -1       664 1.85951E-04-1.24982E-05-8.27181E-25
 -1       665 1.86344E-04-1.33509E-05-1.65436E-24
 -1       666 1.86763E-04-1.42721E-05 0.00000E+00
 -1       667 1.87205E-04-1.52560E-05 0.00000E+00
 -1       668 1.87669E-04-1.62970E-05 0.00000E+00
 -1       669 1.88152E-04-1.73898E-05 1.65436E-24
 -1       670 1.88652E-04-1.85290E-05 8.27181E-25
 -1       671 1.89168E-04-1.97094E-05 0.00000E+00
 -1       672 1.89697E-04-2.09259E-05-8.27181E-25
 -1       673 1.90237E-04-2.21735E-05-1.65436E-24
 -1       674 1.90787E-04-2.34475E-05 0.00000E+00
 -1       675 1.91344E-04-2.47427E-05-2.06795E-25
 -1       676 1.85148E-04-2.55380E-05-3.30872E-24
 -1       677 1.86504E-04-2.56423E-05 1.65436E-24
 -1       678 1.87858E-04-2.57465E-05 0.00000E+00
 -1       679 1.89210E-04-2.58504E-05 1.65436E-24
 -1       680 1.90559E-04-2.59543E-05-1.65436E-24
 -1       771 1.86570E-05 1.47591E-05 0.00000E+00
 -1       772 8.59782E-06 3.67205E-05 0.00000E+00
 -1       773 3.45517E-07 5.41340E-05 5.29396E-23
 -1       774-6.22427E-06 6.72575E-05 0.00000E+00
 -1       775-1.12332E-05 7.63596E-05 0.00000E+00
 -1       776-1.48081E-05 8.17255E-05-2.64698E-23
 -1       777-1.70751E-05 8.36506E-05-5.29396E-23
 -1       778-1.81633E-05 8.24441E-05 2.64698E-23
 -1       779-1.82011E-05 7.84236E-05 0.00000E+00
 -1       780-1.73189E-05 7.19184E-05 0.00000E+00
 -1       781-1.56460E-05 6.32644E-05 0.00000E+00
 -1       782-1.33136E-05 5.28064E-05-7.94093E-23
 -1       783-1.04516E-05 4.08938E-05 0.00000E+00
 -1       784-7.19148E-06 2.78823E-05 0.00000E+00
 -1       785-3.66357E-06 1.41307E-05 5.29396E-23
 -1       786 1.93776E-04 3.24099E-05 0.00000E+00
 -1       787 1.93817E-04 3.02049E-05 0.00000E+00
 -1       788 1.93858E-04 2.80412E-05 0.00000E+00
 -1       789 1.93900E-04 2.59109E-05-8.27181E-25
 -1       790 1.93943E-04 2.38093E-05-1.65436E-24
 -1       791 1.93985E-04 2.17317E-05 0.00000E+00
 -1       792 1.94027E-04 1.96761E-05-1.65436E-24
 -1       793 1.94070E-04 1.76403E-05 0.00000E+00
 -1       794 1.94112E-04 1.56242E-05 1.65436E-24
 -1       795 1.94155E-04 1.36277E-05 0.00000E+00
 -1       796 1.94198E-04 1.16529E-05-1.65436E-24
 -1       797 1.94240E-04 9.70156E-06-8.27181E-25
 -1       798 1.94283E-04 7.77815E-06 1.65436E-24
 -1       799 1.94326E-04 5.88708E-06 0.00000E+00
 -1       800 1.94369E-04 4.03600E-06 0.00000E+00
 -1       801 1.47929E-04 3.11635E-05-2.64698E-23
 -1       802 9.42613E-06 1.94415E-05 0.00000E+00
 -1       803-1.08876E-04 9.82013E-06 0.00000E+00
 -1       804-9.65062E-05 6.83546E-06 0.00000E+00
 -1       805-3.18850E-05 2.68573E-06 0.00000E+00
 -1       806 1.94468E-04 3.23413E-05-3.30872E-24
 -1       807 1.95184E-04 3.00444E-05 0.00000E+00
 -1       808 1.95887E-04 2.77789E-05 0.00000E+00
 -1       809 1.96577E-04 2.55487E-05-1.65436E-24
 -1       810 1.97252E-04 2.33580E-05 0.00000E+00
 -1       811 1.97911E-04 2.12107E-05 1.65436E-24
 -1       812 1.98552E-04 1.91108E-05-3.30872E-24
 -1       813 1.99174E-04 1.70622E-05 1.65436E-24
 -1       814 1.99776E-04 1.50687E-05 0.00000E+00
 -1       815 2.00355E-04 1.31343E-05-8.27181E-25
 -1       816 2.00911E-04 1.12630E-05-3.30872E-24
 -1       817 2.01442E-04 9.45857E-06-1.65436E-24
 -1       818 2.01946E-04 7.72493E-06-3.30872E-24
 -1       819 2.02423E-04 6.06596E-06 0.00000E+00
 -1       820 2.02871E-04 4.48550E-06 1.65436E-24
 -1       821 1.94283E-04-1.05107E-07 0.00000E+00
 -1       822 1.94144E-04-3.55452E-06 0.00000E+00
 -1       823 1.94002E-04-7.70031E-06 0.00000E+00
 -1       824 1.93857E-04-1.21229E-05 0.00000E+00
 -1       825 1.93714E-04-1.63281E-05 0.00000E+00
 -1       826 1.93573E-04-1.98229E-05 0.00000E+00
 -1       827 1.93434E-04-2.23074E-05 0.00000E+00
 -1       828 1.93298E-04-2.34881E-05 1.65436E-24
 -1       829 1.93163E-04-2.34256E-05 0.00000E+00
 -1       830 1.93027E-04-2.21884E-05 0.00000E+00
 -1       831 1.92889E-04-2.01639E-05-3.30872E-24
 -1       832 1.92752E-04-1.77447E-05 0.00000E+00
 -1       833 1.92614E-04-1.54306E-05-3.30872E-24
 -1       834 1.92479E-04-1.37207E-05 0.00000E+00
 -1       835 1.92345E-04-1.29505E-05 0.00000E+00
 -1       836 1.96102E-04 2.35789E-06 0.00000E+00
 -1       837 1.97666E-04 2.48617E-06-1.65436E-24
 -1       838 1.99136E-04 2.61439E-06 0.00000E+00
 -1       839 2.00543E-04 2.74191E-06 0.00000E+00
 -1       840 2.01917E-04 2.86926E-06-8.27181E-25
 -1       856 1.92203E-04-1.45126E-05 0.00000E+00
 -1       857 1.92183E-04-1.54399E-05 0.00000E+00
 -1       858 1.92164E-04-1.62525E-05 0.00000E+00
 -1       859 1.92144E-04-1.69716E-05 2.06795E-25
 -1       860 1.92125E-04-1.76184E-05 4.13590E-25
 -1       861 1.92105E-04-1.82142E-05 0.00000E+00
 -1       862 1.92085E-04-1.87803E-05 0.00000E+00
 -1       863 1.92065E-04-1.93381E-05 0.00000E+00
 -1       864 1.92046E-04-1.99089E-05 0.00000E+00
 -1       865 1.92026E-04-2.05141E-05 4.13590E-25
 -1       866 1.92006E-04-2.11749E-05 0.00000E+00
 -1       867 1.91986E-04-2.19126E-05 4.13590E-25
 -1       868 1.91966E-04-2.27485E-05 0.00000E+00
 -1       869 1.91945E-04-2.37036E-05-4.13590E-25
 -1       870 1.91925E-04-2.47991E-05-8.27181E-25
 -1       871 1.93570E-04-1.34546E-05-8.27181E-25
 -1       872 1.95068E-04-1.34629E-05 0.00000E+00
 -1       873 1.96645E-04-1.34720E-05 0.00000E+00
 -1       874 1.98234E-04-1.34818E-05-2.06795E-25
 -1       875 1.99766E-04-1.34921E-05-8.27181E-25
 -1       876 1.92744E-04-1.44981E-05-6.61744E-24
 -1       877 1.93248E-04-1.54797E-05 0.00000E+00
 -1       878 1.93730E-04-1.64025E-05 0.00000E+00
 -1       879 1.94193E-04-1.72737E-05 1.65436E-24
 -1       880 1.94639E-04-1.81010E-05 0.00000E+00
 -1       881 1.95072E-04-1.88915E-05-1.65436E-24
 -1       882 1.95494E-04-1.96527E-05 0.00000E+00
 -1       883 1.95908E-04-2.03920E-05-1.65436E-24
 -1       884 1.96316E-04-2.11166E-05 3.30872E-24
 -1       885 1.96721E-04-2.18338E-05 1.65436E-24
 -1       886 1.97127E-04-2.25512E-05-3.30872E-24
 -1       887 1.97535E-04-2.32759E-05 0.00000E+00
 -1       888 1.97948E-04-2.40154E-05-3.30872E-24
 -1       889 1.98369E-04-2.47771E-05 1.65436E-24
 -1       890 1.98800E-04-2.55683E-05 1.65436E-24
 -1       891 1.93268E-04-2.61135E-05 1.65436E-24
 -1       892 1.94610E-04-2.61712E-05 8.27181E-25
 -1       893 1.95903E-04-2.62288E-05-8.27181E-25
 -1       894 1.97122E-04-2.62861E-05-8.27181E-25
 -1       895 1.98242E-04-2.63432E-05 4.13590E-25
 -1       956 2.03160E-04 1.66399E-06 0.00000E+00
 -1       957 2.03028E-04 4.32370E-07-1.65436E-24
 -1       958 2.02895E-04-7.18291E-07 3.30872E-24
 -1       959 2.02762E-04-1.79934E-06 0.00000E+00
 -1       960 2.02629E-04-2.82219E-06 0.00000E+00
 -1       961 2.02497E-04-3.79826E-06 0.00000E+00
 -1       962 2.02364E-04-4.73899E-06 3.30872E-24
 -1       963 2.02231E-04-5.65587E-06-1.65436E-24
 -1       964 2.02098E-04-6.56034E-06-3.30872E-24
 -1       965 2.01965E-04-7.46386E-06 0.00000E+00
 -1       966 2.01833E-04-8.37791E-06 0.00000E+00
 -1       967 2.01700E-04-9.31393E-06 1.65436E-24
 -1       968 2.01567E-04-1.02834E-05 0.00000E+00
 -1       969 2.01435E-04-1.12977E-05 0.00000E+00
 -1       970 2.01302E-04-1.23682E-05-3.30872E-24
 -1       971 2.01052E-04-1.46433E-05 0.00000E+00
 -1       972 2.00931E-04-1.56861E-05 0.00000E+00
 -1       973 2.00809E-04-1.66448E-05 3.30872E-24
 -1       974 2.00688E-04-1.75302E-05 1.65436E-24
 -1       975 2.00566E-04-1.83531E-05 0.00000E+00
 -1       976 2.00445E-04-1.91245E-05 0.00000E+00
 -1       977 2.00324E-04-1.98552E-05 0.00000E+00
 -1       978 2.00202E-04-2.05560E-05 0.00000E+00
 -1       979 2.00081E-04-2.12380E-05 0.00000E+00
 -1       980 1.99959E-04-2.19120E-05 0.00000E+00
 -1       981 1.99838E-04-2.25889E-05 3.30872E-24
 -1       982 1.99717E-04-2.32796E-05 0.00000E+00
 -1       983 1.99596E-04-2.39951E-05 0.00000E+00
 -1       984 1.99475E-04-2.47462E-05 1.65436E-24
 -1       985 1.99355E-04-2.55437E-05-3.30872E-24
 -3
    1PSTEP                        32          16           1          
  100CL  116 6.63036E-01         409                     0   16           1
 -4  STRESS      6    1
 -5  SXX         1    4    1    1
 -5  SYY         1    4    2    2
 -5  SZZ         1    4    3    3
 -5  SXY         1    4    1    2
 -5  SYZ         1    4    2    3
 -5  SZX         1    4    3    1
 -1         1-5.34447E+06-1.58686E+06-1.13334E+06-1.34569E+06-1.30967E-10-5.59667E-08
 -1         2 1.49259E+06 2.18853E+07 5.09758E+06 6.61603E+06 3.21888E-08 1.51238E-07
 -1         3-1.48870E+03-1.55876E+06 4.05928E+02-2.21287E+03-6.42324E-10 4.13347E-08
 -1         5-7.53996E+01 3.86541E+05 9.98650E+00-1.34454E+00-5.24032E-10 1.21727E-08
 -1         8-5.56188E+05-2.01069E+05-6.29150E+04-2.44199E+05 4.18368E-11-8.00355E-08
 -1         9 1.17798E+07 3.83894E+06 2.79331E+06-3.29451E+05-1.40630E-08 1.43982E-07
 -1        10-2.30527E+03-1.62434E+06-3.94739E+03-1.49735E+04-1.39535E-08-3.87812E-08
 -1        12-7.14797E+01 3.86562E+05 3.28289E+02-9.16382E+00-6.70184E-10 2.36123E-08
 -1        15 9.29104E+02 5.10588E+02 3.00331E+03 8.26496E-01 1.19925E-10 1.29293E-08
 -1        16 2.29156E+07-3.30524E+05 3.11926E+06-2.28287E+06-2.85218E-09-1.20529E-07
 -1        17 8.38907E+06 6.28729E+06 2.26627E+06 6.01506E+06 2.21189E-08 4.22355E-08
 -1        18 1.41946E+05 3.32530E+04 3.86897E+03-1.19724E+05 8.53015E-09-6.43104E-09
 -1        19 1.22449E+05 1.41685E+05-9.50498E+02 2.19887E+04 1.45774E-09-8.65912E-09
 -1        20-8.20058E+04-5.73866E+05-1.28773E+05 2.51063E+04-1.63997E-09 1.77776E-09
 -1        21-4.55780E+01-2.96044E+05-9.24051E+02 2.75467E+02 1.08043E-08 2.60933E-09
 -1        24 1.40597E+07 1.21086E+07 3.89215E+06 1.12113E+07-1.67182E-07-5.56659E-08
 -1        25 1.24968E+05 2.68197E+05 1.00195E+05-6.46380E+05-3.35822E-09-9.58589E-09
 -1        26-5.60586E+04 9.19283E+04-2.51956E+04 1.48204E+03 3.05590E-10 2.09809E-09
 -1        27-7.54831E+04-3.10014E+05-1.13304E+05 6.89697E+04 3.68042E-09 6.72359E-09
 -1        28 2.22426E+04-8.53602E+04 1.68997E+04 2.06104E+04-4.27957E-09 8.47169E-09
 -1        32-1.68057E+06-3.18152E+06-1.97514E+05 4.58746E+05-4.16767E-08-1.08911E-08
 -1        33-1.78550E+05 9.31013E+04 3.24134E+04-3.82434E+04-3.12495E-09 2.43138E-09
 -1        34-2.23641E+05-2.50493E+04 6.90010E+02 7.56896E+04-5.30123E-09 1.34135E-09
 -1        35-2.29331E+04-3.38511E+04-1.34866E+03 5.15021E+04-1.94082E-09-5.50062E-09
 -1        51 6.07629E+04-1.71503E+05 1.28482E+05-4.37319E+05-1.01863E-10 1.83943E-07
 -1        52 2.05566E+04-1.49040E+05 6.73769E+04-5.10044E+05-1.70076E-10 2.12855E-07
 -1        53 4.17167E+03-1.64402E+05 3.50205E+04-4.35818E+05 3.76531E-10 6.60584E-08
 -1        54 7.32660E+03-1.60189E+05 2.86446E+04-5.11514E+05 2.72848E-10-2.24492E-07
 -1        55 1.59704E+04-1.67165E+05 3.46875E+04-4.35728E+05 2.72848E-10 4.48894E-07
 -1        56-9.79513E+06-1.37829E+06-9.18544E+05-4.09121E+06 3.05590E-09-7.84639E-08
 -1        57-1.10858E+07-8.09682E+05-5.47033E+05-2.70430E+06 6.10453E-08 2.10232E-07
 -1        58-9.59537E+06-1.84582E+06-2.01469E+05-4.28489E+06 4.21933E-08-4.92582E-09
 -1        59-1.12721E+07-2.71145E+05-1.07971E+05-2.63090E+06-3.92611E-08-3.14940E-07
 -1        60-9.69060E+06-1.84970E+06-5.78724E+04-4.23661E+06 1.08048E-09-2.84272E-08
 -1        61-1.06044E+07-6.14486E+05 1.73145E+04-2.88241E+06-2.73430E-08 3.46627E-08
 -1        62-1.01225E+07-1.59735E+06-7.88253E+04-3.92189E+06-7.33417E-09-1.65281E-07
 -1        63-9.68134E+06-1.34253E+06 5.67601E+04-3.59676E+06-7.67468E-08 1.21134E-07
 -1        64-1.05009E+07-1.20203E+06-7.25077E+04-3.45098E+06 6.35919E-09 3.68855E-08
 -1        65-9.30131E+06-1.96012E+06 1.41711E+04-4.52624E+06 4.51473E-09-3.44048E-07
 -1        66-1.06331E+07-8.89150E+05-4.73148E+04-3.09100E+06 2.89947E-08 6.64113E-09
 -1        67-9.31897E+06-2.22103E+06-9.71668E+04-4.96785E+06-6.73863E-08-2.47903E-07
 -1        68-1.06135E+07-8.49681E+05-1.87110E+05-3.09034E+06-5.84587E-08-1.55662E-07
 -1        69-9.49425E+06-2.29962E+06-4.86276E+05-4.49347E+06-2.48019E-08-5.13173E-08
 -1        70-1.03371E+07-9.07128E+05-8.43759E+05-3.48605E+06 4.15985E-08 8.41101E-08
 -1        86-1.52282E+06-1.56117E+07-2.79035E+06-3.10764E+06-2.78607E-07 1.17652E-07
 -1        87 2.39343E+06 6.29971E+06 2.32084E+06 5.74791E+06-4.48817E-07 1.27993E-07
 -1        88-4.50373E+05-1.95236E+06 2.19368E+05-2.56430E+06-3.90430E-07-5.27257E-08
 -1        89 3.20500E+06 6.00290E+06 2.37848E+06 5.94064E+06-5.63872E-07-2.47610E-07
 -1        90-2.24026E+06-1.53910E+07-3.01278E+06-3.32953E+06-1.31527E-07 2.00089E-08
 -1       121-2.03932E+03-1.56366E+06-5.47660E+02 1.09679E+03 1.38645E-09-1.33659E-08
 -1       122-1.30284E+03-1.55882E+06 7.69602E+02-4.42983E+03-5.40339E-09 5.84987E-09
 -1       123-2.05907E+03-1.56380E+06 2.60416E+02 3.27564E+03 4.31157E-09 1.09285E-08
 -1       124 3.33850E+02-1.55837E+06 2.94932E+03-9.26945E+03-1.00617E-08 1.53850E-08
 -1       125-2.86805E+03-1.56469E+06 3.45963E+03 5.89042E+03 6.34464E-09-1.06229E-08
 -1       191-7.94567E+01 3.86559E+05 8.48625E+00 7.01094E-01-5.93066E-10 2.88765E-08
 -1       192-7.63639E+01 3.86541E+05 2.13112E+01-4.31028E+00-7.71983E-10 1.33905E-08
 -1       193-8.19948E+01 3.86558E+05 3.62769E+01 3.78567E+00-1.09044E-09 4.12001E-09
 -1       194-7.94554E+01 3.86545E+05 8.10163E+01-9.78052E+00-5.41254E-10-9.37598E-09
 -1       195-8.68665E+01 3.86556E+05 1.55102E+02 6.36517E+00-1.46790E-09 1.47520E-09
 -1       251-8.62259E+05 1.60781E+04-3.75410E+04-1.42644E+04-3.96258E-09 6.62658E-09
 -1       252-8.76485E+05-1.86057E+04-2.61195E+04 5.02282E+04-1.88720E-11 3.84043E-08
 -1       253-8.70603E+05 2.46652E+03-1.01089E+04-1.00556E+04-3.56977E-09 7.63062E-08
 -1       254-8.63205E+05-2.98849E+03-4.53225E+03 3.57183E+04 1.37425E-08 1.26673E-07
 -1       255-8.74934E+05 5.84911E+01-3.49946E+03 2.41912E+02-3.93084E-09 2.24491E-08
 -1       256-8.57880E+05-2.73296E+02 1.15737E+03 1.23658E+04 6.83406E-09 1.83195E-07
 -1       257-8.75493E+05-5.69787E+02-1.36863E+03 1.32857E+04-2.31194E-09-3.91825E-08
 -1       258-8.60669E+05 9.01932E+02 2.68566E+03-1.21685E+04-1.90524E-08-5.79859E-08
 -1       259-8.72391E+05-9.26849E+02 1.38319E+03 2.47739E+04 5.17502E-10 5.96643E-08
 -1       260-8.66967E+05 2.92525E+03 5.57254E+03-2.98590E+04 1.50802E-08 4.41594E-08
 -1       261-8.69822E+05-2.10929E+03 8.66893E+03 3.09921E+04 1.58296E-08-9.55824E-08
 -1       262-8.65596E+05 1.17811E+04 2.15305E+04-3.50245E+04-4.59390E-09-1.22964E-07
 -1       263-8.74010E+05-9.55739E+03 3.41178E+04 2.99487E+04 1.85435E-09 3.24862E-07
 -1       264-8.35104E+05 6.71041E+04 9.44389E+04-2.58725E+04 2.88787E-08 4.65643E-08
 -1       265-8.99822E+05-5.75607E+04 1.31540E+05 2.18281E+04-6.44116E-09 3.24842E-07
 -1       266-1.68201E+04-7.86592E+03 3.94609E+04-1.76830E+01-1.10958E-10-8.47841E-08
 -1       267 1.94989E+04 9.16662E+03 2.78924E+04 2.04045E+01-9.54969E-12-1.08193E-07
 -1       268-2.61478E+03-1.29832E+03 1.03674E+04-2.59979E+00-6.04814E-11-7.57797E-08
 -1       269 3.08727E+03 1.55373E+03 6.73872E+03 3.02847E+00-9.24274E-11 1.02758E-07
 -1       270-4.63403E+02-2.55294E+02 3.25287E+03-4.10980E-01 9.06084E-11-5.18538E-08
 -1       271-1.47965E+06-1.88335E+05-1.11454E+05-5.75764E+05 1.17507E-09-4.30082E-08
 -1       272-1.47537E+06-3.01780E+05-7.00075E+04-6.14190E+05-1.63727E-08 1.91167E-07
 -1       273-1.50318E+06-2.12015E+05-2.70260E+04-5.67746E+05 2.33886E-08-1.25039E-07
 -1       274-1.44857E+06-2.73268E+05-1.40640E+04-6.29327E+05 6.68115E-08-1.14062E-07
 -1       275-1.50876E+06-2.11596E+05-6.73259E+03-5.63990E+05-5.25251E-08-1.61683E-07
 -1       276-1.44295E+06-2.74181E+05-2.84376E+03-6.37914E+05 7.13771E-08-6.86218E-08
 -1       277-1.51158E+06-2.08979E+05-1.86424E+03-5.61270E+05 5.58975E-09 1.75353E-07
 -1       278-1.44077E+06-2.77368E+05-7.12626E+02-6.44222E+05-1.54423E-08 1.46023E-07
 -1       279-1.51337E+06-2.06842E+05-8.64024E+02-5.59364E+05 7.18501E-09-1.34836E-07
 -1       280-1.43977E+06-2.79763E+05-9.89885E+02-6.48364E+05 9.96806E-10 1.14660E-07
 -1       281-1.51432E+06-2.05497E+05-1.82899E+03-5.58294E+05-2.55550E-08-2.48549E-08
 -1       282-1.44014E+06-2.81937E+05-4.25351E+03-6.50056E+05-3.01243E-08-1.70478E-07
 -1       283-1.51382E+06-2.04267E+05-7.57088E+03-5.58172E+05 3.55453E-09-1.73092E-07
 -1       284-1.44692E+06-2.91845E+05-2.06224E+04-6.47866E+05 1.89566E-08-1.05556E-07
 -1       285-1.50744E+06-1.96769E+05-3.22055E+04-5.59963E+05-1.24783E-09-7.00165E-08
 -1       301-7.36583E+03-6.47803E+05 1.66902E+05-1.13854E+06 1.08848E-08-6.07397E-08
 -1       302-9.18884E+03-6.00961E+05 1.00443E+05-1.66178E+06-1.85100E-08 1.89812E-08
 -1       303-2.19584E+04-6.40371E+05 5.67324E+04-1.13541E+06 2.01835E-08 1.74514E-07
 -1       304-2.50296E+04-6.08077E+05 5.70602E+04-1.66120E+06 2.92493E-08 2.24220E-07
 -1       305-2.63073E+04-6.29107E+05 7.01111E+04-1.13850E+06 1.16779E-09-1.21523E-07
 -1       306-3.01462E+07-6.22143E+06-8.61497E+06-4.96823E+05-1.49244E-07-1.78552E-07
 -1       307 2.53237E+07 3.28722E+06 5.51321E+06-1.52682E+07-9.05493E-07 1.90921E-07
 -1       308-6.93049E+06-1.01858E+06-4.41004E+05 5.21350E+06-2.44559E-07 5.46745E-07
 -1       309-3.20784E+06 8.75543E+06 2.29448E+06-2.07078E+07 5.58091E-07 1.34463E-07
 -1       310-1.26336E+07-1.95504E+06-2.05721E+06 5.22325E+06-1.75845E-07-1.84868E-07
 -1       311 3.86373E+07 4.14626E+03 7.31007E+06-8.75240E+06 9.93023E-08-5.95173E-08
 -1       312-3.19906E+07-6.80946E+06-8.56500E+06-5.09054E+06 1.74623E-09-1.48459E-07
 -1       313 4.54530E+07 1.51497E+07 1.06931E+07 2.39202E+07-3.40166E-07 2.98751E-07
 -1       314-1.71855E+07-1.78591E+07-7.53432E+06-1.25464E+07 3.09607E-07-2.00002E-07
 -1       315-1.90511E+06 2.98220E+07 5.67172E+06 1.04867E+07-4.78452E-07-2.21888E-07
 -1       316 1.42890E+06-9.83637E+06-4.31437E+05-2.49962E+06-1.21459E-06-1.99449E-07
 -1       317-1.71028E+07 2.24529E+07 2.24824E+06-8.88344E+06 8.04634E-07-6.72648E-07
 -1       318-1.08207E+06-1.28423E+07-2.06083E+06-4.24133E+06-8.89733E-07 1.51049E-07
 -1       319 7.28392E+06 3.20865E+07 7.06864E+06 1.66860E+07-5.84696E-08 2.26748E-07
 -1       320-2.26458E+07-1.76902E+07-9.88340E+06-1.28433E+07 2.02097E-07-4.80213E-08
 -1       336-7.47050E+02-1.69272E+06-1.38488E+04 8.91322E+03-2.67628E-08-1.44064E-08
 -1       337-5.41007E+03-1.69226E+06-1.80701E+04-2.16521E+04-4.93037E-08-1.04774E-08
 -1       338 2.73998E+02-1.69220E+06-2.84652E+04 1.24877E+04-3.45808E-08-3.53612E-09
 -1       339-3.02065E+04-1.70950E+06-6.43332E+04-2.86544E+04-6.28715E-08 3.59814E-08
 -1       340 1.98955E+04-1.67766E+06-1.01343E+05 1.57845E+04-4.12183E-08 4.16512E-08
 -1       406-4.97688E+01 3.86541E+05 6.44588E+02 3.35297E+00-2.03710E-09 5.46606E-09
 -1       407 1.54893E+02 3.86676E+05 1.37753E+03 2.34208E+01-4.82522E-10 9.24410E-09
 -1       408 6.35269E+02 3.86441E+05 2.74669E+03-2.70940E+01-2.35559E-09 7.63976E-10
 -1       409 2.90882E+03 3.87553E+05 6.19079E+03 2.89274E+02-4.03475E-10 7.61429E-09
 -1       410 8.48540E+03 3.85650E+05 1.26352E+04-2.78963E+02-2.94312E-09-1.03846E-08
 -1       521-3.17229E+07-7.69148E+06-1.00798E+07-1.00919E+05-1.45985E-07-2.11294E-08
 -1       522 2.62228E+07 4.33499E+06 5.62994E+06-1.88038E+07-5.71396E-07-4.64730E-07
 -1       523-7.50225E+06-1.33448E+06-4.32405E+05 5.66748E+06 2.00293E-07-2.45767E-07
 -1       524-6.71535E+06 1.18491E+07 2.48609E+06-2.37940E+07 1.26881E-06-9.29937E-07
 -1       525-1.34331E+07-2.60021E+06-2.26493E+06 5.68282E+06 6.81670E-07-2.92639E-07
 -1       526 4.22492E+07-9.33929E+04 7.68083E+06-1.14092E+07 5.44824E-08 9.15315E-08
 -1       527-3.38741E+07-8.52238E+06-9.88635E+06-4.95581E+06-9.66247E-08 1.58383E-07
 -1       528 4.96891E+07 1.69214E+07 1.11674E+07 2.72435E+07-1.75205E-07-1.93308E-07
 -1       529-1.81341E+07-2.01010E+07-8.65016E+06-1.25821E+07 6.70552E-08-1.48430E-07
 -1       530-4.39437E+06 3.46765E+07 6.01096E+06 9.92582E+06-3.86528E-07 5.79515E-07
 -1       531 1.43586E+06-1.09141E+07-4.03329E+05-2.43619E+06-8.09232E-07 3.87081E-07
 -1       532-1.96047E+07 2.44726E+07 2.46107E+06-1.32259E+07 5.15429E-07-7.31932E-07
 -1       533-1.12274E+06-1.40086E+07-2.19870E+06-4.03769E+06-2.34548E-07-1.02253E-06
 -1       534 5.28712E+06 3.72955E+07 7.36672E+06 1.72850E+07-4.49363E-08 7.89471E-07
 -1       535-2.38474E+07-2.01183E+07-1.13475E+07-1.29221E+07 1.24099E-07 4.64031E-07
 -1       536-7.06222E+05-4.67582E+04-4.82110E+04-5.47069E+04-6.20003E-09 6.77310E-08
 -1       537-5.48014E+04 4.46966E+04 8.39381E+04 1.23892E+05-1.14073E-07 1.24321E-07
 -1       538-3.94410E+05 3.34781E+03 3.55015E+03-7.22242E+04 8.68738E-09 1.15819E-07
 -1       539-2.68997E+05 2.85463E+03 2.49276E+04 1.38783E+05 1.53261E-07 1.20016E-07
 -1       540-4.97406E+05-4.29052E+02-2.13371E+04-7.01328E+04 1.12732E-08 1.13488E-07
 -1       541 1.46932E+05 1.69806E+04 1.06440E+05 9.79646E+04-2.77360E-08 8.25439E-08
 -1       542-7.99131E+05-2.01452E+04-8.42798E+04-3.05302E+04 3.77468E-08 4.89325E-08
 -1       543 4.05735E+05 2.73387E+04 1.58049E+05-1.33673E+04-3.68559E-08-2.10598E-08
 -1       544-7.49268E+05-1.65450E+04-7.48739E+04 4.05290E+04-2.56100E-08-5.76832E-08
 -1       545 2.91673E+04 9.48771E+03 7.98474E+04-1.13664E+05-1.13896E-07-6.63877E-08
 -1       546-4.32677E+05 6.09927E+03-1.22388E+04 6.94198E+04 6.73003E-09-9.04781E-08
 -1       547-2.87088E+05-4.66167E+03 1.05847E+04-1.41630E+05-1.21183E-07-1.31791E-07
 -1       548-4.41516E+05 4.72485E+03-2.39049E+04 6.91870E+04-1.03319E-07-8.75953E-08
 -1       549 4.83481E+04 1.60605E+04 6.05167E+04-1.11524E+05-5.90591E-08-6.09398E-08
 -1       550-7.59137E+05-2.21344E+04-1.29074E+05 3.85974E+04 5.45515E-09-2.98369E-08
 -1       551 4.08031E+04-7.50792E+05-1.58858E+04-1.24728E+06-1.02184E-07-1.94705E-08
 -1       552 9.32890E+04-7.95784E+05 9.92592E+03-1.77846E+06-7.26868E-08 3.72820E-08
 -1       553 7.17827E+04-7.92190E+05 3.20454E+04-1.24063E+06-1.18438E-07 2.83035E-08
 -1       554 1.32091E+05-8.11686E+05 8.10697E+04-1.78040E+06-7.35017E-08 8.12543E-09
 -1       555 1.01531E+05-8.15845E+05 1.48055E+05-1.24046E+06-1.22956E-07-1.61308E-08
 -1       556 2.23801E+05-3.83814E+05 2.57253E+04-4.07354E+05-2.23808E-08-1.02737E-08
 -1       557 3.54408E+05-4.88198E+05 1.61368E+04-5.27826E+05-6.12636E-09 2.02999E-09
 -1       558 2.05558E+05-3.76598E+05 2.31550E+03-4.11805E+05-1.71713E-08-3.60160E-09
 -1       559 3.29379E+05-4.88260E+05 2.43713E+03-5.48291E+05 2.21189E-08-1.82699E-08
 -1       560 1.90241E+05-3.66993E+05-1.50855E+03-4.22843E+05 6.98492E-09 6.27188E-09
 -1       561 3.10134E+05-4.80557E+05 1.28818E+02-5.61413E+05 6.40284E-09 1.60362E-08
 -1       562 1.78130E+05-3.59469E+05-1.32836E+03-4.31613E+05 4.30737E-09 1.72440E-09
 -1       563 2.95749E+05-4.74285E+05-3.72653E+01-5.70809E+05 6.00994E-09 1.71622E-09
 -1       564 1.69487E+05-3.54084E+05-6.01440E+02-4.37738E+05 7.85803E-09 5.24369E-09
 -1       565 2.86207E+05-4.70130E+05 2.39209E+01-5.76905E+05 9.38599E-09 1.80926E-08
 -1       566 1.64434E+05-3.50887E+05-2.60214E+02-4.41272E+05-3.05590E-10-9.54969E-09
 -1       567 2.81570E+05-4.68112E+05-3.62524E+02-5.79722E+05 1.82335E-08-5.40967E-09
 -1       568 1.63063E+05-3.50047E+05-1.12603E+03-4.42327E+05-1.20172E-08 4.96584E-09
 -1       569 2.80447E+05-4.68039E+05-2.84410E+03-5.78292E+05-1.28584E-08 1.63673E-08
 -1       570 1.66466E+05-3.53284E+05-6.21825E+03-4.41306E+05 9.17498E-09 3.75621E-09
 -1       571 2.90687E+05 1.04625E+04 1.49209E+04-9.54087E+04-4.00451E-09 1.00385E-08
 -1       572 2.92849E+05 3.94628E+03 7.31249E+03-1.04673E+05-1.97597E-08 3.01197E-08
 -1       573 2.91545E+05 1.24395E+03 3.24918E+03-9.52316E+04-1.00063E-08 4.92764E-09
 -1       574 2.91758E+05 7.28363E+02 1.62947E+03-1.04898E+05 4.47108E-09-4.02542E-09
 -1       575 2.91638E+05 4.50061E+02 7.69081E+02-9.52074E+04-1.43283E-08-8.06176E-09
 -1       576 2.91622E+05 4.61772E+02 3.93806E+02-1.04928E+05-2.83064E-08 1.15961E-08
 -1       577 2.91678E+05 3.92126E+02 1.96644E+02-9.52041E+04-1.54650E-08-1.28421E-09
 -1       578 2.91653E+05 4.23648E+02 1.13713E+02-1.04932E+05-7.64931E-09-7.10043E-09
 -1       579 2.91751E+05 3.55237E+02 7.82714E+01-9.52037E+04-4.22006E-10-1.26602E-08
 -1       580 2.91755E+05 3.72366E+02 9.11176E+01-1.04927E+05-1.26411E-08-1.50949E-08
 -1       581 2.91865E+05 2.96369E+02 1.37853E+02-9.52097E+04 2.12276E-09 2.13195E-08
 -1       582 2.91931E+05 3.34798E+02 2.80441E+02-1.04865E+05 3.22507E-09 1.16834E-08
 -1       583 2.92006E+05 3.38947E+02 5.38349E+02-9.52664E+04-6.49743E-09 7.48810E-09
 -1       584 2.92308E+05 7.78679E+02 1.21828E+03-1.04388E+05-1.41208E-08-5.25688E-10
 -1       585 2.92032E+05 1.80396E+03 2.46698E+03-9.56864E+04-1.09667E-08-8.18909E-09
 -1       586-3.48160E+03 1.16976E+05-2.99607E+03-2.50936E+05-7.58246E-09-1.36879E-09
 -1       587-1.36039E+03 1.16716E+05 7.35181E+02-2.76174E+05-7.19774E-09 2.95819E-08
 -1       588 3.92899E+02 1.16529E+05 4.74865E+03-2.50798E+05-4.19459E-09 3.36877E-08
 -1       589 5.08757E+03 1.19004E+05 1.23506E+04-2.75941E+05-7.78709E-09 3.76167E-09
 -1       590 1.66263E+04 1.15194E+05 2.59214E+04-2.51230E+05-7.28141E-09 8.44011E-10
 -1       591-7.64932E+04-1.58244E+04-2.27100E+04-3.24981E+04-3.24189E-09 7.14954E-09
 -1       592-8.07165E+04-1.97935E+04-1.23631E+04-3.60683E+04 8.04818E-10 1.65528E-09
 -1       593-7.88309E+04-1.44517E+04-5.13472E+03-3.40734E+04-3.19451E-09 1.02750E-09
 -1       594-7.75389E+04-1.63886E+04-2.56469E+03-3.61996E+04 1.90821E-09 1.55229E-08
 -1       595-7.90090E+04-1.44551E+04-1.17626E+03-3.41474E+04-6.82050E-10-4.79545E-10
 -1       596-7.73191E+04-1.62284E+04-5.98011E+02-3.61752E+04-5.05554E-09 2.83967E-09
 -1       597-7.90310E+04-1.44705E+04-3.25224E+02-3.41505E+04-1.97013E-08 6.56053E-09
 -1       598-7.72976E+04-1.62217E+04-2.60905E+02-3.61681E+04-1.27761E-08-4.53957E-09
 -1       599-7.90298E+04-1.44710E+04-3.32583E+02-3.41502E+04 6.48276E-09 1.53830E-08
 -1       600-7.73193E+04-1.62289E+04-6.17493E+02-3.61730E+04-1.31092E-09-1.69842E-09
 -1       601-7.90045E+04-1.44565E+04-1.21752E+03-3.41465E+04 1.18941E-08-3.45358E-09
 -1       602-7.75469E+04-1.63936E+04-2.65606E+03-3.61943E+04 7.57746E-09 1.13300E-08
 -1       603-7.88174E+04-1.44558E+04-5.31842E+03-3.40707E+04-2.42608E-10-1.21786E-08
 -1       604-8.08553E+04-1.99010E+04-1.28045E+04-3.60339E+04 7.42602E-09 3.68004E-09
 -1       605-7.63765E+04-1.58951E+04-2.35211E+04-3.24581E+04 4.58249E-09 8.11178E-09
 -1       606 2.66827E+04-1.43364E+04-2.57001E+04 2.39638E+04 5.22232E-09-8.18318E-09
 -1       607 2.22915E+04-4.68230E+03-1.27986E+04 2.69304E+04-1.84082E-09-4.43401E-09
 -1       608 2.47942E+04-8.44736E+02-5.72948E+03 2.37954E+04-3.94903E-09-2.12026E-09
 -1       609 2.43145E+04-2.89484E+02-2.89438E+03 2.71442E+04 3.50792E-09 1.16108E-08
 -1       610 2.45806E+04-4.11055E+01-1.38094E+03 2.37753E+04 8.84484E-09-7.50083E-09
 -1       611 2.45053E+04-4.14161E+01-6.96257E+02 2.71673E+04 1.01313E-08-2.62298E-09
 -1       612 2.45335E+04-2.74248E+01-3.30977E+02 2.37733E+04 1.53705E-10 7.22434E-09
 -1       613 2.45169E+04-3.73559E+01-1.48282E+02 2.71700E+04 2.91448E-09-1.05751E-08
 -1       614 2.45114E+04-3.38763E+01-3.46783E+01 2.37726E+04 2.92403E-09 4.04407E-09
 -1       615 2.45117E+04-3.58914E+01 6.23730E+01 2.71705E+04-1.58298E-09 2.32603E-10
 -1       616 2.44940E+04-3.07719E+01 1.86830E+02 2.37729E+04-8.62201E-10 2.46951E-09
 -1       617 2.45342E+04 3.89784E+00 4.26178E+02 2.71700E+04-1.86947E-09-3.95403E-09
 -1       618 2.44570E+04 9.20683E+01 8.59001E+02 2.37732E+04-3.58705E-09-1.40540E-08
 -1       619 2.48375E+04 6.68063E+02 1.92893E+03 2.71694E+04-7.80346E-10 4.65798E-09
 -1       620 2.41717E+04 2.12897E+03 3.87710E+03 2.37748E+04 1.62925E-09 8.83483E-09
 -1       621 5.10362E+02 3.01431E+05 3.86438E+03 4.12638E+04 1.17052E-09 1.22327E-08
 -1       622 6.76086E+02 3.02322E+05 3.41961E+03 5.99088E+04 1.25283E-09 1.09594E-08
 -1       623 1.43689E+02 3.01625E+05 4.09651E+03 4.10780E+04 1.25760E-09-1.44264E-08
 -1       624 2.10360E+03 3.03519E+05 7.93100E+03 6.00907E+04 1.36151E-09-1.02627E-08
 -1       625 2.05387E+03 3.00053E+05 1.38541E+04 4.10759E+04 1.50976E-09 4.33715E-09
 -1       626 2.60959E+05 6.14032E+04 5.11700E+03 1.26747E+05 3.96494E-09 8.72569E-09
 -1       627 2.58643E+05 6.27992E+04 2.46584E+03 1.31017E+05 7.63521E-10-4.44402E-09
 -1       628 2.61087E+05 5.90620E+04 1.04288E+03 1.27617E+05-7.83348E-09-7.78800E-09
 -1       629 2.58008E+05 6.21195E+04 5.10437E+02 1.31257E+05-6.29325E-09 8.98345E-09
 -1       630 2.61101E+05 5.89488E+04 2.36888E+02 1.27653E+05-3.25463E-09 3.48853E-08
 -1       631 2.57941E+05 6.20936E+04 1.27622E+02 1.31259E+05-9.92463E-09 4.08938E-08
 -1       632 2.61098E+05 5.89528E+04 8.42339E+01 1.27649E+05-3.11275E-09-1.37231E-08
 -1       633 2.57933E+05 6.20953E+04 9.42278E+01 1.31255E+05 2.13731E-09-1.56663E-08
 -1       634 2.61093E+05 5.89499E+04 1.52621E+02 1.27649E+05-2.08792E-09 8.03675E-09
 -1       635 2.57947E+05 6.20936E+04 3.09042E+02 1.31261E+05-7.25896E-09 2.02742E-08
 -1       636 2.61084E+05 5.89441E+04 6.24220E+02 1.27648E+05-5.85123E-09 1.08685E-10
 -1       637 2.58082E+05 6.21907E+04 1.37258E+03 1.31260E+05-8.89486E-09-1.34346E-08
 -1       638 2.61035E+05 5.92473E+04 2.82015E+03 1.27511E+05-5.88352E-09-1.52718E-08
 -1       639 2.59564E+05 6.42511E+04 6.67262E+03 1.30824E+05 2.39106E-09 3.50269E-09
 -1       640 2.60830E+05 6.53998E+04 1.38468E+04 1.24919E+05-1.24055E-09 8.97808E-09
 -1       656 6.66073E+04-1.70468E+06-1.60786E+05-2.56384E+03-6.83940E-10-2.23259E-08
 -1       657-8.81158E+04-1.77734E+06-1.33202E+05 5.15413E+03-1.30512E-09-1.13573E-08
 -1       658 2.12322E+04-1.72531E+06-8.20360E+04-4.64873E+03-1.00977E-09 1.19002E-09
 -1       659-9.52849E+04-1.78074E+06-1.42623E+05 6.88700E+03-2.37742E-09 1.59119E-08
 -1       660 7.37604E+04-1.70128E+06-1.76983E+05-4.29670E+03-2.11003E-09-9.19187E-10
 -1       661 1.58506E+05 1.65845E+04 1.67139E+04 6.19634E+04 4.51564E-09-2.26464E-09
 -1       662 1.67957E+05 2.89606E+04 1.12640E+04 5.82118E+04-1.26579E-09-1.14233E-09
 -1       663 1.61789E+05 2.19466E+04 3.93943E+03 6.10106E+04-8.96534E-10 1.28148E-08
 -1       664 1.64150E+05 2.26900E+04 2.35660E+03 5.93756E+04-4.00888E-10-1.48563E-08
 -1       665 1.62287E+05 2.26789E+04 9.29664E+02 6.08652E+04-4.10012E-10-6.80879E-09
 -1       666 1.63561E+05 2.18526E+04 5.44188E+02 5.95653E+04 1.35366E-08 1.84705E-08
 -1       667 1.62374E+05 2.27622E+04 2.89244E+02 6.08288E+04 1.17979E-09 1.23060E-08
 -1       668 1.63465E+05 2.17928E+04 2.95174E+02 5.96182E+04-4.72944E-09 7.79809E-09
 -1       669 1.62382E+05 2.27370E+04 3.99997E+02 6.08125E+04-4.03389E-10 6.11902E-09
 -1       670 1.63562E+05 2.20101E+04 8.71347E+02 5.96212E+04-8.51461E-09-1.47316E-08
 -1       671 1.62277E+05 2.25494E+04 1.54726E+03 6.08239E+04 1.83658E-09-4.94549E-09
 -1       672 1.64464E+05 2.35154E+04 3.95872E+03 5.94026E+04 8.95865E-09-9.08722E-09
 -1       673 1.61485E+05 2.12699E+04 6.63421E+03 6.10165E+04 3.11570E-09-2.28438E-08
 -1       674 1.70778E+05 3.41740E+04 1.89725E+04 5.75477E+04-3.11741E-09 4.57931E-09
 -1       675 1.56004E+05 1.21893E+04 2.81618E+04 6.25669E+04-6.11681E-09 6.55382E-09
 -1       676 2.41180E+01-2.95967E+05-1.11373E+03-1.37738E+02 9.30811E-10-8.46383E-09
 -1       677-2.94601E+02-2.96237E+05-2.03831E+03 2.75254E+02 1.05810E-08-2.89853E-08
 -1       678 1.97598E+02-2.95775E+05-3.60323E+03-1.37426E+02 1.04001E-09-3.23244E-09
 -1       679-3.60328E+03-2.98412E+05-8.55977E+03 2.74065E+02 6.22413E-09 5.56352E-09
 -1       680 2.15137E+03-2.93793E+05-1.37954E+04-1.35030E+02 2.72848E-12 2.07999E-08
 -1       771-3.06294E+06-7.47547E+05-1.66004E+05-1.46633E+06-3.25963E-08-2.92202E-08
 -1       772-2.98578E+06-8.36437E+05-8.55858E+04-1.56910E+06-2.54950E-08 1.22491E-08
 -1       773-3.09446E+06-7.22974E+05-4.36320E+04-1.48088E+06-1.42318E-08 1.11468E-08
 -1       774-2.97625E+06-8.17899E+05-1.94659E+04-1.59489E+06 2.67755E-08-2.72848E-09
 -1       775-3.11092E+06-7.11423E+05-1.45626E+04-1.48795E+06-2.91038E-11 7.63248E-09
 -1       776-2.98862E+06-8.14859E+05-5.44555E+03-1.61441E+06-1.31113E-08 3.94357E-09
 -1       777-3.12521E+06-7.01112E+05-6.43503E+03-1.49417E+06 5.35510E-09 9.22591E-09
 -1       778-3.00153E+06-8.12031E+05-1.81930E+03-1.63118E+06 6.28643E-09 4.35102E-09
 -1       779-3.13749E+06-6.92101E+05-3.21605E+03-1.49950E+06-1.02591E-08-4.93310E-09
 -1       780-3.01290E+06-8.09333E+05-5.33385E+02-1.64484E+06-7.70524E-09-3.01952E-10
 -1       781-3.14726E+06-6.84837E+05-1.24962E+03-1.50366E+06-2.67173E-08 2.64481E-09
 -1       782-3.02166E+06-8.07043E+05 4.50030E+02-1.65492E+06-4.23461E-08-4.66071E-09
 -1       783-3.15414E+06-6.79790E+05 7.00366E+02-1.50658E+06-1.19617E-08-1.48398E-08
 -1       784-3.02651E+06-8.04755E+05 2.90441E+03-1.66114E+06-2.18570E-08-1.41517E-09
 -1       785-3.15820E+06-6.76779E+05 5.12711E+03-1.50843E+06-3.83006E-08 6.46833E-09
 -1       786 1.22748E+05-9.73787E+03 2.25295E+04-3.19975E+02 1.46177E-09-7.34326E-09
 -1       787 1.32519E+05 1.12743E+04 1.59386E+04-1.36583E+02 6.45972E-09 1.49023E-08
 -1       788 1.26516E+05-1.52595E+03 5.82880E+03-2.85326E+02 2.46083E-09 9.12632E-09
 -1       789 1.28130E+05 1.76624E+03 3.65902E+03-1.89695E+02 2.36569E-10-1.03410E-08
 -1       790 1.27138E+05-2.37577E+02 1.48128E+03-2.66880E+02-2.29138E-09 9.70226E-09
 -1       791 1.27403E+05 2.74826E+02 8.55171E+02-2.21337E+02-6.28594E-09-7.21241E-09
 -1       792 1.27243E+05-3.56463E+01 3.61627E+02-2.53686E+02-5.40995E-09-1.08148E-08
 -1       793 1.27277E+05 3.72851E+01 1.78610E+02-2.46253E+02 5.47771E-10-1.10500E-08
 -1       794 1.27264E+05-1.85881E-01 4.30609E+01-2.41964E+02 4.65283E-09 1.45283E-09
 -1       795 1.27239E+05-3.02700E+01-6.66810E+01-2.70800E+02-4.46786E-09 1.57914E-08
 -1       796 1.27281E+05 3.18706E+01-1.77894E+02-2.29138E+02 5.00083E-09-1.67841E-08
 -1       797 1.27136E+05-2.37812E+02-4.83937E+02-3.00321E+02 5.19570E-09-2.59290E-08
 -1       798 1.27366E+05 2.07200E+02-7.84706E+02-2.12443E+02 2.31791E-09 4.37694E-12
 -1       799 1.26542E+05-1.52749E+03-2.15775E+03-3.41726E+02 6.59942E-09-2.38464E-09
 -1       800 1.27877E+05 1.32050E+03-3.05338E+03-1.87735E+02 4.38943E-10 3.85216E-09
 -1       801-1.71303E+05-9.99830E+06-1.39356E+06 1.41551E+06 9.14442E-08-6.27915E-08
 -1       802 7.38367E+05 5.95073E+06 2.18183E+06-1.74743E+06 2.55553E-07-3.74894E-08
 -1       803-5.36665E+05-1.42668E+07-1.89053E+06 8.98346E+05 7.67068E-08 1.20490E-08
 -1       804 2.87227E+05 2.39496E+06 1.53729E+06 6.77134E+05-1.20810E-07-9.24042E-08
 -1       805 1.89331E+05-6.45664E+06-2.86269E+05-1.00340E+06-5.00877E-08-6.69170E-08
 -1       806-3.09156E+05-5.98076E+04-2.28688E+04-1.22512E+05-5.33737E-09 4.72937E-10
 -1       807-3.10955E+05-5.60755E+04-1.12352E+04-1.28062E+05 1.24621E-08 6.09496E-09
 -1       808-3.09784E+05-5.15657E+04-4.76632E+03-1.26407E+05 2.41289E-09-5.99061E-09
 -1       809-3.08592E+05-5.29187E+04-2.33061E+03-1.28338E+05-5.04770E-09-2.29466E-08
 -1       810-3.09879E+05-5.12788E+04-1.06826E+03-1.26580E+05 1.81294E-08 4.69261E-08
 -1       811-3.08410E+05-5.27919E+04-5.31275E+02-1.28302E+05 4.22369E-09 2.29202E-08
 -1       812-3.09893E+05-5.13035E+04-2.68795E+02-1.26579E+05-1.17725E-08-4.29554E-09
 -1       813-3.08384E+05-5.27941E+04-1.74869E+02-1.28283E+05-7.95944E-09-2.09006E-08
 -1       814-3.09886E+05-5.13132E+04-1.73579E+02-1.26575E+05-8.07631E-10-8.88849E-09
 -1       815-3.08388E+05-5.27964E+04-2.79933E+02-1.28276E+05 1.24342E-08 3.80805E-08
 -1       816-3.09865E+05-5.13123E+04-5.30736E+02-1.26571E+05 6.52744E-09 4.55389E-08
 -1       817-3.08478E+05-5.28470E+04-1.13910E+03-1.28264E+05-1.97651E-08 3.63507E-08
 -1       818-3.09796E+05-5.14731E+04-2.32341E+03-1.26495E+05 8.94033E-10 4.55566E-09
 -1       819-3.09750E+05-5.42509E+04-5.46682E+03-1.27963E+05 1.24055E-09-1.09940E-08
 -1       820-3.09358E+05-5.56028E+04-1.11270E+04-1.24731E+05-5.62432E-09-1.78900E-08
 -1       821-3.78278E+05 2.09199E+04-4.86759E+04 2.08675E+03 1.39794E-08 8.30187E-09
 -1       822-3.98119E+05-2.42332E+04-3.42254E+04-4.32282E+03 5.22598E-09-4.08181E-09
 -1       823-3.85802E+05 3.29641E+03-1.25746E+04 3.34441E+03-1.06599E-08 1.26597E-08
 -1       824-3.89054E+05-3.80194E+03-7.87345E+03-5.18488E+03 1.09104E-09 9.14042E-11
 -1       825-3.87350E+05 5.12107E+02-3.29383E+03 2.94892E+03 2.19597E-08-1.53261E-09
 -1       826-3.86668E+05-5.70564E+02-1.76024E+03-2.96903E+03 2.63949E-08-9.91938E-09
 -1       827-3.88164E+05 4.95734E+01-1.18118E+03 1.12842E+03 1.22568E-08-1.97990E-08
 -1       828-3.85997E+05-1.35613E+02-6.06092E+02 1.09346E+03-8.21714E-10 1.41952E-08
 -1       829-3.88008E+05 6.78584E+01-1.16935E+03-1.11361E+03 1.75666E-09 5.69523E-09
 -1       830-3.87004E+05-6.22372E+02-1.89028E+03 4.75396E+03-1.40344E-09 4.11970E-09
 -1       831-3.87178E+05 5.52933E+02-3.36675E+03-2.53209E+03-7.40214E-09 6.96264E-09
 -1       832-3.89128E+05-3.95578E+03-8.15080E+03 5.98327E+03-5.11667E-09-5.31145E-09
 -1       833-3.85900E+05 3.41000E+03-1.30369E+04-2.34297E+03-2.71447E-09 1.16725E-08
 -1       834-3.98156E+05-2.50688E+04-3.53403E+04 4.06642E+03-1.68308E-09 3.06595E-08
 -1       835-3.78134E+05 2.16340E+04-5.03886E+04-6.15169E+02 4.89715E-09 7.65067E-09
 -1       836-1.40386E+03 3.70657E+05 2.27801E+04-1.57598E+04-6.93763E-09 4.10500E-09
 -1       837 4.85880E+03 3.77792E+05 1.93101E+04-3.22202E+04-7.50686E-09 1.45974E-09
 -1       838-5.56539E+02 3.72652E+05 1.97226E+04-1.56896E+04-6.30189E-09 1.60080E-08
 -1       839 1.24333E+04 3.83434E+05 3.73561E+04-3.22722E+04-6.90943E-09 6.36510E-09
 -1       840-3.84318E+03 3.64957E+05 5.95902E+04-1.57137E+04-6.29007E-09 2.55022E-09
 -1       856-5.21353E+04 8.02431E+03-2.11458E+04-3.97477E+02 4.96880E-09 2.55386E-09
 -1       857-6.08468E+04-9.42835E+03-1.45566E+04 5.63517E+03 5.51975E-09-1.06170E-08
 -1       858-5.55853E+04 1.12533E+03-5.48682E+03-4.21580E+02 3.34057E-09-9.90099E-09
 -1       859-5.68876E+04-1.32396E+03-3.31103E+03 5.67102E+03-5.51985E-09-1.54331E-08
 -1       860-5.61007E+04 1.57603E+02-1.38764E+03-4.33056E+02 2.42017E-09-6.55160E-09
 -1       861-5.62947E+04-1.88185E+02-7.63324E+02 5.68665E+03 9.75973E-10-5.51553E-09
 -1       862-5.61813E+04 2.13516E+01-3.17220E+02-4.37188E+02-3.80435E-10 2.31017E-09
 -1       863-5.61959E+04-2.18776E+01-1.15363E+02 5.68905E+03-4.22585E-09-5.41141E-09
 -1       864-5.62000E+04-4.92019E+00 4.76299E+01-4.35457E+02-3.48730E-09-3.77219E-09
 -1       865-5.61400E+04 5.97858E+01 2.56192E+02 5.67916E+03-2.95648E-09 4.44189E-09
 -1       866-5.62350E+04-6.03275E+01 5.16081E+02-4.27296E+02 3.56408E-11 1.19164E-09
 -1       867-5.58973E+04 4.98158E+02 1.27014E+03 5.65701E+03-1.59679E-09 1.81303E-08
 -1       868-5.64378E+04-4.35373E+02 2.11057E+03-4.13303E+02 9.35529E-10 8.19773E-09
 -1       869-5.43501E+04 3.62343E+03 5.61968E+03 5.62056E+03 1.25624E-10-1.84555E-08
 -1       870-5.77745E+04-3.10071E+03 8.15542E+03-3.90744E+02-3.88661E-09-1.21918E-08
 -1       871-5.52075E+03-2.14006E+04-1.95018E+04 1.30487E+05-4.69481E-09 1.12532E-08
 -1       872-1.98232E+03-2.59355E+04-8.16674E+03 1.69196E+05-8.75571E-09-8.01083E-09
 -1       873 4.06127E+02-2.37418E+04 5.87987E+02 1.30200E+05-4.76939E-09-9.39087E-09
 -1       874 3.30771E+03-2.13310E+04 9.77993E+03 1.69225E+05-1.13214E-08 1.07502E-08
 -1       875 6.84830E+03-2.60718E+04 2.20645E+04 1.30439E+05-3.75985E-09-8.61564E-09
 -1       876 2.93846E+05 4.95233E+04 1.51044E+04 1.17919E+05 2.11435E-09 8.70023E-09
 -1       877 2.94845E+05 5.27044E+04 8.06635E+03 1.22252E+05 1.30822E-08-2.06055E-08
 -1       878 2.95259E+05 4.78501E+04 3.37940E+03 1.19156E+05 1.48702E-10-2.13277E-10
 -1       879 2.92792E+05 5.06554E+04 1.68383E+03 1.22354E+05 4.11569E-09 1.93731E-08
 -1       880 2.95360E+05 4.78328E+04 7.84307E+02 1.19207E+05 1.91426E-09-6.14011E-09
 -1       881 2.92655E+05 5.05677E+04 4.18854E+02 1.22330E+05-2.89674E-09-1.68945E-08
 -1       882 2.95369E+05 4.78461E+04 2.67992E+02 1.19208E+05 7.99218E-10 2.06182E-09
 -1       883 2.92646E+05 5.05632E+04 2.88160E+02 1.22323E+05 4.25371E-09 1.52728E-08
 -1       884 2.95362E+05 4.78432E+04 4.58446E+02 1.19208E+05-1.92244E-10 6.53512E-09
 -1       885 2.92682E+05 5.05695E+04 9.21762E+02 1.22334E+05-1.78673E-09-1.44450E-08
 -1       886 2.95327E+05 4.78164E+04 1.85778E+03 1.19205E+05-2.26652E-09-5.26779E-09
 -1       887 2.93009E+05 5.07836E+04 4.05808E+03 1.22381E+05 5.63796E-09 7.00618E-09
 -1       888 2.95070E+05 4.78616E+04 8.17714E+03 1.19075E+05-7.85647E-10-3.42880E-09
 -1       889 2.97876E+05 5.58462E+04 1.95336E+04 1.22232E+05-5.52674E-09-8.36144E-09
 -1       890 2.91733E+05 5.18262E+04 3.65861E+04 1.15963E+05-6.53972E-09-1.12541E-08
 -1       891-8.92234E+01-1.62808E+05-1.99716E+03 2.71503E+04-8.30369E-10-1.27811E-08
 -1       892-1.75173E+02-1.63336E+05-2.14486E+03 4.12296E+04 2.49565E-09 9.65792E-09
 -1       893 4.38898E+01-1.62872E+05-3.03673E+03 2.71577E+04-3.14685E-10 7.74344E-09
 -1       894-1.51018E+03-1.64483E+05-6.28479E+03 4.10771E+04 4.93674E-09 4.75120E-09
 -1       895-1.19938E+03-1.61563E+05-1.10674E+04 2.73047E+04 4.48154E-10 1.47184E-08
 -1       956-3.77335E+05-5.44950E+03-1.34517E+04 3.09077E+04 9.67157E-09-1.84300E-08
 -1       957-3.79974E+05-1.92256E+03-6.90455E+03 3.71427E+04 3.10320E-09-1.88325E-08
 -1       958-3.78544E+05-2.41085E+02-3.11142E+03 3.07397E+04-7.16045E-09-1.74782E-08
 -1       959-3.78740E+05-1.36410E+02-1.58874E+03 3.73387E+04 1.41017E-09-2.06046E-08
 -1       960-3.78662E+05-4.49237E+01-7.74752E+02 3.07224E+04 8.64929E-09-2.38333E-09
 -1       961-3.78660E+05-6.33261E+01-4.10768E+02 3.73591E+04 2.33495E-08 1.16136E-08
 -1       962-3.78690E+05-4.61047E+01-2.35187E+02 3.07195E+04 9.11632E-09-3.89718E-10
 -1       963-3.78661E+05-5.91002E+01-1.88816E+02 3.73628E+04 2.61866E-09-4.86125E-09
 -1       964-3.78695E+05-4.27269E+01-2.29644E+02 3.07187E+04 1.14275E-09-1.85337E-08
 -1       965-3.78673E+05-5.61278E+01-3.97212E+02 3.73621E+04-5.66132E-09-2.10034E-08
 -1       966-3.78679E+05-3.48838E+01-7.46368E+02 3.07202E+04 4.86125E-10-1.16574E-08
 -1       967-3.78762E+05-1.19699E+02-1.53079E+03 3.73477E+04-1.77920E-09-9.33619E-09
 -1       968-3.78575E+05-2.17446E+02-2.99675E+03 3.07329E+04 1.70985E-10 9.55464E-09
 -1       969-3.79963E+05-1.83506E+03-6.65271E+03 3.71991E+04 1.20872E-09 1.10917E-08
 -1       970-3.77418E+05-5.23189E+03-1.29599E+04 3.08602E+04 3.13776E-10-2.61116E-09
 -1       971-3.45474E+05-1.72752E+03-9.30999E+03 1.53780E+04 5.11773E-09-4.24117E-09
 -1       972-3.47716E+05-1.27183E+03-5.07012E+03 2.12676E+04 7.33053E-09-2.05869E-08
 -1       973-3.46512E+05-6.20653E+01-2.27096E+03 1.52569E+04 3.30874E-09 7.30552E-10
 -1       974-3.46647E+05-8.11257E+01-1.17719E+03 2.14046E+04-2.10912E-09 5.54405E-09
 -1       975-3.46594E+05-1.71912E+01-5.88908E+02 1.52446E+04-7.91260E-10 1.29758E-08
 -1       976-3.46585E+05-3.12828E+01-3.40614E+02 2.14204E+04 1.62390E-09-1.28690E-08
 -1       977-3.46610E+05-1.64457E+01-2.48743E+02 1.52412E+04-9.95351E-09 9.89996E-09
 -1       978-3.46591E+05-2.50582E+01-2.93170E+02 2.14253E+04-1.23006E-08-4.32010E-10
 -1       979-3.46610E+05-7.96585E+00-4.72826E+02 1.52397E+04-4.73096E-09 5.30474E-09
 -1       980-3.46626E+05-2.19966E+01-9.14094E+02 2.14263E+04-9.22000E-10-6.14023E-09
 -1       981-3.46581E+05 1.48826E+01-1.77098E+03 1.52402E+04 3.72961E-09-1.37732E-08
 -1       982-3.46869E+05-1.52852E+02-3.66090E+03 2.14196E+04 7.54540E-09 2.45798E-09
 -1       983-3.46358E+05-9.85165E+01-7.11333E+03 1.52463E+04 1.03955E-09 2.61593E-09
 -1       984-3.50291E+05-3.86793E+03-1.59301E+04 2.13340E+04-3.11957E-09 1.00902E-08
 -1       985-3.43137E+05-5.30360E+03-2.92526E+04 1.53177E+04-1.04501E-09-7.18501E-10
 -3
    1PSTEP                        33          17           1          
  100CL  117 6.63114E-01         409                     0   17           1
 -4  DISP        4    1
 -5  D1          1    2    1    0
 -5  D2          1    2    2    0
 -5  D3          1    2    3    0
 -5  ALL         1    2    0    0    1ALL
 -1         1 2.71942E-03 0.00000E+00 0.00000E+00
 -1         2 1.35339E-03 2.59346E-28-5.29396E-23
 -1         3 3.42751E-04-5.78970E-28-1.32349E-23
 -1         5 1.77151E-04-1.45596E-27-3.30872E-24
 -1         8 2.70851E-03-4.06174E-07 0.00000E+00
 -1         9 2.70187E-03-1.91236E-04 0.00000E+00
 -1        10 3.10787E-04-3.40622E-06 0.00000E+00
 -1        12 1.78998E-04 8.09570E-07 8.27181E-25
 -1        15 2.69601E-03-4.29976E-07 0.00000E+00
 -1        16 2.76821E-03-1.93059E-04 0.00000E+00
 -1        17 2.11504E-04-7.76802E-06 0.00000E+00
 -1        18 1.82945E-04 3.44237E-05 0.00000E+00
 -1        19 1.84539E-04 1.61272E-06 0.00000E+00
 -1        20 1.84679E-04-9.87390E-06 0.00000E+00
 -1        21 1.83786E-04-2.54003E-05-3.30872E-24
 -1        24 3.06209E-05-1.19940E-05 0.00000E+00
 -1        25 1.93726E-04 3.46495E-05 0.00000E+00
 -1        26 1.94401E-04 2.23286E-06 0.00000E+00
 -1        27 1.92207E-04-1.34337E-05 0.00000E+00
 -1        28 1.91891E-04-2.60226E-05 0.00000E+00
 -1        32 0.00000E+00 0.00000E+00 0.00000E+00
 -1        33 2.03273E-04 2.98753E-06 0.00000E+00
 -1        34 2.01154E-04-1.34900E-05 0.00000E+00
 -1        35 1.99222E-04-2.63651E-05 0.00000E+00
 -1        51 2.71869E-03-8.51038E-08 0.00000E+00
 -1        52 2.71735E-03-1.51817E-07-3.30872E-24
 -1        53 2.71553E-03-2.15062E-07 0.00000E+00
 -1        54 2.71336E-03-2.77075E-07 0.00000E+00
 -1        55 2.71098E-03-3.39615E-07-8.27181E-25
 -1        56 2.71174E-03 8.46918E-06 0.00000E+00
 -1        57 2.69670E-03 3.50835E-05 0.00000E+00
 -1        58 2.67655E-03 7.41317E-05 1.05879E-22
 -1        59 2.65404E-03 1.18715E-04 0.00000E+00
 -1        60 2.63250E-03 1.60984E-04 0.00000E+00
 -1        61 2.61513E-03 1.93279E-04-5.29396E-23
 -1        62 2.60413E-03 2.09722E-04 0.00000E+00
 -1        63 2.60092E-03 2.05845E-04 0.00000E+00
 -1        64 2.60532E-03 1.80914E-04 0.00000E+00
 -1        65 2.61643E-03 1.36185E-04-5.29396E-23
 -1        66 2.63231E-03 7.66725E-05-1.05879E-22
 -1        67 2.65077E-03 8.84376E-06 0.00000E+00
 -1        68 2.66930E-03-5.92207E-05 1.05879E-22
 -1        69 2.68543E-03-1.19411E-04 0.00000E+00
 -1        70 2.69690E-03-1.65147E-04 5.29396E-23
 -1        86 1.43818E-03-6.05832E-06 0.00000E+00
 -1        87 1.68352E-03-3.80284E-05-2.64698E-23
 -1        88 2.01341E-03-9.29598E-05-2.64698E-23
 -1        89 2.34772E-03-1.49398E-04 0.00000E+00
 -1        90 2.60376E-03-1.83934E-04-5.29396E-23
 -1       121 3.41854E-04-5.49956E-07 1.32349E-23
 -1       122 3.39165E-04-1.10300E-06 6.61744E-24
 -1       123 3.34693E-04-1.66218E-06 0.00000E+00
 -1       124 3.28457E-04-2.23053E-06-6.61744E-24
 -1       125 3.20478E-04-2.81071E-06-1.32349E-23
 -1       191 1.77202E-04 1.34992E-07 0.00000E+00
 -1       192 1.77356E-04 2.69973E-07-1.65436E-24
 -1       193 1.77613E-04 4.04933E-07-3.30872E-24
 -1       194 1.77972E-04 5.39862E-07-4.13590E-25
 -1       195 1.78433E-04 6.74745E-07-2.48154E-24
 -1       251 2.70821E-03 1.66597E-06 0.00000E+00
 -1       252 2.70790E-03 3.62471E-06 0.00000E+00
 -1       253 2.70759E-03 4.48702E-06 0.00000E+00
 -1       254 2.70729E-03 3.28354E-06 0.00000E+00
 -1       255 2.70697E-03-6.41705E-07 0.00000E+00
 -1       256 2.70664E-03-7.91061E-06 3.30872E-24
 -1       257 2.70628E-03-1.86381E-05 0.00000E+00
 -1       258 2.70588E-03-3.28957E-05 0.00000E+00
 -1       259 2.70543E-03-5.02204E-05 0.00000E+00
 -1       260 2.70493E-03-7.01101E-05-6.61744E-24
 -1       261 2.70440E-03-9.16740E-05 0.00000E+00
 -1       262 2.70386E-03-1.14001E-04 6.61744E-24
 -1       263 2.70332E-03-1.36063E-04 0.00000E+00
 -1       264 2.70280E-03-1.56837E-04 0.00000E+00
 -1       265 2.70232E-03-1.75495E-04 0.00000E+00
 -1       266 2.70642E-03-4.15790E-07-3.30872E-24
 -1       267 2.70434E-03-4.19068E-07-8.27181E-25
 -1       268 2.70226E-03-4.22748E-07-8.27181E-25
 -1       269 2.70017E-03-4.25239E-07 2.06795E-25
 -1       270 2.69809E-03-4.27702E-07 2.06795E-25
 -1       271 2.70765E-03 1.00708E-07 0.00000E+00
 -1       272 2.70774E-03-2.00068E-06 0.00000E+00
 -1       273 2.70875E-03-6.55643E-06 0.00000E+00
 -1       274 2.71060E-03-1.34006E-05 0.00000E+00
 -1       275 2.71322E-03-2.23463E-05-2.64698E-23
 -1       276 2.71654E-03-3.31917E-05 0.00000E+00
 -1       277 2.72046E-03-4.57186E-05 0.00000E+00
 -1       278 2.72491E-03-5.96960E-05 0.00000E+00
 -1       279 2.72979E-03-7.48809E-05-2.64698E-23
 -1       280 2.73501E-03-9.10207E-05-6.61744E-24
 -1       281 2.74048E-03-1.07855E-04 1.32349E-23
 -1       282 2.74610E-03-1.25118E-04-6.61744E-24
 -1       283 2.75178E-03-1.42540E-04-1.32349E-23
 -1       284 2.75742E-03-1.59850E-04 6.61744E-24
 -1       285 2.76293E-03-1.76779E-04 0.00000E+00
 -1       301 2.71393E-03-1.91574E-04 0.00000E+00
 -1       302 2.72434E-03-1.91866E-04 3.30872E-24
 -1       303 2.73404E-03-1.92147E-04 0.00000E+00
 -1       304 2.74397E-03-1.92430E-04-6.61744E-24
 -1       305 2.75505E-03-1.92726E-04 0.00000E+00
 -1       306 2.73982E-03-3.46125E-04 0.00000E+00
 -1       307 2.80369E-03-7.60591E-04-1.58819E-22
 -1       308 2.85031E-03-1.36627E-03-1.05879E-22
 -1       309 2.87410E-03-2.06701E-03 5.29396E-23
 -1       310 2.90541E-03-2.73698E-03 0.00000E+00
 -1       311 2.96493E-03-3.25305E-03-5.29396E-23
 -1       312 3.02270E-03-3.53460E-03-2.11758E-22
 -1       313 3.01773E-03-3.54393E-03 0.00000E+00
 -1       314 2.87609E-03-3.29321E-03 0.00000E+00
 -1       315 2.55693E-03-2.84709E-03 0.00000E+00
 -1       316 2.07878E-03-2.28228E-03 1.05879E-22
 -1       317 1.50774E-03-1.66808E-03-5.29396E-23
 -1       318 9.58289E-04-1.06505E-03 0.00000E+00
 -1       319 5.38520E-04-5.38154E-04 0.00000E+00
 -1       320 2.92201E-04-1.61571E-04 0.00000E+00
 -1       336 2.99197E-04-4.06464E-06 1.32349E-23
 -1       337 2.85530E-04-4.74877E-06 6.61744E-24
 -1       338 2.69850E-04-5.46081E-06 0.00000E+00
 -1       339 2.52229E-04-6.20160E-06 0.00000E+00
 -1       340 2.32749E-04-6.97558E-06 0.00000E+00
 -1       406 1.79665E-04 9.44318E-07 3.30872E-24
 -1       407 1.80435E-04 1.07895E-06-4.13590E-25
 -1       408 1.81307E-04 1.21342E-06 2.06795E-24
 -1       409 1.82282E-04 1.34755E-06-4.13590E-25
 -1       410 1.83360E-04 1.48107E-06-1.65436E-24
 -1       521 2.80676E-03-3.57238E-04 1.05879E-22
 -1       522 2.86883E-03-7.92047E-04 0.00000E+00
 -1       523 2.90895E-03-1.42569E-03 0.00000E+00
 -1       524 2.92345E-03-2.15523E-03 5.29396E-23
 -1       525 2.94680E-03-2.85198E-03-1.05879E-22
 -1       526 3.00275E-03-3.39022E-03 5.29396E-23
 -1       527 3.06010E-03-3.68241E-03-2.11758E-22
 -1       528 3.05281E-03-3.68991E-03-5.29396E-23
 -1       529 2.89904E-03-3.42492E-03 0.00000E+00
 -1       530 2.55569E-03-2.96010E-03-5.29396E-23
 -1       531 2.04210E-03-2.37598E-03 0.00000E+00
 -1       532 1.43086E-03-1.74445E-03 0.00000E+00
 -1       533 8.41915E-04-1.12343E-03 1.05879E-22
 -1       534 3.88556E-04-5.75526E-04-5.29396E-23
 -1       535 1.20868E-04-1.79286E-04-2.11758E-22
 -1       536 2.10749E-04 2.71582E-05 0.00000E+00
 -1       537 2.08831E-04 8.75990E-05 0.00000E+00
 -1       538 2.05867E-04 1.64288E-04 3.30872E-24
 -1       539 2.02371E-04 2.47874E-04 1.65436E-24
 -1       540 1.99225E-04 3.26857E-04 3.30872E-24
 -1       541 1.97180E-04 3.89755E-04-1.65436E-24
 -1       542 1.96237E-04 4.29817E-04 0.00000E+00
 -1       543 1.96012E-04 4.40439E-04 1.65436E-24
 -1       544 1.95690E-04 4.22395E-04 0.00000E+00
 -1       545 1.94517E-04 3.76678E-04 1.65436E-24
 -1       546 1.92332E-04 3.11416E-04 0.00000E+00
 -1       547 1.89375E-04 2.34855E-04 0.00000E+00
 -1       548 1.86444E-04 1.58671E-04 0.00000E+00
 -1       549 1.84330E-04 9.45384E-05 0.00000E+00
 -1       550 1.83232E-04 5.04879E-05 1.65436E-24
 -1       551 1.86299E-04-8.33755E-06 0.00000E+00
 -1       552 1.57849E-04-8.98754E-06 0.00000E+00
 -1       553 1.27097E-04-9.69979E-06 3.30872E-24
 -1       554 9.50024E-05-1.04532E-05-3.30872E-24
 -1       555 6.25254E-05-1.12203E-05 0.00000E+00
 -1       556 2.03854E-04 1.17904E-05 0.00000E+00
 -1       557 1.97674E-04 2.76527E-05 2.64698E-23
 -1       558 1.92829E-04 4.01069E-05 0.00000E+00
 -1       559 1.89186E-04 4.94635E-05 0.00000E+00
 -1       560 1.86615E-04 5.60333E-05 0.00000E+00
 -1       561 1.84988E-04 6.01298E-05 0.00000E+00
 -1       562 1.84179E-04 6.20677E-05 0.00000E+00
 -1       563 1.84065E-04 6.21625E-05 0.00000E+00
 -1       564 1.84524E-04 6.07307E-05 0.00000E+00
 -1       565 1.85435E-04 5.80896E-05 0.00000E+00
 -1       566 1.86678E-04 5.45567E-05 0.00000E+00
 -1       567 1.88133E-04 5.04502E-05 0.00000E+00
 -1       568 1.89684E-04 4.60885E-05 0.00000E+00
 -1       569 1.91211E-04 4.17896E-05 0.00000E+00
 -1       570 1.92597E-04 3.78721E-05 0.00000E+00
 -1       571 1.83042E-04 3.22953E-05-1.65436E-24
 -1       572 1.83141E-04 3.01011E-05 1.24077E-24
 -1       573 1.83240E-04 2.78567E-05 0.00000E+00
 -1       574 1.83339E-04 2.55785E-05 0.00000E+00
 -1       575 1.83439E-04 2.32830E-05 3.30872E-24
 -1       576 1.83538E-04 2.09866E-05 0.00000E+00
 -1       577 1.83638E-04 1.87060E-05 3.30872E-24
 -1       578 1.83737E-04 1.64576E-05 0.00000E+00
 -1       579 1.83837E-04 1.42581E-05 0.00000E+00
 -1       580 1.83937E-04 1.21238E-05 0.00000E+00
 -1       581 1.84037E-04 1.00715E-05-6.61744E-24
 -1       582 1.84137E-04 8.11761E-06 0.00000E+00
 -1       583 1.84238E-04 6.27863E-06 6.61744E-24
 -1       584 1.84338E-04 4.57093E-06 0.00000E+00
 -1       585 1.84439E-04 3.01069E-06 0.00000E+00
 -1       586 1.84701E-04 3.44634E-05 0.00000E+00
 -1       587 1.86416E-04 3.45026E-05 0.00000E+00
 -1       588 1.88132E-04 3.45415E-05 8.27181E-25
 -1       589 1.89894E-04 3.45796E-05 0.00000E+00
 -1       590 1.91745E-04 3.46165E-05 0.00000E+00
 -1       591 1.83674E-04 3.23888E-05-1.03398E-25
 -1       592 1.84406E-04 3.03336E-05 0.00000E+00
 -1       593 1.85144E-04 2.82639E-05 0.00000E+00
 -1       594 1.85884E-04 2.61846E-05 0.00000E+00
 -1       595 1.86626E-04 2.41005E-05 0.00000E+00
 -1       596 1.87368E-04 2.20165E-05 4.13590E-25
 -1       597 1.88108E-04 1.99372E-05-8.27181E-25
 -1       598 1.88845E-04 1.78676E-05 0.00000E+00
 -1       599 1.89576E-04 1.58124E-05-8.27181E-25
 -1       600 1.90300E-04 1.37764E-05 0.00000E+00
 -1       601 1.91015E-04 1.17644E-05 0.00000E+00
 -1       602 1.91720E-04 9.78106E-06-4.13590E-25
 -1       603 1.92412E-04 7.83132E-06 0.00000E+00
 -1       604 1.93090E-04 5.92004E-06-5.16988E-26
 -1       605 1.93752E-04 4.05189E-06 0.00000E+00
 -1       606 1.84552E-04 4.48284E-07 0.00000E+00
 -1       607 1.84562E-04-6.30343E-07-1.65436E-24
 -1       608 1.84571E-04-1.62820E-06 0.00000E+00
 -1       609 1.84579E-04-2.55096E-06 1.65436E-24
 -1       610 1.84588E-04-3.40436E-06-3.30872E-24
 -1       611 1.84596E-04-4.19420E-06 0.00000E+00
 -1       612 1.84604E-04-4.92627E-06 0.00000E+00
 -1       613 1.84613E-04-5.60639E-06 0.00000E+00
 -1       614 1.84621E-04-6.24036E-06 0.00000E+00
 -1       615 1.84629E-04-6.83398E-06 0.00000E+00
 -1       616 1.84638E-04-7.39308E-06 0.00000E+00
 -1       617 1.84646E-04-7.92346E-06-4.13590E-25
 -1       618 1.84655E-04-8.43091E-06 0.00000E+00
 -1       619 1.84663E-04-8.92127E-06 0.00000E+00
 -1       620 1.84671E-04-9.40033E-06 0.00000E+00
 -1       621 1.85898E-04 1.71664E-06-3.30872E-24
 -1       622 1.87416E-04 1.82080E-06-8.27181E-25
 -1       623 1.89058E-04 1.92474E-06 3.30872E-24
 -1       624 1.90793E-04 2.02837E-06 8.27181E-25
 -1       625 1.92585E-04 2.13170E-06 0.00000E+00
 -1       626 1.85088E-04 4.84396E-07 0.00000E+00
 -1       627 1.85614E-04-5.80921E-07 0.00000E+00
 -1       628 1.86120E-04-1.59108E-06 0.00000E+00
 -1       629 1.86608E-04-2.55425E-06 0.00000E+00
 -1       630 1.87081E-04-3.47862E-06 0.00000E+00
 -1       631 1.87544E-04-4.37240E-06-1.65436E-24
 -1       632 1.87998E-04-5.24378E-06-3.30872E-24
 -1       633 1.88446E-04-6.10099E-06-1.65436E-24
 -1       634 1.88892E-04-6.95223E-06-3.30872E-24
 -1       635 1.89340E-04-7.80571E-06 0.00000E+00
 -1       636 1.89791E-04-8.66964E-06 3.30872E-24
 -1       637 1.90249E-04-9.55223E-06-1.65436E-24
 -1       638 1.90717E-04-1.04617E-05 3.30872E-24
 -1       639 1.91198E-04-1.14063E-05 8.27181E-25
 -1       640 1.91694E-04-1.23942E-05-3.30872E-24
 -1       656 1.85385E-04-1.04525E-05 6.61744E-24
 -1       657 1.86511E-04-1.10546E-05-6.61744E-24
 -1       658 1.87918E-04-1.16553E-05 0.00000E+00
 -1       659 1.89459E-04-1.22557E-05 0.00000E+00
 -1       660 1.90950E-04-1.28579E-05-6.61744E-24
 -1       661 1.84943E-04-1.03926E-05 8.27181E-25
 -1       662 1.85245E-04-1.10031E-05-8.27181E-25
 -1       663 1.85579E-04-1.17003E-05 1.65436E-24
 -1       664 1.85944E-04-1.24777E-05 0.00000E+00
 -1       665 1.86337E-04-1.33293E-05-1.65436E-24
 -1       666 1.86755E-04-1.42494E-05 8.27181E-25
 -1       667 1.87197E-04-1.52322E-05 0.00000E+00
 -1       668 1.87660E-04-1.62721E-05 0.00000E+00
 -1       669 1.88143E-04-1.73638E-05 1.65436E-24
 -1       670 1.88643E-04-1.85019E-05 0.00000E+00
 -1       671 1.89158E-04-1.96812E-05-1.65436E-24
 -1       672 1.89686E-04-2.08967E-05 0.00000E+00
 -1       673 1.90227E-04-2.21433E-05 1.65436E-24
 -1       674 1.90776E-04-2.34162E-05 0.00000E+00
 -1       675 1.91333E-04-2.47103E-05 2.06795E-25
 -1       676 1.85142E-04-2.55046E-05 0.00000E+00
 -1       677 1.86496E-04-2.56089E-05 1.65436E-24
 -1       678 1.87850E-04-2.57131E-05 0.00000E+00
 -1       679 1.89200E-04-2.58170E-05 0.00000E+00
 -1       680 1.90548E-04-2.59209E-05 1.65436E-24
 -1       771 1.86658E-05 1.47406E-05 0.00000E+00
 -1       772 8.60803E-06 3.66980E-05 0.00000E+00
 -1       773 3.56730E-07 5.41086E-05-5.29396E-23
 -1       774-6.21245E-06 6.72302E-05 2.64698E-23
 -1       775-1.12212E-05 7.63312E-05 0.00000E+00
 -1       776-1.47961E-05 8.16970E-05-2.64698E-23
 -1       777-1.70635E-05 8.36226E-05 0.00000E+00
 -1       778-1.81524E-05 8.24174E-05-2.64698E-23
 -1       779-1.81910E-05 7.83989E-05 0.00000E+00
 -1       780-1.73099E-05 7.18961E-05-2.64698E-23
 -1       781-1.56382E-05 6.32451E-05 5.29396E-23
 -1       782-1.33072E-05 5.27904E-05 0.00000E+00
 -1       783-1.04467E-05 4.08816E-05 0.00000E+00
 -1       784-7.18817E-06 2.78740E-05 0.00000E+00
 -1       785-3.66190E-06 1.41265E-05 0.00000E+00
 -1       786 1.93764E-04 3.23960E-05 3.23117E-27
 -1       787 1.93805E-04 3.01920E-05-4.13590E-25
 -1       788 1.93847E-04 2.80293E-05 0.00000E+00
 -1       789 1.93889E-04 2.58999E-05 0.00000E+00
 -1       790 1.93931E-04 2.37993E-05 0.00000E+00
 -1       791 1.93973E-04 2.17226E-05 0.00000E+00
 -1       792 1.94016E-04 1.96679E-05 1.65436E-24
 -1       793 1.94058E-04 1.76330E-05 8.27181E-25
 -1       794 1.94101E-04 1.56178E-05 0.00000E+00
 -1       795 1.94143E-04 1.36223E-05 8.27181E-25
 -1       796 1.94186E-04 1.16483E-05-1.65436E-24
 -1       797 1.94229E-04 9.69793E-06-8.27181E-25
 -1       798 1.94272E-04 7.77544E-06 0.00000E+00
 -1       799 1.94314E-04 5.88529E-06 8.27181E-25
 -1       800 1.94357E-04 4.03517E-06 0.00000E+00
 -1       801 1.47929E-04 3.11499E-05 0.00000E+00
 -1       802 9.46043E-06 1.94332E-05 0.00000E+00
 -1       803-1.08817E-04 9.81562E-06 0.00000E+00
 -1       804-9.64630E-05 6.83213E-06 2.64698E-23
 -1       805-3.18715E-05 2.68477E-06 0.00000E+00
 -1       806 1.94456E-04 3.23274E-05 1.65436E-24
 -1       807 1.95171E-04 3.00315E-05 1.65436E-24
 -1       808 1.95874E-04 2.77669E-05 0.00000E+00
 -1       809 1.96564E-04 2.55377E-05 0.00000E+00
 -1       810 1.97239E-04 2.33480E-05 0.00000E+00
 -1       811 1.97897E-04 2.12016E-05 0.00000E+00
 -1       812 1.98538E-04 1.91026E-05 3.30872E-24
 -1       813 1.99160E-04 1.70549E-05 0.00000E+00
 -1       814 1.99761E-04 1.50624E-05-3.30872E-24
 -1       815 2.00340E-04 1.31289E-05 0.00000E+00
 -1       816 2.00895E-04 1.12585E-05 0.00000E+00
 -1       817 2.01426E-04 9.45502E-06 8.27181E-25
 -1       818 2.01930E-04 7.72230E-06 1.65436E-24
 -1       819 2.02407E-04 6.06427E-06 8.27181E-25
 -1       820 2.02854E-04 4.48475E-06-1.65436E-24
 -1       821 1.94272E-04-1.04456E-07 0.00000E+00
 -1       822 1.94132E-04-3.55431E-06 0.00000E+00
 -1       823 1.93991E-04-7.70123E-06 3.30872E-24
 -1       824 1.93846E-04-1.21253E-05 1.65436E-24
 -1       825 1.93703E-04-1.63321E-05-3.30872E-24
 -1       826 1.93561E-04-1.98279E-05-1.65436E-24
 -1       827 1.93423E-04-2.23129E-05 3.30872E-24
 -1       828 1.93287E-04-2.34931E-05-1.65436E-24
 -1       829 1.93151E-04-2.34292E-05 0.00000E+00
 -1       830 1.93015E-04-2.21895E-05 0.00000E+00
 -1       831 1.92878E-04-2.01620E-05 3.30872E-24
 -1       832 1.92740E-04-1.77393E-05-1.65436E-24
 -1       833 1.92603E-04-1.54217E-05-3.30872E-24
 -1       834 1.92468E-04-1.37087E-05-1.65436E-24
 -1       835 1.92333E-04-1.29361E-05 8.27181E-25
 -1       836 1.96089E-04 2.35804E-06 0.00000E+00
 -1       837 1.97653E-04 2.48633E-06 0.00000E+00
 -1       838 1.99122E-04 2.61456E-06-3.30872E-24
 -1       839 2.00527E-04 2.74209E-06 0.00000E+00
 -1       840 2.01901E-04 2.86945E-06 8.27181E-25
 -1       856 1.92191E-04-1.44957E-05 0.00000E+00
 -1       857 1.92172E-04-1.54219E-05 0.00000E+00
 -1       858 1.92153E-04-1.62334E-05 0.00000E+00
 -1       859 1.92133E-04-1.69513E-05 2.06795E-25
 -1       860 1.92113E-04-1.75970E-05 0.00000E+00
 -1       861 1.92093E-04-1.81917E-05 0.00000E+00
 -1       862 1.92074E-04-1.87567E-05-4.13590E-25
 -1       863 1.92054E-04-1.93134E-05-4.13590E-25
 -1       864 1.92034E-04-1.98831E-05 8.27181E-25
 -1       865 1.92014E-04-2.04871E-05 0.00000E+00
 -1       866 1.91994E-04-2.11468E-05-8.27181E-25
 -1       867 1.91974E-04-2.18834E-05 4.13590E-25
 -1       868 1.91954E-04-2.27182E-05 8.27181E-25
 -1       869 1.91934E-04-2.36723E-05 4.13590E-25
 -1       870 1.91913E-04-2.47668E-05 0.00000E+00
 -1       871 1.93557E-04-1.34387E-05 0.00000E+00
 -1       872 1.95054E-04-1.34470E-05 0.00000E+00
 -1       873 1.96631E-04-1.34560E-05 0.00000E+00
 -1       874 1.98219E-04-1.34658E-05-1.03398E-25
 -1       875 1.99749E-04-1.34762E-05 8.27181E-25
 -1       876 1.92733E-04-1.44811E-05-3.30872E-24
 -1       877 1.93236E-04-1.54617E-05 0.00000E+00
 -1       878 1.93717E-04-1.63833E-05 3.30872E-24
 -1       879 1.94180E-04-1.72535E-05 0.00000E+00
 -1       880 1.94626E-04-1.80797E-05-3.30872E-24
 -1       881 1.95058E-04-1.88691E-05 0.00000E+00
 -1       882 1.95480E-04-1.96292E-05-3.30872E-24
 -1       883 1.95893E-04-2.03674E-05 0.00000E+00
 -1       884 1.96301E-04-2.10909E-05 0.00000E+00
 -1       885 1.96706E-04-2.18071E-05-1.65436E-24
 -1       886 1.97111E-04-2.25233E-05 0.00000E+00
 -1       887 1.97519E-04-2.32469E-05 1.65436E-24
 -1       888 1.97932E-04-2.39853E-05-3.30872E-24
 -1       889 1.98352E-04-2.47459E-05 1.65436E-24
 -1       890 1.98783E-04-2.55361E-05 0.00000E+00
 -1       891 1.93256E-04-2.60801E-05 1.65436E-24
 -1       892 1.94596E-04-2.61378E-05 0.00000E+00
 -1       893 1.95888E-04-2.61954E-05 8.27181E-25
 -1       894 1.97106E-04-2.62528E-05 4.13590E-25
 -1       895 1.98226E-04-2.63098E-05 0.00000E+00
 -1       956 2.03143E-04 1.66514E-06 1.65436E-24
 -1       957 2.03010E-04 4.34477E-07 8.27181E-25
 -1       958 2.02878E-04-7.15224E-07 3.30872E-24
 -1       959 2.02745E-04-1.79531E-06 0.00000E+00
 -1       960 2.02612E-04-2.81719E-06 3.30872E-24
 -1       961 2.02479E-04-3.79229E-06 0.00000E+00
 -1       962 2.02346E-04-4.73205E-06 0.00000E+00
 -1       963 2.02213E-04-5.64795E-06 0.00000E+00
 -1       964 2.02081E-04-6.55144E-06 0.00000E+00
 -1       965 2.01948E-04-7.45397E-06 0.00000E+00
 -1       966 2.01815E-04-8.36703E-06 0.00000E+00
 -1       967 2.01682E-04-9.30205E-06 0.00000E+00
 -1       968 2.01550E-04-1.02705E-05 0.00000E+00
 -1       969 2.01417E-04-1.12838E-05 3.30872E-24
 -1       970 2.01285E-04-1.23533E-05-3.30872E-24
 -1       971 2.01034E-04-1.46263E-05 0.00000E+00
 -1       972 2.00913E-04-1.56681E-05 1.65436E-24
 -1       973 2.00792E-04-1.66257E-05 0.00000E+00
 -1       974 2.00670E-04-1.75100E-05-1.65436E-24
 -1       975 2.00549E-04-1.83319E-05 0.00000E+00
 -1       976 2.00427E-04-1.91022E-05 0.00000E+00
 -1       977 2.00306E-04-1.98317E-05 0.00000E+00
 -1       978 2.00184E-04-2.05315E-05 0.00000E+00
 -1       979 2.00063E-04-2.12124E-05 3.30872E-24
 -1       980 1.99942E-04-2.18852E-05 0.00000E+00
 -1       981 1.99820E-04-2.25610E-05 0.00000E+00
 -1       982 1.99699E-04-2.32507E-05 0.00000E+00
 -1       983 1.99578E-04-2.39650E-05 0.00000E+00
 -1       984 1.99457E-04-2.47150E-05 0.00000E+00
 -1       985 1.99337E-04-2.55115E-05 0.00000E+00
 -3
    1PSTEP                        34          17           1          
  100CL  117 6.63114E-01         409                     0   17           1
 -4  STRESS      6    1
 -5  SXX         1    4    1    1
 -5  SYY         1    4    2    2
 -5  SZZ         1    4    3    3
 -5  SXY         1    4    1    2
 -5  SYZ         1    4    2    3
 -5  SZX         1    4    3    1
 -1         1-5.33957E+06-1.60182E+06-1.13375E+06-1.36590E+06-1.36788E-09 3.16068E-08
 -1         2 1.45225E+06 2.13194E+07 4.98032E+06 6.43441E+06 2.69793E-08-1.27300E-07
 -1         3-1.48885E+03-1.56151E+06 4.06470E+02-2.21687E+03-3.45590E-10-5.08735E-08
 -1         5-7.53016E+01 3.86562E+05 9.98729E+00-1.34379E+00-4.09376E-10 1.23473E-08
 -1         8-5.60704E+05-2.02082E+05-6.33462E+04-2.45995E+05 2.72848E-11 2.83653E-08
 -1         9 1.17412E+07 3.73603E+06 2.76709E+06-3.56309E+05 5.93718E-09-1.48499E-07
 -1        10-2.30628E+03-1.62721E+06-3.95349E+03-1.50001E+04-1.40662E-08-1.97418E-08
 -1        12-7.13812E+01 3.86584E+05 3.28308E+02-9.15885E+00-7.37121E-10-3.63798E-11
 -1        15 9.35938E+02 5.14345E+02 3.02539E+03 8.42983E-01-1.96337E-10 1.52873E-08
 -1        16 2.28956E+07-3.25105E+05 3.11806E+06-2.26591E+06 1.96160E-08 1.00816E-07
 -1        17 8.37910E+06 6.28075E+06 2.26386E+06 6.00996E+06 2.40747E-08 3.63099E-08
 -1        18 1.41898E+05 3.32383E+04 3.85611E+03-1.19722E+05 1.19744E-08-9.76252E-09
 -1        19 1.22455E+05 1.41695E+05-9.50440E+02 2.19909E+04 1.68875E-09-5.63996E-09
 -1        20-8.19948E+04-5.73898E+05-1.28779E+05 2.51158E+04-2.17036E-09 1.89132E-08
 -1        21-4.55860E+01-2.96079E+05-9.24176E+02 2.75293E+02 1.19936E-08-1.15156E-08
 -1        24 1.40317E+07 1.20880E+07 3.88537E+06 1.11928E+07-1.63913E-07-5.36675E-08
 -1        25 1.24856E+05 2.67737E+05 1.00083E+05-6.46071E+05 1.17871E-10 4.61441E-09
 -1        26-5.60444E+04 9.19373E+04-2.51935E+04 1.47393E+03 4.14366E-10 1.42830E-09
 -1        27-7.54922E+04-3.10032E+05-1.13312E+05 6.89749E+04 2.94358E-09-5.64493E-10
 -1        28 2.22456E+04-8.53681E+04 1.69016E+04 2.06159E+04-2.46996E-09-1.11728E-09
 -1        32-1.68068E+06-3.18112E+06-1.97384E+05 4.58035E+05-4.30155E-08-1.14867E-08
 -1        33-1.78561E+05 9.31061E+04 3.24153E+04-3.82529E+04-2.78741E-09 1.52889E-08
 -1        34-2.23658E+05-2.50497E+04 6.89971E+02 7.56919E+04-6.17559E-09 6.09695E-09
 -1        35-2.29360E+04-3.38543E+04-1.34878E+03 5.15081E+04-2.71400E-09-5.43878E-09
 -1        51 6.06286E+04-1.72509E+05 1.28234E+05-4.40956E+05-1.45519E-10 1.09067E-07
 -1        52 2.05290E+04-1.50113E+05 6.72757E+04-5.14279E+05-3.67436E-10 1.37585E-07
 -1        53 4.18832E+03-1.65485E+05 3.50144E+04-4.39438E+05 4.51109E-10-2.02308E-07
 -1        54 7.39777E+03-1.61275E+05 2.87332E+04-5.15767E+05 2.76486E-10-4.21993E-07
 -1        55 1.61174E+04-1.68299E+05 3.49053E+04-4.39344E+05 1.41881E-10-1.22425E-07
 -1        56-9.77672E+06-1.35897E+06-9.11019E+05-4.07131E+06-5.20959E-09-1.08528E-07
 -1        57-1.10394E+07-8.55370E+05-5.49017E+05-2.74279E+06 4.40414E-08 3.02767E-07
 -1        58-9.60123E+06-1.81813E+06-2.00949E+05-4.25388E+06 2.04309E-08 2.13622E-08
 -1        59-1.11962E+07-3.30375E+05-1.08853E+05-2.67256E+06-6.72298E-09-8.35571E-08
 -1        60-9.69322E+06-1.82253E+06-5.68863E+04-4.20635E+06 2.46728E-08-1.58827E-07
 -1        61-1.05702E+07-6.54609E+05 1.34217E+04-2.92046E+06-4.24916E-09-4.56504E-07
 -1        62-1.00990E+07-1.58039E+06-7.27828E+04-3.90477E+06 2.10566E-08-5.93500E-08
 -1        63-9.70221E+06-1.34523E+06 5.06234E+04-3.60479E+06 2.69283E-08 9.74978E-08
 -1        64-1.04594E+07-1.20439E+06-6.68822E+04-3.45732E+06-2.90456E-08 1.16226E-07
 -1        65-9.32890E+06-1.93518E+06 1.06828E+04-4.48234E+06 6.74481E-09-7.96572E-08
 -1        66-1.05911E+07-9.08026E+05-4.67840E+04-3.11669E+06 2.63899E-08-2.13195E-07
 -1        67-9.33477E+06-2.18831E+06-9.80238E+04-4.89741E+06-2.95331E-08 1.78834E-07
 -1        68-1.05715E+07-8.68590E+05-1.86223E+05-3.11611E+06-6.50725E-08-3.53321E-08
 -1        69-9.52142E+06-2.27501E+06-4.88715E+05-4.44918E+06-3.57213E-08-6.62112E-08
 -1        70-1.02956E+07-9.09335E+05-8.35822E+05-3.49251E+06 3.26809E-08-1.07160E-07
 -1        86-1.48145E+06-1.53262E+07-2.72552E+06-3.02421E+06-2.63692E-07-2.21480E-07
 -1        87 2.32138E+06 6.10292E+06 2.26719E+06 5.62512E+06-4.51153E-07-1.03548E-07
 -1        88-4.33196E+05-1.98534E+06 2.13406E+05-2.52691E+06-4.06973E-07-4.43561E-09
 -1        89 3.10931E+06 5.81755E+06 2.32284E+06 5.81112E+06-5.59208E-07-3.01166E-07
 -1        90-2.17897E+06-1.51144E+07-2.94421E+06-3.23782E+06-1.52275E-07 2.95957E-07
 -1       121-2.03960E+03-1.56641E+06-5.47142E+02 1.09879E+03 1.47800E-09-5.02041E-09
 -1       122-1.30265E+03-1.56157E+06 7.70815E+02-4.43777E+03-5.50770E-09 1.19471E-08
 -1       123-2.05938E+03-1.56655E+06 2.62431E+02 3.28158E+03 4.38922E-09 3.50774E-08
 -1       124 3.36977E+02-1.56112E+06 2.95455E+03-9.28506E+03-1.00508E-08 4.67699E-08
 -1       125-2.86980E+03-1.56745E+06 3.46759E+03 5.90011E+03 7.01220E-09 7.75617E-09
 -1       191-7.93539E+01 3.86580E+05 8.49217E+00 7.00666E-01-5.84682E-10-3.39060E-09
 -1       192-7.62659E+01 3.86563E+05 2.13126E+01-4.30779E+00-8.85457E-10-1.81390E-08
 -1       193-8.18921E+01 3.86580E+05 3.62844E+01 3.78328E+00-1.12778E-09-4.35648E-09
 -1       194-7.93574E+01 3.86566E+05 8.10211E+01-9.77479E+00-5.93310E-10 4.80577E-09
 -1       195-8.67638E+01 3.86578E+05 1.55117E+02 6.36115E+00-1.49368E-09-2.61025E-09
 -1       251-8.66272E+05 1.61030E+04-3.76079E+04-1.41804E+04 3.95237E-09 7.91715E-08
 -1       252-8.80626E+05-1.86295E+04-2.61832E+04 4.96907E+04-8.62582E-09-1.18369E-07
 -1       253-8.74544E+05 2.47241E+03-1.01083E+04-1.00830E+04 3.03476E-09-5.56379E-08
 -1       254-8.67502E+05-2.98526E+03-4.59177E+03 3.54219E+04-9.18646E-09 1.15780E-08
 -1       255-8.78807E+05 6.95212E+01-3.47030E+03 8.51332E+01 6.98992E-09 2.03718E-07
 -1       256-8.62234E+05-2.77167E+02 1.09193E+03 1.23181E+04-1.79128E-08 1.60258E-07
 -1       257-8.79384E+05-5.51317E+02-1.33980E+03 1.30101E+04 4.82896E-09 6.41825E-08
 -1       258-8.64909E+05 8.78109E+02 2.63612E+03-1.20113E+04-1.21786E-08 1.83762E-08
 -1       259-8.76369E+05-9.02740E+02 1.38895E+03 2.44122E+04 5.55588E-09 7.32822E-08
 -1       260-8.71033E+05 2.87714E+03 5.53727E+03-2.95737E+04 1.96951E-09 9.03097E-08
 -1       261-8.73871E+05-2.07823E+03 8.63289E+03 3.05876E+04 2.01611E-08 2.25518E-08
 -1       262-8.69610E+05 1.16895E+04 2.14385E+04-3.47007E+04-2.50169E-08 1.24896E-08
 -1       263-8.78033E+05-9.49460E+03 3.39774E+04 2.95482E+04 1.01487E-08 1.10625E-07
 -1       264-8.39334E+05 6.67830E+04 9.40259E+04-2.56089E+04 3.80274E-08 3.92130E-07
 -1       265-9.03665E+05-5.72939E+04 1.31008E+05 2.14843E+04 2.86133E-08 3.36448E-07
 -1       266-1.69438E+04-7.92375E+03 3.97511E+04-1.80358E+01 3.63798E-12-1.63916E-07
 -1       267 1.96423E+04 9.23403E+03 2.80975E+04 2.08115E+01-1.80989E-10-3.44561E-07
 -1       268-2.63400E+03-1.30786E+03 1.04436E+04-2.65165E+00-1.59162E-11 3.19795E-08
 -1       269 3.10997E+03 1.56516E+03 6.78827E+03 3.08888E+00-1.53818E-10-1.61753E-07
 -1       270-4.66809E+02-2.57169E+02 3.27679E+03-4.19178E-01 1.97360E-10-5.86959E-08
 -1       271-1.49235E+06-1.89601E+05-1.12348E+05-5.80458E+05 3.72711E-09-8.21965E-08
 -1       272-1.49031E+06-3.02330E+05-7.06577E+04-6.17175E+05-4.89672E-08-4.39468E-09
 -1       273-1.51601E+06-2.13622E+05-2.72090E+04-5.72452E+05 3.03189E-08 3.53653E-07
 -1       274-1.46325E+06-2.73442E+05-1.42110E+04-6.32182E+05-4.29773E-08 1.91612E-07
 -1       275-1.52158E+06-2.13294E+05-6.75912E+03-5.68722E+05 1.20599E-08 1.19266E-07
 -1       276-1.45753E+06-2.74294E+05-2.88409E+03-6.40637E+05-1.14887E-08 2.77032E-07
 -1       277-1.52437E+06-2.10726E+05-1.86675E+03-5.66019E+05 2.14386E-08 1.77224E-08
 -1       278-1.45529E+06-2.77471E+05-7.31239E+02-6.46854E+05-2.00771E-08 6.09530E-08
 -1       279-1.52615E+06-2.08614E+05-8.77988E+02-5.64119E+05-1.30876E-08-1.84790E-07
 -1       280-1.45423E+06-2.79879E+05-1.02585E+03-6.50953E+05 6.47760E-08 7.61372E-08
 -1       281-1.52710E+06-2.07271E+05-1.89382E+03-5.63044E+05-1.61554E-08 4.20378E-07
 -1       282-1.45460E+06-2.82116E+05-4.40773E+03-6.52649E+05-2.73303E-09 3.83563E-08
 -1       283-1.52659E+06-2.05991E+05-7.84385E+03-5.62912E+05-1.49316E-08 2.33022E-08
 -1       284-1.46162E+06-2.92429E+05-2.13698E+04-6.50466E+05-7.27706E-08 2.67000E-07
 -1       285-1.52003E+06-1.98155E+05-3.33543E+04-5.64714E+05 3.81897E-09 1.76227E-07
 -1       301-6.45394E+03-6.45634E+05 1.67066E+05-1.13359E+06-2.47383E-10-2.41416E-08
 -1       302-8.04991E+03-5.99012E+05 1.00543E+05-1.65467E+06 5.14410E-09 6.61894E-08
 -1       303-2.12263E+04-6.37971E+05 5.68512E+04-1.13048E+06 1.14742E-08 3.41217E-07
 -1       304-2.39281E+04-6.05930E+05 5.72896E+04-1.65408E+06-2.35596E-08 2.97296E-08
 -1       305-2.55030E+04-6.26774E+05 7.05369E+04-1.13358E+06 4.16367E-09 1.85100E-08
 -1       306-3.01513E+07-6.22399E+06-8.61689E+06-5.08250E+05-7.61356E-08 8.11706E-08
 -1       307 2.53596E+07 3.28010E+06 5.51745E+06-1.52472E+07-8.58752E-07 2.96859E-07
 -1       308-6.94977E+06-1.02389E+06-4.47156E+05 5.21404E+06-2.92755E-07-2.22062E-08
 -1       309-3.23000E+06 8.76070E+06 2.29189E+06-2.06998E+07 3.61804E-07 1.94668E-08
 -1       310-1.26031E+07-1.95112E+06-2.04772E+06 5.22451E+06-1.95636E-07-3.92465E-08
 -1       311 3.85550E+07 1.10415E+04 7.29859E+06-8.78842E+06 5.45318E-07-3.47965E-07
 -1       312-3.19762E+07-6.79422E+06-8.55644E+06-5.06495E+06-1.92667E-07 3.55445E-07
 -1       313 4.54735E+07 1.50934E+07 1.06877E+07 2.38751E+07-3.54659E-07 5.26925E-07
 -1       314-1.72121E+07-1.78345E+07-7.53447E+06-1.25467E+07 3.78408E-07-1.07102E-08
 -1       315-1.86687E+06 2.98000E+07 5.67420E+06 1.05229E+07-2.65456E-07-1.00496E-07
 -1       316 1.41649E+06-9.84292E+06-4.36055E+05-2.51306E+06-1.27670E-06-8.93488E-08
 -1       317-1.71123E+07 2.24490E+07 2.24619E+06-8.86288E+06 7.06030E-07-8.61604E-07
 -1       318-1.07665E+06-1.28224E+07-2.05370E+06-4.24023E+06-1.03805E-06 2.04775E-07
 -1       319 7.25706E+06 3.20496E+07 7.05898E+06 1.66631E+07-5.68034E-08 2.04396E-07
 -1       320-2.26314E+07-1.76764E+07-9.87503E+06-1.28352E+07 1.97906E-07-5.62868E-08
 -1       336-7.43798E+02-1.69570E+06-1.38689E+04 8.93014E+03-2.61134E-08 1.59707E-08
 -1       337-5.41549E+03-1.69525E+06-1.80980E+04-2.16907E+04-4.78303E-08-1.52813E-08
 -1       338 2.78415E+02-1.69518E+06-2.85052E+04 1.25095E+04-3.43325E-08-2.57787E-08
 -1       339-3.02479E+04-1.71251E+06-6.44276E+04-2.87017E+04-6.38056E-08-5.01677E-09
 -1       340 1.99288E+04-1.68062E+06-1.01489E+05 1.58102E+04-4.15530E-08 1.14851E-08
 -1       406-4.96639E+01 3.86563E+05 6.44629E+02 3.35100E+00-1.86184E-09-9.52605E-09
 -1       407 1.55004E+02 3.86697E+05 1.37761E+03 2.34039E+01-4.55003E-10-9.25957E-09
 -1       408 6.35411E+02 3.86462E+05 2.74685E+03-2.70759E+01-2.21235E-09-1.27711E-08
 -1       409 2.90908E+03 3.87575E+05 6.19115E+03 2.89081E+02-4.26667E-10-1.93522E-08
 -1       410 8.48597E+03 3.85672E+05 1.26359E+04-2.78780E+02-2.94676E-09-9.02219E-10
 -1       521-3.17139E+07-7.68948E+06-1.00755E+07-1.13490E+05-9.22009E-08 8.31787E-08
 -1       522 2.62428E+07 4.31899E+06 5.63022E+06-1.87720E+07-4.85423E-07-4.25003E-07
 -1       523-7.52261E+06-1.33849E+06-4.38608E+05 5.66538E+06 4.94765E-08-1.15338E-07
 -1       524-6.73682E+06 1.18413E+07 2.48141E+06-2.37752E+07 9.79955E-07 1.13869E-08
 -1       525-1.34013E+07-2.59207E+06-2.25297E+06 5.68042E+06 6.76839E-07-3.40282E-07
 -1       526 4.21273E+07-8.40391E+04 7.66469E+06-1.14426E+07 3.54834E-07 1.81841E-07
 -1       527-3.38436E+07-8.50133E+06-9.87038E+06-4.92831E+06 2.94065E-07 5.12955E-08
 -1       528 4.96853E+07 1.68410E+07 1.11554E+07 2.71730E+07 5.66361E-08-3.82541E-07
 -1       529-1.81572E+07-2.00627E+07-8.64505E+06-1.25789E+07 4.16534E-07-4.79631E-08
 -1       530-4.35436E+06 3.46301E+07 6.00970E+06 9.96960E+06 2.60392E-07 3.33821E-07
 -1       531 1.42032E+06-1.09182E+07-4.08303E+05-2.45387E+06-8.76331E-07 9.86620E-08
 -1       532-1.96201E+07 2.44629E+07 2.45692E+06-1.31874E+07 3.48111E-07-6.85985E-07
 -1       533-1.11846E+06-1.39816E+07-2.18906E+06-4.04058E+06-3.44618E-07-1.00996E-06
 -1       534 5.25356E+06 3.72260E+07 7.35204E+06 1.72509E+07-9.98261E-08 6.89237E-07
 -1       535-2.38233E+07-2.00904E+07-1.13308E+07-1.29086E+07 7.06641E-08 4.92437E-07
 -1       536-7.06153E+05-4.68007E+04-4.80680E+04-5.46961E+04-2.66937E-10 6.27088E-08
 -1       537-5.48635E+04 4.47484E+04 8.40054E+04 1.23870E+05-1.16174E-07 1.10794E-07
 -1       538-3.94408E+05 3.33831E+03 3.58280E+03-7.22129E+04 2.87539E-08 1.00328E-07
 -1       539-2.69022E+05 2.86347E+03 2.49414E+04 1.38760E+05 1.43126E-07 1.09215E-07
 -1       540-4.97373E+05-4.30044E+02-2.13227E+04-7.01202E+04 3.40733E-08 1.00103E-07
 -1       541 1.46792E+05 1.69774E+04 1.06416E+05 9.79449E+04-6.22276E-09 7.15240E-08
 -1       542-7.99017E+05-2.01400E+04-8.42550E+04-3.05231E+04 4.17240E-08 3.93560E-08
 -1       543 4.05522E+05 2.73316E+04 1.58006E+05-1.33657E+04 1.96578E-08-1.34842E-08
 -1       544-7.49164E+05-1.65403E+04-7.48528E+04 4.05206E+04-4.58599E-08-5.15060E-08
 -1       545 2.90521E+04 9.48451E+03 7.98244E+04-1.13644E+05-1.25865E-08-7.41259E-08
 -1       546-4.32658E+05 6.09812E+03-1.22355E+04 6.94085E+04 1.42711E-08-1.02284E-07
 -1       547-2.87114E+05-4.66199E+03 1.05793E+04-1.41607E+05-1.06142E-07-1.03847E-07
 -1       548-4.41498E+05 4.72456E+03-2.39018E+04 6.91754E+04-1.07665E-07-8.31892E-08
 -1       549 4.82325E+04 1.60495E+04 6.04916E+04-1.11503E+05-7.77691E-08-7.40304E-08
 -1       550-7.59032E+05-2.21229E+04-1.29053E+05 3.85884E+04 8.84575E-09-3.03171E-08
 -1       551 4.08183E+04-7.51779E+05-1.58398E+04-1.24750E+06-1.01412E-07 3.28873E-09
 -1       552 9.33086E+04-7.96768E+05 9.95945E+03-1.77878E+06-7.04749E-08 1.09430E-08
 -1       553 7.17926E+04-7.93175E+05 3.20766E+04-1.24085E+06-1.20126E-07 2.59606E-08
 -1       554 1.32112E+05-8.12658E+05 8.11208E+04-1.78073E+06-7.48259E-08 3.10320E-08
 -1       555 1.01546E+05-8.16828E+05 1.48139E+05-1.24068E+06-1.22891E-07-4.92400E-09
 -1       556 2.23765E+05-3.83755E+05 2.58615E+04-4.07344E+05-2.46509E-08-1.22527E-08
 -1       557 3.54388E+05-4.88138E+05 1.62068E+04-5.27790E+05 2.21189E-09 1.75751E-08
 -1       558 2.05535E+05-3.76565E+05 2.34607E+03-4.11777E+05-2.39525E-08 4.39468E-09
 -1       559 3.29347E+05-4.88218E+05 2.45193E+03-5.48251E+05 7.79983E-09-9.26229E-09
 -1       560 1.90221E+05-3.66962E+05-1.50114E+03-4.22812E+05 1.08266E-08 4.71482E-09
 -1       561 3.10104E+05-4.80518E+05 1.32252E+02-5.61371E+05 4.42378E-09 6.52835E-09
 -1       562 1.78113E+05-3.59439E+05-1.32639E+03-4.31580E+05 9.19681E-09 2.46946E-08
 -1       563 2.95722E+05-4.74247E+05-3.64316E+01-5.70765E+05 8.38190E-09-9.48785E-09
 -1       564 1.69472E+05-3.54055E+05-6.00852E+02-4.37704E+05 1.22091E-08 1.77724E-08
 -1       565 2.86183E+05-4.70093E+05 2.41397E+01-5.76860E+05 4.24916E-09-1.06543E-08
 -1       566 1.64420E+05-3.50860E+05-2.60003E+02-4.41237E+05-3.94357E-09-5.58794E-09
 -1       567 2.81547E+05-4.68076E+05-3.62358E+02-5.79675E+05 1.92449E-08 4.32919E-09
 -1       568 1.63049E+05-3.50020E+05-1.12572E+03-4.42291E+05 4.48563E-09 2.08638E-08
 -1       569 2.80425E+05-4.68003E+05-2.84337E+03-5.78245E+05-1.08093E-08 1.05611E-08
 -1       570 1.66453E+05-3.53257E+05-6.21681E+03-4.41270E+05 1.30312E-08-5.89262E-09
 -1       571 2.90699E+05 1.04629E+04 1.49219E+04-9.54019E+04 1.19589E-08 7.78482E-09
 -1       572 2.92860E+05 3.94627E+03 7.31295E+03-1.04665E+05 2.30534E-08 4.31100E-10
 -1       573 2.91557E+05 1.24380E+03 3.24939E+03-9.52249E+04 1.97451E-09 1.40890E-08
 -1       574 2.91769E+05 7.28149E+02 1.62957E+03-1.04890E+05-1.85510E-08-5.98357E-09
 -1       575 2.91650E+05 4.49857E+02 7.69129E+02-9.52006E+04-1.83780E-09 7.75344E-09
 -1       576 2.91634E+05 4.61549E+02 3.93830E+02-1.04920E+05 1.09558E-08-7.70979E-09
 -1       577 2.91690E+05 3.91927E+02 1.96654E+02-9.51973E+04 5.20686E-09 8.73115E-09
 -1       578 2.91664E+05 4.23434E+02 1.13716E+02-1.04924E+05-2.54158E-09-5.29599E-09
 -1       579 2.91762E+05 3.55052E+02 7.82696E+01-9.51970E+04 6.79029E-09-4.29281E-09
 -1       580 2.91766E+05 3.72167E+02 9.11080E+01-1.04920E+05-9.86438E-09 9.63428E-09
 -1       581 2.91876E+05 2.96199E+02 1.37834E+02-9.52029E+04 6.06451E-09-9.70431E-09
 -1       582 2.91943E+05 3.34610E+02 2.80397E+02-1.04858E+05 4.07817E-09-2.51148E-08
 -1       583 2.92017E+05 3.38774E+02 5.38262E+02-9.52596E+04 1.17616E-08-1.17750E-08
 -1       584 2.92319E+05 7.78422E+02 1.21808E+03-1.04380E+05 2.82889E-08-2.10935E-09
 -1       585 2.92043E+05 1.80354E+03 2.46658E+03-9.56795E+04 8.71296E-09 8.11269E-09
 -1       586-3.48174E+03 1.16970E+05-2.99695E+03-2.50948E+05-4.85124E-09-3.25720E-08
 -1       587-1.36011E+03 1.16710E+05 7.34720E+02-2.76187E+05-8.42374E-09-4.17521E-08
 -1       588 3.93271E+02 1.16523E+05 4.74838E+03-2.50810E+05-4.84215E-09-6.40193E-09
 -1       589 5.08795E+03 1.18998E+05 1.23504E+04-2.75954E+05-1.18926E-08 1.14960E-09
 -1       590 1.66265E+04 1.15187E+05 2.59209E+04-2.51242E+05-4.92309E-09 8.61473E-09
 -1       591-7.64903E+04-1.58259E+04-2.27101E+04-3.24996E+04 1.01252E-08-2.70211E-09
 -1       592-8.07126E+04-1.97960E+04-1.23631E+04-3.60708E+04 2.27261E-08 1.10731E-10
 -1       593-7.88280E+04-1.44532E+04-5.13474E+03-3.40749E+04 7.11866E-09-1.97081E-08
 -1       594-7.75350E+04-1.63911E+04-2.56470E+03-3.62022E+04 8.89478E-09-4.92625E-09
 -1       595-7.90061E+04-1.44567E+04-1.17627E+03-3.41489E+04 1.52063E-09-8.35736E-09
 -1       596-7.73152E+04-1.62309E+04-5.98015E+02-3.61778E+04-8.86459E-09 1.47440E-09
 -1       597-7.90281E+04-1.44720E+04-3.25228E+02-3.41520E+04-1.06930E-08 7.48076E-09
 -1       598-7.72937E+04-1.62242E+04-2.60911E+02-3.61707E+04 8.69022E-09-1.48805E-09
 -1       599-7.90268E+04-1.44725E+04-3.32596E+02-3.41517E+04 1.63208E-08 1.63184E-08
 -1       600-7.73154E+04-1.62314E+04-6.17520E+02-3.61756E+04-2.79914E-09 2.50003E-09
 -1       601-7.90016E+04-1.44580E+04-1.21757E+03-3.41480E+04 1.29185E-08 2.19666E-09
 -1       602-7.75430E+04-1.63961E+04-2.65618E+03-3.61969E+04 8.88542E-09 5.29496E-09
 -1       603-7.88144E+04-1.44574E+04-5.31867E+03-3.40722E+04-1.00727E-09 1.94495E-09
 -1       604-8.08516E+04-1.99036E+04-1.28051E+04-3.60364E+04 1.16245E-09-1.37697E-09
 -1       605-7.63734E+04-1.58967E+04-2.35222E+04-3.24595E+04 3.53282E-09 2.37033E-08
 -1       606 2.66909E+04-1.43368E+04-2.57008E+04 2.39727E+04 5.64796E-09-2.93312E-10
 -1       607 2.22995E+04-4.68243E+03-1.27989E+04 2.69404E+04-9.95897E-10 7.13567E-09
 -1       608 2.48023E+04-8.44756E+02-5.72965E+03 2.38042E+04-4.09091E-09 2.71439E-09
 -1       609 2.43226E+04-2.89477E+02-2.89447E+03 2.71543E+04 4.10364E-09-4.01315E-09
 -1       610 2.45886E+04-4.10914E+01-1.38098E+03 2.37842E+04 4.72301E-09 1.59193E-08
 -1       611 2.45133E+04-4.13917E+01-6.96278E+02 2.71774E+04 9.45192E-09 1.36483E-08
 -1       612 2.45415E+04-2.74013E+01-3.30989E+02 2.37821E+04 2.11548E-09-4.11137E-09
 -1       613 2.45250E+04-3.73229E+01-1.48288E+02 2.71801E+04 3.68891E-09-4.78508E-09
 -1       614 2.45194E+04-3.38456E+01-3.46833E+01 2.37814E+04 1.71804E-09 4.26621E-09
 -1       615 2.45197E+04-3.58519E+01 6.23677E+01 2.71805E+04 3.63252E-09 1.39580E-08
 -1       616 2.45020E+04-3.07358E+01 1.86821E+02 2.37817E+04 2.54749E-09-1.24687E-08
 -1       617 2.45422E+04 3.94075E+00 4.26161E+02 2.71800E+04-3.37604E-09-8.62019E-09
 -1       618 2.44650E+04 9.21036E+01 8.58968E+02 2.37820E+04-3.59978E-09 1.26377E-08
 -1       619 2.48455E+04 6.68083E+02 1.92886E+03 2.71794E+04 1.55933E-09-5.88830E-09
 -1       620 2.41798E+04 2.12893E+03 3.87695E+03 2.37836E+04 1.41438E-09 1.34723E-08
 -1       621 5.10326E+02 3.01449E+05 3.86469E+03 4.12509E+04 9.93168E-10 6.54836E-09
 -1       622 6.75980E+02 3.02340E+05 3.41982E+03 5.98902E+04 1.05183E-09 1.11140E-08
 -1       623 1.43585E+02 3.01643E+05 4.09669E+03 4.10652E+04 1.40153E-09 1.99088E-08
 -1       624 2.10350E+03 3.03537E+05 7.93129E+03 6.00719E+04 1.17637E-09-9.42782E-09
 -1       625 2.05382E+03 3.00071E+05 1.38546E+04 4.10631E+04 1.42882E-09-9.11041E-09
 -1       626 2.60969E+05 6.14109E+04 5.11725E+03 1.26759E+05 1.07693E-08 1.04574E-08
 -1       627 2.58652E+05 6.28075E+04 2.46596E+03 1.31030E+05 1.77533E-09-1.51311E-08
 -1       628 2.61097E+05 5.90695E+04 1.04293E+03 1.27629E+05-3.84534E-09-2.12312E-08
 -1       629 2.58017E+05 6.21278E+04 5.10461E+02 1.31269E+05 5.90444E-09-8.10522E-09
 -1       630 2.61111E+05 5.89564E+04 2.36899E+02 1.27665E+05 1.53464E-08-1.84662E-09
 -1       631 2.57950E+05 6.21019E+04 1.27628E+02 1.31271E+05 5.18321E-09-3.07086E-08
 -1       632 2.61108E+05 5.89603E+04 8.42378E+01 1.27661E+05 1.32313E-08-6.84645E-09
 -1       633 2.57942E+05 6.21037E+04 9.42321E+01 1.31268E+05 6.16683E-09 1.81633E-08
 -1       634 2.61103E+05 5.89575E+04 1.52628E+02 1.27661E+05-7.25868E-09-9.83255E-09
 -1       635 2.57957E+05 6.21020E+04 3.09056E+02 1.31273E+05-1.30507E-08-3.99450E-09
 -1       636 2.61094E+05 5.89516E+04 6.24248E+02 1.27660E+05 6.13159E-09 1.67151E-08
 -1       637 2.58092E+05 6.21991E+04 1.37264E+03 1.31273E+05-1.37879E-09-7.04858E-11
 -1       638 2.61046E+05 5.92548E+04 2.82027E+03 1.27523E+05 4.23279E-09-5.29462E-09
 -1       639 2.59573E+05 6.42596E+04 6.67291E+03 1.30837E+05 6.14932E-09 5.10590E-09
 -1       640 2.60840E+05 6.54076E+04 1.38474E+04 1.24931E+05 5.62477E-09 4.62614E-09
 -1       656 6.66119E+04-1.70479E+06-1.60797E+05-2.56244E+03-5.89353E-10-9.40196E-09
 -1       657-8.81218E+04-1.77745E+06-1.33211E+05 5.15715E+03 1.80989E-10-1.33275E-08
 -1       658 2.12336E+04-1.72542E+06-8.20414E+04-4.64780E+03-5.11818E-10-1.24810E-08
 -1       659-9.52910E+04-1.78085E+06-1.42633E+05 6.89022E+03-1.65892E-09-1.77511E-08
 -1       660 7.37651E+04-1.70139E+06-1.76995E+05-4.29550E+03-2.42289E-09-5.93135E-09
 -1       661 1.58558E+05 1.65904E+04 1.67182E+04 6.19836E+04 9.99535E-10 1.50976E-09
 -1       662 1.68011E+05 2.89702E+04 1.12669E+04 5.82315E+04 5.92991E-10-1.15655E-08
 -1       663 1.61842E+05 2.19539E+04 3.94044E+03 6.10306E+04 7.51584E-10-1.00711E-08
 -1       664 1.64203E+05 2.26980E+04 2.35721E+03 5.93957E+04 1.88140E-09-6.43013E-09
 -1       665 1.62340E+05 2.26864E+04 9.29903E+02 6.08852E+04 2.25072E-09-4.92102E-09
 -1       666 1.63614E+05 2.18604E+04 5.44327E+02 5.95854E+04 7.87941E-09-6.68036E-09
 -1       667 1.62427E+05 2.27697E+04 2.89316E+02 6.08487E+04 1.43774E-09 6.39567E-10
 -1       668 1.63517E+05 2.18006E+04 2.95244E+02 5.96384E+04-5.51580E-09-9.14782E-09
 -1       669 1.62435E+05 2.27445E+04 4.00088E+02 6.08324E+04-2.63705E-09 5.74332E-09
 -1       670 1.63615E+05 2.20179E+04 8.71543E+02 5.96413E+04-1.34281E-08-4.80321E-09
 -1       671 1.62330E+05 2.25569E+04 1.54761E+03 6.08438E+04-5.13154E-11-7.63055E-09
 -1       672 1.64517E+05 2.35235E+04 3.95961E+03 5.94228E+04 9.18975E-09-4.17253E-09
 -1       673 1.61538E+05 2.12770E+04 6.63570E+03 6.10364E+04 4.48529E-09 5.54201E-09
 -1       674 1.70832E+05 3.41845E+04 1.89767E+04 5.75674E+04-4.53679E-09-3.36331E-09
 -1       675 1.56055E+05 1.21945E+04 2.81681E+04 6.25871E+04-1.36743E-09-3.81988E-09
 -1       676 2.41210E+01-2.96002E+05-1.11388E+03-1.37651E+02 4.92633E-10-1.35451E-08
 -1       677-2.94643E+02-2.96271E+05-2.03859E+03 2.75080E+02 1.08773E-08-2.71861E-08
 -1       678 1.97625E+02-2.95810E+05-3.60371E+03-1.37339E+02 2.11367E-09-9.26441E-09
 -1       679-3.60377E+03-2.98447E+05-8.56093E+03 2.73891E+02 6.87737E-09-2.24994E-09
 -1       680 2.15166E+03-2.93827E+05-1.37973E+04-1.34945E+02 1.67165E-09-6.35053E-09
 -1       771-3.06338E+06-7.47523E+05-1.65864E+05-1.46643E+06-3.25090E-08-2.47092E-08
 -1       772-2.98621E+06-8.36383E+05-8.55119E+04-1.56917E+06-2.96423E-08 7.31961E-09
 -1       773-3.09487E+06-7.22963E+05-4.35976E+04-1.48097E+06-1.28639E-08 1.03319E-08
 -1       774-2.97670E+06-8.17866E+05-1.94498E+04-1.59495E+06 2.50293E-08-2.28465E-09
 -1       775-3.11133E+06-7.11416E+05-1.45527E+04-1.48803E+06-6.28643E-09 2.66300E-09
 -1       776-2.98906E+06-8.14829E+05-5.44149E+03-1.61446E+06-1.83936E-08 3.69619E-09
 -1       777-3.12561E+06-7.01108E+05-6.43140E+03-1.49426E+06 2.76486E-09 3.85626E-09
 -1       778-3.00196E+06-8.12004E+05-1.81814E+03-1.63123E+06 5.63159E-09 8.65839E-09
 -1       779-3.13789E+06-6.92102E+05-3.21447E+03-1.49958E+06-1.26165E-08-8.78572E-09
 -1       780-3.01332E+06-8.09309E+05-5.33126E+02-1.64488E+06-1.06884E-08-5.31509E-09
 -1       781-3.14765E+06-6.84840E+05-1.24915E+03-1.50374E+06-3.10974E-08 3.50701E-09
 -1       782-3.02208E+06-8.07020E+05 4.49580E+02-1.65496E+06-3.69837E-08-5.15001E-09
 -1       783-3.15453E+06-6.79794E+05 6.99527E+02-1.50665E+06-1.16270E-08-1.47111E-08
 -1       784-3.02693E+06-8.04734E+05 2.90183E+03-1.66118E+06-2.49456E-08 1.13687E-11
 -1       785-3.15860E+06-6.76785E+05 5.12245E+03-1.50850E+06-4.00287E-08 6.75936E-09
 -1       786 1.22823E+05-9.74087E+03 2.25364E+04-3.20024E+02 3.27662E-09 1.00863E-08
 -1       787 1.32598E+05 1.12778E+04 1.59436E+04-1.36618E+02 4.39125E-09 1.87847E-08
 -1       788 1.26592E+05-1.52642E+03 5.83060E+03-2.85366E+02 1.41562E-09 2.54067E-09
 -1       789 1.28207E+05 1.76679E+03 3.66015E+03-1.89743E+02-6.74750E-10-4.34665E-09
 -1       790 1.27214E+05-2.37651E+02 1.48175E+03-2.66917E+02-4.50720E-09-5.18457E-09
 -1       791 1.27480E+05 2.74913E+02 8.55449E+02-2.21392E+02-6.22511E-09 5.71048E-09
 -1       792 1.27320E+05-3.56593E+01 3.61766E+02-2.53719E+02-5.72735E-09 8.95142E-11
 -1       793 1.27353E+05 3.73088E+01 1.78725E+02-2.46316E+02 1.57310E-09-2.19261E-08
 -1       794 1.27341E+05-1.96972E-01 4.31831E+01-2.41993E+02 3.92761E-09-1.51349E-08
 -1       795 1.27315E+05-3.01994E+01-6.64510E+01-2.70875E+02-4.94408E-09-6.61254E-09
 -1       796 1.27358E+05 3.18108E+01-1.77517E+02-2.29160E+02 3.74844E-09-7.82474E-09
 -1       797 1.27213E+05-2.37372E+02-4.83022E+02-3.00417E+02 3.26008E-09-1.23854E-08
 -1       798 1.27443E+05 2.06820E+02-7.83253E+02-2.12450E+02 2.46378E-09-8.65344E-09
 -1       799 1.26619E+05-1.52469E+03-2.15378E+03-3.41859E+02 6.86138E-09-3.42945E-09
 -1       800 1.27952E+05 1.31808E+03-3.04777E+03-1.87719E+02 4.81331E-10 2.24657E-08
 -1       801-1.71140E+05-9.99498E+06-1.39301E+06 1.41467E+06 9.52277E-08-5.21322E-08
 -1       802 7.37849E+05 5.94527E+06 2.18046E+06-1.74631E+06 2.57569E-07-3.66672E-08
 -1       803-5.36348E+05-1.42604E+07-1.88940E+06 8.97895E+05 7.70415E-08 1.30858E-08
 -1       804 2.87019E+05 2.39100E+06 1.53630E+06 6.76808E+05-1.18725E-07-1.11305E-07
 -1       805 1.89251E+05-6.45483E+06-2.86024E+05-1.00279E+06-4.99858E-08-6.94536E-08
 -1       806-3.09172E+05-5.98132E+04-2.28706E+04-1.22521E+05-9.83755E-09-2.27965E-08
 -1       807-3.10971E+05-5.60811E+04-1.12361E+04-1.28072E+05 1.32563E-08 6.30646E-09
 -1       808-3.09800E+05-5.15706E+04-4.76671E+03-1.26417E+05-2.25373E-09-1.19985E-09
 -1       809-3.08608E+05-5.29241E+04-2.33080E+03-1.28348E+05-1.18312E-08-1.04765E-08
 -1       810-3.09895E+05-5.12837E+04-1.06835E+03-1.26589E+05 5.32418E-09-1.01925E-08
 -1       811-3.08425E+05-5.27973E+04-5.31317E+02-1.28312E+05 5.88989E-09-3.61069E-10
 -1       812-3.09909E+05-5.13084E+04-2.68815E+02-1.26589E+05-3.89446E-09 1.48034E-08
 -1       813-3.08400E+05-5.27994E+04-1.74881E+02-1.28293E+05-7.96581E-09-1.25171E-08
 -1       814-3.09902E+05-5.13181E+04-1.73589E+02-1.26584E+05 8.63110E-10-5.62022E-09
 -1       815-3.08404E+05-5.28017E+04-2.79946E+02-1.28286E+05 9.00127E-09 1.09528E-08
 -1       816-3.09881E+05-5.13172E+04-5.30760E+02-1.26581E+05 6.69024E-09 9.15952E-09
 -1       817-3.08494E+05-5.28523E+04-1.13915E+03-1.28274E+05-9.23455E-09 1.01977E-08
 -1       818-3.09812E+05-5.14780E+04-2.32351E+03-1.26505E+05-5.40876E-09-1.72304E-09
 -1       819-3.09765E+05-5.42562E+04-5.46706E+03-1.27973E+05 2.35423E-09 1.18773E-08
 -1       820-3.09374E+05-5.56079E+04-1.11275E+04-1.24741E+05 2.00453E-09 9.45602E-09
 -1       821-3.78294E+05 2.09209E+04-4.86787E+04 2.08730E+03 1.43073E-08-7.08314E-09
 -1       822-3.98134E+05-2.42344E+04-3.42270E+04-4.32630E+03 4.82816E-09-1.50612E-08
 -1       823-3.85817E+05 3.29660E+03-1.25752E+04 3.34626E+03-1.26605E-08-2.58888E-09
 -1       824-3.89069E+05-3.80214E+03-7.87381E+03-5.18963E+03 1.69589E-09 2.81974E-08
 -1       825-3.87365E+05 5.12145E+02-3.29404E+03 2.95075E+03 1.91348E-08 1.23881E-08
 -1       826-3.86682E+05-5.70555E+02-1.76006E+03-2.97249E+03 2.53992E-08-1.59863E-08
 -1       827-3.88181E+05 4.95199E+01-1.18148E+03 1.12898E+03 1.15249E-08-1.18573E-08
 -1       828-3.86010E+05-1.35538E+02-6.05682E+02 1.09308E+03-1.31138E-09 6.14028E-09
 -1       829-3.88025E+05 6.78128E+01-1.16962E+03-1.11485E+03 3.59225E-09-1.37215E-08
 -1       830-3.87019E+05-6.22371E+02-1.89014E+03 4.75666E+03 1.73813E-09-2.05546E-10
 -1       831-3.87193E+05 5.52977E+02-3.36693E+03-2.53462E+03-6.88394E-09-1.82210E-08
 -1       832-3.89143E+05-3.95597E+03-8.15114E+03 5.98728E+03-4.28603E-09 8.81744E-09
 -1       833-3.85915E+05 3.41017E+03-1.30375E+04-2.34551E+03-2.85837E-09 8.96307E-09
 -1       834-3.98170E+05-2.50699E+04-3.53417E+04 4.06919E+03-2.33436E-09 1.41918E-08
 -1       835-3.78150E+05 2.16349E+04-5.03912E+04-6.16456E+02 4.49748E-09 7.21775E-09
 -1       836-1.40392E+03 3.70679E+05 2.27811E+04-1.57689E+04-6.86123E-09 1.51003E-08
 -1       837 4.85904E+03 3.77814E+05 1.93111E+04-3.22383E+04-7.32564E-09 8.08268E-09
 -1       838-5.56559E+02 3.72674E+05 1.97237E+04-1.56987E+04-6.28734E-09 2.09548E-09
 -1       839 1.24341E+04 3.83457E+05 3.73583E+04-3.22903E+04-7.03540E-09 2.11012E-08
 -1       840-3.84340E+03 3.64978E+05 5.95939E+04-1.57229E+04-6.29370E-09 1.48967E-09
 -1       856-5.21734E+04 8.02602E+03-2.11503E+04-3.97558E+02 5.59100E-09 1.06174E-08
 -1       857-6.08868E+04-9.43035E+03-1.45597E+04 5.63587E+03 1.76868E-09 9.22410E-09
 -1       858-5.56241E+04 1.12557E+03-5.48799E+03-4.21672E+02 5.60379E-09 1.37643E-08
 -1       859-5.69267E+04-1.32423E+03-3.31174E+03 5.67174E+03-8.46501E-09 2.48870E-08
 -1       860-5.61396E+04 1.57635E+02-1.38794E+03-4.33157E+02 1.93413E-09-3.05636E-09
 -1       861-5.63337E+04-1.88213E+02-7.63496E+02 5.68738E+03 2.70416E-09 3.80325E-09
 -1       862-5.62203E+04 2.13557E+01-3.17304E+02-4.37292E+02-1.16862E-09 1.52031E-09
 -1       863-5.62348E+04-2.18743E+01-1.15422E+02 5.68978E+03-2.35271E-09-4.04199E-09
 -1       864-5.62390E+04-4.91815E+00 4.75747E+01-4.35558E+02-1.61103E-09-2.06687E-09
 -1       865-5.61790E+04 5.97771E+01 2.56101E+02 5.67988E+03 7.29315E-10-2.11978E-08
 -1       866-5.62740E+04-6.03121E+01 5.15932E+02-4.27391E+02 2.57825E-09 3.74797E-10
 -1       867-5.59364E+04 4.98032E+02 1.26980E+03 5.65771E+03 2.31722E-10 1.39137E-08
 -1       868-5.64767E+04-4.35257E+02 2.11000E+03-4.13386E+02 5.95605E-10 1.88774E-08
 -1       869-5.43895E+04 3.62246E+03 5.61817E+03 5.62123E+03 3.81067E-09-1.82222E-08
 -1       870-5.78131E+04-3.09988E+03 8.15322E+03-3.90808E+02 3.29806E-10-2.00594E-08
 -1       871-5.52124E+03-2.13970E+04-1.95025E+04 1.30491E+05-6.02449E-09-7.06859E-09
 -1       872-1.98275E+03-2.59321E+04-8.16694E+03 1.69201E+05-1.18298E-08 2.13590E-08
 -1       873 4.05888E+02-2.37384E+04 5.88283E+02 1.30204E+05-6.52062E-09 1.11751E-08
 -1       874 3.30766E+03-2.13272E+04 9.78095E+03 1.69230E+05-1.09976E-08 3.66799E-09
 -1       875 6.84865E+03-2.60686E+04 2.20665E+04 1.30443E+05-6.13727E-09-6.60475E-09
 -1       876 2.93870E+05 4.95279E+04 1.51060E+04 1.17929E+05 8.35939E-10 1.16343E-08
 -1       877 2.94868E+05 5.27094E+04 8.06718E+03 1.22263E+05-3.09979E-09-1.99989E-08
 -1       878 2.95283E+05 4.78545E+04 3.37975E+03 1.19166E+05-8.11360E-09-1.17270E-08
 -1       879 2.92815E+05 5.06602E+04 1.68400E+03 1.22365E+05 4.24279E-09-5.98391E-10
 -1       880 2.95384E+05 4.78372E+04 7.84387E+02 1.19217E+05-3.89105E-09 3.47700E-09
 -1       881 2.92679E+05 5.05725E+04 4.18896E+02 1.22341E+05-7.62782E-09 2.01540E-08
 -1       882 2.95393E+05 4.78505E+04 2.68018E+02 1.19219E+05-3.17118E-09-2.51720E-09
 -1       883 2.92669E+05 5.05680E+04 2.88186E+02 1.22334E+05-1.37612E-09 7.86676E-09
 -1       884 2.95386E+05 4.78477E+04 4.58486E+02 1.19219E+05-1.13573E-09 4.07641E-09
 -1       885 2.92706E+05 5.05743E+04 9.21841E+02 1.22345E+05-3.22892E-09 1.01890E-08
 -1       886 2.95350E+05 4.78208E+04 1.85794E+03 1.19215E+05-7.46962E-10 2.18006E-09
 -1       887 2.93032E+05 5.07884E+04 4.05842E+03 1.22392E+05 2.37310E-09-1.49594E-08
 -1       888 2.95094E+05 4.78660E+04 8.17784E+03 1.19085E+05-5.11528E-09 4.01860E-09
 -1       889 2.97900E+05 5.58514E+04 1.95353E+04 1.22243E+05-1.16369E-08 1.91230E-08
 -1       890 2.91756E+05 5.18310E+04 3.65892E+04 1.15973E+05-3.26327E-09-3.21961E-09
 -1       891-8.92751E+01-1.62823E+05-1.99731E+03 2.71550E+04-3.35604E-10-3.91083E-09
 -1       892-1.75257E+02-1.63351E+05-2.14503E+03 4.12366E+04 3.38991E-09-1.82645E-08
 -1       893 4.38435E+01-1.62888E+05-3.03699E+03 2.71623E+04 1.36879E-10-5.70662E-09
 -1       894-1.51039E+03-1.64498E+05-6.28534E+03 4.10840E+04 1.60890E-09-1.71894E-08
 -1       895-1.19955E+03-1.61578E+05-1.10684E+04 2.73094E+04 1.11072E-09-5.00222E-11
 -1       956-3.77361E+05-5.44987E+03-1.34528E+04 3.09067E+04 8.38099E-09 3.43243E-09
 -1       957-3.80001E+05-1.92263E+03-6.90509E+03 3.71415E+04-6.88487E-10 5.92308E-09
 -1       958-3.78570E+05-2.41041E+02-3.11166E+03 3.07387E+04-2.89219E-09-4.93901E-09
 -1       959-3.78767E+05-1.36344E+02-1.58886E+03 3.73375E+04 5.09363E-09-8.75661E-09
 -1       960-3.78688E+05-4.48648E+01-7.74813E+02 3.07214E+04-2.51930E-10-8.89190E-09
 -1       961-3.78686E+05-6.32552E+01-4.10800E+02 3.73580E+04-4.24120E-09-2.26426E-08
 -1       962-3.78716E+05-4.60459E+01-2.35205E+02 3.07185E+04 2.80488E-09 3.62729E-09
 -1       963-3.78687E+05-5.90284E+01-1.88830E+02 3.73616E+04 1.53577E-08 1.66674E-08
 -1       964-3.78722E+05-4.26669E+01-2.29660E+02 3.07177E+04 5.66219E-09-2.44972E-08
 -1       965-3.78699E+05-5.60544E+01-3.97239E+02 3.73609E+04-2.13163E-09-1.70594E-08
 -1       966-3.78705E+05-3.48217E+01-7.46418E+02 3.07192E+04 4.16276E-09-2.50793E-09
 -1       967-3.78789E+05-1.19628E+02-1.53089E+03 3.73466E+04 9.20409E-10-9.54060E-09
 -1       968-3.78601E+05-2.17394E+02-2.99695E+03 3.07319E+04 2.34786E-09-5.00427E-09
 -1       969-3.79990E+05-1.83510E+03-6.65315E+03 3.71979E+04 4.34011E-09 2.68244E-10
 -1       970-3.77445E+05-5.23217E+03-1.29607E+04 3.08592E+04-2.58387E-09 4.75666E-10
 -1       971-3.45505E+05-1.72773E+03-9.31127E+03 1.53801E+04 8.51833E-09-1.39627E-08
 -1       972-3.47746E+05-1.27196E+03-5.07082E+03 2.12706E+04 5.40376E-09-1.30176E-08
 -1       973-3.46543E+05-6.20453E+01-2.27127E+03 1.52590E+04 3.95266E-09-1.92376E-08
 -1       974-3.46678E+05-8.10947E+01-1.17735E+03 2.14077E+04 1.94791E-09 1.26720E-08
 -1       975-3.46625E+05-1.71633E+01-5.88988E+02 1.52467E+04 3.83670E-09-5.26813E-09
 -1       976-3.46616E+05-3.12433E+01-3.40658E+02 2.14235E+04 6.83940E-09-1.03799E-08
 -1       977-3.46641E+05-1.64167E+01-2.48772E+02 1.52433E+04-4.40673E-09-1.89081E-08
 -1       978-3.46622E+05-2.50170E+01-2.93199E+02 2.14284E+04-2.08530E-08 1.50635E-09
 -1       979-3.46641E+05-7.93558E+00-4.72868E+02 1.52418E+04-6.88192E-09 6.43979E-09
 -1       980-3.46657E+05-2.19549E+01-9.14172E+02 2.14293E+04-5.96637E-09-1.28927E-08
 -1       981-3.46612E+05 1.49147E+01-1.77113E+03 1.52423E+04 1.09026E-09-1.36304E-08
 -1       982-3.46900E+05-1.52822E+02-3.66121E+03 2.14227E+04-2.67983E-09 1.50901E-08
 -1       983-3.46388E+05-9.84950E+01-7.11393E+03 1.52484E+04-1.06720E-08 1.58434E-09
 -1       984-3.50322E+05-3.86822E+03-1.59314E+04 2.13371E+04 1.34537E-09 8.30914E-09
 -1       985-3.43168E+05-5.30403E+03-2.92550E+04 1.53198E+04-3.82033E-09-4.44561E-09
 -3
    1PSTEP                        35          18           1          
  100CL  118 6.63143E-01         409                     0   18           1
 -4  DISP        4    1
 -5  D1          1    2    1    0
 -5  D2          1    2    2    0
 -5  D3          1    2    3    0
 -5  ALL         1    2    0    0    1ALL
 -1         1 2.71647E-03 0.00000E+00 0.00000E+00
 -1         2 1.36068E-03 7.46292E-28 0.00000E+00
 -1         3 3.42719E-04-5.77233E-28 1.32349E-23
 -1         5 1.77142E-04-1.74237E-27 2.48154E-24
 -1         8 2.70548E-03-4.07806E-07 0.00000E+00
 -1         9 2.69886E-03-1.88385E-04 0.00000E+00
 -1        10 3.10756E-04-3.40973E-06-6.61744E-24
 -1        12 1.78987E-04 8.09564E-07 0.00000E+00
 -1        15 2.69288E-03-4.31864E-07 1.03398E-25
 -1        16 2.76409E-03-1.90192E-04 0.00000E+00
 -1        17 2.11482E-04-7.77516E-06 0.00000E+00
 -1        18 1.82932E-04 3.44103E-05 0.00000E+00
 -1        19 1.84526E-04 1.61271E-06 0.00000E+00
 -1        20 1.84665E-04-9.86071E-06 0.00000E+00
 -1        21 1.83773E-04-2.53728E-05-3.30872E-24
 -1        24 3.06239E-05-1.20017E-05 0.00000E+00
 -1        25 1.93707E-04 3.46361E-05 0.00000E+00
 -1        26 1.94383E-04 2.23286E-06 0.00000E+00
 -1        27 1.92189E-04-1.34205E-05 0.00000E+00
 -1        28 1.91873E-04-2.59950E-05 0.00000E+00
 -1        32 0.00000E+00 0.00000E+00 0.00000E+00
 -1        33 2.03250E-04 2.98753E-06 0.00000E+00
 -1        34 2.01131E-04-1.34768E-05 0.00000E+00
 -1        35 1.99198E-04-2.63376E-05 0.00000E+00
 -1        51 2.71573E-03-8.53282E-08-1.65436E-24
 -1        52 2.71439E-03-1.52295E-07 0.00000E+00
 -1        53 2.71255E-03-2.15806E-07 0.00000E+00
 -1        54 2.71037E-03-2.78098E-07 0.00000E+00
 -1        55 2.70797E-03-3.40930E-07-8.27181E-25
 -1        56 2.70891E-03 8.15584E-06 5.29396E-23
 -1        57 2.69425E-03 3.38729E-05-5.29396E-23
 -1        58 2.67466E-03 7.16107E-05-1.05879E-22
 -1        59 2.65280E-03 1.14678E-04-5.29396E-23
 -1        60 2.63189E-03 1.55469E-04 0.00000E+00
 -1        61 2.61502E-03 1.86564E-04-5.29396E-23
 -1        62 2.60432E-03 2.02276E-04-1.05879E-22
 -1        63 2.60116E-03 1.98286E-04-5.29396E-23
 -1        64 2.60537E-03 1.73895E-04 1.05879E-22
 -1        65 2.61611E-03 1.30326E-04 0.00000E+00
 -1        66 2.63149E-03 7.24373E-05 1.05879E-22
 -1        67 2.64938E-03 6.49167E-06 0.00000E+00
 -1        68 2.66735E-03-5.96899E-05 0.00000E+00
 -1        69 2.68297E-03-1.18256E-04 5.29396E-23
 -1        70 2.69407E-03-1.62834E-04 5.29396E-23
 -1        86 1.44482E-03-5.98132E-06 5.29396E-23
 -1        87 1.68835E-03-3.74876E-05 0.00000E+00
 -1        88 2.01578E-03-9.15992E-05 0.00000E+00
 -1        89 2.34756E-03-1.47180E-04-1.32349E-23
 -1        90 2.60161E-03-1.81189E-04 5.29396E-23
 -1       121 3.41821E-04-5.50543E-07-1.32349E-23
 -1       122 3.39132E-04-1.10418E-06 0.00000E+00
 -1       123 3.34661E-04-1.66394E-06 0.00000E+00
 -1       124 3.28425E-04-2.23288E-06 0.00000E+00
 -1       125 3.20446E-04-2.81364E-06 0.00000E+00
 -1       191 1.77193E-04 1.34991E-07 1.65436E-24
 -1       192 1.77347E-04 2.69971E-07 4.13590E-25
 -1       193 1.77603E-04 4.04930E-07 2.48154E-24
 -1       194 1.77962E-04 5.39858E-07 1.24077E-24
 -1       195 1.78423E-04 6.74740E-07 8.27181E-25
 -1       251 2.70518E-03 1.69430E-06-6.61744E-24
 -1       252 2.70487E-03 3.70985E-06-3.30872E-24
 -1       253 2.70456E-03 4.65729E-06 0.00000E+00
 -1       254 2.70425E-03 3.56844E-06 3.30872E-24
 -1       255 2.70394E-03-2.14535E-07 0.00000E+00
 -1       256 2.70361E-03-7.31558E-06 3.30872E-24
 -1       257 2.70325E-03-1.78533E-05 6.61744E-24
 -1       258 2.70284E-03-3.19028E-05 0.00000E+00
 -1       259 2.70240E-03-4.90050E-05-1.32349E-23
 -1       260 2.70190E-03-6.86620E-05-6.61744E-24
 -1       261 2.70138E-03-8.99867E-05 1.32349E-23
 -1       262 2.70084E-03-1.12072E-04 0.00000E+00
 -1       263 2.70030E-03-1.33893E-04-1.32349E-23
 -1       264 2.69978E-03-1.54430E-04 0.00000E+00
 -1       265 2.69931E-03-1.72861E-04-1.32349E-23
 -1       266 2.70338E-03-4.17491E-07 0.00000E+00
 -1       267 2.70128E-03-4.20809E-07 0.00000E+00
 -1       268 2.69918E-03-4.24530E-07 0.00000E+00
 -1       269 2.69708E-03-4.27056E-07-2.06795E-25
 -1       270 2.69498E-03-4.29555E-07 0.00000E+00
 -1       271 2.70460E-03 1.33852E-07 0.00000E+00
 -1       272 2.70467E-03-1.89686E-06 0.00000E+00
 -1       273 2.70564E-03-6.34915E-06 1.32349E-23
 -1       274 2.70743E-03-1.30604E-05 1.32349E-23
 -1       275 2.70999E-03-2.18474E-05 0.00000E+00
 -1       276 2.71324E-03-3.25117E-05 0.00000E+00
 -1       277 2.71708E-03-4.48391E-05 0.00000E+00
 -1       278 2.72145E-03-5.86022E-05-1.32349E-23
 -1       279 2.72624E-03-7.35620E-05 2.64698E-23
 -1       280 2.73138E-03-8.94699E-05 0.00000E+00
 -1       281 2.73676E-03-1.06069E-04-1.32349E-23
 -1       282 2.74230E-03-1.23098E-04 0.00000E+00
 -1       283 2.74789E-03-1.40292E-04 0.00000E+00
 -1       284 2.75345E-03-1.57382E-04 0.00000E+00
 -1       285 2.75888E-03-1.74104E-04-1.32349E-23
 -1       301 2.71072E-03-1.88720E-04-6.61744E-24
 -1       302 2.72094E-03-1.89009E-04 0.00000E+00
 -1       303 2.73046E-03-1.89289E-04 0.00000E+00
 -1       304 2.74020E-03-1.89569E-04 0.00000E+00
 -1       305 2.75110E-03-1.89862E-04 0.00000E+00
 -1       306 2.73676E-03-3.43039E-04 0.00000E+00
 -1       307 2.80063E-03-7.57256E-04 5.29396E-23
 -1       308 2.84728E-03-1.36276E-03 1.05879E-22
 -1       309 2.87108E-03-2.06346E-03-5.29396E-23
 -1       310 2.90237E-03-2.73355E-03-1.05879E-22
 -1       311 2.96185E-03-3.24993E-03 5.29396E-23
 -1       312 3.01967E-03-3.53196E-03 0.00000E+00
 -1       313 3.01491E-03-3.54184E-03 0.00000E+00
 -1       314 2.87366E-03-3.29165E-03-1.05879E-22
 -1       315 2.55502E-03-2.84599E-03-5.29396E-23
 -1       316 2.07744E-03-2.28152E-03 0.00000E+00
 -1       317 1.50692E-03-1.66757E-03 0.00000E+00
 -1       318 9.57875E-04-1.06473E-03 0.00000E+00
 -1       319 5.38355E-04-5.38003E-04 5.29396E-23
 -1       320 2.92149E-04-1.61531E-04-1.05879E-22
 -1       336 2.99166E-04-4.06879E-06 1.32349E-23
 -1       337 2.85501E-04-4.75354E-06 0.00000E+00
 -1       338 2.69821E-04-5.46619E-06 1.32349E-23
 -1       339 2.52202E-04-6.20758E-06 6.61744E-24
 -1       340 2.32725E-04-6.98215E-06 0.00000E+00
 -1       406 1.79654E-04 9.44312E-07-2.48154E-24
 -1       407 1.80423E-04 1.07894E-06-1.24077E-24
 -1       408 1.81295E-04 1.21341E-06-2.48154E-24
 -1       409 1.82270E-04 1.34754E-06-6.20385E-25
 -1       410 1.83347E-04 1.48106E-06 8.27181E-25
 -1       521 2.80259E-03-3.54131E-04-1.05879E-22
 -1       522 2.86468E-03-7.88633E-04 0.00000E+00
 -1       523 2.90485E-03-1.42200E-03 0.00000E+00
 -1       524 2.91941E-03-2.15138E-03 0.00000E+00
 -1       525 2.94276E-03-2.84814E-03 0.00000E+00
 -1       526 2.99868E-03-3.38660E-03 0.00000E+00
 -1       527 3.05608E-03-3.67923E-03 0.00000E+00
 -1       528 3.04901E-03-3.68731E-03-1.05879E-22
 -1       529 2.89569E-03-3.42292E-03 0.00000E+00
 -1       530 2.55299E-03-2.95864E-03 0.00000E+00
 -1       531 2.04015E-03-2.37492E-03-1.05879E-22
 -1       532 1.42964E-03-1.74371E-03 0.00000E+00
 -1       533 8.41288E-04-1.12294E-03-1.05879E-22
 -1       534 3.88318E-04-5.75282E-04 0.00000E+00
 -1       535 1.20817E-04-1.79217E-04 0.00000E+00
 -1       536 2.10728E-04 2.71459E-05 0.00000E+00
 -1       537 2.08810E-04 8.75778E-05-1.65436E-24
 -1       538 2.05847E-04 1.64255E-04-3.30872E-24
 -1       539 2.02352E-04 2.47829E-04 0.00000E+00
 -1       540 1.99207E-04 3.26800E-04 3.30872E-24
 -1       541 1.97163E-04 3.89689E-04 0.00000E+00
 -1       542 1.96220E-04 4.29745E-04 0.00000E+00
 -1       543 1.95995E-04 4.40365E-04-1.65436E-24
 -1       544 1.95673E-04 4.22323E-04-3.30872E-24
 -1       545 1.94501E-04 3.76613E-04 0.00000E+00
 -1       546 1.92316E-04 3.11360E-04 0.00000E+00
 -1       547 1.89359E-04 2.34811E-04-1.65436E-24
 -1       548 1.86430E-04 1.58638E-04 0.00000E+00
 -1       549 1.84316E-04 9.45152E-05-1.65436E-24
 -1       550 1.83218E-04 5.04716E-05 1.65436E-24
 -1       551 1.86281E-04-8.34482E-06 0.00000E+00
 -1       552 1.57834E-04-8.99493E-06 0.00000E+00
 -1       553 1.27086E-04-9.70727E-06-3.30872E-24
 -1       554 9.49956E-05-1.04608E-05 0.00000E+00
 -1       555 6.25232E-05-1.12279E-05 1.32349E-23
 -1       556 2.03834E-04 1.17804E-05-5.29396E-23
 -1       557 1.97655E-04 2.76403E-05 0.00000E+00
 -1       558 1.92811E-04 4.00926E-05 0.00000E+00
 -1       559 1.89168E-04 4.94476E-05 0.00000E+00
 -1       560 1.86597E-04 5.60163E-05 0.00000E+00
 -1       561 1.84971E-04 6.01121E-05 0.00000E+00
 -1       562 1.84162E-04 6.20495E-05 0.00000E+00
 -1       563 1.84049E-04 6.21441E-05 0.00000E+00
 -1       564 1.84507E-04 6.07124E-05 0.00000E+00
 -1       565 1.85418E-04 5.80715E-05 0.00000E+00
 -1       566 1.86660E-04 5.45392E-05 0.00000E+00
 -1       567 1.88116E-04 5.04334E-05-6.61744E-24
 -1       568 1.89666E-04 4.60724E-05 0.00000E+00
 -1       569 1.91193E-04 4.17744E-05 8.27181E-25
 -1       570 1.92579E-04 3.78577E-05 0.00000E+00
 -1       571 1.83029E-04 3.22828E-05-1.65436E-24
 -1       572 1.83127E-04 3.00895E-05-8.27181E-25
 -1       573 1.83226E-04 2.78459E-05 1.65436E-24
 -1       574 1.83326E-04 2.55686E-05 8.27181E-25
 -1       575 1.83425E-04 2.32740E-05 0.00000E+00
 -1       576 1.83525E-04 2.09786E-05 4.96308E-24
 -1       577 1.83624E-04 1.86988E-05 0.00000E+00
 -1       578 1.83724E-04 1.64513E-05 0.00000E+00
 -1       579 1.83824E-04 1.42526E-05 6.61744E-24
 -1       580 1.83924E-04 1.21192E-05 3.30872E-24
 -1       581 1.84024E-04 1.00677E-05 0.00000E+00
 -1       582 1.84124E-04 8.11458E-06 3.30872E-24
 -1       583 1.84224E-04 6.27639E-06 6.61744E-24
 -1       584 1.84325E-04 4.56946E-06 3.30872E-24
 -1       585 1.84425E-04 3.00996E-06 0.00000E+00
 -1       586 1.84687E-04 3.44500E-05 0.00000E+00
 -1       587 1.86401E-04 3.44892E-05 4.13590E-25
 -1       588 1.88116E-04 3.45281E-05 0.00000E+00
 -1       589 1.89877E-04 3.45662E-05 0.00000E+00
 -1       590 1.91727E-04 3.46031E-05 0.00000E+00
 -1       591 1.83660E-04 3.23763E-05-2.06795E-25
 -1       592 1.84392E-04 3.03219E-05 0.00000E+00
 -1       593 1.85129E-04 2.82531E-05-8.27181E-25
 -1       594 1.85869E-04 2.61746E-05 0.00000E+00
 -1       595 1.86611E-04 2.40914E-05-8.27181E-25
 -1       596 1.87353E-04 2.20081E-05-4.13590E-25
 -1       597 1.88093E-04 1.99297E-05 8.27181E-25
 -1       598 1.88829E-04 1.78610E-05 0.00000E+00
 -1       599 1.89560E-04 1.58066E-05 8.27181E-25
 -1       600 1.90283E-04 1.37714E-05 0.00000E+00
 -1       601 1.90998E-04 1.17601E-05-8.27181E-25
 -1       602 1.91702E-04 9.77767E-06 0.00000E+00
 -1       603 1.92394E-04 7.82877E-06 0.00000E+00
 -1       604 1.93072E-04 5.91832E-06-1.03398E-25
 -1       605 1.93734E-04 4.05103E-06 0.00000E+00
 -1       606 1.84539E-04 4.48992E-07 0.00000E+00
 -1       607 1.84549E-04-6.28897E-07 0.00000E+00
 -1       608 1.84557E-04-1.62599E-06 0.00000E+00
 -1       609 1.84566E-04-2.54798E-06 1.65436E-24
 -1       610 1.84574E-04-3.40059E-06 3.30872E-24
 -1       611 1.84583E-04-4.18963E-06 0.00000E+00
 -1       612 1.84591E-04-4.92087E-06 0.00000E+00
 -1       613 1.84599E-04-5.60016E-06 0.00000E+00
 -1       614 1.84608E-04-6.23328E-06 0.00000E+00
 -1       615 1.84616E-04-6.82605E-06 0.00000E+00
 -1       616 1.84624E-04-7.38428E-06-1.65436E-24
 -1       617 1.84633E-04-7.91379E-06 0.00000E+00
 -1       618 1.84641E-04-8.42037E-06 8.27181E-25
 -1       619 1.84649E-04-8.90985E-06 2.06795E-25
 -1       620 1.84658E-04-9.38803E-06-2.06795E-25
 -1       621 1.85884E-04 1.71663E-06 3.30872E-24
 -1       622 1.87401E-04 1.82079E-06 8.27181E-25
 -1       623 1.89042E-04 1.92474E-06-1.65436E-24
 -1       624 1.90776E-04 2.02836E-06 0.00000E+00
 -1       625 1.92567E-04 2.13170E-06-1.65436E-24
 -1       626 1.85074E-04 4.85104E-07 3.30872E-24
 -1       627 1.85600E-04-5.79476E-07 0.00000E+00
 -1       628 1.86105E-04-1.58888E-06-6.61744E-24
 -1       629 1.86593E-04-2.55127E-06-1.65436E-24
 -1       630 1.87066E-04-3.47486E-06 3.30872E-24
 -1       631 1.87528E-04-4.36783E-06 1.65436E-24
 -1       632 1.87982E-04-5.23839E-06 3.30872E-24
 -1       633 1.88430E-04-6.09477E-06-1.65436E-24
 -1       634 1.88876E-04-6.94517E-06-3.30872E-24
 -1       635 1.89323E-04-7.79779E-06 0.00000E+00
 -1       636 1.89774E-04-8.66085E-06 0.00000E+00
 -1       637 1.90232E-04-9.54257E-06 0.00000E+00
 -1       638 1.90699E-04-1.04512E-05 0.00000E+00
 -1       639 1.91180E-04-1.13948E-05 8.27181E-25
 -1       640 1.91676E-04-1.23819E-05 1.65436E-24
 -1       656 1.85371E-04-1.04393E-05 0.00000E+00
 -1       657 1.86496E-04-1.10414E-05 6.61744E-24
 -1       658 1.87902E-04-1.16421E-05 1.32349E-23
 -1       659 1.89442E-04-1.22425E-05 6.61744E-24
 -1       660 1.90932E-04-1.28447E-05 0.00000E+00
 -1       661 1.84929E-04-1.03785E-05 0.00000E+00
 -1       662 1.85231E-04-1.09881E-05 0.00000E+00
 -1       663 1.85565E-04-1.16844E-05-1.65436E-24
 -1       664 1.85930E-04-1.24609E-05-8.27181E-25
 -1       665 1.86322E-04-1.33116E-05 0.00000E+00
 -1       666 1.86740E-04-1.42308E-05 8.27181E-25
 -1       667 1.87181E-04-1.52127E-05-1.65436E-24
 -1       668 1.87644E-04-1.62517E-05-8.27181E-25
 -1       669 1.88126E-04-1.73425E-05 1.65436E-24
 -1       670 1.88626E-04-1.84797E-05 8.27181E-25
 -1       671 1.89141E-04-1.96581E-05 0.00000E+00
 -1       672 1.89669E-04-2.08727E-05 0.00000E+00
 -1       673 1.90209E-04-2.21184E-05 0.00000E+00
 -1       674 1.90758E-04-2.33905E-05 4.13590E-25
 -1       675 1.91315E-04-2.46837E-05 0.00000E+00
 -1       676 1.85127E-04-2.54771E-05-3.30872E-24
 -1       677 1.86481E-04-2.55814E-05 0.00000E+00
 -1       678 1.87834E-04-2.56856E-05 0.00000E+00
 -1       679 1.89184E-04-2.57895E-05-1.65436E-24
 -1       680 1.90530E-04-2.58934E-05 0.00000E+00
 -1       771 1.86709E-05 1.47279E-05 0.00000E+00
 -1       772 8.61465E-06 3.66813E-05 0.00000E+00
 -1       773 3.64503E-07 5.40887E-05 0.00000E+00
 -1       774-6.20389E-06 6.72082E-05 2.64698E-23
 -1       775-1.12122E-05 7.63080E-05 0.00000E+00
 -1       776-1.47869E-05 8.16732E-05 0.00000E+00
 -1       777-1.70544E-05 8.35991E-05 5.29396E-23
 -1       778-1.81437E-05 8.23947E-05 0.00000E+00
 -1       779-1.81830E-05 7.83777E-05 0.00000E+00
 -1       780-1.73026E-05 7.18770E-05 0.00000E+00
 -1       781-1.56319E-05 6.32284E-05 0.00000E+00
 -1       782-1.33020E-05 5.27766E-05-2.64698E-23
 -1       783-1.04427E-05 4.08709E-05 0.00000E+00
 -1       784-7.18546E-06 2.78668E-05 0.00000E+00
 -1       785-3.66053E-06 1.41229E-05 0.00000E+00
 -1       786 1.93745E-04 3.23835E-05-3.23117E-27
 -1       787 1.93787E-04 3.01803E-05 0.00000E+00
 -1       788 1.93828E-04 2.80185E-05 0.00000E+00
 -1       789 1.93870E-04 2.58900E-05 8.27181E-25
 -1       790 1.93912E-04 2.37901E-05 1.65436E-24
 -1       791 1.93955E-04 2.17143E-05 8.27181E-25
 -1       792 1.93997E-04 1.96604E-05 0.00000E+00
 -1       793 1.94040E-04 1.76264E-05 8.27181E-25
 -1       794 1.94082E-04 1.56120E-05 1.65436E-24
 -1       795 1.94125E-04 1.36173E-05-8.27181E-25
 -1       796 1.94168E-04 1.16442E-05 1.65436E-24
 -1       797 1.94210E-04 9.69457E-06-8.27181E-25
 -1       798 1.94253E-04 7.77290E-06 0.00000E+00
 -1       799 1.94296E-04 5.88359E-06 0.00000E+00
 -1       800 1.94339E-04 4.03431E-06 1.65436E-24
 -1       801 1.47921E-04 3.11376E-05 0.00000E+00
 -1       802 9.48423E-06 1.94258E-05-2.64698E-23
 -1       803-1.08769E-04 9.81178E-06 5.29396E-23
 -1       804-9.64271E-05 6.82930E-06 2.64698E-23
 -1       805-3.18602E-05 2.68393E-06 0.00000E+00
 -1       806 1.94436E-04 3.23149E-05-1.65436E-24
 -1       807 1.95152E-04 3.00198E-05-1.65436E-24
 -1       808 1.95855E-04 2.77561E-05 0.00000E+00
 -1       809 1.96544E-04 2.55277E-05 0.00000E+00
 -1       810 1.97218E-04 2.33388E-05 0.00000E+00
 -1       811 1.97876E-04 2.11933E-05 0.00000E+00
 -1       812 1.98517E-04 1.90952E-05 3.30872E-24
 -1       813 1.99138E-04 1.70483E-05 0.00000E+00
 -1       814 1.99739E-04 1.50566E-05-3.30872E-24
 -1       815 2.00318E-04 1.31240E-05-1.65436E-24
 -1       816 2.00873E-04 1.12544E-05 0.00000E+00
 -1       817 2.01403E-04 9.45172E-06 0.00000E+00
 -1       818 2.01907E-04 7.71983E-06-1.65436E-24
 -1       819 2.02384E-04 6.06262E-06-1.65436E-24
 -1       820 2.02831E-04 4.48392E-06-1.65436E-24
 -1       821 1.94254E-04-1.03623E-07-1.65436E-24
 -1       822 1.94114E-04-3.55270E-06 1.65436E-24
 -1       823 1.93972E-04-7.69888E-06 0.00000E+00
 -1       824 1.93828E-04-1.21223E-05-1.65436E-24
 -1       825 1.93684E-04-1.63283E-05 3.30872E-24
 -1       826 1.93543E-04-1.98235E-05 1.65436E-24
 -1       827 1.93405E-04-2.23078E-05 0.00000E+00
 -1       828 1.93268E-04-2.34872E-05 0.00000E+00
 -1       829 1.93133E-04-2.34225E-05 0.00000E+00
 -1       830 1.92997E-04-2.21820E-05 0.00000E+00
 -1       831 1.92860E-04-2.01535E-05 0.00000E+00
 -1       832 1.92722E-04-1.77299E-05-1.65436E-24
 -1       833 1.92584E-04-1.54114E-05-3.30872E-24
 -1       834 1.92449E-04-1.36974E-05 0.00000E+00
 -1       835 1.92315E-04-1.29238E-05-8.27181E-25
 -1       836 1.96070E-04 2.35803E-06 0.00000E+00
 -1       837 1.97632E-04 2.48633E-06 0.00000E+00
 -1       838 1.99100E-04 2.61456E-06 0.00000E+00
 -1       839 2.00505E-04 2.74208E-06-8.27181E-25
 -1       840 2.01878E-04 2.86945E-06 0.00000E+00
 -1       856 1.92173E-04-1.44816E-05-8.27181E-25
 -1       857 1.92153E-04-1.54069E-05 0.00000E+00
 -1       858 1.92134E-04-1.62175E-05 2.06795E-25
 -1       859 1.92114E-04-1.69346E-05 0.00000E+00
 -1       860 1.92095E-04-1.75793E-05 0.00000E+00
 -1       861 1.92075E-04-1.81731E-05 0.00000E+00
 -1       862 1.92055E-04-1.87372E-05 4.13590E-25
 -1       863 1.92035E-04-1.92930E-05-4.13590E-25
 -1       864 1.92016E-04-1.98617E-05 0.00000E+00
 -1       865 1.91996E-04-2.04649E-05 0.00000E+00
 -1       866 1.91976E-04-2.11237E-05-8.27181E-25
 -1       867 1.91956E-04-2.18594E-05 0.00000E+00
 -1       868 1.91936E-04-2.26933E-05-8.27181E-25
 -1       869 1.91915E-04-2.36465E-05 4.13590E-25
 -1       870 1.91895E-04-2.47401E-05 0.00000E+00
 -1       871 1.93538E-04-1.34255E-05-8.27181E-25
 -1       872 1.95034E-04-1.34338E-05 0.00000E+00
 -1       873 1.96610E-04-1.34429E-05 0.00000E+00
 -1       874 1.98197E-04-1.34526E-05 1.29247E-25
 -1       875 1.99726E-04-1.34630E-05 8.27181E-25
 -1       876 1.92714E-04-1.44670E-05 0.00000E+00
 -1       877 1.93217E-04-1.54467E-05 1.65436E-24
 -1       878 1.93698E-04-1.63675E-05 0.00000E+00
 -1       879 1.94160E-04-1.72368E-05 0.00000E+00
 -1       880 1.94606E-04-1.80620E-05-3.30872E-24
 -1       881 1.95038E-04-1.88506E-05-1.65436E-24
 -1       882 1.95459E-04-1.96098E-05 0.00000E+00
 -1       883 1.95872E-04-2.03470E-05 1.65436E-24
 -1       884 1.96280E-04-2.10696E-05 0.00000E+00
 -1       885 1.96684E-04-2.17849E-05 1.65436E-24
 -1       886 1.97089E-04-2.25002E-05 0.00000E+00
 -1       887 1.97496E-04-2.32230E-05 0.00000E+00
 -1       888 1.97909E-04-2.39604E-05 0.00000E+00
 -1       889 1.98329E-04-2.47202E-05-1.65436E-24
 -1       890 1.98760E-04-2.55095E-05-1.65436E-24
 -1       891 1.93236E-04-2.60526E-05 0.00000E+00
 -1       892 1.94576E-04-2.61103E-05 0.00000E+00
 -1       893 1.95867E-04-2.61679E-05 0.00000E+00
 -1       894 1.97084E-04-2.62252E-05-4.13590E-25
 -1       895 1.98203E-04-2.62823E-05-4.13590E-25
 -1       956 2.03119E-04 1.66596E-06 1.65436E-24
 -1       957 2.02987E-04 4.36114E-07 8.27181E-25
 -1       958 2.02854E-04-7.12772E-07 3.30872E-24
 -1       959 2.02721E-04-1.79205E-06 0.00000E+00
 -1       960 2.02588E-04-2.81311E-06 0.00000E+00
 -1       961 2.02455E-04-3.78740E-06 0.00000E+00
 -1       962 2.02323E-04-4.72635E-06 0.00000E+00
 -1       963 2.02190E-04-5.64143E-06-1.65436E-24
 -1       964 2.02057E-04-6.54410E-06 0.00000E+00
 -1       965 2.01924E-04-7.44581E-06 0.00000E+00
 -1       966 2.01791E-04-8.35804E-06 0.00000E+00
 -1       967 2.01659E-04-9.29223E-06 0.00000E+00
 -1       968 2.01526E-04-1.02598E-05 0.00000E+00
 -1       969 2.01393E-04-1.12723E-05 0.00000E+00
 -1       970 2.01261E-04-1.23410E-05 0.00000E+00
 -1       971 2.01011E-04-1.46123E-05 0.00000E+00
 -1       972 2.00889E-04-1.56532E-05 0.00000E+00
 -1       973 2.00768E-04-1.66099E-05-3.30872E-24
 -1       974 2.00647E-04-1.74933E-05 1.65436E-24
 -1       975 2.00525E-04-1.83143E-05 3.30872E-24
 -1       976 2.00404E-04-1.90836E-05 1.65436E-24
 -1       977 2.00282E-04-1.98123E-05-3.30872E-24
 -1       978 2.00161E-04-2.05112E-05 1.65436E-24
 -1       979 2.00039E-04-2.11911E-05-3.30872E-24
 -1       980 1.99918E-04-2.18631E-05-1.65436E-24
 -1       981 1.99797E-04-2.25380E-05 0.00000E+00
 -1       982 1.99675E-04-2.32267E-05 0.00000E+00
 -1       983 1.99554E-04-2.39402E-05 0.00000E+00
 -1       984 1.99434E-04-2.46893E-05 1.65436E-24
 -1       985 1.99313E-04-2.54849E-05-3.30872E-24
 -3
    1PSTEP                        36          18           1          
  100CL  118 6.63143E-01         409                     0   18           1
 -4  STRESS      6    1
 -5  SXX         1    4    1    1
 -5  SYY         1    4    2    2
 -5  SZZ         1    4    3    3
 -5  SXY         1    4    1    2
 -5  SYZ         1    4    2    3
 -5  SZX         1    4    3    1
 -1         1-5.33544E+06-1.61081E+06-1.13379E+06-1.37828E+06 5.96629E-10 1.24564E-08
 -1         2 1.42737E+06 2.09682E+07 4.90756E+06 6.32256E+06 3.06463E-08-1.11206E-07
 -1         3-1.48871E+03-1.56319E+06 4.06790E+02-2.21914E+03-5.44116E-10 3.08501E-09
 -1         5-7.52169E+01 3.86559E+05 9.98734E+00-1.34301E+00-5.01200E-10 5.14829E-08
 -1         8-5.63995E+05-2.02835E+05-6.37154E+04-2.47124E+05 1.09139E-10 2.70600E-07
 -1         9 1.17150E+07 3.67214E+06 2.75046E+06-3.72420E+05-1.10595E-08-1.41095E-07
 -1        10-2.30671E+03-1.62896E+06-3.95703E+03-1.50151E+04-1.37607E-08-5.25789E-08
 -1        12-7.12963E+01 3.86580E+05 3.28304E+02-9.15371E+00-4.90726E-10 1.94268E-09
 -1        15 9.40400E+02 5.16796E+02 3.03982E+03 8.53806E-01-1.30854E-10 1.15238E-07
 -1        16 2.28789E+07-3.21723E+05 3.11678E+06-2.25502E+06 2.28756E-08-1.54910E-07
 -1        17 8.37144E+06 6.27525E+06 2.26194E+06 6.00550E+06 2.06346E-08 3.10945E-08
 -1        18 1.41844E+05 3.32227E+04 3.84341E+03-1.19714E+05 1.06090E-08-5.01814E-09
 -1        19 1.22454E+05 1.41694E+05-9.50378E+02 2.19917E+04 1.63036E-09 1.24139E-08
 -1        20-8.19825E+04-5.73895E+05-1.28777E+05 2.51221E+04-2.04409E-09 2.95113E-08
 -1        21-4.55903E+01-2.96092E+05-9.24230E+02 2.75130E+02 1.52405E-08 6.95393E-09
 -1        24 1.40119E+07 1.20728E+07 3.88050E+06 1.11792E+07-1.66998E-07-5.44824E-08
 -1        25 1.24745E+05 2.67299E+05 9.99735E+04-6.45789E+05-1.56897E-09 4.36248E-09
 -1        26-5.60337E+04 9.19387E+04-2.51915E+04 1.46818E+03 2.73212E-10 1.00629E-08
 -1        27-7.54970E+04-3.10032E+05-1.13313E+05 6.89756E+04 3.94690E-09 1.24934E-09
 -1        28 2.22468E+04-8.53703E+04 1.69022E+04 2.06191E+04-2.92198E-09-6.45797E-09
 -1        32-1.68070E+06-3.18072E+06-1.97286E+05 4.57440E+05-4.21642E-08-1.09239E-08
 -1        33-1.78561E+05 9.31050E+04 3.24153E+04-3.82578E+04-3.20195E-09 1.41357E-08
 -1        34-2.23662E+05-2.50489E+04 6.89911E+02 7.56901E+04-6.48156E-09 1.47217E-09
 -1        35-2.29372E+04-3.38552E+04-1.34881E+03 5.15104E+04-4.07289E-09 1.21230E-08
 -1        51 6.05364E+04-1.73151E+05 1.28063E+05-4.43355E+05 1.60071E-10-6.04559E-08
 -1        52 2.05098E+04-1.50801E+05 6.72050E+04-5.17073E+05 3.52884E-10-2.36003E-07
 -1        53 4.19924E+03-1.66178E+05 3.50087E+04-4.41827E+05 2.23736E-10-9.76725E-08
 -1        54 7.44478E+03-1.61971E+05 2.87909E+04-5.18574E+05 4.00178E-11-1.12484E-07
 -1        55 1.62144E+04-1.69026E+05 3.50487E+04-4.41730E+05 5.09317E-10 1.16073E-07
 -1        56-9.76427E+06-1.34694E+06-9.06355E+05-4.05844E+06-2.95695E-08-4.30737E-08
 -1        57-1.10088E+07-8.83488E+05-5.50112E+05-2.76639E+06-1.60653E-08 1.66598E-07
 -1        58-9.60369E+06-1.80071E+06-2.00613E+05-4.23395E+06-2.22281E-08-3.90428E-08
 -1        59-1.11477E+07-3.66999E+05-1.09371E+05-2.69842E+06-4.10032E-08-2.25118E-07
 -1        60-9.69366E+06-1.80545E+06-5.62896E+04-4.18691E+06-8.85120E-09-3.34840E-08
 -1        61-1.05471E+07-6.79327E+05 1.10796E+04-2.94368E+06 1.12050E-08-2.52476E-08
 -1        62-1.00834E+07-1.56978E+06-6.91466E+04-3.89366E+06-5.44242E-08-1.46632E-07
 -1        63-9.71310E+06-1.34664E+06 4.69351E+04-3.60899E+06 2.44472E-09 4.89217E-08
 -1        64-1.04324E+07-1.20589E+06-6.35020E+04-3.46085E+06-6.44650E-09 3.19633E-08
 -1        65-9.34463E+06-1.91917E+06 8.58338E+03-4.45439E+06-1.00641E-07-3.94091E-07
 -1        66-1.05635E+07-9.19809E+05-4.64686E+04-3.13225E+06 2.29920E-08 9.77907E-08
 -1        67-9.34379E+06-2.16728E+06-9.85318E+04-4.85309E+06-6.66987E-08 1.83900E-08
 -1        68-1.05440E+07-8.80393E+05-1.85667E+05-3.13171E+06-3.98122E-08-4.38304E-08
 -1        69-9.53684E+06-2.25916E+06-4.90089E+05-4.42103E+06-7.39565E-08-3.38303E-07
 -1        70-1.02688E+07-9.10778E+05-8.30905E+05-3.49610E+06 1.70667E-08-3.57977E-08
 -1        86-1.45595E+06-1.51490E+07-2.68532E+06-2.97280E+06-2.64223E-07-1.37530E-07
 -1        87 2.27702E+06 5.98038E+06 2.23388E+06 5.54914E+06-4.37787E-07-1.75938E-07
 -1        88-4.22756E+05-2.00565E+06 2.09691E+05-2.50357E+06-3.88942E-07-1.88625E-07
 -1        89 3.05039E+06 5.70196E+06 2.28829E+06 5.73103E+06-5.75616E-07-2.74089E-07
 -1        90-2.14120E+06-1.49425E+07-2.90170E+06-3.18137E+06-1.30447E-07-4.16185E-09
 -1       121-2.03947E+03-1.56809E+06-5.46683E+02 1.09993E+03 1.43218E-09 1.26529E-08
 -1       122-1.30232E+03-1.56325E+06 7.71550E+02-4.44227E+03-5.42852E-09-1.23109E-08
 -1       123-2.05928E+03-1.56823E+06 2.63814E+02 3.28495E+03 4.24245E-09-2.43745E-09
 -1       124 3.39073E+02-1.56280E+06 2.95776E+03-9.29386E+03-1.08212E-08 3.61979E-08
 -1       125-2.87059E+03-1.56912E+06 3.47265E+03 5.90556E+03 6.13181E-09 1.38061E-08
 -1       191-7.92650E+01 3.86577E+05 8.49652E+00 7.00225E-01-5.40336E-10 2.65536E-08
 -1       192-7.61811E+01 3.86560E+05 2.13125E+01-4.30536E+00-7.42237E-10-5.84350E-09
 -1       193-8.18031E+01 3.86577E+05 3.62884E+01 3.78100E+00-1.03491E-09-1.68257E-08
 -1       194-7.92725E+01 3.86563E+05 8.10202E+01-9.76926E+00-6.97121E-10-2.05246E-08
 -1       195-8.66746E+01 3.86574E+05 1.55119E+02 6.35732E+00-1.57611E-09-1.14596E-10
 -1       251-8.70455E+05 1.61792E+04-3.77924E+04-1.41841E+04 7.08937E-10 3.16704E-08
 -1       252-8.84960E+05-1.87140E+04-2.63249E+04 4.95503E+04-2.29983E-09 3.92761E-08
 -1       253-8.78703E+05 2.48624E+03-1.01440E+04-1.01734E+04 9.10518E-10-3.51420E-08
 -1       254-8.71883E+05-2.99458E+03-4.64946E+03 3.54238E+04-4.38320E-09-2.33882E-07
 -1       255-8.82951E+05 7.68258E+01-3.46579E+03-6.06851E+01 1.40153E-09 7.17889E-08
 -1       256-8.66606E+05-2.81600E+02 1.05562E+03 1.23964E+04 2.05728E-09-1.57483E-07
 -1       257-8.83553E+05-5.42483E+02-1.33223E+03 1.28436E+04 1.65574E-09-1.91408E-07
 -1       258-8.69209E+05 8.64606E+02 2.61318E+03-1.19148E+04-1.14533E-08-1.82402E-07
 -1       259-8.80579E+05-8.91054E+02 1.38463E+03 2.42482E+04-5.89148E-09-7.57789E-08
 -1       260-8.75263E+05 2.85029E+03 5.51296E+03-2.94869E+04 2.15726E-09-2.13609E-07
 -1       261-8.78105E+05-2.06075E+03 8.59927E+03 3.04305E+04 8.83853E-09-7.16814E-08
 -1       262-8.73833E+05 1.16268E+04 2.13557E+04-3.46205E+04-1.49830E-08-2.04502E-07
 -1       263-8.82248E+05-9.44864E+03 3.38473E+04 2.93905E+04 3.03783E-09 1.88529E-07
 -1       264-8.43695E+05 6.65100E+04 9.36609E+04-2.55257E+04 2.86802E-08 1.48413E-07
 -1       265-9.07763E+05-5.70644E+04 1.30510E+05 2.13245E+04 2.28777E-08 9.52277E-08
 -1       266-1.70246E+04-7.96153E+03 3.99407E+04-1.82673E+01-2.51021E-10 1.57448E-08
 -1       267 1.97360E+04 9.27807E+03 2.82315E+04 2.10787E+01 1.18234E-10-1.64203E-08
 -1       268-2.64657E+03-1.31410E+03 1.04934E+04-2.68569E+00-6.95763E-11-3.47779E-08
 -1       269 3.12480E+03 1.57262E+03 6.82065E+03 3.12854E+00-1.63823E-10 3.32663E-08
 -1       270-4.69037E+02-2.58398E+02 3.29242E+03-4.24560E-01 1.19940E-10 6.78780E-08
 -1       271-1.50045E+06-1.90416E+05-1.12916E+05-5.83455E+05-2.67828E-08-9.77088E-08
 -1       272-1.49980E+06-3.02704E+05-7.10689E+04-6.19104E+05-2.04454E-08 7.81101E-08
 -1       273-1.52418E+06-2.14652E+05-2.73261E+04-5.75456E+05 9.14952E-09-7.06259E-08
 -1       274-1.47258E+06-2.73580E+05-1.43037E+04-6.34033E+05 1.78534E-08 2.42644E-08
 -1       275-1.52975E+06-2.14381E+05-6.77673E+03-5.71741E+05 3.27927E-08-2.73987E-07
 -1       276-1.46680E+06-2.74392E+05-2.90948E+03-6.42408E+05-5.10227E-09-2.51563E-07
 -1       277-1.53253E+06-2.11842E+05-1.86886E+03-5.69049E+05 2.54295E-08 1.62977E-07
 -1       278-1.46452E+06-2.77564E+05-7.43065E+02-6.48569E+05-7.75653E-08 4.70769E-07
 -1       279-1.53430E+06-2.09746E+05-8.87155E+02-5.67152E+05 2.87346E-08-5.36397E-08
 -1       280-1.46343E+06-2.79980E+05-1.04879E+03-6.52643E+05-1.96796E-08-5.91032E-08
 -1       281-1.53525E+06-2.08403E+05-1.93513E+03-5.66075E+05-8.95216E-09-2.90851E-07
 -1       282-1.46380E+06-2.82257E+05-4.50567E+03-6.54343E+05 1.95232E-08-1.23730E-08
 -1       283-1.53473E+06-2.07091E+05-8.01712E+03-5.65935E+05-9.05823E-09 1.53635E-07
 -1       284-1.47096E+06-2.92829E+05-2.18437E+04-6.52164E+05-2.89856E-09 1.34971E-07
 -1       285-1.52806E+06-1.99040E+05-3.40830E+04-5.67744E+05 1.57502E-08-1.11639E-07
 -1       301-5.89249E+03-6.44201E+05 1.67166E+05-1.13038E+06-2.29920E-09 2.99769E-08
 -1       302-7.35151E+03-5.97712E+05 1.00606E+05-1.65007E+06-2.31375E-08 7.55674E-07
 -1       303-2.07775E+04-6.36393E+05 5.69278E+04-1.12729E+06 2.72121E-08 1.73510E-07
 -1       304-2.32498E+04-6.04506E+05 5.74397E+04-1.64946E+06-2.22353E-08 3.76313E-08
 -1       305-2.50045E+04-6.25242E+05 7.08169E+04-1.13039E+06 1.32786E-10-2.07699E-07
 -1       306-3.01505E+07-6.22460E+06-8.61666E+06-5.15810E+05-7.01984E-08-1.24215E-07
 -1       307 2.53772E+07 3.27421E+06 5.51911E+06-1.52318E+07-8.47096E-07 2.52854E-07
 -1       308-6.96216E+06-1.02665E+06-4.50921E+05 5.21360E+06-1.64902E-07 1.04614E-07
 -1       309-3.24335E+06 8.76082E+06 2.28978E+06-2.06926E+07 5.35583E-07 1.17543E-08
 -1       310-1.25833E+07-1.94792E+06-2.04138E+06 5.22425E+06-6.43777E-08-2.23590E-07
 -1       311 3.84962E+07 1.48369E+04 7.29017E+06-8.80952E+06 2.42289E-07-3.87925E-07
 -1       312-3.19628E+07-6.78379E+06-8.54964E+06-5.04847E+06-1.83121E-07-3.51138E-08
 -1       313 4.54785E+07 1.50548E+07 1.06826E+07 2.38421E+07-1.17259E-07 1.63796E-07
 -1       314-1.72273E+07-1.78158E+07-7.53327E+06-1.25452E+07 3.24217E-07-1.38301E-07
 -1       315-1.84311E+06 2.97804E+07 5.67480E+06 1.05445E+07-5.42379E-07 1.69268E-07
 -1       316 1.40800E+06-9.84605E+06-4.38870E+05-2.52219E+06-1.13351E-06-1.47731E-07
 -1       317-1.71181E+07 2.24437E+07 2.24441E+06-8.84720E+06 8.25137E-07-7.65445E-07
 -1       318-1.07366E+06-1.28081E+07-2.04881E+06-4.23991E+06-9.47504E-07 1.54367E-07
 -1       319 7.23863E+06 3.20199E+07 7.05164E+06 1.66461E+07-1.18423E-07 2.62749E-07
 -1       320-2.26199E+07-1.76646E+07-9.86815E+06-1.28283E+07 2.18395E-07-5.73054E-08
 -1       336-7.41475E+02-1.69751E+06-1.38806E+04 8.93979E+03-2.65427E-08 3.01370E-08
 -1       337-5.41853E+03-1.69707E+06-1.81142E+04-2.17125E+04-4.93976E-08 2.27374E-09
 -1       338 2.81283E+02-1.69700E+06-2.85279E+04 1.25218E+04-3.44126E-08-2.03727E-08
 -1       339-3.02714E+04-1.71435E+06-6.44814E+04-2.87284E+04-6.31117E-08 2.04891E-08
 -1       340 1.99481E+04-1.68242E+06-1.01572E+05 1.58246E+04-4.02833E-08 4.14038E-08
 -1       406-4.95751E+01 3.86560E+05 6.44626E+02 3.34881E+00-1.86898E-09 5.72982E-09
 -1       407 1.55086E+02 3.86694E+05 1.37759E+03 2.33905E+01-6.06178E-10-2.00816E-09
 -1       408 6.35490E+02 3.86459E+05 2.74682E+03-2.70608E+01-2.65140E-09 6.01540E-09
 -1       409 2.90912E+03 3.87571E+05 6.19107E+03 2.88916E+02-4.67935E-10 3.10392E-08
 -1       410 8.48593E+03 3.85669E+05 1.26357E+04-2.78621E+02-3.02680E-09 3.01279E-08
 -1       521-3.17047E+07-7.68710E+06-1.00713E+07-1.21812E+05-1.13854E-07-1.82190E-07
 -1       522 2.62509E+07 4.30737E+06 5.62948E+06-1.87497E+07-5.64178E-07-5.18892E-07
 -1       523-7.53584E+06-1.34042E+06-4.42423E+05 5.66338E+06 1.10886E-07-3.68367E-07
 -1       524-6.74928E+06 1.18329E+07 2.47800E+06-2.37615E+07 1.28760E-06-4.89650E-07
 -1       525-1.33809E+07-2.58618E+06-2.24510E+06 5.67798E+06 6.82427E-07-1.25263E-07
 -1       526 4.20439E+07-7.87419E+04 7.65345E+06-1.14619E+07 3.23867E-07 9.31323E-08
 -1       527-3.38205E+07-8.48715E+06-9.85888E+06-4.91075E+06 5.52856E-07 2.08674E-07
 -1       528 4.96752E+07 1.67873E+07 1.11463E+07 2.71240E+07-7.91624E-08-2.61352E-08
 -1       529-1.81705E+07-2.00355E+07-8.64054E+06-1.25756E+07-3.08501E-08-2.22353E-07
 -1       530-4.32930E+06 3.45951E+07 6.00801E+06 9.99635E+06-1.26311E-07 6.34231E-07
 -1       531 1.40990E+06-1.09200E+07-4.11361E+05-2.46577E+06-9.32341E-07 3.60014E-07
 -1       532-1.96300E+07 2.44544E+07 2.45385E+06-1.31600E+07 5.11747E-07-6.25107E-07
 -1       533-1.11617E+06-1.39631E+07-2.18263E+06-4.04292E+06-1.81812E-07-1.00612E-06
 -1       534 5.23126E+06 3.71758E+07 7.34167E+06 1.72272E+07-1.32422E-08 7.68399E-07
 -1       535-2.38060E+07-2.00698E+07-1.13186E+07-1.28987E+07 9.97679E-08 4.85685E-07
 -1       536-7.06073E+05-4.68243E+04-4.79665E+04-5.46841E+04-7.82074E-09 4.78540E-08
 -1       537-5.49396E+04 4.47784E+04 8.40419E+04 1.23847E+05-1.13388E-07 8.10101E-08
 -1       538-3.94405E+05 3.33158E+03 3.60439E+03-7.22010E+04 3.57783E-08 1.03034E-07
 -1       539-2.69052E+05 2.86884E+03 2.49479E+04 1.38735E+05 1.56717E-07 9.38749E-08
 -1       540-4.97338E+05-4.30469E+02-2.13105E+04-7.01069E+04 2.52844E-08 9.33939E-08
 -1       541 1.46640E+05 1.69733E+04 1.06389E+05 9.79242E+04 6.94035E-09 6.27006E-08
 -1       542-7.98896E+05-2.01345E+04-8.42293E+04-3.05155E+04 4.51951E-08 2.93031E-08
 -1       543 4.05294E+05 2.73238E+04 1.57961E+05-1.33639E+04-2.49283E-08-1.27034E-08
 -1       544-7.49054E+05-1.65353E+04-7.48304E+04 4.05117E+04 2.75868E-08-2.51923E-08
 -1       545 2.89293E+04 9.48115E+03 7.97999E+04-1.13622E+05-1.88959E-09-8.09696E-08
 -1       546-4.32639E+05 6.09684E+03-1.22322E+04 6.93964E+04 1.23298E-08-6.87580E-08
 -1       547-2.87143E+05-4.66224E+03 1.05737E+04-1.41583E+05-1.25704E-07-9.44038E-08
 -1       548-4.41479E+05 4.72419E+03-2.38983E+04 6.91632E+04-1.12498E-07-1.00096E-07
 -1       549 4.81085E+04 1.60381E+04 6.04653E+04-1.11481E+05-7.26320E-08-6.66168E-08
 -1       550-7.58920E+05-2.21108E+04-1.29029E+05 3.85790E+04 5.55701E-09-4.02197E-08
 -1       551 4.08242E+04-7.52379E+05-1.58041E+04-1.24760E+06-1.00685E-07-1.47847E-08
 -1       552 9.33123E+04-7.97360E+05 9.98403E+03-1.77893E+06-7.03876E-08 9.92441E-09
 -1       553 7.17919E+04-7.93769E+05 3.20982E+04-1.24095E+06-1.17827E-07 1.61090E-08
 -1       554 1.32115E+05-8.13239E+05 8.11548E+04-1.78087E+06-7.05768E-08 2.20825E-08
 -1       555 1.01548E+05-8.17420E+05 1.48195E+05-1.24078E+06-1.23982E-07-6.27188E-09
 -1       556 2.23726E+05-3.83692E+05 2.59536E+04-4.07319E+05-2.69501E-08-2.66591E-08
 -1       557 3.54352E+05-4.88070E+05 1.62538E+04-5.27741E+05 2.99769E-09-1.82954E-08
 -1       558 2.05505E+05-3.76521E+05 2.36715E+03-4.11738E+05-1.89175E-08-1.97033E-08
 -1       559 3.29305E+05-4.88163E+05 2.46199E+03-5.48198E+05 2.11730E-08-1.37916E-08
 -1       560 1.90196E+05-3.66921E+05-1.49578E+03-4.22770E+05 3.84171E-09-4.19823E-09
 -1       561 3.10066E+05-4.80465E+05 1.34647E+02-5.61315E+05 5.44242E-09 6.69388E-09
 -1       562 1.78091E+05-3.59400E+05-1.32483E+03-4.31536E+05 2.61934E-09-7.02130E-09
 -1       563 2.95688E+05-4.74196E+05-3.58319E+01-5.70706E+05-1.51340E-09 2.53958E-08
 -1       564 1.69452E+05-3.54017E+05-6.00349E+02-4.37658E+05-1.00408E-09 6.93899E-09
 -1       565 2.86151E+05-4.70043E+05 2.42980E+01-5.76799E+05 5.26779E-09 6.70934E-09
 -1       566 1.64402E+05-3.50823E+05-2.59817E+02-4.41190E+05-4.38013E-09-1.22218E-08
 -1       567 2.81517E+05-4.68027E+05-3.62208E+02-5.79614E+05 2.03872E-08 6.02813E-09
 -1       568 1.63032E+05-3.49984E+05-1.12540E+03-4.42244E+05 7.96626E-09 1.60508E-08
 -1       569 2.80396E+05-4.67954E+05-2.84261E+03-5.78183E+05-5.85078E-09 2.83326E-08
 -1       570 1.66435E+05-3.53220E+05-6.21525E+03-4.41223E+05 1.05792E-08 5.65251E-09
 -1       571 2.90694E+05 1.04628E+04 1.49220E+04-9.53914E+04-1.34787E-08 1.63222E-08
 -1       572 2.92855E+05 3.94606E+03 7.31299E+03-1.04654E+05-2.07492E-08-1.97715E-08
 -1       573 2.91552E+05 1.24359E+03 3.24941E+03-9.52143E+04-1.68166E-08 5.51518E-09
 -1       574 2.91764E+05 7.27922E+02 1.62958E+03-1.04879E+05-1.80992E-08-6.84031E-09
 -1       575 2.91645E+05 4.49651E+02 7.69132E+02-9.51900E+04-2.38896E-08 1.18580E-08
 -1       576 2.91629E+05 4.61324E+02 3.93831E+02-1.04908E+05-3.09565E-08 1.46592E-08
 -1       577 2.91685E+05 3.91729E+02 1.96654E+02-9.51867E+04-1.71258E-08-4.33010E-09
 -1       578 2.91660E+05 4.23221E+02 1.13713E+02-1.04913E+05-5.02041E-09-1.23255E-08
 -1       579 2.91757E+05 3.54868E+02 7.82653E+01-9.51864E+04 7.17409E-09-3.26236E-09
 -1       580 2.91762E+05 3.71971E+02 9.10979E+01-1.04908E+05-7.73525E-09-4.44470E-09
 -1       581 2.91872E+05 2.96034E+02 1.37815E+02-9.51923E+04 3.61979E-09 4.75666E-10
 -1       582 2.91938E+05 3.34430E+02 2.80355E+02-1.04846E+05 2.34559E-09-7.43148E-09
 -1       583 2.92012E+05 3.38613E+02 5.38183E+02-9.52490E+04 2.03727E-10-7.84325E-09
 -1       584 2.92315E+05 7.78187E+02 1.21790E+03-1.04369E+05 5.64796E-09-1.98720E-08
 -1       585 2.92039E+05 1.80317E+03 2.46621E+03-9.56689E+04-2.32649E-09-1.06229E-08
 -1       586-3.48170E+03 1.16959E+05-2.99757E+03-2.50947E+05-8.29732E-09 2.63381E-08
 -1       587-1.35980E+03 1.16698E+05 7.34292E+02-2.76186E+05-6.79393E-09 1.43654E-08
 -1       588 3.93580E+02 1.16512E+05 4.74795E+03-2.50809E+05-3.87445E-09 1.25738E-08
 -1       589 5.08805E+03 1.18986E+05 1.23496E+04-2.75953E+05-3.18687E-09 9.40054E-09
 -1       590 1.66259E+04 1.15176E+05 2.59194E+04-2.51241E+05-5.31327E-09 7.63976E-09
 -1       591-7.64832E+04-1.58261E+04-2.27089E+04-3.24987E+04-7.82188E-09 4.19914E-09
 -1       592-8.07046E+04-1.97966E+04-1.23625E+04-3.60705E+04-1.28447E-08 3.83909E-08
 -1       593-7.88208E+04-1.44535E+04-5.13448E+03-3.40739E+04-9.39178E-09-3.17868E-10
 -1       594-7.75272E+04-1.63919E+04-2.56456E+03-3.62018E+04 1.27538E-08-5.52956E-09
 -1       595-7.89989E+04-1.44569E+04-1.17621E+03-3.41479E+04 1.17730E-09-3.40845E-09
 -1       596-7.73074E+04-1.62317E+04-5.97985E+02-3.61774E+04-5.01969E-09 5.59254E-09
 -1       597-7.90209E+04-1.44723E+04-3.25213E+02-3.41510E+04-1.46782E-08-3.84239E-09
 -1       598-7.72859E+04-1.62250E+04-2.60902E+02-3.61703E+04 3.50724E-11-5.81542E-09
 -1       599-7.90196E+04-1.44728E+04-3.32588E+02-3.41506E+04 8.33472E-09 2.90254E-09
 -1       600-7.73077E+04-1.62322E+04-6.17507E+02-3.61752E+04 4.62217E-09 6.44172E-09
 -1       601-7.89944E+04-1.44583E+04-1.21755E+03-3.41470E+04 7.44490E-09 4.73574E-09
 -1       602-7.75352E+04-1.63969E+04-2.65613E+03-3.61966E+04-4.49404E-10 1.69018E-09
 -1       603-7.88072E+04-1.44576E+04-5.31856E+03-3.40712E+04-1.32191E-08-1.11736E-08
 -1       604-8.08438E+04-1.99044E+04-1.28049E+04-3.60361E+04-1.19451E-09 8.35826E-10
 -1       605-7.63662E+04-1.58969E+04-2.35217E+04-3.24585E+04 1.01178E-08 9.56607E-09
 -1       606 2.66959E+04-1.43364E+04-2.57002E+04 2.39785E+04 7.62248E-09 1.63993E-08
 -1       607 2.23047E+04-4.68230E+03-1.27986E+04 2.69468E+04 2.56932E-09-2.24318E-08
 -1       608 2.48074E+04-8.44726E+02-5.72950E+03 2.38099E+04-3.00315E-09-6.72139E-09
 -1       609 2.43277E+04-2.89453E+02-2.89439E+03 2.71608E+04 1.75532E-09 2.50673E-08
 -1       610 2.45937E+04-4.10751E+01-1.38094E+03 2.37899E+04 4.41923E-09 6.88647E-09
 -1       611 2.45184E+04-4.13674E+01-6.96260E+02 2.71839E+04 7.54881E-09-4.77348E-09
 -1       612 2.45466E+04-2.73790E+01-3.30982E+02 2.37878E+04 7.98536E-10-4.71482E-09
 -1       613 2.45300E+04-3.72928E+01-1.48285E+02 2.71866E+04 2.73212E-09-7.13158E-09
 -1       614 2.45245E+04-3.38179E+01-3.46854E+01 2.37871E+04 3.28782E-09 5.09544E-09
 -1       615 2.45248E+04-3.58171E+01 6.23608E+01 2.71871E+04-7.04404E-10 8.54152E-09
 -1       616 2.45071E+04-3.07043E+01 1.86806E+02 2.37874E+04 9.95897E-09-4.76211E-09
 -1       617 2.45473E+04 3.97602E+00 4.26129E+02 2.71866E+04 1.62336E-08-1.17516E-08
 -1       618 2.44701E+04 9.21286E+01 8.58903E+02 2.37877E+04 8.54834E-09-1.11727E-08
 -1       619 2.48505E+04 6.68071E+02 1.92871E+03 2.71860E+04 1.29603E-11-6.56814E-09
 -1       620 2.41848E+04 2.12880E+03 3.87666E+03 2.37893E+04 3.05329E-09 1.57879E-08
 -1       621 5.10251E+02 3.01447E+05 3.86461E+03 4.12386E+04 9.38144E-10-3.52611E-09
 -1       622 6.75835E+02 3.02338E+05 3.41974E+03 5.98724E+04 1.17461E-09-9.65338E-09
 -1       623 1.43490E+02 3.01641E+05 4.09658E+03 4.10530E+04 1.21508E-09-7.00311E-09
 -1       624 2.10329E+03 3.03535E+05 7.93106E+03 6.00541E+04 1.13420E-09-1.79589E-08
 -1       625 2.05365E+03 3.00069E+05 1.38542E+04 4.10508E+04 1.41335E-09 4.61114E-10
 -1       626 2.60965E+05 6.14141E+04 5.11729E+03 1.26762E+05 2.04000E-09-3.41151E-09
 -1       627 2.58647E+05 6.28112E+04 2.46598E+03 1.31033E+05-1.43700E-09 7.28949E-09
 -1       628 2.61093E+05 5.90727E+04 1.04293E+03 1.27632E+05-1.82081E-09-1.35265E-09
 -1       629 2.58013E+05 6.21315E+04 5.10465E+02 1.31273E+05 1.82672E-09 7.52159E-09
 -1       630 2.61107E+05 5.89596E+04 2.36900E+02 1.27669E+05 1.04251E-08-1.49831E-08
 -1       631 2.57946E+05 6.21056E+04 1.27628E+02 1.31275E+05 1.84384E-08-2.04584E-08
 -1       632 2.61104E+05 5.89635E+04 8.42378E+01 1.27664E+05 1.61494E-08-1.65192E-08
 -1       633 2.57937E+05 6.21074E+04 9.42315E+01 1.31272E+05 2.63094E-09-6.80484E-09
 -1       634 2.61099E+05 5.89606E+04 1.52627E+02 1.27664E+05 6.16217E-09-7.89419E-09
 -1       635 2.57952E+05 6.21057E+04 3.09052E+02 1.31277E+05 3.60615E-10-1.48507E-08
 -1       636 2.61090E+05 5.89548E+04 6.24241E+02 1.27664E+05 6.67615E-09 8.67431E-09
 -1       637 2.58087E+05 6.22028E+04 1.37262E+03 1.31277E+05-8.86303E-10 2.63253E-08
 -1       638 2.61041E+05 5.92580E+04 2.82024E+03 1.27527E+05 9.72477E-09 2.40425E-08
 -1       639 2.59568E+05 6.42632E+04 6.67283E+03 1.30841E+05 9.82982E-09 1.68473E-08
 -1       640 2.60836E+05 6.54107E+04 1.38473E+04 1.24934E+05 6.86759E-09 1.25390E-08
 -1       656 6.66123E+04-1.70479E+06-1.60798E+05-2.56119E+03 8.73115E-11-2.60320E-09
 -1       657-8.81223E+04-1.77745E+06-1.33212E+05 5.15944E+03 2.79215E-10-1.27629E-08
 -1       658 2.12337E+04-1.72543E+06-8.20417E+04-4.64671E+03 2.90356E-10-6.58588E-10
 -1       659-9.52912E+04-1.78086E+06-1.42633E+05 6.89250E+03-1.73713E-09 2.09689E-09
 -1       660 7.37653E+04-1.70140E+06-1.76995E+05-4.29423E+03-1.59343E-09 3.53060E-09
 -1       661 1.58590E+05 1.65942E+04 1.67207E+04 6.19963E+04-2.08138E-09 1.21281E-08
 -1       662 1.68044E+05 2.89762E+04 1.12686E+04 5.82441E+04 9.11768E-10-7.82438E-09
 -1       663 1.61875E+05 2.19585E+04 3.94104E+03 6.10431E+04-3.75269E-09-6.19184E-09
 -1       664 1.64236E+05 2.27031E+04 2.35757E+03 5.94084E+04 5.79917E-10 2.21905E-09
 -1       665 1.62373E+05 2.26911E+04 9.30044E+02 6.08977E+04 7.08042E-10-1.01045E-08
 -1       666 1.63647E+05 2.18653E+04 5.44408E+02 5.95981E+04 5.97396E-09-1.22757E-08
 -1       667 1.62460E+05 2.27744E+04 2.89358E+02 6.08612E+04 3.29413E-09 1.02578E-08
 -1       668 1.63550E+05 2.18055E+04 2.95284E+02 5.96511E+04-3.81772E-09-2.61760E-08
 -1       669 1.62468E+05 2.27492E+04 4.00140E+02 6.08449E+04-1.89618E-09-9.56655E-09
 -1       670 1.63648E+05 2.20228E+04 8.71654E+02 5.96541E+04-7.41525E-09-3.93725E-09
 -1       671 1.62363E+05 2.25616E+04 1.54780E+03 6.08563E+04-1.10731E-10-1.63063E-08
 -1       672 1.64550E+05 2.35287E+04 3.96011E+03 5.94355E+04 6.82802E-09-1.78151E-08
 -1       673 1.61571E+05 2.12815E+04 6.63654E+03 6.10489E+04 2.64367E-09 1.13232E-09
 -1       674 1.70866E+05 3.41910E+04 1.89791E+04 5.75799E+04-1.87538E-09 2.82171E-09
 -1       675 1.56087E+05 1.21979E+04 2.81717E+04 6.25999E+04 1.76897E-10-5.56065E-09
 -1       676 2.41223E+01-2.96014E+05-1.11394E+03-1.37569E+02 3.33094E-09-1.64586E-08
 -1       677-2.94662E+02-2.96284E+05-2.03870E+03 2.74916E+02 9.64724E-09-9.54261E-09
 -1       678 1.97636E+02-2.95823E+05-3.60393E+03-1.37257E+02 1.94837E-09 7.63664E-09
 -1       679-3.60398E+03-2.98460E+05-8.56143E+03 2.73728E+02 1.13631E-08 4.05520E-09
 -1       680 2.15179E+03-2.93840E+05-1.37981E+04-1.34865E+02 1.52522E-09-9.22107E-09
 -1       771-3.06357E+06-7.47471E+05-1.65762E+05-1.46645E+06-3.59432E-08-2.77360E-08
 -1       772-2.98642E+06-8.36308E+05-8.54585E+04-1.56916E+06-2.31666E-08 2.30830E-08
 -1       773-3.09505E+06-7.22922E+05-4.35719E+04-1.48098E+06-1.35624E-08 1.17143E-08
 -1       774-2.97691E+06-8.17806E+05-1.94380E+04-1.59493E+06 3.79805E-08 1.39698E-09
 -1       775-3.11150E+06-7.11379E+05-1.45449E+04-1.48803E+06-2.73576E-09 2.21917E-09
 -1       776-2.98926E+06-8.14772E+05-5.43840E+03-1.61444E+06-1.35042E-08 2.41562E-09
 -1       777-3.12578E+06-7.01075E+05-6.42831E+03-1.49426E+06 4.91855E-09-3.73257E-09
 -1       778-3.00216E+06-8.11949E+05-1.81720E+03-1.63120E+06 1.99361E-08 8.73115E-11
 -1       779-3.13805E+06-6.92072E+05-3.21304E+03-1.49957E+06-1.25146E-09-1.28275E-08
 -1       780-3.01351E+06-8.09256E+05-5.32890E+02-1.64485E+06-1.02737E-08 3.63798E-11
 -1       781-3.14781E+06-6.84813E+05-1.24866E+03-1.50373E+06-2.43745E-08 1.56797E-09
 -1       782-3.02226E+06-8.06969E+05 4.49254E+02-1.65492E+06-3.51938E-08-1.63122E-08
 -1       783-3.15469E+06-6.79769E+05 6.98942E+02-1.50664E+06-6.41739E-09-1.60112E-08
 -1       784-3.02711E+06-8.04684E+05 2.89990E+03-1.66114E+06-1.96378E-08 2.03363E-09
 -1       785-3.15875E+06-6.76761E+05 5.11897E+03-1.50849E+06-3.85662E-08 7.39055E-09
 -1       786 1.22869E+05-9.74252E+03 2.25402E+04-3.20017E+02 2.98517E-10-2.80579E-09
 -1       787 1.32644E+05 1.12797E+04 1.59463E+04-1.36609E+02 4.50507E-09 2.21280E-09
 -1       788 1.26638E+05-1.52668E+03 5.83159E+03-2.85356E+02 4.10953E-09 7.59792E-09
 -1       789 1.28253E+05 1.76709E+03 3.66077E+03-1.89739E+02 2.86157E-09-1.28002E-08
 -1       790 1.27260E+05-2.37692E+02 1.48200E+03-2.66904E+02-1.22150E-09 9.46500E-09
 -1       791 1.27526E+05 2.74960E+02 8.55604E+02-2.21392E+02-9.89442E-09 8.51853E-09
 -1       792 1.27366E+05-3.56668E+01 3.61845E+02-2.53705E+02-5.69548E-09-4.40438E-09
 -1       793 1.27399E+05 3.73232E+01 1.78796E+02-2.46320E+02-7.86758E-10 3.83028E-09
 -1       794 1.27386E+05-2.04562E-01 4.32638E+01-2.41976E+02 3.72595E-09 4.41594E-09
 -1       795 1.27361E+05-3.01508E+01-6.62932E+01-2.70885E+02-6.73742E-09-1.27825E-08
 -1       796 1.27404E+05 3.17692E+01-1.77256E+02-2.29139E+02 4.33450E-09-1.22342E-08
 -1       797 1.27259E+05-2.37066E+02-4.82386E+02-3.00440E+02 4.37682E-09 1.75382E-08
 -1       798 1.27488E+05 2.06555E+02-7.82243E+02-2.12422E+02 2.36695E-09 1.57554E-08
 -1       799 1.26666E+05-1.52273E+03-2.15102E+03-3.41903E+02 6.64728E-09 2.54520E-08
 -1       800 1.27997E+05 1.31639E+03-3.04387E+03-1.87678E+02 1.30136E-10 8.80868E-09
 -1       801-1.70984E+05-9.99196E+06-1.39250E+06 1.41391E+06 9.33360E-08-5.78329E-08
 -1       802 7.37377E+05 5.94038E+06 2.17924E+06-1.74530E+06 2.57416E-07-3.63243E-08
 -1       803-5.36066E+05-1.42547E+07-1.88842E+06 8.97462E+05 7.57573E-08 1.21690E-08
 -1       804 2.86833E+05 2.38755E+06 1.53542E+06 6.76535E+05-1.19984E-07-8.54207E-08
 -1       805 1.89184E+05-6.45326E+06-2.85834E+05-1.00226E+06-5.05315E-08-6.06733E-08
 -1       806-3.09171E+05-5.98142E+04-2.28709E+04-1.22522E+05-3.02589E-09-9.70476E-09
 -1       807-3.10969E+05-5.60822E+04-1.12362E+04-1.28073E+05 1.54891E-08 3.04632E-09
 -1       808-3.09799E+05-5.15716E+04-4.76676E+03-1.26418E+05 1.25128E-08-8.14794E-09
 -1       809-3.08607E+05-5.29252E+04-2.33083E+03-1.28349E+05 8.04812E-09-1.41454E-08
 -1       810-3.09894E+05-5.12846E+04-1.06836E+03-1.26590E+05 1.54055E-08-9.35938E-09
 -1       811-3.08424E+05-5.27984E+04-5.31323E+02-1.28314E+05 8.76798E-09 5.48698E-09
 -1       812-3.09908E+05-5.13093E+04-2.68817E+02-1.26590E+05-2.50475E-09-1.54441E-08
 -1       813-3.08399E+05-5.28005E+04-1.74881E+02-1.28295E+05-1.56251E-09 5.36147E-09
 -1       814-3.09901E+05-5.13191E+04-1.73588E+02-1.26586E+05 1.75805E-09 1.02814E-08
 -1       815-3.08402E+05-5.28028E+04-2.79943E+02-1.28287E+05 6.31371E-09 1.19724E-08
 -1       816-3.09880E+05-5.13182E+04-5.30753E+02-1.26582E+05 5.26234E-09 3.24781E-08
 -1       817-3.08492E+05-5.28534E+04-1.13914E+03-1.28276E+05-1.43045E-08-1.24783E-09
 -1       818-3.09811E+05-5.14790E+04-2.32348E+03-1.26506E+05-7.69069E-09-1.74341E-08
 -1       819-3.09764E+05-5.42573E+04-5.46699E+03-1.27975E+05 4.45652E-10 8.39600E-09
 -1       820-3.09373E+05-5.56088E+04-1.11273E+04-1.24742E+05-2.53658E-09 2.30634E-08
 -1       821-3.78294E+05 2.09210E+04-4.86789E+04 2.08700E+03 1.41414E-08 1.89066E-08
 -1       822-3.98134E+05-2.42345E+04-3.42271E+04-4.32671E+03 4.68805E-09 2.23336E-08
 -1       823-3.85817E+05 3.29662E+03-1.25753E+04 3.34605E+03-1.14612E-08-4.00314E-09
 -1       824-3.89069E+05-3.80217E+03-7.87384E+03-5.19017E+03 3.05974E-10 3.84921E-09
 -1       825-3.87366E+05 5.12153E+02-3.29405E+03 2.95057E+03 1.91599E-08 2.07327E-08
 -1       826-3.86682E+05-5.70560E+02-1.76006E+03-2.97301E+03 2.85729E-08 2.86241E-08
 -1       827-3.88181E+05 4.95194E+01-1.18149E+03 1.12876E+03 1.16233E-08 1.27675E-08
 -1       828-3.86010E+05-1.35532E+02-6.05661E+02 1.09270E+03-3.16042E-09-2.09807E-09
 -1       829-3.88025E+05 6.78080E+01-1.16963E+03-1.11517E+03 3.34239E-11-4.16682E-09
 -1       830-3.87019E+05-6.22363E+02-1.89013E+03 4.75646E+03-2.36303E-09-4.77041E-09
 -1       831-3.87194E+05 5.52975E+02-3.36694E+03-2.53502E+03-4.74886E-09 9.15634E-10
 -1       832-3.89144E+05-3.95597E+03-8.15115E+03 5.98719E+03-4.02541E-09-3.58102E-09
 -1       833-3.85916E+05 3.41017E+03-1.30375E+04-2.34595E+03-1.19049E-09 4.46744E-09
 -1       834-3.98171E+05-2.50699E+04-3.53417E+04 4.06911E+03-3.99002E-09 1.92376E-08
 -1       835-3.78151E+05 2.16350E+04-5.03913E+04-6.16862E+02 6.65796E-09 2.09038E-08
 -1       836-1.40389E+03 3.70677E+05 2.27808E+04-1.57744E+04-6.95582E-09 1.53250E-09
 -1       837 4.85898E+03 3.77812E+05 1.93109E+04-3.22491E+04-7.71183E-09-1.48657E-08
 -1       838-5.56543E+02 3.72672E+05 1.97236E+04-1.57042E+04-6.40057E-09 1.09185E-09
 -1       839 1.24341E+04 3.83455E+05 3.73582E+04-3.23010E+04-6.57610E-09 1.13798E-08
 -1       840-3.84339E+03 3.64976E+05 5.95938E+04-1.57283E+04-6.23186E-09-6.44224E-09
 -1       856-5.22002E+04 8.02697E+03-2.11528E+04-3.97606E+02 3.67095E-09 8.07177E-09
 -1       857-6.09146E+04-9.43146E+03-1.45614E+04 5.63614E+03-3.22984E-10 2.37924E-09
 -1       858-5.56513E+04 1.12570E+03-5.48864E+03-4.21727E+02 1.14329E-09-9.35825E-09
 -1       859-5.69541E+04-1.32437E+03-3.31213E+03 5.67202E+03-6.84608E-10 5.43241E-09
 -1       860-5.61669E+04 1.57653E+02-1.38810E+03-4.33216E+02 9.33710E-10 1.80466E-09
 -1       861-5.63610E+04-1.88226E+02-7.63592E+02 5.68767E+03-7.96717E-10-3.01929E-08
 -1       862-5.62476E+04 2.13579E+01-3.17354E+02-4.37353E+02-7.60551E-10-8.77523E-09
 -1       863-5.62621E+04-2.18701E+01-1.15463E+02 5.69008E+03-1.02034E-08-1.84549E-08
 -1       864-5.62663E+04-4.91642E+00 4.75301E+01-4.35619E+02-2.18999E-09-9.99468E-09
 -1       865-5.62062E+04 5.97683E+01 2.56020E+02 5.68017E+03-8.89116E-10-8.34198E-09
 -1       866-5.63012E+04-6.02975E+01 5.15793E+02-4.27447E+02 7.11680E-11-3.84608E-09
 -1       867-5.59637E+04 4.97913E+02 1.26947E+03 5.65799E+03 8.80505E-10 1.63304E-08
 -1       868-5.65039E+04-4.35149E+02 2.10946E+03-4.13434E+02-1.64886E-09-1.58730E-09
 -1       869-5.44172E+04 3.62156E+03 5.61675E+03 5.62149E+03 2.00211E-09-1.91840E-08
 -1       870-5.78399E+04-3.09910E+03 8.15117E+03-3.90844E+02-6.90079E-11 6.82076E-09
 -1       871-5.52139E+03-2.13931E+04-1.95022E+04 1.30488E+05-4.61660E-09-2.27647E-09
 -1       872-1.98301E+03-2.59280E+04-8.16672E+03 1.69197E+05-1.12286E-08 5.36238E-09
 -1       873 4.05663E+02-2.37344E+04 5.88489E+02 1.30201E+05-6.12545E-09 8.17636E-10
 -1       874 3.30743E+03-2.13231E+04 9.78129E+03 1.69226E+05-1.12586E-08 1.02539E-08
 -1       875 6.84859E+03-2.60647E+04 2.20671E+04 1.30440E+05-5.67707E-09 3.97176E-09
 -1       876 2.93875E+05 4.95292E+04 1.51065E+04 1.17932E+05-7.00879E-10 1.83991E-09
 -1       877 2.94873E+05 5.27109E+04 8.06744E+03 1.22265E+05 2.57455E-09 1.40262E-08
 -1       878 2.95287E+05 4.78557E+04 3.37986E+03 1.19169E+05-2.93267E-09 3.48268E-09
 -1       879 2.92820E+05 5.06616E+04 1.68406E+03 1.22367E+05 1.39153E-08 1.47690E-08
 -1       880 2.95389E+05 4.78385E+04 7.84413E+02 1.19220E+05-2.99906E-10 1.34440E-09
 -1       881 2.92683E+05 5.05739E+04 4.18909E+02 1.22344E+05-5.19276E-09 1.22707E-08
 -1       882 2.95398E+05 4.78517E+04 2.68025E+02 1.19221E+05-8.81755E-10 2.49471E-09
 -1       883 2.92674E+05 5.05693E+04 2.88193E+02 1.22336E+05-1.02472E-09-2.31530E-08
 -1       884 2.95391E+05 4.78489E+04 4.58496E+02 1.19221E+05 1.82467E-09-1.80124E-08
 -1       885 2.92710E+05 5.05757E+04 9.21860E+02 1.22347E+05-4.18899E-09 1.48252E-08
 -1       886 2.95355E+05 4.78221E+04 1.85798E+03 1.19218E+05-6.22272E-10 2.18429E-08
 -1       887 2.93037E+05 5.07898E+04 4.05851E+03 1.22394E+05 6.77767E-09 6.13454E-09
 -1       888 2.95099E+05 4.78672E+04 8.17800E+03 1.19088E+05-7.05293E-09-1.02077E-08
 -1       889 2.97905E+05 5.58529E+04 1.95357E+04 1.22245E+05-3.71750E-09-1.89602E-08
 -1       890 2.91761E+05 5.18323E+04 3.65900E+04 1.15976E+05-2.13322E-09-1.97688E-08
 -1       891-8.93151E+01-1.62828E+05-1.99733E+03 2.71573E+04-5.72527E-10 9.77025E-10
 -1       892-1.75320E+02-1.63355E+05-2.14506E+03 4.12400E+04 1.86969E-09 2.47474E-08
 -1       893 4.38022E+01-1.62892E+05-3.03705E+03 2.71646E+04-3.80737E-09 1.46611E-08
 -1       894-1.51049E+03-1.64503E+05-6.28547E+03 4.10874E+04 3.36945E-09-1.33150E-09
 -1       895-1.19962E+03-1.61583E+05-1.10686E+04 2.73117E+04-1.70746E-09 3.83534E-09
 -1       956-3.77364E+05-5.44987E+03-1.34529E+04 3.09043E+04 5.40240E-09 3.09251E-09
 -1       957-3.80003E+05-1.92259E+03-6.90516E+03 3.71387E+04-1.70849E-09-2.88221E-08
 -1       958-3.78573E+05-2.40989E+02-3.11170E+03 3.07363E+04-5.77802E-09-2.69119E-09
 -1       959-3.78769E+05-1.36281E+02-1.58888E+03 3.73347E+04-3.27418E-10 7.31734E-09
 -1       960-3.78691E+05-4.48126E+01-7.74821E+02 3.07190E+04 1.84627E-10 2.03781E-08
 -1       961-3.78689E+05-6.31923E+01-4.10804E+02 3.73551E+04 8.11633E-09-1.51840E-08
 -1       962-3.78719E+05-4.59942E+01-2.35208E+02 3.07161E+04-2.97177E-09 5.74755E-09
 -1       963-3.78690E+05-5.89655E+01-1.88832E+02 3.73588E+04-5.26200E-09-8.61974E-09
 -1       964-3.78724E+05-4.26149E+01-2.29661E+02 3.07153E+04-4.72842E-09 3.08000E-09
 -1       965-3.78702E+05-5.59906E+01-3.97242E+02 3.73581E+04-4.99182E-09 1.59910E-08
 -1       966-3.78708E+05-3.47682E+01-7.46422E+02 3.07168E+04 1.09139E-11-8.50832E-09
 -1       967-3.78792E+05-1.19562E+02-1.53090E+03 3.73437E+04 2.50157E-09 1.64755E-09
 -1       968-3.78604E+05-2.17339E+02-2.99697E+03 3.07295E+04-7.03494E-10 1.48407E-08
 -1       969-3.79992E+05-1.83504E+03-6.65319E+03 3.71951E+04 1.44064E-09-1.78210E-08
 -1       970-3.77447E+05-5.23214E+03-1.29608E+04 3.08568E+04-2.28283E-10 1.85364E-08
 -1       971-3.45513E+05-1.72781E+03-9.31183E+03 1.53810E+04 5.60703E-09 2.04466E-08
 -1       972-3.47754E+05-1.27200E+03-5.07113E+03 2.12720E+04 4.92219E-09-2.45836E-09
 -1       973-3.46550E+05-6.20248E+01-2.27141E+03 1.52599E+04 5.75710E-09-4.90945E-09
 -1       974-3.46685E+05-8.10643E+01-1.17742E+03 2.14091E+04 1.55160E-09 1.83477E-08
 -1       975-3.46632E+05-1.71392E+01-5.89022E+02 1.52476E+04 4.65661E-09-1.47890E-08
 -1       976-3.46624E+05-3.12092E+01-3.40676E+02 2.14249E+04 9.62973E-09-3.87638E-09
 -1       977-3.46649E+05-1.63920E+01-2.48782E+02 1.52442E+04-4.93628E-10-1.03705E-08
 -1       978-3.46629E+05-2.49820E+01-2.93207E+02 2.14297E+04-6.21276E-09-2.49429E-09
 -1       979-3.46649E+05-7.91043E+00-4.72879E+02 1.52427E+04-2.43602E-09 1.77317E-09
 -1       980-3.46665E+05-2.19197E+01-9.14191E+02 2.14307E+04-3.09888E-09 1.50745E-08
 -1       981-3.46619E+05 1.49402E+01-1.77116E+03 1.52432E+04-2.97973E-09 1.73981E-09
 -1       982-3.46908E+05-1.52790E+02-3.66129E+03 2.14241E+04 8.44921E-10-3.34871E-09
 -1       983-3.46396E+05-9.84722E+01-7.11407E+03 1.52493E+04 5.13137E-09-2.12140E-09
 -1       984-3.50330E+05-3.86826E+03-1.59318E+04 2.13384E+04 6.19821E-09-1.65994E-09
 -1       985-3.43175E+05-5.30411E+03-2.92556E+04 1.53207E+04-8.77253E-09 1.19089E-08
 -3
    1PSTEP                        37          19           1          
  100CL  119 6.63172E-01         409                     0   19           1
 -4  DISP        4    1
 -5  D1          1    2    1    0
 -5  D2          1    2    2    0
 -5  D3          1    2    3    0
 -5  ALL         1    2    0    0    1ALL
 -1         1 2.71344E-03 0.00000E+00 0.00000E+00
 -1         2 1.36818E-03 1.82999E-27 0.00000E+00
 -1         3 3.42684E-04-6.25925E-28-1.32349E-23
 -1         5 1.77132E-04-1.58891E-27-3.30872E-24
 -1         8 2.70237E-03-4.09503E-07 0.00000E+00
 -1         9 2.69577E-03-1.85470E-04 0.00000E+00
 -1        10 3.10723E-04-3.41333E-06 0.00000E+00
 -1        12 1.78976E-04 8.09557E-07 0.00000E+00
 -1        15 2.68967E-03-4.33828E-07-1.03398E-25
 -1        16 2.75986E-03-1.87261E-04 0.00000E+00
 -1        17 2.11460E-04-7.78244E-06 0.00000E+00
 -1        18 1.82918E-04 3.43964E-05 0.00000E+00
 -1        19 1.84512E-04 1.61270E-06 0.00000E+00
 -1        20 1.84651E-04-9.84708E-06 0.00000E+00
 -1        21 1.83758E-04-2.53443E-05 0.00000E+00
 -1        24 3.06270E-05-1.20095E-05 0.00000E+00
 -1        25 1.93688E-04 3.46222E-05 0.00000E+00
 -1        26 1.94363E-04 2.23285E-06 0.00000E+00
 -1        27 1.92170E-04-1.34069E-05 0.00000E+00
 -1        28 1.91853E-04-2.59666E-05 0.00000E+00
 -1        32 0.00000E+00 0.00000E+00 0.00000E+00
 -1        33 2.03225E-04 2.98753E-06 0.00000E+00
 -1        34 2.01106E-04-1.34631E-05 0.00000E+00
 -1        35 1.99173E-04-2.63091E-05 0.00000E+00
 -1        51 2.71270E-03-8.55606E-08-6.61744E-24
 -1        52 2.71134E-03-1.52790E-07 0.00000E+00
 -1        53 2.70950E-03-2.16579E-07 0.00000E+00
 -1        54 2.70730E-03-2.79161E-07 0.00000E+00
 -1        55 2.70488E-03-3.42295E-07 1.65436E-24
 -1        56 2.70602E-03 7.83248E-06 5.29396E-23
 -1        57 2.69174E-03 3.26233E-05 5.29396E-23
 -1        58 2.67272E-03 6.90081E-05 1.05879E-22
 -1        59 2.65153E-03 1.10510E-04-5.29396E-23
 -1        60 2.63128E-03 1.49774E-04-1.05879E-22
 -1        61 2.61492E-03 1.79629E-04 0.00000E+00
 -1        62 2.60453E-03 1.94585E-04 1.05879E-22
 -1        63 2.60142E-03 1.90478E-04-5.29396E-23
 -1        64 2.60545E-03 1.66642E-04 1.05879E-22
 -1        65 2.61580E-03 1.24267E-04 0.00000E+00
 -1        66 2.63066E-03 6.80525E-05-1.05879E-22
 -1        67 2.64796E-03 4.04775E-06 0.00000E+00
 -1        68 2.66534E-03-6.01932E-05 0.00000E+00
 -1        69 2.68044E-03-1.17086E-04-5.29396E-23
 -1        70 2.69116E-03-1.60472E-04-5.29396E-23
 -1        86 1.45165E-03-5.90267E-06 0.00000E+00
 -1        87 1.69331E-03-3.69346E-05 2.64698E-23
 -1        88 2.01822E-03-9.02075E-05-2.64698E-23
 -1        89 2.34739E-03-1.44912E-04-1.32349E-23
 -1        90 2.59940E-03-1.78382E-04-5.29396E-23
 -1       121 3.41786E-04-5.51143E-07 0.00000E+00
 -1       122 3.39098E-04-1.10538E-06 0.00000E+00
 -1       123 3.34627E-04-1.66574E-06-1.32349E-23
 -1       124 3.28391E-04-2.23528E-06 6.61744E-24
 -1       125 3.20413E-04-2.81664E-06 0.00000E+00
 -1       191 1.77183E-04 1.34990E-07-8.27181E-25
 -1       192 1.77337E-04 2.69968E-07 8.27181E-25
 -1       193 1.77593E-04 4.04927E-07-2.48154E-24
 -1       194 1.77952E-04 5.39853E-07-1.65436E-24
 -1       195 1.78413E-04 6.74734E-07 2.48154E-24
 -1       251 2.70207E-03 1.72597E-06-6.61744E-24
 -1       252 2.70176E-03 3.80692E-06 0.00000E+00
 -1       253 2.70145E-03 4.85157E-06-6.61744E-24
 -1       254 2.70114E-03 3.89116E-06-3.30872E-24
 -1       255 2.70082E-03 2.64252E-07 0.00000E+00
 -1       256 2.70049E-03-6.65687E-06 0.00000E+00
 -1       257 2.70013E-03-1.69954E-05-6.61744E-24
 -1       258 2.69973E-03-3.08311E-05 0.00000E+00
 -1       259 2.69928E-03-4.77089E-05 0.00000E+00
 -1       260 2.69879E-03-6.71346E-05 6.61744E-24
 -1       261 2.69827E-03-8.82238E-05 0.00000E+00
 -1       262 2.69773E-03-1.10072E-04 0.00000E+00
 -1       263 2.69720E-03-1.31657E-04 0.00000E+00
 -1       264 2.69668E-03-1.51961E-04 6.61744E-24
 -1       265 2.69621E-03-1.70164E-04 0.00000E+00
 -1       266 2.70025E-03-4.19260E-07 3.30872E-24
 -1       267 2.69814E-03-4.22619E-07 0.00000E+00
 -1       268 2.69602E-03-4.26384E-07 0.00000E+00
 -1       269 2.69390E-03-4.28948E-07 0.00000E+00
 -1       270 2.69178E-03-4.31483E-07 2.06795E-25
 -1       271 2.70148E-03 1.68072E-07 0.00000E+00
 -1       272 2.70151E-03-1.79001E-06 0.00000E+00
 -1       273 2.70244E-03-6.13616E-06 0.00000E+00
 -1       274 2.70418E-03-1.27113E-05 0.00000E+00
 -1       275 2.70668E-03-2.13356E-05-2.64698E-23
 -1       276 2.70985E-03-3.18146E-05 0.00000E+00
 -1       277 2.71362E-03-4.39377E-05 0.00000E+00
 -1       278 2.71790E-03-5.74815E-05 0.00000E+00
 -1       279 2.72261E-03-7.22112E-05 0.00000E+00
 -1       280 2.72766E-03-8.78819E-05 1.32349E-23
 -1       281 2.73295E-03-1.04241E-04-1.32349E-23
 -1       282 2.73840E-03-1.21032E-04-6.61744E-24
 -1       283 2.74390E-03-1.37991E-04 0.00000E+00
 -1       284 2.74938E-03-1.54857E-04 0.00000E+00
 -1       285 2.75473E-03-1.71367E-04 0.00000E+00
 -1       301 2.70742E-03-1.85802E-04 6.61744E-24
 -1       302 2.71745E-03-1.86089E-04-3.30872E-24
 -1       303 2.72678E-03-1.86365E-04 0.00000E+00
 -1       304 2.73634E-03-1.86643E-04-6.61744E-24
 -1       305 2.74706E-03-1.86934E-04 0.00000E+00
 -1       306 2.73362E-03-3.39883E-04 0.00000E+00
 -1       307 2.79749E-03-7.53845E-04-1.58819E-22
 -1       308 2.84417E-03-1.35916E-03 1.05879E-22
 -1       309 2.86799E-03-2.05982E-03 5.29396E-23
 -1       310 2.89924E-03-2.73004E-03 0.00000E+00
 -1       311 2.95869E-03-3.24674E-03 0.00000E+00
 -1       312 3.01657E-03-3.52925E-03 1.05879E-22
 -1       313 3.01201E-03-3.53969E-03 5.29396E-23
 -1       314 2.87115E-03-3.29006E-03 0.00000E+00
 -1       315 2.55306E-03-2.84486E-03 0.00000E+00
 -1       316 2.07607E-03-2.28073E-03 1.05879E-22
 -1       317 1.50608E-03-1.66704E-03 5.29396E-23
 -1       318 9.57448E-04-1.06441E-03 0.00000E+00
 -1       319 5.38184E-04-5.37846E-04-5.29396E-23
 -1       320 2.92094E-04-1.61490E-04 0.00000E+00
 -1       336 2.99134E-04-4.07302E-06 1.32349E-23
 -1       337 2.85469E-04-4.75840E-06-6.61744E-24
 -1       338 2.69792E-04-5.47169E-06 1.32349E-23
 -1       339 2.52175E-04-6.21369E-06 6.61744E-24
 -1       340 2.32700E-04-6.98887E-06-1.32349E-23
 -1       406 1.79643E-04 9.44304E-07-8.27181E-25
 -1       407 1.80412E-04 1.07894E-06-1.24077E-24
 -1       408 1.81283E-04 1.21340E-06-1.24077E-24
 -1       409 1.82257E-04 1.34753E-06 4.13590E-25
 -1       410 1.83334E-04 1.48105E-06 2.06795E-24
 -1       521 2.79831E-03-3.50954E-04 0.00000E+00
 -1       522 2.86042E-03-7.85143E-04 5.29396E-23
 -1       523 2.90066E-03-1.41822E-03 1.05879E-22
 -1       524 2.91526E-03-2.14743E-03-5.29396E-23
 -1       525 2.93862E-03-2.84420E-03 0.00000E+00
 -1       526 2.99451E-03-3.38289E-03-5.29396E-23
 -1       527 3.05196E-03-3.67597E-03-2.11758E-22
 -1       528 3.04511E-03-3.68464E-03 5.29396E-23
 -1       529 2.89226E-03-3.42088E-03 2.11758E-22
 -1       530 2.55023E-03-2.95714E-03 5.29396E-23
 -1       531 2.03816E-03-2.37384E-03-1.05879E-22
 -1       532 1.42839E-03-1.74294E-03 0.00000E+00
 -1       533 8.40644E-04-1.12245E-03 1.05879E-22
 -1       534 3.88074E-04-5.75030E-04 0.00000E+00
 -1       535 1.20765E-04-1.79146E-04-2.11758E-22
 -1       536 2.10705E-04 2.71333E-05 0.00000E+00
 -1       537 2.08788E-04 8.75559E-05 1.65436E-24
 -1       538 2.05826E-04 1.64222E-04 3.30872E-24
 -1       539 2.02332E-04 2.47783E-04-1.65436E-24
 -1       540 1.99188E-04 3.26741E-04 0.00000E+00
 -1       541 1.97145E-04 3.89620E-04 0.00000E+00
 -1       542 1.96202E-04 4.29670E-04 3.30872E-24
 -1       543 1.95977E-04 4.40288E-04 1.65436E-24
 -1       544 1.95655E-04 4.22248E-04 0.00000E+00
 -1       545 1.94483E-04 3.76545E-04 1.65436E-24
 -1       546 1.92299E-04 3.11302E-04 0.00000E+00
 -1       547 1.89343E-04 2.34765E-04 0.00000E+00
 -1       548 1.86415E-04 1.58604E-04 3.30872E-24
 -1       549 1.84302E-04 9.44911E-05 0.00000E+00
 -1       550 1.83204E-04 5.04547E-05 1.65436E-24
 -1       551 1.86262E-04-8.35224E-06 0.00000E+00
 -1       552 1.57819E-04-9.00247E-06 0.00000E+00
 -1       553 1.27074E-04-9.71491E-06 6.61744E-24
 -1       554 9.49884E-05-1.04685E-05 6.61744E-24
 -1       555 6.25208E-05-1.12357E-05 0.00000E+00
 -1       556 2.03813E-04 1.17701E-05 0.00000E+00
 -1       557 1.97635E-04 2.76275E-05 2.64698E-23
 -1       558 1.92791E-04 4.00778E-05 0.00000E+00
 -1       559 1.89149E-04 4.94313E-05 0.00000E+00
 -1       560 1.86579E-04 5.59988E-05 0.00000E+00
 -1       561 1.84953E-04 6.00937E-05 0.00000E+00
 -1       562 1.84145E-04 6.20306E-05 0.00000E+00
 -1       563 1.84031E-04 6.21250E-05 0.00000E+00
 -1       564 1.84490E-04 6.06935E-05 0.00000E+00
 -1       565 1.85400E-04 5.80529E-05 0.00000E+00
 -1       566 1.86642E-04 5.45210E-05 0.00000E+00
 -1       567 1.88098E-04 5.04159E-05 0.00000E+00
 -1       568 1.89648E-04 4.60557E-05 1.65436E-24
 -1       569 1.91174E-04 4.17586E-05-8.27181E-25
 -1       570 1.92560E-04 3.78429E-05 0.00000E+00
 -1       571 1.83014E-04 3.22699E-05-8.27181E-25
 -1       572 1.83113E-04 3.00774E-05 4.13590E-25
 -1       573 1.83212E-04 2.78348E-05 0.00000E+00
 -1       574 1.83312E-04 2.55584E-05 8.27181E-25
 -1       575 1.83411E-04 2.32647E-05-3.30872E-24
 -1       576 1.83511E-04 2.09702E-05 0.00000E+00
 -1       577 1.83610E-04 1.86913E-05 0.00000E+00
 -1       578 1.83710E-04 1.64447E-05 0.00000E+00
 -1       579 1.83809E-04 1.42469E-05-6.61744E-24
 -1       580 1.83909E-04 1.21143E-05 6.61744E-24
 -1       581 1.84009E-04 1.00637E-05 0.00000E+00
 -1       582 1.84110E-04 8.11143E-06 0.00000E+00
 -1       583 1.84210E-04 6.27406E-06 0.00000E+00
 -1       584 1.84310E-04 4.56793E-06 0.00000E+00
 -1       585 1.84411E-04 3.00920E-06-6.61744E-24
 -1       586 1.84672E-04 3.44362E-05 1.65436E-24
 -1       587 1.86384E-04 3.44754E-05 8.27181E-25
 -1       588 1.88099E-04 3.45142E-05 0.00000E+00
 -1       589 1.89859E-04 3.45524E-05 0.00000E+00
 -1       590 1.91708E-04 3.45892E-05 0.00000E+00
 -1       591 1.83646E-04 3.23633E-05 0.00000E+00
 -1       592 1.84377E-04 3.03098E-05 0.00000E+00
 -1       593 1.85114E-04 2.82419E-05-8.27181E-25
 -1       594 1.85854E-04 2.61643E-05-4.13590E-25
 -1       595 1.86595E-04 2.40819E-05 0.00000E+00
 -1       596 1.87337E-04 2.19995E-05 0.00000E+00
 -1       597 1.88076E-04 1.99220E-05 0.00000E+00
 -1       598 1.88812E-04 1.78540E-05-4.13590E-25
 -1       599 1.89543E-04 1.58005E-05-8.27181E-25
 -1       600 1.90266E-04 1.37661E-05 0.00000E+00
 -1       601 1.90980E-04 1.17558E-05 0.00000E+00
 -1       602 1.91684E-04 9.77416E-06 4.13590E-25
 -1       603 1.92376E-04 7.82612E-06-4.13590E-25
 -1       604 1.93053E-04 5.91655E-06-2.06795E-25
 -1       605 1.93715E-04 4.05013E-06 0.00000E+00
 -1       606 1.84525E-04 4.49723E-07 0.00000E+00
 -1       607 1.84534E-04-6.27403E-07 0.00000E+00
 -1       608 1.84543E-04-1.62372E-06-3.30872E-24
 -1       609 1.84552E-04-2.54490E-06 0.00000E+00
 -1       610 1.84560E-04-3.39670E-06 0.00000E+00
 -1       611 1.84568E-04-4.18489E-06 0.00000E+00
 -1       612 1.84577E-04-4.91529E-06 0.00000E+00
 -1       613 1.84585E-04-5.59371E-06 0.00000E+00
 -1       614 1.84593E-04-6.22596E-06 0.00000E+00
 -1       615 1.84602E-04-6.81785E-06-8.27181E-25
 -1       616 1.84610E-04-7.37519E-06 1.65436E-24
 -1       617 1.84619E-04-7.90380E-06 0.00000E+00
 -1       618 1.84627E-04-8.40948E-06 0.00000E+00
 -1       619 1.84635E-04-8.89805E-06 0.00000E+00
 -1       620 1.84643E-04-9.37531E-06-2.06795E-25
 -1       621 1.85869E-04 1.71662E-06-1.65436E-24
 -1       622 1.87385E-04 1.82078E-06-8.27181E-25
 -1       623 1.89026E-04 1.92473E-06 1.65436E-24
 -1       624 1.90758E-04 2.02835E-06-8.27181E-25
 -1       625 1.92549E-04 2.13169E-06 3.30872E-24
 -1       626 1.85060E-04 4.85834E-07 3.30872E-24
 -1       627 1.85585E-04-5.77984E-07 0.00000E+00
 -1       628 1.86090E-04-1.58661E-06 0.00000E+00
 -1       629 1.86578E-04-2.54820E-06 0.00000E+00
 -1       630 1.87051E-04-3.47097E-06-3.30872E-24
 -1       631 1.87512E-04-4.36310E-06 0.00000E+00
 -1       632 1.87966E-04-5.23282E-06 0.00000E+00
 -1       633 1.88414E-04-6.08834E-06 1.65436E-24
 -1       634 1.88859E-04-6.93786E-06 0.00000E+00
 -1       635 1.89306E-04-7.78960E-06 0.00000E+00
 -1       636 1.89756E-04-8.65177E-06 0.00000E+00
 -1       637 1.90214E-04-9.53259E-06 0.00000E+00
 -1       638 1.90681E-04-1.04403E-05 1.65436E-24
 -1       639 1.91161E-04-1.13830E-05-8.27181E-25
 -1       640 1.91657E-04-1.23691E-05 0.00000E+00
 -1       656 1.85356E-04-1.04257E-05 0.00000E+00
 -1       657 1.86480E-04-1.10278E-05-6.61744E-24
 -1       658 1.87885E-04-1.16285E-05-1.32349E-23
 -1       659 1.89424E-04-1.22289E-05 6.61744E-24
 -1       660 1.90914E-04-1.28310E-05 6.61744E-24
 -1       661 1.84915E-04-1.03639E-05 0.00000E+00
 -1       662 1.85216E-04-1.09727E-05-8.27181E-25
 -1       663 1.85550E-04-1.16680E-05 0.00000E+00
 -1       664 1.85914E-04-1.24436E-05 8.27181E-25
 -1       665 1.86306E-04-1.32934E-05 0.00000E+00
 -1       666 1.86724E-04-1.42116E-05 0.00000E+00
 -1       667 1.87165E-04-1.51926E-05 0.00000E+00
 -1       668 1.87627E-04-1.62307E-05 0.00000E+00
 -1       669 1.88109E-04-1.73205E-05 0.00000E+00
 -1       670 1.88608E-04-1.84568E-05-8.27181E-25
 -1       671 1.89123E-04-1.96343E-05 0.00000E+00
 -1       672 1.89651E-04-2.08479E-05-8.27181E-25
 -1       673 1.90190E-04-2.20927E-05 0.00000E+00
 -1       674 1.90739E-04-2.33638E-05-4.13590E-25
 -1       675 1.91295E-04-2.46561E-05 0.00000E+00
 -1       676 1.85112E-04-2.54486E-05-3.30872E-24
 -1       677 1.86465E-04-2.55529E-05-1.65436E-24
 -1       678 1.87817E-04-2.56571E-05-3.30872E-24
 -1       679 1.89166E-04-2.57610E-05 0.00000E+00
 -1       680 1.90512E-04-2.58649E-05 0.00000E+00
 -1       771 1.86760E-05 1.47148E-05 5.29396E-23
 -1       772 8.62142E-06 3.66640E-05 0.00000E+00
 -1       773 3.72487E-07 5.40683E-05 0.00000E+00
 -1       774-6.19508E-06 6.71855E-05-2.64698E-23
 -1       775-1.12029E-05 7.62839E-05-5.29396E-23
 -1       776-1.47775E-05 8.16486E-05 0.00000E+00
 -1       777-1.70451E-05 8.35748E-05 5.29396E-23
 -1       778-1.81348E-05 8.23713E-05-2.64698E-23
 -1       779-1.81747E-05 7.83558E-05 0.00000E+00
 -1       780-1.72951E-05 7.18572E-05-2.64698E-23
 -1       781-1.56255E-05 6.32112E-05 0.00000E+00
 -1       782-1.32966E-05 5.27623E-05 2.64698E-23
 -1       783-1.04386E-05 4.08599E-05-5.29396E-23
 -1       784-7.18267E-06 2.78593E-05 0.00000E+00
 -1       785-3.65912E-06 1.41191E-05 5.29396E-23
 -1       786 1.93726E-04 3.23705E-05 6.46235E-27
 -1       787 1.93767E-04 3.01682E-05 4.13590E-25
 -1       788 1.93808E-04 2.80073E-05 0.00000E+00
 -1       789 1.93851E-04 2.58796E-05 0.00000E+00
 -1       790 1.93893E-04 2.37806E-05 0.00000E+00
 -1       791 1.93935E-04 2.17057E-05 8.27181E-25
 -1       792 1.93978E-04 1.96527E-05 0.00000E+00
 -1       793 1.94020E-04 1.76195E-05 0.00000E+00
 -1       794 1.94063E-04 1.56060E-05 1.65436E-24
 -1       795 1.94105E-04 1.36121E-05 0.00000E+00
 -1       796 1.94148E-04 1.16398E-05 0.00000E+00
 -1       797 1.94191E-04 9.69109E-06 8.27181E-25
 -1       798 1.94234E-04 7.77027E-06-1.65436E-24
 -1       799 1.94277E-04 5.88182E-06 0.00000E+00
 -1       800 1.94320E-04 4.03341E-06 1.65436E-24
 -1       801 1.47913E-04 3.11249E-05 0.00000E+00
 -1       802 9.50871E-06 1.94181E-05-2.64698E-23
 -1       803-1.08720E-04 9.80781E-06 0.00000E+00
 -1       804-9.63901E-05 6.82638E-06 0.00000E+00
 -1       805-3.18486E-05 2.68307E-06-5.29396E-23
 -1       806 1.94417E-04 3.23019E-05-1.65436E-24
 -1       807 1.95131E-04 3.00077E-05-1.65436E-24
 -1       808 1.95834E-04 2.77449E-05 3.30872E-24
 -1       809 1.96523E-04 2.55174E-05 0.00000E+00
 -1       810 1.97197E-04 2.33294E-05 0.00000E+00
 -1       811 1.97855E-04 2.11847E-05 0.00000E+00
 -1       812 1.98495E-04 1.90874E-05-3.30872E-24
 -1       813 1.99116E-04 1.70414E-05 0.00000E+00
 -1       814 1.99716E-04 1.50506E-05 0.00000E+00
 -1       815 2.00295E-04 1.31189E-05 8.27181E-25
 -1       816 2.00850E-04 1.12501E-05 0.00000E+00
 -1       817 2.01380E-04 9.44830E-06 8.27181E-25
 -1       818 2.01883E-04 7.71726E-06 0.00000E+00
 -1       819 2.02359E-04 6.06091E-06 0.00000E+00
 -1       820 2.02806E-04 4.48306E-06 0.00000E+00
 -1       821 1.94234E-04-1.02755E-07 0.00000E+00
 -1       822 1.94095E-04-3.55099E-06 0.00000E+00
 -1       823 1.93953E-04-7.69636E-06 0.00000E+00
 -1       824 1.93808E-04-1.21190E-05 0.00000E+00
 -1       825 1.93665E-04-1.63243E-05-3.30872E-24
 -1       826 1.93524E-04-1.98187E-05 0.00000E+00
 -1       827 1.93385E-04-2.23022E-05 3.30872E-24
 -1       828 1.93249E-04-2.34808E-05 0.00000E+00
 -1       829 1.93114E-04-2.34153E-05-3.30872E-24
 -1       830 1.92978E-04-2.21739E-05-1.65436E-24
 -1       831 1.92840E-04-2.01446E-05 0.00000E+00
 -1       832 1.92702E-04-1.77200E-05 0.00000E+00
 -1       833 1.92565E-04-1.54005E-05 0.00000E+00
 -1       834 1.92430E-04-1.36856E-05 1.65436E-24
 -1       835 1.92296E-04-1.29111E-05 8.27181E-25
 -1       836 1.96050E-04 2.35802E-06 0.00000E+00
 -1       837 1.97611E-04 2.48632E-06 1.65436E-24
 -1       838 1.99078E-04 2.61455E-06 3.30872E-24
 -1       839 2.00482E-04 2.74208E-06 0.00000E+00
 -1       840 2.01854E-04 2.86944E-06 0.00000E+00
 -1       856 1.92153E-04-1.44670E-05 0.00000E+00
 -1       857 1.92134E-04-1.53914E-05-5.16988E-26
 -1       858 1.92115E-04-1.62011E-05 2.06795E-25
 -1       859 1.92095E-04-1.69172E-05 0.00000E+00
 -1       860 1.92075E-04-1.75611E-05 4.13590E-25
 -1       861 1.92056E-04-1.81539E-05 0.00000E+00
 -1       862 1.92036E-04-1.87171E-05 0.00000E+00
 -1       863 1.92016E-04-1.92719E-05 0.00000E+00
 -1       864 1.91996E-04-1.98397E-05-8.27181E-25
 -1       865 1.91976E-04-2.04419E-05 4.13590E-25
 -1       866 1.91956E-04-2.10998E-05 8.27181E-25
 -1       867 1.91936E-04-2.18346E-05 0.00000E+00
 -1       868 1.91916E-04-2.26676E-05 8.27181E-25
 -1       869 1.91896E-04-2.36199E-05-4.13590E-25
 -1       870 1.91875E-04-2.47126E-05-8.27181E-25
 -1       871 1.93518E-04-1.34118E-05 0.00000E+00
 -1       872 1.95013E-04-1.34202E-05 0.00000E+00
 -1       873 1.96588E-04-1.34292E-05 0.00000E+00
 -1       874 1.98174E-04-1.34390E-05 7.75482E-26
 -1       875 1.99702E-04-1.34493E-05-1.24077E-24
 -1       876 1.92694E-04-1.44525E-05 3.30872E-24
 -1       877 1.93197E-04-1.54312E-05-1.65436E-24
 -1       878 1.93678E-04-1.63511E-05-3.30872E-24
 -1       879 1.94139E-04-1.72195E-05-1.65436E-24
 -1       880 1.94585E-04-1.80438E-05 3.30872E-24
 -1       881 1.95017E-04-1.88314E-05-1.65436E-24
 -1       882 1.95437E-04-1.95897E-05-3.30872E-24
 -1       883 1.95850E-04-2.03260E-05-1.65436E-24
 -1       884 1.96257E-04-2.10477E-05 3.30872E-24
 -1       885 1.96661E-04-2.17620E-05 0.00000E+00
 -1       886 1.97066E-04-2.24764E-05 0.00000E+00
 -1       887 1.97473E-04-2.31982E-05-1.65436E-24
 -1       888 1.97885E-04-2.39348E-05 0.00000E+00
 -1       889 1.98305E-04-2.46936E-05-1.65436E-24
 -1       890 1.98735E-04-2.54819E-05-1.65436E-24
 -1       891 1.93216E-04-2.60242E-05 0.00000E+00
 -1       892 1.94555E-04-2.60819E-05-8.27181E-25
 -1       893 1.95845E-04-2.61395E-05 0.00000E+00
 -1       894 1.97061E-04-2.61968E-05 4.13590E-25
 -1       895 1.98179E-04-2.62539E-05-4.13590E-25
 -1       956 2.03094E-04 1.66681E-06-1.65436E-24
 -1       957 2.02962E-04 4.37802E-07 8.27181E-25
 -1       958 2.02829E-04-7.10240E-07 3.30872E-24
 -1       959 2.02696E-04-1.78867E-06-1.65436E-24
 -1       960 2.02563E-04-2.80890E-06 3.30872E-24
 -1       961 2.02431E-04-3.78234E-06-1.65436E-24
 -1       962 2.02298E-04-4.72045E-06 0.00000E+00
 -1       963 2.02165E-04-5.63469E-06 1.65436E-24
 -1       964 2.02032E-04-6.53651E-06 3.30872E-24
 -1       965 2.01899E-04-7.43737E-06 0.00000E+00
 -1       966 2.01767E-04-8.34875E-06-3.30872E-24
 -1       967 2.01634E-04-9.28209E-06 1.65436E-24
 -1       968 2.01501E-04-1.02488E-05-6.61744E-24
 -1       969 2.01369E-04-1.12604E-05 0.00000E+00
 -1       970 2.01236E-04-1.23282E-05 0.00000E+00
 -1       971 2.00986E-04-1.45977E-05 0.00000E+00
 -1       972 2.00865E-04-1.56377E-05 0.00000E+00
 -1       973 2.00743E-04-1.65935E-05-3.30872E-24
 -1       974 2.00622E-04-1.74760E-05 0.00000E+00
 -1       975 2.00500E-04-1.82961E-05 0.00000E+00
 -1       976 2.00379E-04-1.90645E-05-1.65436E-24
 -1       977 2.00257E-04-1.97923E-05 0.00000E+00
 -1       978 2.00136E-04-2.04902E-05 1.65436E-24
 -1       979 2.00015E-04-2.11692E-05 0.00000E+00
 -1       980 1.99893E-04-2.18403E-05 0.00000E+00
 -1       981 1.99772E-04-2.25142E-05 0.00000E+00
 -1       982 1.99651E-04-2.32020E-05 1.65436E-24
 -1       983 1.99529E-04-2.39145E-05-3.30872E-24
 -1       984 1.99409E-04-2.46627E-05 1.65436E-24
 -1       985 1.99289E-04-2.54573E-05 0.00000E+00
 -3
    1PSTEP                        38          19           1          
  100CL  119 6.63172E-01         409                     0   19           1
 -4  FORC        4    1
 -5  F1          1    2    1    0
 -5  F2          1    2    2    0
 -5  F3          1    2    3    0
 -5  ALL         1    2    0    0    1ALL
 -1         1 2.26253E-04 0.00000E+00 0.00000E+00
 -1         2 0.00000E+00 0.00000E+00 0.00000E+00
 -1         3 0.00000E+00 0.00000E+00 0.00000E+00
 -1         5 0.00000E+00 0.00000E+00 0.00000E+00
 -1         8 1.29012E-05-1.11543E-05 0.00000E+00
 -1         9-6.21210E-04 3.89375E-05 0.00000E+00
 -1        10-1.93412E-09 1.14721E-08 0.00000E+00
 -1        12 0.00000E+00 0.00000E+00 0.00000E+00
 -1        15 0.00000E+00 0.00000E+00 0.00000E+00
 -1        16-8.88825E-05-8.81764E-04 0.00000E+00
 -1        17-1.34435E-05 7.51951E-06 0.00000E+00
 -1        18 1.24758E-07 1.03421E-07 0.00000E+00
 -1        19 3.56661E-08-8.14797E-09 0.00000E+00
 -1        20-5.90401E-08 6.55691E-09 0.00000E+00
 -1        21 0.00000E+00 2.34841E-08 0.00000E+00
 -1        24-3.64064E-05 1.17064E-05 0.00000E+00
 -1        25 6.90362E-08-6.43923E-08 0.00000E+00
 -1        26-3.74365E-08-2.69536E-08 0.00000E+00
 -1        27-1.96737E-08 3.74773E-08 0.00000E+00
 -1        28-1.83075E-08 1.11722E-08 0.00000E+00
 -1        32 0.00000E+00 0.00000E+00 0.00000E+00
 -1        33-2.55047E-09-4.80125E-08 0.00000E+00
 -1        34-1.39744E-08-4.95420E-08 0.00000E+00
 -1        35-8.30871E-08-5.34148E-08 0.00000E+00
 -1        51 0.00000E+00 0.00000E+00 0.00000E+00
 -1        52 0.00000E+00 0.00000E+00 0.00000E+00
 -1        53 0.00000E+00 0.00000E+00 0.00000E+00
 -1        54 0.00000E+00 0.00000E+00 0.00000E+00
 -1        55 0.00000E+00 0.00000E+00 0.00000E+00
 -1        56 0.00000E+00 0.00000E+00 0.00000E+00
 -1        57 0.00000E+00 0.00000E+00 0.00000E+00
 -1        58 0.00000E+00 0.00000E+00 0.00000E+00
 -1        59 0.00000E+00 0.00000E+00 0.00000E+00
 -1        60 0.00000E+00 0.00000E+00 0.00000E+00
 -1        61 0.00000E+00 0.00000E+00 0.00000E+00
 -1        62 0.00000E+00 0.00000E+00 0.00000E+00
 -1        63 0.00000E+00 0.00000E+00 0.00000E+00
 -1        64 0.00000E+00 0.00000E+00 0.00000E+00
 -1        65 0.00000E+00 0.00000E+00 0.00000E+00
 -1        66 0.00000E+00 0.00000E+00 0.00000E+00
 -1        67 0.00000E+00 0.00000E+00 0.00000E+00
 -1        68 0.00000E+00 0.00000E+00 0.00000E+00
 -1        69 0.00000E+00 0.00000E+00 0.00000E+00
 -1        70 0.00000E+00 0.00000E+00 0.00000E+00
 -1        86 0.00000E+00 0.00000E+00 0.00000E+00
 -1        87 0.00000E+00 0.00000E+00 0.00000E+00
 -1        88 0.00000E+00 0.00000E+00 0.00000E+00
 -1        89 0.00000E+00 0.00000E+00 0.00000E+00
 -1        90 0.00000E+00 0.00000E+00 0.00000E+00
 -1       121 0.00000E+00 0.00000E+00 0.00000E+00
 -1       122 0.00000E+00 0.00000E+00 0.00000E+00
 -1       123 0.00000E+00 0.00000E+00 0.00000E+00
 -1       124 0.00000E+00 0.00000E+00 0.00000E+00
 -1       125 0.00000E+00 0.00000E+00 0.00000E+00
 -1       191 0.00000E+00 0.00000E+00 0.00000E+00
 -1       192 0.00000E+00 0.00000E+00 0.00000E+00
 -1       193 0.00000E+00 0.00000E+00 0.00000E+00
 -1       194 0.00000E+00 0.00000E+00 0.00000E+00
 -1       195 0.00000E+00 0.00000E+00 0.00000E+00
 -1       251 0.00000E+00 0.00000E+00 0.00000E+00
 -1       252 0.00000E+00 0.00000E+00 0.00000E+00
 -1       253 0.00000E+00 0.00000E+00 0.00000E+00
 -1       254 0.00000E+00 0.00000E+00 0.00000E+00
 -1       255 0.00000E+00 0.00000E+00 0.00000E+00
 -1       256 0.00000E+00 0.00000E+00 0.00000E+00
 -1       257 0.00000E+00 0.00000E+00 0.00000E+00
 -1       258 0.00000E+00 0.00000E+00 0.00000E+00
 -1       259 0.00000E+00 0.00000E+00 0.00000E+00
 -1       260 0.00000E+00 0.00000E+00 0.00000E+00
 -1       261 0.00000E+00 0.00000E+00 0.00000E+00
 -1       262 0.00000E+00 0.00000E+00 0.00000E+00
 -1       263 0.00000E+00 0.00000E+00 0.00000E+00
 -1       264 0.00000E+00 0.00000E+00 0.00000E+00
 -1       265 0.00000E+00 0.00000E+00 0.00000E+00
 -1       266 0.00000E+00 0.00000E+00 0.00000E+00
 -1       267 0.00000E+00 0.00000E+00 0.00000E+00
 -1       268 0.00000E+00 0.00000E+00 0.00000E+00
 -1       269 0.00000E+00 0.00000E+00 0.00000E+00
 -1       270 0.00000E+00 0.00000E+00 0.00000E+00
 -1       271 0.00000E+00 0.00000E+00 0.00000E+00
 -1       272 0.00000E+00 0.00000E+00 0.00000E+00
 -1       273 0.00000E+00 0.00000E+00 0.00000E+00
 -1       274 0.00000E+00 0.00000E+00 0.00000E+00
 -1       275 0.00000E+00 0.00000E+00 0.00000E+00
 -1       276 0.00000E+00 0.00000E+00 0.00000E+00
 -1       277 0.00000E+00 0.00000E+00 0.00000E+00
 -1       278 0.00000E+00 0.00000E+00 0.00000E+00
 -1       279 0.00000E+00 0.00000E+00 0.00000E+00
 -1       280 0.00000E+00 0.00000E+00 0.00000E+00
 -1       281 0.00000E+00 0.00000E+00 0.00000E+00
 -1       282 0.00000E+00 0.00000E+00 0.00000E+00
 -1       283 0.00000E+00 0.00000E+00 0.00000E+00
 -1       284 0.00000E+00 0.00000E+00 0.00000E+00
 -1       285 0.00000E+00 0.00000E+00 0.00000E+00
 -1       301 0.00000E+00 0.00000E+00 0.00000E+00
 -1       302 0.00000E+00 0.00000E+00 0.00000E+00
 -1       303 0.00000E+00 0.00000E+00 0.00000E+00
 -1       304 0.00000E+00 0.00000E+00 0.00000E+00
 -1       305 0.00000E+00 0.00000E+00 0.00000E+00
 -1       306 0.00000E+00 0.00000E+00 0.00000E+00
 -1       307 0.00000E+00 0.00000E+00 0.00000E+00
 -1       308 0.00000E+00 0.00000E+00 0.00000E+00
 -1       309 0.00000E+00 0.00000E+00 0.00000E+00
 -1       310 0.00000E+00 0.00000E+00 0.00000E+00
 -1       311 0.00000E+00 0.00000E+00 0.00000E+00
 -1       312 0.00000E+00 0.00000E+00 0.00000E+00
 -1       313 0.00000E+00 0.00000E+00 0.00000E+00
 -1       314 0.00000E+00 0.00000E+00 0.00000E+00
 -1       315 0.00000E+00 0.00000E+00 0.00000E+00
 -1       316 0.00000E+00 0.00000E+00 0.00000E+00
 -1       317 0.00000E+00 0.00000E+00 0.00000E+00
 -1       318 0.00000E+00 0.00000E+00 0.00000E+00
 -1       319 0.00000E+00 0.00000E+00 0.00000E+00
 -1       320 0.00000E+00 0.00000E+00 0.00000E+00
 -1       336 0.00000E+00 0.00000E+00 0.00000E+00
 -1       337 0.00000E+00 0.00000E+00 0.00000E+00
 -1       338 0.00000E+00 0.00000E+00 0.00000E+00
 -1       339 0.00000E+00 0.00000E+00 0.00000E+00
 -1       340 0.00000E+00 0.00000E+00 0.00000E+00
 -1       406 0.00000E+00 0.00000E+00 0.00000E+00
 -1       407 0.00000E+00 0.00000E+00 0.00000E+00
 -1       408 0.00000E+00 0.00000E+00 0.00000E+00
 -1       409 0.00000E+00 0.00000E+00 0.00000E+00
 -1       410 0.00000E+00 0.00000E+00 0.00000E+00
 -1       521 0.00000E+00 0.00000E+00 0.00000E+00
 -1       522 0.00000E+00 0.00000E+00 0.00000E+00
 -1       523 0.00000E+00 0.00000E+00 0.00000E+00
 -1       524 0.00000E+00 0.00000E+00 0.00000E+00
 -1       525 0.00000E+00 0.00000E+00 0.00000E+00
 -1       526 0.00000E+00 0.00000E+00 0.00000E+00
 -1       527 0.00000E+00 0.00000E+00 0.00000E+00
 -1       528 0.00000E+00 0.00000E+00 0.00000E+00
 -1       529 0.00000E+00 0.00000E+00 0.00000E+00
 -1       530 0.00000E+00 0.00000E+00 0.00000E+00
 -1       531 0.00000E+00 0.00000E+00 0.00000E+00
 -1       532 0.00000E+00 0.00000E+00 0.00000E+00
 -1       533 0.00000E+00 0.00000E+00 0.00000E+00
 -1       534 0.00000E+00 0.00000E+00 0.00000E+00
 -1       535 0.00000E+00 0.00000E+00 0.00000E+00
 -1       536 0.00000E+00 0.00000E+00 0.00000E+00
 -1       537 0.00000E+00 0.00000E+00 0.00000E+00
 -1       538 0.00000E+00 0.00000E+00 0.00000E+00
 -1       539 0.00000E+00 0.00000E+00 0.00000E+00
 -1       540 0.00000E+00 0.00000E+00 0.00000E+00
 -1       541 0.00000E+00 0.00000E+00 0.00000E+00
 -1       542 0.00000E+00 0.00000E+00 0.00000E+00
 -1       543 0.00000E+00 0.00000E+00 0.00000E+00
 -1       544 0.00000E+00 0.00000E+00 0.00000E+00
 -1       545 0.00000E+00 0.00000E+00 0.00000E+00
 -1       546 0.00000E+00 0.00000E+00 0.00000E+00
 -1       547 0.00000E+00 0.00000E+00 0.00000E+00
 -1       548 0.00000E+00 0.00000E+00 0.00000E+00
 -1       549 0.00000E+00 0.00000E+00 0.00000E+00
 -1       550 0.00000E+00 0.00000E+00 0.00000E+00
 -1       551 0.00000E+00 0.00000E+00 0.00000E+00
 -1       552 0.00000E+00 0.00000E+00 0.00000E+00
 -1       553 0.00000E+00 0.00000E+00 0.00000E+00
 -1       554 0.00000E+00 0.00000E+00 0.00000E+00
 -1       555 0.00000E+00 0.00000E+00 0.00000E+00
 -1       556 0.00000E+00 0.00000E+00 0.00000E+00
 -1       557 0.00000E+00 0.00000E+00 0.00000E+00
 -1       558 0.00000E+00 0.00000E+00 0.00000E+00
 -1       559 0.00000E+00 0.00000E+00 0.00000E+00
 -1       560 0.00000E+00 0.00000E+00 0.00000E+00
 -1       561 0.00000E+00 0.00000E+00 0.00000E+00
 -1       562 0.00000E+00 0.00000E+00 0.00000E+00
 -1       563 0.00000E+00 0.00000E+00 0.00000E+00
 -1       564 0.00000E+00 0.00000E+00 0.00000E+00
 -1       565 0.00000E+00 0.00000E+00 0.00000E+00
 -1       566 0.00000E+00 0.00000E+00 0.00000E+00
 -1       567 0.00000E+00 0.00000E+00 0.00000E+00
 -1       568 0.00000E+00 0.00000E+00 0.00000E+00
 -1       569 0.00000E+00 0.00000E+00 0.00000E+00
 -1       570 0.00000E+00 0.00000E+00 0.00000E+00
 -1       571 0.00000E+00 0.00000E+00 0.00000E+00
 -1       572 0.00000E+00 0.00000E+00 0.00000E+00
 -1       573 0.00000E+00 0.00000E+00 0.00000E+00
 -1       574 0.00000E+00 0.00000E+00 0.00000E+00
 -1       575 0.00000E+00 0.00000E+00 0.00000E+00
 -1       576 0.00000E+00 0.00000E+00 0.00000E+00
 -1       577 0.00000E+00 0.00000E+00 0.00000E+00
 -1       578 0.00000E+00 0.00000E+00 0.00000E+00
 -1       579 0.00000E+00 0.00000E+00 0.00000E+00
 -1       580 0.00000E+00 0.00000E+00 0.00000E+00
 -1       581 0.00000E+00 0.00000E+00 0.00000E+00
 -1       582 0.00000E+00 0.00000E+00 0.00000E+00
 -1       583 0.00000E+00 0.00000E+00 0.00000E+00
 -1       584 0.00000E+00 0.00000E+00 0.00000E+00
 -1       585 0.00000E+00 0.00000E+00 0.00000E+00
 -1       586 0.00000E+00 0.00000E+00 0.00000E+00
 -1       587 0.00000E+00 0.00000E+00 0.00000E+00
 -1       588 0.00000E+00 0.00000E+00 0.00000E+00
 -1       589 0.00000E+00 0.00000E+00 0.00000E+00
 -1       590 0.00000E+00 0.00000E+00 0.00000E+00
 -1       591 0.00000E+00 0.00000E+00 0.00000E+00
 -1       592 0.00000E+00 0.00000E+00 0.00000E+00
 -1       593 0.00000E+00 0.00000E+00 0.00000E+00
 -1       594 0.00000E+00 0.00000E+00 0.00000E+00
 -1       595 0.00000E+00 0.00000E+00 0.00000E+00
 -1       596 0.00000E+00 0.00000E+00 0.00000E+00
 -1       597 0.00000E+00 0.00000E+00 0.00000E+00
 -1       598 0.00000E+00 0.00000E+00 0.00000E+00
 -1       599 0.00000E+00 0.00000E+00 0.00000E+00
 -1       600 0.00000E+00 0.00000E+00 0.00000E+00
 -1       601 0.00000E+00 0.00000E+00 0.00000E+00
 -1       602 0.00000E+00 0.00000E+00 0.00000E+00
 -1       603 0.00000E+00 0.00000E+00 0.00000E+00
 -1       604 0.00000E+00 0.00000E+00 0.00000E+00
 -1       605 0.00000E+00 0.00000E+00 0.00000E+00
 -1       606 0.00000E+00 0.00000E+00 0.00000E+00
 -1       607 0.00000E+00 0.00000E+00 0.00000E+00
 -1       608 0.00000E+00 0.00000E+00 0.00000E+00
 -1       609 0.00000E+00 0.00000E+00 0.00000E+00
 -1       610 0.00000E+00 0.00000E+00 0.00000E+00
 -1       611 0.00000E+00 0.00000E+00 0.00000E+00
 -1       612 0.00000E+00 0.00000E+00 0.00000E+00
 -1       613 0.00000E+00 0.00000E+00 0.00000E+00
 -1       614 0.00000E+00 0.00000E+00 0.00000E+00
 -1       615 0.00000E+00 0.00000E+00 0.00000E+00
 -1       616 0.00000E+00 0.00000E+00 0.00000E+00
 -1       617 0.00000E+00 0.00000E+00 0.00000E+00
 -1       618 0.00000E+00 0.00000E+00 0.00000E+00
 -1       619 0.00000E+00 0.00000E+00 0.00000E+00
 -1       620 0.00000E+00 0.00000E+00 0.00000E+00
 -1       621 0.00000E+00 0.00000E+00 0.00000E+00
 -1       622 0.00000E+00 0.00000E+00 0.00000E+00
 -1       623 0.00000E+00 0.00000E+00 0.00000E+00
 -1       624 0.00000E+00 0.00000E+00 0.00000E+00
 -1       625 0.00000E+00 0.00000E+00 0.00000E+00
 -1       626 0.00000E+00 0.00000E+00 0.00000E+00
 -1       627 0.00000E+00 0.00000E+00 0.00000E+00
 -1       628 0.00000E+00 0.00000E+00 0.00000E+00
 -1       629 0.00000E+00 0.00000E+00 0.00000E+00
 -1       630 0.00000E+00 0.00000E+00 0.00000E+00
 -1       631 0.00000E+00 0.00000E+00 0.00000E+00
 -1       632 0.00000E+00 0.00000E+00 0.00000E+00
 -1       633 0.00000E+00 0.00000E+00 0.00000E+00
 -1       634 0.00000E+00 0.00000E+00 0.00000E+00
 -1       635 0.00000E+00 0.00000E+00 0.00000E+00
 -1       636 0.00000E+00 0.00000E+00 0.00000E+00
 -1       637 0.00000E+00 0.00000E+00 0.00000E+00
 -1       638 0.00000E+00 0.00000E+00 0.00000E+00
 -1       639 0.00000E+00 0.00000E+00 0.00000E+00
 -1       640 0.00000E+00 0.00000E+00 0.00000E+00
 -1       656 0.00000E+00 0.00000E+00 0.00000E+00
 -1       657 0.00000E+00 0.00000E+00 0.00000E+00
 -1       658 0.00000E+00 0.00000E+00 0.00000E+00
 -1       659 0.00000E+00 0.00000E+00 0.00000E+00
 -1       660 0.00000E+00 0.00000E+00 0.00000E+00
 -1       661 0.00000E+00 0.00000E+00 0.00000E+00
 -1       662 0.00000E+00 0.00000E+00 0.00000E+00
 -1       663 0.00000E+00 0.00000E+00 0.00000E+00
 -1       664 0.00000E+00 0.00000E+00 0.00000E+00
 -1       665 0.00000E+00 0.00000E+00 0.00000E+00
 -1       666 0.00000E+00 0.00000E+00 0.00000E+00
 -1       667 0.00000E+00 0.00000E+00 0.00000E+00
 -1       668 0.00000E+00 0.00000E+00 0.00000E+00
 -1       669 0.00000E+00 0.00000E+00 0.00000E+00
 -1       670 0.00000E+00 0.00000E+00 0.00000E+00
 -1       671 0.00000E+00 0.00000E+00 0.00000E+00
 -1       672 0.00000E+00 0.00000E+00 0.00000E+00
 -1       673 0.00000E+00 0.00000E+00 0.00000E+00
 -1       674 0.00000E+00 0.00000E+00 0.00000E+00
 -1       675 0.00000E+00 0.00000E+00 0.00000E+00
 -1       676 0.00000E+00 0.00000E+00 0.00000E+00
 -1       677 0.00000E+00 0.00000E+00 0.00000E+00
 -1       678 0.00000E+00 0.00000E+00 0.00000E+00
 -1       679 0.00000E+00 0.00000E+00 0.00000E+00
 -1       680 0.00000E+00 0.00000E+00 0.00000E+00
 -1       771 0.00000E+00 0.00000E+00 0.00000E+00
 -1       772 0.00000E+00 0.00000E+00 0.00000E+00
 -1       773 0.00000E+00 0.00000E+00 0.00000E+00
 -1       774 0.00000E+00 0.00000E+00 0.00000E+00
 -1       775 0.00000E+00 0.00000E+00 0.00000E+00
 -1       776 0.00000E+00 0.00000E+00 0.00000E+00
 -1       777 0.00000E+00 0.00000E+00 0.00000E+00
 -1       778 0.00000E+00 0.00000E+00 0.00000E+00
 -1       779 0.00000E+00 0.00000E+00 0.00000E+00
 -1       780 0.00000E+00 0.00000E+00 0.00000E+00
 -1       781 0.00000E+00 0.00000E+00 0.00000E+00
 -1       782 0.00000E+00 0.00000E+00 0.00000E+00
 -1       783 0.00000E+00 0.00000E+00 0.00000E+00
 -1       784 0.00000E+00 0.00000E+00 0.00000E+00
 -1       785 0.00000E+00 0.00000E+00 0.00000E+00
 -1       786 0.00000E+00 0.00000E+00 0.00000E+00
 -1       787 0.00000E+00 0.00000E+00 0.00000E+00
 -1       788 0.00000E+00 0.00000E+00 0.00000E+00
 -1       789 0.00000E+00 0.00000E+00 0.00000E+00
 -1       790 0.00000E+00 0.00000E+00 0.00000E+00
 -1       791 0.00000E+00 0.00000E+00 0.00000E+00
 -1       792 0.00000E+00 0.00000E+00 0.00000E+00
 -1       793 0.00000E+00 0.00000E+00 0.00000E+00
 -1       794 0.00000E+00 0.00000E+00 0.00000E+00
 -1       795 0.00000E+00 0.00000E+00 0.00000E+00
 -1       796 0.00000E+00 0.00000E+00 0.00000E+00
 -1       797 0.00000E+00 0.00000E+00 0.00000E+00
 -1       798 0.00000E+00 0.00000E+00 0.00000E+00
 -1       799 0.00000E+00 0.00000E+00 0.00000E+00
 -1       800 0.00000E+00 0.00000E+00 0.00000E+00
 -1       801 0.00000E+00 0.00000E+00 0.00000E+00
 -1       802 0.00000E+00 0.00000E+00 0.00000E+00
 -1       803 0.00000E+00 0.00000E+00 0.00000E+00
 -1       804 0.00000E+00 0.00000E+00 0.00000E+00
 -1       805 0.00000E+00 0.00000E+00 0.00000E+00
 -1       806 0.00000E+00 0.00000E+00 0.00000E+00
 -1       807 0.00000E+00 0.00000E+00 0.00000E+00
 -1       808 0.00000E+00 0.00000E+00 0.00000E+00
 -1       809 0.00000E+00 0.00000E+00 0.00000E+00
 -1       810 0.00000E+00 0.00000E+00 0.00000E+00
 -1       811 0.00000E+00 0.00000E+00 0.00000E+00
 -1       812 0.00000E+00 0.00000E+00 0.00000E+00
 -1       813 0.00000E+00 0.00000E+00 0.00000E+00
 -1       814 0.00000E+00 0.00000E+00 0.00000E+00
 -1       815 0.00000E+00 0.00000E+00 0.00000E+00
 -1       816 0.00000E+00 0.00000E+00 0.00000E+00
 -1       817 0.00000E+00 0.00000E+00 0.00000E+00
 -1       818 0.00000E+00 0.00000E+00 0.00000E+00
 -1       819 0.00000E+00 0.00000E+00 0.00000E+00
 -1       820 0.00000E+00 0.00000E+00 0.00000E+00
 -1       821 0.00000E+00 0.00000E+00 0.00000E+00
 -1       822 0.00000E+00 0.00000E+00 0.00000E+00
 -1       823 0.00000E+00 0.00000E+00 0.00000E+00
 -1       824 0.00000E+00 0.00000E+00 0.00000E+00
 -1       825 0.00000E+00 0.00000E+00 0.00000E+00
 -1       826 0.00000E+00 0.00000E+00 0.00000E+00
 -1       827 0.00000E+00 0.00000E+00 0.00000E+00
 -1       828 0.00000E+00 0.00000E+00 0.00000E+00
 -1       829 0.00000E+00 0.00000E+00 0.00000E+00
 -1       830 0.00000E+00 0.00000E+00 0.00000E+00
 -1       831 0.00000E+00 0.00000E+00 0.00000E+00
 -1       832 0.00000E+00 0.00000E+00 0.00000E+00
 -1       833 0.00000E+00 0.00000E+00 0.00000E+00
 -1       834 0.00000E+00 0.00000E+00 0.00000E+00
 -1       835 0.00000E+00 0.00000E+00 0.00000E+00
 -1       836 0.00000E+00 0.00000E+00 0.00000E+00
 -1       837 0.00000E+00 0.00000E+00 0.00000E+00
 -1       838 0.00000E+00 0.00000E+00 0.00000E+00
 -1       839 0.00000E+00 0.00000E+00 0.00000E+00
 -1       840 0.00000E+00 0.00000E+00 0.00000E+00
 -1       856 0.00000E+00 0.00000E+00 0.00000E+00
 -1       857 0.00000E+00 0.00000E+00 0.00000E+00
 -1       858 0.00000E+00 0.00000E+00 0.00000E+00
 -1       859 0.00000E+00 0.00000E+00 0.00000E+00
 -1       860 0.00000E+00 0.00000E+00 0.00000E+00
 -1       861 0.00000E+00 0.00000E+00 0.00000E+00
 -1       862 0.00000E+00 0.00000E+00 0.00000E+00
 -1       863 0.00000E+00 0.00000E+00 0.00000E+00
 -1       864 0.00000E+00 0.00000E+00 0.00000E+00
 -1       865 0.00000E+00 0.00000E+00 0.00000E+00
 -1       866 0.00000E+00 0.00000E+00 0.00000E+00
 -1       867 0.00000E+00 0.00000E+00 0.00000E+00
 -1       868 0.00000E+00 0.00000E+00 0.00000E+00
 -1       869 0.00000E+00 0.00000E+00 0.00000E+00
 -1       870 0.00000E+00 0.00000E+00 0.00000E+00
 -1       871 0.00000E+00 0.00000E+00 0.00000E+00
 -1       872 0.00000E+00 0.00000E+00 0.00000E+00
 -1       873 0.00000E+00 0.00000E+00 0.00000E+00
 -1       874 0.00000E+00 0.00000E+00 0.00000E+00
 -1       875 0.00000E+00 0.00000E+00 0.00000E+00
 -1       876 0.00000E+00 0.00000E+00 0.00000E+00
 -1       877 0.00000E+00 0.00000E+00 0.00000E+00
 -1       878 0.00000E+00 0.00000E+00 0.00000E+00
 -1       879 0.00000E+00 0.00000E+00 0.00000E+00
 -1       880 0.00000E+00 0.00000E+00 0.00000E+00
 -1       881 0.00000E+00 0.00000E+00 0.00000E+00
 -1       882 0.00000E+00 0.00000E+00 0.00000E+00
 -1       883 0.00000E+00 0.00000E+00 0.00000E+00
 -1       884 0.00000E+00 0.00000E+00 0.00000E+00
 -1       885 0.00000E+00 0.00000E+00 0.00000E+00
 -1       886 0.00000E+00 0.00000E+00 0.00000E+00
 -1       887 0.00000E+00 0.00000E+00 0.00000E+00
 -1       888 0.00000E+00 0.00000E+00 0.00000E+00
 -1       889 0.00000E+00 0.00000E+00 0.00000E+00
 -1       890 0.00000E+00 0.00000E+00 0.00000E+00
 -1       891 0.00000E+00 0.00000E+00 0.00000E+00
 -1       892 0.00000E+00 0.00000E+00 0.00000E+00
 -1       893 0.00000E+00 0.00000E+00 0.00000E+00
 -1       894 0.00000E+00 0.00000E+00 0.00000E+00
 -1       895 0.00000E+00 0.00000E+00 0.00000E+00
 -1       956 0.00000E+00 0.00000E+00 0.00000E+00
 -1       957 0.00000E+00 0.00000E+00 0.00000E+00
 -1       958 0.00000E+00 0.00000E+00 0.00000E+00
 -1       959 0.00000E+00 0.00000E+00 0.00000E+00
 -1       960 0.00000E+00 0.00000E+00 0.00000E+00
 -1       961 0.00000E+00 0.00000E+00 0.00000E+00
 -1       962 0.00000E+00 0.00000E+00 0.00000E+00
 -1       963 0.00000E+00 0.00000E+00 0.00000E+00
 -1       964 0.00000E+00 0.00000E+00 0.00000E+00
 -1       965 0.00000E+00 0.00000E+00 0.00000E+00
 -1       966 0.00000E+00 0.00000E+00 0.00000E+00
 -1       967 0.00000E+00 0.00000E+00 0.00000E+00
 -1       968 0.00000E+00 0.00000E+00 0.00000E+00
 -1       969 0.00000E+00 0.00000E+00 0.00000E+00
 -1       970 0.00000E+00 0.00000E+00 0.00000E+00
 -1       971 0.00000E+00 0.00000E+00 0.00000E+00
 -1       972 0.00000E+00 0.00000E+00 0.00000E+00
 -1       973 0.00000E+00 0.00000E+00 0.00000E+00
 -1       974 0.00000E+00 0.00000E+00 0.00000E+00
 -1       975 0.00000E+00 0.00000E+00 0.00000E+00
 -1       976 0.00000E+00 0.00000E+00 0.00000E+00
 -1       977 0.00000E+00 0.00000E+00 0.00000E+00
 -1       978 0.00000E+00 0.00000E+00 0.00000E+00
 -1       979 0.00000E+00 0.00000E+00 0.00000E+00
 -1       980 0.00000E+00 0.00000E+00 0.00000E+00
 -1       981 0.00000E+00 0.00000E+00 0.00000E+00
 -1       982 0.00000E+00 0.00000E+00 0.00000E+00
 -1       983 0.00000E+00 0.00000E+00 0.00000E+00
 -1       984 0.00000E+00 0.00000E+00 0.00000E+00
 -1       985 0.00000E+00 0.00000E+00 0.00000E+00
 -3
