
 stresses (elem, integ.pnt.,sxx,syy,szz,sxy,sxz,syz) for set ELALL and time  0.2500000E+00

         1   1  6.359274E+05  2.297602E+06  6.028063E+05 -4.590148E+05  2.902210E+04  2.360899E+05
         1   2  5.113283E+05  1.956479E+06  4.021436E+05 -4.237268E+05  9.642592E+04  1.090624E+05
         1   3  4.206180E+05  1.640629E+06  2.925182E+05 -4.391487E+05  1.126496E+05 -1.787504E+04
         1   4  3.042139E+04 -1.625730E+05  3.230915E+04 -4.367785E+05  2.920943E+04  2.145581E+04
         1   5  1.055230E+04 -1.647050E+05  1.722508E+04 -4.114391E+05  9.655845E+04  1.278963E+04
         1   6  4.124474E+03 -1.621206E+05  1.117697E+04 -4.368068E+05  1.126507E+05  4.137659E+03
         1   7 -5.754840E+05 -2.617071E+06 -5.384215E+05 -4.146278E+05  2.938203E+04 -1.923364E+05
         1   8 -4.904710E+05 -2.281500E+06 -3.678376E+05 -3.991919E+05  9.668752E+04 -8.316399E+04
         1   9 -4.125281E+05 -1.961632E+06 -2.702397E+05 -4.344700E+05  1.126519E+05  2.608895E+04
         1  10  6.359116E+05  2.297542E+06  6.027003E+05 -4.590203E+05  6.957848E-10 -2.242943E-08
         1  11  5.113151E+05  1.956464E+06  4.021038E+05 -4.237353E+05 -1.016962E-09  7.526469E-09
         1  12  4.206043E+05  1.640625E+06  2.924938E+05 -4.391471E+05 -6.023569E-09  3.856947E-08
         1  13  3.042035E+04 -1.625737E+05  3.230668E+04 -4.367790E+05  2.032898E-09 -5.151292E-11
         1  14  1.054224E+04 -1.647076E+05  1.720725E+04 -4.114401E+05  7.029487E-09  2.359112E-11
         1  15  4.110843E+03 -1.621241E+05  1.115309E+04 -4.368072E+05  1.170606E-08  5.043262E-11
         1  16 -5.754949E+05 -2.617111E+06 -5.384929E+05 -4.146233E+05 -6.887218E-10  2.232044E-08
         1  17 -4.904829E+05 -2.281510E+06 -3.678682E+05 -3.991855E+05 -3.460206E-09 -7.527862E-09
         1  18 -4.125420E+05 -1.961636E+06 -2.702648E+05 -4.344723E+05 -5.389048E-09 -3.839123E-08
         1  19  6.359274E+05  2.297602E+06  6.028063E+05 -4.590148E+05 -2.902210E+04 -2.360899E+05
         1  20  5.113283E+05  1.956479E+06  4.021436E+05 -4.237268E+05 -9.642592E+04 -1.090624E+05
         1  21  4.206180E+05  1.640629E+06  2.925182E+05 -4.391487E+05 -1.126496E+05  1.787504E+04
         1  22  3.042139E+04 -1.625730E+05  3.230915E+04 -4.367785E+05 -2.920943E+04 -2.145581E+04
         1  23  1.055230E+04 -1.647050E+05  1.722508E+04 -4.114391E+05 -9.655845E+04 -1.278963E+04
         1  24  4.124474E+03 -1.621206E+05  1.117697E+04 -4.368068E+05 -1.126507E+05 -4.137659E+03
         1  25 -5.754840E+05 -2.617071E+06 -5.384215E+05 -4.146278E+05 -2.938203E+04  1.923364E+05
         1  26 -4.904710E+05 -2.281500E+06 -3.678376E+05 -3.991919E+05 -9.668752E+04  8.316399E+04
         1  27 -4.125281E+05 -1.961632E+06 -2.702397E+05 -4.344700E+05 -1.126519E+05 -2.608895E+04
         2   1  3.707025E+05  1.433038E+06  2.512221E+05 -4.407876E+05  1.048666E+05 -2.229008E+04
         2   2  2.920406E+05  1.102794E+06  1.897333E+05 -4.112201E+05  9.086642E+04 -4.228556E+04
         2   3  2.194648E+05  7.767659E+05  1.427619E+05 -4.361438E+05  7.028656E+04 -6.228910E+04
         2   4  3.520323E+03 -1.627130E+05  9.844310E+03 -4.376495E+05  1.048555E+05  2.499653E+03
         2   5  2.938189E+03 -1.633113E+05  9.583530E+03 -4.104001E+05  9.081910E+04 -2.305091E+03
         2   6  5.817300E+03 -1.624315E+05  1.330677E+04 -4.376481E+05  7.019608E+04 -7.127766E+03
         2   7 -3.637830E+05 -1.755914E+06 -2.315836E+05 -4.345182E+05  1.048446E+05  2.722828E+04
         2   8 -2.862358E+05 -1.427794E+06 -1.705834E+05 -4.095807E+05  9.077182E+04  3.759746E+04
         2   9 -2.078674E+05 -1.100727E+06 -1.161469E+05 -4.391493E+05  7.010523E+04  4.795394E+04
         2  10  3.706906E+05  1.433035E+06  2.512006E+05 -4.407857E+05 -5.775384E-09 -3.705470E-08
         2  11  2.920312E+05  1.102790E+06  1.897144E+05 -4.112170E+05 -2.953464E-09 -5.880575E-09
         2  12  2.194585E+05  7.767604E+05  1.427453E+05 -4.361403E+05 -6.843364E-10  2.459186E-08
         2  13  3.508516E+03 -1.627159E+05  9.823638E+03 -4.376497E+05  1.015511E-08  3.065731E-12
         2  14  2.929332E+03 -1.633135E+05  9.568022E+03 -4.103999E+05  6.122269E-09  5.045452E-11
         2  15  5.811996E+03 -1.624328E+05  1.329742E+04 -4.376477E+05  1.970945E-09 -3.882434E-11
         2  16 -3.637950E+05 -1.755918E+06 -2.316056E+05 -4.345205E+05 -6.418518E-09  3.695413E-08
         2  17 -2.862450E+05 -1.427798E+06 -1.706015E+05 -4.095835E+05 -4.477969E-09  5.903739E-09
         2  18 -2.078733E+05 -1.100731E+06 -1.161605E+05 -4.391521E+05 -9.121021E-10 -2.466494E-08
         2  19  3.707025E+05  1.433038E+06  2.512221E+05 -4.407876E+05 -1.048666E+05  2.229008E+04
         2  20  2.920406E+05  1.102794E+06  1.897333E+05 -4.112201E+05 -9.086642E+04  4.228556E+04
         2  21  2.194648E+05  7.767659E+05  1.427619E+05 -4.361438E+05 -7.028656E+04  6.228910E+04
         2  22  3.520323E+03 -1.627130E+05  9.844310E+03 -4.376495E+05 -1.048555E+05 -2.499653E+03
         2  23  2.938189E+03 -1.633113E+05  9.583530E+03 -4.104001E+05 -9.081910E+04  2.305091E+03
         2  24  5.817300E+03 -1.624315E+05  1.330677E+04 -4.376481E+05 -7.019608E+04  7.127766E+03
         2  25 -3.637830E+05 -1.755914E+06 -2.315836E+05 -4.345182E+05 -1.048446E+05 -2.722828E+04
         2  26 -2.862358E+05 -1.427794E+06 -1.705834E+05 -4.095807E+05 -9.077182E+04 -3.759746E+04
         2  27 -2.078674E+05 -1.100727E+06 -1.161469E+05 -4.391493E+05 -7.010523E+04 -4.795394E+04
         3   1  1.744238E+05  5.743345E+05  1.165520E+05 -4.372610E+05  5.606677E+04 -6.489505E+04
         3   2  1.117691E+05  2.425877E+05  8.311287E+04 -3.921408E+05  3.187774E+04 -8.034895E+04
         3   3  7.186861E+04 -8.147164E+04  6.538633E+04 -4.019635E+05  7.383703E+03 -9.580150E+04
         3   4  7.415900E+03 -1.610420E+05  1.666577E+04 -4.377499E+05  5.596790E+04 -9.409736E+03
         3   5  1.954935E+04 -1.647165E+05  2.888243E+04 -4.102464E+05  3.177332E+04 -2.417089E+04
         3   6  5.432181E+04 -1.609468E+05  5.632007E+04 -4.376783E+05  7.274615E+03 -3.893762E+04
         3   7 -1.596138E+05 -8.958618E+05 -8.321424E+04 -4.382377E+05  5.586885E+04  4.601291E+04
         3   8 -7.267448E+04 -5.718440E+05 -2.533730E+04 -4.283395E+05  3.166557E+04  3.197205E+04
         3   9  3.678133E+04 -2.404058E+05  4.726670E+04 -4.733883E+05  7.158974E+03  1.791937E+04
         3  10  1.744193E+05  5.743291E+05  1.165382E+05 -4.372581E+05  5.257055E-10  1.562810E-09
         3  11  1.117663E+05  2.425805E+05  8.309884E+04 -3.921388E+05  5.500561E-10  1.493173E-09
         3  12  7.186609E+04 -8.148151E+04  6.536898E+04 -4.019630E+05 -9.578760E-11  1.636468E-09
         3  13  7.412513E+03 -1.610430E+05  1.665972E+04 -4.377495E+05  7.391354E-10 -3.108749E-12
         3  14  1.954811E+04 -1.647174E+05  2.887943E+04 -4.102458E+05 -1.115124E-09  5.642182E-11
         3  15  5.432135E+04 -1.609485E+05  5.631713E+04 -4.376781E+05 -4.045003E-10  1.775546E-11
         3  16 -1.596178E+05 -8.958649E+05 -8.322410E+04 -4.382398E+05 -1.197185E-09 -1.689172E-09
         3  17 -7.267583E+04 -5.718453E+05 -2.534111E+04 -4.283403E+05 -6.298761E-10 -1.487483E-09
         3  18  3.678119E+04 -2.404061E+05  4.726600E+04 -4.733884E+05 -2.748153E-10 -1.707305E-09
         3  19  1.744238E+05  5.743345E+05  1.165520E+05 -4.372610E+05 -5.606677E+04  6.489505E+04
         3  20  1.117691E+05  2.425877E+05  8.311287E+04 -3.921408E+05 -3.187774E+04  8.034895E+04
         3  21  7.186861E+04 -8.147164E+04  6.538633E+04 -4.019635E+05 -7.383703E+03  9.580150E+04
         3  22  7.415900E+03 -1.610420E+05  1.666577E+04 -4.377499E+05 -5.596790E+04  9.409736E+03
         3  23  1.954935E+04 -1.647165E+05  2.888243E+04 -4.102464E+05 -3.177332E+04  2.417089E+04
         3  24  5.432181E+04 -1.609468E+05  5.632007E+04 -4.376783E+05 -7.274615E+03  3.893762E+04
         3  25 -1.596138E+05 -8.958618E+05 -8.321424E+04 -4.382377E+05 -5.586885E+04 -4.601291E+04
         3  26 -7.267448E+04 -5.718440E+05 -2.533730E+04 -4.283395E+05 -3.166557E+04 -3.197205E+04
         3  27  3.678133E+04 -2.404058E+05  4.726670E+04 -4.733883E+05 -7.158974E+03 -1.791937E+04
         4   1 -2.293289E+06 -6.714802E+05 -4.662311E+05 -7.758588E+05 -2.946041E+05 -1.104269E+05
         4   2 -2.199594E+06 -2.494198E+05 -1.901759E+05 -8.673411E+05 -1.895327E+05 -7.104095E+04
         4   3 -2.291198E+06 -2.939243E+05 -1.195499E+05 -8.417531E+05 -8.442956E+04 -3.174033E+04
         4   4 -2.323104E+06 -6.377388E+05 -4.654458E+05 -7.376523E+05 -2.945848E+05 -1.104467E+05
         4   5 -2.207234E+06 -2.407239E+05 -1.899678E+05 -8.574995E+05 -1.895400E+05 -7.104816E+04
         4   6 -2.276660E+06 -3.102766E+05 -1.199037E+05 -8.602790E+05 -8.445902E+04 -3.174762E+04
         4   7 -2.352913E+06 -6.039885E+05 -4.646592E+05 -6.994470E+05 -2.945655E+05 -1.104665E+05
         4   8 -2.214874E+06 -2.320273E+05 -1.897596E+05 -8.476580E+05 -1.895473E+05 -7.105538E+04
         4   9 -2.262120E+06 -3.266268E+05 -1.202572E+05 -8.788051E+05 -8.448849E+04 -3.175491E+04
         4  10 -2.293386E+06 -6.715168E+05 -4.664178E+05 -7.758851E+05  4.731212E-10 -2.444971E-10
         4  11 -2.199634E+06 -2.494350E+05 -1.902532E+05 -8.673520E+05  2.545508E-10 -7.229104E-10
         4  12 -2.291206E+06 -2.939273E+05 -1.195653E+05 -8.417553E+05 -8.757541E-10  1.944134E-10
         4  13 -2.323201E+06 -6.377754E+05 -4.656326E+05 -7.376786E+05 -1.038812E-09 -1.960918E-10
         4  14 -2.207274E+06 -2.407390E+05 -1.900451E+05 -8.575104E+05 -2.550475E-09 -3.479140E-10
         4  15 -2.276668E+06 -3.102796E+05 -1.199191E+05 -8.602811E+05 -7.257049E-11  2.945085E-11
         4  16 -2.353010E+06 -6.040251E+05 -4.648459E+05 -6.994733E+05 -2.875433E-10 -2.029343E-10
         4  17 -2.214914E+06 -2.320425E+05 -1.898369E+05 -8.476689E+05  1.202395E-10  3.821692E-10
         4  18 -2.262128E+06 -3.266298E+05 -1.202725E+05 -8.788073E+05  1.327141E-09 -3.428144E-10
         4  19 -2.293289E+06 -6.714802E+05 -4.662311E+05 -7.758588E+05  2.946041E+05  1.104269E+05
         4  20 -2.199594E+06 -2.494198E+05 -1.901759E+05 -8.673411E+05  1.895327E+05  7.104095E+04
         4  21 -2.291198E+06 -2.939243E+05 -1.195499E+05 -8.417531E+05  8.442956E+04  3.174033E+04
         4  22 -2.323104E+06 -6.377388E+05 -4.654458E+05 -7.376523E+05  2.945848E+05  1.104467E+05
         4  23 -2.207234E+06 -2.407239E+05 -1.899678E+05 -8.574995E+05  1.895400E+05  7.104816E+04
         4  24 -2.276660E+06 -3.102766E+05 -1.199037E+05 -8.602790E+05  8.445902E+04  3.174762E+04
         4  25 -2.352913E+06 -6.039885E+05 -4.646592E+05 -6.994470E+05  2.945655E+05  1.104665E+05
         4  26 -2.214874E+06 -2.320273E+05 -1.897596E+05 -8.476580E+05  1.895473E+05  7.105538E+04
         4  27 -2.262120E+06 -3.266268E+05 -1.202572E+05 -8.788051E+05  8.448849E+04  3.175491E+04
         5   1 -2.244654E+06 -3.645248E+05 -9.541096E+04 -8.317760E+05 -6.633276E+04 -2.502563E+04
         5   2 -2.229780E+06 -3.010673E+05 -4.077912E+04 -8.433960E+05 -4.257137E+04 -1.619730E+04
         5   3 -2.241015E+06 -3.082688E+05 -2.246612E+04 -8.407152E+05 -1.881167E+04 -7.362992E+03
         5   4 -2.261393E+06 -3.645326E+05 -9.874896E+04 -8.298242E+05 -6.634637E+04 -2.503159E+04
         5   5 -2.244935E+06 -3.052601E+05 -4.462821E+04 -8.459372E+05 -4.258455E+04 -1.620237E+04
         5   6 -2.254586E+06 -3.166477E+05 -2.682732E+04 -8.477493E+05 -1.882436E+04 -7.367627E+03
         5   7 -2.278132E+06 -3.645403E+05 -1.020869E+05 -8.278724E+05 -6.635999E+04 -2.503755E+04
         5   8 -2.260089E+06 -3.094529E+05 -4.847731E+04 -8.484783E+05 -4.259773E+04 -1.620745E+04
         5   9 -2.268157E+06 -3.250265E+05 -3.118853E+04 -8.547833E+05 -1.883705E+04 -7.372261E+03
         5  10 -2.244659E+06 -3.645266E+05 -9.542045E+04 -8.317773E+05 -1.917122E-09  3.132748E-10
         5  11 -2.229782E+06 -3.010681E+05 -4.078304E+04 -8.433965E+05 -8.708904E-10 -1.856335E-10
         5  12 -2.241015E+06 -3.082690E+05 -2.246689E+04 -8.407153E+05 -1.678252E-09 -4.508483E-10
         5  13 -2.261398E+06 -3.645344E+05 -9.875845E+04 -8.298255E+05  2.025043E-09  3.355106E-10
         5  14 -2.244937E+06 -3.052609E+05 -4.463213E+04 -8.459377E+05 -5.848178E-10  2.017074E-10
         5  15 -2.254587E+06 -3.166479E+05 -2.682809E+04 -8.477495E+05 -2.005073E-11 -9.269184E-11
         5  16 -2.278137E+06 -3.645421E+05 -1.020964E+05 -8.278738E+05  1.140894E-09  4.305346E-10
         5  17 -2.260091E+06 -3.094537E+05 -4.848123E+04 -8.484789E+05 -3.110787E-10  2.182244E-10
         5  18 -2.268158E+06 -3.250266E+05 -3.118930E+04 -8.547834E+05 -4.717290E-10  1.245845E-10
         5  19 -2.244654E+06 -3.645248E+05 -9.541096E+04 -8.317760E+05  6.633276E+04  2.502563E+04
         5  20 -2.229780E+06 -3.010673E+05 -4.077912E+04 -8.433960E+05  4.257137E+04  1.619730E+04
         5  21 -2.241015E+06 -3.082688E+05 -2.246612E+04 -8.407152E+05  1.881167E+04  7.362992E+03
         5  22 -2.261393E+06 -3.645326E+05 -9.874896E+04 -8.298242E+05  6.634637E+04  2.503159E+04
         5  23 -2.244935E+06 -3.052601E+05 -4.462821E+04 -8.459372E+05  4.258455E+04  1.620237E+04
         5  24 -2.254586E+06 -3.166477E+05 -2.682732E+04 -8.477493E+05  1.882436E+04  7.367627E+03
         5  25 -2.278132E+06 -3.645403E+05 -1.020869E+05 -8.278724E+05  6.635999E+04  2.503755E+04
         5  26 -2.260089E+06 -3.094529E+05 -4.847731E+04 -8.484783E+05  4.259773E+04  1.620745E+04
         5  27 -2.268157E+06 -3.250265E+05 -3.118853E+04 -8.547833E+05  1.883705E+04  7.372261E+03
         6   1 -2.227067E+06 -3.156192E+05 -1.465382E+04 -8.370600E+05 -1.479616E+04 -5.907142E+03
         6   2 -2.224435E+06 -3.053457E+05 -3.343856E+03 -8.377059E+05 -9.362484E+03 -3.943995E+03
         6   3 -2.224556E+06 -3.067538E+05  1.212163E+03 -8.378571E+05 -3.941751E+03 -1.946497E+03
         6   4 -2.252331E+06 -3.243030E+05 -2.141371E+04 -8.430378E+05 -1.481238E+04 -5.913254E+03
         6   5 -2.250458E+06 -3.149896E+05 -1.043899E+04 -8.445844E+05 -9.371998E+03 -3.947569E+03
         6   6 -2.251340E+06 -3.173595E+05 -6.223732E+03 -8.456362E+05 -3.944564E+03 -1.947550E+03
         6   7 -2.277594E+06 -3.329869E+05 -2.817367E+04 -8.490154E+05 -1.482861E+04 -5.919366E+03
         6   8 -2.276481E+06 -3.246336E+05 -1.753419E+04 -8.514626E+05 -9.381511E+03 -3.951142E+03
         6   9 -2.278124E+06 -3.279651E+05 -1.365970E+04 -8.534150E+05 -3.947378E+03 -1.948603E+03
         6  10 -2.227067E+06 -3.156192E+05 -1.465430E+04 -8.370601E+05 -5.617514E-10 -2.450148E-10
         6  11 -2.224435E+06 -3.053457E+05 -3.344050E+03 -8.377060E+05  1.498451E-09 -4.614782E-11
         6  12 -2.224556E+06 -3.067538E+05  1.212127E+03 -8.378571E+05 -4.521095E-10 -2.858862E-10
         6  13 -2.252331E+06 -3.243031E+05 -2.141419E+04 -8.430379E+05 -8.457933E-11 -1.163306E-10
         6  14 -2.250458E+06 -3.149897E+05 -1.043918E+04 -8.445844E+05  2.021352E-09 -6.536957E-11
         6  15 -2.251340E+06 -3.173595E+05 -6.223768E+03 -8.456362E+05  1.737286E-09 -4.227699E-10
         6  16 -2.277595E+06 -3.329870E+05 -2.817415E+04 -8.490155E+05 -1.760103E-10 -6.830483E-10
         6  17 -2.276481E+06 -3.246336E+05 -1.753439E+04 -8.514626E+05 -2.811430E-10  1.279689E-10
         6  18 -2.278124E+06 -3.279651E+05 -1.365974E+04 -8.534150E+05 -2.549344E-10 -8.601021E-10
         6  19 -2.227067E+06 -3.156192E+05 -1.465382E+04 -8.370600E+05  1.479616E+04  5.907142E+03
         6  20 -2.224435E+06 -3.053457E+05 -3.343856E+03 -8.377059E+05  9.362484E+03  3.943995E+03
         6  21 -2.224556E+06 -3.067538E+05  1.212163E+03 -8.378571E+05  3.941751E+03  1.946497E+03
         6  22 -2.252331E+06 -3.243030E+05 -2.141371E+04 -8.430378E+05  1.481238E+04  5.913254E+03
         6  23 -2.250458E+06 -3.149896E+05 -1.043899E+04 -8.445844E+05  9.371998E+03  3.947569E+03
         6  24 -2.251340E+06 -3.173595E+05 -6.223732E+03 -8.456362E+05  3.944564E+03  1.947550E+03
         6  25 -2.277594E+06 -3.329869E+05 -2.817367E+04 -8.490154E+05  1.482861E+04  5.919366E+03
         6  26 -2.276481E+06 -3.246336E+05 -1.753419E+04 -8.514626E+05  9.381511E+03  3.951142E+03
         6  27 -2.278124E+06 -3.279651E+05 -1.365970E+04 -8.534150E+05  3.947378E+03  1.948603E+03
         7   1 -2.219729E+06 -3.064106E+05  3.639682E+03 -8.362420E+05 -2.998084E+03 -1.615844E+03
         7   2 -2.219230E+06 -3.047137E+05  5.814780E+03 -8.361433E+05 -1.521494E+03 -1.100632E+03
         7   3 -2.219064E+06 -3.051327E+05  6.453286E+03 -8.362049E+05 -6.046302E+01 -5.438733E+02
         7   4 -2.251220E+06 -3.181878E+05 -4.971701E+03 -8.446746E+05 -3.009009E+03 -1.619945E+03
         7   5 -2.250991E+06 -3.166960E+05 -2.886790E+03 -8.447564E+05 -1.524117E+03 -1.101618E+03
         7   6 -2.251096E+06 -3.173218E+05 -2.345129E+03 -8.449985E+05 -5.478195E+01 -5.417428E+02
         7   7 -2.282711E+06 -3.299649E+05 -1.358316E+04 -8.531068E+05 -3.019932E+03 -1.624047E+03
         7   8 -2.282751E+06 -3.286782E+05 -1.158845E+04 -8.533691E+05 -1.526739E+03 -1.102604E+03
         7   9 -2.283127E+06 -3.295109E+05 -1.114364E+04 -8.537918E+05 -4.910119E+01 -5.396125E+02
         7  10 -2.219729E+06 -3.064106E+05  3.639660E+03 -8.362420E+05  6.532555E-10 -1.003959E-09
         7  11 -2.219230E+06 -3.047137E+05  5.814773E+03 -8.361433E+05  1.559113E-09 -9.172191E-10
         7  12 -2.219064E+06 -3.051327E+05  6.453286E+03 -8.362049E+05 -6.146211E-10 -3.167922E-10
         7  13 -2.251220E+06 -3.181878E+05 -4.971723E+03 -8.446746E+05  1.253922E-10 -6.161714E-10
         7  14 -2.250991E+06 -3.166960E+05 -2.886797E+03 -8.447564E+05  8.537325E-10 -7.762085E-10
         7  15 -2.251096E+06 -3.173218E+05 -2.345129E+03 -8.449985E+05 -3.803555E-10  2.534882E-10
         7  16 -2.282711E+06 -3.299649E+05 -1.358318E+04 -8.531068E+05  1.180102E-09 -1.410140E-09
         7  17 -2.282751E+06 -3.286782E+05 -1.158845E+04 -8.533691E+05 -7.593005E-10 -3.315607E-10
         7  18 -2.283127E+06 -3.295109E+05 -1.114364E+04 -8.537918E+05 -1.104779E-10  6.741149E-10
         7  19 -2.219729E+06 -3.064106E+05  3.639682E+03 -8.362420E+05  2.998084E+03  1.615844E+03
         7  20 -2.219230E+06 -3.047137E+05  5.814780E+03 -8.361433E+05  1.521494E+03  1.100632E+03
         7  21 -2.219064E+06 -3.051327E+05  6.453286E+03 -8.362049E+05  6.046302E+01  5.438733E+02
         7  22 -2.251220E+06 -3.181878E+05 -4.971701E+03 -8.446746E+05  3.009009E+03  1.619945E+03
         7  23 -2.250991E+06 -3.166960E+05 -2.886790E+03 -8.447564E+05  1.524117E+03  1.101618E+03
         7  24 -2.251096E+06 -3.173218E+05 -2.345129E+03 -8.449985E+05  5.478195E+01  5.417428E+02
         7  25 -2.282711E+06 -3.299649E+05 -1.358316E+04 -8.531068E+05  3.019932E+03  1.624047E+03
         7  26 -2.282751E+06 -3.286782E+05 -1.158845E+04 -8.533691E+05  1.526739E+03  1.102604E+03
         7  27 -2.283127E+06 -3.295109E+05 -1.114364E+04 -8.537918E+05  4.910119E+01  5.396125E+02
         8   1 -2.220021E+06 -3.052686E+05  6.247259E+03 -8.362230E+05  3.347997E+02 -3.913032E+02
         8   2 -2.219967E+06 -3.054603E+05  5.590852E+03 -8.368162E+05  1.761924E+03  1.495504E+02
         8   3 -2.221532E+06 -3.064149E+05  3.436349E+03 -8.360862E+05  3.173913E+03  7.307203E+02
         8   4 -2.251384E+06 -3.170374E+05 -2.333415E+03 -8.446628E+05  3.316434E+02 -3.924898E+02
         8   5 -2.250633E+06 -3.170665E+05 -2.818097E+03 -8.451704E+05  1.766827E+03  1.513892E+02
         8   6 -2.251502E+06 -3.178602E+05 -4.807333E+03 -8.443548E+05  3.186878E+03  7.355861E+02
         8   7 -2.282747E+06 -3.288060E+05 -1.091417E+04 -8.531023E+05  3.284873E+02 -3.936762E+02
         8   8 -2.281298E+06 -3.286726E+05 -1.122713E+04 -8.535243E+05  1.771730E+03  1.532278E+02
         8   9 -2.281472E+06 -3.293054E+05 -1.305111E+04 -8.526229E+05  3.199842E+03  7.404516E+02
         8  10 -2.220021E+06 -3.052686E+05  6.247258E+03 -8.362230E+05 -4.218803E-10 -6.065165E-10
         8  11 -2.219967E+06 -3.054603E+05  5.590846E+03 -8.368162E+05  7.873315E-10 -2.635000E-10
         8  12 -2.221532E+06 -3.064149E+05  3.436329E+03 -8.360862E+05 -3.340374E-10  2.582449E-10
         8  13 -2.251384E+06 -3.170374E+05 -2.333416E+03 -8.446628E+05 -6.203525E-10  2.251062E-10
         8  14 -2.250633E+06 -3.170665E+05 -2.818103E+03 -8.451704E+05  2.545422E-10 -1.504328E-10
         8  15 -2.251502E+06 -3.178602E+05 -4.807353E+03 -8.443548E+05  5.845384E-10  3.063095E-10
         8  16 -2.282747E+06 -3.288060E+05 -1.091417E+04 -8.531023E+05 -1.674645E-09  1.665485E-10
         8  17 -2.281298E+06 -3.286726E+05 -1.122714E+04 -8.535243E+05  3.282585E-10 -2.435873E-11
         8  18 -2.281472E+06 -3.293054E+05 -1.305113E+04 -8.526230E+05  1.680186E-09  7.419147E-10
         8  19 -2.220021E+06 -3.052686E+05  6.247259E+03 -8.362230E+05 -3.347997E+02  3.913032E+02
         8  20 -2.219967E+06 -3.054603E+05  5.590852E+03 -8.368162E+05 -1.761924E+03 -1.495504E+02
         8  21 -2.221532E+06 -3.064149E+05  3.436349E+03 -8.360862E+05 -3.173913E+03 -7.307203E+02
         8  22 -2.251384E+06 -3.170374E+05 -2.333415E+03 -8.446628E+05 -3.316434E+02  3.924898E+02
         8  23 -2.250633E+06 -3.170665E+05 -2.818097E+03 -8.451704E+05 -1.766827E+03 -1.513892E+02
         8  24 -2.251502E+06 -3.178602E+05 -4.807333E+03 -8.443548E+05 -3.186878E+03 -7.355861E+02
         8  25 -2.282747E+06 -3.288060E+05 -1.091417E+04 -8.531023E+05 -3.284873E+02  3.936762E+02
         8  26 -2.281298E+06 -3.286726E+05 -1.122713E+04 -8.535243E+05 -1.771730E+03 -1.532278E+02
         8  27 -2.281472E+06 -3.293054E+05 -1.305111E+04 -8.526229E+05 -3.199842E+03 -7.404516E+02
         9   1 -2.227503E+06 -3.077095E+05  6.477710E+02 -8.384741E+05  4.066681E+03  1.097916E+03
         9   2 -2.226792E+06 -3.073184E+05 -3.801951E+03 -8.393908E+05  9.261171E+03  3.097791E+03
         9   3 -2.232351E+06 -3.145586E+05 -1.475775E+04 -8.356958E+05  1.444528E+04  5.125054E+03
         9   4 -2.252133E+06 -3.165487E+05 -6.007122E+03 -8.446888E+05  4.072513E+03  1.100109E+03
         9   5 -2.249476E+06 -3.160719E+05 -1.005557E+04 -8.457434E+05  9.272350E+03  3.101985E+03
         9   6 -2.253089E+06 -3.232276E+05 -2.061451E+04 -8.421860E+05  1.446182E+04  5.131242E+03
         9   7 -2.276763E+06 -3.253878E+05 -1.266207E+04 -8.509034E+05  4.078345E+03  1.102301E+03
         9   8 -2.272158E+06 -3.248253E+05 -1.630923E+04 -8.520957E+05  9.283528E+03  3.106178E+03
         9   9 -2.273826E+06 -3.318966E+05 -2.647130E+04 -8.486761E+05  1.447836E+04  5.137429E+03
         9  10 -2.227503E+06 -3.077095E+05  6.477375E+02 -8.384741E+05  4.959934E-10  5.948698E-10
         9  11 -2.226792E+06 -3.073184E+05 -3.802131E+03 -8.393908E+05  9.496710E-10 -6.063516E-10
         9  12 -2.232351E+06 -3.145587E+05 -1.475819E+04 -8.356958E+05 -1.589754E-10 -8.337779E-10
         9  13 -2.252133E+06 -3.165487E+05 -6.007156E+03 -8.446889E+05  5.310960E-10  3.820309E-10
         9  14 -2.249476E+06 -3.160719E+05 -1.005575E+04 -8.457434E+05  6.673392E-10 -3.461739E-10
         9  15 -2.253089E+06 -3.232277E+05 -2.061495E+04 -8.421861E+05 -3.370375E-10 -3.626724E-10
         9  16 -2.276763E+06 -3.253878E+05 -1.266210E+04 -8.509034E+05 -8.093143E-11  8.286816E-10
         9  17 -2.272159E+06 -3.248253E+05 -1.630941E+04 -8.520957E+05 -8.519659E-10 -1.692413E-10
         9  18 -2.273826E+06 -3.318966E+05 -2.647175E+04 -8.486761E+05  3.636070E-12  8.085538E-11
         9  19 -2.227503E+06 -3.077095E+05  6.477710E+02 -8.384741E+05 -4.066681E+03 -1.097916E+03
         9  20 -2.226792E+06 -3.073184E+05 -3.801951E+03 -8.393908E+05 -9.261171E+03 -3.097791E+03
         9  21 -2.232351E+06 -3.145586E+05 -1.475775E+04 -8.356958E+05 -1.444528E+04 -5.125054E+03
         9  22 -2.252133E+06 -3.165487E+05 -6.007122E+03 -8.446888E+05 -4.072513E+03 -1.100109E+03
         9  23 -2.249476E+06 -3.160719E+05 -1.005557E+04 -8.457434E+05 -9.272350E+03 -3.101985E+03
         9  24 -2.253089E+06 -3.232276E+05 -2.061451E+04 -8.421860E+05 -1.446182E+04 -5.131242E+03
         9  25 -2.276763E+06 -3.253878E+05 -1.266207E+04 -8.509034E+05 -4.078345E+03 -1.102301E+03
         9  26 -2.272158E+06 -3.248253E+05 -1.630923E+04 -8.520957E+05 -9.283528E+03 -3.106178E+03
         9  27 -2.273826E+06 -3.318966E+05 -2.647130E+04 -8.486761E+05 -1.447836E+04 -5.137429E+03
        10   1 -2.241391E+06 -3.132941E+05 -2.256027E+04 -8.456958E+05  1.827425E+04  6.618137E+03
        10   2 -2.234870E+06 -3.023059E+05 -4.022967E+04 -8.436050E+05  4.108792E+04  1.527149E+04
        10   3 -2.258633E+06 -3.541690E+05 -9.285586E+04 -8.218520E+05  6.390388E+04  2.391899E+04
        10   4 -2.255593E+06 -3.155257E+05 -2.582341E+04 -8.463377E+05  1.828946E+04  6.623964E+03
        10   5 -2.243736E+06 -3.071332E+05 -4.295405E+04 -8.475318E+05  4.110159E+04  1.527650E+04
        10   6 -2.262164E+06 -3.615925E+05 -9.504057E+04 -8.290635E+05  6.391622E+04  2.392283E+04
        10   7 -2.269794E+06 -3.177573E+05 -2.908656E+04 -8.469796E+05  1.830466E+04  6.629790E+03
        10   8 -2.252602E+06 -3.119606E+05 -4.567844E+04 -8.514585E+05  4.111526E+04  1.528151E+04
        10   9 -2.265694E+06 -3.690157E+05 -9.722527E+04 -8.362750E+05  6.392857E+04  2.392668E+04
        10  10 -2.241391E+06 -3.132942E+05 -2.256098E+04 -8.456959E+05  6.419350E-10  7.943671E-11
        10  11 -2.234872E+06 -3.023066E+05 -4.023329E+04 -8.436055E+05 -9.412337E-11  6.103460E-10
        10  12 -2.258638E+06 -3.541707E+05 -9.286464E+04 -8.218532E+05 -5.546919E-10 -3.950915E-12
        10  13 -2.255593E+06 -3.155258E+05 -2.582412E+04 -8.463378E+05 -7.326526E-10 -1.602010E-10
        10  14 -2.243738E+06 -3.071340E+05 -4.295768E+04 -8.475323E+05 -1.594717E-09  3.144564E-10
        10  15 -2.262168E+06 -3.615942E+05 -9.504936E+04 -8.290648E+05 -3.188687E-10  9.616467E-11
        10  16 -2.269794E+06 -3.177574E+05 -2.908728E+04 -8.469797E+05  8.781458E-11 -6.851420E-11
        10  17 -2.252604E+06 -3.119613E+05 -4.568207E+04 -8.514590E+05 -1.100933E-09  3.445526E-10
        10  18 -2.265698E+06 -3.690175E+05 -9.723407E+04 -8.362762E+05 -1.496147E-09 -9.445789E-11
        10  19 -2.241391E+06 -3.132941E+05 -2.256027E+04 -8.456958E+05 -1.827425E+04 -6.618137E+03
        10  20 -2.234870E+06 -3.023059E+05 -4.022967E+04 -8.436050E+05 -4.108792E+04 -1.527149E+04
        10  21 -2.258633E+06 -3.541690E+05 -9.285586E+04 -8.218520E+05 -6.390388E+04 -2.391899E+04
        10  22 -2.255593E+06 -3.155257E+05 -2.582341E+04 -8.463377E+05 -1.828946E+04 -6.623964E+03
        10  23 -2.243736E+06 -3.071332E+05 -4.295405E+04 -8.475318E+05 -4.110159E+04 -1.527650E+04
        10  24 -2.262164E+06 -3.615925E+05 -9.504057E+04 -8.290635E+05 -6.391622E+04 -2.392283E+04
        10  25 -2.269794E+06 -3.177573E+05 -2.908656E+04 -8.469796E+05 -1.830466E+04 -6.629790E+03
        10  26 -2.252602E+06 -3.119606E+05 -4.567844E+04 -8.514585E+05 -4.111526E+04 -1.528151E+04
        10  27 -2.265694E+06 -3.690157E+05 -9.722527E+04 -8.362750E+05 -6.392857E+04 -2.392668E+04
        11   1 -2.264750E+06 -3.257988E+05 -1.162668E+05 -8.766469E+05  8.125909E+04  3.051992E+04
        11   2 -2.220629E+06 -2.389838E+05 -1.842530E+05 -8.509281E+05  1.823280E+05  6.860449E+04
        11   3 -2.360439E+06 -5.956193E+05 -4.499615E+05 -7.061373E+05  2.834530E+05  1.065476E+05
        11   4 -2.276897E+06 -3.093340E+05 -1.154008E+05 -8.583274E+05  8.129327E+04  3.053625E+04
        11   5 -2.207348E+06 -2.451278E+05 -1.828362E+05 -8.587807E+05  1.823347E+05  6.860285E+04
        11   6 -2.321727E+06 -6.243654E+05 -4.479689E+05 -7.401596E+05  2.834367E+05  1.065165E+05
        11   7 -2.289042E+06 -2.928672E+05 -1.145344E+05 -8.400080E+05  8.132746E+04  3.055257E+04
        11   8 -2.194066E+06 -2.512714E+05 -1.814192E+05 -8.666335E+05  1.823413E+05  6.860121E+04
        11   9 -2.283009E+06 -6.531036E+05 -4.459751E+05 -7.741835E+05  2.834204E+05  1.064854E+05
        11  10 -2.264757E+06 -3.258016E+05 -1.162811E+05 -8.766489E+05  3.667886E-10 -5.918547E-11
        11  11 -2.220666E+06 -2.389979E+05 -1.843246E+05 -8.509382E+05  1.447774E-10  4.882697E-10
        11  12 -2.360529E+06 -5.956532E+05 -4.501345E+05 -7.061617E+05  1.093796E-09 -2.298071E-11
        11  13 -2.276904E+06 -3.093368E+05 -1.154150E+05 -8.583294E+05 -8.656574E-10  6.185993E-11
        11  14 -2.207385E+06 -2.451419E+05 -1.829078E+05 -8.587908E+05  1.003544E-09  4.456785E-10
        11  15 -2.321816E+06 -6.243993E+05 -4.481419E+05 -7.401840E+05  7.281214E-10  9.038568E-11
        11  16 -2.289050E+06 -2.928700E+05 -1.145487E+05 -8.400100E+05 -9.037022E-10  3.435484E-10
        11  17 -2.194103E+06 -2.512854E+05 -1.814908E+05 -8.666436E+05  4.232426E-10  7.006007E-10
        11  18 -2.283098E+06 -6.531375E+05 -4.461480E+05 -7.742079E+05 -1.894609E-10  1.651044E-11
        11  19 -2.264750E+06 -3.257988E+05 -1.162668E+05 -8.766469E+05 -8.125909E+04 -3.051992E+04
        11  20 -2.220629E+06 -2.389838E+05 -1.842530E+05 -8.509281E+05 -1.823280E+05 -6.860449E+04
        11  21 -2.360439E+06 -5.956193E+05 -4.499615E+05 -7.061373E+05 -2.834530E+05 -1.065476E+05
        11  22 -2.276897E+06 -3.093340E+05 -1.154008E+05 -8.583274E+05 -8.129327E+04 -3.053625E+04
        11  23 -2.207348E+06 -2.451278E+05 -1.828362E+05 -8.587807E+05 -1.823347E+05 -6.860285E+04
        11  24 -2.321727E+06 -6.243654E+05 -4.479689E+05 -7.401596E+05 -2.834367E+05 -1.065165E+05
        11  25 -2.289042E+06 -2.928672E+05 -1.145344E+05 -8.400080E+05 -8.132746E+04 -3.055257E+04
        11  26 -2.194066E+06 -2.512714E+05 -1.814192E+05 -8.666335E+05 -1.823413E+05 -6.860121E+04
        11  27 -2.283009E+06 -6.531036E+05 -4.459751E+05 -7.741835E+05 -2.834204E+05 -1.064854E+05
        12   1 -1.306742E+04 -2.848717E+05 -1.204410E+04  3.825554E+02 -7.821702E+01 -1.100773E+02
        12   2 -1.332172E+04 -2.856186E+05 -1.198552E+04 -5.246109E+02 -9.158213E+01 -7.179477E+02
        12   3 -1.239503E+04 -2.846398E+05 -1.096542E+04  3.424244E+02 -5.206738E+01 -1.325892E+03
        12   4  8.802614E+01 -2.322641E+05  1.110364E+03  3.945586E+02 -7.821643E+01 -1.091314E+02
        12   5 -1.943962E+02 -2.331235E+05  1.140637E+03 -4.930497E+02 -9.158196E+01 -7.183156E+02
        12   6  7.044022E+02 -2.322569E+05  2.133313E+03  3.935353E+02 -5.206964E+01 -1.327573E+03
        12   7  1.324327E+04 -1.796541E+05  1.426462E+04  4.065627E+02 -7.821583E+01 -1.081855E+02
        12   8  1.293272E+04 -1.806259E+05  1.426659E+04 -4.614863E+02 -9.158179E+01 -7.186835E+02
        12   9  1.380362E+04 -1.798715E+05  1.523184E+04  4.446495E+02 -5.207191E+01 -1.329255E+03
        12  10 -1.306742E+04 -2.848717E+05 -1.204410E+04  3.825554E+02 -1.396615E-10 -4.607751E-12
        12  11 -1.332172E+04 -2.856186E+05 -1.198552E+04 -5.246110E+02  9.006547E-11 -5.633043E-10
        12  12 -1.239503E+04 -2.846398E+05 -1.096542E+04  3.424243E+02 -4.928613E-10  2.894267E-10
        12  13  8.802613E+01 -2.322641E+05  1.110364E+03  3.945586E+02 -8.196911E-10  4.766532E-11
        12  14 -1.943963E+02 -2.331235E+05  1.140636E+03 -4.930497E+02 -4.232744E-10  2.340323E-10
        12  15  7.044017E+02 -2.322569E+05  2.133309E+03  3.935352E+02  1.924635E-11  5.140627E-10
        12  16  1.324327E+04 -1.796541E+05  1.426462E+04  4.065627E+02 -5.411534E-10  3.732986E-11
        12  17  1.293272E+04 -1.806259E+05  1.426659E+04 -4.614863E+02  8.005067E-10 -5.815819E-10
        12  18  1.380362E+04 -1.798715E+05  1.523183E+04  4.446494E+02  4.947671E-10 -7.664163E-11
        12  19 -1.306742E+04 -2.848717E+05 -1.204410E+04  3.825554E+02  7.821702E+01  1.100773E+02
        12  20 -1.332172E+04 -2.856186E+05 -1.198552E+04 -5.246109E+02  9.158213E+01  7.179477E+02
        12  21 -1.239503E+04 -2.846398E+05 -1.096542E+04  3.424244E+02  5.206738E+01  1.325892E+03
        12  22  8.802614E+01 -2.322641E+05  1.110364E+03  3.945586E+02  7.821643E+01  1.091314E+02
        12  23 -1.943962E+02 -2.331235E+05  1.140637E+03 -4.930497E+02  9.158196E+01  7.183156E+02
        12  24  7.044022E+02 -2.322569E+05  2.133313E+03  3.935353E+02  5.206964E+01  1.327573E+03
        12  25  1.324327E+04 -1.796541E+05  1.426462E+04  4.065627E+02  7.821583E+01  1.081855E+02
        12  26  1.293272E+04 -1.806259E+05  1.426659E+04 -4.614863E+02  9.158179E+01  7.186835E+02
        12  27  1.380362E+04 -1.798715E+05  1.523184E+04  4.446495E+02  5.207191E+01  1.329255E+03
        13   1  2.130036E+03 -2.231209E+05  4.769458E+03  6.971428E+02 -1.789889E+01 -1.754465E+03
        13   2  1.358539E+03 -2.238000E+05  6.212807E+03 -8.711795E+02  1.185708E+01 -3.791192E+03
        13   3  6.495336E+03 -2.227064E+05  1.046562E+04  7.893836E+02  2.298215E+01 -5.827888E+03
        13   4 -1.509982E+02 -2.322430E+05  2.488144E+03  7.197531E+02 -1.790068E+01 -1.755466E+03
        13   5 -9.742888E+02 -2.331288E+05  3.880272E+03 -8.977752E+02  1.185637E+01 -3.791719E+03
        13   6  4.110681E+03 -2.322420E+05  8.081563E+03  7.135850E+02  2.298272E+01 -5.827940E+03
        13   7 -2.432039E+03 -2.413651E+05  2.068235E+02  7.423630E+02 -1.790247E+01 -1.756467E+03
        13   8 -3.307123E+03 -2.424576E+05  1.547730E+03 -9.243704E+02  1.185567E+01 -3.792247E+03
        13   9  1.726019E+03 -2.417775E+05  5.697500E+03  6.377875E+02  2.298329E+01 -5.827993E+03
        13  10  2.130035E+03 -2.231209E+05  4.769452E+03  6.971428E+02  4.633384E-10  2.192431E-10
        13  11  1.358535E+03 -2.238000E+05  6.212780E+03 -8.711795E+02  1.087027E-09 -1.138459E-09
        13  12  6.495326E+03 -2.227064E+05  1.046555E+04  7.893837E+02 -7.252741E-10  2.966183E-10
        13  13 -1.509991E+02 -2.322430E+05  2.488138E+03  7.197530E+02  6.741064E-10  4.887276E-10
        13  14 -9.742927E+02 -2.331288E+05  3.880245E+03 -8.977751E+02  1.257260E-11  4.419970E-10
        13  15  4.110672E+03 -2.322420E+05  8.081499E+03  7.135851E+02 -1.948752E-10  4.870802E-10
        13  16 -2.432040E+03 -2.413651E+05  2.068177E+02  7.423630E+02  5.960266E-10  2.530219E-11
        13  17 -3.307127E+03 -2.424576E+05  1.547703E+03 -9.243704E+02 -2.914512E-10 -9.221688E-10
        13  18  1.726010E+03 -2.417776E+05  5.697436E+03  6.377876E+02  8.625763E-10 -1.157397E-10
        13  19  2.130036E+03 -2.231209E+05  4.769458E+03  6.971428E+02  1.789889E+01  1.754465E+03
        13  20  1.358539E+03 -2.238000E+05  6.212807E+03 -8.711795E+02 -1.185708E+01  3.791192E+03
        13  21  6.495336E+03 -2.227064E+05  1.046562E+04  7.893836E+02 -2.298215E+01  5.827888E+03
        13  22 -1.509982E+02 -2.322430E+05  2.488144E+03  7.197531E+02  1.790068E+01  1.755466E+03
        13  23 -9.742888E+02 -2.331288E+05  3.880272E+03 -8.977752E+02 -1.185637E+01  3.791719E+03
        13  24  4.110681E+03 -2.322420E+05  8.081563E+03  7.135850E+02 -2.298272E+01  5.827940E+03
        13  25 -2.432039E+03 -2.413651E+05  2.068235E+02  7.423630E+02  1.790247E+01  1.756467E+03
        13  26 -3.307123E+03 -2.424576E+05  1.547730E+03 -9.243704E+02 -1.185567E+01  3.792247E+03
        13  27  1.726019E+03 -2.417775E+05  5.697500E+03  6.377875E+02 -2.298329E+01  5.827993E+03
        14   1  1.427241E+04 -1.698102E+05  2.486194E+04  3.954716E+01  5.833996E+01 -7.468233E+03
        14   2  8.587189E+03 -1.760057E+05  2.967385E+04 -1.227472E+02  1.067687E+02 -1.552816E+04
        14   3  4.160194E+04 -1.697001E+05  4.976459E+04  6.419317E+02  5.035390E+01 -2.358794E+04
        14   4 -7.431711E+02 -2.298625E+05  9.846799E+03  2.059790E+02  5.833517E+01 -7.470385E+03
        14   5 -6.443420E+03 -2.361153E+05  1.464489E+04 -2.535883E+02  1.067726E+02 -1.552712E+04
        14   6  2.655765E+04 -2.298667E+05  3.472060E+04  2.138238E+02  5.036960E+01 -2.358370E+04
        14   7 -1.575903E+04 -2.899116E+05 -5.168610E+03  3.723939E+02  5.833039E+01 -7.472536E+03
        14   8 -2.147430E+04 -2.962217E+05 -3.843404E+02 -3.844171E+02  1.067765E+02 -1.552607E+04
        14   9  1.151310E+04 -2.900300E+05  1.967634E+04 -2.142424E+02  5.038529E+01 -2.357945E+04
        14  10  1.427240E+04 -1.698103E+05  2.486183E+04  3.954751E+01 -1.553376E-10  2.384075E-10
        14  11  8.587124E+03 -1.760060E+05  2.967340E+04 -1.227459E+02 -3.353532E-10 -4.322661E-10
        14  12  4.160179E+04 -1.697007E+05  4.976355E+04  6.419327E+02  1.014700E-10 -6.848239E-11
        14  13 -7.431861E+02 -2.298626E+05  9.846694E+03  2.059794E+02 -8.744028E-10  3.445584E-10
        14  14 -6.443484E+03 -2.361156E+05  1.464444E+04 -2.535870E+02  4.834551E-10  1.314707E-10
        14  15  2.655750E+04 -2.298673E+05  3.471956E+04  2.138247E+02  6.799358E-11 -1.038733E-10
        14  16 -1.575904E+04 -2.899117E+05 -5.168715E+03  3.723942E+02  4.095851E-10 -8.821800E-11
        14  17 -2.147437E+04 -2.962220E+05 -3.847936E+02 -3.844157E+02 -6.175859E-10 -1.666865E-10
        14  18  1.151295E+04 -2.900306E+05  1.967530E+04 -2.142414E+02 -9.818177E-10  2.139565E-11
        14  19  1.427241E+04 -1.698102E+05  2.486194E+04  3.954716E+01 -5.833996E+01  7.468233E+03
        14  20  8.587189E+03 -1.760057E+05  2.967385E+04 -1.227472E+02 -1.067687E+02  1.552816E+04
        14  21  4.160194E+04 -1.697001E+05  4.976459E+04  6.419317E+02 -5.035390E+01  2.358794E+04
        14  22 -7.431712E+02 -2.298625E+05  9.846799E+03  2.059790E+02 -5.833517E+01  7.470385E+03
        14  23 -6.443420E+03 -2.361153E+05  1.464489E+04 -2.535883E+02 -1.067726E+02  1.552712E+04
        14  24  2.655765E+04 -2.298667E+05  3.472060E+04  2.138238E+02 -5.036960E+01  2.358370E+04
        14  25 -1.575903E+04 -2.899116E+05 -5.168610E+03  3.723939E+02 -5.833039E+01  7.472536E+03
        14  26 -2.147430E+04 -2.962217E+05 -3.843404E+02 -3.844171E+02 -1.067765E+02  1.552607E+04
        14  27  1.151310E+04 -2.900300E+05  1.967634E+04 -2.142424E+02 -5.038529E+01  2.357945E+04
        15   1  3.203410E+04 -1.974195E+05  3.075551E+04 -1.368985E+01  4.421937E+03  4.572084E-01
        15   2  3.201408E+04 -1.975050E+05  3.073256E+04  6.575705E+00  4.419899E+03  5.960579E+00
        15   3  3.199567E+04 -1.975751E+05  3.070976E+04 -2.819185E+01  4.415277E+03  1.146293E+01
        15   4 -2.805159E+00 -3.268015E+05 -1.008946E+01 -1.222971E+01  4.421999E+03  8.689116E-01
        15   5 -3.491976E+00 -3.268091E+05 -1.429194E+01  1.528720E+01  4.419960E+03  7.797149E+00
        15   6 -2.816762E+00 -3.268015E+05 -1.933453E+01 -1.222945E+01  4.415338E+03  1.472439E+01
        15   7 -3.204092E+04 -4.561681E+05 -3.077686E+04 -1.076979E+01  4.422061E+03  1.280529E+00
        15   8 -3.202227E+04 -4.560978E+05 -3.076231E+04  2.399723E+01  4.420022E+03  9.633339E+00
        15   9 -3.200251E+04 -4.560126E+05 -3.074960E+04  3.730232E+00  4.415399E+03  1.798517E+01
        15  10  3.203408E+04 -1.974195E+05  3.075547E+04 -1.368986E+01  2.699850E-09  5.641707E-09
        15  11  3.201406E+04 -1.975050E+05  3.073252E+04  6.575683E+00 -1.453301E-09 -7.167072E-10
        15  12  3.199565E+04 -1.975751E+05  3.070972E+04 -2.819189E+01 -1.451893E-09 -6.004928E-09
        15  13 -2.826154E+00 -3.268015E+05 -1.012620E+01 -1.222971E+01  2.959120E-09 -1.776013E-11
        15  14 -3.512951E+00 -3.268091E+05 -1.432865E+01  1.528717E+01 -1.469675E-09 -5.264429E-11
        15  15 -2.837694E+00 -3.268015E+05 -1.937116E+01 -1.222950E+01 -1.051162E-09  5.265231E-12
        15  16 -3.204094E+04 -4.561681E+05 -3.077690E+04 -1.076980E+01  1.594662E-09 -5.649112E-09
        15  17 -3.202229E+04 -4.560978E+05 -3.076235E+04  2.399719E+01 -7.906566E-10  5.684807E-10
        15  18 -3.200253E+04 -4.560126E+05 -3.074963E+04  3.730169E+00 -1.358610E-09  5.878052E-09
        15  19  3.203410E+04 -1.974195E+05  3.075551E+04 -1.368985E+01 -4.421937E+03 -4.572084E-01
        15  20  3.201408E+04 -1.975050E+05  3.073256E+04  6.575705E+00 -4.419899E+03 -5.960579E+00
        15  21  3.199567E+04 -1.975751E+05  3.070976E+04 -2.819185E+01 -4.415277E+03 -1.146293E+01
        15  22 -2.805159E+00 -3.268015E+05 -1.008946E+01 -1.222971E+01 -4.421999E+03 -8.689116E-01
        15  23 -3.491976E+00 -3.268091E+05 -1.429194E+01  1.528720E+01 -4.419960E+03 -7.797149E+00
        15  24 -2.816762E+00 -3.268015E+05 -1.933453E+01 -1.222945E+01 -4.415338E+03 -1.472439E+01
        15  25 -3.204092E+04 -4.561681E+05 -3.077686E+04 -1.076979E+01 -4.422061E+03 -1.280529E+00
        15  26 -3.202227E+04 -4.560978E+05 -3.076231E+04  2.399723E+01 -4.420022E+03 -9.633339E+00
        15  27 -3.200251E+04 -4.560126E+05 -3.074960E+04  3.730232E+00 -4.415399E+03 -1.798517E+01
        16   1  3.194808E+04 -1.977674E+05  3.065772E+04 -5.422762E+01  4.411394E+03  1.453097E+01
        16   2  3.188960E+04 -1.980086E+05  3.058306E+04  1.885488E+01  4.402653E+03  3.467303E+01
        16   3  3.183098E+04 -1.982369E+05  3.049853E+04 -6.822386E+01  4.391307E+03  5.481181E+01
        16   4 -2.730893E+00 -3.268021E+05 -2.481521E+01 -3.559154E+01  4.411454E+03  1.863042E+01
        16   5 -3.115393E+00 -3.268083E+05 -4.388081E+01  4.449005E+01  4.402713E+03  4.020706E+01
        16   6 -3.882927E+00 -3.268021E+05 -7.380963E+01 -3.559165E+01  4.391365E+03  6.178043E+01
        16   7 -3.195475E+04 -4.558214E+05 -3.070852E+04 -1.695858E+01  4.411514E+03  2.272902E+01
        16   8 -3.189702E+04 -4.555929E+05 -3.067198E+04  7.012092E+01  4.402772E+03  4.573995E+01
        16   9 -3.183993E+04 -4.553520E+05 -3.064731E+04 -2.964932E+00  4.391424E+03  6.874761E+01
        16  10  3.194806E+04 -1.977674E+05  3.065768E+04 -5.422767E+01  1.467454E-10 -9.589367E-10
        16  11  3.188958E+04 -1.980086E+05  3.058302E+04  1.885475E+01  8.954858E-10 -3.834566E-10
        16  12  3.183096E+04 -1.982369E+05  3.049850E+04 -6.822405E+01  2.236452E-10 -6.906484E-10
        16  13 -2.751788E+00 -3.268021E+05 -2.485177E+01 -3.559160E+01 -1.046500E-10 -9.463704E-12
        16  14 -3.136206E+00 -3.268083E+05 -4.391724E+01  4.448991E+01  1.192578E-09 -1.167567E-10
        16  15 -3.903632E+00 -3.268021E+05 -7.384587E+01 -3.559187E+01 -1.275799E-09 -3.096189E-11
        16  16 -3.195477E+04 -4.558214E+05 -3.070855E+04 -1.695866E+01 -1.501338E-10  7.962330E-10
        16  17 -3.189704E+04 -4.555929E+05 -3.067202E+04  7.012076E+01 -3.577678E-10 -5.935919E-11
        16  18 -3.183995E+04 -4.553520E+05 -3.064735E+04 -2.965175E+00 -1.884207E-09  3.961236E-10
        16  19  3.194808E+04 -1.977674E+05  3.065772E+04 -5.422762E+01 -4.411394E+03 -1.453097E+01
        16  20  3.188960E+04 -1.980086E+05  3.058306E+04  1.885488E+01 -4.402653E+03 -3.467303E+01
        16  21  3.183098E+04 -1.982369E+05  3.049853E+04 -6.822386E+01 -4.391307E+03 -5.481181E+01
        16  22 -2.730893E+00 -3.268021E+05 -2.481521E+01 -3.559154E+01 -4.411454E+03 -1.863042E+01
        16  23 -3.115393E+00 -3.268083E+05 -4.388081E+01  4.449005E+01 -4.402713E+03 -4.020706E+01
        16  24 -3.882927E+00 -3.268021E+05 -7.380963E+01 -3.559165E+01 -4.391365E+03 -6.178043E+01
        16  25 -3.195475E+04 -4.558214E+05 -3.070852E+04 -1.695858E+01 -4.411514E+03 -2.272902E+01
        16  26 -3.189702E+04 -4.555929E+05 -3.067198E+04  7.012092E+01 -4.402772E+03 -4.573995E+01
        16  27 -3.183993E+04 -4.553520E+05 -3.064731E+04 -2.964932E+00 -4.391424E+03 -6.874761E+01
        17   1  3.173824E+04 -1.986210E+05  3.038278E+04 -9.145273E+01  4.383652E+03  6.953561E+01
        17   2  3.164309E+04 -1.990115E+05  3.021753E+04  3.237010E+01  4.368192E+03  1.519747E+02
        17   3  3.152876E+04 -1.994026E+05  2.999700E+04 -1.085122E+02  4.349378E+03  2.344068E+02
        17   4 -1.880079E+00 -3.268050E+05 -9.702550E+01 -5.882120E+01  4.383710E+03  7.711412E+01
        17   5 -3.818848E-01 -3.268046E+05 -1.700489E+02  7.352922E+01  4.368248E+03  1.613889E+02
        17   6 -1.838178E+01 -3.268050E+05 -2.996421E+02 -5.882913E+01  4.349432E+03  2.456565E+02
        17   7 -3.174319E+04 -4.549740E+05 -3.057798E+04 -2.619500E+01  4.383767E+03  8.469108E+01
        17   8 -3.164503E+04 -4.545827E+05 -3.055877E+04  1.146815E+02  4.368304E+03  1.708010E+02
        17   9 -3.156670E+04 -4.541925E+05 -3.059742E+04 -9.154356E+00  4.349486E+03  2.569040E+02
        17  10  3.173822E+04 -1.986210E+05  3.038274E+04 -9.145298E+01 -5.292941E-10  1.221203E-09
        17  11  3.164307E+04 -1.990115E+05  3.021750E+04  3.236956E+01  2.301871E-10  4.157610E-10
        17  12  3.152874E+04 -1.994026E+05  2.999696E+04 -1.085130E+02  1.456503E-10  6.518780E-10
        17  13 -1.900713E+00 -3.268050E+05 -9.706162E+01 -5.882148E+01 -1.484606E-09  2.404487E-11
        17  14 -4.023789E-01 -3.268046E+05 -1.700848E+02  7.352866E+01  2.464801E-10 -2.495119E-10
        17  15 -1.840210E+01 -3.268050E+05 -2.996778E+02 -5.882999E+01 -1.145688E-09 -5.402002E-11
        17  16 -3.174321E+04 -4.549740E+05 -3.057801E+04 -2.619530E+01 -9.402288E-10 -1.487453E-09
        17  17 -3.164505E+04 -4.545827E+05 -3.055881E+04  1.146809E+02 -7.066350E-11 -1.120673E-09
        17  18 -3.156672E+04 -4.541925E+05 -3.059746E+04 -9.155256E+00 -3.010474E-11 -1.065271E-09
        17  19  3.173824E+04 -1.986210E+05  3.038278E+04 -9.145273E+01 -4.383652E+03 -6.953561E+01
        17  20  3.164309E+04 -1.990115E+05  3.021753E+04  3.237010E+01 -4.368192E+03 -1.519747E+02
        17  21  3.152876E+04 -1.994026E+05  2.999700E+04 -1.085122E+02 -4.349378E+03 -2.344068E+02
        17  22 -1.880079E+00 -3.268050E+05 -9.702550E+01 -5.882120E+01 -4.383710E+03 -7.711412E+01
        17  23 -3.818848E-01 -3.268046E+05 -1.700489E+02  7.352922E+01 -4.368248E+03 -1.613889E+02
        17  24 -1.838178E+01 -3.268050E+05 -2.996421E+02 -5.882913E+01 -4.349432E+03 -2.456565E+02
        17  25 -3.174319E+04 -4.549740E+05 -3.057798E+04 -2.619500E+01 -4.383767E+03 -8.469108E+01
        17  26 -3.164503E+04 -4.545827E+05 -3.055877E+04  1.146815E+02 -4.368304E+03 -1.708010E+02
        17  27 -3.156670E+04 -4.541925E+05 -3.059742E+04 -9.154356E+00 -4.349486E+03 -2.569040E+02
        18   1  2.373008E+04  2.502109E+05  1.332817E+04 -4.092479E-01  8.327327E+03 -3.124614E-01
        18   2  2.373032E+04  2.502124E+05  1.332961E+04 -2.018164E+00  8.327368E+03 -3.047950E+00
        18   3  2.373063E+04  2.502148E+05  1.333304E+04 -3.702648E+00  8.327414E+03 -5.783480E+00
        18   4 -2.634929E+00  1.448465E+05  4.596229E+00 -1.677799E-02  8.327477E+03 -4.060709E-01
        18   5 -2.858495E+00  1.448460E+05  5.622280E+00  2.099575E-02  8.327518E+03 -3.151088E+00
        18   6 -3.018345E+00  1.448465E+05  8.641692E+00 -1.674971E-02  8.327563E+03 -5.896145E+00
        18   7 -2.373580E+04  3.949342E+04 -1.331901E+04  3.756327E-01  8.327626E+03 -4.996652E-01
        18   8 -2.373649E+04  3.949101E+04 -1.331841E+04  2.059840E+00  8.327667E+03 -3.254209E+00
        18   9 -2.373712E+04  3.948957E+04 -1.331580E+04  3.668577E+00  8.327712E+03 -6.008793E+00
        18  10  2.373000E+04  2.502109E+05  1.332804E+04 -4.092460E-01  2.008613E-08  1.087761E-07
        18  11  2.373025E+04  2.502123E+05  1.332948E+04 -2.018144E+00  5.519303E-09  8.695311E-08
        18  12  2.373056E+04  2.502148E+05  1.333291E+04 -3.702609E+00 -1.413701E-09  6.033686E-08
        18  13 -2.709401E+00  1.448465E+05  4.465904E+00 -1.677548E-02  3.770197E-08  5.244933E-12
        18  14 -2.932967E+00  1.448460E+05  5.491954E+00  2.101673E-02  1.534944E-08 -3.695436E-11
        18  15 -3.092818E+00  1.448465E+05  8.511364E+00 -1.671027E-02  3.021038E-10  3.812715E-11
        18  16 -2.373587E+04  3.949340E+04 -1.331914E+04  3.756359E-01  2.048659E-08 -1.087678E-07
        18  17 -2.373657E+04  3.949099E+04 -1.331854E+04  2.059862E+00  6.163097E-09 -8.695509E-08
        18  18 -2.373719E+04  3.948955E+04 -1.331593E+04  3.668617E+00 -1.850985E-09 -6.032250E-08
        18  19  2.373008E+04  2.502109E+05  1.332817E+04 -4.092482E-01 -8.327327E+03  3.124616E-01
        18  20  2.373032E+04  2.502124E+05  1.332961E+04 -2.018164E+00 -8.327368E+03  3.047950E+00
        18  21  2.373063E+04  2.502148E+05  1.333304E+04 -3.702648E+00 -8.327414E+03  5.783480E+00
        18  22 -2.634929E+00  1.448465E+05  4.596229E+00 -1.677834E-02 -8.327477E+03  4.060709E-01
        18  23 -2.858495E+00  1.448460E+05  5.622280E+00  2.099552E-02 -8.327518E+03  3.151088E+00
        18  24 -3.018345E+00  1.448465E+05  8.641692E+00 -1.674983E-02 -8.327563E+03  5.896145E+00
        18  25 -2.373580E+04  3.949342E+04 -1.331901E+04  3.756324E-01 -8.327626E+03  4.996650E-01
        18  26 -2.373649E+04  3.949101E+04 -1.331841E+04  2.059840E+00 -8.327667E+03  3.254208E+00
        18  27 -2.373712E+04  3.948957E+04 -1.331580E+04  3.668577E+00 -8.327712E+03  6.008792E+00
        19   1  2.373101E+04  2.502173E+05  1.333593E+04 -4.461571E+00  8.327483E+03 -7.409558E+00
        19   2  2.373165E+04  2.502220E+05  1.334515E+04 -7.380944E+00  8.327299E+03 -1.796145E+01
        19   3  2.373278E+04  2.502287E+05  1.336156E+04 -9.442485E+00  8.326532E+03 -2.851337E+01
        19   4 -3.209593E+00  1.448467E+05  1.104572E+01  1.906646E-01  8.327632E+03 -7.663649E+00
        19   5 -4.012753E+00  1.448457E+05  1.858939E+01 -2.382675E-01  8.327448E+03 -1.681669E+01
        19   6 -4.576741E+00  1.448467E+05  3.234150E+01  1.906395E-01  8.326681E+03 -2.596977E+01
        19   7 -2.373788E+04  3.948741E+04 -1.331387E+04  4.842178E+00  8.327782E+03 -7.917699E+00
        19   8 -2.374013E+04  3.948092E+04 -1.330801E+04  6.903279E+00  8.327597E+03 -1.567213E+01
        19   9 -2.374239E+04  3.947603E+04 -1.329691E+04  9.822228E+00  8.326831E+03 -2.342659E+01
        19  10  2.373093E+04  2.502173E+05  1.333580E+04 -4.461521E+00 -3.472465E-09  1.257536E-08
        19  11  2.373158E+04  2.502220E+05  1.334502E+04 -7.380823E+00 -5.668187E-09  1.063544E-08
        19  12  2.373271E+04  2.502287E+05  1.336143E+04 -9.442294E+00 -5.673086E-09  1.100072E-08
        19  13 -3.284067E+00  1.448466E+05  1.091539E+01  1.907161E-01 -3.356318E-09  3.480186E-11
        19  14 -4.087224E+00  1.448457E+05  1.845906E+01 -2.381547E-01 -6.002451E-09 -1.278967E-10
        19  15 -4.651198E+00  1.448466E+05  3.221120E+01  1.908136E-01 -5.223558E-09  8.417397E-11
        19  16 -2.373795E+04  3.948739E+04 -1.331400E+04  4.842231E+00 -3.747608E-09 -1.264902E-08
        19  17 -2.374020E+04  3.948090E+04 -1.330814E+04  6.903384E+00 -6.913458E-09 -1.069929E-08
        19  18 -2.374246E+04  3.947601E+04 -1.329704E+04  9.822385E+00 -5.310947E-09 -1.097118E-08
        19  19  2.373101E+04  2.502173E+05  1.333593E+04 -4.461571E+00 -8.327483E+03  7.409558E+00
        19  20  2.373165E+04  2.502220E+05  1.334515E+04 -7.380944E+00 -8.327299E+03  1.796145E+01
        19  21  2.373278E+04  2.502287E+05  1.336156E+04 -9.442485E+00 -8.326532E+03  2.851337E+01
        19  22 -3.209593E+00  1.448467E+05  1.104572E+01  1.906647E-01 -8.327632E+03  7.663649E+00
        19  23 -4.012753E+00  1.448457E+05  1.858939E+01 -2.382674E-01 -8.327448E+03  1.681669E+01
        19  24 -4.576741E+00  1.448467E+05  3.234150E+01  1.906395E-01 -8.326681E+03  2.596977E+01
        19  25 -2.373788E+04  3.948741E+04 -1.331387E+04  4.842178E+00 -8.327782E+03  7.917699E+00
        19  26 -2.374013E+04  3.948092E+04 -1.330801E+04  6.903279E+00 -8.327597E+03  1.567213E+01
        19  27 -2.374239E+04  3.947603E+04 -1.329691E+04  9.822228E+00 -8.326831E+03  2.342659E+01
        20   1  2.373367E+04  2.502348E+05  1.337379E+04 -1.126994E+01  8.326079E+03 -3.547029E+01
        20   2  2.373579E+04  2.502401E+05  1.341305E+04 -1.573033E+01  8.322437E+03 -8.409287E+01
        20   3  2.374361E+04  2.502537E+05  1.348557E+04 -1.873038E+01  8.313795E+03 -1.327153E+02
        20   4 -5.094265E+00  1.448476E+05  4.259361E+01  3.244247E-01  8.326228E+03 -3.271642E+01
        20   5 -6.231270E+00  1.448445E+05  7.404694E+01 -4.056547E-01  8.322585E+03 -6.932961E+01
        20   6 -3.739288E+00  1.448476E+05  1.304306E+02  3.245313E-01  8.313942E+03 -1.059429E+02
        20   7 -2.374432E+04  3.947194E+04 -1.328863E+04  1.191692E+01  8.326377E+03 -2.996299E+01
        20   8 -2.374870E+04  3.946037E+04 -1.326499E+04  1.491653E+01  8.322733E+03 -5.456874E+01
        20   9 -2.375154E+04  3.945298E+04 -1.322475E+04  1.937633E+01  8.314088E+03 -7.917471E+01
        20  10  2.373360E+04  2.502347E+05  1.337366E+04 -1.126970E+01 -4.321018E-09  8.768799E-09
        20  11  2.373571E+04  2.502400E+05  1.341292E+04 -1.572976E+01 -3.294507E-09  5.612456E-09
        20  12  2.374354E+04  2.502537E+05  1.348544E+04 -1.872950E+01 -2.764010E-09  3.685945E-09
        20  13 -5.168715E+00  1.448476E+05  4.246332E+01  3.246441E-01 -5.005103E-09  8.955121E-11
        20  14 -6.305656E+00  1.448445E+05  7.391676E+01 -4.051900E-01 -4.703623E-09 -1.822219E-10
        20  15 -3.813520E+00  1.448476E+05  1.303007E+02  3.252406E-01 -2.909834E-09  1.287528E-10
        20  16 -2.374439E+04  3.947192E+04 -1.328877E+04  1.191713E+01 -4.993215E-09 -8.891041E-09
        20  17 -2.374878E+04  3.946035E+04 -1.326512E+04  1.491689E+01 -4.069414E-09 -5.673800E-09
        20  18 -2.375162E+04  3.945296E+04 -1.322488E+04  1.937686E+01 -3.194936E-09 -3.664731E-09
        20  19  2.373367E+04  2.502348E+05  1.337379E+04 -1.126994E+01 -8.326079E+03  3.547029E+01
        20  20  2.373579E+04  2.502401E+05  1.341305E+04 -1.573033E+01 -8.322437E+03  8.409287E+01
        20  21  2.374361E+04  2.502537E+05  1.348557E+04 -1.873038E+01 -8.313795E+03  1.327153E+02
        20  22 -5.094265E+00  1.448476E+05  4.259361E+01  3.244248E-01 -8.326228E+03  3.271642E+01
        20  23 -6.231270E+00  1.448445E+05  7.404694E+01 -4.056546E-01 -8.322585E+03  6.932961E+01
        20  24 -3.739288E+00  1.448476E+05  1.304306E+02  3.245313E-01 -8.313942E+03  1.059429E+02
        20  25 -2.374432E+04  3.947194E+04 -1.328863E+04  1.191692E+01 -8.326377E+03  2.996299E+01
        20  26 -2.374870E+04  3.946037E+04 -1.326499E+04  1.491653E+01 -8.322733E+03  5.456874E+01
        20  27 -2.375154E+04  3.945298E+04 -1.322475E+04  1.937633E+01 -8.314088E+03  7.917471E+01
        21   1 -1.992589E+06 -6.385890E+05 -3.978007E+05 -7.114977E+05 -2.012799E+05 -7.139268E+04
        21   2 -1.942544E+06 -3.405650E+05 -2.118130E+05 -7.367896E+05 -1.301992E+05 -3.580298E+04
        21   3 -1.995234E+06 -3.260605E+05 -1.559619E+05 -7.027176E+05 -5.599308E+04 -8.506964E+03
        21   4 -1.704384E+06 -4.588823E+05 -3.054359E+05 -5.603801E+05 -1.952093E+05 -6.913650E+04
        21   5 -1.637446E+06 -2.051928E+05 -1.278039E+05 -6.323025E+05 -1.283799E+05 -3.512438E+04
        21   6 -1.672349E+06 -2.341073E+05 -7.688645E+04 -6.448786E+05 -5.842400E+04 -9.418158E+03
        21   7 -1.416086E+06 -2.791170E+05 -2.130786E+05 -4.091854E+05 -1.891356E+05 -6.687741E+04
        21   8 -1.332257E+06 -6.980411E+04 -4.380340E+04 -5.277654E+05 -1.265596E+05 -3.444524E+04
        21   9 -1.349361E+06 -1.421561E+05  2.182030E+03 -5.870172E+05 -6.085630E+04 -1.032959E+04
        21  10 -1.992634E+06 -6.386054E+05 -3.978867E+05 -7.115093E+05 -8.636735E-11 -1.100615E-10
        21  11 -1.942562E+06 -3.405709E+05 -2.118473E+05 -7.367933E+05  8.877580E-10 -3.076526E-10
        21  12 -1.995237E+06 -3.260615E+05 -1.559680E+05 -7.027179E+05  2.886438E-10 -2.580878E-11
        21  13 -1.704426E+06 -4.588977E+05 -3.055167E+05 -5.603910E+05  4.300917E-10 -1.160866E-10
        21  14 -1.637464E+06 -2.051986E+05 -1.278373E+05 -6.323062E+05  9.949092E-10 -2.573993E-10
        21  15 -1.672353E+06 -2.341083E+05 -7.689305E+04 -6.448791E+05 -1.363465E-10 -1.775506E-10
        21  16 -1.416126E+06 -2.791315E+05 -2.131544E+05 -4.091956E+05 -4.278085E-10 -7.289015E-11
        21  17 -1.332275E+06 -6.980970E+04 -4.383581E+04 -5.277689E+05  9.394664E-10 -9.777080E-11
        21  18 -1.349365E+06 -1.421572E+05  2.174853E+03 -5.870177E+05  7.921282E-10 -2.652373E-10
        21  19 -1.992589E+06 -6.385890E+05 -3.978007E+05 -7.114977E+05  2.012799E+05  7.139268E+04
        21  20 -1.942544E+06 -3.405650E+05 -2.118130E+05 -7.367896E+05  1.301992E+05  3.580298E+04
        21  21 -1.995234E+06 -3.260605E+05 -1.559619E+05 -7.027176E+05  5.599308E+04  8.506964E+03
        21  22 -1.704384E+06 -4.588823E+05 -3.054359E+05 -5.603801E+05  1.952093E+05  6.913650E+04
        21  23 -1.637446E+06 -2.051928E+05 -1.278039E+05 -6.323025E+05  1.283799E+05  3.512438E+04
        21  24 -1.672349E+06 -2.341073E+05 -7.688645E+04 -6.448786E+05  5.842400E+04  9.418158E+03
        21  25 -1.416086E+06 -2.791170E+05 -2.130786E+05 -4.091854E+05  1.891356E+05  6.687741E+04
        21  26 -1.332257E+06 -6.980411E+04 -4.380340E+04 -5.277654E+05  1.265596E+05  3.444524E+04
        21  27 -1.349361E+06 -1.421561E+05  2.182030E+03 -5.870172E+05  6.085630E+04  1.032959E+04
        22   1 -1.932270E+06 -3.737119E+05 -1.347941E+05 -7.078239E+05 -4.698928E+04 -7.039729E+03
        22   2 -1.912247E+06 -3.306339E+05 -9.677916E+04 -6.993397E+05 -3.091669E+04 -1.359876E+03
        22   3 -1.893701E+06 -3.273537E+05 -7.842229E+04 -6.967412E+05 -1.460358E+04  3.680822E+03
        22   4 -1.662147E+06 -2.654660E+05 -6.240792E+04 -6.272952E+05 -4.700091E+04 -7.045032E+03
        22   5 -1.659789E+06 -2.340038E+05 -3.014417E+04 -6.287028E+05 -3.125130E+04 -1.485967E+03
        22   6 -1.658840E+06 -2.422678E+05 -1.727526E+04 -6.359973E+05 -1.526165E+04  3.433582E+03
        22   7 -1.391954E+06 -1.572132E+05  9.971573E+03 -5.467339E+05 -4.701254E+04 -7.050336E+03
        22   8 -1.407270E+06 -1.373692E+05  3.648534E+04 -5.580397E+05 -3.158605E+04 -1.612115E+03
        22   9 -1.423924E+06 -1.571793E+05  4.386734E+04 -5.752329E+05 -1.592001E+04  3.186248E+03
        22  10 -1.932272E+06 -3.737126E+05 -1.347983E+05 -7.078242E+05  9.914886E-10  2.184102E-10
        22  11 -1.912248E+06 -3.306342E+05 -9.678097E+04 -6.993397E+05 -2.325576E-10 -7.614615E-11
        22  12 -1.893701E+06 -3.273538E+05 -7.842272E+04 -6.967411E+05 -3.777895E-10  1.824694E-10
        22  13 -1.662150E+06 -2.654666E+05 -6.241218E+04 -6.272954E+05  4.586400E-10 -1.779159E-10
        22  14 -1.659790E+06 -2.340041E+05 -3.014601E+04 -6.287029E+05  7.805789E-10 -1.026627E-10
        22  15 -1.658840E+06 -2.422679E+05 -1.727572E+04 -6.359973E+05  3.589798E-10  2.058094E-10
        22  16 -1.391957E+06 -1.572138E+05  9.967316E+03 -5.467342E+05 -5.312100E-10 -2.067543E-10
        22  17 -1.407271E+06 -1.373695E+05  3.648345E+04 -5.580398E+05 -1.133623E-09 -8.607658E-11
        22  18 -1.423924E+06 -1.571793E+05  4.386685E+04 -5.752329E+05 -1.186557E-09  3.058607E-10
        22  19 -1.932270E+06 -3.737119E+05 -1.347941E+05 -7.078239E+05  4.698928E+04  7.039729E+03
        22  20 -1.912247E+06 -3.306339E+05 -9.677916E+04 -6.993397E+05  3.091669E+04  1.359876E+03
        22  21 -1.893701E+06 -3.273537E+05 -7.842229E+04 -6.967412E+05  1.460358E+04 -3.680822E+03
        22  22 -1.662147E+06 -2.654660E+05 -6.240792E+04 -6.272952E+05  4.700091E+04  7.045032E+03
        22  23 -1.659789E+06 -2.340038E+05 -3.014417E+04 -6.287028E+05  3.125130E+04  1.485967E+03
        22  24 -1.658840E+06 -2.422678E+05 -1.727526E+04 -6.359973E+05  1.526165E+04 -3.433582E+03
        22  25 -1.391954E+06 -1.572132E+05  9.971573E+03 -5.467339E+05  4.701254E+04  7.050336E+03
        22  26 -1.407270E+06 -1.373692E+05  3.648534E+04 -5.580397E+05  3.158605E+04  1.612115E+03
        22  27 -1.423924E+06 -1.571793E+05  4.386734E+04 -5.752329E+05  1.592001E+04 -3.186248E+03
        23   1 -1.860500E+06 -3.224402E+05 -6.681557E+04 -6.902423E+05 -1.205068E+04  3.877086E+03
        23   2 -1.843046E+06 -3.047747E+05 -5.442346E+04 -6.774292E+05 -8.098516E+03  4.243936E+03
        23   3 -1.814997E+06 -3.022155E+05 -4.549554E+04 -6.778613E+05 -4.120299E+03  4.540426E+03
        23   4 -1.657414E+06 -2.456030E+05 -1.344255E+04 -6.343242E+05 -1.253936E+04  3.693455E+03
        23   5 -1.662545E+06 -2.368719E+05 -7.005736E+03 -6.281437E+05 -8.622289E+03  4.047254E+03
        23   6 -1.657074E+06 -2.432391E+05 -4.004232E+03 -6.352083E+05 -4.679322E+03  4.330644E+03
        23   7 -1.454288E+06 -1.687632E+05  3.992693E+04 -5.783895E+05 -1.302821E+04  3.509756E+03
        23   8 -1.482012E+06 -1.689672E+05  4.040913E+04 -5.788454E+05 -9.146229E+03  3.850509E+03
        23   9 -1.499128E+06 -1.842615E+05  3.748481E+04 -5.925456E+05 -5.238500E+03  4.120804E+03
        23  10 -1.860501E+06 -3.224403E+05 -6.681587E+04 -6.902423E+05 -4.126221E-10  7.159361E-11
        23  11 -1.843046E+06 -3.047747E+05 -5.442362E+04 -6.774292E+05 -3.030307E-10 -3.386841E-10
        23  12 -1.814997E+06 -3.022155E+05 -4.549561E+04 -6.778613E+05 -7.638148E-10 -5.291773E-10
        23  13 -1.657414E+06 -2.456031E+05 -1.344287E+04 -6.343242E+05 -2.840590E-10  2.692368E-10
        23  14 -1.662545E+06 -2.368719E+05 -7.005907E+03 -6.281437E+05 -1.536930E-10 -4.110306E-10
        23  15 -1.657074E+06 -2.432391E+05 -4.004308E+03 -6.352082E+05 -2.432633E-10 -6.915893E-10
        23  16 -1.454288E+06 -1.687632E+05  3.992659E+04 -5.783895E+05 -6.186583E-11  1.619242E-10
        23  17 -1.482012E+06 -1.689672E+05  4.040894E+04 -5.788454E+05 -1.594909E-10  3.863916E-11
        23  18 -1.499128E+06 -1.842615E+05  3.748473E+04 -5.925456E+05 -1.695830E-09 -6.092290E-10
        23  19 -1.860500E+06 -3.224402E+05 -6.681557E+04 -6.902423E+05  1.205068E+04 -3.877086E+03
        23  20 -1.843046E+06 -3.047747E+05 -5.442346E+04 -6.774292E+05  8.098516E+03 -4.243936E+03
        23  21 -1.814997E+06 -3.022155E+05 -4.549554E+04 -6.778613E+05  4.120299E+03 -4.540426E+03
        23  22 -1.657414E+06 -2.456030E+05 -1.344255E+04 -6.343242E+05  1.253936E+04 -3.693455E+03
        23  23 -1.662545E+06 -2.368719E+05 -7.005736E+03 -6.281437E+05  8.622289E+03 -4.047254E+03
        23  24 -1.657074E+06 -2.432391E+05 -4.004232E+03 -6.352083E+05  4.679322E+03 -4.330644E+03
        23  25 -1.454288E+06 -1.687632E+05  3.992693E+04 -5.783895E+05  1.302821E+04 -3.509756E+03
        23  26 -1.482012E+06 -1.689672E+05  4.040913E+04 -5.788454E+05  9.146229E+03 -3.850509E+03
        23  27 -1.499128E+06 -1.842615E+05  3.748481E+04 -5.925456E+05  5.238500E+03 -4.120804E+03
        24   1 -1.783478E+06 -2.912687E+05 -3.630459E+04 -6.697046E+05 -3.309168E+03  4.127940E+03
        24   2 -1.765697E+06 -2.756000E+05 -2.883836E+04 -6.559059E+05 -1.956161E+03  3.406522E+03
        24   3 -1.735439E+06 -2.729770E+05 -2.216426E+04 -6.566233E+05 -5.965971E+02  2.667004E+03
        24   4 -1.656781E+06 -2.436728E+05 -3.118732E+03 -6.351558E+05 -3.860230E+03  3.921208E+03
        24   5 -1.663002E+06 -2.370402E+05 -1.875413E+03 -6.279388E+05 -2.516363E+03  3.196430E+03
        24   6 -1.656748E+06 -2.434515E+05 -1.416968E+03 -6.352379E+05 -1.165989E+03  2.453542E+03
        24   7 -1.530068E+06 -1.960757E+05  3.006594E+04 -6.006006E+05 -4.411419E+03  3.714429E+03
        24   8 -1.560298E+06 -1.984799E+05  2.508659E+04 -5.999676E+05 -3.076667E+03  2.986300E+03
        24   9 -1.578050E+06 -2.139258E+05  1.932961E+04 -6.138502E+05 -1.735455E+03  2.240052E+03
        24  10 -1.783478E+06 -2.912687E+05 -3.630465E+04 -6.697046E+05 -1.157021E-09 -2.826128E-10
        24  11 -1.765697E+06 -2.756000E+05 -2.883839E+04 -6.559059E+05  7.901185E-11  2.402994E-10
        24  12 -1.735439E+06 -2.729770E+05 -2.216427E+04 -6.566233E+05  1.059272E-09  2.022089E-10
        24  13 -1.656781E+06 -2.436728E+05 -3.118789E+03 -6.351558E+05 -9.254217E-10 -3.079210E-10
        24  14 -1.663002E+06 -2.370402E+05 -1.875445E+03 -6.279388E+05  1.662279E-10  1.461151E-10
        24  15 -1.656748E+06 -2.434515E+05 -1.416982E+03 -6.352379E+05  4.224091E-11  2.034383E-10
        24  16 -1.530068E+06 -1.960757E+05  3.006588E+04 -6.006006E+05 -1.971371E-09 -3.295848E-10
        24  17 -1.560298E+06 -1.984799E+05  2.508655E+04 -5.999676E+05  3.303254E-10  1.891158E-10
        24  18 -1.578050E+06 -2.139258E+05  1.932959E+04 -6.138502E+05 -8.746119E-10 -9.696568E-11
        24  19 -1.783478E+06 -2.912687E+05 -3.630459E+04 -6.697046E+05  3.309168E+03 -4.127940E+03
        24  20 -1.765697E+06 -2.756000E+05 -2.883836E+04 -6.559059E+05  1.956161E+03 -3.406522E+03
        24  21 -1.735439E+06 -2.729770E+05 -2.216426E+04 -6.566233E+05  5.965971E+02 -2.667004E+03
        24  22 -1.656781E+06 -2.436728E+05 -3.118732E+03 -6.351558E+05  3.860230E+03 -3.921208E+03
        24  23 -1.663002E+06 -2.370402E+05 -1.875413E+03 -6.279388E+05  2.516363E+03 -3.196430E+03
        24  24 -1.656748E+06 -2.434515E+05 -1.416968E+03 -6.352379E+05  1.165989E+03 -2.453542E+03
        24  25 -1.530068E+06 -1.960757E+05  3.006594E+04 -6.006006E+05  4.411419E+03 -3.714429E+03
        24  26 -1.560298E+06 -1.984799E+05  2.508659E+04 -5.999676E+05  3.076667E+03 -2.986300E+03
        24  27 -1.578050E+06 -2.139258E+05  1.932961E+04 -6.138502E+05  1.735455E+03 -2.240052E+03
        25   1 -1.703296E+06 -2.610309E+05 -1.353004E+04 -6.480325E+05 -1.218207E+02  2.109660E+03
        25   2 -1.685173E+06 -2.452733E+05 -7.457414E+03 -6.338786E+05  1.123084E+03  1.311762E+03
        25   3 -1.654296E+06 -2.427716E+05 -2.077993E+03 -6.345554E+05  2.368029E+03  5.137153E+02
        25   4 -1.656687E+06 -2.435155E+05 -1.379331E+03 -6.353011E+05 -6.934982E+02  1.895372E+03
        25   5 -1.663076E+06 -2.369705E+05 -1.654780E+03 -6.278546E+05  5.513501E+02  1.097464E+03
        25   6 -1.656711E+06 -2.436815E+05 -2.623286E+03 -6.352390E+05  1.796205E+03  2.993950E+02
        25   7 -1.610076E+06 -2.259999E+05  1.077125E+04 -6.225688E+05 -1.265225E+03  1.681066E+03
        25   8 -1.640978E+06 -2.286677E+05  4.147856E+03 -6.218303E+05 -2.040995E+01  8.831556E+02
        25   9 -1.659126E+06 -2.445914E+05 -3.168583E+03 -6.359226E+05  1.224378E+03  8.507348E+01
        25  10 -1.703296E+06 -2.610309E+05 -1.353005E+04 -6.480325E+05 -2.004582E-10 -7.734656E-11
        25  11 -1.685173E+06 -2.452733E+05 -7.457420E+03 -6.338786E+05 -6.646279E-10 -1.231456E-10
        25  12 -1.654296E+06 -2.427716E+05 -2.078005E+03 -6.345554E+05  3.033054E-10  3.586255E-10
        25  13 -1.656687E+06 -2.435155E+05 -1.379338E+03 -6.353011E+05 -4.598372E-10 -4.980026E-11
        25  14 -1.663076E+06 -2.369705E+05 -1.654782E+03 -6.278546E+05  5.879015E-10 -1.382955E-10
        25  15 -1.656711E+06 -2.436815E+05 -2.623292E+03 -6.352390E+05  8.355247E-10  3.526728E-10
        25  16 -1.610076E+06 -2.259999E+05  1.077124E+04 -6.225688E+05  4.199470E-10 -5.430710E-10
        25  17 -1.640978E+06 -2.286677E+05  4.147854E+03 -6.218303E+05  1.229591E-09 -1.376034E-10
        25  18 -1.659126E+06 -2.445914E+05 -3.168586E+03 -6.359226E+05  1.901593E-09  4.509022E-10
        25  19 -1.703296E+06 -2.610309E+05 -1.353004E+04 -6.480325E+05  1.218207E+02 -2.109660E+03
        25  20 -1.685173E+06 -2.452733E+05 -7.457414E+03 -6.338786E+05 -1.123084E+03 -1.311762E+03
        25  21 -1.654296E+06 -2.427716E+05 -2.077993E+03 -6.345554E+05 -2.368029E+03 -5.137153E+02
        25  22 -1.656687E+06 -2.435155E+05 -1.379331E+03 -6.353011E+05  6.934982E+02 -1.895372E+03
        25  23 -1.663076E+06 -2.369705E+05 -1.654780E+03 -6.278546E+05 -5.513501E+02 -1.097464E+03
        25  24 -1.656711E+06 -2.436815E+05 -2.623286E+03 -6.352390E+05 -1.796205E+03 -2.993950E+02
        25  25 -1.610076E+06 -2.259999E+05  1.077125E+04 -6.225688E+05  1.265225E+03 -1.681066E+03
        25  26 -1.640978E+06 -2.286677E+05  4.147856E+03 -6.218303E+05  2.040995E+01 -8.831556E+02
        25  27 -1.659126E+06 -2.445914E+05 -3.168583E+03 -6.359226E+05 -1.224378E+03 -8.507348E+01
        26   1 -1.622045E+06 -2.306258E+05  5.842109E+03 -6.262150E+05  3.109264E+03  4.822384E+01
        26   2 -1.603870E+06 -2.145224E+05  9.712704E+03 -6.117740E+05  6.428879E+03  3.153541E+01
        26   3 -1.574090E+06 -2.137524E+05  1.076207E+04 -6.115958E+05  9.734103E+03  5.386821E+01
        26   4 -1.656865E+06 -2.434181E+05 -3.335455E+03 -6.353850E+05  2.528921E+03 -1.692972E+02
        26   5 -1.662804E+06 -2.367155E+05 -5.771439E+03 -6.278925E+05  5.868346E+03 -1.786006E+02
        26   6 -1.657142E+06 -2.453504E+05 -1.104453E+04 -6.346628E+05  9.193266E+03 -1.489269E+02
        26   7 -1.691684E+06 -2.562101E+05 -1.251304E+04 -6.445545E+05  1.948618E+03 -3.868036E+02
        26   8 -1.721734E+06 -2.589082E+05 -2.125580E+04 -6.440094E+05  5.307874E+03 -3.887134E+02
        26   9 -1.740187E+06 -2.769478E+05 -3.285169E+04 -6.577269E+05  8.652510E+03 -3.516911E+02
        26  10 -1.622045E+06 -2.306258E+05  5.842091E+03 -6.262150E+05  5.910229E-10  5.712031E-10
        26  11 -1.603870E+06 -2.145224E+05  9.712626E+03 -6.117740E+05 -1.587923E-09 -3.025085E-10
        26  12 -1.574090E+06 -2.137524E+05  1.076189E+04 -6.115958E+05 -1.294775E-09 -5.766911E-10
        26  13 -1.656865E+06 -2.434181E+05 -3.335467E+03 -6.353850E+05  5.186218E-10  1.945026E-10
        26  14 -1.662804E+06 -2.367155E+05 -5.771504E+03 -6.278925E+05 -1.642309E-09 -5.924217E-10
        26  15 -1.657142E+06 -2.453504E+05 -1.104469E+04 -6.346628E+05 -7.636167E-10 -5.750791E-10
        26  16 -1.691684E+06 -2.562101E+05 -1.251305E+04 -6.445545E+05 -7.356207E-10 -1.125285E-10
        26  17 -1.721734E+06 -2.589082E+05 -2.125585E+04 -6.440094E+05 -1.923559E-09 -1.040930E-09
        26  18 -1.740187E+06 -2.769479E+05 -3.285183E+04 -6.577269E+05 -1.326109E-09 -6.246995E-10
        26  19 -1.622045E+06 -2.306258E+05  5.842109E+03 -6.262150E+05 -3.109264E+03 -4.822384E+01
        26  20 -1.603870E+06 -2.145224E+05  9.712704E+03 -6.117740E+05 -6.428879E+03 -3.153541E+01
        26  21 -1.574090E+06 -2.137524E+05  1.076207E+04 -6.115958E+05 -9.734103E+03 -5.386821E+01
        26  22 -1.656865E+06 -2.434181E+05 -3.335455E+03 -6.353850E+05 -2.528921E+03  1.692972E+02
        26  23 -1.662804E+06 -2.367155E+05 -5.771439E+03 -6.278925E+05 -5.868346E+03  1.786006E+02
        26  24 -1.657142E+06 -2.453504E+05 -1.104453E+04 -6.346628E+05 -9.193266E+03  1.489269E+02
        26  25 -1.691684E+06 -2.562101E+05 -1.251304E+04 -6.445545E+05 -1.948618E+03  3.868036E+02
        26  26 -1.721734E+06 -2.589082E+05 -2.125580E+04 -6.440094E+05 -5.307874E+03  3.887134E+02
        26  27 -1.740187E+06 -2.769478E+05 -3.285169E+04 -6.577269E+05 -8.652510E+03  3.516911E+02
        27   1 -1.541333E+06 -2.014018E+05  1.608630E+04 -6.069872E+05  1.214882E+04  1.656355E+02
        27   2 -1.523062E+06 -1.812089E+05  1.164388E+04 -5.893248E+05  2.514652E+04  3.831421E+03
        27   3 -1.502677E+06 -1.968404E+05 -8.539897E+03 -5.802727E+05  3.797641E+04  7.947402E+03
        27   4 -1.658242E+06 -2.426864E+05 -1.418655E+04 -6.361167E+05  1.148515E+04 -8.319727E+01
        27   5 -1.660628E+06 -2.342680E+05 -2.473446E+04 -6.282465E+05  2.471199E+04  3.668296E+03
        27   6 -1.660948E+06 -2.617239E+05 -5.120874E+04 -6.289872E+05  3.777053E+04  7.869653E+03
        27   7 -1.775139E+06 -2.839707E+05 -4.446063E+04 -6.652414E+05  1.082161E+04 -3.319864E+02
        27   8 -1.798175E+06 -2.873258E+05 -6.111450E+04 -6.671604E+05  2.427757E+04  3.505212E+03
        27   9 -1.819193E+06 -3.266044E+05 -9.387982E+04 -6.776900E+05  3.756472E+04  7.791929E+03
        27  10 -1.541333E+06 -2.014019E+05  1.608603E+04 -6.069872E+05  9.020102E-10 -3.450169E-10
        27  11 -1.523063E+06 -1.812091E+05  1.164266E+04 -5.893249E+05 -2.091675E-12  2.685852E-11
        27  12 -1.502679E+06 -1.968409E+05 -8.542733E+03 -5.802730E+05 -7.573657E-10 -1.139120E-10
        27  13 -1.658242E+06 -2.426865E+05 -1.418680E+04 -6.361167E+05 -9.436117E-10 -2.414133E-10
        27  14 -1.660628E+06 -2.342682E+05 -2.473564E+04 -6.282466E+05  5.954826E-10 -3.994026E-11
        27  15 -1.660949E+06 -2.617243E+05 -5.121155E+04 -6.289875E+05 -7.910765E-10 -1.635216E-10
        27  16 -1.775139E+06 -2.839707E+05 -4.446085E+04 -6.652414E+05  3.788650E-10 -5.199723E-10
        27  17 -1.798175E+06 -2.873260E+05 -6.111563E+04 -6.671605E+05  4.595283E-10 -2.436858E-10
        27  18 -1.819195E+06 -3.266049E+05 -9.388260E+04 -6.776903E+05  9.625153E-10 -3.315245E-11
        27  19 -1.541333E+06 -2.014018E+05  1.608630E+04 -6.069872E+05 -1.214882E+04 -1.656355E+02
        27  20 -1.523062E+06 -1.812089E+05  1.164388E+04 -5.893248E+05 -2.514652E+04 -3.831421E+03
        27  21 -1.502677E+06 -1.968404E+05 -8.539897E+03 -5.802727E+05 -3.797641E+04 -7.947402E+03
        27  22 -1.658242E+06 -2.426864E+05 -1.418655E+04 -6.361167E+05 -1.148515E+04  8.319727E+01
        27  23 -1.660628E+06 -2.342680E+05 -2.473446E+04 -6.282465E+05 -2.471199E+04 -3.668296E+03
        27  24 -1.660948E+06 -2.617239E+05 -5.120874E+04 -6.289872E+05 -3.777053E+04 -7.869653E+03
        27  25 -1.775139E+06 -2.839707E+05 -4.446063E+04 -6.652414E+05 -1.082161E+04  3.319864E+02
        27  26 -1.798175E+06 -2.873258E+05 -6.111450E+04 -6.671604E+05 -2.427757E+04 -3.505212E+03
        27  27 -1.819193E+06 -3.266044E+05 -9.387982E+04 -6.776900E+05 -3.756472E+04 -7.791929E+03
        28   1 -1.459261E+06 -1.813202E+05 -1.261767E+04 -6.111161E+05  4.910096E+04  1.048711E+04
        28   2 -1.440185E+06 -1.177431E+05 -4.861864E+04 -5.586238E+05  1.035956E+05  3.006536E+04
        28   3 -1.500464E+06 -2.890183E+05 -1.861618E+05 -4.616317E+05  1.558648E+05  5.558009E+04
        28   4 -1.669277E+06 -2.360379E+05 -6.308830E+04 -6.434624E+05  4.716447E+04  9.762613E+03
        28   5 -1.642372E+06 -2.105477E+05 -1.048611E+05 -6.311099E+05  1.046995E+05  3.047606E+04
        28   6 -1.695461E+06 -4.205678E+05 -2.506171E+05 -5.742490E+05  1.600093E+05  5.711817E+04
        28   7 -1.879249E+06 -2.907567E+05 -1.135615E+05 -6.758012E+05  4.522871E+04  9.038202E+03
        28   8 -1.844518E+06 -3.033435E+05 -1.611073E+05 -7.035726E+05  1.058029E+05  3.088653E+04
        28   9 -1.890413E+06 -5.520821E+05 -3.150753E+05 -6.868263E+05  1.641524E+05  5.865473E+04
        28  10 -1.459264E+06 -1.813210E+05 -1.262242E+04 -6.111166E+05 -9.987900E-10 -3.044178E-10
        28  11 -1.440197E+06 -1.177470E+05 -4.864057E+04 -5.586263E+05  4.245633E-10  8.200953E-12
        28  12 -1.500491E+06 -2.890281E+05 -1.862134E+05 -4.616387E+05  6.500596E-10 -5.239952E-11
        28  13 -1.669280E+06 -2.360386E+05 -6.309267E+04 -6.434628E+05  4.879696E-10 -9.334064E-11
        28  14 -1.642384E+06 -2.105516E+05 -1.048835E+05 -6.311125E+05  9.670265E-12  1.949926E-10
        28  15 -1.695490E+06 -4.205782E+05 -2.506715E+05 -5.742564E+05 -2.120028E-10 -3.036713E-11
        28  16 -1.879251E+06 -2.907574E+05 -1.135655E+05 -6.758015E+05  1.054022E-09 -6.972678E-11
        28  17 -1.844530E+06 -3.033475E+05 -1.611302E+05 -7.035753E+05  3.498579E-10  1.396899E-10
        28  18 -1.890443E+06 -5.520930E+05 -3.151326E+05 -6.868341E+05 -5.572258E-11  1.590240E-10
        28  19 -1.459261E+06 -1.813202E+05 -1.261767E+04 -6.111161E+05 -4.910096E+04 -1.048711E+04
        28  20 -1.440185E+06 -1.177431E+05 -4.861864E+04 -5.586238E+05 -1.035956E+05 -3.006536E+04
        28  21 -1.500464E+06 -2.890183E+05 -1.861618E+05 -4.616317E+05 -1.558648E+05 -5.558009E+04
        28  22 -1.669277E+06 -2.360379E+05 -6.308830E+04 -6.434624E+05 -4.716447E+04 -9.762613E+03
        28  23 -1.642372E+06 -2.105477E+05 -1.048611E+05 -6.311099E+05 -1.046995E+05 -3.047606E+04
        28  24 -1.695461E+06 -4.205678E+05 -2.506171E+05 -5.742490E+05 -1.600093E+05 -5.711817E+04
        28  25 -1.879249E+06 -2.907567E+05 -1.135615E+05 -6.758012E+05 -4.522871E+04 -9.038202E+03
        28  26 -1.844518E+06 -3.033435E+05 -1.611073E+05 -7.035726E+05 -1.058029E+05 -3.088653E+04
        28  27 -1.890413E+06 -5.520821E+05 -3.150753E+05 -6.868263E+05 -1.641524E+05 -5.865473E+04
        29   1  8.298301E+04  3.031843E+04  9.166659E+04 -5.908426E+04  2.392326E+02  5.640356E+04
        29   2  2.070733E+04  1.094158E+04  4.750383E+04 -3.211585E+04  6.758790E+02  3.265166E+04
        29   3  3.804901E+03  5.997978E+03  3.014864E+04 -7.890533E+03  2.933741E+02  8.899411E+03
        29   4  7.513001E+04 -1.051783E+03  8.410851E+04 -1.208970E+04  2.442872E+02  5.502993E+04
        29   5  1.605310E+04 -8.150632E+03  4.347504E+04 -1.073921E+04  6.770155E+02  3.263236E+04
        29   6  2.112893E+03 -1.051780E+03  2.870925E+04 -1.213111E+04  2.925410E+02  1.023397E+04
        29   7  6.728523E+04 -3.241636E+04  7.655155E+04  3.490247E+04  2.491341E+02  5.365637E+04
        29   8  1.140057E+04 -2.724152E+04  3.944647E+04  1.063675E+04  6.781507E+02  3.261306E+04
        29   9  4.209503E+02 -8.101449E+03  2.726986E+04 -1.637165E+04  2.916896E+02  1.156851E+04
        29  10  8.298215E+04  3.031502E+04  9.166061E+04 -5.908427E+04  3.826431E-11  3.655386E-10
        29  11  2.070705E+04  1.094043E+04  4.750182E+04 -3.211587E+04  2.077447E-10 -1.944230E-10
        29  12  3.804879E+03  5.997893E+03  3.014849E+04 -7.890535E+03 -3.950149E-10 -1.468784E-09
        29  13  7.512919E+04 -1.055034E+03  8.410282E+04 -1.208971E+04  3.110729E-12 -1.325725E-10
        29  14  1.605282E+04 -8.151776E+03  4.347304E+04 -1.073923E+04  4.052708E-10  1.420070E-10
        29  15  2.112864E+03 -1.051893E+03  2.870905E+04 -1.213112E+04 -1.335283E-09  1.838047E-10
        29  16  6.728446E+04 -3.241945E+04  7.654614E+04  3.490246E+04 -4.891342E-10 -3.832009E-10
        29  17  1.140028E+04 -2.724266E+04  3.944447E+04  1.063673E+04  1.216985E-10  3.225835E-10
        29  18  4.209142E+02 -8.101592E+03  2.726961E+04 -1.637165E+04 -3.579119E-10  1.557007E-09
        29  19  8.298301E+04  3.031843E+04  9.166659E+04 -5.908426E+04 -2.392326E+02 -5.640356E+04
        29  20  2.070733E+04  1.094158E+04  4.750383E+04 -3.211585E+04 -6.758790E+02 -3.265166E+04
        29  21  3.804901E+03  5.997978E+03  3.014864E+04 -7.890533E+03 -2.933741E+02 -8.899411E+03
        29  22  7.513001E+04 -1.051783E+03  8.410851E+04 -1.208970E+04 -2.442872E+02 -5.502993E+04
        29  23  1.605310E+04 -8.150632E+03  4.347504E+04 -1.073921E+04 -6.770155E+02 -3.263236E+04
        29  24  2.112893E+03 -1.051780E+03  2.870925E+04 -1.213111E+04 -2.925410E+02 -1.023397E+04
        29  25  6.728523E+04 -3.241636E+04  7.655155E+04  3.490247E+04 -2.491341E+02 -5.365637E+04
        29  26  1.140057E+04 -2.724152E+04  3.944647E+04  1.063675E+04 -6.781507E+02 -3.261306E+04
        29  27  4.209503E+02 -8.101449E+03  2.726986E+04 -1.637165E+04 -2.916896E+02 -1.156851E+04
        30   1  3.058995E+03 -4.463363E+03  2.572151E+04 -1.446282E+04 -1.953651E+02  4.754393E+03
        30   2 -1.758744E+03 -1.824629E+04  2.293679E+04 -1.047508E+04 -9.161683E+02 -7.747846E+03
        30   3 -2.473733E+02 -2.882238E+04  2.987371E+04 -9.290078E+03 -1.583440E+03 -2.024987E+04
        30   4  3.257217E+03 -3.490962E+03  2.575633E+04 -1.213904E+04 -1.960714E+02  6.004458E+03
        30   5  1.329250E+03 -5.101937E+03  2.523036E+04 -1.073698E+04 -9.168318E+02 -6.586777E+03
        30   6  5.745735E+03 -3.490899E+03  3.448771E+04 -1.213759E+04 -1.583958E+03 -1.917803E+04
        30   7  3.455460E+03 -2.518545E+03  2.579117E+04 -9.815259E+03 -1.967683E+02  7.254526E+03
        30   8  4.417235E+03  8.042584E+03  2.752394E+04 -1.099889E+04 -9.174962E+02 -5.425684E+03
        30   9  1.173884E+04  2.184122E+04  3.910170E+04 -1.498523E+04 -1.584485E+03 -1.810615E+04
        30  10  3.058989E+03 -4.463387E+03  2.572146E+04 -1.446282E+04 -9.387024E-10  7.440374E-10
        30  11 -1.758761E+03 -1.824635E+04  2.293667E+04 -1.047508E+04  7.497801E-10  2.809717E-10
        30  12 -2.474861E+02 -2.882282E+04  2.987293E+04 -9.290104E+03 -8.303085E-10 -9.256856E-10
        30  13  3.257207E+03 -3.491000E+03  2.575626E+04 -1.213904E+04  6.975664E-10 -1.350932E-10
        30  14  1.329237E+03 -5.101984E+03  2.523028E+04 -1.073698E+04  1.551788E-10  1.270828E-10
        30  15  5.745633E+03 -3.491295E+03  3.448702E+04 -1.213762E+04  4.579640E-11  1.467424E-10
        30  16  3.455446E+03 -2.518601E+03  2.579107E+04 -9.815258E+03 -8.411212E-10 -6.914789E-10
        30  17  4.417226E+03  8.042552E+03  2.752388E+04 -1.099889E+04 -5.793061E-10 -3.921766E-11
        30  18  1.173875E+04  2.184087E+04  3.910108E+04 -1.498525E+04 -2.590792E-10  9.666019E-10
        30  19  3.058995E+03 -4.463363E+03  2.572151E+04 -1.446282E+04  1.953651E+02 -4.754393E+03
        30  20 -1.758744E+03 -1.824629E+04  2.293679E+04 -1.047508E+04  9.161683E+02  7.747846E+03
        30  21 -2.473733E+02 -2.882238E+04  2.987371E+04 -9.290078E+03  1.583440E+03  2.024987E+04
        30  22  3.257217E+03 -3.490962E+03  2.575633E+04 -1.213904E+04  1.960714E+02 -6.004458E+03
        30  23  1.329250E+03 -5.101937E+03  2.523036E+04 -1.073698E+04  9.168318E+02  6.586777E+03
        30  24  5.745735E+03 -3.490899E+03  3.448771E+04 -1.213759E+04  1.583958E+03  1.917803E+04
        30  25  3.455460E+03 -2.518545E+03  2.579117E+04 -9.815259E+03  1.967683E+02 -7.254526E+03
        30  26  4.417235E+03  8.042584E+03  2.752394E+04 -1.099889E+04  9.174962E+02  5.425684E+03
        30  27  1.173884E+04  2.184122E+04  3.910170E+04 -1.498523E+04  1.584485E+03  1.810615E+04
        31   1 -4.318319E+03 -3.217210E+04  3.625013E+04 -1.996133E+04 -2.044047E+03 -2.621323E+04
        31   2  1.702998E+04 -5.630149E+04  6.296018E+04  2.596148E+04 -2.057378E+03 -6.101875E+04
        31   3  1.161647E+05 -5.644947E+04  1.317822E+05  6.919629E+04 -6.392107E+02 -9.582217E+04
        31   4  3.572833E+03  1.212989E+03  4.237384E+04 -1.212207E+04 -2.045076E+03 -2.497680E+04
        31   5  2.795929E+04 -1.098089E+04  7.204944E+04 -1.074259E+04 -2.053117E+03 -6.216321E+04
        31   6  1.305347E+05  1.213109E+03  1.454874E+05 -1.205125E+04 -6.247140E+02 -9.934831E+04
        31   7  1.146415E+04  3.459929E+04  4.849755E+04 -4.282366E+03 -2.046073E+03 -2.374030E+04
        31   8  3.889354E+04  3.434457E+04  8.113932E+04 -4.744939E+04 -2.048721E+03 -6.330775E+04
        31   9  1.449292E+05  5.889294E+04  1.591960E+05 -9.330638E+04 -6.092954E+02 -1.028748E+05
        31  10 -4.318508E+03 -3.217284E+04  3.624883E+04 -1.996138E+04 -4.037925E-10  6.025962E-10
        31  11  1.702897E+04 -5.630549E+04  6.295318E+04  2.596138E+04 -5.349712E-11  7.263607E-10
        31  12  1.161622E+05 -5.645933E+04  1.317650E+05  6.919624E+04  5.298224E-10 -1.243192E-11
        31  13  3.572661E+03  1.212318E+03  4.237266E+04 -1.212211E+04 -1.054863E-09 -1.408474E-10
        31  14  2.795825E+04 -1.098504E+04  7.204217E+04 -1.074269E+04 -9.847080E-10  1.053668E-10
        31  15  1.305320E+05  1.202511E+03  1.454689E+05 -1.205130E+04  2.695000E-10  1.438187E-10
        31  16  1.146400E+04  3.459869E+04  4.849648E+04 -4.282405E+03  1.357977E-10 -5.697398E-10
        31  17  3.889246E+04  3.434027E+04  8.113178E+04 -4.744949E+04  3.869087E-10 -5.942525E-10
        31  18  1.449264E+05  5.888158E+04  1.591762E+05 -9.330643E+04  1.622134E-10  5.202582E-11
        31  19 -4.318319E+03 -3.217210E+04  3.625013E+04 -1.996133E+04  2.044047E+03  2.621323E+04
        31  20  1.702998E+04 -5.630149E+04  6.296018E+04  2.596148E+04  2.057378E+03  6.101875E+04
        31  21  1.161647E+05 -5.644947E+04  1.317822E+05  6.919629E+04  6.392107E+02  9.582217E+04
        31  22  3.572833E+03  1.212989E+03  4.237384E+04 -1.212207E+04  2.045076E+03  2.497680E+04
        31  23  2.795929E+04 -1.098089E+04  7.204944E+04 -1.074259E+04  2.053117E+03  6.216321E+04
        31  24  1.305347E+05  1.213109E+03  1.454874E+05 -1.205125E+04  6.247140E+02  9.934831E+04
        31  25  1.146415E+04  3.459929E+04  4.849755E+04 -4.282366E+03  2.046073E+03  2.374030E+04
        31  26  3.889354E+04  3.434457E+04  8.113932E+04 -4.744939E+04  2.048721E+03  6.330775E+04
        31  27  1.449292E+05  5.889294E+04  1.591960E+05 -9.330638E+04  6.092954E+02  1.028748E+05
        32   1 -1.116020E+06 -3.368446E+05 -1.932932E+05 -3.992610E+05 -8.125805E+04 -2.705843E+04
        32   2 -1.084115E+06 -2.101919E+05 -1.153058E+05 -3.994571E+05 -5.290864E+04 -9.558779E+03
        32   3 -1.083600E+06 -2.026954E+05 -8.927685E+04 -3.866807E+05 -2.199431E+04  1.113138E+03
        32   4 -8.608477E+05 -2.131474E+05 -1.185556E+05 -3.016072E+05 -7.641748E+04 -2.524511E+04
        32   5 -8.393356E+05 -1.102902E+05 -4.962670E+04 -3.244682E+05 -5.158158E+04 -9.061754E+03
        32   6 -8.484999E+05 -1.258673E+05 -2.985316E+04 -3.343615E+05 -2.418183E+04  2.926343E+02
        32   7 -6.056136E+05 -8.943414E+04 -4.382500E+04 -2.039139E+05 -7.157476E+04 -2.343044E+04
        32   8 -5.944993E+05 -1.038241E+04  1.604672E+04 -2.494518E+05 -5.025395E+04 -8.564472E+03
        32   9 -6.133461E+05 -4.903895E+04  2.956621E+04 -2.820259E+05 -2.637026E+04 -5.281085E+02
        32  10 -1.116027E+06 -3.368472E+05 -1.933070E+05 -3.992627E+05 -3.777434E-10  2.924276E-10
        32  11 -1.084118E+06 -2.101928E+05 -1.153113E+05 -3.994576E+05  1.053788E-09  1.335345E-09
        32  12 -1.083601E+06 -2.026955E+05 -8.927776E+04 -3.866807E+05  3.030792E-09  1.336704E-09
        32  13 -8.608542E+05 -2.131496E+05 -1.185678E+05 -3.016087E+05 -1.850069E-10  3.027601E-10
        32  14 -8.393384E+05 -1.102910E+05 -4.963186E+04 -3.244686E+05  2.069131E-09  1.202033E-09
        32  15 -8.485005E+05 -1.258675E+05 -2.985427E+04 -3.343615E+05  3.608033E-09  1.314480E-09
        32  16 -6.056192E+05 -8.943611E+04 -4.383567E+04 -2.039153E+05  1.268756E-09  4.928427E-10
        32  17 -5.945021E+05 -1.038317E+04  1.604183E+04 -2.494522E+05  2.770989E-09  1.045636E-09
        32  18 -6.133468E+05 -4.903914E+04  2.956491E+04 -2.820259E+05  2.477638E-09  1.349425E-09
        32  19 -1.116020E+06 -3.368446E+05 -1.932932E+05 -3.992610E+05  8.125805E+04  2.705843E+04
        32  20 -1.084115E+06 -2.101919E+05 -1.153058E+05 -3.994571E+05  5.290864E+04  9.558779E+03
        32  21 -1.083600E+06 -2.026954E+05 -8.927685E+04 -3.866807E+05  2.199431E+04 -1.113138E+03
        32  22 -8.608477E+05 -2.131474E+05 -1.185556E+05 -3.016072E+05  7.641748E+04  2.524511E+04
        32  23 -8.393356E+05 -1.102902E+05 -4.962670E+04 -3.244682E+05  5.158158E+04  9.061754E+03
        32  24 -8.484999E+05 -1.258673E+05 -2.985316E+04 -3.343615E+05  2.418183E+04 -2.926343E+02
        32  25 -6.056136E+05 -8.943414E+04 -4.382500E+04 -2.039139E+05  7.157476E+04  2.343044E+04
        32  26 -5.944993E+05 -1.038241E+04  1.604672E+04 -2.494518E+05  5.025395E+04  8.564472E+03
        32  27 -6.133461E+05 -4.903895E+04  2.956621E+04 -2.820259E+05  2.637026E+04  5.281085E+02
        33   1 -1.037217E+06 -2.129829E+05 -7.537606E+04 -3.827283E+05 -1.920152E+04  3.365894E+02
        33   2 -1.017166E+06 -1.855956E+05 -5.620603E+04 -3.698394E+05 -1.263812E+04  2.108094E+03
        33   3 -9.889046E+05 -1.824768E+05 -4.477082E+04 -3.693313E+05 -5.884217E+03  3.371698E+03
        33   4 -8.445201E+05 -1.380577E+05 -2.423425E+04 -3.275619E+05 -1.938647E+04  2.669549E+02
        33   5 -8.480135E+05 -1.214449E+05 -1.171229E+04 -3.230593E+05 -1.308338E+04  1.940987E+03
        33   6 -8.432447E+05 -1.290469E+05 -6.716841E+03 -3.309378E+05 -6.590069E+03  3.107036E+03
        33   7 -6.517867E+05 -6.312940E+04  2.690450E+04 -2.723797E+05 -1.957149E+04  1.972949E+02
        33   8 -6.788331E+05 -5.729223E+04  3.277909E+04 -2.762675E+05 -1.352876E+04  1.773829E+03
        33   9 -6.975643E+05 -7.561596E+04  3.133536E+04 -2.925363E+05 -7.296103E+03  2.842310E+03
        33  10 -1.037217E+06 -2.129830E+05 -7.537676E+04 -3.827283E+05  2.876839E-09  8.837158E-10
        33  11 -1.017166E+06 -1.855957E+05 -5.620634E+04 -3.698394E+05  8.225831E-10  2.803489E-10
        33  12 -9.889047E+05 -1.824769E+05 -4.477091E+04 -3.693313E+05  3.597701E-11 -1.597349E-10
        33  13 -8.445205E+05 -1.380578E+05 -2.423495E+04 -3.275619E+05  2.523560E-09  9.765049E-10
        33  14 -8.480137E+05 -1.214450E+05 -1.171261E+04 -3.230593E+05  8.042576E-10  3.585297E-10
        33  15 -8.432448E+05 -1.290469E+05 -6.716941E+03 -3.309378E+05 -8.994241E-11  2.053784E-11
        33  16 -6.517871E+05 -6.312950E+04  2.690378E+04 -2.723797E+05  1.058977E-09  9.768956E-10
        33  17 -6.788333E+05 -5.729229E+04  3.277874E+04 -2.762675E+05  1.681121E-10  2.473313E-10
        33  18 -6.975643E+05 -7.561598E+04  3.133524E+04 -2.925363E+05 -8.890693E-10 -3.738195E-11
        33  19 -1.037217E+06 -2.129829E+05 -7.537606E+04 -3.827283E+05  1.920152E+04 -3.365894E+02
        33  20 -1.017166E+06 -1.855956E+05 -5.620603E+04 -3.698394E+05  1.263812E+04 -2.108094E+03
        33  21 -9.889046E+05 -1.824768E+05 -4.477082E+04 -3.693313E+05  5.884217E+03 -3.371698E+03
        33  22 -8.445201E+05 -1.380577E+05 -2.423425E+04 -3.275619E+05  1.938647E+04 -2.669549E+02
        33  23 -8.480135E+05 -1.214449E+05 -1.171229E+04 -3.230593E+05  1.308338E+04 -1.940987E+03
        33  24 -8.432447E+05 -1.290469E+05 -6.716841E+03 -3.309378E+05  6.590069E+03 -3.107036E+03
        33  25 -6.517867E+05 -6.312940E+04  2.690450E+04 -2.723797E+05  1.957149E+04 -1.972949E+02
        33  26 -6.788331E+05 -5.729223E+04  3.277909E+04 -2.762675E+05  1.352876E+04 -1.773829E+03
        33  27 -6.975643E+05 -7.561596E+04  3.133536E+04 -2.925363E+05  7.296103E+03 -2.842310E+03
        34   1 -9.542472E+05 -1.723671E+05 -3.444416E+04 -3.608704E+05 -4.790298E+03  2.944723E+03
        34   2 -9.352946E+05 -1.549593E+05 -2.536110E+04 -3.463858E+05 -2.965085E+03  2.363236E+03
        34   3 -9.035155E+05 -1.521429E+05 -1.763698E+04 -3.470583E+05 -1.124180E+03  1.739350E+03
        34   4 -8.427087E+05 -1.303268E+05 -5.231128E+03 -3.302719E+05 -5.352595E+03  2.733923E+03
        34   5 -8.490584E+05 -1.225738E+05 -2.737452E+03 -3.228650E+05 -3.549016E+03  2.144390E+03
        34   6 -8.425778E+05 -1.294076E+05 -1.585334E+03 -3.306155E+05 -1.729805E+03  1.512438E+03
        34   7 -7.311584E+05 -8.828583E+04  2.398076E+04 -2.996684E+05 -5.915001E+03  2.523082E+03
        34   8 -7.628149E+05 -9.018781E+04  1.988556E+04 -2.993413E+05 -4.133036E+03  1.925510E+03
        34   9 -7.816363E+05 -1.066721E+05  1.446605E+04 -3.141712E+05 -2.335497E+03  1.285501E+03
        34  10 -9.542472E+05 -1.723671E+05 -3.444422E+04 -3.608704E+05 -2.120621E-10 -1.937456E-10
        34  11 -9.352946E+05 -1.549594E+05 -2.536112E+04 -3.463858E+05  1.894954E-10  4.426340E-10
        34  12 -9.035155E+05 -1.521429E+05 -1.763699E+04 -3.470583E+05 -2.237514E-11  1.033866E-10
        34  13 -8.427087E+05 -1.303268E+05 -5.231196E+03 -3.302718E+05 -6.891999E-10 -3.956305E-11
        34  14 -8.490584E+05 -1.225738E+05 -2.737484E+03 -3.228650E+05 -1.815670E-11  1.916808E-10
        34  15 -8.425778E+05 -1.294076E+05 -1.585344E+03 -3.306155E+05 -1.075696E-10 -1.194460E-10
        34  16 -7.311585E+05 -8.828585E+04  2.398068E+04 -2.996684E+05 -8.113654E-11  1.649193E-10
        34  17 -7.628149E+05 -9.018782E+04  1.988552E+04 -2.993413E+05 -1.245859E-09  2.392896E-10
        34  18 -7.816363E+05 -1.066721E+05  1.446604E+04 -3.141712E+05 -7.054410E-10  1.268919E-10
        34  19 -9.542472E+05 -1.723671E+05 -3.444416E+04 -3.608704E+05  4.790298E+03 -2.944723E+03
        34  20 -9.352946E+05 -1.549593E+05 -2.536110E+04 -3.463858E+05  2.965085E+03 -2.363236E+03
        34  21 -9.035155E+05 -1.521429E+05 -1.763698E+04 -3.470583E+05  1.124180E+03 -1.739350E+03
        34  22 -8.427087E+05 -1.303268E+05 -5.231128E+03 -3.302719E+05  5.352595E+03 -2.733923E+03
        34  23 -8.490584E+05 -1.225738E+05 -2.737452E+03 -3.228650E+05  3.549016E+03 -2.144390E+03
        34  24 -8.425778E+05 -1.294076E+05 -1.585334E+03 -3.306155E+05  1.729805E+03 -1.512438E+03
        34  25 -7.311584E+05 -8.828583E+04  2.398076E+04 -2.996684E+05  5.915001E+03 -2.523082E+03
        34  26 -7.628149E+05 -9.018781E+04  1.988556E+04 -2.993413E+05  4.133036E+03 -1.925510E+03
        34  27 -7.816363E+05 -1.066721E+05  1.446605E+04 -3.141712E+05  2.335497E+03 -1.285501E+03
        35   1 -8.697980E+05 -1.397804E+05 -8.317180E+03 -3.380125E+05 -6.471364E+02  1.143955E+03
        35   2 -8.509067E+05 -1.233157E+05 -1.246303E+03 -3.232925E+05  1.875039E+02  1.390755E+02
        35   3 -8.185993E+05 -1.205090E+05  5.489177E+03 -3.240641E+05  1.023205E+03 -8.686597E+02
        35   4 -8.424951E+05 -1.295451E+05 -1.250806E+03 -3.305605E+05 -1.242879E+03  9.207669E+02
        35   5 -8.491974E+05 -1.226769E+05 -7.985146E+02 -3.228295E+05 -4.097033E+02 -8.466087E+01
        35   6 -8.424840E+05 -1.294663E+05 -6.803855E+02 -3.305901E+05  4.245104E+02 -1.092945E+03
        35   7 -8.151914E+05 -1.193098E+05  5.815521E+03 -3.231083E+05 -1.838651E+03  6.975673E+02
        35   8 -8.474882E+05 -1.220380E+05 -3.507278E+02 -3.223664E+05 -1.006909E+03 -3.083968E+02
        35   9 -8.663680E+05 -1.384235E+05 -6.849917E+03 -3.371158E+05 -1.741522E+02 -1.317218E+03
        35  10 -8.697980E+05 -1.397804E+05 -8.317183E+03 -3.380125E+05  7.668939E-11 -2.612694E-10
        35  11 -8.509067E+05 -1.233157E+05 -1.246303E+03 -3.232925E+05 -5.526176E-12  4.420292E-10
        35  12 -8.185993E+05 -1.205090E+05  5.489174E+03 -3.240641E+05 -5.248851E-11 -5.200074E-10
        35  13 -8.424951E+05 -1.295451E+05 -1.250810E+03 -3.305605E+05 -1.666440E-10 -3.456033E-10
        35  14 -8.491974E+05 -1.226769E+05 -7.985149E+02 -3.228295E+05  7.935828E-10 -9.675910E-11
        35  15 -8.424840E+05 -1.294663E+05 -6.803880E+02 -3.305901E+05 -3.561563E-10 -1.431442E-10
        35  16 -8.151914E+05 -1.193098E+05  5.815514E+03 -3.231083E+05 -2.838770E-10  6.831419E-11
        35  17 -8.474882E+05 -1.220380E+05 -3.507298E+02 -3.223664E+05 -7.308593E-10  1.863580E-10
        35  18 -8.663680E+05 -1.384235E+05 -6.849920E+03 -3.371158E+05 -7.347825E-10  2.838845E-10
        35  19 -8.697980E+05 -1.397804E+05 -8.317180E+03 -3.380125E+05  6.471364E+02 -1.143955E+03
        35  20 -8.509067E+05 -1.233157E+05 -1.246303E+03 -3.232925E+05 -1.875039E+02 -1.390755E+02
        35  21 -8.185993E+05 -1.205090E+05  5.489177E+03 -3.240641E+05 -1.023205E+03  8.686597E+02
        35  22 -8.424951E+05 -1.295451E+05 -1.250806E+03 -3.305605E+05  1.242879E+03 -9.207669E+02
        35  23 -8.491974E+05 -1.226769E+05 -7.985146E+02 -3.228295E+05  4.097033E+02  8.466087E+01
        35  24 -8.424840E+05 -1.294663E+05 -6.803855E+02 -3.305901E+05 -4.245104E+02  1.092945E+03
        35  25 -8.151914E+05 -1.193098E+05  5.815521E+03 -3.231083E+05  1.838651E+03 -6.975673E+02
        35  26 -8.474882E+05 -1.220380E+05 -3.507278E+02 -3.223664E+05  1.006909E+03  3.083968E+02
        35  27 -8.663680E+05 -1.384235E+05 -6.849917E+03 -3.371158E+05  1.741522E+02  1.317218E+03
        36   1 -7.850248E+05 -1.078862E+05  1.446057E+04 -3.149456E+05  1.390250E+03 -1.501089E+03
        36   2 -7.662674E+05 -9.160067E+04  2.078817E+04 -3.002798E+05  2.295280E+03 -2.477770E+03
        36   3 -7.341886E+05 -8.891929E+04  2.672170E+04 -3.009955E+05  3.196898E+03 -3.444538E+03
        36   4 -8.425043E+05 -1.294428E+05 -7.066467E+02 -3.305704E+05  7.920036E+02 -1.725227E+03
        36   5 -8.491729E+05 -1.226989E+05 -9.530086E+02 -3.228576E+05  1.702047E+03 -2.700097E+03
        36   6 -8.425217E+05 -1.295605E+05 -1.597470E+03 -3.305267E+05  2.608654E+03 -3.665057E+03
        36   7 -8.999811E+05 -1.509994E+05 -1.587430E+04 -3.461942E+05  1.938117E+02 -1.949344E+03
        36   8 -9.320723E+05 -1.537970E+05 -2.269496E+04 -3.454327E+05  1.108896E+03 -2.922392E+03
        36   9 -9.508441E+05 -1.702013E+05 -2.991783E+04 -3.600535E+05  2.020520E+03 -3.885535E+03
        36  10 -7.850248E+05 -1.078862E+05  1.446056E+04 -3.149456E+05 -1.104073E-09 -6.506037E-10
        36  11 -7.662674E+05 -9.160068E+04  2.078815E+04 -3.002798E+05 -1.395656E-09 -6.152716E-10
        36  12 -7.341887E+05 -8.891931E+04  2.672166E+04 -3.009955E+05 -2.699489E-09 -1.263278E-09
        36  13 -8.425043E+05 -1.294428E+05 -7.066535E+02 -3.305704E+05 -5.139359E-10 -1.464795E-10
        36  14 -8.491729E+05 -1.226989E+05 -9.530277E+02 -3.228576E+05 -2.916827E-09 -6.758463E-10
        36  15 -8.425217E+05 -1.295605E+05 -1.597508E+03 -3.305267E+05 -3.165081E-09 -1.025981E-09
        36  16 -8.999811E+05 -1.509994E+05 -1.587431E+04 -3.461942E+05 -1.280389E-09  4.649643E-10
        36  17 -9.320723E+05 -1.537970E+05 -2.269498E+04 -3.454327E+05 -3.105718E-09 -1.874928E-10
        36  18 -9.508441E+05 -1.702013E+05 -2.991787E+04 -3.600535E+05 -3.282880E-09 -1.220265E-09
        36  19 -7.850248E+05 -1.078862E+05  1.446057E+04 -3.149456E+05 -1.390250E+03  1.501089E+03
        36  20 -7.662674E+05 -9.160067E+04  2.078817E+04 -3.002798E+05 -2.295280E+03  2.477770E+03
        36  21 -7.341886E+05 -8.891929E+04  2.672170E+04 -3.009955E+05 -3.196898E+03  3.444538E+03
        36  22 -8.425043E+05 -1.294428E+05 -7.066467E+02 -3.305704E+05 -7.920036E+02  1.725227E+03
        36  23 -8.491729E+05 -1.226989E+05 -9.530086E+02 -3.228576E+05 -1.702047E+03  2.700097E+03
        36  24 -8.425217E+05 -1.295605E+05 -1.597470E+03 -3.305267E+05 -2.608654E+03  3.665057E+03
        36  25 -8.999811E+05 -1.509994E+05 -1.587430E+04 -3.461942E+05 -1.938117E+02  1.949344E+03
        36  26 -9.320723E+05 -1.537970E+05 -2.269496E+04 -3.454327E+05 -1.108896E+03  2.922392E+03
        36  27 -9.508441E+05 -1.702013E+05 -2.991783E+04 -3.600535E+05 -2.020520E+03  3.885535E+03
        37   1 -7.011082E+05 -7.640255E+04  3.512934E+04 -2.921963E+05  3.758978E+03 -3.999286E+03
        37   2 -6.826291E+05 -6.014173E+04  4.002797E+04 -2.775761E+05  5.979251E+03 -4.457913E+03
        37   3 -6.517416E+05 -5.858004E+04  4.318709E+04 -2.777285E+05  8.178560E+03 -4.859174E+03
        37   4 -8.426641E+05 -1.293458E+05 -2.054184E+03 -3.305647E+05  3.159547E+03 -4.224059E+03
        37   5 -8.489521E+05 -1.226037E+05 -3.600418E+03 -3.229500E+05  5.408889E+03 -4.671904E+03
        37   6 -8.428383E+05 -1.305667E+05 -6.909511E+03 -3.301079E+05  7.637203E+03 -5.062402E+03
        37   7 -9.841990E+05 -1.822872E+05 -3.923896E+04 -3.689248E+05  2.560272E+03 -4.448774E+03
        37   8 -1.015248E+06 -1.850638E+05 -4.723100E+04 -3.683128E+05  4.838697E+03 -4.885831E+03
        37   9 -1.033901E+06 -2.025515E+05 -5.700947E+04 -3.824730E+05  7.096026E+03 -5.265562E+03
        37  10 -7.011082E+05 -7.640257E+04  3.512928E+04 -2.921962E+05 -3.165474E-09 -1.289478E-09
        37  11 -6.826292E+05 -6.014176E+04  4.002787E+04 -2.775761E+05 -5.726825E-10 -5.334882E-10
        37  12 -6.517417E+05 -5.858008E+04  4.318692E+04 -2.777285E+05 -4.589426E-10 -1.996180E-10
        37  13 -8.426642E+05 -1.293458E+05 -2.054236E+03 -3.305647E+05 -2.850247E-09 -1.174445E-09
        37  14 -8.489521E+05 -1.226038E+05 -3.600514E+03 -3.229500E+05 -1.949178E-09 -2.761298E-10
        37  15 -8.428384E+05 -1.305668E+05 -6.909669E+03 -3.301079E+05 -1.833849E-09 -4.518833E-10
        37  16 -9.841991E+05 -1.822872E+05 -3.923901E+04 -3.689248E+05 -1.580787E-09 -1.144788E-09
        37  17 -1.015248E+06 -1.850639E+05 -4.723109E+04 -3.683128E+05 -2.395628E-10 -1.555747E-10
        37  18 -1.033901E+06 -2.025515E+05 -5.700962E+04 -3.824729E+05 -7.809655E-10 -5.843007E-10
        37  19 -7.011082E+05 -7.640255E+04  3.512934E+04 -2.921963E+05 -3.758978E+03  3.999286E+03
        37  20 -6.826291E+05 -6.014173E+04  4.002797E+04 -2.775761E+05 -5.979251E+03  4.457913E+03
        37  21 -6.517416E+05 -5.858004E+04  4.318709E+04 -2.777285E+05 -8.178560E+03  4.859174E+03
        37  22 -8.426641E+05 -1.293458E+05 -2.054184E+03 -3.305647E+05 -3.159547E+03  4.224059E+03
        37  23 -8.489521E+05 -1.226037E+05 -3.600418E+03 -3.229500E+05 -5.408889E+03  4.671904E+03
        37  24 -8.428383E+05 -1.305667E+05 -6.909511E+03 -3.301079E+05 -7.637203E+03  5.062402E+03
        37  25 -9.841990E+05 -1.822872E+05 -3.923896E+04 -3.689248E+05 -2.560272E+03  4.448774E+03
        37  26 -1.015248E+06 -1.850638E+05 -4.723100E+04 -3.683128E+05 -4.838697E+03  4.885831E+03
        37  27 -1.033901E+06 -2.025515E+05 -5.700947E+04 -3.824730E+05 -7.096026E+03  5.265562E+03
        38   1 -6.188495E+05 -4.612894E+04  4.982494E+04 -2.713989E+05  9.904418E+03 -5.048994E+03
        38   2 -6.006039E+05 -2.752275E+04  4.943904E+04 -2.549599E+05  1.801847E+04 -3.227639E+03
        38   3 -5.760136E+05 -3.621232E+04  3.936165E+04 -2.495252E+05  2.589344E+04 -7.672127E+02
        38   4 -8.435649E+05 -1.288556E+05 -8.878626E+03 -3.309700E+05  9.184133E+03 -5.319423E+03
        38   5 -8.475491E+05 -1.211339E+05 -1.549570E+04 -3.232322E+05  1.762498E+04 -3.375653E+03
        38   6 -8.452560E+05 -1.407769E+05 -3.206646E+04 -3.264989E+05  2.582640E+04 -7.928826E+02
        38   7 -1.068231E+06 -2.115798E+05 -6.758644E+04 -3.905219E+05  8.464135E+03 -5.589749E+03
        38   8 -1.094435E+06 -2.147408E+05 -8.043554E+04 -3.914797E+05  1.723167E+04 -3.523600E+03
        38   9 -1.114427E+06 -2.453354E+05 -1.035006E+05 -4.034416E+05  2.575938E+04 -8.185405E+02
        38  10 -6.188496E+05 -4.612900E+04  4.982471E+04 -2.713988E+05 -8.143221E-10 -2.672522E-10
        38  11 -6.006043E+05 -2.752285E+04  4.943841E+04 -2.549599E+05 -8.561235E-10 -2.022829E-11
        38  12 -5.760143E+05 -3.621250E+04  3.936039E+04 -2.495252E+05 -1.304048E-09  3.694119E-10
        38  13 -8.435650E+05 -1.288557E+05 -8.878838E+03 -3.309700E+05 -1.416686E-09 -4.257827E-10
        38  14 -8.475494E+05 -1.211340E+05 -1.549630E+04 -3.232321E+05 -1.382041E-09 -4.012198E-10
        38  15 -8.452568E+05 -1.407771E+05 -3.206771E+04 -3.264988E+05 -7.609704E-10  2.270724E-10
        38  16 -1.068231E+06 -2.115798E+05 -6.758664E+04 -3.905219E+05 -3.485744E-10 -6.365214E-10
        38  17 -1.094435E+06 -2.147409E+05 -8.043612E+04 -3.914796E+05  4.298600E-10 -4.595438E-10
        38  18 -1.114428E+06 -2.453356E+05 -1.035019E+05 -4.034416E+05  1.504750E-10 -1.092225E-11
        38  19 -6.188495E+05 -4.612894E+04  4.982494E+04 -2.713989E+05 -9.904418E+03  5.048994E+03
        38  20 -6.006039E+05 -2.752275E+04  4.943904E+04 -2.549599E+05 -1.801847E+04  3.227639E+03
        38  21 -5.760136E+05 -3.621232E+04  3.936165E+04 -2.495252E+05 -2.589344E+04  7.672127E+02
        38  22 -8.435649E+05 -1.288556E+05 -8.878626E+03 -3.309700E+05 -9.184133E+03  5.319423E+03
        38  23 -8.475491E+05 -1.211339E+05 -1.549570E+04 -3.232322E+05 -1.762498E+04  3.375653E+03
        38  24 -8.452560E+05 -1.407769E+05 -3.206646E+04 -3.264989E+05 -2.582640E+04  7.928826E+02
        38  25 -1.068231E+06 -2.115798E+05 -6.758644E+04 -3.905219E+05 -8.464135E+03  5.589749E+03
        38  26 -1.094435E+06 -2.147408E+05 -8.043554E+04 -3.914797E+05 -1.723167E+04  3.523600E+03
        38  27 -1.114427E+06 -2.453354E+05 -1.035006E+05 -4.034416E+05 -2.575938E+04  8.185405E+02
        39   1 -5.368030E+05 -2.196030E+04  3.978199E+04 -2.654485E+05  3.463111E+04  4.454974E+02
        39   2 -5.184347E+05  2.356107E+04  1.958914E+04 -2.274568E+05  6.634477E+04  1.157504E+04
        39   3 -5.444638E+05 -8.199959E+04 -6.213506E+04 -1.668840E+05  9.484691E+04  3.125210E+04
        39   4 -8.505183E+05 -1.246525E+05 -3.950335E+04 -3.355023E+05  3.205763E+04 -5.207318E+02
        39   5 -8.360597E+05 -1.063764E+05 -6.567082E+04 -3.251013E+05  6.816738E+04  1.225831E+04
        39   6 -8.669000E+05 -2.401031E+05 -1.568815E+05 -2.921137E+05  1.010641E+05  3.358349E+04
        39   7 -1.164140E+06 -2.273445E+05 -1.187967E+05 -4.055269E+05  2.948556E+04 -1.486588E+03
        39   8 -1.153586E+06 -2.363024E+05 -1.509396E+05 -4.226987E+05  6.998895E+04  1.294110E+04
        39   9 -1.189230E+06 -3.981765E+05 -2.516372E+05 -4.172767E+05  1.072778E+05  3.591261E+04
        39  10 -5.368043E+05 -2.196062E+04  3.977973E+04 -2.654485E+05  4.605592E-10  2.931047E-10
        39  11 -5.184395E+05  2.355974E+04  1.958061E+04 -2.274574E+05  1.656652E-09  4.697414E-10
        39  12 -5.444738E+05 -8.200306E+04 -6.215382E+04 -1.668864E+05  5.384487E-10  8.944191E-11
        39  13 -8.505194E+05 -1.246528E+05 -3.950528E+04 -3.355022E+05  8.672935E-10  8.057772E-10
        39  14 -8.360647E+05 -1.063778E+05 -6.567985E+04 -3.251020E+05  1.143311E-09  3.907017E-10
        39  15 -8.669113E+05 -2.401071E+05 -1.569028E+05 -2.921164E+05  9.137203E-10 -5.878328E-11
        39  16 -1.164141E+06 -2.273447E+05 -1.187983E+05 -4.055269E+05  8.658950E-10  2.295008E-10
        39  17 -1.153591E+06 -2.363039E+05 -1.509492E+05 -4.226995E+05  1.950105E-09  8.377072E-10
        39  18 -1.189243E+06 -3.981810E+05 -2.516613E+05 -4.172798E+05  7.113416E-10 -2.836787E-10
        39  19 -5.368030E+05 -2.196030E+04  3.978199E+04 -2.654485E+05 -3.463111E+04 -4.454974E+02
        39  20 -5.184347E+05  2.356107E+04  1.958914E+04 -2.274568E+05 -6.634477E+04 -1.157504E+04
        39  21 -5.444638E+05 -8.199959E+04 -6.213506E+04 -1.668840E+05 -9.484691E+04 -3.125210E+04
        39  22 -8.505183E+05 -1.246525E+05 -3.950335E+04 -3.355023E+05 -3.205763E+04  5.207318E+02
        39  23 -8.360597E+05 -1.063764E+05 -6.567082E+04 -3.251013E+05 -6.816738E+04 -1.225831E+04
        39  24 -8.669000E+05 -2.401031E+05 -1.568815E+05 -2.921137E+05 -1.010641E+05 -3.358349E+04
        39  25 -1.164140E+06 -2.273445E+05 -1.187967E+05 -4.055269E+05 -2.948556E+04  1.486588E+03
        39  26 -1.153586E+06 -2.363024E+05 -1.509396E+05 -4.226987E+05 -6.998895E+04 -1.294110E+04
        39  27 -1.189230E+06 -3.981765E+05 -2.516372E+05 -4.172767E+05 -1.072778E+05 -3.591261E+04
        40   1  3.141187E+04 -1.999915E+05  2.976620E+04 -1.053344E+02  4.339357E+03  2.990550E+02
        40   2  3.129364E+04 -2.004938E+05  2.935347E+04  4.127022E+01  4.316483E+03  6.294073E+02
        40   3  3.096005E+04 -2.010787E+05  2.867482E+04 -1.853822E+02  4.279184E+03  9.597482E+02
        40   4  6.696324E+00 -3.268234E+05 -3.913748E+02 -8.290859E+01  4.339412E+03  3.075518E+02
        40   5  2.287721E+01 -3.267815E+05 -6.761585E+02  1.036600E+02  4.316532E+03  6.458048E+02
        40   6 -1.776995E+02 -3.268235E+05 -1.232379E+03 -8.303254E+01  4.279225E+03  9.840467E+02
        40   7 -3.139964E+04 -4.536406E+05 -3.055007E+04 -6.048528E+01  4.339466E+03  3.160468E+02
        40   8 -3.124903E+04 -4.530545E+05 -3.070690E+04  1.660393E+02  4.316580E+03  6.621989E+02
        40   9 -3.131659E+04 -4.525537E+05 -3.114069E+04  1.929884E+01  4.279266E+03  1.008340E+03
        40  10  3.141185E+04 -1.999915E+05  2.976616E+04 -1.053355E+02 -6.348574E-10  6.627057E-09
        40  11  3.129362E+04 -2.004938E+05  2.935343E+04  4.126803E+01 -1.175944E-09 -9.224829E-10
        40  12  3.096003E+04 -2.010787E+05  2.867479E+04 -1.853855E+02 -1.300566E-09 -8.474862E-09
        40  13  6.676081E+00 -3.268234E+05 -3.914104E+02 -8.290966E+01 -4.344265E-10 -2.267325E-13
        40  14  2.285709E+01 -3.267815E+05 -6.761943E+02  1.036577E+02 -1.386619E-09 -3.229103E-10
        40  15 -1.777194E+02 -3.268235E+05 -1.232415E+03 -8.303593E+01 -1.591997E-09  4.431395E-12
        40  16 -3.139966E+04 -4.536406E+05 -3.055011E+04 -6.048639E+01 -2.358974E-10 -7.090590E-09
        40  17 -3.124905E+04 -4.530545E+05 -3.070694E+04  1.660369E+02 -1.290803E-09 -1.069780E-10
        40  18 -3.131661E+04 -4.525537E+05 -3.114072E+04  1.929536E+01 -7.506214E-10  7.884419E-09
        40  19  3.141187E+04 -1.999915E+05  2.976620E+04 -1.053344E+02 -4.339357E+03 -2.990550E+02
        40  20  3.129364E+04 -2.004938E+05  2.935347E+04  4.127022E+01 -4.316483E+03 -6.294073E+02
        40  21  3.096005E+04 -2.010787E+05  2.867482E+04 -1.853822E+02 -4.279184E+03 -9.597482E+02
        40  22  6.696324E+00 -3.268234E+05 -3.913748E+02 -8.290859E+01 -4.339412E+03 -3.075518E+02
        40  23  2.287721E+01 -3.267815E+05 -6.761585E+02  1.036600E+02 -4.316532E+03 -6.458048E+02
        40  24 -1.776995E+02 -3.268235E+05 -1.232379E+03 -8.303254E+01 -4.279225E+03 -9.840467E+02
        40  25 -3.139964E+04 -4.536406E+05 -3.055007E+04 -6.048528E+01 -4.339466E+03 -3.160468E+02
        40  26 -3.124903E+04 -4.530545E+05 -3.070690E+04  1.660393E+02 -4.316580E+03 -6.621989E+02
        40  27 -3.131659E+04 -4.525537E+05 -3.114069E+04  1.929884E+01 -4.279266E+03 -1.008340E+03
        41   1  3.104217E+04 -2.019757E+05  2.813388E+04  9.644217E+01  4.287809E+03  1.260267E+03
        41   2  3.101630E+04 -2.023197E+05  2.687789E+04 -8.083500E+01  4.247465E+03  2.527891E+03
        41   3  2.878806E+04 -2.033658E+05  2.424869E+04 -7.395337E+02  4.027136E+03  3.795345E+03
        41   4  9.463015E+01 -3.269646E+05 -1.581020E+03 -1.064927E+02  4.287887E+03  1.232177E+03
        41   5  2.410726E+02 -3.266051E+05 -2.675361E+03  1.334023E+02  4.247465E+03  2.598888E+03
        41   6 -1.832316E+03 -3.269651E+05 -5.211926E+03 -1.081307E+02  4.027043E+03  3.965431E+03
        41   7 -3.085404E+04 -4.519392E+05 -3.129702E+04 -3.093838E+02  4.287965E+03  1.204092E+03
        41   8 -3.053527E+04 -4.508763E+05 -3.222969E+04  3.475993E+02  4.247464E+03  2.669872E+03
        41   9 -3.245380E+04 -4.505503E+05 -3.467361E+04  5.231491E+02  4.026950E+03  4.135483E+03
        41  10  3.104215E+04 -2.019757E+05  2.813385E+04  9.643782E+01 -1.299047E-09 -3.214888E-09
        41  11  3.101628E+04 -2.023197E+05  2.687784E+04 -8.084365E+01 -8.501289E-12 -5.657020E-09
        41  12  2.878804E+04 -2.033658E+05  2.424863E+04 -7.395460E+02  3.184333E-10 -5.977877E-09
        41  13  9.461001E+01 -3.269646E+05 -1.581058E+03 -1.064969E+02  3.776429E-12  1.637419E-11
        41  14  2.410514E+02 -3.266051E+05 -2.675408E+03  1.333934E+02  3.207452E-09 -3.749987E-10
        41  15 -1.832338E+03 -3.269651E+05 -5.211986E+03 -1.081436E+02  4.876003E-09 -7.914415E-11
        41  16 -3.085406E+04 -4.519392E+05 -3.129706E+04 -3.093880E+02 -8.088889E-10  2.590522E-09
        41  17 -3.053529E+04 -4.508763E+05 -3.222974E+04  3.475902E+02 -5.035736E-10  4.279215E-09
        41  18 -3.245382E+04 -4.505503E+05 -3.467367E+04  5.231357E+02 -7.486948E-10  5.260634E-09
        41  19  3.104217E+04 -2.019757E+05  2.813388E+04  9.644217E+01 -4.287809E+03 -1.260267E+03
        41  20  3.101630E+04 -2.023197E+05  2.687789E+04 -8.083500E+01 -4.247465E+03 -2.527891E+03
        41  21  2.878806E+04 -2.033658E+05  2.424869E+04 -7.395337E+02 -4.027136E+03 -3.795345E+03
        41  22  9.463015E+01 -3.269646E+05 -1.581020E+03 -1.064927E+02 -4.287887E+03 -1.232177E+03
        41  23  2.410726E+02 -3.266051E+05 -2.675361E+03  1.334023E+02 -4.247465E+03 -2.598888E+03
        41  24 -1.832316E+03 -3.269651E+05 -5.211926E+03 -1.081307E+02 -4.027043E+03 -3.965431E+03
        41  25 -3.085404E+04 -4.519392E+05 -3.129702E+04 -3.093838E+02 -4.287965E+03 -1.204092E+03
        41  26 -3.053527E+04 -4.508763E+05 -3.222969E+04  3.475993E+02 -4.247464E+03 -2.669872E+03
        41  27 -3.245380E+04 -4.505503E+05 -3.467361E+04  5.231491E+02 -4.026950E+03 -4.135483E+03
        42   1  3.135060E+04 -2.055225E+05  2.270162E+04  2.349546E+03  4.369266E+03  5.573645E+03
        42   2  3.252242E+04 -2.033148E+05  1.861509E+04 -1.778868E+03  4.168512E+03  9.671098E+03
        42   3  1.149603E+04 -2.071784E+05  6.313394E+03 -6.577283E+03  1.313191E+03  1.376568E+04
        42   4  9.899669E+02 -3.282104E+05 -6.406157E+03 -1.429003E+02  4.369877E+03  4.949177E+03
        42   5  2.375804E+03 -3.250485E+05 -1.032667E+04  1.820746E+02  4.167765E+03  1.051067E+04
        42   6 -1.869321E+04 -3.282135E+05 -2.348051E+04 -1.630637E+02  1.310914E+03  1.606925E+04
        42   7 -2.937173E+04 -4.508844E+05 -3.551498E+04 -2.634848E+03  4.370493E+03  4.324832E+03
        42   8 -2.777187E+04 -4.467687E+05 -3.926946E+04  2.142634E+03  4.167024E+03  1.135007E+04
        42   9 -4.888338E+04 -4.492351E+05 -5.327546E+04  6.249906E+03  1.308684E+03  1.837238E+04
        42  10  3.135057E+04 -2.055225E+05  2.270153E+04  2.349526E+03 -3.365334E-10  4.252860E-09
        42  11  3.252238E+04 -2.033149E+05  1.861488E+04 -1.778901E+03 -1.552271E-09  4.231782E-09
        42  12  1.149597E+04 -2.071786E+05  6.313035E+03 -6.577297E+03 -6.250953E-10  1.538029E-09
        42  13  9.899399E+02 -3.282104E+05 -6.406239E+03 -1.429177E+02  3.751174E-09 -3.756926E-11
        42  14  2.375755E+03 -3.250487E+05 -1.032691E+04  1.820394E+02  1.224418E-09 -5.817860E-10
        42  15 -1.869328E+04 -3.282138E+05 -2.348100E+04 -1.630806E+02  4.968723E-10 -9.765923E-11
        42  16 -2.937175E+04 -4.508844E+05 -3.551505E+04 -2.634863E+03 -9.129764E-10 -5.000213E-09
        42  17 -2.777192E+04 -4.467688E+05 -3.926974E+04  2.142596E+03 -1.197029E-09 -5.847793E-09
        42  18 -4.888347E+04 -4.492355E+05 -5.327609E+04  6.249887E+03 -5.566218E-10 -2.401496E-09
        42  19  3.135060E+04 -2.055225E+05  2.270162E+04  2.349546E+03 -4.369266E+03 -5.573645E+03
        42  20  3.252242E+04 -2.033148E+05  1.861509E+04 -1.778868E+03 -4.168512E+03 -9.671098E+03
        42  21  1.149603E+04 -2.071784E+05  6.313394E+03 -6.577283E+03 -1.313191E+03 -1.376568E+04
        42  22  9.899669E+02 -3.282104E+05 -6.406157E+03 -1.429003E+02 -4.369877E+03 -4.949177E+03
        42  23  2.375804E+03 -3.250485E+05 -1.032667E+04  1.820746E+02 -4.167765E+03 -1.051067E+04
        42  24 -1.869321E+04 -3.282135E+05 -2.348051E+04 -1.630637E+02 -1.310914E+03 -1.606925E+04
        42  25 -2.937173E+04 -4.508844E+05 -3.551498E+04 -2.634848E+03 -4.370493E+03 -4.324832E+03
        42  26 -2.777187E+04 -4.467687E+05 -3.926946E+04  2.142634E+03 -4.167024E+03 -1.135007E+04
        42  27 -4.888338E+04 -4.492351E+05 -5.327546E+04  6.249906E+03 -1.308684E+03 -1.837238E+04
        43   1  2.374854E+04  2.502689E+05  1.353847E+04 -2.588623E+01  8.308355E+03 -1.622737E+02
        43   2  2.377377E+04  2.502591E+05  1.371879E+04 -1.087652E+01  8.277223E+03 -4.030756E+02
        43   3  2.385803E+04  2.502960E+05  1.407078E+04  2.620742E+00  8.208407E+03 -6.438873E+02
        43   4 -2.945640E+00  1.448531E+05  1.723939E+02 -3.371801E-01  8.308501E+03 -1.326889E+02
        43   5  1.111778E+01  1.448376E+05  3.025910E+02  4.229019E-01  8.277356E+03 -2.829945E+02
        43   6  6.851600E+01  1.448531E+05  5.416461E+02 -3.296863E-01  8.208525E+03 -4.333085E+02
        43   7 -2.375488E+04  3.944875E+04 -1.319372E+04  2.520762E+01  8.308646E+03 -1.031089E+02
        43   8 -2.375199E+04  3.942753E+04 -1.311365E+04  1.172064E+01  8.277490E+03 -1.629328E+02
        43   9 -2.372146E+04  3.942160E+04 -1.298753E+04 -3.279221E+00  8.208642E+03 -2.227637E+02
        43  10  2.374847E+04  2.502689E+05  1.353834E+04 -2.588515E+01 -2.322535E-09  3.938409E-09
        43  11  2.377369E+04  2.502591E+05  1.371866E+04 -1.087383E+01 -2.093654E-09  2.067332E-09
        43  12  2.385796E+04  2.502960E+05  1.407065E+04  2.624999E+00 -1.109480E-09  1.011002E-09
        43  13 -3.019777E+00  1.448531E+05  1.722642E+02 -3.362923E-01 -2.755726E-09  1.122772E-10
        43  14  1.104418E+01  1.448376E+05  3.024621E+02  4.247883E-01 -1.512674E-09 -2.753554E-10
        43  15  6.844359E+01  1.448531E+05  5.415191E+02 -3.268219E-01  9.799254E-11  1.622434E-10
        43  16 -2.375496E+04  3.944873E+04 -1.319385E+04  2.520831E+01 -2.729166E-09 -4.102706E-09
        43  17 -2.375206E+04  3.942751E+04 -1.311378E+04  1.172173E+01 -1.917314E-09 -2.119283E-09
        43  18 -2.372153E+04  3.942158E+04 -1.298766E+04 -3.277748E+00 -8.461788E-10 -9.498084E-10
        43  19  2.374854E+04  2.502689E+05  1.353847E+04 -2.588623E+01 -8.308355E+03  1.622737E+02
        43  20  2.377377E+04  2.502591E+05  1.371879E+04 -1.087652E+01 -8.277223E+03  4.030756E+02
        43  21  2.385803E+04  2.502960E+05  1.407078E+04  2.620742E+00 -8.208407E+03  6.438873E+02
        43  22 -2.945640E+00  1.448531E+05  1.723939E+02 -3.371801E-01 -8.308501E+03  1.326889E+02
        43  23  1.111778E+01  1.448376E+05  3.025910E+02  4.229019E-01 -8.277356E+03  2.829945E+02
        43  24  6.851600E+01  1.448531E+05  5.416461E+02 -3.296863E-01 -8.208525E+03  4.333085E+02
        43  25 -2.375488E+04  3.944875E+04 -1.319372E+04  2.520762E+01 -8.308646E+03  1.031089E+02
        43  26 -2.375199E+04  3.942753E+04 -1.311365E+04  1.172064E+01 -8.277490E+03  1.629328E+02
        43  27 -2.372146E+04  3.942160E+04 -1.298753E+04 -3.279221E+00 -8.208642E+03  2.227637E+02
        44   1  2.390942E+04  2.503624E+05  1.432372E+04 -3.142149E+01  8.164952E+03 -7.716975E+02
        44   2  2.420501E+04  2.502246E+05  1.524897E+04  2.842836E+02  7.928539E+03 -2.086429E+03
        44   3  2.506883E+04  2.504005E+05  1.717215E+04  5.785160E+02  7.412685E+03 -3.401218E+03
        44   4  9.896694E+01  1.448901E+05  7.193070E+02 -4.776738E+00  8.165063E+03 -5.390403E+02
        44   5  3.304906E+02  1.447914E+05  1.284620E+03  6.024296E+00  7.928536E+03 -1.182786E+03
        44   6  1.013847E+03  1.448900E+05  2.382083E+03 -4.648017E+00  7.412544E+03 -1.826587E+03
        44   7 -2.371195E+04  3.942917E+04 -1.288516E+04  2.186366E+01  8.165175E+03 -3.064208E+02
        44   8 -2.354450E+04  3.936953E+04 -1.267981E+04 -2.721851E+02  7.928532E+03 -2.792891E+02
        44   9 -2.304163E+04  3.939080E+04 -1.240811E+04 -5.877081E+02  7.412399E+03 -2.522123E+02
        44  10  2.390935E+04  2.503624E+05  1.432359E+04 -3.141642E+01 -6.890318E-10  1.068805E-09
        44  11  2.420494E+04  2.502245E+05  1.524884E+04  2.842969E+02  3.117600E-10  5.102586E-10
        44  12  2.506877E+04  2.504005E+05  1.717202E+04  5.785363E+02  3.531409E-10  7.179054E-10
        44  13  9.889526E+01  1.448901E+05  7.191811E+02 -4.773193E+00 -1.517693E-10  1.476795E-10
        44  14  3.304227E+02  1.447914E+05  1.284499E+03  6.031848E+00 -1.013151E-09 -3.388107E-10
        44  15  1.013787E+03  1.448900E+05  2.381974E+03 -4.637113E+00 -2.127050E-10  1.991624E-10
        44  16 -2.371202E+04  3.942915E+04 -1.288528E+04  2.186568E+01 -1.266805E-09 -1.305286E-09
        44  17 -2.354456E+04  3.936951E+04 -1.267993E+04 -2.721833E+02 -5.504187E-11 -6.514837E-10
        44  18 -2.304169E+04  3.939078E+04 -1.240822E+04 -5.877066E+02 -7.188265E-10 -6.619021E-10
        44  19  2.390942E+04  2.503624E+05  1.432372E+04 -3.142149E+01 -8.164952E+03  7.716975E+02
        44  20  2.420501E+04  2.502246E+05  1.524897E+04  2.842836E+02 -7.928539E+03  2.086429E+03
        44  21  2.506883E+04  2.504005E+05  1.717215E+04  5.785160E+02 -7.412685E+03  3.401218E+03
        44  22  9.896694E+01  1.448901E+05  7.193070E+02 -4.776738E+00 -8.165063E+03  5.390403E+02
        44  23  3.304906E+02  1.447914E+05  1.284620E+03  6.024296E+00 -7.928536E+03  1.182786E+03
        44  24  1.013847E+03  1.448900E+05  2.382083E+03 -4.648017E+00 -7.412544E+03  1.826587E+03
        44  25 -2.371195E+04  3.942917E+04 -1.288516E+04  2.186366E+01 -8.165175E+03  3.064208E+02
        44  26 -2.354450E+04  3.936953E+04 -1.267981E+04 -2.721851E+02 -7.928532E+03  2.792891E+02
        44  27 -2.304163E+04  3.939080E+04 -1.240811E+04 -5.877081E+02 -7.412399E+03  2.522123E+02
        45   1  2.559233E+04  2.508523E+05  1.853384E+04  3.741332E+02  7.086903E+03 -3.981338E+03
        45   2  2.863664E+04  2.497031E+05  2.389228E+04  4.015316E+03  5.330177E+03 -1.195390E+04
        45   3  3.701209E+04  2.509248E+05  3.577272E+04  7.481330E+03  1.505715E+03 -1.992690E+04
        45   4  1.395394E+03  1.451816E+05  3.194492E+03 -3.891907E+01  7.086711E+03 -2.242194E+03
        45   5  3.990419E+03  1.444265E+05  5.904303E+03  4.951090E+01  5.329034E+03 -5.250381E+03
        45   6  1.105534E+04  1.451809E+05  1.168968E+04 -3.720865E+01  1.503550E+03 -8.259004E+03
        45   7 -2.280205E+04  3.952219E+04 -1.214503E+04 -4.518977E+02  7.086517E+03 -5.033343E+02
        45   8 -2.065630E+04  3.916098E+04 -1.208387E+04 -3.915600E+03  5.327804E+03  1.452040E+03
        45   9 -1.490190E+04  3.944785E+04 -1.239354E+04 -7.554455E+03  1.501102E+03  3.406921E+03
        45  10  2.559227E+04  2.508523E+05  1.853372E+04  3.741560E+02  5.162704E-11  1.004378E-09
        45  11  2.863657E+04  2.497029E+05  2.389196E+04  4.015367E+03  4.608180E-10  1.433125E-11
        45  12  3.701198E+04  2.509244E+05  3.577197E+04  7.481354E+03  1.369404E-10 -1.108027E-10
        45  13  1.395338E+03  1.451816E+05  3.194389E+03 -3.890628E+01 -2.780025E-10  1.822046E-10
        45  14  3.990381E+03  1.444265E+05  5.904198E+03  4.953343E+01  8.271305E-10 -3.886728E-10
        45  15  1.105532E+04  1.451809E+05  1.168955E+04 -3.719865E+01  1.058417E-10  2.761093E-10
        45  16 -2.280210E+04  3.952217E+04 -1.214512E+04 -4.518948E+02 -8.998779E-10 -1.296092E-09
        45  17 -2.065633E+04  3.916097E+04 -1.208392E+04 -3.915607E+03 -8.016699E-10 -1.489989E-10
        45  18 -1.490190E+04  3.944783E+04 -1.239357E+04 -7.554459E+03  2.618122E-10  1.981629E-10
        45  19  2.559233E+04  2.508523E+05  1.853384E+04  3.741332E+02 -7.086903E+03  3.981338E+03
        45  20  2.863664E+04  2.497031E+05  2.389228E+04  4.015316E+03 -5.330177E+03  1.195390E+04
        45  21  3.701209E+04  2.509248E+05  3.577272E+04  7.481330E+03 -1.505715E+03  1.992690E+04
        45  22  1.395394E+03  1.451816E+05  3.194492E+03 -3.891907E+01 -7.086711E+03  2.242194E+03
        45  23  3.990419E+03  1.444265E+05  5.904303E+03  4.951090E+01 -5.329034E+03  5.250381E+03
        45  24  1.105534E+04  1.451809E+05  1.168968E+04 -3.720865E+01 -1.503550E+03  8.259004E+03
        45  25 -2.280205E+04  3.952219E+04 -1.214503E+04 -4.518977E+02 -7.086517E+03  5.033343E+02
        45  26 -2.065630E+04  3.916098E+04 -1.208387E+04 -3.915600E+03 -5.327804E+03 -1.452040E+03
        45  27 -1.490190E+04  3.944785E+04 -1.239354E+04 -7.554455E+03 -1.501102E+03 -3.406921E+03
        46   1 -1.924773E+06 -5.636927E+05 -3.232188E+05 -6.986833E+05 -1.690401E+05 -6.045851E+04
        46   2 -1.878617E+06 -3.083789E+05 -1.650244E+05 -7.168161E+05 -1.089617E+05 -3.195932E+04
        46   3 -1.916318E+06 -2.955774E+05 -1.164263E+05 -6.881524E+05 -4.664622E+04 -9.412649E+03
        46   4 -1.729178E+06 -4.301738E+05 -2.582376E+05 -5.841231E+05 -1.648529E+05 -5.890655E+04
        46   5 -1.674076E+06 -2.141701E+05 -1.080495E+05 -6.431750E+05 -1.078304E+05 -3.153862E+04
        46   6 -1.702195E+06 -2.400320E+05 -6.500438E+04 -6.554399E+05 -4.857050E+04 -1.013261E+04
        46   7 -1.533537E+06 -2.966178E+05 -1.932592E+05 -4.695216E+05 -1.606643E+05 -5.735302E+04
        46   8 -1.469494E+06 -1.199523E+05 -5.107853E+04 -5.695100E+05 -1.066987E+05 -3.111769E+04
        46   9 -1.488026E+06 -1.844880E+05 -1.358549E+04 -6.227199E+05 -5.049550E+04 -1.085265E+04
        46  10 -1.924805E+06 -5.637043E+05 -3.232796E+05 -6.986915E+05 -1.978118E-10  2.017016E-10
        46  11 -1.878630E+06 -3.083832E+05 -1.650488E+05 -7.168189E+05  2.274920E-09  6.279827E-10
        46  12 -1.916321E+06 -2.955781E+05 -1.164306E+05 -6.881528E+05  1.464488E-09  3.289151E-10
        46  13 -1.729209E+06 -4.301849E+05 -2.582954E+05 -5.841309E+05  7.518652E-10  2.547824E-10
        46  14 -1.674089E+06 -2.141743E+05 -1.080733E+05 -6.431778E+05  1.726535E-09  8.646311E-10
        46  15 -1.702197E+06 -2.400327E+05 -6.500902E+04 -6.554403E+05  1.389241E-09  3.332879E-10
        46  16 -1.533566E+06 -2.966283E+05 -1.933140E+05 -4.695290E+05  8.166626E-10  5.591428E-10
        46  17 -1.469506E+06 -1.199564E+05 -5.110181E+04 -5.695126E+05  1.808339E-09  6.660128E-10
        46  18 -1.488029E+06 -1.844888E+05 -1.359051E+04 -6.227203E+05  7.272685E-11  4.337643E-10
        46  19 -1.924773E+06 -5.636927E+05 -3.232188E+05 -6.986833E+05  1.690401E+05  6.045851E+04
        46  20 -1.878617E+06 -3.083789E+05 -1.650244E+05 -7.168161E+05  1.089617E+05  3.195932E+04
        46  21 -1.916318E+06 -2.955774E+05 -1.164263E+05 -6.881524E+05  4.664622E+04  9.412649E+03
        46  22 -1.729178E+06 -4.301738E+05 -2.582376E+05 -5.841231E+05  1.648529E+05  5.890655E+04
        46  23 -1.674076E+06 -2.141701E+05 -1.080495E+05 -6.431750E+05  1.078304E+05  3.153862E+04
        46  24 -1.702195E+06 -2.400320E+05 -6.500438E+04 -6.554399E+05  4.857050E+04  1.013261E+04
        46  25 -1.533537E+06 -2.966178E+05 -1.932592E+05 -4.695216E+05  1.606643E+05  5.735302E+04
        46  26 -1.469494E+06 -1.199523E+05 -5.107853E+04 -5.695100E+05  1.066987E+05  3.111769E+04
        46  27 -1.488026E+06 -1.844880E+05 -1.358549E+04 -6.227199E+05  5.049550E+04  1.085265E+04
        47   1 -1.856398E+06 -3.332557E+05 -9.666427E+04 -6.906375E+05 -3.872821E+04 -8.051588E+03
        47   2 -1.835851E+06 -2.937418E+05 -6.329431E+04 -6.806501E+05 -2.506608E+04 -3.580881E+03
        47   3 -1.814007E+06 -2.904520E+05 -4.651918E+04 -6.786287E+05 -1.123357E+04  4.375311E+02
        47   4 -1.693611E+06 -2.665030E+05 -5.276345E+04 -6.405294E+05 -3.891404E+04 -8.121840E+03
        47   5 -1.692889E+06 -2.386075E+05 -2.548294E+04 -6.402189E+05 -2.548186E+04 -3.736979E+03
        47   6 -1.690823E+06 -2.468867E+05 -1.461114E+04 -6.478752E+05 -1.187981E+04  1.952297E+02
        47   7 -1.530797E+06 -1.997472E+05 -8.864860E+03 -5.904087E+05 -3.909991E+04 -8.192116E+03
        47   8 -1.549907E+06 -1.834715E+05  1.232674E+04 -5.997792E+05 -2.589774E+04 -3.893118E+03
        47   9 -1.567625E+06 -2.033208E+05  1.729566E+04 -6.171163E+05 -1.252619E+04 -4.711743E+01
        47  10 -1.856400E+06 -3.332561E+05 -9.666722E+04 -6.906378E+05  6.144557E-10 -2.682191E-10
        47  11 -1.835851E+06 -2.937420E+05 -6.329552E+04 -6.806502E+05 -5.542227E-10 -2.050568E-10
        47  12 -1.814007E+06 -2.904521E+05 -4.651942E+04 -6.786287E+05 -3.730279E-10 -6.692282E-10
        47  13 -1.693613E+06 -2.665035E+05 -5.276643E+04 -6.405297E+05 -3.273170E-11  3.787443E-11
        47  14 -1.692889E+06 -2.386077E+05 -2.548419E+04 -6.402190E+05 -8.994321E-10 -1.863921E-10
        47  15 -1.690823E+06 -2.468867E+05 -1.461140E+04 -6.478752E+05 -1.031180E-09 -5.090392E-10
        47  16 -1.530799E+06 -1.997476E+05 -8.867867E+03 -5.904090E+05 -6.149955E-10  2.048165E-10
        47  17 -1.549907E+06 -1.834717E+05  1.232545E+04 -5.997793E+05 -4.890907E-10 -3.921718E-10
        47  18 -1.567625E+06 -2.033209E+05  1.729537E+04 -6.171163E+05 -5.755007E-10 -7.051365E-10
        47  19 -1.856398E+06 -3.332557E+05 -9.666427E+04 -6.906375E+05  3.872821E+04  8.051588E+03
        47  20 -1.835851E+06 -2.937418E+05 -6.329431E+04 -6.806501E+05  2.506608E+04  3.580881E+03
        47  21 -1.814007E+06 -2.904520E+05 -4.651918E+04 -6.786287E+05  1.123357E+04 -4.375311E+02
        47  22 -1.693611E+06 -2.665030E+05 -5.276345E+04 -6.405294E+05  3.891404E+04  8.121840E+03
        47  23 -1.692889E+06 -2.386075E+05 -2.548294E+04 -6.402189E+05  2.548186E+04  3.736979E+03
        47  24 -1.690823E+06 -2.468867E+05 -1.461114E+04 -6.478752E+05  1.187981E+04 -1.952297E+02
        47  25 -1.530797E+06 -1.997472E+05 -8.864860E+03 -5.904087E+05  3.909991E+04  8.192116E+03
        47  26 -1.549907E+06 -1.834715E+05  1.232674E+04 -5.997792E+05  2.589774E+04  3.893118E+03
        47  27 -1.567625E+06 -2.033208E+05  1.729566E+04 -6.171163E+05  1.252619E+04  4.711743E+01
        48   1 -1.779950E+06 -2.839599E+05 -3.508124E+04 -6.714260E+05 -9.011983E+03  4.993993E+02
        48   2 -1.762003E+06 -2.662968E+05 -2.350081E+04 -6.581247E+05 -5.597228E+03  6.003998E+02
        48   3 -1.732867E+06 -2.636745E+05 -1.485376E+04 -6.586419E+05 -2.167094E+03  6.602694E+02
        48   4 -1.689683E+06 -2.496373E+05 -1.137164E+04 -6.463832E+05 -9.535189E+03  3.032146E+02
        48   5 -1.695138E+06 -2.411230E+05 -5.932085E+03 -6.398460E+05 -6.141220E+03  3.964731E+02
        48   6 -1.689398E+06 -2.476451E+05 -3.408986E+03 -6.471277E+05 -2.731988E+03  4.485559E+02
        48   7 -1.599409E+06 -2.153141E+05  1.233719E+04 -6.213370E+05 -1.005848E+04  1.069981E+02
        48   8 -1.628268E+06 -2.159488E+05  1.163626E+04 -6.215656E+05 -6.685276E+03  1.925221E+02
        48   9 -1.645928E+06 -2.316156E+05  8.035660E+03 -6.356127E+05 -3.296926E+03  2.368261E+02
        48  10 -1.779950E+06 -2.839600E+05 -3.508140E+04 -6.714260E+05 -6.087923E-10 -8.389001E-10
        48  11 -1.762003E+06 -2.662968E+05 -2.350087E+04 -6.581247E+05  1.639900E-10  1.098264E-12
        48  12 -1.732867E+06 -2.636745E+05 -1.485377E+04 -6.586419E+05 -1.849343E-11  2.049615E-10
        48  13 -1.689683E+06 -2.496373E+05 -1.137181E+04 -6.463831E+05 -1.616668E-09 -6.795669E-10
        48  14 -1.695138E+06 -2.411230E+05 -5.932156E+03 -6.398460E+05 -1.368903E-09 -2.745102E-10
        48  15 -1.689398E+06 -2.476451E+05 -3.409001E+03 -6.471277E+05 -2.460502E-10 -1.100463E-10
        48  16 -1.599409E+06 -2.153142E+05  1.233700E+04 -6.213370E+05 -4.442239E-10 -4.360598E-10
        48  17 -1.628268E+06 -2.159489E+05  1.163618E+04 -6.215656E+05  3.984329E-11 -3.173459E-10
        48  18 -1.645928E+06 -2.316156E+05  8.035640E+03 -6.356127E+05  5.547308E-11  6.391241E-11
        48  19 -1.779950E+06 -2.839599E+05 -3.508124E+04 -6.714260E+05  9.011983E+03 -4.993993E+02
        48  20 -1.762003E+06 -2.662968E+05 -2.350081E+04 -6.581247E+05  5.597228E+03 -6.003998E+02
        48  21 -1.732867E+06 -2.636745E+05 -1.485376E+04 -6.586419E+05  2.167094E+03 -6.602694E+02
        48  22 -1.689683E+06 -2.496373E+05 -1.137164E+04 -6.463832E+05  9.535189E+03 -3.032146E+02
        48  23 -1.695138E+06 -2.411230E+05 -5.932085E+03 -6.398460E+05  6.141220E+03 -3.964731E+02
        48  24 -1.689398E+06 -2.476451E+05 -3.408986E+03 -6.471277E+05  2.731988E+03 -4.485559E+02
        48  25 -1.599409E+06 -2.153141E+05  1.233719E+04 -6.213370E+05  1.005848E+04 -1.069981E+02
        48  26 -1.628268E+06 -2.159488E+05  1.163626E+04 -6.215656E+05  6.685276E+03 -1.925221E+02
        48  27 -1.645928E+06 -2.316156E+05  8.035660E+03 -6.356127E+05  3.296926E+03 -2.368261E+02
        49   1 -1.701135E+06 -2.523956E+05 -5.704886E+03 -6.502506E+05 -1.439749E+03  2.092094E+02
        49   2 -1.683461E+06 -2.368785E+05  1.503904E+03 -6.365319E+05 -2.135740E+02 -5.624660E+02
        49   3 -1.653376E+06 -2.342781E+05  8.024419E+03 -6.372528E+05  1.012828E+03 -1.334623E+03
        49   4 -1.689233E+06 -2.479240E+05 -2.666414E+03 -6.469845E+05 -1.996305E+03  6.320796E-01
        49   5 -1.695426E+06 -2.413778E+05 -1.638721E+03 -6.397974E+05 -7.703756E+02 -7.711444E+02
        49   6 -1.689208E+06 -2.477482E+05 -1.298994E+03 -6.470501E+05  4.557432E+02 -1.543413E+03
        49   7 -1.677331E+06 -2.434524E+05  3.720473E+02 -6.437183E+05 -2.552872E+03 -2.079497E+02
        49   8 -1.707390E+06 -2.458771E+05 -4.781353E+03 -6.430628E+05 -1.327164E+03 -9.798180E+02
        49   9 -1.725038E+06 -2.612182E+05 -1.062248E+04 -6.568469E+05 -1.013040E+02 -1.752189E+03
        49  10 -1.701135E+06 -2.523956E+05 -5.704890E+03 -6.502506E+05 -4.757552E-10  6.430489E-11
        49  11 -1.683461E+06 -2.368785E+05  1.503903E+03 -6.365319E+05  3.541252E-10 -6.387138E-11
        49  12 -1.653376E+06 -2.342781E+05  8.024413E+03 -6.372528E+05 -1.391080E-09 -6.653958E-10
        49  13 -1.689233E+06 -2.479240E+05 -2.666421E+03 -6.469845E+05 -5.548725E-11 -2.164313E-10
        49  14 -1.695426E+06 -2.413778E+05 -1.638724E+03 -6.397974E+05 -7.488246E-10 -7.501360E-11
        49  15 -1.689208E+06 -2.477482E+05 -1.298999E+03 -6.470501E+05 -1.841449E-09 -3.466446E-10
        49  16 -1.677331E+06 -2.434524E+05  3.720349E+02 -6.437183E+05  4.770910E-10  1.558452E-10
        49  17 -1.707390E+06 -2.458771E+05 -4.781358E+03 -6.430628E+05  4.966438E-10  7.300856E-10
        49  18 -1.725038E+06 -2.612182E+05 -1.062249E+04 -6.568469E+05 -2.112621E-09 -4.491401E-10
        49  19 -1.701135E+06 -2.523956E+05 -5.704886E+03 -6.502506E+05  1.439749E+03 -2.092094E+02
        49  20 -1.683461E+06 -2.368785E+05  1.503904E+03 -6.365319E+05  2.135740E+02  5.624660E+02
        49  21 -1.653376E+06 -2.342781E+05  8.024419E+03 -6.372528E+05 -1.012828E+03  1.334623E+03
        49  22 -1.689233E+06 -2.479240E+05 -2.666414E+03 -6.469845E+05  1.996305E+03 -6.320796E-01
        49  23 -1.695426E+06 -2.413778E+05 -1.638721E+03 -6.397974E+05  7.703756E+02  7.711444E+02
        49  24 -1.689208E+06 -2.477482E+05 -1.298994E+03 -6.470501E+05 -4.557432E+02  1.543413E+03
        49  25 -1.677331E+06 -2.434524E+05  3.720473E+02 -6.437183E+05  2.552872E+03  2.079497E+02
        49  26 -1.707390E+06 -2.458771E+05 -4.781353E+03 -6.430628E+05  1.327164E+03  9.798180E+02
        49  27 -1.725038E+06 -2.612182E+05 -1.062248E+04 -6.568469E+05  1.013040E+02  1.752189E+03
        50   1 -1.622149E+06 -2.225206E+05  1.640432E+04 -6.287590E+05  1.461233E+03 -1.883375E+03
        50   2 -1.604812E+06 -2.074425E+05  2.213462E+04 -6.152069E+05  2.675164E+03 -2.647482E+03
        50   3 -1.575267E+06 -2.050614E+05  2.718579E+04 -6.158393E+05  3.883218E+03 -3.395116E+03
        50   4 -1.689254E+06 -2.476989E+05 -1.298267E+03 -6.469942E+05  9.057553E+02 -2.091587E+03
        50   5 -1.695370E+06 -2.414415E+05 -1.639568E+03 -6.398675E+05  2.128025E+03 -2.852632E+03
        50   6 -1.689282E+06 -2.478831E+05 -2.666775E+03 -6.469259E+05  3.344381E+03 -3.597212E+03
        50   7 -1.756355E+06 -2.728770E+05 -1.900129E+04 -6.652278E+05  3.503419E+02 -2.299775E+03
        50   8 -1.785921E+06 -2.754401E+05 -2.541449E+04 -6.645250E+05  1.580973E+03 -3.057749E+03
        50   9 -1.803283E+06 -2.907041E+05 -3.252045E+04 -6.780073E+05  2.805654E+03 -3.799267E+03
        50  10 -1.622149E+06 -2.225206E+05  1.640430E+04 -6.287590E+05 -1.693736E-09 -6.473258E-10
        50  11 -1.604812E+06 -2.074425E+05  2.213459E+04 -6.152069E+05 -2.832563E-10  4.105121E-11
        50  12 -1.575267E+06 -2.050614E+05  2.718574E+04 -6.158393E+05 -6.628480E-10 -5.378840E-10
        50  13 -1.689254E+06 -2.476989E+05 -1.298276E+03 -6.469942E+05 -1.279255E-09 -2.906968E-10
        50  14 -1.695370E+06 -2.414415E+05 -1.639592E+03 -6.398675E+05  8.073823E-10 -1.541500E-10
        50  15 -1.689282E+06 -2.478831E+05 -2.666821E+03 -6.469259E+05  1.360437E-09 -8.344641E-11
        50  16 -1.756355E+06 -2.728771E+05 -1.900130E+04 -6.652278E+05 -4.386095E-10 -3.284445E-10
        50  17 -1.785921E+06 -2.754401E+05 -2.541451E+04 -6.645250E+05  1.358894E-09  3.443802E-10
        50  18 -1.803284E+06 -2.907041E+05 -3.252049E+04 -6.780073E+05 -4.701719E-10 -6.024167E-10
        50  19 -1.622149E+06 -2.225206E+05  1.640432E+04 -6.287590E+05 -1.461233E+03  1.883375E+03
        50  20 -1.604812E+06 -2.074425E+05  2.213462E+04 -6.152069E+05 -2.675164E+03  2.647482E+03
        50  21 -1.575267E+06 -2.050614E+05  2.718579E+04 -6.158393E+05 -3.883218E+03  3.395116E+03
        50  22 -1.689254E+06 -2.476989E+05 -1.298267E+03 -6.469942E+05 -9.057553E+02  2.091587E+03
        50  23 -1.695370E+06 -2.414415E+05 -1.639568E+03 -6.398675E+05 -2.128025E+03  2.852632E+03
        50  24 -1.689282E+06 -2.478831E+05 -2.666775E+03 -6.469259E+05 -3.344381E+03  3.597212E+03
        50  25 -1.756355E+06 -2.728770E+05 -1.900129E+04 -6.652278E+05 -3.503419E+02  2.299775E+03
        50  26 -1.785921E+06 -2.754401E+05 -2.541449E+04 -6.645250E+05 -1.580973E+03  3.057749E+03
        50  27 -1.803283E+06 -2.907041E+05 -3.252045E+04 -6.780073E+05 -2.805654E+03  3.799267E+03
        51   1 -1.545033E+06 -1.935271E+05  3.456143E+04 -6.079092E+05  4.619044E+03 -3.819751E+03
        51   2 -1.528296E+06 -1.786319E+05  3.784020E+04 -5.945556E+05  7.977590E+03 -3.730460E+03
        51   3 -1.500975E+06 -1.781216E+05  3.823479E+04 -5.942667E+05  1.131176E+04 -3.574716E+03
        51   4 -1.689540E+06 -2.475076E+05 -3.408199E+03 -6.469599E+05  4.072435E+03 -4.024818E+03
        51   5 -1.694972E+06 -2.413113E+05 -5.934513E+03 -6.400536E+05  7.464389E+03 -3.923108E+03
        51   6 -1.689827E+06 -2.495070E+05 -1.137214E+04 -6.462123E+05  1.083185E+04 -3.754979E+03
        51   7 -1.834025E+06 -3.014868E+05 -4.137949E+04 -6.860023E+05  3.525968E+03 -4.229833E+03
        51   8 -1.861620E+06 -3.039889E+05 -4.971160E+04 -6.855405E+05  6.951339E+03 -4.115698E+03
        51   9 -1.878645E+06 -3.208904E+05 -6.098226E+04 -6.981436E+05  1.035211E+04 -3.935181E+03
        51  10 -1.545033E+06 -1.935271E+05  3.456136E+04 -6.079092E+05 -8.603360E-10 -4.473615E-10
        51  11 -1.528297E+06 -1.786320E+05  3.784006E+04 -5.945556E+05  2.395045E-10  7.034524E-10
        51  12 -1.500975E+06 -1.781217E+05  3.823452E+04 -5.942667E+05  2.030499E-09  6.903979E-10
        51  13 -1.689540E+06 -2.475077E+05 -3.408261E+03 -6.469599E+05  6.218347E-10 -1.757554E-10
        51  14 -1.694972E+06 -2.413113E+05 -5.934647E+03 -6.400536E+05  2.111891E-09  4.278361E-10
        51  15 -1.689827E+06 -2.495071E+05 -1.137238E+04 -6.462122E+05  3.222374E-09  5.075541E-10
        51  16 -1.834025E+06 -3.014868E+05 -4.137955E+04 -6.860022E+05  3.727534E-12 -2.854056E-10
        51  17 -1.861621E+06 -3.039889E+05 -4.971172E+04 -6.855405E+05  5.948569E-10  3.178724E-10
        51  18 -1.878645E+06 -3.208904E+05 -6.098249E+04 -6.981436E+05  2.052049E-09  7.184912E-10
        51  19 -1.545033E+06 -1.935271E+05  3.456143E+04 -6.079092E+05 -4.619044E+03  3.819751E+03
        51  20 -1.528296E+06 -1.786319E+05  3.784020E+04 -5.945556E+05 -7.977590E+03  3.730460E+03
        51  21 -1.500975E+06 -1.781216E+05  3.823479E+04 -5.942667E+05 -1.131176E+04  3.574716E+03
        51  22 -1.689540E+06 -2.475076E+05 -3.408199E+03 -6.469599E+05 -4.072435E+03  4.024818E+03
        51  23 -1.694972E+06 -2.413113E+05 -5.934513E+03 -6.400536E+05 -7.464389E+03  3.923108E+03
        51  24 -1.689827E+06 -2.495070E+05 -1.137214E+04 -6.462123E+05 -1.083185E+04  3.754979E+03
        51  25 -1.834025E+06 -3.014868E+05 -4.137949E+04 -6.860023E+05 -3.525968E+03  4.229833E+03
        51  26 -1.861620E+06 -3.039889E+05 -4.971160E+04 -6.855405E+05 -6.951339E+03  4.115698E+03
        51  27 -1.878645E+06 -3.208904E+05 -6.098226E+04 -6.981436E+05 -1.035211E+04  3.935181E+03
        52   1 -1.471403E+06 -1.668262E+05  4.261801E+04 -5.905029E+05  1.380854E+04 -3.382240E+03
        52   2 -1.455200E+06 -1.482377E+05  3.712515E+04 -5.743078E+05  2.706852E+04  5.304020E+02
        52   3 -1.438610E+06 -1.646937E+05  1.548091E+04 -5.648395E+05  4.010081E+04  5.051346E+03
        52   4 -1.691056E+06 -2.466643E+05 -1.461088E+04 -6.476001E+05  1.316762E+04 -3.622954E+03
        52   5 -1.692615E+06 -2.389158E+05 -2.548762E+04 -6.405592E+05  2.673628E+04  4.052958E+02
        52   6 -1.693852E+06 -2.662797E+05 -5.276573E+04 -6.402449E+05  4.007676E+04  5.041585E+03
        52   7 -1.910662E+06 -3.265002E+05 -7.184381E+04 -7.046794E+05  1.252696E+04 -3.863582E+03
        52   8 -1.929974E+06 -3.295899E+05 -8.810513E+04 -7.067874E+05  2.640417E+04  2.802434E+02
        52   9 -1.949030E+06 -3.678593E+05 -1.210179E+05 -7.156213E+05  4.005272E+04  5.031826E+03
        52  10 -1.471403E+06 -1.668262E+05  4.261763E+04 -5.905029E+05  2.338680E-09  4.252889E-10
        52  11 -1.455201E+06 -1.482379E+05  3.712377E+04 -5.743078E+05  6.997135E-10 -8.511142E-11
        52  12 -1.438612E+06 -1.646941E+05  1.547783E+04 -5.648396E+05 -6.034786E-10 -8.207059E-11
        52  13 -1.691056E+06 -2.466643E+05 -1.461123E+04 -6.476001E+05  2.611215E-09  4.013957E-10
        52  14 -1.692615E+06 -2.389160E+05 -2.548897E+04 -6.405592E+05  1.490268E-09  2.018003E-10
        52  15 -1.693854E+06 -2.662802E+05 -5.276880E+04 -6.402451E+05  2.626348E-10  4.564265E-11
        52  16 -1.910662E+06 -3.265002E+05 -7.184413E+04 -7.046794E+05  1.276736E-09  5.865625E-10
        52  17 -1.929975E+06 -3.295901E+05 -8.810645E+04 -7.067874E+05 -3.948384E-10 -3.590198E-11
        52  18 -1.949031E+06 -3.678598E+05 -1.210210E+05 -7.156215E+05  3.373145E-10  1.735851E-10
        52  19 -1.471403E+06 -1.668262E+05  4.261801E+04 -5.905029E+05 -1.380854E+04  3.382240E+03
        52  20 -1.455200E+06 -1.482377E+05  3.712515E+04 -5.743078E+05 -2.706852E+04 -5.304020E+02
        52  21 -1.438610E+06 -1.646937E+05  1.548091E+04 -5.648395E+05 -4.010081E+04 -5.051346E+03
        52  22 -1.691056E+06 -2.466643E+05 -1.461088E+04 -6.476001E+05 -1.316762E+04  3.622954E+03
        52  23 -1.692615E+06 -2.389158E+05 -2.548762E+04 -6.405592E+05 -2.673628E+04 -4.052958E+02
        52  24 -1.693852E+06 -2.662797E+05 -5.276573E+04 -6.402449E+05 -4.007676E+04 -5.041585E+03
        52  25 -1.910662E+06 -3.265002E+05 -7.184381E+04 -7.046794E+05 -1.252696E+04  3.863582E+03
        52  26 -1.929974E+06 -3.295899E+05 -8.810513E+04 -7.067874E+05 -2.640417E+04 -2.802434E+02
        52  27 -1.949030E+06 -3.678593E+05 -1.210179E+05 -7.156213E+05 -4.005272E+04 -5.031826E+03
        53   1 -1.398994E+06 -1.505497E+05  9.827951E+03 -5.978563E+05  5.213661E+04  7.723748E+03
        53   2 -1.382608E+06 -8.773255E+04 -2.837133E+04 -5.462695E+05  1.072654E+05  2.784662E+04
        53   3 -1.450094E+06 -2.643462E+05 -1.704516E+05 -4.460998E+05  1.594238E+05  5.587818E+04
        53   4 -1.702513E+06 -2.397289E+05 -6.500688E+04 -6.550647E+05  4.980981E+04  6.851384E+03
        53   5 -1.673686E+06 -2.146031E+05 -1.080603E+05 -6.436542E+05  1.089882E+05  2.849035E+04
        53   6 -1.729584E+06 -4.297891E+05 -2.582492E+05 -5.836495E+05  1.651960E+05  5.803061E+04
        53   7 -2.005944E+06 -3.289100E+05 -1.398486E+05 -7.122520E+05  4.748424E+04  5.979250E+03
        53   8 -1.964681E+06 -3.414597E+05 -1.877568E+05 -7.409944E+05  1.107101E+05  2.913362E+04
        53   9 -2.008986E+06 -5.951844E+05 -3.460532E+05 -7.211310E+05  1.709653E+05  6.018054E+04
        53  10 -1.398997E+06 -1.505505E+05  9.822718E+03 -5.978566E+05 -6.015515E-10  7.058325E-12
        53  11 -1.382621E+06 -8.773648E+04 -2.839447E+04 -5.462719E+05 -1.623055E-09  2.590848E-10
        53  12 -1.450123E+06 -2.643564E+05 -1.705054E+05 -4.461070E+05 -6.856275E-10 -1.334668E-10
        53  13 -1.702516E+06 -2.397296E+05 -6.501165E+04 -6.550650E+05 -5.778775E-10  5.075434E-10
        53  14 -1.673699E+06 -2.146072E+05 -1.080842E+05 -6.436567E+05 -4.536394E-10 -1.543918E-09
        53  15 -1.729614E+06 -4.298001E+05 -2.583070E+05 -5.836573E+05  2.237997E-10 -3.069366E-10
        53  16 -2.005946E+06 -3.289107E+05 -1.398529E+05 -7.122522E+05 -4.831541E-10  7.156643E-11
        53  17 -1.964694E+06 -3.414639E+05 -1.877816E+05 -7.409970E+05 -9.766437E-11  3.444336E-11
        53  18 -2.009019E+06 -5.951962E+05 -3.461152E+05 -7.211393E+05 -6.351413E-11 -1.971227E-11
        53  19 -1.398994E+06 -1.505497E+05  9.827951E+03 -5.978563E+05 -5.213661E+04 -7.723748E+03
        53  20 -1.382608E+06 -8.773255E+04 -2.837133E+04 -5.462695E+05 -1.072654E+05 -2.784662E+04
        53  21 -1.450094E+06 -2.643462E+05 -1.704516E+05 -4.460998E+05 -1.594238E+05 -5.587818E+04
        53  22 -1.702513E+06 -2.397289E+05 -6.500688E+04 -6.550647E+05 -4.980981E+04 -6.851384E+03
        53  23 -1.673686E+06 -2.146031E+05 -1.080603E+05 -6.436542E+05 -1.089882E+05 -2.849035E+04
        53  24 -1.729584E+06 -4.297891E+05 -2.582492E+05 -5.836495E+05 -1.651960E+05 -5.803061E+04
        53  25 -2.005944E+06 -3.289100E+05 -1.398486E+05 -7.122520E+05 -4.748424E+04 -5.979250E+03
        53  26 -1.964681E+06 -3.414597E+05 -1.877568E+05 -7.409944E+05 -1.107101E+05 -2.913362E+04
        53  27 -2.008986E+06 -5.951844E+05 -3.460532E+05 -7.211310E+05 -1.709653E+05 -6.018054E+04
        54   1 -3.384720E+05 -4.974186E+04 -3.946971E+04  7.344845E+02  2.466837E+04  3.662994E+03
        54   2 -3.232042E+05 -8.445936E+04 -5.679111E+04 -7.056064E+02  1.828856E+04  1.108710E+04
        54   3 -2.963453E+05 -7.665526E+04 -5.930393E+04 -1.625368E+04  1.191607E+04  1.066437E+04
        54   4  5.498391E+03  3.597489E+04  4.522576E+04 -1.117805E+04  3.094496E+04  3.668669E+03
        54   5 -6.688700E+02 -4.612681E+03  1.987749E+04 -4.106754E+03  2.023048E+04  1.108822E+04
        54   6  5.500979E+03 -1.938117E+03  1.234235E+04 -1.114282E+04  9.523639E+03  1.066257E+04
        54   7  3.495768E+05  1.216834E+05  1.299127E+05 -2.309723E+04  3.722502E+04  3.674101E+03
        54   8  3.219620E+05  7.522655E+04  9.653885E+04 -7.509697E+03  2.217340E+04  1.108932E+04
        54   9  3.074310E+05  7.277257E+04  8.398231E+04 -6.029482E+03  7.130045E+03  1.066073E+04
        54  10 -3.384726E+05 -4.974203E+04 -3.947088E+04  7.344117E+02  3.234846E-11  3.559334E-10
        54  11 -3.232046E+05 -8.445958E+04 -5.679197E+04 -7.057698E+02  4.067568E-10 -2.916703E-10
        54  12 -2.963455E+05 -7.665542E+04 -5.930441E+04 -1.625378E+04 -3.028425E-10 -1.094344E-12
        54  13  5.497359E+03  3.597462E+04  4.522393E+04 -1.117814E+04  2.774970E-10  1.495739E-10
        54  14 -6.693425E+02 -4.612923E+03  1.987649E+04 -4.106935E+03 -1.116042E-09 -1.022448E-09
        54  15  5.500851E+03 -1.938263E+03  1.234197E+04 -1.114291E+04  1.048592E-10 -6.512835E-11
        54  16  3.495753E+05  1.216830E+05  1.299101E+05 -2.309734E+04  1.009580E-10 -5.091908E-11
        54  17  3.219615E+05  7.522629E+04  9.653770E+04 -7.509895E+03  3.203118E-10 -1.121961E-10
        54  18  3.074310E+05  7.277243E+04  8.398200E+04 -6.029544E+03  3.423097E-10 -4.735915E-10
        54  19 -3.384720E+05 -4.974186E+04 -3.946971E+04  7.344845E+02 -2.466837E+04 -3.662994E+03
        54  20 -3.232042E+05 -8.445936E+04 -5.679111E+04 -7.056064E+02 -1.828856E+04 -1.108710E+04
        54  21 -2.963453E+05 -7.665526E+04 -5.930393E+04 -1.625368E+04 -1.191607E+04 -1.066437E+04
        54  22  5.498391E+03  3.597489E+04  4.522576E+04 -1.117805E+04 -3.094496E+04 -3.668669E+03
        54  23 -6.688700E+02 -4.612681E+03  1.987749E+04 -4.106754E+03 -2.023048E+04 -1.108822E+04
        54  24  5.500979E+03 -1.938117E+03  1.234235E+04 -1.114282E+04 -9.523639E+03 -1.066257E+04
        54  25  3.495768E+05  1.216834E+05  1.299127E+05 -2.309723E+04 -3.722502E+04 -3.674101E+03
        54  26  3.219620E+05  7.522655E+04  9.653885E+04 -7.509697E+03 -2.217340E+04 -1.108932E+04
        54  27  3.074310E+05  7.277257E+04  8.398231E+04 -6.029482E+03 -7.130045E+03 -1.066073E+04
        55   1 -2.731210E+05 -6.491469E+04 -5.576768E+04 -1.025505E+04  7.667493E+03  9.066631E+03
        55   2 -2.528690E+05 -6.367538E+04 -5.553320E+04 -3.866741E+03  5.328441E+03  8.728040E+03
        55   3 -2.311791E+05 -5.821167E+04 -5.270310E+04 -1.176445E+04  2.989216E+03  7.865046E+03
        55   4  3.093933E+03  3.497503E+03  1.003999E+04 -1.119392E+04  7.628348E+03  9.066327E+03
        55   5  2.351322E+03 -4.880199E+02  5.145517E+03 -4.050190E+03  4.998878E+03  8.727660E+03
        55   6  3.096188E+03 -1.996033E+02  3.047605E+03 -1.119209E+04  2.369316E+03  7.864680E+03
        55   7  2.793789E+05  7.190419E+04  7.584231E+04 -1.213323E+04  7.589186E+03  9.066024E+03
        55   8  2.576314E+05  6.269465E+04  6.581968E+04 -4.233720E+03  4.669179E+03  8.727279E+03
        55   9  2.374219E+05  5.780851E+04  5.879447E+04 -1.061952E+04  1.749183E+03  7.864313E+03
        55  10 -2.731211E+05 -6.491479E+04 -5.576794E+04 -1.025510E+04 -1.005982E-11 -3.865320E-10
        55  11 -2.528690E+05 -6.367547E+04 -5.553339E+04 -3.866778E+03  4.499962E-10  2.521612E-10
        55  12 -2.311792E+05 -5.821174E+04 -5.270324E+04 -1.176447E+04  1.321654E-10 -1.964708E-11
        55  13  3.093848E+03  3.497400E+03  1.003973E+04 -1.119398E+04 -1.126938E-10 -2.743255E-10
        55  14  2.351274E+03 -4.881084E+02  5.145327E+03 -4.050225E+03  6.561441E-10 -9.724666E-11
        55  15  3.096166E+03 -1.996713E+02  3.047478E+03 -1.119210E+04  1.053164E-10 -1.090310E-10
        55  16  2.793788E+05  7.190409E+04  7.584204E+04 -1.213329E+04 -1.804472E-12 -5.638801E-11
        55  17  2.576314E+05  6.269456E+04  6.581950E+04 -4.233753E+03 -7.138021E-10 -5.109803E-10
        55  18  2.374219E+05  5.780844E+04  5.879435E+04 -1.061953E+04  1.622731E-11  8.866286E-11
        55  19 -2.731210E+05 -6.491469E+04 -5.576768E+04 -1.025505E+04 -7.667493E+03 -9.066631E+03
        55  20 -2.528690E+05 -6.367538E+04 -5.553320E+04 -3.866741E+03 -5.328441E+03 -8.728040E+03
        55  21 -2.311791E+05 -5.821167E+04 -5.270310E+04 -1.176445E+04 -2.989216E+03 -7.865046E+03
        55  22  3.093933E+03  3.497503E+03  1.003999E+04 -1.119392E+04 -7.628348E+03 -9.066327E+03
        55  23  2.351322E+03 -4.880199E+02  5.145517E+03 -4.050190E+03 -4.998878E+03 -8.727660E+03
        55  24  3.096188E+03 -1.996033E+02  3.047605E+03 -1.119209E+04 -2.369316E+03 -7.864680E+03
        55  25  2.793789E+05  7.190419E+04  7.584231E+04 -1.213323E+04 -7.589186E+03 -9.066024E+03
        55  26  2.576314E+05  6.269465E+04  6.581968E+04 -4.233720E+03 -4.669179E+03 -8.727279E+03
        55  27  2.374219E+05  5.780851E+04  5.879447E+04 -1.061952E+04 -1.749183E+03 -7.864313E+03
        56   1 -2.058763E+05 -5.133480E+04 -4.719313E+04 -1.116323E+04  2.353212E+03  7.272804E+03
        56   2 -1.850263E+05 -4.653615E+04 -4.333773E+04 -4.058168E+03  1.724584E+03  6.416276E+03
        56   3 -1.639522E+05 -4.132091E+04 -3.896077E+04 -1.125554E+04  1.095603E+03  5.524757E+03
        56   4  2.819090E+03  3.227251E+02  2.373563E+03 -1.119633E+04  1.890677E+03  7.272546E+03
        56   5  2.706556E+03 -5.890480E+01  1.294855E+03 -4.045221E+03  1.242533E+03  6.416094E+03
        56   6  2.820761E+03 -2.068077E+01  7.510787E+02 -1.119627E+04  5.940570E+02  5.524660E+03
        56   7  2.115544E+05  5.197711E+04  5.193722E+04 -1.122944E+04  1.427987E+03  7.272288E+03
        56   8  1.904718E+05  4.641580E+04  4.592498E+04 -4.032271E+03  7.603374E+02  6.415913E+03
        56   9  1.696193E+05  4.127754E+04  4.046098E+04 -1.113699E+04  9.237682E+01  5.524562E+03
        56  10 -2.058763E+05 -5.133485E+04 -4.719324E+04 -1.116324E+04 -2.546536E-10  2.244366E-10
        56  11 -1.850263E+05 -4.653620E+04 -4.333782E+04 -4.058177E+03  1.350303E-12 -1.321594E-11
        56  12 -1.639522E+05 -4.132094E+04 -3.896083E+04 -1.125554E+04 -7.561315E-10 -2.455055E-11
        56  13  2.819072E+03  3.226673E+02  2.373457E+03 -1.119634E+04 -2.084083E-10  4.711625E-11
        56  14  2.706543E+03 -5.894942E+01  1.294775E+03 -4.045227E+03  3.354664E-11 -7.975169E-11
        56  15  2.820753E+03 -2.071364E+01  7.510207E+02 -1.119628E+04  9.556807E-10  7.165660E-11
        56  16  2.115544E+05  5.197705E+04  5.193712E+04 -1.122945E+04  3.298804E-10 -5.374972E-11
        56  17  1.904718E+05  4.641576E+04  4.592490E+04 -4.032275E+03 -1.535786E-10 -1.682212E-10
        56  18  1.696193E+05  4.127751E+04  4.046092E+04 -1.113699E+04  3.237679E-10 -7.770230E-12
        56  19 -2.058763E+05 -5.133480E+04 -4.719313E+04 -1.116323E+04 -2.353212E+03 -7.272804E+03
        56  20 -1.850263E+05 -4.653615E+04 -4.333773E+04 -4.058168E+03 -1.724584E+03 -6.416276E+03
        56  21 -1.639522E+05 -4.132091E+04 -3.896077E+04 -1.125554E+04 -1.095603E+03 -5.524757E+03
        56  22  2.819090E+03  3.227251E+02  2.373563E+03 -1.119633E+04 -1.890677E+03 -7.272546E+03
        56  23  2.706556E+03 -5.890480E+01  1.294855E+03 -4.045221E+03 -1.242533E+03 -6.416094E+03
        56  24  2.820761E+03 -2.068077E+01  7.510787E+02 -1.119627E+04 -5.940570E+02 -5.524660E+03
        56  25  2.115544E+05  5.197711E+04  5.193722E+04 -1.122944E+04 -1.427987E+03 -7.272288E+03
        56  26  1.904718E+05  4.641580E+04  4.592498E+04 -4.032271E+03 -7.603374E+02 -6.415913E+03
        56  27  1.696193E+05  4.127754E+04  4.046098E+04 -1.113699E+04 -9.237682E+01 -5.524562E+03
        57   1 -1.384151E+05 -3.491676E+04 -3.293406E+04 -1.119448E+04  9.663049E+02  4.999893E+03
        57   2 -1.174737E+05 -2.977354E+04 -2.827228E+04 -4.042283E+03  8.125877E+02  4.108890E+03
        57   3 -9.649114E+04 -2.458733E+04 -2.349755E+04 -1.119006E+04  6.586528E+02  3.215662E+03
        57   4  2.781625E+03  2.596243E+01  5.711624E+02 -1.119576E+04  4.752346E+02  4.999842E+03
        57   5  2.761644E+03 -7.933625E+00  3.119881E+02 -4.045865E+03  3.202497E+02  4.108892E+03
        57   6  2.782696E+03  1.404436E+00  1.666509E+02 -1.119576E+04  1.650523E+02  3.215719E+03
        57   7  1.439967E+05  3.496725E+04  3.407500E+04 -1.119705E+04 -1.594684E+01  4.999791E+03
        57   8  1.230103E+05  2.975663E+04  2.889525E+04 -4.049447E+03 -1.721831E+02  4.108893E+03
        57   9  1.020656E+05  2.458943E+04  2.383016E+04 -1.120147E+04 -3.286267E+02  3.215775E+03
        57  10 -1.384151E+05 -3.491678E+04 -3.293411E+04 -1.119448E+04  3.820458E-11  1.086615E-10
        57  11 -1.174738E+05 -2.977356E+04 -2.827231E+04 -4.042285E+03 -2.119974E-10  1.919261E-10
        57  12 -9.649115E+04 -2.458734E+04 -2.349757E+04 -1.119006E+04  2.004267E-10 -7.662299E-12
        57  13  2.781618E+03  2.593553E+01  5.711150E+02 -1.119576E+04  2.602653E-10  2.633026E-10
        57  14  2.761639E+03 -7.951782E+00  3.119562E+02 -4.045866E+03  2.439760E-10 -1.094769E-10
        57  15  2.782693E+03  1.393325E+00  1.666315E+02 -1.119576E+04 -3.153316E-10 -1.630670E-10
        57  16  1.439967E+05  3.496722E+04  3.407495E+04 -1.119705E+04  1.504915E-10  2.998483E-11
        57  17  1.230103E+05  2.975661E+04  2.889522E+04 -4.049446E+03 -3.249186E-11 -6.879225E-11
        57  18  1.020656E+05  2.458942E+04  2.383014E+04 -1.120147E+04 -3.109349E-10 -1.496969E-10
        57  19 -1.384151E+05 -3.491676E+04 -3.293406E+04 -1.119448E+04 -9.663049E+02 -4.999893E+03
        57  20 -1.174737E+05 -2.977354E+04 -2.827228E+04 -4.042283E+03 -8.125877E+02 -4.108890E+03
        57  21 -9.649114E+04 -2.458733E+04 -2.349755E+04 -1.119006E+04 -6.586528E+02 -3.215662E+03
        57  22  2.781625E+03  2.596243E+01  5.711624E+02 -1.119576E+04 -4.752346E+02 -4.999842E+03
        57  23  2.761644E+03 -7.933625E+00  3.119881E+02 -4.045865E+03 -3.202497E+02 -4.108892E+03
        57  24  2.782696E+03  1.404436E+00  1.666509E+02 -1.119576E+04 -1.650523E+02 -3.215719E+03
        57  25  1.439967E+05  3.496725E+04  3.407500E+04 -1.119705E+04  1.594684E+01 -4.999791E+03
        57  26  1.230103E+05  2.975663E+04  2.889525E+04 -4.049447E+03  1.721831E+02 -4.108893E+03
        57  27  1.020656E+05  2.458943E+04  2.383016E+04 -1.120147E+04  3.286267E+02 -3.215775E+03
        58   1 -7.092460E+04 -1.822685E+04 -1.734270E+04 -1.118824E+04  6.327789E+02  2.695206E+03
        58   2 -4.996118E+04 -1.305357E+04 -1.250512E+04 -4.040083E+03  6.163886E+02  1.802034E+03
        58   3 -2.900007E+04 -7.877293E+03 -7.657396E+03 -1.119047E+04  5.999050E+02  9.099165E+02
        58   4  2.774219E+03  4.889119E+00  1.141329E+02 -1.119547E+04  1.394997E+02  2.695289E+03
        58   5  2.775704E+03  1.499950E+00  3.181725E+01 -4.046235E+03  1.236851E+02  1.802139E+03
        58   6  2.774689E+03  1.113366E+00 -4.063906E+01 -1.119547E+04  1.077777E+02  9.100457E+02
        58   7  7.647803E+04  1.823624E+04  1.757059E+04 -1.120269E+04 -3.538376E+02  2.695371E+03
        58   8  5.551514E+04  1.305637E+04  1.256857E+04 -4.052387E+03 -3.690601E+02  1.802244E+03
        58   9  3.455037E+04  7.879446E+03  7.576048E+03 -1.120047E+04 -3.843748E+02  9.101749E+02
        58  10 -7.092460E+04 -1.822686E+04 -1.734271E+04 -1.118824E+04 -7.340598E-11 -1.461505E-10
        58  11 -4.996118E+04 -1.305357E+04 -1.250513E+04 -4.040084E+03  2.525854E-10  5.601753E-11
        58  12 -2.900007E+04 -7.877294E+03 -7.657399E+03 -1.119047E+04 -4.103742E-10  1.711909E-10
        58  13  2.774217E+03  4.881313E+00  1.141193E+02 -1.119547E+04  4.866193E-10  1.578116E-10
        58  14  2.775703E+03  1.496459E+00  3.181112E+01 -4.046235E+03 -8.673668E-10  2.677154E-10
        58  15  2.774689E+03  1.112474E+00 -4.064064E+01 -1.119547E+04 -6.439415E-10 -1.319229E-10
        58  16  7.647803E+04  1.823623E+04  1.757057E+04 -1.120269E+04  2.416978E-10  7.120376E-12
        58  17  5.551514E+04  1.305637E+04  1.256856E+04 -4.052387E+03  8.826309E-10  2.495659E-10
        58  18  3.455037E+04  7.879445E+03  7.576046E+03 -1.120047E+04  5.638837E-10  1.635223E-10
        58  19 -7.092460E+04 -1.822685E+04 -1.734270E+04 -1.118824E+04 -6.327789E+02 -2.695206E+03
        58  20 -4.996118E+04 -1.305357E+04 -1.250512E+04 -4.040083E+03 -6.163886E+02 -1.802034E+03
        58  21 -2.900007E+04 -7.877293E+03 -7.657396E+03 -1.119047E+04 -5.999050E+02 -9.099165E+02
        58  22  2.774219E+03  4.889119E+00  1.141329E+02 -1.119547E+04 -1.394997E+02 -2.695289E+03
        58  23  2.775704E+03  1.499950E+00  3.181725E+01 -4.046235E+03 -1.236851E+02 -1.802139E+03
        58  24  2.774689E+03  1.113366E+00 -4.063906E+01 -1.119547E+04 -1.077777E+02 -9.100457E+02
        58  25  7.647803E+04  1.823624E+04  1.757059E+04 -1.120269E+04  3.538376E+02 -2.695371E+03
        58  26  5.551514E+04  1.305637E+04  1.256857E+04 -4.052387E+03  3.690601E+02 -1.802244E+03
        58  27  3.455037E+04  7.879446E+03  7.576048E+03 -1.120047E+04  3.843748E+02 -9.101749E+02
        59   1 -3.430376E+03 -1.513321E+03 -1.489093E+03 -1.120442E+04  6.157497E+02  3.874744E+02
        59   2  1.754877E+04  3.664334E+03  3.332929E+03 -4.049068E+03  6.941112E+02 -5.048002E+02
        59   3  3.849580E+04  8.786253E+03  8.088105E+03 -1.119201E+04  7.725068E+02 -1.379019E+03
        59   4  2.767826E+03  8.362307E+00 -7.885292E+01 -1.119543E+04  1.182407E+02  3.876108E+02
        59   5  2.785042E+03  9.715536E+00 -1.766119E+02 -4.046280E+03  2.065554E+02 -5.046738E+02
        59   6  2.767695E+03 -4.644745E+01 -3.481895E+02 -1.119544E+04  2.949016E+02 -1.378901E+03
        59   7  8.966065E+03  1.530043E+03  1.331386E+03 -1.118644E+04 -3.792732E+02  3.877473E+02
        59   8 -1.197848E+04 -3.644919E+03 -3.686167E+03 -4.043493E+03 -2.809890E+02 -5.045473E+02
        59   9 -3.295924E+04 -8.879239E+03 -8.784572E+03 -1.119888E+04 -1.826764E+02 -1.378783E+03
        59  10 -3.430376E+03 -1.513321E+03 -1.489094E+03 -1.120442E+04  1.848460E-10  2.253558E-10
        59  11  1.754877E+04  3.664334E+03  3.332928E+03 -4.049068E+03  4.779179E-11 -3.940576E-10
        59  12  3.849580E+04  8.786250E+03  8.088101E+03 -1.119201E+04 -3.703307E-10  5.119644E-10
        59  13  2.767826E+03  8.362142E+00 -7.885323E+01 -1.119543E+04 -6.711221E-11 -2.517516E-10
        59  14  2.785042E+03  9.715251E+00 -1.766124E+02 -4.046280E+03 -3.337749E-10 -7.552817E-10
        59  15  2.767695E+03 -4.644952E+01 -3.481933E+02 -1.119544E+04 -1.001662E-10  4.652479E-10
        59  16  8.966065E+03  1.530043E+03  1.331385E+03 -1.118644E+04  1.158756E-10  1.984778E-10
        59  17 -1.197848E+04 -3.644919E+03 -3.686168E+03 -4.043493E+03  7.564848E-10 -7.832129E-10
        59  18 -3.295924E+04 -8.879241E+03 -8.784576E+03 -1.119888E+04  4.077642E-10  1.274039E-10
        59  19 -3.430376E+03 -1.513321E+03 -1.489093E+03 -1.120442E+04 -6.157497E+02 -3.874744E+02
        59  20  1.754877E+04  3.664334E+03  3.332929E+03 -4.049068E+03 -6.941112E+02  5.048002E+02
        59  21  3.849580E+04  8.786253E+03  8.088105E+03 -1.119201E+04 -7.725068E+02  1.379019E+03
        59  22  2.767826E+03  8.362307E+00 -7.885292E+01 -1.119543E+04 -1.182407E+02 -3.876108E+02
        59  23  2.785042E+03  9.715536E+00 -1.766119E+02 -4.046280E+03 -2.065554E+02  5.046738E+02
        59  24  2.767695E+03 -4.644745E+01 -3.481895E+02 -1.119544E+04 -2.949016E+02  1.378901E+03
        59  25  8.966065E+03  1.530043E+03  1.331386E+03 -1.118644E+04  3.792732E+02 -3.877473E+02
        59  26 -1.197848E+04 -3.644919E+03 -3.686167E+03 -4.043493E+03  2.809890E+02  5.045473E+02
        59  27 -3.295924E+04 -8.879239E+03 -8.784572E+03 -1.119888E+04  1.826764E+02  1.378783E+03
        60   1  6.403573E+04  1.522079E+04  1.417849E+04 -1.128514E+04  9.239763E+02 -1.935965E+03
        60   2  8.509611E+04  2.043386E+04  1.877787E+04 -4.019342E+03  1.171151E+03 -2.812876E+03
        60   3  1.059704E+05  2.502970E+04  2.306190E+04 -1.104503E+04  1.418512E+03 -3.419584E+03
        60   4  2.727489E+03  3.342378E+01 -4.523118E+02 -1.119391E+04  3.652965E+02 -1.935842E+03
        60   5  2.833358E+03  7.143702E+01 -7.759345E+02 -4.048159E+03  7.615852E+02 -2.812822E+03
        60   6  2.726759E+03 -5.336860E+02 -1.518487E+03 -1.119401E+04  1.158052E+03 -3.419583E+03
        60   7 -5.857730E+04 -1.515421E+04 -1.508338E+04 -1.110270E+04 -1.933284E+02 -1.935719E+03
        60   8 -7.942318E+04 -2.029147E+04 -2.033022E+04 -4.076972E+03  3.520731E+02 -2.812769E+03
        60   9 -1.005071E+05 -2.609785E+04 -2.609962E+04 -1.134296E+04  8.976341E+02 -3.419581E+03
        60  10  6.403572E+04  1.522078E+04  1.417848E+04 -1.128514E+04  9.850732E-10  1.918538E-10
        60  11  8.509610E+04  2.043385E+04  1.877786E+04 -4.019340E+03  3.261326E-10 -3.446009E-10
        60  12  1.059703E+05  2.502969E+04  2.306187E+04 -1.104502E+04 -4.485154E-10 -8.483509E-12
        60  13  2.727488E+03  3.341972E+01 -4.523191E+02 -1.119391E+04  2.098451E-10  4.936799E-10
        60  14  2.833355E+03  7.142837E+01 -7.759504E+02 -4.048158E+03  7.609687E-10 -1.666056E-10
        60  15  2.726754E+03 -5.336989E+02 -1.518512E+03 -1.119400E+04  7.698419E-12  3.063566E-11
        60  16 -5.857730E+04 -1.515422E+04 -1.508338E+04 -1.110270E+04 -6.842511E-10  5.471901E-10
        60  17 -7.942318E+04 -2.029148E+04 -2.033023E+04 -4.076971E+03  1.656676E-10  2.147912E-10
        60  18 -1.005071E+05 -2.609786E+04 -2.609964E+04 -1.134296E+04  4.018946E-12 -3.904255E-11
        60  19  6.403573E+04  1.522079E+04  1.417849E+04 -1.128514E+04 -9.239763E+02  1.935965E+03
        60  20  8.509611E+04  2.043386E+04  1.877787E+04 -4.019342E+03 -1.171151E+03  2.812876E+03
        60  21  1.059704E+05  2.502970E+04  2.306190E+04 -1.104503E+04 -1.418512E+03  3.419584E+03
        60  22  2.727489E+03  3.342378E+01 -4.523118E+02 -1.119391E+04 -3.652965E+02  1.935842E+03
        60  23  2.833358E+03  7.143702E+01 -7.759345E+02 -4.048159E+03 -7.615852E+02  2.812822E+03
        60  24  2.726759E+03 -5.336860E+02 -1.518487E+03 -1.119401E+04 -1.158052E+03  3.419583E+03
        60  25 -5.857730E+04 -1.515421E+04 -1.508338E+04 -1.110270E+04  1.933284E+02  1.935719E+03
        60  26 -7.942318E+04 -2.029147E+04 -2.033022E+04 -4.076972E+03 -3.520731E+02  2.812769E+03
        60  27 -1.005071E+05 -2.609785E+04 -2.609962E+04 -1.134296E+04 -8.976341E+02  3.419581E+03
        61   1  1.312257E+05  3.217986E+04  2.873112E+04 -1.193323E+04  2.917093E+03 -4.492758E+03
        61   2  1.529543E+05  3.773476E+04  3.255368E+04 -3.534864E+03  2.310174E+03 -5.139630E+03
        61   3  1.732433E+05  3.713218E+04  3.523614E+04 -9.319458E+03  1.703168E+03 -1.746240E+03
        61   4  2.366306E+03  2.902752E+02 -1.866760E+03 -1.116985E+04  1.444366E+03 -4.492647E+03
        61   5  3.279287E+03  6.889752E+02 -3.014569E+03 -4.078201E+03  3.067828E+03 -5.139736E+03
        61   6  2.364992E+03 -5.457702E+03 -6.851490E+03 -1.116974E+04  4.691185E+03 -1.746130E+03
        61   7 -1.264779E+05 -3.160050E+04 -3.246579E+04 -1.040664E+04 -2.805630E+01 -4.492539E+03
        61   8 -1.463752E+05 -3.635842E+04 -3.858438E+04 -4.621406E+03  3.825301E+03 -5.139843E+03
        61   9 -1.684868E+05 -4.804974E+04 -4.894124E+04 -1.301951E+04  7.678382E+03 -1.746039E+03
        61  10  1.312257E+05  3.217983E+04  2.873106E+04 -1.193322E+04 -4.787312E-10  1.634717E-10
        61  11  1.529543E+05  3.773473E+04  3.255362E+04 -3.534855E+03 -5.781010E-11 -6.498622E-11
        61  12  1.732433E+05  3.713218E+04  3.523612E+04 -9.319455E+03  2.541419E-10 -2.208961E-11
        61  13  2.366299E+03  2.902530E+02 -1.866802E+03 -1.116985E+04  2.412603E-10  2.746193E-10
        61  14  3.279269E+03  6.889443E+02 -3.014636E+03 -4.078188E+03  5.349313E-10 -6.808356E-11
        61  15  2.364968E+03 -5.457711E+03 -6.851537E+03 -1.116973E+04  4.952859E-11 -6.928990E-11
        61  16 -1.264779E+05 -3.160052E+04 -3.246582E+04 -1.040664E+04  7.342721E-10 -1.905359E-11
        61  17 -1.463752E+05 -3.635845E+04 -3.858445E+04 -4.621390E+03 -5.336632E-10 -6.207443E-11
        61  18 -1.684868E+05 -4.804976E+04 -4.894135E+04 -1.301950E+04  3.023880E-10  1.971025E-11
        61  19  1.312257E+05  3.217986E+04  2.873112E+04 -1.193323E+04 -2.917093E+03  4.492758E+03
        61  20  1.529543E+05  3.773476E+04  3.255368E+04 -3.534864E+03 -2.310174E+03  5.139630E+03
        61  21  1.732433E+05  3.713218E+04  3.523614E+04 -9.319458E+03 -1.703168E+03  1.746240E+03
        61  22  2.366306E+03  2.902752E+02 -1.866760E+03 -1.116985E+04 -1.444366E+03  4.492647E+03
        61  23  3.279287E+03  6.889752E+02 -3.014569E+03 -4.078201E+03 -3.067828E+03  5.139736E+03
        61  24  2.364992E+03 -5.457702E+03 -6.851490E+03 -1.116974E+04 -4.691185E+03  1.746130E+03
        61  25 -1.264779E+05 -3.160050E+04 -3.246579E+04 -1.040664E+04  2.805630E+01  4.492539E+03
        61  26 -1.463752E+05 -3.635842E+04 -3.858438E+04 -4.621406E+03 -3.825301E+03  5.139843E+03
        61  27 -1.684868E+05 -4.804974E+04 -4.894124E+04 -1.301951E+04 -7.678382E+03  1.746039E+03
        62   1  2.478606E+05  8.038170E+05  2.405193E+05 -2.467023E+05  1.025006E+04  6.265605E+04
        62   2  1.710467E+05  5.615985E+05  1.515326E+05 -2.146348E+05  3.067000E+04  1.814668E+04
        62   3  1.106433E+05  3.292194E+05  9.558975E+04 -2.357270E+05  2.755570E+04 -2.637127E+04
        62   4  1.607241E+04 -1.325064E+05  1.767955E+04 -2.357607E+05  1.033231E+04  9.412455E+03
        62   5  3.802429E+03 -1.339677E+05  1.078287E+04 -2.091914E+05  3.069581E+04  3.926862E+03
        62   6  1.186593E+03 -1.324005E+05  9.857834E+03 -2.357832E+05  2.751375E+04 -1.584324E+03
        62   7 -2.157771E+05 -1.068020E+06 -2.052109E+05 -2.248352E+05  1.041276E+04 -4.375131E+04
        62   8 -1.634717E+05 -8.290730E+05 -1.299912E+05 -2.037539E+05  3.072138E+04 -1.027734E+04
        62   9 -1.082820E+05 -5.938126E+05 -7.588078E+04 -2.358393E+05  2.747178E+04  2.318467E+04
        62  10  2.478595E+05  8.038128E+05  2.405117E+05 -2.467028E+05 -1.320271E-10 -6.907196E-12
        62  11  1.710456E+05  5.615979E+05  1.515302E+05 -2.146353E+05 -9.405974E-10 -7.237570E-11
        62  12  1.106423E+05  3.292184E+05  9.558702E+04 -2.357264E+05 -1.492795E-10 -6.269214E-11
        62  13  1.607227E+04 -1.325065E+05  1.767918E+04 -2.357608E+05  6.697380E-10 -1.486866E-11
        62  14  3.801413E+03 -1.339680E+05  1.078107E+04 -2.091915E+05  9.595228E-11  6.596995E-10
        62  15  1.185779E+03 -1.324007E+05  9.856407E+03 -2.357832E+05  1.743319E-10 -3.296789E-10
        62  16 -2.157777E+05 -1.068022E+06 -2.052147E+05 -2.248348E+05 -6.634718E-10  2.180356E-11
        62  17 -1.634727E+05 -8.290733E+05 -1.299931E+05 -2.037537E+05  7.771643E-10 -3.277507E-11
        62  18 -1.082830E+05 -5.938134E+05 -7.588321E+04 -2.358398E+05 -2.913740E-10  5.736622E-10
        62  19  2.478606E+05  8.038170E+05  2.405193E+05 -2.467023E+05 -1.025006E+04 -6.265605E+04
        62  20  1.710467E+05  5.615985E+05  1.515326E+05 -2.146348E+05 -3.067000E+04 -1.814668E+04
        62  21  1.106433E+05  3.292194E+05  9.558975E+04 -2.357270E+05 -2.755570E+04  2.637127E+04
        62  22  1.607241E+04 -1.325064E+05  1.767955E+04 -2.357607E+05 -1.033231E+04 -9.412455E+03
        62  23  3.802429E+03 -1.339677E+05  1.078287E+04 -2.091914E+05 -3.069581E+04 -3.926862E+03
        62  24  1.186593E+03 -1.324005E+05  9.857834E+03 -2.357832E+05 -2.751375E+04  1.584324E+03
        62  25 -2.157771E+05 -1.068020E+06 -2.052109E+05 -2.248352E+05 -1.041276E+04  4.375131E+04
        62  26 -1.634717E+05 -8.290730E+05 -1.299912E+05 -2.037539E+05 -3.072138E+04  1.027734E+04
        62  27 -1.082820E+05 -5.938126E+05 -7.588078E+04 -2.358393E+05 -2.747178E+04 -2.318467E+04
        63   1  7.373344E+04  1.725908E+05  6.728865E+04 -2.375832E+05  1.832548E+04 -2.543333E+04
        63   2  1.744688E+04 -6.543881E+04  2.681565E+04 -2.084700E+05  4.830419E+03 -3.336072E+04
        63   3 -3.485033E+04 -3.015658E+05 -7.550214E+03 -2.339331E+05 -8.941359E+03 -4.128642E+04
        63   4  1.359962E+03 -1.326578E+05  1.068525E+04 -2.360959E+05  1.828622E+04 -3.288455E+03
        63   5  1.451113E+03 -1.335355E+05  1.493163E+04 -2.088043E+05  4.789894E+03 -1.076092E+04
        63   6  5.454826E+03 -1.326463E+05  2.496775E+04 -2.360887E+05 -8.983235E+03 -1.823456E+04
        63   7 -7.101858E+04 -4.378150E+05 -4.592023E+04 -2.346092E+05  1.824705E+04  1.884582E+04
        63   8 -1.454463E+04 -2.016266E+05  3.049369E+03 -2.091385E+05  4.749341E+03  1.183647E+04
        63   9  4.575859E+04  3.630177E+04  5.748639E+04 -2.382448E+05 -9.025264E+03  4.823437E+03
        63  10  7.373290E+04  1.725900E+05  6.728680E+04 -2.375828E+05  5.794942E-10 -8.090049E-10
        63  11  1.744655E+04 -6.544001E+04  2.681351E+04 -2.084699E+05  6.236121E-10 -4.330555E-10
        63  12 -3.485087E+04 -3.015677E+05 -7.553570E+03 -2.339334E+05 -2.100248E-11  1.573294E-10
        63  13  1.359600E+03 -1.326579E+05  1.068460E+04 -2.360958E+05 -5.778899E-10  1.477656E-11
        63  14  1.451057E+03 -1.335356E+05  1.493137E+04 -2.088042E+05 -1.765566E-09  8.232211E-10
        63  15  5.454650E+03 -1.326467E+05  2.496697E+04 -2.360888E+05  3.815239E-11 -2.471133E-10
        63  16 -7.101904E+04 -4.378155E+05 -4.592152E+04 -2.346095E+05 -6.666550E-10  6.694978E-10
        63  17 -1.454469E+04 -2.016267E+05  3.049063E+03 -2.091385E+05 -1.627181E-09 -7.931177E-11
        63  18  4.575849E+04  3.630172E+04  5.748619E+04 -2.382448E+05 -1.967393E-10  5.857449E-10
        63  19  7.373344E+04  1.725908E+05  6.728865E+04 -2.375832E+05 -1.832548E+04  2.543333E+04
        63  20  1.744688E+04 -6.543881E+04  2.681565E+04 -2.084700E+05 -4.830419E+03  3.336072E+04
        63  21 -3.485033E+04 -3.015658E+05 -7.550214E+03 -2.339331E+05  8.941359E+03  4.128642E+04
        63  22  1.359962E+03 -1.326578E+05  1.068525E+04 -2.360959E+05 -1.828622E+04  3.288455E+03
        63  23  1.451113E+03 -1.335355E+05  1.493163E+04 -2.088043E+05 -4.789894E+03  1.076092E+04
        63  24  5.454826E+03 -1.326463E+05  2.496775E+04 -2.360887E+05  8.983235E+03  1.823456E+04
        63  25 -7.101858E+04 -4.378150E+05 -4.592023E+04 -2.346092E+05 -1.824705E+04 -1.884582E+04
        63  26 -1.454463E+04 -2.016266E+05  3.049369E+03 -2.091385E+05 -4.749341E+03 -1.183647E+04
        63  27  4.575859E+04  3.630177E+04  5.748639E+04 -2.382448E+05  9.025264E+03 -4.823437E+03
        64   1 -7.369444E+04 -4.537559E+05 -2.925831E+04 -2.419528E+05 -1.829793E+04 -4.776908E+04
        64   2 -1.115801E+05 -6.977018E+05 -5.702945E+04 -1.787348E+05 -2.341449E+04 -4.380721E+04
        64   3 -9.157296E+04 -9.277446E+05 -7.293701E+04 -1.688764E+05 -8.193808E+03 -3.982191E+04
        64   4  3.609820E+03 -1.286835E+05  3.220782E+04 -2.358360E+05 -1.834320E+04 -2.250517E+04
        64   5  2.332963E+04 -1.385565E+05  5.752284E+04 -2.090835E+05 -2.339663E+04 -5.221417E+04
        64   6  1.067552E+05 -1.287624E+05  1.180751E+05 -2.356743E+05 -8.121673E+03 -8.189881E+04
        64   7  8.090840E+04  1.964923E+05  9.367169E+04 -2.297158E+05 -1.838796E+04  2.771657E+03
        64   8  1.582231E+05  4.208881E+05  1.720593E+05 -2.394599E+05 -2.337795E+04 -6.062855E+04
        64   9  3.050545E+05  6.708188E+05  3.090511E+05 -3.025585E+05 -8.040532E+03 -1.240296E+05
        64  10 -7.369541E+04 -4.537584E+05 -2.926323E+04 -2.419535E+05  7.349279E-10  1.109333E-10
        64  11 -1.115812E+05 -6.977040E+05 -5.703410E+04 -1.787357E+05  1.291934E-09 -2.356503E-10
        64  12 -9.157346E+04 -9.277463E+05 -7.294012E+04 -1.688766E+05  3.847167E-10 -4.988325E-10
        64  13  3.609322E+03 -1.286842E+05  3.220623E+04 -2.358363E+05  2.169131E-10 -1.283501E-10
        64  14  2.332831E+04 -1.385596E+05  5.751669E+04 -2.090845E+05 -1.009951E-09  6.052518E-10
        64  15  1.067533E+05 -1.287696E+05  1.180623E+05 -2.356749E+05  3.552108E-10 -2.355506E-10
        64  16  8.090804E+04  1.964922E+05  9.367104E+04 -2.297157E+05 -3.281973E-10  3.837824E-11
        64  17  1.582216E+05  4.208840E+05  1.720513E+05 -2.394610E+05  5.163010E-10 -2.646113E-10
        64  18  3.050503E+05  6.708023E+05  3.090221E+05 -3.025593E+05  3.871684E-10  1.045605E-09
        64  19 -7.369444E+04 -4.537559E+05 -2.925831E+04 -2.419528E+05  1.829793E+04  4.776908E+04
        64  20 -1.115801E+05 -6.977018E+05 -5.702945E+04 -1.787348E+05  2.341449E+04  4.380721E+04
        64  21 -9.157296E+04 -9.277446E+05 -7.293701E+04 -1.688764E+05  8.193808E+03  3.982191E+04
        64  22  3.609820E+03 -1.286835E+05  3.220782E+04 -2.358360E+05  1.834320E+04  2.250517E+04
        64  23  2.332963E+04 -1.385565E+05  5.752284E+04 -2.090835E+05  2.339663E+04  5.221417E+04
        64  24  1.067552E+05 -1.287624E+05  1.180751E+05 -2.356743E+05  8.121673E+03  8.189881E+04
        64  25  8.090840E+04  1.964923E+05  9.367169E+04 -2.297158E+05  1.838796E+04 -2.771657E+03
        64  26  1.582231E+05  4.208881E+05  1.720593E+05 -2.394599E+05  2.337795E+04  6.062855E+04
        64  27  3.050545E+05  6.708188E+05  3.090511E+05 -3.025585E+05  8.040532E+03  1.240296E+05
        65   1 -8.691808E+05 -3.309586E+05 -1.868090E+05 -2.990527E+05 -5.111951E+04 -5.089946E+03
        65   2 -8.112528E+05 -3.166854E+05 -1.491022E+05 -2.796297E+05 -3.414155E+04  3.407309E+04
        65   3 -7.452907E+05 -3.063558E+05 -1.304051E+05 -2.738099E+05 -9.087154E+03  5.178245E+04
        65   4 -5.013944E+04 -3.476826E+04  2.265576E+04 -8.644917E+04  9.981245E+03  1.788744E+04
        65   5 -5.868282E+04 -4.489166E+04  1.042774E+04 -7.633378E+04 -6.262726E+03  4.454710E+04
        65   6 -5.260810E+04 -5.237862E+04  5.536516E+03 -7.982224E+04 -1.443838E+04  4.976611E+04
        65   7  7.695392E+05  2.614474E+05  2.320759E+05  1.263991E+05  7.116880E+04  4.089470E+04
        65   8  6.944599E+05  2.269418E+05  1.699278E+05  1.271859E+05  2.165239E+04  5.503420E+04
        65   9  6.405812E+05  2.016460E+05  1.414589E+05  1.143690E+05 -1.979608E+04  4.774731E+04
        65  10 -8.691836E+05 -3.309594E+05 -1.868139E+05 -2.990529E+05  1.064733E-09  1.873700E-10
        65  11 -8.112543E+05 -3.166870E+05 -1.491066E+05 -2.796288E+05  1.195623E-09 -2.415969E-10
        65  12 -7.452915E+05 -3.063587E+05 -1.304103E+05 -2.738095E+05  1.036629E-09  4.465262E-10
        65  13 -5.013963E+04 -3.476863E+04  2.265497E+04 -8.644932E+04  3.472098E-10  3.336698E-10
        65  14 -5.868340E+04 -4.489380E+04  1.042394E+04 -7.633355E+04 -1.301168E-09 -5.655738E-12
        65  15 -5.260899E+04 -5.238133E+04  5.531470E+03 -7.982166E+04 -4.883595E-10 -5.166734E-11
        65  16  7.695333E+05  2.614443E+05  2.320632E+05  1.263968E+05 -8.843085E-10 -7.628367E-10
        65  17  6.944586E+05  2.269385E+05  1.699212E+05  1.271849E+05  1.020148E-10 -7.457044E-10
        65  18  6.405802E+05  2.016434E+05  1.414539E+05  1.143698E+05 -1.089571E-09 -1.114209E-09
        65  19 -8.691808E+05 -3.309586E+05 -1.868090E+05 -2.990527E+05  5.111951E+04  5.089946E+03
        65  20 -8.112528E+05 -3.166854E+05 -1.491022E+05 -2.796297E+05  3.414155E+04 -3.407309E+04
        65  21 -7.452907E+05 -3.063558E+05 -1.304051E+05 -2.738099E+05  9.087154E+03 -5.178245E+04
        65  22 -5.013944E+04 -3.476826E+04  2.265576E+04 -8.644917E+04 -9.981245E+03 -1.788744E+04
        65  23 -5.868282E+04 -4.489166E+04  1.042774E+04 -7.633378E+04  6.262726E+03 -4.454710E+04
        65  24 -5.260810E+04 -5.237862E+04  5.536516E+03 -7.982224E+04  1.443838E+04 -4.976611E+04
        65  25  7.695392E+05  2.614474E+05  2.320759E+05  1.263991E+05 -7.116880E+04 -4.089470E+04
        65  26  6.944599E+05  2.269418E+05  1.699278E+05  1.271859E+05 -2.165239E+04 -5.503420E+04
        65  27  6.405812E+05  2.016460E+05  1.414589E+05  1.143690E+05  1.979608E+04 -4.774731E+04
        66   1 -7.075088E+05 -2.904111E+05 -1.233632E+05 -2.621705E+05 -1.240613E+04  4.803431E+04
        66   2 -6.546160E+05 -2.643881E+05 -1.116052E+05 -2.402207E+05 -1.021983E+04  4.656068E+04
        66   3 -5.914824E+05 -2.485952E+05 -1.008627E+05 -2.301591E+05 -7.419951E+03  4.344806E+04
        66   4 -5.304170E+04 -5.219119E+04  4.198398E+03 -8.053840E+04 -1.424772E+04  4.733721E+04
        66   5 -5.844726E+04 -4.766954E+04  2.206922E+03 -7.446063E+04 -1.460048E+04  4.491121E+04
        66   6 -5.311327E+04 -5.287426E+04  1.212202E+03 -8.027122E+04 -1.434010E+04  4.084705E+04
        66   7  6.018696E+05  1.860665E+05  1.317408E+05  1.012709E+05 -1.609141E+04  4.663934E+04
        66   8  5.380889E+05  1.690801E+05  1.160034E+05  9.144638E+04 -1.898561E+04  4.326005E+04
        66   9  4.855533E+05  1.428713E+05  1.032740E+05  6.973607E+04 -2.126662E+04  3.824365E+04
        66  10 -7.075096E+05 -2.904136E+05 -1.233678E+05 -2.621700E+05  1.028323E-08  4.416911E-09
        66  11 -6.546167E+05 -2.643905E+05 -1.116095E+05 -2.402203E+05 -3.198353E-09 -6.643217E-10
        66  12 -5.914830E+05 -2.485973E+05 -1.008664E+05 -2.301589E+05 -1.081885E-08 -6.433353E-09
        66  13 -5.304252E+04 -5.219365E+04  4.193806E+03 -8.053786E+04 -7.428868E-10  5.324576E-10
        66  14 -5.844803E+04 -4.767176E+04  2.202731E+03 -7.446010E+04  1.850783E-09  3.213173E-09
        66  15 -5.311394E+04 -5.287611E+04  1.208680E+03 -8.027075E+04  9.353227E-09  8.550891E-09
        66  16  6.018688E+05  1.860641E+05  1.317362E+05  1.012716E+05 -1.155510E-08 -5.525618E-09
        66  17  5.380880E+05  1.690780E+05  1.159992E+05  9.144704E+04  6.748738E-09 -1.185560E-09
        66  18  4.855524E+05  1.428696E+05  1.032704E+05  6.973673E+04  2.917716E-08  6.627908E-09
        66  19 -7.075088E+05 -2.904111E+05 -1.233632E+05 -2.621705E+05  1.240613E+04 -4.803431E+04
        66  20 -6.546160E+05 -2.643881E+05 -1.116052E+05 -2.402207E+05  1.021983E+04 -4.656068E+04
        66  21 -5.914824E+05 -2.485952E+05 -1.008627E+05 -2.301591E+05  7.419951E+03 -4.344806E+04
        66  22 -5.304170E+04 -5.219119E+04  4.198398E+03 -8.053840E+04  1.424772E+04 -4.733721E+04
        66  23 -5.844726E+04 -4.766954E+04  2.206922E+03 -7.446063E+04  1.460048E+04 -4.491121E+04
        66  24 -5.311327E+04 -5.287426E+04  1.212202E+03 -8.027122E+04  1.434010E+04 -4.084705E+04
        66  25  6.018696E+05  1.860665E+05  1.317408E+05  1.012709E+05  1.609141E+04 -4.663934E+04
        66  26  5.380889E+05  1.690801E+05  1.160034E+05  9.144638E+04  1.898561E+04 -4.326005E+04
        66  27  4.855533E+05  1.428713E+05  1.032740E+05  6.973607E+04  2.126662E+04 -3.824365E+04
        67   1 -5.530314E+05 -2.344347E+05 -9.352418E+04 -2.194209E+05 -6.873559E+03  4.067045E+04
        67   2 -5.003386E+05 -2.081531E+05 -8.295059E+04 -1.973269E+05 -5.284816E+03  3.629418E+04
        67   3 -4.372042E+05 -1.922727E+05 -7.233349E+04 -1.871279E+05 -3.650676E+03  3.179160E+04
        67   4 -5.314495E+04 -5.286349E+04  9.070814E+02 -8.032758E+04 -1.352738E+04  3.817041E+04
        67   5 -5.837050E+04 -4.766563E+04  4.884169E+02 -7.438159E+04 -1.213435E+04  3.372215E+04
        67   6 -5.312131E+04 -5.283058E+04  2.673278E+02 -8.033163E+04 -1.069595E+04  2.914764E+04
        67   7  4.470070E+05  1.287323E+05  9.532967E+04  5.887110E+04 -2.018701E+04  3.566819E+04
        67   8  3.838037E+05  1.128405E+05  8.392029E+04  4.864565E+04 -1.898914E+04  3.114815E+04
        67   9  3.311158E+05  8.662503E+04  7.286239E+04  2.652604E+04 -1.774589E+04  2.650194E+04
        67  10 -5.530319E+05 -2.344365E+05 -9.352738E+04 -2.194207E+05  3.174095E-08  7.090469E-09
        67  11 -5.003390E+05 -2.081545E+05 -8.295312E+04 -1.973268E+05  8.559403E-09 -1.603708E-09
        67  12 -4.372045E+05 -1.922738E+05 -7.233542E+04 -1.871278E+05 -9.546778E-09 -5.396331E-09
        67  13 -5.314554E+04 -5.286510E+04  9.039997E+02 -8.032716E+04  9.453738E-09  8.525713E-09
        67  14 -5.837096E+04 -4.766689E+04  4.860033E+02 -7.438126E+04  2.861542E-09  3.285755E-09
        67  15 -5.312166E+04 -5.283153E+04  2.655163E+02 -8.033138E+04 -2.457493E-11  3.836581E-10
        67  16  4.470063E+05  1.287309E+05  9.532651E+04  5.887167E+04 -1.293558E-08 -7.509020E-09
        67  17  3.838031E+05  1.128394E+05  8.391779E+04  4.864612E+04 -4.295132E-09 -1.639830E-09
        67  18  3.311153E+05  8.662419E+04  7.286048E+04  2.652642E+04  8.676146E-09  3.828012E-09
        67  19 -5.530314E+05 -2.344347E+05 -9.352418E+04 -2.194209E+05  6.873559E+03 -4.067045E+04
        67  20 -5.003386E+05 -2.081531E+05 -8.295059E+04 -1.973269E+05  5.284816E+03 -3.629418E+04
        67  21 -4.372042E+05 -1.922727E+05 -7.233349E+04 -1.871279E+05  3.650676E+03 -3.179160E+04
        67  22 -5.314495E+04 -5.286349E+04  9.070814E+02 -8.032758E+04  1.352738E+04 -3.817041E+04
        67  23 -5.837050E+04 -4.766563E+04  4.884169E+02 -7.438159E+04  1.213435E+04 -3.372215E+04
        67  24 -5.312131E+04 -5.283058E+04  2.673278E+02 -8.033163E+04  1.069595E+04 -2.914764E+04
        67  25  4.470070E+05  1.287323E+05  9.532967E+04  5.887110E+04  2.018701E+04 -3.566819E+04
        67  26  3.838037E+05  1.128405E+05  8.392029E+04  4.864565E+04  1.898914E+04 -3.114815E+04
        67  27  3.311158E+05  8.662503E+04  7.286239E+04  2.652604E+04  1.774589E+04 -2.650194E+04
        68   1 -3.987051E+05 -1.782204E+05 -6.481745E+04 -1.764383E+05 -2.715013E+03  2.912238E+04
        68   2 -3.459538E+05 -1.519771E+05 -5.413311E+04 -1.543454E+05 -1.043162E+03  2.457165E+04
        68   3 -2.827751E+05 -1.361356E+05 -4.342153E+04 -1.441688E+05  6.311093E+02  2.001084E+04
        68   4 -5.312333E+04 -5.282369E+04  1.952920E+02 -8.033918E+04 -9.741222E+03  2.648632E+04
        68   5 -5.832927E+04 -4.760630E+04  9.328988E+01 -7.438492E+04 -8.085023E+03  2.193072E+04
        68   6 -5.310817E+04 -5.278798E+04  3.057391E+01 -8.034815E+04 -6.426395E+03  1.736502E+04
        68   7  2.925801E+05  7.258280E+04  6.520260E+04  1.580884E+04 -1.677155E+04  2.384872E+04
        68   8  2.293817E+05  5.677205E+04  5.431656E+04  5.610028E+03 -1.513037E+04  1.928848E+04
        68   9  1.766160E+05  3.056528E+04  4.348131E+04 -1.650500E+04 -1.348676E+04  1.471812E+04
        68  10 -3.987053E+05 -1.782213E+05 -6.481906E+04 -1.764383E+05  1.085859E-08  2.771274E-09
        68  11 -3.459540E+05 -1.519777E+05 -5.413425E+04 -1.543454E+05  9.562289E-10 -3.072663E-09
        68  12 -2.827753E+05 -1.361361E+05 -4.342229E+04 -1.441688E+05 -1.754323E-08 -1.084233E-08
        68  13 -5.312362E+04 -5.282447E+04  1.937954E+02 -8.033897E+04  1.623693E-10  1.114597E-09
        68  14 -5.832947E+04 -4.760683E+04  9.226328E+01 -7.438478E+04 -2.609777E-09  3.320925E-09
        68  15 -5.310830E+04 -5.278831E+04  2.992967E+01 -8.034806E+04 -1.210691E-08  2.385058E-09
        68  16  2.925796E+05  7.258211E+04  6.520100E+04  1.580917E+04 -8.986058E-09 -2.699855E-09
        68  17  2.293814E+05  5.677159E+04  5.431543E+04  5.610263E+03 -4.940993E-10 -1.629015E-10
        68  18  1.766157E+05  3.056500E+04  4.348056E+04 -1.650484E+04  1.230894E-09 -2.036994E-09
        68  19 -3.987051E+05 -1.782204E+05 -6.481745E+04 -1.764383E+05  2.715013E+03 -2.912238E+04
        68  20 -3.459538E+05 -1.519771E+05 -5.413311E+04 -1.543454E+05  1.043162E+03 -2.457165E+04
        68  21 -2.827751E+05 -1.361356E+05 -4.342153E+04 -1.441688E+05 -6.311093E+02 -2.001084E+04
        68  22 -5.312333E+04 -5.282369E+04  1.952920E+02 -8.033918E+04  9.741222E+03 -2.648632E+04
        68  23 -5.832927E+04 -4.760630E+04  9.328988E+01 -7.438492E+04  8.085023E+03 -2.193072E+04
        68  24 -5.310817E+04 -5.278798E+04  3.057391E+01 -8.034815E+04  6.426395E+03 -1.736502E+04
        68  25  2.925801E+05  7.258280E+04  6.520260E+04  1.580884E+04  1.677155E+04 -2.384872E+04
        68  26  2.293817E+05  5.677205E+04  5.431656E+04  5.610028E+03  1.513037E+04 -1.928848E+04
        68  27  1.766160E+05  3.056528E+04  4.348131E+04 -1.650500E+04  1.348676E+04 -1.471812E+04
        69   1 -2.442472E+05 -1.220977E+05 -3.586272E+04 -1.334857E+05  1.621747E+03  1.735896E+04
        69   2 -1.914539E+05 -9.587555E+04 -2.514570E+04 -1.113974E+05  3.349382E+03  1.281555E+04
        69   3 -1.282501E+05 -8.005636E+04 -1.444308E+04 -1.012362E+05  5.075024E+03  8.275616E+03
        69   4 -5.310807E+04 -5.278385E+04  3.406444E+00 -8.035070E+04 -5.435842E+03  1.471352E+04
        69   5 -5.830698E+04 -4.757261E+04 -5.386004E+01 -7.438890E+04 -3.702932E+03  1.017255E+04
        69   6 -5.310016E+04 -5.276547E+04 -1.298895E+02 -8.035527E+04 -1.972021E+03  5.635067E+03
        69   7  1.380693E+05  1.653336E+04  3.586827E+04 -2.720045E+04 -1.249575E+04  1.206722E+04
        69   8  7.485787E+04  7.317404E+02  2.503730E+04 -3.737315E+04 -1.075683E+04  7.528958E+03
        69   9  2.205504E+04 -2.547428E+04  1.418308E+04 -5.947212E+04 -9.019914E+03  2.994199E+03
        69  10 -2.442473E+05 -1.220980E+05 -3.586329E+04 -1.334858E+05  1.431924E-10 -2.741562E-09
        69  11 -1.914539E+05 -9.587573E+04 -2.514603E+04 -1.113975E+05 -1.366101E-09 -2.664793E-10
        69  12 -1.282501E+05 -8.005645E+04 -1.444325E+04 -1.012363E+05 -8.967782E-09 -3.736227E-09
        69  13 -5.310816E+04 -5.278409E+04  2.944116E+00 -8.035064E+04 -1.234742E-08  2.630818E-09
        69  14 -5.830702E+04 -4.757272E+04 -5.408026E+01 -7.438887E+04 -2.475092E-09  3.501571E-09
        69  15 -5.310017E+04 -5.276550E+04 -1.299565E+02 -8.035526E+04  1.015738E-09  5.257251E-10
        69  16  1.380691E+05  1.653316E+04  3.586771E+04 -2.720033E+04 -1.633906E-08 -9.653865E-09
        69  17  7.485773E+04  7.316485E+02  2.503698E+04 -3.737308E+04  1.866901E-09 -2.636571E-09
        69  18  2.205495E+04 -2.547432E+04  1.418291E+04 -5.947210E+04  1.109554E-08  2.899390E-09
        69  19 -2.442472E+05 -1.220977E+05 -3.586272E+04 -1.334857E+05 -1.621747E+03 -1.735896E+04
        69  20 -1.914539E+05 -9.587555E+04 -2.514570E+04 -1.113974E+05 -3.349382E+03 -1.281555E+04
        69  21 -1.282501E+05 -8.005636E+04 -1.444308E+04 -1.012362E+05 -5.075024E+03 -8.275616E+03
        69  22 -5.310807E+04 -5.278385E+04  3.406444E+00 -8.035070E+04  5.435842E+03 -1.471352E+04
        69  23 -5.830698E+04 -4.757261E+04 -5.386004E+01 -7.438890E+04  3.702932E+03 -1.017255E+04
        69  24 -5.310016E+04 -5.276547E+04 -1.298895E+02 -8.035527E+04  1.972021E+03 -5.635067E+03
        69  25  1.380693E+05  1.653336E+04  3.586827E+04 -2.720045E+04  1.249575E+04 -1.206722E+04
        69  26  7.485787E+04  7.317404E+02  2.503730E+04 -3.737315E+04  1.075683E+04 -7.528958E+03
        69  27  2.205504E+04 -2.547428E+04  1.418308E+04 -5.947212E+04  9.019914E+03 -2.994199E+03
        70   1 -8.970364E+04 -6.602302E+04 -6.906344E+03 -9.055632E+04  6.104107E+03  5.639154E+03
        70   2 -3.688662E+04 -3.980878E+04  3.737109E+03 -6.847067E+04  7.876134E+03  1.146939E+03
        70   3  2.632725E+04 -2.399772E+04  1.432314E+04 -5.831326E+04  9.625166E+03 -3.283761E+03
        70   4 -5.310587E+04 -5.276324E+04 -1.825579E+02 -8.035783E+04 -9.532199E+02  2.994866E+03
        70   5 -5.829362E+04 -4.755779E+04 -3.460261E+02 -7.439067E+04  9.137688E+02 -1.461860E+03
        70   6 -5.310816E+04 -5.277529E+04 -6.427021E+02 -8.035359E+04  2.757749E+03 -5.857057E+03
        70   7 -1.650624E+04 -3.950317E+04  6.541486E+03 -7.015867E+04 -8.011055E+03  3.503876E+02
        70   8 -7.970013E+04 -5.530675E+04 -4.429002E+03 -8.031047E+04 -6.048373E+03 -4.070575E+03
        70   9 -1.325369E+05 -8.155227E+04 -1.560861E+04 -1.023913E+05 -4.108731E+03 -8.430004E+03
        70  10 -8.970369E+04 -6.602306E+04 -6.906474E+03 -9.055634E+04 -2.386717E-09 -1.412583E-09
        70  11 -3.688669E+04 -3.980879E+04  3.736990E+03 -6.847068E+04 -5.352565E-11 -8.499440E-10
        70  12  2.632715E+04 -2.399775E+04  1.432295E+04 -5.831324E+04 -4.227839E-11 -9.360021E-10
        70  13 -5.310587E+04 -5.276325E+04 -1.825765E+02 -8.035783E+04  2.048584E-10 -5.547301E-10
        70  14 -5.829362E+04 -4.755779E+04 -3.460317E+02 -7.439067E+04  4.349413E-10 -1.016360E-09
        70  15 -5.310818E+04 -5.277533E+04 -6.427808E+02 -8.035358E+04 -5.434632E-10 -3.507133E-10
        70  16 -1.650631E+04 -3.950319E+04  6.541365E+03 -7.015866E+04  2.077093E-09  4.502148E-10
        70  17 -7.970017E+04 -5.530678E+04 -4.429102E+03 -8.031049E+04  1.010745E-09  1.863794E-10
        70  18 -1.325370E+05 -8.155235E+04 -1.560877E+04 -1.023913E+05  4.635673E-10 -3.555587E-10
        70  19 -8.970364E+04 -6.602302E+04 -6.906344E+03 -9.055632E+04 -6.104107E+03 -5.639154E+03
        70  20 -3.688662E+04 -3.980878E+04  3.737109E+03 -6.847067E+04 -7.876134E+03 -1.146939E+03
        70  21  2.632725E+04 -2.399772E+04  1.432314E+04 -5.831326E+04 -9.625166E+03  3.283761E+03
        70  22 -5.310587E+04 -5.276324E+04 -1.825579E+02 -8.035783E+04  9.532199E+02 -2.994866E+03
        70  23 -5.829362E+04 -4.755779E+04 -3.460261E+02 -7.439067E+04 -9.137688E+02  1.461860E+03
        70  24 -5.310816E+04 -5.277529E+04 -6.427021E+02 -8.035359E+04 -2.757749E+03  5.857057E+03
        70  25 -1.650624E+04 -3.950317E+04  6.541486E+03 -7.015867E+04  8.011055E+03 -3.503876E+02
        70  26 -7.970013E+04 -5.530675E+04 -4.429002E+03 -8.031047E+04  6.048373E+03  4.070575E+03
        70  27 -1.325369E+05 -8.155227E+04 -1.560861E+04 -1.023913E+05  4.108731E+03  8.430004E+03
        71   1  6.491611E+04 -9.972552E+03  2.172416E+04 -4.768034E+04  1.086390E+04 -5.823281E+03
        71   2  1.176224E+05  1.631174E+04  3.225957E+04 -2.547599E+04  1.194683E+04 -1.010529E+04
        71   3  1.806963E+05  3.207166E+04  4.308907E+04 -1.508279E+04  1.272801E+04 -1.358088E+04
        71   4 -5.315345E+04 -5.275525E+04 -8.582104E+02 -8.036498E+04  3.864375E+03 -8.446269E+03
        71   5 -5.825326E+04 -4.764154E+04 -1.573465E+03 -7.435796E+04  6.197297E+03 -1.226040E+04
        71   6 -5.323620E+04 -5.330011E+04 -2.984688E+03 -8.016351E+04  8.228469E+03 -1.526797E+04
        71   7 -1.712073E+05 -9.553626E+04 -2.344066E+04 -1.130435E+05 -3.133666E+03 -1.106870E+04
        71   8 -2.340967E+05 -1.115920E+05 -3.540769E+04 -1.232271E+05  4.495052E+02 -1.441485E+04
        71   9 -2.871142E+05 -1.386678E+05 -4.906146E+04 -1.452221E+05  3.730707E+03 -1.695440E+04
        71  10  6.491597E+04 -9.972620E+03  2.172387E+04 -4.768029E+04 -1.244253E-09 -6.062152E-10
        71  11  1.176222E+05  1.631160E+04  3.225911E+04 -2.547590E+04 -4.754597E-10 -3.173327E-10
        71  12  1.806961E+05  3.207142E+04  4.308842E+04 -1.508265E+04  6.830593E-10 -3.139585E-11
        71  13 -5.315348E+04 -5.275533E+04 -8.583725E+02 -8.036495E+04  4.721082E-10 -4.170459E-10
        71  14 -5.825334E+04 -4.764171E+04 -1.573820E+03 -7.435790E+04 -1.226733E-10 -2.376944E-10
        71  15 -5.323634E+04 -5.330038E+04 -2.985254E+03 -8.016341E+04  7.814771E-10 -3.991910E-10
        71  16 -1.712074E+05 -9.553640E+04 -2.344091E+04 -1.130436E+05  1.043652E-09 -1.007621E-10
        71  17 -2.340967E+05 -1.115922E+05 -3.540808E+04 -1.232271E+05 -1.810406E-10 -3.248144E-10
        71  18 -2.871143E+05 -1.386681E+05 -4.906203E+04 -1.452220E+05 -2.234994E-10 -4.004764E-10
        71  19  6.491611E+04 -9.972552E+03  2.172416E+04 -4.768034E+04 -1.086390E+04  5.823281E+03
        71  20  1.176224E+05  1.631174E+04  3.225957E+04 -2.547599E+04 -1.194683E+04  1.010529E+04
        71  21  1.806963E+05  3.207166E+04  4.308907E+04 -1.508279E+04 -1.272801E+04  1.358088E+04
        71  22 -5.315345E+04 -5.275525E+04 -8.582104E+02 -8.036498E+04 -3.864375E+03  8.446269E+03
        71  23 -5.825326E+04 -4.764154E+04 -1.573465E+03 -7.435796E+04 -6.197297E+03  1.226040E+04
        71  24 -5.323620E+04 -5.330011E+04 -2.984688E+03 -8.016351E+04 -8.228469E+03  1.526797E+04
        71  25 -1.712073E+05 -9.553626E+04 -2.344066E+04 -1.130435E+05  3.133666E+03  1.106870E+04
        71  26 -2.340967E+05 -1.115920E+05 -3.540769E+04 -1.232271E+05 -4.495052E+02  1.441485E+04
        71  27 -2.871142E+05 -1.386678E+05 -4.906146E+04 -1.452221E+05 -3.730707E+03  1.695440E+04
        72   1  2.200352E+05  4.586013E+04  5.012073E+04 -5.458947E+03  1.581797E+04 -1.518975E+04
        72   2  2.695762E+05  7.366599E+04  6.371375E+04  2.054161E+04  2.852559E+03 -1.860826E+04
        72   3  3.285932E+05  8.640372E+04  8.509036E+04  3.731160E+04 -1.407579E+04 -1.146698E+04
        72   4 -5.381477E+04 -5.291910E+04 -3.934257E+03 -8.036327E+04  9.586956E+03 -1.752625E+04
        72   5 -5.781799E+04 -5.002214E+04 -7.425563E+03 -7.340357E+04  1.300227E+04 -1.480379E+04
        72   6 -5.559267E+04 -6.544015E+04 -1.610741E+04 -7.567673E+04  1.245501E+04 -1.518175E+03
        72   7 -3.275886E+05 -1.516927E+05 -5.799297E+04 -1.552376E+05  3.358862E+03 -1.986169E+04
        72   8 -3.850980E+05 -1.736980E+05 -7.856940E+04 -1.673012E+05  2.314606E+04 -1.100168E+04
        72   9 -4.396200E+05 -2.172644E+05 -1.173111E+05 -1.885959E+05  3.896690E+04  8.422687E+03
        72  10  2.200348E+05  4.585981E+04  5.011983E+04 -5.458753E+03 -3.649054E-10 -1.552819E-10
        72  11  2.695761E+05  7.366561E+04  6.371309E+04  2.054165E+04 -9.969429E-10 -1.532635E-10
        72  12  3.285930E+05  8.640352E+04  8.508975E+04  3.731147E+04 -2.968317E-10 -3.860289E-11
        72  13 -5.381495E+04 -5.291946E+04 -3.935007E+03 -8.036313E+04  9.242449E-10  8.117679E-11
        72  14 -5.781823E+04 -5.002242E+04 -7.426292E+03 -7.340341E+04 -1.140556E-10  6.235185E-11
        72  15 -5.559284E+04 -6.544019E+04 -1.610770E+04 -7.567671E+04 -5.126973E-10 -1.341437E-11
        72  16 -3.275888E+05 -1.516931E+05 -5.799373E+04 -1.552375E+05  1.406556E-10 -8.051769E-11
        72  17 -3.850986E+05 -1.736983E+05 -7.857064E+04 -1.673010E+05 -2.280502E-10  8.873898E-11
        72  18 -4.396216E+05 -2.172649E+05 -1.173141E+05 -1.885962E+05 -2.002680E-10  4.567703E-11
        72  19  2.200352E+05  4.586013E+04  5.012073E+04 -5.458947E+03 -1.581797E+04  1.518975E+04
        72  20  2.695762E+05  7.366599E+04  6.371375E+04  2.054161E+04 -2.852559E+03  1.860826E+04
        72  21  3.285932E+05  8.640372E+04  8.509036E+04  3.731160E+04  1.407579E+04  1.146698E+04
        72  22 -5.381477E+04 -5.291910E+04 -3.934257E+03 -8.036327E+04 -9.586956E+03  1.752625E+04
        72  23 -5.781799E+04 -5.002214E+04 -7.425563E+03 -7.340357E+04 -1.300227E+04  1.480379E+04
        72  24 -5.559267E+04 -6.544015E+04 -1.610741E+04 -7.567673E+04 -1.245501E+04  1.518175E+03
        72  25 -3.275886E+05 -1.516927E+05 -5.799297E+04 -1.552376E+05 -3.358862E+03  1.986169E+04
        72  26 -3.850980E+05 -1.736980E+05 -7.856940E+04 -1.673012E+05 -2.314606E+04  1.100168E+04
        72  27 -4.396200E+05 -2.172644E+05 -1.173111E+05 -1.885959E+05 -3.896690E+04 -8.422687E+03
        73   1 -4.811492E+04 -2.330338E+04 -2.056314E+04 -1.736020E+04 -4.125255E+03  1.662312E+03
        73   2 -3.008292E+04 -2.473632E+04 -1.584242E+04 -1.970622E+04 -3.576622E+02  5.521716E+03
        73   3 -1.167706E+04 -2.271938E+04 -1.271209E+04 -2.474210E+04  3.410406E+03  6.508467E+03
        73   4  9.313351E+04  1.148717E+04  1.215014E+04 -2.518423E+04  8.584323E+03  1.662954E+03
        73   5  9.234954E+04  4.144825E+03  6.136862E+03 -2.383920E+04  5.457873E+03  5.521820E+03
        73   6  9.313545E+04  1.448706E+03  3.320442E+03 -2.518389E+04  2.331700E+03  6.508340E+03
        73   7  2.344009E+05  4.627663E+04  4.486272E+04 -3.301005E+04  2.129677E+04  1.663275E+03
        73   8  2.147967E+05  3.302522E+04  2.811571E+04 -2.797302E+04  1.127452E+04  5.521847E+03
        73   9  1.979589E+05  2.561627E+04  1.935274E+04 -2.562576E+04  1.252819E+03  6.508215E+03
        73  10 -4.811494E+04 -2.330339E+04 -2.056318E+04 -1.736020E+04  6.660112E-08  3.168182E-10
        73  11 -3.008292E+04 -2.473635E+04 -1.584248E+04 -1.970622E+04 -1.218512E-09  8.359937E-10
        73  12 -1.167708E+04 -2.271943E+04 -1.271220E+04 -2.474212E+04 -6.999771E-08  4.459178E-10
        73  13  9.313343E+04  1.148714E+04  1.214999E+04 -2.518424E+04  3.069054E-10  3.753999E-10
        73  14  9.234950E+04  4.144784E+03  6.136749E+03 -2.383922E+04  4.424609E-11  9.017704E-10
        73  15  9.313543E+04  1.448659E+03  3.320352E+03 -2.518391E+04  4.374860E-10  5.682183E-10
        73  16  2.344004E+05  4.627650E+04  4.486186E+04 -3.301008E+04 -6.637321E-08  3.954416E-10
        73  17  2.147966E+05  3.302515E+04  2.811541E+04 -2.797307E+04  1.560403E-09  9.936576E-10
        73  18  1.979589E+05  2.561622E+04  1.935266E+04 -2.562577E+04  6.997096E-08  8.139255E-10
        73  19 -4.811492E+04 -2.330338E+04 -2.056314E+04 -1.736020E+04  4.125255E+03 -1.662312E+03
        73  20 -3.008292E+04 -2.473632E+04 -1.584242E+04 -1.970622E+04  3.576622E+02 -5.521716E+03
        73  21 -1.167706E+04 -2.271938E+04 -1.271209E+04 -2.474210E+04 -3.410406E+03 -6.508467E+03
        73  22  9.313351E+04  1.148717E+04  1.215014E+04 -2.518423E+04 -8.584323E+03 -1.662954E+03
        73  23  9.234954E+04  4.144825E+03  6.136862E+03 -2.383920E+04 -5.457873E+03 -5.521820E+03
        73  24  9.313545E+04  1.448706E+03  3.320442E+03 -2.518389E+04 -2.331700E+03 -6.508340E+03
        73  25  2.344009E+05  4.627663E+04  4.486272E+04 -3.301005E+04 -2.129677E+04 -1.663275E+03
        73  26  2.147967E+05  3.302522E+04  2.811571E+04 -2.797302E+04 -1.127452E+04 -5.521847E+03
        73  27  1.979589E+05  2.561627E+04  1.935274E+04 -2.562576E+04 -1.252819E+03 -6.508215E+03
        74   1 -5.517102E+02 -2.038149E+04 -1.131587E+04 -2.461291E+04  3.207009E+03  6.113923E+03
        74   2  1.762539E+04 -1.675181E+04 -9.041256E+03 -2.347794E+04  3.469868E+03  5.374994E+03
        74   3  3.584621E+04 -1.281451E+04 -6.860672E+03 -2.524729E+04  3.732715E+03  4.247775E+03
        74   4  9.283257E+04  1.052799E+03  2.476019E+03 -2.523164E+04  1.899740E+03  6.113817E+03
        74   5  9.273050E+04  3.436332E+02  1.335408E+03 -2.377948E+04  1.230601E+03  5.374924E+03
        74   6  9.283356E+04  1.038543E+02  7.478964E+02 -2.523163E+04  5.614436E+02  4.247766E+03
        74   7  1.862256E+05  2.248668E+04  1.626776E+04 -2.585045E+04  5.922826E+02  6.113714E+03
        74   8  1.678413E+05  1.743883E+04  1.171203E+04 -2.408107E+04 -1.008924E+03  5.374856E+03
        74   9  1.498243E+05  1.302209E+04  8.356476E+03 -2.521597E+04 -2.610106E+03  4.247757E+03
        74  10 -5.517313E+02 -2.038153E+04 -1.131596E+04 -2.461293E+04 -1.563117E-09  1.407693E-11
        74  11  1.762537E+04 -1.675184E+04 -9.041333E+03 -2.347795E+04 -7.209535E-10 -4.735124E-10
        74  12  3.584619E+04 -1.281454E+04 -6.860732E+03 -2.524730E+04 -1.465415E-09 -7.959788E-10
        74  13  9.283256E+04  1.052758E+03  2.475942E+03 -2.523164E+04  2.984262E-10  2.096521E-10
        74  14  9.273049E+04  3.436017E+02  1.335351E+03 -2.377949E+04  3.249080E-10 -3.527601E-10
        74  15  9.283356E+04  1.038348E+02  7.478619E+02 -2.523164E+04 -3.015567E-10 -6.322237E-10
        74  16  1.862256E+05  2.248664E+04  1.626769E+04 -2.585046E+04  1.844668E-09  3.149251E-10
        74  17  1.678413E+05  1.743880E+04  1.171197E+04 -2.408107E+04  2.004194E-09 -2.804640E-10
        74  18  1.498242E+05  1.302207E+04  8.356429E+03 -2.521596E+04  1.285818E-09 -4.477495E-10
        74  19 -5.517102E+02 -2.038149E+04 -1.131587E+04 -2.461291E+04 -3.207009E+03 -6.113923E+03
        74  20  1.762539E+04 -1.675181E+04 -9.041256E+03 -2.347794E+04 -3.469868E+03 -5.374994E+03
        74  21  3.584621E+04 -1.281451E+04 -6.860672E+03 -2.524729E+04 -3.732715E+03 -4.247775E+03
        74  22  9.283257E+04  1.052799E+03  2.476019E+03 -2.523164E+04 -1.899740E+03 -6.113817E+03
        74  23  9.273050E+04  3.436332E+02  1.335408E+03 -2.377948E+04 -1.230601E+03 -5.374924E+03
        74  24  9.283356E+04  1.038543E+02  7.478964E+02 -2.523163E+04 -5.614436E+02 -4.247766E+03
        74  25  1.862256E+05  2.248668E+04  1.626776E+04 -2.585045E+04 -5.922826E+02 -6.113714E+03
        74  26  1.678413E+05  1.743883E+04  1.171203E+04 -2.408107E+04  1.008924E+03 -5.374856E+03
        74  27  1.498243E+05  1.302209E+04  8.356476E+03 -2.521597E+04  2.610106E+03 -4.247757E+03
        75   1  4.705713E+04 -1.027955E+04 -5.462737E+03 -2.522345E+04  3.653624E+03  3.460813E+03
        75   2  6.524789E+04 -6.212459E+03 -3.285139E+03 -2.377274E+04  3.622692E+03  2.100525E+03
        75   3  8.344880E+04 -2.122446E+03 -1.081641E+03 -2.525515E+04  3.591743E+03  6.879492E+02
        75   4  9.279528E+04  7.256001E+01  5.632653E+02 -2.523804E+04  4.514781E+02  3.460831E+03
        75   5  9.277952E+04  1.339434E+01  3.149605E+02 -2.377148E+04  2.950149E+02  2.100569E+03
        75   6  9.279563E+04 -9.830178E-01  1.797710E+02 -2.523804E+04  1.385366E+02  6.880206E+02
        75   7  1.385356E+05  1.042459E+04  6.589292E+03 -2.525263E+04 -2.750893E+03  3.460849E+03
        75   8  1.203119E+05  6.239222E+03  3.915097E+03 -2.377023E+04 -3.032803E+03  2.100613E+03
        75   9  1.021426E+05  2.120483E+03  1.441227E+03 -2.522093E+04 -3.314719E+03  6.880918E+02
        75  10  4.705711E+04 -1.027957E+04 -5.462785E+03 -2.522346E+04 -1.174323E-09 -7.899657E-10
        75  11  6.524787E+04 -6.212467E+03 -3.285172E+03 -2.377275E+04 -6.236189E-10 -5.791051E-10
        75  12  8.344878E+04 -2.122450E+03 -1.081666E+03 -2.525515E+04 -7.639943E-10 -3.623363E-10
        75  13  9.279527E+04  7.254709E+01  5.632424E+02 -2.523804E+04  2.368260E-10 -6.725220E-10
        75  14  9.277952E+04  1.338958E+01  3.149520E+02 -2.377148E+04  8.110237E-10 -6.865677E-10
        75  15  9.279563E+04 -9.835313E-01  1.797701E+02 -2.523804E+04  2.744712E-10 -5.372886E-10
        75  16  1.385356E+05  1.042457E+04  6.589255E+03 -2.525262E+04  1.139110E-09 -5.472846E-10
        75  17  1.203119E+05  6.239215E+03  3.915072E+03 -2.377022E+04  7.669227E-10 -8.065971E-10
        75  18  1.021426E+05  2.120479E+03  1.441205E+03 -2.522093E+04  4.824608E-10 -7.062311E-10
        75  19  4.705713E+04 -1.027955E+04 -5.462737E+03 -2.522345E+04 -3.653624E+03 -3.460813E+03
        75  20  6.524789E+04 -6.212459E+03 -3.285139E+03 -2.377274E+04 -3.622692E+03 -2.100525E+03
        75  21  8.344880E+04 -2.122446E+03 -1.081641E+03 -2.525515E+04 -3.591743E+03 -6.879492E+02
        75  22  9.279528E+04  7.256001E+01  5.632653E+02 -2.523804E+04 -4.514781E+02 -3.460831E+03
        75  23  9.277952E+04  1.339434E+01  3.149605E+02 -2.377148E+04 -2.950149E+02 -2.100569E+03
        75  24  9.279563E+04 -9.830178E-01  1.797710E+02 -2.523804E+04 -1.385366E+02 -6.880206E+02
        75  25  1.385356E+05  1.042459E+04  6.589292E+03 -2.525263E+04  2.750893E+03 -3.460849E+03
        75  26  1.203119E+05  6.239222E+03  3.915097E+03 -2.377023E+04  3.032803E+03 -2.100613E+03
        75  27  1.021426E+05  2.120483E+03  1.441227E+03 -2.522093E+04  3.314719E+03 -6.880918E+02
        76   1  9.466883E+04  4.204573E+02  3.688639E+02 -2.524998E+04  3.567869E+03 -1.518255E+02
        76   2  1.128626E+05  4.515386E+03  2.604446E+03 -2.377868E+04  3.542657E+03 -1.594973E+03
        76   3  1.310609E+05  8.611580E+03  4.856913E+03 -2.524433E+04  3.517459E+03 -3.043688E+03
        76   4  9.278994E+04 -1.792130E+00  1.362816E+02 -2.523889E+04  1.105785E+02 -1.517520E+02
        76   5  9.278672E+04 -4.573986E+00  7.810406E+01 -2.377042E+04  7.192516E+01 -1.594918E+03
        76   6  9.278969E+04 -3.828114E+00  4.602222E+01 -2.523890E+04  3.328658E+01 -3.043652E+03
        76   7  9.091108E+04 -4.240353E+02 -9.625588E+01 -2.522781E+04 -3.346702E+03 -1.516787E+02
        76   8  7.271128E+04 -4.524544E+03 -2.448194E+03 -2.376215E+04 -3.398700E+03 -1.594863E+03
        76   9  5.452004E+04 -8.619289E+03 -4.764826E+03 -2.523346E+04 -3.450681E+03 -3.043616E+03
        76  10  9.466881E+04  4.204539E+02  3.688399E+02 -2.524998E+04  9.718251E-11 -2.535131E-10
        76  11  1.128626E+05  4.515380E+03  2.604418E+03 -2.377868E+04  1.263047E-10 -1.414405E-10
        76  12  1.310609E+05  8.611567E+03  4.856872E+03 -2.524432E+04 -6.414430E-10 -1.139308E-10
        76  13  9.278994E+04 -1.792158E+00  1.362815E+02 -2.523889E+04  7.376626E-12 -4.064525E-10
        76  14  9.278672E+04 -4.576719E+00  7.809927E+01 -2.377042E+04 -1.368467E-11 -2.249599E-10
        76  15  9.278969E+04 -3.838063E+00  4.600481E+01 -2.523890E+04  3.057250E-10 -3.748639E-11
        76  16  9.091107E+04 -4.240383E+02 -9.627697E+01 -2.522781E+04  3.356376E-10 -5.588562E-10
        76  17  7.271127E+04 -4.524550E+03 -2.448220E+03 -2.376216E+04 -5.181812E-10 -3.182983E-10
        76  18  5.452003E+04 -8.619302E+03 -4.764866E+03 -2.523347E+04  9.673073E-10  2.706944E-11
        76  19  9.466883E+04  4.204573E+02  3.688639E+02 -2.524998E+04 -3.567869E+03  1.518255E+02
        76  20  1.128626E+05  4.515386E+03  2.604446E+03 -2.377868E+04 -3.542657E+03  1.594973E+03
        76  21  1.310609E+05  8.611580E+03  4.856913E+03 -2.524433E+04 -3.517459E+03  3.043688E+03
        76  22  9.278994E+04 -1.792130E+00  1.362816E+02 -2.523889E+04 -1.105785E+02  1.517520E+02
        76  23  9.278672E+04 -4.573986E+00  7.810406E+01 -2.377042E+04 -7.192516E+01  1.594918E+03
        76  24  9.278969E+04 -3.828114E+00  4.602222E+01 -2.523890E+04 -3.328658E+01  3.043652E+03
        76  25  9.091108E+04 -4.240353E+02 -9.625588E+01 -2.522781E+04  3.346702E+03  1.516787E+02
        76  26  7.271128E+04 -4.524544E+03 -2.448194E+03 -2.376215E+04  3.398700E+03  1.594863E+03
        76  27  5.452004E+04 -8.619289E+03 -4.764826E+03 -2.523346E+04  3.450681E+03  3.043616E+03
        77   1  1.422834E+05  1.115305E+04  6.331282E+03 -2.524279E+04  3.509792E+03 -3.889075E+03
        77   2  1.604777E+05  1.524899E+04  8.606953E+03 -2.377214E+04  3.473602E+03 -5.335256E+03
        77   3  1.786788E+05  1.934939E+04  1.090747E+04 -2.523836E+04  3.437460E+03 -6.771092E+03
        77   4  9.278860E+04 -3.621894E+00  3.587474E+01 -2.523888E+04  2.588147E+01 -3.889064E+03
        77   5  9.278712E+04 -3.877766E+00  2.311089E+01 -2.377043E+04  1.447261E+01 -5.335308E+03
        77   6  9.278776E+04 -3.975982E+00  1.795974E+01 -2.523888E+04  3.113760E+00 -6.771207E+03
        77   7  4.329636E+04 -1.116039E+04 -6.259496E+03 -2.523498E+04 -3.457765E+03 -3.889052E+03
        77   8  2.510123E+04 -1.525693E+04 -8.560702E+03 -2.376873E+04 -3.444298E+03 -5.335360E+03
        77   9  6.904267E+03 -1.935764E+04 -1.087154E+04 -2.523941E+04 -3.430781E+03 -6.771323E+03
        77  10  1.422834E+05  1.115303E+04  6.331231E+03 -2.524278E+04 -1.839208E-10 -1.418575E-10
        77  11  1.604777E+05  1.524896E+04  8.606876E+03 -2.377212E+04  3.516935E-12 -2.047490E-10
        77  12  1.786788E+05  1.934934E+04  1.090737E+04 -2.523834E+04  1.973057E-10 -3.405302E-10
        77  13  9.278860E+04 -3.638136E+00  3.584632E+01 -2.523888E+04  8.769244E-10  2.924365E-11
        77  14  9.278711E+04 -3.908334E+00  2.305739E+01 -2.377043E+04  7.106371E-11 -5.102525E-12
        77  15  9.278774E+04 -4.025218E+00  1.787358E+01 -2.523888E+04 -1.920032E-10 -1.979741E-10
        77  16  4.329634E+04 -1.116041E+04 -6.259547E+03 -2.523499E+04  5.540540E-10  1.776733E-10
        77  17  2.510121E+04 -1.525696E+04 -8.560777E+03 -2.376875E+04 -2.873573E-10  1.259703E-10
        77  18  6.904242E+03 -1.935769E+04 -1.087164E+04 -2.523942E+04  1.885596E-11 -9.398519E-11
        77  19  1.422834E+05  1.115305E+04  6.331282E+03 -2.524279E+04 -3.509792E+03  3.889075E+03
        77  20  1.604777E+05  1.524899E+04  8.606953E+03 -2.377214E+04 -3.473602E+03  5.335256E+03
        77  21  1.786788E+05  1.934939E+04  1.090747E+04 -2.523836E+04 -3.437460E+03  6.771092E+03
        77  22  9.278860E+04 -3.621894E+00  3.587474E+01 -2.523888E+04 -2.588147E+01  3.889064E+03
        77  23  9.278712E+04 -3.877766E+00  2.311089E+01 -2.377043E+04 -1.447261E+01  5.335308E+03
        77  24  9.278776E+04 -3.975982E+00  1.795974E+01 -2.523888E+04 -3.113760E+00  6.771207E+03
        77  25  4.329636E+04 -1.116039E+04 -6.259496E+03 -2.523498E+04  3.457765E+03  3.889052E+03
        77  26  2.510123E+04 -1.525693E+04 -8.560702E+03 -2.376873E+04  3.444298E+03  5.335360E+03
        77  27  6.904267E+03 -1.935764E+04 -1.087154E+04 -2.523941E+04  3.430781E+03  6.771323E+03
        78   1  1.899086E+05  2.189495E+04  1.240929E+04 -2.523586E+04  3.427843E+03 -7.606025E+03
        78   2  2.080904E+05  2.600631E+04  1.479161E+04 -2.376859E+04  3.216680E+03 -8.992065E+03
        78   3  2.263102E+05  3.015451E+04  1.732089E+04 -2.523267E+04  3.005589E+03 -1.029438E+04
        78   4  9.278760E+04 -4.358333E+00  1.752360E+01 -2.523766E+04 -4.294275E-02 -7.606191E+03
        78   5  9.278531E+04 -4.790955E+00  2.066069E+01 -2.377196E+04 -1.022540E+01 -8.992330E+03
        78   6  9.278615E+04 -3.174451E+00  3.128983E+01 -2.523766E+04 -2.033232E+01 -1.029474E+04
        78   7 -4.323724E+03 -2.190405E+04 -1.237424E+04 -2.523946E+04 -3.427419E+03 -7.606356E+03
        78   8 -2.250612E+04 -2.601643E+04 -1.475030E+04 -2.377534E+04 -3.236560E+03 -8.992596E+03
        78   9 -4.071966E+04 -3.016160E+04 -1.725837E+04 -2.524265E+04 -3.045634E+03 -1.029509E+04
        78  10  1.899086E+05  2.189489E+04  1.240916E+04 -2.523584E+04 -6.625409E-10 -2.048293E-10
        78  11  2.080904E+05  2.600622E+04  1.479143E+04 -2.376856E+04 -4.473143E-10 -7.758855E-11
        78  12  2.263102E+05  3.015439E+04  1.732068E+04 -2.523264E+04  4.202106E-10  1.726348E-11
        78  13  9.278758E+04 -4.420461E+00  1.741487E+01 -2.523766E+04 -2.776581E-10 -1.714986E-10
        78  14  9.278528E+04 -4.877790E+00  2.050873E+01 -2.377196E+04  2.470122E-10  3.257621E-12
        78  15  9.278613E+04 -3.288262E+00  3.109066E+01 -2.523766E+04  6.244579E-10  2.949880E-11
        78  16 -4.323753E+03 -2.190412E+04 -1.237437E+04 -2.523948E+04  1.266928E-09 -1.483883E-10
        78  17 -2.250616E+04 -2.601652E+04 -1.475048E+04 -2.377537E+04  6.852983E-10  2.373085E-11
        78  18 -4.071970E+04 -3.016171E+04 -1.725859E+04 -2.524267E+04  4.765208E-10  1.409896E-10
        78  19  1.899086E+05  2.189495E+04  1.240929E+04 -2.523586E+04 -3.427843E+03  7.606025E+03
        78  20  2.080904E+05  2.600631E+04  1.479161E+04 -2.376859E+04 -3.216680E+03  8.992065E+03
        78  21  2.263102E+05  3.015451E+04  1.732089E+04 -2.523267E+04 -3.005589E+03  1.029438E+04
        78  22  9.278760E+04 -4.358333E+00  1.752360E+01 -2.523766E+04  4.294275E-02  7.606191E+03
        78  23  9.278531E+04 -4.790955E+00  2.066069E+01 -2.377196E+04  1.022540E+01  8.992330E+03
        78  24  9.278615E+04 -3.174451E+00  3.128983E+01 -2.523766E+04  2.033232E+01  1.029474E+04
        78  25 -4.323724E+03 -2.190405E+04 -1.237424E+04 -2.523946E+04  3.427419E+03  7.606356E+03
        78  26 -2.250612E+04 -2.601643E+04 -1.475030E+04 -2.377534E+04  3.236560E+03  8.992596E+03
        78  27 -4.071966E+04 -3.016160E+04 -1.725837E+04 -2.524265E+04  3.045634E+03  1.029509E+04
        79   1  2.375828E+05  3.273772E+04  1.897417E+04 -2.521900E+04  2.950422E+03 -1.104470E+04
        79   2  2.556552E+05  3.697627E+04  2.206905E+04 -2.378920E+04  1.425884E+03 -1.197429E+04
        79   3  2.739997E+05  4.149734E+04  2.622749E+04 -2.524367E+04 -9.872063E+01 -1.228313E+04
        79   4  9.278770E+04 -2.448305E+00  4.002651E+01 -2.522719E+04 -2.626913E+01 -1.104513E+04
        79   5  9.278033E+04  7.955891E+00  6.868385E+01 -2.378504E+04 -6.048748E+01 -1.197473E+04
        79   6  9.278570E+04  4.217130E+01  1.261736E+02 -2.522720E+04 -9.470799E+01 -1.228349E+04
        79   7 -5.198591E+04 -3.274349E+04 -1.889422E+04 -2.523539E+04 -3.002299E+03 -1.104555E+04
        79   8 -7.006756E+04 -3.696150E+04 -2.193192E+04 -2.378089E+04 -1.546487E+03 -1.197516E+04
        79   9 -8.839512E+04 -4.141450E+04 -2.597566E+04 -2.521073E+04 -9.069648E+01 -1.228385E+04
        79  10  2.375827E+05  3.273759E+04  1.897393E+04 -2.521897E+04 -5.980323E-10  8.580702E-11
        79  11  2.556552E+05  3.697612E+04  2.206877E+04 -2.378919E+04  1.487663E-10  1.632587E-10
        79  12  2.739996E+05  4.149718E+04  2.622721E+04 -2.524367E+04 -8.407126E-11 -2.002822E-10
        79  13  9.278767E+04 -2.579312E+00  3.979724E+01 -2.522720E+04 -5.353607E-10  1.079728E-10
        79  14  9.278029E+04  7.801903E+00  6.841437E+01 -2.378505E+04 -1.600076E-09  1.367841E-10
        79  15  9.278566E+04  4.200927E+01  1.258901E+02 -2.522720E+04 -6.223328E-10 -1.088422E-10
        79  16 -5.198595E+04 -3.274362E+04 -1.889447E+04 -2.523542E+04  5.436056E-10  1.555800E-10
        79  17 -7.006760E+04 -3.696166E+04 -2.193219E+04 -2.378090E+04 -1.038181E-11  3.795945E-10
        79  18 -8.839516E+04 -4.141466E+04 -2.597594E+04 -2.521073E+04 -7.947667E-10  6.257883E-11
        79  19  2.375828E+05  3.273772E+04  1.897417E+04 -2.521900E+04 -2.950422E+03  1.104470E+04
        79  20  2.556552E+05  3.697627E+04  2.206905E+04 -2.378920E+04 -1.425884E+03  1.197429E+04
        79  21  2.739997E+05  4.149734E+04  2.622749E+04 -2.524367E+04  9.872063E+01  1.228313E+04
        79  22  9.278770E+04 -2.448305E+00  4.002651E+01 -2.522719E+04  2.626913E+01  1.104513E+04
        79  23  9.278033E+04  7.955891E+00  6.868385E+01 -2.378504E+04  6.048748E+01  1.197473E+04
        79  24  9.278570E+04  4.217130E+01  1.261736E+02 -2.522720E+04  9.470799E+01  1.228349E+04
        79  25 -5.198591E+04 -3.274349E+04 -1.889422E+04 -2.523539E+04  3.002299E+03  1.104555E+04
        79  26 -7.006756E+04 -3.696150E+04 -2.193192E+04 -2.378089E+04  1.546487E+03  1.197516E+04
        79  27 -8.839512E+04 -4.141450E+04 -2.597566E+04 -2.521073E+04  9.069648E+01  1.228385E+04
        80   1  2.855734E+05  4.436684E+04  2.896695E+04 -2.515538E+04 -4.861128E+02 -1.240608E+04
        80   2  3.028160E+05  4.958854E+04  3.725785E+04 -2.406879E+04 -1.167055E+04 -9.957269E+03
        80   3  3.220559E+05  5.696192E+04  5.336672E+04 -2.552298E+04 -2.285653E+04 -2.916028E+03
        80   4  9.280066E+04  6.133177E+01  1.689267E+02 -2.515084E+04 -1.167335E+02 -1.240642E+04
        80   5  9.275767E+04  1.974137E+02  3.110166E+02 -2.388051E+04 -2.745896E+02 -9.956013E+03
        80   6  9.279819E+04  5.716424E+02  6.158854E+02 -2.515091E+04 -4.335634E+02 -2.912471E+03
        80   7 -9.993480E+04 -4.424593E+04 -2.862981E+04 -2.514630E+04  2.525359E+02 -1.240675E+04
        80   8 -1.172572E+05 -4.919605E+04 -3.663693E+04 -2.369229E+04  1.111763E+04 -9.954749E+03
        80   9 -1.364098E+05 -5.582203E+04 -5.213654E+04 -2.477897E+04  2.198120E+04 -2.908887E+03
        80  10  2.855734E+05  4.436668E+04  2.896666E+04 -2.515539E+04 -4.507069E-10 -3.734616E-10
        80  11  3.028158E+05  4.958840E+04  3.725741E+04 -2.406888E+04 -7.365865E-10 -4.286851E-10
        80  12  3.220553E+05  5.696177E+04  5.336572E+04 -2.552304E+04 -5.879180E-10 -1.009446E-10
        80  13  9.280062E+04  6.116648E+01  1.686374E+02 -2.515084E+04 -3.706653E-10 -6.990956E-10
        80  14  9.275764E+04  1.973073E+02  3.108302E+02 -2.388051E+04  3.934953E-10  2.955316E-10
        80  15  9.279818E+04  5.716333E+02  6.158691E+02 -2.515091E+04 -8.882588E-10 -1.479377E-11
        80  16 -9.993484E+04 -4.424610E+04 -2.863010E+04 -2.514630E+04  9.561903E-11 -1.444934E-10
        80  17 -1.172574E+05 -4.919619E+04 -3.663735E+04 -2.369220E+04 -1.551780E-10  1.491312E-10
        80  18 -1.364103E+05 -5.582217E+04 -5.213746E+04 -2.477892E+04  4.014103E-10 -1.873808E-10
        80  19  2.855734E+05  4.436684E+04  2.896695E+04 -2.515538E+04  4.861128E+02  1.240608E+04
        80  20  3.028160E+05  4.958854E+04  3.725785E+04 -2.406879E+04  1.167055E+04  9.957269E+03
        80  21  3.220559E+05  5.696192E+04  5.336672E+04 -2.552298E+04  2.285653E+04  2.916028E+03
        80  22  9.280066E+04  6.133177E+01  1.689267E+02 -2.515084E+04  1.167335E+02  1.240642E+04
        80  23  9.275767E+04  1.974137E+02  3.110166E+02 -2.388051E+04  2.745896E+02  9.956013E+03
        80  24  9.279819E+04  5.716424E+02  6.158854E+02 -2.515091E+04  4.335634E+02  2.912471E+03
        80  25 -9.993480E+04 -4.424593E+04 -2.862981E+04 -2.514630E+04 -2.525359E+02  1.240675E+04
        80  26 -1.172572E+05 -4.919605E+04 -3.663693E+04 -2.369229E+04 -1.111763E+04  9.954749E+03
        80  27 -1.364098E+05 -5.582203E+04 -5.213654E+04 -2.477897E+04 -2.198120E+04  2.908887E+03
        81   1  4.816431E+04  2.320632E+05  4.603076E+04 -6.056124E+04  1.885280E+03  1.440294E+04
        81   2  3.468359E+04  1.865220E+05  2.829427E+04 -5.648518E+04  5.782944E+03  4.591157E+03
        81   3  2.349015E+04  1.428305E+05  1.751576E+04 -5.954766E+04  5.664158E+03 -5.220318E+03
        81   4  1.504471E+03  4.312922E+04  1.636783E+03 -5.949013E+04  1.888032E+03  7.966453E+02
        81   5  5.454526E+02  4.301035E+04  1.097053E+03 -5.592095E+04  5.783990E+03  2.418145E+02
        81   6  2.674807E+02  4.313347E+04  1.088593E+03 -5.949036E+04  5.663084E+03 -3.133124E+02
        81   7 -4.515781E+04 -1.457715E+05 -4.275894E+04 -5.841934E+04  1.890738E+03 -1.280553E+04
        81   8 -3.359388E+04 -1.004814E+05 -2.610101E+04 -5.535684E+04  5.785028E+03 -4.106547E+03
        81   9 -2.295568E+04 -5.655367E+04 -1.533878E+04 -5.943308E+04  5.662011E+03  4.592932E+03
        81  10  4.816425E+04  2.320630E+05  4.603036E+04 -6.056126E+04  1.930912E-10  1.468454E-09
        81  11  3.468355E+04  1.865220E+05  2.829417E+04 -5.648521E+04  6.482616E-10  5.433661E-10
        81  12  2.349010E+04  1.428305E+05  1.751565E+04 -5.954764E+04  6.298881E-11 -4.688977E-10
        81  13  1.504467E+03  4.312921E+04  1.636775E+03 -5.949013E+04  7.772260E-10 -1.018211E-11
        81  14  5.454167E+02  4.301034E+04  1.096990E+03 -5.592095E+04  3.034415E-10 -4.356780E-12
        81  15  2.674463E+02  4.313346E+04  1.088532E+03 -5.949036E+04 -1.301861E-10 -2.630528E-11
        81  16 -4.515786E+04 -1.457717E+05 -4.275926E+04 -5.841932E+04  3.258622E-10 -1.406480E-09
        81  17 -3.359392E+04 -1.004814E+05 -2.610110E+04 -5.535682E+04  2.568336E-10 -2.749073E-10
        81  18 -2.295572E+04 -5.655370E+04 -1.533888E+04 -5.943310E+04 -7.624717E-10  5.595051E-10
        81  19  4.816431E+04  2.320632E+05  4.603076E+04 -6.056124E+04 -1.885280E+03 -1.440294E+04
        81  20  3.468359E+04  1.865220E+05  2.829427E+04 -5.648518E+04 -5.782944E+03 -4.591157E+03
        81  21  2.349015E+04  1.428305E+05  1.751576E+04 -5.954766E+04 -5.664158E+03  5.220318E+03
        81  22  1.504471E+03  4.312922E+04  1.636783E+03 -5.949013E+04 -1.888032E+03 -7.966453E+02
        81  23  5.454526E+02  4.301035E+04  1.097053E+03 -5.592095E+04 -5.783990E+03 -2.418145E+02
        81  24  2.674807E+02  4.313347E+04  1.088593E+03 -5.949036E+04 -5.663084E+03  3.133124E+02
        81  25 -4.515781E+04 -1.457715E+05 -4.275894E+04 -5.841934E+04 -1.890738E+03  1.280553E+04
        81  26 -3.359388E+04 -1.004814E+05 -2.610101E+04 -5.535684E+04 -5.785028E+03  4.106547E+03
        81  27 -2.295568E+04 -5.655367E+04 -1.533878E+04 -5.943308E+04 -5.662011E+03 -4.592932E+03
        82   1  1.692267E+04  1.149050E+05  1.281370E+04 -5.967934E+04  4.235736E+03 -5.607044E+03
        82   2  6.638336E+03  7.014865E+04  5.700174E+03 -5.556029E+04  1.949459E+03 -6.852674E+03
        82   3 -2.956538E+03  2.572661E+04 -4.308195E+02 -5.885171E+04 -4.780857E+02 -8.098277E+03
        82   4  2.537928E+02  4.314185E+04  1.226093E+03 -5.955078E+04  4.234542E+03 -5.008726E+02
        82   5  4.372098E+02  4.300435E+04  1.836195E+03 -5.584545E+04  1.948149E+03 -1.421141E+03
        82   6  1.253674E+03  4.314264E+04  3.202822E+03 -5.955058E+04 -4.795145E+02 -2.341464E+03
        82   7 -1.641533E+04 -2.861612E+04 -1.036156E+04 -5.942224E+04  4.233350E+03  4.604730E+03
        82   8 -5.763934E+03  1.586086E+04 -2.027684E+03 -5.613060E+04  1.946834E+03  4.010166E+03
        82   9  5.463885E+03  6.055903E+04  6.836571E+03 -6.024946E+04 -4.809563E+02  3.415507E+03
        82  10  1.692264E+04  1.149050E+05  1.281361E+04 -5.967932E+04 -8.736283E-10  6.714759E-08
        82  11  6.638320E+03  7.014860E+04  5.700078E+03 -5.556028E+04 -1.712718E-09  1.797168E-10
        82  12 -2.956556E+03  2.572654E+04 -4.309432E+02 -5.885172E+04 -1.446629E-09 -6.707127E-08
        82  13  2.537735E+02  4.314185E+04  1.226059E+03 -5.955078E+04 -6.968371E-10  1.839796E-12
        82  14  4.372051E+02  4.300435E+04  1.836184E+03 -5.584545E+04 -1.859063E-09  7.983610E-12
        82  15  1.253672E+03  4.314264E+04  3.202811E+03 -5.955058E+04 -1.966918E-09 -5.934058E-12
        82  16 -1.641535E+04 -2.861615E+04 -1.036163E+04 -5.942226E+04 -9.785921E-10 -6.704367E-08
        82  17 -5.763942E+03  1.586084E+04 -2.027722E+03 -5.613061E+04 -6.627735E-10  1.081603E-10
        82  18  5.463882E+03  6.055902E+04  6.836548E+03 -6.024946E+04 -6.801505E-10  6.719258E-08
        82  19  1.692267E+04  1.149050E+05  1.281370E+04 -5.967934E+04 -4.235736E+03  5.607044E+03
        82  20  6.638336E+03  7.014865E+04  5.700174E+03 -5.556029E+04 -1.949459E+03  6.852674E+03
        82  21 -2.956538E+03  2.572661E+04 -4.308195E+02 -5.885171E+04  4.780857E+02  8.098277E+03
        82  22  2.537928E+02  4.314185E+04  1.226093E+03 -5.955078E+04 -4.234542E+03  5.008726E+02
        82  23  4.372098E+02  4.300435E+04  1.836195E+03 -5.584545E+04 -1.948149E+03  1.421141E+03
        82  24  1.253674E+03  4.314264E+04  3.202822E+03 -5.955058E+04  4.795145E+02  2.341464E+03
        82  25 -1.641533E+04 -2.861612E+04 -1.036156E+04 -5.942224E+04 -4.233350E+03 -4.604730E+03
        82  26 -5.763934E+03  1.586086E+04 -2.027684E+03 -5.613060E+04 -1.946834E+03 -4.010166E+03
        82  27  5.463885E+03  6.055903E+04  6.836571E+03 -6.024946E+04  4.809563E+02 -3.415507E+03
        83   1 -9.030951E+03 -1.746256E+03 -4.012036E+03 -5.912490E+04 -2.044576E+03 -8.519864E+03
        83   2 -1.641178E+04 -4.678706E+04 -1.003301E+04 -5.081110E+04 -3.030939E+03 -5.763271E+03
        83   3 -1.883697E+04 -9.094660E+04 -1.661007E+04 -4.972669E+04 -1.106375E+03 -3.006603E+03
        83   4  1.675311E+03  4.353495E+04  4.237899E+03 -5.951035E+04 -2.045950E+03 -2.896032E+03
        83   5  5.006150E+03  4.251221E+04  7.743901E+03 -5.589461E+04 -3.030605E+03 -6.846253E+03
        83   6  1.445635E+04  4.353203E+04  1.535079E+04 -5.950779E+04 -1.104569E+03 -1.079613E+04
        83   7  1.238147E+04  8.881822E+04  1.248787E+04 -5.989583E+04 -2.047331E+03  2.728200E+03
        83   8  2.642369E+04  1.318192E+05  2.552044E+04 -6.097886E+04 -3.030254E+03 -7.929387E+03
        83   9  4.774875E+04  1.780276E+05  4.731066E+04 -6.929102E+04 -1.102518E+03 -1.858733E+04
        83  10 -9.030975E+03 -1.746335E+03 -4.012180E+03 -5.912491E+04 -3.971363E-10  8.513926E-10
        83  11 -1.641180E+04 -4.678710E+04 -1.003309E+04 -5.081111E+04  1.365701E-09 -2.930552E-10
        83  12 -1.883697E+04 -9.094661E+04 -1.661009E+04 -4.972669E+04 -1.844911E-11 -1.769893E-09
        83  13  1.675304E+03  4.353494E+04  4.237875E+03 -5.951035E+04 -5.550477E-10  1.100827E-12
        83  14  5.006128E+03  4.251215E+04  7.743796E+03 -5.589463E+04  4.292843E-10  3.723055E-12
        83  15  1.445631E+04  4.353190E+04  1.535057E+04 -5.950780E+04  2.276815E-10 -2.320977E-11
        83  16  1.238147E+04  8.881821E+04  1.248785E+04 -5.989582E+04 -6.832566E-10 -7.474357E-10
        83  17  2.642366E+04  1.318191E+05  2.552030E+04 -6.097888E+04  4.760142E-10  5.998917E-10
        83  18  4.774866E+04  1.780272E+05  4.731001E+04 -6.929103E+04  4.772447E-11  1.871576E-09
        83  19 -9.030951E+03 -1.746256E+03 -4.012036E+03 -5.912490E+04  2.044576E+03  8.519864E+03
        83  20 -1.641178E+04 -4.678706E+04 -1.003301E+04 -5.081110E+04  3.030939E+03  5.763271E+03
        83  21 -1.883697E+04 -9.094660E+04 -1.661007E+04 -4.972669E+04  1.106375E+03  3.006603E+03
        83  22  1.675311E+03  4.353495E+04  4.237899E+03 -5.951035E+04  2.045950E+03  2.896032E+03
        83  23  5.006150E+03  4.251221E+04  7.743901E+03 -5.589461E+04  3.030605E+03  6.846253E+03
        83  24  1.445635E+04  4.353203E+04  1.535079E+04 -5.950779E+04  1.104569E+03  1.079613E+04
        83  25  1.238147E+04  8.881822E+04  1.248787E+04 -5.989583E+04  2.047331E+03 -2.728200E+03
        83  26  2.642369E+04  1.318192E+05  2.552044E+04 -6.097886E+04  3.030254E+03  7.929387E+03
        83  27  4.774875E+04  1.780276E+05  4.731066E+04 -6.929102E+04  1.102518E+03  1.858733E+04
        84   1 -9.833031E+04 -5.548463E+04 -3.420396E+04 -4.237687E+04 -1.704886E+04 -5.487063E+03
        84   2 -9.247233E+04 -3.498681E+04 -1.952031E+04 -3.955471E+04 -1.061655E+04 -1.050958E+03
        84   3 -9.045077E+04 -2.651299E+04 -1.306934E+04 -3.546874E+04 -3.626002E+03  1.897502E+03
        84   4 -5.005738E+04 -2.764784E+04 -1.986026E+04 -1.914173E+04 -1.314588E+04 -4.023409E+03
        84   5 -4.728242E+04 -1.415145E+04 -9.154560E+03 -2.266646E+04 -9.019831E+03 -4.521666E+02
        84   6 -4.788679E+04 -1.222197E+04 -4.854205E+03 -2.492763E+04 -4.335611E+03  1.631336E+03
        84   7 -1.782677E+03  1.897978E+02 -5.516949E+03  4.094993E+03 -9.242623E+03 -2.559500E+03
        84   8 -2.090604E+03  6.684328E+03  1.211011E+03 -5.777033E+03 -7.422999E+03  1.466965E+02
        84   9 -5.320684E+03  2.069227E+03  3.360925E+03 -1.438582E+04 -5.045275E+03  1.365153E+03
        84  10 -9.833063E+04 -5.548474E+04 -3.420456E+04 -4.237695E+04  8.290298E-10  3.136331E-10
        84  11 -9.247245E+04 -3.498684E+04 -1.952053E+04 -3.955472E+04 -7.831426E-09 -2.345439E-09
        84  12 -9.045078E+04 -2.651299E+04 -1.306938E+04 -3.546873E+04 -7.857280E-09 -1.466016E-09
        84  13 -5.005757E+04 -2.764791E+04 -1.986062E+04 -1.914177E+04 -3.451710E-09 -8.570103E-10
        84  14 -4.728251E+04 -1.415147E+04 -9.154713E+03 -2.266646E+04 -5.990830E-09 -2.411420E-09
        84  15 -4.788681E+04 -1.222198E+04 -4.854246E+03 -2.492762E+04 -2.587002E-09 -1.077485E-09
        84  16 -1.782770E+03  1.897678E+02 -5.517122E+03  4.094974E+03 -6.161088E-09 -2.292147E-09
        84  17 -2.090663E+03  6.684314E+03  1.210907E+03 -5.777033E+03 -6.317205E-09 -2.572615E-09
        84  18 -5.320712E+03  2.069219E+03  3.360874E+03 -1.438581E+04  1.994344E-09 -5.134201E-10
        84  19 -9.833031E+04 -5.548463E+04 -3.420396E+04 -4.237687E+04  1.704886E+04  5.487063E+03
        84  20 -9.247233E+04 -3.498681E+04 -1.952031E+04 -3.955471E+04  1.061655E+04  1.050958E+03
        84  21 -9.045077E+04 -2.651299E+04 -1.306934E+04 -3.546874E+04  3.626002E+03 -1.897502E+03
        84  22 -5.005738E+04 -2.764784E+04 -1.986026E+04 -1.914173E+04  1.314588E+04  4.023409E+03
        84  23 -4.728242E+04 -1.415145E+04 -9.154560E+03 -2.266646E+04  9.019831E+03  4.521666E+02
        84  24 -4.788679E+04 -1.222197E+04 -4.854205E+03 -2.492763E+04  4.335611E+03 -1.631336E+03
        84  25 -1.782677E+03  1.897978E+02 -5.516949E+03  4.094993E+03  9.242623E+03  2.559500E+03
        84  26 -2.090604E+03  6.684328E+03  1.211011E+03 -5.777033E+03  7.422999E+03 -1.466965E+02
        84  27 -5.320684E+03  2.069227E+03  3.360925E+03 -1.438582E+04  5.045275E+03 -1.365153E+03
        85   1 -8.420602E+04 -2.626329E+04 -1.095407E+04 -3.503954E+04 -3.210804E+03  1.735271E+03
        85   2 -7.793051E+04 -2.244566E+04 -7.746690E+03 -3.247816E+04 -1.922531E+03  1.811032E+03
        85   3 -7.078728E+04 -2.038016E+04 -5.539188E+03 -3.122199E+04 -5.916731E+02  1.773233E+03
        85   4 -4.729343E+04 -1.258022E+04 -3.682788E+03 -2.454300E+04 -3.676631E+03  1.560540E+03
        85   5 -4.769895E+04 -1.139623E+04 -1.943693E+03 -2.401240E+04 -2.564367E+03  1.570297E+03
        85   6 -4.720186E+04 -1.192949E+04 -1.064994E+03 -2.478704E+04 -1.409522E+03  1.466495E+03
        85   7 -1.037975E+04  1.102856E+03  3.588339E+03 -1.404597E+04 -4.142484E+03  1.385798E+03
        85   8 -1.746643E+04 -3.467102E+02  3.859268E+03 -1.554625E+04 -3.206237E+03  1.329550E+03
        85   9 -2.361564E+04 -3.478703E+03  3.409237E+03 -1.835181E+04 -2.227412E+03  1.159741E+03
        85  10 -8.420604E+04 -2.626329E+04 -1.095409E+04 -3.503954E+04 -1.688057E-09  1.548058E-09
        85  11 -7.793052E+04 -2.244567E+04 -7.746704E+03 -3.247816E+04 -2.781439E-09  1.787558E-09
        85  12 -7.078728E+04 -2.038016E+04 -5.539194E+03 -3.122199E+04  3.252527E-09  1.951073E-09
        85  13 -4.729345E+04 -1.258022E+04 -3.682818E+03 -2.454300E+04  2.027589E-11 -2.130273E-11
        85  14 -4.769895E+04 -1.139623E+04 -1.943710E+03 -2.401239E+04  3.266151E-09  7.389115E-10
        85  15 -4.720186E+04 -1.192950E+04 -1.065002E+03 -2.478704E+04  1.181994E-08  3.146467E-09
        85  16 -1.037977E+04  1.102850E+03  3.588303E+03 -1.404596E+04  1.495155E-09 -1.769347E-09
        85  17 -1.746644E+04 -3.467148E+02  3.859245E+03 -1.554625E+04  5.571741E-09 -3.311788E-10
        85  18 -2.361565E+04 -3.478705E+03  3.409226E+03 -1.835180E+04  1.140398E-08  4.362553E-09
        85  19 -8.420602E+04 -2.626329E+04 -1.095407E+04 -3.503954E+04  3.210804E+03 -1.735271E+03
        85  20 -7.793051E+04 -2.244566E+04 -7.746690E+03 -3.247816E+04  1.922531E+03 -1.811032E+03
        85  21 -7.078728E+04 -2.038016E+04 -5.539188E+03 -3.122199E+04  5.916731E+02 -1.773233E+03
        85  22 -4.729343E+04 -1.258022E+04 -3.682788E+03 -2.454300E+04  3.676631E+03 -1.560540E+03
        85  23 -4.769895E+04 -1.139623E+04 -1.943693E+03 -2.401240E+04  2.564367E+03 -1.570297E+03
        85  24 -4.720186E+04 -1.192949E+04 -1.064994E+03 -2.478704E+04  1.409522E+03 -1.466495E+03
        85  25 -1.037975E+04  1.102856E+03  3.588339E+03 -1.404597E+04  4.142484E+03 -1.385798E+03
        85  26 -1.746643E+04 -3.467102E+02  3.859268E+03 -1.554625E+04  3.206237E+03 -1.329550E+03
        85  27 -2.361564E+04 -3.478703E+03  3.409237E+03 -1.835181E+04  2.227412E+03 -1.159741E+03
        86   1 -6.616819E+04 -1.880913E+04 -4.382606E+03 -3.000885E+04 -3.459343E+02  1.514129E+03
        86   2 -5.995843E+04 -1.572341E+04 -2.745162E+03 -2.743030E+04  8.201277E+01  1.081658E+03
        86   3 -5.256975E+04 -1.388498E+04 -1.287501E+03 -2.625215E+04  5.131994E+02  6.405086E+02
        86   4 -4.715708E+04 -1.194766E+04 -8.008024E+02 -2.476193E+04 -1.145208E+03  1.214361E+03
        86   5 -4.774692E+04 -1.131887E+04 -4.401615E+02 -2.406414E+04 -7.307020E+02  7.768542E+02
        86   6 -4.715520E+04 -1.193471E+04 -2.486441E+02 -2.476676E+04 -3.129604E+02  3.306698E+02
        86   7 -2.814559E+04 -5.086154E+03  2.780988E+03 -1.951485E+04 -1.944508E+03  9.145838E+02
        86   8 -3.553530E+04 -6.914344E+03  1.864820E+03 -2.069794E+04 -1.543430E+03  4.720459E+02
        86   9 -4.174067E+04 -9.984444E+03  7.902010E+02 -2.328137E+04 -1.139120E+03  2.083094E+01
        86  10 -6.616820E+04 -1.880913E+04 -4.382611E+03 -3.000885E+04  1.282867E-08  3.882343E-09
        86  11 -5.995843E+04 -1.572341E+04 -2.745164E+03 -2.743030E+04  4.374614E-09 -7.443402E-10
        86  12 -5.256975E+04 -1.388499E+04 -1.287503E+03 -2.625215E+04  3.935681E-10 -2.084065E-09
        86  13 -4.715708E+04 -1.194766E+04 -8.008076E+02 -2.476193E+04  1.198846E-08  3.017372E-09
        86  14 -4.774692E+04 -1.131887E+04 -4.401636E+02 -2.406414E+04  3.905178E-09  4.850921E-10
        86  15 -4.715520E+04 -1.193471E+04 -2.486445E+02 -2.476676E+04 -5.536676E-10 -2.246846E-10
        86  16 -2.814560E+04 -5.086156E+03  2.780979E+03 -1.951485E+04  1.677028E-09  2.212205E-09
        86  17 -3.553530E+04 -6.914345E+03  1.864815E+03 -2.069794E+04 -2.144258E-09  1.666740E-09
        86  18 -4.174067E+04 -9.984444E+03  7.901986E+02 -2.328137E+04 -1.783848E-09  1.644158E-09
        86  19 -6.616819E+04 -1.880913E+04 -4.382606E+03 -3.000885E+04  3.459343E+02 -1.514129E+03
        86  20 -5.995843E+04 -1.572341E+04 -2.745162E+03 -2.743030E+04 -8.201277E+01 -1.081658E+03
        86  21 -5.256975E+04 -1.388498E+04 -1.287501E+03 -2.625215E+04 -5.131994E+02 -6.405086E+02
        86  22 -4.715708E+04 -1.194766E+04 -8.008024E+02 -2.476193E+04  1.145208E+03 -1.214361E+03
        86  23 -4.774692E+04 -1.131887E+04 -4.401615E+02 -2.406414E+04  7.307020E+02 -7.768542E+02
        86  24 -4.715520E+04 -1.193471E+04 -2.486441E+02 -2.476676E+04  3.129604E+02 -3.306698E+02
        86  25 -2.814559E+04 -5.086154E+03  2.780988E+03 -1.951485E+04  1.944508E+03 -9.145838E+02
        86  26 -3.553530E+04 -6.914344E+03  1.864820E+03 -2.069794E+04  1.543430E+03 -4.720459E+02
        86  27 -4.174067E+04 -9.984444E+03  7.902010E+02 -2.328137E+04  1.139120E+03 -2.083094E+01
        87   1 -4.804675E+04 -1.224627E+04 -3.416492E+02 -2.500204E+04  6.646741E+02  3.434926E+02
        87   2 -4.185711E+04 -9.180121E+03  9.920387E+02 -2.241717E+04  9.248910E+02 -1.660085E+02
        87   3 -3.445679E+04 -7.334845E+03  2.280471E+03 -2.123116E+04  1.185323E+03 -6.760830E+02
        87   4 -4.714964E+04 -1.193578E+04 -1.914231E+02 -2.476404E+04 -1.600774E+02  3.418266E+01
        87   5 -4.775515E+04 -1.132669E+04 -1.199427E+02 -2.406409E+04  9.923941E+01 -4.756604E+02
        87   6 -4.715001E+04 -1.193836E+04 -9.305478E+01 -2.476308E+04  3.587704E+02 -9.860761E+02
        87   7 -4.625252E+04 -1.162530E+04 -4.119182E+01 -2.452604E+04 -9.848377E+02 -2.751305E+02
        87   8 -5.365318E+04 -1.347326E+04 -1.231930E+03 -2.571101E+04 -7.264077E+02 -7.853107E+02
        87   9 -5.984306E+04 -1.654186E+04 -2.466585E+03 -2.829494E+04 -4.677649E+02 -1.296063E+03
        87  10 -4.804675E+04 -1.224627E+04 -3.416502E+02 -2.500204E+04  2.134801E-09 -6.940525E-10
        87  11 -4.185711E+04 -9.180121E+03  9.920370E+02 -2.241717E+04 -7.334484E-09 -2.968164E-09
        87  12 -3.445679E+04 -7.334845E+03  2.280468E+03 -2.123116E+04 -8.133477E-09 -1.605469E-09
        87  13 -4.714964E+04 -1.193578E+04 -1.914232E+02 -2.476404E+04 -3.388098E-09 -1.164255E-09
        87  14 -4.775515E+04 -1.132669E+04 -1.199431E+02 -2.406409E+04 -7.467029E-09 -2.797711E-09
        87  15 -4.715001E+04 -1.193836E+04 -9.305684E+01 -2.476308E+04 -3.129987E-09 -7.496962E-10
        87  16 -4.625252E+04 -1.162530E+04 -4.119378E+01 -2.452604E+04 -8.778498E-09 -1.699295E-09
        87  17 -5.365318E+04 -1.347327E+04 -1.231933E+03 -2.571101E+04 -7.862257E-09 -2.490607E-09
        87  18 -5.984306E+04 -1.654186E+04 -2.466589E+03 -2.829494E+04  1.511687E-09  6.810547E-11
        87  19 -4.804675E+04 -1.224627E+04 -3.416492E+02 -2.500204E+04 -6.646741E+02 -3.434926E+02
        87  20 -4.185711E+04 -9.180121E+03  9.920387E+02 -2.241717E+04 -9.248910E+02  1.660085E+02
        87  21 -3.445679E+04 -7.334845E+03  2.280471E+03 -2.123116E+04 -1.185323E+03  6.760830E+02
        87  22 -4.714964E+04 -1.193578E+04 -1.914231E+02 -2.476404E+04  1.600774E+02 -3.418266E+01
        87  23 -4.775515E+04 -1.132669E+04 -1.199427E+02 -2.406409E+04 -9.923941E+01  4.756604E+02
        87  24 -4.715001E+04 -1.193836E+04 -9.305478E+01 -2.476308E+04 -3.587704E+02  9.860761E+02
        87  25 -4.625252E+04 -1.162530E+04 -4.119182E+01 -2.452604E+04  9.848377E+02  2.751305E+02
        87  26 -5.365318E+04 -1.347326E+04 -1.231930E+03 -2.571101E+04  7.264077E+02  7.853107E+02
        87  27 -5.984306E+04 -1.654186E+04 -2.466585E+03 -2.829494E+04  4.677649E+02  1.296063E+03
        88   1 -2.994333E+04 -5.692209E+03  3.169451E+03 -1.998024E+04  1.317268E+03 -9.805759E+02
        88   2 -2.375417E+04 -2.623893E+03  4.407558E+03 -1.739610E+04  1.573169E+03 -1.492152E+03
        88   3 -1.635391E+04 -7.759811E+02  5.603766E+03 -1.621072E+04  1.828708E+03 -2.002746E+03
        88   4 -4.715008E+04 -1.193841E+04 -9.233105E+01 -2.476306E+04  4.906695E+02 -1.290589E+03
        88   5 -4.775533E+04 -1.132709E+04 -1.157920E+02 -2.406404E+04  7.480845E+02 -1.801605E+03
        88   6 -4.714981E+04 -1.193645E+04 -1.823425E+02 -2.476379E+04  1.005137E+03 -2.311642E+03
        88   7 -6.435638E+04 -1.818452E+04 -3.354080E+03 -2.954571E+04 -3.358973E+02 -1.600590E+03
        88   8 -7.175589E+04 -2.003023E+04 -4.639162E+03 -3.073175E+04 -7.696639E+01 -2.111046E+03
        88   9 -7.794499E+04 -2.309694E+04 -5.968563E+03 -3.331654E+04  1.816028E+02 -2.620525E+03
        88  10 -2.994333E+04 -5.692211E+03  3.169446E+03 -1.998024E+04 -2.727358E-10  1.354342E-09
        88  11 -2.375417E+04 -2.623896E+03  4.407549E+03 -1.739610E+04 -1.678635E-09  3.051610E-10
        88  12 -1.635391E+04 -7.759863E+02  5.603752E+03 -1.621072E+04  4.592313E-10 -1.978582E-10
        88  13 -4.715008E+04 -1.193841E+04 -9.233464E+01 -2.476306E+04 -1.713491E-10  4.456807E-10
        88  14 -4.775533E+04 -1.132709E+04 -1.157992E+02 -2.406404E+04 -8.259403E-10  1.489545E-10
        88  15 -4.714981E+04 -1.193646E+04 -1.823545E+02 -2.476379E+04  7.008118E-11 -6.275659E-10
        88  16 -6.435638E+04 -1.818452E+04 -3.354085E+03 -2.954571E+04  1.526980E-10 -5.586436E-10
        88  17 -7.175589E+04 -2.003024E+04 -4.639171E+03 -3.073175E+04  7.683371E-10 -1.417205E-10
        88  18 -7.794500E+04 -2.309695E+04 -5.968576E+03 -3.331654E+04 -7.432405E-10 -9.450007E-10
        88  19 -2.994333E+04 -5.692209E+03  3.169451E+03 -1.998024E+04 -1.317268E+03  9.805759E+02
        88  20 -2.375417E+04 -2.623893E+03  4.407558E+03 -1.739610E+04 -1.573169E+03  1.492152E+03
        88  21 -1.635391E+04 -7.759811E+02  5.603766E+03 -1.621072E+04 -1.828708E+03  2.002746E+03
        88  22 -4.715008E+04 -1.193841E+04 -9.233105E+01 -2.476306E+04 -4.906695E+02  1.290589E+03
        88  23 -4.775533E+04 -1.132709E+04 -1.157920E+02 -2.406404E+04 -7.480845E+02  1.801605E+03
        88  24 -4.714981E+04 -1.193645E+04 -1.823425E+02 -2.476379E+04 -1.005137E+03  2.311642E+03
        88  25 -6.435638E+04 -1.818452E+04 -3.354080E+03 -2.954571E+04  3.358973E+02  1.600590E+03
        88  26 -7.175589E+04 -2.003023E+04 -4.639162E+03 -3.073175E+04  7.696639E+01  2.111046E+03
        88  27 -7.794499E+04 -2.309694E+04 -5.968563E+03 -3.331654E+04 -1.816028E+02  2.620525E+03
        89   1 -1.184282E+04  8.649076E+02  6.438557E+03 -1.496557E+04  1.981872E+03 -2.298951E+03
        89   2 -5.640527E+03  3.934839E+03  7.526507E+03 -1.238250E+04  2.366547E+03 -2.754562E+03
        89   3  1.748594E+03  5.765724E+03  8.470384E+03 -1.119914E+04  2.746282E+03 -3.196966E+03
        89   4 -4.715531E+04 -1.193548E+04 -2.361552E+02 -2.476629E+04  1.156190E+03 -2.608649E+03
        89   5 -4.774775E+04 -1.132025E+04 -4.167673E+02 -2.406412E+04  1.561325E+03 -3.056601E+03
        89   6 -4.715743E+04 -1.194814E+04 -7.576600E+02 -2.476169E+04  1.961517E+03 -3.491347E+03
        89   7 -8.246649E+04 -2.473576E+04 -6.910912E+03 -3.456649E+04  3.305574E+02 -2.918327E+03
        89   8 -8.985292E+04 -2.657511E+04 -8.360054E+03 -3.574495E+04  7.561656E+02 -3.358617E+03
        89   9 -9.606050E+04 -2.966161E+04 -9.985672E+03 -3.832314E+04  1.176825E+03 -3.785700E+03
        89  10 -1.184282E+04  8.649009E+02  6.438539E+03 -1.496557E+04 -1.980309E-10 -8.148899E-10
        89  11 -5.640535E+03  3.934830E+03  7.526482E+03 -1.238249E+04 -7.749533E-10 -2.747117E-10
        89  12  1.748583E+03  5.765711E+03  8.470351E+03 -1.119913E+04 -4.707035E-10  5.715019E-10
        89  13 -4.715531E+04 -1.193549E+04 -2.361705E+02 -2.476629E+04  2.095167E-10 -7.561500E-10
        89  14 -4.774776E+04 -1.132027E+04 -4.167895E+02 -2.406412E+04 -9.144449E-11 -3.557573E-10
        89  15 -4.715743E+04 -1.194815E+04 -7.576902E+02 -2.476169E+04  4.937506E-10 -2.309586E-10
        89  16 -8.246649E+04 -2.473576E+04 -6.910928E+03 -3.456649E+04  5.277918E-10 -6.480107E-10
        89  17 -8.985293E+04 -2.657512E+04 -8.360076E+03 -3.574495E+04 -2.600760E-10 -5.911010E-10
        89  18 -9.606050E+04 -2.966163E+04 -9.985702E+03 -3.832314E+04 -5.121859E-10 -9.594826E-10
        89  19 -1.184282E+04  8.649076E+02  6.438557E+03 -1.496557E+04 -1.981872E+03  2.298951E+03
        89  20 -5.640527E+03  3.934839E+03  7.526507E+03 -1.238250E+04 -2.366547E+03  2.754562E+03
        89  21  1.748594E+03  5.765724E+03  8.470384E+03 -1.119914E+04 -2.746282E+03  3.196966E+03
        89  22 -4.715531E+04 -1.193548E+04 -2.361552E+02 -2.476629E+04 -1.156190E+03  2.608649E+03
        89  23 -4.774775E+04 -1.132025E+04 -4.167673E+02 -2.406412E+04 -1.561325E+03  3.056601E+03
        89  24 -4.715743E+04 -1.194814E+04 -7.576600E+02 -2.476169E+04 -1.961517E+03  3.491347E+03
        89  25 -8.246649E+04 -2.473576E+04 -6.910912E+03 -3.456649E+04 -3.305574E+02  2.918327E+03
        89  26 -8.985292E+04 -2.657511E+04 -8.360054E+03 -3.574495E+04 -7.561656E+02  3.358617E+03
        89  27 -9.606050E+04 -2.966161E+04 -9.985672E+03 -3.832314E+04 -1.176825E+03  3.785700E+03
        90   1  6.278516E+03  7.377067E+03  9.115024E+03 -1.002949E+04  3.030331E+03 -3.440149E+03
        90   2  1.242102E+04  1.050712E+04  9.647752E+03 -7.243249E+03  3.852191E+03 -3.631462E+03
        90   3  1.953247E+04  1.200421E+04  9.578908E+03 -5.762428E+03  4.609325E+03 -3.650106E+03
        90   4 -4.720023E+04 -1.193018E+04 -1.007327E+03 -2.478435E+04  2.217340E+03 -3.745128E+03
        90   5 -4.770163E+04 -1.139497E+04 -1.838175E+03 -2.401621E+04  3.306824E+03 -3.836079E+03
        90   6 -4.728728E+04 -1.254586E+04 -3.482697E+03 -2.455360E+04  4.331573E+03 -3.754354E+03
        90   7 -1.006765E+05 -3.123737E+04 -1.112993E+04 -3.953817E+04  1.404417E+03 -4.050082E+03
        90   8 -1.078208E+05 -3.329684E+04 -1.332433E+04 -4.078775E+04  2.761512E+03 -4.040676E+03
        90   9 -1.141024E+05 -3.709552E+04 -1.654451E+04 -4.334290E+04  4.053853E+03 -3.858590E+03
        90  10  6.278503E+03  7.377052E+03  9.114985E+03 -1.002948E+04 -9.662922E-10 -6.007939E-11
        90  11  1.242100E+04  1.050711E+04  9.647699E+03 -7.243238E+03  8.924603E-09  2.325190E-09
        90  12  1.953244E+04  1.200419E+04  9.578843E+03 -5.762415E+03  6.736739E-09  6.864201E-10
        90  13 -4.720024E+04 -1.193020E+04 -1.007362E+03 -2.478434E+04  3.612584E-09  1.209177E-09
        90  14 -4.770165E+04 -1.139499E+04 -1.838223E+03 -2.401620E+04  6.913656E-09  2.432202E-09
        90  15 -4.728731E+04 -1.254588E+04 -3.482759E+03 -2.455359E+04 -2.461676E-09 -8.605144E-10
        90  16 -1.006765E+05 -3.123739E+04 -1.112996E+04 -3.953817E+04  8.314903E-09  2.393877E-09
        90  17 -1.078208E+05 -3.329686E+04 -1.332438E+04 -4.078774E+04  5.504494E-09  2.939729E-09
        90  18 -1.141024E+05 -3.709554E+04 -1.654457E+04 -4.334288E+04 -1.113007E-08 -2.545642E-09
        90  19  6.278516E+03  7.377067E+03  9.115024E+03 -1.002949E+04 -3.030331E+03  3.440149E+03
        90  20  1.242102E+04  1.050712E+04  9.647752E+03 -7.243249E+03 -3.852191E+03  3.631462E+03
        90  21  1.953247E+04  1.200421E+04  9.578908E+03 -5.762428E+03 -4.609325E+03  3.650106E+03
        90  22 -4.720023E+04 -1.193018E+04 -1.007327E+03 -2.478435E+04 -2.217340E+03  3.745128E+03
        90  23 -4.770163E+04 -1.139497E+04 -1.838175E+03 -2.401621E+04 -3.306824E+03  3.836079E+03
        90  24 -4.728728E+04 -1.254586E+04 -3.482697E+03 -2.455360E+04 -4.331573E+03  3.754354E+03
        90  25 -1.006765E+05 -3.123737E+04 -1.112993E+04 -3.953817E+04 -1.404417E+03  4.050082E+03
        90  26 -1.078208E+05 -3.329684E+04 -1.332433E+04 -4.078775E+04 -2.761512E+03  4.040676E+03
        90  27 -1.141024E+05 -3.709552E+04 -1.654451E+04 -4.334290E+04 -4.053853E+03  3.858590E+03
        91   1  2.459182E+04  1.303451E+04  9.443757E+03 -5.996046E+03  5.602723E+03 -3.576552E+03
        91   2  2.790194E+04  1.759701E+04  7.990186E+03  2.193750E+03  6.359705E+03 -2.479336E+03
        91   3  2.873383E+04  1.189416E+04  3.257618E+03  1.155276E+04  6.268185E+03  8.796564E+02
        91   4 -4.785711E+04 -1.219840E+04 -4.590394E+03 -2.490726E+04  4.954252E+03 -3.819867E+03
        91   5 -4.729750E+04 -1.401139E+04 -8.657016E+03 -2.275614E+04  9.217948E+03 -1.407172E+03
        91   6 -4.991110E+04 -2.678510E+04 -1.878090E+04 -1.943593E+04  1.263307E+04  3.267369E+03
        91   7 -1.203005E+05 -3.743091E+04 -1.862474E+04 -4.381644E+04  4.305863E+03 -4.063154E+03
        91   8 -1.224901E+05 -4.561837E+04 -2.530423E+04 -4.770274E+04  1.207578E+04 -3.352096E+02
        91   9 -1.285477E+05 -6.546152E+04 -4.081921E+04 -5.041985E+04  1.899692E+04  5.654455E+03
        91  10  2.459178E+04  1.303449E+04  9.443674E+03 -5.996029E+03 -8.466067E-09 -3.848886E-09
        91  11  2.790189E+04  1.759699E+04  7.990099E+03  2.193762E+03 -2.275321E-09  5.247841E-10
        91  12  2.873379E+04  1.189415E+04  3.257543E+03  1.155276E+04  1.186863E-09  9.472589E-10
        91  13 -4.785714E+04 -1.219842E+04 -4.590467E+03 -2.490724E+04 -5.302137E-09 -2.034215E-09
        91  14 -4.729759E+04 -1.401141E+04 -8.657179E+03 -2.275613E+04 -3.537021E-10  4.797385E-10
        91  15 -4.991128E+04 -2.678515E+04 -1.878122E+04 -1.943596E+04  1.248268E-10  5.386746E-10
        91  16 -1.203005E+05 -3.743094E+04 -1.862481E+04 -4.381643E+04 -2.299569E-09 -1.096511E-11
        91  17 -1.224902E+05 -4.561841E+04 -2.530451E+04 -4.770273E+04  1.665738E-09 -1.323325E-10
        91  18 -1.285481E+05 -6.546165E+04 -4.081995E+04 -5.041993E+04 -5.305633E-11 -5.322748E-10
        91  19  2.459182E+04  1.303451E+04  9.443757E+03 -5.996046E+03 -5.602723E+03  3.576552E+03
        91  20  2.790194E+04  1.759701E+04  7.990186E+03  2.193750E+03 -6.359705E+03  2.479336E+03
        91  21  2.873383E+04  1.189416E+04  3.257618E+03  1.155276E+04 -6.268185E+03 -8.796564E+02
        91  22 -4.785711E+04 -1.219840E+04 -4.590394E+03 -2.490726E+04 -4.954252E+03  3.819867E+03
        91  23 -4.729750E+04 -1.401139E+04 -8.657016E+03 -2.275614E+04 -9.217948E+03  1.407172E+03
        91  24 -4.991110E+04 -2.678510E+04 -1.878090E+04 -1.943593E+04 -1.263307E+04 -3.267369E+03
        91  25 -1.203005E+05 -3.743091E+04 -1.862474E+04 -4.381644E+04 -4.305863E+03  4.063154E+03
        91  26 -1.224901E+05 -4.561837E+04 -2.530423E+04 -4.770274E+04 -1.207578E+04  3.352096E+02
        91  27 -1.285477E+05 -6.546152E+04 -4.081921E+04 -5.041985E+04 -1.899692E+04 -5.654455E+03
        92   1  2.136430E+05  3.307157E+04  2.947186E+04  4.342169E+03  9.622603E+03 -2.415559E+03
        92   2  2.047956E+05  3.612571E+04  2.398551E+04  7.347537E+03  4.232987E+03 -8.369322E+03
        92   3  1.958457E+05  3.595756E+04  2.120281E+04  1.153194E+04 -1.157147E+03 -1.067369E+04
        92   4  3.415331E+04 -1.106486E+04 -1.176682E+04  1.179102E+04 -8.299619E+03 -2.419750E+03
        92   5  3.493513E+04 -3.819823E+03 -5.917596E+03  1.120014E+04 -5.278737E+03 -8.371969E+03
        92   6  3.415408E+04 -1.257587E+03 -3.204548E+03  1.178830E+04 -2.258572E+03 -1.067427E+04
        92   7 -1.453057E+05 -5.520316E+04 -5.300638E+04  1.923771E+04 -2.621670E+04 -2.424371E+03
        92   8 -1.348969E+05 -4.376683E+04 -3.582141E+04  1.505165E+04 -1.478794E+04 -8.374735E+03
        92   9 -1.275113E+05 -3.847398E+04 -2.761243E+04  1.204460E+04 -3.359722E+03 -1.067485E+04
        92  10  2.136429E+05  3.307154E+04  2.947167E+04  4.342188E+03 -2.434616E-10 -5.895056E-11
        92  11  2.047956E+05  3.612563E+04  2.398535E+04  7.347566E+03  1.151268E-10 -5.711670E-10
        92  12  1.958457E+05  3.595744E+04  2.120259E+04  1.153193E+04 -1.113696E-10 -9.776771E-10
        92  13  3.415324E+04 -1.106489E+04 -1.176696E+04  1.179101E+04 -1.940221E-10  2.472052E-10
        92  14  3.493508E+04 -3.819905E+03 -5.917780E+03  1.120010E+04 -8.715436E-10 -1.499627E-10
        92  15  3.415404E+04 -1.257710E+03 -3.204771E+03  1.178828E+04 -4.334091E-10 -4.692909E-10
        92  16 -1.453065E+05 -5.520335E+04 -5.300768E+04  1.923766E+04  1.919768E-10  2.195112E-10
        92  17 -1.348972E+05 -4.376696E+04 -3.582195E+04  1.505155E+04 -2.632547E-10 -4.742714E-10
        92  18 -1.275114E+05 -3.847410E+04 -2.761267E+04  1.204457E+04 -1.621792E-10 -1.119633E-09
        92  19  2.136430E+05  3.307157E+04  2.947186E+04  4.342169E+03 -9.622603E+03  2.415559E+03
        92  20  2.047956E+05  3.612571E+04  2.398551E+04  7.347537E+03 -4.232987E+03  8.369322E+03
        92  21  1.958457E+05  3.595756E+04  2.120281E+04  1.153194E+04  1.157147E+03  1.067369E+04
        92  22  3.415331E+04 -1.106486E+04 -1.176682E+04  1.179102E+04  8.299619E+03  2.419750E+03
        92  23  3.493513E+04 -3.819823E+03 -5.917596E+03  1.120014E+04  5.278737E+03  8.371969E+03
        92  24  3.415408E+04 -1.257587E+03 -3.204548E+03  1.178830E+04  2.258572E+03  1.067427E+04
        92  25 -1.453057E+05 -5.520316E+04 -5.300638E+04  1.923771E+04  2.621670E+04  2.424371E+03
        92  26 -1.348969E+05 -4.376683E+04 -3.582141E+04  1.505165E+04  1.478794E+04  8.374735E+03
        92  27 -1.275113E+05 -3.847398E+04 -2.761243E+04  1.204460E+04  3.359722E+03  1.067485E+04
        93   1  1.904026E+05  3.481164E+04  2.039823E+04  1.135170E+04 -9.386122E+02 -1.079247E+04
        93   2  1.815327E+05  3.317061E+04  1.902348E+04  1.090819E+04 -1.382362E+03 -1.094794E+04
        93   3  1.726588E+05  3.128236E+04  1.787593E+04  1.191436E+04 -1.826278E+03 -1.062935E+04
        93   4  3.445871E+04 -9.310556E+02 -2.394202E+03  1.184857E+04 -1.842464E+03 -1.079301E+04
        93   5  3.455586E+04 -2.843950E+02 -1.294733E+03  1.112357E+04 -1.193847E+03 -1.094814E+04
        93   6  3.445955E+04 -7.458933E+01 -7.265615E+02  1.184828E+04 -5.453852E+02 -1.062916E+04
        93   7 -1.214607E+05 -3.667487E+04 -2.518705E+04  1.234530E+04 -2.746098E+03 -1.079355E+04
        93   8 -1.123990E+05 -3.374036E+04 -2.161320E+04  1.133890E+04 -1.005374E+03 -1.094835E+04
        93   9 -1.037203E+05 -3.143236E+04 -1.932922E+04  1.178222E+04  7.352360E+02 -1.062898E+04
        93  10  1.904026E+05  3.481151E+04  2.039801E+04  1.135169E+04 -6.784972E-08 -1.630305E-09
        93  11  1.815326E+05  3.317048E+04  1.902326E+04  1.090818E+04  1.170096E-10 -1.300693E-09
        93  12  1.726588E+05  3.128224E+04  1.787571E+04  1.191435E+04  6.747916E-08 -1.260172E-09
        93  13  3.445867E+04 -9.311816E+02 -2.394427E+03  1.184855E+04 -1.272727E-09 -1.420819E-09
        93  14  3.455583E+04 -2.845241E+02 -1.294961E+03  1.112356E+04 -1.970712E-09 -1.575947E-09
        93  15  3.445952E+04 -7.471073E+01 -7.267744E+02  1.184828E+04 -4.089701E-10 -1.897620E-09
        93  16 -1.214607E+05 -3.667500E+04 -2.518728E+04  1.234528E+04  6.772143E-08 -1.032238E-09
        93  17 -1.123990E+05 -3.374048E+04 -2.161343E+04  1.133889E+04 -5.100009E-11 -1.552353E-09
        93  18 -1.037203E+05 -3.143248E+04 -1.932943E+04  1.178222E+04 -6.801911E-08 -1.449200E-09
        93  19  1.904026E+05  3.481164E+04  2.039823E+04  1.135170E+04  9.386122E+02  1.079247E+04
        93  20  1.815327E+05  3.317061E+04  1.902348E+04  1.090819E+04  1.382362E+03  1.094794E+04
        93  21  1.726588E+05  3.128236E+04  1.787593E+04  1.191436E+04  1.826278E+03  1.062935E+04
        93  22  3.445871E+04 -9.310556E+02 -2.394202E+03  1.184857E+04  1.842464E+03  1.079301E+04
        93  23  3.455586E+04 -2.843950E+02 -1.294733E+03  1.112357E+04  1.193847E+03  1.094814E+04
        93  24  3.445955E+04 -7.458933E+01 -7.265615E+02  1.184828E+04  5.453852E+02  1.062916E+04
        93  25 -1.214607E+05 -3.667487E+04 -2.518705E+04  1.234530E+04  2.746098E+03  1.079355E+04
        93  26 -1.123990E+05 -3.374036E+04 -2.161320E+04  1.133890E+04  1.005374E+03  1.094835E+04
        93  27 -1.037203E+05 -3.143236E+04 -1.932922E+04  1.178222E+04 -7.352360E+02  1.062898E+04
        94   1  1.671680E+05  3.002710E+04  1.718941E+04  1.188739E+04 -1.744423E+03 -1.028517E+04
        94   2  1.583031E+05  2.803598E+04  1.610741E+04  1.115518E+04 -1.734114E+03 -9.687498E+03
        94   3  1.494333E+05  2.603201E+04  1.501540E+04  1.190699E+04 -1.723870E+03 -9.028277E+03
        94   4  3.449626E+04 -5.146604E+01 -5.477205E+02  1.185593E+04 -4.379472E+02 -1.028494E+04
        94   5  3.451141E+04 -2.321954E+00 -3.066683E+02  1.111390E+04 -2.858317E+02 -9.687174E+03
        94   6  3.449700E+04  9.366792E+00 -1.741087E+02  1.185590E+04 -1.337809E+02 -9.027847E+03
        94   7 -9.815752E+04 -3.013078E+04 -1.828499E+04  1.182447E+04  8.682626E+02 -1.028472E+04
        94   8 -8.926459E+04 -2.804127E+04 -1.672085E+04  1.107263E+04  1.162176E+03 -9.686850E+03
        94   9 -8.042576E+04 -2.601384E+04 -1.536370E+04  1.180482E+04  1.456028E+03 -9.027418E+03
        94  10  1.671680E+05  3.002699E+04  1.718920E+04  1.188737E+04  6.180543E-12 -5.910951E-10
        94  11  1.583030E+05  2.803587E+04  1.610723E+04  1.115517E+04  1.822485E-09  8.421927E-11
        94  12  1.494332E+05  2.603193E+04  1.501524E+04  1.190698E+04  3.602239E-09 -7.243788E-11
        94  13  3.449623E+04 -5.157968E+01 -5.479196E+02  1.185592E+04 -7.419347E-10 -1.388515E-09
        94  14  3.451138E+04 -2.422747E+00 -3.068448E+02  1.111390E+04  7.147799E-10  3.918025E-10
        94  15  3.449698E+04  9.279266E+00 -1.742618E+02  1.185590E+04  2.330731E-10  5.323897E-10
        94  16 -9.815755E+04 -3.013090E+04 -1.828519E+04  1.182448E+04 -2.930525E-10 -6.457563E-10
        94  17 -8.926462E+04 -2.804137E+04 -1.672103E+04  1.107264E+04 -2.477844E-09  3.081617E-10
        94  18 -8.042578E+04 -2.601393E+04 -1.536386E+04  1.180483E+04 -2.738253E-09 -1.791389E-11
        94  19  1.671680E+05  3.002710E+04  1.718941E+04  1.188739E+04  1.744423E+03  1.028517E+04
        94  20  1.583031E+05  2.803598E+04  1.610741E+04  1.115518E+04  1.734114E+03  9.687498E+03
        94  21  1.494333E+05  2.603201E+04  1.501540E+04  1.190699E+04  1.723870E+03  9.028277E+03
        94  22  3.449626E+04 -5.146604E+01 -5.477205E+02  1.185593E+04  4.379472E+02  1.028494E+04
        94  23  3.451141E+04 -2.321954E+00 -3.066683E+02  1.111390E+04  2.858317E+02  9.687174E+03
        94  24  3.449700E+04  9.366792E+00 -1.741087E+02  1.185590E+04  1.337809E+02  9.027847E+03
        94  25 -9.815752E+04 -3.013078E+04 -1.828499E+04  1.182447E+04 -8.682626E+02  1.028472E+04
        94  26 -8.926459E+04 -2.804127E+04 -1.672085E+04  1.107263E+04 -1.162176E+03  9.686850E+03
        94  27 -8.042576E+04 -2.601384E+04 -1.536370E+04  1.180482E+04 -1.456028E+03  9.027418E+03
        95   1  1.439406E+05  2.477930E+04  1.429046E+04  1.190096E+04 -1.700156E+03 -8.624016E+03
        95   2  1.350760E+05  2.277262E+04  1.317536E+04  1.115239E+04 -1.682671E+03 -7.928611E+03
        95   3  1.262090E+05  2.076762E+04  1.204907E+04  1.189181E+04 -1.665227E+03 -7.225252E+03
        95   4  3.450249E+04  9.686582E+00 -1.311420E+02  1.185679E+04 -1.067925E+02 -8.623555E+03
        95   5  3.450574E+04  1.095177E+01 -7.279670E+01  1.111278E+04 -7.100387E+01 -7.928098E+03
        95   6  3.450310E+04  1.068164E+01 -3.839566E+01  1.185679E+04 -3.525677E+01 -7.224686E+03
        95   7 -7.492334E+04 -2.476044E+04 -1.455282E+04  1.181263E+04  1.486303E+03 -8.623095E+03
        95   8 -6.605422E+04 -2.275114E+04 -1.332101E+04  1.107319E+04  1.540414E+03 -7.927585E+03
        95   9 -5.719422E+04 -2.074661E+04 -1.212591E+04  1.182178E+04  1.594484E+03 -7.224119E+03
        95  10  1.439405E+05  2.477922E+04  1.429031E+04  1.190095E+04  2.481252E-09 -2.103065E-10
        95  11  1.350760E+05  2.277255E+04  1.317523E+04  1.115237E+04  1.625033E-09  1.007344E-09
        95  12  1.262090E+05  2.076756E+04  1.204897E+04  1.189180E+04  2.628545E-09  1.003594E-09
        95  13  3.450247E+04  9.606722E+00 -1.312817E+02  1.185679E+04 -1.689045E-10 -6.570193E-11
        95  14  3.450573E+04  1.088427E+01 -7.291483E+01  1.111278E+04 -3.473809E-10  7.177619E-10
        95  15  3.450309E+04  1.062558E+01 -3.849375E+01  1.185679E+04  7.879156E-11  4.486999E-10
        95  16 -7.492336E+04 -2.476052E+04 -1.455296E+04  1.181264E+04 -2.283768E-09 -3.182238E-10
        95  17 -6.605424E+04 -2.275121E+04 -1.332113E+04  1.107320E+04 -1.097684E-09 -1.405245E-10
        95  18 -5.719424E+04 -2.074666E+04 -1.212602E+04  1.182179E+04 -2.348070E-09  2.384437E-10
        95  19  1.439406E+05  2.477930E+04  1.429046E+04  1.190096E+04  1.700156E+03  8.624016E+03
        95  20  1.350760E+05  2.277262E+04  1.317536E+04  1.115239E+04  1.682671E+03  7.928611E+03
        95  21  1.262090E+05  2.076762E+04  1.204907E+04  1.189181E+04  1.665227E+03  7.225252E+03
        95  22  3.450249E+04  9.686582E+00 -1.311420E+02  1.185679E+04  1.067925E+02  8.623555E+03
        95  23  3.450574E+04  1.095177E+01 -7.279670E+01  1.111278E+04  7.100387E+01  7.928098E+03
        95  24  3.450310E+04  1.068164E+01 -3.839566E+01  1.185679E+04  3.525677E+01  7.224686E+03
        95  25 -7.492334E+04 -2.476044E+04 -1.455282E+04  1.181263E+04 -1.486303E+03  8.623095E+03
        95  26 -6.605422E+04 -2.275114E+04 -1.332101E+04  1.107319E+04 -1.540414E+03  7.927585E+03
        95  27 -5.719422E+04 -2.074661E+04 -1.212591E+04  1.182178E+04 -1.594484E+03  7.224119E+03
        96   1  1.207162E+05  1.951758E+04  1.130589E+04  1.188967E+04 -1.659882E+03 -6.813239E+03
        96   2  1.118520E+05  1.751292E+04  1.017082E+04  1.114197E+04 -1.658473E+03 -6.105313E+03
        96   3  1.029868E+05  1.551026E+04  9.034915E+03  1.188338E+04 -1.657093E+03 -5.396545E+03
        96   4  3.450433E+04  1.033467E+01 -2.630614E+01  1.185704E+04 -2.954006E+01 -6.812649E+03
        96   5  3.450517E+04  9.251559E+00 -7.336259E+00  1.111248E+04 -2.619125E+01 -6.104687E+03
        96   6  3.450480E+04  9.876970E+00  9.499670E+00  1.185704E+04 -2.287218E+01 -5.395883E+03
        96   7 -5.169999E+04 -1.949722E+04 -1.135855E+04  1.182441E+04  1.600587E+03 -6.812059E+03
        96   8 -4.283555E+04 -1.749466E+04 -1.018552E+04  1.108299E+04  1.605897E+03 -6.104060E+03
        96   9 -3.397246E+04 -1.549071E+04 -9.015938E+03  1.183070E+04  1.611177E+03 -5.395220E+03
        96  10  1.207162E+05  1.951753E+04  1.130580E+04  1.188966E+04  2.988309E-08 -3.759272E-10
        96  11  1.118520E+05  1.751288E+04  1.017074E+04  1.114196E+04 -5.662785E-09 -3.126448E-09
        96  12  1.029868E+05  1.551023E+04  9.034855E+03  1.188337E+04 -4.134353E-08 -5.876672E-09
        96  13  3.450431E+04  1.028483E+01 -2.639336E+01  1.185704E+04 -4.049749E-10  3.109024E-09
        96  14  3.450516E+04  9.211540E+00 -7.406294E+00  1.111248E+04  7.118561E-10  7.309102E-09
        96  15  3.450479E+04  9.845704E+00  9.444955E+00  1.185704E+04 -2.125337E-10  1.160725E-08
        96  16 -5.170000E+04 -1.949727E+04 -1.135864E+04  1.182442E+04 -2.969408E-08  4.880436E-10
        96  17 -4.283557E+04 -1.749471E+04 -1.018559E+04  1.108300E+04  5.559278E-09 -2.893102E-09
        96  18 -3.397247E+04 -1.549074E+04 -9.015998E+03  1.183070E+04  4.148226E-08 -5.867524E-09
        96  19  1.207162E+05  1.951758E+04  1.130589E+04  1.188967E+04  1.659882E+03  6.813239E+03
        96  20  1.118520E+05  1.751292E+04  1.017082E+04  1.114197E+04  1.658473E+03  6.105313E+03
        96  21  1.029868E+05  1.551026E+04  9.034915E+03  1.188338E+04  1.657093E+03  5.396545E+03
        96  22  3.450433E+04  1.033467E+01 -2.630614E+01  1.185704E+04  2.954006E+01  6.812649E+03
        96  23  3.450517E+04  9.251559E+00 -7.336259E+00  1.111248E+04  2.619125E+01  6.104687E+03
        96  24  3.450480E+04  9.876970E+00  9.499670E+00  1.185704E+04  2.287218E+01  5.395883E+03
        96  25 -5.169999E+04 -1.949722E+04 -1.135855E+04  1.182441E+04 -1.600587E+03  6.812059E+03
        96  26 -4.283555E+04 -1.749466E+04 -1.018552E+04  1.108299E+04 -1.605897E+03  6.104060E+03
        96  27 -3.397246E+04 -1.549071E+04 -9.015938E+03  1.183070E+04 -1.611177E+03  5.395220E+03
        97   1  9.749508E+04  1.426108E+04  8.290260E+03  1.188231E+04 -1.659660E+03 -4.983721E+03
        97   2  8.862969E+04  1.225890E+04  7.161145E+03  1.113318E+04 -1.678223E+03 -4.275147E+03
        97   3  7.976705E+04  1.026357E+04  6.045369E+03  1.187276E+04 -1.696806E+03 -3.567781E+03
        97   4  3.450590E+04  9.899878E+00  1.864919E+01  1.185695E+04 -2.549382E+01 -4.983040E+03
        97   5  3.450449E+04  1.089126E+01  4.239410E+01  1.111259E+04 -4.685149E+01 -4.274443E+03
        97   6  3.450623E+04  1.922100E+01  8.141055E+01  1.185695E+04 -6.822926E+01 -3.567054E+03
        97   7 -2.847921E+04 -1.424145E+04 -8.252978E+03  1.183160E+04  1.608514E+03 -4.982360E+03
        97   8 -1.961771E+04 -1.223724E+04 -7.076367E+03  1.109200E+04  1.584385E+03 -4.273739E+03
        97   9 -1.075250E+04 -1.022522E+04 -5.882552E+03  1.184113E+04  1.560235E+03 -3.566327E+03
        97  10  9.749507E+04  1.426106E+04  8.290208E+03  1.188230E+04  4.055263E-08 -5.050795E-09
        97  11  8.862969E+04  1.225888E+04  7.161106E+03  1.113317E+04  5.763308E-09 -2.704257E-09
        97  12  7.976705E+04  1.026356E+04  6.045339E+03  1.187276E+04 -2.752587E-08 -3.263877E-10
        97  13  3.450589E+04  9.873213E+00  1.860253E+01  1.185695E+04  1.160224E-10  1.202396E-08
        97  14  3.450449E+04  1.087164E+01  4.235976E+01  1.111259E+04 -1.138944E-10  7.175208E-09
        97  15  3.450623E+04  1.920733E+01  8.138663E+01  1.185694E+04  1.472680E-10  2.179739E-09
        97  16 -2.847922E+04 -1.424148E+04 -8.253029E+03  1.183160E+04 -4.060203E-08 -5.286445E-09
        97  17 -1.961772E+04 -1.223726E+04 -7.076406E+03  1.109200E+04 -5.927156E-09 -4.158049E-09
        97  18 -1.075250E+04 -1.022523E+04 -5.882580E+03  1.184113E+04  2.807675E-08 -4.773400E-10
        97  19  9.749508E+04  1.426108E+04  8.290260E+03  1.188231E+04  1.659660E+03  4.983721E+03
        97  20  8.862969E+04  1.225890E+04  7.161145E+03  1.113318E+04  1.678223E+03  4.275147E+03
        97  21  7.976705E+04  1.026357E+04  6.045369E+03  1.187276E+04  1.696806E+03  3.567781E+03
        97  22  3.450590E+04  9.899878E+00  1.864919E+01  1.185695E+04  2.549382E+01  4.983040E+03
        97  23  3.450449E+04  1.089126E+01  4.239410E+01  1.111259E+04  4.685149E+01  4.274443E+03
        97  24  3.450623E+04  1.922100E+01  8.141055E+01  1.185695E+04  6.822926E+01  3.567054E+03
        97  25 -2.847921E+04 -1.424145E+04 -8.252978E+03  1.183160E+04 -1.608514E+03  4.982360E+03
        97  26 -1.961771E+04 -1.223724E+04 -7.076367E+03  1.109200E+04 -1.584385E+03  4.273739E+03
        97  27 -1.075250E+04 -1.022522E+04 -5.882552E+03  1.184113E+04 -1.560235E+03  3.566327E+03
        98   1  7.427980E+04  9.017531E+03  5.317826E+03  1.187590E+04 -1.712494E+03 -3.156146E+03
        98   2  6.540404E+04  7.044116E+03  4.242786E+03  1.108563E+04 -1.788212E+03 -2.454761E+03
        98   3  5.655286E+04  5.135294E+03  3.232706E+03  1.178313E+04 -1.863935E+03 -1.763589E+03
        98   4  3.451194E+04  2.279259E+01  1.095082E+02  1.185674E+04 -8.448674E+01 -3.155408E+03
        98   5  3.449781E+04  5.422654E+01  1.975630E+02  1.111283E+04 -1.837584E+02 -2.454019E+03
        98   6  3.451212E+04  1.543076E+02  3.668855E+02  1.185668E+04 -2.830357E+02 -1.762845E+03
        98   7 -5.254303E+03 -8.972010E+03 -5.098809E+03  1.183758E+04  1.543421E+03 -3.154669E+03
        98   8  3.592559E+03 -6.935702E+03 -3.847656E+03  1.114002E+04  1.420619E+03 -2.453278E+03
        98   9  1.247189E+04 -4.826698E+03 -2.498928E+03  1.193022E+04  1.297810E+03 -1.762101E+03
        98  10  7.427980E+04  9.017519E+03  5.317801E+03  1.187589E+04 -2.397999E-09  7.920633E-10
        98  11  6.540404E+04  7.044109E+03  4.242768E+03  1.108563E+04 -1.461463E-09 -6.535339E-10
        98  12  5.655285E+04  5.135289E+03  3.232694E+03  1.178312E+04  1.312749E-10  2.402173E-10
        98  13  3.451194E+04  2.278189E+01  1.094894E+02  1.185674E+04 -6.890980E-10  4.093774E-10
        98  14  3.449781E+04  5.422006E+01  1.975516E+02  1.111283E+04 -1.214254E-10 -9.160429E-11
        98  15  3.451212E+04  1.543042E+02  3.668796E+02  1.185668E+04  5.514091E-10 -6.852628E-10
        98  16 -5.254309E+03 -8.972022E+03 -5.098833E+03  1.183758E+04  2.078997E-09  5.097142E-10
        98  17  3.592555E+03 -6.935709E+03 -3.847671E+03  1.114002E+04  1.349789E-09 -5.553705E-10
        98  18  1.247189E+04 -4.826701E+03 -2.498937E+03  1.193022E+04  2.906644E-10 -1.875934E-09
        98  19  7.427980E+04  9.017531E+03  5.317826E+03  1.187590E+04  1.712494E+03  3.156146E+03
        98  20  6.540404E+04  7.044116E+03  4.242786E+03  1.108563E+04  1.788212E+03  2.454761E+03
        98  21  5.655286E+04  5.135294E+03  3.232706E+03  1.178313E+04  1.863935E+03  1.763589E+03
        98  22  3.451194E+04  2.279259E+01  1.095082E+02  1.185674E+04  8.448674E+01  3.155408E+03
        98  23  3.449781E+04  5.422654E+01  1.975630E+02  1.111283E+04  1.837584E+02  2.454019E+03
        98  24  3.451212E+04  1.543076E+02  3.668855E+02  1.185668E+04  2.830357E+02  1.762845E+03
        98  25 -5.254303E+03 -8.972010E+03 -5.098809E+03  1.183758E+04 -1.543421E+03  3.154669E+03
        98  26  3.592559E+03 -6.935702E+03 -3.847656E+03  1.114002E+04 -1.420619E+03  2.453278E+03
        98  27  1.247189E+04 -4.826698E+03 -2.498928E+03  1.193022E+04 -1.297810E+03  1.762101E+03
        99   1  5.110205E+04  3.931640E+03  2.585480E+03  1.181682E+04 -1.923610E+03 -1.361950E+03
        99   2  4.213523E+04  2.305321E+03  1.757631E+03  1.052037E+04 -2.205816E+03 -7.171881E+02
        99   3  3.337568E+04  1.368119E+03  1.285225E+03  1.070575E+04 -2.487991E+03 -1.511518E+02
        99   4  3.455891E+04  2.044214E+02  4.914573E+02  1.185541E+04 -3.469923E+02 -1.361203E+03
        99   5  3.443952E+04  5.970242E+02  9.081274E+02  1.111413E+04 -8.105889E+02 -7.165261E+02
        99   6  3.455893E+04  1.710272E+03  1.806233E+03  1.185470E+04 -1.274160E+03 -1.505757E+02
        99   7  1.801606E+04 -3.522807E+03 -1.602557E+03  1.189399E+04  1.229586E+03 -1.360456E+03
        99   8  2.674387E+04 -1.111272E+03  5.863150E+01  1.170789E+04  5.846218E+02 -7.158613E+02
        99   9  3.574219E+04  2.052431E+03  2.327248E+03  1.300366E+04 -6.032736E+01 -1.499951E+02
        99  10  5.110205E+04  3.931637E+03  2.585469E+03  1.181682E+04 -8.261662E-10 -3.002591E-11
        99  11  4.213523E+04  2.305319E+03  1.757621E+03  1.052036E+04 -2.789119E-10 -9.403851E-10
        99  12  3.337567E+04  1.368117E+03  1.285214E+03  1.070575E+04 -5.776923E-10 -1.970537E-10
        99  13  3.455891E+04  2.044194E+02  4.914536E+02  1.185541E+04 -3.908293E-10  4.080218E-10
        99  14  3.443952E+04  5.970235E+02  9.081252E+02  1.111413E+04  1.216354E-10 -1.360508E-09
        99  15  3.455893E+04  1.710272E+03  1.806230E+03  1.185470E+04  4.064573E-10  3.766936E-10
        99  16  1.801605E+04 -3.522809E+03 -1.602563E+03  1.189399E+04  1.193783E-09 -4.326964E-10
        99  17  2.674387E+04 -1.111273E+03  5.862990E+01  1.170789E+04  9.999792E-10 -1.661670E-10
        99  18  3.574219E+04  2.052431E+03  2.327247E+03  1.300366E+04  7.926047E-10 -2.412117E-10
        99  19  5.110205E+04  3.931640E+03  2.585480E+03  1.181682E+04  1.923610E+03  1.361950E+03
        99  20  4.213523E+04  2.305321E+03  1.757631E+03  1.052037E+04  2.205816E+03  7.171881E+02
        99  21  3.337568E+04  1.368119E+03  1.285225E+03  1.070575E+04  2.487991E+03  1.511518E+02
        99  22  3.455891E+04  2.044214E+02  4.914573E+02  1.185541E+04  3.469923E+02  1.361203E+03
        99  23  3.443952E+04  5.970242E+02  9.081274E+02  1.111413E+04  8.105889E+02  7.165261E+02
        99  24  3.455893E+04  1.710272E+03  1.806233E+03  1.185470E+04  1.274160E+03  1.505757E+02
        99  25  1.801606E+04 -3.522807E+03 -1.602557E+03  1.189399E+04 -1.229586E+03  1.360456E+03
        99  26  2.674387E+04 -1.111272E+03  5.863150E+01  1.170789E+04 -5.846218E+02  7.158613E+02
        99  27  3.574219E+04  2.052431E+03  2.327248E+03  1.300366E+04  6.032736E+01  1.499951E+02
       100   1  1.636804E+03  9.831980E+04  2.001880E+03 -1.050713E+04 -1.592021E+02 -2.037498E+01
       100   2 -1.855672E+03  8.864657E+04 -4.030498E+02 -8.876491E+03 -7.471434E+02 -7.095109E+02
       100   3 -4.369766E+03  7.930645E+04 -2.115119E+03 -9.438713E+03 -1.398580E+03 -1.398656E+03
       100   4  1.574200E+03  9.820896E+04  1.802421E+03 -9.498118E+03 -1.594113E+02  9.010435E+02
       100   5  3.339105E+02  9.805150E+04  1.142195E+03 -8.401850E+03 -7.473732E+02  3.170633E+02
       100   6  5.378321E+01  9.820896E+04  1.101853E+03 -9.498445E+03 -1.398829E+03 -2.669337E+02
       100   7  1.511601E+03  9.809813E+04  1.602967E+03 -8.489102E+03 -1.596175E+02  1.822462E+03
       100   8  2.523490E+03  1.074565E+05  2.687442E+03 -7.927201E+03 -7.476015E+02  1.343653E+03
       100   9  4.477314E+03  1.171118E+05  4.318818E+03 -9.558178E+03 -1.399078E+03  8.648216E+02
       100  10  1.636804E+03  9.831980E+04  2.001880E+03 -1.050713E+04  5.664489E-10 -3.022705E-08
       100  11 -1.855673E+03  8.864657E+04 -4.030518E+02 -8.876491E+03  1.196190E-09  9.762830E-09
       100  12 -4.369768E+03  7.930645E+04 -2.115126E+03 -9.438715E+03 -1.972955E-10  4.925863E-08
       100  13  1.574200E+03  9.820896E+04  1.802420E+03 -9.498118E+03 -1.949457E-10  2.393383E-10
       100  14  3.339098E+02  9.805150E+04  1.142194E+03 -8.401849E+03  8.216756E-10 -1.525098E-11
       100  15  5.378109E+01  9.820896E+04  1.101849E+03 -9.498445E+03 -3.513017E-10  2.282110E-10
       100  16  1.511600E+03  9.809813E+04  1.602960E+03 -8.489101E+03  1.506396E-10  3.023114E-08
       100  17  2.523489E+03  1.074565E+05  2.687438E+03 -7.927200E+03 -1.159090E-10 -1.029190E-08
       100  18  4.477312E+03  1.171118E+05  4.318813E+03 -9.558177E+03 -1.356585E-09 -4.936611E-08
       100  19  1.636804E+03  9.831980E+04  2.001880E+03 -1.050713E+04  1.592021E+02  2.037498E+01
       100  20 -1.855672E+03  8.864657E+04 -4.030498E+02 -8.876491E+03  7.471434E+02  7.095109E+02
       100  21 -4.369766E+03  7.930645E+04 -2.115119E+03 -9.438713E+03  1.398580E+03  1.398656E+03
       100  22  1.574200E+03  9.820896E+04  1.802421E+03 -9.498118E+03  1.594113E+02 -9.010435E+02
       100  23  3.339105E+02  9.805150E+04  1.142195E+03 -8.401850E+03  7.473732E+02 -3.170633E+02
       100  24  5.378321E+01  9.820896E+04  1.101853E+03 -9.498445E+03  1.398829E+03  2.669337E+02
       100  25  1.511601E+03  9.809813E+04  1.602967E+03 -8.489102E+03  1.596175E+02 -1.822462E+03
       100  26  2.523490E+03  1.074565E+05  2.687442E+03 -7.927201E+03  7.476015E+02 -1.343653E+03
       100  27  4.477314E+03  1.171118E+05  4.318818E+03 -9.558178E+03  1.399078E+03 -8.648216E+02
       101   1 -5.827409E+03  7.305719E+04 -3.110260E+03 -9.622210E+03 -1.806426E+03 -1.599367E+03
       101   2 -8.035716E+03  6.345626E+04 -4.269693E+03 -8.345394E+03 -2.424230E+03 -2.248970E+03
       101   3 -9.838778E+03  5.404037E+04 -4.905189E+03 -9.257266E+03 -2.900753E+03 -2.898521E+03
       101   4  6.529237E+01  9.818904E+04  1.224140E+03 -9.497486E+03 -1.806672E+03 -4.589991E+02
       101   5  9.566777E+01  9.807613E+04  1.770339E+03 -8.403093E+03 -2.424411E+03 -1.342630E+03
       101   6  5.719019E+02  9.818877E+04  3.002949E+03 -9.497375E+03 -2.900874E+03 -2.226219E+03
       101   7  5.957960E+03  1.233215E+05  5.558523E+03 -9.372757E+03 -1.806918E+03  6.814136E+02
       101   8  8.226987E+03  1.326972E+05  7.810332E+03 -8.460794E+03 -2.424593E+03 -4.362413E+02
       101   9  1.098247E+04  1.423391E+05  1.091101E+04 -9.737503E+03 -2.900995E+03 -1.553871E+03
       101  10 -5.827413E+03  7.305718E+04 -3.110271E+03 -9.622212E+03 -1.301246E-09 -2.068772E-08
       101  11 -8.035724E+03  6.345626E+04 -4.269713E+03 -8.345399E+03 -9.865534E-10 -8.816497E-09
       101  12 -9.838789E+03  5.404036E+04 -4.905221E+03 -9.257272E+03 -5.818477E-11  5.730950E-09
       101  13  6.528881E+01  9.818904E+04  1.224134E+03 -9.497487E+03 -1.689921E-09  1.722690E-10
       101  14  9.566097E+01  9.807613E+04  1.770325E+03 -8.403095E+03 -8.820319E-10  1.218722E-11
       101  15  5.718916E+02  9.818876E+04  3.002923E+03 -9.497381E+03 -8.126317E-10  2.562247E-10
       101  16  5.957957E+03  1.233215E+05  5.558516E+03 -9.372756E+03 -1.926269E-09  2.065325E-08
       101  17  8.226981E+03  1.326972E+05  7.810320E+03 -8.460795E+03 -1.441206E-09  8.376901E-09
       101  18  1.098246E+04  1.423391E+05  1.091099E+04 -9.737506E+03 -1.601886E-09 -5.747387E-09
       101  19 -5.827409E+03  7.305719E+04 -3.110260E+03 -9.622210E+03  1.806426E+03  1.599367E+03
       101  20 -8.035716E+03  6.345626E+04 -4.269693E+03 -8.345394E+03  2.424230E+03  2.248970E+03
       101  21 -9.838778E+03  5.404037E+04 -4.905189E+03 -9.257266E+03  2.900753E+03  2.898521E+03
       101  22  6.529237E+01  9.818904E+04  1.224140E+03 -9.497486E+03  1.806672E+03  4.589991E+02
       101  23  9.566777E+01  9.807613E+04  1.770339E+03 -8.403093E+03  2.424411E+03  1.342630E+03
       101  24  5.719019E+02  9.818877E+04  3.002949E+03 -9.497375E+03  2.900874E+03  2.226219E+03
       101  25  5.957960E+03  1.233215E+05  5.558523E+03 -9.372757E+03  1.806918E+03 -6.814136E+02
       101  26  8.226987E+03  1.326972E+05  7.810332E+03 -8.460794E+03  2.424593E+03  4.362413E+02
       101  27  1.098247E+04  1.423391E+05  1.091101E+04 -9.737503E+03  2.900995E+03  1.553871E+03
       102   1 -1.156240E+04  4.821836E+04 -5.233792E+03 -1.025814E+04 -3.238501E+03 -3.613813E+03
       102   2 -1.154442E+04  3.774413E+04 -4.820510E+03 -4.826281E+03 -2.919332E+03 -4.401774E+03
       102   3 -4.319760E+03  2.917399E+04 -2.092564E+03 -1.474603E+03 -9.041196E+02 -5.189423E+03
       102   4  3.506177E+02  9.866996E+04  3.885664E+03 -9.473568E+03 -3.238661E+03 -2.737960E+03
       102   5  2.758918E+03  9.747388E+04  6.962842E+03 -8.432343E+03 -2.918914E+03 -6.334958E+03
       102   6  1.286104E+04  9.866900E+04  1.430500E+04 -9.471177E+03 -9.031876E+02 -9.931632E+03
       102   7  1.226350E+04  1.491241E+05  1.300502E+04 -8.688933E+03 -3.238819E+03 -1.862038E+03
       102   8  1.706209E+04  1.572071E+05  1.874604E+04 -1.203876E+04 -2.918473E+03 -8.268325E+03
       102   9  3.004175E+04  1.681686E+05  3.070234E+04 -1.746865E+04 -9.021336E+02 -1.467437E+04
       102  10 -1.156242E+04  4.821834E+04 -5.233836E+03 -1.025815E+04  4.667270E-10  5.459429E-10
       102  11 -1.154444E+04  3.774411E+04 -4.820562E+03 -4.826292E+03  9.290951E-10  1.655155E-10
       102  12 -4.319768E+03  2.917396E+04 -2.092617E+03 -1.474607E+03  1.527595E-10  3.149108E-10
       102  13  3.506045E+02  9.866995E+04  3.885630E+03 -9.473575E+03 -3.741007E-10  2.088140E-10
       102  14  2.758898E+03  9.747383E+04  6.962751E+03 -8.432358E+03 -4.908295E-10 -5.052141E-11
       102  15  1.286102E+04  9.866889E+04  1.430481E+04 -9.471184E+03 -2.594399E-11  2.519274E-10
       102  16  1.226348E+04  1.491240E+05  1.300500E+04 -8.688938E+03 -7.632507E-10 -5.003308E-10
       102  17  1.706207E+04  1.572070E+05  1.874590E+04 -1.203878E+04 -7.093768E-10 -4.545865E-10
       102  18  3.004169E+04  1.681684E+05  3.070194E+04 -1.746866E+04 -4.875052E-10 -3.463888E-10
       102  19 -1.156240E+04  4.821836E+04 -5.233792E+03 -1.025814E+04  3.238501E+03  3.613813E+03
       102  20 -1.154442E+04  3.774413E+04 -4.820510E+03 -4.826281E+03  2.919332E+03  4.401774E+03
       102  21 -4.319760E+03  2.917399E+04 -2.092564E+03 -1.474603E+03  9.041196E+02  5.189423E+03
       102  22  3.506177E+02  9.866996E+04  3.885664E+03 -9.473568E+03  3.238661E+03  2.737960E+03
       102  23  2.758918E+03  9.747388E+04  6.962842E+03 -8.432343E+03  2.918914E+03  6.334958E+03
       102  24  1.286104E+04  9.866900E+04  1.430500E+04 -9.471177E+03  9.031876E+02  9.931632E+03
       102  25  1.226350E+04  1.491241E+05  1.300502E+04 -8.688933E+03  3.238819E+03  1.862038E+03
       102  26  1.706209E+04  1.572071E+05  1.874604E+04 -1.203876E+04  2.918473E+03  8.268325E+03
       102  27  3.004175E+04  1.681686E+05  3.070234E+04 -1.746865E+04  9.021336E+02  1.467437E+04
       103   1  2.237718E+05  7.966006E+04  3.944317E+04  8.343605E+04  1.549966E+04  3.163111E+03
       103   2  2.111649E+05  7.424062E+04  2.810822E+04  7.983179E+04  1.002709E+04 -5.243398E+03
       103   3  1.984117E+05  7.091407E+04  2.255250E+04  7.798786E+04  3.145269E+03 -9.892972E+03
       103   4  5.824020E+04  1.903418E+04 -2.203849E+03  3.943515E+04 -5.703353E+02 -2.867831E+03
       103   5  5.923353E+04  1.961211E+04 -1.054922E+03  3.824717E+04  2.064593E+03 -8.231992E+03
       103   6  5.847501E+04  2.067787E+04 -5.474820E+02  3.881961E+04  3.289704E+03 -9.839030E+03
       103   7 -1.072564E+05 -4.158715E+04 -4.384981E+04 -4.553071E+03 -1.663490E+04 -8.896816E+03
       103   8 -9.266988E+04 -3.501299E+04 -3.021773E+04 -3.327014E+03 -5.895621E+03 -1.121975E+04
       103   9 -8.144040E+04 -2.955620E+04 -2.364781E+04 -3.402550E+02  3.434104E+03 -9.785101E+03
       103  10  2.237716E+05  7.965999E+04  3.944270E+04  8.343601E+04 -3.452027E-10 -2.305176E-10
       103  11  2.111647E+05  7.424056E+04  2.810798E+04  7.983183E+04 -5.943098E-10 -3.955382E-10
       103  12  1.984117E+05  7.091396E+04  2.255230E+04  7.798788E+04 -1.788411E-09 -4.019140E-11
       103  13  5.824020E+04  1.903417E+04 -2.203865E+03  3.943515E+04  1.574410E-11  2.886767E-10
       103  14  5.923350E+04  1.961203E+04 -1.055058E+03  3.824718E+04  2.030163E-10 -1.845406E-10
       103  15  5.847497E+04  2.067776E+04 -5.476843E+02  3.881964E+04 -6.506633E-10 -2.896953E-11
       103  16 -1.072567E+05 -4.158730E+04 -4.385048E+04 -4.553190E+03 -2.393202E-10 -1.244082E-11
       103  17 -9.266995E+04 -3.501313E+04 -3.021803E+04 -3.327067E+03 -5.795694E-10  3.746719E-10
       103  18 -8.144044E+04 -2.955631E+04 -2.364802E+04 -3.402279E+02  5.265998E-10  2.853936E-10
       103  19  2.237718E+05  7.966006E+04  3.944317E+04  8.343605E+04 -1.549966E+04 -3.163111E+03
       103  20  2.111649E+05  7.424062E+04  2.810822E+04  7.983179E+04 -1.002709E+04  5.243398E+03
       103  21  1.984117E+05  7.091407E+04  2.255250E+04  7.798786E+04 -3.145269E+03  9.892972E+03
       103  22  5.824020E+04  1.903418E+04 -2.203849E+03  3.943515E+04  5.703353E+02  2.867831E+03
       103  23  5.923353E+04  1.961211E+04 -1.054922E+03  3.824717E+04 -2.064593E+03  8.231992E+03
       103  24  5.847501E+04  2.067787E+04 -5.474820E+02  3.881961E+04 -3.289704E+03  9.839030E+03
       103  25 -1.072564E+05 -4.158715E+04 -4.384981E+04 -4.553071E+03  1.663490E+04  8.896816E+03
       103  26 -9.266988E+04 -3.501299E+04 -3.021773E+04 -3.327014E+03  5.895621E+03  1.121975E+04
       103  27 -8.144040E+04 -2.955620E+04 -2.364781E+04 -3.402550E+02 -3.434104E+03  9.785101E+03
       104   1  1.906175E+05  6.804059E+04  2.080480E+04  7.583920E+04  3.198238E+03 -9.676593E+03
       104   2  1.791492E+05  6.283665E+04  1.803432E+04  7.159321E+04  2.281908E+03 -9.728910E+03
       104   3  1.662673E+05  5.930221E+04  1.589983E+04  6.914358E+04  1.204351E+03 -9.351821E+03
       104   4  5.849178E+04  2.076793E+04 -4.056560E+02  3.887744E+04  3.286659E+03 -9.643658E+03
       104   5  5.929935E+04  2.008778E+04 -2.100980E+02  3.795577E+04  3.296974E+03 -9.348114E+03
       104   6  5.851004E+04  2.089374E+04 -1.123819E+02  3.883045E+04  3.146047E+03 -8.623112E+03
       104   7 -7.361695E+04 -2.650361E+04 -2.161694E+04  1.922590E+03  3.375061E+03 -9.610730E+03
       104   8 -6.053579E+04 -2.265987E+04 -1.845493E+04  4.324215E+03  4.311839E+03 -8.967393E+03
       104   9 -4.923470E+04 -1.751350E+04 -1.612472E+04  8.522276E+03  5.087389E+03 -7.894536E+03
       104  10  1.906175E+05  6.804049E+04  2.080461E+04  7.583923E+04 -2.152232E-09  6.445707E-11
       104  11  1.791492E+05  6.283655E+04  1.803413E+04  7.159323E+04 -1.445837E-09 -5.741916E-10
       104  12  1.662673E+05  5.930212E+04  1.589966E+04  6.914358E+04 -1.533657E-09 -6.840614E-10
       104  13  5.849174E+04  2.076783E+04 -4.058511E+02  3.887747E+04 -6.318608E-10  3.484141E-10
       104  14  5.929932E+04  2.008769E+04 -2.102827E+02  3.795580E+04 -3.875338E-10 -1.010775E-09
       104  15  5.851001E+04  2.089366E+04 -1.125403E+02  3.883047E+04 -3.038074E-10  5.626426E-10
       104  16 -7.361699E+04 -2.650371E+04 -2.161714E+04  1.922616E+03  1.546723E-09  6.798229E-10
       104  17 -6.053583E+04 -2.265996E+04 -1.845512E+04  4.324247E+03  8.339183E-10  2.225250E-09
       104  18 -4.923475E+04 -1.751357E+04 -1.612489E+04  8.522308E+03  1.272785E-09  2.049087E-09
       104  19  1.906175E+05  6.804059E+04  2.080480E+04  7.583920E+04 -3.198238E+03  9.676593E+03
       104  20  1.791492E+05  6.283665E+04  1.803432E+04  7.159321E+04 -2.281908E+03  9.728910E+03
       104  21  1.662673E+05  5.930221E+04  1.589983E+04  6.914358E+04 -1.204351E+03  9.351821E+03
       104  22  5.849178E+04  2.076793E+04 -4.056560E+02  3.887744E+04 -3.286659E+03  9.643658E+03
       104  23  5.929935E+04  2.008778E+04 -2.100980E+02  3.795577E+04 -3.296974E+03  9.348114E+03
       104  24  5.851004E+04  2.089374E+04 -1.123819E+02  3.883045E+04 -3.146047E+03  8.623112E+03
       104  25 -7.361695E+04 -2.650361E+04 -2.161694E+04  1.922590E+03 -3.375061E+03  9.610730E+03
       104  26 -6.053579E+04 -2.265987E+04 -1.845493E+04  4.324215E+03 -4.311839E+03  8.967393E+03
       104  27 -4.923470E+04 -1.751350E+04 -1.612472E+04  8.522276E+03 -5.087389E+03  7.894536E+03
       105   1  1.586621E+05  5.657582E+04  1.469010E+04  6.701299E+04  1.023555E+03 -8.804855E+03
       105   2  1.473141E+05  5.145593E+04  1.285262E+04  6.270037E+04  5.933806E+02 -7.915224E+03
       105   3  1.344028E+05  4.793109E+04  1.108164E+04  6.019592E+04  1.447732E+02 -6.976607E+03
       105   4  5.851119E+04  2.090184E+04 -8.324172E+01  3.883739E+04  2.958718E+03 -8.078554E+03
       105   5  5.930474E+04  2.011908E+04 -4.264344E+01  3.793198E+04  2.634238E+03 -7.149181E+03
       105   6  5.851376E+04  2.091048E+04 -1.932797E+01  3.883473E+04  2.291319E+03 -6.170813E+03
       105   7 -4.162759E+04 -1.477058E+04 -1.485632E+04  1.066642E+04  4.893528E+03 -7.352387E+03
       105   8 -2.869618E+04 -1.121692E+04 -1.293796E+04  1.316689E+04  4.674790E+03 -6.383253E+03
       105   9 -1.736995E+04 -6.109860E+03 -1.112059E+04  1.747576E+04  4.437615E+03 -5.365113E+03
       105  10  1.586621E+05  5.657574E+04  1.468996E+04  6.701300E+04 -2.270974E-08 -8.472740E-09
       105  11  1.473141E+05  5.145586E+04  1.285250E+04  6.270037E+04  2.433807E-09  2.066068E-09
       105  12  1.344028E+05  4.793104E+04  1.108155E+04  6.019592E+04  3.469892E-08  1.708895E-08
       105  13  5.851116E+04  2.090176E+04 -8.338081E+01  3.883741E+04 -1.492823E-09 -2.625503E-09
       105  14  5.930472E+04  2.011903E+04 -4.275253E+01  3.793199E+04 -2.879176E-09 -8.518712E-09
       105  15  5.851374E+04  2.091044E+04 -1.940939E+01  3.883475E+04  1.496944E-09 -1.083393E-08
       105  16 -4.162763E+04 -1.477065E+04 -1.485647E+04  1.066645E+04  1.886931E-08  9.842274E-09
       105  17 -2.869621E+04 -1.121697E+04 -1.293808E+04  1.316692E+04 -8.528067E-09  1.016182E-09
       105  18 -1.736998E+04 -6.109896E+03 -1.112068E+04  1.747578E+04 -3.142566E-08 -4.941000E-09
       105  19  1.586621E+05  5.657582E+04  1.469010E+04  6.701299E+04 -1.023555E+03  8.804855E+03
       105  20  1.473141E+05  5.145593E+04  1.285262E+04  6.270037E+04 -5.933806E+02  7.915224E+03
       105  21  1.344028E+05  4.793109E+04  1.108164E+04  6.019592E+04 -1.447732E+02  6.976607E+03
       105  22  5.851119E+04  2.090184E+04 -8.324172E+01  3.883739E+04 -2.958718E+03  8.078554E+03
       105  23  5.930474E+04  2.011908E+04 -4.264344E+01  3.793198E+04 -2.634238E+03  7.149181E+03
       105  24  5.851376E+04  2.091048E+04 -1.932797E+01  3.883473E+04 -2.291319E+03  6.170813E+03
       105  25 -4.162759E+04 -1.477058E+04 -1.485632E+04  1.066642E+04 -4.893528E+03  7.352387E+03
       105  26 -2.869618E+04 -1.121692E+04 -1.293796E+04  1.316689E+04 -4.674790E+03  6.383253E+03
       105  27 -1.736995E+04 -6.109860E+03 -1.112059E+04  1.747576E+04 -4.437615E+03  5.365113E+03
       106   1  1.268217E+05  4.522313E+04  9.925298E+03  5.806670E+04 -6.992278E+01 -6.394664E+03
       106   2  1.154874E+05  4.011957E+04  8.186439E+03  5.374842E+04 -4.572528E+02 -5.402500E+03
       106   3  1.025733E+05  3.659994E+04  6.457647E+03  5.124052E+04 -8.465709E+02 -4.405093E+03
       106   4  5.851402E+04  2.091114E+04 -1.121266E+01  3.883554E+04  2.075794E+03 -5.589144E+03
       106   5  5.930534E+04  2.012025E+04  3.495471E+00  3.793051E+04  1.699744E+03 -4.592701E+03
       106   6  5.851439E+04  2.091100E+04  1.929837E+01  3.883576E+04  1.321708E+03 -3.591019E+03
       106   7 -9.788538E+03 -3.400321E+03 -9.947734E+03  1.960638E+04  4.221261E+03 -4.783718E+03
       106   8  3.127095E+03  1.214279E+02 -8.179350E+03  2.211405E+04  3.856522E+03 -3.782985E+03
       106   9  1.445823E+04  5.222498E+03 -6.418887E+03  2.643199E+04  3.489797E+03 -2.777016E+03
       106  10  1.268217E+05  4.522309E+04  9.925221E+03  5.806670E+04 -2.994195E-08 -6.617033E-09
       106  11  1.154874E+05  4.011954E+04  8.186384E+03  5.374842E+04 -7.455766E-09 -5.465493E-10
       106  12  1.025732E+05  3.659992E+04  6.457609E+03  5.124052E+04  2.053878E-08  7.900950E-09
       106  13  5.851401E+04  2.091111E+04 -1.127947E+01  3.883555E+04  2.636401E-10 -1.110436E-08
       106  14  5.930533E+04  2.012023E+04  3.450403E+00  3.793051E+04 -6.579889E-09 -8.982504E-09
       106  15  5.851439E+04  2.091099E+04  1.927085E+01  3.883576E+04 -8.151033E-09 -3.791187E-09
       106  16 -9.788563E+03 -3.400351E+03 -9.947810E+03  1.960640E+04  3.246872E-08  1.943301E-08
       106  17  3.127076E+03  1.214085E+02 -8.179405E+03  2.211406E+04 -1.511378E-09  3.009737E-09
       106  18  1.445821E+04  5.222486E+03 -6.418925E+03  2.643200E+04 -2.788589E-08 -1.122742E-08
       106  19  1.268217E+05  4.522313E+04  9.925298E+03  5.806670E+04  6.992278E+01  6.394664E+03
       106  20  1.154874E+05  4.011957E+04  8.186439E+03  5.374842E+04  4.572528E+02  5.402500E+03
       106  21  1.025733E+05  3.659994E+04  6.457647E+03  5.124052E+04  8.465709E+02  4.405093E+03
       106  22  5.851402E+04  2.091114E+04 -1.121266E+01  3.883554E+04 -2.075794E+03  5.589144E+03
       106  23  5.930534E+04  2.012025E+04  3.495471E+00  3.793051E+04 -1.699744E+03  4.592701E+03
       106  24  5.851439E+04  2.091100E+04  1.929837E+01  3.883576E+04 -1.321708E+03  3.591019E+03
       106  25 -9.788538E+03 -3.400321E+03 -9.947734E+03  1.960638E+04 -4.221261E+03  4.783718E+03
       106  26  3.127095E+03  1.214279E+02 -8.179350E+03  2.211405E+04 -3.856522E+03  3.782985E+03
       106  27  1.445823E+04  5.222498E+03 -6.418887E+03  2.643199E+04 -3.489797E+03  2.777016E+03
       107   1  9.499501E+04  3.389412E+04  5.310777E+03  4.911224E+04 -1.070189E+03 -3.821404E+03
       107   2  8.366037E+04  2.879283E+04  3.597631E+03  4.479517E+04 -1.471051E+03 -2.826681E+03
       107   3  7.074671E+04  2.527522E+04  1.902490E+03  4.228928E+04 -1.871058E+03 -1.834258E+03
       107   4  5.851566E+04  2.091095E+04  2.916561E+01  3.883642E+04  1.097949E+03 -3.007363E+03
       107   5  5.930457E+04  2.011817E+04  5.816072E+01  3.793098E+04  6.921193E+02 -2.014480E+03
       107   6  5.851558E+04  2.091014E+04  1.091759E+02  3.883674E+04  2.871453E+02 -1.023900E+03
       107   7  2.203728E+04  7.927759E+03 -5.252568E+03  2.856103E+04  3.265980E+03 -2.193363E+03
       107   8  3.494926E+04  1.144351E+04 -3.481341E+03  3.106700E+04  2.855214E+03 -1.202307E+03
       107   9  4.628462E+04  1.654508E+04 -1.684121E+03  3.538427E+04  2.445305E+03 -2.135581E+02
       107  10  9.499501E+04  3.389410E+04  5.310747E+03  4.911224E+04  8.035372E-11  3.744662E-10
       107  11  8.366037E+04  2.879282E+04  3.597612E+03  4.479517E+04 -1.067378E-08 -1.039938E-09
       107  12  7.074671E+04  2.527522E+04  1.902477E+03  4.228927E+04 -9.668426E-09 -2.831918E-10
       107  13  5.851565E+04  2.091094E+04  2.914635E+01  3.883642E+04 -9.406377E-09 -2.351899E-09
       107  14  5.930457E+04  2.011816E+04  5.815220E+01  3.793098E+04 -1.099210E-08 -2.393896E-09
       107  15  5.851558E+04  2.091014E+04  1.091738E+02  3.883674E+04 -3.476778E-09 -3.324348E-10
       107  16  2.203727E+04  7.927751E+03 -5.252598E+03  2.856104E+04 -1.058501E-08 -5.445468E-09
       107  17  3.494925E+04  1.144351E+04 -3.481359E+03  3.106700E+04 -7.321444E-09 -4.450126E-09
       107  18  4.628462E+04  1.654508E+04 -1.684133E+03  3.538427E+04  3.168825E-09 -1.740555E-09
       107  19  9.499501E+04  3.389412E+04  5.310777E+03  4.911224E+04  1.070189E+03  3.821404E+03
       107  20  8.366037E+04  2.879283E+04  3.597631E+03  4.479517E+04  1.471051E+03  2.826681E+03
       107  21  7.074671E+04  2.527522E+04  1.902490E+03  4.228928E+04  1.871058E+03  1.834258E+03
       107  22  5.851566E+04  2.091095E+04  2.916561E+01  3.883642E+04 -1.097949E+03  3.007363E+03
       107  23  5.930457E+04  2.011817E+04  5.816072E+01  3.793098E+04 -6.921193E+02  2.014480E+03
       107  24  5.851558E+04  2.091014E+04  1.091759E+02  3.883674E+04 -2.871453E+02  1.023900E+03
       107  25  2.203728E+04  7.927759E+03 -5.252568E+03  2.856103E+04 -3.265980E+03  2.193363E+03
       107  26  3.494926E+04  1.144351E+04 -3.481341E+03  3.106700E+04 -2.855214E+03  1.202307E+03
       107  27  4.628462E+04  1.654508E+04 -1.684121E+03  3.538427E+04 -2.445305E+03  2.135581E+02
       108   1  6.316923E+04  2.257191E+04  7.800632E+02  4.016611E+04 -2.111222E+03 -1.259019E+03
       108   2  5.183443E+04  1.746751E+04 -8.646314E+02  3.583916E+04 -2.561555E+03 -3.010699E+02
       108   3  3.893745E+04  1.396703E+04 -2.444344E+03  3.331905E+04 -3.002322E+03  6.314561E+02
       108   4  5.852051E+04  2.090980E+04  1.466062E+02  3.883841E+04  4.733840E+01 -4.485253E+02
       108   5  5.929914E+04  2.012304E+04  2.685318E+02  3.792727E+04 -4.578761E+02  4.888083E+02
       108   6  5.852620E+04  2.095102E+04  4.988647E+02  3.882288E+04 -9.535289E+02  1.400723E+03
       108   7  5.387189E+04  1.924772E+04 -4.868145E+02  3.751073E+04  2.205855E+03  3.619521E+02
       108   8  6.676392E+04  2.277859E+04  1.401713E+03  4.001540E+04  1.645830E+03  1.278696E+03
       108   9  7.811562E+04  2.793514E+04  3.442155E+03  4.432694E+04  1.095358E+03  2.170026E+03
       108  10  6.316922E+04  2.257191E+04  7.800519E+02  4.016611E+04 -1.674746E-09  2.272016E-09
       108  11  5.183442E+04  1.746750E+04 -8.646439E+02  3.583916E+04 -7.578665E-10  7.620397E-10
       108  12  3.893744E+04  1.396703E+04 -2.444361E+03  3.331906E+04 -3.518625E-10  8.644114E-10
       108  13  5.852051E+04  2.090980E+04  1.466058E+02  3.883841E+04 -4.550319E-10  1.355926E-09
       108  14  5.929914E+04  2.012304E+04  2.685310E+02  3.792727E+04  1.038967E-09  1.343993E-10
       108  15  5.852620E+04  2.095101E+04  4.988593E+02  3.882288E+04  4.345380E-11  1.310474E-09
       108  16  5.387188E+04  1.924772E+04 -4.868239E+02  3.751073E+04  7.787532E-10 -1.567193E-09
       108  17  6.676391E+04  2.277858E+04  1.401705E+03  4.001540E+04 -3.326665E-10 -4.062698E-11
       108  18  7.811562E+04  2.793513E+04  3.442144E+03  4.432693E+04 -6.574060E-11  6.222418E-10
       108  19  6.316923E+04  2.257191E+04  7.800632E+02  4.016611E+04  2.111222E+03  1.259019E+03
       108  20  5.183443E+04  1.746751E+04 -8.646314E+02  3.583916E+04  2.561555E+03  3.010699E+02
       108  21  3.893745E+04  1.396703E+04 -2.444344E+03  3.331905E+04  3.002322E+03 -6.314561E+02
       108  22  5.852051E+04  2.090980E+04  1.466062E+02  3.883841E+04 -4.733840E+01  4.485253E+02
       108  23  5.929914E+04  2.012304E+04  2.685318E+02  3.792727E+04  4.578761E+02 -4.888083E+02
       108  24  5.852620E+04  2.095102E+04  4.988647E+02  3.882288E+04  9.535289E+02 -1.400723E+03
       108  25  5.387189E+04  1.924772E+04 -4.868145E+02  3.751073E+04 -2.205855E+03 -3.619521E+02
       108  26  6.676392E+04  2.277859E+04  1.401713E+03  4.001540E+04 -1.645830E+03 -1.278696E+03
       108  27  7.811562E+04  2.793514E+04  3.442155E+03  4.432694E+04 -1.095358E+03 -2.170026E+03
       109   1  3.135475E+04  1.129113E+04 -3.473081E+03  3.122732E+04 -3.305796E+03  1.158168E+03
       109   2  2.016033E+04  6.141937E+03 -4.895930E+03  2.664759E+04 -3.766123E+03  1.943431E+03
       109   3  7.539204E+03  2.890217E+03 -6.121213E+03  2.378190E+04 -4.142699E+03  2.505721E+03
       109   4  5.856506E+04  2.096435E+04  6.685134E+02  3.882876E+04 -1.253665E+03  1.928681E+03
       109   5  5.928209E+04  2.033193E+04  1.239589E+03  3.783510E+04 -2.195107E+03  2.533269E+03
       109   6  5.866750E+04  2.169220E+04  2.389315E+03  3.855541E+04 -3.052801E+03  2.914892E+03
       109   7  8.577617E+04  3.063765E+04  4.810112E+03  4.643051E+04  7.985600E+02  2.699228E+03
       109   8  9.840525E+04  3.452199E+04  7.375019E+03  4.902321E+04 -6.239976E+02  3.123143E+03
       109   9  1.097979E+05  4.049422E+04  1.089960E+04  5.332989E+04 -1.962821E+03  3.324096E+03
       109  10  3.135474E+04  1.129113E+04 -3.473104E+03  3.122732E+04 -2.875025E-10  1.882143E-09
       109  11  2.016031E+04  6.141929E+03 -4.895964E+03  2.664759E+04 -3.173013E-09  1.938896E-09
       109  12  7.539184E+03  2.890206E+03 -6.121257E+03  2.378190E+04  1.115005E-09  1.046012E-09
       109  13  5.856506E+04  2.096435E+04  6.685034E+02  3.882876E+04  6.573756E-10  4.032932E-10
       109  14  5.928209E+04  2.033192E+04  1.239568E+03  3.783511E+04  4.050060E-09  2.778661E-09
       109  15  5.866749E+04  2.169219E+04  2.389281E+03  3.855542E+04  1.200500E-08  2.482241E-09
       109  16  8.577617E+04  3.063764E+04  4.810097E+03  4.643051E+04 -4.669599E-10 -1.414211E-09
       109  17  9.840525E+04  3.452198E+04  7.375000E+03  4.902322E+04  4.353791E-09 -7.294576E-10
       109  18  1.097979E+05  4.049421E+04  1.089957E+04  5.332990E+04  1.412793E-08  4.840822E-09
       109  19  3.135475E+04  1.129113E+04 -3.473081E+03  3.122732E+04  3.305796E+03 -1.158168E+03
       109  20  2.016033E+04  6.141937E+03 -4.895930E+03  2.664759E+04  3.766123E+03 -1.943431E+03
       109  21  7.539204E+03  2.890217E+03 -6.121213E+03  2.378190E+04  4.142699E+03 -2.505721E+03
       109  22  5.856506E+04  2.096435E+04  6.685134E+02  3.882876E+04  1.253665E+03 -1.928681E+03
       109  23  5.928209E+04  2.033193E+04  1.239589E+03  3.783510E+04  2.195107E+03 -2.533269E+03
       109  24  5.866750E+04  2.169220E+04  2.389315E+03  3.855541E+04  3.052801E+03 -2.914892E+03
       109  25  8.577617E+04  3.063765E+04  4.810112E+03  4.643051E+04 -7.985600E+02 -2.699228E+03
       109  26  9.840525E+04  3.452199E+04  7.375019E+03  4.902321E+04  6.239976E+02 -3.123143E+03
       109  27  1.097979E+05  4.049422E+04  1.089960E+04  5.332989E+04  1.962821E+03 -3.324096E+03
       110   1 -6.468477E+01  5.796127E+02 -6.823492E+03  2.195512E+04 -4.674013E+03  2.729654E+03
       110   2 -9.001105E+03 -5.094308E+03 -7.823275E+03  1.373849E+04 -3.497700E+03  2.650429E+03
       110   3 -1.790661E+04 -5.014809E+03 -8.382752E+03  5.977736E+03 -1.589144E+03  6.206207E+02
       110   4  5.904488E+04  2.193295E+04  3.222722E+03  3.856846E+04 -3.555164E+03  3.149682E+03
       110   5  5.929436E+04  2.347572E+04  6.205731E+03  3.652473E+04 -6.586953E+03  1.490539E+03
       110   6  6.040805E+04  3.160518E+04  1.296259E+04  3.493719E+04 -8.886649E+03 -2.119072E+03
       110   7  1.181593E+05  4.328705E+04  1.326915E+04  5.518360E+04 -2.436182E+03  3.569761E+03
       110   8  1.275945E+05  5.204651E+04  2.023448E+04  5.931336E+04 -9.676558E+03  3.304705E+02
       110   9  1.387270E+05  6.822575E+04  3.430704E+04  6.389959E+04 -1.618497E+04 -4.859290E+03
       110  10 -6.471023E+01  5.795988E+02 -6.823547E+03  2.195513E+04  1.216664E-08  5.154793E-09
       110  11 -9.001120E+03 -5.094318E+03 -7.823312E+03  1.373850E+04  4.781152E-09  1.435052E-09
       110  12 -1.790662E+04 -5.014810E+03 -8.382757E+03  5.977737E+03  1.137176E-09  2.929872E-10
       110  13  5.904486E+04  2.193293E+04  3.222680E+03  3.856847E+04  1.188438E-08  3.249259E-09
       110  14  5.929431E+04  2.347571E+04  6.205645E+03  3.652473E+04  3.881208E-09  1.138529E-09
       110  15  6.040797E+04  3.160515E+04  1.296243E+04  3.493717E+04  2.100406E-10  3.499195E-10
       110  16  1.181593E+05  4.328704E+04  1.326912E+04  5.518360E+04  2.328381E-09  2.612948E-09
       110  17  1.275944E+05  5.204648E+04  2.023431E+04  5.931336E+04 -3.308210E-09  1.017910E-09
       110  18  1.387267E+05  6.822566E+04  3.430650E+04  6.389953E+04 -2.025864E-09  4.397405E-10
       110  19 -6.468477E+01  5.796127E+02 -6.823492E+03  2.195512E+04  4.674013E+03 -2.729654E+03
       110  20 -9.001105E+03 -5.094308E+03 -7.823275E+03  1.373849E+04  3.497700E+03 -2.650429E+03
       110  21 -1.790661E+04 -5.014809E+03 -8.382752E+03  5.977736E+03  1.589144E+03 -6.206207E+02
       110  22  5.904488E+04  2.193295E+04  3.222722E+03  3.856846E+04  3.555164E+03 -3.149682E+03
       110  23  5.929436E+04  2.347572E+04  6.205731E+03  3.652473E+04  6.586953E+03 -1.490539E+03
       110  24  6.040805E+04  3.160518E+04  1.296259E+04  3.493719E+04  8.886649E+03  2.119072E+03
       110  25  1.181593E+05  4.328705E+04  1.326915E+04  5.518360E+04  2.436182E+03 -3.569761E+03
       110  26  1.275945E+05  5.204651E+04  2.023448E+04  5.931336E+04  9.676558E+03 -3.304705E+02
       110  27  1.387270E+05  6.822575E+04  3.430704E+04  6.389959E+04  1.618497E+04  4.859290E+03
       111   1 -5.780485E+04 -2.638483E+05 -6.470636E+04  2.130299E+04 -1.180591E+03 -2.509286E+04
       111   2 -2.080339E+04 -2.367937E+05 -3.940446E+04  7.153271E+03 -3.375725E+03 -1.486657E+04
       111   3 -1.768598E+04 -2.195194E+05 -2.922942E+04  8.009902E+03 -2.623924E+03 -4.638597E+03
       111   4 -2.770279E+04 -1.431665E+05 -3.495450E+04  1.184730E+04 -1.181045E+03 -2.307342E+04
       111   5  3.555683E+03 -1.384166E+05 -1.601935E+04  4.349881E+03 -3.375770E+03 -1.447185E+04
       111   6  1.215082E+03 -1.431637E+05 -1.108061E+04  1.185906E+04 -2.623547E+03 -5.869023E+03
       111   7  2.398520E+03 -2.247121E+04 -5.203660E+03  2.389764E+03 -1.181560E+03 -2.105358E+04
       111   8  2.791409E+04 -4.003051E+04  7.365092E+03  1.546044E+03 -3.375818E+03 -1.407708E+04
       111   9  2.011578E+04 -6.680263E+04  7.067816E+03  1.570869E+04 -2.623185E+03 -7.099600E+03
       111  10 -5.780502E+04 -2.638490E+05 -6.470754E+04  2.130296E+04  2.530359E-10  1.154137E-09
       111  11 -2.080347E+04 -2.367940E+05 -3.940490E+04  7.153231E+03  7.571670E-10  4.943160E-10
       111  12 -1.768599E+04 -2.195194E+05 -2.922948E+04  8.009892E+03 -3.242102E-10 -4.937933E-10
       111  13 -2.770294E+04 -1.431671E+05 -3.495551E+04  1.184727E+04  3.877903E-10  9.688546E-10
       111  14  3.555614E+03 -1.384168E+05 -1.601977E+04  4.349841E+03 -4.656958E-10 -4.939121E-10
       111  15  1.215065E+03 -1.431638E+05 -1.108069E+04  1.185905E+04 -7.092889E-12  4.926221E-10
       111  16  2.398399E+03 -2.247169E+04 -5.204496E+03  2.389744E+03 -6.542238E-10  1.930866E-10
       111  17  2.791403E+04 -4.003072E+04  7.364698E+03  1.546006E+03 -3.741278E-10  7.417818E-10
       111  18  2.011576E+04 -6.680269E+04  7.067709E+03  1.570868E+04 -1.313108E-10 -9.181263E-12
       111  19 -5.780485E+04 -2.638483E+05 -6.470636E+04  2.130299E+04  1.180591E+03  2.509286E+04
       111  20 -2.080339E+04 -2.367937E+05 -3.940446E+04  7.153271E+03  3.375725E+03  1.486657E+04
       111  21 -1.768598E+04 -2.195194E+05 -2.922942E+04  8.009902E+03  2.623924E+03  4.638597E+03
       111  22 -2.770279E+04 -1.431665E+05 -3.495450E+04  1.184730E+04  1.181045E+03  2.307342E+04
       111  23  3.555683E+03 -1.384166E+05 -1.601935E+04  4.349881E+03  3.375770E+03  1.447185E+04
       111  24  1.215082E+03 -1.431637E+05 -1.108061E+04  1.185906E+04  2.623547E+03  5.869023E+03
       111  25  2.398520E+03 -2.247121E+04 -5.203660E+03  2.389764E+03  1.181560E+03  2.105358E+04
       111  26  2.791409E+04 -4.003051E+04  7.365092E+03  1.546044E+03  3.375818E+03  1.407708E+04
       111  27  2.011578E+04 -6.680263E+04  7.067816E+03  1.570869E+04  2.623185E+03  7.099600E+03
       112   1 -1.478978E+04 -1.908042E+05 -2.155447E+04  1.309039E+04 -1.654085E+03 -3.706211E+03
       112   2 -6.007524E+03 -1.675742E+05 -1.406604E+04  4.337757E+03 -9.270256E+02  2.340432E+02
       112   3 -3.668891E+03 -1.464560E+05 -1.075185E+04  1.070009E+04 -1.199635E+02  4.174415E+03
       112   4 -2.584584E+03 -1.415204E+05 -9.825796E+03  1.187936E+04 -1.653958E+03 -4.086206E+03
       112   5  7.035666E+02 -1.404680E+05 -7.621436E+03  4.321913E+03 -9.269027E+02 -1.898962E+02
       112   6 -2.444073E+03 -1.415202E+05 -9.560583E+03  1.187944E+04 -1.198326E+02  3.706393E+03
       112   7  9.620438E+03 -9.223440E+04  1.902711E+03  1.066822E+04 -1.653830E+03 -4.466231E+03
       112   8  7.414605E+03 -1.133612E+05 -1.176879E+03  4.306067E+03 -9.267798E+02 -6.138541E+02
       112   9 -1.219251E+03 -1.365843E+05 -8.369317E+03  1.305880E+04 -1.197035E+02  3.238367E+03
       112  10 -1.478978E+04 -1.908042E+05 -2.155450E+04  1.309039E+04  2.124152E-11  1.996911E-10
       112  11 -6.007525E+03 -1.675742E+05 -1.406605E+04  4.337758E+03  2.089265E-10  6.651242E-11
       112  12 -3.668896E+03 -1.464560E+05 -1.075188E+04  1.070009E+04 -4.295744E-10 -8.858587E-10
       112  13 -2.584591E+03 -1.415204E+05 -9.825832E+03  1.187935E+04 -3.487899E-10  9.466532E-10
       112  14  7.035657E+02 -1.404680E+05 -7.621438E+03  4.321913E+03 -2.891773E-10 -2.329294E-10
       112  15 -2.444076E+03 -1.415202E+05 -9.560609E+03  1.187944E+04 -4.918318E-10  3.560152E-11
       112  16  9.620430E+03 -9.223443E+04  1.902668E+03  1.066822E+04 -1.357163E-10  8.402329E-10
       112  17  7.414604E+03 -1.133612E+05 -1.176881E+03  4.306067E+03  3.274981E-11  1.195480E-09
       112  18 -1.219253E+03 -1.365843E+05 -8.369337E+03  1.305880E+04 -3.535087E-10  1.514968E-10
       112  19 -1.478978E+04 -1.908042E+05 -2.155447E+04  1.309039E+04  1.654085E+03  3.706211E+03
       112  20 -6.007524E+03 -1.675742E+05 -1.406604E+04  4.337757E+03  9.270256E+02 -2.340432E+02
       112  21 -3.668891E+03 -1.464560E+05 -1.075185E+04  1.070009E+04  1.199635E+02 -4.174415E+03
       112  22 -2.584584E+03 -1.415204E+05 -9.825796E+03  1.187936E+04  1.653958E+03  4.086206E+03
       112  23  7.035666E+02 -1.404680E+05 -7.621436E+03  4.321913E+03  9.269027E+02  1.898962E+02
       112  24 -2.444073E+03 -1.415202E+05 -9.560583E+03  1.187944E+04  1.198326E+02 -3.706393E+03
       112  25  9.620438E+03 -9.223440E+04  1.902711E+03  1.066822E+04  1.653830E+03  4.466231E+03
       112  26  7.414605E+03 -1.133612E+05 -1.176879E+03  4.306067E+03  9.267798E+02  6.138541E+02
       112  27 -1.219251E+03 -1.365843E+05 -8.369317E+03  1.305880E+04  1.197035E+02 -3.238367E+03
       113   1  6.616506E+03 -1.209205E+05 -5.417668E+03  1.555060E+04  6.978635E+02  6.372761E+03
       113   2  1.434336E+04 -9.429425E+04 -4.796983E+03  1.683688E+03  1.519094E+03  1.362850E+04
       113   3 -9.758072E+03 -7.655618E+04 -1.685459E+04  2.879774E+03  5.909345E+02  2.088389E+04
       113   4  1.132333E+03 -1.430649E+05 -1.070271E+04  1.187075E+04  6.980760E+02  5.435395E+03
       113   5  3.388653E+03 -1.385375E+05 -1.531229E+04  4.334868E+03  1.519151E+03  1.365608E+04
       113   6 -2.635222E+04 -1.430670E+05 -3.327109E+04  1.186213E+04  5.909288E+02  2.187615E+04
       113   7 -4.351824E+03 -1.652088E+05 -1.598777E+04  8.191043E+03  6.982997E+02  4.498063E+03
       113   8 -7.566167E+03 -1.827790E+05 -2.582773E+04  6.985859E+03  1.519208E+03  1.368367E+04
       113   9 -4.294639E+04 -2.095737E+05 -4.968786E+04  2.084351E+04  5.909518E+02  2.286830E+04
       113  10  6.616494E+03 -1.209205E+05 -5.417745E+03  1.555059E+04  1.797692E-10  1.031480E-09
       113  11  1.434331E+04 -9.429446E+04 -4.797336E+03  1.683671E+03  6.658132E-10  5.399157E-10
       113  12 -9.758190E+03 -7.655665E+04 -1.685541E+04  2.879764E+03  2.168574E-10 -4.996332E-10
       113  13  1.132325E+03 -1.430649E+05 -1.070276E+04  1.187075E+04  5.444215E-12  6.336278E-10
       113  14  3.388601E+03 -1.385377E+05 -1.531264E+04  4.334851E+03 -2.327549E-10 -3.195197E-10
       113  15 -2.635235E+04 -1.430675E+05 -3.327199E+04  1.186211E+04 -4.113120E-11  3.412468E-10
       113  16 -4.351830E+03 -1.652088E+05 -1.598781E+04  8.191041E+03  1.995681E-10  1.372341E-10
       113  17 -7.566220E+03 -1.827792E+05 -2.582809E+04  6.985842E+03  5.179605E-10  8.341268E-10
       113  18 -4.294653E+04 -2.095742E+05 -4.968885E+04  2.084350E+04  3.320680E-10  6.579182E-11
       113  19  6.616506E+03 -1.209205E+05 -5.417668E+03  1.555060E+04 -6.978635E+02 -6.372761E+03
       113  20  1.434336E+04 -9.429425E+04 -4.796983E+03  1.683688E+03 -1.519094E+03 -1.362850E+04
       113  21 -9.758072E+03 -7.655618E+04 -1.685459E+04  2.879774E+03 -5.909345E+02 -2.088389E+04
       113  22  1.132333E+03 -1.430649E+05 -1.070271E+04  1.187075E+04 -6.980760E+02 -5.435395E+03
       113  23  3.388653E+03 -1.385375E+05 -1.531229E+04  4.334868E+03 -1.519151E+03 -1.365608E+04
       113  24 -2.635222E+04 -1.430670E+05 -3.327109E+04  1.186213E+04 -5.909288E+02 -2.187615E+04
       113  25 -4.351824E+03 -1.652088E+05 -1.598777E+04  8.191043E+03 -6.982997E+02 -4.498063E+03
       113  26 -7.566167E+03 -1.827790E+05 -2.582773E+04  6.985859E+03 -1.519208E+03 -1.368367E+04
       113  27 -4.294639E+04 -2.095737E+05 -4.968786E+04  2.084351E+04 -5.909518E+02 -2.286830E+04
       114   1  1.234242E+05  4.243626E+04  2.540377E+04  4.557665E+04  1.184319E+04  3.995678E+03
       114   2  1.193365E+05  2.452329E+04  1.427977E+04  4.526757E+04  7.619177E+03  1.491708E+03
       114   3  1.198100E+05  2.197631E+04  1.036791E+04  4.287153E+04  3.071117E+03 -1.492186E+02
       114   4  9.586725E+04  2.703303E+04  1.700950E+04  3.289574E+04  1.098187E+04  3.672098E+03
       114   5  9.274104E+04  1.298955E+04  7.251040E+03  3.635038E+04  7.359312E+03  1.394089E+03
       114   6  9.405723E+04  1.419324E+04  4.228543E+03  3.771805E+04  3.412652E+03 -2.094482E+01
       114   7  6.831142E+04  1.163036E+04  8.615269E+03  2.021558E+04  1.012060E+04  3.348556E+03
       114   8  6.614641E+04  1.455959E+03  2.222735E+02  2.743360E+04  7.099459E+03  1.296476E+03
       114   9  6.830497E+04  6.410119E+03 -1.910908E+03  3.256471E+04  3.754173E+03  1.073264E+02
       114  10  1.234241E+05  4.243620E+04  2.540347E+04  4.557661E+04 -1.157007E-09 -4.842361E-10
       114  11  1.193364E+05  2.452328E+04  1.427966E+04  4.526756E+04  9.299570E-12 -4.336829E-10
       114  12  1.198100E+05  2.197630E+04  1.036789E+04  4.287153E+04  1.438374E-09 -4.461902E-10
       114  13  9.586711E+04  2.703298E+04  1.700925E+04  3.289571E+04 -3.535885E-10  2.721311E-10
       114  14  9.274098E+04  1.298953E+04  7.250935E+03  3.635038E+04  4.128176E-10 -5.974177E-10
       114  15  9.405722E+04  1.419324E+04  4.228521E+03  3.771805E+04 -1.836921E-10  5.208983E-10
       114  16  6.831130E+04  1.163032E+04  8.615055E+03  2.021556E+04  1.184620E-09  9.758173E-10
       114  17  6.614635E+04  1.455944E+03  2.221757E+02  2.743359E+04 -1.398619E-10  9.681401E-10
       114  18  6.830495E+04  6.410115E+03 -1.910934E+03  3.256471E+04 -1.760104E-09 -1.241506E-10
       114  19  1.234242E+05  4.243626E+04  2.540377E+04  4.557665E+04 -1.184319E+04 -3.995678E+03
       114  20  1.193365E+05  2.452329E+04  1.427977E+04  4.526757E+04 -7.619177E+03 -1.491708E+03
       114  21  1.198100E+05  2.197631E+04  1.036791E+04  4.287153E+04 -3.071117E+03  1.492186E+02
       114  22  9.586725E+04  2.703303E+04  1.700950E+04  3.289574E+04 -1.098187E+04 -3.672098E+03
       114  23  9.274104E+04  1.298955E+04  7.251040E+03  3.635038E+04 -7.359312E+03 -1.394089E+03
       114  24  9.405723E+04  1.419324E+04  4.228543E+03  3.771805E+04 -3.412652E+03  2.094482E+01
       114  25  6.831142E+04  1.163036E+04  8.615269E+03  2.021558E+04 -1.012060E+04 -3.348556E+03
       114  26  6.614641E+04  1.455959E+03  2.222735E+02  2.743360E+04 -7.099459E+03 -1.296476E+03
       114  27  6.830497E+04  6.410119E+03 -1.910908E+03  3.256471E+04 -3.754173E+03 -1.073264E+02
       115   1  1.143450E+05  2.382551E+04  8.719624E+03  4.287237E+04  2.695692E+03 -5.273232E+01
       115   2  1.114741E+05  2.066195E+04  6.162304E+03  4.130172E+04  1.746172E+03 -2.634598E+02
       115   3  1.078114E+05  1.994570E+04  4.578788E+03  4.099093E+04  7.800545E+02 -4.299644E+02
       115   4  9.350687E+04  1.570289E+04  3.391781E+03  3.682604E+04  2.769312E+03 -2.508717E+01
       115   5  9.383541E+04  1.398294E+04  1.699465E+03  3.638369E+04  1.850628E+03 -2.242308E+02
       115   6  9.336611E+04  1.470420E+04  9.565454E+02  3.720117E+04  9.153419E+02 -3.791532E+02
       115   7  7.266916E+04  7.580303E+03 -1.936096E+03  3.077989E+04  2.842929E+03  2.556855E+00
       115   8  7.619709E+04  7.303968E+03 -2.763389E+03  3.146579E+04  1.955080E+03 -1.850030E+02
       115   9  7.892108E+04  9.462734E+03 -2.665697E+03  3.341151E+04  1.050625E+03 -3.283434E+02
       115  10  1.143450E+05  2.382551E+04  8.719610E+03  4.287237E+04 -8.590181E-11 -1.813624E-09
       115  11  1.114741E+05  2.066195E+04  6.162299E+03  4.130172E+04  6.287613E-10  1.891459E-09
       115  12  1.078114E+05  1.994570E+04  4.578786E+03  4.099093E+04 -5.131195E-10  1.171384E-09
       115  13  9.350687E+04  1.570289E+04  3.391767E+03  3.682604E+04  1.077751E-10  3.542535E-10
       115  14  9.383541E+04  1.398294E+04  1.699458E+03  3.638369E+04  2.228883E-10 -7.601497E-10
       115  15  9.336611E+04  1.470420E+04  9.565436E+02  3.720117E+04  1.986042E-10  2.716740E-10
       115  16  7.266915E+04  7.580301E+03 -1.936111E+03  3.077989E+04  9.139307E-11 -5.996289E-10
       115  17  7.619708E+04  7.303967E+03 -2.763396E+03  3.146579E+04 -5.422191E-10 -7.315319E-11
       115  18  7.892108E+04  9.462734E+03 -2.665699E+03  3.341151E+04  3.014610E-10 -2.774669E-10
       115  19  1.143450E+05  2.382551E+04  8.719624E+03  4.287237E+04 -2.695692E+03  5.273232E+01
       115  20  1.114741E+05  2.066195E+04  6.162304E+03  4.130172E+04 -1.746172E+03  2.634598E+02
       115  21  1.078114E+05  1.994570E+04  4.578788E+03  4.099093E+04 -7.800545E+02  4.299644E+02
       115  22  9.350687E+04  1.570289E+04  3.391781E+03  3.682604E+04 -2.769312E+03  2.508717E+01
       115  23  9.383541E+04  1.398294E+04  1.699465E+03  3.638369E+04 -1.850628E+03  2.242308E+02
       115  24  9.336611E+04  1.470420E+04  9.565454E+02  3.720117E+04 -9.153419E+02  3.791532E+02
       115  25  7.266916E+04  7.580303E+03 -1.936096E+03  3.077989E+04 -2.842929E+03 -2.556855E+00
       115  26  7.619709E+04  7.303968E+03 -2.763389E+03  3.146579E+04 -1.955080E+03  1.850030E+02
       115  27  7.892108E+04  9.462734E+03 -2.665697E+03  3.341151E+04 -1.050625E+03  3.283434E+02
       116   1  1.043117E+05  1.893925E+04  3.499137E+03  4.015196E+04  6.173742E+02 -3.666468E+02
       116   2  1.015790E+05  1.692587E+04  2.321910E+03  3.847989E+04  3.506070E+02 -2.665707E+02
       116   3  9.757904E+04  1.632932E+04  1.317806E+03  3.831019E+04  8.300115E+01 -1.642729E+02
       116   4  9.330990E+04  1.481748E+04  7.352774E+02  3.712702E+04  7.388776E+02 -3.210120E+02
       116   5  9.393835E+04  1.407192E+04  3.965763E+02  3.638983E+04  4.736633E+02 -2.203514E+02
       116   6  9.329940E+04  1.474291E+04  2.297914E+02  3.715503E+04  2.076096E+02 -1.174695E+02
       116   7  8.230817E+04  1.069570E+04 -2.028604E+03  3.410213E+04  8.603791E+02 -2.753778E+02
       116   8  8.629779E+04  1.121797E+04 -1.528766E+03  3.429980E+04  5.967182E+02 -1.741326E+02
       116   9  8.901977E+04  1.315650E+04 -8.582250E+02  3.599989E+04  3.322172E+02 -7.066653E+01
       116  10  1.043117E+05  1.893925E+04  3.499136E+03  4.015196E+04 -7.358994E-09 -4.439920E-09
       116  11  1.015790E+05  1.692587E+04  2.321909E+03  3.847989E+04 -2.931107E-09 -3.169044E-09
       116  12  9.757904E+04  1.632932E+04  1.317806E+03  3.831019E+04  4.736973E-09  2.123316E-09
       116  13  9.330990E+04  1.481748E+04  7.352762E+02  3.712702E+04 -6.705084E-10 -1.765561E-09
       116  14  9.393835E+04  1.407192E+04  3.965758E+02  3.638983E+04 -2.892941E-09 -2.201383E-09
       116  15  9.329940E+04  1.474291E+04  2.297913E+02  3.715503E+04 -1.194269E-09  2.876944E-10
       116  16  8.230817E+04  1.069570E+04 -2.028606E+03  3.410213E+04  4.822415E-09  1.006829E-09
       116  17  8.629779E+04  1.121797E+04 -1.528767E+03  3.429980E+04 -2.125624E-09 -4.602121E-10
       116  18  8.901977E+04  1.315650E+04 -8.582252E+02  3.599989E+04 -7.439126E-09 -3.734487E-09
       116  19  1.043117E+05  1.893925E+04  3.499137E+03  4.015196E+04 -6.173742E+02  3.666468E+02
       116  20  1.015790E+05  1.692587E+04  2.321910E+03  3.847989E+04 -3.506070E+02  2.665707E+02
       116  21  9.757904E+04  1.632932E+04  1.317806E+03  3.831019E+04 -8.300115E+01  1.642729E+02
       116  22  9.330990E+04  1.481748E+04  7.352774E+02  3.712702E+04 -7.388776E+02  3.210120E+02
       116  23  9.393835E+04  1.407192E+04  3.965763E+02  3.638983E+04 -4.736633E+02  2.203514E+02
       116  24  9.329940E+04  1.474291E+04  2.297914E+02  3.715503E+04 -2.076096E+02  1.174695E+02
       116  25  8.230817E+04  1.069570E+04 -2.028604E+03  3.410213E+04 -8.603791E+02  2.753778E+02
       116  26  8.629779E+04  1.121797E+04 -1.528766E+03  3.429980E+04 -5.967182E+02  1.741326E+02
       116  27  8.901977E+04  1.315650E+04 -8.582250E+02  3.599989E+04 -3.322172E+02  7.066653E+01
       117   1  9.424706E+04  1.510330E+04  4.096375E+02  3.740881E+04  1.081585E+01 -7.284495E+01
       117   2  9.153324E+04  1.317648E+04 -4.861454E+02  3.572809E+04 -1.174924E+02  8.196635E+01
       117   3  8.750443E+04  1.258440E+04 -1.334146E+03  3.556442E+04 -2.458422E+02  2.368985E+02
       117   4  9.329246E+04  1.475054E+04  1.816706E+02  3.714860E+04  1.347238E+02 -2.630467E+01
       117   5  9.394964E+04  1.408086E+04  1.230576E+02  3.639095E+04  6.499166E+00  1.285375E+02
       117   6  9.329180E+04  1.474591E+04  1.121629E+02  3.715034E+04 -1.217678E+02  2.835007E+02
       117   7  9.233788E+04  1.439778E+04 -4.629519E+01  3.688839E+04  2.586311E+02  2.023535E+01
       117   8  9.636605E+04  1.498525E+04  7.322602E+02  3.705381E+04  1.304913E+02  1.751089E+02
       117   9  9.907923E+04  1.690744E+04  1.558475E+03  3.873627E+04  2.308415E+00  3.301036E+02
       117  10  9.424706E+04  1.510330E+04  4.096374E+02  3.740881E+04  1.729993E-09  2.296367E-09
       117  11  9.153324E+04  1.317648E+04 -4.861455E+02  3.572809E+04 -4.262159E-10  3.024584E-09
       117  12  8.750443E+04  1.258440E+04 -1.334146E+03  3.556442E+04  7.788298E-10  8.667101E-10
       117  13  9.329246E+04  1.475054E+04  1.816706E+02  3.714860E+04 -4.514080E-10  1.731214E-09
       117  14  9.394964E+04  1.408086E+04  1.230575E+02  3.639095E+04  3.028877E-10 -1.164256E-09
       117  15  9.329180E+04  1.474591E+04  1.121627E+02  3.715034E+04  2.371617E-09  6.324348E-10
       117  16  9.233788E+04  1.439778E+04 -4.629532E+01  3.688839E+04 -2.992739E-09 -2.755107E-09
       117  17  9.636605E+04  1.498525E+04  7.322601E+02  3.705381E+04 -2.591554E-10 -6.594646E-10
       117  18  9.907923E+04  1.690744E+04  1.558475E+03  3.873627E+04  3.964863E-09  9.436428E-10
       117  19  9.424706E+04  1.510330E+04  4.096375E+02  3.740881E+04 -1.081585E+01  7.284495E+01
       117  20  9.153324E+04  1.317648E+04 -4.861454E+02  3.572809E+04  1.174924E+02 -8.196635E+01
       117  21  8.750443E+04  1.258440E+04 -1.334146E+03  3.556442E+04  2.458422E+02 -2.368985E+02
       117  22  9.329246E+04  1.475054E+04  1.816706E+02  3.714860E+04 -1.347238E+02  2.630467E+01
       117  23  9.394964E+04  1.408086E+04  1.230576E+02  3.639095E+04 -6.499166E+00 -1.285375E+02
       117  24  9.329180E+04  1.474591E+04  1.121629E+02  3.715034E+04  1.217678E+02 -2.835007E+02
       117  25  9.233788E+04  1.439778E+04 -4.629519E+01  3.688839E+04 -2.586311E+02 -2.023535E+01
       117  26  9.636605E+04  1.498525E+04  7.322602E+02  3.705381E+04 -1.304913E+02 -1.751089E+02
       117  27  9.907923E+04  1.690744E+04  1.558475E+03  3.873627E+04 -2.308415E+00 -3.301036E+02
       118   1  8.418741E+04  1.134270E+04 -2.185497E+03  3.466112E+04 -3.041733E+02  3.332787E+02
       118   2  8.147047E+04  9.418781E+03 -2.970948E+03  3.297716E+04 -4.574762E+02  4.789031E+02
       118   3  7.744321E+04  8.835424E+03 -3.688737E+03  3.281118E+04 -6.107368E+02  6.244396E+02
       118   4  9.329265E+04  1.474590E+04  1.211489E+02  3.715103E+04 -1.800698E+02  3.798914E+02
       118   5  9.394838E+04  1.407968E+04  1.732393E+02  3.639052E+04 -3.334383E+02  5.254896E+02
       118   6  9.329379E+04  1.475403E+04  2.930370E+02  3.714797E+04 -4.867648E+02  6.709996E+02
       118   7  1.023980E+05  1.814911E+04  2.427787E+03  3.964097E+04 -5.596431E+01  4.265049E+02
       118   8  1.064264E+05  1.874058E+04  3.317407E+03  3.980393E+04 -2.093980E+02  5.720771E+02
       118   9  1.091446E+05  2.067262E+04  4.274774E+03  4.148485E+04 -3.627898E+02  7.175607E+02
       118  10  8.418741E+04  1.134270E+04 -2.185497E+03  3.466112E+04  2.331927E-09  2.195386E-09
       118  11  8.147047E+04  9.418781E+03 -2.970949E+03  3.297716E+04 -3.124021E-10  1.040464E-10
       118  12  7.744321E+04  8.835423E+03 -3.688739E+03  3.281118E+04  3.550160E-10  5.931668E-10
       118  13  9.329265E+04  1.474590E+04  1.211485E+02  3.715103E+04  1.902147E-09  1.376830E-09
       118  14  9.394838E+04  1.407968E+04  1.732386E+02  3.639052E+04 -3.285413E-10  6.892711E-10
       118  15  9.329379E+04  1.475403E+04  2.930357E+02  3.714797E+04 -6.695002E-10 -2.132323E-10
       118  16  1.023980E+05  1.814911E+04  2.427787E+03  3.964097E+04  2.689971E-09  5.628987E-10
       118  17  1.064264E+05  1.874058E+04  3.317406E+03  3.980393E+04 -9.666446E-10  9.362118E-10
       118  18  1.091446E+05  2.067262E+04  4.274772E+03  4.148485E+04 -1.181186E-09 -8.929912E-10
       118  19  8.418741E+04  1.134270E+04 -2.185497E+03  3.466112E+04  3.041733E+02 -3.332787E+02
       118  20  8.147047E+04  9.418781E+03 -2.970948E+03  3.297716E+04  4.574762E+02 -4.789031E+02
       118  21  7.744321E+04  8.835424E+03 -3.688737E+03  3.281118E+04  6.107368E+02 -6.244396E+02
       118  22  9.329265E+04  1.474590E+04  1.211489E+02  3.715103E+04  1.800698E+02 -3.798914E+02
       118  23  9.394838E+04  1.407968E+04  1.732393E+02  3.639052E+04  3.334383E+02 -5.254896E+02
       118  24  9.329379E+04  1.475403E+04  2.930370E+02  3.714797E+04  4.867648E+02 -6.709996E+02
       118  25  1.023980E+05  1.814911E+04  2.427787E+03  3.964097E+04  5.596431E+01 -4.265049E+02
       118  26  1.064264E+05  1.874058E+04  3.317407E+03  3.980393E+04  2.093980E+02 -5.720771E+02
       118  27  1.091446E+05  2.067262E+04  4.274774E+03  4.148485E+04  3.627898E+02 -7.175607E+02
       119   1  7.411862E+04  7.594300E+03 -4.460880E+03  3.193475E+04 -7.064781E+02  7.073200E+02
       119   2  7.138093E+04  5.639483E+03 -5.003028E+03  3.021853E+04 -1.112277E+03  7.579039E+02
       119   3  6.741652E+04  5.169224E+03 -5.251925E+03  2.999695E+04 -1.516866E+03  8.052795E+02
       119   4  9.330608E+04  1.474122E+04  3.821303E+02  3.715963E+04 -5.814252E+02  7.542847E+02
       119   5  9.392828E+04  1.406330E+04  6.789080E+02  3.638803E+04 -9.894707E+02  8.040224E+02
       119   6  9.332425E+04  1.487041E+04  1.270729E+03  3.711109E+04 -1.396308E+03  8.505512E+02
       119   7  1.124940E+05  2.188819E+04  5.225133E+03  4.238469E+04 -4.563676E+02  8.012511E+02
       119   8  1.164762E+05  2.248716E+04  6.360817E+03  4.255775E+04 -8.666595E+02  8.501429E+02
       119   9  1.192326E+05  2.457164E+04  7.793330E+03  4.422550E+04 -1.275745E+03  8.958251E+02
       119  10  7.411862E+04  7.594300E+03 -4.460881E+03  3.193475E+04 -8.856248E-10 -6.279263E-10
       119  11  7.138093E+04  5.639482E+03 -5.003032E+03  3.021853E+04  2.620740E-09  4.240406E-10
       119  12  6.741652E+04  5.169223E+03 -5.251931E+03  2.999695E+04  6.794524E-09  4.476521E-09
       119  13  9.330608E+04  1.474122E+04  3.821286E+02  3.715963E+04 -3.988606E-11  1.290369E-11
       119  14  9.392828E+04  1.406330E+04  6.789050E+02  3.638803E+04 -3.937257E-10  8.652295E-11
       119  15  9.332424E+04  1.487041E+04  1.270724E+03  3.711109E+04  1.704581E-09  1.170344E-09
       119  16  1.124940E+05  2.188819E+04  5.225131E+03  4.238469E+04  3.364491E-10  6.748961E-10
       119  17  1.164762E+05  2.248716E+04  6.360814E+03  4.255775E+04 -2.001150E-09  4.642759E-10
       119  18  1.192326E+05  2.457164E+04  7.793326E+03  4.422550E+04 -3.205092E-09 -1.625551E-09
       119  19  7.411862E+04  7.594300E+03 -4.460880E+03  3.193475E+04  7.064781E+02 -7.073200E+02
       119  20  7.138093E+04  5.639483E+03 -5.003028E+03  3.021853E+04  1.112277E+03 -7.579039E+02
       119  21  6.741652E+04  5.169224E+03 -5.251925E+03  2.999695E+04  1.516866E+03 -8.052795E+02
       119  22  9.330608E+04  1.474122E+04  3.821303E+02  3.715963E+04  5.814252E+02 -7.542847E+02
       119  23  9.392828E+04  1.406330E+04  6.789080E+02  3.638803E+04  9.894707E+02 -8.040224E+02
       119  24  9.332425E+04  1.487041E+04  1.270729E+03  3.711109E+04  1.396308E+03 -8.505512E+02
       119  25  1.124940E+05  2.188819E+04  5.225133E+03  4.238469E+04  4.563676E+02 -8.012511E+02
       119  26  1.164762E+05  2.248716E+04  6.360817E+03  4.255775E+04  8.666595E+02 -8.501429E+02
       119  27  1.192326E+05  2.457164E+04  7.793330E+03  4.422550E+04  1.275745E+03 -8.958251E+02
       120   1  6.397198E+04  3.942523E+03 -5.725667E+03  2.946406E+04 -1.813345E+03  8.214265E+02
       120   2  6.122812E+04  1.604199E+03 -5.279600E+03  2.732006E+04 -3.341790E+03  4.411900E+02
       120   3  5.806394E+04  2.521842E+03 -3.222118E+03  2.625211E+04 -4.846053E+03 -3.396941E+00
       120   4  9.342188E+04  1.467429E+04  1.655980E+03  3.724022E+04 -1.672667E+03  8.742528E+02
       120   5  9.374964E+04  1.390828E+04  2.946446E+03  3.637682E+04 -3.246024E+03  4.771452E+02
       120   6  9.366595E+04  1.640702E+04  5.883835E+03  3.658943E+04 -4.795212E+03  1.568139E+01
       120   7  1.228725E+05  2.540606E+04  9.037527E+03  4.501669E+04 -1.531982E+03  9.270815E+02
       120   8  1.262722E+05  2.621243E+04  1.117241E+04  4.543402E+04 -3.150251E+03  5.131025E+02
       120   9  1.292693E+05  3.029237E+04  1.498972E+04  4.692734E+04 -4.744368E+03  3.476111E+01
       120  10  6.397198E+04  3.942521E+03 -5.725675E+03  2.946406E+04 -1.493134E-09  1.241502E-09
       120  11  6.122811E+04  1.604195E+03 -5.279622E+03  2.732006E+04 -1.541267E-09 -1.300592E-09
       120  12  5.806392E+04  2.521835E+03 -3.222162E+03  2.625211E+04  1.344952E-09 -1.079081E-10
       120  13  9.342188E+04  1.467429E+04  1.655973E+03  3.724022E+04  1.052536E-09  5.732342E-10
       120  14  9.374963E+04  1.390827E+04  2.946426E+03  3.637682E+04 -1.331972E-10 -7.702663E-10
       120  15  9.366592E+04  1.640701E+04  5.883792E+03  3.658943E+04 -1.831113E-10  1.439376E-11
       120  16  1.228725E+05  2.540606E+04  9.037521E+03  4.501669E+04  5.533221E-09  1.201715E-10
       120  17  1.262722E+05  2.621243E+04  1.117239E+04  4.543402E+04  2.879391E-09  5.335229E-13
       120  18  1.292693E+05  3.029236E+04  1.498968E+04  4.692734E+04 -1.225733E-09 -1.561035E-09
       120  19  6.397198E+04  3.942523E+03 -5.725667E+03  2.946406E+04  1.813345E+03 -8.214265E+02
       120  20  6.122812E+04  1.604199E+03 -5.279600E+03  2.732006E+04  3.341790E+03 -4.411900E+02
       120  21  5.806394E+04  2.521842E+03 -3.222118E+03  2.625211E+04  4.846053E+03  3.396941E+00
       120  22  9.342188E+04  1.467429E+04  1.655980E+03  3.724022E+04  1.672667E+03 -8.742528E+02
       120  23  9.374964E+04  1.390828E+04  2.946446E+03  3.637682E+04  3.246024E+03 -4.771452E+02
       120  24  9.366595E+04  1.640702E+04  5.883835E+03  3.658943E+04  4.795212E+03 -1.568139E+01
       120  25  1.228725E+05  2.540606E+04  9.037527E+03  4.501669E+04  1.531982E+03 -9.270815E+02
       120  26  1.262722E+05  2.621243E+04  1.117241E+04  4.543402E+04  3.150251E+03 -5.131025E+02
       120  27  1.292693E+05  3.029237E+04  1.498972E+04  4.692734E+04  4.744368E+03 -3.476111E+01
       121   1  5.292490E+04  1.402439E+03 -2.561525E+03  3.001620E+04 -6.313009E+03 -2.620303E+02
       121   2  5.115306E+04 -5.789396E+03  1.767205E+03  2.233821E+04 -1.224798E+04 -2.484690E+03
       121   3  5.788316E+04  1.233697E+04  1.709017E+04  9.936868E+03 -1.771111E+04 -5.963970E+03
       121   4  9.461986E+04  1.378901E+04  7.336013E+03  3.813828E+04 -5.871933E+03 -9.638042E+01
       121   5  9.185236E+04  1.218305E+04  1.258036E+04  3.631731E+04 -1.268291E+04 -2.648071E+03
       121   6  9.775942E+04  3.606750E+04  2.951229E+04  2.977333E+04 -1.902200E+04 -6.456448E+03
       121   7  1.363166E+05  2.617560E+04  1.723346E+04  4.626079E+04 -5.430824E+03  6.927636E+01
       121   8  1.325530E+05  3.015569E+04  2.339330E+04  5.029722E+04 -1.311787E+04 -2.811466E+03
       121   9  1.376368E+05  5.979864E+04  4.193407E+04  4.961086E+04 -2.033297E+04 -6.949000E+03
       121  10  5.292486E+04  1.402428E+03 -2.561600E+03  3.001620E+04  5.756948E-10  8.393621E-10
       121  11  5.115290E+04 -5.789443E+03  1.766912E+03  2.233819E+04 -6.185401E-10  7.455763E-11
       121  12  5.788281E+04  1.233685E+04  1.708952E+04  9.936783E+03 -8.460814E-10 -3.022142E-10
       121  13  9.461983E+04  1.378900E+04  7.335948E+03  3.813828E+04  6.355257E-10 -1.233661E-09
       121  14  9.185218E+04  1.218300E+04  1.258004E+04  3.631729E+04 -3.158054E-10 -9.245089E-10
       121  15  9.775902E+04  3.606736E+04  2.951153E+04  2.977323E+04  3.331017E-11 -5.999724E-10
       121  16  1.363166E+05  2.617559E+04  1.723341E+04  4.626079E+04 -7.581459E-10 -2.151338E-09
       121  17  1.325528E+05  3.015563E+04  2.339296E+04  5.029719E+04 -2.543665E-10 -4.347619E-10
       121  18  1.376363E+05  5.979848E+04  4.193321E+04  4.961075E+04  3.344252E-10  4.921362E-10
       121  19  5.292490E+04  1.402439E+03 -2.561525E+03  3.001620E+04  6.313009E+03  2.620303E+02
       121  20  5.115306E+04 -5.789396E+03  1.767205E+03  2.233821E+04  1.224798E+04  2.484690E+03
       121  21  5.788316E+04  1.233697E+04  1.709017E+04  9.936868E+03  1.771111E+04  5.963970E+03
       121  22  9.461986E+04  1.378901E+04  7.336013E+03  3.813828E+04  5.871933E+03  9.638042E+01
       121  23  9.185236E+04  1.218305E+04  1.258036E+04  3.631731E+04  1.268291E+04  2.648071E+03
       121  24  9.775942E+04  3.606750E+04  2.951229E+04  2.977333E+04  1.902200E+04  6.456448E+03
       121  25  1.363166E+05  2.617560E+04  1.723346E+04  4.626079E+04  5.430824E+03 -6.927636E+01
       121  26  1.325530E+05  3.015569E+04  2.339330E+04  5.029722E+04  1.311787E+04  2.811466E+03
       121  27  1.376368E+05  5.979864E+04  4.193407E+04  4.961086E+04  2.033297E+04  6.949000E+03
       122   1 -2.664329E+01 -1.359742E+05 -6.435237E+02  6.100438E+00 -3.959938E+00  5.451709E+01
       122   2 -2.842252E+01 -1.360603E+05 -8.136783E+02  2.197358E+01 -7.741132E+00  4.336476E+02
       122   3 -2.463504E+02 -1.362499E+05 -1.284758E+03 -5.612895E+01 -1.349325E+01  8.127827E+02
       122   4 -5.895440E+00 -1.358902E+05 -6.239292E+02 -2.086702E+01 -3.960508E+00  5.597890E+01
       122   5  2.652264E+01 -1.358383E+05 -7.609071E+02  2.609121E+01 -7.742118E+00  4.361972E+02
       122   6 -1.573963E+02 -1.358902E+05 -1.199565E+03 -2.092578E+01 -1.349462E+01  8.164204E+02
       122   7  1.485241E+01 -1.358062E+05 -6.043346E+02 -4.783449E+01 -3.961077E+00  5.744071E+01
       122   8  8.146780E+01 -1.356164E+05 -7.081359E+02  3.020884E+01 -7.743104E+00  4.387469E+02
       122   9 -6.844211E+01 -1.355305E+05 -1.114372E+03  1.427742E+01 -1.349598E+01  8.200580E+02
       122  10 -2.664329E+01 -1.359742E+05 -6.435237E+02  6.100438E+00 -1.932012E-09 -1.825394E-09
       122  11 -2.842257E+01 -1.360603E+05 -8.136786E+02  2.197358E+01 -5.379245E-10 -2.264370E-09
       122  12 -2.463506E+02 -1.362499E+05 -1.284759E+03 -5.612894E+01 -1.163248E-09 -1.621801E-09
       122  13 -5.895440E+00 -1.358902E+05 -6.239292E+02 -2.086702E+01 -1.274708E-09  8.211168E-10
       122  14  2.652259E+01 -1.358383E+05 -7.609074E+02  2.609121E+01  2.340668E-09  1.137206E-10
       122  15 -1.573964E+02 -1.358902E+05 -1.199567E+03 -2.092577E+01  3.698481E-09  1.751263E-10
       122  16  1.485241E+01 -1.358062E+05 -6.043346E+02 -4.783449E+01 -2.315989E-09  2.221544E-09
       122  17  8.146775E+01 -1.356164E+05 -7.081363E+02  3.020884E+01 -1.342531E-09  3.988042E-09
       122  18 -6.844230E+01 -1.355305E+05 -1.114374E+03  1.427743E+01 -1.318013E-09  2.764210E-09
       122  19 -2.664329E+01 -1.359742E+05 -6.435237E+02  6.100438E+00  3.959938E+00 -5.451709E+01
       122  20 -2.842252E+01 -1.360603E+05 -8.136783E+02  2.197358E+01  7.741132E+00 -4.336476E+02
       122  21 -2.463504E+02 -1.362499E+05 -1.284758E+03 -5.612895E+01  1.349325E+01 -8.127827E+02
       122  22 -5.895440E+00 -1.358902E+05 -6.239292E+02 -2.086702E+01  3.960508E+00 -5.597890E+01
       122  23  2.652264E+01 -1.358383E+05 -7.609071E+02  2.609121E+01  7.742118E+00 -4.361972E+02
       122  24 -1.573963E+02 -1.358902E+05 -1.199565E+03 -2.092578E+01  1.349462E+01 -8.164204E+02
       122  25  1.485241E+01 -1.358062E+05 -6.043346E+02 -4.783449E+01  3.961077E+00 -5.744071E+01
       122  26  8.146780E+01 -1.356164E+05 -7.081359E+02  3.020884E+01  7.743104E+00 -4.387469E+02
       122  27 -6.844211E+01 -1.355305E+05 -1.114372E+03  1.427742E+01  1.349598E+01 -8.200580E+02
       123   1 -4.445411E+01 -1.365424E+05 -1.618758E+03  2.241511E+02 -1.755711E+01  1.050734E+03
       123   2  5.620697E+01 -1.363479E+05 -2.607885E+03 -9.923430E+01 -2.364025E+01  2.302812E+03
       123   3 -1.849379E+03 -1.368183E+05 -4.913876E+03 -5.169252E+02 -2.790341E+01  3.554889E+03
       123   4  8.645855E+01 -1.360148E+05 -1.492965E+03 -2.075070E+01 -1.755891E+01  1.054326E+03
       123   5  2.208114E+02 -1.356826E+05 -2.449723E+03  2.606579E+01 -2.364078E+01  2.305400E+03
       123   6 -1.650908E+03 -1.360150E+05 -4.722647E+03 -2.142316E+01 -2.790118E+01  3.556473E+03
       123   7  2.173714E+02 -1.354873E+05 -1.367173E+03 -2.656527E+02 -1.756072E+01  1.057919E+03
       123   8  3.854159E+02 -1.350173E+05 -2.291561E+03  1.513660E+02 -2.364132E+01  2.307989E+03
       123   9 -1.452435E+03 -1.352117E+05 -4.531417E+03  4.740795E+02 -2.789895E+01  3.558058E+03
       123  10 -4.445441E+01 -1.365424E+05 -1.618760E+03  2.241511E+02 -2.141307E-09  2.841184E-10
       123  11  5.620555E+01 -1.363480E+05 -2.607895E+03 -9.923425E+01 -1.150563E-09  2.515114E-09
       123  12 -1.849382E+03 -1.368183E+05 -4.913900E+03 -5.169251E+02 -7.674727E-10  2.445832E-09
       123  13  8.645825E+01 -1.360148E+05 -1.492967E+03 -2.075069E+01  2.927675E-09 -1.787187E-12
       123  14  2.208100E+02 -1.356826E+05 -2.449733E+03  2.606583E+01  9.116278E-10  7.747832E-11
       123  15 -1.650911E+03 -1.360150E+05 -4.722670E+03 -2.142308E+01  3.709074E-10 -1.375306E-10
       123  16  2.173711E+02 -1.354873E+05 -1.367175E+03 -2.656527E+02 -1.695541E-09 -6.951618E-10
       123  17  3.854144E+02 -1.350173E+05 -2.291571E+03  1.513661E+02 -1.397108E-09 -1.164306E-09
       123  18 -1.452439E+03 -1.352117E+05 -4.531441E+03  4.740796E+02 -8.960060E-10 -2.285685E-09
       123  19 -4.445411E+01 -1.365424E+05 -1.618758E+03  2.241511E+02  1.755711E+01 -1.050734E+03
       123  20  5.620697E+01 -1.363479E+05 -2.607885E+03 -9.923430E+01  2.364025E+01 -2.302812E+03
       123  21 -1.849379E+03 -1.368183E+05 -4.913876E+03 -5.169252E+02  2.790341E+01 -3.554889E+03
       123  22  8.645855E+01 -1.360148E+05 -1.492965E+03 -2.075070E+01  1.755891E+01 -1.054326E+03
       123  23  2.208114E+02 -1.356826E+05 -2.449723E+03  2.606579E+01  2.364078E+01 -2.305400E+03
       123  24 -1.650908E+03 -1.360150E+05 -4.722647E+03 -2.142316E+01  2.790118E+01 -3.556473E+03
       123  25  2.173714E+02 -1.354873E+05 -1.367173E+03 -2.656527E+02  1.756072E+01 -1.057919E+03
       123  26  3.854159E+02 -1.350173E+05 -2.291561E+03  1.513660E+02  2.364132E+01 -2.307989E+03
       123  27 -1.452435E+03 -1.352117E+05 -4.531417E+03  4.740795E+02  2.789895E+01 -3.558058E+03
       124   1  6.528847E+02 -1.381069E+05 -6.024745E+03  2.305149E+03 -3.565544E+01  4.436843E+03
       124   2  1.873215E+03 -1.353872E+05 -9.584044E+03 -1.661577E+03 -4.169631E+01  9.473119E+03
       124   3 -1.716785E+04 -1.383891E+05 -2.148801E+04 -5.726522E+03 -1.854962E+01  1.450934E+04
       124   4  8.949756E+02 -1.371379E+05 -5.794205E+03 -1.976220E+01 -3.567604E+01  4.447157E+03
       124   5  2.145928E+03 -1.342790E+05 -9.320952E+03  2.596375E+01 -4.166830E+01  9.467295E+03
       124   6 -1.686176E+04 -1.371390E+05 -2.118116E+04 -2.661023E+01 -1.840790E+01  1.448738E+04
       124   7  1.137087E+03 -1.361689E+05 -5.563662E+03 -2.344677E+03 -3.569672E+01  4.457471E+03
       124   8  2.418651E+03 -1.331709E+05 -9.057858E+03  1.713507E+03 -4.164032E+01  9.461472E+03
       124   9 -1.655554E+04 -1.358889E+05 -2.087429E+04  5.673313E+03 -1.826659E+01  1.446542E+04
       124  10  6.528794E+02 -1.381069E+05 -6.024782E+03  2.305149E+03 -2.360636E-10  3.681301E-10
       124  11  1.873191E+03 -1.353873E+05 -9.584213E+03 -1.661576E+03  2.282334E-10 -9.453125E-10
       124  12 -1.716791E+04 -1.383893E+05 -2.148841E+04 -5.726522E+03  5.420342E-11  9.793880E-10
       124  13  8.949703E+02 -1.371379E+05 -5.794242E+03 -1.976207E+01  4.026372E-10 -5.306268E-10
       124  14  2.145903E+03 -1.342791E+05 -9.321120E+03  2.596407E+01  3.653006E-10 -3.290484E-10
       124  15 -1.686182E+04 -1.371393E+05 -2.118155E+04 -2.661001E+01 -2.705118E-10 -2.712336E-10
       124  16  1.137081E+03 -1.361689E+05 -5.563700E+03 -2.344677E+03 -1.185492E-10  4.461513E-10
       124  17  2.418627E+03 -1.331710E+05 -9.058026E+03  1.713507E+03  1.115647E-09  1.534477E-09
       124  18 -1.655560E+04 -1.358891E+05 -2.087468E+04  5.673313E+03 -1.689437E-10  1.359629E-10
       124  19  6.528847E+02 -1.381069E+05 -6.024745E+03  2.305149E+03  3.565544E+01 -4.436843E+03
       124  20  1.873215E+03 -1.353872E+05 -9.584044E+03 -1.661577E+03  4.169631E+01 -9.473119E+03
       124  21 -1.716785E+04 -1.383891E+05 -2.148801E+04 -5.726522E+03  1.854962E+01 -1.450934E+04
       124  22  8.949756E+02 -1.371379E+05 -5.794205E+03 -1.976220E+01  3.567604E+01 -4.447157E+03
       124  23  2.145928E+03 -1.342790E+05 -9.320952E+03  2.596375E+01  4.166830E+01 -9.467295E+03
       124  24 -1.686176E+04 -1.371390E+05 -2.118116E+04 -2.661023E+01  1.840790E+01 -1.448738E+04
       124  25  1.137087E+03 -1.361689E+05 -5.563662E+03 -2.344677E+03  3.569672E+01 -4.457471E+03
       124  26  2.418651E+03 -1.331709E+05 -9.057858E+03  1.713507E+03  4.164032E+01 -9.461472E+03
       124  27 -1.655554E+04 -1.358889E+05 -2.087429E+04  5.673313E+03  1.826659E+01 -1.446542E+04
       125   1 -1.489362E+06 -4.745883E+05 -2.360445E+05 -5.436879E+05 -8.925476E+04 -2.054932E+04
       125   2 -1.442250E+06 -4.079322E+05 -1.672427E+05 -5.262932E+05 -5.819399E+04  2.145451E+04
       125   3 -1.403417E+06 -3.783334E+05 -1.368362E+05 -5.120166E+05 -1.974527E+04  4.384530E+04
       125   4 -7.636216E+05 -1.802441E+05 -4.440638E+04 -3.226860E+05 -3.299883E+04  6.090514E+02
       125   5 -7.600498E+05 -1.475080E+05 -2.047629E+04 -3.275948E+05 -3.227142E+04  3.119676E+04
       125   6 -7.587221E+05 -1.457921E+05 -1.084934E+04 -3.356266E+05 -2.416413E+04  4.217933E+04
       125   7 -3.737823E+04  1.141527E+05  1.471944E+05 -1.014451E+05  2.332774E+04  2.179899E+04
       125   8 -7.737718E+04  1.129628E+05  1.262648E+05 -1.286923E+05 -6.318250E+03  4.095152E+04
       125   9 -1.135877E+05  8.678670E+04  1.151212E+05 -1.590654E+05 -2.858797E+04  4.051154E+04
       125  10 -1.489371E+06 -4.745909E+05 -2.360603E+05 -5.436894E+05 -2.151392E-10  1.572189E-10
       125  11 -1.442254E+06 -4.079336E+05 -1.672499E+05 -5.262922E+05  5.014248E-10 -2.523523E-10
       125  12 -1.403418E+06 -3.783355E+05 -1.368405E+05 -5.120159E+05  1.709587E-10 -1.361547E-10
       125  13 -7.636228E+05 -1.802444E+05 -4.440843E+04 -3.226859E+05 -7.028227E-10  4.096730E-10
       125  14 -7.600512E+05 -1.475094E+05 -2.048007E+04 -3.275940E+05  1.669390E-10  1.676816E-10
       125  15 -7.587232E+05 -1.457942E+05 -1.085378E+04 -3.356258E+05 -7.303800E-10 -1.899497E-10
       125  16 -3.737894E+04  1.141520E+05  1.471925E+05 -1.014455E+05 -3.452945E-10 -5.413381E-10
       125  17 -7.737767E+04  1.129610E+05  1.262616E+05 -1.286920E+05 -4.360983E-10 -4.826546E-10
       125  18 -1.135890E+05  8.678472E+04  1.151165E+05 -1.590644E+05 -3.619721E-10 -7.987644E-10
       125  19 -1.489362E+06 -4.745883E+05 -2.360445E+05 -5.436879E+05  8.925476E+04  2.054932E+04
       125  20 -1.442250E+06 -4.079322E+05 -1.672427E+05 -5.262932E+05  5.819399E+04 -2.145451E+04
       125  21 -1.403417E+06 -3.783334E+05 -1.368362E+05 -5.120166E+05  1.974527E+04 -4.384530E+04
       125  22 -7.636216E+05 -1.802441E+05 -4.440638E+04 -3.226860E+05  3.299883E+04 -6.090514E+02
       125  23 -7.600498E+05 -1.475080E+05 -2.047629E+04 -3.275948E+05  3.227142E+04 -3.119676E+04
       125  24 -7.587221E+05 -1.457921E+05 -1.084934E+04 -3.356266E+05  2.416413E+04 -4.217933E+04
       125  25 -3.737823E+04  1.141527E+05  1.471944E+05 -1.014451E+05 -2.332774E+04 -2.179899E+04
       125  26 -7.737718E+04  1.129628E+05  1.262648E+05 -1.286923E+05  6.318250E+03 -4.095152E+04
       125  27 -1.135877E+05  8.678670E+04  1.151212E+05 -1.590654E+05  2.858797E+04 -4.051154E+04
       126   1 -1.366115E+06 -3.693626E+05 -1.270768E+05 -5.048123E+05 -2.102356E+04  4.128178E+04
       126   2 -1.321052E+06 -3.449886E+05 -1.113350E+05 -4.862661E+05 -1.593078E+04  4.144170E+04
       126   3 -1.268339E+06 -3.309349E+05 -9.934962E+04 -4.775192E+05 -1.027416E+04  4.009767E+04
       126   4 -7.572140E+05 -1.467600E+05 -8.232210E+03 -3.349734E+05 -2.224099E+04  4.081960E+04
       126   5 -7.611519E+05 -1.410813E+05 -4.350433E+03 -3.303507E+05 -1.947286E+04  4.010697E+04
       126   6 -7.569810E+05 -1.452600E+05 -2.378574E+03 -3.355273E+05 -1.614156E+04  3.789102E+04
       126   7 -1.479282E+05  7.587611E+04  1.105957E+05 -1.649798E+05 -2.345970E+04  4.035694E+04
       126   8 -2.009277E+05  6.285360E+04  1.026202E+05 -1.743052E+05 -2.301834E+04  3.877097E+04
       126   9 -2.453543E+05  4.043667E+04  9.458055E+04 -1.934280E+05 -2.201409E+04  3.568245E+04
       126  10 -1.366116E+06 -3.693645E+05 -1.270808E+05 -5.048116E+05 -1.572421E-10 -4.253324E-10
       126  11 -1.321052E+06 -3.449905E+05 -1.113387E+05 -4.862655E+05 -6.540531E-10  2.614153E-10
       126  12 -1.268340E+06 -3.309366E+05 -9.935284E+04 -4.775189E+05  2.557541E-10  3.557732E-11
       126  13 -7.572150E+05 -1.467619E+05 -8.236269E+03 -3.349727E+05 -3.526118E-10 -3.091662E-10
       126  14 -7.611527E+05 -1.410831E+05 -4.354167E+03 -3.303500E+05  2.373678E-10 -8.129172E-10
       126  15 -7.569816E+05 -1.452617E+05 -2.381760E+03 -3.355268E+05  6.752546E-11 -3.800025E-10
       126  16 -1.479292E+05  7.587421E+04  1.105916E+05 -1.649790E+05  5.532230E-10  1.473368E-10
       126  17 -2.009286E+05  6.285184E+04  1.026164E+05 -1.743045E+05  1.022223E-10 -2.444769E-10
       126  18 -2.453551E+05  4.043517E+04  9.457725E+04 -1.934273E+05 -4.232912E-10 -3.428494E-10
       126  19 -1.366115E+06 -3.693626E+05 -1.270768E+05 -5.048123E+05  2.102356E+04 -4.128178E+04
       126  20 -1.321052E+06 -3.449886E+05 -1.113350E+05 -4.862661E+05  1.593078E+04 -4.144170E+04
       126  21 -1.268339E+06 -3.309349E+05 -9.934962E+04 -4.775192E+05  1.027416E+04 -4.009767E+04
       126  22 -7.572140E+05 -1.467600E+05 -8.232210E+03 -3.349734E+05  2.224099E+04 -4.081960E+04
       126  23 -7.611519E+05 -1.410813E+05 -4.350433E+03 -3.303507E+05  1.947286E+04 -4.010697E+04
       126  24 -7.569810E+05 -1.452600E+05 -2.378574E+03 -3.355273E+05  1.614156E+04 -3.789102E+04
       126  25 -1.479282E+05  7.587611E+04  1.105957E+05 -1.649798E+05  2.345970E+04 -4.035694E+04
       126  26 -2.009277E+05  6.285360E+04  1.026202E+05 -1.743052E+05  2.301834E+04 -3.877097E+04
       126  27 -2.453543E+05  4.043667E+04  9.458055E+04 -1.934280E+05  2.201409E+04 -3.568245E+04
       127   1 -1.235329E+06 -3.191358E+05 -9.225543E+04 -4.685259E+05 -9.343058E+03  3.791353E+04
       127   2 -1.190393E+06 -2.966980E+05 -8.206843E+04 -4.497381E+05 -7.274786E+03  3.446973E+04
       127   3 -1.136680E+06 -2.832109E+05 -7.239942E+04 -4.410940E+05 -5.162783E+03  3.090528E+04
       127   4 -7.568584E+05 -1.453164E+05 -1.790437E+03 -3.355022E+05 -1.497495E+04  3.579613E+04
       127   5 -7.612507E+05 -1.408257E+05 -9.876115E+02 -3.304391E+05 -1.309293E+04  3.228361E+04
       127   6 -7.568327E+05 -1.452488E+05 -5.554883E+02 -3.355205E+05 -1.116726E+04  2.865047E+04
       127   7 -2.781435E+05  2.852560E+04  8.866660E+04 -2.023819E+05 -2.061155E+04  3.367697E+04
       127   8 -3.319133E+05  1.506433E+04  8.008644E+04 -2.110628E+05 -1.891541E+04  3.009587E+04
       127   9 -3.768346E+05 -7.273449E+03  7.128275E+04 -2.298868E+05 -1.717567E+04  2.639419E+04
       127  10 -1.235330E+06 -3.191374E+05 -9.225829E+04 -4.685256E+05  4.204104E-10 -1.144871E-10
       127  11 -1.190394E+06 -2.966993E+05 -8.207076E+04 -4.497379E+05  3.784593E-10 -2.059893E-10
       127  12 -1.136680E+06 -2.832120E+05 -7.240126E+04 -4.410939E+05  1.075493E-10 -6.139730E-11
       127  13 -7.568590E+05 -1.453178E+05 -1.793265E+03 -3.355018E+05  7.299247E-11 -1.496307E-10
       127  14 -7.612511E+05 -1.408268E+05 -9.898913E+02 -3.304388E+05  1.162159E-10 -1.938039E-10
       127  15 -7.568331E+05 -1.452497E+05 -5.572645E+02 -3.355202E+05  4.452156E-11 -2.075039E-10
       127  16 -2.781443E+05  2.852427E+04  8.866367E+04 -2.023813E+05 -1.361733E-10 -1.248452E-10
       127  17 -3.319139E+05  1.506326E+04  8.008407E+04 -2.110624E+05 -2.711017E-11 -8.593547E-11
       127  18 -3.768351E+05 -7.274276E+03  7.128089E+04 -2.298864E+05 -1.828457E-13 -3.083856E-10
       127  19 -1.235329E+06 -3.191358E+05 -9.225543E+04 -4.685259E+05  9.343058E+03 -3.791353E+04
       127  20 -1.190393E+06 -2.966980E+05 -8.206843E+04 -4.497381E+05  7.274786E+03 -3.446973E+04
       127  21 -1.136680E+06 -2.832109E+05 -7.239942E+04 -4.410940E+05  5.162783E+03 -3.090528E+04
       127  22 -7.568584E+05 -1.453164E+05 -1.790437E+03 -3.355022E+05  1.497495E+04 -3.579613E+04
       127  23 -7.612507E+05 -1.408257E+05 -9.876115E+02 -3.304391E+05  1.309293E+04 -3.228361E+04
       127  24 -7.568327E+05 -1.452488E+05 -5.554883E+02 -3.355205E+05  1.116726E+04 -2.865047E+04
       127  25 -2.781435E+05  2.852560E+04  8.866660E+04 -2.023819E+05  2.061155E+04 -3.367697E+04
       127  26 -3.319133E+05  1.506433E+04  8.008644E+04 -2.110628E+05  1.891541E+04 -3.009587E+04
       127  27 -3.768346E+05 -7.273449E+03  7.128275E+04 -2.298868E+05  1.717567E+04 -2.639419E+04
       128   1 -1.103799E+06 -2.712340E+05 -6.579184E+04 -4.319855E+05 -4.244257E+03  2.867176E+04
       128   2 -1.058720E+06 -2.488062E+05 -5.640757E+04 -4.131149E+05 -2.633602E+03  2.485233E+04
       128   3 -1.004748E+06 -2.352796E+05 -4.713526E+04 -4.044346E+05 -1.019224E+03  2.101981E+04
       128   4 -7.568093E+05 -1.452529E+05 -4.286671E+02 -3.355255E+05 -1.023739E+04  2.642185E+04
       128   5 -7.612510E+05 -1.407934E+05 -2.716426E+02 -3.304320E+05 -8.646868E+03  2.259574E+04
       128   6 -7.567974E+05 -1.452312E+05 -2.108212E+02 -3.355298E+05 -7.052630E+03  1.875653E+04
       128   7 -4.096971E+05 -1.926203E+04  6.492895E+04 -2.390162E+05 -1.623406E+04  2.417061E+04
       128   8 -4.636890E+05 -3.277246E+04  5.586086E+04 -2.477123E+05 -1.466322E+04  2.033799E+04
       128   9 -5.087798E+05 -5.517633E+04  4.671188E+04 -2.665987E+05 -1.308867E+04  1.649226E+04
       128  10 -1.103799E+06 -2.712349E+05 -6.579341E+04 -4.319854E+05  1.481536E-10  7.993949E-11
       128  11 -1.058721E+06 -2.488069E+05 -5.640875E+04 -4.131148E+05  6.696055E-11  1.699147E-10
       128  12 -1.004749E+06 -2.352801E+05 -4.713609E+04 -4.044346E+05  4.636162E-10 -4.825075E-12
       128  13 -7.568096E+05 -1.452537E+05 -4.301753E+02 -3.355253E+05  2.574560E-11 -1.115701E-11
       128  14 -7.612512E+05 -1.407940E+05 -2.727421E+02 -3.304319E+05  8.672377E-12  2.121040E-11
       128  15 -7.567975E+05 -1.452316E+05 -2.115755E+02 -3.355297E+05 -1.479678E-10  2.283760E-11
       128  16 -4.096976E+05 -1.926273E+04  6.492736E+04 -2.390158E+05 -1.350554E-10 -1.579740E-10
       128  17 -4.636893E+05 -3.277297E+04  5.585968E+04 -2.477120E+05 -2.739122E-10  1.127870E-11
       128  18 -5.087801E+05 -5.517667E+04  4.671105E+04 -2.665985E+05 -4.078901E-10  1.253789E-11
       128  19 -1.103799E+06 -2.712340E+05 -6.579184E+04 -4.319855E+05  4.244257E+03 -2.867176E+04
       128  20 -1.058720E+06 -2.488062E+05 -5.640757E+04 -4.131149E+05  2.633602E+03 -2.485233E+04
       128  21 -1.004748E+06 -2.352796E+05 -4.713526E+04 -4.044346E+05  1.019224E+03 -2.101981E+04
       128  22 -7.568093E+05 -1.452529E+05 -4.286671E+02 -3.355255E+05  1.023739E+04 -2.642185E+04
       128  23 -7.612510E+05 -1.407934E+05 -2.716426E+02 -3.304320E+05  8.646868E+03 -2.259574E+04
       128  24 -7.567974E+05 -1.452312E+05 -2.108212E+02 -3.355298E+05  7.052630E+03 -1.875653E+04
       128  25 -4.096971E+05 -1.926203E+04  6.492895E+04 -2.390162E+05  1.623406E+04 -2.417061E+04
       128  26 -4.636890E+05 -3.277246E+04  5.586086E+04 -2.477123E+05  1.466322E+04 -2.033799E+04
       128  27 -5.087798E+05 -5.517633E+04  4.671188E+04 -2.665987E+05  1.308867E+04 -1.649226E+04
       129   1 -9.717799E+05 -2.232647E+05 -4.063827E+04 -3.952996E+05 -1.293061E+02  1.876524E+04
       129   2 -9.265745E+05 -2.007981E+05 -3.146109E+04 -3.763920E+05  1.466353E+03  1.491649E+04
       129   3 -8.724619E+05 -1.872497E+05 -2.238155E+04 -3.677038E+05  3.061276E+03  1.106782E+04
       129   4 -7.567908E+05 -1.452317E+05 -2.109368E+02 -3.355361E+05 -6.166495E+03  1.650094E+04
       129   5 -7.612387E+05 -1.407623E+05 -2.684527E+02 -3.304285E+05 -4.570703E+03  1.265272E+04
       129   6 -7.567822E+05 -1.452112E+05 -4.238803E+02 -3.355412E+05 -2.975663E+03  8.804600E+03
       129   7 -5.417535E+05 -6.719453E+04  4.021469E+04 -2.757532E+05 -1.220592E+04  1.423580E+04
       129   8 -5.958752E+05 -8.072439E+04  3.092301E+04 -2.844539E+05 -1.060945E+04  1.038833E+04
       129   9 -6.410896E+05 -1.031718E+05  2.153310E+04 -3.033733E+05 -9.013752E+03  6.540951E+03
       129  10 -9.717800E+05 -2.232650E+05 -4.063893E+04 -3.952996E+05 -1.145822E-10 -1.800854E-10
       129  11 -9.265745E+05 -2.007983E+05 -3.146151E+04 -3.763920E+05  9.486425E-11  7.828371E-11
       129  12 -8.724619E+05 -1.872498E+05 -2.238180E+04 -3.677039E+05  2.955419E-10 -1.600415E-10
       129  13 -7.567910E+05 -1.452320E+05 -2.115197E+02 -3.355360E+05  3.467809E-10  8.942383E-11
       129  14 -7.612388E+05 -1.407625E+05 -2.687927E+02 -3.304285E+05 -1.585049E-10  7.956755E-11
       129  15 -7.567822E+05 -1.452113E+05 -4.240426E+02 -3.355412E+05 -3.234123E-10 -4.073438E-10
       129  16 -5.417537E+05 -6.719479E+04  4.021403E+04 -2.757531E+05  6.334648E-12  2.454741E-10
       129  17 -5.958753E+05 -8.072454E+04  3.092260E+04 -2.844538E+05  2.157788E-11  9.933914E-11
       129  18 -6.410897E+05 -1.031719E+05  2.153287E+04 -3.033733E+05 -2.513101E-10 -5.476082E-11
       129  19 -9.717799E+05 -2.232647E+05 -4.063827E+04 -3.952996E+05  1.293061E+02 -1.876524E+04
       129  20 -9.265745E+05 -2.007981E+05 -3.146109E+04 -3.763920E+05 -1.466353E+03 -1.491649E+04
       129  21 -8.724619E+05 -1.872497E+05 -2.238155E+04 -3.677038E+05 -3.061276E+03 -1.106782E+04
       129  22 -7.567908E+05 -1.452317E+05 -2.109368E+02 -3.355361E+05  6.166495E+03 -1.650094E+04
       129  23 -7.612387E+05 -1.407623E+05 -2.684527E+02 -3.304285E+05  4.570703E+03 -1.265272E+04
       129  24 -7.567822E+05 -1.452112E+05 -4.238803E+02 -3.355412E+05  2.975663E+03 -8.804600E+03
       129  25 -5.417535E+05 -6.719453E+04  4.021469E+04 -2.757532E+05  1.220592E+04 -1.423580E+04
       129  26 -5.958752E+05 -8.072439E+04  3.092301E+04 -2.844539E+05  1.060945E+04 -1.038833E+04
       129  27 -6.410896E+05 -1.031718E+05  2.153310E+04 -3.033733E+05  9.013752E+03 -6.540951E+03
       130   1 -8.394295E+05 -1.752191E+05 -1.599704E+04 -3.585648E+05  4.003224E+03  8.829216E+03
       130   2 -7.941336E+05 -1.527347E+05 -7.154050E+03 -3.396413E+05  5.875663E+03  5.103797E+03
       130   3 -7.399788E+05 -1.392169E+05  1.369236E+03 -3.309525E+05  7.731349E+03  1.422752E+03
       130   4 -7.567931E+05 -1.452092E+05 -5.505449E+02 -3.355503E+05 -2.043010E+03  6.562689E+03
       130   5 -7.612150E+05 -1.407314E+05 -9.738785E+02 -3.304273E+05 -1.020966E+02  2.863017E+03
       130   6 -7.567954E+05 -1.452345E+05 -1.771728E+03 -3.355403E+05  1.822024E+03 -7.922830E+02
       130   7 -6.741487E+05 -1.151983E+05  1.489605E+04 -3.125328E+05 -8.090161E+03  4.295816E+03
       130   8 -7.282950E+05 -1.287279E+05  5.206447E+03 -3.212128E+05 -6.080224E+03  6.220976E+02
       130   9 -7.736116E+05 -1.512521E+05 -4.912555E+03 -3.401280E+05 -4.087131E+03 -3.007257E+03
       130  10 -8.394295E+05 -1.752192E+05 -1.599722E+04 -3.585648E+05 -4.396311E-11 -2.683414E-10
       130  11 -7.941337E+05 -1.527348E+05 -7.154164E+03 -3.396414E+05  1.022388E-10  1.570337E-10
       130  12 -7.399789E+05 -1.392170E+05  1.369120E+03 -3.309525E+05 -5.024222E-10 -5.664662E-11
       130  13 -7.567931E+05 -1.452093E+05 -5.506336E+02 -3.355503E+05  4.318769E-11 -1.312828E-10
       130  14 -7.612150E+05 -1.407314E+05 -9.738939E+02 -3.304273E+05 -5.092899E-10 -5.055758E-10
       130  15 -7.567954E+05 -1.452345E+05 -1.771736E+03 -3.355403E+05  1.278850E-10  3.013521E-10
       130  16 -6.741487E+05 -1.151984E+05  1.489590E+04 -3.125327E+05 -1.928690E-11 -1.152233E-10
       130  17 -7.282951E+05 -1.287279E+05  5.206377E+03 -3.212128E+05  2.050655E-10  3.306621E-11
       130  18 -7.736116E+05 -1.512521E+05 -4.912604E+03 -3.401280E+05  3.288288E-11  2.177072E-10
       130  19 -8.394295E+05 -1.752191E+05 -1.599704E+04 -3.585648E+05 -4.003224E+03 -8.829216E+03
       130  20 -7.941336E+05 -1.527347E+05 -7.154050E+03 -3.396413E+05 -5.875663E+03 -5.103797E+03
       130  21 -7.399788E+05 -1.392169E+05  1.369236E+03 -3.309525E+05 -7.731349E+03 -1.422752E+03
       130  22 -7.567931E+05 -1.452092E+05 -5.505449E+02 -3.355503E+05  2.043010E+03 -6.562689E+03
       130  23 -7.612150E+05 -1.407314E+05 -9.738785E+02 -3.304273E+05  1.020966E+02 -2.863017E+03
       130  24 -7.567954E+05 -1.452345E+05 -1.771728E+03 -3.355403E+05 -1.822024E+03  7.922830E+02
       130  25 -6.741487E+05 -1.151983E+05  1.489605E+04 -3.125328E+05  8.090161E+03 -4.295816E+03
       130  26 -7.282950E+05 -1.287279E+05  5.206447E+03 -3.212128E+05  6.080224E+03 -6.220976E+02
       130  27 -7.736116E+05 -1.512521E+05 -4.912555E+03 -3.401280E+05  4.087131E+03  3.007257E+03
       131   1 -7.068846E+05 -1.272474E+05  7.316693E+03 -3.219802E+05  9.004306E+03 -6.793405E+02
       131   2 -6.617513E+05 -1.046252E+05  1.495832E+04 -3.025988E+05  1.159797E+04 -3.791996E+03
       131   3 -6.082289E+05 -9.183095E+04  2.141906E+04 -2.932203E+05  1.397055E+04 -6.314041E+03
       131   4 -7.568993E+05 -1.451908E+05 -2.356520E+03 -3.355912E+05  2.998715E+03 -2.930508E+03
       131   5 -7.611059E+05 -1.409106E+05 -4.302403E+03 -3.303186E+05  6.506604E+03 -5.700728E+03
       131   6 -7.571073E+05 -1.466398E+05 -8.154312E+03 -3.350499E+05  9.793304E+03 -7.880330E+03
       131   7 -8.069108E+05 -1.631337E+05 -1.202956E+04 -3.492010E+05 -3.006305E+03 -5.181467E+03
       131   8 -8.604502E+05 -1.771950E+05 -2.356345E+04 -3.580342E+05  1.416110E+03 -7.609129E+03
       131   9 -9.059641E+05 -2.014472E+05 -3.772903E+04 -3.768706E+05  5.617095E+03 -9.446221E+03
       131  10 -7.068847E+05 -1.272474E+05  7.316540E+03 -3.219802E+05  1.157394E-10  4.524024E-10
       131  11 -6.617515E+05 -1.046253E+05  1.495804E+04 -3.025988E+05 -4.809550E-10  4.769476E-11
       131  12 -6.082292E+05 -9.183104E+04  2.141862E+04 -2.932202E+05  1.563400E-10 -8.904527E-11
       131  13 -7.568993E+05 -1.451908E+05 -2.356553E+03 -3.355912E+05 -4.812944E-11  3.259825E-10
       131  14 -7.611060E+05 -1.409106E+05 -4.302544E+03 -3.303185E+05 -2.068182E-10  1.465804E-10
       131  15 -7.571075E+05 -1.466399E+05 -8.154608E+03 -3.350499E+05 -3.658418E-10 -4.596142E-10
       131  16 -8.069108E+05 -1.631338E+05 -1.202963E+04 -3.492010E+05 -1.849724E-10  3.406113E-10
       131  17 -8.604502E+05 -1.771950E+05 -2.356356E+04 -3.580342E+05 -1.596934E-10  6.760688E-11
       131  18 -9.059642E+05 -2.014473E+05 -3.772925E+04 -3.768706E+05 -2.306340E-10 -4.083163E-10
       131  19 -7.068846E+05 -1.272474E+05  7.316693E+03 -3.219802E+05 -9.004306E+03  6.793405E+02
       131  20 -6.617513E+05 -1.046252E+05  1.495832E+04 -3.025988E+05 -1.159797E+04  3.791996E+03
       131  21 -6.082289E+05 -9.183095E+04  2.141906E+04 -2.932203E+05 -1.397055E+04  6.314041E+03
       131  22 -7.568993E+05 -1.451908E+05 -2.356520E+03 -3.355912E+05 -2.998715E+03  2.930508E+03
       131  23 -7.611059E+05 -1.409106E+05 -4.302403E+03 -3.303186E+05 -6.506604E+03  5.700728E+03
       131  24 -7.571073E+05 -1.466398E+05 -8.154312E+03 -3.350499E+05 -9.793304E+03  7.880330E+03
       131  25 -8.069108E+05 -1.631337E+05 -1.202956E+04 -3.492010E+05  3.006305E+03  5.181467E+03
       131  26 -8.604502E+05 -1.771950E+05 -2.356345E+04 -3.580342E+05 -1.416110E+03  7.609129E+03
       131  27 -9.059641E+05 -2.014472E+05 -3.772903E+04 -3.768706E+05 -5.617095E+03  9.446221E+03
       132   1 -5.738416E+05 -8.115441E+04  2.561760E+04 -2.874835E+05  1.725212E+04 -7.488742E+03
       132   2 -5.356182E+05 -5.513716E+04  2.992630E+04 -2.557121E+05  1.576014E+04 -7.645175E+03
       132   3 -4.965127E+05 -5.835265E+04  2.953469E+04 -2.279992E+05  1.136925E+04 -7.374720E+01
       132   4 -7.584706E+05 -1.457985E+05 -1.074806E+04 -3.358454E+05  1.181003E+04 -9.529400E+03
       132   5 -7.601384E+05 -1.470858E+05 -2.027569E+04 -3.274110E+05  2.228929E+04 -5.197554E+03
       132   6 -7.633035E+05 -1.799858E+05 -4.399768E+04 -3.230373E+05  2.986899E+04  6.863464E+03
       132   7 -9.430653E+05 -2.104407E+05 -4.711544E+04 -3.841945E+05  6.369645E+03 -1.156948E+04
       132   8 -9.846034E+05 -2.390254E+05 -7.047964E+04 -3.990837E+05  2.881579E+04 -2.751176E+03
       132   9 -1.030013E+06 -3.015995E+05 -1.175323E+05 -4.180315E+05  4.835938E+04  1.379554E+04
       132  10 -5.738420E+05 -8.115455E+04  2.561694E+04 -2.874834E+05 -1.957492E-10 -2.626963E-10
       132  11 -5.356184E+05 -5.513729E+04  2.992572E+04 -2.557120E+05  7.476582E-11 -1.272260E-10
       132  12 -4.965128E+05 -5.835268E+04  2.953445E+04 -2.279992E+05 -2.389964E-10 -9.229685E-11
       132  13 -7.584708E+05 -1.457986E+05 -1.074849E+04 -3.358453E+05  6.856415E-10  7.140478E-11
       132  14 -7.601389E+05 -1.470860E+05 -2.027667E+04 -3.274109E+05  5.300020E-11 -2.381614E-10
       132  15 -7.633045E+05 -1.799861E+05 -4.399945E+04 -3.230375E+05  4.115673E-11 -1.568176E-11
       132  16 -9.430654E+05 -2.104408E+05 -4.711577E+04 -3.841944E+05  4.332340E-10 -1.821327E-10
       132  17 -9.846043E+05 -2.390257E+05 -7.048122E+04 -3.990837E+05  2.665754E-10 -1.197336E-10
       132  18 -1.030016E+06 -3.016004E+05 -1.175370E+05 -4.180320E+05 -1.768987E-11  1.286201E-11
       132  19 -5.738416E+05 -8.115441E+04  2.561760E+04 -2.874835E+05 -1.725212E+04  7.488742E+03
       132  20 -5.356182E+05 -5.513716E+04  2.992630E+04 -2.557121E+05 -1.576014E+04  7.645175E+03
       132  21 -4.965127E+05 -5.835265E+04  2.953469E+04 -2.279992E+05 -1.136925E+04  7.374720E+01
       132  22 -7.584706E+05 -1.457985E+05 -1.074806E+04 -3.358454E+05 -1.181003E+04  9.529400E+03
       132  23 -7.601384E+05 -1.470858E+05 -2.027569E+04 -3.274110E+05 -2.228929E+04  5.197554E+03
       132  24 -7.633035E+05 -1.799858E+05 -4.399768E+04 -3.230373E+05 -2.986899E+04 -6.863464E+03
       132  25 -9.430653E+05 -2.104407E+05 -4.711544E+04 -3.841945E+05 -6.369645E+03  1.156948E+04
       132  26 -9.846034E+05 -2.390254E+05 -7.047964E+04 -3.990837E+05 -2.881579E+04  2.751176E+03
       132  27 -1.030013E+06 -3.015995E+05 -1.175323E+05 -4.180315E+05 -4.835938E+04 -1.379554E+04
       133   1  3.437509E+04  7.013958E+03  1.146489E+04  3.842500E+03  1.383208E+04  4.154557E+02
       133   2  3.508988E+04 -1.110016E+04  7.538464E+02  1.009293E+03  9.307551E+03  1.241833E+03
       133   3  4.145448E+04 -8.979272E+03 -1.952370E+03 -4.206345E+03  4.783016E+03  1.147137E+03
       133   4  7.410796E+04  1.691511E+04  2.124845E+04 -1.873546E+03  1.454346E+04  4.154070E+02
       133   5  7.123943E+04 -2.152878E+03  9.344644E+03 -6.814266E+02  9.510158E+03  1.241822E+03
       133   6  7.410860E+04 -8.982553E+02  5.798578E+03 -1.871667E+03  4.476879E+03  1.147128E+03
       133   7  1.138423E+05  2.681627E+04  3.103191E+04 -7.589958E+03  1.525488E+04  4.153452E+02
       133   8  1.073902E+05  6.794320E+03  1.793535E+04 -2.372245E+03  9.712777E+03  1.241810E+03
       133   9  1.067637E+05  7.182705E+03  1.354945E+04  4.631348E+02  4.170725E+03  1.147118E+03
       133  10  3.437489E+04  7.013906E+03  1.146453E+04  3.842495E+03  3.511094E-10 -2.043376E-10
       133  11  3.508978E+04 -1.110019E+04  7.536807E+02  1.009283E+03 -4.203201E-11 -1.846808E-10
       133  12  4.145445E+04 -8.979280E+03 -1.952415E+03 -4.206349E+03 -2.128591E-10 -1.342815E-10
       133  13  7.410773E+04  1.691505E+04  2.124805E+04 -1.873551E+03 -1.816959E-10  3.843273E-11
       133  14  7.123933E+04 -2.152904E+03  9.344471E+03 -6.814361E+02  1.593403E-10 -9.479641E-11
       133  15  7.410857E+04 -8.982621E+02  5.798538E+03 -1.871671E+03 -2.243374E-10 -1.149003E-10
       133  16  1.138421E+05  2.681621E+04  3.103147E+04 -7.589963E+03  3.647193E-11  7.889107E-11
       133  17  1.073901E+05  6.794293E+03  1.793517E+04 -2.372254E+03 -2.664783E-11  4.344797E-11
       133  18  1.067637E+05  7.182699E+03  1.354942E+04  4.631309E+02  8.937343E-10  1.710978E-10
       133  19  3.437509E+04  7.013958E+03  1.146489E+04  3.842500E+03 -1.383208E+04 -4.154557E+02
       133  20  3.508988E+04 -1.110016E+04  7.538464E+02  1.009293E+03 -9.307551E+03 -1.241833E+03
       133  21  4.145448E+04 -8.979272E+03 -1.952370E+03 -4.206345E+03 -4.783016E+03 -1.147137E+03
       133  22  7.410796E+04  1.691511E+04  2.124845E+04 -1.873546E+03 -1.454346E+04 -4.154070E+02
       133  23  7.123943E+04 -2.152878E+03  9.344644E+03 -6.814266E+02 -9.510158E+03 -1.241822E+03
       133  24  7.410860E+04 -8.982553E+02  5.798578E+03 -1.871667E+03 -4.476879E+03 -1.147128E+03
       133  25  1.138423E+05  2.681627E+04  3.103191E+04 -7.589958E+03 -1.525488E+04 -4.153452E+02
       133  26  1.073902E+05  6.794320E+03  1.793535E+04 -2.372245E+03 -9.712777E+03 -1.241810E+03
       133  27  1.067637E+05  7.182705E+03  1.354945E+04  4.631348E+02 -4.170725E+03 -1.147118E+03
       134   1  4.463433E+04 -5.363360E+03 -2.032836E+03 -1.380810E+03  3.615948E+03  9.335008E+02
       134   2  4.782655E+04 -6.365478E+03 -3.478739E+03 -5.521619E+02  2.412641E+03  8.486783E+02
       134   3  5.167748E+04 -5.363084E+03 -3.639948E+03 -2.123383E+03  1.209325E+03  7.023686E+02
       134   4  7.298116E+04  1.655730E+03  4.717993E+03 -1.876172E+03  3.586246E+03  9.334932E+02
       134   5  7.264895E+04 -2.212929E+02  2.421491E+03 -6.761913E+02  2.348944E+03  8.486723E+02
       134   6  7.298129E+04 -8.795080E+01  1.433245E+03 -1.876071E+03  1.111640E+03  7.023639E+02
       134   7  1.013287E+05  8.674764E+03  1.146877E+04 -2.371558E+03  3.556543E+03  9.334856E+02
       134   8  9.747191E+04  5.922847E+03  8.321678E+03 -8.002256E+02  2.285245E+03  8.486663E+02
       134   9  9.428552E+04  5.187149E+03  6.506406E+03 -1.628750E+03  1.013952E+03  7.023592E+02
       134  10  4.463432E+04 -5.363365E+03 -2.032863E+03 -1.380813E+03 -2.575397E-11 -1.323294E-10
       134  11  4.782655E+04 -6.365480E+03 -3.478751E+03 -5.521635E+02  1.493219E-10 -1.181130E-10
       134  12  5.167748E+04 -5.363084E+03 -3.639951E+03 -2.123383E+03 -7.349360E-10  2.284272E-10
       134  13  7.298115E+04  1.655726E+03  4.717967E+03 -1.876175E+03  5.865275E-11  5.559124E-11
       134  14  7.264894E+04 -2.212952E+02  2.421479E+03 -6.761929E+02 -9.547856E-11 -3.043931E-11
       134  15  7.298129E+04 -8.795167E+01  1.433242E+03 -1.876071E+03 -9.999685E-10  1.110714E-10
       134  16  1.013287E+05  8.674760E+03  1.146874E+04 -2.371560E+03 -4.174624E-10  6.710515E-11
       134  17  9.747190E+04  5.922845E+03  8.321667E+03 -8.002272E+02 -4.838312E-10 -2.007534E-11
       134  18  9.428552E+04  5.187149E+03  6.506403E+03 -1.628751E+03  1.991842E-11  6.988547E-11
       134  19  4.463433E+04 -5.363360E+03 -2.032836E+03 -1.380810E+03 -3.615948E+03 -9.335008E+02
       134  20  4.782655E+04 -6.365478E+03 -3.478739E+03 -5.521619E+02 -2.412641E+03 -8.486783E+02
       134  21  5.167748E+04 -5.363084E+03 -3.639948E+03 -2.123383E+03 -1.209325E+03 -7.023686E+02
       134  22  7.298116E+04  1.655730E+03  4.717993E+03 -1.876172E+03 -3.586246E+03 -9.334932E+02
       134  23  7.264895E+04 -2.212929E+02  2.421491E+03 -6.761913E+02 -2.348944E+03 -8.486723E+02
       134  24  7.298129E+04 -8.795080E+01  1.433245E+03 -1.876071E+03 -1.111640E+03 -7.023639E+02
       134  25  1.013287E+05  8.674764E+03  1.146877E+04 -2.371558E+03 -3.556543E+03 -9.334856E+02
       134  26  9.747191E+04  5.922847E+03  8.321678E+03 -8.002256E+02 -2.285245E+03 -8.486663E+02
       134  27  9.428552E+04  5.187149E+03  6.506406E+03 -1.628750E+03 -1.013952E+03 -7.023592E+02
       135   1  5.584200E+04 -4.050547E+03 -2.916373E+03 -1.844329E+03  9.656270E+02  6.066758E+02
       135   2  5.931310E+04 -3.364392E+03 -2.592978E+03 -6.752131E+02  6.600946E+02  4.611811E+02
       135   3  6.287361E+04 -2.480856E+03 -2.021281E+03 -1.903845E+03  3.545613E+02  3.116278E+02
       135   4  7.285361E+04  1.584485E+02  1.118212E+03 -1.875634E+03  8.864483E+02  6.066723E+02
       135   5  7.280871E+04 -2.388156E+01  6.149471E+02 -6.767587E+02  5.786680E+02  4.611785E+02
       135   6  7.285365E+04 -8.429926E+00  3.615527E+02 -1.875629E+03  2.708886E+02  3.116262E+02
       135   7  8.986549E+04  4.367424E+03  5.152777E+03 -1.906939E+03  8.072675E+02  6.066687E+02
       135   8  8.630449E+04  3.316616E+03  3.822859E+03 -6.783044E+02  4.972397E+02  4.611759E+02
       135   9  8.283378E+04  2.463989E+03  2.744379E+03 -1.847412E+03  1.872145E+02  3.116246E+02
       135  10  5.584200E+04 -4.050548E+03 -2.916375E+03 -1.844330E+03 -6.441999E-11  1.256487E-10
       135  11  5.931310E+04 -3.364393E+03 -2.592979E+03 -6.752133E+02 -4.599747E-10 -3.437299E-10
       135  12  6.287361E+04 -2.480857E+03 -2.021281E+03 -1.903845E+03 -4.362689E-10  1.387975E-10
       135  13  7.285361E+04  1.584479E+02  1.118210E+03 -1.875634E+03 -5.465065E-10  4.404086E-11
       135  14  7.280871E+04 -2.388188E+01  6.149461E+02 -6.767589E+02  6.598287E-15 -2.695013E-10
       135  15  7.285365E+04 -8.430050E+00  3.615523E+02 -1.875629E+03 -8.590087E-10  5.628144E-11
       135  16  8.986549E+04  4.367423E+03  5.152775E+03 -1.906939E+03 -2.635687E-10 -2.644158E-11
       135  17  8.630449E+04  3.316616E+03  3.822858E+03 -6.783046E+02  2.308616E-11 -2.808274E-10
       135  18  8.283378E+04  2.463989E+03  2.744379E+03 -1.847413E+03  3.376413E-10  4.464758E-11
       135  19  5.584200E+04 -4.050547E+03 -2.916373E+03 -1.844329E+03 -9.656270E+02 -6.066758E+02
       135  20  5.931310E+04 -3.364392E+03 -2.592978E+03 -6.752131E+02 -6.600946E+02 -4.611811E+02
       135  21  6.287361E+04 -2.480856E+03 -2.021281E+03 -1.903845E+03 -3.545613E+02 -3.116278E+02
       135  22  7.285361E+04  1.584485E+02  1.118212E+03 -1.875634E+03 -8.864483E+02 -6.066723E+02
       135  23  7.280871E+04 -2.388156E+01  6.149471E+02 -6.767587E+02 -5.786680E+02 -4.611785E+02
       135  24  7.285365E+04 -8.429926E+00  3.615527E+02 -1.875629E+03 -2.708886E+02 -3.116262E+02
       135  25  8.986549E+04  4.367424E+03  5.152777E+03 -1.906939E+03 -8.072675E+02 -6.066687E+02
       135  26  8.630449E+04  3.316616E+03  3.822859E+03 -6.783044E+02 -4.972397E+02 -4.611759E+02
       135  27  8.283378E+04  2.463989E+03  2.744379E+03 -1.847412E+03 -1.872145E+02 -3.116246E+02
       136   1  6.714466E+04 -1.392724E+03 -1.061883E+03 -1.876433E+03  2.956721E+02  2.239053E+02
       136   2  7.065026E+04 -5.423538E+02 -3.494316E+02 -6.792130E+02  2.121727E+02  7.445927E+01
       136   3  7.417186E+04  3.278572E+02  4.223672E+02 -1.878596E+03  1.286710E+02 -7.523157E+01
       136   4  7.283725E+04  1.421934E+01  2.806885E+02 -1.875377E+03  2.132407E+02  2.239041E+02
       136   5  7.282928E+04 -2.995490E+00  1.685203E+02 -6.770755E+02  1.296046E+02  7.445821E+01
       136   6  7.283725E+04 -3.588450E-01  1.157806E+02 -1.875376E+03  4.596663E+01 -7.523246E+01
       136   7  7.852986E+04  1.421161E+03  1.623258E+03 -1.874320E+03  1.308086E+02  2.239029E+02
       136   8  7.500829E+04  5.363625E+02  6.864719E+02 -6.749380E+02  4.703626E+01  7.445714E+01
       136   9  7.150265E+04 -3.285750E+02 -1.908062E+02 -1.872157E+03 -3.673751E+01 -7.523334E+01
       136  10  6.714466E+04 -1.392725E+03 -1.061884E+03 -1.876433E+03  6.623984E-10  2.941477E-10
       136  11  7.065026E+04 -5.423538E+02 -3.494317E+02 -6.792130E+02 -2.132213E-10  7.483405E-12
       136  12  7.417186E+04  3.278572E+02  4.223672E+02 -1.878596E+03 -1.909429E-10 -3.795593E-11
       136  13  7.283725E+04  1.421927E+01  2.806883E+02 -1.875377E+03 -2.613646E-10  2.614308E-10
       136  14  7.282928E+04 -2.995501E+00  1.685203E+02 -6.770755E+02  2.571485E-10  4.948238E-11
       136  15  7.283725E+04 -3.588517E-01  1.157805E+02 -1.875376E+03 -7.793035E-10 -3.130408E-11
       136  16  7.852986E+04  1.421161E+03  1.623258E+03 -1.874320E+03 -3.834642E-10  2.086112E-10
       136  17  7.500829E+04  5.363625E+02  6.864719E+02 -6.749380E+02 -2.400780E-11  1.014543E-10
       136  18  7.150265E+04 -3.285750E+02 -1.908062E+02 -1.872157E+03 -1.014211E-10 -7.060809E-11
       136  19  6.714466E+04 -1.392724E+03 -1.061883E+03 -1.876433E+03 -2.956721E+02 -2.239053E+02
       136  20  7.065026E+04 -5.423538E+02 -3.494316E+02 -6.792130E+02 -2.121727E+02 -7.445927E+01
       136  21  7.417186E+04  3.278572E+02  4.223672E+02 -1.878596E+03 -1.286710E+02  7.523157E+01
       136  22  7.283725E+04  1.421934E+01  2.806885E+02 -1.875377E+03 -2.132407E+02 -2.239041E+02
       136  23  7.282928E+04 -2.995490E+00  1.685203E+02 -6.770755E+02 -1.296046E+02 -7.445821E+01
       136  24  7.283725E+04 -3.588450E-01  1.157806E+02 -1.875376E+03 -4.596663E+01  7.523246E+01
       136  25  7.852986E+04  1.421161E+03  1.623258E+03 -1.874320E+03 -1.308086E+02 -2.239029E+02
       136  26  7.500829E+04  5.363625E+02  6.864719E+02 -6.749380E+02 -4.703626E+01 -7.445714E+01
       136  27  7.150265E+04 -3.285750E+02 -1.908062E+02 -1.872157E+03  3.673751E+01  7.523334E+01
       137   1  7.845706E+04  1.394243E+03  1.450286E+03 -1.875132E+03  1.088848E+02 -1.624518E+02
       137   2  8.196704E+04  2.259737E+03  2.273040E+03 -6.766407E+02  5.843613E+01 -3.121668E+02
       137   3  8.548623E+04  3.134912E+03  3.131094E+03 -1.875380E+03  7.989907E+00 -4.616203E+02
       137   4  7.283574E+04  7.075783E-01  1.034563E+02 -1.875517E+03  2.616227E+01 -1.624529E+02
       137   5  7.283115E+04 -1.601313E+00  1.014496E+02 -6.769002E+02 -2.414166E+01 -3.121686E+02
       137   6  7.283572E+04  5.745313E+00  1.346435E+02 -1.875517E+03 -7.444288E+01 -4.616228E+02
       137   7  6.721445E+04 -1.392830E+03 -1.243376E+03 -1.875901E+03 -5.655949E+01 -1.624539E+02
       137   8  6.369533E+04 -2.262946E+03 -2.070147E+03 -6.771598E+02 -1.067182E+02 -3.121704E+02
       137   9  6.018537E+04 -3.123433E+03 -2.861818E+03 -1.875653E+03 -1.568740E+02 -4.616252E+02
       137  10  7.845706E+04  1.394243E+03  1.450286E+03 -1.875132E+03 -3.800777E-10  4.782764E-11
       137  11  8.196704E+04  2.259737E+03  2.273040E+03 -6.766407E+02 -1.407070E-10  1.767065E-10
       137  12  8.548623E+04  3.134912E+03  3.131093E+03 -1.875380E+03 -1.023162E-09  1.251934E-10
       137  13  7.283574E+04  7.075498E-01  1.034563E+02 -1.875517E+03  5.562143E-11 -6.593465E-12
       137  14  7.283115E+04 -1.601418E+00  1.014494E+02 -6.769003E+02  3.218773E-10  7.699921E-11
       137  15  7.283572E+04  5.745083E+00  1.346431E+02 -1.875517E+03 -9.265984E-10  1.445343E-12
       137  16  6.721445E+04 -1.392830E+03 -1.243376E+03 -1.875901E+03 -1.599630E-10 -9.895024E-11
       137  17  6.369533E+04 -2.262946E+03 -2.070147E+03 -6.771598E+02  6.912696E-12 -7.300273E-11
       137  18  6.018537E+04 -3.123433E+03 -2.861818E+03 -1.875653E+03  2.388611E-10 -1.645542E-10
       137  19  7.845706E+04  1.394243E+03  1.450286E+03 -1.875132E+03 -1.088848E+02  1.624518E+02
       137  20  8.196704E+04  2.259737E+03  2.273040E+03 -6.766407E+02 -5.843613E+01  3.121668E+02
       137  21  8.548623E+04  3.134912E+03  3.131094E+03 -1.875380E+03 -7.989907E+00  4.616203E+02
       137  22  7.283574E+04  7.075783E-01  1.034563E+02 -1.875517E+03 -2.616227E+01  1.624529E+02
       137  23  7.283115E+04 -1.601313E+00  1.014496E+02 -6.769002E+02  2.414166E+01  3.121686E+02
       137  24  7.283572E+04  5.745313E+00  1.346435E+02 -1.875517E+03  7.444288E+01  4.616228E+02
       137  25  6.721445E+04 -1.392830E+03 -1.243376E+03 -1.875901E+03  5.655949E+01  1.624539E+02
       137  26  6.369533E+04 -2.262946E+03 -2.070147E+03 -6.771598E+02  1.067182E+02  3.121704E+02
       137  27  6.018537E+04 -3.123433E+03 -2.861818E+03 -1.875653E+03  1.568740E+02  4.616252E+02
       138   1  8.978256E+04  4.191636E+03  4.201113E+03 -1.864467E+03 -1.737052E+01 -5.494817E+02
       138   2  9.328174E+04  5.053880E+03  5.126157E+03 -6.764557E+02 -1.516542E+02 -6.990892E+02
       138   3  9.681965E+04  5.998695E+03  6.159381E+03 -1.888498E+03 -2.859308E+02 -8.439787E+02
       138   4  7.284217E+04 -3.581366E+00  1.638721E+02 -1.876144E+03 -1.012620E+02 -5.494849E+02
       138   5  7.282299E+04 -1.008432E+01  2.631801E+02 -6.761157E+02 -2.329368E+02 -6.990939E+02
       138   6  7.284213E+04  6.554817E+01  4.688732E+02 -1.876147E+03 -3.646037E+02 -8.439848E+02
       138   7  5.590204E+04 -4.198820E+03 -3.873389E+03 -1.887820E+03 -1.851513E+02 -5.494881E+02
       138   8  5.236462E+04 -5.074078E+03 -4.599826E+03 -6.757758E+02 -3.142166E+02 -6.990986E+02
       138   9  4.886513E+04 -5.867640E+03 -5.221674E+03 -1.863796E+03 -4.432736E+02 -8.439908E+02
       138  10  8.978256E+04  4.191636E+03  4.201112E+03 -1.864467E+03 -4.965899E-10 -4.733501E-11
       138  11  9.328174E+04  5.053879E+03  5.126156E+03 -6.764557E+02 -3.672371E-10 -3.453953E-10
       138  12  9.681965E+04  5.998695E+03  6.159379E+03 -1.888498E+03 -1.228163E-10  1.688685E-10
       138  13  7.284217E+04 -3.581693E+00  1.638715E+02 -1.876144E+03 -2.530498E-10 -7.695348E-11
       138  14  7.282299E+04 -1.008486E+01  2.631791E+02 -6.761159E+02  1.093810E-10 -1.163442E-10
       138  15  7.284213E+04  6.554737E+01  4.688716E+02 -1.876147E+03  1.034781E-09  1.310985E-10
       138  16  5.590204E+04 -4.198820E+03 -3.873389E+03 -1.887820E+03  7.742837E-11 -1.485780E-10
       138  17  5.236462E+04 -5.074079E+03 -4.599827E+03 -6.757760E+02 -4.231619E-10  8.134109E-11
       138  18  4.886513E+04 -5.867641E+03 -5.221676E+03 -1.863796E+03 -1.453246E-10  1.688844E-10
       138  19  8.978256E+04  4.191636E+03  4.201113E+03 -1.864467E+03  1.737052E+01  5.494817E+02
       138  20  9.328174E+04  5.053880E+03  5.126157E+03 -6.764557E+02  1.516542E+02  6.990892E+02
       138  21  9.681965E+04  5.998695E+03  6.159381E+03 -1.888498E+03  2.859308E+02  8.439787E+02
       138  22  7.284217E+04 -3.581366E+00  1.638721E+02 -1.876144E+03  1.012620E+02  5.494849E+02
       138  23  7.282299E+04 -1.008432E+01  2.631801E+02 -6.761157E+02  2.329368E+02  6.990939E+02
       138  24  7.284213E+04  6.554817E+01  4.688732E+02 -1.876147E+03  3.646037E+02  8.439848E+02
       138  25  5.590204E+04 -4.198820E+03 -3.873389E+03 -1.887820E+03  1.851513E+02  5.494881E+02
       138  26  5.236462E+04 -5.074078E+03 -4.599826E+03 -6.757758E+02  3.142166E+02  6.990986E+02
       138  27  4.886513E+04 -5.867640E+03 -5.221674E+03 -1.863796E+03  4.432736E+02  8.439908E+02
       139   1  1.011698E+05  6.963581E+03  7.328400E+03 -1.773041E+03 -3.585542E+02 -9.411689E+02
       139   2  1.045544E+05  7.778384E+03  8.565547E+03 -7.256311E+02 -9.129721E+02 -1.087007E+03
       139   3  1.082230E+05  9.434791E+03  1.037430E+04 -2.080534E+03 -1.467399E+03 -1.161062E+03
       139   4  7.289514E+04 -3.677001E+01  5.986433E+02 -1.876629E+03 -4.588479E+02 -9.411775E+02
       139   5  7.275654E+04 -9.215012E+01  1.007504E+03 -6.755005E+02 -9.736134E+02 -1.087016E+03
       139   6  7.289505E+04  6.872031E+02  1.960449E+03 -1.876690E+03 -1.488384E+03 -1.161069E+03
       139   7  4.462117E+04 -7.037178E+03 -6.131169E+03 -1.980211E+03 -5.591371E+02 -9.411860E+02
       139   8  4.095962E+04 -7.962757E+03 -6.550609E+03 -6.253726E+02 -1.034252E+03 -1.087024E+03
       139   9  3.756826E+04 -8.060475E+03 -6.453493E+03 -1.672858E+03 -1.509368E+03 -1.161076E+03
       139  10  1.011698E+05  6.963580E+03  7.328398E+03 -1.773041E+03  4.401606E-10  6.687972E-11
       139  11  1.045544E+05  7.778382E+03  8.565543E+03 -7.256319E+02 -5.035592E-10 -3.951716E-10
       139  12  1.082230E+05  9.434789E+03  1.037430E+04 -2.080535E+03 -4.936288E-10  2.204156E-10
       139  13  7.289514E+04 -3.677102E+01  5.986413E+02 -1.876629E+03  3.009840E-10  5.593052E-11
       139  14  7.275654E+04 -9.215164E+01  1.007500E+03 -6.755014E+02  1.346419E-10 -2.083114E-10
       139  15  7.289505E+04  6.872011E+02  1.960442E+03 -1.876692E+03 -2.149965E-10  2.034291E-10
       139  16  4.462117E+04 -7.037179E+03 -6.131171E+03 -1.980212E+03 -7.127960E-10  7.408912E-11
       139  17  4.095962E+04 -7.962758E+03 -6.550613E+03 -6.253735E+02 -7.676243E-10  1.576577E-10
       139  18  3.756826E+04 -8.060477E+03 -6.453500E+03 -1.672859E+03  1.063641E-09  2.004672E-10
       139  19  1.011698E+05  6.963581E+03  7.328400E+03 -1.773041E+03  3.585542E+02  9.411689E+02
       139  20  1.045544E+05  7.778384E+03  8.565547E+03 -7.256311E+02  9.129721E+02  1.087007E+03
       139  21  1.082230E+05  9.434791E+03  1.037430E+04 -2.080534E+03  1.467399E+03  1.161062E+03
       139  22  7.289514E+04 -3.677001E+01  5.986433E+02 -1.876629E+03  4.588479E+02  9.411775E+02
       139  23  7.275654E+04 -9.215012E+01  1.007504E+03 -6.755005E+02  9.736134E+02  1.087016E+03
       139  24  7.289505E+04  6.872031E+02  1.960449E+03 -1.876690E+03  1.488384E+03  1.161069E+03
       139  25  4.462117E+04 -7.037178E+03 -6.131169E+03 -1.980211E+03  5.591371E+02  9.411860E+02
       139  26  4.095962E+04 -7.962757E+03 -6.550609E+03 -6.253726E+02  1.034252E+03  1.087024E+03
       139  27  3.756826E+04 -8.060475E+03 -6.453493E+03 -1.672858E+03  1.509368E+03  1.161076E+03
       140   1  1.130070E+05  9.436335E+03  1.181729E+04 -8.996455E+02 -1.514697E+03 -1.395876E+03
       140   2  1.153108E+05  9.782658E+03  1.413268E+04 -1.380701E+03 -4.198957E+03 -1.481249E+03
       140   3  1.201021E+05  1.867178E+04  2.033163E+04 -4.242877E+03 -6.883393E+03 -4.912563E+02
       140   4  7.336336E+04 -3.734796E+02  2.408957E+03 -1.871630E+03 -1.858428E+03 -1.395915E+03
       140   5  7.217088E+04 -8.945297E+02  3.881041E+03 -6.815963E+02 -3.948878E+03 -1.481229E+03
       140   6  7.336304E+04  7.024447E+03  8.824529E+03 -1.872681E+03 -6.039485E+03 -4.911571E+02
       140   7  3.372112E+04 -1.018340E+04 -6.999481E+03 -2.843551E+03 -2.202137E+03 -1.395953E+03
       140   8  2.903266E+04 -1.157185E+04 -6.370731E+03  1.745923E+01 -3.698816E+03 -1.481208E+03
       140   9  2.662595E+04 -4.623025E+03 -2.682732E+03  4.973363E+02 -5.195641E+03 -4.910516E+02
       140  10  1.130070E+05  9.436333E+03  1.181728E+04 -8.996472E+02  5.574951E-10  2.037352E-10
       140  11  1.153108E+05  9.782651E+03  1.413265E+04 -1.380706E+03 -3.735163E-10 -6.665998E-10
       140  12  1.201021E+05  1.867176E+04  2.033154E+04 -4.242879E+03 -3.559827E-10 -2.836239E-10
       140  13  7.336336E+04 -3.734826E+02  2.408947E+03 -1.871632E+03  2.486503E-10 -2.477362E-10
       140  14  7.217086E+04 -8.945363E+02  3.881007E+03 -6.816010E+02  2.122521E-10  4.441884E-11
       140  15  7.336300E+04  7.024437E+03  8.824460E+03 -1.872683E+03 -7.213282E-10 -1.859031E-10
       140  16  3.372112E+04 -1.018341E+04 -6.999493E+03 -2.843554E+03  8.011094E-11  1.030958E-11
       140  17  2.903265E+04 -1.157186E+04 -6.370761E+03  1.745482E+01  3.378847E-10 -4.713599E-11
       140  18  2.662592E+04 -4.623033E+03 -2.682783E+03  4.973343E+02  4.606675E-10 -2.716470E-10
       140  19  1.130070E+05  9.436335E+03  1.181729E+04 -8.996455E+02  1.514697E+03  1.395876E+03
       140  20  1.153108E+05  9.782658E+03  1.413268E+04 -1.380701E+03  4.198957E+03  1.481249E+03
       140  21  1.201021E+05  1.867178E+04  2.033163E+04 -4.242877E+03  6.883393E+03  4.912563E+02
       140  22  7.336336E+04 -3.734796E+02  2.408957E+03 -1.871630E+03  1.858428E+03  1.395915E+03
       140  23  7.217088E+04 -8.945297E+02  3.881041E+03 -6.815963E+02  3.948878E+03  1.481229E+03
       140  24  7.336304E+04  7.024447E+03  8.824529E+03 -1.872681E+03  6.039485E+03  4.911571E+02
       140  25  3.372112E+04 -1.018340E+04 -6.999481E+03 -2.843551E+03  2.202137E+03  1.395953E+03
       140  26  2.903266E+04 -1.157185E+04 -6.370731E+03  1.745923E+01  3.698816E+03  1.481208E+03
       140  27  2.662595E+04 -4.623025E+03 -2.682732E+03  4.973363E+02  5.195641E+03  4.910516E+02
       141   1  6.631259E+05  2.672744E+06  6.612987E+05 -3.355245E+05  2.467659E+04  5.332320E+04
       141   2  4.854903E+05  2.050053E+06  4.817362E+05 -1.235431E+05  6.780550E+04  1.057388E+04
       141   3  3.394431E+05  1.443119E+06  3.381977E+05 -3.278996E+05  4.609593E+04 -3.224475E+04
       141   4  1.751583E+04  7.896455E+04  2.281252E+04 -3.272238E+05  2.472870E+04  1.149314E+04
       141   5 -2.882196E+03  7.460782E+04  1.287926E+04 -1.190237E+05  6.783164E+04  4.689888E+03
       141   6  2.157516E+03  7.947852E+04  1.412844E+04 -3.272401E+05  4.600546E+04 -2.224868E+03
       141   7 -6.285933E+05 -2.508709E+06 -6.161635E+05 -3.189546E+05  2.477984E+04 -3.016306E+04
       141   8 -4.915352E+05 -1.897262E+06 -4.562496E+05 -1.145167E+05  6.785775E+04 -1.175541E+03
       141   9 -3.352614E+05 -1.282455E+06 -3.100673E+05 -3.265802E+05  4.591494E+04  2.772952E+04
       141  10  6.631245E+05  2.672741E+06  6.612922E+05 -3.355256E+05  2.204338E-10  7.149122E-11
       141  11  4.854854E+05  2.050052E+06  4.817274E+05 -1.235437E+05  1.827311E-11 -2.387153E-10
       141  12  3.394405E+05  1.443117E+06  3.381918E+05 -3.278984E+05  7.397828E-10 -1.730685E-09
       141  13  1.751514E+04  7.896424E+04  2.281112E+04 -3.272240E+05  5.669008E-10 -3.261019E-12
       141  14 -2.887143E+03  7.460656E+04  1.287057E+04 -1.190240E+05 -1.770282E-09 -9.657090E-10
       141  15  2.155242E+03  7.947795E+04  1.412445E+04 -3.272400E+05  1.185090E-10 -4.756803E-09
       141  16 -6.285942E+05 -2.508710E+06 -6.161663E+05 -3.189540E+05  6.219931E-10 -6.999469E-11
       141  17 -4.915401E+05 -1.897263E+06 -4.562583E+05 -1.145166E+05  2.310541E-09  9.210686E-11
       141  18 -3.352639E+05 -1.282457E+06 -3.100728E+05 -3.265812E+05 -9.750351E-10 -2.195242E-11
       141  19  6.631259E+05  2.672744E+06  6.612987E+05 -3.355245E+05 -2.467659E+04 -5.332320E+04
       141  20  4.854903E+05  2.050053E+06  4.817362E+05 -1.235431E+05 -6.780550E+04 -1.057388E+04
       141  21  3.394431E+05  1.443119E+06  3.381977E+05 -3.278996E+05 -4.609593E+04  3.224475E+04
       141  22  1.751583E+04  7.896455E+04  2.281252E+04 -3.272238E+05 -2.472870E+04 -1.149314E+04
       141  23 -2.882196E+03  7.460782E+04  1.287926E+04 -1.190237E+05 -6.783164E+04 -4.689888E+03
       141  24  2.157516E+03  7.947852E+04  1.412844E+04 -3.272401E+05 -4.600546E+04  2.224868E+03
       141  25 -6.285933E+05 -2.508709E+06 -6.161635E+05 -3.189546E+05 -2.477984E+04  3.016306E+04
       141  26 -4.915352E+05 -1.897262E+06 -4.562496E+05 -1.145167E+05 -6.785775E+04  1.175541E+03
       141  27 -3.352614E+05 -1.282455E+06 -3.100673E+05 -3.265802E+05 -4.591494E+04 -2.772952E+04
       142   1  1.549129E+05  6.928982E+05  1.612007E+05 -3.313569E+05  2.132438E+04 -1.664527E+04
       142   2 -7.497653E+02  7.813514E+04  2.093513E+04 -1.178202E+05  1.314825E+02 -2.724949E+04
       142   3 -1.372503E+05 -5.332477E+05 -1.083727E+05 -3.221129E+05 -2.105637E+04 -3.784359E+04
       142   4  2.886745E+03  7.850033E+04  1.530996E+04 -3.275565E+05  2.128399E+04 -4.918775E+03
       142   5 -1.027308E+03  7.698660E+04  2.066256E+04 -1.186249E+05  9.177372E+01 -1.553076E+04
       142   6  1.424554E+04  7.850035E+04  3.699527E+04 -3.275185E+05 -2.109641E+04 -2.614286E+04
       142   7 -1.491665E+05 -5.355509E+05 -1.306066E+05 -3.237595E+05  2.124373E+04  6.796185E+03
       142   8 -1.304775E+03  7.583836E+04  2.039050E+04 -1.194296E+05  5.203455E+01 -3.812044E+03
       142   9  1.657146E+05  6.905925E+05  1.823376E+05 -3.329291E+05 -2.113663E+04 -1.443063E+04
       142  10  1.549124E+05  6.928978E+05  1.611993E+05 -3.313566E+05 -5.982007E-10  1.715335E-09
       142  11 -7.499646E+02  7.813435E+04  2.093373E+04 -1.178202E+05  1.577316E-09  2.568634E-10
       142  12 -1.372512E+05 -5.332494E+05 -1.083762E+05 -3.221135E+05 -1.295842E-10 -2.121941E-09
       142  13  2.886252E+03  7.850018E+04  1.530906E+04 -3.275564E+05 -6.251209E-10 -1.316855E-11
       142  14 -1.027373E+03  7.698634E+04  2.066210E+04 -1.186249E+05  2.561989E-09 -1.714566E-09
       142  15  1.424488E+04  7.849949E+04  3.699314E+04 -3.275189E+05  2.771933E-09 -5.321648E-09
       142  16 -1.491670E+05 -5.355511E+05 -1.306075E+05 -3.237596E+05 -1.431657E-09 -1.638540E-09
       142  17 -1.304779E+03  7.583834E+04  2.039047E+04 -1.194296E+05 -1.311202E-09 -1.124536E-09
       142  18  1.657140E+05  6.905921E+05  1.823364E+05 -3.329293E+05 -1.078646E-09  5.038307E-10
       142  19  1.549129E+05  6.928982E+05  1.612007E+05 -3.313569E+05 -2.132438E+04  1.664527E+04
       142  20 -7.497653E+02  7.813514E+04  2.093513E+04 -1.178202E+05 -1.314825E+02  2.724949E+04
       142  21 -1.372503E+05 -5.332477E+05 -1.083727E+05 -3.221129E+05  2.105637E+04  3.784359E+04
       142  22  2.886745E+03  7.850033E+04  1.530996E+04 -3.275565E+05 -2.128399E+04  4.918775E+03
       142  23 -1.027308E+03  7.698660E+04  2.066256E+04 -1.186249E+05 -9.177372E+01  1.553076E+04
       142  24  1.424554E+04  7.850035E+04  3.699527E+04 -3.275185E+05  2.109641E+04  2.614286E+04
       142  25 -1.491665E+05 -5.355509E+05 -1.306066E+05 -3.237595E+05 -2.124373E+04 -6.796185E+03
       142  26 -1.304775E+03  7.583836E+04  2.039050E+04 -1.194296E+05 -5.203455E+01  3.812044E+03
       142  27  1.657146E+05  6.905925E+05  1.823376E+05 -3.329291E+05  2.113663E+04  1.443063E+04
       143   1 -3.414534E+05 -1.271980E+06 -2.785473E+05 -3.416170E+05 -4.570829E+04 -6.313577E+04
       143   2 -5.048891E+05 -1.905163E+06 -3.979042E+05 -1.035068E+05 -6.763381E+04 -6.543770E+04
       143   3 -5.177726E+05 -2.498000E+06 -4.777587E+05 -2.818887E+05 -2.465206E+04 -6.762371E+04
       143   4 -4.721391E+03  8.766527E+04  4.507604E+04 -3.272858E+05 -4.580039E+04 -3.323988E+04
       143   5 -1.675087E+04  6.437862E+04  7.067838E+04 -1.190105E+05 -6.760623E+04 -7.139158E+04
       143   6  1.277594E+05  8.715096E+04  1.605766E+05 -3.271178E+05 -2.459561E+04 -1.094310E+05
       143   7  3.318786E+05  1.449011E+06  3.685735E+05 -3.129213E+05 -4.589099E+04 -3.278673E+03
       143   8  4.711083E+05  2.037488E+06  5.389897E+05 -1.345618E+05 -6.757840E+04 -7.736401E+04
       143   9  7.728005E+05  2.678402E+06  7.984242E+05 -3.725328E+05 -2.453322E+04 -1.514119E+05
       143  10 -3.414567E+05 -1.271984E+06 -2.785587E+05 -3.416193E+05  5.079578E-10  7.514152E-10
       143  11 -5.048952E+05 -1.905169E+06 -3.979208E+05 -1.035103E+05  3.367056E-10  1.148121E-10
       143  12 -5.177744E+05 -2.498006E+06 -4.777685E+05 -2.818901E+05 -1.936182E-10 -8.772558E-10
       143  13 -4.723942E+03  8.766352E+04  4.507002E+04 -3.272870E+05 -2.003297E-09  1.183788E-11
       143  14 -1.675715E+04  6.437192E+04  7.066021E+04 -1.190144E+05  9.976072E-10 -1.016634E-09
       143  15  1.277555E+05  8.713793E+04  1.605530E+05 -3.271199E+05 -2.221418E-10 -9.665996E-10
       143  16  3.318764E+05  1.449011E+06  3.685695E+05 -3.129214E+05  4.051203E-10 -7.342775E-10
       143  17  4.711018E+05  2.037480E+06  5.389699E+05 -1.345660E+05  3.844276E-10 -8.436593E-10
       143  18  7.727937E+05  2.678377E+06  7.983801E+05 -3.725358E+05 -2.361784E-10  5.139724E-10
       143  19 -3.414534E+05 -1.271980E+06 -2.785473E+05 -3.416170E+05  4.570829E+04  6.313577E+04
       143  20 -5.048891E+05 -1.905163E+06 -3.979042E+05 -1.035068E+05  6.763381E+04  6.543770E+04
       143  21 -5.177726E+05 -2.498000E+06 -4.777587E+05 -2.818887E+05  2.465206E+04  6.762371E+04
       143  22 -4.721391E+03  8.766527E+04  4.507604E+04 -3.272858E+05  4.580039E+04  3.323988E+04
       143  23 -1.675087E+04  6.437862E+04  7.067838E+04 -1.190105E+05  6.760623E+04  7.139158E+04
       143  24  1.277594E+05  8.715096E+04  1.605766E+05 -3.271178E+05  2.459561E+04  1.094310E+05
       143  25  3.318786E+05  1.449011E+06  3.685735E+05 -3.129213E+05  4.589099E+04  3.278673E+03
       143  26  4.711083E+05  2.037488E+06  5.389897E+05 -1.345618E+05  6.757840E+04  7.736401E+04
       143  27  7.728005E+05  2.678402E+06  7.984242E+05 -3.725328E+05  2.453322E+04  1.514119E+05
       144   1 -1.370816E+05 -6.004738E+04 -3.040796E+04 -5.871288E+04 -1.482588E+04 -4.449239E+03
       144   2 -1.295434E+05 -4.647821E+04 -1.821709E+04 -5.549817E+04 -9.107390E+03  2.760454E+02
       144   3 -1.238746E+05 -3.929527E+04 -1.235982E+04 -5.229044E+04 -2.756251E+03  3.315425E+03
       144   4 -6.899252E+04 -2.790527E+04 -1.185885E+04 -3.320295E+04 -8.129257E+03 -1.937413E+03
       144   5 -6.779527E+04 -2.064669E+04 -5.677268E+03 -3.485946E+04 -6.046951E+03  1.423938E+03
       144   6 -6.774692E+04 -1.905389E+04 -2.948289E+03 -3.652315E+04 -3.332104E+03  3.099385E+03
       144   7 -9.002448E+02  4.237289E+03  6.689585E+03 -7.690765E+03 -1.431989E+03  5.748378E+02
       144   8 -6.043535E+03  5.185339E+03  6.862277E+03 -1.421887E+04 -2.986210E+03  2.571987E+03
       144   9 -1.161536E+04  1.187987E+03  6.463289E+03 -2.075440E+04 -3.908017E+03  2.883322E+03
       144  10 -1.370818E+05 -6.004746E+04 -3.040841E+04 -5.871293E+04  2.903012E-10 -2.885913E-11
       144  11 -1.295435E+05 -4.647823E+04 -1.821724E+04 -5.549817E+04 -5.789021E-10 -2.835501E-10
       144  12 -1.238746E+05 -3.929528E+04 -1.235985E+04 -5.229043E+04  9.337504E-11 -2.845029E-10
       144  13 -6.899259E+04 -2.790529E+04 -1.185898E+04 -3.320296E+04 -4.626136E-10 -3.018783E-11
       144  14 -6.779531E+04 -2.064670E+04 -5.677341E+03 -3.485946E+04 -4.017873E-10 -1.265549E-10
       144  15 -6.774693E+04 -1.905390E+04 -2.948328E+03 -3.652314E+04  7.321887E-10 -3.366407E-10
       144  16 -9.002471E+02  4.237288E+03  6.689581E+03 -7.690764E+03  1.263184E-10  1.840100E-11
       144  17 -6.043547E+03  5.185330E+03  6.862248E+03 -1.421887E+04  7.561887E-10 -1.097113E-11
       144  18 -1.161538E+04  1.187974E+03  6.463245E+03 -2.075439E+04  3.817888E-10 -2.912828E-11
       144  19 -1.370816E+05 -6.004738E+04 -3.040796E+04 -5.871288E+04  1.482588E+04  4.449239E+03
       144  20 -1.295434E+05 -4.647821E+04 -1.821709E+04 -5.549817E+04  9.107390E+03 -2.760454E+02
       144  21 -1.238746E+05 -3.929527E+04 -1.235982E+04 -5.229044E+04  2.756251E+03 -3.315425E+03
       144  22 -6.899252E+04 -2.790527E+04 -1.185885E+04 -3.320295E+04  8.129257E+03  1.937413E+03
       144  23 -6.779527E+04 -2.064669E+04 -5.677268E+03 -3.485946E+04  6.046951E+03 -1.423938E+03
       144  24 -6.774692E+04 -1.905389E+04 -2.948289E+03 -3.652315E+04  3.332104E+03 -3.099385E+03
       144  25 -9.002448E+02  4.237289E+03  6.689585E+03 -7.690765E+03  1.431989E+03 -5.748378E+02
       144  26 -6.043535E+03  5.185339E+03  6.862277E+03 -1.421887E+04  2.986210E+03 -2.571987E+03
       144  27 -1.161536E+04  1.187987E+03  6.463289E+03 -2.075440E+04  3.908017E+03 -2.883322E+03
       145   1 -1.179843E+05 -3.736994E+04 -1.047833E+04 -5.108722E+04 -2.368663E+03  3.215351E+03
       145   2 -1.101802E+05 -3.309080E+04 -7.687225E+03 -4.814421E+04 -1.247975E+03  3.234555E+03
       145   3 -1.016046E+05 -3.035136E+04 -5.754776E+03 -4.635255E+04 -5.499484E+01  3.060996E+03
       145   4 -6.740185E+04 -1.883190E+04 -2.185773E+03 -3.650968E+04 -2.919380E+03  3.008747E+03
       145   5 -6.778185E+04 -1.776962E+04 -1.134313E+03 -3.605911E+04 -2.214427E+03  2.872032E+03
       145   6 -6.730797E+04 -1.816468E+04 -6.120984E+02 -3.675994E+04 -1.437188E+03  2.542556E+03
       145   7 -1.681725E+04 -2.938235E+02  6.106549E+03 -2.193120E+04 -3.470138E+03  2.802127E+03
       145   8 -2.538155E+04 -2.448232E+03  5.418576E+03 -2.397323E+04 -3.180949E+03  2.509482E+03
       145   9 -3.300967E+04 -5.977716E+03  4.530693E+03 -2.716671E+04 -2.819479E+03  2.024080E+03
       145  10 -1.179844E+05 -3.736995E+04 -1.047836E+04 -5.108722E+04 -5.075783E-11 -2.952945E-10
       145  11 -1.101802E+05 -3.309081E+04 -7.687247E+03 -4.814421E+04 -3.860723E-10 -3.546605E-10
       145  12 -1.016046E+05 -3.035137E+04 -5.754794E+03 -4.635255E+04 -1.257986E-09 -4.683436E-10
       145  13 -6.740186E+04 -1.883192E+04 -2.185806E+03 -3.650968E+04  2.951765E-10 -3.021354E-10
       145  14 -6.778185E+04 -1.776963E+04 -1.134338E+03 -3.605911E+04  1.341642E-10 -4.585493E-10
       145  15 -6.730798E+04 -1.816469E+04 -6.121145E+02 -3.675994E+04  3.316033E-10 -1.564451E-11
       145  16 -1.681727E+04 -2.938352E+02  6.106512E+03 -2.193119E+04  6.327942E-11 -4.240745E-10
       145  17 -2.538156E+04 -2.448241E+03  5.418545E+03 -2.397322E+04  4.050061E-10 -1.555320E-10
       145  18 -3.300968E+04 -5.977722E+03  4.530670E+03 -2.716670E+04  6.855760E-10  3.603305E-10
       145  19 -1.179843E+05 -3.736994E+04 -1.047833E+04 -5.108722E+04  2.368663E+03 -3.215351E+03
       145  20 -1.101802E+05 -3.309080E+04 -7.687225E+03 -4.814421E+04  1.247975E+03 -3.234555E+03
       145  21 -1.016046E+05 -3.035136E+04 -5.754776E+03 -4.635255E+04  5.499484E+01 -3.060996E+03
       145  22 -6.740185E+04 -1.883190E+04 -2.185773E+03 -3.650968E+04  2.919380E+03 -3.008747E+03
       145  23 -6.778185E+04 -1.776962E+04 -1.134313E+03 -3.605911E+04  2.214427E+03 -2.872032E+03
       145  24 -6.730797E+04 -1.816468E+04 -6.120984E+02 -3.675994E+04  1.437188E+03 -2.542556E+03
       145  25 -1.681725E+04 -2.938235E+02  6.106549E+03 -2.193120E+04  3.470138E+03 -2.802127E+03
       145  26 -2.538155E+04 -2.448232E+03  5.418576E+03 -2.397323E+04  3.180949E+03 -2.509482E+03
       145  27 -3.300967E+04 -5.977716E+03  4.530693E+03 -2.716671E+04  2.819479E+03 -2.024080E+03
       146   1 -9.634534E+04 -2.850451E+04 -4.772150E+03 -4.492088E+04  1.664213E+02  2.710832E+03
       146   2 -8.857413E+04 -2.496658E+04 -3.310699E+03 -4.197508E+04  5.815539E+02  2.124543E+03
       146   3 -7.975838E+04 -2.254928E+04 -1.986492E+03 -4.026520E+04  1.004924E+03  1.516236E+03
       146   4 -6.727237E+04 -1.815214E+04 -4.571356E+02 -3.675448E+04 -1.212945E+03  2.193460E+03
       146   5 -6.779653E+04 -1.757737E+04 -2.472263E+02 -3.614367E+04 -8.452910E+02  1.589376E+03
       146   6 -6.726684E+04 -1.811382E+04 -1.369463E+02 -3.676879E+04 -4.694031E+02  9.632762E+02
       146   7 -3.819849E+04 -7.799695E+03  3.857874E+03 -2.858771E+04 -2.592380E+03  1.676063E+03
       146   8 -4.701861E+04 -1.018817E+04  2.816212E+03 -3.031211E+04 -2.272177E+03  1.054194E+03
       146   9 -5.477528E+04 -1.367840E+04  1.712562E+03 -3.327236E+04 -1.943743E+03  4.103114E+02
       146  10 -9.634534E+04 -2.850451E+04 -4.772164E+03 -4.492088E+04  2.490991E-10  1.505494E-10
       146  11 -8.857413E+04 -2.496658E+04 -3.310708E+03 -4.197508E+04 -4.770580E-10 -1.889644E-10
       146  12 -7.975838E+04 -2.254929E+04 -1.986498E+03 -4.026520E+04 -9.545809E-10 -1.484294E-10
       146  13 -6.727237E+04 -1.815215E+04 -4.571474E+02 -3.675448E+04 -2.253261E-11 -9.199516E-11
       146  14 -6.779654E+04 -1.757738E+04 -2.472324E+02 -3.614367E+04 -4.290819E-10 -5.241871E-11
       146  15 -6.726684E+04 -1.811382E+04 -1.369485E+02 -3.676879E+04  3.667447E-10 -1.834410E-10
       146  16 -3.819850E+04 -7.799700E+03  3.857856E+03 -2.858771E+04 -7.226615E-10 -1.728724E-10
       146  17 -4.701862E+04 -1.018818E+04  2.816200E+03 -3.031211E+04 -5.966112E-10 -5.623689E-10
       146  18 -5.477528E+04 -1.367840E+04  1.712554E+03 -3.327235E+04  6.854537E-10  8.540269E-11
       146  19 -9.634534E+04 -2.850451E+04 -4.772150E+03 -4.492088E+04 -1.664213E+02 -2.710832E+03
       146  20 -8.857413E+04 -2.496658E+04 -3.310699E+03 -4.197508E+04 -5.815539E+02 -2.124543E+03
       146  21 -7.975838E+04 -2.254928E+04 -1.986492E+03 -4.026520E+04 -1.004924E+03 -1.516236E+03
       146  22 -6.727237E+04 -1.815214E+04 -4.571356E+02 -3.675448E+04  1.212945E+03 -2.193460E+03
       146  23 -6.779653E+04 -1.757737E+04 -2.472263E+02 -3.614367E+04  8.452910E+02 -1.589376E+03
       146  24 -6.726684E+04 -1.811382E+04 -1.369463E+02 -3.676879E+04  4.694031E+02 -9.632762E+02
       146  25 -3.819849E+04 -7.799695E+03  3.857874E+03 -2.858771E+04  2.592380E+03 -1.676063E+03
       146  26 -4.701861E+04 -1.018817E+04  2.816212E+03 -3.031211E+04  2.272177E+03 -1.054194E+03
       146  27 -5.477528E+04 -1.367840E+04  1.712562E+03 -3.327236E+04  1.943743E+03 -4.103114E+02
       147   1 -7.456429E+04 -2.070181E+04 -1.158631E+03 -3.881239E+04  1.173731E+03  1.124895E+03
       147   2 -6.680654E+04 -1.721393E+04  8.096278E+01 -3.586145E+04  1.465077E+03  4.534839E+02
       147   3 -5.797224E+04 -1.481078E+04  1.294221E+03 -3.415053E+04  1.757220E+03 -2.200625E+02
       147   4 -6.726260E+04 -1.811412E+04 -1.037388E+02 -3.676735E+04 -3.002728E+02  5.720595E+02
       147   5 -6.780121E+04 -1.757246E+04 -6.025629E+01 -3.614717E+04 -1.355110E+01 -1.010905E+02
       147   6 -6.726263E+04 -1.811471E+04 -3.952249E+01 -3.676711E+04  2.739657E+02 -7.763741E+02
       147   7 -5.996075E+04 -1.552639E+04  9.511890E+02 -3.472227E+04 -1.774313E+03  1.921001E+01
       147   8 -6.879588E+04 -1.793099E+04 -2.014679E+02 -3.643290E+04 -1.492187E+03 -6.556677E+02
       147   9 -7.655292E+04 -2.141864E+04 -1.373258E+03 -3.938364E+04 -1.209266E+03 -1.332677E+03
       147  10 -7.456429E+04 -2.070181E+04 -1.158636E+03 -3.881239E+04  2.878395E-10  1.613110E-10
       147  11 -6.680654E+04 -1.721393E+04  8.095836E+01 -3.586145E+04 -4.487533E-10 -7.157530E-11
       147  12 -5.797224E+04 -1.481078E+04  1.294215E+03 -3.415053E+04 -9.841506E-10 -4.516172E-12
       147  13 -6.726260E+04 -1.811412E+04 -1.037396E+02 -3.676735E+04 -5.370490E-10  8.554719E-13
       147  14 -6.780121E+04 -1.757246E+04 -6.025631E+01 -3.614717E+04 -8.977010E-10 -2.777356E-10
       147  15 -6.726263E+04 -1.811471E+04 -3.952376E+01 -3.676711E+04  2.571968E-10  3.703871E-11
       147  16 -5.996075E+04 -1.552639E+04  9.511831E+02 -3.472227E+04 -5.816938E-10 -1.649215E-10
       147  17 -6.879588E+04 -1.793099E+04 -2.014729E+02 -3.643290E+04 -7.728421E-11 -2.150565E-10
       147  18 -7.655292E+04 -2.141864E+04 -1.373265E+03 -3.938365E+04  2.214874E-10 -7.948335E-11
       147  19 -7.456429E+04 -2.070181E+04 -1.158631E+03 -3.881239E+04 -1.173731E+03 -1.124895E+03
       147  20 -6.680654E+04 -1.721393E+04  8.096278E+01 -3.586145E+04 -1.465077E+03 -4.534839E+02
       147  21 -5.797224E+04 -1.481078E+04  1.294221E+03 -3.415053E+04 -1.757220E+03  2.200625E+02
       147  22 -6.726260E+04 -1.811412E+04 -1.037388E+02 -3.676735E+04  3.002728E+02 -5.720595E+02
       147  23 -6.780121E+04 -1.757246E+04 -6.025629E+01 -3.614717E+04  1.355110E+01  1.010905E+02
       147  24 -6.726263E+04 -1.811471E+04 -3.952249E+01 -3.676711E+04 -2.739657E+02  7.763741E+02
       147  25 -5.996075E+04 -1.552639E+04  9.511890E+02 -3.472227E+04  1.774313E+03 -1.921001E+01
       147  26 -6.879588E+04 -1.793099E+04 -2.014679E+02 -3.643290E+04  1.492187E+03  6.556677E+02
       147  27 -7.655292E+04 -2.141864E+04 -1.373258E+03 -3.938364E+04  1.209266E+03  1.332677E+03
       148   1 -5.278642E+04 -1.296158E+04  2.090124E+03 -3.269594E+04  1.913614E+03 -6.181308E+02
       148   2 -4.503153E+04 -9.474573E+03  3.283729E+03 -2.974425E+04  2.181532E+03 -1.300245E+03
       148   3 -3.619624E+04 -7.068935E+03  4.469577E+03 -2.803226E+04  2.448306E+03 -1.979309E+03
       148   4 -6.726240E+04 -1.811496E+04 -3.492318E+01 -3.676686E+04  4.303472E+02 -1.174449E+03
       148   5 -6.780199E+04 -1.757412E+04 -3.440933E+01 -3.614683E+04  7.048319E+02 -1.854111E+03
       148   6 -6.726251E+04 -1.811592E+04 -4.683961E+01 -3.676650E+04  9.781753E+02 -2.530726E+03
       148   7 -8.173795E+04 -2.326825E+04 -2.159912E+03 -4.083765E+04 -1.052865E+03 -1.730748E+03
       148   8 -9.057188E+04 -2.567361E+04 -3.352543E+03 -4.254920E+04 -7.718108E+02 -2.407955E+03
       148   9 -9.832813E+04 -2.916295E+04 -4.563364E+03 -4.550043E+04 -4.918960E+02 -3.082121E+03
       148  10 -5.278643E+04 -1.296158E+04  2.090116E+03 -3.269594E+04 -1.994059E-10  1.141564E-10
       148  11 -4.503154E+04 -9.474576E+03  3.283717E+03 -2.974425E+04  3.124015E-10 -4.262429E-11
       148  12 -3.619624E+04 -7.068940E+03  4.469558E+03 -2.803225E+04 -1.197276E-10  7.618756E-12
       148  13 -6.726240E+04 -1.811496E+04 -3.492612E+01 -3.676686E+04 -2.855807E-10  3.646469E-12
       148  14 -6.780199E+04 -1.757413E+04 -3.441672E+01 -3.614683E+04  7.648402E-11 -8.731146E-11
       148  15 -6.726252E+04 -1.811593E+04 -4.685344E+01 -3.676649E+04  3.172137E-10  6.407171E-11
       148  16 -8.173795E+04 -2.326825E+04 -2.159920E+03 -4.083765E+04  1.811613E-10 -1.756467E-10
       148  17 -9.057189E+04 -2.567362E+04 -3.352555E+03 -4.254920E+04  4.186078E-10  1.080639E-10
       148  18 -9.832813E+04 -2.916296E+04 -4.563382E+03 -4.550043E+04  8.477556E-10  1.022257E-10
       148  19 -5.278642E+04 -1.296158E+04  2.090124E+03 -3.269594E+04 -1.913614E+03  6.181308E+02
       148  20 -4.503153E+04 -9.474573E+03  3.283729E+03 -2.974425E+04 -2.181532E+03  1.300245E+03
       148  21 -3.619624E+04 -7.068935E+03  4.469577E+03 -2.803226E+04 -2.448306E+03  1.979309E+03
       148  22 -6.726240E+04 -1.811496E+04 -3.492318E+01 -3.676686E+04 -4.303472E+02  1.174449E+03
       148  23 -6.780199E+04 -1.757412E+04 -3.440933E+01 -3.614683E+04 -7.048319E+02  1.854111E+03
       148  24 -6.726251E+04 -1.811592E+04 -4.683961E+01 -3.676650E+04 -9.781753E+02  2.530726E+03
       148  25 -8.173795E+04 -2.326825E+04 -2.159912E+03 -4.083765E+04  1.052865E+03  1.730748E+03
       148  26 -9.057188E+04 -2.567361E+04 -3.352543E+03 -4.254920E+04  7.718108E+02  2.407955E+03
       148  27 -9.832813E+04 -2.916295E+04 -4.563364E+03 -4.550043E+04  4.918960E+02  3.082121E+03
       149   1 -3.101053E+04 -5.218697E+03  5.253754E+03 -2.657869E+04  2.606525E+03 -2.373702E+03
       149   2 -2.325950E+04 -1.728160E+03  6.434026E+03 -2.362592E+04  2.844305E+03 -3.045559E+03
       149   3 -1.442694E+04  6.823729E+02  7.623478E+03 -2.190971E+04  3.071217E+03 -3.688426E+03
       149   4 -6.726455E+04 -1.811579E+04 -5.851873E+01 -3.676673E+04  1.136003E+03 -2.925279E+03
       149   5 -6.780046E+04 -1.757756E+04 -1.000657E+02 -3.614555E+04  1.436314E+03 -3.573704E+03
       149   6 -6.726727E+04 -1.813174E+04 -1.819667E+02 -3.676096E+04  1.725757E+03 -4.193137E+03
       149   7 -1.035171E+05 -3.101273E+04 -5.370790E+03 -4.695421E+04 -3.344292E+02 -3.476821E+03
       149   8 -1.123390E+05 -3.342664E+04 -6.634084E+03 -4.866424E+04  2.843836E+01 -4.101806E+03
       149   9 -1.201039E+05 -3.694530E+04 -7.987240E+03 -5.161082E+04  3.804344E+02 -4.697796E+03
       149  10 -3.101054E+04 -5.218705E+03  5.253731E+03 -2.657869E+04  1.017570E-10  2.197998E-10
       149  11 -2.325951E+04 -1.728172E+03  6.433994E+03 -2.362591E+04  7.388513E-10  7.286783E-11
       149  12 -1.442696E+04  6.823557E+02  7.623435E+03 -2.190970E+04  1.641540E-10  8.449394E-11
       149  13 -6.726455E+04 -1.811580E+04 -5.853723E+01 -3.676673E+04  2.444551E-10  7.464862E-11
       149  14 -6.780047E+04 -1.757758E+04 -1.000936E+02 -3.614554E+04 -8.385326E-10  1.949917E-11
       149  15 -6.726728E+04 -1.813176E+04 -1.820053E+02 -3.676095E+04 -7.840988E-10 -1.646420E-10
       149  16 -1.035171E+05 -3.101274E+04 -5.370812E+03 -4.695421E+04  1.513063E-10 -1.271961E-10
       149  17 -1.123390E+05 -3.342665E+04 -6.634116E+03 -4.866424E+04 -8.328993E-10 -1.820279E-10
       149  18 -1.201039E+05 -3.694532E+04 -7.987282E+03 -5.161082E+04 -1.063205E-10 -2.535122E-10
       149  19 -3.101053E+04 -5.218697E+03  5.253754E+03 -2.657869E+04 -2.606525E+03  2.373702E+03
       149  20 -2.325950E+04 -1.728160E+03  6.434026E+03 -2.362592E+04 -2.844305E+03  3.045559E+03
       149  21 -1.442694E+04  6.823729E+02  7.623478E+03 -2.190971E+04 -3.071217E+03  3.688426E+03
       149  22 -6.726455E+04 -1.811579E+04 -5.851873E+01 -3.676673E+04 -1.136003E+03  2.925279E+03
       149  23 -6.780046E+04 -1.757756E+04 -1.000657E+02 -3.614555E+04 -1.436314E+03  3.573704E+03
       149  24 -6.726727E+04 -1.813174E+04 -1.819667E+02 -3.676096E+04 -1.725757E+03  4.193137E+03
       149  25 -1.035171E+05 -3.101273E+04 -5.370790E+03 -4.695421E+04  3.344292E+02  3.476821E+03
       149  26 -1.123390E+05 -3.342664E+04 -6.634084E+03 -4.866424E+04 -2.843836E+01  4.101806E+03
       149  27 -1.201039E+05 -3.694530E+04 -7.987240E+03 -5.161082E+04 -3.804344E+02  4.697796E+03
       150   1 -9.231317E+03  2.533189E+03  8.402126E+03 -2.046407E+04  3.247366E+03 -4.047825E+03
       150   2 -1.552356E+03  6.056158E+03  9.676274E+03 -1.744530E+04  3.113848E+03 -4.666634E+03
       150   3  7.215891E+03  8.468746E+03  1.117474E+04 -1.561816E+04  2.885186E+03 -5.031801E+03
       150   4 -6.728309E+04 -1.813455E+04 -2.426973E+02 -3.676037E+04  1.898210E+03 -4.553938E+03
       150   5 -6.779230E+04 -1.765720E+04 -4.485098E+02 -3.611507E+04  2.311849E+03 -4.967540E+03
       150   6 -6.732082E+04 -1.839872E+04 -8.635183E+02 -3.666152E+04  2.630353E+03 -5.127474E+03
       150   7 -1.253320E+05 -3.880221E+04 -8.887761E+03 -5.305544E+04  5.491706E+02 -5.060009E+03
       150   8 -1.340279E+05 -4.137025E+04 -1.057348E+04 -5.478307E+04  1.509935E+03 -5.268413E+03
       150   9 -1.418516E+05 -4.526562E+04 -1.290190E+04 -5.770252E+04  2.375553E+03 -5.223136E+03
       150  10 -9.231333E+03  2.533169E+03  8.402075E+03 -2.046406E+04 -1.781677E-10  4.780401E-11
       150  11 -1.552372E+03  6.056132E+03  9.676215E+03 -1.744529E+04 -2.927716E-10  7.548471E-12
       150  12  7.215875E+03  8.468717E+03  1.117468E+04 -1.561815E+04 -1.062416E-09  2.203980E-10
       150  13 -6.728310E+04 -1.813457E+04 -2.427431E+02 -3.676036E+04 -5.401122E-10 -2.557493E-10
       150  14 -6.779231E+04 -1.765722E+04 -4.485662E+02 -3.611506E+04 -1.294782E-09 -2.920117E-11
       150  15 -6.732084E+04 -1.839875E+04 -8.635807E+02 -3.666151E+04 -1.020063E-09 -3.293880E-12
       150  16 -1.253320E+05 -3.880223E+04 -8.887809E+03 -5.305543E+04 -2.235344E-10 -2.305785E-10
       150  17 -1.340280E+05 -4.137028E+04 -1.057353E+04 -5.478307E+04 -3.049164E-10 -1.497964E-10
       150  18 -1.418516E+05 -4.526565E+04 -1.290196E+04 -5.770251E+04  6.127103E-10 -3.685077E-11
       150  19 -9.231317E+03  2.533189E+03  8.402126E+03 -2.046407E+04 -3.247366E+03  4.047825E+03
       150  20 -1.552356E+03  6.056158E+03  9.676274E+03 -1.744530E+04 -3.113848E+03  4.666634E+03
       150  21  7.215891E+03  8.468746E+03  1.117474E+04 -1.561816E+04 -2.885186E+03  5.031801E+03
       150  22 -6.728309E+04 -1.813455E+04 -2.426973E+02 -3.676037E+04 -1.898210E+03  4.553938E+03
       150  23 -6.779230E+04 -1.765720E+04 -4.485098E+02 -3.611507E+04 -2.311849E+03  4.967540E+03
       150  24 -6.732082E+04 -1.839872E+04 -8.635183E+02 -3.666152E+04 -2.630353E+03  5.127474E+03
       150  25 -1.253320E+05 -3.880221E+04 -8.887761E+03 -5.305544E+04 -5.491706E+02  5.060009E+03
       150  26 -1.340279E+05 -4.137025E+04 -1.057348E+04 -5.478307E+04 -1.509935E+03  5.268413E+03
       150  27 -1.418516E+05 -4.526562E+04 -1.290190E+04 -5.770252E+04 -2.375553E+03  5.223136E+03
       151   1  1.249854E+04  1.027903E+04  1.209662E+04 -1.424126E+04  3.108058E+03 -5.126582E+03
       151   2  1.919066E+04  1.413882E+04  1.475980E+04 -1.012883E+04 -8.860213E+02 -5.511808E+03
       151   3  2.693773E+04  1.614844E+04  1.985045E+04 -6.661322E+03 -5.712516E+03 -3.678747E+03
       151   4 -6.747555E+04 -1.846809E+04 -1.164525E+03 -3.664577E+04  2.820165E+03 -5.234667E+03
       151   5 -6.777575E+04 -1.881682E+04 -2.242234E+03 -3.566791E+04  3.611806E+03 -3.824550E+03
       151   6 -6.796897E+04 -2.196372E+04 -4.683637E+03 -3.533516E+04  3.571124E+03 -1.959737E+02
       151   7 -1.474426E+05 -4.721450E+04 -1.442577E+04 -5.904751E+04  2.532312E+03 -5.342736E+03
       151   8 -1.547326E+05 -5.177095E+04 -1.924407E+04 -6.120314E+04  8.108878E+03 -2.137600E+03
       151   9 -1.628634E+05 -6.007353E+04 -2.921720E+04 -6.400387E+04  1.285290E+04  3.286001E+03
       151  10  1.249852E+04  1.027900E+04  1.209655E+04 -1.424125E+04 -5.227804E-10  4.483164E-10
       151  11  1.919065E+04  1.413878E+04  1.475974E+04 -1.012883E+04  3.153700E-10  3.781874E-10
       151  12  2.693769E+04  1.614841E+04  1.985036E+04 -6.661339E+03 -2.998082E-10  1.600195E-10
       151  13 -6.747557E+04 -1.846812E+04 -1.164591E+03 -3.664575E+04 -1.599900E-10  1.802123E-10
       151  14 -6.777576E+04 -1.881684E+04 -2.242286E+03 -3.566790E+04 -2.640330E-11  3.441941E-10
       151  15 -6.796898E+04 -2.196372E+04 -4.683661E+03 -3.533516E+04  9.925157E-11  4.529933E-11
       151  16 -1.474426E+05 -4.721453E+04 -1.442583E+04 -5.904750E+04 -3.057845E-11 -1.604348E-10
       151  17 -1.547327E+05 -5.177097E+04 -1.924420E+04 -6.120312E+04  1.001880E-10 -7.327057E-11
       151  18 -1.628636E+05 -6.007358E+04 -2.921753E+04 -6.400390E+04 -9.763967E-11 -9.441752E-11
       151  19  1.249854E+04  1.027903E+04  1.209662E+04 -1.424126E+04 -3.108058E+03  5.126582E+03
       151  20  1.919066E+04  1.413882E+04  1.475980E+04 -1.012883E+04  8.860213E+02  5.511808E+03
       151  21  2.693773E+04  1.614844E+04  1.985045E+04 -6.661322E+03  5.712516E+03  3.678747E+03
       151  22 -6.747555E+04 -1.846809E+04 -1.164525E+03 -3.664577E+04 -2.820165E+03  5.234667E+03
       151  23 -6.777575E+04 -1.881682E+04 -2.242234E+03 -3.566791E+04 -3.611806E+03  3.824550E+03
       151  24 -6.796897E+04 -2.196372E+04 -4.683637E+03 -3.533516E+04 -3.571124E+03  1.959737E+02
       151  25 -1.474426E+05 -4.721450E+04 -1.442577E+04 -5.904751E+04 -2.532312E+03  5.342736E+03
       151  26 -1.547326E+05 -5.177095E+04 -1.924407E+04 -6.120314E+04 -8.108878E+03  2.137600E+03
       151  27 -1.628634E+05 -6.007353E+04 -2.921720E+04 -6.400387E+04 -1.285290E+04 -3.286001E+03
       152   1 -3.095198E+04 -4.229965E+03 -9.888042E+03 -4.954926E+03 -1.705538E+04 -7.263814E+02
       152   2 -3.167100E+04  1.858110E+04  3.479929E+03 -1.311464E+03 -1.158292E+04 -2.203623E+03
       152   3 -3.945595E+04  1.596789E+04  6.929955E+03  5.176149E+03 -6.110891E+03 -2.117344E+03
       152   4 -9.940288E+04 -2.128893E+04 -2.674140E+04  2.233553E+03 -1.830138E+04 -7.268043E+02
       152   5 -9.579404E+04  2.708588E+03 -1.176070E+04  8.092896E+02 -1.196654E+04 -2.203759E+03
       152   6 -9.940177E+04  1.130580E+03 -7.297663E+03  2.229270E+03 -5.632091E+03 -2.117210E+03
       152   7 -1.678494E+05 -3.834804E+04 -4.359508E+04  9.421239E+03 -1.954724E+04 -7.272561E+02
       152   8 -1.599133E+05 -1.316420E+04 -2.700162E+04  2.929822E+03 -1.235012E+04 -2.203897E+03
       152   9 -1.593443E+05 -1.370696E+04 -2.152553E+04 -7.173223E+02 -5.153337E+03 -2.117081E+03
       152  10 -3.095230E+04 -4.230044E+03 -9.888590E+03 -4.954936E+03 -1.524842E-11  6.493142E-11
       152  11 -3.167114E+04  1.858105E+04  3.479667E+03 -1.311484E+03 -5.784164E-10 -1.341416E-10
       152  12 -3.945600E+04  1.596788E+04  6.929877E+03  5.176138E+03 -9.932443E-11 -2.325447E-10
       152  13 -9.940324E+04 -2.128902E+04 -2.674203E+04  2.233543E+03  5.769946E-11  2.832874E-10
       152  14 -9.579420E+04  2.708545E+03 -1.176098E+04  8.092684E+02  2.692252E-10  7.525475E-11
       152  15 -9.940180E+04  1.130566E+03 -7.297731E+03  2.229261E+03  1.289311E-10  7.972253E-11
       152  16 -1.678498E+05 -3.834815E+04 -4.359580E+04  9.421228E+03  5.295006E-11  1.857571E-10
       152  17 -1.599135E+05 -1.316424E+04 -2.700192E+04  2.929801E+03 -1.144484E-10 -3.887923E-10
       152  18 -1.593443E+05 -1.370697E+04 -2.152558E+04 -7.173311E+02  1.154999E-10 -7.011707E-10
       152  19 -3.095198E+04 -4.229965E+03 -9.888042E+03 -4.954926E+03  1.705538E+04  7.263814E+02
       152  20 -3.167100E+04  1.858110E+04  3.479929E+03 -1.311464E+03  1.158292E+04  2.203623E+03
       152  21 -3.945595E+04  1.596789E+04  6.929955E+03  5.176149E+03  6.110891E+03  2.117344E+03
       152  22 -9.940288E+04 -2.128893E+04 -2.674140E+04  2.233553E+03  1.830138E+04  7.268043E+02
       152  23 -9.579404E+04  2.708588E+03 -1.176070E+04  8.092896E+02  1.196654E+04  2.203759E+03
       152  24 -9.940177E+04  1.130580E+03 -7.297663E+03  2.229270E+03  5.632091E+03  2.117210E+03
       152  25 -1.678494E+05 -3.834804E+04 -4.359508E+04  9.421239E+03  1.954724E+04  7.272561E+02
       152  26 -1.599133E+05 -1.316420E+04 -2.700162E+04  2.929822E+03  1.235012E+04  2.203897E+03
       152  27 -1.593443E+05 -1.370696E+04 -2.152553E+04 -7.173223E+02  5.153337E+03  2.117081E+03
       153   1 -4.322940E+04  1.147619E+04  7.105799E+03  1.629067E+03 -4.521449E+03 -1.797771E+03
       153   2 -4.707234E+04  1.277848E+04  8.955223E+03  6.468045E+02 -3.021510E+03 -1.727172E+03
       153   3 -5.173998E+04  1.156223E+04  9.198500E+03  2.564484E+03 -1.521603E+03 -1.551687E+03
       153   4 -9.798367E+04 -2.083886E+03 -5.938117E+03  2.243432E+03 -4.511378E+03 -1.797784E+03
       153   5 -9.756616E+04  2.782327E+02 -3.048828E+03  7.931509E+02 -2.953669E+03 -1.727163E+03
       153   6 -9.798342E+04  1.116740E+02 -1.805895E+03  2.242823E+03 -1.395981E+03 -1.551653E+03
       153   7 -1.527352E+05 -1.564418E+04 -1.898224E+04  2.857742E+03 -4.501308E+03 -1.797796E+03
       153   8 -1.480576E+05 -1.222220E+04 -1.505306E+04  9.394851E+02 -2.885834E+03 -1.727153E+03
       153   9 -1.442249E+05 -1.133904E+04 -1.281044E+04  1.921186E+03 -1.270368E+03 -1.551620E+03
       153  10 -4.322943E+04  1.147618E+04  7.105754E+03  1.629061E+03 -8.664337E-11 -5.823199E-10
       153  11 -4.707235E+04  1.277848E+04  8.955200E+03  6.468003E+02 -3.609637E-10  1.981215E-12
       153  12 -5.173999E+04  1.156223E+04  9.198491E+03  2.564482E+03  1.264114E-10  5.731439E-10
       153  13 -9.798370E+04 -2.083895E+03 -5.938161E+03  2.243425E+03  6.717468E-10 -5.181248E-10
       153  14 -9.756617E+04  2.782272E+02 -3.048850E+03  7.931468E+02 -2.681292E-10 -1.771807E-10
       153  15 -9.798343E+04  1.116709E+02 -1.805904E+03  2.242822E+03  7.458956E-10 -1.526418E-10
       153  16 -1.527352E+05 -1.564419E+04 -1.898229E+04  2.857735E+03  6.049303E-10 -2.066143E-10
       153  17 -1.480577E+05 -1.222221E+04 -1.505308E+04  9.394811E+02 -6.607438E-10 -5.091188E-11
       153  18 -1.442249E+05 -1.133904E+04 -1.281045E+04  1.921185E+03  2.973567E-10  3.105281E-11
       153  19 -4.322940E+04  1.147619E+04  7.105799E+03  1.629067E+03  4.521449E+03  1.797771E+03
       153  20 -4.707234E+04  1.277848E+04  8.955223E+03  6.468045E+02  3.021510E+03  1.727172E+03
       153  21 -5.173998E+04  1.156223E+04  9.198500E+03  2.564484E+03  1.521603E+03  1.551687E+03
       153  22 -9.798367E+04 -2.083886E+03 -5.938117E+03  2.243432E+03  4.511378E+03  1.797784E+03
       153  23 -9.756616E+04  2.782327E+02 -3.048828E+03  7.931509E+02  2.953669E+03  1.727163E+03
       153  24 -9.798342E+04  1.116740E+02 -1.805895E+03  2.242823E+03  1.395981E+03  1.551653E+03
       153  25 -1.527352E+05 -1.564418E+04 -1.898224E+04  2.857742E+03  4.501308E+03  1.797796E+03
       153  26 -1.480576E+05 -1.222220E+04 -1.505306E+04  9.394851E+02  2.885834E+03  1.727153E+03
       153  27 -1.442249E+05 -1.133904E+04 -1.281044E+04  1.921186E+03  1.270368E+03  1.551620E+03
       154   1 -5.678228E+04  9.959586E+03  8.336361E+03  2.216136E+03 -1.206541E+03 -1.431549E+03
       154   2 -6.099577E+04  9.133369E+03  7.962120E+03  7.968333E+02 -8.204023E+02 -1.256972E+03
       154   3 -6.532242E+04  8.060755E+03  7.274590E+03  2.290141E+03 -4.342816E+02 -1.075179E+03
       154   4 -9.782312E+04 -1.985946E+02 -1.410394E+03  2.245879E+03 -1.112196E+03 -1.431524E+03
       154   5 -9.776614E+04  3.030314E+01 -7.796514E+02  7.895317E+02 -7.220977E+02 -1.256942E+03
       154   6 -9.782302E+04  1.210847E+01 -4.649617E+02  2.245806E+03 -3.320152E+02 -1.075145E+03
       154   7 -1.388624E+05 -1.035690E+04 -1.115727E+04  2.275619E+03 -1.017856E+03 -1.431498E+03
       154   8 -1.345353E+05 -9.072860E+03 -9.521517E+03  7.822303E+02 -6.237989E+02 -1.256912E+03
       154   9 -1.303227E+05 -8.036615E+03 -8.204587E+03  2.201474E+03 -2.297541E+02 -1.075110E+03
       154  10 -5.678228E+04  9.959584E+03  8.336355E+03  2.216135E+03 -8.634958E-10  8.881988E-10
       154  11 -6.099577E+04  9.133367E+03  7.962116E+03  7.968325E+02 -2.679095E-10  5.575468E-10
       154  12 -6.532242E+04  8.060754E+03  7.274587E+03  2.290141E+03  1.068628E-09  3.350950E-11
       154  13 -9.782312E+04 -1.985972E+02 -1.410401E+03  2.245877E+03  5.239271E-10 -1.696725E-10
       154  14 -9.776614E+04  3.030131E+01 -7.796554E+02  7.895309E+02  4.046595E-10  6.184798E-10
       154  15 -9.782302E+04  1.210719E+01 -4.649641E+02  2.245806E+03  1.924254E-10  8.647502E-10
       154  16 -1.388624E+05 -1.035690E+04 -1.115727E+04  2.275618E+03  5.828689E-10  4.094454E-10
       154  17 -1.345353E+05 -9.072862E+03 -9.521521E+03  7.822297E+02  3.863032E-10  8.683380E-10
       154  18 -1.303227E+05 -8.036616E+03 -8.204590E+03  2.201473E+03 -2.101500E-10  3.948669E-10
       154  19 -5.678228E+04  9.959586E+03  8.336361E+03  2.216136E+03  1.206541E+03  1.431549E+03
       154  20 -6.099577E+04  9.133369E+03  7.962120E+03  7.968333E+02  8.204023E+02  1.256972E+03
       154  21 -6.532242E+04  8.060755E+03  7.274590E+03  2.290141E+03  4.342816E+02  1.075179E+03
       154  22 -9.782312E+04 -1.985946E+02 -1.410394E+03  2.245879E+03  1.112196E+03  1.431524E+03
       154  23 -9.776614E+04  3.030314E+01 -7.796514E+02  7.895317E+02  7.220977E+02  1.256942E+03
       154  24 -9.782302E+04  1.210847E+01 -4.649617E+02  2.245806E+03  3.320152E+02  1.075145E+03
       154  25 -1.388624E+05 -1.035690E+04 -1.115727E+04  2.275619E+03  1.017856E+03  1.431498E+03
       154  26 -1.345353E+05 -9.072860E+03 -9.521517E+03  7.822303E+02  6.237989E+02  1.256912E+03
       154  27 -1.303227E+05 -8.036615E+03 -8.204587E+03  2.201474E+03  2.297541E+02  1.075110E+03
       155   1 -7.052006E+04  6.735323E+03  6.106943E+03  2.256160E+03 -3.576591E+02 -9.681222E+02
       155   2 -7.478921E+04  5.699038E+03  5.233190E+03  7.964338E+02 -2.412993E+02 -7.861991E+02
       155   3 -7.908179E+04  4.638898E+03  4.277211E+03  2.256558E+03 -1.249505E+02 -6.036856E+02
       155   4 -9.780287E+04 -1.644017E+01 -3.665226E+02  2.247442E+03 -2.574256E+02 -9.680865E+02
       155   5 -9.779107E+04  4.523896E+00 -2.353149E+02  7.875097E+02 -1.407454E+02 -7.861612E+02
       155   6 -9.780282E+04  1.562137E+00 -1.865754E+02  2.247435E+03 -2.407549E+01 -6.036454E+02
       155   7 -1.250850E+05 -6.768257E+03 -6.840040E+03  2.238724E+03 -1.571964E+02 -9.680508E+02
       155   8 -1.207924E+05 -5.690028E+03 -5.703857E+03  7.785858E+02 -4.019526E+01 -7.861233E+02
       155   9 -1.165235E+05 -4.635799E+03 -4.650386E+03  2.238311E+03  7.679646E+01 -6.036053E+02
       155  10 -7.052006E+04  6.735322E+03  6.106941E+03  2.256159E+03  8.758304E-10 -1.652469E-10
       155  11 -7.478921E+04  5.699037E+03  5.233189E+03  7.964337E+02 -5.953296E-10  8.148491E-10
       155  12 -7.908179E+04  4.638897E+03  4.277210E+03  2.256558E+03  3.339639E-10  1.214730E-09
       155  13 -9.780287E+04 -1.644119E+01 -3.665245E+02  2.247442E+03  2.036823E-10 -7.422613E-11
       155  14 -9.779107E+04  4.523227E+00 -2.353161E+02  7.875096E+02  1.984711E-10  6.054071E-10
       155  15 -9.780282E+04  1.561746E+00 -1.865761E+02  2.247435E+03  2.052875E-10  2.743257E-10
       155  16 -1.250850E+05 -6.768258E+03 -6.840041E+03  2.238724E+03 -6.058357E-10  4.484467E-11
       155  17 -1.207924E+05 -5.690029E+03 -5.703858E+03  7.785858E+02 -3.934425E-10 -2.698003E-10
       155  18 -1.165235E+05 -4.635799E+03 -4.650387E+03  2.238311E+03 -3.479425E-10 -3.295376E-10
       155  19 -7.052006E+04  6.735323E+03  6.106943E+03  2.256160E+03  3.576591E+02  9.681222E+02
       155  20 -7.478921E+04  5.699038E+03  5.233190E+03  7.964338E+02  2.412993E+02  7.861991E+02
       155  21 -7.908179E+04  4.638898E+03  4.277211E+03  2.256558E+03  1.249505E+02  6.036856E+02
       155  22 -9.780287E+04 -1.644017E+01 -3.665226E+02  2.247442E+03  2.574256E+02  9.680865E+02
       155  23 -9.779107E+04  4.523895E+00 -2.353149E+02  7.875097E+02  1.407454E+02  7.861612E+02
       155  24 -9.780282E+04  1.562137E+00 -1.865754E+02  2.247435E+03  2.407549E+01  6.036454E+02
       155  25 -1.250850E+05 -6.768257E+03 -6.840040E+03  2.238724E+03  1.571964E+02  9.680508E+02
       155  26 -1.207924E+05 -5.690028E+03 -5.703857E+03  7.785858E+02  4.019526E+01  7.861233E+02
       155  27 -1.165235E+05 -4.635799E+03 -4.650386E+03  2.238311E+03 -7.679646E+01  6.036053E+02
       156   1 -8.430957E+04  3.339155E+03  3.010888E+03  2.249874E+03 -9.149025E+01 -4.972922E+02
       156   2 -8.858472E+04  2.283610E+03  1.967670E+03  7.874974E+02  1.822765E+01 -3.146302E+02
       156   3 -9.288260E+04  1.206350E+03  8.469292E+02  2.249356E+03  1.279432E+02 -1.321375E+02
       156   4 -9.780258E+04  1.302682E+00 -1.840051E+02  2.248408E+03  9.349761E+00 -4.972510E+02
       156   5 -9.779124E+04  4.356471E+00 -2.211253E+02  7.862928E+02  1.189731E+02 -3.145883E+02
       156   6 -9.780257E+04 -1.427005E+01 -3.356860E+02  2.248415E+03  2.285948E+02 -1.320948E+02
       156   7 -1.112954E+05 -3.336563E+03 -3.378910E+03  2.246943E+03  1.101876E+02 -4.972099E+02
       156   8 -1.069977E+05 -2.274903E+03 -2.409927E+03  7.850881E+02  2.197171E+02 -3.145464E+02
       156   9 -1.027225E+05 -1.234892E+03 -1.518303E+03  2.247474E+03  3.292457E+02 -1.320521E+02
       156  10 -8.430957E+04  3.339155E+03  3.010887E+03  2.249874E+03  1.172452E-09  5.958504E-10
       156  11 -8.858472E+04  2.283610E+03  1.967670E+03  7.874974E+02 -2.023055E-10 -2.182752E-10
       156  12 -9.288260E+04  1.206350E+03  8.469291E+02  2.249356E+03  1.054463E-10 -6.795545E-10
       156  13 -9.780258E+04  1.302416E+00 -1.840056E+02  2.248408E+03  6.885557E-10  1.381416E-09
       156  14 -9.779124E+04  4.356361E+00 -2.211255E+02  7.862928E+02  3.674670E-10  2.012688E-10
       156  15 -9.780257E+04 -1.427008E+01 -3.356862E+02  2.248415E+03  2.740020E-10 -6.793922E-10
       156  16 -1.112954E+05 -3.336563E+03 -3.378911E+03  2.246943E+03 -1.088499E-09  6.207256E-10
       156  17 -1.069977E+05 -2.274903E+03 -2.409927E+03  7.850882E+02 -4.051021E-10 -1.384480E-10
       156  18 -1.027225E+05 -1.234892E+03 -1.518303E+03  2.247474E+03  8.567664E-10 -6.071573E-10
       156  19 -8.430957E+04  3.339155E+03  3.010888E+03  2.249874E+03  9.149025E+01  4.972922E+02
       156  20 -8.858472E+04  2.283610E+03  1.967670E+03  7.874974E+02 -1.822765E+01  3.146302E+02
       156  21 -9.288260E+04  1.206350E+03  8.469292E+02  2.249356E+03 -1.279432E+02  1.321375E+02
       156  22 -9.780258E+04  1.302682E+00 -1.840051E+02  2.248408E+03 -9.349761E+00  4.972510E+02
       156  23 -9.779124E+04  4.356471E+00 -2.211253E+02  7.862928E+02 -1.189731E+02  3.145883E+02
       156  24 -9.780257E+04 -1.427005E+01 -3.356860E+02  2.248415E+03 -2.285948E+02  1.320948E+02
       156  25 -1.112954E+05 -3.336563E+03 -3.378910E+03  2.246943E+03 -1.101876E+02  4.972099E+02
       156  26 -1.069977E+05 -2.274903E+03 -2.409927E+03  7.850881E+02 -2.197171E+02  3.145464E+02
       156  27 -1.027225E+05 -1.234892E+03 -1.518303E+03  2.247474E+03 -3.292457E+02  1.320521E+02
       157   1 -9.813283E+04 -6.847680E+01 -5.104081E+02  2.216775E+03  1.948827E+02 -2.521456E+01
       157   2 -1.023678E+05 -1.110882E+03 -1.798757E+03  7.869865E+02  5.498820E+02  1.574424E+02
       157   3 -1.067077E+05 -2.376063E+03 -3.374612E+03  2.281862E+03  9.048819E+02  3.362287E+02
       157   4 -9.782077E+04  1.139753E+01 -4.232876E+02  2.248480E+03  2.966828E+02 -2.517119E+01
       157   5 -9.776848E+04  2.777066E+01 -7.053002E+02  7.861884E+02  6.495479E+02  1.574844E+02
       157   6 -9.782081E+04 -1.782583E+02 -1.273333E+03  2.248560E+03  1.002416E+03  3.362693E+02
       157   7 -9.750871E+04  9.127186E+01 -3.361671E+02  2.280185E+03  3.984830E+02 -2.512780E+01
       157   8 -9.316916E+04  1.166422E+03  3.881551E+02  7.853904E+02  7.492146E+02  1.575264E+02
       157   9 -8.893383E+04  2.019541E+03  8.279410E+02  2.215257E+03  1.099952E+03  3.363100E+02
       157  10 -9.813283E+04 -6.847681E+01 -5.104082E+02  2.216775E+03 -8.896725E-10  8.548338E-11
       157  11 -1.023678E+05 -1.110882E+03 -1.798758E+03  7.869864E+02 -5.191950E-10  3.702928E-10
       157  12 -1.067077E+05 -2.376063E+03 -3.374614E+03  2.281862E+03  5.708765E-10  1.412158E-12
       157  13 -9.782077E+04  1.139750E+01 -4.232878E+02  2.248480E+03  1.042115E-09 -2.800007E-10
       157  14 -9.776848E+04  2.777052E+01 -7.053011E+02  7.861883E+02  4.037161E-10  2.492735E-10
       157  15 -9.782081E+04 -1.782586E+02 -1.273335E+03  2.248560E+03 -6.810466E-12  4.107178E-10
       157  16 -9.750871E+04  9.127182E+01 -3.361674E+02  2.280185E+03  6.741380E-10  1.840509E-10
       157  17 -9.316916E+04  1.166422E+03  3.881540E+02  7.853903E+02  9.977997E-11 -9.102658E-10
       157  18 -8.893383E+04  2.019540E+03  8.279385E+02  2.215257E+03  2.444037E-10 -8.213972E-11
       157  19 -9.813283E+04 -6.847680E+01 -5.104081E+02  2.216775E+03 -1.948827E+02  2.521456E+01
       157  20 -1.023678E+05 -1.110882E+03 -1.798757E+03  7.869865E+02 -5.498820E+02 -1.574424E+02
       157  21 -1.067077E+05 -2.376063E+03 -3.374612E+03  2.281862E+03 -9.048819E+02 -3.362287E+02
       157  22 -9.782077E+04  1.139753E+01 -4.232876E+02  2.248480E+03 -2.966828E+02  2.517119E+01
       157  23 -9.776848E+04  2.777066E+01 -7.053002E+02  7.861884E+02 -6.495479E+02 -1.574844E+02
       157  24 -9.782081E+04 -1.782583E+02 -1.273333E+03  2.248560E+03 -1.002416E+03 -3.362693E+02
       157  25 -9.750871E+04  9.127186E+01 -3.361671E+02  2.280185E+03 -3.984830E+02  2.512780E+01
       157  26 -9.316916E+04  1.166422E+03  3.881551E+02  7.853904E+02 -7.492146E+02 -1.575264E+02
       157  27 -8.893383E+04  2.019541E+03  8.279410E+02  2.215257E+03 -1.099952E+03 -3.363100E+02
       158   1 -1.120826E+05 -3.396109E+03 -4.997801E+03  1.963045E+03  1.143802E+03  4.505217E+02
       158   2 -1.159861E+05 -4.303180E+03 -7.124186E+03  9.236930E+02  2.580665E+03  6.301972E+02
       158   3 -1.206508E+05 -7.495845E+03 -1.075812E+04  2.805333E+03  4.017524E+03  7.522296E+02
       158   4 -9.796550E+04  1.015281E+02 -1.629784E+03  2.247446E+03  1.258571E+03  4.505695E+02
       158   5 -9.758776E+04  2.516017E+02 -2.750165E+03  7.873448E+02  2.663655E+03  6.302291E+02
       158   6 -9.796567E+04 -1.878377E+03 -5.356004E+03  2.248239E+03  4.068745E+03  7.522445E+02
       158   7 -8.384821E+04  3.599151E+03  1.738219E+03  2.531854E+03  1.373343E+03  4.506173E+02
       158   8 -7.918908E+04  4.806359E+03  1.623832E+03  6.509924E+02  2.746648E+03  6.302609E+02
       158   9 -7.528010E+04  3.739056E+03  4.607703E+01  1.691125E+03  4.119969E+03  7.522593E+02
       158  10 -1.120826E+05 -3.396110E+03 -4.997804E+03  1.963045E+03 -1.117684E-09  9.700275E-10
       158  11 -1.159861E+05 -4.303182E+03 -7.124199E+03  9.236917E+02 -6.609972E-10  7.571157E-10
       158  12 -1.206508E+05 -7.495850E+03 -1.075815E+04  2.805330E+03  5.321431E-10  2.099388E-10
       158  13 -9.796550E+04  1.015275E+02 -1.629788E+03  2.247446E+03  7.615893E-10  4.744625E-10
       158  14 -9.758776E+04  2.515993E+02 -2.750179E+03  7.873434E+02 -6.733578E-10  6.854909E-10
       158  15 -9.796569E+04 -1.878382E+03 -5.356036E+03  2.248236E+03 -2.220477E-11 -1.853428E-10
       158  16 -8.384821E+04  3.599151E+03  1.738215E+03  2.531853E+03  7.959247E-10  2.403855E-10
       158  17 -7.918908E+04  4.806356E+03  1.623817E+03  6.509910E+02 -3.870896E-10 -4.270595E-10
       158  18 -7.528012E+04  3.739051E+03  4.604406E+01  1.691122E+03 -7.070278E-10 -7.755792E-10
       158  19 -1.120826E+05 -3.396109E+03 -4.997801E+03  1.963045E+03 -1.143802E+03 -4.505217E+02
       158  20 -1.159861E+05 -4.303180E+03 -7.124186E+03  9.236930E+02 -2.580665E+03 -6.301972E+02
       158  21 -1.206508E+05 -7.495845E+03 -1.075812E+04  2.805333E+03 -4.017524E+03 -7.522296E+02
       158  22 -9.796550E+04  1.015281E+02 -1.629784E+03  2.247446E+03 -1.258571E+03 -4.505695E+02
       158  23 -9.758776E+04  2.516017E+02 -2.750165E+03  7.873448E+02 -2.663655E+03 -6.302291E+02
       158  24 -9.796567E+04 -1.878377E+03 -5.356004E+03  2.248239E+03 -4.068745E+03 -7.522445E+02
       158  25 -8.384821E+04  3.599151E+03  1.738219E+03  2.531854E+03 -1.373343E+03 -4.506173E+02
       158  26 -7.918908E+04  4.806359E+03  1.623832E+03  6.509924E+02 -2.746648E+03 -6.302609E+02
       158  27 -7.528010E+04  3.739056E+03  4.607703E+01  1.691125E+03 -4.119969E+03 -7.522593E+02
       159   1 -1.271567E+05 -5.890564E+03 -1.321134E+04 -4.159116E+02  4.770431E+03  9.763592E+02
       159   2 -1.281461E+05 -5.515276E+03 -1.825009E+04  2.708431E+03  1.095805E+04  1.108482E+03
       159   3 -1.357308E+05 -2.828970E+04 -3.310556E+04  8.728540E+03  1.714604E+04  3.803214E+02
       159   4 -9.924483E+04  1.020815E+03 -6.582159E+03  2.239843E+03  5.079596E+03  9.764969E+02
       159   5 -9.598906E+04  2.443840E+03 -1.060702E+04  7.956074E+02  1.079263E+04  1.108383E+03
       159   6 -9.924580E+04 -1.919985E+04 -2.411862E+04  2.247118E+03  1.650607E+04  3.799144E+02
       159   7 -7.133219E+04  7.932165E+03  4.697134E+01  4.895717E+03  5.388774E+03  9.766372E+02
       159   8 -6.383104E+04  1.040290E+04 -2.964021E+03 -1.117316E+03  1.062721E+04  1.108285E+03
       159   9 -6.275949E+04 -1.010994E+04 -1.513175E+04 -4.234687E+03  1.586607E+04  3.795207E+02
       159  10 -1.271568E+05 -5.890571E+03 -1.321139E+04 -4.159154E+02 -6.589065E-10 -6.654240E-11
       159  11 -1.281463E+05 -5.515309E+03 -1.825032E+04  2.708422E+03 -5.307507E-10  2.006785E-10
       159  12 -1.357311E+05 -2.828978E+04 -3.310611E+04  8.728535E+03  3.952520E-10  1.392050E-10
       159  13 -9.924485E+04  1.020808E+03 -6.582210E+03  2.239839E+03  1.388225E-10  7.322598E-10
       159  14 -9.598919E+04  2.443807E+03 -1.060724E+04  7.955977E+02 -6.523933E-11 -5.972916E-10
       159  15 -9.924609E+04 -1.919992E+04 -2.411913E+04  2.247113E+03 -3.936351E-10  6.859783E-10
       159  16 -7.133222E+04  7.932157E+03  4.691497E+01  4.895713E+03 -1.021252E-10  3.321815E-10
       159  17 -6.383116E+04  1.040286E+04 -2.964236E+03 -1.117326E+03 -3.548882E-10  2.949598E-10
       159  18 -6.275976E+04 -1.011001E+04 -1.513223E+04 -4.234692E+03  1.064453E-10 -7.748866E-11
       159  19 -1.271567E+05 -5.890564E+03 -1.321134E+04 -4.159116E+02 -4.770431E+03 -9.763592E+02
       159  20 -1.281461E+05 -5.515276E+03 -1.825009E+04  2.708431E+03 -1.095805E+04 -1.108482E+03
       159  21 -1.357308E+05 -2.828970E+04 -3.310556E+04  8.728540E+03 -1.714604E+04 -3.803214E+02
       159  22 -9.924483E+04  1.020815E+03 -6.582159E+03  2.239843E+03 -5.079596E+03 -9.764969E+02
       159  23 -9.598906E+04  2.443840E+03 -1.060702E+04  7.956074E+02 -1.079263E+04 -1.108383E+03
       159  24 -9.924580E+04 -1.919985E+04 -2.411862E+04  2.247118E+03 -1.650607E+04 -3.799144E+02
       159  25 -7.133219E+04  7.932165E+03  4.697134E+01  4.895717E+03 -5.388774E+03 -9.766372E+02
       159  26 -6.383104E+04  1.040290E+04 -2.964021E+03 -1.117316E+03 -1.062721E+04 -1.108285E+03
       159  27 -6.275949E+04 -1.010994E+04 -1.513175E+04 -4.234687E+03 -1.586607E+04 -3.795207E+02
       160   1  4.508270E+04  2.527642E+05  4.972664E+04 -2.315378E+04  1.012814E+03  1.928498E+04
       160   2  1.608789E+04  2.250573E+05  2.905670E+04 -1.096343E+04  2.834092E+03  1.058099E+04
       160   3  1.048359E+04  2.043270E+05  1.989882E+04 -1.094405E+04  2.061000E+03  1.876690E+03
       160   4  2.140434E+04  1.576517E+05  2.644592E+04 -1.409814E+04  1.013561E+03  1.696409E+04
       160   5 -1.316510E+03  1.543319E+05  1.275285E+04 -8.014981E+03  2.834250E+03  1.019173E+04
       160   6 -9.805636E+02  1.576542E+05  9.231959E+03 -1.410269E+04  2.060610E+03  3.418735E+03
       160   7 -2.274375E+03  6.254764E+04  3.164605E+03 -5.043897E+03  1.014239E+03  1.464355E+04
       160   8 -1.872123E+04  8.361111E+04 -3.551332E+03 -5.066874E+03  2.834405E+03  9.802511E+03
       160   9 -1.244483E+04  1.109835E+05 -1.435028E+03 -1.726110E+04  2.060203E+03  4.960666E+03
       160  10  4.508260E+04  2.527638E+05  4.972594E+04 -2.315380E+04  4.398620E-10  2.963900E-10
       160  11  1.608785E+04  2.250572E+05  2.905648E+04 -1.096345E+04  4.419516E-11 -2.748564E-10
       160  12  1.048359E+04  2.043270E+05  1.989880E+04 -1.094405E+04  2.947141E-10  1.253959E-10
       160  13  2.140427E+04  1.576514E+05  2.644538E+04 -1.409816E+04  5.559545E-10 -1.113562E-11
       160  14 -1.316546E+03  1.543318E+05  1.275264E+04 -8.015004E+03 -3.546284E-10  5.396091E-11
       160  15 -9.805713E+02  1.576542E+05  9.231929E+03 -1.410270E+04 -1.014550E-11 -3.059837E-10
       160  16 -2.274434E+03  6.254741E+04  3.164200E+03 -5.043909E+03  5.751312E-10 -1.683735E-10
       160  17 -1.872126E+04  8.361101E+04 -3.551527E+03 -5.066896E+03  7.835769E-10 -3.255793E-10
       160  18 -1.244484E+04  1.109835E+05 -1.435082E+03 -1.726110E+04  7.376398E-10 -2.438883E-10
       160  19  4.508270E+04  2.527642E+05  4.972664E+04 -2.315378E+04 -1.012814E+03 -1.928498E+04
       160  20  1.608789E+04  2.250573E+05  2.905670E+04 -1.096343E+04 -2.834092E+03 -1.058099E+04
       160  21  1.048359E+04  2.043270E+05  1.989882E+04 -1.094405E+04 -2.061000E+03 -1.876690E+03
       160  22  2.140434E+04  1.576517E+05  2.644592E+04 -1.409814E+04 -1.013561E+03 -1.696409E+04
       160  23 -1.316510E+03  1.543319E+05  1.275285E+04 -8.014981E+03 -2.834250E+03 -1.019173E+04
       160  24 -9.805636E+02  1.576542E+05  9.231959E+03 -1.410269E+04 -2.060610E+03 -3.418735E+03
       160  25 -2.274375E+03  6.254764E+04  3.164605E+03 -5.043897E+03 -1.014239E+03 -1.464355E+04
       160  26 -1.872123E+04  8.361111E+04 -3.551332E+03 -5.066874E+03 -2.834405E+03 -9.802511E+03
       160  27 -1.244483E+04  1.109835E+05 -1.435028E+03 -1.726110E+04 -2.060203E+03 -4.960666E+03
       161   1  7.300617E+03  1.805904E+05  1.408624E+04 -1.512004E+04  1.042794E+03  1.153991E+03
       161   2 -3.521271E+02  1.555624E+05  8.117679E+03 -7.896152E+03 -5.715182E+00 -2.967116E+03
       161   3 -3.374013E+03  1.322218E+05  5.987705E+03 -1.292852E+04 -1.053858E+03 -7.088071E+03
       161   4  1.392839E+03  1.565531E+05  8.583215E+03 -1.412032E+04  1.042594E+03  1.935135E+03
       161   5 -3.158972E+02  1.557096E+05  8.151342E+03 -7.992058E+03 -5.915776E+00 -2.186219E+03
       161   6  2.606296E+03  1.565530E+05  1.155826E+04 -1.412001E+04 -1.054046E+03 -6.307578E+03
       161   7 -4.514975E+03  1.325164E+05  3.080152E+03 -1.312064E+04  1.042396E+03  2.716249E+03
       161   8 -2.796669E+02  1.558568E+05  8.185008E+03 -8.087965E+03 -6.116612E+00 -1.405322E+03
       161   9  8.586569E+03  1.808847E+05  1.712879E+04 -1.531154E+04 -1.054238E+03 -5.527054E+03
       161  10  7.300615E+03  1.805904E+05  1.408624E+04 -1.512004E+04  2.153868E-11  6.681512E-10
       161  11 -3.521295E+02  1.555624E+05  8.117662E+03 -7.896152E+03 -2.422981E-10 -5.936897E-10
       161  12 -3.374028E+03  1.322217E+05  5.987609E+03 -1.292853E+04  2.406236E-10 -2.789702E-10
       161  13  1.392837E+03  1.565531E+05  8.583206E+03 -1.412032E+04 -4.824105E-10  3.052110E-11
       161  14 -3.158985E+02  1.557096E+05  8.151333E+03 -7.992058E+03  8.730412E-11 -3.225168E-11
       161  15  2.606284E+03  1.565529E+05  1.155819E+04 -1.412002E+04 -2.275728E-10 -3.935495E-10
       161  16 -4.514978E+03  1.325164E+05  3.080137E+03 -1.312064E+04  5.835348E-11 -5.153921E-10
       161  17 -2.796674E+02  1.558568E+05  8.185004E+03 -8.087965E+03 -6.373685E-10 -4.389071E-11
       161  18  8.586560E+03  1.808847E+05  1.712873E+04 -1.531155E+04 -1.577647E-10  1.339772E-10
       161  19  7.300617E+03  1.805904E+05  1.408624E+04 -1.512004E+04 -1.042794E+03 -1.153991E+03
       161  20 -3.521271E+02  1.555624E+05  8.117679E+03 -7.896152E+03  5.715182E+00  2.967116E+03
       161  21 -3.374013E+03  1.322218E+05  5.987705E+03 -1.292852E+04  1.053858E+03  7.088071E+03
       161  22  1.392839E+03  1.565531E+05  8.583215E+03 -1.412032E+04 -1.042594E+03 -1.935135E+03
       161  23 -3.158972E+02  1.557096E+05  8.151342E+03 -7.992058E+03  5.915776E+00  2.186219E+03
       161  24  2.606296E+03  1.565530E+05  1.155826E+04 -1.412001E+04  1.054046E+03  6.307578E+03
       161  25 -4.514975E+03  1.325164E+05  3.080152E+03 -1.312064E+04 -1.042396E+03 -2.716249E+03
       161  26 -2.796669E+02  1.558568E+05  8.185008E+03 -8.087965E+03  6.116612E+00  1.405322E+03
       161  27  8.586569E+03  1.808847E+05  1.712879E+04 -1.531154E+04  1.054238E+03  5.527054E+03
       162   1 -1.346533E+04  1.117585E+05  2.832161E+03 -1.961918E+04 -2.072228E+03 -9.916134E+03
       162   2 -1.975373E+04  8.197911E+04  4.723920E+03 -2.913532E+03 -2.844581E+03 -1.922115E+04
       162   3  1.362319E+04  6.332560E+04  2.258931E+04  1.622965E+03 -1.015827E+03 -2.852508E+04
       162   4 -1.929992E+03  1.587248E+05  1.356622E+04 -1.410314E+04 -2.072697E+03 -8.372641E+03
       162   5 -2.275654E+03  1.529933E+05  2.109577E+04 -8.014841E+03 -2.844315E+03 -1.961446E+04
       162   6  3.737712E+04  1.587211E+05  4.594211E+04 -1.409516E+04 -1.014638E+03 -3.085556E+04
       162   7  9.605306E+03  2.056931E+05  2.430016E+04 -8.586685E+03 -2.073138E+03 -6.829033E+03
       162   8  1.520216E+04  2.240123E+05  3.746730E+04 -1.311674E+04 -2.844042E+03 -2.000782E+04
       162   9  6.113132E+04  2.541254E+05  6.929439E+04 -2.981570E+04 -1.013332E+03 -3.318640E+04
       162  10 -1.346536E+04  1.117584E+05  2.831968E+03 -1.961919E+04 -1.155343E-10  4.087011E-10
       162  11 -1.975383E+04  8.197871E+04  4.723210E+03 -2.913576E+03 -7.824605E-10 -5.921726E-10
       162  12  1.362297E+04  6.332473E+04  2.258778E+04  1.622942E+03  1.077789E-10 -2.058202E-10
       162  13 -1.930016E+03  1.587247E+05  1.356608E+04 -1.410316E+04 -9.577590E-10  1.216919E-11
       162  14 -2.275766E+03  1.529929E+05  2.109503E+04 -8.014886E+03  3.725382E-11 -6.062828E-11
       162  15  3.737687E+04  1.587201E+05  4.594032E+04 -1.409518E+04 -4.477664E-10 -2.331987E-10
       162  16  9.605289E+03  2.056931E+05  2.430006E+04 -8.586697E+03 -2.481432E-10 -2.925636E-10
       162  17  1.520205E+04  2.240119E+05  3.746653E+04 -1.311678E+04  1.491065E-10 -5.938966E-11
       162  18  6.113102E+04  2.541242E+05  6.929232E+04 -2.981573E+04 -7.667500E-11  1.135157E-10
       162  19 -1.346533E+04  1.117585E+05  2.832161E+03 -1.961918E+04  2.072228E+03  9.916134E+03
       162  20 -1.975373E+04  8.197911E+04  4.723920E+03 -2.913532E+03  2.844581E+03  1.922115E+04
       162  21  1.362319E+04  6.332560E+04  2.258931E+04  1.622965E+03  1.015827E+03  2.852508E+04
       162  22 -1.929992E+03  1.587248E+05  1.356622E+04 -1.410314E+04  2.072697E+03  8.372641E+03
       162  23 -2.275654E+03  1.529933E+05  2.109577E+04 -8.014841E+03  2.844315E+03  1.961446E+04
       162  24  3.737712E+04  1.587211E+05  4.594211E+04 -1.409516E+04  1.014638E+03  3.085556E+04
       162  25  9.605306E+03  2.056931E+05  2.430016E+04 -8.586685E+03  2.073138E+03  6.829033E+03
       162  26  1.520216E+04  2.240123E+05  3.746730E+04 -1.311674E+04  2.844042E+03  2.000782E+04
       162  27  6.113132E+04  2.541254E+05  6.929439E+04 -2.981570E+04  1.013332E+03  3.318640E+04
       163   1  2.537846E+04  1.004863E+04  5.647311E+03 -1.836614E+03 -1.135515E+04 -1.335961E+03
       163   2  1.853382E+04  2.564718E+04  1.356613E+04  7.358844E+02 -8.380996E+03 -4.116752E+03
       163   3  6.810543E+03  2.327567E+04  1.505725E+04  7.899827E+03 -5.407921E+03 -4.115154E+03
       163   4 -8.410344E+04 -1.718729E+04 -2.107757E+04  5.337383E+03 -1.445821E+04 -1.337243E+03
       163   5 -8.148339E+04  1.042944E+03 -9.446128E+03  3.038090E+03 -9.414672E+03 -4.117248E+03
       163   6 -8.410225E+04  9.421571E+02 -5.680385E+03  5.330327E+03 -4.372150E+03 -4.114710E+03
       163   7 -1.935743E+05 -4.442389E+04 -4.780326E+04  1.251011E+04 -1.756072E+04 -1.338596E+03
       163   8 -1.814913E+05 -2.356197E+04 -3.245904E+04  5.339922E+03 -1.044818E+04 -4.117752E+03
       163   9 -1.750074E+05 -2.139190E+04 -2.641855E+04  2.761206E+03 -3.336529E+03 -4.114276E+03
       163  10  2.537832E+04  1.004859E+04  5.647065E+03 -1.836626E+03 -7.278879E-09 -1.710075E-10
       163  11  1.853374E+04  2.564714E+04  1.356597E+04  7.358566E+02  1.733082E-09  6.018826E-10
       163  12  6.810507E+03  2.327564E+04  1.505716E+04  7.899809E+03  1.011525E-08 -1.962063E-10
       163  13 -8.410367E+04 -1.718734E+04 -2.107797E+04  5.337368E+03  5.803719E-11 -9.406811E-10
       163  14 -8.148349E+04  1.042902E+03 -9.446326E+03  3.038059E+03  4.377001E-10 -2.042470E-09
       163  15 -8.410228E+04  9.421338E+02 -5.680453E+03  5.330312E+03 -1.337014E-10 -4.886856E-10
       163  16 -1.935746E+05 -4.442397E+04 -4.780384E+04  1.251009E+04  6.832122E-09 -4.750285E-10
       163  17 -1.814915E+05 -2.356202E+04 -3.245928E+04  5.339887E+03 -1.340595E-09 -8.342206E-11
       163  18 -1.750074E+05 -2.139192E+04 -2.641860E+04  2.761195E+03 -1.021669E-08 -6.404220E-10
       163  19  2.537846E+04  1.004863E+04  5.647311E+03 -1.836614E+03  1.135515E+04  1.335961E+03
       163  20  1.853382E+04  2.564718E+04  1.356613E+04  7.358844E+02  8.380996E+03  4.116752E+03
       163  21  6.810543E+03  2.327567E+04  1.505725E+04  7.899827E+03  5.407921E+03  4.115154E+03
       163  22 -8.410344E+04 -1.718729E+04 -2.107757E+04  5.337383E+03  1.445821E+04  1.337243E+03
       163  23 -8.148339E+04  1.042944E+03 -9.446128E+03  3.038090E+03  9.414672E+03  4.117248E+03
       163  24 -8.410225E+04  9.421571E+02 -5.680385E+03  5.330327E+03  4.372150E+03  4.114710E+03
       163  25 -1.935743E+05 -4.442389E+04 -4.780326E+04  1.251011E+04  1.756072E+04  1.338596E+03
       163  26 -1.814913E+05 -2.356197E+04 -3.245904E+04  5.339922E+03  1.044818E+04  4.117752E+03
       163  27 -1.750074E+05 -2.139190E+04 -2.641855E+04  2.761206E+03  3.336529E+03  4.114276E+03
       164   1 -8.303222E+02  1.898123E+04  1.428178E+04  4.961834E+03 -3.718815E+03 -3.526633E+03
       164   2 -9.858838E+03  1.802019E+04  1.425803E+04  2.929990E+03 -2.595300E+03 -3.216169E+03
       164   3 -1.936900E+04  1.572869E+04  1.316964E+04  5.594145E+03 -1.471928E+03 -2.771555E+03
       164   4 -8.304878E+04 -1.232327E+03 -4.566300E+03  5.355984E+03 -3.537811E+03 -3.526583E+03
       164   5 -8.279893E+04  9.584532E+01 -2.420668E+03  3.007645E+03 -2.314637E+03 -3.216057E+03
       164   6 -8.304832E+04  7.611728E+01 -1.409032E+03  5.355348E+03 -1.091592E+03 -2.771373E+03
       164   7 -1.652610E+05 -2.144635E+04 -2.341482E+04  5.750082E+03 -3.356831E+03 -3.526533E+03
       164   8 -1.557341E+05 -1.782887E+04 -1.909971E+04  3.085290E+03 -2.034008E+03 -3.215944E+03
       164   9 -1.467239E+05 -1.557674E+04 -1.598797E+04  5.116575E+03 -7.112946E+02 -2.771192E+03
       164  10 -8.303404E+02  1.898121E+04  1.428173E+04  4.961823E+03  8.559365E-09  5.406809E-10
       164  11 -9.858848E+03  1.802018E+04  1.425800E+04  2.929984E+03  8.220025E-10  2.487138E-09
       164  12 -1.936900E+04  1.572868E+04  1.316962E+04  5.594142E+03 -5.896025E-09  1.720246E-09
       164  13 -8.304879E+04 -1.232343E+03 -4.566347E+03  5.355974E+03  7.500143E-10  1.926865E-09
       164  14 -8.279894E+04  9.583277E+01 -2.420698E+03  3.007639E+03 -8.269857E-11 -9.731591E-10
       164  15 -8.304832E+04  7.610871E+01 -1.409048E+03  5.355345E+03  7.362475E-10  1.810833E-09
       164  16 -1.652610E+05 -2.144637E+04 -2.341487E+04  5.750072E+03 -8.150416E-09 -7.359756E-10
       164  17 -1.557341E+05 -1.782888E+04 -1.909974E+04  3.085284E+03 -6.589635E-10  1.082887E-09
       164  18 -1.467239E+05 -1.557674E+04 -1.598798E+04  5.116573E+03  5.896017E-09  5.823966E-10
       164  19 -8.303222E+02  1.898123E+04  1.428178E+04  4.961834E+03  3.718815E+03  3.526633E+03
       164  20 -9.858838E+03  1.802019E+04  1.425803E+04  2.929990E+03  2.595300E+03  3.216169E+03
       164  21 -1.936900E+04  1.572869E+04  1.316964E+04  5.594145E+03  1.471928E+03  2.771555E+03
       164  22 -8.304878E+04 -1.232327E+03 -4.566300E+03  5.355984E+03  3.537811E+03  3.526583E+03
       164  23 -8.279893E+04  9.584532E+01 -2.420668E+03  3.007645E+03  2.314637E+03  3.216057E+03
       164  24 -8.304832E+04  7.611728E+01 -1.409032E+03  5.355348E+03  1.091592E+03  2.771373E+03
       164  25 -1.652610E+05 -2.144635E+04 -2.341482E+04  5.750082E+03  3.356831E+03  3.526533E+03
       164  26 -1.557341E+05 -1.782887E+04 -1.909971E+04  3.085290E+03  2.034008E+03  3.215944E+03
       164  27 -1.467239E+05 -1.557674E+04 -1.598797E+04  5.116575E+03  7.112946E+02  2.771192E+03
       165   1 -2.793847E+04  1.343541E+04  1.146378E+04  5.375997E+03 -1.211462E+03 -2.484593E+03
       165   2 -3.718284E+04  1.125256E+04  9.842903E+03  3.032321E+03 -9.128049E+02 -2.025130E+03
       165   3 -4.649506E+04  8.975750E+03  8.002839E+03  5.395957E+03 -6.141836E+02 -1.559073E+03
       165   4 -8.295239E+04 -7.825883E+01 -1.087369E+03  5.358073E+03 -8.721585E+02 -2.484425E+03
       165   5 -8.291794E+04  1.415642E+01 -6.109481E+02  3.004380E+03 -5.686201E+02 -2.024948E+03
       165   6 -8.295214E+04  1.179524E+01 -3.570809E+02  5.358022E+03 -2.651134E+02 -1.558878E+03
       165   7 -1.379635E+05 -1.359214E+04 -1.363872E+04  5.340149E+03 -5.328846E+02 -2.484257E+03
       165   8 -1.286511E+05 -1.122440E+04 -1.106494E+04  2.976442E+03 -2.244606E+02 -2.024767E+03
       165   9 -1.194080E+05 -8.952252E+03 -8.717088E+03  5.320089E+03  8.393641E+01 -1.558682E+03
       165  10 -2.793847E+04  1.343541E+04  1.146377E+04  5.375995E+03 -5.666294E-10 -1.626078E-09
       165  11 -3.718284E+04  1.125256E+04  9.842894E+03  3.032319E+03 -1.609665E-10 -1.552535E-09
       165  12 -4.649506E+04  8.975748E+03  8.002833E+03  5.395956E+03 -7.742479E-10 -6.159117E-10
       165  13 -8.295239E+04 -7.826566E+01 -1.087382E+03  5.358071E+03  5.365856E-10 -4.166755E-10
       165  14 -8.291794E+04  1.415193E+01 -6.109564E+02  3.004379E+03  1.680043E-11 -9.972658E-10
       165  15 -8.295214E+04  1.179261E+01 -3.570856E+02  5.358022E+03  3.983529E-10 -7.403768E-10
       165  16 -1.379635E+05 -1.359215E+04 -1.363873E+04  5.340148E+03  7.672403E-10 -9.533833E-10
       165  17 -1.286511E+05 -1.122440E+04 -1.106494E+04  2.976441E+03  1.554451E-10  2.087470E-10
       165  18 -1.194080E+05 -8.952255E+03 -8.717092E+03  5.320089E+03  7.136633E-10  1.553710E-09
       165  19 -2.793847E+04  1.343541E+04  1.146378E+04  5.375997E+03  1.211462E+03  2.484593E+03
       165  20 -3.718284E+04  1.125256E+04  9.842903E+03  3.032321E+03  9.128049E+02  2.025130E+03
       165  21 -4.649506E+04  8.975750E+03  8.002839E+03  5.395957E+03  6.141836E+02  1.559073E+03
       165  22 -8.295239E+04 -7.825883E+01 -1.087369E+03  5.358073E+03  8.721585E+02  2.484425E+03
       165  23 -8.291794E+04  1.415642E+01 -6.109481E+02  3.004380E+03  5.686201E+02  2.024948E+03
       165  24 -8.295214E+04  1.179524E+01 -3.570809E+02  5.358022E+03  2.651134E+02  1.558878E+03
       165  25 -1.379635E+05 -1.359214E+04 -1.363872E+04  5.340149E+03  5.328846E+02  2.484257E+03
       165  26 -1.286511E+05 -1.122440E+04 -1.106494E+04  2.976442E+03  2.244606E+02  2.024767E+03
       165  27 -1.194080E+05 -8.952252E+03 -8.717088E+03  5.320089E+03 -8.393641E+01  1.558682E+03
       166   1 -5.515490E+04  6.824275E+03  6.047816E+03  5.376914E+03 -5.554689E+02 -1.286457E+03
       166   2 -6.443006E+04  4.551997E+03  4.059798E+03  3.015935E+03 -4.723101E+02 -8.195909E+02
       166   3 -7.372327E+04  2.277490E+03  2.015556E+03  5.365112E+03 -3.891660E+02 -3.523705E+02
       166   4 -8.294079E+04  1.852091E+00 -2.762193E+02  5.358668E+03 -2.083087E+02 -1.286257E+03
       166   5 -8.293166E+04  5.580398E+00 -1.691265E+02  3.003585E+03 -1.248918E+02 -8.193868E+02
       166   6 -8.294069E+04  7.040593E+00 -1.184358E+02  5.358665E+03 -4.148837E+01 -3.521616E+02
       166   7 -1.107260E+05 -6.820625E+03 -6.600304E+03  5.340423E+03  1.388362E+02 -1.286057E+03
       166   8 -1.014329E+05 -4.540860E+03 -4.398073E+03  2.991234E+03  2.225163E+02 -8.191827E+02
       166   9 -9.215804E+04 -2.263415E+03 -2.252433E+03  5.352218E+03  3.061841E+02 -3.519527E+02
       166  10 -5.515490E+04  6.824274E+03  6.047812E+03  5.376913E+03  2.514569E-10 -1.092657E-09
       166  11 -6.443006E+04  4.551996E+03  4.059796E+03  3.015935E+03 -5.607296E-10  7.552685E-10
       166  12 -7.372327E+04  2.277490E+03  2.015556E+03  5.365112E+03 -1.536787E-09  2.898789E-11
       166  13 -8.294079E+04  1.850303E+00 -2.762225E+02  5.358668E+03 -5.408482E-10  7.521676E-10
       166  14 -8.293166E+04  5.579673E+00 -1.691278E+02  3.003585E+03  4.413994E-10 -1.600261E-09
       166  15 -8.294069E+04  7.040459E+00 -1.184360E+02  5.358665E+03  2.240973E-10 -8.833631E-10
       166  16 -1.107260E+05 -6.820626E+03 -6.600307E+03  5.340423E+03 -3.591076E-11  3.204402E-10
       166  17 -1.014329E+05 -4.540861E+03 -4.398074E+03  2.991234E+03  6.892814E-10  8.963334E-10
       166  18 -9.215804E+04 -2.263415E+03 -2.252434E+03  5.352218E+03  1.495611E-09  5.726495E-11
       166  19 -5.515490E+04  6.824275E+03  6.047816E+03  5.376914E+03  5.554689E+02  1.286457E+03
       166  20 -6.443006E+04  4.551997E+03  4.059798E+03  3.015935E+03  4.723101E+02  8.195909E+02
       166  21 -7.372327E+04  2.277490E+03  2.015556E+03  5.365112E+03  3.891660E+02  3.523705E+02
       166  22 -8.294079E+04  1.852091E+00 -2.762193E+02  5.358668E+03  2.083087E+02  1.286257E+03
       166  23 -8.293166E+04  5.580398E+00 -1.691265E+02  3.003585E+03  1.248918E+02  8.193868E+02
       166  24 -8.294069E+04  7.040593E+00 -1.184358E+02  5.358665E+03  4.148837E+01  3.521616E+02
       166  25 -1.107260E+05 -6.820625E+03 -6.600304E+03  5.340423E+03 -1.388362E+02  1.286057E+03
       166  26 -1.014329E+05 -4.540860E+03 -4.398073E+03  2.991234E+03 -2.225163E+02  8.191827E+02
       166  27 -9.215804E+04 -2.263415E+03 -2.252433E+03  5.352218E+03 -3.061841E+02  3.519527E+02
       167   1 -8.239626E+04  1.349586E+02 -1.052927E+01  5.359540E+03 -3.688760E+02 -8.033689E+01
       167   2 -9.167438E+04 -2.143196E+03 -2.108495E+03  2.998595E+03 -3.143233E+02  3.869046E+02
       167   3 -1.009660E+05 -4.420041E+03 -4.243199E+03  5.348328E+03 -2.597657E+02  8.538500E+02
       167   4 -8.293968E+04  6.851136E+00 -1.075919E+02  5.358779E+03 -2.119615E+01 -8.012725E+01
       167   5 -8.293286E+04  4.902383E+00 -1.103978E+02  3.003443E+03  3.313190E+01  3.871118E+02
       167   6 -8.293972E+04  4.272802E+00 -1.498196E+02  5.358780E+03  8.746559E+01  8.540552E+02
       167   7 -8.348309E+04 -1.212563E+02 -2.046541E+02  5.358018E+03  3.264834E+02 -7.991761E+01
       167   8 -7.419126E+04  2.152996E+03  1.887695E+03  3.008291E+03  3.805919E+02  3.873190E+02
       167   9 -6.491314E+04  4.428565E+03  3.943540E+03  5.369233E+03  4.347069E+02  8.542603E+02
       167  10 -8.239626E+04  1.349586E+02 -1.052954E+01  5.359540E+03 -1.242773E-09  3.448255E-10
       167  11 -9.167438E+04 -2.143196E+03 -2.108495E+03  2.998595E+03 -7.168520E-10 -5.495087E-10
       167  12 -1.009660E+05 -4.420042E+03 -4.243201E+03  5.348328E+03 -6.010570E-10 -6.004212E-10
       167  13 -8.293968E+04  6.851129E+00 -1.075919E+02  5.358779E+03 -6.027160E-11  9.572473E-10
       167  14 -8.293286E+04  4.902221E+00 -1.103981E+02  3.003443E+03 -1.100868E-09 -1.069137E-09
       167  15 -8.293972E+04  4.272017E+00 -1.498210E+02  5.358780E+03  4.097344E-10 -5.708139E-10
       167  16 -8.348310E+04 -1.212564E+02 -2.046543E+02  5.358018E+03  1.099138E-09  1.819745E-10
       167  17 -7.419126E+04  2.152996E+03  1.887694E+03  3.008291E+03  4.866752E-10 -2.509818E-09
       167  18 -6.491314E+04  4.428564E+03  3.943538E+03  5.369232E+03  8.333065E-10 -1.431482E-09
       167  19 -8.239626E+04  1.349586E+02 -1.052927E+01  5.359540E+03  3.688760E+02  8.033689E+01
       167  20 -9.167438E+04 -2.143196E+03 -2.108495E+03  2.998595E+03  3.143233E+02 -3.869046E+02
       167  21 -1.009660E+05 -4.420041E+03 -4.243199E+03  5.348328E+03  2.597657E+02 -8.538500E+02
       167  22 -8.293968E+04  6.851136E+00 -1.075919E+02  5.358779E+03  2.119615E+01  8.012725E+01
       167  23 -8.293286E+04  4.902383E+00 -1.103978E+02  3.003443E+03 -3.313190E+01 -3.871118E+02
       167  24 -8.293972E+04  4.272802E+00 -1.498196E+02  5.358780E+03 -8.746559E+01 -8.540552E+02
       167  25 -8.348309E+04 -1.212563E+02 -2.046541E+02  5.358018E+03 -3.264834E+02  7.991761E+01
       167  26 -7.419126E+04  2.152996E+03  1.887695E+03  3.008291E+03 -3.805919E+02 -3.873190E+02
       167  27 -6.491314E+04  4.428565E+03  3.943540E+03  5.369233E+03 -4.347069E+02 -8.542603E+02
       168   1 -1.096436E+05 -6.557175E+03 -6.314549E+03  5.336079E+03 -2.315644E+02  1.126451E+03
       168   2 -1.189058E+05 -8.832810E+03 -8.526316E+03  2.984775E+03 -7.723690E+01  1.592671E+03
       168   3 -1.282051E+05 -1.115223E+04 -1.085092E+04  5.341402E+03  7.711971E+01  2.052881E+03
       168   4 -8.294484E+04  9.124460E+00 -1.848205E+02  5.358159E+03  1.174251E+02  1.126654E+03
       168   5 -8.292679E+04  8.684761E+00 -3.020101E+02  3.004214E+03  2.672894E+02  1.592863E+03
       168   6 -8.294503E+04 -3.472494E+01 -5.288936E+02  5.358184E+03  4.171850E+02  2.053061E+03
       168   7 -5.624542E+04  6.575374E+03  5.944861E+03  5.380239E+03  4.664295E+02  1.126856E+03
       168   8 -4.694661E+04  8.850090E+03  7.922211E+03  3.023655E+03  6.118355E+02  1.593054E+03
       168   9 -3.768309E+04  1.108264E+04  9.793002E+03  5.374967E+03  7.572748E+02  2.053242E+03
       168  10 -1.096436E+05 -6.557177E+03 -6.314551E+03  5.336079E+03 -2.322259E-09 -4.883892E-11
       168  11 -1.189058E+05 -8.832813E+03 -8.526320E+03  2.984775E+03 -5.701603E-10 -4.950940E-10
       168  12 -1.282051E+05 -1.115224E+04 -1.085093E+04  5.341401E+03  7.719297E-11 -2.573002E-10
       168  13 -8.294484E+04  9.123093E+00 -1.848229E+02  5.358159E+03 -1.099647E-12  8.309381E-11
       168  14 -8.292679E+04  8.682018E+00 -3.020150E+02  3.004214E+03  1.162892E-10  6.398192E-10
       168  15 -8.294503E+04 -3.472951E+01 -5.289018E+02  5.358183E+03 -7.123527E-11  1.116069E-10
       168  16 -5.624542E+04  6.575373E+03  5.944859E+03  5.380239E+03  2.442900E-09  1.049087E-09
       168  17 -4.694661E+04  8.850087E+03  7.922206E+03  3.023654E+03  6.629519E-10 -4.540615E-10
       168  18 -3.768309E+04  1.108264E+04  9.792993E+03  5.374966E+03 -8.563282E-11  6.585958E-10
       168  19 -1.096436E+05 -6.557175E+03 -6.314549E+03  5.336079E+03  2.315644E+02 -1.126451E+03
       168  20 -1.189058E+05 -8.832810E+03 -8.526316E+03  2.984775E+03  7.723690E+01 -1.592671E+03
       168  21 -1.282051E+05 -1.115223E+04 -1.085092E+04  5.341402E+03 -7.711971E+01 -2.052881E+03
       168  22 -8.294484E+04  9.124460E+00 -1.848205E+02  5.358159E+03 -1.174251E+02 -1.126654E+03
       168  23 -8.292679E+04  8.684761E+00 -3.020101E+02  3.004214E+03 -2.672894E+02 -1.592863E+03
       168  24 -8.294503E+04 -3.472494E+01 -5.288936E+02  5.358184E+03 -4.171850E+02 -2.053061E+03
       168  25 -5.624542E+04  6.575374E+03  5.944861E+03  5.380239E+03 -4.664295E+02 -1.126856E+03
       168  26 -4.694661E+04  8.850090E+03  7.922211E+03  3.023655E+03 -6.118355E+02 -1.593054E+03
       168  27 -3.768309E+04  1.108264E+04  9.793002E+03  5.374967E+03 -7.572748E+02 -2.053242E+03
       169   1 -1.369188E+05 -1.321740E+04 -1.303402E+04  5.230942E+03  1.460731E+02  2.338566E+03
       169   2 -1.460621E+05 -1.548261E+04 -1.562139E+04  3.032589E+03  8.283096E+02  2.785148E+03
       169   3 -1.554641E+05 -1.841153E+04 -1.881986E+04  5.533627E+03  1.510639E+03  3.109084E+03
       169   4 -8.299115E+04  3.980778E+01 -6.830960E+02  5.356174E+03  5.236443E+02  2.338759E+03
       169   5 -8.286987E+04  4.768386E+01 -1.170123E+03  3.006655E+03  1.114702E+03  2.785278E+03
       169   6 -8.299151E+04 -5.922660E+02 -2.204870E+03  5.356499E+03  1.705862E+03  3.109155E+03
       169   7 -2.906083E+04  1.329681E+04  1.166764E+04  5.481417E+03  9.012480E+02  2.338952E+03
       169   8 -1.967396E+04  1.557770E+04  1.328089E+04  2.980718E+03  1.401123E+03  2.785407E+03
       169   9 -1.051406E+04  1.722663E+04  1.440978E+04  5.179349E+03  1.901108E+03  3.109227E+03
       169  10 -1.369188E+05 -1.321741E+04 -1.303403E+04  5.230942E+03 -7.613039E-09 -1.013004E-09
       169  11 -1.460621E+05 -1.548262E+04 -1.562141E+04  3.032588E+03 -2.900603E-11 -8.122471E-12
       169  12 -1.554641E+05 -1.841154E+04 -1.881988E+04  5.533623E+03  7.907399E-09 -1.156799E-09
       169  13 -8.299115E+04  3.980183E+01 -6.831068E+02  5.356173E+03 -4.808521E-10 -2.126311E-09
       169  14 -8.286987E+04  4.767520E+01 -1.170140E+03  3.006653E+03 -6.355137E-10  7.518460E-10
       169  15 -8.299152E+04 -5.922772E+02 -2.204894E+03  5.356494E+03  4.063775E-10 -6.763428E-10
       169  16 -2.906083E+04  1.329681E+04  1.166763E+04  5.481415E+03  7.097136E-09 -1.027096E-09
       169  17 -1.967396E+04  1.557770E+04  1.328087E+04  2.980715E+03 -7.232518E-10 -3.678698E-09
       169  18 -1.051407E+04  1.722662E+04  1.440975E+04  5.179345E+03 -7.897303E-09 -3.153636E-10
       169  19 -1.369188E+05 -1.321740E+04 -1.303402E+04  5.230942E+03 -1.460731E+02 -2.338566E+03
       169  20 -1.460621E+05 -1.548261E+04 -1.562139E+04  3.032589E+03 -8.283096E+02 -2.785148E+03
       169  21 -1.554641E+05 -1.841153E+04 -1.881986E+04  5.533627E+03 -1.510639E+03 -3.109084E+03
       169  22 -8.299115E+04  3.980778E+01 -6.830960E+02  5.356174E+03 -5.236443E+02 -2.338759E+03
       169  23 -8.286987E+04  4.768386E+01 -1.170123E+03  3.006655E+03 -1.114702E+03 -2.785278E+03
       169  24 -8.299151E+04 -5.922660E+02 -2.204870E+03  5.356499E+03 -1.705862E+03 -3.109155E+03
       169  25 -2.906083E+04  1.329681E+04  1.166764E+04  5.481417E+03 -9.012480E+02 -2.338952E+03
       169  26 -1.967396E+04  1.557770E+04  1.328089E+04  2.980718E+03 -1.401123E+03 -2.785407E+03
       169  27 -1.051406E+04  1.722663E+04  1.440978E+04  5.179349E+03 -1.901108E+03 -3.109227E+03
       170   1 -1.646680E+05 -1.948382E+04 -2.126025E+04  4.079317E+03  1.131789E+03  3.669775E+03
       170   2 -1.725242E+05 -2.171065E+04 -2.533787E+04  4.130035E+03  5.458201E+03  3.712379E+03
       170   3 -1.832380E+05 -3.311092E+04 -3.452619E+04  8.783320E+03  9.785504E+03  1.210437E+03
       170   4 -8.349975E+04  4.571505E+02 -2.742257E+03  5.333723E+03  2.108538E+03  3.670212E+03
       170   5 -8.223572E+04  5.041389E+02 -4.559671E+03  3.034285E+03  4.542526E+03  3.711928E+03
       170   6 -8.350055E+04 -8.293041E+03 -1.017302E+04  5.337454E+03  6.977508E+03  1.209231E+03
       170   7 -2.325382E+03  2.039767E+04  1.577531E+04  6.588293E+03  3.085414E+03  3.670653E+03
       170   8  8.060294E+03  2.271836E+04  1.621799E+04  1.938374E+03  3.626718E+03  3.711480E+03
       170   9  1.624604E+04  1.652415E+04  1.417945E+04  1.891032E+03  4.169061E+03  1.208055E+03
       170  10 -1.646680E+05 -1.948383E+04 -2.126027E+04  4.079314E+03  1.345173E-09 -7.303270E-10
       170  11 -1.725242E+05 -2.171067E+04 -2.533795E+04  4.130019E+03  1.199681E-09  9.027602E-10
       170  12 -1.832381E+05 -3.311095E+04 -3.452637E+04  8.783311E+03  1.116732E-09  1.168556E-09
       170  13 -8.349976E+04  4.571348E+02 -2.742290E+03  5.333717E+03 -5.406704E-10  4.847571E-10
       170  14 -8.223575E+04  5.041185E+02 -4.559736E+03  3.034272E+03 -2.514811E-10  1.375935E-09
       170  15 -8.350060E+04 -8.293056E+03 -1.017312E+04  5.337447E+03  9.574685E-12  1.209135E-09
       170  16 -2.325396E+03  2.039765E+04  1.577526E+04  6.588284E+03 -1.352837E-09  6.884046E-10
       170  17  8.060277E+03  2.271834E+04  1.621794E+04  1.938364E+03 -1.422512E-09  1.273182E-09
       170  18  1.624602E+04  1.652414E+04  1.417942E+04  1.891028E+03 -1.333530E-09 -2.983460E-10
       170  19 -1.646680E+05 -1.948382E+04 -2.126025E+04  4.079317E+03 -1.131789E+03 -3.669775E+03
       170  20 -1.725242E+05 -2.171065E+04 -2.533787E+04  4.130035E+03 -5.458201E+03 -3.712379E+03
       170  21 -1.832380E+05 -3.311092E+04 -3.452619E+04  8.783320E+03 -9.785504E+03 -1.210437E+03
       170  22 -8.349975E+04  4.571505E+02 -2.742257E+03  5.333723E+03 -2.108538E+03 -3.670212E+03
       170  23 -8.223572E+04  5.041389E+02 -4.559671E+03  3.034285E+03 -4.542526E+03 -3.711928E+03
       170  24 -8.350055E+04 -8.293041E+03 -1.017302E+04  5.337454E+03 -6.977508E+03 -1.209231E+03
       170  25 -2.325382E+03  2.039767E+04  1.577531E+04  6.588293E+03 -3.085414E+03 -3.670653E+03
       170  26  8.060294E+03  2.271836E+04  1.621799E+04  1.938374E+03 -3.626718E+03 -3.711480E+03
       170  27  1.624604E+04  1.652415E+04  1.417945E+04  1.891032E+03 -4.169061E+03 -1.208055E+03
       171   1 -5.695531E+04 -2.191477E+05 -5.544559E+04  4.984759E+04 -2.384585E+03 -1.703491E+04
       171   2 -3.962341E+04 -1.713213E+05 -3.488969E+04  4.270117E+04 -7.258600E+03 -7.034527E+03
       171   3 -2.715068E+04 -1.259990E+05 -2.205984E+04  4.595385E+04 -6.960784E+03  2.968577E+03
       171   4 -5.695069E+03 -1.208500E+04 -6.247978E+03  4.632189E+04 -2.387622E+03 -4.689425E+03
       171   5 -1.246410E+03 -1.157284E+04 -2.775391E+03  4.112300E+04 -7.259315E+03 -3.250471E+03
       171   6 -1.695971E+02 -1.208016E+04 -1.081766E+03  4.632326E+04 -6.959722E+03 -1.809721E+03
       171   7  4.556221E+04  1.950174E+05  4.294722E+04  4.279501E+04 -2.390799E+03  7.660155E+03
       171   8  3.712903E+04  1.482000E+05  2.933766E+04  3.954443E+04 -7.260048E+03  5.345393E+02
       171   9  2.681076E+04  1.018514E+05  1.989585E+04  4.669274E+04 -6.958665E+03 -6.588874E+03
       171  10 -5.695539E+04 -2.191480E+05 -5.544615E+04  4.984755E+04  3.096447E-10  5.173631E-10
       171  11 -3.962348E+04 -1.713214E+05 -3.488988E+04  4.270112E+04 -1.430222E-10 -8.169000E-11
       171  12 -2.715073E+04 -1.259990E+05 -2.205994E+04  4.595386E+04 -8.564919E-11 -3.351872E-12
       171  13 -5.695081E+03 -1.208502E+04 -6.248030E+03  4.632188E+04  4.530104E-10 -1.315685E-10
       171  14 -1.246470E+03 -1.157287E+04 -2.775510E+03  4.112299E+04  3.816726E-10  1.341413E-10
       171  15 -1.696500E+02 -1.208017E+04 -1.081863E+03  4.632325E+04 -3.421381E-10  6.143114E-10
       171  16  4.556219E+04  1.950174E+05  4.294710E+04  4.279502E+04  4.432707E-10  2.220985E-10
       171  17  3.712897E+04  1.482000E+05  2.933756E+04  3.954443E+04  4.224366E-10  2.211886E-10
       171  18  2.681070E+04  1.018513E+05  1.989568E+04  4.669270E+04  3.065407E-10  5.052230E-10
       171  19 -5.695531E+04 -2.191477E+05 -5.544559E+04  4.984759E+04  2.384585E+03  1.703491E+04
       171  20 -3.962341E+04 -1.713213E+05 -3.488969E+04  4.270117E+04  7.258600E+03  7.034527E+03
       171  21 -2.715068E+04 -1.259990E+05 -2.205984E+04  4.595385E+04  6.960784E+03 -2.968577E+03
       171  22 -5.695069E+03 -1.208500E+04 -6.247978E+03  4.632189E+04  2.387622E+03  4.689425E+03
       171  23 -1.246410E+03 -1.157284E+04 -2.775391E+03  4.112300E+04  7.259315E+03  3.250471E+03
       171  24 -1.695971E+02 -1.208016E+04 -1.081766E+03  4.632326E+04  6.959722E+03  1.809721E+03
       171  25  4.556221E+04  1.950174E+05  4.294722E+04  4.279501E+04  2.390799E+03 -7.660155E+03
       171  26  3.712903E+04  1.482000E+05  2.933766E+04  3.954443E+04  7.260048E+03 -5.345393E+02
       171  27  2.681076E+04  1.018514E+05  1.989585E+04  4.669274E+04  6.958665E+03  6.588874E+03
       172   1 -1.996985E+04 -9.503984E+04 -1.569033E+04  4.640905E+04 -5.172181E+03  2.474701E+03
       172   2 -8.586987E+03 -4.853096E+04 -5.614526E+03  4.112397E+04 -2.567662E+03  2.333655E+03
       172   3  2.943539E+03 -1.957101E+03  4.591746E+03  4.655301E+04  1.864264E+02  2.192562E+03
       172   4 -2.809350E+02 -1.182891E+04 -4.620245E+02  4.639299E+04 -5.171333E+03 -1.714171E+03
       172   5  2.223564E+01 -1.188131E+04  7.804239E+02  4.103603E+04 -2.566824E+03 -2.103011E+03
       172   6  5.162109E+02 -1.182777E+04  2.325489E+03  4.639314E+04  1.872441E+02 -2.491889E+03
       172   7  1.940760E+04  7.138879E+04  1.476606E+04  4.637692E+04 -5.170485E+03 -5.903590E+03
       172   8  8.631396E+03  2.476969E+04  7.175400E+03  4.094808E+04 -2.565986E+03 -6.539932E+03
       172   9 -1.911112E+03 -2.169830E+04  5.930860E+01  4.623327E+04  1.880641E+02 -7.176266E+03
       172  10 -1.996988E+04 -9.503985E+04 -1.569039E+04  4.640906E+04  1.283760E-10  6.155081E-10
       172  11 -8.586996E+03 -4.853097E+04 -5.614548E+03  4.112398E+04  3.077202E-11 -2.407835E-10
       172  12  2.943537E+03 -1.957106E+03  4.591737E+03  4.655301E+04 -9.618422E-11 -8.249670E-10
       172  13 -2.809645E+02 -1.182892E+04 -4.620803E+02  4.639298E+04 -1.116090E-10  4.029803E-10
       172  14  2.222737E+01 -1.188132E+04  7.804032E+02  4.103603E+04 -6.261366E-11  2.047691E-10
       172  15  5.162092E+02 -1.182778E+04  2.325478E+03  4.639314E+04 -2.539825E-11  2.941767E-10
       172  16  1.940756E+04  7.138875E+04  1.476595E+04  4.637690E+04  2.419918E-11 -5.579974E-11
       172  17  8.631378E+03  2.476964E+04  7.175307E+03  4.094807E+04  6.360258E-10  1.734572E-10
       172  18 -1.911126E+03 -2.169835E+04  5.921176E+01  4.623327E+04  5.233435E-10  1.022662E-09
       172  19 -1.996985E+04 -9.503984E+04 -1.569033E+04  4.640905E+04  5.172181E+03 -2.474701E+03
       172  20 -8.586987E+03 -4.853096E+04 -5.614526E+03  4.112397E+04  2.567662E+03 -2.333655E+03
       172  21  2.943539E+03 -1.957101E+03  4.591746E+03  4.655301E+04 -1.864264E+02 -2.192562E+03
       172  22 -2.809350E+02 -1.182891E+04 -4.620245E+02  4.639299E+04  5.171333E+03  1.714171E+03
       172  23  2.223564E+01 -1.188131E+04  7.804239E+02  4.103603E+04  2.566824E+03  2.103011E+03
       172  24  5.162109E+02 -1.182777E+04  2.325489E+03  4.639314E+04 -1.872441E+02  2.491889E+03
       172  25  1.940760E+04  7.138879E+04  1.476606E+04  4.637692E+04  5.170485E+03  5.903590E+03
       172  26  8.631396E+03  2.476969E+04  7.175400E+03  4.094808E+04  2.565986E+03  6.539932E+03
       172  27 -1.911112E+03 -2.169830E+04  5.930860E+01  4.623327E+04 -1.880641E+02  7.176266E+03
       173   1  9.984840E+03  2.914880E+04  1.119712E+04  4.558019E+04  2.048938E+03  2.152088E+03
       173   2  2.347497E+04  7.410806E+04  2.434903E+04  4.441935E+04  3.378349E+03 -6.830829E+03
       173   3  4.513230E+04  1.222881E+05  4.539209E+04  5.377979E+04  1.265222E+03 -1.581532E+04
       173   4  3.002767E+02 -1.135599E+04  3.280394E+03  4.634982E+04  2.049848E+03 -2.897213E+03
       173   5  2.560617E+03 -1.247241E+04  6.346094E+03  4.109056E+04  3.378293E+03 -6.178551E+03
       173   6  1.199929E+04 -1.135853E+04  1.334437E+04  4.635242E+04  1.264100E+03 -9.460847E+03
       173   7 -9.384369E+03 -5.185915E+04 -4.636314E+03  4.711940E+04  2.050744E+03 -7.946192E+03
       173   8 -1.835418E+04 -9.904576E+04 -1.165724E+04  3.776224E+04  3.378231E+03 -5.526361E+03
       173   9 -2.113480E+04 -1.449886E+05 -1.870444E+04  3.892666E+04  1.262825E+03 -3.107737E+03
       173  10  9.984834E+03  2.914880E+04  1.119710E+04  4.558019E+04  7.436019E-11  3.949497E-10
       173  11  2.347495E+04  7.410801E+04  2.434892E+04  4.441937E+04  4.178385E-11  1.410035E-10
       173  12  4.513224E+04  1.222879E+05  4.539162E+04  5.377980E+04  2.433150E-10 -1.133035E-10
       173  13  3.002699E+02 -1.135600E+04  3.280371E+03  4.634982E+04 -3.812669E-10  1.304381E-10
       173  14  2.560594E+03 -1.247245E+04  6.346000E+03  4.109058E+04 -4.034252E-10  2.032374E-10
       173  15  1.199926E+04 -1.135863E+04  1.334420E+04  4.635243E+04  1.927788E-10  3.254123E-10
       173  16 -9.384391E+03 -5.185922E+04 -4.636441E+03  4.711941E+04  2.112797E-10  1.786108E-11
       173  17 -1.835420E+04 -9.904579E+04 -1.165732E+04  3.776226E+04  3.756653E-10  7.073802E-11
       173  18 -2.113480E+04 -1.449887E+05 -1.870446E+04  3.892666E+04  3.565160E-10  5.285179E-10
       173  19  9.984840E+03  2.914880E+04  1.119712E+04  4.558019E+04 -2.048938E+03 -2.152088E+03
       173  20  2.347497E+04  7.410806E+04  2.434903E+04  4.441935E+04 -3.378349E+03  6.830829E+03
       173  21  4.513230E+04  1.222881E+05  4.539209E+04  5.377979E+04 -1.265222E+03  1.581532E+04
       173  22  3.002767E+02 -1.135599E+04  3.280394E+03  4.634982E+04 -2.049848E+03  2.897213E+03
       173  23  2.560617E+03 -1.247241E+04  6.346094E+03  4.109056E+04 -3.378293E+03  6.178551E+03
       173  24  1.199929E+04 -1.135853E+04  1.334437E+04  4.635242E+04 -1.264100E+03  9.460847E+03
       173  25 -9.384369E+03 -5.185915E+04 -4.636314E+03  4.711940E+04 -2.050744E+03  7.946192E+03
       173  26 -1.835418E+04 -9.904576E+04 -1.165724E+04  3.776224E+04 -3.378231E+03  5.526361E+03
       173  27 -2.113480E+04 -1.449886E+05 -1.870444E+04  3.892666E+04 -1.262825E+03  3.107737E+03
       174   1  1.946034E+05  7.207019E+04  4.570726E+04  6.958854E+04  1.877281E+04  5.943039E+03
       174   2  1.876513E+05  4.452301E+04  2.829614E+04  6.869615E+04  1.220004E+04  1.182944E+03
       174   3  1.873283E+05  4.052888E+04  2.214443E+04  6.505068E+04  4.860780E+03 -1.535061E+03
       174   4  1.252448E+05  3.840086E+04  2.558617E+04  4.291106E+04  1.665999E+04  5.149562E+03
       174   5  1.207104E+05  1.710699E+04  1.090696E+04  4.791390E+04  1.151076E+04  9.240730E+02
       174   6  1.225241E+05  1.908561E+04  6.360555E+03  5.016354E+04  5.594887E+03 -1.259418E+03
       174   7  5.589181E+04  4.733244E+03  5.464896E+03  1.623692E+04  1.454746E+04  4.356257E+03
       174   8  5.377421E+04 -1.030839E+04 -6.482542E+03  2.713385E+04  1.082156E+04  6.652404E+02
       174   9  5.772360E+04 -2.357720E+03 -9.423723E+03  3.527763E+04  6.328915E+03 -9.837977E+02
       174  10  1.946030E+05  7.207006E+04  4.570653E+04  6.958845E+04 -8.080733E-10 -2.831890E-10
       174  11  1.876512E+05  4.452297E+04  2.829586E+04  6.869614E+04  5.554784E-10 -4.299712E-10
       174  12  1.873282E+05  4.052887E+04  2.214438E+04  6.505068E+04 -7.183638E-10  5.136057E-11
       174  13  1.252445E+05  3.840075E+04  2.558560E+04  4.291099E+04  5.063202E-11  4.905914E-10
       174  14  1.207103E+05  1.710696E+04  1.090671E+04  4.791390E+04 -7.490151E-10 -7.950086E-10
       174  15  1.225240E+05  1.908560E+04  6.360493E+03  5.016355E+04 -1.036853E-09  1.105585E-09
       174  16  5.589158E+04  4.733167E+03  5.464463E+03  1.623687E+04  4.937530E-10  5.852986E-10
       174  17  5.377408E+04 -1.030843E+04 -6.482763E+03  2.713384E+04 -8.035737E-10  6.250495E-10
       174  18  5.772356E+04 -2.357732E+03 -9.423800E+03  3.527763E+04 -7.213730E-10  4.016970E-10
       174  19  1.946034E+05  7.207019E+04  4.570726E+04  6.958854E+04 -1.877281E+04 -5.943039E+03
       174  20  1.876513E+05  4.452301E+04  2.829614E+04  6.869615E+04 -1.220004E+04 -1.182944E+03
       174  21  1.873283E+05  4.052888E+04  2.214443E+04  6.505068E+04 -4.860780E+03  1.535061E+03
       174  22  1.252448E+05  3.840086E+04  2.558617E+04  4.291106E+04 -1.665999E+04 -5.149562E+03
       174  23  1.207104E+05  1.710699E+04  1.090696E+04  4.791390E+04 -1.151076E+04 -9.240730E+02
       174  24  1.225241E+05  1.908561E+04  6.360555E+03  5.016354E+04 -5.594887E+03  1.259418E+03
       174  25  5.589181E+04  4.733244E+03  5.464896E+03  1.623692E+04 -1.454746E+04 -4.356257E+03
       174  26  5.377421E+04 -1.030839E+04 -6.482542E+03  2.713385E+04 -1.082156E+04 -6.652404E+02
       174  27  5.772360E+04 -2.357720E+03 -9.423723E+03  3.527763E+04 -6.328915E+03  9.837977E+02
       175   1  1.782101E+05  4.298704E+04  1.947924E+04  6.480929E+04  4.483026E+03 -1.185562E+03
       175   2  1.731695E+05  3.771638E+04  1.538729E+04  6.200301E+04  3.027107E+03 -1.508549E+03
       175   3  1.665942E+05  3.648210E+04  1.278105E+04  6.149246E+04  1.531955E+03 -1.727048E+03
       175   4  1.216926E+05  2.135980E+04  5.101694E+03  4.882542E+04  4.583015E+03 -1.148039E+03
       175   5  1.223614E+05  1.859793E+04  2.555700E+03  4.795961E+04  3.200016E+03 -1.443633E+03
       175   6  1.214811E+05  1.985806E+04  1.437746E+03  4.938949E+04  1.777771E+03 -1.634742E+03
       175   7  6.517818E+04 -2.671848E+02 -9.276103E+03  3.284288E+04  4.682994E+03 -1.110520E+03
       175   8  7.155592E+04 -5.203032E+02 -1.027607E+04  3.391729E+04  3.372909E+03 -1.378724E+03
       175   9  7.637017E+04  3.234200E+03 -9.905666E+03  3.728736E+04  2.023566E+03 -1.542443E+03
       175  10  1.782101E+05  4.298703E+04  1.947919E+04  6.480930E+04 -1.284050E-09 -9.112475E-10
       175  11  1.731695E+05  3.771637E+04  1.538727E+04  6.200301E+04 -6.626166E-11  1.387521E-09
       175  12  1.665942E+05  3.648210E+04  1.278104E+04  6.149246E+04 -5.214514E-11  3.784584E-10
       175  13  1.216926E+05  2.135979E+04  5.101652E+03  4.882542E+04 -9.369478E-10  6.040858E-10
       175  14  1.223614E+05  1.859792E+04  2.555677E+03  4.795962E+04  3.436100E-10 -9.611170E-10
       175  15  1.214811E+05  1.985805E+04  1.437735E+03  4.938949E+04  4.544400E-10 -4.650414E-10
       175  16  6.517816E+04 -2.671920E+02 -9.276147E+03  3.284289E+04  2.688825E-10 -2.377279E-10
       175  17  7.155591E+04 -5.203083E+02 -1.027609E+04  3.391729E+04 -4.183928E-11 -3.219551E-10
       175  18  7.637017E+04  3.234196E+03 -9.905678E+03  3.728736E+04  7.066925E-10 -9.552214E-11
       175  19  1.782101E+05  4.298704E+04  1.947924E+04  6.480929E+04 -4.483026E+03  1.185562E+03
       175  20  1.731695E+05  3.771638E+04  1.538729E+04  6.200301E+04 -3.027107E+03  1.508549E+03
       175  21  1.665942E+05  3.648210E+04  1.278105E+04  6.149246E+04 -1.531955E+03  1.727048E+03
       175  22  1.216926E+05  2.135980E+04  5.101694E+03  4.882542E+04 -4.583015E+03  1.148039E+03
       175  23  1.223614E+05  1.859793E+04  2.555700E+03  4.795961E+04 -3.200016E+03  1.443633E+03
       175  24  1.214811E+05  1.985806E+04  1.437746E+03  4.938949E+04 -1.777771E+03  1.634742E+03
       175  25  6.517818E+04 -2.671848E+02 -9.276103E+03  3.284288E+04 -4.682994E+03  1.110520E+03
       175  26  7.155592E+04 -5.203032E+02 -1.027607E+04  3.391729E+04 -3.372909E+03  1.378724E+03
       175  27  7.637017E+04  3.234200E+03 -9.905666E+03  3.728736E+04 -2.023566E+03  1.542443E+03
       176   1  1.604568E+05  3.464077E+04  1.093244E+04  5.999124E+04  1.287456E+03 -1.595336E+03
       176   2  1.556365E+05  3.110944E+04  8.940013E+03  5.703570E+04  8.696534E+02 -1.400263E+03
       176   3  1.485634E+05  3.005696E+04  7.208025E+03  5.673735E+04  4.498997E+02 -1.200053E+03
       176   4  1.213971E+05  2.002785E+04  1.104473E+03  4.927732E+04  1.500571E+03 -1.515306E+03
       176   5  1.225160E+05  1.873291E+04  5.936577E+02  4.796971E+04  1.086370E+03 -1.318873E+03
       176   6  1.213814E+05  1.991615E+04  3.404807E+02  4.931931E+04  6.702153E+02 -1.117305E+03
       176   7  8.233877E+04  5.414974E+03 -8.723665E+03  3.856397E+04  1.713672E+03 -1.435281E+03
       176   8  8.939655E+04  6.356419E+03 -7.752805E+03  3.890414E+04  1.303074E+03 -1.237488E+03
       176   9  9.420021E+04  9.775389E+03 -6.527123E+03  4.190156E+04  8.905205E+02 -1.034560E+03
       176  10  1.604568E+05  3.464077E+04  1.093244E+04  5.999124E+04 -7.949490E-10 -2.264004E-09
       176  11  1.556365E+05  3.110944E+04  8.940008E+03  5.703570E+04 -5.454566E-09 -2.695802E-09
       176  12  1.485634E+05  3.005696E+04  7.208022E+03  5.673735E+04 -3.087100E-09 -5.774366E-11
       176  13  1.213971E+05  2.002785E+04  1.104464E+03  4.927732E+04 -1.644177E-09 -2.206452E-09
       176  14  1.225160E+05  1.873290E+04  5.936522E+02  4.796971E+04 -6.540992E-09 -2.442278E-09
       176  15  1.213814E+05  1.991615E+04  3.404775E+02  4.931931E+04 -3.152880E-09  4.146033E-10
       176  16  8.233877E+04  5.414971E+03 -8.723674E+03  3.856397E+04 -2.500898E-09 -1.327526E-09
       176  17  8.939654E+04  6.356417E+03 -7.752811E+03  3.890414E+04 -3.858479E-09  2.243552E-10
       176  18  9.420021E+04  9.775388E+03 -6.527127E+03  4.190156E+04  1.458052E-09 -2.182781E-10
       176  19  1.604568E+05  3.464077E+04  1.093244E+04  5.999124E+04 -1.287456E+03  1.595336E+03
       176  20  1.556365E+05  3.110944E+04  8.940013E+03  5.703570E+04 -8.696534E+02  1.400263E+03
       176  21  1.485634E+05  3.005696E+04  7.208025E+03  5.673735E+04 -4.498997E+02  1.200053E+03
       176  22  1.213971E+05  2.002785E+04  1.104473E+03  4.927732E+04 -1.500571E+03  1.515306E+03
       176  23  1.225160E+05  1.873291E+04  5.936577E+02  4.796971E+04 -1.086370E+03  1.318873E+03
       176  24  1.213814E+05  1.991615E+04  3.404807E+02  4.931931E+04 -6.702153E+02  1.117305E+03
       176  25  8.233877E+04  5.414974E+03 -8.723665E+03  3.856397E+04 -1.713672E+03  1.435281E+03
       176  26  8.939655E+04  6.356419E+03 -7.752805E+03  3.890414E+04 -1.303074E+03  1.237488E+03
       176  27  9.420021E+04  9.775389E+03 -6.527123E+03  4.190156E+04 -8.905205E+02  1.034560E+03
       177   1  1.426873E+05  2.788789E+04  5.616057E+03  5.514429E+04  3.327896E+02 -1.034646E+03
       177   2  1.379029E+05  2.449098E+04  4.045635E+03  5.217937E+04  1.287593E+02 -7.532394E+02
       177   3  1.307949E+05  2.344567E+04  2.542247E+03  5.188968E+04 -7.533521E+01 -4.716734E+02
       177   4  1.213714E+05  1.992687E+04  2.662842E+02  4.930875E+04  5.513563E+02 -9.525508E+02
       177   5  1.225328E+05  1.874768E+04  1.724628E+02  4.797242E+04  3.474398E+02 -6.710991E+02
       177   6  1.213705E+05  1.992008E+04  1.455897E+02  4.931134E+04  1.434576E+02 -3.894874E+02
       177   7  1.000560E+05  1.196592E+04 -5.083501E+03  4.347341E+04  7.699140E+02 -8.704594E+02
       177   8  1.071629E+05  1.300440E+04 -3.700728E+03  4.376558E+04  5.661144E+02 -5.889610E+02
       177   9  1.119462E+05  1.639448E+04 -2.251085E+03  4.673302E+04  3.622476E+02 -3.073024E+02
       177  10  1.426873E+05  2.788789E+04  5.616055E+03  5.514429E+04  1.786870E-09  2.597695E-09
       177  11  1.379029E+05  2.449098E+04  4.045634E+03  5.217937E+04 -6.495772E-10  1.700723E-09
       177  12  1.307949E+05  2.344566E+04  2.542247E+03  5.188968E+04 -1.462055E-09  4.722096E-10
       177  13  1.213714E+05  1.992687E+04  2.662819E+02  4.930875E+04 -1.094772E-09  1.022295E-09
       177  14  1.225328E+05  1.874768E+04  1.724617E+02  4.797243E+04 -2.254033E-09 -1.630730E-09
       177  15  1.213705E+05  1.992008E+04  1.455893E+02  4.931134E+04 -8.914410E-10 -6.587075E-10
       177  16  1.000560E+05  1.196591E+04 -5.083503E+03  4.347341E+04 -7.338028E-11 -9.511876E-10
       177  17  1.071629E+05  1.300440E+04 -3.700730E+03  4.376558E+04 -1.482160E-09 -2.117589E-09
       177  18  1.119462E+05  1.639448E+04 -2.251086E+03  4.673302E+04  1.134195E-09 -8.832492E-10
       177  19  1.426873E+05  2.788789E+04  5.616057E+03  5.514429E+04 -3.327896E+02  1.034646E+03
       177  20  1.379029E+05  2.449098E+04  4.045635E+03  5.217937E+04 -1.287593E+02  7.532394E+02
       177  21  1.307949E+05  2.344567E+04  2.542247E+03  5.188968E+04  7.533521E+01  4.716734E+02
       177  22  1.213714E+05  1.992687E+04  2.662842E+02  4.930875E+04 -5.513563E+02  9.525508E+02
       177  23  1.225328E+05  1.874768E+04  1.724628E+02  4.797242E+04 -3.474398E+02  6.710991E+02
       177  24  1.213705E+05  1.992008E+04  1.455897E+02  4.931134E+04 -1.434576E+02  3.894874E+02
       177  25  1.000560E+05  1.196592E+04 -5.083501E+03  4.347341E+04 -7.699140E+02  8.704594E+02
       177  26  1.071629E+05  1.300440E+04 -3.700728E+03  4.376558E+04 -5.661144E+02  5.889610E+02
       177  27  1.119462E+05  1.639448E+04 -2.251085E+03  4.673302E+04 -3.622476E+02  3.073024E+02
       178   1  1.249476E+05  2.125534E+04  1.031368E+03  5.029479E+04 -1.685713E+02 -2.981639E+02
       178   2  1.201651E+05  1.786634E+04 -3.910625E+02  4.732816E+04 -3.885165E+02 -2.265034E+01
       178   3  1.130634E+05  1.683112E+04 -1.733811E+03  4.703551E+04 -6.083829E+02  2.526798E+02
       178   4  1.213714E+05  1.991974E+04  1.513563E+02  4.931136E+04  5.016816E+01 -2.159968E+02
       178   5  1.225316E+05  1.874749E+04  2.047265E+02  4.797265E+04 -1.699093E+02  5.946631E+01
       178   6  1.213727E+05  1.992902E+04  3.378741E+02  4.930787E+04 -3.899087E+02  3.347455E+02
       178   7  1.177952E+05  1.858414E+04 -7.286559E+02  4.832794E+04  2.689062E+02 -1.338303E+02
       178   8  1.248982E+05  1.962864E+04  8.005138E+02  4.861713E+04  4.869840E+01  1.415831E+02
       178   9  1.296820E+05  2.302692E+04  2.409545E+03  5.158026E+04 -1.714323E+02  4.168120E+02
       178  10  1.249476E+05  2.125534E+04  1.031368E+03  5.029479E+04 -4.515728E-09  4.710399E-10
       178  11  1.201651E+05  1.786634E+04 -3.910627E+02  4.732816E+04 -1.409918E-09  1.931338E-10
       178  12  1.130634E+05  1.683112E+04 -1.733812E+03  4.703551E+04  3.926723E-09  3.274721E-09
       178  13  1.213714E+05  1.991974E+04  1.513562E+02  4.931136E+04 -8.244498E-10 -1.074172E-10
       178  14  1.225316E+05  1.874749E+04  2.047264E+02  4.797265E+04 -1.940792E-09 -3.643271E-10
       178  15  1.213727E+05  1.992902E+04  3.378736E+02  4.930788E+04  3.735634E-10 -2.845444E-09
       178  16  1.177952E+05  1.858414E+04 -7.286561E+02  4.832794E+04  3.525080E-09  1.894348E-10
       178  17  1.248982E+05  1.962864E+04  8.005138E+02  4.861713E+04 -7.005432E-10  1.173365E-09
       178  18  1.296820E+05  2.302692E+04  2.409544E+03  5.158026E+04 -3.193391E-09 -1.665085E-10
       178  19  1.249476E+05  2.125534E+04  1.031368E+03  5.029479E+04  1.685713E+02  2.981639E+02
       178  20  1.201651E+05  1.786634E+04 -3.910625E+02  4.732816E+04  3.885165E+02  2.265034E+01
       178  21  1.130634E+05  1.683112E+04 -1.733811E+03  4.703551E+04  6.083829E+02 -2.526798E+02
       178  22  1.213714E+05  1.991974E+04  1.513563E+02  4.931136E+04 -5.016816E+01  2.159968E+02
       178  23  1.225316E+05  1.874749E+04  2.047265E+02  4.797265E+04  1.699093E+02 -5.946631E+01
       178  24  1.213727E+05  1.992902E+04  3.378741E+02  4.930787E+04  3.899087E+02 -3.347455E+02
       178  25  1.177952E+05  1.858414E+04 -7.286559E+02  4.832794E+04 -2.689062E+02  1.338303E+02
       178  26  1.248982E+05  1.962864E+04  8.005138E+02  4.861713E+04 -4.869840E+01 -1.415831E+02
       178  27  1.296820E+05  2.302692E+04  2.409545E+03  5.158026E+04  1.714323E+02 -4.168120E+02
       179   1  1.072108E+05  1.464238E+04 -3.150248E+03  4.547227E+04 -7.425206E+02  4.114227E+02
       179   2  1.024060E+05  1.121896E+04 -4.290538E+03  4.246957E+04 -1.246806E+03  5.796778E+02
       179   3  9.537763E+04  1.031262E+04 -5.096578E+03  4.211368E+04 -1.749446E+03  7.435792E+02
       179   4  1.213868E+05  1.991432E+04  4.383806E+02  4.932103E+04 -5.226186E+02  4.940234E+02
       179   5  1.225086E+05  1.872901E+04  7.751499E+02  4.796997E+04 -1.029951E+03  6.611305E+02
       179   6  1.214075E+05  2.006143E+04  1.448608E+03  4.926573E+04 -1.535639E+03  8.238827E+02
       179   7  1.355631E+05  2.518630E+04  4.027009E+03  5.316989E+04 -3.027102E+02  5.766263E+02
       179   8  1.426117E+05  2.623910E+04  5.840818E+03  5.347054E+04 -8.130868E+02  7.425863E+02
       179   9  1.474380E+05  2.981027E+04  7.993743E+03  5.641806E+04 -1.321823E+03  9.041898E+02
       179  10  1.072108E+05  1.464238E+04 -3.150249E+03  4.547227E+04 -3.955298E-09 -9.652433E-10
       179  11  1.024060E+05  1.121896E+04 -4.290541E+03  4.246958E+04 -1.437238E-09 -6.977386E-11
       179  12  9.537762E+04  1.031262E+04 -5.096585E+03  4.211368E+04  3.564380E-09  1.690819E-09
       179  13  1.213868E+05  1.991432E+04  4.383797E+02  4.932103E+04  2.585883E-10 -2.317442E-09
       179  14  1.225086E+05  1.872901E+04  7.751471E+02  4.796997E+04 -1.710982E-09 -1.770320E-09
       179  15  1.214075E+05  2.006142E+04  1.448603E+03  4.926573E+04 -7.550206E-10 -7.698215E-10
       179  16  1.355631E+05  2.518630E+04  4.027009E+03  5.316989E+04  4.271727E-09  4.486168E-09
       179  17  1.426117E+05  2.623910E+04  5.840815E+03  5.347054E+04 -9.945288E-10  1.790971E-09
       179  18  1.474380E+05  2.981027E+04  7.993738E+03  5.641806E+04 -4.636997E-09 -3.015378E-09
       179  19  1.072108E+05  1.464238E+04 -3.150248E+03  4.547227E+04  7.425206E+02 -4.114227E+02
       179  20  1.024060E+05  1.121896E+04 -4.290538E+03  4.246957E+04  1.246806E+03 -5.796778E+02
       179  21  9.537763E+04  1.031262E+04 -5.096578E+03  4.211368E+04  1.749446E+03 -7.435792E+02
       179  22  1.213868E+05  1.991432E+04  4.383806E+02  4.932103E+04  5.226186E+02 -4.940234E+02
       179  23  1.225086E+05  1.872901E+04  7.751499E+02  4.796997E+04  1.029951E+03 -6.611305E+02
       179  24  1.214075E+05  2.006143E+04  1.448608E+03  4.926573E+04  1.535639E+03 -8.238827E+02
       179  25  1.355631E+05  2.518630E+04  4.027009E+03  5.316989E+04  3.027102E+02 -5.766263E+02
       179  26  1.426117E+05  2.623910E+04  5.840818E+03  5.347054E+04  8.130868E+02 -7.425863E+02
       179  27  1.474380E+05  2.981027E+04  7.993743E+03  5.641806E+04  1.321823E+03 -9.041898E+02
       180   1  8.938806E+04  8.140663E+03 -6.171505E+03  4.094199E+04 -2.116468E+03  8.264949E+02
       180   2  8.457503E+04  4.279568E+03 -6.186210E+03  3.745165E+04 -3.889437E+03  5.057708E+02
       180   3  7.845527E+04  4.952083E+03 -4.372475E+03  3.613171E+04 -5.629739E+03  9.817597E+01
       180   4  1.215186E+05  1.983810E+04  1.887306E+03  4.941295E+04 -1.875492E+03  9.170005E+02
       180   5  1.223050E+05  1.855217E+04  3.357126E+03  4.795707E+04 -3.709092E+03  5.734936E+02
       180   6  1.217966E+05  2.181172E+04  6.703322E+03  4.867154E+04 -5.510051E+03  1.431072E+02
       180   7  1.536501E+05  3.153555E+04  9.946000E+03  5.788427E+04 -1.634502E+03  1.007511E+03
       180   8  1.600364E+05  3.282488E+04  1.290035E+04  5.846307E+04 -3.528736E+03  6.412210E+02
       180   9  1.651400E+05  3.867159E+04  1.777901E+04  6.121222E+04 -5.390354E+03  1.880425E+02
       180  10  8.938806E+04  8.140661E+03 -6.171515E+03  4.094199E+04  3.239181E-10  1.113091E-09
       180  11  8.457501E+04  4.279564E+03 -6.186239E+03  3.745165E+04 -3.082458E-10  4.814768E-10
       180  12  7.845524E+04  4.952075E+03 -4.372535E+03  3.613171E+04  3.410996E-09  3.346946E-09
       180  13  1.215186E+05  1.983810E+04  1.887298E+03  4.941295E+04 -1.832200E-09 -2.622390E-09
       180  14  1.223050E+05  1.855217E+04  3.357099E+03  4.795707E+04 -3.035167E-09 -4.258758E-09
       180  15  1.217966E+05  2.181171E+04  6.703265E+03  4.867154E+04  2.718894E-10  5.038986E-10
       180  16  1.536501E+05  3.153555E+04  9.945993E+03  5.788428E+04 -3.635300E-09 -4.304607E-09
       180  17  1.600364E+05  3.282488E+04  1.290032E+04  5.846308E+04 -6.332272E-09 -2.044035E-09
       180  18  1.651399E+05  3.867158E+04  1.777896E+04  6.121222E+04 -3.514703E-09 -2.415435E-09
       180  19  8.938806E+04  8.140663E+03 -6.171505E+03  4.094199E+04  2.116468E+03 -8.264949E+02
       180  20  8.457503E+04  4.279568E+03 -6.186210E+03  3.745165E+04  3.889437E+03 -5.057708E+02
       180  21  7.845527E+04  4.952083E+03 -4.372475E+03  3.613171E+04  5.629739E+03 -9.817597E+01
       180  22  1.215186E+05  1.983810E+04  1.887306E+03  4.941295E+04  1.875492E+03 -9.170005E+02
       180  23  1.223050E+05  1.855217E+04  3.357126E+03  4.795707E+04  3.709092E+03 -5.734936E+02
       180  24  1.217966E+05  2.181172E+04  6.703322E+03  4.867154E+04  5.510051E+03 -1.431072E+02
       180  25  1.536501E+05  3.153555E+04  9.946000E+03  5.788427E+04  1.634502E+03 -1.007511E+03
       180  26  1.600364E+05  3.282488E+04  1.290035E+04  5.846307E+04  3.528736E+03 -6.412210E+02
       180  27  1.651400E+05  3.867159E+04  1.777901E+04  6.121222E+04  5.390354E+03 -1.880425E+02
       181   1  7.052941E+04  2.901977E+03 -4.141063E+03  3.985120E+04 -7.419790E+03 -1.308046E+02
       181   2  6.682874E+04 -6.486425E+03  2.518395E+02  3.006280E+04 -1.402398E+04 -2.519308E+03
       181   3  7.195720E+04  1.375320E+04  1.702344E+04  1.583230E+04 -1.999092E+04 -6.604717E+03
       181   4  1.228844E+05  1.882835E+04  8.357696E+03  5.043501E+04 -6.773104E+03  1.120883E+02
       181   5  1.201418E+05  1.658779E+04  1.433202E+04  4.789070E+04 -1.456030E+04 -2.720804E+03
       181   6  1.264612E+05  4.420767E+04  3.362127E+04  4.090469E+04 -2.171024E+04 -7.250679E+03
       181   7  1.752423E+05  3.475474E+04  2.085630E+04  6.101954E+04 -6.126356E+03  3.549945E+02
       181   8  1.734572E+05  3.966232E+04  2.841186E+04  6.571997E+04 -1.509666E+04 -2.922324E+03
       181   9  1.809675E+05  7.466311E+04  5.021858E+04  6.597904E+04 -2.342969E+04 -7.896762E+03
       181  10  7.052935E+04  2.901962E+03 -4.141166E+03  3.985120E+04 -2.353971E-09  1.257561E-09
       181  11  6.682853E+04 -6.486484E+03  2.514581E+02  3.006277E+04 -2.231320E-09 -2.157005E-09
       181  12  7.195676E+04  1.375304E+04  1.702261E+04  1.583219E+04 -3.510835E-10 -2.455561E-10
       181  13  1.228844E+05  1.882834E+04  8.357610E+03  5.043501E+04  1.459297E-09 -2.865941E-10
       181  14  1.201415E+05  1.658772E+04  1.433161E+04  4.789067E+04  3.765402E-10 -9.005142E-10
       181  15  1.264607E+05  4.420749E+04  3.362029E+04  4.090457E+04  1.373047E-10  5.125807E-11
       181  16  1.752423E+05  3.475473E+04  2.085623E+04  6.101954E+04  5.510812E-09 -1.161411E-10
       181  17  1.734570E+05  3.966225E+04  2.841142E+04  6.571993E+04  2.205754E-09  5.027906E-10
       181  18  1.809669E+05  7.466290E+04  5.021743E+04  6.597889E+04 -3.734022E-10  8.796333E-11
       181  19  7.052941E+04  2.901977E+03 -4.141063E+03  3.985120E+04  7.419790E+03  1.308046E+02
       181  20  6.682874E+04 -6.486425E+03  2.518395E+02  3.006280E+04  1.402398E+04  2.519308E+03
       181  21  7.195720E+04  1.375320E+04  1.702344E+04  1.583230E+04  1.999092E+04  6.604717E+03
       181  22  1.228844E+05  1.882835E+04  8.357696E+03  5.043501E+04  6.773104E+03 -1.120883E+02
       181  23  1.201418E+05  1.658779E+04  1.433202E+04  4.789070E+04  1.456030E+04  2.720804E+03
       181  24  1.264612E+05  4.420767E+04  3.362127E+04  4.090469E+04  2.171024E+04  7.250679E+03
       181  25  1.752423E+05  3.475474E+04  2.085630E+04  6.101954E+04  6.126356E+03 -3.549945E+02
       181  26  1.734572E+05  3.966232E+04  2.841186E+04  6.571997E+04  1.509666E+04  2.922324E+03
       181  27  1.809675E+05  7.466311E+04  5.021858E+04  6.597904E+04  2.342969E+04  7.896762E+03
       182   1 -3.876149E+04 -1.972762E+05 -3.907773E+04  2.347244E+04 -1.480068E+03 -6.453619E+03
       182   2 -2.495776E+04 -1.589368E+05 -2.588688E+04  1.293026E+04 -4.094427E+03 -2.380424E+03
       182   3 -1.582015E+04 -1.222719E+05 -1.651152E+04  2.124774E+04 -2.865508E+03  1.694337E+03
       182   4 -3.882378E+03 -5.721192E+04 -4.774104E+03  2.180577E+04 -1.481152E+03 -3.081021E+03
       182   5  2.280784E+02 -5.662100E+04 -2.288205E+03  1.237665E+04 -4.094532E+03 -1.866220E+03
       182   6  1.691539E+02 -5.720976E+04 -1.632150E+03  2.180709E+04 -2.864900E+03 -6.501481E+02
       182   7  3.099529E+04  8.287023E+04  2.952813E+04  2.013873E+04 -1.482254E+03  2.923369E+02
       182   8  2.541318E+04  4.570446E+04  2.130977E+04  1.182295E+04 -4.094638E+03 -1.351933E+03
       182   9  1.615817E+04  7.856349E+03  1.324697E+04  2.236649E+04 -2.864298E+03 -2.994877E+03
       182  10 -3.876150E+04 -1.972762E+05 -3.907781E+04  2.347243E+04  2.090436E-10 -5.439855E-10
       182  11 -2.495777E+04 -1.589368E+05 -2.588692E+04  1.293025E+04  6.347996E-10  6.083477E-10
       182  12 -1.582016E+04 -1.222719E+05 -1.651154E+04  2.124775E+04  2.492046E-10  4.951098E-10
       182  13 -3.882383E+03 -5.721193E+04 -4.774126E+03  2.180577E+04  1.098371E-10 -2.548644E-10
       182  14  2.280595E+02 -5.662101E+04 -2.288243E+03  1.237664E+04  2.277918E-10 -8.276303E-10
       182  15  1.691449E+02 -5.720976E+04 -1.632166E+03  2.180708E+04 -4.834146E-11 -3.139546E-10
       182  16  3.099529E+04  8.287023E+04  2.952813E+04  2.013873E+04 -1.876521E-10  1.426477E-10
       182  17  2.541316E+04  4.570446E+04  2.130974E+04  1.182294E+04  4.146660E-10  2.717057E-10
       182  18  1.615815E+04  7.856337E+03  1.324694E+04  2.236648E+04 -9.309157E-10 -7.813174E-10
       182  19 -3.876149E+04 -1.972762E+05 -3.907773E+04  2.347244E+04  1.480068E+03  6.453619E+03
       182  20 -2.495776E+04 -1.589368E+05 -2.588688E+04  1.293026E+04  4.094427E+03  2.380424E+03
       182  21 -1.582015E+04 -1.222719E+05 -1.651152E+04  2.124774E+04  2.865508E+03 -1.694337E+03
       182  22 -3.882378E+03 -5.721192E+04 -4.774104E+03  2.180577E+04  1.481152E+03  3.081021E+03
       182  23  2.280784E+02 -5.662100E+04 -2.288205E+03  1.237665E+04  4.094532E+03  1.866220E+03
       182  24  1.691539E+02 -5.720976E+04 -1.632150E+03  2.180709E+04  2.864900E+03  6.501481E+02
       182  25  3.099529E+04  8.287023E+04  2.952813E+04  2.013873E+04  1.482254E+03 -2.923369E+02
       182  26  2.541318E+04  4.570446E+04  2.130977E+04  1.182295E+04  4.094638E+03  1.351933E+03
       182  27  1.615817E+04  7.856349E+03  1.324697E+04  2.236649E+04  2.864298E+03  2.994877E+03
       183   1 -7.636911E+03 -8.700145E+04 -8.369631E+03  2.201529E+04 -1.306289E+03  8.339228E+02
       183   2  1.886857E+03 -4.938818E+04  3.215663E+02  1.232385E+04  3.289337E+02  1.523693E+03
       183   3  1.061251E+04 -1.204950E+04  8.366870E+03  2.162802E+04  1.946536E+03  2.213519E+03
       183   4 -2.645144E+02 -5.700864E+04 -1.503424E+03  2.183695E+04 -1.305993E+03 -3.892619E+02
       183   5  4.827823E+01 -5.686963E+04 -1.389402E+03  1.233911E+04  3.292349E+02  3.135904E+02
       183   6 -4.392285E+02 -5.700880E+04 -1.930293E+03  2.183690E+04  1.946839E+03  1.016457E+03
       183   7  7.107821E+03 -2.701499E+04  5.362729E+03  2.165859E+04 -1.305697E+03 -1.612505E+03
       183   8 -1.790304E+03 -6.435102E+04 -3.100368E+03  1.235436E+04  3.295361E+02 -8.964979E+02
       183   9 -1.149111E+04 -1.019662E+05 -1.222758E+04  2.204577E+04  1.947141E+03 -1.805179E+02
       183  10 -7.636913E+03 -8.700145E+04 -8.369636E+03  2.201530E+04 -3.278585E-10  3.738700E-10
       183  11  1.886856E+03 -4.938818E+04  3.215617E+02  1.232385E+04 -3.057836E-10  8.088502E-10
       183  12  1.061251E+04 -1.204951E+04  8.366853E+03  2.162802E+04  2.994018E-11 -4.725469E-10
       183  13 -2.645163E+02 -5.700864E+04 -1.503428E+03  2.183695E+04  2.500264E-10  8.049340E-10
       183  14  4.827808E+01 -5.686963E+04 -1.389402E+03  1.233911E+04 -2.342492E-10  1.468786E-11
       183  15 -4.392329E+02 -5.700880E+04 -1.930302E+03  2.183690E+04 -3.774867E-10  2.121066E-10
       183  16  7.107818E+03 -2.701499E+04  5.362721E+03  2.165859E+04 -5.543064E-10  4.336344E-10
       183  17 -1.790304E+03 -6.435102E+04 -3.100369E+03  1.235436E+04 -1.052295E-09 -8.425209E-10
       183  18 -1.149111E+04 -1.019662E+05 -1.222759E+04  2.204577E+04 -4.290244E-10  8.791075E-10
       183  19 -7.636911E+03 -8.700145E+04 -8.369631E+03  2.201529E+04  1.306289E+03 -8.339228E+02
       183  20  1.886857E+03 -4.938818E+04  3.215663E+02  1.232385E+04 -3.289337E+02 -1.523693E+03
       183  21  1.061251E+04 -1.204950E+04  8.366870E+03  2.162802E+04 -1.946536E+03 -2.213519E+03
       183  22 -2.645144E+02 -5.700864E+04 -1.503424E+03  2.183695E+04  1.305993E+03  3.892619E+02
       183  23  4.827823E+01 -5.686963E+04 -1.389402E+03  1.233911E+04 -3.292349E+02 -3.135904E+02
       183  24 -4.392285E+02 -5.700880E+04 -1.930293E+03  2.183690E+04 -1.946839E+03 -1.016457E+03
       183  25  7.107821E+03 -2.701499E+04  5.362729E+03  2.165859E+04  1.305697E+03  1.612505E+03
       183  26 -1.790304E+03 -6.435102E+04 -3.100368E+03  1.235436E+04 -3.295361E+02  8.964979E+02
       183  27 -1.149111E+04 -1.019662E+05 -1.222758E+04  2.204577E+04 -1.947141E+03  1.805179E+02
       184   1  1.997031E+04  2.267424E+04  1.603826E+04  2.269797E+04  3.544681E+03  3.797202E+03
       184   2  2.922700E+04  6.084465E+04  2.354938E+04  1.151330E+04  4.714589E+03  2.522584E+03
       184   3  3.242802E+04  9.769157E+04  3.038111E+04  1.917234E+04  1.674908E+03  1.246456E+03
       184   4  3.047266E+02 -5.736320E+04 -2.253891E+03  2.180388E+04  3.545338E+03  1.360752E+03
       184   5  3.646320E+02 -5.643028E+04 -3.485288E+03  1.238077E+04  4.714435E+03  3.218054E+03
       184   6 -6.175307E+03 -5.736573E+04 -7.571136E+03  2.180167E+04  1.673583E+03  5.073870E+03
       184   7 -1.936130E+04 -1.373947E+05 -2.054644E+04  2.090990E+04  3.546003E+03 -1.075388E+03
       184   8 -2.849870E+04 -1.736925E+05 -3.052087E+04  1.324807E+04  4.714284E+03  3.913393E+03
       184   9 -4.478038E+04 -2.124011E+05 -4.552509E+04  2.443034E+04  1.672290E+03  8.900330E+03
       184  10  1.997030E+04  2.267422E+04  1.603821E+04  2.269796E+04  2.544551E-10 -9.169577E-09
       184  11  2.922698E+04  6.084463E+04  2.354933E+04  1.151329E+04  3.260538E-11  6.782246E-10
       184  12  3.242802E+04  9.769157E+04  3.038111E+04  1.917234E+04 -8.987087E-11  6.561089E-09
       184  13  3.047126E+02 -5.736321E+04 -2.253919E+03  2.180388E+04 -6.802516E-10 -1.054108E-11
       184  14  3.646053E+02 -5.643030E+04 -3.485349E+03  1.238076E+04 -3.113760E-10  2.767548E-10
       184  15 -6.175317E+03 -5.736576E+04 -7.571190E+03  2.180166E+04 -2.586774E-11 -1.113087E-10
       184  16 -1.936131E+04 -1.373947E+05 -2.054647E+04  2.090991E+04 -1.479700E-10  7.830626E-09
       184  17 -2.849873E+04 -1.736925E+05 -3.052094E+04  1.324806E+04  1.821242E-10  3.158066E-10
       184  18 -4.478041E+04 -2.124012E+05 -4.552524E+04  2.443032E+04  5.812831E-11 -7.046424E-09
       184  19  1.997031E+04  2.267424E+04  1.603826E+04  2.269797E+04 -3.544681E+03 -3.797202E+03
       184  20  2.922700E+04  6.084465E+04  2.354938E+04  1.151330E+04 -4.714589E+03 -2.522584E+03
       184  21  3.242802E+04  9.769157E+04  3.038111E+04  1.917234E+04 -1.674908E+03 -1.246456E+03
       184  22  3.047266E+02 -5.736320E+04 -2.253891E+03  2.180388E+04 -3.545338E+03 -1.360752E+03
       184  23  3.646320E+02 -5.643028E+04 -3.485288E+03  1.238077E+04 -4.714435E+03 -3.218054E+03
       184  24 -6.175307E+03 -5.736573E+04 -7.571136E+03  2.180167E+04 -1.673583E+03 -5.073870E+03
       184  25 -1.936130E+04 -1.373947E+05 -2.054644E+04  2.090990E+04 -3.546003E+03  1.075388E+03
       184  26 -2.849870E+04 -1.736925E+05 -3.052087E+04  1.324807E+04 -4.714284E+03 -3.913393E+03
       184  27 -4.478038E+04 -2.124011E+05 -4.552509E+04  2.443034E+04 -1.672290E+03 -8.900330E+03
       185   1  7.448225E+04  3.680530E+04  3.354340E+04  8.980122E+03  6.696418E+03 -2.599609E+03
       185   2  5.992434E+04  3.877500E+04  2.835612E+04  1.053136E+04  1.849863E+03 -8.663375E+03
       185   3  4.496439E+04  3.660345E+04  2.528981E+04  1.517419E+04 -2.997166E+03 -1.027366E+04
       185   4 -1.112695E+05 -9.069900E+03 -1.009071E+04  1.458479E+04 -7.031200E+03 -2.602279E+03
       185   5 -1.104268E+05 -1.944209E+03 -4.891765E+03  1.303791E+04 -4.502120E+03 -8.664993E+03
       185   6 -1.112674E+05 -2.410035E+02 -2.694079E+03  1.458272E+04 -1.973732E+03 -1.027361E+04
       185   7 -2.969889E+05 -5.494734E+04 -5.372647E+04  2.018776E+04 -2.075474E+04 -2.605197E+03
       185   8 -2.807500E+05 -4.266512E+04 -3.814088E+04  1.554376E+04 -1.085240E+04 -8.666663E+03
       185   9 -2.674754E+05 -3.708681E+04 -3.067890E+04  1.399139E+04 -9.505481E+02 -1.027357E+04
       185  10  7.448220E+04  3.680528E+04  3.354330E+04  8.980136E+03 -1.019575E-10 -5.027423E-11
       185  11  5.992431E+04  3.877492E+04  2.835597E+04  1.053138E+04  1.277657E-10 -3.975182E-10
       185  12  4.496435E+04  3.660334E+04  2.528959E+04  1.517417E+04  8.332545E-10 -6.914385E-10
       185  13 -1.112695E+05 -9.069921E+03 -1.009082E+04  1.458477E+04 -5.736804E-10  1.051189E-10
       185  14 -1.104268E+05 -1.944295E+03 -4.891945E+03  1.303788E+04 -8.116001E-11 -3.173264E-10
       185  15 -1.112674E+05 -2.411179E+02 -2.694285E+03  1.458270E+04 -2.600964E-10 -2.855512E-10
       185  16 -2.969894E+05 -5.494746E+04 -5.372729E+04  2.018772E+04 -1.773388E-10 -1.566496E-11
       185  17 -2.807501E+05 -4.266523E+04 -3.814124E+04  1.554368E+04 -2.399620E-10 -7.715551E-10
       185  18 -2.674754E+05 -3.708693E+04 -3.067910E+04  1.399139E+04 -5.930911E-10 -9.379971E-10
       185  19  7.448225E+04  3.680530E+04  3.354340E+04  8.980122E+03 -6.696418E+03  2.599609E+03
       185  20  5.992434E+04  3.877500E+04  2.835612E+04  1.053136E+04 -1.849863E+03  8.663375E+03
       185  21  4.496439E+04  3.660345E+04  2.528981E+04  1.517419E+04  2.997166E+03  1.027366E+04
       185  22 -1.112695E+05 -9.069900E+03 -1.009071E+04  1.458479E+04  7.031200E+03  2.602279E+03
       185  23 -1.104268E+05 -1.944209E+03 -4.891765E+03  1.303791E+04  4.502120E+03  8.664993E+03
       185  24 -1.112674E+05 -2.410035E+02 -2.694079E+03  1.458272E+04  1.973732E+03  1.027361E+04
       185  25 -2.969889E+05 -5.494734E+04 -5.372647E+04  2.018776E+04  2.075474E+04  2.605197E+03
       185  26 -2.807500E+05 -4.266512E+04 -3.814088E+04  1.554376E+04  1.085240E+04  8.666663E+03
       185  27 -2.674754E+05 -3.708681E+04 -3.067890E+04  1.399139E+04  9.505481E+02  1.027357E+04
       186   1  3.545629E+04  3.407816E+04  2.393902E+04  1.452029E+04 -2.109729E+03 -9.835994E+03
       186   2  2.074098E+04  3.083118E+04  2.169146E+04  1.294190E+04 -2.188759E+03 -9.347786E+03
       186   3  5.994141E+03  2.741849E+04  1.945384E+04  1.474441E+04 -2.267975E+03 -8.471029E+03
       186   4 -1.109246E+05 -3.975784E+02 -2.053808E+03  1.464727E+04 -1.622637E+03 -9.836064E+03
       186   5 -1.108524E+05 -5.317732E+01 -1.131059E+03  1.295673E+04 -1.058307E+03 -9.347626E+03
       186   6 -1.109233E+05  1.385428E+01 -6.451439E+02  1.464714E+04 -4.941555E+02 -8.470599E+03
       186   7 -2.572846E+05 -3.487450E+04 -2.804744E+04  1.477421E+04 -1.135656E+03 -9.836135E+03
       186   8 -2.424287E+05 -3.093847E+04 -2.395417E+04  1.297156E+04  7.191211E+01 -9.347467E+03
       186   9 -2.278273E+05 -2.739151E+04 -2.074458E+04  1.454989E+04  1.279340E+03 -8.470168E+03
       186  10  3.545626E+04  3.407806E+04  2.393883E+04  1.452028E+04 -6.284346E-10 -8.351794E-10
       186  11  2.074095E+04  3.083109E+04  2.169128E+04  1.294188E+04 -2.909000E-10  1.155894E-10
       186  12  5.994116E+03  2.741841E+04  1.945370E+04  1.474440E+04  1.738112E-10  1.877105E-10
       186  13 -1.109247E+05 -3.976830E+02 -2.053995E+03  1.464726E+04 -5.393845E-10 -6.820520E-10
       186  14 -1.108524E+05 -5.327145E+01 -1.131226E+03  1.295672E+04  2.106739E-10 -1.561907E-10
       186  15 -1.109233E+05  1.377717E+01 -6.452792E+02  1.464714E+04  1.838887E-10 -4.927940E-10
       186  16 -2.572847E+05 -3.487460E+04 -2.804762E+04  1.477421E+04  2.674582E-10 -3.222722E-10
       186  17 -2.424287E+05 -3.093856E+04 -2.395434E+04  1.297156E+04 -1.691546E-10 -6.222657E-11
       186  18 -2.278273E+05 -2.739159E+04 -2.074472E+04  1.454990E+04 -4.416190E-10  5.654671E-11
       186  19  3.545629E+04  3.407816E+04  2.393902E+04  1.452029E+04  2.109729E+03  9.835994E+03
       186  20  2.074098E+04  3.083118E+04  2.169146E+04  1.294190E+04  2.188759E+03  9.347786E+03
       186  21  5.994141E+03  2.741849E+04  1.945384E+04  1.474441E+04  2.267975E+03  8.471029E+03
       186  22 -1.109246E+05 -3.975784E+02 -2.053808E+03  1.464727E+04  1.622637E+03  9.836064E+03
       186  23 -1.108524E+05 -5.317732E+01 -1.131059E+03  1.295673E+04  1.058307E+03  9.347626E+03
       186  24 -1.109233E+05  1.385428E+01 -6.451439E+02  1.464714E+04  4.941555E+02  8.470599E+03
       186  25 -2.572846E+05 -3.487450E+04 -2.804744E+04  1.477421E+04  1.135656E+03  9.836135E+03
       186  26 -2.424287E+05 -3.093847E+04 -2.395417E+04  1.297156E+04 -7.191211E+01  9.347467E+03
       186  27 -2.278273E+05 -2.739151E+04 -2.074458E+04  1.454989E+04 -1.279340E+03  8.470168E+03
       187   1 -3.634566E+03  2.513014E+04  1.787405E+04  1.470503E+04 -2.122245E+03 -7.840796E+03
       187   2 -1.836222E+04  2.168536E+04  1.554164E+04  1.299293E+04 -2.039832E+03 -6.780792E+03
       187   3 -3.310273E+04  1.823860E+04  1.315457E+04  1.468751E+04 -1.957505E+03 -5.686796E+03
       187   4 -1.108961E+05  3.590312E+00 -4.904275E+02  1.465289E+04 -3.950195E+02 -7.840338E+03
       187   5 -1.108843E+05  1.515556E+01 -2.807517E+02  1.294952E+04 -2.563580E+02 -6.780256E+03
       187   6 -1.108952E+05  1.497514E+01 -1.648119E+02  1.465288E+04 -1.177815E+02 -5.686179E+03
       187   7 -2.181464E+05 -2.512357E+04 -1.885528E+04  1.460075E+04  1.331917E+03 -7.839881E+03
       187   8 -2.033979E+05 -2.165550E+04 -1.610341E+04  1.290613E+04  1.526858E+03 -6.779720E+03
       187   9 -1.886818E+05 -1.820897E+04 -1.348438E+04  1.461826E+04  1.721719E+03 -5.685562E+03
       187  10 -3.634587E+03  2.513007E+04  1.787392E+04  1.470502E+04 -3.335261E-10  5.140025E-10
       187  11 -1.836223E+04  2.168531E+04  1.554154E+04  1.299292E+04  9.688882E-10  5.638121E-10
       187  12 -3.310274E+04  1.823856E+04  1.315450E+04  1.468750E+04  9.806513E-10 -2.888469E-11
       187  13 -1.108962E+05  3.524265E+00 -4.905433E+02  1.465288E+04 -1.827782E-10 -3.742676E-10
       187  14 -1.108843E+05  1.510618E+01 -2.808382E+02  1.294952E+04 -1.799117E-10  7.155491E-10
       187  15 -1.108952E+05  1.494042E+01 -1.648727E+02  1.465288E+04  4.956885E-10  9.304061E-10
       187  16 -2.181464E+05 -2.512364E+04 -1.885539E+04  1.460076E+04  1.631517E-10  3.117859E-10
       187  17 -2.033979E+05 -2.165555E+04 -1.610350E+04  1.290614E+04 -7.684554E-11  7.519490E-10
       187  18 -1.886818E+05 -1.820900E+04 -1.348445E+04  1.461826E+04 -9.919556E-10  4.819877E-10
       187  19 -3.634566E+03  2.513014E+04  1.787405E+04  1.470503E+04  2.122245E+03  7.840796E+03
       187  20 -1.836222E+04  2.168536E+04  1.554164E+04  1.299293E+04  2.039832E+03  6.780792E+03
       187  21 -3.310273E+04  1.823860E+04  1.315457E+04  1.468751E+04  1.957505E+03  5.686796E+03
       187  22 -1.108961E+05  3.590312E+00 -4.904275E+02  1.465289E+04  3.950195E+02  7.840338E+03
       187  23 -1.108843E+05  1.515556E+01 -2.807517E+02  1.294952E+04  2.563580E+02  6.780256E+03
       187  24 -1.108952E+05  1.497514E+01 -1.648119E+02  1.465288E+04  1.177815E+02  5.686179E+03
       187  25 -2.181464E+05 -2.512357E+04 -1.885528E+04  1.460075E+04 -1.331917E+03  7.839881E+03
       187  26 -2.033979E+05 -2.165550E+04 -1.610341E+04  1.290613E+04 -1.526858E+03  6.779720E+03
       187  27 -1.886818E+05 -1.820897E+04 -1.348438E+04  1.461826E+04 -1.721719E+03  5.685562E+03
       188   1 -4.274050E+04  1.596687E+04  1.147858E+04  1.468183E+04 -1.927318E+03 -5.039583E+03
       188   2 -5.747488E+04  1.252018E+04  9.036782E+03  1.296930E+04 -1.891949E+03 -3.929516E+03
       188   3 -7.221555E+04  9.076225E+03  6.571908E+03  1.466629E+04 -1.856626E+03 -2.816574E+03
       188   4 -1.108915E+05  1.414585E+01 -1.281284E+02  1.465351E+04 -9.151587E+01 -5.038939E+03
       188   5 -1.108875E+05  1.289734E+01 -8.192168E+01  1.294874E+04 -5.142543E+01 -3.928835E+03
       188   6 -1.108910E+05  1.351810E+01 -6.214238E+01  1.465351E+04 -1.138028E+01 -2.815856E+03
       188   7 -1.790380E+05 -1.593882E+04 -1.173498E+04  1.462519E+04  1.744091E+03 -5.038295E+03
       188   8 -1.642973E+05 -1.249453E+04 -9.200707E+03  1.292818E+04  1.788945E+03 -3.928153E+03
       188   9 -1.495650E+05 -9.049266E+03 -6.696230E+03  1.464073E+04  1.833754E+03 -2.815137E+03
       188  10 -4.274051E+04  1.596684E+04  1.147853E+04  1.468182E+04  1.086565E-10  6.897182E-11
       188  11 -5.747489E+04  1.252016E+04  9.036746E+03  1.296930E+04  4.065550E-10  1.313300E-09
       188  12 -7.221555E+04  9.076215E+03  6.571887E+03  1.466629E+04 -2.462921E-10  9.497096E-10
       188  13 -1.108916E+05  1.411859E+01 -1.281761E+02  1.465351E+04 -6.401600E-12  3.374620E-10
       188  14 -1.108875E+05  1.288076E+01 -8.195069E+01  1.294874E+04  1.746888E-11  1.181885E-09
       188  15 -1.108910E+05  1.350958E+01 -6.215728E+01  1.465351E+04  3.585853E-11  3.048103E-10
       188  16 -1.790380E+05 -1.593885E+04 -1.173503E+04  1.462520E+04 -4.284055E-10  4.083709E-10
       188  17 -1.642973E+05 -1.249455E+04 -9.200742E+03  1.292819E+04  3.577621E-10  2.677744E-10
       188  18 -1.495650E+05 -9.049276E+03 -6.696251E+03  1.464073E+04  2.701519E-10  3.457451E-10
       188  19 -4.274050E+04  1.596687E+04  1.147858E+04  1.468183E+04  1.927318E+03  5.039583E+03
       188  20 -5.747488E+04  1.252018E+04  9.036782E+03  1.296930E+04  1.891949E+03  3.929516E+03
       188  21 -7.221555E+04  9.076225E+03  6.571908E+03  1.466629E+04  1.856626E+03  2.816574E+03
       188  22 -1.108915E+05  1.414585E+01 -1.281284E+02  1.465351E+04  9.151587E+01  5.038939E+03
       188  23 -1.108875E+05  1.289734E+01 -8.192168E+01  1.294874E+04  5.142543E+01  3.928835E+03
       188  24 -1.108910E+05  1.351810E+01 -6.214238E+01  1.465351E+04  1.138028E+01  2.815856E+03
       188  25 -1.790380E+05 -1.593882E+04 -1.173498E+04  1.462519E+04 -1.744091E+03  5.038295E+03
       188  26 -1.642973E+05 -1.249453E+04 -9.200707E+03  1.292818E+04 -1.788945E+03  3.928153E+03
       188  27 -1.495650E+05 -9.049266E+03 -6.696230E+03  1.464073E+04 -1.833754E+03  2.815137E+03
       189   1 -8.185726E+04  6.805527E+03  4.863034E+03  1.466258E+04 -1.845715E+03 -2.167834E+03
       189   2 -9.659248E+04  3.360195E+03  2.369361E+03  1.294964E+04 -1.809408E+03 -1.054279E+03
       189   3 -1.113353E+05 -8.359385E+01 -1.485304E+02  1.464709E+04 -1.773114E+03  5.764568E+01
       189   4 -1.108908E+05  1.362819E+01 -5.975077E+01  1.465370E+04 -5.422210E-01 -2.167102E+03
       189   5 -1.108872E+05  1.327215E+01 -6.888207E+01  1.294850E+04  3.305616E+01 -1.053539E+03
       189   6 -1.108907E+05  1.499574E+01 -1.002931E+02  1.465370E+04  6.664393E+01  5.839451E+01
       189   7 -1.399235E+05 -6.778314E+03 -4.982550E+03  1.464482E+04  1.844547E+03 -2.166370E+03
       189   8 -1.251817E+05 -3.333660E+03 -2.507119E+03  1.294737E+04  1.875480E+03 -1.052798E+03
       189   9 -1.104460E+05  1.135871E+02 -5.204298E+01  1.466031E+04  1.906403E+03  5.914337E+01
       189  10 -8.185726E+04  6.805522E+03  4.863019E+03  1.466257E+04  1.125469E-09  2.858920E-10
       189  11 -9.659249E+04  3.360193E+03  2.369353E+03  1.294964E+04 -4.178925E-10  3.896366E-11
       189  12 -1.113353E+05 -8.359470E+01 -1.485363E+02  1.464709E+04 -1.116198E-09  6.916812E-11
       189  13 -1.108908E+05  1.362315E+01 -5.975960E+01  1.465370E+04  1.898995E-10  1.170172E-09
       189  14 -1.108872E+05  1.327096E+01 -6.888416E+01  1.294850E+04  6.321283E-11  4.397264E-10
       189  15 -1.108907E+05  1.499573E+01 -1.002931E+02  1.465370E+04 -2.905773E-10 -2.806830E-10
       189  16 -1.399235E+05 -6.778320E+03 -4.982565E+03  1.464482E+04 -1.369005E-09  7.128946E-10
       189  17 -1.251817E+05 -3.333662E+03 -2.507128E+03  1.294737E+04  3.824732E-10  5.478695E-11
       189  18 -1.104460E+05  1.135862E+02 -5.204982E+01  1.466031E+04  1.512564E-09 -4.502316E-11
       189  19 -8.185726E+04  6.805527E+03  4.863034E+03  1.466258E+04  1.845715E+03  2.167834E+03
       189  20 -9.659248E+04  3.360195E+03  2.369361E+03  1.294964E+04  1.809408E+03  1.054279E+03
       189  21 -1.113353E+05 -8.359385E+01 -1.485304E+02  1.464709E+04  1.773114E+03 -5.764568E+01
       189  22 -1.108908E+05  1.362819E+01 -5.975077E+01  1.465370E+04  5.422210E-01  2.167102E+03
       189  23 -1.108872E+05  1.327215E+01 -6.888207E+01  1.294850E+04 -3.305616E+01  1.053539E+03
       189  24 -1.108907E+05  1.499574E+01 -1.002931E+02  1.465370E+04 -6.664393E+01 -5.839451E+01
       189  25 -1.399235E+05 -6.778314E+03 -4.982550E+03  1.464482E+04 -1.844547E+03  2.166370E+03
       189  26 -1.251817E+05 -3.333660E+03 -2.507119E+03  1.294737E+04 -1.875480E+03  1.052798E+03
       189  27 -1.104460E+05  1.135871E+02 -5.204298E+01  1.466031E+04 -1.906403E+03 -5.914337E+01
       190   1 -1.209805E+05 -2.354020E+03 -1.887387E+03  1.464073E+04 -1.755413E+03  7.056189E+02
       190   2 -1.357067E+05 -5.800629E+03 -4.469325E+03  1.292726E+04 -1.614690E+03  1.807449E+03
       190   3 -1.504577E+05 -9.261574E+03 -7.147382E+03  1.462269E+04 -1.473941E+03  2.887437E+03
       190   4 -1.108933E+05  1.583878E+01 -1.267533E+02  1.465336E+04  8.691492E+01  7.063667E+02
       190   5 -1.108840E+05  1.606932E+01 -2.121270E+02  1.294892E+04  1.914578E+02  1.808166E+03
       190   6 -1.108935E+05  8.253593E+00 -3.684950E+02  1.465337E+04  2.960287E+02  2.888124E+03
       190   7 -1.008059E+05  2.385694E+03  1.633890E+03  1.466600E+04  1.929272E+03  7.071146E+02
       190   8 -8.606070E+04  5.832736E+03  4.045062E+03  1.297058E+04  1.997675E+03  1.808883E+03
       190   9 -7.132780E+04  9.278000E+03  6.410351E+03  1.468405E+04  2.066108E+03  2.888810E+03
       190  10 -1.209806E+05 -2.354022E+03 -1.887394E+03  1.464073E+04 -3.723044E-10  8.604378E-10
       190  11 -1.357067E+05 -5.800633E+03 -4.469336E+03  1.292726E+04 -9.385762E-10  5.520056E-10
       190  12 -1.504577E+05 -9.261584E+03 -7.147402E+03  1.462270E+04 -4.735011E-10  4.587844E-10
       190  13 -1.108933E+05  1.583825E+01 -1.267543E+02  1.465336E+04  2.680767E-10  2.779522E-10
       190  14 -1.108840E+05  1.606580E+01 -2.121332E+02  1.294892E+04  1.004071E-10  2.265780E-10
       190  15 -1.108935E+05  8.244613E+00 -3.685108E+02  1.465337E+04  7.297628E-10  2.875615E-10
       190  16 -1.008059E+05  2.385693E+03  1.633882E+03  1.466600E+04 -1.572566E-10  4.961846E-10
       190  17 -8.606071E+04  5.832731E+03  4.045048E+03  1.297058E+04  1.434959E-09 -1.089628E-09
       190  18 -7.132780E+04  9.277990E+03  6.410328E+03  1.468404E+04  6.105575E-10  6.477129E-11
       190  19 -1.209805E+05 -2.354020E+03 -1.887387E+03  1.464073E+04  1.755413E+03 -7.056189E+02
       190  20 -1.357067E+05 -5.800629E+03 -4.469325E+03  1.292726E+04  1.614690E+03 -1.807449E+03
       190  21 -1.504577E+05 -9.261574E+03 -7.147382E+03  1.462269E+04  1.473941E+03 -2.887437E+03
       190  22 -1.108933E+05  1.583878E+01 -1.267533E+02  1.465336E+04 -8.691492E+01 -7.063667E+02
       190  23 -1.108840E+05  1.606932E+01 -2.121270E+02  1.294892E+04 -1.914578E+02 -1.808166E+03
       190  24 -1.108935E+05  8.253593E+00 -3.684950E+02  1.465337E+04 -2.960287E+02 -2.888124E+03
       190  25 -1.008059E+05  2.385694E+03  1.633890E+03  1.466600E+04 -1.929272E+03 -7.071146E+02
       190  26 -8.606070E+04  5.832736E+03  4.045062E+03  1.297058E+04 -1.997675E+03 -1.808883E+03
       190  27 -7.132780E+04  9.278000E+03  6.410351E+03  1.468405E+04 -2.066108E+03 -2.888810E+03
       191   1 -1.601306E+05 -1.152993E+04 -8.989776E+03  1.458355E+04 -1.429674E+03  3.524571E+03
       191   2 -1.747778E+05 -1.504878E+04 -1.199238E+04  1.296832E+04 -5.924365E+02  4.486870E+03
       191   3 -1.896059E+05 -1.884667E+04 -1.561061E+04  1.474565E+04  2.448999E+02  5.198759E+03
       191   4 -1.109138E+05  1.613659E+01 -4.841858E+02  1.464972E+04  3.703524E+02  3.525252E+03
       191   5 -1.108595E+05 -3.412029E+01 -8.478110E+02  1.295350E+04  7.930145E+02  4.487354E+03
       191   6 -1.109145E+05 -2.914569E+02 -1.539150E+03  1.464984E+04  1.215801E+03  5.199059E+03
       191   7 -6.169468E+04  1.156207E+04  8.021333E+03  1.471589E+04  2.170517E+03  3.525933E+03
       191   8 -4.693715E+04  1.498032E+04  1.029662E+04  1.293869E+04  2.178604E+03  4.487838E+03
       191   9 -3.221702E+04  1.826342E+04  1.253207E+04  1.455401E+04  2.186822E+03  5.199359E+03
       191  10 -1.601306E+05 -1.152994E+04 -8.989803E+03  1.458356E+04 -1.686884E-09  1.368369E-09
       191  11 -1.747778E+05 -1.504880E+04 -1.199242E+04  1.296832E+04 -6.610071E-10  9.508918E-10
       191  12 -1.896059E+05 -1.884670E+04 -1.561066E+04  1.474565E+04 -5.014355E-10  9.478629E-10
       191  13 -1.109138E+05  1.612320E+01 -4.842094E+02  1.464972E+04 -2.694540E-10  7.627725E-10
       191  14 -1.108595E+05 -3.414208E+01 -8.478500E+02  1.295350E+04  3.647705E-10  1.313349E-09
       191  15 -1.109145E+05 -2.914863E+02 -1.539204E+03  1.464983E+04  6.533159E-10  3.385115E-10
       191  16 -6.169469E+04  1.156206E+04  8.021301E+03  1.471588E+04  1.870639E-09  6.657826E-10
       191  17 -4.693716E+04  1.498030E+04  1.029657E+04  1.293868E+04  1.451331E-09  5.806625E-10
       191  18 -3.221704E+04  1.826338E+04  1.253201E+04  1.455400E+04  3.468610E-10 -5.068245E-10
       191  19 -1.601306E+05 -1.152993E+04 -8.989776E+03  1.458355E+04  1.429674E+03 -3.524571E+03
       191  20 -1.747778E+05 -1.504878E+04 -1.199238E+04  1.296832E+04  5.924365E+02 -4.486870E+03
       191  21 -1.896059E+05 -1.884667E+04 -1.561061E+04  1.474565E+04 -2.448999E+02 -5.198759E+03
       191  22 -1.109138E+05  1.613659E+01 -4.841858E+02  1.464972E+04 -3.703524E+02 -3.525252E+03
       191  23 -1.108595E+05 -3.412029E+01 -8.478110E+02  1.295350E+04 -7.930145E+02 -4.487354E+03
       191  24 -1.109145E+05 -2.914569E+02 -1.539150E+03  1.464984E+04 -1.215801E+03 -5.199059E+03
       191  25 -6.169468E+04  1.156207E+04  8.021333E+03  1.471589E+04 -2.170517E+03 -3.525933E+03
       191  26 -4.693715E+04  1.498032E+04  1.029662E+04  1.293869E+04 -2.178604E+03 -4.487838E+03
       191  27 -3.221702E+04  1.826342E+04  1.253207E+04  1.455401E+04 -2.186822E+03 -5.199359E+03
       192   1 -1.996411E+05 -2.106421E+04 -1.798257E+04  1.416370E+04  1.623067E+02  5.711667E+03
       192   2 -2.133533E+05 -2.606372E+04 -2.390554E+04  1.487946E+04  6.808904E+03  5.073775E+03
       192   3 -2.291550E+05 -3.595228E+04 -3.537910E+04  1.880208E+04  1.345623E+04  1.565180E+03
       192   4 -1.111713E+05 -1.739659E+02 -2.018874E+03  1.460826E+04  1.478802E+03  5.712070E+03
       192   5 -1.105401E+05 -1.450688E+03 -3.665378E+03  1.300595E+04  3.373054E+03  5.072521E+03
       192   6 -1.111727E+05 -6.790751E+03 -7.561231E+03  1.461051E+04  5.268157E+03  1.562436E+03
       192   7 -2.269392E+04  2.071584E+04  1.394452E+04  1.505288E+04  2.795480E+03  5.712474E+03
       192   8 -7.716595E+03  2.316172E+04  1.657432E+04  1.113212E+04 -6.335286E+01  5.071287E+03
       192   9  6.822715E+03  2.236988E+04  2.025593E+04  1.041814E+04 -2.921467E+03  1.559803E+03
       192  10 -1.996411E+05 -2.106424E+04 -1.798263E+04  1.416370E+04 -2.945307E-08  2.782179E-10
       192  11 -2.133534E+05 -2.606376E+04 -2.390568E+04  1.487944E+04 -1.312282E-09 -7.135941E-10
       192  12 -2.291552E+05 -3.595233E+04 -3.537944E+04  1.880206E+04  2.623044E-08 -2.524804E-10
       192  13 -1.111713E+05 -1.740015E+02 -2.018939E+03  1.460825E+04  7.224380E-10  5.038434E-10
       192  14 -1.105401E+05 -1.450719E+03 -3.665448E+03  1.300594E+04  8.331531E-10 -1.311288E-09
       192  15 -1.111727E+05 -6.790761E+03 -7.561288E+03  1.461050E+04  4.832244E-10  1.154459E-10
       192  16 -2.269394E+04  2.071580E+04  1.394444E+04  1.505287E+04  2.918743E-08 -1.769547E-10
       192  17 -7.716602E+03  2.316169E+04  1.657427E+04  1.113212E+04  2.021687E-09 -4.997715E-10
       192  18  6.822705E+03  2.236988E+04  2.025591E+04  1.041814E+04 -2.637632E-08 -3.423941E-10
       192  19 -1.996411E+05 -2.106421E+04 -1.798257E+04  1.416370E+04 -1.623067E+02 -5.711667E+03
       192  20 -2.133533E+05 -2.606372E+04 -2.390554E+04  1.487946E+04 -6.808904E+03 -5.073775E+03
       192  21 -2.291550E+05 -3.595228E+04 -3.537910E+04  1.880208E+04 -1.345623E+04 -1.565180E+03
       192  22 -1.111713E+05 -1.739659E+02 -2.018874E+03  1.460826E+04 -1.478802E+03 -5.712070E+03
       192  23 -1.105401E+05 -1.450688E+03 -3.665378E+03  1.300595E+04 -3.373054E+03 -5.072521E+03
       192  24 -1.111727E+05 -6.790751E+03 -7.561231E+03  1.461051E+04 -5.268157E+03 -1.562436E+03
       192  25 -2.269392E+04  2.071584E+04  1.394452E+04  1.505288E+04 -2.795480E+03 -5.712474E+03
       192  26 -7.716595E+03  2.316172E+04  1.657432E+04  1.113212E+04  6.335286E+01 -5.071287E+03
       192  27  6.822715E+03  2.236988E+04  2.025593E+04  1.041814E+04  2.921467E+03 -1.559803E+03
       193   1 -2.526020E+04  1.839560E+04  1.496468E+04  3.653886E+02 -7.024719E+03 -1.522842E+03
       193   2 -3.333500E+04  2.891946E+04  1.942624E+04  1.511627E+03 -5.682576E+03 -4.712777E+03
       193   3 -4.482965E+04  2.645129E+04  1.976737E+04  7.486442E+03 -4.341460E+03 -4.748654E+03
       193   4 -1.497006E+05 -1.256610E+04 -1.541096E+04  5.602622E+03 -1.057007E+04 -1.524040E+03
       193   5 -1.477858E+05  7.618828E+02 -6.907215E+03  3.186018E+03 -6.881985E+03 -4.713285E+03
       193   6 -1.496991E+05  6.891625E+02 -4.153884E+03  5.598080E+03 -3.194885E+03 -4.748229E+03
       193   7 -2.741269E+05 -4.352884E+04 -4.578767E+04  1.083880E+04 -1.411472E+04 -1.525297E+03
       193   8 -2.622246E+05 -2.739660E+04 -3.324153E+04  4.860098E+03 -8.081175E+03 -4.713800E+03
       193   9 -2.545583E+05 -2.507371E+04 -2.807585E+04  3.710038E+03 -2.048502E+03 -4.747810E+03
       193  10 -2.526026E+04  1.839558E+04  1.496458E+04  3.653800E+02 -7.390457E-10  2.152354E-10
       193  11 -3.333504E+04  2.891943E+04  1.942614E+04  1.511605E+03  5.449325E-10  1.438051E-09
       193  12 -4.482968E+04  2.645126E+04  1.976729E+04  7.486425E+03  1.947898E-10  8.501372E-10
       193  13 -1.497008E+05 -1.256614E+04 -1.541118E+04  5.602609E+03 -1.080802E-12 -3.771512E-10
       193  14 -1.477859E+05  7.618463E+02 -6.907346E+03  3.185992E+03 -2.336851E-10 -1.245917E-09
       193  15 -1.496991E+05  6.891355E+02 -4.153946E+03  5.598067E+03  5.916429E-10  7.190899E-10
       193  16 -2.741271E+05 -4.352889E+04 -4.578805E+04  1.083878E+04  5.620110E-10 -2.099549E-10
       193  17 -2.622246E+05 -2.739664E+04 -3.324170E+04  4.860067E+03  4.732352E-10  9.813953E-10
       193  18 -2.545583E+05 -2.507374E+04 -2.807590E+04  3.710030E+03 -3.752089E-10  8.926967E-11
       193  19 -2.526020E+04  1.839560E+04  1.496468E+04  3.653886E+02  7.024719E+03  1.522842E+03
       193  20 -3.333500E+04  2.891946E+04  1.942624E+04  1.511627E+03  5.682576E+03  4.712777E+03
       193  21 -4.482965E+04  2.645129E+04  1.976737E+04  7.486442E+03  4.341460E+03  4.748654E+03
       193  22 -1.497006E+05 -1.256610E+04 -1.541096E+04  5.602622E+03  1.057007E+04  1.524040E+03
       193  23 -1.477858E+05  7.618828E+02 -6.907215E+03  3.186018E+03  6.881985E+03  4.713285E+03
       193  24 -1.496991E+05  6.891625E+02 -4.153884E+03  5.598080E+03  3.194885E+03  4.748229E+03
       193  25 -2.741269E+05 -4.352884E+04 -4.578767E+04  1.083880E+04  1.411472E+04  1.525297E+03
       193  26 -2.622246E+05 -2.739660E+04 -3.324153E+04  4.860098E+03  8.081175E+03  4.713800E+03
       193  27 -2.545583E+05 -2.507371E+04 -2.807585E+04  3.710038E+03  2.048502E+03  4.747810E+03
       194   1 -5.323594E+04  2.262759E+04  1.859931E+04  5.349851E+03 -2.762740E+03 -4.103074E+03
       194   2 -6.284895E+04  2.118008E+04  1.787055E+04  3.102731E+03 -1.980553E+03 -3.787811E+03
       194   3 -7.280649E+04  1.876825E+04  1.639113E+04  5.812548E+03 -1.198517E+03 -3.320264E+03
       194   4 -1.489292E+05 -9.006224E+02 -3.339714E+03  5.628185E+03 -2.584828E+03 -4.103042E+03
       194   5 -1.487466E+05  7.014140E+01 -1.772047E+03  3.149474E+03 -1.689476E+03 -3.787712E+03
       194   6 -1.489286E+05  5.682271E+01 -1.033774E+03  5.627750E+03 -7.942638E+02 -3.320089E+03
       194   7 -2.446139E+05 -2.442948E+04 -2.527934E+04  5.906475E+03 -2.406943E+03 -4.103011E+03
       194   8 -2.346375E+05 -2.104031E+04 -2.141513E+04  3.196210E+03 -1.398439E+03 -3.787614E+03
       194   9 -2.250453E+05 -1.865501E+04 -1.845905E+04  5.442973E+03 -3.900598E+02 -3.319914E+03
       194  10 -5.323595E+04  2.262757E+04  1.859926E+04  5.349842E+03  1.286606E-10  4.542387E-10
       194  11 -6.284896E+04  2.118007E+04  1.787052E+04  3.102725E+03 -2.663236E-10  7.354211E-10
       194  12 -7.280650E+04  1.876824E+04  1.639110E+04  5.812545E+03 -6.093141E-10  1.003137E-09
       194  13 -1.489292E+05 -9.006423E+02 -3.339758E+03  5.628177E+03  1.152596E-10  1.850274E-09
       194  14 -1.487466E+05  7.012523E+01 -1.772080E+03  3.149469E+03  3.337163E-10 -2.019575E-09
       194  15 -1.489286E+05  5.681070E+01 -1.033796E+03  5.627747E+03  6.119261E-10  1.107112E-09
       194  16 -2.446139E+05 -2.442950E+04 -2.527938E+04  5.906467E+03  2.364450E-10 -5.219117E-10
       194  17 -2.346375E+05 -2.104033E+04 -2.141516E+04  3.196206E+03  4.264306E-10 -5.473004E-11
       194  18 -2.250453E+05 -1.865502E+04 -1.845908E+04  5.442972E+03  3.025014E-10  8.223064E-11
       194  19 -5.323594E+04  2.262759E+04  1.859931E+04  5.349851E+03  2.762740E+03  4.103074E+03
       194  20 -6.284895E+04  2.118008E+04  1.787055E+04  3.102731E+03  1.980553E+03  3.787811E+03
       194  21 -7.280649E+04  1.876825E+04  1.639113E+04  5.812548E+03  1.198517E+03  3.320264E+03
       194  22 -1.489292E+05 -9.006224E+02 -3.339714E+03  5.628185E+03  2.584828E+03  4.103042E+03
       194  23 -1.487466E+05  7.014140E+01 -1.772047E+03  3.149474E+03  1.689476E+03  3.787712E+03
       194  24 -1.489286E+05  5.682271E+01 -1.033774E+03  5.627750E+03  7.942638E+02  3.320089E+03
       194  25 -2.446139E+05 -2.442948E+04 -2.527934E+04  5.906475E+03  2.406943E+03  4.103011E+03
       194  26 -2.346375E+05 -2.104031E+04 -2.141513E+04  3.196210E+03  1.398439E+03  3.787614E+03
       194  27 -2.250453E+05 -1.865501E+04 -1.845905E+04  5.442973E+03  3.900598E+02  3.319914E+03
       195   1 -8.189143E+04  1.639572E+04  1.448345E+04  5.654765E+03 -9.909988E+02 -3.015967E+03
       195   2 -9.167317E+04  1.405772E+04  1.261078E+04  3.173414E+03 -7.705611E+02 -2.531022E+03
       195   3 -1.015053E+05  1.165292E+04  1.057673E+04  5.667848E+03 -5.501706E+02 -2.038440E+03
       195   4 -1.488587E+05 -5.608450E+01 -7.998641E+02  5.632082E+03 -6.331187E+02 -3.015804E+03
       195   5 -1.488328E+05  1.104652E+01 -4.552696E+02  3.144157E+03 -4.070215E+02 -2.530842E+03
       195   6 -1.488584E+05  1.044336E+01 -2.759526E+02  5.632046E+03 -1.809680E+02 -2.038241E+03
       195   7 -2.158218E+05 -1.650820E+04 -1.608347E+04  5.609401E+03 -2.752770E+02 -3.015641E+03
       195   8 -2.059895E+05 -1.403585E+04 -1.352153E+04  3.114903E+03 -4.351516E+01 -2.530661E+03
       195   9 -1.962093E+05 -1.163219E+04 -1.112878E+04  5.596247E+03  1.882066E+02 -2.038043E+03
       195  10 -8.189144E+04  1.639571E+04  1.448343E+04  5.654763E+03 -7.448214E-09 -1.421111E-09
       195  11 -9.167317E+04  1.405771E+04  1.261076E+04  3.173412E+03  8.628362E-11 -1.757202E-09
       195  12 -1.015053E+05  1.165292E+04  1.057672E+04  5.667847E+03  7.861489E-09 -1.050335E-09
       195  13 -1.488587E+05 -5.609437E+01 -7.998819E+02  5.632080E+03  2.793511E-10 -3.706807E-10
       195  14 -1.488328E+05  1.103960E+01 -4.552819E+02  3.144156E+03 -6.295911E-10 -1.590365E-09
       195  15 -1.488584E+05  1.043889E+01 -2.759605E+02  5.632046E+03  9.492858E-10 -1.014450E-09
       195  16 -2.158218E+05 -1.650821E+04 -1.608349E+04  5.609400E+03  7.152517E-09 -1.349784E-09
       195  17 -2.059895E+05 -1.403586E+04 -1.352154E+04  3.114903E+03  1.805853E-10 -1.334479E-10
       195  18 -1.962093E+05 -1.163220E+04 -1.112879E+04  5.596247E+03 -7.482868E-09  1.479243E-09
       195  19 -8.189143E+04  1.639572E+04  1.448345E+04  5.654765E+03  9.909988E+02  3.015967E+03
       195  20 -9.167317E+04  1.405772E+04  1.261078E+04  3.173414E+03  7.705611E+02  2.531022E+03
       195  21 -1.015053E+05  1.165292E+04  1.057673E+04  5.667848E+03  5.501706E+02  2.038440E+03
       195  22 -1.488587E+05 -5.608450E+01 -7.998641E+02  5.632082E+03  6.331187E+02  3.015804E+03
       195  23 -1.488328E+05  1.104652E+01 -4.552696E+02  3.144157E+03  4.070215E+02  2.530842E+03
       195  24 -1.488584E+05  1.044336E+01 -2.759526E+02  5.632046E+03  1.809680E+02  2.038241E+03
       195  25 -2.158218E+05 -1.650820E+04 -1.608347E+04  5.609401E+03  2.752770E+02  3.015641E+03
       195  26 -2.059895E+05 -1.403585E+04 -1.352153E+04  3.114903E+03  4.351516E+01  2.530661E+03
       195  27 -1.962093E+05 -1.163219E+04 -1.112878E+04  5.596247E+03 -1.882066E+02  2.038043E+03
       196   1 -1.106677E+05  9.380694E+03  8.477856E+03  5.653909E+03 -5.034778E+02 -1.750089E+03
       196   2 -1.204804E+05  6.975224E+03  6.324999E+03  3.156416E+03 -4.259337E+02 -1.256283E+03
       196   3 -1.303100E+05  4.569376E+03  4.120015E+03  5.641694E+03 -3.484126E+02 -7.619756E+02
       196   4 -1.488505E+05  3.103660E+00 -2.216755E+02  5.633607E+03 -1.363513E+02 -1.749885E+03
       196   5 -1.488419E+05  5.441697E+00 -1.580620E+02  3.142214E+03 -5.844129E+01 -1.256071E+03
       196   6 -1.488504E+05  7.343442E+00 -1.468282E+02  5.633605E+03  1.944691E+01 -7.617565E+02
       196   7 -1.870321E+05 -9.374588E+03 -8.921301E+03  5.613307E+03  2.307528E+02 -1.749681E+03
       196   8 -1.772028E+05 -6.964397E+03 -6.641176E+03  3.128012E+03  3.090345E+02 -1.255860E+03
       196   9 -1.673905E+05 -4.554713E+03 -4.413694E+03  5.625516E+03  3.872955E+02 -7.615374E+02
       196  10 -1.106677E+05  9.380691E+03  8.477850E+03  5.653908E+03  1.716257E-09 -1.298741E-09
       196  11 -1.204804E+05  6.975222E+03  6.324996E+03  3.156416E+03  5.166802E-11  9.170617E-10
       196  12 -1.303100E+05  4.569375E+03  4.120014E+03  5.641694E+03 -1.073454E-09  7.188049E-10
       196  13 -1.488505E+05  3.100367E+00 -2.216813E+02  5.633607E+03  5.718013E-10  4.006297E-10
       196  14 -1.488419E+05  5.440002E+00 -1.580650E+02  3.142214E+03  8.674497E-11 -1.924250E-10
       196  15 -1.488504E+05  7.342819E+00 -1.468293E+02  5.633605E+03  8.566852E-10  2.786499E-10
       196  16 -1.870321E+05 -9.374591E+03 -8.921307E+03  5.613307E+03 -1.189164E-09  9.956632E-10
       196  17 -1.772028E+05 -6.964398E+03 -6.641179E+03  3.128012E+03 -1.676464E-10  1.871654E-09
       196  18 -1.673905E+05 -4.554713E+03 -4.413695E+03  5.625516E+03  6.490712E-10  1.126465E-09
       196  19 -1.106677E+05  9.380694E+03  8.477856E+03  5.653909E+03  5.034778E+02  1.750089E+03
       196  20 -1.204804E+05  6.975224E+03  6.324999E+03  3.156416E+03  4.259337E+02  1.256283E+03
       196  21 -1.303100E+05  4.569376E+03  4.120015E+03  5.641694E+03  3.484126E+02  7.619756E+02
       196  22 -1.488505E+05  3.103660E+00 -2.216755E+02  5.633607E+03  1.363513E+02  1.749885E+03
       196  23 -1.488419E+05  5.441697E+00 -1.580620E+02  3.142214E+03  5.844129E+01  1.256071E+03
       196  24 -1.488504E+05  7.343442E+00 -1.468282E+02  5.633605E+03 -1.944691E+01  7.617565E+02
       196  25 -1.870321E+05 -9.374588E+03 -8.921301E+03  5.613307E+03 -2.307528E+02  1.749681E+03
       196  26 -1.772028E+05 -6.964397E+03 -6.641176E+03  3.128012E+03 -3.090345E+02  1.255860E+03
       196  27 -1.673905E+05 -4.554713E+03 -4.413694E+03  5.625516E+03 -3.872955E+02  7.615374E+02
       197   1 -1.394896E+05  2.302471E+03  1.953145E+03  5.635726E+03 -3.210164E+02 -4.741131E+02
       197   2 -1.493041E+05 -1.074875E+02 -3.251447E+02  3.136259E+03 -2.127005E+02  2.038140E+01
       197   3 -1.591408E+05 -2.521495E+03 -2.676632E+03  5.621906E+03 -1.043874E+02  5.146165E+02
       197   4 -1.488515E+05  7.530668E+00 -1.581525E+02  5.634122E+03  4.687493E+01 -4.738917E+02
       197   5 -1.488403E+05  6.499343E+00 -2.191115E+02  3.141567E+03  1.549925E+02  2.060242E+01
       197   6 -1.488516E+05  1.422589E+00 -3.531644E+02  5.634126E+03  2.631090E+02  5.148374E+02
       197   7 -1.582134E+05 -2.287415E+03 -2.269455E+03  5.632517E+03  4.147608E+02 -4.736702E+02
       197   8 -1.483765E+05  1.204862E+02 -1.130778E+02  3.146875E+03  5.226858E+02  2.082344E+01
       197   9 -1.385622E+05  2.524333E+03  1.970297E+03  5.646345E+03  6.306113E+02  5.150584E+02
       197  10 -1.394896E+05  2.302470E+03  1.953144E+03  5.635726E+03  3.933666E-10  5.708820E-10
       197  11 -1.493041E+05 -1.074875E+02 -3.251448E+02  3.136259E+03 -5.732355E-11 -6.438564E-10
       197  12 -1.591408E+05 -2.521495E+03 -2.676632E+03  5.621906E+03 -1.686311E-09 -1.461103E-10
       197  13 -1.488515E+05  7.530427E+00 -1.581530E+02  5.634122E+03 -3.209337E-10  1.585801E-09
       197  14 -1.488403E+05  6.499336E+00 -2.191116E+02  3.141567E+03 -1.589997E-10 -6.205460E-10
       197  15 -1.488516E+05  1.422286E+00 -3.531651E+02  5.634126E+03  1.026644E-09 -8.324493E-10
       197  16 -1.582134E+05 -2.287415E+03 -2.269455E+03  5.632517E+03 -1.645819E-10  1.343236E-10
       197  17 -1.483765E+05  1.204861E+02 -1.130783E+02  3.146875E+03  5.329565E-10 -2.807038E-09
       197  18 -1.385622E+05  2.524332E+03  1.970296E+03  5.646345E+03  1.289761E-09 -1.511322E-09
       197  19 -1.394896E+05  2.302471E+03  1.953145E+03  5.635726E+03  3.210164E+02  4.741131E+02
       197  20 -1.493041E+05 -1.074875E+02 -3.251447E+02  3.136259E+03  2.127005E+02 -2.038140E+01
       197  21 -1.591408E+05 -2.521495E+03 -2.676632E+03  5.621906E+03  1.043874E+02 -5.146165E+02
       197  22 -1.488515E+05  7.530668E+00 -1.581525E+02  5.634122E+03 -4.687493E+01  4.738917E+02
       197  23 -1.488403E+05  6.499343E+00 -2.191115E+02  3.141567E+03 -1.549925E+02 -2.060242E+01
       197  24 -1.488516E+05  1.422589E+00 -3.531644E+02  5.634126E+03 -2.631090E+02 -5.148374E+02
       197  25 -1.582134E+05 -2.287415E+03 -2.269455E+03  5.632517E+03 -4.147608E+02  4.736702E+02
       197  26 -1.483765E+05  1.204862E+02 -1.130778E+02  3.146875E+03 -5.226858E+02 -2.082344E+01
       197  27 -1.385622E+05  2.524333E+03  1.970297E+03  5.646345E+03 -6.306113E+02 -5.150584E+02
       198   1 -1.683336E+05 -4.775977E+03 -4.934020E+03  5.596746E+03 -3.354046E+01  8.030896E+02
       198   2 -1.781102E+05 -7.179911E+03 -7.471856E+03  3.118425E+03  3.566463E+02  1.296695E+03
       198   3 -1.879749E+05 -9.705935E+03 -1.029587E+04  5.622237E+03  7.468581E+02  1.784394E+03
       198   4 -1.488660E+05  1.404150E+01 -4.552443E+02  5.633437E+03  3.356555E+02  8.033092E+02
       198   5 -1.488224E+05  1.779576E+01 -7.765550E+02  3.142412E+03  7.214653E+02  1.296904E+03
       198   6 -1.488662E+05 -9.973099E+01 -1.380950E+03  5.633504E+03  1.107306E+03  1.784593E+03
       198   7 -1.293981E+05  4.804033E+03  4.023507E+03  5.670130E+03  7.048630E+02  8.035287E+02
       198   8 -1.195339E+05  7.215443E+03  5.918690E+03  3.166400E+03  1.086301E+03  1.297114E+03
       198   9 -1.097561E+05  9.506367E+03  7.533873E+03  5.644772E+03  1.467777E+03  1.784793E+03
       198  10 -1.683336E+05 -4.775978E+03 -4.934021E+03  5.596746E+03 -5.756832E-10  3.734781E-10
       198  11 -1.781102E+05 -7.179912E+03 -7.471859E+03  3.118425E+03  2.383324E-10 -1.171710E-09
       198  12 -1.879749E+05 -9.705938E+03 -1.029588E+04  5.622236E+03  3.587425E-10 -4.796630E-11
       198  13 -1.488660E+05  1.404078E+01 -4.552457E+02  5.633437E+03  3.149738E-10 -4.410315E-11
       198  14 -1.488225E+05  1.779381E+01 -7.765591E+02  3.142411E+03 -2.076493E-11 -9.439787E-12
       198  15 -1.488662E+05 -9.973474E+01 -1.380958E+03  5.633503E+03  8.251839E-10  8.875841E-10
       198  16 -1.293981E+05  4.804033E+03  4.023505E+03  5.670129E+03  7.739092E-10  1.222341E-09
       198  17 -1.195339E+05  7.215440E+03  5.918685E+03  3.166399E+03  5.945175E-10 -1.266231E-09
       198  18 -1.097561E+05  9.506363E+03  7.533863E+03  5.644770E+03  7.339425E-11  6.542149E-10
       198  19 -1.683336E+05 -4.775977E+03 -4.934020E+03  5.596746E+03  3.354046E+01 -8.030896E+02
       198  20 -1.781102E+05 -7.179911E+03 -7.471856E+03  3.118425E+03 -3.566463E+02 -1.296695E+03
       198  21 -1.879749E+05 -9.705935E+03 -1.029587E+04  5.622237E+03 -7.468581E+02 -1.784394E+03
       198  22 -1.488660E+05  1.404150E+01 -4.552443E+02  5.633437E+03 -3.356555E+02 -8.033092E+02
       198  23 -1.488224E+05  1.779576E+01 -7.765550E+02  3.142412E+03 -7.214653E+02 -1.296904E+03
       198  24 -1.488662E+05 -9.973099E+01 -1.380950E+03  5.633504E+03 -1.107306E+03 -1.784593E+03
       198  25 -1.293981E+05  4.804033E+03  4.023507E+03  5.670130E+03 -7.048630E+02 -8.035287E+02
       198  26 -1.195339E+05  7.215443E+03  5.918690E+03  3.166400E+03 -1.086301E+03 -1.297114E+03
       198  27 -1.097561E+05  9.506367E+03  7.533873E+03  5.644772E+03 -1.467777E+03 -1.784793E+03
       199   1 -1.972671E+05 -1.177426E+04 -1.285145E+04  5.339278E+03  9.890599E+02  2.085575E+03
       199   2 -2.067494E+05 -1.415248E+04 -1.635610E+04  3.255110E+03  2.630486E+03  2.560215E+03
       199   3 -2.168821E+05 -1.825828E+04 -2.136267E+04  6.142192E+03  4.271988E+03  2.915326E+03
       199   4 -1.489881E+05  9.625447E+01 -1.789178E+03  5.630788E+03  1.385953E+03  2.085788E+03
       199   5 -1.486708E+05  1.220289E+02 -3.072968E+03  3.145615E+03  2.938602E+03  2.560364E+03
       199   6 -1.489887E+05 -1.564263E+03 -5.796907E+03  5.631671E+03  4.491351E+03  2.915414E+03
       199   7 -1.007070E+05  1.196661E+04  9.272939E+03  5.922321E+03  1.782877E+03  2.086002E+03
       199   8 -9.058917E+04  1.439630E+04  1.020994E+04  3.036110E+03  3.246746E+03  2.560513E+03
       199   9 -8.109091E+04  1.512943E+04  9.768552E+03  5.121093E+03  4.710738E+03  2.915501E+03
       199  10 -1.972671E+05 -1.177427E+04 -1.285146E+04  5.339277E+03  2.095435E-09 -1.318767E-11
       199  11 -2.067494E+05 -1.415248E+04 -1.635612E+04  3.255104E+03 -2.847529E-10  6.304290E-10
       199  12 -2.168822E+05 -1.825829E+04 -2.136272E+04  6.142182E+03 -4.540075E-10 -1.114916E-09
       199  13 -1.489881E+05  9.624928E+01 -1.789189E+03  5.630786E+03 -1.389085E-10 -1.579232E-09
       199  14 -1.486708E+05  1.220195E+02 -3.072997E+03  3.145609E+03 -7.073300E-10  1.199926E-09
       199  15 -1.489887E+05 -1.564277E+03 -5.796961E+03  5.631660E+03  3.477689E-10 -2.674043E-10
       199  16 -1.007070E+05  1.196661E+04  9.272925E+03  5.922318E+03 -1.510520E-09 -5.952507E-10
       199  17 -9.058918E+04  1.439629E+04  1.020991E+04  3.036104E+03 -1.960204E-11 -2.580251E-09
       199  18 -8.109094E+04  1.512942E+04  9.768494E+03  5.121082E+03  5.151223E-10 -2.212003E-10
       199  19 -1.972671E+05 -1.177426E+04 -1.285145E+04  5.339278E+03 -9.890599E+02 -2.085575E+03
       199  20 -2.067494E+05 -1.415248E+04 -1.635610E+04  3.255110E+03 -2.630486E+03 -2.560215E+03
       199  21 -2.168821E+05 -1.825828E+04 -2.136267E+04  6.142192E+03 -4.271988E+03 -2.915326E+03
       199  22 -1.489881E+05  9.625447E+01 -1.789178E+03  5.630788E+03 -1.385953E+03 -2.085788E+03
       199  23 -1.486708E+05  1.220289E+02 -3.072968E+03  3.145615E+03 -2.938602E+03 -2.560364E+03
       199  24 -1.489887E+05 -1.564263E+03 -5.796907E+03  5.631671E+03 -4.491351E+03 -2.915414E+03
       199  25 -1.007070E+05  1.196661E+04  9.272939E+03  5.922321E+03 -1.782877E+03 -2.086002E+03
       199  26 -9.058917E+04  1.439630E+04  1.020994E+04  3.036110E+03 -3.246746E+03 -2.560513E+03
       199  27 -8.109091E+04  1.512943E+04  9.768552E+03  5.121093E+03 -4.710738E+03 -2.915501E+03
       200   1 -2.274078E+05 -1.774485E+04 -2.480013E+04  2.355353E+03  4.570639E+03  3.484114E+03
       200   2 -2.337339E+05 -2.001459E+04 -3.195417E+04  6.104674E+03  1.281323E+04  3.566550E+03
       200   3 -2.470344E+05 -4.587882E+04 -5.037484E+04  1.472975E+04  2.105662E+04  1.172199E+03
       200   4 -1.503262E+05  1.196402E+03 -7.211225E+03  5.606983E+03  5.550536E+03  3.484597E+03
       200   5 -1.470002E+05  1.325155E+03 -1.199130E+04  3.174175E+03  1.195162E+04  3.566056E+03
       200   6 -1.503282E+05 -2.181918E+04 -2.675795E+04  5.617315E+03  1.835367E+04  1.170716E+03
       200   7 -7.323896E+04  2.013728E+04  1.037730E+04  8.859021E+03  6.530554E+03  3.485091E+03
       200   8 -6.025960E+04  2.266441E+04  7.971087E+03  2.432624E+02  1.108988E+04  3.565569E+03
       200   9 -5.361339E+04  2.240084E+03 -3.141662E+03 -3.496548E+03  1.565031E+04  1.169312E+03
       200  10 -2.274079E+05 -1.774487E+04 -2.480019E+04  2.355340E+03  4.615571E-10 -5.868706E-10
       200  11 -2.337340E+05 -2.001465E+04 -3.195450E+04  6.104637E+03  6.360168E-10 -2.186541E-10
       200  12 -2.470348E+05 -4.587894E+04 -5.037567E+04  1.472973E+04  1.163263E-10  9.263664E-10
       200  13 -1.503262E+05  1.196381E+03 -7.211306E+03  5.606968E+03 -2.727414E-10  6.295919E-10
       200  14 -1.470004E+05  1.325103E+03 -1.199159E+04  3.174141E+03  4.170257E-10  7.970257E-10
       200  15 -1.503286E+05 -2.181927E+04 -2.675858E+04  5.617298E+03  7.279701E-11  5.510157E-10
       200  16 -7.323901E+04  2.013726E+04  1.037720E+04  8.859003E+03 -4.326718E-10  1.084181E-09
       200  17 -6.025973E+04  2.266436E+04  7.970832E+03  2.432305E+02 -5.688027E-10  8.442249E-10
       200  18 -5.361365E+04  2.240017E+03 -3.142125E+03 -3.496563E+03 -2.174985E-10  3.495028E-10
       200  19 -2.274078E+05 -1.774485E+04 -2.480013E+04  2.355353E+03 -4.570639E+03 -3.484114E+03
       200  20 -2.337339E+05 -2.001459E+04 -3.195417E+04  6.104674E+03 -1.281323E+04 -3.566550E+03
       200  21 -2.470344E+05 -4.587882E+04 -5.037484E+04  1.472975E+04 -2.105662E+04 -1.172199E+03
       200  22 -1.503262E+05  1.196402E+03 -7.211225E+03  5.606983E+03 -5.550536E+03 -3.484597E+03
       200  23 -1.470002E+05  1.325155E+03 -1.199130E+04  3.174175E+03 -1.195162E+04 -3.566056E+03
       200  24 -1.503282E+05 -2.181918E+04 -2.675795E+04  5.617315E+03 -1.835367E+04 -1.170716E+03
       200  25 -7.323896E+04  2.013728E+04  1.037730E+04  8.859021E+03 -6.530554E+03 -3.485091E+03
       200  26 -6.025960E+04  2.266441E+04  7.971087E+03  2.432624E+02 -1.108988E+04 -3.565569E+03
       200  27 -5.361339E+04  2.240084E+03 -3.141662E+03 -3.496548E+03 -1.565031E+04 -1.169312E+03

 stresses (elem, integ.pnt.,sxx,syy,szz,sxy,sxz,syz) for set ELALL and time  0.5000000E+00

         1   1  1.272084E+06  4.603865E+06  1.205314E+06 -9.206104E+05  5.773145E+04  4.724393E+05
         1   2  1.023602E+06  3.920175E+06  8.044264E+05 -8.504094E+05  1.928815E+05  2.181894E+05
         1   3  8.431372E+05  3.287650E+06  5.855306E+05 -8.817095E+05  2.256799E+05 -3.569618E+04
         1   4  5.965959E+04 -3.284185E+05  6.289815E+04 -8.738523E+05  5.848268E+04  4.163601E+04
         1   5  2.067966E+04 -3.324489E+05  3.355130E+04 -8.231626E+05  1.934133E+05  2.497751E+04
         1   6  8.871114E+03 -3.266047E+05  2.197724E+04 -8.739639E+05  2.256843E+05  8.376225E+03
         1   7 -1.154367E+06 -5.237932E+06 -1.080454E+06 -8.274432E+05  5.917425E+04 -3.857896E+05
         1   8 -9.832350E+05 -4.567465E+06 -7.379022E+05 -7.960876E+05  1.939309E+05 -1.669538E+05
         1   9 -8.260337E+05 -3.927862E+06 -5.418788E+05 -8.662484E+05  2.256898E+05  5.220261E+04
         1  10  1.272021E+06  4.603626E+06  1.204891E+06 -9.206324E+05  1.601114E-09  1.815172E-09
         1  11  1.023549E+06  3.920114E+06  8.042673E+05 -8.504433E+05  6.924952E-10 -3.843127E-08
         1  12  8.430822E+05  3.287635E+06  5.854326E+05 -8.817031E+05 -5.245422E-09 -7.421376E-08
         1  13  5.965545E+04 -3.284213E+05  6.288845E+04 -8.738542E+05  3.240081E-09  6.341153E-12
         1  14  2.063932E+04 -3.324596E+05  3.347981E+04 -8.231666E+05  6.997868E-09 -4.495684E-11
         1  15  8.816407E+03 -3.266185E+05  2.188139E+04 -8.739655E+05  1.516089E-08 -1.390054E-10
         1  16 -1.154411E+06 -5.238093E+06 -1.080742E+06 -8.274248E+05 -1.063665E-09 -1.790200E-09
         1  17 -9.832829E+05 -4.567505E+06 -7.380254E+05 -7.960615E+05 -3.320586E-09  3.811344E-08
         1  18 -8.260891E+05 -3.927879E+06 -5.419797E+05 -8.662579E+05 -3.848732E-09  7.349606E-08
         1  19  1.272084E+06  4.603865E+06  1.205314E+06 -9.206104E+05 -5.773145E+04 -4.724393E+05
         1  20  1.023602E+06  3.920175E+06  8.044264E+05 -8.504094E+05 -1.928815E+05 -2.181894E+05
         1  21  8.431372E+05  3.287650E+06  5.855306E+05 -8.817095E+05 -2.256799E+05  3.569618E+04
         1  22  5.965959E+04 -3.284185E+05  6.289815E+04 -8.738523E+05 -5.848268E+04 -4.163601E+04
         1  23  2.067966E+04 -3.324489E+05  3.355130E+04 -8.231626E+05 -1.934133E+05 -2.497751E+04
         1  24  8.871114E+03 -3.266047E+05  2.197724E+04 -8.739639E+05 -2.256843E+05 -8.376225E+03
         1  25 -1.154367E+06 -5.237932E+06 -1.080454E+06 -8.274432E+05 -5.917425E+04  3.857896E+05
         1  26 -9.832350E+05 -4.567465E+06 -7.379022E+05 -7.960876E+05 -1.939309E+05  1.669538E+05
         1  27 -8.260337E+05 -3.927862E+06 -5.418788E+05 -8.662484E+05 -2.256898E+05 -5.220261E+04
         2   1  7.436643E+05  2.871622E+06  5.029648E+05 -8.849228E+05  2.101336E+05 -4.453860E+04
         2   2  5.866911E+05  2.209921E+06  3.800187E+05 -8.253790E+05  1.821985E+05 -8.454147E+04
         2   3  4.421689E+05  1.556907E+06  2.861407E+05 -8.749052E+05  1.410945E+05 -1.245767E+05
         2   4  8.071587E+03 -3.276234E+05  1.939647E+04 -8.756550E+05  2.100892E+05  5.106599E+03
         2   5  7.382681E+03 -3.285556E+05  1.900586E+04 -8.211036E+05  1.820087E+05 -4.430086E+03
         2   6  1.390427E+04 -3.264940E+05  2.658917E+04 -8.756473E+05  1.407315E+05 -1.403872E+04
         2   7 -7.280074E+05 -3.516631E+06 -4.643728E+05 -8.664231E+05  2.100460E+05  5.450691E+04
         2   8 -5.722133E+05 -2.860515E+06 -3.420759E+05 -8.168376E+05  1.818195E+05  7.536874E+04
         2   9 -4.145096E+05 -2.206270E+06 -2.329566E+05 -8.763818E+05  1.403675E+05  9.617964E+04
         2  10  7.436164E+05  2.871608E+06  5.028782E+05 -8.849153E+05 -4.395635E-09  7.725434E-08
         2  11  5.866536E+05  2.209905E+06  3.799431E+05 -8.253666E+05 -1.285351E-10  3.905808E-08
         2  12  4.421434E+05  1.556885E+06  2.860743E+05 -8.748911E+05 -6.065218E-09 -2.776162E-09
         2  13  8.024191E+03 -3.276353E+05  1.931348E+04 -8.756559E+05  1.162115E-08 -2.198969E-10
         2  14  7.347111E+03 -3.285645E+05  1.894358E+04 -8.211030E+05  2.785549E-09 -1.338571E-10
         2  15  1.388296E+04 -3.264995E+05  2.655161E+04 -8.756458E+05  1.794690E-09 -3.808076E-11
         2  16 -7.280556E+05 -3.516646E+06 -4.644614E+05 -8.664323E+05 -5.047314E-09 -7.718348E-08
         2  17 -5.722503E+05 -2.860530E+06 -3.421488E+05 -8.168487E+05 -3.732949E-09 -3.908791E-08
         2  18 -4.145332E+05 -2.206285E+06 -2.330112E+05 -8.763927E+05 -3.943354E-09  2.587494E-09
         2  19  7.436643E+05  2.871622E+06  5.029648E+05 -8.849228E+05 -2.101336E+05  4.453860E+04
         2  20  5.866911E+05  2.209921E+06  3.800187E+05 -8.253790E+05 -1.821985E+05  8.454147E+04
         2  21  4.421689E+05  1.556907E+06  2.861407E+05 -8.749052E+05 -1.410945E+05  1.245767E+05
         2  22  8.071587E+03 -3.276234E+05  1.939647E+04 -8.756550E+05 -2.100892E+05 -5.106599E+03
         2  23  7.382681E+03 -3.285556E+05  1.900586E+04 -8.211036E+05 -1.820087E+05  4.430086E+03
         2  24  1.390427E+04 -3.264940E+05  2.658917E+04 -8.756473E+05 -1.407315E+05  1.403872E+04
         2  25 -7.280074E+05 -3.516631E+06 -4.643728E+05 -8.664231E+05 -2.100460E+05 -5.450691E+04
         2  26 -5.722133E+05 -2.860515E+06 -3.420759E+05 -8.168376E+05 -1.818195E+05 -7.536874E+04
         2  27 -4.145096E+05 -2.206270E+06 -2.329566E+05 -8.763818E+05 -1.403675E+05 -9.617964E+04
         3   1  3.522180E+05  1.151392E+06  2.336861E+05 -8.766916E+05  1.126445E+05 -1.298248E+05
         3   2  2.267191E+05  4.871659E+05  1.668041E+05 -7.854946E+05  6.424677E+04 -1.609006E+05
         3   3  1.470917E+05 -1.616099E+05  1.314702E+05 -8.042790E+05  1.519486E+04 -1.919715E+05
         3   4  1.731407E+04 -3.236341E+05  3.332578E+04 -8.758553E+05  1.122478E+05 -1.864838E+04
         3   5  4.167114E+04 -3.307991E+05  5.779609E+04 -8.207359E+05  6.382743E+04 -4.825593E+04
         3   6  1.116675E+05 -3.232511E+05  1.127558E+05 -8.755675E+05  1.475640E+04 -7.788644E+04
         3   7 -3.176776E+05 -1.796422E+06 -1.670097E+05 -8.750177E+05  1.118507E+05  9.227635E+04
         3   8 -1.433935E+05 -1.148051E+06 -5.116891E+04 -8.559277E+05  6.339491E+04  6.424737E+04
         3   9  7.626857E+04 -4.848262E+05  9.409332E+04 -9.468366E+05  1.429164E+04  3.617053E+04
         3  10  3.521999E+05  1.151371E+06  2.336307E+05 -8.766799E+05 -5.485338E-09  6.233737E-09
         3  11  2.267077E+05  4.871370E+05  1.667478E+05 -7.854863E+05 -1.694620E-09  4.659301E-09
         3  12  1.470815E+05 -1.616495E+05  1.314005E+05 -8.042767E+05 -1.828143E-09  3.210438E-09
         3  13  1.730046E+04 -3.236379E+05  3.330147E+04 -8.758536E+05 -2.337711E-09 -1.738144E-11
         3  14  4.166615E+04 -3.308027E+05  5.778408E+04 -8.207334E+05  6.474871E-10  1.674411E-11
         3  15  1.116656E+05 -3.232577E+05  1.127440E+05 -8.755666E+05  3.140093E-10 -8.536408E-12
         3  16 -3.176934E+05 -1.796434E+06 -1.670493E+05 -8.750260E+05 -2.445021E-09 -6.217332E-09
         3  17 -1.433990E+05 -1.148057E+06 -5.118425E+04 -8.559310E+05  1.880214E-09 -4.544641E-09
         3  18  7.626800E+04 -4.848276E+05  9.409047E+04 -9.468370E+05  1.120102E-09 -3.271656E-09
         3  19  3.522180E+05  1.151392E+06  2.336861E+05 -8.766916E+05 -1.126445E+05  1.298248E+05
         3  20  2.267191E+05  4.871659E+05  1.668041E+05 -7.854946E+05 -6.424677E+04  1.609006E+05
         3  21  1.470917E+05 -1.616099E+05  1.314702E+05 -8.042790E+05 -1.519486E+04  1.919715E+05
         3  22  1.731407E+04 -3.236341E+05  3.332578E+04 -8.758553E+05 -1.122478E+05  1.864838E+04
         3  23  4.167114E+04 -3.307991E+05  5.779609E+04 -8.207359E+05 -6.382743E+04  4.825593E+04
         3  24  1.116675E+05 -3.232511E+05  1.127558E+05 -8.755675E+05 -1.475640E+04  7.788644E+04
         3  25 -3.176776E+05 -1.796422E+06 -1.670097E+05 -8.750177E+05 -1.118507E+05 -9.227635E+04
         3  26 -1.433935E+05 -1.148051E+06 -5.116891E+04 -8.559277E+05 -6.339491E+04 -6.424737E+04
         3  27  7.626857E+04 -4.848262E+05  9.409332E+04 -9.468366E+05 -1.429164E+04 -3.617053E+04
         4   1 -4.715108E+06 -1.398554E+06 -9.713220E+05 -1.590604E+06 -5.898325E+05 -2.201003E+05
         4   2 -4.523876E+06 -5.437183E+05 -4.155021E+05 -1.765044E+06 -3.797272E+05 -1.397674E+05
         4   3 -4.692877E+06 -6.356144E+05 -2.718736E+05 -1.718000E+06 -1.687855E+05 -6.166916E+04
         4   4 -4.639017E+06 -1.279812E+06 -9.322735E+05 -1.477497E+06 -5.893743E+05 -2.200369E+05
         4   5 -4.412064E+06 -4.783199E+05 -3.802060E+05 -1.710924E+06 -3.797103E+05 -1.397790E+05
         4   6 -4.545186E+06 -6.233870E+05 -2.399306E+05 -1.722895E+06 -1.691958E+05 -6.180777E+04
         4   7 -4.562900E+06 -1.161017E+06 -8.932217E+05 -1.364368E+06 -5.889161E+05 -2.199733E+05
         4   8 -4.300238E+06 -4.129145E+05 -3.449110E+05 -1.656792E+06 -3.796934E+05 -1.397907E+05
         4   9 -4.397469E+06 -6.111571E+05 -2.079876E+05 -1.727794E+06 -1.696062E+05 -6.194636E+04
         4  10 -4.715498E+06 -1.398700E+06 -9.720732E+05 -1.590710E+06  2.994878E-09  3.360092E-10
         4  11 -4.524037E+06 -5.437785E+05 -4.158124E+05 -1.765087E+06  3.050575E-09  3.765893E-10
         4  12 -4.692909E+06 -6.356263E+05 -2.719348E+05 -1.718009E+06 -1.991773E-09  8.658997E-10
         4  13 -4.639406E+06 -1.279958E+06 -9.330235E+05 -1.477602E+06  1.578225E-10  2.371030E-10
         4  14 -4.412225E+06 -4.783801E+05 -3.805162E+05 -1.710967E+06 -2.249590E-09  3.908425E-10
         4  15 -4.545218E+06 -6.233989E+05 -2.399921E+05 -1.722904E+06 -1.642041E-10  9.926065E-10
         4  16 -4.563288E+06 -1.161163E+06 -8.939704E+05 -1.364473E+06  1.257621E-09 -3.366832E-11
         4  17 -4.300399E+06 -4.129747E+05 -3.452212E+05 -1.656835E+06  5.502654E-10  3.225460E-10
         4  18 -4.397502E+06 -6.111690E+05 -2.080494E+05 -1.727803E+06 -1.420486E-09  1.740316E-09
         4  19 -4.715108E+06 -1.398554E+06 -9.713220E+05 -1.590604E+06  5.898325E+05  2.201003E+05
         4  20 -4.523876E+06 -5.437183E+05 -4.155021E+05 -1.765044E+06  3.797272E+05  1.397674E+05
         4  21 -4.692877E+06 -6.356144E+05 -2.718736E+05 -1.718000E+06  1.687855E+05  6.166916E+04
         4  22 -4.639017E+06 -1.279812E+06 -9.322735E+05 -1.477497E+06  5.893743E+05  2.200369E+05
         4  23 -4.412064E+06 -4.783199E+05 -3.802060E+05 -1.710924E+06  3.797103E+05  1.397790E+05
         4  24 -4.545186E+06 -6.233870E+05 -2.399306E+05 -1.722895E+06  1.691958E+05  6.180777E+04
         4  25 -4.562900E+06 -1.161017E+06 -8.932217E+05 -1.364368E+06  5.889161E+05  2.199733E+05
         4  26 -4.300238E+06 -4.129145E+05 -3.449110E+05 -1.656792E+06  3.796934E+05  1.397907E+05
         4  27 -4.397469E+06 -6.111571E+05 -2.079876E+05 -1.727794E+06  1.696062E+05  6.194636E+04
         5   1 -4.535811E+06 -7.548514E+05 -2.062933E+05 -1.682832E+06 -1.327828E+05 -4.896910E+04
         5   2 -4.501506E+06 -6.134553E+05 -9.317885E+04 -1.691972E+06 -8.515120E+04 -3.158379E+04
         5   3 -4.501394E+06 -6.319234E+05 -5.290438E+04 -1.693375E+06 -3.740255E+04 -1.450256E+04
         5   4 -4.513220E+06 -7.337138E+05 -1.975990E+05 -1.663726E+06 -1.328327E+05 -4.899119E+04
         5   5 -4.489256E+06 -6.057720E+05 -8.921034E+04 -1.685506E+06 -8.526099E+04 -3.162541E+04
         5   6 -4.499470E+06 -6.376802E+05 -5.361097E+04 -1.699549E+06 -3.757315E+04 -1.456591E+04
         5   7 -4.490628E+06 -7.125748E+05 -1.889047E+05 -1.644620E+06 -1.328826E+05 -4.901328E+04
         5   8 -4.477006E+06 -5.980886E+05 -8.524185E+04 -1.679040E+06 -8.537078E+04 -3.166704E+04
         5   9 -4.497547E+06 -6.434368E+05 -5.431753E+04 -1.705722E+06 -3.774374E+04 -1.462925E+04
         5  10 -4.535831E+06 -7.548588E+05 -2.063313E+05 -1.682837E+06 -1.287169E-09  8.422119E-10
         5  11 -4.501514E+06 -6.134583E+05 -9.319448E+04 -1.691975E+06 -4.381182E-10 -1.743086E-09
         5  12 -4.501396E+06 -6.319240E+05 -5.290743E+04 -1.693375E+06  3.066159E-10 -1.134108E-09
         5  13 -4.513240E+06 -7.337211E+05 -1.976370E+05 -1.663732E+06  2.094541E-09  5.118814E-10
         5  14 -4.489264E+06 -6.057750E+05 -8.922601E+04 -1.685509E+06 -7.109387E-10 -2.293141E-10
         5  15 -4.499472E+06 -6.376809E+05 -5.361405E+04 -1.699549E+06  8.366134E-10 -7.390402E-10
         5  16 -4.490648E+06 -7.125822E+05 -1.889427E+05 -1.644625E+06  4.357335E-10  1.132071E-09
         5  17 -4.477014E+06 -5.980916E+05 -8.525756E+04 -1.679042E+06  8.554904E-10 -1.943273E-10
         5  18 -4.497548E+06 -6.434374E+05 -5.432064E+04 -1.705723E+06  1.054709E-09  6.298041E-10
         5  19 -4.535811E+06 -7.548514E+05 -2.062933E+05 -1.682832E+06  1.327828E+05  4.896910E+04
         5  20 -4.501506E+06 -6.134553E+05 -9.317885E+04 -1.691972E+06  8.515120E+04  3.158379E+04
         5  21 -4.501394E+06 -6.319234E+05 -5.290438E+04 -1.693375E+06  3.740255E+04  1.450256E+04
         5  22 -4.513220E+06 -7.337138E+05 -1.975990E+05 -1.663726E+06  1.328327E+05  4.899119E+04
         5  23 -4.489256E+06 -6.057720E+05 -8.921034E+04 -1.685506E+06  8.526099E+04  3.162541E+04
         5  24 -4.499470E+06 -6.376802E+05 -5.361097E+04 -1.699549E+06  3.757315E+04  1.456591E+04
         5  25 -4.490628E+06 -7.125748E+05 -1.889047E+05 -1.644620E+06  1.328826E+05  4.901328E+04
         5  26 -4.477006E+06 -5.980886E+05 -8.524185E+04 -1.679040E+06  8.537078E+04  3.166704E+04
         5  27 -4.497547E+06 -6.434368E+05 -5.431753E+04 -1.705722E+06  3.774374E+04  1.462925E+04
         6   1 -4.402323E+06 -6.190590E+05 -1.748701E+04 -1.666113E+06 -2.927484E+04 -1.201959E+04
         6   2 -4.393233E+06 -5.860286E+05  8.328845E+03 -1.655032E+06 -1.827383E+04 -8.634938E+03
         6   3 -4.373628E+06 -5.923581E+05  2.066343E+04 -1.661251E+06 -7.360593E+03 -5.014589E+03
         6   4 -4.495435E+06 -6.525339E+05 -4.278535E+04 -1.689557E+06 -2.942415E+04 -1.207559E+04
         6   5 -4.499686E+06 -6.258953E+05 -2.084111E+04 -1.683498E+06 -1.837734E+04 -8.673740E+03
         6   6 -4.493430E+06 -6.386280E+05 -1.241588E+04 -1.694739E+06 -7.418557E+03 -5.036326E+03
         6   7 -4.588540E+06 -6.860087E+05 -6.808453E+04 -1.712999E+06 -2.957343E+04 -1.213159E+04
         6   8 -4.606127E+06 -6.657615E+05 -5.001216E+04 -1.711959E+06 -1.848082E+04 -8.712536E+03
         6   9 -4.613218E+06 -6.848970E+05 -4.549657E+04 -1.728220E+06 -7.476509E+03 -5.058057E+03
         6  10 -4.402324E+06 -6.190594E+05 -1.748891E+04 -1.666114E+06  4.898480E-10 -3.275700E-10
         6  11 -4.393234E+06 -5.860288E+05  8.328071E+03 -1.655032E+06  4.210001E-10 -1.053083E-10
         6  12 -4.373628E+06 -5.923582E+05  2.066328E+04 -1.661251E+06 -1.775910E-09 -8.095894E-11
         6  13 -4.495436E+06 -6.525343E+05 -4.278727E+04 -1.689558E+06  1.129194E-09 -3.606054E-10
         6  14 -4.499686E+06 -6.258955E+05 -2.084190E+04 -1.683498E+06 -2.546326E-09  1.709044E-10
         6  15 -4.493430E+06 -6.386281E+05 -1.241604E+04 -1.694739E+06  3.816300E-10 -5.856435E-10
         6  16 -4.588541E+06 -6.860091E+05 -6.808647E+04 -1.712999E+06  4.548971E-10 -1.199703E-09
         6  17 -4.606128E+06 -6.657617E+05 -5.001296E+04 -1.711959E+06 -1.521359E-09 -6.895254E-10
         6  18 -4.613218E+06 -6.848970E+05 -4.549673E+04 -1.728220E+06  1.284838E-09 -1.666075E-10
         6  19 -4.402323E+06 -6.190590E+05 -1.748701E+04 -1.666113E+06  2.927484E+04  1.201959E+04
         6  20 -4.393233E+06 -5.860286E+05  8.328845E+03 -1.655032E+06  1.827383E+04  8.634938E+03
         6  21 -4.373628E+06 -5.923581E+05  2.066343E+04 -1.661251E+06  7.360593E+03  5.014589E+03
         6  22 -4.495435E+06 -6.525339E+05 -4.278535E+04 -1.689557E+06  2.942415E+04  1.207559E+04
         6  23 -4.499686E+06 -6.258953E+05 -2.084111E+04 -1.683498E+06  1.837734E+04  8.673740E+03
         6  24 -4.493430E+06 -6.386280E+05 -1.241588E+04 -1.694739E+06  7.418557E+03  5.036326E+03
         6  25 -4.588540E+06 -6.860087E+05 -6.808453E+04 -1.712999E+06  2.957343E+04  1.213159E+04
         6  26 -4.606127E+06 -6.657615E+05 -5.001216E+04 -1.711959E+06  1.848082E+04  8.712536E+03
         6  27 -4.613218E+06 -6.848970E+05 -4.549657E+04 -1.728220E+06  7.476509E+03  5.058057E+03
         7   1 -4.319826E+06 -5.719433E+05  3.831738E+04 -1.642954E+06 -5.341180E+03 -4.579547E+03
         7   2 -4.317497E+06 -5.637560E+05  4.384352E+04 -1.637999E+06 -2.338555E+03 -3.932448E+03
         7   3 -4.309438E+06 -5.658919E+05  4.641164E+04 -1.640329E+06  4.959176E+02 -2.836526E+03
         7   4 -4.495338E+06 -6.380885E+05 -9.905221E+03 -1.690305E+06 -5.469254E+03 -4.627618E+03
         7   5 -4.498068E+06 -6.320561E+05 -5.767722E+03 -1.686983E+06 -2.377202E+03 -3.947013E+03
         7   6 -4.495086E+06 -6.363653E+05 -4.660165E+03 -1.690947E+06  5.466551E+02 -2.817533E+03
         7   7 -4.670820E+06 -7.042320E+05 -5.813054E+04 -1.737644E+06 -5.597286E+03 -4.675673E+03
         7   8 -4.678607E+06 -7.003544E+05 -5.538192E+04 -1.735954E+06 -2.415836E+03 -3.961574E+03
         7   9 -4.680701E+06 -7.068368E+05 -5.573518E+04 -1.741551E+06  5.973759E+02 -2.798546E+03
         7  10 -4.319826E+06 -5.719433E+05  3.831728E+04 -1.642954E+06 -1.715851E-09  4.032502E-10
         7  11 -4.317497E+06 -5.637560E+05  4.384348E+04 -1.637999E+06 -7.484734E-10  9.818439E-10
         7  12 -4.309438E+06 -5.658919E+05  4.641163E+04 -1.640329E+06  1.863323E-09  1.165115E-10
         7  13 -4.495338E+06 -6.380886E+05 -9.905318E+03 -1.690305E+06 -1.100440E-09 -3.578676E-10
         7  14 -4.498068E+06 -6.320562E+05 -5.767762E+03 -1.686983E+06  3.299382E-09 -1.148978E-09
         7  15 -4.495086E+06 -6.363653E+05 -4.660180E+03 -1.690947E+06 -1.370198E-10 -5.160094E-10
         7  16 -4.670820E+06 -7.042320E+05 -5.813064E+04 -1.737644E+06  2.336773E-09 -1.177772E-09
         7  17 -4.678607E+06 -7.003544E+05 -5.538196E+04 -1.735954E+06 -2.965762E-09  1.385140E-09
         7  18 -4.680701E+06 -7.068368E+05 -5.573520E+04 -1.741551E+06 -1.461603E-09 -7.678258E-10
         7  19 -4.319826E+06 -5.719433E+05  3.831738E+04 -1.642954E+06  5.341180E+03  4.579547E+03
         7  20 -4.317497E+06 -5.637560E+05  4.384352E+04 -1.637999E+06  2.338555E+03  3.932448E+03
         7  21 -4.309438E+06 -5.658919E+05  4.641164E+04 -1.640329E+06 -4.959176E+02  2.836526E+03
         7  22 -4.495338E+06 -6.380885E+05 -9.905221E+03 -1.690305E+06  5.469254E+03  4.627618E+03
         7  23 -4.498068E+06 -6.320561E+05 -5.767722E+03 -1.686983E+06  2.377202E+03  3.947013E+03
         7  24 -4.495086E+06 -6.363653E+05 -4.660165E+03 -1.690947E+06 -5.466551E+02  2.817533E+03
         7  25 -4.670820E+06 -7.042320E+05 -5.813054E+04 -1.737644E+06  5.597286E+03  4.675673E+03
         7  26 -4.678607E+06 -7.003544E+05 -5.538192E+04 -1.735954E+06  2.415836E+03  3.961574E+03
         7  27 -4.680701E+06 -7.068368E+05 -5.573518E+04 -1.741551E+06 -5.973759E+02  2.798546E+03
         8   1 -4.314987E+06 -5.636365E+05  4.577708E+04 -1.637347E+06  1.350669E+03 -2.501944E+03
         8   2 -4.316581E+06 -5.691084E+05  4.310446E+04 -1.643580E+06  4.121772E+03 -1.451282E+03
         8   3 -4.327714E+06 -5.695101E+05  3.754940E+04 -1.639640E+06  6.726809E+03  4.025841E+01
         8   4 -4.498483E+06 -6.329781E+05 -4.636813E+03 -1.687055E+06  1.307929E+03 -2.518069E+03
         8   5 -4.493825E+06 -6.363206E+05 -5.626784E+03 -1.691836E+06  4.166889E+03 -1.434372E+03
         8   6 -4.498724E+06 -6.346107E+05 -9.569860E+03 -1.686444E+06  6.859795E+03  9.027412E+01
         8   7 -4.681947E+06 -7.023177E+05 -5.505373E+04 -1.736750E+06  1.265203E+03 -2.534189E+03
         8   8 -4.671039E+06 -7.035309E+05 -5.436092E+04 -1.740080E+06  4.211992E+03 -1.417468E+03
         8   9 -4.669706E+06 -6.997097E+05 -5.669187E+04 -1.733237E+06  6.992741E+03  1.402744E+02
         8  10 -4.314987E+06 -5.636365E+05  4.577706E+04 -1.637347E+06  2.050998E-09 -2.390218E-10
         8  11 -4.316581E+06 -5.691084E+05  4.310443E+04 -1.643580E+06  2.865375E-09  4.736071E-10
         8  12 -4.327714E+06 -5.695101E+05  3.754931E+04 -1.639640E+06 -1.580134E-09 -3.581455E-10
         8  13 -4.498483E+06 -6.329781E+05 -4.636829E+03 -1.687055E+06 -4.021258E-11 -2.893810E-10
         8  14 -4.493825E+06 -6.363206E+05 -5.626820E+03 -1.691836E+06 -1.206158E-09 -6.093668E-10
         8  15 -4.498724E+06 -6.346108E+05 -9.569949E+03 -1.686444E+06 -1.638856E-09 -7.326038E-10
         8  16 -4.681947E+06 -7.023177E+05 -5.505375E+04 -1.736750E+06 -8.928793E-10  5.888331E-10
         8  17 -4.671039E+06 -7.035310E+05 -5.436096E+04 -1.740080E+06 -5.195544E-09  5.075128E-10
         8  18 -4.669706E+06 -6.997098E+05 -5.669196E+04 -1.733237E+06 -1.592103E-10 -2.084261E-09
         8  19 -4.314987E+06 -5.636365E+05  4.577708E+04 -1.637347E+06 -1.350669E+03  2.501944E+03
         8  20 -4.316581E+06 -5.691084E+05  4.310446E+04 -1.643580E+06 -4.121772E+03  1.451282E+03
         8  21 -4.327714E+06 -5.695101E+05  3.754940E+04 -1.639640E+06 -6.726809E+03 -4.025841E+01
         8  22 -4.498483E+06 -6.329781E+05 -4.636813E+03 -1.687055E+06 -1.307929E+03  2.518069E+03
         8  23 -4.493825E+06 -6.363206E+05 -5.626784E+03 -1.691836E+06 -4.166889E+03  1.434372E+03
         8  24 -4.498724E+06 -6.346107E+05 -9.569860E+03 -1.686444E+06 -6.859795E+03 -9.027412E+01
         8  25 -4.681947E+06 -7.023177E+05 -5.505373E+04 -1.736750E+06 -1.265203E+03  2.534189E+03
         8  26 -4.671039E+06 -7.035309E+05 -5.436092E+04 -1.740080E+06 -4.211992E+03  1.417468E+03
         8  27 -4.669706E+06 -6.997097E+05 -5.669187E+04 -1.733237E+06 -6.992741E+03 -1.402744E+02
         9   1 -4.388994E+06 -5.879132E+05  1.891842E+04 -1.654852E+06  8.457709E+03  1.037127E+03
         9   2 -4.391427E+06 -5.996493E+05  6.797794E+03 -1.669080E+06  1.864278E+04  5.376532E+03
         9   3 -4.422449E+06 -6.105687E+05 -1.830212E+04 -1.655748E+06  2.874833E+04  9.924935E+03
         9   4 -4.502138E+06 -6.298875E+05 -1.197412E+04 -1.684710E+06  8.524309E+03  1.062199E+03
         9   5 -4.488814E+06 -6.369640E+05 -2.005635E+04 -1.695986E+06  1.874987E+04  5.416853E+03
         9   6 -4.504088E+06 -6.432336E+05 -4.115152E+04 -1.679703E+06  2.889618E+04  9.980573E+03
         9   7 -4.615269E+06 -6.718612E+05 -4.286781E+04 -1.714564E+06  8.590896E+03  1.087267E+03
         9   8 -4.586191E+06 -6.742781E+05 -4.691136E+04 -1.722889E+06  1.885694E+04  5.457167E+03
         9   9 -4.585721E+06 -6.758979E+05 -6.400152E+04 -1.703654E+06  2.904401E+04  1.003620E+04
         9  10 -4.388994E+06 -5.879132E+05  1.891828E+04 -1.654852E+06 -2.811686E-09  4.386929E-10
         9  11 -4.391428E+06 -5.996494E+05  6.797080E+03 -1.669080E+06 -2.044006E-10  2.180185E-10
         9  12 -4.422450E+06 -6.105690E+05 -1.830387E+04 -1.655749E+06  3.796110E-09  1.032562E-09
         9  13 -4.502138E+06 -6.298875E+05 -1.197426E+04 -1.684710E+06 -4.122039E-10 -7.227490E-10
         9  14 -4.488814E+06 -6.369641E+05 -2.005707E+04 -1.695986E+06 -6.784856E-10 -1.443670E-10
         9  15 -4.504089E+06 -6.432340E+05 -4.115329E+04 -1.679703E+06  8.625199E-10  9.673989E-10
         9  16 -4.615269E+06 -6.718612E+05 -4.286795E+04 -1.714564E+06 -9.030012E-11  4.282575E-11
         9  17 -4.586192E+06 -6.742783E+05 -4.691209E+04 -1.722889E+06 -9.168658E-10 -9.225786E-11
         9  18 -4.585722E+06 -6.758983E+05 -6.400331E+04 -1.703654E+06  4.055345E-10  1.424541E-09
         9  19 -4.388994E+06 -5.879132E+05  1.891842E+04 -1.654852E+06 -8.457709E+03 -1.037127E+03
         9  20 -4.391427E+06 -5.996493E+05  6.797794E+03 -1.669080E+06 -1.864278E+04 -5.376532E+03
         9  21 -4.422449E+06 -6.105687E+05 -1.830212E+04 -1.655748E+06 -2.874833E+04 -9.924935E+03
         9  22 -4.502138E+06 -6.298875E+05 -1.197412E+04 -1.684710E+06 -8.524309E+03 -1.062199E+03
         9  23 -4.488814E+06 -6.369640E+05 -2.005635E+04 -1.695986E+06 -1.874987E+04 -5.416853E+03
         9  24 -4.504088E+06 -6.432336E+05 -4.115152E+04 -1.679703E+06 -2.889618E+04 -9.980573E+03
         9  25 -4.615269E+06 -6.718612E+05 -4.286781E+04 -1.714564E+06 -8.590896E+03 -1.087267E+03
         9  26 -4.586191E+06 -6.742781E+05 -4.691136E+04 -1.722889E+06 -1.885694E+04 -5.457167E+03
         9  27 -4.585721E+06 -6.758979E+05 -6.400152E+04 -1.703654E+06 -2.904401E+04 -1.003620E+04
        10   1 -4.511693E+06 -6.345869E+05 -5.348345E+04 -1.694616E+06  3.618943E+04  1.329438E+04
        10   2 -4.502899E+06 -6.264945E+05 -9.235471E+04 -1.704226E+06  8.155617E+04  3.119819E+04
        10   3 -4.572739E+06 -7.263641E+05 -2.012721E+05 -1.654090E+06  1.270477E+05  4.876651E+04
        10   4 -4.509466E+06 -6.274446E+05 -5.155679E+04 -1.687588E+06  3.636423E+04  1.336076E+04
        10   5 -4.476848E+06 -6.195641E+05 -8.578484E+04 -1.700147E+06  8.166548E+04  3.123890E+04
        10   6 -4.522846E+06 -7.196290E+05 -1.900032E+05 -1.652960E+06  1.270934E+05  4.878060E+04
        10   7 -4.507240E+06 -6.203021E+05 -4.963010E+04 -1.680559E+06  3.653903E+04  1.342713E+04
        10   8 -4.450796E+06 -6.126338E+05 -7.921502E+04 -1.696067E+06  8.177480E+04  3.127962E+04
        10   9 -4.472952E+06 -7.128937E+05 -1.787345E+05 -1.651831E+06  1.271392E+05  4.879468E+04
        10  10 -4.511694E+06 -6.345875E+05 -5.348627E+04 -1.694617E+06  3.190762E-09  9.244182E-10
        10  11 -4.502906E+06 -6.264973E+05 -9.236916E+04 -1.704228E+06 -1.342667E-09 -2.873556E-10
        10  12 -4.572757E+06 -7.263711E+05 -2.013072E+05 -1.654095E+06  3.938705E-13 -5.784933E-10
        10  13 -4.509468E+06 -6.274452E+05 -5.155963E+04 -1.687588E+06  1.633483E-09  7.550131E-10
        10  14 -4.476855E+06 -6.195670E+05 -8.579933E+04 -1.700149E+06  2.519283E-09 -4.682703E-11
        10  15 -4.522865E+06 -7.196359E+05 -1.900384E+05 -1.652965E+06  8.020744E-10  3.343963E-10
        10  16 -4.507241E+06 -6.203026E+05 -4.963297E+04 -1.680559E+06  1.705475E-11  2.917373E-10
        10  17 -4.450803E+06 -6.126366E+05 -7.922954E+04 -1.696070E+06  2.523564E-09  3.832901E-10
        10  18 -4.472970E+06 -7.129007E+05 -1.787696E+05 -1.651836E+06  1.374849E-09  1.194529E-09
        10  19 -4.511693E+06 -6.345869E+05 -5.348345E+04 -1.694616E+06 -3.618943E+04 -1.329438E+04
        10  20 -4.502899E+06 -6.264945E+05 -9.235471E+04 -1.704226E+06 -8.155617E+04 -3.119819E+04
        10  21 -4.572739E+06 -7.263641E+05 -2.012721E+05 -1.654090E+06 -1.270477E+05 -4.876651E+04
        10  22 -4.509466E+06 -6.274446E+05 -5.155679E+04 -1.687588E+06 -3.636423E+04 -1.336076E+04
        10  23 -4.476848E+06 -6.195641E+05 -8.578484E+04 -1.700147E+06 -8.166548E+04 -3.123890E+04
        10  24 -4.522846E+06 -7.196290E+05 -1.900032E+05 -1.652960E+06 -1.270934E+05 -4.878060E+04
        10  25 -4.507240E+06 -6.203021E+05 -4.963010E+04 -1.680559E+06 -3.653903E+04 -1.342713E+04
        10  26 -4.450796E+06 -6.126338E+05 -7.921502E+04 -1.696067E+06 -8.177480E+04 -3.127962E+04
        10  27 -4.472952E+06 -7.128937E+05 -1.787345E+05 -1.651831E+06 -1.271392E+05 -4.879468E+04
        11   1 -4.643191E+06 -6.940587E+05 -2.646843E+05 -1.781835E+06  1.611124E+05  6.238310E+04
        11   2 -4.557630E+06 -5.285784E+05 -4.027611E+05 -1.738930E+06  3.632394E+05  1.394276E+05
        11   3 -4.851611E+06 -1.240245E+06 -9.372014E+05 -1.445120E+06  5.662391E+05  2.141707E+05
        11   4 -4.550448E+06 -6.166735E+05 -2.307066E+05 -1.713430E+06  1.615176E+05  6.254968E+04
        11   5 -4.406170E+06 -4.934812E+05 -3.656023E+05 -1.720547E+06  3.632258E+05  1.394059E+05
        11   6 -4.641292E+06 -1.247237E+06 -8.964512E+05 -1.476766E+06  5.658286E+05  2.139159E+05
        11   7 -4.457692E+06 -5.392729E+05 -1.967292E+05 -1.645012E+06  1.619228E+05  6.271635E+04
        11   8 -4.254687E+06 -4.583848E+05 -3.284449E+05 -1.702161E+06  3.632123E+05  1.393842E+05
        11   9 -4.430914E+06 -1.254211E+06 -8.556982E+05 -1.508427E+06  5.654178E+05  2.136612E+05
        11  10 -4.643221E+06 -6.940700E+05 -2.647409E+05 -1.781843E+06  5.109228E-11  1.592171E-10
        11  11 -4.557778E+06 -5.286353E+05 -4.030481E+05 -1.738971E+06 -2.214491E-09  9.895513E-10
        11  12 -4.851971E+06 -1.240381E+06 -9.378961E+05 -1.445218E+06 -9.145820E-10  3.166601E-10
        11  13 -4.550477E+06 -6.166848E+05 -2.307635E+05 -1.713438E+06 -1.929654E-09  2.588115E-10
        11  14 -4.406318E+06 -4.935380E+05 -3.658891E+05 -1.720588E+06 -4.015606E-09  7.853896E-10
        11  15 -4.641651E+06 -1.247373E+06 -8.971446E+05 -1.476864E+06  8.309939E-10  5.167273E-11
        11  16 -4.457721E+06 -5.392843E+05 -1.967863E+05 -1.645020E+06 -1.212899E-09  1.386027E-09
        11  17 -4.254835E+06 -4.584415E+05 -3.287316E+05 -1.702202E+06  1.839483E-09  8.756318E-10
        11  18 -4.431272E+06 -1.254347E+06 -8.563904E+05 -1.508525E+06  1.001203E-09  1.232298E-10
        11  19 -4.643191E+06 -6.940587E+05 -2.646843E+05 -1.781835E+06 -1.611124E+05 -6.238310E+04
        11  20 -4.557630E+06 -5.285784E+05 -4.027611E+05 -1.738930E+06 -3.632394E+05 -1.394276E+05
        11  21 -4.851611E+06 -1.240245E+06 -9.372014E+05 -1.445120E+06 -5.662391E+05 -2.141707E+05
        11  22 -4.550448E+06 -6.166735E+05 -2.307066E+05 -1.713430E+06 -1.615176E+05 -6.254968E+04
        11  23 -4.406170E+06 -4.934812E+05 -3.656023E+05 -1.720547E+06 -3.632258E+05 -1.394059E+05
        11  24 -4.641292E+06 -1.247237E+06 -8.964512E+05 -1.476766E+06 -5.658286E+05 -2.139159E+05
        11  25 -4.457692E+06 -5.392729E+05 -1.967292E+05 -1.645012E+06 -1.619228E+05 -6.271635E+04
        11  26 -4.254687E+06 -4.583848E+05 -3.284449E+05 -1.702161E+06 -3.632123E+05 -1.393842E+05
        11  27 -4.430914E+06 -1.254211E+06 -8.556982E+05 -1.508427E+06 -5.654178E+05 -2.136612E+05
        12   1 -8.465375E+03 -4.820501E+05 -6.407963E+03  4.813082E+02 -5.013096E+01 -2.068140E+02
        12   2 -8.986199E+03 -4.825694E+05 -6.080015E+03 -6.329880E+02 -6.322203E+01 -1.507476E+03
        12   3 -7.202928E+03 -4.817645E+05 -4.212942E+03  4.924465E+02 -2.563501E+01 -2.808200E+03
        12   4  1.726469E+02 -4.475152E+05  2.229421E+03  4.980748E+02 -5.013067E+01 -2.059040E+02
        12   5 -3.838815E+02 -4.481772E+05  2.521505E+03 -6.223766E+02 -6.322199E+01 -1.507845E+03
        12   6  1.363850E+03 -4.475147E+05  4.353551E+03  4.968951E+02 -2.563644E+01 -2.809847E+03
        12   7  8.810579E+03 -4.129793E+05  1.086672E+04  5.148423E+02 -5.013039E+01 -2.049939E+02
        12   8  8.218347E+03 -4.137839E+05  1.112294E+04 -6.117648E+02 -6.322199E+01 -1.508214E+03
        12   9  9.930539E+03 -4.132639E+05  1.291995E+04  5.013436E+02 -2.563793E+01 -2.811494E+03
        12  10 -8.465379E+03 -4.820501E+05 -6.407964E+03  4.813081E+02 -1.907892E-06 -1.001235E-06
        12  11 -8.986216E+03 -4.825694E+05 -6.080023E+03 -6.329881E+02 -8.302515E-06 -1.199714E-06
        12  12 -7.202959E+03 -4.817645E+05 -4.212964E+03  4.924465E+02 -1.472214E-05 -7.803508E-07
        12  13  1.726469E+02 -4.475152E+05  2.229421E+03  4.980748E+02  2.304698E-06 -4.565821E-08
        12  14 -3.838821E+02 -4.481772E+05  2.521501E+03 -6.223767E+02  1.039094E-05 -1.936558E-07
        12  15  1.363848E+03 -4.475147E+05  4.353536E+03  4.968951E+02  1.845902E-05 -3.276728E-07
        12  16  8.810583E+03 -4.129793E+05  1.086672E+04  5.148422E+02 -1.909397E-06  9.654559E-07
        12  17  8.218362E+03 -4.137839E+05  1.112294E+04 -6.117650E+02 -8.301738E-06  1.057944E-06
        12  18  9.930566E+03 -4.132639E+05  1.291995E+04  5.013434E+02 -1.472115E-05  5.619534E-07
        12  19 -8.465383E+03 -4.820501E+05 -6.407965E+03  4.813081E+02  5.013096E+01  2.068140E+02
        12  20 -8.986231E+03 -4.825694E+05 -6.080023E+03 -6.329881E+02  6.322201E+01  1.507476E+03
        12  21 -7.202985E+03 -4.817645E+05 -4.212956E+03  4.924467E+02  2.563498E+01  2.808200E+03
        12  22  1.726469E+02 -4.475152E+05  2.229421E+03  4.980748E+02  5.013068E+01  2.059040E+02
        12  23 -3.838815E+02 -4.481772E+05  2.521505E+03 -6.223767E+02  6.322201E+01  1.507845E+03
        12  24  1.363850E+03 -4.475147E+05  4.353551E+03  4.968952E+02  2.563647E+01  2.809847E+03
        12  25  8.810586E+03 -4.129793E+05  1.086672E+04  5.148421E+02  5.013039E+01  2.049939E+02
        12  26  8.218379E+03 -4.137839E+05  1.112294E+04 -6.117651E+02  6.322197E+01  1.508214E+03
        12  27  9.930596E+03 -4.132638E+05  1.291997E+04  5.013434E+02  2.563790E+01  2.811494E+03
        13   1  7.645024E+03 -4.153756E+05  1.314456E+04  4.900638E+02  1.507651E+01 -3.689057E+03
        13   2  5.795334E+03 -4.173340E+05  1.602676E+04 -6.257338E+02  5.272098E+01 -7.965676E+03
        13   3  1.667704E+04 -4.150628E+05  2.497540E+04  6.821695E+02  4.525750E+01 -1.224227E+04
        13   4 -2.320535E+02 -4.468698E+05  5.267602E+03  5.399586E+02  1.507474E+01 -3.690475E+03
        13   5 -2.120620E+03 -4.489831E+05  8.111605E+03 -6.730851E+02  5.272152E+01 -7.965821E+03
        13   6  8.722326E+03 -4.468670E+05  1.702137E+04  5.375795E+02  4.526064E+01 -1.224114E+04
        13   7 -8.109206E+03 -4.783631E+05 -2.609428E+03  5.898506E+02  1.507290E+01 -3.691892E+03
        13   8 -1.003665E+04 -4.806314E+05  1.963726E+02 -7.204342E+02  5.272202E+01 -7.965965E+03
        13   9  7.675366E+02 -4.786702E+05  9.067262E+03  3.929970E+02  4.526378E+01 -1.224001E+04
        13  10  7.644992E+03 -4.153756E+05  1.314452E+04  4.900640E+02 -1.472582E-05  5.448787E-07
        13  11  5.795301E+03 -4.173341E+05  1.602664E+04 -6.257333E+02 -8.307536E-06  1.097749E-06
        13  12  1.667700E+04 -4.150630E+05  2.497512E+04  6.821700E+02 -1.886565E-06  8.278604E-07
        13  13 -2.320571E+02 -4.468698E+05  5.267576E+03  5.399586E+02  1.845340E-05 -3.273341E-07
        13  14 -2.120637E+03 -4.489832E+05  8.111486E+03 -6.730848E+02  1.039099E-05 -1.926861E-07
        13  15  8.722286E+03 -4.468671E+05  1.702109E+04  5.375800E+02  2.326028E-06 -4.526781E-08
        13  16 -8.109181E+03 -4.783631E+05 -2.609447E+03  5.898506E+02 -1.472670E-05 -7.625249E-07
        13  17 -1.003665E+04 -4.806314E+05  1.962572E+02 -7.204338E+02 -8.307509E-06 -1.237676E-06
        13  18  7.675000E+02 -4.786703E+05  9.066981E+03  3.929975E+02 -1.887849E-06 -8.629151E-07
        13  19  7.644967E+03 -4.153756E+05  1.314454E+04  4.900640E+02 -1.507654E+01  3.689057E+03
        13  20  5.795302E+03 -4.173340E+05  1.602675E+04 -6.257335E+02 -5.272099E+01  7.965676E+03
        13  21  1.667703E+04 -4.150628E+05  2.497540E+04  6.821696E+02 -4.525750E+01  1.224227E+04
        13  22 -2.320535E+02 -4.468698E+05  5.267602E+03  5.399585E+02 -1.507470E+01  3.690475E+03
        13  23 -2.120620E+03 -4.489831E+05  8.111605E+03 -6.730851E+02 -5.272149E+01  7.965821E+03
        13  24  8.722326E+03 -4.468670E+05  1.702137E+04  5.375795E+02 -4.526064E+01  1.224114E+04
        13  25 -8.109149E+03 -4.783630E+05 -2.609414E+03  5.898505E+02 -1.507293E+01  3.691892E+03
        13  26 -1.003662E+04 -4.806314E+05  1.963806E+02 -7.204341E+02 -5.272203E+01  7.965965E+03
        13  27  7.675438E+02 -4.786702E+05  9.067263E+03  3.929971E+02 -4.526379E+01  1.224001E+04
        14   1  7.541416E+03 -4.057106E+05  2.976213E+04 -9.139480E+02  5.237515E+01 -1.566375E+04
        14   2 -4.238658E+03 -4.173685E+05  4.017260E+04  7.729269E+02  8.411502E+01 -3.262409E+04
        14   3  6.475579E+04 -4.059541E+05  8.195827E+04  5.118431E+02  7.215429E+01 -4.958413E+04
        14   4 -1.705818E+03 -4.426826E+05  2.051567E+04 -4.481524E+02  5.236365E+01 -1.566437E+04
        14   5 -1.345368E+04 -4.542127E+05  3.095835E+04  5.530052E+02  8.412691E+01 -3.262279E+04
        14   6  5.557516E+04 -4.426695E+05  7.277621E+04 -3.938031E+02  7.222575E+01 -4.958090E+04
        14   7 -1.095316E+04 -4.796534E+05  1.126910E+04  1.761545E+01  5.235214E+01 -1.566500E+04
        14   8 -2.266880E+04 -4.910556E+05  2.174401E+04  3.330968E+02  8.413880E+01 -3.262149E+04
        14   9  4.639444E+04 -4.793837E+05  6.359405E+04 -1.299395E+03  7.229721E+01 -4.957768E+04
        14  10  7.541350E+03 -4.057109E+05  2.976167E+04 -9.139473E+02 -1.695547E-08  1.337751E-07
        14  11 -4.238944E+03 -4.173697E+05  4.017060E+04  7.729291E+02  1.128738E-09 -2.544755E-08
        14  12  6.475513E+04 -4.059567E+05  8.195365E+04  5.118460E+02  9.166234E-10 -2.876322E-08
        14  13 -1.705884E+03 -4.426829E+05  2.051520E+04 -4.481517E+02 -1.519910E-08 -2.785986E-11
        14  14 -1.345396E+04 -4.542139E+05  3.095635E+04  5.530075E+02  9.409136E-10 -1.372662E-10
        14  15  5.557450E+04 -4.426721E+05  7.277159E+04 -3.938002E+02  1.405097E-09 -2.733823E-10
        14  16 -1.095322E+04 -4.796537E+05  1.126864E+04  1.761613E+01 -1.484021E-08 -1.337492E-07
        14  17 -2.266909E+04 -4.910568E+05  2.174201E+04  3.330990E+02  1.125937E-09  2.614121E-08
        14  18  4.639378E+04 -4.793863E+05  6.358943E+04 -1.299393E+03  2.060192E-09  2.860451E-08
        14  19  7.541416E+03 -4.057106E+05  2.976213E+04 -9.139479E+02 -5.237515E+01  1.566375E+04
        14  20 -4.238658E+03 -4.173685E+05  4.017260E+04  7.729269E+02 -8.411502E+01  3.262409E+04
        14  21  6.475579E+04 -4.059541E+05  8.195827E+04  5.118431E+02 -7.215429E+01  4.958413E+04
        14  22 -1.705818E+03 -4.426826E+05  2.051567E+04 -4.481523E+02 -5.236365E+01  1.566437E+04
        14  23 -1.345368E+04 -4.542127E+05  3.095835E+04  5.530052E+02 -8.412691E+01  3.262279E+04
        14  24  5.557516E+04 -4.426695E+05  7.277621E+04 -3.938031E+02 -7.222575E+01  4.958090E+04
        14  25 -1.095316E+04 -4.796534E+05  1.126910E+04  1.761550E+01 -5.235214E+01  1.566500E+04
        14  26 -2.266880E+04 -4.910556E+05  2.174401E+04  3.330968E+02 -8.413880E+01  3.262149E+04
        14  27  4.639444E+04 -4.793837E+05  6.359405E+04 -1.299395E+03 -7.229721E+01  4.957768E+04
        15   1  6.586136E+04 -3.881863E+05  6.324028E+04 -5.584140E+01  9.091018E+03 -1.598279E-01
        15   2  6.577844E+04 -3.885409E+05  6.315063E+04  2.477513E+01  9.082597E+03  8.993028E+00
        15   3  6.570283E+04 -3.888288E+05  6.307091E+04 -1.178595E+02  9.063566E+03  1.813675E+01
        15   4 -1.190398E+01 -6.541421E+05 -1.931287E+01 -4.961271E+01  9.091279E+03  1.558728E+00
        15   5 -1.495498E+01 -6.541749E+05 -3.150803E+01  6.201641E+01  9.082856E+03  1.656105E+01
        15   6 -1.172354E+01 -6.541420E+05 -3.784667E+01 -4.961040E+01  9.063821E+03  3.155432E+01
        15   7 -6.589027E+04 -9.200329E+05 -6.328386E+04 -4.338601E+01  9.091539E+03  3.276551E+00
        15   8 -6.581344E+04 -9.197441E+05 -6.321859E+04  9.924471E+01  9.083115E+03  2.412584E+01
        15   9 -6.573135E+04 -9.193906E+05 -6.315153E+04  1.861470E+01  9.064076E+03  4.496618E+01
        15  10  6.586127E+04 -3.881863E+05  6.324013E+04 -5.584140E+01  3.640918E-09  6.724464E-09
        15  11  6.577835E+04 -3.885409E+05  6.315048E+04  2.477506E+01 -1.652581E-09  4.385432E-09
        15  12  6.570274E+04 -3.888288E+05  6.307075E+04 -1.178596E+02 -1.696495E-09  1.500934E-10
        15  13 -1.199270E+01 -6.541421E+05 -1.946814E+01 -4.961272E+01  2.585849E-09  4.653906E-11
        15  14 -1.504354E+01 -6.541749E+05 -3.166302E+01  6.201629E+01 -7.323945E-09 -9.071071E-11
        15  15 -1.181173E+01 -6.541421E+05 -3.800100E+01 -4.961063E+01 -4.650647E-09  1.094201E-11
        15  16 -6.589036E+04 -9.200329E+05 -6.328401E+04 -4.338604E+01  2.541123E-09 -6.796430E-09
        15  17 -6.581353E+04 -9.197441E+05 -6.321874E+04  9.924453E+01 -1.403836E-09 -4.686401E-09
        15  18 -6.573144E+04 -9.193906E+05 -6.315168E+04  1.861437E+01  1.532107E-09 -4.374878E-10
        15  19  6.586136E+04 -3.881863E+05  6.324028E+04 -5.584140E+01 -9.091018E+03  1.598280E-01
        15  20  6.577844E+04 -3.885409E+05  6.315063E+04  2.477513E+01 -9.082597E+03 -8.993028E+00
        15  21  6.570283E+04 -3.888288E+05  6.307091E+04 -1.178595E+02 -9.063566E+03 -1.813675E+01
        15  22 -1.190398E+01 -6.541421E+05 -1.931287E+01 -4.961271E+01 -9.091279E+03 -1.558728E+00
        15  23 -1.495498E+01 -6.541749E+05 -3.150803E+01  6.201641E+01 -9.082856E+03 -1.656105E+01
        15  24 -1.172354E+01 -6.541420E+05 -3.784667E+01 -4.961040E+01 -9.063821E+03 -3.155432E+01
        15  25 -6.589027E+04 -9.200329E+05 -6.328386E+04 -4.338601E+01 -9.091539E+03 -3.276551E+00
        15  26 -6.581344E+04 -9.197441E+05 -6.321859E+04  9.924471E+01 -9.083115E+03 -2.412584E+01
        15  27 -6.573135E+04 -9.193906E+05 -6.315153E+04  1.861470E+01 -9.064076E+03 -4.496618E+01
        16   1  6.550708E+04 -3.896181E+05  6.286853E+04 -2.262608E+02  9.047578E+03  2.214543E+01
        16   2  6.526579E+04 -3.906131E+05  6.259806E+04  7.304632E+01  9.011661E+03  6.068136E+01
        16   3  6.502873E+04 -3.915478E+05  6.231722E+04 -2.859658E+02  8.965154E+03  9.918979E+01
        16   4 -1.156298E+01 -6.541434E+05 -4.890589E+01 -1.462951E+02  9.047828E+03  3.902136E+01
        16   5 -1.401764E+01 -6.541730E+05 -9.082744E+01  1.828737E+02  9.011905E+03  8.338524E+01
        16   6 -1.327396E+01 -6.541433E+05 -1.471853E+02 -1.462941E+02  8.965387E+03  1.277217E+02
        16   7 -6.553525E+04 -9.186043E+05 -6.297124E+04 -6.635695E+01  9.048079E+03  5.589013E+01
        16   8 -6.529884E+04 -9.176690E+05 -6.278458E+04  2.926632E+02  9.012148E+03  1.060795E+02
        16   9 -6.506025E+04 -9.166754E+05 -6.261642E+04 -6.670589E+00  8.965621E+03  1.562415E+02
        16  10  6.550699E+04 -3.896181E+05  6.286837E+04 -2.262609E+02 -7.405954E-10 -7.662806E-09
        16  11  6.526571E+04 -3.906131E+05  6.259791E+04  7.304588E+01  1.633719E-09 -6.704013E-09
        16  12  6.502864E+04 -3.915478E+05  6.231707E+04 -2.859665E+02 -1.156424E-09 -3.840976E-09
        16  13 -1.165086E+01 -6.541434E+05 -4.905968E+01 -1.462954E+02 -3.424354E-09  3.557372E-11
        16  14 -1.410482E+01 -6.541730E+05 -9.098002E+01  1.828731E+02 -3.462313E-09 -2.903272E-10
        16  15 -1.336025E+01 -6.541433E+05 -1.473364E+02 -1.462950E+02 -2.772723E-09 -8.487863E-11
        16  16 -6.553534E+04 -9.186044E+05 -6.297139E+04 -6.635735E+01  4.115010E-09  7.342445E-09
        16  17 -6.529893E+04 -9.176690E+05 -6.278473E+04  2.926624E+02 -3.905990E-10  5.818721E-09
        16  18 -6.506034E+04 -9.166754E+05 -6.261657E+04 -6.671718E+00 -1.646347E-09  3.231570E-09
        16  19  6.550708E+04 -3.896181E+05  6.286853E+04 -2.262608E+02 -9.047578E+03 -2.214543E+01
        16  20  6.526579E+04 -3.906131E+05  6.259806E+04  7.304632E+01 -9.011661E+03 -6.068136E+01
        16  21  6.502873E+04 -3.915478E+05  6.231722E+04 -2.859658E+02 -8.965154E+03 -9.918979E+01
        16  22 -1.156298E+01 -6.541434E+05 -4.890589E+01 -1.462951E+02 -9.047828E+03 -3.902136E+01
        16  23 -1.401764E+01 -6.541730E+05 -9.082744E+01  1.828737E+02 -9.011905E+03 -8.338524E+01
        16  24 -1.327396E+01 -6.541433E+05 -1.471853E+02 -1.462941E+02 -8.965387E+03 -1.277217E+02
        16  25 -6.553525E+04 -9.186043E+05 -6.297124E+04 -6.635695E+01 -9.048079E+03 -5.589013E+01
        16  26 -6.529884E+04 -9.176690E+05 -6.278458E+04  2.926632E+02 -9.012148E+03 -1.060795E+02
        16  27 -6.506025E+04 -9.166754E+05 -6.261642E+04 -6.670589E+00 -8.965621E+03 -1.562415E+02
        17   1  6.464330E+04 -3.931203E+05  6.189017E+04 -3.871444E+02  8.933475E+03  1.265959E+02
        17   2  6.424847E+04 -3.947367E+05  6.136228E+04  1.253775E+02  8.870182E+03  2.902150E+02
        17   3  6.382042E+04 -3.963220E+05  6.073241E+04 -4.504683E+02  8.794979E+03  4.537850E+02
        17   4 -9.274172E+00 -6.541496E+05 -1.939018E+02 -2.418522E+02  8.933701E+03  1.581175E+02
        17   5 -8.170893E+00 -6.541645E+05 -3.439551E+02  3.023309E+02  8.870394E+03  3.282461E+02
        17   6 -4.144063E+01 -6.541495E+05 -6.005564E+02 -2.418829E+02  8.795175E+03  4.983257E+02
        17   7 -6.466676E+04 -9.151163E+05 -6.228274E+04 -9.660911E+01  8.933927E+03  1.896260E+02
        17   8 -6.426967E+04 -9.135304E+05 -6.205490E+04  4.792243E+02  8.870607E+03  3.662612E+02
        17   9 -6.390810E+04 -9.119159E+05 -6.193817E+04 -3.336832E+01  8.795371E+03  5.428479E+02
        17  10  6.464321E+04 -3.931203E+05  6.189002E+04 -3.871453E+02 -5.197518E-09 -1.992305E-09
        17  11  6.424838E+04 -3.947367E+05  6.136213E+04  1.253754E+02 -4.209727E-09 -4.699029E-09
        17  12  6.382034E+04 -3.963220E+05  6.073226E+04 -4.504715E+02 -5.257559E-10 -4.083599E-09
        17  13 -9.359855E+00 -6.541496E+05 -1.940517E+02 -2.418533E+02 -3.070291E-09  2.999773E-11
        17  14 -8.255389E+00 -6.541645E+05 -3.441031E+02  3.023286E+02  4.338116E-10 -4.724993E-10
        17  15 -4.152374E+01 -6.541495E+05 -6.007022E+02 -2.418865E+02  3.827336E-09 -9.444018E-11
        17  16 -6.466685E+04 -9.151163E+05 -6.228289E+04 -9.661048E+01  1.381154E-10  1.306251E-09
        17  17 -6.426975E+04 -9.135304E+05 -6.205505E+04  4.792217E+02 -1.358439E-10  3.152594E-09
        17  18 -6.390819E+04 -9.119159E+05 -6.193832E+04 -3.337217E+01 -3.445885E-11  3.160355E-09
        17  19  6.464330E+04 -3.931203E+05  6.189017E+04 -3.871444E+02 -8.933475E+03 -1.265959E+02
        17  20  6.424847E+04 -3.947367E+05  6.136228E+04  1.253775E+02 -8.870182E+03 -2.902150E+02
        17  21  6.382042E+04 -3.963220E+05  6.073241E+04 -4.504683E+02 -8.794979E+03 -4.537850E+02
        17  22 -9.274172E+00 -6.541496E+05 -1.939018E+02 -2.418522E+02 -8.933701E+03 -1.581175E+02
        17  23 -8.170894E+00 -6.541645E+05 -3.439551E+02  3.023309E+02 -8.870394E+03 -3.282461E+02
        17  24 -4.144063E+01 -6.541495E+05 -6.005564E+02 -2.418829E+02 -8.795175E+03 -4.983257E+02
        17  25 -6.466676E+04 -9.151163E+05 -6.228274E+04 -9.660911E+01 -8.933927E+03 -1.896260E+02
        17  26 -6.426967E+04 -9.135304E+05 -6.205490E+04  4.792243E+02 -8.870607E+03 -3.662612E+02
        17  27 -6.390810E+04 -9.119159E+05 -6.193817E+04 -3.336832E+01 -8.795371E+03 -5.428479E+02
        18   1  4.722646E+04  4.998261E+05  2.652690E+04 -1.298242E+00  1.657444E+04 -3.796247E-01
        18   2  4.722770E+04  4.998321E+05  2.653030E+04 -7.040731E+00  1.657472E+04 -5.101665E+00
        18   3  4.722925E+04  4.998413E+05  2.653761E+04 -1.232358E+01  1.657522E+04 -9.823734E+00
        18   4 -9.414003E+00  2.900672E+05  8.998939E+00  1.022083E-01  1.657504E+04 -7.645480E-01
        18   5 -1.000058E+01  2.900657E+05  1.091291E+01 -1.276058E-01  1.657531E+04 -6.031849E+00
        18   6 -1.018454E+01  2.900672E+05  1.711075E+01  1.024117E-01  1.657581E+04 -1.129919E+01
        18   7 -4.724708E+04  8.035359E+04 -2.650904E+04  1.502247E+00  1.657563E+04 -1.149348E+00
        18   8 -4.724949E+04  8.034435E+04 -2.650861E+04  6.783444E+00  1.657590E+04 -6.961735E+00
        18   9 -4.725141E+04  8.033836E+04 -2.650352E+04  1.252466E+01  1.657640E+04 -1.277417E+01
        18  10  4.722616E+04  4.998260E+05  2.652638E+04 -1.298237E+00 -1.075599E-08 -4.021912E-08
        18  11  4.722741E+04  4.998321E+05  2.652978E+04 -7.040663E+00 -3.933270E-09 -6.387997E-09
        18  12  4.722896E+04  4.998412E+05  2.653709E+04 -1.232345E+01 -5.609315E-10  2.618861E-08
        18  13 -9.709057E+00  2.900672E+05  8.482594E+00  1.022185E-01  6.700682E-09  1.299312E-11
        18  14 -1.029565E+01  2.900656E+05  1.039655E+01 -1.275254E-01  6.158318E-09 -7.818147E-11
        18  15 -1.047962E+01  2.900672E+05  1.659436E+01  1.025624E-01  3.411750E-09  6.801883E-11
        18  16 -4.724737E+04  8.035352E+04 -2.650956E+04  1.502262E+00 -1.130654E-08  4.020006E-08
        18  17 -4.724979E+04  8.034428E+04 -2.650913E+04  6.783537E+00 -3.597546E-09  6.352721E-09
        18  18 -4.725171E+04  8.033829E+04 -2.650404E+04  1.252483E+01  7.951445E-10 -2.615468E-08
        18  19  4.722646E+04  4.998261E+05  2.652690E+04 -1.298242E+00 -1.657444E+04  3.796246E-01
        18  20  4.722770E+04  4.998321E+05  2.653030E+04 -7.040731E+00 -1.657472E+04  5.101665E+00
        18  21  4.722925E+04  4.998413E+05  2.653761E+04 -1.232358E+01 -1.657522E+04  9.823734E+00
        18  22 -9.414003E+00  2.900672E+05  8.998939E+00  1.022084E-01 -1.657504E+04  7.645480E-01
        18  23 -1.000058E+01  2.900657E+05  1.091291E+01 -1.276058E-01 -1.657531E+04  6.031849E+00
        18  24 -1.018454E+01  2.900672E+05  1.711075E+01  1.024115E-01 -1.657581E+04  1.129919E+01
        18  25 -4.724708E+04  8.035359E+04 -2.650904E+04  1.502247E+00 -1.657563E+04  1.149348E+00
        18  26 -4.724949E+04  8.034435E+04 -2.650861E+04  6.783444E+00 -1.657590E+04  6.961735E+00
        18  27 -4.725141E+04  8.033836E+04 -2.650352E+04  1.252466E+01 -1.657640E+04  1.277417E+01
        19   1  4.723105E+04  4.998510E+05  2.654400E+04 -1.480489E+01  1.657571E+04 -1.259049E+01
        19   2  4.723479E+04  4.998710E+05  2.656393E+04 -2.378079E+01  1.657614E+04 -3.297338E+01
        19   3  4.723967E+04  4.998964E+05  2.659816E+04 -2.921881E+01  1.657563E+04 -5.335627E+01
        19   4 -1.056898E+01  2.900676E+05  2.193130E+01  7.864586E-01  1.657630E+04 -1.474414E+01
        19   5 -1.231907E+01  2.900652E+05  3.691351E+01 -9.825188E-01  1.657673E+04 -3.286084E+01
        19   6 -1.331483E+01  2.900676E+05  6.463050E+01  7.864480E-01  1.657622E+04 -5.097754E+01
        19   7 -4.725398E+04  8.032940E+04 -2.650027E+04  1.637311E+01  1.657690E+04 -1.689710E+01
        19   8 -4.726122E+04  8.030448E+04 -2.649024E+04  2.180879E+01  1.657732E+04 -3.274833E+01
        19   9 -4.726809E+04  8.028408E+04 -2.646904E+04  3.078248E+01  1.657681E+04 -4.859957E+01
        19  10  4.723076E+04  4.998510E+05  2.654348E+04 -1.480472E+01  1.133144E-09  1.555512E-10
        19  11  4.723449E+04  4.998710E+05  2.656341E+04 -2.378035E+01  1.046148E-09 -1.911359E-09
        19  12  4.723937E+04  4.998963E+05  2.659765E+04 -2.921809E+01  1.531508E-09 -3.530602E-09
        19  13 -1.086408E+01  2.900676E+05  2.141488E+01  7.866554E-01  2.443699E-09  7.789699E-11
        19  14 -1.261419E+01  2.900651E+05  3.639706E+01 -9.820802E-01  1.992766E-09 -2.436301E-10
        19  15 -1.360992E+01  2.900676E+05  6.411408E+01  7.871285E-01  2.061192E-09  1.634836E-10
        19  16 -4.725428E+04  8.032933E+04 -2.650079E+04  1.637334E+01  1.118682E-09 -3.216304E-10
        19  17 -4.726151E+04  8.030441E+04 -2.649076E+04  2.180923E+01  2.182484E-09  1.781123E-09
        19  18 -4.726838E+04  8.028400E+04 -2.646956E+04  3.078313E+01  1.423102E-09  3.619205E-09
        19  19  4.723105E+04  4.998510E+05  2.654400E+04 -1.480489E+01 -1.657571E+04  1.259049E+01
        19  20  4.723479E+04  4.998710E+05  2.656393E+04 -2.378079E+01 -1.657614E+04  3.297338E+01
        19  21  4.723967E+04  4.998964E+05  2.659816E+04 -2.921881E+01 -1.657563E+04  5.335627E+01
        19  22 -1.056898E+01  2.900676E+05  2.193130E+01  7.864586E-01 -1.657630E+04  1.474414E+01
        19  23 -1.231907E+01  2.900652E+05  3.691351E+01 -9.825188E-01 -1.657673E+04  3.286084E+01
        19  24 -1.331483E+01  2.900676E+05  6.463050E+01  7.864480E-01 -1.657622E+04  5.097754E+01
        19  25 -4.725398E+04  8.032940E+04 -2.650027E+04  1.637311E+01 -1.657690E+04  1.689710E+01
        19  26 -4.726122E+04  8.030448E+04 -2.649024E+04  2.180879E+01 -1.657732E+04  3.274833E+01
        19  27 -4.726809E+04  8.028408E+04 -2.646904E+04  3.078248E+01 -1.657681E+04  4.859957E+01
        20   1  4.724355E+04  4.999178E+05  2.662389E+04 -3.384433E+01  1.657543E+04 -6.681125E+01
        20   2  4.725190E+04  4.999466E+05  2.670492E+04 -4.651770E+01  1.656957E+04 -1.634270E+02
        20   3  4.727187E+04  4.999933E+05  2.685247E+04 -5.323431E+01  1.655397E+04 -2.600435E+02
        20   4 -1.435409E+01  2.900696E+05  8.518649E+01  1.323600E+00  1.657602E+04 -6.440720E+01
        20   5 -1.677301E+01  2.900627E+05  1.481050E+02 -1.654454E+00  1.657016E+04 -1.375836E+02
        20   6 -1.164007E+01  2.900696E+05  2.612911E+02  1.324115E+00  1.655455E+04 -2.107611E+02
        20   7 -4.727405E+04  8.026662E+04 -2.645366E+04  3.648064E+01  1.657661E+04 -6.200391E+01
        20   8 -4.728724E+04  8.022399E+04 -2.640885E+04  4.319476E+01  1.657075E+04 -1.117485E+02
        20   9 -4.729695E+04  8.019108E+04 -2.633003E+04  5.586536E+01  1.655513E+04 -1.614945E+02
        20  10  4.724325E+04  4.999177E+05  2.662337E+04 -3.384343E+01  4.759651E-10 -1.374782E-09
        20  11  4.725161E+04  4.999465E+05  2.670440E+04 -4.651552E+01  1.749649E-09 -1.935043E-09
        20  12  4.727158E+04  4.999932E+05  2.685195E+04 -5.323085E+01  6.904509E-10 -1.674980E-09
        20  13 -1.464918E+01  2.900695E+05  8.467008E+01  1.324460E+00  1.856255E-10  1.704599E-10
        20  14 -1.706789E+01  2.900626E+05  1.475889E+02 -1.652618E+00  2.167654E-09 -4.042960E-10
        20  15 -1.193440E+01  2.900695E+05  2.607759E+02  1.326925E+00  5.209586E-10  2.324999E-10
        20  16 -4.727434E+04  8.026655E+04 -2.645418E+04  3.648147E+01  4.856623E-10  1.171355E-09
        20  17 -4.728754E+04  8.022392E+04 -2.640937E+04  4.319625E+01 -1.409698E-09  1.811214E-09
        20  18 -4.729724E+04  8.019100E+04 -2.633055E+04  5.586752E+01 -1.468049E-09  1.764306E-09
        20  19  4.724355E+04  4.999178E+05  2.662389E+04 -3.384433E+01 -1.657543E+04  6.681125E+01
        20  20  4.725190E+04  4.999466E+05  2.670492E+04 -4.651770E+01 -1.656957E+04  1.634270E+02
        20  21  4.727187E+04  4.999933E+05  2.685247E+04 -5.323431E+01 -1.655397E+04  2.600435E+02
        20  22 -1.435409E+01  2.900696E+05  8.518649E+01  1.323600E+00 -1.657602E+04  6.440720E+01
        20  23 -1.677301E+01  2.900627E+05  1.481050E+02 -1.654454E+00 -1.657016E+04  1.375836E+02
        20  24 -1.164007E+01  2.900696E+05  2.612911E+02  1.324115E+00 -1.655455E+04  2.107611E+02
        20  25 -4.727405E+04  8.026662E+04 -2.645366E+04  3.648064E+01 -1.657661E+04  6.200391E+01
        20  26 -4.728724E+04  8.022399E+04 -2.640885E+04  4.319476E+01 -1.657075E+04  1.117485E+02
        20  27 -4.729695E+04  8.019108E+04 -2.633003E+04  5.586536E+01 -1.655513E+04  1.614945E+02
        21   1 -3.957942E+06 -1.267149E+06 -7.891950E+05 -1.413827E+06 -4.019774E+05 -1.433735E+05
        21   2 -3.863991E+06 -6.759349E+05 -4.190955E+05 -1.470483E+06 -2.600460E+05 -7.252176E+04
        21   3 -3.981078E+06 -6.478882E+05 -3.096188E+05 -1.402091E+06 -1.121061E+05 -1.754735E+04
        21   4 -3.411264E+06 -9.176627E+05 -6.119656E+05 -1.119448E+06 -3.903588E+05 -1.390993E+05
        21   5 -3.274138E+06 -4.119492E+05 -2.559392E+05 -1.266761E+06 -2.565007E+05 -7.120685E+04
        21   6 -3.346252E+06 -4.675194E+05 -1.539329E+05 -1.289093E+06 -1.166271E+05 -1.924061E+04
        21   7 -2.864245E+06 -5.679470E+05 -4.347619E+05 -8.247801E+05 -3.787289E+05 -1.348140E+05
        21   8 -2.683942E+06 -1.478993E+05 -9.281502E+04 -1.062849E+06 -2.529516E+05 -6.988988E+04
        21   9 -2.711028E+06 -2.871588E+05  1.725678E+03 -1.176008E+06 -1.211533E+05 -2.093470E+04
        21  10 -3.958122E+06 -1.267215E+06 -7.895398E+05 -1.413874E+06 -1.433975E-10 -9.765323E-11
        21  11 -3.864065E+06 -6.759589E+05 -4.192334E+05 -1.470498E+06 -1.533600E-09  1.453424E-10
        21  12 -3.981092E+06 -6.478919E+05 -3.096432E+05 -1.402093E+06  1.030065E-09 -3.330379E-10
        21  13 -3.411434E+06 -9.177248E+05 -6.122903E+05 -1.119492E+06 -2.581047E-09  2.595796E-11
        21  14 -3.274211E+06 -4.119725E+05 -2.560732E+05 -1.266776E+06  1.829241E-09 -3.075664E-11
        21  15 -3.346267E+06 -4.675235E+05 -1.539593E+05 -1.289095E+06  1.684674E-09 -3.258933E-10
        21  16 -2.864405E+06 -5.680054E+05 -4.350671E+05 -8.248214E+05 -1.176402E-09  1.249052E-10
        21  17 -2.684012E+06 -1.479218E+05 -9.294509E+04 -1.062864E+06  2.087361E-09  3.818171E-11
        21  18 -2.711044E+06 -2.871632E+05  1.697133E+03 -1.176010E+06  1.166181E-09 -5.176514E-10
        21  19 -3.957942E+06 -1.267149E+06 -7.891950E+05 -1.413827E+06  4.019774E+05  1.433735E+05
        21  20 -3.863991E+06 -6.759349E+05 -4.190955E+05 -1.470483E+06  2.600460E+05  7.252176E+04
        21  21 -3.981078E+06 -6.478882E+05 -3.096188E+05 -1.402091E+06  1.121061E+05  1.754735E+04
        21  22 -3.411264E+06 -9.176627E+05 -6.119656E+05 -1.119448E+06  3.903588E+05  1.390993E+05
        21  23 -3.274138E+06 -4.119492E+05 -2.559392E+05 -1.266761E+06  2.565007E+05  7.120685E+04
        21  24 -3.346252E+06 -4.675194E+05 -1.539329E+05 -1.289093E+06  1.166271E+05  1.924061E+04
        21  25 -2.864245E+06 -5.679470E+05 -4.347619E+05 -8.247801E+05  3.787289E+05  1.348140E+05
        21  26 -2.683942E+06 -1.478993E+05 -9.281502E+04 -1.062849E+06  2.529516E+05  6.988988E+04
        21  27 -2.711028E+06 -2.871588E+05  1.725678E+03 -1.176008E+06  1.211533E+05  2.093470E+04
        22   1 -3.863500E+06 -7.471656E+05 -2.695454E+05 -1.415056E+06 -9.397707E+04 -1.420251E+04
        22   2 -3.827000E+06 -6.637872E+05 -1.946268E+05 -1.400835E+06 -6.191589E+04 -2.626126E+03
        22   3 -3.795858E+06 -6.576748E+05 -1.590903E+05 -1.395418E+06 -2.936320E+04  7.648613E+03
        22   4 -3.325425E+06 -5.308575E+05 -1.249445E+05 -1.254399E+06 -9.392213E+04 -1.418555E+04
        22   5 -3.319457E+06 -4.690390E+05 -6.032327E+04 -1.258726E+06 -6.250413E+04 -2.849126E+03
        22   6 -3.318699E+06 -4.843276E+05 -3.454501E+04 -1.271862E+06 -3.059646E+04  7.184280E+03
        22   7 -2.787068E+06 -3.145213E+05  1.963011E+04 -1.093612E+06 -9.386711E+04 -1.416856E+04
        22   8 -2.811663E+06 -2.742723E+05  7.395798E+04 -1.116511E+06 -6.309289E+04 -3.072325E+03
        22   9 -2.841317E+06 -3.109699E+05  8.998146E+04 -1.148220E+06 -3.183076E+04  6.719588E+03
        22  10 -3.863509E+06 -7.471682E+05 -2.695625E+05 -1.415057E+06  2.057766E-09 -3.680097E-10
        22  11 -3.827004E+06 -6.637882E+05 -1.946341E+05 -1.400835E+06  7.326492E-10  3.095350E-10
        22  12 -3.795859E+06 -6.576751E+05 -1.590920E+05 -1.395418E+06 -3.392502E-10  6.503684E-10
        22  13 -3.325434E+06 -5.308601E+05 -1.249616E+05 -1.254400E+06 -2.491447E-10 -3.567312E-10
        22  14 -3.319461E+06 -4.690400E+05 -6.033067E+04 -1.258726E+06  2.608151E-09  2.455803E-10
        22  15 -3.318700E+06 -4.843279E+05 -3.454687E+04 -1.271861E+06  1.753591E-10  5.764117E-10
        22  16 -2.787078E+06 -3.145239E+05  1.961309E+04 -1.093614E+06 -7.825252E-10 -2.764913E-10
        22  17 -2.811667E+06 -2.742734E+05  7.395045E+04 -1.116511E+06  2.173810E-09 -1.489670E-10
        22  18 -2.841319E+06 -3.109702E+05  8.997947E+04 -1.148220E+06  1.354756E-09  7.169862E-10
        22  19 -3.863500E+06 -7.471656E+05 -2.695454E+05 -1.415056E+06  9.397707E+04  1.420251E+04
        22  20 -3.827000E+06 -6.637872E+05 -1.946268E+05 -1.400835E+06  6.191589E+04  2.626126E+03
        22  21 -3.795858E+06 -6.576748E+05 -1.590903E+05 -1.395418E+06  2.936320E+04 -7.648613E+03
        22  22 -3.325425E+06 -5.308575E+05 -1.249445E+05 -1.254399E+06  9.392213E+04  1.418555E+04
        22  23 -3.319457E+06 -4.690390E+05 -6.032327E+04 -1.258726E+06  6.250413E+04  2.849126E+03
        22  24 -3.318699E+06 -4.843276E+05 -3.454501E+04 -1.271862E+06  3.059646E+04 -7.184280E+03
        22  25 -2.787068E+06 -3.145213E+05  1.963011E+04 -1.093612E+06  9.386711E+04  1.416856E+04
        22  26 -2.811663E+06 -2.742723E+05  7.395798E+04 -1.116511E+06  6.309289E+04  3.072325E+03
        22  27 -2.841317E+06 -3.109699E+05  8.998146E+04 -1.148220E+06  3.183076E+04 -6.719588E+03
        23   1 -3.732638E+06 -6.495850E+05 -1.368001E+05 -1.383844E+06 -2.426582E+04  8.131300E+03
        23   2 -3.698672E+06 -6.148946E+05 -1.122800E+05 -1.358872E+06 -1.637156E+04  8.949110E+03
        23   3 -3.644020E+06 -6.098502E+05 -9.469990E+04 -1.359675E+06 -8.405895E+03  9.573209E+03
        23   4 -3.315444E+06 -4.914410E+05 -2.688367E+04 -1.268986E+06 -2.519331E+04  7.781932E+03
        23   5 -3.325446E+06 -4.742429E+05 -1.400880E+04 -1.256989E+06 -1.739384E+04  8.564621E+03
        23   6 -3.314742E+06 -4.866681E+05 -7.994384E+03 -1.270766E+06 -9.523570E+03  9.153424E+03
        23   7 -2.898080E+06 -3.332856E+05  8.301779E+04 -1.154058E+06 -2.612148E+04  7.432304E+03
        23   8 -2.952084E+06 -3.335828E+05  8.425032E+04 -1.155050E+06 -1.841680E+04  8.179879E+03
        23   9 -2.985360E+06 -3.634800E+05  7.870156E+04 -1.181815E+06 -1.064190E+04  8.733400E+03
        23  10 -3.732638E+06 -6.495853E+05 -1.368013E+05 -1.383844E+06  1.575932E-10  9.821332E-11
        23  11 -3.698673E+06 -6.148948E+05 -1.122807E+05 -1.358872E+06  2.265028E-10 -6.974933E-10
        23  12 -3.644020E+06 -6.098504E+05 -9.470021E+04 -1.359675E+06 -2.152585E-09 -3.001602E-10
        23  13 -3.315444E+06 -4.914412E+05 -2.688498E+04 -1.268986E+06 -4.366850E-10  1.863459E-10
        23  14 -3.325446E+06 -4.742431E+05 -1.400950E+04 -1.256989E+06 -7.612778E-10 -5.577463E-10
        23  15 -3.314742E+06 -4.866682E+05 -7.994712E+03 -1.270766E+06 -4.714462E-09  1.196710E-11
        23  16 -2.898081E+06 -3.332859E+05  8.301640E+04 -1.154058E+06  3.780173E-10  4.350353E-10
        23  17 -2.952084E+06 -3.335829E+05  8.424956E+04 -1.155050E+06 -2.683099E-10 -8.944804E-11
        23  18 -2.985360E+06 -3.634801E+05  7.870121E+04 -1.181815E+06 -2.378791E-09  4.116066E-10
        23  19 -3.732638E+06 -6.495850E+05 -1.368001E+05 -1.383844E+06  2.426582E+04 -8.131300E+03
        23  20 -3.698672E+06 -6.148946E+05 -1.122800E+05 -1.358872E+06  1.637156E+04 -8.949110E+03
        23  21 -3.644020E+06 -6.098502E+05 -9.469990E+04 -1.359675E+06  8.405895E+03 -9.573209E+03
        23  22 -3.315444E+06 -4.914410E+05 -2.688367E+04 -1.268986E+06  2.519331E+04 -7.781932E+03
        23  23 -3.325446E+06 -4.742429E+05 -1.400880E+04 -1.256989E+06  1.739384E+04 -8.564621E+03
        23  24 -3.314742E+06 -4.866681E+05 -7.994384E+03 -1.270766E+06  9.523570E+03 -9.153424E+03
        23  25 -2.898080E+06 -3.332856E+05  8.301779E+04 -1.154058E+06  2.612148E+04 -7.432304E+03
        23  26 -2.952084E+06 -3.335828E+05  8.425032E+04 -1.155050E+06  1.841680E+04 -8.179879E+03
        23  27 -2.985360E+06 -3.634800E+05  7.870156E+04 -1.181815E+06  1.064190E+04 -8.733400E+03
        24   1 -3.580291E+06 -5.880520E+05 -7.617219E+04 -1.343582E+06 -6.772442E+03  8.741591E+03
        24   2 -3.543834E+06 -5.558416E+05 -6.087923E+04 -1.315245E+06 -4.037558E+03  7.259723E+03
        24   3 -3.481696E+06 -5.504282E+05 -4.717796E+04 -1.316738E+06 -1.277735E+03  5.708540E+03
        24   4 -3.313880E+06 -4.878304E+05 -6.229439E+03 -1.270991E+06 -7.886444E+03  8.323462E+03
        24   5 -3.326685E+06 -4.742032E+05 -3.745265E+03 -1.256161E+06 -5.186389E+03  6.828829E+03
        24   6 -3.313806E+06 -4.873653E+05 -2.824725E+03 -1.271162E+06 -2.461585E+03  5.264843E+03
        24   7 -3.047398E+06 -3.876040E+05  6.370762E+04 -1.198371E+06 -9.000978E+03  7.905134E+03
        24   8 -3.109490E+06 -3.925620E+05  5.338456E+04 -1.197059E+06 -6.335660E+03  6.397770E+03
        24   9 -3.145889E+06 -4.243013E+05  4.152569E+04 -1.225575E+06 -3.645778E+03  4.821017E+03
        24  10 -3.580291E+06 -5.880521E+05 -7.617242E+04 -1.343582E+06 -8.381570E-10  2.019000E-10
        24  11 -3.543834E+06 -5.558416E+05 -6.087936E+04 -1.315245E+06  3.842280E-10 -1.789597E-10
        24  12 -3.481697E+06 -5.504282E+05 -4.717802E+04 -1.316738E+06  1.482843E-11 -3.896028E-10
        24  13 -3.313880E+06 -4.878305E+05 -6.229686E+03 -1.270991E+06 -3.088714E-09 -7.827931E-11
        24  14 -3.326685E+06 -4.742032E+05 -3.745403E+03 -1.256161E+06 -7.809814E-10 -7.365133E-10
        24  15 -3.313806E+06 -4.873654E+05 -2.824789E+03 -1.271162E+06 -1.071270E-09  4.119405E-10
        24  16 -3.047398E+06 -3.876041E+05  6.370735E+04 -1.198371E+06 -2.517994E-09 -3.910033E-10
        24  17 -3.109490E+06 -3.925621E+05  5.338440E+04 -1.197059E+06  2.444814E-09 -1.053296E-09
        24  18 -3.145889E+06 -4.243014E+05  4.152562E+04 -1.225575E+06  1.680224E-10  2.640774E-10
        24  19 -3.580291E+06 -5.880520E+05 -7.617219E+04 -1.343582E+06  6.772442E+03 -8.741591E+03
        24  20 -3.543834E+06 -5.558416E+05 -6.087923E+04 -1.315245E+06  4.037558E+03 -7.259723E+03
        24  21 -3.481696E+06 -5.504282E+05 -4.717796E+04 -1.316738E+06  1.277735E+03 -5.708540E+03
        24  22 -3.313880E+06 -4.878304E+05 -6.229439E+03 -1.270991E+06  7.886444E+03 -8.323462E+03
        24  23 -3.326685E+06 -4.742032E+05 -3.745265E+03 -1.256161E+06  5.186389E+03 -6.828829E+03
        24  24 -3.313806E+06 -4.873653E+05 -2.824725E+03 -1.271162E+06  2.461585E+03 -5.264843E+03
        24  25 -3.047398E+06 -3.876040E+05  6.370762E+04 -1.198371E+06  9.000978E+03 -7.905134E+03
        24  26 -3.109490E+06 -3.925620E+05  5.338456E+04 -1.197059E+06  6.335660E+03 -6.397770E+03
        24  27 -3.145889E+06 -4.243013E+05  4.152569E+04 -1.225575E+06  3.645778E+03 -4.821017E+03
        25   1 -3.414483E+06 -5.255903E+05 -2.912272E+04 -1.298970E+06 -3.038509E+02  4.536685E+03
        25   2 -3.376486E+06 -4.925061E+05 -1.632690E+04 -1.269278E+06  2.224952E+03  2.833247E+03
        25   3 -3.311693E+06 -4.872312E+05 -4.921790E+03 -1.270743E+06  4.756753E+03  1.121501E+03
        25   4 -3.313559E+06 -4.876287E+05 -2.751991E+03 -1.271441E+06 -1.497528E+03  4.089446E+03
        25   5 -3.326981E+06 -4.738886E+05 -3.301576E+03 -1.255800E+06  1.027101E+03  2.384503E+03
        25   6 -3.313607E+06 -4.879570E+05 -5.238235E+03 -1.271318E+06  3.554580E+03  6.712052E+02
        25   7 -3.212626E+06 -4.496664E+05  2.361799E+04 -1.243908E+06 -2.691423E+03  3.642124E+03
        25   8 -3.277472E+06 -4.552708E+05  9.723632E+03 -1.242322E+06 -1.708629E+02  1.935716E+03
        25   9 -3.315520E+06 -4.886827E+05 -5.554678E+03 -1.271893E+06  2.352399E+03  2.209067E+02
        25  10 -3.414483E+06 -5.255904E+05 -2.912276E+04 -1.298970E+06 -1.754913E-09  5.532134E-10
        25  11 -3.376486E+06 -4.925062E+05 -1.632692E+04 -1.269278E+06  2.596718E-10  4.865681E-10
        25  12 -3.311693E+06 -4.872312E+05 -4.921835E+03 -1.270743E+06  3.424915E-09  7.435403E-10
        25  13 -3.313559E+06 -4.876288E+05 -2.752027E+03 -1.271441E+06 -2.112776E-10  7.498521E-10
        25  14 -3.326981E+06 -4.738886E+05 -3.301589E+03 -1.255800E+06  3.517198E-09  4.569323E-10
        25  15 -3.313607E+06 -4.879570E+05 -5.238259E+03 -1.271318E+06  3.056824E-09  6.717682E-10
        25  16 -3.212626E+06 -4.496664E+05  2.361795E+04 -1.243908E+06  5.196431E-10 -4.237780E-13
        25  17 -3.277472E+06 -4.552708E+05  9.723625E+03 -1.242322E+06  4.105074E-09  4.805135E-10
        25  18 -3.315520E+06 -4.886827E+05 -5.554689E+03 -1.271893E+06  2.432342E-09  5.729392E-10
        25  19 -3.414483E+06 -5.255903E+05 -2.912272E+04 -1.298970E+06  3.038509E+02 -4.536685E+03
        25  20 -3.376486E+06 -4.925061E+05 -1.632690E+04 -1.269278E+06 -2.224952E+03 -2.833247E+03
        25  21 -3.311693E+06 -4.872312E+05 -4.921790E+03 -1.270743E+06 -4.756753E+03 -1.121501E+03
        25  22 -3.313559E+06 -4.876287E+05 -2.751991E+03 -1.271441E+06  1.497528E+03 -4.089446E+03
        25  23 -3.326981E+06 -4.738886E+05 -3.301576E+03 -1.255800E+06 -1.027101E+03 -2.384503E+03
        25  24 -3.313607E+06 -4.879570E+05 -5.238235E+03 -1.271318E+06 -3.554580E+03 -6.712052E+02
        25  25 -3.212626E+06 -4.496664E+05  2.361799E+04 -1.243908E+06  2.691423E+03 -3.642124E+03
        25  26 -3.277472E+06 -4.552708E+05  9.723632E+03 -1.242322E+06  1.708629E+02 -1.935716E+03
        25  27 -3.315520E+06 -4.886827E+05 -5.554678E+03 -1.271893E+06 -2.352399E+03 -2.209067E+02
        26   1 -3.243843E+06 -4.616136E+05  1.186163E+04 -1.253135E+06  6.260354E+03  1.190257E+02
        26   2 -3.205949E+06 -4.280162E+05  2.017600E+04 -1.223019E+06  1.292258E+04 -2.892737E+01
        26   3 -3.143694E+06 -4.262502E+05  2.284825E+04 -1.222753E+06  1.954986E+04 -8.060272E+01
        26   4 -3.313946E+06 -4.873956E+05 -6.660814E+03 -1.271574E+06  5.042238E+03 -3.372725E+02
        26   5 -3.326404E+06 -4.734195E+05 -1.153291E+04 -1.255924E+06  1.175268E+04 -4.673420E+02
        26   6 -3.314512E+06 -4.912851E+05 -2.208628E+04 -1.270125E+06  1.842769E+04 -5.013200E+02
        26   7 -3.384044E+06 -5.131772E+05 -2.518350E+04 -1.290011E+06  3.824284E+03 -7.935128E+02
        26   8 -3.446843E+06 -5.188215E+05 -4.324289E+04 -1.288823E+06  1.058305E+04 -9.056601E+02
        26   9 -3.485301E+06 -5.563179E+05 -6.702325E+04 -1.317486E+06  1.730587E+04 -9.219056E+02
        26  10 -3.243843E+06 -4.616136E+05  1.186155E+04 -1.253135E+06  4.080541E-09  7.837613E-10
        26  11 -3.205949E+06 -4.280163E+05  2.017569E+04 -1.223019E+06  2.784463E-09  9.594930E-10
        26  12 -3.143695E+06 -4.262503E+05  2.284752E+04 -1.222753E+06  1.514990E-09 -8.003302E-10
        26  13 -3.313946E+06 -4.873956E+05 -6.660862E+03 -1.271574E+06  4.124473E-09  1.128776E-09
        26  14 -3.326404E+06 -4.734195E+05 -1.153317E+04 -1.255924E+06  7.492802E-10  9.465852E-10
        26  15 -3.314512E+06 -4.912852E+05 -2.208692E+04 -1.270125E+06  1.292025E-09 -8.689524E-10
        26  16 -3.384044E+06 -5.131772E+05 -2.518353E+04 -1.290011E+06 -3.429408E-10  8.868877E-10
        26  17 -3.446843E+06 -5.188216E+05 -4.324311E+04 -1.288823E+06 -1.098272E-09  4.826476E-10
        26  18 -3.485302E+06 -5.563180E+05 -6.702382E+04 -1.317486E+06 -9.414855E-10 -1.090193E-09
        26  19 -3.243843E+06 -4.616136E+05  1.186163E+04 -1.253135E+06 -6.260354E+03 -1.190257E+02
        26  20 -3.205949E+06 -4.280162E+05  2.017600E+04 -1.223019E+06 -1.292258E+04  2.892737E+01
        26  21 -3.143694E+06 -4.262502E+05  2.284825E+04 -1.222753E+06 -1.954986E+04  8.060272E+01
        26  22 -3.313946E+06 -4.873956E+05 -6.660814E+03 -1.271574E+06 -5.042238E+03  3.372725E+02
        26  23 -3.326404E+06 -4.734195E+05 -1.153291E+04 -1.255924E+06 -1.175268E+04  4.673420E+02
        26  24 -3.314512E+06 -4.912851E+05 -2.208628E+04 -1.270125E+06 -1.842769E+04  5.013200E+02
        26  25 -3.384044E+06 -5.131772E+05 -2.518350E+04 -1.290011E+06 -3.824284E+03  7.935128E+02
        26  26 -3.446843E+06 -5.188215E+05 -4.324289E+04 -1.288823E+06 -1.058305E+04  9.056601E+02
        26  27 -3.485301E+06 -5.563179E+05 -6.702325E+04 -1.317486E+06 -1.730587E+04  9.219056E+02
        27   1 -3.076259E+06 -4.005183E+05  3.409804E+04 -1.212765E+06  2.437989E+04  9.323068E+01
        27   2 -3.039427E+06 -3.597714E+05  2.533233E+04 -1.177141E+06  5.036858E+04  7.373830E+03
        27   3 -2.998088E+06 -3.910659E+05 -1.495571E+04 -1.159014E+06  7.600535E+04  1.560248E+04
        27   4 -3.316899E+06 -4.857443E+05 -2.836755E+04 -1.272816E+06  2.301880E+04 -4.169881E+02
        27   5 -3.321841E+06 -4.687670E+05 -4.948495E+04 -1.256924E+06  4.948300E+04  7.041015E+03
        27   6 -3.322383E+06 -5.239426E+05 -1.025155E+05 -1.258530E+06  7.559333E+04  1.544576E+04
        27   7 -3.557483E+06 -5.709687E+05 -9.083814E+04 -1.332846E+06  2.165829E+04 -9.270201E+02
        27   8 -3.604177E+06 -5.777567E+05 -1.243093E+05 -1.336673E+06  4.859786E+04  6.708374E+03
        27   9 -3.646575E+06 -6.568074E+05 -1.900847E+05 -1.357997E+06  7.518153E+04  1.528914E+04
        27  10 -3.076260E+06 -4.005185E+05  3.409691E+04 -1.212765E+06 -9.865271E-10 -6.881215E-10
        27  11 -3.039430E+06 -3.597721E+05  2.532744E+04 -1.177142E+06  1.114923E-09  1.560580E-10
        27  12 -2.998094E+06 -3.910677E+05 -1.496709E+04 -1.159015E+06  1.564925E-09 -3.132352E-11
        27  13 -3.316899E+06 -4.857444E+05 -2.836855E+04 -1.272816E+06  1.478571E-09 -7.456172E-10
        27  14 -3.321844E+06 -4.687677E+05 -4.948967E+04 -1.256924E+06 -8.931165E-12  5.149800E-10
        27  15 -3.322389E+06 -5.239444E+05 -1.025268E+05 -1.258531E+06  4.575908E-10  1.723829E-10
        27  16 -3.557483E+06 -5.709688E+05 -9.083903E+04 -1.332846E+06  2.409745E-09 -1.035729E-09
        27  17 -3.604180E+06 -5.777574E+05 -1.243138E+05 -1.336673E+06 -5.119460E-10  3.634476E-11
        27  18 -3.646581E+06 -6.568092E+05 -1.900959E+05 -1.357998E+06 -2.066395E-09  3.392066E-10
        27  19 -3.076259E+06 -4.005183E+05  3.409804E+04 -1.212765E+06 -2.437989E+04 -9.323068E+01
        27  20 -3.039427E+06 -3.597714E+05  2.533233E+04 -1.177141E+06 -5.036858E+04 -7.373830E+03
        27  21 -2.998088E+06 -3.910659E+05 -1.495571E+04 -1.159014E+06 -7.600535E+04 -1.560248E+04
        27  22 -3.316899E+06 -4.857443E+05 -2.836755E+04 -1.272816E+06 -2.301880E+04  4.169881E+02
        27  23 -3.321841E+06 -4.687670E+05 -4.948495E+04 -1.256924E+06 -4.948300E+04 -7.041015E+03
        27  24 -3.322383E+06 -5.239426E+05 -1.025155E+05 -1.258530E+06 -7.559333E+04 -1.544576E+04
        27  25 -3.557483E+06 -5.709687E+05 -9.083814E+04 -1.332846E+06 -2.165829E+04  9.270201E+02
        27  26 -3.604177E+06 -5.777567E+05 -1.243093E+05 -1.336673E+06 -4.859786E+04 -6.708374E+03
        27  27 -3.646575E+06 -6.568074E+05 -1.900847E+05 -1.357997E+06 -7.518153E+04 -1.528914E+04
        28   1 -2.912411E+06 -3.598856E+05 -2.333799E+04 -1.220594E+06  9.821722E+04  2.068872E+04
        28   2 -2.876201E+06 -2.340799E+05 -9.610309E+04 -1.117029E+06  2.072618E+05  6.001624E+04
        28   3 -3.000364E+06 -5.774891E+05 -3.723682E+05 -9.226469E+05  3.118122E+05  1.113342E+05
        28   4 -3.339338E+06 -4.721126E+05 -1.262976E+05 -1.287140E+06  9.435319E+04  1.924647E+04
        28   5 -3.284941E+06 -4.216576E+05 -2.099767E+05 -1.263211E+06  2.094825E+05  6.083592E+04
        28   6 -3.392273E+06 -8.418491E+05 -5.021076E+05 -1.148428E+06  3.201187E+05  1.143845E+05
        28   7 -3.766083E+06 -5.843443E+05 -2.292684E+05 -1.353654E+06  9.049209E+04  1.780456E+04
        28   8 -3.693513E+06 -6.091998E+05 -3.238657E+05 -1.409296E+06  2.117015E+05  6.165468E+04
        28   9 -3.783997E+06 -1.106067E+06 -6.318588E+05 -1.374047E+06  3.284194E+05  1.174287E+05
        28  10 -2.912422E+06 -3.598886E+05 -2.335703E+04 -1.220596E+06  4.620044E-10 -3.370226E-10
        28  11 -2.876249E+06 -2.340954E+05 -9.619105E+04 -1.117039E+06 -1.098793E-09  6.628472E-10
        28  12 -3.000472E+06 -5.775288E+05 -3.725753E+05 -9.226749E+05 -5.993283E-10 -1.065247E-10
        28  13 -3.339348E+06 -4.721154E+05 -1.263151E+05 -1.287141E+06 -1.247984E-09 -7.882256E-11
        28  14 -3.284989E+06 -4.216735E+05 -2.100667E+05 -1.263221E+06 -2.107833E-09  3.327020E-10
        28  15 -3.392387E+06 -8.418910E+05 -5.023261E+05 -1.148458E+06 -2.305409E-10 -1.172122E-10
        28  16 -3.766092E+06 -5.843469E+05 -2.292845E+05 -1.353655E+06 -1.099643E-09  1.972873E-11
        28  17 -3.693562E+06 -6.092160E+05 -3.239576E+05 -1.409307E+06 -5.501868E-11  9.271797E-11
        28  18 -3.784117E+06 -1.106111E+06 -6.320890E+05 -1.374078E+06  1.015918E-10  4.434967E-11
        28  19 -2.912411E+06 -3.598856E+05 -2.333799E+04 -1.220594E+06 -9.821722E+04 -2.068872E+04
        28  20 -2.876201E+06 -2.340799E+05 -9.610309E+04 -1.117029E+06 -2.072618E+05 -6.001624E+04
        28  21 -3.000364E+06 -5.774891E+05 -3.723682E+05 -9.226469E+05 -3.118122E+05 -1.113342E+05
        28  22 -3.339338E+06 -4.721126E+05 -1.262976E+05 -1.287140E+06 -9.435319E+04 -1.924647E+04
        28  23 -3.284941E+06 -4.216576E+05 -2.099767E+05 -1.263211E+06 -2.094825E+05 -6.083592E+04
        28  24 -3.392273E+06 -8.418491E+05 -5.021076E+05 -1.148428E+06 -3.201187E+05 -1.143845E+05
        28  25 -3.766083E+06 -5.843443E+05 -2.292684E+05 -1.353654E+06 -9.049209E+04 -1.780456E+04
        28  26 -3.693513E+06 -6.091998E+05 -3.238657E+05 -1.409296E+06 -2.117015E+05 -6.165468E+04
        28  27 -3.783997E+06 -1.106067E+06 -6.318588E+05 -1.374047E+06 -3.284194E+05 -1.174287E+05
        29   1  1.653838E+05  5.800661E+04  1.826436E+05 -1.177267E+05  3.698786E+02  1.125677E+05
        29   2  4.092130E+04  1.966696E+04  9.452444E+04 -6.389785E+04  1.197822E+03  6.518848E+04
        29   3  7.157925E+03  1.016028E+04  5.992855E+04 -1.544874E+04  4.487624E+02  1.780861E+04
        29   4  1.502202E+05 -1.968402E+03  1.681550E+05 -2.375393E+04  3.898613E+02  1.100022E+05
        29   5  3.211510E+04 -1.615794E+04  8.692206E+04 -2.114907E+04  1.202270E+03  6.522566E+04
        29   6  4.251303E+03 -1.968520E+03  5.740728E+04 -2.392041E+04  4.454502E+02  2.044654E+04
        29   7  1.350895E+05 -6.192117E+04  1.536708E+05  7.020974E+04  4.090690E+02  1.074370E+05
        29   8  2.331568E+04 -5.197770E+04  7.932060E+04  2.159721E+04  1.206723E+03  6.526283E+04
        29   9  1.344946E+03 -1.409701E+04  5.488608E+04 -3.239192E+04  4.420660E+02  2.308442E+04
        29  10  1.653804E+05  5.799301E+04  1.826198E+05 -1.177268E+05  1.454289E-10  1.339767E-09
        29  11  4.092016E+04  1.966239E+04  9.451645E+04 -6.389792E+04 -4.677209E-10  1.276044E-09
        29  12  7.157840E+03  1.015994E+04  5.992795E+04 -1.544875E+04  2.509361E-11 -9.826632E-10
        29  13  1.502170E+05 -1.981394E+03  1.681323E+05 -2.375397E+04  1.125585E-09 -2.754317E-10
        29  14  3.211396E+04 -1.616251E+04  8.691407E+04 -2.114913E+04  1.247184E-09  3.537396E-10
        29  15  4.251191E+03 -1.968969E+03  5.740650E+04 -2.392042E+04 -7.766753E-10  3.133928E-10
        29  16  1.350864E+05 -6.193356E+04  1.536492E+05  7.020970E+04 -6.721755E-10 -1.324280E-09
        29  17  2.331453E+04 -5.198228E+04  7.931259E+04  2.159715E+04  1.362541E-10 -8.312294E-10
        29  18  1.344803E+03 -1.409759E+04  5.488508E+04 -3.239193E+04 -2.276362E-10  1.041336E-09
        29  19  1.653838E+05  5.800661E+04  1.826436E+05 -1.177267E+05 -3.698786E+02 -1.125677E+05
        29  20  4.092130E+04  1.966696E+04  9.452444E+04 -6.389785E+04 -1.197822E+03 -6.518848E+04
        29  21  7.157925E+03  1.016028E+04  5.992855E+04 -1.544874E+04 -4.487624E+02 -1.780861E+04
        29  22  1.502202E+05 -1.968402E+03  1.681550E+05 -2.375393E+04 -3.898613E+02 -1.100022E+05
        29  23  3.211510E+04 -1.615794E+04  8.692206E+04 -2.114907E+04 -1.202270E+03 -6.522566E+04
        29  24  4.251303E+03 -1.968520E+03  5.740728E+04 -2.392041E+04 -4.454502E+02 -2.044654E+04
        29  25  1.350895E+05 -6.192117E+04  1.536708E+05  7.020974E+04 -4.090690E+02 -1.074370E+05
        29  26  2.331568E+04 -5.197770E+04  7.932060E+04  2.159721E+04 -1.206723E+03 -6.526283E+04
        29  27  1.344946E+03 -1.409701E+04  5.488608E+04 -3.239192E+04 -4.420660E+02 -2.308442E+04
        30   1  5.733669E+03 -1.054889E+04  5.112480E+04 -2.857609E+04 -5.119836E+02  9.510609E+03
        30   2 -3.825920E+03 -3.776508E+04  4.563790E+04 -2.062903E+04 -1.922113E+03 -1.548983E+04
        30   3 -7.202221E+02 -5.857292E+04  5.959319E+04 -1.820563E+04 -3.219672E+03 -4.048942E+04
        30   4  6.538333E+03 -6.844425E+03  5.150839E+04 -2.393112E+04 -5.147955E+02  1.198761E+04
        30   5  2.682678E+03 -1.006425E+04  5.047169E+04 -2.116650E+04 -1.924740E+03 -1.320069E+04
        30   6  1.152448E+04 -6.844188E+03  6.900711E+04 -2.392530E+04 -3.221702E+03 -3.838907E+04
        30   7  7.343081E+03 -3.139889E+03  5.189202E+04 -1.928612E+04 -5.175704E+02  1.446462E+04
        30   8  9.191239E+03  1.763734E+04  5.530548E+04 -2.170400E+04 -1.927372E+03 -1.091146E+04
        30   9  2.376915E+04  4.488723E+04  7.842095E+04 -2.964546E+04 -3.223770E+03 -3.628854E+04
        30  10  5.733644E+03 -1.054899E+04  5.112463E+04 -2.857609E+04  2.012345E-09  2.726213E-09
        30  11 -3.825989E+03 -3.776534E+04  4.563744E+04 -2.062905E+04  3.230746E-09  6.022189E-10
        30  12 -7.206733E+02 -5.857469E+04  5.959009E+04 -1.820573E+04 -1.698167E-09 -3.308280E-09
        30  13  6.538294E+03 -6.844580E+03  5.150812E+04 -2.393112E+04  9.756157E-10 -3.840227E-10
        30  14  2.682627E+03 -1.006444E+04  5.047136E+04 -2.116652E+04  1.217717E-09  2.535803E-10
        30  15  1.152407E+04 -6.845773E+03  6.900432E+04 -2.392540E+04  1.460837E-09  3.110391E-10
        30  16  7.343024E+03 -3.140114E+03  5.189162E+04 -1.928612E+04 -7.457272E-10 -2.722585E-09
        30  17  9.191203E+03  1.763721E+04  5.530525E+04 -2.170402E+04  3.435026E-11 -3.062538E-10
        30  18  2.376879E+04  4.488581E+04  7.841846E+04 -2.964555E+04  1.198028E-09  3.376635E-09
        30  19  5.733669E+03 -1.054889E+04  5.112480E+04 -2.857609E+04  5.119836E+02 -9.510609E+03
        30  20 -3.825920E+03 -3.776508E+04  4.563790E+04 -2.062903E+04  1.922113E+03  1.548983E+04
        30  21 -7.202221E+02 -5.857292E+04  5.959319E+04 -1.820563E+04  3.219672E+03  4.048942E+04
        30  22  6.538333E+03 -6.844425E+03  5.150839E+04 -2.393112E+04  5.147955E+02 -1.198761E+04
        30  23  2.682678E+03 -1.006425E+04  5.047169E+04 -2.116650E+04  1.924740E+03  1.320069E+04
        30  24  1.152448E+04 -6.844188E+03  6.900711E+04 -2.392530E+04  3.221702E+03  3.838907E+04
        30  25  7.343081E+03 -3.139889E+03  5.189202E+04 -1.928612E+04  5.175704E+02 -1.446462E+04
        30  26  9.191239E+03  1.763734E+04  5.530548E+04 -2.170400E+04  1.927372E+03  1.091146E+04
        30  27  2.376915E+04  4.488723E+04  7.842095E+04 -2.964546E+04  3.223770E+03  3.628854E+04
        31   1 -8.786596E+03 -6.506444E+04  7.240004E+04 -3.955910E+04 -4.118205E+03 -5.242263E+04
        31   2  3.391673E+04 -1.128924E+05  1.259285E+05  5.234325E+04 -4.087948E+03 -1.220672E+05
        31   3  2.323157E+05 -1.127177E+05  2.637441E+05  1.390074E+05 -1.204544E+03 -1.917043E+05
        31   4  7.176638E+03  2.571270E+03  8.479346E+04 -2.390227E+04 -4.122280E+03 -4.999345E+04
        31   5  5.597298E+04 -2.182991E+04  1.441953E+05 -2.113981E+04 -4.070827E+03 -1.244042E+05
        31   6  2.612491E+05  2.571904E+03  2.911824E+05 -2.361750E+04 -1.146418E+03 -1.988107E+05
        31   7  2.314054E+04  7.021197E+04  9.718684E+04 -8.243680E+03 -4.126232E+03 -4.756402E+04
        31   8  7.804900E+04  6.925212E+04  1.624645E+05 -9.463388E+04 -4.053155E+03 -1.267415E+05
        31   9  2.902810E+05  1.179306E+05  3.186341E+05 -1.862728E+05 -1.084576E+03 -2.059184E+05
        31  10 -8.787352E+03 -6.506740E+04  7.239484E+04 -3.955927E+04 -7.025718E-10  7.836592E-10
        31  11  3.391271E+04 -1.129084E+05  1.259005E+05  5.234285E+04  1.003432E-09  5.823322E-10
        31  12  2.323058E+05 -1.127572E+05  2.636751E+05  1.390072E+05  1.498878E-09 -1.264513E-09
        31  13  7.175949E+03  2.568582E+03  8.478873E+04 -2.390243E+04  1.384512E-10 -2.739823E-10
        31  14  5.596881E+04 -2.184653E+04  1.441661E+05 -2.114022E+04 -6.112079E-11  2.382403E-10
        31  15  2.612385E+05  2.529469E+03  2.911081E+05 -2.361768E+04  2.188483E-10  2.577675E-10
        31  16  2.313991E+04  7.020953E+04  9.718256E+04 -8.243838E+03  3.609194E-10 -7.393563E-10
        31  17  7.804467E+04  6.923487E+04  1.624343E+05 -9.463430E+04 -8.310410E-10 -2.218259E-10
        31  18  2.902696E+05  1.178851E+05  3.185544E+05 -1.862730E+05 -2.533511E-11  1.404130E-09
        31  19 -8.786596E+03 -6.506444E+04  7.240004E+04 -3.955910E+04  4.118205E+03  5.242263E+04
        31  20  3.391673E+04 -1.128924E+05  1.259285E+05  5.234325E+04  4.087948E+03  1.220672E+05
        31  21  2.323157E+05 -1.127177E+05  2.637441E+05  1.390074E+05  1.204544E+03  1.917043E+05
        31  22  7.176638E+03  2.571270E+03  8.479346E+04 -2.390227E+04  4.122280E+03  4.999345E+04
        31  23  5.597298E+04 -2.182991E+04  1.441953E+05 -2.113981E+04  4.070827E+03  1.244042E+05
        31  24  2.612491E+05  2.571904E+03  2.911824E+05 -2.361750E+04  1.146418E+03  1.988107E+05
        31  25  2.314054E+04  7.021197E+04  9.718684E+04 -8.243680E+03  4.126232E+03  4.756402E+04
        31  26  7.804900E+04  6.925212E+04  1.624645E+05 -9.463388E+04  4.053155E+03  1.267415E+05
        31  27  2.902810E+05  1.179306E+05  3.186341E+05 -1.862728E+05  1.084576E+03  2.059184E+05
        32   1 -2.233484E+06 -6.745663E+05 -3.874626E+05 -7.984781E+05 -1.625313E+05 -5.415330E+04
        32   2 -2.170894E+06 -4.221234E+05 -2.317765E+05 -7.999432E+05 -1.058722E+05 -1.899577E+04
        32   3 -2.171968E+06 -4.072633E+05 -1.801102E+05 -7.742911E+05 -4.404694E+04  2.436105E+03
        32   4 -1.721331E+06 -4.260978E+05 -2.372662E+05 -6.026030E+05 -1.528272E+05 -5.052184E+04
        32   5 -1.677801E+06 -2.207237E+05 -9.930700E+04 -6.489490E+05 -1.032003E+05 -1.799631E+04
        32   6 -1.696472E+06 -2.514356E+05 -5.971693E+04 -6.681974E+05 -4.841175E+04  7.985213E+02
        32   7 -1.208921E+06 -1.775621E+05 -8.709659E+04 -4.065666E+05 -1.431143E+05 -4.688492E+04
        32   8 -1.184474E+06 -1.929798E+04  3.314015E+04 -4.978426E+05 -1.005261E+05 -1.699579E+04
        32   9 -1.220756E+06 -9.560651E+04  6.065878E+04 -5.620361E+05 -5.278022E+04 -8.400340E+02
        32  10 -2.233514E+06 -6.745766E+05 -3.875179E+05 -7.984852E+05  1.673504E-10 -9.068818E-11
        32  11 -2.170906E+06 -4.221268E+05 -2.317983E+05 -7.999449E+05 -2.352738E-11 -2.843441E-10
        32  12 -2.171970E+06 -4.072638E+05 -1.801139E+05 -7.742910E+05 -1.371432E-09  1.010437E-09
        32  13 -1.721357E+06 -4.261069E+05 -2.373150E+05 -6.026092E+05 -1.069209E-09 -3.454909E-10
        32  14 -1.677813E+06 -2.207269E+05 -9.932768E+04 -6.489505E+05  7.458838E-10 -1.400074E-10
        32  15 -1.696474E+06 -2.514362E+05 -5.972134E+04 -6.681974E+05  2.312985E-09  9.469943E-10
        32  16 -1.208944E+06 -1.775699E+05 -8.713930E+04 -4.065720E+05 -6.081262E-10 -2.982686E-10
        32  17 -1.184485E+06 -1.930102E+04  3.312057E+04 -4.978440E+05 -4.238137E-10 -4.497357E-11
        32  18 -1.220759E+06 -9.560726E+04  6.065354E+04 -5.620361E+05  2.929614E-09  9.237049E-10
        32  19 -2.233484E+06 -6.745663E+05 -3.874626E+05 -7.984781E+05  1.625313E+05  5.415330E+04
        32  20 -2.170894E+06 -4.221234E+05 -2.317765E+05 -7.999432E+05  1.058722E+05  1.899577E+04
        32  21 -2.171968E+06 -4.072633E+05 -1.801102E+05 -7.742911E+05  4.404694E+04 -2.436105E+03
        32  22 -1.721331E+06 -4.260978E+05 -2.372662E+05 -6.026030E+05  1.528272E+05  5.052184E+04
        32  23 -1.677801E+06 -2.207237E+05 -9.930700E+04 -6.489490E+05  1.032003E+05  1.799631E+04
        32  24 -1.696472E+06 -2.514356E+05 -5.971693E+04 -6.681974E+05  4.841175E+04 -7.985213E+02
        32  25 -1.208921E+06 -1.775621E+05 -8.709659E+04 -4.065666E+05  1.431143E+05  4.688492E+04
        32  26 -1.184474E+06 -1.929798E+04  3.314015E+04 -4.978426E+05  1.005261E+05  1.699579E+04
        32  27 -1.220756E+06 -9.560651E+04  6.065878E+04 -5.620361E+05  5.278022E+04  8.400340E+02
        33   1 -2.079913E+06 -4.283534E+05 -1.525198E+05 -7.668215E+05 -3.847227E+04  8.982254E+02
        33   2 -2.039823E+06 -3.734683E+05 -1.141344E+05 -7.410058E+05 -2.534167E+04  4.457789E+03
        33   3 -1.983212E+06 -3.671810E+05 -9.122866E+04 -7.399747E+05 -1.181905E+04  6.971679E+03
        33   4 -1.688336E+06 -2.760456E+05 -4.848067E+04 -6.548262E+05 -3.883525E+04  7.609806E+02
        33   5 -1.695363E+06 -2.427686E+05 -2.342825E+04 -6.458152E+05 -2.623602E+04  4.121844E+03
        33   6 -1.685762E+06 -2.579754E+05 -1.342563E+04 -6.615900E+05 -1.324597E+04  6.436724E+03
        33   7 -1.296608E+06 -1.237251E+05  5.554545E+04 -5.427656E+05 -3.919847E+04  6.236361E+02
        33   8 -1.350787E+06 -1.120610E+05  6.726792E+04 -5.505764E+05 -2.713091E+04  3.785690E+03
        33   9 -1.388225E+06 -1.487654E+05  6.436994E+04 -5.831717E+05 -1.467363E+04  5.901502E+03
        33  10 -2.079915E+06 -4.283538E+05 -1.525226E+05 -7.668215E+05  3.050262E-09  1.035487E-09
        33  11 -2.039824E+06 -3.734685E+05 -1.141357E+05 -7.410057E+05  9.951636E-10 -5.910701E-10
        33  12 -1.983213E+06 -3.671811E+05 -9.122901E+04 -7.399746E+05 -4.931944E-10 -8.868459E-10
        33  13 -1.688337E+06 -2.760460E+05 -4.848351E+04 -6.548262E+05  2.219279E-09  7.388561E-10
        33  14 -1.695364E+06 -2.427689E+05 -2.342958E+04 -6.458151E+05  4.464589E-10 -5.812562E-10
        33  15 -1.685762E+06 -2.579754E+05 -1.342604E+04 -6.615899E+05 -4.348001E-10 -4.923359E-11
        33  16 -1.296610E+06 -1.237255E+05  5.554255E+04 -5.427656E+05  1.119123E-09  8.483850E-11
        33  17 -1.350788E+06 -1.120612E+05  6.726651E+04 -5.505763E+05 -3.283082E-10 -7.064517E-10
        33  18 -1.388226E+06 -1.487655E+05  6.436947E+04 -5.831716E+05 -9.553873E-10  2.674721E-10
        33  19 -2.079913E+06 -4.283534E+05 -1.525198E+05 -7.668215E+05  3.847227E+04 -8.982254E+02
        33  20 -2.039823E+06 -3.734683E+05 -1.141344E+05 -7.410058E+05  2.534167E+04 -4.457789E+03
        33  21 -1.983212E+06 -3.671810E+05 -9.122866E+04 -7.399747E+05  1.181905E+04 -6.971679E+03
        33  22 -1.688336E+06 -2.760456E+05 -4.848067E+04 -6.548262E+05  3.883525E+04 -7.609806E+02
        33  23 -1.695363E+06 -2.427686E+05 -2.342825E+04 -6.458152E+05  2.623602E+04 -4.121844E+03
        33  24 -1.685762E+06 -2.579754E+05 -1.342563E+04 -6.615900E+05  1.324597E+04 -6.436724E+03
        33  25 -1.296608E+06 -1.237251E+05  5.554545E+04 -5.427656E+05  3.919847E+04 -6.236361E+02
        33  26 -1.350787E+06 -1.120610E+05  6.726792E+04 -5.505764E+05  2.713091E+04 -3.785690E+03
        33  27 -1.388225E+06 -1.487654E+05  6.436994E+04 -5.831717E+05  1.467363E+04 -5.901502E+03
        34   1 -1.912812E+06 -3.467141E+05 -7.029839E+04 -7.229470E+05 -9.622787E+03  6.097177E+03
        34   2 -1.874089E+06 -3.111532E+05 -5.182330E+04 -6.933273E+05 -5.951489E+03  4.889516E+03
        34   3 -1.809098E+06 -3.053775E+05 -3.606971E+04 -6.947293E+05 -2.244108E+03  3.583355E+03
        34   4 -1.684575E+06 -2.606699E+05 -1.045911E+04 -6.604039E+05 -1.076685E+04  5.668413E+03
        34   5 -1.697578E+06 -2.448534E+05 -5.471830E+03 -6.452389E+05 -7.145292E+03  4.442378E+03
        34   6 -1.684306E+06 -2.588115E+05 -3.165549E+03 -6.610965E+05 -3.487910E+03  3.117765E+03
        34   7 -1.456287E+06 -1.746227E+05  4.937556E+04 -5.978400E+05 -1.191137E+04  5.239476E+03
        34   8 -1.521036E+06 -1.785517E+05  4.087699E+04 -5.971382E+05 -8.339468E+03  3.995099E+03
        34   9 -1.559499E+06 -2.122445E+05  2.973739E+04 -6.274574E+05 -4.731990E+03  2.652073E+03
        34  10 -1.912812E+06 -3.467141E+05 -7.029864E+04 -7.229470E+05  9.263761E-10  5.828994E-11
        34  11 -1.874089E+06 -3.111532E+05 -5.182341E+04 -6.933272E+05  2.709688E-09  2.823839E-10
        34  12 -1.809098E+06 -3.053776E+05 -3.606975E+04 -6.947293E+05  2.125297E-09  2.782067E-10
        34  13 -1.684575E+06 -2.606700E+05 -1.045939E+04 -6.604038E+05  7.817321E-10 -2.086826E-10
        34  14 -1.697578E+06 -2.448534E+05 -5.471963E+03 -6.452389E+05 -2.730724E-10 -3.288160E-10
        34  15 -1.684306E+06 -2.588115E+05 -3.165590E+03 -6.610964E+05  1.143524E-09  1.838720E-10
        34  16 -1.456287E+06 -1.746228E+05  4.937525E+04 -5.978400E+05 -5.553837E-10  1.113831E-10
        34  17 -1.521036E+06 -1.785517E+05  4.087683E+04 -5.971382E+05 -2.190566E-09  1.393864E-10
        34  18 -1.559499E+06 -2.122445E+05  2.973733E+04 -6.274574E+05  2.145360E-10  8.365203E-10
        34  19 -1.912812E+06 -3.467141E+05 -7.029839E+04 -7.229470E+05  9.622787E+03 -6.097177E+03
        34  20 -1.874089E+06 -3.111532E+05 -5.182330E+04 -6.933273E+05  5.951489E+03 -4.889516E+03
        34  21 -1.809098E+06 -3.053775E+05 -3.606971E+04 -6.947293E+05  2.244108E+03 -3.583355E+03
        34  22 -1.684575E+06 -2.606699E+05 -1.045911E+04 -6.604039E+05  1.076685E+04 -5.668413E+03
        34  23 -1.697578E+06 -2.448534E+05 -5.471830E+03 -6.452389E+05  7.145292E+03 -4.442378E+03
        34  24 -1.684306E+06 -2.588115E+05 -3.165549E+03 -6.610965E+05  3.487910E+03 -3.117765E+03
        34  25 -1.456287E+06 -1.746227E+05  4.937556E+04 -5.978400E+05  1.191137E+04 -5.239476E+03
        34  26 -1.521036E+06 -1.785517E+05  4.087699E+04 -5.971382E+05  8.339468E+03 -3.995099E+03
        34  27 -1.559499E+06 -2.122445E+05  2.973739E+04 -6.274574E+05  4.731990E+03 -2.652073E+03
        35   1 -1.739688E+06 -2.799709E+05 -1.689608E+04 -6.761887E+05 -1.275342E+03  2.352703E+03
        35   2 -1.700795E+06 -2.460812E+05 -2.352886E+03 -6.458866E+05  4.172416E+02  2.728999E+02
        35   3 -1.634284E+06 -2.403001E+05  1.151818E+04 -6.475090E+05  2.112041E+03 -1.812778E+03
        35   4 -1.684101E+06 -2.591323E+05 -2.498508E+03 -6.610367E+05 -2.501018E+03  1.893989E+03
        35   5 -1.697898E+06 -2.449993E+05 -1.593496E+03 -6.451036E+05 -8.114451E+02 -1.869410E+02
        35   6 -1.684079E+06 -2.589741E+05 -1.357936E+03 -6.610958E+05  8.802573E+02 -2.273756E+03
        35   7 -1.628512E+06 -2.382935E+05  1.189884E+04 -6.458835E+05 -3.726817E+03  1.435228E+03
        35   8 -1.695002E+06 -2.439173E+05 -8.341051E+02 -6.443206E+05 -2.040132E+03 -6.467818E+02
        35   9 -1.733871E+06 -2.776477E+05 -1.423409E+04 -6.746815E+05 -3.514040E+02 -2.734688E+03
        35  10 -1.739688E+06 -2.799709E+05 -1.689609E+04 -6.761887E+05  2.568735E-09  2.031633E-10
        35  11 -1.700795E+06 -2.460812E+05 -2.352887E+03 -6.458866E+05  1.771974E-09  4.123546E-10
        35  12 -1.634284E+06 -2.403001E+05  1.151816E+04 -6.475090E+05  2.413859E-11 -1.621812E-09
        35  13 -1.684101E+06 -2.591323E+05 -2.498527E+03 -6.610367E+05  2.736530E-09 -2.163913E-10
        35  14 -1.697898E+06 -2.449993E+05 -1.593498E+03 -6.451036E+05 -2.082709E-09 -1.950473E-10
        35  15 -1.684079E+06 -2.589741E+05 -1.357947E+03 -6.610958E+05  2.055113E-09 -4.025804E-10
        35  16 -1.628512E+06 -2.382936E+05  1.189881E+04 -6.458835E+05  4.422444E-10  4.150668E-10
        35  17 -1.695002E+06 -2.439173E+05 -8.341137E+02 -6.443206E+05  2.777793E-10  7.125284E-10
        35  18 -1.733871E+06 -2.776477E+05 -1.423410E+04 -6.746815E+05  2.252783E-11  7.837944E-10
        35  19 -1.739688E+06 -2.799709E+05 -1.689608E+04 -6.761887E+05  1.275342E+03 -2.352703E+03
        35  20 -1.700795E+06 -2.460812E+05 -2.352886E+03 -6.458866E+05 -4.172416E+02 -2.728999E+02
        35  21 -1.634284E+06 -2.403001E+05  1.151818E+04 -6.475090E+05 -2.112041E+03  1.812778E+03
        35  22 -1.684101E+06 -2.591323E+05 -2.498508E+03 -6.610367E+05  2.501018E+03 -1.893989E+03
        35  23 -1.697898E+06 -2.449993E+05 -1.593496E+03 -6.451036E+05  8.114451E+02  1.869410E+02
        35  24 -1.684079E+06 -2.589741E+05 -1.357936E+03 -6.610958E+05 -8.802573E+02  2.273756E+03
        35  25 -1.628512E+06 -2.382935E+05  1.189884E+04 -6.458835E+05  3.726817E+03 -1.435228E+03
        35  26 -1.695002E+06 -2.439173E+05 -8.341051E+02 -6.443206E+05  2.040132E+03  6.467818E+02
        35  27 -1.733871E+06 -2.776477E+05 -1.423409E+04 -6.746815E+05  3.514040E+02  2.734688E+03
        36   1 -1.565218E+06 -2.142790E+05  3.000146E+04 -6.287193E+05  2.857958E+03 -3.118668E+03
        36   2 -1.526868E+06 -1.809721E+05  4.296219E+04 -5.987179E+05  4.681424E+03 -5.135033E+03
        36   3 -1.461249E+06 -1.754800E+05  5.514342E+04 -6.001984E+05  6.493783E+03 -7.118505E+03
        36   4 -1.684157E+06 -2.588840E+05 -1.408781E+03 -6.610088E+05  1.628648E+03 -3.578807E+03
        36   5 -1.697808E+06 -2.451007E+05 -1.903523E+03 -6.452203E+05  3.468659E+03 -5.589250E+03
        36   6 -1.684196E+06 -2.591368E+05 -3.190987E+03 -6.609159E+05  5.297470E+03 -7.566816E+03
        36   7 -1.803083E+06 -3.034886E+05 -3.282055E+04 -6.932930E+05  3.995855E+02 -4.038854E+03
        36   8 -1.868721E+06 -3.092281E+05 -4.677212E+04 -6.917116E+05  2.256251E+03 -6.043334E+03
        36   9 -1.907097E+06 -3.427911E+05 -6.153003E+04 -7.216141E+05  4.101620E+03 -8.014952E+03
        36  10 -1.565218E+06 -2.142790E+05  3.000143E+04 -6.287193E+05  3.615330E-10 -1.068130E-09
        36  11 -1.526868E+06 -1.809721E+05  4.296210E+04 -5.987179E+05 -1.771706E-09  2.247371E-10
        36  12 -1.461249E+06 -1.754801E+05  5.514325E+04 -6.001983E+05 -2.665059E-09 -4.052319E-10
        36  13 -1.684157E+06 -2.588840E+05 -1.408810E+03 -6.610088E+05 -7.043052E-11  2.758003E-11
        36  14 -1.697808E+06 -2.451008E+05 -1.903604E+03 -6.452203E+05 -1.777316E-09 -5.397707E-10
        36  15 -1.684196E+06 -2.591369E+05 -3.191147E+03 -6.609159E+05 -2.258620E-10  4.068372E-10
        36  16 -1.803083E+06 -3.034886E+05 -3.282059E+04 -6.932930E+05  2.615631E-10  6.099889E-10
        36  17 -1.868721E+06 -3.092282E+05 -4.677220E+04 -6.917116E+05 -1.410040E-09  2.325957E-10
        36  18 -1.907097E+06 -3.427912E+05 -6.153018E+04 -7.216141E+05 -3.868124E-10  1.704581E-10
        36  19 -1.565218E+06 -2.142790E+05  3.000146E+04 -6.287193E+05 -2.857958E+03  3.118668E+03
        36  20 -1.526868E+06 -1.809721E+05  4.296219E+04 -5.987179E+05 -4.681424E+03  5.135033E+03
        36  21 -1.461249E+06 -1.754800E+05  5.514342E+04 -6.001984E+05 -6.493783E+03  7.118505E+03
        36  22 -1.684157E+06 -2.588840E+05 -1.408781E+03 -6.610088E+05 -1.628648E+03  3.578807E+03
        36  23 -1.697808E+06 -2.451007E+05 -1.903523E+03 -6.452203E+05 -3.468659E+03  5.589250E+03
        36  24 -1.684196E+06 -2.591368E+05 -3.190987E+03 -6.609159E+05 -5.297470E+03  7.566816E+03
        36  25 -1.803083E+06 -3.034886E+05 -3.282055E+04 -6.932930E+05 -3.995855E+02  4.038854E+03
        36  26 -1.868721E+06 -3.092281E+05 -4.677212E+04 -6.917116E+05 -2.256251E+03  6.043334E+03
        36  27 -1.907097E+06 -3.427911E+05 -6.153003E+04 -7.216141E+05 -4.101620E+03  8.014952E+03
        37   1 -1.394177E+06 -1.499216E+05  7.225377E+04 -5.821883E+05  7.618348E+03 -8.251717E+03
        37   2 -1.357213E+06 -1.173207E+05  8.207523E+04 -5.528681E+05  1.205094E+04 -9.192378E+03
        37   3 -1.295297E+06 -1.141697E+05  8.844291E+04 -5.531439E+05  1.643336E+04 -9.993145E+03
        37   4 -1.684594E+06 -2.585773E+05 -4.099142E+03 -6.608483E+05  6.404713E+03 -8.706773E+03
        37   5 -1.697242E+06 -2.450826E+05 -7.199586E+03 -6.455879E+05  1.090722E+04 -9.621715E+03
        37   6 -1.684954E+06 -2.610532E+05 -1.381061E+04 -6.599247E+05  1.535927E+04 -1.039684E+04
        37   7 -1.974926E+06 -3.672268E+05 -8.045833E+04 -7.394742E+05  5.191715E+03 -9.161591E+03
        37   8 -2.037158E+06 -3.728370E+05 -9.648395E+04 -7.382616E+05  9.764202E+03 -1.005079E+04
        37   9 -2.074466E+06 -4.079279E+05 -1.160776E+05 -7.666453E+05  1.428592E+04 -1.080026E+04
        37  10 -1.394177E+06 -1.499217E+05  7.225353E+04 -5.821882E+05 -4.545469E-10  3.214083E-10
        37  11 -1.357214E+06 -1.173208E+05  8.207480E+04 -5.528680E+05  1.269384E-09  3.340191E-10
        37  12 -1.295297E+06 -1.141699E+05  8.844221E+04 -5.531437E+05 -2.848518E-10 -1.602214E-10
        37  13 -1.684594E+06 -2.585774E+05 -4.099362E+03 -6.608482E+05  2.573566E-11  2.867745E-10
        37  14 -1.697242E+06 -2.450827E+05 -7.199984E+03 -6.455879E+05  1.472388E-10 -2.156932E-10
        37  15 -1.684954E+06 -2.610534E+05 -1.381126E+04 -6.599245E+05  4.486469E-10  1.708761E-10
        37  16 -1.974927E+06 -3.672269E+05 -8.045854E+04 -7.394742E+05 -3.846051E-10 -7.798609E-10
        37  17 -2.037158E+06 -3.728371E+05 -9.648432E+04 -7.382615E+05  9.422901E-10 -6.014573E-10
        37  18 -2.074466E+06 -4.079280E+05 -1.160782E+05 -7.666452E+05  8.235489E-10  6.846631E-10
        37  19 -1.394177E+06 -1.499216E+05  7.225377E+04 -5.821883E+05 -7.618348E+03  8.251717E+03
        37  20 -1.357213E+06 -1.173207E+05  8.207523E+04 -5.528681E+05 -1.205094E+04  9.192378E+03
        37  21 -1.295297E+06 -1.141697E+05  8.844291E+04 -5.531439E+05 -1.643336E+04  9.993145E+03
        37  22 -1.684594E+06 -2.585773E+05 -4.099142E+03 -6.608483E+05 -6.404713E+03  8.706773E+03
        37  23 -1.697242E+06 -2.450826E+05 -7.199586E+03 -6.455879E+05 -1.090722E+04  9.621715E+03
        37  24 -1.684954E+06 -2.610532E+05 -1.381061E+04 -6.599247E+05 -1.535927E+04  1.039684E+04
        37  25 -1.974926E+06 -3.672268E+05 -8.045833E+04 -7.394742E+05 -5.191715E+03  9.161591E+03
        37  26 -2.037158E+06 -3.728370E+05 -9.648395E+04 -7.382616E+05 -9.764202E+03  1.005079E+04
        37  27 -2.074466E+06 -4.079279E+05 -1.160776E+05 -7.666453E+05 -1.428592E+04  1.080026E+04
        38   1 -1.230512E+06 -8.932775E+04  1.015272E+05 -5.404548E+05  1.985998E+04 -1.036026E+04
        38   2 -1.195364E+06 -5.310098E+04  1.003218E+05 -5.084682E+05  3.605549E+04 -6.661579E+03
        38   3 -1.148211E+06 -7.061522E+04  7.976789E+04 -4.974477E+05  5.176498E+04 -1.660619E+03
        38   4 -1.686592E+06 -2.574183E+05 -1.774054E+04 -6.614165E+05  1.844059E+04 -1.089385E+04
        38   5 -1.694232E+06 -2.424200E+05 -3.099313E+04 -6.464514E+05  3.529498E+04 -6.948618E+03
        38   6 -1.690010E+06 -2.813108E+05 -6.412973E+04 -6.524534E+05  5.166196E+04 -1.701353E+03
        38   7 -2.142470E+06 -4.254981E+05 -1.370259E+05 -7.822988E+05  1.702235E+04 -1.142704E+04
        38   8 -2.192858E+06 -4.317221E+05 -1.623292E+05 -7.843337E+05  3.453514E+04 -7.235402E+03
        38   9 -2.231522E+06 -4.919824E+05 -2.080525E+05 -8.073342E+05  5.155903E+04 -1.742054E+03
        38  10 -1.230512E+06 -8.932797E+04  1.015263E+05 -5.404546E+05 -1.189216E-09 -6.141901E-10
        38  11 -1.195365E+06 -5.310137E+04  1.003193E+05 -5.084680E+05 -4.819134E-09 -1.603525E-09
        38  12 -1.148214E+06 -7.061594E+04  7.976284E+04 -4.974476E+05 -5.852457E-09  1.928812E-10
        38  13 -1.686592E+06 -2.574185E+05 -1.774140E+04 -6.614164E+05 -7.868561E-10 -7.733762E-10
        38  14 -1.694233E+06 -2.424203E+05 -3.099556E+04 -6.464512E+05 -4.818745E-09 -2.525664E-09
        38  15 -1.690013E+06 -2.813115E+05 -6.413477E+04 -6.524533E+05 -4.790401E-09  1.144475E-10
        38  16 -2.142470E+06 -4.254984E+05 -1.370266E+05 -7.822986E+05 -3.166199E-09 -8.656689E-10
        38  17 -2.192859E+06 -4.317225E+05 -1.623315E+05 -7.843335E+05 -4.785582E-09 -2.638135E-09
        38  18 -2.231525E+06 -4.919831E+05 -2.080575E+05 -8.073342E+05  6.877597E-10 -7.975668E-11
        38  19 -1.230512E+06 -8.932775E+04  1.015272E+05 -5.404548E+05 -1.985998E+04  1.036026E+04
        38  20 -1.195364E+06 -5.310098E+04  1.003218E+05 -5.084682E+05 -3.605549E+04  6.661579E+03
        38  21 -1.148211E+06 -7.061522E+04  7.976789E+04 -4.974477E+05 -5.176498E+04  1.660619E+03
        38  22 -1.686592E+06 -2.574183E+05 -1.774054E+04 -6.614165E+05 -1.844059E+04  1.089385E+04
        38  23 -1.694232E+06 -2.424200E+05 -3.099313E+04 -6.464514E+05 -3.529498E+04  6.948618E+03
        38  24 -1.690010E+06 -2.813108E+05 -6.412973E+04 -6.524534E+05 -5.166196E+04  1.701353E+03
        38  25 -2.142470E+06 -4.254981E+05 -1.370259E+05 -7.822988E+05 -1.702235E+04  1.142704E+04
        38  26 -2.192858E+06 -4.317221E+05 -1.623292E+05 -7.843337E+05 -3.453514E+04  7.235402E+03
        38  27 -2.231522E+06 -4.919824E+05 -2.080525E+05 -8.073342E+05 -5.155903E+04  1.742054E+03
        39   1 -1.073449E+06 -4.309219E+04  7.972270E+04 -5.298545E+05  6.910242E+04  8.434686E+02
        39   2 -1.039933E+06  4.557223E+04  3.826294E+04 -4.561506E+05  1.325922E+05  2.336193E+04
        39   3 -1.097193E+06 -1.657577E+05 -1.263347E+05 -3.346307E+05  1.897093E+05  6.280196E+04
        39   4 -1.700754E+06 -2.487820E+05 -7.899793E+04 -6.701703E+05  6.406885E+04 -1.048785E+03
        39   5 -1.670973E+06 -2.132654E+05 -1.313766E+05 -6.506106E+05  1.362184E+05  2.472093E+04
        39   6 -1.733807E+06 -4.796555E+05 -3.138698E+05 -5.832091E+05  2.019900E+05  6.740683E+04
        39   7 -2.327681E+06 -4.544699E+05 -2.377498E+05 -8.103686E+05  5.904083E+04 -2.939570E+03
        39   8 -2.301625E+06 -4.720571E+05 -3.010513E+05 -8.448839E+05  1.398404E+05  2.607806E+04
        39   9 -2.370010E+06 -7.934355E+05 -5.014425E+05 -8.315270E+05  2.142568E+05  7.200275E+04
        39  10 -1.073454E+06 -4.309347E+04  7.971371E+04 -5.298546E+05 -4.180888E-10  1.456607E-09
        39  11 -1.039952E+06  4.556692E+04  3.822882E+04 -4.561531E+05 -1.220082E-09 -6.036287E-10
        39  12 -1.097233E+06 -1.657717E+05 -1.264099E+05 -3.346403E+05 -2.249569E-09 -9.025796E-10
        39  13 -1.700759E+06 -2.487831E+05 -7.900566E+04 -6.701702E+05 -1.390776E-09  1.209792E-09
        39  14 -1.670994E+06 -2.132711E+05 -1.314127E+05 -6.506133E+05 -1.302710E-09 -1.091744E-09
        39  15 -1.733852E+06 -4.796714E+05 -3.139553E+05 -5.832201E+05 -1.512875E-09 -8.891817E-10
        39  16 -2.327684E+06 -4.544708E+05 -2.377564E+05 -8.103685E+05 -1.289061E-09 -6.516577E-10
        39  17 -2.301646E+06 -4.720631E+05 -3.010895E+05 -8.448868E+05 -2.635654E-09 -3.280664E-10
        39  18 -2.370061E+06 -7.934534E+05 -5.015390E+05 -8.315394E+05  3.740420E-10 -8.286322E-10
        39  19 -1.073449E+06 -4.309219E+04  7.972270E+04 -5.298545E+05 -6.910242E+04 -8.434686E+02
        39  20 -1.039933E+06  4.557223E+04  3.826294E+04 -4.561506E+05 -1.325922E+05 -2.336193E+04
        39  21 -1.097193E+06 -1.657577E+05 -1.263347E+05 -3.346307E+05 -1.897093E+05 -6.280196E+04
        39  22 -1.700754E+06 -2.487820E+05 -7.899793E+04 -6.701703E+05 -6.406885E+04  1.048785E+03
        39  23 -1.670973E+06 -2.132654E+05 -1.313766E+05 -6.506106E+05 -1.362184E+05 -2.472093E+04
        39  24 -1.733807E+06 -4.796555E+05 -3.138698E+05 -5.832091E+05 -2.019900E+05 -6.740683E+04
        39  25 -2.327681E+06 -4.544699E+05 -2.377498E+05 -8.103686E+05 -5.904083E+04  2.939570E+03
        39  26 -2.301625E+06 -4.720571E+05 -3.010513E+05 -8.448839E+05 -1.398404E+05 -2.607806E+04
        39  27 -2.370010E+06 -7.934355E+05 -5.014425E+05 -8.315270E+05 -2.142568E+05 -7.200275E+04
        40   1  6.328971E+04 -3.986950E+05  5.997991E+04 -4.959710E+02  8.750411E+03  5.811100E+02
        40   2  6.277083E+04 -4.008472E+05  5.888185E+04  1.709762E+02  8.658473E+03  1.243055E+03
        40   3  6.182579E+04 -4.031370E+05  5.725783E+04 -6.823133E+02  8.533635E+03  1.904914E+03
        40   4  8.899648E+00 -6.541871E+05 -7.848816E+02 -3.376791E+02  8.750604E+03  6.221649E+02
        40   5  3.906617E+01 -6.541168E+05 -1.359848E+03  4.222052E+02  8.658632E+03  1.302020E+03
        40   6 -3.601418E+02 -6.541872E+05 -2.473363E+03 -3.381840E+02  8.533755E+03  1.981790E+03
        40   7 -6.327662E+04 -9.096191E+05 -6.155424E+04 -1.794354E+02  8.750798E+03  6.632030E+02
        40   8 -6.269732E+04 -9.073274E+05 -6.160604E+04  6.733502E+02  8.658792E+03  1.360960E+03
        40   9 -6.255063E+04 -9.051795E+05 -6.220897E+04  5.826135E+00  8.533876E+03  2.058635E+03
        40  10  6.328963E+04 -3.986951E+05  5.997976E+04 -4.959751E+02 -2.423247E-10  1.130628E-08
        40  11  6.277075E+04 -4.008472E+05  5.888171E+04  1.709675E+02 -3.352904E-09  4.056109E-09
        40  12  6.182571E+04 -4.031370E+05  5.725768E+04 -6.823264E+02 -2.421552E-09 -6.099340E-09
        40  13  8.817343E+00 -6.541871E+05 -7.850262E+02 -3.376835E+02  2.913694E-09  5.645837E-11
        40  14  3.898523E+01 -6.541168E+05 -1.359992E+03  4.221961E+02  2.212485E-09 -6.461090E-10
        40  15 -3.602210E+02 -6.541872E+05 -2.473508E+03 -3.381976E+02 -8.224824E-10 -5.251994E-11
        40  16 -6.327670E+04 -9.096191E+05 -6.155438E+04 -1.794401E+02 -2.089716E-10 -1.226324E-08
        40  17 -6.269740E+04 -9.073274E+05 -6.160618E+04  6.733407E+02 -5.451574E-10 -6.110668E-09
        40  18 -6.255071E+04 -9.051795E+05 -6.220911E+04  5.811980E+00 -9.483340E-10  4.974978E-09
        40  19  6.328971E+04 -3.986950E+05  5.997991E+04 -4.959710E+02 -8.750411E+03 -5.811100E+02
        40  20  6.277083E+04 -4.008472E+05  5.888185E+04  1.709762E+02 -8.658473E+03 -1.243055E+03
        40  21  6.182579E+04 -4.031370E+05  5.725783E+04 -6.823133E+02 -8.533635E+03 -1.904914E+03
        40  22  8.899648E+00 -6.541871E+05 -7.848816E+02 -3.376791E+02 -8.750604E+03 -6.221649E+02
        40  23  3.906617E+01 -6.541168E+05 -1.359848E+03  4.222052E+02 -8.658632E+03 -1.302020E+03
        40  24 -3.601418E+02 -6.541872E+05 -2.473363E+03 -3.381840E+02 -8.533755E+03 -1.981790E+03
        40  25 -6.327662E+04 -9.096191E+05 -6.155424E+04 -1.794354E+02 -8.750798E+03 -6.632030E+02
        40  26 -6.269732E+04 -9.073274E+05 -6.160604E+04  6.733502E+02 -8.658792E+03 -1.360960E+03
        40  27 -6.255063E+04 -9.051795E+05 -6.220897E+04  5.826135E+00 -8.533876E+03 -2.058635E+03
        41   1  6.160078E+04 -4.065031E+05  5.579226E+04 -1.640726E+02  8.516151E+03  2.500792E+03
        41   2  6.119400E+04 -4.086358E+05  5.293045E+04 -4.314410E+01  8.375440E+03  5.054057E+03
        41   3  5.637059E+04 -4.121571E+05  4.731165E+04 -1.866534E+03  7.886213E+03  7.606621E+03
        41   4  1.867684E+02 -6.544714E+05 -3.173601E+03 -4.300777E+02  8.516409E+03  2.479475E+03
        41   5  4.780167E+02 -6.537610E+05 -5.373938E+03  5.387755E+02  8.375383E+03  5.224077E+03
        41   6 -3.681582E+03 -6.544730E+05 -1.046496E+04 -4.367410E+02  7.885786E+03  7.967988E+03
        41   7 -6.123168E+04 -9.023831E+05 -6.214376E+04 -6.959546E+02  8.516667E+03  2.458165E+03
        41   8 -6.024230E+04 -8.988309E+05 -6.368253E+04  1.120487E+03  8.375326E+03  5.394030E+03
        41   9 -6.373800E+04 -8.967350E+05 -6.824570E+04  9.925148E+02  7.885360E+03  8.329215E+03
        41  10  6.160070E+04 -4.065031E+05  5.579211E+04 -1.640898E+02 -6.666774E-10 -9.676228E-10
        41  11  6.119392E+04 -4.086359E+05  5.293027E+04 -4.317819E+01  3.111735E-09 -7.432330E-10
        41  12  5.637051E+04 -4.121572E+05  4.731143E+04 -1.866582E+03  5.816930E-10 -9.659666E-10
        41  13  1.866889E+02 -6.544714E+05 -3.173749E+03 -4.300947E+02  3.766519E-10  1.556210E-11
        41  14  4.779341E+02 -6.537610E+05 -5.374121E+03  5.387403E+02  2.801701E-09 -7.921900E-10
        41  15 -3.681666E+03 -6.544731E+05 -1.046520E+04 -4.367916E+02 -5.168672E-10 -7.429870E-11
        41  16 -6.123176E+04 -9.023831E+05 -6.214391E+04 -6.959714E+02 -9.992838E-10 -2.510433E-10
        41  17 -6.024239E+04 -8.988310E+05 -6.368271E+04  1.120450E+03 -3.443519E-10 -1.871959E-09
        41  18 -6.373808E+04 -8.967351E+05 -6.824595E+04  9.924618E+02 -1.122288E-09 -3.900146E-10
        41  19  6.160078E+04 -4.065031E+05  5.579226E+04 -1.640726E+02 -8.516151E+03 -2.500792E+03
        41  20  6.119400E+04 -4.086358E+05  5.293045E+04 -4.314410E+01 -8.375440E+03 -5.054057E+03
        41  21  5.637059E+04 -4.121571E+05  4.731165E+04 -1.866534E+03 -7.886213E+03 -7.606621E+03
        41  22  1.867684E+02 -6.544714E+05 -3.173601E+03 -4.300777E+02 -8.516409E+03 -2.479475E+03
        41  23  4.780167E+02 -6.537610E+05 -5.373938E+03  5.387755E+02 -8.375383E+03 -5.224077E+03
        41  24 -3.681582E+03 -6.544730E+05 -1.046496E+04 -4.367410E+02 -7.885786E+03 -7.967988E+03
        41  25 -6.123168E+04 -9.023831E+05 -6.214376E+04 -6.959546E+02 -8.516667E+03 -2.458165E+03
        41  26 -6.024230E+04 -8.988309E+05 -6.368253E+04  1.120487E+03 -8.375326E+03 -5.394030E+03
        41  27 -6.373800E+04 -8.967350E+05 -6.824570E+04  9.925148E+02 -7.885360E+03 -8.329215E+03
        42   1  6.102956E+04 -4.183992E+05  4.375099E+04  4.300594E+03  8.493793E+03  1.109440E+04
        42   2  6.297460E+04 -4.156978E+05  3.513426E+04 -3.417431E+03  8.027321E+03  1.947098E+04
        42   3  2.032840E+04 -4.251977E+05  9.922092E+03 -1.367671E+04  2.495048E+03  2.783661E+04
        42   4  1.986228E+03 -6.569738E+05 -1.286354E+04 -5.404812E+02  8.496068E+03  9.943007E+03
        42   5  4.766469E+03 -6.506346E+05 -2.073969E+04  6.895944E+02  8.024373E+03  2.111090E+04
        42   6 -3.753870E+04 -6.569862E+05 -4.715538E+04 -6.219591E+02  2.486264E+03  3.226777E+04
        42   7 -5.706110E+04 -8.954959E+05 -6.948201E+04 -5.379662E+03  8.498363E+03  8.792054E+03
        42   8 -5.344559E+04 -8.855206E+05 -7.661748E+04  4.795082E+03  8.021445E+03  2.275020E+04
        42   9 -9.540917E+04 -8.887254E+05 -1.042367E+05  1.242793E+04  2.477665E+03  3.669728E+04
        42  10  6.102944E+04 -4.183993E+05  4.375063E+04  4.300519E+03 -2.297189E-09 -8.521555E-10
        42  11  6.297443E+04 -4.156983E+05  3.513343E+04 -3.417557E+03  3.225550E-10 -1.420497E-09
        42  12  2.032819E+04 -4.251985E+05  9.920623E+03 -1.367677E+04 -5.118854E-10 -7.441510E-10
        42  13  1.986124E+03 -6.569739E+05 -1.286386E+04 -5.405492E+02 -2.367054E-10  6.805536E-12
        42  14  4.766281E+03 -6.506351E+05 -2.074065E+04  6.894579E+02  1.156231E-09 -1.199464E-09
        42  15 -3.753899E+04 -6.569873E+05 -4.715735E+04 -6.220237E+02  4.335146E-10 -1.451650E-10
        42  16 -5.706120E+04 -8.954960E+05 -6.948229E+04 -5.379722E+03 -6.696043E-10 -5.709574E-10
        42  17 -5.344580E+04 -8.855212E+05 -7.661857E+04  4.794935E+03 -9.296693E-10 -1.782611E-09
        42  18 -9.540954E+04 -8.887269E+05 -1.042392E+05  1.242786E+04  6.360320E-10 -8.245022E-10
        42  19  6.102956E+04 -4.183992E+05  4.375099E+04  4.300594E+03 -8.493793E+03 -1.109440E+04
        42  20  6.297460E+04 -4.156978E+05  3.513426E+04 -3.417431E+03 -8.027321E+03 -1.947098E+04
        42  21  2.032840E+04 -4.251977E+05  9.922092E+03 -1.367671E+04 -2.495048E+03 -2.783661E+04
        42  22  1.986228E+03 -6.569738E+05 -1.286354E+04 -5.404812E+02 -8.496068E+03 -9.943007E+03
        42  23  4.766469E+03 -6.506346E+05 -2.073969E+04  6.895944E+02 -8.024373E+03 -2.111090E+04
        42  24 -3.753870E+04 -6.569862E+05 -4.715538E+04 -6.219591E+02 -2.486264E+03 -3.226777E+04
        42  25 -5.706110E+04 -8.954959E+05 -6.948201E+04 -5.379662E+03 -8.498363E+03 -8.792054E+03
        42  26 -5.344559E+04 -8.855206E+05 -7.661748E+04  4.795082E+03 -8.021445E+03 -2.275020E+04
        42  27 -9.540917E+04 -8.887254E+05 -1.042367E+05  1.242793E+04 -2.477665E+03 -3.669728E+04
        43   1  4.728487E+04  5.000377E+05  2.696026E+04 -6.853800E+01  1.654418E+04 -3.188019E+02
        43   2  4.734119E+04  5.000438E+05  2.732457E+04 -4.277831E+01  1.648415E+04 -7.999379E+02
        43   3  4.751588E+04  5.001445E+05  2.803227E+04 -1.576376E+01  1.634922E+04 -1.281105E+03
        43   4 -1.004826E+01  2.900806E+05  3.454227E+02  2.749992E-01  1.654476E+04 -2.642940E+02
        43   5  1.801868E+01  2.900489E+05  6.062954E+02 -3.372743E-01  1.648468E+04 -5.654164E+02
        43   6  1.332510E+02  2.900805E+05  1.085675E+03  3.050014E-01  1.634968E+04 -8.665671E+02
        43   7 -4.730677E+04  8.016873E+04 -2.626956E+04  6.906593E+01  1.654533E+04 -2.098037E+02
        43   8 -4.730696E+04  8.009916E+04 -2.611214E+04  4.209133E+01  1.648521E+04 -3.309703E+02
        43   9 -4.725120E+04  8.006172E+04 -2.586112E+04  1.637098E+01  1.635015E+04 -4.521624E+02
        43  10  4.728458E+04  5.000376E+05  2.695974E+04 -6.853376E+01 -1.739812E-10 -1.768442E-10
        43  11  4.734090E+04  5.000437E+05  2.732406E+04 -4.276769E+01 -2.700670E-10 -3.971571E-10
        43  12  4.751559E+04  5.001444E+05  2.803176E+04 -1.574689E+01 -1.212752E-09  4.759608E-10
        43  13 -1.034225E+01  2.900805E+05  3.449081E+02  2.785205E-01  5.725758E-10  2.321527E-10
        43  14  1.772674E+01  2.900488E+05  6.057840E+02 -3.297684E-01  3.465833E-10 -5.439023E-10
        43  15  1.329637E+02  2.900804E+05  1.085171E+03  3.164108E-01  5.119847E-11  2.579002E-10
        43  16 -4.730706E+04  8.016866E+04 -2.627008E+04  6.906873E+01 -1.265314E-09 -1.178718E-10
        43  17 -4.730725E+04  8.009909E+04 -2.611265E+04  4.209573E+01 -8.622434E-10  1.720143E-10
        43  18 -4.725148E+04  8.006165E+04 -2.586162E+04  1.637693E+01 -9.081780E-10 -3.702056E-10
        43  19  4.728487E+04  5.000377E+05  2.696026E+04 -6.853800E+01 -1.654418E+04  3.188019E+02
        43  20  4.734119E+04  5.000438E+05  2.732457E+04 -4.277831E+01 -1.648415E+04  7.999379E+02
        43  21  4.751588E+04  5.001445E+05  2.803227E+04 -1.576376E+01 -1.634922E+04  1.281105E+03
        43  22 -1.004826E+01  2.900806E+05  3.454227E+02  2.749992E-01 -1.654476E+04  2.642940E+02
        43  23  1.801868E+01  2.900489E+05  6.062954E+02 -3.372743E-01 -1.648468E+04  5.654164E+02
        43  24  1.332510E+02  2.900805E+05  1.085675E+03  3.050014E-01 -1.634968E+04  8.665671E+02
        43  25 -4.730677E+04  8.016873E+04 -2.626956E+04  6.906593E+01 -1.654533E+04  2.098037E+02
        43  26 -4.730696E+04  8.009916E+04 -2.611214E+04  4.209133E+01 -1.648521E+04  3.309703E+02
        43  27 -4.725120E+04  8.006172E+04 -2.586112E+04  1.637098E+01 -1.635015E+04  4.521624E+02
        44   1  4.762295E+04  5.002958E+05  2.854102E+04 -8.492352E+01  1.626400E+04 -1.536724E+03
        44   2  4.822226E+04  5.000533E+05  3.039626E+04  5.432346E+02  1.579562E+04 -4.164882E+03
        44   3  4.995962E+04  5.004396E+05  3.424672E+04  1.134163E+03  1.477037E+04 -6.793265E+03
        44   4  1.943233E+02  2.901546E+05  1.441835E+03 -8.292953E+00  1.626444E+04 -1.078481E+03
        44   5  6.584101E+02  2.899560E+05  2.574923E+03  1.058025E+01  1.579561E+04 -2.368852E+03
        44   6  2.028617E+03  2.901542E+05  4.774965E+03 -7.779097E+00  1.476981E+04 -3.659443E+03
        44   7 -4.723613E+04  8.005860E+04 -2.565757E+04  6.831352E+01  1.626489E+04 -6.203862E+02
        44   8 -4.690731E+04  7.990378E+04 -2.524673E+04 -5.218821E+02  1.579559E+04 -5.734016E+02
        44   9 -4.590435E+04  7.991369E+04 -2.469732E+04 -1.149314E+03  1.476924E+04 -5.266343E+02
        44  10  4.762266E+04  5.002957E+05  2.854051E+04 -8.490339E+01 -2.763324E-10 -5.618864E-10
        44  11  4.822198E+04  5.000533E+05  3.039576E+04  5.432876E+02  3.716009E-09 -2.930682E-10
        44  12  4.995937E+04  5.004395E+05  3.424622E+04  1.134243E+03  1.355566E-09  1.235994E-09
        44  13  1.940388E+02  2.901545E+05  1.441336E+03 -8.278828E+00  8.032243E-10  2.603786E-10
        44  14  6.581407E+02  2.899560E+05  2.574444E+03  1.061038E+01  1.207565E-09 -7.292823E-10
        44  15  2.028379E+03  2.901542E+05  4.774530E+03 -7.735572E+00  3.687298E-10  3.838264E-10
        44  16 -4.723641E+04  8.005853E+04 -2.565806E+04  6.832165E+01 -2.239916E-09  5.088781E-11
        44  17 -4.690757E+04  7.990371E+04 -2.524720E+04 -5.218748E+02 -3.880950E-09  4.836602E-11
        44  18 -4.590458E+04  7.991363E+04 -2.469773E+04 -1.149307E+03 -1.152925E-09 -1.166505E-09
        44  19  4.762295E+04  5.002958E+05  2.854102E+04 -8.492352E+01 -1.626400E+04  1.536724E+03
        44  20  4.822226E+04  5.000533E+05  3.039626E+04  5.432346E+02 -1.579562E+04  4.164882E+03
        44  21  4.995962E+04  5.004396E+05  3.424672E+04  1.134163E+03 -1.477037E+04  6.793265E+03
        44  22  1.943233E+02  2.901546E+05  1.441835E+03 -8.292953E+00 -1.626444E+04  1.078481E+03
        44  23  6.584101E+02  2.899560E+05  2.574923E+03  1.058025E+01 -1.579561E+04  2.368852E+03
        44  24  2.028617E+03  2.901542E+05  4.774965E+03 -7.779097E+00 -1.476981E+04  3.659443E+03
        44  25 -4.723613E+04  8.005860E+04 -2.565757E+04  6.831352E+01 -1.626489E+04  6.203862E+02
        44  26 -4.690731E+04  7.990378E+04 -2.524673E+04 -5.218821E+02 -1.579559E+04  5.734016E+02
        44  27 -4.590435E+04  7.991369E+04 -2.469732E+04 -1.149314E+03 -1.476924E+04  5.266343E+02
        45   1  5.101306E+04  5.013665E+05  3.697356E+04  7.240502E+02  1.412274E+04 -7.954657E+03
        45   2  5.711767E+04  4.991095E+05  4.769143E+04  8.019800E+03  1.062652E+04 -2.388429E+04
        45   3  7.389892E+04  5.015960E+05  7.144424E+04  1.497443E+04  3.008571E+03 -3.981586E+04
        45   4  2.793709E+03  2.907387E+05  6.403493E+03 -7.579800E+01  1.412198E+04 -4.492753E+03
        45   5  7.995957E+03  2.892240E+05  1.183501E+04  9.818947E+01  1.062198E+04 -1.052304E+04
        45   6  2.215871E+04  2.907360E+05  2.343117E+04 -6.897098E+01  2.999987E+03 -1.655515E+04
        45   7 -4.542767E+04  8.015569E+04 -2.416726E+04 -8.753598E+02  1.412121E+04 -1.031973E+03
        45   8 -4.112776E+04  7.938238E+04 -2.402216E+04 -7.820656E+03  1.061710E+04  2.833831E+03
        45   9 -2.958344E+04  7.991880E+04 -2.458264E+04 -1.510721E+04  2.990274E+03  6.697735E+03
        45  10  5.101283E+04  5.013663E+05  3.697307E+04  7.241406E+02  1.855587E-10  2.301733E-09
        45  11  5.711739E+04  4.991089E+05  4.769014E+04  8.020004E+03  3.189080E-10 -1.322659E-10
        45  12  7.389848E+04  5.015943E+05  7.144124E+04  1.497452E+04 -6.330940E-10 -1.001557E-09
        45  13  2.793489E+03  2.907386E+05  6.403080E+03 -7.574691E+01 -1.273868E-09  4.006553E-10
        45  14  7.995806E+03  2.892239E+05  1.183459E+04  9.827948E+01  3.761682E-10 -7.399334E-10
        45  15  2.215862E+04  2.907357E+05  2.343064E+04 -6.893099E+01 -2.196105E-10  4.912773E-10
        45  16 -4.542789E+04  8.015563E+04 -2.416763E+04 -8.753481E+02 -6.312493E-10 -2.861049E-09
        45  17 -4.112789E+04  7.938234E+04 -2.402239E+04 -7.820681E+03 -5.926897E-10 -1.700941E-10
        45  18 -2.958346E+04  7.991875E+04 -2.458274E+04 -1.510723E+04  2.025663E-10  1.150093E-09
        45  19  5.101306E+04  5.013665E+05  3.697356E+04  7.240502E+02 -1.412274E+04  7.954657E+03
        45  20  5.711767E+04  4.991095E+05  4.769143E+04  8.019800E+03 -1.062652E+04  2.388429E+04
        45  21  7.389892E+04  5.015960E+05  7.144424E+04  1.497443E+04 -3.008571E+03  3.981586E+04
        45  22  2.793709E+03  2.907387E+05  6.403493E+03 -7.579800E+01 -1.412198E+04  4.492753E+03
        45  23  7.995957E+03  2.892240E+05  1.183501E+04  9.818947E+01 -1.062198E+04  1.052304E+04
        45  24  2.215871E+04  2.907360E+05  2.343117E+04 -6.897098E+01 -2.999987E+03  1.655515E+04
        45  25 -4.542767E+04  8.015569E+04 -2.416726E+04 -8.753598E+02 -1.412121E+04  1.031973E+03
        45  26 -4.112776E+04  7.938238E+04 -2.402216E+04 -7.820656E+03 -1.061710E+04 -2.833831E+03
        45  27 -2.958344E+04  7.991880E+04 -2.458264E+04 -1.510721E+04 -2.990274E+03 -6.697735E+03
        46   1 -3.853204E+06 -1.129415E+06 -6.483235E+05 -1.397670E+06 -3.380800E+05 -1.209762E+05
        46   2 -3.762366E+06 -6.197241E+05 -3.320344E+05 -1.435811E+06 -2.179554E+05 -6.371129E+04
        46   3 -3.841109E+06 -5.944796E+05 -2.354276E+05 -1.378401E+06 -9.330295E+04 -1.846678E+04
        46   4 -3.458802E+06 -8.607075E+05 -5.171502E+05 -1.167768E+06 -3.296651E+05 -1.178938E+05
        46   5 -3.347414E+06 -4.287664E+05 -2.162650E+05 -1.286955E+06 -2.156697E+05 -6.286839E+04
        46   6 -3.404268E+06 -4.798896E+05 -1.300754E+05 -1.310631E+06 -9.714459E+04 -1.990085E+04
        46   7 -3.064212E+06 -5.918500E+05 -3.859882E+05 -9.376987E+05 -3.212444E+05 -1.148049E+05
        46   8 -2.932291E+06 -2.377718E+05 -1.005115E+05 -1.138001E+06 -2.133824E+05 -6.202452E+04
        46   9 -2.967239E+06 -3.653052E+05 -2.473550E+04 -1.242828E+06 -1.009892E+05 -2.133525E+04
        46  10 -3.853331E+06 -1.129462E+06 -6.485675E+05 -1.397703E+06 -7.813612E-10  7.620742E-11
        46  11 -3.762418E+06 -6.197414E+05 -3.321320E+05 -1.435822E+06  5.478490E-10  7.701456E-11
        46  12 -3.841119E+06 -5.944824E+05 -2.354447E+05 -1.378402E+06  5.209972E-10 -2.371270E-10
        46  13 -3.458923E+06 -8.607519E+05 -5.173819E+05 -1.167800E+06 -3.686171E-10 -5.612358E-11
        46  14 -3.347466E+06 -4.287832E+05 -2.163604E+05 -1.286966E+06 -1.397539E-09  9.761484E-11
        46  15 -3.404279E+06 -4.798926E+05 -1.300940E+05 -1.310632E+06  1.431015E-10 -9.059995E-11
        46  16 -3.064326E+06 -5.918921E+05 -3.862080E+05 -9.377285E+05 -7.871463E-10  1.026801E-10
        46  17 -2.932341E+06 -2.377883E+05 -1.006048E+05 -1.138011E+06  1.520414E-09 -2.055308E-10
        46  18 -2.967251E+06 -3.653085E+05 -2.475563E+04 -1.242830E+06  1.226455E-09  2.532001E-10
        46  19 -3.853204E+06 -1.129415E+06 -6.483235E+05 -1.397670E+06  3.380800E+05  1.209762E+05
        46  20 -3.762366E+06 -6.197241E+05 -3.320344E+05 -1.435811E+06  2.179554E+05  6.371129E+04
        46  21 -3.841109E+06 -5.944796E+05 -2.354276E+05 -1.378401E+06  9.330295E+04  1.846678E+04
        46  22 -3.458802E+06 -8.607075E+05 -5.171502E+05 -1.167768E+06  3.296651E+05  1.178938E+05
        46  23 -3.347414E+06 -4.287664E+05 -2.162650E+05 -1.286955E+06  2.156697E+05  6.286839E+04
        46  24 -3.404268E+06 -4.798896E+05 -1.300754E+05 -1.310631E+06  9.714459E+04  1.990085E+04
        46  25 -3.064212E+06 -5.918500E+05 -3.859882E+05 -9.376987E+05  3.212444E+05  1.148049E+05
        46  26 -2.932291E+06 -2.377718E+05 -1.005115E+05 -1.138001E+06  2.133824E+05  6.202452E+04
        46  27 -2.967239E+06 -3.653052E+05 -2.473550E+04 -1.242828E+06  1.009892E+05  2.133525E+04
        47   1 -3.722092E+06 -6.706612E+05 -1.961509E+05 -1.384001E+06 -7.750176E+04 -1.572736E+04
        47   2 -3.680696E+06 -5.912067E+05 -1.292069E+05 -1.363803E+06 -5.018102E+04 -6.775067E+03
        47   3 -3.636477E+06 -5.845570E+05 -9.552322E+04 -1.359769E+06 -2.249919E+04  1.220860E+03
        47   4 -3.386796E+06 -5.332895E+05 -1.055805E+05 -1.281183E+06 -7.786943E+04 -1.586754E+04
        47   5 -3.385434E+06 -4.772706E+05 -5.095938E+04 -1.280457E+06 -5.102703E+04 -7.093063E+03
        47   6 -3.381146E+06 -4.939459E+05 -2.920293E+04 -1.295895E+06 -2.382557E+04  7.236422E+02
        47   7 -3.051388E+06 -3.959046E+05 -1.501998E+04 -1.178313E+06 -7.823731E+04 -1.600782E+04
        47   8 -3.090087E+06 -3.633278E+05  2.728075E+04 -1.197073E+06 -5.187348E+04 -7.411235E+03
        47   9 -3.125751E+06 -4.033327E+05  3.711195E+04 -1.231999E+06 -2.515254E+04  2.262288E+02
        47  10 -3.722099E+06 -6.706631E+05 -1.961627E+05 -1.384002E+06 -6.172670E-10 -4.438892E-10
        47  11 -3.680699E+06 -5.912074E+05 -1.292118E+05 -1.363804E+06 -5.805600E-10  3.066875E-10
        47  12 -3.636478E+06 -5.845572E+05 -9.552417E+04 -1.359769E+06 -9.814725E-10 -1.422483E-10
        47  13 -3.386802E+06 -5.332914E+05 -1.055925E+05 -1.281184E+06  9.705147E-10  1.473248E-10
        47  14 -3.385437E+06 -4.772714E+05 -5.096439E+04 -1.280457E+06  1.275497E-10  3.703617E-10
        47  15 -3.381146E+06 -4.939461E+05 -2.920401E+04 -1.295895E+06 -2.504051E-10  4.164791E-11
        47  16 -3.051395E+06 -3.959065E+05 -1.503203E+04 -1.178314E+06  5.344052E-10  1.539440E-10
        47  17 -3.090090E+06 -3.633286E+05  2.727557E+04 -1.197074E+06 -4.065893E-10 -1.267903E-10
        47  18 -3.125752E+06 -4.033328E+05  3.711075E+04 -1.231999E+06  1.563598E-09 -6.261109E-10
        47  19 -3.722092E+06 -6.706612E+05 -1.961509E+05 -1.384001E+06  7.750176E+04  1.572736E+04
        47  20 -3.680696E+06 -5.912067E+05 -1.292069E+05 -1.363803E+06  5.018102E+04  6.775067E+03
        47  21 -3.636477E+06 -5.845570E+05 -9.552322E+04 -1.359769E+06  2.249919E+04 -1.220860E+03
        47  22 -3.386796E+06 -5.332895E+05 -1.055805E+05 -1.281183E+06  7.786943E+04  1.586754E+04
        47  23 -3.385434E+06 -4.772706E+05 -5.095938E+04 -1.280457E+06  5.102703E+04  7.093063E+03
        47  24 -3.381146E+06 -4.939459E+05 -2.920293E+04 -1.295895E+06  2.382557E+04 -7.236422E+02
        47  25 -3.051388E+06 -3.959046E+05 -1.501998E+04 -1.178313E+06  7.823731E+04  1.600782E+04
        47  26 -3.090087E+06 -3.633278E+05  2.728075E+04 -1.197073E+06  5.187348E+04  7.411235E+03
        47  27 -3.125751E+06 -4.033327E+05  3.711195E+04 -1.231999E+06  2.515254E+04 -2.262288E+02
        48   1 -3.566061E+06 -5.709820E+05 -7.205199E+04 -1.345052E+06 -1.804387E+04  1.298808E+03
        48   2 -3.528548E+06 -5.341797E+05 -4.828246E+04 -1.317167E+06 -1.118118E+04  1.407435E+03
        48   3 -3.467455E+06 -5.286744E+05 -3.039265E+04 -1.318302E+06 -4.279754E+03  1.412233E+03
        48   4 -3.378662E+06 -4.996789E+05 -2.272991E+04 -1.293154E+06 -1.913121E+04  8.911550E+02
        48   5 -3.390164E+06 -4.820314E+05 -1.184872E+04 -1.279390E+06 -1.232016E+04  9.806452E+02
        48   6 -3.378078E+06 -4.956694E+05 -6.804362E+03 -1.294647E+06 -5.470884E+03  9.661163E+02
        48   7 -3.191228E+06 -4.283736E+05  2.658901E+04 -1.241240E+06 -2.021891E+04  4.833641E+02
        48   8 -3.251762E+06 -4.298818E+05  2.458337E+04 -1.241604E+06 -1.345942E+04  5.537498E+02
        48   9 -3.288694E+06 -4.626639E+05  1.678332E+04 -1.270988E+06 -6.662207E+03  5.199308E+02
        48  10 -3.566062E+06 -5.709821E+05 -7.205261E+04 -1.345052E+06 -7.393596E-10 -4.657656E-10
        48  11 -3.528548E+06 -5.341798E+05 -4.828270E+04 -1.317167E+06  1.677674E-09  4.722841E-10
        48  12 -3.467455E+06 -5.286744E+05 -3.039269E+04 -1.318302E+06  1.193043E-09  6.022783E-10
        48  13 -3.378662E+06 -4.996790E+05 -2.273060E+04 -1.293154E+06 -3.482053E-10 -5.690876E-10
        48  14 -3.390164E+06 -4.820314E+05 -1.184901E+04 -1.279390E+06 -1.193811E-10 -6.643065E-10
        48  15 -3.378078E+06 -4.956694E+05 -6.804421E+03 -1.294647E+06 -2.318759E-10 -1.106672E-10
        48  16 -3.191229E+06 -4.283737E+05  2.658824E+04 -1.241240E+06  1.967530E-10 -4.084041E-10
        48  17 -3.251762E+06 -4.298819E+05  2.458303E+04 -1.241604E+06  1.219981E-09 -3.945203E-10
        48  18 -3.288694E+06 -4.626639E+05  1.678324E+04 -1.270988E+06 -6.170874E-10  3.714963E-11
        48  19 -3.566061E+06 -5.709820E+05 -7.205199E+04 -1.345052E+06  1.804387E+04 -1.298808E+03
        48  20 -3.528548E+06 -5.341797E+05 -4.828246E+04 -1.317167E+06  1.118118E+04 -1.407435E+03
        48  21 -3.467455E+06 -5.286744E+05 -3.039265E+04 -1.318302E+06  4.279754E+03 -1.412233E+03
        48  22 -3.378662E+06 -4.996789E+05 -2.272991E+04 -1.293154E+06  1.913121E+04 -8.911550E+02
        48  23 -3.390164E+06 -4.820314E+05 -1.184872E+04 -1.279390E+06  1.232016E+04 -9.806452E+02
        48  24 -3.378078E+06 -4.956694E+05 -6.804362E+03 -1.294647E+06  5.470884E+03 -9.661163E+02
        48  25 -3.191228E+06 -4.283736E+05  2.658901E+04 -1.241240E+06  2.021891E+04 -4.833641E+02
        48  26 -3.251762E+06 -4.298818E+05  2.458337E+04 -1.241604E+06  1.345942E+04 -5.537498E+02
        48  27 -3.288694E+06 -4.626639E+05  1.678332E+04 -1.270988E+06  6.662207E+03 -5.199308E+02
        49   1 -3.400321E+06 -5.047905E+05 -1.109118E+04 -1.300626E+06 -2.799646E+03  4.345864E+02
        49   2 -3.363016E+06 -4.720185E+05  4.042611E+03 -1.271644E+06 -3.086590E+02 -1.237922E+03
        49   3 -3.299457E+06 -4.665178E+05  1.780094E+04 -1.273207E+06  2.181185E+03 -2.906640E+03
        49   4 -3.377696E+06 -4.962829E+05 -5.322173E+03 -1.294421E+06 -3.976047E+03 -5.962886E+00
        49   5 -3.390797E+06 -4.824721E+05 -3.268064E+03 -1.279213E+06 -1.483127E+03 -1.677792E+03
        49   6 -3.377645E+06 -4.959330E+05 -2.590556E+03 -1.294551E+06  1.008497E+03 -3.345874E+03
        49   7 -3.355072E+06 -4.877753E+05  4.467922E+02 -1.288216E+06 -5.152494E+03 -4.465299E+02
        49   8 -3.418577E+06 -4.929256E+05 -1.057879E+04 -1.286782E+06 -2.657536E+03 -2.117640E+03
        49   9 -3.455827E+06 -5.253477E+05 -2.298250E+04 -1.315892E+06 -1.640253E+02 -3.785046E+03
        49  10 -3.400321E+06 -5.047905E+05 -1.109119E+04 -1.300626E+06 -1.833997E-11  7.836105E-11
        49  11 -3.363016E+06 -4.720185E+05  4.042608E+03 -1.271644E+06  6.808266E-10  4.673008E-10
        49  12 -3.299457E+06 -4.665178E+05  1.780091E+04 -1.273207E+06  9.273102E-10  1.273068E-11
        49  13 -3.377696E+06 -4.962829E+05 -5.322203E+03 -1.294421E+06  3.990727E-10 -2.370625E-10
        49  14 -3.390797E+06 -4.824721E+05 -3.268074E+03 -1.279213E+06 -1.071468E-09  2.294573E-10
        49  15 -3.377645E+06 -4.959330E+05 -2.590578E+03 -1.294551E+06  3.130508E-09  9.347349E-10
        49  16 -3.355072E+06 -4.877754E+05  4.467417E+02 -1.288216E+06  3.772921E-11  7.203490E-10
        49  17 -3.418577E+06 -4.929256E+05 -1.057881E+04 -1.286782E+06  2.456560E-09  1.463380E-09
        49  18 -3.455827E+06 -5.253477E+05 -2.298252E+04 -1.315892E+06  1.905484E-09  1.132026E-09
        49  19 -3.400321E+06 -5.047905E+05 -1.109118E+04 -1.300626E+06  2.799646E+03 -4.345864E+02
        49  20 -3.363016E+06 -4.720185E+05  4.042611E+03 -1.271644E+06  3.086590E+02  1.237922E+03
        49  21 -3.299457E+06 -4.665178E+05  1.780094E+04 -1.273207E+06 -2.181185E+03  2.906640E+03
        49  22 -3.377696E+06 -4.962829E+05 -5.322173E+03 -1.294421E+06  3.976047E+03  5.962886E+00
        49  23 -3.390797E+06 -4.824721E+05 -3.268064E+03 -1.279213E+06  1.483127E+03  1.677792E+03
        49  24 -3.377645E+06 -4.959330E+05 -2.590556E+03 -1.294551E+06 -1.008497E+03  3.345874E+03
        49  25 -3.355072E+06 -4.877753E+05  4.467922E+02 -1.288216E+06  5.152494E+03  4.465299E+02
        49  26 -3.418577E+06 -4.929256E+05 -1.057879E+04 -1.286782E+06  2.657536E+03  2.117640E+03
        49  27 -3.455827E+06 -5.253477E+05 -2.298250E+04 -1.315892E+06  1.640253E+02  3.785046E+03
        50   1 -3.233821E+06 -4.416299E+05  3.547890E+04 -1.255221E+06  3.096229E+03 -4.074414E+03
        50   2 -3.197914E+06 -4.103445E+05  4.740151E+04 -1.227111E+06  5.539790E+03 -5.705281E+03
        50   3 -3.136632E+06 -4.053845E+05  5.798292E+04 -1.228444E+06  7.960998E+03 -7.273076E+03
        50   4 -3.377846E+06 -4.957199E+05 -2.587256E+03 -1.294310E+06  1.931137E+03 -4.510915E+03
        50   5 -3.390559E+06 -4.827475E+05 -3.272812E+03 -1.279516E+06  4.406499E+03 -6.130146E+03
        50   6 -3.377907E+06 -4.961081E+05 -5.325251E+03 -1.294167E+06  6.859361E+03 -7.686336E+03
        50   7 -3.521850E+06 -5.498088E+05 -4.065531E+04 -1.333391E+06  7.663387E+02 -4.947305E+03
        50   8 -3.583168E+06 -5.551484E+05 -5.395039E+04 -1.331907E+06  3.273595E+03 -6.554866E+03
        50   9 -3.619125E+06 -5.868282E+05 -6.863840E+04 -1.359868E+06  5.758196E+03 -8.099419E+03
        50  10 -3.233821E+06 -4.416299E+05  3.547885E+04 -1.255221E+06  1.655878E-09  5.984591E-10
        50  11 -3.197914E+06 -4.103446E+05  4.740139E+04 -1.227111E+06 -1.424376E-09 -6.785709E-10
        50  12 -3.136632E+06 -4.053845E+05  5.798270E+04 -1.228444E+06 -1.835724E-09 -1.621896E-09
        50  13 -3.377846E+06 -4.957199E+05 -2.587301E+03 -1.294310E+06  2.772665E-09  8.684357E-10
        50  14 -3.390559E+06 -4.827476E+05 -3.272919E+03 -1.279516E+06 -1.874890E-10 -3.162390E-10
        50  15 -3.377907E+06 -4.961082E+05 -5.325450E+03 -1.294167E+06  7.427485E-10 -6.711791E-10
        50  16 -3.521850E+06 -5.498088E+05 -4.065536E+04 -1.333391E+06  9.702202E-10  1.190099E-09
        50  17 -3.583168E+06 -5.551484E+05 -5.395049E+04 -1.331907E+06 -2.922457E-10  5.793640E-10
        50  18 -3.619125E+06 -5.868283E+05 -6.863858E+04 -1.359868E+06 -9.916181E-10 -6.996190E-10
        50  19 -3.233821E+06 -4.416299E+05  3.547890E+04 -1.255221E+06 -3.096229E+03  4.074414E+03
        50  20 -3.197914E+06 -4.103445E+05  4.740151E+04 -1.227111E+06 -5.539790E+03  5.705281E+03
        50  21 -3.136632E+06 -4.053845E+05  5.798292E+04 -1.228444E+06 -7.960998E+03  7.273076E+03
        50  22 -3.377846E+06 -4.957199E+05 -2.587256E+03 -1.294310E+06 -1.931137E+03  4.510915E+03
        50  23 -3.390559E+06 -4.827475E+05 -3.272812E+03 -1.279516E+06 -4.406499E+03  6.130146E+03
        50  24 -3.377907E+06 -4.961081E+05 -5.325251E+03 -1.294167E+06 -6.859361E+03  7.686336E+03
        50  25 -3.521850E+06 -5.498088E+05 -4.065531E+04 -1.333391E+06 -7.663387E+02  4.947305E+03
        50  26 -3.583168E+06 -5.551484E+05 -5.395039E+04 -1.331907E+06 -3.273595E+03  6.554866E+03
        50  27 -3.619125E+06 -5.868282E+05 -6.863840E+04 -1.359868E+06 -5.758196E+03  8.099419E+03
        51   1 -3.075292E+06 -3.815820E+05  7.307619E+04 -1.211975E+06  9.425921E+03 -8.151645E+03
        51   2 -3.042318E+06 -3.521050E+05  7.949248E+04 -1.185560E+06  1.611241E+04 -7.986896E+03
        51   3 -2.988361E+06 -3.511304E+05  8.017118E+04 -1.184933E+06  2.273208E+04 -7.638075E+03
        51   4 -3.378681E+06 -4.950813E+05 -6.802389E+03 -1.293927E+06  8.319994E+03 -8.566762E+03
        51   5 -3.389459E+06 -4.828392E+05 -1.186402E+04 -1.280280E+06  1.509763E+04 -8.368283E+03
        51   6 -3.379274E+06 -4.991208E+05 -2.273825E+04 -1.292421E+06  2.180800E+04 -7.985858E+03
        51   7 -3.681980E+06 -6.085749E+05 -8.668861E+04 -1.375842E+06  7.214665E+03 -8.981658E+03
        51   8 -3.736482E+06 -6.135661E+05 -1.032309E+05 -1.374951E+06  1.408348E+04 -8.749435E+03
        51   9 -3.770041E+06 -6.471016E+05 -1.256611E+05 -1.399848E+06  2.088455E+04 -8.333400E+03
        51  10 -3.075292E+06 -3.815821E+05  7.307589E+04 -1.211975E+06 -3.185690E-10 -9.206562E-10
        51  11 -3.042318E+06 -3.521051E+05  7.949187E+04 -1.185560E+06  6.048356E-10 -6.033496E-10
        51  12 -2.988361E+06 -3.511306E+05  8.017010E+04 -1.184932E+06 -1.367835E-09 -1.652429E-09
        51  13 -3.378681E+06 -4.950814E+05 -6.802656E+03 -1.293927E+06  4.067291E-10 -8.218814E-10
        51  14 -3.389459E+06 -4.828394E+05 -1.186458E+04 -1.280280E+06  1.369591E-09 -5.427050E-10
        51  15 -3.379275E+06 -4.991210E+05 -2.273927E+04 -1.292421E+06 -3.327467E-09 -1.094147E-09
        51  16 -3.681980E+06 -6.085750E+05 -8.668886E+04 -1.375842E+06  1.627932E-10 -4.763055E-10
        51  17 -3.736482E+06 -6.135662E+05 -1.032314E+05 -1.374951E+06 -3.373248E-10 -3.134378E-10
        51  18 -3.770041E+06 -6.471018E+05 -1.256621E+05 -1.399847E+06 -2.054801E-09 -8.275105E-10
        51  19 -3.075292E+06 -3.815820E+05  7.307619E+04 -1.211975E+06 -9.425921E+03  8.151645E+03
        51  20 -3.042318E+06 -3.521050E+05  7.949248E+04 -1.185560E+06 -1.611241E+04  7.986896E+03
        51  21 -2.988361E+06 -3.511304E+05  8.017118E+04 -1.184933E+06 -2.273208E+04  7.638075E+03
        51  22 -3.378681E+06 -4.950813E+05 -6.802389E+03 -1.293927E+06 -8.319994E+03  8.566762E+03
        51  23 -3.389459E+06 -4.828392E+05 -1.186402E+04 -1.280280E+06 -1.509763E+04  8.368283E+03
        51  24 -3.379274E+06 -4.991208E+05 -2.273825E+04 -1.292421E+06 -2.180800E+04  7.985858E+03
        51  25 -3.681980E+06 -6.085749E+05 -8.668861E+04 -1.375842E+06 -7.214665E+03  8.981658E+03
        51  26 -3.736482E+06 -6.135661E+05 -1.032309E+05 -1.374951E+06 -1.408348E+04  8.749435E+03
        51  27 -3.770041E+06 -6.471016E+05 -1.256611E+05 -1.399848E+06 -2.088455E+04  8.333400E+03
        52   1 -2.932290E+06 -3.290798E+05  8.825694E+04 -1.177660E+06  2.766363E+04 -7.206193E+03
        52   2 -2.902984E+06 -2.943746E+05  7.620959E+04 -1.147532E+06  5.411492E+04  7.717121E+02
        52   3 -2.874899E+06 -3.277556E+05  3.183772E+04 -1.128356E+06  8.009881E+04  9.999811E+03
        52   4 -3.382122E+06 -4.930103E+05 -2.921036E+04 -1.294740E+06  2.644628E+04 -7.664231E+03
        52   5 -3.384283E+06 -4.785641E+05 -5.099562E+04 -1.281887E+06  5.352039E+04  5.467220E+02
        52   6 -3.387806E+06 -5.323545E+05 -1.056211E+05 -1.279986E+06  8.012546E+04  1.000691E+04
        52   7 -3.831757E+06 -6.569316E+05 -1.466947E+05 -1.411743E+06  2.522989E+04 -8.121932E+03
        52   8 -3.865356E+06 -6.627371E+05 -1.782207E+05 -1.416146E+06  5.292636E+04  3.219245E+02
        52   9 -3.900454E+06 -7.369279E+05 -2.431027E+05 -1.431498E+06  8.015205E+04  1.001398E+04
        52  10 -2.932291E+06 -3.290801E+05  8.825540E+04 -1.177660E+06 -2.000203E-09 -1.548041E-09
        52  11 -2.902987E+06 -2.943754E+05  7.620406E+04 -1.147532E+06 -6.885583E-10 -5.802523E-10
        52  12 -2.874906E+06 -3.277574E+05  3.182542E+04 -1.128357E+06 -4.194212E-10  7.260367E-11
        52  13 -3.382123E+06 -4.930105E+05 -2.921179E+04 -1.294739E+06 -3.582731E-09 -1.122377E-09
        52  14 -3.384286E+06 -4.785649E+05 -5.100103E+04 -1.281887E+06  1.952556E-10 -4.133403E-10
        52  15 -3.387813E+06 -5.323563E+05 -1.056334E+05 -1.279987E+06  7.882825E-10  4.004647E-10
        52  16 -3.831758E+06 -6.569319E+05 -1.466960E+05 -1.411743E+06 -1.029889E-09 -1.162049E-09
        52  17 -3.865359E+06 -6.627378E+05 -1.782260E+05 -1.416146E+06 -2.672122E-10 -1.166740E-09
        52  18 -3.900461E+06 -7.369297E+05 -2.431150E+05 -1.431498E+06  1.591942E-09  8.608223E-10
        52  19 -2.932290E+06 -3.290798E+05  8.825694E+04 -1.177660E+06 -2.766363E+04  7.206193E+03
        52  20 -2.902984E+06 -2.943746E+05  7.620959E+04 -1.147532E+06 -5.411492E+04 -7.717121E+02
        52  21 -2.874899E+06 -3.277556E+05  3.183772E+04 -1.128356E+06 -8.009881E+04 -9.999811E+03
        52  22 -3.382122E+06 -4.930103E+05 -2.921036E+04 -1.294740E+06 -2.644628E+04  7.664231E+03
        52  23 -3.384283E+06 -4.785641E+05 -5.099562E+04 -1.281887E+06 -5.352039E+04 -5.467220E+02
        52  24 -3.387806E+06 -5.323545E+05 -1.056211E+05 -1.279986E+06 -8.012546E+04 -1.000691E+04
        52  25 -3.831757E+06 -6.569316E+05 -1.466947E+05 -1.411743E+06 -2.522989E+04  8.121932E+03
        52  26 -3.865356E+06 -6.627371E+05 -1.782207E+05 -1.416146E+06 -5.292636E+04 -3.219245E+02
        52  27 -3.900454E+06 -7.369279E+05 -2.431027E+05 -1.431498E+06 -8.015205E+04 -1.001398E+04
        53   1 -2.803844E+06 -3.018302E+05  1.847722E+04 -1.195935E+06  1.038391E+05  1.552116E+04
        53   2 -2.777528E+06 -1.812114E+05 -6.024190E+04 -1.097624E+06  2.143719E+05  5.636325E+04
        53   3 -2.923852E+06 -5.356907E+05 -3.473634E+05 -8.965530E+05  3.191397E+05  1.125175E+05
        53   4 -3.405558E+06 -4.786602E+05 -1.301258E+05 -1.309131E+06  9.946978E+04  1.388366E+04
        53   5 -3.345821E+06 -4.304861E+05 -2.163733E+05 -1.288882E+06  2.177680E+05  5.762756E+04
        53   6 -3.460460E+06 -8.592548E+05 -5.173559E+05 -1.165825E+06  3.303029E+05  1.166542E+05
        53   7 -4.006919E+06 -6.554970E+05 -2.787552E+05 -1.422244E+06  9.510503E+04  1.224702E+04
        53   8 -3.913794E+06 -6.797064E+05 -3.725339E+05 -1.479970E+06  2.211607E+05  5.889005E+04
        53   9 -3.996745E+06 -1.182635E+06 -6.873728E+05 -1.434839E+06  3.414552E+05  1.207813E+05
        53  10 -2.803855E+06 -3.018334E+05  1.845640E+04 -1.195936E+06  1.276029E-10  4.472042E-10
        53  11 -2.777579E+06 -1.812272E+05 -6.033471E+04 -1.097633E+06 -2.520045E-09  6.618562E-10
        53  12 -2.923965E+06 -5.357318E+05 -3.475797E+05 -8.965820E+05 -9.820298E-10 -5.066427E-10
        53  13 -3.405569E+06 -4.786631E+05 -1.301449E+05 -1.309132E+06 -2.014736E-10  1.189988E-09
        53  14 -3.345873E+06 -4.305025E+05 -2.164692E+05 -1.288893E+06 -2.306664E-10 -3.126502E-09
        53  15 -3.460581E+06 -8.592990E+05 -5.175880E+05 -1.165856E+06  6.842425E-10 -5.727813E-10
        53  16 -4.006929E+06 -6.554996E+05 -2.787726E+05 -1.422245E+06 -1.562155E-09  5.147556E-10
        53  17 -3.913848E+06 -6.797234E+05 -3.726331E+05 -1.479981E+06 -8.321747E-10  1.962793E-11
        53  18 -3.996875E+06 -1.182682E+06 -6.876211E+05 -1.434872E+06  2.355767E-10 -7.793615E-11
        53  19 -2.803844E+06 -3.018302E+05  1.847722E+04 -1.195935E+06 -1.038391E+05 -1.552116E+04
        53  20 -2.777528E+06 -1.812114E+05 -6.024190E+04 -1.097624E+06 -2.143719E+05 -5.636325E+04
        53  21 -2.923852E+06 -5.356907E+05 -3.473634E+05 -8.965530E+05 -3.191397E+05 -1.125175E+05
        53  22 -3.405558E+06 -4.786602E+05 -1.301258E+05 -1.309131E+06 -9.946978E+04 -1.388366E+04
        53  23 -3.345821E+06 -4.304861E+05 -2.163733E+05 -1.288882E+06 -2.177680E+05 -5.762756E+04
        53  24 -3.460460E+06 -8.592548E+05 -5.173559E+05 -1.165825E+06 -3.303029E+05 -1.166542E+05
        53  25 -4.006919E+06 -6.554970E+05 -2.787552E+05 -1.422244E+06 -9.510503E+04 -1.224702E+04
        53  26 -3.913794E+06 -6.797064E+05 -3.725339E+05 -1.479970E+06 -2.211607E+05 -5.889005E+04
        53  27 -3.996745E+06 -1.182635E+06 -6.873728E+05 -1.434839E+06 -3.414552E+05 -1.207813E+05
        54   1 -6.814251E+05 -1.004071E+05 -7.999665E+04  6.614657E+02  4.877780E+04  7.389621E+03
        54   2 -6.508724E+05 -1.692171E+05 -1.142357E+05 -1.884592E+03  3.620783E+04  2.224705E+04
        54   3 -5.970679E+05 -1.536560E+05 -1.190994E+05 -3.273479E+04  2.366738E+04  2.138722E+04
        54   4  7.737027E+03  7.130470E+04  8.971631E+04 -2.243873E+04  6.136757E+04  7.412530E+03
        54   5 -4.625000E+03 -9.213611E+03  3.940888E+04 -8.217698E+03  4.010899E+04  2.225159E+04
        54   6  7.747177E+03 -3.899996E+03  2.448804E+04 -2.229834E+04  1.888115E+04  2.137997E+04
        54   7  6.973331E+05  2.429834E+05  2.593951E+05 -4.556483E+04  7.397127E+04  7.434491E+03
        54   8  6.420062E+05  1.507600E+05  1.930243E+05 -1.455759E+04  4.401418E+04  2.225606E+04
        54   9  6.128986E+05  1.458301E+05  1.680501E+05 -1.185177E+04  1.409027E+04  2.137256E+04
        54  10 -6.814277E+05 -1.004078E+05 -8.000123E+04  6.611753E+02  3.252394E-10  6.833648E-10
        54  11 -6.508740E+05 -1.692180E+05 -1.142390E+05 -1.885241E+03 -3.229994E-11 -8.165117E-10
        54  12 -5.970686E+05 -1.536566E+05 -1.191013E+05 -3.273520E+04  3.868296E-10 -4.764014E-10
        54  13  7.732969E+03  7.130363E+04  8.970913E+04 -2.243909E+04  1.091569E-09  2.033040E-10
        54  14 -4.626860E+03 -9.214575E+03  3.940492E+04 -8.218417E+03  2.085178E-09 -2.456882E-09
        54  15  7.746672E+03 -3.900583E+03  2.448651E+04 -2.229867E+04  1.775450E-09 -1.256176E-10
        54  16  6.973272E+05  2.429818E+05  2.593848E+05 -4.556528E+04 -6.007009E-10 -3.833069E-10
        54  17  6.420040E+05  1.507590E+05  1.930197E+05 -1.455838E+04  6.777131E-10 -7.665580E-10
        54  18  6.128983E+05  1.458295E+05  1.680489E+05 -1.185201E+04 -4.858940E-10 -4.826247E-10
        54  19 -6.814251E+05 -1.004071E+05 -7.999665E+04  6.614657E+02 -4.877780E+04 -7.389621E+03
        54  20 -6.508724E+05 -1.692171E+05 -1.142357E+05 -1.884592E+03 -3.620783E+04 -2.224705E+04
        54  21 -5.970679E+05 -1.536560E+05 -1.190994E+05 -3.273479E+04 -2.366738E+04 -2.138722E+04
        54  22  7.737027E+03  7.130470E+04  8.971631E+04 -2.243873E+04 -6.136757E+04 -7.412530E+03
        54  23 -4.625000E+03 -9.213611E+03  3.940888E+04 -8.217698E+03 -4.010899E+04 -2.225159E+04
        54  24  7.747177E+03 -3.899996E+03  2.448804E+04 -2.229834E+04 -1.888115E+04 -2.137997E+04
        54  25  6.973331E+05  2.429834E+05  2.593951E+05 -4.556483E+04 -7.397127E+04 -7.434491E+03
        54  26  6.420062E+05  1.507600E+05  1.930243E+05 -1.455759E+04 -4.401418E+04 -2.225606E+04
        54  27  6.128986E+05  1.458301E+05  1.680501E+05 -1.185177E+04 -1.409027E+04 -2.137256E+04
        55   1 -5.505921E+05 -1.302401E+05 -1.119867E+05 -2.078992E+04  1.519520E+04  1.818066E+04
        55   2 -5.101252E+05 -1.276686E+05 -1.114402E+05 -7.912764E+03  1.056744E+04  1.750021E+04
        55   3 -4.666527E+05 -1.167280E+05 -1.057213E+05 -2.363526E+04  5.938923E+03  1.577008E+04
        55   4  2.956354E+03  6.881763E+03  1.991643E+04 -2.241000E+04  1.512133E+04  1.817945E+04
        55   5  1.409217E+03 -1.003602E+03  1.019601E+04 -8.107286E+03  9.910381E+03  1.749868E+04
        55   6  2.965384E+03 -4.221692E+02  6.049976E+03 -2.240269E+04  4.698995E+03  1.576861E+04
        55   7  5.567861E+05  1.439815E+05  1.517981E+05 -2.403161E+04  1.504738E+04  1.817823E+04
        55   8  5.131839E+05  1.256426E+05  1.318140E+05 -8.302018E+03  9.252778E+03  1.749716E+04
        55   9  4.727860E+05  1.158678E+05  1.178058E+05 -2.116919E+04  3.458132E+03  1.576713E+04
        55  10 -5.505924E+05 -1.302405E+05 -1.119878E+05 -2.079014E+04  3.170413E-10 -1.153513E-09
        55  11 -5.101254E+05 -1.276690E+05 -1.114410E+05 -7.912913E+03  3.005013E-12  4.782200E-10
        55  12 -4.666528E+05 -1.167283E+05 -1.057218E+05 -2.363534E+04  2.882763E-10 -2.527441E-10
        55  13  2.956020E+03  6.881346E+03  1.991538E+04 -2.241022E+04 -2.245446E-10 -4.610305E-10
        55  14  1.409030E+03 -1.003957E+03  1.019525E+04 -8.107426E+03 -3.036718E-10 -2.669847E-10
        55  15  2.965293E+03 -4.224422E+02  6.049468E+03 -2.240274E+04 -5.231427E-10 -3.569072E-10
        55  16  5.567858E+05  1.439811E+05  1.517971E+05 -2.403183E+04 -7.175326E-11  6.306411E-10
        55  17  5.131837E+05  1.256422E+05  1.318132E+05 -8.302148E+03 -5.322780E-10 -9.791102E-10
        55  18  4.727859E+05  1.158675E+05  1.178053E+05 -2.116924E+04 -1.377885E-09  2.773049E-10
        55  19 -5.505921E+05 -1.302401E+05 -1.119867E+05 -2.078992E+04 -1.519520E+04 -1.818066E+04
        55  20 -5.101252E+05 -1.276686E+05 -1.114402E+05 -7.912764E+03 -1.056744E+04 -1.750021E+04
        55  21 -4.666527E+05 -1.167280E+05 -1.057213E+05 -2.363526E+04 -5.938923E+03 -1.577008E+04
        55  22  2.956354E+03  6.881763E+03  1.991643E+04 -2.241000E+04 -1.512133E+04 -1.817945E+04
        55  23  1.409217E+03 -1.003602E+03  1.019601E+04 -8.107286E+03 -9.910381E+03 -1.749868E+04
        55  24  2.965384E+03 -4.221692E+02  6.049976E+03 -2.240269E+04 -4.698995E+03 -1.576861E+04
        55  25  5.567861E+05  1.439815E+05  1.517981E+05 -2.403161E+04 -1.504738E+04 -1.817823E+04
        55  26  5.131839E+05  1.256426E+05  1.318140E+05 -8.302018E+03 -9.252778E+03 -1.749716E+04
        55  27  4.727860E+05  1.158678E+05  1.178058E+05 -2.116919E+04 -3.458132E+03 -1.576713E+04
        56   1 -4.160225E+05 -1.029753E+05 -9.468367E+04 -2.241701E+04  4.673661E+03  1.458377E+04
        56   2 -3.743293E+05 -9.334885E+04 -8.695218E+04 -8.157656E+03  3.430040E+03  1.286875E+04
        56   3 -3.321153E+05 -8.289876E+04 -7.817241E+04 -2.252789E+04  2.185021E+03  1.108380E+04
        56   4  2.404774E+03  6.095570E+02  4.708732E+03 -2.241170E+04  3.748715E+03  1.458272E+04
        56   5  2.145538E+03 -1.338132E+02  2.563169E+03 -8.097333E+03  2.465695E+03  1.286802E+04
        56   6  2.411480E+03 -4.702922E+01  1.492657E+03 -2.241148E+04  1.181359E+03  1.108341E+04
        56   7  4.209929E+05  1.041818E+05  1.040889E+05 -2.240639E+04  2.823148E+03  1.458168E+04
        56   8  3.787505E+05  9.307101E+04  9.206861E+04 -8.036979E+03  1.500767E+03  1.286729E+04
        56   9  3.370410E+05  8.279662E+04  8.114989E+04 -2.229500E+04  1.771586E+02  1.108301E+04
        56  10 -4.160226E+05 -1.029755E+05 -9.468411E+04 -2.241706E+04  1.683925E-10  2.012717E-10
        56  11 -3.743294E+05 -9.334903E+04 -8.695251E+04 -8.157692E+03 -4.213405E-10  1.206255E-10
        56  12 -3.321153E+05 -8.289889E+04 -7.817265E+04 -2.252791E+04 -1.863773E-09  2.190396E-10
        56  13  2.404702E+03  6.093248E+02  4.708306E+03 -2.241174E+04 -4.159754E-10 -2.224633E-10
        56  14  2.145487E+03 -1.339926E+02  2.562847E+03 -8.097358E+03 -1.009497E-09 -4.810379E-10
        56  15  2.411445E+03 -4.716151E+01  1.492424E+03 -2.241149E+04 -2.365577E-10  8.736514E-11
        56  16  4.209928E+05  1.041816E+05  1.040885E+05 -2.240643E+04 -1.369163E-09 -1.871726E-10
        56  17  3.787505E+05  9.307083E+04  9.206830E+04 -8.036994E+03  1.058468E-09 -9.990367E-10
        56  18  3.370409E+05  8.279649E+04  8.114966E+04 -2.229500E+04  4.604089E-10 -2.388156E-10
        56  19 -4.160225E+05 -1.029753E+05 -9.468367E+04 -2.241701E+04 -4.673661E+03 -1.458377E+04
        56  20 -3.743293E+05 -9.334885E+04 -8.695218E+04 -8.157656E+03 -3.430040E+03 -1.286875E+04
        56  21 -3.321153E+05 -8.289876E+04 -7.817241E+04 -2.252789E+04 -2.185021E+03 -1.108380E+04
        56  22  2.404774E+03  6.095570E+02  4.708732E+03 -2.241170E+04 -3.748715E+03 -1.458272E+04
        56  23  2.145538E+03 -1.338132E+02  2.563169E+03 -8.097333E+03 -2.465695E+03 -1.286802E+04
        56  24  2.411480E+03 -4.702922E+01  1.492657E+03 -2.241148E+04 -1.181359E+03 -1.108341E+04
        56  25  4.209929E+05  1.041818E+05  1.040889E+05 -2.240639E+04 -2.823148E+03 -1.458168E+04
        56  26  3.787505E+05  9.307101E+04  9.206861E+04 -8.036979E+03 -1.500767E+03 -1.286729E+04
        56  27  3.370410E+05  8.279662E+04  8.114989E+04 -2.229500E+04 -1.771586E+02 -1.108301E+04
        57   1 -2.810118E+05 -7.008326E+04 -6.610818E+04 -2.240039E+04  1.927799E+03  1.003304E+04
        57   2 -2.391080E+05 -5.978191E+04 -5.677407E+04 -8.073346E+03  1.624258E+03  8.249401E+03
        57   3 -1.970995E+05 -4.938963E+04 -4.721096E+04 -2.237102E+04  1.319842E+03  6.461321E+03
        57   4  2.326342E+03  4.208125E+01  1.132574E+03 -2.241054E+04  9.450579E+02  1.003283E+04
        57   5  2.276729E+03 -2.002255E+01  6.159862E+02 -8.098528E+03  6.389060E+02  8.249404E+03
        57   6  2.330644E+03  9.350870E+00  3.302258E+02 -2.241054E+04  3.318999E+02  6.461542E+03
        57   7  2.857382E+05  7.016165E+04  6.836773E+04 -2.242069E+04 -3.813020E+01  1.003262E+04
        57   8  2.437150E+05  5.973767E+04  5.800197E+04 -8.123717E+03 -3.468276E+02  8.249406E+03
        57   9  2.017973E+05  4.940546E+04  4.786863E+04 -2.245008E+04 -6.563585E+02  6.461764E+03
        57  10 -2.810118E+05 -7.008337E+04 -6.610837E+04 -2.240040E+04 -4.838913E-10  3.672167E-10
        57  11 -2.391080E+05 -5.978198E+04 -5.677420E+04 -8.073357E+03  6.546889E-10  1.979131E-10
        57  12 -1.970995E+05 -4.938967E+04 -4.721105E+04 -2.237102E+04 -6.486195E-10  3.015311E-10
        57  13  2.326314E+03  4.197292E+01  1.132383E+03 -2.241055E+04 -5.537206E-10  3.363224E-10
        57  14  2.276711E+03 -2.009573E+01  6.158575E+02 -8.098532E+03 -5.886410E-10  1.191055E-10
        57  15  2.330633E+03  9.306006E+00  3.301471E+02 -2.241055E+04 -1.908975E-09 -2.126376E-10
        57  16  2.857382E+05  7.016154E+04  6.836754E+04 -2.242069E+04 -4.863265E-10  7.942014E-11
        57  17  2.437149E+05  5.973759E+04  5.800184E+04 -8.123715E+03 -8.743548E-10  1.454337E-10
        57  18  2.017972E+05  4.940541E+04  4.786855E+04 -2.245008E+04 -3.115012E-10 -3.705815E-10
        57  19 -2.810118E+05 -7.008326E+04 -6.610818E+04 -2.240039E+04 -1.927799E+03 -1.003304E+04
        57  20 -2.391080E+05 -5.978191E+04 -5.677407E+04 -8.073346E+03 -1.624258E+03 -8.249401E+03
        57  21 -1.970995E+05 -4.938963E+04 -4.721096E+04 -2.237102E+04 -1.319842E+03 -6.461321E+03
        57  22  2.326342E+03  4.208125E+01  1.132574E+03 -2.241054E+04 -9.450579E+02 -1.003283E+04
        57  23  2.276729E+03 -2.002255E+01  6.159862E+02 -8.098528E+03 -6.389060E+02 -8.249404E+03
        57  24  2.330644E+03  9.350870E+00  3.302258E+02 -2.241054E+04 -3.318999E+02 -6.461542E+03
        57  25  2.857382E+05  7.016165E+04  6.836773E+04 -2.242069E+04  3.813020E+01 -1.003262E+04
        57  26  2.437150E+05  5.973767E+04  5.800197E+04 -8.123717E+03  3.468276E+02 -8.249406E+03
        57  27  2.017973E+05  4.940546E+04  4.786863E+04 -2.245008E+04  6.563585E+02 -6.461764E+03
        58   1 -1.459308E+05 -3.665937E+04 -3.489189E+04 -2.237357E+04  1.268440E+03  5.419463E+03
        58   2 -1.039657E+05 -2.630540E+04 -2.520898E+04 -8.069049E+03  1.238154E+03  3.631538E+03
        58   3 -6.201270E+04 -1.593546E+04 -1.550724E+04 -2.238637E+04  1.207492E+03  1.845710E+03
        58   4  2.309527E+03  1.437096E+01  2.235927E+02 -2.240999E+04  2.811141E+02  5.419790E+03
        58   5  2.317062E+03  5.896318E+00  5.806361E+01 -8.099221E+03  2.519522E+02  3.631957E+03
        58   6  2.311422E+03  1.346105E+01 -8.916250E+01 -2.240999E+04  2.224157E+02  1.846226E+03
        58   7  1.505700E+05  3.668654E+04  3.533755E+04 -2.244641E+04 -7.064466E+02  5.420118E+03
        58   8  1.086102E+05  2.631638E+04  2.532432E+04 -8.129397E+03 -7.344179E+02  3.632375E+03
        58   9  6.663934E+04  1.596208E+04  1.532863E+04 -2.243361E+04 -7.627620E+02  1.846742E+03
        58  10 -1.459308E+05 -3.665941E+04 -3.489194E+04 -2.237357E+04 -5.879032E-10 -4.986180E-11
        58  11 -1.039657E+05 -2.630541E+04 -2.520901E+04 -8.069053E+03  1.209913E-09 -3.338913E-10
        58  12 -6.201270E+04 -1.593546E+04 -1.550725E+04 -2.238637E+04  1.555577E-10  5.342908E-10
        58  13  2.309519E+03  1.433940E+01  2.235373E+02 -2.240999E+04 -6.406622E-10  3.878501E-10
        58  14  2.317059E+03  5.882136E+00  5.803871E+01 -8.099222E+03 -1.194587E-09  6.605371E-10
        58  15  2.311421E+03  1.345738E+01 -8.916900E+01 -2.240999E+04  7.299477E-10 -3.429268E-10
        58  16  1.505700E+05  3.668651E+04  3.533749E+04 -2.244641E+04 -4.209585E-10 -9.634853E-11
        58  17  1.086102E+05  2.631636E+04  2.532430E+04 -8.129395E+03 -2.857900E-10  6.420217E-10
        58  18  6.663934E+04  1.596208E+04  1.532862E+04 -2.243361E+04 -1.026600E-09  1.291629E-11
        58  19 -1.459308E+05 -3.665937E+04 -3.489189E+04 -2.237357E+04 -1.268440E+03 -5.419463E+03
        58  20 -1.039657E+05 -2.630540E+04 -2.520898E+04 -8.069049E+03 -1.238154E+03 -3.631538E+03
        58  21 -6.201270E+04 -1.593546E+04 -1.550724E+04 -2.238637E+04 -1.207492E+03 -1.845710E+03
        58  22  2.309527E+03  1.437096E+01  2.235927E+02 -2.240999E+04 -2.811141E+02 -5.419790E+03
        58  23  2.317062E+03  5.896318E+00  5.806361E+01 -8.099221E+03 -2.519522E+02 -3.631957E+03
        58  24  2.311422E+03  1.346105E+01 -8.916250E+01 -2.240999E+04 -2.224157E+02 -1.846226E+03
        58  25  1.505700E+05  3.668654E+04  3.533755E+04 -2.244641E+04  7.064466E+02 -5.420118E+03
        58  26  1.086102E+05  2.631638E+04  2.532432E+04 -8.129397E+03  7.344179E+02 -3.632375E+03
        58  27  6.663934E+04  1.596208E+04  1.532863E+04 -2.243361E+04  7.627620E+02 -1.846742E+03
        59   1 -1.083156E+04 -3.196236E+03 -3.162532E+03 -2.242652E+04  1.240468E+03  7.999116E+02
        59   2  3.117138E+04  7.161627E+03  6.482705E+03 -8.110127E+03  1.405748E+03 -9.862092E+02
        59   3  7.309391E+04  1.741398E+04  1.598625E+04 -2.241495E+04  1.571161E+03 -2.736268E+03
        59   4  2.296284E+03  2.817410E+01 -1.682734E+02 -2.240992E+04  2.446171E+02  8.004568E+02
        59   5  2.339090E+03  2.452275E+01 -3.710736E+02 -8.099297E+03  4.297570E+02 -9.857034E+02
        59   6  2.295771E+03 -8.813612E+01 -7.294385E+02 -2.240998E+04  6.150182E+02 -2.735795E+03
        59   7  1.542429E+04  3.252573E+03  2.825978E+03 -2.239331E+04 -7.512543E+02  8.010020E+02
        59   8 -2.649244E+04 -7.112640E+03 -7.224906E+03 -8.088468E+03 -5.461894E+02 -9.851977E+02
        59   9 -6.849776E+04 -1.759061E+04 -1.744547E+04 -2.240501E+04 -3.410165E+02 -2.735321E+03
        59  10 -1.083156E+04 -3.196237E+03 -3.162536E+03 -2.242652E+04  5.069556E-10  1.042412E-09
        59  11  3.117138E+04  7.161625E+03  6.482699E+03 -8.110126E+03  1.195438E-10 -4.460037E-10
        59  12  7.309391E+04  1.741397E+04  1.598623E+04 -2.241495E+04 -5.909535E-10  3.790260E-10
        59  13  2.296284E+03  2.817340E+01 -1.682747E+02 -2.240992E+04 -1.352505E-10 -3.990025E-10
        59  14  2.339089E+03  2.452166E+01 -3.710757E+02 -8.099297E+03 -1.307190E-10 -1.135021E-09
        59  15  2.295768E+03 -8.814426E+01 -7.294532E+02 -2.240998E+04 -4.017889E-10  4.988708E-10
        59  16  1.542429E+04  3.252572E+03  2.825976E+03 -2.239331E+04 -1.728111E-10  1.636348E-10
        59  17 -2.649244E+04 -7.112642E+03 -7.224909E+03 -8.088468E+03  8.137969E-10 -1.114068E-09
        59  18 -6.849776E+04 -1.759061E+04 -1.744548E+04 -2.240501E+04  4.973442E-10  5.137678E-11
        59  19 -1.083156E+04 -3.196236E+03 -3.162532E+03 -2.242652E+04 -1.240468E+03 -7.999116E+02
        59  20  3.117138E+04  7.161627E+03  6.482705E+03 -8.110127E+03 -1.405748E+03  9.862092E+02
        59  21  7.309391E+04  1.741398E+04  1.598625E+04 -2.241495E+04 -1.571161E+03  2.736268E+03
        59  22  2.296284E+03  2.817410E+01 -1.682734E+02 -2.240992E+04 -2.446171E+02 -8.004568E+02
        59  23  2.339090E+03  2.452275E+01 -3.710736E+02 -8.099297E+03 -4.297570E+02  9.857034E+02
        59  24  2.295771E+03 -8.813612E+01 -7.294385E+02 -2.240998E+04 -6.150182E+02  2.735795E+03
        59  25  1.542429E+04  3.252573E+03  2.825978E+03 -2.239331E+04  7.512543E+02 -8.010020E+02
        59  26 -2.649244E+04 -7.112640E+03 -7.224906E+03 -8.088468E+03  5.461894E+02  9.851977E+02
        59  27 -6.849776E+04 -1.759061E+04 -1.744547E+04 -2.240501E+04  3.410165E+02  2.735321E+03
        60   1  1.242186E+05  3.030215E+04  2.816912E+04 -2.261923E+04  1.880146E+03 -3.851014E+03
        60   2  1.663862E+05  4.073083E+04  3.734497E+04 -8.064301E+03  2.411491E+03 -5.606404E+03
        60   3  2.081648E+05  4.987570E+04  4.585335E+04 -2.211677E+04  2.943582E+03 -6.821969E+03
        60   4  2.213924E+03  7.981490E+01 -9.461462E+02 -2.240683E+04  7.619882E+02 -3.850520E+03
        60   5  2.433673E+03  1.498324E+02 -1.624539E+03 -8.103087E+03  1.591156E+03 -5.606188E+03
        60   6  2.211008E+03 -1.115746E+03 -3.177284E+03 -2.240723E+04  2.421034E+03 -6.821961E+03
        60   7 -1.197771E+05 -3.014360E+04 -3.006246E+04 -2.219447E+04 -3.559505E+02 -3.850027E+03
        60   8 -1.614941E+05 -4.043310E+04 -4.059592E+04 -8.141861E+03  7.710368E+02 -5.605972E+03
        60   9 -2.037039E+05 -5.211025E+04 -5.221089E+04 -2.269759E+04  1.898659E+03 -6.821953E+03
        60  10  1.242186E+05  3.030213E+04  2.816909E+04 -2.261923E+04  4.256881E-10  4.304183E-11
        60  11  1.663861E+05  4.073079E+04  3.734490E+04 -8.064290E+03 -1.110361E-10  3.164797E-11
        60  12  2.081648E+05  4.987565E+04  4.585325E+04 -2.211675E+04  1.443229E-09 -3.660735E-10
        60  13  2.213920E+03  7.979883E+01 -9.461752E+02 -2.240683E+04 -1.195369E-10  5.701728E-10
        60  14  2.433662E+03  1.497979E+02 -1.624603E+03 -8.103080E+03 -1.171328E-09  2.159228E-11
        60  15  2.210989E+03 -1.115798E+03 -3.177383E+03 -2.240722E+04  1.766010E-09  9.685475E-12
        60  16 -1.197771E+05 -3.014361E+04 -3.006248E+04 -2.219447E+04  4.438872E-10  6.162476E-10
        60  17 -1.614942E+05 -4.043313E+04 -4.059598E+04 -8.141858E+03  8.256241E-10  4.400128E-10
        60  18 -2.037039E+05 -5.211031E+04 -5.221099E+04 -2.269758E+04 -1.388490E-09  1.428380E-10
        60  19  1.242186E+05  3.030215E+04  2.816912E+04 -2.261923E+04 -1.880146E+03  3.851014E+03
        60  20  1.663862E+05  4.073083E+04  3.734497E+04 -8.064301E+03 -2.411491E+03  5.606404E+03
        60  21  2.081648E+05  4.987570E+04  4.585335E+04 -2.211677E+04 -2.943582E+03  6.821969E+03
        60  22  2.213924E+03  7.981490E+01 -9.461462E+02 -2.240683E+04 -7.619882E+02  3.850520E+03
        60  23  2.433673E+03  1.498324E+02 -1.624539E+03 -8.103087E+03 -1.591156E+03  5.606188E+03
        60  24  2.211008E+03 -1.115746E+03 -3.177284E+03 -2.240723E+04 -2.421034E+03  6.821961E+03
        60  25 -1.197771E+05 -3.014360E+04 -3.006246E+04 -2.219447E+04  3.559505E+02  3.850027E+03
        60  26 -1.614941E+05 -4.043310E+04 -4.059592E+04 -8.141861E+03 -7.710368E+02  5.605972E+03
        60  27 -2.037039E+05 -5.211025E+04 -5.221089E+04 -2.269759E+04 -1.898659E+03  6.821953E+03
        61   1  2.586976E+05  6.426384E+04  5.717241E+04 -2.397685E+04  5.964141E+03 -8.968232E+03
        61   2  3.022573E+05  7.540680E+04  6.471343E+04 -7.031757E+03  4.906547E+03 -1.026346E+04
        61   3  3.428128E+05  7.364794E+04  6.973423E+04 -1.847577E+04  3.848607E+03 -3.487338E+03
        61   4  1.462781E+03  6.088446E+02 -3.904050E+03 -2.235856E+04  3.019331E+03 -8.967781E+03
        61   5  3.350435E+03  1.431706E+03 -6.311354E+03 -8.163293E+03  6.417639E+03 -1.026389E+04
        61   6  1.457512E+03 -1.142389E+04 -1.433408E+04 -2.235809E+04  9.815584E+03 -3.486912E+03
        61   7 -2.557113E+05 -6.305090E+04 -6.498510E+04 -2.074094E+04  7.573382E+01 -8.967346E+03
        61   8 -2.954745E+05 -7.254982E+04 -7.734237E+04 -9.294280E+03  7.928006E+03 -1.026432E+04
        61   9 -3.397917E+05 -9.650431E+04 -9.841085E+04 -2.623827E+04  1.577928E+04 -3.486560E+03
        61  10  2.586975E+05  6.426375E+04  5.717220E+04 -2.397681E+04  5.759615E-10 -2.380742E-10
        61  11  3.022573E+05  7.540668E+04  6.471319E+04 -7.031717E+03  3.368935E-10  2.651881E-10
        61  12  3.428128E+05  7.364792E+04  6.973418E+04 -1.847576E+04  2.538725E-10  2.072739E-10
        61  13  1.462750E+03  6.087558E+02 -3.904218E+03 -2.235854E+04  1.023844E-09  3.640670E-10
        61  14  3.350362E+03  1.431582E+03 -6.311629E+03 -8.163240E+03  1.608601E-09  7.524931E-11
        61  15  1.457405E+03 -1.142393E+04 -1.433428E+04 -2.235806E+04  1.666732E-10  6.867521E-12
        61  16 -2.557113E+05 -6.305099E+04 -6.498525E+04 -2.074094E+04  2.106089E-10  1.314750E-10
        61  17 -2.954746E+05 -7.254995E+04 -7.734269E+04 -9.294214E+03 -5.761999E-10 -8.412852E-11
        61  18 -3.397920E+05 -9.650439E+04 -9.841134E+04 -2.623823E+04  1.193674E-10  4.573695E-11
        61  19  2.586976E+05  6.426384E+04  5.717241E+04 -2.397685E+04 -5.964141E+03  8.968232E+03
        61  20  3.022573E+05  7.540680E+04  6.471343E+04 -7.031757E+03 -4.906547E+03  1.026346E+04
        61  21  3.428128E+05  7.364794E+04  6.973423E+04 -1.847577E+04 -3.848607E+03  3.487338E+03
        61  22  1.462781E+03  6.088446E+02 -3.904050E+03 -2.235856E+04 -3.019331E+03  8.967781E+03
        61  23  3.350435E+03  1.431706E+03 -6.311354E+03 -8.163293E+03 -6.417639E+03  1.026389E+04
        61  24  1.457512E+03 -1.142389E+04 -1.433408E+04 -2.235809E+04 -9.815584E+03  3.486912E+03
        61  25 -2.557113E+05 -6.305090E+04 -6.498510E+04 -2.074094E+04 -7.573382E+01  8.967346E+03
        61  26 -2.954745E+05 -7.254982E+04 -7.734237E+04 -9.294280E+03 -7.928006E+03  1.026432E+04
        61  27 -3.397917E+05 -9.650431E+04 -9.841085E+04 -2.623827E+04 -1.577928E+04  3.486560E+03
        62   1  4.970524E+05  1.607868E+06  4.810972E+05 -4.946823E+05  2.032565E+04  1.254724E+05
        62   2  3.434461E+05  1.123657E+06  3.032160E+05 -4.301606E+05  6.134807E+04  3.645016E+04
        62   3  2.230528E+05  6.591098E+05  1.914510E+05 -4.718634E+05  5.530604E+04 -5.260553E+04
        62   4  3.325374E+04 -2.661485E+05  3.526809E+04 -4.707359E+05  2.065601E+04  1.880332E+04
        62   5  8.663059E+03 -2.689106E+05  2.151781E+04 -4.176659E+05  6.145180E+04  7.924656E+03
        62   6  3.791457E+03 -2.657247E+05  1.972678E+04 -4.708260E+05  5.513796E+04 -3.056667E+03
        62   7 -4.307901E+05 -2.136922E+06 -4.107640E+05 -4.468584E+05  2.097876E+04 -8.754602E+04
        62   8 -3.262395E+05 -1.659631E+06 -2.602777E+05 -4.051978E+05  6.155453E+04 -2.053818E+04
        62   9 -2.155177E+05 -1.189726E+06 -1.520244E+05 -4.697892E+05  5.496989E+04  4.642034E+04
        62  10  4.970477E+05  1.607851E+06  4.810669E+05 -4.946844E+05 -2.450997E-10 -1.169316E-10
        62  11  3.434417E+05  1.123654E+06  3.032064E+05 -4.301624E+05 -4.927886E-11 -8.798774E-10
        62  12  2.230488E+05  6.591060E+05  1.914401E+05 -4.718610E+05 -1.215987E-10 -1.021699E-09
        62  13  3.325318E+04 -2.661490E+05  3.526662E+04 -4.707362E+05  2.792244E-10  3.412748E-11
        62  14  8.658987E+03 -2.689117E+05  2.151060E+04 -4.176663E+05 -9.589779E-10  1.294561E-09
        62  15  3.788190E+03 -2.657255E+05  1.972106E+04 -4.708258E+05 -3.605156E-10 -6.196662E-10
        62  16 -4.307927E+05 -2.136930E+06 -4.107792E+05 -4.468570E+05 -7.697351E-10  1.321227E-10
        62  17 -3.262436E+05 -1.659632E+06 -2.602856E+05 -4.051968E+05  1.483660E-09  5.128534E-10
        62  18 -2.155215E+05 -1.189729E+06 -1.520341E+05 -4.697912E+05 -1.157854E-09  2.338645E-09
        62  19  4.970524E+05  1.607868E+06  4.810972E+05 -4.946823E+05 -2.032565E+04 -1.254724E+05
        62  20  3.434461E+05  1.123657E+06  3.032160E+05 -4.301606E+05 -6.134807E+04 -3.645016E+04
        62  21  2.230528E+05  6.591098E+05  1.914510E+05 -4.718634E+05 -5.530604E+04  5.260553E+04
        62  22  3.325374E+04 -2.661485E+05  3.526809E+04 -4.707359E+05 -2.065601E+04 -1.880332E+04
        62  23  8.663059E+03 -2.689106E+05  2.151781E+04 -4.176659E+05 -6.145180E+04 -7.924656E+03
        62  24  3.791457E+03 -2.657247E+05  1.972678E+04 -4.708260E+05 -5.513796E+04  3.056667E+03
        62  25 -4.307901E+05 -2.136922E+06 -4.107640E+05 -4.468584E+05 -2.097876E+04  8.754602E+04
        62  26 -3.262395E+05 -1.659631E+06 -2.602777E+05 -4.051978E+05 -6.155453E+04  2.053818E+04
        62  27 -2.155177E+05 -1.189726E+06 -1.520244E+05 -4.697892E+05 -5.496989E+04 -4.642034E+04
        63   1  1.493562E+05  3.459479E+05  1.348816E+05 -4.751947E+05  3.685903E+04 -5.076397E+04
        63   2  3.669785E+04 -1.297038E+05  5.398636E+04 -4.164046E+05  9.918176E+03 -6.666933E+04
        63   3 -6.766172E+04 -6.017201E+05 -1.468478E+04 -4.666957E+05 -1.758154E+04 -8.256799E+04
        63   4  4.204995E+03 -2.662318E+05  2.138116E+04 -4.714519E+05  3.670175E+04 -6.507377E+03
        63   5  4.250524E+03 -2.678338E+05  2.987568E+04 -4.168977E+05  9.755781E+03 -2.150050E+04
        63   6  1.244515E+04 -2.661854E+05  4.995494E+04 -4.714230E+05 -1.774937E+04 -3.649836E+04
        63   7 -1.409666E+05 -8.780441E+05 -9.212774E+04 -4.677125E+05  3.654490E+04  3.770672E+04
        63   8 -2.819674E+04 -4.059407E+05  5.771993E+03 -4.173907E+05  9.593292E+03  2.365857E+04
        63   9  9.254655E+04  6.946235E+04  1.145974E+05 -4.761529E+05 -1.791786E+04  9.595622E+03
        63  10  1.493540E+05  3.459447E+05  1.348743E+05 -4.751932E+05 -6.074784E-10 -1.487060E-09
        63  11  3.669655E+04 -1.297086E+05  5.397782E+04 -4.164041E+05  1.039298E-09 -8.833980E-10
        63  12 -6.766389E+04 -6.017275E+05 -1.469819E+04 -4.666968E+05 -2.139389E-10  5.476567E-10
        63  13  4.203538E+03 -2.662322E+05  2.137855E+04 -4.714517E+05 -1.590051E-09 -2.153950E-10
        63  14  4.250298E+03 -2.678343E+05  2.987463E+04 -4.168976E+05 -3.211983E-09  1.245268E-09
        63  15  1.244445E+04 -2.661869E+05  4.995184E+04 -4.714236E+05  1.193569E-09 -5.805741E-10
        63  16 -1.409684E+05 -8.780460E+05 -9.213293E+04 -4.677136E+05 -1.387542E-10  1.379881E-09
        63  17 -2.819699E+04 -4.059413E+05  5.770766E+03 -4.173909E+05 -2.378414E-09 -7.444878E-12
        63  18  9.254618E+04  6.946217E+04  1.145967E+05 -4.761528E+05  9.785645E-10  8.512253E-10
        63  19  1.493562E+05  3.459479E+05  1.348816E+05 -4.751947E+05 -3.685903E+04  5.076397E+04
        63  20  3.669785E+04 -1.297038E+05  5.398636E+04 -4.164046E+05 -9.918176E+03  6.666933E+04
        63  21 -6.766172E+04 -6.017201E+05 -1.468478E+04 -4.666957E+05  1.758154E+04  8.256799E+04
        63  22  4.204995E+03 -2.662318E+05  2.138116E+04 -4.714519E+05 -3.670175E+04  6.507377E+03
        63  23  4.250524E+03 -2.678338E+05  2.987568E+04 -4.168977E+05 -9.755781E+03  2.150050E+04
        63  24  1.244515E+04 -2.661854E+05  4.995494E+04 -4.714230E+05  1.774937E+04  3.649836E+04
        63  25 -1.409666E+05 -8.780441E+05 -9.212774E+04 -4.677125E+05 -3.654490E+04 -3.770672E+04
        63  26 -2.819674E+04 -4.059407E+05  5.771993E+03 -4.173907E+05 -9.593292E+03 -2.365857E+04
        63  27  9.254655E+04  6.946235E+04  1.145974E+05 -4.761529E+05  1.791786E+04 -9.595622E+03
        64   1 -1.452986E+05 -9.058602E+05 -5.806792E+04 -4.823469E+05 -3.626227E+04 -9.554826E+04
        64   2 -2.215724E+05 -1.392986E+06 -1.135618E+05 -3.553584E+05 -4.654894E+04 -8.773221E+04
        64   3 -1.815639E+05 -1.852288E+06 -1.451973E+05 -3.349536E+05 -1.622789E+04 -7.982191E+04
        64   4  8.710750E+03 -2.582619E+05  6.443736E+04 -4.709397E+05 -3.644365E+04 -4.508347E+04
        64   5  4.782920E+04 -2.780064E+05  1.150354E+05 -4.173555E+05 -4.647757E+04 -1.044831E+05
        64   6  2.147703E+05 -2.585753E+05  2.361358E+05 -4.702913E+05 -1.593906E+04 -1.637859E+05
        64   7  1.626975E+05  3.897476E+05  1.869338E+05 -4.595197E+05 -3.662306E+04  5.432753E+03
        64   8  3.171666E+05  8.381648E+05  3.435694E+05 -4.794650E+05 -4.640294E+04 -1.212635E+05
        64   9  6.109912E+05  1.337523E+06  6.173254E+05 -6.059762E+05 -1.561401E+04 -2.479646E+05
        64  10 -1.453025E+05 -9.058704E+05 -5.808759E+04 -4.823497E+05  1.455486E-09  2.488738E-11
        64  11 -2.215768E+05 -1.392995E+06 -1.135804E+05 -3.553617E+05  2.960166E-09 -3.643800E-10
        64  12 -1.815659E+05 -1.852295E+06 -1.452098E+05 -3.349547E+05  7.881361E-10 -6.177117E-10
        64  13  8.708776E+03 -2.582644E+05  6.443104E+04 -4.709410E+05  2.024776E-09 -1.128358E-10
        64  14  4.782395E+04 -2.780187E+05  1.150108E+05 -4.173595E+05 -1.606245E-09  1.333151E-09
        64  15  2.147628E+05 -2.586042E+05  2.360849E+05 -4.702934E+05  1.265783E-09 -4.225001E-10
        64  16  1.626961E+05  3.897472E+05  1.869312E+05 -4.595195E+05 -1.710906E-10  1.059623E-10
        64  17  3.171603E+05  8.381485E+05  3.435377E+05 -4.794695E+05  1.768110E-09 -3.414819E-10
        64  18  6.109745E+05  1.337457E+06  6.172096E+05 -6.059793E+05  7.761429E-10  1.749181E-09
        64  19 -1.452986E+05 -9.058602E+05 -5.806792E+04 -4.823469E+05  3.626227E+04  9.554826E+04
        64  20 -2.215724E+05 -1.392986E+06 -1.135618E+05 -3.553584E+05  4.654894E+04  8.773221E+04
        64  21 -1.815639E+05 -1.852288E+06 -1.451973E+05 -3.349536E+05  1.622789E+04  7.982191E+04
        64  22  8.710750E+03 -2.582619E+05  6.443736E+04 -4.709397E+05  3.644365E+04  4.508347E+04
        64  23  4.782920E+04 -2.780064E+05  1.150354E+05 -4.173555E+05  4.647757E+04  1.044831E+05
        64  24  2.147703E+05 -2.585753E+05  2.361358E+05 -4.702913E+05  1.593906E+04  1.637859E+05
        64  25  1.626975E+05  3.897476E+05  1.869338E+05 -4.595197E+05  3.662306E+04 -5.432753E+03
        64  26  3.171666E+05  8.381648E+05  3.435694E+05 -4.794650E+05  4.640294E+04  1.212635E+05
        64  27  6.109912E+05  1.337523E+06  6.173254E+05 -6.059762E+05  1.561401E+04  2.479646E+05
        65   1 -1.739352E+06 -6.640664E+05 -3.744596E+05 -5.994074E+05 -1.024707E+05 -1.030928E+04
        65   2 -1.623853E+06 -6.354420E+05 -2.989095E+05 -5.604298E+05 -6.852604E+04  6.822395E+04
        65   3 -1.492065E+06 -6.145998E+05 -2.614318E+05 -5.486122E+05 -1.833473E+04  1.037700E+05
        65   4 -9.995450E+04 -6.990376E+04  4.525720E+04 -1.727942E+05  1.984840E+04  3.581970E+04
        65   5 -1.171408E+05 -9.020199E+04  2.080239E+04 -1.525631E+05 -1.268796E+04  8.924166E+04
        65   6 -1.048572E+05 -1.051099E+05  1.106047E+04 -1.594922E+05 -2.901084E+04  9.972773E+04
        65   7  1.542045E+06  5.243788E+05  4.648074E+05  2.548154E+05  1.425193E+05  8.207020E+04
        65   8  1.391881E+06  4.552033E+05  3.403972E+05  2.562065E+05  4.329628E+04  1.103123E+05
        65   9  1.284367E+06  4.045648E+05  2.834704E+05  2.304421E+05 -3.971278E+04  9.567569E+04
        65  10 -1.739363E+06 -6.640693E+05 -3.744796E+05 -5.994082E+05  8.990464E-10  1.692937E-10
        65  11 -1.623859E+06 -6.354483E+05 -2.989271E+05 -5.604260E+05  2.749439E-10 -8.295455E-10
        65  12 -1.492069E+06 -6.146114E+05 -2.614527E+05 -5.486106E+05 -1.151422E-10  5.254008E-10
        65  13 -9.995527E+04 -6.990525E+04  4.525404E+04 -1.727948E+05  1.311535E-10  8.695766E-10
        65  14 -1.171431E+05 -9.021059E+04  2.078712E+04 -1.525622E+05 -2.145252E-09  1.598983E-10
        65  15 -1.048607E+05 -1.051208E+05  1.104020E+04 -1.594898E+05 -3.634522E-10 -3.692442E-12
        65  16  1.542021E+06  5.243661E+05  4.647567E+05  2.548060E+05 -1.998812E-09 -1.112932E-09
        65  17  1.391876E+06  4.551897E+05  3.403708E+05  2.562027E+05 -1.060354E-09 -7.870233E-10
        65  18  1.284363E+06  4.045545E+05  2.834502E+05  2.304451E+05 -2.331056E-10 -1.600435E-09
        65  19 -1.739352E+06 -6.640664E+05 -3.744596E+05 -5.994074E+05  1.024707E+05  1.030928E+04
        65  20 -1.623853E+06 -6.354420E+05 -2.989095E+05 -5.604298E+05  6.852604E+04 -6.822395E+04
        65  21 -1.492065E+06 -6.145998E+05 -2.614318E+05 -5.486122E+05  1.833473E+04 -1.037700E+05
        65  22 -9.995450E+04 -6.990376E+04  4.525720E+04 -1.727942E+05 -1.984840E+04 -3.581970E+04
        65  23 -1.171408E+05 -9.020199E+04  2.080239E+04 -1.525631E+05  1.268796E+04 -8.924166E+04
        65  24 -1.048572E+05 -1.051099E+05  1.106047E+04 -1.594922E+05  2.901084E+04 -9.972773E+04
        65  25  1.542045E+06  5.243788E+05  4.648074E+05  2.548154E+05 -1.425193E+05 -8.207020E+04
        65  26  1.391881E+06  4.552033E+05  3.403972E+05  2.562065E+05 -4.329628E+04 -1.103123E+05
        65  27  1.284367E+06  4.045648E+05  2.834704E+05  2.304421E+05  3.971278E+04 -9.567569E+04
        66   1 -1.416647E+06 -5.825903E+05 -2.473441E+05 -5.252696E+05 -2.496987E+04  9.626887E+04
        66   2 -1.311059E+06 -5.303642E+05 -2.238115E+05 -4.812937E+05 -2.057046E+04  9.333818E+04
        66   3 -1.184849E+06 -4.985913E+05 -2.022948E+05 -4.610515E+05 -1.494222E+04  8.711994E+04
        66   4 -1.057135E+05 -1.047087E+05  8.382749E+03 -1.609408E+05 -2.862579E+04  9.487179E+04
        66   5 -1.165600E+05 -9.561045E+04  4.393222E+03 -1.488179E+05 -2.931469E+04  9.003201E+04
        66   6 -1.057928E+05 -1.059550E+05  2.422505E+03 -1.604302E+05 -2.877662E+04  8.190803E+04
        66   7  1.207004E+06  3.733258E+05  2.640325E+05  2.041015E+05 -3.229004E+04  9.347162E+04
        66   8  1.079421E+06  3.392709E+05  2.325367E+05  1.842509E+05 -3.807696E+04  8.671910E+04
        66   9  9.744694E+05  2.867844E+05  2.070899E+05  1.406745E+05 -4.263669E+04  7.668648E+04
        66  10 -1.416650E+06 -5.826005E+05 -2.473627E+05 -5.252676E+05  9.353895E-09  3.829730E-09
        66  11 -1.311062E+06 -5.303737E+05 -2.238287E+05 -4.812921E+05 -1.952246E-09 -8.712918E-10
        66  12 -1.184851E+06 -4.985995E+05 -2.023094E+05 -4.610505E+05 -1.699717E-08 -7.761007E-09
        66  13 -1.057168E+05 -1.047186E+05  8.364297E+03 -1.609386E+05 -3.033999E-10  8.790822E-10
        66  14 -1.165631E+05 -9.561939E+04  4.376376E+03 -1.488157E+05  1.985878E-09  2.774297E-09
        66  15 -1.057955E+05 -1.059625E+05  2.408342E+03 -1.604283E+05  1.799381E-11  6.070481E-09
        66  16  1.207001E+06  3.733161E+05  2.640141E+05  2.041040E+05 -8.490162E-09 -4.307545E-09
        66  17  1.079417E+06  3.392624E+05  2.325198E+05  1.842535E+05  6.154252E-09 -1.872447E-10
        66  18  9.744659E+05  2.867775E+05  2.070754E+05  1.406771E+05  1.382640E-08  3.575734E-09
        66  19 -1.416647E+06 -5.825903E+05 -2.473441E+05 -5.252696E+05  2.496987E+04 -9.626887E+04
        66  20 -1.311059E+06 -5.303642E+05 -2.238115E+05 -4.812937E+05  2.057046E+04 -9.333818E+04
        66  21 -1.184849E+06 -4.985913E+05 -2.022948E+05 -4.610515E+05  1.494222E+04 -8.711994E+04
        66  22 -1.057135E+05 -1.047087E+05  8.382749E+03 -1.609408E+05  2.862579E+04 -9.487179E+04
        66  23 -1.165600E+05 -9.561045E+04  4.393222E+03 -1.488179E+05  2.931469E+04 -9.003201E+04
        66  24 -1.057928E+05 -1.059550E+05  2.422505E+03 -1.604302E+05  2.877662E+04 -8.190803E+04
        66  25  1.207004E+06  3.733258E+05  2.640325E+05  2.041015E+05  3.229004E+04 -9.347162E+04
        66  26  1.079421E+06  3.392709E+05  2.325367E+05  1.842509E+05  3.807696E+04 -8.671910E+04
        66  27  9.744694E+05  2.867844E+05  2.070899E+05  1.406745E+05  4.263669E+04 -7.668648E+04
        67   1 -1.107982E+06 -4.701908E+05 -1.876074E+05 -4.395379E+05 -1.384124E+04  8.156173E+04
        67   2 -1.002639E+06 -4.174856E+05 -1.664412E+05 -3.952934E+05 -1.064684E+04  7.280503E+04
        67   3 -8.763214E+05 -3.855917E+05 -1.451757E+05 -3.748327E+05 -7.364292E+03  6.379244E+04
        67   4 -1.058472E+05 -1.059145E+05  1.809888E+03 -1.605526E+05 -2.714610E+04  7.655279E+04
        67   5 -1.163163E+05 -9.546745E+04  9.679513E+02 -1.486729E+05 -2.434785E+04  6.765321E+04
        67   6 -1.057510E+05 -1.057540E+05  5.360883E+02 -1.605807E+05 -2.146154E+04  5.849797E+04
        67   7  8.973460E+05  2.584575E+05  1.911897E+05  1.188541E+05 -4.047411E+04  7.153518E+04
        67   8  7.708318E+05  2.266243E+05  1.683472E+05  9.827631E+04 -3.806990E+04  6.249350E+04
        67   9  6.654400E+05  1.741382E+05  1.462246E+05  5.391855E+04 -3.557754E+04  5.319648E+04
        67  10 -1.107984E+06 -4.701980E+05 -1.876202E+05 -4.395370E+05  1.329110E-08  2.846870E-09
        67  11 -1.002641E+06 -4.174913E+05 -1.664514E+05 -3.952928E+05 -4.398453E-09 -3.048600E-09
        67  12 -8.763225E+05 -3.855961E+05 -1.451835E+05 -3.748323E+05 -1.752012E-08 -6.776318E-09
        67  13 -1.058496E+05 -1.059210E+05  1.797492E+03 -1.605509E+05 -3.856518E-09  5.749689E-09
        67  14 -1.163182E+05 -9.547253E+04  9.582372E+02 -1.486715E+05 -4.989205E-09  2.602586E-09
        67  15 -1.057524E+05 -1.057578E+05  5.287928E+02 -1.605797E+05 -1.752487E-09  3.623099E-10
        67  16  8.973429E+05  2.584516E+05  1.911770E+05  1.188565E+05 -2.175625E-08 -8.746877E-09
        67  17  7.708292E+05  2.266197E+05  1.683371E+05  9.827823E+04 -5.012838E-09 -1.872947E-09
        67  18  6.654379E+05  1.741348E+05  1.462169E+05  5.392007E+04  1.226553E-08  5.080419E-09
        67  19 -1.107982E+06 -4.701908E+05 -1.876074E+05 -4.395379E+05  1.384124E+04 -8.156173E+04
        67  20 -1.002639E+06 -4.174856E+05 -1.664412E+05 -3.952934E+05  1.064684E+04 -7.280503E+04
        67  21 -8.763214E+05 -3.855917E+05 -1.451757E+05 -3.748327E+05  7.364292E+03 -6.379244E+04
        67  22 -1.058472E+05 -1.059145E+05  1.809888E+03 -1.605526E+05  2.714610E+04 -7.655279E+04
        67  23 -1.163163E+05 -9.546745E+04  9.679513E+02 -1.486729E+05  2.434785E+04 -6.765321E+04
        67  24 -1.057510E+05 -1.057540E+05  5.360883E+02 -1.605807E+05  2.146154E+04 -5.849797E+04
        67  25  8.973460E+05  2.584575E+05  1.911897E+05  1.188541E+05  4.047411E+04 -7.153518E+04
        67  26  7.708318E+05  2.266243E+05  1.683472E+05  9.827631E+04  3.806990E+04 -6.249350E+04
        67  27  6.654400E+05  1.741382E+05  1.462246E+05  5.391855E+04  3.557754E+04 -5.319648E+04
        68   1 -7.992826E+05 -3.574287E+05 -1.301265E+05 -3.534319E+05 -5.487287E+03  5.844795E+04
        68   2 -6.937094E+05 -3.048361E+05 -1.087295E+05 -3.092005E+05 -2.133851E+03  4.933562E+04
        68   3 -5.672233E+05 -2.730647E+05 -8.727275E+04 -2.888222E+05  1.222516E+03  4.020124E+04
        68   4 -1.057487E+05 -1.057268E+05  3.901168E+02 -1.606025E+05 -1.954899E+04  5.316981E+04
        68   5 -1.161700E+05 -9.525241E+04  1.843119E+02 -1.486892E+05 -1.622982E+04  4.404859E+04
        68   6 -1.056864E+05 -1.055933E+05  6.391852E+01 -1.606336E+05 -1.290771E+04  3.490531E+04
        68   7  5.882819E+05  1.460168E+05  1.308866E+05  3.242548E+04 -3.362738E+04  4.788541E+04
        68   8  4.617182E+05  1.143618E+05  1.090855E+05  1.196091E+04 -3.033983E+04  3.875631E+04
        68   9  3.560772E+05  6.189921E+04  8.739388E+04 -3.235526E+04 -2.704930E+04  2.960513E+04
        68  10 -7.992836E+05 -3.574324E+05 -1.301330E+05 -3.534316E+05 -2.017884E-09 -2.466149E-09
        68  11 -6.937101E+05 -3.048387E+05 -1.087341E+05 -3.092004E+05 -1.289274E-08 -9.046980E-09
        68  12 -5.672237E+05 -2.730665E+05 -8.727579E+04 -2.888222E+05 -3.142028E-08 -1.370559E-08
        68  13 -1.057499E+05 -1.057300E+05  3.840866E+02 -1.606017E+05 -3.535179E-10 -9.894457E-10
        68  14 -1.161708E+05 -9.525456E+04  1.801711E+02 -1.486886E+05 -4.518262E-09 -5.842762E-09
        68  15 -1.056869E+05 -1.055946E+05  6.131611E+01 -1.606332E+05 -1.779671E-08 -1.353262E-08
        68  16  5.882800E+05  1.460140E+05  1.308801E+05  3.242677E+04  2.256646E-09  2.996599E-09
        68  17  4.617168E+05  1.143599E+05  1.090810E+05  1.196186E+04  7.417248E-09  7.422057E-09
        68  18  3.560762E+05  6.189807E+04  8.739086E+04 -3.235461E+04  5.178402E-09  3.957558E-09
        68  19 -7.992826E+05 -3.574287E+05 -1.301265E+05 -3.534319E+05  5.487287E+03 -5.844795E+04
        68  20 -6.937094E+05 -3.048361E+05 -1.087295E+05 -3.092005E+05  2.133851E+03 -4.933562E+04
        68  21 -5.672233E+05 -2.730647E+05 -8.727275E+04 -2.888222E+05 -1.222516E+03 -4.020124E+04
        68  22 -1.057487E+05 -1.057268E+05  3.901168E+02 -1.606025E+05  1.954899E+04 -5.316981E+04
        68  23 -1.161700E+05 -9.525241E+04  1.843119E+02 -1.486892E+05  1.622982E+04 -4.404859E+04
        68  24 -1.056864E+05 -1.055933E+05  6.391852E+01 -1.606336E+05  1.290771E+04 -3.490531E+04
        68  25  5.882819E+05  1.460168E+05  1.308866E+05  3.242548E+04  3.362738E+04 -4.788541E+04
        68  26  4.617182E+05  1.143618E+05  1.090855E+05  1.196091E+04  3.033983E+04 -3.875631E+04
        68  27  3.560772E+05  6.189921E+04  8.739388E+04 -3.235526E+04  2.704930E+04 -2.960513E+04
        69   1 -4.900750E+05 -2.449453E+05 -7.213314E+04 -2.674417E+05  3.207220E+03  3.488935E+04
        69   2 -3.843471E+05 -1.924225E+05 -5.066564E+04 -2.232214E+05  6.667653E+03  2.578830E+04
        69   3 -2.577604E+05 -1.607278E+05 -2.922570E+04 -2.028912E+05  1.012322E+04  1.669332E+04
        69   4 -1.056826E+05 -1.055773E+05  8.439312E+00 -1.606426E+05 -1.092487E+04  2.959444E+04
        69   5 -1.160884E+05 -9.512915E+04 -1.064232E+02 -1.487028E+05 -7.455628E+03  2.049853E+04
        69   6 -1.056519E+05 -1.055116E+05 -2.567639E+02 -1.606578E+05 -3.991274E+03  1.140872E+04
        69   7  2.788645E+05  3.380428E+04  7.214495E+04 -5.378192E+04 -2.506632E+04  2.429602E+04
        69   8  1.522447E+05  2.170370E+03  5.045039E+04 -7.415456E+04 -2.158537E+04  1.520633E+04
        69   9  4.647979E+04 -5.029363E+04  2.871166E+04 -1.184151E+05 -1.810934E+04  6.122779E+03
        69  10 -4.900753E+05 -2.449466E+05 -7.213544E+04 -2.674418E+05  4.883761E-09  2.890596E-09
        69  11 -3.843474E+05 -1.924232E+05 -5.066697E+04 -2.232215E+05  6.504789E-09  6.554338E-09
        69  12 -2.577606E+05 -1.607281E+05 -2.922641E+04 -2.028914E+05 -2.097398E-10  2.277950E-09
        69  13 -1.056830E+05 -1.055783E+05  6.569349E+00 -1.606423E+05 -1.671614E-08 -1.325514E-08
        69  14 -1.160885E+05 -9.512962E+04 -1.073172E+02 -1.487027E+05 -6.049246E-09 -5.616007E-09
        69  15 -1.056519E+05 -1.055117E+05 -2.570384E+02 -1.606578E+05 -8.118952E-10 -1.164845E-09
        69  16  2.788636E+05  3.380348E+04  7.214266E+04 -5.378143E+04 -3.023518E-08 -1.215501E-08
        69  17  1.522441E+05  2.169997E+03  5.044908E+04 -7.415430E+04 -1.041224E-08 -8.161955E-09
        69  18  4.647943E+04 -5.029375E+04  2.871098E+04 -1.184150E+05 -5.908022E-11 -1.762904E-09
        69  19 -4.900750E+05 -2.449453E+05 -7.213314E+04 -2.674417E+05 -3.207220E+03 -3.488935E+04
        69  20 -3.843471E+05 -1.924225E+05 -5.066564E+04 -2.232214E+05 -6.667653E+03 -2.578830E+04
        69  21 -2.577604E+05 -1.607278E+05 -2.922570E+04 -2.028912E+05 -1.012322E+04 -1.669332E+04
        69  22 -1.056826E+05 -1.055773E+05  8.439312E+00 -1.606426E+05  1.092487E+04 -2.959444E+04
        69  23 -1.160884E+05 -9.512915E+04 -1.064232E+02 -1.487028E+05  7.455628E+03 -2.049853E+04
        69  24 -1.056519E+05 -1.055116E+05 -2.567639E+02 -1.606578E+05  3.991274E+03 -1.140872E+04
        69  25  2.788645E+05  3.380428E+04  7.214495E+04 -5.378192E+04  2.506632E+04 -2.429602E+04
        69  26  1.522447E+05  2.170370E+03  5.045039E+04 -7.415456E+04  2.158537E+04 -1.520633E+04
        69  27  4.647979E+04 -5.029363E+04  2.871166E+04 -1.184151E+05  1.810934E+04 -6.122779E+03
        70   1 -1.805456E+05 -1.326268E+05 -1.412782E+04 -1.815163E+05  1.218329E+04  1.141145E+04
        70   2 -7.474375E+04 -8.013839E+04  7.192476E+03 -1.372939E+05  1.573040E+04  2.412030E+03
        70   3  5.188432E+04 -4.847939E+04  2.839828E+04 -1.169680E+05  1.923172E+04 -6.464351E+03
        70   4 -1.056623E+05 -1.055050E+05 -3.624491E+02 -1.606640E+05 -1.952559E+03  6.119316E+03
        70   5 -1.160516E+05 -9.508432E+04 -6.899951E+02 -1.487079E+05  1.783718E+03 -2.809608E+03
        70   6 -1.056691E+05 -1.055333E+05 -1.283306E+03 -1.606547E+05  5.474164E+03 -1.161546E+04
        70   7 -3.077200E+04 -7.838226E+04  1.340377E+04 -1.398091E+05 -1.609036E+04  8.264482E+02
        70   8 -1.573575E+05 -1.100300E+05 -8.571759E+03 -1.601210E+05 -1.216204E+04 -8.030901E+03
        70   9 -2.631962E+05 -1.625848E+05 -3.096510E+04 -2.043310E+05 -8.279667E+03 -1.676517E+04
        70  10 -1.805458E+05 -1.326270E+05 -1.412835E+04 -1.815164E+05 -9.378834E-12  1.959145E-09
        70  11 -7.474402E+04 -8.013846E+04  7.192000E+03 -1.372940E+05  1.865186E-09  1.488001E-09
        70  12  5.188391E+04 -4.847954E+04  2.839751E+04 -1.169679E+05  1.617024E-09  2.133659E-10
        70  13 -1.056623E+05 -1.055051E+05 -3.625267E+02 -1.606640E+05 -1.736658E-09  6.679690E-10
        70  14 -1.160516E+05 -9.508433E+04 -6.900159E+02 -1.487079E+05 -1.789997E-10 -3.271869E-10
        70  15 -1.056692E+05 -1.055334E+05 -1.283616E+03 -1.606546E+05  3.576030E-10  9.723875E-11
        70  16 -3.077228E+04 -7.838233E+04  1.340328E+04 -1.398091E+05 -6.055011E-10 -4.159305E-10
        70  17 -1.573577E+05 -1.100301E+05 -8.572158E+03 -1.601211E+05 -1.638301E-10  5.018311E-10
        70  18 -2.631964E+05 -1.625851E+05 -3.096576E+04 -2.043311E+05 -1.449161E-09 -1.211083E-09
        70  19 -1.805456E+05 -1.326268E+05 -1.412782E+04 -1.815163E+05 -1.218329E+04 -1.141145E+04
        70  20 -7.474375E+04 -8.013839E+04  7.192476E+03 -1.372939E+05 -1.573040E+04 -2.412030E+03
        70  21  5.188432E+04 -4.847939E+04  2.839828E+04 -1.169680E+05 -1.923172E+04  6.464351E+03
        70  22 -1.056623E+05 -1.055050E+05 -3.624491E+02 -1.606640E+05  1.952559E+03 -6.119316E+03
        70  23 -1.160516E+05 -9.508432E+04 -6.899951E+02 -1.487079E+05 -1.783718E+03  2.809608E+03
        70  24 -1.056691E+05 -1.055333E+05 -1.283306E+03 -1.606547E+05 -5.474164E+03  1.161546E+04
        70  25 -3.077200E+04 -7.838226E+04  1.340377E+04 -1.398091E+05  1.609036E+04 -8.264482E+02
        70  26 -1.573575E+05 -1.100300E+05 -8.571759E+03 -1.601210E+05  1.216204E+04  8.030901E+03
        70  27 -2.631962E+05 -1.625848E+05 -3.096510E+04 -2.043310E+05  8.279667E+03  1.676517E+04
        71   1  1.291907E+05 -2.039859E+04  4.322452E+04 -9.567809E+04  2.171033E+04 -1.155207E+04
        71   2  2.347547E+05  3.221997E+04  6.432228E+04 -5.120237E+04  2.388156E+04 -2.012882E+04
        71   3  3.610954E+05  6.377037E+04  8.600966E+04 -3.038165E+04  2.545075E+04 -2.709289E+04
        71   4 -1.057613E+05 -1.054968E+05 -1.713964E+03 -1.606757E+05  7.688658E+03 -1.680283E+04
        71   5 -1.159878E+05 -9.527701E+04 -3.147592E+03 -1.486402E+05  1.235878E+04 -2.444599E+04
        71   6 -1.059457E+05 -1.066222E+05 -5.970858E+03 -1.602658E+05  1.642686E+04 -3.047590E+04
        71   7 -3.406534E+05 -1.905891E+05 -4.665337E+04 -2.256498E+05 -6.327216E+03 -2.205143E+04
        71   8 -4.666022E+05 -2.227629E+05 -7.062219E+04 -2.460268E+05  8.429633E+02 -2.876054E+04
        71   9 -5.727653E+05 -2.769969E+05 -9.796224E+04 -2.900606E+05  7.410165E+03 -3.385620E+04
        71  10  1.291902E+05 -2.039886E+04  4.322339E+04 -9.567789E+04 -1.001844E-09 -2.495350E-10
        71  11  2.347540E+05  3.221938E+04  6.432044E+04 -5.120198E+04 -8.566788E-11 -5.329480E-11
        71  12  3.610945E+05  6.376941E+04  8.600706E+04 -3.038109E+04 -4.947233E-10  9.309339E-10
        71  13 -1.057614E+05 -1.054971E+05 -1.714606E+03 -1.606755E+05  1.895001E-09 -3.906520E-10
        71  14 -1.159882E+05 -9.527769E+04 -3.149002E+03 -1.486399E+05  1.221840E-10  7.114050E-11
        71  15 -1.059463E+05 -1.066233E+05 -5.973110E+03 -1.602654E+05 -1.316390E-10  9.910171E-11
        71  16 -3.406535E+05 -1.905896E+05 -4.665435E+04 -2.256499E+05  1.149757E-09 -3.610527E-10
        71  17 -4.666024E+05 -2.227637E+05 -7.062374E+04 -2.460268E+05 -3.487653E-10 -1.487342E-10
        71  18 -5.727656E+05 -2.769982E+05 -9.796450E+04 -2.900604E+05 -2.953323E-10 -9.975791E-12
        71  19  1.291907E+05 -2.039859E+04  4.322452E+04 -9.567809E+04 -2.171033E+04  1.155207E+04
        71  20  2.347547E+05  3.221997E+04  6.432228E+04 -5.120237E+04 -2.388156E+04  2.012882E+04
        71  21  3.610954E+05  6.377037E+04  8.600966E+04 -3.038165E+04 -2.545075E+04  2.709289E+04
        71  22 -1.057613E+05 -1.054968E+05 -1.713964E+03 -1.606757E+05 -7.688658E+03  1.680283E+04
        71  23 -1.159878E+05 -9.527701E+04 -3.147592E+03 -1.486402E+05 -1.235878E+04  2.444599E+04
        71  24 -1.059457E+05 -1.066222E+05 -5.970858E+03 -1.602658E+05 -1.642686E+04  3.047590E+04
        71  25 -3.406534E+05 -1.905891E+05 -4.665337E+04 -2.256498E+05  6.327216E+03  2.205143E+04
        71  26 -4.666022E+05 -2.227629E+05 -7.062219E+04 -2.460268E+05 -8.429633E+02  2.876054E+04
        71  27 -5.727653E+05 -2.769969E+05 -9.796224E+04 -2.900606E+05 -7.410165E+03  3.385620E+04
        72   1  4.398848E+05  9.138117E+04  1.000935E+05 -1.109042E+04  3.163139E+04 -3.031930E+04
        72   2  5.390655E+05  1.470373E+05  1.272835E+05  4.099051E+04  5.729362E+03 -3.716272E+04
        72   3  6.572665E+05  1.725666E+05  1.700348E+05  7.459054E+04 -2.809839E+04 -2.290273E+04
        72   4 -1.071067E+05 -1.058699E+05 -7.869436E+03 -1.606599E+05  1.914524E+04 -3.500104E+04
        72   5 -1.151600E+05 -1.000971E+05 -1.486317E+04 -1.467291E+05  2.599407E+04 -2.957014E+04
        72   6 -1.106931E+05 -1.309477E+05 -3.223311E+04 -1.512869E+05  2.491821E+04 -3.022075E+03
        72   7 -6.537919E+05 -3.030975E+05 -1.158464E+05 -3.101089E+05  6.670822E+03 -3.967848E+04
        72   8 -7.689397E+05 -3.471865E+05 -1.570306E+05 -3.342616E+05  4.623546E+04 -2.198688E+04
        72   9 -8.780462E+05 -4.343942E+05 -2.345321E+05 -3.768959E+05  7.786118E+04  1.682755E+04
        72  10  4.398835E+05  9.137992E+04  1.000898E+05 -1.108965E+04 -1.344194E-09  1.327954E-09
        72  11  5.390651E+05  1.470358E+05  1.272808E+05  4.099068E+04 -8.298338E-10  9.082316E-10
        72  12  6.572655E+05  1.725658E+05  1.700323E+05  7.459003E+04  1.131547E-10  4.130160E-10
        72  13 -1.071075E+05 -1.058713E+05 -7.872427E+03 -1.606594E+05 -1.133475E-09  1.105965E-09
        72  14 -1.151610E+05 -1.000982E+05 -1.486608E+04 -1.467285E+05 -1.208607E-09  6.743028E-10
        72  15 -1.106938E+05 -1.309478E+05 -3.223430E+04 -1.512868E+05 -8.063105E-10  9.528504E-11
        72  16 -6.537924E+05 -3.030992E+05 -1.158494E+05 -3.101087E+05  4.081074E-11  8.046278E-11
        72  17 -7.689422E+05 -3.471875E+05 -1.570355E+05 -3.342608E+05 -3.566290E-10  6.097720E-11
        72  18 -8.780528E+05 -4.343962E+05 -2.345440E+05 -3.768970E+05  3.280541E-10 -1.413513E-10
        72  19  4.398848E+05  9.138117E+04  1.000935E+05 -1.109042E+04 -3.163139E+04  3.031930E+04
        72  20  5.390655E+05  1.470373E+05  1.272835E+05  4.099051E+04 -5.729362E+03  3.716272E+04
        72  21  6.572665E+05  1.725666E+05  1.700348E+05  7.459054E+04  2.809839E+04  2.290273E+04
        72  22 -1.071067E+05 -1.058699E+05 -7.869436E+03 -1.606599E+05 -1.914524E+04  3.500104E+04
        72  23 -1.151600E+05 -1.000971E+05 -1.486317E+04 -1.467291E+05 -2.599407E+04  2.957014E+04
        72  24 -1.106931E+05 -1.309477E+05 -3.223311E+04 -1.512869E+05 -2.491821E+04  3.022075E+03
        72  25 -6.537919E+05 -3.030975E+05 -1.158464E+05 -3.101089E+05 -6.670822E+03  3.967848E+04
        72  26 -7.689397E+05 -3.471865E+05 -1.570306E+05 -3.342616E+05 -4.623546E+04  2.198688E+04
        72  27 -8.780462E+05 -4.343942E+05 -2.345321E+05 -3.768959E+05 -7.786118E+04 -1.682755E+04
        73   1 -9.749800E+04 -4.688018E+04 -4.137399E+04 -3.485074E+04 -8.348015E+03  3.338694E+03
        73   2 -6.132932E+04 -4.972285E+04 -3.186165E+04 -3.953871E+04 -7.628602E+02  1.109307E+04
        73   3 -2.441576E+04 -4.566468E+04 -2.556243E+04 -4.962188E+04  6.824088E+03  1.307870E+04
        73   4  1.861752E+05  2.298651E+04  2.432178E+04 -5.050300E+04  1.718440E+04  3.341233E+03
        73   5  1.846064E+05  8.288817E+03  1.228479E+04 -4.780498E+04  1.092575E+04  1.109347E+04
        73   6  1.861829E+05  2.893346E+03  6.647320E+03 -5.050168E+04  4.668290E+03  1.307820E+04
        73   7  4.699246E+05  9.284882E+04  9.001474E+04 -6.616247E+04  4.272840E+04  3.342485E+03
        73   8  4.306014E+05  6.629745E+04  5.642946E+04 -5.607462E+04  2.261885E+04  1.109355E+04
        73   9  3.968260E+05  5.144924E+04  3.885613E+04 -5.138179E+04  2.511789E+03  1.307770E+04
        73  10 -9.749807E+04 -4.688021E+04 -4.137414E+04 -3.485071E+04  6.612799E-08  5.128526E-10
        73  11 -6.132936E+04 -4.972298E+04 -3.186189E+04 -3.953871E+04 -2.322555E-09  1.170256E-09
        73  12 -2.441586E+04 -4.566488E+04 -2.556284E+04 -4.962195E+04 -6.972427E-08  1.237017E-10
        73  13  1.861748E+05  2.298642E+04  2.432120E+04 -5.050305E+04  5.990374E-10  5.425394E-10
        73  14  1.846062E+05  8.288653E+03  1.228434E+04 -4.780508E+04  8.820634E-11  9.760421E-10
        73  15  1.861829E+05  2.893157E+03  6.646958E+03 -5.050173E+04 -4.723253E-10  1.694252E-12
        73  16  4.699226E+05  9.284832E+04  9.001129E+04 -6.616258E+04 -6.594844E-08  4.738588E-10
        73  17  4.306008E+05  6.629718E+04  5.642827E+04 -5.607482E+04  3.275407E-09  8.652112E-10
        73  18  3.968260E+05  5.144905E+04  3.885579E+04 -5.138182E+04  7.080653E-08  1.214278E-10
        73  19 -9.749800E+04 -4.688018E+04 -4.137399E+04 -3.485074E+04  8.348015E+03 -3.338694E+03
        73  20 -6.132932E+04 -4.972285E+04 -3.186165E+04 -3.953871E+04  7.628602E+02 -1.109307E+04
        73  21 -2.441576E+04 -4.566468E+04 -2.556243E+04 -4.962188E+04 -6.824088E+03 -1.307870E+04
        73  22  1.861752E+05  2.298651E+04  2.432178E+04 -5.050300E+04 -1.718440E+04 -3.341233E+03
        73  23  1.846064E+05  8.288817E+03  1.228479E+04 -4.780498E+04 -1.092575E+04 -1.109347E+04
        73  24  1.861829E+05  2.893346E+03  6.647320E+03 -5.050168E+04 -4.668290E+03 -1.307820E+04
        73  25  4.699246E+05  9.284882E+04  9.001474E+04 -6.616247E+04 -4.272840E+04 -3.342485E+03
        73  26  4.306014E+05  6.629745E+04  5.642946E+04 -5.607462E+04 -2.261885E+04 -1.109355E+04
        73  27  3.968260E+05  5.144924E+04  3.885613E+04 -5.138179E+04 -2.511789E+03 -1.307770E+04
        74   1 -2.102926E+03 -4.097319E+04 -2.275729E+04 -4.936197E+04  6.418413E+03  1.228876E+04
        74   2  3.434958E+04 -3.368947E+04 -1.818872E+04 -4.708336E+04  6.950652E+03  1.080895E+04
        74   3  7.089064E+04 -2.579095E+04 -1.381217E+04 -5.062909E+04  7.482841E+03  8.549418E+03
        74   4  1.855771E+05  2.101864E+03  4.956819E+03 -5.059736E+04  3.803382E+03  1.228834E+04
        74   5  1.853731E+05  6.840128E+02  2.673421E+03 -4.768525E+04  2.463881E+03  1.080868E+04
        74   6  1.855811E+05  2.057921E+02  1.497457E+03 -5.059735E+04  1.124300E+03  8.549395E+03
        74   7  3.732926E+05  4.517528E+04  3.267031E+04 -5.183312E+04  1.187594E+03  1.228793E+04
        74   8  3.364199E+05  3.505650E+04  2.353537E+04 -4.828729E+04 -2.023933E+03  1.080841E+04
        74   9  3.002851E+05  2.620200E+04  1.680713E+04 -5.056561E+04 -5.235360E+03  8.549372E+03
        74  10 -2.103011E+03 -4.097336E+04 -2.275765E+04 -4.936204E+04 -3.313790E-09 -5.452389E-10
        74  11  3.434949E+04 -3.368961E+04 -1.818903E+04 -4.708342E+04 -1.015515E-09 -9.648076E-10
        74  12  7.089056E+04 -2.579105E+04 -1.381241E+04 -5.062914E+04 -1.392722E-09 -1.454289E-09
        74  13  1.855771E+05  2.101698E+03  4.956508E+03 -5.059739E+04 -1.550891E-09 -4.490222E-10
        74  14  1.853731E+05  6.838857E+02  2.673190E+03 -4.768527E+04  2.265164E-09 -7.780541E-10
        74  15  1.855811E+05  2.057133E+02  1.497318E+03 -5.059736E+04 -7.356584E-10 -1.051574E-09
        74  16  3.732926E+05  4.517512E+04  3.267003E+04 -5.183314E+04  2.817638E-09 -5.009389E-10
        74  17  3.364198E+05  3.505638E+04  2.353515E+04 -4.828728E+04  2.505436E-09 -6.817722E-10
        74  18  3.002851E+05  2.620191E+04  1.680694E+04 -5.056557E+04 -6.806228E-11 -6.058256E-10
        74  19 -2.102926E+03 -4.097319E+04 -2.275729E+04 -4.936197E+04 -6.418413E+03 -1.228876E+04
        74  20  3.434958E+04 -3.368947E+04 -1.818872E+04 -4.708336E+04 -6.950652E+03 -1.080895E+04
        74  21  7.089064E+04 -2.579095E+04 -1.381217E+04 -5.062909E+04 -7.482841E+03 -8.549418E+03
        74  22  1.855771E+05  2.101864E+03  4.956819E+03 -5.059736E+04 -3.803382E+03 -1.228834E+04
        74  23  1.853731E+05  6.840128E+02  2.673421E+03 -4.768525E+04 -2.463881E+03 -1.080868E+04
        74  24  1.855811E+05  2.057921E+02  1.497457E+03 -5.059735E+04 -1.124300E+03 -8.549395E+03
        74  25  3.732926E+05  4.517528E+04  3.267031E+04 -5.183312E+04 -1.187594E+03 -1.228793E+04
        74  26  3.364199E+05  3.505650E+04  2.353537E+04 -4.828729E+04  2.023933E+03 -1.080841E+04
        74  27  3.002851E+05  2.620200E+04  1.680713E+04 -5.056561E+04  5.235360E+03 -8.549372E+03
        75   1  9.337252E+04 -2.070691E+04 -1.100816E+04 -5.058108E+04  7.324641E+03  6.971517E+03
        75   2  1.298511E+05 -1.255046E+04 -6.640477E+03 -4.767182E+04  7.263536E+03  4.244103E+03
        75   3  1.663511E+05 -4.348440E+03 -2.221357E+03 -5.064425E+04  7.202358E+03  1.411706E+03
        75   4  1.855047E+05  1.438392E+02  1.127804E+03 -5.061013E+04  9.040968E+02  6.971600E+03
        75   5  1.854733E+05  2.622269E+01  6.306666E+02 -4.766931E+04  5.908158E+02  4.244295E+03
        75   6  1.855062E+05 -1.890845E+00  3.600777E+02 -5.061014E+04  2.774681E+02  1.412009E+03
        75   7  2.776457E+05  2.099425E+04  1.326386E+04 -5.063919E+04 -5.517355E+03  6.971685E+03
        75   8  2.410988E+05  1.260280E+04  7.901958E+03 -4.766680E+04 -6.082474E+03  4.244486E+03
        75   9  2.046618E+05  4.344668E+03  2.941689E+03 -5.057603E+04 -6.647625E+03  1.412310E+03
        75  10  9.337245E+04 -2.070698E+04 -1.100835E+04 -5.058112E+04 -1.395244E-09 -1.270313E-09
        75  11  1.298510E+05 -1.255049E+04 -6.640610E+03 -4.767185E+04  4.124739E-10 -4.600571E-10
        75  12  1.663510E+05 -4.348456E+03 -2.221458E+03 -5.064426E+04 -1.149987E-09 -1.018251E-10
        75  13  1.855047E+05  1.437867E+02  1.127711E+03 -5.061014E+04 -6.691179E-11 -8.664998E-10
        75  14  1.854733E+05  2.620325E+01  6.306321E+02 -4.766931E+04 -5.323019E-10 -3.697825E-10
        75  15  1.855062E+05 -1.893006E+00  3.600738E+02 -5.061014E+04 -2.082695E-09 -1.777720E-10
        75  16  2.776457E+05  2.099419E+04  1.326371E+04 -5.063916E+04  2.116144E-09 -4.493892E-10
        75  17  2.410987E+05  1.260277E+04  7.901855E+03 -4.766678E+04  1.221198E-09 -2.977399E-10
        75  18  2.046617E+05  4.344654E+03  2.941603E+03 -5.057602E+04  9.200124E-10 -2.623651E-10
        75  19  9.337252E+04 -2.070691E+04 -1.100816E+04 -5.058108E+04 -7.324641E+03 -6.971517E+03
        75  20  1.298511E+05 -1.255046E+04 -6.640477E+03 -4.767182E+04 -7.263536E+03 -4.244103E+03
        75  21  1.663511E+05 -4.348440E+03 -2.221357E+03 -5.064425E+04 -7.202358E+03 -1.411706E+03
        75  22  1.855047E+05  1.438392E+02  1.127804E+03 -5.061013E+04 -9.040968E+02 -6.971600E+03
        75  23  1.854733E+05  2.622269E+01  6.306666E+02 -4.766931E+04 -5.908158E+02 -4.244295E+03
        75  24  1.855062E+05 -1.890845E+00  3.600777E+02 -5.061014E+04 -2.774681E+02 -1.412009E+03
        75  25  2.776457E+05  2.099425E+04  1.326386E+04 -5.063919E+04  5.517355E+03 -6.971685E+03
        75  26  2.410988E+05  1.260280E+04  7.901958E+03 -4.766680E+04  6.082474E+03 -4.244486E+03
        75  27  2.046618E+05  4.344668E+03  2.941689E+03 -5.057603E+04  6.647625E+03 -1.412310E+03
        76   1  1.888511E+05  7.504866E+02  6.872066E+02 -5.063413E+04  7.154590E+03 -2.721695E+02
        76   2  2.253367E+05  8.961078E+03  5.170052E+03 -4.768376E+04  7.104342E+03 -3.165877E+03
        76   3  2.618324E+05  1.717396E+04  9.686651E+03 -5.062270E+04  7.054153E+03 -6.070802E+03
        76   4  1.854948E+05 -3.455170E+00  2.729951E+02 -5.061185E+04  2.214369E+02 -2.718585E+02
        76   5  1.854879E+05 -9.490039E+00  1.564180E+02 -4.766718E+04  1.440086E+02 -3.165639E+03
        76   6  1.854938E+05 -8.645510E+00  9.215329E+01 -5.061185E+04  6.664005E+01 -6.070640E+03
        76   7  1.821386E+05 -7.573716E+02 -1.410357E+02 -5.058957E+04 -6.711680E+03 -2.715479E+02
        76   8  1.456408E+05 -8.980096E+03 -4.857039E+03 -4.765060E+04 -6.815901E+03 -3.165401E+03
        76   9  1.091613E+05 -1.719146E+04 -9.502176E+03 -5.060100E+04 -6.920056E+03 -6.070478E+03
        76  10  1.888511E+05  7.504728E+02  6.871103E+02 -5.063413E+04 -2.300173E-12 -3.065419E-10
        76  11  2.253366E+05  8.961053E+03  5.169939E+03 -4.768374E+04  2.900112E-11 -6.145313E-10
        76  12  2.618323E+05  1.717391E+04  9.686488E+03 -5.062267E+04 -9.819855E-10 -2.893390E-10
        76  13  1.854948E+05 -3.455262E+00  2.729949E+02 -5.061185E+04 -1.077039E-09 -2.411327E-10
        76  14  1.854879E+05 -9.500807E+00  1.563991E+02 -4.766718E+04  5.129870E-10 -3.095031E-10
        76  15  1.854938E+05 -8.685087E+00  9.208402E+01 -5.061185E+04 -5.330025E-10 -1.838800E-10
        76  16  1.821386E+05 -7.573838E+02 -1.411205E+02 -5.058957E+04 -1.037718E-09 -1.817135E-10
        76  17  1.456408E+05 -8.980119E+03 -4.857145E+03 -4.765062E+04 -8.108947E-10 -6.681343E-12
        76  18  1.091613E+05 -1.719151E+04 -9.502336E+03 -5.060103E+04  1.837743E-09 -9.538133E-11
        76  19  1.888511E+05  7.504866E+02  6.872066E+02 -5.063413E+04 -7.154590E+03  2.721695E+02
        76  20  2.253367E+05  8.961078E+03  5.170052E+03 -4.768376E+04 -7.104342E+03  3.165877E+03
        76  21  2.618324E+05  1.717396E+04  9.686651E+03 -5.062270E+04 -7.054153E+03  6.070802E+03
        76  22  1.854948E+05 -3.455170E+00  2.729951E+02 -5.061185E+04 -2.214369E+02  2.718585E+02
        76  23  1.854879E+05 -9.490039E+00  1.564180E+02 -4.766718E+04 -1.440086E+02  3.165639E+03
        76  24  1.854938E+05 -8.645510E+00  9.215329E+01 -5.061185E+04 -6.664005E+01  6.070640E+03
        76  25  1.821386E+05 -7.573716E+02 -1.410357E+02 -5.058957E+04  6.711680E+03  2.715479E+02
        76  26  1.456408E+05 -8.980096E+03 -4.857039E+03 -4.765060E+04  6.815901E+03  3.165401E+03
        76  27  1.091613E+05 -1.719146E+04 -9.502176E+03 -5.060100E+04  6.920056E+03  6.070478E+03
        77   1  2.843388E+05  2.226941E+04  1.264297E+04 -5.061959E+04  7.038970E+03 -7.765949E+03
        77   2  3.208284E+05  3.048111E+04  1.720608E+04 -4.766912E+04  6.966951E+03 -1.066583E+04
        77   3  3.573333E+05  3.870140E+04  2.181892E+04 -5.060811E+04  6.895129E+03 -1.354506E+04
        77   4  1.854914E+05 -8.846850E+00  7.180609E+01 -5.061190E+04  5.181178E+01 -7.765885E+03
        77   5  1.854870E+05 -1.112596E+01  4.594653E+01 -4.766713E+04  2.914534E+01 -1.066602E+04
        77   6  1.854880E+05 -1.335041E+01  3.542946E+01 -5.061190E+04  6.679433E+00 -1.354551E+04
        77   7  8.665414E+04 -2.228748E+04 -1.249921E+04 -5.060420E+04 -6.934289E+03 -7.765821E+03
        77   8  5.016456E+04 -3.050408E+04 -1.711407E+04 -4.766513E+04 -6.907223E+03 -1.066621E+04
        77   9  1.367310E+04 -3.872928E+04 -2.174798E+04 -5.061568E+04 -6.879958E+03 -1.354596E+04
        77  10  2.843387E+05  2.226933E+04  1.264276E+04 -5.061955E+04 -4.157122E-10  1.371081E-11
        77  11  3.208283E+05  3.048097E+04  1.720577E+04 -4.766906E+04  4.674881E-10  6.140660E-11
        77  12  3.573332E+05  3.870119E+04  2.181848E+04 -5.060803E+04  1.049247E-10 -3.822534E-10
        77  13  1.854914E+05 -8.911618E+00  7.169274E+01 -5.061190E+04  1.206908E-09 -8.862788E-11
        77  14  1.854870E+05 -1.124813E+01  4.573272E+01 -4.766712E+04 -3.925540E-10 -1.208462E-10
        77  15  1.854880E+05 -1.354746E+01  3.508463E+01 -5.061190E+04 -4.976797E-10 -4.415416E-10
        77  16  8.665407E+04 -2.228756E+04 -1.249941E+04 -5.060424E+04  1.150900E-09 -2.202544E-10
        77  17  5.016447E+04 -3.050421E+04 -1.711437E+04 -4.766519E+04 -3.559453E-10 -4.334631E-10
        77  18  1.367300E+04 -3.872949E+04 -2.174842E+04 -5.061576E+04 -3.710426E-10 -5.647941E-10
        77  19  2.843388E+05  2.226941E+04  1.264297E+04 -5.061959E+04 -7.038970E+03  7.765949E+03
        77  20  3.208284E+05  3.048111E+04  1.720608E+04 -4.766912E+04 -6.966951E+03  1.066583E+04
        77  21  3.573333E+05  3.870140E+04  2.181892E+04 -5.060811E+04 -6.895129E+03  1.354506E+04
        77  22  1.854914E+05 -8.846850E+00  7.180609E+01 -5.061190E+04 -5.181178E+01  7.765885E+03
        77  23  1.854870E+05 -1.112596E+01  4.594653E+01 -4.766713E+04 -2.914534E+01  1.066602E+04
        77  24  1.854880E+05 -1.335041E+01  3.542946E+01 -5.061190E+04 -6.679433E+00  1.354551E+04
        77  25  8.665414E+04 -2.228748E+04 -1.249921E+04 -5.060420E+04  6.934289E+03  7.765821E+03
        77  26  5.016456E+04 -3.050408E+04 -1.711407E+04 -4.766513E+04  6.907223E+03  1.066621E+04
        77  27  1.367310E+04 -3.872928E+04 -2.174798E+04 -5.061568E+04  6.879958E+03  1.354596E+04
        78   1  3.798570E+05  4.380477E+04  2.483035E+04 -5.060203E+04  6.876308E+03 -1.521936E+04
        78   2  4.163262E+05  5.204693E+04  2.960714E+04 -4.765534E+04  6.454417E+03 -1.799894E+04
        78   3  4.528746E+05  6.036234E+04  3.467816E+04 -5.058770E+04  6.032814E+03 -2.061089E+04
        78   4  1.854872E+05 -1.540457E+01  3.441013E+01 -5.060959E+04  5.343646E-01 -1.522000E+04
        78   5  1.854800E+05 -1.933525E+01  3.981030E+01 -4.767000E+04 -1.895258E+01 -1.799999E+04
        78   6  1.854814E+05 -1.967013E+01  6.019070E+01 -5.060959E+04 -3.813613E+01 -2.061231E+04
        78   7 -8.843803E+03 -4.383710E+04 -2.476150E+04 -5.061715E+04 -6.873193E+03 -1.522065E+04
        78   8 -4.531153E+04 -5.208777E+04 -2.952759E+04 -4.768466E+04 -6.490034E+03 -1.800104E+04
        78   9 -8.183859E+04 -6.040463E+04 -3.455802E+04 -5.063148E+04 -6.106599E+03 -2.061373E+04
        78  10  3.798569E+05  4.380450E+04  2.482983E+04 -5.060195E+04 -1.676011E-09 -1.269602E-10
        78  11  4.163261E+05  5.204657E+04  2.960645E+04 -4.765525E+04  7.849595E-10  3.194801E-10
        78  12  4.528745E+05  6.036187E+04  3.467729E+04 -5.058760E+04  1.072698E-09  3.151384E-10
        78  13  1.854871E+05 -1.565334E+01  3.397478E+01 -5.060959E+04  5.532823E-10 -2.491847E-10
        78  14  1.854799E+05 -1.968320E+01  3.920139E+01 -4.767000E+04 -2.203107E-09  2.971373E-10
        78  15  1.854813E+05 -2.012641E+01  5.939222E+01 -5.060959E+04 -2.951865E-10  2.330483E-10
        78  16 -8.843916E+03 -4.383736E+04 -2.476203E+04 -5.061723E+04  2.619694E-09 -3.961870E-10
        78  17 -4.531166E+04 -5.208813E+04 -2.952828E+04 -4.768476E+04  5.016745E-10  1.728926E-10
        78  18 -8.183874E+04 -6.040510E+04 -3.455889E+04 -5.063158E+04 -2.353163E-10  3.527031E-10
        78  19  3.798570E+05  4.380477E+04  2.483035E+04 -5.060203E+04 -6.876308E+03  1.521936E+04
        78  20  4.163262E+05  5.204693E+04  2.960714E+04 -4.765534E+04 -6.454417E+03  1.799894E+04
        78  21  4.528746E+05  6.036234E+04  3.467816E+04 -5.058770E+04 -6.032814E+03  2.061089E+04
        78  22  1.854872E+05 -1.540457E+01  3.441013E+01 -5.060959E+04 -5.343646E-01  1.522000E+04
        78  23  1.854800E+05 -1.933525E+01  3.981030E+01 -4.767000E+04  1.895258E+01  1.799999E+04
        78  24  1.854814E+05 -1.967013E+01  6.019070E+01 -5.060959E+04  3.813613E+01  2.061231E+04
        78  25 -8.843803E+03 -4.383710E+04 -2.476150E+04 -5.061715E+04  6.873193E+03  1.522065E+04
        78  26 -4.531153E+04 -5.208777E+04 -2.952759E+04 -4.768466E+04  6.490034E+03  1.800104E+04
        78  27 -8.183859E+04 -6.040463E+04 -3.455802E+04 -5.063148E+04  6.106599E+03  2.061373E+04
        79   1  4.754880E+05  6.554110E+04  3.799300E+04 -5.055748E+04  5.923217E+03 -2.211582E+04
        79   2  5.117449E+05  7.403772E+04  4.419639E+04 -4.768068E+04  2.871486E+03 -2.398132E+04
        79   3  5.485509E+05  8.309837E+04  5.252908E+04 -5.058954E+04 -1.804669E+02 -2.460324E+04
        79   4  1.854836E+05 -2.024552E+01  7.699000E+01 -5.058885E+04 -4.939122E+01 -2.211751E+04
        79   5  1.854650E+05 -4.264379E+00  1.313944E+02 -4.769593E+04 -1.144567E+02 -2.398305E+04
        79   6  1.854756E+05  5.748279E+01  2.420077E+02 -5.058886E+04 -1.795262E+02 -2.460467E+04
        79   7 -1.044347E+05 -6.558510E+04 -3.783942E+04 -5.062021E+04 -6.019345E+03 -2.211920E+04
        79   8 -1.407065E+05 -7.405084E+04 -4.393456E+04 -4.771117E+04 -3.098903E+03 -2.398478E+04
        79   9 -1.774667E+05 -8.298942E+04 -5.204712E+04 -5.058819E+04 -1.785861E+02 -2.460610E+04
        79  10  4.754879E+05  6.554057E+04  3.799202E+04 -5.055738E+04  9.584112E-10  1.678094E-10
        79  11  5.117447E+05  7.403710E+04  4.419529E+04 -4.768062E+04  1.052386E-09 -2.655230E-11
        79  12  5.485507E+05  8.309772E+04  5.252794E+04 -5.058954E+04  2.603015E-10 -7.852381E-10
        79  13  1.854835E+05 -2.077087E+01  7.607064E+01 -5.058885E+04 -5.427499E-10  9.117623E-11
        79  14  1.854648E+05 -4.882087E+00  1.303134E+02 -4.769593E+04  5.713021E-10 -1.740557E-10
        79  15  1.854754E+05  5.683264E+01  2.408699E+02 -5.058887E+04 -1.381426E-09 -5.369721E-10
        79  16 -1.044349E+05 -6.558563E+04 -3.784040E+04 -5.062031E+04  3.984825E-11  9.285547E-11
        79  17 -1.407067E+05 -7.405146E+04 -4.393566E+04 -4.771123E+04 -5.044867E-10  1.300791E-10
        79  18 -1.774669E+05 -8.299007E+04 -5.204826E+04 -5.058820E+04 -6.622679E-10 -2.119934E-10
        79  19  4.754880E+05  6.554110E+04  3.799300E+04 -5.055748E+04 -5.923217E+03  2.211582E+04
        79  20  5.117449E+05  7.403772E+04  4.419639E+04 -4.768068E+04 -2.871486E+03  2.398132E+04
        79  21  5.485509E+05  8.309837E+04  5.252908E+04 -5.058954E+04  1.804669E+02  2.460324E+04
        79  22  1.854836E+05 -2.024552E+01  7.699000E+01 -5.058885E+04  4.939122E+01  2.211751E+04
        79  23  1.854650E+05 -4.264379E+00  1.313944E+02 -4.769593E+04  1.144567E+02  2.398305E+04
        79  24  1.854756E+05  5.748279E+01  2.420077E+02 -5.058886E+04  1.795262E+02  2.460467E+04
        79  25 -1.044347E+05 -6.558510E+04 -3.783942E+04 -5.062021E+04  6.019345E+03  2.211920E+04
        79  26 -1.407065E+05 -7.405084E+04 -4.393456E+04 -4.771117E+04  3.098903E+03  2.398478E+04
        79  27 -1.774667E+05 -8.298942E+04 -5.204712E+04 -5.058819E+04  1.785861E+02  2.460610E+04
        80   1  5.717722E+05  8.885016E+04  5.801840E+04 -5.040776E+04 -9.550266E+02 -2.485138E+04
        80   2  6.063757E+05  9.931020E+04  7.462491E+04 -4.820366E+04 -2.335702E+04 -1.995072E+04
        80   3  6.449825E+05  1.140662E+05  1.068841E+05 -5.109864E+04 -4.576521E+04 -5.849337E+03
        80   4  1.855034E+05  9.222174E+01  3.242458E+02 -5.043617E+04 -2.218292E+02 -2.485273E+04
        80   5  1.854142E+05  3.517604E+02  5.957768E+02 -4.788687E+04 -5.229671E+02 -1.994573E+04
        80   6  1.854935E+05  1.073559E+03  1.180822E+03 -5.043641E+04 -8.285683E+02 -5.835171E+03
        80   7 -2.006156E+05 -8.867276E+04 -5.737278E+04 -5.046455E+04  5.109306E+02 -2.485409E+04
        80   8 -2.353729E+05 -9.861607E+04 -7.343783E+04 -4.757030E+04  2.229608E+04 -1.994072E+04
        80   9 -2.737959E+05 -1.119328E+05 -1.045288E+05 -4.977467E+04  4.407511E+04 -5.820906E+03
        80  10  5.717721E+05  8.884950E+04  5.801724E+04 -5.040778E+04 -8.912584E-10 -1.066810E-09
        80  11  6.063750E+05  9.930963E+04  7.462313E+04 -4.820404E+04 -1.498870E-09 -1.144124E-09
        80  12  6.449802E+05  1.140656E+05  1.068801E+05 -5.109886E+04 -5.704034E-10 -2.822508E-10
        80  13  1.855033E+05  9.155841E+01  3.230849E+02 -5.043617E+04 -1.898645E-10 -1.581702E-09
        80  14  1.854141E+05  3.513331E+02  5.950287E+02 -4.788688E+04 -2.925367E-10  4.862407E-10
        80  15  1.854935E+05  1.073523E+03  1.180757E+03 -5.043641E+04 -2.346972E-10  2.208715E-12
        80  16 -2.006158E+05 -8.867342E+04 -5.737394E+04 -5.046454E+04  1.519935E-09 -3.512691E-10
        80  17 -2.353736E+05 -9.861664E+04 -7.343951E+04 -4.756994E+04  7.916281E-10  3.529506E-10
        80  18 -2.737980E+05 -1.119333E+05 -1.045325E+05 -4.977447E+04  4.202943E-10 -3.306898E-10
        80  19  5.717722E+05  8.885016E+04  5.801840E+04 -5.040776E+04  9.550266E+02  2.485138E+04
        80  20  6.063757E+05  9.931020E+04  7.462491E+04 -4.820366E+04  2.335702E+04  1.995072E+04
        80  21  6.449825E+05  1.140662E+05  1.068841E+05 -5.109864E+04  4.576521E+04  5.849337E+03
        80  22  1.855034E+05  9.222174E+01  3.242458E+02 -5.043617E+04  2.218292E+02  2.485273E+04
        80  23  1.854142E+05  3.517604E+02  5.957768E+02 -4.788687E+04  5.229671E+02  1.994573E+04
        80  24  1.854935E+05  1.073559E+03  1.180822E+03 -5.043641E+04  8.285683E+02  5.835171E+03
        80  25 -2.006156E+05 -8.867276E+04 -5.737278E+04 -5.046455E+04 -5.109306E+02  2.485409E+04
        80  26 -2.353729E+05 -9.861607E+04 -7.343783E+04 -4.757030E+04 -2.229608E+04  1.994072E+04
        80  27 -2.737959E+05 -1.119328E+05 -1.045288E+05 -4.977467E+04 -4.407511E+04  5.820906E+03
        81   1  9.685090E+04  4.660308E+05  9.253467E+04 -1.216193E+05  3.782378E+03  2.901732E+04
        81   2  6.974418E+04  3.746527E+05  5.688158E+04 -1.134025E+05  1.162085E+04  9.288240E+03
        81   3  4.727564E+04  2.870054E+05  3.522569E+04 -1.195050E+05  1.139427E+04 -1.043930E+04
        81   4  3.142313E+03  8.652768E+04  3.379201E+03 -1.193558E+05  3.793424E+03  1.669806E+03
        81   5  1.158657E+03  8.628671E+04  2.246723E+03 -1.121965E+05  1.162506E+04  5.350823E+02
        81   6  5.882471E+02  8.654483E+04  2.205464E+03 -1.193568E+05  1.138997E+04 -6.008015E+02
        81   7 -9.057611E+04 -2.928413E+05 -8.578333E+04 -1.170936E+05  3.804275E+03 -2.566110E+04
        81   8 -6.743168E+04 -2.019989E+05 -5.239155E+04 -1.109910E+05  1.162923E+04 -8.214110E+03
        81   9 -4.610116E+04 -1.138758E+05 -3.081558E+04 -1.192085E+05  1.138567E+04  9.234626E+03
        81  10  9.685066E+04  4.660299E+05  9.253306E+04 -1.216194E+05  8.564518E-10  4.814979E-09
        81  11  6.974401E+04  3.746525E+05  5.688117E+04 -1.134026E+05  3.138390E-09  3.047733E-09
        81  12  4.727547E+04  2.870052E+05  3.522524E+04 -1.195049E+05 -2.590054E-09  1.595950E-09
        81  13  3.142297E+03  8.652767E+04  3.379168E+03 -1.193558E+05  1.218084E-09 -1.718927E-11
        81  14  1.158512E+03  8.628668E+04  2.246468E+03 -1.121965E+05  1.369737E-09 -2.520374E-13
        81  15  5.881077E+02  8.654479E+04  2.205220E+03 -1.193568E+05 -1.195694E-09 -6.428581E-11
        81  16 -9.057631E+04 -2.928420E+05 -8.578460E+04 -1.170935E+05  8.580937E-10 -4.706416E-09
        81  17 -6.743184E+04 -2.019990E+05 -5.239193E+04 -1.109909E+05  4.644080E-09 -2.501968E-09
        81  18 -4.610133E+04 -1.138759E+05 -3.081598E+04 -1.192086E+05 -9.136938E-10 -1.431854E-09
        81  19  9.685090E+04  4.660308E+05  9.253467E+04 -1.216193E+05 -3.782378E+03 -2.901732E+04
        81  20  6.974418E+04  3.746527E+05  5.688158E+04 -1.134025E+05 -1.162085E+04 -9.288240E+03
        81  21  4.727564E+04  2.870054E+05  3.522569E+04 -1.195050E+05 -1.139427E+04  1.043930E+04
        81  22  3.142313E+03  8.652768E+04  3.379201E+03 -1.193558E+05 -3.793424E+03 -1.669806E+03
        81  23  1.158657E+03  8.628671E+04  2.246723E+03 -1.121965E+05 -1.162506E+04 -5.350823E+02
        81  24  5.882471E+02  8.654483E+04  2.205464E+03 -1.193568E+05 -1.138997E+04  6.008015E+02
        81  25 -9.057611E+04 -2.928413E+05 -8.578333E+04 -1.170936E+05 -3.804275E+03  2.566110E+04
        81  26 -6.743168E+04 -2.019989E+05 -5.239155E+04 -1.109910E+05 -1.162923E+04  8.214110E+03
        81  27 -4.610116E+04 -1.138758E+05 -3.081558E+04 -1.192085E+05 -1.138567E+04 -9.234626E+03
        82   1  3.410093E+04  2.309774E+05  2.578269E+04 -1.197626E+05  8.530427E+03 -1.121892E+04
        82   2  1.346139E+04  1.411908E+05  1.149527E+04 -1.114865E+05  3.946158E+03 -1.372188E+04
        82   3 -5.790398E+03  5.207622E+04 -8.188403E+02 -1.180757E+05 -9.237674E+02 -1.622474E+04
        82   4  5.604319E+02  8.655957E+04  2.472251E+03 -1.194780E+05  8.525643E+03 -9.804677E+02
        82   5  9.195867E+02  8.628638E+04  3.680044E+03 -1.120450E+05  3.940906E+03 -2.825742E+03
        82   6  2.552627E+03  8.656277E+04  6.404177E+03 -1.194772E+05 -9.295015E+02 -4.671241E+03
        82   7 -3.298106E+04 -5.783730E+04 -2.083836E+04 -1.191935E+05  8.520867E+03  9.255689E+03
        82   8 -1.162229E+04  3.138522E+04 -4.134778E+03 -1.126034E+05  3.935634E+03  8.069478E+03
        82   9  1.089565E+04  1.210507E+05  1.362763E+04 -1.208789E+05 -9.352875E+02  6.882887E+03
        82  10  3.410082E+04  2.309772E+05  2.578232E+04 -1.197626E+05 -5.961832E-09  3.365271E-07
        82  11  1.346132E+04  1.411906E+05  1.149489E+04 -1.114864E+05 -6.226879E-09  1.346127E-09
        82  12 -5.790469E+03  5.207594E+04 -8.193366E+02 -1.180757E+05 -3.609262E-09 -3.343634E-07
        82  13  5.603536E+02  8.655955E+04  2.472113E+03 -1.194780E+05 -4.941050E-09  5.111634E-12
        82  14  9.195679E+02  8.628637E+04  3.680000E+03 -1.120450E+05 -7.191844E-09  5.852818E-11
        82  15  2.552620E+03  8.656275E+04  6.404135E+03 -1.194772E+05 -6.293497E-09 -1.148653E-12
        82  16 -3.298116E+04 -5.783741E+04 -2.083866E+04 -1.191936E+05 -5.107015E-09 -3.362627E-07
        82  17 -1.162232E+04  3.138515E+04 -4.134929E+03 -1.126035E+05 -8.701677E-09 -6.802780E-10
        82  18  1.089564E+04  1.210507E+05  1.362754E+04 -1.208789E+05 -4.860006E-09  3.346630E-07
        82  19  3.410093E+04  2.309774E+05  2.578269E+04 -1.197626E+05 -8.530427E+03  1.121892E+04
        82  20  1.346139E+04  1.411908E+05  1.149527E+04 -1.114865E+05 -3.946158E+03  1.372188E+04
        82  21 -5.790398E+03  5.207622E+04 -8.188403E+02 -1.180757E+05  9.237674E+02  1.622474E+04
        82  22  5.604319E+02  8.655957E+04  2.472251E+03 -1.194780E+05 -8.525643E+03  9.804677E+02
        82  23  9.195867E+02  8.628638E+04  3.680044E+03 -1.120450E+05 -3.940906E+03  2.825742E+03
        82  24  2.552627E+03  8.656277E+04  6.404177E+03 -1.194772E+05  9.295015E+02  4.671241E+03
        82  25 -3.298106E+04 -5.783730E+04 -2.083836E+04 -1.191935E+05 -8.520867E+03 -9.255689E+03
        82  26 -1.162229E+04  3.138522E+04 -4.134778E+03 -1.126034E+05 -3.935634E+03 -8.069478E+03
        82  27  1.089565E+04  1.210507E+05  1.362763E+04 -1.208789E+05  9.352875E+02 -6.882887E+03
        83   1 -1.797948E+04 -3.037980E+03 -8.011753E+03 -1.186119E+05 -4.066991E+03 -1.706768E+04
        83   2 -3.282477E+04 -9.337980E+04 -2.011444E+04 -1.019605E+05 -6.054398E+03 -1.152495E+04
        83   3 -3.777164E+04 -1.819648E+05 -3.335274E+04 -9.981226E+04 -2.211610E+03 -5.981845E+03
        83   4  3.393650E+03  8.734561E+04  8.469621E+03 -1.193968E+05 -4.072504E+03 -5.780979E+03
        83   5  1.003862E+04  8.530082E+04  1.546813E+04 -1.121410E+05 -6.053072E+03 -1.367107E+04
        83   6  2.891182E+04  8.733387E+04  3.065758E+04 -1.193866E+05 -2.204390E+03 -2.155989E+04
        83   7  2.476638E+04  1.777374E+05  2.495115E+04 -1.201818E+05 -4.078045E+03  5.507323E+03
        83   8  5.290046E+04  2.640122E+05  5.104918E+04 -1.223245E+05 -6.051676E+03 -1.581779E+04
        83   9  9.559162E+04  3.567005E+05  9.466395E+04 -1.389694E+05 -2.196189E+03 -3.714465E+04
        83  10 -1.797957E+04 -3.038298E+03 -8.012331E+03 -1.186120E+05 -9.047914E-10 -2.975052E-09
        83  11 -3.282485E+04 -9.337995E+04 -2.011476E+04 -1.019606E+05  1.870731E-09 -3.270376E-09
        83  12 -3.777166E+04 -1.819649E+05 -3.335281E+04 -9.981227E+04  5.797180E-10 -4.858170E-09
        83  13  3.393623E+03  8.734557E+04  8.469527E+03 -1.193968E+05 -6.800850E-10 -5.827598E-12
        83  14  1.003853E+04  8.530061E+04  1.546771E+04 -1.121411E+05  5.371567E-10 -1.236364E-11
        83  15  2.891169E+04  8.733337E+04  3.065670E+04 -1.193866E+05  9.528445E-11 -3.361249E-11
        83  16  2.476636E+04  1.777374E+05  2.495106E+04 -1.201818E+05 -1.206000E-09  3.175424E-09
        83  17  5.290035E+04  2.640119E+05  5.104864E+04 -1.223245E+05  2.111689E-09  3.888387E-09
        83  18  9.559124E+04  3.566990E+05  9.466134E+04 -1.389695E+05  9.796510E-10  5.084376E-09
        83  19 -1.797948E+04 -3.037980E+03 -8.011753E+03 -1.186119E+05  4.066991E+03  1.706768E+04
        83  20 -3.282477E+04 -9.337980E+04 -2.011444E+04 -1.019605E+05  6.054398E+03  1.152495E+04
        83  21 -3.777164E+04 -1.819648E+05 -3.335274E+04 -9.981226E+04  2.211610E+03  5.981845E+03
        83  22  3.393650E+03  8.734561E+04  8.469621E+03 -1.193968E+05  4.072504E+03  5.780979E+03
        83  23  1.003862E+04  8.530082E+04  1.546813E+04 -1.121410E+05  6.053072E+03  1.367107E+04
        83  24  2.891182E+04  8.733387E+04  3.065758E+04 -1.193866E+05  2.204390E+03  2.155989E+04
        83  25  2.476638E+04  1.777374E+05  2.495115E+04 -1.201818E+05  4.078045E+03 -5.507323E+03
        83  26  5.290046E+04  2.640122E+05  5.104918E+04 -1.223245E+05  6.051676E+03  1.581779E+04
        83  27  9.559162E+04  3.567005E+05  9.466395E+04 -1.389694E+05  2.196189E+03  3.714465E+04
        84   1 -1.976836E+05 -1.113909E+05 -6.863772E+04 -8.514337E+04 -3.418614E+04 -1.099817E+04
        84   2 -1.859205E+05 -7.031420E+04 -3.919645E+04 -7.948364E+04 -2.129022E+04 -2.086814E+03
        84   3 -1.818418E+05 -5.333041E+04 -2.626188E+04 -7.129593E+04 -7.270708E+03  3.831797E+03
        84   4 -1.005169E+05 -5.544483E+04 -3.978022E+04 -3.847128E+04 -2.633283E+04 -8.053092E+03
        84   5 -9.495943E+04 -2.840972E+04 -1.833643E+04 -4.553026E+04 -1.807565E+04 -8.812628E+02
        84   6 -9.616617E+04 -2.454728E+04 -9.722767E+03 -5.006206E+04 -8.695151E+03  3.297383E+03
        84   7 -3.341378E+03  5.056101E+02 -1.092376E+04  8.207984E+03 -1.847832E+04 -5.106935E+03
        84   8 -3.990121E+03  1.349671E+04  2.522981E+03 -1.157198E+04 -1.486059E+04  3.245836E+02
        84   9 -1.048249E+04  4.236389E+03  6.816172E+03 -2.882546E+04 -1.011981E+04  2.762901E+03
        84  10 -1.976849E+05 -1.113913E+05 -6.864014E+04 -8.514367E+04  1.233539E-09  1.917903E-10
        84  11 -1.859210E+05 -7.031432E+04 -3.919731E+04 -7.948368E+04 -8.294025E-09 -2.590610E-09
        84  12 -1.818418E+05 -5.333044E+04 -2.626201E+04 -7.129591E+04 -9.608265E-09 -7.620838E-10
        84  13 -1.005177E+05 -5.544508E+04 -3.978165E+04 -3.847145E+04 -3.412738E-09 -8.518135E-10
        84  14 -9.495978E+04 -2.840981E+04 -1.833705E+04 -4.553027E+04 -7.265733E-09 -2.728762E-09
        84  15 -9.616625E+04 -2.454732E+04 -9.722929E+03 -5.006203E+04 -3.652029E-09 -1.435246E-09
        84  16 -3.341751E+03  5.054904E+02 -1.092445E+04  8.207908E+03 -6.793057E-09 -2.418273E-09
        84  17 -3.990358E+03  1.349665E+04  2.522566E+03 -1.157197E+04 -5.324816E-09 -3.019478E-09
        84  18 -1.048260E+04  4.236353E+03  6.815966E+03 -2.882544E+04  3.487849E-09 -1.764468E-09
        84  19 -1.976836E+05 -1.113909E+05 -6.863772E+04 -8.514337E+04  3.418614E+04  1.099817E+04
        84  20 -1.859205E+05 -7.031420E+04 -3.919645E+04 -7.948364E+04  2.129022E+04  2.086814E+03
        84  21 -1.818418E+05 -5.333041E+04 -2.626188E+04 -7.129593E+04  7.270708E+03 -3.831797E+03
        84  22 -1.005169E+05 -5.544483E+04 -3.978022E+04 -3.847128E+04  2.633283E+04  8.053092E+03
        84  23 -9.495943E+04 -2.840972E+04 -1.833643E+04 -4.553026E+04  1.807565E+04  8.812628E+02
        84  24 -9.616617E+04 -2.454728E+04 -9.722767E+03 -5.006206E+04  8.695151E+03 -3.297383E+03
        84  25 -3.341378E+03  5.056101E+02 -1.092376E+04  8.207984E+03  1.847832E+04  5.106935E+03
        84  26 -3.990121E+03  1.349671E+04  2.522981E+03 -1.157198E+04  1.486059E+04 -3.245836E+02
        84  27 -1.048249E+04  4.236389E+03  6.816172E+03 -2.882546E+04  1.011981E+04 -2.762901E+03
        85   1 -1.693125E+05 -5.282207E+04 -2.202034E+04 -7.042983E+04 -6.440904E+03  3.504803E+03
        85   2 -1.567143E+05 -4.515919E+04 -1.558799E+04 -6.528706E+04 -3.858693E+03  3.656143E+03
        85   3 -1.423719E+05 -4.101216E+04 -1.115962E+04 -6.276489E+04 -1.190770E+03  3.578979E+03
        85   4 -9.497749E+04 -2.526496E+04 -7.376488E+03 -4.929187E+04 -7.374883E+03  3.154376E+03
        85   5 -9.579269E+04 -2.289008E+04 -3.893109E+03 -4.822601E+04 -5.146688E+03  3.172960E+03
        85   6 -9.479356E+04 -2.396087E+04 -2.133051E+03 -4.978084E+04 -2.832820E+03  2.963032E+03
        85   7 -2.063742E+04  2.292430E+03  7.266924E+03 -2.815173E+04 -8.308973E+03  2.803904E+03
        85   8 -3.486721E+04 -6.206174E+02  7.801615E+03 -3.116339E+04 -6.434819E+03  2.689725E+03
        85   9 -4.721244E+04 -6.909218E+03  6.893557E+03 -3.679576E+04 -4.475020E+03  2.347032E+03
        85  10 -1.693126E+05 -5.282209E+04 -2.202044E+04 -7.042982E+04 -4.279677E-09  2.452957E-09
        85  11 -1.567143E+05 -4.515920E+04 -1.558804E+04 -6.528705E+04  8.344429E-10  5.014410E-09
        85  12 -1.423719E+05 -4.101218E+04 -1.115965E+04 -6.276489E+04  3.217283E-09  3.748440E-09
        85  13 -9.497756E+04 -2.526499E+04 -7.376609E+03 -4.929185E+04  1.408821E-09  7.096365E-10
        85  14 -9.579272E+04 -2.289009E+04 -3.893178E+03 -4.822599E+04  1.000861E-08  2.400695E-09
        85  15 -9.479357E+04 -2.396088E+04 -2.133082E+03 -4.978083E+04  1.538550E-08  2.590086E-09
        85  16 -2.063750E+04  2.292403E+03  7.266779E+03 -2.815171E+04  7.176997E-09 -1.370988E-09
        85  17 -3.486726E+04 -6.206363E+02  7.801524E+03 -3.116338E+04  7.660586E-09 -2.461417E-10
        85  18 -4.721246E+04 -6.909230E+03  6.893509E+03 -3.679575E+04  1.992871E-09  1.463272E-09
        85  19 -1.693125E+05 -5.282207E+04 -2.202034E+04 -7.042983E+04  6.440904E+03 -3.504803E+03
        85  20 -1.567143E+05 -4.515919E+04 -1.558799E+04 -6.528706E+04  3.858693E+03 -3.656143E+03
        85  21 -1.423719E+05 -4.101216E+04 -1.115962E+04 -6.276489E+04  1.190770E+03 -3.578979E+03
        85  22 -9.497749E+04 -2.526496E+04 -7.376488E+03 -4.929187E+04  7.374883E+03 -3.154376E+03
        85  23 -9.579269E+04 -2.289008E+04 -3.893109E+03 -4.822601E+04  5.146688E+03 -3.172960E+03
        85  24 -9.479356E+04 -2.396087E+04 -2.133051E+03 -4.978084E+04  2.832820E+03 -2.963032E+03
        85  25 -2.063742E+04  2.292430E+03  7.266924E+03 -2.815173E+04  8.308973E+03 -2.803904E+03
        85  26 -3.486721E+04 -6.206174E+02  7.801615E+03 -3.116339E+04  6.434819E+03 -2.689725E+03
        85  27 -4.721244E+04 -6.909218E+03  6.893557E+03 -3.679576E+04  4.475020E+03 -2.347032E+03
        86   1 -1.330980E+05 -3.785690E+04 -8.838484E+03 -6.032876E+04 -6.981109E+02  3.058412E+03
        86   2 -1.206299E+05 -3.166011E+04 -5.552134E+03 -5.515099E+04  1.601773E+02  2.189654E+03
        86   3 -1.057939E+05 -2.796806E+04 -2.625989E+03 -5.278498E+04  1.024985E+03  1.303417E+03
        86   4 -9.470377E+04 -2.399721E+04 -1.603908E+03 -4.973065E+04 -2.302841E+03  2.456483E+03
        86   5 -9.588835E+04 -2.273441E+04 -8.815769E+02 -4.832962E+04 -1.471618E+03  1.577593E+03
        86   6 -9.469983E+04 -2.397095E+04 -4.979775E+02 -4.974038E+04 -6.338886E+02  6.812247E+02
        86   7 -5.630803E+04 -1.013739E+04  5.630615E+03 -3.913192E+04 -3.907677E+03  1.854514E+03
        86   8 -7.114630E+04 -1.380869E+04  3.788933E+03 -4.150802E+04 -3.103475E+03  9.655101E+02
        86   9 -8.360578E+04 -1.997387E+04  1.630012E+03 -4.669575E+04 -2.292779E+03  5.902604E+01
        86  10 -1.330980E+05 -3.785691E+04 -8.838502E+03 -6.032876E+04  4.213364E-09  1.468289E-09
        86  11 -1.206299E+05 -3.166012E+04 -5.552143E+03 -5.515099E+04  3.966467E-09 -1.029190E-09
        86  12 -1.057939E+05 -2.796807E+04 -2.625994E+03 -5.278499E+04  6.496750E-09  1.471313E-10
        86  13 -9.470378E+04 -2.399722E+04 -1.603930E+03 -4.973064E+04  1.502717E-08  1.959653E-09
        86  14 -9.588835E+04 -2.273441E+04 -8.815856E+02 -4.832962E+04  9.770544E-09  1.578442E-09
        86  15 -9.469983E+04 -2.397095E+04 -4.979791E+02 -4.974038E+04  7.586718E-09  2.085103E-09
        86  16 -5.630804E+04 -1.013740E+04  5.630580E+03 -3.913192E+04  1.776522E-10  2.562081E-09
        86  17 -7.114631E+04 -1.380870E+04  3.788913E+03 -4.150802E+04  1.594338E-09  4.067561E-09
        86  18 -8.360578E+04 -1.997387E+04  1.630002E+03 -4.669575E+04  6.190629E-09  4.035391E-09
        86  19 -1.330980E+05 -3.785690E+04 -8.838484E+03 -6.032876E+04  6.981109E+02 -3.058412E+03
        86  20 -1.206299E+05 -3.166011E+04 -5.552134E+03 -5.515099E+04 -1.601773E+02 -2.189654E+03
        86  21 -1.057939E+05 -2.796806E+04 -2.625989E+03 -5.278498E+04 -1.024985E+03 -1.303417E+03
        86  22 -9.470377E+04 -2.399721E+04 -1.603908E+03 -4.973065E+04  2.302841E+03 -2.456483E+03
        86  23 -9.588835E+04 -2.273441E+04 -8.815769E+02 -4.832962E+04  1.471618E+03 -1.577593E+03
        86  24 -9.469983E+04 -2.397095E+04 -4.979775E+02 -4.974038E+04  6.338886E+02 -6.812247E+02
        86  25 -5.630803E+04 -1.013739E+04  5.630615E+03 -3.913192E+04  3.907677E+03 -1.854514E+03
        86  26 -7.114630E+04 -1.380869E+04  3.788933E+03 -4.150802E+04  3.103475E+03 -9.655101E+02
        86  27 -8.360578E+04 -1.997387E+04  1.630012E+03 -4.669575E+04  2.292779E+03 -5.902604E+01
        87   1 -9.671172E+04 -2.467714E+04 -7.268504E+02 -5.027462E+04  1.328990E+03  7.069099E+02
        87   2 -8.428350E+04 -1.851974E+04  1.950951E+03 -4.508399E+04  1.851259E+03 -3.163149E+02
        87   3 -6.942376E+04 -1.481416E+04  4.538102E+03 -4.270211E+04  2.373965E+03 -1.340680E+03
        87   4 -9.468868E+04 -2.397310E+04 -3.833827E+02 -4.973496E+04 -3.270644E+02  8.577770E+01
        87   5 -9.590477E+04 -2.274995E+04 -2.402549E+02 -4.832951E+04  1.934040E+02 -9.381363E+02
        87   6 -9.468948E+04 -2.397840E+04 -1.864524E+02 -4.973300E+04  7.143043E+02 -1.963189E+03
        87   7 -9.266561E+04 -2.326906E+04 -3.989828E+01 -4.919530E+04 -1.983140E+03 -5.353622E+02
        87   8 -1.075260E+05 -2.698016E+04 -2.431470E+03 -5.157500E+04 -1.464426E+03 -1.559948E+03
        87   9 -1.199545E+05 -3.314258E+04 -4.911023E+03 -5.676363E+04 -9.452845E+02 -2.585671E+03
        87  10 -9.671172E+04 -2.467714E+04 -7.268546E+02 -5.027462E+04  8.392745E-09  1.860919E-09
        87  11 -8.428351E+04 -1.851974E+04  1.950944E+03 -4.508399E+04  8.571663E-09  2.345434E-09
        87  12 -6.942377E+04 -1.481416E+04  4.538088E+03 -4.270211E+04  3.480788E-09  1.785157E-09
        87  13 -9.468868E+04 -2.397310E+04 -3.833830E+02 -4.973496E+04  7.274325E-09  2.601208E-09
        87  14 -9.590477E+04 -2.274995E+04 -2.402566E+02 -4.832951E+04  6.245459E-09  2.383747E-09
        87  15 -9.468949E+04 -2.397840E+04 -1.864606E+02 -4.973300E+04  2.946233E-09  1.522313E-09
        87  16 -9.266562E+04 -2.326907E+04 -3.990621E+01 -4.919530E+04  5.880048E-09  3.253373E-09
        87  17 -1.075260E+05 -2.698016E+04 -2.431478E+03 -5.157500E+04  3.663448E-09  2.620523E-09
        87  18 -1.199545E+05 -3.314259E+04 -4.911037E+03 -5.676363E+04 -3.312109E-10  1.172120E-09
        87  19 -9.671172E+04 -2.467714E+04 -7.268504E+02 -5.027462E+04 -1.328990E+03 -7.069099E+02
        87  20 -8.428350E+04 -1.851974E+04  1.950951E+03 -4.508399E+04 -1.851259E+03  3.163149E+02
        87  21 -6.942376E+04 -1.481416E+04  4.538102E+03 -4.270211E+04 -2.373965E+03  1.340680E+03
        87  22 -9.468868E+04 -2.397310E+04 -3.833827E+02 -4.973496E+04  3.270644E+02 -8.577770E+01
        87  23 -9.590477E+04 -2.274995E+04 -2.402549E+02 -4.832951E+04 -1.934040E+02  9.381363E+02
        87  24 -9.468948E+04 -2.397840E+04 -1.864524E+02 -4.973300E+04 -7.143043E+02  1.963189E+03
        87  25 -9.266561E+04 -2.326906E+04 -3.989828E+01 -4.919530E+04  1.983140E+03  5.353622E+02
        87  26 -1.075260E+05 -2.698016E+04 -2.431470E+03 -5.157500E+04  1.464426E+03  1.559948E+03
        87  27 -1.199545E+05 -3.314258E+04 -4.911023E+03 -5.676363E+04  9.452845E+02  2.585671E+03
        88   1 -6.036093E+04 -1.151546E+04  6.323252E+03 -4.019000E+04  2.638838E+03 -1.952141E+03
        88   2 -4.793477E+04 -5.354205E+03  8.809256E+03 -3.500090E+04  3.152512E+03 -2.979424E+03
        88   3 -3.307621E+04 -1.643623E+03  1.121134E+04 -3.262005E+04  3.665464E+03 -4.004685E+03
        88   4 -9.468970E+04 -2.397853E+04 -1.850331E+02 -4.973289E+04  9.791193E+02 -2.574685E+03
        88   5 -9.590539E+04 -2.275124E+04 -2.321921E+02 -4.832942E+04  1.495889E+03 -3.600842E+03
        88   6 -9.468946E+04 -2.397521E+04 -3.657093E+02 -4.973423E+04  2.011937E+03 -4.624983E+03
        88   7 -1.290169E+05 -3.644136E+04 -6.693270E+03 -5.927520E+04 -6.804865E+02 -3.197186E+03
        88   8 -1.438736E+05 -4.014806E+04 -9.273722E+03 -6.165697E+04 -1.605972E+02 -4.222209E+03
        88   9 -1.562993E+05 -4.630666E+04 -1.194305E+04 -6.684698E+04  3.585709E+02 -5.245220E+03
        88  10 -6.036094E+04 -1.151547E+04  6.323232E+03 -4.019000E+04 -1.760159E-10  4.917417E-10
        88  11 -4.793478E+04 -5.354218E+03  8.809221E+03 -3.500089E+04  1.511378E-09  2.801375E-10
        88  12 -3.307622E+04 -1.643643E+03  1.121129E+04 -3.262004E+04  2.213578E-09 -1.942749E-10
        88  13 -9.468970E+04 -2.397853E+04 -1.850474E+02 -4.973288E+04  6.947787E-10  9.892817E-10
        88  14 -9.590539E+04 -2.275125E+04 -2.322207E+02 -4.832941E+04 -1.265720E-10  5.554966E-10
        88  15 -9.468947E+04 -2.397523E+04 -3.657571E+02 -4.973422E+04 -4.438436E-10 -7.009020E-10
        88  16 -1.290169E+05 -3.644137E+04 -6.693290E+03 -5.927520E+04  1.367463E-10  1.363750E-09
        88  17 -1.438736E+05 -4.014808E+04 -9.273755E+03 -6.165698E+04  1.212868E-10  6.267066E-10
        88  18 -1.562993E+05 -4.630669E+04 -1.194310E+04 -6.684698E+04 -1.551387E-09 -9.697748E-10
        88  19 -6.036093E+04 -1.151546E+04  6.323252E+03 -4.019000E+04 -2.638838E+03  1.952141E+03
        88  20 -4.793477E+04 -5.354205E+03  8.809256E+03 -3.500090E+04 -3.152512E+03  2.979424E+03
        88  21 -3.307621E+04 -1.643623E+03  1.121134E+04 -3.262005E+04 -3.665464E+03  4.004685E+03
        88  22 -9.468970E+04 -2.397853E+04 -1.850331E+02 -4.973289E+04 -9.791193E+02  2.574685E+03
        88  23 -9.590539E+04 -2.275124E+04 -2.321921E+02 -4.832942E+04 -1.495889E+03  3.600842E+03
        88  24 -9.468946E+04 -2.397521E+04 -3.657093E+02 -4.973423E+04 -2.011937E+03  4.624983E+03
        88  25 -1.290169E+05 -3.644136E+04 -6.693270E+03 -5.927520E+04  6.804865E+02  3.197186E+03
        88  26 -1.438736E+05 -4.014806E+04 -9.273722E+03 -6.165697E+04  1.605972E+02  4.222209E+03
        88  27 -1.562993E+05 -4.630666E+04 -1.194305E+04 -6.684698E+04 -3.585709E+02  5.245220E+03
        89   1 -2.401931E+04  1.651324E+03  1.288761E+04 -3.011946E+04  3.972864E+03 -4.599442E+03
        89   2 -1.156940E+04  7.815014E+03  1.507192E+04 -2.493280E+04  4.744859E+03 -5.514253E+03
        89   3  3.264273E+03  1.149106E+04  1.696744E+04 -2.255565E+04  5.506960E+03 -6.402496E+03
        89   4 -9.470063E+04 -2.397333E+04 -4.736431E+02 -4.973910E+04  2.315179E+03 -5.221332E+03
        89   5 -9.589079E+04 -2.273864E+04 -8.360584E+02 -4.832957E+04  3.128287E+03 -6.120786E+03
        89   6 -9.470544E+04 -2.399978E+04 -1.519858E+03 -4.972966E+04  3.931490E+03 -6.993672E+03
        89   7 -1.653767E+05 -4.959753E+04 -1.383508E+04 -6.935666E+04  6.576979E+02 -5.843147E+03
        89   8 -1.802043E+05 -5.329149E+04 -1.674420E+04 -7.172329E+04  1.511959E+03 -6.727229E+03
        89   9 -1.926642E+05 -5.948940E+04 -2.000728E+04 -7.689945E+04  2.356299E+03 -7.584743E+03
        89  10 -2.401934E+04  1.651297E+03  1.288754E+04 -3.011945E+04 -4.023839E-10 -1.334539E-09
        89  11 -1.156943E+04  7.814975E+03  1.507182E+04 -2.493278E+04  4.868329E-10 -1.169368E-09
        89  12  3.264229E+03  1.149101E+04  1.696730E+04 -2.255562E+04  1.573320E-09 -1.577643E-09
        89  13 -9.470065E+04 -2.397336E+04 -4.737044E+02 -4.973909E+04 -3.110698E-10 -8.557672E-10
        89  14 -9.589081E+04 -2.273868E+04 -8.361472E+02 -4.832956E+04  2.250071E-10 -3.475284E-10
        89  15 -9.470547E+04 -2.399984E+04 -1.519979E+03 -4.972964E+04  1.510165E-09 -4.494662E-10
        89  16 -1.653767E+05 -4.959756E+04 -1.383515E+04 -6.935666E+04 -9.764347E-10 -3.288390E-10
        89  17 -1.802044E+05 -5.329154E+04 -1.674429E+04 -7.172328E+04 -2.543279E-09  2.366703E-10
        89  18 -1.926643E+05 -5.948947E+04 -2.000740E+04 -7.689944E+04 -2.566788E-09  8.303362E-10
        89  19 -2.401931E+04  1.651324E+03  1.288761E+04 -3.011946E+04 -3.972864E+03  4.599442E+03
        89  20 -1.156940E+04  7.815014E+03  1.507192E+04 -2.493280E+04 -4.744859E+03  5.514253E+03
        89  21  3.264273E+03  1.149106E+04  1.696744E+04 -2.255565E+04 -5.506960E+03  6.402496E+03
        89  22 -9.470063E+04 -2.397333E+04 -4.736431E+02 -4.973910E+04 -2.315179E+03  5.221332E+03
        89  23 -9.589079E+04 -2.273864E+04 -8.360584E+02 -4.832957E+04 -3.128287E+03  6.120786E+03
        89  24 -9.470544E+04 -2.399978E+04 -1.519858E+03 -4.972966E+04 -3.931490E+03  6.993672E+03
        89  25 -1.653767E+05 -4.959753E+04 -1.383508E+04 -6.935666E+04 -6.576979E+02  5.843147E+03
        89  26 -1.802043E+05 -5.329149E+04 -1.674420E+04 -7.172329E+04 -1.511959E+03  6.727229E+03
        89  27 -1.926642E+05 -5.948940E+04 -2.000728E+04 -7.689945E+04 -2.356299E+03  7.584743E+03
        90   1  1.235681E+04  1.472631E+04  1.826188E+04 -2.020651E+04  6.076831E+03 -6.890747E+03
        90   2  2.468268E+04  2.100953E+04  1.933149E+04 -1.461291E+04  7.726177E+03 -7.274960E+03
        90   3  3.895520E+04  2.401559E+04  1.919443E+04 -1.163859E+04  9.245738E+03 -7.312870E+03
        90   4 -9.479152E+04 -2.396388E+04 -2.020661E+03 -4.977489E+04  4.444871E+03 -7.503163E+03
        90   5 -9.579922E+04 -2.289019E+04 -3.687561E+03 -4.823348E+04  6.630774E+03 -7.686155E+03
        90   6 -9.496707E+04 -2.520032E+04 -6.986505E+03 -4.931165E+04  8.686849E+03 -7.522816E+03
        90   7 -2.019289E+05 -6.265343E+04 -2.230394E+04 -7.933881E+04  2.813197E+03 -8.115473E+03
        90   8 -2.162666E+05 -6.678880E+04 -2.670738E+04 -8.184816E+04  5.535593E+03 -8.097266E+03
        90   9 -2.288708E+05 -7.441456E+04 -3.316826E+04 -8.697716E+04  8.128089E+03 -7.732712E+03
        90  10  1.235676E+04  1.472625E+04  1.826172E+04 -2.020648E+04  2.178049E-09 -1.158795E-09
        90  11  2.468260E+04  2.100946E+04  1.933128E+04 -1.461286E+04 -1.138957E-08 -3.562912E-09
        90  12  3.895510E+04  2.401551E+04  1.919417E+04 -1.163854E+04 -7.373441E-09 -1.325341E-09
        90  13 -9.479155E+04 -2.396394E+04 -2.020804E+03 -4.977486E+04 -6.085445E-09 -1.525442E-09
        90  14 -9.579928E+04 -2.289027E+04 -3.687755E+03 -4.823344E+04 -1.195004E-08 -3.094854E-09
        90  15 -9.496717E+04 -2.520040E+04 -6.986753E+03 -4.931159E+04 -5.975757E-09  1.383526E-10
        90  16 -2.019289E+05 -6.265350E+04 -2.230408E+04 -7.933879E+04 -9.798869E-09 -1.923743E-09
        90  17 -2.162666E+05 -6.678888E+04 -2.670756E+04 -8.184813E+04 -7.807219E-09 -1.652318E-09
        90  18 -2.288709E+05 -7.441464E+04 -3.316849E+04 -8.697711E+04  5.902594E-09  1.288897E-09
        90  19  1.235681E+04  1.472631E+04  1.826188E+04 -2.020651E+04 -6.076831E+03  6.890747E+03
        90  20  2.468268E+04  2.100953E+04  1.933149E+04 -1.461291E+04 -7.726177E+03  7.274960E+03
        90  21  3.895520E+04  2.401559E+04  1.919443E+04 -1.163859E+04 -9.245738E+03  7.312870E+03
        90  22 -9.479152E+04 -2.396388E+04 -2.020661E+03 -4.977489E+04 -4.444871E+03  7.503163E+03
        90  23 -9.579922E+04 -2.289019E+04 -3.687561E+03 -4.823348E+04 -6.630774E+03  7.686155E+03
        90  24 -9.496707E+04 -2.520032E+04 -6.986505E+03 -4.931165E+04 -8.686849E+03  7.522816E+03
        90  25 -2.019289E+05 -6.265343E+04 -2.230394E+04 -7.933881E+04 -2.813197E+03  8.115473E+03
        90  26 -2.162666E+05 -6.678880E+04 -2.670738E+04 -8.184816E+04 -5.535593E+03  8.097266E+03
        90  27 -2.288708E+05 -7.441456E+04 -3.316826E+04 -8.697716E+04 -8.128089E+03  7.732712E+03
        91   1  4.910752E+04  2.608411E+04  1.892394E+04 -1.210437E+04  1.123827E+04 -7.165596E+03
        91   2  5.574344E+04  3.524204E+04  1.600612E+04  4.326777E+03  1.276171E+04 -4.964183E+03
        91   3  5.740949E+04  2.380943E+04  6.508055E+03  2.310549E+04  1.258319E+04  1.771996E+03
        91   4 -9.611025E+04 -2.450348E+04 -9.208549E+03 -5.002098E+04  9.936017E+03 -7.654489E+03
        91   5 -9.499045E+04 -2.814022E+04 -1.736680E+04 -4.570545E+04  1.848970E+04 -2.814903E+03
        91   6 -1.002351E+05 -5.376347E+04 -3.767627E+04 -3.904242E+04  2.534110E+04  6.559812E+03
        91   7 -2.413060E+05 -7.508958E+04 -3.734190E+04 -8.792952E+04  8.634093E+03 -8.143272E+03
        91   8 -2.456988E+05 -9.151766E+04 -5.074036E+04 -9.572510E+04  2.421613E+04 -6.664003E+02
        91   9 -2.578501E+05 -1.313269E+05 -8.186096E+04 -1.011726E+05  3.809516E+04  1.134522E+04
        91  10  4.910737E+04  2.608402E+04  1.892361E+04 -1.210431E+04  3.600282E-09  3.046540E-09
        91  11  5.574326E+04  3.524197E+04  1.600576E+04  4.326828E+03  5.412227E-09  3.064018E-09
        91  12  5.740932E+04  2.380938E+04  6.507752E+03  2.310547E+04  2.890478E-09  1.221442E-09
        91  13 -9.611037E+04 -2.450357E+04 -9.208844E+03 -5.002092E+04  5.752791E-10  1.503939E-09
        91  14 -9.499082E+04 -2.814032E+04 -1.736746E+04 -4.570541E+04  2.364586E-09  2.297932E-09
        91  15 -1.002358E+05 -5.376368E+04 -3.767756E+04 -3.904255E+04  1.084737E-09  9.042699E-10
        91  16 -2.413061E+05 -7.508967E+04 -3.734216E+04 -8.792946E+04  5.306154E-09  2.577229E-10
        91  17 -2.456994E+05 -9.151782E+04 -5.074146E+04 -9.572509E+04  5.839614E-09  4.623975E-10
        91  18 -2.578517E+05 -1.313274E+05 -8.186393E+04 -1.011730E+05  1.883667E-09 -5.186929E-10
        91  19  4.910752E+04  2.608411E+04  1.892394E+04 -1.210437E+04 -1.123827E+04  7.165596E+03
        91  20  5.574344E+04  3.524204E+04  1.600612E+04  4.326777E+03 -1.276171E+04  4.964183E+03
        91  21  5.740949E+04  2.380943E+04  6.508055E+03  2.310549E+04 -1.258319E+04 -1.771996E+03
        91  22 -9.611025E+04 -2.450348E+04 -9.208549E+03 -5.002098E+04 -9.936017E+03  7.654489E+03
        91  23 -9.499045E+04 -2.814022E+04 -1.736680E+04 -4.570545E+04 -1.848970E+04  2.814903E+03
        91  24 -1.002351E+05 -5.376347E+04 -3.767627E+04 -3.904242E+04 -2.534110E+04 -6.559812E+03
        91  25 -2.413060E+05 -7.508958E+04 -3.734190E+04 -8.792952E+04 -8.634093E+03  8.143272E+03
        91  26 -2.456988E+05 -9.151766E+04 -5.074036E+04 -9.572510E+04 -2.421613E+04  6.664003E+02
        91  27 -2.578501E+05 -1.313269E+05 -8.186096E+04 -1.011726E+05 -3.809516E+04 -1.134522E+04
        92   1  4.275075E+05  6.616403E+04  5.896049E+04  8.784166E+03  1.925168E+04 -4.828387E+03
        92   2  4.097911E+05  7.227362E+04  4.798432E+04  1.479587E+04  8.471247E+03 -1.674188E+04
        92   3  3.918725E+05  7.194126E+04  4.241762E+04  2.316896E+04 -2.311410E+03 -2.135457E+04
        92   4  6.833921E+04 -2.213435E+04 -2.354742E+04  2.362435E+04 -1.660984E+04 -4.845094E+03
        92   5  6.990292E+04 -7.640726E+03 -1.184277E+04  2.243824E+04 -1.056038E+04 -1.675244E+04
        92   6  6.834228E+04 -2.512363E+03 -6.412999E+03  2.361349E+04 -4.513681E+03 -2.135690E+04
        92   7 -2.907065E+05 -1.104402E+05 -1.060589E+05  3.845587E+04 -5.245079E+04 -4.863521E+03
        92   8 -2.698714E+05 -8.756097E+04 -7.167268E+04  3.007628E+04 -2.958189E+04 -1.676347E+04
        92   9 -2.550830E+05 -7.697096E+04 -5.524573E+04  2.405777E+04 -6.714849E+03 -2.135923E+04
        92  10  4.275071E+05  6.616391E+04  5.895975E+04  8.784241E+03  4.657872E-09 -1.096675E-09
        92  11  4.097909E+05  7.227330E+04  4.798366E+04  1.479598E+04  2.736329E-09 -2.793587E-09
        92  12  3.918723E+05  7.194077E+04  4.241676E+04  2.316892E+04 -5.371277E-10  2.807562E-10
        92  13  6.833891E+04 -2.213445E+04 -2.354799E+04  2.362429E+04 -9.394156E-10 -4.872299E-10
        92  14  6.990273E+04 -7.641058E+03 -1.184351E+04  2.243809E+04 -1.265316E-10 -1.862566E-09
        92  15  6.834214E+04 -2.512858E+03 -6.413895E+03  2.361341E+04 -4.667563E-10  1.121377E-09
        92  16 -2.907095E+05 -1.104410E+05 -1.060641E+05  3.845567E+04 -5.840452E-09 -4.273360E-10
        92  17 -2.698724E+05 -8.756151E+04 -7.167485E+04  3.007588E+04 -3.973732E-09 -2.325196E-09
        92  18 -2.550831E+05 -7.697146E+04 -5.524667E+04  2.405765E+04 -9.942156E-10 -5.717143E-10
        92  19  4.275075E+05  6.616403E+04  5.896049E+04  8.784166E+03 -1.925168E+04  4.828387E+03
        92  20  4.097911E+05  7.227362E+04  4.798432E+04  1.479587E+04 -8.471247E+03  1.674188E+04
        92  21  3.918725E+05  7.194126E+04  4.241762E+04  2.316896E+04  2.311410E+03  2.135457E+04
        92  22  6.833921E+04 -2.213435E+04 -2.354742E+04  2.362435E+04  1.660984E+04  4.845094E+03
        92  23  6.990292E+04 -7.640726E+03 -1.184277E+04  2.243824E+04  1.056038E+04  1.675244E+04
        92  24  6.834228E+04 -2.512363E+03 -6.412999E+03  2.361349E+04  4.513681E+03  2.135690E+04
        92  25 -2.907065E+05 -1.104402E+05 -1.060589E+05  3.845587E+04  5.245079E+04  4.863521E+03
        92  26 -2.698714E+05 -8.756097E+04 -7.167268E+04  3.007628E+04  2.958189E+04  1.676347E+04
        92  27 -2.550830E+05 -7.697096E+04 -5.524573E+04  2.405777E+04  6.714849E+03  2.135923E+04
        93   1  3.809769E+05  6.964846E+04  4.080763E+04  2.280876E+04 -1.873607E+03 -2.159186E+04
        93   2  3.632227E+05  6.636516E+04  3.805684E+04  2.192106E+04 -2.760543E+03 -2.190284E+04
        93   3  3.454618E+05  6.258974E+04  3.576091E+04  2.393468E+04 -3.648127E+03 -2.126550E+04
        93   4  6.895205E+04 -1.858088E+03 -4.791480E+03  2.373398E+04 -3.680826E+03 -2.159400E+04
        93   5  6.914681E+04 -5.637673E+02 -2.591563E+03  2.228271E+04 -2.382199E+03 -2.190366E+04
        93   6  6.895544E+04 -1.409833E+02 -1.454195E+03  2.373283E+04 -1.084208E+03 -2.126476E+04
        93   7 -2.429747E+05 -7.336914E+04 -5.039224E+04  2.465870E+04 -5.487174E+03 -2.159615E+04
        93   8 -2.248413E+05 -6.749650E+04 -4.324096E+04  2.264416E+04 -2.004025E+03 -2.190448E+04
        93   9 -2.074731E+05 -6.287499E+04 -3.866997E+04  2.353107E+04  1.478622E+03 -2.126402E+04
        93  10  3.809768E+05  6.964796E+04  4.080675E+04  2.280872E+04  1.979571E-07  2.372193E-09
        93  11  3.632226E+05  6.636464E+04  3.805592E+04  2.192102E+04 -1.597837E-09  4.904281E-09
        93  12  3.454617E+05  6.258925E+04  3.576004E+04  2.393462E+04 -2.015683E-07  3.415865E-09
        93  13  6.895191E+04 -1.858593E+03 -4.792382E+03  2.373391E+04 -1.457571E-09  2.636781E-09
        93  14  6.914668E+04 -5.642841E+02 -2.592475E+03  2.228267E+04 -1.194904E-09  4.595561E-09
        93  15  6.895532E+04 -1.414692E+02 -1.455047E+03  2.373282E+04 -1.521393E-09  2.195915E-09
        93  16 -2.429749E+05 -7.336965E+04 -5.039317E+04  2.465860E+04 -1.996514E-07  2.962174E-09
        93  17 -2.248414E+05 -6.749702E+04 -4.324187E+04  2.264412E+04  6.273785E-10  5.230407E-09
        93  18 -2.074732E+05 -6.287548E+04 -3.867082E+04  2.353110E+04  2.006170E-07  3.157407E-09
        93  19  3.809769E+05  6.964846E+04  4.080763E+04  2.280876E+04  1.873607E+03  2.159186E+04
        93  20  3.632227E+05  6.636516E+04  3.805684E+04  2.192106E+04  2.760543E+03  2.190284E+04
        93  21  3.454618E+05  6.258974E+04  3.576091E+04  2.393468E+04  3.648127E+03  2.126550E+04
        93  22  6.895205E+04 -1.858088E+03 -4.791480E+03  2.373398E+04  3.680826E+03  2.159400E+04
        93  23  6.914681E+04 -5.637673E+02 -2.591563E+03  2.228271E+04  2.382199E+03  2.190366E+04
        93  24  6.895544E+04 -1.409833E+02 -1.454195E+03  2.373283E+04  1.084208E+03  2.126476E+04
        93  25 -2.429747E+05 -7.336914E+04 -5.039224E+04  2.465870E+04  5.487174E+03  2.159615E+04
        93  26 -2.248413E+05 -6.749650E+04 -4.324096E+04  2.264416E+04  2.004025E+03  2.190448E+04
        93  27 -2.074731E+05 -6.287499E+04 -3.866997E+04  2.353107E+04 -1.478622E+03  2.126402E+04
        94   1  3.344726E+05  6.007880E+04  3.438717E+04  2.387991E+04 -3.484228E+03 -2.057674E+04
        94   2  3.167320E+05  5.609520E+04  3.222213E+04  2.241319E+04 -3.463407E+03 -1.938086E+04
        94   3  2.989818E+05  5.208837E+04  3.003737E+04  2.391590E+04 -3.442846E+03 -1.806190E+04
        94   4  6.902919E+04 -9.380980E+01 -1.096348E+03  2.374804E+04 -8.692932E+02 -2.057585E+04
        94   5  6.906032E+04  4.943241E+00 -6.141482E+02  2.226324E+04 -5.649300E+02 -1.937957E+04
        94   6  6.903218E+04  3.123484E+01 -3.485936E+02  2.374795E+04 -2.608255E+02 -1.806019E+04
        94   7 -1.963424E+05 -6.026943E+04 -3.658043E+04  2.361622E+04  1.744576E+03 -2.057495E+04
        94   8 -1.785488E+05 -5.608792E+04 -3.345086E+04  2.211334E+04  2.332446E+03 -1.937828E+04
        94   9 -1.608634E+05 -5.202814E+04 -3.073491E+04  2.358004E+04  2.920072E+03 -1.805848E+04
        94  10  3.344725E+05  6.007834E+04  3.438635E+04  2.387986E+04 -1.984127E-09  2.154531E-09
        94  11  3.167319E+05  5.609480E+04  3.222140E+04  2.241314E+04 -1.714553E-09 -4.240541E-10
        94  12  2.989817E+05  5.208802E+04  3.003674E+04  2.391585E+04 -1.624825E-10 -2.009562E-09
        94  13  6.902907E+04 -9.426463E+01 -1.097145E+03  2.374803E+04 -1.483080E-09 -4.768855E-11
        94  14  6.906022E+04  4.539849E+00 -6.148546E+02  2.226323E+04 -7.226043E-10 -5.203202E-10
        94  15  6.903209E+04  3.088456E+01 -3.492067E+02  2.374794E+04  1.529097E-09 -6.124571E-10
        94  16 -1.963425E+05 -6.026988E+04 -3.658123E+04  2.361624E+04  1.953479E-09  1.296419E-09
        94  17 -1.785489E+05 -5.608832E+04 -3.345157E+04  2.211338E+04  5.382687E-10 -4.533109E-10
        94  18 -1.608635E+05 -5.202849E+04 -3.073553E+04  2.358009E+04  5.813175E-10 -2.035288E-09
        94  19  3.344726E+05  6.007880E+04  3.438717E+04  2.387991E+04  3.484228E+03  2.057674E+04
        94  20  3.167320E+05  5.609520E+04  3.222213E+04  2.241319E+04  3.463407E+03  1.938086E+04
        94  21  2.989818E+05  5.208837E+04  3.003737E+04  2.391590E+04  3.442846E+03  1.806190E+04
        94  22  6.902919E+04 -9.380980E+01 -1.096348E+03  2.374804E+04  8.692932E+02  2.057585E+04
        94  23  6.906032E+04  4.943241E+00 -6.141482E+02  2.226324E+04  5.649300E+02  1.937957E+04
        94  24  6.903218E+04  3.123484E+01 -3.485936E+02  2.374795E+04  2.608255E+02  1.806019E+04
        94  25 -1.963424E+05 -6.026943E+04 -3.658043E+04  2.361622E+04 -1.744576E+03  2.057495E+04
        94  26 -1.785488E+05 -5.608792E+04 -3.345086E+04  2.211334E+04 -2.332446E+03  1.937828E+04
        94  27 -1.608634E+05 -5.202814E+04 -3.073491E+04  2.358004E+04 -2.920072E+03  1.805848E+04
        95   1  2.879905E+05  4.958274E+04  2.858691E+04  2.390204E+04 -3.395458E+03 -1.725308E+04
        95   2  2.702536E+05  4.556811E+04  2.635590E+04  2.240111E+04 -3.360597E+03 -1.586182E+04
        95   3  2.525108E+05  4.155937E+04  2.410272E+04  2.387727E+04 -3.325902E+03 -1.445469E+04
        95   4  6.904343E+04  3.263411E+01 -2.626343E+02  2.374965E+04 -2.070148E+02 -1.725124E+04
        95   5  6.905105E+04  3.526222E+01 -1.459834E+02  2.226108E+04 -1.356859E+02 -1.585977E+04
        95   6  6.904588E+04  3.737289E+01 -7.693932E+01  2.374965E+04 -6.452211E+01 -1.445243E+04
        95   7 -1.498546E+05 -4.951949E+04 -2.911248E+04  2.359731E+04  2.980358E+03 -1.724941E+04
        95   8 -1.321101E+05 -4.549929E+04 -2.664811E+04  2.212109E+04  3.088230E+03 -1.585772E+04
        95   9 -1.143847E+05 -4.148604E+04 -2.425679E+04  2.362206E+04  3.195940E+03 -1.445017E+04
        95  10  2.879904E+05  4.958241E+04  2.858633E+04  2.390199E+04 -1.743931E-09 -2.068781E-09
        95  11  2.702535E+05  4.556784E+04  2.635540E+04  2.240107E+04 -1.794625E-10  1.986306E-10
        95  12  2.525108E+05  4.155915E+04  2.410231E+04  2.387723E+04  1.040092E-10  8.196427E-10
        95  13  6.904335E+04  3.231451E+01 -2.631937E+02  2.374965E+04 -3.352867E-10 -1.847907E-09
        95  14  6.905098E+04  3.499211E+01 -1.464561E+02  2.226108E+04 -1.771998E-09  6.945898E-10
        95  15  6.904582E+04  3.714859E+01 -7.733185E+01  2.374965E+04 -1.132712E-09 -4.454304E-10
        95  16 -1.498547E+05 -4.951981E+04 -2.911306E+04  2.359735E+04  1.079977E-09 -1.919331E-09
        95  17 -1.321102E+05 -4.549957E+04 -2.664860E+04  2.212113E+04 -5.165220E-10 -6.844120E-10
        95  18 -1.143847E+05 -4.148627E+04 -2.425721E+04  2.362210E+04 -1.998688E-09 -5.243588E-10
        95  19  2.879905E+05  4.958274E+04  2.858691E+04  2.390204E+04  3.395458E+03  1.725308E+04
        95  20  2.702536E+05  4.556811E+04  2.635590E+04  2.240111E+04  3.360597E+03  1.586182E+04
        95  21  2.525108E+05  4.155937E+04  2.410272E+04  2.387727E+04  3.325902E+03  1.445469E+04
        95  22  6.904343E+04  3.263411E+01 -2.626343E+02  2.374965E+04  2.070148E+02  1.725124E+04
        95  23  6.905105E+04  3.526222E+01 -1.459834E+02  2.226108E+04  1.356859E+02  1.585977E+04
        95  24  6.904588E+04  3.737289E+01 -7.693932E+01  2.374965E+04  6.452211E+01  1.445243E+04
        95  25 -1.498546E+05 -4.951949E+04 -2.911248E+04  2.359731E+04 -2.980358E+03  1.724941E+04
        95  26 -1.321101E+05 -4.549929E+04 -2.664811E+04  2.212109E+04 -3.088230E+03  1.585772E+04
        95  27 -1.143847E+05 -4.148604E+04 -2.425679E+04  2.362206E+04 -3.195940E+03  1.445017E+04
        96   1  2.415207E+05  3.905918E+04  2.261592E+04  2.387035E+04 -3.315379E+03 -1.363045E+04
        96   2  2.237867E+05  3.504860E+04  2.034517E+04  2.237003E+04 -3.312879E+03 -1.221426E+04
        96   3  2.060492E+05  3.104465E+04  1.807288E+04  2.384872E+04 -3.310497E+03 -1.079643E+04
        96   4  6.904854E+04  3.728184E+01 -5.276394E+01  2.375008E+04 -5.335505E+01 -1.362809E+04
        96   5  6.905154E+04  3.486095E+01 -1.486259E+01  2.226055E+04 -4.709406E+01 -1.221176E+04
        96   6  6.905042E+04  3.848391E+01  1.895411E+01  2.375008E+04 -4.095218E+01 -1.079378E+04
        96   7 -1.033932E+05 -3.898586E+04 -2.272161E+04  2.362984E+04  3.207806E+03 -1.362574E+04
        96   8 -8.565909E+04 -3.497988E+04 -2.037502E+04  2.215109E+04  3.217915E+03 -1.220926E+04
        96   9 -6.792918E+04 -3.096847E+04 -1.803507E+04  2.365146E+04  3.227906E+03 -1.079114E+04
        96  10  2.415206E+05  3.905897E+04  2.261555E+04  2.387031E+04  3.004073E-08 -1.033094E-09
        96  11  2.237866E+05  3.504844E+04  2.034486E+04  2.236999E+04 -6.705708E-09 -4.354968E-09
        96  12  2.060492E+05  3.104452E+04  1.807264E+04  2.384869E+04 -4.404466E-08 -6.750700E-09
        96  13  6.904849E+04  3.708240E+01 -5.311297E+01  2.375008E+04 -2.419493E-09  3.103937E-09
        96  14  6.905150E+04  3.470081E+01 -1.514284E+01  2.226055E+04 -1.807242E-09  6.555021E-09
        96  15  6.905039E+04  3.835880E+01  1.873517E+01  2.375008E+04 -1.902419E-09  1.051480E-08
        96  16 -1.033933E+05 -3.898606E+04 -2.272198E+04  2.362987E+04 -3.155238E-08 -5.216366E-10
        96  17 -8.565915E+04 -3.498005E+04 -2.037532E+04  2.215113E+04  5.152161E-09 -4.697594E-09
        96  18 -6.792922E+04 -3.096859E+04 -1.803531E+04  2.365148E+04  4.329145E-08 -7.126629E-09
        96  19  2.415207E+05  3.905918E+04  2.261592E+04  2.387035E+04  3.315379E+03  1.363045E+04
        96  20  2.237867E+05  3.504860E+04  2.034517E+04  2.237003E+04  3.312879E+03  1.221426E+04
        96  21  2.060492E+05  3.104465E+04  1.807288E+04  2.384872E+04  3.310497E+03  1.079643E+04
        96  22  6.904854E+04  3.728184E+01 -5.276394E+01  2.375008E+04  5.335505E+01  1.362809E+04
        96  23  6.905154E+04  3.486095E+01 -1.486259E+01  2.226055E+04  4.709406E+01  1.221176E+04
        96  24  6.905042E+04  3.848391E+01  1.895411E+01  2.375008E+04  4.095218E+01  1.079378E+04
        96  25 -1.033932E+05 -3.898586E+04 -2.272161E+04  2.362984E+04 -3.207806E+03  1.362574E+04
        96  26 -8.565909E+04 -3.497988E+04 -2.037502E+04  2.215109E+04 -3.217915E+03  1.220926E+04
        96  27 -6.792918E+04 -3.096847E+04 -1.803507E+04  2.365146E+04 -3.227906E+03  1.079114E+04
        97   1  1.950622E+05  2.854621E+04  1.658325E+04  2.384330E+04 -3.315884E+03 -9.970625E+03
        97   2  1.773276E+05  2.454050E+04  1.432459E+04  2.233925E+04 -3.353479E+03 -8.553241E+03
        97   3  1.595965E+05  2.055116E+04  1.209266E+04  2.381324E+04 -3.391153E+03 -7.138304E+03
        97   4  6.905279E+04  3.897513E+01  3.724498E+01  2.374986E+04 -4.652458E+01 -9.967908E+03
        97   5  6.905140E+04  4.036003E+01  8.471585E+01  2.226082E+04 -8.979623E+01 -8.550431E+03
        97   6  6.905410E+04  5.910093E+01  1.628299E+02  2.374984E+04 -1.331483E+02 -7.135400E+03
        97   7 -5.694038E+04 -2.846892E+04 -1.650883E+04  2.365643E+04  3.222203E+03 -9.965193E+03
        97   8 -3.921282E+04 -2.446027E+04 -1.415520E+04  2.218240E+04  3.173344E+03 -8.547621E+03
        97   9 -2.147987E+04 -2.043329E+04 -1.176702E+04  2.368645E+04  3.124404E+03 -7.132497E+03
        97  10  1.950622E+05  2.854610E+04  1.658304E+04  2.384327E+04  3.984508E-08 -4.749815E-09
        97  11  1.773276E+05  2.454042E+04  1.432443E+04  2.233923E+04  5.591342E-09 -2.531180E-09
        97  12  1.595964E+05  2.055110E+04  1.209254E+04  2.381322E+04 -2.909255E-08  8.029315E-10
        97  13  6.905276E+04  3.886843E+01  3.705826E+01  2.374986E+04 -8.441911E-10  1.183523E-08
        97  14  6.905138E+04  4.028151E+01  8.457844E+01  2.226082E+04 -7.659897E-10  7.196181E-09
        97  15  6.905409E+04  5.904625E+01  1.627342E+02  2.374984E+04 -1.151714E-10  2.643937E-09
        97  16 -5.694042E+04 -2.846903E+04 -1.650903E+04  2.365646E+04 -4.020902E-08 -5.214118E-09
        97  17 -3.921285E+04 -2.446035E+04 -1.415535E+04  2.218242E+04 -6.457481E-09 -5.531411E-09
        97  18 -2.147989E+04 -2.043335E+04 -1.176713E+04  2.368647E+04  3.056339E-08 -4.941188E-10
        97  19  1.950622E+05  2.854621E+04  1.658325E+04  2.384330E+04  3.315884E+03  9.970625E+03
        97  20  1.773276E+05  2.454050E+04  1.432459E+04  2.233925E+04  3.353479E+03  8.553241E+03
        97  21  1.595965E+05  2.055116E+04  1.209266E+04  2.381324E+04  3.391153E+03  7.138304E+03
        97  22  6.905279E+04  3.897513E+01  3.724498E+01  2.374986E+04  4.652458E+01  9.967908E+03
        97  23  6.905140E+04  4.036003E+01  8.471585E+01  2.226082E+04  8.979623E+01  8.550431E+03
        97  24  6.905410E+04  5.910093E+01  1.628299E+02  2.374984E+04  1.331483E+02  7.135400E+03
        97  25 -5.694038E+04 -2.846892E+04 -1.650883E+04  2.365643E+04 -3.222203E+03  9.965193E+03
        97  26 -3.921282E+04 -2.446027E+04 -1.415520E+04  2.218240E+04 -3.173344E+03  8.547621E+03
        97  27 -2.147987E+04 -2.043329E+04 -1.176702E+04  2.368645E+04 -3.124404E+03  7.132497E+03
        98   1  1.486193E+05  1.805897E+04  1.063733E+04  2.381580E+04 -3.422845E+03 -6.314926E+03
        98   2  1.308653E+05  1.411055E+04  8.486924E+03  2.222888E+04 -3.574850E+03 -4.912020E+03
        98   3  1.131580E+05  1.029400E+04  6.466450E+03  2.361793E+04 -3.726878E+03 -3.529558E+03
        98   4  6.906562E+04  6.653263E+01  2.190178E+02  2.374940E+04 -1.660325E+02 -6.311977E+03
        98   5  6.903881E+04  1.284700E+02  3.951175E+02  2.226129E+04 -3.652011E+02 -4.909060E+03
        98   6  6.906636E+04  3.304123E+02  7.337923E+02  2.374916E+04 -5.643956E+02 -3.526587E+03
        98   7 -1.048159E+04 -1.792617E+04 -1.019930E+04  2.368300E+04  3.090382E+03 -6.309029E+03
        98   8  7.216258E+03 -1.385376E+04 -7.696674E+03  2.229369E+04  2.844143E+03 -4.906099E+03
        98   9  2.497670E+04 -9.633250E+03 -4.998839E+03  2.388038E+04  2.597873E+03 -3.523615E+03
        98  10  1.486193E+05  1.805893E+04  1.063724E+04  2.381578E+04 -2.666713E-09  1.753894E-09
        98  11  1.308653E+05  1.411052E+04  8.486854E+03  2.222887E+04 -9.513440E-12 -4.133495E-10
        98  12  1.131580E+05  1.029398E+04  6.466400E+03  2.361792E+04  1.699579E-09  6.119643E-10
        98  13  6.906561E+04  6.648984E+01  2.189429E+02  2.374940E+04 -2.979591E-10  1.125437E-09
        98  14  6.903880E+04  1.284441E+02  3.950720E+02  2.226129E+04  2.958781E-10  7.059149E-10
        98  15  6.906636E+04  3.303989E+02  7.337683E+02  2.374915E+04 -5.133820E-10 -1.541120E-09
        98  16 -1.048162E+04 -1.792621E+04 -1.019939E+04  2.368302E+04  1.759111E-09  9.886829E-10
        98  17  7.216242E+03 -1.385379E+04 -7.696735E+03  2.229370E+04  1.131515E-09 -5.552679E-10
        98  18  2.497669E+04 -9.633265E+03 -4.998875E+03  2.388038E+04 -9.635339E-10 -3.388083E-09
        98  19  1.486193E+05  1.805897E+04  1.063733E+04  2.381580E+04  3.422845E+03  6.314926E+03
        98  20  1.308653E+05  1.411055E+04  8.486924E+03  2.222888E+04  3.574850E+03  4.912020E+03
        98  21  1.131580E+05  1.029400E+04  6.466450E+03  2.361793E+04  3.726878E+03  3.529558E+03
        98  22  6.906562E+04  6.653263E+01  2.190178E+02  2.374940E+04  1.660325E+02  6.311977E+03
        98  23  6.903881E+04  1.284700E+02  3.951175E+02  2.226129E+04  3.652011E+02  4.909060E+03
        98  24  6.906636E+04  3.304123E+02  7.337923E+02  2.374916E+04  5.643956E+02  3.526587E+03
        98  25 -1.048159E+04 -1.792617E+04 -1.019930E+04  2.368300E+04 -3.090382E+03  6.309029E+03
        98  26  7.216258E+03 -1.385376E+04 -7.696674E+03  2.229369E+04 -2.844143E+03  4.906099E+03
        98  27  2.497670E+04 -9.633250E+03 -4.998839E+03  2.388038E+04 -2.597873E+03  3.523615E+03
        99   1  1.022543E+05  7.886567E+03  5.171803E+03  2.368136E+04 -3.846578E+03 -2.726229E+03
        99   2  8.431977E+04  4.631100E+03  3.515806E+03  2.108137E+04 -4.411581E+03 -1.436765E+03
        99   3  6.679727E+04  2.756530E+03  2.570691E+03  2.144508E+04 -4.976450E+03 -3.047371E+02
        99   4  6.915998E+04  4.307730E+02  9.829255E+02  2.374660E+04 -6.926926E+02 -2.723245E+03
        99   5  6.892256E+04  1.214719E+03  1.816229E+03  2.226336E+04 -1.620479E+03 -1.434121E+03
        99   6  6.916007E+04  3.442621E+03  3.612374E+03  2.374380E+04 -2.548150E+03 -3.024362E+02
        99   7  3.606682E+04 -7.025060E+03 -3.205918E+03  2.381184E+04  2.461033E+03 -2.720261E+03
        99   8  5.352562E+04 -2.201661E+03  1.166841E+02  2.344531E+04  1.170558E+03 -1.431466E+03
        99   9  7.152289E+04  4.128735E+03  4.654082E+03  2.604252E+04 -1.198398E+02 -3.001173E+02
        99  10  1.022543E+05  7.886555E+03  5.171762E+03  2.368135E+04 -1.909173E-09  4.453339E-10
        99  11  8.431975E+04  4.631093E+03  3.515765E+03  2.108137E+04 -8.553169E-10 -1.441759E-09
        99  12  6.679725E+04  2.756524E+03  2.570644E+03  2.144508E+04  4.598674E-10 -6.885322E-10
        99  13  6.915998E+04  4.307649E+02  9.829107E+02  2.374660E+04 -1.316368E-09  1.320166E-09
        99  14  6.892256E+04  1.214716E+03  1.816220E+03  2.226336E+04 -2.448341E-09 -2.482430E-09
        99  15  6.916006E+04  3.442620E+03  3.612362E+03  2.374380E+04  9.481778E-10  5.584692E-10
        99  16  3.606681E+04 -7.025069E+03 -3.205944E+03  2.381185E+04  2.107876E-09 -7.600492E-10
        99  17  5.352562E+04 -2.201664E+03  1.166777E+02  2.344531E+04  2.775055E-10  7.748269E-10
        99  18  7.152289E+04  4.128735E+03  4.654081E+03  2.604252E+04 -2.995540E-10 -2.706406E-10
        99  19  1.022543E+05  7.886567E+03  5.171803E+03  2.368136E+04  3.846578E+03  2.726229E+03
        99  20  8.431977E+04  4.631100E+03  3.515806E+03  2.108137E+04  4.411581E+03  1.436765E+03
        99  21  6.679727E+04  2.756530E+03  2.570691E+03  2.144508E+04  4.976450E+03  3.047371E+02
        99  22  6.915998E+04  4.307730E+02  9.829255E+02  2.374660E+04  6.926926E+02  2.723245E+03
        99  23  6.892256E+04  1.214719E+03  1.816229E+03  2.226336E+04  1.620479E+03  1.434121E+03
        99  24  6.916007E+04  3.442621E+03  3.612374E+03  2.374380E+04  2.548150E+03  3.024362E+02
        99  25  3.606682E+04 -7.025060E+03 -3.205918E+03  2.381184E+04 -2.461033E+03  2.720261E+03
        99  26  5.352562E+04 -2.201661E+03  1.166841E+02  2.344531E+04 -1.170558E+03  1.431466E+03
        99  27  7.152289E+04  4.128735E+03  4.654082E+03  2.604252E+04  1.198398E+02  3.001173E+02
       100   1  3.355942E+03  1.970809E+05  4.078842E+03 -2.112875E+04 -3.166286E+02 -9.802850E+00
       100   2 -3.668064E+03  1.776776E+05 -7.641103E+02 -1.784849E+04 -1.488947E+03 -1.404594E+03
       100   3 -8.714311E+03  1.589458E+05 -4.206067E+03 -1.896575E+04 -2.792709E+03 -2.799402E+03
       100   4  3.186612E+03  1.966857E+05  3.638271E+03 -1.909178E+04 -3.174582E+02  1.824186E+03
       100   5  6.815087E+02  1.963689E+05  2.301552E+03 -1.689369E+04 -1.489862E+03  6.470844E+02
       100   6  1.164437E+02  1.966857E+05  2.214767E+03 -1.909310E+04 -2.793704E+03 -5.300690E+02
       100   7  3.017299E+03  1.962905E+05  3.197714E+03 -1.705481E+04 -3.182758E+02  3.658173E+03
       100   8  5.031069E+03  2.150605E+05  5.367220E+03 -1.593887E+04 -1.490771E+03  2.698823E+03
       100   9  8.947126E+03  2.344270E+05  8.635573E+03 -1.922045E+04 -2.794700E+03  1.739397E+03
       100  10  3.355942E+03  1.970809E+05  4.078842E+03 -2.112875E+04  5.796852E-10 -2.637142E-08
       100  11 -3.668067E+03  1.776776E+05 -7.641182E+02 -1.784849E+04 -5.546889E-10 -1.561664E-08
       100  12 -8.714322E+03  1.589458E+05 -4.206097E+03 -1.896575E+04 -1.153631E-10  5.676265E-10
       100  13  3.186611E+03  1.966857E+05  3.638264E+03 -1.909178E+04  1.751622E-09  4.311378E-10
       100  14  6.815062E+02  1.963689E+05  2.301547E+03 -1.689369E+04  3.254068E-09  1.196133E-10
       100  15  1.164352E+02  1.966857E+05  2.214751E+03 -1.909310E+04  6.955369E-09  6.182913E-10
       100  16  3.017295E+03  1.962905E+05  3.197689E+03 -1.705481E+04  5.564698E-10  2.634522E-08
       100  17  5.031065E+03  2.150605E+05  5.367203E+03 -1.593886E+04  1.500281E-09  1.457712E-08
       100  18  8.947117E+03  2.344270E+05  8.635553E+03 -1.922045E+04 -1.429041E-09 -6.678261E-10
       100  19  3.355942E+03  1.970809E+05  4.078842E+03 -2.112875E+04  3.166286E+02  9.802850E+00
       100  20 -3.668064E+03  1.776776E+05 -7.641103E+02 -1.784849E+04  1.488947E+03  1.404594E+03
       100  21 -8.714311E+03  1.589458E+05 -4.206067E+03 -1.896575E+04  2.792709E+03  2.799402E+03
       100  22  3.186612E+03  1.966857E+05  3.638271E+03 -1.909178E+04  3.174582E+02 -1.824186E+03
       100  23  6.815087E+02  1.963689E+05  2.301552E+03 -1.689369E+04  1.489862E+03 -6.470844E+02
       100  24  1.164437E+02  1.966857E+05  2.214767E+03 -1.909310E+04  2.793704E+03  5.300690E+02
       100  25  3.017299E+03  1.962905E+05  3.197714E+03 -1.705481E+04  3.182758E+02 -3.658173E+03
       100  26  5.031069E+03  2.150605E+05  5.367220E+03 -1.593887E+04  1.490771E+03 -2.698823E+03
       100  27  8.947126E+03  2.344270E+05  8.635573E+03 -1.922045E+04  2.794700E+03 -1.739397E+03
       101   1 -1.163738E+04  1.464102E+05 -6.204108E+03 -1.933343E+04 -3.610434E+03 -3.202222E+03
       101   2 -1.606945E+04  1.271520E+05 -8.534126E+03 -1.676973E+04 -4.848943E+03 -4.505964E+03
       101   3 -1.968701E+04  1.082637E+05 -9.812900E+03 -1.859614E+04 -5.804845E+03 -5.809501E+03
       101   4  1.397742E+02  1.966448E+05  2.458010E+03 -1.909133E+04 -3.611417E+03 -9.160212E+02
       101   5  1.982856E+02  1.964189E+05  3.549582E+03 -1.689608E+04 -4.849669E+03 -2.688036E+03
       101   6  1.152537E+03  1.966437E+05  6.017401E+03 -1.909089E+04 -5.805329E+03 -4.459883E+03
       101   7  1.191679E+04  2.468819E+05  1.112006E+04 -1.884921E+04 -3.612397E+03  1.370359E+03
       101   8  1.646577E+04  2.656905E+05  1.563313E+04 -1.702244E+04 -4.850395E+03 -8.699099E+02
       101   9  2.199166E+04  2.850313E+05  2.184741E+04 -1.958572E+04 -5.805814E+03 -3.110077E+03
       101  10 -1.163739E+04  1.464102E+05 -6.204152E+03 -1.933344E+04 -1.266849E-09  3.192518E-08
       101  11 -1.606948E+04  1.271520E+05 -8.534208E+03 -1.676975E+04 -2.137043E-09  1.670591E-08
       101  12 -1.968706E+04  1.082637E+05 -9.813027E+03 -1.859616E+04 -1.957655E-09  1.814283E-10
       101  13  1.397600E+02  1.966448E+05  2.457984E+03 -1.909134E+04  6.320258E-09  4.926704E-10
       101  14  1.982584E+02  1.964189E+05  3.549524E+03 -1.689609E+04  1.037845E-09 -2.721291E-11
       101  15  1.152495E+03  1.966437E+05  6.017300E+03 -1.909091E+04 -3.233001E-09  6.194669E-10
       101  16  1.191678E+04  2.468819E+05  1.112003E+04 -1.884921E+04 -2.750977E-09 -3.189985E-08
       101  17  1.646574E+04  2.656905E+05  1.563309E+04 -1.702245E+04 -1.822668E-09 -1.741873E-08
       101  18  2.199162E+04  2.850313E+05  2.184733E+04 -1.958573E+04 -3.692584E-09 -2.250503E-10
       101  19 -1.163738E+04  1.464102E+05 -6.204108E+03 -1.933343E+04  3.610434E+03  3.202222E+03
       101  20 -1.606945E+04  1.271520E+05 -8.534126E+03 -1.676973E+04  4.848943E+03  4.505964E+03
       101  21 -1.968701E+04  1.082637E+05 -9.812900E+03 -1.859614E+04  5.804845E+03  5.809501E+03
       101  22  1.397742E+02  1.966448E+05  2.458010E+03 -1.909133E+04  3.611417E+03  9.160212E+02
       101  23  1.982856E+02  1.964189E+05  3.549582E+03 -1.689608E+04  4.849669E+03  2.688036E+03
       101  24  1.152537E+03  1.966437E+05  6.017401E+03 -1.909089E+04  5.805329E+03  4.459883E+03
       101  25  1.191679E+04  2.468819E+05  1.112006E+04 -1.884921E+04  3.612397E+03 -1.370359E+03
       101  26  1.646577E+04  2.656905E+05  1.563313E+04 -1.702244E+04  4.850395E+03  8.699099E+02
       101  27  2.199166E+04  2.850313E+05  2.184741E+04 -1.958572E+04  5.805814E+03  3.110077E+03
       102   1 -2.314310E+04  9.658250E+04 -1.047462E+04 -2.060008E+04 -6.482203E+03 -7.242885E+03
       102   2 -2.311874E+04  7.557314E+04 -9.653127E+03 -9.711949E+03 -5.844411E+03 -8.820554E+03
       102   3 -8.655574E+03  5.837783E+04 -4.194909E+03 -2.996176E+03 -1.808997E+03 -1.039701E+04
       102   4  7.091117E+02  1.976076E+05  7.785265E+03 -1.904375E+04 -6.482841E+03 -5.485559E+03
       102   5  5.532046E+03  1.952110E+05  1.394861E+04 -1.695298E+04 -5.842743E+03 -1.269124E+04
       102   6  2.576878E+04  1.976037E+05  2.865547E+04 -1.903421E+04 -1.805279E+03 -1.989573E+04
       102   7  2.456077E+04  2.986426E+05  2.604477E+04 -1.748716E+04 -6.483470E+03 -3.727954E+03
       102   8  3.418217E+04  3.148627E+05  3.754974E+04 -2.419542E+04 -5.840986E+03 -1.656265E+04
       102   9  6.019276E+04  3.368481E+05  6.150499E+04 -3.507587E+04 -1.801071E+03 -2.939658E+04
       102  10 -2.314316E+04  9.658243E+04 -1.047480E+04 -2.060012E+04 -2.048466E-09  4.570268E-09
       102  11 -2.311880E+04  7.557305E+04 -9.653338E+03 -9.711990E+03  3.332652E-10  2.408831E-09
       102  12 -8.655606E+03  5.837771E+04 -4.195118E+03 -2.996191E+03  3.220691E-10  1.763591E-09
       102  13  7.090585E+02  1.976075E+05  7.785129E+03 -1.904378E+04 -2.651309E-09  4.529674E-10
       102  14  5.531967E+03  1.952108E+05  1.394825E+04 -1.695303E+04 -1.160436E-09  1.342391E-10
       102  15  2.576867E+04  1.976033E+05  2.865472E+04 -1.903424E+04  1.345594E-09  5.115988E-10
       102  16  2.456072E+04  2.986425E+05  2.604466E+04 -1.748718E+04 -3.424483E-09 -4.456521E-09
       102  17  3.418206E+04  3.148624E+05  3.754916E+04 -2.419550E+04 -2.673517E-09 -3.026110E-09
       102  18  6.019252E+04  3.368472E+05  6.150336E+04 -3.507591E+04 -1.561847E-09 -1.805389E-09
       102  19 -2.314310E+04  9.658250E+04 -1.047462E+04 -2.060008E+04  6.482203E+03  7.242885E+03
       102  20 -2.311874E+04  7.557314E+04 -9.653127E+03 -9.711949E+03  5.844411E+03  8.820554E+03
       102  21 -8.655574E+03  5.837783E+04 -4.194909E+03 -2.996176E+03  1.808997E+03  1.039701E+04
       102  22  7.091117E+02  1.976076E+05  7.785265E+03 -1.904375E+04  6.482841E+03  5.485559E+03
       102  23  5.532046E+03  1.952110E+05  1.394861E+04 -1.695298E+04  5.842743E+03  1.269124E+04
       102  24  2.576878E+04  1.976037E+05  2.865547E+04 -1.903421E+04  1.805279E+03  1.989573E+04
       102  25  2.456077E+04  2.986426E+05  2.604477E+04 -1.748716E+04  6.483470E+03  3.727954E+03
       102  26  3.418217E+04  3.148627E+05  3.754974E+04 -2.419542E+04  5.840986E+03  1.656265E+04
       102  27  6.019276E+04  3.368481E+05  6.150499E+04 -3.507587E+04  1.801071E+03  2.939658E+04
       103   1  4.475138E+05  1.593813E+05  7.886112E+04  1.669645E+05  3.098322E+04  6.327602E+03
       103   2  4.222859E+05  1.485634E+05  5.620668E+04  1.597527E+05  2.004713E+04 -1.048739E+04
       103   3  3.967614E+05  1.419240E+05  4.510217E+04  1.560651E+05  6.291531E+03 -1.978879E+04
       103   4  1.163664E+05  3.807217E+04 -4.446810E+03  7.888955E+04 -1.165858E+03 -5.746689E+03
       103   5  1.183589E+05  3.924528E+04 -2.129099E+03  7.650681E+04  4.117988E+03 -1.647141E+04
       103   6  1.168429E+05  4.138632E+04 -1.104601E+03  7.764839E+04  6.580392E+03 -1.968135E+04
       103   7 -2.146563E+05 -8.322435E+04 -8.775476E+04 -9.138712E+03 -3.329470E+04 -1.781371E+04
       103   8 -1.854641E+05 -7.006199E+04 -6.046565E+04 -6.699362E+03 -1.180242E+04 -2.245223E+04
       103   9 -1.629912E+05 -5.914310E+04 -4.731299E+04 -7.350143E+02  6.869115E+03 -1.957397E+04
       103  10  4.475127E+05  1.593810E+05  7.885924E+04  1.669643E+05 -1.250683E-09 -4.178236E-10
       103  11  4.222855E+05  1.485631E+05  5.620572E+04  1.597529E+05 -1.091030E-09 -5.845967E-10
       103  12  3.967612E+05  1.419235E+05  4.510136E+04  1.560652E+05 -2.376852E-09  2.449279E-10
       103  13  1.163664E+05  3.807214E+04 -4.446874E+03  7.888955E+04 -5.106956E-10  4.726066E-10
       103  14  1.183588E+05  3.924499E+04 -2.129640E+03  7.650687E+04 -1.774516E-09 -2.161979E-10
       103  15  1.168427E+05  4.138590E+04 -1.105410E+03  7.764849E+04  1.265587E-11  3.398596E-10
       103  16 -2.146576E+05 -8.322499E+04 -8.775744E+04 -9.139190E+03 -9.888869E-10 -6.678502E-11
       103  17 -1.854644E+05 -7.006257E+04 -6.046686E+04 -6.699575E+03  1.783586E-09  7.554385E-10
       103  18 -1.629913E+05 -5.914352E+04 -4.731380E+04 -7.349060E+02  1.485436E-09  7.963380E-10
       103  19  4.475138E+05  1.593813E+05  7.886112E+04  1.669645E+05 -3.098322E+04 -6.327602E+03
       103  20  4.222859E+05  1.485634E+05  5.620668E+04  1.597527E+05 -2.004713E+04  1.048739E+04
       103  21  3.967614E+05  1.419240E+05  4.510217E+04  1.560651E+05 -6.291531E+03  1.978879E+04
       103  22  1.163664E+05  3.807217E+04 -4.446810E+03  7.888955E+04  1.165858E+03  5.746689E+03
       103  23  1.183589E+05  3.924528E+04 -2.129099E+03  7.650681E+04 -4.117988E+03  1.647141E+04
       103  24  1.168429E+05  4.138632E+04 -1.104601E+03  7.764839E+04 -6.580392E+03  1.968135E+04
       103  25 -2.146563E+05 -8.322435E+04 -8.775476E+04 -9.138712E+03  3.329470E+04  1.781371E+04
       103  26 -1.854641E+05 -7.006199E+04 -6.046565E+04 -6.699362E+03  1.180242E+04  2.245223E+04
       103  27 -1.629912E+05 -5.914310E+04 -4.731299E+04 -7.350143E+02 -6.869115E+03  1.957397E+04
       104   1  3.811702E+05  1.361763E+05  4.160852E+04  1.517640E+05  6.398629E+03 -1.935563E+04
       104   2  3.582308E+05  1.257686E+05  3.607040E+04  1.432680E+05  4.568030E+03 -1.946038E+04
       104   3  3.324639E+05  1.187020E+05  3.180314E+04  1.383639E+05  2.414689E+03 -1.870652E+04
       104   4  1.168780E+05  4.156829E+04 -8.186092E+02  7.776364E+04  6.575279E+03 -1.929027E+04
       104   5  1.184950E+05  4.021019E+04 -4.243213E+02  7.591989E+04  6.598093E+03 -1.869853E+04
       104   6  1.169176E+05  4.182644E+04 -2.268099E+02  7.766799E+04  6.298067E+03 -1.724798E+04
       104   7 -1.473427E+05 -5.303386E+04 -4.324810E+04  3.791898E+03  6.751851E+03 -1.922495E+04
       104   8 -1.211803E+05 -4.534272E+04 -3.692026E+04  8.595828E+03  8.627342E+03 -1.793698E+04
       104   9 -9.857838E+04 -3.504414E+04 -3.225723E+04  1.699193E+04  1.018003E+04 -1.578996E+04
       104  10  3.811701E+05  1.361759E+05  4.160774E+04  1.517641E+05 -1.737872E-09  1.220592E-09
       104  11  3.582307E+05  1.257682E+05  3.606965E+04  1.432681E+05 -4.243872E-09 -2.611832E-10
       104  12  3.324638E+05  1.187016E+05  3.180247E+04  1.383639E+05 -2.712941E-09  2.192699E-09
       104  13  1.168779E+05  4.156787E+04 -8.193898E+02  7.776374E+04 -2.343747E-09  7.849592E-10
       104  14  1.184949E+05  4.020980E+04 -4.250602E+02  7.591999E+04 -1.665082E-09 -2.707516E-09
       104  15  1.169175E+05  4.182611E+04 -2.274435E+02  7.766808E+04 -2.012257E-09  9.411223E-10
       104  16 -1.473429E+05 -5.303427E+04 -4.324888E+04  3.792003E+03 -2.962851E-10  1.837518E-10
       104  17 -1.211804E+05 -4.534309E+04 -3.692101E+04  8.595952E+03  2.310186E-09  2.198632E-09
       104  18 -9.857856E+04 -3.504443E+04 -3.225789E+04  1.699206E+04  2.097111E-09  1.425252E-10
       104  19  3.811702E+05  1.361763E+05  4.160852E+04  1.517640E+05 -6.398629E+03  1.935563E+04
       104  20  3.582308E+05  1.257686E+05  3.607040E+04  1.432680E+05 -4.568030E+03  1.946038E+04
       104  21  3.324639E+05  1.187020E+05  3.180314E+04  1.383639E+05 -2.414689E+03  1.870652E+04
       104  22  1.168780E+05  4.156829E+04 -8.186092E+02  7.776364E+04 -6.575279E+03  1.929027E+04
       104  23  1.184950E+05  4.021019E+04 -4.243213E+02  7.591989E+04 -6.598093E+03  1.869853E+04
       104  24  1.169176E+05  4.182644E+04 -2.268099E+02  7.766799E+04 -6.298067E+03  1.724798E+04
       104  25 -1.473427E+05 -5.303386E+04 -4.324810E+04  3.791898E+03 -6.751851E+03  1.922495E+04
       104  26 -1.211803E+05 -4.534272E+04 -3.692026E+04  8.595828E+03 -8.627342E+03  1.793698E+04
       104  27 -9.857838E+04 -3.504414E+04 -3.225723E+04  1.699193E+04 -1.018003E+04  1.578996E+04
       105   1  3.172547E+05  1.132485E+05  2.938439E+04  1.340994E+05  2.053409E+03 -1.761270E+04
       105   2  2.945634E+05  1.030072E+05  2.571074E+04  1.254706E+05  1.193461E+03 -1.583387E+04
       105   3  2.687450E+05  9.595822E+04  2.216995E+04  1.204558E+05  2.965509E+02 -1.395724E+04
       105   4  1.169206E+05  4.184359E+04 -1.680864E+02  7.768148E+04  5.923427E+03 -1.615899E+04
       105   5  1.185091E+05  4.027884E+04 -8.632249E+01  7.587143E+04  5.274569E+03 -1.430058E+04
       105   6  1.169278E+05  4.186472E+04 -3.908878E+01  7.767539E+04  4.588730E+03 -1.234432E+04
       105   7 -8.336733E+04 -2.955599E+04 -2.972020E+04  2.128139E+04  9.792082E+03 -1.470580E+04
       105   8 -5.751134E+04 -2.244608E+04 -2.588360E+04  2.628555E+04  9.354457E+03 -1.276774E+04
       105   9 -3.486618E+04 -1.222697E+04 -2.224878E+04  3.490431E+04  8.879856E+03 -1.073180E+04
       105  10  3.172546E+05  1.132482E+05  2.938380E+04  1.340995E+05  5.569144E-08  2.331845E-08
       105  11  2.945633E+05  1.030069E+05  2.571027E+04  1.254706E+05 -1.705643E-08 -6.653446E-09
       105  12  2.687450E+05  9.595801E+04  2.216958E+04  1.204558E+05 -1.128725E-07 -4.181404E-08
       105  13  1.169205E+05  4.184331E+04 -1.686430E+02  7.768156E+04  6.162198E-09  6.210678E-10
       105  14  1.185091E+05  4.027862E+04 -8.675911E+01  7.587149E+04  1.439699E-08 -1.794521E-09
       105  15  1.169278E+05  4.186456E+04 -3.941473E+01  7.767543E+04 -5.818268E-09 -1.377656E-08
       105  16 -8.336749E+04 -2.955625E+04 -2.972079E+04  2.128150E+04 -4.154247E-08 -1.308486E-08
       105  17 -5.751148E+04 -2.244628E+04 -2.588407E+04  2.628565E+04  4.704784E-08  2.409453E-08
       105  18 -3.486629E+04 -1.222711E+04 -2.224915E+04  3.490439E+04  1.018078E-07  4.694651E-08
       105  19  3.172547E+05  1.132485E+05  2.938439E+04  1.340994E+05 -2.053409E+03  1.761270E+04
       105  20  2.945634E+05  1.030072E+05  2.571074E+04  1.254706E+05 -1.193461E+03  1.583387E+04
       105  21  2.687450E+05  9.595822E+04  2.216995E+04  1.204558E+05 -2.965509E+02  1.395724E+04
       105  22  1.169206E+05  4.184359E+04 -1.680864E+02  7.768148E+04 -5.923427E+03  1.615899E+04
       105  23  1.185091E+05  4.027884E+04 -8.632249E+01  7.587143E+04 -5.274569E+03  1.430058E+04
       105  24  1.169278E+05  4.186472E+04 -3.908878E+01  7.767539E+04 -4.588730E+03  1.234432E+04
       105  25 -8.336733E+04 -2.955599E+04 -2.972020E+04  2.128139E+04 -9.792082E+03  1.470580E+04
       105  26 -5.751134E+04 -2.244608E+04 -2.588360E+04  2.628555E+04 -9.354457E+03  1.276774E+04
       105  27 -3.486618E+04 -1.222697E+04 -2.224878E+04  3.490431E+04 -8.879856E+03  1.073180E+04
       106   1  2.535878E+05  9.054145E+04  1.985804E+04  1.161942E+05 -1.328408E+02 -1.279377E+04
       106   2  2.309294E+05  8.033234E+04  1.638170E+04  1.075546E+05 -9.076132E+02 -1.081028E+04
       106   3  2.051103E+05  7.329297E+04  1.292545E+04  1.025325E+05 -1.686407E+03 -8.816413E+03
       106   4  1.169288E+05  4.186668E+04 -2.278056E+01  7.767671E+04  4.157455E+03 -1.118142E+04
       106   5  1.185127E+05  4.028515E+04  6.746119E+00  7.586804E+04  3.405001E+03 -9.189363E+03
       106   6  1.169309E+05  4.186880E+04  3.856280E+01  7.767668E+04  2.648528E+03 -7.186934E+03
       106   7 -1.970975E+04 -6.806006E+03 -1.990366E+04  3.916721E+04  8.446754E+03 -9.569446E+03
       106   8  6.110564E+03  2.396440E+02 -1.636802E+04  4.418716E+04  7.716765E+03 -7.568766E+03
       106   9  2.876105E+04  1.044593E+04 -1.284800E+04  5.282453E+04  6.982759E+03 -5.557719E+03
       106  10  2.535877E+05  9.054128E+04  1.985774E+04  1.161942E+05  4.367772E-08  2.053860E-08
       106  11  2.309293E+05  8.033221E+04  1.638148E+04  1.075545E+05  2.989534E-08  1.659607E-08
       106  12  2.051103E+05  7.329289E+04  1.292530E+04  1.025325E+05  4.208899E-09  3.658177E-09
       106  13  1.169288E+05  4.186654E+04 -2.304800E+01  7.767674E+04 -1.265168E-08 -1.694679E-08
       106  14  1.185126E+05  4.028505E+04  6.565631E+00  7.586806E+04 -4.149814E-09 -8.659798E-09
       106  15  1.169308E+05  4.186874E+04  3.845255E+01  7.767669E+04 -5.461994E-10 -2.126837E-09
       106  16 -1.970985E+04 -6.806124E+03 -1.990397E+04  3.916728E+04 -6.870764E-08 -1.973979E-08
       106  17  6.110484E+03  2.395665E+02 -1.636824E+04  4.418720E+04 -3.396288E-08 -1.338806E-08
       106  18  2.876099E+04  1.044589E+04 -1.284815E+04  5.282456E+04 -2.420653E-09 -3.517000E-09
       106  19  2.535878E+05  9.054145E+04  1.985804E+04  1.161942E+05  1.328408E+02  1.279377E+04
       106  20  2.309294E+05  8.033234E+04  1.638170E+04  1.075546E+05  9.076132E+02  1.081028E+04
       106  21  2.051103E+05  7.329297E+04  1.292545E+04  1.025325E+05  1.686407E+03  8.816413E+03
       106  22  1.169288E+05  4.186668E+04 -2.278056E+01  7.767671E+04 -4.157455E+03  1.118142E+04
       106  23  1.185127E+05  4.028515E+04  6.746119E+00  7.586804E+04 -3.405001E+03  9.189363E+03
       106  24  1.169309E+05  4.186880E+04  3.856280E+01  7.767668E+04 -2.648528E+03  7.186934E+03
       106  25 -1.970975E+04 -6.806006E+03 -1.990366E+04  3.916721E+04 -8.446754E+03  9.569446E+03
       106  26  6.110564E+03  2.396440E+02 -1.636802E+04  4.418716E+04 -7.716765E+03  7.568766E+03
       106  27  2.876105E+04  1.044593E+04 -1.284800E+04  5.282453E+04 -6.982759E+03  5.557719E+03
       107   1  1.899614E+05  6.788032E+04  1.063269E+04  9.827296E+04 -2.133793E+03 -7.649633E+03
       107   2  1.673055E+05  5.767529E+04  7.207925E+03  8.963616E+04 -2.935869E+03 -5.661279E+03
       107   3  1.414904E+05  5.063928E+04  3.819163E+03  8.461808E+04 -3.736252E+03 -3.677566E+03
       107   4  1.169336E+05  4.186906E+04  5.830496E+01  7.767783E+04  2.200721E+03 -6.020235E+03
       107   5  1.185125E+05  4.028319E+04  1.163131E+02  7.586873E+04  1.388585E+03 -4.035570E+03
       107   6  1.169341E+05  4.186849E+04  2.184071E+02  7.767827E+04  5.781441E+02 -2.055556E+03
       107   7  4.391081E+04  1.585804E+04 -1.051630E+04  5.708474E+04  6.534753E+03 -4.391017E+03
       107   8  6.972176E+04  2.289124E+04 -6.975330E+03  6.210223E+04  5.712710E+03 -2.409986E+03
       107   9  9.237839E+04  3.309778E+04 -3.382278E+03  7.073872E+04  4.892363E+03 -4.336130E+02
       107  10  1.899613E+05  6.788026E+04  1.063257E+04  9.827294E+04  5.440016E-09  1.190837E-09
       107  11  1.673054E+05  5.767525E+04  7.207848E+03  8.963615E+04 -7.268984E-09 -1.613477E-09
       107  12  1.414904E+05  5.063926E+04  3.819111E+03  8.461807E+04 -7.009668E-09 -5.722517E-10
       107  13  1.169336E+05  4.186902E+04  5.822775E+01  7.767784E+04 -3.180947E-09 -1.062238E-09
       107  14  1.185124E+05  4.028317E+04  1.162789E+02  7.586873E+04 -8.521851E-09 -8.387802E-10
       107  15  1.169341E+05  4.186849E+04  2.183985E+02  7.767827E+04 -3.922480E-09  5.662888E-10
       107  16  4.391076E+04  1.585801E+04 -1.051642E+04  5.708476E+04 -1.080995E-08 -3.839788E-09
       107  17  6.972172E+04  2.289122E+04 -6.975402E+03  6.210225E+04 -8.930687E-09 -2.275913E-09
       107  18  9.237837E+04  3.309778E+04 -3.382323E+03  7.073872E+04  8.249477E-10 -8.970463E-10
       107  19  1.899614E+05  6.788032E+04  1.063269E+04  9.827296E+04  2.133793E+03  7.649633E+03
       107  20  1.673055E+05  5.767529E+04  7.207925E+03  8.963616E+04  2.935869E+03  5.661279E+03
       107  21  1.414904E+05  5.063928E+04  3.819163E+03  8.461808E+04  3.736252E+03  3.677566E+03
       107  22  1.169336E+05  4.186906E+04  5.830496E+01  7.767783E+04 -2.200721E+03  6.020235E+03
       107  23  1.185125E+05  4.028319E+04  1.163131E+02  7.586873E+04 -1.388585E+03  4.035570E+03
       107  24  1.169341E+05  4.186849E+04  2.184071E+02  7.767827E+04 -5.781441E+02  2.055556E+03
       107  25  4.391081E+04  1.585804E+04 -1.051630E+04  5.708474E+04 -6.534753E+03  4.391017E+03
       107  26  6.972176E+04  2.289124E+04 -6.975330E+03  6.210223E+04 -5.712710E+03  2.409986E+03
       107  27  9.237839E+04  3.309778E+04 -3.382278E+03  7.073872E+04 -4.892363E+03  4.336130E+02
       108   1  1.263443E+05  4.523146E+04  1.575385E+03  8.036904E+04 -4.216827E+03 -2.527771E+03
       108   2  1.036891E+05  3.501959E+04 -1.712487E+03  7.171294E+04 -5.118026E+03 -6.130686E+02
       108   3  7.790847E+04  2.801724E+04 -4.870299E+03  6.666679E+04 -6.000079E+03  1.250850E+03
       108   4  1.169440E+05  4.186789E+04  2.932632E+02  7.768157E+04  9.822767E+01 -9.055012E+02
       108   5  1.185019E+05  4.029340E+04  5.370655E+02  7.586124E+04 -9.126600E+02  9.679332E+02
       108   6  1.169552E+05  4.194998E+04  9.976892E+02  7.765053E+04 -1.904415E+03  2.790592E+03
       108   7  1.075439E+05  3.850439E+04 -9.887457E+02  7.499418E+04  4.413161E+03  7.167219E+02
       108   8  1.333149E+05  4.556725E+04  2.786691E+03  8.000964E+04  3.292812E+03  2.548974E+03
       108   9  1.560041E+05  5.588309E+04  6.865867E+03  8.863507E+04  2.191571E+03  4.330456E+03
       108  10  1.263442E+05  4.523145E+04  1.575339E+03  8.036903E+04  2.464537E-11  1.867306E-09
       108  11  1.036891E+05  3.501958E+04 -1.712537E+03  7.171293E+04 -6.316673E-10  2.620546E-10
       108  12  7.790843E+04  2.801723E+04 -4.870370E+03  6.666680E+04  2.264043E-10  4.187921E-10
       108  13  1.169440E+05  4.186789E+04  2.932616E+02  7.768157E+04  2.164328E-10  2.414504E-09
       108  14  1.185019E+05  4.029340E+04  5.370622E+02  7.586124E+04  1.139466E-09  1.602575E-10
       108  15  1.169552E+05  4.194997E+04  9.976677E+02  7.765054E+04 -6.110743E-10  1.812899E-09
       108  16  1.075439E+05  3.850439E+04 -9.887832E+02  7.499418E+04 -9.068056E-10 -1.035874E-09
       108  17  1.333149E+05  4.556724E+04  2.786658E+03  8.000963E+04 -1.396338E-09  4.917412E-10
       108  18  1.560041E+05  5.588307E+04  6.865823E+03  8.863507E+04 -1.483298E-09  8.595593E-10
       108  19  1.263443E+05  4.523146E+04  1.575385E+03  8.036904E+04  4.216827E+03  2.527771E+03
       108  20  1.036891E+05  3.501959E+04 -1.712487E+03  7.171294E+04  5.118026E+03  6.130686E+02
       108  21  7.790847E+04  2.801724E+04 -4.870299E+03  6.666679E+04  6.000079E+03 -1.250850E+03
       108  22  1.169440E+05  4.186789E+04  2.932632E+02  7.768157E+04 -9.822767E+01  9.055012E+02
       108  23  1.185019E+05  4.029340E+04  5.370655E+02  7.586124E+04  9.126600E+02 -9.679332E+02
       108  24  1.169552E+05  4.194998E+04  9.976892E+02  7.765053E+04  1.904415E+03 -2.790592E+03
       108  25  1.075439E+05  3.850439E+04 -9.887457E+02  7.499418E+04 -4.413161E+03 -7.167219E+02
       108  26  1.333149E+05  4.556725E+04  2.786691E+03  8.000964E+04 -3.292812E+03 -2.548974E+03
       108  27  1.560041E+05  5.588309E+04  6.865867E+03  8.863507E+04 -2.191571E+03 -4.330456E+03
       109   1  6.275188E+04  2.266408E+04 -6.926708E+03  6.248094E+04 -6.607301E+03  2.303599E+03
       109   2  4.037673E+04  1.236156E+04 -9.770927E+03  5.331980E+04 -7.529102E+03  3.873059E+03
       109   3  1.514741E+04  5.855826E+03 -1.221935E+04  4.758323E+04 -8.283368E+03  4.997116E+03
       109   4  1.170327E+05  4.197647E+04  1.336954E+03  7.766241E+04 -2.504963E+03  3.845814E+03
       109   5  1.184672E+05  4.070975E+04  2.478838E+03  7.567684E+04 -4.387986E+03  5.053799E+03
       109   6  1.172371E+05  4.343000E+04  4.777889E+03  7.711552E+04 -6.103488E+03  5.816410E+03
       109   7  1.713168E+05  6.128917E+04  9.600639E+03  9.284513E+04  1.597753E+03  5.388169E+03
       109   8  1.965637E+05  6.905844E+04  1.472840E+04  9.803639E+04 -1.246472E+03  6.234693E+03
       109   9  2.193365E+05  8.100485E+04  2.177452E+04  1.066520E+05 -3.923255E+03  6.635845E+03
       109  10  6.275184E+04  2.266406E+04 -6.926800E+03  6.248096E+04  1.201570E-09  1.526282E-09
       109  11  4.037666E+04  1.236153E+04 -9.771062E+03  5.331983E+04  4.089647E-10  1.514176E-09
       109  12  1.514733E+04  5.855781E+03 -1.221952E+04  4.758326E+04 -1.947470E-09 -1.137935E-09
       109  13  1.170327E+05  4.197645E+04  1.336914E+03  7.766242E+04  3.487082E-09  4.729048E-10
       109  14  1.184671E+05  4.070972E+04  2.478754E+03  7.567685E+04  4.577897E-09  4.881377E-09
       109  15  1.172370E+05  4.342995E+04  4.777755E+03  7.711555E+04  7.399402E-10 -2.907116E-10
       109  16  1.713168E+05  6.128914E+04  9.600580E+03  9.284512E+04  2.473329E-11 -1.852285E-10
       109  17  1.965636E+05  6.905840E+04  1.472832E+04  9.803640E+04  1.378708E-09 -1.238289E-09
       109  18  2.193365E+05  8.100480E+04  2.177441E+04  1.066521E+05 -2.761252E-09  1.060519E-09
       109  19  6.275188E+04  2.266408E+04 -6.926708E+03  6.248094E+04  6.607301E+03 -2.303599E+03
       109  20  4.037673E+04  1.236156E+04 -9.770927E+03  5.331980E+04  7.529102E+03 -3.873059E+03
       109  21  1.514741E+04  5.855826E+03 -1.221935E+04  4.758323E+04  8.283368E+03 -4.997116E+03
       109  22  1.170327E+05  4.197647E+04  1.336954E+03  7.766241E+04  2.504963E+03 -3.845814E+03
       109  23  1.184672E+05  4.070975E+04  2.478838E+03  7.567684E+04  4.387986E+03 -5.053799E+03
       109  24  1.172371E+05  4.343000E+04  4.777889E+03  7.711552E+04  6.103488E+03 -5.816410E+03
       109  25  1.713168E+05  6.128917E+04  9.600639E+03  9.284513E+04 -1.597753E+03 -5.388169E+03
       109  26  1.965637E+05  6.905844E+04  1.472840E+04  9.803639E+04  1.246472E+03 -6.234693E+03
       109  27  2.193365E+05  8.100485E+04  2.177452E+04  1.066520E+05  3.923255E+03 -6.635845E+03
       110   1 -5.286998E+01  1.233578E+03 -1.362266E+04  4.392732E+04 -9.345969E+03  5.444622E+03
       110   2 -1.791080E+04 -1.012426E+04 -1.561862E+04  2.749500E+04 -7.000870E+03  5.286865E+03
       110   3 -3.570481E+04 -9.973700E+03 -1.672849E+04  1.197055E+04 -3.191485E+03  1.232386E+03
       110   4  1.179913E+05  4.391113E+04  6.444457E+03  7.714196E+04 -7.108398E+03  6.285550E+03
       110   5  1.184919E+05  4.699175E+04  1.240907E+04  7.305390E+04 -1.317012E+04  2.967741E+03
       110   6  1.207205E+05  6.324467E+04  2.591971E+04  6.987421E+04 -1.776794E+04 -4.246306E+03
       110   7  2.360525E+05  8.659095E+04  2.651183E+04  1.103631E+05 -4.870334E+03  7.126664E+03
       110   8  2.549137E+05  1.041110E+05  4.043588E+04  1.186225E+05 -1.934079E+04  6.478940E+02
       110   9  2.771669E+05  1.364672E+05  6.856552E+04  1.277912E+05 -3.234803E+04 -9.727231E+03
       110  10 -5.297174E+01  1.233523E+03 -1.362288E+04  4.392736E+04 -5.038957E-09  8.424877E-10
       110  11 -1.791086E+04 -1.012430E+04 -1.561876E+04  2.749503E+04  2.703092E-09  2.693895E-09
       110  12 -3.570482E+04 -9.973705E+03 -1.672851E+04  1.197056E+04  5.040226E-09  2.720120E-09
       110  13  1.179912E+05  4.391108E+04  6.444288E+03  7.714200E+04  1.683365E-09  5.834033E-10
       110  14  1.184917E+05  4.699170E+04  1.240873E+04  7.305393E+04  1.739654E-09  7.527660E-10
       110  15  1.207201E+05  6.324456E+04  2.591909E+04  6.987415E+04  3.121365E-09  1.077782E-09
       110  16  2.360525E+05  8.659088E+04  2.651169E+04  1.103632E+05 -1.245898E-09  2.724179E-09
       110  17  2.549133E+05  1.041109E+05  4.043517E+04  1.186225E+05 -6.305293E-10  1.048676E-10
       110  18  2.771658E+05  1.364669E+05  6.856338E+04  1.277909E+05 -2.936480E-09 -8.046556E-10
       110  19 -5.286998E+01  1.233578E+03 -1.362266E+04  4.392732E+04  9.345969E+03 -5.444622E+03
       110  20 -1.791080E+04 -1.012426E+04 -1.561862E+04  2.749500E+04  7.000870E+03 -5.286865E+03
       110  21 -3.570481E+04 -9.973700E+03 -1.672849E+04  1.197055E+04  3.191485E+03 -1.232386E+03
       110  22  1.179913E+05  4.391113E+04  6.444457E+03  7.714196E+04  7.108398E+03 -6.285550E+03
       110  23  1.184919E+05  4.699175E+04  1.240907E+04  7.305390E+04  1.317012E+04 -2.967741E+03
       110  24  1.207205E+05  6.324467E+04  2.591971E+04  6.987421E+04  1.776794E+04  4.246306E+03
       110  25  2.360525E+05  8.659095E+04  2.651183E+04  1.103631E+05  4.870334E+03 -7.126664E+03
       110  26  2.549137E+05  1.041110E+05  4.043588E+04  1.186225E+05  1.934079E+04 -6.478940E+02
       110  27  2.771669E+05  1.364672E+05  6.856552E+04  1.277912E+05  3.234803E+04  9.727231E+03
       111   1 -1.156567E+05 -5.275959E+05 -1.294257E+05  4.274292E+04 -2.340617E+03 -5.019688E+04
       111   2 -4.161196E+04 -4.735661E+05 -7.881622E+04  1.446008E+04 -6.740155E+03 -2.974297E+04
       111   3 -3.538749E+04 -4.390661E+05 -5.847046E+04  1.613507E+04 -5.245302E+03 -9.282653E+03
       111   4 -5.545249E+04 -2.863694E+05 -6.993755E+04  2.375237E+04 -2.342418E+03 -4.616394E+04
       111   5  7.103983E+03 -2.768834E+05 -3.205186E+04  8.796550E+03 -6.740331E+03 -2.895584E+04
       111   6  2.415422E+03 -2.863583E+05 -2.216707E+04  2.379934E+04 -5.243798E+03 -1.174293E+04
       111   7  4.748749E+03 -4.508921E+04 -1.045343E+04  4.754429E+03 -2.344467E+03 -4.212942E+04
       111   8  5.581726E+04 -8.016499E+04  1.470982E+04  3.131219E+03 -6.740521E+03 -2.816846E+04
       111   9  4.021687E+04 -1.336291E+05  1.413474E+04  3.146552E+04 -5.242355E+03 -1.420382E+04
       111  10 -1.156574E+05 -5.275986E+05 -1.294305E+05  4.274282E+04 -5.324594E-10  1.637287E-09
       111  11 -4.161225E+04 -4.735671E+05 -7.881797E+04  1.445992E+04  1.189167E-09  8.943877E-10
       111  12 -3.538754E+04 -4.390662E+05 -5.847067E+04  1.613503E+04 -1.707737E-09 -5.220040E-10
       111  13 -5.545307E+04 -2.863717E+05 -6.994157E+04  2.375228E+04  9.171157E-12  1.930682E-09
       111  14  7.103709E+03 -2.768843E+05 -3.205352E+04  8.796393E+03 -3.815017E-09 -3.082148E-10
       111  15  2.415355E+03 -2.863585E+05 -2.216738E+04  2.379929E+04 -5.434439E-10  1.654904E-09
       111  16  4.748267E+03 -4.509112E+04 -1.045678E+04  4.754349E+03 -4.578667E-10  6.536312E-10
       111  17  5.581700E+04 -8.016585E+04  1.470825E+04  3.131066E+03  6.784911E-10  1.771879E-09
       111  18  4.021679E+04 -1.336293E+05  1.413431E+04  3.146546E+04 -4.600523E-10 -2.894051E-10
       111  19 -1.156567E+05 -5.275959E+05 -1.294257E+05  4.274292E+04  2.340617E+03  5.019688E+04
       111  20 -4.161196E+04 -4.735661E+05 -7.881622E+04  1.446008E+04  6.740155E+03  2.974297E+04
       111  21 -3.538749E+04 -4.390661E+05 -5.847046E+04  1.613507E+04  5.245302E+03  9.282653E+03
       111  22 -5.545249E+04 -2.863694E+05 -6.993755E+04  2.375237E+04  2.342418E+03  4.616394E+04
       111  23  7.103983E+03 -2.768834E+05 -3.205186E+04  8.796550E+03  6.740331E+03  2.895584E+04
       111  24  2.415422E+03 -2.863583E+05 -2.216707E+04  2.379934E+04  5.243798E+03  1.174293E+04
       111  25  4.748749E+03 -4.508921E+04 -1.045343E+04  4.754429E+03  2.344467E+03  4.212942E+04
       111  26  5.581726E+04 -8.016499E+04  1.470982E+04  3.131219E+03  6.740521E+03  2.816846E+04
       111  27  4.021687E+04 -1.336291E+05  1.413474E+04  3.146552E+04  5.242355E+03  1.420382E+04
       112   1 -2.960353E+04 -3.816362E+05 -4.311804E+04  2.629152E+04 -3.306623E+03 -7.415908E+03
       112   2 -1.201800E+04 -3.351746E+05 -2.813302E+04  8.770860E+03 -1.854020E+03  4.657559E+02
       112   3 -7.343939E+03 -2.929186E+05 -2.149939E+04  2.148932E+04 -2.410543E+02  8.347890E+03
       112   4 -5.188159E+03 -2.830743E+05 -1.965720E+04  2.384656E+04 -3.306116E+03 -8.176434E+03
       112   5  1.402672E+03 -2.809779E+05 -1.524524E+04  8.727165E+03 -1.853530E+03 -3.824241E+02
       112   6 -4.901953E+03 -2.830732E+05 -1.912297E+04  2.384690E+04 -2.405322E+02  7.411503E+03
       112   7  1.922653E+04 -1.845034E+05  3.802967E+03  2.140122E+04 -3.305603E+03 -8.937080E+03
       112   8  1.482313E+04 -2.267784E+05 -2.357660E+03  8.683467E+03 -1.853039E+03 -1.230678E+03
       112   9 -2.459952E+03 -2.732277E+05 -1.674655E+04  2.620451E+04 -2.400172E+02  6.475101E+03
       112  10 -2.960355E+04 -3.816363E+05 -4.311817E+04  2.629150E+04 -5.716749E-10  1.307629E-09
       112  11 -1.201800E+04 -3.351746E+05 -2.813302E+04  8.770861E+03  1.683681E-09 -2.959103E-09
       112  12 -7.343958E+03 -2.929186E+05 -2.149952E+04  2.148932E+04  5.482072E-10 -5.448855E-09
       112  13 -5.188189E+03 -2.830743E+05 -1.965735E+04  2.384654E+04 -1.309274E-09  1.359902E-09
       112  14  1.402669E+03 -2.809779E+05 -1.524524E+04  8.727165E+03 -6.240342E-10 -6.009330E-10
       112  15 -4.901967E+03 -2.830733E+05 -1.912307E+04  2.384690E+04  7.995527E-10  3.261828E-10
       112  16  1.922650E+04 -1.845034E+05  3.802796E+03  2.140119E+04 -1.961264E-09  8.962896E-10
       112  17  1.482313E+04 -2.267784E+05 -2.357669E+03  8.683465E+03 -1.311344E-09  5.275930E-09
       112  18 -2.459963E+03 -2.732278E+05 -1.674663E+04  2.620452E+04  1.480340E-09  3.667134E-09
       112  19 -2.960353E+04 -3.816362E+05 -4.311804E+04  2.629152E+04  3.306623E+03  7.415908E+03
       112  20 -1.201800E+04 -3.351746E+05 -2.813302E+04  8.770860E+03  1.854020E+03 -4.657559E+02
       112  21 -7.343939E+03 -2.929186E+05 -2.149939E+04  2.148932E+04  2.410543E+02 -8.347890E+03
       112  22 -5.188159E+03 -2.830743E+05 -1.965720E+04  2.384656E+04  3.306116E+03  8.176434E+03
       112  23  1.402672E+03 -2.809779E+05 -1.524524E+04  8.727165E+03  1.853530E+03  3.824241E+02
       112  24 -4.901953E+03 -2.830732E+05 -1.912297E+04  2.384690E+04  2.405322E+02 -7.411503E+03
       112  25  1.922653E+04 -1.845034E+05  3.802967E+03  2.140122E+04  3.305603E+03  8.937080E+03
       112  26  1.482313E+04 -2.267784E+05 -2.357660E+03  8.683467E+03  1.853039E+03  1.230678E+03
       112  27 -2.459952E+03 -2.732277E+05 -1.674655E+04  2.620451E+04  2.400172E+02 -6.475101E+03
       113   1  1.323255E+04 -2.418086E+05 -1.082093E+04  3.118219E+04  1.394511E+03  1.274544E+04
       113   2  2.870399E+04 -1.885710E+05 -9.578423E+03  3.433115E+03  3.032889E+03  2.725814E+04
       113   3 -1.950541E+04 -1.530879E+05 -3.369405E+04  5.799749E+03  1.169195E+03  4.176968E+04
       113   4  2.251537E+03 -2.861618E+05 -2.140701E+04  2.383094E+04  1.395359E+03  1.086965E+04
       113   5  6.772793E+03 -2.771186E+05 -3.062704E+04  8.755479E+03  3.033118E+03  2.731263E+04
       113   6 -5.272762E+04 -2.861704E+05 -6.654915E+04  2.379651E+04  1.169176E+03  4.375336E+04
       113   7 -8.729408E+03 -3.305129E+05 -3.199318E+04  1.648022E+04  1.396251E+03  8.993992E+03
       113   8 -1.515887E+04 -3.656588E+05 -5.167620E+04  1.407708E+04  3.033348E+03  2.736711E+04
       113   9 -8.594994E+04 -4.192362E+05 -9.940537E+04  4.178940E+04  1.169272E+03  4.573660E+04
       113  10  1.323250E+04 -2.418088E+05 -1.082124E+04  3.118218E+04  1.025575E-09  6.209764E-09
       113  11  2.870378E+04 -1.885719E+05 -9.579837E+03  3.433048E+03  1.861154E-09  3.250709E-09
       113  12 -1.950588E+04 -1.530897E+05 -3.369733E+04  5.799710E+03  7.244775E-10 -1.751548E-09
       113  13  2.251503E+03 -2.861619E+05 -2.140724E+04  2.383093E+04  1.219085E-09  1.263158E-09
       113  14  6.772583E+03 -2.771194E+05 -3.062846E+04  8.755413E+03  8.730520E-10 -5.023699E-10
       113  15 -5.272814E+04 -2.861725E+05 -6.655275E+04  2.379647E+04  4.449740E-10  5.750196E-10
       113  16 -8.729432E+03 -3.305130E+05 -3.199334E+04  1.648021E+04  1.887625E-09 -4.276231E-09
       113  17 -1.515908E+04 -3.656596E+05 -5.167762E+04  1.407702E+04  7.792287E-11 -1.179605E-09
       113  18 -8.595050E+04 -4.192384E+05 -9.940931E+04  4.178936E+04  5.132960E-10  6.519736E-10
       113  19  1.323255E+04 -2.418086E+05 -1.082093E+04  3.118219E+04 -1.394511E+03 -1.274544E+04
       113  20  2.870399E+04 -1.885710E+05 -9.578423E+03  3.433115E+03 -3.032889E+03 -2.725814E+04
       113  21 -1.950541E+04 -1.530879E+05 -3.369405E+04  5.799749E+03 -1.169195E+03 -4.176968E+04
       113  22  2.251537E+03 -2.861618E+05 -2.140701E+04  2.383094E+04 -1.395359E+03 -1.086965E+04
       113  23  6.772793E+03 -2.771186E+05 -3.062704E+04  8.755479E+03 -3.033118E+03 -2.731263E+04
       113  24 -5.272762E+04 -2.861704E+05 -6.654915E+04  2.379651E+04 -1.169176E+03 -4.375336E+04
       113  25 -8.729408E+03 -3.305129E+05 -3.199318E+04  1.648022E+04 -1.396251E+03 -8.993992E+03
       113  26 -1.515887E+04 -3.656588E+05 -5.167620E+04  1.407708E+04 -3.033348E+03 -2.736711E+04
       113  27 -8.594994E+04 -4.192362E+05 -9.940537E+04  4.178940E+04 -1.169272E+03 -4.573660E+04
       114   1  2.468166E+05  8.495944E+04  5.080018E+04  9.125824E+04  2.369171E+04  8.007293E+03
       114   2  2.386458E+05  4.912290E+04  2.854694E+04  9.065627E+04  1.524265E+04  2.996783E+03
       114   3  2.396082E+05  4.402338E+04  2.072198E+04  8.586532E+04  6.145727E+03 -2.905060E+02
       114   4  1.918051E+05  5.415533E+04  3.403405E+04  6.589981E+04  2.197102E+04  7.359713E+03
       114   5  1.855425E+05  2.606462E+04  1.450885E+04  7.282422E+04  1.472335E+04  2.801364E+03
       114   6  1.881759E+05  2.847425E+04  8.461218E+03  7.555944E+04  6.827648E+03 -3.399498E+01
       114   7  1.367975E+05  2.335308E+04  1.726788E+04  4.054409E+04  2.025052E+04  6.712273E+03
       114   8  1.324421E+05  3.006880E+03  4.705758E+02  5.499370E+04  1.420409E+04  2.605971E+03
       114   9  1.367460E+05  1.292501E+04 -3.799795E+03  6.525418E+04  7.509512E+03  2.225044E+02
       114  10  2.468160E+05  8.495922E+04  5.079900E+04  9.125809E+04 -4.074751E-09 -9.699686E-10
       114  11  2.386456E+05  4.912283E+04  2.854649E+04  9.065624E+04 -4.492287E-09 -1.232563E-09
       114  12  2.396081E+05  4.402337E+04  2.072191E+04  8.586532E+04 -6.370403E-10 -6.132087E-10
       114  13  1.918046E+05  5.415514E+04  3.403305E+04  6.589968E+04 -3.916286E-09  1.034906E-09
       114  14  1.855422E+05  2.606455E+04  1.450843E+04  7.282418E+04 -7.069095E-10 -1.403788E-09
       114  15  1.881759E+05  2.847424E+04  8.461131E+03  7.555944E+04 -1.491429E-09  1.179617E-09
       114  16  1.367971E+05  2.335292E+04  1.726702E+04  4.054398E+04 -4.204778E-10  1.731466E-09
       114  17  1.324419E+05  3.006819E+03  4.701840E+02  5.499367E+04 -3.016672E-09  2.082254E-09
       114  18  1.367459E+05  1.292499E+04 -3.799901E+03  6.525418E+04 -2.057103E-09 -8.897214E-10
       114  19  2.468166E+05  8.495944E+04  5.080018E+04  9.125824E+04 -2.369171E+04 -8.007293E+03
       114  20  2.386458E+05  4.912290E+04  2.854694E+04  9.065627E+04 -1.524265E+04 -2.996783E+03
       114  21  2.396082E+05  4.402338E+04  2.072198E+04  8.586532E+04 -6.145727E+03  2.905060E+02
       114  22  1.918051E+05  5.415533E+04  3.403405E+04  6.589981E+04 -2.197102E+04 -7.359713E+03
       114  23  1.855425E+05  2.606462E+04  1.450885E+04  7.282422E+04 -1.472335E+04 -2.801364E+03
       114  24  1.881759E+05  2.847425E+04  8.461218E+03  7.555944E+04 -6.827648E+03  3.399498E+01
       114  25  1.367975E+05  2.335308E+04  1.726788E+04  4.054409E+04 -2.025052E+04 -6.712273E+03
       114  26  1.324421E+05  3.006880E+03  4.705758E+02  5.499370E+04 -1.420409E+04 -2.605971E+03
       114  27  1.367460E+05  1.292501E+04 -3.799795E+03  6.525418E+04 -7.509512E+03 -2.225044E+02
       115   1  2.286892E+05  4.772858E+04  1.742795E+04  8.586312E+04  5.393790E+03 -9.900286E+01
       115   2  2.229640E+05  4.140783E+04  1.231642E+04  8.273090E+04  3.494436E+03 -5.224265E+02
       115   3  2.156605E+05  3.997804E+04  9.153187E+03  8.210707E+04  1.561959E+03 -8.577307E+02
       115   4  1.870773E+05  3.149186E+04  6.786854E+03  7.377127E+04  5.540518E+03 -4.382990E+01
       115   5  1.877314E+05  2.805391E+04  3.400675E+03  7.289280E+04  3.702673E+03 -4.441055E+02
       115   6  1.867952E+05  2.949480E+04  1.914163E+03  7.452267E+04  1.831689E+03 -7.562693E+02
       115   7  1.454671E+05  1.525529E+04 -3.854381E+03  6.168018E+04  5.687235E+03  1.133860E+01
       115   8  1.525002E+05  1.470011E+04 -5.515148E+03  6.305523E+04  3.910898E+03 -3.657896E+02
       115   9  1.579308E+05  1.901164E+04 -5.324894E+03  6.693861E+04  2.101404E+03 -6.548131E+02
       115  10  2.286892E+05  4.772858E+04  1.742789E+04  8.586312E+04 -9.517196E-10 -3.613453E-09
       115  11  2.229640E+05  4.140783E+04  1.231640E+04  8.273090E+04  1.497115E-09  2.722615E-09
       115  12  2.156605E+05  3.997804E+04  9.153181E+03  8.210708E+04 -8.887206E-10  2.964354E-09
       115  13  1.870773E+05  3.149185E+04  6.786796E+03  7.377127E+04  1.077684E-09 -1.385628E-10
       115  14  1.877314E+05  2.805391E+04  3.400649E+03  7.289281E+04  3.762942E-10 -2.764361E-09
       115  15  1.867952E+05  2.949480E+04  1.914156E+03  7.452267E+04  1.290175E-09 -1.164154E-10
       115  16  1.454670E+05  1.525529E+04 -3.854442E+03  6.168018E+04  1.346540E-09 -2.211631E-09
       115  17  1.525002E+05  1.470010E+04 -5.515177E+03  6.305524E+04  6.988004E-10 -1.462420E-09
       115  18  1.579308E+05  1.901163E+04 -5.324903E+03  6.693861E+04  9.433827E-10 -1.060877E-09
       115  19  2.286892E+05  4.772858E+04  1.742795E+04  8.586312E+04 -5.393790E+03  9.900286E+01
       115  20  2.229640E+05  4.140783E+04  1.231642E+04  8.273090E+04 -3.494436E+03  5.224265E+02
       115  21  2.156605E+05  3.997804E+04  9.153187E+03  8.210707E+04 -1.561959E+03  8.577307E+02
       115  22  1.870773E+05  3.149186E+04  6.786854E+03  7.377127E+04 -5.540518E+03  4.382990E+01
       115  23  1.877314E+05  2.805391E+04  3.400675E+03  7.289280E+04 -3.702673E+03  4.441055E+02
       115  24  1.867952E+05  2.949480E+04  1.914163E+03  7.452267E+04 -1.831689E+03  7.562693E+02
       115  25  1.454671E+05  1.525529E+04 -3.854381E+03  6.168018E+04 -5.687235E+03 -1.133860E+01
       115  26  1.525002E+05  1.470011E+04 -5.515148E+03  6.305523E+04 -3.910898E+03  3.657896E+02
       115  27  1.579308E+05  1.901164E+04 -5.324894E+03  6.693861E+04 -2.101404E+03  6.548131E+02
       116   1  2.086850E+05  3.797142E+04  6.999522E+03  8.043185E+04  1.236653E+03 -7.320219E+02
       116   2  2.032422E+05  3.395535E+04  4.650978E+03  7.709909E+04  7.032962E+02 -5.334888E+02
       116   3  1.952719E+05  3.276635E+04  2.648805E+03  7.675720E+04  1.682887E+02 -3.305973E+02
       116   4  1.866834E+05  2.972066E+04  1.471365E+03  7.437344E+04  1.478780E+03 -6.409408E+02
       116   5  1.879369E+05  2.823290E+04  7.936209E+02  7.290603E+04  9.484772E+02 -4.412549E+02
       116   6  1.866624E+05  2.957168E+04  4.598809E+02  7.442952E+04  4.165196E+02 -2.372121E+02
       116   7  1.646822E+05  2.146990E+04 -4.056855E+03  6.831520E+04  1.720899E+03 -5.498629E+02
       116   8  1.726319E+05  2.251047E+04 -3.063763E+03  6.871306E+04  1.193652E+03 -3.490233E+02
       116   9  1.780530E+05  2.637701E+04 -1.729049E+03  7.210187E+04  6.647468E+02 -1.438284E+02
       116  10  2.086850E+05  3.797141E+04  6.999518E+03  8.043185E+04 -8.501637E-11 -1.355590E-09
       116  11  2.032422E+05  3.395535E+04  4.650976E+03  7.709909E+04 -2.089782E-09 -2.776505E-09
       116  12  1.952719E+05  3.276635E+04  2.648804E+03  7.675720E+04  7.061017E-10  5.256395E-10
       116  13  1.866834E+05  2.972066E+04  1.471360E+03  7.437344E+04  2.028727E-09 -1.783538E-09
       116  14  1.879369E+05  2.823290E+04  7.936189E+02  7.290603E+04 -2.737784E-09 -4.022844E-10
       116  15  1.866624E+05  2.957168E+04  4.598805E+02  7.442952E+04 -9.052018E-10  2.594156E-09
       116  16  1.646822E+05  2.146990E+04 -4.056861E+03  6.831520E+04 -1.147514E-09 -2.145738E-09
       116  17  1.726319E+05  2.251046E+04 -3.063766E+03  6.871306E+04 -1.640697E-09  2.396041E-09
       116  18  1.780530E+05  2.637701E+04 -1.729050E+03  7.210187E+04  6.247318E-10  3.614291E-10
       116  19  2.086850E+05  3.797142E+04  6.999522E+03  8.043185E+04 -1.236653E+03  7.320219E+02
       116  20  2.032422E+05  3.395535E+04  4.650978E+03  7.709909E+04 -7.032962E+02  5.334888E+02
       116  21  1.952719E+05  3.276635E+04  2.648805E+03  7.675720E+04 -1.682887E+02  3.305973E+02
       116  22  1.866834E+05  2.972066E+04  1.471365E+03  7.437344E+04 -1.478780E+03  6.409408E+02
       116  23  1.879369E+05  2.823290E+04  7.936209E+02  7.290603E+04 -9.484772E+02  4.412549E+02
       116  24  1.866624E+05  2.957168E+04  4.598809E+02  7.442952E+04 -4.165196E+02  2.372121E+02
       116  25  1.646822E+05  2.146990E+04 -4.056855E+03  6.831520E+04 -1.720899E+03  5.498629E+02
       116  26  1.726319E+05  2.251047E+04 -3.063763E+03  6.871306E+04 -1.193652E+03  3.490233E+02
       116  27  1.780530E+05  2.637701E+04 -1.729049E+03  7.210187E+04 -6.647468E+02  1.438284E+02
       117   1  1.886359E+05  3.032223E+04  8.393648E+02  7.495910E+04  2.409172E+01 -1.486523E+02
       117   2  1.832323E+05  2.648000E+04 -9.456918E+02  7.160970E+04 -2.322639E+02  1.593961E+02
       117   3  1.752059E+05  2.530009E+04 -2.635128E+03  7.127989E+04 -4.887092E+02  4.677102E+02
       117   4  1.866487E+05  2.958679E+04  3.635769E+02  7.441649E+04  2.709071E+02 -5.579920E+01
       117   5  1.879594E+05  2.825100E+04  2.462833E+02  7.290845E+04  1.473451E+01  2.523165E+02
       117   6  1.866473E+05  2.957750E+04  2.244704E+02  7.441997E+04 -2.415300E+02  5.606980E+02
       117   7  1.846614E+05  2.885136E+04 -1.122089E+02  7.387388E+04  5.177206E+02  3.705325E+01
       117   8  1.926866E+05  3.002201E+04  1.438257E+03  7.420721E+04  2.617350E+02  3.452376E+02
       117   9  1.980889E+05  3.385492E+04  3.084072E+03  7.756012E+04  5.655073E+00  6.536881E+02
       117  10  1.886359E+05  3.032223E+04  8.393648E+02  7.495910E+04  4.131203E-09  3.487974E-09
       117  11  1.832323E+05  2.648000E+04 -9.456919E+02  7.160970E+04 -3.195872E-09  4.729616E-09
       117  12  1.752059E+05  2.530009E+04 -2.635129E+03  7.127989E+04 -5.507421E-09 -3.693493E-10
       117  13  1.866487E+05  2.958679E+04  3.635767E+02  7.441649E+04 -1.220932E-09  3.943573E-09
       117  14  1.879594E+05  2.825100E+04  2.462832E+02  7.290845E+04 -4.966434E-09 -2.533453E-09
       117  15  1.866473E+05  2.957749E+04  2.244697E+02  7.441997E+04 -3.747807E-09 -1.245439E-09
       117  16  1.846614E+05  2.885136E+04 -1.122094E+02  7.387388E+04 -5.978012E-09 -4.872646E-09
       117  17  1.926866E+05  3.002201E+04  1.438256E+03  7.420721E+04 -6.090401E-09 -3.672240E-09
       117  18  1.980889E+05  3.385492E+04  3.084071E+03  7.756012E+04  3.487454E-09 -2.515619E-10
       117  19  1.886359E+05  3.032223E+04  8.393648E+02  7.495910E+04 -2.409172E+01  1.486523E+02
       117  20  1.832323E+05  2.648000E+04 -9.456918E+02  7.160970E+04  2.322639E+02 -1.593961E+02
       117  21  1.752059E+05  2.530009E+04 -2.635128E+03  7.127989E+04  4.887092E+02 -4.677102E+02
       117  22  1.866487E+05  2.958679E+04  3.635769E+02  7.441649E+04 -2.709071E+02  5.579920E+01
       117  23  1.879594E+05  2.825100E+04  2.462833E+02  7.290845E+04 -1.473451E+01 -2.523165E+02
       117  24  1.866473E+05  2.957750E+04  2.244704E+02  7.441997E+04  2.415300E+02 -5.606980E+02
       117  25  1.846614E+05  2.885136E+04 -1.122089E+02  7.387388E+04 -5.177206E+02 -3.705325E+01
       117  26  1.926866E+05  3.002201E+04  1.438257E+03  7.420721E+04 -2.617350E+02 -3.452376E+02
       117  27  1.980889E+05  3.385492E+04  3.084072E+03  7.756012E+04 -5.655073E+00 -6.536881E+02
       118   1  1.685983E+05  2.282465E+04 -4.331175E+03  6.947823E+04 -6.052547E+02  6.596014E+02
       118   2  1.631850E+05  1.898598E+04 -5.896507E+03  6.612050E+04 -9.117273E+02  9.493856E+02
       118   3  1.551570E+05  1.782285E+04 -7.326351E+03  6.578610E+04 -1.218153E+03  1.239122E+03
       118   4  1.866487E+05  2.957784E+04  2.424641E+02  7.442176E+04 -3.579735E+02  7.526256E+02
       118   5  1.879572E+05  2.824808E+04  3.466588E+02  7.290709E+04 -6.644937E+02  1.042386E+03
       118   6  1.866509E+05  2.959386E+04  5.863658E+02  7.441571E+04 -9.709686E+02  1.332097E+03
       118   7  2.046995E+05  3.633104E+04  4.816076E+03  7.936542E+04 -1.106845E+02  8.456528E+02
       118   8  2.127300E+05  3.751021E+04  6.589761E+03  7.969390E+04 -4.172498E+02  1.135390E+03
       118   9  2.181456E+05  4.136488E+04  8.498968E+03  8.304567E+04 -7.237714E+02  1.425078E+03
       118  10  1.685983E+05  2.282465E+04 -4.331176E+03  6.947823E+04 -8.601565E-10  1.341362E-09
       118  11  1.631850E+05  1.898598E+04 -5.896510E+03  6.612050E+04 -2.334021E-09 -1.176142E-09
       118  12  1.551570E+05  1.782285E+04 -7.326357E+03  6.578610E+04 -1.170914E-09  1.936900E-10
       118  13  1.866487E+05  2.957784E+04  2.424628E+02  7.442176E+04 -7.558781E-10  2.884858E-11
       118  14  1.879572E+05  2.824808E+04  3.466559E+02  7.290709E+04 -3.202105E-09 -1.602173E-10
       118  15  1.866509E+05  2.959385E+04  5.863607E+02  7.441571E+04 -6.617631E-10 -1.645811E-09
       118  16  2.046995E+05  3.633104E+04  4.816075E+03  7.936542E+04  3.111169E-09 -1.949020E-10
       118  17  2.127300E+05  3.751020E+04  6.589758E+03  7.969390E+04  1.395480E-09 -7.488847E-10
       118  18  2.181456E+05  4.136488E+04  8.498964E+03  8.304567E+04 -2.572693E-10 -3.482616E-09
       118  19  1.685983E+05  2.282465E+04 -4.331175E+03  6.947823E+04  6.052547E+02 -6.596014E+02
       118  20  1.631850E+05  1.898598E+04 -5.896507E+03  6.612050E+04  9.117273E+02 -9.493856E+02
       118  21  1.551570E+05  1.782285E+04 -7.326351E+03  6.578610E+04  1.218153E+03 -1.239122E+03
       118  22  1.866487E+05  2.957784E+04  2.424641E+02  7.442176E+04  3.579735E+02 -7.526256E+02
       118  23  1.879572E+05  2.824808E+04  3.466588E+02  7.290709E+04  6.644937E+02 -1.042386E+03
       118  24  1.866509E+05  2.959386E+04  5.863658E+02  7.441571E+04  9.709686E+02 -1.332097E+03
       118  25  2.046995E+05  3.633104E+04  4.816076E+03  7.936542E+04  1.106845E+02 -8.456528E+02
       118  26  2.127300E+05  3.751021E+04  6.589761E+03  7.969390E+04  4.172498E+02 -1.135390E+03
       118  27  2.181456E+05  4.136488E+04  8.498968E+03  8.304567E+04  7.237714E+02 -1.425078E+03
       119   1  1.485271E+05  1.534675E+04 -8.865598E+03  6.403710E+04 -1.409676E+03  1.404148E+03
       119   2  1.430643E+05  1.144102E+04 -9.946558E+03  6.061036E+04 -2.221487E+03  1.503959E+03
       119   3  1.351509E+05  1.050255E+04 -1.044053E+04  6.016471E+04 -3.030951E+03  1.597606E+03
       119   4  1.866747E+05  2.956911E+04  7.646701E+02  7.444002E+04 -1.160231E+03  1.497969E+03
       119   5  1.879177E+05  2.821399E+04  1.358376E+03  7.290090E+04 -1.976388E+03  1.596135E+03
       119   6  1.867110E+05  2.982705E+04  2.542517E+03  7.434290E+04 -2.790204E+03  1.688135E+03
       119   7  2.248239E+05  4.379162E+04  1.039487E+04  8.484356E+04 -9.107679E+02  1.591797E+03
       119   8  2.327731E+05  4.498714E+04  1.266318E+04  8.519227E+04 -1.731268E+03  1.688319E+03
       119   9  2.382736E+05  4.915172E+04  1.552536E+04  8.852215E+04 -2.549435E+03  1.778673E+03
       119  10  1.485271E+05  1.534675E+04 -8.865606E+03  6.403710E+04 -2.013063E-09 -1.790687E-09
       119  11  1.430643E+05  1.144101E+04 -9.946571E+03  6.061036E+04 -5.268033E-09 -2.052848E-09
       119  12  1.351509E+05  1.050255E+04 -1.044056E+04  6.016471E+04 -2.100029E-09  2.531138E-09
       119  13  1.866747E+05  2.956911E+04  7.646633E+02  7.444002E+04 -8.786188E-10 -1.595568E-09
       119  14  1.879177E+05  2.821399E+04  1.358364E+03  7.290090E+04 -6.536417E-09 -2.617680E-09
       119  15  1.867110E+05  2.982704E+04  2.542497E+03  7.434290E+04 -1.275334E-09 -6.832393E-11
       119  16  2.248239E+05  4.379162E+04  1.039486E+04  8.484356E+04 -1.493305E-09  2.305055E-10
       119  17  2.327731E+05  4.498713E+04  1.266317E+04  8.519227E+04 -3.789391E-09  3.493000E-09
       119  18  2.382736E+05  4.915172E+04  1.552534E+04  8.852216E+04 -7.181552E-10 -2.784248E-09
       119  19  1.485271E+05  1.534675E+04 -8.865598E+03  6.403710E+04  1.409676E+03 -1.404148E+03
       119  20  1.430643E+05  1.144102E+04 -9.946558E+03  6.061036E+04  2.221487E+03 -1.503959E+03
       119  21  1.351509E+05  1.050255E+04 -1.044053E+04  6.016471E+04  3.030951E+03 -1.597606E+03
       119  22  1.866747E+05  2.956911E+04  7.646701E+02  7.444002E+04  1.160231E+03 -1.497969E+03
       119  23  1.879177E+05  2.821399E+04  1.358376E+03  7.290090E+04  1.976388E+03 -1.596135E+03
       119  24  1.867110E+05  2.982705E+04  2.542517E+03  7.434290E+04  2.790204E+03 -1.688135E+03
       119  25  2.248239E+05  4.379162E+04  1.039487E+04  8.484356E+04  9.107679E+02 -1.591797E+03
       119  26  2.327731E+05  4.498714E+04  1.266318E+04  8.519227E+04  1.731268E+03 -1.688319E+03
       119  27  2.382736E+05  4.915172E+04  1.552536E+04  8.852215E+04  2.549435E+03 -1.778673E+03
       120   1  1.282679E+05  8.052231E+03 -1.138584E+04  5.910045E+04 -3.624173E+03  1.629272E+03
       120   2  1.227807E+05  3.370289E+03 -1.049349E+04  5.481108E+04 -6.682215E+03  8.668364E+02
       120   3  1.164519E+05  5.204583E+03 -6.376677E+03  5.267164E+04 -9.692046E+03 -2.361739E+01
       120   4  1.869049E+05  2.943631E+04  3.313387E+03  7.460304E+04 -3.343118E+03  1.734955E+03
       120   5  1.875613E+05  2.790178E+04  5.895074E+03  7.287650E+04 -6.490678E+03  9.388335E+02
       120   6  1.873938E+05  3.290086E+04  1.177186E+04  7.329981E+04 -9.590073E+03  1.467435E+01
       120   7  2.455450E+05  5.082049E+04  1.801228E+04  9.010688E+04 -3.062035E+03  1.840648E+03
       120   8  2.523461E+05  5.243358E+04  2.228330E+04  9.094363E+04 -6.299119E+03  1.010839E+03
       120   9  2.583409E+05  6.059770E+04  2.992007E+04  9.393024E+04 -9.488087E+03  5.297153E+01
       120  10  1.282679E+05  8.052224E+03 -1.138587E+04  5.910045E+04  1.689303E-09  2.973663E-09
       120  11  1.227806E+05  3.370277E+03 -1.049357E+04  5.481108E+04 -1.332225E-09 -1.606734E-09
       120  12  1.164518E+05  5.204557E+03 -6.376854E+03  5.267164E+04 -1.662255E-09  1.054421E-10
       120  13  1.869049E+05  2.943631E+04  3.313360E+03  7.460305E+04 -1.491156E-09 -1.978428E-09
       120  14  1.875613E+05  2.790177E+04  5.894993E+03  7.287650E+04  3.595279E-10 -3.917070E-09
       120  15  1.873937E+05  3.290084E+04  1.177169E+04  7.329981E+04 -1.012297E-09  9.867245E-11
       120  16  2.455450E+05  5.082049E+04  1.801225E+04  9.010688E+04 -1.926741E-09 -6.205601E-09
       120  17  2.523461E+05  5.243357E+04  2.228322E+04  9.094364E+04  1.085781E-09 -2.382555E-09
       120  18  2.583408E+05  6.059768E+04  2.991990E+04  9.393024E+04  1.281032E-09 -4.911495E-10
       120  19  1.282679E+05  8.052231E+03 -1.138584E+04  5.910045E+04  3.624173E+03 -1.629272E+03
       120  20  1.227807E+05  3.370289E+03 -1.049349E+04  5.481108E+04  6.682215E+03 -8.668364E+02
       120  21  1.164519E+05  5.204583E+03 -6.376677E+03  5.267164E+04  9.692046E+03  2.361739E+01
       120  22  1.869049E+05  2.943631E+04  3.313387E+03  7.460304E+04  3.343118E+03 -1.734955E+03
       120  23  1.875613E+05  2.790178E+04  5.895074E+03  7.287650E+04  6.490678E+03 -9.388335E+02
       120  24  1.873938E+05  3.290086E+04  1.177186E+04  7.329981E+04  9.590073E+03 -1.467435E+01
       120  25  2.455450E+05  5.082049E+04  1.801228E+04  9.010688E+04  3.062035E+03 -1.840648E+03
       120  26  2.523461E+05  5.243358E+04  2.228330E+04  9.094363E+04  6.299119E+03 -1.010839E+03
       120  27  2.583409E+05  6.059770E+04  2.992007E+04  9.393024E+04  9.488087E+03 -5.297153E+01
       121   1  1.061540E+05  2.971378E+03 -5.057173E+03  6.019926E+04 -1.262525E+04 -5.423045E+02
       121   2  1.026026E+05 -1.144181E+04  3.597993E+03  4.483217E+04 -2.450172E+04 -4.993458E+03
       121   3  1.160630E+05  2.480069E+04  3.425237E+04  2.001208E+04 -3.543565E+04 -1.195146E+04
       121   4  1.892982E+05  2.766806E+04  1.467732E+04  7.640382E+04 -1.174432E+04 -2.109724E+02
       121   5  1.837668E+05  2.444756E+04  2.516937E+04  7.275419E+04 -2.536947E+04 -5.319986E+03
       121   6  1.955903E+05  7.222419E+04  5.904361E+04  5.965259E+04 -3.805203E+04 -1.293619E+04
       121   7  2.724494E+05  5.236473E+04  3.441141E+04  9.261009E+04 -1.086326E+04  1.203863E+02
       121   8  2.649370E+05  6.033791E+04  4.674003E+04  1.006796E+05 -2.623733E+04 -5.646578E+03
       121   9  2.751234E+05  1.196509E+05  8.383394E+04  9.929801E+04 -4.066873E+04 -1.392122E+04
       121  10  1.061538E+05  2.971335E+03 -5.057473E+03  6.019926E+04  2.274655E-09  2.320555E-09
       121  11  1.026020E+05 -1.144199E+04  3.596818E+03  4.483207E+04  1.072271E-09 -9.491674E-10
       121  12  1.160616E+05  2.480020E+04  3.424974E+04  2.001174E+04 -1.020587E-09 -1.615502E-09
       121  13  1.892980E+05  2.766802E+04  1.467706E+04  7.640381E+04 -1.092536E-10 -2.196498E-09
       121  14  1.837661E+05  2.444736E+04  2.516811E+04  7.275408E+04  9.850628E-10 -1.756560E-09
       121  15  1.955887E+05  7.222362E+04  5.904058E+04  5.965219E+04  2.286951E-10 -8.860027E-10
       121  16  2.724492E+05  5.236470E+04  3.441119E+04  9.261010E+04 -2.707486E-09 -3.598094E-09
       121  17  2.649363E+05  6.033769E+04  4.673868E+04  1.006795E+05 -6.686159E-10 -3.355753E-09
       121  18  2.751216E+05  1.196502E+05  8.383047E+04  9.929755E+04  9.163046E-10  9.734908E-11
       121  19  1.061540E+05  2.971378E+03 -5.057173E+03  6.019926E+04  1.262525E+04  5.423045E+02
       121  20  1.026026E+05 -1.144181E+04  3.597993E+03  4.483217E+04  2.450172E+04  4.993458E+03
       121  21  1.160630E+05  2.480069E+04  3.425237E+04  2.001208E+04  3.543565E+04  1.195146E+04
       121  22  1.892982E+05  2.766806E+04  1.467732E+04  7.640382E+04  1.174432E+04  2.109724E+02
       121  23  1.837668E+05  2.444756E+04  2.516937E+04  7.275419E+04  2.536947E+04  5.319986E+03
       121  24  1.955903E+05  7.222419E+04  5.904361E+04  5.965259E+04  3.805203E+04  1.293619E+04
       121  25  2.724494E+05  5.236473E+04  3.441141E+04  9.261009E+04  1.086326E+04 -1.203863E+02
       121  26  2.649370E+05  6.033791E+04  4.674003E+04  1.006796E+05  2.623733E+04  5.646578E+03
       121  27  2.751234E+05  1.196509E+05  8.383394E+04  9.929801E+04  4.066873E+04  1.392122E+04
       122   1 -9.514061E+01 -2.721139E+05 -1.326912E+03 -2.990940E+01 -1.594506E+01  1.060613E+02
       122   2 -1.681798E+02 -2.725652E+05 -1.734495E+03  9.719468E+01 -3.116726E+01  8.621706E+02
       122   3 -6.728738E+02 -2.732237E+05 -2.742564E+03 -1.540390E+02 -5.432049E+01  1.618284E+03
       122   4 -1.157478E+01 -2.717756E+05 -1.247991E+03 -8.400888E+01 -1.594967E+01  1.119470E+02
       122   5  5.306944E+01 -2.716717E+05 -1.521999E+03  1.050412E+02 -3.117526E+01  8.724337E+02
       122   6 -3.146987E+02 -2.717757E+05 -2.399533E+03 -8.424545E+01 -5.433173E+01  1.632925E+03
       122   7  7.199105E+01 -2.714373E+05 -1.169070E+03 -1.381084E+02 -1.595428E+01  1.178328E+02
       122   8  2.743187E+02 -2.707781E+05 -1.309504E+03  1.128878E+02 -3.118326E+01  8.826968E+02
       122   9  4.347628E+01 -2.703276E+05 -2.056501E+03 -1.445177E+01 -5.434296E+01  1.647566E+03
       122  10 -9.514061E+01 -2.721139E+05 -1.326912E+03 -2.990940E+01 -3.993976E-10 -1.146844E-09
       122  11 -1.681800E+02 -2.725652E+05 -1.734496E+03  9.719471E+01 -1.017104E-09 -3.146728E-09
       122  12 -6.728745E+02 -2.732238E+05 -2.742569E+03 -1.540389E+02 -1.399261E-09 -2.324461E-09
       122  13 -1.157478E+01 -2.717756E+05 -1.247991E+03 -8.400888E+01 -9.635815E-10  2.368588E-11
       122  14  5.306923E+01 -2.716717E+05 -1.522001E+03  1.050413E+02 -1.139615E-09 -1.929585E-09
       122  15 -3.146994E+02 -2.717757E+05 -2.399538E+03 -8.424538E+01  3.739091E-10 -5.234673E-10
       122  16  7.199104E+01 -2.714373E+05 -1.169070E+03 -1.381084E+02 -1.704987E-09  1.977869E-09
       122  17  2.743184E+02 -2.707781E+05 -1.309506E+03  1.128878E+02  6.110593E-10  4.588957E-09
       122  18  4.347555E+01 -2.703276E+05 -2.056507E+03 -1.445170E+01 -5.271387E-10  4.230443E-09
       122  19 -9.514061E+01 -2.721139E+05 -1.326912E+03 -2.990940E+01  1.594506E+01 -1.060613E+02
       122  20 -1.681798E+02 -2.725652E+05 -1.734495E+03  9.719468E+01  3.116726E+01 -8.621706E+02
       122  21 -6.728738E+02 -2.732237E+05 -2.742564E+03 -1.540390E+02  5.432049E+01 -1.618284E+03
       122  22 -1.157478E+01 -2.717756E+05 -1.247991E+03 -8.400888E+01  1.594967E+01 -1.119470E+02
       122  23  5.306944E+01 -2.716717E+05 -1.521999E+03  1.050412E+02  3.117526E+01 -8.724337E+02
       122  24 -3.146987E+02 -2.717757E+05 -2.399533E+03 -8.424545E+01  5.433173E+01 -1.632925E+03
       122  25  7.199105E+01 -2.714373E+05 -1.169070E+03 -1.381084E+02  1.595428E+01 -1.178328E+02
       122  26  2.743187E+02 -2.707781E+05 -1.309504E+03  1.128878E+02  3.118326E+01 -8.826968E+02
       122  27  4.347628E+01 -2.703276E+05 -2.056501E+03 -1.445177E+01  5.434296E+01 -1.647566E+03
       123   1 -3.538387E+02 -2.741485E+05 -3.492876E+03  4.074403E+02 -7.067274E+01  2.094304E+03
       123   2 -2.206436E+02 -2.740376E+05 -5.536959E+03 -1.447146E+02 -9.513408E+01  4.600888E+03
       123   3 -4.101392E+03 -2.752575E+05 -1.021709E+04 -1.075917E+03 -1.122600E+02  7.107470E+03
       123   4  1.731953E+02 -2.720250E+05 -2.986455E+03 -8.340447E+01 -7.068565E+01  2.108753E+03
       123   5  4.418158E+02 -2.713603E+05 -4.900429E+03  1.047683E+02 -9.514029E+01  4.611295E+03
       123   6 -3.302797E+03 -2.720257E+05 -9.447632E+03 -8.610672E+01 -1.122536E+02  7.113838E+03
       123   7  7.002299E+02 -2.699015E+05 -2.480034E+03 -5.742509E+02 -7.069857E+01  2.123202E+03
       123   8  1.104275E+03 -2.686830E+05 -4.263899E+03  3.542522E+02 -9.514650E+01  4.621703E+03
       123   9 -2.504199E+03 -2.687939E+05 -8.678177E+03  9.037089E+02 -1.122471E+02  7.120207E+03
       123  10 -3.538399E+02 -2.741485E+05 -3.492885E+03  4.074404E+02 -1.790018E-09 -1.655862E-09
       123  11 -2.206493E+02 -2.740376E+05 -5.536999E+03 -1.447142E+02 -8.246551E-10 -2.574856E-09
       123  12 -4.101406E+03 -2.752575E+05 -1.021718E+04 -1.075916E+03 -3.813252E-10 -4.522166E-09
       123  13  1.731941E+02 -2.720250E+05 -2.986463E+03 -8.340435E+01  8.150021E-10 -5.348448E-10
       123  14  4.418101E+02 -2.713603E+05 -4.900469E+03  1.047686E+02 -1.443710E-09  4.261650E-10
       123  15 -3.302811E+03 -2.720257E+05 -9.447727E+03 -8.610607E+01 -5.557044E-10 -8.933043E-10
       123  16  7.002287E+02 -2.699015E+05 -2.480043E+03 -5.742508E+02 -1.942230E-09 -2.075617E-10
       123  17  1.104269E+03 -2.686830E+05 -4.263939E+03  3.542526E+02 -1.350472E-09  3.809361E-09
       123  18 -2.504213E+03 -2.687940E+05 -8.678273E+03  9.037095E+02  9.135298E-10  3.265757E-09
       123  19 -3.538387E+02 -2.741485E+05 -3.492876E+03  4.074403E+02  7.067274E+01 -2.094304E+03
       123  20 -2.206436E+02 -2.740376E+05 -5.536959E+03 -1.447146E+02  9.513408E+01 -4.600888E+03
       123  21 -4.101392E+03 -2.752575E+05 -1.021709E+04 -1.075917E+03  1.122600E+02 -7.107470E+03
       123  22  1.731953E+02 -2.720250E+05 -2.986455E+03 -8.340447E+01  7.068565E+01 -2.108753E+03
       123  23  4.418158E+02 -2.713603E+05 -4.900429E+03  1.047683E+02  9.514029E+01 -4.611295E+03
       123  24 -3.302797E+03 -2.720257E+05 -9.447632E+03 -8.610672E+01  1.122536E+02 -7.113838E+03
       123  25  7.002299E+02 -2.699015E+05 -2.480034E+03 -5.742509E+02  7.069857E+01 -2.123202E+03
       123  26  1.104275E+03 -2.686830E+05 -4.263899E+03  3.542522E+02  9.514650E+01 -4.621703E+03
       123  27 -2.504199E+03 -2.687939E+05 -8.678177E+03  9.037089E+02  1.122471E+02 -7.120207E+03
       124   1  8.169844E+02 -2.781689E+05 -1.251860E+04  4.573240E+03 -1.433761E+02  8.853977E+03
       124   2  3.197232E+03 -2.730071E+05 -1.970443E+04 -3.269669E+03 -1.675952E+02  1.896150E+04
       124   3 -3.496434E+04 -2.792992E+05 -4.360817E+04 -1.150614E+04 -7.449432E+01  2.906898E+04
       124   4  1.790701E+03 -2.742719E+05 -1.159132E+04 -7.916340E+01 -1.434745E+02  8.895405E+03
       124   5  4.293605E+03 -2.685528E+05 -1.864675E+04  1.040115E+02 -1.674739E+02  1.893811E+04
       124   6 -3.373414E+04 -2.742765E+05 -4.237500E+04 -1.065813E+02 -7.389217E+01  2.898078E+04
       124   7  2.764497E+03 -2.703748E+05 -1.066404E+04 -4.731596E+03 -1.435736E+02  8.936834E+03
       124   8  5.390019E+03 -2.640985E+05 -1.758906E+04  3.477716E+03 -1.673528E+02  1.891472E+04
       124   9 -3.250345E+04 -2.692534E+05 -4.114177E+04  1.129307E+04 -7.329326E+01  2.889258E+04
       124  10  8.169634E+02 -2.781689E+05 -1.251875E+04  4.573241E+03  7.704496E-10  5.305660E-09
       124  11  3.197136E+03 -2.730075E+05 -1.970510E+04 -3.269666E+03  5.305643E-10  1.528884E-09
       124  12 -3.496457E+04 -2.793001E+05 -4.360976E+04 -1.150614E+04  5.011098E-11  6.343077E-10
       124  13  1.790679E+03 -2.742720E+05 -1.159147E+04 -7.916237E+01  2.568475E-09 -1.054253E-09
       124  14  4.293508E+03 -2.685532E+05 -1.864742E+04  1.040140E+02 -5.506570E-10 -1.466414E-09
       124  15 -3.373437E+04 -2.742774E+05 -4.237658E+04 -1.065796E+02 -1.155337E-09  1.084111E-09
       124  16  2.764476E+03 -2.703749E+05 -1.066419E+04 -4.731595E+03  1.280315E-09 -3.420992E-09
       124  17  5.389922E+03 -2.640989E+05 -1.758973E+04  3.477719E+03  1.229729E-09 -8.855670E-10
       124  18 -3.250368E+04 -2.692543E+05 -4.114334E+04  1.129307E+04  5.045000E-10  1.689590E-09
       124  19  8.169844E+02 -2.781689E+05 -1.251860E+04  4.573240E+03  1.433761E+02 -8.853977E+03
       124  20  3.197232E+03 -2.730071E+05 -1.970443E+04 -3.269669E+03  1.675952E+02 -1.896150E+04
       124  21 -3.496434E+04 -2.792992E+05 -4.360817E+04 -1.150614E+04  7.449432E+01 -2.906898E+04
       124  22  1.790701E+03 -2.742719E+05 -1.159132E+04 -7.916340E+01  1.434745E+02 -8.895405E+03
       124  23  4.293605E+03 -2.685528E+05 -1.864675E+04  1.040115E+02  1.674739E+02 -1.893811E+04
       124  24 -3.373414E+04 -2.742765E+05 -4.237500E+04 -1.065813E+02  7.389217E+01 -2.898078E+04
       124  25  2.764497E+03 -2.703748E+05 -1.066404E+04 -4.731596E+03  1.435736E+02 -8.936834E+03
       124  26  5.390019E+03 -2.640985E+05 -1.758906E+04  3.477716E+03  1.673528E+02 -1.891472E+04
       124  27 -3.250345E+04 -2.692534E+05 -4.114177E+04  1.129307E+04  7.329326E+01 -2.889258E+04
       125   1 -2.977364E+06 -9.511766E+05 -4.728062E+05 -1.088027E+06 -1.786699E+05 -4.128675E+04
       125   2 -2.884475E+06 -8.181780E+05 -3.352303E+05 -1.053719E+06 -1.166603E+05  4.298002E+04
       125   3 -2.808288E+06 -7.591003E+05 -2.745687E+05 -1.025287E+06 -3.978066E+04  8.795038E+04
       125   4 -1.526750E+06 -3.610694E+05 -8.900969E+04 -6.453641E+05 -6.612864E+04  1.167063E+03
       125   5 -1.519491E+06 -2.956865E+05 -4.105557E+04 -6.553882E+05 -6.473893E+04  6.253652E+04
       125   6 -1.516817E+06 -2.920973E+05 -2.173678E+04 -6.713071E+05 -4.851257E+04  8.464019E+04
       125   7 -7.408222E+04  2.292667E+05  2.946482E+05 -2.017290E+05  4.669907E+04  4.374901E+04
       125   8 -1.525991E+05  2.269977E+05  2.530202E+05 -2.562335E+05 -1.269422E+04  8.214361E+04
       125   9 -2.235950E+05  1.750517E+05  2.310246E+05 -3.166406E+05 -5.726417E+04  8.132282E+04
       125  10 -2.977399E+06 -9.511871E+05 -4.728697E+05 -1.088033E+06  3.980805E-10  4.012828E-10
       125  11 -2.884490E+06 -8.181836E+05 -3.352594E+05 -1.053715E+06  1.355976E-09 -9.136594E-10
       125  12 -2.808291E+06 -7.591090E+05 -2.745862E+05 -1.025285E+06  1.539102E-10 -4.148370E-10
       125  13 -1.526755E+06 -3.610706E+05 -8.901793E+04 -6.453640E+05 -1.160643E-09  8.059709E-10
       125  14 -1.519496E+06 -2.956919E+05 -4.107079E+04 -6.553849E+05 -1.530297E-11  5.500108E-11
       125  15 -1.516822E+06 -2.921056E+05 -2.175465E+04 -6.713038E+05 -1.222303E-09 -1.645893E-10
       125  16 -7.408507E+04  2.292640E+05  2.946405E+05 -2.017306E+05 -1.163843E-09 -1.548706E-09
       125  17 -1.526011E+05  2.269904E+05  2.530073E+05 -2.562326E+05 -6.852755E-10 -1.141160E-09
       125  18 -2.236002E+05  1.750437E+05  2.310060E+05 -3.166368E+05 -2.495700E-10 -9.437565E-10
       125  19 -2.977364E+06 -9.511766E+05 -4.728062E+05 -1.088027E+06  1.786699E+05  4.128675E+04
       125  20 -2.884475E+06 -8.181780E+05 -3.352303E+05 -1.053719E+06  1.166603E+05 -4.298002E+04
       125  21 -2.808288E+06 -7.591003E+05 -2.745687E+05 -1.025287E+06  3.978066E+04 -8.795038E+04
       125  22 -1.526750E+06 -3.610694E+05 -8.900969E+04 -6.453641E+05  6.612864E+04 -1.167063E+03
       125  23 -1.519491E+06 -2.956865E+05 -4.105557E+04 -6.553882E+05  6.473893E+04 -6.253652E+04
       125  24 -1.516817E+06 -2.920973E+05 -2.173678E+04 -6.713071E+05  4.851257E+04 -8.464019E+04
       125  25 -7.408222E+04  2.292667E+05  2.946482E+05 -2.017290E+05 -4.669907E+04 -4.374901E+04
       125  26 -1.525991E+05  2.269977E+05  2.530202E+05 -2.562335E+05  1.269422E+04 -8.214361E+04
       125  27 -2.235950E+05  1.750517E+05  2.310246E+05 -3.166406E+05  5.726417E+04 -8.132282E+04
       126   1 -2.734359E+06 -7.412973E+05 -2.551485E+05 -1.010998E+06 -4.233272E+04  8.285883E+04
       126   2 -2.644995E+06 -6.926462E+05 -2.237402E+05 -9.740773E+05 -3.213215E+04  8.324795E+04
       126   3 -2.540319E+06 -6.645362E+05 -1.998518E+05 -9.565912E+05 -2.079655E+04  8.060939E+04
       126   4 -1.513768E+06 -2.940403E+05 -1.649654E+04 -6.700330E+05 -4.467544E+04  8.195765E+04
       126   5 -1.521623E+06 -2.826876E+05 -8.727785E+03 -6.608793E+05 -3.914016E+04  8.059401E+04
       126   6 -1.513246E+06 -2.909429E+05 -4.763014E+03 -6.711612E+05 -3.247253E+04  7.620514E+04
       126   7 -2.916253E+05  1.533527E+05  2.220882E+05 -3.284425E+05 -4.702312E+04  8.105463E+04
       126   8 -3.969372E+05  1.273849E+05  2.062300E+05 -3.471540E+05 -4.616177E+04  7.793496E+04
       126   9 -4.850786E+05  8.274300E+04  1.902802E+05 -3.852936E+05 -4.416918E+04  7.179315E+04
       126  10 -2.734363E+06 -7.413052E+05 -2.551647E+05 -1.010996E+06  3.922880E-10 -3.950951E-10
       126  11 -2.644998E+06 -6.926540E+05 -2.237551E+05 -9.740752E+05 -6.782866E-10  7.331211E-10
       126  12 -2.540321E+06 -6.645433E+05 -1.998648E+05 -9.565898E+05  7.353855E-10  2.383926E-10
       126  13 -1.513772E+06 -2.940480E+05 -1.651290E+04 -6.700301E+05 -5.885805E-10 -3.068425E-10
       126  14 -1.521627E+06 -2.826950E+05 -8.742858E+03 -6.608768E+05  6.896955E-10 -1.595636E-09
       126  15 -1.513249E+06 -2.909494E+05 -4.775898E+03 -6.711592E+05  1.574247E-10 -6.829333E-10
       126  16 -2.916294E+05  1.533451E+05  2.220717E+05 -3.284395E+05  1.767484E-10  5.240842E-10
       126  17 -3.969411E+05  1.273778E+05  2.062146E+05 -3.471511E+05 -6.511813E-11 -3.835721E-10
       126  18 -4.850821E+05  8.273695E+04  1.902669E+05 -3.852910E+05 -6.952394E-10 -6.091037E-10
       126  19 -2.734359E+06 -7.412973E+05 -2.551485E+05 -1.010998E+06  4.233272E+04 -8.285883E+04
       126  20 -2.644995E+06 -6.926462E+05 -2.237402E+05 -9.740773E+05  3.213215E+04 -8.324795E+04
       126  21 -2.540319E+06 -6.645362E+05 -1.998518E+05 -9.565912E+05  2.079655E+04 -8.060939E+04
       126  22 -1.513768E+06 -2.940403E+05 -1.649654E+04 -6.700330E+05  4.467544E+04 -8.195765E+04
       126  23 -1.521623E+06 -2.826876E+05 -8.727785E+03 -6.608793E+05  3.914016E+04 -8.059401E+04
       126  24 -1.513246E+06 -2.909429E+05 -4.763014E+03 -6.711612E+05  3.247253E+04 -7.620514E+04
       126  25 -2.916253E+05  1.533527E+05  2.220882E+05 -3.284425E+05  4.702312E+04 -8.105463E+04
       126  26 -3.969372E+05  1.273849E+05  2.062300E+05 -3.471540E+05  4.616177E+04 -7.793496E+04
       126  27 -4.850786E+05  8.274300E+04  1.902802E+05 -3.852936E+05  4.416918E+04 -7.179315E+04
       127   1 -2.474558E+06 -6.409568E+05 -1.856887E+05 -9.386558E+05 -1.891542E+04  7.625912E+04
       127   2 -2.384903E+06 -5.959974E+05 -1.653066E+05 -9.010874E+05 -1.475198E+04  6.938787E+04
       127   3 -2.277628E+06 -5.689333E+05 -1.459628E+05 -8.837702E+05 -1.049899E+04  6.226169E+04
       127   4 -1.512975E+06 -2.910590E+05 -3.587569E+03 -6.711399E+05 -3.013940E+04  7.202813E+04
       127   5 -1.521770E+06 -2.820432E+05 -1.985068E+03 -6.610396E+05 -2.636772E+04  6.501450E+04
       127   6 -1.512882E+06 -2.908448E+05 -1.110700E+03 -6.711929E+05 -2.250681E+04  5.774607E+04
       127   7 -5.504131E+05  5.892704E+04  1.784788E+05 -4.032351E+05 -4.138216E+04  6.779010E+04
       127   8 -6.578523E+05  3.198090E+04  1.613079E+05 -4.206793E+05 -3.800086E+04  6.063461E+04
       127   9 -7.475234E+05 -1.270278E+04  1.437181E+05 -4.583713E+05 -3.453052E+04  5.322450E+04
       127  10 -2.474560E+06 -6.409631E+05 -1.857003E+05 -9.386546E+05  6.879080E-10  1.902391E-10
       127  11 -2.384904E+06 -5.960027E+05 -1.653161E+05 -9.010866E+05  5.246840E-10 -1.879505E-10
       127  12 -2.277629E+06 -5.689375E+05 -1.459703E+05 -8.837697E+05 -3.346550E-10  1.021244E-10
       127  13 -1.512977E+06 -2.910648E+05 -3.599016E+03 -6.711382E+05  1.910256E-10 -2.176752E-10
       127  14 -1.521772E+06 -2.820479E+05 -1.994310E+03 -6.610382E+05  6.872734E-10  5.966477E-11
       127  15 -1.512883E+06 -2.908486E+05 -1.117912E+03 -6.711919E+05  3.736883E-11  9.263939E-13
       127  16 -5.504162E+05  5.892165E+04  1.784670E+05 -4.032328E+05 -3.048978E-10 -2.680828E-10
       127  17 -6.578548E+05  3.197657E+04  1.612983E+05 -4.206775E+05 -3.806906E-10  1.242011E-10
       127  18 -7.475254E+05 -1.270614E+04  1.437106E+05 -4.583699E+05 -1.650507E-11 -1.419964E-10
       127  19 -2.474558E+06 -6.409568E+05 -1.856887E+05 -9.386558E+05  1.891542E+04 -7.625912E+04
       127  20 -2.384903E+06 -5.959974E+05 -1.653066E+05 -9.010874E+05  1.475198E+04 -6.938787E+04
       127  21 -2.277628E+06 -5.689333E+05 -1.459628E+05 -8.837702E+05  1.049899E+04 -6.226169E+04
       127  22 -1.512975E+06 -2.910590E+05 -3.587569E+03 -6.711399E+05  3.013940E+04 -7.202813E+04
       127  23 -1.521770E+06 -2.820432E+05 -1.985068E+03 -6.610396E+05  2.636772E+04 -6.501450E+04
       127  24 -1.512882E+06 -2.908448E+05 -1.110700E+03 -6.711929E+05  2.250681E+04 -5.774607E+04
       127  25 -5.504131E+05  5.892704E+04  1.784788E+05 -4.032351E+05  4.138216E+04 -6.779010E+04
       127  26 -6.578523E+05  3.198090E+04  1.613079E+05 -4.206793E+05  3.800086E+04 -6.063461E+04
       127  27 -7.475234E+05 -1.270278E+04  1.437181E+05 -4.583713E+05  3.453052E+04 -5.322450E+04
       128   1 -2.211797E+06 -5.449102E+05 -1.327139E+05 -8.655377E+05 -8.641981E+03  5.779008E+04
       128   2 -2.121446E+06 -4.998426E+05 -1.138670E+05 -8.276829E+05 -5.392631E+03  5.013163E+04
       128   3 -2.013209E+06 -4.726401E+05 -9.524785E+04 -8.102665E+05 -2.134575E+03  4.243752E+04
       128   4 -1.512816E+06 -2.908555E+05 -8.585676E+02 -6.712245E+05 -2.064178E+04  5.328005E+04
       128   5 -1.521733E+06 -2.818785E+05 -5.465318E+02 -6.610138E+05 -1.744707E+04  4.560462E+04
       128   6 -1.512763E+06 -2.907562E+05 -4.197968E+02 -6.712449E+05 -1.424371E+04  3.789352E+04
       128   7 -8.133289E+05 -3.675824E+04  1.309759E+05 -4.767088E+05 -3.265597E+04  4.876462E+04
       128   8 -9.216424E+05 -6.388135E+04  1.127600E+05 -4.941945E+05 -2.951401E+04  4.107293E+04
       128   9 -1.012050E+06 -1.088476E+05  9.439987E+04 -5.321174E+05 -2.636343E+04  3.334555E+04
       128  10 -2.211798E+06 -5.449138E+05 -1.327203E+05 -8.655373E+05  4.032383E-10  4.359934E-10
       128  11 -2.121447E+06 -4.998453E+05 -1.138718E+05 -8.276827E+05  6.094665E-10  3.665363E-10
       128  12 -2.013209E+06 -4.726420E+05 -9.525124E+04 -8.102665E+05  9.399895E-10  2.028939E-11
       128  13 -1.512817E+06 -2.908586E+05 -8.646977E+02 -6.712236E+05 -1.960456E-10  2.197419E-10
       128  14 -1.521734E+06 -2.818808E+05 -5.510083E+02 -6.610131E+05  7.190256E-11  1.109838E-10
       128  15 -1.512764E+06 -2.907578E+05 -4.228738E+02 -6.712444E+05 -1.926500E-10 -1.596334E-10
       128  16 -8.133307E+05 -3.676107E+04  1.309695E+05 -4.767076E+05 -1.028103E-09  1.024702E-11
       128  17 -9.216438E+05 -6.388339E+04  1.127552E+05 -4.941935E+05 -1.130344E-09 -7.452191E-13
       128  18 -1.012051E+06 -1.088490E+05  9.439648E+04 -5.321167E+05 -5.118158E-10 -7.624655E-11
       128  19 -2.211797E+06 -5.449102E+05 -1.327139E+05 -8.655377E+05  8.641981E+03 -5.779008E+04
       128  20 -2.121446E+06 -4.998426E+05 -1.138670E+05 -8.276829E+05  5.392631E+03 -5.013163E+04
       128  21 -2.013209E+06 -4.726401E+05 -9.524785E+04 -8.102665E+05  2.134575E+03 -4.243752E+04
       128  22 -1.512816E+06 -2.908555E+05 -8.585676E+02 -6.712245E+05  2.064178E+04 -5.328005E+04
       128  23 -1.521733E+06 -2.818785E+05 -5.465318E+02 -6.610138E+05  1.744707E+04 -4.560462E+04
       128  24 -1.512763E+06 -2.907562E+05 -4.197968E+02 -6.712449E+05  1.424371E+04 -3.789352E+04
       128  25 -8.133289E+05 -3.675824E+04  1.309759E+05 -4.767088E+05  3.265597E+04 -4.876462E+04
       128  26 -9.216424E+05 -6.388135E+04  1.127600E+05 -4.941945E+05  2.951401E+04 -4.107293E+04
       128  27 -1.012050E+06 -1.088476E+05  9.439987E+04 -5.321174E+05  2.636343E+04 -3.334555E+04
       129   1 -1.946974E+06 -4.484795E+05 -8.217861E+04 -7.919311E+05 -3.361788E+02  3.790722E+04
       129   2 -1.856103E+06 -4.032572E+05 -6.370148E+04 -7.539218E+05  2.881316E+03  3.016588E+04
       129   3 -1.747296E+06 -3.759776E+05 -4.542337E+04 -7.364700E+05  6.098044E+03  2.241937E+04
       129   4 -1.512738E+06 -2.907586E+05 -4.211449E+02 -6.712713E+05 -1.246244E+04  3.335843E+04
       129   5 -1.521684E+06 -2.817517E+05 -5.368720E+02 -6.609995E+05 -9.253042E+03  2.561604E+04
       129   6 -1.512704E+06 -2.906861E+05 -8.459707E+02 -6.712883E+05 -6.044464E+03  1.786849E+04
       129   7 -1.078303E+06 -1.330204E+05  8.132934E+04 -5.505328E+05 -2.459780E+04  2.880623E+04
       129   8 -1.187149E+06 -1.602364E+05  6.262338E+04 -5.680310E+05 -2.139435E+04  2.106359E+04
       129   9 -1.278056E+06 -2.053903E+05  4.372918E+04 -6.060843E+05 -1.819178E+04  1.331580E+04
       129  10 -1.946974E+06 -4.484811E+05 -8.218131E+04 -7.919310E+05 -3.060742E-10 -4.005736E-10
       129  11 -1.856103E+06 -4.032582E+05 -6.370320E+04 -7.539218E+05  2.536546E-11  1.498678E-10
       129  12 -1.747296E+06 -3.759782E+05 -4.542439E+04 -7.364701E+05  3.997815E-10 -3.211003E-10
       129  13 -1.512738E+06 -2.907598E+05 -4.235259E+02 -6.712709E+05  5.956357E-10  2.211429E-10
       129  14 -1.521684E+06 -2.817524E+05 -5.382648E+02 -6.609993E+05  7.103509E-11  8.144438E-11
       129  15 -1.512704E+06 -2.906865E+05 -8.466388E+02 -6.712883E+05 -5.329018E-10 -7.868893E-10
       129  16 -1.078304E+06 -1.330214E+05  8.132665E+04 -5.505322E+05  2.107090E-10  4.611242E-10
       129  17 -1.187150E+06 -1.602370E+05  6.262169E+04 -5.680306E+05  5.004524E-10 -3.421776E-11
       129  18 -1.278057E+06 -2.053906E+05  4.372823E+04 -6.060841E+05 -4.623780E-10 -1.620380E-10
       129  19 -1.946974E+06 -4.484795E+05 -8.217861E+04 -7.919311E+05  3.361788E+02 -3.790722E+04
       129  20 -1.856103E+06 -4.032572E+05 -6.370148E+04 -7.539218E+05 -2.881316E+03 -3.016588E+04
       129  21 -1.747296E+06 -3.759776E+05 -4.542337E+04 -7.364700E+05 -6.098044E+03 -2.241937E+04
       129  22 -1.512738E+06 -2.907586E+05 -4.211449E+02 -6.712713E+05  1.246244E+04 -3.335843E+04
       129  23 -1.521684E+06 -2.817517E+05 -5.368720E+02 -6.609995E+05  9.253042E+03 -2.561604E+04
       129  24 -1.512704E+06 -2.906861E+05 -8.459707E+02 -6.712883E+05  6.044464E+03 -1.786849E+04
       129  25 -1.078303E+06 -1.330204E+05  8.132934E+04 -5.505328E+05  2.459780E+04 -2.880623E+04
       129  26 -1.187149E+06 -1.602364E+05  6.262338E+04 -5.680310E+05  2.139435E+04 -2.106359E+04
       129  27 -1.278056E+06 -2.053903E+05  4.372918E+04 -6.060843E+05  1.819178E+04 -1.331580E+04
       130   1 -1.680805E+06 -3.517509E+05 -3.255586E+04 -7.180932E+05  7.997408E+03  1.791105E+04
       130   2 -1.589633E+06 -3.064665E+05 -1.473064E+04 -6.800131E+05  1.176478E+04  1.040396E+04
       130   3 -1.480612E+06 -2.792398E+05  2.453269E+03 -6.625468E+05  1.549882E+04  2.984655E+03
       130   4 -1.512721E+06 -2.906828E+05 -1.100053E+03 -6.713126E+05 -4.168081E+03  1.335227E+04
       130   5 -1.521626E+06 -2.816617E+05 -1.948008E+03 -6.609941E+05 -2.658378E+02  5.896078E+03
       130   6 -1.512722E+06 -2.907270E+05 -3.545668E+03 -6.712942E+05  3.602914E+03 -1.472355E+03
       130   7 -1.344605E+06 -2.296114E+05  3.035572E+04 -6.245196E+05 -1.633721E+04  8.792121E+03
       130   8 -1.453614E+06 -2.568562E+05  1.083516E+04 -6.419730E+05 -1.229793E+04  1.387639E+03
       130   9 -1.544831E+06 -3.022140E+05 -9.544041E+03 -6.800410E+05 -8.292339E+03 -5.929127E+03
       130  10 -1.680805E+06 -3.517512E+05 -3.255659E+04 -7.180933E+05  5.957907E-12 -6.044089E-10
       130  11 -1.589633E+06 -3.064667E+05 -1.473111E+04 -6.800132E+05  8.369956E-11  3.704904E-10
       130  12 -1.480613E+06 -2.792398E+05  2.452800E+03 -6.625468E+05 -1.008266E-09 -8.959561E-11
       130  13 -1.512721E+06 -2.906830E+05 -1.100420E+03 -6.713125E+05  1.006072E-10 -2.410345E-10
       130  14 -1.521626E+06 -2.816617E+05 -1.948074E+03 -6.609941E+05 -1.086138E-09 -9.790398E-10
       130  15 -1.512722E+06 -2.907270E+05 -3.545697E+03 -6.712942E+05  1.077793E-10  7.383585E-10
       130  16 -1.344606E+06 -2.296115E+05  3.035507E+04 -6.245195E+05 -7.723729E-11 -3.569387E-10
       130  17 -1.453614E+06 -2.568562E+05  1.083487E+04 -6.419730E+05  8.844030E-10  3.047811E-10
       130  18 -1.544831E+06 -3.022141E+05 -9.544237E+03 -6.800411E+05  7.764417E-11  4.192589E-10
       130  19 -1.680805E+06 -3.517509E+05 -3.255586E+04 -7.180932E+05 -7.997408E+03 -1.791105E+04
       130  20 -1.589633E+06 -3.064665E+05 -1.473064E+04 -6.800131E+05 -1.176478E+04 -1.040396E+04
       130  21 -1.480612E+06 -2.792398E+05  2.453269E+03 -6.625468E+05 -1.549882E+04 -2.984655E+03
       130  22 -1.512721E+06 -2.906828E+05 -1.100053E+03 -6.713126E+05  4.168081E+03 -1.335227E+04
       130  23 -1.521626E+06 -2.816617E+05 -1.948008E+03 -6.609941E+05  2.658378E+02 -5.896078E+03
       130  24 -1.512722E+06 -2.907270E+05 -3.545668E+03 -6.712942E+05 -3.602914E+03  1.472355E+03
       130  25 -1.344605E+06 -2.296114E+05  3.035572E+04 -6.245196E+05  1.633721E+04 -8.792121E+03
       130  26 -1.453614E+06 -2.568562E+05  1.083516E+04 -6.419730E+05  1.229793E+04 -1.387639E+03
       130  27 -1.544831E+06 -3.022140E+05 -9.544041E+03 -6.800410E+05  8.292339E+03  5.929127E+03
       131   1 -1.413968E+06 -2.551264E+05  1.445021E+04 -6.444880E+05  1.805649E+04 -1.253733E+03
       131   2 -1.323150E+06 -2.095907E+05  2.985825E+04 -6.054933E+05  2.326148E+04 -7.534159E+03
       131   3 -1.215426E+06 -1.838301E+05  4.290474E+04 -5.866397E+05  2.802279E+04 -1.262688E+04
       131   4 -1.512932E+06 -2.906390E+05 -4.716838E+03 -6.713943E+05  5.968094E+03 -5.783062E+03
       131   5 -1.521412E+06 -2.820290E+05 -8.616676E+03 -6.607782E+05  1.300845E+04 -1.137686E+04
       131   6 -1.513361E+06 -2.935604E+05 -1.633594E+04 -6.703078E+05  1.960466E+04 -1.578290E+04
       131   7 -1.611885E+06 -3.261503E+05 -2.388344E+04 -6.982962E+05 -6.118124E+03 -1.031160E+04
       131   8 -1.719633E+06 -3.544638E+05 -4.709289E+04 -7.160465E+05  2.758937E+03 -1.521823E+04
       131   9 -1.811208E+06 -4.032835E+05 -7.558124E+04 -7.539392E+05  1.119079E+04 -1.893730E+04
       131  10 -1.413969E+06 -2.551265E+05  1.444959E+04 -6.444880E+05 -2.394620E-10  7.645383E-10
       131  11 -1.323150E+06 -2.095909E+05  2.985713E+04 -6.054931E+05 -9.713078E-10  9.718781E-11
       131  12 -1.215427E+06 -1.838305E+05  4.290296E+04 -5.866394E+05  2.267722E-10 -1.175076E-10
       131  13 -1.512932E+06 -2.906391E+05 -4.716968E+03 -6.713942E+05 -1.637040E-10  7.111136E-10
       131  14 -1.521412E+06 -2.820292E+05 -8.617237E+03 -6.607780E+05 -5.807675E-10  3.921715E-10
       131  15 -1.513362E+06 -2.935608E+05 -1.633713E+04 -6.703076E+05 -8.681795E-10 -8.980485E-10
       131  16 -1.611885E+06 -3.261505E+05 -2.388371E+04 -6.982963E+05  7.634169E-11  8.662365E-10
       131  17 -1.719633E+06 -3.544640E+05 -4.709334E+04 -7.160465E+05 -2.381768E-10  3.099782E-10
       131  18 -1.811208E+06 -4.032839E+05 -7.558215E+04 -7.539390E+05 -5.670084E-10 -7.212930E-10
       131  19 -1.413968E+06 -2.551264E+05  1.445021E+04 -6.444880E+05 -1.805649E+04  1.253733E+03
       131  20 -1.323150E+06 -2.095907E+05  2.985825E+04 -6.054933E+05 -2.326148E+04  7.534159E+03
       131  21 -1.215426E+06 -1.838301E+05  4.290474E+04 -5.866397E+05 -2.802279E+04  1.262688E+04
       131  22 -1.512932E+06 -2.906390E+05 -4.716838E+03 -6.713943E+05 -5.968094E+03  5.783062E+03
       131  23 -1.521412E+06 -2.820290E+05 -8.616676E+03 -6.607782E+05 -1.300845E+04  1.137686E+04
       131  24 -1.513361E+06 -2.935604E+05 -1.633594E+04 -6.703078E+05 -1.960466E+04  1.578290E+04
       131  25 -1.611885E+06 -3.261503E+05 -2.388344E+04 -6.982962E+05  6.118124E+03  1.031160E+04
       131  26 -1.719633E+06 -3.544638E+05 -4.709289E+04 -7.160465E+05 -2.758937E+03  1.521823E+04
       131  27 -1.811208E+06 -4.032835E+05 -7.558124E+04 -7.539392E+05 -1.119079E+04  1.893730E+04
       132   1 -1.146259E+06 -1.623205E+05  5.138250E+04 -5.750662E+05  3.460467E+04 -1.500378E+04
       132   2 -1.069457E+06 -1.100632E+05  6.007762E+04 -5.113063E+05  3.159261E+04 -1.534516E+04
       132   3 -9.908088E+05 -1.164236E+05  5.938388E+04 -4.557267E+05  2.275717E+04 -1.679161E+02
       132   4 -1.516102E+06 -2.918692E+05 -2.153238E+04 -6.718924E+05  2.364978E+04 -1.911127E+04
       132   5 -1.519498E+06 -2.944409E+05 -4.063276E+04 -6.549673E+05  4.465508E+04 -1.045006E+04
       132   6 -1.525838E+06 -3.604238E+05 -8.819256E+04 -6.462296E+05  5.983440E+04  1.373543E+04
       132   7 -1.885804E+06 -4.214094E+05 -9.445364E+04 -7.686667E+05  1.270185E+04 -2.321639E+04
       132   8 -1.969323E+06 -4.787854E+05 -1.413530E+05 -7.985251E+05  5.770713E+04 -5.559878E+03
       132   9 -2.060560E+06 -6.043544E+05 -2.357834E+05 -8.365623E+05  9.687532E+04  2.761862E+04
       132  10 -1.146261E+06 -1.623211E+05  5.137982E+04 -5.750658E+05 -4.930118E-10 -6.114995E-10
       132  11 -1.069459E+06 -1.100637E+05  6.007530E+04 -5.113060E+05  1.241515E-10 -2.125874E-10
       132  12 -9.908093E+05 -1.164238E+05  5.938290E+04 -4.557267E+05 -5.347010E-10 -2.030224E-10
       132  13 -1.516102E+06 -2.918697E+05 -2.153411E+04 -6.718920E+05  1.369081E-09  1.844367E-10
       132  14 -1.519500E+06 -2.944416E+05 -4.063672E+04 -6.549670E+05  1.538826E-10 -5.120370E-10
       132  15 -1.525842E+06 -3.604250E+05 -8.819967E+04 -6.462303E+05  1.337757E-10 -9.419311E-11
       132  16 -1.885804E+06 -4.214100E+05 -9.445495E+04 -7.686664E+05  7.718135E-10 -3.455957E-10
       132  17 -1.969326E+06 -4.787864E+05 -1.413593E+05 -7.985249E+05  6.404030E-10 -2.923681E-10
       132  18 -2.060570E+06 -6.043578E+05 -2.358026E+05 -8.365645E+05  1.142034E-11 -8.174213E-11
       132  19 -1.146259E+06 -1.623205E+05  5.138250E+04 -5.750662E+05 -3.460467E+04  1.500378E+04
       132  20 -1.069457E+06 -1.100632E+05  6.007762E+04 -5.113063E+05 -3.159261E+04  1.534516E+04
       132  21 -9.908088E+05 -1.164236E+05  5.938388E+04 -4.557267E+05 -2.275717E+04  1.679161E+02
       132  22 -1.516102E+06 -2.918692E+05 -2.153238E+04 -6.718924E+05 -2.364978E+04  1.911127E+04
       132  23 -1.519498E+06 -2.944409E+05 -4.063276E+04 -6.549673E+05 -4.465508E+04  1.045006E+04
       132  24 -1.525838E+06 -3.604238E+05 -8.819256E+04 -6.462296E+05 -5.983440E+04 -1.373543E+04
       132  25 -1.885804E+06 -4.214094E+05 -9.445364E+04 -7.686667E+05 -1.270185E+04  2.321639E+04
       132  26 -1.969323E+06 -4.787854E+05 -1.413530E+05 -7.985251E+05 -5.770713E+04  5.559878E+03
       132  27 -2.060560E+06 -6.043544E+05 -2.357834E+05 -8.365623E+05 -9.687532E+04 -2.761862E+04
       133   1  6.936918E+04  1.399880E+04  2.293013E+04  7.695976E+03  2.775041E+04  8.401636E+02
       133   2  7.083886E+04 -2.234164E+04  1.447775E+03  2.027456E+03  1.867542E+04  2.502979E+03
       133   3  8.364863E+04 -1.807864E+04 -3.973990E+03 -8.448598E+03  9.600548E+03  2.311007E+03
       133   4  1.494131E+05  3.394056E+04  4.263773E+04 -3.767583E+03  2.918423E+04  8.399668E+02
       133   5  1.436563E+05 -4.320614E+03  1.875135E+04 -1.360144E+03  1.908404E+04  2.502934E+03
       133   6  1.494157E+05 -1.803260E+03  1.163591E+04 -3.760075E+03  8.984071E+03  2.310973E+03
       133   7  2.294632E+05  5.388235E+04  6.234494E+04 -1.523262E+04  3.061824E+04  8.397170E+02
       133   8  2.164786E+05  1.370007E+04  3.605456E+04 -4.748144E+03  1.949271E+04  2.502884E+03
       133   9  2.151868E+05  1.447189E+04  2.724552E+04  9.289471E+02  8.367528E+03  2.310931E+03
       133  10  6.936835E+04  1.399859E+04  2.292868E+04  7.695957E+03  1.127554E-10 -1.768036E-10
       133  11  7.083848E+04 -2.234174E+04  1.447108E+03  2.027419E+03 -3.261822E-11  1.657471E-10
       133  12  8.364853E+04 -1.807867E+04 -3.974173E+03 -8.448616E+03 -1.015950E-10 -1.301984E-10
       133  13  1.494122E+05  3.394033E+04  4.263613E+04 -3.767603E+03  1.792881E-10  2.828588E-10
       133  14  1.436559E+05 -4.320718E+03  1.875066E+04 -1.360182E+03 -1.564738E-09  2.609322E-10
       133  15  1.494156E+05 -1.803287E+03  1.163575E+04 -3.760092E+03 -9.209764E-10 -2.167939E-10
       133  16  2.294622E+05  5.388210E+04  6.234318E+04 -1.523264E+04  9.337923E-10  3.479913E-10
       133  17  2.164781E+05  1.369996E+04  3.605384E+04 -4.748183E+03  2.990796E-10  4.385271E-10
       133  18  2.151868E+05  1.447187E+04  2.724538E+04  9.289315E+02  6.573985E-10  1.957517E-10
       133  19  6.936918E+04  1.399880E+04  2.293013E+04  7.695976E+03 -2.775041E+04 -8.401636E+02
       133  20  7.083886E+04 -2.234164E+04  1.447775E+03  2.027456E+03 -1.867542E+04 -2.502979E+03
       133  21  8.364863E+04 -1.807864E+04 -3.973990E+03 -8.448598E+03 -9.600548E+03 -2.311007E+03
       133  22  1.494131E+05  3.394056E+04  4.263773E+04 -3.767583E+03 -2.918423E+04 -8.399668E+02
       133  23  1.436563E+05 -4.320614E+03  1.875135E+04 -1.360144E+03 -1.908404E+04 -2.502934E+03
       133  24  1.494157E+05 -1.803260E+03  1.163591E+04 -3.760075E+03 -8.984071E+03 -2.310973E+03
       133  25  2.294632E+05  5.388235E+04  6.234494E+04 -1.523262E+04 -3.061824E+04 -8.397170E+02
       133  26  2.164786E+05  1.370007E+04  3.605456E+04 -4.748144E+03 -1.949271E+04 -2.502884E+03
       133  27  2.151868E+05  1.447189E+04  2.724552E+04  9.289471E+02 -8.367528E+03 -2.310931E+03
       134   1  9.005802E+04 -1.081502E+04 -4.128824E+03 -2.775826E+03  7.256277E+03  1.880529E+03
       134   2  9.648084E+04 -1.282105E+04 -7.026054E+03 -1.106001E+03  4.841799E+03  1.709771E+03
       134   3  1.042271E+05 -1.080531E+04 -7.345270E+03 -4.264048E+03  2.427286E+03  1.415422E+03
       134   4  1.471530E+05  3.321436E+03  9.467458E+03 -3.767083E+03  7.196731E+03  1.880498E+03
       134   5  1.464856E+05 -4.444176E+02  4.859173E+03 -1.352963E+03  4.713813E+03  1.709747E+03
       134   6  1.471535E+05 -1.768272E+02  2.876244E+03 -3.766680E+03  2.230887E+03  1.415404E+03
       134   7  2.042509E+05  1.745766E+04  2.306351E+04 -4.758432E+03  7.137181E+03  1.880468E+03
       134   8  1.964927E+05  1.193203E+04  1.674422E+04 -1.599944E+03  4.585816E+03  1.709723E+03
       134   9  1.900815E+05  1.045153E+04  1.309763E+04 -3.269278E+03  2.034474E+03  1.415385E+03
       134  10  9.005797E+04 -1.081504E+04 -4.128930E+03 -2.775837E+03  2.681938E-10 -3.631348E-10
       134  11  9.648081E+04 -1.282105E+04 -7.026104E+03 -1.106008E+03 -1.094879E-09 -3.898506E-10
       134  12  1.042271E+05 -1.080532E+04 -7.345285E+03 -4.264051E+03 -1.135104E-09  3.202171E-10
       134  13  1.471529E+05  3.321418E+03  9.467354E+03 -3.767094E+03 -9.590492E-10 -1.627037E-11
       134  14  1.464856E+05 -4.444267E+02  4.859125E+03 -1.352969E+03  3.481886E-10  8.749975E-11
       134  15  1.471535E+05 -1.768307E+02  2.876231E+03 -3.766683E+03 -2.073140E-09  2.717481E-10
       134  16  2.042508E+05  1.745764E+04  2.306341E+04 -4.758443E+03 -3.379768E-10  8.565178E-12
       134  17  1.964927E+05  1.193202E+04  1.674418E+04 -1.599951E+03 -5.144186E-10  3.661513E-10
       134  18  1.900815E+05  1.045152E+04  1.309762E+04 -3.269281E+03 -1.577575E-10  3.989642E-10
       134  19  9.005802E+04 -1.081502E+04 -4.128824E+03 -2.775826E+03 -7.256277E+03 -1.880529E+03
       134  20  9.648084E+04 -1.282105E+04 -7.026054E+03 -1.106001E+03 -4.841799E+03 -1.709771E+03
       134  21  1.042271E+05 -1.080531E+04 -7.345270E+03 -4.264048E+03 -2.427286E+03 -1.415422E+03
       134  22  1.471530E+05  3.321436E+03  9.467458E+03 -3.767083E+03 -7.196731E+03 -1.880498E+03
       134  23  1.464856E+05 -4.444176E+02  4.859173E+03 -1.352963E+03 -4.713813E+03 -1.709747E+03
       134  24  1.471535E+05 -1.768272E+02  2.876244E+03 -3.766680E+03 -2.230887E+03 -1.415404E+03
       134  25  2.042509E+05  1.745766E+04  2.306351E+04 -4.758432E+03 -7.137181E+03 -1.880468E+03
       134  26  1.964927E+05  1.193203E+04  1.674422E+04 -1.599944E+03 -4.585816E+03 -1.709723E+03
       134  27  1.900815E+05  1.045153E+04  1.309763E+04 -3.269278E+03 -2.034474E+03 -1.415385E+03
       135   1  1.125971E+05 -8.168363E+03 -5.890272E+03 -3.702190E+03  1.938013E+03  1.223037E+03
       135   2  1.195693E+05 -6.789522E+03 -5.239762E+03 -1.353505E+03  1.324799E+03  9.307330E+02
       135   3  1.267216E+05 -5.014888E+03 -4.090880E+03 -3.821005E+03  7.115713E+02  6.303807E+02
       135   4  1.468971E+05  3.175136E+02  2.244012E+03 -3.764218E+03  1.778941E+03  1.223023E+03
       135   5  1.468068E+05 -4.805043E+01  1.234137E+03 -1.356124E+03  1.161252E+03  9.307229E+02
       135   6  1.468973E+05 -1.702802E+01  7.257461E+02 -3.764201E+03  5.435570E+02  6.303746E+02
       135   7  1.811982E+05  8.803305E+03  1.037822E+04 -3.826249E+03  1.619860E+03  1.223009E+03
       135   8  1.740449E+05  6.693368E+03  7.707984E+03 -1.358742E+03  9.976982E+02  9.307127E+02
       135   9  1.670733E+05  4.980802E+03  5.542343E+03 -3.707394E+03  3.755373E+02  6.303684E+02
       135  10  1.125971E+05 -8.168365E+03 -5.890282E+03 -3.702191E+03  6.183571E-10  2.393668E-10
       135  11  1.195693E+05 -6.789523E+03 -5.239767E+03 -1.353506E+03 -8.756072E-10 -3.776127E-10
       135  12  1.267216E+05 -5.014888E+03 -4.090881E+03 -3.821006E+03 -5.538440E-10  6.296653E-10
       135  13  1.468971E+05  3.175111E+02  2.244004E+03 -3.764219E+03 -1.540270E-11  1.089129E-10
       135  14  1.468068E+05 -4.805173E+01  1.234133E+03 -1.356124E+03 -5.385023E-10 -3.343744E-10
       135  15  1.468973E+05 -1.702853E+01  7.257448E+02 -3.764201E+03  3.592575E-10  4.904199E-10
       135  16  1.811982E+05  8.803303E+03  1.037821E+04 -3.826251E+03 -4.564920E-10 -4.262362E-11
       135  17  1.740449E+05  6.693366E+03  7.707981E+03 -1.358743E+03 -6.714240E-10 -5.236806E-10
       135  18  1.670733E+05  4.980802E+03  5.542342E+03 -3.707394E+03  1.030611E-09  4.409836E-10
       135  19  1.125971E+05 -8.168363E+03 -5.890272E+03 -3.702190E+03 -1.938013E+03 -1.223037E+03
       135  20  1.195693E+05 -6.789522E+03 -5.239762E+03 -1.353505E+03 -1.324799E+03 -9.307330E+02
       135  21  1.267216E+05 -5.014888E+03 -4.090880E+03 -3.821005E+03 -7.115713E+02 -6.303807E+02
       135  22  1.468971E+05  3.175136E+02  2.244012E+03 -3.764218E+03 -1.778941E+03 -1.223023E+03
       135  23  1.468068E+05 -4.805043E+01  1.234137E+03 -1.356124E+03 -1.161252E+03 -9.307229E+02
       135  24  1.468973E+05 -1.702802E+01  7.257461E+02 -3.764201E+03 -5.435570E+02 -6.303746E+02
       135  25  1.811982E+05  8.803305E+03  1.037822E+04 -3.826249E+03 -1.619860E+03 -1.223009E+03
       135  26  1.740449E+05  6.693368E+03  7.707984E+03 -1.358742E+03 -9.976982E+02 -9.307127E+02
       135  27  1.670733E+05  4.980802E+03  5.542343E+03 -3.707394E+03 -3.755373E+02 -6.303684E+02
       136   1  1.352964E+05 -2.830484E+03 -2.164787E+03 -3.765266E+03  5.933180E+02  4.542608E+02
       136   2  1.423337E+05 -1.123392E+03 -7.344704E+02 -1.361916E+03  4.255708E+02  1.542565E+02
       136   3  1.494033E+05  6.233372E+02  8.150385E+02 -3.769447E+03  2.578166E+02 -1.462209E+02
       136   4  1.468643E+05  2.838714E+01  5.634875E+02 -3.763030E+03  4.278258E+02  4.542564E+02
       136   5  1.468482E+05 -6.036790E+00  3.385379E+02 -1.357591E+03  2.598124E+02  1.542526E+02
       136   6  1.468643E+05 -8.024178E-01  2.329384E+02 -3.763030E+03  9.179390E+01 -1.462240E+02
       136   7  1.584323E+05  2.887249E+03  3.291753E+03 -3.760795E+03  2.623306E+02  4.542519E+02
       136   8  1.513627E+05  1.111317E+03  1.411545E+03 -1.353266E+03  9.405285E+01  1.542488E+02
       136   9  1.443253E+05 -6.249425E+02 -3.491619E+02 -3.756613E+03 -7.422813E+01 -1.462271E+02
       136  10  1.352964E+05 -2.830485E+03 -2.164788E+03 -3.765266E+03  1.144893E-09  5.074434E-10
       136  11  1.423337E+05 -1.123392E+03 -7.344708E+02 -1.361916E+03  1.038313E-11 -6.920532E-10
       136  12  1.494033E+05  6.233372E+02  8.150383E+02 -3.769447E+03 -8.169819E-10 -8.557611E-11
       136  13  1.468643E+05  2.838687E+01  5.634868E+02 -3.763030E+03 -1.058311E-09  5.419793E-10
       136  14  1.468482E+05 -6.036834E+00  3.385377E+02 -1.357591E+03  7.812687E-10 -5.137395E-10
       136  15  1.468643E+05 -8.024430E-01  2.329384E+02 -3.763030E+03 -1.286973E-09 -1.649695E-10
       136  16  1.584323E+05  2.887249E+03  3.291752E+03 -3.760795E+03 -5.895417E-10  5.706431E-10
       136  17  1.513627E+05  1.111317E+03  1.411545E+03 -1.353266E+03  1.888485E-10 -3.266111E-10
       136  18  1.443253E+05 -6.249425E+02 -3.491620E+02 -3.756613E+03  1.710884E-09 -3.291626E-10
       136  19  1.352964E+05 -2.830484E+03 -2.164787E+03 -3.765266E+03 -5.933180E+02 -4.542608E+02
       136  20  1.423337E+05 -1.123392E+03 -7.344704E+02 -1.361916E+03 -4.255708E+02 -1.542565E+02
       136  21  1.494033E+05  6.233372E+02  8.150385E+02 -3.769447E+03 -2.578166E+02  1.462209E+02
       136  22  1.468643E+05  2.838714E+01  5.634875E+02 -3.763030E+03 -4.278258E+02 -4.542564E+02
       136  23  1.468482E+05 -6.036790E+00  3.385379E+02 -1.357591E+03 -2.598124E+02 -1.542526E+02
       136  24  1.468643E+05 -8.024178E-01  2.329384E+02 -3.763030E+03 -9.179390E+01  1.462240E+02
       136  25  1.584323E+05  2.887249E+03  3.291753E+03 -3.760795E+03 -2.623306E+02 -4.542519E+02
       136  26  1.513627E+05  1.111317E+03  1.411545E+03 -1.353266E+03 -9.405285E+01 -1.542488E+02
       136  27  1.443253E+05 -6.249425E+02 -3.491619E+02 -3.756613E+03  7.422813E+01  1.462271E+02
       137   1  1.580052E+05  2.763740E+03  2.878425E+03 -3.762727E+03  2.179925E+02 -3.212937E+02
       137   2  1.650531E+05  4.501507E+03  4.530915E+03 -1.356122E+03  1.161502E+02 -6.218653E+02
       137   3  1.721199E+05  6.258629E+03  6.254685E+03 -3.762905E+03  1.431761E+01 -9.219935E+02
       137   4  1.468613E+05  1.334564E+00  2.083937E+02 -3.763590E+03  5.192315E+01 -3.212976E+02
       137   5  1.468519E+05 -3.305429E+00  2.048904E+02 -1.356891E+03 -4.967297E+01 -6.218719E+02
       137   6  1.468613E+05  1.136937E+01  2.724996E+02 -3.763590E+03 -1.512583E+02 -9.220028E+02
       137   7  1.357175E+05 -2.761080E+03 -2.461647E+03 -3.764453E+03 -1.141433E+02 -3.213014E+02
       137   8  1.286510E+05 -4.508142E+03 -4.121158E+03 -1.357661E+03 -2.154914E+02 -6.218786E+02
       137   9  1.216032E+05 -6.235936E+03 -5.709730E+03 -3.764275E+03 -3.168275E+02 -9.220121E+02
       137  10  1.580052E+05  2.763740E+03  2.878425E+03 -3.762727E+03 -5.944315E-10  1.955820E-10
       137  11  1.650531E+05  4.501507E+03  4.530915E+03 -1.356122E+03  4.572027E-10 -6.389169E-11
       137  12  1.721199E+05  6.258628E+03  6.254683E+03 -3.762905E+03 -1.242864E-09  1.929500E-10
       137  13  1.468613E+05  1.334452E+00  2.083935E+02 -3.763590E+03 -9.515746E-10  1.784000E-10
       137  14  1.468519E+05 -3.305845E+00  2.048897E+02 -1.356891E+03 -9.709290E-10  1.417464E-10
       137  15  1.468613E+05  1.136846E+01  2.724979E+02 -3.763590E+03 -1.861678E-09 -7.743977E-11
       137  16  1.357175E+05 -2.761080E+03 -2.461647E+03 -3.764453E+03  5.674749E-11  2.552903E-11
       137  17  1.286510E+05 -4.508142E+03 -4.121158E+03 -1.357661E+03 -9.922778E-10  1.287284E-10
       137  18  1.216032E+05 -6.235937E+03 -5.709732E+03 -3.764275E+03 -2.825529E-10 -4.357522E-10
       137  19  1.580052E+05  2.763740E+03  2.878425E+03 -3.762727E+03 -2.179925E+02  3.212937E+02
       137  20  1.650531E+05  4.501507E+03  4.530915E+03 -1.356122E+03 -1.161502E+02  6.218653E+02
       137  21  1.721199E+05  6.258629E+03  6.254685E+03 -3.762905E+03 -1.431761E+01  9.219935E+02
       137  22  1.468613E+05  1.334564E+00  2.083937E+02 -3.763590E+03 -5.192315E+01  3.212976E+02
       137  23  1.468519E+05 -3.305429E+00  2.048904E+02 -1.356891E+03  4.967297E+01  6.218719E+02
       137  24  1.468613E+05  1.136937E+01  2.724996E+02 -3.763590E+03  1.512583E+02  9.220028E+02
       137  25  1.357175E+05 -2.761080E+03 -2.461647E+03 -3.764453E+03  1.141433E+02  3.213014E+02
       137  26  1.286510E+05 -4.508142E+03 -4.121158E+03 -1.357661E+03  2.154914E+02  6.218786E+02
       137  27  1.216032E+05 -6.235936E+03 -5.709730E+03 -3.764275E+03  3.168275E+02  9.220121E+02
       138   1  1.807504E+05  8.381008E+03  8.404574E+03 -3.741819E+03 -3.701221E+01 -1.098478E+03
       138   2  1.877840E+05  1.011408E+04  1.026577E+04 -1.353324E+03 -3.089584E+02 -1.399135E+03
       138   3  1.948973E+05  1.201411E+04  1.234622E+04 -3.789390E+03 -5.808803E+02 -1.690498E+03
       138   4  1.468745E+05 -7.480946E+00  3.319005E+02 -3.766071E+03 -2.055629E+02 -1.098490E+03
       138   5  1.468350E+05 -2.070389E+01  5.332385E+02 -1.353787E+03 -4.723616E+02 -1.399153E+03
       138   6  1.468743E+05  1.321845E+02  9.502969E+02 -3.766083E+03 -7.391330E+02 -1.690522E+03
       138   7  1.129995E+05 -8.396053E+03 -7.740853E+03 -3.790322E+03 -3.741043E+02 -1.098503E+03
       138   8  1.058875E+05 -1.015561E+04 -9.199412E+03 -1.354250E+03 -6.357540E+02 -1.399171E+03
       138   9  9.885344E+04 -1.174991E+04 -1.044579E+04 -3.742778E+03 -8.973735E+02 -1.690546E+03
       138  10  1.807504E+05  8.381007E+03  8.404572E+03 -3.741819E+03 -4.906573E-10  3.001480E-10
       138  11  1.877840E+05  1.011407E+04  1.026577E+04 -1.353325E+03  3.485879E-10 -2.223617E-10
       138  12  1.948973E+05  1.201411E+04  1.234622E+04 -3.789391E+03  8.412148E-10 -4.178410E-12
       138  13  1.468745E+05 -7.482253E+00  3.318982E+02 -3.766071E+03  3.099541E-11 -5.784036E-12
       138  14  1.468350E+05 -2.070606E+01  5.332344E+02 -1.353787E+03 -5.303835E-11  9.243939E-11
       138  15  1.468743E+05  1.321813E+02  9.502905E+02 -3.766084E+03 -8.902425E-11 -9.577639E-11
       138  16  1.129995E+05 -8.396054E+03 -7.740856E+03 -3.790322E+03 -7.127868E-11 -3.734037E-10
       138  17  1.058875E+05 -1.015561E+04 -9.199417E+03 -1.354250E+03 -1.659893E-09  3.183911E-10
       138  18  9.885343E+04 -1.174991E+04 -1.044580E+04 -3.742779E+03 -2.636038E-11 -7.222650E-11
       138  19  1.807504E+05  8.381008E+03  8.404574E+03 -3.741819E+03  3.701221E+01  1.098478E+03
       138  20  1.877840E+05  1.011408E+04  1.026577E+04 -1.353324E+03  3.089584E+02  1.399135E+03
       138  21  1.948973E+05  1.201411E+04  1.234622E+04 -3.789390E+03  5.808803E+02  1.690498E+03
       138  22  1.468745E+05 -7.480946E+00  3.319005E+02 -3.766071E+03  2.055629E+02  1.098490E+03
       138  23  1.468350E+05 -2.070389E+01  5.332385E+02 -1.353787E+03  4.723616E+02  1.399153E+03
       138  24  1.468743E+05  1.321845E+02  9.502969E+02 -3.766083E+03  7.391330E+02  1.690522E+03
       138  25  1.129995E+05 -8.396053E+03 -7.740853E+03 -3.790322E+03  3.741043E+02  1.098503E+03
       138  26  1.058875E+05 -1.015561E+04 -9.199412E+03 -1.354250E+03  6.357540E+02  1.399171E+03
       138  27  9.885344E+04 -1.174991E+04 -1.044579E+04 -3.742778E+03  8.973735E+02  1.690546E+03
       139   1  2.036506E+05  1.395377E+04  1.470006E+04 -3.556966E+03 -7.283891E+02 -1.886018E+03
       139   2  2.104655E+05  1.559417E+04  1.719694E+04 -1.447901E+03 -1.851293E+03 -2.179739E+03
       139   3  2.178585E+05  1.893958E+04  2.085215E+04 -4.177805E+03 -2.974216E+03 -2.329516E+03
       139   4  1.469820E+05 -7.510438E+01  1.213444E+03 -3.769205E+03 -9.301686E+02 -1.886052E+03
       139   5  1.466996E+05 -1.873903E+02  2.041964E+03 -1.349832E+03 -1.973499E+03 -2.179773E+03
       139   6  1.469816E+05  1.391607E+03  3.973625E+03 -3.769451E+03 -3.016837E+03 -2.329543E+03
       139   7  9.031623E+04 -1.410421E+04 -1.227340E+04 -3.981425E+03 -1.131930E+03 -1.886086E+03
       139   8  8.293754E+04 -1.596924E+04 -1.311330E+04 -1.251774E+03 -2.095694E+03 -2.179806E+03
       139   9  7.610933E+04 -1.615673E+04 -1.290525E+04 -3.361144E+03 -3.059452E+03 -2.329571E+03
       139  10  2.036506E+05  1.395377E+04  1.470005E+04 -3.556967E+03 -8.931014E-10  1.595109E-10
       139  11  2.104655E+05  1.559416E+04  1.719692E+04 -1.447904E+03 -1.042756E-09 -1.206396E-11
       139  12  2.178585E+05  1.893957E+04  2.085212E+04 -4.177810E+03 -9.862743E-11 -8.021535E-10
       139  13  1.469820E+05 -7.510843E+01  1.213435E+03 -3.769207E+03  6.630816E-11  4.604111E-11
       139  14  1.466996E+05 -1.873965E+02  2.041948E+03 -1.349836E+03  2.081732E-12  9.443348E-11
       139  15  1.469816E+05  1.391599E+03  3.973598E+03 -3.769457E+03 -2.053778E-09 -6.655907E-10
       139  16  9.031623E+04 -1.410422E+04 -1.227341E+04 -3.981427E+03  1.145188E-09 -8.537383E-11
       139  17  8.293754E+04 -1.596925E+04 -1.311331E+04 -1.251778E+03  1.182065E-10  6.786016E-10
       139  18  7.610932E+04 -1.615674E+04 -1.290528E+04 -3.361150E+03  1.819906E-10 -2.863900E-10
       139  19  2.036506E+05  1.395377E+04  1.470006E+04 -3.556966E+03  7.283891E+02  1.886018E+03
       139  20  2.104655E+05  1.559417E+04  1.719694E+04 -1.447901E+03  1.851293E+03  2.179739E+03
       139  21  2.178585E+05  1.893958E+04  2.085215E+04 -4.177805E+03  2.974216E+03  2.329516E+03
       139  22  1.469820E+05 -7.510438E+01  1.213444E+03 -3.769205E+03  9.301686E+02  1.886052E+03
       139  23  1.466996E+05 -1.873903E+02  2.041964E+03 -1.349832E+03  1.973499E+03  2.179773E+03
       139  24  1.469816E+05  1.391607E+03  3.973625E+03 -3.769451E+03  3.016837E+03  2.329543E+03
       139  25  9.031623E+04 -1.410421E+04 -1.227340E+04 -3.981425E+03  1.131930E+03  1.886086E+03
       139  26  8.293754E+04 -1.596924E+04 -1.311330E+04 -1.251774E+03  2.095694E+03  2.179806E+03
       139  27  7.610933E+04 -1.615673E+04 -1.290525E+04 -3.361144E+03  3.059452E+03  2.329571E+03
       140   1  2.275119E+05  1.893244E+04  2.376712E+04 -1.785811E+03 -3.075519E+03 -2.802084E+03
       140   2  2.321569E+05  1.962788E+04  2.845386E+04 -2.767028E+03 -8.506000E+03 -2.975740E+03
       140   3  2.418465E+05  3.763547E+04  4.100525E+04 -8.560531E+03 -1.393718E+04 -9.887847E+02
       140   4  1.479312E+05 -7.581691E+02  4.882805E+03 -3.762109E+03 -3.766919E+03 -2.802241E+03
       140   5  1.455115E+05 -1.814204E+03  7.866045E+03 -1.358088E+03 -8.003894E+03 -2.975659E+03
       140   6  1.479299E+05  1.423601E+04  1.788600E+04 -3.766340E+03 -1.224150E+04 -9.883920E+02
       140   7  6.835641E+04 -2.044922E+04 -1.400195E+04 -5.738152E+03 -4.458232E+03 -2.802393E+03
       140   8  5.887307E+04 -2.325682E+04 -1.272230E+04  5.065469E+01 -7.501859E+03 -2.975576E+03
       140   9  5.402140E+04 -9.164021E+03 -5.233877E+03  1.027125E+03 -1.054607E+04 -9.879731E+02
       140  10  2.275118E+05  1.893243E+04  2.376709E+04 -1.785818E+03 -8.762083E-10 -8.915434E-10
       140  11  2.321568E+05  1.962785E+04  2.845371E+04 -2.767048E+03 -2.071209E-09 -5.449837E-10
       140  12  2.418463E+05  3.763542E+04  4.100489E+04 -8.560542E+03 -7.619701E-10 -3.692152E-11
       140  13  1.479312E+05 -7.581814E+02  4.882763E+03 -3.762117E+03 -5.819604E-10 -1.494959E-09
       140  14  1.455115E+05 -1.814230E+03  7.865908E+03 -1.358107E+03 -1.128928E-10  7.500270E-10
       140  15  1.479297E+05  1.423597E+04  1.788572E+04 -3.766350E+03 -2.920873E-10  8.013977E-11
       140  16  6.835639E+04 -2.044923E+04 -1.400200E+04 -5.738162E+03  5.324765E-10 -6.228502E-10
       140  17  5.887301E+04 -2.325685E+04 -1.272242E+04  5.063672E+01  3.853796E-10  5.178277E-10
       140  18  5.402128E+04 -9.164052E+03 -5.234088E+03  1.027116E+03 -2.710925E-10 -1.774581E-10
       140  19  2.275119E+05  1.893244E+04  2.376712E+04 -1.785811E+03  3.075519E+03  2.802084E+03
       140  20  2.321569E+05  1.962788E+04  2.845386E+04 -2.767028E+03  8.506000E+03  2.975740E+03
       140  21  2.418465E+05  3.763547E+04  4.100525E+04 -8.560531E+03  1.393718E+04  9.887847E+02
       140  22  1.479312E+05 -7.581691E+02  4.882805E+03 -3.762109E+03  3.766919E+03  2.802241E+03
       140  23  1.455115E+05 -1.814204E+03  7.866045E+03 -1.358088E+03  8.003894E+03  2.975659E+03
       140  24  1.479299E+05  1.423601E+04  1.788600E+04 -3.766340E+03  1.224150E+04  9.883920E+02
       140  25  6.835641E+04 -2.044922E+04 -1.400195E+04 -5.738152E+03  4.458232E+03  2.802393E+03
       140  26  5.887307E+04 -2.325682E+04 -1.272230E+04  5.065469E+01  7.501859E+03  2.975576E+03
       140  27  5.402140E+04 -9.164021E+03 -5.233877E+03  1.027125E+03  1.054607E+04  9.879731E+02
       141   1  1.328617E+06  5.363703E+06  1.324797E+06 -6.773051E+05  4.933272E+04  1.069958E+05
       141   2  9.719807E+05  4.110217E+06  9.644874E+05 -2.535602E+05  1.358323E+05  2.157841E+04
       141   3  6.839549E+05  2.894259E+06  6.781274E+05 -6.645905E+05  9.257293E+04 -6.411578E+04
       141   4  3.487502E+04  1.575358E+05  4.536481E+04 -6.565135E+05  4.954236E+04  2.292193E+04
       141   5 -6.696911E+03  1.466782E+05  2.496854E+04 -2.389902E+05  1.359373E+05  9.754655E+03
       141   6  8.143514E+03  1.596017E+05  2.882928E+04 -6.565623E+05  9.220894E+04 -3.860224E+03
       141   7 -1.260872E+06 -5.024090E+06 -1.236036E+06 -6.358700E+05  4.974763E+04 -6.045325E+04
       141   8 -9.865010E+05 -3.802495E+06 -9.156428E+05 -2.244965E+05  1.360422E+05 -1.994524E+03
       141   9 -6.682034E+05 -2.568203E+06 -6.209769E+05 -6.485551E+05  9.184561E+04  5.613220E+04
       141  10  1.328611E+06  5.363690E+06  1.324771E+06 -6.773094E+05 -1.947277E-10  4.620437E-11
       141  11  9.719608E+05  4.110212E+06  9.644518E+05 -2.535625E+05 -7.008434E-10 -1.512931E-10
       141  12  6.839447E+05  2.894252E+06  6.781037E+05 -6.645857E+05  5.055633E-10 -2.854946E-09
       141  13  3.487224E+04  1.575346E+05  4.535920E+04 -6.565144E+05  1.044745E-09 -3.746202E-11
       141  14 -6.716781E+03  1.466731E+05  2.493363E+04 -2.389913E+05 -3.202530E-09 -1.968838E-09
       141  15  8.134380E+03  1.595994E+05  2.881328E+04 -6.565620E+05 -2.361136E-10 -9.627561E-09
       141  16 -1.260876E+06 -5.024095E+06 -1.236047E+06 -6.358676E+05  8.818770E-10 -5.689484E-11
       141  17 -9.865209E+05 -3.802500E+06 -9.156776E+05 -2.244963E+05  3.887816E-09 -7.163275E-11
       141  18 -6.682133E+05 -2.568209E+06 -6.209987E+05 -6.485592E+05 -2.078233E-09 -7.538344E-10
       141  19  1.328617E+06  5.363703E+06  1.324797E+06 -6.773051E+05 -4.933272E+04 -1.069958E+05
       141  20  9.719807E+05  4.110217E+06  9.644874E+05 -2.535602E+05 -1.358323E+05 -2.157841E+04
       141  21  6.839549E+05  2.894259E+06  6.781274E+05 -6.645905E+05 -9.257293E+04  6.411578E+04
       141  22  3.487502E+04  1.575358E+05  4.536481E+04 -6.565135E+05 -4.954236E+04 -2.292193E+04
       141  23 -6.696911E+03  1.466782E+05  2.496854E+04 -2.389902E+05 -1.359373E+05 -9.754655E+03
       141  24  8.143514E+03  1.596017E+05  2.882928E+04 -6.565623E+05 -9.220894E+04  3.860224E+03
       141  25 -1.260872E+06 -5.024090E+06 -1.236036E+06 -6.358700E+05 -4.974763E+04  6.045325E+04
       141  26 -9.865010E+05 -3.802495E+06 -9.156428E+05 -2.244965E+05 -1.360422E+05  1.994524E+03
       141  27 -6.682034E+05 -2.568203E+06 -6.209769E+05 -6.485551E+05 -9.184561E+04 -5.613220E+04
       142   1  3.140626E+05  1.387431E+06  3.230083E+05 -6.675240E+05  4.283670E+04 -3.311069E+04
       142   2  1.223373E+02  1.575078E+05  4.204125E+04 -2.367099E+05  4.306652E+02 -5.454853E+04
       142   3 -2.717313E+05 -1.070313E+06 -2.174059E+05 -6.433137E+05 -4.194696E+04 -7.594541E+04
       142   4  9.445467E+03  1.560747E+05  3.074236E+04 -6.570908E+05  4.267437E+04 -9.587541E+03
       142   5 -2.903012E+02  1.557314E+05  4.162077E+04 -2.383160E+05  2.711736E+02 -3.106101E+04
       142   6  3.216069E+04  1.560749E+05  7.411222E+04 -6.569384E+05 -4.210754E+04 -5.253483E+04
       142   7 -2.952802E+05 -1.073891E+06 -2.616272E+05 -6.466753E+05  4.251264E+04  1.388928E+04
       142   8 -7.026341E+02  1.539562E+05  4.120235E+04 -2.399222E+05  1.115603E+02 -7.573559E+03
       142   9  3.359450E+05  1.383846E+06  3.655273E+05 -6.705870E+05 -4.226897E+04 -2.907809E+04
       142  10  3.140603E+05  1.387430E+06  3.230028E+05 -6.675229E+05 -1.173795E-09  3.220679E-09
       142  11  1.215386E+02  1.575046E+05  4.203566E+04 -2.367098E+05  1.152636E-09  7.407698E-10
       142  12 -2.717348E+05 -1.070320E+06 -2.174200E+05 -6.433163E+05 -8.534097E-10 -3.669398E-09
       142  13  9.443487E+03  1.560741E+05  3.073877E+04 -6.570905E+05 -1.904322E-09 -1.030086E-10
       142  14 -2.905602E+02  1.557304E+05  4.161895E+04 -2.383160E+05  5.154634E-09 -3.579904E-09
       142  15  3.215804E+04  1.560715E+05  7.410369E+04 -6.569402E+05  5.983632E-09 -1.073482E-08
       142  16 -2.952822E+05 -1.073891E+06 -2.616310E+05 -6.466758E+05 -2.450594E-09 -3.273310E-09
       142  17 -7.026495E+02  1.539562E+05  4.120224E+04 -2.399222E+05 -3.030822E-09 -2.416117E-09
       142  18  3.359429E+05  1.383845E+06  3.655224E+05 -6.705880E+05 -1.756528E-09  3.217884E-10
       142  19  3.140626E+05  1.387431E+06  3.230083E+05 -6.675240E+05 -4.283670E+04  3.311069E+04
       142  20  1.223373E+02  1.575078E+05  4.204125E+04 -2.367099E+05 -4.306652E+02  5.454853E+04
       142  21 -2.717313E+05 -1.070313E+06 -2.174059E+05 -6.433137E+05  4.194696E+04  7.594541E+04
       142  22  9.445467E+03  1.560747E+05  3.074236E+04 -6.570908E+05 -4.267437E+04  9.587541E+03
       142  23 -2.903012E+02  1.557314E+05  4.162077E+04 -2.383160E+05 -2.711736E+02  3.106101E+04
       142  24  3.216069E+04  1.560749E+05  7.411222E+04 -6.569384E+05  4.210754E+04  5.253483E+04
       142  25 -2.952802E+05 -1.073891E+06 -2.616272E+05 -6.466753E+05 -4.251264E+04 -1.388928E+04
       142  26 -7.026341E+02  1.539562E+05  4.120235E+04 -2.399222E+05 -1.115603E+02  7.573559E+03
       142  27  3.359450E+05  1.383846E+06  3.655273E+05 -6.705870E+05  4.226897E+04  2.907809E+04
       143   1 -6.806030E+05 -2.548311E+06 -5.581289E+05 -6.786880E+05 -9.121884E+04 -1.268589E+05
       143   2 -1.013566E+06 -3.819262E+06 -7.991847E+05 -2.024874E+05 -1.353396E+05 -1.310102E+05
       143   3 -1.039502E+06 -5.003269E+06 -9.593131E+05 -5.616784E+05 -4.929837E+04 -1.346974E+05
       143   4 -5.609286E+03  1.759729E+05  9.072478E+04 -6.567449E+05 -9.158790E+04 -6.707034E+04
       143   5 -3.442623E+04  1.262280E+05  1.405803E+05 -2.389382E+05 -1.352280E+05 -1.431522E+05
       143   6  2.553410E+05  1.739057E+05  3.209120E+05 -6.560883E+05 -4.907136E+04 -2.187853E+05
       143   7  6.688533E+05  2.907094E+06  7.390725E+05 -6.346903E+05 -9.195182E+04 -7.019334E+03
       143   8  9.435925E+05  4.086060E+06  1.079255E+06 -2.756060E+05 -1.351155E+05 -1.553691E+05
       143   9  1.548213E+06  5.375600E+06  1.599177E+06 -7.512662E+05 -4.882001E+04 -3.035718E+05
       143  10 -6.806162E+05 -2.548331E+06 -5.581749E+05 -6.786974E+05  1.386359E-09  1.461200E-09
       143  11 -1.013591E+06 -3.819286E+06 -7.992516E+05 -2.025017E+05  1.011732E-09  2.521371E-10
       143  12 -1.039510E+06 -5.003290E+06 -9.593521E+05 -5.616838E+05 -3.360553E-10 -1.818061E-09
       143  13 -5.619511E+03  1.759659E+05  9.070054E+04 -6.567499E+05 -3.312705E-09 -4.166593E-11
       143  14 -3.445138E+04  1.262010E+05  1.405074E+05 -2.389537E+05  2.043078E-09 -2.006478E-09
       143  15  2.553256E+05  1.738537E+05  3.208175E+05 -6.560970E+05 -4.262410E-10 -1.950357E-09
       143  16  6.688443E+05  2.907092E+06  7.390565E+05 -6.346908E+05  1.173682E-09 -1.567921E-09
       143  17  9.435665E+05  4.086029E+06  1.079176E+06 -2.756228E+05  9.567179E-10 -1.632625E-09
       143  18  1.548186E+06  5.375501E+06  1.599001E+06 -7.512781E+05 -4.835475E-10  1.115295E-09
       143  19 -6.806030E+05 -2.548311E+06 -5.581289E+05 -6.786880E+05  9.121884E+04  1.268589E+05
       143  20 -1.013566E+06 -3.819262E+06 -7.991847E+05 -2.024874E+05  1.353396E+05  1.310102E+05
       143  21 -1.039502E+06 -5.003269E+06 -9.593131E+05 -5.616784E+05  4.929837E+04  1.346974E+05
       143  22 -5.609286E+03  1.759729E+05  9.072478E+04 -6.567449E+05  9.158790E+04  6.707034E+04
       143  23 -3.442623E+04  1.262280E+05  1.405803E+05 -2.389382E+05  1.352280E+05  1.431522E+05
       143  24  2.553410E+05  1.739057E+05  3.209120E+05 -6.560883E+05  4.907136E+04  2.187853E+05
       143  25  6.688533E+05  2.907094E+06  7.390725E+05 -6.346903E+05  9.195182E+04  7.019334E+03
       143  26  9.435925E+05  4.086060E+06  1.079255E+06 -2.756060E+05  1.351155E+05  1.553691E+05
       143  27  1.548213E+06  5.375600E+06  1.599177E+06 -7.512662E+05  4.882001E+04  3.035718E+05
       144   1 -2.753546E+05 -1.208170E+05 -6.126188E+04 -1.178891E+05 -2.985505E+04 -8.954515E+03
       144   2 -2.601996E+05 -9.355443E+04 -3.672877E+04 -1.114338E+05 -1.834728E+04  5.799472E+02
       144   3 -2.488046E+05 -7.912299E+04 -2.494470E+04 -1.049925E+05 -5.561396E+03  6.710662E+03
       144   4 -1.378406E+05 -5.596509E+04 -2.380966E+04 -6.644488E+04 -1.632517E+04 -3.878490E+03
       144   5 -1.354363E+05 -4.139163E+04 -1.139836E+04 -6.977113E+04 -1.215699E+04  2.902215E+03
       144   6 -1.353370E+05 -3.819418E+04 -5.919138E+03 -7.311198E+04 -6.711209E+03  6.279099E+03
       144   7 -3.103338E+02  8.890161E+03  1.364076E+04 -1.499028E+04 -2.792327E+03  1.199384E+03
       144   8 -1.065748E+04  1.077365E+04  1.393122E+04 -2.810048E+04 -5.965423E+03  5.225135E+03
       144   9 -2.185469E+04  2.736293E+03  1.310636E+04 -4.122575E+04 -7.861255E+03  5.847448E+03
       144  10 -2.753556E+05 -1.208173E+05 -6.126371E+04 -1.178893E+05  1.353020E-10 -1.503118E-10
       144  11 -2.602000E+05 -9.355452E+04 -3.672940E+04 -1.114338E+05 -7.518975E-10 -4.129659E-10
       144  12 -2.488046E+05 -7.912304E+04 -2.494484E+04 -1.049924E+05 -9.370921E-10 -3.081007E-10
       144  13 -1.378409E+05 -5.596518E+04 -2.381019E+04 -6.644493E+04  1.211201E-10  2.607991E-11
       144  14 -1.354365E+05 -4.139168E+04 -1.139865E+04 -6.977110E+04 -1.675157E-09 -1.159286E-11
       144  15 -1.353370E+05 -3.819424E+04 -5.919297E+03 -7.311195E+04  1.621652E-09 -5.031599E-10
       144  16 -3.103426E+02  8.890157E+03  1.364074E+04 -1.499028E+04  6.516576E-10  3.233346E-10
       144  17 -1.065753E+04  1.077361E+04  1.393110E+04 -2.810045E+04  1.510599E-09  3.048352E-10
       144  18 -2.185476E+04  2.736240E+03  1.310618E+04 -4.122572E+04  5.266532E-10  6.957168E-12
       144  19 -2.753546E+05 -1.208170E+05 -6.126188E+04 -1.178891E+05  2.985505E+04  8.954515E+03
       144  20 -2.601996E+05 -9.355443E+04 -3.672877E+04 -1.114338E+05  1.834728E+04 -5.799472E+02
       144  21 -2.488046E+05 -7.912299E+04 -2.494470E+04 -1.049925E+05  5.561396E+03 -6.710662E+03
       144  22 -1.378406E+05 -5.596509E+04 -2.380966E+04 -6.644488E+04  1.632517E+04  3.878490E+03
       144  23 -1.354363E+05 -4.139163E+04 -1.139836E+04 -6.977113E+04  1.215699E+04 -2.902215E+03
       144  24 -1.353370E+05 -3.819418E+04 -5.919138E+03 -7.311198E+04  6.711209E+03 -6.279099E+03
       144  25 -3.103338E+02  8.890161E+03  1.364076E+04 -1.499028E+04  2.792327E+03 -1.199384E+03
       144  26 -1.065748E+04  1.077365E+04  1.393122E+04 -2.810048E+04  5.965423E+03 -5.225135E+03
       144  27 -2.185469E+04  2.736293E+03  1.310636E+04 -4.122575E+04  7.861255E+03 -5.847448E+03
       145   1 -2.369662E+05 -7.525141E+04 -2.116168E+04 -1.025731E+05 -4.784088E+03  6.510648E+03
       145   2 -2.212804E+05 -6.664865E+04 -1.554872E+04 -9.665738E+04 -2.530292E+03  6.553025E+03
       145   3 -2.040432E+05 -6.114093E+04 -1.166340E+04 -9.305567E+04 -1.304838E+02  6.206179E+03
       145   4 -1.346437E+05 -3.774855E+04 -4.388281E+03 -7.308532E+04 -5.883077E+03  6.098186E+03
       145   5 -1.354079E+05 -3.561387E+04 -2.277290E+03 -7.217958E+04 -4.468499E+03  5.825781E+03
       145   6 -1.344544E+05 -3.640793E+04 -1.228791E+03 -7.358799E+04 -2.907953E+03  5.164161E+03
       145   7 -3.231131E+04 -2.449972E+02  1.238453E+04 -4.359330E+04 -6.982244E+03  5.685654E+03
       145   8 -4.952741E+04 -4.578259E+03  1.099404E+04 -4.769857E+04 -6.406989E+03  5.098427E+03
       145   9 -6.485952E+04 -1.167408E+04  9.206038E+03 -5.411801E+04 -5.685785E+03  4.122008E+03
       145  10 -2.369662E+05 -7.525147E+04 -2.116180E+04 -1.025731E+05 -4.721290E-10 -6.606814E-10
       145  11 -2.212804E+05 -6.664870E+04 -1.554881E+04 -9.665736E+04 -1.516193E-10 -3.887568E-10
       145  12 -2.040432E+05 -6.114098E+04 -1.166347E+04 -9.305567E+04 -5.685684E-10 -8.418941E-10
       145  13 -1.346438E+05 -3.774860E+04 -4.388416E+03 -7.308529E+04 -5.634500E-10 -3.209466E-10
       145  14 -1.354079E+05 -3.561391E+04 -2.277391E+03 -7.217955E+04  4.154748E-10 -4.979725E-10
       145  15 -1.344544E+05 -3.640796E+04 -1.228857E+03 -7.358798E+04 -1.311422E-09 -1.693688E-10
       145  16 -3.231137E+04 -2.450450E+02  1.238438E+04 -4.359327E+04  8.709483E-10 -1.941758E-10
       145  17 -4.952746E+04 -4.578298E+03  1.099392E+04 -4.769854E+04  4.844022E-10  2.296626E-10
       145  18 -6.485956E+04 -1.167410E+04  9.205945E+03 -5.411799E+04 -5.901085E-10  3.373717E-10
       145  19 -2.369662E+05 -7.525141E+04 -2.116168E+04 -1.025731E+05  4.784088E+03 -6.510648E+03
       145  20 -2.212804E+05 -6.664865E+04 -1.554872E+04 -9.665738E+04  2.530292E+03 -6.553025E+03
       145  21 -2.040432E+05 -6.114093E+04 -1.166340E+04 -9.305567E+04  1.304838E+02 -6.206179E+03
       145  22 -1.346437E+05 -3.774855E+04 -4.388281E+03 -7.308532E+04  5.883077E+03 -6.098186E+03
       145  23 -1.354079E+05 -3.561387E+04 -2.277290E+03 -7.217958E+04  4.468499E+03 -5.825781E+03
       145  24 -1.344544E+05 -3.640793E+04 -1.228791E+03 -7.358799E+04  2.907953E+03 -5.164161E+03
       145  25 -3.231131E+04 -2.449972E+02  1.238453E+04 -4.359330E+04  6.982244E+03 -5.685654E+03
       145  26 -4.952741E+04 -4.578259E+03  1.099404E+04 -4.769857E+04  6.406989E+03 -5.098427E+03
       145  27 -6.485952E+04 -1.167408E+04  9.206038E+03 -5.411801E+04  5.685785E+03 -4.122008E+03
       146   1 -1.934715E+05 -5.742736E+04 -9.688003E+03 -9.017740E+04  3.144337E+02  5.502312E+03
       146   2 -1.778503E+05 -5.031356E+04 -6.749811E+03 -8.425520E+04  1.149086E+03  4.323983E+03
       146   3 -1.601285E+05 -4.545300E+04 -4.087583E+03 -8.081731E+04  2.000370E+03  3.101173E+03
       146   4 -1.343827E+05 -3.638261E+04 -9.176979E+02 -7.357716E+04 -2.457405E+03  4.462443E+03
       146   5 -1.354366E+05 -3.522671E+04 -4.962885E+02 -7.234939E+04 -1.718664E+03  3.248183E+03
       146   6 -1.343713E+05 -3.630505E+04 -2.748551E+02 -7.360601E+04 -9.633051E+02  1.989444E+03
       146   7 -7.529023E+04 -1.533748E+04  7.852595E+03 -5.697542E+04 -5.229521E+03  3.422471E+03
       146   8 -9.302135E+04 -2.013978E+04  5.757172E+03 -6.044289E+04 -4.586602E+03  2.172313E+03
       146   9 -1.086137E+05 -2.715714E+04  3.537810E+03 -6.639451E+04 -3.927072E+03  8.776801E+02
       146  10 -1.934715E+05 -5.742740E+04 -9.688060E+03 -9.017740E+04 -1.810943E-09 -6.429829E-10
       146  11 -1.778503E+05 -5.031358E+04 -6.749849E+03 -8.425520E+04 -1.793228E-09 -8.206630E-11
       146  12 -1.601285E+05 -4.545301E+04 -4.087608E+03 -8.081731E+04 -1.029463E-09  5.858636E-11
       146  13 -1.343828E+05 -3.638263E+04 -9.177467E+02 -7.357715E+04 -5.309071E-10 -3.085133E-10
       146  14 -1.354366E+05 -3.522672E+04 -4.963139E+02 -7.234939E+04 -1.787693E-10  3.021195E-10
       146  15 -1.343713E+05 -3.630505E+04 -2.748642E+02 -7.360600E+04 -9.603041E-10 -9.474666E-11
       146  16 -7.529026E+04 -1.533750E+04  7.852522E+03 -5.697541E+04  1.201934E-09  3.242989E-10
       146  17 -9.302138E+04 -2.013979E+04  5.757123E+03 -6.044289E+04  1.140055E-09 -4.701401E-10
       146  18 -1.086137E+05 -2.715715E+04  3.537780E+03 -6.639451E+04  1.510882E-09  3.513457E-10
       146  19 -1.934715E+05 -5.742736E+04 -9.688003E+03 -9.017740E+04 -3.144337E+02 -5.502312E+03
       146  20 -1.778503E+05 -5.031356E+04 -6.749811E+03 -8.425520E+04 -1.149086E+03 -4.323983E+03
       146  21 -1.601285E+05 -4.545300E+04 -4.087583E+03 -8.081731E+04 -2.000370E+03 -3.101173E+03
       146  22 -1.343827E+05 -3.638261E+04 -9.176979E+02 -7.357716E+04  2.457405E+03 -4.462443E+03
       146  23 -1.354366E+05 -3.522671E+04 -4.962885E+02 -7.234939E+04  1.718664E+03 -3.248183E+03
       146  24 -1.343713E+05 -3.630505E+04 -2.748551E+02 -7.360601E+04  9.633051E+02 -1.989444E+03
       146  25 -7.529023E+04 -1.533748E+04  7.852595E+03 -5.697542E+04  5.229521E+03 -3.422471E+03
       146  26 -9.302135E+04 -2.013978E+04  5.757172E+03 -6.044289E+04  4.586602E+03 -2.172313E+03
       146  27 -1.086137E+05 -2.715714E+04  3.537810E+03 -6.639451E+04  3.927072E+03 -8.776801E+02
       147   1 -1.496867E+05 -4.173824E+04 -2.423138E+03 -7.789639E+04  2.339759E+03  2.314385E+03
       147   2 -1.340917E+05 -3.472520E+04  6.909248E+01 -7.196354E+04  2.925526E+03  9.645327E+02
       147   3 -1.163317E+05 -2.989331E+04  2.508437E+03 -6.852337E+04  3.512903E+03 -3.896334E+02
       147   4 -1.343627E+05 -3.630560E+04 -2.081907E+02 -7.360316E+04 -6.233024E+02  1.202900E+03
       147   5 -1.354458E+05 -3.521644E+04 -1.208941E+02 -7.235645E+04 -4.689960E+01 -1.504743E+02
       147   6 -1.343628E+05 -3.630680E+04 -7.923325E+01 -7.360266E+04  5.311103E+02 -1.508159E+03
       147   7 -1.190383E+05 -3.087285E+04  2.006848E+03 -6.930978E+04 -3.586479E+03  9.137110E+01
       147   8 -1.367999E+05 -3.570768E+04 -3.108455E+02 -7.274936E+04 -3.019338E+03 -1.265486E+03
       147   9 -1.523935E+05 -4.272026E+04 -2.666870E+03 -7.868181E+04 -2.450593E+03 -2.626651E+03
       147  10 -1.496867E+05 -4.173825E+04 -2.423158E+03 -7.789639E+04 -2.498373E-10  1.217637E-10
       147  11 -1.340917E+05 -3.472520E+04  6.907465E+01 -7.196354E+04 -2.249069E-09 -5.946192E-10
       147  12 -1.163317E+05 -2.989332E+04  2.508414E+03 -6.852337E+04 -2.171623E-09 -1.901863E-09
       147  13 -1.343627E+05 -3.630560E+04 -2.081941E+02 -7.360316E+04  5.339060E-10  2.543408E-11
       147  14 -1.354458E+05 -3.521644E+04 -1.208942E+02 -7.235645E+04  8.779723E-10 -5.106210E-10
       147  15 -1.343628E+05 -3.630681E+04 -7.923805E+01 -7.360266E+04  4.967335E-10  1.529560E-10
       147  16 -1.190383E+05 -3.087285E+04  2.006824E+03 -6.930978E+04 -9.761561E-11 -5.828267E-12
       147  17 -1.367999E+05 -3.570769E+04 -3.108656E+02 -7.274936E+04  1.574233E-09  1.485406E-10
       147  18 -1.523935E+05 -4.272027E+04 -2.666894E+03 -7.868182E+04  1.353449E-09  1.820842E-09
       147  19 -1.496867E+05 -4.173824E+04 -2.423138E+03 -7.789639E+04 -2.339759E+03 -2.314385E+03
       147  20 -1.340917E+05 -3.472520E+04  6.909248E+01 -7.196354E+04 -2.925526E+03 -9.645327E+02
       147  21 -1.163317E+05 -2.989331E+04  2.508437E+03 -6.852337E+04 -3.512903E+03  3.896334E+02
       147  22 -1.343627E+05 -3.630560E+04 -2.081907E+02 -7.360316E+04  6.233024E+02 -1.202900E+03
       147  23 -1.354458E+05 -3.521644E+04 -1.208941E+02 -7.235645E+04  4.689960E+01  1.504743E+02
       147  24 -1.343628E+05 -3.630680E+04 -7.923325E+01 -7.360266E+04 -5.311103E+02  1.508159E+03
       147  25 -1.190383E+05 -3.087285E+04  2.006848E+03 -6.930978E+04  3.586479E+03 -9.137110E+01
       147  26 -1.367999E+05 -3.570768E+04 -3.108455E+02 -7.274936E+04  3.019338E+03  1.265486E+03
       147  27 -1.523935E+05 -4.272026E+04 -2.666870E+03 -7.868181E+04  2.450593E+03  2.626651E+03
       148   1 -1.059065E+05 -2.617520E+04  4.108699E+03 -6.559870E+04  3.827322E+03 -1.189959E+03
       148   2 -9.031772E+04 -1.916434E+04  6.508436E+03 -5.966419E+04  4.365915E+03 -2.561350E+03
       148   3 -7.255623E+04 -1.432776E+04  8.892725E+03 -5.622157E+04  4.902227E+03 -3.926593E+03
       148   4 -1.343624E+05 -3.630736E+04 -6.997598E+01 -7.360213E+04  8.455230E+02 -2.308498E+03
       148   5 -1.354476E+05 -3.522023E+04 -6.891171E+01 -7.235573E+04  1.397322E+03 -3.674981E+03
       148   6 -1.343630E+05 -3.630995E+04 -9.373472E+01 -7.360126E+04  1.946843E+03 -5.035325E+03
       148   7 -1.628170E+05 -4.643929E+04 -4.248521E+03 -8.160511E+04 -2.136095E+03 -3.426971E+03
       148   8 -1.805753E+05 -5.127589E+04 -6.646239E+03 -8.504638E+04 -1.571043E+03 -4.788528E+03
       148   9 -1.961663E+05 -5.829202E+04 -9.080404E+03 -9.097953E+04 -1.008267E+03 -6.143954E+03
       148  10 -1.059065E+05 -2.617521E+04  4.108669E+03 -6.559869E+04 -6.002406E-08 -2.357765E-08
       148  11 -9.031774E+04 -1.916435E+04  6.508388E+03 -5.966418E+04 -1.083237E-08 -4.407338E-09
       148  12 -7.255626E+04 -1.432778E+04  8.892651E+03 -5.622156E+04  5.150600E-08  1.965080E-08
       148  13 -1.343624E+05 -3.630737E+04 -6.998733E+01 -7.360213E+04 -4.779360E-09 -1.749718E-09
       148  14 -1.354476E+05 -3.522024E+04 -6.894076E+01 -7.235572E+04 -1.029561E-08 -4.906308E-09
       148  15 -1.343630E+05 -3.630998E+04 -9.378948E+01 -7.360126E+04 -4.579988E-09 -2.427672E-09
       148  16 -1.628170E+05 -4.643930E+04 -4.248552E+03 -8.160512E+04  5.023844E-08  1.990584E-08
       148  17 -1.805753E+05 -5.127591E+04 -6.646287E+03 -8.504639E+04 -1.076910E-08 -4.915460E-09
       148  18 -1.961663E+05 -5.829206E+04 -9.080477E+03 -9.097953E+04 -5.905547E-08 -2.457055E-08
       148  19 -1.059065E+05 -2.617520E+04  4.108699E+03 -6.559870E+04 -3.827322E+03  1.189959E+03
       148  20 -9.031772E+04 -1.916434E+04  6.508436E+03 -5.966419E+04 -4.365915E+03  2.561350E+03
       148  21 -7.255623E+04 -1.432776E+04  8.892725E+03 -5.622157E+04 -4.902227E+03  3.926593E+03
       148  22 -1.343624E+05 -3.630736E+04 -6.997598E+01 -7.360213E+04 -8.455230E+02  2.308498E+03
       148  23 -1.354476E+05 -3.522023E+04 -6.891171E+01 -7.235573E+04 -1.397322E+03  3.674981E+03
       148  24 -1.343630E+05 -3.630995E+04 -9.373472E+01 -7.360126E+04 -1.946843E+03  5.035325E+03
       148  25 -1.628170E+05 -4.643929E+04 -4.248521E+03 -8.160511E+04  2.136095E+03  3.426971E+03
       148  26 -1.805753E+05 -5.127589E+04 -6.646239E+03 -8.504638E+04  1.571043E+03  4.788528E+03
       148  27 -1.961663E+05 -5.829202E+04 -9.080404E+03 -9.097953E+04  1.008267E+03  6.143954E+03
       149   1 -6.213196E+04 -1.060778E+04  1.046938E+04 -5.329882E+04  5.220210E+03 -4.719516E+03
       149   2 -4.655289E+04 -3.590471E+03  1.284213E+04 -4.736218E+04  5.698230E+03 -6.070276E+03
       149   3 -2.879873E+04  1.255574E+03  1.523357E+04 -4.391076E+04  6.154487E+03 -7.362882E+03
       149   4 -1.343672E+05 -3.630987E+04 -1.170780E+02 -7.360163E+04  2.264119E+03 -5.828560E+03
       149   5 -1.354453E+05 -3.522840E+04 -2.002585E+02 -7.235303E+04  2.867535E+03 -7.132372E+03
       149   6 -1.343734E+05 -3.634309E+04 -3.640842E+02 -7.358982E+04  3.449186E+03 -8.378022E+03
       149   7 -2.065967E+05 -6.201138E+04 -1.070354E+04 -9.390219E+04 -6.916087E+02 -6.937469E+03
       149   8 -2.243285E+05 -6.686524E+04 -1.324252E+04 -9.734034E+04  3.728621E+01 -8.194301E+03
       149   9 -2.399345E+05 -7.394002E+04 -1.596144E+04 -1.032637E+05  7.444043E+02 -9.392966E+03
       149  10 -6.213199E+04 -1.060781E+04  1.046929E+04 -5.329880E+04 -1.517996E-10  8.348999E-10
       149  11 -4.655293E+04 -3.590520E+03  1.284200E+04 -4.736215E+04  7.885385E-10  9.048464E-10
       149  12 -2.879879E+04  1.255505E+03  1.523340E+04 -4.391072E+04 -4.478771E-10  1.082322E-09
       149  13 -1.343672E+05 -3.630991E+04 -1.171514E+02 -7.360162E+04 -4.108399E-10 -4.368552E-10
       149  14 -1.354453E+05 -3.522846E+04 -2.003696E+02 -7.235302E+04 -9.113425E-10  1.669579E-10
       149  15 -1.343734E+05 -3.634317E+04 -3.642384E+02 -7.358979E+04  3.752249E-10  1.674545E-10
       149  16 -2.065967E+05 -6.201143E+04 -1.070363E+04 -9.390219E+04  1.002351E-09 -1.950566E-09
       149  17 -2.243285E+05 -6.686531E+04 -1.324264E+04 -9.734034E+04 -6.626212E-10 -8.543419E-10
       149  18 -2.399345E+05 -7.394011E+04 -1.596161E+04 -1.032637E+05 -3.219621E-10 -4.115054E-10
       149  19 -6.213196E+04 -1.060778E+04  1.046938E+04 -5.329882E+04 -5.220210E+03  4.719516E+03
       149  20 -4.655289E+04 -3.590471E+03  1.284213E+04 -4.736218E+04 -5.698230E+03  6.070276E+03
       149  21 -2.879873E+04  1.255574E+03  1.523357E+04 -4.391076E+04 -6.154487E+03  7.362882E+03
       149  22 -1.343672E+05 -3.630987E+04 -1.170780E+02 -7.360163E+04 -2.264119E+03  5.828560E+03
       149  23 -1.354453E+05 -3.522840E+04 -2.002585E+02 -7.235303E+04 -2.867535E+03  7.132372E+03
       149  24 -1.343734E+05 -3.634309E+04 -3.640842E+02 -7.358982E+04 -3.449186E+03  8.378022E+03
       149  25 -2.065967E+05 -6.201138E+04 -1.070354E+04 -9.390219E+04  6.916087E+02  6.937469E+03
       149  26 -2.243285E+05 -6.686524E+04 -1.324252E+04 -9.734034E+04 -3.728621E+01  8.194301E+03
       149  27 -2.399345E+05 -7.394002E+04 -1.596144E+04 -1.032637E+05 -7.444043E+02  9.392966E+03
       150   1 -1.835618E+04  4.976453E+03  1.679905E+04 -4.100373E+04  6.508260E+03 -8.085610E+03
       150   2 -2.924718E+03  1.205786E+04  1.935975E+04 -3.493543E+04  6.241892E+03 -9.330092E+03
       150   3  1.469769E+04  1.690806E+04  2.237077E+04 -3.126179E+04  5.784849E+03 -1.006634E+04
       150   4 -1.344053E+05 -3.634898E+04 -4.855662E+02 -7.358844E+04  3.795674E+03 -9.103550E+03
       150   5 -1.354302E+05 -3.538978E+04 -8.974804E+02 -7.229190E+04  4.625628E+03 -9.936813E+03
       150   6 -1.344819E+05 -3.687923E+04 -1.727777E+03 -7.339035E+04  5.264922E+03 -1.026176E+04
       150   7 -2.504413E+05 -7.767355E+04 -1.777073E+04 -1.061678E+05  1.083588E+03 -1.012130E+04
       150   8 -2.679175E+05 -8.283586E+04 -2.115520E+04 -1.096411E+05  3.009717E+03 -1.054340E+04
       150   9 -2.836377E+05 -9.066420E+04 -2.582680E+04 -1.155094E+05  4.745126E+03 -1.045712E+04
       150  10 -1.835625E+04  4.976371E+03  1.679885E+04 -4.100369E+04 -8.477457E-10  6.649069E-10
       150  11 -2.924783E+03  1.205775E+04  1.935952E+04 -3.493538E+04 -5.122264E-11  8.042597E-10
       150  12  1.469762E+04  1.690794E+04  2.237052E+04 -3.126174E+04 -8.260381E-10  1.054586E-09
       150  13 -1.344053E+05 -3.634908E+04 -4.857490E+02 -7.358842E+04 -2.145578E-10  3.895832E-10
       150  14 -1.354302E+05 -3.538989E+04 -8.977061E+02 -7.229186E+04 -7.183555E-10  9.792790E-10
       150  15 -1.344819E+05 -3.687935E+04 -1.728027E+03 -7.339031E+04 -6.077803E-10  5.375228E-10
       150  16 -2.504413E+05 -7.767366E+04 -1.777092E+04 -1.061678E+05  7.051294E-10  4.617794E-10
       150  17 -2.679176E+05 -8.283598E+04 -2.115543E+04 -1.096411E+05 -2.109330E-09  8.973764E-10
       150  18 -2.836377E+05 -9.066432E+04 -2.582705E+04 -1.155094E+05  2.271523E-10  1.491775E-10
       150  19 -1.835618E+04  4.976453E+03  1.679905E+04 -4.100373E+04 -6.508260E+03  8.085610E+03
       150  20 -2.924718E+03  1.205786E+04  1.935975E+04 -3.493543E+04 -6.241892E+03  9.330092E+03
       150  21  1.469769E+04  1.690806E+04  2.237077E+04 -3.126179E+04 -5.784849E+03  1.006634E+04
       150  22 -1.344053E+05 -3.634898E+04 -4.855662E+02 -7.358844E+04 -3.795674E+03  9.103550E+03
       150  23 -1.354302E+05 -3.538978E+04 -8.974804E+02 -7.229190E+04 -4.625628E+03  9.936813E+03
       150  24 -1.344819E+05 -3.687923E+04 -1.727777E+03 -7.339035E+04 -5.264922E+03  1.026176E+04
       150  25 -2.504413E+05 -7.767355E+04 -1.777073E+04 -1.061678E+05 -1.083588E+03  1.012130E+04
       150  26 -2.679175E+05 -8.283586E+04 -2.115520E+04 -1.096411E+05 -3.009717E+03  1.054340E+04
       150  27 -2.836377E+05 -9.066420E+04 -2.582680E+04 -1.155094E+05 -4.745126E+03  1.045712E+04
       151   1  2.531230E+04  2.054788E+04  2.422346E+04 -2.849207E+04  6.231954E+03 -1.025885E+04
       151   2  3.876381E+04  2.830313E+04  2.956858E+04 -2.023813E+04 -1.771720E+03 -1.103693E+04
       151   3  5.433971E+04  3.235168E+04  3.978166E+04 -1.328381E+04 -1.144408E+04 -7.370852E+03
       151   4 -1.347919E+05 -3.701826E+04 -2.329989E+03 -7.335852E+04  5.645782E+03 -1.047916E+04
       151   5 -1.353988E+05 -3.771193E+04 -4.486642E+03 -7.139724E+04  7.230416E+03 -7.658856E+03
       151   6 -1.357811E+05 -4.401209E+04 -9.371741E+03 -7.073597E+04  7.146537E+03 -3.936366E+02
       151   7 -2.948683E+05 -9.458167E+04 -2.888395E+04 -1.182140E+05  5.059771E+03 -1.069941E+04
       151   8 -3.095264E+05 -1.037222E+05 -3.854197E+04 -1.225418E+05  1.622969E+04 -4.281952E+03
       151   9 -3.258592E+05 -1.203691E+05 -5.852486E+04 -1.281695E+05  2.573031E+04  6.580610E+03
       151  10  2.531223E+04  2.054776E+04  2.422319E+04 -2.849202E+04 -3.098118E-10  8.574494E-10
       151  11  3.876378E+04  2.830300E+04  2.956834E+04 -2.023815E+04 -1.798164E-10  4.777169E-10
       151  12  5.433956E+04  3.235159E+04  3.978131E+04 -1.328388E+04 -9.725391E-10 -3.572978E-11
       151  13 -1.347919E+05 -3.701839E+04 -2.330256E+03 -7.335847E+04  2.302245E-10  4.046791E-10
       151  14 -1.353989E+05 -3.771201E+04 -4.486851E+03 -7.139720E+04  2.955904E-10  3.210666E-10
       151  15 -1.357811E+05 -4.401211E+04 -9.371838E+03 -7.073596E+04  9.464018E-11 -8.464507E-11
       151  16 -2.948684E+05 -9.458180E+04 -2.888421E+04 -1.182140E+05  5.595570E-11 -2.885773E-10
       151  17 -3.095267E+05 -1.037223E+05 -3.854250E+04 -1.225418E+05  9.101156E-10 -4.401191E-10
       151  18 -3.258599E+05 -1.203693E+05 -5.852618E+04 -1.281696E+05  1.242026E-10 -1.473755E-10
       151  19  2.531230E+04  2.054788E+04  2.422346E+04 -2.849207E+04 -6.231954E+03  1.025885E+04
       151  20  3.876381E+04  2.830313E+04  2.956858E+04 -2.023813E+04  1.771720E+03  1.103693E+04
       151  21  5.433971E+04  3.235168E+04  3.978166E+04 -1.328381E+04  1.144408E+04  7.370852E+03
       151  22 -1.347919E+05 -3.701826E+04 -2.329989E+03 -7.335852E+04 -5.645782E+03  1.047916E+04
       151  23 -1.353988E+05 -3.771193E+04 -4.486642E+03 -7.139724E+04 -7.230416E+03  7.658856E+03
       151  24 -1.357811E+05 -4.401209E+04 -9.371741E+03 -7.073597E+04 -7.146537E+03  3.936366E+02
       151  25 -2.948683E+05 -9.458167E+04 -2.888395E+04 -1.182140E+05 -5.059771E+03  1.069941E+04
       151  26 -3.095264E+05 -1.037222E+05 -3.854197E+04 -1.225418E+05 -1.622969E+04  4.281952E+03
       151  27 -3.258592E+05 -1.203691E+05 -5.852486E+04 -1.281695E+05 -2.573031E+04 -6.580610E+03
       152   1 -6.226715E+04 -8.554958E+03 -1.987141E+04 -9.980449E+03 -3.413464E+04 -1.455966E+03
       152   2 -6.361795E+04  3.711708E+04  6.903445E+03 -2.663219E+03 -2.317779E+04 -4.405928E+03
       152   3 -7.910272E+04  3.191799E+04  1.383061E+04  1.028765E+04 -1.222248E+04 -4.234538E+03
       152   4 -1.988938E+05 -4.260082E+04 -5.351155E+04  4.385851E+03 -3.662060E+04 -1.457652E+03
       152   5 -1.916735E+05  5.419309E+03 -2.353425E+04  1.560388E+03 -2.394352E+04 -4.406469E+03
       152   6 -1.988893E+05  2.263532E+03 -1.460258E+04  4.368797E+03 -1.126780E+04 -4.234007E+03
       152   7 -3.355030E+05 -7.664729E+04 -8.715292E+04  1.874898E+04 -3.910601E+04 -1.459453E+03
       152   8 -3.197140E+05 -2.627957E+04 -5.397309E+04  5.783119E+03 -2.470909E+04 -4.407020E+03
       152   9 -3.186627E+05 -2.739183E+04 -4.303675E+04 -1.548915E+03 -1.031330E+04 -4.233494E+03
       152  10 -6.226840E+04 -8.555273E+03 -1.987360E+04 -9.980489E+03  4.452339E-10  6.049117E-11
       152  11 -6.361853E+04  3.711691E+04  6.902398E+03 -2.663301E+03 -7.409598E-10 -3.853876E-10
       152  12 -7.910288E+04  3.191793E+04  1.383030E+04  1.028761E+04 -3.113446E-10 -3.224005E-10
       152  13 -1.988952E+05 -4.260118E+04 -5.351407E+04  4.385808E+03  1.290569E-10  3.651241E-10
       152  14 -1.916741E+05  5.419134E+03 -2.353537E+04  1.560304E+03 -2.691517E-10 -2.248593E-10
       152  15 -1.988895E+05  2.263478E+03 -1.460285E+04  4.368758E+03 -1.451735E-10  3.838730E-10
       152  16 -3.355046E+05 -7.664771E+04 -8.715580E+04  1.874894E+04 -3.723858E-10  1.200664E-10
       152  17 -3.197146E+05 -2.627976E+04 -5.397427E+04  5.783031E+03  1.644037E-10 -1.071295E-09
       152  18 -3.186628E+05 -2.739187E+04 -4.303699E+04 -1.548950E+03  1.322523E-09 -1.022109E-09
       152  19 -6.226715E+04 -8.554958E+03 -1.987141E+04 -9.980449E+03  3.413464E+04  1.455966E+03
       152  20 -6.361795E+04  3.711708E+04  6.903445E+03 -2.663219E+03  2.317779E+04  4.405928E+03
       152  21 -7.910272E+04  3.191799E+04  1.383061E+04  1.028765E+04  1.222248E+04  4.234538E+03
       152  22 -1.988938E+05 -4.260082E+04 -5.351155E+04  4.385851E+03  3.662060E+04  1.457652E+03
       152  23 -1.916735E+05  5.419309E+03 -2.353425E+04  1.560388E+03  2.394352E+04  4.406469E+03
       152  24 -1.988893E+05  2.263532E+03 -1.460258E+04  4.368797E+03  1.126780E+04  4.234007E+03
       152  25 -3.355030E+05 -7.664729E+04 -8.715292E+04  1.874898E+04  3.910601E+04  1.459453E+03
       152  26 -3.197140E+05 -2.627957E+04 -5.397309E+04  5.783119E+03  2.470909E+04  4.407020E+03
       152  27 -3.186627E+05 -2.739183E+04 -4.303675E+04 -1.548915E+03  1.031330E+04  4.233494E+03
       153   1 -8.656560E+04  2.294697E+04  1.420237E+04  3.197814E+03 -9.045225E+03 -3.597313E+03
       153   2 -9.420435E+04  2.556519E+04  1.791505E+04  1.249439E+03 -6.043687E+03 -3.457277E+03
       153   3 -1.034918E+05  2.314729E+04  1.841470E+04  5.069296E+03 -3.042316E+03 -3.107210E+03
       153   4 -1.960525E+05 -4.169127E+03 -1.188226E+04  4.405765E+03 -9.025693E+03 -3.597364E+03
       153   5 -1.952175E+05  5.566191E+02 -6.100984E+03  1.520408E+03 -5.908729E+03 -3.457239E+03
       153   6 -1.960515E+05  2.257712E+02 -3.613278E+03  4.403339E+03 -2.791889E+03 -3.107078E+03
       153   7 -3.055284E+05 -3.128609E+04 -3.796774E+04  5.613502E+03 -9.006163E+03 -3.597414E+03
       153   8 -2.962213E+05 -2.445268E+04 -3.011773E+04  1.791330E+03 -5.773792E+03 -3.457201E+03
       153   9 -2.886034E+05 -2.269637E+04 -2.564185E+04  3.737481E+03 -2.541499E+03 -3.106946E+03
       153  10 -8.656569E+04  2.294694E+04  1.420219E+04  3.197787E+03  3.599485E-10 -9.368939E-10
       153  11 -9.420439E+04  2.556516E+04  1.791495E+04  1.249422E+03 -1.844159E-12 -6.059401E-11
       153  12 -1.034918E+05  2.314728E+04  1.841466E+04  5.069288E+03  6.136458E-10  5.537351E-10
       153  13 -1.960526E+05 -4.169163E+03 -1.188244E+04  4.405739E+03  1.355047E-09 -8.476256E-10
       153  14 -1.952176E+05  5.565969E+02 -6.101072E+03  1.520391E+03  5.388069E-10 -7.326383E-10
       153  15 -1.960515E+05  2.257588E+02 -3.613310E+03  4.403332E+03 -5.886170E-10 -1.825314E-10
       153  16 -3.055285E+05 -3.128612E+04 -3.796791E+04  5.613475E+03 -3.865838E-10 -2.229518E-10
       153  17 -2.962214E+05 -2.445270E+04 -3.011781E+04  1.791314E+03 -2.073929E-11 -5.274356E-10
       153  18 -2.886034E+05 -2.269638E+04 -2.564188E+04  3.737474E+03 -4.716489E-10  5.925685E-10
       153  19 -8.656560E+04  2.294697E+04  1.420237E+04  3.197814E+03  9.045225E+03  3.597313E+03
       153  20 -9.420435E+04  2.556519E+04  1.791505E+04  1.249439E+03  6.043687E+03  3.457277E+03
       153  21 -1.034918E+05  2.314729E+04  1.841470E+04  5.069296E+03  3.042316E+03  3.107210E+03
       153  22 -1.960525E+05 -4.169127E+03 -1.188226E+04  4.405765E+03  9.025693E+03  3.597364E+03
       153  23 -1.952175E+05  5.566191E+02 -6.100984E+03  1.520408E+03  5.908729E+03  3.457239E+03
       153  24 -1.960515E+05  2.257712E+02 -3.613278E+03  4.403339E+03  2.791889E+03  3.107078E+03
       153  25 -3.055284E+05 -3.128609E+04 -3.796774E+04  5.613502E+03  9.006163E+03  3.597414E+03
       153  26 -2.962213E+05 -2.445268E+04 -3.011773E+04  1.791330E+03  5.773792E+03  3.457201E+03
       153  27 -2.886034E+05 -2.269637E+04 -2.564185E+04  3.737481E+03  2.541499E+03  3.106946E+03
       154   1 -1.135401E+05  1.994985E+04  1.669923E+04  4.375458E+03 -2.412393E+03 -2.867563E+03
       154   2 -1.219500E+05  1.829996E+04  1.595476E+04  1.541192E+03 -1.640034E+03 -2.519042E+03
       154   3 -1.305879E+05  1.616124E+04  1.458406E+04  4.521371E+03 -8.677469E+02 -2.155659E+03
       154   4 -1.957312E+05 -3.953043E+02 -2.822060E+03  4.414564E+03 -2.224228E+03 -2.867464E+03
       154   5 -1.956163E+05  6.115375E+01 -1.560154E+03  1.507174E+03 -1.443760E+03 -2.518924E+03
       154   6 -1.957308E+05  2.733041E+01 -9.301605E+02  4.414274E+03 -6.633542E+02 -2.155521E+03
       154   7 -2.779161E+05 -2.074094E+04 -2.234383E+04  4.453663E+03 -2.036087E+03 -2.867364E+03
       154   8 -2.692776E+05 -1.817805E+04 -1.907545E+04  1.473160E+03 -1.247509E+03 -2.518805E+03
       154   9 -2.608698E+05 -1.610689E+04 -1.644468E+04  4.307187E+03 -4.589828E+02 -2.155383E+03
       154  10 -1.135401E+05  1.994984E+04  1.669921E+04  4.375453E+03  1.327360E-11  1.305521E-09
       154  11 -1.219501E+05  1.829996E+04  1.595474E+04  1.541189E+03  9.858678E-10  1.351866E-09
       154  12 -1.305879E+05  1.616124E+04  1.458405E+04  4.521370E+03  8.568980E-10  5.843424E-10
       154  13 -1.957312E+05 -3.953144E+02 -2.822085E+03  4.414559E+03  5.060623E-10 -2.833027E-10
       154  14 -1.956163E+05  6.114637E+01 -1.560170E+03  1.507171E+03 -5.393075E-10  1.095755E-09
       154  15 -1.957308E+05  2.732531E+01 -9.301700E+02  4.414273E+03  5.185051E-10  2.327138E-09
       154  16 -2.779161E+05 -2.074095E+04 -2.234385E+04  4.453659E+03 -1.103494E-09  1.543669E-09
       154  17 -2.692776E+05 -1.817805E+04 -1.907546E+04  1.473157E+03 -2.095728E-09  1.359870E-09
       154  18 -2.608698E+05 -1.610689E+04 -1.644469E+04  4.307186E+03  2.753470E-10  1.314585E-09
       154  19 -1.135401E+05  1.994985E+04  1.669923E+04  4.375458E+03  2.412393E+03  2.867563E+03
       154  20 -1.219500E+05  1.829996E+04  1.595476E+04  1.541192E+03  1.640034E+03  2.519042E+03
       154  21 -1.305879E+05  1.616124E+04  1.458406E+04  4.521371E+03  8.677469E+02  2.155659E+03
       154  22 -1.957312E+05 -3.953043E+02 -2.822060E+03  4.414564E+03  2.224228E+03  2.867464E+03
       154  23 -1.956163E+05  6.115375E+01 -1.560154E+03  1.507174E+03  1.443760E+03  2.518924E+03
       154  24 -1.957308E+05  2.733041E+01 -9.301605E+02  4.414274E+03  6.633542E+02  2.155521E+03
       154  25 -2.779161E+05 -2.074094E+04 -2.234383E+04  4.453663E+03  2.036087E+03  2.867364E+03
       154  26 -2.692776E+05 -1.817805E+04 -1.907545E+04  1.473160E+03  1.247509E+03  2.518805E+03
       154  27 -2.608698E+05 -1.610689E+04 -1.644468E+04  4.307187E+03  4.589828E+02  2.155383E+03
       155   1 -1.409797E+05  1.351089E+04  1.224944E+04  4.454020E+03 -7.146857E+02 -1.941570E+03
       155   2 -1.495217E+05  1.143482E+04  1.050049E+04  1.530514E+03 -4.821587E+02 -1.577525E+03
       155   3 -1.581141E+05  9.315622E+03  8.587316E+03  4.450720E+03 -2.496728E+02 -1.212022E+03
       155   4 -1.956908E+05 -2.992870E+01 -7.333105E+02  4.420885E+03 -5.142373E+02 -1.941427E+03
       155   5 -1.956653E+05  1.004745E+01 -4.708310E+02  1.499001E+03 -2.809260E+02 -1.577374E+03
       155   6 -1.956906E+05  6.718919E+00 -3.731615E+02  4.420856E+03 -4.765263E+01 -1.211861E+03
       155   7 -2.503991E+05 -1.357096E+04 -1.371627E+04  4.387752E+03 -3.138065E+02 -1.941285E+03
       155   8 -2.418070E+05 -1.141488E+04 -1.144230E+04  1.467490E+03 -7.970824E+01 -1.577222E+03
       155   9 -2.332658E+05 -9.302286E+03 -9.333738E+03  4.390993E+03  1.543553E+02 -1.211701E+03
       155  10 -1.409797E+05  1.351088E+04  1.224943E+04  4.454019E+03  4.835661E-10  2.687664E-10
       155  11 -1.495217E+05  1.143482E+04  1.050049E+04  1.530514E+03 -7.272010E-10  1.792377E-09
       155  12 -1.581141E+05  9.315620E+03  8.587313E+03  4.450720E+03 -1.171986E-09  2.036230E-09
       155  13 -1.956908E+05 -2.993281E+01 -7.333181E+02  4.420884E+03  4.037688E-10  8.407403E-10
       155  14 -1.956653E+05  1.004475E+01 -4.708358E+02  1.499001E+03  1.273506E-10  1.426731E-09
       155  15 -1.956906E+05  6.717341E+00 -3.731643E+02  4.420856E+03 -7.991750E-10  5.758372E-10
       155  16 -2.503991E+05 -1.357096E+04 -1.371628E+04  4.387751E+03 -1.579054E-09  8.552986E-10
       155  17 -2.418070E+05 -1.141488E+04 -1.144231E+04  1.467490E+03 -1.113843E-09 -4.775998E-10
       155  18 -2.332658E+05 -9.302288E+03 -9.333741E+03  4.390993E+03  5.211122E-10 -2.318658E-10
       155  19 -1.409797E+05  1.351089E+04  1.224944E+04  4.454020E+03  7.146857E+02  1.941570E+03
       155  20 -1.495217E+05  1.143482E+04  1.050049E+04  1.530514E+03  4.821587E+02  1.577525E+03
       155  21 -1.581141E+05  9.315622E+03  8.587316E+03  4.450720E+03  2.496728E+02  1.212022E+03
       155  22 -1.956908E+05 -2.992870E+01 -7.333105E+02  4.420885E+03  5.142373E+02  1.941427E+03
       155  23 -1.956653E+05  1.004745E+01 -4.708310E+02  1.499001E+03  2.809260E+02  1.577374E+03
       155  24 -1.956906E+05  6.718919E+00 -3.731615E+02  4.420856E+03  4.765263E+01  1.211861E+03
       155  25 -2.503991E+05 -1.357096E+04 -1.371627E+04  4.387752E+03  3.138065E+02  1.941285E+03
       155  26 -2.418070E+05 -1.141488E+04 -1.144230E+04  1.467490E+03  7.970824E+01  1.577222E+03
       155  27 -2.332658E+05 -9.302286E+03 -9.333738E+03  4.390993E+03 -1.543553E+02  1.211701E+03
       156   1 -1.685864E+05  6.711673E+03  6.050342E+03  4.435939E+03 -1.829087E+02 -9.988625E+02
       156   2 -1.771515E+05  4.593867E+03  3.959674E+03  1.502562E+03  3.633286E+01 -6.327507E+02
       156   3 -1.857668E+05  2.437409E+03  1.713979E+03  4.429712E+03  2.555614E+02 -2.668639E+02
       156   4 -1.956903E+05  6.129653E+00 -3.680691E+02  4.424590E+03  1.910397E+01 -9.986981E+02
       156   5 -1.956652E+05  9.973746E+00 -4.422916E+02  1.494335E+03  2.382154E+02 -6.325831E+02
       156   6 -1.956902E+05 -2.477523E+01 -6.714174E+02  4.424616E+03  4.573168E+02 -2.666929E+02
       156   7 -2.227934E+05 -6.699467E+03 -6.786531E+03  4.413241E+03  2.211078E+02 -9.985336E+02
       156   8 -2.141785E+05 -4.573945E+03 -4.844281E+03  1.486107E+03  4.400920E+02 -6.324155E+02
       156   9 -2.056135E+05 -2.486967E+03 -3.056820E+03  4.419520E+03  6.590691E+02 -2.665219E+02
       156  10 -1.685864E+05  6.711672E+03  6.050340E+03  4.435939E+03  1.265325E-09  9.611218E-10
       156  11 -1.771515E+05  4.593867E+03  3.959674E+03  1.502563E+03 -2.983871E-10 -1.507444E-10
       156  12 -1.857668E+05  2.437409E+03  1.713978E+03  4.429712E+03 -1.064742E-09 -7.654352E-10
       156  13 -1.956903E+05  6.128582E+00 -3.680710E+02  4.424590E+03  3.006516E-10  2.780176E-09
       156  14 -1.956652E+05  9.973301E+00 -4.422925E+02  1.494335E+03 -7.071353E-11  4.846585E-10
       156  15 -1.956902E+05 -2.477536E+01 -6.714179E+02  4.424616E+03  3.481129E-10 -1.019848E-09
       156  16 -2.227934E+05 -6.699468E+03 -6.786533E+03  4.413241E+03 -1.095432E-09  1.411416E-09
       156  17 -2.141785E+05 -4.573945E+03 -4.844282E+03  1.486107E+03 -1.048799E-09 -5.137553E-10
       156  18 -2.056135E+05 -2.486967E+03 -3.056821E+03  4.419520E+03  1.824297E-09 -9.276061E-10
       156  19 -1.685864E+05  6.711673E+03  6.050342E+03  4.435939E+03  1.829087E+02  9.988625E+02
       156  20 -1.771515E+05  4.593867E+03  3.959674E+03  1.502562E+03 -3.633286E+01  6.327507E+02
       156  21 -1.857668E+05  2.437409E+03  1.713979E+03  4.429712E+03 -2.555614E+02  2.668639E+02
       156  22 -1.956903E+05  6.129653E+00 -3.680691E+02  4.424590E+03 -1.910397E+01  9.986981E+02
       156  23 -1.956652E+05  9.973746E+00 -4.422916E+02  1.494335E+03 -2.382154E+02  6.325831E+02
       156  24 -1.956902E+05 -2.477523E+01 -6.714174E+02  4.424616E+03 -4.573168E+02  2.666929E+02
       156  25 -2.227934E+05 -6.699467E+03 -6.786531E+03  4.413241E+03 -2.211078E+02  9.985336E+02
       156  26 -2.141785E+05 -4.573945E+03 -4.844281E+03  1.486107E+03 -4.400920E+02  6.324155E+02
       156  27 -2.056135E+05 -2.486967E+03 -3.056820E+03  4.419520E+03 -6.590691E+02  2.665219E+02
       157   1 -1.962920E+05 -1.187347E+02 -1.007017E+03  4.361363E+03  3.893346E+02 -5.244631E+01
       157   2 -2.047783E+05 -2.210823E+03 -3.588431E+03  1.492529E+03  1.099262E+03  3.140195E+02
       157   3 -2.134795E+05 -4.743802E+03 -6.745033E+03  4.486360E+03  1.809193E+03  6.726904E+02
       157   4 -1.957267E+05  2.656617E+01 -8.466499E+02  4.424970E+03  5.933969E+02 -5.227271E+01
       157   5 -1.956196E+05  5.685666E+01 -1.410760E+03  1.493800E+03  1.299032E+03  3.141877E+02
       157   6 -1.957268E+05 -3.529852E+02 -2.547060E+03  4.425290E+03  2.004679E+03  6.728532E+02
       157   7 -1.951613E+05  1.718670E+02 -6.862830E+02  4.488576E+03  7.974594E+02 -5.209908E+01
       157   8 -1.864608E+05  2.324531E+03  7.669049E+02  1.495070E+03  1.498804E+03  3.143558E+02
       157   9 -1.779738E+05  4.037809E+03  1.650891E+03  4.364218E+03  2.200170E+03  6.730160E+02
       157  10 -1.962920E+05 -1.187347E+02 -1.007017E+03  4.361363E+03 -2.908725E-09  9.372309E-10
       157  11 -2.047783E+05 -2.210824E+03 -3.588434E+03  1.492529E+03 -2.135976E-09  7.312334E-10
       157  12 -2.134795E+05 -4.743803E+03 -6.745040E+03  4.486359E+03 -2.748201E-10  7.431444E-10
       157  13 -1.957267E+05  2.656607E+01 -8.466506E+02  4.424970E+03 -1.683818E-09 -1.714919E-10
       157  14 -1.956196E+05  5.685610E+01 -1.410764E+03  1.493799E+03 -5.389530E-10  2.021022E-10
       157  15 -1.957268E+05 -3.529868E+02 -2.547068E+03  4.425289E+03  5.871760E-10  1.192764E-09
       157  16 -1.951613E+05  1.718668E+02 -6.862842E+02  4.488577E+03  1.408149E-09  5.277215E-10
       157  17 -1.864608E+05  2.324530E+03  7.669005E+02  1.495070E+03  6.252339E-10 -2.332093E-09
       157  18 -1.779738E+05  4.037807E+03  1.650882E+03  4.364217E+03  6.153341E-10  1.722895E-10
       157  19 -1.962920E+05 -1.187347E+02 -1.007017E+03  4.361363E+03 -3.893346E+02  5.244631E+01
       157  20 -2.047783E+05 -2.210823E+03 -3.588431E+03  1.492529E+03 -1.099262E+03 -3.140195E+02
       157  21 -2.134795E+05 -4.743802E+03 -6.745033E+03  4.486360E+03 -1.809193E+03 -6.726904E+02
       157  22 -1.957267E+05  2.656617E+01 -8.466499E+02  4.424970E+03 -5.933969E+02  5.227271E+01
       157  23 -1.956196E+05  5.685666E+01 -1.410760E+03  1.493800E+03 -1.299032E+03 -3.141877E+02
       157  24 -1.957268E+05 -3.529852E+02 -2.547060E+03  4.425290E+03 -2.004679E+03 -6.728532E+02
       157  25 -1.951613E+05  1.718670E+02 -6.862830E+02  4.488576E+03 -7.974594E+02  5.209908E+01
       157  26 -1.864608E+05  2.324531E+03  7.669049E+02  1.495070E+03 -1.498804E+03 -3.143558E+02
       157  27 -1.779738E+05  4.037809E+03  1.650891E+03  4.364218E+03 -2.200170E+03 -6.730160E+02
       158   1 -2.242494E+05 -6.789666E+03 -9.996822E+03  3.843700E+03  2.286997E+03  9.019045E+02
       158   2 -2.320653E+05 -8.608385E+03 -1.425277E+04  1.759262E+03  5.161076E+03  1.262984E+03
       158   3 -2.414081E+05 -1.499506E+04 -2.152463E+04  5.525553E+03  8.035182E+03  1.508509E+03
       158   4 -1.960161E+05  2.067985E+02 -3.260043E+03  4.421445E+03  2.516920E+03  9.020954E+02
       158   5 -1.952585E+05  5.044830E+02 -5.501334E+03  1.497663E+03  5.327376E+03  1.263111E+03
       158   6 -1.960168E+05 -3.754607E+03 -1.071424E+04  4.424611E+03  8.137900E+03  1.508568E+03
       158   7 -1.677821E+05  7.203206E+03  3.476681E+03  4.999217E+03  2.746853E+03  9.022867E+02
       158   8 -1.584505E+05  9.617254E+03  3.250005E+03  1.236049E+03  5.493686E+03  1.263238E+03
       158   9 -1.506236E+05  7.485703E+03  9.602021E+01  3.323588E+03  8.240625E+03  1.508627E+03
       158  10 -2.242494E+05 -6.789668E+03 -9.996833E+03  3.843698E+03 -7.715800E-10  1.903962E-09
       158  11 -2.320653E+05 -8.608394E+03 -1.425282E+04  1.759257E+03 -5.557326E-10  6.862478E-10
       158  12 -2.414082E+05 -1.499508E+04 -2.152476E+04  5.525543E+03  1.220615E-09  4.996541E-10
       158  13 -1.960161E+05  2.067959E+02 -3.260056E+03  4.421443E+03  9.789727E-10  1.338457E-09
       158  14 -1.952586E+05  5.044737E+02 -5.501390E+03  1.497658E+03  5.396708E-10  8.147743E-10
       158  15 -1.960169E+05 -3.754627E+03 -1.071436E+04  4.424601E+03  5.698015E-10 -5.970802E-10
       158  16 -1.677822E+05  7.203203E+03  3.476665E+03  4.999215E+03  3.921625E-10  9.330808E-10
       158  17 -1.584505E+05  9.617244E+03  3.249945E+03  1.236043E+03 -6.005891E-10 -7.906222E-10
       158  18 -1.506237E+05  7.485682E+03  9.588829E+01  3.323578E+03 -1.356287E-09 -1.768420E-09
       158  19 -2.242494E+05 -6.789666E+03 -9.996822E+03  3.843700E+03 -2.286997E+03 -9.019045E+02
       158  20 -2.320653E+05 -8.608385E+03 -1.425277E+04  1.759262E+03 -5.161076E+03 -1.262984E+03
       158  21 -2.414081E+05 -1.499506E+04 -2.152463E+04  5.525553E+03 -8.035182E+03 -1.508509E+03
       158  22 -1.960161E+05  2.067985E+02 -3.260043E+03  4.421445E+03 -2.516920E+03 -9.020954E+02
       158  23 -1.952585E+05  5.044830E+02 -5.501334E+03  1.497663E+03 -5.327376E+03 -1.263111E+03
       158  24 -1.960168E+05 -3.754607E+03 -1.071424E+04  4.424611E+03 -8.137900E+03 -1.508568E+03
       158  25 -1.677821E+05  7.203206E+03  3.476681E+03  4.999217E+03 -2.746853E+03 -9.022867E+02
       158  26 -1.584505E+05  9.617254E+03  3.250005E+03  1.236049E+03 -5.493686E+03 -1.263238E+03
       158  27 -1.506236E+05  7.485703E+03  9.602021E+01  3.323588E+03 -8.240625E+03 -1.508627E+03
       159   1 -2.544198E+05 -1.178936E+04 -2.643302E+04 -9.267886E+02  9.541039E+03  1.957393E+03
       159   2 -2.563947E+05 -1.103149E+04 -3.651064E+04  5.325641E+03  2.191850E+04  2.226052E+03
       159   3 -2.715670E+05 -5.658200E+04 -6.622722E+04  1.737595E+04  3.429723E+04  7.733594E+02
       159   4 -1.985752E+05  2.045404E+03 -1.316699E+04  4.401757E+03  1.015963E+04  1.957943E+03
       159   5 -1.920615E+05  4.889921E+03 -2.121868E+04  1.517315E+03  2.158807E+04  2.225657E+03
       159   6 -1.985791E+05 -3.840681E+04 -4.824870E+04  4.430802E+03  3.301795E+04  7.717333E+02
       159   7 -1.427277E+05  1.588005E+04  9.884701E+01  9.730784E+03  1.077827E+04  1.958504E+03
       159   8 -1.277246E+05  2.081108E+04 -5.927013E+03 -2.291409E+03  2.125760E+04  2.225266E+03
       159   9 -1.255860E+05 -2.023139E+04 -3.027047E+04 -8.515867E+03  3.173852E+04  7.701607E+02
       159  10 -2.544199E+05 -1.178939E+04 -2.643320E+04 -9.268037E+02 -5.581558E-10  6.421734E-11
       159  11 -2.563952E+05 -1.103162E+04 -3.651155E+04  5.325602E+03 -1.827593E-10 -4.601146E-10
       159  12 -2.715683E+05 -5.658232E+04 -6.622943E+04  1.737592E+04  3.010796E-10 -1.235833E-11
       159  13 -1.985753E+05  2.045372E+03 -1.316719E+04  4.401741E+03  2.786867E-10  1.659859E-09
       159  14 -1.920620E+05  4.889791E+03 -2.121957E+04  1.517276E+03  4.083219E-10 -9.870343E-10
       159  15 -1.985803E+05 -3.840711E+04 -4.825075E+04  4.430782E+03 -2.449286E-10  9.468251E-10
       159  16 -1.427279E+05  1.588002E+04  9.862145E+01  9.730767E+03  1.188814E-09  1.004974E-09
       159  17 -1.277251E+05  2.081096E+04 -5.927871E+03 -2.291447E+03 -2.409234E-10  7.282323E-10
       159  18 -1.255870E+05 -2.023166E+04 -3.027237E+04 -8.515887E+03  1.248164E-10 -2.067009E-10
       159  19 -2.544198E+05 -1.178936E+04 -2.643302E+04 -9.267886E+02 -9.541039E+03 -1.957393E+03
       159  20 -2.563947E+05 -1.103149E+04 -3.651064E+04  5.325641E+03 -2.191850E+04 -2.226052E+03
       159  21 -2.715670E+05 -5.658200E+04 -6.622722E+04  1.737595E+04 -3.429723E+04 -7.733594E+02
       159  22 -1.985752E+05  2.045404E+03 -1.316699E+04  4.401757E+03 -1.015963E+04 -1.957943E+03
       159  23 -1.920615E+05  4.889921E+03 -2.121868E+04  1.517315E+03 -2.158807E+04 -2.225657E+03
       159  24 -1.985791E+05 -3.840681E+04 -4.824870E+04  4.430802E+03 -3.301795E+04 -7.717333E+02
       159  25 -1.427277E+05  1.588005E+04  9.884701E+01  9.730784E+03 -1.077827E+04 -1.958504E+03
       159  26 -1.277246E+05  2.081108E+04 -5.927013E+03 -2.291409E+03 -2.125760E+04 -2.225266E+03
       159  27 -1.255860E+05 -2.023139E+04 -3.027047E+04 -8.515867E+03 -3.173852E+04 -7.701607E+02
       160   1  9.049425E+04  5.069116E+05  9.976470E+04 -4.662115E+04  2.029817E+03  3.861564E+04
       160   2  3.239031E+04  4.511238E+05  5.831543E+04 -2.214251E+04  5.696504E+03  2.117681E+04
       160   3  2.109323E+04  4.092912E+05  3.991223E+04 -2.218818E+04  4.142002E+03  3.737010E+03
       160   4  4.282968E+04  3.154395E+05  5.290735E+04 -2.847240E+04  2.032810E+03  3.394221E+04
       160   5 -2.628286E+03  3.088031E+05  2.551357E+04 -1.621961E+04  5.697139E+03  2.039371E+04
       160   6 -1.948376E+03  3.154496E+05  1.847030E+04 -2.849054E+04  4.140431E+03  6.842861E+03
       160   7 -4.836349E+03  1.240016E+05  6.047575E+03 -1.032925E+04  2.035532E+03  2.927022E+04
       160   8 -3.764817E+04  1.665012E+05 -7.289612E+03 -1.029809E+04  5.697760E+03  1.961078E+04
       160   9 -2.499044E+04  2.216162E+05 -2.972143E+03 -3.479195E+04  4.138798E+03  9.948246E+03
       160  10  9.049385E+04  5.069100E+05  9.976190E+04 -4.662121E+04  2.138523E-10  8.262638E-10
       160  11  3.239016E+04  4.511233E+05  5.831453E+04 -2.214260E+04  9.794079E-10 -6.888336E-10
       160  12  2.109321E+04  4.092912E+05  3.991217E+04 -2.218819E+04  3.952427E-10 -3.676315E-10
       160  13  4.282937E+04  3.154383E+05  5.290518E+04 -2.847245E+04  1.743595E-10 -5.581402E-11
       160  14 -2.628432E+03  3.088026E+05  2.551273E+04 -1.621971E+04  1.533051E-09  1.955232E-10
       160  15 -1.948407E+03  3.154495E+05  1.847018E+04 -2.849057E+04 -1.391783E-10 -6.702798E-10
       160  16 -4.836583E+03  1.240006E+05  6.045957E+03 -1.032930E+04  7.478132E-10 -6.675183E-10
       160  17 -3.764831E+04  1.665008E+05 -7.290396E+03 -1.029818E+04  5.729362E-10 -5.086672E-10
       160  18 -2.499048E+04  2.216161E+05 -2.972361E+03 -3.479198E+04  8.552765E-10  7.287920E-11
       160  19  9.049425E+04  5.069116E+05  9.976470E+04 -4.662115E+04 -2.029817E+03 -3.861564E+04
       160  20  3.239031E+04  4.511238E+05  5.831543E+04 -2.214251E+04 -5.696504E+03 -2.117681E+04
       160  21  2.109323E+04  4.092912E+05  3.991223E+04 -2.218818E+04 -4.142002E+03 -3.737010E+03
       160  22  4.282968E+04  3.154395E+05  5.290735E+04 -2.847240E+04 -2.032810E+03 -3.394221E+04
       160  23 -2.628286E+03  3.088031E+05  2.551357E+04 -1.621961E+04 -5.697139E+03 -2.039371E+04
       160  24 -1.948376E+03  3.154496E+05  1.847030E+04 -2.849054E+04 -4.140431E+03 -6.842861E+03
       160  25 -4.836349E+03  1.240016E+05  6.047575E+03 -1.032925E+04 -2.035532E+03 -2.927022E+04
       160  26 -3.764817E+04  1.665012E+05 -7.289612E+03 -1.029809E+04 -5.697760E+03 -1.961078E+04
       160  27 -2.499044E+04  2.216162E+05 -2.972143E+03 -3.479195E+04 -4.138798E+03 -9.948246E+03
       161   1  1.465466E+04  3.614826E+05  2.821322E+04 -3.053038E+04  2.091725E+03  2.299653E+03
       161   2 -7.425724E+02  3.110802E+05  1.619658E+04 -1.598551E+04 -1.822972E+01 -5.945397E+03
       161   3 -6.866903E+03  2.640420E+05  1.185744E+04 -2.612777E+04 -2.126968E+03 -1.418983E+04
       161   4  2.800077E+03  3.132453E+05  1.717185E+04 -2.852149E+04  2.090919E+03  3.873586E+03
       161   5 -6.234988E+02  3.115640E+05  1.630718E+04 -1.617739E+04 -1.903676E+01 -4.372268E+03
       161   6  5.226081E+03  3.132446E+05  2.312070E+04 -2.852025E+04 -2.127725E+03 -1.261814E+04
       161   7 -9.054652E+03  2.650101E+05  6.130341E+03 -2.651275E+04  2.090122E+03  5.447399E+03
       161   8 -5.044237E+02  3.120477E+05  1.641779E+04 -1.636927E+04 -1.984477E+01 -2.799138E+03
       161   9  1.731892E+04  3.624495E+05  3.438382E+04 -3.091292E+04 -2.128495E+03 -1.104632E+04
       161  10  1.465465E+04  3.614826E+05  2.821320E+04 -3.053039E+04  2.441524E-10  9.476193E-10
       161  11 -7.425819E+02  3.110802E+05  1.619651E+04 -1.598551E+04 -1.456119E-09 -1.403924E-09
       161  12 -6.866962E+03  2.640418E+05  1.185705E+04 -2.612780E+04 -3.567073E-10 -5.292540E-10
       161  13  2.800068E+03  3.132452E+05  1.717181E+04 -2.852149E+04 -4.945811E-10  6.344376E-12
       161  14 -6.235039E+02  3.115639E+05  1.630714E+04 -1.617739E+04 -1.609555E-09 -3.291911E-11
       161  15  5.226033E+03  3.132444E+05  2.312039E+04 -2.852027E+04 -5.641595E-10 -7.729224E-10
       161  16 -9.054665E+03  2.650101E+05  6.130277E+03 -2.651276E+04  4.008574E-11 -6.058046E-10
       161  17 -5.044258E+02  3.120477E+05  1.641778E+04 -1.636927E+04 -1.034761E-09 -1.154418E-11
       161  18  1.731888E+04  3.624493E+05  3.438358E+04 -3.091293E+04 -3.418499E-10  3.123657E-10
       161  19  1.465466E+04  3.614826E+05  2.821322E+04 -3.053038E+04 -2.091725E+03 -2.299653E+03
       161  20 -7.425724E+02  3.110802E+05  1.619658E+04 -1.598551E+04  1.822972E+01  5.945397E+03
       161  21 -6.866903E+03  2.640420E+05  1.185744E+04 -2.612777E+04  2.126968E+03  1.418983E+04
       161  22  2.800077E+03  3.132453E+05  1.717185E+04 -2.852149E+04 -2.090919E+03 -3.873586E+03
       161  23 -6.234988E+02  3.115640E+05  1.630718E+04 -1.617739E+04  1.903676E+01  4.372268E+03
       161  24  5.226081E+03  3.132446E+05  2.312070E+04 -2.852025E+04  2.127725E+03  1.261814E+04
       161  25 -9.054652E+03  2.650101E+05  6.130341E+03 -2.651275E+04 -2.090122E+03 -5.447399E+03
       161  26 -5.044237E+02  3.120477E+05  1.641779E+04 -1.636927E+04  1.984477E+01  2.799138E+03
       161  27  1.731892E+04  3.624495E+05  3.438382E+04 -3.091292E+04  2.128495E+03  1.104632E+04
       162   1 -2.712136E+04  2.227850E+05  5.474387E+03 -3.950795E+04 -4.177342E+03 -1.986068E+04
       162   2 -3.980723E+04  1.628600E+05  9.170999E+03 -5.991675E+03 -5.729794E+03 -3.844016E+04
       162   3  2.685169E+04  1.251816E+05  4.479703E+04  3.007686E+03 -2.039243E+03 -5.701558E+04
       162   4 -3.846674E+03  3.175902E+05  2.713716E+04 -2.849240E+04 -4.179227E+03 -1.675034E+04
       162   5 -4.545546E+03  3.061259E+05  4.219662E+04 -1.621896E+04 -5.728722E+03 -3.923694E+04
       162   6  7.476629E+04  3.175754E+05  9.189155E+04 -2.846060E+04 -2.034483E+03 -6.172099E+04
       162   7  1.942785E+04  4.124040E+05  4.879944E+04 -1.747516E+04 -4.181001E+03 -1.363952E+04
       162   8  3.071509E+04  4.494111E+05  7.522095E+04 -2.644862E+04 -5.727625E+03 -4.003390E+04
       162   9  1.226819E+05  5.100051E+05  1.389840E+05 -5.993865E+04 -2.029248E+03 -6.642786E+04
       162  10 -2.712148E+04  2.227846E+05  5.473614E+03 -3.950801E+04 -1.812082E-10  3.511404E-10
       162  11 -3.980766E+04  1.628584E+05  9.168161E+03 -5.991852E+03 -1.280056E-09 -1.170676E-09
       162  12  2.685081E+04  1.251781E+05  4.479092E+04  3.007592E+03 -3.842589E-11 -2.995378E-10
       162  13 -3.846768E+03  3.175899E+05  2.713660E+04 -2.849246E+04 -2.521914E-10  8.521212E-11
       162  14 -4.545994E+03  3.061243E+05  4.219367E+04 -1.621914E+04  1.040144E-09 -8.769294E-11
       162  15  7.476526E+04  3.175713E+05  9.188438E+04 -2.846070E+04 -6.793388E-10 -4.841002E-10
       162  16  1.942778E+04  4.124038E+05  4.879906E+04 -1.747521E+04 -7.240366E-10 -1.313341E-10
       162  17  3.071462E+04  4.494094E+05  7.521787E+04 -2.644881E+04 -6.203542E-10 -7.849311E-11
       162  18  1.226807E+05  5.100003E+05  1.389757E+05 -5.993876E+04  4.288307E-10  8.465802E-11
       162  19 -2.712136E+04  2.227850E+05  5.474387E+03 -3.950795E+04  4.177342E+03  1.986068E+04
       162  20 -3.980723E+04  1.628600E+05  9.170999E+03 -5.991675E+03  5.729794E+03  3.844016E+04
       162  21  2.685169E+04  1.251816E+05  4.479703E+04  3.007686E+03  2.039243E+03  5.701558E+04
       162  22 -3.846674E+03  3.175902E+05  2.713716E+04 -2.849240E+04  4.179227E+03  1.675034E+04
       162  23 -4.545546E+03  3.061259E+05  4.219662E+04 -1.621896E+04  5.728722E+03  3.923694E+04
       162  24  7.476629E+04  3.175754E+05  9.189155E+04 -2.846060E+04  2.034483E+03  6.172099E+04
       162  25  1.942785E+04  4.124040E+05  4.879944E+04 -1.747516E+04  4.181001E+03  1.363952E+04
       162  26  3.071509E+04  4.494111E+05  7.522095E+04 -2.644862E+04  5.727625E+03  4.003390E+04
       162  27  1.226819E+05  5.100051E+05  1.389840E+05 -5.993865E+04  2.029248E+03  6.642786E+04
       163   1  5.048354E+04  2.003207E+04  1.123545E+04 -3.710191E+03 -2.271435E+04 -2.677368E+03
       163   2  3.685921E+04  5.124620E+04  2.709059E+04  1.441768E+03 -1.675846E+04 -8.233243E+03
       163   3  1.348302E+04  4.653631E+04  3.009163E+04  1.574764E+04 -1.080688E+04 -8.230305E+03
       163   4 -1.682286E+05 -3.436614E+04 -4.215179E+04  1.057647E+04 -2.891222E+04 -2.682480E+03
       163   5 -1.629895E+05  2.086548E+03 -1.889166E+04  5.985259E+03 -1.882342E+04 -8.235221E+03
       163   6 -1.682238E+05  1.890986E+03 -1.135936E+04  1.054830E+04 -8.738682E+03 -8.228538E+03
       163   7 -3.868966E+05 -8.876710E+04 -9.554225E+04  2.485807E+04 -3.510790E+04 -2.687879E+03
       163   8 -3.628012E+05 -4.707581E+04 -6.487653E+04  1.052727E+04 -2.088772E+04 -8.237230E+03
       163   9 -3.499000E+05 -4.275653E+04 -5.281248E+04  5.350493E+03 -6.671081E+03 -8.226805E+03
       163  10  5.048298E+04  2.003193E+04  1.123446E+04 -3.710240E+03 -8.252367E-09  4.325783E-10
       163  11  3.685889E+04  5.124605E+04  2.708993E+04  1.441657E+03  1.151723E-09  3.183350E-09
       163  12  1.348287E+04  4.653621E+04  3.009129E+04  1.574757E+04  9.429073E-09  9.872497E-10
       163  13 -1.682295E+05 -3.436638E+04 -4.215337E+04  1.057640E+04 -1.499809E-09 -9.705035E-10
       163  14 -1.629899E+05  2.086380E+03 -1.889246E+04  5.985134E+03  3.396498E-10 -2.630287E-09
       163  15 -1.682239E+05  1.890893E+03 -1.135963E+04  1.054824E+04  1.081310E-09  8.335838E-10
       163  16 -3.868979E+05 -8.876744E+04 -9.554458E+04  2.485799E+04  8.156638E-09  3.589315E-10
       163  17 -3.628017E+05 -4.707600E+04 -6.487748E+04  1.052713E+04 -7.728834E-10  2.485081E-09
       163  18 -3.499001E+05 -4.275661E+04 -5.281269E+04  5.350449E+03 -1.010839E-08 -8.847302E-11
       163  19  5.048354E+04  2.003207E+04  1.123545E+04 -3.710191E+03  2.271435E+04  2.677368E+03
       163  20  3.685921E+04  5.124620E+04  2.709059E+04  1.441768E+03  1.675846E+04  8.233243E+03
       163  21  1.348302E+04  4.653631E+04  3.009163E+04  1.574764E+04  1.080688E+04  8.230305E+03
       163  22 -1.682286E+05 -3.436614E+04 -4.215179E+04  1.057647E+04  2.891222E+04  2.682480E+03
       163  23 -1.629895E+05  2.086548E+03 -1.889166E+04  5.985259E+03  1.882342E+04  8.235221E+03
       163  24 -1.682238E+05  1.890986E+03 -1.135936E+04  1.054830E+04  8.738682E+03  8.228538E+03
       163  25 -3.868966E+05 -8.876710E+04 -9.554225E+04  2.485807E+04  3.510790E+04  2.687879E+03
       163  26 -3.628012E+05 -4.707581E+04 -6.487653E+04  1.052727E+04  2.088772E+04  8.237230E+03
       163  27 -3.499000E+05 -4.275653E+04 -5.281248E+04  5.350493E+03  6.671081E+03  8.226805E+03
       164   1 -1.743107E+03  3.795539E+04  2.855188E+04  9.875172E+03 -7.431935E+03 -7.054259E+03
       164   2 -1.975590E+04  3.604075E+04  2.851325E+04  5.818009E+03 -5.185152E+03 -6.434389E+03
       164   3 -3.873509E+04  3.147530E+04  2.634682E+04  1.113169E+04 -2.938909E+03 -5.545992E+03
       164   4 -1.661182E+05 -2.457405E+03 -9.131692E+03  1.060618E+04 -7.070950E+03 -7.054063E+03
       164   5 -1.656163E+05  1.953372E+02 -4.841232E+03  5.919404E+03 -4.624981E+03 -6.433942E+03
       164   6 -1.661164E+05  1.622442E+02 -2.817408E+03  1.060363E+04 -2.179488E+03 -5.545269E+03
       164   7 -3.304683E+05 -4.287208E+04 -4.681704E+04  1.133698E+04 -6.710060E+03 -7.053865E+03
       164   8 -3.114571E+05 -3.565155E+04 -3.819711E+04  6.020771E+03 -4.064940E+03 -6.433494E+03
       164   9 -2.934826E+05 -3.115194E+04 -3.198270E+04  1.007569E+04 -1.420222E+03 -5.544548E+03
       164  10 -1.743179E+03  3.795533E+04  2.855169E+04  9.875129E+03  7.869900E-09  7.257904E-10
       164  11 -1.975594E+04  3.604070E+04  2.851312E+04  5.817982E+03 -2.498686E-10  3.938162E-09
       164  12 -3.873511E+04  3.147526E+04  2.634675E+04  1.113167E+04 -6.737271E-09  3.109895E-09
       164  13 -1.661183E+05 -2.457472E+03 -9.131879E+03  1.060614E+04 -1.251343E-10  4.026378E-09
       164  14 -1.656164E+05  1.952870E+02 -4.841350E+03  5.919380E+03  3.699290E-10 -3.230278E-09
       164  15 -1.661164E+05  1.622099E+02 -2.817475E+03  1.060362E+04 -2.101739E-09  3.357132E-09
       164  16 -3.304683E+05 -4.287215E+04 -4.681722E+04  1.133695E+04 -6.522089E-09 -1.569221E-09
       164  17 -3.114571E+05 -3.565160E+04 -3.819722E+04  6.020750E+03  5.755183E-10  6.556198E-10
       164  18 -2.934826E+05 -3.115197E+04 -3.198276E+04  1.007568E+04  7.255844E-09  9.746650E-10
       164  19 -1.743107E+03  3.795539E+04  2.855188E+04  9.875172E+03  7.431935E+03  7.054259E+03
       164  20 -1.975590E+04  3.604075E+04  2.851325E+04  5.818009E+03  5.185152E+03  6.434389E+03
       164  21 -3.873509E+04  3.147530E+04  2.634682E+04  1.113169E+04  2.938909E+03  5.545992E+03
       164  22 -1.661182E+05 -2.457405E+03 -9.131692E+03  1.060618E+04  7.070950E+03  7.054063E+03
       164  23 -1.656163E+05  1.953372E+02 -4.841232E+03  5.919404E+03  4.624981E+03  6.433942E+03
       164  24 -1.661164E+05  1.622442E+02 -2.817408E+03  1.060363E+04  2.179488E+03  5.545269E+03
       164  25 -3.304683E+05 -4.287208E+04 -4.681704E+04  1.133698E+04  6.710060E+03  7.053865E+03
       164  26 -3.114571E+05 -3.565155E+04 -3.819711E+04  6.020771E+03  4.064940E+03  6.433494E+03
       164  27 -2.934826E+05 -3.115194E+04 -3.198270E+04  1.007569E+04  1.420222E+03  5.544548E+03
       165   1 -5.584683E+04  2.689492E+04  2.294107E+04  1.069216E+04 -2.418744E+03 -4.972740E+03
       165   2 -7.431013E+04  2.253001E+04  1.970363E+04  6.003753E+03 -1.822119E+03 -4.054692E+03
       165   3 -9.291703E+04  1.798766E+04  1.602845E+04  1.071932E+04 -1.225648E+03 -3.123168E+03
       165   4 -1.659251E+05 -1.465260E+02 -2.174404E+03  1.061184E+04 -1.741061E+03 -4.972069E+03
       165   5 -1.658519E+05  3.404669E+01 -1.221818E+03  5.909711E+03 -1.134513E+03 -4.053967E+03
       165   6 -1.659241E+05  3.551968E+01 -7.138447E+02  1.061164E+04 -5.281016E+02 -3.122387E+03
       165   7 -2.759921E+05 -2.718881E+04 -2.729067E+04  1.053153E+04 -1.063497E+03 -4.971398E+03
       165   8 -2.573859E+05 -2.246249E+04 -2.214781E+04  5.815681E+03 -4.470080E+02 -4.053242E+03
       165   9 -2.389262E+05 -1.791699E+04 -1.745649E+04  1.050397E+04  1.693636E+02 -3.121606E+03
       165  10 -5.584684E+04  2.689489E+04  2.294101E+04  1.069215E+04 -7.453232E-09 -2.696353E-09
       165  11 -7.431014E+04  2.252999E+04  1.970359E+04  6.003747E+03  1.012823E-10 -3.238108E-09
       165  12 -9.291704E+04  1.798764E+04  1.602843E+04  1.071931E+04  3.878029E-09 -1.961026E-09
       165  13 -1.659251E+05 -1.465533E+02 -2.174456E+03  1.061183E+04  5.280346E-10 -1.360064E-09
       165  14 -1.658519E+05  3.402870E+01 -1.221852E+03  5.909707E+03  2.760128E-11 -3.409764E-09
       165  15 -1.659241E+05  3.550913E+01 -7.138635E+02  1.061164E+04 -2.138784E-10 -1.043663E-09
       165  16 -2.759921E+05 -2.718884E+04 -2.729072E+04  1.053153E+04  7.302864E-09 -2.559416E-09
       165  17 -2.573859E+05 -2.246251E+04 -2.214784E+04  5.815680E+03 -6.653712E-10 -3.878578E-10
       165  18 -2.389262E+05 -1.791700E+04 -1.745650E+04  1.050397E+04 -3.958619E-09  4.061050E-09
       165  19 -5.584683E+04  2.689492E+04  2.294107E+04  1.069216E+04  2.418744E+03  4.972740E+03
       165  20 -7.431013E+04  2.253001E+04  1.970363E+04  6.003753E+03  1.822119E+03  4.054692E+03
       165  21 -9.291703E+04  1.798766E+04  1.602845E+04  1.071932E+04  1.225648E+03  3.123168E+03
       165  22 -1.659251E+05 -1.465260E+02 -2.174404E+03  1.061184E+04  1.741061E+03  4.972069E+03
       165  23 -1.658519E+05  3.404669E+01 -1.221818E+03  5.909711E+03  1.134513E+03  4.053967E+03
       165  24 -1.659241E+05  3.551968E+01 -7.138447E+02  1.061164E+04  5.281016E+02  3.122387E+03
       165  25 -2.759921E+05 -2.718881E+04 -2.729067E+04  1.053153E+04  1.063497E+03  4.971398E+03
       165  26 -2.573859E+05 -2.246249E+04 -2.214781E+04  5.815681E+03  4.470080E+02  4.053242E+03
       165  27 -2.389262E+05 -1.791699E+04 -1.745649E+04  1.050397E+04 -1.693636E+02  3.121606E+03
       166   1 -1.102251E+05  1.368732E+04  1.212078E+04  1.067521E+04 -1.108734E+03 -2.578254E+03
       166   2 -1.287603E+05  9.139784E+03  8.146580E+03  5.947585E+03 -9.430855E+02 -1.644931E+03
       166   3 -1.473421E+05  4.598646E+03  4.060038E+03  1.063568E+04 -7.774961E+02 -7.107811E+02
       166   4 -1.659017E+05  1.560501E+01 -5.522853E+02  1.061431E+04 -4.148712E+02 -2.577457E+03
       166   5 -1.658780E+05  1.803414E+01 -3.381368E+02  5.906422E+03 -2.486300E+02 -1.644117E+03
       166   6 -1.659013E+05  2.677764E+01 -2.367353E+02  1.061429E+04 -8.244285E+01 -7.099470E+02
       166   7 -2.215754E+05 -1.365632E+04 -1.322555E+04  1.055341E+04  2.789298E+02 -2.576660E+03
       166   8 -2.029944E+05 -9.103811E+03 -8.822942E+03  5.865262E+03  4.457844E+02 -1.643302E+03
       166   9 -1.844601E+05 -4.545115E+03 -4.533530E+03  1.059290E+04  6.125898E+02 -7.091130E+02
       166  10 -1.102251E+05  1.368731E+04  1.212077E+04  1.067521E+04  1.963762E-09 -1.918391E-09
       166  11 -1.287603E+05  9.139781E+03  8.146573E+03  5.947584E+03 -3.198825E-09  9.945241E-10
       166  12 -1.473421E+05  4.598646E+03  4.060036E+03  1.063568E+04 -7.007777E-09 -9.392871E-10
       166  13 -1.659017E+05  1.559783E+01 -5.522981E+02  1.061430E+04 -5.372935E-10  1.368039E-09
       166  14 -1.658780E+05  1.803122E+01 -3.381420E+02  5.906422E+03  7.794870E-11 -2.101630E-09
       166  15 -1.659013E+05  2.677710E+01 -2.367362E+02  1.061429E+04  1.677446E-10 -1.616425E-09
       166  16 -2.215754E+05 -1.365633E+04 -1.322556E+04  1.055341E+04 -1.258526E-09  2.385092E-09
       166  17 -2.029944E+05 -9.103814E+03 -8.822947E+03  5.865262E+03  2.108031E-09  2.601529E-09
       166  18 -1.844601E+05 -4.545116E+03 -4.533532E+03  1.059290E+04  6.917472E-09  7.308394E-10
       166  19 -1.102251E+05  1.368732E+04  1.212078E+04  1.067521E+04  1.108734E+03  2.578254E+03
       166  20 -1.287603E+05  9.139784E+03  8.146580E+03  5.947585E+03  9.430855E+02  1.644931E+03
       166  21 -1.473421E+05  4.598646E+03  4.060038E+03  1.063568E+04  7.774961E+02  7.107811E+02
       166  22 -1.659017E+05  1.560501E+01 -5.522853E+02  1.061431E+04  4.148712E+02  2.577457E+03
       166  23 -1.658780E+05  1.803414E+01 -3.381368E+02  5.906422E+03  2.486300E+02  1.644117E+03
       166  24 -1.659013E+05  2.677764E+01 -2.367353E+02  1.061429E+04  8.244285E+01  7.099470E+02
       166  25 -2.215754E+05 -1.365632E+04 -1.322555E+04  1.055341E+04 -2.789298E+02  2.576660E+03
       166  26 -2.029944E+05 -9.103811E+03 -8.822942E+03  5.865262E+03 -4.457844E+02  1.643302E+03
       166  27 -1.844601E+05 -4.545115E+03 -4.533530E+03  1.059290E+04 -6.125898E+02  7.091130E+02
       167   1 -1.646823E+05  3.146197E+02  8.819821E+00  1.061679E+04 -7.372950E+02 -1.668615E+02
       167   2 -1.832248E+05 -4.245762E+03 -4.185704E+03  5.888500E+03 -6.287225E+02  7.673742E+02
       167   3 -2.018052E+05 -8.792633E+03 -8.453784E+03  1.057794E+04 -5.201292E+02  1.700963E+03
       167   4 -1.658993E+05  2.639431E+01 -2.150883E+02  1.061473E+04 -4.222072E+01 -1.660243E+02
       167   5 -1.658802E+05  1.685646E+01 -2.207559E+02  5.905876E+03  6.585784E+01  7.682018E+02
       167   6 -1.658995E+05  2.086722E+01 -2.996943E+02  1.061474E+04  1.739604E+02  1.701782E+03
       167   7 -1.671163E+05 -2.618310E+02 -4.389946E+02  1.061267E+04  6.528522E+02 -1.651871E+02
       167   8 -1.485353E+05  4.279455E+03  3.744174E+03  5.923252E+03  7.604574E+02  7.690294E+02
       167   9 -1.299926E+05  8.834279E+03  7.854314E+03  1.065153E+04  8.680898E+02  1.702602E+03
       167  10 -1.646823E+05  3.146196E+02  8.818747E+00  1.061679E+04  5.390680E-09 -2.605494E-10
       167  11 -1.832248E+05 -4.245763E+03 -4.185705E+03  5.888501E+03  3.335543E-09 -2.362091E-09
       167  12 -2.018052E+05 -8.792637E+03 -8.453790E+03  1.057794E+04 -1.737592E-09 -1.697178E-10
       167  13 -1.658993E+05  2.639428E+01 -2.150883E+02  1.061473E+04  4.056433E-10  1.494966E-09
       167  14 -1.658802E+05  1.685582E+01 -2.207570E+02  5.905876E+03 -8.543083E-10 -1.241563E-09
       167  15 -1.658995E+05  2.086410E+01 -2.996998E+02  1.061474E+04 -1.067950E-09 -2.239742E-09
       167  16 -1.671163E+05 -2.618311E+02 -4.389955E+02  1.061267E+04 -4.599613E-09 -7.126882E-11
       167  17 -1.485353E+05  4.279454E+03  3.744172E+03  5.923251E+03 -2.580280E-09 -4.108210E-09
       167  18 -1.299926E+05  8.834276E+03  7.854307E+03  1.065153E+04  2.857204E-09 -1.928972E-09
       167  19 -1.646823E+05  3.146197E+02  8.819821E+00  1.061679E+04  7.372950E+02  1.668615E+02
       167  20 -1.832248E+05 -4.245762E+03 -4.185704E+03  5.888500E+03  6.287225E+02 -7.673742E+02
       167  21 -2.018052E+05 -8.792633E+03 -8.453784E+03  1.057794E+04  5.201292E+02 -1.700963E+03
       167  22 -1.658993E+05  2.639431E+01 -2.150883E+02  1.061473E+04  4.222072E+01  1.660243E+02
       167  23 -1.658802E+05  1.685646E+01 -2.207559E+02  5.905876E+03 -6.585784E+01 -7.682018E+02
       167  24 -1.658995E+05  2.086722E+01 -2.996943E+02  1.061474E+04 -1.739604E+02 -1.701782E+03
       167  25 -1.671163E+05 -2.618310E+02 -4.389946E+02  1.061267E+04 -6.528522E+02  1.651871E+02
       167  26 -1.485353E+05  4.279455E+03  3.744174E+03  5.923252E+03 -7.604574E+02 -7.690294E+02
       167  27 -1.299926E+05  8.834279E+03  7.854314E+03  1.065153E+04 -8.680898E+02 -1.702602E+03
       168   1 -2.191509E+05 -1.306514E+04 -1.259478E+04  1.054480E+04 -4.639510E+02  2.245937E+03
       168   2 -2.376537E+05 -1.761889E+04 -1.701532E+04  5.839015E+03 -1.555306E+02  3.177929E+03
       168   3 -2.562400E+05 -2.224969E+04 -2.166154E+04  1.054133E+04  1.530013E+02  4.097690E+03
       168   4 -1.659095E+05  3.059607E+01 -3.696537E+02  1.061255E+04  2.335468E+02  2.246747E+03
       168   5 -1.658689E+05  2.364242E+01 -6.043889E+02  5.908586E+03  5.328975E+02  3.178693E+03
       168   6 -1.659103E+05 -5.867977E+01 -1.058382E+03  1.061265E+04  8.323687E+02  4.098410E+03
       168   7 -1.126655E+05  1.312614E+04  1.185528E+04  1.068031E+04  9.311040E+02  2.247556E+03
       168   8 -9.407936E+04  1.766582E+04  1.580621E+04  5.978163E+03  1.221405E+03  3.179457E+03
       168   9 -7.557292E+04  2.213176E+04  1.954424E+04  1.068398E+04  1.511834E+03  4.099130E+03
       168  10 -2.191509E+05 -1.306515E+04 -1.259479E+04  1.054480E+04 -2.571981E-09 -7.233189E-10
       168  11 -2.376537E+05 -1.761890E+04 -1.701534E+04  5.839016E+03 -3.439569E-09 -2.772534E-09
       168  12 -2.562400E+05 -2.224970E+04 -2.166157E+04  1.054133E+04 -2.127630E-09 -2.189990E-09
       168  13 -1.659095E+05  3.059063E+01 -3.696633E+02  1.061255E+04 -5.313168E-10 -7.147881E-10
       168  14 -1.658689E+05  2.363150E+01 -6.044084E+02  5.908585E+03 -8.433148E-10  7.222795E-10
       168  15 -1.659103E+05 -5.869799E+01 -1.058415E+03  1.061265E+04  6.502189E-10  3.787030E-10
       168  16 -1.126655E+05  1.312613E+04  1.185527E+04  1.068031E+04  1.476156E-09  2.290763E-09
       168  17 -9.407937E+04  1.766581E+04  1.580619E+04  5.978160E+03  2.283495E-09 -2.682741E-09
       168  18 -7.557292E+04  2.213174E+04  1.954421E+04  1.068397E+04  2.725198E-09  3.422464E-10
       168  19 -2.191509E+05 -1.306514E+04 -1.259478E+04  1.054480E+04  4.639510E+02 -2.245937E+03
       168  20 -2.376537E+05 -1.761889E+04 -1.701532E+04  5.839015E+03  1.555306E+02 -3.177929E+03
       168  21 -2.562400E+05 -2.224969E+04 -2.166154E+04  1.054133E+04 -1.530013E+02 -4.097690E+03
       168  22 -1.659095E+05  3.059607E+01 -3.696537E+02  1.061255E+04 -2.335468E+02 -2.246747E+03
       168  23 -1.658689E+05  2.364242E+01 -6.043889E+02  5.908586E+03 -5.328975E+02 -3.178693E+03
       168  24 -1.659103E+05 -5.867977E+01 -1.058382E+03  1.061265E+04 -8.323687E+02 -4.098410E+03
       168  25 -1.126655E+05  1.312614E+04  1.185528E+04  1.068031E+04 -9.311040E+02 -2.247556E+03
       168  26 -9.407936E+04  1.766582E+04  1.580621E+04  5.978163E+03 -1.221405E+03 -3.179457E+03
       168  27 -7.557292E+04  2.213176E+04  1.954424E+04  1.068398E+04 -1.511834E+03 -4.099130E+03
       169   1 -2.736447E+05 -2.637534E+04 -2.602321E+04  1.031148E+04  2.910475E+02  4.668429E+03
       169   2 -2.918933E+05 -3.090366E+04 -3.119163E+04  5.918977E+03  1.655696E+03  5.560929E+03
       169   3 -3.106649E+05 -3.675019E+04 -3.758205E+04  1.090858E+04  3.020717E+03  6.208218E+03
       169   4 -1.660021E+05  9.051081E+01 -1.366784E+03  1.060643E+04  1.045046E+03  4.669200E+03
       169   5 -1.657571E+05  9.995544E+01 -2.342055E+03  5.916080E+03  2.227537E+03  5.561446E+03
       169   6 -1.660036E+05 -1.176987E+03 -4.412606E+03  1.060773E+04  3.410440E+03  6.208503E+03
       169   7 -5.834878E+04  2.655555E+04  2.328888E+04  1.090143E+04  1.799174E+03  4.669972E+03
       169   8 -3.960607E+04  3.110246E+04  2.650648E+04  5.913179E+03  2.799493E+03  5.561962E+03
       169   9 -2.132285E+04  3.439476E+04  2.875546E+04  1.030681E+04  3.800254E+03  6.208787E+03
       169  10 -2.736447E+05 -2.637536E+04 -2.602325E+04  1.031148E+04  1.478591E-08 -1.234795E-09
       169  11 -2.918933E+05 -3.090369E+04 -3.119169E+04  5.918969E+03  3.808290E-09  3.382472E-09
       169  12 -3.106649E+05 -3.675023E+04 -3.758214E+04  1.090856E+04 -9.794884E-09 -5.293261E-10
       169  13 -1.660021E+05  9.048710E+01 -1.366827E+03  1.060643E+04 -4.167191E-10 -2.938450E-09
       169  14 -1.657571E+05  9.992090E+01 -2.342122E+03  5.916070E+03 -9.869371E-10  2.714364E-09
       169  15 -1.660036E+05 -1.177032E+03 -4.412700E+03  1.060771E+04 -1.869164E-09  9.198545E-10
       169  16 -5.834879E+04  2.655553E+04  2.328884E+04  1.090142E+04 -1.556331E-08 -2.900466E-09
       169  17 -3.960609E+04  3.110243E+04  2.650640E+04  5.913167E+03 -4.205024E-09 -3.165626E-09
       169  18 -2.132287E+04  3.439471E+04  2.875536E+04  1.030679E+04  8.467741E-09  1.422765E-09
       169  19 -2.736447E+05 -2.637534E+04 -2.602321E+04  1.031148E+04 -2.910475E+02 -4.668429E+03
       169  20 -2.918933E+05 -3.090366E+04 -3.119163E+04  5.918977E+03 -1.655696E+03 -5.560929E+03
       169  21 -3.106649E+05 -3.675019E+04 -3.758205E+04  1.090858E+04 -3.020717E+03 -6.208218E+03
       169  22 -1.660021E+05  9.051081E+01 -1.366784E+03  1.060643E+04 -1.045046E+03 -4.669200E+03
       169  23 -1.657571E+05  9.995544E+01 -2.342055E+03  5.916080E+03 -2.227537E+03 -5.561446E+03
       169  24 -1.660036E+05 -1.176987E+03 -4.412606E+03  1.060773E+04 -3.410440E+03 -6.208503E+03
       169  25 -5.834878E+04  2.655555E+04  2.328888E+04  1.090143E+04 -1.799174E+03 -4.669972E+03
       169  26 -3.960607E+04  3.110246E+04  2.650648E+04  5.913179E+03 -2.799493E+03 -5.561962E+03
       169  27 -2.132285E+04  3.439476E+04  2.875546E+04  1.030681E+04 -3.800254E+03 -6.208787E+03
       170   1 -3.290253E+05 -3.888635E+04 -4.245427E+04  7.989408E+03  2.266770E+03  7.326617E+03
       170   2 -3.446772E+05 -4.332657E+04 -5.059833E+04  8.108628E+03  1.091423E+04  7.414758E+03
       170   3 -3.660458E+05 -6.611397E+04 -6.896172E+04  1.740675E+04  1.956538E+04  2.423986E+03
       170   4 -1.670198E+05  9.229677E+02 -5.487832E+03  1.055752E+04  4.215621E+03  7.328359E+03
       170   5 -1.644914E+05  1.010839E+03 -9.126376E+03  5.975486E+03  9.087254E+03  7.412960E+03
       170   6 -1.670230E+05 -1.658998E+04 -2.035977E+04  1.057244E+04  1.396293E+04  2.419174E+03
       170   7 -4.989839E+03  4.073049E+04  3.147691E+04  1.312630E+04  6.164977E+03  7.330117E+03
       170   8  1.572450E+04  4.534600E+04  3.234345E+04  3.841713E+03  7.259748E+03  7.411175E+03
       170   9  3.203619E+04  3.293127E+04  2.823944E+04  3.735924E+03  8.358682E+03  2.414487E+03
       170  10 -3.290254E+05 -3.888641E+04 -4.245438E+04  7.989394E+03 -1.108562E-09 -1.647110E-09
       170  11 -3.446773E+05 -4.332666E+04 -5.059866E+04  8.108563E+03  4.586987E-10  5.754075E-10
       170  12 -3.660462E+05 -6.611407E+04 -6.896245E+04  1.740672E+04 -4.371235E-10  8.914315E-10
       170  13 -1.670198E+05  9.229053E+02 -5.487967E+03  1.055750E+04 -1.077105E-09  7.672240E-10
       170  14 -1.644915E+05  1.010758E+03 -9.126635E+03  5.975432E+03 -2.117272E-09  4.382578E-10
       170  15 -1.670232E+05 -1.659004E+04 -2.036014E+04  1.057241E+04  4.294401E-10  1.106136E-09
       170  16 -4.989895E+03  4.073042E+04  3.147674E+04  1.312627E+04 -5.256065E-10  1.449780E-09
       170  17  1.572443E+04  4.534592E+04  3.234324E+04  3.841670E+03 -7.680175E-10 -3.911981E-11
       170  18  3.203611E+04  3.293124E+04  2.823930E+04  3.735908E+03 -6.692490E-10 -7.668820E-10
       170  19 -3.290253E+05 -3.888635E+04 -4.245427E+04  7.989408E+03 -2.266770E+03 -7.326617E+03
       170  20 -3.446772E+05 -4.332657E+04 -5.059833E+04  8.108628E+03 -1.091423E+04 -7.414758E+03
       170  21 -3.660458E+05 -6.611397E+04 -6.896172E+04  1.740675E+04 -1.956538E+04 -2.423986E+03
       170  22 -1.670198E+05  9.229677E+02 -5.487832E+03  1.055752E+04 -4.215621E+03 -7.328359E+03
       170  23 -1.644914E+05  1.010839E+03 -9.126376E+03  5.975486E+03 -9.087254E+03 -7.412960E+03
       170  24 -1.670230E+05 -1.658998E+04 -2.035977E+04  1.057244E+04 -1.396293E+04 -2.419174E+03
       170  25 -4.989839E+03  4.073049E+04  3.147691E+04  1.312630E+04 -6.164977E+03 -7.330117E+03
       170  26  1.572450E+04  4.534600E+04  3.234345E+04  3.841713E+03 -7.259748E+03 -7.411175E+03
       170  27  3.203619E+04  3.293127E+04  2.823944E+04  3.735924E+03 -8.358682E+03 -2.414487E+03
       171   1 -1.139031E+05 -4.379349E+05 -1.108258E+05  9.972042E+04 -4.757005E+03 -3.404910E+04
       171   2 -7.924163E+04 -3.423666E+05 -6.973393E+04  8.541499E+04 -1.450271E+04 -1.406532E+04
       171   3 -5.430435E+04 -2.517814E+05 -4.408590E+04  9.189254E+04 -1.391111E+04  5.929032E+03
       171   4 -1.145257E+04 -2.416945E+04 -1.250177E+04  9.258651E+04 -4.769106E+03 -9.383346E+03
       171   5 -2.544661E+03 -2.315034E+04 -5.554180E+03  8.219772E+04 -1.450556E+04 -6.505817E+03
       171   6 -3.869578E+02 -2.415011E+04 -2.164218E+03  9.259197E+04 -1.390688E+04 -3.621168E+03
       171   7  9.098616E+04  3.897546E+05  8.581257E+04  8.544782E+04 -4.781770E+03  1.529877E+04
       171   8  7.414608E+04  2.961633E+05  5.862059E+04  7.897876E+04 -1.450848E+04  1.057499E+03
       171   9  5.352753E+04  2.035317E+05  3.975566E+04  9.329168E+04 -1.390267E+04 -1.317478E+04
       171  10 -1.139035E+05 -4.379361E+05 -1.108280E+05  9.972029E+04  7.649160E-10  2.067451E-09
       171  11 -7.924191E+04 -3.423669E+05 -6.973470E+04  8.541483E+04 -1.078729E-10  1.415319E-09
       171  12 -5.430457E+04 -2.517815E+05 -4.408633E+04  9.189261E+04 -7.526989E-10  1.529961E-10
       171  13 -1.145262E+04 -2.416955E+04 -1.250198E+04  9.258647E+04  1.052442E-09  5.268937E-12
       171  14 -2.544898E+03 -2.315044E+04 -5.554655E+03  8.219764E+04 -1.404521E-10  9.145904E-13
       171  15 -3.871690E+02 -2.415017E+04 -2.164606E+03  9.259193E+04 -1.468119E-09  6.580929E-10
       171  16  9.098607E+04  3.897543E+05  8.581209E+04  8.544788E+04  1.303282E-09 -8.564264E-10
       171  17  7.414586E+04  2.961633E+05  5.862019E+04  7.897877E+04  8.855385E-10 -1.338265E-09
       171  18  5.352728E+04  2.035315E+05  3.975497E+04  9.329153E+04  9.727134E-10  7.658630E-11
       171  19 -1.139031E+05 -4.379349E+05 -1.108258E+05  9.972042E+04  4.757005E+03  3.404910E+04
       171  20 -7.924163E+04 -3.423666E+05 -6.973393E+04  8.541499E+04  1.450271E+04  1.406532E+04
       171  21 -5.430435E+04 -2.517814E+05 -4.408590E+04  9.189254E+04  1.391111E+04 -5.929032E+03
       171  22 -1.145257E+04 -2.416945E+04 -1.250177E+04  9.258651E+04  4.769106E+03  9.383346E+03
       171  23 -2.544661E+03 -2.315034E+04 -5.554180E+03  8.219772E+04  1.450556E+04  6.505817E+03
       171  24 -3.869578E+02 -2.415011E+04 -2.164218E+03  9.259197E+04  1.390688E+04  3.621168E+03
       171  25  9.098616E+04  3.897546E+05  8.581257E+04  8.544782E+04  4.781770E+03 -1.529877E+04
       171  26  7.414608E+04  2.961633E+05  5.862059E+04  7.897876E+04  1.450848E+04 -1.057499E+03
       171  27  5.352753E+04  2.035317E+05  3.975566E+04  9.329168E+04  1.390267E+04  1.317478E+04
       172   1 -3.994878E+04 -1.899078E+05 -3.135419E+04  9.279140E+04 -1.033573E+04  4.942795E+03
       172   2 -1.718909E+04 -9.696074E+04 -1.121408E+04  8.221236E+04 -5.129726E+03  4.662048E+03
       172   3  5.854825E+03 -3.867383E+03  9.186748E+03  9.304794E+04  3.749677E+02  4.381113E+03
       172   4 -6.064830E+02 -2.364705E+04 -9.249200E+02  9.273126E+04 -1.033235E+04 -3.429586E+03
       172   5  7.652999E+00 -2.375682E+04  1.559594E+03  8.202436E+04 -5.126391E+03 -4.205399E+03
       172   6  9.924541E+02 -2.364251E+04  4.648895E+03  9.273188E+04  3.782244E+02 -4.981362E+03
       172   7  3.873428E+04  1.426407E+05  2.950349E+04  9.267112E+04 -1.032897E+04 -1.180415E+04
       172   8  1.720414E+04  4.945252E+04  1.433338E+04  8.183632E+04 -5.123050E+03 -1.307386E+04
       172   9 -3.869897E+03 -4.341709E+04  1.113465E+02  9.241582E+04  3.814907E+02 -1.434354E+04
       172  10 -3.994890E+04 -1.899079E+05 -3.135444E+04  9.279144E+04 -9.542743E-10  2.349038E-09
       172  11 -1.718912E+04 -9.696077E+04 -1.121417E+04  8.221238E+04  5.783470E-10 -2.535711E-10
       172  12  5.854820E+03 -3.867403E+03  9.186711E+03  9.304794E+04 -5.509522E-10 -1.938939E-09
       172  13 -6.066008E+02 -2.364709E+04 -9.251427E+02  9.273124E+04 -3.569297E-10 -2.736225E-10
       172  14  7.620036E+00 -2.375685E+04  1.559511E+03  8.202434E+04  7.960980E-10  2.764147E-10
       172  15  9.924473E+02 -2.364254E+04  4.648848E+03  9.273188E+04  8.662956E-10  1.053614E-09
       172  16  3.873413E+04  1.426405E+05  2.950303E+04  9.267102E+04  9.897064E-10 -1.361877E-09
       172  17  1.720407E+04  4.945233E+04  1.433301E+04  8.183627E+04  1.519348E-09  5.240471E-10
       172  18 -3.869952E+03 -4.341732E+04  1.109595E+02  9.241583E+04  7.174674E-10  2.487543E-09
       172  19 -3.994878E+04 -1.899078E+05 -3.135419E+04  9.279140E+04  1.033573E+04 -4.942795E+03
       172  20 -1.718909E+04 -9.696074E+04 -1.121408E+04  8.221236E+04  5.129726E+03 -4.662048E+03
       172  21  5.854825E+03 -3.867383E+03  9.186748E+03  9.304794E+04 -3.749677E+02 -4.381113E+03
       172  22 -6.064830E+02 -2.364705E+04 -9.249200E+02  9.273126E+04  1.033235E+04  3.429586E+03
       172  23  7.652999E+00 -2.375682E+04  1.559594E+03  8.202436E+04  5.126391E+03  4.205399E+03
       172  24  9.924541E+02 -2.364251E+04  4.648895E+03  9.273188E+04 -3.782244E+02  4.981362E+03
       172  25  3.873428E+04  1.426407E+05  2.950349E+04  9.267112E+04  1.032897E+04  1.180415E+04
       172  26  1.720414E+04  4.945252E+04  1.433338E+04  8.183632E+04  5.123050E+03  1.307386E+04
       172  27 -3.869897E+03 -4.341709E+04  1.113465E+02  9.241582E+04 -3.814907E+02  1.434354E+04
       173   1  1.992821E+04  5.830486E+04  2.238948E+04  9.109415E+04  4.097505E+03  4.300595E+03
       173   2  4.688849E+04  1.481638E+05  4.867643E+04  8.876031E+04  6.757289E+03 -1.365555E+04
       173   3  9.016532E+04  2.444786E+05  9.073739E+04  1.074588E+05  2.535702E+03 -3.161823E+04
       173   4  5.599655E+02 -2.269952E+04  6.557839E+03  9.264503E+04  4.101127E+03 -5.791238E+03
       173   5  5.078494E+03 -2.494103E+04  1.268503E+04  8.213442E+04  6.757067E+03 -1.234897E+04
       173   6  2.393829E+04 -2.270968E+04  2.667367E+04  9.265540E+04  2.531227E+03 -1.891063E+04
       173   7 -1.880861E+04 -1.036974E+05 -9.273733E+03  9.419570E+04  4.104699E+03 -1.588178E+04
       173   8 -3.673324E+04 -1.980174E+05 -2.330797E+04  7.551041E+04  6.756816E+03 -1.104276E+04
       173   9 -4.229302E+04 -2.898317E+05 -3.739438E+04  7.785841E+04  2.526145E+03 -6.208473E+03
       173  10  1.992819E+04  5.830483E+04  2.238941E+04  9.109414E+04  2.783052E-10  1.783671E-09
       173  11  4.688839E+04  1.481636E+05  4.867599E+04  8.876038E+04  7.024015E-10  2.927698E-10
       173  12  9.016504E+04  2.444775E+05  9.073550E+04  1.074589E+05 -1.319186E-10 -1.168130E-09
       173  13  5.599385E+02 -2.269956E+04  6.557744E+03  9.264505E+04  4.449914E-10  2.625513E-10
       173  14  5.078404E+03 -2.494121E+04  1.268466E+04  8.213449E+04  6.208009E-10  2.743205E-10
       173  15  2.393818E+04 -2.271007E+04  2.667299E+04  9.265544E+04  1.067515E-09  9.579933E-10
       173  16 -1.880870E+04 -1.036977E+05 -9.274239E+03  9.419575E+04  1.089325E-09 -5.593900E-10
       173  17 -3.673332E+04 -1.980175E+05 -2.330829E+04  7.551047E+04  1.099549E-09 -4.073362E-10
       173  18 -4.229304E+04 -2.898318E+05 -3.739446E+04  7.785842E+04  4.175053E-10  1.803392E-09
       173  19  1.992821E+04  5.830486E+04  2.238948E+04  9.109415E+04 -4.097505E+03 -4.300595E+03
       173  20  4.688849E+04  1.481638E+05  4.867643E+04  8.876031E+04 -6.757289E+03  1.365555E+04
       173  21  9.016532E+04  2.444786E+05  9.073739E+04  1.074588E+05 -2.535702E+03  3.161823E+04
       173  22  5.599655E+02 -2.269952E+04  6.557839E+03  9.264503E+04 -4.101127E+03  5.791238E+03
       173  23  5.078494E+03 -2.494103E+04  1.268503E+04  8.213442E+04 -6.757067E+03  1.234897E+04
       173  24  2.393829E+04 -2.270968E+04  2.667367E+04  9.265540E+04 -2.531227E+03  1.891063E+04
       173  25 -1.880861E+04 -1.036974E+05 -9.273733E+03  9.419570E+04 -4.104699E+03  1.588178E+04
       173  26 -3.673324E+04 -1.980174E+05 -2.330797E+04  7.551041E+04 -6.756816E+03  1.104276E+04
       173  27 -4.229302E+04 -2.898317E+05 -3.739438E+04  7.785841E+04 -2.526145E+03  6.208473E+03
       174   1  3.892877E+05  1.443602E+05  9.147139E+04  1.393706E+05  3.754756E+04  1.189956E+04
       174   2  3.753182E+05  8.922829E+04  5.663094E+04  1.375598E+05  2.440245E+04  2.369065E+03
       174   3  3.745803E+05  8.122294E+04  4.430900E+04  1.302710E+05  9.720789E+03 -3.071625E+03
       174   4  2.503344E+05  7.688636E+04  5.116329E+04  8.591141E+04  3.331419E+04  1.030738E+04
       174   5  2.412752E+05  3.429735E+04  2.181017E+04  9.590864E+04  2.302197E+04  1.849821E+03
       174   6  2.448862E+05  3.827524E+04  1.271969E+04  1.004270E+05  1.119272E+04 -2.518242E+03
       174   7  1.114020E+05  9.418632E+03  1.085395E+04  3.246494E+04  2.908190E+04  8.715865E+03
       174   8  1.072503E+05 -2.063123E+04 -1.301198E+04  5.426608E+04  2.164182E+04  1.330728E+03
       174   9  1.152078E+05 -4.672443E+03 -1.887104E+04  7.058809E+04  1.266432E+04 -1.964948E+03
       174  10  3.892862E+05  1.443596E+05  9.146848E+04  1.393703E+05 -2.876257E-09 -7.356424E-10
       174  11  3.753175E+05  8.922812E+04  5.662981E+04  1.375598E+05 -5.764366E-10 -8.612241E-10
       174  12  3.745802E+05  8.122291E+04  4.430881E+04  1.302710E+05  8.083590E-10  8.465716E-10
       174  13  2.503331E+05  7.688595E+04  5.116101E+04  8.591113E+04  4.893429E-10  5.892854E-10
       174  14  2.412746E+05  3.429720E+04  2.180916E+04  9.590861E+04 -1.544401E-09 -1.009830E-09
       174  15  2.448861E+05  3.827520E+04  1.271945E+04  1.004270E+05  1.337213E-09  1.751836E-09
       174  16  1.114011E+05  9.418323E+03  1.085221E+04  3.246473E+04  2.216842E-09  2.306309E-09
       174  17  1.072498E+05 -2.063136E+04 -1.301286E+04  5.426606E+04 -1.903173E-09  2.319694E-09
       174  18  1.152077E+05 -4.672490E+03 -1.887135E+04  7.058811E+04 -1.117351E-09  5.425607E-10
       174  19  3.892877E+05  1.443602E+05  9.147139E+04  1.393706E+05 -3.754756E+04 -1.189956E+04
       174  20  3.753182E+05  8.922829E+04  5.663094E+04  1.375598E+05 -2.440245E+04 -2.369065E+03
       174  21  3.745803E+05  8.122294E+04  4.430900E+04  1.302710E+05 -9.720789E+03  3.071625E+03
       174  22  2.503344E+05  7.688636E+04  5.116329E+04  8.591141E+04 -3.331419E+04 -1.030738E+04
       174  23  2.412752E+05  3.429735E+04  2.181017E+04  9.590864E+04 -2.302197E+04 -1.849821E+03
       174  24  2.448862E+05  3.827524E+04  1.271969E+04  1.004270E+05 -1.119272E+04  2.518242E+03
       174  25  1.114020E+05  9.418632E+03  1.085395E+04  3.246494E+04 -2.908190E+04 -8.715865E+03
       174  26  1.072503E+05 -2.063123E+04 -1.301198E+04  5.426608E+04 -2.164182E+04 -1.330728E+03
       174  27  1.152078E+05 -4.672443E+03 -1.887104E+04  7.058809E+04 -1.266432E+04  1.964948E+03
       175   1  3.562907E+05  8.611453E+04  3.896547E+04  1.297596E+05  8.966727E+03 -2.369182E+03
       175   2  3.461801E+05  7.554913E+04  3.077298E+04  1.241283E+05  6.054707E+03 -3.014426E+03
       175   3  3.329839E+05  7.307543E+04  2.555184E+04  1.231018E+05  3.064247E+03 -3.451112E+03
       175   4  2.432287E+05  4.281653E+04  1.020211E+04  9.774406E+04  9.167728E+03 -2.293699E+03
       175   5  2.445744E+05  3.728488E+04  5.110682E+03  9.600611E+04  6.401526E+03 -2.884069E+03
       175   6  2.428057E+05  3.981639E+04  2.875519E+03  9.887279E+04  3.556829E+03 -3.265892E+03
       175   7  1.301793E+05 -4.804723E+02 -1.856228E+04  6.573385E+04  9.368688E+03 -2.218231E+03
       175   8  1.429791E+05 -9.785714E+02 -2.055238E+04  6.788816E+04  6.748283E+03 -2.753735E+03
       175   9  1.526359E+05  6.557966E+03 -1.980134E+04  7.464709E+04  4.049330E+03 -3.080702E+03
       175  10  3.562906E+05  8.611450E+04  3.896531E+04  1.297596E+05 -1.045151E-09 -2.504540E-09
       175  11  3.461801E+05  7.554911E+04  3.077289E+04  1.241283E+05  9.925869E-10  1.768547E-09
       175  12  3.329839E+05  7.307542E+04  2.555180E+04  1.231018E+05 -1.787167E-09  2.056022E-09
       175  13  2.432286E+05  4.281650E+04  1.020195E+04  9.774407E+04  6.379047E-10 -4.580668E-11
       175  14  2.445744E+05  3.728486E+04  5.110589E+03  9.600613E+04  3.861095E-10 -2.802871E-09
       175  15  2.428057E+05  3.981638E+04  2.875475E+03  9.887280E+04  3.909718E-10  8.847343E-11
       175  16  1.301792E+05 -4.805011E+02 -1.856245E+04  6.573387E+04  4.191310E-11 -1.624955E-09
       175  17  1.429790E+05 -9.785918E+02 -2.055248E+04  6.788817E+04 -3.536402E-10 -9.697775E-10
       175  18  1.526358E+05  6.557951E+03 -1.980139E+04  7.464710E+04  1.818353E-09 -1.444573E-10
       175  19  3.562907E+05  8.611453E+04  3.896547E+04  1.297596E+05 -8.966727E+03  2.369182E+03
       175  20  3.461801E+05  7.554913E+04  3.077298E+04  1.241283E+05 -6.054707E+03  3.014426E+03
       175  21  3.329839E+05  7.307543E+04  2.555184E+04  1.231018E+05 -3.064247E+03  3.451112E+03
       175  22  2.432287E+05  4.281653E+04  1.020211E+04  9.774406E+04 -9.167728E+03  2.293699E+03
       175  23  2.445744E+05  3.728488E+04  5.110682E+03  9.600611E+04 -6.401526E+03  2.884069E+03
       175  24  2.428057E+05  3.981639E+04  2.875519E+03  9.887279E+04 -3.556829E+03  3.265892E+03
       175  25  1.301793E+05 -4.804723E+02 -1.856228E+04  6.573385E+04 -9.368688E+03  2.218231E+03
       175  26  1.429791E+05 -9.785714E+02 -2.055238E+04  6.788816E+04 -6.748283E+03  2.753735E+03
       175  27  1.526359E+05  6.557966E+03 -1.980134E+04  7.464709E+04 -4.049330E+03  3.080702E+03
       176   1  3.206931E+05  6.938009E+04  2.184980E+04  1.200865E+05  2.575241E+03 -3.187118E+03
       176   2  3.110496E+05  6.230786E+04  1.786324E+04  1.141697E+05  1.739501E+03 -2.796682E+03
       176   3  2.968930E+05  6.020207E+04  1.439759E+04  1.135666E+05  8.999829E+02 -2.396409E+03
       176   4  2.426402E+05  4.015295E+04  2.208858E+03  9.864517E+04  3.001986E+03 -3.026640E+03
       176   5  2.448819E+05  3.755926E+04  1.187216E+03  9.603021E+04  2.173186E+03 -2.633566E+03
       176   6  2.426092E+05  3.993076E+04  6.811007E+02  9.872895E+04  1.340596E+03 -2.230659E+03
       176   7  1.645930E+05  1.092610E+04 -1.743265E+04  7.720623E+04  3.428674E+03 -2.866183E+03
       176   8  1.787183E+05  1.281089E+04 -1.548920E+04  7.789243E+04  2.606821E+03 -2.470469E+03
       176   9  1.883283E+05  1.965964E+04 -1.303563E+04  8.389247E+04  1.781167E+03 -2.064924E+03
       176  10  3.206931E+05  6.938008E+04  2.184977E+04  1.200865E+05 -1.921780E-09 -1.799545E-09
       176  11  3.110496E+05  6.230785E+04  1.786322E+04  1.141697E+05  2.025528E-09 -1.465565E-09
       176  12  2.968930E+05  6.020207E+04  1.439758E+04  1.135666E+05 -1.887828E-09  9.328505E-10
       176  13  2.426402E+05  4.015294E+04  2.208824E+03  9.864518E+04 -1.217190E-10 -1.959498E-09
       176  14  2.448819E+05  3.755925E+04  1.187194E+03  9.603021E+04 -6.864720E-11 -9.051641E-10
       176  15  2.426092E+05  3.993076E+04  6.810879E+02  9.872895E+04 -4.330913E-09  5.549518E-10
       176  16  1.645930E+05  1.092608E+04 -1.743269E+04  7.720623E+04  4.152103E-09  3.150906E-10
       176  17  1.787183E+05  1.281088E+04 -1.548922E+04  7.789244E+04  1.190934E-09  2.926374E-09
       176  18  1.883283E+05  1.965963E+04 -1.303564E+04  8.389248E+04 -4.823788E-09 -1.966185E-09
       176  19  3.206931E+05  6.938009E+04  2.184980E+04  1.200865E+05 -2.575241E+03  3.187118E+03
       176  20  3.110496E+05  6.230786E+04  1.786324E+04  1.141697E+05 -1.739501E+03  2.796682E+03
       176  21  2.968930E+05  6.020207E+04  1.439759E+04  1.135666E+05 -8.999829E+02  2.396409E+03
       176  22  2.426402E+05  4.015295E+04  2.208858E+03  9.864517E+04 -3.001986E+03  3.026640E+03
       176  23  2.448819E+05  3.755926E+04  1.187216E+03  9.603021E+04 -2.173186E+03  2.633566E+03
       176  24  2.426092E+05  3.993076E+04  6.811007E+02  9.872895E+04 -1.340596E+03  2.230659E+03
       176  25  1.645930E+05  1.092610E+04 -1.743265E+04  7.720623E+04 -3.428674E+03  2.866183E+03
       176  26  1.787183E+05  1.281089E+04 -1.548920E+04  7.789243E+04 -2.606821E+03  2.470469E+03
       176  27  1.883283E+05  1.965964E+04 -1.303563E+04  8.389247E+04 -1.781167E+03  2.064924E+03
       177   1  2.851480E+05  5.586045E+04  1.121478E+04  1.103753E+05  6.657834E+02 -2.065762E+03
       177   2  2.755914E+05  4.906579E+04  8.076450E+03  1.044479E+05  2.576822E+02 -1.503528E+03
       177   3  2.613859E+05  4.697646E+04  5.072117E+03  1.038620E+05 -1.504877E+02 -9.411816E+02
       177   4  2.425905E+05  3.995060E+04  5.326144E+02  9.870604E+04  1.102699E+03 -1.901390E+03
       177   5  2.449143E+05  3.759138E+04  3.449709E+02  9.603785E+04  6.946872E+02 -1.339111E+03
       177   6  2.425889E+05  3.993751E+04  2.912707E+02  9.871109E+04  2.866019E+02 -7.767195E+02
       177   7  2.000350E+05  2.404094E+04 -1.014965E+04  8.703758E+04  1.539580E+03 -1.737031E+03
       177   8  2.142381E+05  2.611704E+04 -7.386582E+03  8.762816E+04  1.131669E+03 -1.174704E+03
       177   9  2.237923E+05  3.289856E+04 -4.489624E+03  9.356031E+04  7.236787E+02 -6.122622E+02
       177  10  2.851480E+05  5.586044E+04  1.121477E+04  1.103753E+05 -1.077786E-08 -8.576695E-10
       177  11  2.755914E+05  4.906579E+04  8.076445E+03  1.044479E+05 -5.156441E-09  9.200400E-10
       177  12  2.613859E+05  4.697646E+04  5.072116E+03  1.038620E+05  4.317148E-09  2.947329E-09
       177  13  2.425905E+05  3.995060E+04  5.326053E+02  9.870604E+04 -7.471154E-09 -5.704092E-10
       177  14  2.449143E+05  3.759138E+04  3.449666E+02  9.603785E+04 -4.271048E-09 -3.572168E-09
       177  15  2.425889E+05  3.993751E+04  2.912695E+02  9.871109E+04 -2.693900E-09 -8.528831E-11
       177  16  2.000350E+05  2.404094E+04 -1.014966E+04  8.703758E+04  6.837925E-10  1.278971E-10
       177  17  2.142381E+05  2.611704E+04 -7.386587E+03  8.762816E+04 -3.325275E-09 -3.913012E-09
       177  18  2.237923E+05  3.289856E+04 -4.489626E+03  9.356031E+04 -5.554821E-09 -4.226992E-09
       177  19  2.851480E+05  5.586045E+04  1.121478E+04  1.103753E+05 -6.657834E+02  2.065762E+03
       177  20  2.755914E+05  4.906579E+04  8.076450E+03  1.044479E+05 -2.576822E+02  1.503528E+03
       177  21  2.613859E+05  4.697646E+04  5.072117E+03  1.038620E+05  1.504877E+02  9.411816E+02
       177  22  2.425905E+05  3.995060E+04  5.326144E+02  9.870604E+04 -1.102699E+03  1.901390E+03
       177  23  2.449143E+05  3.759138E+04  3.449709E+02  9.603785E+04 -6.946872E+02  1.339111E+03
       177  24  2.425889E+05  3.993751E+04  2.912707E+02  9.871109E+04 -2.866019E+02  7.767195E+02
       177  25  2.000350E+05  2.404094E+04 -1.014965E+04  8.703758E+04 -1.539580E+03  1.737031E+03
       177  26  2.142381E+05  2.611704E+04 -7.386582E+03  8.762816E+04 -1.131669E+03  1.174704E+03
       177  27  2.237923E+05  3.289856E+04 -4.489624E+03  9.356031E+04 -7.236787E+02  6.122622E+02
       178   1  2.497086E+05  4.259726E+04  2.054307E+03  1.006711E+05 -3.369617E+02 -5.946925E+02
       178   2  2.401598E+05  3.582056E+04 -7.869852E+02  9.474265E+04 -7.769292E+02 -4.468133E+01
       178   3  2.259725E+05  3.375180E+04 -3.468938E+03  9.415091E+04 -1.216745E+03  5.049939E+02
       178   4  2.425910E+05  3.993641E+04  3.027763E+02  9.871067E+04  9.996696E+01 -4.302870E+02
       178   5  2.449117E+05  3.759168E+04  4.095123E+02  9.603888E+04 -3.402469E+02  1.196287E+02
       178   6  2.425936E+05  3.995489E+04  6.757666E+02  9.870370E+04 -7.803131E+02  6.692071E+02
       178   7  2.354736E+05  3.727557E+04 -1.448757E+03  9.675026E+04  5.368901E+02 -2.658837E+02
       178   8  2.496636E+05  3.936280E+04  1.606006E+03  9.733511E+04  9.643805E+01  2.839398E+02
       178   9  2.592150E+05  4.615798E+04  4.820432E+03  1.032566E+05 -3.438701E+02  8.334244E+02
       178  10  2.497086E+05  4.259726E+04  2.054306E+03  1.006711E+05 -2.280867E-09  3.403010E-09
       178  11  2.401598E+05  3.582056E+04 -7.869863E+02  9.474265E+04 -7.272929E-09 -2.577076E-10
       178  12  2.259725E+05  3.375180E+04 -3.468941E+03  9.415091E+04 -7.999243E-09 -3.255190E-09
       178  13  2.425910E+05  3.993641E+04  3.027760E+02  9.871067E+04 -1.466915E-09  2.172562E-09
       178  14  2.449117E+05  3.759168E+04  4.095120E+02  9.603888E+04 -1.993817E-09  3.167028E-10
       178  15  2.425936E+05  3.995489E+04  6.757646E+02  9.870371E+04 -2.826995E-09 -5.212515E-09
       178  16  2.354736E+05  3.727557E+04 -1.448757E+03  9.675026E+04  2.547542E-09 -2.979024E-10
       178  17  2.496636E+05  3.936280E+04  1.606006E+03  9.733511E+04  3.469093E-09  3.195872E-09
       178  18  2.592150E+05  4.615798E+04  4.820430E+03  1.032566E+05  1.597900E-09  7.493666E-10
       178  19  2.497086E+05  4.259726E+04  2.054307E+03  1.006711E+05  3.369617E+02  5.946925E+02
       178  20  2.401598E+05  3.582056E+04 -7.869852E+02  9.474265E+04  7.769292E+02  4.468133E+01
       178  21  2.259725E+05  3.375180E+04 -3.468938E+03  9.415091E+04  1.216745E+03 -5.049939E+02
       178  22  2.425910E+05  3.993641E+04  3.027763E+02  9.871067E+04 -9.996696E+01  4.302870E+02
       178  23  2.449117E+05  3.759168E+04  4.095123E+02  9.603888E+04  3.402469E+02 -1.196287E+02
       178  24  2.425936E+05  3.995489E+04  6.757666E+02  9.870370E+04  7.803131E+02 -6.692071E+02
       178  25  2.354736E+05  3.727557E+04 -1.448757E+03  9.675026E+04 -5.368901E+02  2.658837E+02
       178  26  2.496636E+05  3.936280E+04  1.606006E+03  9.733511E+04 -9.643805E+01 -2.839398E+02
       178  27  2.592150E+05  4.615798E+04  4.820432E+03  1.032566E+05  3.438701E+02 -8.334244E+02
       179   1  2.142819E+05  2.937641E+04 -6.298256E+03  9.102424E+04 -1.485173E+03  8.219089E+02
       179   2  2.046819E+05  2.252629E+04 -8.577490E+03  8.502007E+04 -2.493896E+03  1.157386E+03
       179   3  1.906317E+05  2.071371E+04 -1.018813E+04  8.430209E+04 -3.499389E+03  1.484426E+03
       179   4  2.426212E+05  3.992626E+04  8.768072E+02  9.873085E+04 -1.045797E+03  9.872239E+02
       179   5  2.448662E+05  3.755353E+04  1.550179E+03  9.603248E+04 -2.060458E+03  1.320451E+03
       179   6  2.426623E+05  4.021958E+04  2.896887E+03  9.862032E+04 -3.071903E+03  1.645236E+03
       179   7  2.709613E+05  5.047621E+04  8.051839E+03  1.064378E+05 -6.063969E+02  1.152548E+03
       179   8  2.850522E+05  5.258092E+04  1.167774E+04  1.070456E+05 -1.626988E+03  1.483529E+03
       179   9  2.946955E+05  5.972565E+04  1.598169E+04  1.129396E+05 -2.644377E+03  1.806061E+03
       179  10  2.142819E+05  2.937641E+04 -6.298261E+03  9.102424E+04  1.326833E-09 -1.023154E-09
       179  11  2.046819E+05  2.252629E+04 -8.577504E+03  8.502007E+04  3.074956E-09  2.348945E-09
       179  12  1.906317E+05  2.071370E+04 -1.018816E+04  8.430210E+04  1.523188E-09  3.754473E-09
       179  13  2.426212E+05  3.992626E+04  8.768033E+02  9.873086E+04 -2.770968E-09 -4.453101E-09
       179  14  2.448662E+05  3.755353E+04  1.550168E+03  9.603248E+04  4.294710E-11 -7.651497E-10
       179  15  2.426623E+05  4.021958E+04  2.896864E+03  9.862032E+04 -1.146332E-09 -4.399915E-10
       179  16  2.709613E+05  5.047621E+04  8.051836E+03  1.064378E+05 -7.851339E-09 -1.974707E-10
       179  17  2.850522E+05  5.258091E+04  1.167774E+04  1.070456E+05 -4.772652E-09  2.900098E-09
       179  18  2.946955E+05  5.972564E+04  1.598167E+04  1.129396E+05 -3.584531E-09 -1.408041E-09
       179  19  2.142819E+05  2.937641E+04 -6.298256E+03  9.102424E+04  1.485173E+03 -8.219089E+02
       179  20  2.046819E+05  2.252629E+04 -8.577490E+03  8.502007E+04  2.493896E+03 -1.157386E+03
       179  21  1.906317E+05  2.071371E+04 -1.018813E+04  8.430209E+04  3.499389E+03 -1.484426E+03
       179  22  2.426212E+05  3.992626E+04  8.768072E+02  9.873085E+04  1.045797E+03 -9.872239E+02
       179  23  2.448662E+05  3.755353E+04  1.550179E+03  9.603248E+04  2.060458E+03 -1.320451E+03
       179  24  2.426623E+05  4.021958E+04  2.896887E+03  9.862032E+04  3.071903E+03 -1.645236E+03
       179  25  2.709613E+05  5.047621E+04  8.051839E+03  1.064378E+05  6.063969E+02 -1.152548E+03
       179  26  2.850522E+05  5.258092E+04  1.167774E+04  1.070456E+05  1.626988E+03 -1.483529E+03
       179  27  2.946955E+05  5.972565E+04  1.598169E+04  1.129396E+05  2.644377E+03 -1.806061E+03
       180   1  1.786515E+05  1.636899E+04 -1.233810E+04  8.195611E+04 -4.233866E+03  1.649851E+03
       180   2  1.690177E+05  8.631506E+03 -1.237203E+04  7.496764E+04 -7.779269E+03  1.007309E+03
       180   3  1.567616E+05  9.970597E+03 -8.749512E+03  7.232188E+04 -1.125933E+04  1.914598E+02
       180   4  2.428827E+05  3.977529E+04  3.774268E+03  9.891715E+04 -3.751775E+03  1.831192E+03
       180   5  2.444603E+05  3.719687E+04  6.713088E+03  9.600393E+04 -7.418379E+03  1.143018E+03
       180   6  2.434391E+05  4.371854E+04  1.340400E+04  9.743326E+04 -1.101972E+04  2.815060E+02
       180   7  3.071177E+05  6.318172E+04  1.988624E+04  1.158797E+05 -3.269632E+03  2.012552E+03
       180   8  3.199083E+05  6.576265E+04  2.579775E+04  1.170426E+05 -7.057440E+03  1.278745E+03
       180   9  3.301243E+05  7.746727E+04  3.555699E+04  1.225480E+05 -1.078008E+04  3.715676E+02
       180  10  1.786515E+05  1.636898E+04 -1.233814E+04  8.195611E+04  2.495027E-09  4.913232E-09
       180  11  1.690177E+05  8.631489E+03 -1.237215E+04  7.496765E+04  1.451655E-09  1.305838E-09
       180  12  1.567615E+05  9.970563E+03 -8.749750E+03  7.232188E+04  2.316258E-10  1.812437E-09
       180  13  2.428827E+05  3.977529E+04  3.774235E+03  9.891715E+04 -7.088617E-11 -1.711247E-09
       180  14  2.444602E+05  3.719686E+04  6.712982E+03  9.600394E+04  8.879741E-10 -4.180018E-09
       180  15  2.434390E+05  4.371850E+04  1.340377E+04  9.743327E+04 -3.004796E-10 -1.886915E-10
       180  16  3.071177E+05  6.318171E+04  1.988621E+04  1.158797E+05 -3.583364E-09 -4.743962E-09
       180  17  3.199083E+05  6.576264E+04  2.579765E+04  1.170426E+05 -1.089367E-09  1.533331E-09
       180  18  3.301241E+05  7.746724E+04  3.555677E+04  1.225480E+05 -1.075343E-10 -2.281518E-09
       180  19  1.786515E+05  1.636899E+04 -1.233810E+04  8.195611E+04  4.233866E+03 -1.649851E+03
       180  20  1.690177E+05  8.631506E+03 -1.237203E+04  7.496764E+04  7.779269E+03 -1.007309E+03
       180  21  1.567616E+05  9.970597E+03 -8.749512E+03  7.232188E+04  1.125933E+04 -1.914598E+02
       180  22  2.428827E+05  3.977529E+04  3.774268E+03  9.891715E+04  3.751775E+03 -1.831192E+03
       180  23  2.444603E+05  3.719687E+04  6.713088E+03  9.600393E+04  7.418379E+03 -1.143018E+03
       180  24  2.434391E+05  4.371854E+04  1.340400E+04  9.743326E+04  1.101972E+04 -2.815060E+02
       180  25  3.071177E+05  6.318172E+04  1.988624E+04  1.158797E+05  3.269632E+03 -2.012552E+03
       180  26  3.199083E+05  6.576265E+04  2.579775E+04  1.170426E+05  7.057440E+03 -1.278745E+03
       180  27  3.301243E+05  7.746727E+04  3.555699E+04  1.225480E+05  1.078008E+04 -3.715676E+02
       181   1  1.408735E+05  5.871683E+03 -8.293693E+03  7.974946E+04 -1.484122E+04 -2.674450E+02
       181   2  1.334457E+05 -1.294800E+04  4.763004E+02  6.015671E+04 -2.804146E+04 -5.045785E+03
       181   3  1.436628E+05  2.748867E+04  3.399601E+04  3.168840E+04 -3.996465E+04 -1.321972E+04
       181   4  2.456088E+05  3.776002E+04  1.671224E+04  1.009667E+05 -1.354632E+04  2.196811E+02
       181   5  2.401363E+05  3.326441E+04  2.865776E+04  9.586612E+04 -2.911548E+04 -5.450053E+03
       181   6  2.527732E+05  8.848710E+04  6.722610E+04  8.189116E+04 -4.340771E+04 -1.451577E+04
       181   7  3.503551E+05  6.964838E+04  4.171749E+04  1.221869E+05 -1.225117E+04  7.068601E+02
       181   8  3.468375E+05  7.947840E+04  5.683805E+04  1.315812E+05 -3.018970E+04 -5.854421E+03
       181   9  3.618945E+05  1.494904E+05  1.004546E+05  1.321025E+05 -4.685138E+04 -1.581233E+04
       181  10  1.408732E+05  5.871623E+03 -8.294107E+03  7.974945E+04  1.488764E-09  3.599348E-09
       181  11  1.334448E+05 -1.294823E+04  4.747753E+02  6.015660E+04  8.308234E-10 -1.676008E-09
       181  12  1.436610E+05  2.748806E+04  3.399268E+04  3.168797E+04 -2.073586E-10 -1.488021E-09
       181  13  2.456086E+05  3.775997E+04  1.671189E+04  1.009668E+05 -9.463784E-10 -3.019692E-09
       181  14  2.401354E+05  3.326416E+04  2.865611E+04  9.586599E+04 -1.169025E-09 -1.407854E-09
       181  15  2.527711E+05  8.848637E+04  6.722217E+04  8.189065E+04  1.100204E-11 -2.976949E-10
       181  16  3.503549E+05  6.964834E+04  4.171721E+04  1.221869E+05 -1.827739E-09 -4.340086E-09
       181  17  3.468365E+05  7.947812E+04  5.683627E+04  1.315811E+05 -7.067926E-10 -2.189935E-09
       181  18  3.618920E+05  1.494895E+05  1.004500E+05  1.321019E+05  1.008608E-09  1.126863E-09
       181  19  1.408735E+05  5.871683E+03 -8.293693E+03  7.974946E+04  1.484122E+04  2.674450E+02
       181  20  1.334457E+05 -1.294800E+04  4.763004E+02  6.015671E+04  2.804146E+04  5.045785E+03
       181  21  1.436628E+05  2.748867E+04  3.399601E+04  3.168840E+04  3.996465E+04  1.321972E+04
       181  22  2.456088E+05  3.776002E+04  1.671224E+04  1.009667E+05  1.354632E+04 -2.196811E+02
       181  23  2.401363E+05  3.326441E+04  2.865776E+04  9.586612E+04  2.911548E+04  5.450053E+03
       181  24  2.527732E+05  8.848710E+04  6.722610E+04  8.189116E+04  4.340771E+04  1.451577E+04
       181  25  3.503551E+05  6.964838E+04  4.171749E+04  1.221869E+05  1.225117E+04 -7.068601E+02
       181  26  3.468375E+05  7.947840E+04  5.683805E+04  1.315812E+05  3.018970E+04  5.854421E+03
       181  27  3.618945E+05  1.494904E+05  1.004546E+05  1.321025E+05  4.685138E+04  1.581233E+04
       182   1 -7.775786E+04 -3.952353E+05 -7.835254E+04  4.711180E+04 -2.965031E+03 -1.293085E+04
       182   2 -5.009986E+04 -3.184747E+05 -5.193073E+04  2.597907E+04 -8.214770E+03 -4.770603E+03
       182   3 -3.180025E+04 -2.450276E+05 -3.314993E+04  4.261798E+04 -5.756685E+03  3.395798E+03
       182   4 -7.802551E+03 -1.143686E+05 -9.554055E+03  4.370668E+04 -2.969375E+03 -6.166461E+03
       182   5  4.365726E+02 -1.132027E+05 -4.579837E+03  2.482370E+04 -8.215190E+03 -3.736838E+03
       182   6  3.144714E+02 -1.143599E+05 -3.264111E+03  4.371192E+04 -5.754257E+03 -1.302156E+03
       182   7  6.214698E+04  1.665701E+05  5.923883E+04  4.030001E+04 -2.973791E+03  6.009850E+02
       182   8  5.097006E+04  9.210827E+04  4.276826E+04  2.366796E+04 -8.215614E+03 -2.702733E+03
       182   9  3.242802E+04  1.632363E+04  2.662067E+04  4.480610E+04 -5.751847E+03 -6.001090E+03
       182  10 -7.775791E+04 -3.952355E+05 -7.835287E+04  4.711177E+04  4.939639E-10  3.101638E-10
       182  11 -5.009994E+04 -3.184748E+05 -5.193090E+04  2.597904E+04  8.538089E-10  3.124206E-09
       182  12 -3.180029E+04 -2.450276E+05 -3.315001E+04  4.261800E+04  6.205450E-10  1.366675E-10
       182  13 -7.802571E+03 -1.143687E+05 -9.554143E+03  4.370666E+04  2.893367E-10 -1.049820E-09
       182  14  4.364964E+02 -1.132028E+05 -4.579990E+03  2.482368E+04  4.815612E-11 -5.774434E-10
       182  15  3.144353E+02 -1.143599E+05 -3.264176E+03  4.371192E+04  8.288107E-10  8.548212E-10
       182  16  6.214697E+04  1.665701E+05  5.923881E+04  4.030001E+04  7.705000E-10 -1.119835E-09
       182  17  5.096998E+04  9.210824E+04  4.276812E+04  2.366794E+04  2.846944E-09 -1.520406E-10
       182  18  3.242797E+04  1.632359E+04  2.662054E+04  4.480607E+04 -1.249408E-09 -1.519470E-09
       182  19 -7.775786E+04 -3.952353E+05 -7.835254E+04  4.711180E+04  2.965031E+03  1.293085E+04
       182  20 -5.009986E+04 -3.184747E+05 -5.193073E+04  2.597907E+04  8.214770E+03  4.770603E+03
       182  21 -3.180025E+04 -2.450276E+05 -3.314993E+04  4.261798E+04  5.756685E+03 -3.395798E+03
       182  22 -7.802551E+03 -1.143686E+05 -9.554055E+03  4.370668E+04  2.969375E+03  6.166461E+03
       182  23  4.365726E+02 -1.132027E+05 -4.579837E+03  2.482370E+04  8.215190E+03  3.736838E+03
       182  24  3.144714E+02 -1.143599E+05 -3.264111E+03  4.371192E+04  5.754257E+03  1.302156E+03
       182  25  6.214698E+04  1.665701E+05  5.923883E+04  4.030001E+04  2.973791E+03 -6.009850E+02
       182  26  5.097006E+04  9.210827E+04  4.276826E+04  2.366796E+04  8.215614E+03  2.702733E+03
       182  27  3.242802E+04  1.632363E+04  2.662067E+04  4.480610E+04  5.751847E+03  6.001090E+03
       183   1 -1.540555E+04 -1.743787E+05 -1.683985E+04  4.414181E+04 -2.631866E+03  1.669644E+03
       183   2  3.683540E+03 -9.904596E+04  5.717289E+02  2.471334E+04  6.432113E+02  3.050250E+03
       183   3  2.115324E+04 -2.423892E+04  1.669043E+04  4.333701E+04  3.883790E+03  4.431076E+03
       183   4 -5.527315E+02 -1.139595E+05 -3.006896E+03  4.377287E+04 -2.630686E+03 -7.799509E+02
       183   5  8.399037E+01 -1.136921E+05 -2.777979E+03  2.474666E+04  6.444144E+02  6.262139E+02
       183   6 -9.027774E+02 -1.139601E+05 -3.859431E+03  4.377269E+04  3.884999E+03  2.032436E+03
       183   7  1.429984E+04 -5.353691E+04  1.082584E+04  4.340389E+04 -2.629504E+03 -3.229782E+03
       183   8 -3.515571E+03 -1.283380E+05 -6.127680E+03  2.477998E+04  6.456173E+02 -1.797766E+03
       183   9 -2.295935E+04 -2.036739E+05 -2.440980E+04  4.420831E+04  3.886204E+03 -3.658598E+02
       183  10 -1.540556E+04 -1.743787E+05 -1.683987E+04  4.414181E+04  8.638744E-10  3.565530E-10
       183  11  3.683537E+03 -9.904597E+04  5.717107E+02  2.471334E+04 -2.465809E-10  2.292403E-09
       183  12  2.115322E+04 -2.423894E+04  1.669037E+04  4.333700E+04 -9.413839E-10 -2.222214E-10
       183  13 -5.527391E+02 -1.139595E+05 -3.006911E+03  4.377287E+04  4.089331E-10 -4.262731E-12
       183  14  8.398981E+01 -1.136921E+05 -2.777981E+03  2.474666E+04  7.071429E-10 -5.089888E-10
       183  15 -9.027947E+02 -1.139601E+05 -3.859467E+03  4.377269E+04 -1.732038E-10 -3.180160E-10
       183  16  1.429983E+04 -5.353693E+04  1.082581E+04  4.340389E+04 -6.583104E-10 -6.378281E-10
       183  17 -3.515572E+03 -1.283380E+05 -6.127687E+03  2.477998E+04 -2.526905E-10 -1.823237E-09
       183  18 -2.295937E+04 -2.036739E+05 -2.440983E+04  4.420831E+04  7.060742E-11 -4.134858E-10
       183  19 -1.540555E+04 -1.743787E+05 -1.683985E+04  4.414181E+04  2.631866E+03 -1.669644E+03
       183  20  3.683540E+03 -9.904596E+04  5.717289E+02  2.471334E+04 -6.432113E+02 -3.050250E+03
       183  21  2.115324E+04 -2.423892E+04  1.669043E+04  4.333701E+04 -3.883790E+03 -4.431076E+03
       183  22 -5.527315E+02 -1.139595E+05 -3.006896E+03  4.377287E+04  2.630686E+03  7.799509E+02
       183  23  8.399037E+01 -1.136921E+05 -2.777979E+03  2.474666E+04 -6.444144E+02 -6.262139E+02
       183  24 -9.027774E+02 -1.139601E+05 -3.859431E+03  4.377269E+04 -3.884999E+03 -2.032436E+03
       183  25  1.429984E+04 -5.353691E+04  1.082584E+04  4.340389E+04  2.629504E+03  3.229782E+03
       183  26 -3.515571E+03 -1.283380E+05 -6.127680E+03  2.477998E+04 -6.456173E+02  1.797766E+03
       183  27 -2.295935E+04 -2.036739E+05 -2.440980E+04  4.420831E+04 -3.886204E+03  3.658598E+02
       184   1  3.989453E+04  4.532705E+04  3.206073E+04  4.546115E+04  7.083324E+03  7.599752E+03
       184   2  5.843878E+04  1.217497E+05  4.710416E+04  2.304066E+04  9.428358E+03  5.048065E+03
       184   3  6.485895E+04  1.955725E+05  6.079687E+04  3.835627E+04  3.349766E+03  2.490307E+03
       184   4  5.839513E+02 -1.146661E+05 -4.505572E+03  4.370539E+04  7.085948E+03  2.721212E+03
       184   5  7.071503E+02 -1.128243E+05 -6.970759E+03  2.483232E+04  9.427748E+03  6.436602E+03
       184   6 -1.238377E+04 -1.146762E+05 -1.513958E+04  4.369656E+04  3.344476E+03  1.014611E+04
       184   7 -3.872838E+04 -2.746354E+05 -4.107346E+04  4.195010E+04  7.088601E+03 -2.156083E+03
       184   8 -5.702832E+04 -3.473474E+05 -6.104932E+04  2.662330E+04  9.427145E+03  7.824619E+03
       184   9 -8.963349E+04 -4.248370E+05 -9.108285E+04  4.903420E+04  3.339317E+03  1.779810E+04
       184  10  3.989446E+04  4.532698E+04  3.206053E+04  4.546110E+04 -2.437929E-10 -7.849902E-09
       184  11  5.843868E+04  1.217496E+05  4.710394E+04  2.304062E+04  5.762787E-10  1.866267E-09
       184  12  6.485894E+04  1.955724E+05  6.079684E+04  3.835626E+04  6.435721E-10  7.463390E-09
       184  13  5.838954E+02 -1.146661E+05 -4.505680E+03  4.370538E+04 -2.261268E-10  5.181347E-10
       184  14  7.070437E+02 -1.128244E+05 -6.971004E+03  2.483227E+04  9.669746E-10  1.601743E-11
       184  15 -1.238381E+04 -1.146763E+05 -1.513980E+04  4.369654E+04  6.985094E-10  3.193916E-10
       184  16 -3.872844E+04 -2.746354E+05 -4.107356E+04  4.195011E+04 -5.060436E-10  7.064778E-09
       184  17 -5.702843E+04 -3.473475E+05 -6.104960E+04  2.662324E+04  6.739774E-11 -6.875985E-10
       184  18 -8.963359E+04 -4.248373E+05 -9.108346E+04  4.903415E+04 -2.414186E-10 -8.203684E-09
       184  19  3.989453E+04  4.532705E+04  3.206073E+04  4.546115E+04 -7.083324E+03 -7.599752E+03
       184  20  5.843878E+04  1.217497E+05  4.710416E+04  2.304066E+04 -9.428358E+03 -5.048065E+03
       184  21  6.485895E+04  1.955725E+05  6.079687E+04  3.835627E+04 -3.349766E+03 -2.490307E+03
       184  22  5.839513E+02 -1.146661E+05 -4.505572E+03  4.370539E+04 -7.085948E+03 -2.721212E+03
       184  23  7.071503E+02 -1.128243E+05 -6.970759E+03  2.483232E+04 -9.427748E+03 -6.436602E+03
       184  24 -1.238377E+04 -1.146762E+05 -1.513958E+04  4.369656E+04 -3.344476E+03 -1.014611E+04
       184  25 -3.872838E+04 -2.746354E+05 -4.107346E+04  4.195010E+04 -7.088601E+03  2.156083E+03
       184  26 -5.702832E+04 -3.473474E+05 -6.104932E+04  2.662330E+04 -9.427145E+03 -7.824619E+03
       184  27 -8.963349E+04 -4.248370E+05 -9.108285E+04  4.903420E+04 -3.339317E+03 -1.779810E+04
       185   1  1.494079E+05  7.370346E+04  6.716945E+04  1.795413E+04  1.342062E+04 -5.203286E+03
       185   2  1.202985E+05  7.764586E+04  5.678478E+04  2.105994E+04  3.717008E+03 -1.734857E+04
       185   3  9.039240E+04  7.331349E+04  5.065278E+04  3.034609E+04 -5.988624E+03 -2.057759E+04
       185   4 -2.224949E+05 -1.814159E+04 -2.019204E+04  2.911185E+04 -1.406859E+04 -5.213911E+03
       185   5 -2.208092E+05 -3.888199E+03 -9.789416E+03  2.601742E+04 -9.004428E+03 -1.735503E+04
       185   6 -2.224867E+05 -4.763136E+02 -5.390653E+03  2.910361E+04 -3.942933E+03 -2.057744E+04
       185   7 -5.942685E+05 -1.099956E+05 -1.075601E+05  4.026282E+04 -4.154143E+04 -5.225529E+03
       185   8 -5.618049E+05 -8.542906E+04 -7.636854E+04  3.097210E+04 -2.171903E+04 -1.736168E+04
       185   9 -5.352703E+05 -7.427155E+04 -6.143782E+04  2.786176E+04 -1.898242E+03 -2.057729E+04
       185  10  1.494077E+05  7.370339E+04  6.716906E+04  1.795419E+04  4.571115E-10 -9.280013E-11
       185  11  1.202984E+05  7.764553E+04  5.678419E+04  2.105999E+04  1.498789E-09 -5.191973E-10
       185  12  9.039225E+04  7.331303E+04  5.065191E+04  3.034599E+04  5.690138E-10 -6.138883E-10
       185  13 -2.224951E+05 -1.814168E+04 -2.019247E+04  2.911179E+04 -6.088872E-10  2.984759E-10
       185  14 -2.208094E+05 -3.888544E+03 -9.790135E+03  2.601729E+04  1.454535E-09 -4.344176E-10
       185  15 -2.224868E+05 -4.767724E+02 -5.391478E+03  2.910354E+04  7.462165E-10 -1.329751E-10
       185  16 -5.942704E+05 -1.099961E+05 -1.075634E+05  4.026265E+04 -1.007832E-09 -1.031704E-11
       185  17 -5.618054E+05 -8.542952E+04 -7.637000E+04  3.097180E+04 -5.147289E-10 -1.534200E-09
       185  18 -5.352704E+05 -7.427201E+04 -6.143862E+04  2.786173E+04  1.339441E-11 -1.840714E-09
       185  19  1.494079E+05  7.370346E+04  6.716945E+04  1.795413E+04 -1.342062E+04  5.203286E+03
       185  20  1.202985E+05  7.764586E+04  5.678478E+04  2.105994E+04 -3.717008E+03  1.734857E+04
       185  21  9.039240E+04  7.331349E+04  5.065278E+04  3.034609E+04  5.988624E+03  2.057759E+04
       185  22 -2.224949E+05 -1.814159E+04 -2.019204E+04  2.911185E+04  1.406859E+04  5.213911E+03
       185  23 -2.208092E+05 -3.888199E+03 -9.789416E+03  2.601742E+04  9.004428E+03  1.735503E+04
       185  24 -2.224867E+05 -4.763136E+02 -5.390653E+03  2.910361E+04  3.942933E+03  2.057744E+04
       185  25 -5.942685E+05 -1.099956E+05 -1.075601E+05  4.026282E+04  4.154143E+04  5.225529E+03
       185  26 -5.618049E+05 -8.542906E+04 -7.636854E+04  3.097210E+04  2.171903E+04  1.736168E+04
       185  27 -5.352703E+05 -7.427155E+04 -6.143782E+04  2.786176E+04  1.898242E+03  2.057729E+04
       186   1  7.137761E+04  6.826387E+04  4.795150E+04  2.903903E+04 -4.212641E+03 -1.970229E+04
       186   2  4.194277E+04  6.176955E+04  4.345471E+04  2.588036E+04 -4.371666E+03 -1.872710E+04
       186   3  1.244595E+04  5.494872E+04  3.897965E+04  2.948422E+04 -4.531432E+03 -1.697371E+04
       186   4 -2.218008E+05 -7.880263E+02 -4.109667E+03  2.923404E+04 -3.240734E+03 -1.970258E+04
       186   5 -2.216550E+05 -9.845627E+01 -2.263625E+03  2.585243E+04 -2.111360E+03 -1.872647E+04
       186   6 -2.217955E+05  4.091876E+01 -1.290726E+03  2.923352E+04 -9.827140E+02 -1.697200E+04
       186   7 -5.148952E+05 -6.984466E+04 -5.617405E+04  2.942894E+04 -2.269273E+03 -1.970287E+04
       186   8 -4.851847E+05 -6.197021E+04 -4.798436E+04  2.582449E+04  1.480156E+02 -1.872584E+04
       186   9 -4.559830E+05 -5.486981E+04 -4.156291E+04  2.898291E+04  2.564707E+03 -1.697028E+04
       186  10  7.137749E+04  6.826345E+04  4.795074E+04  2.903896E+04 -2.296271E-09 -7.945689E-10
       186  11  4.194265E+04  6.176917E+04  4.345401E+04  2.588030E+04  3.646028E-10  8.765697E-10
       186  12  1.244585E+04  5.494840E+04  3.897907E+04  2.948416E+04 -2.017546E-10  6.931051E-11
       186  13 -2.218009E+05 -7.884460E+02 -4.110416E+03  2.923399E+04  5.513502E-10 -5.475717E-10
       186  14 -2.216551E+05 -9.883400E+01 -2.264292E+03  2.585239E+04 -3.891991E-10  4.000045E-10
       186  15 -2.217956E+05  4.060921E+01 -1.291269E+03  2.923351E+04  1.094255E-10 -4.422336E-10
       186  16 -5.148953E+05 -6.984508E+04 -5.617478E+04  2.942890E+04  1.312887E-09 -2.587833E-10
       186  17 -4.851848E+05 -6.197059E+04 -4.798502E+04  2.582449E+04  5.958901E-11  6.542266E-10
       186  18 -4.559831E+05 -5.487012E+04 -4.156346E+04  2.898294E+04 -8.404734E-10  2.792732E-10
       186  19  7.137761E+04  6.826387E+04  4.795150E+04  2.903903E+04  4.212641E+03  1.970229E+04
       186  20  4.194277E+04  6.176955E+04  4.345471E+04  2.588036E+04  4.371666E+03  1.872710E+04
       186  21  1.244595E+04  5.494872E+04  3.897965E+04  2.948422E+04  4.531432E+03  1.697371E+04
       186  22 -2.218008E+05 -7.880263E+02 -4.109667E+03  2.923404E+04  3.240734E+03  1.970258E+04
       186  23 -2.216550E+05 -9.845627E+01 -2.263625E+03  2.585243E+04  2.111360E+03  1.872647E+04
       186  24 -2.217955E+05  4.091876E+01 -1.290726E+03  2.923352E+04  9.827140E+02  1.697200E+04
       186  25 -5.148952E+05 -6.984466E+04 -5.617405E+04  2.942894E+04  2.269273E+03  1.970287E+04
       186  26 -4.851847E+05 -6.197021E+04 -4.798436E+04  2.582449E+04 -1.480156E+02  1.872584E+04
       186  27 -4.559830E+05 -5.486981E+04 -4.156291E+04  2.898291E+04 -2.564707E+03  1.697028E+04
       187   1 -6.819210E+03  5.037121E+04  3.581859E+04  2.940329E+04 -4.240532E+03 -1.571276E+04
       187   2 -3.628904E+04  4.347742E+04  3.115064E+04  2.597210E+04 -4.076550E+03 -1.359177E+04
       187   3 -6.578647E+04  3.658460E+04  2.637418E+04  2.935794E+04 -3.912916E+03 -1.140246E+04
       187   4 -2.217409E+05  2.151045E+01 -9.812727E+02  2.924570E+04 -7.847185E+02 -1.571093E+04
       187   5 -2.217150E+05  4.439819E+01 -5.619011E+02  2.583711E+04 -5.077657E+02 -1.358963E+04
       187   6 -2.217372E+05  4.866124E+01 -3.295813E+02  2.924568E+04 -2.311542E+02 -1.140000E+04
       187   7 -4.366171E+05 -5.033064E+04 -3.778263E+04  2.908815E+04  2.669937E+03 -1.570911E+04
       187   8 -4.071071E+05 -4.339045E+04 -3.227554E+04  2.570216E+04  3.059986E+03 -1.358749E+04
       187   9 -3.776640E+05 -3.648857E+04 -2.703411E+04  2.913344E+04  3.449712E+03 -1.139754E+04
       187  10 -6.819295E+03  5.037094E+04  3.581809E+04  2.940324E+04 -7.608638E-10  1.983472E-10
       187  11 -3.628910E+04  4.347721E+04  3.115026E+04  2.597206E+04  1.188994E-09  1.729777E-10
       187  12 -6.578652E+04  3.658445E+04  2.637391E+04  2.935791E+04  1.154276E-09 -3.898739E-10
       187  13 -2.217409E+05  2.124526E+01 -9.817377E+02  2.924569E+04 -1.454753E-09 -1.224937E-09
       187  14 -2.217150E+05  4.419983E+01 -5.622486E+02  2.583711E+04 -9.309116E-11  1.049184E-09
       187  15 -2.217373E+05  4.852169E+01 -3.298256E+02  2.924567E+04  1.122204E-09  1.172599E-09
       187  16 -4.366172E+05 -5.033091E+04 -3.778311E+04  2.908819E+04  4.203085E-10  4.469924E-10
       187  17 -4.071072E+05 -4.339065E+04 -3.227590E+04  2.570219E+04  5.549606E-11  6.613427E-10
       187  18 -3.776641E+05 -3.648871E+04 -2.703437E+04  2.913347E+04 -1.901739E-10  1.483896E-10
       187  19 -6.819210E+03  5.037121E+04  3.581859E+04  2.940329E+04  4.240532E+03  1.571276E+04
       187  20 -3.628904E+04  4.347742E+04  3.115064E+04  2.597210E+04  4.076550E+03  1.359177E+04
       187  21 -6.578647E+04  3.658460E+04  2.637418E+04  2.935794E+04  3.912916E+03  1.140246E+04
       187  22 -2.217409E+05  2.151045E+01 -9.812727E+02  2.924570E+04  7.847185E+02  1.571093E+04
       187  23 -2.217150E+05  4.439819E+01 -5.619011E+02  2.583711E+04  5.077657E+02  1.358963E+04
       187  24 -2.217372E+05  4.866124E+01 -3.295813E+02  2.924568E+04  2.311542E+02  1.140000E+04
       187  25 -4.366171E+05 -5.033064E+04 -3.778263E+04  2.908815E+04 -2.669937E+03  1.570911E+04
       187  26 -4.071071E+05 -4.339045E+04 -3.227554E+04  2.570216E+04 -3.059986E+03  1.358749E+04
       187  27 -3.776640E+05 -3.648857E+04 -2.703411E+04  2.913344E+04 -3.449712E+03  1.139754E+04
       188   1 -8.507594E+04  3.203836E+04  2.301946E+04  2.934236E+04 -3.853253E+03 -1.010711E+04
       188   2 -1.145658E+05  2.513775E+04  1.813144E+04  2.590690E+04 -3.783503E+03 -7.885213E+03
       188   3 -1.440720E+05  1.824773E+04  1.319763E+04  2.929607E+04 -3.713936E+03 -5.657401E+03
       188   4 -2.217297E+05  4.773245E+01 -2.562542E+02  2.924736E+04 -1.790762E+02 -1.010454E+04
       188   5 -2.217190E+05  4.397094E+01 -1.638409E+02  2.583501E+04 -9.965787E+01 -7.882493E+03
       188   6 -2.217276E+05  4.902338E+01 -1.240985E+02  2.924736E+04 -2.042029E+01 -5.654530E+03
       188   7 -3.583651E+05 -3.194388E+04 -2.353253E+04  2.915238E+04  3.494318E+03 -1.010197E+04
       188   8 -3.288609E+05 -2.505041E+04 -1.845945E+04  2.576313E+04  3.583571E+03 -7.879774E+03
       188   9 -2.993773E+05 -1.815000E+04 -1.344598E+04  2.919865E+04  3.672648E+03 -5.651660E+03
       188  10 -8.507598E+04  3.203824E+04  2.301924E+04  2.934233E+04 -5.884236E-10  2.147095E-10
       188  11 -1.145659E+05  2.513768E+04  1.813129E+04  2.590687E+04 -7.444683E-10  3.036894E-09
       188  12 -1.440720E+05  1.824769E+04  1.319755E+04  2.929605E+04 -2.637759E-10  1.640696E-09
       188  13 -2.217297E+05  4.762282E+01 -2.564461E+02  2.924736E+04 -5.407398E-10  2.895109E-10
       188  14 -2.217190E+05  4.390422E+01 -1.639576E+02  2.583501E+04 -5.065138E-10  2.225894E-09
       188  15 -2.217276E+05  4.898905E+01 -1.241586E+02  2.924736E+04 -8.007133E-10  1.824145E-10
       188  16 -3.583651E+05 -3.194399E+04 -2.353275E+04  2.915241E+04 -3.968319E-11  2.245565E-10
       188  17 -3.288609E+05 -2.505048E+04 -1.845959E+04  2.576316E+04  7.914828E-10  5.027925E-10
       188  18 -2.993773E+05 -1.815003E+04 -1.344607E+04  2.919867E+04 -7.689562E-10  3.448492E-10
       188  19 -8.507594E+04  3.203836E+04  2.301946E+04  2.934236E+04  3.853253E+03  1.010711E+04
       188  20 -1.145658E+05  2.513775E+04  1.813144E+04  2.590690E+04  3.783503E+03  7.885213E+03
       188  21 -1.440720E+05  1.824773E+04  1.319763E+04  2.929607E+04  3.713936E+03  5.657401E+03
       188  22 -2.217297E+05  4.773245E+01 -2.562542E+02  2.924736E+04  1.790762E+02  1.010454E+04
       188  23 -2.217190E+05  4.397094E+01 -1.638409E+02  2.583501E+04  9.965787E+01  7.882493E+03
       188  24 -2.217276E+05  4.902338E+01 -1.240985E+02  2.924736E+04  2.042029E+01  5.654530E+03
       188  25 -3.583651E+05 -3.194388E+04 -2.353253E+04  2.915238E+04 -3.494318E+03  1.010197E+04
       188  26 -3.288609E+05 -2.505041E+04 -1.845945E+04  2.576313E+04 -3.583571E+03  7.879774E+03
       188  27 -2.993773E+05 -1.815000E+04 -1.344598E+04  2.919865E+04 -3.672648E+03  5.651660E+03
       189   1 -1.633726E+05  1.370219E+04  9.776435E+03  2.928315E+04 -3.692770E+03 -4.358712E+03
       189   2 -1.928669E+05  6.802381E+03  4.784079E+03  2.584527E+04 -3.621144E+03 -2.129426E+03
       189   3 -2.223808E+05 -8.917329E+01 -2.566067E+02  2.923465E+04 -3.549565E+03  9.664440E+01
       189   4 -2.217271E+05  4.958344E+01 -1.193333E+02  2.924793E+04  7.105445E-01 -4.355787E+03
       189   5 -2.217172E+05  4.662853E+01 -1.375757E+02  2.583429E+04  6.695523E+01 -2.126468E+03
       189   6 -2.217265E+05  5.300783E+01 -2.003105E+02  2.924793E+04  1.331560E+02  9.963673E+01
       189   7 -2.800781E+05 -1.360319E+04 -1.001516E+04  2.921272E+04  3.693855E+03 -4.352863E+03
       189   8 -2.505667E+05 -6.709161E+03 -5.059207E+03  2.582331E+04  3.754888E+03 -2.123511E+03
       189   9 -2.210722E+05  1.951962E+02 -1.439632E+02  2.926121E+04  3.815881E+03  1.026292E+02
       189  10 -1.633727E+05  1.370216E+04  9.776374E+03  2.928314E+04  1.892558E-09  6.056489E-11
       189  11 -1.928669E+05  6.802373E+03  4.784046E+03  2.584526E+04  1.837425E-09 -2.016987E-10
       189  12 -2.223808E+05 -8.917668E+01 -2.566305E+02  2.923465E+04 -1.061121E-09 -5.986443E-10
       189  13 -2.217271E+05  4.956307E+01 -1.193690E+02  2.924793E+04  3.773048E-10  2.231477E-09
       189  14 -2.217172E+05  4.662368E+01 -1.375842E+02  2.583429E+04 -6.837875E-10  3.810503E-11
       189  15 -2.217265E+05  5.300781E+01 -2.003105E+02  2.924793E+04 -5.884106E-10 -6.763335E-10
       189  16 -2.800781E+05 -1.360322E+04 -1.001522E+04  2.921273E+04 -2.337013E-09  1.260281E-09
       189  17 -2.505667E+05 -6.709170E+03 -5.059242E+03  2.582332E+04  2.435609E-10  1.549219E-11
       189  18 -2.210722E+05  1.951923E+02 -1.439906E+02  2.926121E+04  7.712592E-10 -5.000760E-10
       189  19 -1.633726E+05  1.370219E+04  9.776435E+03  2.928315E+04  3.692770E+03  4.358712E+03
       189  20 -1.928669E+05  6.802381E+03  4.784079E+03  2.584527E+04  3.621144E+03  2.129426E+03
       189  21 -2.223808E+05 -8.917329E+01 -2.566067E+02  2.923465E+04  3.549565E+03 -9.664440E+01
       189  22 -2.217271E+05  4.958344E+01 -1.193333E+02  2.924793E+04 -7.105445E-01  4.355787E+03
       189  23 -2.217172E+05  4.662853E+01 -1.375757E+02  2.583429E+04 -6.695523E+01  2.126468E+03
       189  24 -2.217265E+05  5.300783E+01 -2.003105E+02  2.924793E+04 -1.331560E+02 -9.963673E+01
       189  25 -2.800781E+05 -1.360319E+04 -1.001516E+04  2.921272E+04 -3.693855E+03  4.352863E+03
       189  26 -2.505667E+05 -6.709161E+03 -5.059207E+03  2.582331E+04 -3.754888E+03  2.123511E+03
       189  27 -2.210722E+05  1.951962E+02 -1.439632E+02  2.926121E+04 -3.815881E+03 -1.026292E+02
       190   1 -2.416890E+05 -4.634862E+03 -3.737931E+03  2.921595E+04 -3.514702E+03  1.393910E+03
       190   2 -2.711638E+05 -1.153805E+04 -8.906672E+03  2.577723E+04 -3.234182E+03  3.599909E+03
       190   3 -3.006928E+05 -1.846478E+04 -1.426760E+04  2.916271E+04 -2.953564E+03  5.762165E+03
       190   4 -2.217318E+05  5.464201E+01 -2.531943E+02  2.924723E+04  1.731121E+02  1.396899E+03
       190   5 -2.217110E+05  5.194117E+01 -4.239143E+02  2.583516E+04  3.811526E+02  3.602773E+03
       190   6 -2.217328E+05  3.832242E+01 -7.364869E+02  2.924725E+04  5.893049E+02  5.764908E+03
       190   7 -2.017741E+05  4.744131E+03  3.231579E+03  2.927852E+04  3.861041E+03  1.399887E+03
       190   8 -1.722558E+05  1.164181E+04  8.058810E+03  2.589309E+04  3.996767E+03  3.605638E+03
       190   9 -1.427665E+05  1.854110E+04  1.279446E+04  2.933180E+04  4.132610E+03  5.767652E+03
       190  10 -2.416890E+05 -4.634867E+03 -3.737958E+03  2.921596E+04 -2.135318E-09  8.530484E-10
       190  11 -2.711639E+05 -1.153807E+04 -8.906716E+03  2.577724E+04  2.455622E-10  1.575323E-09
       190  12 -3.006929E+05 -1.846482E+04 -1.426768E+04  2.916273E+04 -1.162951E-09  1.949001E-09
       190  13 -2.217318E+05  5.463990E+01 -2.531980E+02  2.924723E+04  2.078079E-12 -2.440519E-10
       190  14 -2.217110E+05  5.192719E+01 -4.239389E+02  2.583516E+04  4.713217E-10  1.394198E-09
       190  15 -2.217328E+05  3.828665E+01 -7.365500E+02  2.924725E+04 -1.620710E-10  1.757266E-09
       190  16 -2.017741E+05  4.744125E+03  3.231548E+03  2.927851E+04  1.885985E-09  7.322266E-10
       190  17 -1.722558E+05  1.164179E+04  8.058756E+03  2.589308E+04  1.821672E-09 -1.373714E-09
       190  18 -1.427666E+05  1.854106E+04  1.279437E+04  2.933178E+04  1.499746E-09  6.825585E-10
       190  19 -2.416890E+05 -4.634862E+03 -3.737931E+03  2.921595E+04  3.514702E+03 -1.393910E+03
       190  20 -2.711638E+05 -1.153805E+04 -8.906672E+03  2.577723E+04  3.234182E+03 -3.599909E+03
       190  21 -3.006928E+05 -1.846478E+04 -1.426760E+04  2.916271E+04  2.953564E+03 -5.762165E+03
       190  22 -2.217318E+05  5.464201E+01 -2.531943E+02  2.924723E+04 -1.731121E+02 -1.396899E+03
       190  23 -2.217110E+05  5.194117E+01 -4.239143E+02  2.583516E+04 -3.811526E+02 -3.602773E+03
       190  24 -2.217328E+05  3.832242E+01 -7.364869E+02  2.924725E+04 -5.893049E+02 -5.764908E+03
       190  25 -2.017741E+05  4.744131E+03  3.231579E+03  2.927852E+04 -3.861041E+03 -1.399887E+03
       190  26 -1.722558E+05  1.164181E+04  8.058810E+03  2.589309E+04 -3.996767E+03 -3.605638E+03
       190  27 -1.427665E+05  1.854110E+04  1.279446E+04  2.933180E+04 -4.132610E+03 -5.767652E+03
       191   1 -3.200537E+05 -2.300637E+04 -1.795557E+04  2.907872E+04 -2.865440E+03  7.037695E+03
       191   2 -3.493656E+05 -3.005353E+04 -2.396459E+04  2.583845E+04 -1.192149E+03  8.964971E+03
       191   3 -3.790428E+05 -3.765353E+04 -3.120447E+04  2.938867E+04  4.815630E+02  1.039133E+04
       191   4 -2.217734E+05  5.363494E+01 -9.677154E+02  2.923967E+04  7.373403E+02  7.040417E+03
       191   5 -2.216635E+05 -5.079506E+01 -1.694842E+03  2.584470E+04  1.581550E+03  8.966906E+03
       191   6 -2.217761E+05 -5.640770E+02 -3.076884E+03  2.924015E+04  2.426269E+03  1.039253E+04
       191   7 -1.234836E+05  2.311313E+04  1.601985E+04  2.940065E+04  4.340674E+03  7.043141E+03
       191   8 -9.394539E+04  2.995106E+04  2.057436E+04  2.585096E+04  4.355802E+03  8.968841E+03
       191   9 -6.448517E+04  3.652401E+04  2.504977E+04  2.909158E+04  4.371453E+03  1.039373E+04
       191  10 -3.200537E+05 -2.300643E+04 -1.795568E+04  2.907873E+04 -2.783260E-09  3.237965E-09
       191  11 -3.493657E+05 -3.005362E+04 -2.396474E+04  2.583846E+04  3.814667E-10  1.998797E-09
       191  12 -3.790429E+05 -3.765365E+04 -3.120467E+04  2.938866E+04  1.847696E-09  2.116910E-09
       191  13 -2.217735E+05  5.358158E+01 -9.678095E+02  2.923967E+04 -3.392187E-12  2.366027E-09
       191  14 -2.216635E+05 -5.088206E+01 -1.694998E+03  2.584469E+04  4.592080E-10  2.385826E-09
       191  15 -2.217761E+05 -5.641945E+02 -3.077098E+03  2.924013E+04  2.247719E-09 -2.421489E-10
       191  16 -1.234837E+05  2.311307E+04  1.601973E+04  2.940063E+04  3.134160E-09  1.968797E-09
       191  17 -9.394543E+04  2.995097E+04  2.057417E+04  2.585093E+04  2.545136E-10  1.250368E-09
       191  18 -6.448522E+04  3.652389E+04  2.504953E+04  2.909155E+04 -7.564868E-10 -2.107035E-09
       191  19 -3.200537E+05 -2.300637E+04 -1.795557E+04  2.907872E+04  2.865440E+03 -7.037695E+03
       191  20 -3.493656E+05 -3.005353E+04 -2.396459E+04  2.583845E+04  1.192149E+03 -8.964971E+03
       191  21 -3.790428E+05 -3.765353E+04 -3.120447E+04  2.938867E+04 -4.815630E+02 -1.039133E+04
       191  22 -2.217734E+05  5.363494E+01 -9.677154E+02  2.923967E+04 -7.373403E+02 -7.040417E+03
       191  23 -2.216635E+05 -5.079506E+01 -1.694842E+03  2.584470E+04 -1.581550E+03 -8.966906E+03
       191  24 -2.217761E+05 -5.640770E+02 -3.076884E+03  2.924015E+04 -2.426269E+03 -1.039253E+04
       191  25 -1.234836E+05  2.311313E+04  1.601985E+04  2.940065E+04 -4.340674E+03 -7.043141E+03
       191  26 -9.394539E+04  2.995106E+04  2.057436E+04  2.585096E+04 -4.355802E+03 -8.968841E+03
       191  27 -6.448517E+04  3.652401E+04  2.504977E+04  2.909158E+04 -4.371453E+03 -1.039373E+04
       192   1 -3.991220E+05 -4.209364E+04 -3.595030E+04  2.822050E+04  3.159344E+02  1.141815E+04
       192   2 -4.265594E+05 -5.209564E+04 -4.779704E+04  2.964387E+04  1.360528E+04  1.014891E+04
       192   3 -4.581760E+05 -7.186670E+04 -7.074231E+04  3.748559E+04  2.689735E+04  3.138323E+03
       192   4 -2.222896E+05 -3.300491E+02 -4.035838E+03  2.915624E+04  2.951551E+03  1.141976E+04
       192   5 -2.210282E+05 -2.886211E+03 -7.328041E+03  2.595150E+04  6.739392E+03  1.014390E+04
       192   6 -2.222949E+05 -1.355936E+04 -1.511666E+04  2.916522E+04  1.053057E+04  3.127378E+03
       192   7 -4.542668E+04  4.143180E+04  2.787742E+04  3.009224E+04  5.587899E+03  1.142138E+04
       192   8 -1.545639E+04  4.632074E+04  3.313909E+04  2.225788E+04 -1.287229E+02  1.013898E+04
       192   9  1.363818E+04  4.474440E+04  4.050619E+04  2.084165E+04 -5.842391E+03  3.116873E+03
       192  10 -3.991220E+05 -4.209378E+04 -3.595054E+04  2.822049E+04 -2.977945E-08  4.434136E-10
       192  11 -4.265596E+05 -5.209580E+04 -4.779759E+04  2.964376E+04 -1.608049E-09 -2.157318E-09
       192  12 -4.581768E+05 -7.186690E+04 -7.074369E+04  3.748553E+04  2.496442E-08 -7.215301E-10
       192  13 -2.222896E+05 -3.301915E+02 -4.036100E+03  2.915621E+04  3.660233E-10 -4.501287E-11
       192  14 -2.210283E+05 -2.886333E+03 -7.328319E+03  2.595145E+04  1.127888E-09 -3.020968E-09
       192  15 -2.222950E+05 -1.355940E+04 -1.511689E+04  2.916519E+04 -3.872198E-10  6.183705E-10
       192  16 -4.542674E+04  4.143165E+04  2.787712E+04  3.009219E+04  2.952826E-08 -1.144297E-09
       192  17 -1.545641E+04  4.632063E+04  3.313890E+04  2.225788E+04  1.949601E-09 -1.522300E-09
       192  18  1.363814E+04  4.474438E+04  4.050611E+04  2.084166E+04 -2.620978E-08 -5.372171E-10
       192  19 -3.991220E+05 -4.209364E+04 -3.595030E+04  2.822050E+04 -3.159344E+02 -1.141815E+04
       192  20 -4.265594E+05 -5.209564E+04 -4.779704E+04  2.964387E+04 -1.360528E+04 -1.014891E+04
       192  21 -4.581760E+05 -7.186670E+04 -7.074231E+04  3.748559E+04 -2.689735E+04 -3.138323E+03
       192  22 -2.222896E+05 -3.300491E+02 -4.035838E+03  2.915624E+04 -2.951551E+03 -1.141976E+04
       192  23 -2.210282E+05 -2.886211E+03 -7.328041E+03  2.595150E+04 -6.739392E+03 -1.014390E+04
       192  24 -2.222949E+05 -1.355936E+04 -1.511666E+04  2.916522E+04 -1.053057E+04 -3.127378E+03
       192  25 -4.542668E+04  4.143180E+04  2.787742E+04  3.009224E+04 -5.587899E+03 -1.142138E+04
       192  26 -1.545639E+04  4.632074E+04  3.313909E+04  2.225788E+04  1.287229E+02 -1.013898E+04
       192  27  1.363818E+04  4.474440E+04  4.050619E+04  2.084165E+04  5.842391E+03 -3.116873E+03
       193   1 -5.079015E+04  3.671768E+04  2.985736E+04  6.228890E+02 -1.405770E+04 -3.047601E+03
       193   2 -6.683065E+04  5.779628E+04  3.881196E+04  2.940401E+03 -1.136350E+04 -9.423761E+03
       193   3 -8.970386E+04  5.290050E+04  3.952441E+04  1.486182E+04 -8.673403E+03 -9.498575E+03
       193   4 -2.993798E+05 -2.513105E+04 -3.082651E+04  1.103892E+04 -2.114062E+04 -3.052376E+03
       193   5 -2.955519E+05  1.523191E+03 -1.381769E+04  6.227730E+03 -1.376090E+04 -9.425788E+03
       193   6 -2.993736E+05  1.384003E+03 -8.308267E+03  1.102079E+04 -6.385129E+03 -9.496880E+03
       193   7 -5.479127E+05 -8.698391E+04 -9.151464E+04  2.145077E+04 -2.822071E+04 -3.057390E+03
       193   8 -5.242246E+05 -5.475351E+04 -6.645077E+04  9.513830E+03 -1.615743E+04 -9.427841E+03
       193   9 -5.090025E+05 -5.013548E+04 -5.614379E+04  7.181064E+03 -4.097621E+03 -9.495214E+03
       193  10 -5.079036E+04  3.671761E+04  2.985698E+04  6.228545E+02 -1.502943E-09  6.892422E-10
       193  11 -6.683082E+04  5.779615E+04  3.881155E+04  2.940315E+03 -3.473510E-10  2.274738E-09
       193  12 -8.970396E+04  5.290038E+04  3.952410E+04  1.486176E+04  8.901773E-10  1.074567E-09
       193  13 -2.993803E+05 -2.513118E+04 -3.082737E+04  1.103887E+04  3.432322E-12 -6.215682E-10
       193  14 -2.955521E+05  1.523045E+03 -1.381821E+04  6.227626E+03 -7.404460E-10 -1.605676E-09
       193  15 -2.993737E+05  1.383895E+03 -8.308513E+03  1.102074E+04  8.590378E-10  9.881459E-10
       193  16 -5.479136E+05 -8.698413E+04 -9.151616E+04  2.145070E+04  1.132168E-09 -1.616651E-10
       193  17 -5.242249E+05 -5.475368E+04 -6.645143E+04  9.513707E+03  3.622213E-10  1.886547E-09
       193  18 -5.090026E+05 -5.013559E+04 -5.614399E+04  7.181033E+03 -6.242230E-10  6.871511E-10
       193  19 -5.079015E+04  3.671768E+04  2.985736E+04  6.228890E+02  1.405770E+04  3.047601E+03
       193  20 -6.683065E+04  5.779628E+04  3.881196E+04  2.940401E+03  1.136350E+04  9.423761E+03
       193  21 -8.970386E+04  5.290050E+04  3.952441E+04  1.486182E+04  8.673403E+03  9.498575E+03
       193  22 -2.993798E+05 -2.513105E+04 -3.082651E+04  1.103892E+04  2.114062E+04  3.052376E+03
       193  23 -2.955519E+05  1.523191E+03 -1.381769E+04  6.227730E+03  1.376090E+04  9.425788E+03
       193  24 -2.993736E+05  1.384003E+03 -8.308267E+03  1.102079E+04  6.385129E+03  9.496880E+03
       193  25 -5.479127E+05 -8.698391E+04 -9.151464E+04  2.145077E+04  2.822071E+04  3.057390E+03
       193  26 -5.242246E+05 -5.475351E+04 -6.645077E+04  9.513830E+03  1.615743E+04  9.427841E+03
       193  27 -5.090025E+05 -5.013548E+04 -5.614379E+04  7.181064E+03  4.097621E+03  9.495214E+03
       194   1 -1.064418E+05  4.526699E+04  3.720437E+04  1.059532E+04 -5.519869E+03 -8.209398E+03
       194   2 -1.256173E+05  4.238136E+04  3.575752E+04  6.111055E+03 -3.955620E+03 -7.580810E+03
       194   3 -1.454828E+05  3.757700E+04  3.281112E+04  1.151600E+04 -2.391946E+03 -6.646971E+03
       194   4 -2.978349E+05 -1.795666E+03 -6.680079E+03  1.109050E+04 -5.165728E+03 -8.209274E+03
       194   5 -2.974687E+05  1.429774E+02 -3.544986E+03  6.144933E+03 -3.374907E+03 -7.580417E+03
       194   6 -2.978326E+05  1.231554E+02 -2.067260E+03  1.108876E+04 -1.584616E+03 -6.646273E+03
       194   7 -4.891941E+05 -4.886088E+04 -5.056693E+04  1.158553E+04 -4.811695E+03 -8.209150E+03
       194   8 -4.692926E+05 -4.209746E+04 -4.284943E+04  6.178796E+03 -2.794353E+03 -7.580025E+03
       194   9 -4.501609E+05 -3.733230E+04 -3.694716E+04  1.066162E+04 -7.774817E+02 -6.645576E+03
       194  10 -1.064419E+05  4.526691E+04  3.720418E+04  1.059528E+04 -3.928037E-11 -5.164497E-10
       194  11 -1.256174E+05  4.238130E+04  3.575738E+04  6.111030E+03  6.457237E-10  1.441152E-09
       194  12 -1.454828E+05  3.757695E+04  3.281102E+04  1.151599E+04  9.172974E-10  2.259524E-09
       194  13 -2.978350E+05 -1.795746E+03 -6.680255E+03  1.109047E+04  2.164389E-10  3.463607E-09
       194  14 -2.974687E+05  1.429126E+02 -3.545115E+03  6.144912E+03  6.691382E-10 -4.580640E-09
       194  15 -2.978326E+05  1.231073E+02 -2.067348E+03  1.108875E+04  1.002048E-09  2.206489E-09
       194  16 -4.891942E+05 -4.886095E+04 -5.056710E+04  1.158550E+04 -3.261416E-11 -1.559869E-09
       194  17 -4.692927E+05 -4.209752E+04 -4.284955E+04  6.178779E+03 -5.557025E-11 -1.416481E-09
       194  18 -4.501609E+05 -3.733235E+04 -3.694724E+04  1.066162E+04 -1.940887E-09  5.166141E-10
       194  19 -1.064418E+05  4.526699E+04  3.720437E+04  1.059532E+04  5.519869E+03  8.209398E+03
       194  20 -1.256173E+05  4.238136E+04  3.575752E+04  6.111055E+03  3.955620E+03  7.580810E+03
       194  21 -1.454828E+05  3.757700E+04  3.281112E+04  1.151600E+04  2.391946E+03  6.646971E+03
       194  22 -2.978349E+05 -1.795666E+03 -6.680079E+03  1.109050E+04  5.165728E+03  8.209274E+03
       194  23 -2.974687E+05  1.429774E+02 -3.544986E+03  6.144933E+03  3.374907E+03  7.580417E+03
       194  24 -2.978326E+05  1.231554E+02 -2.067260E+03  1.108876E+04  1.584616E+03  6.646273E+03
       194  25 -4.891941E+05 -4.886088E+04 -5.056693E+04  1.158553E+04  4.811695E+03  8.209150E+03
       194  26 -4.692926E+05 -4.209746E+04 -4.284943E+04  6.178796E+03  2.794353E+03  7.580025E+03
       194  27 -4.501609E+05 -3.733230E+04 -3.694716E+04  1.066162E+04  7.774817E+02  6.645576E+03
       195   1 -1.636335E+05  3.283599E+04  2.899967E+04  1.120034E+04 -1.977959E+03 -6.038873E+03
       195   2 -1.831906E+05  2.815601E+04  2.525410E+04  6.232270E+03 -1.537921E+03 -5.069156E+03
       195   3 -2.028554E+05  2.335337E+04  2.118680E+04  1.121493E+04 -1.098080E+03 -4.083511E+03
       195   4 -2.976935E+05 -1.027351E+02 -1.599720E+03  1.110301E+04 -1.262722E+03 -6.038221E+03
       195   5 -2.976380E+05  2.741235E+01 -9.107358E+02  6.127517E+03 -8.109293E+02 -5.068435E+03
       195   6 -2.976922E+05  3.292239E+01 -5.516092E+02  1.110286E+04 -3.593195E+02 -4.082719E+03
       195   7 -4.317369E+05 -3.304271E+04 -3.220029E+04  1.100570E+04 -5.476377E+02 -6.037570E+03
       195   8 -4.120731E+05 -2.810210E+04 -2.707643E+04  6.022779E+03 -8.407032E+01 -5.067715E+03
       195   9 -3.925207E+05 -2.328815E+04 -2.229061E+04  1.099081E+04  3.793292E+02 -4.081926E+03
       195  10 -1.636335E+05  3.283595E+04  2.899960E+04  1.120033E+04  3.147835E-09 -1.787590E-09
       195  11 -1.831906E+05  2.815599E+04  2.525405E+04  6.232264E+03  1.671710E-09 -1.089037E-09
       195  12 -2.028554E+05  2.335335E+04  2.118677E+04  1.121493E+04 -1.340261E-09 -1.304951E-09
       195  13 -2.976935E+05 -1.027747E+02 -1.599792E+03  1.110300E+04  5.477558E-10 -1.059141E-09
       195  14 -2.976380E+05  2.738460E+01 -9.107853E+02  6.127513E+03 -9.853121E-10 -4.376551E-10
       195  15 -2.976922E+05  3.290446E+01 -5.516408E+02  1.110286E+04  1.353173E-09 -4.138250E-11
       195  16 -4.317369E+05 -3.304275E+04 -3.220036E+04  1.100570E+04 -1.848670E-09 -1.004293E-09
       195  17 -4.120731E+05 -2.810213E+04 -2.707648E+04  6.022779E+03 -1.257188E-09  1.468333E-09
       195  18 -3.925207E+05 -2.328817E+04 -2.229064E+04  1.099081E+04  6.227249E-10  3.830501E-09
       195  19 -1.636335E+05  3.283599E+04  2.899967E+04  1.120034E+04  1.977959E+03  6.038873E+03
       195  20 -1.831906E+05  2.815601E+04  2.525410E+04  6.232270E+03  1.537921E+03  5.069156E+03
       195  21 -2.028554E+05  2.335337E+04  2.118680E+04  1.121493E+04  1.098080E+03  4.083511E+03
       195  22 -2.976935E+05 -1.027351E+02 -1.599720E+03  1.110301E+04  1.262722E+03  6.038221E+03
       195  23 -2.976380E+05  2.741235E+01 -9.107358E+02  6.127517E+03  8.109293E+02  5.068435E+03
       195  24 -2.976922E+05  3.292239E+01 -5.516092E+02  1.110286E+04  3.593195E+02  4.082719E+03
       195  25 -4.317369E+05 -3.304271E+04 -3.220029E+04  1.100570E+04  5.476377E+02  6.037570E+03
       195  26 -4.120731E+05 -2.810210E+04 -2.707643E+04  6.022779E+03  8.407032E+01  5.067715E+03
       195  27 -3.925207E+05 -2.328815E+04 -2.229061E+04  1.099081E+04 -3.793292E+02  4.081926E+03
       196   1 -2.211963E+05  1.880442E+04  1.698466E+04  1.118280E+04 -1.005419E+03 -3.506277E+03
       196   2 -2.408418E+05  1.398148E+04  1.267249E+04  6.172897E+03 -8.511661E+02 -2.517366E+03
       196   3 -2.605316E+05  9.169252E+03  8.256386E+03  1.114222E+04 -6.970061E+02 -1.527125E+03
       196   4 -2.976770E+05  1.820386E+01 -4.432425E+02  1.110923E+04 -2.704775E+02 -3.505461E+03
       196   5 -2.976543E+05  1.780237E+01 -3.160301E+02  6.119587E+03 -1.152618E+02 -2.516520E+03
       196   6 -2.976764E+05  2.797578E+01 -2.934176E+02  1.110922E+04  3.986592E+01 -1.526248E+03
       196   7 -3.741523E+05 -1.876842E+04 -1.787152E+04  1.103568E+04  4.643741E+02 -3.504644E+03
       196   8 -3.544638E+05 -1.394610E+04 -1.330476E+04  6.066280E+03  6.205756E+02 -2.515674E+03
       196   9 -3.348200E+05 -9.113397E+03 -8.843310E+03  1.107622E+04  7.766942E+02 -1.525371E+03
       196  10 -2.211963E+05  1.880441E+04  1.698463E+04  1.118280E+04  6.337897E-10 -2.113975E-09
       196  11 -2.408418E+05  1.398147E+04  1.267248E+04  6.172895E+03 -1.439764E-09  4.449346E-10
       196  12 -2.605316E+05  9.169250E+03  8.256380E+03  1.114222E+04 -2.507794E-09 -1.893333E-10
       196  13 -2.976770E+05  1.819064E+01 -4.432657E+02  1.110923E+04 -4.729847E-10  1.434340E-09
       196  14 -2.976543E+05  1.779557E+01 -3.160420E+02  6.119586E+03 -9.061647E-10 -1.883581E-09
       196  15 -2.976764E+05  2.797328E+01 -2.934220E+02  1.110922E+04  1.708757E-09 -1.435253E-09
       196  16 -3.741523E+05 -1.876843E+04 -1.787154E+04  1.103568E+04 -6.593835E-10  2.221049E-09
       196  17 -3.544638E+05 -1.394610E+04 -1.330477E+04  6.066282E+03  8.039610E-10  3.918093E-09
       196  18 -3.348200E+05 -9.113400E+03 -8.843316E+03  1.107623E+04  1.982917E-09  2.198070E-10
       196  19 -2.211963E+05  1.880442E+04  1.698466E+04  1.118280E+04  1.005419E+03  3.506277E+03
       196  20 -2.408418E+05  1.398148E+04  1.267249E+04  6.172897E+03  8.511661E+02  2.517366E+03
       196  21 -2.605316E+05  9.169252E+03  8.256386E+03  1.114222E+04  6.970061E+02  1.527125E+03
       196  22 -2.976770E+05  1.820386E+01 -4.432425E+02  1.110923E+04  2.704775E+02  3.505461E+03
       196  23 -2.976543E+05  1.780237E+01 -3.160301E+02  6.119587E+03  1.152618E+02  2.516520E+03
       196  24 -2.976764E+05  2.797578E+01 -2.934176E+02  1.110922E+04 -3.986592E+01  1.526248E+03
       196  25 -3.741523E+05 -1.876842E+04 -1.787152E+04  1.103568E+04 -4.643741E+02  3.504644E+03
       196  26 -3.544638E+05 -1.394610E+04 -1.330476E+04  6.066280E+03 -6.205756E+02  2.515674E+03
       196  27 -3.348200E+05 -9.113397E+03 -8.843310E+03  1.107622E+04 -7.766942E+02  1.525371E+03
       197   1 -2.789240E+05  4.626574E+03  3.914164E+03  1.112293E+04 -6.427241E+02 -9.503168E+02
       197   2 -2.985814E+05 -2.084183E+02 -6.508659E+02  6.105945E+03 -4.267989E+02  4.066290E+01
       197   3 -3.182950E+05 -5.039878E+03 -5.362324E+03  1.107764E+04 -2.108818E+02  1.031120E+03
       197   4 -2.976788E+05  2.833834E+01 -3.161176E+02  1.111131E+04  9.431610E+01 -9.494304E+02
       197   5 -2.976504E+05  2.044165E+01 -4.379871E+02  6.116976E+03  3.098365E+02  4.154759E+01
       197   6 -2.976789E+05  1.609823E+01 -7.060607E+02  1.111133E+04  5.253557E+02  1.032004E+03
       197   7 -3.164333E+05 -4.569921E+03 -4.546420E+03  1.109969E+04  8.313342E+02 -9.485440E+02
       197   8 -2.967194E+05  2.493018E+02 -2.251062E+02  6.128006E+03  1.046473E+03  4.243231E+01
       197   9 -2.770623E+05  5.072046E+03  3.950177E+03  1.114501E+04  1.261617E+03  1.032889E+03
       197  10 -2.789240E+05  4.626573E+03  3.914162E+03  1.112293E+04  2.198217E-10 -1.564094E-10
       197  11 -2.985814E+05 -2.084183E+02 -6.508663E+02  6.105945E+03 -5.775330E-10 -2.847419E-09
       197  12 -3.182950E+05 -5.039880E+03 -5.362326E+03  1.107764E+04 -2.800803E-09 -1.763196E-09
       197  13 -2.976788E+05  2.833737E+01 -3.161193E+02  1.111131E+04  1.499003E-09  1.613649E-09
       197  14 -2.976504E+05  2.044163E+01 -4.379873E+02  6.116976E+03  1.303576E-09 -1.292653E-09
       197  15 -2.976789E+05  1.609702E+01 -7.060633E+02  1.111133E+04  2.036502E-09 -2.382074E-09
       197  16 -3.164333E+05 -4.569922E+03 -4.546423E+03  1.109969E+04  5.191004E-10 -6.284238E-10
       197  17 -2.967194E+05  2.493015E+02 -2.251083E+02  6.128006E+03  3.201722E-10 -5.508447E-09
       197  18 -2.770623E+05  5.072044E+03  3.950172E+03  1.114501E+04  1.371548E-09 -4.549734E-09
       197  19 -2.789240E+05  4.626574E+03  3.914164E+03  1.112293E+04  6.427241E+02  9.503168E+02
       197  20 -2.985814E+05 -2.084183E+02 -6.508659E+02  6.105945E+03  4.267989E+02 -4.066290E+01
       197  21 -3.182950E+05 -5.039878E+03 -5.362324E+03  1.107764E+04  2.108818E+02 -1.031120E+03
       197  22 -2.976788E+05  2.833834E+01 -3.161176E+02  1.111131E+04 -9.431610E+01  9.494304E+02
       197  23 -2.976504E+05  2.044165E+01 -4.379871E+02  6.116976E+03 -3.098365E+02 -4.154759E+01
       197  24 -2.976789E+05  1.609823E+01 -7.060607E+02  1.111133E+04 -5.253557E+02 -1.032004E+03
       197  25 -3.164333E+05 -4.569921E+03 -4.546420E+03  1.109969E+04 -8.313342E+02  9.485440E+02
       197  26 -2.967194E+05  2.493018E+02 -2.251062E+02  6.128006E+03 -1.046473E+03 -4.243231E+01
       197  27 -2.770623E+05  5.072046E+03  3.950177E+03  1.114501E+04 -1.261617E+03 -1.032889E+03
       198   1 -3.367127E+05 -9.557694E+03 -9.885392E+03  1.101778E+04 -6.950715E+01  1.609201E+03
       198   2 -3.562846E+05 -1.437871E+04 -1.496731E+04  6.046447E+03  7.102990E+02  2.598403E+03
       198   3 -3.760433E+05 -1.943255E+04 -2.062159E+04  1.105286E+04  1.490194E+03  3.575445E+03
       198   4 -2.977077E+05  4.135118E+01 -9.101150E+02  1.110879E+04  6.700115E+02  1.610079E+03
       198   5 -2.976154E+05  4.247813E+01 -1.552782E+03  6.120082E+03  1.440837E+03  2.599240E+03
       198   6 -2.977085E+05 -1.875439E+02 -2.761423E+03  1.110906E+04  2.211775E+03  3.576243E+03
       198   7 -2.587012E+05  9.640290E+03  8.065063E+03  1.119981E+04  1.409576E+03  1.610958E+03
       198   8 -2.389431E+05  1.446342E+04  1.186152E+04  6.193723E+03  2.171443E+03  2.600077E+03
       198   9 -2.193679E+05  1.905704E+04  1.509834E+04  1.116527E+04  2.933446E+03  3.577041E+03
       198  10 -3.367127E+05 -9.557696E+03 -9.885397E+03  1.101778E+04 -2.044272E-09 -2.067110E-10
       198  11 -3.562846E+05 -1.437871E+04 -1.496732E+04  6.046445E+03 -5.209442E-10 -2.137976E-09
       198  12 -3.760433E+05 -1.943256E+04 -2.062161E+04  1.105286E+04  1.735001E-09 -1.436544E-09
       198  13 -2.977077E+05  4.134827E+01 -9.101207E+02  1.110879E+04  6.258702E-10 -7.503064E-10
       198  14 -2.976154E+05  4.247032E+01 -1.552799E+03  6.120079E+03 -5.840493E-10 -4.813372E-10
       198  15 -2.977085E+05 -1.875590E+02 -2.761456E+03  1.110905E+04  1.980487E-09  6.800273E-11
       198  16 -2.587012E+05  9.640286E+03  8.065054E+03  1.119981E+04  1.906184E-09  1.507473E-09
       198  17 -2.389431E+05  1.446341E+04  1.186150E+04  6.193718E+03  8.399537E-10 -2.327105E-09
       198  18 -2.193679E+05  1.905702E+04  1.509830E+04  1.116526E+04 -1.022308E-09  2.130946E-09
       198  19 -3.367127E+05 -9.557694E+03 -9.885392E+03  1.101778E+04  6.950715E+01 -1.609201E+03
       198  20 -3.562846E+05 -1.437871E+04 -1.496731E+04  6.046447E+03 -7.102990E+02 -2.598403E+03
       198  21 -3.760433E+05 -1.943255E+04 -2.062159E+04  1.105286E+04 -1.490194E+03 -3.575445E+03
       198  22 -2.977077E+05  4.135118E+01 -9.101150E+02  1.110879E+04 -6.700115E+02 -1.610079E+03
       198  23 -2.976154E+05  4.247813E+01 -1.552782E+03  6.120082E+03 -1.440837E+03 -2.599240E+03
       198  24 -2.977085E+05 -1.875439E+02 -2.761423E+03  1.110906E+04 -2.211775E+03 -3.576243E+03
       198  25 -2.587012E+05  9.640290E+03  8.065063E+03  1.119981E+04 -1.409576E+03 -1.610958E+03
       198  26 -2.389431E+05  1.446342E+04  1.186152E+04  6.193723E+03 -2.171443E+03 -2.600077E+03
       198  27 -2.193679E+05  1.905704E+04  1.509834E+04  1.116527E+04 -2.933446E+03 -3.577041E+03
       199   1 -3.946402E+05 -2.357411E+04 -2.573659E+04  1.047592E+04  1.974379E+03  4.178552E+03
       199   2 -4.135966E+05 -2.833593E+04 -3.274572E+04  6.302818E+03  5.256591E+03  5.129811E+03
       199   3 -4.338612E+05 -3.654248E+04 -4.275843E+04  1.207191E+04  8.539103E+03  5.841229E+03
       199   4 -2.979518E+05  2.044763E+02 -3.577591E+03  1.109997E+04  2.768527E+03  4.179405E+03
       199   5 -2.973142E+05  2.493565E+02 -6.145466E+03  6.130682E+03  5.872905E+03  5.130405E+03
       199   6 -2.979539E+05 -3.119188E+03 -1.159293E+04  1.110350E+04  8.977686E+03  5.841578E+03
       199   7 -2.012549E+05  2.398241E+04  1.858079E+04  1.172411E+04  3.562799E+03  4.180259E+03
       199   8 -1.810194E+05  2.883370E+04  2.045390E+04  5.958510E+03  6.489334E+03  5.130999E+03
       199   9 -1.620296E+05  3.030282E+04  1.957136E+04  1.013486E+04  9.416364E+03  5.841926E+03
       199  10 -3.946402E+05 -2.357413E+04 -2.573663E+04  1.047591E+04  1.140529E-08 -1.168939E-10
       199  11 -4.135966E+05 -2.833596E+04 -3.274582E+04  6.302796E+03  3.375885E-10  2.067681E-09
       199  12 -4.338613E+05 -3.654254E+04 -4.275864E+04  1.207187E+04 -7.917884E-09 -5.241923E-10
       199  13 -2.979519E+05  2.044555E+02 -3.577638E+03  1.109996E+04  1.883211E-09 -2.959416E-09
       199  14 -2.973143E+05  2.493190E+02 -6.145580E+03  6.130658E+03 -6.087351E-11  3.067081E-09
       199  15 -2.979540E+05 -3.119247E+03 -1.159315E+04  1.110345E+04  2.181232E-09  4.639698E-10
       199  16 -2.012549E+05  2.398239E+04  1.858074E+04  1.172410E+04 -9.146155E-09 -7.402433E-10
       199  17 -1.810194E+05  2.883366E+04  2.045377E+04  5.958483E+03 -5.270398E-10 -3.959194E-09
       199  18 -1.620297E+05  3.030276E+04  1.957113E+04  1.013482E+04  9.500320E-09  5.477784E-10
       199  19 -3.946402E+05 -2.357411E+04 -2.573659E+04  1.047592E+04 -1.974379E+03 -4.178552E+03
       199  20 -4.135966E+05 -2.833593E+04 -3.274572E+04  6.302818E+03 -5.256591E+03 -5.129811E+03
       199  21 -4.338612E+05 -3.654248E+04 -4.275843E+04  1.207191E+04 -8.539103E+03 -5.841229E+03
       199  22 -2.979518E+05  2.044763E+02 -3.577591E+03  1.109997E+04 -2.768527E+03 -4.179405E+03
       199  23 -2.973142E+05  2.493565E+02 -6.145466E+03  6.130682E+03 -5.872905E+03 -5.130405E+03
       199  24 -2.979539E+05 -3.119188E+03 -1.159293E+04  1.110350E+04 -8.977686E+03 -5.841578E+03
       199  25 -2.012549E+05  2.398241E+04  1.858079E+04  1.172411E+04 -3.562799E+03 -4.180259E+03
       199  26 -1.810194E+05  2.883370E+04  2.045390E+04  5.958510E+03 -6.489334E+03 -5.130999E+03
       199  27 -1.620296E+05  3.030282E+04  1.957136E+04  1.013486E+04 -9.416364E+03 -5.841926E+03
       200   1 -4.548811E+05 -3.551880E+04 -4.962879E+04  4.484712E+03  9.135864E+03  6.978363E+03
       200   2 -4.674907E+05 -4.003983E+04 -6.392565E+04  1.199466E+04  2.561935E+04  7.148869E+03
       200   3 -4.940522E+05 -9.174180E+04 -1.007561E+05  2.924359E+04  4.210625E+04  2.363993E+03
       200   4 -3.006277E+05  2.402024E+03 -1.442113E+04  1.104445E+04  1.109492E+04  6.980293E+03
       200   5 -2.939772E+05  2.653477E+03 -2.398196E+04  6.195298E+03  2.389650E+04  7.146894E+03
       200   6 -3.006360E+05 -4.362995E+04 -5.351453E+04  1.108571E+04  3.670216E+04  2.358071E+03
       200   7 -1.463520E+05  4.032136E+04  2.078501E+04  1.760583E+04  1.305447E+04  6.982265E+03
       200   8 -1.204358E+05  4.534481E+04  1.595976E+04  3.942971E+02  2.217316E+04  7.144951E+03
       200   9 -1.071848E+05  4.480402E+03 -6.275393E+03 -7.077863E+03  3.129639E+04  2.352467E+03
       200  10 -4.548812E+05 -3.551888E+04 -4.962904E+04  4.484661E+03  3.184018E-10 -5.277993E-10
       200  11 -4.674914E+05 -4.004006E+04 -6.392698E+04  1.199451E+04  1.599498E-09  1.441817E-09
       200  12 -4.940541E+05 -9.174228E+04 -1.007594E+05  2.924351E+04  1.904289E-09  2.815407E-09
       200  13 -3.006278E+05  2.401939E+03 -1.442145E+04  1.104439E+04  1.596195E-09  5.393197E-10
       200  14 -2.939778E+05  2.653269E+03 -2.398313E+04  6.195160E+03 -7.836637E-10  2.417117E-10
       200  15 -3.006374E+05 -4.363032E+04 -5.351707E+04  1.108564E+04  5.364075E-10  2.104775E-09
       200  16 -1.463522E+05  4.032126E+04  2.078460E+04  1.760576E+04  5.265518E-10  1.992128E-09
       200  17 -1.204363E+05  4.534462E+04  1.595874E+04  3.941696E+02 -1.600986E-09  1.277507E-09
       200  18 -1.071859E+05  4.480133E+03 -6.277244E+03 -7.077923E+03 -1.017617E-09 -1.206176E-10
       200  19 -4.548811E+05 -3.551880E+04 -4.962879E+04  4.484712E+03 -9.135864E+03 -6.978363E+03
       200  20 -4.674907E+05 -4.003983E+04 -6.392565E+04  1.199466E+04 -2.561935E+04 -7.148869E+03
       200  21 -4.940522E+05 -9.174180E+04 -1.007561E+05  2.924359E+04 -4.210625E+04 -2.363993E+03
       200  22 -3.006277E+05  2.402024E+03 -1.442113E+04  1.104445E+04 -1.109492E+04 -6.980293E+03
       200  23 -2.939772E+05  2.653477E+03 -2.398196E+04  6.195298E+03 -2.389650E+04 -7.146894E+03
       200  24 -3.006360E+05 -4.362995E+04 -5.351453E+04  1.108571E+04 -3.670216E+04 -2.358071E+03
       200  25 -1.463520E+05  4.032136E+04  2.078501E+04  1.760583E+04 -1.305447E+04 -6.982265E+03
       200  26 -1.204358E+05  4.534481E+04  1.595976E+04  3.942971E+02 -2.217316E+04 -7.144951E+03
       200  27 -1.071848E+05  4.480402E+03 -6.275393E+03 -7.077863E+03 -3.129639E+04 -2.352467E+03

 stresses (elem, integ.pnt.,sxx,syy,szz,sxy,sxz,syz) for set ELALL and time  0.8750000E+00

         1   1  2.225771E+06  8.075417E+06  2.107598E+06 -1.617080E+06  1.001603E+05  8.271533E+05
         1   2  1.792934E+06  6.875812E+06  1.407477E+06 -1.495233E+06  3.374533E+05  3.818921E+05
         1   3  1.479779E+06  5.767364E+06  1.025508E+06 -1.551123E+06  3.957454E+05 -6.224922E+04
         1   4  1.014010E+05 -5.830158E+05  1.056691E+05 -1.529141E+06  1.024676E+05  6.959624E+04
         1   5  3.509897E+04 -5.894640E+05  5.640923E+04 -1.440453E+06  3.390878E+05  4.218766E+04
         1   6  1.716283E+04 -5.774474E+05  3.749806E+04 -1.529475E+06  3.957595E+05  1.495510E+04
         1   7 -2.027891E+06 -9.171488E+06 -1.899136E+06 -1.442301E+06  1.045885E+05 -6.775813E+05
         1   8 -1.725785E+06 -8.000624E+06 -1.296435E+06 -1.386241E+06  3.406775E+05 -2.935798E+05
         1   9 -1.447417E+06 -6.882296E+06 -9.514421E+05 -1.507965E+06  3.957789E+05  9.140498E+04
         1  10  2.225579E+06  8.074687E+06  2.106308E+06 -1.617147E+06  2.113313E-09  5.598483E-09
         1  11  1.792772E+06  6.875625E+06  1.406990E+06 -1.495336E+06 -1.992144E-10  3.545492E-08
         1  12  1.479610E+06  5.767318E+06  1.025206E+06 -1.551104E+06 -2.623375E-10  5.995181E-08
         1  13  1.013884E+05 -5.830239E+05  1.056402E+05 -1.529146E+06 -4.316412E-09 -1.292543E-10
         1  14  3.497501E+04 -5.894968E+05  5.618972E+04 -1.440464E+06 -9.296996E-09 -1.328994E-10
         1  15  1.699461E+04 -5.774897E+05  3.720333E+04 -1.529480E+06 -1.546241E-08 -9.409565E-11
         1  16 -2.028028E+06 -9.171989E+06 -1.900031E+06 -1.442244E+06  1.090527E-09 -5.639114E-09
         1  17 -1.725933E+06 -8.000748E+06 -1.296816E+06 -1.386160E+06  3.225524E-09 -3.523493E-08
         1  18 -1.447588E+06 -6.882347E+06 -9.517525E+05 -1.507995E+06  7.522829E-09 -5.928519E-08
         1  19  2.225771E+06  8.075417E+06  2.107598E+06 -1.617080E+06 -1.001603E+05 -8.271533E+05
         1  20  1.792934E+06  6.875812E+06  1.407477E+06 -1.495233E+06 -3.374533E+05 -3.818921E+05
         1  21  1.479779E+06  5.767364E+06  1.025508E+06 -1.551123E+06 -3.957454E+05  6.224922E+04
         1  22  1.014010E+05 -5.830158E+05  1.056691E+05 -1.529141E+06 -1.024676E+05 -6.959624E+04
         1  23  3.509897E+04 -5.894640E+05  5.640923E+04 -1.440453E+06 -3.390878E+05 -4.218766E+04
         1  24  1.716283E+04 -5.774474E+05  3.749806E+04 -1.529475E+06 -3.957595E+05 -1.495510E+04
         1  25 -2.027891E+06 -9.171488E+06 -1.899136E+06 -1.442301E+06 -1.045885E+05  6.775813E+05
         1  26 -1.725785E+06 -8.000624E+06 -1.296435E+06 -1.386241E+06 -3.406775E+05  2.935798E+05
         1  27 -1.447417E+06 -6.882296E+06 -9.514421E+05 -1.507965E+06 -3.957789E+05 -9.140498E+04
         2   1  1.306740E+06  5.037493E+06  8.811545E+05 -1.556578E+06  3.686070E+05 -7.775234E+04
         2   2  1.033109E+06  3.876980E+06  6.661855E+05 -1.451351E+06  3.199210E+05 -1.477629E+05
         2   3  7.819998E+05  2.732339E+06  5.021569E+05 -1.537118E+06  2.481760E+05 -2.178732E+05
         2   4  1.683745E+04 -5.787964E+05  3.319366E+04 -1.532446E+06  3.684711E+05  9.246747E+03
         2   5  1.687692E+04 -5.797304E+05  3.283728E+04 -1.436894E+06  3.193383E+05 -7.251189E+03
         2   6  3.029535E+04 -5.753249E+05  4.645216E+04 -1.532414E+06  2.470606E+05 -2.397030E+04
         2   7 -1.274561E+06 -6.163595E+06 -8.153853E+05 -1.508466E+06  3.683409E+05  9.549439E+04
         2   8 -1.000241E+06 -5.016382E+06 -6.007233E+05 -1.422498E+06  3.187591E+05  1.323001E+05
         2   9 -7.218692E+05 -3.871822E+06 -4.092357E+05 -1.527707E+06  2.459437E+05  1.689494E+05
         2  10  1.306593E+06  5.037450E+06  8.808882E+05 -1.556555E+06  5.270984E-09 -1.341866E-07
         2  11  1.032994E+06  3.876930E+06  6.659529E+05 -1.451313E+06  7.817627E-09 -3.859235E-08
         2  12  7.819212E+05  2.732272E+06  5.019529E+05 -1.537074E+06  1.636782E-09  6.093175E-08
         2  13  1.669167E+04 -5.788329E+05  3.293840E+04 -1.532449E+06 -1.987127E-08 -1.201087E-10
         2  14  1.676745E+04 -5.797578E+05  3.264563E+04 -1.436893E+06 -4.538678E-09  2.109965E-10
         2  15  3.022970E+04 -5.753419E+05  4.633648E+04 -1.532409E+06  2.304668E-09  1.995001E-11
         2  16 -1.274709E+06 -6.163642E+06 -8.156578E+05 -1.508495E+06  5.007285E-09  1.327638E-07
         2  17 -1.000355E+06 -5.016428E+06 -6.009477E+05 -1.422532E+06  5.164735E-09  3.851714E-08
         2  18 -7.219420E+05 -3.871869E+06 -4.094038E+05 -1.527741E+06  3.407486E-09 -6.063120E-08
         2  19  1.306740E+06  5.037493E+06  8.811545E+05 -1.556578E+06 -3.686070E+05  7.775234E+04
         2  20  1.033109E+06  3.876980E+06  6.661855E+05 -1.451351E+06 -3.199210E+05  1.477629E+05
         2  21  7.819998E+05  2.732339E+06  5.021569E+05 -1.537118E+06 -2.481760E+05  2.178732E+05
         2  22  1.683745E+04 -5.787964E+05  3.319366E+04 -1.532446E+06 -3.684711E+05 -9.246747E+03
         2  23  1.687692E+04 -5.797304E+05  3.283728E+04 -1.436894E+06 -3.193383E+05  7.251189E+03
         2  24  3.029535E+04 -5.753249E+05  4.645216E+04 -1.532414E+06 -2.470606E+05  2.397030E+04
         2  25 -1.274561E+06 -6.163595E+06 -8.153853E+05 -1.508466E+06 -3.683409E+05 -9.549439E+04
         2  26 -1.000241E+06 -5.016382E+06 -6.007233E+05 -1.422498E+06 -3.187591E+05 -1.323001E+05
         2  27 -7.218692E+05 -3.871822E+06 -4.092357E+05 -1.527707E+06 -2.459437E+05 -1.689494E+05
         3   1  6.250205E+05  2.021382E+06  4.103216E+05 -1.539059E+06  1.983886E+05 -2.271494E+05
         3   2  4.050218E+05  8.577283E+05  2.933427E+05 -1.377030E+06  1.136850E+05 -2.819669E+05
         3   3  2.662154E+05 -2.786989E+05  2.318818E+05 -1.407610E+06  2.771198E+04 -3.367702E+05
         3   4  3.682116E+04 -5.701096E+05  5.828055E+04 -1.532788E+06  1.971697E+05 -3.215479E+04
         3   5  7.966189E+04 -5.821539E+05  1.011728E+05 -1.436087E+06  1.123943E+05 -8.416588E+04
         3   6  2.032805E+05 -5.689270E+05  1.975186E+05 -1.531900E+06  2.636056E+04 -1.362487E+05
         3   7 -5.516491E+05 -3.154696E+06 -2.936848E+05 -1.526525E+06  1.959511E+05  1.620651E+05
         3   8 -2.457508E+05 -2.019829E+06 -9.086498E+04 -1.494996E+06  1.110639E+05  1.131983E+05
         3   9  1.404229E+05 -8.589476E+05  1.633154E+05 -1.656129E+06  2.492835E+04  6.418386E+04
         3  10  6.249646E+05  2.021316E+06  4.101515E+05 -1.539023E+06  3.303264E-10 -7.384139E-09
         3  11  4.049867E+05  8.576396E+05  2.931696E+05 -1.377004E+06  4.216020E-09 -3.188225E-09
         3  12  2.661841E+05 -2.788209E+05  2.316672E+05 -1.407603E+06 -1.519993E-09  1.054433E-09
         3  13  3.677918E+04 -5.701211E+05  5.820565E+04 -1.532782E+06  1.181961E-09  8.390012E-11
         3  14  7.964646E+04 -5.821649E+05  1.011359E+05 -1.436079E+06 -2.482237E-09 -2.509793E-10
         3  15  2.032748E+05 -5.689472E+05  1.974824E+05 -1.531897E+06  1.097787E-09  1.047292E-10
         3  16 -5.516975E+05 -3.154735E+06 -2.938069E+05 -1.526551E+06  9.740026E-10  7.531612E-09
         3  17 -2.457675E+05 -2.019846E+06 -9.091245E+04 -1.495006E+06 -5.274129E-10  2.701736E-09
         3  18  1.404211E+05 -8.589522E+05  1.633064E+05 -1.656131E+06 -2.151794E-09 -7.643555E-10
         3  19  6.250205E+05  2.021382E+06  4.103216E+05 -1.539059E+06 -1.983886E+05  2.271494E+05
         3  20  4.050218E+05  8.577283E+05  2.933427E+05 -1.377030E+06 -1.136850E+05  2.819669E+05
         3  21  2.662154E+05 -2.786989E+05  2.318818E+05 -1.407610E+06 -2.771198E+04  3.367702E+05
         3  22  3.682116E+04 -5.701096E+05  5.828055E+04 -1.532788E+06 -1.971697E+05  3.215479E+04
         3  23  7.966189E+04 -5.821539E+05  1.011728E+05 -1.436087E+06 -1.123943E+05  8.416588E+04
         3  24  2.032805E+05 -5.689270E+05  1.975186E+05 -1.531900E+06 -2.636056E+04  1.362487E+05
         3  25 -5.516491E+05 -3.154696E+06 -2.936848E+05 -1.526525E+06 -1.959511E+05 -1.620651E+05
         3  26 -2.457508E+05 -2.019829E+06 -9.086498E+04 -1.494996E+06 -1.110639E+05 -1.131983E+05
         3  27  1.404229E+05 -8.589476E+05  1.633154E+05 -1.656129E+06 -2.492835E+04 -6.418386E+04
         4   1 -7.484325E+06 -2.155158E+06 -1.491837E+06 -2.567247E+06 -1.029346E+06 -3.893893E+05
         4   2 -7.155927E+06 -6.788388E+05 -5.233410E+05 -2.898789E+06 -6.596377E+05 -2.580181E+05
         4   3 -7.490464E+06 -8.325639E+05 -2.769755E+05 -2.804159E+06 -2.929943E+05 -1.185632E+05
         4   4 -8.121826E+06 -2.239588E+06 -1.636988E+06 -2.578130E+06 -1.030608E+06 -3.901965E+05
         4   5 -7.706267E+06 -8.472559E+05 -6.669866E+05 -3.006725E+06 -6.597068E+05 -2.580999E+05
         4   6 -7.954413E+06 -1.086151E+06 -4.206280E+05 -3.009028E+06 -2.918102E+05 -1.180704E+05
         4   7 -8.758882E+06 -2.324000E+06 -1.782147E+06 -2.589042E+06 -1.031869E+06 -3.910041E+05
         4   8 -8.256312E+06 -1.015678E+06 -8.106561E+05 -3.114586E+06 -6.597756E+05 -2.581816E+05
         4   9 -8.418136E+06 -1.339644E+06 -5.643019E+05 -3.213734E+06 -2.906270E+05 -1.175783E+05
         4  10 -7.485516E+06 -2.155612E+06 -1.494144E+06 -2.567573E+06  1.208083E-09  6.630632E-10
         4  11 -7.156418E+06 -6.790299E+05 -5.242968E+05 -2.898927E+06  1.585934E-10  2.539129E-09
         4  12 -7.490561E+06 -8.326026E+05 -2.771659E+05 -2.804187E+06  7.020275E-10  1.189520E-09
         4  13 -8.123021E+06 -2.240043E+06 -1.639303E+06 -2.578457E+06 -2.651176E-09  5.550384E-10
         4  14 -7.706758E+06 -8.474472E+05 -6.679435E+05 -3.006864E+06  5.915335E-09  8.647694E-10
         4  15 -7.954509E+06 -1.086189E+06 -4.208170E+05 -3.009056E+06  6.866731E-10  2.116864E-10
         4  16 -8.760081E+06 -2.324458E+06 -1.784471E+06 -2.589370E+06  3.224292E-09  2.465088E-10
         4  17 -8.256803E+06 -1.015869E+06 -8.116141E+05 -3.114724E+06  2.671033E-09  1.361344E-09
         4  18 -8.418232E+06 -1.339682E+06 -5.644895E+05 -3.213761E+06  8.715519E-10  2.263694E-09
         4  19 -7.484325E+06 -2.155158E+06 -1.491837E+06 -2.567247E+06  1.029346E+06  3.893893E+05
         4  20 -7.155927E+06 -6.788388E+05 -5.233410E+05 -2.898789E+06  6.596377E+05  2.580181E+05
         4  21 -7.490464E+06 -8.325639E+05 -2.769755E+05 -2.804159E+06  2.929943E+05  1.185632E+05
         4  22 -8.121826E+06 -2.239588E+06 -1.636988E+06 -2.578130E+06  1.030608E+06  3.901965E+05
         4  23 -7.706267E+06 -8.472559E+05 -6.669866E+05 -3.006725E+06  6.597068E+05  2.580999E+05
         4  24 -7.954413E+06 -1.086151E+06 -4.206280E+05 -3.009028E+06  2.918102E+05  1.180704E+05
         4  25 -8.758882E+06 -2.324000E+06 -1.782147E+06 -2.589042E+06  1.031869E+06  3.910041E+05
         4  26 -8.256312E+06 -1.015678E+06 -8.106561E+05 -3.114586E+06  6.597756E+05  2.581816E+05
         4  27 -8.418136E+06 -1.339644E+06 -5.643019E+05 -3.213734E+06  2.906270E+05  1.175783E+05
         5   1 -7.531328E+06 -1.138341E+06 -2.445270E+05 -2.803168E+06 -2.293796E+05 -9.280684E+04
         5   2 -7.496519E+06 -9.741471E+05 -6.794545E+04 -2.902776E+06 -1.470181E+05 -6.128141E+04
         5   3 -7.629189E+06 -9.824771E+05 -1.874714E+04 -2.865389E+06 -6.546620E+04 -2.763331E+04
         5   4 -7.916308E+06 -1.262780E+06 -3.464483E+05 -2.885471E+06 -2.294157E+05 -9.283130E+04
         5   5 -7.820020E+06 -1.092130E+06 -1.562284E+05 -2.985637E+06 -1.466825E+05 -6.115628E+04
         5   6 -7.891350E+06 -1.094160E+06 -9.375455E+04 -2.948794E+06 -6.474995E+04 -2.736035E+04
         5   7 -8.301143E+06 -1.387220E+06 -4.483818E+05 -2.967731E+06 -2.294518E+05 -9.285574E+04
         5   8 -8.143420E+06 -1.210110E+06 -2.445207E+05 -3.068459E+06 -1.463471E+05 -6.103121E+04
         5   9 -8.153443E+06 -1.205833E+06 -1.687685E+05 -3.032165E+06 -6.403403E+04 -2.708754E+04
         5  10 -7.531387E+06 -1.138365E+06 -2.446437E+05 -2.803185E+06 -6.664125E-09 -2.002374E-10
         5  11 -7.496544E+06 -9.741571E+05 -6.799379E+04 -2.902784E+06 -5.616873E-09  2.361063E-09
         5  12 -7.629194E+06 -9.824791E+05 -1.875676E+04 -2.865390E+06 -5.534347E-10 -3.641883E-09
         5  13 -7.916367E+06 -1.262804E+06 -3.465651E+05 -2.885488E+06  1.279025E-10  6.551438E-10
         5  14 -7.820045E+06 -1.092140E+06 -1.562765E+05 -2.985644E+06 -1.091676E-08  6.619413E-10
         5  15 -7.891355E+06 -1.094162E+06 -9.376397E+04 -2.948795E+06 -3.839965E-09 -8.447459E-10
         5  16 -8.301203E+06 -1.387244E+06 -4.484987E+05 -2.967748E+06  7.735508E-10  6.285505E-10
         5  17 -8.143444E+06 -1.210120E+06 -2.445686E+05 -3.068466E+06  1.019279E-09 -2.720375E-10
         5  18 -8.153448E+06 -1.205835E+06 -1.687778E+05 -3.032166E+06 -1.762445E-09 -8.369115E-10
         5  19 -7.531328E+06 -1.138341E+06 -2.445270E+05 -2.803168E+06  2.293796E+05  9.280684E+04
         5  20 -7.496519E+06 -9.741471E+05 -6.794545E+04 -2.902776E+06  1.470181E+05  6.128141E+04
         5  21 -7.629189E+06 -9.824771E+05 -1.874714E+04 -2.865389E+06  6.546620E+04  2.763331E+04
         5  22 -7.916308E+06 -1.262780E+06 -3.464483E+05 -2.885471E+06  2.294157E+05  9.283130E+04
         5  23 -7.820020E+06 -1.092130E+06 -1.562284E+05 -2.985637E+06  1.466825E+05  6.115628E+04
         5  24 -7.891350E+06 -1.094160E+06 -9.375455E+04 -2.948794E+06  6.474995E+04  2.736035E+04
         5  25 -8.301143E+06 -1.387220E+06 -4.483818E+05 -2.967731E+06  2.294518E+05  9.285574E+04
         5  26 -8.143420E+06 -1.210110E+06 -2.445207E+05 -3.068459E+06  1.463471E+05  6.103121E+04
         5  27 -8.153443E+06 -1.205833E+06 -1.687685E+05 -3.032165E+06  6.403403E+04  2.708754E+04
         6   1 -7.935791E+06 -1.140067E+06 -8.926931E+04 -2.945423E+06 -5.208464E+04 -2.046030E+04
         6   2 -7.947080E+06 -1.173193E+06 -6.737759E+04 -3.015952E+06 -3.406658E+04 -1.098542E+04
         6   3 -8.057181E+06 -1.158617E+06 -6.933444E+04 -2.983901E+06 -1.591285E+04 -1.871479E+03
         6   4 -7.886667E+06 -1.118205E+06 -7.486790E+04 -2.928889E+06 -5.159127E+04 -2.027355E+04
         6   5 -7.835436E+06 -1.129903E+06 -3.638190E+04 -2.984753E+06 -3.364429E+04 -1.082547E+04
         6   6 -7.883006E+06 -1.093883E+06 -2.168744E+04 -2.938042E+06 -1.555954E+04 -1.737688E+03
         6   7 -7.837542E+06 -1.096343E+06 -6.046670E+04 -2.912355E+06 -5.109786E+04 -2.008677E+04
         6   8 -7.723779E+06 -1.086611E+06 -5.387327E+03 -2.953550E+06 -3.322190E+04 -1.066549E+04
         6   9 -7.708801E+06 -1.029147E+06  2.595687E+04 -2.892171E+06 -1.520612E+04 -1.603858E+03
         6  10 -7.935794E+06 -1.140068E+06 -8.927528E+04 -2.945424E+06  1.411783E-09  7.411632E-11
         6  11 -7.947081E+06 -1.173193E+06 -6.738003E+04 -3.015952E+06 -3.071846E-10  1.467568E-09
         6  12 -8.057181E+06 -1.158617E+06 -6.933493E+04 -2.983901E+06  1.781218E-09  1.757583E-09
         6  13 -7.886670E+06 -1.118206E+06 -7.487376E+04 -2.928890E+06 -4.470462E-09 -1.622139E-09
         6  14 -7.835437E+06 -1.129903E+06 -3.638429E+04 -2.984754E+06  3.518140E-10  2.332436E-09
         6  15 -7.883006E+06 -1.093883E+06 -2.168791E+04 -2.938042E+06  7.448177E-10  1.688563E-09
         6  16 -7.837545E+06 -1.096344E+06 -6.047244E+04 -2.912355E+06 -2.814604E-09 -1.850620E-09
         6  17 -7.723781E+06 -1.086612E+06 -5.389647E+03 -2.953550E+06 -2.165187E-09  6.881912E-10
         6  18 -7.708801E+06 -1.029147E+06  2.595642E+04 -2.892171E+06 -3.367818E-09  2.952161E-09
         6  19 -7.935791E+06 -1.140067E+06 -8.926931E+04 -2.945423E+06  5.208464E+04  2.046030E+04
         6  20 -7.947080E+06 -1.173193E+06 -6.737759E+04 -3.015952E+06  3.406658E+04  1.098542E+04
         6  21 -8.057181E+06 -1.158617E+06 -6.933444E+04 -2.983901E+06  1.591285E+04  1.871479E+03
         6  22 -7.886667E+06 -1.118205E+06 -7.486790E+04 -2.928889E+06  5.159127E+04  2.027355E+04
         6  23 -7.835436E+06 -1.129903E+06 -3.638190E+04 -2.984753E+06  3.364429E+04  1.082547E+04
         6  24 -7.883006E+06 -1.093883E+06 -2.168744E+04 -2.938042E+06  1.555954E+04  1.737688E+03
         6  25 -7.837542E+06 -1.096343E+06 -6.046670E+04 -2.912355E+06  5.109786E+04  2.008677E+04
         6  26 -7.723779E+06 -1.086611E+06 -5.387327E+03 -2.953550E+06  3.322190E+04  1.066549E+04
         6  27 -7.708801E+06 -1.029147E+06  2.595687E+04 -2.892171E+06  1.520612E+04  1.603858E+03
         7   1 -8.305916E+06 -1.273671E+06 -1.376179E+05 -3.065868E+06 -1.348567E+04  6.799722E+02
         7   2 -8.314611E+06 -1.299169E+06 -1.381585E+05 -3.096528E+06 -8.730718E+03  4.714712E+03
         7   3 -8.363235E+06 -1.291454E+06 -1.439995E+05 -3.081366E+06 -3.259739E+03  6.858531E+03
         7   4 -7.871464E+06 -1.107408E+06 -1.720925E+04 -2.946780E+06 -1.291165E+04  8.968775E+02
         7   5 -7.851315E+06 -1.122607E+06 -1.013582E+04 -2.970229E+06 -8.531111E+03  4.789628E+03
         7   6 -7.871014E+06 -1.104516E+06 -8.059445E+03 -2.947861E+06 -3.434528E+03  6.792247E+03
         7   7 -7.436830E+06 -9.411341E+05  1.031815E+05 -2.827615E+06 -1.233718E+04  1.113954E+03
         7   8 -7.387810E+06 -9.460323E+05  1.178668E+05 -2.843845E+06 -8.331338E+03  4.864607E+03
         7   9 -7.378557E+06 -9.175646E+05  1.278583E+05 -2.814258E+06 -3.609472E+03  6.725905E+03
         7  10 -8.305916E+06 -1.273671E+06 -1.376182E+05 -3.065868E+06  2.634084E-09  3.639464E-10
         7  11 -8.314611E+06 -1.299169E+06 -1.381587E+05 -3.096528E+06  2.121368E-09  1.039030E-10
         7  12 -8.363235E+06 -1.291454E+06 -1.439997E+05 -3.081366E+06 -4.444830E-11 -2.497311E-09
         7  13 -7.871464E+06 -1.107408E+06 -1.720956E+04 -2.946780E+06 -3.054433E-09  1.639538E-09
         7  14 -7.851315E+06 -1.122607E+06 -1.013600E+04 -2.970229E+06 -2.039213E-09 -9.626340E-10
         7  15 -7.871014E+06 -1.104516E+06 -8.059554E+03 -2.947861E+06 -7.663548E-09 -5.814761E-10
         7  16 -7.436830E+06 -9.411342E+05  1.031812E+05 -2.827615E+06 -2.402540E-09  1.910878E-09
         7  17 -7.387811E+06 -9.460324E+05  1.178667E+05 -2.843845E+06 -1.361929E-09  3.199988E-09
         7  18 -7.378557E+06 -9.175647E+05  1.278582E+05 -2.814258E+06 -1.934126E-09 -2.839591E-09
         7  19 -8.305916E+06 -1.273671E+06 -1.376179E+05 -3.065868E+06  1.348567E+04 -6.799722E+02
         7  20 -8.314611E+06 -1.299169E+06 -1.381585E+05 -3.096528E+06  8.730718E+03 -4.714712E+03
         7  21 -8.363235E+06 -1.291454E+06 -1.439995E+05 -3.081366E+06  3.259739E+03 -6.858531E+03
         7  22 -7.871464E+06 -1.107408E+06 -1.720925E+04 -2.946780E+06  1.291165E+04 -8.968775E+02
         7  23 -7.851315E+06 -1.122607E+06 -1.013582E+04 -2.970229E+06  8.531111E+03 -4.789628E+03
         7  24 -7.871014E+06 -1.104516E+06 -8.059445E+03 -2.947861E+06  3.434528E+03 -6.792247E+03
         7  25 -7.436830E+06 -9.411341E+05  1.031815E+05 -2.827615E+06  1.233718E+04 -1.113954E+03
         7  26 -7.387810E+06 -9.460323E+05  1.178668E+05 -2.843845E+06  8.331338E+03 -4.864607E+03
         7  27 -7.378557E+06 -9.175646E+05  1.278583E+05 -2.814258E+06  3.609472E+03 -6.725905E+03
         8   1 -8.358063E+06 -1.312049E+06 -1.470560E+05 -3.103004E+06 -2.370177E+03  7.261614E+03
         8   2 -8.350283E+06 -1.284273E+06 -1.420530E+05 -3.077076E+06  2.978790E+03  9.379918E+03
         8   3 -8.310135E+06 -1.295163E+06 -1.421833E+05 -3.087536E+06  9.058636E+03  9.544569E+03
         8   4 -7.854962E+06 -1.120542E+06 -8.008048E+03 -2.966105E+06 -2.155810E+03  7.341742E+03
         8   5 -7.871391E+06 -1.102625E+06 -9.891123E+03 -2.947404E+06  2.806627E+03  9.314884E+03
         8   6 -7.855374E+06 -1.123291E+06 -1.659468E+04 -2.965091E+06  8.499439E+03  9.335014E+03
         8   7 -7.351615E+06 -9.290208E+05  1.310162E+05 -2.829105E+06 -1.941250E+03  7.421943E+03
         8   8 -7.392276E+06 -9.209632E+05  1.222495E+05 -2.817642E+06  2.634314E+03  9.249794E+03
         8   9 -7.400411E+06 -9.514072E+05  1.089750E+05 -2.842565E+06  7.939781E+03  9.125287E+03
         8  10 -8.358063E+06 -1.312049E+06 -1.470561E+05 -3.103004E+06  3.337011E-09 -5.458467E-10
         8  11 -8.350283E+06 -1.284273E+06 -1.420532E+05 -3.077076E+06 -2.599393E-09  1.391701E-10
         8  12 -8.310135E+06 -1.295163E+06 -1.421837E+05 -3.087536E+06 -4.647468E-09  7.936756E-10
         8  13 -7.854962E+06 -1.120542E+06 -8.008158E+03 -2.966105E+06 -2.183870E-09 -8.328687E-10
         8  14 -7.871391E+06 -1.102625E+06 -9.891301E+03 -2.947404E+06 -4.905078E-09 -3.850199E-10
         8  15 -7.855374E+06 -1.123291E+06 -1.659498E+04 -2.965091E+06 -2.703868E-09 -3.051986E-10
         8  16 -7.351615E+06 -9.290208E+05  1.310161E+05 -2.829105E+06 -2.761605E-09 -3.363467E-09
         8  17 -7.392276E+06 -9.209633E+05  1.222494E+05 -2.817642E+06  1.442283E-09  1.068016E-09
         8  18 -7.400411E+06 -9.514073E+05  1.089747E+05 -2.842565E+06  4.401509E-09 -9.601997E-10
         8  19 -8.358063E+06 -1.312049E+06 -1.470560E+05 -3.103004E+06  2.370177E+03 -7.261614E+03
         8  20 -8.350283E+06 -1.284273E+06 -1.420530E+05 -3.077076E+06 -2.978790E+03 -9.379918E+03
         8  21 -8.310135E+06 -1.295163E+06 -1.421833E+05 -3.087536E+06 -9.058636E+03 -9.544569E+03
         8  22 -7.854962E+06 -1.120542E+06 -8.008048E+03 -2.966105E+06  2.155810E+03 -7.341742E+03
         8  23 -7.871391E+06 -1.102625E+06 -9.891123E+03 -2.947404E+06 -2.806627E+03 -9.314884E+03
         8  24 -7.855374E+06 -1.123291E+06 -1.659468E+04 -2.965091E+06 -8.499439E+03 -9.335014E+03
         8  25 -7.351615E+06 -9.290208E+05  1.310162E+05 -2.829105E+06  1.941250E+03 -7.421943E+03
         8  26 -7.392276E+06 -9.209632E+05  1.222495E+05 -2.817642E+06 -2.634314E+03 -9.249794E+03
         8  27 -7.400411E+06 -9.514072E+05  1.089750E+05 -2.842565E+06 -7.939781E+03 -9.125287E+03
         9   1 -8.052059E+06 -1.209748E+06 -7.776638E+04 -3.036727E+06  1.239721E+04  9.252432E+03
         9   2 -8.028459E+06 -1.139745E+06 -7.547666E+04 -2.971919E+06  3.131251E+04  1.421029E+04
         9   3 -7.939033E+06 -1.184567E+06 -9.610713E+04 -2.991867E+06  5.041708E+04  1.866158E+04
         9   4 -7.846489E+06 -1.130312E+06 -2.088318E+04 -2.979511E+06  1.207987E+04  9.133762E+03
         9   5 -7.881122E+06 -1.084620E+06 -3.497281E+04 -2.932799E+06  3.089788E+04  1.405533E+04
         9   6 -7.849913E+06 -1.153730E+06 -7.190169E+04 -2.970844E+06  4.990324E+04  1.846952E+04
         9   7 -7.640877E+06 -1.050873E+06  3.599607E+04 -2.922278E+06  1.176241E+04  9.015047E+03
         9   8 -7.733764E+06 -1.029495E+06  5.529028E+03 -2.893670E+06  3.048314E+04  1.390034E+04
         9   9 -7.760785E+06 -1.122892E+06 -4.769698E+04 -2.949818E+06  4.938931E+04  1.827744E+04
         9  10 -8.052059E+06 -1.209748E+06 -7.776683E+04 -3.036727E+06 -1.203500E-09 -6.477748E-10
         9  11 -8.028460E+06 -1.139745E+06 -7.547891E+04 -2.971919E+06 -5.521999E-10 -7.138740E-10
         9  12 -7.939036E+06 -1.184568E+06 -9.611264E+04 -2.991868E+06 -3.638123E-09 -1.282398E-09
         9  13 -7.846489E+06 -1.130312E+06 -2.088362E+04 -2.979511E+06 -1.645553E-09 -8.215625E-10
         9  14 -7.881123E+06 -1.084621E+06 -3.497500E+04 -2.932799E+06 -1.667140E-09 -7.014085E-10
         9  15 -7.849916E+06 -1.153731E+06 -7.190708E+04 -2.970845E+06 -3.835893E-09 -1.510602E-10
         9  16 -7.640877E+06 -1.050873E+06  3.599565E+04 -2.922278E+06  2.878720E-09 -8.975117E-10
         9  17 -7.733765E+06 -1.029496E+06  5.526888E+03 -2.893670E+06 -2.094954E-09 -1.435918E-09
         9  18 -7.760788E+06 -1.122893E+06 -4.770227E+04 -2.949819E+06  3.259977E-09  2.773083E-09
         9  19 -8.052059E+06 -1.209748E+06 -7.776638E+04 -3.036727E+06 -1.239721E+04 -9.252432E+03
         9  20 -8.028459E+06 -1.139745E+06 -7.547666E+04 -2.971919E+06 -3.131251E+04 -1.421029E+04
         9  21 -7.939033E+06 -1.184567E+06 -9.610713E+04 -2.991867E+06 -5.041708E+04 -1.866158E+04
         9  22 -7.846489E+06 -1.130312E+06 -2.088318E+04 -2.979511E+06 -1.207987E+04 -9.133762E+03
         9  23 -7.881122E+06 -1.084620E+06 -3.497281E+04 -2.932799E+06 -3.089788E+04 -1.405533E+04
         9  24 -7.849913E+06 -1.153730E+06 -7.190169E+04 -2.970844E+06 -4.990324E+04 -1.846952E+04
         9  25 -7.640877E+06 -1.050873E+06  3.599607E+04 -2.922278E+06 -1.176241E+04 -9.015047E+03
         9  26 -7.733764E+06 -1.029495E+06  5.529028E+03 -2.893670E+06 -3.048314E+04 -1.390034E+04
         9  27 -7.760785E+06 -1.122892E+06 -4.769698E+04 -2.949818E+06 -4.938931E+04 -1.827744E+04
        10   1 -7.611927E+06 -1.041501E+06 -2.347146E+04 -2.927317E+06  6.464854E+04  2.184034E+04
        10   2 -7.570455E+06 -9.413330E+05 -6.946954E+04 -2.858744E+06  1.448913E+05  4.901049E+04
        10   3 -7.555566E+06 -1.141219E+06 -2.378204E+05 -2.812012E+06  2.243844E+05  7.820939E+04
        10   4 -7.860491E+06 -1.124625E+06 -9.004768E+04 -2.983084E+06  6.393428E+04  2.157510E+04
        10   5 -7.858938E+06 -1.055664E+06 -1.500189E+05 -2.941973E+06  1.445454E+05  4.887949E+04
        10   6 -7.884092E+06 -1.286908E+06 -3.326877E+05 -2.922699E+06  2.244011E+05  7.820571E+04
        10   7 -8.108996E+06 -1.207749E+06 -1.566293E+05 -3.038833E+06  6.322033E+04  2.130994E+04
        10   8 -8.147340E+06 -1.169989E+06 -2.305763E+05 -3.025166E+06  1.441997E+05  4.874856E+04
        10   9 -8.212512E+06 -1.432579E+06 -4.275657E+05 -3.033329E+06  2.244178E+05  7.820201E+04
        10  10 -7.611932E+06 -1.041503E+06 -2.348033E+04 -2.927319E+06  2.246783E-11  4.111983E-09
        10  11 -7.570478E+06 -9.413414E+05 -6.951413E+04 -2.858750E+06 -4.045158E-09 -3.478009E-09
        10  12 -7.555622E+06 -1.141239E+06 -2.379280E+05 -2.812026E+06  9.132870E-10 -2.944420E-09
        10  13 -7.860496E+06 -1.124627E+06 -9.005637E+04 -2.983086E+06 -2.308706E-09  7.253213E-10
        10  14 -7.858961E+06 -1.055673E+06 -1.500633E+05 -2.941979E+06  4.021235E-09 -6.712509E-10
        10  15 -7.884149E+06 -1.286928E+06 -3.327954E+05 -2.922714E+06  1.351419E-09 -9.831012E-10
        10  16 -8.109000E+06 -1.207750E+06 -1.566378E+05 -3.038834E+06 -8.524905E-10  9.784219E-11
        10  17 -8.147363E+06 -1.169997E+06 -2.306205E+05 -3.025172E+06  8.698332E-11  1.661200E-09
        10  18 -8.212569E+06 -1.432599E+06 -4.276735E+05 -3.033343E+06 -1.670117E-09 -1.085445E-09
        10  19 -7.611927E+06 -1.041501E+06 -2.347146E+04 -2.927317E+06 -6.464854E+04 -2.184034E+04
        10  20 -7.570455E+06 -9.413330E+05 -6.946954E+04 -2.858744E+06 -1.448913E+05 -4.901049E+04
        10  21 -7.555566E+06 -1.141219E+06 -2.378204E+05 -2.812012E+06 -2.243844E+05 -7.820939E+04
        10  22 -7.860491E+06 -1.124625E+06 -9.004768E+04 -2.983084E+06 -6.393428E+04 -2.157510E+04
        10  23 -7.858938E+06 -1.055664E+06 -1.500189E+05 -2.941973E+06 -1.445454E+05 -4.887949E+04
        10  24 -7.884092E+06 -1.286908E+06 -3.326877E+05 -2.922699E+06 -2.244011E+05 -7.820571E+04
        10  25 -8.108996E+06 -1.207749E+06 -1.566293E+05 -3.038833E+06 -6.322033E+04 -2.130994E+04
        10  26 -8.147340E+06 -1.169989E+06 -2.305763E+05 -3.025166E+06 -1.441997E+05 -4.874856E+04
        10  27 -8.212512E+06 -1.432579E+06 -4.275657E+05 -3.033329E+06 -2.244178E+05 -7.820201E+04
        11   1 -7.381438E+06 -9.474319E+05 -2.619435E+05 -2.931030E+06  2.867671E+05  9.969614E+04
        11   2 -7.224332E+06 -6.298458E+05 -4.974007E+05 -2.828562E+06  6.398148E+05  2.307187E+05
        11   3 -7.695550E+06 -1.885626E+06 -1.426208E+06 -2.326184E+06  9.898172E+05  3.699309E+05
        11   4 -7.948778E+06 -1.089159E+06 -4.039119E+05 -3.009229E+06  2.855148E+05  9.926898E+04
        11   5 -7.715092E+06 -8.552275E+05 -6.405197E+05 -3.001821E+06  6.399138E+05  2.307045E+05
        11   6 -8.110538E+06 -2.195758E+06 -1.571997E+06 -2.594330E+06  9.913147E+05  3.701878E+05
        11   7 -8.515798E+06 -1.230897E+06 -5.459012E+05 -3.087383E+06  2.842636E+05  9.884192E+04
        11   8 -8.205612E+06 -1.080560E+06 -7.836623E+05 -3.174944E+06  6.400125E+05  2.306900E+05
        11   9 -8.525297E+06 -2.505669E+06 -1.717796E+06 -2.862263E+06  9.928110E+05  3.704430E+05
        11  10 -7.381530E+06 -9.474651E+05 -2.621191E+05 -2.931053E+06  3.323478E-09 -7.563962E-10
        11  11 -7.224790E+06 -6.300153E+05 -4.982820E+05 -2.828681E+06 -5.483476E-10  6.534281E-10
        11  12 -7.696651E+06 -1.886042E+06 -1.428335E+06 -2.326481E+06  1.756205E-09  1.610816E-10
        11  13 -7.948869E+06 -1.089192E+06 -4.040862E+05 -3.009252E+06  1.052076E-09 -3.032820E-10
        11  14 -7.715551E+06 -8.553973E+05 -6.414020E+05 -3.001941E+06 -1.488455E-09  2.179894E-10
        11  15 -8.111644E+06 -2.196176E+06 -1.574132E+06 -2.594629E+06 -8.401058E-10  1.579793E-10
        11  16 -8.515888E+06 -1.230929E+06 -5.460741E+05 -3.087406E+06 -3.165769E-09 -1.172060E-09
        11  17 -8.206072E+06 -1.080730E+06 -7.845457E+05 -3.175064E+06 -1.319232E-09  1.453252E-09
        11  18 -8.526406E+06 -2.506088E+06 -1.719940E+06 -2.862562E+06  2.259648E-10 -4.700483E-10
        11  19 -7.381438E+06 -9.474319E+05 -2.619435E+05 -2.931030E+06 -2.867671E+05 -9.969614E+04
        11  20 -7.224332E+06 -6.298458E+05 -4.974007E+05 -2.828562E+06 -6.398148E+05 -2.307187E+05
        11  21 -7.695550E+06 -1.885626E+06 -1.426208E+06 -2.326184E+06 -9.898172E+05 -3.699309E+05
        11  22 -7.948778E+06 -1.089159E+06 -4.039119E+05 -3.009229E+06 -2.855148E+05 -9.926898E+04
        11  23 -7.715092E+06 -8.552275E+05 -6.405197E+05 -3.001821E+06 -6.399138E+05 -2.307045E+05
        11  24 -8.110538E+06 -2.195758E+06 -1.571997E+06 -2.594330E+06 -9.913147E+05 -3.701878E+05
        11  25 -8.515798E+06 -1.230897E+06 -5.459012E+05 -3.087383E+06 -2.842636E+05 -9.884192E+04
        11  26 -8.205612E+06 -1.080560E+06 -7.836623E+05 -3.174944E+06 -6.400125E+05 -2.306900E+05
        11  27 -8.525297E+06 -2.505669E+06 -1.717796E+06 -2.862263E+06 -9.928110E+05 -3.704430E+05
        12   1 -2.298142E+04 -8.187856E+05 -1.891081E+04  2.139627E+03 -1.327950E+02 -4.254787E+02
        12   2 -2.378653E+04 -8.208817E+05 -1.845964E+04 -2.821263E+03 -1.774932E+02 -2.872895E+03
        12   3 -2.049216E+04 -8.174657E+05 -1.455407E+04  2.021083E+03 -5.589139E+01 -5.320718E+03
        12   4  3.049214E+02 -7.257187E+05  4.373820E+03  2.179887E+03 -1.327928E+02 -4.224766E+02
        12   5 -6.565981E+02 -7.284404E+05  4.667946E+03 -2.723565E+03 -1.774935E+02 -2.874200E+03
        12   6  2.482049E+03 -7.256489E+05  8.419226E+03  2.176131E+03 -5.590576E+01 -5.326328E+03
        12   7  2.359061E+04 -6.326440E+05  2.765779E+04  2.220152E+03 -1.327905E+02 -4.194741E+02
        12   8  2.247269E+04 -6.359912E+05  2.779488E+04 -2.625855E+03 -1.774939E+02 -2.875505E+03
        12   9  2.545562E+04 -6.338244E+05  3.139189E+04  2.331198E+03 -5.592014E+01 -5.331939E+03
        12  10 -2.298142E+04 -8.187856E+05 -1.891081E+04  2.139627E+03  1.245693E-09 -2.219493E-11
        12  11 -2.378654E+04 -8.208818E+05 -1.845965E+04 -2.821264E+03  4.378144E-10 -1.057541E-09
        12  12 -2.049217E+04 -8.174657E+05 -1.455413E+04  2.021082E+03 -1.879157E-10  5.311550E-10
        12  13  3.049213E+02 -7.257187E+05  4.373820E+03  2.179887E+03  9.586149E-10  6.878971E-11
        12  14 -6.566004E+02 -7.284404E+05  4.667930E+03 -2.723565E+03 -7.821118E-11  4.258076E-10
        12  15  2.482041E+03 -7.256489E+05  8.419173E+03  2.176131E+03  1.749334E-09  9.434070E-10
        12  16  2.359061E+04 -6.326440E+05  2.765779E+04  2.220152E+03  4.478980E-09  1.964337E-11
        12  17  2.247269E+04 -6.359912E+05  2.779487E+04 -2.625855E+03 -1.656357E-09 -9.740282E-10
        12  18  2.545562E+04 -6.338244E+05  3.139184E+04  2.331198E+03 -2.962071E-10 -9.377426E-11
        12  19 -2.298142E+04 -8.187856E+05 -1.891081E+04  2.139627E+03  1.327950E+02  4.254787E+02
        12  20 -2.378653E+04 -8.208817E+05 -1.845964E+04 -2.821263E+03  1.774932E+02  2.872895E+03
        12  21 -2.049216E+04 -8.174657E+05 -1.455407E+04  2.021083E+03  5.589139E+01  5.320718E+03
        12  22  3.049214E+02 -7.257187E+05  4.373820E+03  2.179887E+03  1.327928E+02  4.224766E+02
        12  23 -6.565981E+02 -7.284404E+05  4.667946E+03 -2.723565E+03  1.774935E+02  2.874200E+03
        12  24  2.482049E+03 -7.256489E+05  8.419226E+03  2.176131E+03  5.590576E+01  5.326328E+03
        12  25  2.359061E+04 -6.326440E+05  2.765779E+04  2.220152E+03  1.327905E+02  4.194741E+02
        12  26  2.247269E+04 -6.359912E+05  2.779488E+04 -2.625855E+03  1.774939E+02  2.875505E+03
        12  27  2.545562E+04 -6.338244E+05  3.139189E+04  2.331198E+03  5.592014E+01  5.331939E+03
        13   1  3.681737E+04 -5.752283E+05  4.751026E+04  1.032662E+03  1.046887E+02 -7.132469E+03
        13   2  3.278552E+04 -5.839996E+05  5.193441E+04 -9.717733E+02  2.655168E+02 -1.520557E+04
        13   3  5.438594E+04 -5.745482E+05  7.018022E+04  1.022889E+03  1.954130E+02 -2.327856E+04
        13   4 -1.270665E+02 -7.229022E+05  1.056756E+04  8.866751E+02  1.046744E+02 -7.138404E+03
        13   5 -4.222318E+03 -7.319268E+05  1.493041E+04 -1.103092E+03  2.655232E+02 -1.520428E+04
        13   6  1.731559E+04 -7.227296E+05  3.311171E+04  9.062955E+02  1.954144E+02 -2.327005E+04
        13   7 -3.707315E+04 -8.705564E+05 -2.637680E+04  7.407104E+02  1.046601E+02 -7.144336E+03
        13   8 -4.123182E+04 -8.798341E+05 -2.207525E+04 -1.234382E+03  2.655297E+02 -1.520299E+04
        13   9 -1.975643E+04 -8.708912E+05 -3.958465E+03  7.897365E+02  1.954158E+02 -2.326154E+04
        13  10  3.681736E+04 -5.752284E+05  4.751016E+04  1.032663E+03 -2.109898E-09  3.331537E-10
        13  11  3.278546E+04 -5.839999E+05  5.193398E+04 -9.717700E+02  3.524078E-09 -5.984392E-10
        13  12  5.438579E+04 -5.745488E+05  7.017920E+04  1.022892E+03  6.816542E-10 -1.985811E-10
        13  13 -1.270803E+02 -7.229023E+05  1.056746E+04  8.866757E+02 -1.622225E-09  7.288602E-10
        13  14 -4.222381E+03 -7.319270E+05  1.492997E+04 -1.103088E+03  3.713407E-09  2.618107E-10
        13  15  1.731544E+04 -7.227302E+05  3.311069E+04  9.062992E+02  3.562406E-09 -4.298838E-10
        13  16 -3.707317E+04 -8.705564E+05 -2.637689E+04  7.407110E+02  1.654488E-09 -8.271279E-11
        13  17 -4.123188E+04 -8.798344E+05 -2.207569E+04 -1.234378E+03 -4.014989E-09 -2.031815E-10
        13  18 -1.975657E+04 -8.708918E+05 -3.959483E+03  7.897401E+02  1.452717E-09  3.409597E-11
        13  19  3.681737E+04 -5.752283E+05  4.751026E+04  1.032662E+03 -1.046887E+02  7.132469E+03
        13  20  3.278552E+04 -5.839996E+05  5.193441E+04 -9.717733E+02 -2.655168E+02  1.520557E+04
        13  21  5.438594E+04 -5.745482E+05  7.018022E+04  1.022889E+03 -1.954130E+02  2.327856E+04
        13  22 -1.270665E+02 -7.229022E+05  1.056756E+04  8.866751E+02 -1.046744E+02  7.138404E+03
        13  23 -4.222318E+03 -7.319268E+05  1.493041E+04 -1.103092E+03 -2.655232E+02  1.520428E+04
        13  24  1.731559E+04 -7.227296E+05  3.311171E+04  9.062955E+02 -1.954144E+02  2.327005E+04
        13  25 -3.707315E+04 -8.705564E+05 -2.637680E+04  7.407104E+02 -1.046601E+02  7.144336E+03
        13  26 -4.123182E+04 -8.798341E+05 -2.207525E+04 -1.234382E+03 -2.655297E+02  1.520299E+04
        13  27 -1.975643E+04 -8.708912E+05 -3.958465E+03  7.897365E+02 -1.954158E+02  2.326154E+04
        14   1 -2.256339E+03 -7.125577E+05  4.026681E+04 -3.614837E+03  1.122104E+02 -2.989092E+04
        14   2 -2.451526E+04 -7.347225E+05  6.020931E+04  3.793314E+03  1.135629E+02 -6.226869E+04
        14   3  1.068564E+05 -7.142947E+05  1.396518E+05 -7.417582E+02  1.734426E+02 -9.464549E+04
        14   4 -3.435685E+03 -7.172559E+05  3.909144E+04 -2.725583E+03  1.121638E+02 -2.988869E+04
        14   5 -2.549545E+04 -7.386483E+05  5.922745E+04  3.351197E+03  1.136060E+02 -6.226770E+04
        14   6  1.060760E+05 -7.174477E+05  1.388645E+05 -2.515268E+03  1.737146E+02 -9.464577E+04
        14   7 -4.615030E+03 -7.219541E+05  3.791607E+04 -1.836336E+03  1.121173E+02 -2.988647E+04
        14   8 -2.647563E+04 -7.425741E+05  5.824560E+04  2.909082E+03  1.136491E+02 -6.226671E+04
        14   9  1.052957E+05 -7.206007E+05  1.380772E+05 -4.288768E+03  1.739865E+02 -9.464605E+04
        14  10 -2.256579E+03 -7.125587E+05  4.026512E+04 -3.614834E+03  1.891742E-10 -1.535741E-10
        14  11 -2.451630E+04 -7.347267E+05  6.020202E+04  3.793320E+03 -4.345336E-09  1.303127E-09
        14  12  1.068540E+05 -7.143043E+05  1.396349E+05 -7.417450E+02  2.720394E-10 -3.283753E-11
        14  13 -3.435925E+03 -7.172569E+05  3.908976E+04 -2.725580E+03 -5.094257E-10 -5.324772E-10
        14  14 -2.549649E+04 -7.386525E+05  5.922016E+04  3.351202E+03  1.139294E-09 -5.719116E-10
        14  15  1.060736E+05 -7.174574E+05  1.388476E+05 -2.515254E+03 -1.686234E-09 -7.192660E-10
        14  16 -4.615270E+03 -7.219550E+05  3.791439E+04 -1.836333E+03  2.748591E-09 -4.886304E-12
        14  17 -2.647668E+04 -7.425783E+05  5.823830E+04  2.909088E+03  3.208074E-09  1.131748E-09
        14  18  1.052933E+05 -7.206104E+05  1.380604E+05 -4.288755E+03  3.444132E-09 -2.127310E-10
        14  19 -2.256339E+03 -7.125577E+05  4.026681E+04 -3.614837E+03 -1.122104E+02  2.989092E+04
        14  20 -2.451526E+04 -7.347225E+05  6.020931E+04  3.793314E+03 -1.135629E+02  6.226869E+04
        14  21  1.068564E+05 -7.142947E+05  1.396518E+05 -7.417582E+02 -1.734426E+02  9.464549E+04
        14  22 -3.435685E+03 -7.172559E+05  3.909144E+04 -2.725583E+03 -1.121638E+02  2.988869E+04
        14  23 -2.549545E+04 -7.386483E+05  5.922745E+04  3.351197E+03 -1.136060E+02  6.226770E+04
        14  24  1.060760E+05 -7.174477E+05  1.388645E+05 -2.515268E+03 -1.737146E+02  9.464577E+04
        14  25 -4.615030E+03 -7.219541E+05  3.791607E+04 -1.836336E+03 -1.121173E+02  2.988647E+04
        14  26 -2.647563E+04 -7.425741E+05  5.824560E+04  2.909082E+03 -1.136491E+02  6.226671E+04
        14  27  1.052957E+05 -7.206007E+05  1.380772E+05 -4.288768E+03 -1.739865E+02  9.464605E+04
        15   1  1.200518E+05 -6.608679E+05  1.152962E+05 -1.782823E+02  1.657019E+04 -3.317565E+00
        15   2  1.197861E+05 -6.620070E+05  1.150159E+05  7.258808E+01  1.654327E+04  7.734298E+00
        15   3  1.195457E+05 -6.629222E+05  1.147813E+05 -3.848389E+02  1.648251E+04  1.873257E+01
        15   4 -3.960756E+01 -1.145521E+06 -3.127929E+01 -1.574080E+02  1.657106E+04  2.205055E+00
        15   5 -4.995056E+01 -1.145632E+06 -6.391445E+01  1.967632E+02  1.654412E+04  3.190045E+01
        15   6 -3.820997E+01 -1.145521E+06 -6.378186E+01 -1.573937E+02  1.648334E+04  6.154255E+01
        15   7 -1.201480E+05 -1.629959E+06 -1.153753E+05 -1.365460E+02  1.657193E+04  7.723380E+00
        15   8 -1.199029E+05 -1.629041E+06 -1.151601E+05  3.208593E+02  1.654498E+04  5.604785E+01
        15   9 -1.196390E+05 -1.627906E+06 -1.149252E+05  6.990618E+01  1.648418E+04  1.043194E+02
        15  10  1.200515E+05 -6.608680E+05  1.152957E+05 -1.782823E+02  2.939710E-09  2.671919E-09
        15  11  1.197858E+05 -6.620071E+05  1.150154E+05  7.258798E+01 -6.483831E-09 -1.457473E-09
        15  12  1.195455E+05 -6.629222E+05  1.147808E+05 -3.848392E+02 -5.609516E-09 -4.336163E-09
        15  13 -3.990227E+01 -1.145521E+06 -3.179504E+01 -1.574081E+02  1.913884E-09 -2.279949E-11
        15  14 -5.024432E+01 -1.145632E+06 -6.442852E+01  1.967628E+02 -1.230795E-09 -1.560501E-10
        15  15 -3.850157E+01 -1.145521E+06 -6.429217E+01 -1.573945E+02  1.056925E-09  9.488356E-12
        15  16 -1.201483E+05 -1.629959E+06 -1.153758E+05 -1.365461E+02 -8.796782E-10 -2.707505E-09
        15  17 -1.199032E+05 -1.629041E+06 -1.151606E+05  3.208585E+02 -4.905939E-09  9.127169E-10
        15  18 -1.196393E+05 -1.627906E+06 -1.149257E+05  6.990480E+01 -5.561955E-09  3.840179E-09
        15  19  1.200518E+05 -6.608679E+05  1.152962E+05 -1.782823E+02 -1.657019E+04  3.317565E+00
        15  20  1.197861E+05 -6.620070E+05  1.150159E+05  7.258808E+01 -1.654327E+04 -7.734298E+00
        15  21  1.195457E+05 -6.629222E+05  1.147813E+05 -3.848389E+02 -1.648251E+04 -1.873257E+01
        15  22 -3.960756E+01 -1.145521E+06 -3.127929E+01 -1.574080E+02 -1.657106E+04 -2.205055E+00
        15  23 -4.995056E+01 -1.145632E+06 -6.391445E+01  1.967632E+02 -1.654412E+04 -3.190045E+01
        15  24 -3.820997E+01 -1.145521E+06 -6.378186E+01 -1.573937E+02 -1.648334E+04 -6.154255E+01
        15  25 -1.201480E+05 -1.629959E+06 -1.153753E+05 -1.365460E+02 -1.657193E+04 -7.723380E+00
        15  26 -1.199029E+05 -1.629041E+06 -1.151601E+05  3.208593E+02 -1.654498E+04 -5.604785E+01
        15  27 -1.196390E+05 -1.627906E+06 -1.149252E+05  6.990618E+01 -1.648418E+04 -1.043194E+02
        16   1  1.189209E+05 -6.654389E+05  1.141511E+05 -7.327237E+02  1.643147E+04  1.975238E+01
        16   2  1.181506E+05 -6.686154E+05  1.133385E+05  2.182630E+02  1.631701E+04  8.250824E+01
        16   3  1.174024E+05 -6.715863E+05  1.125348E+05 -9.283424E+02  1.616907E+04  1.451057E+02
        16   4 -3.798497E+01 -1.145525E+06 -8.355763E+01 -4.661441E+02  1.643228E+04  7.359881E+01
        16   5 -4.733863E+01 -1.145625E+06 -1.679457E+02  5.827084E+02  1.631777E+04  1.547678E+02
        16   6 -3.783280E+01 -1.145524E+06 -2.561970E+02 -4.661318E+02  1.616978E+04  2.357787E+02
        16   7 -1.190136E+05 -1.625398E+06 -1.143344E+05 -1.997315E+02  1.643309E+04  1.274038E+02
        16   8 -1.182617E+05 -1.622426E+06 -1.136903E+05  9.469252E+02  1.631854E+04  2.269720E+02
        16   9 -1.174943E+05 -1.619255E+06 -1.130629E+05 -4.210071E+00  1.617049E+04  3.263826E+02
        16  10  1.189207E+05 -6.654390E+05  1.141506E+05 -7.327240E+02 -7.215288E-09 -3.523515E-09
        16  11  1.181503E+05 -6.686155E+05  1.133380E+05  2.182619E+02  7.069956E-10 -1.065675E-09
        16  12  1.174021E+05 -6.715863E+05  1.125343E+05 -9.283442E+02  1.090066E-09 -6.610800E-10
        16  13 -3.827477E+01 -1.145525E+06 -8.406479E+01 -4.661450E+02  3.122220E-10  4.291568E-11
        16  14 -4.762441E+01 -1.145626E+06 -1.684458E+02  5.827063E+02  2.730095E-09 -4.968132E-10
        16  15 -3.811343E+01 -1.145524E+06 -2.566882E+02 -4.661349E+02 -2.817548E-09 -1.154686E-10
        16  16 -1.190138E+05 -1.625398E+06 -1.143349E+05 -1.997331E+02  2.971384E-09  2.860272E-09
        16  17 -1.182620E+05 -1.622426E+06 -1.136908E+05  9.469222E+02  4.538316E-10 -5.880659E-10
        16  18 -1.174946E+05 -1.619255E+06 -1.130634E+05 -4.214325E+00 -6.784565E-10 -3.623487E-10
        16  19  1.189209E+05 -6.654389E+05  1.141511E+05 -7.327237E+02 -1.643147E+04 -1.975238E+01
        16  20  1.181506E+05 -6.686154E+05  1.133385E+05  2.182630E+02 -1.631701E+04 -8.250824E+01
        16  21  1.174024E+05 -6.715863E+05  1.125348E+05 -9.283424E+02 -1.616907E+04 -1.451057E+02
        16  22 -3.798497E+01 -1.145525E+06 -8.355763E+01 -4.661441E+02 -1.643228E+04 -7.359881E+01
        16  23 -4.733863E+01 -1.145625E+06 -1.679457E+02  5.827084E+02 -1.631777E+04 -1.547678E+02
        16  24 -3.783280E+01 -1.145524E+06 -2.561970E+02 -4.661318E+02 -1.616978E+04 -2.357787E+02
        16  25 -1.190136E+05 -1.625398E+06 -1.143344E+05 -1.997315E+02 -1.643309E+04 -1.274038E+02
        16  26 -1.182617E+05 -1.622426E+06 -1.136903E+05  9.469252E+02 -1.631854E+04 -2.269720E+02
        16  27 -1.174943E+05 -1.619255E+06 -1.130629E+05 -4.210071E+00 -1.617049E+04 -3.263826E+02
        17   1  1.161693E+05 -6.765853E+05  1.112410E+05 -1.255312E+03  1.606794E+04  1.873736E+02
        17   2  1.149089E+05 -6.817338E+05  1.097683E+05  3.795671E+02  1.586706E+04  4.703460E+02
        17   3  1.136088E+05 -6.867416E+05  1.081413E+05 -1.444064E+03  1.563117E+04  7.530534E+02
        17   4 -3.089705E+01 -1.145537E+06 -3.390255E+02 -7.685419E+02  1.606861E+04  2.881577E+02
        17   5 -3.517649E+01 -1.145605E+06 -6.127801E+02  9.607529E+02  1.586765E+04  5.902458E+02
        17   6 -8.252531E+01 -1.145536E+06 -1.054352E+03 -7.686270E+02  1.563167E+04  8.920708E+02
        17   7 -1.162470E+05 -1.614287E+06 -1.119344E+05 -2.820691E+02  1.606927E+04  3.888659E+02
        17   8 -1.149948E+05 -1.609279E+06 -1.110090E+05  1.541585E+03  1.586824E+04  7.100562E+02
        17   9 -1.137890E+05 -1.604138E+06 -1.102647E+05 -9.359835E+01  1.563217E+04  1.030986E+03
        17  10  1.161691E+05 -6.765854E+05  1.112405E+05 -1.255315E+03 -2.960510E-10 -1.723695E-09
        17  11  1.149086E+05 -6.817339E+05  1.097679E+05  3.795611E+02  1.384692E-09  2.463724E-10
        17  12  1.136085E+05 -6.867416E+05  1.081408E+05 -1.444073E+03 -1.568845E-09  1.533609E-09
        17  13 -3.117419E+01 -1.145537E+06 -3.395106E+02 -7.685456E+02 -1.910479E-09  3.989759E-11
        17  14 -3.544681E+01 -1.145605E+06 -6.132536E+02  9.607454E+02  3.905708E-09 -9.636035E-10
        17  15 -8.278777E+01 -1.145536E+06 -1.054812E+03 -7.686382E+02  2.536511E-09 -6.038288E-11
        17  16 -1.162473E+05 -1.614287E+06 -1.119349E+05 -2.820741E+02 -1.468438E-09  5.195529E-10
        17  17 -1.149950E+05 -1.609279E+06 -1.110094E+05  1.541576E+03 -2.913529E-09 -2.953577E-09
        17  18 -1.137893E+05 -1.604138E+06 -1.102652E+05 -9.361134E+01  1.081358E-09 -3.305609E-09
        17  19  1.161693E+05 -6.765853E+05  1.112410E+05 -1.255312E+03 -1.606794E+04 -1.873736E+02
        17  20  1.149089E+05 -6.817338E+05  1.097683E+05  3.795671E+02 -1.586706E+04 -4.703460E+02
        17  21  1.136088E+05 -6.867416E+05  1.081413E+05 -1.444064E+03 -1.563117E+04 -7.530534E+02
        17  22 -3.089705E+01 -1.145537E+06 -3.390255E+02 -7.685419E+02 -1.606861E+04 -2.881577E+02
        17  23 -3.517649E+01 -1.145605E+06 -6.127801E+02  9.607529E+02 -1.586765E+04 -5.902458E+02
        17  24 -8.252531E+01 -1.145536E+06 -1.054352E+03 -7.686270E+02 -1.563167E+04 -8.920708E+02
        17  25 -1.162470E+05 -1.614287E+06 -1.119344E+05 -2.820691E+02 -1.606927E+04 -3.888659E+02
        17  26 -1.149948E+05 -1.609279E+06 -1.110090E+05  1.541585E+03 -1.586824E+04 -7.100562E+02
        17  27 -1.137890E+05 -1.604138E+06 -1.102647E+05 -9.359835E+01 -1.563217E+04 -1.030986E+03
        18   1  8.203780E+04  8.731415E+05  4.608494E+04 -3.496146E+00  2.879637E+04 -2.819674E-02
        18   2  8.204194E+04  8.731605E+05  4.609223E+04 -2.002852E+01  2.879735E+04 -6.352690E+00
        18   3  8.204708E+04  8.731877E+05  4.610617E+04 -3.416807E+01  2.879930E+04 -1.267697E+01
        18   4 -2.709180E+01  5.085909E+05  1.525415E+01  5.319807E-01  2.879816E+04 -1.216240E+00
        18   5 -2.847678E+01  5.085866E+05  1.824986E+01 -6.642239E-01  2.879914E+04 -9.864322E+00
        18   6 -2.845375E+01  5.085909E+05  2.950395E+01  5.330006E-01  2.880109E+04 -1.851222E+01
        18   7 -8.209739E+04  1.441766E+05 -4.605485E+04  4.558070E+00  2.879994E+04 -2.403621E+00
        18   8 -8.210430E+04  1.441490E+05 -4.605615E+04  1.869011E+01  2.880092E+04 -1.337399E+01
        18   9 -8.210940E+04  1.441304E+05 -4.604758E+04  3.521619E+01  2.880287E+04 -2.434422E+01
        18  10  8.203691E+04  8.731412E+05  4.608338E+04 -3.496145E+00 -1.078500E-08 -3.605496E-08
        18  11  8.204105E+04  8.731603E+05  4.609067E+04 -2.002837E+01 -2.783551E-09 -7.145782E-09
        18  12  8.204619E+04  8.731875E+05  4.610461E+04 -3.416777E+01 -1.081794E-09  2.059621E-08
        18  13 -2.798257E+01  5.085907E+05  1.369530E+01  5.320089E-01  2.063812E-09  3.252379E-11
        18  14 -2.936761E+01  5.085863E+05  1.669090E+01 -6.639952E-01  5.019047E-09 -1.291354E-10
        18  15 -2.934470E+01  5.085907E+05  2.794478E+01  5.334299E-01  3.643201E-09  1.304572E-10
        18  16 -8.209828E+04  1.441764E+05 -4.605641E+04  4.558126E+00 -1.241288E-08  3.600814E-08
        18  17 -8.210519E+04  1.441488E+05 -4.605771E+04  1.869042E+01 -4.793127E-10  7.096870E-09
        18  18 -8.211029E+04  1.441302E+05 -4.604914E+04  3.521675E+01  2.648792E-09 -2.059676E-08
        18  19  8.203780E+04  8.731415E+05  4.608494E+04 -3.496146E+00 -2.879637E+04  2.819667E-02
        18  20  8.204194E+04  8.731605E+05  4.609223E+04 -2.002852E+01 -2.879735E+04  6.352690E+00
        18  21  8.204708E+04  8.731877E+05  4.610617E+04 -3.416807E+01 -2.879930E+04  1.267697E+01
        18  22 -2.709180E+01  5.085909E+05  1.525415E+01  5.319809E-01 -2.879816E+04  1.216240E+00
        18  23 -2.847678E+01  5.085866E+05  1.824986E+01 -6.642239E-01 -2.879914E+04  9.864322E+00
        18  24 -2.845375E+01  5.085909E+05  2.950395E+01  5.330005E-01 -2.880109E+04  1.851222E+01
        18  25 -8.209739E+04  1.441766E+05 -4.605485E+04  4.558070E+00 -2.879994E+04  2.403621E+00
        18  26 -8.210430E+04  1.441490E+05 -4.605615E+04  1.869011E+01 -2.880092E+04  1.337399E+01
        18  27 -8.210940E+04  1.441304E+05 -4.604758E+04  3.521619E+01 -2.880287E+04  2.434422E+01
        19   1  8.205295E+04  8.732168E+05  4.611897E+04 -4.097063E+01  2.880107E+04 -1.625976E+01
        19   2  8.206584E+04  8.732798E+05  4.615771E+04 -6.475986E+01  2.880390E+04 -5.006285E+01
        19   3  8.208119E+04  8.733549E+05  4.622133E+04 -7.761846E+01  2.880566E+04 -8.386542E+01
        19   4 -2.913365E+01  5.085916E+05  3.797240E+01  2.430378E+00  2.880286E+04 -2.431066E+01
        19   5 -3.256954E+01  5.085857E+05  6.392291E+01 -3.034942E+00  2.880569E+04 -5.553139E+01
        19   6 -3.398059E+01  5.085915E+05  1.129751E+02  2.430744E+00  2.880744E+04 -8.675159E+01
        19   7 -8.211663E+04  1.441027E+05 -4.604345E+04  4.580903E+01  2.880465E+04 -3.235706E+01
        19   8 -8.213639E+04  1.440280E+05 -4.603029E+04  5.865786E+01  2.880747E+04 -6.099687E+01
        19   9 -8.215457E+04  1.439646E+05 -4.599580E+04  8.243805E+01  2.880923E+04 -8.963615E+01
        19  10  8.205206E+04  8.732166E+05  4.611741E+04 -4.097025E+01  1.381236E-09 -2.779932E-09
        19  11  8.206495E+04  8.732796E+05  4.615615E+04 -6.475870E+01 -2.351116E-10 -2.938328E-09
        19  12  8.208030E+04  8.733547E+05  4.621977E+04 -7.761651E+01  5.316313E-10 -1.987996E-09
        19  13 -3.002471E+01  5.085913E+05  3.641303E+01  2.430942E+00  1.859334E-09  1.520074E-10
        19  14 -3.346078E+01  5.085855E+05  6.236323E+01 -3.033654E+00  2.741886E-09 -4.069372E-10
        19  15 -3.487194E+01  5.085913E+05  1.114152E+02  2.432756E+00  3.472311E-09  2.830772E-10
        19  16 -8.211752E+04  1.441024E+05 -4.604501E+04  4.580978E+01  8.328619E-10  2.578296E-09
        19  17 -8.213728E+04  1.440278E+05 -4.603185E+04  5.865927E+01 -3.512806E-10  2.753906E-09
        19  18 -8.215546E+04  1.439644E+05 -4.599736E+04  8.244013E+01 -1.781083E-09  2.153462E-09
        19  19  8.205295E+04  8.732168E+05  4.611897E+04 -4.097063E+01 -2.880107E+04  1.625976E+01
        19  20  8.206584E+04  8.732798E+05  4.615771E+04 -6.475986E+01 -2.880390E+04  5.006285E+01
        19  21  8.208119E+04  8.733549E+05  4.622133E+04 -7.761846E+01 -2.880566E+04  8.386542E+01
        19  22 -2.913365E+01  5.085916E+05  3.797240E+01  2.430378E+00 -2.880286E+04  2.431066E+01
        19  23 -3.256954E+01  5.085857E+05  6.392291E+01 -3.034942E+00 -2.880569E+04  5.553139E+01
        19  24 -3.398059E+01  5.085915E+05  1.129751E+02  2.430744E+00 -2.880744E+04  8.675159E+01
        19  25 -8.211663E+04  1.441027E+05 -4.604345E+04  4.580903E+01 -2.880465E+04  3.235706E+01
        19  26 -8.213639E+04  1.440280E+05 -4.603029E+04  5.865786E+01 -2.880747E+04  6.099687E+01
        19  27 -8.215457E+04  1.439646E+05 -4.599580E+04  8.243805E+01 -2.880923E+04  8.963615E+01
        20   1  8.209343E+04  8.734165E+05  4.626965E+04 -8.819638E+01  2.880714E+04 -1.062208E+02
        20   2  8.211879E+04  8.735145E+05  4.641798E+04 -1.200681E+02  2.880061E+04 -2.736671E+02
        20   3  8.216496E+04  8.736466E+05  4.668269E+04 -1.336178E+02  2.877766E+04 -4.411165E+02
        20   4 -3.581438E+01  5.085950E+05  1.490826E+02  4.072251E+00  2.880893E+04 -1.100915E+02
        20   5 -4.042677E+01  5.085813E+05  2.592246E+02 -5.087779E+00  2.880239E+04 -2.380278E+02
        20   6 -3.107374E+01  5.085949E+05  4.583824E+02  4.074221E+00  2.877942E+04 -3.659679E+02
        20   7 -8.217048E+04  1.439100E+05 -4.597191E+04  9.629235E+01  2.881072E+04 -1.139601E+02
        20   8 -8.220506E+04  1.437847E+05 -4.589996E+04  1.098316E+02  2.880416E+04 -2.024085E+02
        20   9 -8.223254E+04  1.436799E+05 -4.576637E+04  1.416928E+02  2.878118E+04 -2.908611E+02
        20  10  8.209254E+04  8.734163E+05  4.626809E+04 -8.819392E+01 -5.335250E-11 -6.774087E-10
        20  11  8.211790E+04  8.735143E+05  4.641642E+04 -1.200618E+02  1.585312E-09 -1.408957E-09
        20  12  8.216407E+04  8.736464E+05  4.668114E+04 -1.336076E+02 -1.281317E-10 -1.071957E-09
        20  13 -3.670583E+01  5.085948E+05  1.475226E+02  4.074805E+00  2.066193E-09  3.004665E-10
        20  14 -4.131782E+01  5.085811E+05  2.576652E+02 -5.082258E+00 -2.172480E-09 -6.334965E-10
        20  15 -3.196339E+01  5.085947E+05  4.568253E+02  4.082702E+00 -2.362357E-09  3.583826E-10
        20  16 -8.217137E+04  1.439097E+05 -4.597347E+04  9.629499E+01 -1.119443E-09  2.191262E-10
        20  17 -8.220596E+04  1.437845E+05 -4.590152E+04  1.098363E+02 -3.097419E-09  1.173444E-09
        20  18 -8.223342E+04  1.436796E+05 -4.576793E+04  1.416995E+02 -1.972405E-09  1.236229E-09
        20  19  8.209343E+04  8.734165E+05  4.626965E+04 -8.819638E+01 -2.880714E+04  1.062208E+02
        20  20  8.211879E+04  8.735145E+05  4.641798E+04 -1.200681E+02 -2.880061E+04  2.736671E+02
        20  21  8.216496E+04  8.736466E+05  4.668269E+04 -1.336178E+02 -2.877766E+04  4.411165E+02
        20  22 -3.581438E+01  5.085950E+05  1.490826E+02  4.072251E+00 -2.880893E+04  1.100915E+02
        20  23 -4.042677E+01  5.085813E+05  2.592246E+02 -5.087779E+00 -2.880239E+04  2.380278E+02
        20  24 -3.107374E+01  5.085949E+05  4.583824E+02  4.074222E+00 -2.877942E+04  3.659679E+02
        20  25 -8.217048E+04  1.439100E+05 -4.597191E+04  9.629235E+01 -2.881072E+04  1.139601E+02
        20  26 -8.220506E+04  1.437847E+05 -4.589996E+04  1.098316E+02 -2.880416E+04  2.024085E+02
        20  27 -8.223254E+04  1.436799E+05 -4.576637E+04  1.416928E+02 -2.878118E+04  2.908611E+02
        21   1 -6.844562E+06 -2.186916E+06 -1.361525E+06 -2.446616E+06 -7.013993E+05 -2.523695E+05
        21   2 -6.696928E+06 -1.166407E+06 -7.195195E+05 -2.562269E+06 -4.537893E+05 -1.294837E+05
        21   3 -6.933748E+06 -1.120044E+06 -5.341942E+05 -2.442064E+06 -1.963959E+05 -3.230360E+04
        21   4 -5.973046E+06 -1.604469E+06 -1.073196E+06 -1.954286E+06 -6.825277E+05 -2.455531E+05
        21   5 -5.724280E+06 -7.246889E+05 -4.484921E+05 -2.221330E+06 -4.478398E+05 -1.272974E+05
        21   6 -5.856848E+06 -8.156785E+05 -2.696530E+05 -2.252706E+06 -2.033342E+05 -3.489603E+04
        21   7 -5.100626E+06 -1.021349E+06 -7.849273E+05 -1.461167E+06 -6.636265E+05 -2.387057E+05
        21   8 -4.750685E+06 -2.827837E+05 -1.775527E+05 -1.879860E+06 -4.418795E+05 -1.251052E+05
        21   9 -4.778796E+06 -5.113381E+05 -5.190742E+03 -2.063104E+06 -2.102857E+05 -3.749054E+04
        21  10 -6.845113E+06 -2.187120E+06 -1.362583E+06 -2.446760E+06 -1.376531E-09  4.369980E-10
        21  11 -6.697156E+06 -1.166482E+06 -7.199432E+05 -2.562316E+06 -3.670898E-10  6.930462E-10
        21  12 -6.933790E+06 -1.120055E+06 -5.342696E+05 -2.442069E+06  4.054116E-09 -1.310320E-09
        21  13 -5.973567E+06 -1.604661E+06 -1.074195E+06 -1.954422E+06 -5.156113E-09  1.173601E-10
        21  14 -5.724501E+06 -7.247610E+05 -4.489038E+05 -2.221376E+06 -1.891016E-09 -7.814319E-11
        21  15 -5.856893E+06 -8.156910E+05 -2.697338E+05 -2.252712E+06  2.297837E-10 -7.089366E-10
        21  16 -5.101118E+06 -1.021530E+06 -7.858704E+05 -1.461295E+06 -2.475155E-09 -1.175575E-12
        21  17 -4.750900E+06 -2.828536E+05 -1.779526E+05 -1.879905E+06  4.054521E-09 -7.571959E-10
        21  18 -4.778844E+06 -5.113516E+05 -5.277227E+03 -2.063111E+06  2.350207E-10 -2.882065E-10
        21  19 -6.844562E+06 -2.186916E+06 -1.361525E+06 -2.446616E+06  7.013993E+05  2.523695E+05
        21  20 -6.696928E+06 -1.166407E+06 -7.195195E+05 -2.562269E+06  4.537893E+05  1.294837E+05
        21  21 -6.933748E+06 -1.120044E+06 -5.341942E+05 -2.442064E+06  1.963959E+05  3.230360E+04
        21  22 -5.973046E+06 -1.604469E+06 -1.073196E+06 -1.954286E+06  6.825277E+05  2.455531E+05
        21  23 -5.724280E+06 -7.246889E+05 -4.484921E+05 -2.221330E+06  4.478398E+05  1.272974E+05
        21  24 -5.856848E+06 -8.156785E+05 -2.696530E+05 -2.252706E+06  2.033342E+05  3.489603E+04
        21  25 -5.100626E+06 -1.021349E+06 -7.849273E+05 -1.461167E+06  6.636265E+05  2.387057E+05
        21  26 -4.750685E+06 -2.827837E+05 -1.775527E+05 -1.879860E+06  4.418795E+05  1.251052E+05
        21  27 -4.778796E+06 -5.113381E+05 -5.190742E+03 -2.063104E+06  2.102857E+05  3.749054E+04
        22   1 -6.751976E+06 -1.304877E+06 -4.705977E+05 -2.472425E+06 -1.643471E+05 -2.528670E+04
        22   2 -6.698470E+06 -1.167325E+06 -3.428827E+05 -2.455593E+06 -1.085203E+05 -4.411398E+03
        22   3 -6.661438E+06 -1.157977E+06 -2.842108E+05 -2.445490E+06 -5.180931E+04  1.413384E+04
        22   4 -5.819335E+06 -9.280263E+05 -2.188620E+05 -2.193193E+06 -1.640208E+05 -2.517482E+04
        22   5 -5.805215E+06 -8.232353E+05 -1.055983E+05 -2.205167E+06 -1.093080E+05 -4.713823E+03
        22   6 -5.807284E+06 -8.463305E+05 -6.040598E+04 -2.223882E+06 -5.371538E+04  1.341333E+04
        22   7 -4.885843E+06 -5.510888E+05  3.279490E+04 -1.913565E+06 -1.636938E+05 -2.506263E+04
        22   8 -4.911179E+06 -4.790882E+05  1.316164E+05 -1.954408E+06 -1.100969E+05 -5.016699E+03
        22   9 -4.952413E+06 -5.346509E+05  1.633376E+05 -2.001999E+06 -5.562434E+04  1.269183E+04
        22  10 -6.752005E+06 -1.304885E+06 -4.706503E+05 -2.472429E+06  2.230029E-10 -4.252546E-09
        22  11 -6.698483E+06 -1.167328E+06 -3.429051E+05 -2.455594E+06  2.218750E-09 -2.630164E-09
        22  12 -6.661441E+06 -1.157978E+06 -2.842162E+05 -2.445490E+06  5.263784E-09  2.043416E-10
        22  13 -5.819365E+06 -9.280343E+05 -2.189142E+05 -2.193196E+06 -4.863637E-09 -1.789041E-09
        22  14 -5.805228E+06 -8.232386E+05 -1.056210E+05 -2.205167E+06 -6.481087E-09 -2.742119E-09
        22  15 -5.807287E+06 -8.463315E+05 -6.041178E+04 -2.223882E+06 -1.047841E-08 -2.066468E-09
        22  16 -4.885872E+06 -5.510967E+05  3.274292E+04 -1.913568E+06  4.049662E-09  6.718362E-10
        22  17 -4.911192E+06 -4.790915E+05  1.315934E+05 -1.954408E+06 -7.196826E-09 -4.008746E-09
        22  18 -4.952416E+06 -5.346519E+05  1.633314E+05 -2.001999E+06 -8.026258E-09 -4.240003E-09
        22  19 -6.751976E+06 -1.304877E+06 -4.705977E+05 -2.472425E+06  1.643471E+05  2.528670E+04
        22  20 -6.698470E+06 -1.167325E+06 -3.428827E+05 -2.455593E+06  1.085203E+05  4.411398E+03
        22  21 -6.661438E+06 -1.157977E+06 -2.842108E+05 -2.445490E+06  5.180931E+04 -1.413384E+04
        22  22 -5.819335E+06 -9.280263E+05 -2.188620E+05 -2.193193E+06  1.640208E+05  2.517482E+04
        22  23 -5.805215E+06 -8.232353E+05 -1.055983E+05 -2.205167E+06  1.093080E+05  4.713823E+03
        22  24 -5.807284E+06 -8.463305E+05 -6.040598E+04 -2.223882E+06  5.371538E+04 -1.341333E+04
        22  25 -4.885843E+06 -5.510888E+05  3.279490E+04 -1.913565E+06  1.636938E+05  2.506263E+04
        22  26 -4.911179E+06 -4.790882E+05  1.316164E+05 -1.954408E+06  1.100969E+05  5.016699E+03
        22  27 -4.952413E+06 -5.346509E+05  1.633376E+05 -2.001999E+06  5.562434E+04 -1.269183E+04
        23   1 -6.560866E+06 -1.149104E+06 -2.481224E+05 -2.429503E+06 -4.292396E+04  1.525528E+04
        23   2 -6.504656E+06 -1.090709E+06 -2.061793E+05 -2.388072E+06 -2.915414E+04  1.695936E+04
        23   3 -6.414032E+06 -1.082164E+06 -1.763977E+05 -2.389260E+06 -1.520352E+04  1.817162E+04
        23   4 -5.800457E+06 -8.599952E+05 -4.701430E+04 -2.220156E+06 -4.438836E+04  1.470115E+04
        23   5 -5.817046E+06 -8.308677E+05 -2.449917E+04 -2.200420E+06 -3.085510E+04  1.631773E+04
        23   6 -5.799174E+06 -8.515315E+05 -1.394393E+04 -2.223301E+06 -1.714278E+04  1.744207E+04
        23   7 -5.039483E+06 -5.708487E+05  1.540437E+05 -2.010573E+06 -4.585472E+04  1.414627E+04
        23   8 -5.128975E+06 -5.709979E+05  1.571398E+05 -2.012577E+06 -3.255812E+04  1.567532E+04
        23   9 -5.183948E+06 -6.208778E+05  1.484767E+05 -2.057193E+06 -1.908416E+04  1.671174E+04
        23  10 -6.560868E+06 -1.149105E+06 -2.481263E+05 -2.429502E+06 -1.154416E-09 -1.123830E-09
        23  11 -6.504657E+06 -1.090709E+06 -2.061815E+05 -2.388072E+06  3.784887E-10  1.267248E-09
        23  12 -6.414033E+06 -1.082164E+06 -1.763988E+05 -2.389260E+06  8.230402E-09  2.623507E-09
        23  13 -5.800459E+06 -8.599960E+05 -4.701843E+04 -2.220155E+06 -2.877686E-09 -5.722765E-10
        23  14 -5.817047E+06 -8.308683E+05 -2.450147E+04 -2.200419E+06  1.434595E-09  4.343447E-10
        23  15 -5.799174E+06 -8.515319E+05 -1.394505E+04 -2.223301E+06 -8.487187E-10  1.314654E-09
        23  16 -5.039485E+06 -5.708495E+05  1.540393E+05 -2.010573E+06 -1.523035E-09 -1.470347E-09
        23  17 -5.128976E+06 -5.709984E+05  1.571373E+05 -2.012577E+06 -7.947693E-09 -1.733846E-09
        23  18 -5.183948E+06 -6.208782E+05  1.484755E+05 -2.057193E+06 -8.788316E-09  1.096514E-09
        23  19 -6.560866E+06 -1.149104E+06 -2.481224E+05 -2.429503E+06  4.292396E+04 -1.525528E+04
        23  20 -6.504656E+06 -1.090709E+06 -2.061793E+05 -2.388072E+06  2.915414E+04 -1.695936E+04
        23  21 -6.414032E+06 -1.082164E+06 -1.763977E+05 -2.389260E+06  1.520352E+04 -1.817162E+04
        23  22 -5.800457E+06 -8.599952E+05 -4.701430E+04 -2.220156E+06  4.438836E+04 -1.470115E+04
        23  23 -5.817046E+06 -8.308677E+05 -2.449917E+04 -2.200420E+06  3.085510E+04 -1.631773E+04
        23  24 -5.799174E+06 -8.515315E+05 -1.394393E+04 -2.223301E+06  1.714278E+04 -1.744207E+04
        23  25 -5.039483E+06 -5.708487E+05  1.540437E+05 -2.010573E+06  4.585472E+04 -1.414627E+04
        23  26 -5.128975E+06 -5.709979E+05  1.571398E+05 -2.012577E+06  3.255812E+04 -1.567532E+04
        23  27 -5.183948E+06 -6.208778E+05  1.484767E+05 -2.057193E+06  1.908416E+04 -1.671174E+04
        24   1 -6.301373E+06 -1.044641E+06 -1.437976E+05 -2.361986E+06 -1.231860E+04  1.671544E+04
        24   2 -6.235392E+06 -9.860852E+05 -1.161342E+05 -2.310558E+06 -7.456620E+03  1.403702E+04
        24   3 -6.122623E+06 -9.761753E+05 -9.127319E+04 -2.313312E+06 -2.514978E+03  1.113607E+04
        24   4 -5.796848E+06 -8.544354E+05 -1.087396E+04 -2.224669E+06 -1.428780E+04  1.597559E+04
        24   5 -5.820173E+06 -8.296835E+05 -6.537910E+03 -2.197737E+06 -9.537079E+03  1.325648E+04
        24   6 -5.796697E+06 -8.535526E+05 -4.913776E+03 -2.224988E+06 -4.707302E+03  1.031474E+04
        24   7 -5.292072E+06 -6.642134E+05  1.220285E+05 -2.087249E+06 -1.625878E+04  1.523507E+04
        24   8 -5.404785E+06 -6.732716E+05  1.030433E+05 -2.084847E+06 -1.161908E+04  1.247536E+04
        24   9 -5.470671E+06 -7.309246E+05  8.143566E+04 -2.136622E+06 -6.900882E+03  9.492944E+03
        24  10 -6.301373E+06 -1.044641E+06 -1.437984E+05 -2.361986E+06 -6.155643E-10  8.259342E-10
        24  11 -6.235393E+06 -9.860854E+05 -1.161347E+05 -2.310558E+06  1.635600E-09 -1.228956E-09
        24  12 -6.122623E+06 -9.761755E+05 -9.127343E+04 -2.313312E+06  2.911679E-09  3.407329E-10
        24  13 -5.796849E+06 -8.544358E+05 -1.087482E+04 -2.224669E+06 -6.381612E-10  1.203628E-09
        24  14 -5.820173E+06 -8.296837E+05 -6.538410E+03 -2.197737E+06 -1.900220E-09 -4.177747E-10
        24  15 -5.796697E+06 -8.535527E+05 -4.914017E+03 -2.224988E+06  8.907257E-10  1.216318E-09
        24  16 -5.292073E+06 -6.642138E+05  1.220275E+05 -2.087249E+06  3.835971E-09  3.058427E-09
        24  17 -5.404785E+06 -6.732718E+05  1.030427E+05 -2.084847E+06  3.165607E-09  1.204796E-09
        24  18 -5.470671E+06 -7.309247E+05  8.143541E+04 -2.136622E+06 -3.190497E-10  7.485872E-10
        24  19 -6.301373E+06 -1.044641E+06 -1.437976E+05 -2.361986E+06  1.231860E+04 -1.671544E+04
        24  20 -6.235392E+06 -9.860852E+05 -1.161342E+05 -2.310558E+06  7.456620E+03 -1.403702E+04
        24  21 -6.122623E+06 -9.761753E+05 -9.127319E+04 -2.313312E+06  2.514978E+03 -1.113607E+04
        24  22 -5.796848E+06 -8.544354E+05 -1.087396E+04 -2.224669E+06  1.428780E+04 -1.597559E+04
        24  23 -5.820173E+06 -8.296835E+05 -6.537910E+03 -2.197737E+06  9.537079E+03 -1.325648E+04
        24  24 -5.796697E+06 -8.535526E+05 -4.913776E+03 -2.224988E+06  4.707302E+03 -1.031474E+04
        24  25 -5.292072E+06 -6.642134E+05  1.220285E+05 -2.087249E+06  1.625878E+04 -1.523507E+04
        24  26 -5.404785E+06 -6.732716E+05  1.030433E+05 -2.084847E+06  1.161908E+04 -1.247536E+04
        24  27 -5.470671E+06 -7.309246E+05  8.143566E+04 -2.136622E+06  6.900882E+03 -9.492944E+03
        25   1 -5.997003E+06 -9.301983E+05 -5.753499E+04 -2.280702E+06 -7.428765E+02  8.930428E+03
        25   2 -5.925623E+06 -8.679145E+05 -3.331775E+04 -2.224877E+06  3.791278E+03  5.651545E+03
        25   3 -5.803745E+06 -8.579195E+05 -1.154621E+04 -2.227765E+06  8.340879E+03  2.329771E+03
        25   4 -5.795869E+06 -8.544408E+05 -4.794636E+03 -2.225960E+06 -2.969118E+03  8.096915E+03
        25   5 -5.821156E+06 -8.285774E+05 -5.751041E+03 -2.196498E+06  1.543447E+03  4.810204E+03
        25   6 -5.795950E+06 -8.549985E+05 -9.134929E+03 -2.225752E+06  6.070958E+03  1.480455E+03
        25   7 -5.594695E+06 -7.786806E+05  4.794250E+04 -2.171201E+06 -5.196166E+03  7.263099E+03
        25   8 -5.716678E+06 -7.892393E+05  2.181494E+04 -2.168114E+06 -7.048180E+02  3.968702E+03
        25   9 -5.788155E+06 -8.520776E+05 -6.723610E+03 -2.223740E+06  3.800983E+03  6.311191E+02
        25  10 -5.997003E+06 -9.301984E+05 -5.753514E+04 -2.280702E+06  5.782888E-10  6.172542E-10
        25  11 -5.925623E+06 -8.679145E+05 -3.331784E+04 -2.224877E+06 -1.820944E-09 -5.136717E-10
        25  12 -5.803745E+06 -8.579195E+05 -1.154635E+04 -2.227765E+06  1.944117E-09 -5.972077E-10
        25  13 -5.795869E+06 -8.544409E+05 -4.794775E+03 -2.225960E+06 -2.509321E-09  1.454440E-09
        25  14 -5.821156E+06 -8.285774E+05 -5.751089E+03 -2.196498E+06  2.243424E-09 -3.654836E-10
        25  15 -5.795950E+06 -8.549985E+05 -9.135004E+03 -2.225752E+06 -2.482396E-09 -9.358692E-10
        25  16 -5.594695E+06 -7.786806E+05  4.794235E+04 -2.171201E+06 -1.047296E-09  4.115374E-10
        25  17 -5.716678E+06 -7.892393E+05  2.181491E+04 -2.168114E+06  4.275215E-09  7.803553E-10
        25  18 -5.788155E+06 -8.520776E+05 -6.723638E+03 -2.223740E+06 -8.020452E-10 -9.756722E-10
        25  19 -5.997003E+06 -9.301983E+05 -5.753499E+04 -2.280702E+06  7.428765E+02 -8.930428E+03
        25  20 -5.925623E+06 -8.679145E+05 -3.331775E+04 -2.224877E+06 -3.791278E+03 -5.651545E+03
        25  21 -5.803745E+06 -8.579195E+05 -1.154621E+04 -2.227765E+06 -8.340879E+03 -2.329771E+03
        25  22 -5.795869E+06 -8.544408E+05 -4.794636E+03 -2.225960E+06  2.969118E+03 -8.096915E+03
        25  23 -5.821156E+06 -8.285774E+05 -5.751041E+03 -2.196498E+06 -1.543447E+03 -4.810204E+03
        25  24 -5.795950E+06 -8.549985E+05 -9.134929E+03 -2.225752E+06 -6.070958E+03 -1.480455E+03
        25  25 -5.594695E+06 -7.786806E+05  4.794250E+04 -2.171201E+06  5.196166E+03 -7.263099E+03
        25  26 -5.716678E+06 -7.892393E+05  2.181494E+04 -2.168114E+06  7.048180E+02 -3.968702E+03
        25  27 -5.788155E+06 -8.520776E+05 -6.723610E+03 -2.223740E+06 -3.800983E+03 -6.311191E+02
        26   1 -5.675435E+06 -8.093340E+05  2.052141E+04 -2.194342E+06  1.103211E+04  3.711723E+02
        26   2 -5.604666E+06 -7.465349E+05  3.673537E+04 -2.138082E+06  2.274957E+04 -2.198208E+02
        26   3 -5.487943E+06 -7.427822E+05  4.308735E+04 -2.137888E+06  3.438935E+04 -5.927427E+02
        26   4 -5.796608E+06 -8.539443E+05 -1.161727E+04 -2.226124E+06  8.736494E+03 -4.878481E+02
        26   5 -5.820081E+06 -8.278428E+05 -2.013491E+04 -2.196816E+06  2.056158E+04 -1.039187E+03
        26   6 -5.797632E+06 -8.608129E+05 -3.860306E+04 -2.223579E+06  3.230733E+04 -1.373057E+03
        26   7 -5.917765E+06 -8.985536E+05 -4.375692E+04 -2.257901E+06  6.441395E+03 -1.346685E+03
        26   8 -6.035450E+06 -9.091474E+05 -7.700887E+04 -2.255532E+06  1.837445E+04 -1.858233E+03
        26   9 -6.107227E+06 -9.788369E+05 -1.203016E+05 -2.309231E+06  3.022646E+04 -2.152929E+03
        26  10 -5.675435E+06 -8.093340E+05  2.052118E+04 -2.194342E+06 -5.573790E-10  4.082929E-10
        26  11 -5.604667E+06 -7.465350E+05  3.673438E+04 -2.138082E+06  1.002469E-09  2.430729E-09
        26  12 -5.487945E+06 -7.427825E+05  4.308511E+04 -2.137888E+06  4.393564E-09 -9.142004E-10
        26  13 -5.796608E+06 -8.539444E+05 -1.161742E+04 -2.226124E+06  7.083390E-11  1.555518E-10
        26  14 -5.820082E+06 -8.278429E+05 -2.013571E+04 -2.196816E+06 -3.638502E-09  1.153354E-09
        26  15 -5.797633E+06 -8.608131E+05 -3.860504E+04 -2.223579E+06 -3.828637E-10 -1.727550E-09
        26  16 -5.917765E+06 -8.985536E+05 -4.375700E+04 -2.257900E+06  9.235593E-10  1.825813E-10
        26  17 -6.035450E+06 -9.091475E+05 -7.700951E+04 -2.255532E+06 -1.430056E-09 -3.488818E-11
        26  18 -6.107228E+06 -9.788371E+05 -1.203034E+05 -2.309231E+06 -3.916277E-09 -3.197991E-09
        26  19 -5.675435E+06 -8.093340E+05  2.052141E+04 -2.194342E+06 -1.103211E+04 -3.711723E+02
        26  20 -5.604666E+06 -7.465349E+05  3.673537E+04 -2.138082E+06 -2.274957E+04  2.198208E+02
        26  21 -5.487943E+06 -7.427822E+05  4.308735E+04 -2.137888E+06 -3.438935E+04  5.927427E+02
        26  22 -5.796608E+06 -8.539443E+05 -1.161727E+04 -2.226124E+06 -8.736494E+03  4.878481E+02
        26  23 -5.820081E+06 -8.278428E+05 -2.013491E+04 -2.196816E+06 -2.056158E+04  1.039187E+03
        26  24 -5.797632E+06 -8.608129E+05 -3.860306E+04 -2.223579E+06 -3.230733E+04  1.373057E+03
        26  25 -5.917765E+06 -8.985536E+05 -4.375692E+04 -2.257901E+06 -6.441395E+03  1.346685E+03
        26  26 -6.035450E+06 -9.091474E+05 -7.700887E+04 -2.255532E+06 -1.837445E+04  1.858233E+03
        26  27 -6.107227E+06 -9.788369E+05 -1.203016E+05 -2.309231E+06 -3.022646E+04  2.152929E+03
        27   1 -5.364281E+06 -6.947675E+05  6.454565E+04 -2.118163E+06  4.283907E+04 -4.357460E+02
        27   2 -5.298865E+06 -6.223480E+05  4.962996E+04 -2.054881E+06  8.825910E+04  1.213491E+04
        27   3 -5.224617E+06 -6.770910E+05 -2.048785E+04 -2.023138E+06  1.330181E+05  2.649715E+04
        27   4 -5.802322E+06 -8.505339E+05 -4.957534E+04 -2.227671E+06  4.035822E+04 -1.365384E+03
        27   5 -5.811521E+06 -8.203921E+05 -8.655123E+04 -2.199378E+06  8.665807E+04  1.153226E+04
        27   6 -5.812103E+06 -9.176417E+05 -1.794710E+05 -2.202628E+06  1.322907E+05  2.621750E+04
        27   7 -6.240178E+06 -1.006294E+06 -1.637127E+05 -2.337111E+06  3.787928E+04 -2.294395E+03
        27   8 -6.323920E+06 -1.018417E+06 -2.227556E+05 -2.343764E+06  8.505847E+04  1.093018E+04
        27   9 -6.399250E+06 -1.158154E+06 -3.384852E+05 -2.381956E+06  1.315641E+05  2.593817E+04
        27  10 -5.364283E+06 -6.947680E+05  6.454217E+04 -2.118163E+06  3.011873E-09 -2.594553E-09
        27  11 -5.298874E+06 -6.223503E+05  4.961490E+04 -2.054882E+06  9.245842E-10 -1.640445E-10
        27  12 -5.224636E+06 -6.770966E+05 -2.052275E+04 -2.023141E+06 -4.302440E-10  3.527354E-10
        27  13 -5.802324E+06 -8.505344E+05 -4.957843E+04 -2.227671E+06 -1.633647E-09 -2.042377E-09
        27  14 -5.811529E+06 -8.203943E+05 -8.656574E+04 -2.199379E+06 -3.010157E-09  5.538797E-11
        27  15 -5.812122E+06 -9.176472E+05 -1.795055E+05 -2.202631E+06 -6.455040E-10  3.166486E-10
        27  16 -6.240180E+06 -1.006295E+06 -1.637155E+05 -2.337111E+06  2.444917E-09 -2.429249E-09
        27  17 -6.323928E+06 -1.018419E+06 -2.227696E+05 -2.343765E+06  2.244429E-09 -4.176196E-10
        27  18 -6.399269E+06 -1.158159E+06 -3.385194E+05 -2.381959E+06 -5.534236E-10  1.371841E-09
        27  19 -5.364281E+06 -6.947675E+05  6.454565E+04 -2.118163E+06 -4.283907E+04  4.357460E+02
        27  20 -5.298865E+06 -6.223480E+05  4.962996E+04 -2.054881E+06 -8.825910E+04 -1.213491E+04
        27  21 -5.224617E+06 -6.770910E+05 -2.048785E+04 -2.023138E+06 -1.330181E+05 -2.649715E+04
        27  22 -5.802322E+06 -8.505339E+05 -4.957534E+04 -2.227671E+06 -4.035822E+04  1.365384E+03
        27  23 -5.811521E+06 -8.203921E+05 -8.655123E+04 -2.199378E+06 -8.665807E+04 -1.153226E+04
        27  24 -5.812103E+06 -9.176417E+05 -1.794710E+05 -2.202628E+06 -1.322907E+05 -2.621750E+04
        27  25 -6.240178E+06 -1.006294E+06 -1.637127E+05 -2.337111E+06 -3.787928E+04  2.294395E+03
        27  26 -6.323920E+06 -1.018417E+06 -2.227556E+05 -2.343764E+06 -8.505847E+04 -1.093018E+04
        27  27 -6.399250E+06 -1.158154E+06 -3.384852E+05 -2.381956E+06 -1.315641E+05 -2.593817E+04
        28   1 -5.077714E+06 -6.220815E+05 -3.568180E+04 -2.130392E+06  1.717522E+05  3.540170E+04
        28   2 -5.019515E+06 -4.057115E+05 -1.649038E+05 -1.953074E+06  3.625207E+05  1.045976E+05
        28   3 -5.246038E+06 -1.008291E+06 -6.509588E+05 -1.612208E+06  5.453098E+05  1.950804E+05
        28   4 -5.842569E+06 -8.257818E+05 -2.211066E+05 -2.251692E+06  1.650139E+05  3.289553E+04
        28   5 -5.745931E+06 -7.389670E+05 -3.677440E+05 -2.211905E+06  3.664355E+05  1.060255E+05
        28   6 -5.936595E+06 -1.473915E+06 -8.800626E+05 -2.008457E+06  5.598827E+05  2.003470E+05
        28   7 -6.606840E+06 -1.029498E+06 -4.065685E+05 -2.372887E+06  1.582847E+05  3.039047E+04
        28   8 -6.471818E+06 -1.072111E+06 -5.706329E+05 -2.470434E+06  3.703451E+05  1.074503E+05
        28   9 -6.626578E+06 -1.939099E+06 -1.109203E+06 -2.404201E+06  5.744374E+05  2.055944E+05
        28  10 -5.077746E+06 -6.220909E+05 -3.574013E+04 -2.130397E+06 -7.732594E-10  1.910592E-10
        28  11 -5.019660E+06 -4.057590E+05 -1.651738E+05 -1.953105E+06  2.651685E-09  1.794321E-10
        28  12 -5.246370E+06 -1.008413E+06 -6.515950E+05 -1.612294E+06 -1.333823E-10 -1.908249E-10
        28  13 -5.842599E+06 -8.257904E+05 -2.211603E+05 -2.251696E+06 -1.422597E-09 -7.199874E-11
        28  14 -5.746080E+06 -7.390157E+05 -3.680204E+05 -2.211937E+06 -2.722339E-09  5.720686E-12
        28  15 -5.936945E+06 -1.474044E+06 -8.807343E+05 -2.008548E+06  8.484034E-10 -2.426601E-10
        28  16 -6.606868E+06 -1.029505E+06 -4.066179E+05 -2.372891E+06  8.830742E-10  4.121558E-10
        28  17 -6.471970E+06 -1.072161E+06 -5.709157E+05 -2.470466E+06  1.302706E-09 -3.628755E-10
        28  18 -6.626947E+06 -1.939235E+06 -1.109911E+06 -2.404297E+06  1.188147E-09 -2.869826E-10
        28  19 -5.077714E+06 -6.220815E+05 -3.568180E+04 -2.130392E+06 -1.717522E+05 -3.540170E+04
        28  20 -5.019515E+06 -4.057115E+05 -1.649038E+05 -1.953074E+06 -3.625207E+05 -1.045976E+05
        28  21 -5.246038E+06 -1.008291E+06 -6.509588E+05 -1.612208E+06 -5.453098E+05 -1.950804E+05
        28  22 -5.842569E+06 -8.257818E+05 -2.211066E+05 -2.251692E+06 -1.650139E+05 -3.289553E+04
        28  23 -5.745931E+06 -7.389670E+05 -3.677440E+05 -2.211905E+06 -3.664355E+05 -1.060255E+05
        28  24 -5.936595E+06 -1.473915E+06 -8.800626E+05 -2.008457E+06 -5.598827E+05 -2.003470E+05
        28  25 -6.606840E+06 -1.029498E+06 -4.065685E+05 -2.372887E+06 -1.582847E+05 -3.039047E+04
        28  26 -6.471818E+06 -1.072111E+06 -5.706329E+05 -2.470434E+06 -3.703451E+05 -1.074503E+05
        28  27 -6.626578E+06 -1.939099E+06 -1.109203E+06 -2.404201E+06 -5.744374E+05 -2.055944E+05
        29   1  2.929374E+05  1.144942E+05  3.226110E+05 -2.074789E+05  6.358323E+02  1.977300E+05
        29   2  7.462116E+04  4.575198E+04  1.676509E+05 -1.132980E+05  2.579616E+03  1.143325E+05
        29   3  1.499239E+04  2.750508E+04  1.066650E+05 -2.883565E+04  1.418789E+03  3.093344E+04
        29   4  2.626921E+05 -3.992892E+03  2.940020E+05 -4.310404E+04  6.990785E+02  1.922800E+05
        29   5  5.621055E+04 -2.879366E+04  1.519875E+05 -3.850511E+04  2.594068E+03  1.139980E+05
        29   6  7.511720E+03 -3.993318E+03  1.004028E+05 -4.361266E+04  1.408335E+03  3.570827E+04
        29   7  2.325473E+05 -1.224092E+05  2.654067E+05  1.212392E+05  7.594488E+02  1.868311E+05
        29   8  3.782057E+04 -1.033221E+05  1.363269E+05  3.627863E+04  2.608442E+03  1.136634E+05
        29   9  3.182648E+01 -3.549025E+04  9.414066E+04 -5.838890E+04  1.397653E+03  4.048287E+04
        29  10  2.929269E+05  1.144522E+05  3.225375E+05 -2.074790E+05  1.311512E-09  1.748033E-09
        29  11  7.461765E+04  4.573794E+04  1.676263E+05 -1.132982E+05 -2.504815E-09 -1.523601E-08
        29  12  1.499213E+04  2.750405E+04  1.066632E+05 -2.883569E+04  3.400525E-10 -3.133278E-08
        29  13  2.626822E+05 -4.032585E+03  2.939326E+05 -4.310414E+04  6.273854E-10 -5.228901E-10
        29  14  5.620705E+04 -2.880761E+04  1.519631E+05 -3.850535E+04  1.067946E-09  5.235065E-10
        29  15  7.511376E+03 -3.994688E+03  1.004004E+05 -4.361270E+04  9.159470E-09  4.797931E-10
        29  16  2.325380E+05 -1.224467E+05  2.653411E+05  1.212391E+05 -7.903189E-10 -1.772988E-09
        29  17  3.781710E+04 -1.033359E+05  1.363026E+05  3.627839E+04 -3.557282E-09  1.599168E-08
        29  18  3.138442E+01 -3.549201E+04  9.413758E+04 -5.838895E+04 -3.271985E-09  3.128574E-08
        29  19  2.929374E+05  1.144942E+05  3.226110E+05 -2.074789E+05 -6.358323E+02 -1.977300E+05
        29  20  7.462116E+04  4.575198E+04  1.676509E+05 -1.132980E+05 -2.579616E+03 -1.143325E+05
        29  21  1.499239E+04  2.750508E+04  1.066650E+05 -2.883565E+04 -1.418789E+03 -3.093344E+04
        29  22  2.626921E+05 -3.992892E+03  2.940020E+05 -4.310404E+04 -6.990785E+02 -1.922800E+05
        29  23  5.621055E+04 -2.879366E+04  1.519875E+05 -3.850511E+04 -2.594068E+03 -1.139980E+05
        29  24  7.511720E+03 -3.993318E+03  1.004028E+05 -4.361266E+04 -1.408335E+03 -3.570827E+04
        29  25  2.325473E+05 -1.224092E+05  2.654067E+05  1.212392E+05 -7.594488E+02 -1.868311E+05
        29  26  3.782057E+04 -1.033221E+05  1.363269E+05  3.627863E+04 -2.608442E+03 -1.136634E+05
        29  27  3.182648E+01 -3.549025E+04  9.414066E+04 -5.838890E+04 -1.397653E+03 -4.048287E+04
        30   1  1.225361E+04 -9.940404E+03  9.105564E+04 -5.176102E+04 -3.121451E+02  1.645579E+04
        30   2 -4.913742E+03 -5.932194E+04  8.115048E+04 -3.762004E+04 -2.828238E+03 -2.735045E+04
        30   3  1.117813E+02 -9.749380E+04  1.053111E+05 -3.354452E+04 -5.177663E+03 -7.115408E+04
        30   4  1.150837E+04 -1.251622E+04  9.010380E+04 -4.362514E+04 -3.210053E+02  2.090939E+04
        30   5  4.764321E+03 -1.814325E+04  8.833674E+04 -3.858385E+04 -2.836638E+03 -2.317682E+04
        30   6  2.026054E+04 -1.251531E+04  1.208285E+05 -4.360727E+04 -5.184331E+03 -6.726334E+04
        30   7  1.076338E+04 -1.509184E+04  8.915208E+04 -3.548928E+04 -3.297487E+02  2.536296E+04
        30   8  1.444230E+04  2.303715E+04  9.552300E+04 -3.954774E+04 -2.845050E+03 -1.900292E+04
        30   9  4.040928E+04  7.247045E+04  1.363456E+05 -5.367142E+04 -5.191125E+03 -6.337207E+04
        30  10  1.225354E+04 -9.940694E+03  9.105513E+04 -5.176102E+04 -2.610123E-09  3.176881E-08
        30  11 -4.913951E+03 -5.932275E+04  8.114906E+04 -3.762010E+04 -1.426977E-09  1.887970E-08
        30  12  1.103932E+02 -9.749924E+04  1.053015E+05 -3.354482E+04 -2.205352E-09 -1.395878E-11
        30  13  1.150825E+04 -1.251669E+04  9.010298E+04 -4.362513E+04  6.045029E-09 -5.906106E-10
        30  14  4.764168E+03 -1.814383E+04  8.833571E+04 -3.858391E+04  1.544599E-09  4.639900E-10
        30  15  2.025930E+04 -1.252017E+04  1.208199E+05 -4.360755E+04  1.913873E-09  4.439094E-10
        30  16  1.076321E+04 -1.509253E+04  8.915087E+04 -3.548928E+04 -3.716117E-09 -3.189051E-08
        30  17  1.444220E+04  2.303676E+04  9.552230E+04 -3.954778E+04 -1.570155E-09 -1.812432E-08
        30  18  4.040817E+04  7.246613E+04  1.363380E+05 -5.367169E+04  2.934580E-10  2.433858E-11
        30  19  1.225361E+04 -9.940404E+03  9.105564E+04 -5.176102E+04  3.121451E+02 -1.645579E+04
        30  20 -4.913742E+03 -5.932194E+04  8.115048E+04 -3.762004E+04  2.828238E+03  2.735045E+04
        30  21  1.117813E+02 -9.749380E+04  1.053111E+05 -3.354452E+04  5.177663E+03  7.115408E+04
        30  22  1.150837E+04 -1.251622E+04  9.010380E+04 -4.362514E+04  3.210053E+02 -2.090939E+04
        30  23  4.764321E+03 -1.814325E+04  8.833674E+04 -3.858385E+04  2.836638E+03  2.317682E+04
        30  24  2.026054E+04 -1.251531E+04  1.208285E+05 -4.360727E+04  5.184331E+03  6.726334E+04
        30  25  1.076338E+04 -1.509184E+04  8.915208E+04 -3.548928E+04  3.297487E+02 -2.536296E+04
        30  26  1.444230E+04  2.303715E+04  9.552300E+04 -3.954774E+04  2.845050E+03  1.900292E+04
        30  27  4.040928E+04  7.247045E+04  1.363456E+05 -5.367142E+04  5.191125E+03  6.337207E+04
        31   1 -1.421687E+04 -1.100553E+05  1.275515E+05 -7.093632E+04 -6.806203E+03 -9.204527E+04
        31   2  5.989750E+04 -1.952858E+05  2.210514E+05  9.033702E+04 -6.804615E+03 -2.140179E+05
        31   3  4.067778E+05 -1.964135E+05  4.622181E+05  2.421875E+05 -1.848459E+03 -3.359692E+05
        31   4  1.264723E+04  3.980362E+03  1.484899E+05 -4.358877E+04 -6.819144E+03 -8.758637E+04
        31   5  9.809221E+04 -3.875136E+04  2.525668E+05 -3.843672E+04 -6.752487E+03 -2.178902E+05
        31   6  4.576173E+05  3.983031E+03  5.100603E+05 -4.271487E+04 -1.670477E+03 -3.481828E+05
        31   7  3.951344E+04  1.180303E+05  1.694282E+05 -1.623605E+04 -6.831690E+03 -8.312667E+04
        31   8  1.363477E+05  1.178421E+05  2.840899E+05 -1.672436E+05 -6.698762E+03 -2.217635E+05
        31   9  5.087589E+05  2.045908E+05  5.579438E+05 -3.277100E+05 -1.481330E+03 -3.604004E+05
        31  10 -1.421919E+04 -1.100644E+05  1.275355E+05 -7.093683E+04  1.183271E-10  4.702419E-09
        31  11  5.988516E+04 -1.953350E+05  2.209652E+05  9.033585E+04  2.641539E-09  3.534899E-09
        31  12  4.067475E+05 -1.965347E+05  4.620059E+05  2.421870E+05  2.013945E-09 -8.117035E-11
        31  13  1.264512E+04  3.972113E+03  1.484754E+05 -4.358925E+04 -3.546665E-09 -5.928595E-10
        31  14  9.807942E+04 -3.880234E+04  2.524775E+05 -3.843791E+04  6.248453E-10  4.114801E-10
        31  15  4.575848E+05  3.852897E+03  5.098325E+05 -4.271534E+04  2.070742E-09  4.821621E-10
        31  16  3.951153E+04  1.180229E+05  1.694151E+05 -1.623651E+04 -4.419860E-10 -4.618934E-09
        31  17  1.363344E+05  1.177893E+05  2.839974E+05 -1.672448E+05 -1.990594E-09 -2.815890E-09
        31  18  5.087241E+05  2.044514E+05  5.576998E+05 -3.277104E+05 -1.664503E-10  2.619867E-10
        31  19 -1.421687E+04 -1.100553E+05  1.275515E+05 -7.093632E+04  6.806203E+03  9.204527E+04
        31  20  5.989750E+04 -1.952858E+05  2.210514E+05  9.033702E+04  6.804615E+03  2.140179E+05
        31  21  4.067778E+05 -1.964135E+05  4.622181E+05  2.421875E+05  1.848459E+03  3.359692E+05
        31  22  1.264723E+04  3.980362E+03  1.484899E+05 -4.358877E+04  6.819144E+03  8.758637E+04
        31  23  9.809221E+04 -3.875136E+04  2.525668E+05 -3.843672E+04  6.752487E+03  2.178902E+05
        31  24  4.576173E+05  3.983031E+03  5.100603E+05 -4.271487E+04  1.670477E+03  3.481828E+05
        31  25  3.951344E+04  1.180303E+05  1.694282E+05 -1.623605E+04  6.831690E+03  8.312667E+04
        31  26  1.363477E+05  1.178421E+05  2.840899E+05 -1.672436E+05  6.698762E+03  2.217635E+05
        31  27  5.087589E+05  2.045908E+05  5.579438E+05 -3.277100E+05  1.481330E+03  3.604004E+05
        32   1 -3.900994E+06 -1.178206E+06 -6.772459E+05 -1.393458E+06 -2.836730E+05 -9.466030E+04
        32   2 -3.795145E+06 -7.399613E+05 -4.063399E+05 -1.398994E+06 -1.848801E+05 -3.301731E+04
        32   3 -3.802911E+06 -7.144034E+05 -3.172490E+05 -1.353937E+06 -7.702368E+04  4.611396E+03
        32   4 -3.007608E+06 -7.436888E+05 -4.146328E+05 -1.051507E+06 -2.667693E+05 -8.834482E+04
        32   5 -2.930208E+06 -3.861182E+05 -1.735146E+05 -1.134141E+06 -1.801993E+05 -3.126969E+04
        32   6 -2.963785E+06 -4.384955E+05 -1.042843E+05 -1.166243E+06 -8.457892E+04  1.775809E+03
        32   7 -2.113431E+06 -3.089621E+05 -1.520995E+05 -7.090599E+05 -2.498387E+05 -8.201251E+04
        32   8 -2.064544E+06 -3.219309E+04  5.924271E+04 -8.689408E+05 -1.755112E+05 -2.951877E+04
        32   9 -2.123973E+06 -1.625827E+05  1.086253E+05 -9.783364E+05 -9.214538E+04 -1.062762E+03
        32  10 -3.901084E+06 -1.178237E+06 -6.774151E+05 -1.393480E+06  3.194310E-11  4.170667E-10
        32  11 -3.795182E+06 -7.399717E+05 -4.064066E+05 -1.398999E+06  1.384935E-09  1.235387E-09
        32  12 -3.802918E+06 -7.144050E+05 -3.172602E+05 -1.353937E+06  1.194186E-09 -1.618058E-10
        32  13 -3.007687E+06 -7.437164E+05 -4.147820E+05 -1.051526E+06 -2.523125E-09  1.292896E-10
        32  14 -2.930244E+06 -3.861280E+05 -1.735778E+05 -1.134146E+06  1.985761E-09  1.238062E-09
        32  15 -2.963793E+06 -4.384975E+05 -1.042978E+05 -1.166243E+06 -6.121544E-10 -1.832603E-10
        32  16 -2.113500E+06 -3.089862E+05 -1.522299E+05 -7.090765E+05  1.496294E-10  6.574504E-10
        32  17 -2.064577E+06 -3.220234E+04  5.918297E+04 -8.689450E+05 -5.728693E-10  8.118223E-10
        32  18 -2.123982E+06 -1.625850E+05  1.086093E+05 -9.783365E+05 -6.431737E-10  1.515529E-10
        32  19 -3.900994E+06 -1.178206E+06 -6.772459E+05 -1.393458E+06  2.836730E+05  9.466030E+04
        32  20 -3.795145E+06 -7.399613E+05 -4.063399E+05 -1.398994E+06  1.848801E+05  3.301731E+04
        32  21 -3.802911E+06 -7.144034E+05 -3.172490E+05 -1.353937E+06  7.702368E+04 -4.611396E+03
        32  22 -3.007608E+06 -7.436888E+05 -4.146328E+05 -1.051507E+06  2.667693E+05  8.834482E+04
        32  23 -2.930208E+06 -3.861182E+05 -1.735146E+05 -1.134141E+06  1.801993E+05  3.126969E+04
        32  24 -2.963785E+06 -4.384955E+05 -1.042843E+05 -1.166243E+06  8.457892E+04 -1.775809E+03
        32  25 -2.113431E+06 -3.089621E+05 -1.520995E+05 -7.090599E+05  2.498387E+05  8.201251E+04
        32  26 -2.064544E+06 -3.219309E+04  5.924271E+04 -8.689408E+05  1.755112E+05  2.951877E+04
        32  27 -2.123973E+06 -1.625827E+05  1.086253E+05 -9.783364E+05  9.214538E+04  1.062762E+03
        33   1 -3.644434E+06 -7.527223E+05 -2.697297E+05 -1.342149E+06 -6.728984E+04  2.007913E+03
        33   2 -3.574656E+06 -6.567647E+05 -2.026628E+05 -1.297114E+06 -4.436024E+04  8.265683E+03
        33   3 -3.475890E+06 -6.456786E+05 -1.626407E+05 -1.295265E+06 -2.072039E+04  1.262718E+04
        33   4 -2.949107E+06 -4.820693E+05 -8.467110E+04 -1.143506E+06 -6.790698E+04  1.772964E+03
        33   5 -2.961423E+06 -4.239038E+05 -4.091286E+04 -1.127831E+06 -4.592907E+04  7.675616E+03
        33   6 -2.944553E+06 -4.503927E+05 -2.341760E+04 -1.155346E+06 -2.324451E+04  1.168110E+04
        33   7 -2.253307E+06 -2.113769E+05  1.003458E+05 -9.446574E+05 -6.852486E+04  1.537722E+03
        33   8 -2.347824E+06 -1.910176E+05  1.208050E+05 -9.583960E+05 -4.749959E+04  7.084901E+03
        33   9 -2.412941E+06 -2.550930E+05  1.157816E+05 -1.015319E+06 -2.577101E+04  1.073418E+04
        33  10 -3.644439E+06 -7.527235E+05 -2.697383E+05 -1.342149E+06 -1.083834E-09 -1.822949E-09
        33  11 -3.574658E+06 -6.567653E+05 -2.026667E+05 -1.297113E+06 -1.874176E-09 -7.560607E-10
        33  12 -3.475890E+06 -6.456789E+05 -1.626418E+05 -1.295264E+06 -1.909955E-09  8.609977E-11
        33  13 -2.949112E+06 -4.820706E+05 -8.467981E+04 -1.143506E+06 -1.342037E-09 -9.986341E-10
        33  14 -2.961426E+06 -4.239044E+05 -4.091695E+04 -1.127831E+06 -1.478822E-09 -7.739370E-10
        33  15 -2.944553E+06 -4.503930E+05 -2.341888E+04 -1.155345E+06 -6.655014E-09 -3.128492E-10
        33  16 -2.253312E+06 -2.113782E+05  1.003370E+05 -9.446573E+05 -3.520070E-09 -1.570593E-10
        33  17 -2.347826E+06 -1.910183E+05  1.208007E+05 -9.583957E+05 -2.961482E-09 -1.234874E-09
        33  18 -2.412942E+06 -2.550933E+05  1.157801E+05 -1.015319E+06  4.979124E-12 -1.699454E-09
        33  19 -3.644434E+06 -7.527223E+05 -2.697297E+05 -1.342149E+06  6.728984E+04 -2.007913E+03
        33  20 -3.574656E+06 -6.567647E+05 -2.026628E+05 -1.297114E+06  4.436024E+04 -8.265683E+03
        33  21 -3.475890E+06 -6.456786E+05 -1.626407E+05 -1.295265E+06  2.072039E+04 -1.262718E+04
        33  22 -2.949107E+06 -4.820693E+05 -8.467110E+04 -1.143506E+06  6.790698E+04 -1.772964E+03
        33  23 -2.961423E+06 -4.239038E+05 -4.091286E+04 -1.127831E+06  4.592907E+04 -7.675616E+03
        33  24 -2.944553E+06 -4.503927E+05 -2.341760E+04 -1.155346E+06  2.324451E+04 -1.168110E+04
        33  25 -2.253307E+06 -2.113769E+05  1.003458E+05 -9.446574E+05  6.852486E+04 -1.537722E+03
        33  26 -2.347824E+06 -1.910176E+05  1.208050E+05 -9.583960E+05  4.749959E+04 -7.084901E+03
        33  27 -2.412941E+06 -2.550930E+05  1.157816E+05 -1.015319E+06  2.577101E+04 -1.073418E+04
        34   1 -3.350376E+06 -6.094002E+05 -1.254381E+05 -1.265341E+06 -1.686310E+04  1.105392E+04
        34   2 -3.280740E+06 -5.454633E+05 -9.241259E+04 -1.212015E+06 -1.040128E+04  8.834994E+03
        34   3 -3.163721E+06 -5.350205E+05 -6.414751E+04 -1.214614E+06 -3.864144E+03  6.407840E+03
        34   4 -2.942170E+06 -4.554604E+05 -1.825187E+04 -1.153669E+06 -1.890786E+04  1.028801E+04
        34   5 -2.965625E+06 -4.270751E+05 -9.545199E+03 -1.126318E+06 -1.254993E+04  8.031034E+03
        34   6 -2.941684E+06 -4.521605E+05 -5.513052E+03 -1.154893E+06 -6.117507E+03  5.565602E+03
        34   7 -2.533803E+06 -3.015105E+05  8.891980E+04 -1.041931E+06 -2.095410E+04  9.521544E+03
        34   8 -2.650413E+06 -3.086808E+05  7.331371E+04 -1.040581E+06 -1.469978E+04  7.226625E+03
        34   9 -2.719598E+06 -3.692975E+05  5.311737E+04 -1.095153E+06 -8.371764E+03  4.723034E+03
        34  10 -3.350376E+06 -6.094004E+05 -1.254389E+05 -1.265341E+06 -2.173170E-09 -1.714471E-10
        34  11 -3.280740E+06 -5.454635E+05 -9.241294E+04 -1.212015E+06  1.026444E-09 -2.659710E-11
        34  12 -3.163721E+06 -5.350205E+05 -6.414762E+04 -1.214614E+06  3.162025E-10  3.161625E-10
        34  13 -2.942170E+06 -4.554606E+05 -1.825274E+04 -1.153669E+06 -2.690181E-09 -5.428732E-10
        34  14 -2.965625E+06 -4.270752E+05 -9.545616E+03 -1.126318E+06  1.646958E-09 -2.108567E-10
        34  15 -2.941684E+06 -4.521606E+05 -5.513181E+03 -1.154893E+06  6.110922E-10 -8.210671E-10
        34  16 -2.533803E+06 -3.015107E+05  8.891880E+04 -1.041931E+06  1.892652E-09 -9.310361E-10
        34  17 -2.650413E+06 -3.086809E+05  7.331321E+04 -1.040581E+06 -1.757603E-09  6.096090E-10
        34  18 -2.719598E+06 -3.692976E+05  5.311719E+04 -1.095153E+06 -2.569503E-09 -4.801189E-10
        34  19 -3.350376E+06 -6.094002E+05 -1.254381E+05 -1.265341E+06  1.686310E+04 -1.105392E+04
        34  20 -3.280740E+06 -5.454633E+05 -9.241259E+04 -1.212015E+06  1.040128E+04 -8.834994E+03
        34  21 -3.163721E+06 -5.350205E+05 -6.414751E+04 -1.214614E+06  3.864144E+03 -6.407840E+03
        34  22 -2.942170E+06 -4.554604E+05 -1.825187E+04 -1.153669E+06  1.890786E+04 -1.028801E+04
        34  23 -2.965625E+06 -4.270751E+05 -9.545199E+03 -1.126318E+06  1.254993E+04 -8.031034E+03
        34  24 -2.941684E+06 -4.521605E+05 -5.513052E+03 -1.154893E+06  6.117507E+03 -5.565602E+03
        34  25 -2.533803E+06 -3.015105E+05  8.891980E+04 -1.041931E+06  2.095410E+04 -9.521544E+03
        34  26 -2.650413E+06 -3.086808E+05  7.331371E+04 -1.040581E+06  1.469978E+04 -7.226625E+03
        34  27 -2.719598E+06 -3.692975E+05  5.311737E+04 -1.095153E+06  8.371764E+03 -4.723034E+03
        35   1 -3.037534E+06 -4.889448E+05 -2.931736E+04 -1.181124E+06 -2.135614E+03  4.158271E+03
        35   2 -2.966836E+06 -4.273663E+05 -2.913885E+03 -1.126052E+06  8.774517E+02  3.497724E+02
        35   3 -2.845949E+06 -4.168511E+05  2.231242E+04 -1.129096E+06  3.894262E+03 -3.468284E+03
        35   4 -2.941223E+06 -4.528405E+05 -4.354049E+03 -1.154921E+06 -4.361870E+03  3.326460E+03
        35   5 -2.966294E+06 -4.271710E+05 -2.773091E+03 -1.125913E+06 -1.353709E+03 -4.838874E+02
        35   6 -2.941184E+06 -4.525642E+05 -2.364507E+03 -1.155024E+06  1.657933E+03 -4.303831E+03
        35   7 -2.844904E+06 -4.167355E+05  2.060856E+04 -1.128715E+06 -6.588510E+03  2.494505E+03
        35   8 -2.965752E+06 -4.269758E+05 -2.632275E+03 -1.125774E+06 -3.584861E+03 -1.317544E+03
        35   9 -3.036409E+06 -4.882763E+05 -2.704186E+04 -1.180948E+06 -5.779938E+02 -5.139228E+03
        35  10 -3.037534E+06 -4.889448E+05 -2.931740E+04 -1.181124E+06  4.334935E-10 -2.667760E-10
        35  11 -2.966836E+06 -4.273663E+05 -2.913887E+03 -1.126052E+06 -3.007688E-10  7.984386E-10
        35  12 -2.845949E+06 -4.168511E+05  2.231237E+04 -1.129096E+06 -5.919862E-10 -3.237091E-09
        35  13 -2.941224E+06 -4.528405E+05 -4.354106E+03 -1.154921E+06  2.672213E-09 -1.273506E-09
        35  14 -2.966294E+06 -4.271710E+05 -2.773094E+03 -1.125913E+06 -8.687491E-11 -5.173566E-11
        35  15 -2.941184E+06 -4.525642E+05 -2.364547E+03 -1.155024E+06  4.536478E-09 -1.219077E-09
        35  16 -2.844904E+06 -4.167356E+05  2.060846E+04 -1.128715E+06  3.524885E-10  6.239339E-11
        35  17 -2.965752E+06 -4.269758E+05 -2.632302E+03 -1.125774E+06 -1.684947E-09  1.216948E-09
        35  18 -3.036409E+06 -4.882763E+05 -2.704191E+04 -1.180948E+06  1.563404E-09  1.147356E-09
        35  19 -3.037534E+06 -4.889448E+05 -2.931736E+04 -1.181124E+06  2.135614E+03 -4.158271E+03
        35  20 -2.966836E+06 -4.273663E+05 -2.913885E+03 -1.126052E+06 -8.774517E+02 -3.497724E+02
        35  21 -2.845949E+06 -4.168511E+05  2.231242E+04 -1.129096E+06 -3.894262E+03  3.468284E+03
        35  22 -2.941223E+06 -4.528405E+05 -4.354049E+03 -1.154921E+06  4.361870E+03 -3.326460E+03
        35  23 -2.966294E+06 -4.271710E+05 -2.773091E+03 -1.125913E+06  1.353709E+03  4.838874E+02
        35  24 -2.941184E+06 -4.525642E+05 -2.364507E+03 -1.155024E+06 -1.657933E+03  4.303831E+03
        35  25 -2.844904E+06 -4.167355E+05  2.060856E+04 -1.128715E+06  6.588510E+03 -2.494505E+03
        35  26 -2.965752E+06 -4.269758E+05 -2.632275E+03 -1.125774E+06  3.584861E+03  1.317544E+03
        35  27 -3.036409E+06 -4.882763E+05 -2.704186E+04 -1.180948E+06  5.779938E+02  5.139228E+03
        36   1 -2.720600E+06 -3.694710E+05  5.593425E+04 -1.094901E+06  5.225096E+03 -5.851003E+03
        36   2 -2.651664E+06 -3.095694E+05  7.929042E+04 -1.040920E+06  8.439707E+03 -9.525737E+03
        36   3 -2.533616E+06 -2.996706E+05  1.013103E+05 -1.043625E+06  1.162276E+04 -1.310567E+04
        36   4 -2.941429E+06 -4.522799E+05 -2.448593E+03 -1.154731E+06  2.997756E+03 -6.683490E+03
        36   5 -2.966017E+06 -4.275183E+05 -3.320324E+03 -1.126296E+06  6.259855E+03 -1.034136E+04
        36   6 -2.941512E+06 -4.527725E+05 -5.566116E+03 -1.154552E+06  9.490101E+03 -1.390446E+04
        36   7 -3.162212E+06 -5.350867E+05 -6.083622E+04 -1.214542E+06  7.712676E+02 -7.515661E+03
        36   8 -3.280278E+06 -5.454623E+05 -8.594022E+04 -1.211633E+06  4.081200E+03 -1.115653E+04
        36   9 -3.349249E+06 -6.058653E+05 -1.124575E+05 -1.265415E+06  7.358972E+03 -1.470268E+04
        36  10 -2.720600E+06 -3.694711E+05  5.593413E+04 -1.094901E+06 -7.103091E-09 -5.421739E-09
        36  11 -2.651664E+06 -3.095695E+05  7.929012E+04 -1.040920E+06 -5.804279E-09 -1.579200E-09
        36  12 -2.533616E+06 -2.996708E+05  1.013098E+05 -1.043625E+06 -1.112093E-09  1.376334E-09
        36  13 -2.941429E+06 -4.522799E+05 -2.448694E+03 -1.154731E+06  1.261856E-09 -1.441597E-09
        36  14 -2.966017E+06 -4.275184E+05 -3.320598E+03 -1.126296E+06  3.894264E-10 -2.823098E-09
        36  15 -2.941512E+06 -4.527727E+05 -5.566648E+03 -1.154552E+06 -2.980237E-09 -1.252587E-10
        36  16 -3.162212E+06 -5.350867E+05 -6.083633E+04 -1.214542E+06  7.320767E-09  2.862500E-09
        36  17 -3.280278E+06 -5.454624E+05 -8.594049E+04 -1.211633E+06 -3.004141E-09 -6.642811E-10
        36  18 -3.349249E+06 -6.058656E+05 -1.124580E+05 -1.265415E+06 -8.006877E-09 -3.457541E-09
        36  19 -2.720600E+06 -3.694710E+05  5.593425E+04 -1.094901E+06 -5.225096E+03  5.851003E+03
        36  20 -2.651664E+06 -3.095694E+05  7.929042E+04 -1.040920E+06 -8.439707E+03  9.525737E+03
        36  21 -2.533616E+06 -2.996706E+05  1.013103E+05 -1.043625E+06 -1.162276E+04  1.310567E+04
        36  22 -2.941429E+06 -4.522799E+05 -2.448593E+03 -1.154731E+06 -2.997756E+03  6.683490E+03
        36  23 -2.966017E+06 -4.275183E+05 -3.320324E+03 -1.126296E+06 -6.259855E+03  1.034136E+04
        36  24 -2.941512E+06 -4.527725E+05 -5.566116E+03 -1.154552E+06 -9.490101E+03  1.390446E+04
        36  25 -3.162212E+06 -5.350867E+05 -6.083622E+04 -1.214542E+06 -7.712676E+02  7.515661E+03
        36  26 -3.280278E+06 -5.454623E+05 -8.594022E+04 -1.211633E+06 -4.081200E+03  1.115653E+04
        36  27 -3.349249E+06 -6.058653E+05 -1.124575E+05 -1.265415E+06 -7.358972E+03  1.470268E+04
        37   1 -2.414621E+06 -2.538243E+05  1.318298E+05 -1.011203E+06  1.358334E+04 -1.513679E+04
        37   2 -2.350432E+06 -1.969943E+05  1.489102E+05 -9.600659E+05  2.129959E+04 -1.681905E+04
        37   3 -2.242546E+06 -1.914672E+05  1.600279E+05 -9.604427E+05  2.890547E+04 -1.818761E+04
        37   4 -2.942524E+06 -4.514308E+05 -7.138622E+03 -1.154031E+06  1.143478E+04 -1.594238E+04
        37   5 -2.964682E+06 -4.279702E+05 -1.258110E+04 -1.127451E+06  1.930558E+04 -1.756830E+04
        37   6 -2.943182E+06 -4.558494E+05 -2.411330E+04 -1.152390E+06  2.706505E+04 -1.888073E+04
        37   7 -3.470151E+06 -6.490188E+05 -1.461293E+05 -1.296748E+06  9.288255E+03 -1.674721E+04
        37   8 -3.578563E+06 -6.589223E+05 -1.741042E+05 -1.294685E+06  1.731374E+04 -1.831674E+04
        37   9 -3.643345E+06 -7.202019E+05 -2.082975E+05 -1.344141E+06  2.522690E+04 -1.957299E+04
        37  10 -2.414621E+06 -2.538246E+05  1.318291E+05 -1.011203E+06 -1.716266E-09  1.202007E-09
        37  11 -2.350432E+06 -1.969948E+05  1.489089E+05 -9.600656E+05  1.651319E-09  9.194819E-10
        37  12 -2.242547E+06 -1.914678E+05  1.600258E+05 -9.604423E+05  5.476333E-09 -6.662327E-10
        37  13 -2.942524E+06 -4.514311E+05 -7.139344E+03 -1.154031E+06  2.062636E-09 -3.955250E-10
        37  14 -2.964682E+06 -4.279707E+05 -1.258238E+04 -1.127451E+06  1.121715E-09  2.653911E-10
        37  15 -2.943183E+06 -4.558500E+05 -2.411535E+04 -1.152389E+06  3.677962E-09 -6.077319E-10
        37  16 -3.470151E+06 -6.490191E+05 -1.461300E+05 -1.296747E+06 -5.873879E-10 -2.406292E-09
        37  17 -3.578563E+06 -6.589227E+05 -1.741053E+05 -1.294685E+06  4.704538E-09 -6.030221E-10
        37  18 -3.643345E+06 -7.202025E+05 -2.082994E+05 -1.344140E+06  3.165630E-09 -1.129597E-09
        37  19 -2.414621E+06 -2.538243E+05  1.318298E+05 -1.011203E+06 -1.358334E+04  1.513679E+04
        37  20 -2.350432E+06 -1.969943E+05  1.489102E+05 -9.600659E+05 -2.129959E+04  1.681905E+04
        37  21 -2.242546E+06 -1.914672E+05  1.600279E+05 -9.604427E+05 -2.890547E+04  1.818761E+04
        37  22 -2.942524E+06 -4.514308E+05 -7.138622E+03 -1.154031E+06 -1.143478E+04  1.594238E+04
        37  23 -2.964682E+06 -4.279702E+05 -1.258110E+04 -1.127451E+06 -1.930558E+04  1.756830E+04
        37  24 -2.943182E+06 -4.558494E+05 -2.411330E+04 -1.152390E+06 -2.706505E+04  1.888073E+04
        37  25 -3.470151E+06 -6.490188E+05 -1.461293E+05 -1.296748E+06 -9.288255E+03  1.674721E+04
        37  26 -3.578563E+06 -6.589223E+05 -1.741042E+05 -1.294685E+06 -1.731374E+04  1.831674E+04
        37  27 -3.643345E+06 -7.202019E+05 -2.082975E+05 -1.344141E+06 -2.522690E+04  1.957299E+04
        38   1 -2.132834E+06 -1.485114E+05  1.821603E+05 -9.383931E+05  3.481772E+04 -1.877886E+04
        38   2 -2.075466E+06 -8.824431E+04  1.787261E+05 -8.852419E+05  6.302814E+04 -1.213455E+04
        38   3 -1.999285E+06 -1.192706E+05  1.415717E+05 -8.655583E+05  9.037031E+04 -3.157404E+03
        38   4 -2.946550E+06 -4.489201E+05 -3.096006E+04 -1.154365E+06  3.241016E+04 -1.968592E+04
        38   5 -2.958857E+06 -4.240684E+05 -5.417081E+04 -1.129772E+06  6.178235E+04 -1.260744E+04
        38   6 -2.952617E+06 -4.907948E+05 -1.120642E+05 -1.138649E+06  9.028230E+04 -3.196747E+03
        38   7 -3.759623E+06 -7.492945E+05 -2.441365E+05 -1.370083E+06  3.000605E+04 -2.059174E+04
        38   8 -3.841488E+06 -7.598398E+05 -2.871345E+05 -1.373985E+06  6.053847E+04 -1.307960E+04
        38   9 -3.905062E+06 -8.622449E+05 -3.657789E+05 -1.411351E+06  9.019435E+04 -3.236070E+03
        38  10 -2.132835E+06 -1.485121E+05  1.821573E+05 -9.383926E+05  6.201292E-10 -7.943002E-10
        38  11 -2.075471E+06 -8.824554E+04  1.787184E+05 -8.852413E+05 -3.491094E-09  8.197173E-10
        38  12 -1.999294E+06 -1.192728E+05  1.415563E+05 -8.655581E+05 -2.054681E-10  4.778690E-10
        38  13 -2.946551E+06 -4.489208E+05 -3.096277E+04 -1.154365E+06  1.233524E-09 -6.272192E-10
        38  14 -2.958862E+06 -4.240696E+05 -5.417831E+04 -1.129771E+06 -5.428074E-10 -1.948048E-10
        38  15 -2.952626E+06 -4.907970E+05 -1.120796E+05 -1.138648E+06 -1.377933E-09 -4.328613E-10
        38  16 -3.759624E+06 -7.492952E+05 -2.441390E+05 -1.370083E+06  1.355152E-10 -3.317691E-10
        38  17 -3.841492E+06 -7.598410E+05 -2.871418E+05 -1.373984E+06  7.900090E-10 -2.623509E-10
        38  18 -3.905071E+06 -8.622471E+05 -3.657943E+05 -1.411351E+06 -1.361011E-11 -7.437047E-10
        38  19 -2.132834E+06 -1.485114E+05  1.821603E+05 -9.383931E+05 -3.481772E+04  1.877886E+04
        38  20 -2.075466E+06 -8.824431E+04  1.787261E+05 -8.852419E+05 -6.302814E+04  1.213455E+04
        38  21 -1.999285E+06 -1.192706E+05  1.415717E+05 -8.655583E+05 -9.037031E+04  3.157404E+03
        38  22 -2.946550E+06 -4.489201E+05 -3.096006E+04 -1.154365E+06 -3.241016E+04  1.968592E+04
        38  23 -2.958857E+06 -4.240684E+05 -5.417081E+04 -1.129772E+06 -6.178235E+04  1.260744E+04
        38  24 -2.952617E+06 -4.907948E+05 -1.120642E+05 -1.138649E+06 -9.028230E+04  3.196747E+03
        38  25 -3.759623E+06 -7.492945E+05 -2.441365E+05 -1.370083E+06 -3.000605E+04  2.059174E+04
        38  26 -3.841488E+06 -7.598398E+05 -2.871345E+05 -1.373985E+06 -6.053847E+04  1.307960E+04
        38  27 -3.905062E+06 -8.622449E+05 -3.657789E+05 -1.411351E+06 -9.019435E+04  3.236070E+03
        39   1 -1.879242E+06 -7.414111E+04  1.388960E+05 -9.239465E+05  1.202585E+05  1.449881E+03
        39   2 -1.829578E+06  7.411068E+04  6.344401E+04 -8.015372E+05  2.314233E+05  4.153686E+04
        39   3 -1.944207E+06 -2.958458E+05 -2.274617E+05 -5.882032E+05  3.316278E+05  1.106194E+05
        39   4 -2.971979E+06 -4.332188E+05 -1.380370E+05 -1.168859E+06  1.118051E+05 -1.734179E+03
        39   5 -2.917449E+06 -3.740471E+05 -2.296828E+05 -1.138136E+06  2.376963E+05  4.388697E+04
        39   6 -3.030501E+06 -8.365916E+05 -5.487989E+05 -1.016402E+06  3.526142E+05  1.184870E+05
        39   7 -4.063560E+06 -7.922890E+05 -4.150642E+05 -1.413413E+06  1.033678E+05 -4.913928E+03
        39   8 -4.004161E+06 -8.220660E+05 -5.229147E+05 -1.474175E+06  2.439569E+05  4.623141E+04
        39   9 -4.115598E+06 -1.376985E+06 -8.702475E+05 -1.443833E+06  3.735594E+05  1.263281E+05
        39  10 -1.879257E+06 -7.414501E+04  1.388688E+05 -9.239466E+05 -6.600397E-10 -1.281773E-09
        39  11 -1.829636E+06  7.409438E+04  6.333977E+04 -8.015449E+05  4.721716E-10  1.363128E-09
        39  12 -1.944329E+06 -2.958886E+05 -2.276922E+05 -5.882328E+05 -9.951496E-10  2.592362E-10
        39  13 -2.971993E+06 -4.332221E+05 -1.380606E+05 -1.168859E+06  1.928326E-10  7.677712E-10
        39  14 -2.917510E+06 -3.740644E+05 -2.297931E+05 -1.138144E+06  5.070151E-09 -8.227900E-10
        39  15 -3.030638E+06 -8.366404E+05 -5.490603E+05 -1.016436E+06 -3.351812E-10 -8.311305E-10
        39  16 -4.063572E+06 -7.922919E+05 -4.150844E+05 -1.413412E+06  2.551349E-09 -1.076885E-09
        39  17 -4.004226E+06 -8.220844E+05 -5.230313E+05 -1.474184E+06  2.359984E-09  6.500253E-10
        39  18 -4.115753E+06 -1.377040E+06 -8.705419E+05 -1.443872E+06  2.256272E-09 -1.583373E-09
        39  19 -1.879242E+06 -7.414111E+04  1.388960E+05 -9.239465E+05 -1.202585E+05 -1.449881E+03
        39  20 -1.829578E+06  7.411068E+04  6.344401E+04 -8.015372E+05 -2.314233E+05 -4.153686E+04
        39  21 -1.944207E+06 -2.958458E+05 -2.274617E+05 -5.882032E+05 -3.316278E+05 -1.106194E+05
        39  22 -2.971979E+06 -4.332188E+05 -1.380370E+05 -1.168859E+06 -1.118051E+05  1.734179E+03
        39  23 -2.917449E+06 -3.740471E+05 -2.296828E+05 -1.138136E+06 -2.376963E+05 -4.388697E+04
        39  24 -3.030501E+06 -8.365916E+05 -5.487989E+05 -1.016402E+06 -3.526142E+05 -1.184870E+05
        39  25 -4.063560E+06 -7.922890E+05 -4.150642E+05 -1.413413E+06 -1.033678E+05  4.913928E+03
        39  26 -4.004161E+06 -8.220660E+05 -5.229147E+05 -1.474175E+06 -2.439569E+05 -4.623141E+04
        39  27 -4.115598E+06 -1.376985E+06 -8.702475E+05 -1.443833E+06 -3.735594E+05 -1.263281E+05
        40   1  1.118571E+05 -6.942063E+05  1.060179E+05 -1.659553E+03  1.548526E+04  9.704765E+02
        40   2  1.101694E+05 -7.011259E+05  1.033461E+05  5.422335E+02  1.519691E+04  2.132371E+03
        40   3  1.077554E+05 -7.082212E+05  9.976918E+04 -2.046782E+03  1.484044E+04  3.293836E+03
        40   4  6.014359E+00 -1.145606E+06 -1.379689E+03 -1.064149E+03  1.548572E+04  1.108851E+03
        40   5  5.068829E+01 -1.145514E+06 -2.400262E+03  1.330566E+03  1.519723E+04  2.307570E+03
        40   6 -6.375392E+02 -1.145605E+06 -4.352052E+03 -1.065731E+03  1.484060E+04  3.505874E+03
        40   7 -1.118598E+05 -1.596817E+06 -1.087915E+05 -4.690832E+02  1.548618E+04  1.247124E+03
        40   8 -1.100822E+05 -1.589721E+06 -1.081605E+05  2.118436E+03  1.519755E+04  2.482644E+03
        40   9 -1.090443E+05 -1.582814E+06 -1.084867E+05 -8.526234E+01  1.484075E+04  3.717762E+03
        40  10  1.118569E+05 -6.942064E+05  1.060174E+05 -1.659565E+03 -3.030529E-09 -4.311860E-09
        40  11  1.101691E+05 -7.011260E+05  1.033457E+05  5.422074E+02 -2.782221E-09  8.825018E-10
        40  12  1.077552E+05 -7.082212E+05  9.976875E+04 -2.046822E+03 -8.293048E-10  4.548512E-09
        40  13  5.756655E+00 -1.145606E+06 -1.380141E+03 -1.064163E+03  2.781845E-09 -1.651724E-11
        40  14  5.043898E+01 -1.145514E+06 -2.400706E+03  1.330538E+03 -2.656000E-09 -1.209731E-09
        40  15 -6.377789E+02 -1.145605E+06 -4.352489E+03 -1.065773E+03 -1.409280E-09 -2.086371E-10
        40  16 -1.118601E+05 -1.596818E+06 -1.087920E+05 -4.690988E+02 -4.666962E-10  2.630586E-09
        40  17 -1.100825E+05 -1.589721E+06 -1.081609E+05  2.118406E+03 -3.416822E-09 -4.708387E-09
        40  18 -1.090446E+05 -1.582814E+06 -1.084871E+05 -8.530680E+01 -2.474455E-09 -6.630996E-09
        40  19  1.118571E+05 -6.942063E+05  1.060179E+05 -1.659553E+03 -1.548526E+04 -9.704765E+02
        40  20  1.101694E+05 -7.011259E+05  1.033461E+05  5.422335E+02 -1.519691E+04 -2.132371E+03
        40  21  1.077554E+05 -7.082212E+05  9.976918E+04 -2.046782E+03 -1.484044E+04 -3.293836E+03
        40  22  6.014359E+00 -1.145606E+06 -1.379689E+03 -1.064149E+03 -1.548572E+04 -1.108851E+03
        40  23  5.068829E+01 -1.145514E+06 -2.400262E+03  1.330566E+03 -1.519723E+04 -2.307570E+03
        40  24 -6.375392E+02 -1.145605E+06 -4.352052E+03 -1.065731E+03 -1.484060E+04 -3.505874E+03
        40  25 -1.118598E+05 -1.596817E+06 -1.087915E+05 -4.690832E+02 -1.548618E+04 -1.247124E+03
        40  26 -1.100822E+05 -1.589721E+06 -1.081605E+05  2.118436E+03 -1.519755E+04 -2.482644E+03
        40  27 -1.090443E+05 -1.582814E+06 -1.084867E+05 -8.526234E+01 -1.484075E+04 -3.717762E+03
        41   1  1.062950E+05 -7.184193E+05  9.615255E+04 -1.249821E+03  1.471470E+04  4.322528E+03
        41   2  1.046146E+05 -7.260667E+05  9.019439E+04  2.641621E+02  1.430484E+04  8.840424E+03
        41   3  9.518224E+04 -7.361215E+05  7.937982E+04 -4.291848E+03  1.331800E+04  1.335609E+04
        41   4  3.257031E+02 -1.146109E+06 -5.586060E+03 -1.342624E+03  1.471521E+04  4.380657E+03
        41   5  8.273494E+02 -1.144880E+06 -9.467517E+03  1.682057E+03  1.430439E+04  9.213914E+03
        41   6 -6.480639E+03 -1.146114E+06 -1.842687E+04 -1.363532E+03  1.331643E+04  1.404500E+04
        41   7 -1.056568E+05 -1.573631E+06 -1.073375E+05 -1.435248E+03  1.471572E+04  4.438745E+03
        41   8 -1.029725E+05 -1.563531E+06 -1.091417E+05  3.099108E+03  1.430394E+04  9.587152E+03
        41   9 -1.081557E+05 -1.555952E+06 -1.162454E+05  1.562960E+03  1.331487E+04  1.473345E+04
        41  10  1.062947E+05 -7.184193E+05  9.615211E+04 -1.249872E+03 -8.094715E-10 -4.548310E-09
        41  11  1.046143E+05 -7.260668E+05  9.019386E+04  2.640603E+02  1.026918E-09 -4.961206E-09
        41  12  9.518200E+04 -7.361217E+05  7.937915E+04 -4.291991E+03  1.131718E-09 -2.125080E-09
        41  13  3.254655E+02 -1.146109E+06 -5.586503E+03 -1.342676E+03 -4.946447E-10  1.324318E-10
        41  14  8.271070E+02 -1.144880E+06 -9.468061E+03  1.681951E+03 -2.306883E-09 -1.247256E-09
        41  15 -6.480882E+03 -1.146114E+06 -1.842758E+04 -1.363683E+03 -1.274904E-09 -1.796519E-10
        41  16 -1.056570E+05 -1.573631E+06 -1.073379E+05 -1.435301E+03 -3.090807E-09  2.544912E-09
        41  17 -1.029728E+05 -1.563532E+06 -1.091423E+05  3.098997E+03  8.958817E-11  2.696522E-10
        41  18 -1.081559E+05 -1.555952E+06 -1.162461E+05  1.562802E+03 -2.460814E-09 -4.325699E-10
        41  19  1.062950E+05 -7.184193E+05  9.615255E+04 -1.249821E+03 -1.471470E+04 -4.322528E+03
        41  20  1.046146E+05 -7.260667E+05  9.019439E+04  2.641621E+02 -1.430484E+04 -8.840424E+03
        41  21  9.518224E+04 -7.361215E+05  7.937982E+04 -4.291848E+03 -1.331800E+04 -1.335609E+04
        41  22  3.257031E+02 -1.146109E+06 -5.586060E+03 -1.342624E+03 -1.471521E+04 -4.380657E+03
        41  23  8.273494E+02 -1.144880E+06 -9.467517E+03  1.682057E+03 -1.430439E+04 -9.213914E+03
        41  24 -6.480639E+03 -1.146114E+06 -1.842687E+04 -1.363532E+03 -1.331643E+04 -1.404500E+04
        41  25 -1.056568E+05 -1.573631E+06 -1.073375E+05 -1.435248E+03 -1.471572E+04 -4.438745E+03
        41  26 -1.029725E+05 -1.563531E+06 -1.091417E+05  3.099108E+03 -1.430394E+04 -9.587152E+03
        41  27 -1.081557E+05 -1.555952E+06 -1.162454E+05  1.562960E+03 -1.331487E+04 -1.473345E+04
        42   1  1.020781E+05 -7.522523E+05  7.188872E+04  6.495035E+03  1.417255E+04  1.926946E+04
        42   2  1.044130E+05 -7.520862E+05  5.562296E+04 -5.559990E+03  1.318218E+04  3.442951E+04
        42   3  2.818582E+04 -7.734669E+05  9.854413E+03 -2.527213E+04  4.001655E+03  4.955830E+04
        42   4  3.502248E+03 -1.150520E+06 -2.265259E+04 -1.626145E+03  1.417868E+04  1.752170E+04
        42   5  8.386140E+03 -1.139367E+06 -3.653029E+04  2.076444E+03  1.317337E+04  3.718807E+04
        42   6 -6.610211E+04 -1.150558E+06 -8.305656E+04 -1.879303E+03  3.976397E+03  5.682313E+04
        42   7 -9.508476E+04 -1.548642E+06 -1.172049E+05 -9.741962E+03  1.418485E+04  1.577505E+04
        42   8 -8.765132E+04 -1.526510E+06 -1.286940E+05  9.708205E+03  1.316462E+04  3.994490E+04
        42   9 -1.603986E+05 -1.527519E+06 -1.759776E+05  2.149940E+04  3.951680E+03  6.408354E+04
        42  10  1.020778E+05 -7.522528E+05  7.188764E+04  6.494815E+03  5.842642E-11 -1.030006E-09
        42  11  1.044125E+05 -7.520875E+05  5.562040E+04 -5.560355E+03  3.649949E-09 -2.502190E-09
        42  12  2.818514E+04 -7.734695E+05  9.849761E+03 -2.527229E+04  6.526924E-10 -2.317344E-09
        42  13  3.501949E+03 -1.150520E+06 -2.265355E+04 -1.626345E+03 -3.820738E-09  1.481244E-11
        42  14  8.385582E+03 -1.139369E+06 -3.653322E+04  2.076049E+03 -1.872903E-09 -1.792696E-09
        42  15 -6.610299E+04 -1.150562E+06 -8.306267E+04 -1.879485E+03 -1.945590E-09 -3.188966E-10
        42  16 -9.508504E+04 -1.548642E+06 -1.172058E+05 -9.742143E+03 -9.263760E-10 -1.361868E-09
        42  17 -8.765194E+04 -1.526512E+06 -1.286973E+05  9.707781E+03 -7.774854E-10 -3.074480E-09
        42  18 -1.603998E+05 -1.527523E+06 -1.759853E+05  2.149919E+04  1.823546E-09 -3.846935E-10
        42  19  1.020781E+05 -7.522523E+05  7.188872E+04  6.495035E+03 -1.417255E+04 -1.926946E+04
        42  20  1.044130E+05 -7.520862E+05  5.562296E+04 -5.559990E+03 -1.318218E+04 -3.442951E+04
        42  21  2.818582E+04 -7.734669E+05  9.854413E+03 -2.527213E+04 -4.001655E+03 -4.955830E+04
        42  22  3.502248E+03 -1.150520E+06 -2.265259E+04 -1.626145E+03 -1.417868E+04 -1.752170E+04
        42  23  8.386140E+03 -1.139367E+06 -3.653029E+04  2.076444E+03 -1.317337E+04 -3.718807E+04
        42  24 -6.610211E+04 -1.150558E+06 -8.305656E+04 -1.879303E+03 -3.976397E+03 -5.682313E+04
        42  25 -9.508476E+04 -1.548642E+06 -1.172049E+05 -9.741962E+03 -1.418485E+04 -1.577505E+04
        42  26 -8.765132E+04 -1.526510E+06 -1.286940E+05  9.708205E+03 -1.316462E+04 -3.994490E+04
        42  27 -1.603986E+05 -1.527519E+06 -1.759776E+05  2.149940E+04 -3.951680E+03 -6.408354E+04
        43   1  8.219589E+04  8.737606E+05  4.687649E+04 -1.629454E+02  2.876337E+04 -5.430128E+02
        43   2  8.230968E+04  8.738383E+05  4.752360E+04 -1.288961E+02  2.866415E+04 -1.383783E+03
        43   3  8.263141E+04  8.740846E+05  4.877175E+04 -8.151521E+01  2.843502E+04 -2.224637E+03
        43   4 -2.828252E+01  5.086142E+05  6.061451E+02  2.952484E+00  2.876512E+04 -4.597594E+02
        43   5  2.067336E+01  5.085569E+05  1.063917E+03 -3.667388E+00  2.866576E+04 -9.880562E+02
        43   6  2.234399E+02  5.086140E+05  1.906119E+03  3.044468E+00  2.843644E+04 -1.516432E+03
        43   7 -8.225789E+04  1.436046E+05 -4.566466E+04  1.687603E+02  2.876687E+04 -3.765524E+02
        43   8 -8.227379E+04  1.434123E+05 -4.539626E+04  1.214979E+02  2.866737E+04 -5.925507E+02
        43   9 -8.219003E+04  1.432802E+05 -4.496011E+04  8.756733E+01  2.843786E+04 -8.086229E+02
        43  10  8.219500E+04  8.737603E+05  4.687494E+04 -1.629328E+02 -1.594226E-09  3.744596E-09
        43  11  8.230880E+04  8.738381E+05  4.752205E+04 -1.288642E+02  9.107103E-10 -1.237871E-09
        43  12  8.263054E+04  8.740844E+05  4.877022E+04 -8.146429E+01 -1.284341E-09 -4.714229E-09
        43  13 -2.917131E+01  5.086140E+05  6.045894E+02  2.963134E+00  1.005322E-09  3.573587E-10
        43  14  1.979050E+01  5.085567E+05  1.062370E+03 -3.644581E+00 -5.550984E-10 -9.450217E-10
        43  15  2.225707E+02  5.086138E+05  1.904595E+03  3.079191E+00 -4.487243E-10  5.547314E-10
        43  16 -8.225878E+04  1.436044E+05 -4.566622E+04  1.687690E+02 -2.669546E-09 -4.391285E-09
        43  17 -8.227467E+04  1.434121E+05 -4.539781E+04  1.215116E+02 -2.656165E-10  9.027172E-10
        43  18 -8.219090E+04  1.432800E+05 -4.496163E+04  8.758585E+01 -1.665358E-09  4.819122E-09
        43  19  8.219589E+04  8.737606E+05  4.687649E+04 -1.629454E+02 -2.876337E+04  5.430128E+02
        43  20  8.230968E+04  8.738383E+05  4.752360E+04 -1.288961E+02 -2.866415E+04  1.383783E+03
        43  21  8.263141E+04  8.740846E+05  4.877175E+04 -8.151521E+01 -2.843502E+04  2.224637E+03
        43  22 -2.828252E+01  5.086142E+05  6.061451E+02  2.952484E+00 -2.876512E+04  4.597594E+02
        43  23  2.067336E+01  5.085569E+05  1.063917E+03 -3.667388E+00 -2.866576E+04  9.880562E+02
        43  24  2.234399E+02  5.086140E+05  1.906119E+03  3.044468E+00 -2.843644E+04  1.516432E+03
        43  25 -8.225789E+04  1.436046E+05 -4.566466E+04  1.687603E+02 -2.876687E+04  3.765524E+02
        43  26 -8.227379E+04  1.434123E+05 -4.539626E+04  1.214979E+02 -2.866737E+04  5.925507E+02
        43  27 -8.219003E+04  1.432802E+05 -4.496011E+04  8.756733E+01 -2.843786E+04  8.086229E+02
        44   1  8.282989E+04  8.743977E+05  4.966950E+04 -2.053163E+02  2.829030E+04 -2.671964E+03
        44   2  8.389988E+04  8.740599E+05  5.292848E+04  8.855186E+02  2.748220E+04 -7.267807E+03
        44   3  8.696549E+04  8.748254E+05  5.967739E+04  1.926078E+03  2.570484E+04 -1.186434E+04
        44   4  3.307505E+02  5.087441E+05  2.531576E+03 -1.123021E+01  2.829165E+04 -1.888454E+03
        44   5  1.145591E+03  5.083936E+05  4.520865E+03  1.469567E+01  2.748218E+04 -4.154077E+03
        44   6  3.552487E+03  5.087429E+05  8.384198E+03 -9.661316E+00  2.570315E+04 -6.420364E+03
        44   7 -8.217393E+04  1.432272E+05 -4.460702E+04  1.827524E+02  2.829300E+04 -1.105381E+03
        44   8 -8.161436E+04  1.428638E+05 -4.388771E+04 -8.555731E+02  2.748214E+04 -1.042092E+03
        44   9 -7.986645E+04  1.427962E+05 -4.291062E+04 -1.944191E+03  2.570143E+04 -9.794584E+02
        44  10  8.282903E+04  8.743975E+05  4.966798E+04 -2.052555E+02 -1.761911E-09 -1.938101E-09
        44  11  8.389905E+04  8.740596E+05  5.292696E+04  8.856794E+02 -1.057742E-09 -2.944332E-09
        44  12  8.696474E+04  8.748250E+05  5.967589E+04  1.926323E+03 -2.131400E-09 -1.356188E-09
        44  13  3.298898E+02  5.087438E+05  2.530065E+03 -1.118718E+01  3.987356E-10  4.033052E-10
        44  14  1.144775E+03  5.083934E+05  4.519413E+03  1.478760E+01  6.340585E-10 -1.209807E-09
        44  15  3.551766E+03  5.087427E+05  8.382879E+03 -9.528436E+00  1.065234E-09  7.355826E-10
        44  16 -8.217479E+04  1.432270E+05 -4.460852E+04  1.827776E+02 -1.328697E-09  1.112292E-09
        44  17 -8.161517E+04  1.428636E+05 -4.388913E+04 -8.555501E+02 -6.950783E-11  2.522610E-09
        44  18 -7.986716E+04  1.427960E+05 -4.291186E+04 -1.944171E+03  4.724618E-10  1.624473E-09
        44  19  8.282989E+04  8.743977E+05  4.966950E+04 -2.053163E+02 -2.829030E+04  2.671964E+03
        44  20  8.389988E+04  8.740599E+05  5.292848E+04  8.855186E+02 -2.748220E+04  7.267807E+03
        44  21  8.696549E+04  8.748254E+05  5.967739E+04  1.926078E+03 -2.570484E+04  1.186434E+04
        44  22  3.307505E+02  5.087441E+05  2.531576E+03 -1.123021E+01 -2.829165E+04  1.888454E+03
        44  23  1.145591E+03  5.083936E+05  4.520865E+03  1.469567E+01 -2.748218E+04  4.154077E+03
        44  24  3.552487E+03  5.087429E+05  8.384198E+03 -9.661316E+00 -2.570315E+04  6.420364E+03
        44  25 -8.217393E+04  1.432272E+05 -4.460702E+04  1.827524E+02 -2.829300E+04  1.105381E+03
        44  26 -8.161436E+04  1.428638E+05 -4.388771E+04 -8.555731E+02 -2.748214E+04  1.042092E+03
        44  27 -7.986645E+04  1.427962E+05 -4.291062E+04 -1.944191E+03 -2.570143E+04  9.794584E+02
        45   1  8.882577E+04  8.765079E+05  6.445833E+04  1.204905E+03  2.458173E+04 -1.389975E+04
        45   2  9.955028E+04  8.726664E+05  8.321696E+04  1.400714E+04  1.850815E+04 -4.173602E+04
        45   3  1.289959E+05  8.771299E+05  1.247629E+05  2.623642E+04  5.257404E+03 -6.957849E+04
        45   4  4.896571E+03  5.097690E+05  1.124374E+04 -1.273295E+02  2.457944E+04 -7.884097E+03
        45   5  1.403210E+04  5.071067E+05  2.077973E+04  1.696736E+02  1.849444E+04 -1.847318E+04
        45   6  3.890210E+04  5.097605E+05  4.113879E+04 -1.064899E+02  5.231456E+03 -2.906789E+04
        45   7 -7.903878E+04  1.431656E+05 -4.197292E+04 -1.458725E+03  2.457713E+04 -1.871842E+03
        45   8 -7.149216E+04  1.416797E+05 -4.165979E+04 -1.365938E+04  1.847969E+04  4.776407E+03
        45   9 -5.119756E+04  1.425212E+05 -4.248760E+04 -2.643367E+04  5.202067E+03  1.141898E+04
        45  10  8.882507E+04  8.765076E+05  6.445683E+04  1.205180E+03 -9.620165E-10  4.832341E-09
        45  11  9.954944E+04  8.726644E+05  8.321305E+04  1.400776E+04  6.603689E-10 -1.789793E-10
        45  12  1.289946E+05  8.771247E+05  1.247538E+05  2.623671E+04 -2.720297E-10 -2.181198E-09
        45  13  4.895905E+03  5.097687E+05  1.124249E+04 -1.271735E+02 -8.144313E-11  7.435860E-10
        45  14  1.403164E+04  5.071062E+05  2.077845E+04  1.699487E+02  1.072661E-09 -1.268526E-09
        45  15  3.890184E+04  5.097596E+05  4.113715E+04 -1.063675E+02 -1.768190E-09  9.480204E-10
        45  16 -7.903943E+04  1.431654E+05 -4.197406E+04 -1.458688E+03 -2.050210E-09 -5.738550E-09
        45  17 -7.149253E+04  1.416796E+05 -4.166048E+04 -1.365945E+04 -1.403022E-09 -2.930549E-10
        45  18 -5.119762E+04  1.425211E+05 -4.248789E+04 -2.643372E+04 -1.630137E-10  2.433552E-09
        45  19  8.882577E+04  8.765079E+05  6.445833E+04  1.204905E+03 -2.458173E+04  1.389975E+04
        45  20  9.955028E+04  8.726664E+05  8.321696E+04  1.400714E+04 -1.850815E+04  4.173602E+04
        45  21  1.289959E+05  8.771299E+05  1.247629E+05  2.623642E+04 -5.257404E+03  6.957849E+04
        45  22  4.896571E+03  5.097690E+05  1.124374E+04 -1.273295E+02 -2.457944E+04  7.884097E+03
        45  23  1.403210E+04  5.071067E+05  2.077973E+04  1.696736E+02 -1.849444E+04  1.847318E+04
        45  24  3.890210E+04  5.097605E+05  4.113879E+04 -1.064899E+02 -5.231456E+03  2.906789E+04
        45  25 -7.903878E+04  1.431656E+05 -4.197292E+04 -1.458725E+03 -2.457713E+04  1.871842E+03
        45  26 -7.149216E+04  1.416797E+05 -4.165979E+04 -1.365938E+04 -1.847969E+04 -4.776407E+03
        45  27 -5.119756E+04  1.425212E+05 -4.248760E+04 -2.643367E+04 -5.202067E+03 -1.141898E+04
        46   1 -6.754330E+06 -1.981941E+06 -1.139672E+06 -2.447215E+06 -5.920580E+05 -2.120481E+05
        46   2 -6.599452E+06 -1.092037E+06 -5.861341E+05 -2.519214E+06 -3.817707E+05 -1.111170E+05
        46   3 -6.746736E+06 -1.048822E+06 -4.186162E+05 -2.418418E+06 -1.634379E+05 -3.147633E+04
        46   4 -6.058064E+06 -1.508024E+06 -9.075330E+05 -2.043310E+06 -5.772656E+05 -2.067261E+05
        46   5 -5.859739E+06 -7.518180E+05 -3.792122E+05 -2.255052E+06 -3.777220E+05 -1.096427E+05
        46   6 -5.961062E+06 -8.396453E+05 -2.279935E+05 -2.294122E+06 -1.701244E+05 -3.396365E+04
        46   7 -5.361206E+06 -1.033642E+06 -6.754301E+05 -1.638882E+06 -5.624546E+05 -2.013840E+05
        46   8 -5.119477E+06 -4.114826E+05 -1.723412E+05 -1.990574E+06 -3.736678E+05 -1.081652E+05
        46   9 -5.174776E+06 -6.304866E+05 -3.741114E+04 -2.169716E+06 -1.768202E+05 -3.645209E+04
        46  10 -6.754722E+06 -1.982086E+06 -1.140424E+06 -2.447317E+06 -4.856678E-10  8.667429E-11
        46  11 -6.599613E+06 -1.092090E+06 -5.864349E+05 -2.519248E+06  1.165678E-09  9.013678E-10
        46  12 -6.746765E+06 -1.048830E+06 -4.186689E+05 -2.418422E+06 -2.477417E-09  1.450912E-09
        46  13 -6.058436E+06 -1.508161E+06 -9.082473E+05 -2.043407E+06 -2.229312E-09 -8.617862E-11
        46  14 -5.859897E+06 -7.518699E+05 -3.795061E+05 -2.255085E+06  2.589369E-10  7.660913E-10
        46  15 -5.961094E+06 -8.396544E+05 -2.280506E+05 -2.294126E+06 -1.085269E-09  1.517933E-09
        46  16 -5.361559E+06 -1.033772E+06 -6.761072E+05 -1.638973E+06 -3.766055E-09  1.025818E-10
        46  17 -5.119632E+06 -4.115332E+05 -1.726283E+05 -1.990607E+06  7.859979E-10  1.701924E-10
        46  18 -5.174810E+06 -6.304965E+05 -3.747297E+04 -2.169721E+06  1.507430E-09  1.828296E-09
        46  19 -6.754330E+06 -1.981941E+06 -1.139672E+06 -2.447215E+06  5.920580E+05  2.120481E+05
        46  20 -6.599452E+06 -1.092037E+06 -5.861341E+05 -2.519214E+06  3.817707E+05  1.111170E+05
        46  21 -6.746736E+06 -1.048822E+06 -4.186162E+05 -2.418418E+06  1.634379E+05  3.147633E+04
        46  22 -6.058064E+06 -1.508024E+06 -9.075330E+05 -2.043310E+06  5.772656E+05  2.067261E+05
        46  23 -5.859739E+06 -7.518180E+05 -3.792122E+05 -2.255052E+06  3.777220E+05  1.096427E+05
        46  24 -5.961062E+06 -8.396453E+05 -2.279935E+05 -2.294122E+06  1.701244E+05  3.396365E+04
        46  25 -5.361206E+06 -1.033642E+06 -6.754301E+05 -1.638882E+06  5.624546E+05  2.013840E+05
        46  26 -5.119477E+06 -4.114826E+05 -1.723412E+05 -1.990574E+06  3.736678E+05  1.081652E+05
        46  27 -5.174776E+06 -6.304866E+05 -3.741114E+04 -2.169716E+06  1.768202E+05  3.645209E+04
        47   1 -6.540771E+06 -1.184610E+06 -3.505747E+05 -2.430043E+06 -1.358374E+05 -2.660448E+04
        47   2 -6.467513E+06 -1.044337E+06 -2.327964E+05 -2.394091E+06 -8.799487E+04 -1.089667E+04
        47   3 -6.388696E+06 -1.032497E+06 -1.734536E+05 -2.387040E+06 -3.946474E+04  2.995016E+03
        47   4 -5.929600E+06 -9.344333E+05 -1.850579E+05 -2.243594E+06 -1.364724E+05 -2.684984E+04
        47   5 -5.927438E+06 -8.357275E+05 -8.923663E+04 -2.242050E+06 -8.951680E+04 -1.146974E+04
        47   6 -5.919509E+06 -8.652270E+05 -5.109465E+04 -2.269414E+06 -4.187993E+04  2.089961E+03
        47   7 -5.318059E+06 -6.842142E+05 -1.957428E+04 -2.056969E+06 -1.371080E+05 -2.709547E+04
        47   8 -5.387075E+06 -6.270959E+05  5.429788E+04 -2.089886E+06 -9.104018E+04 -1.204337E+04
        47   9 -5.450108E+06 -6.979493E+05  7.124587E+04 -2.151709E+06 -4.429713E+04  1.184246E+03
        47  10 -6.540791E+06 -1.184616E+06 -3.506111E+05 -2.430046E+06 -2.004583E-09  8.268674E-10
        47  11 -6.467522E+06 -1.044339E+06 -2.328114E+05 -2.394092E+06 -1.413543E-09 -5.448414E-10
        47  12 -6.388698E+06 -1.032498E+06 -1.734566E+05 -2.387040E+06 -4.846134E-10 -9.836330E-10
        47  13 -5.929620E+06 -9.344392E+05 -1.850946E+05 -2.243596E+06  3.077242E-10  1.496076E-09
        47  14 -5.927446E+06 -8.357298E+05 -8.925209E+04 -2.242051E+06  1.244593E-09 -1.879036E-10
        47  15 -5.919511E+06 -8.652275E+05 -5.109798E+04 -2.269414E+06 -1.118201E-09 -9.224013E-10
        47  16 -5.318080E+06 -6.842201E+05 -1.961134E+04 -2.056972E+06  2.454592E-11  1.238950E-09
        47  17 -5.387084E+06 -6.270983E+05  5.428188E+04 -2.089887E+06 -2.102044E-09 -8.360213E-10
        47  18 -5.450110E+06 -6.979498E+05  7.124215E+04 -2.151709E+06 -2.609980E-10 -2.228517E-09
        47  19 -6.540771E+06 -1.184610E+06 -3.505747E+05 -2.430043E+06  1.358374E+05  2.660448E+04
        47  20 -6.467513E+06 -1.044337E+06 -2.327964E+05 -2.394091E+06  8.799487E+04  1.089667E+04
        47  21 -6.388696E+06 -1.032497E+06 -1.734536E+05 -2.387040E+06  3.946474E+04 -2.995016E+03
        47  22 -5.929600E+06 -9.344333E+05 -1.850579E+05 -2.243594E+06  1.364724E+05  2.684984E+04
        47  23 -5.927438E+06 -8.357275E+05 -8.923663E+04 -2.242050E+06  8.951680E+04  1.146974E+04
        47  24 -5.919509E+06 -8.652270E+05 -5.109465E+04 -2.269414E+06  4.187993E+04 -2.089961E+03
        47  25 -5.318059E+06 -6.842142E+05 -1.957428E+04 -2.056969E+06  1.371080E+05  2.709547E+04
        47  26 -5.387075E+06 -6.270959E+05  5.429788E+04 -2.089886E+06  9.104018E+04  1.204337E+04
        47  27 -5.450108E+06 -6.979493E+05  7.124587E+04 -2.151709E+06  4.429713E+04 -1.184246E+03
        48   1 -6.258975E+06 -1.007096E+06 -1.306913E+05 -2.360430E+06 -3.162439E+04  3.006412E+03
        48   2 -6.188755E+06 -9.385250E+05 -8.735951E+04 -2.308016E+06 -1.951064E+04  2.935835E+03
        48   3 -6.073892E+06 -9.281521E+05 -5.436082E+04 -2.310297E+06 -7.306904E+03  2.623119E+03
        48   4 -5.914578E+06 -8.759245E+05 -3.977457E+04 -2.265304E+06 -3.364291E+04  2.249942E+03
        48   5 -5.936378E+06 -8.432919E+05 -2.071138E+04 -2.239270E+06 -2.164753E+04  2.135765E+03
        48   6 -5.913518E+06 -8.688298E+05 -1.188073E+04 -2.267932E+06 -9.563892E+03  1.778835E+03
        48   7 -5.570065E+06 -7.447456E+05  5.113161E+04 -2.170130E+06 -3.566266E+04  1.492999E+03
        48   8 -5.683939E+06 -7.480550E+05  4.593127E+04 -2.170498E+06 -2.378539E+04  1.335334E+03
        48   9 -5.753119E+06 -8.095060E+05  3.059729E+04 -2.225557E+06 -1.182153E+04  9.343175E+02
        48  10 -6.258976E+06 -1.007096E+06 -1.306932E+05 -2.360430E+06 -2.080072E-09 -6.516359E-10
        48  11 -6.188755E+06 -9.385251E+05 -8.736025E+04 -2.308016E+06  3.349332E-09 -5.523549E-12
        48  12 -6.073892E+06 -9.281521E+05 -5.436094E+04 -2.310297E+06  5.813580E-10  8.350406E-10
        48  13 -5.914579E+06 -8.759248E+05 -3.977673E+04 -2.265304E+06 -2.253113E-09 -1.786844E-09
        48  14 -5.936379E+06 -8.432921E+05 -2.071227E+04 -2.239270E+06 -2.672984E-09 -5.894719E-10
        48  15 -5.913519E+06 -8.688298E+05 -1.188091E+04 -2.267932E+06  1.341127E-09  6.164152E-10
        48  16 -5.570066E+06 -7.447460E+05  5.112920E+04 -2.170130E+06 -1.760466E-11 -1.229873E-09
        48  17 -5.683940E+06 -7.480551E+05  4.593019E+04 -2.170498E+06  3.138348E-09 -5.552898E-10
        48  18 -5.753119E+06 -8.095060E+05  3.059702E+04 -2.225557E+06 -6.716627E-10  9.190190E-10
        48  19 -6.258975E+06 -1.007096E+06 -1.306913E+05 -2.360430E+06  3.162439E+04 -3.006412E+03
        48  20 -6.188755E+06 -9.385250E+05 -8.735951E+04 -2.308016E+06  1.951064E+04 -2.935835E+03
        48  21 -6.073892E+06 -9.281521E+05 -5.436082E+04 -2.310297E+06  7.306904E+03 -2.623119E+03
        48  22 -5.914578E+06 -8.759245E+05 -3.977457E+04 -2.265304E+06  3.364291E+04 -2.249942E+03
        48  23 -5.936378E+06 -8.432919E+05 -2.071138E+04 -2.239270E+06  2.164753E+04 -2.135765E+03
        48  24 -5.913518E+06 -8.688298E+05 -1.188073E+04 -2.267932E+06  9.563892E+03 -1.778835E+03
        48  25 -5.570065E+06 -7.447456E+05  5.113161E+04 -2.170130E+06  3.566266E+04 -1.492999E+03
        48  26 -5.683939E+06 -7.480550E+05  4.593127E+04 -2.170498E+06  2.378539E+04 -1.335334E+03
        48  27 -5.753119E+06 -8.095060E+05  3.059729E+04 -2.225557E+06  1.182153E+04 -9.343175E+02
        49   1 -5.946083E+06 -8.826077E+05 -1.774658E+04 -2.276840E+06 -4.643702E+03  6.996833E+02
        49   2 -5.875373E+06 -8.204409E+05  1.073039E+04 -2.221844E+06 -1.762016E+02 -2.588236E+03
        49   3 -5.754752E+06 -8.099837E+05  3.680299E+04 -2.224928E+06  4.283132E+03 -5.851231E+03
        49   4 -5.912721E+06 -8.700462E+05 -9.292742E+03 -2.267691E+06 -6.879992E+03 -1.366859E+02
        49   5 -5.937627E+06 -8.438877E+05 -5.698630E+03 -2.238760E+06 -2.399869E+03 -3.420073E+03
        49   6 -5.912631E+06 -8.694419E+05 -4.517743E+03 -2.267914E+06  2.071588E+03 -6.678677E+03
        49   7 -5.879359E+06 -8.574846E+05 -8.389722E+02 -2.258541E+06 -9.116415E+03 -9.731051E+02
        49   8 -5.999877E+06 -8.673343E+05 -2.212793E+04 -2.255675E+06 -4.623285E+03 -4.251816E+03
        49   9 -6.070485E+06 -9.288984E+05 -4.584045E+04 -2.310890E+06 -1.393263E+02 -7.505886E+03
        49  10 -5.946083E+06 -8.826077E+05 -1.774662E+04 -2.276840E+06 -6.992055E-11 -1.265094E-11
        49  11 -5.875373E+06 -8.204409E+05  1.073037E+04 -2.221844E+06  1.010477E-09 -1.162187E-09
        49  12 -5.754752E+06 -8.099838E+05  3.680290E+04 -2.224928E+06 -3.917569E-09 -2.727261E-09
        49  13 -5.912721E+06 -8.700462E+05 -9.292832E+03 -2.267691E+06  8.557810E-10 -1.618155E-10
        49  14 -5.937627E+06 -8.438877E+05 -5.698663E+03 -2.238760E+06 -1.991552E-09 -3.713444E-10
        49  15 -5.912631E+06 -8.694420E+05 -4.517834E+03 -2.267914E+06 -3.030756E-11 -1.090900E-09
        49  16 -5.879359E+06 -8.574846E+05 -8.391317E+02 -2.258541E+06 -1.260462E-09  1.402416E-09
        49  17 -5.999877E+06 -8.673343E+05 -2.212801E+04 -2.255675E+06  3.110791E-10  1.618605E-09
        49  18 -6.070485E+06 -9.288985E+05 -4.584055E+04 -2.310890E+06 -1.862061E-09 -1.784297E-10
        49  19 -5.946083E+06 -8.826077E+05 -1.774658E+04 -2.276840E+06  4.643702E+03 -6.996833E+02
        49  20 -5.875373E+06 -8.204409E+05  1.073039E+04 -2.221844E+06  1.762016E+02  2.588236E+03
        49  21 -5.754752E+06 -8.099837E+05  3.680299E+04 -2.224928E+06 -4.283132E+03  5.851231E+03
        49  22 -5.912721E+06 -8.700462E+05 -9.292742E+03 -2.267691E+06  6.879992E+03  1.366859E+02
        49  23 -5.937627E+06 -8.438877E+05 -5.698630E+03 -2.238760E+06  2.399869E+03  3.420073E+03
        49  24 -5.912631E+06 -8.694419E+05 -4.517743E+03 -2.267914E+06 -2.071588E+03  6.678677E+03
        49  25 -5.879359E+06 -8.574846E+05 -8.389722E+02 -2.258541E+06  9.116415E+03  9.731051E+02
        49  26 -5.999877E+06 -8.673343E+05 -2.212793E+04 -2.255675E+06  4.623285E+03  4.251816E+03
        49  27 -6.070485E+06 -9.288984E+05 -4.584045E+04 -2.310890E+06  1.393263E+02  7.505886E+03
        50   1 -5.631307E+06 -7.626469E+05  7.023976E+04 -2.190688E+06  5.932130E+03 -8.086466E+03
        50   2 -5.565367E+06 -7.050296E+05  9.227509E+04 -2.138937E+06  1.024574E+04 -1.121187E+04
        50   3 -5.452555E+06 -6.958407E+05  1.120172E+05 -2.141438E+06  1.448754E+04 -1.413362E+04
        50   4 -5.913324E+06 -8.687018E+05 -4.505593E+03 -2.267076E+06  3.748048E+03 -8.904057E+03
        50   5 -5.936809E+06 -8.448469E+05 -5.717757E+03 -2.239813E+06  8.163910E+03 -1.199218E+04
        50   6 -5.913450E+06 -8.694448E+05 -9.305601E+03 -2.266808E+06  1.250749E+04 -1.487672E+04
        50   7 -6.195263E+06 -9.747524E+05 -7.925807E+04 -2.343434E+06  1.565057E+03 -9.721241E+03
        50   8 -6.308116E+06 -9.846561E+05 -1.037226E+05 -2.340634E+06  6.083459E+03 -1.277198E+04
        50   9 -6.374138E+06 -1.043036E+06 -1.306467E+05 -2.392092E+06  1.052907E+04 -1.561921E+04
        50  10 -5.631308E+06 -7.626470E+05  7.023957E+04 -2.190688E+06 -5.052863E-10 -2.483985E-09
        50  11 -5.565368E+06 -7.050298E+05  9.227465E+04 -2.138937E+06 -1.586105E-09 -7.514044E-10
        50  12 -5.452555E+06 -6.958410E+05  1.120165E+05 -2.141438E+06 -1.069646E-09 -1.866220E-09
        50  13 -5.913324E+06 -8.687019E+05 -4.505768E+03 -2.267076E+06 -2.228851E-10 -1.271279E-09
        50  14 -5.936809E+06 -8.448471E+05 -5.718151E+03 -2.239813E+06 -4.083903E-09 -1.023891E-09
        50  15 -5.913451E+06 -8.694451E+05 -9.306309E+03 -2.266808E+06 -3.229538E-09 -2.861682E-10
        50  16 -6.195263E+06 -9.747525E+05 -7.925825E+04 -2.343434E+06  1.522846E-09 -2.586635E-10
        50  17 -6.308116E+06 -9.846563E+05 -1.037230E+05 -2.340634E+06  3.363215E-09  1.096887E-09
        50  18 -6.374138E+06 -1.043036E+06 -1.306474E+05 -2.392092E+06 -7.266319E-10 -7.740976E-10
        50  19 -5.631307E+06 -7.626469E+05  7.023976E+04 -2.190688E+06 -5.932130E+03  8.086466E+03
        50  20 -5.565367E+06 -7.050296E+05  9.227509E+04 -2.138937E+06 -1.024574E+04  1.121187E+04
        50  21 -5.452555E+06 -6.958407E+05  1.120172E+05 -2.141438E+06 -1.448754E+04  1.413362E+04
        50  22 -5.913324E+06 -8.687018E+05 -4.505593E+03 -2.267076E+06 -3.748048E+03  8.904057E+03
        50  23 -5.936809E+06 -8.448469E+05 -5.717757E+03 -2.239813E+06 -8.163910E+03  1.199218E+04
        50  24 -5.913450E+06 -8.694448E+05 -9.305601E+03 -2.266808E+06 -1.250749E+04  1.487672E+04
        50  25 -6.195263E+06 -9.747524E+05 -7.925807E+04 -2.343434E+06 -1.565057E+03  9.721241E+03
        50  26 -6.308116E+06 -9.846561E+05 -1.037226E+05 -2.340634E+06 -6.083459E+03  1.277198E+04
        50  27 -6.374138E+06 -1.043036E+06 -1.306467E+05 -2.392092E+06 -1.052907E+04  1.561921E+04
        51   1 -5.343746E+06 -6.524216E+05  1.391364E+05 -2.111094E+06  1.702469E+04 -1.573453E+04
        51   2 -5.288117E+06 -6.022909E+05  1.497173E+05 -2.066198E+06  2.863570E+04 -1.544350E+04
        51   3 -5.196740E+06 -6.008003E+05  1.503477E+05 -2.064908E+06  4.007673E+04 -1.468095E+04
        51   4 -5.915581E+06 -8.668213E+05 -1.187643E+04 -2.265460E+06  1.507121E+04 -1.646852E+04
        51   5 -5.933972E+06 -8.460649E+05 -2.077194E+04 -2.242322E+06  2.691254E+04 -1.609257E+04
        51   6 -5.916670E+06 -8.740047E+05 -3.981002E+04 -2.262794E+06  3.858248E+04 -1.524539E+04
        51   7 -6.487095E+06 -1.081201E+06 -1.629170E+05 -2.419696E+06  1.311973E+04 -1.720178E+04
        51   8 -6.579419E+06 -1.089813E+06 -1.912972E+05 -2.418278E+06  2.519136E+04 -1.674090E+04
        51   9 -6.636095E+06 -1.147176E+06 -2.300131E+05 -2.460470E+06  3.709012E+04 -1.580912E+04
        51  10 -5.343746E+06 -6.524220E+05  1.391354E+05 -2.111094E+06  1.293547E-09 -3.560154E-10
        51  11 -5.288118E+06 -6.022914E+05  1.497153E+05 -2.066198E+06  4.664164E-10 -3.177800E-10
        51  12 -5.196742E+06 -6.008010E+05  1.503442E+05 -2.064908E+06 -1.266076E-09  9.284496E-11
        51  13 -5.915581E+06 -8.668217E+05 -1.187736E+04 -2.265460E+06 -4.241051E-09 -4.479302E-10
        51  14 -5.933973E+06 -8.460654E+05 -2.077379E+04 -2.242321E+06 -9.730039E-10 -8.669578E-10
        51  15 -5.916671E+06 -8.740053E+05 -3.981327E+04 -2.262794E+06 -4.541797E-10 -9.869844E-10
        51  16 -6.487095E+06 -1.081202E+06 -1.629179E+05 -2.419696E+06 -7.188961E-10 -1.047418E-09
        51  17 -6.579420E+06 -1.089814E+06 -1.912990E+05 -2.418278E+06 -2.162590E-09  6.118049E-10
        51  18 -6.636096E+06 -1.147177E+06 -2.300162E+05 -2.460470E+06 -2.509228E-09 -7.440158E-10
        51  19 -5.343746E+06 -6.524216E+05  1.391364E+05 -2.111094E+06 -1.702469E+04  1.573453E+04
        51  20 -5.288117E+06 -6.022909E+05  1.497173E+05 -2.066198E+06 -2.863570E+04  1.544350E+04
        51  21 -5.196740E+06 -6.008003E+05  1.503477E+05 -2.064908E+06 -4.007673E+04  1.468095E+04
        51  22 -5.915581E+06 -8.668213E+05 -1.187643E+04 -2.265460E+06 -1.507121E+04  1.646852E+04
        51  23 -5.933972E+06 -8.460649E+05 -2.077194E+04 -2.242322E+06 -2.691254E+04  1.609257E+04
        51  24 -5.916670E+06 -8.740047E+05 -3.981002E+04 -2.262794E+06 -3.858248E+04  1.524539E+04
        51  25 -6.487095E+06 -1.081201E+06 -1.629170E+05 -2.419696E+06 -1.311973E+04  1.720178E+04
        51  26 -6.579419E+06 -1.089813E+06 -1.912972E+05 -2.418278E+06 -2.519136E+04  1.674090E+04
        51  27 -6.636095E+06 -1.147176E+06 -2.300131E+05 -2.460470E+06 -3.709012E+04  1.580912E+04
        52   1 -5.108640E+06 -5.642563E+05  1.621877E+05 -2.053270E+06  4.852643E+04 -1.376162E+04
        52   2 -5.066698E+06 -5.110679E+05  1.378404E+05 -2.007423E+06  9.465485E+04  6.924861E+02
        52   3 -5.033041E+06 -5.709296E+05  5.682068E+04 -1.973150E+06  1.399356E+05  1.741309E+04
        52   4 -5.922766E+06 -8.621094E+05 -5.113391E+04 -2.265569E+06  4.660298E+04 -1.448776E+04
        52   5 -5.923584E+06 -8.400252E+05 -8.937711E+04 -2.246809E+06  9.383003E+04  3.770693E+02
        52   6 -5.932960E+06 -9.312925E+05 -1.852323E+05 -2.239617E+06  1.402053E+05  1.750585E+04
        52   7 -6.736245E+06 -1.159932E+06 -2.645118E+05 -2.477618E+06  4.468229E+04 -1.521294E+04
        52   8 -6.779750E+06 -1.168930E+06 -3.166582E+05 -2.485890E+06  9.300640E+04  6.211216E+01
        52   9 -6.832082E+06 -1.291577E+06 -4.273568E+05 -2.505721E+06  1.404744E+05  1.759838E+04
        52  10 -5.108642E+06 -5.642572E+05  1.621829E+05 -2.053269E+06 -8.978582E-10 -1.958184E-09
        52  11 -5.066707E+06 -5.110703E+05  1.378234E+05 -2.007423E+06  1.200314E-09 -3.414677E-10
        52  12 -5.033063E+06 -5.709353E+05  5.678299E+04 -1.973152E+06 -1.767048E-09  5.259748E-10
        52  13 -5.922768E+06 -8.621102E+05 -5.113841E+04 -2.265569E+06 -1.045146E-10 -1.263940E-09
        52  14 -5.923593E+06 -8.400276E+05 -8.939381E+04 -2.246809E+06  1.793969E-09 -1.169918E-09
        52  15 -5.932981E+06 -9.312982E+05 -1.852702E+05 -2.239619E+06  2.870884E-09  6.563567E-11
        52  16 -6.736247E+06 -1.159933E+06 -2.645161E+05 -2.477618E+06  4.398817E-10 -1.127936E-09
        52  17 -6.779760E+06 -1.168932E+06 -3.166746E+05 -2.485890E+06 -1.851398E-09 -9.087046E-10
        52  18 -6.832103E+06 -1.291582E+06 -4.273949E+05 -2.505723E+06  2.296869E-09  6.361601E-10
        52  19 -5.108640E+06 -5.642563E+05  1.621877E+05 -2.053270E+06 -4.852643E+04  1.376162E+04
        52  20 -5.066698E+06 -5.110679E+05  1.378404E+05 -2.007423E+06 -9.465485E+04 -6.924861E+02
        52  21 -5.033041E+06 -5.709296E+05  5.682068E+04 -1.973150E+06 -1.399356E+05 -1.741309E+04
        52  22 -5.922766E+06 -8.621094E+05 -5.113391E+04 -2.265569E+06 -4.660298E+04  1.448776E+04
        52  23 -5.923584E+06 -8.400252E+05 -8.937711E+04 -2.246809E+06 -9.383003E+04 -3.770693E+02
        52  24 -5.932960E+06 -9.312925E+05 -1.852323E+05 -2.239617E+06 -1.402053E+05 -1.750585E+04
        52  25 -6.736245E+06 -1.159932E+06 -2.645118E+05 -2.477618E+06 -4.468229E+04  1.521294E+04
        52  26 -6.779750E+06 -1.168930E+06 -3.166582E+05 -2.485890E+06 -9.300640E+04 -6.211216E+01
        52  27 -6.832082E+06 -1.291577E+06 -4.273568E+05 -2.505721E+06 -1.404744E+05 -1.759838E+04
        53   1 -4.932486E+06 -5.327351E+05  2.734293E+04 -2.096284E+06  1.805355E+05  2.760797E+04
        53   2 -4.904306E+06 -3.356507E+05 -1.170270E+05 -1.937763E+06  3.749567E+05  1.008359E+05
        53   3 -5.192404E+06 -9.600399E+05 -6.282577E+05 -1.583690E+06  5.598437E+05  1.992759E+05
        53   4 -5.965178E+06 -8.357189E+05 -2.282198E+05 -2.289412E+06  1.737332E+05  2.506188E+04
        53   5 -5.854590E+06 -7.571945E+05 -3.796407E+05 -2.261134E+06  3.807483E+05  1.029796E+05
        53   6 -6.063357E+06 -1.503535E+06 -9.084260E+05 -2.037140E+06  5.782439E+05  2.060189E+05
        53   7 -6.996823E+06 -1.138722E+06 -4.838595E+05 -2.482293E+06  1.669431E+05  2.251805E+04
        53   8 -6.803974E+06 -1.178579E+06 -6.423371E+05 -2.584016E+06  3.865297E+05  1.051178E+05
        53   9 -6.933444E+06 -2.046490E+06 -1.188658E+06 -2.489878E+06  5.966151E+05  2.127348E+05
        53  10 -4.932522E+06 -5.327448E+05  2.727969E+04 -2.096288E+06 -9.795948E-11  1.450386E-10
        53  11 -4.904461E+06 -3.356999E+05 -1.173129E+05 -1.937794E+06 -2.785241E-09  1.880041E-09
        53  12 -5.192753E+06 -9.601680E+05 -6.289274E+05 -1.583780E+06 -7.891988E-10  2.005740E-10
        53  13 -5.965211E+06 -8.357277E+05 -2.282783E+05 -2.289415E+06  9.893374E-10  1.505923E-09
        53  14 -5.854750E+06 -7.572455E+05 -3.799362E+05 -2.261166E+06  1.375282E-09 -4.762022E-09
        53  15 -6.063730E+06 -1.503672E+06 -9.091419E+05 -2.037237E+06  1.943325E-09 -6.487891E-10
        53  16 -6.996853E+06 -1.138731E+06 -4.839134E+05 -2.482296E+06 -8.066735E-10  4.760473E-10
        53  17 -6.804139E+06 -1.178632E+06 -6.426424E+05 -2.584049E+06  2.342246E-09  5.129405E-10
        53  18 -6.933843E+06 -2.046637E+06 -1.189422E+06 -2.489981E+06 -5.181373E-11 -2.777492E-10
        53  19 -4.932486E+06 -5.327351E+05  2.734293E+04 -2.096284E+06 -1.805355E+05 -2.760797E+04
        53  20 -4.904306E+06 -3.356507E+05 -1.170270E+05 -1.937763E+06 -3.749567E+05 -1.008359E+05
        53  21 -5.192404E+06 -9.600399E+05 -6.282577E+05 -1.583690E+06 -5.598437E+05 -1.992759E+05
        53  22 -5.965178E+06 -8.357189E+05 -2.282198E+05 -2.289412E+06 -1.737332E+05 -2.506188E+04
        53  23 -5.854590E+06 -7.571945E+05 -3.796407E+05 -2.261134E+06 -3.807483E+05 -1.029796E+05
        53  24 -6.063357E+06 -1.503535E+06 -9.084260E+05 -2.037140E+06 -5.782439E+05 -2.060189E+05
        53  25 -6.996823E+06 -1.138722E+06 -4.838595E+05 -2.482293E+06 -1.669431E+05 -2.251805E+04
        53  26 -6.803974E+06 -1.178579E+06 -6.423371E+05 -2.584016E+06 -3.865297E+05 -1.051178E+05
        53  27 -6.933444E+06 -2.046490E+06 -1.188658E+06 -2.489878E+06 -5.966151E+05 -2.127348E+05
        54   1 -1.202420E+06 -1.778427E+05 -1.424919E+05 -9.460928E+02  8.385999E+04  1.308041E+04
        54   2 -1.149027E+06 -2.965704E+05 -2.013432E+05 -4.551675E+03  6.236194E+04  3.907545E+04
        54   3 -1.054779E+06 -2.694964E+05 -2.094445E+05 -5.783311E+04  4.095503E+04  3.753708E+04
        54   4  5.315238E+03  1.230181E+05  1.549844E+05 -3.943242E+04  1.059603E+05  1.315137E+04
        54   5 -1.638072E+04 -1.608484E+04  6.801737E+04 -1.438491E+04  6.922602E+04  3.908962E+04
        54   6  5.345321E+03 -6.884677E+03  4.231348E+04 -3.900565E+04  3.258647E+04  3.751472E+04
        54   7  1.214384E+06  4.237764E+05  4.523558E+05 -7.799496E+04  1.281035E+05  1.321952E+04
        54   8  1.117445E+06  2.643087E+05  3.372884E+05 -2.423704E+04  7.610249E+04  3.910355E+04
        54   9  1.066503E+06  2.556474E+05  2.939934E+05 -2.014640E+04  2.420364E+04  3.749188E+04
        54  10 -1.202428E+06 -1.778447E+05 -1.425054E+05 -9.469767E+02  7.357329E-10  5.401975E-10
        54  11 -1.149032E+06 -2.965731E+05 -2.013533E+05 -4.553639E+03  9.442534E-10 -2.526547E-09
        54  12 -1.054781E+06 -2.694983E+05 -2.094503E+05 -5.783435E+04 -6.683440E-10  8.412868E-11
        54  13  5.303136E+03  1.230149E+05  1.549630E+05 -3.943354E+04 -8.653678E-11 -1.479347E-10
        54  14 -1.638628E+04 -1.608777E+04  6.800550E+04 -1.438709E+04 -1.864438E-09 -4.983314E-09
        54  15  5.343803E+03 -6.886473E+03  4.230884E+04 -3.900664E+04  3.317639E-11  3.158584E-10
        54  16  1.214366E+06  4.237718E+05  4.523247E+05 -7.799633E+04  9.706025E-10 -8.597818E-10
        54  17  1.117439E+06  2.643055E+05  3.372747E+05 -2.423944E+04  6.612147E-10 -1.728481E-09
        54  18  1.066502E+06  2.556457E+05  2.939897E+05 -2.014713E+04 -1.715811E-10 -6.812229E-10
        54  19 -1.202420E+06 -1.778427E+05 -1.424919E+05 -9.460928E+02 -8.385999E+04 -1.308041E+04
        54  20 -1.149027E+06 -2.965704E+05 -2.013432E+05 -4.551675E+03 -6.236194E+04 -3.907545E+04
        54  21 -1.054779E+06 -2.694964E+05 -2.094445E+05 -5.783311E+04 -4.095503E+04 -3.753708E+04
        54  22  5.315238E+03  1.230181E+05  1.549844E+05 -3.943242E+04 -1.059603E+05 -1.315137E+04
        54  23 -1.638072E+04 -1.608484E+04  6.801737E+04 -1.438491E+04 -6.922602E+04 -3.908962E+04
        54  24  5.345321E+03 -6.884677E+03  4.231348E+04 -3.900565E+04 -3.258647E+04 -3.751472E+04
        54  25  1.214384E+06  4.237764E+05  4.523558E+05 -7.799496E+04 -1.281035E+05 -1.321952E+04
        54  26  1.117445E+06  2.643087E+05  3.372884E+05 -2.423704E+04 -7.610249E+04 -3.910355E+04
        54  27  1.066503E+06  2.556474E+05  2.939934E+05 -2.014640E+04 -2.420364E+04 -3.749188E+04
        55   1 -9.735080E+05 -2.287345E+05 -1.969190E+05 -3.708099E+04  2.620858E+04  3.190407E+04
        55   2 -9.028927E+05 -2.240076E+05 -1.957747E+05 -1.431475E+04  1.824629E+04  3.070700E+04
        55   3 -8.266765E+05 -2.048528E+05 -1.856322E+05 -4.159946E+04  1.028160E+04  2.767259E+04
        55   4 -2.972771E+03  1.173783E+04  3.440464E+04 -3.922886E+04  2.609133E+04  3.190037E+04
        55   5 -5.842875E+03 -1.828452E+03  1.758319E+04 -1.419464E+04  1.710348E+04  3.070230E+04
        55   6 -2.945151E+03 -7.996619E+02  1.046274E+04 -3.920663E+04  8.114191E+03  2.766804E+04
        55   7  9.684274E+05  2.521421E+05  2.656622E+05 -4.138050E+04  2.597387E+04  3.189667E+04
        55   8  8.919462E+05  2.202927E+05  2.308848E+05 -1.407462E+04  1.595901E+04  3.069760E+04
        55   9  8.214094E+05  2.032045E+05  2.065102E+05 -3.681074E+04  5.943906E+03  2.766347E+04
        55  10 -9.735090E+05 -2.287358E+05 -1.969222E+05 -3.708166E+04  1.060475E-09 -7.137337E-10
        55  11 -9.028933E+05 -2.240087E+05 -1.957771E+05 -1.431521E+04 -1.421174E-09  1.022570E-09
        55  12 -8.266768E+05 -2.048536E+05 -1.856338E+05 -4.159969E+04  1.517797E-09 -1.581473E-10
        55  13 -2.973775E+03  1.173656E+04  3.440145E+04 -3.922953E+04 -5.302053E-10 -1.305108E-10
        55  14 -5.843442E+03 -1.829542E+03  1.758087E+04 -1.419506E+04 -6.578683E-10 -6.778759E-10
        55  15 -2.945427E+03 -8.005016E+02  1.046118E+04 -3.920681E+04  2.502043E-09 -3.490755E-10
        55  16  9.684264E+05  2.521409E+05  2.656590E+05 -4.138117E+04 -2.204369E-09  1.065700E-09
        55  17  8.919457E+05  2.202916E+05  2.308826E+05 -1.407501E+04  4.944704E-10 -2.710863E-09
        55  18  8.214091E+05  2.032037E+05  2.065087E+05 -3.681087E+04 -2.247900E-11  5.616056E-10
        55  19 -9.735080E+05 -2.287345E+05 -1.969190E+05 -3.708099E+04 -2.620858E+04 -3.190407E+04
        55  20 -9.028927E+05 -2.240076E+05 -1.957747E+05 -1.431475E+04 -1.824629E+04 -3.070700E+04
        55  21 -8.266765E+05 -2.048528E+05 -1.856322E+05 -4.159946E+04 -1.028160E+04 -2.767259E+04
        55  22 -2.972771E+03  1.173783E+04  3.440464E+04 -3.922886E+04 -2.609133E+04 -3.190037E+04
        55  23 -5.842875E+03 -1.828452E+03  1.758319E+04 -1.419464E+04 -1.710348E+04 -3.070230E+04
        55  24 -2.945151E+03 -7.996619E+02  1.046274E+04 -3.920663E+04 -8.114191E+03 -2.766804E+04
        55  25  9.684274E+05  2.521421E+05  2.656622E+05 -4.138050E+04 -2.597387E+04 -3.189667E+04
        55  26  8.919462E+05  2.202927E+05  2.308848E+05 -1.407462E+04 -1.595901E+04 -3.069760E+04
        55  27  8.214094E+05  2.032045E+05  2.065102E+05 -3.681074E+04 -5.943906E+03 -2.766347E+04
        56   1 -7.381241E+05 -1.808176E+05 -1.662963E+05 -3.942884E+04  8.086836E+03  2.559438E+04
        56   2 -6.652668E+05 -1.639150E+05 -1.527302E+05 -1.437414E+04  5.947682E+03  2.259164E+04
        56   3 -5.913056E+05 -1.455974E+05 -1.373169E+05 -3.942683E+04  3.804266E+03  1.946652E+04
        56   4 -3.942588E+03  9.708571E+02  8.134820E+03 -3.922635E+04  6.470527E+03  2.559117E+04
        56   5 -4.486925E+03 -2.766600E+02  4.413184E+03 -1.417397E+04  4.261431E+03  2.258937E+04
        56   6 -3.922001E+03 -9.789501E+01  2.585808E+03 -3.922569E+04  2.048323E+03  1.946528E+04
        56   7  7.307342E+05  1.827205E+05  1.825283E+05 -3.902370E+04  4.852310E+03  2.558795E+04
        56   8  6.566940E+05  1.633302E+05  1.615261E+05 -1.397363E+04  2.573391E+03  2.258710E+04
        56   9  5.837784E+05  1.453767E+05  1.424644E+05 -3.902435E+04  2.907247E+02  1.946404E+04
        56  10 -7.381244E+05 -1.808183E+05 -1.662977E+05 -3.942900E+04  2.155160E-09  4.245964E-10
        56  11 -6.652670E+05 -1.639155E+05 -1.527313E+05 -1.437424E+04  8.605813E-10 -8.236941E-10
        56  12 -5.913057E+05 -1.455978E+05 -1.373177E+05 -3.942689E+04  5.878451E-11  1.418451E-10
        56  13 -3.942809E+03  9.701426E+02  8.133510E+03 -3.922648E+04 -8.623912E-10  2.762130E-10
        56  14 -4.487081E+03 -2.772128E+02  4.412191E+03 -1.417405E+04  6.580855E-10 -6.724682E-10
        56  15 -3.922107E+03 -9.830300E+01  2.585088E+03 -3.922572E+04 -2.632783E-09  5.648611E-11
        56  16  7.307340E+05  1.827198E+05  1.825270E+05 -3.902380E+04 -7.640153E-10  4.748035E-10
        56  17  6.566939E+05  1.633296E+05  1.615251E+05 -1.397367E+04 -1.736454E-09 -7.590749E-10
        56  18  5.837783E+05  1.453763E+05  1.424636E+05 -3.902436E+04 -1.057036E-09  2.573760E-11
        56  19 -7.381241E+05 -1.808176E+05 -1.662963E+05 -3.942884E+04 -8.086836E+03 -2.559438E+04
        56  20 -6.652668E+05 -1.639150E+05 -1.527302E+05 -1.437414E+04 -5.947682E+03 -2.259164E+04
        56  21 -5.913056E+05 -1.455974E+05 -1.373169E+05 -3.942683E+04 -3.804266E+03 -1.946652E+04
        56  22 -3.942588E+03  9.708571E+02  8.134820E+03 -3.922635E+04 -6.470527E+03 -2.559117E+04
        56  23 -4.486925E+03 -2.766600E+02  4.413184E+03 -1.417397E+04 -4.261431E+03 -2.258937E+04
        56  24 -3.922001E+03 -9.789501E+01  2.585808E+03 -3.922569E+04 -2.048323E+03 -1.946528E+04
        56  25  7.307342E+05  1.827205E+05  1.825283E+05 -3.902370E+04 -4.852310E+03 -2.558795E+04
        56  26  6.566940E+05  1.633302E+05  1.615261E+05 -1.397363E+04 -2.573391E+03 -2.258710E+04
        56  27  5.837784E+05  1.453767E+05  1.424644E+05 -3.902435E+04 -2.907247E+02 -1.946404E+04
        57   1 -5.018957E+05 -1.231758E+05 -1.161993E+05 -3.919074E+04  3.358072E+03  1.762696E+04
        57   2 -4.285852E+05 -1.051273E+05 -9.985411E+04 -1.408379E+04  2.837491E+03  1.450458E+04
        57   3 -3.550314E+05 -8.690734E+04 -8.310004E+04 -3.908378E+04  2.314219E+03  1.137430E+04
        57   4 -4.089043E+03  4.694948E+01  1.955333E+03 -3.922602E+04  1.638551E+03  1.762630E+04
        57   5 -4.201979E+03 -4.634405E+01  1.056381E+03 -1.417361E+04  1.113130E+03  1.450457E+04
        57   6 -4.075804E+03  3.303467E+01  5.696903E+02 -3.922603E+04  5.850800E+02  1.137496E+04
        57   7  4.939453E+05  1.232518E+05  1.200927E+05 -3.926132E+04 -8.234245E+01  1.762563E+04
        57   8  4.203467E+05  1.050216E+05  1.019543E+05 -1.426348E+04 -6.124040E+02  1.450456E+04
        57   9  3.469929E+05  8.696451E+04  8.423079E+04 -3.936833E+04 -1.145032E+03  1.137563E+04
        57  10 -5.018958E+05 -1.231761E+05 -1.161999E+05 -3.919079E+04  6.150962E-10  8.627484E-10
        57  11 -4.285853E+05 -1.051275E+05 -9.985452E+04 -1.408382E+04  1.618350E-10  7.448974E-10
        57  12 -3.550315E+05 -8.690748E+04 -8.310030E+04 -3.908380E+04  8.291945E-10  4.692174E-10
        57  13 -4.089129E+03  4.661513E+01  1.954744E+03 -3.922605E+04  1.054819E-09  7.202373E-10
        57  14 -4.202036E+03 -4.657029E+01  1.055983E+03 -1.417362E+04  4.515267E-10 -4.902013E-10
        57  15 -4.075839E+03  3.289563E+01  5.694465E+02 -3.922603E+04 -1.198432E-09 -4.896026E-10
        57  16  4.939452E+05  1.232515E+05  1.200921E+05 -3.926132E+04  1.081239E-10 -1.687351E-10
        57  17  4.203466E+05  1.050214E+05  1.019539E+05 -1.426347E+04 -8.819278E-10 -8.683303E-10
        57  18  3.469928E+05  8.696437E+04  8.423054E+04 -3.936832E+04  7.985729E-10 -5.665817E-10
        57  19 -5.018957E+05 -1.231758E+05 -1.161993E+05 -3.919074E+04 -3.358072E+03 -1.762696E+04
        57  20 -4.285852E+05 -1.051273E+05 -9.985411E+04 -1.408379E+04 -2.837491E+03 -1.450458E+04
        57  21 -3.550314E+05 -8.690734E+04 -8.310004E+04 -3.908378E+04 -2.314219E+03 -1.137430E+04
        57  22 -4.089043E+03  4.694948E+01  1.955333E+03 -3.922602E+04 -1.638551E+03 -1.762630E+04
        57  23 -4.201979E+03 -4.634405E+01  1.056381E+03 -1.417361E+04 -1.113130E+03 -1.450457E+04
        57  24 -4.075804E+03  3.303467E+01  5.696903E+02 -3.922603E+04 -5.850800E+02 -1.137496E+04
        57  25  4.939453E+05  1.232518E+05  1.200927E+05 -3.926132E+04  8.234245E+01 -1.762563E+04
        57  26  4.203467E+05  1.050216E+05  1.019543E+05 -1.426348E+04  6.124040E+02 -1.450456E+04
        57  27  3.469929E+05  8.696451E+04  8.423079E+04 -3.936833E+04  1.145032E+03 -1.137563E+04
        58   1 -2.654797E+05 -6.462649E+04 -6.153785E+04 -3.910497E+04  2.225229E+03  9.550330E+03
        58   2 -1.920103E+05 -4.650418E+04 -4.458820E+04 -1.407356E+04  2.178695E+03  6.420272E+03
        58   3 -1.185803E+05 -2.832808E+04 -2.760928E+04 -3.914842E+04  2.130996E+03  3.293779E+03
        58   4 -4.123778E+03  3.664273E+01  3.790004E+02 -3.922614E+04  4.970621E+02  9.551319E+03
        58   5 -4.099043E+03  1.768990E+01  8.725326E+01 -1.417347E+04  4.523868E+02  6.421542E+03
        58   6 -4.117915E+03  5.283545E+01 -1.759686E+02 -3.922614E+04  4.065510E+02  3.295350E+03
        58   7  2.572949E+05  6.469487E+04  6.229112E+04 -3.934734E+04 -1.231828E+03  9.552307E+03
        58   8  1.838447E+05  4.653701E+04  4.476025E+04 -1.427340E+04 -1.274441E+03  6.422813E+03
        58   9  1.103565E+05  2.843281E+04  2.725643E+04 -3.930386E+04 -1.318210E+03  3.296921E+03
        58  10 -2.654797E+05 -6.462659E+04 -6.153803E+04 -3.910499E+04  2.750524E-10 -2.109715E-11
        58  11 -1.920103E+05 -4.650422E+04 -4.458829E+04 -1.407357E+04  2.114263E-09 -6.387670E-10
        58  12 -1.185804E+05 -2.832810E+04 -2.760931E+04 -3.914843E+04  8.968248E-11 -1.303466E-10
        58  13 -4.123802E+03  3.654470E+01  3.788285E+02 -3.922614E+04 -1.741399E-10  8.941549E-10
        58  14 -4.099054E+03  1.764556E+01  8.717538E+01 -1.417347E+04  1.952307E-09  7.650668E-10
        58  15 -4.117918E+03  5.282374E+01 -1.759893E+02 -3.922614E+04 -1.551060E-09 -1.210100E-09
        58  16  2.572949E+05  6.469477E+04  6.229094E+04 -3.934733E+04 -1.568499E-10  3.218849E-10
        58  17  1.838446E+05  4.653697E+04  4.476017E+04 -1.427339E+04  2.432675E-10  5.049376E-10
        58  18  1.103565E+05  2.843279E+04  2.725640E+04 -3.930386E+04 -1.093557E-09 -2.214059E-11
        58  19 -2.654797E+05 -6.462649E+04 -6.153785E+04 -3.910497E+04 -2.225229E+03 -9.550330E+03
        58  20 -1.920103E+05 -4.650418E+04 -4.458820E+04 -1.407356E+04 -2.178695E+03 -6.420272E+03
        58  21 -1.185803E+05 -2.832808E+04 -2.760928E+04 -3.914842E+04 -2.130996E+03 -3.293779E+03
        58  22 -4.123778E+03  3.664273E+01  3.790004E+02 -3.922614E+04 -4.970621E+02 -9.551319E+03
        58  23 -4.099043E+03  1.768990E+01  8.725326E+01 -1.417347E+04 -4.523868E+02 -6.421542E+03
        58  24 -4.117915E+03  5.283545E+01 -1.759686E+02 -3.922614E+04 -4.065510E+02 -3.295350E+03
        58  25  2.572949E+05  6.469487E+04  6.229112E+04 -3.934734E+04  1.231828E+03 -9.552307E+03
        58  26  1.838447E+05  4.653701E+04  4.476025E+04 -1.427340E+04  1.274441E+03 -6.422813E+03
        58  27  1.103565E+05  2.843281E+04  2.725643E+04 -3.930386E+04  1.318210E+03 -3.296921E+03
        59   1 -2.898590E+04 -6.025149E+03 -6.004276E+03 -3.925073E+04  2.191918E+03  1.462895E+03
        59   2  4.456858E+04  1.209146E+04  1.086310E+04 -1.420508E+04  2.502742E+03 -1.664100E+03
        59   3  1.179402E+05  3.003944E+04  2.746222E+04 -3.926532E+04  2.813959E+03 -4.728159E+03
        59   4 -4.148173E+03  7.902907E+01 -3.212251E+02 -3.922624E+04  4.485983E+02  1.464559E+03
        59   5 -4.051445E+03  5.617013E+01 -6.944014E+02 -1.417328E+04  7.940270E+02 -1.662554E+03
        59   6 -4.149691E+03 -1.412701E+02 -1.359909E+03 -3.922644E+04  1.139813E+03 -4.726709E+03
        59   7  2.069013E+04  6.183166E+03  5.361796E+03 -3.920176E+04 -1.294791E+03  1.466222E+03
        59   8 -5.266929E+04 -1.197929E+04 -1.225206E+04 -1.414148E+04 -9.145553E+02 -1.661008E+03
        59   9 -1.262259E+05 -3.032305E+04 -3.018306E+04 -3.918757E+04 -5.340067E+02 -4.725260E+03
        59  10 -2.898591E+04 -6.025153E+03 -6.004289E+03 -3.925073E+04 -4.782521E-11  1.265538E-09
        59  11  4.456857E+04  1.209146E+04  1.086309E+04 -1.420508E+04 -5.748944E-10 -2.208965E-10
        59  12  1.179402E+05  3.003941E+04  2.746216E+04 -3.926531E+04 -1.624772E-10 -6.621750E-10
        59  13 -4.148174E+03  7.902671E+01 -3.212296E+02 -3.922624E+04 -2.392444E-09 -6.961872E-10
        59  14 -4.051447E+03  5.616700E+01 -6.944077E+02 -1.417328E+04  3.062896E-10 -1.222012E-09
        59  15 -4.149698E+03 -1.412944E+02 -1.359953E+03 -3.922644E+04  4.931873E-10  1.843155E-11
        59  16  2.069013E+04  6.183163E+03  5.361789E+03 -3.920176E+04 -3.730200E-10  9.229484E-10
        59  17 -5.266929E+04 -1.197930E+04 -1.225207E+04 -1.414148E+04  1.866809E-09 -1.282234E-09
        59  18 -1.262259E+05 -3.032307E+04 -3.018310E+04 -3.918757E+04  3.840832E-10 -3.546699E-10
        59  19 -2.898590E+04 -6.025149E+03 -6.004276E+03 -3.925073E+04 -2.191918E+03 -1.462895E+03
        59  20  4.456858E+04  1.209146E+04  1.086310E+04 -1.420508E+04 -2.502742E+03  1.664100E+03
        59  21  1.179402E+05  3.003944E+04  2.746222E+04 -3.926532E+04 -2.813959E+03  4.728159E+03
        59  22 -4.148173E+03  7.902907E+01 -3.212251E+02 -3.922624E+04 -4.485983E+02 -1.464559E+03
        59  23 -4.051445E+03  5.617013E+01 -6.944014E+02 -1.417328E+04 -7.940270E+02  1.662554E+03
        59  24 -4.149691E+03 -1.412701E+02 -1.359909E+03 -3.922644E+04 -1.139813E+03  4.726709E+03
        59  25  2.069013E+04  6.183166E+03  5.361796E+03 -3.920176E+04  1.294791E+03 -1.466222E+03
        59  26 -5.266929E+04 -1.197929E+04 -1.225206E+04 -1.414148E+04  9.145553E+02  1.661008E+03
        59  27 -1.262259E+05 -3.032305E+04 -3.018306E+04 -3.918757E+04  5.340067E+02  4.725260E+03
        60   1  2.074429E+05  5.262262E+04  4.876869E+04 -3.966873E+04  3.369594E+03 -6.679407E+03
        60   2  2.812873E+05  7.086176E+04  6.475275E+04 -1.416194E+04  4.393236E+03 -9.752583E+03
        60   3  3.544087E+05  8.673064E+04  7.947585E+04 -3.873398E+04  5.419161E+03 -1.188336E+04
        60   4 -4.296412E+03  1.733950E+02 -1.760441E+03 -3.922016E+04  1.412558E+03 -6.677894E+03
        60   5 -3.891461E+03  2.799536E+02 -3.026279E+03 -1.418066E+04  2.955869E+03 -9.751915E+03
        60   6 -4.305305E+03 -2.074285E+03 -5.914211E+03 -3.922148E+04  4.501344E+03 -1.188333E+04
        60   7 -2.159946E+05 -5.227906E+04 -5.229271E+04 -3.877174E+04 -5.438143E+02 -6.676383E+03
        60   8 -2.889956E+05 -7.030771E+04 -7.081099E+04 -1.419936E+04  1.519159E+03 -9.751248E+03
        60   9 -3.629012E+05 -9.088849E+04 -9.131329E+04 -3.970868E+04  3.584054E+03 -1.188330E+04
        60  10  2.074428E+05  5.262256E+04  4.876858E+04 -3.966872E+04 -8.048633E-10 -1.551782E-09
        60  11  2.812873E+05  7.086165E+04  6.475254E+04 -1.416190E+04  1.007902E-09  5.252282E-10
        60  12  3.544086E+05  8.673048E+04  7.947553E+04 -3.873393E+04  2.428573E-09  4.716580E-10
        60  13 -4.296426E+03  1.733466E+02 -1.760529E+03 -3.922015E+04 -2.099669E-10 -8.571367E-11
        60  14 -3.891496E+03  2.798492E+02 -3.026474E+03 -1.418064E+04  1.448722E-09  2.562421E-10
        60  15 -4.305365E+03 -2.074442E+03 -5.914515E+03 -3.922144E+04  2.502044E-09  1.792214E-10
        60  16 -2.159946E+05 -5.227911E+04 -5.229279E+04 -3.877174E+04  9.058324E-10  4.908426E-10
        60  17 -2.889956E+05 -7.030781E+04 -7.081117E+04 -1.419935E+04  1.427527E-10  7.024261E-10
        60  18 -3.629013E+05 -9.088864E+04 -9.131357E+04 -3.970865E+04 -2.497278E-09 -5.363675E-10
        60  19  2.074429E+05  5.262262E+04  4.876869E+04 -3.966873E+04 -3.369594E+03  6.679407E+03
        60  20  2.812873E+05  7.086176E+04  6.475275E+04 -1.416194E+04 -4.393236E+03  9.752583E+03
        60  21  3.544087E+05  8.673064E+04  7.947585E+04 -3.873398E+04 -5.419161E+03  1.188336E+04
        60  22 -4.296412E+03  1.733950E+02 -1.760441E+03 -3.922016E+04 -1.412558E+03  6.677894E+03
        60  23 -3.891461E+03  2.799536E+02 -3.026279E+03 -1.418066E+04 -2.955869E+03  9.751915E+03
        60  24 -4.305305E+03 -2.074285E+03 -5.914211E+03 -3.922148E+04 -4.501344E+03  1.188333E+04
        60  25 -2.159946E+05 -5.227906E+04 -5.229271E+04 -3.877174E+04  5.438143E+02  6.676383E+03
        60  26 -2.889956E+05 -7.030771E+04 -7.081099E+04 -1.419936E+04 -1.519159E+03  9.751248E+03
        60  27 -3.629012E+05 -9.088849E+04 -9.131329E+04 -3.970868E+04 -3.584054E+03  1.188330E+04
        61   1  4.428112E+05  1.121106E+05  9.921543E+04 -4.219917E+04  1.075984E+04 -1.563545E+04
        61   2  5.192228E+05  1.316745E+05  1.121311E+05 -1.219558E+04  9.311214E+03 -1.790351E+04
        61   3  5.900632E+05  1.271802E+05  1.200265E+05 -3.187982E+04  7.861610E+03 -6.083671E+03
        61   4 -5.683114E+03  1.137233E+03 -7.262130E+03 -3.913405E+04  5.613038E+03 -1.563406E+04
        61   5 -2.225699E+03  2.640441E+03 -1.175711E+04 -1.428789E+04  1.194209E+04 -1.790482E+04
        61   6 -5.699279E+03 -2.127493E+04 -2.667667E+04 -3.913258E+04  1.827013E+04 -6.082421E+03
        61   7 -4.539928E+05 -1.098506E+05 -1.137536E+05 -3.607113E+04  4.699348E+02 -1.563272E+04
        61   8 -5.234247E+05 -1.264131E+05 -1.356643E+05 -1.637843E+04  1.457076E+04 -1.790614E+04
        61   9 -6.011388E+05 -1.697563E+05 -1.734056E+05 -4.637838E+04  2.866868E+04 -6.081413E+03
        61  10  4.428111E+05  1.121103E+05  9.921475E+04 -4.219903E+04  1.812909E-09  1.875838E-11
        61  11  5.192227E+05  1.316741E+05  1.121303E+05 -1.219544E+04 -1.752299E-09 -2.658051E-10
        61  12  5.900632E+05  1.271802E+05  1.200263E+05 -3.187979E+04  1.581071E-09 -1.516580E-11
        61  13 -5.683213E+03  1.136963E+03 -7.262649E+03 -3.913398E+04 -3.322826E-09  4.628905E-10
        61  14 -2.225938E+03  2.640058E+03 -1.175798E+04 -1.428772E+04  5.260515E-10 -4.845936E-11
        61  15 -5.699647E+03 -2.127506E+04 -2.667737E+04 -3.913249E+04  7.104308E-10 -5.023909E-11
        61  16 -4.539929E+05 -1.098508E+05 -1.137541E+05 -3.607113E+04  2.450744E-09 -4.964911E-10
        61  17 -5.234250E+05 -1.264135E+05 -1.356653E+05 -1.637822E+04 -1.154338E-09  1.919163E-10
        61  18 -6.011397E+05 -1.697565E+05 -1.734072E+05 -4.637824E+04 -1.902898E-09  2.728591E-10
        61  19  4.428112E+05  1.121106E+05  9.921543E+04 -4.219917E+04 -1.075984E+04  1.563545E+04
        61  20  5.192228E+05  1.316745E+05  1.121311E+05 -1.219558E+04 -9.311214E+03  1.790351E+04
        61  21  5.900632E+05  1.271802E+05  1.200265E+05 -3.187982E+04 -7.861610E+03  6.083671E+03
        61  22 -5.683114E+03  1.137233E+03 -7.262130E+03 -3.913405E+04 -5.613038E+03  1.563406E+04
        61  23 -2.225699E+03  2.640441E+03 -1.175711E+04 -1.428789E+04 -1.194209E+04  1.790482E+04
        61  24 -5.699279E+03 -2.127493E+04 -2.667667E+04 -3.913258E+04 -1.827013E+04  6.082421E+03
        61  25 -4.539928E+05 -1.098506E+05 -1.137536E+05 -3.607113E+04 -4.699348E+02  1.563272E+04
        61  26 -5.234247E+05 -1.264131E+05 -1.356643E+05 -1.637843E+04 -1.457076E+04  1.790614E+04
        61  27 -6.011388E+05 -1.697563E+05 -1.734056E+05 -4.637838E+04 -2.866868E+04  6.081413E+03
        62   1  8.722312E+05  2.810543E+06  8.409900E+05 -8.678299E+05  3.506374E+04  2.197216E+05
        62   2  6.038279E+05  1.964998E+06  5.303665E+05 -7.540512E+05  1.072441E+05  6.411792E+04
        62   3  3.945186E+05  1.153785E+06  3.353822E+05 -8.256448E+05  9.718232E+04 -9.158822E+04
        62   4  6.105889E+04 -4.681995E+05  6.143474E+04 -8.205164E+05  3.607921E+04  3.281252E+04
        62   5  1.792335E+04 -4.726086E+05  3.751162E+04 -7.279603E+05  1.075635E+05  1.402830E+04
        62   6  1.034845E+04 -4.669053E+05  3.454635E+04 -8.207916E+05  9.666760E+04 -5.071353E+03
        62   7 -7.508626E+05 -3.737021E+06 -7.187410E+05 -7.734345E+05  3.706952E+04 -1.531179E+05
        62   8 -5.683467E+05 -2.904559E+06 -4.556411E+05 -7.019627E+05  1.078794E+05 -3.586894E+04
        62   9 -3.739684E+05 -2.085037E+06 -2.663723E+05 -8.159462E+05  9.615340E+04  8.122579E+04
        62  10  8.722170E+05  2.810491E+06  8.408973E+05 -8.678361E+05  4.044005E-10  1.677541E-09
        62  11  6.038144E+05  1.964990E+06  5.303371E+05 -7.540567E+05  8.694655E-10 -1.859520E-09
        62  12  3.945063E+05  1.153774E+06  3.353488E+05 -8.256376E+05  1.327464E-09 -4.478050E-09
        62  13  6.105720E+04 -4.682010E+05  6.143027E+04 -8.205174E+05  2.898336E-09 -8.825819E-11
        62  14  1.791088E+04 -4.726119E+05  3.748951E+04 -7.279615E+05 -8.714532E-10  1.933518E-09
        62  15  1.033841E+04 -4.669079E+05  3.452875E+04 -8.207912E+05 -7.896239E-10 -1.224527E-09
        62  16 -7.508704E+05 -3.737047E+06 -7.187879E+05 -7.734299E+05 -5.955629E-10 -1.437397E-09
        62  17 -5.683596E+05 -2.904563E+06 -4.556653E+05 -7.019596E+05  2.280450E-09  1.289709E-09
        62  18 -3.739802E+05 -2.085047E+06 -2.664022E+05 -8.159525E+05 -9.704511E-10  6.065185E-09
        62  19  8.722312E+05  2.810543E+06  8.409900E+05 -8.678299E+05 -3.506374E+04 -2.197216E+05
        62  20  6.038279E+05  1.964998E+06  5.303665E+05 -7.540512E+05 -1.072441E+05 -6.411792E+04
        62  21  3.945186E+05  1.153785E+06  3.353822E+05 -8.256448E+05 -9.718232E+04  9.158822E+04
        62  22  6.105889E+04 -4.681995E+05  6.143474E+04 -8.205164E+05 -3.607921E+04 -3.281252E+04
        62  23  1.792335E+04 -4.726086E+05  3.751162E+04 -7.279603E+05 -1.075635E+05 -1.402830E+04
        62  24  1.034845E+04 -4.669053E+05  3.454635E+04 -8.207916E+05 -9.666760E+04  5.071353E+03
        62  25 -7.508626E+05 -3.737021E+06 -7.187410E+05 -7.734345E+05 -3.706952E+04  1.531179E+05
        62  26 -5.683467E+05 -2.904559E+06 -4.556411E+05 -7.019627E+05 -1.078794E+05  3.586894E+04
        62  27 -3.739684E+05 -2.085037E+06 -2.663723E+05 -8.159462E+05 -9.615340E+04 -8.122579E+04
        63   1  2.660560E+05  6.068020E+05  2.366259E+05 -8.304704E+05  6.498290E+04 -8.846753E+04
        63   2  6.896522E+04 -2.233088E+05  9.543277E+04 -7.262477E+05  1.803602E+04 -1.164427E+05
        63   3 -1.127583E+05 -1.047505E+06 -2.433577E+04 -8.124494E+05 -2.990333E+04 -1.443977E+05
        63   4  1.124621E+04 -4.677706E+05  3.744639E+04 -8.218866E+05  6.450143E+04 -1.122115E+04
        63   5  1.097144E+04 -4.701709E+05  5.233033E+04 -7.266330E+05  1.753866E+04 -3.759293E+04
        63   6  2.581223E+04 -4.676257E+05  8.750741E+04 -8.217975E+05 -3.041752E+04 -6.397946E+04
        63   7 -2.436265E+05 -1.541212E+06 -1.617592E+05 -8.133158E+05  6.402157E+04  6.589508E+04
        63   8 -4.702230E+04 -7.169599E+05  9.249111E+03 -7.270181E+05  1.704109E+04  4.122645E+04
        63   9  1.643665E+05  1.125916E+05  1.993594E+05 -8.311539E+05 -3.093383E+04  1.651226E+04
        63  10  2.660494E+05  6.067925E+05  2.366033E+05 -8.304657E+05 -6.475808E-11 -2.505201E-09
        63  11  6.896123E+04 -2.233234E+05  9.540668E+04 -7.262460E+05  3.207719E-09 -2.018557E-09
        63  12 -1.127649E+05 -1.047528E+06 -2.437672E+04 -8.124529E+05  6.722627E-10 -4.491266E-10
        63  13  1.124171E+04 -4.677719E+05  3.743834E+04 -8.218861E+05 -1.912762E-09 -2.216627E-10
        63  14  1.097073E+04 -4.701725E+05  5.232710E+04 -7.266324E+05 -5.499695E-09  2.740090E-09
        63  15  2.581013E+04 -4.676304E+05  8.749796E+04 -8.217991E+05  1.612647E-10 -9.267113E-10
        63  16 -2.436320E+05 -1.541218E+06 -1.617752E+05 -8.133192E+05 -1.583860E-09  2.190311E-09
        63  17 -4.702307E+04 -7.169618E+05  9.245364E+03 -7.270186E+05 -3.829114E-09  1.986531E-10
        63  18  1.643654E+05  1.125911E+05  1.993571E+05 -8.311535E+05  8.005319E-10  2.631491E-09
        63  19  2.660560E+05  6.068020E+05  2.366259E+05 -8.304704E+05 -6.498290E+04  8.846753E+04
        63  20  6.896522E+04 -2.233088E+05  9.543277E+04 -7.262477E+05 -1.803602E+04  1.164427E+05
        63  21 -1.127583E+05 -1.047505E+06 -2.433577E+04 -8.124494E+05  2.990333E+04  1.443977E+05
        63  22  1.124621E+04 -4.677706E+05  3.744639E+04 -8.218866E+05 -6.450143E+04  1.122115E+04
        63  23  1.097144E+04 -4.701709E+05  5.233033E+04 -7.266330E+05 -1.753866E+04  3.759293E+04
        63  24  2.581223E+04 -4.676257E+05  8.750741E+04 -8.217975E+05  3.041752E+04  6.397946E+04
        63  25 -2.436265E+05 -1.541212E+06 -1.617592E+05 -8.133158E+05 -6.402157E+04 -6.589508E+04
        63  26 -4.702230E+04 -7.169599E+05  9.249111E+03 -7.270181E+05 -1.704109E+04 -4.122645E+04
        63  27  1.643665E+05  1.125916E+05  1.993594E+05 -8.311539E+05  3.093383E+04 -1.651226E+04
        64   1 -2.483037E+05 -1.578321E+06 -1.000089E+05 -8.388364E+05 -6.246196E+04 -1.671460E+05
        64   2 -3.827800E+05 -2.427604E+06 -1.966764E+05 -6.152339E+05 -8.058125E+04 -1.539853E+05
        64   3 -3.123282E+05 -3.228090E+06 -2.510623E+05 -5.775230E+05 -2.792585E+04 -1.405345E+05
        64   4  1.916003E+04 -4.537586E+05  1.128704E+05 -8.210116E+05 -6.301742E+04 -7.912428E+04
        64   5  8.681069E+04 -4.883154E+05  2.013770E+05 -7.271671E+05 -8.036367E+04 -1.830737E+05
        64   6  3.793287E+05 -4.547060E+05  4.133917E+05 -8.190189E+05 -2.704218E+04 -2.867273E+05
        64   7  2.865555E+05  6.720445E+05  3.257231E+05 -8.031511E+05 -6.356720E+04  9.053440E+03
        64   8  5.562087E+05  1.454581E+06  5.992387E+05 -8.394504E+05 -8.013602E+04 -2.122510E+05
        64   9  1.070648E+06  2.325916E+06  1.077410E+06 -1.061589E+06 -2.604683E+04 -4.335709E+05
        64  10 -2.483154E+05 -1.578352E+06 -1.000689E+05 -8.388448E+05  2.452868E-09 -1.758546E-10
        64  11 -3.827934E+05 -2.427631E+06 -1.967334E+05 -6.152439E+05  5.474973E-09 -9.115786E-10
        64  12 -3.123344E+05 -3.228111E+06 -2.511011E+05 -5.775262E+05  1.147520E-09 -7.800275E-10
        64  13  1.915407E+04 -4.537664E+05  1.128511E+05 -8.210156E+05  1.003265E-09 -2.394749E-10
        64  14  8.679473E+04 -4.883532E+05  2.013017E+05 -7.271789E+05 -5.230132E-09  2.250934E-09
        64  15  3.793058E+05 -4.547945E+05  4.132356E+05 -8.190252E+05  1.229062E-09 -8.310994E-10
        64  16  2.865511E+05  6.720434E+05  3.257153E+05 -8.031507E+05 -7.375569E-10  2.082480E-10
        64  17  5.561898E+05  1.454531E+06  5.991420E+05 -8.394641E+05  2.755163E-09 -8.989234E-10
        64  18  1.070597E+06  2.325715E+06  1.077057E+06 -1.061599E+06  1.651797E-09  3.118232E-09
        64  19 -2.483037E+05 -1.578321E+06 -1.000089E+05 -8.388364E+05  6.246196E+04  1.671460E+05
        64  20 -3.827800E+05 -2.427604E+06 -1.966764E+05 -6.152339E+05  8.058125E+04  1.539853E+05
        64  21 -3.123282E+05 -3.228090E+06 -2.510623E+05 -5.775230E+05  2.792585E+04  1.405345E+05
        64  22  1.916003E+04 -4.537586E+05  1.128704E+05 -8.210116E+05  6.301742E+04  7.912428E+04
        64  23  8.681069E+04 -4.883154E+05  2.013770E+05 -7.271671E+05  8.036367E+04  1.830737E+05
        64  24  3.793287E+05 -4.547060E+05  4.133917E+05 -8.190189E+05  2.704218E+04  2.867273E+05
        64  25  2.865555E+05  6.720445E+05  3.257231E+05 -8.031511E+05  6.356720E+04 -9.053440E+03
        64  26  5.562087E+05  1.454581E+06  5.992387E+05 -8.394504E+05  8.013602E+04  2.122510E+05
        64  27  1.070648E+06  2.325916E+06  1.077410E+06 -1.061589E+06  2.604683E+04  4.335709E+05
        65   1 -3.043235E+06 -1.166576E+06 -6.568214E+05 -1.051322E+06 -1.797533E+05 -1.837266E+04
        65   2 -2.842267E+06 -1.116296E+06 -5.243749E+05 -9.828351E+05 -1.204393E+05  1.194547E+05
        65   3 -2.612254E+06 -1.079363E+06 -4.586320E+05 -9.617004E+05 -3.247757E+04  1.819289E+05
        65   4 -1.740857E+05 -1.232345E+05  7.893165E+04 -3.018597E+05  3.437097E+04  6.272240E+04
        65   5 -2.043869E+05 -1.588281E+05  3.620644E+04 -2.665000E+05 -2.262308E+04  1.563781E+05
        65   6 -1.825620E+05 -1.847108E+05  1.929197E+04 -2.784897E+05 -5.107212E+04  1.748369E+05
        65   7  2.703106E+06  9.205058E+05  8.141891E+05  4.506905E+05  2.495799E+05  1.441941E+05
        65   8  2.440601E+06  7.991598E+05  5.964319E+05  4.526227E+05  7.564284E+04  1.934650E+05
        65   9  2.253302E+06  7.105062E+05  4.969560E+05  4.072243E+05 -6.974557E+04  1.677150E+05
        65  10 -3.043270E+06 -1.166585E+06 -6.568830E+05 -1.051325E+06 -2.046753E-09  3.713364E-10
        65  11 -2.842287E+06 -1.116315E+06 -5.244290E+05 -9.828235E+05  6.536123E-10  2.328302E-10
        65  12 -2.612264E+06 -1.079399E+06 -4.586962E+05 -9.616956E+05 -2.129062E-09  4.065837E-10
        65  13 -1.740880E+05 -1.232390E+05  7.892203E+04 -3.018614E+05  9.796190E-10  2.087441E-09
        65  14 -2.043940E+05 -1.588545E+05  3.615952E+04 -2.664971E+05 -2.021515E-09  1.933528E-09
        65  15 -1.825730E+05 -1.847443E+05  1.922963E+04 -2.784825E+05  5.604497E-10  1.405253E-09
        65  16  2.703034E+06  9.204669E+05  8.140336E+05  4.506616E+05 -1.500156E-09 -8.458677E-10
        65  17  2.440585E+06  7.991181E+05  5.963510E+05  4.526110E+05  2.741958E-09  4.146089E-10
        65  18  2.253289E+06  7.104747E+05  4.968941E+05  4.072337E+05  2.222255E-09  4.470303E-10
        65  19 -3.043235E+06 -1.166576E+06 -6.568214E+05 -1.051322E+06  1.797533E+05  1.837266E+04
        65  20 -2.842267E+06 -1.116296E+06 -5.243749E+05 -9.828351E+05  1.204393E+05 -1.194547E+05
        65  21 -2.612254E+06 -1.079363E+06 -4.586320E+05 -9.617004E+05  3.247757E+04 -1.819289E+05
        65  22 -1.740857E+05 -1.232345E+05  7.893165E+04 -3.018597E+05 -3.437097E+04 -6.272240E+04
        65  23 -2.043869E+05 -1.588281E+05  3.620644E+04 -2.665000E+05  2.262308E+04 -1.563781E+05
        65  24 -1.825620E+05 -1.847108E+05  1.929197E+04 -2.784897E+05  5.107212E+04 -1.748369E+05
        65  25  2.703106E+06  9.205058E+05  8.141891E+05  4.506905E+05 -2.495799E+05 -1.441941E+05
        65  26  2.440601E+06  7.991598E+05  5.964319E+05  4.526227E+05 -7.564284E+04 -1.934650E+05
        65  27  2.253302E+06  7.105062E+05  4.969560E+05  4.072243E+05  6.974557E+04 -1.677150E+05
        66   1 -2.480791E+06 -1.023091E+06 -4.339920E+05 -9.207275E+05 -4.406730E+04  1.688037E+05
        66   2 -2.296730E+06 -9.313140E+05 -3.928070E+05 -8.436493E+05 -3.630405E+04  1.637242E+05
        66   3 -2.076250E+06 -8.752751E+05 -3.551070E+05 -8.079478E+05 -2.638830E+04  1.528728E+05
        66   4 -1.840290E+05 -1.839408E+05  1.460947E+04 -2.810642E+05 -5.038781E+04  1.663533E+05
        66   5 -2.030839E+05 -1.678900E+05  7.621326E+03 -2.599583E+05 -5.154588E+04  1.579251E+05
        66   6 -1.839991E+05 -1.858029E+05  4.227545E+03 -2.802345E+05 -5.055721E+04  1.437353E+05
        66   7  2.118219E+06  6.556839E+05  4.629740E+05  3.607992E+05 -5.673371E+04  1.638934E+05
        66   8  1.895129E+06  5.959322E+05  4.078631E+05  3.255630E+05 -6.684302E+04  1.521053E+05
        66   9  1.711977E+06  5.039934E+05  3.634121E+05  2.489727E+05 -7.480507E+04  1.345681E+05
        66  10 -2.480800E+06 -1.023122E+06 -4.340492E+05 -9.207215E+05 -1.064401E-08 -4.288884E-09
        66  11 -2.296739E+06 -9.313432E+05 -3.928598E+05 -8.436446E+05  5.696093E-09  4.236668E-09
        66  12 -2.076257E+06 -8.753003E+05 -3.551522E+05 -8.079445E+05  1.924149E-08  8.847199E-09
        66  13 -1.840392E+05 -1.839712E+05  1.455270E+04 -2.810574E+05  3.172570E-09  2.804665E-10
        66  14 -2.030935E+05 -1.679175E+05  7.569473E+03 -2.599518E+05  3.495086E-09 -3.651223E-09
        66  15 -1.840074E+05 -1.858258E+05  4.183925E+03 -2.802287E+05  3.359264E-09 -4.613458E-09
        66  16  2.118208E+06  6.556542E+05  4.629174E+05  3.608067E+05  1.574736E-08  7.073710E-09
        66  17  1.895118E+06  5.959061E+05  4.078112E+05  3.255712E+05  5.295590E-09  3.660380E-09
        66  18  1.711967E+06  5.039725E+05  3.633676E+05  2.489808E+05 -1.260259E-08  1.345875E-09
        66  19 -2.480791E+06 -1.023091E+06 -4.339920E+05 -9.207275E+05  4.406730E+04 -1.688037E+05
        66  20 -2.296730E+06 -9.313140E+05 -3.928070E+05 -8.436493E+05  3.630405E+04 -1.637242E+05
        66  21 -2.076250E+06 -8.752751E+05 -3.551070E+05 -8.079478E+05  2.638830E+04 -1.528728E+05
        66  22 -1.840290E+05 -1.839408E+05  1.460947E+04 -2.810642E+05  5.038781E+04 -1.663533E+05
        66  23 -2.030839E+05 -1.678900E+05  7.621326E+03 -2.599583E+05  5.154588E+04 -1.579251E+05
        66  24 -1.839991E+05 -1.858029E+05  4.227545E+03 -2.802345E+05  5.055721E+04 -1.437353E+05
        66  25  2.118219E+06  6.556839E+05  4.629740E+05  3.607992E+05  5.673371E+04 -1.638934E+05
        66  26  1.895129E+06  5.959322E+05  4.078631E+05  3.255630E+05  6.684302E+04 -1.521053E+05
        66  27  1.711977E+06  5.039934E+05  3.634121E+05  2.489727E+05  7.480507E+04 -1.345681E+05
        67   1 -1.941966E+06 -8.254160E+05 -3.294037E+05 -7.702400E+05 -2.444156E+04  1.431485E+05
        67   2 -1.757929E+06 -7.329038E+05 -2.923515E+05 -6.927443E+05 -1.881203E+04  1.278298E+05
        67   3 -1.536979E+06 -6.767963E+05 -2.550935E+05 -6.568087E+05 -1.303542E+04  1.120551E+05
        67   4 -1.840706E+05 -1.856818E+05  3.150892E+03 -2.804742E+05 -4.769300E+04  1.343685E+05
        67   5 -2.024201E+05 -1.672834E+05  1.667549E+03 -2.597395E+05 -4.276839E+04  1.188029E+05
        67   6 -1.837731E+05 -1.851511E+05  9.403367E+02 -2.805762E+05 -3.769693E+04  1.027821E+05
        67   7  1.577074E+06  4.543437E+05  3.355864E+05  2.105881E+05 -7.101538E+04  1.255619E+05
        67   8  1.355627E+06  3.985625E+05  2.955928E+05  1.742779E+05 -6.678928E+04  1.097519E+05
        67   9  1.171347E+06  3.066620E+05  2.569022E+05  9.641991E+04 -6.241609E+04  9.348753E+04
        67  10 -1.941973E+06 -8.254382E+05 -3.294433E+05 -7.702372E+05 -3.340029E-08 -1.212825E-08
        67  11 -1.757934E+06 -7.329214E+05 -2.923829E+05 -6.927423E+05 -2.181516E-08 -6.934140E-09
        67  12 -1.536982E+06 -6.768098E+05 -2.551175E+05 -6.568076E+05  1.506705E-08  9.607607E-09
        67  13 -1.840779E+05 -1.857018E+05  3.112694E+03 -2.804691E+05 -7.884613E-09 -8.028896E-09
        67  14 -2.024259E+05 -1.672990E+05  1.637593E+03 -2.597354E+05 -1.885608E-08 -1.160186E-08
        67  15 -1.837774E+05 -1.851628E+05  9.178178E+02 -2.805731E+05 -6.821901E-09 -4.444510E-09
        67  16  1.577065E+06  4.543254E+05  3.355473E+05  2.105953E+05  1.696290E-08  1.384468E-08
        67  17  1.355619E+06  3.985484E+05  2.955618E+05  1.742838E+05 -1.859063E-08 -6.379314E-09
        67  18  1.171341E+06  3.066516E+05  2.568785E+05  9.642461E+04 -3.097833E-08 -1.632503E-08
        67  19 -1.941966E+06 -8.254160E+05 -3.294037E+05 -7.702400E+05  2.444156E+04 -1.431485E+05
        67  20 -1.757929E+06 -7.329038E+05 -2.923515E+05 -6.927443E+05  1.881203E+04 -1.278298E+05
        67  21 -1.536979E+06 -6.767963E+05 -2.550935E+05 -6.568087E+05  1.303542E+04 -1.120551E+05
        67  22 -1.840706E+05 -1.856818E+05  3.150892E+03 -2.804742E+05  4.769300E+04 -1.343685E+05
        67  23 -2.024201E+05 -1.672834E+05  1.667549E+03 -2.597395E+05  4.276839E+04 -1.188029E+05
        67  24 -1.837731E+05 -1.851511E+05  9.403367E+02 -2.805762E+05  3.769693E+04 -1.027821E+05
        67  25  1.577074E+06  4.543437E+05  3.355864E+05  2.105881E+05  7.101538E+04 -1.255619E+05
        67  26  1.355627E+06  3.985625E+05  2.955928E+05  1.742779E+05  6.678928E+04 -1.097519E+05
        67  27  1.171347E+06  3.066620E+05  2.569022E+05  9.641991E+04  6.241609E+04 -9.348753E+04
        68   1 -1.402199E+06 -6.274082E+05 -2.287401E+05 -6.193390E+05 -9.739003E+03  1.026963E+05
        68   2 -1.217458E+06 -5.351879E+05 -1.912606E+05 -5.418953E+05 -3.850738E+03  8.673813E+04
        68   3 -9.960038E+05 -4.794125E+05 -1.536623E+05 -5.062038E+05  2.037584E+03  7.073642E+04
        68   4 -1.837526E+05 -1.850683E+05  6.802548E+02 -2.806320E+05 -3.434516E+04  9.345326E+04
        68   5 -2.019954E+05 -1.666525E+05  3.158095E+02 -2.597936E+05 -2.852461E+04  7.748187E+04
        68   6 -1.835589E+05 -1.846701E+05  1.188100E+02 -2.807211E+05 -2.270399E+04  6.146697E+04
        68   7  1.036236E+06  2.574038E+05  2.300406E+05  5.869104E+04 -5.900285E+04  8.419090E+04
        68   8  8.145458E+05  2.019774E+05  1.918531E+05  2.273750E+04 -5.324173E+04  6.820941E+04
        68   9  6.295837E+05  1.101352E+05  1.538776E+05 -5.496188E+04 -4.748046E+04  5.218446E+04
        68  10 -1.402202E+06 -6.274195E+05 -2.287601E+05 -6.193382E+05  1.346278E-08  1.045106E-08
        68  11 -1.217460E+06 -5.351960E+05 -1.912747E+05 -5.418950E+05  9.767773E-09  8.086543E-09
        68  12 -9.960052E+05 -4.794178E+05 -1.536717E+05 -5.062039E+05 -3.199250E-09  2.452707E-09
        68  13 -1.837562E+05 -1.850780E+05  6.616293E+02 -2.806294E+05  1.858667E-09  8.459638E-10
        68  14 -2.019979E+05 -1.666592E+05  3.030010E+02 -2.597919E+05  5.595019E-09  4.940968E-10
        68  15 -1.835605E+05 -1.846743E+05  1.107428E+02 -2.807200E+05  6.905101E-09 -4.742800E-09
        68  16  1.036231E+06  2.573952E+05  2.300207E+05  5.869504E+04 -1.001967E-08 -6.240350E-09
        68  17  8.145415E+05  2.019716E+05  1.918390E+05  2.274042E+04 -6.525596E-10  3.526077E-09
        68  18  6.295806E+05  1.101317E+05  1.538682E+05 -5.495989E+04  3.776717E-09  5.245937E-09
        68  19 -1.402199E+06 -6.274082E+05 -2.287401E+05 -6.193390E+05  9.739003E+03 -1.026963E+05
        68  20 -1.217458E+06 -5.351879E+05 -1.912606E+05 -5.418953E+05  3.850738E+03 -8.673813E+04
        68  21 -9.960038E+05 -4.794125E+05 -1.536623E+05 -5.062038E+05 -2.037584E+03 -7.073642E+04
        68  22 -1.837526E+05 -1.850683E+05  6.802548E+02 -2.806320E+05  3.434516E+04 -9.345326E+04
        68  23 -2.019954E+05 -1.666525E+05  3.158095E+02 -2.597936E+05  2.852461E+04 -7.748187E+04
        68  24 -1.835589E+05 -1.846701E+05  1.188100E+02 -2.807211E+05  2.270399E+04 -6.146697E+04
        68  25  1.036236E+06  2.574038E+05  2.300406E+05  5.869104E+04  5.900285E+04 -8.419090E+04
        68  26  8.145458E+05  2.019774E+05  1.918531E+05  2.273750E+04  5.324173E+04 -6.820941E+04
        68  27  6.295837E+05  1.101352E+05  1.538776E+05 -5.496188E+04  4.748046E+04 -5.218446E+04
        69   1 -8.608954E+05 -4.301400E+05 -1.271383E+05 -4.687892E+05  5.516263E+03  6.142913E+04
        69   2 -6.756979E+05 -3.381146E+05 -8.952200E+04 -3.913702E+05  1.157946E+04  4.548181E+04
        69   3 -4.539351E+05 -2.825583E+05 -5.195068E+04 -3.558092E+05  1.763179E+04  2.954277E+04
        69   4 -1.835426E+05 -1.846216E+05  1.878772E+01 -2.807471E+05 -1.923305E+04  5.216208E+04
        69   5 -2.017544E+05 -1.662885E+05 -1.829457E+02 -2.598323E+05 -1.315906E+04  3.622448E+04
        69   6 -1.834490E+05 -1.844292E+05 -4.412981E+02 -2.807901E+05 -7.095997E+03  2.029523E+04
        69   7  4.942909E+05  6.093904E+04  1.271602E+05 -9.251385E+04 -4.401126E+04  4.288422E+04
        69   8  2.724227E+05  5.557563E+03  8.914904E+04 -1.282014E+05 -3.791768E+04  2.695962E+04
        69   9  8.711217E+04 -8.629406E+04  5.106696E+04 -2.057410E+05 -3.183509E+04  1.104345E+04
        69  10 -8.608964E+05 -4.301441E+05 -1.271454E+05 -4.687895E+05  6.950053E-09  4.656349E-09
        69  11 -6.756986E+05 -3.381169E+05 -8.952615E+04 -3.913707E+05  4.050392E-09  3.408363E-09
        69  12 -4.539357E+05 -2.825593E+05 -5.195291E+04 -3.558096E+05 -8.184414E-09 -4.927001E-09
        69  13 -1.835437E+05 -1.846246E+05  1.298050E+01 -2.807463E+05  6.047337E-09 -4.628210E-09
        69  14 -2.017549E+05 -1.662900E+05 -1.857366E+02 -2.598319E+05  9.351138E-09  1.138052E-10
        69  15 -1.834492E+05 -1.844297E+05 -4.421666E+02 -2.807900E+05  3.036443E-09 -5.639358E-10
        69  16  4.942883E+05  6.093654E+04  1.271531E+05 -9.251233E+04 -2.309890E-09  3.301029E-09
        69  17  2.724210E+05  5.556398E+03  8.914497E+04 -1.282005E+05  6.686828E-09  6.557925E-09
        69  18  8.711105E+04 -8.629446E+04  5.106483E+04 -2.057407E+05  1.203260E-08  7.546108E-09
        69  19 -8.608954E+05 -4.301400E+05 -1.271383E+05 -4.687892E+05 -5.516263E+03 -6.142913E+04
        69  20 -6.756979E+05 -3.381146E+05 -8.952200E+04 -3.913702E+05 -1.157946E+04 -4.548181E+04
        69  21 -4.539351E+05 -2.825583E+05 -5.195068E+04 -3.558092E+05 -1.763179E+04 -2.954277E+04
        69  22 -1.835426E+05 -1.846216E+05  1.878772E+01 -2.807471E+05  1.923305E+04 -5.216208E+04
        69  23 -2.017544E+05 -1.662885E+05 -1.829457E+02 -2.598323E+05  1.315906E+04 -3.622448E+04
        69  24 -1.834490E+05 -1.844292E+05 -4.412981E+02 -2.807901E+05  7.095997E+03 -2.029523E+04
        69  25  4.942909E+05  6.093904E+04  1.271602E+05 -9.251385E+04  4.401126E+04 -4.288422E+04
        69  26  2.724227E+05  5.557563E+03  8.914904E+04 -1.282014E+05  3.791768E+04 -2.695962E+04
        69  27  8.711217E+04 -8.629406E+04  5.106696E+04 -2.057410E+05  3.183509E+04 -1.104345E+04
        70   1 -3.186321E+05 -2.333432E+05 -2.549333E+04 -3.184028E+05  2.123826E+04  2.028578E+04
        70   2 -1.332337E+05 -1.414272E+05  1.186526E+04 -2.409614E+05  2.744762E+04  4.514186E+03
        70   3  8.865776E+04 -8.598499E+04  4.902429E+04 -2.053995E+05  3.357743E+04 -1.104229E+04
        70   4 -1.834646E+05 -1.844121E+05 -6.271088E+02 -2.808038E+05 -3.529002E+03  1.102493E+04
        70   5 -2.016628E+05 -1.661689E+05 -1.201662E+03 -2.598454E+05  3.009079E+03 -4.624649E+03
        70   6 -1.834817E+05 -1.844715E+05 -2.239448E+03 -2.807855E+05  9.467489E+03 -2.005904E+04
        70   7 -4.827537E+04 -1.354784E+05  2.424141E+04 -2.431964E+05 -2.830224E+04  1.761833E+03
        70   8 -2.700861E+05 -1.909098E+05 -1.426631E+04 -2.787271E+05 -2.142669E+04 -1.376246E+04
        70   9 -4.555427E+05 -2.829508E+05 -5.350371E+04 -3.561405E+05 -1.463116E+04 -2.907157E+04
        70  10 -3.186327E+05 -2.333437E+05 -2.549495E+04 -3.184031E+05 -8.015008E-10 -6.712887E-11
        70  11 -1.332345E+05 -1.414274E+05  1.186381E+04 -2.409615E+05 -3.793947E-09  1.487842E-09
        70  12  8.865652E+04 -8.598542E+04  4.902194E+04 -2.053992E+05  2.690069E-09  5.647045E-10
        70  13 -1.834647E+05 -1.844123E+05 -6.273605E+02 -2.808037E+05  1.174292E-09  1.376573E-10
        70  14 -2.016629E+05 -1.661689E+05 -1.201719E+03 -2.598454E+05 -1.196970E-09 -1.243367E-09
        70  15 -1.834819E+05 -1.844719E+05 -2.240372E+03 -2.807853E+05  3.049756E-09  2.585857E-09
        70  16 -4.827623E+04 -1.354786E+05  2.423990E+04 -2.431964E+05  2.536367E-10  8.026996E-10
        70  17 -2.700867E+05 -1.909101E+05 -1.426753E+04 -2.787274E+05  2.558503E-09  6.886725E-10
        70  18 -4.555432E+05 -2.829518E+05 -5.350570E+04 -3.561408E+05  7.467677E-09  2.707546E-09
        70  19 -3.186321E+05 -2.333432E+05 -2.549333E+04 -3.184028E+05 -2.123826E+04 -2.028578E+04
        70  20 -1.332337E+05 -1.414272E+05  1.186526E+04 -2.409614E+05 -2.744762E+04 -4.514186E+03
        70  21  8.865776E+04 -8.598499E+04  4.902429E+04 -2.053995E+05 -3.357743E+04  1.104229E+04
        70  22 -1.834646E+05 -1.844121E+05 -6.271088E+02 -2.808038E+05  3.529002E+03 -1.102493E+04
        70  23 -2.016628E+05 -1.661689E+05 -1.201662E+03 -2.598454E+05 -3.009079E+03  4.624649E+03
        70  24 -1.834817E+05 -1.844715E+05 -2.239448E+03 -2.807855E+05 -9.467489E+03  2.005904E+04
        70  25 -4.827537E+04 -1.354784E+05  2.424141E+04 -2.431964E+05  2.830224E+04 -1.761833E+03
        70  26 -2.700861E+05 -1.909098E+05 -1.426631E+04 -2.787271E+05  2.142669E+04  1.376246E+04
        70  27 -4.555427E+05 -2.829508E+05 -5.350371E+04 -3.561405E+05  1.463116E+04  2.907157E+04
        71   1  2.241396E+05 -3.681533E+04  7.500596E+04 -1.681186E+05  3.791380E+04 -1.995907E+04
        71   2  4.090804E+05  5.530186E+04  1.119575E+05 -9.019190E+04  4.172486E+04 -3.498537E+04
        71   3  6.304504E+05  1.105365E+05  1.499423E+05 -5.370374E+04  4.448719E+04 -4.719253E+04
        71   4 -1.836473E+05 -1.844169E+05 -2.991911E+03 -2.808175E+05  1.334232E+04 -2.915077E+04
        71   5 -2.015949E+05 -1.665710E+05 -5.507981E+03 -2.597210E+05  2.151947E+04 -4.255046E+04
        71   6 -1.840191E+05 -1.864787E+05 -1.044911E+04 -2.800824E+05  2.864787E+04 -5.312927E+04
        71   7 -5.912562E+05 -3.320020E+05 -8.099323E+04 -3.934465E+05 -1.121168E+04 -3.833595E+04
        71   8 -8.118819E+05 -3.884101E+05 -1.229878E+05 -4.290952E+05  1.335352E+03 -5.010758E+04
        71   9 -9.978094E+05 -4.834378E+05 -1.708721E+05 -5.061880E+05  1.283067E+04 -5.905768E+04
        71  10  2.241379E+05 -3.681614E+04  7.500252E+04 -1.681180E+05  9.602563E-09  2.865472E-09
        71  11  4.090782E+05  5.530008E+04  1.119520E+05 -9.019072E+04  3.807080E-09 -6.074647E-10
        71  12  6.304477E+05  1.105336E+05  1.499344E+05 -5.370205E+04 -2.037017E-10 -1.341640E-10
        71  13 -1.836477E+05 -1.844179E+05 -2.993842E+03 -2.808172E+05  6.041952E-09  2.044571E-09
        71  14 -2.015959E+05 -1.665730E+05 -5.512253E+03 -2.597202E+05 -2.958934E-09  1.313990E-10
        71  15 -1.840208E+05 -1.864819E+05 -1.045596E+04 -2.800812E+05  2.854738E-10 -8.448302E-10
        71  16 -5.912567E+05 -3.320036E+05 -8.099623E+04 -3.934468E+05  2.037360E-10  1.638510E-09
        71  17 -8.118826E+05 -3.884128E+05 -1.229925E+05 -4.290952E+05 -8.428170E-09  3.311169E-10
        71  18 -9.978106E+05 -4.834416E+05 -1.708789E+05 -5.061874E+05 -8.530611E-10 -2.439601E-10
        71  19  2.241396E+05 -3.681533E+04  7.500596E+04 -1.681186E+05 -3.791380E+04  1.995907E+04
        71  20  4.090804E+05  5.530186E+04  1.119575E+05 -9.019190E+04 -4.172486E+04  3.498537E+04
        71  21  6.304504E+05  1.105365E+05  1.499423E+05 -5.370374E+04 -4.448719E+04  4.719253E+04
        71  22 -1.836473E+05 -1.844169E+05 -2.991911E+03 -2.808175E+05 -1.334232E+04  2.915077E+04
        71  23 -2.015949E+05 -1.665710E+05 -5.507981E+03 -2.597210E+05 -2.151947E+04  4.255046E+04
        71  24 -1.840191E+05 -1.864787E+05 -1.044911E+04 -2.800824E+05 -2.864787E+04  5.312927E+04
        71  25 -5.912562E+05 -3.320020E+05 -8.099323E+04 -3.934465E+05  1.121168E+04  3.833595E+04
        71  26 -8.118819E+05 -3.884101E+05 -1.229878E+05 -4.290952E+05 -1.335352E+03  5.010758E+04
        71  27 -9.978094E+05 -4.834378E+05 -1.708721E+05 -5.061880E+05 -1.283067E+04  5.905768E+04
        72   1  7.684820E+05  1.588922E+05  1.746147E+05 -1.986877E+04  5.529562E+04 -5.285480E+04
        72   2  9.421210E+05  2.563080E+05  2.221522E+05  7.139841E+04  1.009181E+04 -6.483167E+04
        72   3  1.149181E+06  3.010622E+05  2.968707E+05  1.303111E+05 -4.896867E+04 -3.995426E+04
        72   4 -1.860601E+05 -1.851883E+05 -1.376900E+04 -2.807581E+05  3.340476E+04 -6.106199E+04
        72   5 -2.002587E+05 -1.751568E+05 -2.603273E+04 -2.563717E+05  4.543381E+04 -5.159888E+04
        72   6 -1.924142E+05 -2.291526E+05 -5.643577E+04 -2.643611E+05  4.360882E+04 -5.239044E+03
        72   7 -1.139666E+06 -5.291960E+05 -2.021945E+05 -5.412797E+05  1.154987E+04 -6.925603E+04
        72   8 -1.341292E+06 -6.064892E+05 -2.742848E+05 -5.835749E+05  8.070518E+04 -3.839432E+04
        72   9 -1.532194E+06 -7.591747E+05 -4.098469E+05 -6.582247E+05  1.359642E+05  2.938245E+04
        72  10  7.684780E+05  1.588883E+05  1.746038E+05 -1.986641E+04 -1.096574E-10  8.597298E-10
        72  11  9.421198E+05  2.563034E+05  2.221442E+05  7.139894E+04  1.652331E-09  1.225517E-09
        72  12  1.149178E+06  3.010599E+05  2.968632E+05  1.303096E+05  1.106762E-09  7.325105E-10
        72  13 -1.860623E+05 -1.851926E+05 -1.377810E+04 -2.807564E+05 -9.197358E-10  1.150508E-09
        72  14 -2.002616E+05 -1.751602E+05 -2.604161E+04 -2.563698E+05 -1.503193E-10  9.276122E-10
        72  15 -1.924162E+05 -2.291531E+05 -5.643939E+04 -2.643609E+05 -2.115585E-09  1.535125E-10
        72  16 -1.139667E+06 -5.292011E+05 -2.022038E+05 -5.412790E+05  2.382388E-09 -1.274054E-11
        72  17 -1.341300E+06 -6.064925E+05 -2.742998E+05 -5.835724E+05 -2.140891E-09 -6.002139E-11
        72  18 -1.532214E+06 -7.591806E+05 -4.098834E+05 -6.582279E+05 -5.044744E-10 -3.063107E-10
        72  19  7.684820E+05  1.588922E+05  1.746147E+05 -1.986877E+04 -5.529562E+04  5.285480E+04
        72  20  9.421210E+05  2.563080E+05  2.221522E+05  7.139841E+04 -1.009181E+04  6.483167E+04
        72  21  1.149181E+06  3.010622E+05  2.968707E+05  1.303111E+05  4.896867E+04  3.995426E+04
        72  22 -1.860601E+05 -1.851883E+05 -1.376900E+04 -2.807581E+05 -3.340476E+04  6.106199E+04
        72  23 -2.002587E+05 -1.751568E+05 -2.603273E+04 -2.563717E+05 -4.543381E+04  5.159888E+04
        72  24 -1.924142E+05 -2.291526E+05 -5.643577E+04 -2.643611E+05 -4.360882E+04  5.239044E+03
        72  25 -1.139666E+06 -5.291960E+05 -2.021945E+05 -5.412797E+05 -1.154987E+04  6.925603E+04
        72  26 -1.341292E+06 -6.064892E+05 -2.742848E+05 -5.835749E+05 -8.070518E+04  3.839432E+04
        72  27 -1.532194E+06 -7.591747E+05 -4.098469E+05 -6.582247E+05 -1.359642E+05 -2.938245E+04
        73   1 -1.738947E+05 -8.274982E+04 -7.304771E+04 -6.132843E+04 -1.486334E+04  5.878994E+03
        73   2 -1.103290E+05 -8.766216E+04 -5.621616E+04 -6.952064E+04 -1.459380E+03  1.954090E+04
        73   3 -4.546727E+04 -8.049645E+04 -4.509195E+04 -8.719438E+04  1.194993E+04  2.304703E+04
        73   4  3.255685E+05  4.025399E+04  4.261461E+04 -8.872864E+04  3.011054E+04  5.886637E+03
        73   5  3.228212E+05  1.450178E+04  2.152494E+04 -8.398658E+04  1.914412E+04  1.954203E+04
        73   6  3.255925E+05  5.052420E+03  1.164836E+04 -8.872476E+04  8.181485E+03  2.304547E+04
        73   7  8.252680E+05  1.632442E+05  1.582682E+05 -1.161510E+05  7.512034E+04  5.890309E+03
        73   8  7.561556E+05  1.166563E+05  9.926052E+04 -9.846290E+04  3.976159E+04  1.954220E+04
        73   9  6.967900E+05  9.059467E+04  6.838575E+04 -9.025608E+04  4.410870E+03  2.304394E+04
        73  10 -1.738949E+05 -8.274991E+04 -7.304819E+04 -6.132836E+04 -6.599303E-08  1.840932E-10
        73  11 -1.103291E+05 -8.766257E+04 -5.621688E+04 -6.952061E+04  1.627005E-09  7.308606E-10
        73  12 -4.546756E+04 -8.049706E+04 -4.509322E+04 -8.719461E+04  6.840067E-08  1.030804E-09
        73  13  3.255675E+05  4.025371E+04  4.261284E+04 -8.872878E+04 -2.047363E-09  2.574115E-10
        73  14  3.228207E+05  1.450127E+04  2.152353E+04 -8.398689E+04 -4.006352E-10  4.494657E-10
        73  15  3.255923E+05  5.051831E+03  1.164724E+04 -8.872491E+04  1.456264E-10  7.071409E-10
        73  16  8.252620E+05  1.632426E+05  1.582576E+05 -1.161514E+05  6.694297E-08  1.757883E-10
        73  17  7.561538E+05  1.166555E+05  9.925683E+04 -9.846353E+04 -1.360114E-09  2.253500E-10
        73  18  6.967899E+05  9.059410E+04  6.838472E+04 -9.025616E+04 -6.922054E-08  8.232072E-10
        73  19 -1.738947E+05 -8.274982E+04 -7.304771E+04 -6.132843E+04  1.486334E+04 -5.878994E+03
        73  20 -1.103290E+05 -8.766216E+04 -5.621616E+04 -6.952064E+04  1.459380E+03 -1.954090E+04
        73  21 -4.546727E+04 -8.049645E+04 -4.509195E+04 -8.719438E+04 -1.194993E+04 -2.304703E+04
        73  22  3.255685E+05  4.025399E+04  4.261461E+04 -8.872864E+04 -3.011054E+04 -5.886637E+03
        73  23  3.228212E+05  1.450178E+04  2.152494E+04 -8.398658E+04 -1.914412E+04 -1.954203E+04
        73  24  3.255925E+05  5.052420E+03  1.164836E+04 -8.872476E+04 -8.181485E+03 -2.304547E+04
        73  25  8.252680E+05  1.632442E+05  1.582682E+05 -1.161510E+05 -7.512034E+04 -5.890309E+03
        73  26  7.561556E+05  1.166563E+05  9.926052E+04 -9.846290E+04 -3.976159E+04 -1.954220E+04
        73  27  6.967900E+05  9.059467E+04  6.838575E+04 -9.025608E+04 -4.410870E+03 -2.304394E+04
        74   1 -6.259267E+03 -7.224557E+04 -4.014989E+04 -8.673563E+04  1.124303E+04  2.166242E+04
        74   2  5.778636E+04 -5.943581E+04 -3.210462E+04 -8.272566E+04  1.219150E+04  1.906769E+04
        74   3  1.219899E+05 -4.555133E+04 -2.440573E+04 -8.894872E+04  1.313980E+04  1.510035E+04
        74   4  3.245323E+05  3.668408E+03  8.685980E+03 -8.889266E+04  6.665473E+03  2.166113E+04
        74   5  3.241758E+05  1.188769E+03  4.684778E+03 -8.377636E+04  4.318402E+03  1.906688E+04
        74   6  3.245447E+05  3.556259E+02  2.624622E+03 -8.889267E+04  1.971076E+03  1.510034E+04
        74   7  6.554339E+05  7.957730E+04  5.751995E+04 -9.105089E+04  2.085577E+03  2.165988E+04
        74   8  5.906374E+05  6.181026E+04  4.147359E+04 -8.482752E+04 -3.557920E+03  1.906610E+04
        74   9  5.271416E+05  4.626089E+04  2.965511E+04 -8.883659E+04 -9.201117E+03  1.510032E+04
        74  10 -6.259529E+03 -7.224610E+04 -4.015101E+04 -8.673583E+04  1.744953E-09  1.168446E-09
        74  11  5.778611E+04 -5.943624E+04 -3.210558E+04 -8.272585E+04  1.684470E-09  7.818247E-10
        74  12  1.219897E+05 -4.555162E+04 -2.440649E+04 -8.894888E+04  2.001434E-09 -3.007175E-10
        74  13  3.245321E+05  3.667892E+03  8.685015E+03 -8.889278E+04  1.080968E-10  1.107420E-09
        74  14  3.241757E+05  1.188373E+03  4.684060E+03 -8.377642E+04 -1.422349E-09  6.753312E-10
        74  15  3.245446E+05  3.553800E+02  2.624186E+03 -8.889269E+04 -2.541009E-09 -2.070372E-12
        74  16  6.554338E+05  7.957680E+04  5.751906E+04 -9.105092E+04 -2.773243E-09  8.013863E-10
        74  17  5.906373E+05  6.180987E+04  4.147289E+04 -8.482747E+04 -3.011426E-09  4.407912E-10
        74  18  5.271414E+05  4.626062E+04  2.965452E+04 -8.883648E+04 -3.849815E-09  3.489019E-10
        74  19 -6.259267E+03 -7.224557E+04 -4.014989E+04 -8.673563E+04 -1.124303E+04 -2.166242E+04
        74  20  5.778636E+04 -5.943581E+04 -3.210462E+04 -8.272566E+04 -1.219150E+04 -1.906769E+04
        74  21  1.219899E+05 -4.555133E+04 -2.440573E+04 -8.894872E+04 -1.313980E+04 -1.510035E+04
        74  22  3.245323E+05  3.668408E+03  8.685980E+03 -8.889266E+04 -6.665473E+03 -2.166113E+04
        74  23  3.241758E+05  1.188769E+03  4.684778E+03 -8.377636E+04 -4.318402E+03 -1.906688E+04
        74  24  3.245447E+05  3.556259E+02  2.624622E+03 -8.889267E+04 -1.971076E+03 -1.510034E+04
        74  25  6.554339E+05  7.957730E+04  5.751995E+04 -9.105089E+04 -2.085577E+03 -2.165988E+04
        74  26  5.906374E+05  6.181026E+04  4.147359E+04 -8.482752E+04  3.557920E+03 -1.906610E+04
        74  27  5.271416E+05  4.626089E+04  2.965511E+04 -8.883659E+04  9.201117E+03 -1.510032E+04
        75   1  1.614881E+05 -3.661775E+04 -1.947766E+04 -8.886394E+04  1.286292E+04  1.232876E+04
        75   2  2.255760E+05 -2.228646E+04 -1.180194E+04 -8.375271E+04  1.275798E+04  7.538145E+03
        75   3  2.897043E+05 -7.876051E+03 -4.037162E+03 -8.897424E+04  1.265281E+04  2.562760E+03
        75   4  3.244116E+05  2.489309E+02  1.976776E+03 -8.891494E+04  1.585039E+03  1.232907E+04
        75   5  3.243567E+05  4.502391E+01  1.105499E+03 -8.374862E+04  1.035911E+03  7.538800E+03
        75   6  3.244160E+05 -2.384430E+00  6.314772E+02 -8.891497E+04  4.865674E+02  2.563763E+03
        75   7  4.873623E+05  3.711456E+04  2.343150E+04 -8.896595E+04 -9.695663E+03  1.232939E+04
        75   8  4.231477E+05  2.237617E+04  1.401339E+04 -8.374454E+04 -1.068793E+04  7.539455E+03
        75   9  3.591293E+05  7.871310E+03  5.300662E+03 -8.885569E+04 -1.168032E+04  2.564764E+03
        75  10  1.614879E+05 -3.661796E+04 -1.947826E+04 -8.886407E+04 -6.826218E-10 -2.336131E-12
        75  11  2.255758E+05 -2.228656E+04 -1.180235E+04 -8.375279E+04 -5.533680E-10  1.564149E-09
        75  12  2.897041E+05 -7.876101E+03 -4.037475E+03 -8.897427E+04  1.391391E-09  1.759618E-09
        75  13  3.244115E+05  2.487670E+02  1.976485E+03 -8.891496E+04  9.473049E-10  4.426978E-10
        75  14  3.243567E+05  4.496259E+01  1.105390E+03 -8.374863E+04  9.921935E-12  1.781283E-09
        75  15  3.244160E+05 -2.391553E+00  6.314644E+02 -8.891497E+04  4.618708E-10  1.893099E-09
        75  16  4.873622E+05  3.711437E+04  2.343104E+04 -8.896586E+04  5.409976E-10  9.018484E-10
        75  17  4.231476E+05  2.237608E+04  1.401307E+04 -8.374447E+04 -1.472713E-10  1.964400E-09
        75  18  3.591292E+05  7.871266E+03  5.300394E+03 -8.885567E+04 -8.897102E-10  1.981974E-09
        75  19  1.614881E+05 -3.661775E+04 -1.947766E+04 -8.886394E+04 -1.286292E+04 -1.232876E+04
        75  20  2.255760E+05 -2.228646E+04 -1.180194E+04 -8.375271E+04 -1.275798E+04 -7.538145E+03
        75  21  2.897043E+05 -7.876051E+03 -4.037162E+03 -8.897424E+04 -1.265281E+04 -2.562760E+03
        75  22  3.244116E+05  2.489309E+02  1.976776E+03 -8.891494E+04 -1.585039E+03 -1.232907E+04
        75  23  3.243567E+05  4.502391E+01  1.105499E+03 -8.374862E+04 -1.035911E+03 -7.538800E+03
        75  24  3.244160E+05 -2.384430E+00  6.314772E+02 -8.891497E+04 -4.865674E+02 -2.563763E+03
        75  25  4.873623E+05  3.711456E+04  2.343150E+04 -8.896595E+04  9.695663E+03 -1.232939E+04
        75  26  4.231477E+05  2.237617E+04  1.401339E+04 -8.374454E+04  1.068793E+04 -7.539455E+03
        75  27  3.591293E+05  7.871310E+03  5.300662E+03 -8.885569E+04  1.168032E+04 -2.564764E+03
        76   1  3.292341E+05  1.080919E+03  1.072310E+03 -8.895723E+04  1.256915E+04 -3.951798E+02
        76   2  3.933369E+05  1.550286E+04  8.947419E+03 -8.377428E+04  1.248167E+04 -5.478282E+03
        76   3  4.574603E+05  2.992828E+04  1.688155E+04 -8.893738E+04  1.239436E+04 -1.058122E+04
        76   4  3.243962E+05 -4.959871E+00  4.788279E+02 -8.891796E+04  3.882078E+02 -3.941480E+02
        76   5  3.243828E+05 -1.677892E+01  2.742588E+02 -8.374491E+04  2.523787E+02 -5.477471E+03
        76   6  3.243932E+05 -1.694152E+01  1.615466E+02 -8.891797E+04  1.167330E+02 -1.058064E+04
        76   7  3.195586E+05 -1.090760E+03 -1.140967E+02 -8.887869E+04 -1.179265E+04 -3.931177E+02
        76   8  2.554339E+05 -1.553653E+04 -8.398352E+03 -8.371554E+04 -1.197562E+04 -5.476661E+03
        76   9  1.913445E+05 -2.996280E+04 -1.655794E+04 -8.889856E+04 -1.215840E+04 -1.058006E+04
        76  10  3.292340E+05  1.080876E+03  1.072013E+03 -8.895722E+04  1.340727E-09  8.806563E-10
        76  11  3.933367E+05  1.550279E+04  8.947070E+03 -8.377422E+04  1.875399E-09 -8.674895E-10
        76  12  4.574601E+05  2.992812E+04  1.688105E+04 -8.893727E+04  5.356224E-10 -1.695342E-09
        76  13  3.243962E+05 -4.960079E+00  4.788274E+02 -8.891796E+04 -2.154383E-09  1.340699E-09
        76  14  3.243828E+05 -1.681116E+01  2.742023E+02 -8.374491E+04  1.562288E-09  3.073568E-10
        76  15  3.243931E+05 -1.706175E+01  1.613362E+02 -8.891797E+04 -3.631096E-09 -6.331279E-10
        76  16  3.195584E+05 -1.090797E+03 -1.143582E+02 -8.887870E+04 -1.260831E-09  1.799660E-09
        76  17  2.554338E+05 -1.553661E+04 -8.398678E+03 -8.371559E+04  3.626384E-10  1.432341E-09
        76  18  1.913443E+05 -2.996296E+04 -1.655843E+04 -8.889866E+04 -1.277986E-09  4.191346E-10
        76  19  3.292341E+05  1.080919E+03  1.072310E+03 -8.895723E+04 -1.256915E+04  3.951798E+02
        76  20  3.933369E+05  1.550286E+04  8.947419E+03 -8.377428E+04 -1.248167E+04  5.478282E+03
        76  21  4.574603E+05  2.992828E+04  1.688155E+04 -8.893738E+04 -1.239436E+04  1.058122E+04
        76  22  3.243962E+05 -4.959871E+00  4.788279E+02 -8.891796E+04 -3.882078E+02  3.941480E+02
        76  23  3.243828E+05 -1.677892E+01  2.742588E+02 -8.374491E+04 -2.523787E+02  5.477471E+03
        76  24  3.243932E+05 -1.694152E+01  1.615466E+02 -8.891797E+04 -1.167330E+02  1.058064E+04
        76  25  3.195586E+05 -1.090760E+03 -1.140967E+02 -8.887869E+04  1.179265E+04  3.931177E+02
        76  26  2.554339E+05 -1.553653E+04 -8.398352E+03 -8.371554E+04  1.197562E+04  5.476661E+03
        76  27  1.913445E+05 -2.996280E+04 -1.655794E+04 -8.889856E+04  1.215840E+04  1.058006E+04
        77   1  4.970050E+05  3.887754E+04  2.207465E+04 -8.893200E+04  1.236817E+04 -1.355900E+04
        77   2  5.611224E+05  5.329893E+04  3.009043E+04 -8.374516E+04  1.224307E+04 -1.865316E+04
        77   3  6.252711E+05  6.773464E+04  3.819331E+04 -8.890542E+04  1.211858E+04 -2.371134E+04
        77   4  3.243883E+05 -1.890718E+01  1.258073E+02 -8.891824E+04  9.072317E+01 -1.355872E+04
        77   5  3.243770E+05 -2.760221E+01  7.968892E+01 -8.374457E+04  5.142893E+01 -1.865366E+04
        77   6  3.243779E+05 -3.680513E+01  6.072926E+01 -8.891824E+04  1.275113E+01 -2.371263E+04
        77   7  1.518026E+05 -3.891649E+04 -2.182258E+04 -8.890448E+04 -1.218348E+04 -1.355844E+04
        77   8  8.768952E+04 -5.335634E+04 -2.993068E+04 -8.374399E+04 -1.213580E+04 -1.865417E+04
        77   9  2.357786E+04 -6.781186E+04 -3.807161E+04 -8.893104E+04 -1.208750E+04 -2.371391E+04
        77  10  4.970048E+05  3.887730E+04  2.207402E+04 -8.893186E+04 -1.279894E-09 -1.147815E-09
        77  11  5.611221E+05  5.329852E+04  3.008949E+04 -8.374497E+04 -1.434356E-10 -1.637161E-10
        77  12  6.252708E+05  6.773399E+04  3.819198E+04 -8.890519E+04  4.494560E-10 -1.149119E-09
        77  13  3.243883E+05 -1.910462E+01  1.254618E+02 -8.891824E+04  2.397151E-09 -6.348999E-10
        77  14  3.243769E+05 -2.797591E+01  7.903494E+01 -8.374457E+04 -8.220675E-10 -3.438545E-10
        77  15  3.243777E+05 -3.740902E+01  5.967244E+01 -8.891824E+04 -5.601377E-09 -1.037611E-09
        77  16  1.518024E+05 -3.891673E+04 -2.182320E+04 -8.890461E+04  2.280658E-09 -1.706641E-10
        77  17  8.768927E+04 -5.335675E+04 -2.993161E+04 -8.374417E+04  1.061401E-10 -7.229740E-10
        77  18  2.357755E+04 -6.781251E+04 -3.807295E+04 -8.893127E+04 -1.413283E-09 -1.038314E-09
        77  19  4.970050E+05  3.887754E+04  2.207465E+04 -8.893200E+04 -1.236817E+04  1.355900E+04
        77  20  5.611224E+05  5.329893E+04  3.009043E+04 -8.374516E+04 -1.224307E+04  1.865316E+04
        77  21  6.252711E+05  6.773464E+04  3.819331E+04 -8.890542E+04 -1.211858E+04  2.371134E+04
        77  22  3.243883E+05 -1.890718E+01  1.258073E+02 -8.891824E+04 -9.072317E+01  1.355872E+04
        77  23  3.243770E+05 -2.760221E+01  7.968892E+01 -8.374457E+04 -5.142893E+01  1.865366E+04
        77  24  3.243779E+05 -3.680513E+01  6.072926E+01 -8.891824E+04 -1.275113E+01  2.371263E+04
        77  25  1.518026E+05 -3.891649E+04 -2.182258E+04 -8.890448E+04  1.218348E+04  1.355844E+04
        77  26  8.768952E+04 -5.335634E+04 -2.993068E+04 -8.374399E+04  1.213580E+04  1.865417E+04
        77  27  2.357786E+04 -6.781186E+04 -3.807161E+04 -8.893104E+04  1.208750E+04  2.371391E+04
        78   1  6.648534E+05  7.669701E+04  4.348344E+04 -8.889212E+04  1.208671E+04 -2.665276E+04
        78   2  7.289474E+05  9.117076E+04  5.187415E+04 -8.370403E+04  1.134955E+04 -3.153636E+04
        78   3  7.931883E+05  1.057716E+05  6.078055E+04 -8.884646E+04  1.061327E+04 -3.612618E+04
        78   4  3.243752E+05 -4.380981E+01  5.856533E+01 -8.891459E+04  2.423441E+00 -2.665466E+04
        78   5  3.243557E+05 -5.884619E+01  6.572969E+01 -8.374913E+04 -2.940789E+01 -3.153951E+04
        78   6  3.243573E+05 -6.882682E+01  9.911617E+01 -8.891459E+04 -6.030349E+01 -3.613048E+04
        78   7 -1.598390E+04 -7.678931E+04 -4.336622E+04 -8.893704E+04 -1.207557E+04 -2.665657E+04
        78   8 -8.006814E+04 -9.129512E+04 -5.174292E+04 -8.379420E+04 -1.140132E+04 -3.154266E+04
        78   9 -1.442485E+05 -1.059183E+05 -6.058307E+04 -8.898266E+04 -1.072621E+04 -3.613478E+04
        78  10  6.648530E+05  7.669621E+04  4.348183E+04 -8.889186E+04 -9.973154E-10 -1.228456E-09
        78  11  7.289470E+05  9.116966E+04  5.187204E+04 -8.370374E+04 -1.275372E-09 -5.649025E-10
        78  12  7.931878E+05  1.057701E+05  6.077788E+04 -8.884615E+04  1.282891E-09  4.246202E-10
        78  13  3.243750E+05 -4.457285E+01  5.723001E+01 -8.891459E+04 -2.162426E-09 -1.119594E-09
        78  14  3.243554E+05 -5.991453E+01  6.386009E+01 -8.374913E+04  2.606498E-09 -3.568160E-10
        78  15  3.243570E+05 -7.022882E+01  9.666266E+01 -8.891459E+04  2.096554E-09  4.632073E-10
        78  16 -1.598424E+04 -7.679011E+04 -4.336783E+04 -8.893730E+04  1.766677E-09 -1.058753E-09
        78  17 -8.006854E+04 -9.129623E+04 -5.174504E+04 -8.379449E+04  1.810641E-09 -3.569471E-10
        78  18 -1.442490E+05 -1.059197E+05 -6.058574E+04 -8.898297E+04  2.651749E-09  8.282988E-10
        78  19  6.648534E+05  7.669701E+04  4.348344E+04 -8.889212E+04 -1.208671E+04  2.665276E+04
        78  20  7.289474E+05  9.117076E+04  5.187415E+04 -8.370403E+04 -1.134955E+04  3.153636E+04
        78  21  7.931883E+05  1.057716E+05  6.078055E+04 -8.884646E+04 -1.061327E+04  3.612618E+04
        78  22  3.243752E+05 -4.380981E+01  5.856533E+01 -8.891459E+04 -2.423441E+00  2.665466E+04
        78  23  3.243557E+05 -5.884619E+01  6.572969E+01 -8.374913E+04  2.940789E+01  3.153951E+04
        78  24  3.243573E+05 -6.882682E+01  9.911617E+01 -8.891459E+04  6.030349E+01  3.613048E+04
        78  25 -1.598390E+04 -7.678931E+04 -4.336622E+04 -8.893704E+04  1.207557E+04  2.665657E+04
        78  26 -8.006814E+04 -9.129512E+04 -5.174292E+04 -8.379420E+04  1.140132E+04  3.154266E+04
        78  27 -1.442485E+05 -1.059183E+05 -6.058307E+04 -8.898266E+04  1.072621E+04  3.613478E+04
        79   1  8.329384E+05  1.148661E+05  6.660288E+04 -8.878614E+04  1.042340E+04 -3.877086E+04
        79   2  8.966774E+05  1.297853E+05  7.749399E+04 -8.370695E+04  5.076073E+03 -4.205175E+04
        79   3  9.613913E+05  1.456889E+05  9.211692E+04 -8.879701E+04 -2.718616E+02 -4.315104E+04
        79   4  3.243590E+05 -7.520291E+01  1.267647E+02 -8.887879E+04 -7.839600E+01 -3.877598E+04
        79   5  3.243160E+05 -6.003636E+01  2.143756E+02 -8.379388E+04 -1.834747E+02 -4.205705E+04
        79   6  3.243341E+05  3.047429E+01  3.965977E+02 -8.887882E+04 -2.885485E+02 -4.315545E+04
        79   7 -1.839559E+05 -1.150273E+05 -6.635057E+04 -8.897135E+04 -1.057201E+04 -3.878110E+04
        79   8 -2.477120E+05 -1.299195E+05 -7.706820E+04 -8.388073E+04 -5.438402E+03 -4.206235E+04
        79   9 -3.123138E+05 -1.456465E+05 -9.133006E+04 -8.896054E+04 -3.052189E+02 -4.315987E+04
        79  10  8.329379E+05  1.148645E+05  6.659985E+04 -8.878581E+04  1.631483E-09  2.232759E-10
        79  11  8.966769E+05  1.297834E+05  7.749062E+04 -8.370678E+04  1.708183E-09 -7.023257E-10
        79  12  9.613908E+05  1.456869E+05  9.211342E+04 -8.879702E+04 -6.920136E-10 -1.128453E-09
        79  13  3.243586E+05 -7.681774E+01  1.239388E+02 -8.887879E+04 -1.073057E-09  4.973508E-10
        79  14  3.243156E+05 -6.193604E+01  2.110511E+02 -8.379389E+04 -1.024152E-09 -2.984618E-10
        79  15  3.243336E+05  2.847408E+01  3.930972E+02 -8.887883E+04 -2.201628E-09 -7.486806E-10
        79  16 -1.839565E+05 -1.150290E+05 -6.635360E+04 -8.897168E+04 -3.043468E-10  9.397983E-10
        79  17 -2.477125E+05 -1.299214E+05 -7.707159E+04 -8.388092E+04 -2.187900E-09  9.872118E-10
        79  18 -3.123143E+05 -1.456485E+05 -9.133356E+04 -8.896055E+04  1.066354E-09 -1.049179E-10
        79  19  8.329384E+05  1.148661E+05  6.660288E+04 -8.878614E+04 -1.042340E+04  3.877086E+04
        79  20  8.966774E+05  1.297853E+05  7.749399E+04 -8.370695E+04 -5.076073E+03  4.205175E+04
        79  21  9.613913E+05  1.456889E+05  9.211692E+04 -8.879701E+04  2.718616E+02  4.315104E+04
        79  22  3.243590E+05 -7.520291E+01  1.267647E+02 -8.887879E+04  7.839600E+01  3.877598E+04
        79  23  3.243160E+05 -6.003636E+01  2.143756E+02 -8.379388E+04  1.834747E+02  4.205705E+04
        79  24  3.243341E+05  3.047429E+01  3.965977E+02 -8.887882E+04  2.885485E+02  4.315545E+04
        79  25 -1.839559E+05 -1.150273E+05 -6.635057E+04 -8.897135E+04  1.057201E+04  3.878110E+04
        79  26 -2.477120E+05 -1.299195E+05 -7.706820E+04 -8.388073E+04  5.438402E+03  4.206235E+04
        79  27 -3.123138E+05 -1.456465E+05 -9.133006E+04 -8.896054E+04  3.052189E+02  4.315987E+04
        80   1  1.002220E+06  1.557875E+05  1.017501E+05 -8.846523E+04 -1.626733E+03 -4.359110E+04
        80   2  1.063082E+06  1.741353E+05  1.308750E+05 -8.452757E+04 -4.091569E+04 -3.500711E+04
        80   3  1.130973E+06  1.999819E+05  1.874351E+05 -8.955854E+04 -8.022358E+04 -1.028101E+04
        80   4  3.243775E+05  8.183554E+01  5.320183E+02 -8.861164E+04 -3.580329E+02 -4.359528E+04
        80   5  3.242127E+05  5.030235E+02  9.742258E+02 -8.412804E+04 -8.469632E+02 -3.499203E+04
        80   6  3.243469E+05  1.696954E+03  1.933793E+03 -8.861233E+04 -1.349530E+03 -1.023792E+04
        80   7 -3.530039E+05 -1.556455E+05 -1.006949E+05 -8.875789E+04  9.093395E+02 -4.359945E+04
        80   8 -4.141201E+05 -1.731581E+05 -1.289404E+05 -8.372903E+04  3.917555E+04 -3.497690E+04
        80   9 -4.816650E+05 -1.966301E+05 -1.835872E+05 -8.766739E+04  7.742301E+04 -1.019457E+04
        80  10  1.002219E+06  1.557854E+05  1.017465E+05 -8.846529E+04 -2.517238E-09 -1.019795E-09
        80  11  1.063080E+06  1.741335E+05  1.308696E+05 -8.452872E+04 -1.957473E-09 -1.082145E-09
        80  12  1.130966E+06  1.999801E+05  1.874228E+05 -8.955920E+04  1.886529E-09 -1.769449E-10
        80  13  3.243770E+05  7.979434E+01  5.284460E+02 -8.861165E+04 -3.581473E-09 -2.235102E-09
        80  14  3.242124E+05  5.017083E+02  9.719231E+02 -8.412806E+04 -1.058063E-10  1.542168E-09
        80  15  3.243468E+05  1.696841E+03  1.933593E+03 -8.861234E+04  3.452258E-10  2.373730E-10
        80  16 -3.530044E+05 -1.556475E+05 -1.006984E+05 -8.875786E+04 -2.982557E-11 -2.806660E-10
        80  17 -4.141221E+05 -1.731599E+05 -1.289456E+05 -8.372792E+04 -8.287621E-11  1.339350E-09
        80  18 -4.816715E+05 -1.966318E+05 -1.835987E+05 -8.766676E+04 -1.064274E-09 -3.127390E-10
        80  19  1.002220E+06  1.557875E+05  1.017501E+05 -8.846523E+04  1.626733E+03  4.359110E+04
        80  20  1.063082E+06  1.741353E+05  1.308750E+05 -8.452757E+04  4.091569E+04  3.500711E+04
        80  21  1.130973E+06  1.999819E+05  1.874351E+05 -8.955854E+04  8.022358E+04  1.028101E+04
        80  22  3.243775E+05  8.183554E+01  5.320183E+02 -8.861164E+04  3.580329E+02  4.359528E+04
        80  23  3.242127E+05  5.030235E+02  9.742258E+02 -8.412804E+04  8.469632E+02  3.499203E+04
        80  24  3.243469E+05  1.696954E+03  1.933793E+03 -8.861233E+04  1.349530E+03  1.023792E+04
        80  25 -3.530039E+05 -1.556455E+05 -1.006949E+05 -8.875789E+04 -9.093395E+02  4.359945E+04
        80  26 -4.141201E+05 -1.731581E+05 -1.289404E+05 -8.372903E+04 -3.917555E+04  3.497690E+04
        80  27 -4.816650E+05 -1.966301E+05 -1.835872E+05 -8.766739E+04 -7.742301E+04  1.019457E+04
        81   1  1.708292E+05  8.204529E+05  1.631471E+05 -2.140709E+05  6.649461E+03  5.132777E+04
        81   2  1.230276E+05  6.598127E+05  1.002973E+05 -1.995276E+05  2.047974E+04  1.653166E+04
        81   3  8.350634E+04  5.057827E+05  6.215031E+04 -2.101465E+05  2.011399E+04 -1.825919E+04
        81   4  5.842197E+03  1.521241E+05  6.183700E+03 -2.097950E+05  6.683460E+03  3.118358E+03
        81   5  2.202976E+03  1.516945E+05  4.065974E+03 -1.972151E+05  2.049273E+04  1.068845E+03
        81   6  1.168563E+03  1.521772E+05  3.931186E+03 -2.097981E+05  2.010082E+04 -9.841651E+02
        81   7 -1.591753E+05 -5.157889E+05 -1.508016E+05 -2.055236E+05  6.716820E+03 -4.503953E+04
        81   8 -1.186366E+05 -3.561743E+05 -9.217587E+04 -1.949044E+05  2.050562E+04 -1.438163E+04
        81   9 -8.117549E+04 -2.013041E+05 -5.429048E+04 -2.094498E+05  2.008765E+04  1.628136E+04
        81  10  1.708284E+05  8.204501E+05  1.631421E+05 -2.140712E+05  5.995956E-10 -3.390607E-09
        81  11  1.230271E+05  6.598123E+05  1.002960E+05 -1.995279E+05 -4.070117E-10  3.246653E-10
        81  12  8.350581E+04  5.057822E+05  6.214892E+04 -2.101463E+05 -2.878573E-10  3.609571E-09
        81  13  5.842146E+03  1.521240E+05  6.183597E+03 -2.097950E+05 -3.195915E-10  1.366901E-11
        81  14  2.202524E+03  1.516944E+05  4.065183E+03 -1.972151E+05 -1.988482E-10  1.681933E-11
        81  15  1.168128E+03  1.521771E+05  3.930425E+03 -2.097981E+05 -7.964475E-10 -7.520915E-11
        81  16 -1.591759E+05 -5.157911E+05 -1.508055E+05 -2.055233E+05 -4.844356E-10  3.573926E-09
        81  17 -1.186371E+05 -3.561747E+05 -9.217705E+04 -1.949042E+05  3.377151E-10  6.397996E-10
        81  18 -8.117599E+04 -2.013045E+05 -5.429174E+04 -2.094501E+05 -1.672225E-09 -3.251610E-09
        81  19  1.708292E+05  8.204529E+05  1.631471E+05 -2.140709E+05 -6.649461E+03 -5.132777E+04
        81  20  1.230276E+05  6.598127E+05  1.002973E+05 -1.995276E+05 -2.047974E+04 -1.653166E+04
        81  21  8.350634E+04  5.057827E+05  6.215031E+04 -2.101465E+05 -2.011399E+04  1.825919E+04
        81  22  5.842197E+03  1.521241E+05  6.183700E+03 -2.097950E+05 -6.683460E+03 -3.118358E+03
        81  23  2.202976E+03  1.516945E+05  4.065974E+03 -1.972151E+05 -2.049273E+04 -1.068845E+03
        81  24  1.168563E+03  1.521772E+05  3.931186E+03 -2.097981E+05 -2.010082E+04  9.841651E+02
        81  25 -1.591753E+05 -5.157889E+05 -1.508016E+05 -2.055236E+05 -6.716820E+03  4.503953E+04
        81  26 -1.186366E+05 -3.561743E+05 -9.217587E+04 -1.949044E+05 -2.050562E+04  1.438163E+04
        81  27 -8.117549E+04 -2.013041E+05 -5.429048E+04 -2.094498E+05 -2.008765E+04 -1.628136E+04
        82   1  6.035344E+04  4.072985E+05  4.552796E+04 -2.105821E+05  1.508572E+04 -1.963929E+04
        82   2  2.405950E+04  2.495007E+05  2.037415E+04 -1.960032E+05  7.035246E+03 -2.404982E+04
        82   3 -9.783368E+03  9.288732E+04 -1.305135E+03 -2.075475E+05 -1.523716E+03 -2.846002E+04
        82   4  1.119035E+03  1.521978E+05  4.376711E+03 -2.100115E+05  1.507104E+04 -1.660146E+03
        82   5  1.727624E+03  1.517248E+05  6.457594E+03 -1.969488E+05  7.019109E+03 -4.900523E+03
        82   6  4.585113E+03  1.522079E+05  1.119965E+04 -2.100090E+05 -1.541357E+03 -8.141604E+03
        82   7 -5.811849E+04 -1.028376E+05 -3.677509E+04 -2.094412E+05  1.505639E+04  1.631188E+04
        82   8 -2.060449E+04  5.395930E+04 -7.457725E+03 -1.978942E+05  7.002912E+03  1.424589E+04
        82   9  1.895361E+04  2.115326E+05  2.370579E+04 -2.124708E+05 -1.559157E+03  1.217872E+04
        82  10  6.035310E+04  4.072981E+05  4.552680E+04 -2.105818E+05  1.070312E-09  4.982158E-09
        82  11  2.405929E+04  2.495001E+05  2.037297E+04 -1.960031E+05  1.440403E-09  4.597078E-10
        82  12 -9.783588E+03  9.288645E+04 -1.306661E+03 -2.075475E+05 -6.087577E-10 -5.017508E-09
        82  13  1.118791E+03  1.521978E+05  4.376279E+03 -2.100115E+05 -4.444718E-10 -2.274236E-11
        82  14  1.727564E+03  1.517247E+05  6.457456E+03 -1.969488E+05 -2.098429E-09 -4.765723E-11
        82  15  4.585092E+03  1.522078E+05  1.119952E+04 -2.100090E+05 -1.523869E-09 -7.637616E-11
        82  16 -5.811880E+04 -1.028379E+05 -3.677601E+04 -2.094414E+05  1.783719E-12 -4.725535E-09
        82  17 -2.060459E+04  5.395907E+04 -7.458199E+03 -1.978943E+05  2.494760E-09  5.085274E-10
        82  18  1.895357E+04  2.115325E+05  2.370551E+04 -2.124708E+05  5.934051E-10  5.388794E-09
        82  19  6.035344E+04  4.072985E+05  4.552796E+04 -2.105821E+05 -1.508572E+04  1.963929E+04
        82  20  2.405950E+04  2.495007E+05  2.037415E+04 -1.960032E+05 -7.035246E+03  2.404982E+04
        82  21 -9.783368E+03  9.288732E+04 -1.305135E+03 -2.075475E+05  1.523716E+03  2.846002E+04
        82  22  1.119035E+03  1.521978E+05  4.376711E+03 -2.100115E+05 -1.507104E+04  1.660146E+03
        82  23  1.727624E+03  1.517248E+05  6.457594E+03 -1.969488E+05 -7.019109E+03  4.900523E+03
        82  24  4.585113E+03  1.522079E+05  1.119965E+04 -2.100090E+05  1.541357E+03  8.141604E+03
        82  25 -5.811849E+04 -1.028376E+05 -3.677509E+04 -2.094412E+05 -1.505639E+04 -1.631188E+04
        82  26 -2.060449E+04  5.395930E+04 -7.457725E+03 -1.978942E+05 -7.002912E+03 -1.424589E+04
        82  27  1.895361E+04  2.115326E+05  2.370579E+04 -2.124708E+05  1.559157E+03 -1.217872E+04
        83   1 -3.121330E+04 -3.975336E+03 -1.396843E+04 -2.084590E+05 -7.049831E+03 -2.993420E+04
        83   2 -5.740398E+04 -1.627090E+05 -3.529872E+04 -1.792654E+05 -1.056699E+04 -2.016454E+04
        83   3 -6.631079E+04 -3.183833E+05 -5.867410E+04 -1.755611E+05 -3.864664E+03 -1.039370E+04
        83   4  6.050559E+03  1.535727E+05  1.480075E+04 -2.098684E+05 -7.066795E+03 -1.008460E+04
        83   5  1.763166E+04  1.499973E+05  2.700894E+04 -1.971108E+05 -1.056298E+04 -2.386067E+04
        83   6  5.057788E+04  1.535366E+05  5.351828E+04 -2.098373E+05 -3.842584E+03 -3.763303E+04
        83   7  4.331323E+04  3.111458E+05  4.357041E+04 -2.112782E+05 -7.083846E+03  9.769905E+03
        83   8  9.266251E+04  4.627976E+05  8.931194E+04 -2.149653E+05 -1.055876E+04 -2.755862E+04
        83   9  1.674553E+05  6.256651E+05  1.656985E+05 -2.441395E+05 -3.817507E+03 -6.489297E+04
        83  10 -3.121359E+04 -3.976311E+03 -1.397020E+04 -2.084591E+05  3.729713E-10 -2.132771E-09
        83  11 -5.740421E+04 -1.627094E+05 -3.529970E+04 -1.792656E+05  1.320238E-09  4.378982E-10
        83  12 -6.631084E+04 -3.183834E+05 -5.867433E+04 -1.755612E+05 -2.401153E-10  2.088144E-09
        83  13  6.050478E+03  1.535726E+05  1.480047E+04 -2.098685E+05  8.254453E-10 -3.831878E-11
        83  14  1.763139E+04  1.499966E+05  2.700767E+04 -1.971110E+05 -7.783774E-10 -1.393651E-11
        83  15  5.057748E+04  1.535351E+05  5.351559E+04 -2.098374E+05  1.809949E-09 -8.361630E-11
        83  16  4.331315E+04  3.111457E+05  4.357013E+04 -2.112782E+05 -1.624796E-10  2.408058E-09
        83  17  9.266219E+04  4.627968E+05  8.931030E+04 -2.149656E+05  1.099889E-09  5.541257E-10
        83  18  1.674541E+05  6.256606E+05  1.656906E+05 -2.441397E+05  2.558492E-10 -1.713560E-09
        83  19 -3.121330E+04 -3.975336E+03 -1.396843E+04 -2.084590E+05  7.049831E+03  2.993420E+04
        83  20 -5.740398E+04 -1.627090E+05 -3.529872E+04 -1.792654E+05  1.056699E+04  2.016454E+04
        83  21 -6.631079E+04 -3.183833E+05 -5.867410E+04 -1.755611E+05  3.864664E+03  1.039370E+04
        83  22  6.050559E+03  1.535727E+05  1.480075E+04 -2.098684E+05  7.066795E+03  1.008460E+04
        83  23  1.763166E+04  1.499973E+05  2.700894E+04 -1.971108E+05  1.056298E+04  2.386067E+04
        83  24  5.057788E+04  1.535366E+05  5.351828E+04 -2.098373E+05  3.842584E+03  3.763303E+04
        83  25  4.331323E+04  3.111458E+05  4.357041E+04 -2.112782E+05  7.083846E+03 -9.769905E+03
        83  26  9.266251E+04  4.627976E+05  8.931194E+04 -2.149653E+05  1.055876E+04  2.755862E+04
        83  27  1.674553E+05  6.256651E+05  1.656985E+05 -2.441395E+05  3.817507E+03  6.489297E+04
        84   1 -3.485822E+05 -1.960249E+05 -1.207121E+05 -1.500051E+05 -6.005584E+04 -1.930953E+04
        84   2 -3.278757E+05 -1.239289E+05 -6.899725E+04 -1.400609E+05 -3.740656E+04 -3.613400E+03
        84   3 -3.206474E+05 -9.411293E+04 -4.627693E+04 -1.256913E+05 -1.277252E+04  6.800395E+03
        84   4 -1.769420E+05 -9.741563E+04 -6.977289E+04 -6.780758E+04 -4.619065E+04 -1.410991E+04
        84   5 -1.671963E+05 -4.999274E+04 -3.216083E+04 -8.018613E+04 -3.172662E+04 -1.483181E+03
        84   6 -1.693031E+05 -4.322397E+04 -1.705271E+04 -8.814136E+04 -1.527878E+04  5.859796E+03
        84   7 -5.272152E+03  1.208440E+03 -1.883618E+04  1.441324E+04 -3.232152E+04 -8.906880E+03
        84   8 -6.490529E+03  2.394972E+04  4.673926E+03 -2.029584E+04 -2.604512E+04  6.479657E+02
        84   9 -1.793423E+04  7.666466E+03  1.217078E+04 -5.058305E+04 -1.778570E+04  4.918990E+03
        84  10 -3.485862E+05 -1.960263E+05 -1.207196E+05 -1.500060E+05  1.288716E-10  2.364648E-10
        84  11 -3.278772E+05 -1.239292E+05 -6.899991E+04 -1.400611E+05 -7.304693E-09 -2.295703E-09
        84  12 -3.206476E+05 -9.411302E+04 -4.627733E+04 -1.256913E+05 -7.949715E-09 -1.872031E-09
        84  13 -1.769444E+05 -9.741642E+04 -6.977727E+04 -6.780811E+04 -1.816752E-09 -5.866708E-10
        84  14 -1.671974E+05 -4.999302E+04 -3.216272E+04 -8.018617E+04 -6.333057E-09 -2.360974E-09
        84  15 -1.693034E+05 -4.322407E+04 -1.705321E+04 -8.814129E+04 -5.811069E-09 -1.272273E-09
        84  16 -5.273295E+03  1.208074E+03 -1.883829E+04  1.441301E+04 -5.524237E-09 -2.296843E-09
        84  17 -6.491258E+03  2.394954E+04  4.672651E+03 -2.029582E+04 -5.989058E-09 -2.742059E-09
        84  18 -1.793458E+04  7.666355E+03  1.217014E+04 -5.058298E+04  2.522384E-10 -6.899425E-11
        84  19 -3.485822E+05 -1.960249E+05 -1.207121E+05 -1.500051E+05  6.005584E+04  1.930953E+04
        84  20 -3.278757E+05 -1.239289E+05 -6.899725E+04 -1.400609E+05  3.740656E+04  3.613400E+03
        84  21 -3.206474E+05 -9.411293E+04 -4.627693E+04 -1.256913E+05  1.277252E+04 -6.800395E+03
        84  22 -1.769420E+05 -9.741563E+04 -6.977289E+04 -6.780758E+04  4.619065E+04  1.410991E+04
        84  23 -1.671963E+05 -4.999274E+04 -3.216083E+04 -8.018613E+04  3.172662E+04  1.483181E+03
        84  24 -1.693031E+05 -4.322397E+04 -1.705271E+04 -8.814136E+04  1.527878E+04 -5.859796E+03
        84  25 -5.272152E+03  1.208440E+03 -1.883618E+04  1.441324E+04  3.232152E+04  8.906880E+03
        84  26 -6.490529E+03  2.394972E+04  4.673926E+03 -2.029584E+04  2.604512E+04 -6.479657E+02
        84  27 -1.793423E+04  7.666466E+03  1.217078E+04 -5.058305E+04  1.778570E+04 -4.918990E+03
        85   1 -2.986186E+05 -9.320056E+04 -3.882570E+04 -1.241560E+05 -1.132181E+04  6.221659E+03
        85   2 -2.764502E+05 -7.971913E+04 -2.752342E+04 -1.151047E+05 -6.788168E+03  6.486096E+03
        85   3 -2.512070E+05 -7.242047E+04 -1.973920E+04 -1.106656E+05 -2.103133E+03  6.347070E+03
        85   4 -1.672177E+05 -4.448302E+04 -1.293764E+04 -8.679110E+04 -1.296226E+04  5.605923E+03
        85   5 -1.686550E+05 -4.030902E+04 -6.828041E+03 -8.491387E+04 -9.053302E+03  5.636109E+03
        85   6 -1.668937E+05 -4.219382E+04 -3.740911E+03 -8.764915E+04 -4.993091E+03  5.262806E+03
        85   7 -3.580015E+04  4.235757E+03  1.294931E+04 -4.941912E+04 -1.460308E+04  4.990048E+03
        85   8 -6.084765E+04 -8.978337E+02  1.386686E+04 -5.471820E+04 -1.131886E+04  4.785962E+03
        85   9 -8.257232E+04 -1.196628E+04  1.225732E+04 -6.462964E+04 -7.883495E+03  4.178379E+03
        85  10 -2.986188E+05 -9.320063E+04 -3.882602E+04 -1.241560E+05  2.853524E-10  1.523901E-09
        85  11 -2.764503E+05 -7.971919E+04 -2.752359E+04 -1.151046E+05 -7.275661E-09  1.939680E-09
        85  12 -2.512070E+05 -7.242051E+04 -1.973928E+04 -1.106656E+05  4.474163E-09  4.342640E-09
        85  13 -1.672179E+05 -4.448310E+04 -1.293802E+04 -8.679104E+04 -2.019783E-09 -3.463017E-10
        85  14 -1.686551E+05 -4.030908E+04 -6.828255E+03 -8.491383E+04  4.075866E-09  7.131954E-10
        85  15 -1.668938E+05 -4.219385E+04 -3.741010E+03 -8.764913E+04  1.937127E-08  6.770706E-09
        85  16 -3.580038E+04  4.235673E+03  1.294886E+04 -4.941906E+04 -2.574917E-09 -2.776317E-09
        85  17 -6.084780E+04 -8.978927E+02  1.386658E+04 -5.471815E+04  7.716203E-09 -5.821330E-10
        85  18 -8.257239E+04 -1.196631E+04  1.225717E+04 -6.462962E+04  3.056974E-08  9.269078E-09
        85  19 -2.986186E+05 -9.320056E+04 -3.882570E+04 -1.241560E+05  1.132181E+04 -6.221659E+03
        85  20 -2.764502E+05 -7.971913E+04 -2.752342E+04 -1.151047E+05  6.788168E+03 -6.486096E+03
        85  21 -2.512070E+05 -7.242047E+04 -1.973920E+04 -1.106656E+05  2.103133E+03 -6.347070E+03
        85  22 -1.672177E+05 -4.448302E+04 -1.293764E+04 -8.679110E+04  1.296226E+04 -5.605923E+03
        85  23 -1.686550E+05 -4.030902E+04 -6.828041E+03 -8.491387E+04  9.053302E+03 -5.636109E+03
        85  24 -1.668937E+05 -4.219382E+04 -3.740911E+03 -8.764915E+04  4.993091E+03 -5.262806E+03
        85  25 -3.580015E+04  4.235757E+03  1.294931E+04 -4.941912E+04  1.460308E+04 -4.990048E+03
        85  26 -6.084765E+04 -8.978337E+02  1.386686E+04 -5.471820E+04  1.131886E+04 -4.785962E+03
        85  27 -8.257232E+04 -1.196628E+04  1.225732E+04 -6.462964E+04  7.883495E+03 -4.178379E+03
        86   1 -2.348856E+05 -6.686471E+04 -1.565658E+04 -1.063770E+05 -1.237903E+03  5.430003E+03
        86   2 -2.129410E+05 -5.595497E+04 -9.875826E+03 -9.726261E+04  2.703153E+02  3.899840E+03
        86   3 -1.868267E+05 -4.945466E+04 -4.727105E+03 -9.309712E+04  1.790046E+03  2.338771E+03
        86   4 -1.667360E+05 -4.225746E+04 -2.812913E+03 -8.756139E+04 -4.062122E+03  4.370461E+03
        86   5 -1.688217E+05 -4.003405E+04 -1.546065E+03 -8.509550E+04 -2.601743E+03  2.822414E+03
        86   6 -1.667286E+05 -4.221054E+04 -8.732738E+02 -8.757863E+04 -1.129891E+03  1.243454E+03
        86   7 -9.858160E+04 -1.764980E+04  1.003060E+04 -6.874389E+04 -6.886672E+03  3.310796E+03
        86   8 -1.247005E+05 -2.411304E+04  6.783594E+03 -7.292765E+04 -5.474007E+03  1.744913E+03
        86   9 -1.466302E+05 -3.496646E+04  2.980525E+03 -8.206002E+04 -4.049902E+03  1.481105E+02
        86  10 -2.348856E+05 -6.686474E+04 -1.565664E+04 -1.063770E+05  2.910903E-08  1.111638E-08
        86  11 -2.129410E+05 -5.595499E+04 -9.875854E+03 -9.726261E+04  3.721794E-09  1.061415E-09
        86  12 -1.868267E+05 -4.945466E+04 -4.727121E+03 -9.309712E+04 -1.996692E-09  8.730854E-10
        86  13 -1.667360E+05 -4.225748E+04 -2.812980E+03 -8.756137E+04  2.171734E-08  6.459380E-09
        86  14 -1.688217E+05 -4.003406E+04 -1.546092E+03 -8.509550E+04  3.955203E-09  1.300142E-09
        86  15 -1.667286E+05 -4.221054E+04 -8.732791E+02 -8.757863E+04  1.100494E-08  3.270313E-09
        86  16 -9.858165E+04 -1.764982E+04  1.003049E+04 -6.874387E+04  6.080456E-09  1.984856E-09
        86  17 -1.247005E+05 -2.411305E+04  6.783532E+03 -7.292764E+04 -1.443235E-09  1.408013E-09
        86  18 -1.466303E+05 -3.496646E+04  2.980494E+03 -8.206002E+04  1.067684E-08  5.693590E-09
        86  19 -2.348856E+05 -6.686471E+04 -1.565658E+04 -1.063770E+05  1.237903E+03 -5.430003E+03
        86  20 -2.129410E+05 -5.595497E+04 -9.875826E+03 -9.726261E+04 -2.703153E+02 -3.899840E+03
        86  21 -1.868267E+05 -4.945466E+04 -4.727105E+03 -9.309712E+04 -1.790046E+03 -2.338771E+03
        86  22 -1.667360E+05 -4.225746E+04 -2.812913E+03 -8.756139E+04  4.062122E+03 -4.370461E+03
        86  23 -1.688217E+05 -4.003405E+04 -1.546065E+03 -8.509550E+04  2.601743E+03 -2.822414E+03
        86  24 -1.667286E+05 -4.221054E+04 -8.732738E+02 -8.757863E+04  1.129891E+03 -1.243454E+03
        86  25 -9.858160E+04 -1.764980E+04  1.003060E+04 -6.874389E+04  6.886672E+03 -3.310796E+03
        86  26 -1.247005E+05 -2.411304E+04  6.783594E+03 -7.292765E+04  5.474007E+03 -1.744913E+03
        86  27 -1.466302E+05 -3.496646E+04  2.980525E+03 -8.206002E+04  4.049902E+03 -1.481105E+02
        87   1 -1.708397E+05 -4.366073E+04 -1.384406E+03 -8.867785E+04  2.324785E+03  1.288493E+03
        87   2 -1.489640E+05 -3.282054E+04  3.328680E+03 -7.954039E+04  3.243498E+03 -5.130535E+02
        87   3 -1.228069E+05 -2.629698E+04  7.882764E+03 -7.534673E+04  4.162986E+03 -2.316576E+03
        87   4 -1.667090E+05 -4.221430E+04 -6.723295E+02 -8.756917E+04 -5.902155E+02  1.950381E+02
        87   5 -1.688503E+05 -4.006096E+04 -4.214121E+02 -8.509531E+04  3.253424E+02 -1.607727E+03
        87   6 -1.667106E+05 -4.222394E+04 -3.271818E+02 -8.756566E+04  1.241665E+03 -3.412468E+03
        87   7 -1.625783E+05 -4.076785E+04  3.979317E+01 -8.646048E+04 -3.505264E+03 -8.984339E+02
        87   8 -1.887362E+05 -4.730138E+04 -4.171510E+03 -9.065007E+04 -2.592727E+03 -2.702369E+03
        87   9 -2.106123E+05 -5.815073E+04 -8.537171E+03 -9.978378E+04 -1.679436E+03 -4.508277E+03
        87  10 -1.708397E+05 -4.366073E+04 -1.384419E+03 -8.867785E+04  1.119099E-08  5.733297E-09
        87  11 -1.489640E+05 -3.282054E+04  3.328659E+03 -7.954039E+04  1.135109E-08  2.339042E-09
        87  12 -1.228069E+05 -2.629699E+04  7.882722E+03 -7.534672E+04  4.530415E-09  1.427875E-09
        87  13 -1.667090E+05 -4.221430E+04 -6.723302E+02 -8.756917E+04  1.358916E-08  4.841864E-09
        87  14 -1.688503E+05 -4.006097E+04 -4.214172E+02 -8.509531E+04  1.089993E-08  2.985427E-09
        87  15 -1.667106E+05 -4.222396E+04 -3.272066E+02 -8.756565E+04  1.346574E-09  1.273920E-09
        87  16 -1.625783E+05 -4.076785E+04  3.976856E+01 -8.646048E+04  6.808763E-09  3.798222E-09
        87  17 -1.887362E+05 -4.730139E+04 -4.171536E+03 -9.065008E+04  4.587356E-09  3.996619E-09
        87  18 -2.106123E+05 -5.815075E+04 -8.537215E+03 -9.978379E+04  4.431005E-10  1.013804E-09
        87  19 -1.708397E+05 -4.366073E+04 -1.384406E+03 -8.867785E+04 -2.324785E+03 -1.288493E+03
        87  20 -1.489640E+05 -3.282054E+04  3.328680E+03 -7.954039E+04 -3.243498E+03  5.130535E+02
        87  21 -1.228069E+05 -2.629698E+04  7.882764E+03 -7.534673E+04 -4.162986E+03  2.316576E+03
        87  22 -1.667090E+05 -4.221430E+04 -6.723295E+02 -8.756917E+04  5.902155E+02 -1.950381E+02
        87  23 -1.688503E+05 -4.006096E+04 -4.214121E+02 -8.509531E+04 -3.253424E+02  1.607727E+03
        87  24 -1.667106E+05 -4.222394E+04 -3.271818E+02 -8.756566E+04 -1.241665E+03  3.412468E+03
        87  25 -1.625783E+05 -4.076785E+04  3.979317E+01 -8.646048E+04  3.505264E+03  8.984339E+02
        87  26 -1.887362E+05 -4.730138E+04 -4.171510E+03 -9.065007E+04  2.592727E+03  2.702369E+03
        87  27 -2.106123E+05 -5.815073E+04 -8.537171E+03 -9.978378E+04  1.679436E+03  4.508277E+03
        88   1 -1.068543E+05 -2.048964E+04  1.102535E+04 -7.092405E+04  4.629051E+03 -3.393027E+03
        88   2 -8.498502E+04 -9.643941E+03  1.540112E+04 -6.178945E+04  5.532801E+03 -5.201438E+03
        88   3 -5.883277E+04 -3.112367E+03  1.962973E+04 -5.759696E+04  6.435303E+03 -7.006158E+03
        88   4 -1.667112E+05 -4.222425E+04 -3.247685E+02 -8.756527E+04  1.707714E+03 -4.488966E+03
        88   5 -1.688520E+05 -4.006451E+04 -4.079090E+02 -8.509514E+04  2.617063E+03 -6.295390E+03
        88   6 -1.667116E+05 -4.222000E+04 -6.426384E+02 -8.756731E+04  3.525160E+03 -8.098133E+03
        88   7 -2.265637E+05 -6.395832E+04 -1.167485E+04 -1.042049E+05 -1.213296E+03 -5.584781E+03
        88   8 -2.527117E+05 -7.048443E+04 -1.621719E+04 -1.083979E+05 -2.982540E+02 -7.389185E+03
        88   9 -2.745792E+05 -8.132693E+04 -2.091571E+04 -1.175331E+05  6.155318E+02 -9.189916E+03
        88  10 -1.068543E+05 -2.048965E+04  1.102529E+04 -7.092404E+04 -1.723353E-09  1.309878E-10
        88  11 -8.498506E+04 -9.643978E+03  1.540102E+04 -6.178942E+04  1.561786E-09  7.199419E-10
        88  12 -5.883283E+04 -3.112431E+03  1.962956E+04 -5.759692E+04  6.020335E-10  1.956727E-10
        88  13 -1.667112E+05 -4.222427E+04 -3.248119E+02 -8.756527E+04  6.626523E-10  9.290144E-10
        88  14 -1.688520E+05 -4.006455E+04 -4.079963E+02 -8.509513E+04  2.579505E-10  1.148327E-09
        88  15 -1.667116E+05 -4.222007E+04 -6.427850E+02 -8.756728E+04  1.157236E-09 -5.907703E-10
        88  16 -2.265637E+05 -6.395836E+04 -1.167491E+04 -1.042049E+05  1.216528E-09  1.490642E-09
        88  17 -2.527117E+05 -7.048449E+04 -1.621729E+04 -1.083979E+05  6.250216E-10  1.143355E-09
        88  18 -2.745792E+05 -8.132703E+04 -2.091586E+04 -1.175331E+05 -2.417795E-09 -1.008751E-09
        88  19 -1.068543E+05 -2.048964E+04  1.102535E+04 -7.092405E+04 -4.629051E+03  3.393027E+03
        88  20 -8.498502E+04 -9.643941E+03  1.540112E+04 -6.178945E+04 -5.532801E+03  5.201438E+03
        88  21 -5.883277E+04 -3.112367E+03  1.962973E+04 -5.759696E+04 -6.435303E+03  7.006158E+03
        88  22 -1.667112E+05 -4.222425E+04 -3.247685E+02 -8.756527E+04 -1.707714E+03  4.488966E+03
        88  23 -1.688520E+05 -4.006451E+04 -4.079090E+02 -8.509514E+04 -2.617063E+03  6.295390E+03
        88  24 -1.667116E+05 -4.222000E+04 -6.426384E+02 -8.756731E+04 -3.525160E+03  8.098133E+03
        88  25 -2.265637E+05 -6.395832E+04 -1.167485E+04 -1.042049E+05  1.213296E+03  5.584781E+03
        88  26 -2.527117E+05 -7.048443E+04 -1.621719E+04 -1.083979E+05  2.982540E+02  7.389185E+03
        88  27 -2.745792E+05 -8.132693E+04 -2.091571E+04 -1.175331E+05 -6.155318E+02  9.189916E+03
        89   1 -4.289369E+04  2.687747E+03  2.258046E+04 -5.319438E+04  6.976006E+03 -8.053034E+03
        89   2 -2.098953E+04  1.353557E+04  2.642468E+04 -4.406487E+04  8.333817E+03 -9.663211E+03
        89   3  5.112218E+03  2.000542E+04  2.976181E+04 -3.987793E+04  9.674284E+03 -1.122648E+04
        89   4 -1.667316E+05 -4.221689E+04 -8.323184E+02 -8.757547E+04  4.058767E+03 -9.147773E+03
        89   5 -1.688279E+05 -4.004529E+04 -1.469631E+03 -8.509543E+04  5.489026E+03 -1.073097E+04
        89   6 -1.667415E+05 -4.226617E+04 -2.671486E+03 -8.755830E+04  6.901907E+03 -1.226726E+04
        89   7 -2.905534E+05 -8.712011E+04 -2.424567E+04 -1.219502E+05  1.142151E+03 -1.024228E+04
        89   8 -3.166428E+05 -9.362391E+04 -2.936459E+04 -1.261167E+05  2.644973E+03 -1.179845E+04
        89   9 -3.385628E+05 -1.045345E+05 -3.510551E+04 -1.352260E+05  4.130376E+03 -1.330773E+04
        89  10 -4.289376E+04  2.687665E+03  2.258025E+04 -5.319433E+04  7.836142E-10 -1.239928E-09
        89  11 -2.098963E+04  1.353545E+04  2.642437E+04 -4.406480E+04  2.605438E-09 -1.259497E-09
        89  12  5.112083E+03  2.000526E+04  2.976140E+04 -3.987784E+04  5.049454E-11 -1.346851E-09
        89  13 -1.667316E+05 -4.221698E+04 -8.325066E+02 -8.757544E+04 -7.535649E-10 -1.256622E-09
        89  14 -1.688280E+05 -4.004543E+04 -1.469904E+03 -8.509538E+04  1.505281E-09 -6.371118E-10
        89  15 -1.667416E+05 -4.226635E+04 -2.671858E+03 -8.755823E+04  5.704686E-10  4.180231E-10
        89  16 -2.905534E+05 -8.712023E+04 -2.424587E+04 -1.219502E+05  1.043558E-09 -1.179185E-09
        89  17 -3.166428E+05 -9.362406E+04 -2.936487E+04 -1.261167E+05 -2.351648E-10 -5.284996E-10
        89  18 -3.385629E+05 -1.045347E+05 -3.510587E+04 -1.352260E+05 -2.059456E-10  2.357221E-09
        89  19 -4.289369E+04  2.687747E+03  2.258046E+04 -5.319438E+04 -6.976006E+03  8.053034E+03
        89  20 -2.098953E+04  1.353557E+04  2.642468E+04 -4.406487E+04 -8.333817E+03  9.663211E+03
        89  21  5.112218E+03  2.000542E+04  2.976181E+04 -3.987793E+04 -9.674284E+03  1.122648E+04
        89  22 -1.667316E+05 -4.221689E+04 -8.323184E+02 -8.757547E+04 -4.058767E+03  9.147773E+03
        89  23 -1.688279E+05 -4.004529E+04 -1.469631E+03 -8.509543E+04 -5.489026E+03  1.073097E+04
        89  24 -1.667415E+05 -4.226617E+04 -2.671486E+03 -8.755830E+04 -6.901907E+03  1.226726E+04
        89  25 -2.905534E+05 -8.712011E+04 -2.424567E+04 -1.219502E+05 -1.142151E+03  1.024228E+04
        89  26 -3.166428E+05 -9.362391E+04 -2.936459E+04 -1.261167E+05 -2.644973E+03  1.179845E+04
        89  27 -3.385628E+05 -1.045345E+05 -3.510551E+04 -1.352260E+05 -4.130376E+03  1.330773E+04
        90   1  2.110832E+04  2.569947E+04  3.204038E+04 -3.574159E+04  1.067612E+04 -1.208578E+04
        90   2  4.278349E+04  3.675451E+04  3.392277E+04 -2.589835E+04  1.357704E+04 -1.276221E+04
        90   3  6.788793E+04  4.204566E+04  3.368438E+04 -2.066057E+04  1.624996E+04 -1.283010E+04
        90   4 -1.668934E+05 -4.220337E+04 -3.551690E+03 -8.763721E+04  7.804799E+03 -1.316384E+04
        90   5 -1.686695E+05 -4.031616E+04 -6.482241E+03 -8.492656E+04  1.164805E+04 -1.348685E+04
        90   6 -1.672044E+05 -4.438041E+04 -1.228100E+04 -8.682202E+04  1.526319E+04 -1.320125E+04
        90   7 -3.548599E+05 -1.101038E+05 -3.914566E+04 -1.395188E+05  4.934381E+03 -1.424156E+04
        90   8 -3.800770E+05 -1.173831E+05 -4.688940E+04 -1.439364E+05  9.719768E+03 -1.421123E+04
        90   9 -4.022394E+05 -1.308013E+05 -5.824889E+04 -1.529602E+05  1.427681E+04 -1.357225E+04
        90  10  2.110815E+04  2.569928E+04  3.203989E+04 -3.574148E+04  4.839585E-09  2.441214E-10
        90  11  4.278325E+04  3.675429E+04  3.392212E+04 -2.589821E+04 -7.862853E-09 -3.525096E-09
        90  12  6.788760E+04  4.204542E+04  3.368358E+04 -2.066040E+04 -8.723129E-09 -2.228151E-09
        90  13 -1.668935E+05 -4.220357E+04 -3.552130E+03 -8.763712E+04 -3.374640E-09 -1.165688E-10
        90  14 -1.686697E+05 -4.031639E+04 -6.482838E+03 -8.492644E+04 -9.289147E-09 -2.799148E-09
        90  15 -1.672047E+05 -4.438066E+04 -1.228176E+04 -8.682186E+04 -1.052811E-08 -1.403504E-09
        90  16 -3.548600E+05 -1.101040E+05 -3.914608E+04 -1.395187E+05 -1.061904E-08 -6.316188E-10
        90  17 -3.800771E+05 -1.173833E+05 -4.688996E+04 -1.439363E+05 -1.062654E-08 -8.777360E-10
        90  18 -4.022397E+05 -1.308016E+05 -5.824962E+04 -1.529600E+05 -2.395025E-10 -1.076709E-09
        90  19  2.110832E+04  2.569947E+04  3.204038E+04 -3.574159E+04 -1.067612E+04  1.208578E+04
        90  20  4.278349E+04  3.675451E+04  3.392277E+04 -2.589835E+04 -1.357704E+04  1.276221E+04
        90  21  6.788793E+04  4.204566E+04  3.368438E+04 -2.066057E+04 -1.624996E+04  1.283010E+04
        90  22 -1.668934E+05 -4.220337E+04 -3.551690E+03 -8.763721E+04 -7.804799E+03  1.316384E+04
        90  23 -1.686695E+05 -4.031616E+04 -6.482241E+03 -8.492656E+04 -1.164805E+04  1.348685E+04
        90  24 -1.672044E+05 -4.438041E+04 -1.228100E+04 -8.682202E+04 -1.526319E+04  1.320125E+04
        90  25 -3.548599E+05 -1.101038E+05 -3.914566E+04 -1.395188E+05 -4.934381E+03  1.424156E+04
        90  26 -3.800770E+05 -1.173831E+05 -4.688940E+04 -1.439364E+05 -9.719768E+03  1.421123E+04
        90  27 -4.022394E+05 -1.308013E+05 -5.824889E+04 -1.529602E+05 -1.427681E+04  1.357225E+04
        91   1  8.574080E+04  4.568589E+04  3.321043E+04 -2.147201E+04  1.975169E+04 -1.257192E+04
        91   2  9.739303E+04  6.179702E+04  2.807625E+04  7.415515E+03  2.244253E+04 -8.701274E+03
        91   3  1.003131E+05  4.172018E+04  1.136896E+04  4.043520E+04  2.214210E+04  3.134096E+03
        91   4 -1.692141E+05 -4.315599E+04 -1.618677E+04 -8.806856E+04  1.745907E+04 -1.343333E+04
        91   5 -1.672529E+05 -4.954833E+04 -3.052844E+04 -8.048214E+04  3.249608E+04 -4.927307E+03
        91   6 -1.764762E+05 -9.458506E+04 -6.622968E+04 -6.876318E+04  4.454076E+04  1.154465E+04
        91   7 -4.241014E+05 -1.319934E+05 -6.558671E+04 -1.546403E+05  1.516746E+04 -1.429439E+04
        91   8 -4.318228E+05 -1.608799E+05 -8.913585E+04 -1.683418E+05  4.254488E+04 -1.155703E+03
        91   9 -4.531796E+05 -2.308636E+05 -1.438310E+05 -1.779089E+05  6.692798E+04  1.994795E+04
        91  10  8.574034E+04  4.568561E+04  3.320940E+04 -2.147181E+04 -5.955931E-09  6.171431E-10
        91  11  9.739246E+04  6.179680E+04  2.807516E+04  7.415673E+03  1.330702E-09  3.254309E-09
        91  12  1.003126E+05  4.172004E+04  1.136802E+04  4.043514E+04  2.109618E-09  1.654948E-09
        91  13 -1.692145E+05 -4.315627E+04 -1.618769E+04 -8.806837E+04 -3.184180E-09 -4.140075E-10
        91  14 -1.672541E+05 -4.954864E+04 -3.053047E+04 -8.048201E+04  2.672691E-09  2.637291E-09
        91  15 -1.764783E+05 -9.458573E+04 -6.623366E+04 -6.876359E+04  8.128701E-10  1.425351E-09
        91  16 -4.241017E+05 -1.319937E+05 -6.558753E+04 -1.546401E+05  4.875656E-09 -7.745672E-10
        91  17 -4.318248E+05 -1.608804E+05 -8.913925E+04 -1.683418E+05  1.013846E-08  1.144798E-10
        91  18 -4.531845E+05 -2.308652E+05 -1.438401E+05 -1.779100E+05  1.470840E-09 -8.547946E-10
        91  19  8.574080E+04  4.568589E+04  3.321043E+04 -2.147201E+04 -1.975169E+04  1.257192E+04
        91  20  9.739303E+04  6.179702E+04  2.807625E+04  7.415515E+03 -2.244253E+04  8.701274E+03
        91  21  1.003131E+05  4.172018E+04  1.136896E+04  4.043520E+04 -2.214210E+04 -3.134096E+03
        91  22 -1.692141E+05 -4.315599E+04 -1.618677E+04 -8.806856E+04 -1.745907E+04  1.343333E+04
        91  23 -1.672529E+05 -4.954833E+04 -3.052844E+04 -8.048214E+04 -3.249608E+04  4.927307E+03
        91  24 -1.764762E+05 -9.458506E+04 -6.622968E+04 -6.876318E+04 -4.454076E+04 -1.154465E+04
        91  25 -4.241014E+05 -1.319934E+05 -6.558671E+04 -1.546403E+05 -1.516746E+04  1.429439E+04
        91  26 -4.318228E+05 -1.608799E+05 -8.913585E+04 -1.683418E+05 -4.254488E+04  1.155703E+03
        91  27 -4.531796E+05 -2.308636E+05 -1.438310E+05 -1.779089E+05 -6.692798E+04 -1.994795E+04
        92   1  7.487081E+05  1.158394E+05  1.032225E+05  1.563205E+04  3.370643E+04 -8.442461E+03
        92   2  7.176477E+05  1.265347E+05  8.400574E+04  2.615518E+04  1.483791E+04 -2.930633E+04
        92   3  6.862416E+05  1.259635E+05  7.426091E+04  4.081939E+04 -4.037565E+03 -3.738874E+04
        92   4  1.196782E+05 -3.874737E+04 -4.124409E+04  4.145261E+04 -2.909500E+04 -8.493377E+03
        92   5  1.224149E+05 -1.337427E+04 -2.074470E+04  3.936561E+04 -1.848832E+04 -2.933854E+04
        92   6  1.196876E+05 -4.389453E+03 -1.123297E+04  4.141949E+04 -7.889933E+03 -3.739584E+04
        92   7 -5.089759E+05 -1.933571E+05 -1.857217E+05  6.724675E+04 -9.183338E+04 -8.549540E+03
        92   8 -4.724690E+05 -1.533014E+05 -1.255038E+05  5.256294E+04 -5.178356E+04 -2.937218E+04
        92   9 -4.465447E+05 -1.347577E+05 -9.673330E+04  4.201894E+04 -1.173893E+04 -3.740296E+04
        92  10  7.487068E+05  1.158390E+05  1.032203E+05  1.563228E+04  1.348224E-09 -7.949083E-10
        92  11  7.176473E+05  1.265338E+05  8.400371E+04  2.615553E+04  2.966443E-09 -2.974085E-09
        92  12  6.862412E+05  1.259620E+05  7.425825E+04  4.081927E+04  1.020508E-09 -1.751771E-09
        92  13  1.196772E+05 -3.874767E+04 -4.124581E+04  4.145242E+04 -1.903757E-09  2.543474E-10
        92  14  1.224143E+05 -1.337529E+04 -2.074696E+04  3.936518E+04  3.187593E-10 -1.918768E-09
        92  15  1.196872E+05 -4.390972E+03 -1.123571E+04  4.141926E+04 -9.268557E-11 -3.899816E-10
        92  16 -5.089849E+05 -1.933594E+05 -1.857377E+05  6.724612E+04 -2.578483E-09  5.988789E-11
        92  17 -4.724721E+05 -1.533030E+05 -1.255104E+05  5.256171E+04 -2.007113E-09 -3.088965E-09
        92  18 -4.465452E+05 -1.347592E+05 -9.673619E+04  4.201859E+04 -2.532631E-09 -3.215649E-09
        92  19  7.487081E+05  1.158394E+05  1.032225E+05  1.563205E+04 -3.370643E+04  8.442461E+03
        92  20  7.176477E+05  1.265347E+05  8.400574E+04  2.615518E+04 -1.483791E+04  2.930633E+04
        92  21  6.862416E+05  1.259635E+05  7.426091E+04  4.081939E+04  4.037565E+03  3.738874E+04
        92  22  1.196782E+05 -3.874737E+04 -4.124409E+04  4.145261E+04  2.909500E+04  8.493377E+03
        92  23  1.224149E+05 -1.337427E+04 -2.074470E+04  3.936561E+04  1.848832E+04  2.933854E+04
        92  24  1.196876E+05 -4.389453E+03 -1.123297E+04  4.141949E+04  7.889933E+03  3.739584E+04
        92  25 -5.089759E+05 -1.933571E+05 -1.857217E+05  6.724675E+04  9.183338E+04  8.549540E+03
        92  26 -4.724690E+05 -1.533014E+05 -1.255038E+05  5.256294E+04  5.178356E+04  2.937218E+04
        92  27 -4.465447E+05 -1.347577E+05 -9.673330E+04  4.201894E+04  1.173893E+04  3.740296E+04
        93   1  6.671499E+05  1.219487E+05  7.144131E+04  4.018977E+04 -3.269475E+03 -3.780323E+04
        93   2  6.360430E+05  1.161998E+05  6.662414E+04  3.863468E+04 -4.820073E+03 -3.834757E+04
        93   3  6.049271E+05  1.095958E+05  6.260423E+04  4.216185E+04 -6.372629E+03 -3.723180E+04
        93   4  1.207560E+05 -3.241290E+03 -8.393143E+03  4.163021E+04 -6.430770E+03 -3.780977E+04
        93   5  1.210980E+05 -9.735887E+02 -4.540726E+03  3.908720E+04 -4.154520E+03 -3.835008E+04
        93   6  1.207664E+05 -2.253924E+02 -2.547649E+03  4.162672E+04 -1.880239E+03 -3.722954E+04
        93   7 -4.253373E+05 -1.284451E+05 -8.823265E+04  4.306925E+04 -9.589399E+03 -3.781633E+04
        93   8 -3.935778E+05 -1.181586E+05 -7.570866E+04  3.953924E+04 -3.489494E+03 -3.835259E+04
        93   9 -3.631555E+05 -1.100566E+05 -6.770156E+04  4.109196E+04  2.608812E+03 -3.722730E+04
        93  10  6.671495E+05  1.219472E+05  7.143860E+04  4.018967E+04 -5.583574E-09 -1.410249E-09
        93  11  6.360425E+05  1.161982E+05  6.662133E+04  3.863454E+04 -1.066588E-09  2.033619E-09
        93  12  6.049267E+05  1.095943E+05  6.260155E+04  4.216166E+04  3.027287E-10  2.094634E-09
        93  13  1.207556E+05 -3.242836E+03 -8.395907E+03  4.163002E+04  2.586571E-10 -9.360933E-10
        93  14  1.210976E+05 -9.751727E+02 -4.543522E+03  3.908707E+04 -1.893321E-09  1.171680E-09
        93  15  1.207661E+05 -2.268818E+02 -2.550260E+03  4.162667E+04 -6.286666E-10 -5.697630E-10
        93  16 -4.253378E+05 -1.284466E+05 -8.823551E+04  4.306896E+04  4.124878E-09  1.087755E-10
        93  17 -3.935782E+05 -1.181602E+05 -7.571145E+04  3.953913E+04 -1.114647E-09  1.896208E-09
        93  18 -3.631559E+05 -1.100581E+05 -6.770418E+04  4.109204E+04 -4.729648E-09  6.265138E-10
        93  19  6.671499E+05  1.219487E+05  7.144131E+04  4.018977E+04  3.269475E+03  3.780323E+04
        93  20  6.360430E+05  1.161998E+05  6.662414E+04  3.863468E+04  4.820073E+03  3.834757E+04
        93  21  6.049271E+05  1.095958E+05  6.260423E+04  4.216185E+04  6.372629E+03  3.723180E+04
        93  22  1.207560E+05 -3.241290E+03 -8.393143E+03  4.163021E+04  6.430770E+03  3.780977E+04
        93  23  1.210980E+05 -9.735887E+02 -4.540726E+03  3.908720E+04  4.154520E+03  3.835008E+04
        93  24  1.207664E+05 -2.253924E+02 -2.547649E+03  4.162672E+04  1.880239E+03  3.722954E+04
        93  25 -4.253373E+05 -1.284451E+05 -8.823265E+04  4.306925E+04  9.589399E+03  3.781633E+04
        93  26 -3.935778E+05 -1.181586E+05 -7.570866E+04  3.953924E+04  3.489494E+03  3.835259E+04
        93  27 -3.631555E+05 -1.100566E+05 -6.770156E+04  4.109196E+04 -2.608812E+03  3.722730E+04
        94   1  5.856765E+05  1.052006E+05  6.019837E+04  4.206394E+04 -6.085304E+03 -3.602546E+04
        94   2  5.546030E+05  9.822590E+04  5.640690E+04  3.949118E+04 -6.048320E+03 -3.393128E+04
        94   3  5.235125E+05  9.121693E+04  5.258171E+04  4.211861E+04 -6.012130E+03 -3.162179E+04
        94   4  1.208964E+05 -1.404018E+02 -1.920985E+03  4.165312E+04 -1.504032E+03 -3.602273E+04
        94   5  1.209531E+05  3.365628E+01 -1.076888E+03  3.905278E+04 -9.710446E+02 -3.392734E+04
        94   6  1.209056E+05  8.731065E+01 -6.110253E+02  4.165283E+04 -4.388490E+02 -3.161656E+04
        94   7 -3.436635E+05 -1.054906E+05 -6.404207E+04  4.124257E+04  3.073972E+03 -3.602001E+04
        94   8 -3.125049E+05 -9.816656E+04 -5.856201E+04  3.861464E+04  4.102853E+03 -3.392340E+04
        94   9 -2.815358E+05 -9.104915E+04 -5.380483E+04  4.118731E+04  5.130990E+03 -3.161133E+04
        94  10  5.856761E+05  1.051992E+05  6.019587E+04  4.206376E+04 -2.426979E-09  3.038798E-09
        94  11  5.546026E+05  9.822465E+04  5.640467E+04  3.949102E+04 -8.563392E-10  3.368989E-09
        94  12  5.235122E+05  9.121585E+04  5.257977E+04  4.211845E+04  3.866514E-09  1.533816E-09
        94  13  1.208961E+05 -1.417959E+02 -1.923428E+03  4.165308E+04 -8.674213E-10 -1.070798E-09
        94  14  1.209527E+05  3.241991E+01 -1.079053E+03  3.905275E+04 -8.622434E-10  2.597758E-09
        94  15  1.209053E+05  8.623714E+01 -6.129042E+02  4.165282E+04  4.313148E-09  3.352306E-09
        94  16 -3.436638E+05 -1.054920E+05 -6.404453E+04  4.124266E+04  1.838285E-09  1.442650E-09
        94  17 -3.125053E+05 -9.816780E+04 -5.856420E+04  3.861475E+04  5.726747E-10  2.535726E-09
        94  18 -2.815361E+05 -9.105023E+04 -5.380675E+04  4.118744E+04 -1.859690E-09  7.236866E-10
        94  19  5.856765E+05  1.052006E+05  6.019837E+04  4.206394E+04  6.085304E+03  3.602546E+04
        94  20  5.546030E+05  9.822590E+04  5.640690E+04  3.949118E+04  6.048320E+03  3.393128E+04
        94  21  5.235125E+05  9.121693E+04  5.258171E+04  4.211861E+04  6.012130E+03  3.162179E+04
        94  22  1.208964E+05 -1.404018E+02 -1.920985E+03  4.165312E+04  1.504032E+03  3.602273E+04
        94  23  1.209531E+05  3.365628E+01 -1.076888E+03  3.905278E+04  9.710446E+02  3.392734E+04
        94  24  1.209056E+05  8.731065E+01 -6.110253E+02  4.165283E+04  4.388490E+02  3.161656E+04
        94  25 -3.436635E+05 -1.054906E+05 -6.404207E+04  4.124257E+04 -3.073972E+03  3.602001E+04
        94  26 -3.125049E+05 -9.816656E+04 -5.856201E+04  3.861464E+04 -4.102853E+03  3.392340E+04
        94  27 -2.815358E+05 -9.104915E+04 -5.380483E+04  4.118731E+04 -5.130990E+03  3.161133E+04
        95   1  5.042625E+05  8.683157E+04  5.004194E+04  4.208962E+04 -5.929306E+03 -3.020559E+04
        95   2  4.732028E+05  7.980281E+04  4.613560E+04  3.945321E+04 -5.868576E+03 -2.776971E+04
        95   3  4.421306E+05  7.279095E+04  4.219100E+04  4.202944E+04 -5.808353E+03 -2.530620E+04
        95   4  1.209260E+05  9.175624E+01 -4.605290E+02  4.165562E+04 -3.451130E+02 -3.019998E+04
        95   5  1.209422E+05  9.663048E+01 -2.564944E+02  3.904920E+04 -2.209330E+02 -2.776346E+04
        95   6  1.209335E+05  1.072742E+02 -1.350318E+02  4.165560E+04 -9.725719E+01 -2.529930E+04
        95   7 -2.622604E+05 -8.665424E+04 -5.096391E+04  4.122185E+04  5.235797E+03 -3.019438E+04
        95   8 -2.311915E+05 -7.961477E+04 -4.664933E+04  3.864540E+04  5.423659E+03 -2.775721E+04
        95   9 -2.001582E+05 -7.258074E+04 -4.246166E+04  4.128193E+04  5.611025E+03 -2.529240E+04
        95  10  5.042622E+05  8.683058E+04  5.004016E+04  4.208948E+04 -6.822199E-09  1.336714E-09
        95  11  4.732025E+05  7.980197E+04  4.613409E+04  3.945308E+04 -2.327908E-09  5.286662E-09
        95  12  4.421304E+05  7.279025E+04  4.218973E+04  4.202932E+04  2.759091E-09  3.151148E-09
        95  13  1.209257E+05  9.077678E+01 -4.622432E+02  4.165561E+04  1.416602E-09  1.608207E-09
        95  14  1.209420E+05  9.580271E+01 -2.579431E+02  3.904920E+04 -2.429275E-09  4.496290E-09
        95  15  1.209333E+05  1.065869E+02 -1.362347E+02  4.165560E+04 -7.838540E-10  3.262027E-10
        95  16 -2.622607E+05 -8.665523E+04 -5.096568E+04  4.122197E+04  4.961024E-09  1.203414E-09
        95  17 -2.311918E+05 -7.961560E+04 -4.665084E+04  3.864552E+04  1.366958E-09  3.126615E-09
        95  18 -2.001584E+05 -7.258143E+04 -4.246293E+04  4.128204E+04 -6.530178E-10 -6.093868E-10
        95  19  5.042625E+05  8.683157E+04  5.004194E+04  4.208962E+04  5.929306E+03  3.020559E+04
        95  20  4.732028E+05  7.980281E+04  4.613560E+04  3.945321E+04  5.868576E+03  2.776971E+04
        95  21  4.421306E+05  7.279095E+04  4.219100E+04  4.202944E+04  5.808353E+03  2.530620E+04
        95  22  1.209260E+05  9.175624E+01 -4.605290E+02  4.165562E+04  3.451130E+02  3.019998E+04
        95  23  1.209422E+05  9.663048E+01 -2.564944E+02  3.904920E+04  2.209330E+02  2.776346E+04
        95  24  1.209335E+05  1.072742E+02 -1.350318E+02  4.165560E+04  9.725719E+01  2.529930E+04
        95  25 -2.622604E+05 -8.665424E+04 -5.096391E+04  4.122185E+04 -5.235797E+03  3.019438E+04
        95  26 -2.311915E+05 -7.961477E+04 -4.664933E+04  3.864540E+04 -5.423659E+03  2.775721E+04
        95  27 -2.001582E+05 -7.258074E+04 -4.246166E+04  4.128193E+04 -5.611025E+03  2.529240E+04
        96   1  4.228863E+05  6.841537E+04  3.958799E+04  4.201044E+04 -5.790372E+03 -2.386324E+04
        96   2  3.918376E+05  6.139370E+04  3.561267E+04  3.937204E+04 -5.786825E+03 -2.138407E+04
        96   3  3.607789E+05  5.439042E+04  3.163498E+04  4.194895E+04 -5.783643E+03 -1.890214E+04
        96   4  1.209387E+05  1.086990E+02 -9.273459E+01  4.165619E+04 -7.841017E+01 -2.385605E+04
        96   5  1.209474E+05  1.038110E+02 -2.650819E+01  3.904847E+04 -6.859289E+01 -2.137643E+04
        96   6  1.209445E+05  1.163669E+02  3.305170E+01  4.165619E+04 -5.914060E+01 -1.889406E+04
        96   7 -1.809157E+05 -6.820180E+04 -3.977395E+04  4.130210E+04  5.630907E+03 -2.384885E+04
        96   8 -1.498677E+05 -6.118916E+04 -3.566606E+04  3.872502E+04  5.647263E+03 -2.136880E+04
        96   9 -1.188311E+05 -5.416010E+04 -3.156916E+04  4.136352E+04  5.663256E+03 -1.888598E+04
        96  10  4.228861E+05  6.841475E+04  3.958685E+04  4.201032E+04 -2.080372E-08 -1.599822E-10
        96  11  3.918374E+05  6.139320E+04  3.561174E+04  3.937194E+04  9.421611E-09  9.924408E-10
        96  12  3.607787E+05  5.439003E+04  3.163424E+04  4.194886E+04  3.668637E-08  4.279269E-09
        96  13  1.209385E+05  1.080878E+02 -9.380413E+01  4.165619E+04  4.545027E-10 -6.672585E-11
        96  14  1.209473E+05  1.033203E+02 -2.736695E+01  3.904847E+04 -2.505857E-09 -8.810191E-09
        96  15  1.209444E+05  1.159835E+02  3.238081E+01  4.165619E+04 -2.729840E-09 -1.409937E-08
        96  16 -1.809158E+05 -6.820242E+04 -3.977508E+04  4.130220E+04  2.152818E-08  1.203270E-10
        96  17 -1.498679E+05 -6.118965E+04 -3.566698E+04  3.872512E+04 -7.526519E-09 -8.634466E-10
        96  18 -1.188312E+05 -5.416049E+04 -3.156989E+04  4.136361E+04 -3.647520E-08  2.433826E-09
        96  19  4.228863E+05  6.841537E+04  3.958799E+04  4.201044E+04  5.790372E+03  2.386324E+04
        96  20  3.918376E+05  6.139370E+04  3.561267E+04  3.937204E+04  5.786825E+03  2.138407E+04
        96  21  3.607789E+05  5.439042E+04  3.163498E+04  4.194895E+04  5.783643E+03  1.890214E+04
        96  22  1.209387E+05  1.086990E+02 -9.273459E+01  4.165619E+04  7.841017E+01  2.385605E+04
        96  23  1.209474E+05  1.038110E+02 -2.650819E+01  3.904847E+04  6.859289E+01  2.137643E+04
        96  24  1.209445E+05  1.163669E+02  3.305170E+01  4.165619E+04  5.914060E+01  1.889406E+04
        96  25 -1.809157E+05 -6.820180E+04 -3.977395E+04  4.130210E+04 -5.630907E+03  2.384885E+04
        96  26 -1.498677E+05 -6.118916E+04 -3.566606E+04  3.872502E+04 -5.647263E+03  2.136880E+04
        96  27 -1.188311E+05 -5.416010E+04 -3.156916E+04  4.136352E+04 -5.663256E+03  1.888598E+04
        97   1  3.415429E+05  5.001801E+04  2.902731E+04  4.193091E+04 -5.793730E+03 -1.745660E+04
        97   2  3.104978E+05  4.300461E+04  2.507360E+04  3.928374E+04 -5.860743E+03 -1.497561E+04
        97   3  2.794535E+05  3.602681E+04  2.116680E+04  4.184962E+04 -5.928000E+03 -1.249897E+04
        97   4  1.209490E+05  1.183966E+02  6.503936E+01  4.165568E+04 -6.975228E+01 -1.744831E+04
        97   5  1.209503E+05  1.192670E+02  1.480641E+02  3.904908E+04 -1.469316E+02 -1.496702E+04
        97   6  1.209531E+05  1.575146E+02  2.849777E+02  4.165563E+04 -2.243572E+02 -1.249010E+04
        97   7 -9.959502E+04 -4.978325E+04 -2.889743E+04  4.138054E+04  5.652289E+03 -1.744001E+04
        97   8 -6.856040E+04 -4.276757E+04 -2.477759E+04  3.881449E+04  5.565219E+03 -1.495844E+04
        97   9 -3.752162E+04 -3.571282E+04 -2.059689E+04  4.146168E+04  5.477899E+03 -1.248123E+04
        97  10  3.415428E+05  5.001767E+04  2.902668E+04  4.193083E+04 -4.097357E-08  7.216255E-09
        97  11  3.104977E+05  4.300436E+04  2.507311E+04  3.928366E+04 -5.672857E-09  3.930946E-09
        97  12  2.794534E+05  3.602663E+04  2.116644E+04  4.184956E+04  2.684717E-08  2.304555E-09
        97  13  1.209489E+05  1.180696E+02  6.446721E+01  4.165568E+04  1.474470E-09 -1.131592E-08
        97  14  1.209503E+05  1.190264E+02  1.476431E+02  3.904908E+04 -2.572834E-09 -5.905754E-09
        97  15  1.209530E+05  1.573470E+02  2.846844E+02  4.165563E+04 -8.039309E-10 -1.048167E-09
        97  16 -9.959514E+04 -4.978358E+04 -2.889807E+04  4.138062E+04  4.025944E-08  6.577599E-09
        97  17 -6.856050E+04 -4.276782E+04 -2.477807E+04  3.881456E+04  6.766926E-09 -9.743535E-10
        97  18 -3.752170E+04 -3.571300E+04 -2.059724E+04  4.146174E+04 -2.503496E-08  6.313253E-11
        97  19  3.415429E+05  5.001801E+04  2.902731E+04  4.193091E+04  5.793730E+03  1.745660E+04
        97  20  3.104978E+05  4.300461E+04  2.507360E+04  3.928374E+04  5.860743E+03  1.497561E+04
        97  21  2.794535E+05  3.602681E+04  2.116680E+04  4.184962E+04  5.928000E+03  1.249897E+04
        97  22  1.209490E+05  1.183966E+02  6.503936E+01  4.165568E+04  6.975228E+01  1.744831E+04
        97  23  1.209503E+05  1.192670E+02  1.480641E+02  3.904908E+04  1.469316E+02  1.496702E+04
        97  24  1.209531E+05  1.575146E+02  2.849777E+02  4.165563E+04  2.243572E+02  1.249010E+04
        97  25 -9.959502E+04 -4.978325E+04 -2.889743E+04  4.138054E+04 -5.652289E+03  1.744001E+04
        97  26 -6.856040E+04 -4.276757E+04 -2.477759E+04  3.881449E+04 -5.565219E+03  1.495844E+04
        97  27 -3.752162E+04 -3.571282E+04 -2.059689E+04  4.146168E+04 -5.477899E+03  1.248123E+04
        98   1  2.602369E+05  3.166530E+04  1.861939E+04  4.184440E+04 -5.984285E+03 -1.105780E+04
        98   2  2.291613E+05  2.475148E+04  1.485538E+04  3.905062E+04 -6.251783E+03 -8.602403E+03
        98   3  1.981613E+05  1.807550E+04  1.131880E+04  4.146588E+04 -6.519355E+03 -6.182827E+03
        98   4  1.209735E+05  1.712779E+02  3.832881E+02  4.165478E+04 -2.828701E+02 -1.104879E+04
        98   5  1.209303E+05  2.772421E+02  6.914388E+02  3.904988E+04 -6.330523E+02 -8.593358E+03
        98   6  1.209758E+05  6.353027E+02  1.284202E+03  4.165404E+04 -9.833177E+02 -6.173751E+03
        98   7 -1.827004E+04 -3.132354E+04 -1.785282E+04  4.146519E+04  5.417327E+03 -1.103978E+04
        98   8  1.271147E+04 -2.419747E+04 -1.347246E+04  3.904913E+04  4.984746E+03 -8.584313E+03
        98   9  4.379636E+04 -1.680512E+04 -8.750319E+03  4.184218E+04  4.552064E+03 -6.164670E+03
        98  10  2.602368E+05  3.166516E+04  1.861909E+04  4.184434E+04 -2.365563E-10  4.116781E-09
        98  11  2.291612E+05  2.475139E+04  1.485517E+04  3.905058E+04  3.421645E-09  1.582986E-09
        98  12  1.981613E+05  1.807544E+04  1.131865E+04  4.146584E+04  7.313641E-09  2.269000E-09
        98  13  1.209735E+05  1.711468E+02  3.830585E+02  4.165478E+04 -1.745495E-09  2.589117E-09
        98  14  1.209303E+05  2.771627E+02  6.912993E+02  3.904987E+04 -2.041604E-09  3.238565E-09
        98  15  1.209757E+05  6.352615E+02  1.284129E+03  4.165404E+04  1.638259E-09  2.623688E-12
        98  16 -1.827010E+04 -3.132368E+04 -1.785310E+04  4.146524E+04 -1.551419E-09  1.784947E-09
        98  17  1.271142E+04 -2.419756E+04 -1.347265E+04  3.904916E+04 -6.106289E-09  1.846366E-09
        98  18  4.379633E+04 -1.680517E+04 -8.750430E+03  4.184220E+04 -8.065896E-09 -2.460383E-09
        98  19  2.602369E+05  3.166530E+04  1.861939E+04  4.184440E+04  5.984285E+03  1.105780E+04
        98  20  2.291613E+05  2.475148E+04  1.485538E+04  3.905062E+04  6.251783E+03  8.602403E+03
        98  21  1.981613E+05  1.807550E+04  1.131880E+04  4.146588E+04  6.519355E+03  6.182827E+03
        98  22  1.209735E+05  1.712779E+02  3.832881E+02  4.165478E+04  2.828701E+02  1.104879E+04
        98  23  1.209303E+05  2.772421E+02  6.914388E+02  3.904988E+04  6.330523E+02  8.593358E+03
        98  24  1.209758E+05  6.353027E+02  1.284202E+03  4.165404E+04  9.833177E+02  6.173751E+03
        98  25 -1.827004E+04 -3.132354E+04 -1.785282E+04  4.146519E+04 -5.417327E+03  1.103978E+04
        98  26  1.271147E+04 -2.419747E+04 -1.347246E+04  3.904913E+04 -4.984746E+03  8.584313E+03
        98  27  4.379636E+04 -1.680512E+04 -8.750319E+03  4.184218E+04 -4.552064E+03  6.164670E+03
        99   1  1.790745E+05  1.386223E+04  9.052713E+03  4.156652E+04 -6.729746E+03 -4.776889E+03
        99   2  1.476873E+05  8.157877E+03  6.154010E+03  3.699811E+04 -7.720056E+03 -2.520528E+03
        99   3  1.170146E+05  4.877072E+03  4.499357E+03  3.761609E+04 -8.709946E+03 -5.396393E+02
        99   4  1.211397E+05  8.112849E+02  1.720162E+03  4.164953E+04 -1.208843E+03 -4.767775E+03
        99   5  1.207278E+05  2.179908E+03  3.178357E+03  3.905208E+04 -2.834030E+03 -2.512449E+03
        99   6  1.211400E+05  6.082442E+03  6.321460E+03  4.164096E+04 -4.458848E+03 -5.326086E+02
        99   7  6.320842E+04 -1.223978E+04 -5.612286E+03  4.173252E+04  4.311570E+03 -4.758658E+03
        99   8  9.376909E+04 -3.798058E+03  2.028022E+02  4.110596E+04  2.051795E+03 -2.504337E+03
        99   9  1.252654E+05  7.287880E+03  8.143638E+03  4.566587E+04 -2.077198E+02 -5.255228E+02
        99  10  1.790745E+05  1.386219E+04  9.052585E+03  4.156650E+04 -1.375672E-10  1.768942E-09
        99  11  1.476872E+05  8.157854E+03  6.153886E+03  3.699809E+04 -1.623277E-09 -1.096732E-09
        99  12  1.170145E+05  4.877052E+03  4.499213E+03  3.761608E+04  2.646098E-09  6.239726E-10
        99  13  1.211397E+05  8.112601E+02  1.720116E+03  4.164952E+04  2.671036E-09  2.726773E-09
        99  14  1.207278E+05  2.179899E+03  3.178330E+03  3.905207E+04 -2.130901E-09 -3.199202E-09
        99  15  1.211400E+05  6.082437E+03  6.321422E+03  4.164096E+04 -1.510472E-09  3.033008E-09
        99  16  6.320839E+04 -1.223981E+04 -5.612364E+03  4.173254E+04  2.163357E-09  1.109118E-09
        99  17  9.376908E+04 -3.798066E+03  2.027825E+02  4.110596E+04 -1.782754E-09  1.327387E-09
        99  18  1.252654E+05  7.287880E+03  8.143637E+03  4.566587E+04 -2.473582E-09  4.743975E-10
        99  19  1.790745E+05  1.386223E+04  9.052713E+03  4.156652E+04  6.729746E+03  4.776889E+03
        99  20  1.476873E+05  8.157877E+03  6.154010E+03  3.699811E+04  7.720056E+03  2.520528E+03
        99  21  1.170146E+05  4.877072E+03  4.499357E+03  3.761609E+04  8.709946E+03  5.396393E+02
        99  22  1.211397E+05  8.112849E+02  1.720162E+03  4.164953E+04  1.208843E+03  4.767775E+03
        99  23  1.207278E+05  2.179908E+03  3.178357E+03  3.905208E+04  2.834030E+03  2.512449E+03
        99  24  1.211400E+05  6.082442E+03  6.321460E+03  4.164096E+04  4.458848E+03  5.326086E+02
        99  25  6.320842E+04 -1.223978E+04 -5.612286E+03  4.173252E+04 -4.311570E+03  4.758658E+03
        99  26  9.376909E+04 -3.798058E+03  2.028022E+02  4.110596E+04 -2.051795E+03  2.504337E+03
        99  27  1.252654E+05  7.287880E+03  8.143638E+03  4.566587E+04  2.077198E+02  5.255228E+02
       100   1  6.084744E+03  3.460301E+05  7.330806E+03 -3.727111E+04 -5.496406E+02  6.274274E+01
       100   2 -6.308177E+03  3.119291E+05 -1.229545E+03 -3.148158E+04 -2.592130E+03 -2.420677E+03
       100   3 -1.518550E+04  2.790168E+05 -7.298743E+03 -3.341777E+04 -4.875976E+03 -4.904124E+03
       100   4  5.676098E+03  3.448973E+05  6.453865E+03 -3.365700E+04 -5.521488E+02  3.249795E+03
       100   5  1.228413E+03  3.443379E+05  4.072320E+03 -2.979622E+04 -2.594915E+03  1.166110E+03
       100   6  2.270545E+02  3.448973E+05  3.904578E+03 -3.366106E+04 -4.879018E+03 -9.177191E+02
       100   7  5.267506E+03  3.437646E+05  5.576968E+03 -3.004289E+04 -5.546200E+02  6.436841E+03
       100   8  8.764966E+03  3.767478E+05  9.374205E+03 -2.811077E+04 -2.597680E+03  4.753077E+03
       100   9  1.563939E+04  4.107822E+05  1.510782E+04 -3.390438E+04 -4.882062E+03  3.069095E+03
       100  10  6.084744E+03  3.460301E+05  7.330806E+03 -3.727111E+04  1.595911E-09 -1.616349E-08
       100  11 -6.308186E+03  3.119291E+05 -1.229569E+03 -3.148158E+04  2.770036E-09 -4.016432E-09
       100  12 -1.518553E+04  2.790167E+05 -7.298833E+03 -3.341779E+04  4.418042E-09  1.050756E-08
       100  13  5.676095E+03  3.448973E+05  6.453844E+03 -3.365700E+04 -9.375697E-10  8.132860E-10
       100  14  1.228405E+03  3.443379E+05  4.072305E+03 -2.979621E+04 -5.910543E-09  7.593460E-11
       100  15  2.270287E+02  3.448973E+05  3.904531E+03 -3.366107E+04 -6.392613E-09  1.032881E-09
       100  16  5.267494E+03  3.437645E+05  5.576890E+03 -3.004289E+04  4.842694E-10  1.621330E-08
       100  17  8.764953E+03  3.767478E+05  9.374150E+03 -2.811076E+04  2.331910E-09  2.298804E-09
       100  18  1.563936E+04  4.107822E+05  1.510775E+04 -3.390436E+04  4.436770E-09 -1.071190E-08
       100  19  6.084744E+03  3.460301E+05  7.330806E+03 -3.727111E+04  5.496406E+02 -6.274274E+01
       100  20 -6.308177E+03  3.119291E+05 -1.229545E+03 -3.148158E+04  2.592130E+03  2.420677E+03
       100  21 -1.518550E+04  2.790168E+05 -7.298743E+03 -3.341777E+04  4.875976E+03  4.904124E+03
       100  22  5.676098E+03  3.448973E+05  6.453865E+03 -3.365700E+04  5.521488E+02 -3.249795E+03
       100  23  1.228413E+03  3.443379E+05  4.072320E+03 -2.979622E+04  2.594915E+03 -1.166110E+03
       100  24  2.270545E+02  3.448973E+05  3.904578E+03 -3.366106E+04  4.879018E+03  9.177191E+02
       100  25  5.267506E+03  3.437646E+05  5.576968E+03 -3.004289E+04  5.546200E+02 -6.436841E+03
       100  26  8.764966E+03  3.767478E+05  9.374205E+03 -2.811077E+04  2.597680E+03 -4.753077E+03
       100  27  1.563939E+04  4.107822E+05  1.510782E+04 -3.390438E+04  4.882062E+03 -3.069095E+03
       101   1 -2.032072E+04  2.569844E+05 -1.081520E+04 -3.406297E+04 -6.312182E+03 -5.612723E+03
       101   2 -2.811654E+04  2.231383E+05 -1.492131E+04 -2.955054E+04 -8.486981E+03 -7.906034E+03
       101   3 -3.447649E+04  1.899392E+05 -1.717902E+04 -3.275337E+04 -1.016709E+04 -1.019871E+04
       101   4  2.686890E+02  3.448231E+05  4.326785E+03 -3.365838E+04 -6.315185E+03 -1.597872E+03
       101   5  3.652220E+02  3.444274E+05  6.234857E+03 -2.980014E+04 -8.489199E+03 -4.711230E+03
       101   6  2.039767E+03  3.448197E+05  1.056024E+04 -3.365703E+04 -1.016857E+04 -7.824077E+03
       101   7  2.085769E+04  4.326693E+05  1.946857E+04 -3.325373E+04 -6.318182E+03  2.417529E+03
       101   8  2.884619E+04  4.657309E+05  2.739055E+04 -3.004979E+04 -8.491419E+03 -1.515820E+03
       101   9  3.855470E+04  4.997236E+05  3.829861E+04 -3.456092E+04 -1.017006E+04 -5.448863E+03
       101  10 -2.032077E+04  2.569844E+05 -1.081533E+04 -3.406300E+04  2.086161E-09  2.070943E-08
       101  11 -2.811663E+04  2.231382E+05 -1.492157E+04 -2.955059E+04 -4.111116E-10  1.898640E-09
       101  12 -3.447663E+04  1.899390E+05 -1.717941E+04 -3.275346E+04 -9.970460E-11 -1.340115E-08
       101  13  2.686454E+02  3.448231E+05  4.326705E+03 -3.365839E+04 -5.902280E-09  7.681864E-10
       101  14  3.651386E+02  3.444274E+05  6.234680E+03 -2.980017E+04 -2.651858E-09  5.486676E-11
       101  15  2.039640E+03  3.448196E+05  1.055993E+04 -3.365709E+04 -3.967696E-10  1.062650E-09
       101  16  2.085765E+04  4.326693E+05  1.946848E+04 -3.325371E+04  2.855495E-09 -2.066934E-08
       101  17  2.884611E+04  4.657309E+05  2.739041E+04 -3.004980E+04  4.882774E-09 -3.451166E-09
       101  18  3.855458E+04  4.997235E+05  3.829836E+04 -3.456096E+04  8.074692E-10  1.339105E-08
       101  19 -2.032072E+04  2.569844E+05 -1.081520E+04 -3.406297E+04  6.312182E+03  5.612723E+03
       101  20 -2.811654E+04  2.231383E+05 -1.492131E+04 -2.955054E+04  8.486981E+03  7.906034E+03
       101  21 -3.447649E+04  1.899392E+05 -1.717902E+04 -3.275337E+04  1.016709E+04  1.019871E+04
       101  22  2.686890E+02  3.448231E+05  4.326785E+03 -3.365838E+04  6.315185E+03  1.597872E+03
       101  23  3.652220E+02  3.444274E+05  6.234857E+03 -2.980014E+04  8.489199E+03  4.711230E+03
       101  24  2.039767E+03  3.448197E+05  1.056024E+04 -3.365703E+04  1.016857E+04  7.824077E+03
       101  25  2.085769E+04  4.326693E+05  1.946857E+04 -3.325373E+04  6.318182E+03 -2.417529E+03
       101  26  2.884619E+04  4.657309E+05  2.739055E+04 -3.004979E+04  8.491419E+03  1.515820E+03
       101  27  3.855470E+04  4.997236E+05  3.829861E+04 -3.456092E+04  1.017006E+04  5.448863E+03
       102   1 -4.054727E+04  1.694019E+05 -1.834855E+04 -3.626595E+04 -1.135721E+04 -1.271438E+04
       102   2 -4.053445E+04  1.324792E+05 -1.692378E+04 -1.714863E+04 -1.024244E+04 -1.547997E+04
       102   3 -1.518779E+04  1.022464E+05 -7.365497E+03 -5.363680E+03 -3.167639E+03 -1.824189E+04
       102   4  1.261548E+03  3.465102E+05  1.366029E+04 -3.357578E+04 -1.135916E+04 -9.624703E+03
       102   5  9.717999E+03  3.423049E+05  2.446939E+04 -2.989550E+04 -1.023736E+04 -2.226486E+04
       102   6  4.521626E+04  3.464982E+05  5.026467E+04 -3.354670E+04 -3.156301E+03 -3.490155E+04
       102   7  4.306864E+04  5.236490E+05  4.566794E+04 -3.088482E+04 -1.136108E+04 -6.534168E+03
       102   8  5.996841E+04  5.521731E+05  6.586067E+04 -4.264676E+04 -1.023200E+04 -2.905200E+04
       102   9  1.056192E+05  5.908072E+05  1.078922E+05 -6.174087E+04 -3.143453E+03 -5.156774E+04
       102  10 -4.054745E+04  1.694017E+05 -1.834909E+04 -3.626607E+04  7.451252E-10  1.627922E-09
       102  11 -4.053463E+04  1.324789E+05 -1.692443E+04 -1.714875E+04  2.864619E-09 -1.328607E-09
       102  12 -1.518789E+04  1.022461E+05 -7.366142E+03 -5.363727E+03  3.823027E-10 -2.343921E-09
       102  13  1.261385E+03  3.465100E+05  1.365988E+04 -3.357587E+04  1.181060E-09  7.264721E-10
       102  14  9.717753E+03  3.423043E+05  2.446826E+04 -2.989568E+04  2.617531E-09  1.015344E-10
       102  15  4.521593E+04  3.464969E+05  5.026236E+04 -3.354679E+04 -5.492272E-10  7.919705E-10
       102  16  4.306849E+04  5.236489E+05  4.566762E+04 -3.088488E+04 -8.427927E-10 -1.479915E-09
       102  17  5.996807E+04  5.521722E+05  6.585889E+04 -4.264700E+04  4.776808E-09  1.776482E-10
       102  18  1.056185E+05  5.908043E+05  1.078872E+05 -6.174100E+04  6.775382E-11  2.118943E-09
       102  19 -4.054727E+04  1.694019E+05 -1.834855E+04 -3.626595E+04  1.135721E+04  1.271438E+04
       102  20 -4.053445E+04  1.324792E+05 -1.692378E+04 -1.714863E+04  1.024244E+04  1.547997E+04
       102  21 -1.518779E+04  1.022464E+05 -7.365497E+03 -5.363680E+03  3.167639E+03  1.824189E+04
       102  22  1.261548E+03  3.465102E+05  1.366029E+04 -3.357578E+04  1.135916E+04  9.624703E+03
       102  23  9.717999E+03  3.423049E+05  2.446939E+04 -2.989550E+04  1.023736E+04  2.226486E+04
       102  24  4.521626E+04  3.464982E+05  5.026467E+04 -3.354670E+04  3.156301E+03  3.490155E+04
       102  25  4.306864E+04  5.236490E+05  4.566794E+04 -3.088482E+04  1.136108E+04  6.534168E+03
       102  26  5.996841E+04  5.521731E+05  6.586067E+04 -4.264676E+04  1.023200E+04  2.905200E+04
       102  27  1.056192E+05  5.908072E+05  1.078922E+05 -6.174087E+04  3.143453E+03  5.156774E+04
       103   1  7.830662E+05  2.790740E+05  1.379395E+05  2.924271E+05  5.417796E+04  1.107669E+04
       103   2  7.388809E+05  2.601974E+05  9.833498E+04  2.797979E+05  3.506361E+04 -1.835427E+04
       103   3  6.941653E+05  2.486143E+05  7.892032E+04  2.733453E+05  1.101252E+04 -3.463735E+04
       103   4  2.033444E+05  6.663608E+04 -7.883888E+03  1.381068E+05 -2.105985E+03 -1.008540E+04
       103   5  2.068464E+05  6.873388E+04 -3.776131E+03  1.339193E+05  7.177130E+03 -2.884399E+04
       103   6  2.041962E+05  7.250554E+04 -1.958174E+03  1.359085E+05  1.151808E+04 -3.445048E+04
       103   7 -3.760157E+05 -1.457707E+05 -1.537129E+05 -1.607567E+04 -5.832988E+04 -3.122594E+04
       103   8 -3.248793E+05 -1.227002E+05 -1.058924E+05 -1.184012E+04 -2.068308E+04 -3.932410E+04
       103   9 -2.855152E+05 -1.035784E+05 -8.284192E+04 -1.426437E+03  1.202321E+04 -3.426377E+04
       103  10  7.830630E+05  2.790731E+05  1.379338E+05  2.924266E+05  1.533667E-09 -2.031566E-10
       103  11  7.388795E+05  2.601967E+05  9.833204E+04  2.797984E+05 -1.109993E-09 -6.068928E-10
       103  12  6.941648E+05  2.486130E+05  7.891784E+04  2.733456E+05 -2.901509E-09  2.833376E-09
       103  13  2.033444E+05  6.663597E+04 -7.884087E+03  1.381068E+05 -9.167875E-10  5.195278E-10
       103  14  2.068461E+05  6.873298E+04 -3.777791E+03  1.339195E+05  1.539496E-09 -1.563321E-09
       103  15  2.041958E+05  7.250423E+04 -1.960654E+03  1.359088E+05  2.960495E-10  7.168921E-10
       103  16 -3.760196E+05 -1.457727E+05 -1.537211E+05 -1.607714E+04 -4.154641E-09 -1.372283E-09
       103  17 -3.248802E+05 -1.227020E+05 -1.058961E+05 -1.184078E+04 -1.080872E-09 -5.675741E-10
       103  18 -2.855156E+05 -1.035797E+05 -8.284440E+04 -1.426105E+03  2.580151E-09 -2.475610E-10
       103  19  7.830662E+05  2.790740E+05  1.379395E+05  2.924271E+05 -5.417796E+04 -1.107669E+04
       103  20  7.388809E+05  2.601974E+05  9.833498E+04  2.797979E+05 -3.506361E+04  1.835427E+04
       103  21  6.941653E+05  2.486143E+05  7.892032E+04  2.733453E+05 -1.101252E+04  3.463735E+04
       103  22  2.033444E+05  6.663608E+04 -7.883888E+03  1.381068E+05  2.105985E+03  1.008540E+04
       103  23  2.068464E+05  6.873388E+04 -3.776131E+03  1.339193E+05 -7.177130E+03  2.884399E+04
       103  24  2.041962E+05  7.250554E+04 -1.958174E+03  1.359085E+05 -1.151808E+04  3.445048E+04
       103  25 -3.760157E+05 -1.457707E+05 -1.537129E+05 -1.607567E+04  5.832988E+04  3.122594E+04
       103  26 -3.248793E+05 -1.227002E+05 -1.058924E+05 -1.184012E+04  2.068308E+04  3.932410E+04
       103  27 -2.855152E+05 -1.035784E+05 -8.284192E+04 -1.426437E+03 -1.202321E+04  3.426377E+04
       104   1  6.668738E+05  2.385540E+05  7.281105E+04  2.658083E+05  1.120296E+04 -3.387825E+04
       104   2  6.267223E+05  2.203412E+05  6.312682E+04  2.509299E+05  8.004826E+03 -3.406186E+04
       104   3  5.816221E+05  2.079809E+05  5.566364E+04  2.423353E+05  4.241148E+03 -3.274341E+04
       104   4  2.042621E+05  7.282880E+04 -1.451594E+03  1.361091E+05  1.151167E+04 -3.376522E+04
       104   5  2.070965E+05  7.045788E+04 -7.533258E+02  1.328815E+05  1.155729E+04 -3.272792E+04
       104   6  2.043393E+05  7.329770E+04 -4.022530E+02  1.359373E+05  1.103701E+04 -3.018802E+04
       104   7 -2.581263E+05 -9.287673E+04 -7.572021E+04  6.498756E+03  1.182014E+04 -3.365228E+04
       104   8 -2.123418E+05 -7.940773E+04 -6.463662E+04  1.490729E+04  1.510725E+04 -3.139493E+04
       104   9 -1.727893E+05 -6.137006E+04 -5.646954E+04  2.960031E+04  1.782853E+04 -2.763427E+04
       104  10  6.668734E+05  2.385527E+05  7.280865E+04  2.658086E+05  6.006460E-08  2.845600E-08
       104  11  6.267220E+05  2.203399E+05  6.312452E+04  2.509302E+05  9.127725E-09  4.645948E-09
       104  12  5.816218E+05  2.079797E+05  5.566159E+04  2.423354E+05 -5.356428E-08 -1.698141E-08
       104  13  2.042616E+05  7.282754E+04 -1.453986E+03  1.361094E+05  4.262754E-10  3.814407E-09
       104  14  2.070961E+05  7.045669E+04 -7.555899E+02  1.328818E+05  1.059856E-08 -5.253309E-10
       104  15  2.043389E+05  7.329669E+04 -4.041947E+02  1.359376E+05  4.270537E-09  2.789981E-09
       104  16 -2.581268E+05 -9.287798E+04 -7.572260E+04  6.499076E+03 -5.228795E-08 -2.062436E-08
       104  17 -2.123423E+05 -7.940885E+04 -6.463890E+04  1.490767E+04  8.373216E-09  7.763693E-09
       104  18 -1.727898E+05 -6.137096E+04 -5.647158E+04  2.960070E+04  6.064043E-08  2.345685E-08
       104  19  6.668738E+05  2.385540E+05  7.281105E+04  2.658083E+05 -1.120296E+04  3.387825E+04
       104  20  6.267223E+05  2.203412E+05  6.312682E+04  2.509299E+05 -8.004826E+03  3.406186E+04
       104  21  5.816221E+05  2.079809E+05  5.566364E+04  2.423353E+05 -4.241148E+03  3.274341E+04
       104  22  2.042621E+05  7.282880E+04 -1.451594E+03  1.361091E+05 -1.151167E+04  3.376522E+04
       104  23  2.070965E+05  7.045788E+04 -7.533258E+02  1.328815E+05 -1.155729E+04  3.272792E+04
       104  24  2.043393E+05  7.329770E+04 -4.022530E+02  1.359373E+05 -1.103701E+04  3.018802E+04
       104  25 -2.581263E+05 -9.287673E+04 -7.572021E+04  6.498756E+03 -1.182014E+04  3.365228E+04
       104  26 -2.123418E+05 -7.940773E+04 -6.463662E+04  1.490729E+04 -1.510725E+04  3.139493E+04
       104  27 -1.727893E+05 -6.137006E+04 -5.646954E+04  2.960031E+04 -1.782853E+04  2.763427E+04
       105   1  5.550092E+05  1.984354E+05  5.143267E+04  2.348639E+05  3.609732E+03 -3.082949E+04
       105   2  5.153118E+05  1.805091E+05  4.500725E+04  2.197541E+05  2.105888E+03 -2.771770E+04
       105   3  4.701410E+05  1.681754E+05  3.881394E+04  2.109630E+05  5.371093E+02 -2.443516E+04
       105   4  2.043464E+05  7.333023E+04 -2.983328E+02  1.359599E+05  1.038145E+04 -2.828264E+04
       105   5  2.071300E+05  7.059391E+04 -1.537695E+02  1.327944E+05  9.246221E+03 -2.503129E+04
       105   6  2.043645E+05  7.337726E+04 -6.953437E+01  1.359472E+05  8.046010E+03 -2.160912E+04
       105   7 -1.461783E+05 -5.175979E+04 -5.202915E+04  3.710980E+04  1.714906E+04 -2.573734E+04
       105   8 -1.009484E+05 -3.931082E+04 -4.531545E+04  4.587539E+04  1.638282E+04 -2.234627E+04
       105   9 -6.133849E+04 -2.141440E+04 -3.895433E+04  6.096079E+04  1.555162E+04 -1.878432E+04
       105  10  5.550089E+05  1.984343E+05  5.143086E+04  2.348640E+05 -3.731865E-08 -1.169020E-08
       105  11  5.153116E+05  1.805083E+05  4.500580E+04  2.197542E+05 -7.390590E-09 -7.161628E-09
       105  12  4.701409E+05  1.681748E+05  3.881282E+04  2.109630E+05  2.286930E-08 -7.443212E-10
       105  13  2.043461E+05  7.332934E+04 -3.000387E+02  1.359601E+05  1.092670E-09 -8.549788E-10
       105  14  2.071298E+05  7.059322E+04 -1.551078E+02  1.327946E+05  9.276771E-10  3.404758E-09
       105  15  2.043643E+05  7.337675E+04 -7.053365E+01  1.359473E+05 -3.550732E-09  9.829152E-09
       105  16 -1.461788E+05 -5.176058E+04 -5.203094E+04  3.711016E+04  3.563337E-08  1.383023E-08
       105  17 -1.009488E+05 -3.931143E+04 -4.531689E+04  4.587569E+04  6.159144E-09 -3.825226E-09
       105  18 -6.133884E+04 -2.141484E+04 -3.895545E+04  6.096102E+04 -2.777840E-08 -1.819196E-08
       105  19  5.550092E+05  1.984354E+05  5.143267E+04  2.348639E+05 -3.609732E+03  3.082949E+04
       105  20  5.153118E+05  1.805091E+05  4.500725E+04  2.197541E+05 -2.105888E+03  2.771770E+04
       105  21  4.701410E+05  1.681754E+05  3.881394E+04  2.109630E+05 -5.371093E+02  2.443516E+04
       105  22  2.043464E+05  7.333023E+04 -2.983328E+02  1.359599E+05 -1.038145E+04  2.828264E+04
       105  23  2.071300E+05  7.059391E+04 -1.537695E+02  1.327944E+05 -9.246221E+03  2.503129E+04
       105  24  2.043645E+05  7.337726E+04 -6.953437E+01  1.359472E+05 -8.046010E+03  2.160912E+04
       105  25 -1.461783E+05 -5.175979E+04 -5.202915E+04  3.710980E+04 -1.714906E+04  2.573734E+04
       105  26 -1.009484E+05 -3.931082E+04 -4.531545E+04  4.587539E+04 -1.638282E+04  2.234627E+04
       105  27 -6.133849E+04 -2.141440E+04 -3.895433E+04  6.096079E+04 -1.555162E+04  1.878432E+04
       106   1  4.436289E+05  1.586940E+05  3.477018E+04  2.034971E+05 -2.143165E+02 -2.240020E+04
       106   2  4.040033E+05  1.408229E+05  2.869020E+04  1.883696E+05 -1.570446E+03 -1.893130E+04
       106   3  3.588445E+05  1.285039E+05  2.264530E+04  1.795646E+05 -2.933733E+03 -1.544452E+04
       106   4  2.043674E+05  7.338235E+04 -4.079326E+01  1.359488E+05  7.290697E+03 -1.957519E+04
       106   5  2.071424E+05  7.061535E+04  1.116526E+01  1.327872E+05  5.972989E+03 -1.609127E+04
       106   6  2.043744E+05  7.339238E+04  6.739698E+01  1.359475E+05  4.648126E+03 -1.258948E+04
       106   7 -3.483160E+04 -1.192286E+04 -3.485197E+04  6.842509E+04  1.479266E+04 -1.675132E+04
       106   8  1.032510E+04  4.125754E+02 -2.866758E+04  7.722193E+04  1.351386E+04 -1.325221E+04
       106   9  4.993248E+04  1.828431E+04 -2.250991E+04  9.234111E+04  1.222790E+04 -9.735225E+03
       106  10  4.436287E+05  1.586934E+05  3.476923E+04  2.034971E+05  3.372040E-08  5.503703E-09
       106  11  4.040032E+05  1.408225E+05  2.868952E+04  1.883696E+05  1.197136E-08  8.475262E-10
       106  12  3.588444E+05  1.285036E+05  2.264484E+04  1.795646E+05 -1.972754E-08 -8.803384E-09
       106  13  2.043672E+05  7.338193E+04 -4.161334E+01  1.359489E+05  1.415109E-09  1.044403E-08
       106  14  2.071423E+05  7.061506E+04  1.061156E+01  1.327873E+05  2.925296E-09  6.945823E-09
       106  15  2.043744E+05  7.339220E+04  6.705849E+01  1.359475E+05  6.749105E-10  2.061897E-09
       106  16 -3.483191E+04 -1.192322E+04 -3.485291E+04  6.842529E+04 -3.510747E-08 -1.937429E-08
       106  17  1.032486E+04  4.123377E+02 -2.866826E+04  7.722208E+04 -3.612249E-09 -3.492072E-09
       106  18  4.993229E+04  1.828417E+04 -2.251037E+04  9.234120E+04  2.151725E-08  8.006138E-09
       106  19  4.436289E+05  1.586940E+05  3.477018E+04  2.034971E+05  2.143165E+02  2.240020E+04
       106  20  4.040033E+05  1.408229E+05  2.869020E+04  1.883696E+05  1.570446E+03  1.893130E+04
       106  21  3.588445E+05  1.285039E+05  2.264530E+04  1.795646E+05  2.933733E+03  1.544452E+04
       106  22  2.043674E+05  7.338235E+04 -4.079326E+01  1.359488E+05 -7.290697E+03  1.957519E+04
       106  23  2.071424E+05  7.061535E+04  1.116526E+01  1.327872E+05 -5.972989E+03  1.609127E+04
       106  24  2.043744E+05  7.339238E+04  6.739698E+01  1.359475E+05 -4.648126E+03  1.258948E+04
       106  25 -3.483160E+04 -1.192286E+04 -3.485197E+04  6.842509E+04 -1.479266E+04  1.675132E+04
       106  26  1.032510E+04  4.125754E+02 -2.866758E+04  7.722193E+04 -1.351386E+04  1.325221E+04
       106  27  4.993248E+04  1.828431E+04 -2.250991E+04  9.234111E+04 -1.222790E+04  9.735225E+03
       107   1  3.323535E+05  1.190292E+05  1.863553E+04  1.721028E+05 -3.717043E+03 -1.340423E+04
       107   2  2.927409E+05  1.011641E+05  1.264623E+04  1.569816E+05 -5.121580E+03 -9.927487E+03
       107   3  2.475969E+05  8.884906E+04  6.719911E+03  1.481836E+05 -6.523198E+03 -6.458974E+03
       107   4  2.043799E+05  7.339377E+04  1.019654E+02  1.359491E+05  3.863713E+03 -1.054937E+04
       107   5  2.071454E+05  7.061774E+04  2.035264E+02  1.327878E+05  2.441246E+03 -7.079109E+03
       107   6  2.043822E+05  7.339552E+04  3.823579E+02  1.359493E+05  1.021698E+03 -3.617100E+03
       107   7  7.642262E+04  2.775958E+04 -1.843194E+04  9.980195E+04  1.144292E+04 -7.695088E+03
       107   8  1.215575E+05  4.007203E+04 -1.223916E+04  1.085970E+05  1.000302E+04 -4.231126E+03
       107   9  1.611696E+05  5.794223E+04 -5.954974E+03  1.237158E+05  8.566044E+03 -7.754343E+02
       107  10  3.323535E+05  1.190290E+05  1.863517E+04  1.721027E+05  3.765909E-09 -1.834144E-09
       107  11  2.927408E+05  1.011640E+05  1.264600E+04  1.569815E+05 -1.061052E-08 -3.781796E-09
       107  12  2.475969E+05  8.884901E+04  6.719752E+03  1.481835E+05 -9.726758E-09 -2.200277E-09
       107  13  2.043799E+05  7.339365E+04  1.017282E+02  1.359491E+05 -2.119810E-09 -1.527988E-09
       107  14  2.071454E+05  7.061768E+04  2.034210E+02  1.327878E+05 -6.828346E-09 -1.054638E-09
       107  15  2.043822E+05  7.339551E+04  3.823313E+02  1.359493E+05 -1.708371E-09 -5.643071E-10
       107  16  7.642246E+04  2.775948E+04 -1.843230E+04  9.980202E+04 -9.889523E-09 -1.744444E-09
       107  17  1.215574E+05  4.007198E+04 -1.223938E+04  1.085970E+05 -6.621478E-09 -1.836631E-09
       107  18  1.611695E+05  5.794221E+04 -5.955113E+03  1.237158E+05  4.193351E-09 -2.514047E-09
       107  19  3.323535E+05  1.190292E+05  1.863553E+04  1.721028E+05  3.717043E+03  1.340423E+04
       107  20  2.927409E+05  1.011641E+05  1.264623E+04  1.569816E+05  5.121580E+03  9.927487E+03
       107  21  2.475969E+05  8.884906E+04  6.719911E+03  1.481836E+05  6.523198E+03  6.458974E+03
       107  22  2.043799E+05  7.339377E+04  1.019654E+02  1.359491E+05 -3.863713E+03  1.054937E+04
       107  23  2.071454E+05  7.061774E+04  2.035264E+02  1.327878E+05 -2.441246E+03  7.079109E+03
       107  24  2.043822E+05  7.339552E+04  3.823579E+02  1.359493E+05 -1.021698E+03  3.617100E+03
       107  25  7.642262E+04  2.775958E+04 -1.843194E+04  9.980195E+04 -1.144292E+04  7.695088E+03
       107  26  1.215575E+05  4.007203E+04 -1.223916E+04  1.085970E+05 -1.000302E+04  4.231126E+03
       107  27  1.611696E+05  5.794223E+04 -5.954974E+03  1.237158E+05 -8.566044E+03  7.754343E+02
       108   1  2.211143E+05  7.938232E+04  2.796137E+03  1.407407E+05 -7.364842E+03 -4.448628E+03
       108   2  1.815058E+05  6.150371E+04 -2.953630E+03  1.255869E+05 -8.943313E+03 -1.101049E+03
       108   3  1.364248E+05  4.924600E+04 -8.475549E+03  1.167408E+05 -1.048825E+04  2.157821E+03
       108   4  2.043996E+05  7.339468E+04  5.133445E+02  1.359550E+05  1.810607E+02 -1.606332E+03
       108   5  2.071277E+05  7.063686E+04  9.398713E+02  1.327745E+05 -1.589179E+03  1.668933E+03
       108   6  2.044189E+05  7.353749E+04  1.745853E+03  1.359007E+05 -3.325914E+03  4.855501E+03
       108   7  1.876856E+05  6.740721E+04 -1.769146E+03  1.311694E+05  7.726658E+03  1.235847E+03
       108   8  2.327504E+05  7.977013E+04  4.833596E+03  1.399623E+05  5.765276E+03  4.439036E+03
       108   9  2.724189E+05  9.782985E+04  1.196766E+04  1.550629E+05  3.837337E+03  7.553525E+03
       108  10  2.211143E+05  7.938228E+04  2.795998E+03  1.407407E+05 -2.935360E-09  5.256113E-10
       108  11  1.815057E+05  6.150369E+04 -2.953783E+03  1.255869E+05 -2.790957E-09 -1.595334E-09
       108  12  1.364247E+05  4.924596E+04 -8.475765E+03  1.167408E+05 -1.779372E-09 -3.660045E-10
       108  13  2.043996E+05  7.339468E+04  5.133395E+02  1.359550E+05 -1.149369E-09  2.710170E-09
       108  14  2.071277E+05  7.063686E+04  9.398613E+02  1.327745E+05 -2.239048E-10 -8.799370E-10
       108  15  2.044189E+05  7.353746E+04  1.745788E+03  1.359007E+05  5.906899E-10  3.372184E-09
       108  16  1.876855E+05  6.740719E+04 -1.769261E+03  1.311694E+05  2.323294E-09 -2.469360E-09
       108  17  2.327503E+05  7.977010E+04  4.833496E+03  1.399623E+05  3.180174E-09 -2.884152E-11
       108  18  2.724189E+05  9.782978E+04  1.196752E+04  1.550629E+05  8.043270E-10  3.138190E-09
       108  19  2.211143E+05  7.938232E+04  2.796137E+03  1.407407E+05  7.364842E+03  4.448628E+03
       108  20  1.815058E+05  6.150371E+04 -2.953630E+03  1.255869E+05  8.943313E+03  1.101049E+03
       108  21  1.364248E+05  4.924600E+04 -8.475549E+03  1.167408E+05  1.048825E+04 -2.157821E+03
       108  22  2.043996E+05  7.339468E+04  5.133445E+02  1.359550E+05 -1.810607E+02  1.606332E+03
       108  23  2.071277E+05  7.063686E+04  9.398713E+02  1.327745E+05  1.589179E+03 -1.668933E+03
       108  24  2.044189E+05  7.353749E+04  1.745853E+03  1.359007E+05  3.325914E+03 -4.855501E+03
       108  25  1.876856E+05  6.740721E+04 -1.769146E+03  1.311694E+05 -7.726658E+03 -1.235847E+03
       108  26  2.327504E+05  7.977013E+04  4.833596E+03  1.399623E+05 -5.765276E+03 -4.439036E+03
       108  27  2.724189E+05  9.782985E+04  1.196766E+04  1.550629E+05 -3.837337E+03 -7.553525E+03
       109   1  1.099240E+05  3.987448E+04 -1.207145E+04  1.094094E+05 -1.155159E+04  3.998352E+03
       109   2  7.080345E+04  2.183441E+04 -1.704493E+04  9.337313E+04 -1.316772E+04  6.742100E+03
       109   3  2.668625E+04  1.044347E+04 -2.132403E+04  8.332064E+04 -1.449057E+04  8.707797E+03
       109   4  2.045542E+05  7.358337E+04  2.339480E+03  1.359218E+05 -4.377583E+03  6.700311E+03
       109   5  2.070653E+05  7.136178E+04  4.337083E+03  1.324516E+05 -7.673225E+03  8.811146E+03
       109   6  2.049102E+05  7.612138E+04  8.359377E+03  1.349642E+05 -1.067564E+04  1.014402E+04
       109   7  2.991941E+05  1.072932E+05  1.675050E+04  1.624380E+05  2.797580E+03  9.402700E+03
       109   8  3.433463E+05  1.208909E+05  2.571866E+04  1.715379E+05 -2.177489E+03  1.088068E+04
       109   9  3.831659E+05  1.418021E+05  3.804143E+04  1.866212E+05 -6.859604E+03  1.158068E+04
       109  10  1.099238E+05  3.987442E+04 -1.207173E+04  1.094094E+05 -1.214574E-09  2.981556E-10
       109  11  7.080326E+04  2.183432E+04 -1.704534E+04  9.337320E+04 -1.994249E-10  9.851499E-10
       109  12  2.668600E+04  1.044333E+04 -2.132457E+04  8.332074E+04 -9.121840E-10 -8.946698E-10
       109  13  2.045541E+05  7.358331E+04  2.339360E+03  1.359218E+05  3.677168E-09  1.250874E-09
       109  14  2.070652E+05  7.136168E+04  4.336827E+03  1.324517E+05  5.099241E-09  9.013191E-09
       109  15  2.049101E+05  7.612124E+04  8.358970E+03  1.349643E+05  2.796041E-09 -1.050434E-09
       109  16  2.991940E+05  1.072931E+05  1.675032E+04  1.624380E+05  4.041487E-09  2.057193E-09
       109  17  3.433462E+05  1.208908E+05  2.571843E+04  1.715380E+05  2.323479E-09 -1.041388E-09
       109  18  3.831658E+05  1.418019E+05  3.804109E+04  1.866213E+05 -3.491875E-09 -1.180902E-09
       109  19  1.099240E+05  3.987448E+04 -1.207145E+04  1.094094E+05  1.155159E+04 -3.998352E+03
       109  20  7.080345E+04  2.183441E+04 -1.704493E+04  9.337313E+04  1.316772E+04 -6.742100E+03
       109  21  2.668625E+04  1.044347E+04 -2.132403E+04  8.332064E+04  1.449057E+04 -8.707797E+03
       109  22  2.045542E+05  7.358337E+04  2.339480E+03  1.359218E+05  4.377583E+03 -6.700311E+03
       109  23  2.070653E+05  7.136178E+04  4.337083E+03  1.324516E+05  7.673225E+03 -8.811146E+03
       109  24  2.049102E+05  7.612138E+04  8.359377E+03  1.349642E+05  1.067564E+04 -1.014402E+04
       109  25  2.991941E+05  1.072932E+05  1.675050E+04  1.624380E+05 -2.797580E+03 -9.402700E+03
       109  26  3.433463E+05  1.208909E+05  2.571866E+04  1.715379E+05  2.177489E+03 -1.088068E+04
       109  27  3.831659E+05  1.418021E+05  3.804143E+04  1.866212E+05  6.859604E+03 -1.158068E+04
       110   1  1.055267E+02  2.351888E+03 -2.377656E+04  7.691672E+04 -1.635004E+04  9.489971E+03
       110   2 -3.110664E+04 -1.755030E+04 -2.726005E+04  4.816278E+04 -1.226566E+04  9.215668E+03
       110   3 -6.220144E+04 -1.730881E+04 -2.917869E+04  2.098739E+04 -5.619292E+03  2.133658E+03
       110   4  2.062288E+05  7.696244E+04  1.127523E+04  1.350114E+05 -1.243470E+04  1.096384E+04
       110   5  2.071089E+05  8.234067E+04  2.170964E+04  1.278558E+05 -2.303785E+04  5.158863E+03
       110   6  2.110123E+05  1.107676E+05  4.534524E+04  1.222793E+05 -3.107991E+04 -7.452306E+03
       110   7  4.124011E+05  1.515788E+05  4.632700E+04  1.931252E+05 -8.517916E+03  1.243826E+04
       110   8  4.453835E+05  1.822418E+05  7.067683E+04  2.075787E+05 -3.381442E+04  1.099841E+03
       110   9  4.842957E+05  2.388593E+05  1.198634E+05  2.236137E+05 -5.655211E+04 -1.704528E+04
       110  10  1.052154E+02  2.351720E+03 -2.377724E+04  7.691685E+04 -1.158896E-08  1.571592E-09
       110  11 -3.110682E+04 -1.755044E+04 -2.726050E+04  4.816287E+04  6.854477E-09  8.660118E-09
       110  12 -6.220147E+04 -1.730882E+04 -2.917876E+04  2.098740E+04  1.470763E-08  8.733266E-09
       110  13  2.062286E+05  7.696227E+04  1.127471E+04  1.350115E+05  5.571893E-09  1.831718E-09
       110  14  2.071084E+05  8.234049E+04  2.170859E+04  1.278559E+05  1.066534E-08  2.938483E-09
       110  15  2.110113E+05  1.107672E+05  4.534332E+04  1.222791E+05  5.711324E-09  3.612315E-09
       110  16  4.124010E+05  1.515786E+05  4.632658E+04  1.931252E+05  1.224625E-08  5.130153E-09
       110  17  4.453823E+05  1.822415E+05  7.067468E+04  2.075787E+05  8.767949E-09  1.533645E-10
       110  18  4.842922E+05  2.388581E+05  1.198569E+05  2.236129E+05 -7.852725E-09 -2.174646E-09
       110  19  1.055267E+02  2.351888E+03 -2.377656E+04  7.691672E+04  1.635004E+04 -9.489971E+03
       110  20 -3.110664E+04 -1.755030E+04 -2.726005E+04  4.816278E+04  1.226566E+04 -9.215668E+03
       110  21 -6.220144E+04 -1.730881E+04 -2.917869E+04  2.098739E+04  5.619292E+03 -2.133658E+03
       110  22  2.062288E+05  7.696244E+04  1.127523E+04  1.350114E+05  1.243470E+04 -1.096384E+04
       110  23  2.071089E+05  8.234067E+04  2.170964E+04  1.278558E+05  2.303785E+04 -5.158863E+03
       110  24  2.110123E+05  1.107676E+05  4.534524E+04  1.222793E+05  3.107991E+04  7.452306E+03
       110  25  4.124011E+05  1.515788E+05  4.632700E+04  1.931252E+05  8.517916E+03 -1.243826E+04
       110  26  4.453835E+05  1.822418E+05  7.067683E+04  2.075787E+05  3.381442E+04 -1.099841E+03
       110  27  4.842957E+05  2.388593E+05  1.198634E+05  2.236137E+05  5.655211E+04  1.704528E+04
       111   1 -2.025216E+05 -9.230263E+05 -2.265283E+05  7.515645E+04 -4.042294E+03 -8.787377E+04
       111   2 -7.283405E+04 -8.286834E+05 -1.379469E+05  2.570564E+04 -1.176567E+04 -5.207594E+04
       111   3 -6.196858E+04 -7.684372E+05 -1.023535E+05  2.853622E+04 -9.172590E+03 -1.625897E+04
       111   4 -9.716483E+04 -5.012440E+05 -1.224657E+05  4.171645E+04 -4.047754E+03 -8.083177E+04
       111   5  1.241249E+04 -4.846791E+05 -5.612532E+04  1.564643E+04 -1.176619E+04 -5.070451E+04
       111   6  4.188386E+03 -5.012100E+05 -3.880780E+04  4.185998E+04 -9.168004E+03 -2.056291E+04
       111   7  8.182811E+03 -7.929717E+04 -1.841554E+04  8.253711E+03 -4.053972E+03 -7.378498E+04
       111   8  9.765086E+04 -1.405658E+05  2.568809E+04  5.581641E+03 -1.176676E+04 -4.933232E+04
       111   9  7.034089E+04 -2.339166E+05  2.473306E+04  5.518953E+04 -9.163604E+03 -2.486870E+04
       111  10 -2.025237E+05 -9.230346E+05 -2.265429E+05  7.515617E+04  6.329646E-10  2.442444E-09
       111  11 -7.283492E+04 -8.286864E+05 -1.379523E+05  2.570515E+04  8.515587E-10  1.385773E-09
       111  12 -6.196874E+04 -7.684375E+05 -1.023541E+05  2.853610E+04 -3.102245E-09 -2.078539E-09
       111  13 -9.716660E+04 -5.012510E+05 -1.224780E+05  4.171618E+04  9.861296E-11  3.365705E-09
       111  14  1.241165E+04 -4.846819E+05 -5.613041E+04  1.564595E+04 -1.433164E-09 -9.443127E-10
       111  15  4.188182E+03 -5.012104E+05 -3.880875E+04  4.185983E+04 -3.165208E-10  5.874135E-10
       111  16  8.181332E+03 -7.930302E+04 -1.842580E+04  8.253470E+03  2.907091E-10  9.855478E-10
       111  17  9.765005E+04 -1.405685E+05  2.568326E+04  5.581173E+03 -9.733870E-10  2.371498E-09
       111  18  7.034063E+04 -2.339173E+05  2.473174E+04  5.518935E+04  1.421228E-10 -2.111964E-09
       111  19 -2.025216E+05 -9.230263E+05 -2.265283E+05  7.515645E+04  4.042294E+03  8.787377E+04
       111  20 -7.283405E+04 -8.286834E+05 -1.379469E+05  2.570564E+04  1.176567E+04  5.207594E+04
       111  21 -6.196858E+04 -7.684372E+05 -1.023535E+05  2.853622E+04  9.172590E+03  1.625897E+04
       111  22 -9.716483E+04 -5.012440E+05 -1.224657E+05  4.171645E+04  4.047754E+03  8.083177E+04
       111  23  1.241249E+04 -4.846791E+05 -5.612532E+04  1.564643E+04  1.176619E+04  5.070451E+04
       111  24  4.188386E+03 -5.012100E+05 -3.880780E+04  4.185998E+04  9.168004E+03  2.056291E+04
       111  25  8.182811E+03 -7.929717E+04 -1.841554E+04  8.253711E+03  4.053972E+03  7.378498E+04
       111  26  9.765086E+04 -1.405658E+05  2.568809E+04  5.581641E+03  1.176676E+04  4.933232E+04
       111  27  7.034089E+04 -2.339166E+05  2.473306E+04  5.518953E+04  9.163604E+03  2.486870E+04
       112   1 -5.186907E+04 -6.679381E+05 -7.548052E+04  4.629842E+04 -5.782563E+03 -1.298696E+04
       112   2 -2.103960E+04 -5.866271E+05 -4.923556E+04  1.559741E+04 -3.244485E+03  8.090082E+02
       112   3 -1.286860E+04 -5.126288E+05 -3.761327E+04  3.783821E+04 -4.248321E+02  1.460642E+04
       112   4 -9.129059E+03 -4.954694E+05 -3.441487E+04  4.196008E+04 -5.781014E+03 -1.431927E+04
       112   5  2.442908E+03 -4.918225E+05 -2.668544E+04  1.548967E+04 -3.242989E+03 -6.760762E+02
       112   6 -8.614636E+03 -4.954660E+05 -3.347005E+04  4.196111E+04 -4.232392E+02  1.296686E+04
       112   7  3.360887E+04 -3.229733E+05  6.648707E+03  3.762053E+04 -5.779446E+03 -1.565194E+04
       112   8  2.592477E+04 -3.970096E+05 -4.135953E+03  1.538192E+04 -3.241493E+03 -2.161386E+03
       112   9 -4.360626E+03 -4.783030E+05 -2.932684E+04  4.608413E+04 -4.216681E+02  1.132726E+04
       112  10 -5.186915E+04 -6.679383E+05 -7.548090E+04  4.629836E+04 -1.545070E-09  2.569050E-09
       112  11 -2.103961E+04 -5.866271E+05 -4.923558E+04  1.559741E+04 -8.941960E-10 -5.016321E-10
       112  12 -1.286866E+04 -5.126290E+05 -3.761367E+04  3.783821E+04 -2.404057E-10 -5.281001E-09
       112  13 -9.129150E+03 -4.954696E+05 -3.441532E+04  4.196001E+04 -3.012672E-09  1.298254E-09
       112  14  2.442896E+03 -4.918225E+05 -2.668546E+04  1.548967E+04 -4.528075E-09 -2.086971E-09
       112  15 -8.614682E+03 -4.954662E+05 -3.347037E+04  4.196112E+04 -6.927200E-09  2.319318E-10
       112  16  3.360877E+04 -3.229735E+05  6.648183E+03  3.762045E+04 -1.591785E-09  3.059756E-10
       112  17  2.592475E+04 -3.970096E+05 -4.135982E+03  1.538192E+04  2.330803E-10  3.700002E-09
       112  18 -4.360661E+03 -4.783031E+05 -2.932708E+04  4.608414E+04  2.066398E-10  2.815246E-09
       112  19 -5.186907E+04 -6.679381E+05 -7.548052E+04  4.629842E+04  5.782563E+03  1.298696E+04
       112  20 -2.103960E+04 -5.866271E+05 -4.923556E+04  1.559741E+04  3.244485E+03 -8.090082E+02
       112  21 -1.286860E+04 -5.126288E+05 -3.761327E+04  3.783821E+04  4.248321E+02 -1.460642E+04
       112  22 -9.129059E+03 -4.954694E+05 -3.441487E+04  4.196008E+04  5.781014E+03  1.431927E+04
       112  23  2.442908E+03 -4.918225E+05 -2.668544E+04  1.548967E+04  3.242989E+03  6.760762E+02
       112  24 -8.614636E+03 -4.954660E+05 -3.347005E+04  4.196111E+04  4.232392E+02 -1.296686E+04
       112  25  3.360887E+04 -3.229733E+05  6.648707E+03  3.762053E+04  5.779446E+03  1.565194E+04
       112  26  2.592477E+04 -3.970096E+05 -4.135953E+03  1.538192E+04  3.241493E+03  2.161386E+03
       112  27 -4.360626E+03 -4.783030E+05 -2.932684E+04  4.608413E+04  4.216681E+02 -1.132726E+04
       113   1  2.315505E+04 -4.230858E+05 -1.889982E+04  5.477953E+04  2.437149E+03  2.230434E+04
       113   2  5.027611E+04 -3.299598E+05 -1.672285E+04  6.179117E+03  5.293622E+03  4.770502E+04
       113   3 -3.410833E+04 -2.678472E+05 -5.892700E+04  1.025352E+04  2.012967E+03  7.310245E+04
       113   4  3.905826E+03 -5.008688E+05 -3.746662E+04  4.193683E+04  2.439733E+03  1.901900E+04
       113   5  1.184052E+04 -4.850733E+05 -5.360408E+04  1.554555E+04  5.294326E+03  4.779856E+04
       113   6 -9.233461E+04 -5.008955E+05 -1.164799E+05  4.183174E+04  2.012927E+03  7.657156E+04
       113   7 -1.534321E+04 -5.786459E+05 -5.603371E+04  2.909574E+04  2.442454E+03  1.573407E+04
       113   8 -2.659649E+04 -6.401645E+05 -9.048693E+04  2.490965E+04  5.295033E+03  4.789208E+04
       113   9 -1.505612E+05 -7.338922E+05 -1.740363E+05  7.339809E+04  2.013240E+03  8.003937E+04
       113  10  2.315491E+04 -4.230863E+05 -1.890077E+04  5.477949E+04  2.803903E-09 -1.295651E-09
       113  11  5.027547E+04 -3.299623E+05 -1.672719E+04  6.178914E+03  5.892350E-09  1.742409E-09
       113  12 -3.410977E+04 -2.678529E+05 -5.893706E+04  1.025341E+04  1.246249E-09  1.549268E-09
       113  13  3.905722E+03 -5.008692E+05 -3.746731E+04  4.193679E+04 -4.892971E-09  3.270245E-09
       113  14  1.183987E+04 -4.850758E+05 -5.360843E+04  1.554535E+04 -1.265897E-09 -2.689789E-09
       113  15 -9.233619E+04 -5.009018E+05 -1.164910E+05  4.183161E+04  9.267444E-10  7.946063E-10
       113  16 -1.534328E+04 -5.786462E+05 -5.603418E+04  2.909571E+04  2.964129E-09  4.738588E-09
       113  17 -2.659713E+04 -6.401669E+05 -9.049130E+04  2.490944E+04  9.860902E-10  2.529762E-09
       113  18 -1.505629E+05 -7.338991E+05 -1.740484E+05  7.339796E+04  2.532237E-09 -3.653070E-09
       113  19  2.315505E+04 -4.230858E+05 -1.889982E+04  5.477953E+04 -2.437149E+03 -2.230434E+04
       113  20  5.027611E+04 -3.299598E+05 -1.672285E+04  6.179117E+03 -5.293622E+03 -4.770502E+04
       113  21 -3.410833E+04 -2.678472E+05 -5.892700E+04  1.025352E+04 -2.012967E+03 -7.310245E+04
       113  22  3.905826E+03 -5.008688E+05 -3.746662E+04  4.193683E+04 -2.439733E+03 -1.901900E+04
       113  23  1.184052E+04 -4.850733E+05 -5.360408E+04  1.554555E+04 -5.294326E+03 -4.779856E+04
       113  24 -9.233461E+04 -5.008955E+05 -1.164799E+05  4.183174E+04 -2.012927E+03 -7.657156E+04
       113  25 -1.534321E+04 -5.786459E+05 -5.603371E+04  2.909574E+04 -2.442454E+03 -1.573407E+04
       113  26 -2.659649E+04 -6.401645E+05 -9.048693E+04  2.490965E+04 -5.295033E+03 -4.789208E+04
       113  27 -1.505612E+05 -7.338922E+05 -1.740363E+05  7.339809E+04 -2.013240E+03 -8.003937E+04
       114   1  4.318420E+05  1.489052E+05  8.888017E+04  1.599749E+05  4.147432E+04  1.405446E+04
       114   2  4.175557E+05  8.616373E+04  4.992345E+04  1.589640E+05  2.668580E+04  5.279450E+03
       114   3  4.192800E+05  7.722511E+04  3.622658E+04  1.505828E+05  1.076413E+04 -4.874982E+02
       114   4  3.358430E+05  9.500541E+04  5.959895E+04  1.156077E+05  3.846832E+04  1.292013E+04
       114   5  3.248564E+05  4.583699E+04  2.540821E+04  1.277649E+05  2.577814E+04  4.937007E+03
       114   6  3.294678E+05  5.005967E+04  1.481794E+04  1.325513E+05  1.195446E+04 -3.871638E+01
       114   7  2.398549E+05  4.111086E+04  3.031729E+04  7.124828E+04  3.546287E+04  1.178622E+04
       114   8  2.321660E+05  5.511849E+03  8.923244E+02  9.657053E+04  2.487063E+04  4.594642E+03
       114   9  2.396629E+05  2.289402E+04 -6.591384E+03  1.145217E+05  1.314460E+04  4.100281E+02
       114  10  4.318401E+05  1.489045E+05  8.887657E+04  1.599744E+05 -5.999471E-09 -1.840308E-09
       114  11  4.175549E+05  8.616351E+04  4.992206E+04  1.589639E+05 -4.532167E-09 -2.154683E-09
       114  12  4.192798E+05  7.722508E+04  3.622637E+04  1.505828E+05  2.713643E-10  2.680023E-10
       114  13  3.358413E+05  9.500483E+04  5.959586E+04  1.156073E+05 -2.511349E-09  2.070135E-09
       114  14  3.248557E+05  4.583679E+04  2.540691E+04  1.277648E+05 -3.252742E-09 -3.264812E-09
       114  15  3.294676E+05  5.005964E+04  1.481767E+04  1.325513E+05 -3.696894E-09  1.512265E-09
       114  16  2.398535E+05  4.111037E+04  3.031466E+04  7.124794E+04 -3.015298E-10  4.126898E-09
       114  17  2.321653E+05  5.511660E+03  8.911228E+02  9.657043E+04 -6.302211E-09  3.312075E-09
       114  18  2.396628E+05  2.289398E+04 -6.591709E+03  1.145216E+05 -5.642667E-09 -8.086793E-10
       114  19  4.318420E+05  1.489052E+05  8.888017E+04  1.599749E+05 -4.147432E+04 -1.405446E+04
       114  20  4.175557E+05  8.616373E+04  4.992345E+04  1.589640E+05 -2.668580E+04 -5.279450E+03
       114  21  4.192800E+05  7.722511E+04  3.622658E+04  1.505828E+05 -1.076413E+04  4.874982E+02
       114  22  3.358430E+05  9.500541E+04  5.959895E+04  1.156077E+05 -3.846832E+04 -1.292013E+04
       114  23  3.248564E+05  4.583699E+04  2.540821E+04  1.277649E+05 -2.577814E+04 -4.937007E+03
       114  24  3.294678E+05  5.005967E+04  1.481794E+04  1.325513E+05 -1.195446E+04  3.871638E+01
       114  25  2.398549E+05  4.111086E+04  3.031729E+04  7.124828E+04 -3.546287E+04 -1.178622E+04
       114  26  2.321660E+05  5.511849E+03  8.923244E+02  9.657053E+04 -2.487063E+04 -4.594642E+03
       114  27  2.396629E+05  2.289402E+04 -6.591384E+03  1.145217E+05 -1.314460E+04 -4.100281E+02
       115   1  4.002010E+05  8.372708E+04  3.046877E+04  1.505689E+05  9.445383E+03 -1.562447E+02
       115   2  3.902255E+05  7.268270E+04  2.153182E+04  1.451115E+05  6.120701E+03 -9.023964E+02
       115   3  3.775020E+05  7.018773E+04  1.600619E+04  1.440140E+05  2.738252E+03 -1.495198E+03
       115   4  3.275507E+05  5.533606E+04  1.188560E+04  1.294111E+05  9.700813E+03 -6.000353E+01
       115   5  3.286877E+05  4.932483E+04  5.955748E+03  1.278902E+05  6.483346E+03 -7.656996E+02
       115   6  3.270555E+05  5.184201E+04  3.352590E+03  1.307290E+05  3.208054E+03 -1.318070E+03
       115   7  2.549055E+05  2.694551E+04 -6.697995E+03  1.082557E+05  9.956209E+03  3.622412E+01
       115   8  2.671537E+05  2.596729E+04 -9.620590E+03  1.106704E+05  6.845951E+03 -6.290184E+02
       115   9  2.766117E+05  3.349650E+04 -9.301151E+03  1.174451E+05  3.677813E+03 -1.140958E+03
       115  10  4.002009E+05  8.372706E+04  3.046860E+04  1.505689E+05 -3.016739E-09 -6.161432E-09
       115  11  3.902255E+05  7.268269E+04  2.153175E+04  1.451115E+05  2.146019E-09  5.106938E-09
       115  12  3.775020E+05  7.018773E+04  1.600617E+04  1.440140E+05  7.604386E-10  5.374480E-09
       115  13  3.275506E+05  5.533603E+04  1.188542E+04  1.294111E+05 -1.332387E-10 -1.423182E-09
       115  14  3.286877E+05  4.932482E+04  5.955668E+03  1.278902E+05 -1.870283E-09 -5.779667E-09
       115  15  3.270555E+05  5.184201E+04  3.352568E+03  1.307290E+05 -5.601791E-10  5.847540E-11
       115  16  2.549054E+05  2.694548E+04 -6.698182E+03  1.082557E+05  1.321802E-09 -3.962399E-09
       115  17  2.671537E+05  2.596728E+04 -9.620679E+03  1.106704E+05 -2.164854E-10 -2.452716E-09
       115  18  2.766116E+05  3.349650E+04 -9.301179E+03  1.174451E+05 -1.260262E-09 -3.579556E-09
       115  19  4.002010E+05  8.372708E+04  3.046877E+04  1.505689E+05 -9.445383E+03  1.562447E+02
       115  20  3.902255E+05  7.268270E+04  2.153182E+04  1.451115E+05 -6.120701E+03  9.023964E+02
       115  21  3.775020E+05  7.018773E+04  1.600619E+04  1.440140E+05 -2.738252E+03  1.495198E+03
       115  22  3.275507E+05  5.533606E+04  1.188560E+04  1.294111E+05 -9.700813E+03  6.000353E+01
       115  23  3.286877E+05  4.932483E+04  5.955748E+03  1.278902E+05 -6.483346E+03  7.656996E+02
       115  24  3.270555E+05  5.184201E+04  3.352590E+03  1.307290E+05 -3.208054E+03  1.318070E+03
       115  25  2.549055E+05  2.694551E+04 -6.697995E+03  1.082557E+05 -9.956209E+03 -3.622412E+01
       115  26  2.671537E+05  2.596729E+04 -9.620590E+03  1.106704E+05 -6.845951E+03  6.290184E+02
       115  27  2.766117E+05  3.349650E+04 -9.301151E+03  1.174451E+05 -3.677813E+03  1.140958E+03
       116   1  3.653578E+05  6.669270E+04  1.225211E+04  1.410896E+05  2.169115E+03 -1.277642E+03
       116   2  3.558927E+05  5.969286E+04  8.157722E+03  1.352873E+05  1.236219E+03 -9.344634E+02
       116   3  3.420222E+05  5.762291E+04  4.669805E+03  1.346826E+05  3.005054E+02 -5.838819E+02
       116   4  3.268616E+05  5.223544E+04  2.577010E+03  1.304654E+05  2.590523E+03 -1.118752E+03
       116   5  3.290463E+05  4.964079E+04  1.390062E+03  1.279157E+05  1.662834E+03 -7.735987E+02
       116   6  3.268249E+05  5.197511E+04  8.055719E+02  1.305637E+05  7.323142E+02 -4.210473E+02
       116   7  2.883667E+05  3.777823E+04 -7.098252E+03  1.198418E+05  3.011905E+03 -9.598722E+02
       116   8  3.022007E+05  3.958876E+04 -5.377671E+03  1.205445E+05  2.089430E+03 -6.127413E+02
       116   9  3.116277E+05  4.632733E+04 -3.058680E+03  1.264450E+05  1.164112E+03 -2.582169E+02
       116  10  3.653578E+05  6.669269E+04  1.225210E+04  1.410896E+05 -1.387263E-09 -4.197345E-09
       116  11  3.558927E+05  5.969286E+04  8.157717E+03  1.352873E+05 -1.522052E-09 -4.845552E-09
       116  12  3.420222E+05  5.762291E+04  4.669805E+03  1.346826E+05 -5.463113E-09 -2.059621E-09
       116  13  3.268616E+05  5.223544E+04  2.576995E+03  1.304654E+05 -1.388853E-10 -4.765946E-09
       116  14  3.290463E+05  4.964079E+04  1.390055E+03  1.279157E+05 -4.168298E-09 -2.875228E-09
       116  15  3.268249E+05  5.197511E+04  8.055706E+02  1.305637E+05 -1.124291E-08 -5.386694E-10
       116  16  2.883666E+05  3.777823E+04 -7.098271E+03  1.198418E+05 -3.894853E-10 -2.517288E-09
       116  17  3.022007E+05  3.958875E+04 -5.377679E+03  1.205445E+05 -5.357867E-09  4.968201E-09
       116  18  3.116277E+05  4.632733E+04 -3.058683E+03  1.264450E+05 -1.452042E-08 -6.631577E-09
       116  19  3.653578E+05  6.669270E+04  1.225211E+04  1.410896E+05 -2.169115E+03  1.277642E+03
       116  20  3.558927E+05  5.969286E+04  8.157722E+03  1.352873E+05 -1.236219E+03  9.344634E+02
       116  21  3.420222E+05  5.762291E+04  4.669805E+03  1.346826E+05 -3.005054E+02  5.838819E+02
       116  22  3.268616E+05  5.223544E+04  2.577010E+03  1.304654E+05 -2.590523E+03  1.118752E+03
       116  23  3.290463E+05  4.964079E+04  1.390062E+03  1.279157E+05 -1.662834E+03  7.735987E+02
       116  24  3.268249E+05  5.197511E+04  8.055719E+02  1.305637E+05 -7.323142E+02  4.210473E+02
       116  25  2.883667E+05  3.777823E+04 -7.098252E+03  1.198418E+05 -3.011905E+03  9.598722E+02
       116  26  3.022007E+05  3.958876E+04 -5.377671E+03  1.205445E+05 -2.089430E+03  6.127413E+02
       116  27  3.116277E+05  4.632733E+04 -3.058680E+03  1.264450E+05 -1.164112E+03  2.582169E+02
       117   1  3.304830E+05  5.336659E+04  1.521446E+03  1.315483E+05  4.862468E+01 -2.678737E+02
       117   2  3.210899E+05  4.667298E+04 -1.585239E+03  1.257186E+05 -3.992972E+02  2.670679E+02
       117   3  3.071260E+05  4.461937E+04 -4.524447E+03  1.251351E+05 -8.473928E+02  8.025341E+02
       117   4  3.268011E+05  5.200118E+04  6.368759E+02  1.305405E+05  4.779168E+02 -1.059862E+02
       117   5  3.290855E+05  4.967304E+04  4.314356E+02  1.279205E+05  3.035449E+01  4.290867E+02
       117   6  3.267988E+05  5.198482E+04  3.932018E+02  1.305466E+05 -4.173874E+02  9.646841E+02
       117   7  3.231194E+05  5.063578E+04 -2.476900E+02  1.295326E+05  9.072044E+02  5.589961E+01
       117   8  3.370811E+05  5.267311E+04  2.448106E+03  1.301224E+05  4.600122E+02  5.911079E+02
       117   9  3.464720E+05  5.935032E+04  5.310843E+03  1.359583E+05  1.263447E+01  1.126840E+03
       117  10  3.304830E+05  5.336659E+04  1.521445E+03  1.315483E+05 -9.789647E-09  4.486182E-10
       117  11  3.210899E+05  4.667298E+04 -1.585240E+03  1.257186E+05  2.434475E-09  1.089215E-08
       117  12  3.071260E+05  4.461937E+04 -4.524450E+03  1.251351E+05 -1.270293E-09  3.036420E-09
       117  13  3.268011E+05  5.200118E+04  6.368754E+02  1.305405E+05 -7.762548E-09 -2.798305E-10
       117  14  3.290855E+05  4.967304E+04  4.314353E+02  1.279205E+05  3.607974E-09 -3.850428E-09
       117  15  3.267988E+05  5.198482E+04  3.931997E+02  1.305466E+05 -1.488170E-09 -4.670741E-10
       117  16  3.231194E+05  5.063578E+04 -2.476916E+02  1.295326E+05 -7.495029E-09 -1.035252E-08
       117  17  3.370811E+05  5.267311E+04  2.448105E+03  1.301224E+05  4.318272E-09 -5.519388E-09
       117  18  3.464720E+05  5.935032E+04  5.310840E+03  1.359583E+05 -8.435393E-10 -2.611790E-09
       117  19  3.304830E+05  5.336659E+04  1.521446E+03  1.315483E+05 -4.862468E+01  2.678737E+02
       117  20  3.210899E+05  4.667298E+04 -1.585239E+03  1.257186E+05  3.992972E+02 -2.670679E+02
       117  21  3.071260E+05  4.461937E+04 -4.524447E+03  1.251351E+05  8.473928E+02 -8.025341E+02
       117  22  3.268011E+05  5.200118E+04  6.368759E+02  1.305405E+05 -4.779168E+02  1.059862E+02
       117  23  3.290855E+05  4.967304E+04  4.314356E+02  1.279205E+05 -3.035449E+01 -4.290867E+02
       117  24  3.267988E+05  5.198482E+04  3.932018E+02  1.305466E+05  4.173874E+02 -9.646841E+02
       117  25  3.231194E+05  5.063578E+04 -2.476900E+02  1.295326E+05 -9.072044E+02 -5.589961E+01
       117  26  3.370811E+05  5.267311E+04  2.448106E+03  1.301224E+05 -4.600122E+02 -5.911079E+02
       117  27  3.464720E+05  5.935032E+04  5.310843E+03  1.359583E+05 -1.263447E+01 -1.126840E+03
       118   1  2.956323E+05  4.030840E+04 -7.474959E+03  1.219954E+05 -1.051029E+03  1.136052E+03
       118   2  2.862136E+05  3.361522E+04 -1.019953E+04  1.161464E+05 -1.586986E+03  1.639307E+03
       118   3  2.722349E+05  3.158924E+04 -1.268657E+04  1.155549E+05 -2.122960E+03  2.142807E+03
       118   4  3.268004E+05  5.198634E+04  4.247464E+02  1.305508E+05 -6.207330E+02  1.298305E+03
       118   5  3.290823E+05  4.966651E+04  6.071253E+02  1.279168E+05 -1.156557E+03  1.801593E+03
       118   6  3.268040E+05  5.201380E+04  1.026903E+03  1.305403E+05 -1.692404E+03  2.305123E+03
       118   7  3.579694E+05  6.366434E+04  8.324373E+03  1.391065E+05 -1.904133E+02  1.460568E+03
       118   8  3.719528E+05  6.571789E+04  1.141361E+04  1.396880E+05 -7.260969E+02  1.963890E+03
       118   9  3.813758E+05  7.243847E+04  1.474008E+04  1.455269E+05 -1.261808E+03  2.467454E+03
       118  10  2.956323E+05  4.030840E+04 -7.474963E+03  1.219954E+05  2.776882E-09  6.103047E-09
       118  11  2.862136E+05  3.361522E+04 -1.019954E+04  1.161464E+05 -2.315401E-09  1.778555E-09
       118  12  2.722349E+05  3.158924E+04 -1.268659E+04  1.155549E+05 -4.466406E-09  5.443249E-10
       118  13  3.268004E+05  5.198634E+04  4.247425E+02  1.305508E+05 -4.774526E-09  3.007072E-09
       118  14  3.290823E+05  4.966651E+04  6.071167E+02  1.279168E+05  9.215452E-10  1.868287E-09
       118  15  3.268040E+05  5.201379E+04  1.026888E+03  1.305403E+05  4.744139E-10  2.662504E-10
       118  16  3.579694E+05  6.366434E+04  8.324369E+03  1.391065E+05 -6.181245E-09 -2.820171E-09
       118  17  3.719528E+05  6.571789E+04  1.141360E+04  1.396880E+05  2.044620E-09  3.114894E-09
       118  18  3.813758E+05  7.243846E+04  1.474006E+04  1.455269E+05  4.483103E-09  2.381904E-10
       118  19  2.956323E+05  4.030840E+04 -7.474959E+03  1.219954E+05  1.051029E+03 -1.136052E+03
       118  20  2.862136E+05  3.361522E+04 -1.019953E+04  1.161464E+05  1.586986E+03 -1.639307E+03
       118  21  2.722349E+05  3.158924E+04 -1.268657E+04  1.155549E+05  2.122960E+03 -2.142807E+03
       118  22  3.268004E+05  5.198634E+04  4.247464E+02  1.305508E+05  6.207330E+02 -1.298305E+03
       118  23  3.290823E+05  4.966651E+04  6.071253E+02  1.279168E+05  1.156557E+03 -1.801593E+03
       118  24  3.268040E+05  5.201380E+04  1.026903E+03  1.305403E+05  1.692404E+03 -2.305123E+03
       118  25  3.579694E+05  6.366434E+04  8.324373E+03  1.391065E+05  1.904133E+02 -1.460568E+03
       118  26  3.719528E+05  6.571789E+04  1.141361E+04  1.396880E+05  7.260969E+02 -1.963890E+03
       118  27  3.813758E+05  7.243847E+04  1.474008E+04  1.455269E+05  1.261808E+03 -2.467454E+03
       119   1  2.606838E+05  2.727247E+04 -1.536685E+04  1.125045E+05 -2.458215E+03  2.429657E+03
       119   2  2.511576E+05  2.044826E+04 -1.724955E+04  1.065231E+05 -3.879420E+03  2.600724E+03
       119   3  2.373507E+05  1.881148E+04 -1.810377E+04  1.057368E+05 -5.296703E+03  2.761661E+03
       119   4  3.268437E+05  5.197275E+04  1.339241E+03  1.305854E+05 -2.023447E+03  2.593545E+03
       119   5  3.290149E+05  4.960342E+04  2.378625E+03  1.279029E+05 -3.451872E+03  2.761860E+03
       119   6  3.269069E+05  5.242297E+04  4.452172E+03  1.304154E+05 -4.876398E+03  2.920036E+03
       119   7  3.930081E+05  7.667341E+04  1.804506E+04  1.486682E+05 -1.588626E+03  2.757453E+03
       119   8  4.068783E+05  7.875904E+04  2.200636E+04  1.492851E+05 -3.024265E+03  2.923017E+03
       119   9  4.164709E+05  8.603501E+04  2.700748E+04  1.550972E+05 -4.456027E+03  3.078435E+03
       119  10  2.606838E+05  2.727247E+04 -1.536688E+04  1.125045E+05 -7.526819E-10 -3.138802E-09
       119  11  2.511576E+05  2.044825E+04 -1.724959E+04  1.065231E+05  3.655881E-09  2.305344E-10
       119  12  2.373507E+05  1.881147E+04 -1.810384E+04  1.057368E+05  5.504816E-09  5.492326E-09
       119  13  3.268437E+05  5.197274E+04  1.339221E+03  1.305854E+05  2.186593E-09 -7.874325E-11
       119  14  3.290149E+05  4.960341E+04  2.378589E+03  1.279029E+05  2.286681E-09 -4.178428E-10
       119  15  3.269069E+05  5.242296E+04  4.452111E+03  1.304154E+05  2.854259E-09 -2.861440E-10
       119  16  3.930081E+05  7.667340E+04  1.804504E+04  1.486682E+05  3.188039E-09  4.934650E-09
       119  17  4.068783E+05  7.875903E+04  2.200633E+04  1.492851E+05  3.703999E-09  3.743971E-09
       119  18  4.164709E+05  8.603500E+04  2.700743E+04  1.550972E+05 -2.238999E-09 -3.615031E-09
       119  19  2.606838E+05  2.727247E+04 -1.536685E+04  1.125045E+05  2.458215E+03 -2.429657E+03
       119  20  2.511576E+05  2.044826E+04 -1.724955E+04  1.065231E+05  3.879420E+03 -2.600724E+03
       119  21  2.373507E+05  1.881148E+04 -1.810377E+04  1.057368E+05  5.296703E+03 -2.761661E+03
       119  22  3.268437E+05  5.197275E+04  1.339241E+03  1.305854E+05  2.023447E+03 -2.593545E+03
       119  23  3.290149E+05  4.960342E+04  2.378625E+03  1.279029E+05  3.451872E+03 -2.761860E+03
       119  24  3.269069E+05  5.242297E+04  4.452172E+03  1.304154E+05  4.876398E+03 -2.920036E+03
       119  25  3.930081E+05  7.667341E+04  1.804506E+04  1.486682E+05  1.588626E+03 -2.757453E+03
       119  26  4.068783E+05  7.875904E+04  2.200636E+04  1.492851E+05  3.024265E+03 -2.923017E+03
       119  27  4.164709E+05  8.603501E+04  2.700748E+04  1.550972E+05  4.456027E+03 -3.078435E+03
       120   1  2.253224E+05  1.453188E+04 -1.975207E+04  1.038786E+05 -6.335508E+03  2.815399E+03
       120   2  2.157221E+05  6.325333E+03 -1.818957E+04  9.636915E+04 -1.169007E+04  1.475931E+03
       120   3  2.046473E+05  9.532911E+03 -1.098003E+04  9.261594E+04 -1.696068E+04 -8.576946E+01
       120   4  3.272427E+05  5.174312E+04  5.802149E+03  1.308755E+05 -5.844496E+03  3.000407E+03
       120   5  3.283937E+05  4.905142E+04  1.032208E+04  1.278550E+05 -1.135491E+04  1.602141E+03
       120   6  3.281004E+05  5.780368E+04  2.061168E+04  1.285905E+05 -1.678149E+04 -1.841275E+01
       120   7  4.291727E+05  8.895477E+04  3.135544E+04  1.578762E+05 -5.353398E+03  3.185446E+03
       120   8  4.410777E+05  9.177842E+04  3.883270E+04  1.593460E+05 -1.101968E+04  1.728376E+03
       120   9  4.515690E+05  1.060760E+05  5.220229E+04  1.645719E+05 -1.660226E+04  4.896050E+01
       120  10  2.253224E+05  1.453186E+04 -1.975216E+04  1.038786E+05  3.203215E-09  5.908705E-09
       120  11  2.157220E+05  6.325294E+03 -1.818983E+04  9.636917E+04  2.637480E-11 -1.399175E-09
       120  12  2.046470E+05  9.532834E+03 -1.098057E+04  9.261594E+04 -1.546998E-09 -9.997773E-10
       120  13  3.272426E+05  5.174310E+04  5.802068E+03  1.308755E+05  5.380960E-10 -4.013757E-09
       120  14  3.283936E+05  4.905138E+04  1.032183E+04  1.278550E+05  8.076098E-10 -2.359582E-09
       120  15  3.281001E+05  5.780361E+04  2.061115E+04  1.285905E+05 -1.894303E-09  8.102831E-10
       120  16  4.291726E+05  8.895475E+04  3.135537E+04  1.578763E+05 -3.804583E-09 -9.807889E-09
       120  17  4.410775E+05  9.177839E+04  3.883247E+04  1.593461E+05 -3.701824E-10 -4.225219E-09
       120  18  4.515687E+05  1.060759E+05  5.220177E+04  1.645719E+05  1.049944E-09 -2.664801E-09
       120  19  2.253224E+05  1.453188E+04 -1.975207E+04  1.038786E+05  6.335508E+03 -2.815399E+03
       120  20  2.157221E+05  6.325333E+03 -1.818957E+04  9.636915E+04  1.169007E+04 -1.475931E+03
       120  21  2.046473E+05  9.532911E+03 -1.098003E+04  9.261594E+04  1.696068E+04  8.576946E+01
       120  22  3.272427E+05  5.174312E+04  5.802149E+03  1.308755E+05  5.844496E+03 -3.000407E+03
       120  23  3.283937E+05  4.905142E+04  1.032208E+04  1.278550E+05  1.135491E+04 -1.602141E+03
       120  24  3.281004E+05  5.780368E+04  2.061168E+04  1.285905E+05  1.678149E+04  1.841275E+01
       120  25  4.291727E+05  8.895477E+04  3.135544E+04  1.578762E+05  5.353398E+03 -3.185446E+03
       120  26  4.410777E+05  9.177842E+04  3.883270E+04  1.593460E+05  1.101968E+04 -1.728376E+03
       120  27  4.515690E+05  1.060760E+05  5.220229E+04  1.645719E+05  1.660226E+04 -4.896050E+01
       121   1  1.865753E+05  5.639975E+03 -8.674977E+03  1.057880E+05 -2.209179E+04 -9.972341E+02
       121   2  1.803415E+05 -1.965959E+04  6.465915E+03  7.886729E+04 -4.289289E+04 -8.802157E+03
       121   3  2.038994E+05  4.373790E+04  6.013358E+04  3.538667E+04 -6.204767E+04 -2.097695E+04
       121   4  3.314240E+05  4.865473E+04  2.569912E+04  1.340390E+05 -2.055350E+04 -4.173732E+02
       121   5  3.217535E+05  4.299667E+04  4.406894E+04  1.276324E+05 -4.440579E+04 -9.372924E+03
       121   6  3.424694E+05  1.266254E+05  1.033759E+05  1.046686E+05 -6.661179E+04 -2.269949E+04
       121   7  4.762936E+05  9.166937E+04  6.007191E+04  1.622952E+05 -1.901480E+04  1.625674E+02
       121   8  4.631843E+05  1.056562E+05  8.167000E+04  1.764080E+05 -4.591905E+04 -9.943888E+03
       121   9  4.810583E+05  2.095235E+05  1.466159E+05  1.739663E+05 -7.117695E+04 -2.442298E+04
       121  10  1.865748E+05  5.639843E+03 -8.675895E+03  1.057880E+05  3.104254E-10  3.723014E-09
       121  11  1.803395E+05 -1.966017E+04  6.462313E+03  7.886699E+04 -9.185049E-10 -1.567514E-10
       121  12  2.038952E+05  4.373640E+04  6.012552E+04  3.538562E+04 -1.482983E-09 -1.493265E-09
       121  13  3.314235E+05  4.865462E+04  2.569832E+04  1.340390E+05 -1.516178E-10 -6.464537E-09
       121  14  3.217513E+05  4.299605E+04  4.406508E+04  1.276321E+05 -1.767498E-09 -2.564020E-09
       121  15  3.424645E+05  1.266237E+05  1.033666E+05  1.046674E+05  2.638943E-09 -4.106180E-10
       121  16  4.762932E+05  9.166928E+04  6.007123E+04  1.622952E+05 -1.913306E-09 -7.030052E-09
       121  17  4.631820E+05  1.056556E+05  8.166586E+04  1.764077E+05  1.342583E-10 -1.715868E-09
       121  18  4.810527E+05  2.095215E+05  1.466053E+05  1.739649E+05  1.593940E-09  1.529960E-09
       121  19  1.865753E+05  5.639975E+03 -8.674977E+03  1.057880E+05  2.209179E+04  9.972341E+02
       121  20  1.803415E+05 -1.965959E+04  6.465915E+03  7.886729E+04  4.289289E+04  8.802157E+03
       121  21  2.038994E+05  4.373790E+04  6.013358E+04  3.538667E+04  6.204767E+04  2.097695E+04
       121  22  3.314240E+05  4.865473E+04  2.569912E+04  1.340390E+05  2.055350E+04  4.173732E+02
       121  23  3.217535E+05  4.299667E+04  4.406894E+04  1.276324E+05  4.440579E+04  9.372924E+03
       121  24  3.424694E+05  1.266254E+05  1.033759E+05  1.046686E+05  6.661179E+04  2.269949E+04
       121  25  4.762936E+05  9.166937E+04  6.007191E+04  1.622952E+05  1.901480E+04 -1.625674E+02
       121  26  4.631843E+05  1.056562E+05  8.167000E+04  1.764080E+05  4.591905E+04  9.943888E+03
       121  27  4.810583E+05  2.095235E+05  1.466159E+05  1.739663E+05  7.117695E+04  2.442298E+04
       122   1 -2.777799E+02 -4.766419E+05 -2.428564E+03 -1.643528E+02 -4.932430E+01  1.776517E+02
       122   2 -5.915117E+02 -4.781759E+05 -3.321347E+03  3.130545E+02 -9.639804E+01  1.495086E+03
       122   3 -1.657916E+03 -4.800738E+05 -5.261339E+03 -3.795935E+02 -1.679821E+02  2.812502E+03
       122   4 -1.917137E+01 -4.755952E+05 -2.184328E+03 -2.598070E+02 -4.934948E+01  1.958570E+02
       122   5  9.293730E+01 -4.754122E+05 -2.663982E+03  3.248539E+02 -9.644177E+01  1.526818E+03
       122   6 -5.499668E+02 -4.755955E+05 -4.200233E+03 -2.605388E+02 -1.680439E+02  2.857764E+03
       122   7  2.394371E+02 -4.745485E+05 -1.940091E+03 -3.552614E+02 -4.937467E+01  2.140623E+02
       122   8  7.773858E+02 -4.726486E+05 -2.006617E+03  3.366534E+02 -9.648550E+01  1.558550E+03
       122   9  5.579809E+02 -4.711172E+05 -3.139127E+03 -1.414832E+02 -1.681056E+02  2.903026E+03
       122  10 -2.777799E+02 -4.766419E+05 -2.428564E+03 -1.643528E+02 -3.152014E-09 -6.888941E-10
       122  11 -5.915123E+02 -4.781759E+05 -3.321351E+03  3.130546E+02 -1.614495E-09 -6.041786E-10
       122  12 -1.657918E+03 -4.800738E+05 -5.261354E+03 -3.795931E+02 -3.112028E-10 -1.343091E-09
       122  13 -1.917138E+01 -4.755952E+05 -2.184328E+03 -2.598070E+02  2.097185E-09  7.893690E-11
       122  14  9.293666E+01 -4.754122E+05 -2.663986E+03  3.248540E+02  5.026920E-10 -9.668903E-10
       122  15 -5.499690E+02 -4.755955E+05 -4.200248E+03 -2.605384E+02  4.678637E-10  3.341078E-10
       122  16  2.394371E+02 -4.745485E+05 -1.940092E+03 -3.552614E+02  1.767428E-09  3.347232E-09
       122  17  7.773851E+02 -4.726486E+05 -2.006622E+03  3.366535E+02  3.583936E-09  3.626323E-09
       122  18  5.579786E+02 -4.711172E+05 -3.139143E+03 -1.414828E+02  8.954877E-10  4.874220E-09
       122  19 -2.777799E+02 -4.766419E+05 -2.428564E+03 -1.643528E+02  4.932430E+01 -1.776517E+02
       122  20 -5.915117E+02 -4.781759E+05 -3.321347E+03  3.130545E+02  9.639804E+01 -1.495086E+03
       122  21 -1.657916E+03 -4.800738E+05 -5.261339E+03 -3.795935E+02  1.679821E+02 -2.812502E+03
       122  22 -1.917137E+01 -4.755952E+05 -2.184328E+03 -2.598070E+02  4.934948E+01 -1.958570E+02
       122  23  9.293730E+01 -4.754122E+05 -2.663982E+03  3.248539E+02  9.644177E+01 -1.526818E+03
       122  24 -5.499668E+02 -4.755955E+05 -4.200233E+03 -2.605388E+02  1.680439E+02 -2.857764E+03
       122  25  2.394371E+02 -4.745485E+05 -1.940091E+03 -3.552614E+02  4.937467E+01 -2.140623E+02
       122  26  7.773858E+02 -4.726486E+05 -2.006617E+03  3.366534E+02  9.648550E+01 -1.558550E+03
       122  27  5.579809E+02 -4.711172E+05 -3.139127E+03 -1.414832E+02  1.681056E+02 -2.903026E+03
       123   1 -1.325546E+03 -4.825975E+05 -6.793798E+03  6.065620E+02 -2.185141E+02  3.645857E+03
       123   2 -1.274022E+03 -4.831411E+05 -1.054587E+04 -1.077451E+02 -2.940298E+02  8.038802E+03
       123   3 -8.249725E+03 -4.860182E+05 -1.891717E+04 -1.991434E+03 -3.468214E+02  1.243175E+04
       123   4  3.043306E+02 -4.760319E+05 -5.227666E+03 -2.573063E+02 -2.185804E+02  3.690479E+03
       123   5  7.736785E+02 -4.748674E+05 -8.578326E+03  3.232182E+02 -2.940680E+02  8.070931E+03
       123   6 -5.781980E+03 -4.760341E+05 -1.653948E+04 -2.656402E+02 -3.468131E+02  1.245140E+04
       123   7  1.934207E+03 -4.694664E+05 -3.661537E+03 -1.121184E+03 -2.186469E+02  3.735102E+03
       123   8  2.821375E+03 -4.665936E+05 -6.610786E+03  7.541873E+02 -2.941061E+02  8.103060E+03
       123   9 -3.314231E+03 -4.660499E+05 -1.416180E+04  1.460181E+03 -3.468047E+02  1.247105E+04
       123  10 -1.325550E+03 -4.825975E+05 -6.793823E+03  6.065626E+02 -7.224262E-10 -3.659692E-09
       123  11 -1.274040E+03 -4.831412E+05 -1.054599E+04 -1.077432E+02 -1.593201E-09 -4.382009E-09
       123  12 -8.249767E+03 -4.860184E+05 -1.891746E+04 -1.991431E+03  6.836942E-10 -4.776670E-09
       123  13  3.043269E+02 -4.760320E+05 -5.227692E+03 -2.573057E+02 -1.411429E-09  1.094606E-09
       123  14  7.736609E+02 -4.748674E+05 -8.578449E+03  3.232201E+02 -3.134829E-09  1.065549E-09
       123  15 -5.782022E+03 -4.760343E+05 -1.653977E+04 -2.656367E+02  2.252341E-10  8.403047E-10
       123  16  1.934203E+03 -4.694664E+05 -3.661563E+03 -1.121183E+03 -1.594867E-09  2.606646E-09
       123  17  2.821357E+03 -4.665937E+05 -6.610909E+03  7.541892E+02  7.886794E-10  8.080678E-09
       123  18 -3.314273E+03 -4.660501E+05 -1.416209E+04  1.460185E+03 -1.238889E-09  7.183783E-09
       123  19 -1.325546E+03 -4.825975E+05 -6.793798E+03  6.065620E+02  2.185141E+02 -3.645857E+03
       123  20 -1.274022E+03 -4.831411E+05 -1.054587E+04 -1.077451E+02  2.940298E+02 -8.038802E+03
       123  21 -8.249725E+03 -4.860182E+05 -1.891717E+04 -1.991434E+03  3.468214E+02 -1.243175E+04
       123  22  3.043306E+02 -4.760319E+05 -5.227666E+03 -2.573063E+02  2.185804E+02 -3.690479E+03
       123  23  7.736785E+02 -4.748674E+05 -8.578326E+03  3.232182E+02  2.940680E+02 -8.070931E+03
       123  24 -5.781980E+03 -4.760341E+05 -1.653948E+04 -2.656402E+02  3.468131E+02 -1.245140E+04
       123  25  1.934207E+03 -4.694664E+05 -3.661537E+03 -1.121184E+03  2.186469E+02 -3.735102E+03
       123  26  2.821375E+03 -4.665936E+05 -6.610786E+03  7.541873E+02  2.941061E+02 -8.103060E+03
       123  27 -3.314231E+03 -4.660499E+05 -1.416180E+04  1.460181E+03  3.468047E+02 -1.247105E+04
       124   1  1.291007E+02 -4.919981E+05 -2.315617E+04  7.909346E+03 -4.426205E+02  1.544193E+04
       124   2  4.134864E+03 -4.836963E+05 -3.590853E+04 -5.576585E+03 -5.170535E+02  3.322279E+04
       124   3 -6.285686E+04 -4.954678E+05 -7.799301E+04 -2.027063E+04 -2.295250E+02  5.100390E+04
       124   4  3.136168E+03 -4.799658E+05 -2.029244E+04 -2.429801E+02 -4.429968E+02  1.556962E+04
       124   5  7.518375E+03 -4.699536E+05 -3.264450E+04  3.192757E+02 -5.166385E+02  3.315069E+04
       124   6 -5.906209E+04 -4.799800E+05 -7.418950E+04 -3.270707E+02 -2.275169E+02  5.073208E+04
       124   7  6.143475E+03 -4.679333E+05 -1.742869E+04 -8.395465E+03 -4.433765E+02  1.569731E+04
       124   8  1.090200E+04 -4.562107E+05 -2.938046E+04  6.215267E+03 -5.162249E+02  3.307860E+04
       124   9 -5.526585E+04 -4.644911E+05 -7.038579E+04  1.961699E+04 -2.255263E+02  5.046025E+04
       124  10  1.290364E+02 -4.919984E+05 -2.315662E+04  7.909352E+03  3.864095E-09  4.052406E-09
       124  11  4.134567E+03 -4.836975E+05 -3.591061E+04 -5.576571E+03  2.766704E-09  3.447012E-09
       124  12 -6.285756E+04 -4.954706E+05 -7.799790E+04 -2.027062E+04  2.982085E-09  2.544555E-09
       124  13  3.136103E+03 -4.799661E+05 -2.029290E+04 -2.429746E+02  1.018058E-09  1.114023E-09
       124  14  7.518079E+03 -4.699548E+05 -3.264657E+04  3.192895E+02 -4.854203E-10 -2.701637E-09
       124  15 -5.906278E+04 -4.799828E+05 -7.419434E+04 -3.270614E+02  1.149172E-09 -3.557040E-09
       124  16  6.143409E+03 -4.679335E+05 -1.742916E+04 -8.395460E+03  6.532101E-10 -1.358810E-09
       124  17  1.090171E+04 -4.562118E+05 -2.938252E+04  6.215281E+03  5.201243E-09  4.150389E-09
       124  18 -5.526653E+04 -4.644938E+05 -7.039057E+04  1.961700E+04  1.262220E-09  1.777357E-09
       124  19  1.291007E+02 -4.919981E+05 -2.315617E+04  7.909346E+03  4.426205E+02 -1.544193E+04
       124  20  4.134864E+03 -4.836963E+05 -3.590853E+04 -5.576585E+03  5.170535E+02 -3.322279E+04
       124  21 -6.285686E+04 -4.954678E+05 -7.799301E+04 -2.027063E+04  2.295250E+02 -5.100390E+04
       124  22  3.136168E+03 -4.799658E+05 -2.029244E+04 -2.429801E+02  4.429968E+02 -1.556962E+04
       124  23  7.518375E+03 -4.699536E+05 -3.264450E+04  3.192757E+02  5.166385E+02 -3.315069E+04
       124  24 -5.906209E+04 -4.799800E+05 -7.418950E+04 -3.270707E+02  2.275169E+02 -5.073208E+04
       124  25  6.143475E+03 -4.679333E+05 -1.742869E+04 -8.395465E+03  4.433765E+02 -1.569731E+04
       124  26  1.090200E+04 -4.562107E+05 -2.938046E+04  6.215267E+03  5.162249E+02 -3.307860E+04
       124  27 -5.526585E+04 -4.644911E+05 -7.038579E+04  1.961699E+04  2.255263E+02 -5.046025E+04
       125   1 -5.203856E+06 -1.668477E+06 -8.284255E+05 -1.904792E+06 -3.128049E+05 -7.270037E+04
       125   2 -5.045031E+06 -1.436735E+06 -5.879646E+05 -1.846100E+06 -2.046848E+05  7.528405E+04
       125   3 -4.915819E+06 -1.333753E+06 -4.823106E+05 -1.796712E+06 -7.032549E+04  1.543995E+05
       125   4 -2.670769E+06 -6.332499E+05 -1.562411E+05 -1.129280E+06 -1.160234E+05  1.866864E+03
       125   5 -2.657748E+06 -5.191199E+05 -7.209847E+04 -1.147377E+06 -1.137333E+05  1.096573E+05
       125   6 -2.653042E+06 -5.124141E+05 -3.812962E+04 -1.174830E+06 -8.530733E+04  1.486717E+05
       125   7 -1.313417E+05  4.027096E+05  5.155333E+05 -3.507624E+05  8.164087E+04  7.683045E+04
       125   8 -2.645948E+05  3.990996E+05  4.434674E+05 -4.461092E+05 -2.240177E+04  1.441871E+05
       125   9 -3.848908E+05  3.093720E+05  4.058272E+05 -5.508310E+05 -1.003484E+05  1.429222E+05
       125  10 -5.203963E+06 -1.668509E+06 -8.286211E+05 -1.904811E+06 -9.232488E-10 -3.355358E-10
       125  11 -5.045078E+06 -1.436752E+06 -5.880544E+05 -1.846087E+06 -1.090734E-08 -6.914356E-09
       125  12 -4.915830E+06 -1.333780E+06 -4.823646E+05 -1.796703E+06 -2.628207E-08 -1.030911E-08
       125  13 -2.670783E+06 -6.332536E+05 -1.562665E+05 -1.129280E+06 -2.408379E-09  6.716042E-10
       125  14 -2.657765E+06 -5.191363E+05 -7.214535E+04 -1.147367E+06 -1.844067E-09 -3.816327E-09
       125  15 -2.653056E+06 -5.124397E+05 -3.818475E+04 -1.174819E+06 -8.154278E-09 -1.052748E-08
       125  16 -1.313505E+05  4.027015E+05  5.155097E+05 -3.507675E+05 -5.845661E-10 -6.809200E-10
       125  17 -2.646009E+05  3.990772E+05  4.434275E+05 -4.461066E+05  8.689452E-09  5.051081E-09
       125  18 -3.849071E+05  3.093474E+05  4.057699E+05 -5.508194E+05  1.401476E-08  4.774411E-09
       125  19 -5.203856E+06 -1.668477E+06 -8.284255E+05 -1.904792E+06  3.128049E+05  7.270037E+04
       125  20 -5.045031E+06 -1.436735E+06 -5.879646E+05 -1.846100E+06  2.046848E+05 -7.528405E+04
       125  21 -4.915819E+06 -1.333753E+06 -4.823106E+05 -1.796712E+06  7.032549E+04 -1.543995E+05
       125  22 -2.670769E+06 -6.332499E+05 -1.562411E+05 -1.129280E+06  1.160234E+05 -1.866864E+03
       125  23 -2.657748E+06 -5.191199E+05 -7.209847E+04 -1.147377E+06  1.137333E+05 -1.096573E+05
       125  24 -2.653042E+06 -5.124141E+05 -3.812962E+04 -1.174830E+06  8.530733E+04 -1.486717E+05
       125  25 -1.313417E+05  4.027096E+05  5.155333E+05 -3.507624E+05 -8.164087E+04 -7.683045E+04
       125  26 -2.645948E+05  3.990996E+05  4.434674E+05 -4.461092E+05  2.240177E+04 -1.441871E+05
       125  27 -3.848908E+05  3.093720E+05  4.058272E+05 -5.508310E+05  1.003484E+05 -1.429222E+05
       126   1 -4.788380E+06 -1.303018E+06 -4.486211E+05 -1.772059E+06 -7.476989E+04  1.455966E+05
       126   2 -4.634205E+06 -1.218238E+06 -3.939127E+05 -1.707980E+06 -5.689392E+04  1.464639E+05
       126   3 -4.453233E+06 -1.169098E+06 -3.523727E+05 -1.677434E+06 -3.701434E+04  1.419868E+05
       126   4 -2.647621E+06 -5.158338E+05 -2.894589E+04 -1.172684E+06 -7.862074E+04  1.440829E+05
       126   5 -2.661296E+06 -4.960032E+05 -1.534127E+04 -1.156930E+06 -6.894130E+04  1.418661E+05
       126   6 -2.646562E+06 -5.101607E+05 -8.349012E+03 -1.174712E+06 -5.726648E+04  1.343125E+05
       126   7 -5.020713E+05  2.717749E+05  3.905218E+05 -5.713732E+05 -8.248596E+04  1.425640E+05
       126   8 -6.843132E+05  2.265905E+05  3.630630E+05 -6.042410E+05 -8.102996E+04  1.372528E+05
       126   9 -8.364801E+05  1.490709E+05  3.355365E+05 -6.706235E+05 -7.758203E+04  1.266144E+05
       126  10 -4.788392E+06 -1.303042E+06 -4.486713E+05 -1.772050E+06  1.765015E-08  6.648434E-09
       126  11 -4.634214E+06 -1.218262E+06 -3.939591E+05 -1.707973E+06  1.040551E-08  8.274920E-09
       126  12 -4.453240E+06 -1.169120E+06 -3.524131E+05 -1.677430E+06  1.721860E-09  2.919724E-09
       126  13 -2.647633E+06 -5.158577E+05 -2.899645E+04 -1.172675E+06 -7.300661E-09 -1.123749E-08
       126  14 -2.661307E+06 -4.960260E+05 -1.538796E+04 -1.156922E+06 -6.372704E-10 -7.465789E-09
       126  15 -2.646571E+06 -5.101809E+05 -8.389015E+03 -1.174705E+06 -7.557867E-10 -1.007132E-09
       126  16 -5.020840E+05  2.717513E+05  3.904708E+05 -5.713637E+05 -2.773466E-08 -1.058024E-08
       126  17 -6.843252E+05  2.265685E+05  3.630153E+05 -6.042321E+05 -1.476827E-08 -7.464326E-09
       126  18 -8.364909E+05  1.490521E+05  3.354951E+05 -6.706156E+05 -2.413479E-09 -1.452188E-09
       126  19 -4.788380E+06 -1.303018E+06 -4.486211E+05 -1.772059E+06  7.476989E+04 -1.455966E+05
       126  20 -4.634205E+06 -1.218238E+06 -3.939127E+05 -1.707980E+06  5.689392E+04 -1.464639E+05
       126  21 -4.453233E+06 -1.169098E+06 -3.523727E+05 -1.677434E+06  3.701434E+04 -1.419868E+05
       126  22 -2.647621E+06 -5.158338E+05 -2.894589E+04 -1.172684E+06  7.862074E+04 -1.440829E+05
       126  23 -2.661296E+06 -4.960032E+05 -1.534127E+04 -1.156930E+06  6.894130E+04 -1.418661E+05
       126  24 -2.646562E+06 -5.101607E+05 -8.349012E+03 -1.174712E+06  5.726648E+04 -1.343125E+05
       126  25 -5.020713E+05  2.717749E+05  3.905218E+05 -5.713732E+05  8.248596E+04 -1.425640E+05
       126  26 -6.843132E+05  2.265905E+05  3.630630E+05 -6.042410E+05  8.102996E+04 -1.372528E+05
       126  27 -8.364801E+05  1.490709E+05  3.355365E+05 -6.706235E+05  7.758203E+04 -1.266144E+05
       127   1 -4.338980E+06 -1.127935E+06 -3.276834E+05 -1.646220E+06 -3.367482E+04  1.344317E+05
       127   2 -4.182849E+06 -1.049126E+06 -2.920342E+05 -1.580572E+06 -2.632402E+04  1.224660E+05
       127   3 -3.995746E+06 -1.001579E+06 -2.582064E+05 -1.550223E+06 -1.881102E+04  1.100183E+05
       127   4 -2.646017E+06 -5.103737E+05 -6.294693E+03 -1.174751E+06 -5.318743E+04  1.270462E+05
       127   5 -2.661420E+06 -4.945243E+05 -3.499799E+03 -1.157166E+06 -4.657265E+04  1.148184E+05
       127   6 -2.645745E+06 -5.097892E+05 -1.942835E+03 -1.174887E+06 -3.979668E+04  1.021091E+05
       127   7 -9.500259E+05  1.074589E+05  3.149824E+05 -7.020732E+05 -7.275761E+04  1.196391E+05
       127   8 -1.137551E+06  6.029427E+04  2.849437E+05 -7.327862E+05 -6.687486E+04  1.071507E+05
       127   9 -1.293828E+06 -1.783110E+04  2.542479E+05 -7.987878E+05 -6.083151E+04  9.418146E+04
       127  10 -4.338986E+06 -1.127955E+06 -3.277195E+05 -1.646216E+06  2.871805E-09  2.365117E-09
       127  11 -4.182853E+06 -1.049143E+06 -2.920637E+05 -1.580569E+06  2.448670E-09  1.096686E-09
       127  12 -3.995750E+06 -1.001592E+06 -2.582298E+05 -1.550221E+06  9.728782E-11  1.191849E-09
       127  13 -2.646024E+06 -5.103917E+05 -6.330287E+03 -1.174746E+06 -1.954716E-10  8.260019E-10
       127  14 -2.661426E+06 -4.945391E+05 -3.528606E+03 -1.157162E+06  5.215605E-10  8.302348E-10
       127  15 -2.645749E+06 -5.098008E+05 -1.965371E+03 -1.174884E+06 -1.160982E-09  5.960021E-10
       127  16 -9.500354E+05  1.074421E+05  3.149456E+05 -7.020662E+05 -3.126837E-09 -3.752712E-10
       127  17 -1.137559E+06  6.028076E+04  2.849137E+05 -7.327805E+05 -2.165736E-09  3.265187E-10
       127  18 -1.293835E+06 -1.784160E+04  2.542243E+05 -7.987832E+05 -1.659727E-09 -4.973077E-11
       127  19 -4.338980E+06 -1.127935E+06 -3.276834E+05 -1.646220E+06  3.367482E+04 -1.344317E+05
       127  20 -4.182849E+06 -1.049126E+06 -2.920342E+05 -1.580572E+06  2.632402E+04 -1.224660E+05
       127  21 -3.995746E+06 -1.001579E+06 -2.582064E+05 -1.550223E+06  1.881102E+04 -1.100183E+05
       127  22 -2.646017E+06 -5.103737E+05 -6.294693E+03 -1.174751E+06  5.318743E+04 -1.270462E+05
       127  23 -2.661420E+06 -4.945243E+05 -3.499799E+03 -1.157166E+06  4.657265E+04 -1.148184E+05
       127  24 -2.645745E+06 -5.097892E+05 -1.942835E+03 -1.174887E+06  3.979668E+04 -1.021091E+05
       127  25 -9.500259E+05  1.074589E+05  3.149824E+05 -7.020732E+05  7.275761E+04 -1.196391E+05
       127  26 -1.137551E+06  6.029427E+04  2.849437E+05 -7.327862E+05  6.687486E+04 -1.071507E+05
       127  27 -1.293828E+06 -1.783110E+04  2.542479E+05 -7.987878E+05  6.083151E+04 -9.418146E+04
       128   1 -3.880498E+06 -9.594038E+05 -2.349587E+05 -1.518312E+06 -1.551137E+04  1.021904E+05
       128   2 -3.722055E+06 -8.800610E+05 -2.018063E+05 -1.451840E+06 -9.756002E+03  8.875214E+04
       128   3 -3.532081E+06 -8.321121E+05 -1.690621E+05 -1.421246E+06 -3.982026E+03  7.522602E+04
       128   4 -2.645577E+06 -5.098140E+05 -1.505744E+03 -1.175000E+06 -3.652219E+04  9.427971E+04
       128   5 -2.661253E+06 -4.939678E+05 -9.653700E+02 -1.157090E+06 -3.090086E+04  8.080212E+04
       128   6 -2.645407E+06 -5.094898E+05 -7.298206E+02 -1.175068E+06 -2.526112E+04  6.723666E+04
       128   7 -1.409064E+06 -6.008765E+04  2.318842E+05 -8.310522E+05 -5.757782E+04  8.635222E+04
       128   8 -1.599269E+06 -1.077709E+05  1.998316E+05 -8.618682E+05 -5.208461E+04  7.283752E+04
       128   9 -1.757899E+06 -1.867923E+05  1.675743E+05 -9.285578E+05 -4.657309E+04  5.923497E+04
       128  10 -3.880501E+06 -9.594151E+05 -2.349788E+05 -1.518311E+06  1.169248E-09  1.920337E-09
       128  11 -3.722057E+06 -8.800695E+05 -2.018213E+05 -1.451839E+06  3.388659E-10  1.404993E-09
       128  12 -3.532082E+06 -8.321182E+05 -1.690727E+05 -1.421246E+06  1.263102E-09  5.029559E-10
       128  13 -2.645581E+06 -5.098239E+05 -1.524926E+03 -1.174998E+06 -8.644290E-10  5.891197E-10
       128  14 -2.661256E+06 -4.939751E+05 -9.794127E+02 -1.157088E+06 -2.113768E-10  4.478943E-10
       128  15 -2.645409E+06 -5.094948E+05 -7.395008E+02 -1.175066E+06 -5.808801E-10 -1.095664E-10
       128  16 -1.409070E+06 -6.009653E+04  2.318640E+05 -8.310482E+05 -3.059082E-09 -5.613865E-11
       128  17 -1.599274E+06 -1.077774E+05  1.998166E+05 -8.618652E+05 -2.348503E-09  3.140281E-10
       128  18 -1.757903E+06 -1.867966E+05  1.675636E+05 -9.285556E+05 -1.138374E-09  3.025811E-10
       128  19 -3.880498E+06 -9.594038E+05 -2.349587E+05 -1.518312E+06  1.551137E+04 -1.021904E+05
       128  20 -3.722055E+06 -8.800610E+05 -2.018063E+05 -1.451840E+06  9.756002E+03 -8.875214E+04
       128  21 -3.532081E+06 -8.321121E+05 -1.690621E+05 -1.421246E+06  3.982026E+03 -7.522602E+04
       128  22 -2.645577E+06 -5.098140E+05 -1.505744E+03 -1.175000E+06  3.652219E+04 -9.427971E+04
       128  23 -2.661253E+06 -4.939678E+05 -9.653700E+02 -1.157090E+06  3.090086E+04 -8.080212E+04
       128  24 -2.645407E+06 -5.094898E+05 -7.298206E+02 -1.175068E+06  2.526112E+04 -6.723666E+04
       128  25 -1.409064E+06 -6.008765E+04  2.318842E+05 -8.310522E+05  5.757782E+04 -8.635222E+04
       128  26 -1.599269E+06 -1.077709E+05  1.998316E+05 -8.618682E+05  5.208461E+04 -7.283752E+04
       128  27 -1.757899E+06 -1.867923E+05  1.675743E+05 -9.285578E+05  4.657309E+04 -5.923497E+04
       129   1 -3.415512E+06 -7.895311E+05 -1.460168E+05 -1.389022E+06 -7.885584E+02  6.725093E+04
       129   2 -3.255443E+06 -7.097101E+05 -1.133916E+05 -1.322065E+06  4.906399E+03  5.360254E+04
       129   3 -3.063698E+06 -6.615361E+05 -8.112473E+04 -1.291357E+06  1.060190E+04  3.993069E+04
       129   4 -2.645329E+06 -5.094976E+05 -7.352302E+02 -1.175151E+06 -2.212331E+04  5.924583E+04
       129   5 -2.661101E+06 -4.935707E+05 -9.397541E+02 -1.157045E+06 -1.646505E+04  4.558990E+04
       129   6 -2.645226E+06 -5.092848E+05 -1.475962E+03 -1.175199E+06 -1.080643E+04  3.191053E+04
       129   7 -1.874522E+06 -2.294094E+05  1.445244E+05 -9.610323E+05 -4.348650E+04  5.123007E+04
       129   8 -2.066391E+06 -2.773998E+05  1.114989E+05 -9.918788E+05 -3.785839E+04  3.756904E+04
       129   9 -2.226574E+06 -3.570187E+05  7.816643E+04 -1.058969E+06 -3.223008E+04  2.388462E+04
       129  10 -3.415513E+06 -7.895360E+05 -1.460253E+05 -1.389022E+06 -9.152966E-11  3.715885E-11
       129  11 -3.255443E+06 -7.097132E+05 -1.133971E+05 -1.322065E+06  1.860616E-10  2.363722E-10
       129  12 -3.063699E+06 -6.615378E+05 -8.112794E+04 -1.291358E+06  8.802640E-10 -8.072969E-10
       129  13 -2.645330E+06 -5.095015E+05 -7.427350E+02 -1.175150E+06  7.055200E-10  4.401137E-10
       129  14 -2.661102E+06 -4.935730E+05 -9.441628E+02 -1.157045E+06 -1.183949E-10  3.077155E-11
       129  15 -2.645227E+06 -5.092859E+05 -1.478092E+03 -1.175199E+06 -1.180017E-09 -1.531583E-09
       129  16 -1.874525E+06 -2.294128E+05  1.445159E+05 -9.610305E+05  1.569393E-10  9.458278E-10
       129  17 -2.066393E+06 -2.774017E+05  1.114936E+05 -9.918776E+05  2.125704E-10  1.377396E-10
       129  18 -2.226575E+06 -3.570196E+05  7.816341E+04 -1.058968E+06 -6.681072E-10 -5.324261E-10
       129  19 -3.415512E+06 -7.895311E+05 -1.460168E+05 -1.389022E+06  7.885584E+02 -6.725093E+04
       129  20 -3.255443E+06 -7.097101E+05 -1.133916E+05 -1.322065E+06 -4.906399E+03 -5.360254E+04
       129  21 -3.063698E+06 -6.615361E+05 -8.112473E+04 -1.291357E+06 -1.060190E+04 -3.993069E+04
       129  22 -2.645329E+06 -5.094976E+05 -7.352302E+02 -1.175151E+06  2.212331E+04 -5.924583E+04
       129  23 -2.661101E+06 -4.935707E+05 -9.397541E+02 -1.157045E+06  1.646505E+04 -4.558990E+04
       129  24 -2.645226E+06 -5.092848E+05 -1.475962E+03 -1.175199E+06  1.080643E+04 -3.191053E+04
       129  25 -1.874522E+06 -2.294094E+05  1.445244E+05 -9.610323E+05  4.348650E+04 -5.123007E+04
       129  26 -2.066391E+06 -2.773998E+05  1.114989E+05 -9.918788E+05  3.785839E+04 -3.756904E+04
       129  27 -2.226574E+06 -3.570187E+05  7.816643E+04 -1.058969E+06  3.223008E+04 -2.388462E+04
       130   1 -2.946330E+06 -6.187452E+05 -5.836978E+04 -1.258972E+06  1.396391E+04  3.196719E+04
       130   2 -2.785409E+06 -5.387435E+05 -2.684060E+04 -1.191785E+06  2.061193E+04  1.869524E+04
       130   3 -2.592939E+06 -4.906396E+05  3.560633E+03 -1.161017E+06  2.720211E+04  5.574046E+03
       130   4 -2.645241E+06 -5.092805E+05 -1.922759E+03 -1.175258E+06 -7.496555E+03  2.392976E+04
       130   5 -2.660971E+06 -4.933358E+05 -3.410459E+03 -1.157028E+06 -6.185404E+02  1.074516E+04
       130   6 -2.645236E+06 -5.093394E+05 -6.212176E+03 -1.175231E+06  6.201180E+03 -2.288785E+03
       130   7 -2.344053E+06 -3.998060E+05  5.452345E+04 -1.091506E+06 -2.896839E+04  1.588805E+04
       130   8 -2.536515E+06 -4.479259E+05  2.002118E+04 -1.122264E+06 -2.185368E+04  2.793316E+03
       130   9 -2.697529E+06 -5.280387E+05 -1.598320E+04 -1.189443E+06 -1.479786E+04 -1.015093E+04
       130  10 -2.946330E+06 -6.187463E+05 -5.837207E+04 -1.258972E+06 -2.903882E-10 -1.379928E-09
       130  11 -2.785410E+06 -5.387440E+05 -2.684207E+04 -1.191785E+06  6.917070E-11  4.058606E-10
       130  12 -2.592939E+06 -4.906398E+05  3.559177E+03 -1.161017E+06 -2.146601E-09 -1.180430E-10
       130  13 -2.645241E+06 -5.092811E+05 -1.923939E+03 -1.175258E+06  2.960459E-10 -5.991540E-10
       130  14 -2.660971E+06 -4.933359E+05 -3.410677E+03 -1.157028E+06 -1.771573E-09 -1.576722E-09
       130  15 -2.645236E+06 -5.093394E+05 -6.212258E+03 -1.175231E+06  4.373152E-10  1.542446E-09
       130  16 -2.344054E+06 -3.998065E+05  5.452140E+04 -1.091505E+06  3.407763E-11 -3.864830E-10
       130  17 -2.536516E+06 -4.479261E+05  2.002026E+04 -1.122264E+06  1.394117E-09  7.604368E-10
       130  18 -2.697529E+06 -5.280388E+05 -1.598381E+04 -1.189443E+06  6.678159E-10  1.350058E-09
       130  19 -2.946330E+06 -6.187452E+05 -5.836978E+04 -1.258972E+06 -1.396391E+04 -3.196719E+04
       130  20 -2.785409E+06 -5.387435E+05 -2.684060E+04 -1.191785E+06 -2.061193E+04 -1.869524E+04
       130  21 -2.592939E+06 -4.906396E+05  3.560633E+03 -1.161017E+06 -2.720211E+04 -5.574046E+03
       130  22 -2.645241E+06 -5.092805E+05 -1.922759E+03 -1.175258E+06  7.496555E+03 -2.392976E+04
       130  23 -2.660971E+06 -4.933358E+05 -3.410459E+03 -1.157028E+06  6.185404E+02 -1.074516E+04
       130  24 -2.645236E+06 -5.093394E+05 -6.212176E+03 -1.175231E+06 -6.201180E+03  2.288785E+03
       130  25 -2.344053E+06 -3.998060E+05  5.452345E+04 -1.091506E+06  2.896839E+04 -1.588805E+04
       130  26 -2.536515E+06 -4.479259E+05  2.002118E+04 -1.122264E+06  2.185368E+04 -2.793316E+03
       130  27 -2.697529E+06 -5.280387E+05 -1.598320E+04 -1.189443E+06  1.479786E+04  1.015093E+04
       131   1 -2.475223E+06 -4.480236E+05  2.480187E+04 -1.129146E+06  3.170624E+04 -1.925623E+03
       131   2 -2.314989E+06 -3.676446E+05  5.206129E+04 -1.060359E+06  4.086147E+04 -1.304776E+04
       131   3 -2.124866E+06 -3.221584E+05  7.518472E+04 -1.027141E+06  4.923692E+04 -2.207601E+04
       131   4 -2.645609E+06 -5.091844E+05 -8.266452E+03 -1.175402E+06  1.036866E+04 -9.915119E+03
       131   5 -2.660608E+06 -4.940018E+05 -1.511422E+04 -1.156654E+06  2.275130E+04 -1.983208E+04
       131   6 -2.646394E+06 -5.143598E+05 -2.866712E+04 -1.173490E+06  3.435264E+04 -2.765500E+04
       131   7 -2.815961E+06 -5.703418E+05 -4.133368E+04 -1.221645E+06 -1.096243E+04 -1.790226E+04
       131   8 -3.006101E+06 -6.203478E+05 -8.229361E+04 -1.252898E+06  4.651957E+03 -2.661230E+04
       131   9 -3.167643E+06 -7.065376E+05 -1.325322E+05 -1.319724E+06  1.948169E+04 -3.322888E+04
       131  10 -2.475224E+06 -4.480238E+05  2.479997E+04 -1.129146E+06 -5.222499E-10  1.871429E-09
       131  11 -2.314991E+06 -3.676453E+05  5.205783E+04 -1.060358E+06 -1.953333E-09  1.234001E-10
       131  12 -2.124869E+06 -3.221596E+05  7.517925E+04 -1.027140E+06  4.516298E-10 -4.580269E-10
       131  13 -2.645609E+06 -5.091845E+05 -8.266838E+03 -1.175402E+06 -5.067841E-10  1.575507E-09
       131  14 -2.660608E+06 -4.940023E+05 -1.511593E+04 -1.156653E+06 -8.607233E-10  6.309790E-10
       131  15 -2.646395E+06 -5.143609E+05 -2.867078E+04 -1.173489E+06 -1.535841E-09 -1.871748E-09
       131  16 -2.815962E+06 -5.703422E+05 -4.133451E+04 -1.221645E+06 -4.197957E-10  1.551307E-09
       131  17 -3.006102E+06 -6.203485E+05 -8.229498E+04 -1.252898E+06 -4.932628E-10  3.884874E-10
       131  18 -3.167644E+06 -7.065389E+05 -1.325350E+05 -1.319724E+06 -7.730599E-10 -1.488056E-09
       131  19 -2.475223E+06 -4.480236E+05  2.480187E+04 -1.129146E+06 -3.170624E+04  1.925623E+03
       131  20 -2.314989E+06 -3.676446E+05  5.206129E+04 -1.060359E+06 -4.086147E+04  1.304776E+04
       131  21 -2.124866E+06 -3.221584E+05  7.518472E+04 -1.027141E+06 -4.923692E+04  2.207601E+04
       131  22 -2.645609E+06 -5.091844E+05 -8.266452E+03 -1.175402E+06 -1.036866E+04  9.915119E+03
       131  23 -2.660608E+06 -4.940018E+05 -1.511422E+04 -1.156654E+06 -2.275130E+04  1.983208E+04
       131  24 -2.646394E+06 -5.143598E+05 -2.866712E+04 -1.173490E+06 -3.435264E+04  2.765500E+04
       131  25 -2.815961E+06 -5.703418E+05 -4.133368E+04 -1.221645E+06  1.096243E+04  1.790226E+04
       131  26 -3.006101E+06 -6.203478E+05 -8.229361E+04 -1.252898E+06 -4.651957E+03  2.661230E+04
       131  27 -3.167643E+06 -7.065376E+05 -1.325322E+05 -1.319724E+06 -1.948169E+04  3.322888E+04
       132   1 -2.002904E+06 -2.841470E+05  9.020876E+04 -1.006660E+06  6.079948E+04 -2.630195E+04
       132   2 -1.867720E+06 -1.921849E+05  1.055773E+05 -8.945574E+05  5.549708E+04 -2.695701E+04
       132   3 -1.729132E+06 -2.032029E+05  1.045072E+05 -7.968992E+05  3.994451E+04 -3.102026E+02
       132   4 -2.651226E+06 -5.113772E+05 -3.778679E+04 -1.176247E+06  4.146071E+04 -3.355185E+04
       132   5 -2.657312E+06 -5.158908E+05 -7.134015E+04 -1.146493E+06  7.835260E+04 -1.839674E+04
       132   6 -2.668455E+06 -6.318546E+05 -1.548966E+05 -1.131203E+06  1.049863E+05  2.407827E+04
       132   7 -3.299117E+06 -7.385805E+05 -1.658013E+05 -1.345674E+06  2.214358E+04 -4.079439E+04
       132   8 -3.446249E+06 -8.394981E+05 -2.482906E+05 -1.398113E+06  1.011763E+05 -9.851494E+03
       132   9 -3.606855E+06 -1.060303E+06 -4.143524E+05 -1.464991E+06  1.699178E+05  4.840521E+04
       132  10 -2.002908E+06 -2.841488E+05  9.020051E+04 -1.006658E+06 -9.012707E-10 -1.427517E-09
       132  11 -1.867724E+06 -1.921865E+05  1.055701E+05 -8.945562E+05  1.632860E-10 -6.365001E-10
       132  12 -1.729133E+06 -2.032034E+05  1.045042E+05 -7.968992E+05 -1.060159E-09 -3.385632E-10
       132  13 -2.651229E+06 -5.113789E+05 -3.779214E+04 -1.176246E+06  2.478432E-09  3.215337E-11
       132  14 -2.657319E+06 -5.158928E+05 -7.135236E+04 -1.146492E+06  3.108806E-10 -9.315824E-10
       132  15 -2.668467E+06 -6.318582E+05 -1.549185E+05 -1.131205E+06  2.464113E-10 -1.032936E-10
       132  16 -3.299118E+06 -7.385824E+05 -1.658053E+05 -1.345673E+06  1.988336E-09 -6.553106E-10
       132  17 -3.446260E+06 -8.395009E+05 -2.483101E+05 -1.398113E+06  1.280967E-09 -4.286000E-10
       132  18 -3.606887E+06 -1.060313E+06 -4.144114E+05 -1.464997E+06  1.828403E-10  1.902262E-11
       132  19 -2.002904E+06 -2.841470E+05  9.020876E+04 -1.006660E+06 -6.079948E+04  2.630195E+04
       132  20 -1.867720E+06 -1.921849E+05  1.055773E+05 -8.945574E+05 -5.549708E+04  2.695701E+04
       132  21 -1.729132E+06 -2.032029E+05  1.045072E+05 -7.968992E+05 -3.994451E+04  3.102026E+02
       132  22 -2.651226E+06 -5.113772E+05 -3.778679E+04 -1.176247E+06 -4.146071E+04  3.355185E+04
       132  23 -2.657312E+06 -5.158908E+05 -7.134015E+04 -1.146493E+06 -7.835260E+04  1.839674E+04
       132  24 -2.668455E+06 -6.318546E+05 -1.548966E+05 -1.131203E+06 -1.049863E+05 -2.407827E+04
       132  25 -3.299117E+06 -7.385805E+05 -1.658013E+05 -1.345674E+06 -2.214358E+04  4.079439E+04
       132  26 -3.446249E+06 -8.394981E+05 -2.482906E+05 -1.398113E+06 -1.011763E+05  9.851494E+03
       132  27 -3.606855E+06 -1.060303E+06 -4.143524E+05 -1.464991E+06 -1.699178E+05 -4.840521E+04
       133   1  1.229402E+05  2.439438E+04  4.009594E+04  1.348754E+04  4.877007E+04  1.494746E+03
       133   2  1.256244E+05 -3.946982E+04  2.360312E+03  3.568612E+03  3.282771E+04  4.431398E+03
       133   3  1.482527E+05 -3.195465E+04 -7.146772E+03 -1.487774E+04  1.688586E+04  4.088585E+03
       133   4  2.645540E+05  5.966317E+04  7.495759E+04 -6.648591E+03  5.130871E+04  1.494135E+03
       133   5  2.544312E+05 -7.597262E+03  3.296542E+04 -2.373584E+03  3.355183E+04  4.431256E+03
       133   6  2.645621E+05 -3.172247E+03  2.045693E+04 -6.625644E+03  1.579584E+04  4.088484E+03
       133   7  4.061870E+05  9.493200E+04  1.098180E+05 -2.678932E+04  5.384794E+04  1.493359E+03
       133   8  3.832532E+05  2.427423E+04  6.356939E+04 -8.317019E+03  3.427611E+04  4.431101E+03
       133   9  3.808841E+05  2.560944E+04  4.805972E+04  1.628003E+03  1.470561E+04  4.088355E+03
       133  10  1.229377E+05  2.439374E+04  4.009147E+04  1.348748E+04  1.006916E-09 -6.653485E-10
       133  11  1.256233E+05 -3.947013E+04  2.358251E+03  3.568495E+03  2.276544E-10 -3.450454E-10
       133  12  1.482524E+05 -3.195474E+04 -7.147339E+03 -1.487779E+04  1.925599E-10  3.442999E-10
       133  13  2.645512E+05  5.966246E+04  7.495264E+04 -6.648653E+03 -1.842681E-09  1.564612E-11
       133  14  2.544300E+05 -7.597585E+03  3.296327E+04 -2.373703E+03  1.703893E-09 -4.633998E-10
       133  15  2.645618E+05 -3.172332E+03  2.045643E+04 -6.625696E+03  2.879435E-09  1.086095E-10
       133  16  4.061838E+05  9.493122E+04  1.098126E+05 -2.678939E+04  8.529458E-12 -1.268511E-12
       133  17  3.832520E+05  2.427390E+04  6.356715E+04 -8.317141E+03 -4.944151E-10 -4.280895E-10
       133  18  3.808838E+05  2.560936E+04  4.805929E+04  1.627955E+03  1.548086E-09  7.562177E-10
       133  19  1.229402E+05  2.439438E+04  4.009594E+04  1.348754E+04 -4.877007E+04 -1.494746E+03
       133  20  1.256244E+05 -3.946982E+04  2.360312E+03  3.568612E+03 -3.282771E+04 -4.431398E+03
       133  21  1.482527E+05 -3.195465E+04 -7.146772E+03 -1.487774E+04 -1.688586E+04 -4.088585E+03
       133  22  2.645540E+05  5.966317E+04  7.495759E+04 -6.648591E+03 -5.130871E+04 -1.494135E+03
       133  23  2.544312E+05 -7.597262E+03  3.296542E+04 -2.373584E+03 -3.355183E+04 -4.431256E+03
       133  24  2.645621E+05 -3.172247E+03  2.045693E+04 -6.625644E+03 -1.579584E+04 -4.088484E+03
       133  25  4.061870E+05  9.493200E+04  1.098180E+05 -2.678932E+04 -5.384794E+04 -1.493359E+03
       133  26  3.832532E+05  2.427423E+04  6.356939E+04 -8.317019E+03 -3.427611E+04 -4.431101E+03
       133  27  3.808841E+05  2.560944E+04  4.805972E+04  1.628003E+03 -1.470561E+04 -4.088355E+03
       134   1  1.596038E+05 -1.916261E+04 -7.399658E+03 -4.896851E+03  1.275780E+04  3.326719E+03
       134   2  1.709465E+05 -2.267495E+04 -1.248064E+04 -1.940710E+03  8.513461E+03  3.024929E+03
       134   3  1.846202E+05 -1.911842E+04 -1.302917E+04 -7.508283E+03  4.269011E+03  2.505231E+03
       134   4  2.605829E+05  5.836484E+03  1.664444E+04 -6.632375E+03  1.265321E+04  3.326624E+03
       134   5  2.594080E+05 -7.822570E+02  8.542856E+03 -2.369964E+03  8.287907E+03  3.024855E+03
       134   6  2.605846E+05 -3.117306E+02  5.057155E+03 -6.631163E+03  3.922577E+03  2.505175E+03
       134   7  3.615714E+05  3.083486E+04  4.068783E+04 -8.368184E+03  1.254861E+04  3.326530E+03
       134   8  3.478767E+05  2.110988E+04  2.956581E+04 -2.799279E+03  8.062322E+03  3.024782E+03
       134   9  3.365542E+05  1.849455E+04  2.314308E+04 -5.753935E+03  3.576101E+03  2.505119E+03
       134  10  1.596036E+05 -1.916267E+04 -7.399985E+03 -4.896885E+03  2.409019E-09  1.112352E-10
       134  11  1.709464E+05 -2.267498E+04 -1.248080E+04 -1.940731E+03 -7.296473E-10 -8.287219E-10
       134  12  1.846202E+05 -1.911843E+04 -1.302922E+04 -7.508291E+03 -1.031582E-09  3.218489E-10
       134  13  2.605828E+05  5.836429E+03  1.664412E+04 -6.632409E+03  2.185143E-10  7.610274E-10
       134  14  2.594079E+05 -7.822853E+02  8.542710E+03 -2.369984E+03  3.913864E-09 -1.918533E-10
       134  15  2.605846E+05 -3.117415E+02  5.057114E+03 -6.631171E+03 -1.033071E-09 -1.183463E-11
       134  16  3.615713E+05  3.083480E+04  4.068751E+04 -8.368217E+03 -3.630941E-10  8.037016E-10
       134  17  3.478767E+05  2.110985E+04  2.956567E+04 -2.799299E+03 -8.688552E-10  2.526273E-10
       134  18  3.365542E+05  1.849454E+04  2.314304E+04 -5.753942E+03  2.529357E-09 -5.050352E-11
       134  19  1.596038E+05 -1.916261E+04 -7.399658E+03 -4.896851E+03 -1.275780E+04 -3.326719E+03
       134  20  1.709465E+05 -2.267495E+04 -1.248064E+04 -1.940710E+03 -8.513461E+03 -3.024929E+03
       134  21  1.846202E+05 -1.911842E+04 -1.302917E+04 -7.508283E+03 -4.269011E+03 -2.505231E+03
       134  22  2.605829E+05  5.836484E+03  1.664444E+04 -6.632375E+03 -1.265321E+04 -3.326624E+03
       134  23  2.594080E+05 -7.822570E+02  8.542856E+03 -2.369964E+03 -8.287907E+03 -3.024855E+03
       134  24  2.605846E+05 -3.117306E+02  5.057155E+03 -6.631163E+03 -3.922577E+03 -2.505175E+03
       134  25  3.615714E+05  3.083486E+04  4.068783E+04 -8.368184E+03 -1.254861E+04 -3.326530E+03
       134  26  3.478767E+05  2.110988E+04  2.956581E+04 -2.799279E+03 -8.062322E+03 -3.024782E+03
       134  27  3.365542E+05  1.849455E+04  2.314308E+04 -5.753935E+03 -3.576101E+03 -2.505119E+03
       135   1  1.993765E+05 -1.447264E+04 -1.046164E+04 -6.515406E+03  3.408134E+03  2.165907E+03
       135   2  2.116573E+05 -1.204217E+04 -9.312705E+03 -2.377567E+03  2.329763E+03  1.650901E+03
       135   3  2.242563E+05 -8.916563E+03 -7.287293E+03 -6.722712E+03  1.251339E+03  1.122003E+03
       135   4  2.601334E+05  5.570805E+02  3.945470E+03 -6.622514E+03  3.127865E+03  2.165865E+03
       135   5  2.599740E+05 -8.480207E+01  2.170068E+03 -2.381019E+03  2.041724E+03  1.650872E+03
       135   6  2.601339E+05 -3.017757E+01  1.276517E+03 -6.622465E+03  9.555522E+02  1.121986E+03
       135   7  3.208938E+05  1.558654E+04  1.835233E+04 -6.729634E+03  2.847569E+03  2.165823E+03
       135   8  3.082927E+05  1.187240E+04  1.365268E+04 -2.384471E+03  1.753664E+03  1.650842E+03
       135   9  2.960127E+05  8.856115E+03  9.840237E+03 -6.522212E+03  6.597488E+02  1.121968E+03
       135  10  1.993765E+05 -1.447265E+04 -1.046167E+04 -6.515412E+03  7.681002E-10  6.218309E-10
       135  11  2.116573E+05 -1.204218E+04 -9.312721E+03 -2.377571E+03  2.644255E-10 -3.552365E-10
       135  12  2.242562E+05 -8.916565E+03 -7.287299E+03 -6.722713E+03 -2.622979E-09  1.772181E-10
       135  13  2.601334E+05  5.570728E+02  3.945443E+03 -6.622520E+03  1.038346E-09  3.596888E-10
       135  14  2.599740E+05 -8.480612E+01  2.170056E+03 -2.381022E+03 -5.385440E-10 -1.302488E-11
       135  15  2.601339E+05 -3.017917E+01  1.276513E+03 -6.622466E+03 -8.611214E-10 -2.884360E-10
       135  16  3.208938E+05  1.558653E+04  1.835230E+04 -6.729638E+03  6.659354E-10  6.630843E-11
       135  17  3.082927E+05  1.187240E+04  1.365267E+04 -2.384473E+03  1.918318E-10  7.492268E-11
       135  18  2.960127E+05  8.856113E+03  9.840234E+03 -6.522213E+03  3.108838E-09 -5.658364E-10
       135  19  1.993765E+05 -1.447264E+04 -1.046164E+04 -6.515406E+03 -3.408134E+03 -2.165907E+03
       135  20  2.116573E+05 -1.204217E+04 -9.312705E+03 -2.377567E+03 -2.329763E+03 -1.650901E+03
       135  21  2.242563E+05 -8.916563E+03 -7.287293E+03 -6.722712E+03 -1.251339E+03 -1.122003E+03
       135  22  2.601334E+05  5.570805E+02  3.945470E+03 -6.622514E+03 -3.127865E+03 -2.165865E+03
       135  23  2.599740E+05 -8.480207E+01  2.170068E+03 -2.381019E+03 -2.041724E+03 -1.650872E+03
       135  24  2.601339E+05 -3.017757E+01  1.276517E+03 -6.622465E+03 -9.555522E+02 -1.121986E+03
       135  25  3.208938E+05  1.558654E+04  1.835233E+04 -6.729634E+03 -2.847569E+03 -2.165823E+03
       135  26  3.082927E+05  1.187240E+04  1.365268E+04 -2.384471E+03 -1.753664E+03 -1.650842E+03
       135  27  2.960127E+05  8.856115E+03  9.840237E+03 -6.522212E+03 -6.597488E+02 -1.121968E+03
       136   1  2.393483E+05 -5.072495E+03 -3.897343E+03 -6.622759E+03  1.043219E+03  8.120192E+02
       136   2  2.517323E+05 -2.068436E+03 -1.379954E+03 -2.393566E+03  7.478010E+02  2.840929E+02
       136   3  2.641733E+05  1.004913E+03  1.347254E+03 -6.629767E+03  4.523645E+02 -2.446119E+02
       136   4  2.600758E+05  4.957154E+01  9.912753E+02 -6.618580E+03  7.519527E+02  8.120071E+02
       136   5  2.600474E+05 -1.066046E+01  5.961503E+02 -2.385887E+03  4.560911E+02  2.840828E+02
       136   6  2.600759E+05 -1.565044E+00  4.111043E+02 -6.618579E+03  1.602166E+02 -2.446196E+02
       136   7  2.808036E+05  5.171608E+03  5.879864E+03 -6.614402E+03  4.606770E+02  8.119951E+02
       136   8  2.683626E+05  2.047110E+03  2.572250E+03 -2.378207E+03  1.643773E+02  2.840726E+02
       136   9  2.559784E+05 -1.008044E+03 -5.250461E+02 -6.607392E+03 -1.319295E+02 -2.446273E+02
       136  10  2.393483E+05 -5.072496E+03 -3.897346E+03 -6.622759E+03 -1.044328E-09  3.245006E-10
       136  11  2.517323E+05 -2.068436E+03 -1.379955E+03 -2.393566E+03  3.029699E-10 -1.551424E-10
       136  12  2.641733E+05  1.004913E+03  1.347253E+03 -6.629767E+03 -4.274436E-10 -3.834531E-11
       136  13  2.600758E+05  4.957068E+01  9.912730E+02 -6.618581E+03  2.589165E-11 -2.395130E-10
       136  14  2.600474E+05 -1.066060E+01  5.961498E+02 -2.385887E+03  4.915845E-10 -2.188642E-10
       136  15  2.600759E+05 -1.565115E+00  4.111041E+02 -6.618579E+03 -5.691040E-10  3.187765E-10
       136  16  2.808036E+05  5.171607E+03  5.879863E+03 -6.614402E+03  5.189583E-10 -8.185244E-10
       136  17  2.683626E+05  2.047110E+03  2.572250E+03 -2.378207E+03 -2.306795E-09 -2.897724E-10
       136  18  2.559784E+05 -1.008044E+03 -5.250462E+02 -6.607392E+03  5.602007E-10  6.632903E-10
       136  19  2.393483E+05 -5.072495E+03 -3.897343E+03 -6.622759E+03 -1.043219E+03 -8.120192E+02
       136  20  2.517323E+05 -2.068436E+03 -1.379954E+03 -2.393566E+03 -7.478010E+02 -2.840929E+02
       136  21  2.641733E+05  1.004913E+03  1.347254E+03 -6.629767E+03 -4.523645E+02  2.446119E+02
       136  22  2.600758E+05  4.957154E+01  9.912753E+02 -6.618580E+03 -7.519527E+02 -8.120071E+02
       136  23  2.600474E+05 -1.066046E+01  5.961503E+02 -2.385887E+03 -4.560911E+02 -2.840828E+02
       136  24  2.600759E+05 -1.565044E+00  4.111043E+02 -6.618579E+03 -1.602166E+02  2.446196E+02
       136  25  2.808036E+05  5.171608E+03  5.879864E+03 -6.614402E+03 -4.606770E+02 -8.119951E+02
       136  26  2.683626E+05  2.047110E+03  2.572250E+03 -2.378207E+03 -1.643773E+02 -2.840726E+02
       136  27  2.559784E+05 -1.008044E+03 -5.250461E+02 -6.607392E+03  1.319295E+02  2.446273E+02
       137   1  2.793089E+05  4.770572E+03  4.977937E+03 -6.618593E+03  3.820358E+02 -5.526435E+02
       137   2  2.917159E+05  7.829376E+03  7.888077E+03 -2.381884E+03  2.013990E+02 -1.081631E+03
       137   3  3.041572E+05  1.092209E+04  1.092468E+04 -6.618162E+03  2.079179E+01 -1.610053E+03
       137   4  2.600707E+05  2.183218E+00  3.684372E+02 -6.620275E+03  8.977969E+01 -5.526533E+02
       137   5  2.600536E+05 -6.027683E+00  3.636456E+02 -2.383768E+03 -9.054092E+01 -1.081649E+03
       137   6  2.600705E+05  1.962917E+01  4.851143E+02 -6.620276E+03 -2.708284E+02 -1.610080E+03
       137   7  2.408328E+05 -4.766232E+03 -4.241088E+03 -6.621956E+03 -2.024674E+02 -5.526631E+02
       137   8  2.283922E+05 -7.841504E+03 -7.160855E+03 -2.385652E+03 -3.824661E+02 -1.081668E+03
       137   9  2.159857E+05 -1.088297E+04 -9.954590E+03 -6.622389E+03 -5.624281E+02 -1.610106E+03
       137  10  2.793089E+05  4.770571E+03  4.977936E+03 -6.618593E+03 -1.132427E-09 -2.444693E-10
       137  11  2.917159E+05  7.829375E+03  7.888074E+03 -2.381884E+03  4.446851E-10 -4.718145E-10
       137  12  3.041572E+05  1.092209E+04  1.092468E+04 -6.618162E+03 -1.916630E-09  5.127978E-10
       137  13  2.600707E+05  2.182888E+00  3.684366E+02 -6.620275E+03  2.150751E-10  1.831895E-10
       137  14  2.600536E+05 -6.028941E+00  3.636434E+02 -2.383768E+03  7.264646E-10 -2.335794E-10
       137  15  2.600705E+05  1.962637E+01  4.851093E+02 -6.620276E+03 -3.325491E-09  4.493717E-10
       137  16  2.408328E+05 -4.766232E+03 -4.241089E+03 -6.621956E+03 -4.866559E-10  4.589201E-10
       137  17  2.283922E+05 -7.841505E+03 -7.160858E+03 -2.385652E+03 -3.126702E-09 -3.607572E-10
       137  18  2.159857E+05 -1.088298E+04 -9.954595E+03 -6.622390E+03  1.413624E-09  3.027753E-10
       137  19  2.793089E+05  4.770572E+03  4.977937E+03 -6.618593E+03 -3.820358E+02  5.526435E+02
       137  20  2.917159E+05  7.829376E+03  7.888077E+03 -2.381884E+03 -2.013990E+02  1.081631E+03
       137  21  3.041572E+05  1.092209E+04  1.092468E+04 -6.618162E+03 -2.079179E+01  1.610053E+03
       137  22  2.600707E+05  2.183218E+00  3.684372E+02 -6.620275E+03 -8.977969E+01  5.526533E+02
       137  23  2.600536E+05 -6.027683E+00  3.636456E+02 -2.383768E+03  9.054092E+01  1.081649E+03
       137  24  2.600705E+05  1.962917E+01  4.851143E+02 -6.620276E+03  2.708284E+02  1.610080E+03
       137  25  2.408328E+05 -4.766232E+03 -4.241088E+03 -6.621956E+03  2.024674E+02  5.526631E+02
       137  26  2.283922E+05 -7.841504E+03 -7.160855E+03 -2.385652E+03  3.824661E+02  1.081668E+03
       137  27  2.159857E+05 -1.088297E+04 -9.954590E+03 -6.622389E+03  5.624281E+02  1.610106E+03
       138   1  3.193600E+05  1.465967E+04  1.471277E+04 -6.583332E+03 -7.059546E+01 -1.920896E+03
       138   2  3.317616E+05  1.771508E+04  1.799892E+04 -2.370682E+03 -5.551773E+02 -2.450833E+03
       138   3  3.443081E+05  2.106740E+04  2.167620E+04 -6.665323E+03 -1.039689E+03 -2.964888E+03
       138   4  2.600944E+05 -1.386030E+01  5.915011E+02 -6.627895E+03 -3.675739E+02 -1.920933E+03
       138   5  2.600225E+05 -3.760142E+01  9.508394E+02 -2.374237E+03 -8.433374E+02 -2.450887E+03
       138   6  2.600939E+05  2.341236E+02  1.695274E+03 -6.627930E+03 -1.319021E+03 -2.964959E+03
       138   7  2.008320E+05 -1.468765E+04 -1.353001E+04 -6.672453E+03 -6.645242E+02 -1.920969E+03
       138   8  1.882880E+05 -1.779065E+04 -1.609760E+04 -2.377791E+03 -1.131464E+03 -2.450942E+03
       138   9  1.758863E+05 -2.059967E+04 -1.828614E+04 -6.590542E+03 -1.598316E+03 -2.965031E+03
       138  10  3.193600E+05  1.465967E+04  1.471276E+04 -6.583332E+03 -5.429845E-10  5.641373E-10
       138  11  3.317616E+05  1.771507E+04  1.799891E+04 -2.370683E+03  3.850229E-11 -5.788580E-10
       138  12  3.443081E+05  2.106739E+04  2.167618E+04 -6.665325E+03  1.370781E-09  3.727241E-10
       138  13  2.600944E+05 -1.386430E+01  5.914939E+02 -6.627895E+03 -1.018154E-09  6.643515E-10
       138  14  2.600225E+05 -3.760806E+01  9.508267E+02 -2.374238E+03  1.521735E-09 -1.269260E-10
       138  15  2.600939E+05  2.341137E+02  1.695254E+03 -6.627933E+03  3.685563E-10  8.568335E-11
       138  16  2.008320E+05 -1.468765E+04 -1.353002E+04 -6.672454E+03 -5.175699E-11  6.121274E-10
       138  17  1.882880E+05 -1.779066E+04 -1.609761E+04 -2.377793E+03  6.293197E-10  2.486547E-10
       138  18  1.758863E+05 -2.059968E+04 -1.828616E+04 -6.590545E+03  7.076949E-10  6.971166E-11
       138  19  3.193600E+05  1.465967E+04  1.471277E+04 -6.583332E+03  7.059546E+01  1.920896E+03
       138  20  3.317616E+05  1.771508E+04  1.799892E+04 -2.370682E+03  5.551773E+02  2.450833E+03
       138  21  3.443081E+05  2.106740E+04  2.167620E+04 -6.665323E+03  1.039689E+03  2.964888E+03
       138  22  2.600944E+05 -1.386030E+01  5.915011E+02 -6.627895E+03  3.675739E+02  1.920933E+03
       138  23  2.600225E+05 -3.760142E+01  9.508394E+02 -2.374237E+03  8.433374E+02  2.450887E+03
       138  24  2.600939E+05  2.341236E+02  1.695274E+03 -6.627930E+03  1.319021E+03  2.964959E+03
       138  25  2.008320E+05 -1.468765E+04 -1.353001E+04 -6.672453E+03  6.645242E+02  1.920969E+03
       138  26  1.882880E+05 -1.779065E+04 -1.609760E+04 -2.377791E+03  1.131464E+03  2.450942E+03
       138  27  1.758863E+05 -2.059967E+04 -1.828614E+04 -6.590542E+03  1.598316E+03  2.965031E+03
       139   1  3.597662E+05  2.448807E+04  2.583683E+04 -6.254966E+03 -1.303625E+03 -3.310053E+03
       139   2  3.718135E+05  2.738738E+04  3.026529E+04 -2.526108E+03 -3.304875E+03 -3.829467E+03
       139   3  3.848988E+05  3.332652E+04  3.675969E+04 -7.356328E+03 -5.306164E+03 -4.095996E+03
       139   4  2.602866E+05 -1.354370E+02  2.165061E+03 -6.639197E+03 -1.659885E+03 -3.310155E+03
       139   5  2.597793E+05 -3.359017E+02  3.642700E+03 -2.359995E+03 -3.521182E+03 -3.829569E+03
       139   6  2.602855E+05  2.479437E+03  7.089343E+03 -6.639947E+03 -5.382475E+03 -4.096081E+03
       139   7  1.608160E+05 -2.475966E+04 -2.150740E+04 -7.023366E+03 -2.016089E+03 -3.310257E+03
       139   8  1.477566E+05 -2.806009E+04 -2.298077E+04 -2.193913E+03 -3.737449E+03 -3.829671E+03
       139   9  1.356864E+05 -2.836876E+04 -2.258209E+04 -5.923712E+03 -5.458770E+03 -4.096166E+03
       139  10  3.597662E+05  2.448806E+04  2.583680E+04 -6.254969E+03 -1.703397E-10  2.942699E-10
       139  11  3.718135E+05  2.738737E+04  3.026525E+04 -2.526119E+03 -2.136764E-09 -7.772356E-10
       139  12  3.848987E+05  3.332649E+04  3.675960E+04 -7.356345E+03  8.576379E-13 -8.543719E-10
       139  13  2.602866E+05 -1.354495E+02  2.165035E+03 -6.639201E+03  1.198471E-09  1.277193E-10
       139  14  2.597793E+05 -3.359208E+02  3.642649E+03 -2.360006E+03  1.077224E-09 -5.172238E-10
       139  15  2.602854E+05  2.479411E+03  7.089257E+03 -6.639965E+03  1.028296E-09 -9.171857E-10
       139  16  1.608160E+05 -2.475967E+04 -2.150743E+04 -7.023372E+03 -3.868308E-10 -4.758502E-12
       139  17  1.477565E+05 -2.806011E+04 -2.298082E+04 -2.193925E+03 -1.055399E-09  2.613813E-10
       139  18  1.356864E+05 -2.836879E+04 -2.258218E+04 -5.923730E+03  1.532860E-09 -7.131997E-10
       139  19  3.597662E+05  2.448807E+04  2.583683E+04 -6.254966E+03  1.303625E+03  3.310053E+03
       139  20  3.718135E+05  2.738738E+04  3.026529E+04 -2.526108E+03  3.304875E+03  3.829467E+03
       139  21  3.848988E+05  3.332652E+04  3.675969E+04 -7.356328E+03  5.306164E+03  4.095996E+03
       139  22  2.602866E+05 -1.354370E+02  2.165061E+03 -6.639197E+03  1.659885E+03  3.310155E+03
       139  23  2.597793E+05 -3.359017E+02  3.642700E+03 -2.359995E+03  3.521182E+03  3.829569E+03
       139  24  2.602855E+05  2.479437E+03  7.089343E+03 -6.639947E+03  5.382475E+03  4.096081E+03
       139  25  1.608160E+05 -2.475966E+04 -2.150740E+04 -7.023366E+03  2.016089E+03  3.310257E+03
       139  26  1.477566E+05 -2.806009E+04 -2.298077E+04 -2.193913E+03  3.737449E+03  3.829671E+03
       139  27  1.356864E+05 -2.836876E+04 -2.258209E+04 -5.923712E+03  5.458770E+03  4.096166E+03
       140   1  4.020173E+05  3.328925E+04  4.193686E+04 -3.092967E+03 -5.500455E+03 -4.930781E+03
       140   2  4.102489E+05  3.451500E+04  5.028391E+04 -4.856827E+03 -1.516343E+04 -5.242415E+03
       140   3  4.274874E+05  6.661904E+04  7.264500E+04 -1.517540E+04 -2.482855E+04 -1.746939E+03
       140   4  2.619808E+05 -1.355659E+03  8.711677E+03 -6.634620E+03 -6.720818E+03 -4.931256E+03
       140   5  2.576568E+05 -3.239547E+03  1.403269E+04 -2.363819E+03 -1.427961E+04 -5.242173E+03
       140   6  2.619766E+05  2.539365E+04  3.190930E+04 -6.647690E+03 -2.184031E+04 -1.745754E+03
       140   7  1.219622E+05 -3.600193E+04 -2.451486E+04 -1.017547E+04 -7.940907E+03 -4.931718E+03
       140   8  1.050860E+05 -4.099574E+04 -2.222014E+04  1.285710E+02 -1.339601E+04 -5.241924E+03
       140   9  9.649088E+04 -1.583350E+04 -8.828335E+03  1.877742E+03 -1.885287E+04 -1.744486E+03
       140  10  4.020173E+05  3.328921E+04  4.193675E+04 -3.092989E+03 -3.614384E-10 -9.301962E-10
       140  11  4.102487E+05  3.451491E+04  5.028343E+04 -4.856891E+03 -2.248484E-09 -1.546237E-09
       140  12  4.274867E+05  6.661887E+04  7.264383E+04 -1.517544E+04  8.402981E-10 -3.509936E-10
       140  13  2.619807E+05 -1.355698E+03  8.711546E+03 -6.634647E+03 -8.484747E-11 -2.246300E-09
       140  14  2.576566E+05 -3.239632E+03  1.403226E+04 -2.363879E+03 -2.637036E-10  6.851786E-10
       140  15  2.619761E+05  2.539352E+04  3.190840E+04 -6.647721E+03 -2.085656E-09  1.075578E-10
       140  16  1.219621E+05 -3.600197E+04 -2.451502E+04 -1.017550E+04  7.651494E-10 -9.700136E-10
       140  17  1.050858E+05 -4.099582E+04 -2.222053E+04  1.285144E+02 -1.337578E-09  8.122913E-10
       140  18  9.649050E+04 -1.583360E+04 -8.829008E+03  1.877715E+03 -9.908890E-10 -3.616598E-10
       140  19  4.020173E+05  3.328925E+04  4.193686E+04 -3.092967E+03  5.500455E+03  4.930781E+03
       140  20  4.102489E+05  3.451500E+04  5.028391E+04 -4.856827E+03  1.516343E+04  5.242415E+03
       140  21  4.274874E+05  6.661904E+04  7.264500E+04 -1.517540E+04  2.482855E+04  1.746939E+03
       140  22  2.619808E+05 -1.355659E+03  8.711677E+03 -6.634620E+03  6.720818E+03  4.931256E+03
       140  23  2.576568E+05 -3.239547E+03  1.403269E+04 -2.363819E+03  1.427961E+04  5.242173E+03
       140  24  2.619766E+05  2.539365E+04  3.190930E+04 -6.647690E+03  2.184031E+04  1.745754E+03
       140  25  1.219622E+05 -3.600193E+04 -2.451486E+04 -1.017547E+04  7.940907E+03  4.931718E+03
       140  26  1.050860E+05 -4.099574E+04 -2.222014E+04  1.285710E+02  1.339601E+04  5.241924E+03
       140  27  9.649088E+04 -1.583350E+04 -8.828335E+03  1.877742E+03  1.885287E+04  1.744486E+03
       141   1  2.329672E+06  9.428137E+06  2.322565E+06 -1.201031E+06  8.620806E+04  1.881394E+05
       141   2  1.702304E+06  7.214702E+06  1.689287E+06 -4.605640E+05  2.380981E+05  3.894178E+04
       141   3  1.209528E+06  5.082948E+06  1.190434E+06 -1.185370E+06  1.628735E+05 -1.111044E+05
       141   4  6.072531E+04  2.753660E+05  7.883456E+04 -1.153490E+06  8.685491E+04  4.003300E+04
       141   5 -1.419255E+04  2.506791E+05  4.166917E+04 -4.203880E+05  2.384214E+05  1.811771E+04
       141   6  2.438514E+04  2.817295E+05  5.200991E+04 -1.153565E+06  1.617507E+05 -5.174358E+03
       141   7 -2.214393E+06 -8.801838E+06 -2.170955E+06 -1.106507E+06  8.748591E+04 -1.059220E+05
       141   8 -1.734155E+06 -6.669123E+06 -1.609311E+06 -3.805705E+05  2.387445E+05 -2.476824E+03
       141   9 -1.162404E+06 -4.498410E+06 -1.087977E+06 -1.121928E+06  1.606340E+05  9.994578E+04
       141  10  2.329654E+06  9.428098E+06  2.322485E+06 -1.201044E+06  8.478366E-10  7.559996E-10
       141  11  1.702243E+06  7.214685E+06  1.689177E+06 -4.605714E+05 -8.196119E-11 -2.308606E-10
       141  12  1.209497E+06  5.082928E+06  1.190362E+06 -1.185355E+06  3.320207E-09 -5.960769E-09
       141  13  6.071677E+04  2.753622E+05  7.881734E+04 -1.153493E+06 -3.994258E-10 -5.673965E-11
       141  14 -1.425369E+04  2.506634E+05  4.156170E+04 -4.203915E+05 -3.759754E-09 -3.452194E-09
       141  15  2.435704E+04  2.817225E+05  5.196070E+04 -1.153564E+06  6.421772E-10 -1.675900E-08
       141  16 -2.214405E+06 -8.801853E+06 -2.170991E+06 -1.106499E+06  3.220405E-10 -6.780740E-10
       141  17 -1.734217E+06 -6.669138E+06 -1.609418E+06 -3.805700E+05  6.901582E-09 -1.913104E-10
       141  18 -1.162435E+06 -4.498428E+06 -1.088045E+06 -1.121941E+06 -4.139887E-09 -3.655185E-10
       141  19  2.329672E+06  9.428137E+06  2.322565E+06 -1.201031E+06 -8.620806E+04 -1.881394E+05
       141  20  1.702304E+06  7.214702E+06  1.689287E+06 -4.605640E+05 -2.380981E+05 -3.894178E+04
       141  21  1.209528E+06  5.082948E+06  1.190434E+06 -1.185370E+06 -1.628735E+05  1.111044E+05
       141  22  6.072531E+04  2.753660E+05  7.883456E+04 -1.153490E+06 -8.685491E+04 -4.003300E+04
       141  23 -1.419255E+04  2.506791E+05  4.166917E+04 -4.203880E+05 -2.384214E+05 -1.811771E+04
       141  24  2.438514E+04  2.817295E+05  5.200991E+04 -1.153565E+06 -1.617507E+05  5.174358E+03
       141  25 -2.214393E+06 -8.801838E+06 -2.170955E+06 -1.106507E+06 -8.748591E+04  1.059220E+05
       141  26 -1.734155E+06 -6.669123E+06 -1.609311E+06 -3.805705E+05 -2.387445E+05  2.476824E+03
       141  27 -1.162404E+06 -4.498410E+06 -1.087977E+06 -1.121928E+06 -1.606340E+05 -9.994578E+04
       142   1  5.604755E+05  2.431342E+06  5.665154E+05 -1.179934E+06  7.539868E+04 -5.741757E+04
       142   2  4.542435E+03  2.797448E+05  7.408583E+04 -4.167580E+05  1.200148E+03 -9.555622E+04
       142   3 -4.677780E+05 -1.880472E+06 -3.817139E+05 -1.122435E+06 -7.290110E+04 -1.335673E+05
       142   4  2.625733E+04  2.713985E+05  5.416245E+04 -1.154186E+06  7.489866E+04 -1.610222E+04
       142   5  4.165672E+03  2.778875E+05  7.364964E+04 -4.195674E+05  7.094399E+02 -5.435564E+04
       142   6  6.599529E+04  2.714002E+05  1.300573E+05 -1.153718E+06 -7.339410E+04 -9.260954E+04
       142   7 -5.082938E+05 -1.884269E+06 -4.585090E+05 -1.128512E+06  7.440108E+04  2.507062E+04
       142   8  3.789850E+03  2.760338E+05  7.321983E+04 -4.223768E+05  2.183581E+02 -1.315518E+04
       142   9  5.994375E+05  2.427534E+06  6.415112E+05 -1.185094E+06 -7.389029E+04 -5.150979E+04
       142  10  5.604685E+05  2.431337E+06  5.664985E+05 -1.179930E+06 -1.859392E-09  5.293436E-09
       142  11  4.539984E+03  2.797350E+05  7.406867E+04 -4.167579E+05  3.242249E-09  7.308495E-10
       142  12 -4.677885E+05 -1.880492E+06 -3.817576E+05 -1.122443E+06 -1.138233E-09 -6.604010E-09
       142  13  2.625124E+04  2.713967E+05  5.415143E+04 -1.154185E+06 -2.200320E-09 -8.505169E-11
       142  14  4.164879E+03  2.778843E+05  7.364409E+04 -4.195674E+05  9.921742E-09 -6.102550E-09
       142  15  6.598718E+04  2.713896E+05  1.300310E+05 -1.153724E+06  1.088437E-08 -1.867404E-08
       142  16 -5.083000E+05 -1.884271E+06 -4.585206E+05 -1.128513E+06 -4.907615E-09 -5.162540E-09
       142  17  3.789803E+03  2.760336E+05  7.321951E+04 -4.223768E+05 -5.522713E-09 -3.973288E-09
       142  18  5.994309E+05  2.427530E+06  6.414959E+05 -1.185097E+06 -3.130509E-09  8.602473E-10
       142  19  5.604755E+05  2.431342E+06  5.665154E+05 -1.179934E+06 -7.539868E+04  5.741757E+04
       142  20  4.542435E+03  2.797448E+05  7.408583E+04 -4.167580E+05 -1.200148E+03  9.555622E+04
       142  21 -4.677780E+05 -1.880472E+06 -3.817139E+05 -1.122435E+06  7.290110E+04  1.335673E+05
       142  22  2.625733E+04  2.713985E+05  5.416245E+04 -1.154186E+06 -7.489866E+04  1.610222E+04
       142  23  4.165672E+03  2.778875E+05  7.364964E+04 -4.195674E+05 -7.094399E+02  5.435564E+04
       142  24  6.599529E+04  2.714002E+05  1.300573E+05 -1.153718E+06  7.339410E+04  9.260954E+04
       142  25 -5.082938E+05 -1.884269E+06 -4.585090E+05 -1.128512E+06 -7.440108E+04 -2.507062E+04
       142  26  3.789850E+03  2.760338E+05  7.321983E+04 -4.223768E+05 -2.183581E+02  1.315518E+04
       142  27  5.994375E+05  2.427534E+06  6.415112E+05 -1.185094E+06  7.389029E+04  5.150979E+04
       143   1 -1.184089E+06 -4.466139E+06 -9.784407E+05 -1.174807E+06 -1.589683E+05 -2.234906E+05
       143   2 -1.782411E+06 -6.700774E+06 -1.406069E+06 -3.420881E+05 -2.368386E+05 -2.296983E+05
       143   3 -1.827660E+06 -8.766721E+06 -1.686860E+06 -9.765363E+05 -8.618990E+04 -2.344846E+05
       143   4  3.290372E+02  3.103763E+05  1.603297E+05 -1.154125E+06 -1.601000E+05 -1.189574E+05
       143   5 -6.270655E+04  2.148996E+05  2.440237E+05 -4.202287E+05 -2.364917E+05 -2.515475E+05
       143   6  4.464753E+05  3.040087E+05  5.610948E+05 -1.152187E+06 -8.548994E+04 -3.827634E+05
       143   7  1.183110E+06  5.107945E+06  1.297543E+06 -1.133204E+06 -1.612197E+05 -1.361643E+04
       143   8  1.653547E+06  7.174750E+06  1.890759E+06 -4.991604E+05 -2.361419E+05 -2.736286E+05
       143   9  2.714544E+06  9.450271E+06  2.803013E+06 -1.330299E+06 -8.471278E+04 -5.331965E+05
       143  10 -1.184130E+06 -4.466200E+06 -9.785830E+05 -1.174836E+06  2.581221E-09  2.431145E-09
       143  11 -1.782486E+06 -6.700846E+06 -1.406274E+06 -3.421321E+05  1.780185E-09  4.586836E-10
       143  12 -1.827683E+06 -8.766783E+06 -1.686978E+06 -9.765527E+05 -3.360415E-10 -3.132584E-09
       143  13  2.976609E+02  3.103541E+05  1.602548E+05 -1.154140E+06 -5.835569E-09 -2.703997E-11
       143  14 -6.278364E+04  2.148166E+05  2.437996E+05 -4.202766E+05  3.325280E-09 -3.509515E-09
       143  15  4.464280E+05  3.038494E+05  5.608056E+05 -1.152214E+06 -8.302293E-10 -3.378154E-09
       143  16  1.183082E+06  5.107938E+06  1.297493E+06 -1.133205E+06  1.967912E-09 -2.634295E-09
       143  17  1.653467E+06  7.174656E+06  1.890514E+06 -4.992122E+05  1.764313E-09 -2.872293E-09
       143  18  2.714462E+06  9.449967E+06  2.802472E+06 -1.330335E+06 -1.160961E-09  1.969931E-09
       143  19 -1.184089E+06 -4.466139E+06 -9.784407E+05 -1.174807E+06  1.589683E+05  2.234906E+05
       143  20 -1.782411E+06 -6.700774E+06 -1.406069E+06 -3.420881E+05  2.368386E+05  2.296983E+05
       143  21 -1.827660E+06 -8.766721E+06 -1.686860E+06 -9.765363E+05  8.618990E+04  2.344846E+05
       143  22  3.290372E+02  3.103763E+05  1.603297E+05 -1.154125E+06  1.601000E+05  1.189574E+05
       143  23 -6.270655E+04  2.148996E+05  2.440237E+05 -4.202287E+05  2.364917E+05  2.515475E+05
       143  24  4.464753E+05  3.040087E+05  5.610948E+05 -1.152187E+06  8.548994E+04  3.827634E+05
       143  25  1.183110E+06  5.107945E+06  1.297543E+06 -1.133204E+06  1.612197E+05  1.361643E+04
       143  26  1.653547E+06  7.174750E+06  1.890759E+06 -4.991604E+05  2.361419E+05  2.736286E+05
       143  27  2.714544E+06  9.450271E+06  2.803013E+06 -1.330299E+06  8.471278E+04  5.331965E+05
       144   1 -4.850286E+05 -2.133594E+05 -1.084039E+05 -2.075356E+05 -5.279432E+04 -1.582233E+04
       144   2 -4.583009E+05 -1.653103E+05 -6.506261E+04 -1.961699E+05 -3.246470E+04  1.086533E+03
       144   3 -4.382123E+05 -1.398763E+05 -4.425315E+04 -1.848274E+05 -9.864472E+03  1.195426E+04
       144   4 -2.408489E+05 -9.835969E+04 -4.192518E+04 -1.163781E+05 -2.875525E+04 -6.800626E+03
       144   5 -2.366133E+05 -7.269878E+04 -2.007022E+04 -1.222368E+05 -2.144786E+04  5.220638E+03
       144   6 -2.364331E+05 -6.706911E+04 -1.042189E+04 -1.281202E+05 -1.187150E+04  1.120044E+04
       144   7  3.386535E+03  1.665274E+04  2.454920E+04 -2.518618E+04 -4.706408E+03  2.227059E+03
       144   8 -1.487531E+04  1.992108E+04  2.491991E+04 -4.827797E+04 -1.042689E+04  9.356828E+03
       144   9 -3.460884E+04  5.742878E+03  2.340882E+04 -7.139527E+04 -1.387923E+04  1.044636E+04
       144  10 -4.850316E+05 -2.133605E+05 -1.084096E+05 -2.075363E+05  2.380196E-09 -2.581634E-10
       144  11 -4.583021E+05 -1.653106E+05 -6.506460E+04 -1.961699E+05  2.177504E-09 -1.178311E-09
       144  12 -4.382124E+05 -1.398765E+05 -4.425360E+04 -1.848273E+05 -1.158375E-09 -6.839895E-10
       144  13 -2.408498E+05 -9.835996E+04 -4.192682E+04 -1.163782E+05 -1.904618E-09 -5.516051E-11
       144  14 -2.366138E+05 -7.269893E+04 -2.007114E+04 -1.222367E+05  1.524554E-09 -6.831961E-11
       144  15 -2.364333E+05 -6.706928E+04 -1.042239E+04 -1.281201E+05  1.158395E-09 -2.282298E-10
       144  16  3.386509E+03  1.665273E+04  2.454915E+04 -2.518617E+04  1.965716E-09  3.551027E-10
       144  17 -1.487545E+04  1.992095E+04  2.491954E+04 -4.827789E+04  1.232281E-09  8.846458E-10
       144  18 -3.460908E+04  5.742709E+03  2.340826E+04 -7.139516E+04  9.082492E-10  1.444223E-09
       144  19 -4.850286E+05 -2.133594E+05 -1.084039E+05 -2.075356E+05  5.279432E+04  1.582233E+04
       144  20 -4.583009E+05 -1.653103E+05 -6.506261E+04 -1.961699E+05  3.246470E+04 -1.086533E+03
       144  21 -4.382123E+05 -1.398763E+05 -4.425315E+04 -1.848274E+05  9.864472E+03 -1.195426E+04
       144  22 -2.408489E+05 -9.835969E+04 -4.192518E+04 -1.163781E+05  2.875525E+04  6.800626E+03
       144  23 -2.366133E+05 -7.269878E+04 -2.007022E+04 -1.222368E+05  2.144786E+04 -5.220638E+03
       144  24 -2.364331E+05 -6.706911E+04 -1.042189E+04 -1.281202E+05  1.187150E+04 -1.120044E+04
       144  25  3.386535E+03  1.665274E+04  2.454920E+04 -2.518618E+04  4.706408E+03 -2.227059E+03
       144  26 -1.487531E+04  1.992108E+04  2.491991E+04 -4.827797E+04  1.042689E+04 -9.356828E+03
       144  27 -3.460884E+04  5.742878E+03  2.340882E+04 -7.139527E+04  1.387923E+04 -1.044636E+04
       145   1 -4.173419E+05 -1.330458E+05 -3.757892E+04 -1.805596E+05 -8.498149E+03  1.160478E+04
       145   2 -3.896874E+05 -1.178727E+05 -2.767365E+04 -1.701288E+05 -4.520436E+03  1.168978E+04
       145   3 -3.592960E+05 -1.081577E+05 -2.081976E+04 -1.637772E+05 -2.834197E+02  1.108384E+04
       145   4 -2.352112E+05 -6.628455E+04 -7.726521E+03 -1.280743E+05 -1.041476E+04  1.088500E+04
       145   5 -2.365593E+05 -6.252146E+04 -4.009616E+03 -1.264773E+05 -7.926187E+03  1.041134E+04
       145   6 -2.348756E+05 -6.392115E+04 -2.163310E+03 -1.289600E+05 -5.178480E+03  9.246772E+03
       145   7 -5.304715E+04  4.796414E+02  2.212452E+04 -7.557492E+04 -1.233195E+04  1.016500E+04
       145   8 -8.340575E+04 -7.167557E+03  1.965412E+04 -8.281555E+04 -1.133283E+04  9.132561E+03
       145   9 -1.104369E+05 -1.968239E+04  1.649349E+04 -9.413567E+04 -1.007464E+04  7.409295E+03
       145  10 -4.173421E+05 -1.330460E+05 -3.757931E+04 -1.805596E+05  2.505245E-09 -8.959871E-11
       145  11 -3.896875E+05 -1.178729E+05 -2.767395E+04 -1.701288E+05  1.131994E-09 -1.243738E-09
       145  12 -3.592960E+05 -1.081578E+05 -2.081999E+04 -1.637772E+05  2.994446E-11 -1.696523E-09
       145  13 -2.352113E+05 -6.628471E+04 -7.726947E+03 -1.280742E+05 -1.234238E-09 -8.526294E-11
       145  14 -2.365594E+05 -6.252159E+04 -4.009937E+03 -1.264772E+05 -1.748542E-09 -1.422514E-09
       145  15 -2.348757E+05 -6.392125E+04 -2.163521E+03 -1.289599E+05 -2.227131E-10 -7.398651E-10
       145  16 -5.304734E+04  4.794896E+02  2.212404E+04 -7.557482E+04 -3.581646E-09 -4.925537E-10
       145  17 -8.340591E+04 -7.167681E+03  1.965372E+04 -8.281547E+04 -1.759251E-09 -1.162203E-10
       145  18 -1.104370E+05 -1.968248E+04  1.649319E+04 -9.413561E+04  1.756817E-09 -6.223940E-11
       145  19 -4.173419E+05 -1.330458E+05 -3.757892E+04 -1.805596E+05  8.498149E+03 -1.160478E+04
       145  20 -3.896874E+05 -1.178727E+05 -2.767365E+04 -1.701288E+05  4.520436E+03 -1.168978E+04
       145  21 -3.592960E+05 -1.081577E+05 -2.081976E+04 -1.637772E+05  2.834197E+02 -1.108384E+04
       145  22 -2.352112E+05 -6.628455E+04 -7.726521E+03 -1.280743E+05  1.041476E+04 -1.088500E+04
       145  23 -2.365593E+05 -6.252146E+04 -4.009616E+03 -1.264773E+05  7.926187E+03 -1.041134E+04
       145  24 -2.348756E+05 -6.392115E+04 -2.163310E+03 -1.289600E+05  5.178480E+03 -9.246772E+03
       145  25 -5.304715E+04  4.796414E+02  2.212452E+04 -7.557492E+04  1.233195E+04 -1.016500E+04
       145  26 -8.340575E+04 -7.167557E+03  1.965412E+04 -8.281555E+04  1.133283E+04 -9.132561E+03
       145  27 -1.104369E+05 -1.968239E+04  1.649349E+04 -9.413567E+04  1.007464E+04 -7.409295E+03
       146   1 -3.406551E+05 -1.016065E+05 -1.733583E+04 -1.587009E+05  5.007977E+02  9.842780E+03
       146   2 -3.131099E+05 -8.905716E+04 -1.215335E+04 -1.482564E+05  1.973190E+03  7.765595E+03
       146   3 -2.818585E+05 -8.048261E+04 -7.457843E+03 -1.421923E+05  3.475097E+03  5.609380E+03
       146   4 -2.347490E+05 -6.387615E+04 -1.615613E+03 -1.289412E+05 -4.384476E+03  8.009505E+03
       146   5 -2.366079E+05 -6.183649E+04 -8.736745E+02 -1.267764E+05 -3.082465E+03  5.868539E+03
       146   6 -2.347278E+05 -6.373787E+04 -4.837109E+02 -1.289924E+05 -1.750975E+03  3.648543E+03
       146   7 -1.288306E+05 -2.614457E+04  1.410457E+04 -9.917673E+04 -9.270627E+03  6.175902E+03
       146   8 -1.601000E+05 -3.461536E+04  1.040591E+04 -1.052941E+05 -8.138744E+03  3.971249E+03
       146   9 -1.875951E+05 -4.699310E+04  6.490344E+03 -1.157916E+05 -6.977399E+03  1.687574E+03
       146  10 -3.406551E+05 -1.016066E+05 -1.733601E+04 -1.587010E+05 -8.066991E-10 -8.928607E-10
       146  11 -3.131100E+05 -8.905723E+04 -1.215347E+04 -1.482564E+05  2.487788E-09 -3.577816E-10
       146  12 -2.818585E+05 -8.048265E+04 -7.457925E+03 -1.421923E+05  2.615372E-09 -1.593690E-11
       146  13 -2.347490E+05 -6.387623E+04 -1.615770E+03 -1.289412E+05  1.109130E-09 -6.120060E-10
       146  14 -2.366079E+05 -6.183653E+04 -8.737570E+02 -1.267764E+05  2.244915E-10  3.136311E-10
       146  15 -2.347278E+05 -6.373788E+04 -4.837417E+02 -1.289923E+05 -8.436533E-10 -1.578401E-09
       146  16 -1.288307E+05 -2.614463E+04  1.410434E+04 -9.917668E+04  1.707479E-09  1.978710E-10
       146  17 -1.601000E+05 -3.461540E+04  1.040575E+04 -1.052941E+05 -1.798151E-09 -1.079771E-09
       146  18 -1.875952E+05 -4.699312E+04  6.490248E+03 -1.157916E+05 -3.376843E-09 -2.231409E-09
       146  19 -3.406551E+05 -1.016065E+05 -1.733583E+04 -1.587009E+05 -5.007977E+02 -9.842780E+03
       146  20 -3.131099E+05 -8.905716E+04 -1.215335E+04 -1.482564E+05 -1.973190E+03 -7.765595E+03
       146  21 -2.818585E+05 -8.048261E+04 -7.457843E+03 -1.421923E+05 -3.475097E+03 -5.609380E+03
       146  22 -2.347490E+05 -6.387615E+04 -1.615613E+03 -1.289412E+05  4.384476E+03 -8.009505E+03
       146  23 -2.366079E+05 -6.183649E+04 -8.736745E+02 -1.267764E+05  3.082465E+03 -5.868539E+03
       146  24 -2.347278E+05 -6.373787E+04 -4.837109E+02 -1.289924E+05  1.750975E+03 -3.648543E+03
       146  25 -1.288306E+05 -2.614457E+04  1.410457E+04 -9.917673E+04  9.270627E+03 -6.175902E+03
       146  26 -1.601000E+05 -3.461536E+04  1.040591E+04 -1.052941E+05  8.138744E+03 -3.971249E+03
       146  27 -1.875951E+05 -4.699310E+04  6.490344E+03 -1.157916E+05  6.977399E+03 -1.687574E+03
       147   1 -2.634441E+05 -7.392954E+04 -4.521992E+03 -1.370404E+05  4.073744E+03  4.221675E+03
       147   2 -2.359428E+05 -6.155831E+04 -1.260867E+02 -1.265762E+05  5.106987E+03  1.840883E+03
       147   3 -2.046215E+05 -5.303496E+04  4.176670E+03 -1.205076E+05  6.143097E+03 -5.475755E+02
       147   4 -2.347125E+05 -6.373869E+04 -3.663466E+02 -1.289875E+05 -1.151352E+03  2.261248E+03
       147   5 -2.366233E+05 -6.181724E+04 -2.126428E+02 -1.267889E+05 -1.348061E+02 -1.258226E+02
       147   6 -2.347126E+05 -6.374078E+04 -1.391923E+02 -1.289866E+05  8.845965E+02 -2.520557E+03
       147   7 -2.059797E+05 -5.354758E+04  3.789514E+03 -1.209340E+05 -6.376768E+03  3.007009E+02
       147   8 -2.373039E+05 -6.207614E+04 -2.990823E+02 -1.270016E+05 -5.376628E+03 -2.092538E+03
       147   9 -2.648027E+05 -7.444649E+04 -4.454946E+03 -1.374651E+05 -4.373638E+03 -4.493438E+03
       147  10 -2.634441E+05 -7.392957E+04 -4.522057E+03 -1.370404E+05 -3.967607E-10 -1.534620E-09
       147  11 -2.359428E+05 -6.155832E+04 -1.261421E+02 -1.265762E+05  2.914423E-09  2.638419E-10
       147  12 -2.046216E+05 -5.303497E+04  4.176598E+03 -1.205076E+05 -1.466646E-09  3.739625E-09
       147  13 -2.347125E+05 -6.373870E+04 -3.663587E+02 -1.289875E+05  1.471229E-09 -1.404106E-09
       147  14 -2.366233E+05 -6.181724E+04 -2.126428E+02 -1.267889E+05 -1.075749E-09 -6.683472E-10
       147  15 -2.347126E+05 -6.374079E+04 -1.392057E+02 -1.289866E+05  1.535689E-10  1.857449E-09
       147  16 -2.059797E+05 -5.354759E+04  3.789437E+03 -1.209340E+05  1.056656E-09 -1.226876E-09
       147  17 -2.373039E+05 -6.207615E+04 -2.991448E+02 -1.270016E+05 -1.167581E-09 -6.674699E-10
       147  18 -2.648027E+05 -7.444652E+04 -4.455020E+03 -1.374651E+05 -9.076560E-10 -6.583533E-10
       147  19 -2.634441E+05 -7.392954E+04 -4.521992E+03 -1.370404E+05 -4.073744E+03 -4.221675E+03
       147  20 -2.359428E+05 -6.155831E+04 -1.260867E+02 -1.265762E+05 -5.106987E+03 -1.840883E+03
       147  21 -2.046215E+05 -5.303496E+04  4.176670E+03 -1.205076E+05 -6.143097E+03  5.475755E+02
       147  22 -2.347125E+05 -6.373869E+04 -3.663466E+02 -1.289875E+05  1.151352E+03 -2.261248E+03
       147  23 -2.366233E+05 -6.181724E+04 -2.126428E+02 -1.267889E+05  1.348061E+02  1.258226E+02
       147  24 -2.347126E+05 -6.374078E+04 -1.391923E+02 -1.289866E+05 -8.845965E+02  2.520557E+03
       147  25 -2.059797E+05 -5.354758E+04  3.789514E+03 -1.209340E+05  6.376768E+03 -3.007009E+02
       147  26 -2.373039E+05 -6.207614E+04 -2.990823E+02 -1.270016E+05  5.376628E+03  2.092538E+03
       147  27 -2.648027E+05 -7.444649E+04 -4.454946E+03 -1.374651E+05  4.373638E+03  4.493438E+03
       148   1 -1.862358E+05 -4.647627E+04  6.999472E+03 -1.153486E+05  6.697640E+03 -1.959206E+03
       148   2 -1.587468E+05 -3.410998E+04  1.123211E+04 -1.048811E+05  7.647470E+03 -4.378060E+03
       148   3 -1.274240E+05 -2.557918E+04  1.543789E+04 -9.880746E+04  8.593319E+03 -6.786033E+03
       148   4 -2.347120E+05 -6.374193E+04 -1.228281E+02 -1.289855E+05  1.439175E+03 -3.932214E+03
       148   5 -2.366272E+05 -6.182501E+04 -1.208555E+02 -1.267876E+05  2.412295E+03 -6.342474E+03
       148   6 -2.347140E+05 -6.374820E+04 -1.641916E+02 -1.289837E+05  3.381439E+03 -8.741870E+03
       148   7 -2.831850E+05 -8.100707E+04 -7.244862E+03 -1.426212E+05 -3.818794E+03 -5.905036E+03
       148   8 -3.145009E+05 -8.953936E+04 -1.147376E+04 -1.486914E+05 -2.822188E+03 -8.306629E+03
       148   9 -3.419928E+05 -1.019165E+05 -1.576663E+04 -1.591553E+05 -1.829556E+03 -1.069737E+04
       148  10 -1.862359E+05 -4.647629E+04  6.999380E+03 -1.153486E+05  5.487656E-08  2.624898E-08
       148  11 -1.587468E+05 -3.411001E+04  1.123197E+04 -1.048811E+05  1.905724E-08  9.131843E-09
       148  12 -1.274241E+05 -2.557925E+04  1.543767E+04 -9.880741E+04 -3.894010E-08 -1.754307E-08
       148  13 -2.347120E+05 -6.374194E+04 -1.228611E+02 -1.289855E+05  5.376094E-09  5.304043E-09
       148  14 -2.366272E+05 -6.182505E+04 -1.209421E+02 -1.267875E+05  1.661377E-08  8.635090E-09
       148  15 -2.347141E+05 -6.374829E+04 -1.643567E+02 -1.289837E+05  6.954497E-09  2.532700E-09
       148  16 -2.831850E+05 -8.100711E+04 -7.244955E+03 -1.426213E+05 -4.406866E-08 -1.604758E-08
       148  17 -3.145009E+05 -8.953944E+04 -1.147391E+04 -1.486914E+05  1.591760E-08  9.159466E-09
       148  18 -3.419928E+05 -1.019166E+05 -1.576685E+04 -1.591553E+05  5.249961E-08  2.243272E-08
       148  19 -1.862358E+05 -4.647627E+04  6.999472E+03 -1.153486E+05 -6.697640E+03  1.959206E+03
       148  20 -1.587468E+05 -3.410998E+04  1.123211E+04 -1.048811E+05 -7.647470E+03  4.378060E+03
       148  21 -1.274240E+05 -2.557918E+04  1.543789E+04 -9.880746E+04 -8.593319E+03  6.786033E+03
       148  22 -2.347120E+05 -6.374193E+04 -1.228281E+02 -1.289855E+05 -1.439175E+03  3.932214E+03
       148  23 -2.366272E+05 -6.182501E+04 -1.208555E+02 -1.267876E+05 -2.412295E+03  6.342474E+03
       148  24 -2.347140E+05 -6.374820E+04 -1.641916E+02 -1.289837E+05 -3.381439E+03  8.741870E+03
       148  25 -2.831850E+05 -8.100707E+04 -7.244862E+03 -1.426212E+05  3.818794E+03  5.905036E+03
       148  26 -3.145009E+05 -8.953936E+04 -1.147376E+04 -1.486914E+05  2.822188E+03  8.306629E+03
       148  27 -3.419928E+05 -1.019165E+05 -1.576663E+04 -1.591553E+05  1.829556E+03  1.069737E+04
       149   1 -1.090419E+05 -1.901773E+04  1.821899E+04 -9.365143E+04  9.153870E+03 -8.184579E+03
       149   2 -8.157489E+04 -6.641811E+03  2.240353E+04 -8.318022E+04  9.996916E+03 -1.056703E+04
       149   3 -5.026979E+04  1.904702E+03  2.662168E+04 -7.709014E+04  1.080180E+04 -1.284725E+04
       149   4 -2.347218E+05 -6.374854E+04 -2.050020E+02 -1.289840E+05  3.940951E+03 -1.014095E+04
       149   5 -2.366250E+05 -6.184272E+04 -3.507974E+02 -1.267825E+05  5.004308E+03 -1.244102E+04
       149   6 -2.347345E+05 -6.381013E+04 -6.375637E+02 -1.289627E+05  6.029500E+03 -1.463884E+04
       149   7 -3.603845E+05 -1.084776E+05 -1.862901E+04 -1.643098E+05 -1.270854E+03 -1.209689E+04
       149   8 -3.916479E+05 -1.170406E+05 -2.310495E+04 -1.703743E+05  1.304750E+01 -1.431450E+04
       149   9 -4.191598E+05 -1.295203E+05 -2.789639E+04 -1.808200E+05  1.258753E+03 -1.642984E+04
       149  10 -1.090420E+05 -1.901783E+04  1.821871E+04 -9.365137E+04 -3.282572E-09 -4.292830E-09
       149  11 -8.157503E+04 -6.641957E+03  2.240313E+04 -8.318013E+04 -5.629708E-10 -1.054765E-09
       149  12 -5.026996E+04  1.904493E+03  2.662115E+04 -7.709003E+04 -1.680711E-09 -4.941394E-11
       149  13 -2.347219E+05 -6.374866E+04 -2.052245E+02 -1.289840E+05 -1.892826E-09 -9.109300E-10
       149  14 -2.366251E+05 -6.184289E+04 -3.511352E+02 -1.267825E+05 -2.699270E-09 -3.262197E-10
       149  15 -2.347346E+05 -6.381037E+04 -6.380346E+02 -1.289626E+05 -1.582345E-09 -4.606208E-10
       149  16 -3.603845E+05 -1.084778E+05 -1.862929E+04 -1.643098E+05  2.856601E-09  2.056626E-09
       149  17 -3.916479E+05 -1.170408E+05 -2.310534E+04 -1.703743E+05  1.664416E-09  3.294737E-12
       149  18 -4.191599E+05 -1.295206E+05 -2.789690E+04 -1.808200E+05 -5.946932E-10 -2.896776E-10
       149  19 -1.090419E+05 -1.901773E+04  1.821899E+04 -9.365143E+04 -9.153870E+03  8.184579E+03
       149  20 -8.157489E+04 -6.641811E+03  2.240353E+04 -8.318022E+04 -9.996916E+03  1.056703E+04
       149  21 -5.026979E+04  1.904702E+03  2.662168E+04 -7.709014E+04 -1.080180E+04  1.284725E+04
       149  22 -2.347218E+05 -6.374854E+04 -2.050020E+02 -1.289840E+05 -3.940951E+03  1.014095E+04
       149  23 -2.366250E+05 -6.184272E+04 -3.507974E+02 -1.267825E+05 -5.004308E+03  1.244102E+04
       149  24 -2.347345E+05 -6.381013E+04 -6.375637E+02 -1.289627E+05 -6.029500E+03  1.463884E+04
       149  25 -3.603845E+05 -1.084776E+05 -1.862901E+04 -1.643098E+05  1.270854E+03  1.209689E+04
       149  26 -3.916479E+05 -1.170406E+05 -2.310495E+04 -1.703743E+05 -1.304750E+01  1.431450E+04
       149  27 -4.191598E+05 -1.295203E+05 -2.789639E+04 -1.808200E+05 -1.258753E+03  1.642984E+04
       150   1 -3.185969E+04  8.467047E+03  2.938290E+04 -7.196128E+04  1.142481E+04 -1.412241E+04
       150   2 -4.660125E+03  2.095315E+04  3.389686E+04 -6.126049E+04  1.096052E+04 -1.631839E+04
       150   3  2.640622E+04  2.950705E+04  3.920324E+04 -5.478052E+04  1.016154E+04 -1.762246E+04
       150   4 -2.347911E+05 -6.382122E+04 -8.502181E+02 -1.289598E+05  6.640032E+03 -1.591889E+04
       150   5 -2.366018E+05 -6.213074E+04 -1.571853E+03 -1.266751E+05  8.099551E+03 -1.739314E+04
       150   6 -2.349282E+05 -6.475422E+04 -3.025656E+03 -1.286120E+05  9.224399E+03 -1.797525E+04
       150   7 -4.376805E+05 -1.361061E+05 -3.108443E+04 -1.859414E+05  1.856845E+03 -1.771477E+04
       150   8 -4.684868E+05 -1.452094E+05 -3.704173E+04 -1.920670E+05  5.239693E+03 -1.846748E+04
       150   9 -4.961895E+05 -1.590083E+05 -4.525600E+04 -2.024143E+05  8.287677E+03 -1.832789E+04
       150  10 -3.185989E+04  8.466797E+03  2.938228E+04 -7.196115E+04  9.715629E-11 -3.754787E-10
       150  11 -4.660326E+03  2.095283E+04  3.389613E+04 -6.126035E+04 -1.703944E-09 -7.477996E-11
       150  12  2.640602E+04  2.950669E+04  3.920246E+04 -5.478038E+04 -2.524105E-09  1.418875E-09
       150  13 -2.347912E+05 -6.382151E+04 -8.507771E+02 -1.289597E+05 -2.196385E-09 -4.950678E-10
       150  14 -2.366019E+05 -6.213108E+04 -1.572545E+03 -1.266750E+05  1.413650E-10 -1.536666E-10
       150  15 -2.349284E+05 -6.475459E+04 -3.026423E+03 -1.286119E+05  8.818527E-10 -2.601839E-10
       150  16 -4.376806E+05 -1.361064E+05 -3.108502E+04 -1.859413E+05 -1.324466E-09  1.332817E-11
       150  17 -4.684869E+05 -1.452098E+05 -3.704242E+04 -1.920669E+05  6.211993E-10 -1.850292E-10
       150  18 -4.961896E+05 -1.590087E+05 -4.525676E+04 -2.024142E+05  4.908769E-09 -1.252086E-09
       150  19 -3.185969E+04  8.467047E+03  2.938290E+04 -7.196128E+04 -1.142481E+04  1.412241E+04
       150  20 -4.660125E+03  2.095315E+04  3.389686E+04 -6.126049E+04 -1.096052E+04  1.631839E+04
       150  21  2.640622E+04  2.950705E+04  3.920324E+04 -5.478052E+04 -1.016154E+04  1.762246E+04
       150  22 -2.347911E+05 -6.382122E+04 -8.502181E+02 -1.289598E+05 -6.640032E+03  1.591889E+04
       150  23 -2.366018E+05 -6.213074E+04 -1.571853E+03 -1.266751E+05 -8.099551E+03  1.739314E+04
       150  24 -2.349282E+05 -6.475422E+04 -3.025656E+03 -1.286120E+05 -9.224399E+03  1.797525E+04
       150  25 -4.376805E+05 -1.361061E+05 -3.108443E+04 -1.859414E+05 -1.856845E+03  1.771477E+04
       150  26 -4.684868E+05 -1.452094E+05 -3.704173E+04 -1.920670E+05 -5.239693E+03  1.846748E+04
       150  27 -4.961895E+05 -1.590083E+05 -4.525600E+04 -2.024143E+05 -8.287677E+03  1.832789E+04
       151   1  4.511222E+04  3.592752E+04  4.246900E+04 -4.989152E+04  1.094759E+04 -1.796717E+04
       151   2  6.883033E+04  4.959340E+04  5.187213E+04 -3.537007E+04 -3.099123E+03 -1.934886E+04
       151   3  9.630426E+04  5.675537E+04  6.982806E+04 -2.314880E+04 -2.007609E+04 -1.293344E+04
       151   4 -2.354721E+05 -6.499832E+04 -4.080086E+03 -1.285555E+05  9.894196E+03 -1.836373E+04
       151   5 -2.365515E+05 -6.620239E+04 -7.857608E+03 -1.251085E+05  1.267111E+04 -1.342816E+04
       151   6 -2.372094E+05 -7.724483E+04 -1.641285E+04 -1.239624E+05  1.251803E+04 -6.931050E+02
       151   7 -5.159717E+05 -1.659159E+05 -5.063087E+04 -2.071859E+05  8.841308E+03 -1.876009E+04
       151   8 -5.418299E+05 -1.819852E+05 -6.758887E+04 -2.148034E+05  2.843275E+04 -7.510982E+03
       151   9 -5.706003E+05 -2.112276E+05 -1.026553E+05 -2.247212E+05  4.509192E+04  1.153840E+04
       151  10  4.511200E+04  3.592715E+04  4.246817E+04 -4.989136E+04 -3.949674E-09  1.395891E-09
       151  11  6.883022E+04  4.959299E+04  5.187141E+04 -3.537012E+04  8.640939E-09  4.353152E-09
       151  12  9.630378E+04  5.675508E+04  6.982699E+04 -2.314900E+04  8.376809E-09  3.759727E-09
       151  13 -2.354723E+05 -6.499871E+04 -4.080904E+03 -1.285553E+05  3.369184E-09  1.415306E-09
       151  14 -2.365517E+05 -6.620263E+04 -7.858249E+03 -1.251083E+05  7.190559E-09  3.634993E-09
       151  15 -2.372096E+05 -7.724487E+04 -1.641314E+04 -1.239624E+05  1.390991E-09  1.229199E-09
       151  16 -5.159719E+05 -1.659163E+05 -5.063168E+04 -2.071858E+05  9.926598E-09  1.246849E-09
       151  17 -5.418308E+05 -1.819855E+05 -6.759050E+04 -2.148032E+05  7.166723E-09  1.570019E-09
       151  18 -5.706025E+05 -2.112283E+05 -1.026594E+05 -2.247216E+05 -2.699005E-09 -1.445864E-09
       151  19  4.511222E+04  3.592752E+04  4.246900E+04 -4.989152E+04 -1.094759E+04  1.796717E+04
       151  20  6.883033E+04  4.959340E+04  5.187213E+04 -3.537007E+04  3.099123E+03  1.934886E+04
       151  21  9.630426E+04  5.675537E+04  6.982806E+04 -2.314880E+04  2.007609E+04  1.293344E+04
       151  22 -2.354721E+05 -6.499832E+04 -4.080086E+03 -1.285555E+05 -9.894196E+03  1.836373E+04
       151  23 -2.365515E+05 -6.620239E+04 -7.857608E+03 -1.251085E+05 -1.267111E+04  1.342816E+04
       151  24 -2.372094E+05 -7.724483E+04 -1.641285E+04 -1.239624E+05 -1.251803E+04  6.931050E+02
       151  25 -5.159717E+05 -1.659159E+05 -5.063087E+04 -2.071859E+05 -8.841308E+03  1.876009E+04
       151  26 -5.418299E+05 -1.819852E+05 -6.758887E+04 -2.148034E+05 -2.843275E+04  7.510982E+03
       151  27 -5.706003E+05 -2.112276E+05 -1.026553E+05 -2.247212E+05 -4.509192E+04 -1.153840E+04
       152   1 -1.099193E+05 -1.522127E+04 -3.502564E+04 -1.765118E+04 -5.979776E+04 -2.556100E+03
       152   2 -1.120535E+05  6.483523E+04  1.193226E+04 -4.766112E+03 -4.059216E+04 -7.706618E+03
       152   3 -1.389274E+05  5.580846E+04  2.412597E+04  1.783367E+04 -2.139098E+04 -7.409832E+03
       152   4 -3.482881E+05 -7.461123E+04 -9.371977E+04  7.462508E+03 -6.413227E+04 -2.561235E+03
       152   5 -3.356459E+05  9.489216E+03 -4.121826E+04  2.578972E+03 -4.192820E+04 -7.708264E+03
       152   6 -3.482744E+05  3.967102E+03 -2.557334E+04  7.410642E+03 -1.972799E+04 -7.408222E+03
       152   7 -5.866038E+05 -1.340030E+05 -1.524177E+05  3.256653E+04 -6.846513E+04 -2.566721E+03
       152   8 -5.591924E+05 -4.586019E+04 -9.437223E+04  9.921388E+03 -4.326376E+04 -7.709943E+03
       152   9 -5.575810E+05 -4.787701E+04 -7.527565E+04 -3.008866E+03 -1.806557E+04 -7.406668E+03
       152  10 -1.099231E+05 -1.522224E+04 -3.503237E+04 -1.765130E+04 -7.956755E-10  5.353374E-10
       152  11 -1.120553E+05  6.483473E+04  1.192905E+04 -4.766364E+03 -1.201796E-09  2.308645E-10
       152  12 -1.389279E+05  5.580828E+04  2.412501E+04  1.783355E+04  1.821985E-09 -1.072705E-09
       152  13 -3.482925E+05 -7.461234E+04 -9.372752E+04  7.462375E+03  1.283786E-09  9.473415E-10
       152  14 -3.356478E+05  9.488680E+03 -4.122167E+04  2.578712E+03  2.149043E-09  3.537251E-10
       152  15 -3.482749E+05  3.966939E+03 -2.557418E+04  7.410524E+03 -5.400394E-10  2.689542E-10
       152  16 -5.866089E+05 -1.340043E+05 -1.524265E+05  3.256639E+04  4.524135E-10  5.954448E-10
       152  17 -5.591944E+05 -4.586076E+04 -9.437586E+04  9.921120E+03 -2.094051E-09 -1.306617E-09
       152  18 -5.575814E+05 -4.787716E+04 -7.527636E+04 -3.008974E+03 -2.187727E-10 -2.172709E-09
       152  19 -1.099193E+05 -1.522127E+04 -3.502564E+04 -1.765118E+04  5.979776E+04  2.556100E+03
       152  20 -1.120535E+05  6.483523E+04  1.193226E+04 -4.766112E+03  4.059216E+04  7.706618E+03
       152  21 -1.389274E+05  5.580846E+04  2.412597E+04  1.783367E+04  2.139098E+04  7.409832E+03
       152  22 -3.482881E+05 -7.461123E+04 -9.371977E+04  7.462508E+03  6.413227E+04  2.561235E+03
       152  23 -3.356459E+05  9.489216E+03 -4.121826E+04  2.578972E+03  4.192820E+04  7.708264E+03
       152  24 -3.482744E+05  3.967102E+03 -2.557334E+04  7.410642E+03  1.972799E+04  7.408222E+03
       152  25 -5.866038E+05 -1.340030E+05 -1.524177E+05  3.256653E+04  6.846513E+04  2.566721E+03
       152  26 -5.591924E+05 -4.586019E+04 -9.437223E+04  9.921388E+03  4.326376E+04  7.709943E+03
       152  27 -5.575810E+05 -4.787701E+04 -7.527565E+04 -3.008866E+03  1.806557E+04  7.406668E+03
       153   1 -1.517659E+05  4.014218E+04  2.482947E+04  5.438014E+03 -1.583512E+04 -6.299795E+03
       153   2 -1.650094E+05  4.476002E+04  3.136302E+04  2.071135E+03 -1.057811E+04 -6.057823E+03
       153   3 -1.811360E+05  4.056713E+04  3.227195E+04  8.715039E+03 -5.321668E+03 -5.447629E+03
       153   4 -3.433084E+05 -7.299702E+03 -2.080959E+04  7.497971E+03 -1.580255E+04 -6.299951E+03
       153   5 -3.418474E+05  9.743091E+02 -1.068536E+04  2.488785E+03 -1.034385E+04 -6.057711E+03
       153   6 -3.433054E+05  4.011728E+02 -6.327081E+03  7.490574E+03 -4.885583E+03 -5.447228E+03
       153   7 -5.348173E+05 -5.474422E+04 -6.645122E+04  9.557283E+03 -1.576999E+04 -6.300106E+03
       153   8 -5.186567E+05 -4.281365E+04 -5.273593E+04  2.906307E+03 -1.010965E+04 -6.057598E+03
       153   9 -5.054507E+05 -3.976668E+04 -4.492795E+04  6.266424E+03 -4.449611E+03 -5.446830E+03
       153  10 -1.517662E+05  4.014207E+04  2.482892E+04  5.437933E+03 -8.420882E-10 -2.556003E-09
       153  11 -1.650095E+05  4.475995E+04  3.136275E+04  2.071084E+03 -1.914192E-09  1.864407E-10
       153  12 -1.811360E+05  4.056709E+04  3.227184E+04  8.715016E+03 -3.897832E-10  1.824019E-09
       153  13 -3.433087E+05 -7.299812E+03 -2.081013E+04  7.497891E+03 -5.945852E-10 -1.793337E-09
       153  14 -3.418475E+05  9.742409E+02 -1.068563E+04  2.488734E+03  5.348192E-10 -6.133596E-10
       153  15 -3.433054E+05  4.011345E+02 -6.327182E+03  7.490553E+03  5.184501E-10 -3.062593E-10
       153  16 -5.348176E+05 -5.474433E+04 -6.645176E+04  9.557203E+03  3.402476E-10 -6.618472E-10
       153  17 -5.186568E+05 -4.281372E+04 -5.273619E+04  2.906257E+03  3.611470E-10 -4.007355E-11
       153  18 -5.054507E+05 -3.976672E+04 -4.492804E+04  6.266404E+03  1.138370E-09  7.346868E-10
       153  19 -1.517659E+05  4.014218E+04  2.482947E+04  5.438014E+03  1.583512E+04  6.299795E+03
       153  20 -1.650094E+05  4.476002E+04  3.136302E+04  2.071135E+03  1.057811E+04  6.057823E+03
       153  21 -1.811360E+05  4.056713E+04  3.227195E+04  8.715039E+03  5.321668E+03  5.447629E+03
       153  22 -3.433084E+05 -7.299702E+03 -2.080959E+04  7.497971E+03  1.580255E+04  6.299951E+03
       153  23 -3.418474E+05  9.743091E+02 -1.068536E+04  2.488785E+03  1.034385E+04  6.057711E+03
       153  24 -3.433054E+05  4.011728E+02 -6.327081E+03  7.490574E+03  4.885583E+03  5.447228E+03
       153  25 -5.348173E+05 -5.474422E+04 -6.645122E+04  9.557283E+03  1.576999E+04  6.300106E+03
       153  26 -5.186567E+05 -4.281365E+04 -5.273593E+04  2.906307E+03  1.010965E+04  6.057598E+03
       153  27 -5.054507E+05 -3.976668E+04 -4.492795E+04  6.266424E+03  4.449611E+03  5.446830E+03
       154   1 -1.986243E+05  3.499244E+04  2.929319E+04  7.508510E+03 -4.219843E+03 -5.029921E+03
       154   2 -2.132969E+05  3.211199E+04  2.800095E+04  2.560183E+03 -2.868009E+03 -4.421696E+03
       154   3 -2.283719E+05  2.838636E+04  2.561379E+04  7.758545E+03 -1.516396E+03 -3.786327E+03
       154   4 -3.427456E+05 -6.870864E+02 -4.941895E+03  7.523686E+03 -3.891944E+03 -5.029619E+03
       154   5 -3.425423E+05  1.082491E+02 -2.732485E+03  2.449830E+03 -2.525419E+03 -4.421337E+03
       154   6 -3.427444E+05  5.573839E+01 -1.628387E+03  7.522798E+03 -1.159083E+03 -3.785907E+03
       154   7 -4.868477E+05 -3.636811E+04 -3.917843E+04  7.538852E+03 -3.564121E+03 -5.029316E+03
       154   8 -4.717723E+05 -3.189670E+04 -3.346709E+04  2.339495E+03 -2.182899E+03 -4.420977E+03
       154   9 -4.571048E+05 -2.827583E+04 -2.887148E+04  7.287090E+03 -8.018359E+02 -3.785487E+03
       154  10 -1.986243E+05  3.499241E+04  2.929311E+04  7.508493E+03 -9.314979E-10  2.705005E-09
       154  11 -2.132969E+05  3.211197E+04  2.800090E+04  2.560173E+03 -1.499146E-09  1.882559E-09
       154  12 -2.283719E+05  2.838634E+04  2.561376E+04  7.758541E+03  1.899091E-10  6.077086E-10
       154  13 -3.427456E+05 -6.871176E+02 -4.941971E+03  7.523670E+03  8.687071E-10 -6.925799E-10
       154  14 -3.425423E+05  1.082264E+02 -2.732534E+03  2.449821E+03 -1.079038E-09  1.878920E-09
       154  15 -3.427444E+05  5.572264E+01 -1.628416E+03  7.522794E+03 -2.320280E-09  3.429090E-09
       154  16 -4.868477E+05 -3.636814E+04 -3.917851E+04  7.538838E+03 -1.113671E-10  1.479394E-09
       154  17 -4.717723E+05 -3.189672E+04 -3.346714E+04  2.339488E+03  7.339240E-10  1.687892E-09
       154  18 -4.571048E+05 -2.827584E+04 -2.887151E+04  7.287087E+03  7.263628E-10  2.444088E-09
       154  19 -1.986243E+05  3.499244E+04  2.929319E+04  7.508510E+03  4.219843E+03  5.029921E+03
       154  20 -2.132969E+05  3.211199E+04  2.800095E+04  2.560183E+03  2.868009E+03  4.421696E+03
       154  21 -2.283719E+05  2.838636E+04  2.561379E+04  7.758545E+03  1.516396E+03  3.786327E+03
       154  22 -3.427456E+05 -6.870864E+02 -4.941895E+03  7.523686E+03  3.891944E+03  5.029619E+03
       154  23 -3.425423E+05  1.082491E+02 -2.732485E+03  2.449830E+03  2.525419E+03  4.421337E+03
       154  24 -3.427444E+05  5.573839E+01 -1.628387E+03  7.522798E+03  1.159083E+03  3.785907E+03
       154  25 -4.868477E+05 -3.636811E+04 -3.917843E+04  7.538852E+03  3.564121E+03  5.029316E+03
       154  26 -4.717723E+05 -3.189670E+04 -3.346709E+04  2.339495E+03  2.182899E+03  4.420977E+03
       154  27 -4.571048E+05 -2.827583E+04 -2.887148E+04  7.287090E+03  8.018359E+02  3.785487E+03
       155   1 -2.465483E+05  2.374966E+04  2.153003E+04  7.642416E+03 -1.249026E+03 -3.411742E+03
       155   2 -2.615064E+05  2.010740E+04  1.846558E+04  2.515699E+03 -8.426135E+02 -2.774149E+03
       155   3 -2.765619E+05  1.640162E+04  1.511434E+04  7.625977E+03 -4.363241E+02 -2.133267E+03
       155   4 -3.426751E+05 -4.487254E+01 -1.283977E+03  7.543194E+03 -8.982940E+02 -3.411308E+03
       155   5 -3.426257E+05  1.998748E+01 -8.244775E+02  2.424610E+03 -4.901290E+02 -2.773687E+03
       155   6 -3.426745E+05  2.096136E+01 -6.530514E+02  7.543105E+03 -8.207696E+01 -2.132777E+03
       155   7 -4.387933E+05 -2.384007E+04 -2.409863E+04  7.443985E+03 -5.476165E+02 -3.410874E+03
       155   8 -4.237389E+05 -2.006790E+04 -2.011499E+04  2.333532E+03 -1.376903E+02 -2.773225E+03
       155   9 -4.087830E+05 -1.636002E+04 -1.642075E+04  7.460240E+03  2.721326E+02 -2.132286E+03
       155  10 -2.465483E+05  2.374964E+04  2.153001E+04  7.642413E+03  3.211684E-09  5.647516E-10
       155  11 -2.615064E+05  2.010739E+04  1.846556E+04  2.515697E+03 -5.149161E-09  2.461385E-09
       155  12 -2.765619E+05  1.640162E+04  1.511434E+04  7.625977E+03 -6.003485E-09  3.133250E-09
       155  13 -3.426751E+05 -4.488525E+01 -1.284001E+03  7.543192E+03 -3.611967E-10  1.180708E-09
       155  14 -3.426257E+05  1.997915E+01 -8.244924E+02  2.424609E+03 -2.490196E-10  2.420441E-09
       155  15 -3.426745E+05  2.095648E+01 -6.530600E+02  7.543105E+03 -2.296438E-09 -1.468268E-10
       155  16 -4.387933E+05 -2.384008E+04 -2.409866E+04  7.443984E+03 -3.700120E-09  1.862357E-09
       155  17 -4.237389E+05 -2.006791E+04 -2.011501E+04  2.333532E+03  2.972766E-09 -7.823885E-10
       155  18 -4.087830E+05 -1.636002E+04 -1.642076E+04  7.460240E+03  5.711786E-09 -2.002452E-09
       155  19 -2.465483E+05  2.374966E+04  2.153003E+04  7.642416E+03  1.249026E+03  3.411742E+03
       155  20 -2.615064E+05  2.010740E+04  1.846558E+04  2.515699E+03  8.426135E+02  2.774149E+03
       155  21 -2.765619E+05  1.640162E+04  1.511434E+04  7.625977E+03  4.363241E+02  2.133267E+03
       155  22 -3.426751E+05 -4.487254E+01 -1.283977E+03  7.543194E+03  8.982940E+02  3.411308E+03
       155  23 -3.426257E+05  1.998748E+01 -8.244775E+02  2.424610E+03  4.901290E+02  2.773687E+03
       155  24 -3.426745E+05  2.096136E+01 -6.530514E+02  7.543105E+03  8.207696E+01  2.132777E+03
       155  25 -4.387933E+05 -2.384007E+04 -2.409863E+04  7.443985E+03  5.476165E+02  3.410874E+03
       155  26 -4.237389E+05 -2.006790E+04 -2.011499E+04  2.333532E+03  1.376903E+02  2.773225E+03
       155  27 -4.087830E+05 -1.636002E+04 -1.642075E+04  7.460240E+03 -2.721326E+02  2.132286E+03
       156   1 -2.949330E+05  1.183294E+04  1.066322E+04  7.596466E+03 -3.199007E+02 -1.759259E+03
       156   2 -3.099611E+05  8.109074E+03  6.993376E+03  2.440326E+03  6.325499E+01 -1.116485E+03
       156   3 -3.250892E+05  4.330106E+03  3.052280E+03  7.571952E+03  4.463657E+02 -4.738028E+02
       156   4 -3.426743E+05  1.975349E+01 -6.442680E+02  7.554380E+03  3.449907E+01 -1.758755E+03
       156   5 -3.426242E+05  2.054193E+01 -7.741083E+02  2.410520E+03  4.175843E+02 -1.115972E+03
       156   6 -3.426742E+05 -3.368623E+01 -1.175082E+03  7.554459E+03  8.006337E+02 -4.732788E+02
       156   7 -3.904136E+05 -1.179360E+04 -1.195192E+04  7.512295E+03  3.888718E+02 -1.758252E+03
       156   8 -3.752864E+05 -8.068067E+03 -8.541667E+03  2.380715E+03  7.718950E+02 -1.115459E+03
       156   9 -3.602589E+05 -4.397501E+03 -5.402467E+03  7.536967E+03  1.154892E+03 -4.727547E+02
       156  10 -2.949330E+05  1.183294E+04  1.066322E+04  7.596466E+03  4.226063E-09  8.802589E-10
       156  11 -3.099611E+05  8.109072E+03  6.993373E+03  2.440326E+03  3.473911E-10 -2.387146E-10
       156  12 -3.250892E+05  4.330106E+03  3.052280E+03  7.571952E+03 -2.422102E-09 -9.646172E-10
       156  13 -3.426743E+05  1.975017E+01 -6.442738E+02  7.554380E+03  5.032554E-10  3.441956E-09
       156  14 -3.426242E+05  2.054055E+01 -7.741110E+02  2.410520E+03 -1.200673E-09  6.991124E-10
       156  15 -3.426742E+05 -3.368664E+01 -1.175084E+03  7.554460E+03 -2.837352E-09 -1.954351E-09
       156  16 -3.904136E+05 -1.179360E+04 -1.195192E+04  7.512296E+03 -5.441351E-09  1.746177E-09
       156  17 -3.752864E+05 -8.068068E+03 -8.541670E+03  2.380715E+03 -2.099775E-09 -4.772944E-10
       156  18 -3.602589E+05 -4.397502E+03 -5.402470E+03  7.536968E+03  3.013091E-09 -2.083975E-09
       156  19 -2.949330E+05  1.183294E+04  1.066322E+04  7.596466E+03  3.199007E+02  1.759259E+03
       156  20 -3.099611E+05  8.109074E+03  6.993376E+03  2.440326E+03 -6.325499E+01  1.116485E+03
       156  21 -3.250892E+05  4.330106E+03  3.052280E+03  7.571952E+03 -4.463657E+02  4.738028E+02
       156  22 -3.426743E+05  1.975349E+01 -6.442680E+02  7.554380E+03 -3.449907E+01  1.758755E+03
       156  23 -3.426242E+05  2.054193E+01 -7.741083E+02  2.410520E+03 -4.175843E+02  1.115972E+03
       156  24 -3.426742E+05 -3.368623E+01 -1.175082E+03  7.554459E+03 -8.006337E+02  4.732788E+02
       156  25 -3.904136E+05 -1.179360E+04 -1.195192E+04  7.512295E+03 -3.888718E+02  1.758252E+03
       156  26 -3.752864E+05 -8.068067E+03 -8.541667E+03  2.380715E+03 -7.718950E+02  1.115459E+03
       156  27 -3.602589E+05 -4.397501E+03 -5.402467E+03  7.536967E+03 -1.154892E+03  4.727547E+02
       157   1 -3.435739E+05 -1.603267E+02 -1.726183E+03  7.443992E+03  6.801858E+02 -9.706142E+01
       157   2 -3.584684E+05 -3.840723E+03 -6.256141E+03  2.399060E+03  1.922355E+03  5.472944E+02
       157   3 -3.737520E+05 -8.280415E+03 -1.179312E+04  7.649118E+03  3.164533E+03  1.177869E+03
       157   4 -3.427380E+05  5.617678E+01 -1.481813E+03  7.555693E+03  1.038518E+03 -9.652936E+01
       157   5 -3.425443E+05  1.027318E+02 -2.469216E+03  2.408694E+03  2.273110E+03  5.478096E+02
       157   6 -3.427385E+05 -6.086564E+02 -4.458329E+03  7.556671E+03  3.507741E+03  1.178368E+03
       157   7 -3.419022E+05  2.726803E+02 -1.237443E+03  7.667395E+03  1.396850E+03 -9.599718E+01
       157   8 -3.266200E+05  4.046168E+03  1.317692E+03  2.418328E+03  2.623874E+03  5.483248E+02
       157   9 -3.117241E+05  7.063033E+03  2.876400E+03  7.464219E+03  3.850965E+03  1.178867E+03
       157  10 -3.435739E+05 -1.603269E+02 -1.726184E+03  7.443992E+03 -4.389173E-09  1.311809E-09
       157  11 -3.584685E+05 -3.840724E+03 -6.256149E+03  2.399059E+03 -4.821915E-09  9.041518E-10
       157  12 -3.737520E+05 -8.280419E+03 -1.179314E+04  7.649115E+03 -1.158967E-09  4.610125E-10
       157  13 -3.427380E+05  5.617648E+01 -1.481815E+03  7.555693E+03 -2.646072E-10 -5.545705E-10
       157  14 -3.425443E+05  1.027301E+02 -2.469226E+03  2.408693E+03 -2.155254E-09  4.234786E-10
       157  15 -3.427385E+05 -6.086612E+02 -4.458355E+03  7.556668E+03  3.690441E-10  1.271634E-09
       157  16 -3.419022E+05  2.726798E+02 -1.237447E+03  7.667395E+03  1.995007E-09  4.983630E-10
       157  17 -3.266200E+05  4.046166E+03  1.317679E+03  2.418327E+03 -6.255514E-12 -4.159784E-09
       157  18 -3.117241E+05  7.063027E+03  2.876369E+03  7.464216E+03  1.481236E-10 -2.126308E-10
       157  19 -3.435739E+05 -1.603267E+02 -1.726183E+03  7.443992E+03 -6.801858E+02  9.706142E+01
       157  20 -3.584684E+05 -3.840723E+03 -6.256141E+03  2.399060E+03 -1.922355E+03 -5.472944E+02
       157  21 -3.737520E+05 -8.280415E+03 -1.179312E+04  7.649118E+03 -3.164533E+03 -1.177869E+03
       157  22 -3.427380E+05  5.617678E+01 -1.481813E+03  7.555693E+03 -1.038518E+03  9.652936E+01
       157  23 -3.425443E+05  1.027318E+02 -2.469216E+03  2.408694E+03 -2.273110E+03 -5.478096E+02
       157  24 -3.427385E+05 -6.086564E+02 -4.458329E+03  7.556671E+03 -3.507741E+03 -1.178368E+03
       157  25 -3.419022E+05  2.726803E+02 -1.237443E+03  7.667395E+03 -1.396850E+03  9.599718E+01
       157  26 -3.266200E+05  4.046168E+03  1.317692E+03  2.418328E+03 -2.623874E+03 -5.483248E+02
       157  27 -3.117241E+05  7.063033E+03  2.876400E+03  7.464219E+03 -3.850965E+03 -1.178867E+03
       158   1 -3.926525E+05 -1.187601E+04 -1.749810E+04  6.511284E+03  4.000580E+03  1.580654E+03
       158   2 -4.063542E+05 -1.507092E+04 -2.495440E+04  2.848300E+03  9.031081E+03  2.217086E+03
       158   3 -4.227401E+05 -2.625118E+04 -3.769065E+04  9.447346E+03  1.406172E+04  2.650588E+03
       158   4 -3.432446E+05  3.714978E+02 -5.706242E+03  7.545701E+03  4.403968E+03  1.581238E+03
       158   5 -3.419134E+05  8.859801E+02 -9.629838E+03  2.419528E+03  9.322955E+03  2.217476E+03
       158   6 -3.432468E+05 -6.565060E+03 -1.875551E+04  7.555374E+03  1.424220E+04  2.650771E+03
       158   7 -2.938345E+05  1.261883E+04  6.085441E+03  8.580199E+03  4.807388E+03  1.581824E+03
       158   8 -2.774687E+05  1.684258E+04  5.694432E+03  1.990710E+03  9.614858E+03  2.217866E+03
       158   9 -2.637478E+05  1.312061E+04  1.792016E+02  5.663157E+03  1.442271E+04  2.650952E+03
       158  10 -3.926525E+05 -1.187602E+04 -1.749813E+04  6.511279E+03 -3.829828E-09  2.815696E-09
       158  11 -4.063543E+05 -1.507095E+04 -2.495456E+04  2.848284E+03 -2.538547E-10  1.634827E-09
       158  12 -4.227403E+05 -2.625124E+04 -3.769104E+04  9.447316E+03  2.058843E-09  7.022842E-10
       158  13 -3.432447E+05  3.714899E+02 -5.706283E+03  7.545695E+03 -3.173268E-10  1.622831E-09
       158  14 -3.419135E+05  8.859515E+02 -9.630011E+03  2.419512E+03 -1.079045E-09  1.312931E-09
       158  15 -3.432470E+05 -6.565122E+03 -1.875590E+04  7.555344E+03  4.066305E-09 -4.508255E-10
       158  16 -2.938346E+05  1.261883E+04  6.085393E+03  8.580193E+03  1.014033E-09  7.012160E-10
       158  17 -2.774688E+05  1.684255E+04  5.694249E+03  1.990693E+03 -1.425089E-09 -1.957746E-09
       158  18 -2.637480E+05  1.312055E+04  1.787973E+02  5.663126E+03 -1.045160E-09 -3.716778E-09
       158  19 -3.926525E+05 -1.187601E+04 -1.749810E+04  6.511284E+03 -4.000580E+03 -1.580654E+03
       158  20 -4.063542E+05 -1.507092E+04 -2.495440E+04  2.848300E+03 -9.031081E+03 -2.217086E+03
       158  21 -4.227401E+05 -2.625118E+04 -3.769065E+04  9.447346E+03 -1.406172E+04 -2.650588E+03
       158  22 -3.432446E+05  3.714978E+02 -5.706242E+03  7.545701E+03 -4.403968E+03 -1.581238E+03
       158  23 -3.419134E+05  8.859801E+02 -9.629838E+03  2.419528E+03 -9.322955E+03 -2.217476E+03
       158  24 -3.432468E+05 -6.565060E+03 -1.875551E+04  7.555374E+03 -1.424220E+04 -2.650771E+03
       158  25 -2.938345E+05  1.261883E+04  6.085441E+03  8.580199E+03 -4.807388E+03 -1.581824E+03
       158  26 -2.774687E+05  1.684258E+04  5.694432E+03  1.990710E+03 -9.614858E+03 -2.217866E+03
       158  27 -2.637478E+05  1.312061E+04  1.792016E+02  5.663157E+03 -1.442271E+04 -2.650952E+03
       159   1 -4.455102E+05 -2.065422E+04 -4.628551E+04 -1.869899E+03  1.669701E+04  3.437795E+03
       159   2 -4.489567E+05 -1.930896E+04 -6.392154E+04  9.081361E+03  3.836318E+04  3.919491E+03
       159   3 -4.755162E+05 -9.902593E+04 -1.159399E+05  3.019565E+04  6.003297E+04  1.386650E+03
       159   4 -3.477241E+05  3.589072E+03 -2.304892E+04  7.499485E+03  1.778024E+04  3.439476E+03
       159   5 -3.363198E+05  8.562935E+03 -3.714439E+04  2.462151E+03  3.778596E+04  3.918284E+03
       159   6 -3.477361E+05 -6.722989E+04 -8.446418E+04  7.588186E+03  5.779586E+04  1.381679E+03
       159   7 -2.499290E+05  2.783200E+04  1.870570E+02  1.687035E+04  1.886365E+04  3.441190E+03
       159   8 -2.236711E+05  3.643408E+04 -1.036810E+04 -4.158269E+03  3.720864E+04  3.917090E+03
       159   9 -2.199399E+05 -3.543314E+04 -5.298939E+04 -1.502394E+04  5.555828E+04  1.376872E+03
       159  10 -4.455105E+05 -2.065430E+04 -4.628605E+04 -1.869945E+03 -8.843744E-10  3.947254E-10
       159  11 -4.489583E+05 -1.930937E+04 -6.392434E+04  9.081240E+03 -5.086894E-10 -3.093922E-10
       159  12 -4.755201E+05 -9.902690E+04 -1.159467E+05  3.019558E+04  1.547656E-09  9.740283E-10
       159  13 -3.477244E+05  3.588974E+03 -2.304953E+04  7.499435E+03  1.557758E-09  1.241732E-09
       159  14 -3.363213E+05  8.562535E+03 -3.714710E+04  2.462032E+03  4.546720E-09 -1.302681E-09
       159  15 -3.477397E+05 -6.723079E+04 -8.447047E+04  7.588121E+03 -1.966207E-09  1.670069E-09
       159  16 -2.499294E+05  2.783189E+04  1.863658E+02  1.687030E+04  2.261027E-09  1.473473E-09
       159  17 -2.236726E+05  3.643369E+04 -1.037073E+04 -4.158387E+03 -2.317235E-10  2.033565E-09
       159  18 -2.199432E+05 -3.543397E+04 -5.299520E+04 -1.502400E+04  9.563442E-10 -2.095600E-10
       159  19 -4.455102E+05 -2.065422E+04 -4.628551E+04 -1.869899E+03 -1.669701E+04 -3.437795E+03
       159  20 -4.489567E+05 -1.930896E+04 -6.392154E+04  9.081361E+03 -3.836318E+04 -3.919491E+03
       159  21 -4.755162E+05 -9.902593E+04 -1.159399E+05  3.019565E+04 -6.003297E+04 -1.386650E+03
       159  22 -3.477241E+05  3.589072E+03 -2.304892E+04  7.499485E+03 -1.778024E+04 -3.439476E+03
       159  23 -3.363198E+05  8.562935E+03 -3.714439E+04  2.462151E+03 -3.778596E+04 -3.918284E+03
       159  24 -3.477361E+05 -6.722989E+04 -8.446418E+04  7.588186E+03 -5.779586E+04 -1.381679E+03
       159  25 -2.499290E+05  2.783200E+04  1.870570E+02  1.687035E+04 -1.886365E+04 -3.441190E+03
       159  26 -2.236711E+05  3.643408E+04 -1.036810E+04 -4.158269E+03 -3.720864E+04 -3.917090E+03
       159  27 -2.199399E+05 -3.543314E+04 -5.298939E+04 -1.502394E+04 -5.555828E+04 -1.376872E+03
       160   1  1.592179E+05  8.906924E+05  1.753959E+05 -8.240432E+04  3.562764E+03  6.769737E+04
       160   2  5.723748E+04  7.920918E+05  1.025749E+05 -3.931167E+04  1.004183E+04  3.709888E+04
       160   3  3.723853E+04  7.179193E+05  7.014220E+04 -3.961001E+04  7.299959E+03  6.497805E+03
       160   4  7.500862E+04  5.523870E+05  9.263022E+04 -5.054444E+04  3.571969E+03  5.943681E+04
       160   5 -4.587016E+03  5.407814E+05  4.467018E+04 -2.887766E+04  1.004378E+04  3.571660E+04
       160   6 -3.375662E+03  5.524181E+05  3.234043E+04 -5.059976E+04  7.295112E+03  1.198944E+04
       160   7 -9.205316E+03  2.141881E+05  9.856990E+03 -1.870191E+04  3.580331E+03  5.118073E+04
       160   8 -6.641553E+04  2.895296E+05 -1.323864E+04 -1.844788E+04  1.004569E+04  3.433486E+04
       160   9 -4.399127E+04  3.869426E+05 -5.462959E+03 -6.158656E+04  7.290071E+03  1.747962E+04
       160  10  1.592167E+05  8.906875E+05  1.753873E+05 -8.240451E+04  3.568402E-10  1.404832E-09
       160  11  5.723701E+04  7.920903E+05  1.025721E+05 -3.931197E+04 -6.637772E-10 -1.331919E-09
       160  12  3.723846E+04  7.179192E+05  7.014202E+04 -3.961005E+04  2.552744E-10 -3.856007E-10
       160  13  7.500766E+04  5.523832E+05  9.262356E+04 -5.054461E+04  2.115495E-10 -1.019118E-10
       160  14 -4.587466E+03  5.407800E+05  4.466759E+04 -2.887794E+04 -1.311383E-09  1.265207E-10
       160  15 -3.375757E+03  5.524179E+05  3.234006E+04 -5.059983E+04  7.158223E-10 -1.421804E-09
       160  16 -9.206032E+03  2.141853E+05  9.852045E+03 -1.870206E+04 -1.846306E-10 -1.167820E-09
       160  17 -6.641595E+04  2.895283E+05 -1.324105E+04 -1.844816E+04  3.867287E-09 -7.876128E-10
       160  18 -4.399141E+04  3.869422E+05 -5.463633E+03 -6.158666E+04  3.005840E-09 -1.529364E-10
       160  19  1.592179E+05  8.906924E+05  1.753959E+05 -8.240432E+04 -3.562764E+03 -6.769737E+04
       160  20  5.723748E+04  7.920918E+05  1.025749E+05 -3.931167E+04 -1.004183E+04 -3.709888E+04
       160  21  3.723853E+04  7.179193E+05  7.014220E+04 -3.961001E+04 -7.299959E+03 -6.497805E+03
       160  22  7.500862E+04  5.523870E+05  9.263022E+04 -5.054444E+04 -3.571969E+03 -5.943681E+04
       160  23 -4.587016E+03  5.407814E+05  4.467018E+04 -2.887766E+04 -1.004378E+04 -3.571660E+04
       160  24 -3.375662E+03  5.524181E+05  3.234043E+04 -5.059976E+04 -7.295112E+03 -1.198944E+04
       160  25 -9.205316E+03  2.141881E+05  9.856990E+03 -1.870191E+04 -3.580331E+03 -5.118073E+04
       160  26 -6.641553E+04  2.895296E+05 -1.323864E+04 -1.844788E+04 -1.004569E+04 -3.433486E+04
       160  27 -4.399127E+04  3.869426E+05 -5.462959E+03 -6.158656E+04 -7.290071E+03 -1.747962E+04
       161   1  2.578331E+04  6.333840E+05  4.947756E+04 -5.418306E+04  3.676062E+03  4.003046E+03
       161   2 -1.400101E+03  5.442823E+05  2.824238E+04 -2.847720E+04 -4.981898E+01 -1.043352E+04
       161   3 -1.232598E+04  4.610396E+05  2.044386E+04 -4.642635E+04 -3.772303E+03 -2.486819E+04
       161   4  4.938622E+03  5.485547E+05  3.006554E+04 -5.064252E+04  3.673569E+03  6.787632E+03
       161   5 -1.068950E+03  5.456276E+05  2.854991E+04 -2.881339E+04 -5.231147E+01 -7.651162E+03
       161   6  9.181737E+03  5.485527E+05  4.047290E+04 -5.063873E+04 -3.774642E+03 -2.209001E+04
       161   7 -1.590651E+04  4.637320E+05  1.065307E+04 -4.710245E+04  3.671108E+03  9.571841E+03
       161   8 -7.377948E+02  5.469730E+05  2.885747E+04 -2.914959E+04 -5.480698E+01 -4.868799E+03
       161   9  3.068900E+04  6.360729E+05  6.050147E+04 -5.485171E+04 -3.777017E+03 -1.931144E+04
       161  10  2.578329E+04  6.333840E+05  4.947751E+04 -5.418308E+04 -1.398740E-09  2.817147E-09
       161  11 -1.400131E+03  5.442822E+05  2.824217E+04 -2.847720E+04  3.254203E-10 -1.040364E-09
       161  12 -1.232616E+04  4.610389E+05  2.044267E+04 -4.642642E+04 -5.320495E-10 -3.431192E-10
       161  13  4.938595E+03  5.485546E+05  3.006543E+04 -5.064254E+04 -7.483155E-10  1.714029E-11
       161  14 -1.068966E+03  5.456276E+05  2.854980E+04 -2.881339E+04  2.108504E-10 -2.461365E-10
       161  15  9.181591E+03  5.485522E+05  4.047196E+04 -5.063880E+04  3.394956E-10 -1.506017E-09
       161  16 -1.590655E+04  4.637319E+05  1.065288E+04 -4.710248E+04  1.393665E-09 -2.337965E-09
       161  17 -7.378012E+02  5.469730E+05  2.885742E+04 -2.914959E+04  1.457608E-09 -1.190753E-09
       161  18  3.068888E+04  6.360725E+05  6.050075E+04 -5.485177E+04  1.748255E-09 -5.348704E-11
       161  19  2.578331E+04  6.333840E+05  4.947756E+04 -5.418306E+04 -3.676062E+03 -4.003046E+03
       161  20 -1.400101E+03  5.442823E+05  2.824238E+04 -2.847720E+04  4.981898E+01  1.043352E+04
       161  21 -1.232598E+04  4.610396E+05  2.044386E+04 -4.642635E+04  3.772303E+03  2.486819E+04
       161  22  4.938622E+03  5.485547E+05  3.006554E+04 -5.064252E+04 -3.673569E+03 -6.787632E+03
       161  23 -1.068950E+03  5.456276E+05  2.854991E+04 -2.881339E+04  5.231147E+01  7.651162E+03
       161  24  9.181737E+03  5.485527E+05  4.047290E+04 -5.063873E+04  3.774642E+03  2.209001E+04
       161  25 -1.590651E+04  4.637320E+05  1.065307E+04 -4.710245E+04 -3.671108E+03 -9.571841E+03
       161  26 -7.377948E+02  5.469730E+05  2.885747E+04 -2.914959E+04  5.480698E+01  4.868799E+03
       161  27  3.068900E+04  6.360729E+05  6.050147E+04 -5.485171E+04  3.777017E+03  1.931144E+04
       162   1 -4.795752E+04  3.879831E+05  9.087262E+03 -6.983893E+04 -7.395777E+03 -3.483064E+04
       162   2 -7.044206E+04  2.821620E+05  1.533080E+04 -1.091190E+04 -1.013272E+04 -6.726595E+04
       162   3  4.596727E+04  2.152605E+05  7.740586E+04  4.646185E+03 -3.588537E+03 -9.968910E+04
       162   4 -6.696339E+03  5.561627E+05  4.750329E+04 -5.060563E+04 -7.401589E+03 -2.932694E+04
       162   5 -7.939696E+03  5.360960E+05  7.385863E+04 -2.887540E+04 -1.012942E+04 -6.868692E+04
       162   6  1.308749E+05  5.561172E+05  1.608321E+05 -5.050885E+04 -3.573927E+03 -1.080395E+05
       162   7  3.456430E+04  7.243694E+05  8.591778E+04 -3.136708E+04 -7.407059E+03 -2.382176E+04
       162   8  5.455936E+04  7.900904E+05  1.323824E+05 -4.684629E+04 -1.012603E+04 -7.010846E+04
       162   9  2.157853E+05  8.970863E+05  2.442518E+05 -1.056942E+05 -3.557839E+03 -1.163945E+05
       162  10 -4.795791E+04  3.879818E+05  9.084881E+03 -6.983913E+04  2.087988E-09  1.437290E-09
       162  11 -7.044338E+04  2.821571E+05  1.532211E+04 -1.091244E+04  1.779881E-09 -1.823462E-09
       162  12  4.596459E+04  2.152498E+05  7.738717E+04  4.645897E+03 -8.976109E-11 -1.408064E-09
       162  13 -6.696628E+03  5.561618E+05  4.750157E+04 -5.060581E+04 -1.151803E-10  9.036983E-11
       162  14 -7.941072E+03  5.360909E+05  7.384958E+04 -2.887596E+04  2.867885E-09 -2.242506E-10
       162  15  1.308717E+05  5.561046E+05  1.608102E+05 -5.050916E+04  2.207706E-09 -7.425713E-10
       162  16  3.456409E+04  7.243688E+05  8.591662E+04 -3.136723E+04 -1.132250E-09 -1.111249E-09
       162  17  5.455793E+04  7.900851E+05  1.323729E+05 -4.684686E+04 -9.714465E-10 -3.106461E-10
       162  18  2.157817E+05  8.970717E+05  2.442263E+05 -1.056945E+05 -3.447878E-10  1.126606E-09
       162  19 -4.795752E+04  3.879831E+05  9.087262E+03 -6.983893E+04  7.395777E+03  3.483064E+04
       162  20 -7.044206E+04  2.821620E+05  1.533080E+04 -1.091190E+04  1.013272E+04  6.726595E+04
       162  21  4.596727E+04  2.152605E+05  7.740586E+04  4.646185E+03  3.588537E+03  9.968910E+04
       162  22 -6.696339E+03  5.561627E+05  4.750329E+04 -5.060563E+04  7.401589E+03  2.932694E+04
       162  23 -7.939696E+03  5.360960E+05  7.385863E+04 -2.887540E+04  1.012942E+04  6.868692E+04
       162  24  1.308749E+05  5.561172E+05  1.608321E+05 -5.050885E+04  3.573927E+03  1.080395E+05
       162  25  3.456430E+04  7.243694E+05  8.591778E+04 -3.136708E+04  7.407059E+03  2.382176E+04
       162  26  5.455936E+04  7.900904E+05  1.323824E+05 -4.684629E+04  1.012603E+04  7.010846E+04
       162  27  2.157853E+05  8.970863E+05  2.442518E+05 -1.056942E+05  3.557839E+03  1.163945E+05
       163   1  8.762628E+04  3.488388E+04  1.950576E+04 -6.590870E+03 -3.976068E+04 -4.699528E+03
       163   2  6.395506E+04  8.955329E+04  4.729832E+04  2.443776E+03 -2.931799E+04 -1.440722E+04
       163   3  2.323240E+04  8.139785E+04  5.259967E+04  2.742117E+04 -1.888848E+04 -1.440280E+04
       163   4 -2.944541E+05 -6.011886E+04 -7.375659E+04  1.825100E+04 -5.058517E+04 -4.715109E+03
       163   5 -2.852884E+05  3.652863E+03 -3.305872E+04  1.023612E+04 -3.292538E+04 -1.441326E+04
       163   6 -2.944395E+05  3.326189E+03 -1.987512E+04  1.816503E+04 -1.527796E+04 -1.439741E+04
       163   7 -6.763997E+05 -1.551300E+05 -1.670288E+05  4.307750E+04 -6.140300E+04 -4.731562E+03
       163   8 -6.344189E+05 -8.225585E+04 -1.134238E+05  1.802401E+04 -3.653075E+04 -1.441938E+04
       163   9 -6.120176E+05 -7.475216E+04 -9.235640E+04  8.913625E+03 -1.166928E+04 -1.439214E+04
       163  10  8.762457E+04  3.488343E+04  1.950274E+04 -6.591021E+03 -1.073962E-08  6.973480E-10
       163  11  6.395408E+04  8.955284E+04  4.729631E+04  2.443436E+03  1.659996E-09  6.127727E-09
       163  12  2.323196E+04  8.139753E+04  5.259861E+04  2.742095E+04  9.975060E-09  1.526448E-09
       163  13 -2.944568E+05 -6.011957E+04 -7.376144E+04  1.825080E+04  1.951258E-10 -5.375290E-10
       163  14 -2.852897E+05  3.652349E+03 -3.306115E+04  1.023574E+04  6.613665E-10 -4.764121E-09
       163  15 -2.944398E+05  3.325904E+03 -1.987594E+04  1.816485E+04 -2.452379E-10  5.105651E-10
       163  16 -6.764038E+05 -1.551310E+05 -1.670359E+05  4.307726E+04  1.105006E-08  1.146375E-09
       163  17 -6.344204E+05 -8.225643E+04 -1.134267E+05  1.802358E+04 -2.145124E-09  3.254787E-09
       163  18 -6.120178E+05 -7.475241E+04 -9.235705E+04  8.913490E+03 -1.049033E-08 -7.928760E-10
       163  19  8.762628E+04  3.488388E+04  1.950576E+04 -6.590870E+03  3.976068E+04  4.699528E+03
       163  20  6.395506E+04  8.955329E+04  4.729832E+04  2.443776E+03  2.931799E+04  1.440722E+04
       163  21  2.323240E+04  8.139785E+04  5.259967E+04  2.742117E+04  1.888848E+04  1.440280E+04
       163  22 -2.944541E+05 -6.011886E+04 -7.375659E+04  1.825100E+04  5.058517E+04  4.715109E+03
       163  23 -2.852884E+05  3.652863E+03 -3.305872E+04  1.023612E+04  3.292538E+04  1.441326E+04
       163  24 -2.944395E+05  3.326189E+03 -1.987512E+04  1.816503E+04  1.527796E+04  1.439741E+04
       163  25 -6.763997E+05 -1.551300E+05 -1.670288E+05  4.307750E+04  6.140300E+04  4.731562E+03
       163  26 -6.344189E+05 -8.225585E+04 -1.134238E+05  1.802401E+04  3.653075E+04  1.441938E+04
       163  27 -6.120176E+05 -7.475216E+04 -9.235640E+04  8.913625E+03  1.166928E+04  1.439214E+04
       164   1 -3.266587E+03  6.640248E+04  4.993465E+04  1.715377E+04 -1.299091E+04 -1.234740E+04
       164   2 -3.467211E+04  6.307163E+04  4.989050E+04  1.007128E+04 -9.059698E+03 -1.126545E+04
       164   3 -6.777672E+04  5.512825E+04  4.612660E+04  1.933174E+04 -5.130087E+03 -9.712997E+03
       164   4 -2.907581E+05 -4.281933E+03 -1.597802E+04  1.828349E+04 -1.236190E+04 -1.234681E+04
       164   5 -2.898743E+05  3.509904E+02 -8.471854E+03  1.010787E+04 -8.082457E+03 -1.126409E+04
       164   6 -2.907525E+05  3.096378E+02 -4.928734E+03  1.827571E+04 -3.804419E+03 -9.710797E+03
       164   7 -5.781730E+05 -7.497209E+04 -8.189614E+04  1.941264E+04 -1.173318E+04 -1.234621E+04
       164   8 -5.450161E+05 -6.237418E+04 -6.683847E+04  1.014442E+04 -7.105613E+03 -1.126273E+04
       164   9 -5.136822E+05 -5.451243E+04 -5.598733E+04  1.722003E+04 -2.479222E+03 -9.708600E+03
       164  10 -3.266809E+03  6.640227E+04  4.993405E+04  1.715365E+04 -4.287622E-11 -8.216297E-10
       164  11 -3.467224E+04  6.307147E+04  4.989010E+04  1.007119E+04  6.756914E-10  4.041029E-09
       164  12 -6.777677E+04  5.512814E+04  4.612637E+04  1.933170E+04  2.543233E-09  4.341627E-09
       164  13 -2.907583E+05 -4.282138E+03 -1.597860E+04  1.828336E+04 -2.151386E-10  4.154813E-09
       164  14 -2.898744E+05  3.508366E+02 -8.472215E+03  1.010779E+04  1.250605E-09 -1.017325E-08
       164  15 -2.907525E+05  3.095326E+02 -4.928939E+03  1.827568E+04  6.128647E-11  3.400055E-09
       164  16 -5.781732E+05 -7.497229E+04 -8.189669E+04  1.941252E+04  3.137783E-09 -4.714557E-09
       164  17 -5.450162E+05 -6.237433E+04 -6.683880E+04  1.014435E+04 -1.642971E-09 -1.058956E-09
       164  18 -5.136822E+05 -5.451253E+04 -5.598752E+04  1.722001E+04 -2.400847E-09  9.032276E-10
       164  19 -3.266587E+03  6.640248E+04  4.993465E+04  1.715377E+04  1.299091E+04  1.234740E+04
       164  20 -3.467211E+04  6.307163E+04  4.989050E+04  1.007128E+04  9.059698E+03  1.126545E+04
       164  21 -6.777672E+04  5.512825E+04  4.612660E+04  1.933174E+04  5.130087E+03  9.712997E+03
       164  22 -2.907581E+05 -4.281933E+03 -1.597802E+04  1.828349E+04  1.236190E+04  1.234681E+04
       164  23 -2.898743E+05  3.509904E+02 -8.471854E+03  1.010787E+04  8.082457E+03  1.126409E+04
       164  24 -2.907525E+05  3.096378E+02 -4.928734E+03  1.827571E+04  3.804419E+03  9.710797E+03
       164  25 -5.781730E+05 -7.497209E+04 -8.189614E+04  1.941264E+04  1.173318E+04  1.234621E+04
       164  26 -5.450161E+05 -6.237418E+04 -6.683847E+04  1.014442E+04  7.105613E+03  1.126273E+04
       164  27 -5.136822E+05 -5.451243E+04 -5.598733E+04  1.722003E+04  2.479222E+03  9.708600E+03
       165   1 -9.765005E+04  4.712897E+04  4.018238E+04  1.855425E+04 -4.221808E+03 -8.711599E+03
       165   2 -1.298933E+05  3.949271E+04  3.452835E+04  1.034715E+04 -3.179520E+03 -7.107366E+03
       165   3 -1.624084E+05  3.157329E+04  2.810994E+04  1.856858E+04 -2.137715E+03 -5.478790E+03
       165   4 -2.904192E+05 -2.307354E+02 -3.804316E+03  1.829730E+04 -3.038320E+03 -8.709553E+03
       165   5 -2.902799E+05  7.417190E+01 -2.137975E+03  1.008259E+04 -1.978244E+03 -7.105155E+03
       165   6 -2.904162E+05  9.292378E+01 -1.248393E+03  1.829668E+04 -9.185959E+02 -5.476406E+03
       165   7 -4.831539E+05 -4.759302E+04 -4.779344E+04  1.804042E+04 -1.855197E+03 -8.707509E+03
       165   8 -4.506427E+05 -3.934616E+04 -3.880598E+04  9.818092E+03 -7.772753E+02 -7.102944E+03
       165   9 -4.184087E+05 -3.138859E+04 -3.060780E+04  1.802482E+04  3.002734E+02 -5.474023E+03
       165  10 -9.765009E+04  4.712888E+04  4.018221E+04  1.855422E+04 -1.014451E-09 -4.051867E-09
       165  11 -1.298934E+05  3.949266E+04  3.452824E+04  1.034713E+04  4.405410E-09 -1.614736E-09
       165  12 -1.624085E+05  3.157326E+04  2.810988E+04  1.856857E+04  5.874281E-10 -9.775248E-10
       165  13 -2.904192E+05 -2.308193E+02 -3.804476E+03  1.829728E+04  9.067632E-12  1.870561E-10
       165  14 -2.902800E+05  7.411665E+01 -2.138077E+03  1.008258E+04 -1.485046E-09 -1.366479E-09
       165  15 -2.904162E+05  9.289135E+01 -1.248451E+03  1.829667E+04  1.614141E-09  6.541781E-10
       165  16 -4.831539E+05 -4.759310E+04 -4.779359E+04  1.804041E+04 -9.670283E-10 -2.452045E-09
       165  17 -4.506427E+05 -3.934621E+04 -3.880608E+04  9.818087E+03 -2.742853E-09  2.547521E-09
       165  18 -4.184087E+05 -3.138862E+04 -3.060786E+04  1.802482E+04 -3.344725E-10  8.748399E-09
       165  19 -9.765005E+04  4.712897E+04  4.018238E+04  1.855425E+04  4.221808E+03  8.711599E+03
       165  20 -1.298933E+05  3.949271E+04  3.452835E+04  1.034715E+04  3.179520E+03  7.107366E+03
       165  21 -1.624084E+05  3.157329E+04  2.810994E+04  1.856858E+04  2.137715E+03  5.478790E+03
       165  22 -2.904192E+05 -2.307354E+02 -3.804316E+03  1.829730E+04  3.038320E+03  8.709553E+03
       165  23 -2.902799E+05  7.417190E+01 -2.137975E+03  1.008259E+04  1.978244E+03  7.105155E+03
       165  24 -2.904162E+05  9.292378E+01 -1.248393E+03  1.829668E+04  9.185959E+02  5.476406E+03
       165  25 -4.831539E+05 -4.759302E+04 -4.779344E+04  1.804042E+04  1.855197E+03  8.707509E+03
       165  26 -4.506427E+05 -3.934616E+04 -3.880598E+04  9.818092E+03  7.772753E+02  7.102944E+03
       165  27 -4.184087E+05 -3.138859E+04 -3.060780E+04  1.802482E+04 -3.002734E+02  5.474023E+03
       166   1 -1.926664E+05  2.405472E+04  2.127794E+04  1.847571E+04 -1.934465E+03 -4.526053E+03
       166   2 -2.250629E+05  1.608892E+04  1.432805E+04  1.018780E+04 -1.646332E+03 -2.893850E+03
       166   3 -2.575681E+05  8.162684E+03  7.181856E+03  1.836495E+04 -1.358381E+03 -1.259885E+03
       166   4 -2.903777E+05  5.800996E+01 -9.660952E+02  1.830497E+04 -7.214340E+02 -4.523621E+03
       166   5 -2.903222E+05  4.913470E+01 -5.914344E+02  1.007236E+04 -4.320603E+02 -2.891362E+03
       166   6 -2.903766E+05  7.966385E+01 -4.139265E+02  1.830493E+04 -1.428537E+02 -1.257337E+03
       166   7 -3.880802E+05 -2.393937E+04 -2.321074E+04  1.813426E+04  4.914076E+02 -4.521189E+03
       166   8 -3.555775E+05 -1.599095E+04 -1.551119E+04  9.956938E+03  7.820847E+02 -2.888874E+03
       166   9 -3.231840E+05 -8.003431E+03 -8.009776E+03  1.824491E+04  1.072610E+03 -1.254789E+03
       166  10 -1.926664E+05  2.405470E+04  2.127789E+04  1.847570E+04 -7.473957E-09 -2.720947E-09
       166  11 -2.250629E+05  1.608891E+04  1.432803E+04  1.018779E+04 -1.300527E-08  3.368067E-09
       166  12 -2.575681E+05  8.162682E+03  7.181850E+03  1.836495E+04 -1.040204E-08  3.901766E-09
       166  13 -2.903777E+05  5.798785E+01 -9.661346E+02  1.830497E+04  1.077500E-09  1.911746E-09
       166  14 -2.903222E+05  4.912568E+01 -5.914505E+02  1.007236E+04 -8.849140E-10 -4.374792E-09
       166  15 -2.903766E+05  7.966215E+01 -4.139296E+02  1.830493E+04  1.033804E-09 -6.858415E-09
       166  16 -3.880802E+05 -2.393939E+04 -2.321078E+04  1.813426E+04  8.257360E-09  5.359593E-09
       166  17 -3.555775E+05 -1.599096E+04 -1.551121E+04  9.956940E+03  1.279402E-08  6.392616E-09
       166  18 -3.231841E+05 -8.003433E+03 -8.009781E+03  1.824491E+04  1.246030E-08  3.111523E-10
       166  19 -1.926664E+05  2.405472E+04  2.127794E+04  1.847571E+04  1.934465E+03  4.526053E+03
       166  20 -2.250629E+05  1.608892E+04  1.432805E+04  1.018780E+04  1.646332E+03  2.893850E+03
       166  21 -2.575681E+05  8.162684E+03  7.181856E+03  1.836495E+04  1.358381E+03  1.259885E+03
       166  22 -2.903777E+05  5.800996E+01 -9.660952E+02  1.830497E+04  7.214340E+02  4.523621E+03
       166  23 -2.903222E+05  4.913470E+01 -5.914344E+02  1.007236E+04  4.320603E+02  2.891362E+03
       166  24 -2.903766E+05  7.966385E+01 -4.139265E+02  1.830493E+04  1.428537E+02  1.257337E+03
       166  25 -3.880802E+05 -2.393937E+04 -2.321074E+04  1.813426E+04 -4.914076E+02  4.521189E+03
       166  26 -3.555775E+05 -1.599095E+04 -1.551119E+04  9.956938E+03 -7.820847E+02  2.888874E+03
       166  27 -3.231840E+05 -8.003431E+03 -8.009776E+03  1.824491E+04 -1.072610E+03  1.254789E+03
       167   1 -2.878977E+05  6.684667E+02  9.485386E+01  1.831167E+04 -1.289022E+03 -3.084309E+02
       167   2 -3.203104E+05 -7.322729E+03 -7.241750E+03  1.002060E+04 -1.100418E+03  1.325804E+03
       167   3 -3.528179E+05 -1.526181E+04 -1.470728E+04  1.820075E+04 -9.117482E+02  2.958765E+03
       167   4 -2.903732E+05  7.898285E+01 -3.761526E+02  1.830627E+04 -7.341298E+01 -3.058734E+02
       167   5 -2.903254E+05  4.755451E+01 -3.862145E+02  1.007069E+04  1.142122E+02  1.328332E+03
       167   6 -2.903737E+05  6.835905E+01 -5.246027E+02  1.830629E+04  3.019123E+02  2.961268E+03
       167   7 -2.928487E+05 -5.105005E+02 -8.471538E+02  1.830087E+04  1.142192E+03 -3.033160E+02
       167   8 -2.603396E+05  7.417777E+03  6.469268E+03  1.012079E+04  1.328900E+03  1.330860E+03
       167   9 -2.279260E+05  1.539826E+04  1.365783E+04  1.841183E+04  1.515694E+03  2.963771E+03
       167  10 -2.878977E+05  6.684661E+02  9.485056E+01  1.831167E+04  5.400178E-09  1.425019E-09
       167  11 -3.203104E+05 -7.322731E+03 -7.241756E+03  1.002060E+04  6.472319E-09 -3.685677E-09
       167  12 -3.528179E+05 -1.526182E+04 -1.470730E+04  1.820076E+04 -2.873053E-10 -2.137916E-09
       167  13 -2.903732E+05  7.898275E+01 -3.761528E+02  1.830627E+04  1.918134E-09 -2.845911E-10
       167  14 -2.903254E+05  4.755261E+01 -3.862179E+02  1.007069E+04  1.600652E-09 -5.733621E-09
       167  15 -2.903737E+05  6.834961E+01 -5.246193E+02  1.830629E+04  1.527901E-09 -2.333940E-09
       167  16 -2.928487E+05 -5.105010E+02 -8.471564E+02  1.830087E+04 -5.528524E-09 -1.122134E-10
       167  17 -2.603396E+05  7.417774E+03  6.469261E+03  1.012079E+04 -3.871690E-09 -7.890753E-09
       167  18 -2.279260E+05  1.539825E+04  1.365781E+04  1.841183E+04  1.922445E-09 -3.052034E-09
       167  19 -2.878977E+05  6.684667E+02  9.485386E+01  1.831167E+04  1.289022E+03  3.084309E+02
       167  20 -3.203104E+05 -7.322729E+03 -7.241750E+03  1.002060E+04  1.100418E+03 -1.325804E+03
       167  21 -3.528179E+05 -1.526181E+04 -1.470728E+04  1.820075E+04  9.117482E+02 -2.958765E+03
       167  22 -2.903732E+05  7.898285E+01 -3.761526E+02  1.830627E+04  7.341298E+01  3.058734E+02
       167  23 -2.903254E+05  4.755451E+01 -3.862145E+02  1.007069E+04 -1.142122E+02 -1.328332E+03
       167  24 -2.903737E+05  6.835905E+01 -5.246027E+02  1.830629E+04 -3.019123E+02 -2.961268E+03
       167  25 -2.928487E+05 -5.105005E+02 -8.471538E+02  1.830087E+04 -1.142192E+03  3.033160E+02
       167  26 -2.603396E+05  7.417777E+03  6.469268E+03  1.012079E+04 -1.328900E+03 -1.330860E+03
       167  27 -2.279260E+05  1.539826E+04  1.365783E+04  1.841183E+04 -1.515694E+03 -2.963771E+03
       168   1 -3.831477E+05 -2.273402E+04 -2.194945E+04  1.812015E+04 -8.140249E+02  3.911861E+03
       168   2 -4.154709E+05 -3.070944E+04 -2.967748E+04  9.876889E+03 -2.749111E+02  5.541648E+03
       168   3 -4.479643E+05 -3.879219E+04 -3.780040E+04  1.807723E+04  2.645379E+02  7.149485E+03
       168   4 -2.903908E+05  8.544288E+01 -6.469209E+02  1.830001E+04  4.053179E+02  3.914334E+03
       168   5 -2.903081E+05  5.741465E+01 -1.058630E+03  1.007847E+04  9.281866E+02  5.543979E+03
       168   6 -2.903931E+05 -7.489410E+01 -1.853703E+03  1.830033E+04  1.451418E+03  7.151683E+03
       168   7 -1.976260E+05  2.290430E+04  2.065505E+04  1.847990E+04  1.624842E+03  3.916806E+03
       168   8 -1.651307E+05  3.082318E+04  2.755920E+04  1.028009E+04  2.131525E+03  5.546312E+03
       168   9 -1.327988E+05  3.864068E+04  3.409138E+04  1.852348E+04  2.638597E+03  7.153880E+03
       168  10 -3.831477E+05 -2.273403E+04 -2.194948E+04  1.812015E+04 -5.251716E-09  7.608466E-10
       168  11 -4.154710E+05 -3.070948E+04 -2.967754E+04  9.876890E+03 -6.410703E-10 -1.944307E-09
       168  12 -4.479643E+05 -3.879225E+04 -3.780049E+04  1.807723E+04  5.275317E-09 -6.238296E-10
       168  13 -2.903908E+05  8.542638E+01 -6.469500E+02  1.830001E+04  3.225901E-09  1.301340E-09
       168  14 -2.903081E+05  5.738142E+01 -1.058689E+03  1.007847E+04  2.155775E-09  3.972990E-09
       168  15 -2.903931E+05 -7.494958E+01 -1.853803E+03  1.830032E+04 -1.745997E-09  9.934107E-10
       168  16 -1.976260E+05  2.290429E+04  2.065501E+04  1.847989E+04  4.585924E-09  3.453435E-09
       168  17 -1.651307E+05  3.082315E+04  2.755913E+04  1.028008E+04  1.006269E-09 -3.308306E-09
       168  18 -1.327989E+05  3.864062E+04  3.409127E+04  1.852346E+04 -6.578879E-09  1.525675E-09
       168  19 -3.831477E+05 -2.273402E+04 -2.194945E+04  1.812015E+04  8.140249E+02 -3.911861E+03
       168  20 -4.154709E+05 -3.070944E+04 -2.967748E+04  9.876889E+03  2.749111E+02 -5.541648E+03
       168  21 -4.479643E+05 -3.879219E+04 -3.780040E+04  1.807723E+04 -2.645379E+02 -7.149485E+03
       168  22 -2.903908E+05  8.544288E+01 -6.469209E+02  1.830001E+04 -4.053179E+02 -3.914334E+03
       168  23 -2.903081E+05  5.741465E+01 -1.058630E+03  1.007847E+04 -9.281866E+02 -5.543979E+03
       168  24 -2.903931E+05 -7.489410E+01 -1.853703E+03  1.830033E+04 -1.451418E+03 -7.151683E+03
       168  25 -1.976260E+05  2.290430E+04  2.065505E+04  1.847990E+04 -1.624842E+03 -3.916806E+03
       168  26 -1.651307E+05  3.082318E+04  2.755920E+04  1.028009E+04 -2.131525E+03 -5.546312E+03
       168  27 -1.327988E+05  3.864068E+04  3.409138E+04  1.852348E+04 -2.638597E+03 -7.153880E+03
       169   1 -4.783625E+05 -4.599976E+04 -4.542138E+04  1.765168E+04  5.064839E+02  8.146616E+03
       169   2 -5.101977E+05 -5.391866E+04 -5.444943E+04  9.975915E+03  2.895043E+03  9.706735E+03
       169   3 -5.429627E+05 -6.412041E+04 -6.561550E+04  1.867501E+04  5.284736E+03  1.083797E+04
       169   4 -2.905528E+05  1.864967E+02 -2.393394E+03  1.828369E+04  1.822969E+03  8.148969E+03
       169   5 -2.901174E+05  1.865928E+02 -4.103270E+03  1.009841E+04  3.893288E+03  9.708311E+03
       169   6 -2.905572E+05 -2.040322E+03 -7.729458E+03  1.828767E+04  5.964864E+03  1.083883E+04
       169   7 -1.027103E+05  4.637030E+04  4.063228E+04  1.891587E+04  3.139850E+03  8.151324E+03
       169   8 -6.999224E+04  5.428847E+04  4.623972E+04  1.022093E+04  4.891884E+03  9.709887E+03
       169   9 -3.809265E+04  6.003533E+04  5.015239E+04  1.790014E+04  6.645265E+03  1.083970E+04
       169  10 -4.783626E+05 -4.599983E+04 -4.542150E+04  1.765167E+04  9.867721E-09 -2.269135E-10
       169  11 -5.101977E+05 -5.391876E+04 -5.444963E+04  9.975893E+03 -9.297531E-10  3.123145E-09
       169  12 -5.429628E+05 -6.412054E+04 -6.561578E+04  1.867497E+04 -7.500035E-09 -2.883604E-09
       169  13 -2.905528E+05  1.864245E+02 -2.393525E+03  1.828367E+04 -8.703890E-10 -6.281423E-09
       169  14 -2.901175E+05  1.864876E+02 -4.103476E+03  1.009838E+04  1.367880E-09  6.249339E-09
       169  15 -2.905573E+05 -2.040458E+03 -7.729746E+03  1.828762E+04 -8.969033E-10 -1.814125E-09
       169  16 -1.027104E+05  4.637023E+04  4.063213E+04  1.891585E+04 -1.148478E-08 -1.654315E-09
       169  17 -6.999229E+04  5.428836E+04  4.623950E+04  1.022090E+04 -8.375475E-10 -7.199324E-09
       169  18 -3.809273E+04  6.003519E+04  5.015209E+04  1.790008E+04  7.063262E-09  1.823174E-09
       169  19 -4.783625E+05 -4.599976E+04 -4.542138E+04  1.765168E+04 -5.064839E+02 -8.146616E+03
       169  20 -5.101977E+05 -5.391866E+04 -5.444943E+04  9.975915E+03 -2.895043E+03 -9.706735E+03
       169  21 -5.429627E+05 -6.412041E+04 -6.561550E+04  1.867501E+04 -5.284736E+03 -1.083797E+04
       169  22 -2.905528E+05  1.864967E+02 -2.393394E+03  1.828369E+04 -1.822969E+03 -8.148969E+03
       169  23 -2.901174E+05  1.865928E+02 -4.103270E+03  1.009841E+04 -3.893288E+03 -9.708311E+03
       169  24 -2.905572E+05 -2.040322E+03 -7.729458E+03  1.828767E+04 -5.964864E+03 -1.083883E+04
       169  25 -1.027103E+05  4.637030E+04  4.063228E+04  1.891587E+04 -3.139850E+03 -8.151324E+03
       169  26 -6.999224E+04  5.428847E+04  4.623972E+04  1.022093E+04 -4.891884E+03 -9.709887E+03
       169  27 -3.809265E+04  6.003533E+04  5.015239E+04  1.790014E+04 -6.645265E+03 -1.083970E+04
       170   1 -5.749692E+05 -6.783671E+04 -7.411944E+04  1.353900E+04  3.975215E+03  1.278733E+04
       170   2 -6.022014E+05 -7.557166E+04 -8.834209E+04  1.379417E+04  1.909395E+04  1.294927E+04
       170   3 -6.394417E+05 -1.154148E+05 -1.204429E+05  3.004369E+04  3.422408E+04  4.250003E+03
       170   4 -2.923348E+05  1.637469E+03 -9.612274E+03  1.818762E+04  7.373473E+03  1.279264E+04
       170   5 -2.879093E+05  1.775405E+03 -1.598934E+04  1.021320E+04  1.590828E+04  1.294379E+04
       170   6 -2.923446E+05 -2.904264E+04 -3.566505E+04  1.823330E+04  2.445550E+04  4.235335E+03
       170   7 -9.626277E+03  7.110618E+04  5.488972E+04  2.283835E+04  1.077327E+04  1.279800E+04
       170   8  2.647435E+04  7.911562E+04  5.635691E+04  6.630372E+03  1.272101E+04  1.293835E+04
       170   9  5.486302E+04  5.732117E+04  4.910447E+04  6.416252E+03  1.468147E+04  4.221042E+03
       170  10 -5.749693E+05 -6.783689E+04 -7.411977E+04  1.353896E+04 -4.747873E-10 -2.447331E-09
       170  11 -6.022018E+05 -7.557194E+04 -8.834309E+04  1.379397E+04  4.620103E-09  7.994769E-10
       170  12 -6.394430E+05 -1.154151E+05 -1.204452E+05  3.004357E+04  1.533570E-09  2.821041E-09
       170  13 -2.923349E+05  1.637279E+03 -9.612684E+03  1.818755E+04 -1.074807E-09  2.485289E-10
       170  14 -2.879096E+05  1.775157E+03 -1.599013E+04  1.021304E+04 -2.025785E-09  1.349185E-09
       170  15 -2.923452E+05 -2.904282E+04 -3.566621E+04  1.823322E+04  6.160720E-10  2.172851E-09
       170  16 -9.626446E+03  7.110598E+04  5.488920E+04  2.283824E+04 -1.494599E-10  2.897666E-09
       170  17  2.647413E+04  7.911540E+04  5.635630E+04  6.630240E+03 -3.049001E-09  5.131093E-09
       170  18  5.486278E+04  5.732110E+04  4.910403E+04  6.416202E+03 -3.360560E-09 -2.495257E-10
       170  19 -5.749692E+05 -6.783671E+04 -7.411944E+04  1.353900E+04 -3.975215E+03 -1.278733E+04
       170  20 -6.022014E+05 -7.557166E+04 -8.834209E+04  1.379417E+04 -1.909395E+04 -1.294927E+04
       170  21 -6.394417E+05 -1.154148E+05 -1.204429E+05  3.004369E+04 -3.422408E+04 -4.250003E+03
       170  22 -2.923348E+05  1.637469E+03 -9.612274E+03  1.818762E+04 -7.373473E+03 -1.279264E+04
       170  23 -2.879093E+05  1.775405E+03 -1.598934E+04  1.021320E+04 -1.590828E+04 -1.294379E+04
       170  24 -2.923446E+05 -2.904264E+04 -3.566505E+04  1.823330E+04 -2.445550E+04 -4.235335E+03
       170  25 -9.626277E+03  7.110618E+04  5.488972E+04  2.283835E+04 -1.077327E+04 -1.279800E+04
       170  26  2.647435E+04  7.911562E+04  5.635691E+04  6.630372E+03 -1.272101E+04 -1.293835E+04
       170  27  5.486302E+04  5.732117E+04  4.910447E+04  6.416252E+03 -1.468147E+04 -4.221042E+03
       171   1 -1.993122E+05 -7.654499E+05 -1.937758E+05  1.745775E+05 -8.293114E+03 -5.953229E+04
       171   2 -1.386599E+05 -5.984249E+05 -1.219165E+05  1.495100E+05 -2.534207E+04 -2.460473E+04
       171   3 -9.504049E+04 -4.400547E+05 -7.706253E+04  1.607733E+05 -2.431722E+04  1.035471E+04
       171   4 -2.020508E+04 -4.229657E+04 -2.189371E+04  1.618782E+05 -8.329955E+03 -1.643287E+04
       171   5 -4.588306E+03 -4.052662E+04 -9.728884E+03  1.437211E+05 -2.535072E+04 -1.139806E+04
       171   6 -8.015286E+02 -4.223744E+04 -3.789266E+03  1.618949E+05 -2.430433E+04 -6.341596E+03
       171   7  1.588660E+05  6.813416E+05  1.499589E+05  1.491642E+05 -8.368544E+03  2.671656E+04
       171   8  1.294643E+05  5.176691E+05  1.024435E+05  1.379270E+05 -2.535961E+04  1.820263E+03
       171   9  9.342857E+04  3.557340E+05  6.947851E+04  1.630173E+05 -2.429150E+04 -2.304832E+04
       171  10 -1.993133E+05 -7.654538E+05 -1.937826E+05  1.745771E+05  3.161158E-10  2.683162E-09
       171  11 -1.386608E+05 -5.984257E+05 -1.219189E+05  1.495095E+05  6.953394E-10 -4.416347E-11
       171  12 -9.504115E+04 -4.400550E+05 -7.706384E+04  1.607735E+05 -1.774089E-09 -2.934344E-09
       171  13 -2.020522E+04 -4.229688E+04 -2.189434E+04  1.618781E+05  8.152957E-10  4.418193E-12
       171  14 -4.589030E+03 -4.052693E+04 -9.730335E+03  1.437209E+05  3.840899E-09  1.079081E-09
       171  15 -8.021736E+02 -4.223764E+04 -3.790451E+03  1.618948E+05  6.658218E-10  2.229982E-09
       171  16  1.588657E+05  6.813408E+05  1.499574E+05  1.491644E+05  1.930819E-09 -2.544715E-10
       171  17  1.294636E+05  5.176689E+05  1.024423E+05  1.379270E+05  7.151157E-10  3.489788E-10
       171  18  9.342779E+04  3.557333E+05  6.947640E+04  1.630169E+05 -4.871588E-11  3.081166E-09
       171  19 -1.993122E+05 -7.654499E+05 -1.937758E+05  1.745775E+05  8.293114E+03  5.953229E+04
       171  20 -1.386599E+05 -5.984249E+05 -1.219165E+05  1.495100E+05  2.534207E+04  2.460473E+04
       171  21 -9.504049E+04 -4.400547E+05 -7.706253E+04  1.607733E+05  2.431722E+04 -1.035471E+04
       171  22 -2.020508E+04 -4.229657E+04 -2.189371E+04  1.618782E+05  8.329955E+03  1.643287E+04
       171  23 -4.588306E+03 -4.052662E+04 -9.728884E+03  1.437211E+05  2.535072E+04  1.139806E+04
       171  24 -8.015286E+02 -4.223744E+04 -3.789266E+03  1.618949E+05  2.430433E+04  6.341596E+03
       171  25  1.588660E+05  6.813416E+05  1.499589E+05  1.491642E+05  8.368544E+03 -2.671656E+04
       171  26  1.294643E+05  5.176691E+05  1.024435E+05  1.379270E+05  2.535961E+04 -1.820263E+03
       171  27  9.342857E+04  3.557340E+05  6.947851E+04  1.630173E+05  2.429150E+04  2.304832E+04
       172   1 -6.993387E+04 -3.318917E+05 -5.480093E+04  1.623163E+05 -1.806501E+04  8.632732E+03
       172   2 -3.011982E+04 -1.694176E+05 -1.958543E+04  1.437798E+05 -8.962333E+03  8.144927E+03
       172   3  1.016269E+04 -6.644730E+03  1.608577E+04  1.626836E+05  6.618708E+02  7.656546E+03
       172   4 -1.177464E+03 -4.135563E+04 -1.620946E+03  1.621383E+05 -1.805472E+04 -6.005072E+03
       172   5 -8.239675E+01 -4.156062E+04  2.726003E+03  1.434193E+05 -8.952180E+03 -7.357873E+03
       172   6  1.632839E+03 -4.134177E+04  8.130156E+03  1.621401E+05  6.717808E+02 -8.711133E+03
       172   7  6.757427E+04  2.492630E+05  5.155641E+04  1.619601E+05 -1.804442E+04 -2.064954E+04
       172   8  2.995427E+04  8.631286E+04  2.503776E+04  1.430587E+05 -8.942010E+03 -2.286377E+04
       172   9 -6.896953E+03 -7.603712E+04  1.754732E+02  1.615967E+05  6.817196E+02 -2.507790E+04
       172  10 -6.993424E+04 -3.318919E+05 -5.480169E+04  1.623164E+05 -9.436568E-10  2.985539E-09
       172  11 -3.011993E+04 -1.694176E+05 -1.958570E+04  1.437798E+05  6.279277E-10  1.748936E-10
       172  12  1.016268E+04 -6.644793E+03  1.608565E+04  1.626836E+05 -3.621519E-10 -2.967824E-09
       172  13 -1.177823E+03 -4.135575E+04 -1.621627E+03  1.621382E+05  7.745269E-10 -5.439115E-10
       172  14 -8.249732E+01 -4.156070E+04  2.725751E+03  1.434192E+05  7.009262E-10 -1.061979E-09
       172  15  1.632818E+03 -4.134185E+04  8.130012E+03  1.621401E+05  1.330351E-09  1.229612E-09
       172  16  6.757381E+04  2.492624E+05  5.155500E+04  1.619598E+05  2.378903E-10 -2.040734E-09
       172  17  2.995405E+04  8.631227E+04  2.503663E+04  1.430586E+05 -1.837252E-10  1.038381E-09
       172  18 -6.897123E+03 -7.603780E+04  1.742903E+02  1.615967E+05 -5.293906E-11  3.446410E-09
       172  19 -6.993387E+04 -3.318917E+05 -5.480093E+04  1.623163E+05  1.806501E+04 -8.632732E+03
       172  20 -3.011982E+04 -1.694176E+05 -1.958543E+04  1.437798E+05  8.962333E+03 -8.144927E+03
       172  21  1.016269E+04 -6.644730E+03  1.608577E+04  1.626836E+05 -6.618708E+02 -7.656546E+03
       172  22 -1.177464E+03 -4.135563E+04 -1.620946E+03  1.621383E+05  1.805472E+04  6.005072E+03
       172  23 -8.239675E+01 -4.156062E+04  2.726003E+03  1.434193E+05  8.952180E+03  7.357873E+03
       172  24  1.632839E+03 -4.134177E+04  8.130156E+03  1.621401E+05 -6.717808E+02  8.711133E+03
       172  25  6.757427E+04  2.492630E+05  5.155641E+04  1.619601E+05  1.804442E+04  2.064954E+04
       172  26  2.995427E+04  8.631286E+04  2.503776E+04  1.430587E+05  8.942010E+03  2.286377E+04
       172  27 -6.896953E+03 -7.603712E+04  1.754732E+02  1.615967E+05 -6.817196E+02  2.507790E+04
       173   1  3.476727E+04  1.020544E+05  3.916982E+04  1.592433E+05  7.169872E+03  7.516766E+03
       173   2  8.189592E+04  2.591534E+05  8.512834E+04  1.551273E+05  1.182699E+04 -2.388149E+04
       173   3  1.575322E+05  4.275871E+05  1.586700E+05  1.877915E+05  4.451218E+03 -5.530006E+04
       173   4  8.743497E+02 -3.969303E+04  1.146857E+04  1.619876E+05  7.180897E+03 -1.012641E+04
       173   5  8.776120E+03 -4.363830E+04  2.218024E+04  1.436145E+05  1.182631E+04 -2.158961E+04
       173   6  4.173513E+04 -3.972407E+04  4.663982E+04  1.620192E+05  4.437584E+03 -3.306488E+04
       173   7 -3.301958E+04 -1.814205E+05 -1.623247E+04  1.647313E+05  7.191767E+03 -2.776565E+04
       173   8 -6.434901E+04 -3.463429E+05 -4.077280E+04  1.321074E+05  1.182554E+04 -1.929882E+04
       173   9 -7.407506E+04 -5.068328E+05 -6.540356E+04  1.362663E+05  4.422102E+03 -1.084636E+04
       173  10  3.476720E+04  1.020543E+05  3.916962E+04  1.592433E+05 -1.539257E-09 -1.591581E-09
       173  11  8.189562E+04  2.591527E+05  8.512701E+04  1.551276E+05 -4.188118E-09  1.033542E-09
       173  12  1.575314E+05  4.275838E+05  1.586642E+05  1.877917E+05 -7.157653E-10  2.333524E-09
       173  13  8.742668E+02 -3.969315E+04  1.146828E+04  1.619877E+05 -2.187610E-09 -5.538556E-10
       173  14  8.775845E+03 -4.363884E+04  2.217910E+04  1.436147E+05  4.468139E-10 -1.606093E-09
       173  15  4.173481E+04 -3.972525E+04  4.663773E+04  1.620193E+05 -7.991577E-10  7.972275E-10
       173  16 -3.301985E+04 -1.814213E+05 -1.623402E+04  1.647314E+05  1.699473E-09  2.760586E-09
       173  17 -6.434926E+04 -3.463433E+05 -4.077376E+04  1.321076E+05 -2.082527E-09 -7.315168E-10
       173  18 -7.407511E+04 -5.068329E+05 -6.540382E+04  1.362664E+05  1.064886E-09 -1.454533E-09
       173  19  3.476727E+04  1.020544E+05  3.916982E+04  1.592433E+05 -7.169872E+03 -7.516766E+03
       173  20  8.189592E+04  2.591534E+05  8.512834E+04  1.551273E+05 -1.182699E+04  2.388149E+04
       173  21  1.575322E+05  4.275871E+05  1.586700E+05  1.877915E+05 -4.451218E+03  5.530006E+04
       173  22  8.743497E+02 -3.969303E+04  1.146857E+04  1.619876E+05 -7.180897E+03  1.012641E+04
       173  23  8.776120E+03 -4.363830E+04  2.218024E+04  1.436145E+05 -1.182631E+04  2.158961E+04
       173  24  4.173513E+04 -3.972407E+04  4.663982E+04  1.620192E+05 -4.437584E+03  3.306488E+04
       173  25 -3.301958E+04 -1.814205E+05 -1.623247E+04  1.647313E+05 -7.191767E+03  2.776565E+04
       173  26 -6.434901E+04 -3.463429E+05 -4.077280E+04  1.321074E+05 -1.182554E+04  1.929882E+04
       173  27 -7.407506E+04 -5.068328E+05 -6.540356E+04  1.362663E+05 -4.422102E+03  1.084636E+04
       174   1  6.814699E+05  2.532076E+05  1.602247E+05  2.444066E+05  6.571360E+04  2.085952E+04
       174   2  6.568515E+05  1.566279E+05  9.920589E+04  2.411693E+05  4.271069E+04  4.154133E+03
       174   3  6.553191E+05  1.425738E+05  7.759391E+04  2.284191E+05  1.700943E+04 -5.379351E+03
       174   4  4.376807E+05  1.347734E+05  8.951233E+04  1.505790E+05  5.828483E+04  1.805947E+04
       174   5  4.218521E+05  6.023881E+04  3.815808E+04  1.680519E+05  4.028978E+04  3.241504E+03
       174   6  4.281289E+05  6.725450E+04  2.225583E+04  1.760091E+05  1.959506E+04 -4.405415E+03
       174   7  1.939541E+05  1.635681E+04  1.879545E+04  5.678967E+04  5.085935E+04  1.526145E+04
       174   8  1.869079E+05 -3.614317E+04 -2.289411E+04  9.496091E+04  3.786987E+04  2.329336E+03
       174   9  2.009877E+05 -8.064424E+03 -3.308636E+04  1.236149E+05  2.217967E+04 -3.431761E+03
       174  10  6.814651E+05  2.532060E+05  1.602158E+05  2.444055E+05 -4.478715E-09 -9.284128E-10
       174  11  6.568495E+05  1.566274E+05  9.920243E+04  2.411692E+05 -3.168449E-09  3.700784E-10
       174  12  6.553188E+05  1.425737E+05  7.759331E+04  2.284192E+05  1.608453E-09 -2.330868E-10
       174  13  4.376770E+05  1.347721E+05  8.950534E+04  1.505781E+05 -2.493471E-11  1.746024E-09
       174  14  4.218504E+05  6.023837E+04  3.815501E+04  1.680518E+05 -1.860282E-09 -3.021724E-09
       174  15  4.281284E+05  6.725437E+04  2.225507E+04  1.760092E+05 -1.440823E-09  3.470076E-09
       174  16  1.939512E+05  1.635586E+04  1.879015E+04  5.678905E+04  2.537322E-09  2.725923E-09
       174  17  1.869063E+05 -3.614357E+04 -2.289682E+04  9.496084E+04 -1.729027E-09  3.461672E-09
       174  18  2.009872E+05 -8.064569E+03 -3.308730E+04  1.236150E+05 -4.114510E-09  3.743762E-10
       174  19  6.814699E+05  2.532076E+05  1.602247E+05  2.444066E+05 -6.571360E+04 -2.085952E+04
       174  20  6.568515E+05  1.566279E+05  9.920589E+04  2.411693E+05 -4.271069E+04 -4.154133E+03
       174  21  6.553191E+05  1.425738E+05  7.759391E+04  2.284191E+05 -1.700943E+04  5.379351E+03
       174  22  4.376807E+05  1.347734E+05  8.951233E+04  1.505790E+05 -5.828483E+04 -1.805947E+04
       174  23  4.218521E+05  6.023881E+04  3.815808E+04  1.680519E+05 -4.028978E+04 -3.241504E+03
       174  24  4.281289E+05  6.725450E+04  2.225583E+04  1.760091E+05 -1.959506E+04  4.405415E+03
       174  25  1.939541E+05  1.635681E+04  1.879545E+04  5.678967E+04 -5.085935E+04 -1.526145E+04
       174  26  1.869079E+05 -3.614317E+04 -2.289411E+04  9.496091E+04 -3.786987E+04 -2.329336E+03
       174  27  2.009877E+05 -8.064424E+03 -3.308636E+04  1.236149E+05 -2.217967E+04  3.431761E+03
       175   1  6.231725E+05  1.510692E+05  6.820826E+04  2.274490E+05  1.569360E+04 -4.141031E+03
       175   2  6.054022E+05  1.325165E+05  5.384880E+04  2.175451E+05  1.059706E+04 -5.268291E+03
       175   3  5.821892E+05  1.281741E+05  4.468910E+04  2.157342E+05  5.363331E+03 -6.031678E+03
       175   4  4.252425E+05  7.518313E+04  1.785042E+04  1.712963E+05  1.604803E+04 -4.007786E+03
       175   5  4.276188E+05  6.548200E+04  8.941838E+03  1.682384E+05  1.120662E+04 -5.038785E+03
       175   6  4.245023E+05  6.994170E+04  5.032245E+03  1.732732E+05  6.227841E+03 -5.705946E+03
       175   7  2.273508E+05 -6.998296E+02 -3.251059E+04  1.151600E+05  1.640234E+04 -3.874590E+03
       175   8  2.498667E+05 -1.550161E+03 -3.596754E+04  1.189445E+05  1.181599E+04 -4.809353E+03
       175   9  2.668402E+05  1.171105E+04 -3.462640E+04  1.308220E+05  7.092106E+03 -5.380303E+03
       175  10  6.231723E+05  1.510691E+05  6.820776E+04  2.274491E+05 -3.723299E-09 -5.933882E-09
       175  11  6.054021E+05  1.325164E+05  5.384853E+04  2.175451E+05 -3.752964E-09  6.850388E-09
       175  12  5.821892E+05  1.281740E+05  4.468898E+04  2.157342E+05 -5.679446E-10  7.191234E-09
       175  13  4.252422E+05  7.518304E+04  1.784990E+04  1.712964E+05  2.977461E-10  4.490129E-11
       175  14  4.276187E+05  6.548193E+04  8.941554E+03  1.682384E+05 -6.842836E-10 -4.113602E-09
       175  15  4.245022E+05  6.994165E+04  5.032111E+03  1.732732E+05 -1.848440E-10  3.356310E-09
       175  16  2.273505E+05 -6.999179E+02 -3.251112E+04  1.151601E+05 -3.586651E-09 -2.861682E-09
       175  17  2.498665E+05 -1.550224E+03 -3.596785E+04  1.189446E+05 -5.987884E-09 -2.835967E-09
       175  18  2.668402E+05  1.171101E+04 -3.462655E+04  1.308220E+05  8.575487E-10 -1.172408E-10
       175  19  6.231725E+05  1.510692E+05  6.820826E+04  2.274490E+05 -1.569360E+04  4.141031E+03
       175  20  6.054022E+05  1.325165E+05  5.384880E+04  2.175451E+05 -1.059706E+04  5.268291E+03
       175  21  5.821892E+05  1.281741E+05  4.468910E+04  2.157342E+05 -5.363331E+03  6.031678E+03
       175  22  4.252425E+05  7.518313E+04  1.785042E+04  1.712963E+05 -1.604803E+04  4.007786E+03
       175  23  4.276188E+05  6.548200E+04  8.941838E+03  1.682384E+05 -1.120662E+04  5.038785E+03
       175  24  4.245023E+05  6.994170E+04  5.032245E+03  1.732732E+05 -6.227841E+03  5.705946E+03
       175  25  2.273508E+05 -6.998296E+02 -3.251059E+04  1.151600E+05 -1.640234E+04  3.874590E+03
       175  26  2.498667E+05 -1.550161E+03 -3.596754E+04  1.189445E+05 -1.181599E+04  4.809353E+03
       175  27  2.668402E+05  1.171105E+04 -3.462640E+04  1.308220E+05 -7.092106E+03  5.380303E+03
       176   1  5.606388E+05  1.216739E+05  3.819786E+04  2.104238E+05  4.507543E+03 -5.568190E+03
       176   2  5.437546E+05  1.092724E+05  3.121694E+04  2.000545E+05  3.044639E+03 -4.884166E+03
       176   3  5.189536E+05  1.055850E+05  2.514762E+04  1.989822E+05  1.575446E+03 -4.184068E+03
       176   4  4.242193E+05  7.052271E+04  3.865285E+03  1.728663E+05  5.255697E+03 -5.286256E+03
       176   5  4.281522E+05  6.597377E+04  2.077376E+03  1.682907E+05  3.804249E+03 -4.597830E+03
       176   6  4.241659E+05  7.013706E+04  1.192296E+03  1.730123E+05  2.346475E+03 -3.893341E+03
       176   7  2.878174E+05  1.937255E+04 -3.046892E+04  1.353160E+05  6.003674E+03 -5.004388E+03
       176   8  3.125625E+05  2.267597E+04 -2.706332E+04  1.365323E+05  4.563706E+03 -4.311552E+03
       176   9  3.293870E+05  3.468966E+04 -2.276375E+04  1.470460E+05  3.117376E+03 -3.602663E+03
       176  10  5.606387E+05  1.216739E+05  3.819776E+04  2.104239E+05 -8.085354E-09 -3.374417E-09
       176  11  5.437546E+05  1.092723E+05  3.121688E+04  2.000545E+05 -6.924110E-09 -3.792577E-09
       176  12  5.189536E+05  1.055850E+05  2.514759E+04  1.989822E+05 -5.822916E-10  1.697795E-09
       176  13  4.242192E+05  7.052267E+04  3.865181E+03  1.728663E+05  2.423766E-09 -2.362163E-09
       176  14  4.281521E+05  6.597375E+04  2.077309E+03  1.682907E+05 -1.527523E-10 -2.688346E-09
       176  15  4.241659E+05  7.013704E+04  1.192257E+03  1.730124E+05  7.017069E-09  4.190720E-09
       176  16  2.878173E+05  1.937251E+04 -3.046903E+04  1.353161E+05  9.423406E-09  1.721316E-09
       176  17  3.125625E+05  2.267594E+04 -2.706339E+04  1.365323E+05  4.815203E-09  4.829797E-09
       176  18  3.293870E+05  3.468964E+04 -2.276380E+04  1.470460E+05  4.424037E-09 -4.685646E-10
       176  19  5.606388E+05  1.216739E+05  3.819786E+04  2.104238E+05 -4.507543E+03  5.568190E+03
       176  20  5.437546E+05  1.092724E+05  3.121694E+04  2.000545E+05 -3.044639E+03  4.884166E+03
       176  21  5.189536E+05  1.055850E+05  2.514762E+04  1.989822E+05 -1.575446E+03  4.184068E+03
       176  22  4.242193E+05  7.052271E+04  3.865285E+03  1.728663E+05 -5.255697E+03  5.286256E+03
       176  23  4.281522E+05  6.597377E+04  2.077376E+03  1.682907E+05 -3.804249E+03  4.597830E+03
       176  24  4.241659E+05  7.013706E+04  1.192296E+03  1.730123E+05 -2.346475E+03  3.893341E+03
       176  25  2.878174E+05  1.937255E+04 -3.046892E+04  1.353160E+05 -6.003674E+03  5.004388E+03
       176  26  3.125625E+05  2.267597E+04 -2.706332E+04  1.365323E+05 -4.563706E+03  4.311552E+03
       176  27  3.293870E+05  3.468966E+04 -2.276375E+04  1.470460E+05 -3.117376E+03  3.602663E+03
       177   1  4.984184E+05  9.797800E+04  1.958062E+04  1.933838E+05  1.165649E+03 -3.605869E+03
       177   2  4.817261E+05  8.608507E+04  1.409508E+04  1.830174E+05  4.513613E+02 -2.623469E+03
       177   3  4.568933E+05  8.243212E+04  8.843851E+03  1.819749E+05 -2.628898E+02 -1.641409E+03
       177   4  4.241367E+05  7.016758E+04  9.322000E+02  1.729676E+05  1.929685E+03 -3.317741E+03
       177   5  4.282061E+05  6.603673E+04  6.038212E+02  1.683099E+05  1.215194E+03 -2.335382E+03
       177   6  4.241344E+05  7.014598E+04  5.099655E+02  1.729761E+05  5.007261E+02 -1.353363E+03
       177   7  3.498607E+05  4.235764E+04 -1.771657E+04  1.525537E+05  2.693618E+03 -3.029652E+03
       177   8  3.746888E+05  4.598859E+04 -1.288766E+04  1.536035E+05  1.978955E+03 -2.047323E+03
       177   9  3.913764E+05  5.785986E+04 -7.824040E+03  1.639776E+05  1.264301E+03 -1.065334E+03
       177  10  4.984183E+05  9.797799E+04  1.958060E+04  1.933838E+05  4.695189E-09  7.505121E-09
       177  11  4.817261E+05  8.608506E+04  1.409506E+04  1.830174E+05  1.237318E-09  5.015328E-09
       177  12  4.568933E+05  8.243212E+04  8.843845E+03  1.819749E+05  1.996186E-09  2.621509E-09
       177  13  4.241367E+05  7.016757E+04  9.321723E+02  1.729676E+05  3.082049E-09  3.721498E-09
       177  14  4.282061E+05  6.603673E+04  6.038082E+02  1.683099E+05  6.818226E-10 -3.815857E-09
       177  15  4.241344E+05  7.014598E+04  5.099616E+02  1.729761E+05 -2.684919E-09 -2.732156E-09
       177  16  3.498607E+05  4.235763E+04 -1.771661E+04  1.525537E+05 -1.011945E-10 -3.301917E-10
       177  17  3.746888E+05  4.598858E+04 -1.288768E+04  1.536035E+05 -2.633940E-09 -2.696625E-09
       177  18  3.913764E+05  5.785986E+04 -7.824045E+03  1.639776E+05 -6.977923E-11 -2.298558E-09
       177  19  4.984184E+05  9.797800E+04  1.958062E+04  1.933838E+05 -1.165649E+03  3.605869E+03
       177  20  4.817261E+05  8.608507E+04  1.409508E+04  1.830174E+05 -4.513613E+02  2.623469E+03
       177  21  4.568933E+05  8.243212E+04  8.843851E+03  1.819749E+05  2.628898E+02  1.641409E+03
       177  22  4.241367E+05  7.016758E+04  9.322000E+02  1.729676E+05 -1.929685E+03  3.317741E+03
       177  23  4.282061E+05  6.603673E+04  6.038212E+02  1.683099E+05 -1.215194E+03  2.335382E+03
       177  24  4.241344E+05  7.014598E+04  5.099655E+02  1.729761E+05 -5.007261E+02  1.353363E+03
       177  25  3.498607E+05  4.235764E+04 -1.771657E+04  1.525537E+05 -2.693618E+03  3.029652E+03
       177  26  3.746888E+05  4.598859E+04 -1.288766E+04  1.536035E+05 -1.978955E+03  2.047323E+03
       177  27  3.913764E+05  5.785986E+04 -7.824040E+03  1.639776E+05 -1.264301E+03  1.065334E+03
       178   1  4.365031E+05  7.477224E+04  3.572963E+03  1.763880E+05 -5.892257E+02 -1.036433E+03
       178   2  4.198355E+05  6.291632E+04 -1.390015E+03  1.660257E+05 -1.359374E+03 -7.656154E+01
       178   3  3.950491E+05  5.930032E+04 -6.074212E+03  1.649733E+05 -2.129274E+03  8.828044E+02
       178   4  4.241390E+05  7.014295E+04  5.300285E+02  1.729741E+05  1.739673E+02 -7.485363E+02
       178   5  4.282008E+05  6.603905E+04  7.168056E+02  1.683132E+05 -5.965646E+02  2.111831E+02
       178   6  4.241435E+05  7.017505E+04  1.182646E+03  1.729620E+05 -1.366860E+03  1.170393E+03
       178   7  4.117750E+05  6.551368E+04 -2.512914E+03  1.695604E+05  9.371436E+02 -4.606457E+02
       178   8  4.365662E+05  6.916178E+04  2.823618E+03  1.706007E+05  1.662548E+02  4.989313E+02
       178   9  4.532385E+05  8.104978E+04  8.439407E+03  1.809509E+05 -6.044101E+02  1.457995E+03
       178  10  4.365031E+05  7.477224E+04  3.572960E+03  1.763880E+05 -4.034777E-10  4.949854E-09
       178  11  4.198355E+05  6.291632E+04 -1.390018E+03  1.660257E+05  3.765048E-09  1.067666E-09
       178  12  3.950491E+05  5.930032E+04 -6.074222E+03  1.649733E+05  9.237887E-09  1.304511E-09
       178  13  4.241390E+05  7.014295E+04  5.300274E+02  1.729741E+05  1.674447E-09  2.424246E-09
       178  14  4.282008E+05  6.603905E+04  7.168049E+02  1.683132E+05  2.880519E-09  4.799930E-09
       178  15  4.241435E+05  7.017504E+04  1.182640E+03  1.729620E+05  3.212927E-09  2.951108E-09
       178  16  4.117750E+05  6.551368E+04 -2.512916E+03  1.695604E+05  3.062219E-09 -2.291408E-09
       178  17  4.365662E+05  6.916178E+04  2.823617E+03  1.706007E+05  3.383366E-09 -1.225373E-09
       178  18  4.532385E+05  8.104978E+04  8.439403E+03  1.809509E+05 -2.107815E-09 -4.129005E-09
       178  19  4.365031E+05  7.477224E+04  3.572963E+03  1.763880E+05  5.892257E+02  1.036433E+03
       178  20  4.198355E+05  6.291632E+04 -1.390015E+03  1.660257E+05  1.359374E+03  7.656154E+01
       178  21  3.950491E+05  5.930032E+04 -6.074212E+03  1.649733E+05  2.129274E+03 -8.828044E+02
       178  22  4.241390E+05  7.014295E+04  5.300285E+02  1.729741E+05 -1.739673E+02  7.485363E+02
       178  23  4.282008E+05  6.603905E+04  7.168056E+02  1.683132E+05  5.965646E+02 -2.111831E+02
       178  24  4.241435E+05  7.017505E+04  1.182646E+03  1.729620E+05  1.366860E+03 -1.170393E+03
       178  25  4.117750E+05  6.551368E+04 -2.512914E+03  1.695604E+05 -9.371436E+02  4.606457E+02
       178  26  4.365662E+05  6.916178E+04  2.823618E+03  1.706007E+05 -1.662548E+02 -4.989313E+02
       178  27  4.532385E+05  8.104978E+04  8.439407E+03  1.809509E+05  6.044101E+02 -1.457995E+03
       179   1  3.746289E+05  5.164882E+04 -1.101627E+04  1.595011E+05 -2.599424E+03  1.435918E+03
       179   2  3.578536E+05  3.965235E+04 -1.500148E+04  1.489969E+05 -4.365099E+03  2.020311E+03
       179   3  3.332825E+05  3.648050E+04 -1.781638E+04  1.477243E+05 -6.125282E+03  2.590644E+03
       179   4  4.241899E+05  7.012698E+04  1.534542E+03  1.730117E+05 -1.831626E+03  1.725520E+03
       179   5  4.281225E+05  6.596916E+04  2.712514E+03  1.682993E+05 -3.607286E+03  2.306096E+03
       179   6  4.242613E+05  7.063798E+04  5.068717E+03  1.728184E+05 -5.377502E+03  2.872598E+03
       179   7  4.737534E+05  8.860537E+04  1.408522E+04  1.865233E+05 -1.063758E+03  2.015147E+03
       179   8  4.983964E+05  9.228635E+04  2.042615E+04  1.876037E+05 -2.849378E+03  2.591918E+03
       179   9  5.152482E+05  1.047960E+05  2.795317E+04  1.979159E+05 -4.629601E+03  3.154597E+03
       179  10  3.746289E+05  5.164881E+04 -1.101629E+04  1.595011E+05 -5.906612E-10 -6.491941E-09
       179  11  3.578536E+05  3.965234E+04 -1.500152E+04  1.489969E+05 -2.377061E-09 -3.347333E-09
       179  12  3.332825E+05  3.648049E+04 -1.781647E+04  1.477243E+05 -1.680298E-09  2.277006E-09
       179  13  4.241899E+05  7.012697E+04  1.534530E+03  1.730117E+05  1.474553E-09  2.507093E-09
       179  14  4.281225E+05  6.596915E+04  2.712480E+03  1.682993E+05  2.372426E-10  2.623506E-09
       179  15  4.242613E+05  7.063796E+04  5.068648E+03  1.728184E+05 -1.548957E-10  7.541981E-10
       179  16  4.737534E+05  8.860536E+04  1.408521E+04  1.865233E+05  3.328655E-09  6.318861E-09
       179  17  4.983964E+05  9.228634E+04  2.042613E+04  1.876037E+05  3.839967E-09  1.005709E-08
       179  18  5.152482E+05  1.047960E+05  2.795311E+04  1.979159E+05  2.345182E-10 -1.049401E-09
       179  19  3.746289E+05  5.164882E+04 -1.101627E+04  1.595011E+05  2.599424E+03 -1.435918E+03
       179  20  3.578536E+05  3.965235E+04 -1.500148E+04  1.489969E+05  4.365099E+03 -2.020311E+03
       179  21  3.332825E+05  3.648050E+04 -1.781638E+04  1.477243E+05  6.125282E+03 -2.590644E+03
       179  22  4.241899E+05  7.012698E+04  1.534542E+03  1.730117E+05  1.831626E+03 -1.725520E+03
       179  23  4.281225E+05  6.596916E+04  2.712514E+03  1.682993E+05  3.607286E+03 -2.306096E+03
       179  24  4.242613E+05  7.063798E+04  5.068717E+03  1.728184E+05  5.377502E+03 -2.872598E+03
       179  25  4.737534E+05  8.860537E+04  1.408522E+04  1.865233E+05  1.063758E+03 -2.015147E+03
       179  26  4.983964E+05  9.228635E+04  2.042615E+04  1.876037E+05  2.849378E+03 -2.591918E+03
       179  27  5.152482E+05  1.047960E+05  2.795317E+04  1.979159E+05  4.629601E+03 -3.154597E+03
       180   1  3.123141E+05  2.887508E+04 -2.157920E+04  1.436119E+05 -7.411762E+03  2.879083E+03
       180   2  2.954346E+05  1.529420E+04 -2.165047E+04  1.313615E+05 -1.361486E+04  1.751780E+03
       180   3  2.739425E+05  1.762202E+04 -1.532405E+04  1.267160E+05 -1.970357E+04  3.223253E+02
       180   4  4.246421E+05  6.986664E+04  6.604109E+03  1.733441E+05 -6.567730E+03  3.197298E+03
       180   5  4.274153E+05  6.533715E+04  1.174492E+04  1.682421E+05 -1.298276E+04  1.989964E+03
       180   6  4.256168E+05  7.675689E+04  2.345019E+04  1.707446E+05 -1.928365E+04  4.803893E+02
       180   7  5.369818E+05  1.108587E+05  3.478630E+04  2.030809E+05 -5.723535E+03  3.515571E+03
       180   8  5.594131E+05  1.153814E+05  4.513892E+04  2.051298E+05 -1.235052E+04  2.228205E+03
       180   9  5.773143E+05  1.358940E+05  6.222272E+04  2.147833E+05 -1.886361E+04  6.385003E+02
       180  10  3.123141E+05  2.887506E+04 -2.157931E+04  1.436119E+05  2.299513E-09  5.907238E-09
       180  11  2.954344E+05  1.529414E+04 -2.165082E+04  1.313616E+05  3.493992E-09  3.032227E-09
       180  12  2.739421E+05  1.762191E+04 -1.532478E+04  1.267160E+05  1.338448E-09  3.006728E-09
       180  13  4.246420E+05  6.986661E+04  6.604008E+03  1.733441E+05  1.142924E-09 -2.488455E-09
       180  14  4.274152E+05  6.533710E+04  1.174460E+04  1.682421E+05  3.032735E-09 -1.247378E-08
       180  15  4.256164E+05  7.675679E+04  2.344949E+04  1.707446E+05  9.647213E-10 -2.062581E-09
       180  16  5.369818E+05  1.108587E+05  3.478621E+04  2.030810E+05 -3.837976E-09 -7.021507E-09
       180  17  5.594129E+05  1.153813E+05  4.513862E+04  2.051299E+05 -1.214884E-10  1.879275E-09
       180  18  5.773139E+05  1.358939E+05  6.222205E+04  2.147833E+05  4.533957E-10 -6.751138E-09
       180  19  3.123141E+05  2.887508E+04 -2.157920E+04  1.436119E+05  7.411762E+03 -2.879083E+03
       180  20  2.954346E+05  1.529420E+04 -2.165047E+04  1.313615E+05  1.361486E+04 -1.751780E+03
       180  21  2.739425E+05  1.762202E+04 -1.532405E+04  1.267160E+05  1.970357E+04 -3.223253E+02
       180  22  4.246421E+05  6.986664E+04  6.604109E+03  1.733441E+05  6.567730E+03 -3.197298E+03
       180  23  4.274153E+05  6.533715E+04  1.174492E+04  1.682421E+05  1.298276E+04 -1.989964E+03
       180  24  4.256168E+05  7.675689E+04  2.345019E+04  1.707446E+05  1.928365E+04 -4.803893E+02
       180  25  5.369818E+05  1.108587E+05  3.478630E+04  2.030809E+05  5.723535E+03 -3.515571E+03
       180  26  5.594131E+05  1.153814E+05  4.513892E+04  2.051298E+05  1.235052E+04 -2.228205E+03
       180  27  5.773143E+05  1.358940E+05  6.222272E+04  2.147833E+05  1.886361E+04 -6.385003E+02
       181   1  2.460425E+05  1.045213E+04 -1.454476E+04  1.396843E+05 -2.597663E+04 -4.832274E+02
       181   2  2.329742E+05 -2.259506E+04  7.612836E+02  1.053549E+05 -4.905580E+04 -8.848778E+03
       181   3  2.507494E+05  4.805807E+04  5.935942E+04  5.551592E+04 -6.989346E+04 -2.316138E+04
       181   4  4.293981E+05  6.635103E+04  2.923832E+04  1.769453E+05 -2.370651E+04  3.727714E+02
       181   5  4.198552E+05  5.844556E+04  5.013488E+04  1.679877E+05 -5.093903E+04 -9.559607E+03
       181   6  4.419642E+05  1.550412E+05  1.176033E+05  1.435238E+05 -7.593054E+04 -2.544034E+04
       181   7  6.127871E+05  1.222499E+05  7.301924E+04  2.142151E+05 -2.143565E+04  1.228932E+03
       181   8  6.067696E+05  1.394915E+05  9.950516E+04  2.306383E+05 -5.282286E+04 -1.027075E+04
       181   9  6.332148E+05  2.620405E+05  1.758430E+05  2.315592E+05 -8.196955E+04 -2.772087E+04
       181  10  2.460418E+05  1.045195E+04 -1.454603E+04  1.396843E+05  1.854965E-09  6.021340E-09
       181  11  2.329716E+05 -2.259579E+04  7.566163E+02  1.053545E+05  2.100772E-09  1.812933E-10
       181  12  2.507440E+05  4.805618E+04  5.934924E+04  5.551462E+04  5.513126E-10  1.458621E-09
       181  13  4.293975E+05  6.635087E+04  2.923727E+04  1.769453E+05  1.241003E-09 -7.613936E-09
       181  14  4.198524E+05  5.844477E+04  5.012984E+04  1.679873E+05  7.154702E-10 -1.711571E-09
       181  15  4.419578E+05  1.550390E+05  1.175912E+05  1.435223E+05  1.912248E-11 -6.121391E-10
       181  16  6.127866E+05  1.222498E+05  7.301837E+04  2.142151E+05 -8.884301E-10 -9.503653E-09
       181  17  6.067666E+05  1.394906E+05  9.949972E+04  2.306379E+05  6.077547E-10 -4.085311E-09
       181  18  6.332073E+05  2.620379E+05  1.758289E+05  2.315574E+05  9.393074E-10  1.851763E-09
       181  19  2.460425E+05  1.045213E+04 -1.454476E+04  1.396843E+05  2.597663E+04  4.832274E+02
       181  20  2.329742E+05 -2.259506E+04  7.612836E+02  1.053549E+05  4.905580E+04  8.848778E+03
       181  21  2.507494E+05  4.805807E+04  5.935942E+04  5.551592E+04  6.989346E+04  2.316138E+04
       181  22  4.293981E+05  6.635103E+04  2.923832E+04  1.769453E+05  2.370651E+04 -3.727714E+02
       181  23  4.198552E+05  5.844556E+04  5.013488E+04  1.679877E+05  5.093903E+04  9.559607E+03
       181  24  4.419642E+05  1.550412E+05  1.176033E+05  1.435238E+05  7.593054E+04  2.544034E+04
       181  25  6.127871E+05  1.222499E+05  7.301924E+04  2.142151E+05  2.143565E+04 -1.228932E+03
       181  26  6.067696E+05  1.394915E+05  9.950516E+04  2.306383E+05  5.282286E+04  1.027075E+04
       181  27  6.332148E+05  2.620405E+05  1.758430E+05  2.315592E+05  8.196955E+04  2.772087E+04
       182   1 -1.366986E+05 -6.934754E+05 -1.376396E+05  8.288577E+04 -5.201881E+03 -2.269167E+04
       182   2 -8.816338E+04 -5.589271E+05 -9.129513E+04  4.577557E+04 -1.444460E+04 -8.374434E+03
       182   3 -5.607399E+04 -4.300836E+05 -5.834887E+04  7.490444E+04 -1.014225E+04  5.961544E+03
       182   4 -1.375416E+04 -2.000014E+05 -1.673523E+04  7.673756E+04 -5.215215E+03 -1.080310E+04
       182   5  7.123473E+02 -1.980031E+05 -8.023895E+03  4.362678E+04 -1.444589E+04 -6.551135E+03
       182   6  4.877813E+02 -1.999746E+05 -5.711738E+03  7.675363E+04 -1.013482E+04 -2.283688E+03
       182   7  1.091725E+05  2.936950E+05  1.041519E+05  7.058449E+04 -5.228781E+03  1.094908E+03
       182   8  8.957896E+04  1.630415E+05  7.523868E+04  4.147675E+04 -1.444720E+04 -4.726783E+03
       182   9  5.704592E+04  3.018372E+04  4.692218E+04  7.860352E+04 -1.012744E+04 -1.053195E+04
       182  10 -1.366988E+05 -6.934760E+05 -1.376406E+05  8.288568E+04 -8.459343E-10  7.199903E-10
       182  11 -8.816362E+04 -5.589273E+05 -9.129565E+04  4.577547E+04  1.447764E-09  1.640814E-09
       182  12 -5.607411E+04 -4.300837E+05 -5.834913E+04  7.490449E+04  3.180882E-10  6.786182E-10
       182  13 -1.375422E+04 -2.000015E+05 -1.673550E+04  7.673751E+04  8.217657E-10  3.200446E-11
       182  14  7.121117E+02 -1.980032E+05 -8.024368E+03  4.362670E+04 -1.375419E-09  1.541830E-09
       182  15  4.876696E+02 -1.999746E+05 -5.711941E+03  7.675361E+04 -2.448661E-09  1.618807E-09
       182  16  1.091724E+05  2.936950E+05  1.041518E+05  7.058450E+04  7.874924E-10 -7.083210E-10
       182  17  8.957873E+04  1.630414E+05  7.523825E+04  4.147670E+04  2.160599E-10 -4.490075E-10
       182  18  5.704578E+04  3.018358E+04  4.692178E+04  7.860343E+04 -3.359971E-09 -2.316629E-09
       182  19 -1.366986E+05 -6.934754E+05 -1.376396E+05  8.288577E+04  5.201881E+03  2.269167E+04
       182  20 -8.816338E+04 -5.589271E+05 -9.129513E+04  4.577557E+04  1.444460E+04  8.374434E+03
       182  21 -5.607399E+04 -4.300836E+05 -5.834887E+04  7.490444E+04  1.014225E+04 -5.961544E+03
       182  22 -1.375416E+04 -2.000014E+05 -1.673523E+04  7.673756E+04  5.215215E+03  1.080310E+04
       182  23  7.123473E+02 -1.980031E+05 -8.023895E+03  4.362678E+04  1.444589E+04  6.551135E+03
       182  24  4.877813E+02 -1.999746E+05 -5.711738E+03  7.675363E+04  1.013482E+04  2.283688E+03
       182  25  1.091725E+05  2.936950E+05  1.041519E+05  7.058449E+04  5.228781E+03 -1.094908E+03
       182  26  8.957896E+04  1.630415E+05  7.523868E+04  4.147675E+04  1.444720E+04  4.726783E+03
       182  27  5.704592E+04  3.018372E+04  4.692218E+04  7.860352E+04  1.012744E+04  1.053195E+04
       183   1 -2.730845E+04 -3.061619E+05 -2.973659E+04  7.754169E+04 -4.656905E+03  2.926644E+03
       183   2  6.207426E+03 -1.740478E+05  8.110854E+02  4.342155E+04  1.086775E+03  5.345524E+03
       183   3  3.682861E+04 -4.279198E+04  2.909331E+04  7.605411E+04  6.772053E+03  7.765074E+03
       183   4 -1.029478E+03 -1.992786E+05 -5.262250E+03  7.686355E+04 -4.653301E+03 -1.368698E+03
       183   5  1.140672E+02 -1.988385E+05 -4.859320E+03  4.348676E+04  1.090452E+03  1.093304E+03
       183   6 -1.643511E+03 -1.992805E+05 -6.750982E+03  7.686300E+04  6.775747E+03  3.555478E+03
       183   7  2.524871E+04 -9.238469E+04  1.921141E+04  7.618529E+04 -4.649688E+03 -5.664773E+03
       183   8 -5.979325E+03 -2.236286E+05 -1.052970E+04  4.355198E+04  1.094127E+03 -3.158747E+03
       183   9 -4.011733E+04 -3.557463E+05 -4.259682E+04  7.767169E+04  6.779430E+03 -6.530654E+02
       183  10 -2.730848E+04 -3.061619E+05 -2.973665E+04  7.754170E+04 -1.284570E-09  3.267178E-09
       183  11  6.207417E+03 -1.740478E+05  8.110294E+02  4.342155E+04  3.025815E-09  5.392228E-09
       183  12  3.682855E+04 -4.279206E+04  2.909311E+04  7.605407E+04  1.524163E-09  3.761780E-09
       183  13 -1.029501E+03 -1.992786E+05 -5.262295E+03  7.686354E+04 -2.766449E-09  2.140395E-09
       183  14  1.140656E+02 -1.988385E+05 -4.859324E+03  4.348676E+04  5.099538E-10 -1.560511E-09
       183  15 -1.643564E+03 -1.992805E+05 -6.751092E+03  7.686298E+04  3.108928E-09 -5.690981E-11
       183  16  2.524868E+04 -9.238473E+04  1.921131E+04  7.618526E+04 -3.826240E-09 -3.286552E-09
       183  17 -5.979329E+03 -2.236286E+05 -1.052972E+04  4.355198E+04 -2.376562E-09 -2.183194E-09
       183  18 -4.011738E+04 -3.557463E+05 -4.259690E+04  7.767170E+04  1.307461E-09 -3.828678E-09
       183  19 -2.730845E+04 -3.061619E+05 -2.973659E+04  7.754169E+04  4.656905E+03 -2.926644E+03
       183  20  6.207426E+03 -1.740478E+05  8.110854E+02  4.342155E+04 -1.086775E+03 -5.345524E+03
       183  21  3.682861E+04 -4.279198E+04  2.909331E+04  7.605411E+04 -6.772053E+03 -7.765074E+03
       183  22 -1.029478E+03 -1.992786E+05 -5.262250E+03  7.686355E+04  4.653301E+03  1.368698E+03
       183  23  1.140672E+02 -1.988385E+05 -4.859320E+03  4.348676E+04 -1.090452E+03 -1.093304E+03
       183  24 -1.643511E+03 -1.992805E+05 -6.750982E+03  7.686300E+04 -6.775747E+03 -3.555478E+03
       183  25  2.524871E+04 -9.238469E+04  1.921141E+04  7.618529E+04  4.649688E+03  5.664773E+03
       183  26 -5.979325E+03 -2.236286E+05 -1.052970E+04  4.355198E+04 -1.094127E+03  3.158747E+03
       183  27 -4.011733E+04 -3.557463E+05 -4.259682E+04  7.767169E+04 -6.779430E+03  6.530654E+02
       184   1  6.969413E+04  7.926256E+04  5.606428E+04  7.973017E+04  1.237989E+04  1.331372E+04
       184   2  1.022283E+05  2.132203E+05  8.244664E+04  4.035937E+04  1.649753E+04  8.841740E+03
       184   3  1.135121E+05  3.427519E+05  1.064865E+05  6.715613E+04  5.862008E+03  4.351168E+03
       184   4  9.551610E+02 -2.005084E+05 -7.878960E+03  7.674193E+04  1.238790E+04  4.761313E+03
       184   5  1.179500E+03 -1.973485E+05 -1.219935E+04  4.364275E+04  1.649568E+04  1.126532E+04
       184   6 -2.175864E+04 -2.005395E+05 -2.648730E+04  7.671499E+04  5.845862E+03  1.775145E+04
       184   7 -6.778917E+04 -4.802065E+05 -7.182704E+04  7.375507E+04  1.239600E+04 -3.787275E+03
       184   8 -9.988104E+04 -6.077614E+05 -1.068565E+05  4.692399E+04  1.649385E+04  1.368732E+04
       184   9 -1.570508E+05 -7.435615E+05 -1.594819E+05  8.626554E+04  5.830123E+03  3.114002E+04
       184  10  6.969392E+04  7.926233E+04  5.606366E+04  7.973003E+04 -1.159438E-09  8.026394E-09
       184  11  1.022280E+05  2.132201E+05  8.244598E+04  4.035925E+04 -2.202788E-09  4.337056E-09
       184  12  1.135120E+05  3.427519E+05  1.064864E+05  6.715611E+04 -2.169483E-09 -5.372157E-09
       184  13  9.549902E+02 -2.005084E+05 -7.879291E+03  7.674188E+04 -2.058045E-09  2.120925E-09
       184  14  1.179174E+03 -1.973487E+05 -1.220010E+04  4.364260E+04  1.207183E-09 -2.111123E-09
       184  15 -2.175876E+04 -2.005398E+05 -2.648796E+04  7.671491E+04 -1.798322E-09 -2.008464E-09
       184  16 -6.778934E+04 -4.802066E+05 -7.182736E+04  7.375511E+04 -5.973517E-10 -6.896863E-09
       184  17 -9.988138E+04 -6.077616E+05 -1.068574E+05  4.692381E+04 -2.516924E-11 -1.606263E-09
       184  18 -1.570510E+05 -7.435625E+05 -1.594838E+05  8.626539E+04 -1.400944E-09  3.826277E-09
       184  19  6.969413E+04  7.926256E+04  5.606428E+04  7.973017E+04 -1.237989E+04 -1.331372E+04
       184  20  1.022283E+05  2.132203E+05  8.244664E+04  4.035937E+04 -1.649753E+04 -8.841740E+03
       184  21  1.135121E+05  3.427519E+05  1.064865E+05  6.715613E+04 -5.862008E+03 -4.351168E+03
       184  22  9.551610E+02 -2.005084E+05 -7.878960E+03  7.674193E+04 -1.238790E+04 -4.761313E+03
       184  23  1.179500E+03 -1.973485E+05 -1.219935E+04  4.364275E+04 -1.649568E+04 -1.126532E+04
       184  24 -2.175864E+04 -2.005395E+05 -2.648730E+04  7.671499E+04 -5.845862E+03 -1.775145E+04
       184  25 -6.778917E+04 -4.802065E+05 -7.182704E+04  7.375507E+04 -1.239600E+04  3.787275E+03
       184  26 -9.988104E+04 -6.077614E+05 -1.068565E+05  4.692399E+04 -1.649385E+04 -1.368732E+04
       184  27 -1.570508E+05 -7.435615E+05 -1.594819E+05  8.626554E+04 -5.830123E+03 -3.114002E+04
       185   1  2.626225E+05  1.292238E+05  1.177628E+05  3.140326E+04  2.355861E+04 -9.116481E+03
       185   2  2.116980E+05  1.361310E+05  9.956333E+04  3.684762E+04  6.549804E+03 -3.041723E+04
       185   3  1.593989E+05  1.285775E+05  8.883407E+04  5.310008E+04 -1.046529E+04 -3.609015E+04
       185   4 -3.892544E+05 -3.175343E+04 -3.536432E+04  5.079577E+04 -2.463661E+04 -9.148775E+03
       185   5 -3.863035E+05 -6.804488E+03 -1.714713E+04  4.537884E+04 -1.575851E+04 -3.043690E+04
       185   6 -3.892291E+05 -8.193070E+02 -9.440295E+03  5.077072E+04 -6.888405E+03 -3.608970E+04
       185   7 -1.040734E+06 -1.927583E+05 -1.885116E+05  7.016772E+04 -7.278153E+04 -9.184098E+03
       185   8 -9.839607E+05 -1.497609E+05 -1.338728E+05  5.390158E+04 -3.804581E+04 -3.045719E+04
       185   9 -9.375635E+05 -1.302328E+05 -1.077261E+05  4.844340E+04 -3.314587E+03 -3.608929E+04
       185  10  2.626219E+05  1.292236E+05  1.177616E+05  3.140344E+04  9.383730E-10 -2.221235E-10
       185  11  2.116977E+05  1.361300E+05  9.956151E+04  3.684779E+04  3.911507E-10 -1.358250E-09
       185  12  1.593984E+05  1.285761E+05  8.883142E+04  5.309977E+04  1.031149E-09 -1.902671E-09
       185  13 -3.892551E+05 -3.175368E+04 -3.536562E+04  5.079559E+04 -1.338199E-10  4.727773E-10
       185  14 -3.863040E+05 -6.805550E+03 -1.714934E+04  4.537845E+04  1.260975E-09 -8.654894E-10
       185  15 -3.892295E+05 -8.207181E+02 -9.442831E+03  5.077052E+04  7.657947E-10 -2.488335E-10
       185  16 -1.040740E+06 -1.927598E+05 -1.885218E+05  7.016719E+04 -1.961057E-09  7.432598E-11
       185  17 -9.839625E+05 -1.497623E+05 -1.338772E+05  5.390064E+04  1.429958E-09 -2.371155E-09
       185  18 -9.375639E+05 -1.302342E+05 -1.077286E+05  4.844331E+04 -1.041149E-09 -2.651157E-09
       185  19  2.626225E+05  1.292238E+05  1.177628E+05  3.140326E+04 -2.355861E+04  9.116481E+03
       185  20  2.116980E+05  1.361310E+05  9.956333E+04  3.684762E+04 -6.549804E+03  3.041723E+04
       185  21  1.593989E+05  1.285775E+05  8.883407E+04  5.310008E+04  1.046529E+04  3.609015E+04
       185  22 -3.892544E+05 -3.175343E+04 -3.536432E+04  5.079577E+04  2.463661E+04  9.148775E+03
       185  23 -3.863035E+05 -6.804488E+03 -1.714713E+04  4.537884E+04  1.575851E+04  3.043690E+04
       185  24 -3.892291E+05 -8.193070E+02 -9.440295E+03  5.077072E+04  6.888405E+03  3.608970E+04
       185  25 -1.040734E+06 -1.927583E+05 -1.885116E+05  7.016772E+04  7.278153E+04  9.184098E+03
       185  26 -9.839607E+05 -1.497609E+05 -1.338728E+05  5.390158E+04  3.804581E+04  3.045719E+04
       185  27 -9.375635E+05 -1.302328E+05 -1.077261E+05  4.844340E+04  3.314587E+03  3.608929E+04
       186   1  1.261266E+05  1.197432E+05  8.410766E+04  5.081483E+04 -7.354391E+03 -3.455842E+04
       186   2  7.460441E+04  1.083773E+05  7.623392E+04  4.528249E+04 -7.635176E+03 -3.285507E+04
       186   3  2.297671E+04  9.645273E+04  6.840303E+04  5.158644E+04 -7.918227E+03 -2.978695E+04
       186   4 -3.880279E+05 -1.361020E+03 -7.197382E+03  5.100243E+04 -5.659513E+03 -3.455933E+04
       186   5 -3.877697E+05 -1.521792E+02 -3.965354E+03  4.508322E+04 -3.681191E+03 -3.285318E+04
       186   6 -3.880115E+05  1.056724E+02 -2.259949E+03  5.100085E+04 -1.705119E+03 -2.978173E+04
       186   7 -9.019241E+05 -1.224798E+05 -9.851229E+04  5.118981E+04 -3.965996E+03 -3.456024E+04
       186   8 -8.499341E+05 -1.086932E+05 -8.417202E+04  4.488404E+04  2.699407E+02 -3.285128E+04
       186   9 -7.988337E+05 -9.625041E+04 -7.292851E+04  5.041562E+04  4.504005E+03 -2.977653E+04
       186  10  1.261262E+05  1.197419E+05  8.410531E+04  5.081462E+04 -3.643223E-09 -2.096980E-09
       186  11  7.460406E+04  1.083761E+05  7.623179E+04  4.528229E+04 -3.134110E-09  1.402565E-09
       186  12  2.297640E+04  9.645176E+04  6.840125E+04  5.158625E+04  1.126076E-09  1.292903E-09
       186  13 -3.880282E+05 -1.362311E+03 -7.199686E+03  5.100228E+04  5.145182E-12 -1.276911E-09
       186  14 -3.877700E+05 -1.533417E+02 -3.967408E+03  4.508312E+04  2.947921E-09  4.278393E-10
       186  15 -3.880118E+05  1.047193E+02 -2.261620E+03  5.100081E+04  8.612371E-10 -1.506051E-09
       186  16 -9.019244E+05 -1.224811E+05 -9.851456E+04  5.118970E+04  1.795260E-09 -8.587518E-11
       186  17 -8.499344E+05 -1.086943E+05 -8.417405E+04  4.488405E+04  1.363046E-10  1.026074E-09
       186  18 -7.988340E+05 -9.625137E+04 -7.293021E+04  5.041572E+04 -1.389144E-09 -3.706150E-11
       186  19  1.261266E+05  1.197432E+05  8.410766E+04  5.081483E+04  7.354391E+03  3.455842E+04
       186  20  7.460441E+04  1.083773E+05  7.623392E+04  4.528249E+04  7.635176E+03  3.285507E+04
       186  21  2.297671E+04  9.645273E+04  6.840303E+04  5.158644E+04  7.918227E+03  2.978695E+04
       186  22 -3.880279E+05 -1.361020E+03 -7.197382E+03  5.100243E+04  5.659513E+03  3.455933E+04
       186  23 -3.877697E+05 -1.521792E+02 -3.965354E+03  4.508322E+04  3.681191E+03  3.285318E+04
       186  24 -3.880115E+05  1.056724E+02 -2.259949E+03  5.100085E+04  1.705119E+03  2.978173E+04
       186  25 -9.019241E+05 -1.224798E+05 -9.851229E+04  5.118981E+04  3.965996E+03  3.456024E+04
       186  26 -8.499341E+05 -1.086932E+05 -8.417202E+04  4.488404E+04 -2.699407E+02  3.285128E+04
       186  27 -7.988337E+05 -9.625041E+04 -7.292851E+04  5.041562E+04 -4.504005E+03  2.977653E+04
       187   1 -1.075774E+04  8.843999E+04  6.286731E+04  5.143922E+04 -7.410611E+03 -2.757898E+04
       187   2 -6.236834E+04  7.636476E+04  5.469017E+04  4.541649E+04 -7.125839E+03 -2.386468E+04
       187   3 -1.140320E+05  6.430414E+04  4.632524E+04  5.133318E+04 -6.842138E+03 -2.002993E+04
       187   4 -3.879153E+05  7.466614E+01 -1.718347E+03  5.102397E+04 -1.359338E+03 -2.757343E+04
       187   5 -3.878645E+05  1.141499E+02 -9.843908E+02  4.505404E+04 -8.756184E+02 -2.385816E+04
       187   6 -3.879041E+05  1.337586E+02 -5.766625E+02  5.102389E+04 -3.929478E+02 -2.002242E+04
       187   7 -7.649330E+05 -8.829823E+04 -6.630863E+04  5.060893E+04  4.688375E+03 -2.756789E+04
       187   8 -7.132564E+05 -7.614209E+04 -5.666234E+04  4.469174E+04  5.371428E+03 -2.385166E+04
       187   9 -6.617023E+05 -6.404060E+04 -4.748091E+04  5.071472E+04  6.053487E+03 -2.001491E+04
       187  10 -1.075801E+04  8.843916E+04  6.286578E+04  5.143905E+04  1.962084E-11  1.878661E-09
       187  11 -6.236855E+04  7.636414E+04  5.468901E+04  4.541635E+04  1.319396E-09  1.683166E-09
       187  12 -1.140322E+05  6.430370E+04  4.632439E+04  5.133307E+04  2.903480E-09 -1.682596E-10
       187  13 -3.879155E+05  7.384937E+01 -1.719779E+03  5.102394E+04  3.019321E-10 -2.198553E-09
       187  14 -3.878647E+05  1.135386E+02 -9.854617E+02  4.505402E+04 -1.839221E-09  9.249636E-10
       187  15 -3.879042E+05  1.333281E+02 -5.774160E+02  5.102389E+04  3.732042E-09  3.080874E-09
       187  16 -7.649332E+05 -8.829905E+04 -6.631009E+04  5.060903E+04  2.047175E-09  5.026384E-10
       187  17 -7.132566E+05 -7.614271E+04 -5.666346E+04  4.469185E+04  5.149213E-10  1.922177E-09
       187  18 -6.617024E+05 -6.404104E+04 -4.748174E+04  5.071481E+04 -1.502517E-09  7.541040E-10
       187  19 -1.075774E+04  8.843999E+04  6.286731E+04  5.143922E+04  7.410611E+03  2.757898E+04
       187  20 -6.236834E+04  7.636476E+04  5.469017E+04  4.541649E+04  7.125839E+03  2.386468E+04
       187  21 -1.140320E+05  6.430414E+04  4.632524E+04  5.133318E+04  6.842138E+03  2.002993E+04
       187  22 -3.879153E+05  7.466614E+01 -1.718347E+03  5.102397E+04  1.359338E+03  2.757343E+04
       187  23 -3.878645E+05  1.141499E+02 -9.843908E+02  4.505404E+04  8.756184E+02  2.385816E+04
       187  24 -3.879041E+05  1.337586E+02 -5.766625E+02  5.102389E+04  3.929478E+02  2.002242E+04
       187  25 -7.649330E+05 -8.829823E+04 -6.630863E+04  5.060893E+04 -4.688375E+03  2.756789E+04
       187  26 -7.132564E+05 -7.614209E+04 -5.666234E+04  4.469174E+04 -5.371428E+03  2.385166E+04
       187  27 -6.617023E+05 -6.404060E+04 -4.748091E+04  5.071472E+04 -6.053487E+03  2.001491E+04
       188   1 -1.478254E+05  5.634088E+04  4.044724E+04  5.129493E+04 -6.739594E+03 -1.776063E+04
       188   2 -1.994885E+05  4.424584E+04  3.188155E+04  4.525565E+04 -6.620113E+03 -1.386766E+04
       188   3 -2.511897E+05  3.218266E+04  2.323670E+04  5.117421E+04 -6.501198E+03 -9.963903E+03
       188   4 -3.878905E+05  1.340668E+02 -4.484449E+02  5.102797E+04 -3.029934E+02 -1.775279E+04
       188   5 -3.878650E+05  1.242209E+02 -2.867218E+02  4.504894E+04 -1.659990E+02 -1.385936E+04
       188   6 -3.878841E+05  1.430771E+02 -2.166846E+02  5.102796E+04 -2.956044E+01 -9.955131E+03
       188   7 -6.278989E+05 -5.607579E+04 -4.134587E+04  5.076109E+04  6.131197E+03 -1.774494E+04
       188   8 -5.762064E+05 -4.399927E+04 -3.245601E+04  4.484228E+04  6.286218E+03 -1.385105E+04
       188   9 -5.245600E+05 -3.189748E+04 -2.367054E+04  5.088174E+04  6.440696E+03 -9.946361E+03
       188  10 -1.478255E+05  5.634053E+04  4.044656E+04  5.129483E+04  6.069072E-10 -4.477997E-10
       188  11 -1.994886E+05  4.424562E+04  3.188111E+04  4.525557E+04 -1.041561E-09  2.901618E-09
       188  12 -2.511898E+05  3.218254E+04  2.323643E+04  5.117416E+04 -1.650803E-09  1.637521E-09
       188  13 -3.878906E+05  1.337284E+02 -4.490372E+02  5.102796E+04  1.063660E-09  7.226900E-10
       188  14 -3.878650E+05  1.240146E+02 -2.870828E+02  4.504894E+04  1.673409E-09  3.009228E-09
       188  15 -3.878841E+05  1.429707E+02 -2.168708E+02  5.102796E+04 -4.560918E-10 -1.472987E-10
       188  16 -6.278990E+05 -5.607614E+04 -4.134653E+04  5.076118E+04 -1.224086E-09  1.197481E-09
       188  17 -5.762065E+05 -4.399948E+04 -3.245645E+04  4.484235E+04 -5.630529E-10  1.242984E-09
       188  18 -5.245600E+05 -3.189760E+04 -2.367080E+04  5.088179E+04  8.606058E-10 -3.877989E-11
       188  19 -1.478254E+05  5.634088E+04  4.044724E+04  5.129493E+04  6.739594E+03  1.776063E+04
       188  20 -1.994885E+05  4.424584E+04  3.188155E+04  4.525565E+04  6.620113E+03  1.386766E+04
       188  21 -2.511897E+05  3.218266E+04  2.323670E+04  5.117421E+04  6.501198E+03  9.963903E+03
       188  22 -3.878905E+05  1.340668E+02 -4.484449E+02  5.102797E+04  3.029934E+02  1.775279E+04
       188  23 -3.878650E+05  1.242209E+02 -2.867218E+02  4.504894E+04  1.659990E+02  1.385936E+04
       188  24 -3.878841E+05  1.430771E+02 -2.166846E+02  5.102796E+04  2.956044E+01  9.955131E+03
       188  25 -6.278989E+05 -5.607579E+04 -4.134587E+04  5.076109E+04 -6.131197E+03  1.774494E+04
       188  26 -5.762064E+05 -4.399927E+04 -3.245601E+04  4.484228E+04 -6.286218E+03  1.385105E+04
       188  27 -5.245600E+05 -3.189748E+04 -2.367054E+04  5.088174E+04 -6.440696E+03  9.946361E+03
       189   1 -2.850114E+05  2.421702E+04  1.724050E+04  5.113727E+04 -6.465878E+03 -7.688011E+03
       189   2 -3.366891E+05  1.211829E+04  8.490652E+03  4.508947E+04 -6.343117E+03 -3.781025E+03
       189   3 -3.884133E+05  4.751271E+01 -3.434880E+02  5.100656E+04 -6.220503E+03  1.204596E+02
       189   4 -3.878829E+05  1.449626E+02 -2.083936E+02  5.102949E+04  5.991618E+00 -7.679073E+03
       189   5 -3.878587E+05  1.339458E+02 -2.402652E+02  4.504701E+04  1.194287E+02 -3.771982E+03
       189   6 -3.878812E+05  1.528100E+02 -3.498211E+02  5.102949E+04  2.327274E+02  1.296102E+02
       189   7 -4.907440E+05 -2.392763E+04 -1.765747E+04  5.092173E+04  6.476823E+03 -7.670136E+03
       189   8 -4.390256E+05 -1.185051E+04 -8.971112E+03  4.500457E+04  6.581458E+03 -3.762939E+03
       189   9 -3.873490E+05  2.581297E+02 -3.559976E+02  5.105241E+04  6.685963E+03  1.387613E+02
       189  10 -2.850114E+05  2.421695E+04  1.724031E+04  5.113723E+04  5.658956E-09 -7.632751E-10
       189  11 -3.366892E+05  1.211826E+04  8.490549E+03  4.508945E+04  1.787277E-09 -2.664550E-09
       189  12 -3.884134E+05  4.750230E+01 -3.435608E+02  5.100656E+04 -3.751402E-10 -1.822542E-09
       189  13 -3.878829E+05  1.448992E+02 -2.085044E+02  5.102949E+04 -2.989028E-10  2.898669E-09
       189  14 -3.878587E+05  1.339305E+02 -2.402919E+02  4.504702E+04  2.168228E-10 -4.600782E-10
       189  15 -3.878812E+05  1.528100E+02 -3.498212E+02  5.102949E+04 -1.759080E-09 -2.433609E-09
       189  16 -4.907440E+05 -2.392771E+04 -1.765766E+04  5.092177E+04 -4.343046E-09  1.139706E-09
       189  17 -4.390257E+05 -1.185054E+04 -8.971220E+03  4.500459E+04 -2.051369E-09 -1.403153E-09
       189  18 -3.873490E+05  2.581177E+02 -3.560817E+02  5.105241E+04  1.248860E-13 -2.544426E-09
       189  19 -2.850114E+05  2.421702E+04  1.724050E+04  5.113727E+04  6.465878E+03  7.688011E+03
       189  20 -3.366891E+05  1.211829E+04  8.490652E+03  4.508947E+04  6.343117E+03  3.781025E+03
       189  21 -3.884133E+05  4.751271E+01 -3.434880E+02  5.100656E+04  6.220503E+03 -1.204596E+02
       189  22 -3.878829E+05  1.449626E+02 -2.083936E+02  5.102949E+04 -5.991618E+00  7.679073E+03
       189  23 -3.878587E+05  1.339458E+02 -2.402652E+02  4.504701E+04 -1.194287E+02  3.771982E+03
       189  24 -3.878812E+05  1.528100E+02 -3.498211E+02  5.102949E+04 -2.327274E+02 -1.296102E+02
       189  25 -4.907440E+05 -2.392763E+04 -1.765747E+04  5.092173E+04 -6.476823E+03  7.670136E+03
       189  26 -4.390256E+05 -1.185051E+04 -8.971112E+03  4.500457E+04 -6.581458E+03  3.762939E+03
       189  27 -3.873490E+05  2.581297E+02 -3.559976E+02  5.105241E+04 -6.685963E+03 -1.387613E+02
       190   1 -4.222493E+05 -7.920216E+03 -6.445341E+03  5.095815E+04 -6.160905E+03  2.394157E+03
       190   2 -4.738899E+05 -2.002708E+04 -1.550350E+04  4.490947E+04 -5.672423E+03  6.260825E+03
       190   3 -5.256369E+05 -3.216170E+04 -2.489784E+04  5.082004E+04 -5.183639E+03  1.005079E+04
       190   4 -3.878904E+05  1.555404E+02 -4.422730E+02  5.102819E+04  3.011159E+02  2.403296E+03
       190   5 -3.878484E+05  1.425428E+02 -7.409635E+02  4.504863E+04  6.624510E+02  6.269585E+03
       190   6 -3.878934E+05  1.239853E+02 -1.287543E+03  5.102824E+04  1.024127E+03  1.005918E+04
       190   7 -3.535303E+05  8.231255E+03  5.560910E+03  5.109822E+04  6.763484E+03  2.412436E+03
       190   8 -3.017996E+05  2.031179E+04  1.402147E+04  4.518781E+04  6.998176E+03  6.278348E+03
       190   9 -2.501312E+05  3.240868E+04  2.232227E+04  5.123647E+04  7.233228E+03  1.006758E+04
       190  10 -4.222493E+05 -7.920232E+03 -6.445423E+03  5.095816E+04 -1.761257E-09  2.086337E-09
       190  11 -4.738899E+05 -2.002713E+04 -1.550363E+04  4.490950E+04  1.778818E-09  1.871966E-09
       190  12 -5.256370E+05 -3.216182E+04 -2.489809E+04  5.082009E+04  6.106094E-10  1.844811E-09
       190  13 -3.878904E+05  1.555342E+02 -4.422840E+02  5.102819E+04 -1.059471E-09 -3.961632E-10
       190  14 -3.878484E+05  1.425005E+02 -7.410382E+02  4.504863E+04  1.429606E-09  9.618493E-10
       190  15 -3.878935E+05  1.238764E+02 -1.287735E+03  5.102823E+04 -1.544475E-09  3.013766E-11
       190  16 -3.535303E+05  8.231236E+03  5.560813E+03  5.109821E+04  1.932276E-09 -3.967532E-10
       190  17 -3.017996E+05  2.031174E+04  1.402131E+04  4.518778E+04 -1.054613E-09 -4.568463E-09
       190  18 -2.501313E+05  3.240856E+04  2.232198E+04  5.123641E+04 -2.934165E-09 -2.703785E-09
       190  19 -4.222493E+05 -7.920216E+03 -6.445341E+03  5.095815E+04  6.160905E+03 -2.394157E+03
       190  20 -4.738899E+05 -2.002708E+04 -1.550350E+04  4.490947E+04  5.672423E+03 -6.260825E+03
       190  21 -5.256369E+05 -3.216170E+04 -2.489784E+04  5.082004E+04  5.183639E+03 -1.005079E+04
       190  22 -3.878904E+05  1.555404E+02 -4.422730E+02  5.102819E+04 -3.011159E+02 -2.403296E+03
       190  23 -3.878484E+05  1.425428E+02 -7.409635E+02  4.504863E+04 -6.624510E+02 -6.269585E+03
       190  24 -3.878934E+05  1.239853E+02 -1.287543E+03  5.102824E+04 -1.024127E+03 -1.005918E+04
       190  25 -3.535303E+05  8.231255E+03  5.560910E+03  5.109822E+04 -6.763484E+03 -2.412436E+03
       190  26 -3.017996E+05  2.031179E+04  1.402147E+04  4.518781E+04 -6.998176E+03 -6.278348E+03
       190  27 -2.501312E+05  3.240868E+04  2.232227E+04  5.123647E+04 -7.233228E+03 -1.006758E+04
       191   1 -5.595584E+05 -4.012243E+04 -3.136022E+04  5.065809E+04 -5.030501E+03  1.228631E+04
       191   2 -6.109010E+05 -5.247990E+04 -4.188614E+04  4.496189E+04 -2.105303E+03  1.566609E+04
       191   3 -6.628915E+05 -6.579115E+04 -5.456507E+04  5.116323E+04  8.212122E+02  1.816899E+04
       191   4 -3.879648E+05  1.495928E+02 -1.691796E+03  5.101426E+04  1.281587E+03  1.229463E+04
       191   5 -3.877693E+05 -4.342081E+01 -2.963957E+03  4.506634E+04  2.756046E+03  1.567201E+04
       191   6 -3.879729E+05 -9.380410E+02 -5.380886E+03  5.101571E+04  4.232078E+03  1.817266E+04
       191   7 -2.163421E+05  4.042005E+04  2.797576E+04  5.137052E+04  7.595368E+03  1.230296E+04
       191   8 -1.645888E+05  5.239037E+04  3.595656E+04  4.517080E+04  7.619091E+03  1.567793E+04
       191   9 -1.129804E+05  6.391088E+04  4.380045E+04  5.086809E+04  7.644412E+03  1.817633E+04
       191  10 -5.595585E+05 -4.012260E+04 -3.136055E+04  5.065814E+04 -8.641715E-10  2.442442E-09
       191  11 -6.109011E+05 -5.248017E+04 -4.188661E+04  4.496192E+04  3.947762E-09 -1.548588E-10
       191  12 -6.628916E+05 -6.579150E+04 -5.456569E+04  5.116322E+04  3.642759E-09  2.826218E-09
       191  13 -3.879648E+05  1.494301E+02 -1.692083E+03  5.101425E+04 -3.226544E-09  2.704307E-10
       191  14 -3.877694E+05 -4.368655E+01 -2.964432E+03  4.506630E+04 -2.012396E-10  1.425005E-09
       191  15 -3.879730E+05 -9.384004E+02 -5.381540E+03  5.101565E+04  1.643700E-09  5.422048E-10
       191  16 -2.163422E+05  4.041987E+04  2.797537E+04  5.137044E+04  6.024565E-11 -1.057255E-09
       191  17 -1.645889E+05  5.239009E+04  3.595598E+04  4.517070E+04  6.657617E-10  2.266571E-10
       191  18 -1.129806E+05  6.391051E+04  4.379972E+04  5.086798E+04 -4.778137E-09 -1.772243E-09
       191  19 -5.595584E+05 -4.012243E+04 -3.136022E+04  5.065809E+04  5.030501E+03 -1.228631E+04
       191  20 -6.109010E+05 -5.247990E+04 -4.188614E+04  4.496189E+04  2.105303E+03 -1.566609E+04
       191  21 -6.628915E+05 -6.579115E+04 -5.456507E+04  5.116323E+04 -8.212122E+02 -1.816899E+04
       191  22 -3.879648E+05  1.495928E+02 -1.691796E+03  5.101426E+04 -1.281587E+03 -1.229463E+04
       191  23 -3.877693E+05 -4.342081E+01 -2.963957E+03  4.506634E+04 -2.756046E+03 -1.567201E+04
       191  24 -3.879729E+05 -9.380410E+02 -5.380886E+03  5.101571E+04 -4.232078E+03 -1.817266E+04
       191  25 -2.163421E+05  4.042005E+04  2.797576E+04  5.137052E+04 -7.595368E+03 -1.230296E+04
       191  26 -1.645888E+05  5.239037E+04  3.595656E+04  4.517080E+04 -7.619091E+03 -1.567793E+04
       191  27 -1.129804E+05  6.391088E+04  4.380045E+04  5.086809E+04 -7.644412E+03 -1.817633E+04
       192   1 -6.980534E+05 -7.357464E+04 -6.287537E+04  4.910774E+04  5.301893E+02  1.996859E+04
       192   2 -7.461033E+05 -9.108623E+04 -8.360955E+04  5.157734E+04  2.377682E+04  1.776444E+04
       192   3 -8.014678E+05 -1.256702E+05 -1.237595E+05  6.529129E+04  4.703150E+04  5.512935E+03
       192   4 -3.888710E+05 -5.309964E+02 -7.057778E+03  5.086688E+04  5.149444E+03  1.997351E+04
       192   5 -3.866667E+05 -5.011438E+03 -1.281708E+04  4.525821E+04  1.177648E+04  1.774918E+04
       192   6 -3.888873E+05 -2.367137E+04 -2.643922E+04  5.089428E+04  1.841364E+04  5.479544E+03
       192   7 -7.959540E+04  7.250732E+04  4.875616E+04  5.262690E+04  9.770937E+03  1.997846E+04
       192   8 -2.710584E+04  8.105576E+04  5.796966E+04  3.893529E+04 -2.306658E+02  1.773416E+04
       192   9  2.385207E+04  7.831649E+04  7.087255E+04  3.648759E+04 -1.022315E+04  5.447493E+03
       192  10 -6.980535E+05 -7.357507E+04 -6.287612E+04  4.910773E+04  2.762208E-08  2.559438E-09
       192  11 -7.461040E+05 -9.108672E+04 -8.361120E+04  5.157700E+04 -1.335978E-09  3.442693E-10
       192  12 -8.014702E+05 -1.256708E+05 -1.237638E+05  6.529108E+04 -2.562264E-08 -5.328961E-10
       192  13 -3.888711E+05 -5.314318E+02 -7.058578E+03  5.086680E+04 -1.348940E-09  4.954161E-09
       192  14 -3.866669E+05 -5.011813E+03 -1.281793E+04  4.525804E+04  2.742660E-09 -1.515210E-09
       192  15 -3.888877E+05 -2.367149E+04 -2.643992E+04  5.089420E+04  2.017097E-10  1.076344E-09
       192  16 -7.959561E+04  7.250687E+04  4.875523E+04  5.262674E+04 -3.011997E-08  2.193726E-09
       192  17 -2.710592E+04  8.105542E+04  5.796907E+04  3.893530E+04  3.402580E-10  8.857902E-10
       192  18  2.385195E+04  7.831643E+04  7.087230E+04  3.648764E+04  2.580136E-08 -8.629929E-11
       192  19 -6.980534E+05 -7.357464E+04 -6.287537E+04  4.910774E+04 -5.301893E+02 -1.996859E+04
       192  20 -7.461033E+05 -9.108623E+04 -8.360955E+04  5.157734E+04 -2.377682E+04 -1.776444E+04
       192  21 -8.014678E+05 -1.256702E+05 -1.237595E+05  6.529129E+04 -4.703150E+04 -5.512935E+03
       192  22 -3.888710E+05 -5.309964E+02 -7.057778E+03  5.086688E+04 -5.149444E+03 -1.997351E+04
       192  23 -3.866667E+05 -5.011438E+03 -1.281708E+04  4.525821E+04 -1.177648E+04 -1.774918E+04
       192  24 -3.888873E+05 -2.367137E+04 -2.643922E+04  5.089428E+04 -1.841364E+04 -5.479544E+03
       192  25 -7.959540E+04  7.250732E+04  4.875616E+04  5.262690E+04 -9.770937E+03 -1.997846E+04
       192  26 -2.710584E+04  8.105576E+04  5.796966E+04  3.893529E+04  2.306658E+02 -1.773416E+04
       192  27  2.385207E+04  7.831649E+04  7.087255E+04  3.648759E+04  1.022315E+04 -5.447493E+03
       193   1 -8.959320E+04  6.406266E+04  5.206143E+04  8.067610E+02 -2.462282E+04 -5.338297E+03
       193   2 -1.173777E+05  1.010317E+05  6.781475E+04  4.928515E+03 -1.988198E+04 -1.648687E+04
       193   3 -1.571008E+05  9.257018E+04  6.914083E+04  2.571722E+04 -1.515360E+04 -1.662583E+04
       193   4 -5.238616E+05 -4.397713E+04 -5.395870E+04  1.888292E+04 -3.699754E+04 -5.352849E+03
       193   5 -5.171672E+05  2.663654E+03 -2.418962E+04  1.052124E+04 -2.407373E+04 -1.649305E+04
       193   6 -5.238428E+05  2.436200E+03 -1.454087E+04  1.882757E+04 -1.116192E+04 -1.662068E+04
       193   7 -9.579570E+05 -1.520295E+05 -1.599918E+05  3.694636E+04 -4.936361E+04 -5.368126E+03
       193   8 -9.168087E+05 -9.571541E+04 -1.162045E+05  1.611029E+04 -2.826280E+04 -1.649932E+04
       193   9 -8.904598E+05 -8.770694E+04 -9.823127E+04  1.194198E+04 -7.172574E+03 -1.661561E+04
       193  10 -8.959386E+04  6.406247E+04  5.206024E+04  8.066552E+02 -1.351702E-09  1.630032E-09
       193  11 -1.173782E+05  1.010313E+05  6.781350E+04  4.928251E+03  8.155774E-10  5.216249E-09
       193  12 -1.571011E+05  9.256982E+04  6.913988E+04  2.571702E+04  2.469431E-09  8.515204E-10
       193  13 -5.238631E+05 -4.397753E+04 -5.396133E+04  1.888276E+04 -1.384750E-10 -1.876953E-09
       193  14 -5.171679E+05  2.663206E+03 -2.419123E+04  1.052092E+04 -1.556511E-09 -3.245072E-09
       193  15 -5.238430E+05  2.435870E+03 -1.454162E+04  1.882742E+04  9.955460E-10 -8.871092E-10
       193  16 -9.579596E+05 -1.520302E+05 -1.599965E+05  3.694614E+04  2.788163E-09 -5.332981E-10
       193  17 -9.168097E+05 -9.571592E+04 -1.162065E+05  1.610991E+04 -9.243524E-10  3.474949E-09
       193  18 -8.904600E+05 -8.770725E+04 -9.823188E+04  1.194188E+04 -2.890219E-09 -1.463819E-09
       193  19 -8.959320E+04  6.406266E+04  5.206143E+04  8.067610E+02  2.462282E+04  5.338297E+03
       193  20 -1.173777E+05  1.010317E+05  6.781475E+04  4.928515E+03  1.988198E+04  1.648687E+04
       193  21 -1.571008E+05  9.257018E+04  6.914083E+04  2.571722E+04  1.515360E+04  1.662583E+04
       193  22 -5.238616E+05 -4.397713E+04 -5.395870E+04  1.888292E+04  3.699754E+04  5.352849E+03
       193  23 -5.171672E+05  2.663654E+03 -2.418962E+04  1.052124E+04  2.407373E+04  1.649305E+04
       193  24 -5.238428E+05  2.436200E+03 -1.454087E+04  1.882757E+04  1.116192E+04  1.662068E+04
       193  25 -9.579570E+05 -1.520295E+05 -1.599918E+05  3.694636E+04  4.936361E+04  5.368126E+03
       193  26 -9.168087E+05 -9.571541E+04 -1.162045E+05  1.611029E+04  2.826280E+04  1.649932E+04
       193  27 -8.904598E+05 -8.770694E+04 -9.823127E+04  1.194198E+04  7.172574E+03  1.661561E+04
       194   1 -1.861962E+05  7.924811E+04  6.512305E+04  1.826854E+04 -9.645133E+03 -1.437501E+04
       194   2 -2.196207E+05  7.422306E+04  6.261913E+04  1.044752E+04 -6.907992E+03 -1.328008E+04
       194   3 -2.542549E+05  6.586598E+04  5.749565E+04  1.986782E+04 -4.172581E+03 -1.164918E+04
       194   4 -5.211533E+05 -3.128469E+03 -1.169191E+04  1.897448E+04 -9.029810E+03 -1.437464E+04
       194   5 -5.205092E+05  2.566882E+02 -6.206110E+03  1.035087E+04 -5.895532E+03 -1.327889E+04
       194   6 -5.211462E+05  2.397529E+02 -3.616976E+03  1.896914E+04 -2.762840E+03 -1.164705E+04
       194   7 -8.560063E+05 -8.551287E+04 -8.851427E+04  1.967999E+04 -8.414816E+03 -1.437427E+04
       194   8 -8.213138E+05 -7.371598E+04 -7.503728E+04  1.025423E+04 -4.883558E+03 -1.327770E+04
       194   9 -7.879714E+05 -6.539143E+04 -6.473428E+04  1.807083E+04 -1.353701E+03 -1.164493E+04
       194  10 -1.861964E+05  7.924787E+04  6.512249E+04  1.826843E+04 -1.283831E-09 -3.186206E-09
       194  11 -2.196208E+05  7.422286E+04  6.261871E+04  1.044745E+04  3.869465E-09  1.570124E-09
       194  12 -2.542549E+05  6.586583E+04  5.749536E+04  1.986778E+04  9.296941E-09  4.674723E-09
       194  13 -5.211534E+05 -3.128713E+03 -1.169245E+04  1.897437E+04  2.574186E-09  3.526999E-09
       194  14 -5.205093E+05  2.564896E+02 -6.206507E+03  1.035081E+04  1.781238E-09 -9.632886E-09
       194  15 -5.211462E+05  2.396052E+02 -3.617246E+03  1.896912E+04  1.753898E-09  3.431278E-09
       194  16 -8.560065E+05 -8.551311E+04 -8.851479E+04  1.967989E+04  3.082420E-09 -5.104546E-09
       194  17 -8.213139E+05 -7.371618E+04 -7.503766E+04  1.025418E+04 -5.356881E-09 -2.119038E-09
       194  18 -7.879715E+05 -6.539158E+04 -6.473453E+04  1.807082E+04 -8.951350E-09 -6.428882E-10
       194  19 -1.861962E+05  7.924811E+04  6.512305E+04  1.826854E+04  9.645133E+03  1.437501E+04
       194  20 -2.196207E+05  7.422306E+04  6.261913E+04  1.044752E+04  6.907992E+03  1.328008E+04
       194  21 -2.542549E+05  6.586598E+04  5.749565E+04  1.986782E+04  4.172581E+03  1.164918E+04
       194  22 -5.211533E+05 -3.128469E+03 -1.169191E+04  1.897448E+04  9.029810E+03  1.437464E+04
       194  23 -5.205092E+05  2.566882E+02 -6.206110E+03  1.035087E+04  5.895532E+03  1.327889E+04
       194  24 -5.211462E+05  2.397529E+02 -3.616976E+03  1.896914E+04  2.762840E+03  1.164705E+04
       194  25 -8.560063E+05 -8.551287E+04 -8.851427E+04  1.967999E+04  8.414816E+03  1.437427E+04
       194  26 -8.213138E+05 -7.371598E+04 -7.503728E+04  1.025423E+04  4.883558E+03  1.327770E+04
       194  27 -7.879714E+05 -6.539143E+04 -6.473428E+04  1.807083E+04  1.353701E+03  1.164493E+04
       195   1 -2.859683E+05  5.757989E+04  5.083590E+04  1.931531E+04 -3.450849E+03 -1.058631E+04
       195   2 -3.201768E+05  4.937952E+04  4.428054E+04  1.060719E+04 -2.682973E+03 -8.889762E+03
       195   3 -3.545916E+05  4.099303E+04  3.716485E+04  1.931068E+04 -1.915711E+03 -7.163617E+03
       195   4 -5.209046E+05 -1.557170E+02 -2.799508E+03  1.900876E+04 -2.200555E+03 -1.058432E+04
       195   5 -5.207972E+05  6.128842E+01 -1.594322E+03  1.030255E+04 -1.410961E+03 -8.887561E+03
       195   6 -5.209006E+05  8.853040E+01 -9.645444E+02  1.900830E+04 -6.219372E+02 -7.161192E+03
       195   7 -7.557896E+05 -5.789516E+04 -5.643851E+04  1.870230E+04 -9.507310E+02 -1.058234E+04
       195   8 -7.213802E+05 -4.925974E+04 -4.747181E+04  9.997995E+03 -1.393558E+02 -8.885361E+03
       195   9 -6.871839E+05 -4.081790E+04 -3.909575E+04  1.870599E+04  6.714925E+02 -7.158769E+03
       195  10 -2.859684E+05  5.757977E+04  5.083566E+04  1.931528E+04 -5.213796E-09 -2.526213E-09
       195  11 -3.201769E+05  4.937943E+04  4.428037E+04  1.060717E+04 -3.142785E-09 -3.202671E-09
       195  12 -3.545917E+05  4.099298E+04  3.716475E+04  1.931067E+04  8.641532E-10 -3.468823E-09
       195  13 -5.209046E+05 -1.558386E+02 -2.799728E+03  1.900874E+04  9.580554E-10  3.311658E-10
       195  14 -5.207972E+05  6.120309E+01 -1.594474E+03  1.030254E+04 -3.094474E-10 -5.194278E-09
       195  15 -5.209006E+05  8.847524E+01 -9.646415E+02  1.900830E+04  2.591781E-09 -3.360672E-09
       195  16 -7.557896E+05 -5.789528E+04 -5.643873E+04  1.870229E+04  4.998456E-09 -1.909773E-09
       195  17 -7.213803E+05 -4.925983E+04 -4.747196E+04  9.997994E+03  2.453324E-09  2.841293E-09
       195  18 -6.871839E+05 -4.081795E+04 -3.909585E+04  1.870600E+04  2.637216E-10  5.775063E-09
       195  19 -2.859683E+05  5.757989E+04  5.083590E+04  1.931531E+04  3.450849E+03  1.058631E+04
       195  20 -3.201768E+05  4.937952E+04  4.428054E+04  1.060719E+04  2.682973E+03  8.889762E+03
       195  21 -3.545916E+05  4.099303E+04  3.716485E+04  1.931068E+04  1.915711E+03  7.163617E+03
       195  22 -5.209046E+05 -1.557170E+02 -2.799508E+03  1.900876E+04  2.200555E+03  1.058432E+04
       195  23 -5.207972E+05  6.128842E+01 -1.594322E+03  1.030255E+04  1.410961E+03  8.887561E+03
       195  24 -5.209006E+05  8.853040E+01 -9.645444E+02  1.900830E+04  6.219372E+02  7.161192E+03
       195  25 -7.557896E+05 -5.789516E+04 -5.643851E+04  1.870230E+04  9.507310E+02  1.058234E+04
       195  26 -7.213802E+05 -4.925974E+04 -4.747181E+04  9.997995E+03  1.393558E+02  8.885361E+03
       195  27 -6.871839E+05 -4.081790E+04 -3.909575E+04  1.870599E+04 -6.714925E+02  7.158769E+03
       196   1 -3.867307E+05  3.302052E+04  2.979945E+04  1.924335E+04 -1.755456E+03 -6.152054E+03
       196   2 -4.211634E+05  2.454872E+04  2.223612E+04  1.043677E+04 -1.487708E+03 -4.418034E+03
       196   3 -4.557013E+05  1.612583E+04  1.449173E+04  1.912995E+04 -1.220246E+03 -2.680819E+03
       196   4 -5.208751E+05  6.269616E+01 -7.753953E+02  1.902800E+04 -4.674895E+02 -6.149554E+03
       196   5 -5.208208E+05  4.866469E+01 -5.528110E+02  1.027802E+04 -1.974467E+02 -4.415443E+03
       196   6 -5.208732E+05  8.321373E+01 -5.128555E+02  1.902797E+04  7.232410E+01 -2.678131E+03
       196   7 -6.550028E+05 -3.289638E+04 -3.135140E+04  1.881270E+04  8.202011E+02 -6.147055E+03
       196   8 -6.204690E+05 -2.445208E+04 -2.334238E+04  1.011929E+04  1.092609E+03 -4.412852E+03
       196   9 -5.860412E+05 -1.595970E+04 -1.551772E+04  1.892599E+04  1.364759E+03 -2.675444E+03
       196  10 -3.867307E+05  3.302048E+04  2.979937E+04  1.924334E+04 -1.782738E-10 -6.474680E-09
       196  11 -4.211635E+05  2.454870E+04  2.223608E+04  1.043676E+04 -2.582082E-09  7.045362E-10
       196  12 -4.557013E+05  1.612582E+04  1.449171E+04  1.912995E+04 -2.642018E-09  8.027661E-10
       196  13 -5.208751E+05  6.265550E+01 -7.754668E+02  1.902800E+04  2.149032E-09  3.699188E-11
       196  14 -5.208208E+05  4.864375E+01 -5.528477E+02  1.027802E+04  9.217759E-10 -3.760571E-09
       196  15 -5.208732E+05  8.320603E+01 -5.128690E+02  1.902797E+04  5.558239E-09 -1.881831E-09
       196  16 -6.550028E+05 -3.289642E+04 -3.135147E+04  1.881271E+04  1.687971E-09  2.707845E-09
       196  17 -6.204690E+05 -2.445210E+04 -2.334242E+04  1.011930E+04  1.465138E-09  7.011031E-09
       196  18 -5.860412E+05 -1.595971E+04 -1.551773E+04  1.892599E+04  3.701685E-09  3.181234E-09
       196  19 -3.867307E+05  3.302052E+04  2.979945E+04  1.924335E+04  1.755456E+03  6.152054E+03
       196  20 -4.211634E+05  2.454872E+04  2.223612E+04  1.043677E+04  1.487708E+03  4.418034E+03
       196  21 -4.557013E+05  1.612583E+04  1.449173E+04  1.912995E+04  1.220246E+03  2.680819E+03
       196  22 -5.208751E+05  6.269616E+01 -7.753953E+02  1.902800E+04  4.674895E+02  6.149554E+03
       196  23 -5.208208E+05  4.866469E+01 -5.528110E+02  1.027802E+04  1.974467E+02  4.415443E+03
       196  24 -5.208732E+05  8.321373E+01 -5.128555E+02  1.902797E+04 -7.232410E+01  2.678131E+03
       196  25 -6.550028E+05 -3.289638E+04 -3.135140E+04  1.881270E+04 -8.202011E+02  6.147055E+03
       196  26 -6.204690E+05 -2.445208E+04 -2.334238E+04  1.011929E+04 -1.092609E+03  4.412852E+03
       196  27 -5.860412E+05 -1.595970E+04 -1.551772E+04  1.892599E+04 -1.364759E+03  2.675444E+03
       197   1 -4.879755E+05  8.152707E+03  6.870459E+03  1.907686E+04 -1.126595E+03 -1.668547E+03
       197   2 -5.224511E+05 -3.483066E+02 -1.140658E+03  1.024958E+04 -7.505827E+02  7.091824E+01
       197   3 -5.570560E+05 -8.812550E+03 -9.408109E+03  1.895119E+04 -3.745906E+02  1.809459E+03
       197   4 -5.208778E+05  8.382582E+01 -5.527161E+02  1.903439E+04  1.665446E+02 -1.665830E+03
       197   5 -5.208125E+05  5.466102E+01 -7.658619E+02  1.026998E+04  5.418275E+02  7.363057E+01
       197   6 -5.208779E+05  6.234184E+01 -1.234910E+03  1.903444E+04  9.171109E+02  1.812171E+03
       197   7 -5.537791E+05 -7.985129E+03 -7.975955E+03  1.899193E+04  1.459617E+03 -1.663112E+03
       197   8 -5.191738E+05  4.576293E+02 -3.910598E+02  1.029038E+04  1.834241E+03  7.634298E+01
       197   9 -4.846987E+05  8.937144E+03  6.938211E+03  1.911770E+04  2.208887E+03  1.814882E+03
       197  10 -4.879755E+05  8.152703E+03  6.870452E+03  1.907685E+04  6.900068E-10  5.324670E-10
       197  11 -5.224511E+05 -3.483067E+02 -1.140659E+03  1.024958E+04  2.041561E-09 -4.668627E-09
       197  12 -5.570560E+05 -8.812553E+03 -9.408116E+03  1.895119E+04 -2.679794E-09 -1.769114E-09
       197  13 -5.208778E+05  8.382283E+01 -5.527214E+02  1.903439E+04  1.800817E-09  4.786736E-09
       197  14 -5.208125E+05  5.466094E+01 -7.658625E+02  1.026998E+04 -1.628995E-09 -2.219784E-09
       197  15 -5.208779E+05  6.233809E+01 -1.234918E+03  1.903444E+04  3.139398E-09  8.297187E-10
       197  16 -5.537791E+05 -7.985132E+03 -7.975964E+03  1.899193E+04 -8.685794E-10  1.954277E-09
       197  17 -5.191738E+05  4.576284E+02 -3.910662E+02  1.029038E+04 -9.388705E-10 -7.322162E-09
       197  18 -4.846987E+05  8.937139E+03  6.938196E+03  1.911770E+04  3.596441E-09 -4.480853E-09
       197  19 -4.879755E+05  8.152707E+03  6.870459E+03  1.907686E+04  1.126595E+03  1.668547E+03
       197  20 -5.224511E+05 -3.483066E+02 -1.140658E+03  1.024958E+04  7.505827E+02 -7.091824E+01
       197  21 -5.570560E+05 -8.812550E+03 -9.408109E+03  1.895119E+04  3.745906E+02 -1.809459E+03
       197  22 -5.208778E+05  8.382582E+01 -5.527161E+02  1.903439E+04 -1.665446E+02  1.665830E+03
       197  23 -5.208125E+05  5.466102E+01 -7.658619E+02  1.026998E+04 -5.418275E+02 -7.363057E+01
       197  24 -5.208779E+05  6.234184E+01 -1.234910E+03  1.903444E+04 -9.171109E+02 -1.812171E+03
       197  25 -5.537791E+05 -7.985129E+03 -7.975955E+03  1.899193E+04 -1.459617E+03  1.663112E+03
       197  26 -5.191738E+05  4.576293E+02 -3.910598E+02  1.029038E+04 -1.834241E+03 -7.634298E+01
       197  27 -4.846987E+05  8.937144E+03  6.938211E+03  1.911770E+04 -2.208887E+03 -1.814882E+03
       198   1 -5.893714E+05 -1.674213E+04 -1.734537E+04  1.882132E+04 -1.280219E+02  2.824093E+03
       198   2 -6.236719E+05 -2.521357E+04 -2.625523E+04  1.008284E+04  1.235160E+03  4.560443E+03
       198   3 -6.583270E+05 -3.406265E+04 -3.616673E+04  1.884099E+04  2.598603E+03  6.274601E+03
       198   4 -5.209280E+05  1.065650E+02 -1.591730E+03  1.902696E+04  1.169110E+03  2.826786E+03
       198   5 -5.207531E+05  9.176210E+01 -2.716529E+03  1.027915E+04  2.515976E+03  4.563007E+03
       198   6 -5.209304E+05 -2.975733E+02 -4.831278E+03  1.902778E+04  3.863178E+03  6.277043E+03
       198   7 -4.524802E+05  1.695493E+04  1.416160E+04  1.923262E+04  2.466383E+03  2.829479E+03
       198   8 -4.178244E+05  2.539636E+04  2.082148E+04  1.047548E+04  3.797003E+03  4.565572E+03
       198   9 -3.835162E+05  3.346619E+04  2.650295E+04  1.921461E+04  5.128030E+03  6.279486E+03
       198  10 -5.893714E+05 -1.674214E+04 -1.734538E+04  1.882132E+04 -4.646739E-09  7.194629E-10
       198  11 -6.236719E+05 -2.521359E+04 -2.625527E+04  1.008284E+04  2.451848E-09 -3.333638E-09
       198  12 -6.583270E+05 -3.406269E+04 -3.616681E+04  1.884098E+04  4.224837E-09 -3.643545E-10
       198  13 -5.209280E+05  1.065561E+02 -1.591748E+03  1.902695E+04  1.099517E-09 -6.311182E-10
       198  14 -5.207531E+05  9.173805E+01 -2.716580E+03  1.027914E+04 -1.621975E-09  3.223467E-09
       198  15 -5.209304E+05 -2.976196E+02 -4.831380E+03  1.902776E+04  2.366385E-09  1.366877E-09
       198  16 -4.524802E+05  1.695492E+04  1.416158E+04  1.923261E+04  4.336893E-09  3.218140E-09
       198  17 -4.178244E+05  2.539633E+04  2.082142E+04  1.047546E+04  2.952011E-10 -1.989755E-09
       198  18 -3.835163E+05  3.346614E+04  2.650282E+04  1.921458E+04 -2.341785E-09  2.255116E-09
       198  19 -5.893714E+05 -1.674213E+04 -1.734537E+04  1.882132E+04  1.280219E+02 -2.824093E+03
       198  20 -6.236719E+05 -2.521357E+04 -2.625523E+04  1.008284E+04 -1.235160E+03 -4.560443E+03
       198  21 -6.583270E+05 -3.406265E+04 -3.616673E+04  1.884099E+04 -2.598603E+03 -6.274601E+03
       198  22 -5.209280E+05  1.065650E+02 -1.591730E+03  1.902696E+04 -1.169110E+03 -2.826786E+03
       198  23 -5.207531E+05  9.176210E+01 -2.716529E+03  1.027915E+04 -2.515976E+03 -4.563007E+03
       198  24 -5.209304E+05 -2.975733E+02 -4.831278E+03  1.902778E+04 -3.863178E+03 -6.277043E+03
       198  25 -4.524802E+05  1.695493E+04  1.416160E+04  1.923262E+04 -2.466383E+03 -2.829479E+03
       198  26 -4.178244E+05  2.539636E+04  2.082148E+04  1.047548E+04 -3.797003E+03 -4.565572E+03
       198  27 -3.835162E+05  3.346619E+04  2.650295E+04  1.921461E+04 -5.128030E+03 -6.279486E+03
       199   1 -6.909042E+05 -4.132337E+04 -4.512816E+04  1.780240E+04  3.445361E+03  7.331998E+03
       199   2 -7.240570E+05 -4.967071E+04 -5.739377E+04  1.048708E+04  9.187599E+03  9.001888E+03
       199   3 -7.595176E+05 -6.401907E+04 -7.491499E+04  2.056981E+04  1.493076E+04  1.024999E+04
       199   4 -5.213551E+05  3.885688E+02 -6.258825E+03  1.900223E+04  4.836080E+03  7.334606E+03
       199   5 -5.202315E+05  4.496398E+02 -1.075342E+04  1.030875E+04  1.026637E+04  9.003704E+03
       199   6 -5.213616E+05 -5.434803E+03 -2.028546E+04  1.901302E+04  1.569790E+04  1.025106E+04
       199   7 -3.517794E+05  4.209851E+04  3.260863E+04  2.020238E+04  6.227175E+03  7.337219E+03
       199   8 -3.163675E+05  5.056710E+04  3.588421E+04  1.013033E+04  1.134550E+04  9.005519E+03
       199   9 -2.831530E+05  5.314552E+04  3.434034E+04  1.745561E+04  1.646534E+04  1.025212E+04
       199  10 -6.909042E+05 -4.132343E+04 -4.512829E+04  1.780238E+04 -5.431903E-10 -9.136197E-10
       199  11 -7.240571E+05 -4.967082E+04 -5.739408E+04  1.048702E+04  1.261060E-09  2.689170E-10
       199  12 -7.595178E+05 -6.401924E+04 -7.491561E+04  2.056969E+04  6.767030E-09 -3.143542E-09
       199  13 -5.213552E+05  3.885048E+02 -6.258970E+03  1.900220E+04  2.500699E-09 -2.809261E-09
       199  14 -5.202317E+05  4.495245E+02 -1.075377E+04  1.030867E+04 -3.235412E-09  5.846794E-09
       199  15 -5.213619E+05 -5.434982E+03 -2.028612E+04  1.901289E+04  3.815713E-10  2.200050E-10
       199  16 -3.517794E+05  4.209844E+04  3.260845E+04  2.020234E+04  2.870900E-09 -1.278678E-09
       199  17 -3.163677E+05  5.056698E+04  3.588381E+04  1.013025E+04 -1.303222E-09 -8.744395E-09
       199  18 -2.831533E+05  5.314533E+04  3.433963E+04  1.745547E+04 -6.972230E-09 -9.809677E-10
       199  19 -6.909042E+05 -4.132337E+04 -4.512816E+04  1.780240E+04 -3.445361E+03 -7.331998E+03
       199  20 -7.240570E+05 -4.967071E+04 -5.739377E+04  1.048708E+04 -9.187599E+03 -9.001888E+03
       199  21 -7.595176E+05 -6.401907E+04 -7.491499E+04  2.056981E+04 -1.493076E+04 -1.024999E+04
       199  22 -5.213551E+05  3.885688E+02 -6.258825E+03  1.900223E+04 -4.836080E+03 -7.334606E+03
       199  23 -5.202315E+05  4.496398E+02 -1.075342E+04  1.030875E+04 -1.026637E+04 -9.003704E+03
       199  24 -5.213616E+05 -5.434803E+03 -2.028546E+04  1.901302E+04 -1.569790E+04 -1.025106E+04
       199  25 -3.517794E+05  4.209851E+04  3.260863E+04  2.020238E+04 -6.227175E+03 -7.337219E+03
       199  26 -3.163675E+05  5.056710E+04  3.588421E+04  1.013033E+04 -1.134550E+04 -9.005519E+03
       199  27 -2.831530E+05  5.314552E+04  3.434034E+04  1.745561E+04 -1.646534E+04 -1.025212E+04
       200   1 -7.962199E+05 -6.223587E+04 -8.692616E+04  7.256826E+03  1.597369E+04  1.223882E+04
       200   2 -8.181750E+05 -7.009914E+04 -1.119163E+05  2.042926E+04  4.481555E+04  1.255189E+04
       200   3 -8.645537E+05 -1.605088E+05 -1.763414E+05  5.061179E+04  7.366816E+04  4.188221E+03
       200   4 -5.260372E+05  4.227032E+03 -2.523371E+04  1.888433E+04  1.940014E+04  1.224471E+04
       200   5 -5.144027E+05  4.651340E+03 -4.196711E+04  1.044153E+04  4.180152E+04  1.254585E+04
       200   6 -5.260626E+05 -7.633153E+04 -9.364755E+04  1.901033E+04  6.421565E+04  4.170133E+03
       200   7 -2.557863E+05  7.068536E+04  3.645408E+04  3.051692E+04  2.282806E+04  1.225073E+04
       200   8 -2.105447E+05  7.939575E+04  2.797606E+04  4.488379E+02  3.878602E+04  1.253991E+04
       200   9 -1.874647E+05  7.841129E+03 -1.096118E+04 -1.260846E+04  5.475799E+04  4.153014E+03
       200  10 -7.962202E+05 -6.223610E+04 -8.692692E+04  7.256668E+03  3.226715E-09 -1.846561E-09
       200  11 -8.181772E+05 -7.009985E+04 -1.119204E+05  2.042881E+04  2.829801E-09  2.926259E-10
       200  12 -8.645595E+05 -1.605103E+05 -1.763516E+05  5.061154E+04  1.647059E-09  5.003903E-09
       200  13 -5.260376E+05  4.226770E+03 -2.523470E+04  1.888414E+04  8.962427E-10  1.366967E-09
       200  14 -5.144046E+05  4.650701E+03 -4.197069E+04  1.044111E+04 -2.578726E-09  8.739092E-10
       200  15 -5.260671E+05 -7.633266E+04 -9.365534E+04  1.901011E+04  1.757032E-09  1.371676E-09
       200  16 -2.557869E+05  7.068506E+04  3.645282E+04  3.051670E+04 -3.490393E-09  3.970182E-09
       200  17 -2.105463E+05  7.939518E+04  2.797293E+04  4.484462E+02 -3.577260E-09  6.324364E-09
       200  18 -1.874679E+05  7.840305E+03 -1.096685E+04 -1.260865E+04 -1.692049E-09 -5.120218E-11
       200  19 -7.962199E+05 -6.223587E+04 -8.692616E+04  7.256826E+03 -1.597369E+04 -1.223882E+04
       200  20 -8.181750E+05 -7.009914E+04 -1.119163E+05  2.042926E+04 -4.481555E+04 -1.255189E+04
       200  21 -8.645537E+05 -1.605088E+05 -1.763414E+05  5.061179E+04 -7.366816E+04 -4.188221E+03
       200  22 -5.260372E+05  4.227032E+03 -2.523371E+04  1.888433E+04 -1.940014E+04 -1.224471E+04
       200  23 -5.144027E+05  4.651340E+03 -4.196711E+04  1.044153E+04 -4.180152E+04 -1.254585E+04
       200  24 -5.260626E+05 -7.633153E+04 -9.364755E+04  1.901033E+04 -6.421565E+04 -4.170133E+03
       200  25 -2.557863E+05  7.068536E+04  3.645408E+04  3.051692E+04 -2.282806E+04 -1.225073E+04
       200  26 -2.105447E+05  7.939575E+04  2.797606E+04  4.488379E+02 -3.878602E+04 -1.253991E+04
       200  27 -1.874647E+05  7.841129E+03 -1.096118E+04 -1.260846E+04 -5.475799E+04 -4.153014E+03

 stresses (elem, integ.pnt.,sxx,syy,szz,sxy,sxz,syz) for set ELALL and time  0.1000000E+01

         1   1  2.543926E+06  9.237566E+06  2.408339E+06 -1.850633E+06  1.141557E+05  9.455648E+05
         1   2  2.049982E+06  7.865181E+06  1.608656E+06 -1.711761E+06  3.856868E+05  4.365105E+05
         1   3  1.693069E+06  6.597606E+06  1.172487E+06 -1.776092E+06  4.526576E+05 -7.108006E+04
         1   4  1.146983E+05 -6.695883E+05  1.190402E+05 -1.747809E+06  1.171730E+05  7.825964E+04
         1   5  3.967916E+04 -6.767238E+05  6.356587E+04 -1.646442E+06  3.878248E+05  4.761326E+04
         1   6  2.023434E+04 -6.623071E+05  4.247742E+04 -1.748242E+06  4.526763E+05  1.719713E+04
         1   7 -2.320967E+06 -1.048524E+07 -2.174021E+06 -1.646436E+06  1.199453E+05 -7.754690E+05
         1   8 -1.974613E+06 -9.147842E+06 -1.483848E+06 -1.581885E+06  3.899039E+05 -3.361335E+05
         1   9 -1.655170E+06 -7.869938E+06 -1.088750E+06 -1.720596E+06  4.527028E+05  1.044882E+05
         1  10  2.543676E+06  9.236613E+06  2.406657E+06 -1.850720E+06  3.376217E-09  2.741613E-09
         1  11  2.049771E+06  7.864938E+06  1.608020E+06 -1.711896E+06  2.089301E-09 -3.786464E-08
         1  12  1.692848E+06  6.597546E+06  1.172093E+06 -1.776066E+06 -5.197731E-09 -7.418520E-08
         1  13  1.146819E+05 -6.695986E+05  1.190028E+05 -1.747817E+06  1.230968E-09  3.237826E-11
         1  14  3.951703E+04 -6.767667E+05  6.327883E+04 -1.646457E+06  7.655382E-09  2.798443E-11
         1  15  2.001426E+04 -6.623624E+05  4.209182E+04 -1.748249E+06  2.041712E-08 -2.927476E-11
         1  16 -2.321147E+06 -1.048590E+07 -2.175196E+06 -1.646361E+06 -2.014079E-09 -2.815191E-09
         1  17 -1.974806E+06 -9.148004E+06 -1.484348E+06 -1.581779E+06 -3.232983E-09  3.728372E-08
         1  18 -1.655393E+06 -7.870005E+06 -1.089156E+06 -1.720634E+06 -3.573753E-09  7.311419E-08
         1  19  2.543926E+06  9.237566E+06  2.408339E+06 -1.850633E+06 -1.141557E+05 -9.455648E+05
         1  20  2.049982E+06  7.865181E+06  1.608656E+06 -1.711761E+06 -3.856868E+05 -4.365105E+05
         1  21  1.693069E+06  6.597606E+06  1.172487E+06 -1.776092E+06 -4.526576E+05  7.108006E+04
         1  22  1.146983E+05 -6.695883E+05  1.190402E+05 -1.747809E+06 -1.171730E+05 -7.825964E+04
         1  23  3.967916E+04 -6.767238E+05  6.356587E+04 -1.646442E+06 -3.878248E+05 -4.761326E+04
         1  24  2.023434E+04 -6.623071E+05  4.247742E+04 -1.748242E+06 -4.526763E+05 -1.719713E+04
         1  25 -2.320967E+06 -1.048524E+07 -2.174021E+06 -1.646436E+06 -1.199453E+05  7.754690E+05
         1  26 -1.974613E+06 -9.147842E+06 -1.483848E+06 -1.581885E+06 -3.899039E+05  3.361335E+05
         1  27 -1.655170E+06 -7.869938E+06 -1.088750E+06 -1.720596E+06 -4.527028E+05 -1.044882E+05
         2   1  1.495681E+06  5.762647E+06  1.007544E+06 -1.782261E+06  4.216634E+05 -8.880887E+04
         2   2  1.183328E+06  4.435180E+06  7.619054E+05 -1.661591E+06  3.660906E+05 -1.688316E+05
         2   3  8.969953E+05  3.126110E+06  5.745180E+05 -1.759279E+06  2.841555E+05 -2.489849E+05
         2   4  2.027525E+04 -6.636813E+05  3.764243E+04 -1.751643E+06  4.214860E+05  1.067959E+04
         2   5  2.080062E+04 -6.644815E+05  3.736561E+04 -1.642390E+06  3.653286E+05 -8.101497E+03
         2   6  3.690784E+04 -6.591404E+05  5.306238E+04 -1.751596E+06  2.826965E+05 -2.717191E+04
         2   7 -1.457087E+06 -7.048808E+06 -9.330677E+05 -1.721242E+06  4.213168E+05  1.091856E+05
         2   8 -1.142885E+06 -5.737892E+06 -6.874521E+05 -1.623282E+06  3.645719E+05  1.513723E+05
         2   9 -8.237821E+05 -4.429771E+06 -4.683715E+05 -1.743919E+06  2.812365E+05  1.933546E+05
         2  10  1.495488E+06  5.762591E+06  1.007196E+06 -1.782231E+06 -5.783922E-09  4.042605E-09
         2  11  1.183176E+06  4.435114E+06  7.616011E+05 -1.661542E+06 -1.509810E-09  3.907642E-08
         2  12  8.968924E+05  3.126022E+06  5.742513E+05 -1.759223E+06  8.071026E-10  6.995067E-08
         2  13  2.008450E+04 -6.637291E+05  3.730843E+04 -1.751646E+06  1.392057E-08 -3.297159E-11
         2  14  2.065735E+04 -6.645173E+05  3.711481E+04 -1.642388E+06  1.135831E-08 -2.891893E-11
         2  15  3.682189E+04 -6.591626E+05  5.291097E+04 -1.751590E+06  6.564445E-09 -2.255152E-11
         2  16 -1.457281E+06 -7.048868E+06 -9.334243E+05 -1.721279E+06 -3.622024E-09 -4.343574E-09
         2  17 -1.143034E+06 -5.737952E+06 -6.877458E+05 -1.623326E+06  4.131449E-10 -3.884669E-08
         2  18 -8.238773E+05 -4.429833E+06 -4.685915E+05 -1.743963E+06 -1.711319E-09 -6.926857E-08
         2  19  1.495681E+06  5.762647E+06  1.007544E+06 -1.782261E+06 -4.216634E+05  8.880887E+04
         2  20  1.183328E+06  4.435180E+06  7.619054E+05 -1.661591E+06 -3.660906E+05  1.688316E+05
         2  21  8.969953E+05  3.126110E+06  5.745180E+05 -1.759279E+06 -2.841555E+05  2.489849E+05
         2  22  2.027525E+04 -6.636813E+05  3.764243E+04 -1.751643E+06 -4.214860E+05 -1.067959E+04
         2  23  2.080062E+04 -6.644815E+05  3.736561E+04 -1.642390E+06 -3.653286E+05  8.101497E+03
         2  24  3.690784E+04 -6.591404E+05  5.306238E+04 -1.751596E+06 -2.826965E+05  2.717191E+04
         2  25 -1.457087E+06 -7.048808E+06 -9.330677E+05 -1.721242E+06 -4.213168E+05 -1.091856E+05
         2  26 -1.142885E+06 -5.737892E+06 -6.874521E+05 -1.623282E+06 -3.645719E+05 -1.513723E+05
         2  27 -8.237821E+05 -4.429771E+06 -4.683715E+05 -1.743919E+06 -2.812365E+05 -1.933546E+05
         3   1  7.177298E+05  2.312968E+06  4.695339E+05 -1.761044E+06  2.272474E+05 -2.596225E+05
         3   2  4.661208E+05  9.824032E+05  3.358509E+05 -1.574908E+06  1.304262E+05 -3.224474E+05
         3   3  3.076680E+05 -3.169698E+05  2.657451E+05 -1.608984E+06  3.210595E+04 -3.852541E+05
         3   4  4.458152E+04 -6.530981E+05  6.659848E+04 -1.752027E+06  2.256531E+05 -3.657149E+04
         3   5  9.363322E+04 -6.666750E+05  1.156533E+05 -1.641403E+06  1.287371E+05 -9.609671E+04
         3   6  2.353642E+05 -6.515489E+05  2.258436E+05 -1.750865E+06  3.033651E+04 -1.557162E+05
         3   7 -6.289217E+05 -3.610121E+06 -3.362381E+05 -1.743028E+06  2.240597E+05  1.854657E+05
         3   8 -2.789240E+05 -2.312859E+06 -1.043716E+05 -1.707706E+06  1.269964E+05  1.296816E+05
         3   9  1.631612E+05 -9.858547E+05  1.861516E+05 -1.892666E+06  2.846139E+04  7.370440E+04
         3  10  7.176567E+05  2.312882E+06  4.693114E+05 -1.760997E+06 -2.601653E-09 -1.008960E-09
         3  11  4.660749E+05  9.822873E+05  3.356244E+05 -1.574875E+06 -4.113872E-09  3.355925E-09
         3  12  3.076271E+05 -3.171294E+05  2.654642E+05 -1.608974E+06 -4.023770E-09  8.342464E-09
         3  13  4.452654E+04 -6.531132E+05  6.650043E+04 -1.752020E+06 -6.069792E-09  7.380303E-11
         3  14  9.361300E+04 -6.666894E+05  1.156049E+05 -1.641393E+06  1.049548E-09 -8.543617E-11
         3  15  2.353567E+05 -6.515752E+05  2.257963E+05 -1.750861E+06  1.515192E-09 -8.355818E-12
         3  16 -6.289851E+05 -3.610172E+06 -3.363979E+05 -1.743062E+06 -4.134475E-09  1.022669E-09
         3  17 -2.789459E+05 -2.312881E+06 -1.044338E+05 -1.707719E+06  3.024933E-09 -3.272836E-09
         3  18  1.631588E+05 -9.858608E+05  1.861398E+05 -1.892668E+06  4.516965E-10 -8.532747E-09
         3  19  7.177298E+05  2.312968E+06  4.695339E+05 -1.761044E+06 -2.272474E+05  2.596225E+05
         3  20  4.661208E+05  9.824032E+05  3.358509E+05 -1.574908E+06 -1.304262E+05  3.224474E+05
         3  21  3.076680E+05 -3.169698E+05  2.657451E+05 -1.608984E+06 -3.210595E+04  3.852541E+05
         3  22  4.458152E+04 -6.530981E+05  6.659848E+04 -1.752027E+06 -2.256531E+05  3.657149E+04
         3  23  9.363322E+04 -6.666750E+05  1.156533E+05 -1.641403E+06 -1.287371E+05  9.609671E+04
         3  24  2.353642E+05 -6.515489E+05  2.258436E+05 -1.750865E+06 -3.033651E+04  1.557162E+05
         3  25 -6.289217E+05 -3.610121E+06 -3.362381E+05 -1.743028E+06 -2.240597E+05 -1.854657E+05
         3  26 -2.789240E+05 -2.312859E+06 -1.043716E+05 -1.707706E+06 -1.269964E+05 -1.296816E+05
         3  27  1.631612E+05 -9.858547E+05  1.861516E+05 -1.892666E+06 -2.846139E+04 -7.370440E+04
         4   1 -8.755232E+06 -2.548193E+06 -1.764441E+06 -2.994658E+06 -1.177476E+06 -4.438959E+05
         4   2 -8.373881E+06 -8.456132E+05 -6.523129E+05 -3.360787E+06 -7.550824E+05 -2.913230E+05
         4   3 -8.735775E+06 -1.025886E+06 -3.674659E+05 -3.259124E+06 -3.349674E+05 -1.327448E+05
         4   4 -9.274614E+06 -2.565500E+06 -1.872481E+06 -2.950419E+06 -1.178307E+06 -4.446443E+05
         4   5 -8.806561E+06 -9.636207E+05 -7.625128E+05 -3.430660E+06 -7.551304E+05 -2.914136E+05
         4   6 -9.082370E+06 -1.245621E+06 -4.809634E+05 -3.443012E+06 -3.341624E+05 -1.323811E+05
         4   7 -9.793664E+06 -2.582748E+06 -1.980514E+06 -2.906246E+06 -1.179138E+06 -4.453933E+05
         4   8 -9.239055E+06 -1.081634E+06 -8.727260E+05 -3.500498E+06 -7.551781E+05 -2.915042E+05
         4   9 -9.428827E+06 -1.465265E+06 -5.944716E+05 -3.626784E+06 -3.333578E+05 -1.320179E+05
         4  10 -8.756794E+06 -2.548787E+06 -1.767465E+06 -2.995084E+06 -1.464047E-09 -1.278451E-10
         4  11 -8.374524E+06 -8.458616E+05 -6.535637E+05 -3.360966E+06  3.156565E-09  5.941640E-10
         4  12 -8.735902E+06 -1.025936E+06 -3.677139E+05 -3.259160E+06 -2.169451E-09  1.286970E-09
         4  13 -9.276179E+06 -2.566096E+06 -1.875512E+06 -2.950846E+06 -4.590239E-09  1.261966E-10
         4  14 -8.807204E+06 -9.638694E+05 -7.637647E+05 -3.430839E+06  3.928424E-09  1.420354E-09
         4  15 -9.082496E+06 -1.245671E+06 -4.812103E+05 -3.443048E+06  8.110608E-09  1.155819E-09
         4  16 -9.795232E+06 -2.583345E+06 -1.983552E+06 -2.906674E+06  1.465062E-09  3.907063E-10
         4  17 -9.239699E+06 -1.081883E+06 -8.739790E+05 -3.500677E+06 -1.604016E-09  2.690659E-09
         4  18 -9.428953E+06 -1.465315E+06 -5.947175E+05 -3.626820E+06  1.069912E-09  5.732438E-10
         4  19 -8.755232E+06 -2.548193E+06 -1.764441E+06 -2.994658E+06  1.177476E+06  4.438959E+05
         4  20 -8.373881E+06 -8.456132E+05 -6.523129E+05 -3.360787E+06  7.550824E+05  2.913230E+05
         4  21 -8.735775E+06 -1.025886E+06 -3.674659E+05 -3.259124E+06  3.349674E+05  1.327448E+05
         4  22 -9.274614E+06 -2.565500E+06 -1.872481E+06 -2.950419E+06  1.178307E+06  4.446443E+05
         4  23 -8.806561E+06 -9.636207E+05 -7.625128E+05 -3.430660E+06  7.551304E+05  2.914136E+05
         4  24 -9.082370E+06 -1.245621E+06 -4.809634E+05 -3.443012E+06  3.341624E+05  1.323811E+05
         4  25 -9.793664E+06 -2.582748E+06 -1.980514E+06 -2.906246E+06  1.179138E+06  4.453933E+05
         4  26 -9.239055E+06 -1.081634E+06 -8.727260E+05 -3.500498E+06  7.551781E+05  2.915042E+05
         4  27 -9.428827E+06 -1.465265E+06 -5.944716E+05 -3.626784E+06  3.333578E+05  1.320179E+05
         5   1 -8.680668E+06 -1.340532E+06 -3.028836E+05 -3.234095E+06 -2.624842E+05 -1.044349E+05
         5   2 -8.633864E+06 -1.129873E+06 -9.501906E+04 -3.325522E+06 -1.681423E+05 -6.884554E+04
         5   3 -8.749549E+06 -1.145982E+06 -3.299836E+04 -3.293424E+06 -7.454167E+04 -3.130072E+04
         5   4 -9.035880E+06 -1.450469E+06 -3.960808E+05 -3.304843E+06 -2.625661E+05 -1.044798E+05
         5   5 -8.940264E+06 -1.240543E+06 -1.785184E+05 -3.402748E+06 -1.678899E+05 -6.875253E+04
         5   6 -9.007268E+06 -1.257538E+06 -1.071358E+05 -3.377115E+06 -7.394679E+04 -3.107372E+04
         5   7 -9.390969E+06 -1.560409E+06 -4.892881E+05 -3.375557E+06 -2.626479E+05 -1.045247E+05
         5   8 -9.246571E+06 -1.351209E+06 -2.620261E+05 -3.479941E+06 -1.676376E+05 -6.865955E+04
         5   9 -9.264920E+06 -1.369084E+06 -1.812797E+05 -3.460773E+06 -7.335218E+04 -3.084684E+04
         5  10 -8.680746E+06 -1.340562E+06 -3.030360E+05 -3.234118E+06 -2.136397E-09  2.118767E-09
         5  11 -8.633896E+06 -1.129886E+06 -9.508210E+04 -3.325531E+06 -1.738305E-09  2.132038E-09
         5  12 -8.749556E+06 -1.145984E+06 -3.301084E+04 -3.293426E+06 -2.729988E-09 -1.014480E-09
         5  13 -9.035958E+06 -1.450500E+06 -3.962334E+05 -3.304865E+06  4.008416E-09  9.949270E-10
         5  14 -8.940296E+06 -1.240556E+06 -1.785813E+05 -3.402758E+06 -2.033358E-09 -5.013587E-10
         5  15 -9.007274E+06 -1.257540E+06 -1.071481E+05 -3.377117E+06 -4.026603E-10 -6.619468E-10
         5  16 -9.391047E+06 -1.560440E+06 -4.894409E+05 -3.375580E+06  4.159472E-09  1.477135E-09
         5  17 -9.246603E+06 -1.351222E+06 -2.620889E+05 -3.479950E+06 -2.973342E-09  5.314084E-10
         5  18 -9.264926E+06 -1.369087E+06 -1.812918E+05 -3.460775E+06 -6.535581E-10  5.149489E-10
         5  19 -8.680668E+06 -1.340532E+06 -3.028836E+05 -3.234095E+06  2.624842E+05  1.044349E+05
         5  20 -8.633864E+06 -1.129873E+06 -9.501906E+04 -3.325522E+06  1.681423E+05  6.884554E+04
         5  21 -8.749549E+06 -1.145982E+06 -3.299836E+04 -3.293424E+06  7.454167E+04  3.130072E+04
         5  22 -9.035880E+06 -1.450469E+06 -3.960808E+05 -3.304843E+06  2.625661E+05  1.044798E+05
         5  23 -8.940264E+06 -1.240543E+06 -1.785184E+05 -3.402748E+06  1.678899E+05  6.875253E+04
         5  24 -9.007268E+06 -1.257538E+06 -1.071358E+05 -3.377115E+06  7.394679E+04  3.107372E+04
         5  25 -9.390969E+06 -1.560409E+06 -4.892881E+05 -3.375557E+06  2.626479E+05  1.045247E+05
         5  26 -9.246571E+06 -1.351209E+06 -2.620261E+05 -3.479941E+06  1.676376E+05  6.865955E+04
         5  27 -9.264920E+06 -1.369084E+06 -1.812797E+05 -3.460773E+06  7.335218E+04  3.084684E+04
         6   1 -8.989666E+06 -1.282436E+06 -8.272979E+04 -3.353059E+06 -5.906598E+04 -2.376467E+04
         6   2 -8.996870E+06 -1.301247E+06 -5.285893E+04 -3.415023E+06 -3.825086E+04 -1.377504E+04
         6   3 -9.092646E+06 -1.289934E+06 -5.021086E+04 -3.387269E+06 -1.739225E+04 -3.905183E+03
         6   4 -9.002948E+06 -1.284000E+06 -8.554913E+04 -3.353157E+06 -5.868602E+04 -2.362127E+04
         6   5 -8.956553E+06 -1.285100E+06 -4.154988E+04 -3.403253E+06 -3.789560E+04 -1.364067E+04
         6   6 -8.998729E+06 -1.256071E+06 -2.475546E+04 -3.363631E+06 -1.705963E+04 -3.779289E+03
         6   7 -9.016230E+06 -1.285563E+06 -8.836848E+04 -3.353255E+06 -5.830607E+04 -2.347787E+04
         6   8 -8.916234E+06 -1.268952E+06 -3.024097E+04 -3.391481E+06 -3.754030E+04 -1.350629E+04
         6   9 -8.904803E+06 -1.222207E+06  6.991878E+02 -3.339990E+06 -1.672695E+04 -3.653377E+03
         6  10 -8.989669E+06 -1.282438E+06 -8.273754E+04 -3.353060E+06  2.428836E-09 -2.476100E-10
         6  11 -8.996872E+06 -1.301248E+06 -5.286208E+04 -3.415024E+06  8.047551E-10  6.196002E-10
         6  12 -9.092647E+06 -1.289934E+06 -5.021147E+04 -3.387269E+06 -2.764282E-09 -1.822930E-10
         6  13 -9.002952E+06 -1.284001E+06 -8.555678E+04 -3.353158E+06  5.323034E-09 -1.206570E-09
         6  14 -8.956555E+06 -1.285100E+06 -4.155298E+04 -3.403253E+06 -8.204388E-09  1.740020E-09
         6  15 -8.998729E+06 -1.256071E+06 -2.475605E+04 -3.363631E+06  5.155250E-09  1.649799E-09
         6  16 -9.016234E+06 -1.285565E+06 -8.837603E+04 -3.353256E+06 -2.475157E-09  1.061221E-09
         6  17 -8.916235E+06 -1.268953E+06 -3.024402E+04 -3.391482E+06 -1.181566E-10 -3.635802E-10
         6  18 -8.904803E+06 -1.222208E+06  6.986280E+02 -3.339990E+06  3.776425E-09 -1.432544E-09
         6  19 -8.989666E+06 -1.282436E+06 -8.272979E+04 -3.353059E+06  5.906598E+04  2.376467E+04
         6  20 -8.996870E+06 -1.301247E+06 -5.285893E+04 -3.415023E+06  3.825086E+04  1.377504E+04
         6  21 -9.092646E+06 -1.289934E+06 -5.021086E+04 -3.387269E+06  1.739225E+04  3.905183E+03
         6  22 -9.002948E+06 -1.284000E+06 -8.554913E+04 -3.353157E+06  5.868602E+04  2.362127E+04
         6  23 -8.956553E+06 -1.285100E+06 -4.154988E+04 -3.403253E+06  3.789560E+04  1.364067E+04
         6  24 -8.998729E+06 -1.256071E+06 -2.475546E+04 -3.363631E+06  1.705963E+04  3.779289E+03
         6  25 -9.016230E+06 -1.285563E+06 -8.836848E+04 -3.353255E+06  5.830607E+04  2.347787E+04
         6  26 -8.916234E+06 -1.268952E+06 -3.024097E+04 -3.391481E+06  3.754030E+04  1.350629E+04
         6  27 -8.904803E+06 -1.222207E+06  6.991878E+02 -3.339990E+06  1.672695E+04  3.653377E+03
         7   1 -9.313623E+06 -1.392413E+06 -1.097585E+05 -3.458620E+06 -1.439860E+04 -1.303244E+03
         7   2 -9.320990E+06 -1.415004E+06 -1.086280E+05 -3.487229E+06 -8.908590E+03  2.743247E+03
         7   3 -9.366572E+06 -1.408219E+06 -1.136987E+05 -3.473267E+06 -2.811659E+03  5.185646E+03
         7   4 -8.989282E+06 -1.268075E+06 -1.970284E+04 -3.369651E+06 -1.389941E+04 -1.114660E+03
         7   5 -8.969942E+06 -1.281098E+06 -1.149655E+04 -3.391567E+06 -8.726581E+03  2.811689E+03
         7   6 -8.988752E+06 -1.264682E+06 -9.234018E+03 -3.370914E+06 -2.946708E+03  5.134493E+03
         7   7 -8.664839E+06 -1.143731E+06  7.034271E+04 -3.280640E+06 -1.339992E+04 -9.259630E+02
         7   8 -8.618776E+06 -1.147186E+06  8.562340E+04 -3.295856E+06 -8.544457E+03  2.880175E+03
         7   9 -8.610792E+06 -1.121136E+06  9.521745E+04 -3.268505E+06 -3.081850E+03  5.083306E+03
         7  10 -9.313624E+06 -1.392413E+06 -1.097589E+05 -3.458620E+06 -2.170086E-09  1.570311E-09
         7  11 -9.320990E+06 -1.415004E+06 -1.086282E+05 -3.487229E+06  3.942463E-09 -3.120453E-09
         7  12 -9.366572E+06 -1.408219E+06 -1.136988E+05 -3.473267E+06 -6.261401E-09 -3.737786E-09
         7  13 -8.989282E+06 -1.268075E+06 -1.970321E+04 -3.369651E+06  8.919694E-09  1.142018E-10
         7  14 -8.969943E+06 -1.281098E+06 -1.149671E+04 -3.391567E+06  4.709505E-09 -2.940816E-09
         7  15 -8.988752E+06 -1.264682E+06 -9.234083E+03 -3.370914E+06 -9.170494E-09 -8.147655E-11
         7  16 -8.664839E+06 -1.143731E+06  7.034237E+04 -3.280640E+06  4.312025E-09 -1.677487E-09
         7  17 -8.618776E+06 -1.147186E+06  8.562324E+04 -3.295856E+06  8.557571E-10  9.971719E-10
         7  18 -8.610792E+06 -1.121136E+06  9.521739E+04 -3.268505E+06 -2.830119E-09  4.128085E-09
         7  19 -9.313623E+06 -1.392413E+06 -1.097585E+05 -3.458620E+06  1.439860E+04  1.303244E+03
         7  20 -9.320990E+06 -1.415004E+06 -1.086280E+05 -3.487229E+06  8.908590E+03 -2.743247E+03
         7  21 -9.366572E+06 -1.408219E+06 -1.136987E+05 -3.473267E+06  2.811659E+03 -5.185646E+03
         7  22 -8.989282E+06 -1.268075E+06 -1.970284E+04 -3.369651E+06  1.389941E+04  1.114660E+03
         7  23 -8.969942E+06 -1.281098E+06 -1.149655E+04 -3.391567E+06  8.726581E+03 -2.811689E+03
         7  24 -8.988752E+06 -1.264682E+06 -9.234018E+03 -3.370914E+06  2.946708E+03 -5.134493E+03
         7  25 -8.664839E+06 -1.143731E+06  7.034271E+04 -3.280640E+06  1.339992E+04  9.259630E+02
         7  26 -8.618776E+06 -1.147186E+06  8.562340E+04 -3.295856E+06  8.544457E+03 -2.880175E+03
         7  27 -8.610792E+06 -1.121136E+06  9.521745E+04 -3.268505E+06  3.081850E+03 -5.083306E+03
         8   1 -9.369104E+06 -1.429369E+06 -1.184138E+05 -3.494539E+06 -1.677237E+03  5.719623E+03
         8   2 -9.362106E+06 -1.405635E+06 -1.146840E+05 -3.472791E+06  4.294186E+03  8.112287E+03
         8   3 -9.329260E+06 -1.416106E+06 -1.169665E+05 -3.481199E+06  1.090626E+04  8.796037E+03
         8   4 -8.974531E+06 -1.278874E+06 -9.175019E+03 -3.387050E+06 -1.480896E+03  5.793212E+03
         8   5 -8.987736E+06 -1.263421E+06 -1.121585E+04 -3.371376E+06  4.152913E+03  8.058947E+03
         8   6 -8.975025E+06 -1.282102E+06 -1.899536E+04 -3.385858E+06  1.042697E+04  8.616181E+03
         8   7 -8.579807E+06 -1.128371E+06  1.000491E+05 -3.279498E+06 -1.284415E+03  5.866853E+03
         8   8 -8.613231E+06 -1.121200E+06  9.223925E+04 -3.269905E+06  4.011544E+03  8.005570E+03
         8   9 -8.620669E+06 -1.148090E+06  7.896423E+04 -3.290468E+06  9.947375E+03  8.436210E+03
         8  10 -9.369104E+06 -1.429369E+06 -1.184138E+05 -3.494539E+06  4.886281E-09 -1.507761E-09
         8  11 -9.362106E+06 -1.405635E+06 -1.146841E+05 -3.472791E+06  3.677268E-09  3.004649E-10
         8  12 -9.329260E+06 -1.416107E+06 -1.169669E+05 -3.481199E+06  1.091808E-09  1.458370E-09
         8  13 -8.974531E+06 -1.278874E+06 -9.175086E+03 -3.387050E+06 -5.253416E-09  6.732167E-10
         8  14 -8.987736E+06 -1.263421E+06 -1.121600E+04 -3.371376E+06  1.629402E-09 -1.636820E-10
         8  15 -8.975026E+06 -1.282102E+06 -1.899571E+04 -3.385859E+06  4.022973E-09 -6.668842E-10
         8  16 -8.579807E+06 -1.128371E+06  1.000490E+05 -3.279498E+06 -4.561025E-09 -1.011597E-09
         8  17 -8.613231E+06 -1.121200E+06  9.223910E+04 -3.269905E+06 -2.387825E-09  9.086175E-10
         8  18 -8.620669E+06 -1.148090E+06  7.896391E+04 -3.290468E+06  2.950853E-09 -1.900638E-09
         8  19 -9.369104E+06 -1.429369E+06 -1.184138E+05 -3.494539E+06  1.677237E+03 -5.719623E+03
         8  20 -9.362106E+06 -1.405635E+06 -1.146840E+05 -3.472791E+06 -4.294186E+03 -8.112287E+03
         8  21 -9.329260E+06 -1.416106E+06 -1.169665E+05 -3.481199E+06 -1.090626E+04 -8.796037E+03
         8  22 -8.974531E+06 -1.278874E+06 -9.175019E+03 -3.387050E+06  1.480896E+03 -5.793212E+03
         8  23 -8.987736E+06 -1.263421E+06 -1.121585E+04 -3.371376E+06 -4.152913E+03 -8.058947E+03
         8  24 -8.975025E+06 -1.282102E+06 -1.899536E+04 -3.385858E+06 -1.042697E+04 -8.616181E+03
         8  25 -8.579807E+06 -1.128371E+06  1.000491E+05 -3.279498E+06  1.284415E+03 -5.866853E+03
         8  26 -8.613231E+06 -1.121200E+06  9.223925E+04 -3.269905E+06 -4.011544E+03 -8.005570E+03
         8  27 -8.620669E+06 -1.148090E+06  7.896423E+04 -3.290468E+06 -9.947375E+03 -8.436210E+03
         9   1 -9.108414E+06 -1.342234E+06 -6.295522E+04 -3.438771E+06  1.466083E+04  8.863230E+03
         9   2 -9.087283E+06 -1.280872E+06 -6.516484E+04 -3.383273E+06  3.599368E+04  1.504933E+04
         9   3 -9.014810E+06 -1.326912E+06 -9.354369E+04 -3.397067E+06  5.745929E+04  2.088249E+04
         9   4 -8.967716E+06 -1.287003E+06 -2.383118E+04 -3.398788E+06  1.438206E+04  8.758829E+03
         9   5 -8.995378E+06 -1.246732E+06 -3.992118E+04 -3.359164E+06  3.564723E+04  1.491955E+04
         9   6 -8.971689E+06 -1.313845E+06 -8.212431E+04 -3.388835E+06  5.704333E+04  2.072646E+04
         9   7 -8.826998E+06 -1.231771E+06  1.529099E+04 -3.358796E+06  1.410322E+04  8.654398E+03
         9   8 -8.903466E+06 -1.212592E+06 -1.467831E+04 -3.335053E+06  3.530072E+04  1.478975E+04
         9   9 -8.928566E+06 -1.300779E+06 -7.070509E+04 -3.380603E+06  5.662735E+04  2.057043E+04
         9  10 -9.108414E+06 -1.342234E+06 -6.295578E+04 -3.438771E+06 -2.677865E-09 -1.037544E-09
         9  11 -9.087284E+06 -1.280873E+06 -6.516775E+04 -3.383273E+06 -3.956856E-10  1.978130E-09
         9  12 -9.014814E+06 -1.326914E+06 -9.355083E+04 -3.397068E+06  2.485839E-09 -1.058028E-09
         9  13 -8.967716E+06 -1.287003E+06 -2.383172E+04 -3.398788E+06 -4.228641E-09  6.118146E-10
         9  14 -8.995380E+06 -1.246733E+06 -3.992403E+04 -3.359165E+06 -8.273201E-10  1.594429E-09
         9  15 -8.971692E+06 -1.313847E+06 -8.213135E+04 -3.388836E+06  1.157564E-09  5.174367E-10
         9  16 -8.826998E+06 -1.231771E+06  1.529047E+04 -3.358796E+06 -1.493470E-09  2.534395E-09
         9  17 -8.903467E+06 -1.212592E+06 -1.468111E+04 -3.335053E+06 -1.131904E-10 -1.248086E-09
         9  18 -8.928569E+06 -1.300780E+06 -7.071202E+04 -3.380604E+06 -2.209845E-09  5.343361E-09
         9  19 -9.108414E+06 -1.342234E+06 -6.295522E+04 -3.438771E+06 -1.466083E+04 -8.863230E+03
         9  20 -9.087283E+06 -1.280872E+06 -6.516484E+04 -3.383273E+06 -3.599368E+04 -1.504933E+04
         9  21 -9.014810E+06 -1.326912E+06 -9.354369E+04 -3.397067E+06 -5.745929E+04 -2.088249E+04
         9  22 -8.967716E+06 -1.287003E+06 -2.383118E+04 -3.398788E+06 -1.438206E+04 -8.758829E+03
         9  23 -8.995378E+06 -1.246732E+06 -3.992118E+04 -3.359164E+06 -3.564723E+04 -1.491955E+04
         9  24 -8.971689E+06 -1.313845E+06 -8.212431E+04 -3.388835E+06 -5.704333E+04 -2.072646E+04
         9  25 -8.826998E+06 -1.231771E+06  1.529099E+04 -3.358796E+06 -1.410322E+04 -8.654398E+03
         9  26 -8.903466E+06 -1.212592E+06 -1.467831E+04 -3.335053E+06 -3.530072E+04 -1.478975E+04
         9  27 -8.928566E+06 -1.300779E+06 -7.070509E+04 -3.380603E+06 -5.662735E+04 -2.057043E+04
        10   1 -8.747855E+06 -1.202779E+06 -3.983773E+04 -3.351127E+06  7.342525E+04  2.509770E+04
        10   2 -8.706881E+06 -1.108922E+06 -9.770064E+04 -3.293472E+06  1.648009E+05  5.705868E+04
        10   3 -8.723184E+06 -1.331589E+06 -2.955912E+05 -3.230047E+06  2.554969E+05  9.084924E+04
        10   4 -8.984350E+06 -1.279996E+06 -1.028519E+05 -3.402186E+06  7.282619E+04  2.487529E+04
        10   5 -8.969265E+06 -1.214369E+06 -1.713413E+05 -3.370527E+06  1.645284E+05  5.695442E+04
        10   6 -9.011575E+06 -1.465409E+06 -3.801712E+05 -3.333090E+06  2.555467E+05  9.085506E+04
        10   7 -9.220790E+06 -1.357212E+06 -1.658710E+05 -3.453230E+06  7.222737E+04  2.465293E+04
        10   8 -9.231581E+06 -1.319809E+06 -2.449886E+05 -3.447551E+06  1.642560E+05  5.685020E+04
        10   9 -9.299882E+06 -1.599212E+06 -4.647595E+05 -3.436086E+06  2.555964E+05  9.086085E+04
        10  10 -8.747861E+06 -1.202781E+06 -3.984923E+04 -3.351128E+06  3.584843E-09  2.192585E-09
        10  11 -8.706911E+06 -1.108933E+06 -9.775872E+04 -3.293480E+06  7.236495E-10 -4.069560E-09
        10  12 -8.723257E+06 -1.331615E+06 -2.957316E+05 -3.230066E+06 -6.466240E-10  1.727446E-09
        10  13 -8.984356E+06 -1.279998E+06 -1.028633E+05 -3.402188E+06 -2.215994E-09 -7.751286E-11
        10  14 -8.969295E+06 -1.214379E+06 -1.713992E+05 -3.370535E+06 -4.750460E-09  7.341763E-11
        10  15 -9.011648E+06 -1.465436E+06 -3.803117E+05 -3.333109E+06  3.839351E-09 -7.834471E-10
        10  16 -9.220796E+06 -1.357214E+06 -1.658821E+05 -3.453232E+06 -3.202172E-09 -2.005573E-11
        10  17 -9.231612E+06 -1.319820E+06 -2.450463E+05 -3.447559E+06  3.286621E-09  3.587210E-09
        10  18 -9.299955E+06 -1.599239E+06 -4.649002E+05 -3.436105E+06 -7.204183E-10 -1.913274E-09
        10  19 -8.747855E+06 -1.202779E+06 -3.983773E+04 -3.351127E+06 -7.342525E+04 -2.509770E+04
        10  20 -8.706881E+06 -1.108922E+06 -9.770064E+04 -3.293472E+06 -1.648009E+05 -5.705868E+04
        10  21 -8.723184E+06 -1.331589E+06 -2.955912E+05 -3.230047E+06 -2.554969E+05 -9.084924E+04
        10  22 -8.984350E+06 -1.279996E+06 -1.028519E+05 -3.402186E+06 -7.282619E+04 -2.487529E+04
        10  23 -8.969265E+06 -1.214369E+06 -1.713413E+05 -3.370527E+06 -1.645284E+05 -5.695442E+04
        10  24 -9.011575E+06 -1.465409E+06 -3.801712E+05 -3.333090E+06 -2.555467E+05 -9.085506E+04
        10  25 -9.220790E+06 -1.357212E+06 -1.658710E+05 -3.453230E+06 -7.222737E+04 -2.465293E+04
        10  26 -9.231581E+06 -1.319809E+06 -2.449886E+05 -3.447551E+06 -1.642560E+05 -5.685020E+04
        10  27 -9.299882E+06 -1.599212E+06 -4.647595E+05 -3.436086E+06 -2.555964E+05 -9.086085E+04
        11   1 -8.610420E+06 -1.146577E+06 -3.477964E+05 -3.393255E+06  3.259090E+05  1.160450E+05
        11   2 -8.433712E+06 -7.947999E+05 -6.196384E+05 -3.287847E+06  7.294533E+05  2.670403E+05
        11   3 -8.992334E+06 -2.227990E+06 -1.685395E+06 -2.708218E+06  1.130649E+06  4.243641E+05
        11   4 -9.082805E+06 -1.242124E+06 -4.616318E+05 -3.435283E+06  3.249812E+05  1.157519E+05
        11   5 -8.807846E+06 -9.817902E+05 -7.319206E+05 -3.435189E+06  7.295330E+05  2.670034E+05
        11   6 -9.268916E+06 -2.507368E+06 -1.797312E+06 -2.960698E+06  1.131807E+06  4.243989E+05
        11   7 -9.554959E+06 -1.337675E+06 -5.754782E+05 -3.477300E+06  3.240541E+05  1.154589E+05
        11   8 -9.181836E+06 -1.168738E+06 -8.442166E+05 -3.582439E+06  7.296126E+05  2.669664E+05
        11   9 -9.545345E+06 -2.786514E+06 -1.909225E+06 -3.213028E+06  1.132965E+06  4.244326E+05
        11  10 -8.610539E+06 -1.146621E+06 -3.480250E+05 -3.393285E+06  2.291717E-09  3.655101E-10
        11  11 -8.434310E+06 -7.950232E+05 -6.207906E+05 -3.288005E+06 -8.339765E-10  1.041269E-09
        11  12 -8.993774E+06 -2.228536E+06 -1.688180E+06 -2.708608E+06  8.423085E-10  2.579285E-11
        11  13 -9.082923E+06 -1.242167E+06 -4.618593E+05 -3.435314E+06  3.413689E-09 -2.991759E-10
        11  14 -8.808444E+06 -9.820137E+05 -7.330738E+05 -3.435347E+06 -3.052835E-09  5.541087E-10
        11  15 -9.270359E+06 -2.507915E+06 -1.800104E+06 -2.961089E+06  2.198676E-09  1.404172E-10
        11  16 -9.555077E+06 -1.337718E+06 -5.757046E+05 -3.477330E+06  5.479970E-10 -8.153714E-11
        11  17 -9.182435E+06 -1.168962E+06 -8.453708E+05 -3.582598E+06  2.574798E-09  4.543294E-10
        11  18 -9.546792E+06 -2.787063E+06 -1.912024E+06 -3.213419E+06 -2.646034E-09  2.372629E-10
        11  19 -8.610420E+06 -1.146577E+06 -3.477964E+05 -3.393255E+06 -3.259090E+05 -1.160450E+05
        11  20 -8.433712E+06 -7.947999E+05 -6.196384E+05 -3.287847E+06 -7.294533E+05 -2.670403E+05
        11  21 -8.992334E+06 -2.227990E+06 -1.685395E+06 -2.708218E+06 -1.130649E+06 -4.243641E+05
        11  22 -9.082805E+06 -1.242124E+06 -4.616318E+05 -3.435283E+06 -3.249812E+05 -1.157519E+05
        11  23 -8.807846E+06 -9.817902E+05 -7.319206E+05 -3.435189E+06 -7.295330E+05 -2.670034E+05
        11  24 -9.268916E+06 -2.507368E+06 -1.797312E+06 -2.960698E+06 -1.131807E+06 -4.243989E+05
        11  25 -9.554959E+06 -1.337675E+06 -5.754782E+05 -3.477300E+06 -3.240541E+05 -1.154589E+05
        11  26 -9.181836E+06 -1.168738E+06 -8.442166E+05 -3.582439E+06 -7.296126E+05 -2.669664E+05
        11  27 -9.545345E+06 -2.786514E+06 -1.909225E+06 -3.213028E+06 -1.132965E+06 -4.244326E+05
        12   1 -3.954757E+04 -9.664355E+05 -3.441782E+04  4.088086E+03 -2.264260E+02 -5.712717E+02
        12   2 -4.017491E+04 -9.719906E+05 -3.442537E+04 -5.490753E+03 -3.064087E+02 -3.360191E+03
        12   3 -3.697736E+04 -9.640650E+05 -2.922350E+04  3.610433E+03 -9.272827E+01 -6.150270E+03
        12   4  2.815533E+02 -8.072741E+05  5.408359E+03  4.153884E+03 -2.264192E+02 -5.659726E+02
        12   5 -6.431477E+02 -8.140214E+05  5.101819E+03 -5.190872E+03 -3.064100E+02 -3.362555E+03
        12   6  2.259205E+03 -8.072851E+05  1.000971E+04  4.144112E+03 -9.277307E+01 -6.160292E+03
        12   7  4.010876E+04 -6.480898E+05  4.523262E+04  4.219696E+03 -2.264124E+02 -5.606721E+02
        12   8  3.888673E+04 -6.560295E+05  4.462712E+04 -4.890928E+03 -3.064113E+02 -3.364920E+03
        12   9  4.149391E+04 -6.504829E+05  4.924107E+04  4.677900E+03 -9.281788E+01 -6.170317E+03
        12  10 -3.954757E+04 -9.664355E+05 -3.441782E+04  4.088086E+03  1.938995E-09  9.269423E-12
        12  11 -4.017492E+04 -9.719907E+05 -3.442539E+04 -5.490754E+03 -1.686803E-09 -1.718241E-09
        12  12 -3.697737E+04 -9.640651E+05 -2.922357E+04  3.610432E+03 -3.305996E-10  8.877118E-10
        12  13  2.815531E+02 -8.072741E+05  5.408359E+03  4.153884E+03 -4.547317E-09  1.740391E-10
        12  14 -6.431508E+02 -8.140214E+05  5.101798E+03 -5.190872E+03  2.722332E-12  6.889390E-10
        12  15  2.259195E+03 -8.072852E+05  1.000964E+04  4.144111E+03  2.367162E-09  1.544743E-09
        12  16  4.010876E+04 -6.480898E+05  4.523262E+04  4.219695E+03 -9.366426E-09  1.060287E-10
        12  17  3.888673E+04 -6.560295E+05  4.462710E+04 -4.890929E+03  5.796923E-10 -1.755175E-09
        12  18  4.149390E+04 -6.504829E+05  4.924100E+04  4.677900E+03  9.493793E-10 -3.139986E-10
        12  19 -3.954757E+04 -9.664355E+05 -3.441782E+04  4.088086E+03  2.264260E+02  5.712717E+02
        12  20 -4.017491E+04 -9.719906E+05 -3.442537E+04 -5.490753E+03  3.064087E+02  3.360191E+03
        12  21 -3.697736E+04 -9.640650E+05 -2.922350E+04  3.610433E+03  9.272827E+01  6.150270E+03
        12  22  2.815533E+02 -8.072741E+05  5.408359E+03  4.153884E+03  2.264192E+02  5.659726E+02
        12  23 -6.431477E+02 -8.140214E+05  5.101819E+03 -5.190872E+03  3.064100E+02  3.362555E+03
        12  24  2.259205E+03 -8.072851E+05  1.000971E+04  4.144112E+03  9.277307E+01  6.160292E+03
        12  25  4.010876E+04 -6.480898E+05  4.523262E+04  4.219696E+03  2.264124E+02  5.606721E+02
        12  26  3.888673E+04 -6.560295E+05  4.462712E+04 -4.890928E+03  3.064113E+02  3.364920E+03
        12  27  4.149391E+04 -6.504829E+05  4.924107E+04  4.677900E+03  9.281788E+01  6.170317E+03
        13   1  6.984109E+04 -5.228448E+05  8.297284E+04  1.791899E+03  2.017573E+02 -8.612665E+03
        13   2  6.393322E+04 -5.461165E+05  8.540690E+04 -1.097703E+03  5.065110E+02 -1.784116E+04
        13   3  9.057552E+04 -5.222235E+05  1.095605E+05  7.758826E+02  3.689708E+02 -2.706959E+04
        13   4  5.460430E+02 -7.998157E+05  1.368375E+04  1.045006E+03  2.017175E+02 -8.623542E+03
        13   5 -5.433818E+03 -8.233831E+05  1.604711E+04 -1.305460E+03  5.065298E+02 -1.783782E+04
        13   6  2.113436E+04 -7.997937E+05  4.012368E+04  1.107381E+03  3.689402E+02 -2.705204E+04
        13   7 -6.875481E+04 -1.076717E+06 -5.561114E+04  2.983748E+02  2.016777E+02 -8.634414E+03
        13   8 -7.480667E+04 -1.100580E+06 -5.331849E+04 -1.513136E+03  5.065486E+02 -1.783448E+04
        13   9 -4.831262E+04 -1.077294E+06 -2.931893E+04  1.438782E+03  3.689097E+02 -2.703448E+04
        13  10  6.984107E+04 -5.228449E+05  8.297270E+04  1.791900E+03  9.291348E-10  6.148828E-10
        13  11  6.393314E+04 -5.461169E+05  8.540630E+04 -1.097696E+03 -2.315129E-09 -7.987494E-10
        13  12  9.057532E+04 -5.222243E+05  1.095591E+05  7.758906E+02 -2.646334E-09 -5.335224E-10
        13  13  5.460230E+02 -7.998158E+05  1.368361E+04  1.045007E+03  3.727974E-11  1.068792E-09
        13  14 -5.433904E+03 -8.233834E+05  1.604651E+04 -1.305453E+03 -4.787115E-09  2.500223E-10
        13  15  2.113416E+04 -7.997945E+05  4.012230E+04  1.107389E+03  3.008630E-11 -1.012999E-09
        13  16 -6.875483E+04 -1.076717E+06 -5.561128E+04  2.983762E+02  2.000842E-09 -4.253947E-11
        13  17 -7.480676E+04 -1.100580E+06 -5.331909E+04 -1.513129E+03  2.536191E-09  2.906160E-13
        13  18 -4.831282E+04 -1.077295E+06 -2.932031E+04  1.438790E+03  2.136618E-10  5.998574E-11
        13  19  6.984109E+04 -5.228448E+05  8.297284E+04  1.791899E+03 -2.017573E+02  8.612665E+03
        13  20  6.393322E+04 -5.461165E+05  8.540690E+04 -1.097703E+03 -5.065110E+02  1.784116E+04
        13  21  9.057552E+04 -5.222235E+05  1.095605E+05  7.758826E+02 -3.689708E+02  2.706959E+04
        13  22  5.460430E+02 -7.998157E+05  1.368375E+04  1.045006E+03 -2.017175E+02  8.623542E+03
        13  23 -5.433818E+03 -8.233831E+05  1.604711E+04 -1.305460E+03 -5.065298E+02  1.783782E+04
        13  24  2.113436E+04 -7.997937E+05  4.012368E+04  1.107381E+03 -3.689402E+02  2.705204E+04
        13  25 -6.875481E+04 -1.076717E+06 -5.561114E+04  2.983748E+02 -2.016777E+02  8.634414E+03
        13  26 -7.480667E+04 -1.100580E+06 -5.331849E+04 -1.513136E+03 -5.065486E+02  1.783448E+04
        13  27 -4.831262E+04 -1.077294E+06 -2.931893E+04  1.438782E+03 -3.689097E+02  2.703448E+04
        14   1 -1.760563E+04 -8.485923E+05  3.316094E+04 -5.881277E+03  1.735276E+02 -3.509620E+04
        14   2 -4.262736E+04 -8.754206E+05  5.662355E+04  6.787059E+03  1.072884E+02 -7.304858E+04
        14   3  1.115696E+05 -8.513640E+05  1.498544E+05 -2.508120E+03  2.107206E+02 -1.109993E+05
        14   4 -5.196339E+03 -7.989661E+05  4.557754E+04 -5.003572E+03  1.734513E+02 -3.509118E+04
        14   5 -2.985067E+04 -8.243792E+05  6.939467E+04  6.138474E+03  1.073572E+02 -7.305038E+04
        14   6  1.247071E+05 -7.989104E+05  1.629806E+05 -4.682919E+03  2.111143E+02 -1.110080E+05
        14   7  7.212771E+03 -7.493377E+05  5.799396E+04 -4.125795E+03  1.733750E+02 -3.508616E+04
        14   8 -1.707417E+04 -7.733356E+05  8.216559E+04  5.489838E+03  1.074259E+02 -7.305217E+04
        14   9  1.378443E+05 -7.464542E+05  1.761067E+05 -6.857900E+03  2.115080E+02 -1.110167E+05
        14  10 -1.760596E+04 -8.485936E+05  3.315862E+04 -5.881272E+03  3.451313E-09 -2.863948E-10
        14  11 -4.262879E+04 -8.754263E+05  5.661351E+04  6.787065E+03  4.638570E-09  2.256234E-09
        14  12  1.115663E+05 -8.513772E+05  1.498312E+05 -2.508101E+03  3.653259E-09 -1.962758E-10
        14  13 -5.196670E+03 -7.989674E+05  4.557523E+04 -5.003567E+03  4.801195E-10 -1.007006E-09
        14  14 -2.985210E+04 -8.243850E+05  6.938463E+04  6.138481E+03  3.789700E-09 -8.626111E-10
        14  15  1.247037E+05 -7.989236E+05  1.629574E+05 -4.682900E+03  5.470501E-10 -8.024573E-10
        14  16  7.212440E+03 -7.493390E+05  5.799164E+04 -4.125790E+03  5.893163E-12 -2.441522E-10
        14  17 -1.707561E+04 -7.733413E+05  8.215555E+04  5.489845E+03  1.975432E-09  1.860876E-09
        14  18  1.378410E+05 -7.464675E+05  1.760835E+05 -6.857881E+03  1.668345E-10 -1.857061E-10
        14  19 -1.760563E+04 -8.485923E+05  3.316094E+04 -5.881277E+03 -1.735276E+02  3.509620E+04
        14  20 -4.262736E+04 -8.754206E+05  5.662355E+04  6.787059E+03 -1.072884E+02  7.304858E+04
        14  21  1.115696E+05 -8.513640E+05  1.498544E+05 -2.508120E+03 -2.107206E+02  1.109993E+05
        14  22 -5.196339E+03 -7.989661E+05  4.557754E+04 -5.003572E+03 -1.734513E+02  3.509118E+04
        14  23 -2.985067E+04 -8.243792E+05  6.939467E+04  6.138474E+03 -1.073572E+02  7.305038E+04
        14  24  1.247071E+05 -7.989104E+05  1.629806E+05 -4.682919E+03 -2.111143E+02  1.110080E+05
        14  25  7.212771E+03 -7.493377E+05  5.799396E+04 -4.125795E+03 -1.733750E+02  3.508616E+04
        14  26 -1.707417E+04 -7.733356E+05  8.216559E+04  5.489838E+03 -1.074259E+02  7.305217E+04
        14  27  1.378443E+05 -7.464542E+05  1.761067E+05 -6.857900E+03 -2.115080E+02  1.110167E+05
        15   1  1.391930E+05 -7.481526E+05  1.336881E+05 -2.366432E+02  1.921187E+04 -5.030192E+00
        15   2  1.388403E+05 -7.496656E+05  1.333175E+05  9.366249E+01  1.917616E+04  5.671464E+00
        15   3  1.385221E+05 -7.508771E+05  1.330111E+05 -5.142686E+02  1.909560E+04  1.629069E+01
        15   4 -5.325421E+01 -1.310032E+06 -3.470392E+01 -2.085106E+02  1.921304E+04  2.301934E+00
        15   5 -6.720361E+01 -1.310180E+06 -7.680369E+01  2.606430E+02  1.917730E+04  3.771518E+01
        15   6 -5.104886E+01 -1.310032E+06 -7.186590E+01 -2.084882E+02  1.909671E+04  7.304638E+01
        15   7 -1.393223E+05 -1.871621E+06 -1.337797E+05 -1.803970E+02  1.921420E+04  9.627448E+00
        15   8 -1.389974E+05 -1.870406E+06 -1.334931E+05  4.275003E+02  1.917845E+04  6.973007E+01
        15   9 -1.386468E+05 -1.868899E+06 -1.331767E+05  9.706571E+01  1.909782E+04  1.297511E+02
        15  10  1.391926E+05 -7.481527E+05  1.336874E+05 -2.366431E+02  1.379419E-09 -7.984392E-09
        15  11  1.388399E+05 -7.496657E+05  1.333168E+05  9.366240E+01  3.479868E-09 -1.122505E-09
        15  12  1.385217E+05 -7.508772E+05  1.330104E+05 -5.142689E+02 -1.406587E-09  4.052140E-09
        15  13 -5.365036E+01 -1.310032E+06 -3.539718E+01 -2.085106E+02 -8.157270E-10  5.152464E-11
        15  14 -6.759829E+01 -1.310180E+06 -7.749437E+01  2.606424E+02 -3.245906E-10 -2.357877E-10
        15  15 -5.144023E+01 -1.310032E+06 -7.255080E+01 -2.084893E+02 -2.237060E-09 -6.193668E-11
        15  16 -1.393227E+05 -1.871621E+06 -1.337804E+05 -1.803972E+02  3.420637E-09  7.819949E-09
        15  17 -1.389978E+05 -1.870406E+06 -1.334938E+05  4.274992E+02  6.029622E-09  4.702006E-10
        15  18 -1.386472E+05 -1.868899E+06 -1.331774E+05  9.706372E+01  3.053384E-09 -4.583879E-09
        15  19  1.391930E+05 -7.481526E+05  1.336881E+05 -2.366432E+02 -1.921187E+04  5.030192E+00
        15  20  1.388403E+05 -7.496656E+05  1.333175E+05  9.366249E+01 -1.917616E+04 -5.671464E+00
        15  21  1.385221E+05 -7.508771E+05  1.330111E+05 -5.142686E+02 -1.909560E+04 -1.629069E+01
        15  22 -5.325421E+01 -1.310032E+06 -3.470392E+01 -2.085106E+02 -1.921304E+04 -2.301934E+00
        15  23 -6.720361E+01 -1.310180E+06 -7.680369E+01  2.606430E+02 -1.917730E+04 -3.771518E+01
        15  24 -5.104886E+01 -1.310032E+06 -7.186590E+01 -2.084882E+02 -1.909671E+04 -7.304638E+01
        15  25 -1.393223E+05 -1.871621E+06 -1.337797E+05 -1.803970E+02 -1.921420E+04 -9.627448E+00
        15  26 -1.389974E+05 -1.870406E+06 -1.334931E+05  4.275003E+02 -1.917845E+04 -6.973007E+01
        15  27 -1.386468E+05 -1.868899E+06 -1.331767E+05  9.706571E+01 -1.909782E+04 -1.297511E+02
        16   1  1.376936E+05 -7.542137E+05  1.321789E+05 -9.760292E+02  1.902793E+04  1.501920E+01
        16   2  1.366723E+05 -7.584249E+05  1.311128E+05  2.831593E+02  1.887623E+04  8.492974E+01
        16   3  1.356830E+05 -7.623595E+05  1.300681E+05 -1.237284E+03  1.868026E+04  1.545976E+02
        16   4 -5.082184E+01 -1.310036E+06 -9.469068E+01 -6.177155E+02  1.902900E+04  8.640313E+01
        16   5 -6.367414E+01 -1.310172E+06 -1.957488E+02  7.721876E+02  1.887724E+04  1.806597E+02
        16   6 -4.888779E+01 -1.310035E+06 -2.922366E+02 -6.176946E+02  1.868119E+04  2.746740E+02
        16   7 -1.378176E+05 -1.865575E+06 -1.323899E+05 -2.596620E+02  1.903008E+04  1.577234E+02
        16   8 -1.368217E+05 -1.861639E+06 -1.315256E+05  1.260861E+03  1.887825E+04  2.763049E+02
        16   9 -1.358025E+05 -1.857435E+06 -1.306736E+05  1.446780E+00  1.868211E+04  3.946449E+02
        16  10  1.376932E+05 -7.542138E+05  1.321782E+05 -9.760294E+02 -7.767587E-10 -4.772251E-09
        16  11  1.366720E+05 -7.584250E+05  1.311121E+05  2.831580E+02  2.221319E-09 -5.363327E-09
        16  12  1.356827E+05 -7.623596E+05  1.300675E+05 -1.237286E+03  4.805284E-09 -2.910613E-09
        16  13 -5.121044E+01 -1.310036E+06 -9.537074E+01 -6.177169E+02 -1.544350E-09  3.774221E-11
        16  14 -6.405657E+01 -1.310172E+06 -1.964181E+02  7.721849E+02  8.327853E-09 -5.936812E-10
        16  15 -4.926233E+01 -1.310035E+06 -2.928922E+02 -6.176988E+02 -1.629447E-09 -2.125227E-11
        16  16 -1.378180E+05 -1.865575E+06 -1.323906E+05 -2.596644E+02  5.907875E-09  4.155258E-09
        16  17 -1.368221E+05 -1.861639E+06 -1.315263E+05  1.260857E+03 -1.735286E-09  3.504669E-09
        16  18 -1.358029E+05 -1.857435E+06 -1.306743E+05  1.440837E+00  1.537676E-10  1.700726E-09
        16  19  1.376936E+05 -7.542137E+05  1.321789E+05 -9.760292E+02 -1.902793E+04 -1.501920E+01
        16  20  1.366723E+05 -7.584249E+05  1.311128E+05  2.831593E+02 -1.887623E+04 -8.492974E+01
        16  21  1.356830E+05 -7.623595E+05  1.300681E+05 -1.237284E+03 -1.868026E+04 -1.545976E+02
        16  22 -5.082184E+01 -1.310036E+06 -9.469068E+01 -6.177155E+02 -1.902900E+04 -8.640313E+01
        16  23 -6.367414E+01 -1.310172E+06 -1.957488E+02  7.721876E+02 -1.887724E+04 -1.806597E+02
        16  24 -4.888779E+01 -1.310035E+06 -2.922366E+02 -6.176946E+02 -1.868119E+04 -2.746740E+02
        16  25 -1.378176E+05 -1.865575E+06 -1.323899E+05 -2.596620E+02 -1.903008E+04 -1.577234E+02
        16  26 -1.368217E+05 -1.861639E+06 -1.315256E+05  1.260861E+03 -1.887825E+04 -2.763049E+02
        16  27 -1.358025E+05 -1.857435E+06 -1.306736E+05  1.446780E+00 -1.868211E+04 -3.946449E+02
        17   1  1.340482E+05 -7.689804E+05  1.283686E+05 -1.670581E+03  1.854624E+04  2.006166E+02
        17   2  1.323782E+05 -7.757973E+05  1.264647E+05  4.953626E+02  1.828036E+04  5.227606E+02
        17   3  1.306716E+05 -7.824195E+05  1.243940E+05 -1.916633E+03  1.796885E+04  8.445033E+02
        17   4 -4.099976E+01 -1.310052E+06 -3.874394E+02 -1.017302E+03  1.854710E+04  3.341984E+02
        17   5 -4.871058E+01 -1.310146E+06 -7.048560E+02  1.271740E+03  1.828110E+04  6.812478E+02
        17   6 -9.738939E+01 -1.310050E+06 -1.206491E+03 -1.017408E+03  1.796946E+04  1.027899E+03
        17   7 -1.341514E+05 -1.850854E+06 -1.291640E+05 -3.644847E+02  1.854796E+04  4.676641E+02
        17   8 -1.324962E+05 -1.844232E+06 -1.278944E+05  2.047572E+03  1.828184E+04  8.395990E+02
        17   9 -1.308865E+05 -1.837425E+06 -1.268265E+05 -1.188077E+02  1.797007E+04  1.211139E+03
        17  10  1.340479E+05 -7.689804E+05  1.283680E+05 -1.670584E+03  6.819290E-10  8.779897E-12
        17  11  1.323778E+05 -7.757974E+05  1.264640E+05  4.953549E+02 -3.404989E-09 -1.622177E-09
        17  12  1.306713E+05 -7.824196E+05  1.243934E+05 -1.916645E+03  1.451451E-09 -4.041881E-09
        17  13 -4.136896E+01 -1.310052E+06 -3.880856E+02 -1.017307E+03 -4.347294E-10  1.557785E-11
        17  14 -4.906935E+01 -1.310146E+06 -7.054845E+02  1.271730E+03  3.227271E-11 -9.313889E-10
        17  15 -9.773620E+01 -1.310050E+06 -1.207099E+03 -1.017423E+03  1.731670E-09 -1.181497E-10
        17  16 -1.341517E+05 -1.850854E+06 -1.291647E+05 -3.644917E+02  2.732551E-09 -1.196465E-09
        17  17 -1.324966E+05 -1.844232E+06 -1.278950E+05  2.047559E+03  1.586473E-09 -1.522241E-09
        17  18 -1.308869E+05 -1.837425E+06 -1.268271E+05 -1.188252E+02 -1.286107E-09  2.047339E-09
        17  19  1.340482E+05 -7.689804E+05  1.283686E+05 -1.670581E+03 -1.854624E+04 -2.006166E+02
        17  20  1.323782E+05 -7.757973E+05  1.264647E+05  4.953626E+02 -1.828036E+04 -5.227606E+02
        17  21  1.306716E+05 -7.824195E+05  1.243940E+05 -1.916633E+03 -1.796885E+04 -8.445033E+02
        17  22 -4.099976E+01 -1.310052E+06 -3.874394E+02 -1.017302E+03 -1.854710E+04 -3.341984E+02
        17  23 -4.871058E+01 -1.310146E+06 -7.048560E+02  1.271740E+03 -1.828110E+04 -6.812478E+02
        17  24 -9.738939E+01 -1.310050E+06 -1.206491E+03 -1.017408E+03 -1.796946E+04 -1.027899E+03
        17  25 -1.341514E+05 -1.850854E+06 -1.291640E+05 -3.644847E+02 -1.854796E+04 -4.676641E+02
        17  26 -1.324962E+05 -1.844232E+06 -1.278944E+05  2.047572E+03 -1.828184E+04 -8.395990E+02
        17  27 -1.308865E+05 -1.837425E+06 -1.268265E+05 -1.188077E+02 -1.797007E+04 -1.211139E+03
        18   1  9.352074E+04  9.972822E+05  5.253726E+04 -4.450814E+00  3.282880E+04  2.075343E-01
        18   2  9.352621E+04  9.973071E+05  5.254610E+04 -2.576914E+01  3.283010E+04 -6.291108E+00
        18   3  9.353300E+04  9.973424E+05  5.256246E+04 -4.375223E+01  3.283273E+04 -1.278937E+01
        18   4 -3.492413E+01  5.816385E+05  1.725109E+01  7.414996E-01  3.283112E+04 -1.344777E+00
        18   5 -3.664115E+01  5.816330E+05  2.054316E+01 -9.257746E-01  3.283242E+04 -1.101695E+01
        18   6 -3.648705E+01  5.816385E+05  3.355830E+01  7.429992E-01  3.283506E+04 -2.068879E+01
        18   7 -9.359762E+04  1.661721E+05 -5.250330E+04  5.930824E+00  3.283344E+04 -2.896102E+00
        18   8 -9.360652E+04  1.661362E+05 -5.250556E+04  2.390307E+01  3.283475E+04 -1.573979E+01
        18   9 -9.361301E+04  1.661119E+05 -5.249589E+04  4.521216E+01  3.283738E+04 -2.858319E+01
        18  10  9.351958E+04  9.972819E+05  5.253523E+04 -4.450819E+00 -3.165951E-09  8.240841E-10
        18  11  9.352505E+04  9.973068E+05  5.254407E+04 -2.576898E+01  4.304971E-10  9.727962E-10
        18  12  9.353184E+04  9.973421E+05  5.256043E+04 -4.375190E+01 -1.908052E-09  1.731517E-09
        18  13 -3.608191E+01  5.816383E+05  1.522499E+01  7.415351E-01 -3.234439E-09 -2.605714E-11
        18  14 -3.779902E+01  5.816327E+05  1.851689E+01 -9.254834E-01  5.015152E-09 -1.437130E-10
        18  15 -3.764510E+01  5.816382E+05  3.153170E+01  7.435462E-01 -1.667926E-10  1.862262E-10
        18  16 -9.359877E+04  1.661718E+05 -5.250533E+04  5.930901E+00  5.104830E-11 -8.388503E-10
        18  17 -9.360768E+04  1.661359E+05 -5.250759E+04  2.390348E+01  2.974399E-09 -1.031610E-09
        18  18 -9.361416E+04  1.661116E+05 -5.249792E+04  4.521292E+01 -8.610860E-10 -1.698969E-09
        18  19  9.352074E+04  9.972822E+05  5.253726E+04 -4.450814E+00 -3.282880E+04 -2.075343E-01
        18  20  9.352621E+04  9.973071E+05  5.254610E+04 -2.576914E+01 -3.283010E+04  6.291108E+00
        18  21  9.353300E+04  9.973424E+05  5.256246E+04 -4.375223E+01 -3.283273E+04  1.278937E+01
        18  22 -3.492413E+01  5.816385E+05  1.725109E+01  7.414995E-01 -3.283112E+04  1.344777E+00
        18  23 -3.664115E+01  5.816330E+05  2.054316E+01 -9.257746E-01 -3.283242E+04  1.101695E+01
        18  24 -3.648705E+01  5.816385E+05  3.355830E+01  7.429992E-01 -3.283506E+04  2.068879E+01
        18  25 -9.359762E+04  1.661721E+05 -5.250330E+04  5.930824E+00 -3.283344E+04  2.896102E+00
        18  26 -9.360652E+04  1.661362E+05 -5.250556E+04  2.390307E+01 -3.283475E+04  1.573979E+01
        18  27 -9.361301E+04  1.661119E+05 -5.249589E+04  4.521216E+01 -3.283738E+04  2.858319E+01
        19   1  9.354074E+04  9.973803E+05  5.257771E+04 -5.244206E+01  3.283510E+04 -1.640971E+01
        19   2  9.355787E+04  9.974628E+05  5.262344E+04 -8.266007E+01  3.283912E+04 -5.434117E+01
        19   3  9.357799E+04  9.975603E+05  5.269755E+04 -9.859418E+01  3.284213E+04 -9.227173E+01
        19   4 -3.726745E+01  5.816393E+05  4.324959E+01  3.176186E+00  3.283743E+04 -2.723041E+01
        19   5 -4.133519E+01  5.816320E+05  7.281000E+01 -3.965711E+00  3.284144E+04 -6.273444E+01
        19   6 -4.282652E+01  5.816393E+05  1.290792E+02  3.176831E+00  3.284446E+04 -9.823754E+01
        19   7 -9.362231E+04  1.660756E+05 -5.249176E+04  5.876186E+01  3.283975E+04 -3.804424E+01
        19   8 -9.364757E+04  1.659786E+05 -5.247837E+04  7.468213E+01  3.284377E+04 -7.112235E+01
        19   9 -9.367068E+04  1.658956E+05 -5.243995E+04  1.048874E+02  3.284678E+04 -1.041995E+02
        19  10  9.353959E+04  9.973800E+05  5.257568E+04 -5.244163E+01 -1.432746E-09 -1.124938E-09
        19  11  9.355671E+04  9.974625E+05  5.262141E+04 -8.265863E+01  6.017246E-10  9.944166E-10
        19  12  9.357683E+04  9.975600E+05  5.269553E+04 -9.859174E+01  1.891007E-09  4.278666E-09
        19  13 -3.842567E+01  5.816390E+05  4.122270E+01  3.176906E+00  1.022726E-10  2.128808E-10
        19  14 -4.249369E+01  5.816317E+05  7.078261E+01 -3.964052E+00  6.530547E-09 -5.085936E-10
        19  15 -4.398523E+01  5.816390E+05  1.270514E+02  3.179429E+00  5.247116E-10  3.555190E-10
        19  16 -9.362347E+04  1.660753E+05 -5.249378E+04  5.876287E+01  1.607629E-10  8.588873E-10
        19  17 -9.364873E+04  1.659783E+05 -5.248040E+04  7.468401E+01 -1.958591E-09 -1.252508E-09
        19  18 -9.367184E+04  1.658953E+05 -5.244198E+04  1.048901E+02  1.259913E-09 -4.145998E-09
        19  19  9.354074E+04  9.973803E+05  5.257771E+04 -5.244206E+01 -3.283510E+04  1.640971E+01
        19  20  9.355787E+04  9.974628E+05  5.262344E+04 -8.266007E+01 -3.283912E+04  5.434117E+01
        19  21  9.357799E+04  9.975603E+05  5.269755E+04 -9.859418E+01 -3.284213E+04  9.227173E+01
        19  22 -3.726745E+01  5.816393E+05  4.324959E+01  3.176186E+00 -3.283743E+04  2.723041E+01
        19  23 -4.133519E+01  5.816320E+05  7.281000E+01 -3.965711E+00 -3.284144E+04  6.273444E+01
        19  24 -4.282652E+01  5.816393E+05  1.290792E+02  3.176831E+00 -3.284446E+04  9.823754E+01
        19  25 -9.362231E+04  1.660756E+05 -5.249176E+04  5.876186E+01 -3.283975E+04  3.804424E+01
        19  26 -9.364757E+04  1.659786E+05 -5.247837E+04  7.468213E+01 -3.284377E+04  7.112235E+01
        19  27 -9.367068E+04  1.658956E+05 -5.243995E+04  1.048874E+02 -3.284678E+04  1.041995E+02
        20   1  9.359403E+04  9.976399E+05  5.275403E+04 -1.116090E+02  3.284452E+04 -1.173735E+02
        20   2  9.362707E+04  9.977698E+05  5.292602E+04 -1.516774E+02  3.283846E+04 -3.081345E+02
        20   3  9.368407E+04  9.979399E+05  5.323102E+04 -1.678201E+02  3.281389E+04 -4.988997E+02
        20   4 -4.492940E+01  5.816432E+05  1.703990E+02  5.318143E+00  3.284685E+04 -1.248539E+02
        20   5 -5.034503E+01  5.816270E+05  2.963003E+02 -6.643358E+00  3.284077E+04 -2.710350E+02
        20   6 -3.952027E+01  5.816431E+05  5.243344E+02  5.320881E+00  3.281618E+04 -4.172209E+02
        20   7 -9.369093E+04  1.658240E+05 -5.241379E+04  1.221755E+02  3.284917E+04 -1.323295E+02
        20   8 -9.373481E+04  1.656617E+05 -5.233399E+04  1.383033E+02  3.284308E+04 -2.339591E+02
        20   9 -9.377018E+04  1.655241E+05 -5.218293E+04  1.783570E+02  3.281847E+04 -3.355941E+02
        20  10  9.359287E+04  9.976396E+05  5.275200E+04 -1.116059E+02  3.494180E-09  3.100505E-10
        20  11  9.362591E+04  9.977695E+05  5.292400E+04 -1.516692E+02  2.621149E-09  3.279096E-10
        20  12  9.368292E+04  9.979396E+05  5.322900E+04 -1.678069E+02  2.150049E-09  1.779192E-09
        20  13 -4.608828E+01  5.816429E+05  1.683710E+02  5.321445E+00  7.530108E-10  3.212253E-10
        20  14 -5.150350E+01  5.816267E+05  2.942729E+02 -6.636191E+00  2.628379E-09 -7.677133E-10
        20  15 -4.067703E+01  5.816428E+05  5.223098E+02  5.331906E+00 -6.724427E-10  5.090518E-10
        20  16 -9.369209E+04  1.658238E+05 -5.241582E+04  1.221790E+02  2.660650E-10 -7.874654E-10
        20  17 -9.373597E+04  1.656614E+05 -5.233601E+04  1.383095E+02 -1.278825E-09 -5.865079E-10
        20  18 -9.377133E+04  1.655238E+05 -5.218496E+04  1.783659E+02 -2.023596E-09 -1.550727E-09
        20  19  9.359403E+04  9.976399E+05  5.275403E+04 -1.116090E+02 -3.284452E+04  1.173735E+02
        20  20  9.362707E+04  9.977698E+05  5.292602E+04 -1.516774E+02 -3.283846E+04  3.081345E+02
        20  21  9.368407E+04  9.979399E+05  5.323102E+04 -1.678201E+02 -3.281389E+04  4.988997E+02
        20  22 -4.492940E+01  5.816432E+05  1.703990E+02  5.318143E+00 -3.284685E+04  1.248539E+02
        20  23 -5.034503E+01  5.816270E+05  2.963003E+02 -6.643358E+00 -3.284077E+04  2.710350E+02
        20  24 -3.952027E+01  5.816431E+05  5.243344E+02  5.320881E+00 -3.281618E+04  4.172209E+02
        20  25 -9.369093E+04  1.658240E+05 -5.241379E+04  1.221755E+02 -3.284917E+04  1.323295E+02
        20  26 -9.373481E+04  1.656617E+05 -5.233399E+04  1.383033E+02 -3.284308E+04  2.339591E+02
        20  27 -9.377018E+04  1.655241E+05 -5.218293E+04  1.783570E+02 -3.281847E+04  3.355941E+02
        21   1 -7.791858E+06 -2.487762E+06 -1.548620E+06 -2.785878E+06 -8.009271E+05 -2.890381E+05
        21   2 -7.629570E+06 -1.326831E+06 -8.170100E+05 -2.924472E+06 -5.181952E+05 -1.490099E+05
        21   3 -7.912643E+06 -1.274905E+06 -6.076197E+05 -2.786900E+06 -2.245727E+05 -3.754825E+04
        21   4 -6.828641E+06 -1.833387E+06 -1.227553E+06 -2.232007E+06 -7.799102E+05 -2.815000E+05
        21   5 -6.540857E+06 -8.298276E+05 -5.128632E+05 -2.540816E+06 -5.114866E+05 -1.465528E+05
        21   6 -6.694893E+06 -9.313990E+05 -3.083256E+05 -2.573703E+06 -2.321220E+05 -4.036553E+04
        21   7 -5.864305E+06 -1.178145E+06 -9.065600E+05 -1.677146E+06 -7.588567E+05 -2.739229E+05
        21   8 -5.450956E+06 -3.325851E+05 -2.088270E+05 -2.156487E+06 -5.047644E+05 -1.440881E+05
        21   9 -5.475666E+06 -5.879254E+05 -9.132437E+03 -2.360193E+06 -2.396875E+05 -4.318535E+04
        21  10 -7.792578E+06 -2.488028E+06 -1.550002E+06 -2.786066E+06 -4.305972E-09  6.588288E-10
        21  11 -7.629867E+06 -1.326928E+06 -8.175642E+05 -2.924535E+06 -4.903357E-09  2.301851E-09
        21  12 -7.912698E+06 -1.274920E+06 -6.077185E+05 -2.786907E+06  6.312255E-10  4.401139E-10
        21  13 -6.829322E+06 -1.833638E+06 -1.228861E+06 -2.232185E+06 -1.082137E-09  4.127753E-10
        21  14 -6.541146E+06 -8.299222E+05 -5.134017E+05 -2.540877E+06 -4.415291E-09  1.270542E-09
        21  15 -6.694951E+06 -9.314155E+05 -3.084311E+05 -2.573710E+06  6.261760E-11  8.209811E-10
        21  16 -5.864949E+06 -1.178383E+06 -9.077958E+05 -1.677314E+06  7.994752E-10  2.933554E-10
        21  17 -5.451237E+06 -3.326769E+05 -2.093501E+05 -2.156546E+06  9.548452E-09  6.820107E-10
        21  18 -5.475729E+06 -5.879430E+05 -9.245015E+03 -2.360202E+06  6.548587E-09  2.368254E-09
        21  19 -7.791858E+06 -2.487762E+06 -1.548620E+06 -2.785878E+06  8.009271E+05  2.890381E+05
        21  20 -7.629570E+06 -1.326831E+06 -8.170100E+05 -2.924472E+06  5.181952E+05  1.490099E+05
        21  21 -7.912643E+06 -1.274905E+06 -6.076197E+05 -2.786900E+06  2.245727E+05  3.754825E+04
        21  22 -6.828641E+06 -1.833387E+06 -1.227553E+06 -2.232007E+06  7.799102E+05  2.815000E+05
        21  23 -6.540857E+06 -8.298276E+05 -5.128632E+05 -2.540816E+06  5.114866E+05  1.465528E+05
        21  24 -6.694893E+06 -9.313990E+05 -3.083256E+05 -2.573703E+06  2.321220E+05  4.036553E+04
        21  25 -5.864305E+06 -1.178145E+06 -9.065600E+05 -1.677146E+06  7.588567E+05  2.739229E+05
        21  26 -5.450956E+06 -3.325851E+05 -2.088270E+05 -2.156487E+06  5.047644E+05  1.440881E+05
        21  27 -5.475666E+06 -5.879254E+05 -9.132437E+03 -2.360193E+06  2.396875E+05  4.318535E+04
        22   1 -7.714417E+06 -1.490569E+06 -5.375369E+05 -2.824620E+06 -1.878177E+05 -2.907017E+04
        22   2 -7.657408E+06 -1.336731E+06 -3.929291E+05 -2.808614E+06 -1.241183E+05 -4.959236E+03
        22   3 -7.622095E+06 -1.326594E+06 -3.272853E+05 -2.796816E+06 -5.939876E+04  1.646762E+04
        22   4 -6.651616E+06 -1.060373E+06 -2.502440E+05 -2.506112E+06 -1.873508E+05 -2.890844E+04
        22   5 -6.633996E+06 -9.419770E+05 -1.207149E+05 -2.521563E+06 -1.249209E+05 -5.269193E+03
        22   6 -6.637734E+06 -9.669017E+05 -6.902799E+04 -2.541239E+06 -6.147580E+04  1.568125E+04
        22   7 -5.587706E+06 -6.300638E+05  3.694614E+04 -2.187088E+06 -1.868828E+05 -2.874620E+04
        22   8 -5.609555E+06 -5.471465E+05  1.514075E+05 -2.234075E+06 -1.257247E+05 -5.579664E+03
        22   9 -5.652422E+06 -6.071651E+05  1.891476E+05 -2.285296E+06 -6.355646E+04  1.489364E+04
        22  10 -7.714455E+06 -1.490580E+06 -5.376057E+05 -2.824624E+06 -5.754542E-09 -2.273228E-09
        22  11 -7.657425E+06 -1.336735E+06 -3.929584E+05 -2.808614E+06 -3.229285E-09 -2.341489E-09
        22  12 -7.622099E+06 -1.326595E+06 -3.272925E+05 -2.796816E+06 -3.495861E-10  1.605760E-09
        22  13 -6.651654E+06 -1.060384E+06 -2.503124E+05 -2.506116E+06  7.631867E-10 -2.927399E-10
        22  14 -6.634013E+06 -9.419813E+05 -1.207446E+05 -2.521564E+06  6.496949E-10 -1.399440E-09
        22  15 -6.637738E+06 -9.669029E+05 -6.903561E+04 -2.541238E+06 -6.822881E-09 -1.197847E-09
        22  16 -5.587744E+06 -6.300742E+05  3.687830E+04 -2.187093E+06  1.095652E-08  2.601711E-09
        22  17 -5.609572E+06 -5.471508E+05  1.513775E+05 -2.234075E+06 -5.492711E-09 -1.925629E-09
        22  18 -5.652426E+06 -6.071664E+05  1.891395E+05 -2.285296E+06 -8.961824E-09 -3.693303E-09
        22  19 -7.714417E+06 -1.490569E+06 -5.375369E+05 -2.824620E+06  1.878177E+05  2.907017E+04
        22  20 -7.657408E+06 -1.336731E+06 -3.929291E+05 -2.808614E+06  1.241183E+05  4.959236E+03
        22  21 -7.622095E+06 -1.326594E+06 -3.272853E+05 -2.796816E+06  5.939876E+04 -1.646762E+04
        22  22 -6.651616E+06 -1.060373E+06 -2.502440E+05 -2.506112E+06  1.873508E+05  2.890844E+04
        22  23 -6.633996E+06 -9.419770E+05 -1.207149E+05 -2.521563E+06  1.249209E+05  5.269193E+03
        22  24 -6.637734E+06 -9.669017E+05 -6.902799E+04 -2.541239E+06  6.147580E+04 -1.568125E+04
        22  25 -5.587706E+06 -6.300638E+05  3.694614E+04 -2.187088E+06  1.868828E+05  2.874620E+04
        22  26 -5.609555E+06 -5.471465E+05  1.514075E+05 -2.234075E+06  1.257247E+05  5.579664E+03
        22  27 -5.652422E+06 -6.071651E+05  1.891476E+05 -2.285296E+06  6.355646E+04 -1.489364E+04
        23   1 -7.511250E+06 -1.318605E+06 -2.872337E+05 -2.780270E+06 -4.925725E+04  1.786225E+04
        23   2 -7.448314E+06 -1.252802E+06 -2.396884E+05 -2.733833E+06 -3.353498E+04  1.992257E+04
        23   3 -7.346763E+06 -1.243147E+06 -2.060478E+05 -2.735095E+06 -1.758282E+04  2.135736E+04
        23   4 -6.629475E+06 -9.830066E+05 -5.372599E+04 -2.537502E+06 -5.086632E+04  1.725226E+04
        23   5 -6.648069E+06 -9.501128E+05 -2.799893E+04 -2.515456E+06 -3.544366E+04  1.920174E+04
        23   6 -6.627987E+06 -9.732907E+05 -1.592038E+04 -2.541108E+06 -1.979337E+04  2.052522E+04
        23   7 -5.746937E+06 -6.473568E+05  1.797141E+05 -2.294416E+06 -5.247789E+04  1.664132E+04
        23   8 -5.847197E+06 -6.473837E+05  1.836346E+05 -2.296821E+06 -3.735505E+04  1.847990E+04
        23   9 -5.908707E+06 -7.034047E+05  1.741617E+05 -2.346917E+06 -2.200674E+04  1.969202E+04
        23  10 -7.511253E+06 -1.318606E+06 -2.872389E+05 -2.780269E+06  4.066237E-10  3.090021E-10
        23  11 -7.448316E+06 -1.252803E+06 -2.396912E+05 -2.733832E+06  5.865568E-09  1.516491E-09
        23  12 -7.346763E+06 -1.243148E+06 -2.060493E+05 -2.735095E+06  5.121034E-09  1.909480E-09
        23  13 -6.629478E+06 -9.830076E+05 -5.373144E+04 -2.537501E+06 -2.711012E-09 -9.288431E-10
        23  14 -6.648071E+06 -9.501135E+05 -2.800199E+04 -2.515455E+06  2.387967E-09  8.644924E-10
        23  15 -6.627987E+06 -9.732913E+05 -1.592191E+04 -2.541108E+06 -1.145004E-09  5.097805E-09
        23  16 -5.746940E+06 -6.473578E+05  1.797084E+05 -2.294415E+06 -2.289938E-09 -2.538173E-09
        23  17 -5.847199E+06 -6.473844E+05  1.836313E+05 -2.296821E+06 -1.132082E-08 -4.167794E-09
        23  18 -5.908708E+06 -7.034053E+05  1.741601E+05 -2.346917E+06 -2.534693E-09 -1.546730E-09
        23  19 -7.511250E+06 -1.318605E+06 -2.872337E+05 -2.780270E+06  4.925725E+04 -1.786225E+04
        23  20 -7.448314E+06 -1.252802E+06 -2.396884E+05 -2.733833E+06  3.353498E+04 -1.992257E+04
        23  21 -7.346763E+06 -1.243147E+06 -2.060478E+05 -2.735095E+06  1.758282E+04 -2.135736E+04
        23  22 -6.629475E+06 -9.830066E+05 -5.372599E+04 -2.537502E+06  5.086632E+04 -1.725226E+04
        23  23 -6.648069E+06 -9.501128E+05 -2.799893E+04 -2.515456E+06  3.544366E+04 -1.920174E+04
        23  24 -6.627987E+06 -9.732907E+05 -1.592038E+04 -2.541108E+06  1.979337E+04 -2.052522E+04
        23  25 -5.746937E+06 -6.473568E+05  1.797141E+05 -2.294416E+06  5.247789E+04 -1.664132E+04
        23  26 -5.847197E+06 -6.473837E+05  1.836346E+05 -2.296821E+06  3.735505E+04 -1.847990E+04
        23  27 -5.908707E+06 -7.034047E+05  1.741617E+05 -2.346917E+06  2.200674E+04 -1.969202E+04
        24   1 -7.217477E+06 -1.200505E+06 -1.687032E+05 -2.704280E+06 -1.427350E+04  1.969201E+04
        24   2 -7.141108E+06 -1.132623E+06 -1.366927E+05 -2.644693E+06 -8.682238E+03  1.659342E+04
        24   3 -7.010451E+06 -1.121104E+06 -1.078915E+05 -2.647899E+06 -2.984502E+03  1.319700E+04
        24   4 -6.624986E+06 -9.769749E+05 -1.241887E+04 -2.543081E+06 -1.653352E+04  1.884256E+04
        24   5 -6.652046E+06 -9.482905E+05 -7.467943E+03 -2.511872E+06 -1.109094E+04  1.568963E+04
        24   6 -6.624804E+06 -9.759356E+05 -5.605138E+03 -2.543455E+06 -5.542694E+03  1.223875E+04
        24   7 -6.032147E+06 -7.534216E+05  1.438360E+05 -2.381741E+06 -1.879593E+04  1.799221E+04
        24   8 -6.162750E+06 -7.639434E+05  1.217359E+05 -2.378954E+06 -1.350174E+04  1.478504E+04
        24   9 -6.239014E+06 -8.307597E+05  9.666741E+04 -2.438952E+06 -8.102628E+03  1.127984E+04
        24  10 -7.217478E+06 -1.200506E+06 -1.687043E+05 -2.704279E+06 -2.672851E-09 -1.586715E-09
        24  11 -7.141108E+06 -1.132624E+06 -1.366933E+05 -2.644693E+06 -2.876455E-09 -4.928869E-09
        24  12 -7.010451E+06 -1.121104E+06 -1.078919E+05 -2.647899E+06 -3.465653E-09 -1.191832E-09
        24  13 -6.624986E+06 -9.769753E+05 -1.242005E+04 -2.543081E+06  1.054932E-09  4.857663E-09
        24  14 -6.652046E+06 -9.482908E+05 -7.468635E+03 -2.511871E+06 -2.959369E-09 -3.871966E-10
        24  15 -6.624804E+06 -9.759358E+05 -5.605476E+03 -2.543455E+06 -5.379465E-09  2.189550E-10
        24  16 -6.032148E+06 -7.534220E+05  1.438347E+05 -2.381741E+06  1.153637E-09  2.337154E-09
        24  17 -6.162751E+06 -7.639437E+05  1.217351E+05 -2.378954E+06  5.271462E-09  1.065629E-09
        24  18 -6.239015E+06 -8.307598E+05  9.666705E+04 -2.438952E+06  3.256081E-09 -2.206060E-10
        24  19 -7.217477E+06 -1.200505E+06 -1.687032E+05 -2.704280E+06  1.427350E+04 -1.969201E+04
        24  20 -7.141108E+06 -1.132623E+06 -1.366927E+05 -2.644693E+06  8.682238E+03 -1.659342E+04
        24  21 -7.010451E+06 -1.121104E+06 -1.078915E+05 -2.647899E+06  2.984502E+03 -1.319700E+04
        24  22 -6.624986E+06 -9.769749E+05 -1.241887E+04 -2.543081E+06  1.653352E+04 -1.884256E+04
        24  23 -6.652046E+06 -9.482905E+05 -7.467943E+03 -2.511872E+06  1.109094E+04 -1.568963E+04
        24  24 -6.624804E+06 -9.759356E+05 -5.605138E+03 -2.543455E+06  5.542694E+03 -1.223875E+04
        24  25 -6.032147E+06 -7.534216E+05  1.438360E+05 -2.381741E+06  1.879593E+04 -1.799221E+04
        24  26 -6.162750E+06 -7.639434E+05  1.217359E+05 -2.378954E+06  1.350174E+04 -1.478504E+04
        24  27 -6.239014E+06 -8.307597E+05  9.666741E+04 -2.438952E+06  8.102628E+03 -1.127984E+04
        25   1 -6.863399E+06 -1.067466E+06 -6.840167E+04 -2.609970E+06 -9.291613E+02  1.060898E+04
        25   2 -6.779678E+06 -9.943633E+05 -3.992668E+04 -2.544477E+06  4.302270E+03  6.732213E+03
        25   3 -6.636668E+06 -9.826052E+05 -1.425301E+04 -2.547918E+06  9.555972E+03  2.793481E+03
        25   4 -6.623685E+06 -9.771372E+05 -5.472800E+03 -2.544777E+06 -3.533461E+03  9.634187E+03
        25   5 -6.653372E+06 -9.467827E+05 -6.564200E+03 -2.510190E+06  1.666801E+03  5.746119E+03
        25   6 -6.623776E+06 -9.777663E+05 -1.043071E+04 -2.544543E+06  6.888658E+03  1.795892E+03
        25   7 -6.383913E+06 -8.868048E+05  5.745144E+04 -2.479560E+06 -6.138885E+03  8.658968E+03
        25   8 -6.527049E+06 -8.992008E+05  2.679717E+04 -2.475896E+06 -9.692808E+02  4.759795E+03
        25   9 -6.610883E+06 -9.729273E+05 -6.608355E+03 -2.541167E+06  4.221257E+03  7.982703E+02
        25  10 -6.863399E+06 -1.067466E+06 -6.840189E+04 -2.609970E+06 -7.078992E-10  1.211674E-09
        25  11 -6.779678E+06 -9.943634E+05 -3.992680E+04 -2.544477E+06 -2.658399E-09  1.098178E-09
        25  12 -6.636668E+06 -9.826052E+05 -1.425320E+04 -2.547918E+06  5.896733E-10  8.713032E-10
        25  13 -6.623685E+06 -9.771373E+05 -5.472997E+03 -2.544777E+06  6.420001E-09  6.982243E-10
        25  14 -6.653372E+06 -9.467827E+05 -6.564268E+03 -2.510190E+06 -8.076056E-09  8.102555E-10
        25  15 -6.623776E+06 -9.777663E+05 -1.043080E+04 -2.544543E+06 -3.412160E-09  8.023275E-10
        25  16 -6.383913E+06 -8.868049E+05  5.745122E+04 -2.479560E+06  4.553332E-09 -1.086678E-09
        25  17 -6.527049E+06 -8.992008E+05  2.679712E+04 -2.475896E+06  3.452650E-09  1.140067E-09
        25  18 -6.610883E+06 -9.729274E+05 -6.608390E+03 -2.541167E+06 -2.032100E-09  5.377945E-10
        25  19 -6.863399E+06 -1.067466E+06 -6.840167E+04 -2.609970E+06  9.291613E+02 -1.060898E+04
        25  20 -6.779678E+06 -9.943633E+05 -3.992668E+04 -2.544477E+06 -4.302270E+03 -6.732213E+03
        25  21 -6.636668E+06 -9.826052E+05 -1.425301E+04 -2.547918E+06 -9.555972E+03 -2.793481E+03
        25  22 -6.623685E+06 -9.771372E+05 -5.472800E+03 -2.544777E+06  3.533461E+03 -9.634187E+03
        25  23 -6.653372E+06 -9.467827E+05 -6.564200E+03 -2.510190E+06 -1.666801E+03 -5.746119E+03
        25  24 -6.623776E+06 -9.777663E+05 -1.043071E+04 -2.544543E+06 -6.888658E+03 -1.795892E+03
        25  25 -6.383913E+06 -8.868048E+05  5.745144E+04 -2.479560E+06  6.138885E+03 -8.658968E+03
        25  26 -6.527049E+06 -8.992008E+05  2.679717E+04 -2.475896E+06  9.692808E+02 -4.759795E+03
        25  27 -6.610883E+06 -9.729273E+05 -6.608355E+03 -2.541167E+06 -4.221257E+03 -7.982703E+02
        26   1 -6.485805E+06 -9.254342E+05  2.358058E+04 -2.508580E+06  1.265954E+04  4.656891E+02
        26   2 -6.402931E+06 -8.518779E+05  4.284893E+04 -2.442693E+06  2.608328E+04 -3.546085E+02
        26   3 -6.266059E+06 -8.472944E+05  5.084801E+04 -2.442591E+06  3.941139E+04 -9.050078E+02
        26   4 -6.624549E+06 -9.765362E+05 -1.326590E+04 -2.544942E+06  9.963492E+03 -5.427668E+02
        26   5 -6.652121E+06 -9.459729E+05 -2.300050E+04 -2.510589E+06  2.351990E+04 -1.314286E+03
        26   6 -6.625734E+06 -9.844142E+05 -4.411391E+04 -2.542028E+06  3.697844E+04 -1.816709E+03
        26   7 -6.763274E+06 -1.027637E+06 -5.011368E+04 -2.581296E+06  7.268132E+03 -1.550977E+03
        26   8 -6.901249E+06 -1.040064E+06 -8.885493E+04 -2.578460E+06  2.095766E+04 -2.273530E+03
        26   9 -6.985282E+06 -1.121525E+06 -1.390869E+05 -2.641412E+06  3.454704E+04 -2.727809E+03
        26  10 -6.485805E+06 -9.254342E+05  2.358027E+04 -2.508580E+06  1.009587E-09  8.486367E-10
        26  11 -6.402932E+06 -8.518781E+05  4.284764E+04 -2.442693E+06 -1.314432E-09  7.648804E-10
        26  12 -6.266061E+06 -8.472948E+05  5.084506E+04 -2.442591E+06  4.900263E-09 -7.289425E-11
        26  13 -6.624549E+06 -9.765362E+05 -1.326609E+04 -2.544942E+06  8.133617E-11  4.667989E-10
        26  14 -6.652122E+06 -9.459731E+05 -2.300155E+04 -2.510589E+06  1.997415E-09  3.333737E-10
        26  15 -6.625736E+06 -9.844146E+05 -4.411651E+04 -2.542028E+06 -2.399584E-09 -6.374161E-10
        26  16 -6.763274E+06 -1.027637E+06 -5.011379E+04 -2.581296E+06  1.426855E-09  2.913778E-10
        26  17 -6.901249E+06 -1.040064E+06 -8.885577E+04 -2.578460E+06 -3.517742E-10 -4.372708E-10
        26  18 -6.985283E+06 -1.121525E+06 -1.390892E+05 -2.641412E+06 -3.853862E-09 -1.960220E-09
        26  19 -6.485805E+06 -9.254342E+05  2.358058E+04 -2.508580E+06 -1.265954E+04 -4.656891E+02
        26  20 -6.402931E+06 -8.518779E+05  4.284893E+04 -2.442693E+06 -2.608328E+04  3.546085E+02
        26  21 -6.266059E+06 -8.472944E+05  5.084801E+04 -2.442591E+06 -3.941139E+04  9.050078E+02
        26  22 -6.624549E+06 -9.765362E+05 -1.326590E+04 -2.544942E+06 -9.963492E+03  5.427668E+02
        26  23 -6.652121E+06 -9.459729E+05 -2.300050E+04 -2.510589E+06 -2.351990E+04  1.314286E+03
        26  24 -6.625734E+06 -9.844142E+05 -4.411391E+04 -2.542028E+06 -3.697844E+04  1.816709E+03
        26  25 -6.763274E+06 -1.027637E+06 -5.011368E+04 -2.581296E+06 -7.268132E+03  1.550977E+03
        26  26 -6.901249E+06 -1.040064E+06 -8.885493E+04 -2.578460E+06 -2.095766E+04  2.273530E+03
        26  27 -6.985282E+06 -1.121525E+06 -1.390869E+05 -2.641412E+06 -3.454704E+04  2.727809E+03
        27   1 -6.122117E+06 -7.910844E+05  7.617317E+04 -2.419051E+06  4.907434E+04 -7.908416E+02
        27   2 -6.046805E+06 -7.077220E+05  5.934089E+04 -2.346212E+06  1.009780E+05  1.350172E+04
        27   3 -5.960903E+06 -7.702685E+05 -2.060900E+04 -2.309919E+06  1.521057E+05  2.990157E+04
        27   4 -6.631307E+06 -9.724235E+05 -5.664965E+04 -2.546451E+06  4.619210E+04 -1.870742E+03
        27   5 -6.642098E+06 -9.377422E+05 -9.893080E+04 -2.513852E+06  9.912358E+04  1.280331E+04
        27   6 -6.642559E+06 -1.049246E+06 -2.052032E+05 -2.517804E+06  1.512710E+05  2.957946E+04
        27   7 -7.140246E+06 -1.153754E+06 -1.894946E+05 -2.673759E+06  4.331245E+04 -2.949793E+03
        27   8 -7.237046E+06 -1.167736E+06 -2.572338E+05 -2.681343E+06  9.727106E+04  1.210567E+04
        27   9 -7.323758E+06 -1.328172E+06 -3.898393E+05 -2.725471E+06  1.504372E+05  2.925776E+04
        27  10 -6.122119E+06 -7.910851E+05  7.616860E+04 -2.419051E+06  1.513217E-09  3.253236E-10
        27  11 -6.046816E+06 -7.077249E+05  5.932118E+04 -2.346213E+06 -1.388349E-09  9.704831E-10
        27  12 -5.960929E+06 -7.702758E+05 -2.065464E+04 -2.309923E+06  1.892380E-09  2.323569E-11
        27  13 -6.631309E+06 -9.724241E+05 -5.665371E+04 -2.546451E+06  1.146322E-10  4.556213E-11
        27  14 -6.642109E+06 -9.377451E+05 -9.894979E+04 -2.513853E+06  3.201155E-09  7.702531E-10
        27  15 -6.642584E+06 -1.049253E+06 -2.052484E+05 -2.517807E+06  1.064950E-09  7.601401E-10
        27  16 -7.140248E+06 -1.153755E+06 -1.894982E+05 -2.673759E+06 -1.656230E-09 -1.326964E-09
        27  17 -7.237056E+06 -1.167739E+06 -2.572521E+05 -2.681344E+06  6.547949E-09 -1.377074E-10
        27  18 -7.323782E+06 -1.328179E+06 -3.898840E+05 -2.725475E+06 -1.515845E-09  1.244291E-09
        27  19 -6.122117E+06 -7.910844E+05  7.617317E+04 -2.419051E+06 -4.907434E+04  7.908416E+02
        27  20 -6.046805E+06 -7.077220E+05  5.934089E+04 -2.346212E+06 -1.009780E+05 -1.350172E+04
        27  21 -5.960903E+06 -7.702685E+05 -2.060900E+04 -2.309919E+06 -1.521057E+05 -2.990157E+04
        27  22 -6.631307E+06 -9.724235E+05 -5.664965E+04 -2.546451E+06 -4.619210E+04  1.870742E+03
        27  23 -6.642098E+06 -9.377422E+05 -9.893080E+04 -2.513852E+06 -9.912358E+04 -1.280331E+04
        27  24 -6.642559E+06 -1.049246E+06 -2.052032E+05 -2.517804E+06 -1.512710E+05 -2.957946E+04
        27  25 -7.140246E+06 -1.153754E+06 -1.894946E+05 -2.673759E+06 -4.331245E+04  2.949793E+03
        27  26 -7.237046E+06 -1.167736E+06 -2.572338E+05 -2.681343E+06 -9.727106E+04 -1.210567E+04
        27  27 -7.323758E+06 -1.328172E+06 -3.898393E+05 -2.725471E+06 -1.504372E+05 -2.925776E+04
        28   1 -5.793973E+06 -7.071218E+05 -3.813791E+04 -2.432264E+06  1.963572E+05  4.007770E+04
        28   2 -5.729393E+06 -4.611885E+05 -1.865828E+05 -2.231024E+06  4.143950E+05  1.193156E+05
        28   3 -5.991840E+06 -1.150669E+06 -7.432105E+05 -1.841062E+06  6.232407E+05  2.230721E+05
        28   4 -6.677717E+06 -9.437629E+05 -2.528087E+05 -2.573485E+06  1.886446E+05  3.721249E+04
        28   5 -6.566698E+06 -8.450734E+05 -4.205267E+05 -2.528790E+06  4.188957E+05  1.209508E+05
        28   6 -6.785743E+06 -1.685143E+06 -1.006641E+06 -2.295222E+06  6.399616E+05  2.290834E+05
        28   7 -7.560680E+06 -1.180424E+06 -4.675295E+05 -2.714564E+06  1.809441E+05  3.434878E+04
        28   8 -7.403299E+06 -1.228811E+06 -6.545354E+05 -2.826154E+06  4.233892E+05  1.225819E+05
        28   9 -7.578888E+06 -2.219038E+06 -1.270120E+06 -2.748716E+06  6.566586E+05  2.350694E+05
        28  10 -5.794015E+06 -7.071340E+05 -3.821419E+04 -2.432270E+06 -3.013528E-10 -1.843882E-10
        28  11 -5.729583E+06 -4.612507E+05 -1.869360E+05 -2.231064E+06  3.453130E-09  1.176366E-09
        28  12 -5.992275E+06 -1.150829E+06 -7.440427E+05 -1.841175E+06  8.140599E-10  1.098135E-10
        28  13 -6.677756E+06 -9.437741E+05 -2.528790E+05 -2.573491E+06  3.792783E-09  6.457480E-10
        28  14 -6.566892E+06 -8.451371E+05 -4.208883E+05 -2.528832E+06 -2.405018E-09  1.160168E-09
        28  15 -6.786201E+06 -1.685312E+06 -1.007520E+06 -2.295341E+06 -9.761023E-10 -1.153288E-12
        28  16 -7.560716E+06 -1.180435E+06 -4.675941E+05 -2.714569E+06  2.193733E-09  1.036994E-09
        28  17 -7.403498E+06 -1.228876E+06 -6.549056E+05 -2.826197E+06  3.844959E-09  6.032488E-10
        28  18 -7.579371E+06 -2.219216E+06 -1.271047E+06 -2.748841E+06  7.830600E-11  3.517052E-11
        28  19 -5.793973E+06 -7.071218E+05 -3.813791E+04 -2.432264E+06 -1.963572E+05 -4.007770E+04
        28  20 -5.729393E+06 -4.611885E+05 -1.865828E+05 -2.231024E+06 -4.143950E+05 -1.193156E+05
        28  21 -5.991840E+06 -1.150669E+06 -7.432105E+05 -1.841062E+06 -6.232407E+05 -2.230721E+05
        28  22 -6.677717E+06 -9.437629E+05 -2.528087E+05 -2.573485E+06 -1.886446E+05 -3.721249E+04
        28  23 -6.566698E+06 -8.450734E+05 -4.205267E+05 -2.528790E+06 -4.188957E+05 -1.209508E+05
        28  24 -6.785743E+06 -1.685143E+06 -1.006641E+06 -2.295222E+06 -6.399616E+05 -2.290834E+05
        28  25 -7.560680E+06 -1.180424E+06 -4.675295E+05 -2.714564E+06 -1.809441E+05 -3.434878E+04
        28  26 -7.403299E+06 -1.228811E+06 -6.545354E+05 -2.826154E+06 -4.233892E+05 -1.225819E+05
        28  27 -7.578888E+06 -2.219038E+06 -1.270120E+06 -2.748716E+06 -6.566586E+05 -2.350694E+05
        29   1  3.339444E+05  1.270870E+05  3.677648E+05 -2.366068E+05  5.999547E+02  2.256744E+05
        29   2  8.453348E+04  4.902830E+04  1.909200E+05 -1.290791E+05  2.737398E+03  1.305263E+05
        29   3  1.644346E+04  2.864277E+04  1.213602E+05 -3.253271E+04  1.416564E+03  3.537637E+04
        29   4  3.002121E+05 -4.367899E+03  3.359760E+05 -4.874796E+04  6.818984E+02  2.197165E+05
        29   5  6.425656E+04 -3.270655E+04  1.736887E+05 -4.359871E+04  2.755983E+03  1.302611E+05
        29   6  8.611366E+03 -4.368765E+03  1.147430E+05 -4.941491E+04  1.402947E+03  4.079621E+04
        29   7  2.666109E+05 -1.357313E+05  3.042049E+05  1.390708E+05  7.602508E+02  2.137599E+05
        29   8  4.400663E+04 -1.144194E+05  1.564609E+05  4.187019E+04  2.774496E+03  1.299961E+05
        29   9  7.802941E+02 -3.737859E+04  1.081260E+05 -6.629619E+04  1.389035E+03  4.621576E+04
        29  10  3.339307E+05  1.270323E+05  3.676691E+05 -2.366069E+05 -8.437514E-10 -6.177241E-09
        29  11  8.452890E+04  4.901001E+04  1.908880E+05 -1.290794E+05  1.071913E-09 -1.268382E-08
        29  12  1.644312E+04  2.864143E+04  1.213579E+05 -3.253275E+04 -4.425879E-09 -1.814450E-08
        29  13  3.001991E+05 -4.419726E+03  3.358852E+05 -4.874809E+04 -1.043378E-09 -5.872255E-10
        29  14  6.425200E+04 -3.272477E+04  1.736568E+05 -4.359900E+04  5.613156E-09  5.603766E-10
        29  15  8.610917E+03 -4.370553E+03  1.147399E+05 -4.941495E+04  1.262812E-08  5.414887E-10
        29  16  2.665987E+05 -1.357804E+05  3.041190E+05  1.390707E+05 -8.910246E-10  6.194199E-09
        29  17  4.400208E+04 -1.144376E+05  1.564292E+05  4.186990E+04 -4.181841E-09  1.314989E-08
        29  18  7.797187E+02 -3.738088E+04  1.081219E+05 -6.629624E+04 -3.949270E-09  1.810359E-08
        29  19  3.339444E+05  1.270870E+05  3.677648E+05 -2.366068E+05 -5.999547E+02 -2.256744E+05
        29  20  8.453348E+04  4.902830E+04  1.909200E+05 -1.290791E+05 -2.737398E+03 -1.305263E+05
        29  21  1.644346E+04  2.864277E+04  1.213602E+05 -3.253271E+04 -1.416564E+03 -3.537637E+04
        29  22  3.002121E+05 -4.367899E+03  3.359760E+05 -4.874796E+04 -6.818984E+02 -2.197165E+05
        29  23  6.425656E+04 -3.270655E+04  1.736887E+05 -4.359871E+04 -2.755983E+03 -1.302611E+05
        29  24  8.611366E+03 -4.368765E+03  1.147430E+05 -4.941491E+04 -1.402947E+03 -4.079621E+04
        29  25  2.666109E+05 -1.357313E+05  3.042049E+05  1.390708E+05 -7.602508E+02 -2.137599E+05
        29  26  4.400663E+04 -1.144194E+05  1.564609E+05  4.187019E+04 -2.774496E+03 -1.299961E+05
        29  27  7.802941E+02 -3.737859E+04  1.081260E+05 -6.629619E+04 -1.389035E+03 -4.621576E+04
        30   1  1.339591E+04 -1.388183E+04  1.035806E+05 -5.871770E+04 -5.422527E+02  1.881801E+04
        30   2 -6.128486E+03 -6.988040E+04  9.235656E+04 -4.259487E+04 -3.382728E+03 -3.123666E+04
        30   3 -2.832824E+02 -1.130742E+05  1.200600E+05 -3.787347E+04 -6.023681E+03 -8.128791E+04
        30   4  1.317790E+04 -1.410805E+04  1.029769E+05 -4.942351E+04 -5.538076E+02  2.388230E+04
        30   5  5.469223E+03 -2.053685E+04  1.009679E+05 -4.371158E+04 -3.393638E+03 -2.650813E+04
        30   6  2.318679E+04 -1.410692E+04  1.381175E+05 -4.940007E+04 -6.032287E+03 -7.689892E+04
        30   7  1.296024E+04 -1.433403E+04  1.023735E+05 -4.012933E+04 -5.652108E+02  2.894658E+04
        30   8  1.706682E+04  2.880913E+04  1.095792E+05 -4.482838E+04 -3.404566E+03 -2.177923E+04
        30   9  4.665680E+04  8.487020E+04  1.561748E+05 -6.092855E+04 -6.041056E+03 -7.250925E+04
        30  10  1.339581E+04 -1.388221E+04  1.035799E+05 -5.871769E+04 -3.725568E-09  2.079101E-08
        30  11 -6.128760E+03 -6.988145E+04  9.235470E+04 -4.259496E+04  1.082313E-09  1.760662E-08
        30  12 -2.850955E+02 -1.130813E+05  1.200475E+05 -3.787386E+04  3.091169E-09  7.104177E-09
        30  13  1.317775E+04 -1.410866E+04  1.029759E+05 -4.942350E+04  1.524235E-08 -7.259624E-10
        30  14  5.469022E+03 -2.053761E+04  1.009666E+05 -4.371165E+04  1.001642E-08  5.378903E-10
        30  15  2.318516E+04 -1.411328E+04  1.381064E+05 -4.940044E+04  4.739044E-09  5.258576E-10
        30  16  1.296001E+04 -1.433493E+04  1.023719E+05 -4.012932E+04 -2.713177E-09 -2.098794E-08
        30  17  1.706668E+04  2.880862E+04  1.095783E+05 -4.482844E+04  2.255819E-09 -1.677045E-08
        30  18  4.665535E+04  8.486454E+04  1.561649E+05 -6.092890E+04  1.645032E-09 -6.813192E-09
        30  19  1.339591E+04 -1.388183E+04  1.035806E+05 -5.871770E+04  5.422527E+02 -1.881801E+04
        30  20 -6.128486E+03 -6.988040E+04  9.235656E+04 -4.259487E+04  3.382728E+03  3.123666E+04
        30  21 -2.832824E+02 -1.130742E+05  1.200600E+05 -3.787347E+04  6.023681E+03  8.128791E+04
        30  22  1.317790E+04 -1.410805E+04  1.029769E+05 -4.942351E+04  5.538076E+02 -2.388230E+04
        30  23  5.469223E+03 -2.053685E+04  1.009679E+05 -4.371158E+04  3.393638E+03  2.650813E+04
        30  24  2.318679E+04 -1.410692E+04  1.381175E+05 -4.940007E+04  6.032287E+03  7.689892E+04
        30  25  1.296024E+04 -1.433403E+04  1.023735E+05 -4.012933E+04  5.652108E+02 -2.894658E+04
        30  26  1.706682E+04  2.880913E+04  1.095792E+05 -4.482838E+04  3.404566E+03  2.177923E+04
        30  27  4.665680E+04  8.487020E+04  1.561748E+05 -6.092855E+04  6.041056E+03  7.250925E+04
        31   1 -1.656905E+04 -1.271674E+05  1.455387E+05 -8.061583E+04 -7.857715E+03 -1.051711E+05
        31   2  6.815141E+04 -2.240490E+05  2.525042E+05  1.037345E+05 -7.784366E+03 -2.445742E+05
        31   3  4.647081E+05 -2.247813E+05  5.282724E+05  2.774763E+05 -2.046139E+03 -3.839497E+05
        31   4  1.448434E+04  4.751843E+03  1.697422E+05 -4.938695E+04 -7.874521E+03 -1.001314E+05
        31   5  1.121540E+05 -4.409530E+04  2.887307E+05 -4.350482E+04 -7.716052E+03 -2.490809E+05
        31   6  5.231444E+05  4.755633E+03  5.831045E+05 -4.824139E+04 -1.813293E+03 -3.980159E+05
        31   7  4.554045E+04  1.366902E+05  1.939457E+05 -1.815125E+04 -7.890817E+03 -9.509067E+04
        31   8  1.562360E+05  1.359358E+05  3.249671E+05 -1.907878E+05 -7.645615E+03 -2.535889E+05
        31   9  5.819754E+05  2.345689E+05  6.379904E+05 -3.740806E+05 -1.565753E+03 -4.120874E+05
        31  10 -1.657209E+04 -1.271793E+05  1.455178E+05 -8.061650E+04 -9.119837E-10  7.952398E-10
        31  11  6.813529E+04 -2.241133E+05  2.523917E+05  1.037330E+05 -1.896895E-09  2.440691E-09
        31  12  4.646685E+05 -2.249396E+05  5.279952E+05  2.774757E+05  9.022872E-10  1.915495E-09
        31  13  1.448158E+04  4.741062E+03  1.697233E+05 -4.938759E+04 -2.962133E-09 -5.100603E-10
        31  14  1.121373E+05 -4.416193E+04  2.886140E+05 -4.350637E+04 -3.472777E-09  6.774897E-10
        31  15  5.231018E+05  4.585592E+03  5.828067E+05 -4.824197E+04 -4.762142E-09  5.800186E-10
        31  16  4.553795E+04  1.366804E+05  1.939286E+05 -1.815185E+04 -1.995912E-09 -6.379404E-10
        31  17  1.562187E+05  1.358667E+05  3.248462E+05 -1.907894E+05 -2.881797E-09 -1.589102E-09
        31  18  5.819298E+05  2.343866E+05  6.376714E+05 -3.740811E+05  1.646306E-09 -1.656322E-09
        31  19 -1.656905E+04 -1.271674E+05  1.455387E+05 -8.061583E+04  7.857715E+03  1.051711E+05
        31  20  6.815141E+04 -2.240490E+05  2.525042E+05  1.037345E+05  7.784366E+03  2.445742E+05
        31  21  4.647081E+05 -2.247813E+05  5.282724E+05  2.774763E+05  2.046139E+03  3.839497E+05
        31  22  1.448434E+04  4.751843E+03  1.697422E+05 -4.938695E+04  7.874521E+03  1.001314E+05
        31  23  1.121540E+05 -4.409530E+04  2.887307E+05 -4.350482E+04  7.716052E+03  2.490809E+05
        31  24  5.231444E+05  4.755633E+03  5.831045E+05 -4.824139E+04  1.813293E+03  3.980159E+05
        31  25  4.554045E+04  1.366902E+05  1.939457E+05 -1.815125E+04  7.890817E+03  9.509067E+04
        31  26  1.562360E+05  1.359358E+05  3.249671E+05 -1.907878E+05  7.645615E+03  2.535889E+05
        31  27  5.819754E+05  2.345689E+05  6.379904E+05 -3.740806E+05  1.565753E+03  4.120874E+05
        32   1 -4.460976E+06 -1.347825E+06 -7.751712E+05 -1.592854E+06 -3.242913E+05 -1.082421E+05
        32   2 -4.341263E+06 -8.477949E+05 -4.658110E+05 -1.600304E+06 -2.114023E+05 -3.760067E+04
        32   3 -4.352351E+06 -8.187197E+05 -3.643871E+05 -1.548693E+06 -8.811170E+04  5.507290E+03
        32   4 -3.437442E+06 -8.498541E+05 -4.741176E+05 -1.201261E+06 -3.049361E+05 -1.010142E+05
        32   5 -3.348441E+06 -4.414908E+05 -1.983980E+05 -1.296372E+06 -2.060300E+05 -3.559609E+04
        32   6 -3.387184E+06 -5.008955E+05 -1.192172E+05 -1.332501E+06 -9.673941E+04  2.268694E+03
        32   7 -2.412868E+06 -3.516075E+05 -1.731683E+05 -8.090170E+05 -2.855454E+05 -9.376422E+04
        32   8 -2.354658E+06 -3.507827E+04  6.892556E+04 -9.919824E+05 -2.006480E+05 -3.358714E+04
        32   9 -2.421111E+06 -1.830644E+05  1.258797E+05 -1.116027E+06 -1.053819E+05 -9.738327E+02
        32  10 -4.461093E+06 -1.347866E+06 -7.753926E+05 -1.592882E+06 -6.939898E-10 -1.288084E-10
        32  11 -4.341312E+06 -8.478085E+05 -4.658983E+05 -1.600310E+06  2.360168E-09  7.965373E-10
        32  12 -4.352359E+06 -8.187218E+05 -3.644018E+05 -1.548693E+06 -8.345824E-10  2.066435E-09
        32  13 -3.437546E+06 -8.498903E+05 -4.743127E+05 -1.201286E+06  4.033179E-09  1.628773E-10
        32  14 -3.348487E+06 -4.415037E+05 -1.984806E+05 -1.296378E+06  4.075718E-09  1.587964E-09
        32  15 -3.387194E+06 -5.008980E+05 -1.192349E+05 -1.332501E+06  2.084043E-09  1.377372E-09
        32  16 -2.412958E+06 -3.516390E+05 -1.733388E+05 -8.090386E+05 -4.478986E-10  9.348411E-10
        32  17 -2.354701E+06 -3.509035E+04  6.884745E+04 -9.919879E+05  1.949679E-09  1.860992E-09
        32  18 -2.421123E+06 -1.830674E+05  1.258587E+05 -1.116028E+06  3.839039E-09  1.133088E-09
        32  19 -4.460976E+06 -1.347825E+06 -7.751712E+05 -1.592854E+06  3.242913E+05  1.082421E+05
        32  20 -4.341263E+06 -8.477949E+05 -4.658110E+05 -1.600304E+06  2.114023E+05  3.760067E+04
        32  21 -4.352351E+06 -8.187197E+05 -3.643871E+05 -1.548693E+06  8.811170E+04 -5.507290E+03
        32  22 -3.437442E+06 -8.498541E+05 -4.741176E+05 -1.201261E+06  3.049361E+05  1.010142E+05
        32  23 -3.348441E+06 -4.414908E+05 -1.983980E+05 -1.296372E+06  2.060300E+05  3.559609E+04
        32  24 -3.387184E+06 -5.008955E+05 -1.192172E+05 -1.332501E+06  9.673941E+04 -2.268694E+03
        32  25 -2.412868E+06 -3.516075E+05 -1.731683E+05 -8.090170E+05  2.855454E+05  9.376422E+04
        32  26 -2.354658E+06 -3.507827E+04  6.892556E+04 -9.919824E+05  2.006480E+05  3.358714E+04
        32  27 -2.421111E+06 -1.830644E+05  1.258797E+05 -1.116027E+06  1.053819E+05  9.738327E+02
        33   1 -4.171956E+06 -8.630695E+05 -3.102965E+05 -1.535679E+06 -7.699846E+04  2.545553E+03
        33   2 -4.092205E+06 -7.532587E+05 -2.335842E+05 -1.484151E+06 -5.078274E+04  9.717338E+03
        33   3 -3.979197E+06 -7.405282E+05 -1.877946E+05 -1.482019E+06 -2.374302E+04  1.468839E+04
        33   4 -3.370216E+06 -5.509455E+05 -9.679887E+04 -1.306753E+06 -7.769609E+04  2.279282E+03
        33   5 -3.384345E+06 -4.844032E+05 -4.677218E+04 -1.288826E+06 -5.258029E+04  9.040918E+03
        33   6 -3.364987E+06 -5.146855E+05 -2.675992E+04 -1.320299E+06 -2.664521E+04  1.360069E+04
        33   7 -2.567847E+06 -2.387694E+05  1.166432E+05 -1.077553E+06 -7.839468E+04  2.012632E+03
        33   8 -2.675997E+06 -2.155141E+05  1.399970E+05 -1.093298E+06 -5.438008E+04  8.363642E+03
        33   9 -2.750410E+06 -2.888241E+05  1.342428E+05 -1.158436E+06 -2.955056E+04  1.251186E+04
        33  10 -4.171963E+06 -8.630711E+05 -3.103078E+05 -1.535679E+06 -9.709192E-10  1.415851E-09
        33  11 -4.092208E+06 -7.532595E+05 -2.335893E+05 -1.484151E+06  9.242099E-10  8.278605E-10
        33  12 -3.979197E+06 -7.405286E+05 -1.877961E+05 -1.482018E+06  3.383878E-09 -3.388285E-10
        33  13 -3.370223E+06 -5.509471E+05 -9.681028E+04 -1.306753E+06  2.176549E-09  1.343911E-09
        33  14 -3.384348E+06 -4.844040E+05 -4.677755E+04 -1.288826E+06  4.436374E-09  7.374379E-10
        33  15 -3.364988E+06 -5.146858E+05 -2.676161E+04 -1.320299E+06 -1.402148E-09 -1.044249E-09
        33  16 -2.567854E+06 -2.387710E+05  1.166316E+05 -1.077552E+06  1.703562E-09  7.284578E-10
        33  17 -2.676000E+06 -2.155150E+05  1.399913E+05 -1.093297E+06  2.076587E-10  1.126796E-10
        33  18 -2.750411E+06 -2.888245E+05  1.342409E+05 -1.158435E+06 -6.964795E-10 -2.070665E-09
        33  19 -4.171956E+06 -8.630695E+05 -3.102965E+05 -1.535679E+06  7.699846E+04 -2.545553E+03
        33  20 -4.092205E+06 -7.532587E+05 -2.335842E+05 -1.484151E+06  5.078274E+04 -9.717338E+03
        33  21 -3.979197E+06 -7.405282E+05 -1.877946E+05 -1.482019E+06  2.374302E+04 -1.468839E+04
        33  22 -3.370216E+06 -5.509455E+05 -9.679887E+04 -1.306753E+06  7.769609E+04 -2.279282E+03
        33  23 -3.384345E+06 -4.844032E+05 -4.677218E+04 -1.288826E+06  5.258029E+04 -9.040918E+03
        33  24 -3.364987E+06 -5.146855E+05 -2.675992E+04 -1.320299E+06  2.664521E+04 -1.360069E+04
        33  25 -2.567847E+06 -2.387694E+05  1.166432E+05 -1.077553E+06  7.839468E+04 -2.012632E+03
        33  26 -2.675997E+06 -2.155141E+05  1.399970E+05 -1.093298E+06  5.438008E+04 -8.363642E+03
        33  27 -2.750410E+06 -2.888241E+05  1.342428E+05 -1.158436E+06  2.955056E+04 -1.251186E+04
        34   1 -3.834532E+06 -6.987861E+05 -1.449648E+05 -1.447697E+06 -1.932444E+04  1.286736E+04
        34   2 -3.754030E+06 -6.248807E+05 -1.068734E+05 -1.386024E+06 -1.191471E+04  1.028185E+04
        34   3 -3.618689E+06 -6.127848E+05 -7.422697E+04 -1.389059E+06 -4.413734E+03  7.443115E+03
        34   4 -3.362137E+06 -5.206255E+05 -2.086049E+04 -1.318543E+06 -2.168320E+04  1.198400E+04
        34   5 -3.389283E+06 -4.878374E+05 -1.090821E+04 -1.286891E+06 -1.439937E+04  9.352497E+03
        34   6 -3.361574E+06 -5.168302E+05 -6.296377E+03 -1.319948E+06 -7.025393E+03  6.467468E+03
        34   7 -2.889527E+06 -3.424513E+05  1.032244E+05 -1.189301E+06 -2.404392E+04  1.109989E+04
        34   8 -3.024406E+06 -3.507860E+05  8.504559E+04 -1.187704E+06 -1.688563E+04  8.422537E+03
        34   9 -3.104395E+06 -4.208715E+05  6.162875E+04 -1.250812E+06 -9.638253E+03  5.491379E+03
        34  10 -3.834532E+06 -6.987864E+05 -1.449658E+05 -1.447697E+06  1.343548E-09 -1.439348E-09
        34  11 -3.754030E+06 -6.248809E+05 -1.068738E+05 -1.386024E+06  2.653922E-09 -1.172253E-10
        34  12 -3.618689E+06 -6.127848E+05 -7.422711E+04 -1.389059E+06 -5.578423E-10 -6.085103E-10
        34  13 -3.362138E+06 -5.206257E+05 -2.086164E+04 -1.318543E+06 -1.163272E-10 -1.855790E-09
        34  14 -3.389283E+06 -4.878376E+05 -1.090876E+04 -1.286891E+06 -7.014946E-09 -5.587526E-10
        34  15 -3.361575E+06 -5.168302E+05 -6.296549E+03 -1.319948E+06 -2.766255E-09 -9.193834E-10
        34  16 -2.889528E+06 -3.424516E+05  1.032230E+05 -1.189300E+06  1.091569E-09 -1.406897E-09
        34  17 -3.024406E+06 -3.507862E+05  8.504492E+04 -1.187704E+06 -3.521574E-09 -2.698284E-10
        34  18 -3.104395E+06 -4.208716E+05  6.162852E+04 -1.250812E+06 -5.310983E-09 -2.273112E-10
        34  19 -3.834532E+06 -6.987861E+05 -1.449648E+05 -1.447697E+06  1.932444E+04 -1.286736E+04
        34  20 -3.754030E+06 -6.248807E+05 -1.068734E+05 -1.386024E+06  1.191471E+04 -1.028185E+04
        34  21 -3.618689E+06 -6.127848E+05 -7.422697E+04 -1.389059E+06  4.413734E+03 -7.443115E+03
        34  22 -3.362137E+06 -5.206255E+05 -2.086049E+04 -1.318543E+06  2.168320E+04 -1.198400E+04
        34  23 -3.389283E+06 -4.878374E+05 -1.090821E+04 -1.286891E+06  1.439937E+04 -9.352497E+03
        34  24 -3.361574E+06 -5.168302E+05 -6.296377E+03 -1.319948E+06  7.025393E+03 -6.467468E+03
        34  25 -2.889527E+06 -3.424513E+05  1.032244E+05 -1.189301E+06  2.404392E+04 -1.109989E+04
        34  26 -3.024406E+06 -3.507860E+05  8.504559E+04 -1.187704E+06  1.688563E+04 -8.422537E+03
        34  27 -3.104395E+06 -4.208715E+05  6.162875E+04 -1.250812E+06  9.638253E+03 -5.491379E+03
        35   1 -3.472269E+06 -5.593657E+05 -3.382403E+04 -1.350284E+06 -2.421738E+03  4.827673E+03
        35   2 -3.390235E+06 -4.879251E+05 -3.201538E+03 -1.286387E+06  1.047879E+03  3.971056E+02
        35   3 -3.249970E+06 -4.757213E+05  2.607379E+04 -1.289957E+06  4.521779E+03 -4.044255E+03
        35   4 -3.361006E+06 -5.176571E+05 -4.973825E+03 -1.320035E+06 -5.004201E+03  3.863331E+03
        35   5 -3.390093E+06 -4.878810E+05 -3.166063E+03 -1.286358E+06 -1.540128E+03 -5.693304E+02
        35   6 -3.360961E+06 -5.173411E+05 -2.699855E+03 -1.320152E+06  1.927881E+03 -5.012838E+03
        35   7 -3.249731E+06 -4.759475E+05  2.387542E+04 -1.289781E+06 -7.587179E+03  2.898797E+03
        35   8 -3.389951E+06 -4.878369E+05 -3.130560E+03 -1.286329E+06 -4.128122E+03 -1.535762E+03
        35   9 -3.471937E+06 -5.589595E+05 -3.147414E+04 -1.350343E+06 -6.654764E+02 -5.981218E+03
        35  10 -3.472269E+06 -5.593657E+05 -3.382408E+04 -1.350284E+06 -2.734845E-09 -1.183953E-09
        35  11 -3.390235E+06 -4.879251E+05 -3.201540E+03 -1.286387E+06 -3.338420E-09  2.812340E-09
        35  12 -3.249970E+06 -4.757214E+05  2.607372E+04 -1.289957E+06 -1.350727E-09 -1.886889E-09
        35  13 -3.361006E+06 -5.176571E+05 -4.973901E+03 -1.320035E+06 -7.273634E-09 -1.643005E-09
        35  14 -3.390093E+06 -4.878810E+05 -3.166069E+03 -1.286358E+06 -4.559539E-09  2.852291E-10
        35  15 -3.360961E+06 -5.173411E+05 -2.699910E+03 -1.320152E+06 -2.062565E-09 -1.338891E-10
        35  16 -3.249731E+06 -4.759476E+05  2.387530E+04 -1.289781E+06 -5.197801E-09  1.296709E-10
        35  17 -3.389951E+06 -4.878369E+05 -3.130597E+03 -1.286329E+06 -1.935013E-10  1.278805E-09
        35  18 -3.471937E+06 -5.589596E+05 -3.147421E+04 -1.350343E+06 -1.421635E-09  1.559963E-09
        35  19 -3.472269E+06 -5.593657E+05 -3.382403E+04 -1.350284E+06  2.421738E+03 -4.827673E+03
        35  20 -3.390235E+06 -4.879251E+05 -3.201538E+03 -1.286387E+06 -1.047879E+03 -3.971056E+02
        35  21 -3.249970E+06 -4.757213E+05  2.607379E+04 -1.289957E+06 -4.521779E+03  4.044255E+03
        35  22 -3.361006E+06 -5.176571E+05 -4.973825E+03 -1.320035E+06  5.004201E+03 -3.863331E+03
        35  23 -3.390093E+06 -4.878810E+05 -3.166063E+03 -1.286358E+06  1.540128E+03  5.693304E+02
        35  24 -3.360961E+06 -5.173411E+05 -2.699855E+03 -1.320152E+06 -1.927881E+03  5.012838E+03
        35  25 -3.249731E+06 -4.759475E+05  2.387542E+04 -1.289781E+06  7.587179E+03 -2.898797E+03
        35  26 -3.389951E+06 -4.878369E+05 -3.130560E+03 -1.286329E+06  4.128122E+03  1.535762E+03
        35  27 -3.471937E+06 -5.589595E+05 -3.147414E+04 -1.350343E+06  6.654764E+02  5.981218E+03
        36   1 -3.104595E+06 -4.207137E+05  6.509693E+04 -1.250264E+06  6.055689E+03 -6.812773E+03
        36   2 -3.024900E+06 -3.514536E+05  9.212225E+04 -1.187840E+06  9.744402E+03 -1.108156E+04
        36   3 -2.888393E+06 -3.399986E+05  1.176308E+05 -1.190984E+06  1.339217E+04 -1.522691E+04
        36   4 -3.361284E+06 -5.169653E+05 -2.793846E+03 -1.319761E+06  3.473946E+03 -7.777222E+03
        36   5 -3.389730E+06 -4.883464E+05 -3.793154E+03 -1.286867E+06  7.224423E+03 -1.202412E+04
        36   6 -3.361385E+06 -5.175495E+05 -6.358330E+03 -1.319550E+06  1.093357E+04 -1.614763E+04
        36   7 -3.617912E+06 -6.132140E+05 -7.069099E+04 -1.389232E+06  8.933531E+02 -8.741242E+03
        36   8 -3.754433E+06 -6.252325E+05 -9.972076E+04 -1.385843E+06  4.706054E+03 -1.296608E+04
        36   9 -3.834162E+06 -6.950880E+05 -1.303674E+05 -1.448029E+06  8.477016E+03 -1.706758E+04
        36  10 -3.104595E+06 -4.207137E+05  6.509678E+04 -1.250264E+06 -6.470753E-09 -4.586784E-09
        36  11 -3.024900E+06 -3.514538E+05  9.212184E+04 -1.187840E+06  1.615651E-11 -2.563668E-09
        36  12 -2.888393E+06 -3.399989E+05  1.176301E+05 -1.190983E+06  1.177316E-09  9.699325E-10
        36  13 -3.361284E+06 -5.169653E+05 -2.793982E+03 -1.319760E+06 -3.112209E-09 -1.063486E-09
        36  14 -3.389730E+06 -4.883466E+05 -3.793523E+03 -1.286867E+06 -6.205989E-10 -2.827355E-09
        36  15 -3.361385E+06 -5.175498E+05 -6.359043E+03 -1.319550E+06 -6.945801E-10 -9.575998E-10
        36  16 -3.617912E+06 -6.132141E+05 -7.069113E+04 -1.389232E+06  5.105686E-09  2.598117E-09
        36  17 -3.754433E+06 -6.252326E+05 -9.972112E+04 -1.385843E+06 -2.675877E-09 -1.136522E-09
        36  18 -3.834162E+06 -6.950883E+05 -1.303681E+05 -1.448029E+06 -7.993769E-09 -3.852913E-09
        36  19 -3.104595E+06 -4.207137E+05  6.509693E+04 -1.250264E+06 -6.055689E+03  6.812773E+03
        36  20 -3.024900E+06 -3.514536E+05  9.212225E+04 -1.187840E+06 -9.744402E+03  1.108156E+04
        36  21 -2.888393E+06 -3.399986E+05  1.176308E+05 -1.190984E+06 -1.339217E+04  1.522691E+04
        36  22 -3.361284E+06 -5.169653E+05 -2.793846E+03 -1.319761E+06 -3.473946E+03  7.777222E+03
        36  23 -3.389730E+06 -4.883464E+05 -3.793154E+03 -1.286867E+06 -7.224423E+03  1.202412E+04
        36  24 -3.361385E+06 -5.175495E+05 -6.358330E+03 -1.319550E+06 -1.093357E+04  1.614763E+04
        36  25 -3.617912E+06 -6.132140E+05 -7.069099E+04 -1.389232E+06 -8.933531E+02  8.741242E+03
        36  26 -3.754433E+06 -6.252325E+05 -9.972076E+04 -1.385843E+06 -4.706054E+03  1.296608E+04
        36  27 -3.834162E+06 -6.950880E+05 -1.303674E+05 -1.448029E+06 -8.477016E+03  1.706758E+04
        37   1 -2.751436E+06 -2.870361E+05  1.528238E+05 -1.153481E+06  1.563308E+04 -1.757344E+04
        37   2 -2.678104E+06 -2.220243E+05  1.723579E+05 -1.094970E+06  2.444408E+04 -1.951942E+04
        37   3 -2.554694E+06 -2.156771E+05  1.851070E+05 -1.095362E+06  3.311977E+04 -2.107895E+04
        37   4 -3.362668E+06 -5.158699E+05 -8.149778E+03 -1.318792E+06  1.316203E+04 -1.849993E+04
        37   5 -3.388064E+06 -4.890579E+05 -1.438085E+04 -1.288394E+06  2.216272E+04 -2.037694E+04
        37   6 -3.363433E+06 -5.209569E+05 -2.755336E+04 -1.316905E+06  3.102682E+04 -2.186775E+04
        37   7 -3.973530E+06 -7.446792E+05 -1.691535E+05 -1.483953E+06  1.069370E+04 -1.942542E+04
        37   8 -4.097532E+06 -7.560599E+05 -2.011621E+05 -1.481616E+06  1.988423E+04 -2.123339E+04
        37   9 -4.171539E+06 -8.261969E+05 -2.402708E+05 -1.538187E+06  2.893686E+04 -2.265542E+04
        37  10 -2.751437E+06 -2.870365E+05  1.528228E+05 -1.153481E+06 -1.071772E-09  5.400787E-10
        37  11 -2.678105E+06 -2.220249E+05  1.723561E+05 -1.094970E+06 -5.125228E-10 -5.751454E-10
        37  12 -2.554695E+06 -2.156779E+05  1.851041E+05 -1.095362E+06 -1.843622E-09  3.157123E-10
        37  13 -3.362669E+06 -5.158703E+05 -8.150745E+03 -1.318792E+06  2.145715E-09 -1.063488E-09
        37  14 -3.388065E+06 -4.890585E+05 -1.438256E+04 -1.288393E+06 -1.817996E-09 -6.194307E-10
        37  15 -3.363434E+06 -5.209577E+05 -2.755607E+04 -1.316905E+06 -2.001722E-10 -2.605337E-10
        37  16 -3.973531E+06 -7.446797E+05 -1.691544E+05 -1.483953E+06  3.998977E-10 -2.880012E-09
        37  17 -4.097533E+06 -7.560605E+05 -2.011637E+05 -1.481615E+06  8.471708E-10 -6.340217E-10
        37  18 -4.171540E+06 -8.261976E+05 -2.402733E+05 -1.538186E+06  3.480090E-11 -1.604832E-10
        37  19 -2.751436E+06 -2.870361E+05  1.528238E+05 -1.153481E+06 -1.563308E+04  1.757344E+04
        37  20 -2.678104E+06 -2.220243E+05  1.723579E+05 -1.094970E+06 -2.444408E+04  1.951942E+04
        37  21 -2.554694E+06 -2.156771E+05  1.851070E+05 -1.095362E+06 -3.311977E+04  2.107895E+04
        37  22 -3.362668E+06 -5.158699E+05 -8.149778E+03 -1.318792E+06 -1.316203E+04  1.849993E+04
        37  23 -3.388064E+06 -4.890579E+05 -1.438085E+04 -1.288394E+06 -2.216272E+04  2.037694E+04
        37  24 -3.363433E+06 -5.209569E+05 -2.755336E+04 -1.316905E+06 -3.102682E+04  2.186775E+04
        37  25 -3.973530E+06 -7.446792E+05 -1.691535E+05 -1.483953E+06 -1.069370E+04  1.942542E+04
        37  26 -4.097532E+06 -7.560599E+05 -2.011621E+05 -1.481616E+06 -1.988423E+04  2.123339E+04
        37  27 -4.171539E+06 -8.261969E+05 -2.402708E+05 -1.538187E+06 -2.893686E+04  2.265542E+04
        38   1 -2.430461E+06 -1.666773E+05  2.101713E+05 -1.070148E+06  3.985012E+04 -2.173921E+04
        38   2 -2.366366E+06 -9.888496E+04  2.057648E+05 -1.010383E+06  7.206038E+04 -1.408116E+04
        38   3 -2.281529E+06 -1.344905E+05  1.628547E+05 -9.877222E+05  1.032697E+05 -3.731871E+03
        38   4 -3.367482E+06 -5.128086E+05 -3.537123E+04 -1.318913E+06  3.712255E+04 -2.276765E+04
        38   5 -3.381183E+06 -4.848951E+05 -6.192169E+04 -1.291368E+06  7.066607E+04 -1.461153E+04
        38   6 -3.374453E+06 -5.607154E+05 -1.280872E+05 -1.300929E+06  1.032036E+05 -3.764940E+03
        38   7 -4.303650E+06 -8.588944E+05 -2.809883E+05 -1.567341E+06  3.439949E+04 -2.379447E+04
        38   8 -4.394996E+06 -8.708358E+05 -3.296965E+05 -1.571933E+06  6.927420E+04 -1.514097E+04
        38   9 -4.466210E+06 -9.868428E+05 -4.191329E+05 -1.613627E+06  1.031374E+05 -3.798017E+03
        38  10 -2.430463E+06 -1.666782E+05  2.101674E+05 -1.070148E+06  8.937206E-11  2.505112E-10
        38  11 -2.366371E+06 -9.888657E+04  2.057547E+05 -1.010382E+06 -1.395498E-09  1.259917E-09
        38  12 -2.281540E+06 -1.344934E+05  1.628345E+05 -9.877219E+05 -1.898168E-09  1.438346E-09
        38  13 -3.367484E+06 -5.128095E+05 -3.537479E+04 -1.318912E+06 -2.070873E-09  8.936353E-11
        38  14 -3.381188E+06 -4.848967E+05 -6.193151E+04 -1.291367E+06  1.493428E-09  5.198693E-11
        38  15 -3.374464E+06 -5.607183E+05 -1.281074E+05 -1.300929E+06  1.982069E-09  9.882123E-10
        38  16 -4.303652E+06 -8.588953E+05 -2.809916E+05 -1.567340E+06 -1.528624E-09  2.921027E-10
        38  17 -4.395001E+06 -8.708373E+05 -3.297060E+05 -1.571932E+06 -1.132906E-09  4.593417E-10
        38  18 -4.466222E+06 -9.868456E+05 -4.191530E+05 -1.613626E+06  4.070233E-09  1.575260E-10
        38  19 -2.430461E+06 -1.666773E+05  2.101713E+05 -1.070148E+06 -3.985012E+04  2.173921E+04
        38  20 -2.366366E+06 -9.888496E+04  2.057648E+05 -1.010383E+06 -7.206038E+04  1.408116E+04
        38  21 -2.281529E+06 -1.344905E+05  1.628547E+05 -9.877222E+05 -1.032697E+05  3.731871E+03
        38  22 -3.367482E+06 -5.128086E+05 -3.537123E+04 -1.318913E+06 -3.712255E+04  2.276765E+04
        38  23 -3.381183E+06 -4.848951E+05 -6.192169E+04 -1.291368E+06 -7.066607E+04  1.461153E+04
        38  24 -3.374453E+06 -5.607154E+05 -1.280872E+05 -1.300929E+06 -1.032036E+05  3.764940E+03
        38  25 -4.303650E+06 -8.588944E+05 -2.809883E+05 -1.567341E+06 -3.439949E+04  2.379447E+04
        38  26 -4.394996E+06 -8.708358E+05 -3.296965E+05 -1.571933E+06 -6.927420E+04  1.514097E+04
        38  27 -4.466210E+06 -9.868428E+05 -4.191329E+05 -1.613627E+06 -1.031374E+05  3.798017E+03
        39   1 -2.148269E+06 -8.400278E+04  1.588292E+05 -1.055100E+06  1.372850E+05  1.619959E+03
        39   2 -2.094830E+06  8.294374E+04  7.146438E+04 -9.175814E+05  2.644144E+05  4.771322E+04
        39   3 -2.231310E+06 -3.401485E+05 -2.622567E+05 -6.733799E+05  3.790732E+05  1.267544E+05
        39   4 -3.396813E+06 -4.946252E+05 -1.577712E+05 -1.335172E+06  1.277455E+05 -1.975596E+03
        39   5 -3.333550E+06 -4.280750E+05 -2.625639E+05 -1.301347E+06  2.715657E+05  5.039208E+04
        39   6 -3.463994E+06 -9.556380E+05 -6.273910E+05 -1.160727E+06  4.028993E+05  1.356859E+05
        39   7 -4.643846E+06 -9.052373E+05 -4.744945E+05 -1.614775E+06  1.182269E+05 -5.565591E+03
        39   8 -4.570766E+06 -9.389127E+05 -5.967288E+05 -1.684387E+06  2.787008E+05  5.306351E+04
        39   9 -4.695138E+06 -1.570670E+06 -9.926695E+05 -1.647080E+06  4.266723E+05  1.445829E+05
        39  10 -2.148289E+06 -8.400787E+04  1.587936E+05 -1.055100E+06  1.728898E-10  9.166335E-10
        39  11 -2.094906E+06  8.292242E+04  7.132818E+04 -9.175916E+05  1.428766E-09  8.538549E-10
        39  12 -2.231469E+06 -3.402046E+05 -2.625581E+05 -6.734187E+05 -2.782645E-09 -3.656945E-10
        39  13 -3.396831E+06 -4.946296E+05 -1.578020E+05 -1.335172E+06  1.750739E-09  1.805007E-09
        39  14 -3.333630E+06 -4.280977E+05 -2.627082E+05 -1.301359E+06  8.575249E-09 -3.377371E-10
        39  15 -3.464174E+06 -9.557018E+05 -6.277328E+05 -1.160771E+06 -3.042128E-10 -9.626627E-10
        39  16 -4.643861E+06 -9.052411E+05 -4.745210E+05 -1.614774E+06  2.001997E-09 -3.381458E-10
        39  17 -4.570851E+06 -9.389368E+05 -5.968813E+05 -1.684399E+06  2.635365E-10  1.010499E-09
        39  18 -4.695340E+06 -1.570742E+06 -9.930541E+05 -1.647130E+06  4.120177E-11 -1.848954E-09
        39  19 -2.148269E+06 -8.400278E+04  1.588292E+05 -1.055100E+06 -1.372850E+05 -1.619959E+03
        39  20 -2.094830E+06  8.294374E+04  7.146438E+04 -9.175814E+05 -2.644144E+05 -4.771322E+04
        39  21 -2.231310E+06 -3.401485E+05 -2.622567E+05 -6.733799E+05 -3.790732E+05 -1.267544E+05
        39  22 -3.396813E+06 -4.946252E+05 -1.577712E+05 -1.335172E+06 -1.277455E+05  1.975596E+03
        39  23 -3.333550E+06 -4.280750E+05 -2.625639E+05 -1.301347E+06 -2.715657E+05 -5.039208E+04
        39  24 -3.463994E+06 -9.556380E+05 -6.273910E+05 -1.160727E+06 -4.028993E+05 -1.356859E+05
        39  25 -4.643846E+06 -9.052373E+05 -4.744945E+05 -1.614775E+06 -1.182269E+05  5.565591E+03
        39  26 -4.570766E+06 -9.389127E+05 -5.967288E+05 -1.684387E+06 -2.787008E+05 -5.306351E+04
        39  27 -4.695138E+06 -1.570670E+06 -9.926695E+05 -1.647080E+06 -4.266723E+05 -1.445829E+05
        40   1  1.283394E+05 -7.922804E+05  1.216432E+05 -2.214925E+03  1.777484E+04  1.090896E+03
        40   2  1.260983E+05 -8.014461E+05  1.182901E+05  7.164616E+02  1.739431E+04  2.420398E+03
        40   3  1.230374E+05 -8.107900E+05  1.139080E+05 -2.678382E+03  1.693184E+04  3.749268E+03
        40   4  3.975430E+00 -1.310131E+06 -1.579602E+03 -1.405205E+03  1.777539E+04  1.275689E+03
        40   5  5.110088E+01 -1.310038E+06 -2.751767E+03  1.757029E+03  1.739465E+04  2.649394E+03
        40   6 -7.298255E+02 -1.310131E+06 -4.984079E+03 -1.407287E+03  1.693194E+04  4.022487E+03
        40   7 -1.283508E+05 -1.827735E+06 -1.248212E+05 -5.960160E+02  1.777593E+04  1.460327E+03
        40   8 -1.260148E+05 -1.818392E+06 -1.238117E+05  2.796897E+03  1.739498E+04  2.878203E+03
        40   9 -1.245151E+05 -1.809242E+06 -1.238937E+05 -1.370501E+02  1.693204E+04  4.295486E+03
        40  10  1.283390E+05 -7.922805E+05  1.216427E+05 -2.214940E+03 -2.161204E-09 -1.126730E-09
        40  11  1.260980E+05 -8.014461E+05  1.182895E+05  7.164276E+02 -1.779127E-09 -7.667058E-09
        40  12  1.230371E+05 -8.107901E+05  1.139075E+05 -2.678434E+03 -2.554795E-09 -1.074448E-08
        40  13  3.635910E+00 -1.310131E+06 -1.580198E+03 -1.405223E+03 -2.285701E-09 -7.590922E-11
        40  14  5.077428E+01 -1.310038E+06 -2.752348E+03  1.756992E+03  5.571499E-09 -1.459716E-09
        40  15 -7.301375E+02 -1.310131E+06 -4.984647E+03 -1.407342E+03  4.035194E-09 -2.640844E-10
        40  16 -1.283511E+05 -1.827736E+06 -1.248218E+05 -5.960370E+02  1.712067E-09 -8.661240E-10
        40  17 -1.260151E+05 -1.818392E+06 -1.238123E+05  2.796857E+03  5.907873E-09  3.135205E-09
        40  18 -1.245154E+05 -1.809242E+06 -1.238943E+05 -1.371088E+02 -1.200851E-09  8.209963E-09
        40  19  1.283394E+05 -7.922804E+05  1.216432E+05 -2.214925E+03 -1.777484E+04 -1.090896E+03
        40  20  1.260983E+05 -8.014461E+05  1.182901E+05  7.164616E+02 -1.739431E+04 -2.420398E+03
        40  21  1.230374E+05 -8.107900E+05  1.139080E+05 -2.678382E+03 -1.693184E+04 -3.749268E+03
        40  22  3.975430E+00 -1.310131E+06 -1.579602E+03 -1.405205E+03 -1.777539E+04 -1.275689E+03
        40  23  5.110088E+01 -1.310038E+06 -2.751767E+03  1.757029E+03 -1.739465E+04 -2.649394E+03
        40  24 -7.298255E+02 -1.310131E+06 -4.984079E+03 -1.407287E+03 -1.693194E+04 -4.022487E+03
        40  25 -1.283508E+05 -1.827735E+06 -1.248212E+05 -5.960160E+02 -1.777593E+04 -1.460327E+03
        40  26 -1.260148E+05 -1.818392E+06 -1.238117E+05  2.796897E+03 -1.739498E+04 -2.878203E+03
        40  27 -1.245151E+05 -1.809242E+06 -1.238937E+05 -1.370501E+02 -1.693204E+04 -4.295486E+03
        41   1  1.209440E+05 -8.241590E+05  1.093557E+05 -1.806526E+03  1.675037E+04  4.919702E+03
        41   2  1.186394E+05 -8.344431E+05  1.021702E+05  4.415777E+02  1.621708E+04  1.010344E+04
        41   3  1.074681E+05 -8.474764E+05  8.942037E+04 -5.302159E+03  1.503724E+04  1.528422E+04
        41   4  3.736547E+02 -1.310710E+06 -6.398186E+03 -1.767703E+03  1.675091E+04  5.023912E+03
        41   5  9.426882E+02 -1.309306E+06 -1.084686E+04  2.214646E+03  1.621636E+04  1.056047E+04
        41   6 -7.420151E+03 -1.310716E+06 -2.110813E+04 -1.795259E+03  1.503508E+04  1.609417E+04
        41   7 -1.202137E+05 -1.797043E+06 -1.221687E+05 -1.728740E+03  1.675146E+04  5.128040E+03
        41   8 -1.167703E+05 -1.783962E+06 -1.238798E+05  3.986525E+03  1.621565E+04  1.101716E+04
        41   9 -1.223239E+05 -1.773757E+06 -1.316517E+05  1.709188E+03  1.503292E+04  1.690351E+04
        41  10  1.209436E+05 -8.241591E+05  1.093551E+05 -1.806592E+03 -1.031498E-09  5.523779E-09
        41  11  1.186391E+05 -8.344433E+05  1.021695E+05  4.414458E+02 -1.528126E-09  3.633560E-09
        41  12  1.074677E+05 -8.474767E+05  8.941951E+04 -5.302344E+03 -1.031695E-09 -1.754079E-10
        41  13  3.733468E+02 -1.310710E+06 -6.398760E+03 -1.767770E+03  2.756249E-09  5.134185E-11
        41  14  9.423759E+02 -1.309307E+06 -1.084757E+04  2.214508E+03  1.071954E-09 -2.112552E-09
        41  15 -7.420464E+03 -1.310716E+06 -2.110904E+04 -1.795454E+03  1.463692E-09 -4.491626E-10
        41  16 -1.202140E+05 -1.797043E+06 -1.221692E+05 -1.728809E+03 -3.756411E-09 -8.250575E-09
        41  17 -1.167706E+05 -1.783962E+06 -1.238805E+05  3.986381E+03 -1.517081E-09 -9.260721E-09
        41  18 -1.223242E+05 -1.773758E+06 -1.316527E+05  1.708983E+03 -1.489182E-09 -2.888556E-09
        41  19  1.209440E+05 -8.241590E+05  1.093557E+05 -1.806526E+03 -1.675037E+04 -4.919702E+03
        41  20  1.186394E+05 -8.344431E+05  1.021702E+05  4.415777E+02 -1.621708E+04 -1.010344E+04
        41  21  1.074681E+05 -8.474764E+05  8.942037E+04 -5.302159E+03 -1.503724E+04 -1.528422E+04
        41  22  3.736547E+02 -1.310710E+06 -6.398186E+03 -1.767703E+03 -1.675091E+04 -5.023912E+03
        41  23  9.426882E+02 -1.309306E+06 -1.084686E+04  2.214646E+03 -1.621636E+04 -1.056047E+04
        41  24 -7.420151E+03 -1.310716E+06 -2.110813E+04 -1.795259E+03 -1.503508E+04 -1.609417E+04
        41  25 -1.202137E+05 -1.797043E+06 -1.221687E+05 -1.728740E+03 -1.675146E+04 -5.128040E+03
        41  26 -1.167703E+05 -1.783962E+06 -1.238798E+05  3.986525E+03 -1.621565E+04 -1.101716E+04
        41  27 -1.223239E+05 -1.773757E+06 -1.316517E+05  1.709188E+03 -1.503292E+04 -1.690351E+04
        42   1  1.148567E+05 -8.679604E+05  8.036213E+04  7.033202E+03  1.593270E+04  2.197001E+04
        42   2  1.171077E+05 -8.695422E+05  6.130690E+04 -6.177143E+03  1.473220E+04  3.949420E+04
        42   3  2.935115E+04 -8.958398E+05  8.346031E+03 -2.939084E+04  4.432067E+03  5.697850E+04
        42   4  4.016528E+03 -1.315764E+06 -2.594972E+04 -2.123820E+03  1.594034E+04  2.007629E+04
        42   5  9.604808E+03 -1.302988E+06 -4.184975E+04  2.712400E+03  1.472078E+04  4.260464E+04
        42   6 -7.571885E+04 -1.315814E+06 -9.515152E+04 -2.456388E+03  4.399786E+03  6.509312E+04
        42   7 -1.068378E+05 -1.763384E+06 -1.322755E+05 -1.127402E+04  1.594803E+04  1.818392E+04
        42   8 -9.791141E+04 -1.736261E+06 -1.450195E+05  1.159587E+04  1.470945E+04  4.571291E+04
        42   9 -1.807994E+05 -1.735626E+06 -1.986615E+05  2.445996E+04  4.368200E+03  7.320225E+04
        42  10  1.148563E+05 -8.679610E+05  8.036074E+04  7.032920E+03 -8.092515E-10 -6.213838E-10
        42  11  1.171071E+05 -8.695439E+05  6.130356E+04 -6.177612E+03 -1.580450E-09 -1.954419E-09
        42  12  2.935026E+04 -8.958433E+05  8.339885E+03 -2.939104E+04 -1.952891E-09 -1.674009E-09
        42  13  4.016147E+03 -1.315765E+06 -2.595096E+04 -2.124078E+03 -4.233752E-09 -2.744859E-10
        42  14  9.604087E+03 -1.302990E+06 -4.185357E+04  2.711895E+03  7.822703E-10 -2.429006E-09
        42  15 -7.572001E+04 -1.315819E+06 -9.515953E+04 -2.456619E+03 -8.191581E-12 -6.631909E-10
        42  16 -1.068382E+05 -1.763384E+06 -1.322766E+05 -1.127425E+04 -2.400362E-09 -2.606898E-09
        42  17 -9.791221E+04 -1.736263E+06 -1.450238E+05  1.159533E+04 -2.172355E-09 -4.520916E-09
        42  18 -1.808008E+05 -1.735632E+06 -1.986717E+05  2.445970E+04 -6.341064E-11 -1.636733E-09
        42  19  1.148567E+05 -8.679604E+05  8.036213E+04  7.033202E+03 -1.593270E+04 -2.197001E+04
        42  20  1.171077E+05 -8.695422E+05  6.130690E+04 -6.177143E+03 -1.473220E+04 -3.949420E+04
        42  21  2.935115E+04 -8.958398E+05  8.346031E+03 -2.939084E+04 -4.432067E+03 -5.697850E+04
        42  22  4.016528E+03 -1.315764E+06 -2.594972E+04 -2.123820E+03 -1.594034E+04 -2.007629E+04
        42  23  9.604808E+03 -1.302988E+06 -4.184975E+04  2.712400E+03 -1.472078E+04 -4.260464E+04
        42  24 -7.571885E+04 -1.315814E+06 -9.515152E+04 -2.456388E+03 -4.399786E+03 -6.509312E+04
        42  25 -1.068378E+05 -1.763384E+06 -1.322755E+05 -1.127402E+04 -1.594803E+04 -1.818392E+04
        42  26 -9.791141E+04 -1.736261E+06 -1.450195E+05  1.159587E+04 -1.470945E+04 -4.571291E+04
        42  27 -1.807994E+05 -1.735626E+06 -1.986615E+05  2.445996E+04 -4.368200E+03 -7.320225E+04
        43   1  9.372251E+04  9.980838E+05  5.345448E+04 -2.022902E+02  3.279862E+04 -6.150089E+02
        43   2  9.385833E+04  9.981981E+05  5.419767E+04 -1.675257E+02  3.268745E+04 -1.575452E+03
        43   3  9.423208E+04  9.985060E+05  5.562783E+04 -1.133128E+02  3.242826E+04 -2.536003E+03
        43   4 -3.632982E+01  5.816652E+05  6.934207E+02  4.309361E+00  3.280090E+04 -5.244619E+02
        43   5  1.956189E+01  5.815991E+05  1.217101E+03 -5.354951E+00  3.268954E+04 -1.128784E+03
        43   6  2.517260E+02  5.816649E+05  2.180936E+03  4.429540E+00  3.243011E+04 -1.733207E+03
        43   7 -9.380224E+04  1.654244E+05 -5.206823E+04  2.107819E+02  3.280319E+04 -4.339725E+02
        43   8 -9.382630E+04  1.651780E+05 -5.176412E+04  1.567223E+02  3.269164E+04 -6.823996E+02
        43   9 -9.373579E+04  1.650018E+05 -5.126674E+04  1.221118E+02  3.243196E+04 -9.309219E+02
        43  10  9.372136E+04  9.980835E+05  5.345245E+04 -2.022740E+02  4.981468E-10  3.486115E-09
        43  11  9.385718E+04  9.981978E+05  5.419565E+04 -1.674843E+02  2.970080E-09  1.101813E-09
        43  12  9.423095E+04  9.985057E+05  5.562584E+04 -1.132465E+02  8.570660E-10  8.170475E-10
        43  13 -3.748553E+01  5.816649E+05  6.913978E+02  4.323212E+00  1.442761E-09  5.108980E-10
        43  14  1.841374E+01  5.815988E+05  1.215090E+03 -5.325239E+00  2.317817E-09 -1.010165E-09
        43  15  2.505956E+02  5.816646E+05  2.178953E+03  4.474799E+00 -2.541272E-09  6.113289E-10
        43  16 -9.380340E+04  1.654242E+05 -5.207025E+04  2.107934E+02  1.000813E-09 -4.116783E-09
        43  17 -9.382745E+04  1.651777E+05 -5.176613E+04  1.567402E+02 -3.072551E-09 -1.361321E-09
        43  18 -9.373692E+04  1.650015E+05 -5.126872E+04  1.221361E+02 -2.005036E-09 -5.886630E-10
        43  19  9.372251E+04  9.980838E+05  5.345448E+04 -2.022902E+02 -3.279862E+04  6.150089E+02
        43  20  9.385833E+04  9.981981E+05  5.419767E+04 -1.675257E+02 -3.268745E+04  1.575452E+03
        43  21  9.423208E+04  9.985060E+05  5.562783E+04 -1.133128E+02 -3.242826E+04  2.536003E+03
        43  22 -3.632982E+01  5.816652E+05  6.934207E+02  4.309360E+00 -3.280090E+04  5.244619E+02
        43  23  1.956189E+01  5.815991E+05  1.217101E+03 -5.354951E+00 -3.268954E+04  1.128784E+03
        43  24  2.517260E+02  5.816649E+05  2.180936E+03  4.429540E+00 -3.243011E+04  1.733207E+03
        43  25 -9.380224E+04  1.654244E+05 -5.206823E+04  2.107819E+02 -3.280319E+04  4.339725E+02
        43  26 -9.382630E+04  1.651780E+05 -5.176412E+04  1.567223E+02 -3.269164E+04  6.823996E+02
        43  27 -9.373579E+04  1.650018E+05 -5.126674E+04  1.221118E+02 -3.243196E+04  9.309219E+02
        44   1  9.446313E+04  9.988821E+05  5.665668E+04 -2.558470E+02  3.226453E+04 -3.047260E+03
        44   2  9.569404E+04  9.985287E+05  6.038595E+04  9.877332E+02  3.134544E+04 -8.298370E+03
        44   3  9.920728E+04  9.994375E+05  6.810313E+04  2.179490E+03  2.932067E+04 -1.355037E+04
        44   4  3.745382E+02  5.818137E+05  2.896623E+03 -1.159090E+01  3.226629E+04 -2.158852E+03
        44   5  1.306871E+03  5.814121E+05  5.172688E+03  1.534891E+01  3.134541E+04 -4.751167E+03
        44   6  4.061231E+03  5.818122E+05  9.593282E+03 -9.543832E+00  2.931848E+04 -7.344345E+03
        44   7 -9.372125E+04  1.649233E+05 -5.086430E+04  2.325175E+02  3.226805E+04 -1.271010E+03
        44   8 -9.308766E+04  1.644728E+05 -5.004183E+04 -9.563260E+02  3.134536E+04 -1.206231E+03
        44   9 -9.109255E+04  1.643635E+05 -4.891867E+04 -2.197014E+03  2.931625E+04 -1.142305E+03
        44  10  9.446201E+04  9.988819E+05  5.665471E+04 -2.557679E+02  3.001352E-09 -3.151062E-09
        44  11  9.569297E+04  9.985284E+05  6.038398E+04  9.879426E+02  1.509312E-09  3.974189E-10
        44  12  9.920631E+04  9.994370E+05  6.810117E+04  2.179810E+03  2.838715E-09  6.750411E-09
        44  13  3.734186E+02  5.818134E+05  2.894657E+03 -1.153481E+01 -7.684804E-10  6.415667E-10
        44  14  1.305810E+03  5.814118E+05  5.170799E+03  1.546882E+01  7.837656E-10 -1.362307E-09
        44  15  4.060293E+03  5.818119E+05  9.591565E+03 -9.370452E+00  4.618685E-10  7.989917E-10
        44  16 -9.372237E+04  1.649230E+05 -5.086626E+04  2.325505E+02 -3.619737E-09  2.214324E-09
        44  17 -9.308871E+04  1.644726E+05 -5.004368E+04 -9.562956E+02 -4.816636E-09 -9.069544E-10
        44  18 -9.109347E+04  1.643633E+05 -4.892029E+04 -2.196987E+03  1.068659E-09 -6.566198E-09
        44  19  9.446313E+04  9.988821E+05  5.665668E+04 -2.558470E+02 -3.226453E+04  3.047260E+03
        44  20  9.569404E+04  9.985287E+05  6.038595E+04  9.877332E+02 -3.134544E+04  8.298370E+03
        44  21  9.920728E+04  9.994375E+05  6.810313E+04  2.179490E+03 -2.932067E+04  1.355037E+04
        44  22  3.745382E+02  5.818137E+05  2.896623E+03 -1.159090E+01 -3.226629E+04  2.158852E+03
        44  23  1.306871E+03  5.814121E+05  5.172688E+03  1.534891E+01 -3.134541E+04  4.751167E+03
        44  24  4.061231E+03  5.818122E+05  9.593282E+03 -9.543832E+00 -2.931848E+04  7.344345E+03
        44  25 -9.372125E+04  1.649233E+05 -5.086430E+04  2.325175E+02 -3.226805E+04  1.271010E+03
        44  26 -9.308766E+04  1.644728E+05 -5.004183E+04 -9.563260E+02 -3.134536E+04  1.206231E+03
        44  27 -9.109255E+04  1.643635E+05 -4.891867E+04 -2.197014E+03 -2.931625E+04  1.142305E+03
        45   1  1.013397E+05  1.001383E+06  7.357054E+04  1.353943E+03  2.804109E+04 -1.587778E+04
        45   2  1.136127E+05  9.970339E+05  9.500998E+04  1.599927E+04  2.111728E+04 -4.767484E+04
        45   3  1.472963E+05  1.002178E+06  1.424831E+05  2.999892E+04  6.005127E+03 -7.948006E+04
        45   4  5.599400E+03  5.829862E+05  1.286522E+04 -1.434952E+02  2.803811E+04 -9.019372E+03
        45   5  1.605276E+04  5.799389E+05  2.377601E+04  1.930857E+02  2.109945E+04 -2.113577E+04
        45   6  4.450999E+04  5.829751E+05  4.707017E+04 -1.163057E+02  5.971389E+03 -3.325950E+04
        45   7 -9.014895E+04  1.647653E+05 -4.784279E+04 -1.639853E+03  2.803510E+04 -2.165389E+03
        45   8 -8.151507E+04  1.630167E+05 -4.746096E+04 -1.560213E+04  2.108026E+04  5.386071E+03
        45   9 -5.828389E+04  1.639420E+05 -4.834564E+04 -3.021102E+04  5.933162E+03  1.293016E+04
        45  10  1.013388E+05  1.001383E+06  7.356859E+04  1.354301E+03  3.593059E-09  1.841591E-09
        45  11  1.136116E+05  9.970313E+05  9.500488E+04  1.600008E+04  4.841516E-09 -3.102726E-09
        45  12  1.472946E+05  1.002171E+06  1.424712E+05  2.999931E+04  1.051342E-09 -4.599714E-09
        45  13  5.598534E+03  5.829859E+05  1.286359E+04 -1.432915E+02  6.713648E-10  7.876971E-10
        45  14  1.605216E+04  5.799383E+05  2.377433E+04  1.934448E+02  3.081459E-09 -1.464170E-09
        45  15  4.450966E+04  5.829739E+05  4.706803E+04 -1.161458E+02  1.065747E-09  1.020836E-09
        45  16 -9.014980E+04  1.647651E+05 -4.784428E+04 -1.639804E+03  3.448305E-10 -2.938711E-09
        45  17 -8.151556E+04  1.630165E+05 -4.746185E+04 -1.560222E+04  3.158751E-10  2.687635E-09
        45  18 -5.828397E+04  1.639418E+05 -4.834602E+04 -3.021108E+04  1.076276E-09  4.879601E-09
        45  19  1.013397E+05  1.001383E+06  7.357054E+04  1.353943E+03 -2.804109E+04  1.587778E+04
        45  20  1.136127E+05  9.970339E+05  9.500998E+04  1.599927E+04 -2.111728E+04  4.767484E+04
        45  21  1.472963E+05  1.002178E+06  1.424831E+05  2.999892E+04 -6.005127E+03  7.948006E+04
        45  22  5.599400E+03  5.829862E+05  1.286522E+04 -1.434952E+02 -2.803811E+04  9.019372E+03
        45  23  1.605276E+04  5.799389E+05  2.377601E+04  1.930857E+02 -2.109945E+04  2.113577E+04
        45  24  4.450999E+04  5.829751E+05  4.707017E+04 -1.163057E+02 -5.971389E+03  3.325950E+04
        45  25 -9.014895E+04  1.647653E+05 -4.784279E+04 -1.639853E+03 -2.803510E+04  2.165389E+03
        45  26 -8.151507E+04  1.630167E+05 -4.746096E+04 -1.560213E+04 -2.108026E+04 -5.386071E+03
        45  27 -5.828389E+04  1.639420E+05 -4.834564E+04 -3.021102E+04 -5.933162E+03 -1.293016E+04
        46   1 -7.724152E+06 -2.267573E+06 -1.304776E+06 -2.797322E+06 -6.766214E+05 -2.423753E+05
        46   2 -7.548743E+06 -1.251662E+06 -6.723390E+05 -2.881569E+06 -4.363437E+05 -1.267032E+05
        46   3 -7.720590E+06 -1.202652E+06 -4.815410E+05 -2.766282E+06 -1.868002E+05 -3.552615E+04
        46   4 -6.923467E+06 -1.723616E+06 -1.037776E+06 -2.334480E+06 -6.596445E+05 -2.363031E+05
        46   5 -6.695604E+06 -8.595707E+05 -4.335194E+05 -2.577590E+06 -4.316839E+05 -1.250132E+05
        46   6 -6.812048E+06 -9.592878E+05 -2.606097E+05 -2.621329E+06 -1.944452E+05 -3.836680E+04
        46   7 -6.122002E+06 -1.179050E+06 -7.708238E+05 -1.870948E+06 -6.426429E+05 -2.302045E+05
        46   8 -5.841733E+06 -4.673252E+05 -1.947676E+05 -2.273193E+06 -4.270167E+05 -1.233191E+05
        46   9 -5.902685E+06 -7.159472E+05 -3.973282E+04 -2.476228E+06 -2.021024E+05 -4.120897E+04
        46  10 -7.724665E+06 -2.267761E+06 -1.305761E+06 -2.797456E+06 -1.009926E-09  5.976655E-10
        46  11 -7.548954E+06 -1.251732E+06 -6.727324E+05 -2.881614E+06  1.445821E-09  1.214429E-09
        46  12 -7.720628E+06 -1.202662E+06 -4.816099E+05 -2.766288E+06 -8.419382E-10  8.517512E-10
        46  13 -6.923955E+06 -1.723796E+06 -1.038710E+06 -2.334606E+06 -1.313117E-09  9.363456E-11
        46  14 -6.695810E+06 -8.596385E+05 -4.339037E+05 -2.577634E+06 -1.958495E-09  7.195813E-10
        46  15 -6.812089E+06 -9.592997E+05 -2.606845E+05 -2.621336E+06  1.803983E-10  1.586817E-10
        46  16 -6.122463E+06 -1.179220E+06 -7.717090E+05 -1.871067E+06 -2.615806E-09  5.001054E-10
        46  17 -5.841935E+06 -4.673913E+05 -1.951430E+05 -2.273235E+06 -2.787017E-09 -6.331160E-10
        46  18 -5.902730E+06 -7.159602E+05 -3.981363E+04 -2.476234E+06 -3.954479E-09  6.058645E-10
        46  19 -7.724152E+06 -2.267573E+06 -1.304776E+06 -2.797322E+06  6.766214E+05  2.423753E+05
        46  20 -7.548743E+06 -1.251662E+06 -6.723390E+05 -2.881569E+06  4.363437E+05  1.267032E+05
        46  21 -7.720590E+06 -1.202652E+06 -4.815410E+05 -2.766282E+06  1.868002E+05  3.552615E+04
        46  22 -6.923467E+06 -1.723616E+06 -1.037776E+06 -2.334480E+06  6.596445E+05  2.363031E+05
        46  23 -6.695604E+06 -8.595707E+05 -4.335194E+05 -2.577590E+06  4.316839E+05  1.250132E+05
        46  24 -6.812048E+06 -9.592878E+05 -2.606097E+05 -2.621329E+06  1.944452E+05  3.836680E+04
        46  25 -6.122002E+06 -1.179050E+06 -7.708238E+05 -1.870948E+06  6.426429E+05  2.302045E+05
        46  26 -5.841733E+06 -4.673252E+05 -1.947676E+05 -2.273193E+06  4.270167E+05  1.233191E+05
        46  27 -5.902685E+06 -7.159472E+05 -3.973282E+04 -2.476228E+06  2.021024E+05  4.120897E+04
        47   1 -7.485966E+06 -1.358685E+06 -4.040279E+05 -2.780239E+06 -1.553019E+05 -2.995048E+04
        47   2 -7.401784E+06 -1.197796E+06 -2.691643E+05 -2.738788E+06 -1.006260E+05 -1.199158E+04
        47   3 -7.310870E+06 -1.184158E+06 -2.011496E+05 -2.730741E+06 -4.513970E+04  3.828312E+03
        47   4 -6.775738E+06 -1.068117E+06 -2.115313E+05 -2.564018E+06 -1.560250E+05 -3.023116E+04
        47   5 -6.773424E+06 -9.550267E+05 -1.019718E+05 -2.562076E+06 -1.023856E+05 -1.265453E+04
        47   6 -6.764132E+06 -9.889132E+05 -5.836868E+04 -2.593546E+06 -4.794415E+04  2.777527E+03
        47   7 -6.065010E+06 -7.774919E+05 -1.907965E+04 -2.347561E+06 -1.567488E+05 -3.051220E+04
        47   8 -6.144676E+06 -7.122280E+05  6.518644E+04 -2.385197E+06 -1.041471E+05 -1.331824E+04
        47   9 -6.217101E+06 -7.936584E+05  8.438712E+04 -2.456244E+06 -5.075133E+04  1.725846E+03
        47  10 -7.485992E+06 -1.358693E+06 -4.040756E+05 -2.780243E+06 -1.199158E-09 -3.476579E-10
        47  11 -7.401795E+06 -1.197799E+06 -2.691839E+05 -2.738789E+06 -3.893146E-09 -6.855958E-10
        47  12 -7.310873E+06 -1.184158E+06 -2.011535E+05 -2.730741E+06  6.704757E-10 -6.434077E-10
        47  13 -6.775764E+06 -1.068125E+06 -2.115794E+05 -2.564022E+06 -1.677750E-10  2.579021E-10
        47  14 -6.773435E+06 -9.550297E+05 -1.019920E+05 -2.562077E+06 -2.568738E-09  7.395527E-11
        47  15 -6.764135E+06 -9.889139E+05 -5.837305E+04 -2.593546E+06  2.223267E-09 -6.542045E-10
        47  16 -6.065037E+06 -7.774996E+05 -1.912810E+04 -2.347565E+06 -1.455726E-09  2.216572E-10
        47  17 -6.144688E+06 -7.122311E+05  6.516551E+04 -2.385198E+06 -1.691225E-09 -4.899797E-10
        47  18 -6.217104E+06 -7.936591E+05  8.438223E+04 -2.456244E+06 -6.371077E-10 -1.522804E-09
        47  19 -7.485966E+06 -1.358685E+06 -4.040279E+05 -2.780239E+06  1.553019E+05  2.995048E+04
        47  20 -7.401784E+06 -1.197796E+06 -2.691643E+05 -2.738788E+06  1.006260E+05  1.199158E+04
        47  21 -7.310870E+06 -1.184158E+06 -2.011496E+05 -2.730741E+06  4.513970E+04 -3.828312E+03
        47  22 -6.775738E+06 -1.068117E+06 -2.115313E+05 -2.564018E+06  1.560250E+05  3.023116E+04
        47  23 -6.773424E+06 -9.550267E+05 -1.019718E+05 -2.562076E+06  1.023856E+05  1.265453E+04
        47  24 -6.764132E+06 -9.889132E+05 -5.836868E+04 -2.593546E+06  4.794415E+04 -2.777527E+03
        47  25 -6.065010E+06 -7.774919E+05 -1.907965E+04 -2.347561E+06  1.567488E+05  3.051220E+04
        47  26 -6.144676E+06 -7.122280E+05  6.518644E+04 -2.385197E+06  1.041471E+05  1.331824E+04
        47  27 -6.217101E+06 -7.936584E+05  8.438712E+04 -2.456244E+06  5.075133E+04 -1.725846E+03
        48   1 -7.159693E+06 -1.154348E+06 -1.515196E+05 -2.699910E+06 -3.616268E+04  3.782728E+03
        48   2 -7.077411E+06 -1.074142E+06 -1.012382E+05 -2.638404E+06 -2.227566E+04  3.584510E+03
        48   3 -6.942610E+06 -1.061959E+06 -6.277911E+04 -2.641141E+06 -8.276550E+03  3.084193E+03
        48   4 -6.758255E+06 -1.001410E+06 -4.543956E+04 -2.589139E+06 -3.852157E+04  2.898844E+03
        48   5 -6.783913E+06 -9.633467E+05 -2.365267E+04 -2.558519E+06 -2.478156E+04  2.646584E+03
        48   6 -6.757030E+06 -9.932722E+05 -1.356253E+04 -2.592147E+06 -1.093178E+04  2.091407E+03
        48   7 -6.356661E+06 -8.484620E+05  6.062622E+04 -2.478302E+06 -4.088215E+04  2.014314E+03
        48   8 -6.490331E+06 -8.525463E+05  5.392541E+04 -2.478600E+06 -2.728878E+04  1.708164E+03
        48   9 -6.571416E+06 -9.245833E+05  3.565124E+04 -2.543139E+06 -1.358789E+04  1.098302E+03
        48  10 -7.159694E+06 -1.154348E+06 -1.515221E+05 -2.699910E+06 -1.196743E-09 -1.825808E-09
        48  11 -7.077412E+06 -1.074142E+06 -1.012392E+05 -2.638404E+06  9.305042E-10 -2.083330E-10
        48  12 -6.942610E+06 -1.061959E+06 -6.277926E+04 -2.641141E+06 -7.377054E-10  1.348775E-09
        48  13 -6.758257E+06 -1.001411E+06 -4.544239E+04 -2.589139E+06 -1.425771E-09 -1.712990E-09
        48  14 -6.783914E+06 -9.633468E+05 -2.365385E+04 -2.558519E+06 -1.302944E-09 -4.638611E-10
        48  15 -6.757030E+06 -9.932722E+05 -1.356276E+04 -2.592147E+06  6.178484E-11  2.803090E-10
        48  16 -6.356663E+06 -8.484624E+05  6.062305E+04 -2.478302E+06 -8.010448E-10 -7.258199E-10
        48  17 -6.490331E+06 -8.525465E+05  5.392399E+04 -2.478600E+06 -2.919956E-10 -2.137286E-10
        48  18 -6.571416E+06 -9.245833E+05  3.565089E+04 -2.543139E+06 -1.315401E-09  1.760605E-10
        48  19 -7.159693E+06 -1.154348E+06 -1.515196E+05 -2.699910E+06  3.616268E+04 -3.782728E+03
        48  20 -7.077411E+06 -1.074142E+06 -1.012382E+05 -2.638404E+06  2.227566E+04 -3.584510E+03
        48  21 -6.942610E+06 -1.061959E+06 -6.277911E+04 -2.641141E+06  8.276550E+03 -3.084193E+03
        48  22 -6.758255E+06 -1.001410E+06 -4.543956E+04 -2.589139E+06  3.852157E+04 -2.898844E+03
        48  23 -6.783913E+06 -9.633467E+05 -2.365267E+04 -2.558519E+06  2.478156E+04 -2.646584E+03
        48  24 -6.757030E+06 -9.932722E+05 -1.356253E+04 -2.592147E+06  1.093178E+04 -2.091407E+03
        48  25 -6.356661E+06 -8.484620E+05  6.062622E+04 -2.478302E+06  4.088215E+04 -2.014314E+03
        48  26 -6.490331E+06 -8.525463E+05  5.392541E+04 -2.478600E+06  2.728878E+04 -1.708164E+03
        48  27 -6.571416E+06 -9.245833E+05  3.565124E+04 -2.543139E+06  1.358789E+04 -1.098302E+03
        49   1 -6.792026E+06 -1.008262E+06 -1.969375E+04 -2.601794E+06 -5.201545E+03  7.926561E+02
        49   2 -6.708851E+06 -9.351211E+05  1.371681E+04 -2.537078E+06 -4.959426E+01 -3.122805E+03
        49   3 -6.566908E+06 -9.228085E+05  4.438203E+04 -2.540756E+06  5.090106E+03 -7.001101E+03
        49   4 -6.756069E+06 -9.947176E+05 -1.060822E+04 -2.591931E+06 -7.835018E+03 -1.917629E+02
        49   5 -6.785394E+06 -9.639584E+05 -6.502341E+03 -2.557858E+06 -2.664278E+03 -4.100474E+03
        49   6 -6.755966E+06 -9.940319E+05 -5.155203E+03 -2.592185E+06  2.493540E+03 -7.972207E+03
        49   7 -6.720111E+06 -9.811733E+05 -1.522768E+03 -2.582068E+06 -1.046866E+04 -1.176246E+03
        49   8 -6.861931E+06 -9.927953E+05 -2.672194E+04 -2.578636E+06 -5.278600E+03 -5.078007E+03
        49   9 -6.944989E+06 -1.065253E+06 -5.469530E+04 -2.643599E+06 -1.021418E+02 -8.942981E+03
        49  10 -6.792026E+06 -1.008262E+06 -1.969380E+04 -2.601794E+06 -8.186119E-10  1.755938E-09
        49  11 -6.708851E+06 -9.351211E+05  1.371679E+04 -2.537078E+06  1.252143E-09  2.881516E-10
        49  12 -6.566908E+06 -9.228086E+05  4.438189E+04 -2.540756E+06 -2.863721E-09 -2.728980E-09
        49  13 -6.756069E+06 -9.947176E+05 -1.060834E+04 -2.591931E+06  8.916560E-10  2.883706E-10
        49  14 -6.785394E+06 -9.639584E+05 -6.502386E+03 -2.557858E+06  2.324266E-09  4.259377E-10
        49  15 -6.755966E+06 -9.940320E+05 -5.155334E+03 -2.592185E+06 -2.098862E-09 -5.988401E-10
        49  16 -6.720111E+06 -9.811733E+05 -1.522979E+03 -2.582068E+06  1.875051E-09  1.437924E-09
        49  17 -6.861931E+06 -9.927953E+05 -2.672204E+04 -2.578636E+06  3.535005E-09  2.119695E-09
        49  18 -6.944989E+06 -1.065253E+06 -5.469545E+04 -2.643599E+06 -1.319972E-09  2.012186E-09
        49  19 -6.792026E+06 -1.008262E+06 -1.969375E+04 -2.601794E+06  5.201545E+03 -7.926561E+02
        49  20 -6.708851E+06 -9.351211E+05  1.371681E+04 -2.537078E+06  4.959426E+01  3.122805E+03
        49  21 -6.566908E+06 -9.228085E+05  4.438203E+04 -2.540756E+06 -5.090106E+03  7.001101E+03
        49  22 -6.756069E+06 -9.947176E+05 -1.060822E+04 -2.591931E+06  7.835018E+03  1.917629E+02
        49  23 -6.785394E+06 -9.639584E+05 -6.502341E+03 -2.557858E+06  2.664278E+03  4.100474E+03
        49  24 -6.755966E+06 -9.940319E+05 -5.155203E+03 -2.592185E+06 -2.493540E+03  7.972207E+03
        49  25 -6.720111E+06 -9.811733E+05 -1.522768E+03 -2.582068E+06  1.046866E+04  1.176246E+03
        49  26 -6.861931E+06 -9.927953E+05 -2.672194E+04 -2.578636E+06  5.278600E+03  5.078007E+03
        49  27 -6.944989E+06 -1.065253E+06 -5.469530E+04 -2.643599E+06  1.021418E+02  8.942981E+03
        50   1 -6.422118E+06 -8.670715E+05  8.367616E+04 -2.500424E+06  6.994958E+03 -9.638601E+03
        50   2 -6.345420E+06 -7.999877E+05  1.093633E+05 -2.440175E+06  1.194026E+04 -1.332783E+04
        50   3 -6.214086E+06 -7.892646E+05  1.324553E+05 -2.443103E+06  1.678939E+04 -1.674387E+04
        50   4 -6.756908E+06 -9.930242E+05 -5.138261E+03 -2.591043E+06  4.436066E+03 -1.059621E+04
        50   5 -6.784284E+06 -9.652662E+05 -6.529102E+03 -2.559293E+06  9.518366E+03 -1.423555E+04
        50   6 -6.757061E+06 -9.939015E+05 -1.062557E+04 -2.590728E+06  1.450386E+04 -1.760178E+04
        50   7 -7.091589E+06 -1.118971E+06 -9.396270E+04 -2.681618E+06  1.878697E+03 -1.155325E+04
        50   8 -7.222960E+06 -1.130533E+06 -1.224383E+05 -2.678334E+06  7.098365E+03 -1.514255E+04
        50   9 -7.299749E+06 -1.198520E+06 -1.537319E+05 -2.738235E+06  1.222054E+04 -1.845885E+04
        50  10 -6.422118E+06 -8.670716E+05  8.367589E+04 -2.500424E+06 -2.461347E-09 -2.196742E-09
        50  11 -6.345420E+06 -7.999880E+05  1.093627E+05 -2.440175E+06 -9.096194E-10 -5.719354E-10
        50  12 -6.214086E+06 -7.892649E+05  1.324543E+05 -2.443103E+06 -5.505958E-10 -1.652453E-09
        50  13 -6.756908E+06 -9.930243E+05 -5.138508E+03 -2.591043E+06 -9.076093E-11  2.986999E-10
        50  14 -6.784284E+06 -9.652665E+05 -6.529651E+03 -2.559293E+06 -4.301446E-11 -3.410740E-10
        50  15 -6.757062E+06 -9.939019E+05 -1.062655E+04 -2.590728E+06  1.909375E-09  3.983348E-10
        50  16 -7.091589E+06 -1.118971E+06 -9.396295E+04 -2.681618E+06  8.627736E-10  1.257862E-09
        50  17 -7.222960E+06 -1.130534E+06 -1.224388E+05 -2.678334E+06  4.391136E-09  4.138144E-10
        50  18 -7.299749E+06 -1.198521E+06 -1.537328E+05 -2.738235E+06  1.647052E-09 -4.512123E-10
        50  19 -6.422118E+06 -8.670715E+05  8.367616E+04 -2.500424E+06 -6.994958E+03  9.638601E+03
        50  20 -6.345420E+06 -7.999877E+05  1.093633E+05 -2.440175E+06 -1.194026E+04  1.332783E+04
        50  21 -6.214086E+06 -7.892646E+05  1.324553E+05 -2.443103E+06 -1.678939E+04  1.674387E+04
        50  22 -6.756908E+06 -9.930242E+05 -5.138261E+03 -2.591043E+06 -4.436066E+03  1.059621E+04
        50  23 -6.784284E+06 -9.652662E+05 -6.529102E+03 -2.559293E+06 -9.518366E+03  1.423555E+04
        50  24 -6.757061E+06 -9.939015E+05 -1.062557E+04 -2.590728E+06 -1.450386E+04  1.760178E+04
        50  25 -7.091589E+06 -1.118971E+06 -9.396270E+04 -2.681618E+06 -1.878697E+03  1.155325E+04
        50  26 -7.222960E+06 -1.130533E+06 -1.224383E+05 -2.678334E+06 -7.098365E+03  1.514255E+04
        50  27 -7.299749E+06 -1.198520E+06 -1.537319E+05 -2.738235E+06 -1.222054E+04  1.845885E+04
        51   1 -6.089096E+06 -7.388895E+05  1.637506E+05 -2.407770E+06  1.967739E+04 -1.860078E+04
        51   2 -6.026375E+06 -6.821952E+05  1.755784E+05 -2.357003E+06  3.290572E+04 -1.826920E+04
        51   3 -5.923186E+06 -6.805696E+05  1.760801E+05 -2.355444E+06  4.591745E+04 -1.733617E+04
        51   4 -6.759825E+06 -9.905533E+05 -1.355648E+04 -2.588794E+06  1.743668E+04 -1.944305E+04
        51   5 -6.780656E+06 -9.671083E+05 -2.373540E+04 -2.562658E+06  3.095782E+04 -1.900358E+04
        51   6 -6.761088E+06 -9.988039E+05 -4.548521E+04 -2.585736E+06  4.426053E+04 -1.796300E+04
        51   7 -7.430111E+06 -1.242190E+06 -1.909020E+05 -2.769640E+06  1.519865E+04 -2.028433E+04
        51   8 -7.534379E+06 -1.251986E+06 -2.230985E+05 -2.768084E+06  2.901254E+04 -1.973698E+04
        51   9 -7.598306E+06 -1.316993E+06 -2.671121E+05 -2.815744E+06  4.260606E+04 -1.858890E+04
        51  10 -6.089096E+06 -7.388900E+05  1.637493E+05 -2.407769E+06  1.519895E-09 -6.848810E-10
        51  11 -6.026376E+06 -6.821959E+05  1.755758E+05 -2.357002E+06  1.236630E-09 -4.371067E-10
        51  12 -5.923188E+06 -6.805705E+05  1.760756E+05 -2.355444E+06 -2.528114E-09 -1.533399E-09
        51  13 -6.759825E+06 -9.905538E+05 -1.355776E+04 -2.588794E+06 -4.845942E-10 -6.888411E-10
        51  14 -6.780657E+06 -9.671090E+05 -2.373789E+04 -2.562657E+06 -1.368992E-09 -2.105625E-10
        51  15 -6.761091E+06 -9.988047E+05 -4.548952E+04 -2.585736E+06  3.040587E-10 -1.487254E-09
        51  16 -7.430112E+06 -1.242191E+06 -1.909032E+05 -2.769640E+06  1.759236E-09 -1.292629E-09
        51  17 -7.534380E+06 -1.251987E+06 -2.231008E+05 -2.768084E+06 -9.863812E-10 -9.666127E-10
        51  18 -7.598308E+06 -1.316994E+06 -2.671162E+05 -2.815743E+06 -3.919900E-10 -6.473762E-10
        51  19 -6.089096E+06 -7.388895E+05  1.637506E+05 -2.407770E+06 -1.967739E+04  1.860078E+04
        51  20 -6.026375E+06 -6.821952E+05  1.755784E+05 -2.357003E+06 -3.290572E+04  1.826920E+04
        51  21 -5.923186E+06 -6.805696E+05  1.760801E+05 -2.355444E+06 -4.591745E+04  1.733617E+04
        51  22 -6.759825E+06 -9.905533E+05 -1.355648E+04 -2.588794E+06 -1.743668E+04  1.944305E+04
        51  23 -6.780656E+06 -9.671083E+05 -2.373540E+04 -2.562658E+06 -3.095782E+04  1.900358E+04
        51  24 -6.761088E+06 -9.988039E+05 -4.548521E+04 -2.585736E+06 -4.426053E+04  1.796300E+04
        51  25 -7.430111E+06 -1.242190E+06 -1.909020E+05 -2.769640E+06 -1.519865E+04  2.028433E+04
        51  26 -7.534379E+06 -1.251986E+06 -2.230985E+05 -2.768084E+06 -2.901254E+04  1.973698E+04
        51  27 -7.598306E+06 -1.316993E+06 -2.671121E+05 -2.815744E+06 -4.260606E+04  1.858890E+04
        52   1 -5.826641E+06 -6.396660E+05  1.886550E+05 -2.342594E+06  5.549818E+04 -1.621872E+04
        52   2 -5.782490E+06 -5.819621E+05  1.595193E+05 -2.292999E+06  1.081279E+05  4.934398E+02
        52   3 -5.750294E+06 -6.509181E+05  6.560599E+04 -2.253560E+06  1.597761E+05  1.982779E+04
        52   4 -6.768508E+06 -9.847276E+05 -5.842124E+04 -2.588385E+06  5.338425E+04 -1.701785E+04
        52   5 -6.768239E+06 -9.607936E+05 -1.021563E+05 -2.568462E+06  1.072735E+05  1.651616E+02
        52   6 -6.780248E+06 -1.063879E+06 -2.117577E+05 -2.558688E+06  1.601764E+05  1.996724E+04
        52   7 -7.709508E+06 -1.329748E+06 -3.055731E+05 -2.833841E+06  5.127383E+04 -1.781576E+04
        52   8 -7.753035E+06 -1.339555E+06 -3.639163E+05 -2.843522E+06  1.064206E+05 -1.625787E+02
        52   9 -7.809156E+06 -1.476736E+06 -4.892155E+05 -2.863339E+06  1.605758E+05  2.010628E+04
        52  10 -5.826645E+06 -6.396671E+05  1.886487E+05 -2.342593E+06 -6.792504E-10 -9.190024E-10
        52  11 -5.782502E+06 -5.819653E+05  1.594971E+05 -2.292999E+06  1.552468E-09  1.132290E-09
        52  12 -5.750322E+06 -6.509254E+05  6.555680E+04 -2.253562E+06 -1.379699E-09  1.014943E-09
        52  13 -6.768512E+06 -9.847287E+05 -5.842718E+04 -2.588384E+06  7.115382E-10 -2.157467E-10
        52  14 -6.768252E+06 -9.607967E+05 -1.021781E+05 -2.568462E+06  2.863448E-09  2.865454E-10
        52  15 -6.780276E+06 -1.063886E+06 -2.118072E+05 -2.558691E+06  3.289512E-09  2.545730E-10
        52  16 -7.709511E+06 -1.329749E+06 -3.055787E+05 -2.833840E+06  2.530264E-09  2.311095E-10
        52  17 -7.753047E+06 -1.339558E+06 -3.639378E+05 -2.843522E+06  2.003042E-09 -1.043484E-09
        52  18 -7.809184E+06 -1.476743E+06 -4.892654E+05 -2.863342E+06  4.313884E-09  1.380556E-09
        52  19 -5.826641E+06 -6.396660E+05  1.886550E+05 -2.342594E+06 -5.549818E+04  1.621872E+04
        52  20 -5.782490E+06 -5.819621E+05  1.595193E+05 -2.292999E+06 -1.081279E+05 -4.934398E+02
        52  21 -5.750294E+06 -6.509181E+05  6.560599E+04 -2.253560E+06 -1.597761E+05 -1.982779E+04
        52  22 -6.768508E+06 -9.847276E+05 -5.842124E+04 -2.588385E+06 -5.338425E+04  1.701785E+04
        52  23 -6.768239E+06 -9.607936E+05 -1.021563E+05 -2.568462E+06 -1.072735E+05 -1.651616E+02
        52  24 -6.780248E+06 -1.063879E+06 -2.117577E+05 -2.558688E+06 -1.601764E+05 -1.996724E+04
        52  25 -7.709508E+06 -1.329748E+06 -3.055731E+05 -2.833841E+06 -5.127383E+04  1.781576E+04
        52  26 -7.753035E+06 -1.339555E+06 -3.639163E+05 -2.843522E+06 -1.064206E+05  1.625787E+02
        52  27 -7.809156E+06 -1.476736E+06 -4.892155E+05 -2.863339E+06 -1.605758E+05 -2.010628E+04
        53   1 -5.644934E+06 -6.102155E+05  2.947403E+04 -2.396218E+06  2.057917E+05  3.168760E+04
        53   2 -5.619690E+06 -3.905766E+05 -1.380381E+05 -2.220432E+06  4.282648E+05  1.160283E+05
        53   3 -5.961349E+06 -1.105446E+06 -7.254844E+05 -1.815116E+06  6.400586E+05  2.285600E+05
        53   4 -6.817495E+06 -9.540891E+05 -2.609082E+05 -2.615122E+06  1.983503E+05  2.890413E+04
        53   5 -6.688763E+06 -8.666535E+05 -4.340721E+05 -2.585612E+06  4.348316E+05  1.184541E+05
        53   6 -6.930460E+06 -1.717653E+06 -1.038942E+06 -2.326357E+06  6.606572E+05  2.360772E+05
        53   7 -7.988702E+06 -1.297988E+06 -5.513896E+05 -2.833709E+06  1.909242E+05  2.612343E+04
        53   8 -7.756695E+06 -1.342525E+06 -7.302111E+05 -2.950171E+06  4.413854E+05  1.208730E+05
        53   9 -7.898490E+06 -2.329166E+06 -1.352479E+06 -2.836698E+06  6.812196E+05  2.435599E+05
        53  10 -5.644981E+06 -6.102281E+05  2.939174E+04 -2.396223E+06 -7.875338E-10  2.580543E-10
        53  11 -5.619892E+06 -3.906411E+05 -1.384120E+05 -2.220472E+06 -2.293370E-09  1.864025E-09
        53  12 -5.961807E+06 -1.105614E+06 -7.263616E+05 -1.815235E+06  5.019880E-11  6.283048E-11
        53  13 -6.817538E+06 -9.541007E+05 -2.609846E+05 -2.615127E+06  2.745262E-10  1.980323E-09
        53  14 -6.688971E+06 -8.667203E+05 -4.344585E+05 -2.585654E+06  1.344022E-09 -5.127317E-09
        53  15 -6.930948E+06 -1.717832E+06 -1.039879E+06 -2.326483E+06  3.008928E-09 -8.209520E-10
        53  16 -7.988742E+06 -1.297999E+06 -5.514604E+05 -2.833713E+06  7.150361E-11  1.320156E-09
        53  17 -7.756911E+06 -1.342594E+06 -7.306103E+05 -2.950214E+06  1.137035E-09  7.872557E-10
        53  18 -7.899010E+06 -2.329357E+06 -1.353477E+06 -2.836833E+06 -5.196725E-10 -6.020074E-10
        53  19 -5.644934E+06 -6.102155E+05  2.947403E+04 -2.396218E+06 -2.057917E+05 -3.168760E+04
        53  20 -5.619690E+06 -3.905766E+05 -1.380381E+05 -2.220432E+06 -4.282648E+05 -1.160283E+05
        53  21 -5.961349E+06 -1.105446E+06 -7.254844E+05 -1.815116E+06 -6.400586E+05 -2.285600E+05
        53  22 -6.817495E+06 -9.540891E+05 -2.609082E+05 -2.615122E+06 -1.983503E+05 -2.890413E+04
        53  23 -6.688763E+06 -8.666535E+05 -4.340721E+05 -2.585612E+06 -4.348316E+05 -1.184541E+05
        53  24 -6.930460E+06 -1.717653E+06 -1.038942E+06 -2.326357E+06 -6.606572E+05 -2.360772E+05
        53  25 -7.988702E+06 -1.297988E+06 -5.513896E+05 -2.833709E+06 -1.909242E+05 -2.612343E+04
        53  26 -7.756695E+06 -1.342525E+06 -7.302111E+05 -2.950171E+06 -4.413854E+05 -1.208730E+05
        53  27 -7.898490E+06 -2.329166E+06 -1.352479E+06 -2.836698E+06 -6.812196E+05 -2.435599E+05
        54   1 -1.379066E+06 -2.042354E+05 -1.639648E+05 -1.907287E+03  9.527064E+04  1.501331E+04
        54   2 -1.318049E+06 -3.392932E+05 -2.308173E+05 -5.697850E+03  7.089520E+04  4.473743E+04
        54   3 -1.210269E+06 -3.084025E+05 -2.399162E+05 -6.633466E+04  4.663927E+04  4.296642E+04
        54   4  2.617771E+03  1.399385E+05  1.763807E+05 -4.515017E+04  1.205682E+05  1.510646E+04
        54   5 -2.220674E+04 -1.837130E+04  7.738347E+04 -1.645380E+04  7.875851E+04  4.475606E+04
        54   6  2.656658E+03 -7.892910E+03  4.815911E+04 -4.459373E+04  3.707301E+04  4.293712E+04
        54   7  1.386047E+06  4.839782E+05  5.165887E+05 -8.849130E+04  1.459218E+05  1.519599E+04
        54   8  1.275179E+06  3.024301E+05  3.854671E+05 -2.723362E+04  8.663804E+04  4.477440E+04
        54   9  1.216936E+06  2.925124E+05  3.361323E+05 -2.281087E+04  2.748808E+04  4.290717E+04
        54  10 -1.379076E+06 -2.042380E+05 -1.639823E+05 -1.908439E+03  4.845749E-10  1.182946E-09
        54  11 -1.318055E+06 -3.392967E+05 -2.308305E+05 -5.700407E+03 -1.039711E-09 -1.613749E-09
        54  12 -1.210272E+06 -3.084051E+05 -2.399238E+05 -6.633627E+04 -1.013967E-09 -4.369625E-10
        54  13  2.602102E+03  1.399344E+05  1.763529E+05 -4.515164E+04  2.190180E-09  5.231327E-10
        54  14 -2.221394E+04 -1.837512E+04  7.736805E+04 -1.645664E+04  9.485253E-10 -4.700592E-09
        54  15  2.654687E+03 -7.895259E+03  4.815307E+04 -4.459501E+04 -3.680125E-10 -4.817177E-10
        54  16  1.386024E+06  4.839722E+05  5.165484E+05 -8.849309E+04  1.151546E-09 -4.779672E-10
        54  17  1.275171E+06  3.024260E+05  3.854492E+05 -2.723674E+04  4.460943E-10 -1.139237E-09
        54  18  1.216934E+06  2.925102E+05  3.361274E+05 -2.281182E+04 -1.410057E-10 -1.906835E-09
        54  19 -1.379066E+06 -2.042354E+05 -1.639648E+05 -1.907287E+03 -9.527064E+04 -1.501331E+04
        54  20 -1.318049E+06 -3.392932E+05 -2.308173E+05 -5.697850E+03 -7.089520E+04 -4.473743E+04
        54  21 -1.210269E+06 -3.084025E+05 -2.399162E+05 -6.633466E+04 -4.663927E+04 -4.296642E+04
        54  22  2.617771E+03  1.399385E+05  1.763807E+05 -4.515017E+04 -1.205682E+05 -1.510646E+04
        54  23 -2.220674E+04 -1.837130E+04  7.738347E+04 -1.645380E+04 -7.875851E+04 -4.475606E+04
        54  24  2.656658E+03 -7.892910E+03  4.815911E+04 -4.459373E+04 -3.707301E+04 -4.293712E+04
        54  25  1.386047E+06  4.839782E+05  5.165887E+05 -8.849130E+04 -1.459218E+05 -1.519599E+04
        54  26  1.275179E+06  3.024301E+05  3.854671E+05 -2.723362E+04 -8.663804E+04 -4.477440E+04
        54  27  1.216936E+06  2.925124E+05  3.361323E+05 -2.281087E+04 -2.748808E+04 -4.290717E+04
        55   1 -1.117371E+06 -2.618864E+05 -2.255635E+05 -4.267282E+04  2.981048E+04  3.651722E+04
        55   2 -1.036709E+06 -2.563901E+05 -2.241776E+05 -1.655261E+04  2.076198E+04  3.514644E+04
        55   3 -9.495122E+05 -2.344858E+05 -2.125269E+05 -4.765972E+04  1.171034E+04  3.167440E+04
        55   4 -6.826090E+03  1.329940E+04  3.915399E+04 -4.486079E+04  2.968120E+04  3.651238E+04
        55   5 -1.016981E+04 -2.118023E+03  1.999871E+04 -1.623572E+04  1.945805E+04  3.514028E+04
        55   6 -6.789989E+03 -9.377870E+02  1.191161E+04 -4.483180E+04  9.233001E+03  3.166843E+04
        55   7  1.104851E+06  2.883961E+05  3.037849E+05 -4.705329E+04  2.955165E+04  3.650755E+04
        55   8  1.017337E+06  2.520781E+05  2.641013E+05 -1.591871E+04  1.815195E+04  3.513413E+04
        55   9  9.367485E+05  2.325462E+05  2.362879E+05 -4.199976E+04  6.751901E+03  3.166244E+04
        55  10 -1.117372E+06 -2.618880E+05 -2.255676E+05 -4.267370E+04  2.360396E-09 -1.784573E-09
        55  11 -1.036709E+06 -2.563915E+05 -2.241807E+05 -1.655319E+04 -9.601143E-10  9.436584E-10
        55  12 -9.495126E+05 -2.344870E+05 -2.125291E+05 -4.766002E+04  8.536628E-10 -4.556076E-10
        55  13 -6.827394E+03  1.329773E+04  3.914983E+04 -4.486166E+04  6.324146E-10 -1.323085E-09
        55  14 -1.017055E+04 -2.119450E+03  1.999568E+04 -1.623627E+04  1.560000E-09 -8.732204E-10
        55  15 -6.790350E+03 -9.388868E+02  1.190957E+04 -4.483204E+04  3.016332E-09 -5.046544E-10
        55  16  1.104850E+06  2.883944E+05  3.037807E+05 -4.705416E+04  8.225513E-10 -1.163005E-10
        55  17  1.017337E+06  2.520766E+05  2.640984E+05 -1.591923E+04 -2.797174E-09 -2.702140E-09
        55  18  9.367482E+05  2.325451E+05  2.362860E+05 -4.199993E+04 -5.880772E-10  6.467677E-10
        55  19 -1.117371E+06 -2.618864E+05 -2.255635E+05 -4.267282E+04 -2.981048E+04 -3.651722E+04
        55  20 -1.036709E+06 -2.563901E+05 -2.241776E+05 -1.655261E+04 -2.076198E+04 -3.514644E+04
        55  21 -9.495122E+05 -2.344858E+05 -2.125269E+05 -4.765972E+04 -1.171034E+04 -3.167440E+04
        55  22 -6.826090E+03  1.329940E+04  3.915399E+04 -4.486079E+04 -2.968120E+04 -3.651238E+04
        55  23 -1.016981E+04 -2.118023E+03  1.999871E+04 -1.623572E+04 -1.945805E+04 -3.514028E+04
        55  24 -6.789989E+03 -9.377870E+02  1.191161E+04 -4.483180E+04 -9.233001E+03 -3.166843E+04
        55  25  1.104851E+06  2.883961E+05  3.037849E+05 -4.705329E+04 -2.955165E+04 -3.650755E+04
        55  26  1.017337E+06  2.520781E+05  2.641013E+05 -1.591871E+04 -1.815195E+04 -3.513413E+04
        55  27  9.367485E+05  2.325462E+05  2.362879E+05 -4.199976E+04 -6.751901E+03 -3.166244E+04
        56   1 -8.482787E+05 -2.070164E+05 -1.904093E+05 -4.516436E+04  9.208866E+03  2.929729E+04
        56   2 -7.650103E+05 -1.876666E+05 -1.748818E+05 -1.647622E+04  6.778088E+03  2.586326E+04
        56   3 -6.804054E+05 -1.667100E+05 -1.572378E+05 -4.508591E+04  4.341741E+03  2.228923E+04
        56   4 -7.936433E+03  1.072565E+03  9.258048E+03 -4.485683E+04  7.361627E+03  2.929307E+04
        56   5 -8.593909E+03 -3.327750E+02  5.016645E+03 -1.620963E+04  4.850450E+03  2.586028E+04
        56   6 -7.909489E+03 -1.181498E+02  2.945584E+03 -4.485597E+04  2.334027E+03  2.228759E+04
        56   7  8.330547E+05  2.091107E+05  2.088761E+05 -4.454899E+04  5.511892E+03  2.928886E+04
        56   8  7.483481E+05  1.869599E+05  1.848751E+05 -1.594277E+04  2.920469E+03  2.585730E+04
        56   9  6.650017E+05  1.664410E+05  1.630973E+05 -4.462576E+04  3.241467E+02  2.228595E+04
        56  10 -8.482790E+05 -2.070174E+05 -1.904111E+05 -4.516458E+04  2.661409E-09  3.880297E-10
        56  11 -7.650106E+05 -1.876674E+05 -1.748831E+05 -1.647636E+04 -7.783664E-10 -6.227951E-10
        56  12 -6.804056E+05 -1.667105E+05 -1.572388E+05 -4.508599E+04 -6.650788E-10  9.702269E-10
        56  13 -7.936721E+03  1.071629E+03  9.256333E+03 -4.485700E+04 -8.279326E-10  1.429142E-10
        56  14 -8.594114E+03 -3.334995E+02  5.015344E+03 -1.620974E+04 -3.094083E-09 -3.336558E-10
        56  15 -7.909628E+03 -1.186846E+02  2.944641E+03 -4.485601E+04 -4.652072E-10  8.846214E-10
        56  16  8.330544E+05  2.091097E+05  2.088744E+05 -4.454912E+04 -2.205025E-10  9.149358E-12
        56  17  7.483479E+05  1.869591E+05  1.848738E+05 -1.594284E+04  1.509555E-09 -9.050221E-10
        56  18  6.650016E+05  1.664405E+05  1.630964E+05 -4.462576E+04  7.600424E-10  4.106349E-10
        56  19 -8.482787E+05 -2.070164E+05 -1.904093E+05 -4.516436E+04 -9.208866E+03 -2.929729E+04
        56  20 -7.650103E+05 -1.876666E+05 -1.748818E+05 -1.647622E+04 -6.778088E+03 -2.586326E+04
        56  21 -6.804054E+05 -1.667100E+05 -1.572378E+05 -4.508591E+04 -4.341741E+03 -2.228923E+04
        56  22 -7.936433E+03  1.072565E+03  9.258048E+03 -4.485683E+04 -7.361627E+03 -2.929307E+04
        56  23 -8.593909E+03 -3.327750E+02  5.016645E+03 -1.620963E+04 -4.850450E+03 -2.586028E+04
        56  24 -7.909489E+03 -1.181498E+02  2.945584E+03 -4.485597E+04 -2.334027E+03 -2.228759E+04
        56  25  8.330547E+05  2.091107E+05  2.088761E+05 -4.454899E+04 -5.511892E+03 -2.928886E+04
        56  26  7.483481E+05  1.869599E+05  1.848751E+05 -1.594277E+04 -2.920469E+03 -2.585730E+04
        56  27  6.650017E+05  1.664410E+05  1.630973E+05 -4.462576E+04 -3.241467E+02 -2.228595E+04
        57   1 -5.781741E+05 -1.410731E+05 -1.330877E+05 -4.481148E+04  3.833248E+03  2.018542E+04
        57   2 -4.943508E+05 -1.204261E+05 -1.143923E+05 -1.608770E+04  3.242371E+03  1.661457E+04
        57   3 -4.102258E+05 -9.957841E+04 -9.522638E+04 -4.466730E+04  2.647970E+03  1.303457E+04
        57   4 -8.107403E+03  4.313612E+01  2.224760E+03 -4.485777E+04  1.867087E+03  2.018454E+04
        57   5 -8.246814E+03 -5.746082E+01  1.199080E+03 -1.620746E+04  1.270542E+03  1.661454E+04
        57   6 -8.090062E+03  4.399985E+01  6.478865E+02 -4.485777E+04  6.705536E+02  1.303543E+04
        57   7  5.622579E+05  1.411359E+05  1.375146E+05 -4.490408E+04 -1.008721E+02  2.018366E+04
        57   8  4.780742E+05  1.202941E+05  1.167740E+05 -1.632728E+04 -7.028239E+02  1.661452E+04
        57   9  3.941941E+05  9.965473E+04  9.651082E+04 -4.504833E+04 -1.308139E+03  1.303628E+04
        57  10 -5.781742E+05 -1.410735E+05 -1.330885E+05 -4.481154E+04  2.294817E-09  1.300999E-09
        57  11 -4.943509E+05 -1.204264E+05 -1.143928E+05 -1.608774E+04 -4.693429E-09 -1.306785E-10
        57  12 -4.102258E+05 -9.957860E+04 -9.522672E+04 -4.466733E+04 -3.306308E-09 -4.370149E-10
        57  13 -8.107516E+03  4.269769E+01  2.223988E+03 -4.485780E+04 -2.256164E-11  1.432843E-09
        57  14 -8.246890E+03 -5.775767E+01  1.198558E+03 -1.620747E+04 -9.961930E-11 -7.463553E-10
        57  15 -8.090108E+03  4.381726E+01  6.475664E+02 -4.485777E+04 -1.520195E-09 -1.111633E-09
        57  16  5.622578E+05  1.411355E+05  1.375139E+05 -4.490408E+04 -1.013781E-09  6.749956E-10
        57  17  4.780741E+05  1.202938E+05  1.167734E+05 -1.632727E+04  1.026157E-09 -7.390231E-10
        57  18  3.941940E+05  9.965455E+04  9.651049E+04 -4.504831E+04  3.754205E-09 -9.227296E-10
        57  19 -5.781741E+05 -1.410731E+05 -1.330877E+05 -4.481148E+04 -3.833248E+03 -2.018542E+04
        57  20 -4.943508E+05 -1.204261E+05 -1.143923E+05 -1.608770E+04 -3.242371E+03 -1.661457E+04
        57  21 -4.102258E+05 -9.957841E+04 -9.522638E+04 -4.466730E+04 -2.647970E+03 -1.303457E+04
        57  22 -8.107403E+03  4.313612E+01  2.224760E+03 -4.485777E+04 -1.867087E+03 -2.018454E+04
        57  23 -8.246814E+03 -5.746082E+01  1.199080E+03 -1.620746E+04 -1.270542E+03 -1.661454E+04
        57  24 -8.090062E+03  4.399985E+01  6.478865E+02 -4.485777E+04 -6.705536E+02 -1.303543E+04
        57  25  5.622579E+05  1.411359E+05  1.375146E+05 -4.490408E+04  1.008721E+02 -2.018366E+04
        57  26  4.780742E+05  1.202941E+05  1.167740E+05 -1.632728E+04  7.028239E+02 -1.661452E+04
        57  27  3.941941E+05  9.965473E+04  9.651082E+04 -4.504833E+04  1.308139E+03 -1.303628E+04
        58   1 -3.078175E+05 -7.409826E+04 -7.056766E+04 -4.469817E+04  2.546666E+03  1.094851E+04
        58   2 -2.237901E+05 -5.337326E+04 -5.118314E+04 -1.607391E+04  2.496171E+03  7.368681E+03
        58   3 -1.398146E+05 -3.257700E+04 -3.176668E+04 -4.475562E+04  2.444145E+03  3.792867E+03
        58   4 -8.149182E+03  4.612167E+01  4.282800E+02 -4.485868E+04  5.703080E+02  1.094979E+04
        58   5 -8.116591E+03  2.298506E+01  9.382842E+01 -1.620630E+04  5.218817E+02  7.370337E+03
        58   6 -8.141487E+03  7.153906E+01 -2.094607E+02 -4.485867E+04  4.719321E+02  3.794918E+03
        58   7  2.916017E+05  7.418406E+04  7.141799E+04 -4.501925E+04 -1.407000E+03  1.095108E+04
        58   8  2.075997E+05  5.341588E+04  5.136756E+04 -1.633874E+04 -1.453090E+03  7.371993E+03
        58   9  1.235476E+05  3.271882E+04  3.134655E+04 -4.496175E+04 -1.500697E+03  3.796969E+03
        58  10 -3.078175E+05 -7.409839E+04 -7.056790E+04 -4.469820E+04  5.858749E-09 -3.911344E-10
        58  11 -2.237902E+05 -5.337332E+04 -5.118325E+04 -1.607392E+04  3.449025E-09 -3.542616E-10
        58  12 -1.398146E+05 -3.257701E+04 -3.176672E+04 -4.475563E+04 -2.106775E-09 -2.117969E-10
        58  13 -8.149214E+03  4.599283E+01  4.280541E+02 -4.485869E+04 -2.346082E-09  8.538133E-10
        58  14 -8.116606E+03  2.292665E+01  9.372583E+01 -1.620631E+04 -2.382109E-09  9.906368E-10
        58  15 -8.141491E+03  7.152353E+01 -2.094882E+02 -4.485868E+04 -3.388865E-09 -1.466710E-09
        58  16  2.916016E+05  7.418393E+04  7.141776E+04 -4.501924E+04 -6.795675E-09 -1.013737E-10
        58  17  2.075997E+05  5.341582E+04  5.136745E+04 -1.633873E+04 -1.870201E-09  6.904274E-10
        58  18  1.235476E+05  3.271880E+04  3.134652E+04 -4.496174E+04  2.042756E-09  1.748934E-10
        58  19 -3.078175E+05 -7.409826E+04 -7.056766E+04 -4.469817E+04 -2.546666E+03 -1.094851E+04
        58  20 -2.237901E+05 -5.337326E+04 -5.118314E+04 -1.607391E+04 -2.496171E+03 -7.368681E+03
        58  21 -1.398146E+05 -3.257700E+04 -3.176668E+04 -4.475562E+04 -2.444145E+03 -3.792867E+03
        58  22 -8.149182E+03  4.612167E+01  4.282800E+02 -4.485868E+04 -5.703080E+02 -1.094979E+04
        58  23 -8.116591E+03  2.298506E+01  9.382842E+01 -1.620630E+04 -5.218817E+02 -7.370337E+03
        58  24 -8.141487E+03  7.153906E+01 -2.094607E+02 -4.485867E+04 -4.719321E+02 -3.794918E+03
        58  25  2.916017E+05  7.418406E+04  7.141799E+04 -4.501925E+04  1.407000E+03 -1.095108E+04
        58  26  2.075997E+05  5.341588E+04  5.136756E+04 -1.633874E+04  1.453090E+03 -7.371993E+03
        58  27  1.235476E+05  3.271882E+04  3.134655E+04 -4.496175E+04  1.500697E+03 -3.796969E+03
        59   1 -3.734772E+04 -7.068630E+03 -7.059517E+03 -4.488496E+04  2.515168E+03  1.698860E+03
        59   2  4.678495E+04  1.364521E+04  1.222436E+04 -1.624683E+04  2.879488E+03 -1.877541E+03
        59   3  1.306922E+05  3.417190E+04  3.119319E+04 -4.491487E+04  3.244318E+03 -5.382040E+03
        59   4 -8.177602E+03  1.016892E+02 -3.783355E+02 -4.485897E+04  5.213609E+02  1.701033E+03
        59   5 -8.058540E+03  6.934972E+01 -8.125412E+02 -1.620586E+04  9.251957E+02 -1.875521E+03
        59   6 -8.179562E+03 -1.568717E+02 -1.589242E+03 -4.485924E+04  1.329491E+03 -5.380144E+03
        59   7  2.099331E+04  7.271951E+03  6.302805E+03 -4.483299E+04 -1.472539E+03  1.703205E+03
        59   8 -6.289926E+04 -1.350672E+04 -1.384964E+04 -1.616491E+04 -1.028925E+03 -1.873502E+03
        59   9 -1.470336E+05 -3.448702E+04 -3.437299E+04 -4.480362E+04 -5.849097E+02 -5.378249E+03
        59  10 -3.734773E+04 -7.068634E+03 -7.059534E+03 -4.488496E+04  1.149469E-09  1.040185E-09
        59  11  4.678494E+04  1.364520E+04  1.222434E+04 -1.624682E+04 -2.322309E-09 -2.449549E-10
        59  12  1.306922E+05  3.417186E+04  3.119311E+04 -4.491486E+04  3.462454E-11  1.180649E-09
        59  13 -8.177603E+03  1.016860E+02 -3.783415E+02 -4.485898E+04 -1.350699E-09 -1.195568E-09
        59  14 -8.058541E+03  6.934572E+01 -8.125494E+02 -1.620586E+04  8.088944E-10 -2.208242E-09
        59  15 -8.179572E+03 -1.569032E+02 -1.589299E+03 -4.485924E+04  8.149171E-10  1.168831E-09
        59  16  2.099331E+04  7.271947E+03  6.302795E+03 -4.483299E+04  1.139811E-09  5.635387E-10
        59  17 -6.289926E+04 -1.350673E+04 -1.384965E+04 -1.616491E+04  1.487426E-09 -2.605310E-09
        59  18 -1.470336E+05 -3.448705E+04 -3.437304E+04 -4.480362E+04  7.194925E-10 -1.350566E-10
        59  19 -3.734772E+04 -7.068630E+03 -7.059517E+03 -4.488496E+04 -2.515168E+03 -1.698860E+03
        59  20  4.678495E+04  1.364521E+04  1.222436E+04 -1.624683E+04 -2.879488E+03  1.877541E+03
        59  21  1.306922E+05  3.417190E+04  3.119319E+04 -4.491487E+04 -3.244318E+03  5.382040E+03
        59  22 -8.177602E+03  1.016892E+02 -3.783355E+02 -4.485897E+04 -5.213609E+02 -1.701033E+03
        59  23 -8.058540E+03  6.934972E+01 -8.125412E+02 -1.620586E+04 -9.251957E+02  1.875521E+03
        59  24 -8.179562E+03 -1.568717E+02 -1.589242E+03 -4.485924E+04 -1.329491E+03  5.380144E+03
        59  25  2.099331E+04  7.271951E+03  6.302805E+03 -4.483299E+04  1.472539E+03 -1.703205E+03
        59  26 -6.289926E+04 -1.350672E+04 -1.384964E+04 -1.616491E+04  1.028925E+03  1.873502E+03
        59  27 -1.470336E+05 -3.448702E+04 -3.437299E+04 -4.480362E+04  5.849097E+02  5.378249E+03
        60   1  2.330562E+05  6.000856E+04  5.555253E+04 -4.539414E+04  3.885830E+03 -7.613559E+03
        60   2  3.175206E+05  8.086185E+04  7.380086E+04 -1.621181E+04  5.094771E+03 -1.112837E+04
        60   3  4.011403E+05  9.895337E+04  9.056902E+04 -4.430278E+04  6.306697E+03 -1.356644E+04
        60   4 -8.348965E+03  2.113734E+02 -2.056047E+03 -4.485156E+04  1.647783E+03 -7.611579E+03
        60   5 -7.877295E+03  3.274246E+02 -3.535599E+03 -1.621483E+04  3.450369E+03 -1.112750E+04
        60   6 -8.360577E+03 -2.421797E+03 -6.907919E+03 -4.485333E+04  5.255778E+03 -1.356640E+04
        60   7 -2.497007E+05 -5.959003E+04 -5.966870E+04 -4.430918E+04 -5.893974E+02 -7.609603E+03
        60   8 -3.331780E+05 -8.021463E+04 -8.087945E+04 -1.621782E+04  1.806824E+03 -1.112662E+04
        60   9 -4.177076E+05 -1.038091E+05 -1.043966E+05 -4.540349E+04  4.205548E+03 -1.356635E+04
        60  10  2.330562E+05  6.000850E+04  5.555239E+04 -4.539412E+04  1.888312E-09 -1.659799E-10
        60  11  3.175205E+05  8.086171E+04  7.380058E+04 -1.621177E+04  1.850154E-09 -2.328328E-10
        60  12  4.011402E+05  9.895316E+04  9.056860E+04 -4.430271E+04  8.726409E-10 -1.208112E-10
        60  13 -8.348983E+03  2.113105E+02 -2.056161E+03 -4.485155E+04 -2.395815E-10  1.217559E-09
        60  14 -7.877341E+03  3.272884E+02 -3.535854E+03 -1.621480E+04 -1.914900E-10  1.769126E-10
        60  15 -8.360656E+03 -2.422002E+03 -6.908317E+03 -4.485327E+04  2.591551E-09  3.450011E-10
        60  16 -2.497007E+05 -5.959009E+04 -5.966881E+04 -4.430919E+04 -1.564528E-10  1.525763E-09
        60  17 -3.331780E+05 -8.021476E+04 -8.087969E+04 -1.621781E+04  2.272901E-09  1.434573E-09
        60  18 -4.177077E+05 -1.038093E+05 -1.043970E+05 -4.540344E+04 -2.214295E-10  3.285789E-10
        60  19  2.330562E+05  6.000856E+04  5.555253E+04 -4.539414E+04 -3.885830E+03  7.613559E+03
        60  20  3.175206E+05  8.086185E+04  7.380086E+04 -1.621181E+04 -5.094771E+03  1.112837E+04
        60  21  4.011403E+05  9.895337E+04  9.056902E+04 -4.430278E+04 -6.306697E+03  1.356644E+04
        60  22 -8.348965E+03  2.113734E+02 -2.056047E+03 -4.485156E+04 -1.647783E+03  7.611579E+03
        60  23 -7.877295E+03  3.274246E+02 -3.535599E+03 -1.621483E+04 -3.450369E+03  1.112750E+04
        60  24 -8.360577E+03 -2.421797E+03 -6.907919E+03 -4.485333E+04 -5.255778E+03  1.356640E+04
        60  25 -2.497007E+05 -5.959003E+04 -5.966870E+04 -4.430918E+04  5.893974E+02  7.609603E+03
        60  26 -3.331780E+05 -8.021463E+04 -8.087945E+04 -1.621782E+04 -1.806824E+03  1.112662E+04
        60  27 -4.177076E+05 -1.038091E+05 -1.043966E+05 -4.540349E+04 -4.205548E+03  1.356635E+04
        61   1  5.022170E+05  1.280580E+05  1.131133E+05 -4.835095E+04  1.243626E+04 -1.785544E+04
        61   2  5.896691E+05  1.504561E+05  1.277676E+05 -1.390012E+04  1.094428E+04 -2.044956E+04
        61   3  6.706184E+05  1.447363E+05  1.364306E+05 -3.626982E+04  9.451068E+03 -6.948948E+03
        61   4 -9.964596E+03  1.329796E+03 -8.480578E+03 -4.475198E+04  6.553555E+03 -1.785360E+04
        61   5 -5.946046E+03  3.075475E+03 -1.373571E+04 -1.633877E+04  1.394719E+04 -2.045127E+04
        61   6 -9.985750E+03 -2.485314E+04 -3.115710E+04 -4.475005E+04  2.133956E+04 -6.947341E+03
        61   7 -5.219054E+05 -1.254172E+05 -1.300926E+05 -4.115596E+04  6.756778E+02 -1.785184E+04
        61   8 -6.012357E+05 -1.443307E+05 -1.552638E+05 -1.877506E+04  1.694723E+04 -2.045300E+04
        61   9 -6.901684E+05 -1.944767E+05 -1.987784E+05 -5.322099E+04  3.321503E+04 -6.946058E+03
        61  10  5.022168E+05  1.280576E+05  1.131124E+05 -4.835077E+04  1.421377E-09 -2.376820E-10
        61  11  5.896689E+05  1.504556E+05  1.277666E+05 -1.389994E+04  1.836113E-09 -6.826516E-10
        61  12  6.706183E+05  1.447362E+05  1.364303E+05 -3.626976E+04  1.422177E-09 -1.691172E-10
        61  13 -9.964727E+03  1.329443E+03 -8.481257E+03 -4.475188E+04 -1.022094E-10  6.401031E-10
        61  14 -5.946367E+03  3.074974E+03 -1.373686E+04 -1.633854E+04 -1.425809E-11 -7.736204E-10
        61  15 -9.986252E+03 -2.485331E+04 -3.115804E+04 -4.474993E+04  1.947021E-09 -4.096077E-10
        61  16 -5.219055E+05 -1.254176E+05 -1.300932E+05 -4.115595E+04  6.900610E-10 -1.454893E-10
        61  17 -6.012361E+05 -1.443312E+05 -1.552651E+05 -1.877478E+04 -2.578964E-09 -7.332686E-10
        61  18 -6.901696E+05 -1.944771E+05 -1.987806E+05 -5.322081E+04  1.329270E-10 -1.673667E-10
        61  19  5.022170E+05  1.280580E+05  1.131133E+05 -4.835095E+04 -1.243626E+04  1.785544E+04
        61  20  5.896691E+05  1.504561E+05  1.277676E+05 -1.390012E+04 -1.094428E+04  2.044956E+04
        61  21  6.706184E+05  1.447363E+05  1.364306E+05 -3.626982E+04 -9.451068E+03  6.948948E+03
        61  22 -9.964596E+03  1.329796E+03 -8.480578E+03 -4.475198E+04 -6.553555E+03  1.785360E+04
        61  23 -5.946046E+03  3.075475E+03 -1.373571E+04 -1.633877E+04 -1.394719E+04  2.045127E+04
        61  24 -9.985750E+03 -2.485314E+04 -3.115710E+04 -4.475005E+04 -2.133956E+04  6.947341E+03
        61  25 -5.219054E+05 -1.254172E+05 -1.300926E+05 -4.115596E+04 -6.756778E+02  1.785184E+04
        61  26 -6.012357E+05 -1.443307E+05 -1.552638E+05 -1.877506E+04 -1.694723E+04  2.045300E+04
        61  27 -6.901684E+05 -1.944767E+05 -1.987784E+05 -5.322099E+04 -3.321503E+04  6.946058E+03
        62   1  9.983641E+05  3.212811E+06  9.613561E+05 -9.932341E+05  3.990315E+04  2.513198E+05
        62   2  6.915927E+05  2.246578E+06  6.063946E+05 -8.627931E+05  1.225966E+05  7.345601E+04
        62   3  4.527626E+05  1.319569E+06  3.836424E+05 -9.441377E+05  1.112867E+05 -1.045421E+05
        62   4  7.090839E+04 -5.363480E+05  7.012821E+04 -9.370583E+05  4.123280E+04  3.748522E+04
        62   5  2.155190E+04 -5.412259E+05  4.282559E+04 -8.313355E+05  1.230150E+05  1.610977E+04
        62   6  1.325553E+04 -5.346573E+05  3.949326E+04 -9.374178E+05  1.106135E+05 -5.678696E+03
        62   7 -8.575262E+05 -4.272540E+06 -8.219107E+05 -8.811940E+05  4.252872E+04 -1.750697E+05
        62   8 -6.489667E+05 -3.321633E+06 -5.211329E+05 -8.000053E+05  1.234287E+05 -4.098467E+04
        62   9 -4.264435E+05 -2.385535E+06 -3.047644E+05 -9.307105E+05  1.099413E+05  9.289753E+04
        62  10  9.983455E+05  3.212743E+06  9.612349E+05 -9.932421E+05  2.804424E-10 -1.679628E-09
        62  11  6.915751E+05  2.246568E+06  6.063562E+05 -8.628003E+05 -3.270103E-09 -9.631256E-10
        62  12  4.527464E+05  1.319554E+06  3.835987E+05 -9.441283E+05  1.177607E-09  4.892479E-10
        62  13  7.090618E+04 -5.363500E+05  7.012237E+04 -9.370595E+05  2.399694E-09  1.711322E-11
        62  14  2.153558E+04 -5.412303E+05  4.279666E+04 -8.313371E+05 -4.680367E-10  2.810542E-09
        62  15  1.324239E+04 -5.346606E+05  3.947022E+04 -9.374173E+05  9.454862E-10 -1.163211E-09
        62  16 -8.575364E+05 -4.272574E+06 -8.219721E+05 -8.811880E+05 -1.311687E-09  1.933384E-09
        62  17 -6.489835E+05 -3.321639E+06 -5.211646E+05 -8.000013E+05  1.760645E-09  1.163921E-09
        62  18 -4.264588E+05 -2.385548E+06 -3.048034E+05 -9.307188E+05 -2.652569E-09  2.039683E-09
        62  19  9.983641E+05  3.212811E+06  9.613561E+05 -9.932341E+05 -3.990315E+04 -2.513198E+05
        62  20  6.915927E+05  2.246578E+06  6.063946E+05 -8.627931E+05 -1.225966E+05 -7.345601E+04
        62  21  4.527626E+05  1.319569E+06  3.836424E+05 -9.441377E+05 -1.112867E+05  1.045421E+05
        62  22  7.090839E+04 -5.363480E+05  7.012821E+04 -9.370583E+05 -4.123280E+04 -3.748522E+04
        62  23  2.155190E+04 -5.412259E+05  4.282559E+04 -8.313355E+05 -1.230150E+05 -1.610977E+04
        62  24  1.325553E+04 -5.346573E+05  3.949326E+04 -9.374178E+05 -1.106135E+05  5.678696E+03
        62  25 -8.575262E+05 -4.272540E+06 -8.219107E+05 -8.811940E+05 -4.252872E+04  1.750697E+05
        62  26 -6.489667E+05 -3.321633E+06 -5.211329E+05 -8.000053E+05 -1.234287E+05  4.098467E+04
        62  27 -4.264435E+05 -2.385535E+06 -3.047644E+05 -9.307105E+05 -1.099413E+05 -9.289753E+04
        63   1  3.060501E+05  6.944607E+05  2.707945E+05 -9.492681E+05  7.449626E+04 -1.010082E+05
        63   2  8.068362E+04 -2.539480E+05  1.094559E+05 -8.295736E+05  2.088598E+04 -1.330310E+05
        63   3 -1.267967E+05 -1.195772E+06 -2.738764E+04 -9.274625E+05 -3.386486E+04 -1.650274E+05
        63   4  1.434904E+04 -5.356389E+05  4.280604E+04 -9.386696E+05  7.386672E+04 -1.274965E+04
        63   5  1.389740E+04 -5.382257E+05  5.981580E+04 -8.298240E+05  2.023555E+04 -4.293594E+04
        63   6  3.104789E+04 -5.354482E+05  1.000220E+05 -9.385529E+05 -3.453738E+04 -7.314164E+04
        63   7 -2.774343E+05 -1.764256E+06 -1.852168E+05 -9.280892E+05  7.323940E+04  7.533871E+04
        63   8 -5.288884E+04 -8.224067E+05  1.020340E+04 -8.300741E+05  1.958486E+04  4.711907E+04
        63   9  1.888714E+05  1.253139E+05  2.274432E+05 -9.496544E+05 -3.521274E+04  1.883980E+04
        63  10  3.060414E+05  6.944483E+05  2.707649E+05 -9.492620E+05  8.577162E-10 -2.637238E-09
        63  11  8.067840E+04 -2.539671E+05  1.094218E+05 -8.295714E+05  1.682614E-09 -1.006619E-09
        63  12 -1.268053E+05 -1.195802E+06 -2.744111E+04 -9.274670E+05  2.178118E-09  1.819006E-09
        63  13  1.434314E+04 -5.356405E+05  4.279549E+04 -9.386689E+05 -5.649737E-10  1.317775E-10
        63  14  1.389647E+04 -5.382278E+05  5.981157E+04 -8.298233E+05 -4.420839E-09  3.106800E-09
        63  15  3.104516E+04 -5.354543E+05  1.000097E+05 -9.385549E+05 -3.002517E-10 -7.849673E-10
        63  16 -2.774416E+05 -1.764263E+06 -1.852376E+05 -9.280937E+05 -8.884232E-10  2.176471E-09
        63  17 -5.288985E+04 -8.224092E+05  1.019850E+04 -8.300748E+05 -2.734176E-09 -7.194658E-10
        63  18  1.888700E+05  1.253132E+05  2.274402E+05 -9.496538E+05  7.322078E-10  1.161822E-09
        63  19  3.060501E+05  6.944607E+05  2.707945E+05 -9.492681E+05 -7.449626E+04  1.010082E+05
        63  20  8.068362E+04 -2.539480E+05  1.094559E+05 -8.295736E+05 -2.088598E+04  1.330310E+05
        63  21 -1.267967E+05 -1.195772E+06 -2.738764E+04 -9.274625E+05  3.386486E+04  1.650274E+05
        63  22  1.434904E+04 -5.356389E+05  4.280604E+04 -9.386696E+05 -7.386672E+04  1.274965E+04
        63  23  1.389740E+04 -5.382257E+05  5.981580E+04 -8.298240E+05 -2.023555E+04  4.293594E+04
        63  24  3.104789E+04 -5.354482E+05  1.000220E+05 -9.385529E+05  3.453738E+04  7.314164E+04
        63  25 -2.774343E+05 -1.764256E+06 -1.852168E+05 -9.280892E+05 -7.323940E+04 -7.533871E+04
        63  26 -5.288884E+04 -8.224067E+05  1.020340E+04 -8.300741E+05 -1.958486E+04 -4.711907E+04
        63  27  1.888714E+05  1.253139E+05  2.274432E+05 -9.496544E+05  3.521274E+04 -1.883980E+04
        64   1 -2.816741E+05 -1.802261E+06 -1.138551E+05 -9.572250E+05 -7.104701E+04 -1.910404E+05
        64   2 -4.359058E+05 -2.772217E+06 -2.243155E+05 -7.011170E+05 -9.181270E+04 -1.760896E+05
        64   3 -3.554542E+05 -3.686401E+06 -2.863400E+05 -6.573461E+05 -3.175372E+04 -1.607590E+05
        64   4  2.340272E+04 -5.196033E+05  1.290083E+05 -9.376773E+05 -7.177341E+04 -9.049304E+04
        64   5  1.003906E+05 -5.590872E+05  2.301201E+05 -8.303328E+05 -9.152866E+04 -2.092669E+05
        64   6  4.347660E+05 -5.208368E+05  4.724024E+05 -9.350704E+05 -3.059866E+04 -3.276540E+05
        64   7  3.283907E+05  7.646689E+05  3.718372E+05 -9.180843E+05 -7.249252E+04  1.025766E+04
        64   8  6.364367E+05  1.658743E+06  6.843060E+05 -9.600089E+05 -9.123143E+04 -2.425598E+05
        64   9  1.224549E+06  2.654163E+06  1.230577E+06 -1.214204E+06 -2.929735E+04 -4.953970E+05
        64  10 -2.816894E+05 -1.802301E+06 -1.139335E+05 -9.572360E+05  4.840013E-09  2.797415E-10
        64  11 -4.359232E+05 -2.772253E+06 -2.243899E+05 -7.011300E+05  6.099076E-09 -7.953532E-10
        64  12 -3.554622E+05 -3.686430E+06 -2.863907E+05 -6.573502E+05  1.244847E-09 -1.335227E-09
        64  13  2.339498E+04 -5.196135E+05  1.289832E+05 -9.376825E+05  5.475383E-09  3.184154E-10
        64  14  1.003698E+05 -5.591365E+05  2.300219E+05 -8.303482E+05 -4.166440E-09  3.123502E-09
        64  15  4.347361E+05 -5.209524E+05  4.721986E+05 -9.350785E+05  1.491262E-09 -6.819297E-10
        64  16  3.283850E+05  7.646674E+05  3.718272E+05 -9.180837E+05 -5.524249E-10  3.731795E-10
        64  17  6.364120E+05  1.658678E+06  6.841799E+05 -9.600267E+05  3.364870E-09 -1.213695E-10
        64  18  1.224482E+06  2.653900E+06  1.230116E+06 -1.214216E+06  1.065292E-09  3.774296E-09
        64  19 -2.816741E+05 -1.802261E+06 -1.138551E+05 -9.572250E+05  7.104701E+04  1.910404E+05
        64  20 -4.359058E+05 -2.772217E+06 -2.243155E+05 -7.011170E+05  9.181270E+04  1.760896E+05
        64  21 -3.554542E+05 -3.686401E+06 -2.863400E+05 -6.573461E+05  3.175372E+04  1.607590E+05
        64  22  2.340272E+04 -5.196033E+05  1.290083E+05 -9.376773E+05  7.177341E+04  9.049304E+04
        64  23  1.003906E+05 -5.590872E+05  2.301201E+05 -8.303328E+05  9.152866E+04  2.092669E+05
        64  24  4.347660E+05 -5.208368E+05  4.724024E+05 -9.350704E+05  3.059866E+04  3.276540E+05
        64  25  3.283907E+05  7.646689E+05  3.718372E+05 -9.180843E+05  7.249252E+04 -1.025766E+04
        64  26  6.364367E+05  1.658743E+06  6.843060E+05 -9.600089E+05  9.123143E+04  2.425598E+05
        64  27  1.224549E+06  2.654163E+06  1.230577E+06 -1.214204E+06  2.929735E+04  4.953970E+05
        65   1 -3.479682E+06 -1.335695E+06 -7.516631E+05 -1.203076E+06 -2.057074E+05 -2.113306E+04
        65   2 -3.250321E+06 -1.278148E+06 -6.001287E+05 -1.124656E+06 -1.379197E+05  1.366283E+05
        65   3 -2.987533E+06 -1.235747E+06 -5.248950E+05 -1.100318E+06 -3.728886E+04  2.081724E+05
        65   4 -1.986172E+05 -1.412285E+05  9.017899E+04 -3.449304E+05  3.917786E+04  7.174517E+04
        65   5 -2.333573E+05 -1.819734E+05  4.133697E+04 -3.045089E+05 -2.602390E+04  1.789070E+05
        65   6 -2.082732E+05 -2.114939E+05  2.204160E+04 -3.181644E+05 -5.851723E+04  2.000558E+05
        65   7  3.092985E+06  1.053769E+06  9.313760E+05  5.172651E+05  2.854838E+05  1.651176E+05
        65   8  2.792912E+06  9.148866E+05  6.823376E+05  5.192922E+05  8.646074E+04  2.214002E+05
        65   9  2.579061E+06  8.134987E+05  5.686364E+05  4.672681E+05 -7.984872E+04  1.919002E+05
        65  10 -3.479728E+06 -1.335707E+06 -7.517439E+05 -1.203079E+06 -4.770807E-10  4.705327E-10
        65  11 -3.250346E+06 -1.278173E+06 -6.001996E+05 -1.124641E+06 -2.676305E-09 -5.646381E-11
        65  12 -2.987546E+06 -1.235794E+06 -5.249791E+05 -1.100311E+06  2.184905E-09 -4.978440E-10
        65  13 -1.986202E+05 -1.412344E+05  9.016642E+04 -3.449326E+05  3.282018E-09  2.241936E-09
        65  14 -2.333667E+05 -1.820080E+05  4.127555E+04 -3.045051E+05 -4.539459E-10  1.951869E-09
        65  15 -2.082876E+05 -2.115378E+05  2.195996E+04 -3.181550E+05 -1.809949E-09  7.686561E-10
        65  16  3.092891E+06  1.053719E+06  9.311726E+05  5.172272E+05 -8.931013E-10 -1.221733E-09
        65  17  2.792891E+06  9.148320E+05  6.822317E+05  5.192769E+05  2.396987E-09 -3.120642E-10
        65  18  2.579044E+06  8.134574E+05  5.685552E+05  4.672805E+05 -2.006638E-09 -2.873004E-10
        65  19 -3.479682E+06 -1.335695E+06 -7.516631E+05 -1.203076E+06  2.057074E+05  2.113306E+04
        65  20 -3.250321E+06 -1.278148E+06 -6.001287E+05 -1.124656E+06  1.379197E+05 -1.366283E+05
        65  21 -2.987533E+06 -1.235747E+06 -5.248950E+05 -1.100318E+06  3.728886E+04 -2.081724E+05
        65  22 -1.986172E+05 -1.412285E+05  9.017899E+04 -3.449304E+05 -3.917786E+04 -7.174517E+04
        65  23 -2.333573E+05 -1.819734E+05  4.133697E+04 -3.045089E+05  2.602390E+04 -1.789070E+05
        65  24 -2.082732E+05 -2.114939E+05  2.204160E+04 -3.181644E+05  5.851723E+04 -2.000558E+05
        65  25  3.092985E+06  1.053769E+06  9.313760E+05  5.172651E+05 -2.854838E+05 -1.651176E+05
        65  26  2.792912E+06  9.148866E+05  6.823376E+05  5.192922E+05 -8.646074E+04 -2.214002E+05
        65  27  2.579061E+06  8.134987E+05  5.686364E+05  4.672681E+05  7.984872E+04 -1.919002E+05
        66   1 -2.837407E+06 -1.171300E+06 -4.967259E+05 -1.053417E+06 -5.053451E+04  1.931640E+05
        66   2 -2.627212E+06 -1.066207E+06 -4.496317E+05 -9.652323E+05 -4.163353E+04  1.873747E+05
        66   3 -2.375243E+06 -1.001959E+06 -4.065054E+05 -9.243007E+05 -3.027027E+04  1.749779E+05
        66   4 -2.099393E+05 -2.105871E+05  1.668711E+04 -3.211239E+05 -5.773138E+04  1.903601E+05
        66   5 -2.317572E+05 -1.921844E+05  8.691548E+03 -2.970315E+05 -5.903866E+04  1.807385E+05
        66   6 -2.098404E+05 -2.125946E+05  4.830884E+03 -3.201995E+05 -5.789122E+04  1.645227E+05
        66   7  2.424712E+06  7.507488E+05  5.297897E+05  4.140526E+05 -6.496139E+04  1.875439E+05
        66   8  2.169681E+06  6.823617E+05  4.667709E+05  3.735687E+05 -7.651616E+04  1.740752E+05
        66   9  1.960447E+06  5.771962E+05  4.159715E+05  2.858608E+05 -8.561555E+04  1.540287E+05
        66  10 -2.837419E+06 -1.171341E+06 -4.968008E+05 -1.053409E+06  3.515180E-09 -1.456323E-09
        66  11 -2.627223E+06 -1.066245E+06 -4.497009E+05 -9.652260E+05 -6.568020E-09 -3.319656E-10
        66  12 -2.375253E+06 -1.001992E+06 -4.065647E+05 -9.242964E+05 -8.611948E-09 -9.411778E-10
        66  13 -2.099526E+05 -2.106269E+05  1.661276E+04 -3.211151E+05 -2.903723E-09 -9.415295E-10
        66  14 -2.317697E+05 -1.922204E+05  8.623622E+03 -2.970229E+05 -7.747193E-09 -4.539592E-09
        66  15 -2.098513E+05 -2.126246E+05  4.773731E+03 -3.201919E+05 -3.398122E-09 -1.077466E-09
        66  16  2.424698E+06  7.507099E+05  5.297157E+05  4.140624E+05 -7.859679E-09 -5.169971E-10
        66  17  2.169667E+06  6.823275E+05  4.667029E+05  3.735794E+05 -5.225080E-09 -2.294946E-09
        66  18  1.960433E+06  5.771688E+05  4.159132E+05  2.858714E+05 -1.065100E-10  8.460703E-10
        66  19 -2.837407E+06 -1.171300E+06 -4.967259E+05 -1.053417E+06  5.053451E+04 -1.931640E+05
        66  20 -2.627212E+06 -1.066207E+06 -4.496317E+05 -9.652323E+05  4.163353E+04 -1.873747E+05
        66  21 -2.375243E+06 -1.001959E+06 -4.065054E+05 -9.243007E+05  3.027027E+04 -1.749779E+05
        66  22 -2.099393E+05 -2.105871E+05  1.668711E+04 -3.211239E+05  5.773138E+04 -1.903601E+05
        66  23 -2.317572E+05 -1.921844E+05  8.691548E+03 -2.970315E+05  5.903866E+04 -1.807385E+05
        66  24 -2.098404E+05 -2.125946E+05  4.830884E+03 -3.201995E+05  5.789122E+04 -1.645227E+05
        66  25  2.424712E+06  7.507488E+05  5.297897E+05  4.140526E+05  6.496139E+04 -1.875439E+05
        66  26  2.169681E+06  6.823617E+05  4.667709E+05  3.735687E+05  7.651616E+04 -1.740752E+05
        66  27  1.960447E+06  5.771962E+05  4.159715E+05  2.858608E+05  8.561555E+04 -1.540287E+05
        67   1 -2.221783E+06 -9.448845E+05 -3.771142E+05 -8.811592E+05 -2.803669E+04  1.638592E+05
        67   2 -2.011458E+06 -8.389902E+05 -3.347416E+05 -7.925173E+05 -2.158445E+04  1.463445E+05
        67   3 -1.758846E+06 -7.747186E+05 -2.921210E+05 -7.513751E+05 -1.496679E+04  1.283053E+05
        67   4 -2.099130E+05 -2.124369E+05  3.597655E+03 -3.204834E+05 -5.461203E+04  1.538138E+05
        67   5 -2.309068E+05 -1.913538E+05  1.897152E+03 -2.967947E+05 -4.897034E+04  1.360180E+05
        67   6 -2.095231E+05 -2.117338E+05  1.076383E+03 -3.206203E+05 -4.316353E+04  1.176987E+05
        67   7  1.806211E+06  5.203918E+05  3.841527E+05  2.418914E+05 -8.128018E+04  1.437336E+05
        67   8  1.552971E+06  4.565779E+05  3.384125E+05  2.002551E+05 -7.644071E+04  1.256599E+05
        67   9  1.342310E+06  3.514711E+05  2.941793E+05  1.111357E+05 -7.143579E+04  1.070638E+05
        67  10 -2.221791E+06 -9.449135E+05 -3.771661E+05 -8.811555E+05 -1.640467E-08 -8.802146E-09
        67  11 -2.011465E+06 -8.390133E+05 -3.347827E+05 -7.925147E+05 -3.904421E-09 -4.685820E-09
        67  12 -1.758850E+06 -7.747363E+05 -2.921523E+05 -7.513735E+05  2.236100E-08  8.887727E-09
        67  13 -2.099226E+05 -2.124631E+05  3.547600E+03 -3.204767E+05 -2.274896E-09 -1.956799E-09
        67  14 -2.309143E+05 -1.913743E+05  1.857886E+03 -2.967893E+05 -5.139159E-09 -5.518421E-09
        67  15 -2.095289E+05 -2.117492E+05  1.046855E+03 -3.206162E+05 -5.416222E-09 -3.070531E-09
        67  16  1.806198E+06  5.203678E+05  3.841015E+05  2.419008E+05  1.380338E-08  5.231280E-09
        67  17  1.552960E+06  4.565594E+05  3.383719E+05  2.002629E+05 -5.778498E-09 -6.697528E-09
        67  18  1.342302E+06  3.514574E+05  2.941482E+05  1.111419E+05 -2.514658E-08 -1.487318E-08
        67  19 -2.221783E+06 -9.448845E+05 -3.771142E+05 -8.811592E+05  2.803669E+04 -1.638592E+05
        67  20 -2.011458E+06 -8.389902E+05 -3.347416E+05 -7.925173E+05  2.158445E+04 -1.463445E+05
        67  21 -1.758846E+06 -7.747186E+05 -2.921210E+05 -7.513751E+05  1.496679E+04 -1.283053E+05
        67  22 -2.099130E+05 -2.124369E+05  3.597655E+03 -3.204834E+05  5.461203E+04 -1.538138E+05
        67  23 -2.309068E+05 -1.913538E+05  1.897152E+03 -2.967947E+05  4.897034E+04 -1.360180E+05
        67  24 -2.095231E+05 -2.117338E+05  1.076383E+03 -3.206203E+05  4.316353E+04 -1.176987E+05
        67  25  1.806211E+06  5.203918E+05  3.841527E+05  2.418914E+05  8.128018E+04 -1.437336E+05
        67  26  1.552971E+06  4.565779E+05  3.384125E+05  2.002551E+05  7.644071E+04 -1.256599E+05
        67  27  1.342310E+06  3.514711E+05  2.941793E+05  1.111357E+05  7.143579E+04 -1.070638E+05
        68   1 -1.604742E+06 -7.182041E+05 -2.619796E+05 -7.085216E+05 -1.119291E+04  1.176013E+05
        68   2 -1.393498E+06 -6.126804E+05 -2.191090E+05 -6.199504E+05 -4.452170E+03  9.934889E+04
        68   3 -1.140229E+06 -5.488338E+05 -1.760971E+05 -5.791257E+05  2.286678E+03  8.104478E+04
        68   4 -2.094933E+05 -2.116256E+05  7.771266E+02 -3.206909E+05 -3.932899E+04  1.070295E+05
        68   5 -2.303560E+05 -1.905343E+05  3.586246E+02 -2.968665E+05 -3.266867E+04  8.876289E+04
        68   6 -2.092391E+05 -2.111067E+05  1.386306E+02 -3.208063E+05 -2.601020E+04  7.044463E+04
        68   7  1.187780E+06  2.951271E+05  2.634556E+05  6.794823E+04 -6.753262E+04  9.643241E+04
        68   8  9.342015E+05  2.317358E+05  2.197749E+05  2.678102E+04 -6.094182E+04  7.815567E+04
        68   9  7.226656E+05  1.267026E+05  1.763446E+05 -6.212391E+04 -5.435279E+04  5.982737E+04
        68  10 -1.604745E+06 -7.182189E+05 -2.620058E+05 -7.085205E+05  5.005728E-08  2.310528E-08
        68  11 -1.393501E+06 -6.126910E+05 -2.191276E+05 -6.199500E+05  2.543798E-08  1.464443E-08
        68  12 -1.140231E+06 -5.488409E+05 -1.761094E+05 -5.791259E+05 -1.218263E-08 -3.906197E-09
        68  13 -2.094980E+05 -2.116383E+05  7.526978E+02 -3.206875E+05  1.155958E-09  3.120979E-09
        68  14 -2.303593E+05 -1.905430E+05  3.418163E+02 -2.968642E+05  1.127240E-08  1.207175E-08
        68  15 -2.092412E+05 -2.111123E+05  1.280359E+02 -3.208048E+05  1.021658E-08  1.324301E-08
        68  16  1.187773E+06  2.951159E+05  2.634295E+05  6.795348E+04 -4.597964E-08 -1.891020E-08
        68  17  9.341959E+05  2.317282E+05  2.197565E+05  2.678485E+04 -2.790385E-09  9.489762E-11
        68  18  7.226615E+05  1.266980E+05  1.763324E+05 -6.212129E+04  2.749766E-08  1.244731E-08
        68  19 -1.604742E+06 -7.182041E+05 -2.619796E+05 -7.085216E+05  1.119291E+04 -1.176013E+05
        68  20 -1.393498E+06 -6.126804E+05 -2.191090E+05 -6.199504E+05  4.452170E+03 -9.934889E+04
        68  21 -1.140229E+06 -5.488338E+05 -1.760971E+05 -5.791257E+05 -2.286678E+03 -8.104478E+04
        68  22 -2.094933E+05 -2.116256E+05  7.771266E+02 -3.206909E+05  3.932899E+04 -1.070295E+05
        68  23 -2.303560E+05 -1.905343E+05  3.586246E+02 -2.968665E+05  3.266867E+04 -8.876289E+04
        68  24 -2.092391E+05 -2.111067E+05  1.386306E+02 -3.208063E+05  2.601020E+04 -7.044463E+04
        68  25  1.187780E+06  2.951271E+05  2.634556E+05  6.794823E+04  6.753262E+04 -9.643241E+04
        68  26  9.342015E+05  2.317358E+05  2.197749E+05  2.678102E+04  6.094182E+04 -7.815567E+04
        68  27  7.226656E+05  1.267026E+05  1.763446E+05 -6.212391E+04  5.435279E+04 -5.982737E+04
        69   1 -9.856964E+05 -4.924668E+05 -1.457558E+05 -5.363430E+05  6.266599E+03  7.039760E+04
        69   2 -7.738592E+05 -3.871941E+05 -1.027236E+05 -4.478024E+05  1.320263E+04  5.215417E+04
        69   3 -5.201860E+05 -3.236309E+05 -5.974142E+04 -4.071450E+05  2.012531E+04  3.391930E+04
        69   4 -2.092168E+05 -2.110433E+05  2.311987E+01 -3.208399E+05 -2.204086E+04  5.980044E+04
        69   5 -2.300424E+05 -1.900607E+05 -2.078175E+02 -2.969165E+05 -1.509427E+04  4.156841E+04
        69   6 -2.090943E+05 -2.107932E+05 -5.013085E+02 -3.208954E+05 -8.161106E+03  2.334502E+04
        69   7  5.678946E+05  7.043579E+04  1.457814E+05 -1.050857E+05 -5.038620E+04  4.918910E+04
        69   8  3.140824E+05  7.099240E+03  1.022987E+05 -1.459080E+05 -4.341757E+04  3.097276E+04
        69   9  1.020971E+05 -9.794720E+04  5.873739E+04 -2.346060E+05 -3.646244E+04  1.276516E+04
        69  10 -9.856978E+05 -4.924722E+05 -1.457652E+05 -5.363433E+05 -2.107859E-08 -1.080746E-08
        69  11 -7.738601E+05 -3.871971E+05 -1.027290E+05 -4.478030E+05 -1.241908E-08 -7.656402E-09
        69  12 -5.201867E+05 -3.236323E+05 -5.974434E+04 -4.071455E+05 -2.124450E-09 -3.662108E-09
        69  13 -2.092183E+05 -2.110472E+05  1.548825E+01 -3.208388E+05  8.267416E-09  1.096457E-08
        69  14 -2.300431E+05 -1.900626E+05 -2.114921E+02 -2.969160E+05  5.669093E-11  5.645925E-09
        69  15 -2.090945E+05 -2.107938E+05 -5.024576E+02 -3.208953E+05 -4.662531E-10 -1.363522E-09
        69  16  5.678913E+05  7.043251E+04  1.457721E+05 -1.050837E+05  3.501387E-08  1.526212E-08
        69  17  3.140801E+05  7.097705E+03  1.022934E+05 -1.459069E+05  1.469648E-08  8.635476E-09
        69  18  1.020956E+05 -9.794773E+04  5.873459E+04 -2.346057E+05  1.966616E-09  5.553649E-11
        69  19 -9.856964E+05 -4.924668E+05 -1.457558E+05 -5.363430E+05 -6.266599E+03 -7.039760E+04
        69  20 -7.738592E+05 -3.871941E+05 -1.027236E+05 -4.478024E+05 -1.320263E+04 -5.215417E+04
        69  21 -5.201860E+05 -3.236309E+05 -5.974142E+04 -4.071450E+05 -2.012531E+04 -3.391930E+04
        69  22 -2.092168E+05 -2.110433E+05  2.311987E+01 -3.208399E+05  2.204086E+04 -5.980044E+04
        69  23 -2.300424E+05 -1.900607E+05 -2.078175E+02 -2.969165E+05  1.509427E+04 -4.156841E+04
        69  24 -2.090943E+05 -2.107932E+05 -5.013085E+02 -3.208954E+05  8.161106E+03 -2.334502E+04
        69  25  5.678946E+05  7.043579E+04  1.457814E+05 -1.050857E+05  5.038620E+04 -4.918910E+04
        69  26  3.140824E+05  7.099240E+03  1.022987E+05 -1.459080E+05  4.341757E+04 -3.097276E+04
        69  27  1.020971E+05 -9.794720E+04  5.873739E+04 -2.346060E+05  3.646244E+04 -1.276516E+04
        70   1 -3.654010E+05 -2.673392E+05 -2.947387E+04 -3.643711E+05  2.424974E+04  2.332877E+04
        70   2 -1.533061E+05 -1.622106E+05  1.326389E+04 -2.757978E+05  3.135061E+04  5.285378E+03
        70   3  1.005362E+05 -9.879796E+04  5.577392E+04 -2.351365E+05  3.836075E+04 -1.251214E+04
        70   4 -2.091111E+05 -2.107714E+05 -7.140559E+02 -3.209122E+05 -4.082617E+03  1.273923E+04
        70   5 -2.299270E+05 -1.899075E+05 -1.371335E+03 -2.969331E+05  3.393206E+03 -5.165160E+03
        70   6 -2.091325E+05 -2.108426E+05 -2.557413E+03 -3.208906E+05  1.077812E+04 -2.282359E+04
        70   7 -5.279243E+04 -1.542001E+05  2.804869E+04 -2.774422E+05 -3.242285E+04  2.146742E+03
        70   8 -3.065403E+05 -2.176034E+05 -1.600356E+04 -3.180656E+05 -2.456064E+04 -1.561438E+04
        70   9 -5.186994E+05 -3.228781E+05 -6.088938E+04 -4.066046E+05 -1.678980E+04 -3.312956E+04
        70  10 -3.654018E+05 -2.673399E+05 -2.947600E+04 -3.643715E+05 -4.542908E-09 -1.541138E-09
        70  11 -1.533072E+05 -1.622109E+05  1.326199E+04 -2.757980E+05 -1.370409E-09 -1.634295E-10
        70  12  1.005345E+05 -9.879852E+04  5.577086E+04 -2.351361E+05  9.633003E-10 -1.454930E-09
        70  13 -2.091112E+05 -2.107716E+05 -7.143921E+02 -3.209121E+05  2.836250E-09 -1.543579E-09
        70  14 -2.299270E+05 -1.899075E+05 -1.371407E+03 -2.969331E+05  3.110129E-09 -3.019640E-09
        70  15 -2.091327E+05 -2.108432E+05 -2.558610E+03 -3.208904E+05  6.650330E-09  4.666020E-10
        70  16 -5.279356E+04 -1.542004E+05  2.804671E+04 -2.774421E+05  5.651383E-09 -1.122050E-09
        70  17 -3.065410E+05 -2.176039E+05 -1.600515E+04 -3.180659E+05  5.517264E-09 -6.870533E-10
        70  18 -5.187000E+05 -3.228794E+05 -6.089197E+04 -4.066050E+05  3.254906E-09  2.898301E-10
        70  19 -3.654010E+05 -2.673392E+05 -2.947387E+04 -3.643711E+05 -2.424974E+04 -2.332877E+04
        70  20 -1.533061E+05 -1.622106E+05  1.326389E+04 -2.757978E+05 -3.135061E+04 -5.285378E+03
        70  21  1.005362E+05 -9.879796E+04  5.577392E+04 -2.351365E+05 -3.836075E+04  1.251214E+04
        70  22 -2.091111E+05 -2.107714E+05 -7.140559E+02 -3.209122E+05  4.082617E+03 -1.273923E+04
        70  23 -2.299270E+05 -1.899075E+05 -1.371335E+03 -2.969331E+05 -3.393206E+03  5.165160E+03
        70  24 -2.091325E+05 -2.108426E+05 -2.557413E+03 -3.208906E+05 -1.077812E+04  2.282359E+04
        70  25 -5.279243E+04 -1.542001E+05  2.804869E+04 -2.774422E+05  3.242285E+04 -2.146742E+03
        70  26 -3.065403E+05 -2.176034E+05 -1.600356E+04 -3.180656E+05  2.456064E+04  1.561438E+04
        70  27 -5.186994E+05 -3.228781E+05 -6.088938E+04 -4.066046E+05  1.678980E+04  3.312956E+04
        71   1  2.555331E+05 -4.256213E+04  8.549766E+04 -1.924972E+05  4.331867E+04 -2.271356E+04
        71   2  4.670894E+05  6.278619E+04  1.277640E+05 -1.033531E+05  4.768031E+04 -3.990291E+04
        71   3  7.203292E+05  1.259550E+05  1.712129E+05 -6.161002E+04  5.084471E+04 -5.387009E+04
        71   4 -2.093233E+05 -2.107838E+05 -3.417094E+03 -3.209254E+05  1.520857E+04 -3.322526E+04
        71   5 -2.298659E+05 -1.903917E+05 -6.295915E+03 -2.967887E+05  2.455967E+04 -4.855752E+04
        71   6 -2.097670E+05 -2.131758E+05 -1.194420E+04 -3.200784E+05  3.271346E+04 -6.066532E+04
        71   7 -6.739489E+05 -3.789843E+05 -9.233646E+04 -4.492630E+05 -1.287876E+04 -4.372848E+04
        71   8 -9.263153E+05 -4.435257E+05 -1.403744E+05 -4.900226E+05  1.466784E+03 -5.720173E+04
        71   9 -1.138976E+06 -5.522330E+05 -1.951421E+05 -5.781904E+05  1.461115E+04 -6.744966E+04
        71  10  2.555309E+05 -4.256319E+04  8.549317E+04 -1.924964E+05  1.895040E-09  3.731114E-10
        71  11  4.670866E+05  6.278387E+04  1.277567E+05 -1.033516E+05 -1.151949E-09 -1.250214E-10
        71  12  7.203256E+05  1.259512E+05  1.712026E+05 -6.160781E+04  1.529940E-09  6.129650E-10
        71  13 -2.093238E+05 -2.107851E+05 -3.419602E+03 -3.209250E+05  5.495461E-09  5.108677E-10
        71  14 -2.298671E+05 -1.903944E+05 -6.301477E+03 -2.967877E+05  4.330973E-09  8.510981E-10
        71  15 -2.097692E+05 -2.131800E+05 -1.195312E+04 -3.200768E+05  2.148066E-09  6.162230E-10
        71  16 -6.739496E+05 -3.789864E+05 -9.234037E+04 -4.492635E+05  7.696360E-10  1.211224E-09
        71  17 -9.263162E+05 -4.435293E+05 -1.403806E+05 -4.900226E+05 -1.788672E-09  1.132763E-09
        71  18 -1.138978E+06 -5.522379E+05 -1.951510E+05 -5.781896E+05 -1.070697E-09  2.110917E-09
        71  19  2.555331E+05 -4.256213E+04  8.549766E+04 -1.924972E+05 -4.331867E+04  2.271356E+04
        71  20  4.670894E+05  6.278619E+04  1.277640E+05 -1.033531E+05 -4.768031E+04  3.990291E+04
        71  21  7.203292E+05  1.259550E+05  1.712129E+05 -6.161002E+04 -5.084471E+04  5.387009E+04
        71  22 -2.093233E+05 -2.107838E+05 -3.417094E+03 -3.209254E+05 -1.520857E+04  3.322526E+04
        71  23 -2.298659E+05 -1.903917E+05 -6.295915E+03 -2.967887E+05 -2.455967E+04  4.855752E+04
        71  24 -2.097670E+05 -2.131758E+05 -1.194420E+04 -3.200784E+05 -3.271346E+04  6.066532E+04
        71  25 -6.739489E+05 -3.789843E+05 -9.233646E+04 -4.492630E+05  1.287876E+04  4.372848E+04
        71  26 -9.263153E+05 -4.435257E+05 -1.403744E+05 -4.900226E+05 -1.466784E+03  5.720173E+04
        71  27 -1.138976E+06 -5.522330E+05 -1.951421E+05 -5.781904E+05 -1.461115E+04  6.744966E+04
        72   1  8.782239E+05  1.812639E+05  1.994367E+05 -2.288958E+04  6.319986E+04 -6.035155E+04
        72   2  1.076811E+06  2.926629E+05  2.537810E+05  8.151483E+04  1.155866E+04 -7.404931E+04
        72   3  1.313670E+06  3.438775E+05  3.391894E+05  1.489139E+05 -5.592089E+04 -4.563773E+04
        72   4 -2.121036E+05 -2.117107E+05 -1.573809E+04 -3.208452E+05  3.815221E+04 -6.974190E+04
        72   5 -2.283813E+05 -2.002637E+05 -2.976596E+04 -2.929584E+05  5.191916E+04 -5.894086E+04
        72   6 -2.193967E+05 -2.619954E+05 -6.452125E+04 -3.021044E+05  4.985108E+04 -5.974989E+03
        72   7 -1.301209E+06 -6.045900E+05 -2.309671E+05 -6.183210E+05  1.315157E+04 -7.911505E+04
        72   8 -1.531819E+06 -6.930186E+05 -3.134012E+05 -6.666925E+05  9.218760E+04 -4.386923E+04
        72   9 -1.750101E+06 -8.676197E+05 -4.683708E+05 -7.520691E+05  1.553336E+05  3.356560E+04
        72  10  8.782187E+05  1.812590E+05  1.994223E+05 -2.288651E+04  1.174237E-09  1.545016E-09
        72  11  1.076809E+06  2.926570E+05  2.537704E+05  8.151552E+04 -2.185391E-09  8.351841E-12
        72  12  1.313666E+06  3.438744E+05  3.391797E+05  1.489119E+05  1.589477E-11 -4.501922E-10
        72  13 -2.121065E+05 -2.117163E+05 -1.574996E+04 -3.208431E+05  1.011356E-09  2.101379E-09
        72  14 -2.283851E+05 -2.002681E+05 -2.977755E+04 -2.929560E+05 -4.691700E-10  3.142534E-10
        72  15 -2.193993E+05 -2.619961E+05 -6.452599E+04 -3.021041E+05  1.267761E-10 -2.810939E-10
        72  16 -1.301211E+06 -6.045967E+05 -2.309792E+05 -6.183201E+05 -2.626413E-09  9.977989E-10
        72  17 -1.531829E+06 -6.930230E+05 -3.134208E+05 -6.666892E+05 -2.208248E-09 -1.911792E-10
        72  18 -1.750127E+06 -8.676274E+05 -4.684184E+05 -7.520733E+05  2.468476E-09  4.829291E-11
        72  19  8.782239E+05  1.812639E+05  1.994367E+05 -2.288958E+04 -6.319986E+04  6.035155E+04
        72  20  1.076811E+06  2.926629E+05  2.537810E+05  8.151483E+04 -1.155866E+04  7.404931E+04
        72  21  1.313670E+06  3.438775E+05  3.391894E+05  1.489139E+05  5.592089E+04  4.563773E+04
        72  22 -2.121036E+05 -2.117107E+05 -1.573809E+04 -3.208452E+05 -3.815221E+04  6.974190E+04
        72  23 -2.283813E+05 -2.002637E+05 -2.976596E+04 -2.929584E+05 -5.191916E+04  5.894086E+04
        72  24 -2.193967E+05 -2.619954E+05 -6.452125E+04 -3.021044E+05 -4.985108E+04  5.974989E+03
        72  25 -1.301209E+06 -6.045900E+05 -2.309671E+05 -6.183210E+05 -1.315157E+04  7.911505E+04
        72  26 -1.531819E+06 -6.930186E+05 -3.134012E+05 -6.666925E+05 -9.218760E+04  4.386923E+04
        72  27 -1.750101E+06 -8.676197E+05 -4.683708E+05 -7.520691E+05 -1.553336E+05 -3.356560E+04
        73   1 -2.000683E+05 -9.485739E+04 -8.374260E+04 -7.022582E+04 -1.708851E+04  6.733678E+03
        73   2 -1.273120E+05 -1.004476E+05 -6.443246E+04 -7.958460E+04 -1.717373E+03  2.238465E+04
        73   3 -5.307753E+04 -9.223281E+04 -5.167877E+04 -9.979560E+04  1.366074E+04  2.640438E+04
        73   4  3.719824E+05  4.601885E+04  4.872592E+04 -1.015465E+05  3.442921E+04  6.743602E+03
        73   5  3.688417E+05  1.657347E+04  2.461201E+04 -9.611870E+04  2.188993E+04  2.238609E+04
        73   6  3.720139E+05  5.770592E+03  1.331941E+04 -1.015415E+05  9.355610E+03  2.640235E+04
        73   7  9.443433E+05  1.868772E+05  1.811830E+05 -1.328962E+05  8.599406E+04  6.748326E+03
        73   8  8.652372E+05  1.335822E+05  1.136492E+05 -1.126664E+05  4.551556E+04  2.238627E+04
        73   9  7.972861E+05  1.037653E+05  7.831375E+04 -1.032886E+05  5.047647E+03  2.640035E+04
        73  10 -2.000686E+05 -9.485752E+04 -8.374323E+04 -7.022573E+04  1.247319E-07  4.129068E-11
        73  11 -1.273122E+05 -1.004481E+05 -6.443341E+04 -7.958457E+04  5.734077E-08 -8.543522E-10
        73  12 -5.307792E+04 -9.223361E+04 -5.168044E+04 -9.979589E+04 -1.797903E-08 -3.205703E-09
        73  13  3.719811E+05  4.601849E+04  4.872361E+04 -1.015466E+05  2.296298E-09  2.214057E-09
        73  14  3.688411E+05  1.657280E+04  2.461017E+04 -9.611910E+04 -4.125448E-09  8.509637E-09
        73  15  3.720136E+05  5.769820E+03  1.331793E+04 -1.015417E+05  2.564339E-09  1.385646E-08
        73  16  9.443353E+05  1.868752E+05  1.811691E+05 -1.328966E+05 -1.249576E-07 -1.649219E-10
        73  17  8.652348E+05  1.335811E+05  1.136444E+05 -1.126672E+05 -5.572713E-08 -1.790914E-09
        73  18  7.972859E+05  1.037646E+05  7.831240E+04 -1.032887E+05  1.986994E-08 -3.638587E-09
        73  19 -2.000683E+05 -9.485739E+04 -8.374260E+04 -7.022582E+04  1.708851E+04 -6.733678E+03
        73  20 -1.273120E+05 -1.004476E+05 -6.443246E+04 -7.958460E+04  1.717373E+03 -2.238465E+04
        73  21 -5.307753E+04 -9.223281E+04 -5.167877E+04 -9.979560E+04 -1.366074E+04 -2.640438E+04
        73  22  3.719824E+05  4.601885E+04  4.872592E+04 -1.015465E+05 -3.442921E+04 -6.743602E+03
        73  23  3.688417E+05  1.657347E+04  2.461201E+04 -9.611870E+04 -2.188993E+04 -2.238609E+04
        73  24  3.720139E+05  5.770592E+03  1.331941E+04 -1.015415E+05 -9.355610E+03 -2.640235E+04
        73  25  9.443433E+05  1.868772E+05  1.811830E+05 -1.328962E+05 -8.599406E+04 -6.748326E+03
        73  26  8.652372E+05  1.335822E+05  1.136492E+05 -1.126664E+05 -4.551556E+04 -2.238627E+04
        73  27  7.972861E+05  1.037653E+05  7.831375E+04 -1.032886E+05 -5.047647E+03 -2.640035E+04
        74   1 -8.203106E+03 -8.278676E+04 -4.601741E+04 -9.926980E+04  1.285399E+04  2.482107E+04
        74   2  6.509524E+04 -6.812152E+04 -3.680256E+04 -9.467804E+04  1.394475E+04  2.185360E+04
        74   3  1.385752E+05 -5.222836E+04 -2.798770E+04 -1.017977E+05  1.503528E+04  1.731413E+04
        74   4  3.708021E+05  4.189169E+03  9.932028E+03 -1.017336E+05  7.621960E+03  2.481939E+04
        74   5  3.703949E+05  1.355695E+03  5.356857E+03 -9.587817E+04  4.938256E+03  2.185255E+04
        74   6  3.708184E+05  4.049266E+02  3.001361E+03 -1.017336E+05  2.254215E+03  1.731414E+04
        74   7  7.499519E+05  9.115843E+04  6.587898E+04 -1.041989E+05  2.386868E+03  2.481776E+04
        74   8  6.757894E+05  7.082885E+04  4.751551E+04 -9.707890E+04 -4.072466E+03  2.185155E+04
        74   9  6.031170E+05  5.303599E+04  3.399059E+04 -1.016695E+05 -1.053141E+04  1.731414E+04
        74  10 -8.203449E+03 -8.278747E+04 -4.601888E+04 -9.927005E+04 -1.334170E-07 -4.117236E-09
        74  11  6.509490E+04 -6.812208E+04 -3.680382E+04 -9.467829E+04 -6.654157E-08 -4.102834E-09
        74  12  1.385748E+05 -5.222874E+04 -2.798869E+04 -1.017979E+05  4.625570E-09 -3.771404E-09
        74  13  3.708019E+05  4.188491E+03  9.930761E+03 -1.017337E+05  1.226103E-09  1.371826E-08
        74  14  3.703948E+05  1.355175E+03  5.355913E+03 -9.587825E+04 -8.516341E-10  6.573169E-09
        74  15  3.708183E+05  4.046032E+02  3.000788E+03 -1.017336E+05 -2.514788E-10 -1.260831E-09
        74  16  7.499517E+05  9.115777E+04  6.587781E+04 -1.041989E+05  1.330418E-07 -3.727343E-09
        74  17  6.757892E+05  7.082834E+04  4.751458E+04 -9.707883E+04  6.444256E-08 -2.593717E-09
        74  18  6.031168E+05  5.303564E+04  3.398982E+04 -1.016693E+05 -5.267484E-09 -3.149088E-09
        74  19 -8.203106E+03 -8.278676E+04 -4.601741E+04 -9.926980E+04 -1.285399E+04 -2.482107E+04
        74  20  6.509524E+04 -6.812152E+04 -3.680256E+04 -9.467804E+04 -1.394475E+04 -2.185360E+04
        74  21  1.385752E+05 -5.222836E+04 -2.798770E+04 -1.017977E+05 -1.503528E+04 -1.731413E+04
        74  22  3.708021E+05  4.189169E+03  9.932028E+03 -1.017336E+05 -7.621960E+03 -2.481939E+04
        74  23  3.703949E+05  1.355695E+03  5.356857E+03 -9.587817E+04 -4.938256E+03 -2.185255E+04
        74  24  3.708184E+05  4.049266E+02  3.001361E+03 -1.017336E+05 -2.254215E+03 -1.731414E+04
        74  25  7.499519E+05  9.115843E+04  6.587898E+04 -1.041989E+05 -2.386868E+03 -2.481776E+04
        74  26  6.757894E+05  7.082885E+04  4.751551E+04 -9.707890E+04  4.072466E+03 -2.185155E+04
        74  27  6.031170E+05  5.303599E+04  3.399059E+04 -1.016695E+05  1.053141E+04 -1.731414E+04
        75   1  1.837791E+05 -4.200371E+04 -2.234705E+04 -1.017005E+05  1.471883E+04  1.414241E+04
        75   2  2.571245E+05 -2.560167E+04 -1.356167E+04 -9.585098E+04  1.459967E+04  8.660226E+03
        75   3  3.305171E+05 -9.109438E+03 -4.674885E+03 -1.018266E+05  1.448020E+04  2.966444E+03
        75   4  3.706664E+05  2.836502E+02  2.260542E+03 -1.017590E+05  1.812731E+03  1.414285E+04
        75   5  3.706039E+05  5.133506E+01  1.264227E+03 -9.584653E+04  1.184763E+03  8.661114E+03
        75   6  3.706723E+05 -2.133847E+00  7.222577E+02 -1.017590E+05  5.565097E+02  2.967789E+03
        75   7  5.575898E+05  4.256962E+04  2.686852E+04 -1.018175E+05 -1.109706E+04  1.414329E+04
        75   8  4.840969E+05  2.570390E+04  1.609072E+04 -9.584208E+04 -1.223247E+04  8.662000E+03
        75   9  4.108297E+05  9.105205E+03  6.120115E+03 -1.016915E+05 -1.336804E+04  2.969131E+03
        75  10  1.837788E+05 -4.200398E+04 -2.234784E+04 -1.017007E+05 -9.605707E-09 -3.605186E-09
        75  11  2.571242E+05 -2.560181E+04 -1.356221E+04 -9.585108E+04 -3.468113E-09 -3.265483E-09
        75  12  3.305168E+05 -9.109504E+03 -4.675296E+03 -1.018266E+05 -4.787160E-09 -2.197030E-09
        75  13  3.706664E+05  2.834345E+02  2.260160E+03 -1.017590E+05  9.606901E-10 -3.634388E-09
        75  14  3.706039E+05  5.125411E+01  1.264083E+03 -9.584654E+04  3.247346E-09 -3.313186E-09
        75  15  3.706723E+05 -2.143390E+00  7.222406E+02 -1.017590E+05  2.562455E-09 -2.257452E-09
        75  16  5.575896E+05  4.256937E+04  2.686791E+04 -1.018174E+05  5.123646E-09 -3.654724E-09
        75  17  4.840967E+05  2.570378E+04  1.609030E+04 -9.584200E+04  4.594098E-09 -3.392672E-09
        75  18  4.108295E+05  9.105148E+03  6.119762E+03 -1.016915E+05  5.784801E-09 -2.372061E-09
        75  19  1.837791E+05 -4.200371E+04 -2.234705E+04 -1.017005E+05 -1.471883E+04 -1.414241E+04
        75  20  2.571245E+05 -2.560167E+04 -1.356167E+04 -9.585098E+04 -1.459967E+04 -8.660226E+03
        75  21  3.305171E+05 -9.109438E+03 -4.674885E+03 -1.018266E+05 -1.448020E+04 -2.966444E+03
        75  22  3.706664E+05  2.836502E+02  2.260542E+03 -1.017590E+05 -1.812731E+03 -1.414285E+04
        75  23  3.706039E+05  5.133506E+01  1.264227E+03 -9.584653E+04 -1.184763E+03 -8.661114E+03
        75  24  3.706723E+05 -2.133847E+00  7.222577E+02 -1.017590E+05 -5.565097E+02 -2.967789E+03
        75  25  5.575898E+05  4.256962E+04  2.686852E+04 -1.018175E+05  1.109706E+04 -1.414329E+04
        75  26  4.840969E+05  2.570390E+04  1.609072E+04 -9.584208E+04  1.223247E+04 -8.662000E+03
        75  27  4.108297E+05  9.105205E+03  6.120115E+03 -1.016915E+05  1.336804E+04 -2.969131E+03
        76   1  3.757571E+05  1.140928E+03  1.172467E+03 -1.018074E+05  1.438456E+04 -4.186140E+02
        76   2  4.491204E+05  1.764498E+04  1.018489E+04 -9.587607E+04  1.428474E+04 -6.235678E+03
        76   3  5.225084E+05  3.415283E+04  1.926475E+04 -1.017850E+05  1.418515E+04 -1.207550E+04
        76   4  3.706497E+05 -5.008522E+00  5.476896E+02 -1.017625E+05  4.439691E+02 -4.172304E+02
        76   5  3.706339E+05 -1.900277E+01  3.136628E+02 -9.584229E+04  2.885918E+02 -6.234582E+03
        76   6  3.706457E+05 -1.979332E+01  1.847414E+02 -1.017625E+05  1.334535E+02 -1.207470E+04
        76   7  3.655427E+05 -1.150842E+03 -7.635797E+01 -1.017175E+05 -1.349651E+04 -4.158487E+02
        76   8  2.921542E+05 -1.768313E+04 -9.556842E+03 -9.580851E+04 -1.370588E+04 -6.233487E+03
        76   9  2.188072E+05 -3.419324E+04 -1.889458E+04 -1.017400E+05 -1.391498E+04 -1.207391E+04
        76  10  3.757568E+05  1.140872E+03  1.172078E+03 -1.018074E+05 -2.873338E-09 -1.530980E-09
        76  11  4.491201E+05  1.764489E+04  1.018443E+04 -9.587599E+04  9.146877E-10 -1.296810E-09
        76  12  5.225081E+05  3.415262E+04  1.926410E+04 -1.017848E+05 -4.327569E-10 -1.907474E-09
        76  13  3.706497E+05 -5.008762E+00  5.476889E+02 -1.017625E+05 -1.089552E-09 -1.615474E-09
        76  14  3.706339E+05 -1.904454E+01  3.135896E+02 -9.584229E+04  3.179311E-09 -1.142429E-09
        76  15  3.706457E+05 -1.994991E+01  1.844673E+02 -1.017625E+05  4.399145E-10 -1.245856E-09
        76  16  3.655425E+05 -1.150891E+03 -7.670040E+01 -1.017175E+05  4.608479E-09 -1.699820E-09
        76  17  2.921540E+05 -1.768323E+04 -9.557268E+03 -9.580858E+04  4.261031E-09 -1.027148E-09
        76  18  2.188069E+05 -3.419345E+04 -1.889522E+04 -1.017401E+05  2.026898E-09 -5.969298E-10
        76  19  3.757571E+05  1.140928E+03  1.172467E+03 -1.018074E+05 -1.438456E+04  4.186140E+02
        76  20  4.491204E+05  1.764498E+04  1.018489E+04 -9.587607E+04 -1.428474E+04  6.235678E+03
        76  21  5.225084E+05  3.415283E+04  1.926475E+04 -1.017850E+05 -1.418515E+04  1.207550E+04
        76  22  3.706497E+05 -5.008522E+00  5.476896E+02 -1.017625E+05 -4.439691E+02  4.172304E+02
        76  23  3.706339E+05 -1.900277E+01  3.136628E+02 -9.584229E+04 -2.885918E+02  6.234582E+03
        76  24  3.706457E+05 -1.979332E+01  1.847414E+02 -1.017625E+05 -1.334535E+02  1.207470E+04
        76  25  3.655427E+05 -1.150842E+03 -7.635797E+01 -1.017175E+05  1.349651E+04  4.158487E+02
        76  26  2.921542E+05 -1.768313E+04 -9.556842E+03 -9.580851E+04  1.370588E+04  6.233487E+03
        76  27  2.188072E+05 -3.419324E+04 -1.889458E+04 -1.017400E+05  1.391498E+04  1.207391E+04
        77   1  5.677667E+05  4.439375E+04  2.520769E+04 -1.017789E+05  1.415536E+04 -1.548328E+04
        77   2  6.411497E+05  6.089620E+04  3.438096E+04 -9.584165E+04  1.401273E+04 -2.131308E+04
        77   3  7.145702E+05  7.741477E+04  4.365381E+04 -1.017462E+05  1.387090E+04 -2.710181E+04
        77   4  3.706400E+05 -2.265478E+01  1.438408E+02 -1.017628E+05  1.036990E+02 -1.548287E+04
        77   5  3.706257E+05 -3.440708E+01  9.079349E+01 -9.584182E+04  5.892866E+01 -2.131370E+04
        77   6  3.706263E+05 -4.694400E+01  6.890051E+01 -1.017629E+05  1.496451E+01 -2.710345E+04
        77   7  1.735535E+05 -4.444054E+04 -2.491942E+04 -1.017468E+05 -1.394372E+04 -1.548247E+04
        77   8  1.001772E+05 -6.096790E+04 -3.419889E+04 -9.584198E+04 -1.388910E+04 -2.131432E+04
        77   9  2.680422E+04 -7.751338E+04 -4.351569E+04 -1.017795E+05 -1.383368E+04 -2.710510E+04
        77  10  5.677665E+05  4.439343E+04  2.520687E+04 -1.017787E+05 -6.249647E-10 -1.595176E-09
        77  11  6.411493E+05  6.089566E+04  3.437974E+04 -9.584141E+04  3.871057E-10 -2.764213E-10
        77  12  7.145698E+05  7.741393E+04  4.365207E+04 -1.017459E+05 -1.580497E-09 -5.072697E-10
        77  13  3.706399E+05 -2.291224E+01  1.433903E+02 -1.017628E+05  1.328336E-09 -1.281424E-09
        77  14  3.706256E+05 -3.489498E+01  8.993967E+01 -9.584182E+04 -7.865211E-10 -1.017600E-09
        77  15  3.706261E+05 -4.773296E+01  6.751982E+01 -1.017629E+05  4.517232E-10 -1.038750E-09
        77  16  1.735532E+05 -4.444085E+04 -2.492023E+04 -1.017470E+05  3.735069E-09 -1.007945E-09
        77  17  1.001768E+05 -6.096844E+04 -3.420011E+04 -9.584222E+04  5.224295E-09 -1.990557E-09
        77  18  2.680381E+04 -7.751422E+04 -4.351743E+04 -1.017798E+05  1.270211E-09 -1.694935E-09
        77  19  5.677667E+05  4.439375E+04  2.520769E+04 -1.017789E+05 -1.415536E+04  1.548328E+04
        77  20  6.411497E+05  6.089620E+04  3.438096E+04 -9.584165E+04 -1.401273E+04  2.131308E+04
        77  21  7.145702E+05  7.741477E+04  4.365381E+04 -1.017462E+05 -1.387090E+04  2.710181E+04
        77  22  3.706400E+05 -2.265478E+01  1.438408E+02 -1.017628E+05 -1.036990E+02  1.548287E+04
        77  23  3.706257E+05 -3.440708E+01  9.079349E+01 -9.584182E+04 -5.892866E+01  2.131370E+04
        77  24  3.706263E+05 -4.694400E+01  6.890051E+01 -1.017629E+05 -1.496451E+01  2.710345E+04
        77  25  1.735535E+05 -4.444054E+04 -2.491942E+04 -1.017468E+05  1.394372E+04  1.548247E+04
        77  26  1.001772E+05 -6.096790E+04 -3.419889E+04 -9.584198E+04  1.388910E+04  2.131432E+04
        77  27  2.680422E+04 -7.751338E+04 -4.351569E+04 -1.017795E+05  1.383368E+04  2.710510E+04
        78   1  7.598743E+05  8.767039E+04  4.970786E+04 -1.017300E+05  1.383489E+04 -3.046808E+04
        78   2  8.332353E+05  1.042323E+05  5.931001E+04 -9.578833E+04  1.299283E+04 -3.605722E+04
        78   3  9.067671E+05  1.209390E+05  6.950182E+04 -1.016701E+05  1.215192E+04 -4.131042E+04
        78   4  3.706227E+05 -5.625723E+01  6.627392E+01 -1.017588E+05  3.323821E+00 -3.047054E+04
        78   5  3.705978E+05 -7.659035E+01  7.356253E+01 -9.584685E+04 -3.216809E+01 -3.606131E+04
        78   6  3.705994E+05 -9.159950E+01  1.108038E+02 -1.017588E+05 -6.643466E+01 -4.131601E+04
        78   7 -1.847317E+04 -8.778902E+04 -4.957520E+04 -1.017876E+05 -1.382000E+04 -3.047299E+04
        78   8 -9.182013E+04 -1.043942E+05 -5.916319E+04 -9.590531E+04 -1.304794E+04 -3.606539E+04
        78   9 -1.652740E+05 -1.211341E+05 -6.928120E+04 -1.018475E+05 -1.227476E+04 -4.132160E+04
        78  10  7.598738E+05  8.766934E+04  4.970575E+04 -1.017297E+05 -2.867509E-09 -4.022615E-10
        78  11  8.332347E+05  1.042309E+05  5.930725E+04 -9.578795E+04  2.270853E-09 -3.464972E-10
        78  12  9.067665E+05  1.209371E+05  6.949834E+04 -1.016697E+05  3.653769E-09  8.081613E-12
        78  13  3.706224E+05 -5.725440E+01  6.452887E+01 -1.017588E+05 -1.068557E-09 -7.270811E-10
        78  14  3.705974E+05 -7.798702E+01  7.111837E+01 -9.584685E+04 -9.893094E-11 -2.043860E-10
        78  15  3.705989E+05 -9.343285E+01  1.075954E+02 -1.017588E+05 -1.739441E-10 -2.541486E-10
        78  16 -1.847363E+04 -8.779007E+04 -4.957730E+04 -1.017880E+05  3.064490E-09 -1.086802E-09
        78  17 -9.182066E+04 -1.043956E+05 -5.916595E+04 -9.590569E+04 -4.805056E-09 -2.979576E-10
        78  18 -1.652746E+05 -1.211360E+05 -6.928469E+04 -1.018479E+05 -1.928113E-09 -1.614444E-10
        78  19  7.598743E+05  8.767039E+04  4.970786E+04 -1.017300E+05 -1.383489E+04  3.046808E+04
        78  20  8.332353E+05  1.042323E+05  5.931001E+04 -9.578833E+04 -1.299283E+04  3.605722E+04
        78  21  9.067671E+05  1.209390E+05  6.950182E+04 -1.016701E+05 -1.215192E+04  4.131042E+04
        78  22  3.706227E+05 -5.625723E+01  6.627392E+01 -1.017588E+05 -3.323821E+00  3.047054E+04
        78  23  3.705978E+05 -7.659035E+01  7.356253E+01 -9.584685E+04  3.216809E+01  3.606131E+04
        78  24  3.705994E+05 -9.159950E+01  1.108038E+02 -1.017588E+05  6.643466E+01  4.131601E+04
        78  25 -1.847317E+04 -8.778902E+04 -4.957520E+04 -1.017876E+05  1.382000E+04  3.047299E+04
        78  26 -9.182013E+04 -1.043942E+05 -5.916319E+04 -9.590531E+04  1.304794E+04  3.606539E+04
        78  27 -1.652740E+05 -1.211341E+05 -6.928120E+04 -1.018475E+05  1.227476E+04  4.132160E+04
        79   1  9.522673E+05  1.313458E+05  7.616460E+04 -1.015983E+05  1.193567E+04 -4.433740E+04
        79   2  1.025229E+06  1.484168E+05  8.862589E+04 -9.577593E+04  5.821606E+03 -4.809358E+04
        79   3  1.099310E+06  1.666119E+05  1.053544E+05 -1.015934E+05 -2.932320E+02 -4.935432E+04
        79   4  3.706004E+05 -1.009549E+02  1.417013E+02 -1.017181E+05 -8.648363E+01 -4.434406E+04
        79   5  3.705474E+05 -8.859475E+01  2.388201E+02 -9.589776E+04 -2.031024E+02 -4.810049E+04
        79   6  3.705678E+05  8.004805E+00  4.425383E+02 -1.017181E+05 -3.197073E+02 -4.936009E+04
        79   7 -2.107206E+05 -1.315618E+05 -7.588278E+04 -1.018377E+05 -1.209793E+04 -4.435073E+04
        79   8 -2.836981E+05 -1.486124E+05 -8.815212E+04 -9.601945E+04 -6.221757E+03 -4.810741E+04
        79   9 -3.576387E+05 -1.666201E+05 -1.044776E+05 -1.018427E+05 -3.461527E+02 -4.936586E+04
        79  10  9.522666E+05  1.313436E+05  7.616064E+04 -1.015979E+05  5.765514E-10  1.599621E-10
        79  11  1.025228E+06  1.484143E+05  8.862148E+04 -9.577570E+04  5.663990E-10 -3.491283E-12
        79  12  1.099309E+06  1.666093E+05  1.053498E+05 -1.015935E+05  2.390936E-09 -1.662132E-09
        79  13  3.705998E+05 -1.030669E+02  1.380054E+02 -1.017181E+05  1.093986E-09 -4.818572E-11
        79  14  3.705467E+05 -9.107966E+01  2.344714E+02 -9.589776E+04  6.009345E-11  1.046036E-10
        79  15  3.705672E+05  5.388031E+00  4.379588E+02 -1.017181E+05 -3.150372E-09 -8.509899E-10
        79  16 -2.107213E+05 -1.315640E+05 -7.588675E+04 -1.018382E+05  8.437318E-10 -1.063470E-10
        79  17 -2.836987E+05 -1.486149E+05 -8.815655E+04 -9.601969E+04 -5.463821E-10  1.155854E-09
        79  18 -3.576393E+05 -1.666227E+05 -1.044822E+05 -1.018427E+05 -1.525679E-09  2.522896E-10
        79  19  9.522673E+05  1.313458E+05  7.616460E+04 -1.015983E+05 -1.193567E+04  4.433740E+04
        79  20  1.025229E+06  1.484168E+05  8.862589E+04 -9.577593E+04 -5.821606E+03  4.809358E+04
        79  21  1.099310E+06  1.666119E+05  1.053544E+05 -1.015934E+05  2.932320E+02  4.935432E+04
        79  22  3.706004E+05 -1.009549E+02  1.417013E+02 -1.017181E+05  8.648363E+01  4.434406E+04
        79  23  3.705474E+05 -8.859475E+01  2.388201E+02 -9.589776E+04  2.031024E+02  4.810049E+04
        79  24  3.705678E+05  8.004805E+00  4.425383E+02 -1.017181E+05  3.197073E+02  4.936009E+04
        79  25 -2.107206E+05 -1.315618E+05 -7.588278E+04 -1.018377E+05  1.209793E+04  4.435073E+04
        79  26 -2.836981E+05 -1.486124E+05 -8.815212E+04 -9.601945E+04  6.221757E+03  4.810741E+04
        79  27 -3.576387E+05 -1.666201E+05 -1.044776E+05 -1.018427E+05  3.461527E+02  4.936586E+04
        80   1  1.146048E+06  1.781665E+05  1.163746E+05 -1.012091E+05 -1.841434E+03 -4.985958E+04
        80   2  1.215728E+06  1.991529E+05  1.496862E+05 -9.667704E+04 -4.677778E+04 -4.004585E+04
        80   3  1.293450E+06  2.287018E+05  2.143699E+05 -1.024131E+05 -9.173885E+04 -1.176732E+04
        80   4  3.706153E+05  6.301361E+01  5.939122E+02 -1.014128E+05 -3.973065E+02 -4.986505E+04
        80   5  3.704238E+05  5.312569E+02  1.086196E+03 -9.627967E+04 -9.409707E+02 -4.002625E+04
        80   6  3.705752E+05  1.868039E+03  2.157241E+03 -1.014137E+05 -1.502431E+03 -1.171117E+04
        80   7 -4.042142E+05 -1.780688E+05 -1.151983E+05 -1.016162E+05  1.045092E+03 -4.987052E+04
        80   8 -4.741785E+05 -1.981282E+05 -1.475319E+05 -9.588290E+04  4.483537E+04 -4.000658E+04
        80   9 -5.514956E+05 -2.250208E+05 -2.100812E+05 -1.004158E+05  8.860114E+04 -1.165470E+04
        80  10  1.146047E+06  1.781639E+05  1.163699E+05 -1.012091E+05  9.728186E-11 -2.194147E-09
        80  11  1.215726E+06  1.991506E+05  1.496791E+05 -9.667855E+04  5.820988E-10 -2.038377E-09
        80  12  1.293441E+06  2.286994E+05  2.143538E+05 -1.024139E+05 -2.414561E-09 -4.301399E-10
        80  13  3.706146E+05  6.034301E+01  5.892384E+02 -1.014128E+05 -1.489280E-09 -3.196461E-09
        80  14  3.704233E+05  5.295360E+02  1.083183E+03 -9.627970E+04 -1.663722E-09  7.242263E-10
        80  15  3.705751E+05  1.867891E+03  2.156979E+03 -1.014137E+05 -1.134417E-09 -7.035944E-11
        80  16 -4.042149E+05 -1.780715E+05 -1.152030E+05 -1.016162E+05 -4.595411E-10 -6.964985E-10
        80  17 -4.741811E+05 -1.981305E+05 -1.475387E+05 -9.588146E+04  1.637576E-10  1.132647E-10
        80  18 -5.515041E+05 -2.250231E+05 -2.100962E+05 -1.004150E+05  9.683596E-10 -9.504567E-10
        80  19  1.146048E+06  1.781665E+05  1.163746E+05 -1.012091E+05  1.841434E+03  4.985958E+04
        80  20  1.215728E+06  1.991529E+05  1.496862E+05 -9.667704E+04  4.677778E+04  4.004585E+04
        80  21  1.293450E+06  2.287018E+05  2.143699E+05 -1.024131E+05  9.173885E+04  1.176732E+04
        80  22  3.706153E+05  6.301361E+01  5.939122E+02 -1.014128E+05  3.973065E+02  4.986505E+04
        80  23  3.704238E+05  5.312569E+02  1.086196E+03 -9.627967E+04  9.409707E+02  4.002625E+04
        80  24  3.705752E+05  1.868039E+03  2.157241E+03 -1.014137E+05  1.502431E+03  1.171117E+04
        80  25 -4.042142E+05 -1.780688E+05 -1.151983E+05 -1.016162E+05 -1.045092E+03  4.987052E+04
        80  26 -4.741785E+05 -1.981282E+05 -1.475319E+05 -9.588290E+04 -4.483537E+04  4.000658E+04
        80  27 -5.514956E+05 -2.250208E+05 -2.100812E+05 -1.004158E+05 -8.860114E+04  1.165470E+04
        81   1  1.957825E+05  9.396682E+05  1.869531E+05 -2.451816E+05  7.611906E+03  5.888223E+04
        81   2  1.409976E+05  7.557615E+05  1.149339E+05 -2.284925E+05  2.346292E+04  1.900383E+04
        81   3  9.574259E+04  5.794426E+05  7.123231E+04 -2.406059E+05  2.305593E+04 -2.086753E+04
        81   4  6.815406E+03  1.741394E+05  7.178392E+03 -2.401692E+05  7.656397E+03  3.644314E+03
        81   5  2.587231E+03  1.736449E+05  4.702350E+03 -2.257696E+05  2.347994E+04  1.275508E+03
        81   6  1.389584E+03  1.742091E+05  4.522759E+03 -2.401733E+05  2.303871E+04 -1.097847E+03
        81   7 -1.821917E+05 -5.908438E+05 -1.726250E+05 -2.351628E+05  7.700036E+03 -5.152598E+04
        81   8 -1.358427E+05 -4.081444E+05 -1.055431E+05 -2.230491E+05  2.349681E+04 -1.643662E+04
        81   9 -9.297166E+04 -2.308613E+05 -6.219014E+04 -2.397409E+05  2.302150E+04  1.865939E+04
        81  10  1.957815E+05  9.396644E+05  1.869465E+05 -2.451819E+05  7.331618E-10  1.301065E-09
        81  11  1.409969E+05  7.557610E+05  1.149322E+05 -2.284929E+05  3.134869E-09 -2.890689E-10
        81  12  9.574191E+04  5.794420E+05  7.123050E+04 -2.406055E+05  1.694898E-09 -3.050720E-09
        81  13  6.815339E+03  1.741394E+05  7.178257E+03 -2.401692E+05  3.782230E-10 -3.444822E-11
        81  14  2.586638E+03  1.736448E+05  4.701311E+03 -2.257696E+05 -9.372056E-10 -4.454710E-11
        81  15  1.389014E+03  1.742089E+05  4.521759E+03 -2.401733E+05  8.531700E-10 -1.259643E-10
        81  16 -1.821925E+05 -5.908467E+05 -1.726301E+05 -2.351625E+05 -8.813895E-10 -1.075285E-09
        81  17 -1.358434E+05 -4.081448E+05 -1.055446E+05 -2.230488E+05 -8.600653E-10  1.410956E-09
        81  18 -9.297233E+04 -2.308618E+05 -6.219179E+04 -2.397413E+05 -2.140634E-09  3.405850E-09
        81  19  1.957825E+05  9.396682E+05  1.869531E+05 -2.451816E+05 -7.611906E+03 -5.888223E+04
        81  20  1.409976E+05  7.557615E+05  1.149339E+05 -2.284925E+05 -2.346292E+04 -1.900383E+04
        81  21  9.574259E+04  5.794426E+05  7.123231E+04 -2.406059E+05 -2.305593E+04  2.086753E+04
        81  22  6.815406E+03  1.741394E+05  7.178392E+03 -2.401692E+05 -7.656397E+03 -3.644314E+03
        81  23  2.587231E+03  1.736449E+05  4.702350E+03 -2.257696E+05 -2.347994E+04 -1.275508E+03
        81  24  1.389584E+03  1.742091E+05  4.522759E+03 -2.401733E+05 -2.303871E+04  1.097847E+03
        81  25 -1.821917E+05 -5.908438E+05 -1.726250E+05 -2.351628E+05 -7.700036E+03  5.152598E+04
        81  26 -1.358427E+05 -4.081444E+05 -1.055431E+05 -2.230491E+05 -2.349681E+04  1.643662E+04
        81  27 -9.297166E+04 -2.308613E+05 -6.219014E+04 -2.397409E+05 -2.302150E+04 -1.865939E+04
        82   1  6.923929E+04  4.666989E+05  5.219385E+04 -2.410980E+05  1.730168E+04 -2.245131E+04
        82   2  2.768456E+04  2.860635E+05  2.338227E+04 -2.243964E+05  8.088375E+03 -2.750422E+04
        82   3 -1.105974E+04  1.067853E+05 -1.449703E+03 -2.375976E+05 -1.709242E+03 -3.255671E+04
        82   4  1.332492E+03  1.742306E+05  5.023359E+03 -2.404177E+05  1.728249E+04 -1.875187E+03
        82   5  2.020163E+03  1.736917E+05  7.388690E+03 -2.254647E+05  8.067268E+03 -5.583683E+03
        82   6  5.286152E+03  1.742438E+05  1.279904E+04 -2.404145E+05 -1.732324E+03 -9.293103E+03
        82   7 -6.657840E+04 -1.181520E+05 -4.214786E+04 -2.397376E+05  1.726334E+04  1.869159E+04
        82   8 -2.364454E+04  6.133371E+04 -8.603270E+03 -2.265329E+05  8.046084E+03  1.633306E+04
        82   9  2.163207E+04  2.417076E+05  2.704956E+04 -2.432316E+05 -1.755616E+03  1.397299E+04
        82  10  6.923883E+04  4.666982E+05  5.219234E+04 -2.410977E+05  7.174597E-10  3.172348E-09
        82  11  2.768428E+04  2.860626E+05  2.338073E+04 -2.243962E+05  1.860265E-10  1.132406E-09
        82  12 -1.106003E+04  1.067842E+05 -1.451700E+03 -2.375976E+05 -2.694307E-09 -1.727251E-09
        82  13  1.332170E+03  1.742305E+05  5.022791E+03 -2.404177E+05 -1.866429E-09 -3.585972E-11
        82  14  2.020085E+03  1.736916E+05  7.388509E+03 -2.254647E+05 -9.341125E-10  8.714335E-13
        82  15  5.286125E+03  1.742437E+05  1.279887E+04 -2.404145E+05 -4.573923E-09 -3.228967E-11
        82  16 -6.657881E+04 -1.181524E+05 -4.214908E+04 -2.397379E+05 -2.514031E-09 -2.898639E-09
        82  17 -2.364468E+04  6.133341E+04 -8.603893E+03 -2.265330E+05 -1.529215E-09 -8.085357E-12
        82  18  2.163202E+04  2.417074E+05  2.704919E+04 -2.432316E+05 -1.113973E-09  2.195549E-09
        82  19  6.923929E+04  4.666989E+05  5.219385E+04 -2.410980E+05 -1.730168E+04  2.245131E+04
        82  20  2.768456E+04  2.860635E+05  2.338227E+04 -2.243964E+05 -8.088375E+03  2.750422E+04
        82  21 -1.105974E+04  1.067853E+05 -1.449703E+03 -2.375976E+05  1.709242E+03  3.255671E+04
        82  22  1.332492E+03  1.742306E+05  5.023359E+03 -2.404177E+05 -1.728249E+04  1.875187E+03
        82  23  2.020163E+03  1.736917E+05  7.388690E+03 -2.254647E+05 -8.067268E+03  5.583683E+03
        82  24  5.286152E+03  1.742438E+05  1.279904E+04 -2.404145E+05  1.732324E+03  9.293103E+03
        82  25 -6.657840E+04 -1.181520E+05 -4.214786E+04 -2.397376E+05 -1.726334E+04 -1.869159E+04
        82  26 -2.364454E+04  6.133371E+04 -8.603270E+03 -2.265329E+05 -8.046084E+03 -1.633306E+04
        82  27  2.163207E+04  2.417076E+05  2.704956E+04 -2.432316E+05  1.755616E+03 -1.397299E+04
        83   1 -3.559430E+04 -4.096314E+03 -1.595458E+04 -2.386291E+05 -8.035770E+03 -3.424135E+04
        83   2 -6.561467E+04 -1.857872E+05 -4.039681E+04 -2.052386E+05 -1.207054E+04 -2.304404E+04
        83   3 -7.589433E+04 -3.639876E+05 -6.720119E+04 -2.010264E+05 -4.416177E+03 -1.184519E+04
        83   4  6.958768E+03  1.758019E+05  1.690996E+04 -2.402538E+05 -8.057968E+03 -1.151443E+04
        83   5  2.017808E+04  1.717161E+05  3.084914E+04 -2.256477E+05 -1.206532E+04 -2.724890E+04
        83   6  5.780529E+04  1.757546E+05  6.112240E+04 -2.402131E+05 -4.387340E+03 -4.297857E+04
        83   7  4.951030E+04  3.557326E+05  4.977514E+04 -2.418789E+05 -8.080281E+03  1.121889E+04
        83   8  1.059646E+05  5.293424E+05  1.020890E+05 -2.460687E+05 -1.205983E+04 -3.145614E+04
        83   9  1.914902E+05  7.157697E+05  1.894301E+05 -2.794339E+05 -4.354590E+03 -7.413889E+04
        83  10 -3.559469E+04 -4.097591E+03 -1.595691E+04 -2.386293E+05 -3.732481E-10  1.155418E-09
        83  11 -6.561497E+04 -1.857879E+05 -4.039808E+04 -2.052388E+05  2.909773E-09  6.897685E-10
        83  12 -7.589439E+04 -3.639877E+05 -6.720149E+04 -2.010265E+05  3.814200E-10 -8.102308E-10
        83  13  6.958662E+03  1.758017E+05  1.690959E+04 -2.402538E+05 -2.081665E-09  3.659671E-12
        83  14  2.017772E+04  1.717153E+05  3.084748E+04 -2.256479E+05  7.824753E-10 -3.050681E-11
        83  15  5.780477E+04  1.757527E+05  6.111889E+04 -2.402133E+05  2.259438E-10 -9.871420E-11
        83  16  4.951019E+04  3.557324E+05  4.977478E+04 -2.418788E+05 -2.058726E-09 -7.915121E-10
        83  17  1.059641E+05  5.293413E+05  1.020869E+05 -2.460690E+05 -2.529119E-09  4.539851E-10
        83  18  1.914887E+05  7.157638E+05  1.894197E+05 -2.794342E+05 -6.270876E-10  1.245479E-09
        83  19 -3.559430E+04 -4.096314E+03 -1.595458E+04 -2.386291E+05  8.035770E+03  3.424135E+04
        83  20 -6.561467E+04 -1.857872E+05 -4.039681E+04 -2.052386E+05  1.207054E+04  2.304404E+04
        83  21 -7.589433E+04 -3.639876E+05 -6.720119E+04 -2.010264E+05  4.416177E+03  1.184519E+04
        83  22  6.958768E+03  1.758019E+05  1.690996E+04 -2.402538E+05  8.057968E+03  1.151443E+04
        83  23  2.017808E+04  1.717161E+05  3.084914E+04 -2.256477E+05  1.206532E+04  2.724890E+04
        83  24  5.780529E+04  1.757546E+05  6.112240E+04 -2.402131E+05  4.387340E+03  4.297857E+04
        83  25  4.951030E+04  3.557326E+05  4.977514E+04 -2.418789E+05  8.080281E+03 -1.121889E+04
        83  26  1.059646E+05  5.293424E+05  1.020890E+05 -2.460687E+05  1.205983E+04  3.145614E+04
        83  27  1.914902E+05  7.157697E+05  1.894301E+05 -2.794339E+05  4.354590E+03  7.413889E+04
        84   1 -3.994555E+05 -2.244699E+05 -1.381976E+05 -1.718433E+05 -6.872790E+04 -2.209299E+04
        84   2 -3.757413E+05 -1.419897E+05 -7.901747E+04 -1.604621E+05 -4.281020E+04 -4.113548E+03
        84   3 -3.674428E+05 -1.078767E+05 -5.301721E+04 -1.440232E+05 -1.461674E+04  7.810592E+03
        84   4 -2.026425E+05 -1.114880E+05 -7.980269E+04 -7.769166E+04 -5.283224E+04 -1.613192E+04
        84   5 -1.914968E+05 -5.724622E+04 -3.678372E+04 -9.184833E+04 -3.629663E+04 -1.670652E+03
        84   6 -1.939025E+05 -4.950684E+04 -1.950378E+04 -1.009499E+05 -1.748652E+04  6.733443E+03
        84   7 -5.789974E+03  1.513478E+03 -2.141092E+04  1.649082E+04 -3.693134E+04 -1.016635E+04
        84   8 -7.217400E+03  2.750571E+04  5.447877E+03 -2.321412E+04 -2.978101E+04  7.734649E+02
        84   9 -2.033005E+04  8.864883E+03  1.400864E+04 -5.786570E+04 -2.035717E+04  5.656022E+03
        84  10 -3.994607E+05 -2.244717E+05 -1.382074E+05 -1.718445E+05 -5.388201E-10 -4.757382E-10
        84  11 -3.757433E+05 -1.419902E+05 -7.902095E+04 -1.604623E+05  9.838791E-09  1.149724E-09
        84  12 -3.674430E+05 -1.078768E+05 -5.301773E+04 -1.440231E+05  9.780622E-09 -2.219214E-10
        84  13 -2.026456E+05 -1.114891E+05 -7.980842E+04 -7.769235E+04  5.226033E-09  1.031651E-09
        84  14 -1.914982E+05 -5.724657E+04 -3.678620E+04 -9.184838E+04  7.024385E-09  1.316344E-09
        84  15 -1.939028E+05 -4.950697E+04 -1.950444E+04 -1.009498E+05  3.543695E-09 -5.714975E-10
        84  16 -5.791466E+03  1.513001E+03 -2.141368E+04  1.649052E+04  5.993161E-09  1.526748E-09
        84  17 -7.218353E+03  2.750547E+04  5.446209E+03 -2.321410E+04  8.452593E-09  1.151314E-09
        84  18 -2.033051E+04  8.864737E+03  1.400780E+04 -5.786560E+04 -2.273366E-09 -2.430845E-10
        84  19 -3.994555E+05 -2.244699E+05 -1.381976E+05 -1.718433E+05  6.872790E+04  2.209299E+04
        84  20 -3.757413E+05 -1.419897E+05 -7.901747E+04 -1.604621E+05  4.281020E+04  4.113548E+03
        84  21 -3.674428E+05 -1.078767E+05 -5.301721E+04 -1.440232E+05  1.461674E+04 -7.810592E+03
        84  22 -2.026425E+05 -1.114880E+05 -7.980269E+04 -7.769166E+04  5.283224E+04  1.613192E+04
        84  23 -1.914968E+05 -5.724622E+04 -3.678372E+04 -9.184833E+04  3.629663E+04  1.670652E+03
        84  24 -1.939025E+05 -4.950684E+04 -1.950378E+04 -1.009499E+05  1.748652E+04 -6.733443E+03
        84  25 -5.789974E+03  1.513478E+03 -2.141092E+04  1.649082E+04  3.693134E+04  1.016635E+04
        84  26 -7.217400E+03  2.750571E+04  5.447877E+03 -2.321412E+04  2.978101E+04 -7.734649E+02
        84  27 -2.033005E+04  8.864883E+03  1.400864E+04 -5.786570E+04  2.035717E+04 -5.656022E+03
        85   1 -3.422253E+05 -1.068245E+05 -4.449000E+04 -1.422605E+05 -1.295941E+04  7.146511E+03
        85   2 -3.168404E+05 -9.138823E+04 -3.155466E+04 -1.318951E+05 -7.772169E+03  7.448511E+03
        85   3 -2.879321E+05 -8.303010E+04 -2.264439E+04 -1.268115E+05 -2.411342E+03  7.287954E+03
        85   4 -1.915172E+05 -5.094699E+04 -1.479726E+04 -9.940578E+04 -1.483666E+04  6.441806E+03
        85   5 -1.931641E+05 -4.616948E+04 -7.809447E+03 -9.725546E+04 -1.036544E+04  6.475304E+03
        85   6 -1.911461E+05 -4.832798E+04 -4.278522E+03 -1.003873E+05 -5.720829E+03  6.046211E+03
        85   7 -4.078685E+04  4.932261E+03  1.489408E+04 -5.654176E+04 -1.671438E+04  5.736917E+03
        85   8 -6.947193E+04 -9.492986E+02  1.593515E+04 -6.260944E+04 -1.295926E+04  5.501888E+03
        85   9 -9.434935E+04 -1.362474E+04  1.408725E+04 -7.395910E+04 -9.030897E+03  4.804255E+03
        85  10 -3.422255E+05 -1.068246E+05 -4.449041E+04 -1.422604E+05  1.849513E-09 -3.444167E-09
        85  11 -3.168404E+05 -9.138830E+04 -3.155488E+04 -1.318950E+05  2.418859E-09 -2.019587E-09
        85  12 -2.879321E+05 -8.303016E+04 -2.264451E+04 -1.268115E+05  1.733301E-09 -2.653802E-09
        85  13 -1.915174E+05 -5.094709E+04 -1.479775E+04 -9.940570E+04  9.542746E-11 -1.944768E-10
        85  14 -1.931642E+05 -4.616955E+04 -7.809727E+03 -9.725541E+04 -6.354808E-09 -3.513544E-10
        85  15 -1.911461E+05 -4.832803E+04 -4.278652E+03 -1.003873E+05 -1.014792E-08 -3.717848E-09
        85  16 -4.078716E+04  4.932151E+03  1.489350E+04 -5.654168E+04 -4.439135E-10  2.415593E-09
        85  17 -6.947212E+04 -9.493762E+02  1.593477E+04 -6.260938E+04 -8.827768E-09  1.222271E-09
        85  18 -9.434945E+04 -1.362479E+04  1.408705E+04 -7.395907E+04 -1.672679E-08 -4.708864E-09
        85  19 -3.422253E+05 -1.068245E+05 -4.449000E+04 -1.422605E+05  1.295941E+04 -7.146511E+03
        85  20 -3.168404E+05 -9.138823E+04 -3.155466E+04 -1.318951E+05  7.772169E+03 -7.448511E+03
        85  21 -2.879321E+05 -8.303010E+04 -2.264439E+04 -1.268115E+05  2.411342E+03 -7.287954E+03
        85  22 -1.915172E+05 -5.094699E+04 -1.479726E+04 -9.940578E+04  1.483666E+04 -6.441806E+03
        85  23 -1.931641E+05 -4.616948E+04 -7.809447E+03 -9.725546E+04  1.036544E+04 -6.475304E+03
        85  24 -1.911461E+05 -4.832798E+04 -4.278522E+03 -1.003873E+05  5.720829E+03 -6.046211E+03
        85  25 -4.078685E+04  4.932261E+03  1.489408E+04 -5.654176E+04  1.671438E+04 -5.736917E+03
        85  26 -6.947193E+04 -9.492986E+02  1.593515E+04 -6.260944E+04  1.295926E+04 -5.501888E+03
        85  27 -9.434935E+04 -1.362474E+04  1.408725E+04 -7.395910E+04  9.030897E+03 -4.804255E+03
        86   1 -2.692415E+05 -7.666681E+04 -1.797018E+04 -1.219000E+05 -1.421271E+03  6.237397E+03
        86   2 -2.441109E+05 -6.417197E+04 -1.135156E+04 -1.114619E+05  3.049142E+02  4.484624E+03
        86   3 -2.142043E+05 -5.672708E+04 -5.455941E+03 -1.066912E+05  2.044299E+03  2.696399E+03
        86   4 -1.909655E+05 -4.840073E+04 -3.217161E+03 -1.002871E+05 -4.655451E+03  5.023985E+03
        86   5 -1.933543E+05 -4.585422E+04 -1.768240E+03 -9.746317E+04 -2.984132E+03  3.250711E+03
        86   6 -1.909569E+05 -4.834673E+04 -9.987471E+02 -1.003069E+05 -1.299665E+03  1.441975E+03
        86   7 -1.126832E+05 -2.013411E+04  1.153565E+04 -7.867166E+04 -7.890066E+03  3.810411E+03
        86   8 -1.425952E+05 -2.753632E+04  7.814956E+03 -8.346347E+04 -6.273451E+03  2.016697E+03
        86   9 -1.677091E+05 -3.996641E+04  3.458412E+03 -9.392237E+04 -4.643732E+03  1.875127E+02
        86  10 -2.692415E+05 -7.666685E+04 -1.797026E+04 -1.219000E+05 -6.956622E-09 -5.614850E-09
        86  11 -2.441109E+05 -6.417199E+04 -1.135160E+04 -1.114619E+05 -4.590016E-09 -3.384827E-09
        86  12 -2.142043E+05 -5.672709E+04 -5.455963E+03 -1.066912E+05 -2.473621E-09 -1.801201E-09
        86  13 -1.909656E+05 -4.840077E+04 -3.217249E+03 -1.002871E+05 -1.446852E-08 -5.093852E-09
        86  14 -1.933543E+05 -4.585423E+04 -1.768277E+03 -9.746316E+04 -8.654129E-09 -3.082081E-09
        86  15 -1.909569E+05 -4.834674E+04 -9.987542E+02 -1.003068E+05 -3.554746E-09 -2.685149E-11
        86  16 -1.126833E+05 -2.013415E+04  1.153550E+04 -7.867163E+04 -7.624135E-09 -4.373032E-09
        86  17 -1.425952E+05 -2.753634E+04  7.814875E+03 -8.346346E+04 -5.664751E-10 -2.927404E-09
        86  18 -1.677091E+05 -3.996642E+04  3.458372E+03 -9.392237E+04  5.765570E-09  1.799736E-09
        86  19 -2.692415E+05 -7.666681E+04 -1.797018E+04 -1.219000E+05  1.421271E+03 -6.237397E+03
        86  20 -2.441109E+05 -6.417197E+04 -1.135156E+04 -1.114619E+05 -3.049142E+02 -4.484624E+03
        86  21 -2.142043E+05 -5.672708E+04 -5.455941E+03 -1.066912E+05 -2.044299E+03 -2.696399E+03
        86  22 -1.909655E+05 -4.840073E+04 -3.217161E+03 -1.002871E+05  4.655451E+03 -5.023985E+03
        86  23 -1.933543E+05 -4.585422E+04 -1.768240E+03 -9.746317E+04  2.984132E+03 -3.250711E+03
        86  24 -1.909569E+05 -4.834673E+04 -9.987471E+02 -1.003069E+05  1.299665E+03 -1.441975E+03
        86  25 -1.126832E+05 -2.013411E+04  1.153565E+04 -7.867166E+04  7.890066E+03 -3.810411E+03
        86  26 -1.425952E+05 -2.753632E+04  7.814956E+03 -8.346347E+04  6.273451E+03 -2.016697E+03
        86  27 -1.677091E+05 -3.996641E+04  3.458412E+03 -9.392237E+04  4.643732E+03 -1.875127E+02
        87   1 -1.958954E+05 -5.009130E+04 -1.627902E+03 -1.016299E+05  2.656537E+03  1.493477E+03
        87   2 -1.708431E+05 -3.767618E+04  3.769442E+03 -9.116522E+04  3.708418E+03 -5.698756E+02
        87   3 -1.408871E+05 -3.020490E+04  8.984924E+03 -8.636217E+04  4.761191E+03 -2.635481E+03
        87   4 -1.909345E+05 -4.835102E+04 -7.689375E+02 -1.002961E+05 -6.817845E+02  2.411835E+02
        87   5 -1.933869E+05 -4.588486E+04 -4.820006E+02 -9.746293E+04  3.664892E+02 -1.823568E+03
        87   6 -1.909363E+05 -4.836218E+04 -3.742818E+02 -1.002920E+05  1.415641E+03 -3.890572E+03
        87   7 -1.859734E+05 -4.661072E+04  9.008704E+01 -9.896214E+04 -4.020165E+03 -1.011132E+03
        87   8 -2.159303E+05 -5.409352E+04 -4.733445E+03 -1.037605E+05 -2.975325E+03 -3.077218E+03
        87   9 -2.409830E+05 -6.651924E+04 -9.733542E+03 -1.142208E+05 -1.929623E+03 -5.145554E+03
        87  10 -1.958954E+05 -5.009131E+04 -1.627920E+03 -1.016299E+05  5.887225E-09  2.044043E-09
        87  11 -1.708431E+05 -3.767618E+04  3.769415E+03 -9.116522E+04 -1.058586E-08 -2.633417E-09
        87  12 -1.408871E+05 -3.020491E+04  8.984868E+03 -8.636216E+04 -1.330963E-08 -2.782099E-09
        87  13 -1.909345E+05 -4.835102E+04 -7.689385E+02 -1.002961E+05 -7.242079E-09 -8.167958E-10
        87  14 -1.933869E+05 -4.588486E+04 -4.820071E+02 -9.746293E+04 -1.374464E-08 -4.245966E-09
        87  15 -1.909364E+05 -4.836220E+04 -3.743140E+02 -1.002920E+05 -6.399573E-09 -1.477643E-09
        87  16 -1.859735E+05 -4.661072E+04  9.005474E+01 -9.896215E+04 -9.618779E-09 -3.838027E-09
        87  17 -2.159303E+05 -5.409353E+04 -4.733480E+03 -1.037605E+05 -9.334705E-09 -5.420859E-09
        87  18 -2.409830E+05 -6.651927E+04 -9.733599E+03 -1.142208E+05  4.098899E-09 -3.444752E-10
        87  19 -1.958954E+05 -5.009130E+04 -1.627902E+03 -1.016299E+05 -2.656537E+03 -1.493477E+03
        87  20 -1.708431E+05 -3.767618E+04  3.769442E+03 -9.116522E+04 -3.708418E+03  5.698756E+02
        87  21 -1.408871E+05 -3.020490E+04  8.984924E+03 -8.636217E+04 -4.761191E+03  2.635481E+03
        87  22 -1.909345E+05 -4.835102E+04 -7.689375E+02 -1.002961E+05  6.817845E+02 -2.411835E+02
        87  23 -1.933869E+05 -4.588486E+04 -4.820006E+02 -9.746293E+04 -3.664892E+02  1.823568E+03
        87  24 -1.909363E+05 -4.836218E+04 -3.742818E+02 -1.002920E+05 -1.415641E+03  3.890572E+03
        87  25 -1.859734E+05 -4.661072E+04  9.008704E+01 -9.896214E+04  4.020165E+03  1.011132E+03
        87  26 -2.159303E+05 -5.409352E+04 -4.733445E+03 -1.037605E+05  2.975325E+03  3.077218E+03
        87  27 -2.409830E+05 -6.651924E+04 -9.733542E+03 -1.142208E+05  1.929623E+03  5.145554E+03
        88   1 -1.226177E+05 -2.355385E+04  1.258401E+04 -8.129692E+04  5.294869E+03 -3.868317E+03
        88   2 -9.757383E+04 -1.113292E+04  1.759520E+04 -7.083552E+04  6.329690E+03 -5.939422E+03
        88   3 -6.762443E+04 -3.652766E+03  2.243807E+04 -6.603357E+04  7.363089E+03 -8.006250E+03
        88   4 -1.909370E+05 -4.836256E+04 -3.715543E+02 -1.002915E+05  1.949333E+03 -5.123455E+03
        88   5 -1.933892E+05 -4.588940E+04 -4.668203E+02 -9.746275E+04  2.990622E+03 -7.192284E+03
        88   6 -1.909378E+05 -4.835831E+04 -7.355216E+02 -1.002937E+05  4.030484E+03 -9.256846E+03
        88   7 -2.592509E+05 -7.317061E+04 -1.332709E+04 -1.192840E+05 -1.395780E+03 -6.378434E+03
        88   8 -2.891949E+05 -8.064504E+04 -1.852917E+04 -1.240862E+05 -3.478941E+02 -8.444939E+03
        88   9 -3.142364E+05 -9.306287E+04 -2.390998E+04 -1.345478E+05  6.985576E+02 -1.050719E+04
        88  10 -1.226178E+05 -2.355387E+04  1.258393E+04 -8.129690E+04 -2.657825E-10  1.341995E-09
        88  11 -9.757388E+04 -1.113297E+04  1.759506E+04 -7.083549E+04 -6.872867E-09 -2.394339E-09
        88  12 -6.762450E+04 -3.652850E+03  2.243785E+04 -6.603352E+04 -7.564443E-09 -2.591607E-09
        88  13 -1.909371E+05 -4.836259E+04 -3.716108E+02 -1.002915E+05 -6.342253E-09 -7.984934E-10
        88  14 -1.933892E+05 -4.588946E+04 -4.669343E+02 -9.746273E+04 -8.832756E-09 -2.393424E-09
        88  15 -1.909379E+05 -4.835840E+04 -7.357131E+02 -1.002937E+05 -2.935182E-09 -1.688335E-09
        88  16 -2.592509E+05 -7.317065E+04 -1.332717E+04 -1.192840E+05 -6.659430E-09 -3.232614E-09
        88  17 -2.891950E+05 -8.064511E+04 -1.852930E+04 -1.240862E+05 -5.387727E-09 -2.859692E-09
        88  18 -3.142365E+05 -9.306299E+04 -2.391019E+04 -1.345478E+05  2.109606E-09 -3.871385E-10
        88  19 -1.226177E+05 -2.355385E+04  1.258401E+04 -8.129692E+04 -5.294869E+03  3.868317E+03
        88  20 -9.757383E+04 -1.113292E+04  1.759520E+04 -7.083552E+04 -6.329690E+03  5.939422E+03
        88  21 -6.762443E+04 -3.652766E+03  2.243807E+04 -6.603357E+04 -7.363089E+03  8.006250E+03
        88  22 -1.909370E+05 -4.836256E+04 -3.715543E+02 -1.002915E+05 -1.949333E+03  5.123455E+03
        88  23 -1.933892E+05 -4.588940E+04 -4.668203E+02 -9.746275E+04 -2.990622E+03  7.192284E+03
        88  24 -1.909378E+05 -4.835831E+04 -7.355216E+02 -1.002937E+05 -4.030484E+03  9.256846E+03
        88  25 -2.592509E+05 -7.317061E+04 -1.332709E+04 -1.192840E+05  1.395780E+03  6.378434E+03
        88  26 -2.891949E+05 -8.064504E+04 -1.852917E+04 -1.240862E+05  3.478941E+02  8.444939E+03
        88  27 -3.142364E+05 -9.306287E+04 -2.390998E+04 -1.345478E+05 -6.985576E+02  1.050719E+04
        89   1 -4.937175E+04  2.989761E+03  2.581737E+04 -6.099127E+04  7.982160E+03 -9.205151E+03
        89   2 -2.429054E+04  1.541230E+04  3.021963E+04 -5.053600E+04  9.536723E+03 -1.104914E+04
        89   3  5.598475E+03  2.282141E+04  3.404167E+04 -4.574005E+04  1.107145E+04 -1.283936E+04
        89   4 -1.909609E+05 -4.835481E+04 -9.526243E+02 -1.003029E+05  4.641513E+03 -1.045890E+04
        89   5 -1.933622E+05 -4.586853E+04 -1.682231E+03 -9.746308E+04  6.279073E+03 -1.227201E+04
        89   6 -1.909728E+05 -4.841230E+04 -3.057902E+03 -1.002830E+05  7.896755E+03 -1.403136E+04
        89   7 -3.325290E+05 -9.969755E+04 -2.772337E+04 -1.396062E+05  1.301683E+03 -1.171234E+04
        89   8 -3.624032E+05 -1.071465E+05 -3.358498E+04 -1.443781E+05  3.022389E+03 -1.349452E+04
        89   9 -3.875019E+05 -1.196418E+05 -4.015850E+04 -1.548095E+05  4.723164E+03 -1.522294E+04
        89  10 -4.937184E+04  2.989653E+03  2.581709E+04 -6.099121E+04  1.420187E-09 -1.216060E-09
        89  11 -2.429067E+04  1.541214E+04  3.021923E+04 -5.053592E+04  2.780360E-09 -2.796561E-09
        89  12  5.598299E+03  2.282120E+04  3.404113E+04 -4.573993E+04 -4.650546E-09 -1.227319E-09
        89  13 -1.909609E+05 -4.835494E+04 -9.528703E+02 -1.003029E+05  2.363648E-09 -9.140732E-10
        89  14 -1.933623E+05 -4.586870E+04 -1.682588E+03 -9.746302E+04 -4.093956E-09 -1.562708E-09
        89  15 -1.909729E+05 -4.841253E+04 -3.058390E+03 -1.002829E+05 -1.264983E-08 -3.184700E-09
        89  16 -3.325290E+05 -9.969770E+04 -2.772363E+04 -1.396062E+05 -1.396029E-09 -5.581992E-10
        89  17 -3.624033E+05 -1.071467E+05 -3.358534E+04 -1.443780E+05 -2.774472E-09 -8.602459E-10
        89  18 -3.875020E+05 -1.196421E+05 -4.015897E+04 -1.548094E+05 -1.205859E-08 -4.948931E-09
        89  19 -4.937175E+04  2.989761E+03  2.581737E+04 -6.099127E+04 -7.982160E+03  9.205151E+03
        89  20 -2.429054E+04  1.541230E+04  3.021963E+04 -5.053600E+04 -9.536723E+03  1.104914E+04
        89  21  5.598475E+03  2.282141E+04  3.404167E+04 -4.574005E+04 -1.107145E+04  1.283936E+04
        89  22 -1.909609E+05 -4.835481E+04 -9.526243E+02 -1.003029E+05 -4.641513E+03  1.045890E+04
        89  23 -1.933622E+05 -4.586853E+04 -1.682231E+03 -9.746308E+04 -6.279073E+03  1.227201E+04
        89  24 -1.909728E+05 -4.841230E+04 -3.057902E+03 -1.002830E+05 -7.896755E+03  1.403136E+04
        89  25 -3.325290E+05 -9.969755E+04 -2.772337E+04 -1.396062E+05 -1.301683E+03  1.171234E+04
        89  26 -3.624032E+05 -1.071465E+05 -3.358498E+04 -1.443781E+05 -3.022389E+03  1.349452E+04
        89  27 -3.875019E+05 -1.196418E+05 -4.015850E+04 -1.548095E+05 -4.723164E+03  1.522294E+04
        90   1  2.391425E+04  2.934210E+04  3.665120E+04 -4.100250E+04  1.221827E+04 -1.382341E+04
        90   2  4.872916E+04  4.200073E+04  3.880691E+04 -2.973088E+04  1.553952E+04 -1.459817E+04
        90   3  7.747239E+04  4.806024E+04  3.853516E+04 -2.373162E+04  1.859985E+04 -1.467644E+04
        90   4 -1.911468E+05 -4.834053E+04 -4.065397E+03 -1.003731E+05  8.930455E+03 -1.505805E+04
        90   5 -1.931818E+05 -4.618029E+04 -7.420070E+03 -9.726980E+04  1.333004E+04 -1.542839E+04
        90   6 -1.915038E+05 -5.083390E+04 -1.405764E+04 -9.943966E+04  1.746855E+04 -1.510213E+04
        90   7 -4.061617E+05 -1.260198E+05 -4.478440E+04 -1.597252E+05  5.643824E+03 -1.629225E+04
        90   8 -4.350331E+05 -1.343564E+05 -5.364981E+04 -1.647846E+05  1.112148E+04 -1.625826E+04
        90   9 -4.604050E+05 -1.497213E+05 -6.665373E+04 -1.751172E+05  1.633776E+04 -1.552762E+04
        90  10  2.391404E+04  2.934186E+04  3.665056E+04 -4.100236E+04  1.190432E-08  7.393963E-09
        90  11  4.872884E+04  4.200043E+04  3.880605E+04 -2.973070E+04  4.769655E-09  6.225408E-09
        90  12  7.747196E+04  4.805991E+04  3.853411E+04 -2.373140E+04 -1.366449E-08 -4.087466E-09
        90  13 -1.911470E+05 -4.834080E+04 -4.065973E+03 -1.003730E+05 -6.622641E-09 -2.827971E-10
        90  14 -1.931821E+05 -4.618059E+04 -7.420852E+03 -9.726964E+04  1.022723E-08  4.677586E-09
        90  15 -1.915042E+05 -5.083423E+04 -1.405865E+04 -9.943945E+04  4.434627E-09  2.766163E-09
        90  16 -4.061618E+05 -1.260201E+05 -4.478495E+04 -1.597252E+05 -1.765419E-08 -8.196033E-09
        90  17 -4.350333E+05 -1.343567E+05 -5.365054E+04 -1.647845E+05  1.244523E-08  4.737402E-09
        90  18 -4.604054E+05 -1.497216E+05 -6.665468E+04 -1.751170E+05  2.397709E-08  9.006345E-09
        90  19  2.391425E+04  2.934210E+04  3.665120E+04 -4.100250E+04 -1.221827E+04  1.382341E+04
        90  20  4.872916E+04  4.200073E+04  3.880691E+04 -2.973088E+04 -1.553952E+04  1.459817E+04
        90  21  7.747239E+04  4.806024E+04  3.853516E+04 -2.373162E+04 -1.859985E+04  1.467644E+04
        90  22 -1.911468E+05 -4.834053E+04 -4.065397E+03 -1.003731E+05 -8.930455E+03  1.505805E+04
        90  23 -1.931818E+05 -4.618029E+04 -7.420070E+03 -9.726980E+04 -1.333004E+04  1.542839E+04
        90  24 -1.915038E+05 -5.083390E+04 -1.405764E+04 -9.943966E+04 -1.746855E+04  1.510213E+04
        90  25 -4.061617E+05 -1.260198E+05 -4.478440E+04 -1.597252E+05 -5.643824E+03  1.629225E+04
        90  26 -4.350331E+05 -1.343564E+05 -5.364981E+04 -1.647846E+05 -1.112148E+04  1.625826E+04
        90  27 -4.604050E+05 -1.497213E+05 -6.665373E+04 -1.751172E+05 -1.633776E+04  1.552762E+04
        91   1  9.791118E+04  5.222887E+04  3.799333E+04 -2.465752E+04  2.260787E+04 -1.438122E+04
        91   2  1.112451E+05  7.067605E+04  3.211454E+04  8.411128E+03  2.569303E+04 -9.950322E+03
        91   3  1.145854E+05  4.770240E+04  1.298597E+04  4.621164E+04  2.535442E+04  3.594976E+03
        91   4 -1.938044E+05 -4.943254E+04 -1.852839E+04 -1.008664E+05  1.998214E+04 -1.536806E+04
        91   5 -1.915623E+05 -5.674942E+04 -3.494517E+04 -9.218221E+04  3.719500E+04 -5.632033E+03
        91   6 -2.021213E+05 -1.082999E+05 -7.581152E+04 -7.876553E+04  5.098267E+04  1.322000E+04
        91   7 -4.854314E+05 -1.510881E+05 -7.505370E+04 -1.770428E+05  1.735773E+04 -1.635445E+04
        91   8 -4.942707E+05 -1.841571E+05 -1.020086E+05 -1.927260E+05  4.869077E+04 -1.316830E+03
        91   9 -5.187167E+05 -2.642678E+05 -1.646128E+05 -2.036742E+05  7.659603E+04  2.283555E+04
        91  10  9.791058E+04  5.222851E+04  3.799198E+04 -2.465726E+04 -2.942755E-09 -1.164860E-09
        91  11  1.112444E+05  7.067577E+04  3.211311E+04  8.411333E+03  6.994217E-09  2.609623E-09
        91  12  1.145847E+05  4.770222E+04  1.298474E+04  4.621156E+04  5.877536E-09  1.975125E-09
        91  13 -1.938048E+05 -4.943290E+04 -1.852958E+04 -1.008661E+05  2.930336E-09  7.840345E-10
        91  14 -1.915638E+05 -5.674983E+04 -3.494783E+04 -9.218204E+04  7.001588E-09  3.995928E-09
        91  15 -2.021241E+05 -1.083008E+05 -7.581674E+04 -7.876607E+04  3.077073E-09  1.933542E-09
        91  16 -4.854318E+05 -1.510885E+05 -7.505477E+04 -1.770425E+05  8.152294E-09  3.345031E-09
        91  17 -4.942732E+05 -1.841577E+05 -1.020131E+05 -1.927260E+05  1.088321E-08  3.466743E-09
        91  18 -5.187231E+05 -2.642699E+05 -1.646248E+05 -2.036756E+05  3.721933E-10 -4.087634E-10
        91  19  9.791118E+04  5.222887E+04  3.799333E+04 -2.465752E+04 -2.260787E+04  1.438122E+04
        91  20  1.112451E+05  7.067605E+04  3.211454E+04  8.411128E+03 -2.569303E+04  9.950322E+03
        91  21  1.145854E+05  4.770240E+04  1.298597E+04  4.621164E+04 -2.535442E+04 -3.594976E+03
        91  22 -1.938044E+05 -4.943254E+04 -1.852839E+04 -1.008664E+05 -1.998214E+04  1.536806E+04
        91  23 -1.915623E+05 -5.674942E+04 -3.494517E+04 -9.218221E+04 -3.719500E+04  5.632033E+03
        91  24 -2.021213E+05 -1.082999E+05 -7.581152E+04 -7.876553E+04 -5.098267E+04 -1.322000E+04
        91  25 -4.854314E+05 -1.510881E+05 -7.505370E+04 -1.770428E+05 -1.735773E+04  1.635445E+04
        91  26 -4.942707E+05 -1.841571E+05 -1.020086E+05 -1.927260E+05 -4.869077E+04  1.316830E+03
        91  27 -5.187167E+05 -2.642678E+05 -1.646128E+05 -2.036742E+05 -7.659603E+04 -2.283555E+04
        92   1  8.558987E+05  1.324104E+05  1.179868E+05  1.796396E+04  3.852848E+04 -9.645995E+03
        92   2  8.203790E+05  1.446352E+05  9.602104E+04  2.999166E+04  1.696296E+04 -3.349666E+04
        92   3  7.844670E+05  1.439862E+05  8.488269E+04  4.675540E+04 -4.611655E+03 -4.273774E+04
        92   4  1.368088E+05 -4.428824E+04 -4.715070E+04  4.741708E+04 -3.326263E+04 -9.712385E+03
        92   5  1.399366E+05 -1.528637E+04 -2.371622E+04  4.502761E+04 -2.113283E+04 -3.353867E+04
        92   6  1.368211E+05 -5.013942E+03 -1.284180E+04  4.737388E+04 -9.013833E+03 -4.274701E+04
        92   7 -5.817899E+05 -2.210169E+05 -2.123025E+05  7.683573E+04 -1.049713E+05 -9.785622E+03
        92   8 -5.400497E+05 -1.752316E+05 -1.434648E+05  6.004649E+04 -5.918815E+04 -3.358255E+04
        92   9 -5.104044E+05 -1.540341E+05 -1.105747E+05  4.799157E+04 -1.341160E+04 -4.275630E+04
        92  10  8.558971E+05  1.324099E+05  1.179838E+05  1.796426E+04  6.718199E-08 -5.628461E-10
        92  11  8.203783E+05  1.446339E+05  9.601839E+04  2.999212E+04  2.718194E-10 -2.734477E-09
        92  12  7.844665E+05  1.439843E+05  8.487921E+04  4.675524E+04 -6.838314E-08 -1.906614E-09
        92  13  1.368076E+05 -4.428863E+04 -4.715296E+04  4.741682E+04  2.852292E-10  7.716518E-10
        92  14  1.399358E+05 -1.528770E+04 -2.371917E+04  4.502704E+04 -1.305628E-09 -1.240868E-09
        92  15  1.368206E+05 -5.015926E+03 -1.284539E+04  4.737357E+04 -2.942409E-09 -3.117581E-11
        92  16 -5.818018E+05 -2.210199E+05 -2.123234E+05  7.683491E+04 -6.678080E-08  5.261457E-10
        92  17 -5.400538E+05 -1.752337E+05 -1.434735E+05  6.004489E+04  7.910870E-10 -2.188893E-09
        92  18 -5.104051E+05 -1.540361E+05 -1.105785E+05  4.799111E+04  6.666792E-08 -3.034608E-09
        92  19  8.558987E+05  1.324104E+05  1.179868E+05  1.796396E+04 -3.852848E+04  9.645995E+03
        92  20  8.203790E+05  1.446352E+05  9.602104E+04  2.999166E+04 -1.696296E+04  3.349666E+04
        92  21  7.844670E+05  1.439862E+05  8.488269E+04  4.675540E+04  4.611655E+03  4.273774E+04
        92  22  1.368088E+05 -4.428824E+04 -4.715070E+04  4.741708E+04  3.326263E+04  9.712385E+03
        92  23  1.399366E+05 -1.528637E+04 -2.371622E+04  4.502761E+04  2.113283E+04  3.353867E+04
        92  24  1.368211E+05 -5.013942E+03 -1.284180E+04  4.737388E+04  9.013833E+03  4.274701E+04
        92  25 -5.817899E+05 -2.210169E+05 -2.123025E+05  7.683573E+04  1.049713E+05  9.785622E+03
        92  26 -5.400497E+05 -1.752316E+05 -1.434648E+05  6.004649E+04  5.918815E+04  3.358255E+04
        92  27 -5.104044E+05 -1.540341E+05 -1.105747E+05  4.799157E+04  1.341160E+04  4.275630E+04
        93   1  7.626383E+05  1.393969E+05  8.165942E+04  4.603611E+04 -3.733086E+03 -4.321117E+04
        93   2  7.270726E+05  1.328254E+05  7.615272E+04  4.425824E+04 -5.504646E+03 -4.383333E+04
        93   3  6.914979E+05  1.252789E+05  7.155767E+04  4.829066E+04 -7.278757E+03 -4.255797E+04
        93   4  1.380427E+05 -3.700518E+03 -9.595406E+03  4.761466E+04 -7.345553E+03 -4.321971E+04
        93   5  1.384340E+05 -1.107800E+03 -5.191587E+03  4.470705E+04 -4.742686E+03 -4.383661E+04
        93   6  1.380563E+05 -2.495324E+02 -2.912721E+03  4.761010E+04 -2.142393E+03 -4.255503E+04
        93   7 -4.861601E+05 -1.468160E+05 -1.008568E+05  4.919143E+04 -1.095454E+04 -4.322827E+04
        93   8 -4.498530E+05 -1.350562E+05 -8.653991E+04  4.515529E+04 -3.981414E+03 -4.383988E+04
        93   9 -4.150734E+05 -1.257911E+05 -7.738577E+04  4.693007E+04  2.989608E+03 -4.255211E+04
        93  10  7.626378E+05  1.393949E+05  8.165588E+04  4.603598E+04 -6.329303E-09 -2.586719E-09
        93  11  7.270721E+05  1.328233E+05  7.614906E+04  4.425805E+04 -3.880498E-09 -1.317001E-10
        93  12  6.914974E+05  1.252770E+05  7.155417E+04  4.829041E+04 -1.048777E-09 -1.823896E-11
        93  13  1.380422E+05 -3.702538E+03 -9.599017E+03  4.761440E+04 -1.870749E-09 -1.622053E-09
        93  14  1.384335E+05 -1.109870E+03 -5.195241E+03  4.470688E+04  7.641087E-10 -6.222308E-10
        93  15  1.380558E+05 -2.514784E+02 -2.916133E+03  4.761003E+04  8.175294E-10 -2.473932E-09
        93  16 -4.861607E+05 -1.468180E+05 -1.008606E+05  4.919105E+04  5.347586E-09 -3.858565E-10
        93  17 -4.498535E+05 -1.350583E+05 -8.654355E+04  4.515515E+04  2.311528E-09  2.275515E-11
        93  18 -4.150739E+05 -1.257931E+05 -7.738919E+04  4.693017E+04  4.016107E-10 -1.234727E-09
        93  19  7.626383E+05  1.393969E+05  8.165942E+04  4.603611E+04  3.733086E+03  4.321117E+04
        93  20  7.270726E+05  1.328254E+05  7.615272E+04  4.425824E+04  5.504646E+03  4.383333E+04
        93  21  6.914979E+05  1.252789E+05  7.155767E+04  4.829066E+04  7.278757E+03  4.255797E+04
        93  22  1.380427E+05 -3.700518E+03 -9.595406E+03  4.761466E+04  7.345553E+03  4.321971E+04
        93  23  1.384340E+05 -1.107800E+03 -5.191587E+03  4.470705E+04  4.742686E+03  4.383661E+04
        93  24  1.380563E+05 -2.495324E+02 -2.912721E+03  4.761010E+04  2.142393E+03  4.255503E+04
        93  25 -4.861601E+05 -1.468160E+05 -1.008568E+05  4.919143E+04  1.095454E+04  4.322827E+04
        93  26 -4.498530E+05 -1.350562E+05 -8.653991E+04  4.515529E+04  3.981414E+03  4.383988E+04
        93  27 -4.150734E+05 -1.257911E+05 -7.738577E+04  4.693007E+04 -2.989608E+03  4.255211E+04
        94   1  6.694894E+05  1.202554E+05  6.880739E+04  4.817798E+04 -6.950188E+03 -4.117889E+04
        94   2  6.339656E+05  1.122829E+05  6.447319E+04  4.523537E+04 -6.907709E+03 -3.878497E+04
        94   3  5.984224E+05  1.042736E+05  6.010075E+04  4.823734E+04 -6.866266E+03 -3.614500E+04
        94   4  1.382052E+05 -1.514688E+02 -2.196357E+03  4.764020E+04 -1.712394E+03 -4.117533E+04
        94   5  1.382708E+05  4.793756E+01 -1.231563E+03  4.466758E+04 -1.103117E+03 -3.877982E+04
        94   6  1.382172E+05  1.121685E+02 -6.987033E+02  4.763981E+04 -4.948757E+02 -3.613817E+04
        94   7 -3.927912E+05 -1.205704E+05 -7.320236E+04  4.710279E+04  3.521131E+03 -4.117178E+04
        94   8 -3.571733E+05 -1.121974E+05 -6.693805E+04  4.410017E+04  4.697061E+03 -3.877469E+04
        94   9 -3.217718E+05 -1.040582E+05 -6.149954E+04  4.704266E+04  5.872018E+03 -3.613136E+04
        94  10  6.694888E+05  1.202535E+05  6.880411E+04  4.817775E+04 -2.671973E-09  1.593698E-09
        94  11  6.339652E+05  1.122813E+05  6.447027E+04  4.523516E+04  1.772180E-09  1.317083E-09
        94  12  5.984220E+05  1.042722E+05  6.009820E+04  4.823714E+04  3.694069E-09 -2.837812E-10
        94  13  1.382047E+05 -1.532903E+02 -2.199549E+03  4.764014E+04 -1.903646E-09 -2.510158E-09
        94  14  1.382704E+05  4.632223E+01 -1.234392E+03  4.466755E+04  7.153491E-10  1.806364E-09
        94  15  1.382168E+05  1.107660E+02 -7.011581E+02  4.763979E+04  7.833455E-10  2.145077E-09
        94  16 -3.927917E+05 -1.205722E+05 -7.320557E+04  4.710291E+04  3.670866E-09 -2.330507E-10
        94  17 -3.571738E+05 -1.121990E+05 -6.694092E+04  4.410031E+04  1.252731E-09  1.712315E-09
        94  18 -3.217722E+05 -1.040596E+05 -6.150206E+04  4.704283E+04 -2.626750E-09 -8.594877E-10
        94  19  6.694894E+05  1.202554E+05  6.880739E+04  4.817798E+04  6.950188E+03  4.117889E+04
        94  20  6.339656E+05  1.122829E+05  6.447319E+04  4.523537E+04  6.907709E+03  3.878497E+04
        94  21  5.984224E+05  1.042736E+05  6.010075E+04  4.823734E+04  6.866266E+03  3.614500E+04
        94  22  1.382052E+05 -1.514688E+02 -2.196357E+03  4.764020E+04  1.712394E+03  4.117533E+04
        94  23  1.382708E+05  4.793756E+01 -1.231563E+03  4.466758E+04  1.103117E+03  3.877982E+04
        94  24  1.382172E+05  1.121685E+02 -6.987033E+02  4.763981E+04  4.948757E+02  3.613817E+04
        94  25 -3.927912E+05 -1.205704E+05 -7.320236E+04  4.710279E+04 -3.521131E+03  4.117178E+04
        94  26 -3.571733E+05 -1.121974E+05 -6.693805E+04  4.410017E+04 -4.697061E+03  3.877469E+04
        94  27 -3.217718E+05 -1.040582E+05 -6.149954E+04  4.704266E+04 -5.872018E+03  3.613136E+04
        95   1  5.764162E+05  9.926150E+04  5.719754E+04  4.820242E+04 -6.771646E+03 -3.452617E+04
        95   2  5.409111E+05  9.122728E+04  5.273228E+04  4.518562E+04 -6.702343E+03 -3.174181E+04
        95   3  5.053909E+05  8.321488E+04  4.822349E+04  4.812728E+04 -6.633700E+03 -2.892592E+04
        95   4  1.382408E+05  1.180110E+02 -5.266787E+02  4.764292E+04 -3.879104E+02 -3.451885E+04
        95   5  1.382605E+05  1.236925E+02 -2.935323E+02  4.466357E+04 -2.462313E+02 -3.173365E+04
        95   6  1.382506E+05  1.385022E+02 -1.544734E+02  4.764290E+04 -1.052106E+02 -2.891692E+04
        95   7 -2.997386E+05 -9.903356E+04 -5.825209E+04  4.708376E+04  5.991536E+03 -3.451154E+04
        95   8 -2.642245E+05 -9.098671E+04 -5.332031E+04  4.414181E+04  6.205894E+03 -3.172550E+04
        95   9 -2.287520E+05 -8.294354E+04 -4.853322E+04  4.715877E+04  6.419603E+03 -2.890792E+04
        95  10  5.764159E+05  9.926021E+04  5.719521E+04  4.820224E+04 -2.916598E-09  5.787862E-10
        95  11  5.409108E+05  9.122619E+04  5.273030E+04  4.518544E+04  2.047332E-09  6.410065E-09
        95  12  5.053906E+05  8.321397E+04  4.822184E+04  4.812712E+04  2.966807E-09  5.455319E-09
        95  13  1.382405E+05  1.167313E+02 -5.289183E+02  4.764291E+04  3.981351E-10  2.863373E-10
        95  14  1.382602E+05  1.226110E+02 -2.954250E+02  4.466356E+04 -3.112805E-10  5.510288E-09
        95  15  1.382504E+05  1.376042E+02 -1.560448E+02  4.764290E+04  1.766750E-09  1.197311E-09
        95  16 -2.997389E+05 -9.903485E+04 -5.825439E+04  4.708392E+04  3.681416E-09 -5.818932E-10
        95  17 -2.642249E+05 -9.098781E+04 -5.332228E+04  4.414197E+04  2.204647E-09  8.757185E-10
        95  18 -2.287523E+05 -8.294445E+04 -4.853487E+04  4.715892E+04 -2.808507E-09 -1.410409E-09
        95  19  5.764162E+05  9.926150E+04  5.719754E+04  4.820242E+04  6.771646E+03  3.452617E+04
        95  20  5.409111E+05  9.122728E+04  5.273228E+04  4.518562E+04  6.702343E+03  3.174181E+04
        95  21  5.053909E+05  8.321488E+04  4.822349E+04  4.812728E+04  6.633700E+03  2.892592E+04
        95  22  1.382408E+05  1.180110E+02 -5.266787E+02  4.764292E+04  3.879104E+02  3.451885E+04
        95  23  1.382605E+05  1.236925E+02 -2.935323E+02  4.466357E+04  2.462313E+02  3.173365E+04
        95  24  1.382506E+05  1.385022E+02 -1.544734E+02  4.764290E+04  1.052106E+02  2.891692E+04
        95  25 -2.997386E+05 -9.903356E+04 -5.825209E+04  4.708376E+04 -5.991536E+03  3.451154E+04
        95  26 -2.642245E+05 -9.098671E+04 -5.332031E+04  4.414181E+04 -6.205894E+03  3.172550E+04
        95  27 -2.287520E+05 -8.294354E+04 -4.853322E+04  4.715877E+04 -6.419603E+03  2.890792E+04
        96   1  4.833925E+05  7.821404E+04  4.524814E+04  4.810294E+04 -6.613314E+03 -2.727659E+04
        96   2  4.479022E+05  7.018792E+04  4.070426E+04  4.508270E+04 -6.609572E+03 -2.444288E+04
        96   3  4.123990E+05  6.218541E+04  3.615779E+04  4.802370E+04 -6.606308E+03 -2.160605E+04
        96   4  1.382568E+05  1.407345E+02 -1.061368E+02  4.764351E+04 -8.393422E+01 -2.726720E+04
        96   5  1.382680E+05  1.349056E+02 -3.048728E+01  4.466280E+04 -7.314531E+01 -2.443291E+04
        96   6  1.382643E+05  1.516200E+02  3.772632E+01  4.764350E+04 -6.283322E+01 -2.159551E+04
        96   7 -2.067572E+05 -7.793757E+04 -4.546106E+04  4.718430E+04  6.441990E+03 -2.725782E+04
        96   8 -1.712682E+05 -6.992213E+04 -4.076573E+04  4.424308E+04  6.460178E+03 -2.442295E+04
        96   9 -1.357936E+05 -6.188532E+04 -3.608271E+04  4.726345E+04  6.477890E+03 -2.158496E+04
        96  10  4.833923E+05  7.821323E+04  4.524666E+04  4.810279E+04  5.712877E-09  8.043303E-10
        96  11  4.479020E+05  7.018727E+04  4.070306E+04  4.508257E+04  5.371973E-09 -2.726341E-09
        96  12  4.123988E+05  6.218490E+04  3.615683E+04  4.802359E+04 -3.475109E-09 -3.304735E-09
        96  13  1.382566E+05  1.399361E+02 -1.075341E+02  4.764351E+04  3.756999E-09  4.385429E-09
        96  14  1.382678E+05  1.342645E+02 -3.160918E+01  4.466280E+04 -3.620581E-09 -7.233233E-10
        96  15  1.382642E+05  1.511191E+02  3.684986E+01  4.764350E+04  1.582005E-09 -2.081788E-09
        96  16 -2.067575E+05 -7.793838E+04 -4.546254E+04  4.718444E+04 -7.641673E-09  8.040707E-10
        96  17 -1.712684E+05 -6.992279E+04 -4.076693E+04  4.424321E+04 -3.653355E-09 -2.809219E-10
        96  18 -1.357938E+05 -6.188583E+04 -3.608366E+04  4.726356E+04  2.157347E-09 -1.272236E-10
        96  19  4.833925E+05  7.821404E+04  4.524814E+04  4.810294E+04  6.613314E+03  2.727659E+04
        96  20  4.479022E+05  7.018792E+04  4.070426E+04  4.508270E+04  6.609572E+03  2.444288E+04
        96  21  4.123990E+05  6.218541E+04  3.615779E+04  4.802370E+04  6.606308E+03  2.160605E+04
        96  22  1.382568E+05  1.407345E+02 -1.061368E+02  4.764351E+04  8.393422E+01  2.726720E+04
        96  23  1.382680E+05  1.349056E+02 -3.048728E+01  4.466280E+04  7.314531E+01  2.443291E+04
        96  24  1.382643E+05  1.516200E+02  3.772632E+01  4.764350E+04  6.283322E+01  2.159551E+04
        96  25 -2.067572E+05 -7.793757E+04 -4.546106E+04  4.718430E+04 -6.441990E+03  2.725782E+04
        96  26 -1.712682E+05 -6.992213E+04 -4.076573E+04  4.424308E+04 -6.460178E+03  2.442295E+04
        96  27 -1.357936E+05 -6.188532E+04 -3.608271E+04  4.726345E+04 -6.477890E+03  2.158496E+04
        97   1  3.904113E+05  5.718822E+04  3.317724E+04  4.799984E+04 -6.618086E+03 -1.995384E+04
        97   2  3.549270E+05  4.917146E+04  2.865822E+04  4.496871E+04 -6.695134E+03 -1.711814E+04
        97   3  3.194414E+05  4.119803E+04  2.419286E+04  4.789604E+04 -6.772500E+03 -1.428745E+04
        97   4  1.382697E+05  1.543857E+02  7.427526E+01  4.764288E+04 -7.528685E+01 -1.994301E+04
        97   5  1.382726E+05  1.547938E+02  1.691408E+02  4.466356E+04 -1.640418E+02 -1.710694E+04
        97   6  1.382749E+05  2.005777E+02  3.256929E+02  4.764281E+04 -2.531185E+02 -1.427588E+04
        97   7 -1.138069E+05 -5.688210E+04 -3.302895E+04  4.728604E+04  6.464982E+03 -1.993219E+04
        97   8 -7.833380E+04 -4.886383E+04 -2.832010E+04  4.435849E+04  6.364880E+03 -1.709574E+04
        97   9 -4.285793E+04 -4.079824E+04 -2.354155E+04  4.738964E+04  6.264451E+03 -1.426430E+04
        97  10  3.904111E+05  5.718778E+04  3.317641E+04  4.799974E+04  2.382099E-10 -7.300576E-10
        97  11  3.549268E+05  4.917114E+04  2.865758E+04  4.496862E+04 -1.542126E-09 -2.300326E-09
        97  12  3.194413E+05  4.119780E+04  2.419239E+04  4.789597E+04 -2.550729E-09  6.874192E-11
        97  13  1.382696E+05  1.539586E+02  7.352780E+01  4.764288E+04  2.607378E-09 -7.401255E-10
        97  14  1.382725E+05  1.544795E+02  1.685908E+02  4.466355E+04 -2.621124E-09  4.700333E-10
        97  15  1.382749E+05  2.003589E+02  3.253098E+02  4.764281E+04 -3.731251E-10  7.731691E-10
        97  16 -1.138071E+05 -5.688254E+04 -3.302978E+04  4.728615E+04 -9.814627E-10  2.926034E-09
        97  17 -7.833392E+04 -4.886416E+04 -2.832072E+04  4.435858E+04  2.204971E-09 -3.755234E-09
        97  18 -4.285802E+04 -4.079846E+04 -2.354200E+04  4.738971E+04  2.991495E-09 -1.831503E-10
        97  19  3.904113E+05  5.718822E+04  3.317724E+04  4.799984E+04  6.618086E+03  1.995384E+04
        97  20  3.549270E+05  4.917146E+04  2.865822E+04  4.496871E+04  6.695134E+03  1.711814E+04
        97  21  3.194414E+05  4.119803E+04  2.419286E+04  4.789604E+04  6.772500E+03  1.428745E+04
        97  22  1.382697E+05  1.543857E+02  7.427526E+01  4.764288E+04  7.528685E+01  1.994301E+04
        97  23  1.382726E+05  1.547938E+02  1.691408E+02  4.466356E+04  1.640418E+02  1.710694E+04
        97  24  1.382749E+05  2.005777E+02  3.256929E+02  4.764281E+04  2.531185E+02  1.427588E+04
        97  25 -1.138069E+05 -5.688210E+04 -3.302895E+04  4.728604E+04 -6.464982E+03  1.993219E+04
        97  26 -7.833380E+04 -4.886383E+04 -2.832010E+04  4.435849E+04 -6.364880E+03  1.709574E+04
        97  27 -4.285793E+04 -4.079824E+04 -2.354155E+04  4.738964E+04 -6.264451E+03  1.426430E+04
        98   1  2.974767E+05  3.621328E+04  2.128127E+04  4.788640E+04 -6.837137E+03 -1.264028E+04
        98   2  2.619587E+05  2.831007E+04  1.697915E+04  4.468713E+04 -7.143409E+03 -9.833941E+03
        98   3  2.265249E+05  2.068135E+04  1.293697E+04  4.744156E+04 -7.449776E+03 -7.068556E+03
        98   4  1.382984E+05  2.165960E+02  4.380388E+02  4.764181E+04 -3.203559E+02 -1.262852E+04
        98   5  1.382505E+05  3.367763E+02  7.901964E+02  4.466445E+04 -7.211791E+02 -9.822136E+03
        98   6  1.383013E+05  7.477537E+02  1.467661E+03  4.764084E+04 -1.122112E+03 -7.056711E+03
        98   7 -2.085396E+04 -3.578113E+04 -2.040519E+04  4.739727E+04  6.194835E+03 -1.261677E+04
        98   8  1.455803E+04 -2.763714E+04 -1.539870E+04  4.464177E+04  5.699832E+03 -9.810331E+03
        98   9  5.008584E+04 -1.918614E+04 -1.000154E+04  4.784009E+04  5.204696E+03 -7.044861E+03
        98  10  2.974766E+05  3.621309E+04  2.128088E+04  4.788633E+04 -4.118508E-09  3.011817E-09
        98  11  2.619586E+05  2.830995E+04  1.697888E+04  4.468707E+04 -1.851334E-09 -8.130275E-11
        98  12  2.265248E+05  2.068128E+04  1.293677E+04  4.744152E+04  7.351891E-09  3.123104E-09
        98  13  1.382983E+05  2.164247E+02  4.377389E+02  4.764180E+04 -1.670483E-09  1.359097E-09
        98  14  1.382505E+05  3.366726E+02  7.900141E+02  4.466445E+04  5.938690E-10  2.829651E-09
        98  15  1.383013E+05  7.476999E+02  1.467565E+03  4.764084E+04  2.608815E-09 -3.028874E-10
        98  16 -2.085404E+04 -3.578131E+04 -2.040556E+04  4.739734E+04  3.385076E-09  1.495794E-09
        98  17  1.455797E+04 -2.763725E+04 -1.539895E+04  4.464182E+04 -3.716797E-09 -4.955661E-10
        98  18  5.008580E+04 -1.918620E+04 -1.000168E+04  4.784012E+04 -5.333477E-09 -4.756579E-09
        98  19  2.974767E+05  3.621328E+04  2.128127E+04  4.788640E+04  6.837137E+03  1.264028E+04
        98  20  2.619587E+05  2.831007E+04  1.697915E+04  4.468713E+04  7.143409E+03  9.833941E+03
        98  21  2.265249E+05  2.068135E+04  1.293697E+04  4.744156E+04  7.449776E+03  7.068556E+03
        98  22  1.382984E+05  2.165960E+02  4.380388E+02  4.764181E+04  3.203559E+02  1.262852E+04
        98  23  1.382505E+05  3.367763E+02  7.901964E+02  4.466445E+04  7.211791E+02  9.822136E+03
        98  24  1.383013E+05  7.477537E+02  1.467661E+03  4.764084E+04  1.122112E+03  7.056711E+03
        98  25 -2.085396E+04 -3.578113E+04 -2.040519E+04  4.739727E+04 -6.194835E+03  1.261677E+04
        98  26  1.455803E+04 -2.763714E+04 -1.539870E+04  4.464177E+04 -5.699832E+03  9.810331E+03
        98  27  5.008584E+04 -1.918614E+04 -1.000154E+04  4.784009E+04 -5.204696E+03  7.044861E+03
        99   1  2.047090E+05  1.586599E+04  1.034691E+04  4.755265E+04 -7.690566E+03 -5.461698E+03
        99   2  1.688366E+05  9.343781E+03  7.033726E+03  4.232458E+04 -8.822911E+03 -2.883022E+03
        99   3  1.337782E+05  5.593948E+03  5.142285E+03  4.302391E+04 -9.954705E+03 -6.191570E+02
        99   4  1.384888E+05  9.490067E+02  1.965883E+03  4.763567E+04 -1.380233E+03 -5.449802E+03
        99   5  1.380193E+05  2.511876E+03  3.632332E+03  4.466643E+04 -3.238152E+03 -2.872478E+03
        99   6  1.384891E+05  6.973249E+03  7.224334E+03  4.762450E+04 -5.095586E+03 -6.099808E+02
        99   7  7.227310E+04 -1.396813E+04 -6.415008E+03  4.771868E+04  4.929461E+03 -5.437904E+03
        99   8  1.072032E+05 -4.320027E+03  2.310674E+02  4.700816E+04  2.346344E+03 -2.861891E+03
        99   9  1.432001E+05  8.352638E+03  9.306481E+03  5.222512E+04 -2.364272E+02 -6.007327E+02
        99  10  2.047089E+05  1.586594E+04  1.034674E+04  4.755262E+04 -1.848803E-09  2.787212E-09
        99  11  1.688365E+05  9.343752E+03  7.033564E+03  4.232456E+04 -2.333264E-10 -8.307426E-10
        99  12  1.337781E+05  5.593921E+03  5.142098E+03  4.302390E+04  3.259348E-09 -7.646540E-11
        99  13  1.384887E+05  9.489743E+02  1.965824E+03  4.763567E+04  1.668617E-09  3.724201E-09
        99  14  1.380193E+05  2.511864E+03  3.632297E+03  4.466642E+04  1.567186E-09 -3.173349E-09
        99  15  1.384891E+05  6.973241E+03  7.224284E+03  4.762450E+04  2.561184E-09  2.603828E-09
        99  16  7.227307E+04 -1.396817E+04 -6.415109E+03  4.771870E+04  1.701905E-09  1.064914E-10
        99  17  1.072032E+05 -4.320037E+03  2.310417E+02  4.700817E+04  1.476891E-10  1.035620E-09
        99  18  1.432001E+05  8.352638E+03  9.306480E+03  5.222512E+04 -1.929308E-09 -1.915271E-10
        99  19  2.047090E+05  1.586599E+04  1.034691E+04  4.755265E+04  7.690566E+03  5.461698E+03
        99  20  1.688366E+05  9.343781E+03  7.033726E+03  4.232458E+04  8.822911E+03  2.883022E+03
        99  21  1.337782E+05  5.593948E+03  5.142285E+03  4.302391E+04  9.954705E+03  6.191570E+02
        99  22  1.384888E+05  9.490067E+02  1.965883E+03  4.763567E+04  1.380233E+03  5.449802E+03
        99  23  1.380193E+05  2.511876E+03  3.632332E+03  4.466643E+04  3.238152E+03  2.872478E+03
        99  24  1.384891E+05  6.973249E+03  7.224334E+03  4.762450E+04  5.095586E+03  6.099808E+02
        99  25  7.227310E+04 -1.396813E+04 -6.415008E+03  4.771868E+04 -4.929461E+03  5.437904E+03
        99  26  1.072032E+05 -4.320027E+03  2.310674E+02  4.700816E+04 -2.346344E+03  2.861891E+03
        99  27  1.432001E+05  8.352638E+03  9.306481E+03  5.222512E+04  2.364272E+02  6.007327E+02
       100   1  7.042192E+03  3.959354E+05  8.459077E+03 -4.271484E+04 -6.262479E+02  1.050502E+02
       100   2 -7.162856E+03  3.569019E+05 -1.359738E+03 -3.607815E+04 -2.956609E+03 -2.750893E+03
       100   3 -1.732778E+04  3.192326E+05 -8.315118E+03 -3.828353E+04 -5.567649E+03 -5.606869E+03
       100   4  6.527194E+03  3.944518E+05  7.411525E+03 -3.856409E+04 -6.295088E+02  3.737667E+03
       100   5  1.418028E+03  3.938104E+05  4.672384E+03 -3.414579E+04 -2.960238E+03  1.346588E+03
       100   6  2.684278E+02  3.944518E+05  4.474153E+03 -3.856941E+04 -5.571619E+03 -1.044677E+03
       100   7  6.012267E+03  3.929682E+05  6.364031E+03 -3.441335E+04 -6.327210E+02  7.370274E+03
       100   8  9.998865E+03  4.307204E+05  1.070453E+04 -3.221331E+04 -2.963841E+03  5.444305E+03
       100   9  1.786435E+04  4.696767E+05  1.726332E+04 -3.885533E+04 -5.575594E+03  3.518051E+03
       100  10  7.042192E+03  3.959354E+05  8.459077E+03 -4.271484E+04  1.192324E-09 -6.305236E-08
       100  11 -7.162867E+03  3.569018E+05 -1.359768E+03 -3.607816E+04  1.372578E-09  3.325552E-09
       100  12 -1.732782E+04  3.192325E+05 -8.315235E+03 -3.828356E+04 -3.883376E-09  7.400353E-08
       100  13  6.527190E+03  3.944518E+05  7.411498E+03 -3.856409E+04  1.340745E-09  8.731334E-10
       100  14  1.418018E+03  3.938104E+05  4.672365E+03 -3.414579E+04  5.248106E-09  1.261488E-10
       100  15  2.683941E+02  3.944518E+05  4.474092E+03 -3.856942E+04  3.857446E-09  1.059127E-09
       100  16  6.012252E+03  3.929682E+05  6.363929E+03 -3.441334E+04 -5.370553E-10  6.302852E-08
       100  17  9.998848E+03  4.307204E+05  1.070446E+04 -3.221329E+04  4.027273E-10 -5.238204E-09
       100  18  1.786431E+04  4.696767E+05  1.726323E+04 -3.885531E+04 -3.767121E-09 -7.411970E-08
       100  19  7.042192E+03  3.959354E+05  8.459077E+03 -4.271484E+04  6.262479E+02 -1.050502E+02
       100  20 -7.162856E+03  3.569019E+05 -1.359738E+03 -3.607815E+04  2.956609E+03  2.750893E+03
       100  21 -1.732778E+04  3.192326E+05 -8.315118E+03 -3.828353E+04  5.567649E+03  5.606869E+03
       100  22  6.527194E+03  3.944518E+05  7.411525E+03 -3.856409E+04  6.295088E+02 -3.737667E+03
       100  23  1.418028E+03  3.938104E+05  4.672384E+03 -3.414579E+04  2.960238E+03 -1.346588E+03
       100  24  2.684278E+02  3.944518E+05  4.474153E+03 -3.856941E+04  5.571619E+03  1.044677E+03
       100  25  6.012267E+03  3.929682E+05  6.364031E+03 -3.441335E+04  6.327210E+02 -7.370274E+03
       100  26  9.998865E+03  4.307204E+05  1.070453E+04 -3.221331E+04  2.963841E+03 -5.444305E+03
       100  27  1.786435E+04  4.696767E+05  1.726332E+04 -3.885533E+04  5.575594E+03 -3.518051E+03
       101   1 -2.320496E+04  2.940130E+05 -1.234226E+04 -3.902177E+04 -7.211211E+03 -6.418153E+03
       101   2 -3.213092E+04  2.552713E+05 -1.704694E+04 -3.385415E+04 -9.699821E+03 -9.043891E+03
       101   3 -3.941175E+04  2.172691E+05 -1.963556E+04 -3.751760E+04 -1.162303E+04 -1.166881E+04
       101   4  3.163527E+02  3.943659E+05  4.955244E+03 -3.856650E+04 -7.215130E+03 -1.823918E+03
       101   5  4.243748E+02  3.939135E+05  7.134992E+03 -3.415017E+04 -9.702716E+03 -5.387061E+03
       101   6  2.339984E+03  3.943615E+05  1.208102E+04 -3.856475E+04 -1.162496E+04 -8.949538E+03
       101   7  2.383714E+04  4.947287E+05  2.225249E+04 -3.811116E+04 -7.219042E+03  2.771036E+03
       101   8  3.297863E+04  5.325746E+05  3.131629E+04 -3.444626E+04 -9.705615E+03 -1.729440E+03
       101   9  4.408998E+04  5.714844E+05  4.379642E+04 -3.961219E+04 -1.162690E+04 -6.229517E+03
       101  10 -2.320503E+04  2.940129E+05 -1.234244E+04 -3.902180E+04 -4.438398E-09 -7.857128E-09
       101  11 -3.213104E+04  2.552712E+05 -1.704727E+04 -3.385422E+04 -3.485416E-09 -1.819068E-09
       101  12 -3.941193E+04  2.172689E+05 -1.963607E+04 -3.751771E+04 -1.901157E-09  8.337697E-09
       101  13  3.162959E+02  3.943659E+05  4.955140E+03 -3.856651E+04  3.709794E-09  8.912069E-10
       101  14  4.242659E+02  3.939135E+05  7.134761E+03 -3.415021E+04  3.922764E-09 -5.860703E-11
       101  15  2.339818E+03  3.943613E+05  1.208061E+04 -3.856483E+04 -4.903858E-09  1.138818E-09
       101  16  2.383708E+04  4.947287E+05  2.225237E+04 -3.811114E+04 -3.694245E-09  7.730133E-09
       101  17  3.297853E+04  5.325745E+05  3.131611E+04 -3.444627E+04 -9.948327E-10 -4.196253E-11
       101  18  4.408983E+04  5.714844E+05  4.379610E+04 -3.961225E+04 -1.907302E-09 -8.678939E-09
       101  19 -2.320496E+04  2.940130E+05 -1.234226E+04 -3.902177E+04  7.211211E+03  6.418153E+03
       101  20 -3.213092E+04  2.552713E+05 -1.704694E+04 -3.385415E+04  9.699821E+03  9.043891E+03
       101  21 -3.941175E+04  2.172691E+05 -1.963556E+04 -3.751760E+04  1.162303E+04  1.166881E+04
       101  22  3.163527E+02  3.943659E+05  4.955244E+03 -3.856650E+04  7.215130E+03  1.823918E+03
       101  23  4.243748E+02  3.939135E+05  7.134992E+03 -3.415017E+04  9.702716E+03  5.387061E+03
       101  24  2.339984E+03  3.943615E+05  1.208102E+04 -3.856475E+04  1.162496E+04  8.949538E+03
       101  25  2.383714E+04  4.947287E+05  2.225249E+04 -3.811116E+04  7.219042E+03 -2.771036E+03
       101  26  3.297863E+04  5.325746E+05  3.131629E+04 -3.444626E+04  9.705615E+03  1.729440E+03
       101  27  4.408998E+04  5.714844E+05  4.379642E+04 -3.961219E+04  1.162690E+04  6.229517E+03
       102   1 -4.635929E+04  1.937582E+05 -2.097703E+04 -4.153438E+04 -1.298519E+04 -1.454680E+04
       102   2 -4.635673E+04  1.514957E+05 -1.935418E+04 -1.966039E+04 -1.171181E+04 -1.770933E+04
       102   3 -1.737447E+04  1.168851E+05 -8.428081E+03 -6.179189E+03 -3.621080E+03 -2.086708E+04
       102   4  1.449694E+03  3.962950E+05  1.562650E+04 -3.847236E+04 -1.298773E+04 -1.100970E+04
       102   5  1.112097E+04  3.914843E+05  2.798925E+04 -3.425756E+04 -1.170517E+04 -2.546796E+04
       102   6  5.172470E+04  3.962794E+05  5.749340E+04 -3.843444E+04 -3.606292E+03 -3.992172E+04
       102   7  4.925643E+04  5.988717E+05  5.222846E+04 -3.540930E+04 -1.299024E+04 -7.471484E+03
       102   8  6.859600E+04  6.315286E+05  7.533020E+04 -4.886049E+04 -1.169817E+04 -3.322951E+04
       102   9  1.208224E+05  6.757484E+05  1.234114E+05 -7.070426E+04 -3.589528E+03 -5.898489E+04
       102  10 -4.635953E+04  1.937579E+05 -2.097774E+04 -4.153453E+04 -1.793923E-09  7.439069E-09
       102  11 -4.635697E+04  1.514953E+05 -1.935503E+04 -1.966055E+04  2.132811E-09  2.014524E-09
       102  12 -1.737461E+04  1.168846E+05 -8.428924E+03 -6.179249E+03 -1.322834E-09 -9.649227E-10
       102  13  1.449481E+03  3.962948E+05  1.562595E+04 -3.847247E+04 -4.603778E-09  6.927517E-10
       102  14  1.112065E+04  3.914836E+05  2.798777E+04 -3.425780E+04 -8.462975E-10 -1.344607E-10
       102  15  5.172426E+04  3.962776E+05  5.749039E+04 -3.843455E+04  2.401635E-09  8.613022E-10
       102  16  4.925623E+04  5.988716E+05  5.222804E+04 -3.540938E+04 -3.450847E-09 -7.465841E-09
       102  17  6.859556E+04  6.315274E+05  7.532787E+04 -4.886081E+04  1.519316E-09 -3.315763E-09
       102  18  1.208214E+05  6.757446E+05  1.234049E+05 -7.070444E+04  4.958229E-10  7.800168E-10
       102  19 -4.635929E+04  1.937582E+05 -2.097703E+04 -4.153438E+04  1.298519E+04  1.454680E+04
       102  20 -4.635673E+04  1.514957E+05 -1.935418E+04 -1.966039E+04  1.171181E+04  1.770933E+04
       102  21 -1.737447E+04  1.168851E+05 -8.428081E+03 -6.179189E+03  3.621080E+03  2.086708E+04
       102  22  1.449694E+03  3.962950E+05  1.562650E+04 -3.847236E+04  1.298773E+04  1.100970E+04
       102  23  1.112097E+04  3.914843E+05  2.798925E+04 -3.425756E+04  1.170517E+04  2.546796E+04
       102  24  5.172470E+04  3.962794E+05  5.749340E+04 -3.843444E+04  3.606292E+03  3.992172E+04
       102  25  4.925643E+04  5.988717E+05  5.222846E+04 -3.540930E+04  1.299024E+04  7.471484E+03
       102  26  6.859600E+04  6.315286E+05  7.533020E+04 -4.886049E+04  1.169817E+04  3.322951E+04
       102  27  1.208224E+05  6.757484E+05  1.234114E+05 -7.070426E+04  3.589528E+03  5.898489E+04
       103   1  8.949079E+05  3.190014E+05  1.576198E+05  3.342939E+05  6.190116E+04  1.266005E+04
       103   2  8.443963E+05  2.974504E+05  1.123734E+05  3.198574E+05  4.006540E+04 -2.097744E+04
       103   3  7.932740E+05  2.842269E+05  9.019236E+04  3.124836E+05  1.258661E+04 -3.958892E+04
       103   4  2.322773E+05  7.615695E+04 -9.050938E+03  1.578547E+05 -2.433105E+03 -1.153773E+04
       103   5  2.362856E+05  7.857264E+04 -4.335633E+03  1.530619E+05  8.190617E+03 -3.297261E+04
       103   6  2.332579E+05  8.289289E+04 -2.247966E+03  1.553318E+05  1.316432E+04 -3.937583E+04
       103   7 -4.298853E+05 -1.666485E+05 -1.757302E+05 -1.840569E+04 -6.668935E+04 -3.570750E+04
       103   8 -3.714239E+05 -1.402675E+05 -1.210520E+05 -1.357860E+04 -2.364997E+04 -4.495524E+04
       103   9 -3.264220E+05 -1.184087E+05 -9.469522E+04 -1.687026E+03  1.374148E+04 -3.916294E+04
       103  10  8.949038E+05  3.190002E+05  1.576123E+05  3.342933E+05  3.630353E-09 -7.173695E-11
       103  11  8.443945E+05  2.974495E+05  1.123696E+05  3.198581E+05 -1.718051E-09 -2.659514E-09
       103  12  7.932734E+05  2.842252E+05  9.018912E+04  3.124840E+05 -3.001359E-09  5.894936E-10
       103  13  2.322772E+05  7.615680E+04 -9.051199E+03  1.578547E+05 -1.852770E-09 -9.576351E-12
       103  14  2.362852E+05  7.857145E+04 -4.337802E+03  1.530621E+05 -8.604579E-10 -2.526436E-09
       103  15  2.332573E+05  8.289118E+04 -2.251206E+03  1.553322E+05  5.379309E-09  8.696683E-10
       103  16 -4.298904E+05 -1.666511E+05 -1.757410E+05 -1.840761E+04 -4.891933E-09 -2.899508E-09
       103  17 -3.714250E+05 -1.402698E+05 -1.210568E+05 -1.357946E+04  2.805627E-09 -1.032962E-09
       103  18 -3.264226E+05 -1.184104E+05 -9.469846E+04 -1.686593E+03  1.196107E-08  2.569318E-09
       103  19  8.949079E+05  3.190014E+05  1.576198E+05  3.342939E+05 -6.190116E+04 -1.266005E+04
       103  20  8.443963E+05  2.974504E+05  1.123734E+05  3.198574E+05 -4.006540E+04  2.097744E+04
       103  21  7.932740E+05  2.842269E+05  9.019236E+04  3.124836E+05 -1.258661E+04  3.958892E+04
       103  22  2.322773E+05  7.615695E+04 -9.050938E+03  1.578547E+05  2.433105E+03  1.153773E+04
       103  23  2.362856E+05  7.857264E+04 -4.335633E+03  1.530619E+05 -8.190617E+03  3.297261E+04
       103  24  2.332579E+05  8.289289E+04 -2.247966E+03  1.553318E+05 -1.316432E+04  3.937583E+04
       103  25 -4.298853E+05 -1.666485E+05 -1.757302E+05 -1.840569E+04  6.668935E+04  3.570750E+04
       103  26 -3.714239E+05 -1.402675E+05 -1.210520E+05 -1.357860E+04  2.364997E+04  4.495524E+04
       103  27 -3.264220E+05 -1.184087E+05 -9.469522E+04 -1.687026E+03 -1.374148E+04  3.916294E+04
       104   1  7.620811E+05  2.727287E+05  8.321217E+04  3.038661E+05  1.280548E+04 -3.872097E+04
       104   2  7.161908E+05  2.519144E+05  7.214743E+04  2.868583E+05  9.152587E+03 -3.893092E+04
       104   3  6.646445E+05  2.377908E+05  6.361986E+04  2.770311E+05  4.853069E+03 -3.742442E+04
       104   4  2.333348E+05  8.326421E+04 -1.666570E+03  1.555606E+05  1.315802E+04 -3.859233E+04
       104   5  2.365760E+05  8.055687E+04 -8.652300E+02  1.518715E+05  1.321244E+04 -3.740619E+04
       104   6  2.334261E+05  8.380673E+04 -4.618506E+02  1.553626E+05  1.261976E+04 -3.450287E+04
       104   7 -2.951188E+05 -1.061742E+05 -8.655285E+04  7.371562E+03  1.351026E+04 -3.846382E+04
       104   8 -2.427935E+05 -9.077737E+04 -7.388188E+04  1.698186E+04  1.726902E+04 -3.588269E+04
       104   9 -1.975908E+05 -7.015713E+04 -6.454538E+04  3.377376E+04  2.038076E+04 -3.158346E+04
       104  10  7.620806E+05  2.727270E+05  8.320904E+04  3.038665E+05  6.914584E-08  2.864680E-08
       104  11  7.161903E+05  2.519128E+05  7.214443E+04  2.868585E+05  7.430159E-09  3.097074E-09
       104  12  6.646441E+05  2.377893E+05  6.361718E+04  2.770312E+05 -5.663800E-08 -1.777432E-08
       104  13  2.333342E+05  8.326256E+04 -1.669695E+03  1.555610E+05  8.872060E-09  4.451698E-09
       104  14  2.365754E+05  8.055532E+04 -8.681878E+02  1.518719E+05  1.212435E-08 -1.423650E-09
       104  15  2.334256E+05  8.380541E+04 -4.643873E+02  1.553630E+05  7.528344E-10  3.375596E-09
       104  16 -2.951194E+05 -1.061758E+05 -8.655597E+04  7.371981E+03 -4.977279E-08 -1.957920E-08
       104  17 -2.427942E+05 -9.077884E+04 -7.388486E+04  1.698236E+04  8.839439E-09  9.370688E-09
       104  18 -1.975915E+05 -7.015831E+04 -6.454803E+04  3.377428E+04  6.328670E-08  2.589981E-08
       104  19  7.620811E+05  2.727287E+05  8.321217E+04  3.038661E+05 -1.280548E+04  3.872097E+04
       104  20  7.161908E+05  2.519144E+05  7.214743E+04  2.868583E+05 -9.152587E+03  3.893092E+04
       104  21  6.646445E+05  2.377908E+05  6.361986E+04  2.770311E+05 -4.853069E+03  3.742442E+04
       104  22  2.333348E+05  8.326421E+04 -1.666570E+03  1.555606E+05 -1.315802E+04  3.859233E+04
       104  23  2.365760E+05  8.055687E+04 -8.652300E+02  1.518715E+05 -1.321244E+04  3.740619E+04
       104  24  2.334261E+05  8.380673E+04 -4.618506E+02  1.553626E+05 -1.261976E+04  3.450287E+04
       104  25 -2.951188E+05 -1.061742E+05 -8.655285E+04  7.371562E+03 -1.351026E+04  3.846382E+04
       104  26 -2.427935E+05 -9.077737E+04 -7.388188E+04  1.698186E+04 -1.726902E+04  3.588269E+04
       104  27 -1.975908E+05 -7.015713E+04 -6.454538E+04  3.377376E+04 -2.038076E+04  3.158346E+04
       105   1  6.342309E+05  2.268809E+05  5.878519E+04  2.684891E+05  4.131781E+03 -3.523719E+04
       105   2  5.888671E+05  2.063922E+05  5.144319E+04  2.512172E+05  2.413527E+03 -3.168129E+04
       105   3  5.372476E+05  1.922974E+05  4.436630E+04  2.411645E+05  6.209638E+02 -2.793041E+04
       105   4  2.334349E+05  8.384486E+04 -3.426196E+02  1.553880E+05  1.187058E+04 -3.232542E+04
       105   5  2.366176E+05  8.071842E+04 -1.768078E+02  1.517710E+05  1.057330E+04 -2.860991E+04
       105   6  2.334577E+05  8.390246E+04 -7.992031E+01  1.553727E+05  9.201657E+03 -2.469934E+04
       105   7 -1.671813E+05 -5.917168E+04 -5.947038E+04  4.235717E+04  1.960402E+04 -2.941567E+04
       105   8 -1.154968E+05 -4.494174E+04 -5.179766E+04  5.237811E+04  1.872820E+04 -2.554036E+04
       105   9 -7.023558E+04 -2.448376E+04 -4.452772E+04  6.961953E+04  1.777803E+04 -2.146989E+04
       105  10  6.342305E+05  2.268796E+05  5.878282E+04  2.684892E+05  3.483885E-08  1.775600E-08
       105  11  5.888668E+05  2.063912E+05  5.144129E+04  2.512173E+05  1.269143E-08  5.534731E-09
       105  12  5.372474E+05  1.922966E+05  4.436483E+04  2.411645E+05 -1.664874E-08 -5.795993E-09
       105  13  2.334345E+05  8.384370E+04 -3.448484E+02  1.553883E+05  5.426526E-10 -1.426309E-09
       105  14  2.366173E+05  8.071751E+04 -1.785563E+02  1.517713E+05  8.314285E-09 -4.620353E-09
       105  15  2.334574E+05  8.390178E+04 -8.122603E+01  1.553729E+05  5.610636E-09 -8.041421E-09
       105  16 -1.671820E+05 -5.917271E+04 -5.947273E+04  4.235763E+04 -3.230212E-08 -6.980877E-09
       105  17 -1.154974E+05 -4.494254E+04 -5.179955E+04  5.237850E+04 -1.197774E-09  7.923112E-09
       105  18 -7.023605E+04 -2.448434E+04 -4.452918E+04  6.961984E+04  2.712496E-08  2.007199E-08
       105  19  6.342309E+05  2.268809E+05  5.878519E+04  2.684891E+05 -4.131781E+03  3.523719E+04
       105  20  5.888671E+05  2.063922E+05  5.144319E+04  2.512172E+05 -2.413527E+03  3.168129E+04
       105  21  5.372476E+05  1.922974E+05  4.436630E+04  2.411645E+05 -6.209638E+02  2.793041E+04
       105  22  2.334349E+05  8.384486E+04 -3.426196E+02  1.553880E+05 -1.187058E+04  3.232542E+04
       105  23  2.366176E+05  8.071842E+04 -1.768078E+02  1.517710E+05 -1.057330E+04  2.860991E+04
       105  24  2.334577E+05  8.390246E+04 -7.992031E+01  1.553727E+05 -9.201657E+03  2.469934E+04
       105  25 -1.671813E+05 -5.917168E+04 -5.947038E+04  4.235717E+04 -1.960402E+04  2.941567E+04
       105  26 -1.154968E+05 -4.494174E+04 -5.179766E+04  5.237811E+04 -1.872820E+04  2.554036E+04
       105  27 -7.023558E+04 -2.448376E+04 -4.452772E+04  6.961953E+04 -1.777803E+04  2.146989E+04
       106   1  5.069529E+05  1.814606E+05  3.974564E+04  2.326288E+05 -2.378000E+02 -2.560514E+04
       106   2  4.616766E+05  1.610347E+05  3.279847E+04  2.153372E+05 -1.787762E+03 -2.164153E+04
       106   3  4.100758E+05  1.469557E+05  2.589136E+04  2.052682E+05 -3.345948E+03 -1.765758E+04
       106   4  2.334614E+05  8.390891E+04 -4.699100E+01  1.553742E+05  8.338226E+03 -2.237527E+04
       106   5  2.366341E+05  8.074688E+04  1.250673E+01  1.517624E+05  6.831933E+03 -1.839448E+04
       106   6  2.334708E+05  8.392278E+04  7.698613E+01  1.553722E+05  5.317416E+03 -1.439336E+04
       106   7 -3.994835E+04 -1.363445E+04 -3.983990E+04  7.815177E+04  1.691027E+04 -1.914690E+04
       106   8  1.164839E+04  4.653134E+02 -3.277315E+04  8.820981E+04  1.544828E+04 -1.514869E+04
       106   9  5.690225E+04  2.089423E+04 -2.573670E+04  1.054903E+05  1.397807E+04 -1.113017E+04
       106  10  5.069527E+05  1.814599E+05  3.974441E+04  2.326288E+05 -9.267116E-08 -3.143689E-08
       106  11  4.616765E+05  1.610342E+05  3.279758E+04  2.153372E+05 -1.058326E-08 -2.468287E-12
       106  12  4.100757E+05  1.469554E+05  2.589075E+04  2.052682E+05  8.153424E-08  3.357444E-08
       106  13  2.334612E+05  8.390835E+04 -4.806263E+01  1.553743E+05 -7.803796E-10 -1.153682E-08
       106  14  2.366340E+05  8.074650E+04  1.178307E+01  1.517625E+05 -1.020295E-08 -1.093981E-08
       106  15  2.334707E+05  8.392255E+04  7.654362E+01  1.553723E+05 -1.358118E-09 -4.770642E-09
       106  16 -3.994876E+04 -1.363492E+04 -3.984112E+04  7.815203E+04  9.321145E-08  4.278980E-08
       106  17  1.164807E+04  4.650029E+02 -3.277403E+04  8.821000E+04 -1.114367E-09 -1.353045E-09
       106  18  5.690200E+04  2.089404E+04 -2.573730E+04  1.054904E+05 -8.687957E-08 -3.908067E-08
       106  19  5.069529E+05  1.814606E+05  3.974564E+04  2.326288E+05  2.378000E+02  2.560514E+04
       106  20  4.616766E+05  1.610347E+05  3.279847E+04  2.153372E+05  1.787762E+03  2.164153E+04
       106  21  4.100758E+05  1.469557E+05  2.589136E+04  2.052682E+05  3.345948E+03  1.765758E+04
       106  22  2.334614E+05  8.390891E+04 -4.699100E+01  1.553742E+05 -8.338226E+03  2.237527E+04
       106  23  2.366341E+05  8.074688E+04  1.250673E+01  1.517624E+05 -6.831933E+03  1.839448E+04
       106  24  2.334708E+05  8.392278E+04  7.698613E+01  1.553722E+05 -5.317416E+03  1.439336E+04
       106  25 -3.994835E+04 -1.363445E+04 -3.983990E+04  7.815177E+04 -1.691027E+04  1.914690E+04
       106  26  1.164839E+04  4.653134E+02 -3.277315E+04  8.820981E+04 -1.544828E+04  1.514869E+04
       106  27  5.690225E+04  2.089423E+04 -2.573670E+04  1.054903E+05 -1.397807E+04  1.113017E+04
       107   1  3.798079E+05  1.361265E+05  2.130974E+04  1.967375E+05 -4.241304E+03 -1.532641E+04
       107   2  3.345496E+05  1.157068E+05  1.446636E+04  1.794535E+05 -5.846830E+03 -1.135408E+04
       107   3  2.829688E+05  1.016318E+05  7.694938E+03  1.693925E+05 -7.449038E+03 -7.391194E+03
       107   4  2.334774E+05  8.392472E+04  1.165016E+02  1.553739E+05  4.420661E+03 -1.206242E+04
       107   5  2.366389E+05  8.075183E+04  2.325904E+02  1.517628E+05  2.794519E+03 -8.097503E+03
       107   6  2.334805E+05  8.392778E+04  4.370335E+02  1.553739E+05  1.171697E+03 -4.142064E+03
       107   7  8.716839E+04  3.172467E+04 -2.107711E+04  1.140190E+05  1.308059E+04 -8.799186E+03
       107   8  1.387382E+05  4.579770E+04 -1.400112E+04  1.240760E+05  1.143449E+04 -4.841448E+03
       107   9  1.839950E+05  6.622411E+04 -6.820581E+03  1.413565E+05  9.791711E+03 -8.932063E+02
       107  10  3.798078E+05  1.361262E+05  2.130926E+04  1.967374E+05  6.286359E-08  2.390808E-08
       107  11  3.345495E+05  1.157067E+05  1.446605E+04  1.794535E+05  4.193041E-09  3.937719E-09
       107  12  2.829687E+05  1.016317E+05  7.694731E+03  1.693924E+05 -5.693874E-08 -2.056160E-08
       107  13  2.334773E+05  8.392456E+04  1.161914E+02  1.553739E+05  3.171842E-09 -4.910141E-11
       107  14  2.366389E+05  8.075176E+04  2.324525E+02  1.517628E+05  2.864695E-09  5.893093E-09
       107  15  2.334805E+05  8.392776E+04  4.369986E+02  1.553739E+05  1.055443E-09  4.127703E-09
       107  16  8.716818E+04  3.172454E+04 -2.107758E+04  1.140191E+05 -5.987799E-08 -2.505117E-08
       107  17  1.387380E+05  4.579763E+04 -1.400141E+04  1.240761E+05  2.144678E-09  3.462654E-09
       107  18  1.839949E+05  6.622409E+04 -6.820763E+03  1.413565E+05  5.669123E-08  2.493674E-08
       107  19  3.798079E+05  1.361265E+05  2.130974E+04  1.967375E+05  4.241304E+03  1.532641E+04
       107  20  3.345496E+05  1.157068E+05  1.446636E+04  1.794535E+05  5.846830E+03  1.135408E+04
       107  21  2.829688E+05  1.016318E+05  7.694938E+03  1.693925E+05  7.449038E+03  7.391194E+03
       107  22  2.334774E+05  8.392472E+04  1.165016E+02  1.553739E+05 -4.420661E+03  1.206242E+04
       107  23  2.366389E+05  8.075183E+04  2.325904E+02  1.517628E+05 -2.794519E+03  8.097503E+03
       107  24  2.334805E+05  8.392778E+04  4.370335E+02  1.553739E+05 -1.171697E+03  4.142064E+03
       107  25  8.716839E+04  3.172467E+04 -2.107711E+04  1.140190E+05 -1.308059E+04  8.799186E+03
       107  26  1.387382E+05  4.579770E+04 -1.400112E+04  1.240760E+05 -1.143449E+04  4.841448E+03
       107  27  1.839950E+05  6.622411E+04 -6.820581E+03  1.413565E+05 -9.791711E+03  8.932063E+02
       108   1  2.527117E+05  9.081146E+04  3.211702E+03  1.608837E+05 -8.411158E+03 -5.094335E+03
       108   2  2.074592E+05  7.037580E+04 -3.357940E+03  1.435630E+05 -1.021565E+04 -1.269724E+03
       108   3  1.559514E+05  5.636561E+04 -9.667088E+03  1.334472E+05 -1.198180E+04  2.453569E+03
       108   4  2.335005E+05  8.392690E+04  5.867279E+02  1.553804E+05  2.106718E+02 -1.844735E+03
       108   5  2.366189E+05  8.077417E+04  1.074138E+03  1.517475E+05 -1.812908E+03  1.897198E+03
       108   6  2.335223E+05  8.408978E+04  1.995217E+03  1.553184E+05 -3.798189E+03  5.537824E+03
       108   7  2.142901E+05  7.704253E+04 -2.037860E+03  1.498774E+05  8.832116E+03  1.404717E+03
       108   8  2.657796E+05  9.117269E+04  5.506507E+03  1.599325E+05  6.590250E+03  5.064276E+03
       108   9  3.111009E+05  1.118150E+05  1.365801E+04  1.771925E+05  4.386605E+03  8.622523E+03
       108  10  2.527116E+05  9.081142E+04  3.211520E+03  1.608837E+05  3.574871E-09  5.826664E-10
       108  11  2.074591E+05  7.037577E+04 -3.358139E+03  1.435630E+05 -5.821976E-09 -4.619621E-09
       108  12  1.559512E+05  5.636556E+04 -9.667369E+03  1.334472E+05 -9.570544E-09 -3.237991E-09
       108  13  2.335005E+05  8.392689E+04  5.867214E+02  1.553804E+05 -4.869539E-09  4.074557E-09
       108  14  2.366189E+05  8.077417E+04  1.074125E+03  1.517475E+05 -4.098180E-09 -2.423372E-09
       108  15  2.335223E+05  8.408975E+04  1.995132E+03  1.553184E+05 -1.196887E-09  3.324898E-09
       108  16  2.142900E+05  7.704250E+04 -2.038010E+03  1.498774E+05 -9.437988E-09  2.566799E-10
       108  17  2.657796E+05  9.117265E+04  5.506378E+03  1.599324E+05 -9.365011E-09 -9.643733E-10
       108  18  3.111009E+05  1.118149E+05  1.365783E+04  1.771925E+05  2.372306E-09  4.783436E-09
       108  19  2.527117E+05  9.081146E+04  3.211702E+03  1.608837E+05  8.411158E+03  5.094335E+03
       108  20  2.074592E+05  7.037580E+04 -3.357940E+03  1.435630E+05  1.021565E+04  1.269724E+03
       108  21  1.559514E+05  5.636561E+04 -9.667088E+03  1.334472E+05  1.198180E+04 -2.453569E+03
       108  22  2.335005E+05  8.392690E+04  5.867279E+02  1.553804E+05 -2.106718E+02  1.844735E+03
       108  23  2.366189E+05  8.077417E+04  1.074138E+03  1.517475E+05  1.812908E+03 -1.897198E+03
       108  24  2.335223E+05  8.408978E+04  1.995217E+03  1.553184E+05  3.798189E+03 -5.537824E+03
       108  25  2.142901E+05  7.704253E+04 -2.037860E+03  1.498774E+05 -8.832116E+03 -1.404717E+03
       108  26  2.657796E+05  9.117269E+04  5.506507E+03  1.599325E+05 -6.590250E+03 -5.064276E+03
       108  27  3.111009E+05  1.118150E+05  1.365801E+04  1.771925E+05 -4.386605E+03 -8.622523E+03
       109   1  1.256735E+05  4.565398E+04 -1.377562E+04  1.250661E+05 -1.319732E+04  4.556361E+03
       109   2  8.097800E+04  2.503272E+04 -1.945810E+04  1.067374E+05 -1.504550E+04  7.691009E+03
       109   3  3.057126E+04  1.201226E+04 -2.434631E+04  9.524370E+04 -1.655847E+04  9.937011E+03
       109   4  2.336768E+05  8.414203E+04  2.673614E+03  1.553426E+05 -5.000365E+03  7.645489E+03
       109   5  2.365470E+05  8.160125E+04  4.956318E+03  1.513784E+05 -8.766947E+03  1.005670E+04
       109   6  2.340831E+05  8.704047E+04  9.552817E+03  1.542481E+05 -1.219840E+04  1.157938E+04
       109   7  3.416927E+05  1.226314E+05  1.912296E+04  1.856241E+05  3.198094E+03  1.073518E+04
       109   8  3.921411E+05  1.381722E+05  2.937020E+04  1.960298E+05 -2.486770E+03  1.242302E+04
       109   9  4.376367E+05  1.620724E+05  4.345029E+04  2.132700E+05 -7.836865E+03  1.322233E+04
       109  10  1.256733E+05  4.565391E+04 -1.377599E+04  1.250662E+05  1.270505E-08  4.287736E-09
       109  11  8.097774E+04  2.503260E+04 -1.945864E+04  1.067375E+05 -1.818751E-08 -1.085854E-08
       109  12  3.057094E+04  1.201208E+04 -2.434701E+04  9.524383E+04 -5.540290E-08 -2.495948E-08
       109  13  2.336767E+05  8.414196E+04  2.673457E+03  1.553426E+05 -8.770620E-10  5.292525E-10
       109  14  2.365469E+05  8.160112E+04  4.955984E+03  1.513785E+05 -1.996219E-09  4.375810E-09
       109  15  2.340829E+05  8.704029E+04  9.552286E+03  1.542482E+05 -1.301279E-08 -7.690006E-09
       109  16  3.416927E+05  1.226312E+05  1.912273E+04  1.856241E+05 -1.195785E-08 -2.690909E-09
       109  17  3.921410E+05  1.381720E+05  2.936990E+04  1.960298E+05  1.185715E-08  4.213933E-09
       109  18  4.376366E+05  1.620722E+05  4.344985E+04  2.132701E+05  3.552871E-08  1.239148E-08
       109  19  1.256735E+05  4.565398E+04 -1.377562E+04  1.250661E+05  1.319732E+04 -4.556361E+03
       109  20  8.097800E+04  2.503272E+04 -1.945810E+04  1.067374E+05  1.504550E+04 -7.691009E+03
       109  21  3.057126E+04  1.201226E+04 -2.434631E+04  9.524370E+04  1.655847E+04 -9.937011E+03
       109  22  2.336768E+05  8.414203E+04  2.673614E+03  1.553426E+05  5.000365E+03 -7.645489E+03
       109  23  2.365470E+05  8.160125E+04  4.956318E+03  1.513784E+05  8.766947E+03 -1.005670E+04
       109  24  2.340831E+05  8.704047E+04  9.552817E+03  1.542481E+05  1.219840E+04 -1.157938E+04
       109  25  3.416927E+05  1.226314E+05  1.912296E+04  1.856241E+05 -3.198094E+03 -1.073518E+04
       109  26  3.921411E+05  1.381722E+05  2.937020E+04  1.960298E+05  2.486770E+03 -1.242302E+04
       109  27  4.376367E+05  1.620724E+05  4.345029E+04  2.132700E+05  7.836865E+03 -1.322233E+04
       110   1  2.008000E+02  2.763737E+03 -2.714794E+04  8.792264E+04 -1.868355E+04  1.083058E+04
       110   2 -3.545543E+04 -1.999146E+04 -3.112531E+04  5.506200E+04 -1.402354E+04  1.051776E+04
       110   3 -7.097540E+04 -1.972374E+04 -3.330860E+04  2.400158E+04 -6.435793E+03  2.429280E+03
       110   4  2.355895E+05  8.800133E+04  1.288497E+04  1.543023E+05 -1.420894E+04  1.251590E+04
       110   5  2.365970E+05  9.414296E+04  2.480858E+04  1.461239E+05 -2.632499E+04  5.882245E+03
       110   6  2.410592E+05  1.266248E+05  5.181759E+04  1.397462E+05 -3.551445E+04 -8.525085E+03
       110   7  4.710416E+05  1.732463E+05  5.291768E+04  2.207067E+05 -9.732436E+03  1.420193E+04
       110   8  5.087266E+05  2.082907E+05  8.073926E+04  2.372250E+05 -3.863218E+04  1.243830E+03
       110   9  5.531858E+05  2.729940E+05  1.369366E+05  2.555468E+05 -6.460832E+04 -1.948864E+04
       110  10  2.003936E+02  2.763517E+03 -2.714882E+04  8.792280E+04  2.658000E-08  1.439518E-08
       110  11 -3.545567E+04 -1.999163E+04 -3.112589E+04  5.506212E+04  2.406026E-08  1.720038E-08
       110  12 -7.097545E+04 -1.972376E+04 -3.330869E+04  2.400159E+04  3.498182E-09  5.023837E-09
       110  13  2.355893E+05  8.800111E+04  1.288429E+04  1.543024E+05 -1.226436E-08 -4.239631E-09
       110  14  2.365963E+05  9.414274E+04  2.480722E+04  1.461240E+05  4.444611E-09  3.160513E-09
       110  15  2.410579E+05  1.266244E+05  5.181508E+04  1.397460E+05  4.800060E-09  4.687544E-09
       110  16  4.710415E+05  1.732460E+05  5.291712E+04  2.207069E+05 -4.028972E-08 -1.674111E-08
       110  17  5.087250E+05  2.082903E+05  8.073645E+04  2.372250E+05 -1.046484E-08 -9.643686E-09
       110  18  5.531812E+05  2.729924E+05  1.369280E+05  2.555458E+05  1.693460E-09  1.379287E-09
       110  19  2.008000E+02  2.763737E+03 -2.714794E+04  8.792264E+04  1.868355E+04 -1.083058E+04
       110  20 -3.545543E+04 -1.999146E+04 -3.112531E+04  5.506200E+04  1.402354E+04 -1.051776E+04
       110  21 -7.097540E+04 -1.972374E+04 -3.330860E+04  2.400158E+04  6.435793E+03 -2.429280E+03
       110  22  2.355895E+05  8.800133E+04  1.288497E+04  1.543023E+05  1.420894E+04 -1.251590E+04
       110  23  2.365970E+05  9.414296E+04  2.480858E+04  1.461239E+05  2.632499E+04 -5.882245E+03
       110  24  2.410592E+05  1.266248E+05  5.181759E+04  1.397462E+05  3.551445E+04  8.525085E+03
       110  25  4.710416E+05  1.732463E+05  5.291768E+04  2.207067E+05  9.732436E+03 -1.420193E+04
       110  26  5.087266E+05  2.082907E+05  8.073926E+04  2.372250E+05  3.863218E+04 -1.243830E+03
       110  27  5.531858E+05  2.729940E+05  1.369366E+05  2.555468E+05  6.460832E+04  1.948864E+04
       111   1 -2.315007E+05 -1.054788E+06 -2.589032E+05  8.602877E+04 -4.599380E+03 -1.004385E+05
       111   2 -8.324447E+04 -9.470459E+05 -1.576613E+05  2.952996E+04 -1.343532E+04 -5.952527E+04
       111   3 -7.083687E+04 -8.782410E+05 -1.169872E+05  3.272704E+04 -1.048045E+04 -1.858715E+04
       111   4 -1.110925E+05 -5.728863E+05 -1.399896E+05  4.773328E+04 -4.606485E+03 -9.239641E+04
       111   5  1.417827E+04 -5.539686E+05 -6.415645E+04  1.797761E+04 -1.343599E+04 -5.796022E+04
       111   6  4.772069E+03 -5.728419E+05 -4.435766E+04  4.792061E+04 -1.047447E+04 -2.350541E+04
       111   7  9.303967E+03 -9.076992E+04 -2.109219E+04  9.408064E+03 -4.614583E+03 -8.434807E+04
       111   8  1.115903E+05 -1.607490E+05  2.933765E+04  6.417944E+03 -1.343673E+04 -5.639418E+04
       111   9  8.037518E+04 -2.673564E+05  2.826552E+04  6.312172E+04 -1.046873E+04 -2.842608E+04
       111  10 -2.315035E+05 -1.054799E+06 -2.589222E+05  8.602840E+04 -6.528293E-11  3.760655E-09
       111  11 -8.324561E+04 -9.470497E+05 -1.576683E+05  2.952932E+04  2.642608E-09  1.290675E-09
       111  12 -7.083709E+04 -8.782414E+05 -1.169880E+05  3.272688E+04 -1.445412E-09 -2.696367E-09
       111  13 -1.110948E+05 -5.728955E+05 -1.400057E+05  4.773294E+04  4.779869E-09  3.867270E-09
       111  14  1.417717E+04 -5.539722E+05 -6.416311E+04  1.797698E+04  1.237291E-09 -1.423912E-09
       111  15  4.771802E+03 -5.728425E+05 -4.435891E+04  4.792041E+04  3.793975E-09  5.462282E-10
       111  16  9.302034E+03 -9.077757E+04 -2.110560E+04  9.407751E+03  1.695433E-09  5.465431E-10
       111  17  1.115893E+05 -1.607524E+05  2.933133E+04  6.417333E+03  4.317931E-09  3.350076E-09
       111  18  8.037485E+04 -2.673573E+05  2.826380E+04  6.312148E+04  4.590110E-09 -3.311526E-10
       111  19 -2.315007E+05 -1.054788E+06 -2.589032E+05  8.602877E+04  4.599380E+03  1.004385E+05
       111  20 -8.324447E+04 -9.470459E+05 -1.576613E+05  2.952996E+04  1.343532E+04  5.952527E+04
       111  21 -7.083687E+04 -8.782410E+05 -1.169872E+05  3.272704E+04  1.048045E+04  1.858715E+04
       111  22 -1.110925E+05 -5.728863E+05 -1.399896E+05  4.773328E+04  4.606485E+03  9.239641E+04
       111  23  1.417827E+04 -5.539686E+05 -6.415645E+04  1.797761E+04  1.343599E+04  5.796022E+04
       111  24  4.772069E+03 -5.728419E+05 -4.435766E+04  4.792061E+04  1.047447E+04  2.350541E+04
       111  25  9.303967E+03 -9.076992E+04 -2.109219E+04  9.408064E+03  4.614583E+03  8.434807E+04
       111  26  1.115903E+05 -1.607490E+05  2.933765E+04  6.417944E+03  1.343673E+04  5.639418E+04
       111  27  8.037518E+04 -2.673564E+05  2.826552E+04  6.312172E+04  1.046873E+04  2.842608E+04
       112   1 -5.930274E+04 -7.633845E+05 -8.627242E+04  5.302238E+04 -6.607101E+03 -1.484577E+04
       112   2 -2.404790E+04 -6.704552E+05 -5.626973E+04  1.791996E+04 -3.707897E+03  9.221786E+02
       112   3 -1.471247E+04 -5.858653E+05 -4.298159E+04  4.333223E+04 -4.865385E+02  1.669201E+04
       112   4 -1.045217E+04 -5.662836E+05 -3.933690E+04  4.804168E+04 -6.605079E+03 -1.636896E+04
       112   5  2.787386E+03 -5.621241E+05 -3.049997E+04  1.778499E+04 -3.705945E+03 -7.753781E+02
       112   6 -9.859004E+03 -5.662793E+05 -3.825316E+04  4.804304E+04 -4.844607E+02  1.481787E+04
       112   7  3.839569E+04 -3.691470E+05  7.595909E+03  4.305940E+04 -6.603034E+03 -1.789263E+04
       112   8  2.962183E+04 -4.537822E+05 -4.731011E+03  1.765000E+04 -3.703993E+03 -2.473230E+03
       112   9 -5.005484E+03 -5.466929E+05 -3.352473E+04  5.275400E+04 -4.824114E+02  1.294368E+04
       112  10 -5.930284E+04 -7.633847E+05 -8.627291E+04  5.302230E+04  1.665578E-09  9.095032E-10
       112  11 -2.404791E+04 -6.704552E+05 -5.626976E+04  1.791996E+04  6.134073E-09  1.778046E-10
       112  12 -1.471254E+04 -5.858656E+05 -4.298212E+04  4.333223E+04 -1.881162E-09 -3.425930E-09
       112  13 -1.045229E+04 -5.662839E+05 -3.933749E+04  4.804159E+04  3.458140E-09  2.176285E-09
       112  14  2.787371E+03 -5.621241E+05 -3.049999E+04  1.778499E+04 -1.754291E-09 -1.463157E-09
       112  15 -9.859063E+03 -5.662796E+05 -3.825358E+04  4.804304E+04 -3.000209E-09 -1.284902E-09
       112  16  3.839555E+04 -3.691474E+05  7.595225E+03  4.305930E+04  2.150625E-09  1.856095E-09
       112  17  2.962181E+04 -4.537822E+05 -4.731048E+03  1.765000E+04 -4.885842E-10  3.090463E-09
       112  18 -5.005530E+03 -5.466931E+05 -3.352505E+04  5.275400E+04  1.782200E-09 -1.175876E-10
       112  19 -5.930274E+04 -7.633845E+05 -8.627242E+04  5.302238E+04  6.607101E+03  1.484577E+04
       112  20 -2.404790E+04 -6.704552E+05 -5.626973E+04  1.791996E+04  3.707897E+03 -9.221786E+02
       112  21 -1.471247E+04 -5.858653E+05 -4.298159E+04  4.333223E+04  4.865385E+02 -1.669201E+04
       112  22 -1.045217E+04 -5.662836E+05 -3.933690E+04  4.804168E+04  6.605079E+03  1.636896E+04
       112  23  2.787386E+03 -5.621241E+05 -3.049997E+04  1.778499E+04  3.705945E+03  7.753781E+02
       112  24 -9.859004E+03 -5.662793E+05 -3.825316E+04  4.804304E+04  4.844607E+02 -1.481787E+04
       112  25  3.839569E+04 -3.691470E+05  7.595909E+03  4.305940E+04  6.603034E+03  1.789263E+04
       112  26  2.962183E+04 -4.537822E+05 -4.731011E+03  1.765000E+04  3.703993E+03  2.473230E+03
       112  27 -5.005484E+03 -5.466929E+05 -3.352473E+04  5.275400E+04  4.824114E+02 -1.294368E+04
       113   1  2.646338E+04 -4.834906E+05 -2.158442E+04  6.268557E+04  2.784262E+03  2.549049E+04
       113   2  5.747657E+04 -3.770749E+05 -1.909504E+04  7.127004E+03  6.044795E+03  5.452085E+04
       113   3 -3.896852E+04 -3.060812E+05 -6.732819E+04  1.175856E+04  2.288051E+03  8.354703E+04
       113   4  4.450696E+03 -5.724531E+05 -4.282042E+04  4.801664E+04  2.787632E+03  2.173471E+04
       113   5  1.352738E+04 -5.544125E+05 -6.126400E+04  1.785128E+04  6.045716E+03  5.462708E+04
       113   6 -1.055479E+05 -5.724879E+05 -1.331263E+05  4.787954E+04  2.288006E+03  8.751097E+04
       113   7 -1.756174E+04 -6.614078E+05 -6.405681E+04  3.334982E+04  2.791180E+03  1.797946E+04
       113   8 -3.042365E+04 -7.317210E+05 -1.034351E+05  2.857249E+04  6.046641E+03  5.473329E+04
       113   9 -1.721277E+05 -8.388272E+05 -1.989289E+05  8.398502E+04  2.288423E+03  9.147319E+04
       113  10  2.646319E+04 -4.834913E+05 -2.158566E+04  6.268552E+04 -8.504939E-10  3.123351E-09
       113  11  5.747573E+04 -3.770781E+05 -1.910070E+04  7.126738E+03  4.739717E-09  8.838640E-10
       113  12 -3.897040E+04 -3.060887E+05 -6.734132E+04  1.175841E+04  1.610897E-09 -2.288286E-09
       113  13  4.450561E+03 -5.724536E+05 -4.282132E+04  4.801659E+04  5.797421E-10  1.970722E-09
       113  14  1.352654E+04 -5.544157E+05 -6.126968E+04  1.785102E+04  2.211932E-09 -9.979171E-10
       113  15 -1.055500E+05 -5.724961E+05 -1.331407E+05  4.787938E+04 -3.603120E-10 -3.469441E-10
       113  16 -1.756183E+04 -6.614081E+05 -6.405743E+04  3.334978E+04  5.130800E-09  1.805984E-10
       113  17 -3.042449E+04 -7.317242E+05 -1.034408E+05  2.857222E+04  5.975998E-10  3.235932E-09
       113  18 -1.721299E+05 -8.388362E+05 -1.989446E+05  8.398485E+04  8.543218E-10 -1.379400E-09
       113  19  2.646338E+04 -4.834906E+05 -2.158442E+04  6.268557E+04 -2.784262E+03 -2.549049E+04
       113  20  5.747657E+04 -3.770749E+05 -1.909504E+04  7.127004E+03 -6.044795E+03 -5.452085E+04
       113  21 -3.896852E+04 -3.060812E+05 -6.732819E+04  1.175856E+04 -2.288051E+03 -8.354703E+04
       113  22  4.450696E+03 -5.724531E+05 -4.282042E+04  4.801664E+04 -2.787632E+03 -2.173471E+04
       113  23  1.352738E+04 -5.544125E+05 -6.126400E+04  1.785128E+04 -6.045716E+03 -5.462708E+04
       113  24 -1.055479E+05 -5.724879E+05 -1.331263E+05  4.787954E+04 -2.288006E+03 -8.751097E+04
       113  25 -1.756174E+04 -6.614078E+05 -6.405681E+04  3.334982E+04 -2.791180E+03 -1.797946E+04
       113  26 -3.042365E+04 -7.317210E+05 -1.034351E+05  2.857249E+04 -6.046641E+03 -5.473329E+04
       113  27 -1.721277E+05 -8.388272E+05 -1.989289E+05  8.398502E+04 -2.288423E+03 -9.147319E+04
       114   1  4.935074E+05  1.702654E+05  1.015709E+05  1.829345E+05  4.740496E+04  1.607823E+04
       114   2  4.771847E+05  9.854979E+04  5.704334E+04  1.817953E+05  3.050261E+04  6.047009E+03
       114   3  4.791707E+05  8.832864E+04  4.138843E+04  1.722179E+05  1.230546E+04 -5.492534E+02
       114   4  3.838952E+05  1.086676E+05  6.812869E+04  1.322322E+05  4.397146E+04  1.478143E+04
       114   5  3.713288E+05  5.247096E+04  2.904497E+04  1.461414E+05  2.946569E+04  5.655464E+03
       114   6  3.766000E+05  5.729912E+04  1.693906E+04  1.516114E+05  1.366469E+04 -3.639786E+01
       114   7  2.742972E+05  4.707655E+04  3.468586E+04  8.154013E+04  4.053865E+04  1.348517E+04
       114   8  2.654843E+05  6.394182E+03  1.045739E+03  1.104936E+05  2.842897E+04  5.264019E+03
       114   9  2.740391E+05  2.626935E+04 -7.511178E+03  1.310075E+05  1.502369E+04  4.764086E+02
       114  10  4.935049E+05  1.702645E+05  1.015662E+05  1.829339E+05 -6.601416E-09 -2.228026E-09
       114  11  4.771837E+05  9.854950E+04  5.704153E+04  1.817951E+05 -5.489162E-09 -3.119848E-09
       114  12  4.791706E+05  8.832860E+04  4.138815E+04  1.722179E+05  1.830240E-09 -2.001686E-09
       114  13  3.838931E+05  1.086669E+05  6.812465E+04  1.322317E+05 -3.533623E-09  4.780692E-10
       114  14  3.713278E+05  5.247069E+04  2.904327E+04  1.461413E+05 -7.976573E-09 -5.256162E-09
       114  15  3.765998E+05  5.729907E+04  1.693871E+04  1.516114E+05 -2.934171E-09 -6.527106E-10
       114  16  2.742954E+05  4.707592E+04  3.468244E+04  8.153969E+04  3.146720E-10  3.790987E-09
       114  17  2.654834E+05  6.393935E+03  1.044168E+03  1.104934E+05 -8.887144E-09  4.041218E-09
       114  18  2.740389E+05  2.626929E+04 -7.511602E+03  1.310075E+05 -5.501304E-09 -5.530553E-10
       114  19  4.935074E+05  1.702654E+05  1.015709E+05  1.829345E+05 -4.740496E+04 -1.607823E+04
       114  20  4.771847E+05  9.854979E+04  5.704334E+04  1.817953E+05 -3.050261E+04 -6.047009E+03
       114  21  4.791707E+05  8.832864E+04  4.138843E+04  1.722179E+05 -1.230546E+04  5.492534E+02
       114  22  3.838952E+05  1.086676E+05  6.812869E+04  1.322322E+05 -4.397146E+04 -1.478143E+04
       114  23  3.713288E+05  5.247096E+04  2.904497E+04  1.461414E+05 -2.946569E+04 -5.655464E+03
       114  24  3.766000E+05  5.729912E+04  1.693906E+04  1.516114E+05 -1.366469E+04  3.639786E+01
       114  25  2.742972E+05  4.707655E+04  3.468586E+04  8.154013E+04 -4.053865E+04 -1.348517E+04
       114  26  2.654843E+05  6.394182E+03  1.045739E+03  1.104936E+05 -2.842897E+04 -5.264019E+03
       114  27  2.740391E+05  2.626935E+04 -7.511178E+03  1.310075E+05 -1.502369E+04 -4.764086E+02
       115   1  4.573771E+05  9.576635E+04  3.481058E+04  1.721982E+05  1.079722E+04 -1.721451E+02
       115   2  4.459931E+05  8.315056E+04  2.459997E+04  1.659702E+05  6.997240E+03 -1.026863E+03
       115   3  4.314737E+05  8.030188E+04  1.828873E+04  1.647138E+05  3.131314E+03 -1.706647E+03
       115   4  3.744112E+05  6.332764E+04  1.358695E+04  1.480186E+05  1.108863E+04 -6.227433E+01
       115   5  3.757077E+05  5.645960E+04  6.808372E+03  1.462865E+05  7.411020E+03 -8.707774E+02
       115   6  3.738446E+05  5.933472E+04  3.832635E+03  1.495259E+05  3.667389E+03 -1.504379E+03
       115   7  2.914520E+05  3.088955E+04 -7.637249E+03  1.238419E+05  1.137999E+04  4.757874E+01
       115   8  3.054273E+05  2.976905E+04 -1.098358E+04  1.266049E+05  7.824747E+03 -7.147119E+02
       115   9  3.162190E+05  3.836782E+04 -1.062365E+04  1.343393E+05  4.203407E+03 -1.302130E+03
       115  10  4.573770E+05  9.576632E+04  3.481037E+04  1.721982E+05 -2.867209E-09 -7.032527E-09
       115  11  4.459931E+05  8.315055E+04  2.459988E+04  1.659702E+05 -1.660777E-10  6.336317E-09
       115  12  4.314737E+05  8.030187E+04  1.828870E+04  1.647138E+05  2.641885E-09  9.658118E-09
       115  13  3.744110E+05  6.332760E+04  1.358672E+04  1.480186E+05 -1.307017E-09 -2.358139E-09
       115  14  3.757076E+05  5.645958E+04  6.808267E+03  1.462865E+05 -8.746972E-09 -6.017717E-09
       115  15  3.738446E+05  5.933471E+04  3.832606E+03  1.495259E+05  2.608270E-09  4.742932E-09
       115  16  2.914519E+05  3.088952E+04 -7.637492E+03  1.238419E+05 -1.115114E-09 -5.818423E-09
       115  17  3.054272E+05  2.976903E+04 -1.098370E+04  1.266049E+05 -3.407345E-09 -4.932824E-09
       115  18  3.162190E+05  3.836781E+04 -1.062369E+04  1.343393E+05  1.398800E-09 -4.760356E-10
       115  19  4.573771E+05  9.576635E+04  3.481058E+04  1.721982E+05 -1.079722E+04  1.721451E+02
       115  20  4.459931E+05  8.315056E+04  2.459997E+04  1.659702E+05 -6.997240E+03  1.026863E+03
       115  21  4.314737E+05  8.030188E+04  1.828873E+04  1.647138E+05 -3.131314E+03  1.706647E+03
       115  22  3.744112E+05  6.332764E+04  1.358695E+04  1.480186E+05 -1.108863E+04  6.227433E+01
       115  23  3.757077E+05  5.645960E+04  6.808372E+03  1.462865E+05 -7.411020E+03  8.707774E+02
       115  24  3.738446E+05  5.933472E+04  3.832635E+03  1.495259E+05 -3.667389E+03  1.504379E+03
       115  25  2.914520E+05  3.088955E+04 -7.637249E+03  1.238419E+05 -1.137999E+04 -4.757874E+01
       115  26  3.054273E+05  2.976905E+04 -1.098358E+04  1.266049E+05 -7.824747E+03  7.147119E+02
       115  27  3.162190E+05  3.836782E+04 -1.062365E+04  1.343393E+05 -4.203407E+03  1.302130E+03
       116   1  4.176185E+05  7.631385E+04  1.400397E+04  1.613744E+05  2.480924E+03 -1.458937E+03
       116   2  4.068238E+05  6.832478E+04  9.330554E+03  1.547545E+05  1.414933E+03 -1.068349E+03
       116   3  3.910013E+05  6.596321E+04  5.350383E+03  1.540610E+05  3.457478E+02 -6.693868E+02
       116   4  3.736237E+05  5.978366E+04  2.945989E+03  1.492237E+05  2.961657E+03 -1.277539E+03
       116   5  3.761172E+05  5.682174E+04  1.589123E+03  1.463167E+05  1.901563E+03 -8.847114E+02
       116   6  3.735817E+05  5.948628E+04  9.209592E+02  1.493361E+05  8.382589E+02 -4.835148E+02
       116   7  3.296306E+05  4.325354E+04 -8.112191E+03  1.370737E+05  3.442354E+03 -1.096155E+03
       116   8  3.454114E+05  4.531874E+04 -6.152399E+03  1.378792E+05  2.388168E+03 -7.010831E+02
       116   9  3.561624E+05  5.300937E+04 -3.508489E+03  1.446112E+05  1.330755E+03 -2.976484E+02
       116  10  4.176185E+05  7.631384E+04  1.400395E+04  1.613744E+05  3.270300E-10 -2.637302E-09
       116  11  4.068238E+05  6.832477E+04  9.330548E+03  1.547545E+05 -3.201836E-09 -6.537168E-09
       116  12  3.910013E+05  6.596321E+04  5.350382E+03  1.540610E+05 -2.095897E-09  3.112629E-09
       116  13  3.736237E+05  5.978366E+04  2.945970E+03  1.492237E+05  1.554835E-09  9.684482E-10
       116  14  3.761172E+05  5.682174E+04  1.589115E+03  1.463167E+05  1.602011E-09 -4.403533E-09
       116  15  3.735817E+05  5.948628E+04  9.209574E+02  1.493361E+05 -4.096906E-09  2.223468E-10
       116  16  3.296306E+05  4.325354E+04 -8.112215E+03  1.370737E+05  5.108909E-09  1.985817E-09
       116  17  3.454114E+05  4.531874E+04 -6.152411E+03  1.378792E+05 -2.495333E-09  5.968611E-09
       116  18  3.561624E+05  5.300937E+04 -3.508492E+03  1.446112E+05 -4.712000E-09 -5.273761E-09
       116  19  4.176185E+05  7.631385E+04  1.400397E+04  1.613744E+05 -2.480924E+03  1.458937E+03
       116  20  4.068238E+05  6.832478E+04  9.330554E+03  1.547545E+05 -1.414933E+03  1.068349E+03
       116  21  3.910013E+05  6.596321E+04  5.350383E+03  1.540610E+05 -3.457478E+02  6.693868E+02
       116  22  3.736237E+05  5.978366E+04  2.945989E+03  1.492237E+05 -2.961657E+03  1.277539E+03
       116  23  3.761172E+05  5.682174E+04  1.589123E+03  1.463167E+05 -1.901563E+03  8.847114E+02
       116  24  3.735817E+05  5.948628E+04  9.209592E+02  1.493361E+05 -8.382589E+02  4.835148E+02
       116  25  3.296306E+05  4.325354E+04 -8.112191E+03  1.370737E+05 -3.442354E+03  1.096155E+03
       116  26  3.454114E+05  4.531874E+04 -6.152399E+03  1.378792E+05 -2.388168E+03  7.010831E+02
       116  27  3.561624E+05  5.300937E+04 -3.508489E+03  1.446112E+05 -1.330755E+03  2.976484E+02
       117   1  3.778416E+05  6.110680E+04  1.759149E+03  1.504837E+05  5.806044E+01 -3.091441E+02
       117   2  3.671307E+05  5.346849E+04 -1.784828E+03  1.438333E+05 -4.535843E+02  3.006437E+02
       117   3  3.512032E+05  5.112577E+04 -5.137348E+03  1.431641E+05 -9.654335E+02  9.110527E+02
       117   4  3.735548E+05  5.951593E+04  7.280993E+02  1.493093E+05  5.476797E+02 -1.243608E+02
       117   5  3.761618E+05  5.685882E+04  4.932411E+02  1.463223E+05  3.646019E+01  4.855821E+02
       117   6  3.735521E+05  5.949719E+04  4.495214E+02  1.493163E+05 -4.749714E+02  1.096146E+03
       117   7  3.692680E+05  5.792507E+04 -3.029457E+02  1.481349E+05  1.037293E+03  6.042033E+01
       117   8  3.851930E+05  6.024915E+04  2.771305E+03  1.488113E+05  5.265124E+02  6.705234E+02
       117   9  3.959014E+05  6.786868E+04  6.036377E+03  1.554688E+05  1.551191E+01  1.281247E+03
       117  10  3.778416E+05  6.110680E+04  1.759149E+03  1.504837E+05 -7.454786E-11  7.845494E-09
       117  11  3.671307E+05  5.346849E+04 -1.784829E+03  1.438333E+05  1.193420E-09  1.464325E-08
       117  12  3.512032E+05  5.112577E+04 -5.137351E+03  1.431641E+05  3.587422E-10  4.091490E-09
       117  13  3.735548E+05  5.951593E+04  7.280987E+02  1.493093E+05  3.747585E-10  4.655475E-09
       117  14  3.761618E+05  5.685882E+04  4.932407E+02  1.463223E+05  4.838275E-09 -6.775479E-10
       117  15  3.735521E+05  5.949719E+04  4.495188E+02  1.493163E+05  2.368035E-09  1.492781E-09
       117  16  3.692680E+05  5.792507E+04 -3.029477E+02  1.481349E+05 -1.135018E-09 -7.955735E-09
       117  17  3.851930E+05  6.024915E+04  2.771304E+03  1.488113E+05  5.211772E-09 -1.052568E-09
       117  18  3.959014E+05  6.786868E+04  6.036374E+03  1.554688E+05  6.271669E-09 -2.397126E-12
       117  19  3.778416E+05  6.110680E+04  1.759149E+03  1.504837E+05 -5.806044E+01  3.091441E+02
       117  20  3.671307E+05  5.346849E+04 -1.784828E+03  1.438333E+05  4.535843E+02 -3.006437E+02
       117  21  3.512032E+05  5.112577E+04 -5.137348E+03  1.431641E+05  9.654335E+02 -9.110527E+02
       117  22  3.735548E+05  5.951593E+04  7.280993E+02  1.493093E+05 -5.476797E+02  1.243608E+02
       117  23  3.761618E+05  5.685882E+04  4.932411E+02  1.463223E+05 -3.646019E+01 -4.855821E+02
       117  24  3.735521E+05  5.949719E+04  4.495214E+02  1.493163E+05  4.749714E+02 -1.096146E+03
       117  25  3.692680E+05  5.792507E+04 -3.029457E+02  1.481349E+05 -1.037293E+03 -6.042033E+01
       117  26  3.851930E+05  6.024915E+04  2.771305E+03  1.488113E+05 -5.265124E+02 -6.705234E+02
       117  27  3.959014E+05  6.786868E+04  6.036377E+03  1.554688E+05 -1.551191E+01 -1.281247E+03
       118   1  3.380940E+05  4.620697E+04 -8.502678E+03  1.395808E+05 -1.198039E+03  1.291344E+03
       118   2  3.273506E+05  3.856699E+04 -1.161084E+04  1.329066E+05 -1.810421E+03  1.865020E+03
       118   3  3.114016E+05  3.625520E+04 -1.444739E+04  1.322282E+05 -2.422858E+03  2.439100E+03
       118   4  3.735535E+05  5.949928E+04  4.855934E+02  1.493215E+05 -7.072022E+02  1.476570E+03
       118   5  3.761585E+05  5.685083E+04  6.940436E+02  1.463176E+05 -1.319351E+03  2.050311E+03
       118   6  3.735577E+05  5.953044E+04  1.173904E+03  1.493096E+05 -1.931563E+03  2.624453E+03
       118   7  4.090143E+05  7.279167E+04  9.473764E+03  1.590626E+05 -2.163352E+02  1.661808E+03
       118   8  4.249686E+05  7.513478E+04  1.299871E+04  1.597296E+05 -8.282405E+02  2.235618E+03
       118   9  4.357172E+05  8.280584E+04  1.679482E+04  1.663924E+05 -1.440217E+03  2.809825E+03
       118  10  3.380940E+05  4.620697E+04 -8.502684E+03  1.395808E+05 -2.237255E-09  3.019990E-09
       118  11  3.273506E+05  3.856699E+04 -1.161086E+04  1.329066E+05 -2.930938E-10 -2.079546E-09
       118  12  3.114016E+05  3.625520E+04 -1.444741E+04  1.322282E+05  4.397199E-09  4.243017E-09
       118  13  3.735535E+05  5.949928E+04  4.855884E+02  1.493215E+05  5.237881E-09  3.148067E-09
       118  14  3.761585E+05  5.685082E+04  6.940324E+02  1.463176E+05 -1.748928E-09  1.974082E-09
       118  15  3.735576E+05  5.953043E+04  1.173884E+03  1.493096E+05 -3.047371E-09 -2.176023E-09
       118  16  4.090143E+05  7.279167E+04  9.473758E+03  1.590626E+05  4.700548E-09  6.954309E-11
       118  17  4.249686E+05  7.513477E+04  1.299870E+04  1.597296E+05 -9.592541E-11  2.293370E-09
       118  18  4.357172E+05  8.280583E+04  1.679480E+04  1.663924E+05 -9.351038E-09 -6.685576E-09
       118  19  3.380940E+05  4.620697E+04 -8.502678E+03  1.395808E+05  1.198039E+03 -1.291344E+03
       118  20  3.273506E+05  3.856699E+04 -1.161084E+04  1.329066E+05  1.810421E+03 -1.865020E+03
       118  21  3.114016E+05  3.625520E+04 -1.444739E+04  1.322282E+05  2.422858E+03 -2.439100E+03
       118  22  3.735535E+05  5.949928E+04  4.855934E+02  1.493215E+05  7.072022E+02 -1.476570E+03
       118  23  3.761585E+05  5.685083E+04  6.940436E+02  1.463176E+05  1.319351E+03 -2.050311E+03
       118  24  3.735577E+05  5.953044E+04  1.173904E+03  1.493096E+05  1.931563E+03 -2.624453E+03
       118  25  4.090143E+05  7.279167E+04  9.473764E+03  1.590626E+05  2.163352E+02 -1.661808E+03
       118  26  4.249686E+05  7.513478E+04  1.299871E+04  1.597296E+05  8.282405E+02 -2.235618E+03
       118  27  4.357172E+05  8.280584E+04  1.679482E+04  1.663924E+05  1.440217E+03 -2.809825E+03
       119   1  2.982200E+05  3.132803E+04 -1.750545E+04  1.287460E+05 -2.806040E+03  2.766185E+03
       119   2  2.873458E+05  2.353314E+04 -1.965364E+04  1.219161E+05 -4.430485E+03  2.960310E+03
       119   3  2.715825E+05  2.166466E+04 -2.062595E+04  1.210150E+05 -6.050518E+03  3.143106E+03
       119   4  3.736022E+05  5.948439E+04  1.530980E+03  1.493621E+05 -2.309835E+03  2.953370E+03
       119   5  3.760821E+05  5.677743E+04  2.719011E+03  1.463005E+05 -3.942387E+03  3.144397E+03
       119   6  3.736744E+05  5.999849E+04  5.089291E+03  1.491677E+05 -5.570557E+03  3.324083E+03
       119   7  4.489903E+05  8.764123E+04  2.056704E+04  1.699805E+05 -1.813562E+03  3.140581E+03
       119   8  4.648263E+05  9.002231E+04  2.509109E+04  1.706881E+05 -3.454212E+03  3.328513E+03
       119   9  4.757765E+05  9.833304E+04  3.080371E+04  1.773247E+05 -5.090509E+03  3.505093E+03
       119  10  2.982200E+05  3.132802E+04 -1.750548E+04  1.287460E+05 -9.468164E-09 -3.564205E-09
       119  11  2.873458E+05  2.353312E+04 -1.965369E+04  1.219161E+05  7.275135E-10 -2.066256E-09
       119  12  2.715824E+05  2.166464E+04 -2.062604E+04  1.210150E+05  6.229342E-09  5.621117E-09
       119  13  3.736022E+05  5.948438E+04  1.530954E+03  1.493621E+05  4.115207E-10 -1.094179E-09
       119  14  3.760821E+05  5.677741E+04  2.718963E+03  1.463005E+05  2.275261E-09 -2.075123E-10
       119  15  3.736744E+05  5.999847E+04  5.089212E+03  1.491677E+05  1.597008E-09 -3.450541E-09
       119  16  4.489903E+05  8.764122E+04  2.056702E+04  1.699805E+05  7.246557E-09  7.412436E-09
       119  17  4.648262E+05  9.002230E+04  2.509104E+04  1.706881E+05  5.907487E-09  8.788913E-09
       119  18  4.757765E+05  9.833302E+04  3.080364E+04  1.773247E+05 -6.700458E-09 -7.600035E-09
       119  19  2.982200E+05  3.132803E+04 -1.750545E+04  1.287460E+05  2.806040E+03 -2.766185E+03
       119  20  2.873458E+05  2.353314E+04 -1.965364E+04  1.219161E+05  4.430485E+03 -2.960310E+03
       119  21  2.715825E+05  2.166466E+04 -2.062595E+04  1.210150E+05  6.050518E+03 -3.143106E+03
       119  22  3.736022E+05  5.948439E+04  1.530980E+03  1.493621E+05  2.309835E+03 -2.953370E+03
       119  23  3.760821E+05  5.677743E+04  2.719011E+03  1.463005E+05  3.942387E+03 -3.144397E+03
       119  24  3.736744E+05  5.999849E+04  5.089291E+03  1.491677E+05  5.570557E+03 -3.324083E+03
       119  25  4.489903E+05  8.764123E+04  2.056704E+04  1.699805E+05  1.813562E+03 -3.140581E+03
       119  26  4.648263E+05  9.002231E+04  2.509109E+04  1.706881E+05  3.454212E+03 -3.328513E+03
       119  27  4.757765E+05  9.833304E+04  3.080371E+04  1.773247E+05  5.090509E+03 -3.505093E+03
       120   1  2.578425E+05  1.677697E+04 -2.250738E+04  1.188930E+05 -7.237981E+03  3.203874E+03
       120   2  2.468719E+05  7.393164E+03 -2.072122E+04  1.103097E+05 -1.335867E+04  1.671043E+03
       120   3  2.342154E+05  1.105812E+04 -1.247966E+04  1.060168E+05 -1.938356E+04 -1.150828E+02
       120   4  3.740568E+05  5.922300E+04  6.632498E+03  1.496954E+05 -6.677150E+03  3.415332E+03
       120   5  3.753731E+05  5.614442E+04  1.179893E+04  1.462438E+05 -1.297564E+04  1.815362E+03
       120   6  3.750379E+05  6.614850E+04  2.356056E+04  1.470824E+05 -1.917849E+04 -3.797263E+01
       120   7  4.902838E+05  1.016696E+05  3.577119E+04  1.805029E+05 -6.116207E+03  3.626831E+03
       120   8  5.038904E+05  1.048969E+05  4.431775E+04  1.821847E+05 -1.259252E+04  1.959714E+03
       120   9  5.158804E+05  1.212409E+05  5.959930E+04  1.881568E+05 -1.897338E+04  3.915909E+01
       120  10  2.578425E+05  1.677694E+04 -2.250750E+04  1.188930E+05 -2.023621E-09  5.029423E-09
       120  11  2.468717E+05  7.393113E+03 -2.072156E+04  1.103097E+05 -6.129120E-09 -2.450454E-09
       120  12  2.342150E+05  1.105802E+04 -1.248037E+04  1.060168E+05 -1.404395E-09 -5.699255E-10
       120  13  3.740567E+05  5.922298E+04  6.632392E+03  1.496954E+05 -1.194316E-09 -6.939578E-09
       120  14  3.753729E+05  5.614438E+04  1.179860E+04  1.462439E+05 -3.696644E-09 -5.404653E-09
       120  15  3.750375E+05  6.614840E+04  2.355986E+04  1.470824E+05 -1.588283E-09 -1.475149E-09
       120  16  4.902838E+05  1.016696E+05  3.577109E+04  1.805029E+05 -8.831943E-09 -1.268495E-08
       120  17  5.038902E+05  1.048968E+05  4.431745E+04  1.821847E+05 -6.398098E-09 -6.290581E-09
       120  18  5.158800E+05  1.212408E+05  5.959863E+04  1.881568E+05 -2.475157E-09 -8.045912E-09
       120  19  2.578425E+05  1.677697E+04 -2.250738E+04  1.188930E+05  7.237981E+03 -3.203874E+03
       120  20  2.468719E+05  7.393164E+03 -2.072122E+04  1.103097E+05  1.335867E+04 -1.671043E+03
       120  21  2.342154E+05  1.105812E+04 -1.247966E+04  1.060168E+05  1.938356E+04  1.150828E+02
       120  22  3.740568E+05  5.922300E+04  6.632498E+03  1.496954E+05  6.677150E+03 -3.415332E+03
       120  23  3.753731E+05  5.614442E+04  1.179893E+04  1.462438E+05  1.297564E+04 -1.815362E+03
       120  24  3.750379E+05  6.614850E+04  2.356056E+04  1.470824E+05  1.917849E+04  3.797263E+01
       120  25  4.902838E+05  1.016696E+05  3.577119E+04  1.805029E+05  6.116207E+03 -3.626831E+03
       120  26  5.038904E+05  1.048969E+05  4.431775E+04  1.821847E+05  1.259252E+04 -1.959714E+03
       120  27  5.158804E+05  1.212409E+05  5.959930E+04  1.881568E+05  1.897338E+04 -3.915909E+01
       121   1  2.135426E+05  6.614916E+03 -9.846747E+03  1.210704E+05 -2.524693E+04 -1.158208E+03
       121   2  2.064115E+05 -2.232800E+04  7.455237E+03  9.029297E+04 -4.902647E+04 -1.008410E+04
       121   3  2.333364E+05  5.011669E+04  6.879894E+04  4.058312E+04 -7.092573E+04 -2.399753E+04
       121   4  3.788328E+05  5.569569E+04  2.937591E+04  1.533155E+05 -2.349018E+04 -4.955114E+02
       121   5  3.677842E+05  4.922092E+04  5.037350E+04  1.459862E+05 -5.075331E+04 -1.073614E+04
       121   6  3.914692E+05  1.448047E+05  1.181637E+05  1.197278E+05 -7.613624E+04 -2.596582E+04
       121   7  5.441502E+05  1.047763E+05  6.859686E+04  1.855675E+05 -2.173291E+04  1.672891E+02
       121   8  5.291818E+05  1.207742E+05  9.328923E+04  2.016932E+05 -5.248063E+04 -1.138844E+04
       121   9  5.496272E+05  2.395069E+05  1.675255E+05  1.988933E+05 -8.134811E+04 -2.793537E+04
       121  10  2.135420E+05  6.614744E+03 -9.847947E+03  1.210703E+05  7.080559E-10  4.288914E-09
       121  11  2.064089E+05 -2.232875E+04  7.450531E+03  9.029257E+04 -2.096644E-09  4.871032E-10
       121  12  2.333308E+05  5.011472E+04  6.878841E+04  4.058175E+04 -2.618065E-10 -1.517851E-09
       121  13  3.788322E+05  5.569554E+04  2.937487E+04  1.533155E+05  1.870657E-10 -7.626619E-09
       121  14  3.677814E+05  4.922010E+04  5.036844E+04  1.459857E+05  1.173645E-09 -2.464132E-09
       121  15  3.914628E+05  1.448025E+05  1.181515E+05  1.197262E+05 -6.414574E-10 -2.692293E-09
       121  16  5.441497E+05  1.047762E+05  6.859597E+04  1.855675E+05 -7.516948E-10 -9.034247E-09
       121  17  5.291788E+05  1.207733E+05  9.328382E+04  2.016927E+05 -5.684412E-10 -4.311054E-09
       121  18  5.496199E+05  2.395043E+05  1.675116E+05  1.988915E+05 -6.916844E-10  2.344489E-09
       121  19  2.135426E+05  6.614916E+03 -9.846747E+03  1.210704E+05  2.524693E+04  1.158208E+03
       121  20  2.064115E+05 -2.232800E+04  7.455237E+03  9.029297E+04  4.902647E+04  1.008410E+04
       121  21  2.333364E+05  5.011669E+04  6.879894E+04  4.058312E+04  7.092573E+04  2.399753E+04
       121  22  3.788328E+05  5.569569E+04  2.937591E+04  1.533155E+05  2.349018E+04  4.955114E+02
       121  23  3.677842E+05  4.922092E+04  5.037350E+04  1.459862E+05  5.075331E+04  1.073614E+04
       121  24  3.914692E+05  1.448047E+05  1.181637E+05  1.197278E+05  7.613624E+04  2.596582E+04
       121  25  5.441502E+05  1.047763E+05  6.859686E+04  1.855675E+05  2.173291E+04 -1.672891E+02
       121  26  5.291818E+05  1.207742E+05  9.328923E+04  2.016932E+05  5.248063E+04  1.138844E+04
       121  27  5.496272E+05  2.395069E+05  1.675255E+05  1.988933E+05  8.134811E+04  2.793537E+04
       122   1 -3.602904E+02 -5.449047E+05 -2.816629E+03 -2.309538E+02 -6.464019E+01  1.999532E+02
       122   2 -7.907584E+02 -5.469448E+05 -3.906241E+03  4.132308E+02 -1.263247E+02  1.703368E+03
       122   3 -2.080060E+03 -5.494016E+05 -6.191259E+03 -4.758328E+02 -2.201201E+02  3.206748E+03
       122   4 -2.133311E+01 -5.435329E+05 -2.496508E+03 -3.404523E+02 -6.467803E+01  2.238108E+02
       122   5  1.062400E+02 -5.433232E+05 -3.044738E+03  4.256913E+02 -1.263904E+02  1.744946E+03
       122   6 -6.280862E+02 -5.435333E+05 -4.800673E+03 -3.414113E+02 -2.202130E+02  3.266052E+03
       122   7  3.176241E+02 -5.421611E+05 -2.176388E+03 -4.499511E+02 -6.471588E+01  2.476684E+02
       122   8  1.003237E+03 -5.397016E+05 -2.183236E+03  4.381518E+02 -1.264561E+02  1.786524E+03
       122   9  8.238851E+02 -5.376649E+05 -3.410088E+03 -2.069886E+02 -2.203058E+02  3.325356E+03
       122  10 -3.602904E+02 -5.449047E+05 -2.816629E+03 -2.309538E+02 -3.560313E-09 -8.156789E-10
       122  11 -7.907592E+02 -5.469448E+05 -3.906247E+03  4.132310E+02 -2.801088E-09 -1.732736E-09
       122  12 -2.080063E+03 -5.494016E+05 -6.191279E+03 -4.758322E+02 -3.918841E-09  8.624314E-10
       122  13 -2.133313E+01 -5.435329E+05 -2.496508E+03 -3.404523E+02 -2.041290E-09  7.570648E-11
       122  14  1.062391E+02 -5.433232E+05 -3.044744E+03  4.256914E+02 -5.950376E-09 -1.730706E-09
       122  15 -6.280891E+02 -5.435333E+05 -4.800693E+03 -3.414108E+02 -3.696332E-10  2.685800E-10
       122  16  3.176241E+02 -5.421611E+05 -2.176388E+03 -4.499511E+02 -2.974740E-09  4.592785E-09
       122  17  1.003237E+03 -5.397016E+05 -2.183242E+03  4.381520E+02 -1.101809E-09  3.307117E-09
       122  18  8.238821E+02 -5.376650E+05 -3.410109E+03 -2.069880E+02 -3.005360E-10  1.204796E-09
       122  19 -3.602904E+02 -5.449047E+05 -2.816629E+03 -2.309538E+02  6.464019E+01 -1.999532E+02
       122  20 -7.907584E+02 -5.469448E+05 -3.906241E+03  4.132308E+02  1.263247E+02 -1.703368E+03
       122  21 -2.080060E+03 -5.494016E+05 -6.191259E+03 -4.758328E+02  2.201201E+02 -3.206748E+03
       122  22 -2.133311E+01 -5.435329E+05 -2.496508E+03 -3.404523E+02  6.467803E+01 -2.238108E+02
       122  23  1.062400E+02 -5.433232E+05 -3.044738E+03  4.256913E+02  1.263904E+02 -1.744946E+03
       122  24 -6.280862E+02 -5.435333E+05 -4.800673E+03 -3.414113E+02  2.202130E+02 -3.266052E+03
       122  25  3.176241E+02 -5.421611E+05 -2.176388E+03 -4.499511E+02  6.471588E+01 -2.476684E+02
       122  26  1.003237E+03 -5.397016E+05 -2.183236E+03  4.381518E+02  1.264561E+02 -1.786524E+03
       122  27  8.238851E+02 -5.376649E+05 -3.410088E+03 -2.069886E+02  2.203058E+02 -3.325356E+03
       123   1 -1.787346E+03 -5.526349E+05 -8.027257E+03  6.529245E+02 -2.863204E+02  4.159281E+03
       123   2 -1.798477E+03 -5.535398E+05 -1.238264E+04 -6.633378E+01 -3.852183E+02  9.182261E+03
       123   3 -9.841505E+03 -5.571136E+05 -2.201952E+04 -2.316704E+03 -4.543214E+02  1.420525E+04
       123   4  3.484389E+02 -5.440321E+05 -5.975004E+03 -3.368996E+02 -2.864190E+02  4.217727E+03
       123   5  8.843932E+02 -5.427005E+05 -9.804797E+03  4.232021E+02 -3.852766E+02  9.224337E+03
       123   6 -6.608630E+03 -5.440350E+05 -1.890463E+04 -3.478103E+02 -4.543157E+02  1.423097E+04
       123   7  2.484222E+03 -5.354293E+05 -3.922756E+03 -1.326737E+03 -2.865177E+02  4.276174E+03
       123   8  3.567256E+03 -5.318612E+05 -7.226958E+03  9.127466E+02 -3.853348E+02  9.266414E+03
       123   9 -3.375752E+03 -5.309562E+05 -1.578975E+04  1.621126E+03 -4.543098E+02  1.425670E+04
       123  10 -1.787351E+03 -5.526349E+05 -8.027290E+03  6.529255E+02 -3.923411E-09 -1.603353E-09
       123  11 -1.798500E+03 -5.535399E+05 -1.238280E+04 -6.633093E+01 -5.449362E-10 -1.823391E-09
       123  12 -9.841560E+03 -5.571138E+05 -2.201990E+04 -2.316699E+03 -1.357385E-09  1.003222E-09
       123  13  3.484340E+02 -5.440322E+05 -5.975038E+03 -3.368986E+02 -2.486013E-09  1.093031E-09
       123  14  8.843702E+02 -5.427006E+05 -9.804957E+03  4.232049E+02 -2.083944E-09 -1.852393E-09
       123  15 -6.608685E+03 -5.440352E+05 -1.890501E+04 -3.478051E+02 -2.358471E-09 -3.509441E-09
       123  16  2.484217E+03 -5.354293E+05 -3.922790E+03 -1.326736E+03 -2.113061E-09  5.390980E-10
       123  17  3.567233E+03 -5.318613E+05 -7.227120E+03  9.127495E+02 -8.319513E-10  4.331896E-09
       123  18 -3.375807E+03 -5.309564E+05 -1.579013E+04  1.621131E+03  1.709237E-09  4.140560E-10
       123  19 -1.787346E+03 -5.526349E+05 -8.027257E+03  6.529245E+02  2.863204E+02 -4.159281E+03
       123  20 -1.798477E+03 -5.535398E+05 -1.238264E+04 -6.633378E+01  3.852183E+02 -9.182261E+03
       123  21 -9.841505E+03 -5.571136E+05 -2.201952E+04 -2.316704E+03  4.543214E+02 -1.420525E+04
       123  22  3.484389E+02 -5.440321E+05 -5.975004E+03 -3.368996E+02  2.864190E+02 -4.217727E+03
       123  23  8.843932E+02 -5.427005E+05 -9.804797E+03  4.232021E+02  3.852766E+02 -9.224337E+03
       123  24 -6.608630E+03 -5.440350E+05 -1.890463E+04 -3.478103E+02  4.543157E+02 -1.423097E+04
       123  25  2.484222E+03 -5.354293E+05 -3.922756E+03 -1.326737E+03  2.865177E+02 -4.276174E+03
       123  26  3.567256E+03 -5.318612E+05 -7.226958E+03  9.127466E+02  3.853348E+02 -9.266414E+03
       123  27 -3.375752E+03 -5.309562E+05 -1.578975E+04  1.621126E+03  4.543098E+02 -1.425670E+04
       124   1 -3.533455E+02 -5.642873E+05 -2.694520E+04  9.004609E+03 -5.796689E+02  1.762770E+04
       124   2  4.163515E+03 -5.550788E+05 -4.158706E+04 -6.316353E+03 -6.770025E+02  3.798429E+04
       124   3 -7.247832E+04 -5.688227E+05 -8.978047E+04 -2.321646E+04 -3.003966E+02  5.834134E+04
       124   4  3.585274E+03 -5.485287E+05 -2.319430E+04 -3.175987E+02 -5.801935E+02  1.779483E+04
       124   5  8.594170E+03 -5.370845E+05 -3.731289E+04  4.173371E+02 -6.764412E+02  3.788992E+04
       124   6 -6.750990E+04 -5.485472E+05 -8.480078E+04 -4.274850E+02 -2.977017E+02  5.798555E+04
       124   7  7.524202E+03 -5.327697E+05 -1.944337E+04 -9.640044E+03 -5.807230E+02  1.796197E+04
       124   8  1.302497E+04 -5.190899E+05 -3.303873E+04  7.151224E+03 -6.758820E+02  3.779555E+04
       124   9 -6.253955E+04 -5.282703E+05 -7.982083E+04  2.236224E+04 -2.950331E+02  5.762976E+04
       124  10 -3.534293E+02 -5.642877E+05 -2.694579E+04  9.004617E+03  1.305916E-09 -1.577136E-09
       124  11  4.163127E+03 -5.550803E+05 -4.158977E+04 -6.316333E+03  2.959353E-09 -5.666021E-09
       124  12 -7.247923E+04 -5.688263E+05 -8.978687E+04 -2.321645E+04  2.044375E-09  2.184548E-09
       124  13  3.585189E+03 -5.485291E+05 -2.319490E+04 -3.175904E+02 -5.052475E-10  4.941139E-11
       124  14  8.593783E+03 -5.370861E+05 -3.731559E+04  4.173578E+02 -1.654904E-09 -4.008150E-09
       124  15 -6.751080E+04 -5.485509E+05 -8.480710E+04 -4.274711E+02 -8.482827E-10 -1.062485E-09
       124  16  7.524115E+03 -5.327700E+05 -1.944397E+04 -9.640036E+03  3.887084E-09  4.296587E-09
       124  17  1.302459E+04 -5.190914E+05 -3.304141E+04  7.151244E+03  2.427629E-09  7.505043E-09
       124  18 -6.254044E+04 -5.282739E+05 -7.982708E+04  2.236225E+04  4.816817E-10  3.268596E-09
       124  19 -3.533455E+02 -5.642873E+05 -2.694520E+04  9.004609E+03  5.796689E+02 -1.762770E+04
       124  20  4.163515E+03 -5.550788E+05 -4.158706E+04 -6.316353E+03  6.770025E+02 -3.798429E+04
       124  21 -7.247832E+04 -5.688227E+05 -8.978047E+04 -2.321646E+04  3.003966E+02 -5.834134E+04
       124  22  3.585274E+03 -5.485287E+05 -2.319430E+04 -3.175987E+02  5.801935E+02 -1.779483E+04
       124  23  8.594170E+03 -5.370845E+05 -3.731289E+04  4.173371E+02  6.764412E+02 -3.788992E+04
       124  24 -6.750990E+04 -5.485472E+05 -8.480078E+04 -4.274850E+02  2.977017E+02 -5.798555E+04
       124  25  7.524202E+03 -5.327697E+05 -1.944337E+04 -9.640044E+03  5.807230E+02 -1.796197E+04
       124  26  1.302497E+04 -5.190899E+05 -3.303873E+04  7.151224E+03  6.758820E+02 -3.779555E+04
       124  27 -6.253955E+04 -5.282703E+05 -7.982083E+04  2.236224E+04  2.950331E+02 -5.762976E+04
       125   1 -5.946531E+06 -1.909163E+06 -9.476800E+05 -2.177793E+06 -3.577126E+05 -8.329021E+04
       125   2 -5.766341E+06 -1.644626E+06 -6.728615E+05 -2.111197E+06 -2.342441E+05  8.613732E+04
       125   3 -5.620143E+06 -1.527051E+06 -5.522544E+05 -2.054876E+06 -8.068494E+04  1.767675E+05
       125   4 -3.051737E+06 -7.243210E+05 -1.787565E+05 -1.290618E+06 -1.327333E+05  2.092312E+03
       125   5 -3.036741E+06 -5.939842E+05 -8.250120E+04 -1.311507E+06 -1.301951E+05  1.255055E+05
       125   6 -3.031346E+06 -5.861646E+05 -4.361491E+04 -1.342736E+06 -9.770131E+04  1.702429E+05
       125   7 -1.486417E+05  4.614878E+05  5.896338E+05 -3.995041E+05  9.340191E+04  8.799456E+04
       125   8 -2.994552E+05  4.574538E+05  5.074667E+05 -5.084787E+05 -2.564807E+04  1.650792E+05
       125   9 -4.355100E+05  3.553082E+05  4.647293E+05 -6.278186E+05 -1.147947E+05  1.636900E+05
       125  10 -5.946672E+06 -1.909205E+06 -9.479362E+05 -2.177817E+06  1.116479E-08  4.243973E-09
       125  11 -5.766402E+06 -1.644649E+06 -6.729792E+05 -2.111181E+06  3.764169E-09 -3.355170E-09
       125  12 -5.620158E+06 -1.527087E+06 -5.523253E+05 -2.054865E+06 -1.360818E-08 -7.418287E-09
       125  13 -3.051756E+06 -7.243257E+05 -1.787898E+05 -1.290618E+06 -1.744226E-09  2.291394E-09
       125  14 -3.036764E+06 -5.940056E+05 -8.256262E+04 -1.311493E+06  1.931608E-09  3.140452E-09
       125  15 -3.031364E+06 -5.861982E+05 -4.368719E+04 -1.342722E+06 -3.776674E-09  4.471350E-09
       125  16 -1.486531E+05  4.614772E+05  5.896028E+05 -3.995107E+05 -1.181837E-08 -6.943092E-09
       125  17 -2.994632E+05  4.574244E+05  5.074144E+05 -5.084753E+05  1.606241E-09 -4.552043E-09
       125  18 -4.355313E+05  3.552759E+05  4.646543E+05 -6.278035E+05  1.220993E-08 -3.508937E-09
       125  19 -5.946531E+06 -1.909163E+06 -9.476800E+05 -2.177793E+06  3.577126E+05  8.329021E+04
       125  20 -5.766341E+06 -1.644626E+06 -6.728615E+05 -2.111197E+06  2.342441E+05 -8.613732E+04
       125  21 -5.620143E+06 -1.527051E+06 -5.522544E+05 -2.054876E+06  8.068494E+04 -1.767675E+05
       125  22 -3.051737E+06 -7.243210E+05 -1.787565E+05 -1.290618E+06  1.327333E+05 -2.092312E+03
       125  23 -3.036741E+06 -5.939842E+05 -8.250120E+04 -1.311507E+06  1.301951E+05 -1.255055E+05
       125  24 -3.031346E+06 -5.861646E+05 -4.361491E+04 -1.342736E+06  9.770131E+04 -1.702429E+05
       125  25 -1.486417E+05  4.614878E+05  5.896338E+05 -3.995041E+05 -9.340191E+04 -8.799456E+04
       125  26 -2.994552E+05  4.574538E+05  5.074667E+05 -5.084787E+05  2.564807E+04 -1.650792E+05
       125  27 -4.355100E+05  3.553082E+05  4.647293E+05 -6.278186E+05  1.147947E+05 -1.636900E+05
       126   1 -5.475168E+06 -1.492061E+06 -5.138494E+05 -2.026818E+06 -8.576235E+04  1.667415E+05
       126   2 -5.299718E+06 -1.395256E+06 -4.513958E+05 -1.953747E+06 -6.531521E+04  1.678049E+05
       126   3 -5.093626E+06 -1.339084E+06 -4.040001E+05 -1.918838E+06 -4.256995E+04  1.627385E+05
       126   4 -3.025117E+06 -5.900814E+05 -3.311328E+04 -1.340317E+06 -9.006851E+04  1.650356E+05
       126   5 -3.040728E+06 -5.674225E+05 -1.756064E+04 -1.322402E+06 -7.900734E+04  1.625654E+05
       126   6 -3.023851E+06 -5.835008E+05 -9.547941E+03 -1.342654E+06 -6.565887E+04  1.539754E+05
       126   7 -5.687833E+05  3.124565E+05  4.473505E+05 -6.512732E+05 -9.439307E+04  1.633230E+05
       126   8 -7.763889E+05  2.608834E+05  4.160554E+05 -6.889046E+05 -9.275329E+04  1.573057E+05
       126   9 -9.495913E+05  1.724710E+05  3.847232E+05 -7.646739E+05 -8.883074E+04  1.451812E+05
       126  10 -5.475183E+06 -1.492092E+06 -5.139153E+05 -2.026806E+06  6.002390E-08  2.159883E-08
       126  11 -5.299730E+06 -1.395287E+06 -4.514566E+05 -1.953738E+06  9.572268E-09  6.900913E-09
       126  12 -5.093635E+06 -1.339113E+06 -4.040532E+05 -1.918832E+06 -4.988298E-08 -1.931119E-08
       126  13 -3.025133E+06 -5.901127E+05 -3.317960E+04 -1.340305E+06  6.833283E-10  6.974213E-09
       126  14 -3.040742E+06 -5.674525E+05 -1.762193E+04 -1.322392E+06  1.138099E-08  7.251906E-09
       126  15 -3.023862E+06 -5.835273E+05 -9.600504E+03 -1.342646E+06  3.602234E-09  3.080140E-09
       126  16 -5.688000E+05  3.124255E+05  4.472837E+05 -6.512608E+05 -5.314134E-08 -2.345713E-08
       126  17 -7.764048E+05  2.608546E+05  4.159928E+05 -6.888929E+05  9.925324E-09  4.540813E-09
       126  18 -9.496054E+05  1.724463E+05  3.846688E+05 -7.646635E+05  5.825588E-08  2.505535E-08
       126  19 -5.475168E+06 -1.492061E+06 -5.138494E+05 -2.026818E+06  8.576235E+04 -1.667415E+05
       126  20 -5.299718E+06 -1.395256E+06 -4.513958E+05 -1.953747E+06  6.531521E+04 -1.678049E+05
       126  21 -5.093626E+06 -1.339084E+06 -4.040001E+05 -1.918838E+06  4.256995E+04 -1.627385E+05
       126  22 -3.025117E+06 -5.900814E+05 -3.311328E+04 -1.340317E+06  9.006851E+04 -1.650356E+05
       126  23 -3.040728E+06 -5.674225E+05 -1.756064E+04 -1.322402E+06  7.900734E+04 -1.625654E+05
       126  24 -3.023851E+06 -5.835008E+05 -9.547941E+03 -1.342654E+06  6.565887E+04 -1.539754E+05
       126  25 -5.687833E+05  3.124565E+05  4.473505E+05 -6.512732E+05  9.439307E+04 -1.633230E+05
       126  26 -7.763889E+05  2.608834E+05  4.160554E+05 -6.889046E+05  9.275329E+04 -1.573057E+05
       126  27 -9.495913E+05  1.724710E+05  3.847232E+05 -7.646739E+05  8.883074E+04 -1.451812E+05
       127   1 -4.963296E+06 -1.292052E+06 -3.758060E+05 -1.883210E+06 -3.873354E+04  1.541213E+05
       127   2 -4.785053E+06 -1.201882E+06 -3.350498E+05 -1.808176E+06 -3.030356E+04  1.404609E+05
       127   3 -4.571341E+06 -1.147439E+06 -2.963773E+05 -1.773453E+06 -2.168596E+04  1.262355E+05
       127   4 -3.023200E+06 -5.837481E+05 -7.201006E+03 -1.342729E+06 -6.099653E+04  1.456829E+05
       127   5 -3.040818E+06 -5.655967E+05 -4.010391E+03 -1.322655E+06 -5.342773E+04  1.317179E+05
       127   6 -3.022846E+06 -5.829986E+05 -2.220312E+03 -1.342902E+06 -4.567264E+04  1.171884E+05
       127   7 -1.079127E+06  1.249118E+05  3.612563E+05 -8.006582E+05 -8.333485E+04  1.372163E+05
       127   8 -1.293375E+06  7.097359E+04  3.269089E+05 -8.358523E+05 -7.662211E+04  1.229485E+05
       127   9 -1.471830E+06 -1.833709E+04  2.918407E+05 -9.113430E+05 -6.972383E+04  1.081171E+05
       127  10 -4.963303E+06 -1.292077E+06 -3.758533E+05 -1.883205E+06 -1.854125E-10 -2.202684E-09
       127  11 -4.785059E+06 -1.201903E+06 -3.350885E+05 -1.808172E+06  4.539487E-10 -3.405979E-09
       127  12 -4.571346E+06 -1.147456E+06 -2.964081E+05 -1.773451E+06 -2.262158E-09 -2.493292E-09
       127  13 -3.023210E+06 -5.837719E+05 -7.247801E+03 -1.342722E+06  2.392507E-10 -6.363324E-10
       127  14 -3.040826E+06 -5.656160E+05 -4.048294E+03 -1.322649E+06  9.214819E-10 -1.867286E-09
       127  15 -3.022852E+06 -5.830138E+05 -2.249988E+03 -1.342897E+06  4.526153E-10 -2.220787E-09
       127  16 -1.079139E+06  1.248897E+05  3.612079E+05 -8.006490E+05  1.598263E-10  1.953413E-09
       127  17 -1.293385E+06  7.095582E+04  3.268695E+05 -8.358447E+05  1.675927E-09 -6.313581E-10
       127  18 -1.471838E+06 -1.835092E+04  2.918096E+05 -9.113370E+05  2.757297E-09 -1.894783E-09
       127  19 -4.963296E+06 -1.292052E+06 -3.758060E+05 -1.883210E+06  3.873354E+04 -1.541213E+05
       127  20 -4.785053E+06 -1.201882E+06 -3.350498E+05 -1.808176E+06  3.030356E+04 -1.404609E+05
       127  21 -4.571341E+06 -1.147439E+06 -2.963773E+05 -1.773453E+06  2.168596E+04 -1.262355E+05
       127  22 -3.023200E+06 -5.837481E+05 -7.201006E+03 -1.342729E+06  6.099653E+04 -1.456829E+05
       127  23 -3.040818E+06 -5.655967E+05 -4.010391E+03 -1.322655E+06  5.342773E+04 -1.317179E+05
       127  24 -3.022846E+06 -5.829986E+05 -2.220312E+03 -1.342902E+06  4.567264E+04 -1.171884E+05
       127  25 -1.079127E+06  1.249118E+05  3.612563E+05 -8.006582E+05  8.333485E+04 -1.372163E+05
       127  26 -1.293375E+06  7.097359E+04  3.269089E+05 -8.358523E+05  7.662211E+04 -1.229485E+05
       127  27 -1.471830E+06 -1.833709E+04  2.918407E+05 -9.113430E+05  6.972383E+04 -1.081171E+05
       128   1 -4.439536E+06 -1.099158E+06 -2.697694E+05 -1.736961E+06 -1.789358E+04  1.172831E+05
       128   2 -4.258226E+06 -1.008243E+06 -2.317935E+05 -1.660860E+06 -1.128564E+04  1.019022E+05
       128   3 -4.040771E+06 -9.532782E+05 -1.942877E+05 -1.625831E+06 -4.655118E+03  8.641100E+04
       128   4 -3.022634E+06 -5.830293E+05 -1.722341E+03 -1.343053E+06 -4.192418E+04  1.082299E+05
       128   5 -3.040588E+06 -5.648558E+05 -1.106969E+03 -1.322556E+06 -3.548442E+04  9.280039E+04
       128   6 -3.022409E+06 -5.825995E+05 -8.322414E+02 -1.343143E+06 -2.902234E+04  7.726047E+04
       128   7 -1.603633E+06 -6.672023E+04  2.662422E+05 -9.483060E+05 -6.601368E+04  9.915473E+04
       128   8 -1.821391E+06 -1.213318E+05  2.295215E+05 -9.836296E+05 -5.973432E+04  8.367939E+04
       128   9 -2.002948E+06 -2.118221E+05  1.925856E+05 -1.060017E+06 -5.343281E+04  6.809373E+04
       128  10 -4.439540E+06 -1.099172E+06 -2.697959E+05 -1.736959E+06 -4.089617E-10 -1.040387E-09
       128  11 -4.258229E+06 -1.008254E+06 -2.318132E+05 -1.660859E+06 -9.171069E-11 -3.311122E-10
       128  12 -4.040773E+06 -9.532862E+05 -1.943017E+05 -1.625831E+06  1.002588E-09 -6.904115E-10
       128  13 -3.022639E+06 -5.830423E+05 -1.747613E+03 -1.343050E+06  2.245253E-10 -1.564417E-09
       128  14 -3.040592E+06 -5.648653E+05 -1.125487E+03 -1.322553E+06  1.649765E-10 -6.129957E-10
       128  15 -3.022412E+06 -5.826061E+05 -8.450198E+02 -1.343141E+06 -6.932436E-10 -4.712995E-10
       128  16 -1.603640E+06 -6.673193E+04  2.662156E+05 -9.483008E+05  6.377233E-10 -1.229671E-09
       128  17 -1.821397E+06 -1.213402E+05  2.295017E+05 -9.836256E+05 -1.281731E-09 -6.305368E-11
       128  18 -2.002952E+06 -2.118279E+05  1.925715E+05 -1.060014E+06 -7.578606E-10  1.833155E-10
       128  19 -4.439536E+06 -1.099158E+06 -2.697694E+05 -1.736961E+06  1.789358E+04 -1.172831E+05
       128  20 -4.258226E+06 -1.008243E+06 -2.317935E+05 -1.660860E+06  1.128564E+04 -1.019022E+05
       128  21 -4.040771E+06 -9.532782E+05 -1.942877E+05 -1.625831E+06  4.655118E+03 -8.641100E+04
       128  22 -3.022634E+06 -5.830293E+05 -1.722341E+03 -1.343053E+06  4.192418E+04 -1.082299E+05
       128  23 -3.040588E+06 -5.648558E+05 -1.106969E+03 -1.322556E+06  3.548442E+04 -9.280039E+04
       128  24 -3.022409E+06 -5.825995E+05 -8.322414E+02 -1.343143E+06  2.902234E+04 -7.726047E+04
       128  25 -1.603633E+06 -6.672023E+04  2.662422E+05 -9.483060E+05  6.601368E+04 -9.915473E+04
       128  26 -1.821391E+06 -1.213318E+05  2.295215E+05 -9.836296E+05  5.973432E+04 -8.367939E+04
       128  27 -2.002948E+06 -2.118221E+05  1.925856E+05 -1.060017E+06  5.343281E+04 -6.809373E+04
       129   1 -3.907217E+06 -9.044694E+05 -1.678676E+05 -1.588928E+06 -9.854111E+02  7.727306E+04
       129   2 -3.723770E+06 -8.129274E+05 -1.304472E+05 -1.512190E+06  5.551594E+03  6.162654E+04
       129   3 -3.503988E+06 -7.576701E+05 -9.344009E+04 -1.477011E+06  1.208995E+04  4.594756E+04
       129   4 -3.022307E+06 -5.826098E+05 -8.395944E+02 -1.343253E+06 -2.542627E+04  6.810169E+04
       129   5 -3.040388E+06 -5.643328E+05 -1.074066E+03 -1.322498E+06 -1.894005E+04  5.244434E+04
       129   6 -3.022172E+06 -5.823323E+05 -1.684864E+03 -1.343315E+06 -1.245271E+04  3.675454E+04
       129   7 -2.136573E+06 -2.606778E+05  1.661593E+05 -1.097249E+06 -4.990460E+04  5.891627E+04
       129   8 -2.356518E+06 -3.156963E+05  1.282817E+05 -1.132610E+06 -4.346057E+04  4.325130E+04
       129   9 -2.540116E+06 -4.069746E+05  9.006207E+04 -1.209523E+06 -3.701563E+04  2.755393E+04
       129  10 -3.907219E+06 -9.044758E+05 -1.678788E+05 -1.588928E+06 -9.212235E-10 -9.734083E-10
       129  11 -3.723771E+06 -8.129315E+05 -1.304544E+05 -1.512190E+06 -3.324228E-10  6.457021E-10
       129  12 -3.503989E+06 -7.576724E+05 -9.344434E+04 -1.477011E+06  9.961997E-10 -3.161469E-10
       129  13 -3.022309E+06 -5.826149E+05 -8.495079E+02 -1.343251E+06  1.015174E-09  2.729394E-10
       129  14 -3.040389E+06 -5.643359E+05 -1.079898E+03 -1.322497E+06 -3.382802E-10  5.047316E-10
       129  15 -3.022173E+06 -5.823338E+05 -1.687689E+03 -1.343315E+06 -1.524104E-09 -1.368360E-09
       129  16 -2.136576E+06 -2.606822E+05  1.661481E+05 -1.097247E+06  5.930712E-10  1.181934E-09
       129  17 -2.356521E+06 -3.156988E+05  1.282746E+05 -1.132609E+06  8.370040E-10  3.018301E-10
       129  18 -2.540118E+06 -4.069758E+05  9.005807E+04 -1.209522E+06 -1.031125E-09 -3.471020E-10
       129  19 -3.907217E+06 -9.044694E+05 -1.678676E+05 -1.588928E+06  9.854111E+02 -7.727306E+04
       129  20 -3.723770E+06 -8.129274E+05 -1.304472E+05 -1.512190E+06 -5.551594E+03 -6.162654E+04
       129  21 -3.503988E+06 -7.576701E+05 -9.344009E+04 -1.477011E+06 -1.208995E+04 -4.594756E+04
       129  22 -3.022307E+06 -5.826098E+05 -8.395944E+02 -1.343253E+06  2.542627E+04 -6.810169E+04
       129  23 -3.040388E+06 -5.643328E+05 -1.074066E+03 -1.322498E+06  1.894005E+04 -5.244434E+04
       129  24 -3.022172E+06 -5.823323E+05 -1.684864E+03 -1.343315E+06  1.245271E+04 -3.675454E+04
       129  25 -2.136573E+06 -2.606778E+05  1.661593E+05 -1.097249E+06  4.990460E+04 -5.891627E+04
       129  26 -2.356518E+06 -3.156963E+05  1.282817E+05 -1.132610E+06  4.346057E+04 -4.325130E+04
       129  27 -2.540116E+06 -4.069746E+05  9.006207E+04 -1.209523E+06  3.701563E+04 -2.755393E+04
       130   1 -3.369384E+06 -7.085848E+05 -6.732703E+04 -1.439890E+06  1.594911E+04  3.681232E+04
       130   2 -3.184834E+06 -6.168079E+05 -3.114120E+04 -1.362847E+06  2.357142E+04  2.158276E+04
       130   3 -2.964084E+06 -5.616218E+05  3.753602E+03 -1.327585E+06  3.112781E+04  6.524382E+03
       130   4 -3.022183E+06 -5.823279E+05 -2.196267E+03 -1.343389E+06 -8.657851E+03  2.759822E+04
       130   5 -3.040228E+06 -5.640333E+05 -3.897728E+03 -1.322474E+06 -7.749984E+02  1.246784E+04
       130   6 -3.022174E+06 -5.823876E+05 -7.101492E+03 -1.343359E+06  7.041329E+03 -2.491488E+03
       130   7 -2.674851E+06 -4.560582E+05  6.293324E+04 -1.246836E+06 -3.327982E+04  1.837847E+04
       130   8 -2.895597E+06 -5.112559E+05  2.334765E+04 -1.282092E+06 -2.512763E+04  3.350580E+03
       130   9 -3.080258E+06 -6.031526E+05 -1.795422E+04 -1.359131E+06 -1.704274E+04 -1.150649E+04
       130  10 -3.369385E+06 -7.085863E+05 -6.733006E+04 -1.439890E+06 -1.794097E-10 -9.748784E-10
       130  11 -3.184835E+06 -6.168085E+05 -3.114313E+04 -1.362847E+06 -1.619717E-10  7.231499E-10
       130  12 -2.964085E+06 -5.616221E+05  3.751691E+03 -1.327585E+06 -2.602949E-09 -2.394406E-10
       130  13 -3.022183E+06 -5.823288E+05 -2.197836E+03 -1.343389E+06 -1.980058E-10 -4.178983E-10
       130  14 -3.040228E+06 -5.640334E+05 -3.898021E+03 -1.322474E+06 -2.280051E-09 -1.755746E-09
       130  15 -3.022174E+06 -5.823876E+05 -7.101597E+03 -1.343359E+06  2.196381E-10  1.637865E-09
       130  16 -2.674852E+06 -4.560588E+05  6.293052E+04 -1.246836E+06 -4.159628E-11 -3.888601E-10
       130  17 -2.895598E+06 -5.112561E+05  2.334644E+04 -1.282092E+06  1.922296E-09  4.859307E-10
       130  18 -3.080259E+06 -6.031528E+05 -1.795502E+04 -1.359132E+06  6.883439E-10  1.393418E-09
       130  19 -3.369384E+06 -7.085848E+05 -6.732703E+04 -1.439890E+06 -1.594911E+04 -3.681232E+04
       130  20 -3.184834E+06 -6.168079E+05 -3.114120E+04 -1.362847E+06 -2.357142E+04 -2.158276E+04
       130  21 -2.964084E+06 -5.616218E+05  3.753602E+03 -1.327585E+06 -3.112781E+04 -6.524382E+03
       130  22 -3.022183E+06 -5.823279E+05 -2.196267E+03 -1.343389E+06  8.657851E+03 -2.759822E+04
       130  23 -3.040228E+06 -5.640333E+05 -3.897728E+03 -1.322474E+06  7.749984E+02 -1.246784E+04
       130  24 -3.022174E+06 -5.823876E+05 -7.101492E+03 -1.343359E+06 -7.041329E+03  2.491488E+03
       130  25 -2.674851E+06 -4.560582E+05  6.293324E+04 -1.246836E+06  3.327982E+04 -1.837847E+04
       130  26 -2.895597E+06 -5.112559E+05  2.334765E+04 -1.282092E+06  2.512763E+04 -3.350580E+03
       130  27 -3.080258E+06 -6.031526E+05 -1.795422E+04 -1.359131E+06  1.704274E+04  1.150649E+04
       131   1 -2.829049E+06 -5.127268E+05  2.814108E+04 -1.291035E+06  3.628845E+04 -2.084141E+03
       131   2 -2.645308E+06 -4.205424E+05  5.943356E+04 -1.212164E+06  4.677025E+04 -1.485609E+04
       131   3 -2.427269E+06 -3.683671E+05  8.600017E+04 -1.174093E+06  5.635921E+04 -2.522808E+04
       131   4 -3.022602E+06 -5.822099E+05 -9.450770E+03 -1.343553E+06  1.181705E+04 -1.124490E+04
       131   5 -3.039817E+06 -5.648029E+05 -1.728469E+04 -1.322048E+06  2.599487E+04 -2.263756E+04
       131   6 -3.023512E+06 -5.881483E+05 -3.278879E+04 -1.341364E+06  3.927787E+04 -3.163004E+04
       131   7 -3.216113E+06 -6.516890E+05 -4.704122E+04 -1.396055E+06 -1.264592E+04 -2.040261E+04
       131   8 -3.434161E+06 -7.090488E+05 -9.400798E+04 -1.431868E+06  5.233686E+03 -3.041365E+04
       131   9 -3.619391E+06 -8.078984E+05 -1.515948E+05 -1.508486E+06  2.221403E+04 -3.802529E+04
       131  10 -2.829050E+06 -5.127271E+05  2.813859E+04 -1.291035E+06 -7.061454E-10  1.678056E-09
       131  11 -2.645311E+06 -4.205433E+05  5.942902E+04 -1.212163E+06 -2.553702E-09  1.931030E-10
       131  12 -2.427272E+06 -3.683687E+05  8.599299E+04 -1.174092E+06 -3.848944E-10 -2.237158E-10
       131  13 -3.022602E+06 -5.822101E+05 -9.451269E+03 -1.343553E+06 -7.469857E-10  1.511485E-09
       131  14 -3.039817E+06 -5.648036E+05 -1.728692E+04 -1.322048E+06 -9.822727E-10  9.252587E-10
       131  15 -3.023514E+06 -5.881498E+05 -3.279357E+04 -1.341363E+06 -1.512096E-09 -1.559059E-09
       131  16 -3.216113E+06 -6.516894E+05 -4.704231E+04 -1.396055E+06 -2.543802E-10  1.786951E-09
       131  17 -3.434162E+06 -7.090498E+05 -9.400976E+04 -1.431867E+06 -3.359202E-10  7.016478E-10
       131  18 -3.619392E+06 -8.079001E+05 -1.515985E+05 -1.508485E+06 -3.374901E-10 -9.982540E-10
       131  19 -2.829049E+06 -5.127268E+05  2.814108E+04 -1.291035E+06 -3.628845E+04  2.084141E+03
       131  20 -2.645308E+06 -4.205424E+05  5.943356E+04 -1.212164E+06 -4.677025E+04  1.485609E+04
       131  21 -2.427269E+06 -3.683671E+05  8.600017E+04 -1.174093E+06 -5.635921E+04  2.522808E+04
       131  22 -3.022602E+06 -5.822099E+05 -9.450770E+03 -1.343553E+06 -1.181705E+04  1.124490E+04
       131  23 -3.039817E+06 -5.648029E+05 -1.728469E+04 -1.322048E+06 -2.599487E+04  2.263756E+04
       131  24 -3.023512E+06 -5.881483E+05 -3.278879E+04 -1.341364E+06 -3.927787E+04  3.163004E+04
       131  25 -3.216113E+06 -6.516890E+05 -4.704122E+04 -1.396055E+06  1.264592E+04  2.040261E+04
       131  26 -3.434161E+06 -7.090488E+05 -9.400798E+04 -1.431868E+06 -5.233686E+03  3.041365E+04
       131  27 -3.619391E+06 -8.078984E+05 -1.515948E+05 -1.508486E+06 -2.221403E+04  3.802529E+04
       132   1 -2.287444E+06 -3.247515E+05  1.032614E+05 -1.150573E+06  6.959436E+04 -3.008818E+04
       132   2 -2.132531E+06 -2.193994E+05  1.209207E+05 -1.022215E+06  6.349643E+04 -3.087139E+04
       132   3 -1.973627E+06 -2.318982E+05  1.198142E+05 -9.104425E+05  4.565608E+04 -3.830429E+02
       132   4 -3.029049E+06 -5.847313E+05 -4.321992E+04 -1.344508E+06  4.741400E+04 -3.840287E+04
       132   5 -3.036072E+06 -5.898812E+05 -8.161096E+04 -1.310441E+06  8.962282E+04 -2.108795E+04
       132   6 -3.048810E+06 -7.225978E+05 -1.772178E+05 -1.292985E+06  1.200787E+05  2.752230E+04
       132   7 -3.770088E+06 -8.446755E+05 -1.897259E+05 -1.538234E+06  2.526208E+04 -4.670789E+04
       132   8 -3.938757E+06 -9.602346E+05 -2.841864E+05 -1.598255E+06  1.157076E+05 -1.132416E+04
       132   9 -4.122788E+06 -1.213034E+06 -4.743194E+05 -1.674853E+06  1.943572E+05  5.534715E+04
       132  10 -2.287450E+06 -3.247538E+05  1.032505E+05 -1.150571E+06 -8.791136E-10 -9.215839E-10
       132  11 -2.132535E+06 -2.194015E+05  1.209113E+05 -1.022213E+06  2.481659E-10 -6.317981E-10
       132  12 -1.973629E+06 -2.318988E+05  1.198103E+05 -9.104425E+05 -1.147456E-09 -5.662823E-10
       132  13 -3.029052E+06 -5.847335E+05 -4.322692E+04 -1.344507E+06  2.903584E-09  5.010887E-10
       132  14 -3.036080E+06 -5.898838E+05 -8.162694E+04 -1.310440E+06  3.116314E-10 -1.015390E-09
       132  15 -3.048825E+06 -7.226025E+05 -1.772464E+05 -1.292988E+06  4.439701E-10 -1.617433E-10
       132  16 -3.770089E+06 -8.446780E+05 -1.897311E+05 -1.538233E+06  1.562740E-09 -5.456118E-10
       132  17 -3.938771E+06 -9.602384E+05 -2.842119E+05 -1.598254E+06  1.327154E-09 -4.992202E-10
       132  18 -4.122829E+06 -1.213047E+06 -4.743968E+05 -1.674861E+06  3.113031E-10 -4.186595E-11
       132  19 -2.287444E+06 -3.247515E+05  1.032614E+05 -1.150573E+06 -6.959436E+04  3.008818E+04
       132  20 -2.132531E+06 -2.193994E+05  1.209207E+05 -1.022215E+06 -6.349643E+04  3.087139E+04
       132  21 -1.973627E+06 -2.318982E+05  1.198142E+05 -9.104425E+05 -4.565608E+04  3.830429E+02
       132  22 -3.029049E+06 -5.847313E+05 -4.321992E+04 -1.344508E+06 -4.741400E+04  3.840287E+04
       132  23 -3.036072E+06 -5.898812E+05 -8.161096E+04 -1.310441E+06 -8.962282E+04  2.108795E+04
       132  24 -3.048810E+06 -7.225978E+05 -1.772178E+05 -1.292985E+06 -1.200787E+05 -2.752230E+04
       132  25 -3.770088E+06 -8.446755E+05 -1.897259E+05 -1.538234E+06 -2.526208E+04  4.670789E+04
       132  26 -3.938757E+06 -9.602346E+05 -2.841864E+05 -1.598255E+06 -1.157076E+05  1.132416E+04
       132  27 -4.122788E+06 -1.213034E+06 -4.743194E+05 -1.674853E+06 -1.943572E+05 -5.534715E+04
       133   1  1.411599E+05  2.785386E+04  4.583064E+04  1.542696E+04  5.583163E+04  1.717786E+03
       133   2  1.442693E+05 -4.525636E+04  2.637936E+03  4.087753E+03  3.758323E+04  5.084489E+03
       133   3  1.702159E+05 -3.664476E+04 -8.237905E+03 -1.704203E+04  1.933554E+04  4.690029E+03
       133   4  3.036079E+05  6.830675E+04  8.581918E+04 -7.620517E+03  5.874450E+04  1.716983E+03
       133   5  2.920174E+05 -8.698737E+03  3.774235E+04 -2.710466E+03  3.841435E+04  5.084302E+03
       133   6  3.036185E+05 -3.632713E+03  2.342154E+04 -7.590561E+03  1.808539E+04  4.689899E+03
       133   7  4.660810E+05  1.087597E+05  1.258061E+05 -3.067404E+04  6.165812E+04  1.715964E+03
       133   8  4.397855E+05  2.785749E+04  7.284526E+04 -9.510311E+03  3.924566E+04  5.084097E+03
       133   9  4.370376E+05  2.937839E+04  5.507980E+04  1.862951E+03  1.683498E+04  4.689731E+03
       133  10  1.411565E+05  2.785302E+04  4.582478E+04  1.542688E+04  4.715423E-10 -6.623880E-10
       133  11  1.442678E+05 -4.525677E+04  2.635234E+03  4.087599E+03 -7.733118E-11 -4.133393E-10
       133  12  1.702155E+05 -3.664488E+04 -8.238649E+03 -1.704211E+04 -8.922758E-10 -4.383616E-10
       133  13  3.036042E+05  6.830582E+04  8.581270E+04 -7.620599E+03  3.567083E-10  4.890948E-11
       133  14  2.920158E+05 -8.699161E+03  3.773953E+04 -2.710623E+03 -1.516243E-09 -4.539145E-10
       133  15  3.036181E+05 -3.632824E+03  2.342089E+04 -7.590629E+03  9.809099E-10  1.646609E-10
       133  16  4.660769E+05  1.087587E+05  1.257990E+05 -3.067412E+04  5.469056E-10 -1.163319E-11
       133  17  4.397839E+05  2.785705E+04  7.284232E+04 -9.510472E+03 -4.567396E-10 -2.900856E-10
       133  18  4.370373E+05  2.937829E+04  5.507923E+04  1.862888E+03  2.269434E-09  1.711417E-09
       133  19  1.411599E+05  2.785386E+04  4.583064E+04  1.542696E+04 -5.583163E+04 -1.717786E+03
       133  20  1.442693E+05 -4.525636E+04  2.637936E+03  4.087753E+03 -3.758323E+04 -5.084489E+03
       133  21  1.702159E+05 -3.664476E+04 -8.237905E+03 -1.704203E+04 -1.933554E+04 -4.690029E+03
       133  22  3.036079E+05  6.830675E+04  8.581918E+04 -7.620517E+03 -5.874450E+04 -1.716983E+03
       133  23  2.920174E+05 -8.698737E+03  3.774235E+04 -2.710466E+03 -3.841435E+04 -5.084302E+03
       133  24  3.036185E+05 -3.632713E+03  2.342154E+04 -7.590561E+03 -1.808539E+04 -4.689899E+03
       133  25  4.660810E+05  1.087597E+05  1.258061E+05 -3.067404E+04 -6.165812E+04 -1.715964E+03
       133  26  4.397855E+05  2.785749E+04  7.284526E+04 -9.510311E+03 -3.924566E+04 -5.084097E+03
       133  27  4.370376E+05  2.937839E+04  5.507980E+04  1.862951E+03 -1.683498E+04 -4.689731E+03
       134   1  1.832408E+05 -2.199123E+04 -8.520717E+03 -5.611712E+03  1.460690E+04  3.815974E+03
       134   2  1.962442E+05 -2.600768E+04 -1.433383E+04 -2.220204E+03  9.747637E+03  3.469905E+03
       134   3  2.119182E+05 -2.193149E+04 -1.495758E+04 -8.599685E+03  4.888234E+03  2.874160E+03
       134   4  2.990623E+05  6.681204E+03  1.905649E+04 -7.596056E+03  1.448721E+04  3.815850E+03
       134   5  2.977164E+05 -8.959776E+02  9.780891E+03 -2.709842E+03  9.489235E+03  3.469809E+03
       134   6  2.990644E+05 -3.572191E+02  5.790221E+03 -7.594481E+03  4.491229E+03  2.874087E+03
       134   7  4.148960E+05  3.535269E+04  4.663275E+04 -9.580772E+03  1.436750E+04  3.815727E+03
       134   8  3.991980E+05  2.421499E+04  3.389489E+04 -3.199560E+03  9.230791E+03  3.469714E+03
       134   9  3.862176E+05  2.121651E+04  2.653749E+04 -6.589134E+03  4.094169E+03  2.874014E+03
       134  10  1.832406E+05 -2.199130E+04 -8.521145E+03 -5.611757E+03  1.671398E-09 -4.284527E-10
       134  11  1.962441E+05 -2.600772E+04 -1.433403E+04 -2.220232E+03 -3.591162E-09 -5.385020E-10
       134  12  2.119182E+05 -2.193150E+04 -1.495764E+04 -8.599697E+03 -1.634419E-09 -1.115329E-11
       134  13  2.990620E+05  6.681133E+03  1.905607E+04 -7.596100E+03 -8.427568E-10  6.685776E-10
       134  14  2.977163E+05 -8.960147E+02  9.780700E+03 -2.709868E+03 -3.780308E-10 -3.403445E-10
       134  15  2.990644E+05 -3.572334E+02  5.790167E+03 -7.594491E+03 -9.048308E-10  5.017416E-10
       134  16  4.148958E+05  3.535261E+04  4.663234E+04 -9.580816E+03 -7.272858E-10  1.131031E-09
       134  17  3.991979E+05  2.421495E+04  3.389471E+04 -3.199586E+03 -2.852365E-09 -5.750043E-10
       134  18  3.862176E+05  2.121649E+04  2.653745E+04 -6.589144E+03  1.877033E-09  1.272799E-09
       134  19  1.832408E+05 -2.199123E+04 -8.520717E+03 -5.611712E+03 -1.460690E+04 -3.815974E+03
       134  20  1.962442E+05 -2.600768E+04 -1.433383E+04 -2.220204E+03 -9.747637E+03 -3.469905E+03
       134  21  2.119182E+05 -2.193149E+04 -1.495758E+04 -8.599685E+03 -4.888234E+03 -2.874160E+03
       134  22  2.990623E+05  6.681204E+03  1.905649E+04 -7.596056E+03 -1.448721E+04 -3.815850E+03
       134  23  2.977164E+05 -8.959776E+02  9.780891E+03 -2.709842E+03 -9.489235E+03 -3.469809E+03
       134  24  2.990644E+05 -3.572191E+02  5.790221E+03 -7.594481E+03 -4.491229E+03 -2.874087E+03
       134  25  4.148960E+05  3.535269E+04  4.663275E+04 -9.580772E+03 -1.436750E+04 -3.815727E+03
       134  26  3.991980E+05  2.421499E+04  3.389489E+04 -3.199560E+03 -9.230791E+03 -3.469714E+03
       134  27  3.862176E+05  2.121651E+04  2.653749E+04 -6.589134E+03 -4.094169E+03 -2.874014E+03
       135   1  2.288254E+05 -1.660950E+04 -1.201512E+04 -7.460948E+03  3.902344E+03  2.485315E+03
       135   2  2.428921E+05 -1.382508E+04 -1.069830E+04 -2.721096E+03  2.667580E+03  1.895364E+03
       135   3  2.573235E+05 -1.024501E+04 -8.377880E+03 -7.697708E+03  1.432743E+03  1.289612E+03
       135   4  2.985477E+05  6.373903E+02  4.517366E+03 -7.582887E+03  3.581287E+03  2.485261E+03
       135   5  2.983649E+05 -9.721169E+01  2.484691E+03 -2.724650E+03  2.337668E+03  1.895326E+03
       135   6  2.985484E+05 -3.462488E+01  1.461743E+03 -7.582824E+03  1.094004E+03  1.289590E+03
       135   7  3.682745E+05  1.788394E+04  2.104951E+04 -7.704840E+03  3.260194E+03  2.485207E+03
       135   8  3.538406E+05  1.363043E+04  1.566747E+04 -2.728205E+03  2.007727E+03  1.895287E+03
       135   9  3.397748E+05  1.017564E+04  1.130125E+04 -7.467932E+03  7.552432E+02  1.289568E+03
       135  10  2.288254E+05 -1.660952E+04 -1.201516E+04 -7.460956E+03  5.880744E-10  2.194076E-11
       135  11  2.428920E+05 -1.382508E+04 -1.069832E+04 -2.721100E+03 -8.873003E-10 -4.073994E-10
       135  12  2.573235E+05 -1.024501E+04 -8.377887E+03 -7.697710E+03  5.298821E-10  5.028508E-10
       135  13  2.985477E+05  6.373802E+02  4.517330E+03 -7.582894E+03 -2.212100E-09  6.913111E-10
       135  14  2.983649E+05 -9.721701E+01  2.484674E+03 -2.724654E+03  3.970230E-14 -3.800250E-10
       135  15  2.985484E+05 -3.462699E+01  1.461737E+03 -7.582825E+03  2.607912E-09  3.190123E-10
       135  16  3.682745E+05  1.788393E+04  2.104948E+04 -7.704846E+03 -1.353785E-09  1.313423E-09
       135  17  3.538406E+05  1.363043E+04  1.566746E+04 -2.728208E+03  4.844628E-10 -8.826230E-10
       135  18  3.397748E+05  1.017564E+04  1.130124E+04 -7.467933E+03 -6.634965E-10  1.964282E-10
       135  19  2.288254E+05 -1.660950E+04 -1.201512E+04 -7.460948E+03 -3.902344E+03 -2.485315E+03
       135  20  2.428921E+05 -1.382508E+04 -1.069830E+04 -2.721096E+03 -2.667580E+03 -1.895364E+03
       135  21  2.573235E+05 -1.024501E+04 -8.377880E+03 -7.697708E+03 -1.432743E+03 -1.289612E+03
       135  22  2.985477E+05  6.373903E+02  4.517366E+03 -7.582887E+03 -3.581287E+03 -2.485261E+03
       135  23  2.983649E+05 -9.721169E+01  2.484691E+03 -2.724650E+03 -2.337668E+03 -1.895326E+03
       135  24  2.985484E+05 -3.462488E+01  1.461743E+03 -7.582824E+03 -1.094004E+03 -1.289590E+03
       135  25  3.682745E+05  1.788394E+04  2.104951E+04 -7.704840E+03 -3.260194E+03 -2.485207E+03
       135  26  3.538406E+05  1.363043E+04  1.566747E+04 -2.728205E+03 -2.007727E+03 -1.895287E+03
       135  27  3.397748E+05  1.017564E+04  1.130125E+04 -7.467932E+03 -7.552432E+02 -1.289568E+03
       136   1  2.746056E+05 -5.843314E+03 -4.496084E+03 -7.582513E+03  1.194376E+03  9.346429E+02
       136   2  2.887859E+05 -2.403548E+03 -1.613495E+03 -2.739940E+03  8.559465E+02  3.301444E+02
       136   3  3.030315E+05  1.115423E+03  1.509427E+03 -7.590432E+03  5.174929E+02 -2.752233E+02
       136   4  2.984817E+05  5.664438E+01  1.135173E+03 -7.577655E+03  8.608460E+02  9.346279E+02
       136   5  2.984492E+05 -1.221676E+01  6.829272E+02 -2.731127E+03  5.219184E+02  3.301319E+02
       136   6  2.984818E+05 -1.829744E+00  4.713045E+02 -7.577654E+03  1.829744E+02 -2.752325E+02
       136   7  3.223584E+05  5.956562E+03  6.766391E+03 -7.572797E+03  5.273032E+02  9.346129E+02
       136   8  3.081127E+05  2.379108E+03  2.979343E+03 -2.722313E+03  1.878851E+02  3.301195E+02
       136   9  2.939322E+05 -1.119084E+03 -5.668189E+02 -7.564876E+03 -1.515417E+02 -2.752417E+02
       136  10  2.746056E+05 -5.843315E+03 -4.496088E+03 -7.582514E+03  2.732980E-09  1.295213E-10
       136  11  2.887859E+05 -2.403549E+03 -1.613496E+03 -2.739940E+03 -3.579896E-09 -9.638651E-10
       136  12  3.030315E+05  1.115422E+03  1.509426E+03 -7.590431E+03 -1.314286E-09  4.542362E-11
       136  13  2.984817E+05  5.664325E+01  1.135170E+03 -7.577656E+03  2.178287E-09  2.787993E-10
       136  14  2.984492E+05 -1.221695E+01  6.829264E+02 -2.731127E+03 -1.665315E-09 -8.693716E-10
       136  15  2.984818E+05 -1.829835E+00  4.713043E+02 -7.577654E+03 -1.241413E-10  2.446013E-10
       136  16  3.223584E+05  5.956561E+03  6.766389E+03 -7.572797E+03 -1.605934E-09  3.265677E-10
       136  17  3.081127E+05  2.379108E+03  2.979343E+03 -2.722313E+03 -3.017506E-09 -7.554942E-10
       136  18  2.939322E+05 -1.119084E+03 -5.668190E+02 -7.564876E+03  1.294349E-09  3.510497E-10
       136  19  2.746056E+05 -5.843314E+03 -4.496084E+03 -7.582513E+03 -1.194376E+03 -9.346429E+02
       136  20  2.887859E+05 -2.403548E+03 -1.613495E+03 -2.739940E+03 -8.559465E+02 -3.301444E+02
       136  21  3.030315E+05  1.115423E+03  1.509427E+03 -7.590432E+03 -5.174929E+02  2.752233E+02
       136  22  2.984817E+05  5.664438E+01  1.135173E+03 -7.577655E+03 -8.608460E+02 -9.346279E+02
       136  23  2.984492E+05 -1.221676E+01  6.829272E+02 -2.731127E+03 -5.219184E+02 -3.301319E+02
       136  24  2.984818E+05 -1.829744E+00  4.713045E+02 -7.577654E+03 -1.829744E+02  2.752325E+02
       136  25  3.223584E+05  5.956562E+03  6.766391E+03 -7.572797E+03 -5.273032E+02 -9.346129E+02
       136  26  3.081127E+05  2.379108E+03  2.979343E+03 -2.722313E+03 -1.878851E+02 -3.301195E+02
       136  27  2.939322E+05 -1.119084E+03 -5.668189E+02 -7.564876E+03  1.515417E+02  2.752417E+02
       137   1  3.203619E+05  5.426914E+03  5.666572E+03 -7.577894E+03  4.368470E+02 -6.279126E+02
       137   2  3.345702E+05  8.929656E+03  8.999654E+03 -2.726050E+03  2.294023E+02 -1.233647E+03
       137   3  3.488181E+05  1.247121E+04  1.247799E+04 -7.577149E+03  2.199608E+01 -1.838817E+03
       137   4  2.984760E+05  2.457434E+00  4.226449E+02 -7.579859E+03  1.021950E+02 -6.279246E+02
       137   5  2.984562E+05 -6.976231E+00  4.177005E+02 -2.728371E+03 -1.049325E+02 -1.233670E+03
       137   6  2.984758E+05  2.236263E+01  5.578018E+02 -7.579860E+03 -3.120167E+02 -1.838851E+03
       137   7  2.765906E+05 -5.422034E+03 -4.821315E+03 -7.581824E+03 -2.324453E+02 -6.279365E+02
       137   8  2.623434E+05 -8.943702E+03 -8.164343E+03 -2.730692E+03 -4.392479E+02 -1.233694E+03
       137   9  2.481358E+05 -1.242667E+04 -1.136256E+04 -7.582571E+03 -6.460026E+02 -1.838885E+03
       137  10  3.203619E+05  5.426913E+03  5.666571E+03 -7.577893E+03 -3.500720E-10  4.853476E-10
       137  11  3.345702E+05  8.929654E+03  8.999651E+03 -2.726050E+03 -8.735837E-10  9.777812E-11
       137  12  3.488181E+05  1.247121E+04  1.247798E+04 -7.577149E+03 -9.807157E-10 -1.237530E-10
       137  13  2.984760E+05  2.457008E+00  4.226442E+02 -7.579859E+03  2.362687E-10  7.291950E-10
       137  14  2.984562E+05 -6.977868E+00  4.176976E+02 -2.728371E+03  7.541884E-10  3.287320E-10
       137  15  2.984758E+05  2.235897E+01  5.577953E+02 -7.579861E+03 -1.169730E-09 -1.104329E-10
       137  16  2.765906E+05 -5.422034E+03 -4.821316E+03 -7.581824E+03 -2.336916E-09  7.990358E-10
       137  17  2.623434E+05 -8.943704E+03 -8.164347E+03 -2.730692E+03 -4.588814E-10  1.970460E-10
       137  18  2.481358E+05 -1.242667E+04 -1.136256E+04 -7.582572E+03  8.113153E-11 -1.267460E-10
       137  19  3.203619E+05  5.426914E+03  5.666572E+03 -7.577894E+03 -4.368470E+02  6.279126E+02
       137  20  3.345702E+05  8.929656E+03  8.999654E+03 -2.726050E+03 -2.294023E+02  1.233647E+03
       137  21  3.488181E+05  1.247121E+04  1.247799E+04 -7.577149E+03 -2.199608E+01  1.838817E+03
       137  22  2.984760E+05  2.457434E+00  4.226449E+02 -7.579859E+03 -1.021950E+02  6.279246E+02
       137  23  2.984562E+05 -6.976231E+00  4.177005E+02 -2.728371E+03  1.049325E+02  1.233670E+03
       137  24  2.984758E+05  2.236263E+01  5.578018E+02 -7.579860E+03  3.120167E+02  1.838851E+03
       137  25  2.765906E+05 -5.422034E+03 -4.821315E+03 -7.581824E+03  2.324453E+02  6.279365E+02
       137  26  2.623434E+05 -8.943702E+03 -8.164343E+03 -2.730692E+03  4.392479E+02  1.233694E+03
       137  27  2.481358E+05 -1.242667E+04 -1.136256E+04 -7.582571E+03  6.460026E+02  1.838885E+03
       138   1  3.662318E+05  1.675193E+04  1.681739E+04 -7.538147E+03 -8.309015E+01 -2.194852E+03
       138   2  3.804415E+05  2.025265E+04  2.058452E+04 -2.710868E+03 -6.404583E+02 -2.801979E+03
       138   3  3.948189E+05  2.409468E+04  2.480168E+04 -7.631443E+03 -1.197736E+03 -3.391105E+03
       138   4  2.985034E+05 -1.611985E+01  6.803768E+02 -7.589836E+03 -4.232859E+02 -2.194898E+03
       138   5  2.984200E+05 -4.350766E+01  1.093916E+03 -2.715892E+03 -9.706491E+02 -2.802049E+03
       138   6  2.985028E+05  2.687796E+02  1.950660E+03 -7.589881E+03 -1.517909E+03 -3.391198E+03
       138   7  2.307792E+05 -1.678450E+04 -1.545696E+04 -7.641518E+03 -7.634447E+02 -2.194944E+03
       138   8  2.164048E+05 -2.034015E+04 -1.839716E+04 -2.720915E+03 -1.300796E+03 -2.802120E+03
       138   9  2.021951E+05 -2.355779E+04 -2.090100E+04 -7.548326E+03 -1.838033E+03 -3.391291E+03
       138  10  3.662318E+05  1.675192E+04  1.681738E+04 -7.538147E+03 -8.476794E-10 -1.107672E-10
       138  11  3.804415E+05  2.025264E+04  2.058450E+04 -2.710869E+03  6.401496E-10 -3.700606E-10
       138  12  3.948189E+05  2.409467E+04  2.480166E+04 -7.631446E+03  1.708299E-09  7.949915E-10
       138  13  2.985034E+05 -1.612507E+01  6.803674E+02 -7.589836E+03 -1.029124E-09 -2.729206E-10
       138  14  2.984200E+05 -4.351635E+01  1.093899E+03 -2.715894E+03  4.308239E-10 -3.977115E-10
       138  15  2.985028E+05  2.687666E+02  1.950634E+03 -7.589885E+03  3.072579E-09  7.140796E-10
       138  16  2.307792E+05 -1.678450E+04 -1.545697E+04 -7.641520E+03 -1.894676E-09 -5.574790E-10
       138  17  2.164048E+05 -2.034016E+04 -1.839717E+04 -2.720918E+03 -3.529837E-09 -5.224236E-10
       138  18  2.021951E+05 -2.355780E+04 -2.090103E+04 -7.548331E+03  4.272337E-10  9.457370E-10
       138  19  3.662318E+05  1.675193E+04  1.681739E+04 -7.538147E+03  8.309015E+01  2.194852E+03
       138  20  3.804415E+05  2.025265E+04  2.058452E+04 -2.710868E+03  6.404583E+02  2.801979E+03
       138  21  3.948189E+05  2.409468E+04  2.480168E+04 -7.631443E+03  1.197736E+03  3.391105E+03
       138  22  2.985034E+05 -1.611985E+01  6.803768E+02 -7.589836E+03  4.232859E+02  2.194898E+03
       138  23  2.984200E+05 -4.350766E+01  1.093916E+03 -2.715892E+03  9.706491E+02  2.802049E+03
       138  24  2.985028E+05  2.687796E+02  1.950660E+03 -7.589881E+03  1.517909E+03  3.391198E+03
       138  25  2.307792E+05 -1.678450E+04 -1.545696E+04 -7.641518E+03  7.634447E+02  2.194944E+03
       138  26  2.164048E+05 -2.034015E+04 -1.839716E+04 -2.720915E+03  1.300796E+03  2.802120E+03
       138  27  2.021951E+05 -2.355779E+04 -2.090100E+04 -7.548326E+03  1.838033E+03  3.391291E+03
       139   1  4.125401E+05  2.801418E+04  2.957307E+04 -7.160920E+03 -1.501762E+03 -3.786758E+03
       139   2  4.263558E+05  3.133881E+04  3.465775E+04 -2.884720E+03 -3.803705E+03 -4.382485E+03
       139   3  4.413682E+05  3.816050E+04  4.211937E+04 -8.425895E+03 -6.105694E+03 -4.688812E+03
       139   4  2.987247E+05 -1.563665E+02  2.491351E+03 -7.605017E+03 -1.910150E+03 -3.786890E+03
       139   5  2.981396E+05 -3.871015E+02  4.191446E+03 -2.696767E+03 -4.051867E+03 -4.382618E+03
       139   6  2.987232E+05  2.851798E+03  8.157567E+03 -7.605996E+03 -6.193576E+03 -4.688923E+03
       139   7  1.849211E+05 -2.832784E+04 -2.459128E+04 -8.049032E+03 -2.318463E+03 -3.787022E+03
       139   8  1.699384E+05 -3.211419E+04 -2.627601E+04 -2.508855E+03 -4.299979E+03 -4.382751E+03
       139   9  1.560968E+05 -3.245837E+04 -2.580566E+04 -6.786287E+03 -6.281437E+03 -4.689035E+03
       139  10  4.125401E+05  2.801416E+04  2.957304E+04 -7.160925E+03  2.057922E-09  3.099453E-10
       139  11  4.263558E+05  3.133878E+04  3.465769E+04 -2.884733E+03  3.733197E-10 -9.451812E-10
       139  12  4.413682E+05  3.816047E+04  4.211926E+04 -8.425919E+03 -5.343213E-10  4.133552E-10
       139  13  2.987246E+05 -1.563828E+02  2.491318E+03 -7.605022E+03  1.204153E-09  3.301980E-10
       139  14  2.981395E+05 -3.871265E+02  4.191379E+03 -2.696782E+03  1.073236E-09 -1.178296E-09
       139  15  2.987231E+05  2.851764E+03  8.157453E+03 -7.606019E+03  7.859488E-11 -8.324347E-11
       139  16  1.849211E+05 -2.832786E+04 -2.459131E+04 -8.049039E+03 -9.824869E-10  4.811128E-10
       139  17  1.699383E+05 -3.211422E+04 -2.627608E+04 -2.508870E+03 -2.479800E-09 -5.672488E-10
       139  18  1.560968E+05 -3.245841E+04 -2.580577E+04 -6.786311E+03  2.439893E-09 -1.028030E-10
       139  19  4.125401E+05  2.801418E+04  2.957307E+04 -7.160920E+03  1.501762E+03  3.786758E+03
       139  20  4.263558E+05  3.133881E+04  3.465775E+04 -2.884720E+03  3.803705E+03  4.382485E+03
       139  21  4.413682E+05  3.816050E+04  4.211937E+04 -8.425895E+03  6.105694E+03  4.688812E+03
       139  22  2.987247E+05 -1.563665E+02  2.491351E+03 -7.605017E+03  1.910150E+03  3.786890E+03
       139  23  2.981396E+05 -3.871015E+02  4.191446E+03 -2.696767E+03  4.051867E+03  4.382618E+03
       139  24  2.987232E+05  2.851798E+03  8.157567E+03 -7.605996E+03  6.193576E+03  4.688923E+03
       139  25  1.849211E+05 -2.832784E+04 -2.459128E+04 -8.049032E+03  2.318463E+03  3.787022E+03
       139  26  1.699384E+05 -3.211419E+04 -2.627601E+04 -2.508855E+03  4.299979E+03  4.382751E+03
       139  27  1.560968E+05 -3.245837E+04 -2.580566E+04 -6.786287E+03  6.281437E+03  4.689035E+03
       140   1  4.610210E+05  3.810688E+04  4.806640E+04 -3.521774E+03 -6.334840E+03 -5.645911E+03
       140   2  4.704672E+05  3.951051E+04  5.766457E+04 -5.558023E+03 -1.744335E+04 -6.005072E+03
       140   3  4.902800E+05  7.644187E+04  8.338127E+04 -1.742317E+04 -2.855466E+04 -2.002989E+03
       140   4  3.006743E+05 -1.561049E+03  1.002446E+04 -7.602851E+03 -7.733630E+03 -5.646530E+03
       140   5  2.956962E+05 -3.728742E+03  1.614672E+04 -2.696992E+03 -1.643124E+04 -6.004759E+03
       140   6  3.006688E+05  2.921815E+04  3.671698E+04 -7.619975E+03 -2.513133E+04 -2.001448E+03
       140   7  1.403513E+05 -4.123076E+04 -2.801926E+04 -1.168287E+04 -9.132061E+03 -5.647131E+03
       140   8  1.209531E+05 -4.697016E+04 -2.537325E+04  1.632275E+02 -1.541940E+04 -6.004436E+03
       140   9  1.110906E+05 -1.800787E+04 -9.949869E+03  2.180220E+03 -2.170904E+04 -1.999800E+03
       140  10  4.610209E+05  3.810684E+04  4.806627E+04 -3.521803E+03  1.704708E-09  4.289140E-10
       140  11  4.704669E+05  3.951039E+04  5.766393E+04 -5.558107E+03 -1.383720E-09 -1.942384E-09
       140  12  4.902791E+05  7.644165E+04  8.337973E+04 -1.742322E+04  5.281867E-10 -7.368657E-10
       140  13  3.006742E+05 -1.561099E+03  1.002428E+04 -7.602886E+03 -8.436473E-11 -1.108146E-09
       140  14  2.956959E+05 -3.728853E+03  1.614614E+04 -2.697071E+03 -7.635182E-10  9.929298E-10
       140  15  3.006682E+05  2.921798E+04  3.671578E+04 -7.620016E+03 -2.355263E-09 -2.054897E-10
       140  16  1.403512E+05 -4.123082E+04 -2.801948E+04 -1.168291E+04 -2.331098E-10  2.204715E-10
       140  17  1.209528E+05 -4.697026E+04 -2.537376E+04  1.631529E+02 -3.646497E-10  1.194014E-09
       140  18  1.110901E+05 -1.800800E+04 -9.950762E+03  2.180185E+03  7.030312E-10 -4.585381E-10
       140  19  4.610210E+05  3.810688E+04  4.806640E+04 -3.521774E+03  6.334840E+03  5.645911E+03
       140  20  4.704672E+05  3.951051E+04  5.766457E+04 -5.558023E+03  1.744335E+04  6.005072E+03
       140  21  4.902800E+05  7.644187E+04  8.338127E+04 -1.742317E+04  2.855466E+04  2.002989E+03
       140  22  3.006743E+05 -1.561049E+03  1.002446E+04 -7.602851E+03  7.733630E+03  5.646530E+03
       140  23  2.956962E+05 -3.728742E+03  1.614672E+04 -2.696992E+03  1.643124E+04  6.004759E+03
       140  24  3.006688E+05  2.921815E+04  3.671698E+04 -7.619975E+03  2.513133E+04  2.001448E+03
       140  25  1.403513E+05 -4.123076E+04 -2.801926E+04 -1.168287E+04  9.132061E+03  5.647131E+03
       140  26  1.209531E+05 -4.697016E+04 -2.537325E+04  1.632275E+02  1.541940E+04  6.004436E+03
       140  27  1.110906E+05 -1.800787E+04 -9.949869E+03  2.180220E+03  2.170904E+04  1.999800E+03
       141   1  2.665303E+06  1.079510E+07  2.656980E+06 -1.379258E+06  9.851764E+04  2.153818E+05
       141   2  1.946861E+06  8.256693E+06  1.931922E+06 -5.330650E+05  2.723769E+05  4.493808E+04
       141   3  1.387794E+06  5.817836E+06  1.362440E+06 -1.363914E+06  1.865508E+05 -1.266157E+05
       141   4  6.922053E+04  3.141703E+05  8.980477E+04 -1.320630E+06  9.936530E+04  4.567022E+04
       141   5 -1.716505E+04  2.837725E+05  4.680423E+04 -4.814773E+05  2.728004E+05  2.107849E+04
       141   6  3.178854E+04  3.225053E+05  6.001707E+04 -1.320693E+06  1.850796E+05 -5.315678E+03
       141   7 -2.534944E+06 -1.006779E+07 -2.485307E+06 -1.262775E+06  1.001912E+05 -1.212239E+05
       141   8 -1.985729E+06 -7.631242E+06 -1.842716E+06 -4.304131E+05  2.732235E+05 -2.480539E+03
       141   9 -1.326371E+06 -5.145231E+06 -1.244451E+06 -1.277738E+06  1.836180E+05  1.149239E+05
       141  10  2.665280E+06  1.079505E+07  2.656876E+06 -1.379275E+06  8.958134E-10  4.024826E-10
       141  11  1.946781E+06  8.256671E+06  1.931778E+06 -5.330748E+05 -1.822844E-09 -6.913131E-10
       141  12  1.387753E+06  5.817810E+06  1.362345E+06 -1.363895E+06  3.638867E-09 -6.544161E-09
       141  13  6.920935E+04  3.141654E+05  8.978225E+04 -1.320633E+06  3.412953E-09 -3.016628E-11
       141  14 -1.724510E+04  2.837521E+05  4.666351E+04 -4.814819E+05 -3.359979E-09 -3.736329E-09
       141  15  3.175175E+04  3.224961E+05  5.995265E+04 -1.320693E+06 -2.703138E-10 -1.895301E-08
       141  16 -2.534959E+06 -1.006781E+07 -2.485353E+06 -1.262765E+06  2.534899E-09 -3.356778E-10
       141  17 -1.985809E+06 -7.631262E+06 -1.842857E+06 -4.304126E+05  7.908249E-09  3.639660E-10
       141  18 -1.326411E+06 -5.145254E+06 -1.244540E+06 -1.277756E+06 -6.029661E-09 -4.441238E-10
       141  19  2.665303E+06  1.079510E+07  2.656980E+06 -1.379258E+06 -9.851764E+04 -2.153818E+05
       141  20  1.946861E+06  8.256693E+06  1.931922E+06 -5.330650E+05 -2.723769E+05 -4.493808E+04
       141  21  1.387794E+06  5.817836E+06  1.362440E+06 -1.363914E+06 -1.865508E+05  1.266157E+05
       141  22  6.922053E+04  3.141703E+05  8.980477E+04 -1.320630E+06 -9.936530E+04 -4.567022E+04
       141  23 -1.716505E+04  2.837725E+05  4.680423E+04 -4.814773E+05 -2.728004E+05 -2.107849E+04
       141  24  3.178854E+04  3.225053E+05  6.001707E+04 -1.320693E+06 -1.850796E+05  5.315678E+03
       141  25 -2.534944E+06 -1.006779E+07 -2.485307E+06 -1.262775E+06 -1.001912E+05  1.212239E+05
       141  26 -1.985729E+06 -7.631242E+06 -1.842716E+06 -4.304131E+05 -2.732235E+05  2.480539E+03
       141  27 -1.326371E+06 -5.145231E+06 -1.244451E+06 -1.277738E+06 -1.836180E+05 -1.149239E+05
       142   1  6.449877E+05  2.780498E+06  6.481330E+05 -1.353591E+06  8.636938E+04 -6.544557E+04
       142   2  6.840222E+03  3.207798E+05  8.482355E+04 -4.774718E+05  1.539378E+03 -1.092634E+05
       142   3 -5.319245E+05 -2.153539E+06 -4.370314E+05 -1.282048E+06 -8.316099E+04 -1.529135E+05
       142   4  3.376087E+04  3.090966E+05  6.201791E+04 -1.321280E+06  8.571448E+04 -1.815013E+04
       142   5  6.570277E+03  3.192509E+05  8.446701E+04 -4.806853E+05  8.969202E+02 -6.211935E+04
       142   6  7.916653E+04  3.090992E+05  1.487523E+05 -1.320669E+06 -8.380598E+04 -1.060889E+05
       142   7 -5.779015E+05 -2.156708E+06 -5.245140E+05 -1.289072E+06  8.506302E+04  2.895874E+04
       142   8  6.301564E+03  3.177267E+05  8.411883E+04 -4.838988E+05  2.539737E+02 -1.497544E+04
       142   9  6.898242E+05  2.777321E+06  7.341202E+05 -1.359418E+06 -8.445540E+04 -5.907837E+04
       142  10  6.449786E+05  2.780491E+06  6.481110E+05 -1.353587E+06 -1.769167E-09  6.892726E-09
       142  11  6.837017E+03  3.207670E+05  8.480112E+04 -4.774717E+05  4.038938E-09  1.394075E-09
       142  12 -5.319382E+05 -2.153567E+06 -4.370886E+05 -1.282058E+06 -1.306011E-10 -7.254399E-09
       142  13  3.375290E+04  3.090943E+05  6.200350E+04 -1.321279E+06 -2.152410E-09  1.906414E-10
       142  14  6.569241E+03  3.192467E+05  8.445976E+04 -4.806852E+05  9.415376E-09 -6.925387E-09
       142  15  7.915594E+04  3.090852E+05  1.487178E+05 -1.320676E+06  1.255928E-08 -2.121948E-08
       142  16 -5.779095E+05 -2.156710E+06 -5.245292E+05 -1.289074E+06 -5.399591E-09 -6.606091E-09
       142  17  6.301504E+03  3.177265E+05  8.411841E+04 -4.838988E+05 -6.177052E-09 -4.737595E-09
       142  18  6.898156E+05  2.777316E+06  7.341002E+05 -1.359423E+06 -3.813794E-09  7.705901E-10
       142  19  6.449877E+05  2.780498E+06  6.481330E+05 -1.353591E+06 -8.636938E+04  6.544557E+04
       142  20  6.840222E+03  3.207798E+05  8.482355E+04 -4.774718E+05 -1.539378E+03  1.092634E+05
       142  21 -5.319245E+05 -2.153539E+06 -4.370314E+05 -1.282048E+06  8.316099E+04  1.529135E+05
       142  22  3.376087E+04  3.090966E+05  6.201791E+04 -1.321280E+06 -8.571448E+04  1.815013E+04
       142  23  6.570277E+03  3.192509E+05  8.446701E+04 -4.806853E+05 -8.969202E+02  6.211935E+04
       142  24  7.916653E+04  3.090992E+05  1.487523E+05 -1.320669E+06  8.380598E+04  1.060889E+05
       142  25 -5.779015E+05 -2.156708E+06 -5.245140E+05 -1.289072E+06 -8.506302E+04 -2.895874E+04
       142  26  6.301564E+03  3.177267E+05  8.411883E+04 -4.838988E+05 -2.539737E+02  1.497544E+04
       142  27  6.898242E+05  2.777321E+06  7.341202E+05 -1.359418E+06  8.445540E+04  5.907837E+04
       143   1 -1.351207E+06 -5.109547E+06 -1.119494E+06 -1.338222E+06 -1.815051E+05 -2.560300E+05
       143   2 -2.041280E+06 -7.668529E+06 -1.610714E+06 -3.864492E+05 -2.707950E+05 -2.626325E+05
       143   3 -2.093286E+06 -1.002839E+07 -1.932185E+06 -1.114198E+06 -9.851816E+04 -2.673771E+05
       143   4  4.299377E+03  3.552443E+05  1.838106E+05 -1.321425E+06 -1.829850E+05 -1.365482E+05
       143   5 -7.260797E+04  2.428795E+05  2.780746E+05 -4.812688E+05 -2.703393E+05 -2.878445E+05
       143   6  5.100402E+05  3.469039E+05  6.409704E+05 -1.318927E+06 -9.760127E+04 -4.373439E+05
       143   7  1.357660E+06  5.847610E+06  1.485076E+06 -1.304362E+06 -1.844511E+05 -1.600881E+04
       143   8  1.891545E+06  8.212154E+06  2.162465E+06 -5.771780E+05 -2.698798E+05 -3.133606E+05
       143   9  3.105424E+06  1.082113E+07  3.206220E+06 -1.526919E+06 -9.658233E+04 -6.101335E+05
       143  10 -1.351260E+06 -5.109627E+06 -1.119681E+06 -1.338260E+06  3.232697E-09  3.253234E-09
       143  11 -2.041377E+06 -7.668623E+06 -1.610983E+06 -3.865068E+05  2.197032E-09  5.693453E-10
       143  12 -2.093317E+06 -1.002847E+07 -1.932340E+06 -1.114219E+06 -2.304463E-10 -3.450452E-09
       143  13  4.258336E+03  3.552152E+05  1.837124E+05 -1.321445E+06 -7.038677E-09  1.862827E-10
       143  14 -7.270876E+04  2.427709E+05  2.777813E+05 -4.813315E+05  4.107134E-09 -3.944151E-09
       143  15  5.099785E+05  3.466960E+05  6.405929E+05 -1.318961E+06 -7.871569E-10 -3.910310E-09
       143  16  1.357624E+06  5.847600E+06  1.485011E+06 -1.304364E+06  1.636666E-09 -3.101719E-09
       143  17  1.891441E+06  8.212030E+06  2.162146E+06 -5.772457E+05  1.536900E-09 -3.299703E-09
       143  18  3.105316E+06  1.082074E+07  3.205514E+06 -1.526967E+06 -1.270280E-09  2.137304E-09
       143  19 -1.351207E+06 -5.109547E+06 -1.119494E+06 -1.338222E+06  1.815051E+05  2.560300E+05
       143  20 -2.041280E+06 -7.668529E+06 -1.610714E+06 -3.864492E+05  2.707950E+05  2.626325E+05
       143  21 -2.093286E+06 -1.002839E+07 -1.932185E+06 -1.114198E+06  9.851816E+04  2.673771E+05
       143  22  4.299377E+03  3.552443E+05  1.838106E+05 -1.321425E+06  1.829850E+05  1.365482E+05
       143  23 -7.260797E+04  2.428795E+05  2.780746E+05 -4.812688E+05  2.703393E+05  2.878445E+05
       143  24  5.100402E+05  3.469039E+05  6.409704E+05 -1.318927E+06  9.760127E+04  4.373439E+05
       143  25  1.357660E+06  5.847610E+06  1.485076E+06 -1.304362E+06  1.844511E+05  1.600881E+04
       143  26  1.891545E+06  8.212154E+06  2.162465E+06 -5.771780E+05  2.698798E+05  3.133606E+05
       143  27  3.105424E+06  1.082113E+07  3.206220E+06 -1.526919E+06  9.658233E+04  6.101335E+05
       144   1 -5.555535E+05 -2.445818E+05 -1.243485E+05 -2.376617E+05 -6.054454E+04 -1.813971E+04
       144   2 -5.249259E+05 -1.895428E+05 -7.466071E+04 -2.246457E+05 -3.723826E+04  1.271252E+03
       144   3 -5.019071E+05 -1.604089E+05 -5.080730E+04 -2.116564E+05 -1.132373E+04  1.374495E+04
       144   4 -2.751057E+05 -1.125672E+05 -4.800605E+04 -1.330440E+05 -3.292982E+04 -7.774974E+03
       144   5 -2.702554E+05 -8.318431E+04 -2.298103E+04 -1.397526E+05 -2.457571E+04  6.023351E+03
       144   6 -2.700467E+05 -7.673872E+04 -1.193318E+04 -1.464901E+05 -1.361552E+04  1.288398E+04
       144   7  5.416654E+03  1.946449E+04  2.833094E+04 -2.838072E+04 -5.302112E+03  2.597674E+03
       144   8 -1.551818E+04  2.318532E+04  2.869576E+04 -5.482570E+04 -1.190770E+04  1.077821E+04
       144   9 -3.812695E+04  6.937690E+03  2.694013E+04 -8.130046E+04 -1.590824E+04  1.202266E+04
       144  10 -5.555575E+05 -2.445832E+05 -1.243560E+05 -2.376626E+05 -2.334677E-08 -8.484226E-09
       144  11 -5.249274E+05 -1.895432E+05 -7.466332E+04 -2.246456E+05  8.095997E-09  6.451435E-09
       144  12 -5.019073E+05 -1.604092E+05 -5.080789E+04 -2.116563E+05  3.671937E-08  2.245683E-08
       144  13 -2.751069E+05 -1.125676E+05 -4.800820E+04 -1.330442E+05  2.022460E-09 -1.205094E-09
       144  14 -2.702561E+05 -8.318451E+04 -2.298223E+04 -1.397525E+05  6.658318E-09 -5.865952E-09
       144  15 -2.700469E+05 -7.673895E+04 -1.193385E+04 -1.464900E+05  6.335203E-09 -1.191472E-08
       144  16  5.416622E+03  1.946447E+04  2.833087E+04 -2.838071E+04  2.578085E-08  1.076555E-08
       144  17 -1.551836E+04  2.318515E+04  2.869527E+04 -5.482560E+04 -1.026707E-08  1.335395E-09
       144  18 -3.812726E+04  6.937467E+03  2.693938E+04 -8.130030E+04 -4.422302E-08 -9.932921E-09
       144  19 -5.555535E+05 -2.445818E+05 -1.243485E+05 -2.376617E+05  6.054454E+04  1.813971E+04
       144  20 -5.249259E+05 -1.895428E+05 -7.466071E+04 -2.246457E+05  3.723826E+04 -1.271252E+03
       144  21 -5.019071E+05 -1.604089E+05 -5.080730E+04 -2.116564E+05  1.132373E+04 -1.374495E+04
       144  22 -2.751057E+05 -1.125672E+05 -4.800605E+04 -1.330440E+05  3.292982E+04  7.774974E+03
       144  23 -2.702554E+05 -8.318431E+04 -2.298103E+04 -1.397526E+05  2.457571E+04 -6.023351E+03
       144  24 -2.700467E+05 -7.673872E+04 -1.193318E+04 -1.464901E+05  1.361552E+04 -1.288398E+04
       144  25  5.416654E+03  1.946449E+04  2.833094E+04 -2.838072E+04  5.302112E+03 -2.597674E+03
       144  26 -1.551818E+04  2.318532E+04  2.869576E+04 -5.482570E+04  1.190770E+04 -1.077821E+04
       144  27 -3.812695E+04  6.937690E+03  2.694013E+04 -8.130046E+04  1.590824E+04 -1.202266E+04
       145   1 -4.779956E+05 -1.525810E+05 -4.315908E+04 -2.067656E+05 -9.760114E+03  1.334565E+04
       145   2 -4.463101E+05 -1.351944E+05 -3.180725E+04 -1.948139E+05 -5.201465E+03  1.344682E+04
       145   3 -4.114879E+05 -1.240617E+05 -2.395323E+04 -1.875360E+05 -3.449918E+02  1.275452E+04
       145   4 -2.686470E+05 -7.584043E+04 -8.846966E+03 -1.464379E+05 -1.194801E+04  1.252381E+04
       145   5 -2.701921E+05 -7.152943E+04 -4.591046E+03 -1.446080E+05 -9.099254E+03  1.198348E+04
       145   6 -2.682619E+05 -7.313315E+04 -2.476925E+03 -1.474523E+05 -5.952909E+03  1.064970E+04
       145   7 -5.925407E+04  9.041172E+02  2.546347E+04 -8.609176E+04 -1.413665E+04  1.170168E+04
       145   8 -9.404043E+04 -7.860951E+03  2.262475E+04 -9.438862E+04 -1.299821E+04  1.051968E+04
       145   9 -1.250118E+05 -2.220172E+04  1.899977E+04 -1.073595E+05 -1.156226E+04  8.544348E+03
       145  10 -4.779957E+05 -1.525812E+05 -4.315959E+04 -2.067655E+05 -4.486607E-08 -8.822408E-09
       145  11 -4.463102E+05 -1.351946E+05 -3.180764E+04 -1.948138E+05  2.239287E-09  4.095225E-09
       145  12 -4.114880E+05 -1.240619E+05 -2.395354E+04 -1.875360E+05  3.678612E-08  1.173503E-08
       145  13 -2.686472E+05 -7.584064E+04 -8.847529E+03 -1.464378E+05  8.368495E-09 -1.036758E-08
       145  14 -2.701922E+05 -7.152961E+04 -4.591471E+03 -1.446079E+05  1.054234E-08 -3.856364E-09
       145  15 -2.682620E+05 -7.313328E+04 -2.477204E+03 -1.474523E+05  2.976285E-09 -3.741152E-10
       145  16 -5.925432E+04  9.039166E+02  2.546283E+04 -8.609163E+04  4.368114E-08  2.264224E-08
       145  17 -9.404064E+04 -7.861115E+03  2.262423E+04 -9.438851E+04  9.784343E-09  9.616098E-09
       145  18 -1.250120E+05 -2.220184E+04  1.899938E+04 -1.073594E+05 -3.060235E-08 -8.314642E-09
       145  19 -4.779956E+05 -1.525810E+05 -4.315908E+04 -2.067656E+05  9.760114E+03 -1.334565E+04
       145  20 -4.463101E+05 -1.351944E+05 -3.180725E+04 -1.948139E+05  5.201465E+03 -1.344682E+04
       145  21 -4.114879E+05 -1.240617E+05 -2.395323E+04 -1.875360E+05  3.449918E+02 -1.275452E+04
       145  22 -2.686470E+05 -7.584043E+04 -8.846966E+03 -1.464379E+05  1.194801E+04 -1.252381E+04
       145  23 -2.701921E+05 -7.152943E+04 -4.591046E+03 -1.446080E+05  9.099254E+03 -1.198348E+04
       145  24 -2.682619E+05 -7.313315E+04 -2.476925E+03 -1.474523E+05  5.952909E+03 -1.064970E+04
       145  25 -5.925407E+04  9.041172E+02  2.546347E+04 -8.609176E+04  1.413665E+04 -1.170168E+04
       145  26 -9.404043E+04 -7.860951E+03  2.262475E+04 -9.438862E+04  1.299821E+04 -1.051968E+04
       145  27 -1.250118E+05 -2.220172E+04  1.899977E+04 -1.073595E+05  1.156226E+04 -8.544348E+03
       146   1 -3.901289E+05 -1.165541E+05 -1.996113E+04 -1.817190E+05  5.533923E+02  1.133249E+04
       146   2 -3.585670E+05 -1.021727E+05 -1.402252E+04 -1.697507E+05  2.240635E+03  8.952585E+03
       146   3 -3.227574E+05 -9.234627E+04 -8.641943E+03 -1.628016E+05  3.961769E+03  6.481895E+03
       146   4 -2.681167E+05 -7.308146E+04 -1.849825E+03 -1.474310E+05 -5.043366E+03  9.232019E+03
       146   5 -2.702469E+05 -7.074383E+04 -1.000313E+03 -1.449506E+05 -3.551838E+03  6.778868E+03
       146   6 -2.680920E+05 -7.292244E+04 -5.537677E+02 -1.474897E+05 -2.026465E+03  4.234931E+03
       146   7 -1.460883E+05 -2.960721E+04  1.626144E+04 -1.131367E+05 -1.064128E+04  7.131112E+03
       146   8 -1.819189E+05 -3.931435E+04  1.202180E+04 -1.201473E+05 -9.345142E+03  4.604839E+03
       146   9 -2.134240E+05 -5.349853E+04  7.534333E+03 -1.321767E+05 -8.015179E+03  1.987788E+03
       146  10 -3.901289E+05 -1.165542E+05 -1.996138E+04 -1.817190E+05  1.624568E-09 -1.376675E-09
       146  11 -3.585670E+05 -1.021728E+05 -1.402268E+04 -1.697507E+05  2.664694E-09  9.439194E-10
       146  12 -3.227574E+05 -9.234632E+04 -8.642052E+03 -1.628017E+05  2.733986E-09  2.053098E-09
       146  13 -2.681167E+05 -7.308156E+04 -1.850033E+03 -1.474310E+05  2.104240E-09 -3.734966E-10
       146  14 -2.702470E+05 -7.074389E+04 -1.000423E+03 -1.449506E+05  1.708540E-09  9.694194E-10
       146  15 -2.680920E+05 -7.292246E+04 -5.538091E+02 -1.474897E+05 -1.823119E-09 -4.101778E-10
       146  16 -1.460884E+05 -2.960729E+04  1.626113E+04 -1.131366E+05 -1.875506E-09  1.179476E-09
       146  17 -1.819190E+05 -3.931439E+04  1.202159E+04 -1.201472E+05 -5.470791E-09 -1.430171E-09
       146  18 -2.134241E+05 -5.349855E+04  7.534204E+03 -1.321766E+05 -3.833026E-09 -1.809865E-09
       146  19 -3.901289E+05 -1.165541E+05 -1.996113E+04 -1.817190E+05 -5.533923E+02 -1.133249E+04
       146  20 -3.585670E+05 -1.021727E+05 -1.402252E+04 -1.697507E+05 -2.240635E+03 -8.952585E+03
       146  21 -3.227574E+05 -9.234627E+04 -8.641943E+03 -1.628016E+05 -3.961769E+03 -6.481895E+03
       146  22 -2.681167E+05 -7.308146E+04 -1.849825E+03 -1.474310E+05  5.043366E+03 -9.232019E+03
       146  23 -2.702469E+05 -7.074383E+04 -1.000313E+03 -1.449506E+05  3.551838E+03 -6.778868E+03
       146  24 -2.680920E+05 -7.292244E+04 -5.537677E+02 -1.474897E+05  2.026465E+03 -4.234931E+03
       146  25 -1.460883E+05 -2.960721E+04  1.626144E+04 -1.131367E+05  1.064128E+04 -7.131112E+03
       146  26 -1.819189E+05 -3.931435E+04  1.202180E+04 -1.201473E+05  9.345142E+03 -4.604839E+03
       146  27 -2.134240E+05 -5.349853E+04  7.534333E+03 -1.321767E+05  8.015179E+03 -1.987788E+03
       147   1 -3.016568E+05 -8.483654E+04 -5.277653E+03 -1.568979E+05  4.647772E+03  4.891686E+03
       147   2 -2.701441E+05 -7.065936E+04 -2.402440E+02 -1.449068E+05  5.831799E+03  2.163483E+03
       147   3 -2.342536E+05 -6.089186E+04  4.690489E+03 -1.379523E+05  7.019120E+03 -5.735288E+02
       147   4 -2.680745E+05 -7.292332E+04 -4.193897E+02 -1.474841E+05 -1.339385E+03  2.645185E+03
       147   5 -2.702643E+05 -7.072131E+04 -2.433982E+02 -1.449649E+05 -1.745656E+02 -9.023900E+01
       147   6 -2.680746E+05 -7.292568E+04 -1.592613E+02 -1.474831E+05  9.935363E+02 -2.834470E+03
       147   7 -2.344905E+05 -6.100977E+04  4.439140E+03 -1.380697E+05 -7.326959E+03  3.985280E+02
       147   8 -2.703845E+05 -7.078323E+04 -2.463979E+02 -1.450231E+05 -6.180968E+03 -2.343975E+03
       147   9 -3.018943E+05 -8.495936E+04 -5.008868E+03 -1.570134E+05 -5.031704E+03 -5.095282E+03
       147  10 -3.016568E+05 -8.483657E+04 -5.277738E+03 -1.568979E+05  1.557917E-10  4.717185E-10
       147  11 -2.701442E+05 -7.065938E+04 -2.403168E+02 -1.449068E+05  7.514817E-09  3.766683E-09
       147  12 -2.342537E+05 -6.089187E+04  4.690396E+03 -1.379523E+05  8.061378E-09  4.827031E-09
       147  13 -2.680745E+05 -7.292332E+04 -4.194063E+02 -1.474841E+05  3.031291E-09  7.785832E-10
       147  14 -2.702643E+05 -7.072131E+04 -2.433983E+02 -1.449649E+05  7.908931E-09  2.147172E-09
       147  15 -2.680746E+05 -7.292569E+04 -1.592782E+02 -1.474831E+05  1.948711E-10  2.732362E-09
       147  16 -2.344906E+05 -6.100978E+04  4.439039E+03 -1.380697E+05  2.500185E-09  1.065945E-09
       147  17 -2.703845E+05 -7.078324E+04 -2.464800E+02 -1.450231E+05  7.490702E-09  1.511371E-09
       147  18 -3.018943E+05 -8.495940E+04 -5.008965E+03 -1.570135E+05 -2.826741E-09 -2.365069E-11
       147  19 -3.016568E+05 -8.483654E+04 -5.277653E+03 -1.568979E+05 -4.647772E+03 -4.891686E+03
       147  20 -2.701441E+05 -7.065936E+04 -2.402440E+02 -1.449068E+05 -5.831799E+03 -2.163483E+03
       147  21 -2.342536E+05 -6.089186E+04  4.690489E+03 -1.379523E+05 -7.019120E+03  5.735288E+02
       147  22 -2.680745E+05 -7.292332E+04 -4.193897E+02 -1.474841E+05  1.339385E+03 -2.645185E+03
       147  23 -2.702643E+05 -7.072131E+04 -2.433982E+02 -1.449649E+05  1.745656E+02  9.023900E+01
       147  24 -2.680746E+05 -7.292568E+04 -1.592613E+02 -1.474831E+05 -9.935363E+02  2.834470E+03
       147  25 -2.344905E+05 -6.100977E+04  4.439140E+03 -1.380697E+05  7.326959E+03 -3.985280E+02
       147  26 -2.703845E+05 -7.078323E+04 -2.463979E+02 -1.450231E+05  6.180968E+03  2.343975E+03
       147  27 -3.018943E+05 -8.495936E+04 -5.008868E+03 -1.570134E+05  5.031704E+03  5.095282E+03
       148   1 -2.131857E+05 -5.337580E+04  7.925321E+03 -1.320403E+05  7.654572E+03 -2.191169E+03
       148   2 -1.816875E+05 -3.920469E+04  1.277563E+04 -1.200452E+05  8.742950E+03 -4.963014E+03
       148   3 -1.457957E+05 -2.942898E+04  1.759531E+04 -1.130846E+05  9.826782E+03 -7.722377E+03
       148   4 -2.680739E+05 -7.292705E+04 -1.405013E+02 -1.474819E+05  1.629045E+03 -4.452142E+03
       148   5 -2.702690E+05 -7.073061E+04 -1.382105E+02 -1.449633E+05  2.744108E+03 -7.214164E+03
       148   6 -2.680766E+05 -7.293488E+04 -1.877007E+02 -1.474796E+05  3.854630E+03 -9.963722E+03
       148   7 -3.229581E+05 -9.247767E+04 -8.206005E+03 -1.629220E+05 -4.395848E+03 -6.712876E+03
       148   8 -3.588418E+05 -1.022556E+05 -1.305197E+04 -1.698781E+05 -3.253833E+03 -9.464975E+03
       148   9 -3.903427E+05 -1.164397E+05 -1.797111E+04 -1.818687E+05 -2.116356E+03 -1.220463E+04
       148  10 -2.131858E+05 -5.337583E+04  7.925202E+03 -1.320403E+05  5.780607E-08  2.461069E-08
       148  11 -1.816876E+05 -3.920474E+04  1.277544E+04 -1.200452E+05  1.188173E-08  7.382728E-09
       148  12 -1.457958E+05 -2.942907E+04  1.759501E+04 -1.130845E+05 -4.705257E-08 -1.822250E-08
       148  13 -2.680740E+05 -7.292707E+04 -1.405435E+02 -1.474819E+05  3.473738E-09  4.228645E-09
       148  14 -2.702690E+05 -7.073067E+04 -1.383224E+02 -1.449633E+05  7.367540E-09  6.847374E-09
       148  15 -2.680767E+05 -7.293499E+04 -1.879151E+02 -1.474796E+05  1.263738E-09  2.723125E-09
       148  16 -3.229582E+05 -9.247773E+04 -8.206126E+03 -1.629220E+05 -5.078297E-08 -1.639636E-08
       148  17 -3.588418E+05 -1.022557E+05 -1.305216E+04 -1.698781E+05  7.568883E-09  7.745973E-09
       148  18 -3.903428E+05 -1.164399E+05 -1.797139E+04 -1.818687E+05  5.615066E-08  2.346072E-08
       148  19 -2.131857E+05 -5.337580E+04  7.925321E+03 -1.320403E+05 -7.654572E+03  2.191169E+03
       148  20 -1.816875E+05 -3.920469E+04  1.277563E+04 -1.200452E+05 -8.742950E+03  4.963014E+03
       148  21 -1.457957E+05 -2.942898E+04  1.759531E+04 -1.130846E+05 -9.826782E+03  7.722377E+03
       148  22 -2.680739E+05 -7.292705E+04 -1.405013E+02 -1.474819E+05 -1.629045E+03  4.452142E+03
       148  23 -2.702690E+05 -7.073061E+04 -1.382105E+02 -1.449633E+05 -2.744108E+03  7.214164E+03
       148  24 -2.680766E+05 -7.293488E+04 -1.877007E+02 -1.474796E+05 -3.854630E+03  9.963722E+03
       148  25 -3.229581E+05 -9.247767E+04 -8.206005E+03 -1.629220E+05  4.395848E+03  6.712876E+03
       148  26 -3.588418E+05 -1.022556E+05 -1.305197E+04 -1.698781E+05  3.253833E+03  9.464975E+03
       148  27 -3.903427E+05 -1.164397E+05 -1.797111E+04 -1.818687E+05  2.116356E+03  1.220463E+04
       149   1 -1.247325E+05 -2.190996E+04  2.078233E+04 -1.071758E+05  1.046902E+04 -9.325013E+03
       149   2 -9.326150E+04 -7.728473E+03  2.557735E+04 -9.517649E+04  1.143505E+04 -1.205514E+04
       149   3 -5.739160E+04  2.064880E+03  3.041113E+04 -8.819678E+04  1.235744E+04 -1.466826E+04
       149   4 -2.680857E+05 -7.293545E+04 -2.343266E+02 -1.474799E+05  4.495750E+03 -1.156696E+04
       149   5 -2.702672E+05 -7.075215E+04 -4.010377E+02 -1.449575E+05  5.713907E+03 -1.420285E+04
       149   6 -2.681009E+05 -7.300716E+04 -7.287972E+02 -1.474553E+05  6.888416E+03 -1.672171E+04
       149   7 -4.114163E+05 -1.239587E+05 -2.125101E+04 -1.877752E+05 -1.476059E+03 -1.380836E+04
       149   8 -4.472376E+05 -1.337719E+05 -2.637925E+04 -1.947247E+05 -5.476507E+00 -1.634990E+04
       149   9 -4.787592E+05 -1.480733E+05 -3.186829E+04 -2.066940E+05  1.421419E+03 -1.877440E+04
       149  10 -1.247327E+05 -2.191008E+04  2.078197E+04 -1.071758E+05 -3.576150E-09 -2.165526E-09
       149  11 -9.326168E+04 -7.728664E+03  2.557683E+04 -9.517638E+04 -2.317559E-09 -1.126855E-09
       149  12 -5.739182E+04  2.064608E+03  3.041044E+04 -8.819663E+04 -1.238260E-10 -6.258845E-10
       149  13 -2.680857E+05 -7.293560E+04 -2.346160E+02 -1.474799E+05 -2.123506E-09 -1.994996E-10
       149  14 -2.702673E+05 -7.075237E+04 -4.014781E+02 -1.449574E+05 -2.621227E-09 -6.576258E-10
       149  15 -2.681011E+05 -7.300747E+04 -7.294118E+02 -1.474552E+05  5.902237E-10 -1.382599E-09
       149  16 -4.114164E+05 -1.239589E+05 -2.125137E+04 -1.877752E+05  2.730679E-09  1.387416E-09
       149  17 -4.472377E+05 -1.337722E+05 -2.637975E+04 -1.947247E+05  9.524132E-10 -5.331760E-10
       149  18 -4.787593E+05 -1.480737E+05 -3.186895E+04 -2.066940E+05 -1.213161E-09 -1.505268E-09
       149  19 -1.247325E+05 -2.190996E+04  2.078233E+04 -1.071758E+05 -1.046902E+04  9.325013E+03
       149  20 -9.326150E+04 -7.728473E+03  2.557735E+04 -9.517649E+04 -1.143505E+04  1.205514E+04
       149  21 -5.739160E+04  2.064880E+03  3.041113E+04 -8.819678E+04 -1.235744E+04  1.466826E+04
       149  22 -2.680857E+05 -7.293545E+04 -2.343266E+02 -1.474799E+05 -4.495750E+03  1.156696E+04
       149  23 -2.702672E+05 -7.075215E+04 -4.010377E+02 -1.449575E+05 -5.713907E+03  1.420285E+04
       149  24 -2.681009E+05 -7.300716E+04 -7.287972E+02 -1.474553E+05 -6.888416E+03  1.672171E+04
       149  25 -4.114163E+05 -1.239587E+05 -2.125101E+04 -1.877752E+05  1.476059E+03  1.380836E+04
       149  26 -4.472376E+05 -1.337719E+05 -2.637925E+04 -1.947247E+05  5.476507E+00  1.634990E+04
       149  27 -4.787592E+05 -1.480733E+05 -3.186829E+04 -2.066940E+05 -1.421419E+03  1.877440E+04
       150   1 -3.629806E+04  9.584670E+03  3.357532E+04 -8.231892E+04  1.307098E+04 -1.612967E+04
       150   2 -5.136116E+03  2.389132E+04  3.874707E+04 -7.005751E+04  1.254103E+04 -1.864650E+04
       150   3  3.045781E+04  3.369319E+04  4.482618E+04 -6.263181E+04  1.162818E+04 -2.014301E+04
       150   4 -2.681659E+05 -7.302014E+04 -9.718530E+02 -1.474517E+05  7.587804E+03 -1.818871E+04
       150   5 -2.702419E+05 -7.108347E+04 -1.796875E+03 -1.448345E+05  9.258598E+03 -1.987988E+04
       150   6 -2.683237E+05 -7.408837E+04 -3.458655E+03 -1.470539E+05  1.054651E+04 -2.055043E+04
       150   7 -4.999784E+05 -1.556203E+05 -3.552034E+04 -2.125624E+05  2.106720E+03 -2.024696E+04
       150   8 -5.352734E+05 -1.660514E+05 -4.234226E+04 -2.195818E+05  5.977623E+03 -2.111271E+04
       150   9 -5.670096E+05 -1.818605E+05 -5.174538E+04 -2.314378E+05  9.465385E+03 -2.095763E+04
       150  10 -3.629831E+04  9.584345E+03  3.357451E+04 -8.231875E+04 -8.938504E-10 -1.426677E-09
       150  11 -5.136379E+03  2.389091E+04  3.874612E+04 -7.005732E+04  3.027214E-10  5.826633E-10
       150  12  3.045756E+04  3.369272E+04  4.482516E+04 -6.263162E+04 -3.147436E-09  2.459170E-09
       150  13 -2.681661E+05 -7.302051E+04 -9.725827E+02 -1.474516E+05 -2.099139E-09 -1.049512E-09
       150  14 -2.702421E+05 -7.108392E+04 -1.797779E+03 -1.448343E+05 -1.659560E-09  6.245192E-10
       150  15 -2.683239E+05 -7.408885E+04 -3.459657E+03 -1.470537E+05 -6.075593E-10  7.628202E-10
       150  16 -4.999785E+05 -1.556207E+05 -3.552111E+04 -2.125624E+05  3.205221E-09  3.135693E-10
       150  17 -5.352736E+05 -1.660518E+05 -4.234317E+04 -2.195817E+05 -7.496628E-10  6.376796E-10
       150  18 -5.670098E+05 -1.818610E+05 -5.174637E+04 -2.314377E+05  3.814610E-09 -5.538025E-10
       150  19 -3.629806E+04  9.584670E+03  3.357532E+04 -8.231892E+04 -1.307098E+04  1.612967E+04
       150  20 -5.136116E+03  2.389132E+04  3.874707E+04 -7.005751E+04 -1.254103E+04  1.864650E+04
       150  21  3.045781E+04  3.369319E+04  4.482618E+04 -6.263181E+04 -1.162818E+04  2.014301E+04
       150  22 -2.681659E+05 -7.302014E+04 -9.718530E+02 -1.474517E+05 -7.587804E+03  1.818871E+04
       150  23 -2.702419E+05 -7.108347E+04 -1.796875E+03 -1.448345E+05 -9.258598E+03  1.987988E+04
       150  24 -2.683237E+05 -7.408837E+04 -3.458655E+03 -1.470539E+05 -1.054651E+04  2.055043E+04
       150  25 -4.999784E+05 -1.556203E+05 -3.552034E+04 -2.125624E+05 -2.106720E+03  2.024696E+04
       150  26 -5.352734E+05 -1.660514E+05 -4.234226E+04 -2.195818E+05 -5.977623E+03  2.111271E+04
       150  27 -5.670096E+05 -1.818605E+05 -5.174538E+04 -2.314378E+05 -9.465385E+03  2.095763E+04
       151   1  5.188757E+04  4.105087E+04  4.856780E+04 -5.702789E+04  1.252794E+04 -2.054004E+04
       151   2  7.906438E+04  5.670608E+04  5.933388E+04 -4.040169E+04 -3.541748E+03 -2.212699E+04
       151   3  1.105486E+05  6.492160E+04  7.988822E+04 -2.641452E+04 -2.296428E+04 -1.479499E+04
       151   4 -2.689459E+05 -7.436764E+04 -4.663924E+03 -1.469890E+05  1.131327E+04 -2.099754E+04
       151   5 -2.701862E+05 -7.573981E+04 -8.982361E+03 -1.430437E+05  1.448830E+04 -1.535681E+04
       151   6 -2.709337E+05 -8.836639E+04 -1.876214E+04 -1.417384E+05  1.431076E+04 -7.940002E+02
       151   7 -5.896687E+05 -1.897754E+05 -5.789791E+04 -2.369063E+05  1.009928E+04 -2.145479E+04
       151   8 -6.193025E+05 -2.081691E+05 -7.730085E+04 -2.456291E+05  3.250716E+04 -8.591220E+03
       151   9 -6.522573E+05 -2.416323E+05 -1.174150E+05 -2.569911E+05  5.155952E+04  1.319551E+04
       151  10  5.188729E+04  4.105038E+04  4.856672E+04 -5.702768E+04 -3.406378E-09  2.113181E-09
       151  11  7.906423E+04  5.670555E+04  5.933294E+04 -4.040176E+04  7.020776E-09  4.326796E-09
       151  12  1.105480E+05  6.492122E+04  7.988681E+04 -2.641479E+04  6.337299E-09  3.211887E-09
       151  13 -2.689461E+05 -7.436815E+04 -4.664993E+03 -1.469888E+05  2.259430E-09  1.692225E-09
       151  14 -2.701865E+05 -7.574012E+04 -8.983199E+03 -1.430436E+05  6.265325E-09  3.291534E-09
       151  15 -2.709340E+05 -8.836645E+04 -1.876252E+04 -1.417384E+05  2.980036E-09  8.357754E-10
       151  16 -5.896689E+05 -1.897759E+05 -5.789897E+04 -2.369061E+05  8.691792E-09  1.216953E-09
       151  17 -6.193036E+05 -2.081695E+05 -7.730298E+04 -2.456289E+05  7.957044E-09  1.128815E-09
       151  18 -6.522602E+05 -2.416332E+05 -1.174203E+05 -2.569917E+05 -9.924469E-10 -1.221592E-09
       151  19  5.188757E+04  4.105087E+04  4.856780E+04 -5.702789E+04 -1.252794E+04  2.054004E+04
       151  20  7.906438E+04  5.670608E+04  5.933388E+04 -4.040169E+04  3.541748E+03  2.212699E+04
       151  21  1.105486E+05  6.492160E+04  7.988822E+04 -2.641452E+04  2.296428E+04  1.479499E+04
       151  22 -2.689459E+05 -7.436764E+04 -4.663924E+03 -1.469890E+05 -1.131327E+04  2.099754E+04
       151  23 -2.701862E+05 -7.573981E+04 -8.982361E+03 -1.430437E+05 -1.448830E+04  1.535681E+04
       151  24 -2.709337E+05 -8.836639E+04 -1.876214E+04 -1.417384E+05 -1.431076E+04  7.940002E+02
       151  25 -5.896687E+05 -1.897754E+05 -5.789791E+04 -2.369063E+05 -1.009928E+04  2.145479E+04
       151  26 -6.193025E+05 -2.081691E+05 -7.730085E+04 -2.456291E+05 -3.250716E+04  8.591220E+03
       151  27 -6.522573E+05 -2.416323E+05 -1.174150E+05 -2.569911E+05 -5.155952E+04 -1.319551E+04
       152   1 -1.259933E+05 -1.749287E+04 -4.012708E+04 -2.024416E+04 -6.836542E+04 -2.924299E+03
       152   2 -1.283442E+05  7.405198E+04  1.357921E+04 -5.487297E+03 -4.640381E+04 -8.806080E+03
       152   3 -1.589716E+05  6.376284E+04  2.754243E+04  2.031686E+04 -2.444790E+04 -8.468129E+03
       152   4 -3.981369E+05 -8.529451E+04 -1.071388E+05  8.447636E+03 -7.331309E+04 -2.930993E+03
       152   5 -3.836859E+05  1.084708E+04 -4.712020E+04  2.889902E+03 -4.792920E+04 -8.808226E+03
       152   6 -3.981191E+05  4.536095E+03 -2.923443E+04  8.380054E+03 -2.255030E+04 -8.466033E+03
       152   7 -6.702113E+05 -1.530985E+05 -1.741555E+05  3.712682E+04 -7.825859E+04 -2.938147E+03
       152   8 -6.389675E+05 -5.236226E+04 -1.078241E+05  1.126363E+04 -4.945397E+04 -8.810414E+03
       152   9 -6.372137E+05 -5.469424E+04 -8.601519E+04 -3.552140E+03 -2.065342E+04 -8.464009E+03
       152  10 -1.259984E+05 -1.749413E+04 -4.013588E+04 -2.024432E+04 -3.586303E-10  2.292524E-10
       152  11 -1.283466E+05  7.405132E+04  1.357502E+04 -5.487626E+03 -4.862380E-09 -1.205677E-09
       152  12 -1.589722E+05  6.376260E+04  2.754118E+04  2.031669E+04  8.714460E-10 -2.354118E-09
       152  13 -3.981427E+05 -8.529596E+04 -1.071490E+05  8.447463E+03 -3.001792E-09  7.289759E-10
       152  14 -3.836884E+05  1.084638E+04 -4.712466E+04  2.889562E+03  5.449696E-10 -3.067592E-10
       152  15 -3.981196E+05  4.535881E+03 -2.923552E+04  8.379900E+03  3.338001E-09 -3.214819E-10
       152  16 -6.702178E+05 -1.531002E+05 -1.741671E+05  3.712664E+04 -1.197874E-11  4.788984E-10
       152  17 -6.389702E+05 -5.236300E+04 -1.078289E+05  1.126327E+04  1.292218E-09 -2.014188E-09
       152  18 -6.372142E+05 -5.469443E+04 -8.601613E+04 -3.552281E+03  8.154017E-10 -2.715633E-09
       152  19 -1.259933E+05 -1.749287E+04 -4.012708E+04 -2.024416E+04  6.836542E+04  2.924299E+03
       152  20 -1.283442E+05  7.405198E+04  1.357921E+04 -5.487297E+03  4.640381E+04  8.806080E+03
       152  21 -1.589716E+05  6.376284E+04  2.754243E+04  2.031686E+04  2.444790E+04  8.468129E+03
       152  22 -3.981369E+05 -8.529451E+04 -1.071388E+05  8.447636E+03  7.331309E+04  2.930993E+03
       152  23 -3.836859E+05  1.084708E+04 -4.712020E+04  2.889902E+03  4.792920E+04  8.808226E+03
       152  24 -3.981191E+05  4.536095E+03 -2.923443E+04  8.380054E+03  2.255030E+04  8.466033E+03
       152  25 -6.702113E+05 -1.530985E+05 -1.741555E+05  3.712682E+04  7.825859E+04  2.938147E+03
       152  26 -6.389675E+05 -5.236226E+04 -1.078241E+05  1.126363E+04  4.945397E+04  8.810414E+03
       152  27 -6.372137E+05 -5.469424E+04 -8.601519E+04 -3.552140E+03  2.065342E+04  8.464009E+03
       153   1 -1.735593E+05  4.587100E+04  2.836681E+04  6.154541E+03 -1.809992E+04 -7.201481E+03
       153   2 -1.886469E+05  5.116252E+04  3.584792E+04  2.323188E+03 -1.209014E+04 -6.926141E+03
       153   3 -2.070287E+05  4.638534E+04  3.690003E+04  9.900605E+03 -6.081105E+03 -6.229720E+03
       153   4 -3.924429E+05 -8.344177E+03 -2.378882E+04  8.488464E+03 -1.806331E+04 -7.201685E+03
       153   5 -3.907732E+05  1.113553E+03 -1.221537E+04  2.779126E+03 -1.182314E+04 -6.925995E+03
       153   6 -3.924390E+05  4.607185E+02 -7.232558E+03  8.478817E+03 -5.583554E+03 -6.229199E+03
       153   7 -6.112826E+05 -6.256279E+04 -7.594780E+04  1.082155E+04 -1.802672E+04 -7.201888E+03
       153   8 -5.928620E+05 -4.893836E+04 -6.028151E+04  3.234905E+03 -1.155623E+04 -6.925849E+03
       153   9 -5.778176E+05 -4.546638E+04 -5.136755E+04  7.057445E+03 -5.086150E+03 -6.228681E+03
       153  10 -1.735597E+05  4.587085E+04  2.836610E+04  6.154436E+03 -1.392933E-09 -3.217200E-09
       153  11 -1.886471E+05  5.116243E+04  3.584755E+04  2.323120E+03 -4.597193E-09  6.017265E-10
       153  12 -2.070288E+05  4.638529E+04  3.689988E+04  9.900575E+03 -1.315851E-09  2.041265E-09
       153  13 -3.924433E+05 -8.344320E+03 -2.378953E+04  8.488359E+03 -5.107834E-10 -2.141141E-09
       153  14 -3.907734E+05  1.113464E+03 -1.221572E+04  2.779060E+03 -2.687321E-09 -1.961459E-10
       153  15 -3.924390E+05  4.606685E+02 -7.232690E+03  8.478789E+03  2.497676E-11 -5.098248E-10
       153  16 -6.112830E+05 -6.256293E+04 -7.594851E+04  1.082144E+04  8.154593E-10 -3.191144E-10
       153  17 -5.928622E+05 -4.893845E+04 -6.028186E+04  3.234840E+03 -2.983956E-09  5.133896E-10
       153  18 -5.778177E+05 -4.546643E+04 -5.136767E+04  7.057420E+03 -7.830652E-11  7.761099E-10
       153  19 -1.735593E+05  4.587100E+04  2.836681E+04  6.154541E+03  1.809992E+04  7.201481E+03
       153  20 -1.886469E+05  5.116252E+04  3.584792E+04  2.323188E+03  1.209014E+04  6.926141E+03
       153  21 -2.070287E+05  4.638534E+04  3.690003E+04  9.900605E+03  6.081105E+03  6.229720E+03
       153  22 -3.924429E+05 -8.344177E+03 -2.378882E+04  8.488464E+03  1.806331E+04  7.201685E+03
       153  23 -3.907732E+05  1.113553E+03 -1.221537E+04  2.779126E+03  1.182314E+04  6.925995E+03
       153  24 -3.924390E+05  4.607185E+02 -7.232558E+03  8.478817E+03  5.583554E+03  6.229199E+03
       153  25 -6.112826E+05 -6.256279E+04 -7.594780E+04  1.082155E+04  1.802672E+04  7.201888E+03
       153  26 -5.928620E+05 -4.893836E+04 -6.028151E+04  3.234905E+03  1.155623E+04  6.925849E+03
       153  27 -5.778176E+05 -4.546638E+04 -5.136755E+04  7.057445E+03  5.086150E+03  6.228681E+03
       154   1 -2.269784E+05  4.002229E+04  3.350475E+04  8.524670E+03 -4.822060E+03 -5.752987E+03
       154   2 -2.437296E+05  3.673306E+04  3.203206E+04  2.874002E+03 -3.276996E+03 -5.058531E+03
       154   3 -2.609423E+05  3.248177E+04  2.930836E+04  8.808467E+03 -1.732223E+03 -4.332616E+03
       154   4 -3.917994E+05 -7.835477E+02 -5.649245E+03  8.521804E+03 -4.447855E+03 -5.752594E+03
       154   5 -3.915662E+05  1.241216E+02 -3.123747E+03  2.728570E+03 -2.885809E+03 -5.058062E+03
       154   6 -3.917979E+05  6.663488E+01 -1.861280E+03  8.520644E+03 -1.324013E+03 -4.332068E+03
       154   7 -5.565955E+05 -4.159134E+04 -4.480514E+04  8.518930E+03 -4.073750E+03 -5.752201E+03
       154   8 -5.393828E+05 -3.648639E+04 -3.828108E+04  2.583165E+03 -2.494716E+03 -5.057594E+03
       154   9 -5.226377E+05 -3.234974E+04 -3.303212E+04  8.232876E+03 -9.158889E+02 -4.331521E+03
       154  10 -2.269784E+05  4.002225E+04  3.350465E+04  8.524647E+03 -3.075480E-09  2.917955E-09
       154  11 -2.437296E+05  3.673303E+04  3.203199E+04  2.873989E+03 -4.619589E-09  1.973313E-09
       154  12 -2.609423E+05  3.248175E+04  2.930832E+04  8.808461E+03 -6.245349E-11 -2.753260E-10
       154  13 -3.917994E+05 -7.835886E+02 -5.649344E+03  8.521783E+03 -9.439763E-11 -6.079144E-10
       154  14 -3.915662E+05  1.240919E+02 -3.123811E+03  2.728558E+03 -2.695479E-09  2.490061E-09
       154  15 -3.917979E+05  6.661426E+01 -1.861318E+03  8.520639E+03  2.314911E-10  3.218353E-09
       154  16 -5.565955E+05 -4.159138E+04 -4.480523E+04  8.518911E+03  2.936406E-10  2.070114E-09
       154  17 -5.393828E+05 -3.648642E+04 -3.828114E+04  2.583155E+03 -2.444807E-09  3.186279E-09
       154  18 -5.226377E+05 -3.234976E+04 -3.303216E+04  8.232873E+03  1.933091E-09  2.173075E-09
       154  19 -2.269784E+05  4.002229E+04  3.350475E+04  8.524670E+03  4.822060E+03  5.752987E+03
       154  20 -2.437296E+05  3.673306E+04  3.203206E+04  2.874002E+03  3.276996E+03  5.058531E+03
       154  21 -2.609423E+05  3.248177E+04  2.930836E+04  8.808467E+03  1.732223E+03  4.332616E+03
       154  22 -3.917994E+05 -7.835477E+02 -5.649245E+03  8.521804E+03  4.447855E+03  5.752594E+03
       154  23 -3.915662E+05  1.241216E+02 -3.123747E+03  2.728570E+03  2.885809E+03  5.058062E+03
       154  24 -3.917979E+05  6.663488E+01 -1.861280E+03  8.520644E+03  1.324013E+03  4.332068E+03
       154  25 -5.565955E+05 -4.159134E+04 -4.480514E+04  8.518930E+03  4.073750E+03  5.752201E+03
       154  26 -5.393828E+05 -3.648639E+04 -3.828108E+04  2.583165E+03  2.494716E+03  5.057594E+03
       154  27 -5.226377E+05 -3.234974E+04 -3.303212E+04  8.232876E+03  9.158889E+02  4.331521E+03
       155   1 -2.817115E+05  2.718329E+04  2.464199E+04  8.676448E+03 -1.426836E+03 -3.904553E+03
       155   2 -2.988100E+05  2.301728E+04  2.113835E+04  2.813377E+03 -9.625511E+02 -3.175687E+03
       155   3 -3.160234E+05  1.878320E+04  1.730720E+04  8.653628E+03 -4.984260E+02 -2.442780E+03
       155   4 -3.917189E+05 -4.850154E+01 -1.467691E+03  8.547337E+03 -1.026025E+03 -3.903987E+03
       155   5 -3.916607E+05  2.369247E+01 -9.424777E+02  2.695563E+03 -5.595904E+02 -3.175084E+03
       155   6 -3.917182E+05  2.739065E+01 -7.463631E+02  8.547220E+03 -9.330322E+01 -2.442139E+03
       155   7 -5.017152E+05 -2.728116E+04 -2.757821E+04  8.418245E+03 -6.252842E+02 -3.903421E+03
       155   8 -4.845034E+05 -2.297051E+04 -2.302390E+04  2.577764E+03 -1.566897E+02 -3.174481E+03
       155   9 -4.674077E+05 -1.872884E+04 -1.880032E+04  8.440822E+03  3.117703E+02 -2.441499E+03
       155  10 -2.817115E+05  2.718327E+04  2.464195E+04  8.676444E+03 -3.400636E-09  3.149994E-11
       155  11 -2.988100E+05  2.301727E+04  2.113833E+04  2.813375E+03 -1.256715E-09  5.195387E-09
       155  12 -3.160234E+05  1.878320E+04  1.730718E+04  8.653627E+03  1.429545E-09  5.812321E-09
       155  13 -3.917189E+05 -4.851819E+01 -1.467722E+03  8.547334E+03 -2.584761E-10  1.524464E-10
       155  14 -3.916607E+05  2.368157E+01 -9.424972E+02  2.695562E+03  1.326002E-09  1.756589E-09
       155  15 -3.917182E+05  2.738425E+01 -7.463743E+02  8.547220E+03  5.513976E-10 -1.819742E-09
       155  16 -5.017152E+05 -2.728118E+04 -2.757824E+04  8.418243E+03  2.297981E-09  1.071722E-09
       155  17 -4.845034E+05 -2.297052E+04 -2.302392E+04  2.577764E+03 -2.703831E-09  1.508450E-10
       155  18 -4.674077E+05 -1.872884E+04 -1.880034E+04  8.440823E+03 -1.860554E-09  1.457705E-09
       155  19 -2.817115E+05  2.718329E+04  2.464199E+04  8.676448E+03  1.426836E+03  3.904553E+03
       155  20 -2.988100E+05  2.301728E+04  2.113835E+04  2.813377E+03  9.625511E+02  3.175687E+03
       155  21 -3.160234E+05  1.878320E+04  1.730720E+04  8.653628E+03  4.984260E+02  2.442780E+03
       155  22 -3.917189E+05 -4.850154E+01 -1.467691E+03  8.547337E+03  1.026025E+03  3.903987E+03
       155  23 -3.916607E+05  2.369247E+01 -9.424777E+02  2.695563E+03  5.595904E+02  3.175084E+03
       155  24 -3.917182E+05  2.739065E+01 -7.463631E+02  8.547220E+03  9.330322E+01  2.442139E+03
       155  25 -5.017152E+05 -2.728116E+04 -2.757821E+04  8.418245E+03  6.252842E+02  3.903421E+03
       155  26 -4.845034E+05 -2.297051E+04 -2.302390E+04  2.577764E+03  1.566897E+02  3.174481E+03
       155  27 -4.674077E+05 -1.872884E+04 -1.880032E+04  8.440822E+03 -3.117703E+02  2.441499E+03
       156   1 -3.370357E+05  1.355740E+04  1.221588E+04  8.618535E+03 -3.655269E+02 -2.014970E+03
       156   2 -3.542255E+05  9.294808E+03  8.017512E+03  2.717159E+03  7.217329E+01 -1.279583E+03
       156   3 -3.715344E+05  4.974027E+03  3.509169E+03  8.585335E+03  5.098133E+02 -5.441830E+02
       156   4 -3.917182E+05  2.594529E+01 -7.363732E+02  8.561928E+03  3.983408E+01 -2.014313E+03
       156   5 -3.916585E+05  2.458581E+01 -8.847439E+02  2.677182E+03  4.775143E+02 -1.278913E+03
       156   6 -3.917180E+05 -3.488034E+01 -1.343005E+03  8.562031E+03  9.151464E+02 -5.434984E+02
       156   7 -4.463980E+05 -1.350572E+04 -1.368883E+04  8.505324E+03  4.451595E+02 -2.013655E+03
       156   8 -4.290903E+05 -9.245737E+03 -9.787097E+03  2.637207E+03  8.828310E+02 -1.278242E+03
       156   9 -4.119012E+05 -5.043817E+03 -6.195207E+03  8.538729E+03  1.320466E+03 -5.428138E+02
       156  10 -3.370357E+05  1.355739E+04  1.221587E+04  8.618534E+03  3.004934E-10  3.340417E-09
       156  11 -3.542255E+05  9.294806E+03  8.017509E+03  2.717159E+03 -7.927482E-10  2.020992E-10
       156  12 -3.715344E+05  4.974027E+03  3.509168E+03  8.585335E+03  2.944408E-09 -1.959599E-09
       156  13 -3.917182E+05  2.594093E+01 -7.363808E+02  8.561928E+03  1.669402E-09  2.312402E-09
       156  14 -3.916585E+05  2.458399E+01 -8.847474E+02  2.677183E+03 -1.760291E-09 -1.386316E-09
       156  15 -3.917180E+05 -3.488088E+01 -1.343007E+03  8.562032E+03  8.265626E-10 -2.305585E-09
       156  16 -4.463980E+05 -1.350572E+04 -1.368884E+04  8.505325E+03  5.580722E-10  4.339537E-09
       156  17 -4.290903E+05 -9.245739E+03 -9.787102E+03  2.637208E+03 -2.717533E-09 -5.773573E-10
       156  18 -4.119012E+05 -5.043818E+03 -6.195211E+03  8.538730E+03  5.759659E-11 -2.103240E-09
       156  19 -3.370357E+05  1.355740E+04  1.221588E+04  8.618535E+03  3.655269E+02  2.014970E+03
       156  20 -3.542255E+05  9.294808E+03  8.017512E+03  2.717159E+03 -7.217329E+01  1.279583E+03
       156  21 -3.715344E+05  4.974027E+03  3.509169E+03  8.585335E+03 -5.098133E+02  5.441830E+02
       156  22 -3.917182E+05  2.594529E+01 -7.363732E+02  8.561928E+03 -3.983408E+01  2.014313E+03
       156  23 -3.916585E+05  2.458581E+01 -8.847439E+02  2.677182E+03 -4.775143E+02  1.278913E+03
       156  24 -3.917180E+05 -3.488034E+01 -1.343005E+03  8.562031E+03 -9.151464E+02  5.434984E+02
       156  25 -4.463980E+05 -1.350572E+04 -1.368883E+04  8.505324E+03 -4.451595E+02  2.013655E+03
       156  26 -4.290903E+05 -9.245737E+03 -9.787097E+03  2.637207E+03 -8.828310E+02  1.278242E+03
       156  27 -4.119012E+05 -5.043817E+03 -6.195207E+03  8.538729E+03 -1.320466E+03  5.428138E+02
       157   1 -3.926847E+05 -1.644456E+02 -1.958309E+03  8.435918E+03  7.769311E+02 -1.130461E+02
       157   2 -4.097236E+05 -4.377952E+03 -7.140177E+03  2.660952E+03  2.196490E+03  6.245186E+02
       157   3 -4.272120E+05 -9.454559E+03 -1.347311E+04  8.665158E+03  3.616060E+03  1.346281E+03
       157   4 -3.917910E+05  6.782738E+01 -1.693587E+03  8.563685E+03  1.186919E+03 -1.123509E+02
       157   5 -3.915672E+05  1.185741E+02 -2.822138E+03  2.674746E+03  2.597795E+03  6.251917E+02
       157   6 -3.917916E+05 -6.922248E+02 -5.095658E+03  8.564961E+03  4.008720E+03  1.346933E+03
       157   7 -3.908973E+05  3.001004E+02 -1.428864E+03  8.691452E+03  1.596908E+03 -1.116557E+02
       157   8 -3.734104E+05  4.615076E+03  1.495879E+03  2.688540E+03  2.999111E+03  6.258647E+02
       157   9 -3.563699E+05  8.070020E+03  3.281709E+03  8.464758E+03  4.401401E+03  1.347584E+03
       157  10 -3.926847E+05 -1.644458E+02 -1.958310E+03  8.435918E+03 -2.093873E-09  4.956611E-10
       157  11 -4.097236E+05 -4.377953E+03 -7.140187E+03  2.660951E+03 -3.704410E-10  1.587052E-09
       157  12 -4.272121E+05 -9.454564E+03 -1.347314E+04  8.665154E+03 -1.679062E-09  8.724091E-10
       157  13 -3.917910E+05  6.782698E+01 -1.693589E+03  8.563685E+03  9.128011E-10 -1.161071E-09
       157  14 -3.915672E+05  1.185718E+02 -2.822151E+03  2.674745E+03 -5.401518E-10  7.773956E-10
       157  15 -3.917916E+05 -6.922311E+02 -5.095692E+03  8.564957E+03  1.054755E-09  1.918346E-09
       157  16 -3.908973E+05  3.000997E+02 -1.428868E+03  8.691452E+03  6.887265E-10  6.866970E-10
       157  17 -3.734104E+05  4.615073E+03  1.495861E+03  2.688539E+03 -1.842600E-09 -4.831635E-09
       157  18 -3.563700E+05  8.070012E+03  3.281669E+03  8.464753E+03  1.421920E-09  7.846968E-10
       157  19 -3.926847E+05 -1.644456E+02 -1.958309E+03  8.435918E+03 -7.769311E+02  1.130461E+02
       157  20 -4.097236E+05 -4.377952E+03 -7.140177E+03  2.660952E+03 -2.196490E+03 -6.245186E+02
       157  21 -4.272120E+05 -9.454559E+03 -1.347311E+04  8.665158E+03 -3.616060E+03 -1.346281E+03
       157  22 -3.917910E+05  6.782738E+01 -1.693587E+03  8.563685E+03 -1.186919E+03  1.123509E+02
       157  23 -3.915672E+05  1.185741E+02 -2.822138E+03  2.674746E+03 -2.597795E+03 -6.251917E+02
       157  24 -3.917916E+05 -6.922248E+02 -5.095658E+03  8.564961E+03 -4.008720E+03 -1.346933E+03
       157  25 -3.908973E+05  3.001004E+02 -1.428864E+03  8.691452E+03 -1.596908E+03  1.116557E+02
       157  26 -3.734104E+05  4.615076E+03  1.495879E+03  2.688540E+03 -2.999111E+03 -6.258647E+02
       157  27 -3.563699E+05  8.070020E+03  3.281709E+03  8.464758E+03 -4.401401E+03 -1.347584E+03
       158   1 -4.488330E+05 -1.356966E+04 -1.999857E+04  7.359743E+03  4.571512E+03  1.807238E+03
       158   2 -4.645012E+05 -1.722561E+04 -2.852331E+04  3.167692E+03  1.032104E+04  2.536318E+03
       158   3 -4.832415E+05 -3.000451E+04 -4.308314E+04  1.071254E+04  1.607077E+04  3.033211E+03
       158   4 -3.923700E+05  4.281640E+02 -6.521933E+03  8.550809E+03  5.032916E+03  1.808002E+03
       158   5 -3.908464E+05  1.013689E+03 -1.100660E+04  2.688679E+03  1.065494E+04  2.536828E+03
       158   6 -3.923728E+05 -7.500976E+03 -2.143722E+04  8.563434E+03  1.627731E+04  3.033450E+03
       158   7 -3.359041E+05  1.442576E+04  6.954480E+03  9.741983E+03  5.494362E+03  1.808767E+03
       158   8 -3.171866E+05  1.925260E+04  6.509732E+03  2.209606E+03  1.098887E+04  2.537337E+03
       158   9 -3.014965E+05  1.500198E+04  2.081202E+02  6.414004E+03  1.648389E+04  3.033687E+03
       158  10 -4.488330E+05 -1.356967E+04 -1.999861E+04  7.359736E+03 -2.313737E-09  3.085246E-09
       158  11 -4.645013E+05 -1.722565E+04 -2.852352E+04  3.167671E+03 -4.078758E-09  3.651543E-10
       158  12 -4.832418E+05 -3.000459E+04 -4.308365E+04  1.071250E+04  6.373490E-10  1.607061E-09
       158  13 -3.923700E+05  4.281537E+02 -6.521987E+03  8.550802E+03 -1.267811E-09  1.636996E-09
       158  14 -3.908465E+05  1.013652E+03 -1.100683E+04  2.688657E+03 -1.077811E-09  9.021855E-10
       158  15 -3.923731E+05 -7.501057E+03 -2.143774E+04  8.563394E+03  1.514146E-09  2.160775E-10
       158  16 -3.359041E+05  1.442575E+04  6.954417E+03  9.741975E+03  1.002749E-09  1.110743E-09
       158  17 -3.171868E+05  1.925256E+04  6.509493E+03  2.209584E+03  2.044531E-09 -2.723674E-09
       158  18 -3.014968E+05  1.500190E+04  2.075921E+02  6.413964E+03 -5.105447E-10 -3.195117E-09
       158  19 -4.488330E+05 -1.356966E+04 -1.999857E+04  7.359743E+03 -4.571512E+03 -1.807238E+03
       158  20 -4.645012E+05 -1.722561E+04 -2.852331E+04  3.167692E+03 -1.032104E+04 -2.536318E+03
       158  21 -4.832415E+05 -3.000451E+04 -4.308314E+04  1.071254E+04 -1.607077E+04 -3.033211E+03
       158  22 -3.923700E+05  4.281640E+02 -6.521933E+03  8.550809E+03 -5.032916E+03 -1.808002E+03
       158  23 -3.908464E+05  1.013689E+03 -1.100660E+04  2.688679E+03 -1.065494E+04 -2.536828E+03
       158  24 -3.923728E+05 -7.500976E+03 -2.143722E+04  8.563434E+03 -1.627731E+04 -3.033450E+03
       158  25 -3.359041E+05  1.442576E+04  6.954480E+03  9.741983E+03 -5.494362E+03 -1.808767E+03
       158  26 -3.171866E+05  1.925260E+04  6.509732E+03  2.209606E+03 -1.098887E+04 -2.537337E+03
       158  27 -3.014965E+05  1.500198E+04  2.081202E+02  6.414004E+03 -1.648389E+04 -3.033687E+03
       159   1 -5.092646E+05 -2.361281E+04 -5.290787E+04 -2.231337E+03  1.908260E+04  3.933497E+03
       159   2 -5.131995E+05 -2.206809E+04 -7.306358E+04  1.028821E+04  4.384629E+04  4.488391E+03
       159   3 -5.435565E+05 -1.131755E+05 -1.325191E+05  3.442898E+04  6.861464E+04  1.597336E+03
       159   4 -3.974898E+05  4.105430E+03 -2.634445E+04  8.493511E+03  2.032084E+04  3.935691E+03
       159   5 -3.844541E+05  9.788380E+03 -4.245564E+04  2.740534E+03  4.318702E+04  4.486816E+03
       159   6 -3.975055E+05 -7.684190E+04 -9.654256E+04  8.609256E+03  6.605861E+04  1.590848E+03
       159   7 -2.857033E+05  3.182320E+04  2.181605E+02  1.922030E+04  2.155930E+04  3.937928E+03
       159   8 -2.556933E+05  4.164388E+04 -1.184882E+04 -4.808724E+03  4.252762E+04  4.485257E+03
       159   9 -2.514336E+05 -4.050735E+04 -6.056719E+04 -1.721656E+04  6.350198E+04  1.584574E+03
       159  10 -5.092650E+05 -2.361293E+04 -5.290858E+04 -2.231397E+03  1.064517E-09  1.715721E-09
       159  11 -5.132016E+05 -2.206863E+04 -7.306724E+04  1.028805E+04 -3.143792E-09 -3.008137E-10
       159  12 -5.435615E+05 -1.131768E+05 -1.325280E+05  3.442889E+04  6.724467E-10  5.495157E-10
       159  13 -3.974903E+05  4.105302E+03 -2.634525E+04  8.493447E+03  2.706230E-09  3.813086E-09
       159  14 -3.844561E+05  9.787857E+03 -4.245918E+04  2.740378E+03  8.097204E-10 -2.935129E-09
       159  15 -3.975102E+05 -7.684307E+04 -9.655077E+04  8.609172E+03  2.087302E-09  3.159077E-09
       159  16 -2.857038E+05  3.182306E+04  2.172575E+02  1.922023E+04  1.278371E-09  1.712236E-09
       159  17 -2.556953E+05  4.164337E+04 -1.185226E+04 -4.808878E+03  4.184744E-10 -1.939956E-10
       159  18 -2.514379E+05 -4.050843E+04 -6.057478E+04 -1.721664E+04  1.935228E-09 -8.915817E-10
       159  19 -5.092646E+05 -2.361281E+04 -5.290787E+04 -2.231337E+03 -1.908260E+04 -3.933497E+03
       159  20 -5.131995E+05 -2.206809E+04 -7.306358E+04  1.028821E+04 -4.384629E+04 -4.488391E+03
       159  21 -5.435565E+05 -1.131755E+05 -1.325191E+05  3.442898E+04 -6.861464E+04 -1.597336E+03
       159  22 -3.974898E+05  4.105430E+03 -2.634445E+04  8.493511E+03 -2.032084E+04 -3.935691E+03
       159  23 -3.844541E+05  9.788380E+03 -4.245564E+04  2.740534E+03 -4.318702E+04 -4.486816E+03
       159  24 -3.975055E+05 -7.684190E+04 -9.654256E+04  8.609256E+03 -6.605861E+04 -1.590848E+03
       159  25 -2.857033E+05  3.182320E+04  2.181605E+02  1.922030E+04 -2.155930E+04 -3.937928E+03
       159  26 -2.556933E+05  4.164388E+04 -1.184882E+04 -4.808724E+03 -4.252762E+04 -4.485257E+03
       159  27 -2.514336E+05 -4.050735E+04 -6.056719E+04 -1.721656E+04 -6.350198E+04 -1.584574E+03
       160   1  1.823080E+05  1.019387E+06  2.007796E+05 -9.450048E+04  4.076603E+03  7.741643E+04
       160   2  6.563919E+04  9.063088E+05  1.174407E+05 -4.514892E+04  1.150640E+04  4.241431E+04
       160   3  4.269085E+04  8.211507E+05  8.028318E+04 -4.557837E+04  8.363927E+03  7.408893E+03
       160   4  8.574625E+04  6.314444E+05  1.058798E+05 -5.805084E+04  4.088643E+03  6.794263E+04
       160   5 -5.237528E+03  6.181839E+05  5.106003E+04 -3.319782E+04  1.150895E+04  4.082976E+04
       160   6 -3.844769E+03  6.314851E+05  3.696728E+04 -5.812300E+04  8.357579E+03  1.370786E+04
       160   7 -1.082162E+04  2.436413E+05  1.097005E+04 -2.162396E+04  4.099577E+03  5.847472E+04
       160   8 -7.611952E+04  3.301361E+05 -1.532604E+04 -2.125228E+04  1.151145E+04  3.924593E+04
       160   9 -5.038227E+04  4.418532E+05 -6.350736E+03 -7.066375E+04  8.350976E+03  2.000492E+04
       160  10  1.823064E+05  1.019381E+06  2.007683E+05 -9.450074E+04  6.047286E-10  6.890342E-09
       160  11  6.563857E+04  9.063068E+05  1.174370E+05 -4.514931E+04 -1.930591E-10 -1.644046E-09
       160  12  4.269076E+04  8.211506E+05  8.028294E+04 -4.557842E+04 -1.385324E-10 -8.150102E-09
       160  13  8.574499E+04  6.314395E+05  1.058711E+05 -5.805106E+04  5.285186E-10 -1.644300E-10
       160  14 -5.238117E+03  6.181821E+05  5.105665E+04 -3.319820E+04 -1.201867E-09  1.234954E-10
       160  15 -3.844894E+03  6.314849E+05  3.696680E+04 -5.812309E+04 -1.325208E-09 -1.560954E-09
       160  16 -1.082256E+04  2.436377E+05  1.096360E+04 -2.162415E+04  6.701962E-11 -6.534705E-09
       160  17 -7.612007E+04  3.301344E+05 -1.532918E+04 -2.125264E+04  3.669728E-10 -4.684236E-10
       160  18 -5.038245E+04  4.418528E+05 -6.351619E+03 -7.066388E+04  1.403246E-09  7.527005E-09
       160  19  1.823080E+05  1.019387E+06  2.007796E+05 -9.450048E+04 -4.076603E+03 -7.741643E+04
       160  20  6.563919E+04  9.063088E+05  1.174407E+05 -4.514892E+04 -1.150640E+04 -4.241431E+04
       160  21  4.269085E+04  8.211507E+05  8.028318E+04 -4.557837E+04 -8.363927E+03 -7.408893E+03
       160  22  8.574625E+04  6.314444E+05  1.058798E+05 -5.805084E+04 -4.088643E+03 -6.794263E+04
       160  23 -5.237528E+03  6.181839E+05  5.106003E+04 -3.319782E+04 -1.150895E+04 -4.082976E+04
       160  24 -3.844769E+03  6.314851E+05  3.696728E+04 -5.812300E+04 -8.357579E+03 -1.370786E+04
       160  25 -1.082162E+04  2.436413E+05  1.097005E+04 -2.162396E+04 -4.099577E+03 -5.847472E+04
       160  26 -7.611952E+04  3.301361E+05 -1.532604E+04 -2.125228E+04 -1.151145E+04 -3.924593E+04
       160  27 -5.038227E+04  4.418532E+05 -6.350736E+03 -7.066375E+04 -8.350976E+03 -2.000492E+04
       161   1  2.952285E+04  7.241875E+05  5.658898E+04 -6.222341E+04  4.207767E+03  4.566185E+03
       161   2 -1.640006E+03  6.219936E+05  3.223675E+04 -3.274361E+04 -6.406470E+01 -1.193571E+04
       161   3 -1.421129E+04  5.264849E+05  2.324113E+04 -5.333849E+04 -4.331516E+03 -2.843512E+04
       161   4  5.659043E+03  6.270675E+05  3.436637E+04 -5.816750E+04  4.204499E+03  7.760778E+03
       161   5 -1.213070E+03  6.237282E+05  3.263322E+04 -3.312806E+04 -6.733009E+01 -8.743994E+03
       161   6  1.050734E+04  6.270649E+05  4.625920E+04 -5.816256E+04 -4.334579E+03 -2.524883E+04
       161   7 -1.820535E+04  5.299564E+05  1.214320E+04 -5.411223E+04  4.201274E+03  1.095488E+04
       161   8 -7.861286E+02  6.254629E+05  3.302973E+04 -3.351251E+04 -7.059942E+01 -5.552265E+03
       161   9  3.522535E+04  7.276544E+05  6.927665E+04 -6.298742E+04 -4.337691E+03 -2.206203E+04
       161  10  2.952282E+04  7.241875E+05  5.658891E+04 -6.222342E+04  1.552096E-09 -6.683892E-09
       161  11 -1.640044E+03  6.219934E+05  3.223649E+04 -3.274361E+04  1.249711E-09 -3.096415E-09
       161  12 -1.421152E+04  5.264840E+05  2.323957E+04 -5.333859E+04 -2.627601E-10  6.304148E-09
       161  13  5.659008E+03  6.270675E+05  3.436623E+04 -5.816753E+04  1.123805E-09 -6.939190E-11
       161  14 -1.213091E+03  6.237281E+05  3.263308E+04 -3.312806E+04  3.883883E-09 -1.729754E-10
       161  15  1.050715E+04  6.270642E+05  4.625797E+04 -5.816265E+04  1.194340E-10 -1.676786E-09
       161  16 -1.820540E+04  5.299562E+05  1.214294E+04 -5.411227E+04  5.423895E-10  7.313926E-09
       161  17 -7.861369E+02  6.254628E+05  3.302968E+04 -3.351251E+04  1.284437E-09  5.692701E-10
       161  18  3.522520E+04  7.276538E+05  6.927570E+04 -6.298750E+04  1.274977E-09 -6.760946E-09
       161  19  2.952285E+04  7.241875E+05  5.658898E+04 -6.222341E+04 -4.207767E+03 -4.566185E+03
       161  20 -1.640006E+03  6.219936E+05  3.223675E+04 -3.274361E+04  6.406470E+01  1.193571E+04
       161  21 -1.421129E+04  5.264849E+05  2.324113E+04 -5.333849E+04  4.331516E+03  2.843512E+04
       161  22  5.659043E+03  6.270675E+05  3.436637E+04 -5.816750E+04 -4.204499E+03 -7.760778E+03
       161  23 -1.213070E+03  6.237282E+05  3.263322E+04 -3.312806E+04  6.733009E+01  8.743994E+03
       161  24  1.050734E+04  6.270649E+05  4.625920E+04 -5.816256E+04  4.334579E+03  2.524883E+04
       161  25 -1.820535E+04  5.299564E+05  1.214320E+04 -5.411223E+04 -4.201274E+03 -1.095488E+04
       161  26 -7.861286E+02  6.254629E+05  3.302973E+04 -3.351251E+04  7.059942E+01  5.552265E+03
       161  27  3.522535E+04  7.276544E+05  6.927665E+04 -6.298742E+04  4.337691E+03  2.206203E+04
       162   1 -5.500891E+04  4.426455E+05  1.018665E+04 -8.009459E+04 -8.487004E+03 -3.983619E+04
       162   2 -8.081933E+04  3.213223E+05  1.723100E+04 -1.263977E+04 -1.162334E+04 -7.687318E+04
       162   3  5.212133E+04  2.444740E+05  8.806442E+04  5.062452E+03 -4.109870E+03 -1.138943E+05
       162   4 -7.639305E+03  6.357642E+05  5.429453E+04 -5.813072E+04 -8.494613E+03 -3.352176E+04
       162   5 -9.068208E+03  6.128291E+05  8.441532E+04 -3.319477E+04 -1.161901E+04 -7.850775E+04
       162   6  1.495841E+05  6.357045E+05  1.838163E+05 -5.800458E+04 -4.090771E+03 -1.234842E+05
       162   7  3.972956E+04  8.289185E+05  9.840038E+04 -3.615997E+04 -8.501775E+03 -2.720537E+04
       162   8  6.267854E+04  9.044152E+05  1.515942E+05 -5.375947E+04 -1.161458E+04 -8.014308E+04
       162   9  2.470504E+05  1.027083E+06  2.795595E+05 -1.211114E+05 -4.069735E+03 -1.330800E+05
       162  10 -5.500942E+04  4.426438E+05  1.018354E+04 -8.009486E+04 -1.735165E-09  1.708431E-09
       162  11 -8.082106E+04  3.213159E+05  1.721964E+04 -1.264049E+04 -3.746532E-09 -1.355287E-09
       162  12  5.211783E+04  2.444601E+05  8.804002E+04  5.062075E+03 -2.662861E-10  4.971623E-10
       162  13 -7.639684E+03  6.357629E+05  5.429229E+04 -5.813095E+04 -2.959949E-09  1.108642E-10
       162  14 -9.070005E+03  6.128224E+05  8.440349E+04 -3.319550E+04 -9.891027E-10 -1.721074E-10
       162  15  1.495800E+05  6.356881E+05  1.837877E+05 -5.800499E+04  1.499303E-09 -7.994602E-10
       162  16  3.972928E+04  8.289177E+05  9.839886E+04 -3.616015E+04 -1.206747E-09 -1.239481E-09
       162  17  6.267668E+04  9.044083E+05  1.515819E+05 -5.376022E+04  1.127254E-11 -1.236022E-09
       162  18  2.470457E+05  1.027064E+06  2.795262E+05 -1.211118E+05  4.192443E-10 -8.595191E-10
       162  19 -5.500891E+04  4.426455E+05  1.018665E+04 -8.009459E+04  8.487004E+03  3.983619E+04
       162  20 -8.081933E+04  3.213223E+05  1.723100E+04 -1.263977E+04  1.162334E+04  7.687318E+04
       162  21  5.212133E+04  2.444740E+05  8.806442E+04  5.062452E+03  4.109870E+03  1.138943E+05
       162  22 -7.639305E+03  6.357642E+05  5.429453E+04 -5.813072E+04  8.494613E+03  3.352176E+04
       162  23 -9.068208E+03  6.128291E+05  8.441532E+04 -3.319477E+04  1.161901E+04  7.850775E+04
       162  24  1.495841E+05  6.357045E+05  1.838163E+05 -5.800458E+04  4.090771E+03  1.234842E+05
       162  25  3.972956E+04  8.289185E+05  9.840038E+04 -3.615997E+04  8.501775E+03  2.720537E+04
       162  26  6.267854E+04  9.044152E+05  1.515942E+05 -5.375947E+04  1.161458E+04  8.014308E+04
       162  27  2.470504E+05  1.027083E+06  2.795595E+05 -1.211114E+05  4.069735E+03  1.330800E+05
       163   1  9.986345E+04  3.980087E+04  2.223194E+04 -7.570262E+03 -4.544507E+04 -5.376215E+03
       163   2  7.287628E+04  1.022976E+05  5.401271E+04  2.762423E+03 -3.350291E+04 -1.646494E+04
       163   3  2.640715E+04  9.301015E+04  6.009039E+04  3.128601E+04 -2.157791E+04 -1.646016E+04
       163   4 -3.365440E+05 -6.869933E+04 -8.429012E+04  2.076009E+04 -5.780757E+04 -5.396534E+03
       163   5 -3.260700E+05  4.175155E+03 -3.778090E+04  1.160788E+04 -3.762322E+04 -1.647280E+04
       163   6 -3.365250E+05  3.807671E+03 -2.271307E+04  2.064793E+04 -1.745500E+04 -1.645314E+04
       163   7 -7.727757E+05 -1.772104E+05 -1.908250E+05  4.907042E+04 -7.016139E+04 -5.417990E+03
       163   8 -7.248688E+05 -9.395810E+04 -1.295849E+05  2.044755E+04 -4.174091E+04 -1.648079E+04
       163   9 -6.993347E+05 -8.540353E+04 -1.055250E+05  1.001606E+04 -1.333448E+04 -1.644627E+04
       163  10  9.986122E+04  3.980028E+04  2.222801E+04 -7.570459E+03 -4.996634E-09  4.008602E-10
       163  11  7.287500E+04  1.022970E+05  5.401009E+04  2.761979E+03  4.397404E-10  6.322954E-09
       163  12  2.640658E+04  9.300974E+04  6.008900E+04  3.128573E+04  3.118743E-10  2.622083E-09
       163  13 -3.365476E+05 -6.870025E+04 -8.429646E+04  2.075984E+04 -8.640588E-10 -2.674949E-09
       163  14 -3.260716E+05  4.174484E+03 -3.778407E+04  1.160738E+04 -3.811422E-10 -5.548687E-09
       163  15 -3.365254E+05  3.807299E+03 -2.271416E+04  2.064770E+04 -3.489470E-09  8.836279E-10
       163  16 -7.727810E+05 -1.772118E+05 -1.908344E+05  4.907012E+04  4.827921E-09  5.044505E-10
       163  17 -7.248708E+05 -9.395886E+04 -1.295887E+05  2.044700E+04 -1.814342E-09  4.363768E-09
       163  18 -6.993350E+05 -8.540387E+04 -1.055259E+05  1.001589E+04 -2.951741E-09  1.282742E-10
       163  19  9.986345E+04  3.980087E+04  2.223194E+04 -7.570262E+03  4.544507E+04  5.376215E+03
       163  20  7.287628E+04  1.022976E+05  5.401271E+04  2.762423E+03  3.350291E+04  1.646494E+04
       163  21  2.640715E+04  9.301015E+04  6.009039E+04  3.128601E+04  2.157791E+04  1.646016E+04
       163  22 -3.365440E+05 -6.869933E+04 -8.429012E+04  2.076009E+04  5.780757E+04  5.396534E+03
       163  23 -3.260700E+05  4.175155E+03 -3.778090E+04  1.160788E+04  3.762322E+04  1.647280E+04
       163  24 -3.365250E+05  3.807671E+03 -2.271307E+04  2.064793E+04  1.745500E+04  1.645314E+04
       163  25 -7.727757E+05 -1.772104E+05 -1.908250E+05  4.907042E+04  7.016139E+04  5.417990E+03
       163  26 -7.248688E+05 -9.395810E+04 -1.295849E+05  2.044755E+04  4.174091E+04  1.648079E+04
       163  27 -6.993347E+05 -8.540353E+04 -1.055250E+05  1.001606E+04  1.333448E+04  1.644627E+04
       164   1 -3.821197E+03  7.588074E+04  5.705599E+04  1.955544E+04 -1.484111E+04 -1.411219E+04
       164   2 -3.966841E+04  7.208173E+04  5.701457E+04  1.146798E+04 -1.034852E+04 -1.287677E+04
       164   3 -7.746037E+04  6.302119E+04  5.272348E+04  2.203669E+04 -5.858016E+03 -1.110340E+04
       164   4 -3.323189E+05 -4.886755E+03 -1.825974E+04  2.078984E+04 -1.412329E+04 -1.411141E+04
       164   5 -3.313068E+05  4.044911E+02 -9.682042E+03  1.145636E+04 -9.232852E+03 -1.287499E+04
       164   6 -3.323116E+05  3.634949E+02 -5.632203E+03  2.077968E+04 -4.344243E+03 -1.110054E+04
       164   7 -6.607167E+05 -8.566177E+04 -9.358258E+04  2.202353E+04 -1.340584E+04 -1.411063E+04
       164   8 -6.228664E+05 -7.127866E+04 -7.638423E+04  1.144470E+04 -8.117701E+03 -1.287322E+04
       164   9 -5.871027E+05 -6.229872E+04 -6.399215E+04  1.952316E+04 -2.831086E+03 -1.109767E+04
       164  10 -3.821487E+03  7.588047E+04  5.705521E+04  1.955527E+04  3.074974E-10  4.374634E-10
       164  11 -3.966857E+04  7.208152E+04  5.701406E+04  1.146787E+04 -2.789847E-10  3.672269E-09
       164  12 -7.746044E+04  6.302105E+04  5.272319E+04  2.203664E+04  3.081911E-09  4.255753E-09
       164  13 -3.323192E+05 -4.887023E+03 -1.826049E+04  2.078968E+04 -2.362287E-10  8.378268E-09
       164  14 -3.313070E+05  4.042902E+02 -9.682514E+03  1.145626E+04  2.893456E-09 -1.160639E-08
       164  15 -3.323117E+05  3.633575E+02 -5.632470E+03  2.077965E+04 -2.439134E-09  3.932115E-09
       164  16 -6.607170E+05 -8.566203E+04 -9.358329E+04  2.202338E+04  1.827472E-09 -3.828976E-09
       164  17 -6.228665E+05 -7.127886E+04 -7.638466E+04  1.144462E+04 -2.054939E-09 -4.277646E-09
       164  18 -5.871027E+05 -6.229885E+04 -6.399239E+04  1.952314E+04 -3.552735E-09 -7.469953E-10
       164  19 -3.821197E+03  7.588074E+04  5.705599E+04  1.955544E+04  1.484111E+04  1.411219E+04
       164  20 -3.966841E+04  7.208173E+04  5.701457E+04  1.146798E+04  1.034852E+04  1.287677E+04
       164  21 -7.746037E+04  6.302119E+04  5.272348E+04  2.203669E+04  5.858016E+03  1.110340E+04
       164  22 -3.323189E+05 -4.886755E+03 -1.825974E+04  2.078984E+04  1.412329E+04  1.411141E+04
       164  23 -3.313068E+05  4.044911E+02 -9.682042E+03  1.145636E+04  9.232852E+03  1.287499E+04
       164  24 -3.323116E+05  3.634949E+02 -5.632203E+03  2.077968E+04  4.344243E+03  1.110054E+04
       164  25 -6.607167E+05 -8.566177E+04 -9.358258E+04  2.202353E+04  1.340584E+04  1.411063E+04
       164  26 -6.228664E+05 -7.127866E+04 -7.638423E+04  1.144470E+04  8.117701E+03  1.287322E+04
       164  27 -5.871027E+05 -6.229872E+04 -6.399215E+04  1.952316E+04  2.831086E+03  1.109767E+04
       165   1 -1.115735E+05  5.388548E+04  4.593621E+04  2.114501E+04 -4.820743E+03 -9.959642E+03
       165   2 -1.483970E+05  4.515932E+04  3.947891E+04  1.176468E+04 -3.630237E+03 -8.127146E+03
       165   3 -1.855389E+05  3.611991E+04  3.214868E+04  2.114884E+04 -2.440363E+03 -6.266540E+03
       165   4 -3.319313E+05 -2.540804E+02 -4.347469E+03  2.080712E+04 -3.469134E+03 -9.956975E+03
       165   5 -3.317679E+05  9.018578E+01 -2.443333E+03  1.142430E+04 -2.258136E+03 -8.124263E+03
       165   6 -3.319274E+05  1.177503E+02 -1.426423E+03  2.080630E+04 -1.047701E+03 -6.263430E+03
       165   7 -5.522441E+05 -5.439701E+04 -5.463431E+04  2.046934E+04 -2.118000E+03 -9.954310E+03
       165   8 -5.151077E+05 -4.498128E+04 -4.436777E+04  1.108401E+04 -8.864373E+02 -8.121380E+03
       165   9 -4.782960E+05 -3.588590E+04 -3.500293E+04  2.046384E+04  3.446357E+02 -6.260322E+03
       165  10 -1.115735E+05  5.388537E+04  4.593598E+04  2.114497E+04  1.095041E-09 -3.787158E-09
       165  11 -1.483970E+05  4.515924E+04  3.947876E+04  1.176466E+04 -1.433527E-09 -2.744554E-09
       165  12 -1.855389E+05  3.611986E+04  3.214859E+04  2.114883E+04 -4.659935E-09 -2.340623E-09
       165  13 -3.319314E+05 -2.541901E+02 -4.347678E+03  2.080710E+04  7.092571E-12 -1.914507E-09
       165  14 -3.317680E+05  9.011354E+01 -2.443466E+03  1.142429E+04  6.097821E-10 -4.304217E-09
       165  15 -3.319274E+05  1.177079E+02 -1.426499E+03  2.080630E+04 -2.583791E-09 -1.653546E-09
       165  16 -5.522441E+05 -5.439711E+04 -5.463451E+04  2.046932E+04 -2.682486E-10 -2.960932E-09
       165  17 -5.151077E+05 -4.498135E+04 -4.436789E+04  1.108400E+04 -1.285961E-09  2.243839E-09
       165  18 -4.782960E+05 -3.588594E+04 -3.500300E+04  2.046384E+04  4.367772E-09  8.684012E-09
       165  19 -1.115735E+05  5.388548E+04  4.593621E+04  2.114501E+04  4.820743E+03  9.959642E+03
       165  20 -1.483970E+05  4.515932E+04  3.947891E+04  1.176468E+04  3.630237E+03  8.127146E+03
       165  21 -1.855389E+05  3.611991E+04  3.214868E+04  2.114884E+04  2.440363E+03  6.266540E+03
       165  22 -3.319313E+05 -2.540804E+02 -4.347469E+03  2.080712E+04  3.469134E+03  9.956975E+03
       165  23 -3.317679E+05  9.018578E+01 -2.443333E+03  1.142430E+04  2.258136E+03  8.124263E+03
       165  24 -3.319274E+05  1.177503E+02 -1.426423E+03  2.080630E+04  1.047701E+03  6.263430E+03
       165  25 -5.522441E+05 -5.439701E+04 -5.463431E+04  2.046934E+04  2.118000E+03  9.954310E+03
       165  26 -5.151077E+05 -4.498128E+04 -4.436777E+04  1.108401E+04  8.864373E+02  8.121380E+03
       165  27 -4.782960E+05 -3.588590E+04 -3.500293E+04  2.046384E+04 -3.446357E+02  6.260322E+03
       166   1 -2.201073E+05  2.752999E+04  2.434318E+04  2.103676E+04 -2.208590E+03 -5.178036E+03
       166   2 -2.571162E+05  1.842340E+04  1.640240E+04  1.155942E+04 -1.879959E+03 -3.313098E+03
       166   3 -2.942598E+05  9.372781E+03  8.237381E+03  2.089441E+04 -1.551566E+03 -1.446027E+03
       166   4 -3.318837E+05  7.782797E+01 -1.103961E+03  2.081717E+04 -8.227483E+02 -5.174862E+03
       166   5 -3.318148E+05  6.270676E+01 -6.758140E+02  1.141090E+04 -4.926207E+02 -3.309852E+03
       166   6 -3.318822E+05  1.033801E+02 -4.729265E+02  2.081711E+04 -1.627120E+02 -1.442702E+03
       166   7 -4.436486E+05 -2.737520E+04 -2.655190E+04  2.059761E+04  5.628466E+02 -5.171689E+03
       166   8 -4.065083E+05 -1.829837E+04 -1.775438E+04  1.126240E+04  8.945520E+02 -3.306606E+03
       166   9 -3.695033E+05 -9.166120E+03 -9.183322E+03  2.073981E+04  1.226058E+03 -1.439378E+03
       166  10 -2.201073E+05  2.752996E+04  2.434312E+04  2.103675E+04 -7.649429E-09 -5.511896E-09
       166  11 -2.571162E+05  1.842338E+04  1.640237E+04  1.155941E+04 -2.152728E-10 -9.368257E-11
       166  12 -2.942598E+05  9.372778E+03  8.237373E+03  2.089441E+04  2.613712E-09  1.606329E-10
       166  13 -3.318837E+05  7.779904E+01 -1.104012E+03  2.081717E+04  1.078274E-09  5.495121E-10
       166  14 -3.318149E+05  6.269493E+01 -6.758350E+02  1.141090E+04 -3.090249E-09 -7.984071E-09
       166  15 -3.318822E+05  1.033779E+02 -4.729304E+02  2.081711E+04  9.012783E-10 -3.265423E-09
       166  16 -4.436486E+05 -2.737523E+04 -2.655195E+04  2.059761E+04  4.738159E-09  4.488481E-09
       166  17 -4.065083E+05 -1.829838E+04 -1.775441E+04  1.126240E+04  6.887435E-10  8.277375E-09
       166  18 -3.695033E+05 -9.166122E+03 -9.183328E+03  2.073981E+04 -3.058837E-09  1.462924E-09
       166  19 -2.201073E+05  2.752999E+04  2.434318E+04  2.103676E+04  2.208590E+03  5.178036E+03
       166  20 -2.571162E+05  1.842340E+04  1.640240E+04  1.155942E+04  1.879959E+03  3.313098E+03
       166  21 -2.942598E+05  9.372781E+03  8.237381E+03  2.089441E+04  1.551566E+03  1.446027E+03
       166  22 -3.318837E+05  7.782797E+01 -1.103961E+03  2.081717E+04  8.227483E+02  5.174862E+03
       166  23 -3.318148E+05  6.270676E+01 -6.758140E+02  1.141090E+04  4.926207E+02  3.309852E+03
       166  24 -3.318822E+05  1.033801E+02 -4.729265E+02  2.081711E+04  1.627120E+02  1.442702E+03
       166  25 -4.436486E+05 -2.737520E+04 -2.655190E+04  2.059761E+04 -5.628466E+02  5.171689E+03
       166  26 -4.065083E+05 -1.829837E+04 -1.775438E+04  1.126240E+04 -8.945520E+02  3.306606E+03
       166  27 -3.695033E+05 -9.166120E+03 -9.183322E+03  2.073981E+04 -1.226058E+03  1.439378E+03
       167   1 -3.289160E+05  8.090858E+02  1.390034E+02  2.082585E+04 -1.472676E+03 -3.588131E+02
       167   2 -3.659449E+05 -8.327655E+03 -8.244189E+03  1.134411E+04 -1.257654E+03  1.508614E+03
       167   3 -4.030930E+05 -1.739402E+04 -1.677481E+04  2.068278E+04 -1.042548E+03  3.374533E+03
       167   4 -3.318784E+05  1.025984E+02 -4.297988E+02  2.081887E+04 -8.371017E+01 -3.554756E+02
       167   5 -3.318184E+05  6.108790E+01 -4.413552E+02  1.140871E+04  1.301485E+02  1.511913E+03
       167   6 -3.318791E+05  9.010074E+01 -5.996125E+02  2.081889E+04  3.441053E+02  3.377799E+03
       167   7 -3.348408E+05 -6.038884E+02 -9.985941E+02  2.081189E+04  1.305249E+03 -3.521381E+02
       167   8 -2.976907E+05  8.449751E+03  7.361409E+03  1.147332E+04  1.518027E+03  1.515212E+03
       167   9 -2.606605E+05  1.757387E+04  1.557526E+04  2.095502E+04  1.730917E+03  3.381065E+03
       167  10 -3.289160E+05  8.090851E+02  1.389991E+02  2.082585E+04 -3.567163E-10  1.415310E-09
       167  11 -3.659449E+05 -8.327658E+03 -8.244196E+03  1.134411E+04 -1.134707E-09 -4.901467E-09
       167  12 -4.030930E+05 -1.739403E+04 -1.677483E+04  2.068279E+04 -3.016334E-09 -2.894773E-09
       167  13 -3.318784E+05  1.025983E+02 -4.297990E+02  2.081887E+04  8.394029E-10  6.241084E-09
       167  14 -3.318184E+05  6.108544E+01 -4.413595E+02  1.140871E+04 -6.286741E-10 -3.214292E-09
       167  15 -3.318791E+05  9.008846E+01 -5.996341E+02  2.081889E+04  2.579740E-09 -3.302679E-09
       167  16 -3.348408E+05 -6.038890E+02 -9.985975E+02  2.081189E+04  1.930424E-09  1.791459E-09
       167  17 -2.976907E+05  8.449748E+03  7.361401E+03  1.147332E+04 -8.521186E-10 -1.001269E-08
       167  18 -2.606605E+05  1.757386E+04  1.557523E+04  2.095502E+04  2.766444E-09 -4.473698E-09
       167  19 -3.289160E+05  8.090858E+02  1.390034E+02  2.082585E+04  1.472676E+03  3.588131E+02
       167  20 -3.659449E+05 -8.327655E+03 -8.244189E+03  1.134411E+04  1.257654E+03 -1.508614E+03
       167  21 -4.030930E+05 -1.739402E+04 -1.677481E+04  2.068278E+04  1.042548E+03 -3.374533E+03
       167  22 -3.318784E+05  1.025984E+02 -4.297988E+02  2.081887E+04  8.371017E+01  3.554756E+02
       167  23 -3.318184E+05  6.108790E+01 -4.413552E+02  1.140871E+04 -1.301485E+02 -1.511913E+03
       167  24 -3.318791E+05  9.010074E+01 -5.996125E+02  2.081889E+04 -3.441053E+02 -3.377799E+03
       167  25 -3.348408E+05 -6.038884E+02 -9.985941E+02  2.081189E+04 -1.305249E+03  3.521381E+02
       167  26 -2.976907E+05  8.449751E+03  7.361409E+03  1.147332E+04 -1.518027E+03 -1.515212E+03
       167  27 -2.606605E+05  1.757387E+04  1.557526E+04  2.095502E+04 -1.730917E+03 -3.381065E+03
       168   1 -4.377458E+05 -2.593188E+04 -2.504979E+04  2.058208E+04 -9.310853E+02  4.463547E+03
       168   2 -4.746650E+05 -3.504901E+04 -3.387878E+04  1.115819E+04 -3.151758E+02  6.325695E+03
       168   3 -5.117876E+05 -4.427837E+04 -4.315907E+04  2.051904E+04  3.011699E+02  8.162551E+03
       168   4 -3.318984E+05  1.096453E+02 -7.393676E+02  2.081079E+04  4.619555E+02  4.466773E+03
       168   5 -3.317994E+05  7.159839E+01 -1.210254E+03  1.141876E+04  1.059158E+03  6.328737E+03
       168   6 -3.319014E+05 -7.515480E+01 -2.119158E+03  2.081121E+04  1.656833E+03  8.165418E+03
       168   7 -2.260406E+05  2.615039E+04  2.357033E+04  2.103953E+04  1.855232E+03  4.470000E+03
       168   8 -1.889150E+05  3.519079E+04  3.145694E+04  1.167938E+04  2.433805E+03  6.331780E+03
       168   9 -1.519851E+05  4.412582E+04  3.891865E+04  2.110344E+04  3.012885E+03  8.168286E+03
       168  10 -4.377458E+05 -2.593190E+04 -2.504983E+04  2.058208E+04 -6.779840E-09 -7.555378E-10
       168  11 -4.746650E+05 -3.504906E+04 -3.387885E+04  1.115819E+04 -8.623379E-10 -4.871663E-09
       168  12 -5.117876E+05 -4.427844E+04 -4.315920E+04  2.051904E+04  1.191020E-09 -8.520037E-10
       168  13 -3.318984E+05  1.096238E+02 -7.394055E+02  2.081079E+04  1.556582E-11 -1.958926E-10
       168  14 -3.317995E+05  7.155509E+01 -1.210332E+03  1.141875E+04 -7.236362E-11  1.541821E-09
       168  15 -3.319014E+05 -7.522713E+01 -2.119288E+03  2.081120E+04 -1.370720E-09  2.402400E-10
       168  16 -2.260406E+05  2.615036E+04  2.357028E+04  2.103953E+04  6.721692E-09  3.107520E-09
       168  17 -1.889150E+05  3.519075E+04  3.145685E+04  1.167937E+04  1.782787E-09 -2.537575E-09
       168  18 -1.519852E+05  4.412575E+04  3.891851E+04  2.110342E+04 -2.566006E-10  4.456988E-09
       168  19 -4.377458E+05 -2.593188E+04 -2.504979E+04  2.058208E+04  9.310853E+02 -4.463547E+03
       168  20 -4.746650E+05 -3.504901E+04 -3.387878E+04  1.115819E+04  3.151758E+02 -6.325695E+03
       168  21 -5.117876E+05 -4.427837E+04 -4.315907E+04  2.051904E+04 -3.011699E+02 -8.162551E+03
       168  22 -3.318984E+05  1.096453E+02 -7.393676E+02  2.081079E+04 -4.619555E+02 -4.466773E+03
       168  23 -3.317994E+05  7.159839E+01 -1.210254E+03  1.141876E+04 -1.059158E+03 -6.328737E+03
       168  24 -3.319014E+05 -7.515480E+01 -2.119158E+03  2.081121E+04 -1.656833E+03 -8.165418E+03
       168  25 -2.260406E+05  2.615039E+04  2.357033E+04  2.103953E+04 -1.855232E+03 -4.470000E+03
       168  26 -1.889150E+05  3.519079E+04  3.145694E+04  1.167938E+04 -2.433805E+03 -6.331780E+03
       168  27 -1.519851E+05  4.412582E+04  3.891865E+04  2.110344E+04 -3.012885E+03 -8.168286E+03
       169   1 -5.465055E+05 -5.251088E+04 -5.186421E+04  2.002385E+04  5.778320E+02  9.301492E+03
       169   2 -5.828504E+05 -6.155882E+04 -6.217566E+04  1.125585E+04  3.307836E+03  1.108381E+04
       169   3 -6.202635E+05 -7.320673E+04 -7.493042E+04  2.118524E+04  6.039319E+03  1.237606E+04
       169   4 -3.320835E+05  2.236974E+02 -2.735961E+03  2.079000E+04  2.081234E+03  9.304561E+03
       169   5 -3.315835E+05  2.175875E+02 -4.691354E+03  1.144413E+04  4.447742E+03  1.108587E+04
       169   6 -3.320893E+05 -2.324600E+03 -8.836720E+03  2.079521E+04  6.815890E+03  1.237720E+04
       169   7 -1.176189E+05  5.295507E+04  4.638927E+04  2.155640E+04  3.585152E+03  9.307633E+03
       169   8 -8.025798E+04  6.198960E+04  5.278881E+04  1.163246E+04  5.588106E+03  1.108792E+04
       169   9 -4.383800E+04  6.855174E+04  5.725152E+04  2.040496E+04  7.592817E+03  1.237833E+04
       169  10 -5.465055E+05 -5.251097E+04 -5.186437E+04  2.002384E+04 -8.290893E-09 -1.069791E-09
       169  11 -5.828504E+05 -6.155896E+04 -6.217591E+04  1.125582E+04 -4.654565E-10  3.669847E-09
       169  12 -6.202636E+05 -7.320691E+04 -7.493078E+04  2.118518E+04  8.338800E-09 -1.369285E-09
       169  13 -3.320835E+05  2.236033E+02 -2.736132E+03  2.078999E+04 -4.076945E-09 -8.746535E-09
       169  14 -3.315835E+05  2.174502E+02 -4.691622E+03  1.144409E+04 -4.696146E-09  1.013699E-09
       169  15 -3.320894E+05 -2.324777E+03 -8.837095E+03  2.079514E+04 -1.235142E-10 -1.251425E-09
       169  16 -1.176189E+05  5.295498E+04  4.638908E+04  2.155637E+04  2.430224E-09 -3.819268E-09
       169  17 -8.025805E+04  6.198946E+04  5.278852E+04  1.163241E+04 -5.495741E-09 -1.261022E-08
       169  18 -4.383810E+04  6.855156E+04  5.725112E+04  2.040489E+04 -8.538527E-09  5.503106E-10
       169  19 -5.465055E+05 -5.251088E+04 -5.186421E+04  2.002385E+04 -5.778320E+02 -9.301492E+03
       169  20 -5.828504E+05 -6.155882E+04 -6.217566E+04  1.125585E+04 -3.307836E+03 -1.108381E+04
       169  21 -6.202635E+05 -7.320673E+04 -7.493042E+04  2.118524E+04 -6.039319E+03 -1.237606E+04
       169  22 -3.320835E+05  2.236974E+02 -2.735961E+03  2.079000E+04 -2.081234E+03 -9.304561E+03
       169  23 -3.315835E+05  2.175875E+02 -4.691354E+03  1.144413E+04 -4.447742E+03 -1.108587E+04
       169  24 -3.320893E+05 -2.324600E+03 -8.836720E+03  2.079521E+04 -6.815890E+03 -1.237720E+04
       169  25 -1.176189E+05  5.295507E+04  4.638927E+04  2.155640E+04 -3.585152E+03 -9.307633E+03
       169  26 -8.025798E+04  6.198960E+04  5.278881E+04  1.163246E+04 -5.588106E+03 -1.108792E+04
       169  27 -4.383800E+04  6.855174E+04  5.725152E+04  2.040496E+04 -7.592817E+03 -1.237833E+04
       170   1 -6.567951E+05 -7.744543E+04 -8.464070E+04  1.530494E+04  4.546556E+03  1.460092E+04
       170   2 -6.878571E+05 -8.627182E+04 -1.008841E+05  1.561455E+04  2.181986E+04  1.478893E+04
       170   3 -7.303587E+05 -1.317945E+05 -1.375580E+05  3.417724E+04  3.910806E+04  4.860151E+03
       170   4 -3.341206E+05  1.879790E+03 -1.098902E+04  2.067624E+04  8.425603E+03  1.460784E+04
       170   5 -3.290624E+05  2.031461E+03 -1.828093E+04  1.157943E+04  1.818352E+04  1.478178E+04
       170   6 -3.341333E+05 -3.319647E+04 -4.077465E+04  2.073590E+04  2.795766E+04  4.841022E+03
       170   7 -1.134945E+04  8.119789E+04  6.265594E+04  2.605032E+04  1.230665E+04  1.461483E+04
       170   8  2.985163E+04  9.032581E+04  6.431379E+04  7.541914E+03  1.454510E+04  1.477468E+04
       170   9  6.223594E+04  6.539072E+04  5.599780E+04  7.285903E+03  1.680014E+04  4.822383E+03
       170  10 -6.567952E+05 -7.744567E+04 -8.464114E+04  1.530488E+04  1.675121E-09 -1.934843E-09
       170  11 -6.878576E+05 -8.627219E+04 -1.008854E+05  1.561429E+04  4.338636E-09  3.688259E-09
       170  12 -7.303603E+05 -1.317949E+05 -1.375609E+05  3.417708E+04  2.549274E-09  3.691119E-09
       170  13 -3.341208E+05  1.879542E+03 -1.098955E+04  2.067614E+04  2.129182E-09  1.841999E-09
       170  14 -3.290628E+05  2.031138E+03 -1.828196E+04  1.157922E+04 -1.009498E-09  5.824418E-09
       170  15 -3.341342E+05 -3.319671E+04 -4.077616E+04  2.073579E+04 -7.806835E-11  2.967287E-09
       170  16 -1.134967E+04  8.119762E+04  6.265525E+04  2.605018E+04 -1.719396E-09  1.565377E-09
       170  17  2.985134E+04  9.032552E+04  6.431298E+04  7.541741E+03 -3.895876E-09  3.811710E-09
       170  18  6.223563E+04  6.539062E+04  5.599723E+04  7.285838E+03 -4.741131E-09  7.768937E-10
       170  19 -6.567951E+05 -7.744543E+04 -8.464070E+04  1.530494E+04 -4.546556E+03 -1.460092E+04
       170  20 -6.878571E+05 -8.627182E+04 -1.008841E+05  1.561455E+04 -2.181986E+04 -1.478893E+04
       170  21 -7.303587E+05 -1.317945E+05 -1.375580E+05  3.417724E+04 -3.910806E+04 -4.860151E+03
       170  22 -3.341206E+05  1.879790E+03 -1.098902E+04  2.067624E+04 -8.425603E+03 -1.460784E+04
       170  23 -3.290624E+05  2.031461E+03 -1.828093E+04  1.157943E+04 -1.818352E+04 -1.478178E+04
       170  24 -3.341333E+05 -3.319647E+04 -4.077465E+04  2.073590E+04 -2.795766E+04 -4.841022E+03
       170  25 -1.134945E+04  8.119789E+04  6.265594E+04  2.605032E+04 -1.230665E+04 -1.461483E+04
       170  26  2.985163E+04  9.032581E+04  6.431379E+04  7.541914E+03 -1.454510E+04 -1.477468E+04
       170  27  6.223594E+04  6.539072E+04  5.599780E+04  7.285903E+03 -1.680014E+04 -4.822383E+03
       171   1 -2.277734E+05 -8.744272E+05 -2.213889E+05  1.995382E+05 -9.465644E+03 -6.801502E+04
       171   2 -1.584599E+05 -6.836285E+05 -1.392853E+05  1.708778E+05 -2.894740E+04 -2.811541E+04
       171   3 -1.086179E+05 -5.026958E+05 -8.803602E+04  1.837225E+05 -2.778008E+04  1.182572E+04
       171   4 -2.315280E+04 -4.833982E+04 -2.502679E+04  1.849439E+05 -9.513667E+03 -1.878460E+04
       171   5 -5.294841E+03 -4.632216E+04 -1.112193E+04  1.642021E+05 -2.895867E+04 -1.303097E+04
       171   6 -9.630648E+02 -4.826264E+04 -4.331197E+03  1.849657E+05 -2.776327E+04 -7.249119E+03
       171   7  1.814207E+05  7.783803E+05  1.712969E+05  1.703301E+05 -9.563982E+03  3.051109E+04
       171   8  1.478454E+05  5.913723E+05  1.170216E+05  1.575195E+05 -2.897025E+04  2.068655E+03
       171   9  1.066802E+05  4.063718E+05  7.936646E+04  1.862098E+05 -2.774655E+04 -2.633756E+04
       171  10 -2.277747E+05 -8.744322E+05 -2.213978E+05  1.995377E+05  9.676822E-10  3.154758E-09
       171  11 -1.584610E+05 -6.836295E+05 -1.392884E+05  1.708772E+05 -4.757468E-10  1.136138E-09
       171  12 -1.086188E+05 -5.026962E+05 -8.803774E+04  1.837227E+05 -1.330949E-09 -3.034092E-09
       171  13 -2.315299E+04 -4.834022E+04 -2.502762E+04  1.849437E+05  1.003442E-09 -5.285344E-10
       171  14 -5.295787E+03 -4.632257E+04 -1.112382E+04  1.642018E+05  1.077219E-09 -1.075525E-09
       171  15 -9.639066E+02 -4.826290E+04 -4.332744E+03  1.849655E+05  1.277254E-09  2.311730E-09
       171  16  1.814204E+05  7.783792E+05  1.712950E+05  1.703303E+05  1.509896E-09 -1.004945E-09
       171  17  1.478445E+05  5.913721E+05  1.170200E+05  1.575196E+05  5.274155E-09 -4.402944E-10
       171  18  1.066792E+05  4.063708E+05  7.936371E+04  1.862092E+05  5.077861E-10  3.201904E-09
       171  19 -2.277734E+05 -8.744272E+05 -2.213889E+05  1.995382E+05  9.465644E+03  6.801502E+04
       171  20 -1.584599E+05 -6.836285E+05 -1.392853E+05  1.708778E+05  2.894740E+04  2.811541E+04
       171  21 -1.086179E+05 -5.026958E+05 -8.803602E+04  1.837225E+05  2.778008E+04 -1.182572E+04
       171  22 -2.315280E+04 -4.833982E+04 -2.502679E+04  1.849439E+05  9.513667E+03  1.878460E+04
       171  23 -5.294841E+03 -4.632216E+04 -1.112193E+04  1.642021E+05  2.895867E+04  1.303097E+04
       171  24 -9.630648E+02 -4.826264E+04 -4.331197E+03  1.849657E+05  2.776327E+04  7.249119E+03
       171  25  1.814207E+05  7.783803E+05  1.712969E+05  1.703301E+05  9.563982E+03 -3.051109E+04
       171  26  1.478454E+05  5.913723E+05  1.170216E+05  1.575195E+05  2.897025E+04 -2.068655E+03
       171  27  1.066802E+05  4.063718E+05  7.936646E+04  1.862098E+05  2.774655E+04  2.633756E+04
       172   1 -7.993113E+04 -3.791275E+05 -6.260185E+04  1.854745E+05 -2.063662E+04  9.859288E+03
       172   2 -3.443611E+04 -1.935158E+05 -2.236760E+04  1.642816E+05 -1.023673E+04  9.303098E+03
       172   3  1.158337E+04 -7.546659E+03  1.838724E+04  1.858635E+05  7.587187E+02  8.746154E+03
       172   4 -1.389569E+03 -4.725432E+04 -1.853334E+03  1.852436E+05 -2.062320E+04 -6.864060E+03
       172   5 -1.303895E+02 -4.749347E+04  3.114165E+03  1.638578E+05 -1.022350E+04 -8.408263E+03
       172   6  1.826769E+03 -4.723624E+04  9.289443E+03  1.852460E+05  7.716343E+02 -9.953067E+03
       172   7  7.714590E+04  2.847264E+05  5.889176E+04  1.850125E+05 -2.060978E+04 -2.359611E+04
       172   8  3.417435E+04  9.855041E+04  2.859635E+04  1.634338E+05 -1.021024E+04 -2.612366E+04
       172   9 -7.929749E+03 -8.692361E+04  1.928582E+02  1.846286E+05  7.845875E+02 -2.865110E+04
       172  10 -7.993162E+04 -3.791277E+05 -6.260284E+04  1.854747E+05 -2.113157E-10  2.478052E-09
       172  11 -3.443625E+04 -1.935159E+05 -2.236796E+04  1.642817E+05  6.162523E-10 -1.590973E-09
       172  12  1.158335E+04 -7.546741E+03  1.838709E+04  1.858635E+05 -3.521455E-10 -3.901510E-09
       172  13 -1.390039E+03 -4.725449E+04 -1.854222E+03  1.852435E+05 -6.316590E-10 -5.433642E-10
       172  14 -1.305207E+02 -4.749357E+04  3.113836E+03  1.638577E+05  5.621904E-09 -2.549548E-10
       172  15  1.826742E+03 -4.723635E+04  9.289255E+03  1.852460E+05  2.074448E-09  4.246303E-10
       172  16  7.714530E+04  2.847257E+05  5.888992E+04  1.850121E+05  4.487204E-10  2.976261E-11
       172  17  3.417405E+04  9.854965E+04  2.859488E+04  1.634336E+05  2.230543E-09 -8.298304E-10
       172  18 -7.929970E+03 -8.692450E+04  1.913142E+02  1.846286E+05  2.726533E-09  3.714163E-09
       172  19 -7.993113E+04 -3.791275E+05 -6.260185E+04  1.854745E+05  2.063662E+04 -9.859288E+03
       172  20 -3.443611E+04 -1.935158E+05 -2.236760E+04  1.642816E+05  1.023673E+04 -9.303098E+03
       172  21  1.158337E+04 -7.546659E+03  1.838724E+04  1.858635E+05 -7.587187E+02 -8.746154E+03
       172  22 -1.389569E+03 -4.725432E+04 -1.853334E+03  1.852436E+05  2.062320E+04  6.864060E+03
       172  23 -1.303895E+02 -4.749347E+04  3.114165E+03  1.638578E+05  1.022350E+04  8.408263E+03
       172  24  1.826769E+03 -4.723624E+04  9.289443E+03  1.852460E+05 -7.716343E+02  9.953067E+03
       172  25  7.714590E+04  2.847264E+05  5.889176E+04  1.850125E+05  2.060978E+04  2.359611E+04
       172  26  3.417435E+04  9.855041E+04  2.859635E+04  1.634338E+05  1.021024E+04  2.612366E+04
       172  27 -7.929749E+03 -8.692361E+04  1.928582E+02  1.846286E+05 -7.845875E+02  2.865110E+04
       173   1  3.969328E+04  1.166396E+05  4.476067E+04  1.819238E+05  8.193845E+03  8.586828E+03
       173   2  9.353394E+04  2.961193E+05  9.726721E+04  1.772080E+05  1.351706E+04 -2.728689E+04
       173   3  1.799368E+05  4.885668E+05  1.812887E+05  2.145158E+05  5.092236E+03 -6.318718E+04
       173   4  9.593129E+02 -4.535255E+04  1.310387E+04  1.850715E+05  8.208214E+03 -1.156975E+04
       173   5  9.987618E+03 -4.986996E+04  2.534147E+04  1.640819E+05  1.351617E+04 -2.466550E+04
       173   6  4.763725E+04 -4.539307E+04  5.328711E+04  1.851127E+05  5.074459E+03 -3.777704E+04
       173   7 -3.777598E+04 -2.073187E+05 -1.855265E+04  1.882184E+05  8.222381E+03 -3.172119E+04
       173   8 -7.356566E+04 -3.957455E+05 -4.659071E+04  1.509632E+05  1.351517E+04 -2.204555E+04
       173   9 -8.467937E+04 -5.790887E+05 -7.473177E+04  1.557349E+05  5.054273E+03 -1.238864E+04
       173  10  3.969319E+04  1.166395E+05  4.476040E+04  1.819237E+05 -2.601058E-09  8.791350E-10
       173  11  9.353354E+04  2.961185E+05  9.726546E+04  1.772083E+05  1.724961E-09  4.030890E-10
       173  12  1.799357E+05  4.885625E+05  1.812812E+05  2.145161E+05  1.136132E-09  1.368062E-09
       173  13  9.592046E+02 -4.535271E+04  1.310349E+04  1.850716E+05  1.501981E-09 -5.521603E-10
       173  14  9.987258E+03 -4.987067E+04  2.533998E+04  1.640821E+05  1.018994E-09 -5.277761E-10
       173  15  4.763684E+04 -4.539460E+04  5.328438E+04  1.851128E+05  2.645445E-10  2.098118E-09
       173  16 -3.777632E+04 -2.073198E+05 -1.855467E+04  1.882186E+05  1.703255E-09  1.035310E-09
       173  17 -7.356599E+04 -3.957461E+05 -4.659197E+04  1.509634E+05 -1.792368E-09 -3.638945E-10
       173  18 -8.467943E+04 -5.790888E+05 -7.473211E+04  1.557350E+05  1.391602E-09  6.469121E-10
       173  19  3.969328E+04  1.166396E+05  4.476067E+04  1.819238E+05 -8.193845E+03 -8.586828E+03
       173  20  9.353394E+04  2.961193E+05  9.726721E+04  1.772080E+05 -1.351706E+04  2.728689E+04
       173  21  1.799368E+05  4.885668E+05  1.812887E+05  2.145158E+05 -5.092236E+03  6.318718E+04
       173  22  9.593129E+02 -4.535255E+04  1.310387E+04  1.850715E+05 -8.208214E+03  1.156975E+04
       173  23  9.987618E+03 -4.986996E+04  2.534147E+04  1.640819E+05 -1.351617E+04  2.466550E+04
       173  24  4.763725E+04 -4.539307E+04  5.328711E+04  1.851127E+05 -5.074459E+03  3.777704E+04
       173  25 -3.777598E+04 -2.073187E+05 -1.855265E+04  1.882184E+05 -8.222381E+03  3.172119E+04
       173  26 -7.356566E+04 -3.957455E+05 -4.659071E+04  1.509632E+05 -1.351517E+04  2.204555E+04
       173  27 -8.467937E+04 -5.790887E+05 -7.473177E+04  1.557349E+05 -5.054273E+03  1.238864E+04
       174   1  7.789018E+05  2.895992E+05  1.831708E+05  2.795136E+05  7.510312E+04  2.385276E+04
       174   2  7.507011E+05  1.791849E+05  1.134169E+05  2.757877E+05  4.881453E+04  4.750624E+03
       174   3  7.488579E+05  1.631062E+05  8.869906E+04  2.612180E+05  1.943854E+04 -6.149422E+03
       174   4  5.000484E+05  1.541104E+05  1.022905E+05  1.721776E+05  6.660532E+04  2.064747E+04
       174   5  4.819682E+05  6.892680E+04  4.360537E+04  1.921380E+05  4.604583E+04  3.706111E+03
       174   6  4.891253E+05  7.696546E+04  2.543376E+04  2.012510E+05  2.239727E+04 -5.034248E+03
       174   7  2.212762E+05  1.864445E+04  2.140420E+04  6.489143E+04  5.811179E+04  1.744482E+04
       174   8  2.133072E+05 -4.132213E+04 -2.621192E+04  1.085229E+05  4.327845E+04  2.662200E+03
       174   9  2.294572E+05 -9.174684E+03 -3.783684E+04  1.413048E+05  2.535466E+04 -3.919445E+03
       174  10  7.788956E+05  2.895971E+05  1.831591E+05  2.795122E+05 -4.791968E-09 -1.273922E-09
       174  11  7.506985E+05  1.791843E+05  1.134124E+05  2.757875E+05 -3.542082E-09 -1.114425E-09
       174  12  7.488575E+05  1.631061E+05  8.869828E+04  2.612181E+05 -1.106811E-09  2.980107E-10
       174  13  5.000435E+05  1.541088E+05  1.022814E+05  1.721764E+05 -5.539399E-11  2.057049E-09
       174  14  4.819659E+05  6.892622E+04  4.360137E+04  1.921379E+05 -1.936005E-09 -3.032545E-09
       174  15  4.891248E+05  7.696530E+04  2.543277E+04  2.012511E+05 -6.626688E-09  2.934681E-09
       174  16  2.212725E+05  1.864322E+04  2.139728E+04  6.489062E+04  3.059319E-09  4.291945E-09
       174  17  2.133052E+05 -4.132264E+04 -2.621545E+04  1.085228E+05 -4.230338E-09  5.128639E-09
       174  18  2.294565E+05 -9.174873E+03 -3.783808E+04  1.413049E+05 -3.800943E-09  1.702852E-09
       174  19  7.789018E+05  2.895992E+05  1.831708E+05  2.795136E+05 -7.510312E+04 -2.385276E+04
       174  20  7.507011E+05  1.791849E+05  1.134169E+05  2.757877E+05 -4.881453E+04 -4.750624E+03
       174  21  7.488579E+05  1.631062E+05  8.869906E+04  2.612180E+05 -1.943854E+04  6.149422E+03
       174  22  5.000484E+05  1.541104E+05  1.022905E+05  1.721776E+05 -6.660532E+04 -2.064747E+04
       174  23  4.819682E+05  6.892680E+04  4.360537E+04  1.921380E+05 -4.604583E+04 -3.706111E+03
       174  24  4.891253E+05  7.696546E+04  2.543376E+04  2.012510E+05 -2.239727E+04  5.034248E+03
       174  25  2.212762E+05  1.864445E+04  2.140420E+04  6.489143E+04 -5.811179E+04 -1.744482E+04
       174  26  2.133072E+05 -4.132213E+04 -2.621192E+04  1.085229E+05 -4.327845E+04 -2.662200E+03
       174  27  2.294572E+05 -9.174684E+03 -3.783684E+04  1.413048E+05 -2.535466E+04  3.919445E+03
       175   1  7.120658E+05  1.727904E+05  7.795949E+04  2.600807E+05  1.793620E+04 -4.730744E+03
       175   2  6.917276E+05  1.515632E+05  6.154010E+04  2.487432E+05  1.211141E+04 -6.018302E+03
       175   3  6.651528E+05  1.465953E+05  5.106325E+04  2.466681E+05  6.129852E+03 -6.890424E+03
       175   4  4.858321E+05  8.601963E+04  2.039916E+04  1.958583E+05  1.834228E+04 -4.578026E+03
       175   5  4.885560E+05  7.492473E+04  1.021850E+04  1.923572E+05  1.280905E+04 -5.755483E+03
       175   6  4.849861E+05  8.003281E+04  5.751151E+03  1.981181E+05  7.118813E+03 -6.517550E+03
       175   7  2.596486E+05 -7.470643E+02 -3.716531E+04  1.316573E+05  1.874820E+04 -4.425372E+03
       175   8  2.854253E+05 -1.710718E+03 -4.110628E+04  1.359880E+05  1.350644E+04 -5.492761E+03
       175   9  3.048518E+05  1.347250E+04 -3.956331E+04  1.495810E+05  8.107456E+03 -6.144792E+03
       175  10  7.120654E+05  1.727903E+05  7.795884E+04  2.600808E+05 -3.532608E-09 -4.686989E-09
       175  11  6.917274E+05  1.515632E+05  6.153976E+04  2.487432E+05  1.412657E-09  4.195582E-09
       175  12  6.651527E+05  1.465952E+05  5.106309E+04  2.466681E+05 -4.276626E-09  3.367328E-09
       175  13  4.858318E+05  8.601952E+04  2.039848E+04  1.958584E+05 -1.150807E-09 -9.849791E-10
       175  14  4.885559E+05  7.492465E+04  1.021813E+04  1.923572E+05 -1.546142E-10 -6.293474E-09
       175  15  4.849860E+05  8.003275E+04  5.750976E+03  1.981182E+05 -2.324856E-09 -4.829290E-10
       175  16  2.596482E+05 -7.471797E+02 -3.716601E+04  1.316574E+05 -3.881200E-09 -3.410036E-09
       175  17  2.854251E+05 -1.710800E+03 -4.110668E+04  1.359881E+05  1.942273E-10 -2.220030E-09
       175  18  3.048517E+05  1.347244E+04 -3.956351E+04  1.495810E+05  5.649191E-09 -1.093678E-09
       175  19  7.120658E+05  1.727904E+05  7.795949E+04  2.600807E+05 -1.793620E+04  4.730744E+03
       175  20  6.917276E+05  1.515632E+05  6.154010E+04  2.487432E+05 -1.211141E+04  6.018302E+03
       175  21  6.651528E+05  1.465953E+05  5.106325E+04  2.466681E+05 -6.129852E+03  6.890424E+03
       175  22  4.858321E+05  8.601963E+04  2.039916E+04  1.958583E+05 -1.834228E+04  4.578026E+03
       175  23  4.885560E+05  7.492473E+04  1.021850E+04  1.923572E+05 -1.280905E+04  5.755483E+03
       175  24  4.849861E+05  8.003281E+04  5.751151E+03  1.981181E+05 -7.118813E+03  6.517550E+03
       175  25  2.596486E+05 -7.470643E+02 -3.716531E+04  1.316573E+05 -1.874820E+04  4.425372E+03
       175  26  2.854253E+05 -1.710718E+03 -4.110628E+04  1.359880E+05 -1.350644E+04  5.492761E+03
       175  27  3.048518E+05  1.347250E+04 -3.956331E+04  1.495810E+05 -8.107456E+03  6.144792E+03
       176   1  6.405079E+05  1.391539E+05  4.363986E+04  2.405863E+05  5.151800E+03 -6.360150E+03
       176   2  6.212086E+05  1.249711E+05  3.565996E+04  2.287298E+05  3.479775E+03 -5.578114E+03
       176   3  5.928542E+05  1.207561E+05  2.872191E+04  2.274980E+05  1.800686E+03 -4.778141E+03
       176   4  4.846652E+05  8.069378E+04  4.417371E+03  1.976499E+05  6.007349E+03 -6.037521E+03
       176   5  4.891637E+05  7.549119E+04  2.374040E+03  1.924209E+05  4.348155E+03 -5.250536E+03
       176   6  4.846046E+05  8.025425E+04  1.362760E+03  1.978166E+05  2.681849E+03 -4.445629E+03
       176   7  3.288456E+05  2.223509E+04 -3.480722E+04  1.547230E+05  6.862666E+03 -5.714979E+03
       176   8  3.571356E+05  2.601237E+04 -3.091334E+04  1.561189E+05  5.216335E+03 -4.923034E+03
       176   9  3.763663E+05  3.975313E+04 -2.599733E+04  1.681398E+05  3.562843E+03 -4.113180E+03
       176  10  6.405078E+05  1.391538E+05  4.363973E+04  2.405863E+05 -4.385766E-09 -2.828412E-09
       176  11  6.212086E+05  1.249710E+05  3.565988E+04  2.287298E+05  2.748178E-09 -1.469750E-09
       176  12  5.928542E+05  1.207561E+05  2.872186E+04  2.274980E+05  2.505806E-09  4.393920E-09
       176  13  4.846651E+05  8.069373E+04  4.417235E+03  1.976499E+05  3.918554E-10 -2.801893E-09
       176  14  4.891637E+05  7.549116E+04  2.373953E+03  1.924209E+05  2.695138E-09 -3.970992E-10
       176  15  4.846045E+05  8.025423E+04  1.362709E+03  1.978166E+05  4.272682E-09  2.057425E-09
       176  16  3.288455E+05  2.223505E+04 -3.480737E+04  1.547230E+05  6.230511E-09 -1.832074E-09
       176  17  3.571356E+05  2.601233E+04 -3.091344E+04  1.561189E+05  5.636820E-09  4.737562E-09
       176  18  3.763663E+05  3.975311E+04 -2.599739E+04  1.681398E+05 -3.197223E-09 -3.469772E-09
       176  19  6.405079E+05  1.391539E+05  4.363986E+04  2.405863E+05 -5.151800E+03  6.360150E+03
       176  20  6.212086E+05  1.249711E+05  3.565996E+04  2.287298E+05 -3.479775E+03  5.578114E+03
       176  21  5.928542E+05  1.207561E+05  2.872191E+04  2.274980E+05 -1.800686E+03  4.778141E+03
       176  22  4.846652E+05  8.069378E+04  4.417371E+03  1.976499E+05 -6.007349E+03  6.037521E+03
       176  23  4.891637E+05  7.549119E+04  2.374040E+03  1.924209E+05 -4.348155E+03  5.250536E+03
       176  24  4.846046E+05  8.025425E+04  1.362760E+03  1.978166E+05 -2.681849E+03  4.445629E+03
       176  25  3.288456E+05  2.223509E+04 -3.480722E+04  1.547230E+05 -6.862666E+03  5.714979E+03
       176  26  3.571356E+05  2.601237E+04 -3.091334E+04  1.561189E+05 -5.216335E+03  4.923034E+03
       176  27  3.763663E+05  3.975313E+04 -2.599733E+04  1.681398E+05 -3.562843E+03  4.113180E+03
       177   1  5.693924E+05  1.120588E+05  2.236071E+04  2.210946E+05  1.332366E+03 -4.117504E+03
       177   2  5.503276E+05  9.846601E+04  1.609398E+04  2.092497E+05  5.159953E+02 -2.995330E+03
       177   3  5.219573E+05  9.429247E+04  1.009497E+04  2.080518E+05 -3.002739E+02 -1.873747E+03
       177   4  4.845725E+05  8.028753E+04  1.065415E+03  1.977637E+05  2.205338E+03 -3.788033E+03
       177   5  4.892243E+05  7.556571E+04  6.901250E+02  1.924449E+05  1.388599E+03 -2.665951E+03
       177   6  4.845701E+05  8.026334E+04  5.829062E+02  1.977732E+05  5.719429E+02 -1.544462E+03
       177   7  3.997601E+05  4.851683E+04 -2.023035E+04  1.744357E+05  3.078176E+03 -3.458613E+03
       177   8  4.281246E+05  5.266566E+04 -1.471402E+04  1.756417E+05  2.261108E+03 -2.336608E+03
       177   9  4.471840E+05  6.623424E+04 -8.929308E+03  1.874952E+05  1.444106E+03 -1.215197E+03
       177  10  5.693924E+05  1.120588E+05  2.236068E+04  2.210947E+05 -1.897873E-09  6.499285E-09
       177  11  5.503276E+05  9.846600E+04  1.609396E+04  2.092497E+05 -3.501890E-10  7.031169E-09
       177  12  5.219573E+05  9.429247E+04  1.009496E+04  2.080518E+05  5.062317E-10  7.523995E-10
       177  13  4.845725E+05  8.028751E+04  1.065379E+03  1.977637E+05 -1.745369E-09  1.664239E-09
       177  14  4.892243E+05  7.556570E+04  6.901081E+02  1.924449E+05  1.302287E-09 -4.455843E-09
       177  15  4.845701E+05  8.026334E+04  5.829011E+02  1.977732E+05  6.440181E-10 -2.673606E-09
       177  16  3.997600E+05  4.851682E+04 -2.023039E+04  1.744357E+05 -4.239791E-09 -2.580890E-09
       177  17  4.281246E+05  5.266565E+04 -1.471404E+04  1.756417E+05 -4.651204E-10 -3.661843E-09
       177  18  4.471840E+05  6.623424E+04 -8.929315E+03  1.874952E+05  2.013596E-09 -1.659814E-09
       177  19  5.693924E+05  1.120588E+05  2.236071E+04  2.210946E+05 -1.332366E+03  4.117504E+03
       177  20  5.503276E+05  9.846601E+04  1.609398E+04  2.092497E+05 -5.159953E+02  2.995330E+03
       177  21  5.219573E+05  9.429247E+04  1.009497E+04  2.080518E+05  3.002739E+02  1.873747E+03
       177  22  4.845725E+05  8.028753E+04  1.065415E+03  1.977637E+05 -2.205338E+03  3.788033E+03
       177  23  4.892243E+05  7.556571E+04  6.901250E+02  1.924449E+05 -1.388599E+03  2.665951E+03
       177  24  4.845701E+05  8.026334E+04  5.829062E+02  1.977732E+05 -5.719429E+02  1.544462E+03
       177  25  3.997601E+05  4.851683E+04 -2.023035E+04  1.744357E+05 -3.078176E+03  3.458613E+03
       177  26  4.281246E+05  5.266566E+04 -1.471402E+04  1.756417E+05 -2.261108E+03  2.336608E+03
       177  27  4.471840E+05  6.623424E+04 -8.929308E+03  1.874952E+05 -1.444106E+03  1.215197E+03
       178   1  4.986713E+05  8.553971E+04  4.074979E+03  2.016656E+05 -6.732320E+02 -1.182868E+03
       178   2  4.796386E+05  7.199128E+04 -1.593497E+03  1.898277E+05 -1.553478E+03 -8.687106E+01
       178   3  4.513269E+05  6.786033E+04 -6.943393E+03  1.886186E+05 -2.433447E+03  1.008579E+03
       178   4  4.845757E+05  8.025947E+04  6.058078E+02  1.977705E+05  1.984482E+02 -8.537707E+02
       178   5  4.892180E+05  7.556904E+04  8.192610E+02  1.924493E+05 -6.822178E+02  2.420577E+02
       178   6  4.845807E+05  8.029605E+04  1.351606E+03  1.977567E+05 -1.562622E+03  1.337335E+03
       178   7  4.704802E+05  7.497924E+04 -2.863374E+03  1.938756E+05  1.070107E+03 -5.246819E+02
       178   8  4.987975E+05  7.914679E+04  3.232009E+03  1.950710E+05  1.890557E+02  5.709912E+02
       178   9  5.178355E+05  9.273178E+04  9.646484E+03  2.068951E+05 -6.917500E+02  1.666108E+03
       178  10  4.986713E+05  8.553971E+04  4.074975E+03  2.016656E+05 -3.969781E-09  3.251982E-09
       178  11  4.796386E+05  7.199128E+04 -1.593502E+03  1.898277E+05 -1.762713E-09 -1.754001E-09
       178  12  4.513269E+05  6.786033E+04 -6.943406E+03  1.886186E+05  1.772955E-09  4.931388E-10
       178  13  4.845757E+05  8.025946E+04  6.058063E+02  1.977705E+05 -1.493286E-09  1.079156E-09
       178  14  4.892180E+05  7.556904E+04  8.192600E+02  1.924493E+05 -1.456434E-09  2.878048E-09
       178  15  4.845807E+05  8.029604E+04  1.351598E+03  1.977567E+05 -1.298853E-09 -2.938262E-09
       178  16  4.704802E+05  7.497924E+04 -2.863377E+03  1.938756E+05  5.908892E-09 -2.188620E-09
       178  17  4.987975E+05  7.914679E+04  3.232009E+03  1.950710E+05  1.384299E-09 -3.042887E-10
       178  18  5.178355E+05  9.273178E+04  9.646478E+03  2.068951E+05 -9.731441E-10 -5.026725E-09
       178  19  4.986713E+05  8.553971E+04  4.074979E+03  2.016656E+05  6.732320E+02  1.182868E+03
       178  20  4.796386E+05  7.199128E+04 -1.593497E+03  1.898277E+05  1.553478E+03  8.687106E+01
       178  21  4.513269E+05  6.786033E+04 -6.943393E+03  1.886186E+05  2.433447E+03 -1.008579E+03
       178  22  4.845757E+05  8.025947E+04  6.058078E+02  1.977705E+05 -1.984482E+02  8.537707E+02
       178  23  4.892180E+05  7.556904E+04  8.192610E+02  1.924493E+05  6.822178E+02 -2.420577E+02
       178  24  4.845807E+05  8.029605E+04  1.351606E+03  1.977567E+05  1.562622E+03 -1.337335E+03
       178  25  4.704802E+05  7.497924E+04 -2.863374E+03  1.938756E+05 -1.070107E+03  5.246819E+02
       178  26  4.987975E+05  7.914679E+04  3.232009E+03  1.950710E+05 -1.890557E+02 -5.709912E+02
       178  27  5.178355E+05  9.273178E+04  9.646484E+03  2.068951E+05  6.917500E+02 -1.666108E+03
       179   1  4.280041E+05  5.911778E+04 -1.258798E+04  1.823645E+05 -2.970912E+03  1.640148E+03
       179   2  4.088415E+05  4.540415E+04 -1.714123E+04  1.703607E+05 -4.988971E+03  2.307013E+03
       179   3  3.807666E+05  4.177921E+04 -2.035691E+04  1.689002E+05 -7.000817E+03  2.958080E+03
       179   4  4.846331E+05  8.024188E+04  1.753798E+03  1.978143E+05 -2.093846E+03  1.971237E+03
       179   5  4.891290E+05  7.548797E+04  3.099878E+03  1.924324E+05 -4.123163E+03  2.633787E+03
       179   6  4.847146E+05  8.082500E+04  5.792456E+03  1.975935E+05 -6.146328E+03  3.280518E+03
       179   7  5.412655E+05  1.013663E+05  1.609539E+04  2.132655E+05 -1.216690E+03  2.302359E+03
       179   8  5.694229E+05  1.055723E+05  2.334052E+04  2.145066E+05 -3.257230E+03  2.960608E+03
       179   9  5.886732E+05  1.198715E+05  3.194097E+04  2.262912E+05 -5.291682E+03  3.603016E+03
       179  10  4.280041E+05  5.911778E+04 -1.258801E+04  1.823645E+05 -2.324660E-09 -2.797870E-09
       179  11  4.088415E+05  4.540413E+04 -1.714128E+04  1.703607E+05  4.611195E-09  1.806240E-09
       179  12  3.807665E+05  4.177919E+04 -2.035701E+04  1.689002E+05  1.112341E-08  7.416502E-09
       179  13  4.846331E+05  8.024188E+04  1.753782E+03  1.978143E+05  3.217138E-09  1.141520E-09
       179  14  4.891290E+05  7.548796E+04  3.099833E+03  1.924324E+05  4.858083E-09 -7.192989E-10
       179  15  4.847146E+05  8.082498E+04  5.792365E+03  1.975935E+05  2.221383E-09  2.112402E-09
       179  16  5.412655E+05  1.013663E+05  1.609538E+04  2.132655E+05  5.741533E-09  5.899181E-09
       179  17  5.694229E+05  1.055723E+05  2.334048E+04  2.145066E+05  9.558301E-10  7.276578E-09
       179  18  5.886732E+05  1.198715E+05  3.194089E+04  2.262912E+05 -7.673107E-09 -2.976241E-09
       179  19  4.280041E+05  5.911778E+04 -1.258798E+04  1.823645E+05  2.970912E+03 -1.640148E+03
       179  20  4.088415E+05  4.540415E+04 -1.714123E+04  1.703607E+05  4.988971E+03 -2.307013E+03
       179  21  3.807666E+05  4.177921E+04 -2.035691E+04  1.689002E+05  7.000817E+03 -2.958080E+03
       179  22  4.846331E+05  8.024188E+04  1.753798E+03  1.978143E+05  2.093846E+03 -1.971237E+03
       179  23  4.891290E+05  7.548797E+04  3.099878E+03  1.924324E+05  4.123163E+03 -2.633787E+03
       179  24  4.847146E+05  8.082500E+04  5.792456E+03  1.975935E+05  6.146328E+03 -3.280518E+03
       179  25  5.412655E+05  1.013663E+05  1.609539E+04  2.132655E+05  1.216690E+03 -2.302359E+03
       179  26  5.694229E+05  1.055723E+05  2.334052E+04  2.145066E+05  3.257230E+03 -2.960608E+03
       179  27  5.886732E+05  1.198715E+05  3.194097E+04  2.262912E+05  5.291682E+03 -3.603016E+03
       180   1  3.568014E+05  3.308643E+04 -2.465745E+04  1.641977E+05 -8.471508E+03  3.287329E+03
       180   2  3.375027E+05  1.755003E+04 -2.474351E+04  1.501894E+05 -1.556019E+04  1.997929E+03
       180   3  3.129233E+05  2.020438E+04 -1.751840E+04  1.448743E+05 -2.251814E+04  3.636412E+02
       180   4  4.851478E+05  7.994583E+04  7.547166E+03  1.981966E+05 -7.506753E+03  3.651336E+03
       180   5  4.883221E+05  7.476269E+04  1.342153E+04  1.923643E+05 -1.483758E+04  2.270404E+03
       180   6  4.862622E+05  8.781638E+04  2.679742E+04  1.952247E+05 -2.203799E+04  5.444704E+02
       180   7  6.135097E+05  1.268059E+05  3.975035E+04  2.322017E+05 -6.541784E+03  4.015419E+03
       180   8  6.391637E+05  1.319770E+05  5.158474E+04  2.345486E+05 -1.411479E+04  2.542954E+03
       180   9  6.596312E+05  1.554313E+05  7.111097E+04  2.455884E+05 -2.155769E+04  7.253610E+02
       180  10  3.568013E+05  3.308640E+04 -2.465760E+04  1.641977E+05  1.975122E-09  7.921243E-09
       180  11  3.375024E+05  1.754996E+04 -2.474397E+04  1.501894E+05 -8.309729E-10  2.939017E-09
       180  12  3.129228E+05  2.020424E+04 -1.751935E+04  1.448743E+05  7.064880E-09  3.347402E-09
       180  13  4.851477E+05  7.994580E+04  7.547035E+03  1.981967E+05  2.723656E-09 -1.736937E-09
       180  14  4.883218E+05  7.476262E+04  1.342110E+04  1.923644E+05  2.509181E-09 -5.804030E-09
       180  15  4.862617E+05  8.781625E+04  2.679651E+04  1.952247E+05 -6.638599E-10 -7.625788E-10
       180  16  6.135097E+05  1.268059E+05  3.975024E+04  2.322017E+05  6.893821E-11 -5.361060E-09
       180  17  6.391635E+05  1.319769E+05  5.158435E+04  2.345486E+05  8.619905E-10  6.418888E-09
       180  18  6.596307E+05  1.554312E+05  7.111010E+04  2.455884E+05 -3.768277E-09 -6.969523E-09
       180  19  3.568014E+05  3.308643E+04 -2.465745E+04  1.641977E+05  8.471508E+03 -3.287329E+03
       180  20  3.375027E+05  1.755003E+04 -2.474351E+04  1.501894E+05  1.556019E+04 -1.997929E+03
       180  21  3.129233E+05  2.020438E+04 -1.751840E+04  1.448743E+05  2.251814E+04 -3.636412E+02
       180  22  4.851478E+05  7.994583E+04  7.547166E+03  1.981966E+05  7.506753E+03 -3.651336E+03
       180  23  4.883221E+05  7.476269E+04  1.342153E+04  1.923643E+05  1.483758E+04 -2.270404E+03
       180  24  4.862622E+05  8.781638E+04  2.679742E+04  1.952247E+05  2.203799E+04 -5.444704E+02
       180  25  6.135097E+05  1.268059E+05  3.975035E+04  2.322017E+05  6.541784E+03 -4.015419E+03
       180  26  6.391637E+05  1.319770E+05  5.158474E+04  2.345486E+05  1.411479E+04 -2.542954E+03
       180  27  6.596312E+05  1.554313E+05  7.111097E+04  2.455884E+05  2.155769E+04 -7.253610E+02
       181   1  2.810011E+05  1.201136E+04 -1.663486E+04  1.596836E+05 -2.968913E+04 -5.579112E+02
       181   2  2.660393E+05 -2.579966E+04  8.417497E+02  1.204341E+05 -5.605697E+04 -1.011973E+04
       181   3  2.863133E+05  5.490387E+04  6.778703E+04  6.346837E+04 -7.986053E+04 -2.648003E+04
       181   4  4.905777E+05  7.593225E+04  3.341188E+04  2.023178E+05 -2.709316E+04  4.217217E+02
       181   5  4.796846E+05  6.688290E+04  5.729038E+04  1.920685E+05 -5.821065E+04 -1.093339E+04
       181   6  5.049496E+05  1.772604E+05  1.343865E+05  1.641072E+05 -8.676455E+04 -2.908870E+04
       181   7  7.001978E+05  1.398531E+05  8.345578E+04  2.449634E+05 -2.449622E+04  1.401566E+03
       181   8  6.933737E+05  1.595724E+05  1.137347E+05  2.637263E+05 -6.036512E+04 -1.174746E+04
       181   9  7.236332E+05  2.996383E+05  2.009807E+05  2.647823E+05 -9.367112E+04 -3.169944E+04
       181  10  2.810002E+05  1.201112E+04 -1.663652E+04  1.596836E+05  5.218755E-10  5.858478E-09
       181  11  2.660359E+05 -2.580061E+04  8.356551E+02  1.204336E+05  1.501905E-09  6.309016E-10
       181  12  2.863062E+05  5.490141E+04  6.777373E+04  6.346667E+04  7.793010E-10  9.315239E-10
       181  13  4.905769E+05  7.593205E+04  3.341050E+04  2.023178E+05  3.611696E-09 -6.335160E-09
       181  14  4.796809E+05  6.688186E+04  5.728380E+04  1.920679E+05 -2.844725E-10  3.022619E-10
       181  15  5.049413E+05  1.772575E+05  1.343708E+05  1.641052E+05  5.150598E-10  1.392891E-09
       181  16  7.001971E+05  1.398529E+05  8.345465E+04  2.449634E+05  6.286803E-10 -9.553484E-09
       181  17  6.933698E+05  1.595713E+05  1.137276E+05  2.637257E+05 -8.997510E-10  8.645297E-10
       181  18  7.236235E+05  2.996349E+05  2.009624E+05  2.647799E+05 -9.250345E-10  2.046846E-09
       181  19  2.810011E+05  1.201136E+04 -1.663486E+04  1.596836E+05  2.968913E+04  5.579112E+02
       181  20  2.660393E+05 -2.579966E+04  8.417497E+02  1.204341E+05  5.605697E+04  1.011973E+04
       181  21  2.863133E+05  5.490387E+04  6.778703E+04  6.346837E+04  7.986053E+04  2.648003E+04
       181  22  4.905777E+05  7.593225E+04  3.341188E+04  2.023178E+05  2.709316E+04 -4.217217E+02
       181  23  4.796846E+05  6.688290E+04  5.729038E+04  1.920685E+05  5.821065E+04  1.093339E+04
       181  24  5.049496E+05  1.772604E+05  1.343865E+05  1.641072E+05  8.676455E+04  2.908870E+04
       181  25  7.001978E+05  1.398531E+05  8.345578E+04  2.449634E+05  2.449622E+04 -1.401566E+03
       181  26  6.933737E+05  1.595724E+05  1.137347E+05  2.637263E+05  6.036512E+04  1.174746E+04
       181  27  7.236332E+05  2.996383E+05  2.009807E+05  2.647823E+05  9.367112E+04  3.169944E+04
       182   1 -1.564656E+05 -7.932387E+05 -1.575029E+05  9.489469E+04 -5.950060E+03 -2.595725E+04
       182   2 -1.009458E+05 -6.393858E+05 -1.044971E+05  5.243410E+04 -1.653454E+04 -9.580606E+03
       182   3 -6.424714E+04 -4.920168E+05 -6.681365E+04  8.572851E+04 -1.161728E+04  6.820497E+03
       182   4 -1.575692E+04 -2.285166E+05 -1.913173E+04  8.779593E+04 -5.967491E+03 -1.235076E+04
       182   5  7.943440E+02 -2.262489E+05 -9.173582E+03  4.992987E+04 -1.653623E+04 -7.491375E+03
       182   6  5.336374E+02 -2.284815E+05 -6.527445E+03  8.781692E+04 -1.160758E+04 -2.611764E+03
       182   7  1.249284E+05  3.364967E+05  1.192168E+05  8.069078E+04 -5.985225E+03  1.268088E+03
       182   8  1.025225E+05  1.870459E+05  8.613862E+04  4.742401E+04 -1.653793E+04 -5.400762E+03
       182   9  6.530965E+04  3.511841E+04  5.375454E+04  8.990623E+04 -1.159794E+04 -1.204800E+04
       182  10 -1.564659E+05 -7.932394E+05 -1.575042E+05  9.489456E+04  3.187669E-10  2.810433E-10
       182  11 -1.009461E+05 -6.393860E+05 -1.044978E+05  5.243397E+04 -1.039767E-09  2.390818E-09
       182  12 -6.424730E+04 -4.920169E+05 -6.681399E+04  8.572857E+04 -1.150624E-10 -3.605019E-10
       182  13 -1.575700E+04 -2.285168E+05 -1.913208E+04  8.779587E+04  4.432239E-10  4.861622E-11
       182  14  7.940353E+02 -2.262491E+05 -9.174201E+03  4.992977E+04 -5.059937E-10  9.972186E-10
       182  15  5.334909E+02 -2.284815E+05 -6.527711E+03  8.781689E+04 -1.018819E-10 -1.118755E-09
       182  16  1.249284E+05  3.364967E+05  1.192167E+05  8.069078E+04  1.949706E-09 -1.885444E-09
       182  17  1.025222E+05  1.870458E+05  8.613805E+04  4.742394E+04  4.269208E-09 -3.180253E-09
       182  18  6.530947E+04  3.511821E+04  5.375402E+04  8.990612E+04 -1.368797E-09 -1.589617E-09
       182  19 -1.564656E+05 -7.932387E+05 -1.575029E+05  9.489469E+04  5.950060E+03  2.595725E+04
       182  20 -1.009458E+05 -6.393858E+05 -1.044971E+05  5.243410E+04  1.653454E+04  9.580606E+03
       182  21 -6.424714E+04 -4.920168E+05 -6.681365E+04  8.572851E+04  1.161728E+04 -6.820497E+03
       182  22 -1.575692E+04 -2.285166E+05 -1.913173E+04  8.779593E+04  5.967491E+03  1.235076E+04
       182  23  7.943440E+02 -2.262489E+05 -9.173582E+03  4.992987E+04  1.653623E+04  7.491375E+03
       182  24  5.336374E+02 -2.284815E+05 -6.527445E+03  8.781692E+04  1.160758E+04  2.611764E+03
       182  25  1.249284E+05  3.364967E+05  1.192168E+05  8.069078E+04  5.985225E+03 -1.268088E+03
       182  26  1.025225E+05  1.870459E+05  8.613862E+04  4.742401E+04  1.653793E+04  5.400762E+03
       182  27  6.530965E+04  3.511841E+04  5.375454E+04  8.990623E+04  1.159794E+04  1.204800E+04
       183   1 -3.134350E+04 -3.502823E+05 -3.408720E+04  8.873130E+04 -5.341833E+03  3.346595E+03
       183   2  7.002480E+03 -1.991865E+05  8.541205E+02  4.969085E+04  1.227094E+03  6.112075E+03
       183   3  4.201715E+04 -4.904815E+04  3.320527E+04  8.700114E+04  7.730034E+03  8.878430E+03
       183   4 -1.200214E+03 -2.276880E+05 -6.014004E+03  8.794380E+04 -5.337129E+03 -1.565646E+03
       183   5  1.178439E+02 -2.271956E+05 -5.552628E+03  4.976786E+04  1.231892E+03  1.248500E+03
       183   6 -1.902467E+03 -2.276904E+05 -7.714173E+03  8.794309E+04  7.734855E+03  4.062868E+03
       183   7  2.894204E+04 -1.050797E+05  2.205830E+04  8.715615E+04 -5.332413E+03 -6.478849E+03
       183   8 -6.766834E+03 -2.552039E+05 -1.195934E+04  4.984487E+04  1.236689E+03 -3.614858E+03
       183   9 -4.582429E+04 -4.063030E+05 -4.863562E+04  8.888477E+04  7.739661E+03 -7.513208E+02
       183  10 -3.134353E+04 -3.502823E+05 -3.408728E+04  8.873131E+04 -2.275697E-09  2.085252E-10
       183  11  7.002468E+03 -1.991865E+05  8.540474E+02  4.969084E+04 -2.674106E-09  5.571663E-10
       183  12  4.201707E+04 -4.904825E+04  3.320501E+04  8.700109E+04 -1.585494E-09  2.403928E-09
       183  13 -1.200246E+03 -2.276880E+05 -6.014062E+03  8.794379E+04 -2.121499E-09  1.071381E-09
       183  14  1.178418E+02 -2.271956E+05 -5.552634E+03  4.976786E+04 -2.937268E-09 -3.707986E-09
       183  15 -1.902536E+03 -2.276904E+05 -7.714317E+03  8.794307E+04 -2.826241E-09 -6.355622E-10
       183  16  2.894199E+04 -1.050797E+05  2.205817E+04  8.715612E+04 -3.712896E-09 -2.361767E-10
       183  17 -6.766839E+03 -2.552039E+05 -1.195937E+04  4.984488E+04 -8.081641E-10 -1.509655E-09
       183  18 -4.582436E+04 -4.063030E+05 -4.863574E+04  8.888478E+04  7.605660E-10 -2.114591E-09
       183  19 -3.134350E+04 -3.502823E+05 -3.408720E+04  8.873130E+04  5.341833E+03 -3.346595E+03
       183  20  7.002480E+03 -1.991865E+05  8.541205E+02  4.969085E+04 -1.227094E+03 -6.112075E+03
       183  21  4.201715E+04 -4.904815E+04  3.320527E+04  8.700114E+04 -7.730034E+03 -8.878430E+03
       183  22 -1.200214E+03 -2.276880E+05 -6.014004E+03  8.794380E+04  5.337129E+03  1.565646E+03
       183  23  1.178439E+02 -2.271956E+05 -5.552628E+03  4.976786E+04 -1.231892E+03 -1.248500E+03
       183  24 -1.902467E+03 -2.276904E+05 -7.714173E+03  8.794309E+04 -7.734855E+03 -4.062868E+03
       183  25  2.894204E+04 -1.050797E+05  2.205830E+04  8.715615E+04  5.332413E+03  6.478849E+03
       183  26 -6.766834E+03 -2.552039E+05 -1.195934E+04  4.984487E+04 -1.236689E+03  3.614858E+03
       183  27 -4.582429E+04 -4.063030E+05 -4.863562E+04  8.888477E+04 -7.739661E+03  7.513208E+02
       184   1  7.960395E+04  9.056327E+04  6.405723E+04  9.118667E+04  1.414232E+04  1.522105E+04
       184   2  1.168171E+05  2.437418E+05  9.423022E+04  4.613995E+04  1.885350E+04  1.010764E+04
       184   3  1.297319E+05  3.919091E+05  1.217342E+05  7.676306E+04  6.699410E+03  4.969953E+03
       184   4  1.066231E+03 -2.290908E+05 -9.002225E+03  8.780347E+04  1.415278E+04  5.441127E+03
       184   5  1.325898E+03 -2.255036E+05 -1.394217E+04  4.994845E+04  1.885109E+04  1.287500E+04
       184   6 -2.489990E+04 -2.291315E+05 -3.026826E+04  8.776832E+04  6.678346E+03  2.028555E+04
       184   7 -7.747849E+04 -5.486499E+05 -8.206800E+04  8.442204E+04  1.416334E+04 -4.333800E+03
       184   8 -1.141807E+05 -6.945454E+05 -1.221292E+05  5.375411E+04  1.884872E+04  1.564029E+04
       184   9 -1.795597E+05 -8.498201E+05 -1.822980E+05  9.876265E+04  6.657817E+03  3.558585E+04
       184  10  7.960367E+04  9.056297E+04  6.405642E+04  9.118650E+04 -2.169346E-09 -7.756306E-09
       184  11  1.168167E+05  2.437416E+05  9.422936E+04  4.613979E+04 -4.468141E-10  4.600634E-09
       184  12  1.297318E+05  3.919091E+05  1.217341E+05  7.676303E+04 -2.732316E-09  6.785821E-09
       184  13  1.066008E+03 -2.290909E+05 -9.002657E+03  8.780341E+04 -5.041138E-10 -1.121220E-09
       184  14  1.325472E+03 -2.255039E+05 -1.394315E+04  4.994826E+04 -1.552776E-09  3.260451E-09
       184  15 -2.490006E+04 -2.291320E+05 -3.026912E+04  8.776821E+04 -8.670476E-10  2.319868E-10
       184  16 -7.747871E+04 -5.486500E+05 -8.206842E+04  8.442209E+04  5.429466E-10  5.634634E-09
       184  17 -1.141812E+05 -6.945458E+05 -1.221303E+05  5.375387E+04 -3.813485E-10 -6.355863E-10
       184  18 -1.795600E+05 -8.498214E+05 -1.823005E+05  9.876246E+04  9.592725E-10 -9.133197E-09
       184  19  7.960395E+04  9.056327E+04  6.405723E+04  9.118667E+04 -1.414232E+04 -1.522105E+04
       184  20  1.168171E+05  2.437418E+05  9.423022E+04  4.613995E+04 -1.885350E+04 -1.010764E+04
       184  21  1.297319E+05  3.919091E+05  1.217342E+05  7.676306E+04 -6.699410E+03 -4.969953E+03
       184  22  1.066231E+03 -2.290908E+05 -9.002225E+03  8.780347E+04 -1.415278E+04 -5.441127E+03
       184  23  1.325898E+03 -2.255036E+05 -1.394217E+04  4.994845E+04 -1.885109E+04 -1.287500E+04
       184  24 -2.489990E+04 -2.291315E+05 -3.026826E+04  8.776832E+04 -6.678346E+03 -2.028555E+04
       184  25 -7.747849E+04 -5.486499E+05 -8.206800E+04  8.442204E+04 -1.416334E+04  4.333800E+03
       184  26 -1.141807E+05 -6.945454E+05 -1.221292E+05  5.375411E+04 -1.884872E+04 -1.564029E+04
       184  27 -1.795597E+05 -8.498201E+05 -1.822980E+05  9.876265E+04 -6.657817E+03 -3.558585E+04
       185   1  3.006056E+05  1.477813E+05  1.346727E+05  3.588342E+04  2.695317E+04 -1.042323E+04
       185   2  2.424122E+05  1.556780E+05  1.138625E+05  4.210918E+04  7.503327E+03 -3.478533E+04
       185   3  1.826554E+05  1.470560E+05  1.016009E+05  6.068423E+04 -1.195473E+04 -4.127732E+04
       185   4 -4.448146E+05 -3.629211E+04 -4.042728E+04  5.799609E+04 -2.816255E+04 -1.046530E+04
       185   5 -4.414417E+05 -7.776847E+03 -1.960276E+04  5.180466E+04 -1.801012E+04 -3.481098E+04
       185   6 -4.447815E+05 -9.311503E+02 -1.079148E+04  5.796345E+04 -7.868056E+03 -4.127676E+04
       185   7 -1.189716E+06 -2.204016E+05 -2.155537E+05  8.008194E+04 -8.321250E+04 -1.051133E+04
       185   8 -1.124845E+06 -1.712591E+05 -1.530879E+05  6.148912E+04 -4.349608E+04 -3.483744E+04
       185   9 -1.071834E+06 -1.489402E+05 -1.231989E+05  5.524538E+04 -3.785393E+03 -4.127623E+04
       185  10  3.006048E+05  1.477810E+05  1.346712E+05  3.588365E+04  3.151413E-10  6.553145E-11
       185  11  2.424118E+05  1.556767E+05  1.138602E+05  4.210940E+04  4.915843E-10 -7.227584E-10
       185  12  1.826548E+05  1.470542E+05  1.015974E+05  6.068384E+04  1.517183E-09 -8.808732E-10
       185  13 -4.448154E+05 -3.629244E+04 -4.042898E+04  5.799585E+04 -1.247288E-09  6.721759E-10
       185  14 -4.414424E+05 -7.778235E+03 -1.960565E+04  5.180416E+04 -3.241857E-10  8.054369E-11
       185  15 -4.447820E+05 -9.329961E+02 -1.079480E+04  5.796319E+04  2.283603E-09  5.025945E-10
       185  16 -1.189723E+06 -2.204036E+05 -2.155669E+05  8.008124E+04 -3.355651E-10  3.315030E-10
       185  17 -1.124848E+06 -1.712609E+05 -1.530937E+05  6.148790E+04  6.666345E-10 -2.078136E-09
       185  18 -1.071835E+06 -1.489420E+05 -1.232021E+05  5.524525E+04 -1.406945E-09 -2.569101E-09
       185  19  3.006056E+05  1.477813E+05  1.346727E+05  3.588342E+04 -2.695317E+04  1.042323E+04
       185  20  2.424122E+05  1.556780E+05  1.138625E+05  4.210918E+04 -7.503327E+03  3.478533E+04
       185  21  1.826554E+05  1.470560E+05  1.016009E+05  6.068423E+04  1.195473E+04  4.127732E+04
       185  22 -4.448146E+05 -3.629211E+04 -4.042728E+04  5.799609E+04  2.816255E+04  1.046530E+04
       185  23 -4.414417E+05 -7.776847E+03 -1.960276E+04  5.180466E+04  1.801012E+04  3.481098E+04
       185  24 -4.447815E+05 -9.311503E+02 -1.079148E+04  5.796345E+04  7.868056E+03  4.127676E+04
       185  25 -1.189716E+06 -2.204016E+05 -2.155537E+05  8.008194E+04  8.321250E+04  1.051133E+04
       185  26 -1.124845E+06 -1.712591E+05 -1.530879E+05  6.148912E+04  4.349608E+04  3.483744E+04
       185  27 -1.071834E+06 -1.489402E+05 -1.231989E+05  5.524538E+04  3.785393E+03  4.127623E+04
       186   1  1.446310E+05  1.369606E+05  9.619952E+04  5.807337E+04 -8.398232E+03 -3.952681E+04
       186   2  8.574375E+04  1.239706E+05  8.719919E+04  5.174896E+04 -8.720131E+03 -3.758138E+04
       186   3  2.673710E+04  1.103470E+05  7.824969E+04  5.895254E+04 -9.044986E+03 -3.407507E+04
       186   4 -4.434082E+05 -1.548806E+03 -8.227694E+03  5.822959E+04 -6.463582E+03 -3.952801E+04
       186   5 -4.431121E+05 -1.664498E+02 -4.533383E+03  5.146419E+04 -4.201897E+03 -3.757892E+04
       186   6 -4.433869E+05  1.335515E+02 -2.583258E+03  5.822753E+04 -1.943154E+03 -3.406827E+04
       186   7 -1.031110E+06 -1.400773E+05 -1.126678E+05  5.838555E+04 -4.530708E+03 -3.952921E+04
       186   8 -9.716935E+05 -1.243186E+05 -9.627562E+04  5.117959E+04  3.126071E+02 -3.757647E+04
       186   9 -9.132936E+05 -1.100917E+05 -8.342351E+04  5.750300E+04  5.153468E+03 -3.406150E+04
       186  10  1.446305E+05  1.369589E+05  9.619646E+04  5.807311E+04 -4.327292E-09 -1.785084E-09
       186  11  8.574329E+04  1.239691E+05  8.719639E+04  5.174870E+04 -2.855987E-09  1.209806E-09
       186  12  2.673670E+04  1.103457E+05  7.824736E+04  5.895229E+04 -9.104185E-10  9.839839E-10
       186  13 -4.434087E+05 -1.550495E+03 -8.230708E+03  5.822938E+04 -2.139947E-09 -1.047202E-09
       186  14 -4.431125E+05 -1.679707E+02 -4.536069E+03  5.146407E+04  8.306307E-10  1.571136E-11
       186  15 -4.433872E+05  1.323044E+02 -2.585445E+03  5.822747E+04  3.169131E-09 -2.081350E-09
       186  16 -1.031110E+06 -1.400790E+05 -1.126708E+05  5.838541E+04  2.902574E-09 -1.376771E-10
       186  17 -9.716939E+05 -1.243201E+05 -9.627827E+04  5.117960E+04  2.084600E-09  6.208473E-10
       186  18 -9.132940E+05 -1.100929E+05 -8.342574E+04  5.750314E+04 -1.088924E-10 -5.087925E-10
       186  19  1.446310E+05  1.369606E+05  9.619952E+04  5.807337E+04  8.398232E+03  3.952681E+04
       186  20  8.574375E+04  1.239706E+05  8.719919E+04  5.174896E+04  8.720131E+03  3.758138E+04
       186  21  2.673710E+04  1.103470E+05  7.824969E+04  5.895254E+04  9.044986E+03  3.407507E+04
       186  22 -4.434082E+05 -1.548806E+03 -8.227694E+03  5.822959E+04  6.463582E+03  3.952801E+04
       186  23 -4.431121E+05 -1.664498E+02 -4.533383E+03  5.146419E+04  4.201897E+03  3.757892E+04
       186  24 -4.433869E+05  1.335515E+02 -2.583258E+03  5.822753E+04  1.943154E+03  3.406827E+04
       186  25 -1.031110E+06 -1.400773E+05 -1.126678E+05  5.838555E+04  4.530708E+03  3.952921E+04
       186  26 -9.716935E+05 -1.243186E+05 -9.627562E+04  5.117959E+04 -3.126071E+02  3.757647E+04
       186  27 -9.132936E+05 -1.100917E+05 -8.342351E+04  5.750300E+04 -5.153468E+03  3.406150E+04
       187   1 -1.182464E+04  1.011887E+05  7.192163E+04  5.878220E+04 -8.465400E+03 -3.155117E+04
       187   2 -7.082330E+04  8.738411E+04  6.257311E+04  5.189217E+04 -8.140782E+03 -2.730524E+04
       187   3 -1.298845E+05  7.360113E+04  5.301077E+04  5.865097E+04 -7.817566E+03 -2.292132E+04
       187   4 -4.432767E+05  9.924907E+01 -1.964260E+03  5.825463E+04 -1.548242E+03 -3.154394E+04
       187   5 -4.432165E+05  1.441782E+02 -1.125430E+03  5.142993E+04 -9.957728E+02 -2.729674E+04
       187   6 -4.432620E+05  1.712199E+02 -6.590052E+02  5.825453E+04 -4.446752E+02 -2.291152E+04
       187   7 -8.745457E+05 -1.010001E+05 -7.585620E+04  5.772737E+04  5.364260E+03 -3.153671E+04
       187   8 -8.154733E+05 -8.710312E+04 -6.482840E+04  5.096792E+04  6.145086E+03 -2.728826E+04
       187   9 -7.565429E+05 -7.326390E+04 -5.433186E+04  5.785825E+04  6.924610E+03 -2.290173E+04
       187  10 -1.182498E+04  1.011876E+05  7.191963E+04  5.878198E+04 -4.599786E-09  2.371351E-09
       187  11 -7.082357E+04  8.738329E+04  6.257159E+04  5.189199E+04  1.461802E-09  2.812389E-09
       187  12 -1.298847E+05  7.360055E+04  5.300967E+04  5.865083E+04  3.315754E-09 -1.657855E-10
       187  13 -4.432770E+05  9.818018E+01 -1.966134E+03  5.825459E+04  1.402275E-09 -2.486457E-09
       187  14 -4.432167E+05  1.433780E+02 -1.126832E+03  5.142991E+04  3.040130E-09  2.527256E-09
       187  15 -4.432621E+05  1.706562E+02 -6.599919E+02  5.825452E+04  1.958376E-09  3.254046E-09
       187  16 -8.745460E+05 -1.010012E+05 -7.585812E+04  5.772751E+04  4.987930E-09  1.632147E-10
       187  17 -8.154735E+05 -8.710393E+04 -6.482987E+04  5.096805E+04 -1.678037E-09  1.781614E-09
       187  18 -7.565430E+05 -7.326448E+04 -5.433294E+04  5.785838E+04 -3.413837E-09  1.684481E-09
       187  19 -1.182464E+04  1.011887E+05  7.192163E+04  5.878220E+04  8.465400E+03  3.155117E+04
       187  20 -7.082330E+04  8.738411E+04  6.257311E+04  5.189217E+04  8.140782E+03  2.730524E+04
       187  21 -1.298845E+05  7.360113E+04  5.301077E+04  5.865097E+04  7.817566E+03  2.292132E+04
       187  22 -4.432767E+05  9.924907E+01 -1.964260E+03  5.825463E+04  1.548242E+03  3.154394E+04
       187  23 -4.432165E+05  1.441782E+02 -1.125430E+03  5.142993E+04  9.957728E+02  2.729674E+04
       187  24 -4.432620E+05  1.712199E+02 -6.590052E+02  5.825453E+04  4.446752E+02  2.291152E+04
       187  25 -8.745457E+05 -1.010001E+05 -7.585620E+04  5.772737E+04 -5.364260E+03  3.153671E+04
       187  26 -8.154733E+05 -8.710312E+04 -6.482840E+04  5.096792E+04 -6.145086E+03  2.728826E+04
       187  27 -7.565429E+05 -7.326390E+04 -5.433186E+04  5.785825E+04 -6.924610E+03  2.290173E+04
       188   1 -1.685198E+05  6.449740E+04  4.629025E+04  5.860310E+04 -7.701081E+03 -2.032689E+04
       188   2 -2.275851E+05  5.066716E+04  3.649636E+04  5.169067E+04 -7.565514E+03 -1.587597E+04
       188   3 -2.866976E+05  3.687840E+04  2.661237E+04  5.845008E+04 -7.430686E+03 -1.141256E+04
       188   4 -4.432464E+05  1.723146E+02 -5.125104E+02  5.825962E+04 -3.423180E+02 -2.031665E+04
       188   5 -4.432145E+05  1.598371E+02 -3.276836E+02  5.142356E+04 -1.865062E+02 -1.586513E+04
       188   6 -4.432379E+05  1.852059E+02 -2.474523E+02  5.825960E+04 -3.142160E+01 -1.140111E+04
       188   7 -7.178985E+05 -6.415675E+04 -4.731755E+04  5.791626E+04  7.013292E+03 -2.030642E+04
       188   8 -6.587981E+05 -5.034993E+04 -3.715307E+04  5.115652E+04  7.190019E+03 -1.585430E+04
       188   9 -5.997539E+05 -3.650926E+04 -2.710790E+04  5.806917E+04  7.366035E+03 -1.138966E+04
       188  10 -1.685199E+05  6.449694E+04  4.628936E+04  5.860297E+04  6.382640E-09 -9.389997E-10
       188  11 -2.275852E+05  5.066687E+04  3.649578E+04  5.169057E+04 -8.687922E-09  3.542413E-09
       188  12 -2.866977E+05  3.687824E+04  2.661202E+04  5.845001E+04 -2.327664E-08  2.073503E-09
       188  13 -4.432465E+05  1.718714E+02 -5.132861E+02  5.825961E+04 -1.092436E-09  2.561124E-10
       188  14 -4.432146E+05  1.595668E+02 -3.281565E+02  5.142356E+04  2.215867E-09  3.736477E-09
       188  15 -4.432379E+05  1.850663E+02 -2.476965E+02  5.825960E+04 -8.334619E-10 -1.980306E-10
       188  16 -7.178987E+05 -6.415720E+04 -4.731842E+04  5.791638E+04 -5.990446E-09  1.192302E-09
       188  17 -6.587983E+05 -5.035021E+04 -3.715364E+04  5.115662E+04  6.084391E-09  3.856475E-10
       188  18 -5.997540E+05 -3.650942E+04 -2.710824E+04  5.806924E+04  2.211967E-08 -1.036214E-09
       188  19 -1.685198E+05  6.449740E+04  4.629025E+04  5.860310E+04  7.701081E+03  2.032689E+04
       188  20 -2.275851E+05  5.066716E+04  3.649636E+04  5.169067E+04  7.565514E+03  1.587597E+04
       188  21 -2.866976E+05  3.687840E+04  2.661237E+04  5.845008E+04  7.430686E+03  1.141256E+04
       188  22 -4.432464E+05  1.723146E+02 -5.125104E+02  5.825962E+04  3.423180E+02  2.031665E+04
       188  23 -4.432145E+05  1.598371E+02 -3.276836E+02  5.142356E+04  1.865062E+02  1.586513E+04
       188  24 -4.432379E+05  1.852059E+02 -2.474523E+02  5.825960E+04  3.142160E+01  1.140111E+04
       188  25 -7.178985E+05 -6.415675E+04 -4.731755E+04  5.791626E+04 -7.013292E+03  2.030642E+04
       188  26 -6.587981E+05 -5.034993E+04 -3.715307E+04  5.115652E+04 -7.190019E+03  1.585430E+04
       188  27 -5.997539E+05 -3.650926E+04 -2.710790E+04  5.806917E+04 -7.366035E+03  1.138966E+04
       189   1 -3.253686E+05  2.777056E+04  1.975605E+04  5.840242E+04 -7.390977E+03 -8.810301E+03
       189   2 -3.844534E+05  1.393414E+04  9.751095E+03  5.147861E+04 -7.251663E+03 -4.342949E+03
       189   3 -4.435958E+05  1.348187E+02 -3.500818E+02  5.823563E+04 -7.112544E+03  1.181640E+02
       189   4 -4.432365E+05  1.877098E+02 -2.379949E+02  5.826156E+04  8.666808E+00 -8.798634E+03
       189   5 -4.432062E+05  1.729059E+02 -2.743976E+02  5.142110E+04  1.373607E+02 -4.331145E+03
       189   6 -4.432342E+05  1.974001E+02 -3.995133E+02  5.826155E+04  2.658725E+02  1.301098E+02
       189   7 -5.610906E+05 -2.739585E+04 -2.023228E+04  5.812072E+04  7.406950E+03 -8.786970E+03
       189   8 -5.019555E+05 -1.358848E+04 -1.029980E+04  5.136361E+04  7.525707E+03 -4.319341E+03
       189   9 -4.428726E+05  2.600107E+02 -4.487400E+02  5.828748E+04  7.644293E+03  1.420563E+02
       189  10 -3.253687E+05  2.777046E+04  1.975580E+04  5.840237E+04  2.880523E-08  1.071294E-10
       189  11 -3.844535E+05  1.393411E+04  9.750961E+03  5.147858E+04  9.655579E-09  3.074157E-10
       189  12 -4.435958E+05  1.348051E+02 -3.501770E+02  5.823563E+04 -7.332725E-09  2.447874E-10
       189  13 -4.432365E+05  1.876267E+02 -2.381404E+02  5.826156E+04  7.067352E-10  2.778452E-09
       189  14 -4.432062E+05  1.728858E+02 -2.744329E+02  5.142110E+04 -8.300675E-10  3.677059E-10
       189  15 -4.432342E+05  1.974000E+02 -3.995135E+02  5.826155E+04  1.380952E-09 -1.171011E-09
       189  16 -5.610907E+05 -2.739594E+04 -2.023253E+04  5.812077E+04 -2.706093E-08 -1.376051E-10
       189  17 -5.019555E+05 -1.358852E+04 -1.029994E+04  5.136363E+04 -7.379922E-09 -2.522704E-09
       189  18 -4.428726E+05  2.599950E+02 -4.488499E+02  5.828748E+04  6.709341E-09 -1.884175E-09
       189  19 -3.253686E+05  2.777056E+04  1.975605E+04  5.840242E+04  7.390977E+03  8.810301E+03
       189  20 -3.844534E+05  1.393414E+04  9.751095E+03  5.147861E+04  7.251663E+03  4.342949E+03
       189  21 -4.435958E+05  1.348187E+02 -3.500818E+02  5.823563E+04  7.112544E+03 -1.181640E+02
       189  22 -4.432365E+05  1.877098E+02 -2.379949E+02  5.826156E+04 -8.666808E+00  8.798634E+03
       189  23 -4.432062E+05  1.729059E+02 -2.743976E+02  5.142110E+04 -1.373607E+02  4.331145E+03
       189  24 -4.432342E+05  1.974001E+02 -3.995133E+02  5.826155E+04 -2.658725E+02 -1.301098E+02
       189  25 -5.610906E+05 -2.739585E+04 -2.023228E+04  5.812072E+04 -7.406950E+03  8.786970E+03
       189  26 -5.019555E+05 -1.358848E+04 -1.029980E+04  5.136361E+04 -7.525707E+03  4.319341E+03
       189  27 -4.428726E+05  2.600107E+02 -4.487400E+02  5.828748E+04 -7.644293E+03 -1.420563E+02
       190   1 -4.822836E+05 -8.976112E+03 -7.327324E+03  5.817434E+04 -7.044971E+03  2.718026E+03
       190   2 -5.413247E+05 -2.282267E+04 -1.768449E+04  5.124973E+04 -6.487640E+03  7.139469E+03
       190   3 -6.004919E+05 -3.669585E+04 -2.842582E+04  5.799942E+04 -5.929915E+03  1.147320E+04
       190   4 -4.432448E+05  2.004735E+02 -5.051346E+02  5.826003E+04  3.434455E+02  2.729957E+03
       190   5 -4.431946E+05  1.824776E+02 -8.464621E+02  5.142299E+04  7.553515E+02  7.150906E+03
       190   6 -4.432487E+05  1.632773E+02 -1.470952E+03  5.826010E+04  1.167702E+03  1.148415E+04
       190   7 -4.042043E+05  9.377005E+03  6.317206E+03  5.834573E+04  7.732312E+03  2.741890E+03
       190   8 -3.450549E+05  2.318714E+04  1.599144E+04  5.159626E+04  7.999452E+03  7.162346E+03
       190   9 -2.859811E+05  3.702111E+04  2.548327E+04  5.852084E+04  8.267062E+03  1.149511E+04
       190  10 -4.822837E+05 -8.976133E+03 -7.327431E+03  5.817436E+04 -1.862884E-11  2.588173E-09
       190  11 -5.413247E+05 -2.282274E+04 -1.768467E+04  5.124977E+04  1.147502E-09  7.544036E-10
       190  12 -6.004920E+05 -3.669600E+04 -2.842613E+04  5.799947E+04  3.533246E-09 -5.669259E-10
       190  13 -4.432448E+05  2.004654E+02 -5.051488E+02  5.826003E+04 -2.198200E-11  1.203306E-09
       190  14 -4.431946E+05  1.824226E+02 -8.465592E+02  5.142298E+04  2.018112E-09  1.131195E-09
       190  15 -4.432488E+05  1.631353E+02 -1.471202E+03  5.826009E+04  6.238031E-10 -3.301487E-10
       190  16 -4.042044E+05  9.376981E+03  6.317079E+03  5.834572E+04  5.782849E-10  1.397342E-09
       190  17 -3.450550E+05  2.318707E+04  1.599123E+04  5.159622E+04  2.983061E-09 -3.032230E-09
       190  18 -2.859812E+05  3.702095E+04  2.548290E+04  5.852076E+04 -2.656297E-09 -1.660608E-09
       190  19 -4.822836E+05 -8.976112E+03 -7.327324E+03  5.817434E+04  7.044971E+03 -2.718026E+03
       190  20 -5.413247E+05 -2.282267E+04 -1.768449E+04  5.124973E+04  6.487640E+03 -7.139469E+03
       190  21 -6.004919E+05 -3.669585E+04 -2.842582E+04  5.799942E+04  5.929915E+03 -1.147320E+04
       190  22 -4.432448E+05  2.004735E+02 -5.051346E+02  5.826003E+04 -3.434455E+02 -2.729957E+03
       190  23 -4.431946E+05  1.824776E+02 -8.464621E+02  5.142299E+04 -7.553515E+02 -7.150906E+03
       190  24 -4.432487E+05  1.632773E+02 -1.470952E+03  5.826010E+04 -1.167702E+03 -1.148415E+04
       190  25 -4.042043E+05  9.377005E+03  6.317206E+03  5.834573E+04 -7.732312E+03 -2.741890E+03
       190  26 -3.450549E+05  2.318714E+04  1.599144E+04  5.159626E+04 -7.999452E+03 -7.162346E+03
       190  27 -2.859811E+05  3.702111E+04  2.548327E+04  5.852084E+04 -8.267062E+03 -1.149511E+04
       191   1 -6.392750E+05 -4.579884E+04 -3.581466E+04  5.780864E+04 -5.755315E+03  1.402937E+04
       191   2 -6.979706E+05 -5.993130E+04 -4.784821E+04  5.128885E+04 -2.413455E+03  1.789472E+04
       191   3 -7.574100E+05 -7.514857E+04 -6.234191E+04  5.837177E+04  9.301291E+02  2.075782E+04
       191   4 -4.433303E+05  1.920897E+02 -1.932796E+03  5.824385E+04  1.461328E+03  1.404024E+04
       191   5 -4.431058E+05 -3.239586E+01 -3.386548E+03  5.144360E+04  3.145286E+03  1.790245E+04
       191   6 -4.433409E+05 -1.053426E+03 -6.148078E+03  5.824575E+04  4.831301E+03  2.076262E+04
       191   7 -2.473479E+05  4.618098E+04  3.194794E+04  5.867919E+04  8.680180E+03  1.405111E+04
       191   8 -1.881772E+05  5.986300E+04  4.107293E+04  5.159839E+04  8.706243E+03  1.791018E+04
       191   9 -1.291755E+05  7.303625E+04  5.004205E+04  5.811962E+04  8.734391E+03  2.076742E+04
       191  10 -6.392750E+05 -4.579906E+04 -3.581509E+04  5.780871E+04 -8.498618E-10  2.125123E-09
       191  11 -6.979707E+05 -5.993165E+04 -4.784882E+04  5.128888E+04  3.820068E-09  5.334951E-10
       191  12 -7.574101E+05 -7.514903E+04 -6.234272E+04  5.837176E+04  5.290683E-09  3.565523E-09
       191  13 -4.433304E+05  1.918775E+02 -1.933170E+03  5.824384E+04 -1.085138E-09  5.189307E-10
       191  14 -4.431059E+05 -3.274260E+01 -3.387169E+03  5.144356E+04  9.219456E-10  1.707865E-09
       191  15 -4.433410E+05 -1.053895E+03 -6.148932E+03  5.824567E+04  1.268098E-09  7.112895E-10
       191  16 -2.473480E+05  4.618075E+04  3.194742E+04  5.867909E+04  2.102432E-09 -2.777201E-10
       191  17 -1.881774E+05  5.986264E+04  4.107219E+04  5.159827E+04 -2.816769E-09  1.103557E-10
       191  18 -1.291757E+05  7.303576E+04  5.004109E+04  5.811948E+04 -5.133376E-09 -3.391651E-09
       191  19 -6.392750E+05 -4.579884E+04 -3.581466E+04  5.780864E+04  5.755315E+03 -1.402937E+04
       191  20 -6.979706E+05 -5.993130E+04 -4.784821E+04  5.128885E+04  2.413455E+03 -1.789472E+04
       191  21 -7.574100E+05 -7.514857E+04 -6.234191E+04  5.837177E+04 -9.301291E+02 -2.075782E+04
       191  22 -4.433303E+05  1.920897E+02 -1.932796E+03  5.824385E+04 -1.461328E+03 -1.404024E+04
       191  23 -4.431058E+05 -3.239586E+01 -3.386548E+03  5.144360E+04 -3.145286E+03 -1.790245E+04
       191  24 -4.433409E+05 -1.053426E+03 -6.148078E+03  5.824575E+04 -4.831301E+03 -2.076262E+04
       191  25 -2.473479E+05  4.618098E+04  3.194794E+04  5.867919E+04 -8.680180E+03 -1.405111E+04
       191  26 -1.881772E+05  5.986300E+04  4.107293E+04  5.159839E+04 -8.706243E+03 -1.791018E+04
       191  27 -1.291755E+05  7.303625E+04  5.004205E+04  5.811962E+04 -8.734391E+03 -2.076742E+04
       192   1 -7.976042E+05 -8.404916E+04 -7.184137E+04  5.601843E+04  5.970891E+02  2.281556E+04
       192   2 -8.525322E+05 -1.040655E+05 -9.553833E+04  5.883248E+04  2.716051E+04  2.030316E+04
       192   3 -9.158199E+05 -1.435839E+05 -1.414219E+05  7.450203E+04  5.373435E+04  6.308259E+03
       192   4 -4.443671E+05 -5.891955E+02 -8.064005E+03  5.807491E+04  5.878985E+03  2.282199E+04
       192   5 -4.418492E+05 -5.712328E+03 -1.464516E+04  5.166476E+04  1.345196E+04  2.028325E+04
       192   6 -4.443885E+05 -2.703069E+04 -3.021002E+04  5.811065E+04  2.103812E+04  6.264704E+03
       192   7 -9.100831E+04  8.286381E+04  5.570858E+04  6.013255E+04  1.116381E+04  2.282844E+04
       192   8 -3.100384E+04  9.263094E+04  6.624053E+04  4.449214E+04 -2.654711E+02  2.026367E+04
       192   9  2.725054E+04  8.950817E+04  8.099072E+04  4.170667E+04 -1.168283E+04  6.222895E+03
       192  10 -7.976044E+05 -8.404972E+04 -7.184235E+04  5.601842E+04  2.806533E-08  2.929247E-09
       192  11 -8.525331E+05 -1.040662E+05 -9.554050E+04  5.883204E+04  2.941156E-09 -1.401213E-09
       192  12 -9.158230E+05 -1.435847E+05 -1.414274E+05  7.450176E+04 -2.775956E-08 -3.062949E-10
       192  13 -4.443673E+05 -5.897640E+02 -8.065048E+03  5.807481E+04 -2.472156E-09  5.092182E-09
       192  14 -4.418495E+05 -5.712819E+03 -1.464627E+04  5.166454E+04 -9.452334E-10 -3.364622E-09
       192  15 -4.443890E+05 -2.703085E+04 -3.021092E+04  5.811054E+04 -5.058336E-10  2.097433E-09
       192  16 -9.100858E+04  8.286321E+04  5.570737E+04  6.013235E+04 -3.017547E-08 -1.350981E-10
       192  17 -3.100395E+04  9.263050E+04  6.623976E+04  4.449214E+04 -4.274419E-11  2.779269E-10
       192  18  2.725039E+04  8.950809E+04  8.099039E+04  4.170673E+04  2.775747E-08 -9.601821E-10
       192  19 -7.976042E+05 -8.404916E+04 -7.184137E+04  5.601843E+04 -5.970891E+02 -2.281556E+04
       192  20 -8.525322E+05 -1.040655E+05 -9.553833E+04  5.883248E+04 -2.716051E+04 -2.030316E+04
       192  21 -9.158199E+05 -1.435839E+05 -1.414219E+05  7.450203E+04 -5.373435E+04 -6.308259E+03
       192  22 -4.443671E+05 -5.891955E+02 -8.064005E+03  5.807491E+04 -5.878985E+03 -2.282199E+04
       192  23 -4.418492E+05 -5.712328E+03 -1.464516E+04  5.166476E+04 -1.345196E+04 -2.028325E+04
       192  24 -4.443885E+05 -2.703069E+04 -3.021002E+04  5.811065E+04 -2.103812E+04 -6.264704E+03
       192  25 -9.100831E+04  8.286381E+04  5.570858E+04  6.013255E+04 -1.116381E+04 -2.282844E+04
       192  26 -3.100384E+04  9.263094E+04  6.624053E+04  4.449214E+04  2.654711E+02 -2.026367E+04
       192  27  2.725054E+04  8.950817E+04  8.099072E+04  4.170667E+04  1.168283E+04 -6.222895E+03
       193   1 -1.026613E+05  7.314035E+04  5.942649E+04  8.141113E+02 -2.814853E+04 -6.102765E+03
       193   2 -1.343057E+05  1.154215E+05  7.746172E+04  5.549937E+03 -2.272057E+04 -1.884022E+04
       193   3 -1.795871E+05  1.057916E+05  7.900743E+04  2.928029E+04 -1.730885E+04 -1.900210E+04
       193   4 -5.986745E+05 -5.025863E+04 -6.167144E+04  2.141503E+04 -4.228323E+04 -6.121739E+03
       193   5 -5.910256E+05  3.043291E+03 -2.764843E+04  1.188096E+04 -2.750971E+04 -1.884829E+04
       193   6 -5.986499E+05  2.789403E+03 -1.661858E+04  2.134281E+04 -1.275183E+04 -1.899538E+04
       193   7 -1.094462E+06 -1.736741E+05 -1.827863E+05  4.199937E+04 -5.640664E+04 -6.141659E+03
       193   8 -1.047552E+06 -1.093493E+05 -1.327723E+05  1.820722E+04 -3.229534E+04 -1.885646E+04
       193   9 -1.017550E+06 -1.002247E+05 -1.122559E+05  1.341066E+04 -8.197863E+03 -1.898878E+04
       193  10 -1.026622E+05  7.314010E+04  5.942493E+04  8.139730E+02 -3.646173E-09  6.895611E-10
       193  11 -1.343063E+05  1.154210E+05  7.746009E+04  5.549592E+03  6.917996E-11  5.072844E-09
       193  12 -1.795875E+05  1.057911E+05  7.900618E+04  2.928003E+04  3.810253E-09  3.018596E-09
       193  13 -5.986765E+05 -5.025915E+04 -6.167487E+04  2.141482E+04  1.064193E-09 -1.919713E-09
       193  14 -5.910265E+05  3.042706E+03 -2.765052E+04  1.188054E+04  3.375130E-09 -4.294212E-09
       193  15 -5.986502E+05  2.788972E+03 -1.661956E+04  2.134261E+04  7.709466E-11 -7.994144E-10
       193  16 -1.094465E+06 -1.736750E+05 -1.827924E+05  4.199909E+04  2.966609E-09  9.471469E-11
       193  17 -1.047553E+06 -1.093500E+05 -1.327749E+05  1.820673E+04 -8.468523E-10  2.542782E-09
       193  18 -1.017550E+06 -1.002251E+05 -1.122568E+05  1.341054E+04 -3.791423E-09 -9.505286E-10
       193  19 -1.026613E+05  7.314035E+04  5.942649E+04  8.141113E+02  2.814853E+04  6.102765E+03
       193  20 -1.343057E+05  1.154215E+05  7.746172E+04  5.549937E+03  2.272057E+04  1.884022E+04
       193  21 -1.795871E+05  1.057916E+05  7.900743E+04  2.928029E+04  1.730885E+04  1.900210E+04
       193  22 -5.986745E+05 -5.025863E+04 -6.167144E+04  2.141503E+04  4.228323E+04  6.121739E+03
       193  23 -5.910256E+05  3.043291E+03 -2.764843E+04  1.188096E+04  2.750971E+04  1.884829E+04
       193  24 -5.986499E+05  2.789403E+03 -1.661858E+04  2.134281E+04  1.275183E+04  1.899538E+04
       193  25 -1.094462E+06 -1.736741E+05 -1.827863E+05  4.199937E+04  5.640664E+04  6.141659E+03
       193  26 -1.047552E+06 -1.093493E+05 -1.327723E+05  1.820722E+04  3.229534E+04  1.885646E+04
       193  27 -1.017550E+06 -1.002247E+05 -1.122559E+05  1.341066E+04  8.197863E+03  1.898878E+04
       194   1 -2.127641E+05  9.058042E+04  7.443184E+04  2.077436E+04 -1.101738E+04 -1.643175E+04
       194   2 -2.509129E+05  8.484701E+04  7.158091E+04  1.184625E+04 -7.889350E+03 -1.518236E+04
       194   3 -2.904448E+05  7.531534E+04  6.573802E+04  2.259769E+04 -4.763567E+03 -1.331974E+04
       194   4 -5.955774E+05 -3.570267E+03 -1.336279E+04  2.152018E+04 -1.031585E+04 -1.643127E+04
       194   5 -5.948403E+05  2.956434E+02 -7.093570E+03  1.167655E+04 -6.733702E+03 -1.518081E+04
       194   6 -5.955682E+05  2.830098E+02 -4.133389E+03  2.151322E+04 -3.153620E+03 -1.331697E+04
       194   7 -9.782549E+05 -9.773117E+04 -1.011671E+05  2.226547E+04 -9.614742E+03 -1.643079E+04
       194   8 -9.386580E+05 -8.426396E+04 -8.577581E+04  1.150690E+04 -5.578689E+03 -1.517926E+04
       194   9 -9.006052E+05 -7.475580E+04 -7.401090E+04  2.042924E+04 -1.544457E+03 -1.331420E+04
       194  10 -2.127643E+05  9.058010E+04  7.443111E+04  2.077422E+04  3.210083E-09  1.978511E-10
       194  11 -2.509130E+05  8.484675E+04  7.158036E+04  1.184616E+04  3.417518E-09  8.980692E-10
       194  12 -2.904448E+05  7.531515E+04  6.573764E+04  2.259763E+04  7.118435E-09  1.939808E-09
       194  13 -5.955776E+05 -3.570585E+03 -1.336349E+04  2.152004E+04  4.693567E-10  6.531169E-09
       194  14 -5.948404E+05  2.953838E+02 -7.094088E+03  1.167647E+04  8.103754E-10 -8.173457E-09
       194  15 -5.955682E+05  2.828168E+02 -4.133740E+03  2.151318E+04  1.205969E-09  6.149700E-09
       194  16 -9.782551E+05 -9.773148E+04 -1.011677E+05  2.226535E+04 -3.319310E-09 -5.356977E-09
       194  17 -9.386581E+05 -8.426421E+04 -8.577630E+04  1.150683E+04 -3.035826E-09 -4.146386E-09
       194  18 -9.006053E+05 -7.475599E+04 -7.401124E+04  2.042922E+04 -8.564741E-09 -1.063529E-09
       194  19 -2.127641E+05  9.058042E+04  7.443184E+04  2.077436E+04  1.101738E+04  1.643175E+04
       194  20 -2.509129E+05  8.484701E+04  7.158091E+04  1.184625E+04  7.889350E+03  1.518236E+04
       194  21 -2.904448E+05  7.531534E+04  6.573802E+04  2.259769E+04  4.763567E+03  1.331974E+04
       194  22 -5.955774E+05 -3.570267E+03 -1.336279E+04  2.152018E+04  1.031585E+04  1.643127E+04
       194  23 -5.948403E+05  2.956434E+02 -7.093570E+03  1.167655E+04  6.733702E+03  1.518081E+04
       194  24 -5.955682E+05  2.830098E+02 -4.133389E+03  2.151322E+04  3.153620E+03  1.331697E+04
       194  25 -9.782549E+05 -9.773117E+04 -1.011671E+05  2.226547E+04  9.614742E+03  1.643079E+04
       194  26 -9.386580E+05 -8.426396E+04 -8.577581E+04  1.150690E+04  5.578689E+03  1.517926E+04
       194  27 -9.006052E+05 -7.475580E+04 -7.401090E+04  2.042924E+04  1.544457E+03  1.331420E+04
       195   1 -3.266694E+05  6.584965E+04  5.813082E+04  2.196627E+04 -3.939780E+03 -1.210554E+04
       195   2 -3.657584E+05  5.647388E+04  5.063878E+04  1.200887E+04 -3.063045E+03 -1.016681E+04
       195   3 -4.050900E+05  4.689625E+04  4.250739E+04  2.194955E+04 -2.187115E+03 -8.193599E+03
       195   4 -5.952927E+05 -1.690027E+02 -3.199421E+03  2.156409E+04 -2.511402E+03 -1.210295E+04
       195   5 -5.951662E+05  7.492059E+01 -1.822278E+03  1.161452E+04 -1.609407E+03 -1.016394E+04
       195   6 -5.952875E+05  1.127488E+02 -1.102036E+03  2.156349E+04 -7.081619E+02 -8.190434E+03
       195   7 -8.638492E+05 -6.619266E+04 -6.453438E+04  2.116205E+04 -1.083637E+03 -1.210036E+04
       195   8 -8.245252E+05 -5.632769E+04 -5.428677E+04  1.122030E+04 -1.563020E+02 -1.016107E+04
       195   9 -7.854515E+05 -4.667328E+04 -4.471384E+04  2.117753E+04  7.703413E+02 -8.187270E+03
       195  10 -3.266694E+05  6.584949E+04  5.813052E+04  2.196623E+04  8.816304E-09 -5.032141E-09
       195  11 -3.657585E+05  5.647376E+04  5.063857E+04  1.200885E+04 -1.850968E-09 -5.650773E-09
       195  12 -4.050900E+05  4.689618E+04  4.250726E+04  2.194954E+04 -1.231538E-08 -2.196042E-09
       195  13 -5.952928E+05 -1.691616E+02 -3.199708E+03  2.156406E+04  1.101633E-09  3.164208E-09
       195  14 -5.951662E+05  7.480899E+01 -1.822477E+03  1.161451E+04 -3.398644E-10 -4.543009E-10
       195  15 -5.952875E+05  1.126766E+02 -1.102163E+03  2.156348E+04  3.782222E-09 -2.013077E-09
       195  16 -8.638492E+05 -6.619282E+04 -6.453465E+04  2.116203E+04 -8.329074E-09 -4.526245E-09
       195  17 -8.245252E+05 -5.632781E+04 -5.428697E+04  1.122029E+04  2.986214E-09  5.213784E-09
       195  18 -7.854515E+05 -4.667335E+04 -4.471397E+04  2.117753E+04  1.263404E-08  9.388436E-09
       195  19 -3.266694E+05  6.584965E+04  5.813082E+04  2.196627E+04  3.939780E+03  1.210554E+04
       195  20 -3.657584E+05  5.647388E+04  5.063878E+04  1.200887E+04  3.063045E+03  1.016681E+04
       195  21 -4.050900E+05  4.689625E+04  4.250739E+04  2.194955E+04  2.187115E+03  8.193599E+03
       195  22 -5.952927E+05 -1.690027E+02 -3.199421E+03  2.156409E+04  2.511402E+03  1.210295E+04
       195  23 -5.951662E+05  7.492059E+01 -1.822278E+03  1.161452E+04  1.609407E+03  1.016394E+04
       195  24 -5.952875E+05  1.127488E+02 -1.102036E+03  2.156349E+04  7.081619E+02  8.190434E+03
       195  25 -8.638492E+05 -6.619266E+04 -6.453438E+04  2.116205E+04  1.083637E+03  1.210036E+04
       195  26 -8.245252E+05 -5.632769E+04 -5.428677E+04  1.122030E+04  1.563020E+02  1.016107E+04
       195  27 -7.854515E+05 -4.667328E+04 -4.471384E+04  2.117753E+04 -7.703413E+02  8.187270E+03
       196   1 -4.418364E+05  3.778032E+04  3.408537E+04  2.186839E+04 -2.004693E+03 -7.036996E+03
       196   2 -4.812084E+05  2.808621E+04  2.543509E+04  1.178880E+04 -1.699533E+03 -5.053959E+03
       196   3 -5.207108E+05  1.845949E+04  1.657821E+04  2.172265E+04 -1.394748E+03 -3.066940E+03
       196   4 -5.952588E+05  8.320280E+01 -8.860552E+02  2.158928E+04 -5.320418E+02 -7.033732E+03
       196   5 -5.951913E+05  6.208948E+01 -6.316886E+02  1.158242E+04 -2.240268E+02 -5.050574E+03
       196   6 -5.952563E+05  1.079603E+02 -5.858778E+02  2.158922E+04  8.363167E+01 -3.063428E+03
       196   7 -7.486593E+05 -3.761554E+04 -3.585901E+04  2.131022E+04  9.402485E+02 -7.030469E+03
       196   8 -7.091622E+05 -2.796293E+04 -2.669931E+04  1.137607E+04  1.251210E+03 -5.047190E+03
       196   9 -6.697967E+05 -1.824396E+04 -1.775032E+04  2.145581E+04  1.561836E+03 -3.059916E+03
       196  10 -4.418365E+05  3.778027E+04  3.408527E+04  2.186838E+04 -3.633386E-09 -5.604751E-09
       196  11 -4.812084E+05  2.808618E+04  2.543503E+04  1.178879E+04 -1.063357E-08  1.683592E-09
       196  12 -5.207108E+05  1.845948E+04  1.657818E+04  2.172264E+04 -1.255803E-08 -1.237857E-09
       196  13 -5.952588E+05  8.314962E+01 -8.861487E+02  2.158927E+04  1.193959E-09  3.054469E-09
       196  14 -5.951913E+05  6.206208E+01 -6.317366E+02  1.158242E+04  1.964111E-09 -1.037142E-08
       196  15 -5.952563E+05  1.079502E+02 -5.858955E+02  2.158922E+04  3.367285E-09 -8.558853E-09
       196  16 -7.486594E+05 -3.761560E+04 -3.585910E+04  2.131023E+04  3.065174E-09  5.383799E-09
       196  17 -7.091622E+05 -2.796296E+04 -2.669936E+04  1.137608E+04  9.617515E-09  5.545590E-09
       196  18 -6.697967E+05 -1.824397E+04 -1.775034E+04  2.145582E+04  1.204538E-08  2.825101E-10
       196  19 -4.418364E+05  3.778032E+04  3.408537E+04  2.186839E+04  2.004693E+03  7.036996E+03
       196  20 -4.812084E+05  2.808621E+04  2.543509E+04  1.178880E+04  1.699533E+03  5.053959E+03
       196  21 -5.207108E+05  1.845949E+04  1.657821E+04  2.172265E+04  1.394748E+03  3.066940E+03
       196  22 -5.952588E+05  8.320280E+01 -8.860552E+02  2.158928E+04  5.320418E+02  7.033732E+03
       196  23 -5.951913E+05  6.208948E+01 -6.316886E+02  1.158242E+04  2.240268E+02  5.050574E+03
       196  24 -5.952563E+05  1.079603E+02 -5.858778E+02  2.158922E+04 -8.363167E+01  3.063428E+03
       196  25 -7.486593E+05 -3.761554E+04 -3.585901E+04  2.131022E+04 -9.402485E+02  7.030469E+03
       196  26 -7.091622E+05 -2.796293E+04 -2.669931E+04  1.137607E+04 -1.251210E+03  5.047190E+03
       196  27 -6.697967E+05 -1.824396E+04 -1.775032E+04  2.145581E+04 -1.561836E+03  3.059916E+03
       197   1 -5.576289E+05  9.338424E+03  7.859659E+03  2.165459E+04 -1.288233E+03 -1.908970E+03
       197   2 -5.970581E+05 -3.921848E+02 -1.304395E+03  1.154817E+04 -8.592155E+02  8.098850E+01
       197   3 -6.366469E+05 -1.006910E+04 -1.076143E+04  2.149327E+04 -4.302242E+02  2.069886E+03
       197   4 -5.952618E+05  1.086539E+02 -6.314844E+02  2.159763E+04  1.909042E+02 -1.905419E+03
       197   5 -5.951811E+05  6.946777E+01 -8.750296E+02  1.157190E+04  6.190792E+02  8.453238E+01
       197   6 -5.952619E+05  8.407640E+01 -1.411050E+03  2.159769E+04  1.047256E+03  2.073429E+03
       197   7 -6.328933E+05 -9.121213E+03 -9.122711E+03  2.154067E+04  1.669952E+03 -1.901869E+03
       197   8 -5.933041E+05  5.311213E+02 -4.456561E+02  1.159563E+04  2.097378E+03  8.807637E+01
       197   9 -5.538753E+05  1.023714E+04  7.939231E+03  2.170212E+04  2.524833E+03  2.076973E+03
       197  10 -5.576289E+05  9.338420E+03  7.859649E+03  2.165459E+04  7.181777E-09  1.551691E-09
       197  11 -5.970581E+05 -3.921850E+02 -1.304396E+03  1.154817E+04  5.728838E-09 -2.911419E-09
       197  12 -6.366469E+05 -1.006910E+04 -1.076144E+04  2.149327E+04 -8.362378E-10  3.023811E-10
       197  13 -5.952618E+05  1.086500E+02 -6.314913E+02  2.159763E+04  1.902500E-09  1.994770E-10
       197  14 -5.951811E+05  6.946766E+01 -8.750303E+02  1.157190E+04  9.857145E-10 -5.220207E-09
       197  15 -5.952619E+05  8.407149E+01 -1.411061E+03  2.159769E+04  4.602576E-09 -1.674765E-09
       197  16 -6.328933E+05 -9.121217E+03 -9.122723E+03  2.154067E+04 -6.253736E-09 -4.693903E-10
       197  17 -5.933041E+05  5.311201E+02 -4.456644E+02  1.159563E+04 -5.714001E-09 -9.326278E-09
       197  18 -5.538753E+05  1.023713E+04  7.939211E+03  2.170212E+04  1.139736E-09 -5.510962E-09
       197  19 -5.576289E+05  9.338424E+03  7.859659E+03  2.165459E+04  1.288233E+03  1.908970E+03
       197  20 -5.970581E+05 -3.921848E+02 -1.304395E+03  1.154817E+04  8.592155E+02 -8.098850E+01
       197  21 -6.366469E+05 -1.006910E+04 -1.076143E+04  2.149327E+04  4.302242E+02 -2.069886E+03
       197  22 -5.952618E+05  1.086539E+02 -6.314844E+02  2.159763E+04 -1.909042E+02  1.905419E+03
       197  23 -5.951811E+05  6.946777E+01 -8.750296E+02  1.157190E+04 -6.190792E+02 -8.453238E+01
       197  24 -5.952619E+05  8.407640E+01 -1.411050E+03  2.159769E+04 -1.047256E+03 -2.073429E+03
       197  25 -6.328933E+05 -9.121213E+03 -9.122711E+03  2.154067E+04 -1.669952E+03  1.901869E+03
       197  26 -5.933041E+05  5.311213E+02 -4.456561E+02  1.159563E+04 -2.097378E+03 -8.807637E+01
       197  27 -5.538753E+05  1.023714E+04  7.939231E+03  2.170212E+04 -2.524833E+03 -2.076973E+03
       198   1 -6.736110E+05 -1.914040E+04 -1.984092E+04  2.133526E+04 -1.487527E+02  3.230607E+03
       198   2 -7.128305E+05 -2.883525E+04 -3.002988E+04  1.133374E+04  1.408596E+03  5.217001E+03
       198   3 -7.524656E+05 -3.895032E+04 -4.136356E+04  2.134187E+04  2.966282E+03  7.177684E+03
       198   4 -5.953190E+05  1.346255E+02 -1.818736E+03  2.158797E+04  1.334814E+03  3.234125E+03
       198   5 -5.951140E+05  1.113106E+02 -3.104263E+03  1.158381E+04  2.873287E+03  5.220350E+03
       198   6 -5.953221E+05 -3.286118E+02 -5.520958E+03  2.158905E+04  4.412195E+03  7.180873E+03
       198   7 -5.170213E+05  1.940922E+04  1.620305E+04  2.184071E+04  2.818566E+03  3.237644E+03
       198   8 -4.773846E+05  2.905690E+04  2.382046E+04  1.183391E+04  4.338254E+03  5.223701E+03
       198   9 -4.381557E+05  3.829139E+04  3.032004E+04  2.183629E+04  5.858471E+03  7.184063E+03
       198  10 -6.736110E+05 -1.914041E+04 -1.984094E+04  2.133526E+04 -1.908645E-09  1.254240E-09
       198  11 -7.128305E+05 -2.883528E+04 -3.002994E+04  1.133374E+04  8.165217E-10 -6.970978E-09
       198  12 -7.524657E+05 -3.895038E+04 -4.136368E+04  2.134185E+04  3.725172E-09 -3.191972E-10
       198  13 -5.953190E+05  1.346138E+02 -1.818759E+03  2.158797E+04  1.941322E-10 -1.490580E-09
       198  14 -5.951140E+05  1.112791E+02 -3.104330E+03  1.158379E+04 -6.146665E-10  3.363752E-09
       198  15 -5.953222E+05 -3.286724E+02 -5.521092E+03  2.158903E+04  1.241448E-09 -1.515183E-10
       198  16 -5.170213E+05  1.940921E+04  1.620301E+04  2.184070E+04  6.018422E-10  5.176537E-09
       198  17 -4.773846E+05  2.905687E+04  2.382037E+04  1.183389E+04 -3.136465E-09 -2.151897E-09
       198  18 -4.381557E+05  3.829132E+04  3.031988E+04  2.183625E+04 -4.331549E-09  4.295950E-09
       198  19 -6.736110E+05 -1.914040E+04 -1.984092E+04  2.133526E+04  1.487527E+02 -3.230607E+03
       198  20 -7.128305E+05 -2.883525E+04 -3.002988E+04  1.133374E+04 -1.408596E+03 -5.217001E+03
       198  21 -7.524656E+05 -3.895032E+04 -4.136356E+04  2.134187E+04 -2.966282E+03 -7.177684E+03
       198  22 -5.953190E+05  1.346255E+02 -1.818736E+03  2.158797E+04 -1.334814E+03 -3.234125E+03
       198  23 -5.951140E+05  1.113106E+02 -3.104263E+03  1.158381E+04 -2.873287E+03 -5.220350E+03
       198  24 -5.953221E+05 -3.286118E+02 -5.520958E+03  2.158905E+04 -4.412195E+03 -7.180873E+03
       198  25 -5.170213E+05  1.940922E+04  1.620305E+04  2.184071E+04 -2.818566E+03 -3.237644E+03
       198  26 -4.773846E+05  2.905690E+04  2.382046E+04  1.183391E+04 -4.338254E+03 -5.223701E+03
       198  27 -4.381557E+05  3.829139E+04  3.032004E+04  2.183629E+04 -5.858471E+03 -7.184063E+03
       199   1 -7.897090E+05 -4.725323E+04 -5.160905E+04  2.014389E+04  3.933784E+03  8.386881E+03
       199   2 -8.275898E+05 -5.679840E+04 -6.562666E+04  1.177888E+04  1.049568E+04  1.029729E+04
       199   3 -8.681151E+05 -7.319146E+04 -8.565041E+04  2.329695E+04  1.705878E+04  1.172487E+04
       199   4 -5.958071E+05  4.555770E+02 -7.152145E+03  2.155617E+04  5.523536E+03  8.390286E+03
       199   5 -5.945200E+05  5.187278E+02 -1.228910E+04  1.162185E+04  1.172864E+04  1.029966E+04
       199   6 -5.958155E+05 -6.202311E+03 -2.318239E+04  2.157026E+04  1.793536E+04  1.172626E+04
       199   7 -4.018702E+05  4.816177E+04  3.730229E+04  2.296887E+04  7.113782E+03  8.393697E+03
       199   8 -3.613998E+05  5.783208E+04  4.104491E+04  1.146474E+04  1.296206E+04  1.030203E+04
       199   9 -3.234472E+05  6.078168E+04  3.928075E+04  1.984277E+04  1.881233E+04  1.172764E+04
       199  10 -7.897091E+05 -4.725331E+04 -5.160921E+04  2.014386E+04  1.509026E-08  6.790737E-10
       199  11 -8.275900E+05 -5.679855E+04 -6.562707E+04  1.177879E+04  3.038749E-09  7.746536E-09
       199  12 -8.681154E+05 -7.319169E+04 -8.565122E+04  2.329679E+04 -9.754084E-09  9.217406E-10
       199  13 -5.958071E+05  4.554933E+02 -7.152334E+03  2.155613E+04 -2.688064E-09 -4.493839E-09
       199  14 -5.945202E+05  5.185770E+02 -1.228956E+04  1.162176E+04 -3.889921E-09  8.066044E-09
       199  15 -5.958159E+05 -6.202545E+03 -2.318325E+04  2.157009E+04  2.858294E-09  1.591083E-09
       199  16 -4.018703E+05  4.816168E+04  3.730207E+04  2.296883E+04 -1.442592E-08 -1.144236E-09
       199  17 -3.614000E+05  5.783192E+04  4.104439E+04  1.146464E+04 -1.797944E-09 -8.875366E-09
       199  18 -3.234476E+05  6.078144E+04  3.927983E+04  1.984259E+04  9.273534E-09 -7.224956E-10
       199  19 -7.897090E+05 -4.725323E+04 -5.160905E+04  2.014389E+04 -3.933784E+03 -8.386881E+03
       199  20 -8.275898E+05 -5.679840E+04 -6.562666E+04  1.177888E+04 -1.049568E+04 -1.029729E+04
       199  21 -8.681151E+05 -7.319146E+04 -8.565041E+04  2.329695E+04 -1.705878E+04 -1.172487E+04
       199  22 -5.958071E+05  4.555770E+02 -7.152145E+03  2.155617E+04 -5.523536E+03 -8.390286E+03
       199  23 -5.945200E+05  5.187278E+02 -1.228910E+04  1.162185E+04 -1.172864E+04 -1.029966E+04
       199  24 -5.958155E+05 -6.202311E+03 -2.318239E+04  2.157026E+04 -1.793536E+04 -1.172626E+04
       199  25 -4.018702E+05  4.816177E+04  3.730229E+04  2.296887E+04 -7.113782E+03 -8.393697E+03
       199  26 -3.613998E+05  5.783208E+04  4.104491E+04  1.146474E+04 -1.296206E+04 -1.030203E+04
       199  27 -3.234472E+05  6.078168E+04  3.928075E+04  1.984277E+04 -1.881233E+04 -1.172764E+04
       200   1 -9.100289E+05 -7.115668E+04 -9.937282E+04  8.068798E+03  1.825014E+04  1.399736E+04
       200   2 -9.350778E+05 -8.012473E+04 -1.279216E+05  2.313438E+04  5.121044E+04  1.436071E+04
       200   3 -9.880420E+05 -1.834232E+05 -2.015390E+05  5.762727E+04  8.418485E+04  4.805974E+03
       200   4 -6.011577E+05  4.839581E+03 -2.883707E+04  2.141353E+04  2.216534E+04  1.400505E+04
       200   5 -5.878628E+05  5.318553E+03 -4.796155E+04  1.178113E+04  4.776621E+04  1.435283E+04
       200   6 -6.011910E+05 -8.722763E+04 -1.070239E+05  2.157794E+04  7.338377E+04  4.782370E+03
       200   7 -2.921975E+05  8.082987E+04  4.169259E+04  3.476492E+04  2.608246E+04  1.401291E+04
       200   8 -2.405358E+05  9.075390E+04  3.199061E+04  4.214170E+02  4.432005E+04  1.434508E+04
       200   9 -2.142003E+05  8.961863E+03 -1.251852E+04 -1.449399E+04  6.257597E+04  4.760030E+03
       200  10 -9.100293E+05 -7.115698E+04 -9.937382E+04  8.068592E+03  1.016062E-09 -5.142291E-10
       200  11 -9.350807E+05 -8.012566E+04 -1.279269E+05  2.313379E+04  3.757590E-09 -1.865632E-09
       200  12 -9.880496E+05 -1.834251E+05 -2.015524E+05  5.762694E+04  3.320383E-09  5.268168E-09
       200  13 -6.011583E+05  4.839238E+03 -2.883836E+04  2.141328E+04 -2.544906E-11  3.764344E-09
       200  14 -5.878653E+05  5.317718E+03 -4.796623E+04  1.178058E+04 -4.908541E-10  4.355233E-09
       200  15 -6.011968E+05 -8.722911E+04 -1.070341E+05  2.157766E+04 -2.871691E-10  4.123709E-10
       200  16 -2.921983E+05  8.082947E+04  4.169094E+04  3.476462E+04  1.576980E-10  5.041664E-09
       200  17 -2.405379E+05  9.075316E+04  3.198653E+04  4.209050E+02 -2.687427E-09  4.533954E-09
       200  18 -2.142045E+05  8.960787E+03 -1.252593E+04 -1.449423E+04 -1.672314E-09  2.766263E-11
       200  19 -9.100289E+05 -7.115668E+04 -9.937282E+04  8.068798E+03 -1.825014E+04 -1.399736E+04
       200  20 -9.350778E+05 -8.012473E+04 -1.279216E+05  2.313438E+04 -5.121044E+04 -1.436071E+04
       200  21 -9.880420E+05 -1.834232E+05 -2.015390E+05  5.762727E+04 -8.418485E+04 -4.805974E+03
       200  22 -6.011577E+05  4.839581E+03 -2.883707E+04  2.141353E+04 -2.216534E+04 -1.400505E+04
       200  23 -5.878628E+05  5.318553E+03 -4.796155E+04  1.178113E+04 -4.776621E+04 -1.435283E+04
       200  24 -6.011910E+05 -8.722763E+04 -1.070239E+05  2.157794E+04 -7.338377E+04 -4.782370E+03
       200  25 -2.921975E+05  8.082987E+04  4.169259E+04  3.476492E+04 -2.608246E+04 -1.401291E+04
       200  26 -2.405358E+05  9.075390E+04  3.199061E+04  4.214170E+02 -4.432005E+04 -1.434508E+04
       200  27 -2.142003E+05  8.961863E+03 -1.251852E+04 -1.449399E+04 -6.257597E+04 -4.760030E+03
