    1C
    1UUSER                                                              
    1UDATE              11.october.2022                                 
    1UTIME              18:04:20                                        
    1UHOST                                                              
    1UPGM               CalculiX                                        
    1UVERSION           Version 2.20                             
    1UCOMPILETIME       Sun Jul 31 18:08:37 CEST 2022                    
    1UDIR                                                               
    1UDBN                                                               
    1UMAT    1MESH_MATERIAL                                             
    2C                           608                                     1
 -1         1 0.00000E+00 0.00000E+00 0.00000E+00
 -1         2 1.66667E-02 0.00000E+00 0.00000E+00
 -1         3 3.33333E-02 0.00000E+00 0.00000E+00
 -1         4 5.00000E-02 0.00000E+00 0.00000E+00
 -1         5 6.66667E-02 0.00000E+00 0.00000E+00
 -1         8 0.00000E+00 6.25000E-03 0.00000E+00
 -1         9 1.66667E-02 6.25000E-03 0.00000E+00
 -1        10 3.33333E-02 6.25000E-03 0.00000E+00
 -1        11 5.00000E-02 6.25000E-03 0.00000E+00
 -1        12 6.66667E-02 6.25000E-03 0.00000E+00
 -1        15 0.00000E+00 1.25000E-02 0.00000E+00
 -1        16 1.66667E-02 1.25000E-02 0.00000E+00
 -1        17 3.33333E-02 1.25000E-02 0.00000E+00
 -1        18 5.00000E-02 1.25000E-02 0.00000E+00
 -1        19 6.66667E-02 1.25000E-02 0.00000E+00
 -1        20 8.33333E-02 1.25000E-02 0.00000E+00
 -1        21 1.00000E-01 1.25000E-02 0.00000E+00
 -1        23 1.66667E-02 1.87500E-02 0.00000E+00
 -1        24 3.33333E-02 1.87500E-02 0.00000E+00
 -1        25 5.00000E-02 1.87500E-02 0.00000E+00
 -1        26 6.66667E-02 1.87500E-02 0.00000E+00
 -1        27 8.33333E-02 1.87500E-02 0.00000E+00
 -1        28 1.00000E-01 1.87500E-02 0.00000E+00
 -1        31 3.33333E-02 2.50000E-02 0.00000E+00
 -1        32 5.00000E-02 2.50000E-02 0.00000E+00
 -1        33 6.66667E-02 2.50000E-02 0.00000E+00
 -1        34 8.33333E-02 2.50000E-02 0.00000E+00
 -1        35 1.00000E-01 2.50000E-02 0.00000E+00
 -1        36 1.04167E-03 0.00000E+00 0.00000E+00
 -1        37 2.08333E-03 0.00000E+00 0.00000E+00
 -1        38 3.12500E-03 0.00000E+00 0.00000E+00
 -1        39 4.16667E-03 0.00000E+00 0.00000E+00
 -1        40 5.20833E-03 0.00000E+00 0.00000E+00
 -1        41 6.25000E-03 0.00000E+00 0.00000E+00
 -1        42 7.29167E-03 0.00000E+00 0.00000E+00
 -1        43 8.33333E-03 0.00000E+00 0.00000E+00
 -1        44 9.37500E-03 0.00000E+00 0.00000E+00
 -1        45 1.04167E-02 0.00000E+00 0.00000E+00
 -1        46 1.14583E-02 0.00000E+00 0.00000E+00
 -1        47 1.25000E-02 0.00000E+00 0.00000E+00
 -1        48 1.35417E-02 0.00000E+00 0.00000E+00
 -1        49 1.45833E-02 0.00000E+00 0.00000E+00
 -1        50 1.56250E-02 0.00000E+00 0.00000E+00
 -1        51 0.00000E+00 1.04167E-03 0.00000E+00
 -1        52 0.00000E+00 2.08333E-03 0.00000E+00
 -1        53 0.00000E+00 3.12500E-03 0.00000E+00
 -1        54 0.00000E+00 4.16667E-03 0.00000E+00
 -1        55 0.00000E+00 5.20833E-03 0.00000E+00
 -1        56 1.04167E-03 3.90630E-04 0.00000E+00
 -1        57 2.08333E-03 7.81250E-04 0.00000E+00
 -1        58 3.12500E-03 1.17188E-03 0.00000E+00
 -1        59 4.16667E-03 1.56250E-03 0.00000E+00
 -1        60 5.20833E-03 1.95312E-03 0.00000E+00
 -1        61 6.25000E-03 2.34375E-03 0.00000E+00
 -1        62 7.29167E-03 2.73438E-03 0.00000E+00
 -1        63 8.33333E-03 3.12500E-03 0.00000E+00
 -1        64 9.37500E-03 3.51563E-03 0.00000E+00
 -1        65 1.04167E-02 3.90625E-03 0.00000E+00
 -1        66 1.14583E-02 4.29688E-03 0.00000E+00
 -1        67 1.25000E-02 4.68750E-03 0.00000E+00
 -1        68 1.35417E-02 5.07813E-03 0.00000E+00
 -1        69 1.45833E-02 5.46875E-03 0.00000E+00
 -1        70 1.56250E-02 5.85938E-03 0.00000E+00
 -1        86 1.66667E-02 1.04167E-03 0.00000E+00
 -1        87 1.66667E-02 2.08333E-03 0.00000E+00
 -1        88 1.66667E-02 3.12500E-03 0.00000E+00
 -1        89 1.66667E-02 4.16667E-03 0.00000E+00
 -1        90 1.66667E-02 5.20833E-03 0.00000E+00
 -1        91 1.77083E-02 3.90630E-04 0.00000E+00
 -1        92 1.87500E-02 7.81250E-04 0.00000E+00
 -1        93 1.97917E-02 1.17188E-03 0.00000E+00
 -1        94 2.08333E-02 1.56250E-03 0.00000E+00
 -1        95 2.18750E-02 1.95312E-03 0.00000E+00
 -1        96 2.29167E-02 2.34375E-03 0.00000E+00
 -1        97 2.39583E-02 2.73438E-03 0.00000E+00
 -1        98 2.50000E-02 3.12500E-03 0.00000E+00
 -1        99 2.60417E-02 3.51563E-03 0.00000E+00
 -1       100 2.70833E-02 3.90625E-03 0.00000E+00
 -1       101 2.81250E-02 4.29688E-03 0.00000E+00
 -1       102 2.91667E-02 4.68750E-03 0.00000E+00
 -1       103 3.02083E-02 5.07813E-03 0.00000E+00
 -1       104 3.12500E-02 5.46875E-03 0.00000E+00
 -1       105 3.22917E-02 5.85938E-03 0.00000E+00
 -1       106 3.43750E-02 0.00000E+00 0.00000E+00
 -1       107 3.54167E-02 0.00000E+00 0.00000E+00
 -1       108 3.64583E-02 0.00000E+00 0.00000E+00
 -1       109 3.75000E-02 0.00000E+00 0.00000E+00
 -1       110 3.85417E-02 0.00000E+00 0.00000E+00
 -1       111 3.95833E-02 0.00000E+00 0.00000E+00
 -1       112 4.06250E-02 0.00000E+00 0.00000E+00
 -1       113 4.16667E-02 0.00000E+00 0.00000E+00
 -1       114 4.27083E-02 0.00000E+00 0.00000E+00
 -1       115 4.37500E-02 0.00000E+00 0.00000E+00
 -1       116 4.47917E-02 0.00000E+00 0.00000E+00
 -1       117 4.58333E-02 0.00000E+00 0.00000E+00
 -1       118 4.68750E-02 0.00000E+00 0.00000E+00
 -1       119 4.79167E-02 0.00000E+00 0.00000E+00
 -1       120 4.89583E-02 0.00000E+00 0.00000E+00
 -1       121 3.33333E-02 1.04167E-03 0.00000E+00
 -1       122 3.33333E-02 2.08333E-03 0.00000E+00
 -1       123 3.33333E-02 3.12500E-03 0.00000E+00
 -1       124 3.33333E-02 4.16667E-03 0.00000E+00
 -1       125 3.33333E-02 5.20833E-03 0.00000E+00
 -1       141 5.10417E-02 0.00000E+00 0.00000E+00
 -1       142 5.20833E-02 0.00000E+00 0.00000E+00
 -1       143 5.31250E-02 0.00000E+00 0.00000E+00
 -1       144 5.41667E-02 0.00000E+00 0.00000E+00
 -1       145 5.52083E-02 0.00000E+00 0.00000E+00
 -1       146 5.62500E-02 0.00000E+00 0.00000E+00
 -1       147 5.72917E-02 0.00000E+00 0.00000E+00
 -1       148 5.83333E-02 0.00000E+00 0.00000E+00
 -1       149 5.93750E-02 0.00000E+00 0.00000E+00
 -1       150 6.04167E-02 0.00000E+00 0.00000E+00
 -1       151 6.14583E-02 0.00000E+00 0.00000E+00
 -1       152 6.25000E-02 0.00000E+00 0.00000E+00
 -1       153 6.35417E-02 0.00000E+00 0.00000E+00
 -1       154 6.45833E-02 0.00000E+00 0.00000E+00
 -1       155 6.56250E-02 0.00000E+00 0.00000E+00
 -1       156 5.00000E-02 1.04167E-03 0.00000E+00
 -1       157 5.00000E-02 2.08333E-03 0.00000E+00
 -1       158 5.00000E-02 3.12500E-03 0.00000E+00
 -1       159 5.00000E-02 4.16667E-03 0.00000E+00
 -1       160 5.00000E-02 5.20833E-03 0.00000E+00
 -1       161 5.10417E-02 3.90630E-04 0.00000E+00
 -1       162 5.20833E-02 7.81250E-04 0.00000E+00
 -1       163 5.31250E-02 1.17188E-03 0.00000E+00
 -1       164 5.41667E-02 1.56250E-03 0.00000E+00
 -1       165 5.52083E-02 1.95312E-03 0.00000E+00
 -1       166 5.62500E-02 2.34375E-03 0.00000E+00
 -1       167 5.72917E-02 2.73438E-03 0.00000E+00
 -1       168 5.83333E-02 3.12500E-03 0.00000E+00
 -1       169 5.93750E-02 3.51563E-03 0.00000E+00
 -1       170 6.04167E-02 3.90625E-03 0.00000E+00
 -1       171 6.14583E-02 4.29688E-03 0.00000E+00
 -1       172 6.25000E-02 4.68750E-03 0.00000E+00
 -1       173 6.35417E-02 5.07813E-03 0.00000E+00
 -1       174 6.45833E-02 5.46875E-03 0.00000E+00
 -1       175 6.56250E-02 5.85938E-03 0.00000E+00
 -1       191 6.66667E-02 1.04167E-03 0.00000E+00
 -1       192 6.66667E-02 2.08333E-03 0.00000E+00
 -1       193 6.66667E-02 3.12500E-03 0.00000E+00
 -1       194 6.66667E-02 4.16667E-03 0.00000E+00
 -1       195 6.66667E-02 5.20833E-03 0.00000E+00
 -1       266 0.00000E+00 7.29167E-03 0.00000E+00
 -1       267 0.00000E+00 8.33333E-03 0.00000E+00
 -1       268 0.00000E+00 9.37500E-03 0.00000E+00
 -1       269 0.00000E+00 1.04167E-02 0.00000E+00
 -1       270 0.00000E+00 1.14583E-02 0.00000E+00
 -1       271 1.04167E-03 6.64063E-03 0.00000E+00
 -1       272 2.08333E-03 7.03125E-03 0.00000E+00
 -1       273 3.12500E-03 7.42188E-03 0.00000E+00
 -1       274 4.16667E-03 7.81250E-03 0.00000E+00
 -1       275 5.20833E-03 8.20313E-03 0.00000E+00
 -1       276 6.25000E-03 8.59375E-03 0.00000E+00
 -1       277 7.29167E-03 8.98438E-03 0.00000E+00
 -1       278 8.33333E-03 9.37500E-03 0.00000E+00
 -1       279 9.37500E-03 9.76562E-03 0.00000E+00
 -1       280 1.04167E-02 1.01562E-02 0.00000E+00
 -1       281 1.14583E-02 1.05469E-02 0.00000E+00
 -1       282 1.25000E-02 1.09375E-02 0.00000E+00
 -1       283 1.35417E-02 1.13281E-02 0.00000E+00
 -1       284 1.45833E-02 1.17188E-02 0.00000E+00
 -1       285 1.56250E-02 1.21094E-02 0.00000E+00
 -1       286 1.77083E-02 6.25000E-03 0.00000E+00
 -1       287 1.87500E-02 6.25000E-03 0.00000E+00
 -1       288 1.97917E-02 6.25000E-03 0.00000E+00
 -1       289 2.08333E-02 6.25000E-03 0.00000E+00
 -1       290 2.18750E-02 6.25000E-03 0.00000E+00
 -1       291 2.29167E-02 6.25000E-03 0.00000E+00
 -1       292 2.39583E-02 6.25000E-03 0.00000E+00
 -1       293 2.50000E-02 6.25000E-03 0.00000E+00
 -1       294 2.60417E-02 6.25000E-03 0.00000E+00
 -1       295 2.70833E-02 6.25000E-03 0.00000E+00
 -1       296 2.81250E-02 6.25000E-03 0.00000E+00
 -1       297 2.91667E-02 6.25000E-03 0.00000E+00
 -1       298 3.02083E-02 6.25000E-03 0.00000E+00
 -1       299 3.12500E-02 6.25000E-03 0.00000E+00
 -1       300 3.22917E-02 6.25000E-03 0.00000E+00
 -1       301 1.66667E-02 7.29167E-03 0.00000E+00
 -1       302 1.66667E-02 8.33333E-03 0.00000E+00
 -1       303 1.66667E-02 9.37500E-03 0.00000E+00
 -1       304 1.66667E-02 1.04167E-02 0.00000E+00
 -1       305 1.66667E-02 1.14583E-02 0.00000E+00
 -1       306 1.77083E-02 6.64063E-03 0.00000E+00
 -1       307 1.87500E-02 7.03125E-03 0.00000E+00
 -1       308 1.97917E-02 7.42188E-03 0.00000E+00
 -1       309 2.08333E-02 7.81250E-03 0.00000E+00
 -1       310 2.18750E-02 8.20313E-03 0.00000E+00
 -1       311 2.29167E-02 8.59375E-03 0.00000E+00
 -1       312 2.39583E-02 8.98438E-03 0.00000E+00
 -1       313 2.50000E-02 9.37500E-03 0.00000E+00
 -1       314 2.60417E-02 9.76562E-03 0.00000E+00
 -1       315 2.70833E-02 1.01562E-02 0.00000E+00
 -1       316 2.81250E-02 1.05469E-02 0.00000E+00
 -1       317 2.91667E-02 1.09375E-02 0.00000E+00
 -1       318 3.02083E-02 1.13281E-02 0.00000E+00
 -1       319 3.12500E-02 1.17188E-02 0.00000E+00
 -1       320 3.22917E-02 1.21094E-02 0.00000E+00
 -1       321 3.43750E-02 6.25000E-03 0.00000E+00
 -1       322 3.54167E-02 6.25000E-03 0.00000E+00
 -1       323 3.64583E-02 6.25000E-03 0.00000E+00
 -1       324 3.75000E-02 6.25000E-03 0.00000E+00
 -1       325 3.85417E-02 6.25000E-03 0.00000E+00
 -1       326 3.95833E-02 6.25000E-03 0.00000E+00
 -1       327 4.06250E-02 6.25000E-03 0.00000E+00
 -1       328 4.16667E-02 6.25000E-03 0.00000E+00
 -1       329 4.27083E-02 6.25000E-03 0.00000E+00
 -1       330 4.37500E-02 6.25000E-03 0.00000E+00
 -1       331 4.47917E-02 6.25000E-03 0.00000E+00
 -1       332 4.58333E-02 6.25000E-03 0.00000E+00
 -1       333 4.68750E-02 6.25000E-03 0.00000E+00
 -1       334 4.79167E-02 6.25000E-03 0.00000E+00
 -1       335 4.89583E-02 6.25000E-03 0.00000E+00
 -1       336 3.33333E-02 7.29167E-03 0.00000E+00
 -1       337 3.33333E-02 8.33333E-03 0.00000E+00
 -1       338 3.33333E-02 9.37500E-03 0.00000E+00
 -1       339 3.33333E-02 1.04167E-02 0.00000E+00
 -1       340 3.33333E-02 1.14583E-02 0.00000E+00
 -1       356 5.10417E-02 6.25000E-03 0.00000E+00
 -1       357 5.20833E-02 6.25000E-03 0.00000E+00
 -1       358 5.31250E-02 6.25000E-03 0.00000E+00
 -1       359 5.41667E-02 6.25000E-03 0.00000E+00
 -1       360 5.52083E-02 6.25000E-03 0.00000E+00
 -1       361 5.62500E-02 6.25000E-03 0.00000E+00
 -1       362 5.72917E-02 6.25000E-03 0.00000E+00
 -1       363 5.83333E-02 6.25000E-03 0.00000E+00
 -1       364 5.93750E-02 6.25000E-03 0.00000E+00
 -1       365 6.04167E-02 6.25000E-03 0.00000E+00
 -1       366 6.14583E-02 6.25000E-03 0.00000E+00
 -1       367 6.25000E-02 6.25000E-03 0.00000E+00
 -1       368 6.35417E-02 6.25000E-03 0.00000E+00
 -1       369 6.45833E-02 6.25000E-03 0.00000E+00
 -1       370 6.56250E-02 6.25000E-03 0.00000E+00
 -1       371 5.00000E-02 7.29167E-03 0.00000E+00
 -1       372 5.00000E-02 8.33333E-03 0.00000E+00
 -1       373 5.00000E-02 9.37500E-03 0.00000E+00
 -1       374 5.00000E-02 1.04167E-02 0.00000E+00
 -1       375 5.00000E-02 1.14583E-02 0.00000E+00
 -1       406 6.66667E-02 7.29167E-03 0.00000E+00
 -1       407 6.66667E-02 8.33333E-03 0.00000E+00
 -1       408 6.66667E-02 9.37500E-03 0.00000E+00
 -1       409 6.66667E-02 1.04167E-02 0.00000E+00
 -1       410 6.66667E-02 1.14583E-02 0.00000E+00
 -1       501 1.77083E-02 1.25000E-02 0.00000E+00
 -1       502 1.87500E-02 1.25000E-02 0.00000E+00
 -1       503 1.97917E-02 1.25000E-02 0.00000E+00
 -1       504 2.08333E-02 1.25000E-02 0.00000E+00
 -1       505 2.18750E-02 1.25000E-02 0.00000E+00
 -1       506 2.29167E-02 1.25000E-02 0.00000E+00
 -1       507 2.39583E-02 1.25000E-02 0.00000E+00
 -1       508 2.50000E-02 1.25000E-02 0.00000E+00
 -1       509 2.60417E-02 1.25000E-02 0.00000E+00
 -1       510 2.70833E-02 1.25000E-02 0.00000E+00
 -1       511 2.81250E-02 1.25000E-02 0.00000E+00
 -1       512 2.91667E-02 1.25000E-02 0.00000E+00
 -1       513 3.02083E-02 1.25000E-02 0.00000E+00
 -1       514 3.12500E-02 1.25000E-02 0.00000E+00
 -1       515 3.22917E-02 1.25000E-02 0.00000E+00
 -1       521 1.77083E-02 1.28906E-02 0.00000E+00
 -1       522 1.87500E-02 1.32813E-02 0.00000E+00
 -1       523 1.97917E-02 1.36719E-02 0.00000E+00
 -1       524 2.08333E-02 1.40625E-02 0.00000E+00
 -1       525 2.18750E-02 1.44531E-02 0.00000E+00
 -1       526 2.29167E-02 1.48437E-02 0.00000E+00
 -1       527 2.39583E-02 1.52344E-02 0.00000E+00
 -1       528 2.50000E-02 1.56250E-02 0.00000E+00
 -1       529 2.60417E-02 1.60156E-02 0.00000E+00
 -1       530 2.70833E-02 1.64062E-02 0.00000E+00
 -1       531 2.81250E-02 1.67969E-02 0.00000E+00
 -1       532 2.91667E-02 1.71875E-02 0.00000E+00
 -1       533 3.02083E-02 1.75781E-02 0.00000E+00
 -1       534 3.12500E-02 1.79687E-02 0.00000E+00
 -1       535 3.22917E-02 1.83594E-02 0.00000E+00
 -1       536 3.43750E-02 1.25000E-02 0.00000E+00
 -1       537 3.54167E-02 1.25000E-02 0.00000E+00
 -1       538 3.64583E-02 1.25000E-02 0.00000E+00
 -1       539 3.75000E-02 1.25000E-02 0.00000E+00
 -1       540 3.85417E-02 1.25000E-02 0.00000E+00
 -1       541 3.95833E-02 1.25000E-02 0.00000E+00
 -1       542 4.06250E-02 1.25000E-02 0.00000E+00
 -1       543 4.16667E-02 1.25000E-02 0.00000E+00
 -1       544 4.27083E-02 1.25000E-02 0.00000E+00
 -1       545 4.37500E-02 1.25000E-02 0.00000E+00
 -1       546 4.47917E-02 1.25000E-02 0.00000E+00
 -1       547 4.58333E-02 1.25000E-02 0.00000E+00
 -1       548 4.68750E-02 1.25000E-02 0.00000E+00
 -1       549 4.79167E-02 1.25000E-02 0.00000E+00
 -1       550 4.89583E-02 1.25000E-02 0.00000E+00
 -1       551 3.33333E-02 1.35417E-02 0.00000E+00
 -1       552 3.33333E-02 1.45833E-02 0.00000E+00
 -1       553 3.33333E-02 1.56250E-02 0.00000E+00
 -1       554 3.33333E-02 1.66667E-02 0.00000E+00
 -1       555 3.33333E-02 1.77083E-02 0.00000E+00
 -1       556 3.43750E-02 1.28906E-02 0.00000E+00
 -1       557 3.54167E-02 1.32813E-02 0.00000E+00
 -1       558 3.64583E-02 1.36719E-02 0.00000E+00
 -1       559 3.75000E-02 1.40625E-02 0.00000E+00
 -1       560 3.85417E-02 1.44531E-02 0.00000E+00
 -1       561 3.95833E-02 1.48437E-02 0.00000E+00
 -1       562 4.06250E-02 1.52344E-02 0.00000E+00
 -1       563 4.16667E-02 1.56250E-02 0.00000E+00
 -1       564 4.27083E-02 1.60156E-02 0.00000E+00
 -1       565 4.37500E-02 1.64062E-02 0.00000E+00
 -1       566 4.47917E-02 1.67969E-02 0.00000E+00
 -1       567 4.58333E-02 1.71875E-02 0.00000E+00
 -1       568 4.68750E-02 1.75781E-02 0.00000E+00
 -1       569 4.79167E-02 1.79687E-02 0.00000E+00
 -1       570 4.89583E-02 1.83594E-02 0.00000E+00
 -1       571 5.10417E-02 1.25000E-02 0.00000E+00
 -1       572 5.20833E-02 1.25000E-02 0.00000E+00
 -1       573 5.31250E-02 1.25000E-02 0.00000E+00
 -1       574 5.41667E-02 1.25000E-02 0.00000E+00
 -1       575 5.52083E-02 1.25000E-02 0.00000E+00
 -1       576 5.62500E-02 1.25000E-02 0.00000E+00
 -1       577 5.72917E-02 1.25000E-02 0.00000E+00
 -1       578 5.83333E-02 1.25000E-02 0.00000E+00
 -1       579 5.93750E-02 1.25000E-02 0.00000E+00
 -1       580 6.04167E-02 1.25000E-02 0.00000E+00
 -1       581 6.14583E-02 1.25000E-02 0.00000E+00
 -1       582 6.25000E-02 1.25000E-02 0.00000E+00
 -1       583 6.35417E-02 1.25000E-02 0.00000E+00
 -1       584 6.45833E-02 1.25000E-02 0.00000E+00
 -1       585 6.56250E-02 1.25000E-02 0.00000E+00
 -1       586 5.00000E-02 1.35417E-02 0.00000E+00
 -1       587 5.00000E-02 1.45833E-02 0.00000E+00
 -1       588 5.00000E-02 1.56250E-02 0.00000E+00
 -1       589 5.00000E-02 1.66667E-02 0.00000E+00
 -1       590 5.00000E-02 1.77083E-02 0.00000E+00
 -1       591 5.10417E-02 1.28906E-02 0.00000E+00
 -1       592 5.20833E-02 1.32813E-02 0.00000E+00
 -1       593 5.31250E-02 1.36719E-02 0.00000E+00
 -1       594 5.41667E-02 1.40625E-02 0.00000E+00
 -1       595 5.52083E-02 1.44531E-02 0.00000E+00
 -1       596 5.62500E-02 1.48437E-02 0.00000E+00
 -1       597 5.72917E-02 1.52344E-02 0.00000E+00
 -1       598 5.83333E-02 1.56250E-02 0.00000E+00
 -1       599 5.93750E-02 1.60156E-02 0.00000E+00
 -1       600 6.04167E-02 1.64062E-02 0.00000E+00
 -1       601 6.14583E-02 1.67969E-02 0.00000E+00
 -1       602 6.25000E-02 1.71875E-02 0.00000E+00
 -1       603 6.35417E-02 1.75781E-02 0.00000E+00
 -1       604 6.45833E-02 1.79687E-02 0.00000E+00
 -1       605 6.56250E-02 1.83594E-02 0.00000E+00
 -1       606 6.77083E-02 1.25000E-02 0.00000E+00
 -1       607 6.87500E-02 1.25000E-02 0.00000E+00
 -1       608 6.97917E-02 1.25000E-02 0.00000E+00
 -1       609 7.08333E-02 1.25000E-02 0.00000E+00
 -1       610 7.18750E-02 1.25000E-02 0.00000E+00
 -1       611 7.29167E-02 1.25000E-02 0.00000E+00
 -1       612 7.39583E-02 1.25000E-02 0.00000E+00
 -1       613 7.50000E-02 1.25000E-02 0.00000E+00
 -1       614 7.60417E-02 1.25000E-02 0.00000E+00
 -1       615 7.70833E-02 1.25000E-02 0.00000E+00
 -1       616 7.81250E-02 1.25000E-02 0.00000E+00
 -1       617 7.91667E-02 1.25000E-02 0.00000E+00
 -1       618 8.02083E-02 1.25000E-02 0.00000E+00
 -1       619 8.12500E-02 1.25000E-02 0.00000E+00
 -1       620 8.22917E-02 1.25000E-02 0.00000E+00
 -1       621 6.66667E-02 1.35417E-02 0.00000E+00
 -1       622 6.66667E-02 1.45833E-02 0.00000E+00
 -1       623 6.66667E-02 1.56250E-02 0.00000E+00
 -1       624 6.66667E-02 1.66667E-02 0.00000E+00
 -1       625 6.66667E-02 1.77083E-02 0.00000E+00
 -1       626 6.77083E-02 1.28906E-02 0.00000E+00
 -1       627 6.87500E-02 1.32813E-02 0.00000E+00
 -1       628 6.97917E-02 1.36719E-02 0.00000E+00
 -1       629 7.08333E-02 1.40625E-02 0.00000E+00
 -1       630 7.18750E-02 1.44531E-02 0.00000E+00
 -1       631 7.29167E-02 1.48437E-02 0.00000E+00
 -1       632 7.39583E-02 1.52344E-02 0.00000E+00
 -1       633 7.50000E-02 1.56250E-02 0.00000E+00
 -1       634 7.60417E-02 1.60156E-02 0.00000E+00
 -1       635 7.70833E-02 1.64062E-02 0.00000E+00
 -1       636 7.81250E-02 1.67969E-02 0.00000E+00
 -1       637 7.91667E-02 1.71875E-02 0.00000E+00
 -1       638 8.02083E-02 1.75781E-02 0.00000E+00
 -1       639 8.12500E-02 1.79687E-02 0.00000E+00
 -1       640 8.22917E-02 1.83594E-02 0.00000E+00
 -1       641 8.43750E-02 1.25000E-02 0.00000E+00
 -1       642 8.54167E-02 1.25000E-02 0.00000E+00
 -1       643 8.64583E-02 1.25000E-02 0.00000E+00
 -1       644 8.75000E-02 1.25000E-02 0.00000E+00
 -1       645 8.85417E-02 1.25000E-02 0.00000E+00
 -1       646 8.95833E-02 1.25000E-02 0.00000E+00
 -1       647 9.06250E-02 1.25000E-02 0.00000E+00
 -1       648 9.16667E-02 1.25000E-02 0.00000E+00
 -1       649 9.27083E-02 1.25000E-02 0.00000E+00
 -1       650 9.37500E-02 1.25000E-02 0.00000E+00
 -1       651 9.47917E-02 1.25000E-02 0.00000E+00
 -1       652 9.58333E-02 1.25000E-02 0.00000E+00
 -1       653 9.68750E-02 1.25000E-02 0.00000E+00
 -1       654 9.79167E-02 1.25000E-02 0.00000E+00
 -1       655 9.89583E-02 1.25000E-02 0.00000E+00
 -1       656 8.33333E-02 1.35417E-02 0.00000E+00
 -1       657 8.33333E-02 1.45833E-02 0.00000E+00
 -1       658 8.33333E-02 1.56250E-02 0.00000E+00
 -1       659 8.33333E-02 1.66667E-02 0.00000E+00
 -1       660 8.33333E-02 1.77083E-02 0.00000E+00
 -1       661 8.43750E-02 1.28906E-02 0.00000E+00
 -1       662 8.54167E-02 1.32813E-02 0.00000E+00
 -1       663 8.64583E-02 1.36719E-02 0.00000E+00
 -1       664 8.75000E-02 1.40625E-02 0.00000E+00
 -1       665 8.85417E-02 1.44531E-02 0.00000E+00
 -1       666 8.95833E-02 1.48437E-02 0.00000E+00
 -1       667 9.06250E-02 1.52344E-02 0.00000E+00
 -1       668 9.16667E-02 1.56250E-02 0.00000E+00
 -1       669 9.27083E-02 1.60156E-02 0.00000E+00
 -1       670 9.37500E-02 1.64062E-02 0.00000E+00
 -1       671 9.47917E-02 1.67969E-02 0.00000E+00
 -1       672 9.58333E-02 1.71875E-02 0.00000E+00
 -1       673 9.68750E-02 1.75781E-02 0.00000E+00
 -1       674 9.79167E-02 1.79687E-02 0.00000E+00
 -1       675 9.89583E-02 1.83594E-02 0.00000E+00
 -1       676 1.00000E-01 1.35417E-02 0.00000E+00
 -1       677 1.00000E-01 1.45833E-02 0.00000E+00
 -1       678 1.00000E-01 1.56250E-02 0.00000E+00
 -1       679 1.00000E-01 1.66667E-02 0.00000E+00
 -1       680 1.00000E-01 1.77083E-02 0.00000E+00
 -1       716 1.77083E-02 1.87500E-02 0.00000E+00
 -1       717 1.87500E-02 1.87500E-02 0.00000E+00
 -1       718 1.97917E-02 1.87500E-02 0.00000E+00
 -1       719 2.08333E-02 1.87500E-02 0.00000E+00
 -1       720 2.18750E-02 1.87500E-02 0.00000E+00
 -1       721 2.29167E-02 1.87500E-02 0.00000E+00
 -1       722 2.39583E-02 1.87500E-02 0.00000E+00
 -1       723 2.50000E-02 1.87500E-02 0.00000E+00
 -1       724 2.60417E-02 1.87500E-02 0.00000E+00
 -1       725 2.70833E-02 1.87500E-02 0.00000E+00
 -1       726 2.81250E-02 1.87500E-02 0.00000E+00
 -1       727 2.91667E-02 1.87500E-02 0.00000E+00
 -1       728 3.02083E-02 1.87500E-02 0.00000E+00
 -1       729 3.12500E-02 1.87500E-02 0.00000E+00
 -1       730 3.22917E-02 1.87500E-02 0.00000E+00
 -1       766 3.33333E-02 1.97917E-02 0.00000E+00
 -1       767 3.33333E-02 2.08333E-02 0.00000E+00
 -1       768 3.33333E-02 2.18750E-02 0.00000E+00
 -1       769 3.33333E-02 2.29167E-02 0.00000E+00
 -1       770 3.33333E-02 2.39583E-02 0.00000E+00
 -1       771 3.43750E-02 1.91406E-02 0.00000E+00
 -1       772 3.54167E-02 1.95312E-02 0.00000E+00
 -1       773 3.64583E-02 1.99219E-02 0.00000E+00
 -1       774 3.75000E-02 2.03125E-02 0.00000E+00
 -1       775 3.85417E-02 2.07031E-02 0.00000E+00
 -1       776 3.95833E-02 2.10938E-02 0.00000E+00
 -1       777 4.06250E-02 2.14844E-02 0.00000E+00
 -1       778 4.16667E-02 2.18750E-02 0.00000E+00
 -1       779 4.27083E-02 2.22656E-02 0.00000E+00
 -1       780 4.37500E-02 2.26563E-02 0.00000E+00
 -1       781 4.47917E-02 2.30469E-02 0.00000E+00
 -1       782 4.58333E-02 2.34375E-02 0.00000E+00
 -1       783 4.68750E-02 2.38281E-02 0.00000E+00
 -1       784 4.79167E-02 2.42187E-02 0.00000E+00
 -1       785 4.89583E-02 2.46094E-02 0.00000E+00
 -1       786 5.10417E-02 1.87500E-02 0.00000E+00
 -1       787 5.20833E-02 1.87500E-02 0.00000E+00
 -1       788 5.31250E-02 1.87500E-02 0.00000E+00
 -1       789 5.41667E-02 1.87500E-02 0.00000E+00
 -1       790 5.52083E-02 1.87500E-02 0.00000E+00
 -1       791 5.62500E-02 1.87500E-02 0.00000E+00
 -1       792 5.72917E-02 1.87500E-02 0.00000E+00
 -1       793 5.83333E-02 1.87500E-02 0.00000E+00
 -1       794 5.93750E-02 1.87500E-02 0.00000E+00
 -1       795 6.04167E-02 1.87500E-02 0.00000E+00
 -1       796 6.14583E-02 1.87500E-02 0.00000E+00
 -1       797 6.25000E-02 1.87500E-02 0.00000E+00
 -1       798 6.35417E-02 1.87500E-02 0.00000E+00
 -1       799 6.45833E-02 1.87500E-02 0.00000E+00
 -1       800 6.56250E-02 1.87500E-02 0.00000E+00
 -1       801 5.00000E-02 1.97917E-02 0.00000E+00
 -1       802 5.00000E-02 2.08333E-02 0.00000E+00
 -1       803 5.00000E-02 2.18750E-02 0.00000E+00
 -1       804 5.00000E-02 2.29167E-02 0.00000E+00
 -1       805 5.00000E-02 2.39583E-02 0.00000E+00
 -1       806 5.10417E-02 1.91406E-02 0.00000E+00
 -1       807 5.20833E-02 1.95312E-02 0.00000E+00
 -1       808 5.31250E-02 1.99219E-02 0.00000E+00
 -1       809 5.41667E-02 2.03125E-02 0.00000E+00
 -1       810 5.52083E-02 2.07031E-02 0.00000E+00
 -1       811 5.62500E-02 2.10938E-02 0.00000E+00
 -1       812 5.72917E-02 2.14844E-02 0.00000E+00
 -1       813 5.83333E-02 2.18750E-02 0.00000E+00
 -1       814 5.93750E-02 2.22656E-02 0.00000E+00
 -1       815 6.04167E-02 2.26563E-02 0.00000E+00
 -1       816 6.14583E-02 2.30469E-02 0.00000E+00
 -1       817 6.25000E-02 2.34375E-02 0.00000E+00
 -1       818 6.35417E-02 2.38281E-02 0.00000E+00
 -1       819 6.45833E-02 2.42187E-02 0.00000E+00
 -1       820 6.56250E-02 2.46094E-02 0.00000E+00
 -1       821 6.77083E-02 1.87500E-02 0.00000E+00
 -1       822 6.87500E-02 1.87500E-02 0.00000E+00
 -1       823 6.97917E-02 1.87500E-02 0.00000E+00
 -1       824 7.08333E-02 1.87500E-02 0.00000E+00
 -1       825 7.18750E-02 1.87500E-02 0.00000E+00
 -1       826 7.29167E-02 1.87500E-02 0.00000E+00
 -1       827 7.39583E-02 1.87500E-02 0.00000E+00
 -1       828 7.50000E-02 1.87500E-02 0.00000E+00
 -1       829 7.60417E-02 1.87500E-02 0.00000E+00
 -1       830 7.70833E-02 1.87500E-02 0.00000E+00
 -1       831 7.81250E-02 1.87500E-02 0.00000E+00
 -1       832 7.91667E-02 1.87500E-02 0.00000E+00
 -1       833 8.02083E-02 1.87500E-02 0.00000E+00
 -1       834 8.12500E-02 1.87500E-02 0.00000E+00
 -1       835 8.22917E-02 1.87500E-02 0.00000E+00
 -1       836 6.66667E-02 1.97917E-02 0.00000E+00
 -1       837 6.66667E-02 2.08333E-02 0.00000E+00
 -1       838 6.66667E-02 2.18750E-02 0.00000E+00
 -1       839 6.66667E-02 2.29167E-02 0.00000E+00
 -1       840 6.66667E-02 2.39583E-02 0.00000E+00
 -1       841 6.77083E-02 1.91406E-02 0.00000E+00
 -1       842 6.87500E-02 1.95312E-02 0.00000E+00
 -1       843 6.97917E-02 1.99219E-02 0.00000E+00
 -1       844 7.08333E-02 2.03125E-02 0.00000E+00
 -1       845 7.18750E-02 2.07031E-02 0.00000E+00
 -1       846 7.29167E-02 2.10938E-02 0.00000E+00
 -1       847 7.39583E-02 2.14844E-02 0.00000E+00
 -1       848 7.50000E-02 2.18750E-02 0.00000E+00
 -1       849 7.60417E-02 2.22656E-02 0.00000E+00
 -1       850 7.70833E-02 2.26563E-02 0.00000E+00
 -1       851 7.81250E-02 2.30469E-02 0.00000E+00
 -1       852 7.91667E-02 2.34375E-02 0.00000E+00
 -1       853 8.02083E-02 2.38281E-02 0.00000E+00
 -1       854 8.12500E-02 2.42187E-02 0.00000E+00
 -1       855 8.22917E-02 2.46094E-02 0.00000E+00
 -1       856 8.43750E-02 1.87500E-02 0.00000E+00
 -1       857 8.54167E-02 1.87500E-02 0.00000E+00
 -1       858 8.64583E-02 1.87500E-02 0.00000E+00
 -1       859 8.75000E-02 1.87500E-02 0.00000E+00
 -1       860 8.85417E-02 1.87500E-02 0.00000E+00
 -1       861 8.95833E-02 1.87500E-02 0.00000E+00
 -1       862 9.06250E-02 1.87500E-02 0.00000E+00
 -1       863 9.16667E-02 1.87500E-02 0.00000E+00
 -1       864 9.27083E-02 1.87500E-02 0.00000E+00
 -1       865 9.37500E-02 1.87500E-02 0.00000E+00
 -1       866 9.47917E-02 1.87500E-02 0.00000E+00
 -1       867 9.58333E-02 1.87500E-02 0.00000E+00
 -1       868 9.68750E-02 1.87500E-02 0.00000E+00
 -1       869 9.79167E-02 1.87500E-02 0.00000E+00
 -1       870 9.89583E-02 1.87500E-02 0.00000E+00
 -1       871 8.33333E-02 1.97917E-02 0.00000E+00
 -1       872 8.33333E-02 2.08333E-02 0.00000E+00
 -1       873 8.33333E-02 2.18750E-02 0.00000E+00
 -1       874 8.33333E-02 2.29167E-02 0.00000E+00
 -1       875 8.33333E-02 2.39583E-02 0.00000E+00
 -1       876 8.43750E-02 1.91406E-02 0.00000E+00
 -1       877 8.54167E-02 1.95312E-02 0.00000E+00
 -1       878 8.64583E-02 1.99219E-02 0.00000E+00
 -1       879 8.75000E-02 2.03125E-02 0.00000E+00
 -1       880 8.85417E-02 2.07031E-02 0.00000E+00
 -1       881 8.95833E-02 2.10938E-02 0.00000E+00
 -1       882 9.06250E-02 2.14844E-02 0.00000E+00
 -1       883 9.16667E-02 2.18750E-02 0.00000E+00
 -1       884 9.27083E-02 2.22656E-02 0.00000E+00
 -1       885 9.37500E-02 2.26563E-02 0.00000E+00
 -1       886 9.47917E-02 2.30469E-02 0.00000E+00
 -1       887 9.58333E-02 2.34375E-02 0.00000E+00
 -1       888 9.68750E-02 2.38281E-02 0.00000E+00
 -1       889 9.79167E-02 2.42187E-02 0.00000E+00
 -1       890 9.89583E-02 2.46094E-02 0.00000E+00
 -1       891 1.00000E-01 1.97917E-02 0.00000E+00
 -1       892 1.00000E-01 2.08333E-02 0.00000E+00
 -1       893 1.00000E-01 2.18750E-02 0.00000E+00
 -1       894 1.00000E-01 2.29167E-02 0.00000E+00
 -1       895 1.00000E-01 2.39583E-02 0.00000E+00
 -1       926 3.43750E-02 2.50000E-02 0.00000E+00
 -1       927 3.54167E-02 2.50000E-02 0.00000E+00
 -1       928 3.64583E-02 2.50000E-02 0.00000E+00
 -1       929 3.75000E-02 2.50000E-02 0.00000E+00
 -1       930 3.85417E-02 2.50000E-02 0.00000E+00
 -1       931 3.95833E-02 2.50000E-02 0.00000E+00
 -1       932 4.06250E-02 2.50000E-02 0.00000E+00
 -1       933 4.16667E-02 2.50000E-02 0.00000E+00
 -1       934 4.27083E-02 2.50000E-02 0.00000E+00
 -1       935 4.37500E-02 2.50000E-02 0.00000E+00
 -1       936 4.47917E-02 2.50000E-02 0.00000E+00
 -1       937 4.58333E-02 2.50000E-02 0.00000E+00
 -1       938 4.68750E-02 2.50000E-02 0.00000E+00
 -1       939 4.79167E-02 2.50000E-02 0.00000E+00
 -1       940 4.89583E-02 2.50000E-02 0.00000E+00
 -1       956 6.77083E-02 2.50000E-02 0.00000E+00
 -1       957 6.87500E-02 2.50000E-02 0.00000E+00
 -1       958 6.97917E-02 2.50000E-02 0.00000E+00
 -1       959 7.08333E-02 2.50000E-02 0.00000E+00
 -1       960 7.18750E-02 2.50000E-02 0.00000E+00
 -1       961 7.29167E-02 2.50000E-02 0.00000E+00
 -1       962 7.39583E-02 2.50000E-02 0.00000E+00
 -1       963 7.50000E-02 2.50000E-02 0.00000E+00
 -1       964 7.60417E-02 2.50000E-02 0.00000E+00
 -1       965 7.70833E-02 2.50000E-02 0.00000E+00
 -1       966 7.81250E-02 2.50000E-02 0.00000E+00
 -1       967 7.91667E-02 2.50000E-02 0.00000E+00
 -1       968 8.02083E-02 2.50000E-02 0.00000E+00
 -1       969 8.12500E-02 2.50000E-02 0.00000E+00
 -1       970 8.22917E-02 2.50000E-02 0.00000E+00
 -1       971 8.43750E-02 2.50000E-02 0.00000E+00
 -1       972 8.54167E-02 2.50000E-02 0.00000E+00
 -1       973 8.64583E-02 2.50000E-02 0.00000E+00
 -1       974 8.75000E-02 2.50000E-02 0.00000E+00
 -1       975 8.85417E-02 2.50000E-02 0.00000E+00
 -1       976 8.95833E-02 2.50000E-02 0.00000E+00
 -1       977 9.06250E-02 2.50000E-02 0.00000E+00
 -1       978 9.16667E-02 2.50000E-02 0.00000E+00
 -1       979 9.27083E-02 2.50000E-02 0.00000E+00
 -1       980 9.37500E-02 2.50000E-02 0.00000E+00
 -1       981 9.47917E-02 2.50000E-02 0.00000E+00
 -1       982 9.58333E-02 2.50000E-02 0.00000E+00
 -1       983 9.68750E-02 2.50000E-02 0.00000E+00
 -1       984 9.79167E-02 2.50000E-02 0.00000E+00
 -1       985 9.89583E-02 2.50000E-02 0.00000E+00
 -3
    3C                           316                                     1
 -1         1   12    0    1
 -2         1        37        36
 -1         2   12    0    1
 -2        37        39        38
 -1         3   12    0    1
 -2        39        41        40
 -1         4   12    0    1
 -2        41        43        42
 -1         5   12    0    1
 -2        43        45        44
 -1         6   12    0    1
 -2        45        47        46
 -1         7   12    0    1
 -2        47        49        48
 -1         8   12    0    1
 -2        49         2        50
 -1         9   12    0    1
 -2         1        52        51
 -1        10   12    0    1
 -2        52        54        53
 -1        11   12    0    1
 -2        54         8        55
 -1        12   12    0    1
 -2         1        57        56
 -1        13   12    0    1
 -2        57        59        58
 -1        14   12    0    1
 -2        59        61        60
 -1        15   12    0    1
 -2        61        63        62
 -1        16   12    0    1
 -2        63        65        64
 -1        17   12    0    1
 -2        65        67        66
 -1        18   12    0    1
 -2        67        69        68
 -1        19   12    0    1
 -2        69         9        70
 -1        20   12    0    1
 -2         2        87        86
 -1        21   12    0    1
 -2        87        89        88
 -1        22   12    0    1
 -2        89         9        90
 -1        23   12    0    1
 -2         2        92        91
 -1        24   12    0    1
 -2        92        94        93
 -1        25   12    0    1
 -2        94        96        95
 -1        26   12    0    1
 -2        96        98        97
 -1        27   12    0    1
 -2        98       100        99
 -1        28   12    0    1
 -2       100       102       101
 -1        29   12    0    1
 -2       102       104       103
 -1        30   12    0    1
 -2       104        10       105
 -1        31   12    0    1
 -2         3       107       106
 -1        32   12    0    1
 -2       107       109       108
 -1        33   12    0    1
 -2       109       111       110
 -1        34   12    0    1
 -2       111       113       112
 -1        35   12    0    1
 -2       113       115       114
 -1        36   12    0    1
 -2       115       117       116
 -1        37   12    0    1
 -2       117       119       118
 -1        38   12    0    1
 -2       119         4       120
 -1        39   12    0    1
 -2         3       122       121
 -1        40   12    0    1
 -2       122       124       123
 -1        41   12    0    1
 -2       124        10       125
 -1        42   12    0    1
 -2         4       142       141
 -1        43   12    0    1
 -2       142       144       143
 -1        44   12    0    1
 -2       144       146       145
 -1        45   12    0    1
 -2       146       148       147
 -1        46   12    0    1
 -2       148       150       149
 -1        47   12    0    1
 -2       150       152       151
 -1        48   12    0    1
 -2       152       154       153
 -1        49   12    0    1
 -2       154         5       155
 -1        50   12    0    1
 -2         4       157       156
 -1        51   12    0    1
 -2       157       159       158
 -1        52   12    0    1
 -2       159        11       160
 -1        53   12    0    1
 -2         4       162       161
 -1        54   12    0    1
 -2       162       164       163
 -1        55   12    0    1
 -2       164       166       165
 -1        56   12    0    1
 -2       166       168       167
 -1        57   12    0    1
 -2       168       170       169
 -1        58   12    0    1
 -2       170       172       171
 -1        59   12    0    1
 -2       172       174       173
 -1        60   12    0    1
 -2       174        12       175
 -1        61   12    0    1
 -2         5       192       191
 -1        62   12    0    1
 -2       192       194       193
 -1        63   12    0    1
 -2       194        12       195
 -1        64   12    0    1
 -2         8       267       266
 -1        65   12    0    1
 -2       267       269       268
 -1        66   12    0    1
 -2       269        15       270
 -1        67   12    0    1
 -2         8       272       271
 -1        68   12    0    1
 -2       272       274       273
 -1        69   12    0    1
 -2       274       276       275
 -1        70   12    0    1
 -2       276       278       277
 -1        71   12    0    1
 -2       278       280       279
 -1        72   12    0    1
 -2       280       282       281
 -1        73   12    0    1
 -2       282       284       283
 -1        74   12    0    1
 -2       284        16       285
 -1        75   12    0    1
 -2         9       287       286
 -1        76   12    0    1
 -2       287       289       288
 -1        77   12    0    1
 -2       289       291       290
 -1        78   12    0    1
 -2       291       293       292
 -1        79   12    0    1
 -2       293       295       294
 -1        80   12    0    1
 -2       295       297       296
 -1        81   12    0    1
 -2       297       299       298
 -1        82   12    0    1
 -2       299        10       300
 -1        83   12    0    1
 -2         9       302       301
 -1        84   12    0    1
 -2       302       304       303
 -1        85   12    0    1
 -2       304        16       305
 -1        86   12    0    1
 -2         9       307       306
 -1        87   12    0    1
 -2       307       309       308
 -1        88   12    0    1
 -2       309       311       310
 -1        89   12    0    1
 -2       311       313       312
 -1        90   12    0    1
 -2       313       315       314
 -1        91   12    0    1
 -2       315       317       316
 -1        92   12    0    1
 -2       317       319       318
 -1        93   12    0    1
 -2       319        17       320
 -1        94   12    0    1
 -2        10       322       321
 -1        95   12    0    1
 -2       322       324       323
 -1        96   12    0    1
 -2       324       326       325
 -1        97   12    0    1
 -2       326       328       327
 -1        98   12    0    1
 -2       328       330       329
 -1        99   12    0    1
 -2       330       332       331
 -1       100   12    0    1
 -2       332       334       333
 -1       101   12    0    1
 -2       334        11       335
 -1       102   12    0    1
 -2        10       337       336
 -1       103   12    0    1
 -2       337       339       338
 -1       104   12    0    1
 -2       339        17       340
 -1       105   12    0    1
 -2        11       357       356
 -1       106   12    0    1
 -2       357       359       358
 -1       107   12    0    1
 -2       359       361       360
 -1       108   12    0    1
 -2       361       363       362
 -1       109   12    0    1
 -2       363       365       364
 -1       110   12    0    1
 -2       365       367       366
 -1       111   12    0    1
 -2       367       369       368
 -1       112   12    0    1
 -2       369        12       370
 -1       113   12    0    1
 -2        11       372       371
 -1       114   12    0    1
 -2       372       374       373
 -1       115   12    0    1
 -2       374        18       375
 -1       116   12    0    1
 -2        12       407       406
 -1       117   12    0    1
 -2       407       409       408
 -1       118   12    0    1
 -2       409        19       410
 -1       119   12    0    1
 -2        16       502       501
 -1       120   12    0    1
 -2       502       504       503
 -1       121   12    0    1
 -2       504       506       505
 -1       122   12    0    1
 -2       506       508       507
 -1       123   12    0    1
 -2       508       510       509
 -1       124   12    0    1
 -2       510       512       511
 -1       125   12    0    1
 -2       512       514       513
 -1       126   12    0    1
 -2       514        17       515
 -1       127   12    0    1
 -2        16       522       521
 -1       128   12    0    1
 -2       522       524       523
 -1       129   12    0    1
 -2       524       526       525
 -1       130   12    0    1
 -2       526       528       527
 -1       131   12    0    1
 -2       528       530       529
 -1       132   12    0    1
 -2       530       532       531
 -1       133   12    0    1
 -2       532       534       533
 -1       134   12    0    1
 -2       534        24       535
 -1       135   12    0    1
 -2        17       537       536
 -1       136   12    0    1
 -2       537       539       538
 -1       137   12    0    1
 -2       539       541       540
 -1       138   12    0    1
 -2       541       543       542
 -1       139   12    0    1
 -2       543       545       544
 -1       140   12    0    1
 -2       545       547       546
 -1       141   12    0    1
 -2       547       549       548
 -1       142   12    0    1
 -2       549        18       550
 -1       143   12    0    1
 -2        17       552       551
 -1       144   12    0    1
 -2       552       554       553
 -1       145   12    0    1
 -2       554        24       555
 -1       146   12    0    1
 -2        17       557       556
 -1       147   12    0    1
 -2       557       559       558
 -1       148   12    0    1
 -2       559       561       560
 -1       149   12    0    1
 -2       561       563       562
 -1       150   12    0    1
 -2       563       565       564
 -1       151   12    0    1
 -2       565       567       566
 -1       152   12    0    1
 -2       567       569       568
 -1       153   12    0    1
 -2       569        25       570
 -1       154   12    0    1
 -2        18       572       571
 -1       155   12    0    1
 -2       572       574       573
 -1       156   12    0    1
 -2       574       576       575
 -1       157   12    0    1
 -2       576       578       577
 -1       158   12    0    1
 -2       578       580       579
 -1       159   12    0    1
 -2       580       582       581
 -1       160   12    0    1
 -2       582       584       583
 -1       161   12    0    1
 -2       584        19       585
 -1       162   12    0    1
 -2        18       587       586
 -1       163   12    0    1
 -2       587       589       588
 -1       164   12    0    1
 -2       589        25       590
 -1       165   12    0    1
 -2        18       592       591
 -1       166   12    0    1
 -2       592       594       593
 -1       167   12    0    1
 -2       594       596       595
 -1       168   12    0    1
 -2       596       598       597
 -1       169   12    0    1
 -2       598       600       599
 -1       170   12    0    1
 -2       600       602       601
 -1       171   12    0    1
 -2       602       604       603
 -1       172   12    0    1
 -2       604        26       605
 -1       173   12    0    1
 -2        19       607       606
 -1       174   12    0    1
 -2       607       609       608
 -1       175   12    0    1
 -2       609       611       610
 -1       176   12    0    1
 -2       611       613       612
 -1       177   12    0    1
 -2       613       615       614
 -1       178   12    0    1
 -2       615       617       616
 -1       179   12    0    1
 -2       617       619       618
 -1       180   12    0    1
 -2       619        20       620
 -1       181   12    0    1
 -2        19       622       621
 -1       182   12    0    1
 -2       622       624       623
 -1       183   12    0    1
 -2       624        26       625
 -1       184   12    0    1
 -2        19       627       626
 -1       185   12    0    1
 -2       627       629       628
 -1       186   12    0    1
 -2       629       631       630
 -1       187   12    0    1
 -2       631       633       632
 -1       188   12    0    1
 -2       633       635       634
 -1       189   12    0    1
 -2       635       637       636
 -1       190   12    0    1
 -2       637       639       638
 -1       191   12    0    1
 -2       639        27       640
 -1       192   12    0    1
 -2        20       642       641
 -1       193   12    0    1
 -2       642       644       643
 -1       194   12    0    1
 -2       644       646       645
 -1       195   12    0    1
 -2       646       648       647
 -1       196   12    0    1
 -2       648       650       649
 -1       197   12    0    1
 -2       650       652       651
 -1       198   12    0    1
 -2       652       654       653
 -1       199   12    0    1
 -2       654        21       655
 -1       200   12    0    1
 -2        20       657       656
 -1       201   12    0    1
 -2       657       659       658
 -1       202   12    0    1
 -2       659        27       660
 -1       203   12    0    1
 -2        20       662       661
 -1       204   12    0    1
 -2       662       664       663
 -1       205   12    0    1
 -2       664       666       665
 -1       206   12    0    1
 -2       666       668       667
 -1       207   12    0    1
 -2       668       670       669
 -1       208   12    0    1
 -2       670       672       671
 -1       209   12    0    1
 -2       672       674       673
 -1       210   12    0    1
 -2       674        28       675
 -1       211   12    0    1
 -2        21       677       676
 -1       212   12    0    1
 -2       677       679       678
 -1       213   12    0    1
 -2       679        28       680
 -1       214   12    0    1
 -2        23       717       716
 -1       215   12    0    1
 -2       717       719       718
 -1       216   12    0    1
 -2       719       721       720
 -1       217   12    0    1
 -2       721       723       722
 -1       218   12    0    1
 -2       723       725       724
 -1       219   12    0    1
 -2       725       727       726
 -1       220   12    0    1
 -2       727       729       728
 -1       221   12    0    1
 -2       729        24       730
 -1       222   12    0    1
 -2        24       767       766
 -1       223   12    0    1
 -2       767       769       768
 -1       224   12    0    1
 -2       769        31       770
 -1       225   12    0    1
 -2        24       772       771
 -1       226   12    0    1
 -2       772       774       773
 -1       227   12    0    1
 -2       774       776       775
 -1       228   12    0    1
 -2       776       778       777
 -1       229   12    0    1
 -2       778       780       779
 -1       230   12    0    1
 -2       780       782       781
 -1       231   12    0    1
 -2       782       784       783
 -1       232   12    0    1
 -2       784        32       785
 -1       233   12    0    1
 -2        25       787       786
 -1       234   12    0    1
 -2       787       789       788
 -1       235   12    0    1
 -2       789       791       790
 -1       236   12    0    1
 -2       791       793       792
 -1       237   12    0    1
 -2       793       795       794
 -1       238   12    0    1
 -2       795       797       796
 -1       239   12    0    1
 -2       797       799       798
 -1       240   12    0    1
 -2       799        26       800
 -1       241   12    0    1
 -2        25       802       801
 -1       242   12    0    1
 -2       802       804       803
 -1       243   12    0    1
 -2       804        32       805
 -1       244   12    0    1
 -2        25       807       806
 -1       245   12    0    1
 -2       807       809       808
 -1       246   12    0    1
 -2       809       811       810
 -1       247   12    0    1
 -2       811       813       812
 -1       248   12    0    1
 -2       813       815       814
 -1       249   12    0    1
 -2       815       817       816
 -1       250   12    0    1
 -2       817       819       818
 -1       251   12    0    1
 -2       819        33       820
 -1       252   12    0    1
 -2        26       822       821
 -1       253   12    0    1
 -2       822       824       823
 -1       254   12    0    1
 -2       824       826       825
 -1       255   12    0    1
 -2       826       828       827
 -1       256   12    0    1
 -2       828       830       829
 -1       257   12    0    1
 -2       830       832       831
 -1       258   12    0    1
 -2       832       834       833
 -1       259   12    0    1
 -2       834        27       835
 -1       260   12    0    1
 -2        26       837       836
 -1       261   12    0    1
 -2       837       839       838
 -1       262   12    0    1
 -2       839        33       840
 -1       263   12    0    1
 -2        26       842       841
 -1       264   12    0    1
 -2       842       844       843
 -1       265   12    0    1
 -2       844       846       845
 -1       266   12    0    1
 -2       846       848       847
 -1       267   12    0    1
 -2       848       850       849
 -1       268   12    0    1
 -2       850       852       851
 -1       269   12    0    1
 -2       852       854       853
 -1       270   12    0    1
 -2       854        34       855
 -1       271   12    0    1
 -2        27       857       856
 -1       272   12    0    1
 -2       857       859       858
 -1       273   12    0    1
 -2       859       861       860
 -1       274   12    0    1
 -2       861       863       862
 -1       275   12    0    1
 -2       863       865       864
 -1       276   12    0    1
 -2       865       867       866
 -1       277   12    0    1
 -2       867       869       868
 -1       278   12    0    1
 -2       869        28       870
 -1       279   12    0    1
 -2        27       872       871
 -1       280   12    0    1
 -2       872       874       873
 -1       281   12    0    1
 -2       874        34       875
 -1       282   12    0    1
 -2        27       877       876
 -1       283   12    0    1
 -2       877       879       878
 -1       284   12    0    1
 -2       879       881       880
 -1       285   12    0    1
 -2       881       883       882
 -1       286   12    0    1
 -2       883       885       884
 -1       287   12    0    1
 -2       885       887       886
 -1       288   12    0    1
 -2       887       889       888
 -1       289   12    0    1
 -2       889        35       890
 -1       290   12    0    1
 -2        28       892       891
 -1       291   12    0    1
 -2       892       894       893
 -1       292   12    0    1
 -2       894        35       895
 -1       293   12    0    1
 -2        31       927       926
 -1       294   12    0    1
 -2       927       929       928
 -1       295   12    0    1
 -2       929       931       930
 -1       296   12    0    1
 -2       931       933       932
 -1       297   12    0    1
 -2       933       935       934
 -1       298   12    0    1
 -2       935       937       936
 -1       299   12    0    1
 -2       937       939       938
 -1       300   12    0    1
 -2       939        32       940
 -1       301   12    0    1
 -2        33       957       956
 -1       302   12    0    1
 -2       957       959       958
 -1       303   12    0    1
 -2       959       961       960
 -1       304   12    0    1
 -2       961       963       962
 -1       305   12    0    1
 -2       963       965       964
 -1       306   12    0    1
 -2       965       967       966
 -1       307   12    0    1
 -2       967       969       968
 -1       308   12    0    1
 -2       969        34       970
 -1       309   12    0    1
 -2        34       972       971
 -1       310   12    0    1
 -2       972       974       973
 -1       311   12    0    1
 -2       974       976       975
 -1       312   12    0    1
 -2       976       978       977
 -1       313   12    0    1
 -2       978       980       979
 -1       314   12    0    1
 -2       980       982       981
 -1       315   12    0    1
 -2       982       984       983
 -1       316   12    0    1
 -2       984        35       985
 -3
    1PSTEP                         1           1           1          
  100CL  101 2.50000E-01         608                     0    1           1
 -4  DISP        4    1
 -5  D1          1    2    1    0
 -5  D2          1    2    2    0
 -5  D3          1    2    3    0
 -5  ALL         1    2    0    0    1ALL
 -1         1 4.00688E-05 0.00000E+00 0.00000E+00
 -1         2 3.28558E-05 0.00000E+00 0.00000E+00
 -1         3 2.40234E-05 0.00000E+00 0.00000E+00
 -1         4 2.16342E-05 0.00000E+00 0.00000E+00
 -1         5 2.04660E-05 0.00000E+00 0.00000E+00
 -1         8 3.21119E-05-3.69594E-07 0.00000E+00
 -1         9 2.34947E-05-1.83902E-07 0.00000E+00
 -1        10 2.44697E-05-7.74553E-07 0.00000E+00
 -1        11 2.22493E-05-1.38026E-07 0.00000E+00
 -1        12 2.00427E-05 3.10594E-07 0.00000E+00
 -1        15 2.34869E-05-3.86539E-07 0.00000E+00
 -1        16 1.92363E-05-2.28343E-07 0.00000E+00
 -1        17 1.81425E-05-1.59748E-06 0.00000E+00
 -1        18 1.82819E-05-2.70505E-07 0.00000E+00
 -1        19 1.88533E-05 6.17570E-07 0.00000E+00
 -1        20 1.90409E-05 7.37783E-06 0.00000E+00
 -1        21 1.89827E-05 1.61576E-05 0.00000E+00
 -1        23 6.86734E-06-2.54293E-05-2.01948E-28
 -1        24 6.83246E-06-1.91989E-06 0.00000E+00
 -1        25 1.70406E-05-1.79674E-07 0.00000E+00
 -1        26 1.75002E-05 8.31784E-07 0.00000E+00
 -1        27 1.69511E-05 7.07500E-06 0.00000E+00
 -1        28 1.65130E-05 1.58867E-05 0.00000E+00
 -1        31 1.94692E-08-1.94180E-06 0.00000E+00
 -1        32 0.00000E+00 0.00000E+00 0.00000E+00
 -1        33 1.59792E-05 1.14977E-06 0.00000E+00
 -1        34 1.53667E-05 7.04713E-06 0.00000E+00
 -1        35 1.45833E-05 1.57669E-05 0.00000E+00
 -1        36 3.96317E-05 4.83338E-19 6.61744E-24
 -1        37 3.91807E-05 1.54314E-18 6.61744E-24
 -1        38 3.87305E-05 1.85625E-18 1.32349E-23
 -1        39 3.82778E-05 7.46608E-19 0.00000E+00
 -1        40 3.78249E-05-2.71542E-19 0.00000E+00
 -1        41 3.73716E-05 4.79804E-19 0.00000E+00
 -1        42 3.69182E-05 1.52532E-18 0.00000E+00
 -1        43 3.64647E-05 1.61932E-18 6.61744E-24
 -1        44 3.60111E-05 9.78644E-19 0.00000E+00
 -1        45 3.55577E-05 1.29378E-19 0.00000E+00
 -1        46 3.51043E-05-1.35356E-19 0.00000E+00
 -1        47 3.46513E-05 9.91525E-19-6.61744E-24
 -1        48 3.41984E-05 1.91380E-18 1.32349E-23
 -1        49 3.37476E-05 1.37219E-18 6.61744E-24
 -1        50 3.32961E-05 4.16496E-19 1.32349E-23
 -1        51 3.94773E-05-6.21390E-08 0.00000E+00
 -1        52 3.84863E-05-1.22253E-07 0.00000E+00
 -1        53 3.71730E-05-1.82125E-07 0.00000E+00
 -1        54 3.56185E-05-2.42458E-07 1.65436E-24
 -1        55 3.39042E-05-3.03977E-07 2.63664E-24
 -1        56 3.91974E-05-3.53184E-07-1.32349E-23
 -1        57 3.83075E-05-7.58085E-07 0.00000E+00
 -1        58 3.74234E-05-1.17210E-06 0.00000E+00
 -1        59 3.65260E-05-1.56853E-06 1.32349E-23
 -1        60 3.56107E-05-1.91756E-06-2.64698E-23
 -1        61 3.46667E-05-2.19336E-06 0.00000E+00
 -1        62 3.36885E-05-2.37808E-06 0.00000E+00
 -1        63 3.26703E-05-2.45696E-06-1.32349E-23
 -1        64 3.16113E-05-2.42709E-06 0.00000E+00
 -1        65 3.05117E-05-2.28874E-06-1.32349E-23
 -1        66 2.93763E-05-2.05463E-06 0.00000E+00
 -1        67 2.82119E-05-1.73992E-06 1.32349E-23
 -1        68 2.70266E-05-1.36957E-06 0.00000E+00
 -1        69 2.58361E-05-9.67715E-07-1.32349E-23
 -1        70 2.46435E-05-5.66932E-07 0.00000E+00
 -1        86 3.23312E-05-3.36738E-08 3.30872E-24
 -1        87 3.07969E-05-6.25164E-08-8.27181E-25
 -1        88 2.86988E-05-9.27018E-08 1.65436E-24
 -1        89 2.64836E-05-1.22785E-07-8.27181E-25
 -1        90 2.45996E-05-1.51935E-07 0.00000E+00
 -1        91 3.23579E-05-8.29724E-08 0.00000E+00
 -1        92 3.17795E-05 1.09646E-08 0.00000E+00
 -1        93 3.12173E-05 6.41930E-08-1.32349E-23
 -1        94 3.07515E-05-1.46186E-07 0.00000E+00
 -1        95 3.02829E-05-3.49436E-07-1.32349E-23
 -1        96 2.97101E-05-2.75942E-07 0.00000E+00
 -1        97 2.91277E-05-1.76946E-07 1.32349E-23
 -1        98 2.86301E-05-3.04415E-07 0.00000E+00
 -1        99 2.81526E-05-4.85122E-07 0.00000E+00
 -1       100 2.76296E-05-5.44669E-07 0.00000E+00
 -1       101 2.70808E-05-5.35029E-07 0.00000E+00
 -1       102 2.65265E-05-5.09476E-07-6.61744E-24
 -1       103 2.59974E-05-5.50967E-07 1.32349E-23
 -1       104 2.55265E-05-7.39881E-07 6.61744E-24
 -1       105 2.50367E-05-8.81316E-07 1.32349E-23
 -1       106 2.38746E-05-2.62550E-19-3.30872E-24
 -1       107 2.37251E-05-8.49781E-19-1.65436E-24
 -1       108 2.35756E-05-1.45635E-18 3.30872E-24
 -1       109 2.34259E-05-1.59070E-18-1.65436E-24
 -1       110 2.32762E-05-1.34646E-18 0.00000E+00
 -1       111 2.31265E-05-7.20533E-19 1.65436E-24
 -1       112 2.29768E-05-3.78073E-20 0.00000E+00
 -1       113 2.28271E-05 1.49510E-19 0.00000E+00
 -1       114 2.26774E-05 1.26434E-20 0.00000E+00
 -1       115 2.25277E-05-6.62151E-19-1.65436E-24
 -1       116 2.23780E-05-1.27484E-18 0.00000E+00
 -1       117 2.22284E-05-1.52425E-18 0.00000E+00
 -1       118 2.20789E-05-1.26591E-18-3.30872E-24
 -1       119 2.19298E-05-6.02444E-19 0.00000E+00
 -1       120 2.17806E-05-1.03608E-19 0.00000E+00
 -1       121 2.41182E-05-1.29040E-07-3.30872E-24
 -1       122 2.43224E-05-2.58055E-07 0.00000E+00
 -1       123 2.45478E-05-3.87083E-07 3.30872E-24
 -1       124 2.47063E-05-5.16140E-07 0.00000E+00
 -1       125 2.47095E-05-6.45182E-07 3.30872E-24
 -1       141 2.15602E-05 1.14160E-19 3.30872E-24
 -1       142 2.14866E-05 5.90659E-19 0.00000E+00
 -1       143 2.14130E-05 1.24953E-18 1.65436E-24
 -1       144 2.13394E-05 1.82879E-18-8.27181E-25
 -1       145 2.12659E-05 2.04107E-18 0.00000E+00
 -1       146 2.11924E-05 1.76874E-18 0.00000E+00
 -1       147 2.11188E-05 1.10780E-18-1.65436E-24
 -1       148 2.10453E-05 1.27769E-19 8.27181E-25
 -1       149 2.09718E-05-9.43244E-19 1.65436E-24
 -1       150 2.08983E-05-1.70082E-18 0.00000E+00
 -1       151 2.08249E-05-2.22063E-18 1.65436E-24
 -1       152 2.07516E-05-2.21675E-18 8.27181E-25
 -1       153 2.06784E-05-1.81240E-18-1.65436E-24
 -1       154 2.06061E-05-1.08607E-18 0.00000E+00
 -1       155 2.05335E-05-3.49862E-19 4.13590E-25
 -1       156 2.17258E-05-2.44889E-08 1.65436E-24
 -1       157 2.20000E-05-4.66840E-08-8.27181E-25
 -1       158 2.23198E-05-6.90634E-08 0.00000E+00
 -1       159 2.25482E-05-9.14068E-08 0.00000E+00
 -1       160 2.25647E-05-1.13561E-07 0.00000E+00
 -1       161 2.15543E-05-3.45643E-08 3.30872E-24
 -1       162 2.14774E-05-7.70528E-08 0.00000E+00
 -1       163 2.13944E-05-1.03370E-07 0.00000E+00
 -1       164 2.12964E-05-8.94651E-08 0.00000E+00
 -1       165 2.11837E-05-3.65369E-08 0.00000E+00
 -1       166 2.10569E-05 5.40707E-08-1.65436E-24
 -1       167 2.09263E-05 1.54824E-07 0.00000E+00
 -1       168 2.08022E-05 2.38155E-07 1.65436E-24
 -1       169 2.06905E-05 2.88531E-07 0.00000E+00
 -1       170 2.05970E-05 2.90555E-07 0.00000E+00
 -1       171 2.05156E-05 2.60317E-07 0.00000E+00
 -1       172 2.04404E-05 2.14099E-07 8.27181E-25
 -1       173 2.03611E-05 1.78783E-07-1.65436E-24
 -1       174 2.02686E-05 1.81649E-07-8.27181E-25
 -1       175 2.01608E-05 2.24234E-07 0.00000E+00
 -1       191 2.04526E-05 5.17497E-08 1.65436E-24
 -1       192 2.04160E-05 1.03535E-07 0.00000E+00
 -1       193 2.03563E-05 1.55327E-07 0.00000E+00
 -1       194 2.02739E-05 2.07115E-07 0.00000E+00
 -1       195 2.01692E-05 2.58885E-07 1.65436E-24
 -1       266 3.06744E-05-3.77906E-07 0.00000E+00
 -1       267 2.92369E-05-3.80058E-07 0.00000E+00
 -1       268 2.77994E-05-3.82610E-07 0.00000E+00
 -1       269 2.63619E-05-3.83997E-07 0.00000E+00
 -1       270 2.49244E-05-3.85361E-07-2.06795E-25
 -1       271 3.09530E-05 6.51810E-07 0.00000E+00
 -1       272 2.98814E-05 1.37032E-06 0.00000E+00
 -1       273 2.89098E-05 1.82470E-06 0.00000E+00
 -1       274 2.80220E-05 2.04534E-06 0.00000E+00
 -1       275 2.72085E-05 2.06704E-06 2.64698E-23
 -1       276 2.64559E-05 1.92490E-06 0.00000E+00
 -1       277 2.57508E-05 1.65546E-06-2.64698E-23
 -1       278 2.50793E-05 1.29612E-06-1.32349E-23
 -1       279 2.44272E-05 8.84953E-07 0.00000E+00
 -1       280 2.37802E-05 4.60447E-07 0.00000E+00
 -1       281 2.31239E-05 6.11274E-08-2.64698E-23
 -1       282 2.24443E-05-2.74561E-07 0.00000E+00
 -1       283 2.17269E-05-5.08812E-07 0.00000E+00
 -1       284 2.09606E-05-6.03585E-07 0.00000E+00
 -1       285 2.01281E-05-5.24077E-07 1.32349E-23
 -1       286 2.35480E-05 3.55839E-07-8.27181E-25
 -1       287 2.36092E-05 5.85161E-07 0.00000E+00
 -1       288 2.36700E-05 6.08785E-07 1.65436E-24
 -1       289 2.37322E-05 5.30816E-07 0.00000E+00
 -1       290 2.37945E-05 3.85898E-07 1.65436E-24
 -1       291 2.38571E-05 2.08488E-07 8.27181E-25
 -1       292 2.39197E-05 1.06380E-08-1.65436E-24
 -1       293 2.39823E-05-1.95665E-07 8.27181E-25
 -1       294 2.40450E-05-4.04261E-07 0.00000E+00
 -1       295 2.41076E-05-6.08998E-07 8.27181E-25
 -1       296 2.41701E-05-8.01069E-07 0.00000E+00
 -1       297 2.42324E-05-9.71622E-07 0.00000E+00
 -1       298 2.42946E-05-1.09697E-06 0.00000E+00
 -1       299 2.43553E-05-1.15330E-06 0.00000E+00
 -1       300 2.44165E-05-1.06963E-06 0.00000E+00
 -1       301 2.27837E-05-1.93429E-07-1.65436E-24
 -1       302 2.20668E-05-1.97582E-07 0.00000E+00
 -1       303 2.13486E-05-2.01174E-07-1.65436E-24
 -1       304 2.06342E-05-2.05382E-07 0.00000E+00
 -1       305 1.99285E-05-2.11339E-07 3.30872E-24
 -1       306 2.29797E-05 2.32204E-07 0.00000E+00
 -1       307 2.25622E-05 3.63840E-07-3.30872E-24
 -1       308 2.22338E-05 2.58545E-07 0.00000E+00
 -1       309 2.19761E-05-3.87888E-08 6.61744E-24
 -1       310 2.17727E-05-4.81712E-07 0.00000E+00
 -1       311 2.16062E-05-1.02367E-06 6.61744E-24
 -1       312 2.14592E-05-1.61769E-06-1.32349E-23
 -1       313 2.13140E-05-2.21666E-06 0.00000E+00
 -1       314 2.11530E-05-2.77344E-06 0.00000E+00
 -1       315 2.09586E-05-3.24103E-06-6.61744E-24
 -1       316 2.07134E-05-3.57278E-06-1.32349E-23
 -1       317 2.04002E-05-3.72244E-06-6.61744E-24
 -1       318 2.00019E-05-3.64450E-06 0.00000E+00
 -1       319 1.95029E-05-3.29368E-06 3.30872E-24
 -1       320 1.88848E-05-2.62686E-06-6.61744E-24
 -1       321 2.43308E-05-5.13855E-07 0.00000E+00
 -1       322 2.41918E-05-5.34381E-07 1.65436E-24
 -1       323 2.40528E-05-7.36168E-07 0.00000E+00
 -1       324 2.39137E-05-1.01811E-06 0.00000E+00
 -1       325 2.37747E-05-1.20853E-06 0.00000E+00
 -1       326 2.36356E-05-1.13634E-06-1.65436E-24
 -1       327 2.34966E-05-8.61636E-07-3.30872E-24
 -1       328 2.33575E-05-4.45827E-07-1.65436E-24
 -1       329 2.32184E-05-7.45371E-08 0.00000E+00
 -1       330 2.30794E-05 6.68987E-08 0.00000E+00
 -1       331 2.29404E-05-4.50318E-09-3.30872E-24
 -1       332 2.28015E-05-2.70375E-07-1.65436E-24
 -1       333 2.26626E-05-5.41129E-07 0.00000E+00
 -1       334 2.25242E-05-6.27134E-07 1.65436E-24
 -1       335 2.23856E-05-5.01335E-07 3.30872E-24
 -1       336 2.39059E-05-9.11999E-07 3.30872E-24
 -1       337 2.30686E-05-1.04958E-06 0.00000E+00
 -1       338 2.20155E-05-1.18730E-06 0.00000E+00
 -1       339 2.08046E-05-1.32477E-06 0.00000E+00
 -1       340 1.94942E-05-1.46242E-06-3.30872E-24
 -1       356 2.21130E-05 3.01421E-07 0.00000E+00
 -1       357 2.19744E-05 6.55076E-07 1.65436E-24
 -1       358 2.18360E-05 8.05758E-07 3.30872E-24
 -1       359 2.16971E-05 6.37561E-07 0.00000E+00
 -1       360 2.15582E-05 3.15273E-07 0.00000E+00
 -1       361 2.14193E-05 4.64700E-09 0.00000E+00
 -1       362 2.12803E-05-1.38844E-07 0.00000E+00
 -1       363 2.11413E-05 3.92117E-08 0.00000E+00
 -1       364 2.10023E-05 4.10201E-07 0.00000E+00
 -1       365 2.08634E-05 8.44276E-07 0.00000E+00
 -1       366 2.07245E-05 1.15605E-06 0.00000E+00
 -1       367 2.05859E-05 1.16091E-06 0.00000E+00
 -1       368 2.04474E-05 9.44401E-07-3.30872E-24
 -1       369 2.03102E-05 5.93438E-07 1.65436E-24
 -1       370 2.01726E-05 3.13752E-07 1.65436E-24
 -1       371 2.16588E-05-1.62591E-07-1.65436E-24
 -1       372 2.08514E-05-1.84859E-07 4.13590E-25
 -1       373 1.99711E-05-2.07326E-07-8.27181E-25
 -1       374 1.91618E-05-2.28995E-07 0.00000E+00
 -1       375 1.85551E-05-2.50607E-07 0.00000E+00
 -1       406 1.98900E-05 3.62022E-07 0.00000E+00
 -1       407 1.97173E-05 4.13472E-07-8.27181E-25
 -1       408 1.95258E-05 4.64894E-07 0.00000E+00
 -1       409 1.93171E-05 5.16207E-07 0.00000E+00
 -1       410 1.90924E-05 5.67288E-07-1.65436E-24
 -1       501 1.91611E-05 9.02417E-07 6.61744E-24
 -1       502 1.90922E-05 2.94483E-06 0.00000E+00
 -1       503 1.90226E-05 5.12096E-06 0.00000E+00
 -1       504 1.89556E-05 6.65260E-06-8.27181E-25
 -1       505 1.88896E-05 7.07574E-06 0.00000E+00
 -1       506 1.88234E-05 5.92964E-06 8.27181E-25
 -1       507 1.87551E-05 3.52200E-06-1.65436E-24
 -1       508 1.86842E-05 1.64230E-07 0.00000E+00
 -1       509 1.86128E-05-3.36638E-06 0.00000E+00
 -1       510 1.85433E-05-6.29204E-06 0.00000E+00
 -1       511 1.84762E-05-8.13168E-06-1.65436E-24
 -1       512 1.84107E-05-8.40739E-06 0.00000E+00
 -1       513 1.83448E-05-7.40708E-06 0.00000E+00
 -1       514 1.82774E-05-5.42246E-06-8.27181E-25
 -1       515 1.82096E-05-3.22766E-06-1.65436E-24
 -1       521 1.83417E-05 4.15769E-08 0.00000E+00
 -1       522 1.75206E-05 5.62898E-08 0.00000E+00
 -1       523 1.67781E-05-1.36834E-07-2.64698E-23
 -1       524 1.60952E-05-4.97453E-07-1.32349E-23
 -1       525 1.54582E-05-9.81740E-07-2.64698E-23
 -1       526 1.48506E-05-1.54593E-06-1.32349E-23
 -1       527 1.42561E-05-2.14543E-06-2.64698E-23
 -1       528 1.36580E-05-2.73555E-06 0.00000E+00
 -1       529 1.30397E-05-3.27159E-06-2.64698E-23
 -1       530 1.23846E-05-3.70930E-06 1.32349E-23
 -1       531 1.16764E-05-4.00522E-06-2.64698E-23
 -1       532 1.08997E-05-4.11683E-06 1.32349E-23
 -1       533 1.00388E-05-4.00322E-06 0.00000E+00
 -1       534 9.08159E-06-3.62420E-06 0.00000E+00
 -1       535 8.01044E-06-2.94384E-06 1.32349E-23
 -1       536 1.81468E-05-4.09019E-07 1.65436E-24
 -1       537 1.81549E-05 4.92095E-07-4.13590E-25
 -1       538 1.81631E-05 1.13579E-06 0.00000E+00
 -1       539 1.81720E-05 1.55215E-06-5.16988E-26
 -1       540 1.81809E-05 1.77118E-06 1.03398E-25
 -1       541 1.81901E-05 1.82288E-06 0.00000E+00
 -1       542 1.81992E-05 1.73726E-06 0.00000E+00
 -1       543 1.82083E-05 1.54426E-06 1.03398E-25
 -1       544 1.82175E-05 1.27386E-06 2.06795E-25
 -1       545 1.82266E-05 9.56010E-07 0.00000E+00
 -1       546 1.82357E-05 6.20654E-07 2.06795E-25
 -1       547 1.82449E-05 2.97745E-07 0.00000E+00
 -1       548 1.82540E-05 1.72225E-08-4.13590E-25
 -1       549 1.82633E-05-1.90962E-07 0.00000E+00
 -1       550 1.82725E-05-2.96836E-07 0.00000E+00
 -1       551 1.64625E-05-1.64909E-06 0.00000E+00
 -1       552 1.45781E-05-1.70010E-06 0.00000E+00
 -1       553 1.25804E-05-1.75145E-06 0.00000E+00
 -1       554 1.05620E-05-1.80372E-06 1.65436E-24
 -1       555 8.61563E-06-1.85742E-06 0.00000E+00
 -1       556 1.76761E-05-4.58008E-07 0.00000E+00
 -1       557 1.73118E-05 4.16081E-07 0.00000E+00
 -1       558 1.70381E-05 1.04976E-06 0.00000E+00
 -1       559 1.68448E-05 1.47020E-06 1.65436E-24
 -1       560 1.67214E-05 1.70455E-06 3.30872E-24
 -1       561 1.66576E-05 1.78013E-06 0.00000E+00
 -1       562 1.66431E-05 1.72425E-06 0.00000E+00
 -1       563 1.66677E-05 1.56429E-06 0.00000E+00
 -1       564 1.67211E-05 1.32759E-06 0.00000E+00
 -1       565 1.67930E-05 1.04152E-06 0.00000E+00
 -1       566 1.68731E-05 7.33461E-07 8.27181E-25
 -1       567 1.69512E-05 4.30773E-07-2.06795E-25
 -1       568 1.70171E-05 1.60829E-07 8.27181E-25
 -1       569 1.70606E-05-4.90323E-08-2.06795E-25
 -1       570 1.70715E-05-1.71482E-07 8.27181E-25
 -1       571 1.83164E-05-1.99082E-07 0.00000E+00
 -1       572 1.83518E-05-1.50463E-07-2.06795E-25
 -1       573 1.83875E-05-1.20416E-07-8.27181E-25
 -1       574 1.84233E-05-1.04495E-07 0.00000E+00
 -1       575 1.84591E-05-9.82382E-08 0.00000E+00
 -1       576 1.84950E-05-9.71518E-08 0.00000E+00
 -1       577 1.85309E-05-9.67417E-08-1.65436E-24
 -1       578 1.85667E-05-9.25095E-08 0.00000E+00
 -1       579 1.86026E-05-7.99564E-08 0.00000E+00
 -1       580 1.86385E-05-5.45838E-08 8.27181E-25
 -1       581 1.86743E-05-1.18940E-08 0.00000E+00
 -1       582 1.87102E-05 5.26064E-08 0.00000E+00
 -1       583 1.87461E-05 1.43406E-07 3.30872E-24
 -1       584 1.87819E-05 2.64946E-07 0.00000E+00
 -1       585 1.88177E-05 4.21645E-07 0.00000E+00
 -1       586 1.81024E-05-2.55006E-07 8.27181E-25
 -1       587 1.78950E-05-2.39502E-07 0.00000E+00
 -1       588 1.76723E-05-2.24039E-07-4.13590E-25
 -1       589 1.74472E-05-2.08713E-07-7.75482E-26
 -1       590 1.72325E-05-1.93669E-07 0.00000E+00
 -1       591 1.82290E-05-1.85581E-07 0.00000E+00
 -1       592 1.81803E-05-1.16739E-07 0.00000E+00
 -1       593 1.81362E-05-6.06826E-08 8.27181E-25
 -1       594 1.80955E-05-1.44888E-08 4.13590E-25
 -1       595 1.80574E-05 2.47795E-08 0.00000E+00
 -1       596 1.80208E-05 6.00345E-08 0.00000E+00
 -1       597 1.79845E-05 9.41849E-08-4.13590E-25
 -1       598 1.79476E-05 1.30136E-07 2.06795E-25
 -1       599 1.79090E-05 1.70795E-07 4.13590E-25
 -1       600 1.78674E-05 2.19065E-07 2.06795E-25
 -1       601 1.78220E-05 2.77851E-07 8.27181E-25
 -1       602 1.77715E-05 3.50062E-07-1.03398E-25
 -1       603 1.77150E-05 4.38608E-07 0.00000E+00
 -1       604 1.76514E-05 5.46416E-07-1.55096E-25
 -1       605 1.75797E-05 6.76407E-07 0.00000E+00
 -1       606 1.88664E-05 8.81364E-07 1.65436E-24
 -1       607 1.88785E-05 1.17592E-06 0.00000E+00
 -1       608 1.88903E-05 1.49941E-06 0.00000E+00
 -1       609 1.89020E-05 1.84976E-06-8.27181E-25
 -1       610 1.89137E-05 2.22488E-06 0.00000E+00
 -1       611 1.89253E-05 2.62265E-06 0.00000E+00
 -1       612 1.89369E-05 3.04094E-06 0.00000E+00
 -1       613 1.89485E-05 3.47763E-06 4.13590E-25
 -1       614 1.89601E-05 3.93058E-06 0.00000E+00
 -1       615 1.89717E-05 4.39766E-06 0.00000E+00
 -1       616 1.89833E-05 4.87676E-06 8.27181E-25
 -1       617 1.89949E-05 5.36573E-06 8.27181E-25
 -1       618 1.90064E-05 5.86245E-06 0.00000E+00
 -1       619 1.90180E-05 6.36479E-06-2.06795E-25
 -1       620 1.90295E-05 6.87062E-06 4.13590E-25
 -1       621 1.86088E-05 6.53464E-07 0.00000E+00
 -1       622 1.83679E-05 6.89476E-07 0.00000E+00
 -1       623 1.81335E-05 7.25475E-07-8.27181E-25
 -1       624 1.79088E-05 7.61375E-07 0.00000E+00
 -1       625 1.76967E-05 7.97099E-07-4.13590E-25
 -1       626 1.87812E-05 8.97768E-07 0.00000E+00
 -1       627 1.86968E-05 1.21013E-06 0.00000E+00
 -1       628 1.86014E-05 1.55157E-06 0.00000E+00
 -1       629 1.84963E-05 1.91871E-06 0.00000E+00
 -1       630 1.83828E-05 2.30813E-06-1.65436E-24
 -1       631 1.82623E-05 2.71639E-06 0.00000E+00
 -1       632 1.81360E-05 3.14003E-06-1.65436E-24
 -1       633 1.80052E-05 3.57561E-06 0.00000E+00
 -1       634 1.78713E-05 4.01966E-06-8.27181E-25
 -1       635 1.77354E-05 4.46873E-06 4.13590E-25
 -1       636 1.75990E-05 4.91938E-06 0.00000E+00
 -1       637 1.74632E-05 5.36814E-06-4.13590E-25
 -1       638 1.73294E-05 5.81155E-06 4.13590E-25
 -1       639 1.71988E-05 6.24616E-06-2.06795E-25
 -1       640 1.70725E-05 6.66849E-06-2.06795E-25
 -1       641 1.90379E-05 7.88854E-06 0.00000E+00
 -1       642 1.90345E-05 8.42457E-06 0.00000E+00
 -1       643 1.90311E-05 8.98196E-06 0.00000E+00
 -1       644 1.90276E-05 9.55673E-06-5.16988E-26
 -1       645 1.90241E-05 1.01444E-05 0.00000E+00
 -1       646 1.90206E-05 1.07405E-05 0.00000E+00
 -1       647 1.90171E-05 1.13402E-05-1.03398E-25
 -1       648 1.90135E-05 1.19389E-05 5.16988E-26
 -1       649 1.90100E-05 1.25318E-05-1.03398E-25
 -1       650 1.90064E-05 1.31142E-05 0.00000E+00
 -1       651 1.90029E-05 1.36818E-05 0.00000E+00
 -1       652 1.89993E-05 1.42301E-05 0.00000E+00
 -1       653 1.89957E-05 1.47553E-05-2.06795E-25
 -1       654 1.89918E-05 1.52536E-05 0.00000E+00
 -1       655 1.89880E-05 1.57221E-05 0.00000E+00
 -1       656 1.85948E-05 7.32893E-06-8.27181E-25
 -1       657 1.82247E-05 7.27761E-06 0.00000E+00
 -1       658 1.79029E-05 7.22642E-06-8.27181E-25
 -1       659 1.76018E-05 7.17522E-06 4.13590E-25
 -1       660 1.72937E-05 7.12392E-06 0.00000E+00
 -1       661 1.88854E-05 7.89964E-06 0.00000E+00
 -1       662 1.87248E-05 8.43850E-06 0.00000E+00
 -1       663 1.85593E-05 8.99067E-06 0.00000E+00
 -1       664 1.83902E-05 9.55294E-06-4.13590E-25
 -1       665 1.82186E-05 1.01220E-05-8.27181E-25
 -1       666 1.80457E-05 1.06945E-05 4.13590E-25
 -1       667 1.78728E-05 1.12672E-05 0.00000E+00
 -1       668 1.77010E-05 1.18368E-05 0.00000E+00
 -1       669 1.75316E-05 1.24000E-05-8.27181E-25
 -1       670 1.73658E-05 1.29535E-05 0.00000E+00
 -1       671 1.72049E-05 1.34942E-05 8.27181E-25
 -1       672 1.70500E-05 1.40185E-05 4.13590E-25
 -1       673 1.69024E-05 1.45234E-05 8.27181E-25
 -1       674 1.67631E-05 1.50053E-05 0.00000E+00
 -1       675 1.66336E-05 1.54611E-05 4.13590E-25
 -1       676 1.85635E-05 1.61122E-05 0.00000E+00
 -1       677 1.81456E-05 1.60666E-05-8.27181E-25
 -1       678 1.77303E-05 1.60212E-05 0.00000E+00
 -1       679 1.73189E-05 1.59759E-05 4.13590E-25
 -1       680 1.69127E-05 1.59306E-05 0.00000E+00
 -1       716 6.86630E-06-2.39599E-05 0.00000E+00
 -1       717 6.86526E-06-2.24906E-05-2.01948E-28
 -1       718 6.86423E-06-2.10213E-05-8.07794E-28
 -1       719 6.86319E-06-1.95519E-05 0.00000E+00
 -1       720 6.86215E-06-1.80826E-05-3.23117E-27
 -1       721 6.86110E-06-1.66132E-05-3.23117E-27
 -1       722 6.86006E-06-1.51439E-05-1.29247E-26
 -1       723 6.85899E-06-1.36746E-05-1.29247E-26
 -1       724 6.85790E-06-1.22052E-05 5.16988E-26
 -1       725 6.85674E-06-1.07359E-05 0.00000E+00
 -1       726 6.85552E-06-9.26655E-06 2.06795E-25
 -1       727 6.85391E-06-7.79721E-06 0.00000E+00
 -1       728 6.85225E-06-6.32788E-06 0.00000E+00
 -1       729 6.84863E-06-4.85854E-06-8.27181E-25
 -1       730 6.84567E-06-3.38920E-06 0.00000E+00
 -1       766 5.41370E-06-1.93303E-06-3.30872E-24
 -1       767 4.09610E-06-1.93580E-06 0.00000E+00
 -1       768 2.88880E-06-1.93908E-06 0.00000E+00
 -1       769 1.80095E-06-1.94028E-06 2.06795E-25
 -1       770 8.41525E-07-1.94127E-06-2.06795E-25
 -1       771 6.01202E-06-7.41137E-07 0.00000E+00
 -1       772 5.27790E-06 1.97300E-07 1.32349E-23
 -1       773 4.62574E-06 9.16122E-07 0.00000E+00
 -1       774 4.04777E-06 1.43650E-06 0.00000E+00
 -1       775 3.53623E-06 1.77966E-06-1.32349E-23
 -1       776 3.08316E-06 1.96697E-06 6.61744E-24
 -1       777 2.68051E-06 2.01982E-06 0.00000E+00
 -1       778 2.32025E-06 1.95970E-06 6.61744E-24
 -1       779 1.99429E-06 1.80810E-06 1.32349E-23
 -1       780 1.69456E-06 1.58659E-06 0.00000E+00
 -1       781 1.41299E-06 1.31674E-06-1.32349E-23
 -1       782 1.14150E-06 1.02016E-06-6.61744E-24
 -1       783 8.72042E-07 7.18488E-07 1.32349E-23
 -1       784 5.96771E-07 4.33383E-07-3.30872E-24
 -1       785 3.07764E-07 1.86488E-07 0.00000E+00
 -1       786 1.70677E-05-7.32070E-08-4.13590E-25
 -1       787 1.70963E-05 8.40791E-09-2.06795E-25
 -1       788 1.71250E-05 6.92623E-08 0.00000E+00
 -1       789 1.71538E-05 1.13454E-07 4.13590E-25
 -1       790 1.71827E-05 1.45074E-07-8.27181E-25
 -1       791 1.72117E-05 1.68209E-07 0.00000E+00
 -1       792 1.72406E-05 1.86944E-07 0.00000E+00
 -1       793 1.72696E-05 2.05361E-07 0.00000E+00
 -1       794 1.72986E-05 2.27543E-07 0.00000E+00
 -1       795 1.73276E-05 2.57575E-07 0.00000E+00
 -1       796 1.73565E-05 2.99542E-07 0.00000E+00
 -1       797 1.73855E-05 3.57536E-07 4.13590E-25
 -1       798 1.74144E-05 4.35653E-07-8.27181E-25
 -1       799 1.74432E-05 5.37992E-07-4.13590E-25
 -1       800 1.74720E-05 6.68668E-07 0.00000E+00
 -1       801 1.56363E-05-1.44902E-07 0.00000E+00
 -1       802 1.24741E-05-1.12019E-07 4.13590E-25
 -1       803 8.44118E-06-8.21002E-08-1.03398E-25
 -1       804 4.42584E-06-5.37878E-08 0.00000E+00
 -1       805 1.31632E-06-2.24020E-08 0.00000E+00
 -1       806 1.69719E-05-8.64985E-08 0.00000E+00
 -1       807 1.69068E-05-6.12079E-09-4.13590E-25
 -1       808 1.68453E-05 6.40153E-08 0.00000E+00
 -1       809 1.67867E-05 1.26355E-07 4.13590E-25
 -1       810 1.67299E-05 1.83337E-07-8.27181E-25
 -1       811 1.66743E-05 2.37388E-07-4.13590E-25
 -1       812 1.66188E-05 2.90934E-07 0.00000E+00
 -1       813 1.65627E-05 3.46400E-07 4.13590E-25
 -1       814 1.65049E-05 4.06210E-07-8.27181E-25
 -1       815 1.64445E-05 4.72788E-07 2.06795E-25
 -1       816 1.63807E-05 5.48555E-07-4.13590E-25
 -1       817 1.63126E-05 6.35936E-07-2.06795E-25
 -1       818 1.62392E-05 7.37351E-07-4.13590E-25
 -1       819 1.61597E-05 8.55208E-07-2.06795E-25
 -1       820 1.60732E-05 9.91914E-07-6.20385E-25
 -1       821 1.74679E-05 1.03967E-06 4.13590E-25
 -1       822 1.74336E-05 1.29625E-06 4.13590E-25
 -1       823 1.73993E-05 1.59636E-06 0.00000E+00
 -1       824 1.73647E-05 1.93479E-06 0.00000E+00
 -1       825 1.73301E-05 2.30632E-06-8.27181E-25
 -1       826 1.72954E-05 2.70571E-06 0.00000E+00
 -1       827 1.72607E-05 3.12771E-06-8.27181E-25
 -1       828 1.72260E-05 3.56707E-06 4.13590E-25
 -1       829 1.71912E-05 4.01853E-06-8.27181E-25
 -1       830 1.71565E-05 4.47682E-06 4.13590E-25
 -1       831 1.71218E-05 4.93667E-06 8.27181E-25
 -1       832 1.70871E-05 5.39282E-06 4.13590E-25
 -1       833 1.70525E-05 5.83998E-06 8.27181E-25
 -1       834 1.70181E-05 6.27291E-06 0.00000E+00
 -1       835 1.69838E-05 6.68633E-06 0.00000E+00
 -1       836 1.72828E-05 8.84051E-07-8.27181E-25
 -1       837 1.70251E-05 9.38024E-07-8.27181E-25
 -1       838 1.67463E-05 9.91932E-07-1.65436E-24
 -1       839 1.64661E-05 1.04564E-06-4.13590E-25
 -1       840 1.62039E-05 1.09933E-06 0.00000E+00
 -1       841 1.74316E-05 1.04839E-06-4.13590E-25
 -1       842 1.73395E-05 1.32737E-06-2.06795E-25
 -1       843 1.72288E-05 1.65620E-06 0.00000E+00
 -1       844 1.71040E-05 2.02236E-06 0.00000E+00
 -1       845 1.69682E-05 2.41774E-06 0.00000E+00
 -1       846 1.68245E-05 2.83428E-06-2.06795E-25
 -1       847 1.66750E-05 3.26635E-06 0.00000E+00
 -1       848 1.65217E-05 3.70837E-06 2.06795E-25
 -1       849 1.63664E-05 4.15586E-06-4.13590E-25
 -1       850 1.62107E-05 4.60433E-06 0.00000E+00
 -1       851 1.60562E-05 5.04949E-06 0.00000E+00
 -1       852 1.59045E-05 5.48700E-06 0.00000E+00
 -1       853 1.57577E-05 5.91168E-06 0.00000E+00
 -1       854 1.56173E-05 6.31820E-06 5.16988E-26
 -1       855 1.54866E-05 6.69935E-06-2.06795E-25
 -1       856 1.69254E-05 7.48195E-06-4.13590E-25
 -1       857 1.68981E-05 7.94360E-06 0.00000E+00
 -1       858 1.68709E-05 8.45242E-06 0.00000E+00
 -1       859 1.68433E-05 9.00078E-06 4.13590E-25
 -1       860 1.68158E-05 9.58106E-06 0.00000E+00
 -1       861 1.67881E-05 1.01856E-05 0.00000E+00
 -1       862 1.67605E-05 1.08068E-05 8.27181E-25
 -1       863 1.67328E-05 1.14370E-05 0.00000E+00
 -1       864 1.67052E-05 1.20686E-05-8.27181E-25
 -1       865 1.66775E-05 1.26939E-05 0.00000E+00
 -1       866 1.66499E-05 1.33053E-05 0.00000E+00
 -1       867 1.66222E-05 1.38952E-05 0.00000E+00
 -1       868 1.65947E-05 1.44559E-05 0.00000E+00
 -1       869 1.65672E-05 1.49798E-05 0.00000E+00
 -1       870 1.65397E-05 1.54592E-05 0.00000E+00
 -1       871 1.66407E-05 7.07120E-06 0.00000E+00
 -1       872 1.63704E-05 7.06686E-06 0.00000E+00
 -1       873 1.61243E-05 7.06240E-06 4.13590E-25
 -1       874 1.58859E-05 7.05777E-06 0.00000E+00
 -1       875 1.56388E-05 7.05295E-06 0.00000E+00
 -1       876 1.68489E-05 7.49125E-06-8.27181E-25
 -1       877 1.67329E-05 7.94951E-06 0.00000E+00
 -1       878 1.66034E-05 8.44390E-06 0.00000E+00
 -1       879 1.64625E-05 8.96923E-06 0.00000E+00
 -1       880 1.63121E-05 9.52016E-06 0.00000E+00
 -1       881 1.61541E-05 1.00914E-05 8.27181E-25
 -1       882 1.59904E-05 1.06778E-05 0.00000E+00
 -1       883 1.58230E-05 1.12740E-05 8.27181E-25
 -1       884 1.56540E-05 1.18748E-05 0.00000E+00
 -1       885 1.54851E-05 1.24749E-05 0.00000E+00
 -1       886 1.53184E-05 1.30692E-05 0.00000E+00
 -1       887 1.51559E-05 1.36523E-05 8.27181E-25
 -1       888 1.49995E-05 1.42189E-05 1.65436E-24
 -1       889 1.48508E-05 1.47639E-05 4.13590E-25
 -1       890 1.47123E-05 1.52819E-05 8.27181E-25
 -1       891 1.61650E-05 1.58669E-05 0.00000E+00
 -1       892 1.58659E-05 1.58468E-05 0.00000E+00
 -1       893 1.55870E-05 1.58267E-05-4.13590E-25
 -1       894 1.52995E-05 1.58066E-05 0.00000E+00
 -1       895 1.49745E-05 1.57865E-05 0.00000E+00
 -1       926 1.90828E-08-1.25540E-06-5.16988E-26
 -1       927 1.89084E-08-7.02779E-07 0.00000E+00
 -1       928 1.87825E-08-2.71434E-07 0.00000E+00
 -1       929 1.87203E-08 5.11679E-08-3.23117E-27
 -1       930 1.86828E-08 2.77551E-07-6.46235E-27
 -1       931 1.86611E-08 4.20241E-07 3.23117E-27
 -1       932 1.86421E-08 4.91766E-07 0.00000E+00
 -1       933 1.86081E-08 5.04657E-07 0.00000E+00
 -1       934 1.85561E-08 4.71442E-07 0.00000E+00
 -1       935 1.84186E-08 4.04652E-07 0.00000E+00
 -1       936 1.82304E-08 3.16818E-07 2.06795E-25
 -1       937 1.76420E-08 2.20471E-07 0.00000E+00
 -1       938 1.69978E-08 1.28133E-07 0.00000E+00
 -1       939 1.43628E-08 5.23258E-08 0.00000E+00
 -1       940 1.24004E-08 5.47275E-09-3.30872E-24
 -1       956 1.59418E-05 1.37333E-06-4.13590E-25
 -1       957 1.59036E-05 1.63741E-06-2.06795E-25
 -1       958 1.58653E-05 1.93771E-06 4.13590E-25
 -1       959 1.58270E-05 2.26966E-06 2.06795E-25
 -1       960 1.57886E-05 2.62868E-06-8.27181E-25
 -1       961 1.57501E-05 3.01016E-06 0.00000E+00
 -1       962 1.57117E-05 3.40951E-06 8.27181E-25
 -1       963 1.56732E-05 3.82210E-06-4.13590E-25
 -1       964 1.56348E-05 4.24334E-06-8.27181E-25
 -1       965 1.55963E-05 4.66861E-06 0.00000E+00
 -1       966 1.55579E-05 5.09330E-06-1.65436E-24
 -1       967 1.55194E-05 5.51280E-06 0.00000E+00
 -1       968 1.54810E-05 5.92251E-06 0.00000E+00
 -1       969 1.54427E-05 6.31783E-06 0.00000E+00
 -1       970 1.54044E-05 6.69418E-06 1.65436E-24
 -1       971 1.53187E-05 7.41015E-06 0.00000E+00
 -1       972 1.52697E-05 7.83087E-06 4.13590E-25
 -1       973 1.52207E-05 8.30223E-06 0.00000E+00
 -1       974 1.51715E-05 8.81705E-06 0.00000E+00
 -1       975 1.51223E-05 9.36816E-06 0.00000E+00
 -1       976 1.50730E-05 9.94835E-06 0.00000E+00
 -1       977 1.50237E-05 1.05504E-05 0.00000E+00
 -1       978 1.49744E-05 1.11672E-05 0.00000E+00
 -1       979 1.49251E-05 1.17915E-05-1.65436E-24
 -1       980 1.48758E-05 1.24161E-05 0.00000E+00
 -1       981 1.48265E-05 1.30338E-05 0.00000E+00
 -1       982 1.47773E-05 1.36374E-05 8.27181E-25
 -1       983 1.47281E-05 1.42197E-05 0.00000E+00
 -1       984 1.46792E-05 1.47735E-05 8.27181E-25
 -1       985 1.46303E-05 1.52916E-05 8.27181E-25
 -3
    1PSTEP                         2           1           1          
  100CL  101 2.50000E-01         608                     0    1           1
 -4  STRESS      6    1
 -5  SXX         1    4    1    1
 -5  SYY         1    4    2    2
 -5  SZZ         1    4    3    3
 -5  SXY         1    4    1    2
 -5  SYZ         1    4    2    3
 -5  SZX         1    4    3    1
 -1         1-1.24592E+06-4.25389E+05-2.72024E+05-3.87577E+05 1.89175E-10 9.70128E-12
 -1         2-8.22607E+05-2.11462E+05-1.06763E+05-1.36339E+05 4.23703E-09 7.72222E-09
 -1         3-2.14681E+05-1.91634E+05-6.85851E+03 2.38825E+04 1.32979E-09 1.83553E-09
 -1         4-2.00936E+05-3.19583E+04 2.83783E+02-1.90615E+04 1.75023E-10 3.80602E-11
 -1         5-1.11161E+05 2.80514E+04-4.57583E+04-1.07141E+03 7.27323E-09-1.30868E-10
 -1         8-5.56960E+05-2.57680E+05-7.56713E+04-3.42930E+05 1.13990E-10 2.22644E-09
 -1         9-5.80672E+05-2.03854E+05-8.24739E+04-2.03185E+05 1.26638E-09-3.36149E-10
 -1        10-2.90853E+05-2.02182E+05-2.08134E+04-7.22076E+04 4.86584E-09-5.54829E-09
 -1        11-1.79930E+05-4.95163E+04 1.17665E+02 2.37325E+02-3.01796E-10 1.89797E-09
 -1        12-1.60692E+05 9.89869E+03-5.89969E+04-1.50904E+04 1.10625E-08-5.90502E-09
 -1        15 9.52794E+02 5.15240E+02 2.95702E+03 6.03826E-01-5.56639E-11 3.45363E-09
 -1        16-9.20183E+05-2.44766E+05-8.65926E+04-2.97319E+05 7.15659E-10-5.62341E-09
 -1        17-1.73752E+05-1.32377E+05-1.90506E+04-1.13979E+05-3.80169E-10 1.29755E-10
 -1        18 1.03354E+04-8.87939E+03-8.12904E+03-2.65371E+04-1.41972E-10-5.33328E-10
 -1        19 4.22278E+04 5.14848E+04-5.21388E+01 1.38116E+03-1.57343E-11 2.71029E-11
 -1        20 1.83929E+04-3.16666E+04-7.44389E+03 1.47774E+04 1.34008E-09-1.78716E-10
 -1        21-3.66469E+03-5.04869E+04 1.38645E+04-4.12975E+02 4.48678E-09-3.72623E-10
 -1        23 2.31273E-01 1.10175E-01 4.23679E+00 1.70870E-04 3.29973E-09 1.17847E-09
 -1        24-4.63318E+05-1.38809E+05 2.47966E+04-2.41565E+05-8.47285E-10 9.69158E-10
 -1        25 6.73611E+03 1.78731E+04 9.66858E+03-1.33574E+05-1.60071E-10-1.37115E-09
 -1        26 9.32010E+02 3.52227E+04 1.61892E+02-5.76464E+03 1.09241E-10 7.46070E-12
 -1        27-7.62231E+03-2.33582E+04-1.03724E+04 2.57251E+04 1.22388E-09-2.11185E-09
 -1        28-2.90294E+03-3.89376E+04-1.37988E+03 1.50131E+04 2.61593E-09-7.27194E-10
 -1        31 1.46641E+03 1.69121E+03 2.51196E+03-3.90801E+01 1.24830E-09-6.36845E-10
 -1        32-1.89613E+05 4.35926E+04 1.18263E+05-2.74648E+05-5.06456E-10 6.59687E-10
 -1        33-4.16283E+04 4.21059E+04 1.29389E+04-1.31958E+04-4.52701E-10 8.74631E-10
 -1        34-5.05833E+04-2.03109E+03 4.59671E+03 1.94081E+04 6.26649E-10 2.25441E-10
 -1        35-7.67542E+03-1.05291E+04 5.75110E+02 2.44380E+04 7.76427E-10-4.85670E-10
 -1        36-1.27927E+06 3.76954E+04-8.68343E+04 2.36061E-07-1.77357E-10-1.92449E-09
 -1        37-1.31692E+06-4.36266E+04-6.15003E+04 4.06685E-07-2.18588E-09 1.57888E-09
 -1        38-1.29379E+06 5.92640E+03-2.24731E+04 4.06044E-07-1.01191E-09-1.35606E-09
 -1        39-1.29997E+06-6.85766E+03-1.41541E+04-3.07481E-07 1.40293E-09-2.14641E-09
 -1        40-1.29619E+06 9.30269E+02-5.78713E+03-4.70298E-07 2.99481E-10-5.03405E-10
 -1        41-1.29716E+06-1.09253E+03-3.47731E+03 1.90990E-07 5.31700E-10 1.00090E-09
 -1        42-1.29659E+06 1.62123E+02-1.73249E+03 8.67356E-09-4.93723E-09 1.21014E-09
 -1        43-1.29675E+06-3.01146E+02-1.43965E+03-3.57781E-07-4.21681E-09 1.40335E-09
 -1        44-1.29660E+06 1.38995E+02-1.52791E+03-4.96705E-07 1.02489E-09 4.99710E-10
 -1        45-1.29706E+06-8.94202E+02-2.88433E+03-1.51921E-07-2.71979E-09-4.02915E-09
 -1        46-1.29628E+06 7.55096E+02-4.72108E+03 3.82569E-08-5.58250E-09-1.24601E-10
 -1        47-1.29932E+06-5.55912E+03-1.14874E+04 1.14440E-07-3.73100E-10-1.42859E-09
 -1        48-1.29434E+06 4.80322E+03-1.82214E+04-1.33118E-07 3.08372E-09 9.57698E-10
 -1        49-1.31306E+06-3.53579E+04-4.98472E+04 9.83448E-08-2.12609E-09-1.43609E-09
 -1        50-1.28258E+06 3.05499E+04-7.03821E+04 2.29088E-07-5.58145E-09-1.70985E-10
 -1        51 9.86130E+03-1.65139E+05 1.66267E+04-4.22554E+05-2.91038E-11-1.10595E-09
 -1        52 4.30607E+03-1.63223E+05 1.06944E+04-4.67940E+05 1.34605E-10-5.19503E-09
 -1        53 2.85468E+03-1.66204E+05 9.62962E+03-4.21436E+05-1.81899E-11-4.91127E-10
 -1        54 7.81467E+03-1.63940E+05 1.58703E+04-4.69165E+05 2.91038E-11-1.54978E-09
 -1        55 1.98563E+04-1.68954E+05 2.95700E+04-4.21267E+05 1.05501E-10 6.65750E-10
 -1        56-2.25498E+06-2.44346E+05-1.94376E+05-8.76279E+05 4.25644E-10 3.90719E-09
 -1        57-2.35095E+06-4.17686E+05-1.33245E+05-8.49300E+05 7.86713E-10 4.58567E-09
 -1        58-2.29395E+06-3.11165E+05-4.56487E+04-8.64000E+05 3.15595E-10-1.41154E-09
 -1        59-2.30600E+06-3.39721E+05-2.79525E+04-8.63273E+05-2.25896E-10-1.52841E-09
 -1        60-2.29969E+06-3.21427E+05-1.06796E+04-8.62584E+05-6.75300E-10-2.34013E-09
 -1        61-2.29982E+06-3.27352E+05-6.24538E+03-8.64354E+05-7.88589E-10 3.40918E-09
 -1        62-2.30008E+06-3.23409E+05-2.96107E+03-8.62949E+05-7.15829E-10-4.01315E-11
 -1        63-2.30003E+06-3.24728E+05-2.56174E+03-8.63280E+05 6.01531E-10 1.22995E-09
 -1        64-2.29946E+06-3.24036E+05-2.91399E+03-8.63660E+05-3.48955E-10 3.86876E-10
 -1        65-2.30211E+06-3.24978E+05-6.10236E+03-8.61703E+05-4.01315E-11-2.52726E-10
 -1        66-2.29801E+06-3.23173E+05-1.04166E+04-8.64525E+05-7.55222E-10-8.43556E-10
 -1        67-2.30979E+06-3.35371E+05-2.72512E+04-8.58748E+05-1.15506E-10 1.27329E-10
 -1        68-2.29183E+06-3.13764E+05-4.45002E+04-8.66586E+05-1.40062E-10-1.52249E-09
 -1        69-2.35415E+06-4.10832E+05-1.29887E+05-8.44508E+05-5.82077E-11 6.82121E-10
 -1        70-2.25390E+06-2.48576E+05-1.89483E+05-8.78493E+05 1.27329E-10 2.04454E-09
 -1        86-1.63660E+04-8.34189E+04 3.88160E+04 5.36735E+03 1.74077E-09-2.76486E-09
 -1        87 2.06718E+04-6.51560E+04 3.06047E+04-2.36003E+04 2.90834E-09-9.75376E-10
 -1        88-4.21053E+03-7.73742E+04 1.63044E+04 5.53464E+03 2.65459E-09 6.65906E-10
 -1        89 1.59120E+04-6.75864E+04 2.43235E+04-2.36662E+04 3.92106E-09-6.70411E-10
 -1        90-1.16075E+04-8.10104E+04 2.80979E+04 5.43330E+03 1.44610E-09 9.68328E-10
 -1        91-1.18040E+06-1.37670E+05-7.25551E+04-4.55473E+05 8.55632E-06-3.19785E-06
 -1        92-1.21874E+06-2.04503E+05-5.04091E+04-4.42646E+05 1.70855E-05-6.41389E-06
 -1        93-1.19541E+06-1.63682E+05-1.70078E+04-4.50326E+05 7.93321E-06-2.97578E-06
 -1        94-1.20132E+06-1.74336E+05-1.06360E+04-4.48505E+05-1.22419E-06 4.55704E-07
 -1        95-1.19779E+06-1.67830E+05-3.99303E+03-4.49606E+05-4.42040E-06 1.65988E-06
 -1        96-1.19868E+06-1.69445E+05-2.38827E+03-4.49206E+05-7.60924E-06 2.86071E-06
 -1        97-1.19805E+06-1.68571E+05-1.14147E+03-4.49622E+05 4.09483E-06-1.53448E-06
 -1        98-1.19822E+06-1.68948E+05-1.04843E+03-4.49454E+05 1.57710E-05-5.91010E-06
 -1        99-1.19825E+06-1.68327E+05-1.22694E+03-4.49357E+05-2.21867E-06 8.30510E-07
 -1       100-1.19875E+06-1.69617E+05-2.68013E+03-4.49264E+05-2.02117E-05 7.57975E-06
 -1       101-1.19752E+06-1.67902E+05-4.48533E+03-4.49813E+05-6.05787E-07 2.26236E-07
 -1       102-1.20191E+06-1.74979E+05-1.20132E+04-4.48285E+05 1.90065E-05-7.12928E-06
 -1       103-1.19510E+06-1.62968E+05-1.91892E+04-4.50339E+05 2.57400E-06-9.57954E-07
 -1       104-1.22128E+06-2.09253E+05-5.69000E+04-4.41921E+05-1.38750E-05 5.20578E-06
 -1       105-1.17818E+06-1.33635E+05-8.18953E+04-4.56186E+05-6.95642E-06 2.59803E-06
 -1       106-4.27236E+05 2.15307E+03-4.96391E+03-2.62225E-07 1.43593E-09-2.40243E-09
 -1       107-4.29355E+05-2.49213E+03-3.51603E+03-1.38401E-07 2.18994E-10-8.91816E-10
 -1       108-4.28066E+05 3.38600E+02-1.28815E+03-5.41467E-07 9.66764E-10 6.23459E-10
 -1       109-4.28387E+05-3.92311E+02-8.16276E+02-8.14180E-08 7.59762E-10-9.20807E-10
 -1       110-4.28202E+05 5.36460E+01-3.44613E+02 3.58120E-07-1.83258E-10-8.21800E-10
 -1       111-4.28230E+05-6.62606E+01-2.28049E+02 2.05498E-07 4.18371E-10-2.11980E-09
 -1       112-4.28223E+05 1.26062E+01-1.53725E+02-8.70336E-08 6.49201E-10-1.04168E-09
 -1       113-4.28219E+05-4.23177E+01-2.02647E+02-1.44494E-07 3.43101E-10 9.64372E-10
 -1       114-4.28213E+05 2.97077E+01-3.05224E+02 3.44717E-08-1.22513E-10 4.05606E-10
 -1       115-4.28308E+05-2.12913E+02-6.67030E+02 5.58997E-08-1.24969E-09-9.27912E-10
 -1       116-4.28134E+05 1.83177E+02-1.13380E+03 2.76494E-07-7.83500E-10-9.08926E-11
 -1       117-4.28862E+05-1.35244E+03-2.78959E+03-1.16637E-07-1.07751E-09-1.63664E-09
 -1       118-4.27660E+05 1.16903E+03-4.43464E+03-8.72996E-08 3.50727E-10 5.80030E-10
 -1       119-4.32205E+05-8.60600E+03-1.21355E+04-8.06470E-08 1.16220E-09-1.43336E-09
 -1       120-4.24793E+05 7.43553E+03-1.71389E+04-3.15915E-08 1.52653E-10-4.22006E-10
 -1       121-8.71595E+01-3.68954E+05 3.77752E+02 8.23389E+03 2.49223E-10-1.00272E-09
 -1       122 1.89913E+02-3.68771E+05 4.47974E+02 4.78012E+04 5.83213E-10-3.28860E-10
 -1       123-6.22970E+01-3.68945E+05 5.45648E+02 8.19775E+03 2.95302E-10 1.54091E-09
 -1       124 6.55984E+02-3.68450E+05 1.24621E+03 4.77206E+04 3.27532E-10 2.17256E-10
 -1       125-5.31233E+02-3.69216E+05 1.84112E+03 8.31452E+03-3.21620E-10 1.92222E-09
 -1       141-2.10778E+05-9.19709E+02 2.11879E+03-9.85553E-09 1.35602E-10-7.42602E-10
 -1       142-2.09838E+05 1.06433E+03 1.49724E+03-9.75253E-08-2.60541E-10 1.33554E-09
 -1       143-2.10423E+05-1.44426E+02 5.40482E+02-1.28254E-07-2.65814E-10 6.05581E-10
 -1       144-2.10252E+05 1.65881E+02 3.27757E+02-1.64613E-07 8.15085E-13 1.25858E-09
 -1       145-2.10363E+05-2.14257E+01 1.06967E+02 1.22159E-07-1.91265E-10-7.38048E-10
 -1       146-2.10326E+05 1.69249E+01 1.12073E+01-1.05257E-07-2.01650E-10-3.43633E-10
 -1       147-2.10349E+05 4.50427E+00-9.57803E+01-1.29748E-07 2.77549E-10 4.99114E-10
 -1       148-2.10368E+05-5.61804E+01-2.69144E+02-1.23655E-07 3.21313E-10-3.05924E-10
 -1       149-2.10322E+05 5.16706E+01-5.13777E+02-4.19654E-08-6.10825E-10 4.84505E-10
 -1       150-2.10543E+05-3.87550E+02-1.19988E+03-2.61692E-07-7.92928E-10-5.57634E-10
 -1       151-2.10174E+05 3.35829E+02-2.07024E+03 1.05602E-07-5.65124E-10 2.12140E-10
 -1       152-2.11562E+05-2.48214E+03-5.11571E+03 7.34886E-08 6.72020E-11-9.34506E-11
 -1       153-2.09303E+05 2.14591E+03-8.13913E+03-3.94657E-09 2.13011E-09 1.38016E-09
 -1       154-2.17698E+05-1.57978E+04-2.22772E+04 1.74222E-07 7.76983E-10-9.73387E-10
 -1       155-2.04039E+05 1.36493E+04-3.14611E+04-2.10262E-07 4.53718E-09 1.15506E-09
 -1       156-6.75203E+03-6.48866E+04 1.59738E+04-1.27687E+02 7.40329E-10-4.85913E-06
 -1       157 8.79956E+03-5.75852E+04 1.30564E+04 4.69907E+02 3.28282E-09-9.70405E-06
 -1       158-2.04577E+03-6.27435E+04 7.67176E+03-1.39900E+02 8.80789E-10-4.85822E-06
 -1       159 8.64296E+03-5.76208E+04 1.28560E+04 4.23354E+02 1.81672E-10-2.08239E-09
 -1       160-6.59565E+03-6.48509E+04 1.56069E+04-8.11336E+01-1.00044E-11-4.53346E-10
 -1       161-2.04132E+05-2.87398E+04 1.29467E+02-7.65037E+04-3.27942E-06 1.22920E-06
 -1       162-2.03984E+05-2.86776E+04 8.83932E+01-7.65885E+04-6.55628E-06 2.45682E-06
 -1       163-2.04094E+05-2.87039E+04 2.58345E+01-7.65256E+04-9.46082E-06 3.54689E-06
 -1       164-2.04056E+05-2.86928E+04 8.85559E+00-7.65318E+04-1.23603E-05 4.63611E-06
 -1       165-2.04061E+05-2.87246E+04-1.35980E+01-7.65605E+04-7.71252E-06 2.89146E-06
 -1       166-2.04103E+05-2.86730E+04-4.31732E+01-7.64875E+04-3.05703E-06 1.14822E-06
 -1       167-2.04047E+05-2.87238E+04-8.84035E+01-7.65698E+04 3.26878E-06-1.22431E-06
 -1       168-2.04119E+05-2.87425E+04-2.14697E+02-7.64991E+04 9.59015E-06-3.59744E-06
 -1       169-2.04044E+05-2.86550E+04-3.93539E+02-7.65489E+04 9.43734E-06-3.53650E-06
 -1       170-2.04272E+05-2.91165E+04-9.91776E+02-7.64986E+04 9.27707E-06-3.48071E-06
 -1       171-2.03894E+05-2.83498E+04-1.71250E+03-7.65704E+04 3.16832E-06-1.18724E-06
 -1       172-2.05477E+05-3.12075E+04-4.62340E+03-7.61421E+04-2.94130E-06 1.10369E-06
 -1       173-2.02839E+05-2.65643E+04-7.39433E+03-7.69054E+04-6.75259E-06 2.53162E-06
 -1       174-2.13011E+05-4.43478E+04-2.19275E+04-7.36202E+04-1.05555E-05 3.95759E-06
 -1       175-1.96362E+05-1.52114E+04-3.15588E+04-7.90921E+04-5.27716E-06 1.97455E-06
 -1       191 1.80373E+02 1.48227E+05 2.88784E+02-2.11585E+03-1.07775E-10-3.62434E-10
 -1       192 6.76313E+01 1.48261E+05 1.77624E+02-2.20450E+03-7.77050E-11 1.25942E-09
 -1       193 3.52135E+01 1.48240E+05 1.51343E+02-2.05409E+03-2.97845E-10 1.23600E-09
 -1       194 1.02409E+02 1.48272E+05 2.39695E+02-2.32358E+03-2.26578E-10 3.13366E-09
 -1       195 2.88134E+02 1.48214E+05 4.43297E+02-1.99668E+03-4.56566E-10 1.13891E-09
 -1       266-1.67517E+04-7.74817E+03 3.86560E+04-1.24248E+01 5.09317E-11 2.03532E-09
 -1       267 1.93992E+04 9.04565E+03 2.74246E+04 1.42879E+01 6.36646E-11-3.27578E-10
 -1       268-2.64342E+03-1.29520E+03 1.01505E+04-1.86055E+00-4.09273E-12-1.15929E-09
 -1       269 3.12032E+03 1.55294E+03 6.63407E+03 2.16299E+00-3.97904E-12 8.37023E-10
 -1       270-4.76329E+02-2.57620E+02 3.18516E+03-3.01819E-01-2.92175E-11 1.55788E-09
 -1       271-1.74027E+06-2.15796E+05-1.36871E+05-6.72290E+05-4.03816E-10-1.33878E-09
 -1       272-1.78949E+06-3.08234E+05-8.69674E+04-6.71459E+05 1.86219E-10-2.13186E-09
 -1       273-1.76462E+06-2.48048E+05-3.23018E+04-6.67948E+05-1.16188E-10-2.27556E-09
 -1       274-1.76125E+06-2.67265E+05-1.78789E+04-6.78526E+05-2.78646E-10 2.00498E-09
 -1       275-1.76774E+06-2.51340E+05-7.51320E+03-6.67265E+05 6.04132E-10 3.09228E-11
 -1       276-1.75755E+06-2.63241E+05-3.98927E+03-6.79660E+05 8.25594E-10-1.57138E-09
 -1       277-1.76828E+06-2.51542E+05-2.00980E+03-6.67027E+05 5.83213E-11 2.87230E-09
 -1       278-1.75694E+06-2.63060E+05-1.53329E+03-6.80018E+05 1.15097E-09 1.64856E-09
 -1       279-1.76837E+06-2.51468E+05-1.76302E+03-6.66939E+05-1.11754E-10 2.18722E-09
 -1       280-1.75718E+06-2.63443E+05-3.30973E+03-6.80037E+05 9.77172E-10 1.17052E-09
 -1       281-1.76805E+06-2.51185E+05-6.13478E+03-6.67001E+05 9.43281E-10-1.21418E-10
 -1       282-1.76000E+06-2.66917E+05-1.45568E+04-6.79359E+05 8.82380E-10-9.82254E-11
 -1       283-1.76560E+06-2.48416E+05-2.62700E+04-6.67457E+05 3.63116E-10-1.06047E-09
 -1       284-1.78282E+06-3.00393E+05-7.07310E+04-6.73799E+05 4.41105E-10 1.97088E-09
 -1       285-1.74587E+06-2.22118E+05-1.11314E+05-6.70910E+05 5.78439E-10-1.45519E-11
 -1       286 1.69633E+05-2.11722E+04 4.88104E+04 2.35342E+02 1.14164E-09-1.32786E-09
 -1       287 1.90930E+05 2.45052E+04 3.45752E+04-4.00312E+02-1.07879E-09-4.40195E-09
 -1       288 1.77840E+05-3.32756E+03 1.26416E+04 4.70150E+01-1.21555E-06-1.26329E-09
 -1       289 1.81369E+05 3.85084E+03 7.96687E+03-1.54297E+02-2.43934E-06-4.96118E-09
 -1       290 1.79194E+05-5.22589E+02 3.26835E+03-1.06715E+01-1.39597E-06 5.70196E-09
 -1       291 1.79794E+05 6.16415E+02 1.98116E+03-7.91341E+01-3.49371E-07-9.78105E-10
 -1       292 1.79415E+05-9.37110E+01 1.02058E+03-2.81494E+01-1.55219E-07 3.08944E-11
 -1       293 1.79574E+05 1.89533E+02 9.09179E+02-5.96940E+01 3.86307E-08-3.02135E-09
 -1       294 1.79414E+05-9.57784E+01 1.03865E+03-3.01120E+01-2.83569E-07 3.10934E-11
 -1       295 1.79803E+05 6.34088E+02 2.03350E+03-6.85472E+01-6.06459E-07 4.45681E-10
 -1       296 1.79186E+05-5.38190E+02 3.36248E+03-1.92960E+01-1.79316E-06-4.82623E-09
 -1       297 1.81423E+05 3.96589E+03 8.20174E+03-1.18219E+02-2.98044E-06 1.25556E-09
 -1       298 1.77794E+05-3.42697E+03 1.30171E+04 1.95604E+01-1.49310E-06 2.14277E-09
 -1       299 1.91241E+05 2.52316E+04 3.55965E+04-2.84825E+02 1.88692E-10 7.61793E-09
 -1       300 1.69368E+05-2.17990E+04 5.02673E+04 1.47310E+02 2.58264E-09 7.13044E-10
 -1       301 1.36408E+04-8.01174E+03 4.07321E+04-1.19511E+04 7.27596E-12-9.91520E-10
 -1       302 5.18198E+03 4.58936E+02 2.76526E+04-1.47821E+04 4.91468E-10-1.08025E-09
 -1       303 1.09350E+03-5.12434E+03 2.56467E+04-1.19460E+04-8.18545E-12-3.11786E-10
 -1       304 9.83010E+03 4.05757E+03 4.24792E+04-1.47681E+04 5.02041E-10 1.33377E-09
 -1       305 2.70661E+04-1.16017E+04 7.58362E+04-1.19542E+04 5.09317E-11 3.83920E-10
 -1       306-7.99759E+05-1.04805E+05-4.79205E+04-3.10021E+05 2.76941E-10 2.05546E-09
 -1       307-8.06746E+05-1.47262E+05-3.04273E+04-3.21372E+05 5.34044E-10 5.26143E-10
 -1       308-8.08333E+05-1.16011E+05-1.13166E+04-3.08457E+05 1.53932E-10 1.05501E-10
 -1       309-7.96874E+05-1.32979E+05-6.26561E+03-3.23923E+05-3.95630E-10-2.95495E-09
 -1       310-8.09425E+05-1.17157E+05-2.64611E+03-3.08225E+05 5.74914E-10 8.95625E-10
 -1       311-7.95634E+05-1.31535E+05-1.42885E+03-3.24292E+05-2.03954E-10-2.45450E-10
 -1       312-8.09583E+05-1.17256E+05-7.67692E+02-3.08179E+05-9.69749E-11 1.81956E-09
 -1       313-7.95511E+05-1.31393E+05-6.78221E+02-3.24312E+05 2.04636E-11 1.51579E-09
 -1       314-8.09548E+05-1.17284E+05-9.03565E+02-3.08211E+05-5.09772E-10-5.21709E-10
 -1       315-7.95772E+05-1.31481E+05-1.79991E+03-3.24141E+05 5.93445E-10-1.66870E-09
 -1       316-8.09290E+05-1.17206E+05-3.40011E+03-3.08320E+05 8.20592E-10 4.21096E-10
 -1       317-7.97438E+05-1.33278E+05-8.07958E+03-3.23571E+05-2.40220E-10 7.18273E-10
 -1       318-8.07850E+05-1.15757E+05-1.46117E+04-3.08648E+05 3.50383E-10 4.93856E-10
 -1       319-8.10218E+05-1.51686E+05-3.92835E+04-3.20236E+05 2.91561E-09 5.84623E-09
 -1       320-7.96769E+05-1.01293E+05-6.18718E+04-3.10674E+05 6.63931E-11 6.98492E-10
 -1       321-3.97523E+05 3.20231E+02-7.56132E+02-7.64306E+01 9.31616E-10-6.34458E-10
 -1       322-3.97731E+05-3.73239E+02-5.22456E+02-2.65961E+02-9.23179E-10 4.79474E-10
 -1       323-3.97611E+05 5.28465E+01-1.97278E+02 2.66529E+02-2.09370E-06-5.06191E-09
 -1       324-3.97592E+05-5.94780E+01-1.22605E+02-4.35821E+02-4.17636E-06-2.37605E-09
 -1       325-3.97662E+05 6.65529E+00-7.13411E+01 9.34330E+01-2.10205E-06 9.20636E-10
 -1       326-3.97564E+05-1.29241E+01-5.31785E+01 1.20255E+02-1.79591E-09 4.24079E-09
 -1       327-3.97639E+05 6.13319E+00-7.56311E+01-2.89558E+02 4.37206E-07 2.45349E-09
 -1       328-3.97582E+05-2.99364E+01-1.36116E+02 4.19056E+02 8.78636E-07 1.03127E-09
 -1       329-3.97644E+05 2.38669E+01-2.54104E+02-2.05373E+02 4.33657E-07 2.88907E-10
 -1       330-3.97653E+05-1.82261E+02-5.60072E+02-6.77309E+01 8.59056E-10-2.64217E-09
 -1       331-3.97567E+05 1.58214E+02-9.79686E+02 1.97238E+02 3.64841E-08-1.81672E-10
 -1       332-3.98142E+05-1.16870E+03-2.40242E+03-4.79345E+02 7.23844E-08-4.02196E-10
 -1       333-3.97156E+05 1.01037E+03-3.83482E+03 2.06249E+02 3.64534E-08-9.08130E-10
 -1       334-4.01021E+05-7.43515E+03-1.04784E+04-8.51395E+01-9.32714E-10 1.50089E-09
 -1       335-3.94690E+05 6.42338E+03-1.48176E+04-1.96977E+02-1.37633E-09 1.62072E-09
 -1       336 1.18299E+02-3.92789E+05-1.17209E+03-5.17185E+03-1.34582E-09-1.97406E-09
 -1       337-6.89915E+02-3.93305E+05-2.51055E+03-3.09941E+04-2.32103E-09-2.28101E-09
 -1       338 5.15461E+02-3.92529E+05-4.31046E+03-5.02032E+03-2.14641E-09-2.76850E-09
 -1       339-5.68088E+03-3.96198E+05-1.08000E+04-3.11955E+04-3.13412E-09-5.64739E-09
 -1       340 4.52056E+03-3.89988E+05-1.65168E+04-4.97112E+03-2.26737E-09-1.16222E-09
 -1       356-3.94560E+05 6.42258E+03-1.48052E+04-3.51282E+02-1.92620E-09 1.85810E-09
 -1       357-4.00904E+05-7.43034E+03-1.04759E+04 2.64009E+02-3.14544E-09 2.81432E-09
 -1       358-3.97083E+05 1.00639E+03-3.85138E+03 3.41147E+01-1.54122E-09-1.52340E-09
 -1       359-3.98023E+05-1.16952E+03-2.42349E+03-4.13173E+02 9.98138E-10-3.19653E-09
 -1       360-3.97440E+05 1.62908E+02-1.02389E+03 3.25914E+02-1.70636E-09 4.78110E-10
 -1       361-3.97551E+05-1.96413E+02-6.63453E+02-3.88922E+02-2.54712E-09 2.10514E-09
 -1       362-3.97554E+05 3.34383E+01-4.55264E+02 9.86325E+00-1.45834E-09 1.27544E-09
 -1       363-3.97514E+05-1.19530E+02-5.64750E+02 2.91914E+02 1.47810E-10 1.25706E-09
 -1       364-3.97477E+05 8.59916E+01-8.56326E+02-3.54935E+02-1.55261E-09 2.09380E-09
 -1       365-3.97767E+05-5.94951E+02-1.85648E+03 4.25301E+02 9.24000E-10 1.90198E-09
 -1       366-3.97301E+05 5.08908E+02-3.17746E+03-1.23525E+02-4.34655E-10 1.69598E-09
 -1       367-3.99308E+05-3.77688E+03-7.78247E+03-2.25563E+02 9.75859E-10-7.34758E-10
 -1       368-3.95938E+05 3.26724E+03-1.23891E+04 2.95941E+02 4.01145E-07-9.31323E-10
 -1       369-4.08653E+05-2.40379E+04-3.38899E+04-5.03247E+02 8.00647E-07 9.87711E-10
 -1       370-3.87959E+05 2.07671E+04-4.78775E+04 1.54162E+02 4.03359E-07-5.57520E-09
 -1       371-6.37187E+03-6.47123E+04 1.44090E+04 1.60655E+02 1.24755E-08 1.74568E-05
 -1       372 6.75919E+03-5.85873E+04 9.09841E+03-4.60911E+02 3.10083E-08 3.48696E-05
 -1       373-3.85699E+02-6.19386E+04 1.45156E+03 1.82202E+02 1.52877E-08 1.74523E-05
 -1       374-3.45461E+03-6.32683E+04-4.18207E+03-4.22334E+02 1.24260E-10 1.31267E-08
 -1       375 3.83985E+03-6.00318E+04-8.44655E+03 1.22077E+02 7.76254E-10 2.63791E-09
 -1       406 2.46191E+02 1.47386E+05 5.66933E+02-8.11810E+03-6.50289E-10 1.90835E-09
 -1       407 1.82274E+02 1.47491E+05 7.57712E+02-8.84399E+03-3.66640E-10 9.26093E-10
 -1       408 3.33066E+02 1.47360E+05 1.30557E+03-8.06393E+03-8.94374E-10 1.81035E-09
 -1       409 1.33613E+03 1.47868E+05 2.83801E+03-8.93471E+03-6.04587E-10-1.27920E-09
 -1       410 3.83799E+03 1.47002E+05 5.74420E+03-8.02601E+03-1.10094E-09 1.04365E-09
 -1       501-1.97102E+05-2.09623E+04 4.81752E+04-8.93758E+02-5.75349E-06 1.08048E-09
 -1       502-1.75128E+05 2.42291E+04 3.42748E+04 2.25466E+03-1.14315E-05 2.95181E-08
 -1       503-1.88809E+05-3.25796E+03 1.24518E+04-9.99029E+02-5.74370E-06 1.69339E-08
 -1       504-1.83740E+05 3.84011E+03 8.12223E+03 1.37718E+03-5.78808E-09 6.36646E-10
 -1       505-1.88491E+05-5.83996E+02 2.93904E+03-1.62559E+01 2.68187E-10 1.07207E-10
 -1       506-1.85062E+05 6.47910E+02 2.17702E+03-7.28417E+02 3.76343E-09-1.76072E-09
 -1       507-1.87486E+05-6.79384E+01 7.30561E+02 1.10658E+03 2.46641E-09-1.16924E-09
 -1       508-1.86381E+05 4.70653E+01 5.59233E+02-2.00449E+03 1.31784E-09-3.19739E-09
 -1       509-1.87180E+05 2.47242E+01 2.12338E+02 1.25986E+03 3.16447E-09-1.32332E-09
 -1       510-1.85639E+05 6.62252E+01 4.54679E+02-1.19158E+03 4.10879E-09-8.78961E-10
 -1       511-1.88223E+05-9.30717E+01-4.73565E+01 2.93639E+02 3.25983E-10-1.41554E-09
 -1       512-1.85268E+05 2.31631E+02 7.09403E+02 9.11997E+02-5.60142E-10-2.20567E-10
 -1       513-1.87548E+05-1.42985E+02 4.81904E+02-8.43742E+02-1.00535E-09 5.67866E-11
 -1       514-1.85898E+05 1.08313E+03 1.64808E+03 2.23621E+03-1.28064E-09 3.29686E-09
 -1       515-1.87601E+05-9.36701E+02 2.12827E+03-1.03060E+03-1.73921E-09 3.13355E-09
 -1       521-1.77366E+06-2.25715E+05-1.14148E+05-6.82110E+05-1.34787E-09-1.30967E-09
 -1       522-1.81021E+06-3.07281E+05-7.25247E+04-6.86568E+05-2.14413E-10 1.89175E-10
 -1       523-1.79395E+06-2.52621E+05-2.69354E+04-6.78506E+05-9.12905E-11 1.79716E-09
 -1       524-1.78674E+06-2.73040E+05-1.49175E+04-6.92379E+05-5.33362E-10-1.75714E-09
 -1       525-1.79649E+06-2.55425E+05-6.27488E+03-6.78003E+05 6.59725E-10-4.88626E-10
 -1       526-1.78381E+06-2.69521E+05-3.35766E+03-6.93130E+05 1.42671E-09 1.86364E-09
 -1       527-1.79683E+06-2.55704E+05-1.73534E+03-6.77925E+05 5.99897E-10 1.50163E-09
 -1       528-1.78355E+06-2.69128E+05-1.41331E+03-6.93124E+05-4.24222E-10 6.45059E-10
 -1       529-1.79674E+06-2.55790E+05-1.74243E+03-6.78017E+05-4.41332E-10-2.55795E-11
 -1       530-1.78411E+06-2.69204E+05-3.37058E+03-6.92737E+05 5.91626E-10 1.17336E-09
 -1       531-1.79623E+06-2.55680E+05-6.30865E+03-6.78276E+05-8.29914E-11-9.50877E-10
 -1       532-1.78735E+06-2.72430E+05-1.49840E+04-6.91604E+05 2.86036E-10 2.36469E-11
 -1       533-1.79352E+06-2.53024E+05-2.70675E+04-6.78955E+05-7.16227E-10 1.11504E-09
 -1       534-1.81122E+06-3.06518E+05-7.28549E+04-6.85398E+05 6.45741E-11 2.99769E-09
 -1       535-1.77298E+06-2.26156E+05-1.14683E+05-6.82751E+05-1.37879E-09-9.16771E-10
 -1       536 2.24708E+04-5.93858E+03 2.16013E+04-2.84461E+03 4.80668E-10-1.79716E-09
 -1       537 3.06967E+04 7.47825E+03 1.41300E+04-1.62544E+04-1.83536E-09 6.55746E-10
 -1       538 2.58073E+04-6.82134E+02 5.60025E+03-2.80454E+03 8.32188E-11-3.04453E-10
 -1       539 2.68868E+04 8.00600E+02 3.19178E+03-1.62929E+04 9.72022E-10 6.02995E-10
 -1       540 2.62126E+04-8.63749E+01 1.41304E+03-2.80508E+03-9.86802E-11 7.82848E-10
 -1       541 2.63793E+04 8.38735E+01 7.55840E+02-1.62877E+04 1.44496E-10 1.28409E-09
 -1       542 2.62650E+04-1.22589E+01 3.47623E+02-2.80973E+03-3.30147E-10-7.34644E-10
 -1       543 2.62875E+04 1.40213E+01 1.72771E+02-1.62805E+04-7.78755E-12-1.31456E-09
 -1       544 2.62725E+04 4.21371E-01 6.48804E+01-2.81236E+03 1.71326E-10-9.03583E-10
 -1       545 2.62611E+04 4.78545E+00-4.63419E+00-1.62773E+04-4.80426E-10-2.24907E-09
 -1       546 2.62774E+04 6.78241E+00-7.21310E+01-2.81291E+03 1.81615E-10-3.22643E-10
 -1       547 2.62314E+04-4.58268E+01-2.00440E+02-1.62761E+04-1.88834E-10-1.55097E-10
 -1       548 2.63059E+04 4.32740E+01-3.68898E+02-2.81354E+03-4.50882E-10 7.39789E-10
 -1       549 2.60001E+04-4.96951E+02-9.35665E+02-1.62534E+04-2.51021E-10 3.01361E-09
 -1       550 2.65301E+04 3.85072E+02-1.44191E+03-2.83559E+03-6.95763E-11 2.26206E-09
 -1       551 3.26198E+03-1.40111E+05 9.89139E+03-2.24392E+05-2.67755E-09 1.05683E-09
 -1       552 2.19740E+03-1.38383E+05 1.05009E+04-2.76989E+05-2.93039E-09 2.96677E-09
 -1       553 1.50098E+03-1.40210E+05 1.54406E+04-2.23948E+05-2.99042E-09 1.18666E-09
 -1       554 8.89648E+03-1.33316E+05 3.17296E+04-2.77054E+05-3.16504E-09 1.95178E-09
 -1       555 2.25596E+04-1.45381E+05 6.01547E+04-2.24291E+05-3.00133E-09-1.03137E-09
 -1       556-4.00465E+04-4.59152E+04 1.17027E+04-7.41455E+04-1.19326E-09 6.54836E-11
 -1       557-2.82469E+04-5.71969E+04 5.92182E+03-8.35403E+04-1.57161E-09-1.51431E-10
 -1       558-3.99164E+04-4.86905E+04 2.48773E+03-7.22286E+04-3.76895E-09-1.88084E-09
 -1       559-2.94218E+04-5.89574E+04 1.22826E+03-8.39748E+04 4.11092E-10-4.01883E-10
 -1       560-3.99951E+04-4.86697E+04 5.48743E+02-7.22210E+04 8.84029E-09 2.97314E-09
 -1       561-2.96235E+04-5.89790E+04 2.66690E+02-8.41097E+04 9.58880E-09-4.39445E-09
 -1       562-4.00741E+04-4.86062E+04 1.08242E+02-7.22786E+04 4.55111E-09-2.46962E-09
 -1       563-2.97194E+04-5.89391E+04 3.20852E+01-8.41747E+04-4.50200E-10 6.94513E-10
 -1       564-4.01215E+04-4.85703E+04-3.70926E+01-7.23139E+04 1.03319E-09-1.60799E-09
 -1       565-2.97712E+04-5.89197E+04-1.25697E+02-8.42059E+04-1.71076E-09-9.86392E-09
 -1       566-4.01283E+04-4.85551E+04-2.83897E+02-7.23245E+04 2.93426E-10-6.08907E-10
 -1       567-2.98262E+04-5.89370E+04-6.33095E+02-8.41988E+04 8.97785E-10 7.82165E-11
 -1       568-4.00627E+04-4.86191E+04-1.30081E+03-7.22905E+04-1.60981E-10-1.63709E-11
 -1       569-3.06245E+04-5.95663E+04-3.06861E+03-8.39447E+04-3.36058E-10 1.01318E-09
 -1       570-3.95462E+04-5.04391E+04-6.09187E+03-7.15753E+04 4.46562E-10-8.11951E-10
 -1       571 1.02188E+05 4.33800E+03 6.49563E+03-2.52609E+04 5.20231E-10-1.08298E-09
 -1       572 1.03166E+05 1.49944E+03 3.18480E+03-2.77469E+04 3.50610E-10-3.53566E-11
 -1       573 1.02587E+05 3.50327E+02 1.41554E+03-2.51961E+04-1.28921E-10-1.37356E-09
 -1       574 1.02705E+05 1.11235E+02 7.09594E+02-2.78194E+04-7.53857E-10-5.60476E-10
 -1       575 1.02634E+05 1.22129E+01 3.34950E+02-2.51876E+04-1.27307E-09-1.32604E-09
 -1       576 1.02645E+05 8.32023E-01 1.70839E+02-2.78291E+04-3.65539E-10-1.34355E-09
 -1       577 1.02641E+05-5.23222E+00 8.49649E+01-2.51865E+04 2.43972E-10-1.38698E-11
 -1       578 1.02638E+05-3.82951E+00 4.78173E+01-2.78302E+04 7.43967E-10 1.21872E-09
 -1       579 1.02646E+05-4.86540E+00 3.22118E+01-2.51865E+04 1.50976E-10 4.86580E-10
 -1       580 1.02643E+05-4.64843E+00 3.47994E+01-2.78286E+04 2.78305E-10 1.51522E-09
 -1       581 1.02651E+05-4.90265E+00 5.28847E+01-2.51881E+04-3.04226E-10-1.22282E-09
 -1       582 1.02660E+05 7.04157E+00 1.04270E+02-2.78131E+04-2.43745E-10-2.07797E-09
 -1       583 1.02654E+05 3.84841E+01 2.03449E+02-2.52020E+04-2.76486E-10-6.53586E-10
 -1       584 1.02737E+05 2.00221E+02 4.56161E+02-2.76967E+04-6.60293E-10 9.65656E-10
 -1       585 1.02608E+05 6.04293E+02 9.28348E+02-2.53047E+04 1.58252E-10 2.11458E-09
 -1       586 1.94800E+02 4.45495E+04 5.58556E+02-6.37861E+04 2.04636E-11 4.84988E-10
 -1       587 1.84068E+02 4.46593E+04 9.06706E+02-7.11316E+04-7.50333E-10 1.38141E-09
 -1       588 3.61179E+02 4.44953E+04 1.67300E+03-6.37048E+04 1.54614E-11 1.12719E-08
 -1       589 1.58512E+03 4.51908E+04 3.69324E+03-7.11437E+04-7.93989E-10 2.30382E-08
 -1       590 4.66153E+03 4.40109E+04 7.46069E+03-6.37735E+04 3.13776E-11 9.29094E-09
 -1       591-4.69584E+04-1.39345E+04-9.69005E+03-2.25225E+04-2.19160E-09-6.30553E-09
 -1       592-4.76276E+04-1.35886E+04-4.88821E+03-2.50978E+04 2.48690E-10-1.96849E-10
 -1       593-4.74681E+04-1.12983E+04-2.07450E+03-2.38563E+04 9.16316E-11-1.75851E-09
 -1       594-4.65164E+04-1.23841E+04-1.01963E+03-2.51811E+04 3.02407E-11-4.34831E-10
 -1       595-4.75217E+04-1.12315E+04-4.70626E+02-2.39060E+04-1.05672E-10-2.73104E-10
 -1       596-4.64409E+04-1.23422E+04-2.37896E+02-2.51695E+04 1.59275E-10 1.24373E-10
 -1       597-4.75306E+04-1.12399E+04-1.27952E+02-2.39060E+04 3.08056E-10 3.80737E-10
 -1       598-4.64331E+04-1.23426E+04-9.93941E+01-2.51661E+04 3.09541E-10-1.06178E-09
 -1       599-4.75303E+04-1.12403E+04-1.22515E+02-2.39057E+04 7.01448E-11 1.01841E-09
 -1       600-4.64398E+04-1.23427E+04-2.23644E+02-2.51685E+04-7.91033E-10 1.33002E-09
 -1       601-4.75211E+04-1.12329E+04-4.39868E+02-2.39053E+04 1.67415E-09 7.76413E-09
 -1       602-4.65106E+04-1.23811E+04-9.52024E+02-2.51775E+04-2.31921E-10 1.18808E-09
 -1       603-4.74696E+04-1.12969E+04-1.93622E+03-2.38596E+04-8.14907E-10-1.08002E-10
 -1       604-4.75588E+04-1.34931E+04-4.56182E+03-2.50851E+04-2.42153E-11-3.10240E-09
 -1       605-4.69813E+04-1.37676E+04-9.04258E+03-2.26271E+04 2.46848E-09 4.14275E-09
 -1       606 3.39555E+04-4.00659E+03-6.44170E+03 1.05900E+04 9.56106E-09-2.17892E-09
 -1       607 3.29224E+04-1.33706E+03-3.17611E+03 1.16599E+04 2.10036E-08 1.67080E-09
 -1       608 3.35239E+04-2.74896E+02-1.41584E+03 1.05155E+04 2.01476E-08 3.87331E-10
 -1       609 3.33946E+04-7.91619E+01-7.11715E+02 1.17428E+04 1.69957E-08 7.70569E-10
 -1       610 3.34709E+04 9.42471E-01-3.36959E+02 1.05063E+04 7.14317E-09 1.00044E-11
 -1       611 3.34469E+04 8.43551E+00-1.69601E+02 1.17528E+04-1.86651E-09-7.98082E-10
 -1       612 3.34606E+04 1.12553E+01-8.00961E+01 1.05053E+04-1.01863E-10-1.84718E-09
 -1       613 3.34522E+04 1.05805E+01-3.56947E+01 1.17541E+04-9.89530E-10-5.34214E-10
 -1       614 3.34566E+04 8.98012E+00-7.75537E+00 1.05050E+04 5.43423E-11 7.43512E-10
 -1       615 3.34527E+04 1.03213E+01 1.63797E+01 1.17543E+04 2.15869E-09 1.50203E-09
 -1       616 3.34533E+04 1.01487E+01 4.78948E+01 1.05051E+04-9.50877E-10 8.11951E-10
 -1       617 3.34601E+04 2.41351E+01 1.09454E+02 1.17539E+04 0.00000E+00 9.72477E-10
 -1       618 3.34442E+04 5.35777E+01 2.21523E+02 1.05054E+04 3.50838E-10 1.21327E-09
 -1       619 3.35343E+04 2.22142E+02 4.99259E+02 1.17519E+04 5.40012E-13 2.14072E-10
 -1       620 3.33763E+04 6.40913E+02 1.01349E+03 1.05067E+04 3.73916E-10 5.00449E-10
 -1       621 3.46059E+02 1.03264E+05 1.25653E+03-7.32960E+03-1.22782E-11-4.60545E-10
 -1       622 1.53962E+02 1.03521E+05 1.26793E+03-9.07949E+03 1.56547E-10 1.06934E-09
 -1       623 7.89129E+01 1.03303E+05 1.80964E+03-7.33284E+03 3.93356E-11-1.09310E-09
 -1       624 9.09881E+02 1.04108E+05 3.68067E+03-9.04675E+03 2.85127E-10 5.91172E-12
 -1       625 2.52903E+03 1.02681E+05 6.96701E+03-7.36192E+03 1.11413E-11 4.22915E-10
 -1       626 6.15556E+04 1.97444E+04-1.21249E+03 3.89931E+04-5.69344E-10-1.94814E-09
 -1       627 6.02159E+04 2.13557E+04-5.76787E+02 4.01278E+04 3.89264E-10 7.71649E-10
 -1       628 6.16094E+04 2.02907E+04-2.42330E+02 3.86664E+04 6.64841E-10 1.57695E-09
 -1       629 6.02673E+04 2.16347E+04-1.15602E+02 4.01524E+04 1.55660E-09 1.13302E-09
 -1       630 6.16091E+04 2.03255E+04-4.96465E+01 3.86387E+04 9.82254E-10 2.66823E-10
 -1       631 6.02672E+04 2.16559E+04-1.91145E+01 4.01565E+04-8.67658E-10-4.10637E-10
 -1       632 6.16056E+04 2.03263E+04 1.95129E+00 3.86357E+04 1.28443E-09-4.83624E-10
 -1       633 6.02669E+04 2.16571E+04 2.36058E+01 4.01571E+04 9.45533E-10 5.34442E-10
 -1       634 6.16021E+04 2.03237E+04 5.75042E+01 3.86352E+04-2.22747E-09-8.21581E-09
 -1       635 6.02731E+04 2.16580E+04 1.29000E+02 4.01587E+04 4.28486E-10-1.71690E-09
 -1       636 6.15964E+04 2.03277E+04 2.67057E+02 3.86318E+04 3.62121E-10-8.07177E-11
 -1       637 6.03346E+04 2.17234E+04 5.94829E+02 4.01496E+04 1.16847E-09-2.06319E-09
 -1       638 6.15796E+04 2.05270E+04 1.23088E+03 3.85439E+04 8.31460E-09-3.85489E-09
 -1       639 6.09625E+04 2.27804E+04 2.92576E+03 3.98961E+04 1.77259E-08-1.97088E-09
 -1       640 6.15848E+04 2.36087E+04 6.15176E+03 3.72591E+04 1.90892E-09-1.46683E-08
 -1       641-9.03047E+03 1.28657E+03-2.96581E+03-8.41443E+00 4.23964E-06 2.15778E-10
 -1       642-1.03181E+04-1.48907E+03-2.09882E+03 9.67716E+00 8.47142E-06-4.52098E-09
 -1       643-9.52661E+03 2.02219E+02-7.64902E+02-9.13949E+00 7.75934E-06-4.46536E-09
 -1       644-9.73970E+03-2.33533E+02-4.76944E+02 1.09510E+01 7.04409E-06-2.12262E-09
 -1       645-9.60890E+03 3.12740E+01-1.84964E+02-9.68841E+00 4.68160E-06-1.82891E-09
 -1       646-9.64209E+03-3.36317E+01-9.11969E+01 1.16605E+01 2.31541E-06-1.34681E-09
 -1       647-9.62423E+03 2.35316E+00-7.37342E+00-9.84907E+00-9.41959E-07 1.61406E-09
 -1       648-9.61610E+03 1.35913E+01 6.51109E+01 1.15528E+01-4.20321E-06 3.51695E-09
 -1       649-9.63489E+03-1.59430E+01 1.54811E+02-9.58074E+00-7.99253E-06 7.05393E-09
 -1       650-9.55780E+03 1.23263E+02 3.78740E+02 1.05806E+01-1.17800E-05 9.35268E-09
 -1       651-9.68253E+03-1.07303E+02 6.59773E+02-8.87681E+00-1.54834E-05 9.60509E-09
 -1       652-9.23133E+03 7.93618E+02 1.63498E+03 8.69550E+00-1.91825E-05 7.46081E-09
 -1       653-9.96134E+03-6.86178E+02 2.60250E+03-7.69571E+00-2.07425E-05 1.16149E-08
 -1       654-7.26894E+03 5.05155E+03 7.12404E+03 5.46311E+00-2.22919E-05 9.18919E-09
 -1       655-1.16448E+04-4.36441E+03 1.00623E+04-5.64455E+00-1.11547E-05 4.27326E-09
 -1       656 3.88935E+03-1.45628E+05-1.65055E+04 3.88725E+03-1.05138E-09 3.68323E-09
 -1       657-5.63955E+03-1.51749E+05-1.22453E+04 1.68048E+04-4.79872E-10 5.23232E-09
 -1       658 8.03653E+02-1.47747E+05-7.97027E+03 3.85994E+03-1.29234E-10 2.57944E-09
 -1       659-5.55559E+03-1.51706E+05-1.21032E+04 1.68200E+04-3.99837E-10 1.35391E-09
 -1       660 3.82415E+03-1.45677E+05-1.62368E+04 3.87221E+03-8.76753E-10-1.77909E-09
 -1       661 9.04049E+04 1.25099E+04 7.17557E+03 3.54184E+04 1.69348E-09-7.43512E-10
 -1       662 9.19452E+04 1.66818E+04 4.32117E+03 3.64789E+04-2.47326E-10 1.15188E-09
 -1       663 9.15076E+04 1.35789E+04 1.68410E+03 3.54237E+04 1.10342E-09 1.86299E-09
 -1       664 9.06561E+04 1.49492E+04 8.88705E+02 3.66822E+04 2.93467E-09-2.91789E-09
 -1       665 9.16137E+04 1.36761E+04 3.93280E+02 3.54276E+04 1.19269E-09-8.20748E-10
 -1       666 9.05328E+04 1.48053E+04 2.09310E+02 3.66913E+04 7.33529E-10 3.09627E-09
 -1       667 9.16255E+04 1.36857E+04 1.21877E+02 3.54285E+04-1.11333E-09-4.38460E-09
 -1       668 9.05220E+04 1.47953E+04 1.17069E+02 3.66916E+04 5.49008E-10-2.38411E-09
 -1       669 9.16244E+04 1.36844E+04 1.70880E+02 3.54280E+04-1.82087E-09-2.80323E-10
 -1       670 9.05442E+04 1.48159E+04 3.41783E+02 3.66939E+04-1.33446E-09 9.66679E-10
 -1       671 9.16041E+04 1.36668E+04 6.68991E+02 3.54258E+04-2.72865E-09-3.96750E-09
 -1       672 9.07569E+04 1.50652E+04 1.52775E+03 3.66800E+04 2.29738E-09-3.83767E-09
 -1       673 9.14214E+04 1.34984E+04 2.90088E+03 3.54185E+04 9.97574E-10-1.55319E-09
 -1       674 9.29790E+04 1.80532E+04 7.44827E+03 3.63310E+04 3.29098E-09-1.98133E-09
 -1       675 8.95206E+04 1.16549E+04 1.23688E+04 3.54088E+04 2.84660E-09-2.94222E-10
 -1       676 1.51378E+02-1.30090E+05-1.04723E+03-1.91336E+02-8.32465E-10 1.59333E-09
 -1       677-4.36500E+02-1.30502E+05-1.57491E+03-8.20052E+02-3.64315E-09 8.08882E-10
 -1       678 2.02029E+02-1.30035E+05-2.38827E+03-1.91753E+02-9.97829E-10 9.73323E-10
 -1       679-2.66832E+03-1.31855E+05-5.63456E+03-8.17463E+02-4.59710E-09 3.66732E-10
 -1       680 1.89053E+03-1.28737E+05-8.77864E+03-1.94109E+02-2.41016E-09-1.10148E-09
 -1       716-1.15638E-01-5.51313E-02 5.17430E+00-8.54054E-05 4.56044E-09-5.61107E-10
 -1       717 5.69454E-01 4.15280E-01 9.11291E+00 2.17386E-04-6.54943E-10 2.74953E-10
 -1       718-4.53826E-01-3.60302E-01 1.69111E+01-1.32138E-04 7.55324E-10-9.93798E-10
 -1       719 2.68891E+00 2.82872E+00 3.50766E+01-1.97299E-04 2.25262E-11-8.02936E-10
 -1       720-2.23513E+00-2.46872E+00 6.69008E+01 3.29458E-04-1.48020E-09-1.07525E-09
 -1       721 1.39168E+01 1.88479E+01 1.42979E+02-6.95589E-03-1.75580E-09-9.68527E-10
 -1       722-1.16818E+01-1.63789E+01 2.67608E+02 6.62547E-03-1.83060E-09-1.65282E-09
 -1       723 7.56642E+01 1.22984E+02 5.89448E+02-6.67480E-02 4.81329E-10-7.39654E-10
 -1       724-6.39821E+01-1.06593E+02 1.06739E+03 6.01058E-02-2.06421E-09-7.62839E-10
 -1       725 4.28578E+02 7.92489E+02 2.46002E+03-5.13322E-01-1.44127E-09-1.06928E-09
 -1       726-3.64578E+02-6.85775E+02 4.23243E+03 4.53071E-01-2.22167E-09-1.07002E-09
 -1       727 2.50778E+03 5.06764E+03 1.04486E+04-3.61086E+00-3.70197E-09-5.72527E-10
 -1       728-2.14283E+03-4.38094E+03 1.66223E+04 3.15700E+00-7.24085E-10-1.38789E-09
 -1       729 1.50338E+04 3.22517E+04 4.54866E+04-2.42870E+01 5.97250E-10 1.09139E-11
 -1       730-1.28845E+04-2.78630E+04 6.42614E+04 2.11283E+01 2.00203E-09-9.85892E-10
 -1       766-2.78689E+04-1.28993E+04 6.42498E+04-1.52820E+01-1.38243E-10 4.00320E-10
 -1       767 3.22976E+04 1.50562E+04 4.54817E+04-5.93832E+00 2.13049E-09-4.33815E-10
 -1       768-4.42116E+03-2.17322E+03 1.65687E+04 4.91120E+00-1.40062E-10 3.92218E-10
 -1       769 5.36230E+03 2.63481E+03 1.04505E+04-2.88217E+01 1.70314E-09 1.79415E-09
 -1       770-9.40108E+02-4.84094E+02 3.99356E+03 7.60011E+00-2.36469E-10 7.31045E-10
 -1       771-8.09726E+05-1.54619E+05-2.24580E+04-3.46346E+05-1.08685E-09-4.69299E-10
 -1       772-8.06205E+05-1.58719E+05-1.13136E+04-3.57940E+05-4.06544E-10 2.77396E-10
 -1       773-8.11239E+05-1.48230E+05-4.82032E+03-3.49217E+05 6.42103E-10 3.98359E-10
 -1       774-8.03483E+05-1.56174E+05-2.36202E+03-3.58543E+05 5.39330E-10-3.63798E-12
 -1       775-8.11482E+05-1.47986E+05-1.10051E+03-3.49352E+05-1.07320E-10 8.47649E-10
 -1       776-8.03363E+05-1.56083E+05-5.52624E+02-3.58639E+05-5.43878E-10 6.72344E-10
 -1       777-8.11588E+05-1.47951E+05-3.02690E+02-3.49383E+05-3.81988E-11-1.47793E-11
 -1       778-8.03394E+05-1.56071E+05-2.30111E+02-3.58705E+05 2.71029E-10 2.32731E-10
 -1       779-8.11644E+05-1.47915E+05-2.87274E+02-3.49405E+05-2.45564E-10 1.39380E-10
 -1       780-8.03446E+05-1.56065E+05-5.19710E+02-3.58758E+05-7.10315E-10-8.86303E-10
 -1       781-8.11654E+05-1.47876E+05-1.02518E+03-3.49417E+05-2.41471E-10-2.53067E-10
 -1       782-8.03628E+05-1.56150E+05-2.21947E+03-3.58799E+05 1.11777E-09 8.71296E-10
 -1       783-8.11539E+05-1.48022E+05-4.51732E+03-3.49315E+05-4.03503E-10-3.15140E-10
 -1       784-8.06092E+05-1.58730E+05-1.06491E+04-3.58556E+05-5.82418E-10-5.86624E-10
 -1       785-8.10367E+05-1.53817E+05-2.11137E+04-3.46454E+05 3.94039E-10 2.90129E-10
 -1       786 8.11737E+04-2.68923E+03 9.85801E+03-3.82017E+02-1.66665E-10 4.10182E-10
 -1       787 8.48650E+04 3.42617E+03 6.44002E+03-2.21681E+03 1.35628E-10 8.76753E-10
 -1       788 8.26970E+04-3.00719E+02 2.55973E+03-3.79604E+02 8.01492E-12 1.82308E-09
 -1       789 8.31544E+04 3.74071E+02 1.45610E+03-2.21826E+03-7.36549E-11-2.73531E-10
 -1       790 8.28838E+04-3.43180E+01 6.51929E+02-3.80517E+02 7.22906E-11-4.99398E-10
 -1       791 8.29424E+04 4.05823E+01 3.54092E+02-2.21698E+03 4.27747E-11 2.97327E-10
 -1       792 8.29088E+04-4.29516E+00 1.79863E+02-3.80882E+02 5.49076E-11 6.84480E-10
 -1       793 8.29151E+04 6.06985E+00 1.20755E+02-2.21699E+03-2.23501E-11-2.73459E-10
 -1       794 8.29110E+04-2.33852E+00 1.11564E+02-3.80511E+02-4.23057E-11 4.33962E-10
 -1       795 8.29235E+04 1.80081E+01 1.72120E+02-2.21856E+03 2.57870E-10 3.76063E-10
 -1       796 8.29007E+04-1.52383E+01 2.94248E+02-3.79313E+02-2.59774E-10-1.10359E-09
 -1       797 8.30163E+04 1.63934E+02 6.43353E+02-2.22110E+03 2.72706E-10-1.71467E-09
 -1       798 8.28189E+04-1.32252E+02 1.12558E+03-3.77971E+02-2.95188E-10 5.51438E-10
 -1       799 8.37677E+04 1.50358E+03 2.82812E+03-2.21959E+03-2.40988E-10 6.76721E-11
 -1       800 8.21501E+04-1.18097E+03 4.32767E+03-3.80859E+02-1.88948E-10-1.55683E-09
 -1       801-4.54948E+03 1.09169E+05 1.53535E+04-8.39503E+04 4.46971E-09-2.95404E-09
 -1       802 1.04701E+04 1.14800E+05 1.91625E+04-4.82505E+05 1.32422E-08-2.07365E-09
 -1       803-1.94303E+03 1.09127E+05 2.30866E+04-8.36779E+04 8.33643E-09 3.15652E-09
 -1       804 3.05869E+04 1.26246E+05 5.24789E+04-4.82481E+05 1.34823E-08 5.18048E-09
 -1       805-2.21487E+04 9.78840E+04 7.71127E+04-8.39774E+04 4.13638E-09 4.65297E-09
 -1       806-7.06325E+04-2.14922E+04-6.37748E+03-3.59353E+04 1.33781E-09-8.87667E-10
 -1       807-7.04172E+04-2.02023E+04-3.03288E+03-3.81788E+04 4.34113E-09 4.89490E-09
 -1       808-7.06231E+04-1.83031E+04-1.27639E+03-3.72771E+04 3.86990E-10-8.96591E-10
 -1       809-6.97778E+04-1.90968E+04-6.17193E+02-3.84340E+04-3.95914E-10-9.52895E-10
 -1       810-7.06411E+04-1.80961E+04-2.78633E+02-3.73701E+04-1.05729E-09 6.86555E-10
 -1       811-6.97163E+04-1.90277E+04-1.37622E+02-3.84431E+04-3.79970E-09-7.25981E-09
 -1       812-7.06465E+04-1.80918E+04-6.78594E+01-3.73737E+04-4.57682E-10 4.85556E-10
 -1       813-6.97093E+04-1.90267E+04-4.21706E+01-3.84410E+04 1.67302E-09 1.68842E-09
 -1       814-7.06466E+04-1.80937E+04-3.83409E+01-3.73730E+04 8.46990E-09 1.25990E-08
 -1       815-6.97108E+04-1.90283E+04-5.92920E+01-3.84400E+04 1.68620E-09 2.96495E-10
 -1       816-7.06429E+04-1.80970E+04-1.10561E+02-3.73710E+04-1.04274E-09 7.23048E-11
 -1       817-6.97365E+04-1.90523E+04-2.40393E+02-3.84311E+04-4.68617E-10-5.75824E-10
 -1       818-7.06318E+04-1.81817E+04-4.94990E+02-3.73377E+04-1.06093E-09 3.35149E-10
 -1       819-7.00127E+04-1.94504E+04-1.17469E+03-3.82959E+04-5.28303E-10 8.36167E-10
 -1       820-7.06049E+04-1.94434E+04-2.46927E+03-3.68482E+04-2.56023E-09-5.84589E-09
 -1       821-9.69769E+04 3.33669E+03-1.22341E+04 4.72219E+02-1.02875E-09 3.69255E-10
 -1       822-1.01556E+05-4.25171E+03-7.99242E+03 2.78794E+03-7.11253E-10 4.09841E-10
 -1       823-9.88675E+04 3.72820E+02-3.17806E+03 4.58473E+02 1.27682E-09-6.54154E-10
 -1       824-9.94351E+04-4.62940E+02-1.80956E+03 2.80597E+03-3.63627E-10 1.29162E-09
 -1       825-9.90992E+04 4.26439E+01-8.14704E+02 4.54109E+02-2.12094E-09-6.16865E-10
 -1       826-9.91740E+04-4.86547E+01-4.50870E+02 2.81293E+03-3.03521E-09-2.58865E-10
 -1       827-9.91299E+04 5.89371E+00-2.45912E+02 4.51489E+02-2.17040E-09-9.83249E-11
 -1       828-9.91436E+04-7.69094E+00-1.96969E+02 2.81707E+03-2.26458E-09 1.19012E-10
 -1       829-9.91305E+04 5.54036E+00-2.29602E+02 4.49965E+02-6.48640E-10-9.80858E-10
 -1       830-9.91705E+04-4.28956E+01-4.07594E+02 2.81873E+03 1.47144E-09-1.28176E-09
 -1       831-9.91034E+04 3.84379E+01-7.29401E+02 4.49833E+02-1.09237E-09-1.68021E-09
 -1       832-9.94042E+04-4.12143E+02-1.61615E+03 2.81755E+03-3.87324E-10-3.65446E-10
 -1       833-9.88967E+04 3.33266E+02-2.83636E+03 4.51168E+02 8.78231E-11-1.17734E-09
 -1       834-1.01297E+05-3.79283E+03-7.13257E+03 2.80954E+03 3.07807E-10-9.09495E-12
 -1       835-9.72097E+04 2.97835E+03-1.09170E+04 4.57994E+02 4.83681E-10 2.79670E-10
 -1       836-1.09400E+03 1.54312E+05 1.23239E+04-8.75755E+03-1.42609E-09-7.23617E-10
 -1       837 2.88261E+03 1.58252E+05 9.46957E+03-1.90191E+04-1.10478E-09-6.05326E-10
 -1       838-2.72656E+02 1.55616E+05 8.06358E+03-8.73172E+03-1.69030E-09 6.99956E-10
 -1       839 4.84109E+03 1.59660E+05 1.38914E+04-1.90202E+04-1.26784E-09-2.62921E-09
 -1       840-1.97408E+03 1.52903E+05 2.12210E+04-8.75634E+03-1.51158E-09 6.06633E-10
 -1       841 2.77656E+04 4.02464E+03-3.14832E+02 1.03532E+04-5.01438E-06 1.88049E-06
 -1       842 2.75638E+04 3.77009E+03-2.17721E+02 1.04484E+04-1.00217E-05 3.76111E-06
 -1       843 2.76970E+04 3.91621E+03-7.25525E+01 1.03805E+04-8.20592E-06 3.07878E-06
 -1       844 2.76456E+04 3.89383E+03-4.30352E+01 1.04144E+04-6.38199E-06 2.39579E-06
 -1       845 2.76839E+04 3.90093E+03-1.12597E+01 1.03871E+04-4.61843E-06 1.73299E-06
 -1       846 2.76633E+04 3.91225E+03 3.59623E+00 1.04052E+04-2.85624E-06 1.06991E-06
 -1       847 2.76793E+04 3.89778E+03 2.16919E+01 1.03897E+04-1.79592E-06 6.72485E-07
 -1       848 2.76769E+04 3.92787E+03 5.92609E+01 1.03999E+04-7.33555E-07 2.76059E-07
 -1       849 2.76703E+04 3.88531E+03 1.11081E+02 1.03924E+04-2.43851E-07 9.13682E-08
 -1       850 2.77345E+04 4.02101E+03 2.81806E+02 1.03841E+04 2.46372E-07-9.35925E-08
 -1       851 2.76217E+04 3.80466E+03 4.86918E+02 1.04056E+04 2.74642E-07-1.04894E-07
 -1       852 2.80799E+04 4.61291E+03 1.31496E+03 1.02797E+04 3.02131E-07-1.13146E-07
 -1       853 2.73248E+04 3.29349E+03 2.10293E+03 1.04968E+04-6.69511E-08 2.59854E-08
 -1       854 3.02084E+04 8.36318E+03 6.23576E+03 9.57874E+03-4.37971E-07 1.64530E-07
 -1       855 2.54933E+04 5.49959E+01 8.97556E+03 1.11063E+04-2.17701E-07 8.35871E-08
 -1       856-7.71622E+04 1.16697E+03-9.29330E+03 2.83224E+03-2.01453E-09-5.71617E-10
 -1       857-8.01989E+04-2.24842E+03-5.67657E+03 6.74109E+03-1.14767E-09-1.06263E-09
 -1       858-7.84736E+04 1.06444E+02-2.38592E+03 2.80407E+03 5.78666E-10-8.53447E-10
 -1       859-7.87702E+04-1.63096E+02-1.28408E+03 6.77210E+03 3.24690E-09-6.00835E-10
 -1       860-7.85975E+04 1.46499E+01-6.02335E+02 2.80091E+03 2.88651E-09-1.23237E-10
 -1       861-7.86351E+04-4.51052E+00-3.16881E+02 6.77598E+03-1.00280E-09 8.25821E-10
 -1       862-7.86128E+04 5.36573E+00-1.65271E+02 2.80016E+03 5.04954E-09 4.86750E-10
 -1       863-7.86199E+04 7.12197E+00-1.09191E+02 6.77681E+03 9.61207E-09-1.13943E-09
 -1       864-7.86143E+04 4.58144E+00-1.02424E+02 2.80007E+03 4.82606E-09-1.60989E-09
 -1       865-7.86239E+04 2.52372E+00-1.54220E+02 6.77603E+03 4.06732E-09-3.54319E-10
 -1       866-7.86078E+04 8.18127E+00-2.71831E+02 2.80094E+03 8.89145E-10-1.13902E-09
 -1       867-7.86815E+04-6.75484E+01-5.67298E+02 6.77266E+03 8.98694E-11-3.27594E-10
 -1       868-7.85530E+04 4.78647E+01-1.04919E+03 2.80347E+03 4.65241E-09-8.54243E-10
 -1       869-7.93065E+04-9.83578E+02-2.49227E+03 6.74338E+03 4.06794E-09-2.11642E-09
 -1       870-7.79766E+04 5.12399E+02-4.07971E+03 2.83037E+03 4.32919E-09-2.08342E-09
 -1       871-1.36586E+03-1.23867E+04-3.16359E+03 4.24512E+04 1.56115E-09-5.21595E-10
 -1       872-4.60891E+02-1.30179E+04-1.05031E+03 5.17722E+04-6.48015E-10 1.62674E-09
 -1       873 1.29281E+01-1.27515E+04 6.82801E+02 4.23641E+04 5.42741E-10 1.30444E-09
 -1       874 8.21307E+02-1.20779E+04 2.91758E+03 5.17996E+04-8.38099E-10-5.09090E-10
 -1       875 2.46782E+03-1.33415E+04 6.27782E+03 4.24256E+04 6.66205E-10-1.12595E-09
 -1       876 1.20957E+05 1.73094E+04 1.06911E+04 4.79375E+04 2.51305E-10-6.04814E-10
 -1       877 1.22959E+05 2.32028E+04 6.35381E+03 4.98219E+04-2.73766E-09-1.76317E-09
 -1       878 1.22543E+05 1.86409E+04 2.50124E+03 4.80234E+04 1.06184E-10-1.16870E-10
 -1       879 1.21090E+05 2.07785E+04 1.30612E+03 5.00881E+04 4.78906E-10 1.17984E-09
 -1       880 1.22687E+05 1.87599E+04 5.80668E+02 4.80355E+04 8.67033E-10 1.62197E-09
 -1       881 1.20920E+05 2.05891E+04 3.03515E+02 5.00941E+04-4.35307E-10 4.39660E-09
 -1       882 1.22702E+05 1.87732E+04 1.69564E+02 4.80380E+04-1.51061E-09 2.96490E-09
 -1       883 1.20906E+05 2.05749E+04 1.49164E+02 5.00915E+04-6.40279E-09 3.38758E-10
 -1       884 1.22700E+05 1.87730E+04 2.04527E+02 4.80381E+04-5.04441E-09 3.65048E-10
 -1       885 1.20929E+05 2.05937E+04 3.97475E+02 5.00934E+04 5.14689E-10 3.79174E-09
 -1       886 1.22679E+05 1.87561E+04 7.77407E+02 4.80355E+04-2.43685E-09 4.99085E-10
 -1       887 1.21158E+05 2.08483E+04 1.75815E+03 5.00837E+04-4.22791E-09-6.72685E-10
 -1       888 1.22483E+05 1.85960E+04 3.37047E+03 4.80191E+04-1.94186E-09 4.45857E-09
 -1       889 1.23672E+05 2.41232E+04 8.56471E+03 4.97314E+04 5.24739E-09 9.14952E-10
 -1       890 1.20352E+05 1.67948E+04 1.44115E+04 4.78953E+04 1.82706E-09 1.12141E-09
 -1       891 1.96015E+02-5.73606E+04-2.30141E+03 1.28694E+04 1.13255E-09-3.32238E-09
 -1       892-5.49576E+02-5.80865E+04-1.72465E+03 2.80118E+04 1.27989E-09-6.77346E-09
 -1       893 4.12946E+01-5.76156E+04-1.40301E+03 1.28337E+04 2.32160E-09-1.62888E-09
 -1       894-8.23605E+02-5.82789E+04-2.33998E+03 2.80026E+04-2.46018E-10-4.79758E-11
 -1       895 3.15837E+02-5.71618E+04-3.54016E+03 1.28785E+04 6.02199E-10-4.34738E-10
 -1       926-1.80986E+02-3.61035E+02 8.31878E+02 1.14895E+01 1.28956E-10-3.70221E-10
 -1       927 2.04016E+02 4.18148E+02 5.99239E+02-4.57615E+01-1.03056E-09-5.06674E-10
 -1       928-3.92545E+01-5.70944E+01 2.30466E+02 1.13314E+01 6.44405E-11-2.40249E-10
 -1       929 3.87437E+01 6.84335E+01 1.72288E+02-4.55988E+01 1.28672E-10-2.73644E-10
 -1       930-1.57458E+01-1.13650E+01 1.22067E+02 1.13268E+01-9.18628E-07 4.01927E-11
 -1       931 1.92413E+01 2.93736E+01 1.78278E+02-4.55906E+01-1.83613E-06 8.58904E-11
 -1       932-1.97774E+01-1.80249E+01 2.85962E+02 1.13232E+01-1.63951E-06 3.31966E-11
 -1       933 7.47399E+01 1.26755E+02 6.08241E+02-4.55809E+01-1.44122E-06 8.27072E-12
 -1       934-7.12619E+01-1.08724E+02 1.09027E+03 1.13171E+01-9.88187E-07-1.96110E-11
 -1       935 4.31701E+02 8.07176E+02 2.50698E+03-4.55474E+01-5.34962E-07 6.70752E-11
 -1       936-3.76730E+02-6.98331E+02 4.31077E+03 1.12896E+01-2.50826E-07 5.59339E-11
 -1       937 2.54840E+03 5.16046E+03 1.06403E+04-4.54683E+01 3.48039E-08 1.75305E-10
 -1       938-2.18759E+03-4.46113E+03 1.69268E+04 1.12381E+01 5.21438E-08-3.00133E-11
 -1       939 1.53048E+04 3.28424E+04 4.63197E+04-4.66573E+01 6.49194E-08 5.18412E-11
 -1       940-1.31268E+04-2.83736E+04 6.54373E+04 1.24784E+01 3.11672E-08 3.09228E-10
 -1       956-1.09339E+05-2.01570E+03-4.69496E+03 1.34160E+04-1.48157E-09 8.02174E-10
 -1       957-1.10240E+05-6.59268E+02-2.39336E+03 1.59079E+04-4.56566E-10 1.74714E-09
 -1       958-1.09742E+05-6.31144E+01-1.07755E+03 1.33354E+04 1.41790E-09 9.32232E-11
 -1       959-1.09818E+05-1.18683E+01-5.49368E+02 1.59958E+04-9.07676E-10-1.69734E-09
 -1       960-1.09780E+05 1.49491E+01-2.66868E+02 1.33278E+04-2.52749E-09-1.94370E-09
 -1       961-1.09786E+05 1.42223E+01-1.40305E+02 1.60041E+04-4.57089E-09-2.16460E-10
 -1       962-1.09787E+05 1.34847E+01-7.78674E+01 1.33270E+04-1.61572E-09 2.76032E-10
 -1       963-1.09785E+05 1.47393E+01-5.82746E+01 1.60052E+04-2.50600E-09 1.43109E-09
 -1       964-1.09789E+05 1.40011E+01-6.54703E+01 1.33268E+04-1.17950E-10 5.24210E-10
 -1       965-1.09789E+05 1.57924E+01-1.08785E+02 1.60050E+04 2.14757E-09 5.12955E-10
 -1       966-1.09786E+05 1.64401E+01-2.01716E+02 1.33272E+04-1.82831E-09-2.46587E-10
 -1       967-1.09815E+05-2.36443E+00-4.12829E+02 1.59999E+04 1.18234E-10 1.69734E-10
 -1       968-1.09760E+05-4.08722E+01-8.08318E+02 1.33319E+04-7.11680E-11-7.39703E-10
 -1       969-1.10133E+05-4.86912E+02-1.79523E+03 1.59456E+04-2.69665E-10 6.61089E-10
 -1       970-1.09459E+05-1.50484E+03-3.52116E+03 1.33821E+04 7.23730E-10-1.16688E-09
 -1       971-1.39644E+05 3.96106E+02-6.13470E+03 3.72181E+03-1.16256E-09 5.91172E-12
 -1       972-1.41530E+05-1.27696E+03-3.65266E+03 7.48249E+03-2.06876E-09-3.37423E-09
 -1       973-1.40474E+05 4.15532E+01-1.56458E+03 3.68308E+03-2.74940E-09-1.34082E-09
 -1       974-1.40637E+05-7.53461E+01-8.32654E+02 7.52548E+03-4.27463E-11-3.35092E-10
 -1       975-1.40546E+05 9.35715E+00-4.01676E+02 3.67858E+03-9.99194E-10-1.32201E-09
 -1       976-1.40562E+05 3.45570E+00-2.22707E+02 7.53139E+03-5.05452E-10-1.23583E-09
 -1       977-1.40555E+05 5.92266E+00-1.41612E+02 3.67713E+03 2.99087E-09-3.82045E-10
 -1       978-1.40557E+05 8.52165E+00-1.40200E+02 7.53333E+03 7.25312E-09 3.68232E-10
 -1       979-1.40554E+05 7.06070E+00-2.02816E+02 3.67663E+03 3.13590E-09-1.00286E-09
 -1       980-1.40574E+05 2.02548E-01-3.80475E+02 7.53323E+03 3.22588E-09-1.16952E-09
 -1       981-1.40539E+05 1.53903E+01-7.24094E+02 3.67724E+03-2.12538E-10-2.31361E-09
 -1       982-1.40716E+05-1.42632E+02-1.52434E+03 7.53001E+03 3.54476E-10-2.01955E-09
 -1       983-1.40409E+05 7.67657E+01-2.87342E+03 3.67990E+03 1.31752E-09-1.13459E-09
 -1       984-1.42365E+05-2.35046E+03-6.71708E+03 7.49821E+03 1.21781E-09 1.30626E-10
 -1       985-1.38884E+05 7.31652E+02-1.12816E+04 3.70965E+03 1.95087E-09-1.91176E-09
 -3
    1PSTEP                         3           2           1          
  100CL  102 3.12500E-01         608                     0    2           1
 -4  DISP        4    1
 -5  D1          1    2    1    0
 -5  D2          1    2    2    0
 -5  D3          1    2    3    0
 -5  ALL         1    2    0    0    1ALL
 -1         1 5.01055E-05 0.00000E+00 0.00000E+00
 -1         2 4.10863E-05 0.00000E+00 0.00000E+00
 -1         3 3.00366E-05 0.00000E+00 0.00000E+00
 -1         4 2.70452E-05 0.00000E+00 0.00000E+00
 -1         5 2.55823E-05 0.00000E+00 0.00000E+00
 -1         8 4.01571E-05-4.63823E-07 0.00000E+00
 -1         9 2.93793E-05-2.34847E-07 0.00000E+00
 -1        10 3.05985E-05-9.67148E-07 0.00000E+00
 -1        11 2.78178E-05-1.68668E-07 0.00000E+00
 -1        12 2.50537E-05 3.88369E-07 0.00000E+00
 -1        15 2.93722E-05-4.86868E-07 0.00000E+00
 -1        16 2.40597E-05-2.91029E-07 0.00000E+00
 -1        17 2.26830E-05-1.99584E-06 0.00000E+00
 -1        18 2.28541E-05-3.30941E-07 0.00000E+00
 -1        19 2.35683E-05 7.72186E-07 0.00000E+00
 -1        20 2.38023E-05 9.21713E-06 0.00000E+00
 -1        21 2.37303E-05 2.01871E-05 0.00000E+00
 -1        23 8.59164E-06-3.18104E-05 0.00000E+00
 -1        24 8.54282E-06-2.40174E-06 0.00000E+00
 -1        25 2.13034E-05-2.17284E-07 0.00000E+00
 -1        26 2.18789E-05 1.04001E-06 0.00000E+00
 -1        27 2.11922E-05 8.83847E-06 0.00000E+00
 -1        28 2.06437E-05 1.98482E-05 0.00000E+00
 -1        31 2.45125E-08-2.43034E-06 0.00000E+00
 -1        32 0.00000E+00 0.00000E+00 0.00000E+00
 -1        33 1.99793E-05 1.43750E-06 0.00000E+00
 -1        34 1.92134E-05 8.80355E-06 0.00000E+00
 -1        35 1.82334E-05 1.96984E-05 0.00000E+00
 -1        36 4.95589E-05 1.09336E-19 1.32349E-23
 -1        37 4.89949E-05 4.66722E-19 0.00000E+00
 -1        38 4.84321E-05 5.43907E-19 0.00000E+00
 -1        39 4.78660E-05 2.44709E-20-6.61744E-24
 -1        40 4.72998E-05-4.15356E-19 0.00000E+00
 -1        41 4.67329E-05 1.62485E-19-6.61744E-24
 -1        42 4.61659E-05 7.17565E-19 1.32349E-23
 -1        43 4.55988E-05 1.06867E-19 0.00000E+00
 -1        44 4.50318E-05-6.94611E-19 1.32349E-23
 -1        45 4.44648E-05-1.90026E-19-6.61744E-24
 -1        46 4.38978E-05 6.78205E-19 1.32349E-23
 -1        47 4.33314E-05 1.96865E-19 0.00000E+00
 -1        48 4.27651E-05-6.80045E-19 0.00000E+00
 -1        49 4.22014E-05-4.85379E-19 6.61744E-24
 -1        50 4.16369E-05-9.92091E-20 0.00000E+00
 -1        51 4.93661E-05-7.78519E-08 0.00000E+00
 -1        52 4.81271E-05-1.53211E-07 0.00000E+00
 -1        53 4.64851E-05-2.28326E-07 0.00000E+00
 -1        54 4.45416E-05-3.04084E-07 0.00000E+00
 -1        55 4.23982E-05-3.81377E-07 2.79173E-24
 -1        56 4.90266E-05-4.70478E-07 0.00000E+00
 -1        57 4.79449E-05-1.06011E-06 0.00000E+00
 -1        58 4.68844E-05-1.69823E-06-2.64698E-23
 -1        59 4.58141E-05-2.33260E-06 0.00000E+00
 -1        60 4.47206E-05-2.90518E-06-2.64698E-23
 -1        61 4.35826E-05-3.36346E-06-1.32349E-23
 -1        62 4.23878E-05-3.67065E-06 0.00000E+00
 -1        63 4.11245E-05-3.79603E-06-1.32349E-23
 -1        64 3.97910E-05-3.73432E-06 0.00000E+00
 -1        65 3.83881E-05-3.48709E-06-1.32349E-23
 -1        66 3.69261E-05-3.08226E-06 0.00000E+00
 -1        67 3.54188E-05-2.55306E-06-1.32349E-23
 -1        68 3.38842E-05-1.95107E-06 0.00000E+00
 -1        69 3.23497E-05-1.32742E-06 0.00000E+00
 -1        70 3.08268E-05-7.42365E-07 0.00000E+00
 -1        86 4.04304E-05-4.25508E-08 0.00000E+00
 -1        87 3.85117E-05-7.93771E-08 0.00000E+00
 -1        88 3.58877E-05-1.18176E-07 1.65436E-24
 -1        89 3.31169E-05-1.56922E-07 0.00000E+00
 -1        90 3.07606E-05-1.94305E-07-3.30872E-24
 -1        91 4.04830E-05-1.55274E-07-1.32349E-23
 -1        92 3.98171E-05-1.90931E-07 6.61744E-24
 -1        93 3.91383E-05-1.88978E-07 0.00000E+00
 -1        94 3.84762E-05-2.40124E-07 0.00000E+00
 -1        95 3.78269E-05-3.25273E-07 0.00000E+00
 -1        96 3.71827E-05-4.25634E-07 0.00000E+00
 -1        97 3.65278E-05-4.97714E-07 0.00000E+00
 -1        98 3.58463E-05-4.99018E-07 6.61744E-24
 -1        99 3.51744E-05-5.25956E-07-1.32349E-23
 -1       100 3.45482E-05-6.74244E-07 6.61744E-24
 -1       101 3.39119E-05-7.95744E-07 1.32349E-23
 -1       102 3.32109E-05-7.42796E-07 0.00000E+00
 -1       103 3.25210E-05-7.19527E-07-1.32349E-23
 -1       104 3.19216E-05-9.27853E-07-6.61744E-24
 -1       105 3.13079E-05-1.10164E-06 1.32349E-23
 -1       106 2.98503E-05 2.58865E-19 0.00000E+00
 -1       107 2.96631E-05 1.17263E-18 0.00000E+00
 -1       108 2.94759E-05 2.22223E-18 0.00000E+00
 -1       109 2.92885E-05 2.73635E-18 0.00000E+00
 -1       110 2.91011E-05 2.43023E-18 6.61744E-24
 -1       111 2.89136E-05 1.54630E-18 0.00000E+00
 -1       112 2.87262E-05 5.67203E-19 0.00000E+00
 -1       113 2.85388E-05 2.73112E-19 3.30872E-24
 -1       114 2.83513E-05 5.93097E-19-6.61744E-24
 -1       115 2.81639E-05 1.60322E-18 0.00000E+00
 -1       116 2.79765E-05 2.68170E-18 0.00000E+00
 -1       117 2.77893E-05 3.03243E-18 0.00000E+00
 -1       118 2.76020E-05 2.74496E-18 0.00000E+00
 -1       119 2.74154E-05 1.72037E-18-3.30872E-24
 -1       120 2.72286E-05 4.39949E-19 0.00000E+00
 -1       121 3.01554E-05-1.61123E-07 0.00000E+00
 -1       122 3.04115E-05-3.22218E-07 0.00000E+00
 -1       123 3.06943E-05-4.83331E-07 0.00000E+00
 -1       124 3.08933E-05-6.44476E-07 3.30872E-24
 -1       125 3.08980E-05-8.05601E-07 0.00000E+00
 -1       141 2.69527E-05-3.02403E-19 3.30872E-24
 -1       142 2.68605E-05-8.19690E-19 0.00000E+00
 -1       143 2.67683E-05-1.29029E-18 3.30872E-24
 -1       144 2.66762E-05-1.47653E-18 1.65436E-24
 -1       145 2.65841E-05-1.47600E-18-3.30872E-24
 -1       146 2.64920E-05-1.02142E-18-1.65436E-24
 -1       147 2.63999E-05-3.15804E-19 3.30872E-24
 -1       148 2.63078E-05 3.02685E-19 0.00000E+00
 -1       149 2.62158E-05 7.03984E-19 0.00000E+00
 -1       150 2.61237E-05 7.95628E-19-1.65436E-24
 -1       151 2.60318E-05 6.77300E-19 3.30872E-24
 -1       152 2.59400E-05 3.38916E-19-1.65436E-24
 -1       153 2.58483E-05 1.94555E-20 0.00000E+00
 -1       154 2.57578E-05-1.20654E-19-8.27181E-25
 -1       155 2.56669E-05-1.12961E-19 4.13590E-25
 -1       156 2.71359E-05-2.99933E-08 1.65436E-24
 -1       157 2.74070E-05-5.70859E-08 8.27181E-25
 -1       158 2.77315E-05-8.44098E-08 0.00000E+00
 -1       159 2.79821E-05-1.11697E-07 0.00000E+00
 -1       160 2.80478E-05-1.38748E-07-1.65436E-24
 -1       161 2.69467E-05-4.69838E-08 3.30872E-24
 -1       162 2.68546E-05-1.11302E-07 0.00000E+00
 -1       163 2.67545E-05-1.54199E-07-3.30872E-24
 -1       164 2.66319E-05-1.37006E-07 0.00000E+00
 -1       165 2.64893E-05-6.63781E-08-3.30872E-24
 -1       166 2.63291E-05 5.07776E-08 0.00000E+00
 -1       167 2.61684E-05 1.69632E-07 0.00000E+00
 -1       168 2.60238E-05 2.45350E-07 0.00000E+00
 -1       169 2.58995E-05 2.67263E-07-3.30872E-24
 -1       170 2.57992E-05 2.24966E-07 1.65436E-24
 -1       171 2.57084E-05 1.57692E-07-3.30872E-24
 -1       172 2.56124E-05 1.04875E-07 0.00000E+00
 -1       173 2.55003E-05 9.50093E-08 0.00000E+00
 -1       174 2.53627E-05 1.56936E-07-8.27181E-25
 -1       175 2.52080E-05 2.62923E-07 0.00000E+00
 -1       191 2.55655E-05 6.47092E-08 3.30872E-24
 -1       192 2.55198E-05 1.29462E-07 0.00000E+00
 -1       193 2.54453E-05 1.94225E-07 0.00000E+00
 -1       194 2.53424E-05 2.58981E-07-1.65436E-24
 -1       195 2.52116E-05 3.23714E-07 0.00000E+00
 -1       266 3.83597E-05-4.74521E-07 0.00000E+00
 -1       267 3.65622E-05-4.77523E-07 0.00000E+00
 -1       268 3.47647E-05-4.81023E-07 0.00000E+00
 -1       269 3.29672E-05-4.83068E-07 2.06795E-25
 -1       270 3.11697E-05-4.85084E-07 2.06795E-25
 -1       271 3.87070E-05 8.15766E-07 0.00000E+00
 -1       272 3.73650E-05 1.71951E-06-1.32349E-23
 -1       273 3.61478E-05 2.29378E-06 0.00000E+00
 -1       274 3.50358E-05 2.57506E-06 0.00000E+00
 -1       275 3.40173E-05 2.60591E-06 0.00000E+00
 -1       276 3.30756E-05 2.42976E-06-1.32349E-23
 -1       277 3.21943E-05 2.09226E-06 0.00000E+00
 -1       278 3.13557E-05 1.64042E-06 1.32349E-23
 -1       279 3.05419E-05 1.12236E-06 0.00000E+00
 -1       280 2.97347E-05 5.86835E-07-1.32349E-23
 -1       281 2.89160E-05 8.26863E-08 2.64698E-23
 -1       282 2.80679E-05-3.41398E-07-1.32349E-23
 -1       283 2.71723E-05-6.37685E-07-2.64698E-23
 -1       284 2.62150E-05-7.58398E-07-1.32349E-23
 -1       285 2.51746E-05-6.60144E-07-1.32349E-23
 -1       286 2.94459E-05 4.31662E-07-1.65436E-24
 -1       287 2.95225E-05 6.94588E-07 0.00000E+00
 -1       288 2.95985E-05 6.99285E-07 0.00000E+00
 -1       289 2.96763E-05 5.90127E-07 0.00000E+00
 -1       290 2.97542E-05 4.08394E-07 0.00000E+00
 -1       291 2.98324E-05 1.95112E-07 8.27181E-25
 -1       292 2.99107E-05-3.75545E-08-1.65436E-24
 -1       293 2.99891E-05-2.77515E-07-8.27181E-25
 -1       294 3.00674E-05-5.19354E-07 0.00000E+00
 -1       295 3.01457E-05-7.57662E-07 0.00000E+00
 -1       296 3.02239E-05-9.83803E-07 0.00000E+00
 -1       297 3.03017E-05-1.18909E-06 0.00000E+00
 -1       298 3.03796E-05-1.34578E-06 0.00000E+00
 -1       299 3.04555E-05-1.42593E-06 0.00000E+00
 -1       300 3.05320E-05-1.33234E-06-1.65436E-24
 -1       301 2.84910E-05-2.46863E-07 0.00000E+00
 -1       302 2.75953E-05-2.52162E-07 0.00000E+00
 -1       303 2.66982E-05-2.56759E-07 0.00000E+00
 -1       304 2.58058E-05-2.62124E-07-1.65436E-24
 -1       305 2.49243E-05-2.69673E-07-6.61744E-24
 -1       306 2.87353E-05 2.85304E-07 0.00000E+00
 -1       307 2.82131E-05 4.50022E-07 0.00000E+00
 -1       308 2.78025E-05 3.18253E-07-1.32349E-23
 -1       309 2.74804E-05-5.41004E-08 0.00000E+00
 -1       310 2.72264E-05-6.08978E-07 0.00000E+00
 -1       311 2.70187E-05-1.28803E-06 6.61744E-24
 -1       312 2.68353E-05-2.03225E-06 0.00000E+00
 -1       313 2.66541E-05-2.78245E-06 6.61744E-24
 -1       314 2.64529E-05-3.47937E-06 0.00000E+00
 -1       315 2.62098E-05-4.06395E-06-6.61744E-24
 -1       316 2.59027E-05-4.47772E-06-1.32349E-23
 -1       317 2.55103E-05-4.66283E-06 0.00000E+00
 -1       318 2.50111E-05-4.56255E-06 0.00000E+00
 -1       319 2.43859E-05-4.12075E-06 0.00000E+00
 -1       320 2.36119E-05-3.28422E-06 6.61744E-24
 -1       321 3.04246E-05-6.96819E-07 6.61744E-24
 -1       322 3.02505E-05-8.89122E-07 3.30872E-24
 -1       323 3.00764E-05-1.30400E-06-6.61744E-24
 -1       324 2.99022E-05-1.69962E-06 3.30872E-24
 -1       325 2.97282E-05-1.85393E-06 6.61744E-24
 -1       326 2.95540E-05-1.54682E-06-3.30872E-24
 -1       327 2.93798E-05-1.03183E-06-6.61744E-24
 -1       328 2.92057E-05-5.64196E-07 3.30872E-24
 -1       329 2.90316E-05-3.50535E-07-6.61744E-24
 -1       330 2.88575E-05-5.95426E-07-3.30872E-24
 -1       331 2.86834E-05-1.03271E-06 6.61744E-24
 -1       332 2.85094E-05-1.39470E-06-3.30872E-24
 -1       333 2.83355E-05-1.49097E-06 0.00000E+00
 -1       334 2.81621E-05-1.13322E-06-3.30872E-24
 -1       335 2.79884E-05-5.99350E-07 0.00000E+00
 -1       336 2.98933E-05-1.13883E-06 0.00000E+00
 -1       337 2.88459E-05-1.31075E-06 0.00000E+00
 -1       338 2.75282E-05-1.48288E-06-6.61744E-24
 -1       339 2.60130E-05-1.65477E-06 0.00000E+00
 -1       340 2.43735E-05-1.82692E-06-3.30872E-24
 -1       356 2.76473E-05-8.30170E-08 0.00000E+00
 -1       357 2.74737E-05-5.81582E-07 3.30872E-24
 -1       358 2.73002E-05-1.24153E-06 0.00000E+00
 -1       359 2.71262E-05-1.63870E-06 0.00000E+00
 -1       360 2.69524E-05-1.61901E-06-6.61744E-24
 -1       361 2.67782E-05-1.03168E-06 3.30872E-24
 -1       362 2.66040E-05-3.08567E-07 6.61744E-24
 -1       363 2.64299E-05 1.17401E-07 3.30872E-24
 -1       364 2.62559E-05 1.18309E-07 0.00000E+00
 -1       365 2.60818E-05-4.30390E-07 0.00000E+00
 -1       366 2.59078E-05-1.08909E-06 0.00000E+00
 -1       367 2.57342E-05-1.41733E-06 0.00000E+00
 -1       368 2.55607E-05-1.31373E-06 3.30872E-24
 -1       369 2.53889E-05-6.80329E-07 0.00000E+00
 -1       370 2.52164E-05 3.61515E-08 0.00000E+00
 -1       371 2.72436E-05-1.98703E-07-1.65436E-24
 -1       372 2.62784E-05-2.25955E-07 0.00000E+00
 -1       373 2.51415E-05-2.53552E-07-8.27181E-25
 -1       374 2.40521E-05-2.80174E-07-4.13590E-25
 -1       375 2.32200E-05-3.06662E-07 0.00000E+00
 -1       406 2.48629E-05 4.52674E-07 0.00000E+00
 -1       407 2.46472E-05 5.17004E-07 1.65436E-24
 -1       408 2.44081E-05 5.81298E-07-3.30872E-24
 -1       409 2.41474E-05 6.45454E-07 0.00000E+00
 -1       410 2.38668E-05 7.09320E-07 1.65436E-24
 -1       501 2.39730E-05 1.91318E-06 0.00000E+00
 -1       502 2.38869E-05 6.83457E-06 1.65436E-24
 -1       503 2.37975E-05 1.23605E-05 3.30872E-24
 -1       504 2.37169E-05 1.63768E-05-1.65436E-24
 -1       505 2.36427E-05 1.75694E-05 0.00000E+00
 -1       506 2.35655E-05 1.46338E-05 0.00000E+00
 -1       507 2.34746E-05 8.45167E-06 0.00000E+00
 -1       508 2.33671E-05-8.47860E-08 0.00000E+00
 -1       509 2.32580E-05-8.82684E-06 0.00000E+00
 -1       510 2.31635E-05-1.56252E-05 0.00000E+00
 -1       511 2.30838E-05-1.93687E-05 0.00000E+00
 -1       512 2.30108E-05-1.89564E-05-8.27181E-25
 -1       513 2.29326E-05-1.54877E-05 1.65436E-24
 -1       514 2.28460E-05-1.00723E-05 8.27181E-25
 -1       515 2.27603E-05-4.85891E-06 3.30872E-24
 -1       521 2.29410E-05 4.59317E-08 0.00000E+00
 -1       522 2.19143E-05 6.35060E-08 0.00000E+00
 -1       523 2.09863E-05-1.79827E-07 2.64698E-23
 -1       524 2.01332E-05-6.33861E-07 0.00000E+00
 -1       525 1.93380E-05-1.24363E-06 0.00000E+00
 -1       526 1.85798E-05-1.95391E-06 0.00000E+00
 -1       527 1.78379E-05-2.70830E-06 2.64698E-23
 -1       528 1.70912E-05-3.45011E-06 0.00000E+00
 -1       529 1.63186E-05-4.12275E-06 0.00000E+00
 -1       530 1.54992E-05-4.67030E-06 1.32349E-23
 -1       531 1.46126E-05-5.03807E-06 2.64698E-23
 -1       532 1.36393E-05-5.17294E-06 0.00000E+00
 -1       533 1.25600E-05-5.02426E-06-2.64698E-23
 -1       534 1.13600E-05-4.54285E-06-1.32349E-23
 -1       535 1.00176E-05-3.68548E-06-1.32349E-23
 -1       536 2.26880E-05-5.09702E-07 0.00000E+00
 -1       537 2.26978E-05 6.17238E-07 8.27181E-25
 -1       538 2.27078E-05 1.42240E-06 0.00000E+00
 -1       539 2.27187E-05 1.94341E-06 3.87741E-26
 -1       540 2.27297E-05 2.21776E-06 0.00000E+00
 -1       541 2.27410E-05 2.28296E-06 1.03398E-25
 -1       542 2.27522E-05 2.17649E-06 4.13590E-25
 -1       543 2.27635E-05 1.93580E-06-1.03398E-25
 -1       544 2.27747E-05 1.59833E-06 0.00000E+00
 -1       545 2.27860E-05 1.20148E-06 0.00000E+00
 -1       546 2.27972E-05 7.82693E-07 4.13590E-25
 -1       547 2.28084E-05 3.79371E-07-2.06795E-25
 -1       548 2.28197E-05 2.89248E-08-4.13590E-25
 -1       549 2.28311E-05-2.31227E-07 0.00000E+00
 -1       550 2.28424E-05-3.63634E-07 0.00000E+00
 -1       551 2.05827E-05-2.06074E-06-3.30872E-24
 -1       552 1.82270E-05-2.12498E-06-1.44757E-24
 -1       553 1.57296E-05-2.18970E-06 3.30872E-24
 -1       554 1.32063E-05-2.25558E-06 0.00000E+00
 -1       555 1.07727E-05-2.32322E-06 6.61744E-24
 -1       556 2.20996E-05-5.70940E-07 0.00000E+00
 -1       557 2.16438E-05 5.22290E-07 0.00000E+00
 -1       558 2.13014E-05 1.31503E-06 6.61744E-24
 -1       559 2.10595E-05 1.84123E-06 0.00000E+00
 -1       560 2.09050E-05 2.13480E-06 0.00000E+00
 -1       561 2.08251E-05 2.22986E-06 0.00000E+00
 -1       562 2.08069E-05 2.16058E-06 0.00000E+00
 -1       563 2.08375E-05 1.96113E-06-1.65436E-24
 -1       564 2.09041E-05 1.66570E-06 0.00000E+00
 -1       565 2.09938E-05 1.30850E-06 0.00000E+00
 -1       566 2.10939E-05 9.23730E-07 0.00000E+00
 -1       567 2.11915E-05 5.45613E-07-2.06795E-25
 -1       568 2.12738E-05 2.08349E-07 4.13590E-25
 -1       569 2.13282E-05-5.38914E-08 0.00000E+00
 -1       570 2.13418E-05-2.06952E-07 0.00000E+00
 -1       571 2.28972E-05-2.42005E-07 6.20385E-25
 -1       572 2.29414E-05-1.81606E-07 2.06795E-25
 -1       573 2.29860E-05-1.44449E-07 1.24077E-24
 -1       574 2.30308E-05-1.24975E-07 4.13590E-25
 -1       575 2.30756E-05-1.17599E-07 1.65436E-24
 -1       576 2.31204E-05-1.16702E-07-8.27181E-25
 -1       577 2.31652E-05-1.16661E-07-1.65436E-24
 -1       578 2.32101E-05-1.11849E-07 0.00000E+00
 -1       579 2.32549E-05-9.66392E-08 1.65436E-24
 -1       580 2.32997E-05-6.54034E-08 0.00000E+00
 -1       581 2.33446E-05-1.25154E-08 0.00000E+00
 -1       582 2.33894E-05 6.76459E-08 0.00000E+00
 -1       583 2.34342E-05 1.80696E-07 0.00000E+00
 -1       584 2.34790E-05 3.32191E-07 0.00000E+00
 -1       585 2.35238E-05 5.27657E-07 0.00000E+00
 -1       586 2.26299E-05-3.11548E-07 0.00000E+00
 -1       587 2.23708E-05-2.92149E-07 0.00000E+00
 -1       588 2.20927E-05-2.72800E-07-8.27181E-25
 -1       589 2.18114E-05-2.53623E-07-7.75482E-26
 -1       590 2.15431E-05-2.34799E-07 0.00000E+00
 -1       591 2.27880E-05-2.25123E-07-4.13590E-25
 -1       592 2.27272E-05-1.39438E-07 0.00000E+00
 -1       593 2.26721E-05-6.97621E-08 8.27181E-25
 -1       594 2.26215E-05-1.24366E-08 0.00000E+00
 -1       595 2.25740E-05 3.62133E-08-8.27181E-25
 -1       596 2.25283E-05 7.98313E-08 0.00000E+00
 -1       597 2.24832E-05 1.22057E-07 0.00000E+00
 -1       598 2.24372E-05 1.66527E-07 4.13590E-25
 -1       599 2.23890E-05 2.16877E-07-8.27181E-25
 -1       600 2.23372E-05 2.76742E-07 2.06795E-25
 -1       601 2.22805E-05 3.49755E-07 4.13590E-25
 -1       602 2.22176E-05 4.39558E-07 2.06795E-25
 -1       603 2.21470E-05 5.49790E-07 4.13590E-25
 -1       604 2.20677E-05 6.84115E-07-2.58494E-26
 -1       605 2.19782E-05 8.46185E-07 2.06795E-25
 -1       606 2.35846E-05 1.10159E-06 0.00000E+00
 -1       607 2.35997E-05 1.46945E-06-8.27181E-25
 -1       608 2.36145E-05 1.87348E-06 0.00000E+00
 -1       609 2.36291E-05 2.31108E-06 0.00000E+00
 -1       610 2.36437E-05 2.77965E-06 0.00000E+00
 -1       611 2.36582E-05 3.27653E-06 8.27181E-25
 -1       612 2.36727E-05 3.79905E-06 0.00000E+00
 -1       613 2.36872E-05 4.34457E-06 0.00000E+00
 -1       614 2.37017E-05 4.91043E-06 0.00000E+00
 -1       615 2.37161E-05 5.49395E-06 4.13590E-25
 -1       616 2.37306E-05 6.09248E-06 0.00000E+00
 -1       617 2.37450E-05 6.70336E-06 0.00000E+00
 -1       618 2.37594E-05 7.32392E-06 0.00000E+00
 -1       619 2.37738E-05 7.95151E-06-4.13590E-25
 -1       620 2.37882E-05 8.58347E-06 0.00000E+00
 -1       621 2.32630E-05 8.17061E-07-1.65436E-24
 -1       622 2.29622E-05 8.62085E-07-8.27181E-25
 -1       623 2.26696E-05 9.07092E-07-8.27181E-25
 -1       624 2.23890E-05 9.51977E-07 4.13590E-25
 -1       625 2.21242E-05 9.96641E-07 0.00000E+00
 -1       626 2.34782E-05 1.12209E-06-1.65436E-24
 -1       627 2.33728E-05 1.51220E-06 0.00000E+00
 -1       628 2.32537E-05 1.93866E-06-1.65436E-24
 -1       629 2.31224E-05 2.39723E-06 0.00000E+00
 -1       630 2.29807E-05 2.88366E-06 0.00000E+00
 -1       631 2.28302E-05 3.39363E-06-8.27181E-25
 -1       632 2.26724E-05 3.92283E-06 1.65436E-24
 -1       633 2.25090E-05 4.46695E-06 0.00000E+00
 -1       634 2.23417E-05 5.02167E-06 0.00000E+00
 -1       635 2.21720E-05 5.58266E-06 0.00000E+00
 -1       636 2.20015E-05 6.14562E-06 0.00000E+00
 -1       637 2.18319E-05 6.70622E-06 0.00000E+00
 -1       638 2.16647E-05 7.26015E-06-8.27181E-25
 -1       639 2.15016E-05 7.80307E-06 0.00000E+00
 -1       640 2.13438E-05 8.33065E-06 2.06795E-25
 -1       641 2.37987E-05 9.85521E-06 0.00000E+00
 -1       642 2.37945E-05 1.05250E-05 0.00000E+00
 -1       643 2.37903E-05 1.12216E-05 0.00000E+00
 -1       644 2.37860E-05 1.19402E-05-5.16988E-26
 -1       645 2.37816E-05 1.26751E-05 0.00000E+00
 -1       646 2.37773E-05 1.34206E-05 0.00000E+00
 -1       647 2.37729E-05 1.41708E-05 0.00000E+00
 -1       648 2.37685E-05 1.49195E-05 5.16988E-26
 -1       649 2.37641E-05 1.56607E-05-1.03398E-25
 -1       650 2.37597E-05 1.63885E-05-1.03398E-25
 -1       651 2.37553E-05 1.70973E-05 2.06795E-25
 -1       652 2.37509E-05 1.77816E-05 0.00000E+00
 -1       653 2.37464E-05 1.84369E-05 0.00000E+00
 -1       654 2.37416E-05 1.90584E-05-2.06795E-25
 -1       655 2.37370E-05 1.96430E-05-8.27181E-25
 -1       656 2.32451E-05 9.15597E-06 0.00000E+00
 -1       657 2.27827E-05 9.09180E-06-8.27181E-25
 -1       658 2.23808E-05 9.02779E-06 0.00000E+00
 -1       659 2.20048E-05 8.96378E-06 0.00000E+00
 -1       660 2.16201E-05 8.89963E-06 0.00000E+00
 -1       661 2.36080E-05 9.86906E-06 0.00000E+00
 -1       662 2.34075E-05 1.05423E-05-8.27181E-25
 -1       663 2.32007E-05 1.12321E-05 0.00000E+00
 -1       664 2.29894E-05 1.19346E-05 0.00000E+00
 -1       665 2.27749E-05 1.26456E-05-1.65436E-24
 -1       666 2.25589E-05 1.33608E-05 0.00000E+00
 -1       667 2.23428E-05 1.40764E-05 0.00000E+00
 -1       668 2.21281E-05 1.47880E-05-8.27181E-25
 -1       669 2.19165E-05 1.54917E-05 1.65436E-24
 -1       670 2.17093E-05 1.61834E-05 8.27181E-25
 -1       671 2.15082E-05 1.68589E-05-1.65436E-24
 -1       672 2.13147E-05 1.75140E-05 0.00000E+00
 -1       673 2.11302E-05 1.81448E-05 8.27181E-25
 -1       674 2.09562E-05 1.87470E-05-4.13590E-25
 -1       675 2.07943E-05 1.93164E-05-4.13590E-25
 -1       676 2.32064E-05 2.01302E-05 0.00000E+00
 -1       677 2.26840E-05 2.00733E-05 8.27181E-25
 -1       678 2.21650E-05 2.00164E-05 0.00000E+00
 -1       679 2.16508E-05 1.99598E-05 8.27181E-25
 -1       680 2.11432E-05 1.99031E-05 0.00000E+00
 -1       716 8.59002E-06-2.99724E-05-4.03897E-28
 -1       717 8.58840E-06-2.81343E-05 0.00000E+00
 -1       718 8.58677E-06-2.62963E-05 0.00000E+00
 -1       719 8.58515E-06-2.44582E-05 8.07794E-28
 -1       720 8.58352E-06-2.26202E-05 0.00000E+00
 -1       721 8.58189E-06-2.07821E-05 0.00000E+00
 -1       722 8.58026E-06-1.89441E-05-1.29247E-26
 -1       723 8.57860E-06-1.71060E-05-1.29247E-26
 -1       724 8.57691E-06-1.52680E-05-5.16988E-26
 -1       725 8.57513E-06-1.34300E-05 5.16988E-26
 -1       726 8.57328E-06-1.15919E-05-4.13590E-25
 -1       727 8.57095E-06-9.75387E-06 4.13590E-25
 -1       728 8.56854E-06-7.91584E-06 1.65436E-24
 -1       729 8.56369E-06-6.07779E-06 1.65436E-24
 -1       730 8.55966E-06-4.23975E-06 0.00000E+00
 -1       766 6.76823E-06-2.41848E-06 0.00000E+00
 -1       767 5.12055E-06-2.42219E-06 1.65436E-24
 -1       768 3.61110E-06-2.42651E-06-1.65436E-24
 -1       769 2.25124E-06-2.42819E-06-2.06795E-25
 -1       770 1.05203E-06-2.42957E-06 2.06795E-25
 -1       771 7.51637E-06-9.26853E-07 0.00000E+00
 -1       772 6.59790E-06 2.47662E-07-6.61744E-24
 -1       773 5.78201E-06 1.14756E-06 0.00000E+00
 -1       774 5.05897E-06 1.79923E-06 6.61744E-24
 -1       775 4.41910E-06 2.22914E-06-1.32349E-23
 -1       776 3.85243E-06 2.46395E-06 6.61744E-24
 -1       777 3.34892E-06 2.53040E-06-1.32349E-23
 -1       778 2.89851E-06 2.45534E-06 0.00000E+00
 -1       779 2.49109E-06 2.26567E-06-1.32349E-23
 -1       780 2.11655E-06 1.98835E-06 0.00000E+00
 -1       781 1.76476E-06 1.65042E-06 1.32349E-23
 -1       782 1.42565E-06 1.27892E-06-6.61744E-24
 -1       783 1.08912E-06 9.00934E-07 1.32349E-23
 -1       784 7.45341E-07 5.43605E-07 0.00000E+00
 -1       785 3.84398E-07 2.34031E-07 0.00000E+00
 -1       786 2.13373E-05-8.44102E-08 0.00000E+00
 -1       787 2.13732E-05 1.73306E-08-4.13590E-25
 -1       788 2.14090E-05 9.30643E-08 0.00000E+00
 -1       789 2.14452E-05 1.47923E-07 4.13590E-25
 -1       790 2.14814E-05 1.87028E-07 8.27181E-25
 -1       791 2.15176E-05 2.15495E-07 4.13590E-25
 -1       792 2.15539E-05 2.38434E-07 0.00000E+00
 -1       793 2.15902E-05 2.60955E-07 0.00000E+00
 -1       794 2.16265E-05 2.88166E-07 0.00000E+00
 -1       795 2.16627E-05 3.25178E-07 0.00000E+00
 -1       796 2.16990E-05 3.77105E-07-8.27181E-25
 -1       797 2.17353E-05 4.49068E-07 4.13590E-25
 -1       798 2.17715E-05 5.46197E-07 0.00000E+00
 -1       799 2.18076E-05 6.73627E-07 4.13590E-25
 -1       800 2.18437E-05 8.36516E-07 0.00000E+00
 -1       801 1.95477E-05-1.74065E-07 0.00000E+00
 -1       802 1.55942E-05-1.34277E-07 0.00000E+00
 -1       803 1.05523E-05-9.90177E-08 0.00000E+00
 -1       804 5.53242E-06-6.57467E-08 8.27181E-25
 -1       805 1.64513E-06-2.77843E-08 6.61744E-24
 -1       806 2.12175E-05-1.01029E-07 0.00000E+00
 -1       807 2.11363E-05-8.21656E-10 8.27181E-25
 -1       808 2.10596E-05 8.65363E-08 0.00000E+00
 -1       809 2.09864E-05 1.64107E-07 0.00000E+00
 -1       810 2.09156E-05 2.34941E-07 0.00000E+00
 -1       811 2.08462E-05 3.02079E-07 0.00000E+00
 -1       812 2.07771E-05 3.68558E-07 0.00000E+00
 -1       813 2.07070E-05 4.37412E-07 0.00000E+00
 -1       814 2.06350E-05 5.11678E-07-8.27181E-25
 -1       815 2.05597E-05 5.94388E-07 0.00000E+00
 -1       816 2.04802E-05 6.88577E-07-8.27181E-25
 -1       817 2.03952E-05 7.97276E-07-2.06795E-25
 -1       818 2.03037E-05 9.23517E-07-4.13590E-25
 -1       819 2.02045E-05 1.07031E-06 0.00000E+00
 -1       820 2.00966E-05 1.24068E-06 4.13590E-25
 -1       821 2.18385E-05 1.29947E-06 0.00000E+00
 -1       822 2.17956E-05 1.61978E-06-4.13590E-25
 -1       823 2.17528E-05 1.99449E-06 0.00000E+00
 -1       824 2.17096E-05 2.41711E-06 4.13590E-25
 -1       825 2.16663E-05 2.88111E-06 0.00000E+00
 -1       826 2.16229E-05 3.37997E-06 8.27181E-25
 -1       827 2.15794E-05 3.90711E-06 1.65436E-24
 -1       828 2.15360E-05 4.45597E-06 8.27181E-25
 -1       829 2.14925E-05 5.01998E-06 0.00000E+00
 -1       830 2.14491E-05 5.59254E-06 0.00000E+00
 -1       831 2.14056E-05 6.16706E-06 1.65436E-24
 -1       832 2.13623E-05 6.73695E-06 8.27181E-25
 -1       833 2.13189E-05 7.29561E-06 0.00000E+00
 -1       834 2.12760E-05 7.83647E-06-4.13590E-25
 -1       835 2.12330E-05 8.35294E-06 4.13590E-25
 -1       836 2.16075E-05 1.10534E-06 0.00000E+00
 -1       837 2.12855E-05 1.17281E-06 0.00000E+00
 -1       838 2.09373E-05 1.24020E-06-1.65436E-24
 -1       839 2.05872E-05 1.30733E-06 0.00000E+00
 -1       840 2.02597E-05 1.37444E-06-4.13590E-25
 -1       841 2.17928E-05 1.31161E-06 0.00000E+00
 -1       842 2.16765E-05 1.66363E-06 0.00000E+00
 -1       843 2.15365E-05 2.07873E-06-4.13590E-25
 -1       844 2.13792E-05 2.53961E-06 2.06795E-25
 -1       845 2.12087E-05 3.03578E-06-4.13590E-25
 -1       846 2.10289E-05 3.55680E-06 2.06795E-25
 -1       847 2.08423E-05 4.09586E-06 0.00000E+00
 -1       848 2.06515E-05 4.64618E-06 0.00000E+00
 -1       849 2.04584E-05 5.20260E-06 0.00000E+00
 -1       850 2.02649E-05 5.75992E-06-2.06795E-25
 -1       851 2.00730E-05 6.31320E-06 0.00000E+00
 -1       852 1.98843E-05 6.85741E-06 0.00000E+00
 -1       853 1.97015E-05 7.38626E-06-2.06795E-25
 -1       854 1.95264E-05 7.89333E-06-5.16988E-26
 -1       855 1.93632E-05 8.36921E-06 0.00000E+00
 -1       856 2.11600E-05 9.34682E-06 4.13590E-25
 -1       857 2.11259E-05 9.92355E-06 0.00000E+00
 -1       858 2.10917E-05 1.05592E-05-8.27181E-25
 -1       859 2.10573E-05 1.12444E-05 4.13590E-25
 -1       860 2.10227E-05 1.19694E-05 0.00000E+00
 -1       861 2.09881E-05 1.27248E-05-4.13590E-25
 -1       862 2.09535E-05 1.35010E-05 8.27181E-25
 -1       863 2.09189E-05 1.42884E-05 0.00000E+00
 -1       864 2.08842E-05 1.50776E-05 8.27181E-25
 -1       865 2.08496E-05 1.58590E-05-4.13590E-25
 -1       866 2.08150E-05 1.66229E-05 0.00000E+00
 -1       867 2.07804E-05 1.73600E-05 4.13590E-25
 -1       868 2.07459E-05 1.80606E-05 0.00000E+00
 -1       869 2.07115E-05 1.87151E-05 0.00000E+00
 -1       870 2.06772E-05 1.93141E-05-8.27181E-25
 -1       871 2.08044E-05 8.83369E-06 0.00000E+00
 -1       872 2.04669E-05 8.82826E-06-4.13590E-25
 -1       873 2.01595E-05 8.82267E-06 0.00000E+00
 -1       874 1.98618E-05 8.81687E-06 0.00000E+00
 -1       875 1.95531E-05 8.81083E-06 4.13590E-25
 -1       876 2.10644E-05 9.35847E-06 0.00000E+00
 -1       877 2.09195E-05 9.93101E-06 0.00000E+00
 -1       878 2.07577E-05 1.05487E-05-1.65436E-24
 -1       879 2.05817E-05 1.12051E-05 8.27181E-25
 -1       880 2.03937E-05 1.18934E-05 0.00000E+00
 -1       881 2.01963E-05 1.26072E-05 0.00000E+00
 -1       882 1.99917E-05 1.33399E-05 0.00000E+00
 -1       883 1.97826E-05 1.40848E-05 0.00000E+00
 -1       884 1.95713E-05 1.48355E-05-1.65436E-24
 -1       885 1.93602E-05 1.55853E-05 8.27181E-25
 -1       886 1.91520E-05 1.63278E-05 0.00000E+00
 -1       887 1.89489E-05 1.70563E-05 0.00000E+00
 -1       888 1.87534E-05 1.77644E-05-1.65436E-24
 -1       889 1.85677E-05 1.84452E-05 0.00000E+00
 -1       890 1.83945E-05 1.90925E-05 0.00000E+00
 -1       891 2.02090E-05 1.98234E-05 0.00000E+00
 -1       892 1.98355E-05 1.97983E-05 0.00000E+00
 -1       893 1.94871E-05 1.97731E-05 8.27181E-25
 -1       894 1.91280E-05 1.97480E-05 0.00000E+00
 -1       895 1.87220E-05 1.97229E-05 4.13590E-25
 -1       926 2.39586E-08-1.57229E-06 5.16988E-26
 -1       927 2.36944E-08-8.81327E-07 0.00000E+00
 -1       928 2.35089E-08-3.41835E-07 0.00000E+00
 -1       929 2.34152E-08 6.18215E-08-6.46235E-27
 -1       930 2.33606E-08 3.45271E-07 6.46235E-27
 -1       931 2.33302E-08 5.24140E-07 0.00000E+00
 -1       932 2.33057E-08 6.14067E-07 0.00000E+00
 -1       933 2.32631E-08 6.30684E-07 2.58494E-26
 -1       934 2.31980E-08 5.89627E-07 1.03398E-25
 -1       935 2.30255E-08 5.06533E-07 1.03398E-25
 -1       936 2.27893E-08 3.97040E-07 4.13590E-25
 -1       937 2.20525E-08 2.76784E-07 0.00000E+00
 -1       938 2.12460E-08 1.61389E-07 0.00000E+00
 -1       939 1.79520E-08 6.64801E-08 0.00000E+00
 -1       940 1.54988E-08 7.52511E-09 0.00000E+00
 -1       956 1.99325E-05 1.71648E-06 4.13590E-25
 -1       957 1.98848E-05 2.04613E-06 4.13590E-25
 -1       958 1.98369E-05 2.42107E-06-8.27181E-25
 -1       959 1.97890E-05 2.83559E-06 0.00000E+00
 -1       960 1.97409E-05 3.28398E-06-8.27181E-25
 -1       961 1.96929E-05 3.76046E-06-8.27181E-25
 -1       962 1.96448E-05 4.25928E-06-1.65436E-24
 -1       963 1.95967E-05 4.77469E-06 0.00000E+00
 -1       964 1.95486E-05 5.30091E-06-1.65436E-24
 -1       965 1.95005E-05 5.83217E-06 0.00000E+00
 -1       966 1.94524E-05 6.36273E-06 0.00000E+00
 -1       967 1.94043E-05 6.88681E-06 0.00000E+00
 -1       968 1.93563E-05 7.39864E-06-1.65436E-24
 -1       969 1.93084E-05 7.89250E-06-8.27181E-25
 -1       970 1.92605E-05 8.36265E-06-1.65436E-24
 -1       971 1.91534E-05 9.25701E-06-1.65436E-24
 -1       972 1.90921E-05 9.78259E-06 0.00000E+00
 -1       973 1.90308E-05 1.03715E-05 1.65436E-24
 -1       974 1.89692E-05 1.10147E-05 0.00000E+00
 -1       975 1.89077E-05 1.17032E-05-1.65436E-24
 -1       976 1.88460E-05 1.24282E-05 8.27181E-25
 -1       977 1.87843E-05 1.31805E-05 0.00000E+00
 -1       978 1.87227E-05 1.39512E-05 8.27181E-25
 -1       979 1.86610E-05 1.47313E-05 0.00000E+00
 -1       980 1.85993E-05 1.55118E-05-8.27181E-25
 -1       981 1.85376E-05 1.62836E-05 0.00000E+00
 -1       982 1.84760E-05 1.70378E-05 0.00000E+00
 -1       983 1.84145E-05 1.77654E-05 0.00000E+00
 -1       984 1.83533E-05 1.84573E-05-8.27181E-25
 -1       985 1.82922E-05 1.91046E-05 0.00000E+00
 -3
    1PSTEP                         4           2           1          
  100CL  102 3.12500E-01         608                     0    2           1
 -4  STRESS      6    1
 -5  SXX         1    4    1    1
 -5  SYY         1    4    2    2
 -5  SZZ         1    4    3    3
 -5  SXY         1    4    1    2
 -5  SYZ         1    4    2    3
 -5  SZX         1    4    3    1
 -1         1-1.55730E+06-5.32061E+05-3.40433E+05-4.84905E+05-1.74623E-10-4.85064E-11
 -1         2-1.02827E+06-2.64777E+05-1.33406E+05-1.70648E+05 1.26480E-09-1.04580E-08
 -1         3-2.68778E+05-2.39436E+05-8.73516E+03 2.99097E+04 1.51306E-09 6.43716E-10
 -1         4-2.51469E+05-3.95988E+04 3.56450E+02-2.38928E+04 2.28530E-10 1.78187E-09
 -1         5-1.39204E+05 3.50279E+04-5.72687E+04-1.34191E+03 9.24138E-09 1.38741E-09
 -1         8-6.96173E+05-3.22047E+05-9.46461E+04-4.28378E+05 1.21266E-11-2.42047E-09
 -1         9-7.26193E+05-2.54871E+05-1.03172E+05-2.53701E+05 5.50790E-10-8.28004E-10
 -1        10-3.63778E+05-2.52641E+05-2.61472E+04-9.02882E+04 5.14651E-09-7.69915E-09
 -1        11-2.25106E+05-6.10918E+04 1.68049E+02 4.73651E+01-1.18334E-09 4.06433E-09
 -1        12-2.01170E+05 1.23269E+04-7.38294E+04-1.84696E+04 1.34611E-08-3.17676E-09
 -1        15 1.19066E+03 6.43869E+02 3.69523E+03 9.43541E-01-8.53362E-11 3.12442E-09
 -1        16-1.14188E+06-3.03860E+05-1.06202E+05-3.70782E+05 5.79291E-10 3.18141E-09
 -1        17-2.11735E+05-1.64010E+05-2.25130E+04-1.41849E+05-5.61765E-10 8.18545E-10
 -1        18 1.29162E+04-1.07146E+04-1.00850E+04-3.32179E+04-1.74805E-10-1.94632E-10
 -1        19 5.27930E+04 6.43768E+04-6.60400E+01 1.71787E+03 7.34872E-11-9.76070E-10
 -1        20 2.30591E+04-3.95631E+04-9.28955E+03 1.84773E+04 1.60691E-09-2.70870E-09
 -1        21-4.44474E+03-6.30752E+04 1.73627E+04-5.16314E+02 4.49214E-09-9.29111E-10
 -1        23 2.89094E-01 1.37720E-01 5.29605E+00 2.67109E-04-8.48646E-10 2.10583E-09
 -1        24-5.79328E+05-1.73457E+05 3.09240E+04-3.01715E+05-1.76005E-09 9.89530E-10
 -1        25 8.52270E+03 2.28864E+04 1.20851E+04-1.67033E+05-2.28647E-10 1.14178E-09
 -1        26 1.17766E+03 4.40409E+04 2.04906E+02-7.22662E+03 1.69270E-10 6.80842E-11
 -1        27-9.53927E+03-2.91932E+04-1.29668E+04 3.21557E+04 1.05585E-09-1.72956E-09
 -1        28-3.63128E+03-4.86654E+04-1.72542E+03 1.87699E+04 2.15402E-09-1.23589E-09
 -1        31 1.83639E+03 2.11745E+03 3.14110E+03-4.85256E+01 1.48652E-09-7.96490E-10
 -1        32-2.36943E+05 5.53671E+04 1.47811E+05-3.43424E+05-4.57381E-10 8.12482E-10
 -1        33-5.20189E+04 5.26381E+04 1.61737E+04-1.65197E+04-4.91392E-10 1.12474E-10
 -1        34-6.32440E+04-2.54134E+03 5.74074E+03 2.42471E+04 5.90070E-10-2.43062E-09
 -1        35-9.60121E+03-1.31514E+04 7.17984E+02 3.05479E+04 8.80609E-10-2.42532E-10
 -1        36-1.59926E+06 4.71708E+04-1.08638E+05-2.11091E-07-2.77592E-09-2.67755E-09
 -1        37-1.64636E+06-5.45917E+04-7.69466E+04 4.73798E-07-1.71794E-09-3.93084E-09
 -1        38-1.61743E+06 7.41591E+03-2.81127E+04 2.30427E-07 2.26092E-09-8.36735E-11
 -1        39-1.62515E+06-8.58115E+03-1.77061E+04-1.55984E-07-3.16200E-09-5.86442E-09
 -1        40-1.62042E+06 1.16405E+03-7.23808E+03 1.46733E-07-2.17540E-10-1.31831E-09
 -1        41-1.62164E+06-1.36706E+03-4.34885E+03-1.81619E-07-2.02058E-09 4.80770E-09
 -1        42-1.62092E+06 2.02833E+02-2.16596E+03 2.02245E-07-1.14081E-09-3.54305E-10
 -1        43-1.62113E+06-3.76585E+02-1.79916E+03-2.17677E-08 1.77305E-09-5.00438E-09
 -1        44-1.62093E+06 1.73718E+02-1.90857E+03 4.01606E-07-1.09381E-10 1.53040E-09
 -1        45-1.62151E+06-1.11739E+03-3.60270E+03 6.43797E-08-4.50434E-09 9.00400E-11
 -1        46-1.62054E+06 9.43534E+02-5.89666E+03 4.03934E-07-2.25787E-09 1.48543E-09
 -1        47-1.62434E+06-6.94645E+03-1.43500E+04-4.40318E-09 3.64738E-09 8.64929E-10
 -1        48-1.61811E+06 6.00194E+03-2.27620E+04 2.71249E-07 1.64667E-09 1.06229E-09
 -1        49-1.64151E+06-4.41822E+04-6.22788E+04-7.49723E-08-1.92238E-09 1.60617E-09
 -1        50-1.60342E+06 3.81750E+04-8.79319E+04-7.08048E-08-5.42710E-09 5.52973E-09
 -1        51 1.21860E+04-2.05660E+05 2.06026E+04-5.28172E+05 1.09139E-10 2.40107E-09
 -1        52 5.51078E+03-2.03563E+05 1.33086E+04-5.84902E+05 2.58296E-10 2.12458E-09
 -1        53 3.80012E+03-2.07581E+05 1.20079E+04-5.26767E+05-5.45697E-11 1.01863E-10
 -1        54 1.01854E+04-2.04978E+05 1.98403E+04-5.86434E+05-1.45519E-10-8.00355E-10
 -1        55 2.52460E+04-2.11330E+05 3.69668E+04-5.26543E+05-1.16415E-10-4.18368E-11
 -1        56-2.81912E+06-3.04988E+05-2.43068E+05-1.09498E+06-9.42237E-10-2.22644E-09
 -1        57-2.93727E+06-5.23738E+05-1.66647E+05-1.06338E+06 6.41194E-10 1.12050E-09
 -1        58-2.86814E+06-3.88298E+05-5.70701E+04-1.07928E+06-4.81123E-10-4.79849E-09
 -1        59-2.88084E+06-4.26379E+05-3.49470E+04-1.08107E+06-7.69433E-10-5.20686E-10
 -1        60-2.87521E+06-4.01239E+05-1.33476E+04-1.07762E+06-2.76941E-10 3.52748E-09
 -1        61-2.87363E+06-4.10372E+05-7.80278E+03-1.08180E+06-1.06019E-09 3.04647E-09
 -1        62-2.87527E+06-4.04150E+05-3.70098E+03-1.07857E+06-5.69230E-10 5.04656E-09
 -1        63-2.87488E+06-4.06098E+05-3.19652E+03-1.07932E+06-2.07478E-12 1.44129E-09
 -1        64-2.87394E+06-4.05496E+05-3.64149E+03-1.08010E+06-9.27884E-10-1.20122E-09
 -1        65-2.87849E+06-4.05405E+05-7.62174E+03-1.07620E+06-4.18638E-10-2.10002E-09
 -1        66-2.87168E+06-4.04860E+05-1.30147E+04-1.08169E+06 4.12911E-10 2.04182E-09
 -1        67-2.88869E+06-4.17837E+05-3.40593E+04-1.07186E+06-9.09381E-10 1.84991E-09
 -1        68-2.86383E+06-3.93216E+05-5.56161E+04-1.08441E+06-3.85626E-10 9.05857E-10
 -1        69-2.94403E+06-5.12356E+05-1.62395E+05-1.05422E+06-1.13960E-09 2.59024E-09
 -1        70-2.81667E+06-3.11421E+05-2.36873E+05-1.09901E+06-1.60071E-10 6.69388E-10
 -1        86-2.04696E+04-1.05574E+05 4.84573E+04 6.71795E+03 2.12822E-09 8.34575E-10
 -1        87 2.58528E+04-8.24749E+04 3.82569E+04-2.94520E+04 3.61661E-09 2.95734E-09
 -1        88-5.25526E+03-9.78634E+04 2.03541E+04 6.98275E+03 3.32102E-09 1.92499E-09
 -1        89 1.98754E+04-8.55934E+04 3.03593E+04-2.95564E+04 4.89854E-09-5.34697E-09
 -1        90-1.44896E+04-1.02489E+05 3.50167E+04 6.82244E+03 1.78625E-09 1.96542E-09
 -1        91-1.47606E+06-1.71926E+05-9.06662E+04-5.69226E+05-8.41558E-06 3.14004E-06
 -1        92-1.52368E+06-2.55813E+05-6.30068E+04-5.53605E+05-1.67996E-05 6.30708E-06
 -1        93-1.49437E+06-2.04848E+05-2.12424E+04-5.63255E+05-1.80836E-06 6.86488E-07
 -1        94-1.50214E+06-2.17916E+05-1.33077E+04-5.60714E+05 1.31650E-05-4.94366E-06
 -1        95-1.49755E+06-2.09814E+05-4.97853E+03-5.62103E+05 1.34555E-06-5.06215E-07
 -1        96-1.49862E+06-2.12005E+05-2.99997E+03-5.61820E+05-1.04745E-05 3.92708E-06
 -1        97-1.49788E+06-2.10757E+05-1.41953E+03-5.62145E+05-6.40148E-07 2.38249E-07
 -1        98-1.49817E+06-2.11213E+05-1.31652E+03-5.61929E+05 9.19847E-06-3.44677E-06
 -1        99-1.49801E+06-2.10605E+05-1.53388E+03-5.61993E+05-8.15899E-08 3.35319E-08
 -1       100-1.49871E+06-2.12123E+05-3.34863E+03-5.61767E+05-9.36297E-06 3.51019E-06
 -1       101-1.49733E+06-2.09848E+05-5.61195E+03-5.62308E+05 4.06104E-07-1.53015E-07
 -1       102-1.50262E+06-2.18857E+05-1.50214E+04-5.60569E+05 1.01805E-05-3.82491E-06
 -1       103-1.49411E+06-2.03873E+05-2.40053E+04-5.63196E+05-1.84969E-06 7.01131E-07
 -1       104-1.52701E+06-2.61611E+05-7.11821E+04-5.52456E+05-1.38904E-05 5.20970E-06
 -1       105-1.47300E+06-1.67103E+05-1.02454E+05-5.70437E+05-6.96797E-06 2.59912E-06
 -1       106-5.34846E+05 2.74164E+03-6.32059E+03-1.76930E-07 9.67237E-10 1.98679E-09
 -1       107-5.37544E+05-3.17338E+03-4.47693E+03-2.48975E-07 1.44899E-10-1.34702E-09
 -1       108-5.35902E+05 4.31157E+02-1.64004E+03-1.71488E-07 5.06367E-10 1.67915E-09
 -1       109-5.36312E+05-4.99538E+02-1.03913E+03-1.59221E-07 1.16347E-09-2.04636E-11
 -1       110-5.36076E+05 6.82980E+01-4.38411E+02 2.04354E-07-3.20118E-10 4.01883E-10
 -1       111-5.36112E+05-8.42787E+01-2.89622E+02 2.02622E-07 9.45211E-11 4.91511E-10
 -1       112-5.36103E+05 1.59700E+01-1.94363E+02-2.46444E-07-1.68546E-10-1.17275E-09
 -1       113-5.36097E+05-5.32694E+01-2.55038E+02-2.08558E-07-4.31822E-10 2.51964E-09
 -1       114-5.36090E+05 3.72945E+01-3.83237E+02-5.72668E-08-1.60523E-09-1.80084E-09
 -1       115-5.36210E+05-2.67146E+02-8.36924E+02 1.66625E-07-4.99657E-10-4.39587E-09
 -1       116-5.35991E+05 2.29815E+02-1.42233E+03-6.88187E-08-1.08996E-09-1.34776E-09
 -1       117-5.36905E+05-1.69676E+03-3.49950E+03 4.93956E-07-1.95932E-09-2.41585E-11
 -1       118-5.35396E+05 1.46666E+03-5.56314E+03 1.30955E-07-2.48208E-09-3.06295E-09
 -1       119-5.41099E+05-1.07970E+04-1.52245E+04-2.17983E-07 3.01902E-10-3.35149E-09
 -1       120-5.31800E+05 9.32862E+03-2.15013E+04 1.27942E-07-2.41544E-10-5.19321E-10
 -1       121-1.11334E+02-4.60650E+05 4.77346E+02 1.02977E+04 3.15580E-10 4.99085E-10
 -1       122 2.46033E+02-4.60422E+05 5.65494E+02 5.98676E+04 7.41352E-10-6.36760E-10
 -1       123-7.73738E+01-4.60639E+05 6.85260E+02 1.02494E+04 3.87899E-10 1.32775E-09
 -1       124 8.23780E+02-4.60005E+05 1.56422E+03 5.97487E+04 4.76803E-10-1.82126E-09
 -1       125-6.74429E+02-4.60975E+05 2.30295E+03 1.04167E+04-4.19504E-10 1.42563E-09
 -1       141-2.63946E+05-1.12967E+03 2.60243E+03 5.69387E-08-2.96475E-10-6.45741E-10
 -1       142-2.62790E+05 1.30731E+03 1.83893E+03-3.17092E-07-6.80693E-11-1.05854E-09
 -1       143-2.63510E+05-1.77393E+02 6.63655E+02-1.74820E-07-1.51816E-10 1.35728E-09
 -1       144-2.63300E+05 2.03718E+02 4.02169E+02-1.02238E-07-1.33828E-09-1.61758E-09
 -1       145-2.63437E+05-2.62888E+01 1.30620E+02-2.00472E-08-5.39039E-10 2.73474E-10
 -1       146-2.63391E+05 2.05739E+01 1.21417E+01-2.98268E-07-6.27323E-10-2.60044E-09
 -1       147-2.63419E+05 5.71927E+00-1.20678E+02 1.15139E-08-4.38839E-11 6.89099E-10
 -1       148-2.63443E+05-7.04080E+01-3.37270E+02 1.34963E-07 3.23806E-10-1.38599E-09
 -1       149-2.63385E+05 6.46818E+01-6.43167E+02-4.96703E-08-1.56896E-10 5.53399E-10
 -1       150-2.63662E+05-4.85060E+02-1.50172E+03 1.57305E-07-7.23659E-10 3.59319E-09
 -1       151-2.63200E+05 4.20315E+02-2.59091E+03-2.25482E-07-2.65223E-10 1.35105E-09
 -1       152-2.64937E+05-3.10657E+03-6.40239E+03 2.02159E-07-7.43786E-11 3.35604E-10
 -1       153-2.62110E+05 2.68577E+03-1.01862E+04 1.46612E-07 2.17211E-09 3.20142E-10
 -1       154-2.72617E+05-1.97721E+04-2.78809E+04-1.97380E-07 1.32015E-09-8.25821E-10
 -1       155-2.55522E+05 1.70832E+04-3.93738E+04 2.23618E-07 5.58574E-09 1.53523E-09
 -1       156-8.51051E+03-7.92852E+04 2.01351E+04-1.19073E+02 2.18006E-09-1.32188E-05
 -1       157 1.10896E+04-7.00948E+04 1.64511E+04 4.28964E+02 9.01207E-09-2.64035E-05
 -1       158-2.57685E+03-7.65852E+04 9.66144E+03-1.36713E+02 3.25215E-09-1.32127E-05
 -1       159 1.08744E+04-7.01679E+04 1.61736E+04 3.84052E+02 1.37561E-10-9.34432E-09
 -1       160-8.29548E+03-7.92120E+04 1.96417E+04-7.41591E+01-7.27596E-11-7.11891E-10
 -1       161-2.55462E+05-3.59468E+04 1.29960E+02-9.57370E+04-5.43070E-06 2.03617E-06
 -1       162-2.55275E+05-3.59165E+04 8.85316E+01-9.58581E+04-1.08558E-05 4.07217E-06
 -1       163-2.55417E+05-3.59183E+04 2.46898E+01-9.57678E+04-1.56224E-05 5.85715E-06
 -1       164-2.55375E+05-3.59043E+04 6.56046E+00-9.57690E+04-2.03772E-05 7.64570E-06
 -1       165-2.55363E+05-3.59590E+04-1.87732E+01-9.58260E+04-1.05065E-05 3.94025E-06
 -1       166-2.55438E+05-3.58719E+04-5.48175E+01-9.57078E+04-6.21530E-07 2.32247E-07
 -1       167-2.55354E+05-3.59507E+04-1.11149E+02-9.58291E+04 9.11662E-06-3.41748E-06
 -1       168-2.55431E+05-3.59852E+04-2.68504E+02-9.57528E+04 1.88443E-05-7.07123E-06
 -1       169-2.55369E+05-3.58457E+04-4.92512E+02-9.57810E+04 1.37684E-05-5.16187E-06
 -1       170-2.55611E+05-3.64658E+04-1.24076E+03-9.57668E+04 8.68119E-06-3.25641E-06
 -1       171-2.55174E+05-3.54703E+04-2.14225E+03-9.58152E+04-3.26475E-06 1.22495E-06
 -1       172-2.57154E+05-3.90457E+04-5.78388E+03-9.52793E+04-1.52066E-05 5.70402E-06
 -1       173-2.53827E+05-3.32662E+04-9.25085E+03-9.62686E+04-1.59087E-05 5.96521E-06
 -1       174-2.66613E+05-5.54525E+04-2.74328E+04-9.20862E+04-1.65930E-05 6.22386E-06
 -1       175-2.45718E+05-1.90658E+04-3.94812E+04-9.90082E+04-8.29590E-06 3.10536E-06
 -1       191 2.24637E+02 1.85356E+05 3.61030E+02-2.64954E+03-1.40972E-10 1.77943E-09
 -1       192 8.36090E+01 1.85399E+05 2.22117E+02-2.76079E+03-1.08116E-10 1.47907E-09
 -1       193 4.30119E+01 1.85372E+05 1.89211E+02-2.57246E+03-3.86805E-10 8.73297E-09
 -1       194 1.27243E+02 1.85412E+05 2.99781E+02-2.90937E+03-3.12298E-10 1.71240E-08
 -1       195 3.59674E+02 1.85340E+05 5.54374E+02-2.50082E+03-6.00267E-10 1.00522E-08
 -1       266-2.09335E+04-9.68181E+03 4.83084E+04-1.94160E+01-5.09317E-11 4.36369E-10
 -1       267 2.42422E+04 1.13039E+04 3.42713E+04 2.23263E+01 1.27329E-11-3.64561E-09
 -1       268-3.30334E+03-1.61851E+03 1.26847E+04-2.90735E+00-1.81899E-12 9.55390E-10
 -1       269 3.89930E+03 1.94063E+03 8.29026E+03 3.37989E+00-7.73070E-12-1.27758E-09
 -1       270-5.95243E+02-3.21933E+02 3.98034E+03-4.71626E-01-2.23963E-11 4.05733E-09
 -1       271-2.17482E+06-2.69985E+05-1.71111E+05-8.40617E+05-3.12866E-10-1.45519E-09
 -1       272-2.23696E+06-3.84976E+05-1.08729E+05-8.38848E+05 3.06727E-10 1.64619E-09
 -1       273-2.20540E+06-3.10198E+05-4.03777E+04-8.35040E+05 1.66096E-10 1.02955E-09
 -1       274-2.20143E+06-3.33957E+05-2.23454E+04-8.47947E+05 1.06922E-09 3.04499E-09
 -1       275-2.20939E+06-3.14216E+05-9.39010E+03-8.34076E+05-7.24640E-10-7.20775E-10
 -1       276-2.19666E+06-3.29079E+05-4.98380E+03-8.49556E+05 2.56932E-10 2.44700E-09
 -1       277-2.21013E+06-3.14401E+05-2.51100E+03-8.33707E+05-2.57387E-10 1.01068E-10
 -1       278-2.19581E+06-3.28941E+05-1.91489E+03-8.50111E+05-1.13840E-09-2.10414E-09
 -1       279-2.21027E+06-3.14281E+05-2.20196E+03-8.33566E+05 9.29390E-11 1.92210E-09
 -1       280-2.19610E+06-3.29436E+05-4.13488E+03-8.50153E+05 1.20886E-09 8.24798E-10
 -1       281-2.20985E+06-3.13939E+05-7.66537E+03-8.33657E+05-1.32040E-10-1.63709E-11
 -1       282-2.19968E+06-3.33721E+05-1.81928E+04-8.49233E+05 1.17950E-09 2.30739E-09
 -1       283-2.20675E+06-3.10527E+05-3.28342E+04-8.34283E+05 4.18368E-10-1.58252E-10
 -1       284-2.22834E+06-3.75455E+05-8.84250E+04-8.42121E+05 1.11913E-09 1.06502E-09
 -1       285-2.18200E+06-2.77724E+05-1.39155E+05-8.38703E+05 1.16415E-10-1.49157E-09
 -1       286 2.12113E+05-2.64782E+04 6.10383E+04 3.50115E+02 2.32188E-10 2.11730E-09
 -1       287 2.38786E+05 3.06458E+04 4.32425E+04-5.69200E+02 3.57542E-10 7.50333E-11
 -1       288 2.22396E+05-4.16062E+03 1.58095E+04 5.40615E+01 4.19508E-10 1.38971E-09
 -1       289 2.26809E+05 4.81492E+03 9.96293E+03-1.94946E+02 3.01377E-10-1.73986E-09
 -1       290 2.24090E+05-6.53404E+02 4.08741E+03-2.41350E+01-1.69434E-07 7.77618E-10
 -1       291 2.24839E+05 7.70716E+02 2.47745E+03-9.60309E+01-3.40685E-07 1.36788E-09
 -1       292 2.24366E+05-1.17159E+02 1.27613E+03-4.48558E+01-1.45180E-07 2.36082E-09
 -1       293 2.24564E+05 2.36890E+02 1.13651E+03-7.33004E+01 4.97996E-08-1.97083E-09
 -1       294 2.24365E+05-1.19668E+02 1.29800E+03-4.68660E+01-3.67660E-07-4.82430E-10
 -1       295 2.24851E+05 7.92176E+02 2.54085E+03-8.42729E+01-7.87695E-07 1.13087E-09
 -1       296 2.24080E+05-6.72350E+02 4.20130E+03-3.38831E+01-2.44573E-06-3.87558E-09
 -1       297 2.26874E+05 4.95454E+03 1.02473E+04-1.49489E+02-4.10268E-06 2.04943E-09
 -1       298 2.22340E+05-4.28126E+03 1.62640E+04 1.83515E+01-2.05592E-06 3.45062E-09
 -1       299 2.39150E+05 3.15239E+04 4.44756E+04-4.00317E+02 2.42375E-10 7.18137E-09
 -1       300 2.11805E+05-2.72352E+04 6.28042E+04 2.16943E+02 2.86114E-09 1.69530E-09
 -1       301 1.70610E+04-1.01041E+04 5.09286E+04-1.48477E+04 1.45519E-11-5.65990E-10
 -1       302 6.48516E+03 4.84828E+02 3.45716E+04-1.83698E+04 6.12204E-10-3.24324E-10
 -1       303 1.37189E+03-6.49430E+03 3.20605E+04-1.48447E+04-1.63709E-11 5.23187E-10
 -1       304 1.22928E+04 4.98174E+03 5.30981E+04-1.83518E+04 7.05768E-10-7.10372E-10
 -1       305 3.38381E+04-1.45874E+04 9.47968E+04-1.48487E+04 1.70985E-10 1.24646E-09
 -1       306-9.99956E+05-1.31077E+05-5.99260E+04-3.87665E+05 2.93312E-10 1.78625E-09
 -1       307-1.00881E+06-1.84023E+05-3.80456E+04-4.01687E+05 1.28375E-09 6.10726E-10
 -1       308-1.01073E+06-1.45035E+05-1.41513E+04-3.85652E+05 1.09139E-10-2.40198E-09
 -1       309-9.96400E+05-1.66240E+05-7.83285E+03-4.04983E+05-5.64796E-10 1.62049E-09
 -1       310-1.01213E+06-1.46432E+05-3.30840E+03-3.85328E+05 8.55152E-10 1.49657E-09
 -1       311-9.94817E+05-1.64474E+05-1.78582E+03-4.05500E+05 6.96616E-10 2.57614E-09
 -1       312-1.01234E+06-1.46544E+05-9.59353E+02-3.85258E+05 2.92744E-10-1.35117E-10
 -1       313-9.94662E+05-1.64299E+05-8.47540E+02-4.05528E+05 2.36724E-10-1.87111E-09
 -1       314-1.01228E+06-1.46590E+05-1.13011E+03-3.85308E+05-7.10088E-10 8.86757E-12
 -1       315-9.95018E+05-1.64372E+05-2.25014E+03-4.05263E+05 1.97360E-10 1.02739E-09
 -1       316-1.01193E+06-1.46524E+05-4.25448E+03-3.85477E+05 2.01908E-10 6.82121E-11
 -1       317-9.97163E+05-1.66544E+05-1.01043E+04-4.04449E+05 7.59428E-10 3.11047E-10
 -1       318-1.01008E+06-1.44767E+05-1.82816E+04-3.85942E+05-1.40585E-09 1.02682E-09
 -1       319-1.01325E+06-1.89462E+05-4.91397E+04-4.00128E+05-6.23328E-09 9.77707E-10
 -1       320-9.96146E+05-1.26745E+05-7.74063E+04-3.88551E+05-2.74758E-09 3.79077E-09
 -1       321-4.97760E+05 4.44053E+02-1.07145E+03-1.53940E+01-2.23107E-10-7.93079E-10
 -1       322-4.97962E+05-5.21596E+02-7.23528E+02-5.59487E+02 1.63321E-09 4.84945E-10
 -1       323-4.97827E+05 7.73625E+01-2.74741E+02 5.11771E+02-9.24609E-10-1.65285E-09
 -1       324-4.97760E+05-8.24148E+01-1.60692E+02-5.15414E+02-2.04252E-09 9.84100E-10
 -1       325-4.97962E+05 4.91081E+00-1.09469E+02-5.94680E+01-1.75200E-09 1.70388E-09
 -1       326-4.97729E+05-1.75834E+01-6.16319E+01 5.47840E+02 1.00077E-09 1.83675E-10
 -1       327-4.97858E+05 1.26219E+01-9.38079E+01-5.51502E+02 1.10166E-09-2.00788E-09
 -1       328-4.97742E+05-3.72300E+01-1.60868E+02 4.38697E+02-1.89026E-09 6.16467E-10
 -1       329-4.97948E+05 2.44441E+01-3.34506E+02 4.96767E+01-1.54844E-09 4.19831E-10
 -1       330-4.97842E+05-2.29407E+02-6.95480E+02-6.17900E+02 5.84573E-10-5.11832E-10
 -1       331-4.97759E+05 2.04915E+02-1.22729E+03 5.05115E+02 2.90048E-10-2.75355E-09
 -1       332-4.98447E+05-1.46923E+03-3.01064E+03-4.43490E+02-9.43420E-10-8.39464E-10
 -1       333-4.97344E+05 1.26388E+03-4.84046E+03-1.24737E+02-4.78453E-10-1.87947E-09
 -1       334-5.02078E+05-9.35127E+03-1.31716E+04 6.03314E+02 1.34952E-09-6.47560E-10
 -1       335-4.94131E+05 8.08586E+03-1.86335E+04-5.41711E+02-6.76972E-10 5.44424E-09
 -1       336 1.38347E+02-4.90451E+05-1.46480E+03-6.38806E+03-1.54500E-09-1.49976E-09
 -1       337-8.44506E+02-4.91086E+05-3.12948E+03-3.87259E+04-2.82068E-09-1.32468E-09
 -1       338 6.44065E+02-4.90128E+05-5.38184E+03-6.16716E+03-2.81716E-09 1.93268E-10
 -1       339-7.06965E+03-4.94725E+05-1.34828E+04-3.90241E+04-4.17185E-09 7.66704E-10
 -1       340 5.64859E+03-4.86957E+05-2.06213E+04-6.09090E+03-2.75668E-09 1.47611E-09
 -1       356-4.94179E+05 8.06311E+03-1.86602E+04 2.61667E+02 1.08815E-06 7.51879E-09
 -1       357-5.01864E+05-9.34153E+03-1.31524E+04-9.56076E+02 2.12006E-06-5.44787E-10
 -1       358-4.97154E+05 1.27707E+03-4.83721E+03 6.49595E+02 1.07399E-06-3.77440E-11
 -1       359-4.98245E+05-1.47066E+03-3.02423E+03-3.56789E+02-6.43485E-10-1.95496E-09
 -1       360-4.97794E+05 1.92771E+02-1.31990E+03-3.37629E+02-9.48972E-10 2.72280E-11
 -1       361-4.97644E+05-2.45047E+02-8.07759E+02 9.51882E+02 4.14864E-09-6.90626E-10
 -1       362-4.97755E+05 5.24838E+01-5.65266E+02-6.59100E+02 1.30135E-09-1.22231E-09
 -1       363-4.97609E+05-1.50382E+02-6.84344E+02 2.67278E+02 1.32537E-09 2.54516E-10
 -1       364-4.97829E+05 9.72710E+01-1.10166E+03 3.46987E+02 9.40518E-07 3.17539E-09
 -1       365-4.97910E+05-7.42576E+02-2.29668E+03-9.98920E+02 1.81688E-06-1.01716E-09
 -1       366-4.97455E+05 6.45484E+02-3.97426E+03 6.07121E+02 9.30775E-07 4.40718E-09
 -1       367-4.99857E+05-4.72779E+03-9.71795E+03-2.33535E+02 3.25557E-09 1.38027E-09
 -1       368-4.95884E+05 4.08096E+03-1.55320E+04-4.18416E+02 2.68002E-09 9.86802E-10
 -1       369-5.11532E+05-3.00814E+04-4.23901E+04 9.79798E+02-3.25108E-10 9.60426E-10
 -1       370-4.85787E+05 2.59965E+04-5.99284E+04-6.06233E+02 8.01566E-09 1.05138E-09
 -1       371-8.02338E+03-7.91070E+04 1.81302E+04 2.29032E+02 7.41238E-10-1.01682E-09
 -1       372 8.52485E+03-7.13018E+04 1.14922E+04-7.00167E+02 5.29326E-10 3.05932E-09
 -1       373-4.99277E+02-7.55748E+04 1.88785E+03 2.89153E+02 1.42427E-09-1.58837E-09
 -1       374-4.22444E+03-7.71523E+04-5.08569E+03-6.66867E+02 1.48475E-10-2.97387E-09
 -1       375 4.72334E+03-7.32574E+04-1.03958E+04 1.95730E+02 1.05138E-09 1.60808E-09
 -1       406 3.08020E+02 1.84302E+05 7.08999E+02-1.01639E+04-9.28139E-10 2.98087E-09
 -1       407 2.28286E+02 1.84433E+05 9.47713E+02-1.10723E+04-5.34385E-10 1.35969E-10
 -1       408 4.16917E+02 1.84269E+05 1.63294E+03-1.00963E+04-1.11993E-09 8.96625E-09
 -1       409 1.67184E+03 1.84904E+05 3.54968E+03-1.11854E+04-7.22252E-10 1.86938E-08
 -1       410 4.80116E+03 1.83821E+05 7.18459E+03-1.00487E+04-1.32968E-09 7.56290E-09
 -1       501-2.22745E+05-2.75371E+04 6.19911E+04-2.29956E+03 4.25194E-06-6.82849E-09
 -1       502-1.87293E+05 3.15786E+04 4.53076E+04 6.11087E+03 8.41348E-06-4.57276E-08
 -1       503-2.09579E+05-4.01102E+03 1.60775E+04-2.82227E+03 4.23225E-06-1.72558E-08
 -1       504-1.94822E+05 5.15643E+03 1.20408E+04 3.86080E+03 2.95380E-09 4.58067E-09
 -1       505-2.15191E+05-1.15976E+03 2.46434E+03-4.94053E+01 2.89049E-11-5.63887E-10
 -1       506-1.95252E+05 1.10785E+03 4.58802E+03-2.11248E+03 6.61594E-09-5.14905E-09
 -1       507-2.09136E+05 2.61792E+01 5.85175E+02 3.15076E+03 6.91570E-09-4.74222E-09
 -1       508-2.02283E+05-1.97729E+02 1.34765E+03-5.50971E+03 3.45861E-09-6.46099E-09
 -1       509-2.08207E+05 2.01916E+02 5.07194E+01 3.34818E+03 7.49205E-09-7.32928E-09
 -1       510-1.96400E+05 3.37728E+02 2.34157E+03-2.70336E+03 6.70430E-09-5.29472E-09
 -1       511-2.14979E+05-5.59737E+02-1.29607E+03 3.44070E+02 5.36488E-10-3.45537E-10
 -1       512-1.96198E+05 6.97691E+02 2.88705E+03 3.32452E+03-1.26909E-09 2.66942E-09
 -1       513-2.08410E+05-1.59768E+02 1.02348E+03-2.67947E+03-1.15090E-09 6.17888E-09
 -1       514-2.00966E+05 2.60545E+03 4.45998E+03 6.15576E+03-3.53156E-09 6.44673E-09
 -1       515-2.10255E+05-2.42086E+03 4.53013E+03-2.48726E+03-4.28979E-09 4.28463E-09
 -1       521-2.21761E+06-2.82290E+05-1.42784E+05-8.52993E+05-9.76797E-10 1.98634E-09
 -1       522-2.26354E+06-3.84128E+05-9.07217E+04-8.58299E+05-2.68301E-10-2.60025E-09
 -1       523-2.24309E+06-3.15855E+05-3.36865E+04-8.48363E+05-4.72937E-11-2.65572E-10
 -1       524-2.23403E+06-3.41440E+05-1.86545E+04-8.65764E+05-2.84615E-10-3.09547E-09
 -1       525-2.24632E+06-3.19301E+05-7.84519E+03-8.47664E+05 4.57192E-10 3.14685E-10
 -1       526-2.23029E+06-3.37110E+05-4.19717E+03-8.66797E+05 1.47679E-09 2.36810E-09
 -1       527-2.24677E+06-3.19631E+05-2.16857E+03-8.47547E+05 4.41588E-10-1.14763E-09
 -1       528-2.22997E+06-3.36608E+05-1.76593E+03-8.66774E+05-4.40366E-10-4.50086E-10
 -1       529-2.24663E+06-3.19770E+05-2.17826E+03-8.47695E+05-4.45880E-10-1.22782E-10
 -1       530-2.23077E+06-3.36604E+05-4.21287E+03-8.66169E+05-2.72848E-12 5.22050E-10
 -1       531-2.24592E+06-3.19707E+05-7.88973E+03-8.48100E+05-3.55385E-10 2.00998E-10
 -1       532-2.23498E+06-3.40464E+05-1.87371E+04-8.64533E+05 9.72022E-11 9.99535E-10
 -1       533-2.24242E+06-3.16498E+05-3.38554E+04-8.49075E+05 3.63684E-10 1.26238E-09
 -1       534-2.26509E+06-3.82868E+05-9.11351E+04-8.56466E+05-2.55568E-10 8.29459E-10
 -1       535-2.21659E+06-2.83023E+05-1.43459E+05-8.53992E+05-1.04774E-09 1.04774E-09
 -1       536 2.76236E+04-7.41760E+03 2.69284E+04-3.54965E+03 4.79304E-10-1.89266E-09
 -1       537 3.79176E+04 9.31269E+03 1.76208E+04-2.03204E+04-2.30466E-09 1.98497E-10
 -1       538 3.17823E+04-8.57760E+02 6.97939E+03-3.50231E+03 2.71029E-10-1.36697E-09
 -1       539 3.31484E+04 9.91831E+02 3.98104E+03-2.03637E+04 5.47516E-10-6.67114E-10
 -1       540 3.22863E+04-1.11261E+02 1.76009E+03-3.50479E+03 4.55202E-10 9.38599E-10
 -1       541 3.25024E+04 1.03013E+02 9.43041E+02-2.03542E+04-2.05773E-10-7.79096E-10
 -1       542 3.23506E+04-1.63722E+01 4.32615E+02-3.51185E+03-1.65301E-10-8.72205E-10
 -1       543 3.23795E+04 1.90910E+01 2.15337E+02-2.03432E+04-3.18437E-10 1.36063E-09
 -1       544 3.23594E+04 8.43793E-01 8.00934E+01-3.51583E+03 4.57817E-10 2.66846E-09
 -1       545 3.23426E+04 8.82401E+00-7.30699E+00-2.03384E+04-1.12379E-09-5.33760E-11
 -1       546 3.23655E+04 9.23598E+00-9.29700E+01-3.51668E+03 4.12768E-10 1.89723E-09
 -1       547 3.23055E+04-5.62194E+01-2.56799E+02-2.03371E+04-8.13088E-10 2.51134E-10
 -1       548 3.24022E+04 5.52445E+01-4.72663E+02-3.51709E+03-5.11591E-10 1.55472E-09
 -1       549 3.20147E+04-6.35272E+02-1.19744E+03-2.03101E+04-4.09159E-10 1.18348E-09
 -1       550 3.26898E+04 4.90884E+02-1.84707E+03-3.54371E+03 6.11635E-11 6.65977E-10
 -1       551 4.27086E+03-1.75067E+05 1.23380E+04-2.80163E+05-3.31238E-09 1.09139E-11
 -1       552 3.06293E+03-1.73032E+05 1.31274E+04-3.45851E+05-3.79805E-09 1.80717E-09
 -1       553 2.14163E+03-1.75298E+05 1.93057E+04-2.79607E+05-4.16912E-09 1.48566E-09
 -1       554 1.14543E+04-1.66722E+05 3.96762E+04-3.45931E+05-4.24552E-09 1.39698E-09
 -1       555 2.84307E+04-1.81695E+05 7.52038E+04-2.80027E+05-3.67072E-09-9.80435E-10
 -1       556-4.98240E+04-5.74411E+04 1.45907E+04-9.25418E+04-4.96584E-10 4.78394E-09
 -1       557-3.50767E+04-7.15143E+04 7.38805E+03-1.04280E+05-4.65661E-10-2.14129E-09
 -1       558-4.97099E+04-6.08782E+04 3.09701E+03-9.01758E+04 3.02680E-09 3.23689E-09
 -1       559-3.65996E+04-7.36917E+04 1.53143E+03-1.04861E+05-1.72804E-10-2.26464E-10
 -1       560-4.98468E+04-6.08294E+04 6.80840E+02-9.01921E+04-7.76708E-09-1.98042E-09
 -1       561-3.68928E+04-7.37009E+04 3.32411E+02-1.05057E+05-8.55198E-09 3.75269E-09
 -1       562-4.99729E+04-6.07338E+04 1.33642E+02-9.02825E+04-3.46881E-09 6.47105E-10
 -1       563-3.70398E+04-7.36392E+04 4.03793E+01-1.05157E+05-5.51154E-10 5.47629E-10
 -1       564-5.00482E+04-6.06795E+04-4.63069E+01-9.03373E+04-3.44698E-10-3.70164E-10
 -1       565-3.71175E+04-7.36093E+04-1.56362E+02-1.05204E+05-3.03703E-09-7.61111E-09
 -1       566-5.00613E+04-6.06577E+04-3.54340E+02-9.03536E+04 3.64480E-10 5.91172E-11
 -1       567-3.71848E+04-7.36315E+04-7.90650E+02-1.05195E+05 1.42859E-09 8.89486E-10
 -1       568-4.99726E+04-6.07417E+04-1.62627E+03-9.03067E+04-9.36780E-11 1.25692E-09
 -1       569-3.81665E+04-7.44245E+04-3.83572E+03-1.04867E+05-3.07409E-10 2.22644E-09
 -1       570-4.93102E+04-6.30259E+04-7.61819E+03-8.94013E+04-2.72848E-11-3.44698E-10
 -1       571 1.27745E+05 5.42146E+03 8.12046E+03-3.16006E+04 6.46651E-10-1.54989E-09
 -1       572 1.28967E+05 1.87333E+03 3.98155E+03-3.47102E+04 9.96579E-10-5.80599E-10
 -1       573 1.28242E+05 4.37191E+02 1.76968E+03-3.15193E+04 1.31740E-09-4.37058E-09
 -1       574 1.28389E+05 1.38731E+02 8.87183E+02-3.48009E+04 1.33514E-09 2.20325E-10
 -1       575 1.28300E+05 1.51413E+01 4.18788E+02-3.15086E+04 1.80285E-09-3.94721E-10
 -1       576 1.28312E+05 1.06916E+00 2.13635E+02-3.48129E+04 4.91220E-10-1.88265E-10
 -1       577 1.28309E+05-6.62173E+00 1.06254E+02-3.15072E+04 1.81850E-08-1.17780E-10
 -1       578 1.28304E+05-5.03491E+00 5.98187E+01-3.48143E+04 3.72843E-08 6.58929E-10
 -1       579 1.28315E+05-6.75436E+00 4.02572E+01-3.15072E+04 1.76547E-08-8.20592E-10
 -1       580 1.28312E+05-6.98710E+00 4.34892E+01-3.48124E+04 2.90129E-10 3.55317E-09
 -1       581 1.28324E+05-8.03642E+00 6.59544E+01-3.15091E+04 1.18189E-09 9.67020E-10
 -1       582 1.28336E+05 6.02971E+00 1.30106E+02-3.47931E+04 1.78761E-09-1.25488E-09
 -1       583 1.28331E+05 4.42594E+01 2.53609E+02-3.15265E+04 1.35424E-09 3.34603E-09
 -1       584 1.28437E+05 2.45010E+02 5.68812E+02-3.46476E+04-2.07365E-10 1.02204E-09
 -1       585 1.28276E+05 7.48150E+02 1.15724E+03-3.16550E+04 8.13998E-10-3.06500E-10
 -1       586 2.54992E+02 5.57612E+04 7.06264E+02-7.97889E+04 4.18368E-11 3.84171E-09
 -1       587 2.40925E+02 5.58962E+04 1.13745E+03-8.89767E+04-9.74069E-10 2.00873E-09
 -1       588 4.60083E+02 5.56899E+04 2.09242E+03-7.96871E+04 1.63709E-11 3.99128E-08
 -1       589 1.99020E+03 5.65587E+04 4.61573E+03-8.89918E+04-1.03500E-09 8.08718E-08
 -1       590 5.83136E+03 5.50875E+04 9.32192E+03-7.97728E+04 2.20552E-11 4.13452E-08
 -1       591-5.87634E+04-1.74362E+04-1.21198E+04-2.81852E+04-5.10533E-09-1.39917E-08
 -1       592-5.95998E+04-1.70041E+04-6.11393E+03-3.14069E+04-5.01529E-10-1.99037E-09
 -1       593-5.94010E+04-1.41389E+04-2.59467E+03-2.98536E+04 6.40625E-10-2.96791E-09
 -1       594-5.82102E+04-1.54975E+04-1.27529E+03-3.15113E+04-1.91682E-09-7.93445E-09
 -1       595-5.94683E+04-1.40554E+04-5.88625E+02-2.99159E+04 2.64208E-10 3.10392E-09
 -1       596-5.81158E+04-1.54451E+04-2.97536E+02-3.14969E+04 3.23951E-10 9.23762E-10
 -1       597-5.94794E+04-1.40657E+04-1.60031E+02-2.99159E+04 1.53761E-10 3.48530E-09
 -1       598-5.81061E+04-1.54456E+04-1.24318E+02-3.14926E+04 1.78147E-10-7.48059E-11
 -1       599-5.94789E+04-1.40663E+04-1.53260E+02-2.99155E+04 7.50333E-12 9.80890E-10
 -1       600-5.81142E+04-1.54459E+04-2.79766E+02-3.14954E+04-1.96849E-10-1.81569E-09
 -1       601-5.94671E+04-1.40573E+04-5.50287E+02-2.99148E+04-2.70643E-09-9.52787E-09
 -1       602-5.82024E+04-1.54940E+04-1.19097E+03-3.15064E+04 7.71593E-10-1.99634E-09
 -1       603-5.94024E+04-1.41375E+04-2.42223E+03-2.98575E+04 1.72804E-11-7.23730E-10
 -1       604-5.95133E+04-1.68853E+04-5.70681E+03-3.13905E+04-3.64366E-10 8.07631E-10
 -1       605-5.87912E+04-1.72284E+04-1.13122E+04-2.83152E+04-5.42718E-09-1.11013E-08
 -1       606 4.24568E+04-5.00917E+03-8.05423E+03 1.32422E+04 6.63022E-09-1.27693E-09
 -1       607 4.11648E+04-1.67103E+03-3.97113E+03 1.45797E+04 1.72713E-08 1.43098E-09
 -1       608 4.19160E+04-3.43026E+02-1.77033E+03 1.31489E+04 1.08475E-08 2.32501E-09
 -1       609 4.17537E+04-9.75926E+01-8.89863E+02 1.46831E+04 2.51021E-10 9.16884E-10
 -1       610 4.18486E+04 2.56010E+00-4.21368E+02 1.31374E+04-1.19826E-09 1.22145E-09
 -1       611 4.18178E+04 1.26083E+01-2.12056E+02 1.46956E+04-3.46608E-09-1.37447E-10
 -1       612 4.18347E+04 1.60639E+01-1.00188E+02 1.31362E+04-1.12050E-09-4.28599E-11
 -1       613 4.18236E+04 1.58490E+01-4.46304E+01 1.46972E+04-3.16322E-09 1.16620E-09
 -1       614 4.18288E+04 1.37043E+01-9.72260E+00 1.31358E+04-3.94721E-10-4.18368E-10
 -1       615 4.18233E+04 1.59547E+01 2.04776E+01 1.46974E+04 3.29533E-09 7.32825E-10
 -1       616 4.18241E+04 1.55233E+01 5.98619E+01 1.31360E+04-1.18212E-09-5.45242E-10
 -1       617 4.18321E+04 3.35231E+01 1.36829E+02 1.46969E+04 1.08594E-09-2.89788E-10
 -1       618 4.18124E+04 7.00433E+01 2.76915E+02 1.31363E+04 1.24692E-09 8.87894E-11
 -1       619 4.19245E+04 2.81210E+02 6.24101E+02 1.46944E+04-7.41238E-11-1.56444E-09
 -1       620 4.17274E+04 8.04343E+02 1.26691E+03 1.31378E+04 7.17364E-10-6.25278E-10
 -1       621 4.34560E+02 1.29131E+05 1.57342E+03-9.17362E+03-1.25624E-10-1.00357E-09
 -1       622 1.94055E+02 1.29452E+05 1.58671E+03-1.13620E+04 2.22258E-10-9.88393E-10
 -1       623 9.96116E+01 1.29179E+05 2.26358E+03-9.17766E+03 8.52651E-12-1.80785E-09
 -1       624 1.13893E+03 1.30186E+05 4.60323E+03-1.13211E+04 1.43700E-10 1.19064E-09
 -1       625 3.16349E+03 1.28401E+05 8.71290E+03-9.21385E+03 5.16138E-11 6.35509E-10
 -1       626 7.69350E+04 2.46843E+04-1.51939E+03 4.87464E+04-9.19044E-10 5.74801E-10
 -1       627 7.52594E+04 2.67004E+04-7.22683E+02 5.01635E+04 9.01991E-10 9.03810E-11
 -1       628 7.70008E+04 2.53696E+04-3.03701E+02 4.83363E+04 9.44510E-10 1.64437E-09
 -1       629 7.53224E+04 2.70503E+04-1.44821E+02 5.01930E+04 2.39265E-09 7.35270E-10
 -1       630 7.69991E+04 2.54138E+04-6.22398E+01 4.83009E+04 1.26647E-09-1.85810E-09
 -1       631 7.53211E+04 2.70774E+04-2.39468E+01 5.01973E+04-1.06047E-09 1.02500E-09
 -1       632 7.69939E+04 2.54153E+04 2.40299E+00 4.82966E+04 9.29049E-10 3.76872E-10
 -1       633 7.53199E+04 2.70791E+04 2.95129E+01 5.01976E+04 1.54614E-10-1.37561E-11
 -1       634 7.69890E+04 2.54123E+04 7.18854E+01 4.82956E+04 2.33604E-09 7.74889E-09
 -1       635 7.53274E+04 2.70804E+04 1.61268E+02 5.01993E+04-1.69484E-09-8.75389E-11
 -1       636 7.69817E+04 2.54173E+04 3.33832E+02 4.82913E+04-4.52968E-09-1.31877E-09
 -1       637 7.54044E+04 2.71621E+04 7.43547E+02 5.01880E+04-1.14528E-09 7.39874E-09
 -1       638 7.69610E+04 2.56663E+04 1.53858E+03 4.81816E+04-1.52759E-08-6.90557E-09
 -1       639 7.61898E+04 2.84831E+04 3.65711E+03 4.98714E+04-1.36752E-08 1.68326E-08
 -1       640 7.69685E+04 2.95177E+04 7.68942E+03 4.65757E+04-8.25162E-09-6.49834E-10
 -1       641-1.10276E+04 1.59840E+03-3.68469E+03-1.17756E+01 6.65915E-06-5.35397E-09
 -1       642-1.26271E+04-1.84998E+03-2.60750E+03 1.04345E+01 1.33057E-05-6.14853E-09
 -1       643-1.16439E+04 2.51229E+02-9.50286E+02-1.28859E+01 1.22082E-05-9.92679E-09
 -1       644-1.19085E+04-2.90130E+02-5.92482E+02 1.23925E+01 1.11050E-05-6.58250E-09
 -1       645-1.17461E+04 3.88481E+01-2.29695E+02-1.37339E+01 7.35959E-06-6.54430E-09
 -1       646-1.17873E+04-4.17528E+01-1.13079E+02 1.34861E+01 3.61180E-06-1.42966E-09
 -1       647-1.17651E+04 2.89613E+00-8.74675E+00-1.39795E+01-1.57487E-06 2.99090E-09
 -1       648-1.17549E+04 1.70773E+01 8.18069E+01 1.33080E+01-6.76456E-06 5.18129E-09
 -1       649-1.17785E+04-1.99746E+01 1.93980E+02-1.35558E+01-1.27417E-05 1.22556E-08
 -1       650-1.16819E+04 1.54367E+02 4.74359E+02 1.17874E+01-1.87187E-05 1.32813E-08
 -1       651-1.18382E+04-1.34375E+02 8.26221E+02-1.24590E+01-2.44393E-05 1.83331E-08
 -1       652-1.12730E+04 9.93819E+02 2.04746E+03 8.86848E+00-3.01544E-05 1.76123E-08
 -1       653-1.21874E+04-8.59274E+02 3.25898E+03-1.06369E+01-3.23867E-05 2.18013E-08
 -1       654-8.81547E+03 6.32584E+03 8.92117E+03 3.89973E+00-3.46031E-05 1.67294E-08
 -1       655-1.42954E+04-5.46536E+03 1.26006E+04-7.49040E+00-1.73140E-05 9.08949E-09
 -1       656 4.86051E+03-1.82042E+05-2.06341E+04 4.87544E+03-1.02591E-09-1.38630E-09
 -1       657-7.05387E+03-1.89689E+05-1.53077E+04 2.10185E+04-1.38652E-09 7.68011E-10
 -1       658 1.00393E+03-1.84692E+05-9.96326E+03 4.83896E+03-9.67674E-10-4.75609E-10
 -1       659-6.94794E+03-1.89638E+05-1.51294E+04 2.10394E+04-2.62389E-10-6.24176E-09
 -1       660 4.77960E+03-1.82104E+05-2.02965E+04 4.85468E+03-5.24778E-10-3.20858E-09
 -1       661 1.13007E+05 1.56502E+04 8.96976E+03 4.42899E+04 3.42766E-09 2.48747E-10
 -1       662 1.14932E+05 2.08654E+04 5.40163E+03 4.56151E+04 6.77900E-10 1.69803E-09
 -1       663 1.14386E+05 1.69867E+04 2.10521E+03 4.42967E+04-7.67301E-10 5.07043E-10
 -1       664 1.13321E+05 1.86995E+04 1.11094E+03 4.58689E+04 4.58257E-09 4.45965E-09
 -1       665 1.14518E+05 1.71083E+04 4.91630E+02 4.43017E+04 2.23584E-09-6.39247E-10
 -1       666 1.13167E+05 1.85195E+04 2.61657E+02 4.58802E+04 1.74353E-09 1.76909E-10
 -1       667 1.14533E+05 1.71203E+04 1.52361E+02 4.43028E+04 1.35682E-09 3.82776E-09
 -1       668 1.13154E+05 1.85071E+04 1.46353E+02 4.58807E+04 1.94001E-09-1.57229E-10
 -1       669 1.14532E+05 1.71186E+04 2.13615E+02 4.43021E+04-1.81132E-10-2.38364E-09
 -1       670 1.13181E+05 1.85330E+04 4.27269E+02 4.58839E+04 1.46022E-09-6.26426E-09
 -1       671 1.14506E+05 1.70963E+04 8.36285E+02 4.42992E+04 4.08454E-09-5.16508E-09
 -1       672 1.13447E+05 1.88452E+04 1.90983E+03 4.58671E+04 7.85539E-09 2.20825E-09
 -1       673 1.14278E+05 1.68855E+04 3.62630E+03 4.42897E+04 2.13237E-09-1.64391E-09
 -1       674 1.16224E+05 2.25807E+04 9.31085E+03 4.54317E+04 7.84634E-09 2.06455E-09
 -1       675 1.11903E+05 1.45807E+04 1.54619E+04 4.42772E+04 6.13977E-09-7.74889E-10
 -1       676 1.89481E+02-1.62612E+05-1.30998E+03-2.25662E+02-2.14727E-09 3.43544E-09
 -1       677-5.45725E+02-1.63127E+05-1.96926E+03-1.01884E+03-5.77137E-09 5.39707E-09
 -1       678 2.52622E+02-1.62544E+05-2.98563E+03-2.26284E+02-1.72724E-09 4.31059E-09
 -1       679-3.33543E+03-1.64818E+05-7.04360E+03-1.01540E+03-4.56544E-09 2.55511E-09
 -1       680 2.36339E+03-1.60920E+05-1.09737E+04-2.29395E+02-2.33740E-09 6.15785E-10
 -1       716-1.44549E-01-6.89156E-02 6.46795E+00-1.33574E-04 1.15728E-09-6.28008E-10
 -1       717 7.11827E-01 5.19109E-01 1.13913E+01 3.39899E-04 2.02041E-09-5.32898E-10
 -1       718-5.67288E-01-4.50382E-01 2.11391E+01-2.06480E-04-7.90884E-10-2.06610E-09
 -1       719 3.36118E+00 3.53595E+00 4.38463E+01-3.08409E-04-2.64353E-09-4.01326E-10
 -1       720-2.79395E+00-3.08594E+00 8.36270E+01 5.15103E-04 9.96139E-11-6.50171E-10
 -1       721 1.73962E+01 2.35602E+01 1.78726E+02-1.08766E-02-2.14807E-09-8.51891E-10
 -1       722-1.46024E+01-2.04739E+01 3.34515E+02 1.03602E-02-1.25575E-09-2.01391E-09
 -1       723 9.45815E+01 1.53732E+02 7.36820E+02-1.04373E-01 1.74290E-10-4.69669E-10
 -1       724-7.99783E+01-1.33243E+02 1.33426E+03 9.39871E-02-2.89218E-09-1.44070E-09
 -1       725 5.35730E+02 9.90624E+02 3.07506E+03-8.02674E-01-4.17512E-09-7.80574E-10
 -1       726-4.55721E+02-8.57228E+02 5.29062E+03 7.08470E-01-2.36579E-09-1.10458E-09
 -1       727 3.13477E+03 6.33463E+03 1.30609E+04-5.64624E+00-2.82593E-09 4.51564E-10
 -1       728-2.67845E+03-5.47620E+03 2.07785E+04 4.93671E+00-6.64594E-10-7.96717E-10
 -1       729 1.87926E+04 4.03150E+04 5.68592E+04-3.79770E+01 1.44259E-09-4.07454E-10
 -1       730-1.61039E+04-3.48287E+04 8.03334E+04 3.30405E+01 3.66317E-09-1.31695E-09
 -1       766-3.48361E+04-1.61241E+04 8.03186E+04-2.65798E+01-1.92813E-10-6.86811E-10
 -1       767 4.03726E+04 1.88243E+04 5.68539E+04 1.48475E+00 2.80852E-09 2.28766E-10
 -1       768-5.52654E+03-2.71859E+03 2.07110E+04 5.00866E+00-1.68257E-10 2.40412E-10
 -1       769 6.70321E+03 3.29864E+03 1.30643E+04-3.43056E+01 1.88902E-09 2.08422E-09
 -1       770-1.17535E+03-6.07969E+02 4.99134E+03 9.21103E+00-3.98813E-10 9.47677E-10
 -1       771-1.01194E+06-1.93364E+05-2.80966E+04-4.32884E+05-1.48066E-09-3.27418E-10
 -1       772-1.00756E+06-1.98442E+05-1.41504E+04-4.47335E+05-8.44011E-10 1.37788E-10
 -1       773-1.01386E+06-1.85358E+05-6.03424E+03-4.36491E+05 1.04410E-09 4.67480E-10
 -1       774-1.00419E+06-1.95255E+05-2.95500E+03-4.48127E+05 1.28603E-09-1.15051E-10
 -1       775-1.01420E+06-1.85030E+05-1.38001E+03-4.36672E+05 1.01863E-10 1.08685E-09
 -1       776-1.00406E+06-1.95136E+05-6.91701E+02-4.48279E+05-8.80391E-10 5.14660E-10
 -1       777-1.01436E+06-1.84969E+05-3.80418E+02-4.36721E+05-1.78261E-10 2.50111E-12
 -1       778-1.00412E+06-1.95119E+05-2.87788E+02-4.48385E+05-4.54747E-12 4.75382E-10
 -1       779-1.01445E+06-1.84912E+05-3.59737E+02-4.36756E+05-4.24734E-10-3.16049E-11
 -1       780-1.00419E+06-1.95108E+05-6.49516E+02-4.48466E+05-9.74978E-10-1.15517E-09
 -1       781-1.01447E+06-1.84858E+05-1.28179E+03-4.36775E+05-2.10093E-10-1.60981E-10
 -1       782-1.00442E+06-1.95215E+05-2.77521E+03-4.48522E+05 1.00363E-09 1.20053E-09
 -1       783-1.01433E+06-1.85040E+05-5.64951E+03-4.36647E+05-5.84834E-10-2.11912E-10
 -1       784-1.00750E+06-1.98442E+05-1.33197E+04-4.48216E+05-1.02398E-09-4.66571E-10
 -1       785-1.01286E+06-1.92291E+05-2.64104E+04-4.33067E+05 3.76076E-10 3.01043E-10
 -1       786 1.01667E+05-3.36373E+03 1.23305E+04-4.76408E+02-9.32232E-11 1.71985E-09
 -1       787 1.06284E+05 4.28529E+03 8.05525E+03-2.77515E+03 5.76392E-11 4.88740E-10
 -1       788 1.03572E+05-3.76178E+02 3.20175E+03-4.74045E+02 7.66534E-11-7.43512E-11
 -1       789 1.04144E+05 4.67818E+02 1.82133E+03-2.77590E+03-1.25823E-10-5.54792E-11
 -1       790 1.03806E+05-4.29377E+01 8.15466E+02-4.75581E+02 5.55644E-11 2.56421E-10
 -1       791 1.03879E+05 5.07307E+01 4.42943E+02-2.77377E+03 1.86830E-10 1.57620E-09
 -1       792 1.03837E+05-5.37542E+00 2.25041E+02-4.76176E+02-1.42997E-12 7.39831E-10
 -1       793 1.03845E+05 7.57025E+00 1.51168E+02-2.77375E+03 3.52358E-10-1.59932E-09
 -1       794 1.03840E+05-2.94204E+00 1.39776E+02-4.75598E+02-3.47825E-10 5.23286E-10
 -1       795 1.03856E+05 2.25217E+01 2.15785E+02-2.77620E+03 6.30621E-10 1.58964E-09
 -1       796 1.03827E+05-1.91483E+01 3.68950E+02-4.73731E+02-4.06573E-10-1.61222E-09
 -1       797 1.03972E+05 2.05448E+02 8.06775E+02-2.78037E+03-1.93296E-10-1.67876E-09
 -1       798 1.03724E+05-1.65931E+02 1.41145E+03-4.71430E+02 1.33014E-11 1.74168E-10
 -1       799 1.04915E+05 1.88527E+03 3.54650E+03-2.77999E+03-5.77415E-10 1.42376E-09
 -1       800 1.02886E+05-1.48109E+03 5.42685E+03-4.74159E+02-2.35787E-10 1.86446E-10
 -1       801-5.99122E+03 1.37326E+05 1.89774E+04-1.05064E+05 5.61340E-09-5.41331E-09
 -1       802 1.41262E+04 1.44040E+05 2.40937E+04-6.03415E+05 1.66801E-08-2.63481E-09
 -1       803-2.18330E+03 1.37137E+05 2.89253E+04-1.04757E+05 1.02846E-08 5.28411E-09
 -1       804 3.92576E+04 1.58389E+05 6.57402E+04-6.03380E+05 1.66765E-08 7.08678E-09
 -1       805-2.80091E+04 1.23230E+05 9.61703E+04-1.05104E+05 5.21322E-09 6.26824E-09
 -1       806-8.82640E+04-2.68845E+04-7.98215E+03-4.49289E+04 5.68321E-10-4.84761E-10
 -1       807-8.79944E+04-2.52702E+04-3.79597E+03-4.77373E+04 2.27601E-10-3.71620E-09
 -1       808-8.82525E+04-2.28930E+04-1.59753E+03-4.66086E+04 2.41289E-09 7.93125E-09
 -1       809-8.71943E+04-2.38865E+04-7.72460E+02-4.80569E+04 5.54223E-10 1.08014E-09
 -1       810-8.82753E+04-2.26338E+04-3.48723E+02-4.67251E+04 1.90596E-09 7.71928E-09
 -1       811-8.71175E+04-2.38000E+04-1.72229E+02-4.80685E+04-4.88228E-10-6.77346E-10
 -1       812-8.82820E+04-2.26283E+04-8.49149E+01-4.67297E+04-2.40048E-09-7.51845E-09
 -1       813-8.71086E+04-2.37988E+04-5.27509E+01-4.80658E+04 1.03910E-10-3.66413E-10
 -1       814-8.82821E+04-2.26309E+04-4.79493E+01-4.67287E+04 2.45564E-11-1.10867E-09
 -1       815-8.71103E+04-2.38009E+04-7.41227E+01-4.80643E+04-1.09139E-11-8.88576E-10
 -1       816-8.82771E+04-2.26351E+04-1.38233E+02-4.67259E+04-9.83619E-10-9.87029E-10
 -1       817-8.71419E+04-2.38311E+04-3.00524E+02-4.80528E+04 5.76051E-10-1.37254E-09
 -1       818-8.82626E+04-2.27413E+04-6.18861E+02-4.66840E+04-2.51930E-10 1.63709E-10
 -1       819-8.74865E+04-2.43290E+04-1.46859E+03-4.78833E+04-1.20281E-10-4.49177E-10
 -1       820-8.82283E+04-2.43190E+04-3.08719E+03-4.60716E+04-2.22462E-09-6.26073E-09
 -1       821-1.21234E+05 4.17132E+03-1.52948E+04 5.81211E+02-1.15813E-09 1.74623E-10
 -1       822-1.26958E+05-5.31514E+03-9.99188E+03 3.46772E+03-7.20775E-10 1.39801E-09
 -1       823-1.23597E+05 4.66012E+02-3.97319E+03 5.62534E+02 1.40426E-09-1.27579E-09
 -1       824-1.24307E+05-5.78271E+02-2.26221E+03 3.49293E+03-2.82313E-10-1.06854E-09
 -1       825-1.23887E+05 5.33254E+01-1.01855E+03 5.55876E+02-2.74224E-09 7.85406E-10
 -1       826-1.23981E+05-6.01865E+01-5.63630E+02 3.50367E+03-4.18990E-09 8.14623E-10
 -1       827-1.23926E+05 7.44919E+00-3.07432E+02 5.51769E+02-2.33166E-09-5.27223E-11
 -1       828-1.23943E+05-8.88011E+00-2.46217E+02 3.51012E+03-3.05943E-09-2.16079E-09
 -1       829-1.23926E+05 7.04424E+00-2.87012E+02 5.49419E+02-5.71575E-10 1.96291E-10
 -1       830-1.23977E+05-5.28521E+01-5.09506E+02 3.51269E+03 2.24699E-09 1.89651E-09
 -1       831-1.23892E+05 4.81745E+01-9.11780E+02 5.49194E+02-2.04385E-09-2.13561E-10
 -1       832-1.24269E+05-5.14467E+02-2.02028E+03 3.51096E+03-4.52268E-10-1.29467E-09
 -1       833-1.23634E+05 4.16713E+02-3.54562E+03 5.51181E+02-5.13580E-10-5.46834E-10
 -1       834-1.26635E+05-4.74071E+03-8.91621E+03 3.50009E+03 5.56255E-10 2.03613E-10
 -1       835-1.21525E+05 3.72327E+03-1.36470E+04 5.60306E+02 2.70802E-10-1.37243E-09
 -1       836-1.36679E+03 1.92925E+05 1.54069E+04-1.09792E+04-1.79807E-09 1.06070E-09
 -1       837 3.60672E+03 1.97849E+05 1.18386E+04-2.38304E+04-1.62271E-09 5.83611E-10
 -1       838-3.39343E+02 1.94554E+05 1.00807E+04-1.09474E+04-2.15778E-09-1.35189E-09
 -1       839 6.05469E+03 1.99609E+05 1.73657E+04-2.38315E+04-1.56615E-09-3.60961E-09
 -1       840-2.46657E+03 1.91164E+05 2.65283E+04-1.09778E+04-1.84082E-09 1.79580E-09
 -1       841 3.46502E+04 5.02540E+03-4.00017E+02 1.29193E+04-7.89031E-06 2.95769E-06
 -1       842 3.43906E+04 4.70718E+03-2.76346E+02 1.30462E+04-1.57692E-05 5.92215E-06
 -1       843 3.45620E+04 4.88935E+03-9.22049E+01 1.29559E+04-1.27335E-05 4.78177E-06
 -1       844 3.44960E+04 4.86195E+03-5.46847E+01 1.30003E+04-9.68393E-06 3.63551E-06
 -1       845 3.45448E+04 4.87065E+03-1.44282E+01 1.29652E+04-6.93264E-06 2.60139E-06
 -1       846 3.45194E+04 4.88433E+03 4.29627E+00 1.29874E+04-4.18259E-06 1.56926E-06
 -1       847 3.45387E+04 4.86697E+03 2.70176E+01 1.29688E+04-2.61022E-06 9.78647E-07
 -1       848 3.45368E+04 4.90352E+03 7.39966E+01 1.29804E+04-1.03469E-06 3.90870E-07
 -1       849 3.45274E+04 4.85146E+03 1.38764E+02 1.29722E+04-3.26247E-07 1.21698E-07
 -1       850 3.46086E+04 5.01990E+03 3.52070E+02 1.29606E+04 3.81945E-07-1.43665E-07
 -1       851 3.44668E+04 4.75061E+03 6.08338E+02 1.29886E+04 4.19955E-07-1.59122E-07
 -1       852 3.50399E+04 5.75978E+03 1.64287E+03 1.28306E+04 4.58811E-07-1.74090E-07
 -1       853 3.40961E+04 4.11168E+03 2.62733E+03 1.31022E+04-1.00472E-07 3.94755E-08
 -1       854 3.76983E+04 1.04461E+04 7.79074E+03 1.19560E+04-6.61755E-07 2.47769E-07
 -1       855 3.18085E+04 6.50075E+01 1.12138E+04 1.38629E+04-3.29508E-07 1.24264E-07
 -1       856-9.64577E+04 1.45873E+03-1.16170E+04 3.52735E+03-3.02725E-09-4.62023E-10
 -1       857-1.00254E+05-2.80902E+03-7.09576E+03 8.41056E+03-1.34105E-09 1.35196E-09
 -1       858-9.80974E+04 1.33540E+02-2.98256E+03 3.49147E+03 9.91804E-10-1.12914E-09
 -1       859-9.84692E+04-2.01791E+02-1.60508E+03 8.45037E+03 2.41107E-09-2.74360E-09
 -1       860-9.82526E+04 1.91534E+01-7.52958E+02 3.48704E+03 2.01101E-09-2.76367E-09
 -1       861-9.83011E+04-3.20770E+00-3.96078E+02 8.45594E+03-2.12935E-10-1.67688E-11
 -1       862-9.82720E+04 7.73589E+00-2.06580E+02 3.48584E+03 6.70923E-09-1.68660E-09
 -1       863-9.82823E+04 1.14630E+01-1.36471E+02 8.45726E+03 1.31632E-08-2.35917E-09
 -1       864-9.82738E+04 6.77132E+00-1.28030E+02 3.48571E+03 3.48530E-09-2.86320E-09
 -1       865-9.82871E+04 5.62416E+00-1.92781E+02 8.45610E+03 4.27488E-09-2.11594E-09
 -1       866-9.82655E+04 1.11155E+01-3.39875E+02 3.48701E+03 5.37739E-10-1.51456E-09
 -1       867-9.83585E+04-8.22888E+01-7.09226E+02 8.45123E+03-8.09507E-10 2.04449E-09
 -1       868-9.81966E+04 6.04008E+01-1.31185E+03 3.49061E+03 3.29305E-09-4.83737E-11
 -1       869-9.91387E+04-1.22802E+03-3.11588E+03 8.41359E+03 7.37259E-10-1.87185E-10
 -1       870-9.74757E+04 6.40677E+02-5.10088E+03 3.52489E+03 1.43677E-09-1.12368E-09
 -1       871-1.71651E+03-1.54786E+04-3.95555E+03 5.30587E+04 1.28966E-09-6.90761E-10
 -1       872-5.84442E+02-1.62687E+04-1.31307E+03 6.47089E+04-1.29830E-09 8.03311E-10
 -1       873 9.84788E+00-1.59390E+04 8.53267E+02 5.29501E+04 9.90212E-10 2.52805E-09
 -1       874 1.01916E+03-1.50956E+04 3.64659E+03 6.47431E+04-5.35238E-10 2.54749E-09
 -1       875 3.07712E+03-1.66748E+04 7.84593E+03 5.30273E+04 6.53472E-10-1.28148E-09
 -1       876 1.51178E+05 2.16508E+04 1.33637E+04 5.99367E+04-2.25657E-09-5.08680E-09
 -1       877 1.53678E+05 2.90209E+04 7.94219E+03 6.22951E+04-1.92790E-09-1.26363E-09
 -1       878 1.53159E+05 2.33158E+04 3.12648E+03 6.00447E+04 2.45575E-09-2.38742E-10
 -1       879 1.51341E+05 2.59898E+04 1.63268E+03 6.26265E+04 7.01522E-09 4.96044E-10
 -1       880 1.53339E+05 2.34652E+04 7.25818E+02 6.00602E+04 7.06189E-09-3.39469E-10
 -1       881 1.51130E+05 2.57525E+04 3.79414E+02 6.26329E+04 2.62960E-09-3.11699E-09
 -1       882 1.53357E+05 2.34821E+04 2.11961E+02 6.00636E+04 4.88734E-09-1.47566E-10
 -1       883 1.51112E+05 2.57344E+04 1.86470E+02 6.26292E+04-4.98459E-09 1.47578E-09
 -1       884 1.53355E+05 2.34820E+04 2.55672E+02 6.00638E+04-1.08250E-09-5.44446E-10
 -1       885 1.51141E+05 2.57579E+04 4.96855E+02 6.26316E+04 2.81833E-09-1.44894E-09
 -1       886 1.53328E+05 2.34607E+04 9.71751E+02 6.00604E+04-3.06889E-09-4.53326E-09
 -1       887 1.51428E+05 2.60765E+04 2.19766E+03 6.26201E+04-3.88104E-09-4.73165E-10
 -1       888 1.53084E+05 2.32602E+04 4.21296E+03 6.00397E+04-1.49058E-09 6.35191E-09
 -1       889 1.54570E+05 3.01703E+04 1.07055E+04 6.21807E+04 3.06841E-09 4.43242E-09
 -1       890 1.50421E+05 2.10083E+04 1.80137E+04 5.98844E+04-6.97128E-10-7.99446E-10
 -1       891 2.41811E+02-7.16931E+04-2.87714E+03 1.60947E+04 1.57070E-09 2.40334E-10
 -1       892-6.91742E+02-7.25982E+04-2.15563E+03 3.50257E+04 7.75685E-10-2.67687E-09
 -1       893 4.94380E+01-7.20130E+04-1.75365E+03 1.60499E+04 7.13499E-10 1.55057E-09
 -1       894-1.03473E+03-7.28377E+04-2.92475E+03 3.50141E+04 1.36879E-10 9.56106E-11
 -1       895 3.90719E+02-7.14438E+04-4.42575E+03 1.61061E+04 5.46379E-10 1.89630E-10
 -1       926-2.28848E+02-4.51492E+02 1.03920E+03 1.43878E+01 1.57308E-10-4.62421E-10
 -1       927 2.59618E+02 5.22887E+02 7.49918E+02-5.71581E+01-1.35051E-09-6.33065E-10
 -1       928-5.07207E+01-7.13906E+01 2.87713E+02 1.41432E+01-2.64979E-11-3.00204E-10
 -1       929 5.13342E+01 8.55473E+01 2.15886E+02-5.69041E+01 8.42087E-10-3.43002E-10
 -1       930-2.06148E+01-1.42005E+01 1.52365E+02 1.41339E+01-1.35847E-12-1.56529E-10
 -1       931 2.56994E+01 3.66926E+01 2.23114E+02-5.68904E+01-1.03505E-09-1.14650E-10
 -1       932-2.51257E+01-2.25183E+01 3.57305E+02 1.41294E+01-1.12696E-06 1.24345E-11
 -1       933 9.41870E+01 1.58400E+02 7.60320E+02-5.68770E+01-2.25222E-06-4.40536E-12
 -1       934-8.91294E+01-1.35875E+02 1.36262E+03 1.41205E+01-1.54687E-06-6.12204E-11
 -1       935 5.39823E+02 1.00881E+03 3.13331E+03-5.68245E+01-8.40052E-07 5.87761E-11
 -1       936-4.70746E+02-8.72779E+02 5.38772E+03 1.40769E+01-3.95135E-07 5.75255E-11
 -1       937 3.18520E+03 6.44965E+03 1.32985E+04-5.66991E+01 5.15424E-08 2.12140E-10
 -1       938-2.73392E+03-5.57558E+03 2.11559E+04 1.39952E+01 7.96684E-08-3.54703E-11
 -1       939 1.91287E+04 4.10472E+04 5.78918E+04-5.85328E+01 1.02257E-07 6.91216E-11
 -1       940-1.64043E+04-3.54615E+04 8.17909E+04 1.59103E+01 4.96979E-08 4.07454E-10
 -1       956-1.36662E+05-2.51989E+03-5.87011E+03 1.67619E+04-2.09866E-09-6.24141E-10
 -1       957-1.37788E+05-8.22967E+02-2.99229E+03 1.98768E+04-4.62023E-10-3.54248E-10
 -1       958-1.37167E+05-7.76742E+01-1.34733E+03 1.66609E+04 1.67438E-09-1.98054E-09
 -1       959-1.37263E+05-1.23844E+01-6.86840E+02 1.99869E+04-1.30080E-09-1.02273E-09
 -1       960-1.37216E+05 2.09761E+01-3.33708E+02 1.66513E+04-2.97632E-09-1.10663E-09
 -1       961-1.37225E+05 2.11525E+01-1.75396E+02 1.99975E+04-4.96379E-09-6.83940E-10
 -1       962-1.37227E+05 1.98546E+01-9.73532E+01 1.66502E+04-1.98293E-09-1.53705E-09
 -1       963-1.37224E+05 2.23446E+01-7.28159E+01 1.99990E+04-2.85388E-09-6.79393E-10
 -1       964-1.37229E+05 2.08444E+01-8.18100E+01 1.66499E+04-6.95252E-10-1.48236E-09
 -1       965-1.37229E+05 2.38281E+01-1.35931E+02 1.99987E+04 2.11715E-09 2.83217E-09
 -1       966-1.37225E+05 2.38717E+01-2.52094E+02 1.66504E+04-2.16164E-09-6.79279E-10
 -1       967-1.37262E+05 9.24445E-01-5.15947E+02 1.99924E+04-1.13209E-09-1.04069E-09
 -1       968-1.37192E+05-4.81390E+01-1.01030E+03 1.66563E+04-3.33785E-10 9.00968E-11
 -1       969-1.37659E+05-6.05254E+02-2.24380E+03 1.99243E+04 1.30240E-09-1.66537E-09
 -1       970-1.36815E+05-1.87850E+03-4.40113E+03 1.67194E+04 1.02386E-09 3.26509E-10
 -1       971-1.74549E+05 4.94964E+02-7.66889E+03 4.63000E+03-2.60184E-09 6.13454E-10
 -1       972-1.76906E+05-1.59486E+03-4.56589E+03 9.32617E+03-1.73611E-09-2.92243E-09
 -1       973-1.75587E+05 5.24105E+01-1.95594E+03 4.58052E+03-2.14368E-09-2.16971E-09
 -1       974-1.75791E+05-9.21275E+01-1.04081E+03 9.38169E+03-2.93198E-10-2.67448E-10
 -1       975-1.75677E+05 1.26627E+01-5.02168E+02 4.57411E+03 1.48452E-09-1.37459E-09
 -1       976-1.75699E+05 6.86262E+00-2.78359E+02 9.39033E+03-2.58677E-09-2.66220E-09
 -1       977-1.75689E+05 8.67305E+00-1.77013E+02 4.57183E+03 3.93356E-10-2.52081E-09
 -1       978-1.75693E+05 1.34420E+01-1.75217E+02 9.39339E+03 4.77985E-09-9.05288E-10
 -1       979-1.75688E+05 1.01998E+01-2.53487E+02 4.57104E+03 1.95256E-09-2.48122E-10
 -1       980-1.75714E+05 3.04767E+00-4.75547E+02 9.39328E+03 3.64332E-09-2.20393E-09
 -1       981-1.75668E+05 2.05163E+01-9.05085E+02 4.57195E+03 4.24166E-10-2.21156E-09
 -1       982-1.75892E+05-1.75737E+02-1.90535E+03 9.38865E+03-1.86901E-10-9.25425E-10
 -1       983-1.75506E+05 9.69475E+01-3.59177E+03 4.57574E+03 1.40312E-09-2.55818E-09
 -1       984-1.77952E+05-2.93602E+03-8.39627E+03 9.34780E+03-9.97716E-10-3.12571E-09
 -1       985-1.73600E+05 9.15191E+02-1.41020E+04 4.61375E+03 1.46861E-09-1.36606E-09
 -3
    1PSTEP                         5           3           1          
  100CL  103 3.75000E-01         608                     0    3           1
 -4  DISP        4    1
 -5  D1          1    2    1    0
 -5  D2          1    2    2    0
 -5  D3          1    2    3    0
 -5  ALL         1    2    0    0    1ALL
 -1         1 6.01507E-05 0.00000E+00 0.00000E+00
 -1         2 4.93236E-05 0.00000E+00 0.00000E+00
 -1         3 3.60525E-05 0.00000E+00 0.00000E+00
 -1         4 3.24568E-05 0.00000E+00 0.00000E+00
 -1         5 3.06975E-05 0.00000E+00 0.00000E+00
 -1         8 4.82101E-05-5.58790E-07 0.00000E+00
 -1         9 3.52681E-05-2.88559E-07 0.00000E+00
 -1        10 3.67310E-05-1.15912E-06 0.00000E+00
 -1        11 3.33867E-05-1.98037E-07 0.00000E+00
 -1        12 3.00636E-05 4.66195E-07 0.00000E+00
 -1        15 3.52635E-05-5.88681E-07 0.00000E+00
 -1        16 2.88898E-05-3.56751E-07 0.00000E+00
 -1        17 2.72241E-05-2.39341E-06 0.00000E+00
 -1        18 2.74257E-05-3.88535E-07 0.00000E+00
 -1        19 2.82828E-05 9.26888E-07 0.00000E+00
 -1        20 2.85632E-05 1.10544E-05 0.00000E+00
 -1        21 2.84777E-05 2.42126E-05 0.00000E+00
 -1        23 1.03188E-05-3.81984E-05 0.00000E+00
 -1        24 1.02539E-05-2.88392E-06 0.00000E+00
 -1        25 2.55660E-05-2.52006E-07 0.00000E+00
 -1        26 2.62580E-05 1.24834E-06 0.00000E+00
 -1        27 2.54333E-05 1.05999E-05 0.00000E+00
 -1        28 2.47742E-05 2.38058E-05 0.00000E+00
 -1        31 2.96265E-08-2.91968E-06 0.00000E+00
 -1        32 0.00000E+00 0.00000E+00 0.00000E+00
 -1        33 2.39803E-05 1.72534E-06 0.00000E+00
 -1        34 2.30609E-05 1.05579E-05 0.00000E+00
 -1        35 2.18841E-05 2.36259E-05 0.00000E+00
 -1        36 5.94946E-05 1.72464E-19-1.32349E-23
 -1        37 5.88176E-05 5.62073E-19 6.61744E-24
 -1        38 5.81420E-05 7.43132E-19 0.00000E+00
 -1        39 5.74624E-05 6.33530E-19 0.00000E+00
 -1        40 5.67826E-05 3.86208E-19-2.64698E-23
 -1        41 5.61021E-05 4.00411E-19 1.32349E-23
 -1        42 5.54215E-05 5.22383E-19 0.00000E+00
 -1        43 5.47407E-05 6.54103E-19 0.00000E+00
 -1        44 5.40600E-05 5.39232E-19-2.64698E-23
 -1        45 5.33793E-05 3.86968E-19 1.32349E-23
 -1        46 5.26987E-05 2.67692E-19 0.00000E+00
 -1        47 5.20188E-05 5.86789E-19-1.32349E-23
 -1        48 5.13389E-05 8.13009E-19-2.64698E-23
 -1        49 5.06623E-05 5.91510E-19 0.00000E+00
 -1        50 4.99845E-05 1.56223E-19 0.00000E+00
 -1        51 5.92634E-05-9.36367E-08 0.00000E+00
 -1        52 5.77763E-05-1.84327E-07 0.00000E+00
 -1        53 5.58056E-05-2.74797E-07 0.00000E+00
 -1        54 5.34728E-05-3.66118E-07 0.00000E+00
 -1        55 5.09001E-05-4.59344E-07 4.96308E-24
 -1        56 5.88777E-05-6.24068E-07 0.00000E+00
 -1        57 5.76438E-05-1.50438E-06-1.32349E-23
 -1        58 5.64650E-05-2.52221E-06 5.29396E-23
 -1        59 5.52900E-05-3.57696E-06 2.64698E-23
 -1        60 5.40858E-05-4.55436E-06 0.00000E+00
 -1        61 5.28107E-05-5.34745E-06 0.00000E+00
 -1        62 5.14377E-05-5.87980E-06 5.29396E-23
 -1        63 4.99424E-05-6.08712E-06 0.00000E+00
 -1        64 4.83214E-05-5.95954E-06 0.00000E+00
 -1        65 4.65767E-05-5.50194E-06-2.64698E-23
 -1        66 4.47307E-05-4.77487E-06 0.00000E+00
 -1        67 4.28121E-05-3.85021E-06 2.64698E-23
 -1        68 4.08592E-05-2.83399E-06 0.00000E+00
 -1        69 3.89218E-05-1.83251E-06 0.00000E+00
 -1        70 3.70281E-05-9.56845E-07-2.64698E-23
 -1        86 4.85363E-05-5.17403E-08-3.30872E-24
 -1        87 4.62328E-05-9.69901E-08 0.00000E+00
 -1        88 4.30822E-05-1.44960E-07-3.30872E-24
 -1        89 3.97552E-05-1.92958E-07-1.65436E-24
 -1        90 3.69260E-05-2.39085E-07-3.30872E-24
 -1        91 4.85999E-05-1.88360E-07-1.32349E-23
 -1        92 4.78026E-05-2.36723E-07 0.00000E+00
 -1        93 4.69916E-05-2.45024E-07-2.64698E-23
 -1        94 4.62032E-05-3.23719E-07 0.00000E+00
 -1        95 4.54252E-05-4.30173E-07-2.64698E-23
 -1        96 4.46411E-05-5.22317E-07 1.32349E-23
 -1        97 4.38496E-05-5.94982E-07-2.64698E-23
 -1        98 4.30492E-05-6.43907E-07 1.32349E-23
 -1        99 4.22557E-05-7.11483E-07 0.00000E+00
 -1       100 4.14851E-05-8.39491E-07 0.00000E+00
 -1       101 4.07047E-05-9.41597E-07 0.00000E+00
 -1       102 3.98833E-05-9.32011E-07-1.32349E-23
 -1       103 3.90772E-05-9.63327E-07 0.00000E+00
 -1       104 3.83470E-05-1.18513E-06 6.61744E-24
 -1       105 3.75897E-05-1.33916E-06-1.32349E-23
 -1       106 3.58286E-05-9.28415E-20 0.00000E+00
 -1       107 3.56035E-05 2.44445E-20 0.00000E+00
 -1       108 3.53785E-05 3.00297E-19 0.00000E+00
 -1       109 3.51532E-05 7.18440E-19-3.30872E-24
 -1       110 3.49280E-05 7.84163E-19 0.00000E+00
 -1       111 3.47027E-05 5.91593E-19-3.30872E-24
 -1       112 3.44774E-05 2.04883E-19 0.00000E+00
 -1       113 3.42520E-05-3.38143E-20 0.00000E+00
 -1       114 3.40267E-05-1.22671E-19 0.00000E+00
 -1       115 3.38015E-05 3.11736E-19 0.00000E+00
 -1       116 3.35762E-05 8.53485E-19 0.00000E+00
 -1       117 3.33511E-05 1.16460E-18-3.30872E-24
 -1       118 3.31260E-05 1.28079E-18 6.61744E-24
 -1       119 3.29017E-05 7.98111E-19-3.30872E-24
 -1       120 3.26772E-05 2.24335E-19 0.00000E+00
 -1       121 3.61955E-05-1.93101E-07 6.61744E-24
 -1       122 3.65037E-05-3.86173E-07 0.00000E+00
 -1       123 3.68443E-05-5.79267E-07 0.00000E+00
 -1       124 3.70842E-05-7.72396E-07-3.30872E-24
 -1       125 3.70905E-05-9.65498E-07 0.00000E+00
 -1       141 3.23454E-05-2.46351E-19 0.00000E+00
 -1       142 3.22346E-05-6.31397E-19 0.00000E+00
 -1       143 3.21237E-05-8.24054E-19 0.00000E+00
 -1       144 3.20130E-05-7.83657E-19 0.00000E+00
 -1       145 3.19022E-05-7.89707E-19 3.30872E-24
 -1       146 3.17915E-05-5.97232E-19 0.00000E+00
 -1       147 3.16807E-05-3.14357E-19-3.30872E-24
 -1       148 3.15700E-05-4.32610E-20 0.00000E+00
 -1       149 3.14593E-05 1.95574E-19 0.00000E+00
 -1       150 3.13486E-05 3.08734E-19 1.65436E-24
 -1       151 3.12380E-05 2.70314E-19 0.00000E+00
 -1       152 3.11277E-05 9.19515E-22-1.65436E-24
 -1       153 3.10174E-05-1.76242E-19-3.30872E-24
 -1       154 3.09086E-05-1.62301E-19 0.00000E+00
 -1       155 3.07992E-05-2.13579E-20 0.00000E+00
 -1       156 3.26127E-05-3.52416E-08 3.30872E-24
 -1       157 3.30792E-05-6.70260E-08 0.00000E+00
 -1       158 3.36143E-05-9.91036E-08 0.00000E+00
 -1       159 3.39759E-05-1.31085E-07-8.27181E-25
 -1       160 3.39659E-05-1.62761E-07-1.65436E-24
 -1       161 3.23486E-05-8.38485E-08 0.00000E+00
 -1       162 3.22687E-05-2.43118E-07 0.00000E+00
 -1       163 3.21794E-05-3.77312E-07 0.00000E+00
 -1       164 3.20431E-05-3.86052E-07-1.65436E-24
 -1       165 3.18632E-05-2.78481E-07 0.00000E+00
 -1       166 3.16433E-05-6.43903E-08-1.65436E-24
 -1       167 3.14232E-05 1.50120E-07 3.30872E-24
 -1       168 3.12428E-05 2.58950E-07 0.00000E+00
 -1       169 3.11065E-05 2.50269E-07 3.30872E-24
 -1       170 3.10185E-05 1.12924E-07 0.00000E+00
 -1       171 3.09403E-05-5.05972E-08 3.30872E-24
 -1       172 3.08338E-05-1.37556E-07 0.00000E+00
 -1       173 3.06852E-05-1.12546E-07-3.30872E-24
 -1       174 3.04831E-05 5.98601E-08 1.65436E-24
 -1       175 3.02610E-05 2.83565E-07 0.00000E+00
 -1       191 3.06774E-05 7.76774E-08 0.00000E+00
 -1       192 3.06226E-05 1.55408E-07 1.65436E-24
 -1       193 3.05332E-05 2.33148E-07 0.00000E+00
 -1       194 3.04098E-05 3.10881E-07 0.00000E+00
 -1       195 3.02530E-05 3.88585E-07 0.00000E+00
 -1       266 4.60523E-05-5.71998E-07 3.30872E-24
 -1       267 4.38946E-05-5.75973E-07 0.00000E+00
 -1       268 4.17368E-05-5.80547E-07 8.27181E-25
 -1       269 3.95790E-05-5.83374E-07-2.06795E-25
 -1       270 3.74213E-05-5.86167E-07-2.06795E-25
 -1       271 4.64680E-05 9.80189E-07-2.64698E-23
 -1       272 4.48545E-05 2.07158E-06-1.32349E-23
 -1       273 4.33906E-05 2.76845E-06 0.00000E+00
 -1       274 4.20532E-05 3.11276E-06 0.00000E+00
 -1       275 4.08290E-05 3.15444E-06 2.64698E-23
 -1       276 3.96980E-05 2.94501E-06 0.00000E+00
 -1       277 3.86404E-05 2.53921E-06 0.00000E+00
 -1       278 3.76350E-05 1.99379E-06 0.00000E+00
 -1       279 3.66601E-05 1.36709E-06 0.00000E+00
 -1       280 3.56935E-05 7.18413E-07 1.32349E-23
 -1       281 3.47130E-05 1.07224E-07-2.64698E-23
 -1       282 3.36972E-05-4.07287E-07 1.32349E-23
 -1       283 3.26238E-05-7.67253E-07 0.00000E+00
 -1       284 3.14758E-05-9.15063E-07-1.32349E-23
 -1       285 3.02277E-05-7.98771E-07 0.00000E+00
 -1       286 3.53480E-05 5.03003E-07-1.65436E-24
 -1       287 3.54399E-05 7.94643E-07 4.13590E-25
 -1       288 3.55310E-05 7.75802E-07 1.65436E-24
 -1       289 3.56244E-05 6.34505E-07 8.27181E-25
 -1       290 3.57179E-05 4.17371E-07 3.30872E-24
 -1       291 3.58118E-05 1.70695E-07 1.65436E-24
 -1       292 3.59057E-05-9.37498E-08 0.00000E+00
 -1       293 3.59997E-05-3.64274E-07-1.65436E-24
 -1       294 3.60937E-05-6.36294E-07-3.30872E-24
 -1       295 3.61876E-05-9.05234E-07 1.65436E-24
 -1       296 3.62815E-05-1.16292E-06 3.30872E-24
 -1       297 3.63749E-05-1.40113E-06 0.00000E+00
 -1       298 3.64683E-05-1.58886E-06-1.65436E-24
 -1       299 3.65594E-05-1.69492E-06-4.13590E-25
 -1       300 3.66512E-05-1.59382E-06-1.65436E-24
 -1       301 3.42027E-05-3.03112E-07 3.30872E-24
 -1       302 3.31286E-05-3.09601E-07-8.27181E-25
 -1       303 3.20530E-05-3.15248E-07 0.00000E+00
 -1       304 3.09831E-05-3.21815E-07 0.00000E+00
 -1       305 2.99263E-05-3.31001E-07 0.00000E+00
 -1       306 3.44949E-05 3.35679E-07 0.00000E+00
 -1       307 3.38679E-05 5.33612E-07 0.00000E+00
 -1       308 3.33749E-05 3.75397E-07 0.00000E+00
 -1       309 3.29883E-05-7.21426E-08 0.00000E+00
 -1       310 3.26838E-05-7.39344E-07 1.32349E-23
 -1       311 3.24349E-05-1.55600E-06 6.61744E-24
 -1       312 3.22152E-05-2.45098E-06 1.32349E-23
 -1       313 3.19980E-05-3.35288E-06-6.61744E-24
 -1       314 3.17567E-05-4.19016E-06-1.32349E-23
 -1       315 3.14646E-05-4.89165E-06-6.61744E-24
 -1       316 3.10954E-05-5.38695E-06 1.32349E-23
 -1       317 3.06233E-05-5.60663E-06 0.00000E+00
 -1       318 3.00227E-05-5.48283E-06 0.00000E+00
 -1       319 2.92706E-05-4.94871E-06 6.61744E-24
 -1       320 2.83401E-05-3.94132E-06 0.00000E+00
 -1       321 3.65218E-05-5.51916E-07 6.61744E-24
 -1       322 3.63123E-05 6.19127E-08 0.00000E+00
 -1       323 3.61030E-05 3.25308E-07 6.61744E-24
 -1       324 3.58936E-05-1.15423E-07-3.30872E-24
 -1       325 3.56841E-05-8.01001E-07 0.00000E+00
 -1       326 3.54747E-05-1.26981E-06 0.00000E+00
 -1       327 3.52654E-05-1.31052E-06 0.00000E+00
 -1       328 3.50559E-05-7.15904E-07 0.00000E+00
 -1       329 3.48464E-05-1.22660E-08 0.00000E+00
 -1       330 3.46371E-05 2.73060E-07-3.30872E-24
 -1       331 3.44278E-05 9.57094E-08 6.61744E-24
 -1       332 3.42185E-05-5.84264E-07 3.30872E-24
 -1       333 3.40092E-05-1.22642E-06 0.00000E+00
 -1       334 3.38007E-05-1.29065E-06 0.00000E+00
 -1       335 3.35920E-05-9.04060E-07 0.00000E+00
 -1       336 3.58841E-05-1.36496E-06 6.61744E-24
 -1       337 3.46259E-05-1.57115E-06 3.30872E-24
 -1       338 3.30429E-05-1.77767E-06 6.61744E-24
 -1       339 3.12228E-05-1.98396E-06 0.00000E+00
 -1       340 2.92537E-05-2.19061E-06 0.00000E+00
 -1       356 3.31815E-05 4.04685E-07 0.00000E+00
 -1       357 3.29729E-05 4.82338E-07 0.00000E+00
 -1       358 3.27645E-05 1.40321E-07-6.61744E-24
 -1       359 3.25553E-05-5.11930E-07 3.30872E-24
 -1       360 3.23461E-05-1.00707E-06 0.00000E+00
 -1       361 3.21369E-05-8.79277E-07 0.00000E+00
 -1       362 3.19275E-05-3.81905E-07 6.61744E-24
 -1       363 3.17182E-05 2.28153E-07-3.30872E-24
 -1       364 3.15089E-05 5.63929E-07 0.00000E+00
 -1       365 3.12997E-05 2.41053E-07 0.00000E+00
 -1       366 3.10905E-05-3.64444E-07 0.00000E+00
 -1       367 3.08817E-05-8.73853E-07 3.30872E-24
 -1       368 3.06731E-05-1.01920E-06 0.00000E+00
 -1       369 3.04666E-05-5.36001E-07 0.00000E+00
 -1       370 3.02593E-05 1.13668E-07 0.00000E+00
 -1       371 3.23943E-05-2.33586E-07 0.00000E+00
 -1       372 3.11464E-05-2.65700E-07 8.27181E-25
 -1       373 2.98413E-05-2.98098E-07 0.00000E+00
 -1       374 2.86774E-05-3.29222E-07 0.00000E+00
 -1       375 2.78180E-05-3.60168E-07 2.06795E-25
 -1       406 2.98349E-05 5.43382E-07-3.30872E-24
 -1       407 2.95763E-05 6.20599E-07 0.00000E+00
 -1       408 2.92896E-05 6.97772E-07 3.30872E-24
 -1       409 2.89770E-05 7.74778E-07 1.65436E-24
 -1       410 2.86407E-05 8.51434E-07-3.30872E-24
 -1       501 2.87956E-05 2.78426E-06 0.00000E+00
 -1       502 2.86924E-05 1.01763E-05 0.00000E+00
 -1       503 2.85814E-05 1.85721E-05 3.30872E-24
 -1       504 2.84885E-05 2.47218E-05 0.00000E+00
 -1       505 2.84107E-05 2.65922E-05-3.30872E-24
 -1       506 2.83256E-05 2.21648E-05 1.65436E-24
 -1       507 2.82090E-05 1.27964E-05 1.65436E-24
 -1       508 2.80542E-05-1.39325E-07 8.27181E-25
 -1       509 2.78965E-05-1.33237E-05 1.65436E-24
 -1       510 2.77733E-05-2.34374E-05-8.27181E-25
 -1       511 2.76837E-05-2.88382E-05-1.65436E-24
 -1       512 2.76077E-05-2.78999E-05 8.27181E-25
 -1       513 2.75190E-05-2.23926E-05 3.30872E-24
 -1       514 2.74115E-05-1.41022E-05 1.65436E-24
 -1       515 2.73078E-05-6.33440E-06 0.00000E+00
 -1       521 2.75468E-05 4.68421E-08-2.64698E-23
 -1       522 2.63144E-05 6.67722E-08 1.32349E-23
 -1       523 2.52010E-05-2.27676E-07 2.64698E-23
 -1       524 2.41780E-05-7.76525E-07 0.00000E+00
 -1       525 2.32249E-05-1.51359E-06 0.00000E+00
 -1       526 2.23165E-05-2.37200E-06 1.32349E-23
 -1       527 2.14277E-05-3.28321E-06-2.64698E-23
 -1       528 2.05326E-05-4.17827E-06 0.00000E+00
 -1       529 1.96058E-05-4.98836E-06-2.64698E-23
 -1       530 1.86218E-05-5.64564E-06-1.32349E-23
 -1       531 1.75560E-05-6.08410E-06 0.00000E+00
 -1       532 1.63851E-05-6.24004E-06 0.00000E+00
 -1       533 1.50860E-05-6.05330E-06 0.00000E+00
 -1       534 1.36415E-05-5.46620E-06 1.32349E-23
 -1       535 1.20265E-05-4.42891E-06 2.64698E-23
 -1       536 2.72297E-05-6.09493E-07 1.65436E-24
 -1       537 2.72411E-05 7.43385E-07 0.00000E+00
 -1       538 2.72529E-05 1.71015E-06-4.13590E-25
 -1       539 2.72657E-05 2.33596E-06-1.03398E-25
 -1       540 2.72787E-05 2.66581E-06 0.00000E+00
 -1       541 2.72920E-05 2.74471E-06 0.00000E+00
 -1       542 2.73053E-05 2.61761E-06 2.06795E-25
 -1       543 2.73186E-05 2.32943E-06-2.06795E-25
 -1       544 2.73319E-05 1.92509E-06-4.13590E-25
 -1       545 2.73452E-05 1.44945E-06-2.06795E-25
 -1       546 2.73585E-05 9.47398E-07 4.13590E-25
 -1       547 2.73718E-05 4.63802E-07 2.06795E-25
 -1       548 2.73851E-05 4.35283E-08 0.00000E+00
 -1       549 2.73985E-05-2.68547E-07 2.06795E-25
 -1       550 2.74119E-05-4.27504E-07 0.00000E+00
 -1       551 2.47036E-05-2.47174E-06 0.00000E+00
 -1       552 2.18767E-05-2.54940E-06 4.13590E-25
 -1       553 1.88798E-05-2.62770E-06 0.00000E+00
 -1       554 1.58516E-05-2.70740E-06 0.00000E+00
 -1       555 1.29307E-05-2.78917E-06 0.00000E+00
 -1       556 2.65236E-05-6.82977E-07 0.00000E+00
 -1       557 2.59762E-05 6.29531E-07 0.00000E+00
 -1       558 2.55651E-05 1.58150E-06 0.00000E+00
 -1       559 2.52745E-05 2.21365E-06 0.00000E+00
 -1       560 2.50889E-05 2.56664E-06 0.00000E+00
 -1       561 2.49928E-05 2.68140E-06 0.00000E+00
 -1       562 2.49708E-05 2.59890E-06 0.00000E+00
 -1       563 2.50073E-05 2.36015E-06 1.65436E-24
 -1       564 2.50871E-05 2.00617E-06 0.00000E+00
 -1       565 2.51946E-05 1.57800E-06-8.27181E-25
 -1       566 2.53146E-05 1.11666E-06-1.65436E-24
 -1       567 2.54317E-05 6.63227E-07 8.27181E-25
 -1       568 2.55305E-05 2.58725E-07 1.65436E-24
 -1       569 2.55957E-05-5.58444E-08 4.13590E-25
 -1       570 2.56121E-05-2.39504E-07-8.27181E-25
 -1       571 2.74775E-05-2.82226E-07 2.06795E-25
 -1       572 2.75306E-05-2.10198E-07 0.00000E+00
 -1       573 2.75841E-05-1.66094E-07 0.00000E+00
 -1       574 2.76378E-05-1.43236E-07-4.13590E-25
 -1       575 2.76915E-05-1.34919E-07 1.65436E-24
 -1       576 2.77453E-05-1.34394E-07 0.00000E+00
 -1       577 2.77991E-05-1.34909E-07-1.65436E-24
 -1       578 2.78529E-05-1.29708E-07-8.27181E-25
 -1       579 2.79068E-05-1.12031E-07 0.00000E+00
 -1       580 2.79606E-05-7.51209E-08 0.00000E+00
 -1       581 2.80144E-05-1.22210E-08 3.30872E-24
 -1       582 2.80682E-05 8.34194E-08 3.30872E-24
 -1       583 2.81220E-05 2.18544E-07 0.00000E+00
 -1       584 2.81757E-05 3.99826E-07 0.00000E+00
 -1       585 2.82294E-05 6.33903E-07-3.30872E-24
 -1       586 2.71569E-05-3.65241E-07 0.00000E+00
 -1       587 2.68463E-05-3.41939E-07 0.00000E+00
 -1       588 2.65127E-05-3.18698E-07-8.27181E-25
 -1       589 2.61754E-05-2.95662E-07 1.03398E-25
 -1       590 2.58535E-05-2.73049E-07 0.00000E+00
 -1       591 2.73466E-05-2.61961E-07 0.00000E+00
 -1       592 2.72738E-05-1.59581E-07 0.00000E+00
 -1       593 2.72078E-05-7.64422E-08 0.00000E+00
 -1       594 2.71471E-05-8.15080E-09-4.13590E-25
 -1       595 2.70903E-05 4.97077E-08 8.27181E-25
 -1       596 2.70357E-05 1.01510E-07 0.00000E+00
 -1       597 2.69816E-05 1.51629E-07 0.00000E+00
 -1       598 2.69266E-05 2.04433E-07 0.00000E+00
 -1       599 2.68690E-05 2.64288E-07-8.27181E-25
 -1       600 2.68070E-05 3.35561E-07 0.00000E+00
 -1       601 2.67392E-05 4.22618E-07-4.13590E-25
 -1       602 2.66638E-05 5.29831E-07-2.06795E-25
 -1       603 2.65793E-05 6.61572E-07-4.13590E-25
 -1       604 2.64842E-05 8.22241E-07 5.16988E-26
 -1       605 2.63770E-05 1.01623E-06-2.06795E-25
 -1       606 2.83024E-05 1.32178E-06 0.00000E+00
 -1       607 2.83205E-05 1.76281E-06 0.00000E+00
 -1       608 2.83382E-05 2.24725E-06 0.00000E+00
 -1       609 2.83557E-05 2.77198E-06-8.27181E-25
 -1       610 2.83732E-05 3.33386E-06 0.00000E+00
 -1       611 2.83906E-05 3.92971E-06 8.27181E-25
 -1       612 2.84080E-05 4.55634E-06 0.00000E+00
 -1       613 2.84253E-05 5.21057E-06 8.27181E-25
 -1       614 2.84427E-05 5.88919E-06 0.00000E+00
 -1       615 2.84600E-05 6.58901E-06 0.00000E+00
 -1       616 2.84773E-05 7.30685E-06 8.27181E-25
 -1       617 2.84946E-05 8.03950E-06 0.00000E+00
 -1       618 2.85118E-05 8.78377E-06 0.00000E+00
 -1       619 2.85291E-05 9.53648E-06 0.00000E+00
 -1       620 2.85462E-05 1.02944E-05 0.00000E+00
 -1       621 2.79169E-05 9.80748E-07 0.00000E+00
 -1       622 2.75562E-05 1.03479E-06-8.27181E-25
 -1       623 2.72055E-05 1.08881E-06 0.00000E+00
 -1       624 2.68693E-05 1.14268E-06 8.27181E-25
 -1       625 2.65520E-05 1.19629E-06 8.27181E-25
 -1       626 2.81749E-05 1.34637E-06 0.00000E+00
 -1       627 2.80485E-05 1.81409E-06 0.00000E+00
 -1       628 2.79057E-05 2.32544E-06 0.00000E+00
 -1       629 2.77483E-05 2.87531E-06 0.00000E+00
 -1       630 2.75784E-05 3.45861E-06 0.00000E+00
 -1       631 2.73978E-05 4.07016E-06 8.27181E-25
 -1       632 2.72086E-05 4.70478E-06 3.30872E-24
 -1       633 2.70127E-05 5.35730E-06 0.00000E+00
 -1       634 2.68120E-05 6.02254E-06-1.65436E-24
 -1       635 2.66084E-05 6.69531E-06 0.00000E+00
 -1       636 2.64040E-05 7.37045E-06 0.00000E+00
 -1       637 2.62006E-05 8.04277E-06 4.13590E-25
 -1       638 2.60001E-05 8.70706E-06 8.27181E-25
 -1       639 2.58044E-05 9.35817E-06 2.06795E-25
 -1       640 2.56152E-05 9.99087E-06-8.27181E-25
 -1       641 2.85589E-05 1.18197E-05 0.00000E+00
 -1       642 2.85539E-05 1.26232E-05 6.46235E-27
 -1       643 2.85489E-05 1.34590E-05 0.00000E+00
 -1       644 2.85438E-05 1.43214E-05 0.00000E+00
 -1       645 2.85386E-05 1.52037E-05 0.00000E+00
 -1       646 2.85334E-05 1.60989E-05 5.16988E-26
 -1       647 2.85282E-05 1.69996E-05 0.00000E+00
 -1       648 2.85230E-05 1.78984E-05 1.03398E-25
 -1       649 2.85178E-05 1.87879E-05 2.06795E-25
 -1       650 2.85126E-05 1.96609E-05-1.03398E-25
 -1       651 2.85074E-05 2.05107E-05 0.00000E+00
 -1       652 2.85021E-05 2.13307E-05-1.03398E-25
 -1       653 2.84968E-05 2.21155E-05 0.00000E+00
 -1       654 2.84911E-05 2.28598E-05 4.13590E-25
 -1       655 2.84856E-05 2.35600E-05 8.27181E-25
 -1       656 2.78949E-05 1.09810E-05-8.27181E-25
 -1       657 2.73405E-05 1.09040E-05 8.27181E-25
 -1       658 2.68586E-05 1.08271E-05 0.00000E+00
 -1       659 2.64077E-05 1.07503E-05 8.27181E-25
 -1       660 2.59465E-05 1.06733E-05-8.27181E-25
 -1       661 2.83301E-05 1.18363E-05 8.27181E-25
 -1       662 2.80896E-05 1.26438E-05 0.00000E+00
 -1       663 2.78415E-05 1.34712E-05 0.00000E+00
 -1       664 2.75881E-05 1.43138E-05 0.00000E+00
 -1       665 2.73308E-05 1.51665E-05-1.65436E-24
 -1       666 2.70717E-05 1.60244E-05 0.00000E+00
 -1       667 2.68124E-05 1.68826E-05 1.65436E-24
 -1       668 2.65549E-05 1.77362E-05 8.27181E-25
 -1       669 2.63010E-05 1.85803E-05 1.65436E-24
 -1       670 2.60525E-05 1.94099E-05 8.27181E-25
 -1       671 2.58113E-05 2.02201E-05 1.65436E-24
 -1       672 2.55791E-05 2.10060E-05 0.00000E+00
 -1       673 2.53579E-05 2.17626E-05-1.65436E-24
 -1       674 2.51490E-05 2.24849E-05 0.00000E+00
 -1       675 2.49549E-05 2.31679E-05-4.13590E-25
 -1       676 2.78489E-05 2.41443E-05 0.00000E+00
 -1       677 2.72221E-05 2.40760E-05 0.00000E+00
 -1       678 2.65993E-05 2.40077E-05 0.00000E+00
 -1       679 2.59824E-05 2.39397E-05 8.27181E-25
 -1       680 2.53734E-05 2.38717E-05 1.65436E-24
 -1       716 1.03165E-05-3.59913E-05 4.03897E-28
 -1       717 1.03141E-05-3.37841E-05 0.00000E+00
 -1       718 1.03118E-05-3.15770E-05 1.61559E-27
 -1       719 1.03095E-05-2.93698E-05 0.00000E+00
 -1       720 1.03071E-05-2.71626E-05 6.46235E-27
 -1       721 1.03048E-05-2.49555E-05 0.00000E+00
 -1       722 1.03024E-05-2.27483E-05 2.58494E-26
 -1       723 1.03000E-05-2.05412E-05 2.58494E-26
 -1       724 1.02976E-05-1.83340E-05 0.00000E+00
 -1       725 1.02951E-05-1.61268E-05 0.00000E+00
 -1       726 1.02925E-05-1.39197E-05 0.00000E+00
 -1       727 1.02893E-05-1.17125E-05 4.13590E-25
 -1       728 1.02860E-05-9.50535E-06 1.65436E-24
 -1       729 1.02798E-05-7.29819E-06 0.00000E+00
 -1       730 1.02746E-05-5.09103E-06-6.61744E-24
 -1       766 8.12319E-06-2.90436E-06 6.61744E-24
 -1       767 6.14520E-06-2.90913E-06 1.65436E-24
 -1       768 4.33349E-06-2.91458E-06 0.00000E+00
 -1       769 2.70159E-06-2.91681E-06 0.00000E+00
 -1       770 1.26261E-06-2.91863E-06 0.00000E+00
 -1       771 9.02116E-06-1.11244E-06 0.00000E+00
 -1       772 7.91806E-06 2.98643E-07 0.00000E+00
 -1       773 6.93818E-06 1.38009E-06 0.00000E+00
 -1       774 6.06985E-06 2.16347E-06-1.32349E-23
 -1       775 5.30148E-06 2.68045E-06 2.64698E-23
 -1       776 4.62111E-06 2.96301E-06-6.61744E-24
 -1       777 4.01667E-06 3.04319E-06 0.00000E+00
 -1       778 3.47608E-06 2.95322E-06 6.61744E-24
 -1       779 2.98721E-06 2.72540E-06-1.32349E-23
 -1       780 2.53789E-06 2.39212E-06 0.00000E+00
 -1       781 2.11598E-06 1.98585E-06 0.00000E+00
 -1       782 1.70933E-06 1.53912E-06 0.00000E+00
 -1       783 1.30583E-06 1.08449E-06-1.32349E-23
 -1       784 8.93669E-07 6.54566E-07 0.00000E+00
 -1       785 4.60911E-07 2.81938E-07 1.32349E-23
 -1       786 2.56068E-05-9.28090E-08 0.00000E+00
 -1       787 2.56500E-05 2.89466E-08 0.00000E+00
 -1       788 2.56931E-05 1.19427E-07-8.27181E-25
 -1       789 2.57365E-05 1.84802E-07 8.27181E-25
 -1       790 2.57800E-05 2.31225E-07 1.65436E-24
 -1       791 2.58236E-05 2.64844E-07 8.27181E-25
 -1       792 2.58672E-05 2.91799E-07-1.65436E-24
 -1       793 2.59109E-05 3.18226E-07 8.27181E-25
 -1       794 2.59545E-05 3.50262E-07 0.00000E+00
 -1       795 2.59981E-05 3.94046E-07-8.27181E-25
 -1       796 2.60417E-05 4.55722E-07-1.65436E-24
 -1       797 2.60853E-05 5.41446E-07-8.27181E-25
 -1       798 2.61289E-05 6.57382E-07 0.00000E+00
 -1       799 2.61722E-05 8.09709E-07 4.13590E-25
 -1       800 2.62157E-05 1.00463E-06 0.00000E+00
 -1       801 2.34590E-05-2.00432E-07 0.00000E+00
 -1       802 1.87142E-05-1.54258E-07 0.00000E+00
 -1       803 1.26631E-05-1.14510E-07 0.00000E+00
 -1       804 6.63876E-06-7.71223E-08 0.00000E+00
 -1       805 1.97375E-06-3.30853E-08 0.00000E+00
 -1       806 2.54631E-05-1.12756E-07-1.65436E-24
 -1       807 2.53658E-05 7.17452E-09 0.00000E+00
 -1       808 2.52739E-05 1.11630E-07 0.00000E+00
 -1       809 2.51862E-05 2.04290E-07-8.27181E-25
 -1       810 2.51015E-05 2.88821E-07 0.00000E+00
 -1       811 2.50184E-05 3.68878E-07 0.00000E+00
 -1       812 2.49356E-05 4.48110E-07 0.00000E+00
 -1       813 2.48518E-05 5.30164E-07 4.13590E-25
 -1       814 2.47655E-05 6.18689E-07-8.27181E-25
 -1       815 2.46755E-05 7.17331E-07 0.00000E+00
 -1       816 2.45802E-05 8.29734E-07 8.27181E-25
 -1       817 2.44785E-05 9.59544E-07-4.13590E-25
 -1       818 2.43689E-05 1.11040E-06 1.24077E-24
 -1       819 2.42501E-05 1.28594E-06-6.20385E-25
 -1       820 2.41209E-05 1.48976E-06 8.27181E-25
 -1       821 2.62095E-05 1.55923E-06 4.13590E-25
 -1       822 2.61580E-05 1.94309E-06 0.00000E+00
 -1       823 2.61066E-05 2.39224E-06-1.65436E-24
 -1       824 2.60547E-05 2.89888E-06-8.27181E-25
 -1       825 2.60027E-05 3.45520E-06 1.65436E-24
 -1       826 2.59506E-05 4.05337E-06 8.27181E-25
 -1       827 2.58984E-05 4.68551E-06-1.65436E-24
 -1       828 2.58463E-05 5.34375E-06 8.27181E-25
 -1       829 2.57941E-05 6.02019E-06-1.65436E-24
 -1       830 2.57419E-05 6.70689E-06 0.00000E+00
 -1       831 2.56897E-05 7.39597E-06-1.65436E-24
 -1       832 2.56376E-05 8.07949E-06 8.27181E-25
 -1       833 2.55856E-05 8.74953E-06 0.00000E+00
 -1       834 2.55340E-05 9.39820E-06-4.13590E-25
 -1       835 2.54823E-05 1.00176E-05 0.00000E+00
 -1       836 2.59327E-05 1.32675E-06 0.00000E+00
 -1       837 2.55466E-05 1.40771E-06 8.27181E-25
 -1       838 2.51289E-05 1.48857E-06 0.00000E+00
 -1       839 2.47090E-05 1.56913E-06 8.27181E-25
 -1       840 2.43164E-05 1.64967E-06 0.00000E+00
 -1       841 2.61543E-05 1.57517E-06-4.13590E-25
 -1       842 2.60133E-05 2.00120E-06 0.00000E+00
 -1       843 2.58436E-05 2.50375E-06-4.13590E-25
 -1       844 2.56536E-05 3.06018E-06-2.06795E-25
 -1       845 2.54482E-05 3.65756E-06 0.00000E+00
 -1       846 2.52322E-05 4.28300E-06-2.06795E-25
 -1       847 2.50087E-05 4.92858E-06 0.00000E+00
 -1       848 2.47806E-05 5.58647E-06 2.06795E-25
 -1       849 2.45501E-05 6.25089E-06-4.13590E-25
 -1       850 2.43192E-05 6.91609E-06 2.06795E-25
 -1       851 2.40900E-05 7.57656E-06 0.00000E+00
 -1       852 2.38647E-05 8.22672E-06 0.00000E+00
 -1       853 2.36460E-05 8.85924E-06 4.13590E-25
 -1       854 2.34363E-05 9.46659E-06 5.16988E-26
 -1       855 2.32406E-05 1.00371E-05 0.00000E+00
 -1       856 2.53947E-05 1.12095E-05-2.06795E-25
 -1       857 2.53537E-05 1.19012E-05 0.00000E+00
 -1       858 2.53127E-05 1.26636E-05 0.00000E+00
 -1       859 2.52713E-05 1.34854E-05 4.13590E-25
 -1       860 2.52298E-05 1.43550E-05-8.27181E-25
 -1       861 2.51882E-05 1.52611E-05-4.13590E-25
 -1       862 2.51466E-05 1.61922E-05 1.65436E-24
 -1       863 2.51050E-05 1.71368E-05 8.27181E-25
 -1       864 2.50633E-05 1.80834E-05 0.00000E+00
 -1       865 2.50217E-05 1.90207E-05-8.27181E-25
 -1       866 2.49801E-05 1.99371E-05 0.00000E+00
 -1       867 2.49385E-05 2.08212E-05 8.27181E-25
 -1       868 2.48970E-05 2.16616E-05-1.65436E-24
 -1       869 2.48557E-05 2.24467E-05-8.27181E-25
 -1       870 2.48145E-05 2.31652E-05 8.27181E-25
 -1       871 2.49684E-05 1.05941E-05 0.00000E+00
 -1       872 2.45637E-05 1.05876E-05 0.00000E+00
 -1       873 2.41952E-05 1.05808E-05 0.00000E+00
 -1       874 2.38383E-05 1.05739E-05 2.06795E-25
 -1       875 2.34683E-05 1.05666E-05-4.13590E-25
 -1       876 2.52801E-05 1.12235E-05 0.00000E+00
 -1       877 2.51064E-05 1.19102E-05 8.27181E-25
 -1       878 2.49123E-05 1.26511E-05 0.00000E+00
 -1       879 2.47011E-05 1.34384E-05-8.27181E-25
 -1       880 2.44756E-05 1.42641E-05 1.65436E-24
 -1       881 2.42387E-05 1.51202E-05-8.27181E-25
 -1       882 2.39934E-05 1.59990E-05 0.00000E+00
 -1       883 2.37425E-05 1.68926E-05-8.27181E-25
 -1       884 2.34890E-05 1.77930E-05 1.65436E-24
 -1       885 2.32358E-05 1.86924E-05 0.00000E+00
 -1       886 2.29860E-05 1.95830E-05-1.65436E-24
 -1       887 2.27423E-05 2.04569E-05 0.00000E+00
 -1       888 2.25078E-05 2.13062E-05 1.65436E-24
 -1       889 2.22850E-05 2.21228E-05 0.00000E+00
 -1       890 2.20774E-05 2.28992E-05 8.27181E-25
 -1       891 2.42530E-05 2.37760E-05 8.27181E-25
 -1       892 2.38050E-05 2.37458E-05-4.13590E-25
 -1       893 2.33874E-05 2.37156E-05 0.00000E+00
 -1       894 2.29568E-05 2.36855E-05 0.00000E+00
 -1       895 2.24701E-05 2.36553E-05 4.13590E-25
 -1       926 2.88767E-08-1.88996E-06 0.00000E+00
 -1       927 2.85043E-08-1.06058E-06 0.00000E+00
 -1       928 2.82478E-08-4.12832E-07 0.00000E+00
 -1       929 2.81162E-08 7.20195E-08 0.00000E+00
 -1       930 2.80412E-08 4.12693E-07-1.29247E-26
 -1       931 2.80008E-08 6.27911E-07 0.00000E+00
 -1       932 2.79704E-08 7.36406E-07 0.00000E+00
 -1       933 2.79192E-08 7.56908E-07 2.58494E-26
 -1       934 2.78410E-08 7.08150E-07 1.03398E-25
 -1       935 2.76334E-08 6.08865E-07 0.00000E+00
 -1       936 2.73486E-08 4.77789E-07 0.00000E+00
 -1       937 2.64630E-08 3.33658E-07 4.13590E-25
 -1       938 2.54939E-08 1.95184E-07 0.00000E+00
 -1       939 2.15405E-08 8.10866E-08-1.65436E-24
 -1       940 1.85965E-08 9.85717E-09 0.00000E+00
 -1       956 2.39242E-05 2.05955E-06-4.13590E-25
 -1       957 2.38670E-05 2.45459E-06 2.06795E-25
 -1       958 2.38095E-05 2.90401E-06 0.00000E+00
 -1       959 2.37519E-05 3.40095E-06-8.27181E-25
 -1       960 2.36942E-05 3.93854E-06-1.65436E-24
 -1       961 2.36365E-05 4.50988E-06-8.27181E-25
 -1       962 2.35788E-05 5.10805E-06 1.65436E-24
 -1       963 2.35211E-05 5.72613E-06-8.27181E-25
 -1       964 2.34634E-05 6.35720E-06 0.00000E+00
 -1       965 2.34056E-05 6.99434E-06-8.27181E-25
 -1       966 2.33479E-05 7.63064E-06 0.00000E+00
 -1       967 2.32902E-05 8.25917E-06 0.00000E+00
 -1       968 2.32325E-05 8.87302E-06-1.65436E-24
 -1       969 2.31749E-05 9.46531E-06 0.00000E+00
 -1       970 2.31175E-05 1.00291E-05 0.00000E+00
 -1       971 2.29889E-05 1.11016E-05 1.65436E-24
 -1       972 2.29153E-05 1.17319E-05 0.00000E+00
 -1       973 2.28417E-05 1.24382E-05 1.65436E-24
 -1       974 2.27678E-05 1.32097E-05-8.27181E-25
 -1       975 2.26938E-05 1.40356E-05-1.65436E-24
 -1       976 2.26198E-05 1.49051E-05 8.27181E-25
 -1       977 2.25457E-05 1.58076E-05 0.00000E+00
 -1       978 2.24716E-05 1.67321E-05 8.27181E-25
 -1       979 2.23975E-05 1.76679E-05 0.00000E+00
 -1       980 2.23235E-05 1.86041E-05-8.27181E-25
 -1       981 2.22494E-05 1.95300E-05-1.65436E-24
 -1       982 2.21754E-05 2.04346E-05 0.00000E+00
 -1       983 2.21016E-05 2.13074E-05 1.65436E-24
 -1       984 2.20281E-05 2.21373E-05 8.27181E-25
 -1       985 2.19547E-05 2.29137E-05 0.00000E+00
 -3
    1PSTEP                         6           3           1          
  100CL  103 3.75000E-01         608                     0    3           1
 -4  STRESS      6    1
 -5  SXX         1    4    1    1
 -5  SYY         1    4    2    2
 -5  SZZ         1    4    3    3
 -5  SXY         1    4    1    2
 -5  SYZ         1    4    2    3
 -5  SZX         1    4    3    1
 -1         1-1.86844E+06-6.39066E+05-4.09008E+05-5.82632E+05 1.45519E-11 2.36711E-09
 -1         2-1.23420E+06-3.18184E+05-1.60007E+05-2.04847E+05 1.04289E-09-1.24807E-08
 -1         3-3.23081E+05-2.87166E+05-1.06957E+04 3.59631E+04 3.19699E-09-1.10439E-09
 -1         4-3.02146E+05-4.70890E+04 4.33541E+02-2.86500E+04-2.07065E-10-1.38339E-09
 -1         5-1.67390E+05 4.19792E+04-6.88179E+04-1.61392E+03 1.11513E-08 2.99849E-09
 -1         8-8.35385E+05-3.86392E+05-1.13644E+05-5.13712E+05-3.15292E-11-1.35818E-10
 -1         9-8.72017E+05-3.05863E+05-1.23920E+05-3.03954E+05 1.26565E-09 1.36060E-09
 -1        10-4.37011E+05-3.03026E+05-3.15856E+04-1.07934E+05 4.23488E-09-1.30930E-08
 -1        11-2.70517E+05-7.23339E+04 2.10844E+02 6.72389E+02-1.24558E-09 6.46331E-10
 -1        12-2.41860E+05 1.47226E+04-8.87160E+04-2.21664E+04 1.60800E-08-8.67544E-09
 -1        15 1.42839E+03 7.72430E+02 4.43305E+03 1.35881E+00-3.08944E-11-1.39251E-09
 -1        16-1.35882E+06-3.61769E+05-1.24647E+05-4.44290E+05 6.53870E-10-3.15595E-09
 -1        17-2.46546E+05-1.94797E+05-2.52100E+04-1.69747E+05-2.39197E-10 7.63976E-10
 -1        18 1.54985E+04-1.24085E+04-1.20132E+04-3.98209E+04-2.00271E-10-2.16023E-09
 -1        19 6.33622E+04 7.72769E+04-8.03191E+01 2.05057E+03-1.43700E-11-1.12050E-10
 -1        20 2.77524E+04-4.74516E+04-1.11291E+04 2.21793E+04 2.53078E-09-3.87672E-10
 -1        21-5.17049E+03-7.56503E+04 2.08737E+04-6.19628E+02 7.24933E-09-4.83608E-09
 -1        23 3.46919E-01 1.65268E-01 6.35538E+00 3.84993E-04 3.48819E-09 2.51083E-09
 -1        24-6.95430E+05-2.08083E+05 3.70206E+04-3.61765E+05-8.97126E-10 2.01107E-09
 -1        25 1.03495E+04 2.81220E+04 1.45018E+04-2.00511E+05-2.60115E-10-2.81143E-09
 -1        26 1.42859E+03 5.28641E+04 2.48953E+02-8.69647E+03 1.48387E-10 9.24947E-10
 -1        27-1.14604E+04-3.50263E+04-1.55618E+04 3.85862E+04 1.55296E-09-2.69908E-09
 -1        28-4.36064E+03-5.83905E+04-2.07119E+03 2.25281E+04 6.36737E-09-2.62474E-11
 -1        31 2.20773E+03 2.54508E+03 3.77072E+03-5.78690E+01 2.11463E-09-9.62984E-10
 -1        32-2.84245E+05 6.74991E+04 1.77354E+05-4.12235E+05-3.17274E-11 1.06229E-09
 -1        33-6.24034E+04 6.31728E+04 1.94085E+04-1.98530E+04-6.00987E-10-1.80535E-09
 -1        34-7.59102E+04-3.05235E+03 6.88293E+03 2.90812E+04-8.32081E-11-1.66744E-09
 -1        35-1.15298E+04-1.57697E+04 8.60498E+02 3.66579E+04 1.18247E-09-1.70864E-09
 -1        36-1.91943E+06 5.66714E+04-1.30490E+05 4.09112E-07-2.82765E-09-2.22644E-09
 -1        37-1.97601E+06-6.55856E+04-9.24291E+04 1.75036E-08-6.11593E-10-3.03226E-09
 -1        38-1.94125E+06 8.90933E+03-3.37636E+04 8.94023E-08-4.04374E-09 2.38833E-09
 -1        39-1.95052E+06-1.03091E+04-2.12652E+04-8.27784E-07-5.87384E-09 2.81716E-10
 -1        40-1.94485E+06 1.39844E+03-8.69138E+03-1.85118E-07-3.06835E-09 2.38288E-10
 -1        41-1.94631E+06-1.64227E+03-5.22165E+03-8.65885E-08 1.59391E-09-1.62157E-09
 -1        42-1.94544E+06 2.43629E+02-2.59969E+03-1.25484E-07-3.82035E-09 1.00795E-09
 -1        43-1.94569E+06-4.52079E+02-2.15847E+03 1.20330E-07-4.24235E-09-2.21718E-10
 -1        44-1.94546E+06 2.08409E+02-2.28850E+03 1.46516E-08-4.20607E-09-5.69020E-09
 -1        45-1.94615E+06-1.34026E+03-4.31945E+03-1.31486E-07 6.97244E-10-1.60526E-10
 -1        46-1.94499E+06 1.13169E+03-7.06943E+03 2.90131E-07-1.15170E-09 2.93130E-09
 -1        47-1.94954E+06-8.33166E+03-1.72066E+04 6.83226E-07-1.06403E-09-7.90351E-10
 -1        48-1.94208E+06 7.19885E+03-2.72930E+04 5.63371E-07-2.02421E-09 1.71531E-09
 -1        49-1.97014E+06-5.29933E+04-7.46882E+04-1.02428E-07-4.06620E-09 9.86620E-09
 -1        50-1.92446E+06 4.57889E+04-1.05449E+05 2.75048E-07-8.80812E-09 3.33239E-09
 -1        51 1.44538E+04-2.45876E+05 2.45057E+04-6.33786E+05 4.36557E-11 6.06815E-09
 -1        52 6.76658E+03-2.43716E+05 1.58988E+04-7.01860E+05 1.96451E-10-5.38421E-10
 -1        53 4.83826E+03-2.48888E+05 1.43745E+04-6.32091E+05-8.73115E-11-3.56522E-09
 -1        54 1.27233E+04-2.46037E+05 2.38113E+04-7.03697E+05 5.82077E-11-4.38013E-09
 -1        55 3.08064E+04-2.53761E+05 4.43655E+04-6.31805E+05-1.01863E-10 6.29370E-10
 -1        56-3.38368E+06-3.65144E+05-2.91797E+05-1.31315E+06-7.20320E-10-6.95582E-09
 -1        57-3.52192E+06-6.31466E+05-2.00078E+05-1.27932E+06-4.11092E-10-1.46247E-09
 -1        58-3.44329E+06-4.64425E+05-6.84938E+04-1.29339E+06-5.95719E-10-1.21508E-09
 -1        59-3.45351E+06-5.15174E+05-4.19425E+04-1.30130E+06 1.95541E-10 1.81535E-09
 -1        60-3.45163E+06-4.80102E+05-1.60154E+04-1.29156E+06 1.31604E-09 1.51977E-09
 -1        61-3.44588E+06-4.94875E+05-9.35379E+03-1.30094E+06 1.02438E-09 2.07501E-09
 -1        62-3.45079E+06-4.84543E+05-4.44567E+03-1.29378E+06-1.87629E-09-1.14539E-09
 -1        63-3.44957E+06-4.87531E+05-3.82131E+03-1.29542E+06 1.39374E-09 1.24473E-09
 -1        64-3.44792E+06-4.87430E+05-4.37356E+03-1.29707E+06 1.04609E-09-2.30307E-09
 -1        65-3.45617E+06-4.84466E+05-9.13366E+03-1.28913E+06-5.41036E-10-1.45030E-09
 -1        66-3.44422E+06-4.87624E+05-1.56109E+04-1.30007E+06-6.07542E-10-4.58385E-10
 -1        67-3.46957E+06-4.98267E+05-4.08635E+04-1.28266E+06 3.41061E-12 3.80624E-10
 -1        68-3.43464E+06-4.73806E+05-6.67263E+04-1.30352E+06-1.24055E-09 1.83354E-09
 -1        69-3.53543E+06-6.12335E+05-1.94907E+05-1.26215E+06-9.05857E-10 4.10910E-09
 -1        70-3.37882E+06-3.74856E+05-2.84266E+05-1.32021E+06-7.42148E-10 3.66708E-09
 -1        86-2.45746E+04-1.28620E+05 5.80639E+04 8.07237E+03 2.60479E-09 3.21620E-09
 -1        87 3.10327E+04-1.00581E+05 4.58995E+04-3.52818E+04 4.37103E-09 1.63055E-09
 -1        88-6.29443E+03-1.19182E+05 2.43836E+04 8.46006E+03 3.97790E-09-7.87182E-10
 -1        89 2.38177E+04-1.04424E+05 3.63547E+04-3.54348E+04 5.88989E-09-1.62974E-09
 -1        90-1.73510E+04-1.24826E+05 4.18627E+04 8.22551E+03 2.17551E-09-4.75438E-10
 -1        91-1.77180E+06-2.06406E+05-1.08756E+05-6.83282E+05-1.11368E-05 4.15561E-06
 -1        92-1.82886E+06-3.07116E+05-7.55809E+04-6.64615E+05-2.22343E-05 8.35357E-06
 -1        93-1.79374E+06-2.45920E+05-2.54772E+04-6.76134E+05-4.85542E-06 1.83817E-06
 -1        94-1.80307E+06-2.61593E+05-1.59605E+04-6.73079E+05 1.25137E-05-4.69618E-06
 -1        95-1.79752E+06-2.51917E+05-5.96997E+03-6.74796E+05 2.03529E-06-7.68389E-07
 -1        96-1.79883E+06-2.54518E+05-3.59775E+03-6.74426E+05-8.45603E-06 3.17171E-06
 -1        97-1.79796E+06-2.52992E+05-1.70192E+03-6.74781E+05-3.28227E-07 1.21630E-07
 -1        98-1.79828E+06-2.53581E+05-1.58120E+03-6.74572E+05 7.81523E-06-2.92669E-06
 -1        99-1.79807E+06-2.52853E+05-1.83958E+03-6.74648E+05-1.45853E-06 5.46855E-07
 -1       100-1.79898E+06-2.54637E+05-4.02411E+03-6.74336E+05-1.07330E-05 4.03006E-06
 -1       101-1.79726E+06-2.51937E+05-6.73635E+03-6.75019E+05 2.52037E-06-9.48085E-07
 -1       102-1.80361E+06-2.62806E+05-1.80456E+04-6.72987E+05 1.57749E-05-5.91385E-06
 -1       103-1.79346E+06-2.44687E+05-2.88268E+04-6.76004E+05-9.29906E-06 3.50263E-06
 -1       104-1.83304E+06-3.14026E+05-8.55078E+04-6.63074E+05-3.43727E-05 1.28964E-05
 -1       105-1.76790E+06-2.00730E+05-1.23061E+05-6.84956E+05-1.72366E-05 6.42749E-06
 -1       106-6.42838E+05 3.35628E+03-7.73726E+03-2.82617E-07 1.80707E-09-2.76350E-09
 -1       107-6.46142E+05-3.88481E+03-5.48030E+03-4.17111E-07-6.19534E-10-5.11704E-10
 -1       108-6.44131E+05 5.27813E+02-2.00741E+03-2.88605E-07-6.02199E-10 2.37389E-09
 -1       109-6.44634E+05-6.11507E+02-1.27173E+03-1.37167E-08-5.83852E-10 2.85172E-09
 -1       110-6.44344E+05 8.35928E+01-5.36170E+02-6.17411E-09-7.91746E-10 1.12450E-09
 -1       111-6.44388E+05-1.03048E+02-3.53548E+02-1.58286E-07 1.91903E-09 1.39502E-09
 -1       112-6.44376E+05 1.94423E+01-2.36121E+02-3.74461E-07-2.37947E-10 2.11054E-09
 -1       113-6.44370E+05-6.44017E+01-3.08271E+02-2.52053E-07-2.21108E-09 5.25696E-09
 -1       114-6.44362E+05 4.49535E+01-4.62036E+02-8.51090E-08-5.67558E-11 4.41645E-10
 -1       115-6.44505E+05-3.21819E+02-1.00821E+03-2.03692E-07 1.80478E-09-3.38429E-09
 -1       116-6.44242E+05 2.76821E+02-1.71310E+03 7.35354E-08 7.11853E-11-6.37101E-10
 -1       117-6.45343E+05-2.04379E+03-4.21489E+03-1.21914E-07-6.89849E-10 9.42464E-10
 -1       118-6.43526E+05 1.76663E+03-6.70032E+03 1.31025E-07-2.78915E-09-1.75987E-10
 -1       119-6.50395E+05-1.30054E+04-1.83375E+04-4.28068E-07-2.06395E-09-1.10253E-09
 -1       120-6.39195E+05 1.12366E+04-2.58975E+04 9.01913E-08-1.07523E-09-8.58563E-10
 -1       121-1.36678E+02-5.52031E+05 5.79792E+02 1.23649E+04 4.03588E-10 2.52385E-11
 -1       122 3.06010E+02-5.51758E+05 6.85946E+02 7.19878E+04 9.03810E-10 3.93227E-09
 -1       123-9.23158E+01-5.52017E+05 8.26780E+02 1.23032E+04 5.04770E-10-2.23736E-10
 -1       124 9.93752E+02-5.51238E+05 1.88605E+03 7.18233E+04 5.62295E-10-1.37584E-09
 -1       125-8.22343E+02-5.52419E+05 2.76711E+03 1.25294E+04-5.93673E-10 2.94222E-09
 -1       141-3.17385E+05-1.32973E+03 3.06321E+03 1.19849E-07 3.54585E-10 8.76753E-10
 -1       142-3.16024E+05 1.53882E+03 2.16442E+03 4.25096E-08 5.13133E-10 3.59640E-09
 -1       143-3.16872E+05-2.08803E+02 7.80903E+02-2.50808E-07-6.31365E-10 8.52651E-12
 -1       144-3.16624E+05 2.39752E+02 4.72846E+02-3.36119E-07-2.78515E-10-5.26200E-10
 -1       145-3.16786E+05-3.09071E+01 1.52739E+02-1.94979E-07 5.08114E-10 1.20826E-09
 -1       146-3.16731E+05 2.39331E+01 1.21438E+01-2.77873E-07 9.08837E-10 2.64258E-09
 -1       147-3.16765E+05 6.97905E+00-1.46061E+02 2.37478E-07-5.37702E-11 3.25846E-09
 -1       148-3.16794E+05-8.47308E+01-4.05837E+02 1.29923E-07 9.94711E-10 5.80144E-10
 -1       149-3.16724E+05 7.77436E+01-7.73074E+02 1.26221E-07-1.96296E-10 1.68018E-09
 -1       150-3.17057E+05-5.82909E+02-1.80461E+03 1.87560E-07-5.80781E-10-3.92305E-09
 -1       151-3.16502E+05 5.05090E+02-3.11330E+03-2.54722E-07-4.57328E-10 4.00519E-10
 -1       152-3.18589E+05-3.73313E+03-7.69335E+03-1.51153E-07-1.10892E-10 1.90175E-09
 -1       153-3.15192E+05 3.22747E+03-1.22400E+04 2.09768E-07 2.31496E-09 8.79936E-10
 -1       154-3.27818E+05-2.37600E+04-3.35034E+04 1.32892E-07 4.68896E-10-1.89175E-10
 -1       155-3.07275E+05 2.05289E+04-4.73128E+04-5.30999E-08 6.50732E-09-3.51065E-10
 -1       156-1.03038E+04-9.29267E+04 2.43655E+04-2.29049E+02 1.22509E-09-4.81078E-06
 -1       157 1.34205E+04-8.17384E+04 1.99146E+04 8.10725E+02 5.53155E-09-9.60948E-06
 -1       158-3.11388E+03-8.96394E+04 1.16829E+04-2.54769E+02 1.40041E-09-4.80921E-06
 -1       159 1.31509E+04-8.17541E+04 1.95736E+04 6.89835E+02 3.37195E-10-4.22127E-09
 -1       160-1.00348E+04-9.29103E+04 2.37130E+04-1.08157E+02 3.81988E-11-2.89934E-09
 -1       161-3.06992E+05-4.31414E+04 1.15052E+02-1.15001E+05-9.64602E-06 3.61629E-06
 -1       162-3.06669E+05-4.32501E+04 7.98085E+01-1.15262E+05-1.92851E-05 7.23123E-06
 -1       163-3.06944E+05-4.31260E+04 1.91868E+01-1.15041E+05-3.59456E-05 1.34716E-05
 -1       164-3.06851E+05-4.31456E+04 3.80375E+00-1.15074E+05-5.25830E-05 1.97282E-05
 -1       165-3.06810E+05-4.32460E+04-2.55967E+01-1.15189E+05-2.64736E-05 9.93147E-06
 -1       166-3.06994E+05-4.30366E+04-6.53877E+01-1.14923E+05-3.20917E-07 1.21193E-07
 -1       167-3.06802E+05-4.32350E+04-1.34867E+02-1.15191E+05 2.37199E-05-8.89512E-06
 -1       168-3.06912E+05-4.32433E+04-3.20693E+02-1.15059E+05 4.77214E-05-1.79048E-05
 -1       169-3.06891E+05-4.30394E+04-5.92824E+02-1.15054E+05 2.91298E-05-1.09185E-05
 -1       170-3.07060E+05-4.38921E+04-1.48881E+03-1.15158E+05 1.05198E-05-3.94208E-06
 -1       171-3.06654E+05-4.25862E+04-2.57335E+03-1.15092E+05-1.85509E-05 6.95261E-06
 -1       172-3.08987E+05-4.69161E+04-6.94537E+03-1.14486E+05-4.76097E-05 1.78560E-05
 -1       173-3.04965E+05-4.00160E+04-1.11127E+04-1.15725E+05-3.76721E-05 1.41274E-05
 -1       174-3.20432E+05-6.65404E+04-3.29493E+04-1.10556E+05-2.76922E-05 1.03875E-05
 -1       175-2.95212E+05-2.29646E+04-4.74218E+04-1.19023E+05-1.38443E-05 5.17836E-06
 -1       191 2.68615E+02 2.22513E+05 4.33363E+02-3.18593E+03-1.66438E-10 1.62800E-09
 -1       192 9.92355E+01 2.22565E+05 2.66685E+02-3.32002E+03-9.49285E-11-4.78394E-09
 -1       193 5.04222E+01 2.22533E+05 2.27126E+02-3.09358E+03-4.20926E-10 1.58534E-08
 -1       194 1.51799E+02 2.22580E+05 3.59988E+02-3.49800E+03-4.53724E-10 3.93356E-08
 -1       195 4.31087E+02 2.22493E+05 6.65653E+02-3.00775E+03-7.51243E-10 2.26587E-08
 -1       266-2.51130E+04-1.16142E+04 5.79565E+04-2.79625E+01-3.27418E-11-3.30893E-10
 -1       267 2.90825E+04 1.35610E+04 4.11143E+04 3.21524E+01-4.41105E-11-1.57359E-10
 -1       268-3.96289E+03-1.94163E+03 1.52176E+04-4.18699E+00 2.81943E-11-5.60551E-10
 -1       269 4.67787E+03 2.32812E+03 9.94557E+03 4.86744E+00 2.70575E-11 1.15885E-09
 -1       270-7.14094E+02-3.86211E+02 4.77509E+03-6.79200E-01 2.04636E-12 8.00918E-10
 -1       271-2.60919E+06-3.24273E+05-2.05362E+05-1.00905E+06 2.36469E-10-9.74978E-10
 -1       272-2.68450E+06-4.61585E+05-1.30500E+05-1.00604E+06 1.95996E-09-3.35604E-09
 -1       273-2.64603E+06-3.72408E+05-4.84541E+04-1.00218E+06 6.57337E-10 2.04454E-09
 -1       274-2.64158E+06-4.00594E+05-2.68108E+04-1.01728E+06 1.28296E-09-1.60026E-09
 -1       275-2.65093E+06-3.77111E+05-1.12666E+04-1.00089E+06-1.14142E-10-4.60659E-10
 -1       276-2.63567E+06-3.94928E+05-5.97722E+03-1.01944E+06 3.82897E-10-5.45697E-11
 -1       277-2.65190E+06-3.77252E+05-3.01179E+03-1.00036E+06-3.47882E-10-9.23023E-10
 -1       278-2.63455E+06-3.94872E+05-2.29579E+03-1.02025E+06 1.26875E-09 3.15947E-09
 -1       279-2.65210E+06-3.77072E+05-2.64019E+03-1.00015E+06 9.00172E-10 8.76526E-10
 -1       280-2.63488E+06-3.95486E+05-4.95916E+03-1.02032E+06 7.55504E-10-8.42192E-10
 -1       281-2.65159E+06-3.76675E+05-9.19483E+03-1.00028E+06 4.72973E-10 1.05820E-09
 -1       282-2.63924E+06-4.00559E+05-2.18277E+04-1.01913E+06 7.63535E-10-3.20551E-09
 -1       283-2.64782E+06-3.72642E+05-3.93976E+04-1.00110E+06 9.82482E-10-1.89902E-09
 -1       284-2.67380E+06-4.50505E+05-1.06125E+05-1.01040E+06 2.07365E-10 3.25963E-09
 -1       285-2.61801E+06-3.33362E+05-1.67002E+05-1.00653E+06 3.63798E-10-2.61934E-10
 -1       286 2.54511E+05-3.17865E+04 7.32691E+04 4.84661E+02 1.02694E-09 1.36424E-09
 -1       287 2.86583E+05 3.67889E+04 5.19147E+04-7.59808E+02-6.61262E-11 2.42380E-09
 -1       288 2.66882E+05-4.99361E+03 1.89788E+04 5.69571E+01-1.49583E-10 1.70621E-09
 -1       289 2.72178E+05 5.77894E+03 1.19595E+04-2.34052E+02-5.80812E-10-1.89357E-09
 -1       290 2.68915E+05-7.84216E+02 4.90680E+03-4.10886E+01-1.51622E-07 9.25411E-10
 -1       291 2.69814E+05 9.25010E+02 2.97387E+03-1.13225E+02-3.04977E-07-9.14156E-10
 -1       292 2.69247E+05-1.40598E+02 1.53167E+03-6.38720E+01-1.23250E-07 1.96968E-09
 -1       293 2.69484E+05 2.84190E+02 1.36363E+03-8.85202E+01 5.98071E-08-2.43137E-09
 -1       294 2.69245E+05-1.43506E+02 1.55692E+03-6.57940E+01-4.47188E-07-2.99866E-09
 -1       295 2.69827E+05 9.49884E+02 3.04712E+03-1.00997E+02-9.55906E-07 2.27783E-09
 -1       296 2.68903E+05-8.06177E+02 5.03829E+03-5.13953E+01-3.11302E-06-5.65001E-09
 -1       297 2.72254E+05 5.94073E+03 1.22881E+04-1.80455E+02-5.26892E-06 4.49495E-09
 -1       298 2.66818E+05-5.13339E+03 1.95035E+04 1.36666E+01-2.64105E-06 4.89854E-09
 -1       299 2.86985E+05 3.78016E+04 5.33350E+04-5.30123E+02-4.97640E-10 9.21500E-09
 -1       300 2.54173E+05-3.26590E+04 7.53123E+04 2.98268E+02 3.82338E-09 2.88856E-09
 -1       301 2.04860E+04-1.22417E+04 6.11328E+04-1.76718E+04 9.64064E-11-1.45172E-09
 -1       302 7.79153E+03 4.66269E+02 4.14939E+04-2.18700E+04 8.65384E-10 1.11972E-09
 -1       303 1.65213E+03-7.90901E+03 3.84751E+04-1.76724E+04-3.45608E-11 7.31592E-09
 -1       304 1.47572E+04 5.86051E+03 6.37162E+04-2.18477E+04 7.59428E-10 8.76389E-09
 -1       305 4.06115E+04-1.76162E+04 1.13756E+05-1.76697E+04 1.41881E-10 6.23299E-09
 -1       306-1.20034E+06-1.57387E+05-7.19469E+04-4.65395E+05 6.99401E-10 5.23869E-10
 -1       307-1.21111E+06-2.20773E+05-4.56718E+04-4.82020E+05-1.38016E-10 2.82580E-09
 -1       308-1.21333E+06-1.74078E+05-1.69897E+04-4.62910E+05-2.34422E-10-8.67658E-10
 -1       309-1.19613E+06-1.99516E+05-9.40112E+03-4.86104E+05-2.54659E-11-4.09955E-10
 -1       310-1.21505E+06-1.75712E+05-3.97130E+03-4.62479E+05 5.84123E-10 1.40494E-09
 -1       311-1.19419E+06-1.97445E+05-2.14285E+03-4.86791E+05 6.36476E-10 7.01618E-10
 -1       312-1.21531E+06-1.75831E+05-1.15100E+03-4.62380E+05 1.13403E-11 1.49947E-09
 -1       313-1.19401E+06-1.97236E+05-1.01685E+03-4.86827E+05-3.93811E-10 8.12861E-12
 -1       314-1.21524E+06-1.75900E+05-1.35708E+03-4.62452E+05-7.86031E-10-1.66278E-09
 -1       315-1.19447E+06-1.97279E+05-2.70076E+03-4.86447E+05-1.96223E-10 5.24551E-10
 -1       316-1.21477E+06-1.75862E+05-5.11121E+03-4.62696E+05-6.41194E-11-1.60662E-09
 -1       317-1.19712E+06-1.99798E+05-1.21324E+04-4.85347E+05-7.13271E-10 1.51113E-09
 -1       318-1.21249E+06-1.73817E+05-2.19608E+04-4.63319E+05-4.60250E-09 2.32467E-09
 -1       319-1.21655E+06-2.27192E+05-5.90164E+04-4.79978E+05-7.57905E-09 5.27325E-09
 -1       320-1.19568E+06-1.52258E+05-9.29775E+04-4.66544E+05-6.04996E-09 4.92219E-09
 -1       321-5.98301E+05 6.20621E+02-1.41691E+03-8.68824E+02-5.12554E-10 1.78892E-09
 -1       322-5.98628E+05-7.00815E+02-9.57369E+02 7.36719E+02-1.13373E-09 1.52511E-10
 -1       323-5.98784E+05 7.97658E+01-4.21472E+02 1.28239E+02-2.33531E-09-3.73831E-10
 -1       324-5.98332E+05-1.07465E+02-1.91277E+02-9.57014E+02-2.53677E-09-2.49295E-09
 -1       325-5.98597E+05 2.77156E+01-1.18450E+02 8.24940E+02-6.26693E-10 2.74738E-10
 -1       326-5.98337E+05-2.64461E+01-6.37229E+01-4.35725E+02 6.77226E-10 5.95383E-09
 -1       327-5.98779E+05-1.89031E+00-1.56440E+02-3.93058E+02-1.55512E-06 1.02276E-09
 -1       328-5.98287E+05-3.95833E+01-1.64510E+02 1.09242E+03-3.19434E-06 1.06194E-08
 -1       329-5.98647E+05 4.17617E+01-3.94783E+02-7.03231E+02-1.56966E-06-2.48266E-09
 -1       330-5.98485E+05-2.82072E+02-8.26651E+02 8.59681E+01-3.15686E-09-1.57945E-09
 -1       331-5.98581E+05 2.39489E+02-1.50701E+03 6.13409E+02-4.97642E-07-2.01112E-10
 -1       332-5.99133E+05-1.76772E+03-3.60454E+03-1.12193E+03-9.67400E-07 4.17288E-10
 -1       333-5.98000E+05 1.52829E+03-5.85494E+03 5.04685E+02-5.03465E-07-3.45494E-09
 -1       334-6.03596E+05-1.12963E+04-1.58960E+04 2.75362E+02-1.45548E-10 2.84672E-09
 -1       335-5.94122E+05 9.76542E+03-2.25197E+04-7.83914E+02-2.00033E-10 1.43245E-09
 -1       336 1.54067E+02-5.87802E+05-1.75554E+03-7.57374E+03-1.92767E-09 2.70393E-09
 -1       337-9.91065E+02-5.88552E+05-3.74301E+03-4.64519E+04-3.41760E-09-1.53273E-09
 -1       338 7.72276E+02-5.87418E+05-6.44868E+03-7.27092E+03-3.18414E-09-4.25644E-10
 -1       339-8.44330E+03-5.92945E+05-1.61542E+04-4.68652E+04-4.87125E-09 3.10172E-09
 -1       340 6.77394E+03-5.83619E+05-2.47093E+04-7.16187E+03-3.29146E-09 8.92442E-10
 -1       356-5.94087E+05 9.74908E+03-2.25306E+04-4.94018E+02-2.79072E-09 2.99042E-09
 -1       357-6.03500E+05-1.12921E+04-1.59032E+04-2.12588E+02-7.69661E-10 6.36419E-10
 -1       358-5.97756E+05 1.54056E+03-5.84550E+03 7.07868E+02-7.92024E-10-4.95447E-10
 -1       359-5.99060E+05-1.77234E+03-3.65103E+03-9.68077E+02-5.56236E-10-6.57053E-10
 -1       360-5.98523E+05 2.31666E+02-1.59426E+03 2.61493E+02 5.45448E-11-3.97563E-10
 -1       361-5.98387E+05-2.99683E+02-9.84651E+02 5.29790E+02 2.63393E-09 1.42461E-09
 -1       362-5.98429E+05 6.75815E+01-6.71704E+02-7.90026E+02 1.58183E-09 8.24883E-10
 -1       363-5.98309E+05-1.78993E+02-8.24963E+02 8.01002E+02-3.76557E-10 1.85494E-09
 -1       364-5.98600E+05 1.11306E+02-1.33204E+03-9.72428E+00 2.62990E-10 8.74650E-10
 -1       365-5.98685E+05-8.93343E+02-2.76508E+03-7.83188E+02-3.40700E-09 1.51886E-10
 -1       366-5.98054E+05 7.81836E+02-4.76360E+03 7.94193E+02-2.61751E-09 8.16726E-10
 -1       367-6.01033E+05-5.68342E+03-1.16854E+04-5.46982E+02 1.84498E-09-1.44246E-09
 -1       368-5.96256E+05 4.90037E+03-1.86726E+04-2.45939E+02 3.55529E-09-2.28374E-09
 -1       369-6.15040E+05-3.61550E+04-5.09479E+04 9.58122E+02 3.84882E-10 1.17052E-09
 -1       370-5.84056E+05 3.12501E+04-7.20151E+04-7.10944E+02 9.17809E-09 2.28101E-09
 -1       371-9.69115E+03-9.26114E+04 2.19344E+04 2.56576E+02 6.07361E-09 4.48598E-06
 -1       372 1.03199E+04-8.32775E+04 1.39213E+04-5.86636E+02 1.23491E-08 8.96680E-06
 -1       373-6.26156E+02-8.84209E+04 2.35455E+03 2.81970E+02 6.97173E-09 4.48772E-06
 -1       374-4.95557E+03-9.02510E+04-5.93794E+03-4.83318E+02 9.00400E-11 1.41086E-09
 -1       375 5.58100E+03-8.56391E+04-1.22602E+04 1.53254E+02 1.05592E-09 9.54735E-10
 -1       406 3.70025E+02 2.21246E+05 8.51281E+02-1.22193E+04-1.00908E-09-1.65755E-09
 -1       407 2.74499E+02 2.21403E+05 1.13797E+03-1.33109E+04-6.17533E-10 4.69572E-09
 -1       408 5.01007E+02 2.21205E+05 1.96069E+03-1.21382E+04-1.25385E-09-1.02041E-08
 -1       409 2.00822E+03 2.21967E+05 4.26215E+03-1.34462E+04-8.58108E-10-2.09782E-08
 -1       410 5.76573E+03 2.20667E+05 8.62659E+03-1.20808E+04-1.58707E-09-8.48604E-09
 -1       501-2.35789E+05-3.48775E+04 7.67070E+04-3.53867E+03 5.86716E-09 2.71029E-09
 -1       502-1.81870E+05 3.96493E+04 5.77474E+04 9.44791E+03 4.74547E-09 7.16409E-09
 -1       503-2.15851E+05-4.71633E+03 1.99919E+04-4.39085E+03 4.31378E-09 4.12001E-09
 -1       504-1.86679E+05 6.66115E+03 1.70210E+04 5.98632E+03-5.78929E-10 2.20666E-09
 -1       505-2.30911E+05-1.98210E+03 1.28851E+03-7.68491E+01 2.55929E-09-4.37058E-09
 -1       506-1.85453E+05 1.73203E+03 8.06902E+03-3.32994E+03 1.06115E-08-1.22081E-08
 -1       507-2.17048E+05 1.82488E+02 2.47939E+02 4.92440E+03 1.06491E-08-1.09731E-08
 -1       508-2.01140E+05-5.89980E+02 2.53772E+03-8.56679E+03 4.89630E-09-1.03472E-08
 -1       509-2.15343E+05 4.57836E+02-2.71325E+02 5.16124E+03 1.34874E-08-8.66073E-09
 -1       510-1.87302E+05 7.60688E+02 5.26997E+03-4.05674E+03 1.18475E-08-1.09135E-08
 -1       511-2.30779E+05-1.27565E+03-3.25166E+03 4.13136E+02-1.30538E-09-3.10934E-10
 -1       512-1.87761E+05 1.36445E+03 6.15472E+03 5.34502E+03-3.54702E-09 6.66003E-09
 -1       513-2.14890E+05-1.39402E+02 1.82669E+03-4.23959E+03-5.78953E-09 8.32381E-09
 -1       514-1.98442E+05 4.84061E+03 8.67081E+03 9.49943E+03-4.32309E-09 1.16793E-08
 -1       515-2.20197E+05-4.65111E+03 7.84108E+03-3.74150E+03-4.23756E-09 5.78484E-09
 -1       521-2.66185E+06-3.38929E+05-1.71468E+05-1.02405E+06-1.84446E-09-2.11003E-10
 -1       522-2.71726E+06-4.60996E+05-1.08950E+05-1.03009E+06-1.33059E-09-4.15821E-09
 -1       523-2.69257E+06-3.79129E+05-4.04465E+04-1.01834E+06 7.75344E-11-6.36646E-10
 -1       524-2.68163E+06-4.09905E+05-2.23956E+04-1.03929E+06 2.88310E-10 5.06134E-10
 -1       525-2.69652E+06-3.83191E+05-9.41659E+03-1.01741E+06 5.41718E-10 1.37697E-09
 -1       526-2.67706E+06-4.04794E+05-5.03692E+03-1.04064E+06 1.85992E-10-2.10537E-09
 -1       527-2.69708E+06-3.83567E+05-2.60167E+03-1.01725E+06-4.11092E-10-1.02070E-09
 -1       528-2.67668E+06-4.04174E+05-2.11832E+03-1.04060E+06-1.01358E-09 4.17117E-10
 -1       529-2.69688E+06-3.83771E+05-2.61434E+03-1.01747E+06-8.72205E-10-1.00317E-09
 -1       530-2.67775E+06-4.04049E+05-5.05520E+03-1.03972E+06 2.60343E-10 1.34378E-10
 -1       531-2.69593E+06-3.83790E+05-9.47291E+03-1.01806E+06-2.55113E-10-2.58296E-10
 -1       532-2.68302E+06-4.08468E+05-2.24940E+04-1.03749E+06-1.70758E-10 3.26736E-09
 -1       533-2.69160E+06-3.80075E+05-4.06533E+04-1.01938E+06 5.67354E-10 5.87534E-10
 -1       534-2.71947E+06-4.59108E+05-1.09447E+05-1.02744E+06-2.07820E-10 5.14774E-10
 -1       535-2.66041E+06-3.40031E+05-1.72283E+05-1.02549E+06-1.15870E-09 1.37516E-09
 -1       536 3.26169E+04-8.89442E+03 3.22265E+04-4.25215E+03 1.06957E-09-1.67529E-09
 -1       537 4.49838E+04 1.11331E+04 2.10949E+04-2.43859E+04-2.75577E-09 9.38599E-10
 -1       538 3.75932E+04-1.03542E+03 8.35022E+03-4.19859E+03-5.09317E-11-2.26783E-09
 -1       539 3.92527E+04 1.17950E+03 4.76685E+03-2.44321E+04 1.79944E-09 1.65346E-09
 -1       540 3.81948E+04-1.37462E+02 2.10469E+03-4.20368E+03-6.86668E-11-1.38584E-09
 -1       541 3.84634E+04 1.21414E+02 1.12955E+03-2.44172E+04 7.63976E-11-2.26515E-09
 -1       542 3.82706E+04-2.09066E+01 5.16854E+02-4.21359E+03-3.52429E-11-6.64500E-10
 -1       543 3.83061E+04 2.47745E+01 2.57670E+02-2.44018E+04-4.77712E-10-1.36743E-09
 -1       544 3.82804E+04 1.38917E+00 9.49383E+01-4.21919E+03 2.94108E-10-3.18101E-09
 -1       545 3.82573E+04 1.39949E+01-1.05114E+01-2.43950E+04-1.08491E-09-1.09546E-09
 -1       546 3.82876E+04 1.19839E+01-1.14793E+02-4.22039E+03 4.07795E-10-9.32801E-10
 -1       547 3.82128E+04-6.61143E+01-3.15347E+02-2.43937E+04-1.07224E-09-1.69052E-10
 -1       548 3.83331E+04 6.76147E+01-5.80494E+02-4.22044E+03-5.32964E-10-1.68910E-09
 -1       549 3.78621E+04-7.78491E+02-1.46898E+03-2.43628E+04-5.47516E-10-1.26448E-09
 -1       550 3.86866E+04 5.99948E+02-2.26799E+03-4.25127E+03-8.36735E-11-1.54938E-09
 -1       551 5.35593E+03-2.09981E+05 1.47728E+04-3.35781E+05-4.29281E-09-2.18279E-11
 -1       552 4.05370E+03-2.07691E+05 1.57538E+04-4.14532E+05-4.74392E-09 2.73121E-09
 -1       553 2.88762E+03-2.10389E+05 2.31728E+04-3.35113E+05-4.99858E-09 1.80762E-09
 -1       554 1.41449E+04-2.00147E+05 4.76293E+04-4.14626E+05-5.38421E-09 3.35058E-09
 -1       555 3.43946E+04-2.17985E+05 9.02590E+04-3.35606E+05-4.27463E-09-6.38465E-10
 -1       556-5.95098E+04-6.89833E+04 1.74614E+04-1.10878E+05-7.60338E-09-7.95990E-09
 -1       557-4.18169E+04-8.58355E+04 8.84744E+03-1.24958E+05-1.97906E-09-8.41283E-11
 -1       558-5.94312E+04-7.30689E+04 3.70075E+03-1.08075E+05 8.18545E-10 6.11180E-09
 -1       559-4.37091E+04-8.84203E+04 1.83279E+03-1.25699E+05-4.97857E-09-1.57570E-09
 -1       560-5.96415E+04-7.29829E+04 8.10792E+02-1.08126E+05 2.05910E-09 1.19853E-08
 -1       561-4.41102E+04-8.84099E+04 3.97697E+02-1.25968E+05-2.03727E-10-5.45128E-11
 -1       562-5.98256E+04-7.28488E+04 1.58351E+02-1.08256E+05-7.42148E-10 2.25657E-09
 -1       563-4.43191E+04-8.83217E+04 4.87683E+01-1.26110E+05-1.57524E-09-5.93445E-11
 -1       564-5.99353E+04-7.27723E+04-5.55053E+01-1.08335E+05-1.54614E-10-1.22191E-09
 -1       565-4.44279E+04-8.82791E+04-1.86727E+02-1.26177E+05 1.89175E-09 8.70477E-09
 -1       566-5.99566E+04-7.27428E+04-4.24569E+02-1.08358E+05 2.59206E-10-8.80391E-10
 -1       567-4.45070E+04-8.83064E+04-9.47916E+02-1.26164E+05 1.50442E-09 4.67480E-10
 -1       568-5.98422E+04-7.28483E+04-1.95182E+03-1.08297E+05-4.36557E-11-1.36606E-09
 -1       569-4.56658E+04-8.92655E+04-4.60279E+03-1.25759E+05 2.35468E-09 9.40054E-09
 -1       570-5.90273E+04-7.56003E+04-9.14580E+03-1.07196E+05-1.45519E-11-6.58474E-10
 -1       571 1.53310E+05 6.50452E+03 9.74568E+03-3.79499E+04 1.07775E-10-5.46834E-10
 -1       572 1.54776E+05 2.24683E+03 4.77853E+03-4.16841E+04-4.04725E-10 1.79784E-09
 -1       573 1.53903E+05 5.23778E+02 2.12392E+03-3.78520E+04-7.82620E-10-6.72571E-10
 -1       574 1.54079E+05 1.66113E+02 1.06485E+03-4.17930E+04-8.86189E-10 1.63345E-09
 -1       575 1.53971E+05 1.80320E+01 5.02667E+02-3.78392E+04-1.51408E-09 1.18280E-09
 -1       576 1.53987E+05 1.33279E+00 2.56467E+02-4.18074E+04-1.90033E-09-2.86036E-10
 -1       577 1.53982E+05-8.03023E+00 1.27563E+02-3.78375E+04-5.61045E-10 3.27873E-10
 -1       578 1.53977E+05-6.32449E+00 7.18412E+01-4.18091E+04 3.57159E-09 4.23961E-09
 -1       579 1.53991E+05-8.89975E+00 4.83034E+01-3.78375E+04 5.82668E-09-6.45741E-11
 -1       580 1.53989E+05-9.78325E+00 5.21830E+01-4.18068E+04 2.74440E-09 1.59253E-09
 -1       581 1.54004E+05-1.19232E+01 7.89790E+01-3.78398E+04-1.51431E-09-8.83119E-10
 -1       582 1.54021E+05 3.92282E+00 1.55883E+02-4.17838E+04-1.69302E-09-3.88263E-09
 -1       583 1.54016E+05 4.85170E+01 3.03553E+02-3.78605E+04-1.09048E-09 1.34651E-09
 -1       584 1.54147E+05 2.87764E+02 6.81055E+02-4.16092E+04-1.60935E-09 1.76999E-09
 -1       585 1.53956E+05 8.89321E+02 1.38516E+03-3.80149E+04 1.54614E-11 2.57842E-09
 -1       586 3.19561E+02 6.70029E+04 8.56860E+02-9.58125E+04 3.09228E-11-1.14233E-09
 -1       587 3.02045E+02 6.71621E+04 1.36966E+03-1.06845E+05-1.12868E-09-4.72937E-11
 -1       588 5.62413E+02 6.69129E+04 2.51221E+03-9.56902E+04 2.00089E-11 8.85109E-10
 -1       589 2.39879E+03 6.79550E+04 5.53783E+03-1.06863E+05-1.18416E-09 3.54930E-09
 -1       590 7.00295E+03 6.61938E+04 1.11815E+04-9.57929E+04 2.27374E-11 5.36602E-11
 -1       591-7.05930E+04-2.09448E+04-1.45526E+04-3.38599E+04 7.24754E-10-2.78578E-09
 -1       592-7.15966E+04-2.04268E+04-7.34120E+03-3.77292E+04 5.27848E-10-2.57558E-09
 -1       593-7.13589E+04-1.69857E+04-3.11550E+03-3.58636E+04 1.18655E-09-1.62186E-09
 -1       594-6.99284E+04-1.86176E+04-1.53126E+03-3.78548E+04-1.43564E-09-6.62846E-09
 -1       595-7.14399E+04-1.68852E+04-7.06768E+02-3.59384E+04-1.78989E-09-6.29723E-09
 -1       596-6.98152E+04-1.85547E+04-3.57245E+02-3.78375E+04 2.34508E-10-8.07802E-10
 -1       597-7.14532E+04-1.68977E+04-1.92148E+02-3.59384E+04 7.36549E-11 1.60037E-09
 -1       598-6.98034E+04-1.85553E+04-1.49271E+02-3.78323E+04-7.23247E-10 1.16052E-09
 -1       599-7.14525E+04-1.68985E+04-1.84049E+02-3.59379E+04 3.24007E-10-6.71093E-10
 -1       600-6.98130E+04-1.85557E+04-3.35970E+02-3.78356E+04-1.37277E-10-6.21071E-10
 -1       601-7.14381E+04-1.68878E+04-6.60879E+02-3.59369E+04-8.40828E-10 1.68257E-10
 -1       602-6.99186E+04-1.86136E+04-1.43027E+03-3.78485E+04-4.17458E-10 9.29958E-10
 -1       603-7.13599E+04-1.69845E+04-2.90900E+03-3.58679E+04-9.93623E-10-1.06888E-09
 -1       604-7.14922E+04-2.02846E+04-6.85353E+03-3.77087E+04-1.46883E-10-9.54060E-10
 -1       605-7.06256E+04-2.06964E+04-1.35853E+04-3.40151E+04 2.59729E-09 5.33100E-09
 -1       606 5.09629E+04-6.01220E+03-9.66770E+03 1.58960E+04 6.64068E-09 1.52704E-09
 -1       607 4.94117E+04-2.00491E+03-4.76660E+03 1.75011E+04 1.97215E-08-2.26976E-10
 -1       608 5.03123E+04-4.10925E+02-2.12506E+03 1.57839E+04 1.39398E-08 3.50758E-09
 -1       609 5.01168E+04-1.15484E+02-1.06811E+03 1.76250E+04 5.11591E-10 1.67654E-09
 -1       610 5.02300E+04 4.72767E+00-5.05850E+02 1.57702E+04-2.22735E-09 2.07581E-09
 -1       611 5.01923E+04 1.76033E+01-2.54536E+02 1.76400E+04-5.22095E-09 5.74119E-10
 -1       612 5.02121E+04 2.16675E+01-1.20309E+02 1.57687E+04-2.05364E-09-5.38762E-10
 -1       613 5.01980E+04 2.21633E+01-5.35714E+01 1.76419E+04-3.50451E-09 4.40309E-10
 -1       614 5.02041E+04 1.94172E+01-1.17014E+01 1.57683E+04-1.45246E-09-3.77327E-10
 -1       615 5.01968E+04 2.28059E+01 2.45766E+01 1.76421E+04 4.00541E-09 2.22553E-09
 -1       616 5.01977E+04 2.20298E+01 7.18268E+01 1.57684E+04-1.80944E-09-3.01986E-09
 -1       617 5.02067E+04 4.42494E+01 1.64210E+02 1.76415E+04 1.08503E-09-2.03704E-09
 -1       618 5.01833E+04 8.77346E+01 3.32313E+02 1.57688E+04 1.17279E-09 7.52607E-10
 -1       619 5.03172E+04 3.41691E+02 7.48959E+02 1.76384E+04 1.33736E-09-5.21140E-10
 -1       620 5.00810E+04 9.69055E+02 1.52034E+03 1.57706E+04 4.31896E-10-7.84439E-10
 -1       621 5.23811E+02 1.55016E+05 1.89127E+03-1.10220E+04-2.89901E-11-1.83451E-09
 -1       622 2.34772E+02 1.55402E+05 1.90614E+03-1.36492E+04 4.12228E-10 2.75509E-09
 -1       623 1.20695E+02 1.55075E+05 2.71809E+03-1.10268E+04 7.11680E-11-9.14042E-10
 -1       624 1.36859E+03 1.56284E+05 5.52668E+03-1.36002E+04 2.78533E-10-8.35371E-10
 -1       625 3.79881E+03 1.54142E+05 1.04604E+04-1.10700E+04 1.18916E-10-1.80739E-09
 -1       626 9.23111E+04 2.96258E+04-1.82783E+03 5.85017E+04-8.04448E-10 4.15639E-10
 -1       627 9.02993E+04 3.20473E+04-8.69271E+02 6.02008E+04 1.20053E-09 4.45209E-09
 -1       628 9.23883E+04 3.04508E+04-3.65394E+02 5.80076E+04 1.13960E-09 8.32415E-10
 -1       629 9.03732E+04 3.24687E+04-1.74171E+02 6.02347E+04 2.31103E-09 5.86653E-10
 -1       630 9.23846E+04 3.05049E+04-7.49068E+01 5.79641E+04 1.97906E-09-6.51056E-10
 -1       631 9.03703E+04 3.25018E+04-2.88009E+01 6.02389E+04-1.12959E-09-6.41705E-10
 -1       632 9.23772E+04 3.05072E+04 2.84002E+00 5.79582E+04 1.82126E-09 1.47566E-10
 -1       633 9.03680E+04 3.25043E+04 3.54222E+01 6.02385E+04-2.90129E-10 1.42722E-09
 -1       634 9.23707E+04 3.05040E+04 8.62688E+01 5.79567E+04 2.38310E-09 1.01489E-08
 -1       635 9.03766E+04 3.25060E+04 1.93545E+02 6.02404E+04-1.61890E-09-9.54969E-12
 -1       636 9.23620E+04 3.05100E+04 4.00612E+02 5.79514E+04-2.25080E-09-7.69205E-10
 -1       637 9.04691E+04 3.26040E+04 8.92272E+02 6.02269E+04 2.05520E-09-2.19370E-09
 -1       638 9.23375E+04 3.08086E+04 1.84626E+03 5.78201E+04-9.06061E-09 1.63936E-09
 -1       639 9.14123E+04 3.41888E+04 4.38842E+03 5.98474E+04-1.73509E-08 1.08244E-08
 -1       640 9.23475E+04 3.54296E+04 9.22698E+03 5.58930E+04-1.10240E-08 2.08593E-09
 -1       641-1.29207E+04 1.90631E+03-4.39453E+03-1.55668E+01 9.63879E-06-6.75891E-09
 -1       642-1.48280E+04-2.20636E+03-3.10976E+03 1.06322E+01 1.92597E-05-1.35108E-08
 -1       643-1.36557E+04 2.99621E+02-1.13333E+03-1.71324E+01 1.76975E-05-1.41634E-08
 -1       644-1.39712E+04-3.46012E+02-7.06539E+02 1.34035E+01 1.61279E-05-7.28090E-09
 -1       645-1.37775E+04 4.63240E+01-2.73821E+02-1.83386E+01 1.06591E-05-1.12288E-08
 -1       646-1.38267E+04-4.97594E+01-1.34595E+02 1.49552E+01 5.18531E-06-7.72992E-09
 -1       647-1.38003E+04 3.42054E+00-9.93213E+00-1.86842E+01-2.41551E-06 3.32764E-09
 -1       648-1.37879E+04 2.05983E+01 9.86704E+01 1.46852E+01-1.00213E-05 1.06851E-08
 -1       649-1.38163E+04-2.40250E+01 2.33336E+02-1.80687E+01-1.87073E-05 1.94936E-08
 -1       650-1.37000E+04 1.85587E+02 5.70352E+02 1.24965E+01-2.73916E-05 2.16150E-08
 -1       651-1.38881E+04-1.61546E+02 9.93268E+02-1.64954E+01-3.55353E-05 3.16211E-08
 -1       652-1.32084E+04 1.19474E+03 2.46144E+03 8.33479E+00-4.36688E-05 3.20196E-08
 -1       653-1.43079E+04-1.03299E+03 3.91780E+03-1.39070E+01-4.65946E-05 3.80485E-08
 -1       654-1.02540E+04 7.60468E+03 1.07247E+04 1.29828E+00-4.94965E-05 3.12663E-08
 -1       655-1.68421E+04-6.57024E+03 1.51481E+04-9.45915E+00-2.47658E-05 1.01336E-08
 -1       656 5.83121E+03-2.18458E+05-2.47636E+04 5.87010E+03-1.12686E-09 4.74802E-09
 -1       657-8.46996E+03-2.27632E+05-1.83706E+04 2.52370E+04-1.99543E-09 7.49753E-09
 -1       658 1.20396E+03-2.21640E+05-1.19564E+04 5.82352E+03-6.82093E-10-5.59169E-10
 -1       659-8.34169E+03-2.27572E+05-1.81559E+04 2.52645E+04-7.20320E-10-4.69736E-09
 -1       660 5.73481E+03-2.18534E+05-2.43564E+04 5.84286E+03-6.68479E-10-9.26889E-10
 -1       661 1.35610E+05 1.87955E+04 1.07640E+04 5.31678E+04 3.26975E-09 1.29785E-09
 -1       662 1.37920E+05 2.50543E+04 6.48215E+03 5.47577E+04 2.27507E-09 4.44879E-09
 -1       663 1.37263E+05 2.03996E+04 2.52635E+03 5.31763E+04-1.92601E-09 1.63971E-09
 -1       664 1.35986E+05 2.24549E+04 1.33318E+03 5.50619E+04 3.54177E-09 1.28978E-09
 -1       665 1.37422E+05 2.05456E+04 5.89991E+02 5.31824E+04 3.32084E-09 3.73518E-10
 -1       666 1.35801E+05 2.22388E+04 3.14013E+02 5.50752E+04 2.00803E-09 4.52830E-09
 -1       667 1.37440E+05 2.05601E+04 1.82850E+02 5.31837E+04-1.14255E-10 6.68503E-09
 -1       668 1.35785E+05 2.22240E+04 1.75643E+02 5.50759E+04 1.14937E-10-1.59976E-09
 -1       669 1.37439E+05 2.05578E+04 2.56354E+02 5.31828E+04-4.96232E-09 2.69247E-09
 -1       670 1.35818E+05 2.22554E+04 5.12771E+02 5.50803E+04-6.87101E-09-2.82478E-09
 -1       671 1.37409E+05 2.05308E+04 1.00359E+03 5.31791E+04-2.59888E-10 1.48373E-09
 -1       672 1.36136E+05 2.26305E+04 2.29195E+03 5.50609E+04 7.61884E-09 2.08030E-09
 -1       673 1.37135E+05 2.02775E+04 4.35179E+03 5.31673E+04 5.99016E-09-1.10958E-09
 -1       674 1.39469E+05 2.71139E+04 1.11736E+04 5.45393E+04 1.27762E-08 5.47516E-10
 -1       675 1.34285E+05 1.75111E+04 1.85554E+04 5.31519E+04 6.10021E-09-1.57434E-09
 -1       676 2.27685E+02-1.95133E+05-1.57311E+03-2.54591E+02-1.18042E-09 2.13937E-09
 -1       677-6.54989E+02-1.95752E+05-2.36386E+03-1.21516E+03-3.94405E-09 1.27974E-09
 -1       678 3.03248E+02-1.95051E+05-3.58312E+03-2.55458E+02-1.11584E-09 3.77476E-09
 -1       679-4.00255E+03-1.97782E+05-8.45279E+03-1.21077E+03-6.81439E-09 2.69011E-10
 -1       680 2.83635E+03-1.93104E+05-1.31689E+04-2.59395E+02-2.33467E-09-1.74296E-09
 -1       716-1.73462E-01-8.26987E-02 7.76168E+00-1.92425E-04 3.79939E-09-1.56270E-09
 -1       717 8.54207E-01 6.22942E-01 1.36698E+01 4.89920E-04-1.82736E-09-3.18904E-10
 -1       718-6.80759E-01-5.40471E-01 2.53674E+01-2.97403E-04-7.76738E-10-1.56337E-09
 -1       719 4.03350E+00 4.24322E+00 5.26166E+01-4.44440E-04 1.51552E-09-5.37034E-10
 -1       720-3.35280E+00-3.70321E+00 1.00354E+02 7.42371E-04-1.16092E-09-1.38907E-09
 -1       721 2.08759E+01 2.82728E+01 2.14475E+02-1.56734E-02-7.29333E-12-1.28463E-09
 -1       722-1.75232E+01-2.45691E+01 4.01425E+02 1.49293E-02-3.56921E-09-9.74097E-10
 -1       723 1.13500E+02 1.84482E+02 8.84200E+02-1.50403E-01-1.21233E-10-1.25350E-09
 -1       724-9.59754E+01-1.59895E+02 1.60114E+03 1.35438E-01-2.53696E-09-1.63305E-09
 -1       725 6.42890E+02 1.18877E+03 3.69014E+03-1.15666E+00-2.83277E-09-1.44212E-09
 -1       726-5.46868E+02-1.02869E+03 6.34888E+03 1.02093E+00-1.51552E-09-1.19599E-09
 -1       727 3.76181E+03 7.60169E+03 1.56734E+04-8.13629E+00-3.95548E-09-1.59162E-10
 -1       728-3.21407E+03-6.57153E+03 2.49351E+04 7.11408E+00-1.29159E-09-1.25510E-09
 -1       729 2.25516E+04 4.83789E+04 6.82328E+04-5.47251E+01 4.91099E-10-1.49157E-10
 -1       730-1.93227E+04-4.17946E+04 9.64086E+04 4.76153E+01 2.98550E-09-2.01544E-09
 -1       766-4.18036E+04-1.93489E+04 9.63904E+04-4.08702E+01-1.38243E-10 5.72712E-10
 -1       767 4.84482E+04 2.25943E+04 6.82273E+04 1.24347E+01 3.46790E-09-1.62800E-09
 -1       768-6.63200E+03-3.26483E+03 2.48536E+04 4.66631E+00-1.80080E-10-2.80426E-10
 -1       769 8.04431E+03 3.96456E+03 1.56786E+04-3.91511E+01 2.39379E-09 2.85632E-09
 -1       770-1.41069E+03-7.32989E+02 5.98891E+03 1.07197E+01-2.75577E-10 1.09306E-09
 -1       771-1.21407E+06-2.32143E+05-3.37443E+04-5.19401E+05-1.67165E-09-8.07631E-10
 -1       772-1.20885E+06-2.38179E+05-1.69905E+04-5.36691E+05-1.06957E-09 7.32143E-11
 -1       773-1.21642E+06-2.22510E+05-7.25162E+03-5.23750E+05 6.83940E-10 6.96673E-10
 -1       774-1.20483E+06-2.34348E+05-3.54893E+03-5.37688E+05 1.78807E-09-5.32964E-10
 -1       775-1.21687E+06-2.22090E+05-1.66127E+03-5.23983E+05 3.20142E-09 6.37374E-09
 -1       776-1.20471E+06-2.34201E+05-8.31153E+02-5.37908E+05-6.25732E-10 9.02219E-10
 -1       777-1.21709E+06-2.21997E+05-4.58988E+02-5.24055E+05-3.61979E-10 7.13953E-11
 -1       778-1.20479E+06-2.34175E+05-3.45533E+02-5.38064E+05-2.00089E-11 3.53594E-10
 -1       779-1.21721E+06-2.21915E+05-4.32473E+02-5.24105E+05-8.34916E-10-2.50111E-12
 -1       780-1.20490E+06-2.34160E+05-7.79283E+02-5.38179E+05-1.40517E-09-1.14915E-09
 -1       781-1.21725E+06-2.21842E+05-1.53854E+03-5.24132E+05-3.71074E-10-1.78716E-10
 -1       782-1.20518E+06-2.34287E+05-3.33134E+03-5.38253E+05 1.39062E-09 1.22418E-09
 -1       783-1.21708E+06-2.22060E+05-6.78292E+03-5.23979E+05-5.69628E-10-3.21961E-10
 -1       784-1.20888E+06-2.38164E+05-1.59937E+04-5.37881E+05-9.08699E-10-7.09406E-10
 -1       785-1.21531E+06-2.30771E+05-3.17147E+04-5.19678E+05 5.54337E-10 3.39242E-10
 -1       786 1.22236E+05-4.03900E+03 1.48058E+04-5.70358E+02 7.04290E-11 3.53793E-09
 -1       787 1.27781E+05 5.14530E+03 9.67227E+03-3.33515E+03-2.65175E-11 5.15683E-10
 -1       788 1.24524E+05-4.51736E+02 3.84449E+03-5.68312E+02-1.20053E-10-1.13300E-09
 -1       789 1.25211E+05 5.61642E+02 2.18698E+03-3.33477E+03 3.64707E-10-3.86967E-09
 -1       790 1.24804E+05-5.15719E+01 9.79195E+02-5.70631E+02-1.16529E-11 5.25517E-10
 -1       791 1.24892E+05 6.08795E+01 5.31909E+02-3.33156E+03 2.92154E-10 2.76607E-09
 -1       792 1.24842E+05-6.45786E+00 2.70294E+02-5.71515E+02-1.27107E-10-2.65160E-10
 -1       793 1.24852E+05 9.06469E+00 1.81662E+02-3.33151E+03 2.32603E-10-2.22014E-09
 -1       794 1.24845E+05-3.55266E+00 1.68108E+02-5.70684E+02-1.86816E-10 1.32195E-09
 -1       795 1.24865E+05 2.70394E+01 2.59690E+02-3.33503E+03 5.70665E-10 7.55449E-11
 -1       796 1.24830E+05-2.30968E+01 4.44081E+02-5.68000E+02-4.13536E-10-1.29384E-09
 -1       797 1.25005E+05 2.47161E+02 9.71172E+02-3.34122E+03 2.08047E-10-2.51953E-09
 -1       798 1.24706E+05-1.99845E+02 1.69901E+03-5.64488E+02-5.31031E-10-4.05635E-10
 -1       799 1.26140E+05 2.26914E+03 4.26916E+03-3.34260E+03-3.63855E-10 4.79361E-10
 -1       800 1.23697E+05-1.78305E+03 6.53254E+03-5.66698E+02 8.83347E-11-3.50610E-10
 -1       801-7.55500E+03 1.65848E+05 2.25170E+04-1.26224E+05 6.61203E-09-6.63931E-09
 -1       802 1.81989E+04 1.73512E+05 2.90824E+04-7.24409E+05 1.98706E-08-2.38015E-09
 -1       803-2.32506E+03 1.65455E+05 3.47916E+04-1.25895E+05 1.25638E-08 4.76336E-09
 -1       804 4.83388E+04 1.90783E+05 7.90592E+04-7.24360E+05 2.02454E-08 7.50242E-09
 -1       805-3.39993E+04 1.48943E+05 1.15141E+05-1.26280E+05 6.27188E-09 7.35963E-09
 -1       806-1.05886E+05-3.22845E+04-9.59107E+03-5.39265E+04 7.48912E-10-4.09273E-10
 -1       807-1.05562E+05-3.03451E+04-4.56108E+03-5.73013E+04 1.74623E-10 3.22132E-10
 -1       808-1.05872E+05-2.74883E+04-1.91952E+03-5.59451E+04-2.42539E-09-8.28766E-09
 -1       809-1.04600E+05-2.86824E+04-9.28129E+02-5.76857E+04 9.99307E-11-1.80174E-09
 -1       810-1.05900E+05-2.71768E+04-4.18993E+02-5.60853E+04-3.16652E-09-6.99868E-09
 -1       811-1.04508E+05-2.85784E+04-2.06919E+02-5.76998E+04-2.07933E-10 5.36033E-10
 -1       812-1.05908E+05-2.71702E+04-1.02008E+02-5.60908E+04-2.64217E-09-6.64181E-09
 -1       813-1.04498E+05-2.85770E+04-6.33470E+01-5.76964E+04 2.50509E-10 4.03588E-10
 -1       814-1.05908E+05-2.71734E+04-5.75673E+01-5.60895E+04 1.11186E-10-5.96401E-10
 -1       815-1.04499E+05-2.85797E+04-8.89569E+01-5.76943E+04 9.06084E-11-5.94127E-10
 -1       816-1.05901E+05-2.71788E+04-1.65917E+02-5.60858E+04-1.26988E-09-1.86901E-10
 -1       817-1.04536E+05-2.86162E+04-3.60669E+02-5.76801E+04 7.76708E-10 3.29146E-09
 -1       818-1.05883E+05-2.73065E+04-7.42784E+02-5.60351E+04-3.59705E-10-9.91349E-10
 -1       819-1.04949E+05-2.92139E+04-1.76260E+03-5.74760E+04 2.63753E-11-8.69250E-10
 -1       820-1.05841E+05-2.92003E+04-3.70536E+03-5.52995E+04 3.35513E-09 7.44672E-09
 -1       821-1.45495E+05 5.00611E+03-1.83563E+04 6.86603E+02-1.78352E-09 1.61253E-09
 -1       822-1.52364E+05-6.37876E+03-1.19918E+04 4.14066E+03-9.58778E-10 1.01772E-09
 -1       823-1.48332E+05 5.59194E+02-4.76854E+03 6.62398E+02 1.41620E-09-1.95291E-09
 -1       824-1.49183E+05-6.93444E+02-2.71495E+03 4.17412E+03-1.48418E-10-3.36541E-09
 -1       825-1.48679E+05 6.40117E+01-1.22245E+03 6.52961E+02-3.11582E-09 8.74138E-10
 -1       826-1.48792E+05-7.14696E+01-6.76405E+02 4.18944E+03-5.07700E-09-1.36600E-09
 -1       827-1.48725E+05 9.03406E+00-3.68969E+02 6.47034E+02-3.30289E-09-7.56884E-10
 -1       828-1.48747E+05-9.77919E+00-2.95467E+02 4.19872E+03-3.17522E-09-2.36810E-10
 -1       829-1.48726E+05 8.59214E+00-3.44424E+02 6.43677E+02-8.92513E-10-1.17669E-09
 -1       830-1.48788E+05-6.25044E+01-6.11421E+02 4.20242E+03 1.61541E-09-5.19407E-12
 -1       831-1.48686E+05 5.79583E+01-1.09417E+03 6.43336E+02-2.44984E-09-7.49708E-10
 -1       832-1.49138E+05-6.16506E+02-2.42442E+03 4.20004E+03-3.55101E-10-1.08386E-09
 -1       833-1.48376E+05 5.00206E+02-4.25493E+03 6.46101E+02-6.29683E-10-1.55069E-09
 -1       834-1.51978E+05-5.68842E+03-1.07000E+04 4.18596E+03 1.10174E-09-1.17927E-09
 -1       835-1.45845E+05 4.46831E+03-1.63772E+04 6.57765E+02 2.04409E-10-1.78352E-09
 -1       836-1.63930E+03 2.31552E+05 1.84908E+04-1.32133E+04-2.08365E-09 1.42541E-09
 -1       837 4.33221E+03 2.37460E+05 1.42083E+04-2.86631E+04-1.68825E-09 5.09431E-10
 -1       838-4.05433E+02 2.33507E+05 1.20983E+04-1.31757E+04-2.58046E-09 4.83347E-09
 -1       839 7.26966E+03 2.39571E+05 2.08406E+04-2.86642E+04-2.00544E-09 2.59797E-09
 -1       840-2.95866E+03 2.29439E+05 3.18365E+04-1.32118E+04-2.34650E-09 2.52226E-09
 -1       841 4.15146E+04 6.02431E+03-4.87565E+02 1.54777E+04-1.14290E-05 4.28660E-06
 -1       842 4.11949E+04 5.64242E+03-3.36464E+02 1.56391E+04-2.28428E-05 8.57383E-06
 -1       843 4.14060E+04 5.86058E+03-1.12402E+02 1.55246E+04-1.82089E-05 6.83473E-06
 -1       844 4.13251E+04 5.82819E+03-6.66614E+01 1.55800E+04-1.35550E-05 5.09194E-06
 -1       845 4.13844E+04 5.83858E+03-1.77222E+01 1.55368E+04-9.60841E-06 3.60719E-06
 -1       846 4.13543E+04 5.85437E+03 4.92150E+00 1.55630E+04-5.66285E-06 2.12699E-06
 -1       847 4.13767E+04 5.83441E+03 3.23091E+01 1.55415E+04-3.50805E-06 1.31583E-06
 -1       848 4.13756E+04 5.87709E+03 8.87035E+01 1.55542E+04-1.35046E-06 5.07269E-07
 -1       849 4.13631E+04 5.81586E+03 1.66415E+02 1.55456E+04-4.03495E-07 1.50465E-07
 -1       850 4.14618E+04 6.01672E+03 4.22268E+02 1.55305E+04 5.42398E-07-2.03809E-07
 -1       851 4.12905E+04 5.69479E+03 7.29649E+02 1.55652E+04 5.92637E-07-2.23552E-07
 -1       852 4.19786E+04 6.90455E+03 1.97048E+03 1.53750E+04 6.44029E-07-2.44483E-07
 -1       853 4.08462E+04 4.92815E+03 3.15126E+03 1.57011E+04-1.37182E-07 5.31655E-08
 -1       854 4.51662E+04 1.25265E+04 9.34435E+03 1.43272E+04-9.23829E-07 3.48554E-07
 -1       855 3.81030E+04 7.37850E+01 1.34500E+04 1.66127E+04-4.59857E-07 1.72751E-07
 -1       856-1.15755E+05 1.75048E+03-1.39408E+04 4.21731E+03-1.48998E-09 8.91305E-11
 -1       857-1.20310E+05-3.36901E+03-8.51495E+03 1.00737E+04-2.85218E-09 2.15323E-09
 -1       858-1.17723E+05 1.60825E+02-3.57925E+03 4.17345E+03-2.69847E-09-8.72433E-10
 -1       859-1.18170E+05-2.39661E+02-1.92608E+03 1.01228E+04 6.03563E-10-4.71118E-10
 -1       860-1.17910E+05 2.39873E+01-9.03596E+02 4.16755E+03 1.63641E-09-1.75987E-10
 -1       861-1.17969E+05-9.39897E-01-4.75264E+02 1.01303E+04-2.05091E-09-1.38112E-09
 -1       862-1.17933E+05 1.05115E+01-2.47885E+02 4.16581E+03 3.85967E-09-2.98280E-09
 -1       863-1.17947E+05 1.68215E+01-1.63745E+02 1.01322E+04 1.39626E-08-2.25702E-09
 -1       864-1.17935E+05 9.37306E+00-1.53633E+02 4.16562E+03 7.05265E-09-2.09138E-09
 -1       865-1.17953E+05 9.70558E+00-2.31343E+02 1.01306E+04 5.54249E-09-5.72783E-10
 -1       866-1.17925E+05 1.43995E+01-4.07950E+02 4.16743E+03-7.51811E-10-2.67275E-09
 -1       867-1.18038E+05-9.61769E+01-8.51189E+02 1.01240E+04-3.27532E-10-4.35694E-10
 -1       868-1.17842E+05 7.31590E+01-1.57464E+03 4.17228E+03-7.71024E-10-5.85487E-12
 -1       869-1.18973E+05-1.47188E+03-3.73968E+03 1.00776E+04-3.49382E-09 5.96827E-10
 -1       870-1.16976E+05 7.69014E+02-6.12249E+03 4.21419E+03 1.97247E-09 1.01591E-09
 -1       871-2.07083E+03-1.85687E+04-4.74796E+03 6.36645E+04 8.04448E-10-3.88354E-10
 -1       872-7.11310E+02-1.95181E+04-1.57591E+03 7.76435E+04-1.97952E-09-1.72099E-09
 -1       873 4.25818E+00-1.91265E+04 1.02364E+03 6.35345E+04 9.14270E-10 1.48657E-09
 -1       874 1.21404E+03-1.81126E+04 4.37546E+03 7.76845E+04-1.21872E-09 6.57167E-10
 -1       875 3.68337E+03-2.00074E+04 9.41353E+03 6.36275E+04 3.10592E-10-1.36879E-10
 -1       876 1.81393E+05 2.59977E+04 1.60361E+04 7.19419E+04-2.95586E-10-5.18412E-10
 -1       877 1.84388E+05 3.48460E+04 9.53055E+03 7.47756E+04-2.51021E-09-3.60865E-09
 -1       878 1.83769E+05 2.79966E+04 3.75170E+03 7.20723E+04 3.77372E-09-1.74100E-09
 -1       879 1.81585E+05 3.12079E+04 1.95924E+03 7.51715E+04 6.91722E-09-3.84262E-10
 -1       880 1.83984E+05 2.81766E+04 8.70963E+02 7.20914E+04 3.39321E-09-9.62245E-10
 -1       881 1.81333E+05 3.09223E+04 4.55323E+02 7.51780E+04-7.56415E-10 4.88396E-09
 -1       882 1.84005E+05 2.81973E+04 2.54361E+02 7.20957E+04 1.45138E-09 4.61853E-10
 -1       883 1.81311E+05 3.09003E+04 2.23783E+02 7.51729E+04-8.40303E-09-1.98341E-10
 -1       884 1.84003E+05 2.81973E+04 3.06822E+02 7.20961E+04-3.73469E-09 1.14738E-09
 -1       885 1.81346E+05 3.09285E+04 5.96241E+02 7.51759E+04 4.35047E-09 9.86802E-11
 -1       886 1.83971E+05 2.81715E+04 1.16609E+03 7.20919E+04-3.43221E-10 4.67685E-09
 -1       887 1.81689E+05 3.13112E+04 2.63716E+03 7.51627E+04-5.90637E-09 2.10821E-09
 -1       888 1.83678E+05 2.79305E+04 5.05541E+03 7.20666E+04-4.92830E-09 2.51407E-09
 -1       889 1.85459E+05 3.62241E+04 1.28461E+04 7.46366E+04 5.30732E-09 2.20166E-09
 -1       890 1.80483E+05 2.52278E+04 2.16157E+04 7.18798E+04 2.47223E-09 5.08226E-09
 -1       891 2.86326E+02-8.60229E+04-3.45303E+03 1.93230E+04 1.57752E-09-1.76215E-10
 -1       892-8.35813E+02-8.71063E+04-2.58654E+03 4.20439E+04 1.87879E-09 2.70177E-10
 -1       893 5.67123E+01-8.64079E+04-2.10425E+03 1.92691E+04 3.77645E-09-7.78186E-10
 -1       894-1.24793E+03-8.73923E+04-3.50944E+03 4.20298E+04 1.89061E-09-7.78130E-09
 -1       895 4.63972E+02-8.57226E+04-5.31158E+03 1.93370E+04 1.35833E-09 1.13232E-09
 -1       926-2.77756E+02-5.42030E+02 1.24628E+03 1.72972E+01 4.34544E-10-5.59112E-10
 -1       927 3.17038E+02 6.27710E+02 9.00946E+02-6.85419E+01-1.47101E-09-7.63464E-10
 -1       928-6.28520E+01-8.56963E+01 3.44815E+02 1.69476E+01-9.04254E-12-3.60302E-10
 -1       929 6.50732E+01 1.02664E+02 2.59695E+02-6.81772E+01 9.86084E-10-4.09813E-10
 -1       930-2.58640E+01-1.70337E+01 1.82577E+02 1.69324E+01 1.59215E-11-1.87582E-10
 -1       931 3.28084E+01 4.40021E+01 2.68056E+02-6.81570E+01-1.52688E-09-1.41029E-10
 -1       932-3.06444E+01-2.70066E+01 4.28589E+02 1.69273E+01-1.62447E-06 4.65263E-11
 -1       933 1.13933E+02 1.90026E+02 9.12405E+02-6.81395E+01-3.24635E-06-2.43290E-11
 -1       934-1.07027E+02-1.63014E+02 1.63488E+03 1.69149E+01-2.23219E-06-1.16870E-10
 -1       935 6.48016E+02 1.21037E+03 3.75947E+03-6.80637E+01-1.21607E-06 2.44995E-11
 -1       936-5.64703E+02-1.04717E+03 6.46436E+03 1.68515E+01-5.73803E-07 4.04725E-11
 -1       937 3.82186E+03 7.73846E+03 1.59560E+04-6.78805E+01 7.05028E-08 2.52840E-10
 -1       938-3.28002E+03-6.68970E+03 2.53838E+04 1.67319E+01 1.12364E-07-4.18368E-11
 -1       939 2.29518E+04 4.92497E+04 6.94608E+04-7.04871E+01 1.47326E-07 8.73115E-11
 -1       940-1.96801E+04-4.25471E+04 9.81419E+04 1.94575E+01 7.20833E-08 5.23869E-10
 -1       956-1.63980E+05-3.02420E+03-7.04583E+03 2.01047E+04-2.39925E-09 7.63066E-10
 -1       957-1.65332E+05-9.86232E+02-3.59147E+03 2.38426E+04-1.22964E-09 3.94652E-09
 -1       958-1.64588E+05-9.17570E+01-1.61728E+03 1.99832E+04 2.09093E-09-1.44928E-09
 -1       959-1.64705E+05-1.19303E+01-8.24365E+02 2.39750E+04-1.51795E-09-2.50475E-09
 -1       960-1.64649E+05 2.79104E+01-4.00598E+02 1.99715E+04-3.29965E-09-3.64980E-09
 -1       961-1.64661E+05 2.94243E+01-2.10494E+02 2.39880E+04-6.19548E-09 1.41222E-09
 -1       962-1.64663E+05 2.74172E+01-1.16847E+02 1.99701E+04-2.79738E-09-4.82032E-10
 -1       963-1.64662E+05 3.15116E+01-8.73465E+01 2.39898E+04-4.67264E-09 1.12823E-09
 -1       964-1.64667E+05 2.90193E+01-9.81389E+01 1.99696E+04-1.21520E-09-1.87151E-09
 -1       965-1.64668E+05 3.34933E+01-1.63057E+02 2.39896E+04 3.60822E-09-4.54747E-11
 -1       966-1.64662E+05 3.26270E+01-3.02453E+02 1.99703E+04-1.33366E-09-2.57364E-09
 -1       967-1.64707E+05 5.75991E+00-6.19032E+02 2.39819E+04 6.70752E-12 8.35144E-10
 -1       968-1.64621E+05-5.42305E+01-1.21226E+03 1.99774E+04-5.38284E-09 1.12323E-10
 -1       969-1.65182E+05-7.22251E+02-2.69229E+03 2.39002E+04-1.02536E-08-8.81130E-10
 -1       970-1.64168E+05-2.25116E+03-5.28101E+03 2.00534E+04-5.38785E-09-4.54293E-10
 -1       971-2.09452E+05 5.93748E+02-9.20330E+03 5.52933E+03-3.15686E-09-4.83396E-10
 -1       972-2.12280E+05-1.91224E+03-5.47915E+03 1.11591E+04-4.20096E-09-2.36150E-09
 -1       973-2.10698E+05 6.34466E+01-2.34738E+03 5.46865E+03-1.75646E-09-9.67930E-10
 -1       974-2.10944E+05-1.08098E+02-1.24896E+03 1.12279E+04 2.09718E-09-1.60662E-09
 -1       975-2.10807E+05 1.63452E+01-6.02690E+02 5.46002E+03 1.07320E-09-6.20503E-10
 -1       976-2.10834E+05 1.12763E+01-3.34001E+02 1.12397E+04-4.89098E-09 3.30260E-10
 -1       977-2.10821E+05 1.19218E+01-2.12415E+02 5.45672E+03 1.04126E-09-2.05449E-09
 -1       978-2.10828E+05 1.94688E+01-2.10220E+02 1.12442E+04 5.16917E-09-3.56152E-09
 -1       979-2.10820E+05 1.38790E+01-3.04145E+02 5.45557E+03-5.87974E-12-2.63628E-09
 -1       980-2.10853E+05 7.00095E+00-5.70602E+02 1.12440E+04 2.99622E-10-3.76704E-09
 -1       981-2.10797E+05 2.61441E+01-1.08607E+03 5.45684E+03-1.77192E-09-1.36394E-09
 -1       982-2.11066E+05-2.07832E+02-2.28634E+03 1.12378E+04 7.87566E-10-1.91008E-10
 -1       983-2.10601E+05 1.17516E+02-4.31013E+03 5.46197E+03-1.51431E-10-1.31286E-09
 -1       984-2.13537E+05-3.52077E+03-1.00754E+04 1.11874E+04-4.14468E-09 1.72065E-09
 -1       985-2.08313E+05 1.09897E+03-1.69225E+04 5.50856E+03 1.04319E-09-2.90038E-09
 -3
    1PSTEP                         7           4           1          
  100CL  104 3.90625E-01         608                     0    4           1
 -4  DISP        4    1
 -5  D1          1    2    1    0
 -5  D2          1    2    2    0
 -5  D3          1    2    3    0
 -5  ALL         1    2    0    0    1ALL
 -1         1 6.26636E-05 0.00000E+00 0.00000E+00
 -1         2 5.13847E-05 0.00000E+00 0.00000E+00
 -1         3 3.75579E-05 0.00000E+00 0.00000E+00
 -1         4 3.38105E-05 0.00000E+00 0.00000E+00
 -1         5 3.19767E-05 0.00000E+00 0.00000E+00
 -1         8 5.02245E-05-5.82656E-07 0.00000E+00
 -1         9 3.67413E-05-3.02139E-07 0.00000E+00
 -1        10 3.82659E-05-1.20711E-06 0.00000E+00
 -1        11 3.47800E-05-2.05238E-07 0.00000E+00
 -1        12 3.13166E-05 4.85659E-07 0.00000E+00
 -1        15 3.67370E-05-6.14378E-07 0.00000E+00
 -1        16 3.00980E-05-3.73351E-07 0.00000E+00
 -1        17 2.83602E-05-2.49285E-06 0.00000E+00
 -1        18 2.85692E-05-4.02468E-07 0.00000E+00
 -1        19 2.94620E-05 9.65576E-07 0.00000E+00
 -1        20 2.97539E-05 1.15134E-05 0.00000E+00
 -1        21 2.96651E-05 2.52183E-05 0.00000E+00
 -1        23 1.07511E-05-3.97981E-05-4.03897E-28
 -1        24 1.06819E-05-3.00471E-06 0.00000E+00
 -1        25 2.66323E-05-2.60212E-07 0.00000E+00
 -1        26 2.73535E-05 1.30044E-06 0.00000E+00
 -1        27 2.64943E-05 1.10398E-05 0.00000E+00
 -1        28 2.58075E-05 2.47944E-05 0.00000E+00
 -1        31 3.09160E-08-3.04234E-06 0.00000E+00
 -1        32 0.00000E+00 0.00000E+00 0.00000E+00
 -1        33 2.49814E-05 1.79731E-06 0.00000E+00
 -1        34 2.40236E-05 1.09961E-05 0.00000E+00
 -1        35 2.27975E-05 2.46071E-05 0.00000E+00
 -1        36 6.19801E-05-1.52454E-19 1.32349E-23
 -1        37 6.12749E-05 9.94309E-20 0.00000E+00
 -1        38 6.05710E-05 3.18694E-19-2.64698E-23
 -1        39 5.98630E-05 4.91902E-20 0.00000E+00
 -1        40 5.91549E-05-1.97756E-19 0.00000E+00
 -1        41 5.84460E-05-7.54143E-20 0.00000E+00
 -1        42 5.77370E-05 2.71045E-19 2.64698E-23
 -1        43 5.70278E-05 4.21593E-19-1.32349E-23
 -1        44 5.63187E-05 2.78420E-19 0.00000E+00
 -1        45 5.56096E-05-7.56705E-21 0.00000E+00
 -1        46 5.49006E-05 1.30972E-20-2.64698E-23
 -1        47 5.41923E-05 2.33099E-19-1.32349E-23
 -1        48 5.34841E-05 4.15057E-19-2.64698E-23
 -1        49 5.27792E-05 4.47002E-19 0.00000E+00
 -1        50 5.20731E-05 2.71672E-19 0.00000E+00
 -1        51 6.17393E-05-9.75955E-08 0.00000E+00
 -1        52 6.01901E-05-1.92134E-07 0.00000E+00
 -1        53 5.81372E-05-2.86461E-07 0.00000E+00
 -1        54 5.57070E-05-3.81696E-07 0.00000E+00
 -1        55 5.30269E-05-4.78932E-07-2.37814E-24
 -1        56 6.13462E-05-6.73391E-07 0.00000E+00
 -1        57 6.00862E-05-1.65839E-06-1.32349E-23
 -1        58 5.88956E-05-2.81840E-06-5.29396E-23
 -1        59 5.77151E-05-4.03390E-06 0.00000E+00
 -1        60 5.65041E-05-5.16798E-06 5.29396E-23
 -1        61 5.52122E-05-6.09149E-06 0.00000E+00
 -1        62 5.38065E-05-6.71167E-06 0.00000E+00
 -1        63 5.22573E-05-6.95031E-06 2.64698E-23
 -1        64 5.05605E-05-6.79575E-06 5.29396E-23
 -1        65 4.87185E-05-6.25429E-06 0.00000E+00
 -1        66 4.67590E-05-5.40013E-06 0.00000E+00
 -1        67 4.47168E-05-4.32119E-06 2.64698E-23
 -1        68 4.26383E-05-3.14568E-06 5.29396E-23
 -1        69 4.05822E-05-2.00232E-06 0.00000E+00
 -1        70 3.85837E-05-1.02175E-06 2.64698E-23
 -1        86 5.05644E-05-5.40394E-08 0.00000E+00
 -1        87 4.81647E-05-1.01417E-07 1.65436E-24
 -1        88 4.48824E-05-1.51719E-07-3.30872E-24
 -1        89 4.14162E-05-2.02075E-07-1.65436E-24
 -1        90 3.84686E-05-2.50421E-07-3.30872E-24
 -1        91 5.06310E-05-1.97030E-07-1.32349E-23
 -1        92 4.98012E-05-2.49737E-07 0.00000E+00
 -1        93 4.89572E-05-2.60602E-07 0.00000E+00
 -1        94 4.81361E-05-3.43123E-07 1.32349E-23
 -1        95 4.73253E-05-4.53185E-07 0.00000E+00
 -1        96 4.65077E-05-5.47271E-07 0.00000E+00
 -1        97 4.56831E-05-6.22807E-07 0.00000E+00
 -1        98 4.48509E-05-6.78133E-07 0.00000E+00
 -1        99 4.40253E-05-7.51173E-07 0.00000E+00
 -1       100 4.32204E-05-8.79241E-07 0.00000E+00
 -1       101 4.24060E-05-9.81690E-07 2.64698E-23
 -1       102 4.15528E-05-9.78426E-07 0.00000E+00
 -1       103 4.07156E-05-1.01764E-06-2.64698E-23
 -1       104 3.99532E-05-1.24434E-06 0.00000E+00
 -1       105 3.91615E-05-1.39729E-06 1.32349E-23
 -1       106 3.73246E-05-1.08612E-19 6.61744E-24
 -1       107 3.70900E-05 2.32027E-19 0.00000E+00
 -1       108 3.68555E-05 8.50289E-19-6.61744E-24
 -1       109 3.66207E-05 1.04847E-18-3.30872E-24
 -1       110 3.63860E-05 1.04125E-18 6.61744E-24
 -1       111 3.61512E-05 6.63214E-19 0.00000E+00
 -1       112 3.59163E-05 2.59583E-20 6.61744E-24
 -1       113 3.56815E-05-1.65045E-19 3.30872E-24
 -1       114 3.54467E-05-3.27859E-20 0.00000E+00
 -1       115 3.52119E-05 5.61952E-19 3.30872E-24
 -1       116 3.49772E-05 1.09494E-18-6.61744E-24
 -1       117 3.47426E-05 1.11875E-18 3.30872E-24
 -1       118 3.45080E-05 9.08435E-19 0.00000E+00
 -1       119 3.42743E-05 5.75743E-19 3.30872E-24
 -1       120 3.40402E-05 2.21240E-19-6.61744E-24
 -1       121 3.77070E-05-2.01094E-07 0.00000E+00
 -1       122 3.80283E-05-4.02160E-07 0.00000E+00
 -1       123 3.83835E-05-6.03248E-07-6.61744E-24
 -1       124 3.86337E-05-8.04372E-07 0.00000E+00
 -1       125 3.86404E-05-1.00547E-06 0.00000E+00
 -1       141 3.36945E-05-1.36651E-19-3.30872E-24
 -1       142 3.35789E-05-4.66991E-19-1.65436E-24
 -1       143 3.34634E-05-7.68041E-19 0.00000E+00
 -1       144 3.33479E-05-9.70201E-19 0.00000E+00
 -1       145 3.32324E-05-1.25308E-18 3.30872E-24
 -1       146 3.31170E-05-1.20534E-18-1.65436E-24
 -1       147 3.30016E-05-8.80928E-19 0.00000E+00
 -1       148 3.28862E-05-4.79022E-19-1.65436E-24
 -1       149 3.27708E-05-1.25498E-19 0.00000E+00
 -1       150 3.26554E-05-1.53175E-19 0.00000E+00
 -1       151 3.25401E-05-6.33663E-19 3.30872E-24
 -1       152 3.24251E-05-1.08720E-18 0.00000E+00
 -1       153 3.23102E-05-1.14532E-18 0.00000E+00
 -1       154 3.21967E-05-7.77796E-19 0.00000E+00
 -1       155 3.20827E-05-1.81043E-19-4.13590E-25
 -1       156 3.40069E-05-3.64952E-08-3.30872E-24
 -1       157 3.45942E-05-6.94298E-08 0.00000E+00
 -1       158 3.52563E-05-1.02680E-07-1.65436E-24
 -1       159 3.56766E-05-1.35781E-07 0.00000E+00
 -1       160 3.56020E-05-1.68554E-07-3.30872E-24
 -1       161 3.37044E-05-1.04994E-07 0.00000E+00
 -1       162 3.36409E-05-3.23697E-07 0.00000E+00
 -1       163 3.35677E-05-5.16462E-07 0.00000E+00
 -1       164 3.34325E-05-5.43771E-07 0.00000E+00
 -1       165 3.32388E-05-4.15214E-07 3.30872E-24
 -1       166 3.29905E-05-1.41292E-07 0.00000E+00
 -1       167 3.27421E-05 1.33043E-07 3.30872E-24
 -1       168 3.25480E-05 2.62842E-07 0.00000E+00
 -1       169 3.24128E-05 2.35516E-07 0.00000E+00
 -1       170 3.23410E-05 3.94124E-08-1.65436E-24
 -1       171 3.22792E-05-1.83664E-07-3.30872E-24
 -1       172 3.21747E-05-2.91644E-07 1.65436E-24
 -1       173 3.20129E-05-2.46797E-07 0.00000E+00
 -1       174 3.17814E-05-1.16076E-08 0.00000E+00
 -1       175 3.15292E-05 2.76921E-07-8.27181E-25
 -1       191 3.19557E-05 8.09207E-08 3.30872E-24
 -1       192 3.18987E-05 1.61896E-07-1.65436E-24
 -1       193 3.18056E-05 2.42883E-07 0.00000E+00
 -1       194 3.16771E-05 3.23861E-07 0.00000E+00
 -1       195 3.15138E-05 4.04809E-07 0.00000E+00
 -1       266 4.79766E-05-5.96512E-07 0.00000E+00
 -1       267 4.57287E-05-6.00750E-07-8.27181E-25
 -1       268 4.34808E-05-6.05612E-07 8.27181E-25
 -1       269 4.12329E-05-6.08654E-07 2.06795E-25
 -1       270 3.89850E-05-6.11661E-07 0.00000E+00
 -1       271 4.84093E-05 1.02138E-06 0.00000E+00
 -1       272 4.67277E-05 2.16007E-06 0.00000E+00
 -1       273 4.52019E-05 2.88803E-06 2.64698E-23
 -1       274 4.38081E-05 3.24847E-06 1.32349E-23
 -1       275 4.25323E-05 3.29312E-06 2.64698E-23
 -1       276 4.13538E-05 3.07548E-06 1.32349E-23
 -1       277 4.02522E-05 2.65256E-06-2.64698E-23
 -1       278 3.92051E-05 2.08355E-06 1.32349E-23
 -1       279 3.81900E-05 1.42941E-06 0.00000E+00
 -1       280 3.71836E-05 7.52111E-07-1.32349E-23
 -1       281 3.61628E-05 1.13821E-07-2.64698E-23
 -1       282 3.51051E-05-4.23594E-07 0.00000E+00
 -1       283 3.39874E-05-7.99698E-07-2.64698E-23
 -1       284 3.27917E-05-9.54404E-07 0.00000E+00
 -1       285 3.14916E-05-8.33631E-07-2.64698E-23
 -1       286 3.68246E-05 5.20577E-07 0.00000E+00
 -1       287 3.69204E-05 8.18734E-07 0.00000E+00
 -1       288 3.70154E-05 7.93341E-07 0.00000E+00
 -1       289 3.71127E-05 6.43873E-07 1.65436E-24
 -1       290 3.72101E-05 4.18081E-07 0.00000E+00
 -1       291 3.73079E-05 1.63373E-07-1.65436E-24
 -1       292 3.74058E-05-1.08640E-07 0.00000E+00
 -1       293 3.75038E-05-3.86431E-07 0.00000E+00
 -1       294 3.76017E-05-6.65629E-07 0.00000E+00
 -1       295 3.76996E-05-9.41870E-07-1.65436E-24
 -1       296 3.77975E-05-1.20713E-06 0.00000E+00
 -1       297 3.78948E-05-1.45334E-06 1.65436E-24
 -1       298 3.79921E-05-1.64883E-06 0.00000E+00
 -1       299 3.80870E-05-1.76171E-06 0.00000E+00
 -1       300 3.81828E-05-1.65910E-06 0.00000E+00
 -1       301 3.56315E-05-3.17328E-07 3.30872E-24
 -1       302 3.45127E-05-3.24118E-07-8.27181E-25
 -1       303 3.33924E-05-3.30031E-07-1.65436E-24
 -1       304 3.22781E-05-3.36902E-07-1.65436E-24
 -1       305 3.11775E-05-3.46500E-07-6.61744E-24
 -1       306 3.59358E-05 3.48284E-07 1.32349E-23
 -1       307 3.52826E-05 5.54638E-07 0.00000E+00
 -1       308 3.47690E-05 3.89859E-07 1.32349E-23
 -1       309 3.43663E-05-7.65062E-08-6.61744E-24
 -1       310 3.40491E-05-7.71888E-07 1.32349E-23
 -1       311 3.37899E-05-1.62309E-06 0.00000E+00
 -1       312 3.35612E-05-2.55595E-06 0.00000E+00
 -1       313 3.33351E-05-3.49595E-06 0.00000E+00
 -1       314 3.30838E-05-4.36847E-06 0.00000E+00
 -1       315 3.27795E-05-5.09929E-06 6.61744E-24
 -1       316 3.23948E-05-5.61501E-06-1.32349E-23
 -1       317 3.19027E-05-5.84327E-06 0.00000E+00
 -1       318 3.12767E-05-5.71347E-06 0.00000E+00
 -1       319 3.04928E-05-5.15610E-06-6.61744E-24
 -1       320 2.95230E-05-4.10579E-06-1.32349E-23
 -1       321 3.80479E-05-4.80554E-07 6.61744E-24
 -1       322 3.78295E-05 4.39430E-07-3.30872E-24
 -1       323 3.76114E-05 9.30707E-07 6.61744E-24
 -1       324 3.73931E-05 3.75433E-07 0.00000E+00
 -1       325 3.71747E-05-6.05410E-07 6.61744E-24
 -1       326 3.69563E-05-1.38660E-06 0.00000E+00
 -1       327 3.67382E-05-1.57929E-06-6.61744E-24
 -1       328 3.65199E-05-8.00441E-07 0.00000E+00
 -1       329 3.63014E-05 1.82922E-07 6.61744E-24
 -1       330 3.60833E-05 6.01785E-07 0.00000E+00
 -1       331 3.58653E-05 3.55339E-07 0.00000E+00
 -1       332 3.56469E-05-6.50604E-07 0.00000E+00
 -1       333 3.54287E-05-1.61109E-06 0.00000E+00
 -1       334 3.52115E-05-1.72159E-06-3.30872E-24
 -1       335 3.49941E-05-1.18363E-06-6.61744E-24
 -1       336 3.73835E-05-1.42149E-06 6.61744E-24
 -1       337 3.60725E-05-1.63625E-06-3.30872E-24
 -1       338 3.44230E-05-1.85138E-06 6.61744E-24
 -1       339 3.25264E-05-2.06628E-06 0.00000E+00
 -1       340 3.04748E-05-2.28157E-06 0.00000E+00
 -1       356 3.45661E-05 6.71217E-07 6.61744E-24
 -1       357 3.43487E-05 9.04357E-07 0.00000E+00
 -1       358 3.41316E-05 5.28051E-07-6.61744E-24
 -1       359 3.39134E-05-4.17742E-07-3.30872E-24
 -1       360 3.36953E-05-1.21927E-06 6.61744E-24
 -1       361 3.34773E-05-1.16424E-06 0.00000E+00
 -1       362 3.32592E-05-5.54259E-07 6.61744E-24
 -1       363 3.30409E-05 3.03549E-07-3.30872E-24
 -1       364 3.28228E-05 8.08738E-07 0.00000E+00
 -1       365 3.26049E-05 3.64343E-07 0.00000E+00
 -1       366 3.23867E-05-5.02645E-07 6.61744E-24
 -1       367 3.21691E-05-1.26105E-06 0.00000E+00
 -1       368 3.19518E-05-1.50794E-06 0.00000E+00
 -1       369 3.17366E-05-8.45476E-07 0.00000E+00
 -1       370 3.15204E-05 4.64303E-08 0.00000E+00
 -1       371 3.35274E-05-2.42296E-07 0.00000E+00
 -1       372 3.21630E-05-2.75626E-07 8.27181E-25
 -1       373 3.08466E-05-3.09121E-07 0.00000E+00
 -1       374 2.97383E-05-3.41222E-07 0.00000E+00
 -1       375 2.89440E-05-3.73156E-07 0.00000E+00
 -1       406 3.10784E-05 5.66067E-07 3.30872E-24
 -1       407 3.08090E-05 6.46507E-07-1.65436E-24
 -1       408 3.05105E-05 7.26901E-07 0.00000E+00
 -1       409 3.01849E-05 8.07120E-07-1.65436E-24
 -1       410 2.98347E-05 8.86975E-07 0.00000E+00
 -1       501 3.00019E-05 2.96908E-06 6.61744E-24
 -1       502 2.98946E-05 1.08806E-05 1.65436E-24
 -1       503 2.97781E-05 1.98769E-05 3.30872E-24
 -1       504 2.96823E-05 2.64712E-05 0.00000E+00
 -1       505 2.96036E-05 2.84821E-05-3.30872E-24
 -1       506 2.95167E-05 2.37436E-05 1.65436E-24
 -1       507 2.93937E-05 1.37100E-05 1.65436E-24
 -1       508 2.92268E-05-1.46464E-07-8.27181E-25
 -1       509 2.90566E-05-1.42627E-05 1.65436E-24
 -1       510 2.89260E-05-2.50747E-05 8.27181E-25
 -1       511 2.88341E-05-3.08294E-05 1.65436E-24
 -1       512 2.87575E-05-2.97909E-05 8.27181E-25
 -1       513 2.86663E-05-2.38655E-05 0.00000E+00
 -1       514 2.85535E-05-1.49760E-05 0.00000E+00
 -1       515 2.84454E-05-6.66989E-06 0.00000E+00
 -1       521 2.86989E-05 4.69428E-08-2.64698E-23
 -1       522 2.74150E-05 6.74381E-08-1.32349E-23
 -1       523 2.62552E-05-2.39921E-07-2.64698E-23
 -1       524 2.51898E-05-8.12722E-07 0.00000E+00
 -1       525 2.41974E-05-1.58195E-06 0.00000E+00
 -1       526 2.32515E-05-2.47780E-06-1.32349E-23
 -1       527 2.23261E-05-3.42862E-06-2.64698E-23
 -1       528 2.13941E-05-4.36235E-06 1.32349E-23
 -1       529 2.04287E-05-5.20703E-06 0.00000E+00
 -1       530 1.94037E-05-5.89184E-06 0.00000E+00
 -1       531 1.82930E-05-6.34787E-06-2.64698E-23
 -1       532 1.70725E-05-6.50880E-06 1.32349E-23
 -1       533 1.57183E-05-6.31212E-06-2.64698E-23
 -1       534 1.42124E-05-5.69807E-06 1.32349E-23
 -1       535 1.25291E-05-4.61532E-06 0.00000E+00
 -1       536 2.83659E-05-6.34406E-07 0.00000E+00
 -1       537 2.83777E-05 7.75036E-07-8.27181E-25
 -1       538 2.83899E-05 1.78227E-06-4.13590E-25
 -1       539 2.84032E-05 2.43434E-06 2.58494E-26
 -1       540 2.84167E-05 2.77812E-06 3.10193E-25
 -1       541 2.84305E-05 2.86049E-06 1.03398E-25
 -1       542 2.84443E-05 2.72827E-06-2.06795E-25
 -1       543 2.84581E-05 2.42826E-06-2.06795E-25
 -1       544 2.84719E-05 2.00722E-06 0.00000E+00
 -1       545 2.84857E-05 1.51191E-06 0.00000E+00
 -1       546 2.84994E-05 9.89057E-07-4.13590E-25
 -1       547 2.85132E-05 4.85403E-07 0.00000E+00
 -1       548 2.85270E-05 4.76754E-08-4.13590E-25
 -1       549 2.85409E-05-2.77384E-07 0.00000E+00
 -1       550 2.85549E-05-4.42989E-07 0.00000E+00
 -1       551 2.57346E-05-2.57457E-06-2.48154E-24
 -1       552 2.27898E-05-2.65562E-06-8.27181E-25
 -1       553 1.96679E-05-2.73734E-06 0.00000E+00
 -1       554 1.65134E-05-2.82054E-06 3.30872E-24
 -1       555 1.34705E-05-2.90588E-06 0.00000E+00
 -1       556 2.76303E-05-7.10954E-07 0.00000E+00
 -1       557 2.70601E-05 6.56455E-07 0.00000E+00
 -1       558 2.66317E-05 1.64831E-06 6.61744E-24
 -1       559 2.63290E-05 2.30701E-06 0.00000E+00
 -1       560 2.61356E-05 2.67491E-06 0.00000E+00
 -1       561 2.60354E-05 2.79464E-06 0.00000E+00
 -1       562 2.60124E-05 2.70889E-06 0.00000E+00
 -1       563 2.60504E-05 2.46034E-06 0.00000E+00
 -1       564 2.61334E-05 2.09175E-06 0.00000E+00
 -1       565 2.62454E-05 1.64585E-06-1.65436E-24
 -1       566 2.63704E-05 1.16538E-06-1.65436E-24
 -1       567 2.64923E-05 6.93124E-07 6.20385E-25
 -1       568 2.65952E-05 2.71815E-07 6.20385E-25
 -1       569 2.66632E-05-5.58405E-08 4.13590E-25
 -1       570 2.66803E-05-2.47157E-07 0.00000E+00
 -1       571 2.86231E-05-2.91837E-07-2.06795E-25
 -1       572 2.86784E-05-2.16926E-07 0.00000E+00
 -1       573 2.87342E-05-1.71110E-07-1.65436E-24
 -1       574 2.87901E-05-1.47433E-07 0.00000E+00
 -1       575 2.88461E-05-1.38909E-07 0.00000E+00
 -1       576 2.89021E-05-1.38506E-07 0.00000E+00
 -1       577 2.89582E-05-1.39191E-07 1.65436E-24
 -1       578 2.90142E-05-1.33922E-07 0.00000E+00
 -1       579 2.90703E-05-1.15659E-07 0.00000E+00
 -1       580 2.91263E-05-7.73618E-08 1.65436E-24
 -1       581 2.91824E-05-1.19898E-08 0.00000E+00
 -1       582 2.92384E-05 8.74898E-08 0.00000E+00
 -1       583 2.92944E-05 2.28103E-07 0.00000E+00
 -1       584 2.93504E-05 4.16802E-07 0.00000E+00
 -1       585 2.94063E-05 6.60503E-07 0.00000E+00
 -1       586 2.82893E-05-3.78198E-07 0.00000E+00
 -1       587 2.79658E-05-3.53918E-07 0.00000E+00
 -1       588 2.76184E-05-3.29702E-07-8.27181E-25
 -1       589 2.72670E-05-3.05701E-07-1.29247E-25
 -1       590 2.69318E-05-2.82139E-07 0.00000E+00
 -1       591 2.84868E-05-2.70726E-07 0.00000E+00
 -1       592 2.84110E-05-1.64196E-07 0.00000E+00
 -1       593 2.83423E-05-7.77173E-08 0.00000E+00
 -1       594 2.82791E-05-6.71120E-09 4.13590E-25
 -1       595 2.82200E-05 5.34215E-08-8.27181E-25
 -1       596 2.81631E-05 1.07241E-07-4.13590E-25
 -1       597 2.81069E-05 1.59304E-07 0.00000E+00
 -1       598 2.80496E-05 2.14160E-07-4.13590E-25
 -1       599 2.79896E-05 2.76361E-07-8.27181E-25
 -1       600 2.79251E-05 3.50455E-07 0.00000E+00
 -1       601 2.78545E-05 4.40993E-07-4.13590E-25
 -1       602 2.77760E-05 5.52528E-07-2.06795E-25
 -1       603 2.76881E-05 6.89617E-07-4.13590E-25
 -1       604 2.75890E-05 8.56844E-07 1.55096E-25
 -1       605 2.74774E-05 1.05878E-06 0.00000E+00
 -1       606 2.94823E-05 1.37681E-06 1.65436E-24
 -1       607 2.95012E-05 1.83612E-06 0.00000E+00
 -1       608 2.95197E-05 2.34063E-06 0.00000E+00
 -1       609 2.95379E-05 2.88711E-06 8.27181E-25
 -1       610 2.95561E-05 3.47230E-06 1.65436E-24
 -1       611 2.95742E-05 4.09288E-06-8.27181E-25
 -1       612 2.95923E-05 4.74551E-06 0.00000E+00
 -1       613 2.96104E-05 5.42689E-06 0.00000E+00
 -1       614 2.96284E-05 6.13368E-06 0.00000E+00
 -1       615 2.96465E-05 6.86255E-06 0.00000E+00
 -1       616 2.96645E-05 7.61019E-06 0.00000E+00
 -1       617 2.96825E-05 8.37326E-06 0.00000E+00
 -1       618 2.97005E-05 9.14844E-06 0.00000E+00
 -1       619 2.97184E-05 9.93240E-06 0.00000E+00
 -1       620 2.97363E-05 1.07218E-05 4.13590E-25
 -1       621 2.90809E-05 1.02168E-06-1.65436E-24
 -1       622 2.87054E-05 1.07798E-06-8.27181E-25
 -1       623 2.83401E-05 1.13425E-06 0.00000E+00
 -1       624 2.79900E-05 1.19037E-06 4.13590E-25
 -1       625 2.76596E-05 1.24621E-06-8.27181E-25
 -1       626 2.93496E-05 1.40243E-06 0.00000E+00
 -1       627 2.92180E-05 1.88953E-06 0.00000E+00
 -1       628 2.90692E-05 2.42207E-06 0.00000E+00
 -1       629 2.89053E-05 2.99474E-06 0.00000E+00
 -1       630 2.87284E-05 3.60224E-06 0.00000E+00
 -1       631 2.85404E-05 4.23916E-06 0.00000E+00
 -1       632 2.83433E-05 4.90011E-06 0.00000E+00
 -1       633 2.81392E-05 5.57970E-06 8.27181E-25
 -1       634 2.79302E-05 6.27255E-06-1.65436E-24
 -1       635 2.77182E-05 6.97324E-06 8.27181E-25
 -1       636 2.75053E-05 7.67640E-06-1.65436E-24
 -1       637 2.72934E-05 8.37662E-06-4.13590E-25
 -1       638 2.70846E-05 9.06849E-06 0.00000E+00
 -1       639 2.68808E-05 9.74662E-06 4.13590E-25
 -1       640 2.66837E-05 1.04056E-05-4.13590E-25
 -1       641 2.97495E-05 1.23105E-05 1.03398E-25
 -1       642 2.97443E-05 1.31473E-05-6.46235E-27
 -1       643 2.97391E-05 1.40179E-05 1.03398E-25
 -1       644 2.97338E-05 1.49163E-05-5.16988E-26
 -1       645 2.97284E-05 1.58354E-05 0.00000E+00
 -1       646 2.97230E-05 1.67681E-05 0.00000E+00
 -1       647 2.97176E-05 1.77064E-05-2.06795E-25
 -1       648 2.97122E-05 1.86427E-05 0.00000E+00
 -1       649 2.97068E-05 1.95694E-05-2.06795E-25
 -1       650 2.97013E-05 2.04787E-05 0.00000E+00
 -1       651 2.96959E-05 2.13637E-05 0.00000E+00
 -1       652 2.96904E-05 2.22175E-05 0.00000E+00
 -1       653 2.96850E-05 2.30346E-05 4.13590E-25
 -1       654 2.96790E-05 2.38095E-05 0.00000E+00
 -1       655 2.96733E-05 2.45386E-05 8.27181E-25
 -1       656 2.90579E-05 1.14369E-05 8.27181E-25
 -1       657 2.84805E-05 1.13566E-05 0.00000E+00
 -1       658 2.79786E-05 1.12766E-05-1.65436E-24
 -1       659 2.75091E-05 1.11965E-05 8.27181E-25
 -1       660 2.70287E-05 1.11163E-05 0.00000E+00
 -1       661 2.95112E-05 1.23277E-05 0.00000E+00
 -1       662 2.92607E-05 1.31687E-05 8.27181E-25
 -1       663 2.90023E-05 1.40305E-05 0.00000E+00
 -1       664 2.87383E-05 1.49081E-05-8.27181E-25
 -1       665 2.84704E-05 1.57962E-05-1.65436E-24
 -1       666 2.82005E-05 1.66898E-05-8.27181E-25
 -1       667 2.79304E-05 1.75836E-05 1.65436E-24
 -1       668 2.76622E-05 1.84727E-05 0.00000E+00
 -1       669 2.73977E-05 1.93519E-05-1.65436E-24
 -1       670 2.71389E-05 2.02159E-05 8.27181E-25
 -1       671 2.68876E-05 2.10598E-05 0.00000E+00
 -1       672 2.66458E-05 2.18783E-05-8.27181E-25
 -1       673 2.64154E-05 2.26664E-05 1.65436E-24
 -1       674 2.61979E-05 2.34187E-05-4.13590E-25
 -1       675 2.59957E-05 2.41301E-05 0.00000E+00
 -1       676 2.90101E-05 2.51471E-05 0.00000E+00
 -1       677 2.83572E-05 2.50759E-05 0.00000E+00
 -1       678 2.77084E-05 2.50048E-05 1.65436E-24
 -1       679 2.70659E-05 2.49340E-05-8.27181E-25
 -1       680 2.64315E-05 2.48631E-05 1.65436E-24
 -1       716 1.07486E-05-3.74985E-05 0.00000E+00
 -1       717 1.07460E-05-3.51989E-05 4.03897E-28
 -1       718 1.07435E-05-3.28993E-05-1.61559E-27
 -1       719 1.07410E-05-3.05998E-05 0.00000E+00
 -1       720 1.07384E-05-2.83002E-05-6.46235E-27
 -1       721 1.07359E-05-2.60006E-05-6.46235E-27
 -1       722 1.07333E-05-2.37010E-05-2.58494E-26
 -1       723 1.07307E-05-2.14014E-05 0.00000E+00
 -1       724 1.07281E-05-1.91018E-05 1.03398E-25
 -1       725 1.07254E-05-1.68022E-05-1.03398E-25
 -1       726 1.07225E-05-1.45026E-05 0.00000E+00
 -1       727 1.07191E-05-1.22030E-05 4.13590E-25
 -1       728 1.07156E-05-9.90343E-06 0.00000E+00
 -1       729 1.07090E-05-7.60384E-06-1.65436E-24
 -1       730 1.07035E-05-5.30424E-06 6.61744E-24
 -1       766 8.46199E-06-3.02610E-06 0.00000E+00
 -1       767 6.40136E-06-3.03116E-06 1.65436E-24
 -1       768 4.51406E-06-3.03690E-06 1.65436E-24
 -1       769 2.81415E-06-3.03928E-06 0.00000E+00
 -1       770 1.31525E-06-3.04122E-06-4.13590E-25
 -1       771 9.39746E-06-1.15894E-06 2.64698E-23
 -1       772 8.24814E-06 3.11426E-07 0.00000E+00
 -1       773 7.22720E-06 1.43839E-06 0.00000E+00
 -1       774 6.32251E-06 2.25479E-06 0.00000E+00
 -1       775 5.52198E-06 2.79363E-06 0.00000E+00
 -1       776 4.81315E-06 3.08818E-06 0.00000E+00
 -1       777 4.18347E-06 3.17183E-06-2.64698E-23
 -1       778 3.62032E-06 3.07814E-06-6.61744E-24
 -1       779 3.11109E-06 2.84076E-06 0.00000E+00
 -1       780 2.64309E-06 2.49345E-06 6.61744E-24
 -1       781 2.20366E-06 2.07005E-06 0.00000E+00
 -1       782 1.78016E-06 1.60446E-06 0.00000E+00
 -1       783 1.35994E-06 1.13059E-06 0.00000E+00
 -1       784 9.30701E-07 6.82448E-07 6.61744E-24
 -1       785 4.80015E-07 2.93984E-07 1.32349E-23
 -1       786 2.66748E-05-9.44489E-08 0.00000E+00
 -1       787 2.67198E-05 3.22917E-08 4.13590E-25
 -1       788 2.67647E-05 1.26436E-07-8.27181E-25
 -1       789 2.68100E-05 1.94415E-07-8.27181E-25
 -1       790 2.68554E-05 2.42641E-07-1.65436E-24
 -1       791 2.69008E-05 2.77520E-07 8.27181E-25
 -1       792 2.69462E-05 3.05448E-07 1.65436E-24
 -1       793 2.69917E-05 3.32819E-07-8.27181E-25
 -1       794 2.70372E-05 3.66028E-07 0.00000E+00
 -1       795 2.70826E-05 4.11471E-07 0.00000E+00
 -1       796 2.71281E-05 4.75550E-07-1.65436E-24
 -1       797 2.71735E-05 5.64680E-07 0.00000E+00
 -1       798 2.72189E-05 6.85284E-07-1.65436E-24
 -1       799 2.72641E-05 8.43802E-07-8.27181E-25
 -1       800 2.73093E-05 1.04670E-06 0.00000E+00
 -1       801 2.44374E-05-2.06568E-07-3.30872E-24
 -1       802 1.94946E-05-1.58882E-07 1.65436E-24
 -1       803 1.31911E-05-1.18149E-07 0.00000E+00
 -1       804 6.91547E-06-7.98679E-08 0.00000E+00
 -1       805 2.05592E-06-3.43944E-08 6.61744E-24
 -1       806 2.65252E-05-1.15228E-07-1.65436E-24
 -1       807 2.64238E-05 9.61525E-09-8.27181E-25
 -1       808 2.63281E-05 1.18324E-07 3.30872E-24
 -1       809 2.62368E-05 2.14733E-07 0.00000E+00
 -1       810 2.61486E-05 3.02663E-07 1.65436E-24
 -1       811 2.60621E-05 3.85922E-07 0.00000E+00
 -1       812 2.59760E-05 4.68313E-07 0.00000E+00
 -1       813 2.58887E-05 5.53636E-07 0.00000E+00
 -1       814 2.57989E-05 6.45693E-07 8.27181E-25
 -1       815 2.57051E-05 7.48284E-07-4.13590E-25
 -1       816 2.56060E-05 8.65207E-07 0.00000E+00
 -1       817 2.55001E-05 1.00026E-06 4.13590E-25
 -1       818 2.53860E-05 1.15724E-06 4.13590E-25
 -1       819 2.52623E-05 1.33992E-06 6.20385E-25
 -1       820 2.51277E-05 1.55207E-06-8.27181E-25
 -1       821 2.73029E-05 1.62415E-06 0.00000E+00
 -1       822 2.72493E-05 2.02388E-06 0.00000E+00
 -1       823 2.71958E-05 2.49161E-06 0.00000E+00
 -1       824 2.71417E-05 3.01922E-06 8.27181E-25
 -1       825 2.70875E-05 3.59860E-06 0.00000E+00
 -1       826 2.70332E-05 4.22157E-06 0.00000E+00
 -1       827 2.69789E-05 4.87994E-06 0.00000E+00
 -1       828 2.69245E-05 5.56550E-06 8.27181E-25
 -1       829 2.68701E-05 6.27001E-06 0.00000E+00
 -1       830 2.68158E-05 6.98523E-06 8.27181E-25
 -1       831 2.67614E-05 7.70293E-06 0.00000E+00
 -1       832 2.67071E-05 8.41483E-06-8.27181E-25
 -1       833 2.66529E-05 9.11270E-06-1.65436E-24
 -1       834 2.65992E-05 9.78831E-06 0.00000E+00
 -1       835 2.65454E-05 1.04334E-05 0.00000E+00
 -1       836 2.70147E-05 1.38212E-06 0.00000E+00
 -1       837 2.66126E-05 1.46645E-06-8.27181E-25
 -1       838 2.61775E-05 1.55068E-06-1.65436E-24
 -1       839 2.57403E-05 1.63460E-06 0.00000E+00
 -1       840 2.53314E-05 1.71849E-06 0.00000E+00
 -1       841 2.72454E-05 1.64111E-06 0.00000E+00
 -1       842 2.70981E-05 2.08577E-06-2.06795E-25
 -1       843 2.69209E-05 2.61035E-06 0.00000E+00
 -1       844 2.67227E-05 3.19077E-06 2.06795E-25
 -1       845 2.65085E-05 3.81350E-06 4.13590E-25
 -1       846 2.62836E-05 4.46502E-06-2.06795E-25
 -1       847 2.60509E-05 5.13717E-06-4.13590E-25
 -1       848 2.58135E-05 5.82183E-06 0.00000E+00
 -1       849 2.55736E-05 6.51311E-06 0.00000E+00
 -1       850 2.53334E-05 7.20514E-06 0.00000E+00
 -1       851 2.50950E-05 7.89228E-06-4.13590E-25
 -1       852 2.48605E-05 8.56882E-06 2.06795E-25
 -1       853 2.46329E-05 9.22718E-06 4.13590E-25
 -1       854 2.44145E-05 9.85957E-06 5.16988E-26
 -1       855 2.42107E-05 1.04537E-05 0.00000E+00
 -1       856 2.64540E-05 1.16748E-05-4.13590E-25
 -1       857 2.64113E-05 1.23952E-05-4.13590E-25
 -1       858 2.63686E-05 1.31892E-05-8.27181E-25
 -1       859 2.63254E-05 1.40451E-05 0.00000E+00
 -1       860 2.62822E-05 1.49509E-05-8.27181E-25
 -1       861 2.62389E-05 1.58947E-05 0.00000E+00
 -1       862 2.61955E-05 1.68644E-05 0.00000E+00
 -1       863 2.61521E-05 1.78483E-05 8.27181E-25
 -1       864 2.61087E-05 1.88343E-05 1.65436E-24
 -1       865 2.60653E-05 1.98105E-05 0.00000E+00
 -1       866 2.60220E-05 2.07651E-05 1.65436E-24
 -1       867 2.59787E-05 2.16859E-05-8.27181E-25
 -1       868 2.59354E-05 2.25612E-05 0.00000E+00
 -1       869 2.58924E-05 2.33789E-05 0.00000E+00
 -1       870 2.58494E-05 2.41273E-05 0.00000E+00
 -1       871 2.60101E-05 1.10338E-05 0.00000E+00
 -1       872 2.55887E-05 1.10270E-05 0.00000E+00
 -1       873 2.52049E-05 1.10200E-05 4.13590E-25
 -1       874 2.48332E-05 1.10128E-05 1.03398E-25
 -1       875 2.44478E-05 1.10052E-05 2.06795E-25
 -1       876 2.63348E-05 1.16894E-05-1.65436E-24
 -1       877 2.61538E-05 1.24046E-05 8.27181E-25
 -1       878 2.59516E-05 1.31762E-05 1.65436E-24
 -1       879 2.57317E-05 1.39962E-05 0.00000E+00
 -1       880 2.54968E-05 1.48562E-05-3.30872E-24
 -1       881 2.52501E-05 1.57480E-05 1.65436E-24
 -1       882 2.49945E-05 1.66633E-05 0.00000E+00
 -1       883 2.47331E-05 1.75940E-05 0.00000E+00
 -1       884 2.44691E-05 1.85318E-05 0.00000E+00
 -1       885 2.42054E-05 1.94686E-05 8.27181E-25
 -1       886 2.39452E-05 2.03962E-05 1.65436E-24
 -1       887 2.36914E-05 2.13064E-05-8.27181E-25
 -1       888 2.34471E-05 2.21910E-05-1.65436E-24
 -1       889 2.32151E-05 2.30416E-05-8.27181E-25
 -1       890 2.29988E-05 2.38501E-05-8.27181E-25
 -1       891 2.52646E-05 2.47634E-05 8.27181E-25
 -1       892 2.47981E-05 2.47320E-05 0.00000E+00
 -1       893 2.43631E-05 2.47006E-05-8.27181E-25
 -1       894 2.39147E-05 2.46692E-05 0.00000E+00
 -1       895 2.34078E-05 2.46377E-05 4.13590E-25
 -1       926 3.01129E-08-1.96971E-06 0.00000E+00
 -1       927 2.97105E-08-1.10572E-06-2.58494E-26
 -1       928 2.94345E-08-4.30884E-07 0.00000E+00
 -1       929 2.92924E-08 7.42989E-08 0.00000E+00
 -1       930 2.92118E-08 4.29319E-07 0.00000E+00
 -1       931 2.91687E-08 6.53670E-07-6.46235E-27
 -1       932 2.91368E-08 7.66857E-07-2.58494E-26
 -1       933 2.90834E-08 7.88380E-07 0.00000E+00
 -1       934 2.90019E-08 7.37744E-07 0.00000E+00
 -1       935 2.87854E-08 6.34454E-07-1.03398E-25
 -1       936 2.84885E-08 4.98017E-07 0.00000E+00
 -1       937 2.75656E-08 3.47941E-07-4.13590E-25
 -1       938 2.65557E-08 2.03710E-07 1.65436E-24
 -1       939 2.24375E-08 8.48108E-08 0.00000E+00
 -1       940 1.93708E-08 1.04888E-08-6.61744E-24
 -1       956 2.49229E-05 2.14530E-06 0.00000E+00
 -1       957 2.48633E-05 2.55666E-06 8.27181E-25
 -1       958 2.48034E-05 3.02467E-06 0.00000E+00
 -1       959 2.47434E-05 3.54218E-06 0.00000E+00
 -1       960 2.46834E-05 4.10206E-06-8.27181E-25
 -1       961 2.46233E-05 4.69708E-06 0.00000E+00
 -1       962 2.45631E-05 5.32005E-06 0.00000E+00
 -1       963 2.45030E-05 5.96378E-06 0.00000E+00
 -1       964 2.44428E-05 6.62104E-06-1.65436E-24
 -1       965 2.43827E-05 7.28463E-06 0.00000E+00
 -1       966 2.43225E-05 7.94734E-06-1.65436E-24
 -1       967 2.42624E-05 8.60197E-06-8.27181E-25
 -1       968 2.42023E-05 9.24130E-06 0.00000E+00
 -1       969 2.41423E-05 9.85817E-06-8.27181E-25
 -1       970 2.40825E-05 1.04454E-05 3.30872E-24
 -1       971 2.39485E-05 1.15624E-05 1.65436E-24
 -1       972 2.38719E-05 1.22189E-05-8.27181E-25
 -1       973 2.37952E-05 1.29544E-05 0.00000E+00
 -1       974 2.37182E-05 1.37580E-05-8.27181E-25
 -1       975 2.36412E-05 1.46182E-05-1.65436E-24
 -1       976 2.35640E-05 1.55239E-05-8.27181E-25
 -1       977 2.34869E-05 1.64638E-05 0.00000E+00
 -1       978 2.34097E-05 1.74268E-05 0.00000E+00
 -1       979 2.33325E-05 1.84014E-05 1.65436E-24
 -1       980 2.32553E-05 1.93766E-05 0.00000E+00
 -1       981 2.31781E-05 2.03409E-05-1.65436E-24
 -1       982 2.31010E-05 2.12832E-05 8.27181E-25
 -1       983 2.30241E-05 2.21922E-05 1.65436E-24
 -1       984 2.29475E-05 2.30567E-05 0.00000E+00
 -1       985 2.28711E-05 2.38653E-05-1.65436E-24
 -3
    1PSTEP                         8           4           1          
  100CL  104 3.90625E-01         608                     0    4           1
 -4  STRESS      6    1
 -5  SXX         1    4    1    1
 -5  SYY         1    4    2    2
 -5  SZZ         1    4    3    3
 -5  SXY         1    4    1    2
 -5  SYZ         1    4    2    3
 -5  SZX         1    4    3    1
 -1         1-1.94608E+06-6.65890E+05-4.26159E+05-6.07167E+05-3.20142E-10 5.23869E-10
 -1         2-1.28565E+06-3.31530E+05-1.66656E+05-2.13394E+05 2.01908E-09-1.29609E-08
 -1         3-3.36712E+05-2.99109E+05-1.11995E+04 3.74832E+04 5.88784E-10-3.30389E-09
 -1         4-3.14852E+05-4.89234E+04 4.54951E+02-2.98133E+04-6.95382E-10-3.27857E-10
 -1         5-1.74479E+05 4.37078E+04-7.17163E+04-1.68237E+03 1.11595E-08 1.15134E-09
 -1         8-8.70202E+05-4.02482E+05-1.18400E+05-5.35038E+05 9.94381E-11 1.45519E-09
 -1         9-9.08482E+05-3.18536E+05-1.29098E+05-3.16436E+05 1.65819E-09-1.22673E-09
 -1        10-4.55223E+05-3.15598E+05-3.29247E+04-1.12268E+05 4.65698E-09-1.39140E-08
 -1        11-2.81700E+05-7.49963E+04 2.38928E+02 1.15034E+03-9.70715E-10 4.01368E-10
 -1        12-2.51963E+05 1.53487E+04-9.24193E+04-2.29407E+04 1.61811E-08-8.33825E-09
 -1        15 1.48783E+03 8.04572E+02 4.61752E+03 1.47448E+00-1.79057E-11 4.35340E-09
 -1        16-1.41290E+06-3.76204E+05-1.29220E+05-4.62684E+05 5.17161E-10-1.18234E-09
 -1        17-2.55138E+05-2.02465E+05-2.58593E+04-1.76734E+05-6.18456E-10 3.10441E-10
 -1        18 1.61428E+04-1.28010E+04-1.24890E+04-4.14427E+04-1.89721E-10 4.21642E-10
 -1        19 6.60046E+04 8.05030E+04-8.39325E+01 2.13368E+03-9.45874E-12 8.15271E-10
 -1        20 2.89301E+04-4.94224E+04-1.15880E+04 2.31052E+04 3.19346E-09-5.96174E-10
 -1        21-5.34340E+03-7.87920E+04 2.17535E+04-6.45445E+02 3.06525E-09-2.41148E-09
 -1        23 3.61375E-01 1.72155E-01 6.62020E+00 4.17606E-04 1.92074E-09 8.11855E-10
 -1        24-7.24460E+05-2.16735E+05 3.85414E+04-3.76763E+05-1.28275E-09 2.22208E-09
 -1        25 1.08123E+04 2.94635E+04 1.51056E+04-2.08888E+05-2.67210E-10-5.30417E-10
 -1        26 1.49189E+03 5.50705E+04 2.60093E+02-9.06532E+03 1.07157E-10 1.28144E-10
 -1        27-1.19415E+04-3.64843E+04-1.62106E+04 4.01938E+04 1.95610E-09-1.47641E-09
 -1        28-4.54315E+03-6.08213E+04-2.15767E+03 2.34678E+04 4.81555E-09 1.32972E-09
 -1        31 2.30076E+03 2.65220E+03 3.92818E+03-6.01702E+01 1.81070E-09-1.07292E-09
 -1        32-2.96066E+05 7.05846E+04 1.84738E+05-4.29450E+05 5.07640E-10 1.05744E-09
 -1        33-6.49984E+04 6.58067E+04 2.02172E+04-2.06880E+04-5.03026E-10 4.00784E-10
 -1        34-7.90778E+04-3.18033E+03 7.16808E+03 3.02888E+04 7.23158E-10-2.08780E-09
 -1        35-1.20123E+04-1.64236E+04 8.96070E+02 3.81854E+04 4.39909E-09-7.91867E-10
 -1        36-1.99943E+06 5.90477E+04-1.35954E+05 2.76162E-09 3.66323E-10 5.67525E-10
 -1        37-2.05838E+06-6.83354E+04-9.63009E+04 1.17169E-07 1.06359E-09 3.76895E-09
 -1        38-2.02216E+06 9.28285E+03-3.51764E+04 1.75762E-07-1.37519E-10-9.74978E-10
 -1        39-2.03182E+06-1.07413E+04-2.21550E+04 3.19289E-07-3.49156E-09-1.70985E-09
 -1        40-2.02591E+06 1.45707E+03-9.05465E+03-3.44366E-07-5.60847E-09 1.55023E-09
 -1        41-2.02743E+06-1.71111E+03-5.43981E+03-8.85049E-07-3.88560E-10 5.88875E-09
 -1        42-2.02652E+06 2.53831E+02-2.70806E+03-5.71846E-07-1.12016E-09 5.28757E-10
 -1        43-2.02679E+06-4.70955E+02-2.24823E+03 2.75002E-07-4.57267E-09 4.58783E-10
 -1        44-2.02654E+06 2.17081E+02-2.38340E+03-1.11399E-07 3.44418E-09 2.44745E-09
 -1        45-2.02726E+06-1.39596E+03-4.49850E+03 7.28976E-08 3.38730E-09 1.38971E-09
 -1        46-2.02605E+06 1.17871E+03-7.36240E+03 2.01680E-10-2.48885E-09 1.55433E-09
 -1        47-2.03080E+06-8.67790E+03-1.79203E+04 9.31120E-08 3.65185E-10-2.40902E-09
 -1        48-2.02303E+06 7.49803E+03-2.84251E+04 2.84138E-07-2.45258E-09 4.25644E-10
 -1        49-2.05225E+06-5.51956E+04-7.77895E+04 4.27507E-07-5.45494E-09 9.16407E-09
 -1        50-2.00467E+06 4.76921E+04-1.09827E+05-3.47308E-07-1.28041E-08 2.91038E-09
 -1        51 1.50113E+04-2.55886E+05 2.54691E+04-6.60200E+05-5.82077E-11 3.29601E-09
 -1        52 7.08836E+03-2.53730E+05 1.65422E+04-7.31110E+05 1.70985E-10 1.45155E-09
 -1        53 5.11234E+03-2.59208E+05 1.49642E+04-6.58431E+05-4.36557E-11-5.98811E-09
 -1        54 1.33842E+04-2.56309E+05 2.48045E+04-7.33024E+05 3.41970E-10-4.94401E-09
 -1        55 3.22238E+04-2.64382E+05 4.62162E+04-6.58130E+05 2.11003E-10-2.74667E-09
 -1        56-3.52484E+06-3.80032E+05-3.03976E+05-1.36750E+06-2.69210E-10 4.51109E-09
 -1        57-3.66748E+06-6.58857E+05-2.08431E+05-1.33381E+06 1.38152E-09 3.60160E-09
 -1        58-3.58726E+06-4.83128E+05-7.13476E+04-1.34652E+06-2.29193E-10 4.73301E-09
 -1        59-3.59591E+06-5.38000E+05-4.36897E+04-1.35706E+06 9.02901E-10-5.07953E-09
 -1        60-3.59592E+06-4.99498E+05-1.66819E+04-1.34465E+06-7.23048E-11-4.70300E-09
 -1        61-3.58836E+06-5.16434E+05-9.73874E+03-1.35619E+06 4.63842E-10 7.63987E-09
 -1        62-3.59467E+06-5.04508E+05-4.63405E+03-1.34740E+06 2.14868E-11 9.48262E-10
 -1        63-3.59309E+06-5.07882E+05-3.97336E+03-1.34940E+06-8.66294E-10 8.59714E-10
 -1        64-3.59116E+06-5.08037E+05-4.55878E+03-1.35143E+06-7.42602E-10 2.37765E-09
 -1        65-3.60088E+06-5.03780E+05-9.50871E+03-1.34182E+06 2.16532E-09-4.97721E-10
 -1        66-3.58691E+06-5.08624E+05-1.62595E+04-1.35499E+06 7.27141E-10 3.25872E-09
 -1        67-3.61530E+06-5.17723E+05-4.25624E+04-1.33459E+06 2.94676E-10-5.45697E-09
 -1        68-3.57688E+06-4.94274E+05-6.95008E+04-1.35864E+06-1.00317E-09-1.32786E-09
 -1        69-3.68361E+06-6.36842E+05-2.03029E+05-1.31355E+06-4.54747E-10 4.13274E-09
 -1        70-3.51908E+06-3.90861E+05-2.96107E+05-1.37565E+06-2.18279E-10 5.38421E-10
 -1        86-2.56019E+04-1.34385E+05 6.04625E+04 8.41132E+03 2.69938E-09-1.55012E-09
 -1        87 3.23292E+04-1.05094E+05 4.78114E+04-3.67351E+04 4.55066E-09-1.44249E-09
 -1        88-6.55411E+03-1.24506E+05 2.53907E+04 8.83336E+03 4.15548E-09-1.49214E-10
 -1        89 2.48048E+04-1.09123E+05 3.78543E+04-3.69017E+04 6.14273E-09-1.30569E-09
 -1        90-1.80672E+04-1.30410E+05 4.35726E+04 8.57808E+03 2.28647E-09 2.52157E-10
 -1        91-1.84570E+06-2.15018E+05-1.13278E+05-7.11781E+05-1.22054E-05 4.55342E-06
 -1        92-1.90511E+06-3.19941E+05-7.87241E+04-6.92360E+05-2.43728E-05 9.14925E-06
 -1        93-1.86855E+06-2.56189E+05-2.65354E+04-7.04348E+05-5.76621E-06 2.18113E-06
 -1        94-1.87827E+06-2.72510E+05-1.66235E+04-7.01160E+05 1.28290E-05-4.81075E-06
 -1        95-1.87248E+06-2.62437E+05-6.21768E+03-7.02956E+05 2.24040E-06-8.38171E-07
 -1        96-1.87385E+06-2.65145E+05-3.74705E+03-7.02568E+05-8.35451E-06 3.13790E-06
 -1        97-1.87295E+06-2.63551E+05-1.77253E+03-7.02934E+05-3.42948E-07 1.28725E-07
 -1        98-1.87327E+06-2.64169E+05-1.64704E+03-7.02721E+05 7.68237E-06-2.88218E-06
 -1        99-1.87305E+06-2.63412E+05-1.91615E+03-7.02803E+05-1.67744E-06 6.33842E-07
 -1       100-1.87401E+06-2.65265E+05-4.19237E+03-7.02470E+05-1.10246E-05 4.14129E-06
 -1       101-1.87221E+06-2.62456E+05-7.01755E+03-7.03186E+05 2.91800E-06-1.09511E-06
 -1       102-1.87883E+06-2.73789E+05-1.88008E+04-7.01079E+05 1.68650E-05-6.33277E-06
 -1       103-1.86826E+06-2.54892E+05-3.00321E+04-7.04201E+05-1.11679E-05 4.20312E-06
 -1       104-1.90952E+06-3.27125E+05-8.90882E+04-6.90716E+05-3.92014E-05 1.47082E-05
 -1       105-1.84159E+06-2.09133E+05-1.28212E+05-7.13575E+05-1.96612E-05 7.33174E-06
 -1       106-6.69942E+05 3.51417E+03-8.10115E+03-8.14280E-08 3.19163E-10-4.27008E-10
 -1       107-6.73403E+05-4.06756E+03-5.73803E+03-3.77719E-07-8.00230E-10 3.59796E-09
 -1       108-6.71297E+05 5.52642E+02-2.10176E+03 2.43721E-07-5.99652E-10-4.12228E-10
 -1       109-6.71824E+05-6.40269E+02-1.33147E+03-2.01373E-09-6.07192E-10 6.65921E-10
 -1       110-6.71520E+05 8.75208E+01-5.61256E+02-6.56349E-07-1.00808E-10 3.21955E-09
 -1       111-6.71566E+05-1.07863E+02-3.69919E+02 3.33200E-07 1.51892E-09 2.75159E-09
 -1       112-6.71554E+05 2.03288E+01-2.46757E+02 3.30655E-07-1.02791E-09 1.93861E-09
 -1       113-6.71548E+05-6.72206E+01-3.21747E+02 2.43219E-08-1.54849E-09 9.44521E-10
 -1       114-6.71538E+05 4.68856E+01-4.81920E+02-4.78698E-08-6.63220E-10-1.32871E-10
 -1       115-6.71688E+05-3.35600E+02-1.05139E+03 3.37169E-09-2.01362E-10-1.70905E-09
 -1       116-6.71413E+05 2.88669E+02-1.78638E+03-1.68401E-07 6.20524E-10-3.01043E-09
 -1       117-6.72561E+05-2.13126E+03-4.39518E+03-5.31336E-07-3.81049E-10-4.78053E-11
 -1       118-6.70667E+05 1.84224E+03-6.98691E+03-1.72040E-08-1.88249E-09-2.50657E-09
 -1       119-6.77830E+05-1.35619E+04-1.91220E+04-2.92212E-07 2.53374E-10 1.20667E-09
 -1       120-6.66151E+05 1.17175E+04-2.70055E+04-2.37897E-08-1.05631E-09-2.94676E-10
 -1       121-1.43191E+02-5.74871E+05 6.05756E+02 1.28831E+04 3.75394E-10-7.65795E-10
 -1       122 3.21558E+02-5.74587E+05 7.16302E+02 7.50315E+04 8.67658E-10 1.22732E-09
 -1       123-9.59823E+01-5.74856E+05 8.62076E+02 1.28179E+04 4.85272E-10 4.17572E-09
 -1       124 1.03608E+03-5.74040E+05 1.96614E+03 7.48545E+04 5.30008E-10 1.65983E-11
 -1       125-8.59667E+02-5.75274E+05 2.88203E+03 1.30602E+04-5.14774E-10 1.80989E-09
 -1       141-3.30826E+05-1.37692E+03 3.17189E+03-1.24007E-08 4.52595E-10-5.66615E-10
 -1       142-3.29417E+05 1.59342E+03 2.24118E+03-1.94056E-07 2.85937E-10 3.05917E-09
 -1       143-3.30295E+05-2.16210E+02 8.08526E+02-4.75723E-07-4.11417E-10 4.30305E-11
 -1       144-3.30038E+05 2.48246E+02 4.89450E+02-3.05844E-07-1.30507E-09 3.60467E-09
 -1       145-3.30206E+05-3.19918E+01 1.57831E+02-2.55448E-07-2.27705E-10-1.80840E-09
 -1       146-3.30150E+05 2.46903E+01 1.18782E+01 7.06295E-07 4.94024E-10-1.25794E-09
 -1       147-3.30184E+05 7.30677E+00-1.52546E+02-4.74908E-08-3.32274E-10-2.97447E-10
 -1       148-3.30214E+05-8.83387E+01-4.23107E+02-4.19857E-07 4.73564E-10-1.17666E-09
 -1       149-3.30141E+05 8.10234E+01-8.05701E+02-1.21717E-07-4.94677E-10-8.42874E-10
 -1       150-3.30488E+05-6.07468E+02-1.88063E+03-7.76479E-08-8.96844E-10-7.25066E-10
 -1       151-3.29910E+05 5.26366E+02-3.24440E+03 4.81308E-07-3.39494E-10 6.00039E-10
 -1       152-3.32086E+05-3.89038E+03-8.01732E+03-2.70578E-07-8.32023E-10 1.10776E-09
 -1       153-3.28546E+05 3.36342E+03-1.27554E+04-9.01257E-08 2.94154E-09-1.09503E-09
 -1       154-3.41703E+05-2.47608E+04-3.49144E+04 5.11826E-08 6.38578E-10-1.02591E-09
 -1       155-3.20295E+05 2.13936E+04-4.93051E+04 3.09823E-07 6.71876E-09 1.53523E-09
 -1       156-1.07615E+04-9.61638E+04 2.54372E+04-3.00390E+02-2.37651E-09 5.64470E-06
 -1       157 1.40120E+04-8.44192E+04 2.07985E+04 1.05916E+03-8.69591E-09 1.12816E-05
 -1       158-3.24730E+03-9.27165E+04 1.21905E+04-3.28813E+02-3.75816E-09 5.64651E-06
 -1       159 1.37267E+04-8.43570E+04 2.04447E+04 8.85796E+02 4.74301E-10 5.15588E-09
 -1       160-1.04773E+04-9.62248E+04 2.47107E+04-1.27026E+02 1.03682E-10 1.18579E-09
 -1       161-3.19936E+05-4.49299E+04 1.07202E+02-1.19817E+05-1.18041E-05 4.42046E-06
 -1       162-3.19526E+05-4.51218E+04 7.65826E+01-1.20163E+05-2.35785E-05 8.83823E-06
 -1       163-3.19889E+05-4.49192E+04 1.62176E+01-1.19859E+05-1.18038E-05 4.42664E-06
 -1       164-3.19758E+05-4.49618E+04 4.08496E+00-1.19915E+05-8.41712E-09 3.68134E-09
 -1       165-3.19704E+05-4.50900E+04-2.82110E+01-1.20066E+05-2.09031E-07 7.77082E-08
 -1       166-3.19952E+05-4.48024E+04-6.67362E+01-1.19706E+05-4.18855E-07 1.60185E-07
 -1       167-3.19696E+05-4.50785E+04-1.41554E+02-1.20068E+05-2.09677E-07 7.79729E-08
 -1       168-3.19821E+05-4.50627E+04-3.32225E+02-1.19899E+05 5.82182E-09-1.99437E-09
 -1       169-3.19835E+05-4.48298E+04-6.18835E+02-1.19873E+05 5.59856E-06-2.09677E-06
 -1       170-3.19930E+05-4.57852E+04-1.54965E+03-1.20056E+05 1.11871E-05-4.19256E-06
 -1       171-3.19587E+05-4.43561E+04-2.68184E+03-1.19911E+05 5.59890E-06-2.10016E-06
 -1       172-3.21983E+05-4.88900E+04-7.23498E+03-1.19303E+05-6.66773E-09 3.03044E-09
 -1       173-3.17783E+05-4.17257E+04-1.15802E+04-1.20626E+05-1.63779E-05 6.14743E-06
 -1       174-3.33958E+05-6.92892E+04-3.43302E+04-1.15152E+05-3.27433E-05 1.22946E-05
 -1       175-3.07616E+05-2.39597E+04-4.94120E+04-1.24062E+05-1.63810E-05 6.12908E-06
 -1       191 2.79584E+02 2.31807E+05 4.51483E+02-3.32083E+03-1.65528E-10-1.61117E-09
 -1       192 1.03092E+02 2.31861E+05 2.77840E+02-3.46072E+03-1.21759E-10-2.60070E-09
 -1       193 5.22097E+01 2.31827E+05 2.36593E+02-3.22468E+03-4.88967E-10-3.07664E-08
 -1       194 1.57867E+02 2.31877E+05 3.75003E+02-3.64604E+03-4.33602E-10-5.97302E-08
 -1       195 4.48840E+02 2.31786E+05 6.93385E+02-3.13531E+03-7.47605E-10-3.18232E-08
 -1       266-2.61580E+04-1.20972E+04 6.03688E+04-3.03433E+01-7.27596E-12 4.41595E-10
 -1       267 3.02927E+04 1.41253E+04 4.28252E+04 3.48895E+01-3.31966E-11 6.24240E-09
 -1       268-4.12780E+03-2.02241E+03 1.58508E+04-4.54345E+00-3.54703E-11 1.76543E-09
 -1       269 4.87252E+03 2.42500E+03 1.03594E+04 5.28179E+00 8.07177E-12-4.37371E-09
 -1       270-7.43809E+02-4.02282E+02 4.97380E+03-7.37020E-01-6.36646E-12 2.35741E-10
 -1       271-2.71780E+06-3.37866E+05-2.13929E+05-1.05120E+06-5.78439E-10 7.27596E-11
 -1       272-2.79644E+06-4.80725E+05-1.35946E+05-1.04783E+06 6.16637E-10 2.62844E-09
 -1       273-2.75621E+06-3.87976E+05-5.04741E+04-1.04399E+06-1.06138E-09-4.30737E-09
 -1       274-2.75166E+06-4.17251E+05-2.79275E+04-1.05962E+06 4.23711E-10-1.92995E-09
 -1       275-2.76135E+06-3.92845E+05-1.17359E+04-1.04261E+06 5.61613E-11-2.86400E-09
 -1       276-2.74545E+06-4.11399E+05-6.22551E+03-1.06193E+06-5.86397E-10-6.34918E-09
 -1       277-2.76238E+06-3.92969E+05-3.13698E+03-1.04204E+06 1.62345E-10-8.71978E-11
 -1       278-2.74426E+06-4.11370E+05-2.39096E+03-1.06280E+06 4.65661E-10 2.11342E-09
 -1       279-2.76260E+06-3.92773E+05-2.74970E+03-1.04181E+06 4.07908E-10-7.14749E-10
 -1       280-2.74460E+06-4.12014E+05-5.16522E+03-1.06289E+06-1.39325E-10-2.55056E-09
 -1       281-2.76207E+06-3.92363E+05-9.57725E+03-1.04195E+06 1.08668E-09 2.19279E-09
 -1       282-2.74916E+06-4.17282E+05-2.27368E+04-1.06162E+06 1.42163E-09-4.25644E-10
 -1       283-2.75811E+06-3.88178E+05-4.10393E+04-1.04282E+06 9.32232E-10 2.07183E-09
 -1       284-2.78520E+06-4.69274E+05-1.10553E+05-1.05248E+06-2.98314E-10 2.31194E-09
 -1       285-2.72704E+06-3.47282E+05-1.73969E+05-1.04851E+06 7.67614E-10 4.29281E-10
 -1       286 2.65234E+05-3.31183E+04 7.63371E+04 5.21581E+02 1.17117E-09-8.36735E-11
 -1       287 2.98664E+05 3.83300E+04 5.40906E+04-8.11049E+02-2.83608E-10 2.47019E-09
 -1       288 2.78131E+05-5.20252E+03 1.97739E+04 5.69583E+01 1.51243E-11 5.67888E-09
 -1       289 2.83649E+05 6.02071E+03 1.24604E+04-2.43587E+02 1.65639E-10-7.27596E-10
 -1       290 2.80249E+05-8.17024E+02 5.11236E+03-4.58732E+01-1.45881E-07 3.17414E-10
 -1       291 2.81186E+05 9.63708E+02 3.09840E+03-1.17638E+02-2.94856E-07 2.42960E-09
 -1       292 2.80595E+05-1.46477E+02 1.59578E+03-6.89929E+01-1.16436E-07 8.19682E-10
 -1       293 2.80842E+05 2.96053E+02 1.42061E+03-9.26348E+01 6.28303E-08 2.10836E-10
 -1       294 2.80593E+05-1.49484E+02 1.62187E+03-7.08771E+01-4.65036E-07-1.22202E-09
 -1       295 2.81200E+05 9.89436E+02 3.17411E+03-1.05385E+02-9.94864E-07-1.41267E-09
 -1       296 2.80237E+05-8.39739E+02 5.24823E+03-5.62423E+01-3.28078E-06-4.09432E-09
 -1       297 2.83727E+05 6.18805E+03 1.27999E+04-1.88150E+02-5.56405E-06 6.72685E-09
 -1       298 2.78065E+05-5.34709E+03 2.03161E+04 1.18891E+01-2.78882E-06 4.64024E-09
 -1       299 2.99074E+05 3.93761E+04 5.55572E+04-5.64904E+02-2.29870E-10 7.38873E-09
 -1       300 2.64891E+05-3.40193E+04 7.84495E+04 3.20507E+02 4.58147E-09 1.52068E-09
 -1       301 2.13424E+04-1.27710E+04 6.36836E+04-1.83609E+04-2.54659E-11 3.52259E-10
 -1       302 8.11841E+03 4.66484E+02 4.32245E+04-2.27246E+04 7.65795E-10-1.47840E-09
 -1       303 1.72246E+03-8.25772E+03 4.00790E+04-1.83627E+04-6.00267E-11 4.91661E-09
 -1       304 1.53738E+04 6.08525E+03 6.63713E+04-2.27011E+04 8.73115E-10 1.07127E-08
 -1       305 4.23057E+04-1.83684E+04 1.18498E+05-1.83580E+04 1.56433E-10 6.41921E-09
 -1       306-1.25044E+06-1.63968E+05-7.49549E+04-4.84834E+05 6.46196E-10-5.89353E-10
 -1       307-1.26170E+06-2.29959E+05-4.75798E+04-5.02102E+05 4.37694E-11 6.80302E-10
 -1       308-1.26400E+06-1.81339E+05-1.76999E+04-4.82227E+05-3.56749E-10-3.13139E-09
 -1       309-1.24608E+06-2.07838E+05-9.79340E+03-5.06390E+05-4.24052E-10-5.43878E-09
 -1       310-1.26579E+06-1.83031E+05-4.13714E+03-4.81767E+05 7.14863E-10-2.03045E-09
 -1       311-1.24405E+06-2.05693E+05-2.23212E+03-5.07123E+05 1.47838E-09-7.66903E-10
 -1       312-1.26607E+06-1.83151E+05-1.19890E+03-4.81660E+05 4.26553E-10-3.87558E-10
 -1       313-1.24385E+06-2.05476E+05-1.05916E+03-5.07161E+05 1.68291E-09 4.24484E-09
 -1       314-1.26599E+06-1.83226E+05-1.41385E+03-4.81739E+05-4.56794E-10 3.13776E-10
 -1       315-1.24434E+06-2.05509E+05-2.81338E+03-5.06748E+05 5.28416E-10-1.91915E-09
 -1       316-1.26550E+06-1.83197E+05-5.32559E+03-4.82003E+05 1.05456E-09 2.53249E-09
 -1       317-1.24712E+06-2.08110E+05-1.26395E+04-5.05570E+05 4.12911E-10-1.43336E-09
 -1       318-1.26310E+06-1.81084E+05-2.28813E+04-4.82670E+05-7.39874E-10 1.16052E-09
 -1       319-1.26740E+06-2.36616E+05-6.14868E+04-4.99930E+05-1.08230E-10 3.02134E-09
 -1       320-1.24556E+06-1.58644E+05-9.68728E+04-4.86053E+05-8.54016E-10-4.11092E-10
 -1       321-6.23257E+05 6.57744E+02-1.49266E+03-1.24902E+03 1.80576E-09 2.88367E-09
 -1       322-6.23291E+05-7.22017E+02-9.46334E+02 1.28042E+03-1.01986E-09-6.47447E-11
 -1       323-6.24030E+05 6.38757E+01-5.00290E+02 2.13271E+01-3.92220E-10 7.63009E-10
 -1       324-6.23007E+05-1.09833E+02-1.48468E+02-1.25118E+03-7.65539E-10-9.91136E-10
 -1       325-6.23540E+05 4.56903E+01-1.19924E+02 1.28263E+03-1.42975E-09-1.88955E-09
 -1       326-6.23040E+05-2.94801E+01-2.05041E+01-7.68363E+02-7.52181E-10-1.11456E-10
 -1       327-6.23997E+05-1.73463E+01-2.14790E+02-4.61501E+02 8.30411E-11 3.21887E-09
 -1       328-6.22915E+05-3.38718E+01-1.09085E+02 1.58179E+03-4.75619E-10 5.96884E-10
 -1       329-6.23666E+05 5.17127E+01-4.22620E+02-1.06757E+03-9.98593E-10-1.59507E-09
 -1       330-6.23226E+05-3.00233E+02-8.23003E+02 2.15705E+02 1.42659E-09-3.34950E-11
 -1       331-6.23686E+05 2.46830E+02-1.60135E+03 9.04609E+02-6.66408E-07-4.20300E-10
 -1       332-6.23783E+05-1.83245E+03-3.69336E+03-1.62001E+03-1.28258E-06 1.73458E-09
 -1       333-6.23111E+05 1.58603E+03-6.14320E+03 7.68182E+02-6.73336E-07-2.74872E-09
 -1       334-6.28546E+05-1.17758E+04-1.65363E+04 4.46627E+02-1.28234E-09 2.75213E-09
 -1       335-6.18927E+05 1.01864E+04-2.34979E+04-1.16208E+03-1.62345E-09 2.05637E-09
 -1       336 1.57701E+02-6.12134E+05-1.82947E+03-7.86611E+03-2.00180E-09 2.30466E-09
 -1       337-1.02702E+03-6.12913E+05-3.89682E+03-4.83869E+04-3.62957E-09-1.26443E-09
 -1       338 8.04387E+02-6.11735E+05-6.71570E+03-7.54081E+03-3.36127E-09-2.15596E-09
 -1       339-8.78525E+03-6.17496E+05-1.68222E+04-4.88319E+04-4.92287E-09-1.25203E-09
 -1       340 7.05556E+03-6.07780E+05-2.57313E+04-7.42266E+03-3.52520E-09-7.16227E-12
 -1       356-6.18914E+05 1.01657E+04-2.35140E+04-8.60588E+02-3.02820E-09 1.20872E-09
 -1       357-6.28504E+05-1.17740E+04-1.65550E+04-4.44550E+01-4.79110E-09 2.37651E-09
 -1       358-6.22787E+05 1.60496E+03-6.11831E+03 9.55981E+02-1.38885E-09-1.06888E-09
 -1       359-6.23776E+05-1.83936E+03-3.75482E+03-1.43463E+03 9.98892E-10-1.16614E-09
 -1       360-6.23638E+05 2.34586E+02-1.69458E+03 5.29628E+02-1.76248E-09 2.90891E-09
 -1       361-6.23161E+05-3.16357E+02-9.93493E+02 6.36393E+02-9.12024E-10-3.25068E-09
 -1       362-6.23400E+05 8.06786E+01-7.02469E+02-1.11508E+03 1.35632E-09 2.01084E-10
 -1       363-6.23020E+05-1.82548E+02-8.12828E+02 1.23617E+03 2.02969E-09 6.36092E-10
 -1       364-6.23779E+05 1.01784E+02-1.43211E+03-7.01597E+01-2.79807E-09 3.37673E-09
 -1       365-6.23435E+05-9.29500E+02-2.83874E+03-1.06083E+03-5.13214E-09 1.78625E-09
 -1       366-6.22986E+05 8.27240E+02-4.95968E+03 1.18196E+03 1.48805E-09 2.99224E-10
 -1       367-6.25897E+05-5.92061E+03-1.21345E+04-7.90565E+02 3.91214E-09 2.28056E-10
 -1       368-6.21321E+05 5.09171E+03-1.94923E+04-3.40439E+02 3.02208E-09 6.25732E-10
 -1       369-6.40430E+05-3.76497E+04-5.30206E+04 1.39688E+03-8.62237E-10 2.48110E-09
 -1       370-6.08463E+05 3.25535E+04-7.50292E+04-1.00553E+03 9.36582E-09 3.66344E-09
 -1       371-1.01052E+04-9.57739E+04 2.28867E+04 2.53087E+02-8.50378E-08-6.90314E-05
 -1       372 1.07682E+04-8.60791E+04 1.45281E+04-4.37795E+02-1.87489E-07-1.37911E-04
 -1       373-6.60439E+02-9.14450E+04 2.47289E+03 2.36449E+02-7.87832E-08-6.90252E-05
 -1       374-5.13080E+03-9.33351E+04-6.14141E+03-2.84373E+02 8.89031E-11-4.92074E-08
 -1       375 5.79028E+03-8.85192E+04-1.27044E+04 9.96600E+01 1.03137E-09-1.62146E-09
 -1       406 3.85475E+02 2.30486E+05 8.86770E+02-1.27322E+04-1.11868E-09 2.23963E-09
 -1       407 2.86057E+02 2.30649E+05 1.18553E+03-1.38695E+04-6.43865E-10-1.67529E-09
 -1       408 5.22062E+02 2.30443E+05 2.04267E+03-1.26478E+04-1.30058E-09 9.76843E-09
 -1       409 2.09242E+03 2.31237E+05 4.44041E+03-1.40104E+04-9.44965E-10 1.85912E-08
 -1       410 6.00712E+03 2.29882E+05 8.98738E+03-1.25880E+04-1.68347E-09 1.01190E-08
 -1       501-2.38567E+05-3.67404E+04 8.04230E+04-3.80612E+03 7.03349E-09 3.77258E-09
 -1       502-1.79865E+05 4.16952E+04 6.09088E+04 1.01549E+04 7.16546E-09 8.03084E-09
 -1       503-2.16875E+05-4.89175E+03 2.09815E+04-4.71938E+03 5.81467E-09 4.37194E-09
 -1       504-1.83955E+05 7.04360E+03 1.82996E+04 6.42980E+03-2.49258E-11 6.57838E-09
 -1       505-2.34397E+05-2.19457E+03 9.74917E+02-8.07394E+01 3.53972E-09-2.26487E-09
 -1       506-1.82288E+05 1.89345E+03 8.97286E+03-3.59128E+03 1.39676E-08-5.02996E-09
 -1       507-2.18510E+05 2.23506E+02 1.56748E+02 5.30043E+03 1.26390E-08-1.07956E-08
 -1       508-2.00218E+05-6.89817E+02 2.85066E+03-9.21700E+03 5.15650E-09-1.27999E-08
 -1       509-2.16602E+05 5.24700E+02-3.56933E+02 5.54650E+03 1.24578E-08-9.89516E-09
 -1       510-1.84320E+05 8.70955E+02 6.03372E+03-4.35225E+03 9.15321E-09-9.53236E-09
 -1       511-2.34285E+05-1.46147E+03-3.76023E+03 4.34188E+02-1.93126E-09-1.06215E-09
 -1       512-1.84956E+05 1.53797E+03 7.00672E+03 5.76075E+03-6.28063E-09 6.48868E-09
 -1       513-2.15975E+05-1.34203E+02 2.03635E+03-4.56534E+03-6.63437E-09 6.86589E-09
 -1       514-1.97159E+05 5.42708E+03 9.77496E+03 1.02059E+04-2.84213E-09 1.16552E-08
 -1       515-2.22195E+05-5.23539E+03 8.70521E+03-4.01126E+03-4.83871E-09 6.59566E-09
 -1       521-2.77291E+06-3.53095E+05-1.78641E+05-1.06682E+06-2.64845E-09-1.78989E-09
 -1       522-2.83071E+06-4.80211E+05-1.13509E+05-1.07303E+06-4.09045E-10-4.10364E-09
 -1       523-2.80494E+06-3.94947E+05-4.21367E+04-1.06083E+06-2.18279E-10-4.11092E-10
 -1       524-2.79353E+06-4.27027E+05-2.33308E+04-1.08268E+06-4.97153E-10-2.80670E-09
 -1       525-2.80908E+06-3.99160E+05-9.80933E+03-1.05985E+06 5.44674E-10 2.03590E-09
 -1       526-2.78874E+06-4.21726E+05-5.24675E+03-1.08412E+06 5.25006E-10 1.82479E-09
 -1       527-2.80967E+06-3.99546E+05-2.70985E+03-1.05967E+06 3.79885E-10-2.57604E-10
 -1       528-2.78836E+06-4.21075E+05-2.20633E+03-1.08407E+06-2.03784E-10-9.89530E-10
 -1       529-2.80945E+06-3.99769E+05-2.72334E+03-1.05991E+06-4.37467E-10-1.37788E-09
 -1       530-2.78950E+06-4.20913E+05-5.26566E+03-1.08311E+06-5.83896E-10 3.08319E-10
 -1       531-2.80844E+06-3.99813E+05-9.86882E+03-1.06055E+06-2.08729E-10-1.54614E-09
 -1       532-2.79504E+06-4.25459E+05-2.34332E+04-1.08072E+06 1.12686E-09 4.14730E-10
 -1       533-2.80389E+06-3.95979E+05-4.23533E+04-1.06197E+06 3.36087E-10-1.76442E-10
 -1       534-2.83310E+06-4.78144E+05-1.14027E+05-1.07015E+06-1.70303E-10-6.25732E-10
 -1       535-2.77135E+06-3.54300E+05-1.79493E+05-1.06838E+06-9.73159E-10 1.80444E-09
 -1       536 3.38234E+04-9.26322E+03 3.35462E+04-4.42754E+03 4.42014E-10-1.21327E-09
 -1       537 4.67092E+04 1.15860E+04 2.19607E+04-2.54028E+04-2.82307E-09-2.20462E-09
 -1       538 3.90033E+04-1.08015E+03 8.69157E+03-4.37256E+03 5.20231E-10-2.42289E-09
 -1       539 4.07372E+04 1.22585E+03 4.96273E+03-2.54496E+04 2.96950E-10 4.56896E-09
 -1       540 3.96291E+04-1.44219E+02 2.19043E+03-4.37840E+03 2.31012E-10 2.56910E-09
 -1       541 3.99114E+04 1.25896E+02 1.17606E+03-2.54332E+04-3.16049E-10 7.76595E-10
 -1       542 3.97077E+04-2.21068E+01 5.37786E+02-4.38909E+03-9.70886E-11 7.89555E-11
 -1       543 3.97449E+04 2.62901E+01 2.68204E+02-2.54165E+04-5.32964E-10-1.50237E-10
 -1       544 3.97178E+04 1.54510E+00 9.85681E+01-4.39513E+03 5.54223E-10-6.78483E-10
 -1       545 3.96929E+04 1.54591E+01-1.14448E+01-2.54092E+04-8.32188E-10-5.84464E-10
 -1       546 3.97253E+04 1.27219E+01-1.20494E+02-4.39643E+03 3.24150E-10 2.69154E-09
 -1       547 3.96466E+04-6.85624E+01-3.30532E+02-2.54079E+04-5.48255E-10 7.19297E-10
 -1       548 3.97730E+04 7.08125E+01-6.08448E+02-4.39637E+03-9.00627E-10 3.33955E-10
 -1       549 3.92806E+04-8.15544E+02-1.53930E+03-2.53761E+04-4.54747E-10-1.12277E-09
 -1       550 4.01436E+04 6.28103E+02-2.37707E+03-4.42821E+03 9.82254E-11 1.92347E-09
 -1       551 5.63946E+03-2.18711E+05 1.53804E+04-3.49675E+05-4.71482E-09-2.43745E-10
 -1       552 4.32119E+03-2.16364E+05 1.64107E+04-4.31690E+05-5.16957E-09 4.39104E-09
 -1       553 3.09068E+03-2.19169E+05 2.41398E+04-3.48978E+05-5.06043E-09 2.18461E-09
 -1       554 1.48383E+04-2.08514E+05 4.96181E+04-4.31787E+05-5.21686E-09 1.93722E-09
 -1       555 3.58998E+04-2.27061E+05 9.40226E+04-3.49489E+05-4.14730E-09-1.00044E-09
 -1       556-6.19175E+04-7.18731E+04 1.81776E+04-1.15456E+05-6.38101E-09-7.35236E-09
 -1       557-4.34879E+04-8.94186E+04 9.21180E+03-1.30121E+05-5.14774E-10-1.76055E-09
 -1       558-6.18508E+04-7.61191E+04 3.85106E+03-1.12546E+05 5.29326E-09 2.96950E-09
 -1       559-4.54758E+04-9.21040E+04 1.90797E+03-1.30905E+05 1.76806E-09 9.36780E-10
 -1       560-6.20818E+04-7.60224E+04 8.42998E+02-1.12606E+05-8.94215E-09-1.80662E-08
 -1       561-4.59065E+04-9.20876E+04 4.13977E+02-1.31194E+05-1.05501E-09-1.44428E-09
 -1       562-6.22822E+04-7.58776E+04 1.64432E+02-1.12748E+05 1.27329E-10-1.16142E-09
 -1       563-4.61326E+04-9.19920E+04 5.08856E+01-1.31347E+05-6.82121E-11-7.73070E-11
 -1       564-6.24014E+04-7.57949E+04-5.78018E+01-1.12833E+05 8.17636E-10-2.45109E-10
 -1       565-4.62500E+04-9.19458E+04-1.94274E+02-1.31420E+05 6.53017E-10-1.65710E-09
 -1       566-6.24251E+04-7.57633E+04-4.42101E+02-1.12858E+05 5.65706E-10-1.47338E-09
 -1       567-4.63320E+04-9.19745E+04-9.87206E+02-1.31406E+05 3.05567E-09 8.73479E-09
 -1       568-6.23038E+04-7.58745E+04-2.03326E+03-1.12793E+05 1.45519E-11-5.93900E-10
 -1       569-4.75340E+04-9.29755E+04-4.79464E+03-1.30981E+05 3.18687E-09 9.27685E-09
 -1       570-6.14498E+04-7.87441E+04-9.52808E+03-1.11643E+05 5.83896E-10 2.31034E-09
 -1       571 1.59699E+05 6.77516E+03 1.01519E+04-3.95385E+04-1.52795E-10-4.19050E-10
 -1       572 1.61226E+05 2.34012E+03 4.97776E+03-4.34290E+04-3.85626E-10 4.25871E-10
 -1       573 1.60317E+05 5.45376E+02 2.21248E+03-3.94364E+04-3.67891E-10-1.65801E-09
 -1       574 1.60500E+05 1.72940E+02 1.10927E+03-4.35424E+04 2.35559E-10 1.07411E-09
 -1       575 1.60388E+05 1.87493E+01 5.23638E+02-3.94231E+04 1.61435E-10-8.74934E-10
 -1       576 1.60404E+05 1.40377E+00 2.67177E+02-4.35574E+04 1.00158E-10 1.59071E-09
 -1       577 1.60399E+05-8.38430E+00 1.32891E+02-3.94214E+04 1.17439E-10 8.44011E-10
 -1       578 1.60394E+05-6.65888E+00 7.48481E+01-4.35592E+04-4.08363E-10 6.23004E-11
 -1       579 1.60408E+05-9.47502E+00 5.03122E+01-3.94213E+04-4.52928E-10 1.60026E-09
 -1       580 1.60407E+05-1.05527E+01 5.43515E+01-4.35568E+04-4.20414E-10-1.58707E-10
 -1       581 1.60423E+05-1.30120E+01 8.22174E+01-3.94237E+04-8.67658E-10 1.98997E-09
 -1       582 1.60441E+05 3.22243E+00 1.62296E+02-4.35328E+04 2.09639E-10-2.45382E-09
 -1       583 1.60436E+05 4.93338E+01 3.15960E+02-3.94453E+04 4.52019E-10-1.74850E-09
 -1       584 1.60573E+05 2.98088E+02 7.08950E+02-4.33511E+04-8.03993E-10 4.79304E-10
 -1       585 1.60374E+05 9.24056E+02 1.44179E+03-3.96061E+04 5.68434E-10 1.43700E-09
 -1       586 3.36532E+02 6.98186E+04 8.95200E+02-9.98221E+04 5.82077E-11 9.97261E-10
 -1       587 3.18042E+02 6.99836E+04 1.42806E+03-1.11316E+05-1.28148E-09 1.76669E-10
 -1       588 5.88547E+02 6.97237E+04 2.61730E+03-9.96946E+04 2.72848E-11 1.00135E-09
 -1       589 2.50152E+03 7.08090E+04 5.76839E+03-1.11335E+05-1.25692E-09 1.22327E-10
 -1       590 7.29620E+03 6.89756E+04 1.16463E+04-9.98016E+04 7.45786E-11-5.34328E-10
 -1       591-7.35547E+04-2.18231E+04-1.51612E+04-3.52807E+04 2.30898E-10-3.72893E-10
 -1       592-7.46001E+04-2.12836E+04-7.64820E+03-3.93119E+04 4.66116E-11 7.41693E-10
 -1       593-7.43527E+04-1.76984E+04-3.24579E+03-3.73682E+04-8.07290E-10 8.00583E-10
 -1       594-7.28622E+04-1.93987E+04-1.59529E+03-3.94429E+04 6.51994E-10 8.55042E-09
 -1       595-7.44371E+04-1.75937E+04-7.36321E+02-3.74462E+04-1.08776E-09 4.47358E-11
 -1       596-7.27443E+04-1.93332E+04-3.72181E+02-3.94249E+04 1.16484E-09-7.99957E-10
 -1       597-7.44510E+04-1.76067E+04-2.00182E+02-3.74462E+04-1.30242E-11-4.03702E-10
 -1       598-7.27320E+04-1.93338E+04-1.55513E+02-3.94195E+04-4.71744E-10 1.33161E-09
 -1       599-7.44502E+04-1.76075E+04-1.91754E+02-3.74456E+04 2.86263E-10 3.94721E-10
 -1       600-7.27420E+04-1.93342E+04-3.50034E+02-3.94228E+04-4.51564E-10-1.85764E-09
 -1       601-7.44351E+04-1.75964E+04-6.88555E+02-3.74446E+04-7.19183E-10-1.54114E-09
 -1       602-7.28518E+04-1.93946E+04-1.49015E+03-3.94361E+04-3.44926E-10 2.07547E-09
 -1       603-7.43535E+04-1.76972E+04-3.03081E+03-3.73726E+04-9.56334E-10-4.24279E-10
 -1       604-7.44912E+04-2.11356E+04-7.14049E+03-3.92904E+04-2.28283E-10-1.15870E-09
 -1       605-7.35884E+04-2.15646E+04-1.41542E+04-3.54421E+04 2.47519E-09 3.19415E-09
 -1       606 5.30902E+04-6.26297E+03-1.00711E+04 1.65598E+04 6.15091E-09 1.78670E-09
 -1       607 5.14743E+04-2.08835E+03-4.96550E+03 1.82318E+04 1.90926E-08 1.16324E-09
 -1       608 5.24122E+04-4.27860E+02-2.21376E+03 1.64430E+04 1.57643E-08 1.88265E-09
 -1       609 5.22083E+04-1.19872E+02-1.11268E+03 1.83609E+04 1.66801E-09-2.00248E-09
 -1       610 5.23260E+04 5.35527E+00-5.26977E+02 1.64287E+04-3.23507E-09-5.72072E-10
 -1       611 5.22866E+04 1.89802E+01-2.65158E+02 1.83765E+04-6.80120E-09 3.79714E-10
 -1       612 5.23070E+04 2.31924E+01-1.25342E+02 1.64271E+04-3.04817E-09 1.09299E-09
 -1       613 5.22922E+04 2.39051E+01-5.58069E+01 1.83784E+04-3.35831E-09 3.06409E-09
 -1       614 5.22984E+04 2.09998E+01-1.21977E+01 1.64267E+04-9.78616E-10 1.84514E-09
 -1       615 5.22907E+04 2.47088E+01 2.56016E+01 1.83786E+04 4.75757E-09 1.70201E-09
 -1       616 5.22916E+04 2.38331E+01 7.48175E+01 1.64269E+04-6.54836E-10-3.35922E-09
 -1       617 5.23008E+04 4.71398E+01 1.71056E+02 1.83780E+04 1.71940E-09-3.95130E-09
 -1       618 5.22765E+04 9.23486E+01 3.46163E+02 1.64273E+04 2.12663E-09-7.87168E-10
 -1       619 5.24158E+04 3.57030E+02 7.80173E+02 1.83748E+04 1.34833E-10-2.42153E-10
 -1       620 5.21699E+04 1.01043E+03 1.58370E+03 1.64291E+04 1.68598E-10-8.99718E-10
 -1       621 5.46261E+02 1.61490E+05 1.97095E+03-1.14848E+04-7.52607E-11 6.83372E-10
 -1       622 2.45055E+02 1.61893E+05 1.98613E+03-1.42219E+04 3.30260E-10 2.10872E-09
 -1       623 1.26027E+02 1.61552E+05 2.83182E+03-1.14899E+04 3.93356E-11 3.61524E-10
 -1       624 1.42610E+03 1.62811E+05 5.75770E+03-1.41708E+04 3.49246E-10 1.03114E-10
 -1       625 3.95777E+03 1.60580E+05 1.08975E+04-1.15348E+04 1.18007E-10-1.23009E-10
 -1       626 9.61544E+04 3.08614E+04-1.90513E+03 6.09408E+04-8.04448E-10 2.05182E-09
 -1       627 9.40584E+04 3.33844E+04-9.06002E+02 6.27103E+04 9.69521E-10 2.09354E-09
 -1       628 9.62344E+04 3.17216E+04-3.80857E+02 6.04257E+04 1.04228E-09-3.54248E-10
 -1       629 9.41351E+04 3.38237E+04-1.81524E+02 6.27453E+04 2.30284E-09 1.04902E-09
 -1       630 9.62301E+04 3.17781E+04-7.80829E+01 6.03801E+04 2.19916E-09 6.38693E-10
 -1       631 9.41317E+04 3.38583E+04-3.00168E+01 6.27493E+04-1.30240E-09-5.01643E-11
 -1       632 9.62221E+04 3.17807E+04 2.94746E+00 6.03738E+04 1.17643E-09 1.79762E-09
 -1       633 9.41290E+04 3.38611E+04 3.69001E+01 6.27488E+04 8.18545E-12 1.49623E-09
 -1       634 9.62152E+04 3.17774E+04 8.98651E+01 6.03721E+04 2.59820E-09 6.66023E-09
 -1       635 9.41378E+04 3.38629E+04 2.01616E+02 6.27507E+04 3.62547E-10 7.17137E-10
 -1       636 9.62060E+04 3.17837E+04 4.17308E+02 6.03666E+04-9.09250E-09 4.64547E-09
 -1       637 9.42343E+04 3.39649E+04 9.29454E+02 6.27367E+04-1.98397E-08-5.72595E-09
 -1       638 9.61807E+04 3.20946E+04 1.92318E+03 6.02298E+04-1.77556E-09-1.63436E-09
 -1       639 9.52170E+04 3.56157E+04 4.57124E+03 6.23414E+04 9.60733E-09-1.66801E-08
 -1       640 9.61914E+04 3.69079E+04 9.61135E+03 5.82225E+04 5.08271E-09-3.03976E-09
 -1       641-1.33776E+04 1.98268E+03-4.57058E+03-1.65775E+01 1.04714E-05-9.81072E-09
 -1       642-1.53613E+04-2.29475E+03-3.23433E+03 1.06004E+01 2.09250E-05-1.60039E-08
 -1       643-1.41421E+04 3.11623E+02-1.17873E+03-1.82671E+01 1.92353E-05-1.87017E-08
 -1       644-1.44702E+04-3.59872E+02-7.34823E+02 1.35941E+01 1.75342E-05-1.55795E-08
 -1       645-1.42688E+04 4.81776E+01-2.84759E+02-1.95717E+01 1.15808E-05-1.13341E-08
 -1       646-1.43199E+04-5.17432E+01-1.39916E+02 1.52713E+01 5.61922E-06-4.04256E-09
 -1       647-1.42924E+04 3.54873E+00-1.01992E+01-1.99444E+01-2.66143E-06 3.14618E-09
 -1       648-1.42795E+04 2.14840E+01 1.02913E+02 1.49749E+01-1.09482E-05 1.32428E-08
 -1       649-1.43091E+04-2.50405E+01 2.43203E+02-1.92753E+01-2.03940E-05 1.86785E-08
 -1       650-1.41880E+04 1.93410E+02 5.94409E+02 1.26007E+01-2.98373E-05 2.31295E-08
 -1       651-1.43840E+04-1.68354E+02 1.03512E+03-1.75702E+01-3.86457E-05 3.25556E-08
 -1       652-1.36755E+04 1.24508E+03 2.56516E+03 8.09688E+00-4.74490E-05 3.73609E-08
 -1       653-1.48215E+04-1.07652E+03 4.08287E+03-1.47715E+01-5.05481E-05 4.18256E-08
 -1       654-1.05967E+04 7.92511E+03 1.11766E+04 4.94038E-01-5.36165E-05 3.58384E-08
 -1       655-1.74624E+04-6.84707E+03 1.57864E+04-9.96761E+00-2.68340E-05 1.52841E-08
 -1       656 6.07381E+03-2.27563E+05-2.57961E+04 6.11980E+03-1.37697E-09-7.36213E-09
 -1       657-8.82426E+03-2.37118E+05-1.91364E+04 2.62924E+04-1.47293E-09-1.37948E-08
 -1       658 1.25392E+03-2.30877E+05-1.24547E+04 6.07054E+03-2.69790E-09-6.34071E-09
 -1       659-8.69034E+03-2.37056E+05-1.89125E+04 2.63217E+04-7.91260E-10-1.34781E-09
 -1       660 5.97357E+03-2.27642E+05-2.53714E+04 6.09081E+03-1.95541E-10-2.29545E-09
 -1       661 1.41260E+05 1.95827E+04 1.12126E+04 5.53884E+04 3.10354E-09 2.34877E-09
 -1       662 1.43667E+05 2.61023E+04 6.75229E+03 5.70444E+04 1.32840E-09 4.15321E-09
 -1       663 1.42983E+05 2.12536E+04 2.63164E+03 5.53973E+04-2.80531E-09-4.52917E-09
 -1       664 1.41653E+05 2.33946E+04 1.38875E+03 5.73612E+04 4.84101E-09 2.15593E-09
 -1       665 1.43148E+05 2.14058E+04 6.14583E+02 5.54037E+04-1.29234E-10-2.78078E-10
 -1       666 1.41460E+05 2.31694E+04 3.27103E+02 5.73750E+04 3.79093E-09 4.28811E-09
 -1       667 1.43167E+05 2.14209E+04 1.90473E+02 5.54051E+04-4.49717E-10-4.72653E-10
 -1       668 1.41443E+05 2.31541E+04 1.82967E+02 5.73758E+04 3.51899E-09-2.59357E-09
 -1       669 1.43166E+05 2.14185E+04 2.67040E+02 5.54041E+04 5.57992E-09-2.98553E-09
 -1       670 1.41477E+05 2.31869E+04 5.34149E+02 5.73805E+04 7.96325E-09-5.33507E-09
 -1       671 1.43134E+05 2.13903E+04 1.04543E+03 5.54002E+04 5.89540E-09-2.56193E-09
 -1       672 1.41809E+05 2.35777E+04 2.38749E+03 5.73605E+04 3.57250E-09 3.98984E-09
 -1       673 1.42850E+05 2.11263E+04 4.53318E+03 5.53878E+04 3.64813E-09 1.37607E-09
 -1       674 1.45280E+05 2.82481E+04 1.16393E+04 5.68174E+04 1.13842E-08 2.14277E-09
 -1       675 1.39881E+05 1.82445E+04 1.93288E+04 5.53716E+04 5.34169E-09 1.00044E-10
 -1       676 2.37251E+02-2.03263E+05-1.63895E+03-2.60978E+02-1.72286E-09 6.10648E-10
 -1       677-6.82311E+02-2.03908E+05-2.46255E+03-1.26385E+03-4.00954E-09 5.38662E-11
 -1       678 3.15909E+02-2.03178E+05-3.73251E+03-2.61913E+02-6.17774E-10-1.72436E-09
 -1       679-4.16933E+03-2.06023E+05-8.80511E+03-1.25921E+03-5.81804E-09-4.83913E-09
 -1       680 2.95460E+03-2.01149E+05-1.37178E+04-2.66068E+02-1.71985E-09 2.41411E-09
 -1       716-1.80689E-01-8.61444E-02 8.08510E+00-2.08908E-04-3.78590E-09-1.41733E-09
 -1       717 8.89801E-01 6.48900E-01 1.42394E+01 5.31605E-04-1.40113E-09-1.46521E-09
 -1       718-7.09125E-01-5.62990E-01 2.64244E+01-3.22714E-04-1.62276E-09-1.47892E-09
 -1       719 4.20157E+00 4.42003E+00 5.48090E+01-4.82423E-04 2.55331E-09 4.11520E-11
 -1       720-3.49250E+00-3.85751E+00 1.04536E+02 8.05730E-04-2.78585E-09-1.43267E-09
 -1       721 2.17457E+01 2.94509E+01 2.23412E+02-1.70102E-02-2.60383E-09-9.36822E-10
 -1       722-1.82534E+01-2.55929E+01 4.18152E+02 1.62026E-02-2.63067E-09-1.83007E-09
 -1       723 1.18230E+02 1.92169E+02 9.21043E+02-1.63231E-01-3.35917E-11-1.21314E-09
 -1       724-9.99744E+01-1.66557E+02 1.66785E+03 1.46989E-01-3.27607E-09-1.53739E-09
 -1       725 6.69679E+02 1.23831E+03 3.84391E+03-1.25531E+00-3.61672E-09-1.31490E-09
 -1       726-5.69653E+02-1.07155E+03 6.61344E+03 1.10801E+00-3.91957E-09-1.21008E-09
 -1       727 3.91857E+03 7.91844E+03 1.63265E+04-8.83023E+00-4.77944E-09 4.32919E-10
 -1       728-3.34796E+03-6.84534E+03 2.59742E+04 7.72091E+00-8.20581E-10-1.43154E-09
 -1       729 2.34914E+04 5.03947E+04 7.10760E+04-5.93925E+01 2.33852E-09-2.59479E-09
 -1       730-2.01273E+04-4.35359E+04 1.00428E+05 5.16774E+01 3.95238E-09-2.15368E-09
 -1       766-4.35454E+04-2.01550E+04 1.00409E+05-4.49224E+01-1.23691E-10 1.25794E-10
 -1       767 5.04670E+04 2.35371E+04 7.10706E+04 1.57600E+01 3.52338E-09-3.46496E-10
 -1       768-6.90835E+03-3.40151E+03 2.58891E+04 4.50370E+00-1.16415E-10 5.29081E-10
 -1       769 8.37958E+03 4.13135E+03 1.63323E+04-4.02297E+01 2.71280E-09 2.87453E-09
 -1       770-1.46953E+03-7.64420E+02 6.23824E+03 1.10727E+01-2.34650E-10 1.19571E-09
 -1       771-1.26459E+06-2.41844E+05-3.51579E+04-5.41028E+05-1.79534E-09 0.00000E+00
 -1       772-1.25916E+06-2.48117E+05-1.77011E+04-5.59025E+05-6.18456E-10 3.16504E-10
 -1       773-1.26705E+06-2.31804E+05-7.55656E+03-5.45564E+05-1.54978E-09-6.70661E-09
 -1       774-1.25498E+06-2.44125E+05-3.69759E+03-5.60076E+05 1.46429E-09-7.89896E-10
 -1       775-1.26752E+06-2.31360E+05-1.73187E+03-5.45811E+05 8.54197E-09 2.08929E-08
 -1       776-1.25486E+06-2.43970E+05-8.66081E+02-5.60315E+05-2.72848E-11 1.41040E-09
 -1       777-1.26776E+06-2.31257E+05-4.78766E+02-5.45889E+05 2.29193E-10 2.04864E-10
 -1       778-1.25495E+06-2.43942E+05-3.59980E+02-5.60485E+05 1.39153E-10 6.53557E-10
 -1       779-1.26790E+06-2.31168E+05-4.50698E+02-5.45943E+05-6.62112E-10 1.08230E-10
 -1       780-1.25506E+06-2.43926E+05-8.11714E+02-5.60609E+05-1.38834E-09-1.44087E-09
 -1       781-1.26794E+06-2.31090E+05-1.60274E+03-5.45972E+05-3.61979E-10-2.84672E-10
 -1       782-1.25536E+06-2.44058E+05-3.47041E+03-5.60688E+05 1.25965E-09 1.51249E-09
 -1       783-1.26776E+06-2.31316E+05-7.06642E+03-5.45814E+05-6.76948E-10-4.05635E-10
 -1       784-1.25921E+06-2.48097E+05-1.66627E+04-5.60300E+05-1.16404E-09-7.93079E-10
 -1       785-1.26591E+06-2.40393E+05-3.30418E+04-5.41332E+05 5.16593E-10 4.25644E-10
 -1       786 1.27391E+05-4.20797E+03 1.54252E+04-5.93775E+02-1.70814E-10 8.13998E-10
 -1       787 1.33168E+05 5.36049E+03 1.00769E+04-3.47540E+03 7.49196E-11-3.44130E-10
 -1       788 1.29775E+05-4.70645E+02 4.00532E+03-5.91851E+02-1.94973E-10-1.58798E-09
 -1       789 1.30490E+05 5.85115E+02 2.27848E+03-3.47467E+03 6.84977E-10-7.25976E-10
 -1       790 1.30067E+05-5.37331E+01 1.02017E+03-5.94391E+02-7.38680E-11-1.12448E-09
 -1       791 1.30158E+05 6.34174E+01 5.54174E+02-3.47116E+03 1.85139E-10-4.45766E-10
 -1       792 1.30106E+05-6.72885E+00 2.81622E+02-5.95356E+02 1.18265E-10-8.78060E-10
 -1       793 1.30116E+05 9.43756E+00 1.89301E+02-3.47110E+03-1.92983E-11-3.08525E-09
 -1       794 1.30109E+05-3.70646E+00 1.75212E+02-5.94455E+02-1.42307E-10 3.43903E-10
 -1       795 1.30129E+05 2.81700E+01 2.70708E+02-3.47491E+03 3.71386E-10-6.20108E-10
 -1       796 1.30093E+05-2.40903E+01 4.62938E+02-5.91544E+02-3.93186E-10-2.49912E-10
 -1       797 1.30276E+05 2.57624E+02 1.01244E+03-3.48168E+03 2.50111E-12-9.11314E-10
 -1       798 1.29964E+05-2.08363E+02 1.77118E+03-5.87689E+02-3.07580E-10 2.42085E-09
 -1       799 1.31459E+05 2.36548E+03 4.45056E+03-3.48358E+03-3.19886E-10 2.47269E-10
 -1       800 1.28912E+05-1.85885E+03 6.81007E+03-5.89713E+02 6.59384E-11 1.32604E-09
 -1       801-7.96491E+03 1.73025E+05 2.33878E+04-1.31525E+05 7.06223E-09-5.77711E-09
 -1       802 1.92823E+04 1.80907E+05 3.03380E+04-7.54689E+05 2.07201E-08-1.86355E-09
 -1       803-2.34494E+03 1.72573E+05 3.62621E+04-1.31193E+05 1.28839E-08 5.93809E-09
 -1       804 5.06734E+04 1.98910E+05 8.23974E+04-7.54637E+05 2.09184E-08 7.27596E-09
 -1       805-3.55170E+04 1.55419E+05 1.19869E+05-1.31586E+05 6.60657E-09 7.55244E-09
 -1       806-1.10289E+05-3.36356E+04-9.99387E+03-5.61764E+04 6.02597E-10 7.23048E-10
 -1       807-1.09951E+05-3.16148E+04-4.75263E+03-5.96930E+04 1.42563E-10 1.64749E-09
 -1       808-1.10275E+05-2.86380E+04-2.00013E+03-5.82799E+04 3.12684E-09 4.67207E-09
 -1       809-1.08950E+05-2.98823E+04-9.67099E+02-6.00937E+04-2.33217E-09-8.82207E-09
 -1       810-1.10304E+05-2.83133E+04-4.36584E+02-5.84260E+04-2.81511E-09-8.16931E-09
 -1       811-1.08854E+05-2.97739E+04-2.15602E+02-6.01084E+04-3.74541E-10-1.00317E-09
 -1       812-1.10313E+05-2.83064E+04-1.06286E+02-5.84318E+04-1.67645E-10-5.41149E-10
 -1       813-1.08843E+05-2.97724E+04-6.59980E+01-6.01049E+04 6.18570E-10 4.08636E-09
 -1       814-1.10312E+05-2.83098E+04-5.99729E+01-5.84303E+04-1.80535E-10-7.42830E-10
 -1       815-1.08845E+05-2.97753E+04-9.26656E+01-6.01026E+04 2.87969E-10-2.07501E-09
 -1       816-1.10306E+05-2.83155E+04-1.72840E+02-5.84264E+04-8.91305E-10-4.86125E-10
 -1       817-1.08883E+05-2.98134E+04-3.75706E+02-6.00877E+04 3.31056E-10-6.53586E-10
 -1       818-1.10286E+05-2.84487E+04-7.73770E+02-5.83735E+04-8.27185E-10-7.03039E-10
 -1       819-1.09313E+05-3.04361E+04-1.83611E+03-5.98749E+04-4.97494E-10 1.60412E-10
 -1       820-1.10243E+05-3.04215E+04-3.85992E+03-5.76071E+04-2.14641E-09-5.96265E-09
 -1       821-1.51561E+05 5.21484E+03-1.91219E+04 7.12386E+02-1.90107E-09-6.91216E-11
 -1       822-1.58716E+05-6.64470E+03-1.24919E+04 4.30780E+03-1.55808E-10 1.91380E-09
 -1       823-1.54516E+05 5.82489E+02-4.96742E+03 6.86706E+02 1.44178E-09-6.88487E-10
 -1       824-1.55403E+05-7.22214E+02-2.82815E+03 4.34350E+03-5.16025E-10-1.33099E-09
 -1       825-1.54879E+05 6.66839E+01-1.27344E+03 6.76499E+02-2.94307E-09-7.69546E-10
 -1       826-1.54996E+05-7.42519E+01-7.04602E+02 4.36009E+03-4.98179E-09-1.33360E-09
 -1       827-1.54927E+05 9.43467E+00-3.84356E+02 6.70065E+02-3.40003E-09 1.33112E-09
 -1       828-1.54950E+05-9.95892E+00-3.07781E+02 4.37016E+03-3.73655E-09 7.21698E-10
 -1       829-1.54928E+05 8.98580E+00-3.58779E+02 6.66427E+02-3.96440E-10-1.92358E-10
 -1       830-1.54992E+05-6.48703E+01-6.36901E+02 4.37417E+03 2.70744E-09-2.21863E-09
 -1       831-1.54885E+05 6.04116E+01-1.13977E+03 6.66054E+02-1.46801E-09 1.71366E-09
 -1       832-1.55357E+05-6.41974E+02-2.52547E+03 4.37161E+03 1.59770E-09-3.26793E-10
 -1       833-1.54562E+05 5.21088E+02-4.43228E+03 6.69033E+02 6.23572E-10 3.52884E-10
 -1       834-1.58315E+05-5.92534E+03-1.11460E+04 4.35667E+03-2.55682E-10 8.99604E-10
 -1       835-1.51926E+05 4.65460E+03-1.70598E+04 6.81369E+02-4.40082E-10-3.54794E-09
 -1       836-1.70737E+03 2.41211E+05 1.92619E+04-1.37739E+04-2.30557E-09-1.55728E-09
 -1       837 4.51380E+03 2.47364E+05 1.48008E+04-2.98749E+04-1.90909E-09 1.60640E-10
 -1       838-4.21861E+02 2.43246E+05 1.26027E+04-1.37349E+04-2.70097E-09 2.31839E-09
 -1       839 7.57360E+03 2.49563E+05 2.17093E+04-2.98761E+04-2.16232E-09 2.04255E-09
 -1       840-3.08161E+03 2.39010E+05 3.31636E+04-1.37723E+04-2.27919E-09 1.21463E-09
 -1       841 4.32262E+04 6.27361E+03-5.09926E+02 1.61155E+04-1.24180E-05 4.65882E-06
 -1       842 4.28911E+04 5.87570E+03-3.51799E+02 1.62861E+04-2.48204E-05 9.32169E-06
 -1       843 4.31124E+04 6.10291E+03-1.17560E+02 1.61652E+04-1.97243E-05 7.40677E-06
 -1       844 4.30276E+04 6.06925E+03-6.97224E+01 1.62234E+04-1.46065E-05 5.49382E-06
 -1       845 4.30896E+04 6.08009E+03-1.85710E+01 1.61782E+04-1.03297E-05 3.87998E-06
 -1       846 4.30584E+04 6.09637E+03 5.06253E+00 1.62054E+04-6.05370E-06 2.27293E-06
 -1       847 4.30816E+04 6.07580E+03 3.36250E+01 1.61832E+04-3.74326E-06 1.40166E-06
 -1       848 4.30806E+04 6.11997E+03 9.23740E+01 1.61960E+04-1.43111E-06 5.39690E-07
 -1       849 4.30674E+04 6.05649E+03 1.73321E+02 1.61875E+04-4.22041E-07 1.58984E-07
 -1       850 4.31704E+04 6.26541E+03 4.39803E+02 1.61714E+04 5.85234E-07-2.20913E-07
 -1       851 4.29918E+04 5.93038E+03 7.59953E+02 1.62078E+04 6.39619E-07-2.40086E-07
 -1       852 4.37087E+04 7.19021E+03 2.05232E+03 1.60096E+04 6.94372E-07-2.59922E-07
 -1       853 4.25291E+04 5.13182E+03 3.28214E+03 1.63493E+04-1.47472E-07 5.89496E-08
 -1       854 4.70284E+04 1.30459E+04 9.73244E+03 1.49185E+04-9.93646E-07 3.71419E-07
 -1       855 3.96721E+04 7.56605E+01 1.40086E+04 1.72985E+04-4.95286E-07 1.86798E-07
 -1       856-1.20579E+05 1.82341E+03-1.45218E+04 4.38899E+03-1.67984E-09-7.21684E-10
 -1       857-1.25325E+05-3.50892E+03-8.86975E+03 1.04885E+04-1.11640E-09 9.54969E-12
 -1       858-1.22630E+05 1.67676E+02-3.72843E+03 4.34309E+03-2.90015E-09-1.04524E-09
 -1       859-1.23096E+05-2.49001E+02-2.00632E+03 1.05399E+04 1.99520E-09-1.89436E-09
 -1       860-1.22824E+05 2.52471E+01-9.41259E+02 4.33679E+03 6.01631E-10-1.63300E-09
 -1       861-1.22887E+05-2.22660E-01-4.95060E+02 1.05480E+04-4.29742E-09 1.74339E-10
 -1       862-1.22849E+05 1.12684E+01-2.58211E+02 4.33490E+03 6.85333E-09-3.35132E-09
 -1       863-1.22864E+05 1.83196E+01-1.70563E+02 1.05501E+04 1.14251E-08-5.99999E-09
 -1       864-1.22851E+05 1.00875E+01-1.60034E+02 4.33471E+03 3.99933E-09-2.35309E-09
 -1       865-1.22870E+05 1.08787E+01-2.40985E+02 1.05484E+04 7.59951E-09-7.87850E-10
 -1       866-1.22840E+05 1.52748E+01-4.24975E+02 4.33665E+03 4.89990E-10-2.03644E-09
 -1       867-1.22958E+05-9.95166E+01-8.86688E+02 1.05413E+04-7.27027E-10-2.04949E-09
 -1       868-1.22754E+05 7.63831E+01-1.64036E+03 4.34184E+03 6.12772E-10-1.71531E-09
 -1       869-1.23932E+05-1.53276E+03-3.89568E+03 1.04926E+04-5.40604E-09-3.03999E-09
 -1       870-1.21852E+05 8.01111E+02-6.37798E+03 4.38570E+03 1.32741E-09-2.63935E-09
 -1       871-2.15997E+03-1.93408E+04-4.94612E+03 6.63155E+04 2.44108E-09 2.44017E-09
 -1       872-7.43541E+02-2.03301E+04-1.64162E+03 8.08766E+04-1.26511E-09 1.63686E-09
 -1       873 2.47006E+00-1.99233E+04 1.06622E+03 6.61801E+04 9.30413E-10 1.59048E-09
 -1       874 1.26229E+03-1.88667E+04 4.55765E+03 8.09193E+04-8.96762E-10 1.27318E-09
 -1       875 3.83446E+03-2.08404E+04 9.80534E+03 6.62771E+04 6.72117E-10-2.72166E-09
 -1       876 1.88945E+05 2.70853E+04 1.67042E+04 7.49441E+04-6.31644E-10 1.84809E-09
 -1       877 1.92064E+05 3.63034E+04 9.92763E+03 7.78968E+04-3.86711E-09 6.33008E-10
 -1       878 1.91420E+05 2.91676E+04 3.90799E+03 7.50801E+04-3.57204E-10 7.50561E-10
 -1       879 1.89145E+05 3.25134E+04 2.04089E+03 7.83087E+04-1.38925E-10 2.53732E-09
 -1       880 1.91643E+05 2.93554E+04 9.07248E+02 7.51002E+04 1.24260E-09 6.13454E-10
 -1       881 1.88882E+05 3.22158E+04 4.74301E+02 7.83152E+04 2.97177E-10 1.03634E-09
 -1       882 1.91666E+05 2.93771E+04 2.64961E+02 7.51047E+04 3.20927E-09 2.03869E-10
 -1       883 1.88859E+05 3.21927E+04 2.33113E+02 7.83097E+04-6.88468E-09-2.40647E-10
 -1       884 1.91664E+05 2.93770E+04 3.19610E+02 7.51051E+04-4.78937E-09-3.78918E-10
 -1       885 1.88896E+05 3.22221E+04 6.21088E+02 7.83128E+04 2.13186E-09 1.21059E-09
 -1       886 1.91630E+05 2.93502E+04 1.21468E+03 7.51007E+04 1.96988E-09 7.58519E-10
 -1       887 1.89253E+05 3.26209E+04 2.74703E+03 7.82992E+04-2.20098E-10 1.10970E-09
 -1       888 1.91325E+05 2.90990E+04 5.26601E+03 7.50743E+04-7.06376E-09 1.20735E-09
 -1       889 1.93180E+05 3.77385E+04 1.33812E+04 7.77515E+04 4.52135E-09 5.08635E-10
 -1       890 1.87997E+05 2.62836E+04 2.25162E+04 7.48795E+04-6.67569E-10-5.53609E-09
 -1       891 2.97254E+02-8.96048E+04-3.59703E+03 2.01306E+04 7.59883E-10 1.77647E-09
 -1       892-8.72126E+02-9.07326E+04-2.69425E+03 4.37992E+04-2.77396E-10 5.73209E-10
 -1       893 5.83953E+01-9.00061E+04-2.19189E+03 2.00743E+04 3.16072E-09 3.45324E-10
 -1       894-1.30156E+03-9.10302E+04-3.65560E+03 4.37844E+04 1.61435E-09 2.33842E-09
 -1       895 4.82031E+02-8.92917E+04-5.53307E+03 2.01452E+04 3.83761E-09 2.64572E-09
 -1       926-2.90138E+02-5.64675E+02 1.29800E+03 1.80251E+01 3.89346E-10-5.80599E-10
 -1       927 3.31679E+02 6.53927E+02 9.38754E+02-7.13814E+01-1.49048E-09-7.94358E-10
 -1       928-6.59818E+01-8.92739E+01 3.59068E+02 1.76465E+01 2.72928E-11-3.76986E-10
 -1       929 6.86909E+01 1.06943E+02 2.70679E+02-7.09860E+01 1.01050E-09-4.27377E-10
 -1       930-2.72295E+01-1.77417E+01 1.90116E+02 1.76296E+01 5.49734E-11-1.94376E-10
 -1       931 3.46922E+01 4.58280E+01 2.79308E+02-7.09640E+01-1.36631E-09-1.43867E-10
 -1       932-3.20451E+01-2.81279E+01 4.46401E+02 1.76244E+01-1.76233E-06 5.93587E-11
 -1       933 1.18922E+02 1.97930E+02 9.50428E+02-7.09455E+01-3.52215E-06-3.09228E-11
 -1       934-1.11501E+02-1.69797E+02 1.70293E+03 1.76111E+01-2.42275E-06-1.38584E-10
 -1       935 6.75081E+02 1.26076E+03 3.91599E+03-7.08631E+01-1.32123E-06 1.11982E-11
 -1       936-5.88178E+02-1.09076E+03 6.73348E+03 1.75421E+01-6.24059E-07 3.63798E-11
 -1       937 3.98101E+03 8.06061E+03 1.66202E+04-7.06637E+01 7.52052E-08 2.58524E-10
 -1       938-3.41651E+03-6.96818E+03 2.64407E+04 1.74118E+01 1.20953E-07-4.91127E-11
 -1       939 2.39074E+04 5.12999E+04 7.23525E+04-7.34824E+01 1.59937E-07 8.73115E-11
 -1       940-2.04988E+04-4.43182E+04 1.02229E+05 2.03601E+01 7.78566E-08 5.02041E-10
 -1       956-1.70808E+05-3.15030E+03-7.33984E+03 2.09398E+04-2.56114E-09-1.54023E-09
 -1       957-1.72217E+05-1.02698E+03-3.74129E+03 2.48335E+04-1.20826E-09 2.85581E-10
 -1       958-1.71443E+05-9.52038E+01-1.68479E+03 2.08132E+04 1.55978E-09 7.36691E-10
 -1       959-1.71565E+05-1.16659E+01-8.58754E+02 2.49715E+04-1.41154E-09-8.24912E-10
 -1       960-1.71506E+05 2.97850E+01-4.17328E+02 2.08010E+04-3.71210E-09-1.49271E-09
 -1       961-1.71520E+05 3.17012E+01-2.19269E+02 2.49851E+04-6.46469E-09-5.90262E-10
 -1       962-1.71522E+05 2.94935E+01-1.21721E+02 2.07995E+04-3.04590E-09 7.50333E-12
 -1       963-1.71520E+05 3.40466E+01-9.09773E+01 2.49870E+04-3.12548E-09 2.18711E-09
 -1       964-1.71526E+05 3.12705E+01-1.02219E+02 2.07990E+04-9.00400E-11-1.53591E-09
 -1       965-1.71527E+05 3.61636E+01-1.69835E+02 2.49868E+04 3.58543E-09 9.59744E-10
 -1       966-1.71521E+05 3.50221E+01-3.15039E+02 2.07997E+04-1.11152E-09 3.59023E-10
 -1       967-1.71567E+05 7.20990E+00-6.44797E+02 2.49788E+04-1.59071E-09-1.86446E-10
 -1       968-1.71478E+05-5.55701E+01-1.26274E+03 2.08071E+04-7.60701E-09-1.43109E-09
 -1       969-1.72062E+05-7.51289E+02-2.80440E+03 2.48936E+04-1.00490E-08 1.90767E-10
 -1       970-1.71006E+05-2.34417E+03-5.50095E+03 2.08863E+04-3.87536E-09-2.10093E-10
 -1       971-2.18177E+05 6.18432E+02-9.58694E+03 5.75277E+03 2.36469E-11-1.03546E-09
 -1       972-2.21123E+05-1.99150E+03-5.70747E+03 1.16157E+04 1.37879E-09-3.70994E-09
 -1       973-2.19475E+05 6.62330E+01-2.44525E+03 5.68924E+03-2.51930E-09-3.66367E-09
 -1       974-2.19732E+05-1.11965E+02-1.30100E+03 1.16879E+04-6.21981E-10-1.25056E-09
 -1       975-2.19589E+05 1.73241E+01-6.27825E+02 5.68000E+03 4.17685E-10-2.28943E-09
 -1       976-2.19618E+05 1.25364E+01-3.47911E+02 1.17006E+04-2.36014E-09 1.43967E-09
 -1       977-2.19604E+05 1.28113E+01-2.21265E+02 5.67641E+03 6.14432E-09-1.43757E-09
 -1       978-2.19611E+05 2.11477E+01-2.18969E+02 1.17054E+04 1.17867E-08 8.43613E-10
 -1       979-2.19603E+05 1.48827E+01-3.16807E+02 5.67516E+03 5.19981E-09-8.82807E-10
 -1       980-2.19637E+05 8.16182E+00-5.94363E+02 1.17053E+04 4.29807E-09-2.75242E-09
 -1       981-2.19578E+05 2.76289E+01-1.13131E+03 5.67654E+03-1.38311E-09-1.72786E-09
 -1       982-2.19859E+05-2.15698E+02-2.38158E+03 1.16986E+04-3.40151E-10-1.53490E-09
 -1       983-2.19374E+05 1.22718E+02-4.48971E+03 5.68202E+03 3.20301E-09-3.40128E-09
 -1       984-2.22433E+05-3.66683E+03-1.04952E+04 1.16458E+04 2.60115E-10-1.11925E-09
 -1       985-2.16991E+05 1.14496E+03-1.76276E+04 5.73081E+03 2.52999E-09-3.02680E-09
 -3
    1PSTEP                         9           5           1          
  100CL  105 4.06250E-01         608                     0    5           1
 -4  DISP        4    1
 -5  D1          1    2    1    0
 -5  D2          1    2    2    0
 -5  D3          1    2    3    0
 -5  ALL         1    2    0    0    1ALL
 -1         1 6.51773E-05 0.00000E+00 0.00000E+00
 -1         2 5.34471E-05 0.00000E+00 0.00000E+00
 -1         3 3.90653E-05 0.00000E+00 0.00000E+00
 -1         4 3.51651E-05 0.00000E+00 0.00000E+00
 -1         5 3.32559E-05 0.00000E+00 0.00000E+00
 -1         8 5.22396E-05-6.06576E-07 0.00000E+00
 -1         9 3.82151E-05-3.15805E-07 0.00000E+00
 -1        10 3.98029E-05-1.25510E-06 0.00000E+00
 -1        11 3.61740E-05-2.12531E-07 0.00000E+00
 -1        12 3.25695E-05 5.05121E-07 0.00000E+00
 -1        15 3.82109E-05-6.40175E-07-2.06795E-25
 -1        16 3.13063E-05-3.90040E-07 0.00000E+00
 -1        17 2.94967E-05-2.59233E-06 0.00000E+00
 -1        18 2.97129E-05-4.16209E-07 0.00000E+00
 -1        19 3.06414E-05 1.00426E-06 0.00000E+00
 -1        20 3.09448E-05 1.19721E-05 0.00000E+00
 -1        21 3.08527E-05 2.62234E-05 0.00000E+00
 -1        23 1.11836E-05-4.13990E-05 0.00000E+00
 -1        24 1.11100E-05-3.12561E-06 0.00000E+00
 -1        25 2.76989E-05-2.68220E-07 0.00000E+00
 -1        26 2.84492E-05 1.35253E-06 0.00000E+00
 -1        27 2.75555E-05 1.14795E-05 0.00000E+00
 -1        28 2.68410E-05 2.57826E-05 0.00000E+00
 -1        31 3.22100E-08-3.16514E-06 0.00000E+00
 -1        32 0.00000E+00 0.00000E+00 0.00000E+00
 -1        33 2.59828E-05 1.86928E-06 0.00000E+00
 -1        34 2.49866E-05 1.14340E-05 0.00000E+00
 -1        35 2.37113E-05 2.55878E-05 0.00000E+00
 -1        36 6.44665E-05-3.44614E-20 1.32349E-23
 -1        37 6.37330E-05 3.35122E-19 0.00000E+00
 -1        38 6.30010E-05 4.40435E-19-2.64698E-23
 -1        39 6.22647E-05 2.73822E-19 1.32349E-23
 -1        40 6.15283E-05-5.36375E-20 0.00000E+00
 -1        41 6.07910E-05 8.00805E-20 0.00000E+00
 -1        42 6.00536E-05 2.88695E-19-2.64698E-23
 -1        43 5.93161E-05 2.70832E-19-1.32349E-23
 -1        44 5.85786E-05 2.62605E-19-2.64698E-23
 -1        45 5.78411E-05 1.70760E-20 1.32349E-23
 -1        46 5.71038E-05-8.32842E-20-2.64698E-23
 -1        47 5.63671E-05 3.52274E-19 0.00000E+00
 -1        48 5.56305E-05 3.26874E-19 0.00000E+00
 -1        49 5.48974E-05 9.49201E-20-1.32349E-23
 -1        50 5.41632E-05 2.05449E-20 0.00000E+00
 -1        51 6.42159E-05-1.01560E-07 0.00000E+00
 -1        52 6.26047E-05-1.99953E-07 0.00000E+00
 -1        53 6.04695E-05-2.98146E-07 0.00000E+00
 -1        54 5.79419E-05-3.97305E-07 0.00000E+00
 -1        55 5.51543E-05-4.98562E-07-4.44610E-24
 -1        56 6.38183E-05-7.30133E-07-2.64698E-23
 -1        57 6.25405E-05-1.84161E-06 0.00000E+00
 -1        58 6.13500E-05-3.17598E-06 5.29396E-23
 -1        59 6.01784E-05-4.59024E-06 2.64698E-23
 -1        60 5.89746E-05-5.91892E-06 0.00000E+00
 -1        61 5.76780E-05-7.00484E-06 0.00000E+00
 -1        62 5.62477E-05-7.73443E-06 0.00000E+00
 -1        63 5.46474E-05-8.01182E-06 0.00000E+00
 -1        64 5.28721E-05-7.82303E-06-5.29396E-23
 -1        65 5.09249E-05-7.17627E-06 2.64698E-23
 -1        66 4.88399E-05-6.16313E-06-5.29396E-23
 -1        67 4.66596E-05-4.89203E-06 0.00000E+00
 -1        68 4.44411E-05-3.51920E-06 0.00000E+00
 -1        69 4.22542E-05-2.20169E-06-1.32349E-23
 -1        70 4.01426E-05-1.09429E-06-2.64698E-23
 -1        86 5.25940E-05-5.63426E-08 6.61744E-24
 -1        87 5.00979E-05-1.05860E-07-1.65436E-24
 -1        88 4.66838E-05-1.58516E-07 0.00000E+00
 -1        89 4.30781E-05-2.11253E-07 1.65436E-24
 -1        90 4.00118E-05-2.61835E-07 0.00000E+00
 -1        91 5.26636E-05-2.05703E-07 0.00000E+00
 -1        92 5.18014E-05-2.62784E-07-1.32349E-23
 -1        93 5.09244E-05-2.76153E-07 0.00000E+00
 -1        94 5.00705E-05-3.62246E-07 1.32349E-23
 -1        95 4.92269E-05-4.75829E-07 2.64698E-23
 -1        96 4.83761E-05-5.72292E-07 0.00000E+00
 -1        97 4.75185E-05-6.50927E-07 0.00000E+00
 -1        98 4.66542E-05-7.11949E-07 1.32349E-23
 -1        99 4.57963E-05-7.89924E-07-2.64698E-23
 -1       100 4.49576E-05-9.18816E-07 0.00000E+00
 -1       101 4.41095E-05-1.02230E-06 0.00000E+00
 -1       102 4.32242E-05-1.02461E-06 1.32349E-23
 -1       103 4.23555E-05-1.07088E-06 2.64698E-23
 -1       104 4.15612E-05-1.30282E-06 0.00000E+00
 -1       105 4.07353E-05-1.45537E-06 0.00000E+00
 -1       106 3.88225E-05 1.66348E-19 0.00000E+00
 -1       107 3.85784E-05 5.03758E-19 0.00000E+00
 -1       108 3.83343E-05 6.77566E-19 6.61744E-24
 -1       109 3.80900E-05 5.08155E-19 3.30872E-24
 -1       110 3.78456E-05 4.91960E-20 0.00000E+00
 -1       111 3.76012E-05-1.09539E-19 3.30872E-24
 -1       112 3.73568E-05-7.80348E-20 0.00000E+00
 -1       113 3.71124E-05 2.31974E-19 3.30872E-24
 -1       114 3.68681E-05 2.11343E-19 0.00000E+00
 -1       115 3.66237E-05 6.30803E-21 3.30872E-24
 -1       116 3.63794E-05-1.83382E-19 0.00000E+00
 -1       117 3.61352E-05-4.21764E-19 0.00000E+00
 -1       118 3.58911E-05-4.60011E-19 0.00000E+00
 -1       119 3.56478E-05-2.58331E-19 3.30872E-24
 -1       120 3.54042E-05-6.40295E-20 0.00000E+00
 -1       121 3.92205E-05-2.09088E-07-6.61744E-24
 -1       122 3.95551E-05-4.18148E-07 0.00000E+00
 -1       123 3.99249E-05-6.27232E-07 0.00000E+00
 -1       124 4.01854E-05-8.36351E-07-3.30872E-24
 -1       125 4.01926E-05-1.04544E-06 6.61744E-24
 -1       141 3.50443E-05-2.30011E-20 0.00000E+00
 -1       142 3.49240E-05-4.76687E-20 1.65436E-24
 -1       143 3.48037E-05-8.88593E-20 0.00000E+00
 -1       144 3.46835E-05-1.20340E-19-1.65436E-24
 -1       145 3.45633E-05-4.00197E-19 3.30872E-24
 -1       146 3.44431E-05-3.96281E-19-1.65436E-24
 -1       147 3.43229E-05-2.18428E-19 0.00000E+00
 -1       148 3.42028E-05 8.61519E-20 0.00000E+00
 -1       149 3.40826E-05 6.00896E-19 0.00000E+00
 -1       150 3.39625E-05 9.79297E-19 0.00000E+00
 -1       151 3.38425E-05 8.92354E-19 0.00000E+00
 -1       152 3.37228E-05 4.60385E-19 0.00000E+00
 -1       153 3.36031E-05 1.64918E-20 3.30872E-24
 -1       154 3.34850E-05-1.96877E-20 0.00000E+00
 -1       155 3.33663E-05-2.48402E-20 4.13590E-25
 -1       156 3.54466E-05-3.76618E-08 0.00000E+00
 -1       157 3.62882E-05-7.17543E-08 0.00000E+00
 -1       158 3.72151E-05-1.06200E-07 0.00000E+00
 -1       159 3.77518E-05-1.40343E-07 0.00000E+00
 -1       160 3.75279E-05-1.74142E-07 0.00000E+00
 -1       161 3.50671E-05-1.42384E-07-3.30872E-24
 -1       162 3.50382E-05-4.69126E-07 0.00000E+00
 -1       163 3.49993E-05-7.69085E-07-3.30872E-24
 -1       164 3.48712E-05-8.31262E-07 0.00000E+00
 -1       165 3.46576E-05-6.65554E-07 0.00000E+00
 -1       166 3.43628E-05-2.83242E-07-1.65436E-24
 -1       167 3.40677E-05 9.96003E-08-3.30872E-24
 -1       168 3.38536E-05 2.66897E-07 0.00000E+00
 -1       169 3.37255E-05 2.05005E-07 0.00000E+00
 -1       170 3.36879E-05-9.83097E-08 1.65436E-24
 -1       171 3.36608E-05-4.29608E-07 0.00000E+00
 -1       172 3.35645E-05-5.75175E-07 1.65436E-24
 -1       173 3.33833E-05-4.94566E-07 0.00000E+00
 -1       174 3.31042E-05-1.48012E-07 1.65436E-24
 -1       175 3.28035E-05 2.54028E-07 0.00000E+00
 -1       191 3.32341E-05 8.41639E-08 0.00000E+00
 -1       192 3.31748E-05 1.68385E-07-1.65436E-24
 -1       193 3.30780E-05 2.52617E-07-3.30872E-24
 -1       194 3.29444E-05 3.36840E-07 0.00000E+00
 -1       195 3.27746E-05 4.21032E-07 3.30872E-24
 -1       266 4.99015E-05-6.21088E-07 3.30872E-24
 -1       267 4.75634E-05-6.25597E-07 0.00000E+00
 -1       268 4.52253E-05-6.30754E-07 0.00000E+00
 -1       269 4.28871E-05-6.34020E-07 0.00000E+00
 -1       270 4.05491E-05-6.37249E-07-2.06795E-25
 -1       271 5.03512E-05 1.06262E-06 0.00000E+00
 -1       272 4.86014E-05 2.24878E-06-1.32349E-23
 -1       273 4.70137E-05 3.00800E-06 0.00000E+00
 -1       274 4.55632E-05 3.38474E-06 0.00000E+00
 -1       275 4.42358E-05 3.43245E-06 0.00000E+00
 -1       276 4.30099E-05 3.20664E-06-1.32349E-23
 -1       277 4.18641E-05 2.76657E-06-2.64698E-23
 -1       278 4.07754E-05 2.17390E-06-1.32349E-23
 -1       279 3.97201E-05 1.49218E-06 2.64698E-23
 -1       280 3.86740E-05 7.86119E-07 0.00000E+00
 -1       281 3.76129E-05 1.20584E-07 0.00000E+00
 -1       282 3.65133E-05-4.39860E-07 0.00000E+00
 -1       283 3.53512E-05-8.32194E-07 0.00000E+00
 -1       284 3.41079E-05-9.93846E-07 1.32349E-23
 -1       285 3.27558E-05-8.68600E-07-2.64698E-23
 -1       286 3.83019E-05 5.38021E-07-1.65436E-24
 -1       287 3.84016E-05 8.42338E-07 0.00000E+00
 -1       288 3.85006E-05 8.10019E-07 1.65436E-24
 -1       289 3.86019E-05 6.52273E-07 0.00000E+00
 -1       290 3.87033E-05 4.17884E-07 0.00000E+00
 -1       291 3.88052E-05 1.55276E-07 0.00000E+00
 -1       292 3.89072E-05-1.24131E-07 3.30872E-24
 -1       293 3.90092E-05-4.09010E-07 1.65436E-24
 -1       294 3.91112E-05-6.95206E-07 0.00000E+00
 -1       295 3.92132E-05-9.78576E-07 0.00000E+00
 -1       296 3.93150E-05-1.25127E-06 0.00000E+00
 -1       297 3.94164E-05-1.50537E-06 0.00000E+00
 -1       298 3.95178E-05-1.70862E-06 1.65436E-24
 -1       299 3.96166E-05-1.82847E-06 0.00000E+00
 -1       300 3.97164E-05-1.72449E-06 0.00000E+00
 -1       301 3.70608E-05-3.31631E-07-3.30872E-24
 -1       302 3.58973E-05-3.38722E-07 8.27181E-25
 -1       303 3.47322E-05-3.44901E-07 0.00000E+00
 -1       304 3.35734E-05-3.52076E-07 0.00000E+00
 -1       305 3.24289E-05-3.62086E-07 6.61744E-24
 -1       306 3.73772E-05 3.60906E-07-1.32349E-23
 -1       307 3.66977E-05 5.75755E-07 0.00000E+00
 -1       308 3.61634E-05 4.04449E-07 1.32349E-23
 -1       309 3.57446E-05-8.07441E-08 0.00000E+00
 -1       310 3.54148E-05-8.04344E-07 1.32349E-23
 -1       311 3.51454E-05-1.69017E-06 6.61744E-24
 -1       312 3.49077E-05-2.66098E-06 1.32349E-23
 -1       313 3.46727E-05-3.63916E-06 0.00000E+00
 -1       314 3.44114E-05-4.54701E-06 0.00000E+00
 -1       315 3.40949E-05-5.30721E-06 0.00000E+00
 -1       316 3.36946E-05-5.84337E-06-1.32349E-23
 -1       317 3.31827E-05-6.08021E-06 0.00000E+00
 -1       318 3.25311E-05-5.94436E-06 0.00000E+00
 -1       319 3.17155E-05-5.36366E-06 0.00000E+00
 -1       320 3.07064E-05-4.27037E-06-1.32349E-23
 -1       321 3.95763E-05-2.97231E-07 0.00000E+00
 -1       322 3.93486E-05 1.26287E-06 3.30872E-24
 -1       323 3.91216E-05 2.23315E-06 0.00000E+00
 -1       324 3.88947E-05 1.42775E-06-3.30872E-24
 -1       325 3.86669E-05-1.89014E-07 0.00000E+00
 -1       326 3.84394E-05-1.64440E-06-3.30872E-24
 -1       327 3.82127E-05-2.16115E-06 6.61744E-24
 -1       328 3.79854E-05-9.71668E-07-3.30872E-24
 -1       329 3.77577E-05 6.25509E-07 0.00000E+00
 -1       330 3.75309E-05 1.32767E-06 0.00000E+00
 -1       331 3.73044E-05 9.15960E-07-6.61744E-24
 -1       332 3.70766E-05-8.16974E-07-3.30872E-24
 -1       333 3.68489E-05-2.47834E-06 0.00000E+00
 -1       334 3.66233E-05-2.67603E-06-3.30872E-24
 -1       335 3.63971E-05-1.79028E-06-6.61744E-24
 -1       336 3.88848E-05-1.47802E-06-6.61744E-24
 -1       337 3.75205E-05-1.70136E-06 0.00000E+00
 -1       338 3.58041E-05-1.92510E-06 0.00000E+00
 -1       339 3.38308E-05-2.14862E-06 3.30872E-24
 -1       340 3.16963E-05-2.37256E-06 6.61744E-24
 -1       356 3.59511E-05 1.25937E-06 6.61744E-24
 -1       357 3.57252E-05 1.82873E-06 0.00000E+00
 -1       358 3.54996E-05 1.36396E-06 0.00000E+00
 -1       359 3.52720E-05-2.55827E-07-3.30872E-24
 -1       360 3.50447E-05-1.75320E-06-6.61744E-24
 -1       361 3.48182E-05-1.85207E-06 3.30872E-24
 -1       362 3.45914E-05-9.69869E-07 6.61744E-24
 -1       363 3.43640E-05 4.65816E-07 3.30872E-24
 -1       364 3.41371E-05 1.35719E-06 6.61744E-24
 -1       365 3.39105E-05 6.12033E-07-3.30872E-24
 -1       366 3.36832E-05-8.80253E-07 6.61744E-24
 -1       367 3.34565E-05-2.22259E-06 0.00000E+00
 -1       368 3.32306E-05-2.69897E-06 0.00000E+00
 -1       369 3.30066E-05-1.60236E-06 0.00000E+00
 -1       370 3.27814E-05-1.33013E-07 0.00000E+00
 -1       371 3.43722E-05-2.51513E-07 0.00000E+00
 -1       372 3.28064E-05-2.86090E-07-8.27181E-25
 -1       373 3.15363E-05-3.20500E-07 0.00000E+00
 -1       374 3.06213E-05-3.53344E-07 0.00000E+00
 -1       375 3.00255E-05-3.86072E-07 2.06795E-25
 -1       406 3.23219E-05 5.88752E-07-3.30872E-24
 -1       407 3.20418E-05 6.72414E-07 1.65436E-24
 -1       408 3.17315E-05 7.56028E-07-3.30872E-24
 -1       409 3.13930E-05 8.39460E-07 0.00000E+00
 -1       410 3.10288E-05 9.22513E-07 0.00000E+00
 -1       501 3.12086E-05 3.14420E-06 0.00000E+00
 -1       502 3.10970E-05 1.15462E-05 3.30872E-24
 -1       503 3.09751E-05 2.11086E-05 0.00000E+00
 -1       504 3.08763E-05 2.81214E-05 0.00000E+00
 -1       505 3.07970E-05 3.02641E-05-3.30872E-24
 -1       506 3.07082E-05 2.52327E-05 0.00000E+00
 -1       507 3.05787E-05 1.45724E-05 0.00000E+00
 -1       508 3.03996E-05-1.52338E-07-8.27181E-25
 -1       509 3.02169E-05-1.51480E-05-1.65436E-24
 -1       510 3.00791E-05-2.66200E-05 0.00000E+00
 -1       511 2.99848E-05-3.27109E-05 1.65436E-24
 -1       512 2.99077E-05-3.15813E-05 0.00000E+00
 -1       513 2.98140E-05-2.52644E-05 3.30872E-24
 -1       514 2.96960E-05-1.58108E-05 0.00000E+00
 -1       515 2.95833E-05-6.99568E-06-3.30872E-24
 -1       521 2.98511E-05 4.69823E-08-2.64698E-23
 -1       522 2.85158E-05 6.80401E-08-1.32349E-23
 -1       523 2.73097E-05-2.52280E-07-2.64698E-23
 -1       524 2.62018E-05-8.49133E-07 1.32349E-23
 -1       525 2.51701E-05-1.65067E-06 0.00000E+00
 -1       526 2.41869E-05-2.58412E-06-1.32349E-23
 -1       527 2.32249E-05-3.57473E-06 0.00000E+00
 -1       528 2.22560E-05-4.54726E-06 1.32349E-23
 -1       529 2.12522E-05-5.42665E-06 2.64698E-23
 -1       530 2.01859E-05-6.13901E-06 0.00000E+00
 -1       531 1.90304E-05-6.61258E-06 0.00000E+00
 -1       532 1.77603E-05-6.77837E-06 1.32349E-23
 -1       533 1.63508E-05-6.57157E-06 0.00000E+00
 -1       534 1.47836E-05-5.93038E-06-1.32349E-23
 -1       535 1.30318E-05-4.80197E-06 2.64698E-23
 -1       536 2.95025E-05-6.59304E-07 0.00000E+00
 -1       537 2.95147E-05 8.06743E-07 0.00000E+00
 -1       538 2.95273E-05 1.85449E-06-4.13590E-25
 -1       539 2.95410E-05 2.53284E-06 0.00000E+00
 -1       540 2.95551E-05 2.89058E-06-2.06795E-25
 -1       541 2.95693E-05 2.97644E-06 1.03398E-25
 -1       542 2.95836E-05 2.83912E-06 4.13590E-25
 -1       543 2.95979E-05 2.52728E-06 0.00000E+00
 -1       544 2.96122E-05 2.08957E-06 0.00000E+00
 -1       545 2.96264E-05 1.57458E-06 0.00000E+00
 -1       546 2.96407E-05 1.03094E-06-4.13590E-25
 -1       547 2.96549E-05 5.07222E-07 0.00000E+00
 -1       548 2.96692E-05 5.20378E-08-4.13590E-25
 -1       549 2.96836E-05-2.86011E-07 0.00000E+00
 -1       550 2.96981E-05-4.58272E-07 0.00000E+00
 -1       551 2.67659E-05-2.67744E-06 2.48154E-24
 -1       552 2.37032E-05-2.76189E-06 2.06795E-25
 -1       553 2.04563E-05-2.84706E-06-3.30872E-24
 -1       554 1.71753E-05-2.93376E-06 0.00000E+00
 -1       555 1.40105E-05-3.02268E-06 0.00000E+00
 -1       556 2.87375E-05-7.38917E-07 0.00000E+00
 -1       557 2.81443E-05 6.83436E-07 3.30872E-24
 -1       558 2.76987E-05 1.71521E-06 0.00000E+00
 -1       559 2.73837E-05 2.40050E-06 0.00000E+00
 -1       560 2.71825E-05 2.78333E-06 0.00000E+00
 -1       561 2.70783E-05 2.90806E-06 0.00000E+00
 -1       562 2.70543E-05 2.81906E-06 0.00000E+00
 -1       563 2.70938E-05 2.56074E-06 0.00000E+00
 -1       564 2.71801E-05 2.17755E-06 0.00000E+00
 -1       565 2.72965E-05 1.71392E-06 8.27181E-25
 -1       566 2.74265E-05 1.21433E-06 0.00000E+00
 -1       567 2.75533E-05 7.23247E-07-6.20385E-25
 -1       568 2.76603E-05 2.85125E-07 8.27181E-25
 -1       569 2.77310E-05-5.56218E-08 4.13590E-25
 -1       570 2.77488E-05-2.54603E-07 0.00000E+00
 -1       571 2.97690E-05-3.01266E-07-6.20385E-25
 -1       572 2.98265E-05-2.23481E-07-4.13590E-25
 -1       573 2.98844E-05-1.75964E-07 1.65436E-24
 -1       574 2.99426E-05-1.51478E-07 0.00000E+00
 -1       575 3.00009E-05-1.42756E-07 0.00000E+00
 -1       576 3.00591E-05-1.42486E-07-8.27181E-25
 -1       577 3.01174E-05-1.43350E-07 0.00000E+00
 -1       578 3.01757E-05-1.38025E-07 0.00000E+00
 -1       579 3.02340E-05-1.19188E-07 0.00000E+00
 -1       580 3.02923E-05-7.95149E-08 0.00000E+00
 -1       581 3.03506E-05-1.16836E-08-3.30872E-24
 -1       582 3.04089E-05 9.16216E-08 0.00000E+00
 -1       583 3.04671E-05 2.37709E-07 0.00000E+00
 -1       584 3.05253E-05 4.33810E-07 0.00000E+00
 -1       585 3.05835E-05 6.87119E-07 0.00000E+00
 -1       586 2.94219E-05-3.90960E-07 0.00000E+00
 -1       587 2.90855E-05-3.65703E-07 1.65436E-24
 -1       588 2.87242E-05-3.40511E-07-8.27181E-25
 -1       589 2.83589E-05-3.15543E-07 1.55096E-25
 -1       590 2.80103E-05-2.91032E-07 0.00000E+00
 -1       591 2.96272E-05-2.79310E-07 4.13590E-25
 -1       592 2.95484E-05-1.68640E-07 0.00000E+00
 -1       593 2.94770E-05-7.88323E-08 0.00000E+00
 -1       594 2.94114E-05-5.12268E-09 4.13590E-25
 -1       595 2.93499E-05 5.72728E-08 0.00000E+00
 -1       596 2.92908E-05 1.13098E-07 0.00000E+00
 -1       597 2.92324E-05 1.67093E-07 0.00000E+00
 -1       598 2.91729E-05 2.23990E-07 4.13590E-25
 -1       599 2.91105E-05 2.88524E-07-8.27181E-25
 -1       600 2.90435E-05 3.65428E-07-4.13590E-25
 -1       601 2.89701E-05 4.59432E-07 0.00000E+00
 -1       602 2.88885E-05 5.75277E-07 2.06795E-25
 -1       603 2.87971E-05 7.17700E-07-8.27181E-25
 -1       604 2.86941E-05 8.91470E-07 2.58494E-25
 -1       605 2.85781E-05 1.10134E-06 0.00000E+00
 -1       606 3.06625E-05 1.43183E-06 0.00000E+00
 -1       607 3.06822E-05 1.90938E-06 0.00000E+00
 -1       608 3.07014E-05 2.43396E-06 0.00000E+00
 -1       609 3.07203E-05 3.00218E-06 0.00000E+00
 -1       610 3.07392E-05 3.61066E-06 0.00000E+00
 -1       611 3.07581E-05 4.25593E-06 0.00000E+00
 -1       612 3.07769E-05 4.93455E-06 0.00000E+00
 -1       613 3.07957E-05 5.64307E-06 0.00000E+00
 -1       614 3.08144E-05 6.37801E-06 0.00000E+00
 -1       615 3.08332E-05 7.13592E-06 0.00000E+00
 -1       616 3.08519E-05 7.91335E-06-1.65436E-24
 -1       617 3.08706E-05 8.70683E-06 0.00000E+00
 -1       618 3.08893E-05 9.51289E-06 0.00000E+00
 -1       619 3.09079E-05 1.03281E-05 0.00000E+00
 -1       620 3.09265E-05 1.11490E-05 0.00000E+00
 -1       621 3.02451E-05 1.06261E-06 0.00000E+00
 -1       622 2.98547E-05 1.12116E-06 0.00000E+00
 -1       623 2.94750E-05 1.17969E-06-1.65436E-24
 -1       624 2.91109E-05 1.23805E-06-8.27181E-25
 -1       625 2.87674E-05 1.29614E-06-8.27181E-25
 -1       626 3.05245E-05 1.45847E-06 0.00000E+00
 -1       627 3.03877E-05 1.96493E-06 0.00000E+00
 -1       628 3.02330E-05 2.51864E-06 0.00000E+00
 -1       629 3.00626E-05 3.11410E-06 0.00000E+00
 -1       630 2.98786E-05 3.74577E-06 0.00000E+00
 -1       631 2.96831E-05 4.40804E-06 1.65436E-24
 -1       632 2.94782E-05 5.09531E-06 1.65436E-24
 -1       633 2.92660E-05 5.80197E-06 8.27181E-25
 -1       634 2.90486E-05 6.52240E-06 0.00000E+00
 -1       635 2.88282E-05 7.25100E-06 0.00000E+00
 -1       636 2.86068E-05 7.98216E-06 1.65436E-24
 -1       637 2.83865E-05 8.71027E-06 0.00000E+00
 -1       638 2.81693E-05 9.42969E-06-8.27181E-25
 -1       639 2.79574E-05 1.01348E-05-6.20385E-25
 -1       640 2.77525E-05 1.08200E-05-4.13590E-25
 -1       641 3.09402E-05 1.28010E-05 0.00000E+00
 -1       642 3.09349E-05 1.36712E-05 6.46235E-27
 -1       643 3.09295E-05 1.45765E-05-1.03398E-25
 -1       644 3.09240E-05 1.55109E-05 0.00000E+00
 -1       645 3.09184E-05 1.64669E-05 0.00000E+00
 -1       646 3.09128E-05 1.74369E-05 0.00000E+00
 -1       647 3.09072E-05 1.84130E-05 0.00000E+00
 -1       648 3.09015E-05 1.93868E-05 0.00000E+00
 -1       649 3.08959E-05 2.03505E-05-2.06795E-25
 -1       650 3.08903E-05 2.12961E-05 0.00000E+00
 -1       651 3.08847E-05 2.22163E-05 0.00000E+00
 -1       652 3.08790E-05 2.31039E-05 0.00000E+00
 -1       653 3.08733E-05 2.39533E-05 4.13590E-25
 -1       654 3.08672E-05 2.47588E-05-4.13590E-25
 -1       655 3.08612E-05 2.55167E-05 0.00000E+00
 -1       656 3.02211E-05 1.18925E-05 0.00000E+00
 -1       657 2.96207E-05 1.18090E-05 0.00000E+00
 -1       658 2.90989E-05 1.17258E-05 0.00000E+00
 -1       659 2.86107E-05 1.16425E-05-8.27181E-25
 -1       660 2.81112E-05 1.15591E-05 0.00000E+00
 -1       661 3.06924E-05 1.28189E-05-1.65436E-24
 -1       662 3.04319E-05 1.36934E-05 0.00000E+00
 -1       663 3.01633E-05 1.45895E-05-1.65436E-24
 -1       664 2.98887E-05 1.55021E-05 0.00000E+00
 -1       665 2.96101E-05 1.64256E-05 0.00000E+00
 -1       666 2.93294E-05 1.73548E-05 8.27181E-25
 -1       667 2.90486E-05 1.82843E-05-1.65436E-24
 -1       668 2.87697E-05 1.92088E-05 0.00000E+00
 -1       669 2.84947E-05 2.01230E-05 1.65436E-24
 -1       670 2.82255E-05 2.10215E-05 0.00000E+00
 -1       671 2.79642E-05 2.18991E-05 1.65436E-24
 -1       672 2.77128E-05 2.27502E-05 8.27181E-25
 -1       673 2.74731E-05 2.35697E-05 0.00000E+00
 -1       674 2.72470E-05 2.43520E-05 8.27181E-25
 -1       675 2.70367E-05 2.50918E-05-4.13590E-25
 -1       676 3.01715E-05 2.61495E-05-1.65436E-24
 -1       677 2.94925E-05 2.60754E-05 0.00000E+00
 -1       678 2.88178E-05 2.60014E-05 0.00000E+00
 -1       679 2.81496E-05 2.59277E-05 8.27181E-25
 -1       680 2.74899E-05 2.58540E-05 0.00000E+00
 -1       716 1.11809E-05-3.90069E-05 0.00000E+00
 -1       717 1.11781E-05-3.66148E-05 4.03897E-28
 -1       718 1.11754E-05-3.42227E-05-1.61559E-27
 -1       719 1.11726E-05-3.18306E-05 0.00000E+00
 -1       720 1.11699E-05-2.94385E-05-6.46235E-27
 -1       721 1.11671E-05-2.70464E-05 0.00000E+00
 -1       722 1.11644E-05-2.46543E-05 2.58494E-26
 -1       723 1.11616E-05-2.22622E-05 2.58494E-26
 -1       724 1.11587E-05-1.98702E-05 1.03398E-25
 -1       725 1.11558E-05-1.74781E-05 1.03398E-25
 -1       726 1.11527E-05-1.50860E-05 0.00000E+00
 -1       727 1.11491E-05-1.26939E-05 0.00000E+00
 -1       728 1.11453E-05-1.03018E-05 0.00000E+00
 -1       729 1.11384E-05-7.90973E-06 0.00000E+00
 -1       730 1.11325E-05-5.51764E-06 0.00000E+00
 -1       766 8.80081E-06-3.14797E-06 6.61744E-24
 -1       767 6.65751E-06-3.15330E-06 1.65436E-24
 -1       768 4.69461E-06-3.15935E-06-1.65436E-24
 -1       769 2.92670E-06-3.16188E-06 4.13590E-25
 -1       770 1.36788E-06-3.16394E-06 4.13590E-25
 -1       771 9.77381E-06-1.20548E-06 0.00000E+00
 -1       772 8.57823E-06 3.24223E-07-1.32349E-23
 -1       773 7.51621E-06 1.49675E-06-2.64698E-23
 -1       774 6.57513E-06 2.34623E-06 0.00000E+00
 -1       775 5.74243E-06 2.90695E-06 0.00000E+00
 -1       776 5.00513E-06 3.21351E-06 1.32349E-23
 -1       777 4.35020E-06 3.30064E-06-2.64698E-23
 -1       778 3.76451E-06 3.20323E-06 0.00000E+00
 -1       779 3.23491E-06 2.95630E-06 1.32349E-23
 -1       780 2.74823E-06 2.59495E-06 6.61744E-24
 -1       781 2.29129E-06 2.15440E-06-1.32349E-23
 -1       782 1.85094E-06 1.66991E-06 6.61744E-24
 -1       783 1.41401E-06 1.17678E-06-1.32349E-23
 -1       784 9.67713E-07 7.10389E-07 0.00000E+00
 -1       785 4.99109E-07 3.06059E-07 1.32349E-23
 -1       786 2.77431E-05-9.59006E-08 4.13590E-25
 -1       787 2.77899E-05 3.58151E-08 0.00000E+00
 -1       788 2.78366E-05 1.33614E-07 0.00000E+00
 -1       789 2.78838E-05 2.04186E-07-8.27181E-25
 -1       790 2.79310E-05 2.54203E-07 1.65436E-24
 -1       791 2.79782E-05 2.90329E-07 0.00000E+00
 -1       792 2.80255E-05 3.19218E-07 1.65436E-24
 -1       793 2.80728E-05 3.47521E-07-8.27181E-25
 -1       794 2.81201E-05 3.81890E-07 0.00000E+00
 -1       795 2.81674E-05 4.28979E-07 0.00000E+00
 -1       796 2.82147E-05 4.95447E-07 1.65436E-24
 -1       797 2.82620E-05 5.87968E-07 0.00000E+00
 -1       798 2.83092E-05 7.13227E-07 1.65436E-24
 -1       799 2.83562E-05 8.77921E-07 0.00000E+00
 -1       800 2.84033E-05 1.08878E-06 8.27181E-25
 -1       801 2.54161E-05-2.12514E-07 3.30872E-24
 -1       802 2.02752E-05-1.63353E-07 0.00000E+00
 -1       803 1.37193E-05-1.21691E-07 0.00000E+00
 -1       804 7.19224E-06-8.25716E-08-3.30872E-24
 -1       805 2.13810E-06-3.56960E-08-6.61744E-24
 -1       806 2.75875E-05-1.17512E-07 1.65436E-24
 -1       807 2.74821E-05 1.22341E-08 0.00000E+00
 -1       808 2.73826E-05 1.25186E-07 0.00000E+00
 -1       809 2.72877E-05 2.25333E-07 8.27181E-25
 -1       810 2.71960E-05 3.16650E-07 1.65436E-24
 -1       811 2.71061E-05 4.03098E-07-8.27181E-25
 -1       812 2.70166E-05 4.88635E-07-1.65436E-24
 -1       813 2.69259E-05 5.77214E-07 8.27181E-25
 -1       814 2.68326E-05 6.72790E-07-8.27181E-25
 -1       815 2.67351E-05 7.79317E-07 8.27181E-25
 -1       816 2.66321E-05 9.00746E-07 8.27181E-25
 -1       817 2.65220E-05 1.04103E-06-8.27181E-25
 -1       818 2.64034E-05 1.20412E-06-4.13590E-25
 -1       819 2.62748E-05 1.39393E-06 0.00000E+00
 -1       820 2.61350E-05 1.61440E-06 1.24077E-24
 -1       821 2.83967E-05 1.68906E-06-4.13590E-25
 -1       822 2.83409E-05 2.10463E-06 0.00000E+00
 -1       823 2.82852E-05 2.59092E-06 1.65436E-24
 -1       824 2.82289E-05 3.13949E-06-8.27181E-25
 -1       825 2.81726E-05 3.74191E-06 1.65436E-24
 -1       826 2.81161E-05 4.38966E-06-8.27181E-25
 -1       827 2.80596E-05 5.07424E-06 1.65436E-24
 -1       828 2.80030E-05 5.78710E-06-8.27181E-25
 -1       829 2.79465E-05 6.51968E-06-1.65436E-24
 -1       830 2.78899E-05 7.26340E-06 8.27181E-25
 -1       831 2.78334E-05 8.00970E-06 0.00000E+00
 -1       832 2.77769E-05 8.74998E-06 0.00000E+00
 -1       833 2.77205E-05 9.47565E-06 1.65436E-24
 -1       834 2.76646E-05 1.01782E-05 2.48154E-24
 -1       835 2.76086E-05 1.08490E-05 0.00000E+00
 -1       836 2.80970E-05 1.43748E-06 1.65436E-24
 -1       837 2.76789E-05 1.52519E-06-8.27181E-25
 -1       838 2.72265E-05 1.61278E-06 1.65436E-24
 -1       839 2.67718E-05 1.70005E-06-8.27181E-25
 -1       840 2.63467E-05 1.78730E-06 0.00000E+00
 -1       841 2.83367E-05 1.70704E-06-4.13590E-25
 -1       842 2.81832E-05 2.17039E-06 2.06795E-25
 -1       843 2.79985E-05 2.71704E-06 0.00000E+00
 -1       844 2.77920E-05 3.32149E-06 0.00000E+00
 -1       845 2.75691E-05 3.96958E-06 0.00000E+00
 -1       846 2.73351E-05 4.64717E-06 0.00000E+00
 -1       847 2.70933E-05 5.34584E-06 4.13590E-25
 -1       848 2.68466E-05 6.05723E-06 0.00000E+00
 -1       849 2.65974E-05 6.77532E-06-4.13590E-25
 -1       850 2.63479E-05 7.49411E-06 0.00000E+00
 -1       851 2.61003E-05 8.20786E-06 0.00000E+00
 -1       852 2.58567E-05 8.91074E-06 2.06795E-25
 -1       853 2.56201E-05 9.59491E-06-4.13590E-25
 -1       854 2.53931E-05 1.02523E-05 0.00000E+00
 -1       855 2.51812E-05 1.08701E-05 4.13590E-25
 -1       856 2.75136E-05 1.21398E-05 4.13590E-25
 -1       857 2.74692E-05 1.28888E-05-4.13590E-25
 -1       858 2.74247E-05 1.37146E-05-8.27181E-25
 -1       859 2.73799E-05 1.46046E-05-8.27181E-25
 -1       860 2.73349E-05 1.55465E-05 0.00000E+00
 -1       861 2.72898E-05 1.65279E-05 8.27181E-25
 -1       862 2.72447E-05 1.75363E-05 1.65436E-24
 -1       863 2.71996E-05 1.85594E-05 0.00000E+00
 -1       864 2.71544E-05 1.95848E-05 0.00000E+00
 -1       865 2.71093E-05 2.06000E-05 0.00000E+00
 -1       866 2.70641E-05 2.15926E-05 0.00000E+00
 -1       867 2.70191E-05 2.25501E-05 0.00000E+00
 -1       868 2.69741E-05 2.34603E-05 0.00000E+00
 -1       869 2.69293E-05 2.43107E-05 0.00000E+00
 -1       870 2.68846E-05 2.50889E-05-8.27181E-25
 -1       871 2.70520E-05 1.14733E-05 0.00000E+00
 -1       872 2.66139E-05 1.14662E-05 0.00000E+00
 -1       873 2.62149E-05 1.14589E-05 0.00000E+00
 -1       874 2.58284E-05 1.14514E-05 0.00000E+00
 -1       875 2.54277E-05 1.14435E-05 4.13590E-25
 -1       876 2.73896E-05 1.21549E-05 1.65436E-24
 -1       877 2.72014E-05 1.28987E-05 8.27181E-25
 -1       878 2.69912E-05 1.37011E-05-1.65436E-24
 -1       879 2.67625E-05 1.45538E-05-1.65436E-24
 -1       880 2.65183E-05 1.54481E-05 3.30872E-24
 -1       881 2.62617E-05 1.63754E-05 0.00000E+00
 -1       882 2.59959E-05 1.73272E-05 3.30872E-24
 -1       883 2.57241E-05 1.82950E-05-1.65436E-24
 -1       884 2.54495E-05 1.92702E-05 3.30872E-24
 -1       885 2.51753E-05 2.02444E-05 0.00000E+00
 -1       886 2.49047E-05 2.12090E-05 3.30872E-24
 -1       887 2.46408E-05 2.21554E-05 8.27181E-25
 -1       888 2.43868E-05 2.30753E-05 0.00000E+00
 -1       889 2.41455E-05 2.39598E-05-8.27181E-25
 -1       890 2.39206E-05 2.48006E-05 0.00000E+00
 -1       891 2.62765E-05 2.57504E-05 8.27181E-25
 -1       892 2.57914E-05 2.57177E-05 4.13590E-25
 -1       893 2.53392E-05 2.56850E-05-8.27181E-25
 -1       894 2.48729E-05 2.56523E-05 0.00000E+00
 -1       895 2.43458E-05 2.56196E-05 4.13590E-25
 -1       926 3.13517E-08-2.04961E-06 1.03398E-25
 -1       927 3.09182E-08-1.15100E-06 0.00000E+00
 -1       928 3.06219E-08-4.49071E-07-2.58494E-26
 -1       929 3.04690E-08 7.64575E-08 6.46235E-27
 -1       930 3.03825E-08 4.45842E-07 0.00000E+00
 -1       931 3.03367E-08 6.79347E-07 6.46235E-27
 -1       932 3.03032E-08 7.97246E-07 0.00000E+00
 -1       933 3.02477E-08 8.19811E-07 0.00000E+00
 -1       934 3.01629E-08 7.67318E-07 0.00000E+00
 -1       935 2.99376E-08 6.60041E-07 1.03398E-25
 -1       936 2.96284E-08 5.18259E-07 0.00000E+00
 -1       937 2.86682E-08 3.62250E-07 0.00000E+00
 -1       938 2.76176E-08 2.12266E-07-1.65436E-24
 -1       939 2.33345E-08 8.85650E-08 0.00000E+00
 -1       940 2.01451E-08 1.11406E-08 0.00000E+00
 -1       956 2.59220E-05 2.23102E-06 1.24077E-24
 -1       957 2.58600E-05 2.65869E-06-2.06795E-25
 -1       958 2.57977E-05 3.14527E-06 0.00000E+00
 -1       959 2.57353E-05 3.68335E-06 0.00000E+00
 -1       960 2.56729E-05 4.26548E-06-8.27181E-25
 -1       961 2.56104E-05 4.88418E-06 0.00000E+00
 -1       962 2.55478E-05 5.53194E-06 1.65436E-24
 -1       963 2.54853E-05 6.20130E-06-8.27181E-25
 -1       964 2.54227E-05 6.88473E-06-1.65436E-24
 -1       965 2.53601E-05 7.57475E-06 0.00000E+00
 -1       966 2.52976E-05 8.26386E-06 0.00000E+00
 -1       967 2.52350E-05 8.94456E-06 0.00000E+00
 -1       968 2.51725E-05 9.60936E-06 0.00000E+00
 -1       969 2.51101E-05 1.02508E-05 1.65436E-24
 -1       970 2.50479E-05 1.08614E-05 1.65436E-24
 -1       971 2.49086E-05 1.20229E-05 0.00000E+00
 -1       972 2.48289E-05 1.27055E-05-8.27181E-25
 -1       973 2.47491E-05 1.34704E-05-1.65436E-24
 -1       974 2.46690E-05 1.43059E-05 8.27181E-25
 -1       975 2.45888E-05 1.52004E-05 3.30872E-24
 -1       976 2.45086E-05 1.61423E-05 0.00000E+00
 -1       977 2.44283E-05 1.71197E-05-1.65436E-24
 -1       978 2.43480E-05 1.81211E-05 1.65436E-24
 -1       979 2.42677E-05 1.91346E-05 0.00000E+00
 -1       980 2.41874E-05 2.01487E-05 0.00000E+00
 -1       981 2.41072E-05 2.11515E-05 0.00000E+00
 -1       982 2.40270E-05 2.21314E-05 0.00000E+00
 -1       983 2.39469E-05 2.30766E-05 1.65436E-24
 -1       984 2.38673E-05 2.39755E-05 0.00000E+00
 -1       985 2.37878E-05 2.48164E-05 0.00000E+00
 -3
    1PSTEP                        10           5           1          
  100CL  105 4.06250E-01         608                     0    5           1
 -4  STRESS      6    1
 -5  SXX         1    4    1    1
 -5  SYY         1    4    2    2
 -5  SZZ         1    4    3    3
 -5  SXY         1    4    1    2
 -5  SYZ         1    4    2    3
 -5  SZX         1    4    3    1
 -1         1-2.02358E+06-6.92755E+05-4.43302E+05-6.31769E+05-6.79089E-10 9.70128E-11
 -1         2-1.33703E+06-3.44861E+05-1.73294E+05-2.21931E+05 1.67590E-09-1.77073E-08
 -1         3-3.50447E+05-3.11078E+05-1.17272E+04 3.90149E+04 2.46359E-09 1.91893E-09
 -1         4-3.27629E+05-5.06866E+04 4.81479E+02-3.09238E+04 2.27390E-10 1.20230E-09
 -1         5-1.81647E+05 4.54168E+04-7.46342E+04-1.75165E+03 1.15278E-08 2.46092E-09
 -1         8-9.05031E+05-4.18576E+05-1.23158E+05-5.56363E+05 3.44395E-10 3.14321E-09
 -1         9-9.44909E+05-3.31152E+05-1.34260E+05-3.28865E+05 1.43482E-09 2.30502E-09
 -1        10-4.73147E+05-3.28097E+05-3.41976E+04-1.16418E+05 4.62364E-09-2.10487E-08
 -1        11-2.92394E+05-7.73090E+04 3.14655E+02 2.22622E+03-1.00874E-09 1.75919E-10
 -1        12-2.61811E+05 1.60486E+04-9.60575E+04-2.34923E+04 1.68143E-08-1.09110E-08
 -1        15 1.54728E+03 8.36722E+02 4.80203E+03 1.59493E+00-1.73245E-10 5.79316E-09
 -1        16-1.46696E+06-3.90632E+05-1.33788E+05-4.81081E+05 6.68649E-10 3.25599E-10
 -1        17-2.63717E+05-2.10129E+05-2.65057E+04-1.83730E+05-9.95593E-10 9.41024E-10
 -1        18 1.67938E+04-1.31397E+04-1.29524E+04-4.30084E+04-2.06092E-10 7.83984E-10
 -1        19 6.86461E+04 8.37290E+04-8.75492E+01 2.21807E+03-4.36557E-11 2.13331E-09
 -1        20 3.01095E+04-5.13926E+04-1.20466E+04 2.40313E+04 2.35536E-09-1.44928E-09
 -1        21-5.51291E+03-8.19328E+04 2.26340E+04-6.71254E+02 6.27350E-09-2.18603E-09
 -1        23 3.75830E-01 1.79041E-01 6.88502E+00 4.51751E-04 1.36902E-09 2.30751E-09
 -1        24-7.53491E+05-2.25385E+05 4.00607E+04-3.91755E+05-1.54614E-09 1.21945E-09
 -1        25 1.12759E+04 3.08172E+04 1.57090E+04-2.17269E+05-2.54749E-10-2.50802E-09
 -1        26 1.55463E+03 5.72766E+04 2.71153E+02-9.43457E+03 2.39228E-10-1.17462E-09
 -1        27-1.24231E+04-3.79421E+04-1.68595E+04 4.18013E+04 1.51340E-09-2.02878E-09
 -1        28-4.72572E+03-6.32520E+04-2.24416E+03 2.44077E+04 2.10957E-09-6.32415E-10
 -1        31 2.39388E+03 2.75940E+03 4.08567E+03-6.24561E+01 1.99722E-09-9.10632E-10
 -1        32-3.07885E+05 7.36899E+04 1.92121E+05-4.46671E+05-1.00604E-09 1.13262E-09
 -1        33-6.75930E+04 6.84402E+04 2.10257E+04-2.15233E+04-6.23875E-10-4.23825E-10
 -1        34-8.22460E+04-3.30844E+03 7.45300E+03 3.14958E+04 2.41247E-09-1.57297E-09
 -1        35-1.24951E+04-1.70773E+04 9.31618E+02 3.97129E+04 3.21261E-09-3.84413E-10
 -1        36-2.07931E+06 6.14209E+04-1.41411E+05 8.97658E-07-3.33075E-09 1.22964E-09
 -1        37-2.14063E+06-7.10814E+04-1.00167E+05-6.43907E-07-3.29283E-09-2.76486E-10
 -1        38-2.10295E+06 9.65588E+03-3.65871E+04 5.85265E-07-2.61133E-09 1.49885E-09
 -1        39-2.11300E+06-1.11729E+04-2.30435E+04-2.71423E-07 4.16527E-10 1.91721E-09
 -1        40-2.10685E+06 1.51561E+03-9.41735E+03-2.40103E-07-4.40700E-09-6.54836E-10
 -1        41-2.10843E+06-1.77985E+03-5.65763E+03-9.06925E-07-1.90228E-09 8.98444E-09
 -1        42-2.10749E+06 2.64020E+02-2.81626E+03 9.91537E-08-5.44765E-09 2.62105E-09
 -1        43-2.10777E+06-4.89805E+02-2.33785E+03 2.84983E-08-3.65059E-09-3.35167E-09
 -1        44-2.10752E+06 2.25740E+02-2.47813E+03-7.57899E-07 8.83591E-10-3.04181E-09
 -1        45-2.10826E+06-1.45159E+03-4.67724E+03-6.02323E-07 2.98321E-09 7.40613E-10
 -1        46-2.10700E+06 1.22567E+03-7.65486E+03 2.10608E-08 2.09389E-09 3.51383E-09
 -1        47-2.11194E+06-9.02362E+03-1.86329E+04-2.40753E-07-6.79061E-10 4.04725E-09
 -1        48-2.10386E+06 7.79676E+03-2.95554E+04-3.60694E-07-2.49982E-09-1.92813E-10
 -1        49-2.13424E+06-5.73947E+04-8.08859E+04-3.85708E-07-5.60690E-09-5.62068E-09
 -1        50-2.08477E+06 4.95924E+04-1.14197E+05-3.01791E-07-9.93477E-09 2.12458E-09
 -1        51 1.55647E+04-2.65880E+05 2.64273E+04-6.86622E+05-4.36557E-11 5.54428E-09
 -1        52 7.41321E+03-2.63735E+05 1.71838E+04-7.60371E+05 2.14641E-10-1.78261E-09
 -1        53 5.39226E+03-2.69528E+05 1.55532E+04-6.84780E+05-2.40107E-10 6.86123E-09
 -1        54 1.40557E+04-2.66587E+05 2.57980E+04-7.62361E+05-6.11180E-10 1.71713E-08
 -1        55 3.36523E+04-2.75010E+05 4.80676E+04-6.84462E+05 1.52795E-10 1.41044E-08
 -1        56-3.66601E+06-3.94820E+05-3.16151E+05-1.42171E+06-2.18279E-11 2.64845E-09
 -1        57-3.81261E+06-6.86550E+05-2.16780E+05-1.38863E+06 4.64752E-10-1.74259E-09
 -1        58-3.73136E+06-5.01603E+05-7.41996E+04-1.39936E+06-1.02045E-09 3.19415E-09
 -1        59-3.73778E+06-5.61250E+05-4.54354E+04-1.41329E+06-4.54747E-10 7.43967E-10
 -1        60-3.74033E+06-5.18670E+05-1.73484E+04-1.39746E+06 8.68113E-10 1.71258E-09
 -1        61-3.73043E+06-5.38288E+05-1.01214E+04-1.41177E+06-1.01772E-09 7.38157E-09
 -1        62-3.73856E+06-5.24377E+05-4.82445E+03-1.40090E+06-7.17364E-10 2.32649E-09
 -1        63-3.73649E+06-5.28223E+05-4.12187E+03-1.40335E+06 1.07866E-09 1.33176E-09
 -1        64-3.73422E+06-5.28726E+05-4.74607E+03-1.40586E+06-1.44155E-10 1.69894E-09
 -1        65-3.74580E+06-5.22777E+05-9.88139E+03-1.39414E+06 8.03517E-10 5.82315E-09
 -1        66-3.72929E+06-5.29833E+05-1.69078E+04-1.41013E+06-1.10208E-09 6.93035E-10
 -1        67-3.76137E+06-5.36730E+05-4.42597E+04-1.38600E+06 1.20917E-09-3.61615E-09
 -1        68-3.71881E+06-5.14955E+05-7.22733E+04-1.41398E+06 3.87445E-10 1.33878E-09
 -1        69-3.83202E+06-6.61015E+05-2.11145E+05-1.36456E+06 4.90218E-10 3.59069E-09
 -1        70-3.65915E+06-4.06961E+05-3.07944E+05-1.43118E+06-8.73115E-11-2.08092E-09
 -1        86-2.66282E+04-1.40164E+05 6.28564E+04 8.75076E+03 2.80852E-09-7.86713E-10
 -1        87 3.36246E+04-1.09614E+05 4.97213E+04-3.81882E+04 4.72937E-09-2.16014E-09
 -1        88-6.81344E+03-1.29840E+05 2.63965E+04 9.20868E+03 4.33488E-09 1.05688E-09
 -1        89 2.57916E+04-1.13829E+05 3.93527E+04-3.83690E+04 6.41285E-09-2.40527E-09
 -1        90-1.87831E+04-1.36006E+05 4.52801E+04 8.93178E+03 2.34286E-09 1.61083E-09
 -1        91-1.91951E+06-2.23619E+05-1.17793E+05-7.40241E+05-1.33514E-05 4.97481E-06
 -1        92-1.98127E+06-3.32750E+05-8.18626E+04-7.20067E+05-2.66535E-05 1.00104E-05
 -1        93-1.94325E+06-2.66446E+05-2.75920E+04-7.32525E+05-6.71998E-06 2.53573E-06
 -1        94-1.95336E+06-2.83413E+05-1.72855E+04-7.29204E+05 1.32075E-05-4.95370E-06
 -1        95-1.94734E+06-2.72944E+05-6.46496E+03-7.31078E+05 2.43983E-06-9.16491E-07
 -1        96-1.94876E+06-2.75758E+05-3.89610E+03-7.30674E+05-8.33158E-06 3.12765E-06
 -1        97-1.94783E+06-2.74097E+05-1.84300E+03-7.31049E+05-3.65233E-07 1.40556E-07
 -1        98-1.94816E+06-2.74744E+05-1.71275E+03-7.30832E+05 7.60159E-06-2.85037E-06
 -1        99-1.94793E+06-2.73958E+05-1.99260E+03-7.30918E+05-1.87197E-06 7.05280E-07
 -1       100-1.94894E+06-2.75880E+05-4.36032E+03-7.30567E+05-1.13475E-05 4.26019E-06
 -1       101-1.94706E+06-2.72961E+05-7.29833E+03-7.31315E+05 3.29615E-06-1.23832E-06
 -1       102-1.95393E+06-2.84758E+05-1.95547E+04-7.29134E+05 1.79507E-05-6.73360E-06
 -1       103-1.94296E+06-2.65083E+05-3.12355E+04-7.32360E+05-1.31021E-05 4.92972E-06
 -1       104-1.98589E+06-3.40207E+05-9.26634E+04-7.18320E+05-4.41421E-05 1.65608E-05
 -1       105-1.91518E+06-2.17527E+05-1.33356E+05-7.42158E+05-2.21403E-05 8.25279E-06
 -1       106-6.97247E+05 3.67949E+03-8.48214E+03-7.26971E-08 5.50055E-10-1.04637E-09
 -1       107-7.00870E+05-4.25890E+03-6.00787E+03-1.16562E-07-6.62225E-10 2.54158E-09
 -1       108-6.98664E+05 5.78638E+02-2.20054E+03 4.53876E-07-1.22145E-09-2.54977E-09
 -1       109-6.99216E+05-6.70380E+02-1.39398E+03 1.85608E-07-1.99748E-09-1.69780E-09
 -1       110-6.98898E+05 9.16321E+01-5.87482E+02 2.92907E-07-2.37216E-10-2.05554E-09
 -1       111-6.98947E+05-1.12894E+02-3.86977E+02 5.67513E-07-2.20355E-11-6.25850E-10
 -1       112-6.98933E+05 2.12477E+01-2.57740E+02 2.15925E-08-4.89478E-11 1.74127E-09
 -1       113-6.98927E+05-7.01022E+01-3.35521E+02-1.59758E-07 1.93368E-09-1.40609E-09
 -1       114-6.98918E+05 4.88481E+01-5.02133E+02-3.28222E-07-6.50943E-10-1.15210E-09
 -1       115-6.99074E+05-3.49580E+02-1.09520E+03 8.26146E-08 6.46392E-10-4.30697E-09
 -1       116-6.98787E+05 3.00685E+02-1.86070E+03-3.53447E-08 8.08089E-10-4.90331E-09
 -1       117-6.99983E+05-2.21996E+03-4.57801E+03 1.51697E-07-1.58709E-09-5.48653E-10
 -1       118-6.98010E+05 1.91891E+03-7.27753E+03-8.73643E-08-2.44119E-09 1.06684E-09
 -1       119-7.05471E+05-1.41264E+04-1.99177E+04-1.31324E-07-2.28373E-10 5.70708E-11
 -1       120-6.93306E+05 1.22053E+04-2.81291E+04 2.17932E-08-9.85070E-10-1.52249E-09
 -1       121-1.49932E+02-5.97711E+05 6.32346E+02 1.34049E+04 4.03602E-10 5.48152E-09
 -1       122 3.37475E+02-5.97416E+05 7.46832E+02 7.80985E+04 9.48830E-10 9.09111E-09
 -1       123-9.95676E+01-5.97695E+05 8.96908E+02 1.33361E+04 4.76462E-10 2.38606E-09
 -1       124 1.07756E+03-5.96842E+05 2.04469E+03 7.79084E+04 5.85487E-10-3.61615E-09
 -1       125-8.96546E+02-5.98129E+05 2.99422E+03 1.35951E+04-6.38011E-10-1.81535E-09
 -1       141-3.44418E+05-1.41926E+03 3.26940E+03-6.81210E-08 3.89805E-10 9.27912E-10
 -1       142-3.42965E+05 1.64242E+03 2.31003E+03 2.45319E-07-3.21847E-10 2.20732E-09
 -1       143-3.43870E+05-2.22857E+02 8.33256E+02-5.07532E-07 3.40383E-11-1.64033E-09
 -1       144-3.43605E+05 2.55859E+02 5.04232E+02-9.05704E-07 8.34848E-11-2.53760E-09
 -1       145-3.43779E+05-3.29568E+01 1.62174E+02-4.28494E-08 5.73383E-10-7.45374E-10
 -1       146-3.43720E+05 2.53058E+01 1.11555E+01 2.06678E-07-5.40641E-10-2.06656E-09
 -1       147-3.43756E+05 7.65643E+00-1.59271E+02 6.65812E-08-2.30665E-10 5.79107E-10
 -1       148-3.43787E+05-9.19936E+01-4.40601E+02-3.19525E-07 1.05102E-09 3.12567E-09
 -1       149-3.43711E+05 8.43283E+01-8.38596E+02-4.43205E-07-9.61796E-10 1.73992E-09
 -1       150-3.44073E+05-6.32196E+02-1.95719E+03 4.02246E-07-1.90616E-09 1.72872E-09
 -1       151-3.43471E+05 5.47786E+02-3.37638E+03-5.05139E-08-7.50904E-10 2.06001E-10
 -1       152-3.45735E+05-4.04868E+03-8.34347E+03 1.98783E-07 3.04482E-10-1.25635E-09
 -1       153-3.42051E+05 3.50028E+03-1.32742E+04-2.24565E-07 2.69580E-09 5.62068E-10
 -1       154-3.55744E+05-2.57683E+04-3.63349E+04-2.25632E-07 1.04803E-09 9.54969E-10
 -1       155-3.33464E+05 2.22642E+04-5.13107E+04 3.30283E-08 6.71586E-09 3.92174E-09
 -1       156-1.12361E+04-9.91425E+04 2.65274E+04-4.52921E+02-1.77824E-08 3.22396E-05
 -1       157 1.46162E+04-8.66989E+04 2.17152E+04 1.59182E+03-6.95618E-08 6.44125E-05
 -1       158-3.37613E+03-9.55070E+04 1.26945E+04-4.85042E+02-2.38279E-08 3.22387E-05
 -1       159 1.43110E+04-8.63798E+04 2.13591E+04 1.30479E+03 7.65795E-10 2.46224E-08
 -1       160-1.09336E+04-9.94586E+04 2.56353E+04-1.65887E+02 3.34694E-10 5.54934E-10
 -1       161-3.32991E+05-4.67078E+04 9.20457E+01-1.24644E+05-1.54830E-05 5.80455E-06
 -1       162-3.32414E+05-4.70483E+04 7.22982E+01-1.25139E+05-3.09219E-05 1.15895E-05
 -1       163-3.32947E+05-4.67040E+04 1.02764E+01-1.24688E+05-1.54822E-05 5.80210E-06
 -1       164-3.32736E+05-4.67884E+04 6.60017E+00-1.24782E+05-1.05029E-08 6.76095E-09
 -1       165-3.32669E+05-4.69680E+04-3.26605E+01-1.25001E+05-3.32043E-07 1.23544E-07
 -1       166-3.33023E+05-4.65359E+04-6.52950E+01-1.24468E+05-6.62340E-07 2.49278E-07
 -1       167-3.32660E+05-4.69563E+04-1.49826E+02-1.25003E+05-3.30865E-07 1.24642E-07
 -1       168-3.32800E+05-4.68917E+04-3.40649E+02-1.24765E+05 4.52318E-09-2.28923E-09
 -1       169-3.32893E+05-4.66123E+04-6.46685E+02-1.24703E+05 5.98701E-06-2.24337E-06
 -1       170-3.32829E+05-4.77309E+04-1.60787E+03-1.25029E+05 1.19577E-05-4.48013E-06
 -1       171-3.32631E+05-4.61171E+04-2.79195E+03-1.24740E+05 5.98616E-06-2.24081E-06
 -1       172-3.35051E+05-5.08746E+04-7.52277E+03-1.24147E+05-8.45876E-09 5.80258E-09
 -1       173-3.30672E+05-4.34694E+04-1.20515E+04-1.25585E+05-2.04161E-05 7.66371E-06
 -1       174-3.47599E+05-7.20092E+04-3.57138E+04-1.19727E+05-4.08244E-05 1.53355E-05
 -1       175-3.20086E+05-2.49852E+04-5.14118E+04-1.29160E+05-2.04228E-05 7.64429E-06
 -1       191 2.90598E+02 2.41100E+05 4.69692E+02-3.45723E+03-1.79170E-10 2.42426E-09
 -1       192 1.06945E+02 2.41156E+05 2.89016E+02-3.60307E+03-1.11413E-10 3.89855E-09
 -1       193 5.39631E+01 2.41121E+05 2.46018E+02-3.35727E+03-4.65775E-10 1.11313E-08
 -1       194 1.63852E+02 2.41173E+05 3.89887E+02-3.79570E+03-3.55385E-10 1.84091E-08
 -1       195 4.66387E+02 2.41078E+05 7.20833E+02-3.26437E+03-7.94898E-10 4.69981E-09
 -1       266-2.72031E+04-1.25804E+04 6.27817E+04-3.28222E+01-1.45519E-11 1.72977E-09
 -1       267 3.15032E+04 1.46898E+04 4.45364E+04 3.77394E+01-8.73115E-11-5.07285E-09
 -1       268-4.29273E+03-2.10321E+03 1.64842E+04-4.91460E+00-3.72893E-11 2.15840E-09
 -1       269 5.06722E+03 2.52190E+03 1.07734E+04 5.71323E+00 3.41061E-11 1.70132E-09
 -1       270-7.73530E+02-4.18356E+02 5.17254E+03-7.97224E-01-5.69571E-11 5.22806E-09
 -1       271-2.82643E+06-3.51470E+05-2.22501E+05-1.09336E+06 6.11180E-10-2.89583E-09
 -1       272-2.90842E+06-4.99862E+05-1.41395E+05-1.08962E+06-4.47471E-10 2.96495E-10
 -1       273-2.86642E+06-4.03554E+05-5.24949E+04-1.08582E+06 1.90994E-11-2.42289E-09
 -1       274-2.86177E+06-4.33911E+05-2.90444E+04-1.10197E+06 3.72893E-10-6.27097E-10
 -1       275-2.87180E+06-4.08585E+05-1.22053E+04-1.08435E+06-3.45608E-10 2.49656E-09
 -1       276-2.85526E+06-4.27877E+05-6.47381E+03-1.10444E+06-7.05768E-10-2.71666E-09
 -1       277-2.87289E+06-4.08692E+05-3.26219E+03-1.08372E+06-9.23364E-10 1.31934E-09
 -1       278-2.85399E+06-4.27876E+05-2.48611E+03-1.10538E+06 1.26136E-09 6.78074E-09
 -1       279-2.87313E+06-4.08478E+05-2.85921E+03-1.08348E+06 3.20824E-10 1.94143E-09
 -1       280-2.85434E+06-4.28553E+05-5.37131E+03-1.10548E+06 1.77625E-10-4.19539E-09
 -1       281-2.87257E+06-4.08055E+05-9.95976E+03-1.08362E+06 1.17944E-09 1.89812E-09
 -1       282-2.85911E+06-4.34012E+05-2.36463E+04-1.10413E+06 1.23519E-09 2.95131E-10
 -1       283-2.86844E+06-4.03719E+05-4.26816E+04-1.08455E+06 1.00044E-09-1.33878E-09
 -1       284-2.89664E+06-4.88050E+05-1.14984E+05-1.09457E+06 6.05723E-10 5.24778E-09
 -1       285-2.83610E+06-3.61208E+05-1.80940E+05-1.09050E+06 1.08776E-09 3.31056E-09
 -1       286 2.76236E+05-3.44607E+04 7.94295E+04 5.60173E+02 9.01309E-10 6.03904E-10
 -1       287 3.11036E+05 3.98834E+04 5.62838E+04-8.64146E+02-3.46951E-10-6.26642E-10
 -1       288 2.89664E+05-5.41306E+03 2.05753E+04 5.65966E+01-1.15236E-10 2.24463E-09
 -1       289 2.95404E+05 6.26438E+03 1.29652E+04-2.53024E+02 2.76886E-10-5.29235E-09
 -1       290 2.91867E+05-8.50090E+02 5.31956E+03-5.09396E+01-1.39406E-07-7.95580E-10
 -1       291 2.92842E+05 1.00271E+03 3.22392E+03-1.22117E+02-2.80190E-07-2.01698E-09
 -1       292 2.92227E+05-1.52401E+02 1.66039E+03-7.43134E+01-1.08316E-07 7.34815E-10
 -1       293 2.92484E+05 3.08006E+02 1.47802E+03-9.69049E+01 6.37031E-08-8.37932E-10
 -1       294 2.92225E+05-1.55505E+02 1.68730E+03-7.61519E+01-4.82799E-07-4.76069E-09
 -1       295 2.92856E+05 1.02927E+03 3.30202E+03-1.09887E+02-1.03279E-06-9.26718E-10
 -1       296 2.91855E+05-8.73542E+02 5.45970E+03-6.13313E+01-3.44569E-06-8.02129E-09
 -1       297 2.95485E+05 6.43714E+03 1.33155E+04-1.95857E+02-5.85737E-06 1.78079E-09
 -1       298 2.89595E+05-5.56232E+03 2.11345E+04 9.82003E+00-2.93609E-06 3.71801E-09
 -1       299 3.11454E+05 4.09621E+04 5.77955E+04-6.00990E+02 1.27589E-10 1.22673E-08
 -1       300 2.75887E+05-3.53895E+04 8.16094E+04 3.43796E+02 4.82881E-09 2.17551E-09
 -1       301 2.21988E+04-1.32959E+04 6.62340E+04-1.90391E+04 4.91127E-11-2.78902E-09
 -1       302 8.44535E+03 4.71055E+02 4.49549E+04-2.35658E+04 7.70797E-10 2.43249E-09
 -1       303 1.79290E+03-8.60203E+03 4.16831E+04-1.90422E+04-6.91216E-11 7.57700E-09
 -1       304 1.59906E+04 6.31450E+03 6.90270E+04-2.35411E+04 1.00044E-09 1.01295E-08
 -1       305 4.40005E+04-1.91162E+04 1.23241E+05-1.90352E+04 1.67347E-10 5.45720E-09
 -1       306-1.30056E+06-1.70552E+05-7.79654E+04-5.04279E+05 2.69665E-10 3.96540E-10
 -1       307-1.31231E+06-2.39146E+05-4.94893E+04-5.22186E+05 3.34694E-10 3.93902E-09
 -1       308-1.31467E+06-1.88602E+05-1.84107E+04-5.01549E+05 4.63842E-11 1.89084E-09
 -1       309-1.29603E+06-2.16163E+05-1.01859E+04-5.26681E+05-3.74712E-10-7.88987E-10
 -1       310-1.31655E+06-1.90350E+05-4.30310E+03-5.01059E+05 1.42632E-09 3.95630E-09
 -1       311-1.29391E+06-2.13944E+05-2.32143E+03-5.27462E+05 1.51090E-09-3.39696E-09
 -1       312-1.31685E+06-1.90471E+05-1.24682E+03-5.00944E+05-3.05818E-11-2.72775E-09
 -1       313-1.29370E+06-2.13719E+05-1.10147E+03-5.27502E+05 1.29717E-10 7.93534E-10
 -1       314-1.31676E+06-1.90552E+05-1.47064E+03-5.01030E+05-1.15006E-09-1.40403E-09
 -1       315-1.29423E+06-2.13741E+05-2.92601E+03-5.27056E+05-1.18234E-09-1.60207E-09
 -1       316-1.31624E+06-1.90533E+05-5.54008E+03-5.01315E+05-2.76032E-10-1.45019E-09
 -1       317-1.29714E+06-2.16422E+05-1.31467E+04-5.25797E+05 1.04046E-09-1.63345E-09
 -1       318-1.31373E+06-1.88353E+05-2.38022E+04-5.02026E+05 4.57931E-10 2.17005E-09
 -1       319-1.31826E+06-2.46038E+05-6.39580E+04-5.19882E+05 9.47011E-11 2.63753E-11
 -1       320-1.29546E+06-1.65035E+05-1.00770E+05-5.05570E+05-6.53017E-10-1.89175E-09
 -1       321-6.47595E+05 6.69363E+02-1.52890E+03-2.03433E+03 1.27062E-09-8.13316E-10
 -1       322-6.46328E+05-6.64842E+02-7.15022E+02 2.43890E+03-3.21680E-09-3.51764E-09
 -1       323-6.49226E+05-4.42608E+00-7.06542E+02-2.19169E+02-2.43905E-09-3.01362E-09
 -1       324-6.46228E+05-1.03310E+02 3.89160E+01-1.87411E+03-2.64014E-09-2.59843E-09
 -1       325-6.47696E+05 1.06256E+02-1.07101E+02 2.27875E+03 1.96174E-09 2.69061E-10
 -1       326-6.46308E+05-3.35428E+01 1.54560E+02-1.48226E+03 2.46432E-09-4.40912E-10
 -1       327-6.49146E+05-7.53657E+01-4.12410E+02-6.11016E+02 9.54778E-10 9.37003E-10
 -1       328-6.45934E+05-8.49035E+00 1.14791E+02 2.66238E+03 2.76788E-09 5.50155E-10
 -1       329-6.48069E+05 8.50383E+01-4.76142E+02-1.86597E+03-4.28191E-10-1.20829E-09
 -1       330-6.46651E+05-3.35574E+02-7.15776E+02 4.86832E+02-2.06060E-09 3.68271E-09
 -1       331-6.48429E+05 2.45859E+02-1.77402E+03 1.56457E+03-1.33144E-06-1.39465E-09
 -1       332-6.46767E+05-1.86350E+03-3.59806E+03-2.72032E+03-2.50207E-06-8.02612E-09
 -1       333-6.47956E+05 1.61945E+03-6.52733E+03 1.34123E+03-1.34389E-06-7.76390E-09
 -1       334-6.52143E+05-1.22296E+04-1.70485E+04 8.52807E+02-1.69535E-09 1.72440E-09
 -1       335-6.43058E+05 1.06039E+04-2.44783E+04-2.00864E+03-3.54978E-09 3.43425E-09
 -1       336 1.61811E+02-6.36466E+05-1.90609E+03-8.16030E+03-2.07456E-09 1.65164E-09
 -1       337-1.06335E+03-6.37273E+05-4.05221E+03-5.03441E+04-3.76633E-09-1.69712E-09
 -1       338 8.36608E+02-6.36051E+05-6.98334E+03-7.81172E+03-3.50065E-09 3.99496E-09
 -1       339-9.12652E+03-6.42047E+05-1.74904E+04-5.08219E+04-5.19685E-09 1.85128E-09
 -1       340 7.33728E+03-6.31940E+05-2.67533E+04-7.68418E+03-3.56886E-09 3.56908E-09
 -1       356-6.43105E+05 1.05723E+04-2.45075E+04-1.67885E+03-3.64310E-09 3.54703E-10
 -1       357-6.52241E+05-1.22337E+04-1.70963E+04 3.32045E+02-3.95261E-09-3.95630E-10
 -1       358-6.47429E+05 1.65536E+03-6.46183E+03 1.52095E+03-4.84917E-07-6.55655E-09
 -1       359-6.46930E+05-1.87617E+03-3.69547E+03-2.49337E+03-7.91603E-07-2.20342E-09
 -1       360-6.48411E+05 2.22264E+02-1.87766E+03 1.14663E+03-5.00900E-07-5.59095E-09
 -1       361-6.46670E+05-3.46328E+02-9.07648E+02 9.01659E+02-7.71657E-10 3.54572E-09
 -1       362-6.47687E+05 1.20584E+02-7.45055E+02-1.87413E+03 1.47085E-09-1.75390E-10
 -1       363-6.46249E+05-1.72092E+02-6.57885E+02 2.24686E+03 2.27623E-09 1.37589E-09
 -1       364-6.48832E+05 5.16793E+01-1.66007E+03-1.98598E+02-7.31191E-10 5.52518E-11
 -1       365-6.46797E+05-9.62346E+02-2.78861E+03-1.72817E+03-4.53051E-09-1.88874E-09
 -1       366-6.47140E+05 9.09325E+02-5.14394E+03 2.10097E+03 1.92259E-09 2.32239E-09
 -1       367-6.49417E+05-6.15297E+03-1.24609E+04-1.35026E+03 4.73908E-09 1.37743E-09
 -1       368-6.46217E+05 5.24051E+03-2.04144E+04-5.76525E+02 2.47870E-09 1.76078E-09
 -1       369-6.64273E+05-3.90677E+04-5.48871E+04 2.44421E+03-1.08279E-09 2.23736E-09
 -1       370-6.32295E+05 3.38233E+04-7.80107E+04-1.69358E+03 9.89225E-09-5.45697E-11
 -1       371-1.05131E+04-9.86627E+04 2.38056E+04 2.29485E+02 2.26464E-09-1.42351E-09
 -1       372 1.12114E+04-8.84923E+04 1.51378E+04-6.60115E+01 3.17186E-10 1.73130E-09
 -1       373-6.96483E+02-9.41821E+04 2.58619E+03 1.08324E+02 1.61435E-09 5.42027E-10
 -1       374-5.29627E+03-9.60951E+04-6.32896E+03 1.97161E+02 8.98126E-11-3.06876E-09
 -1       375 5.99141E+03-9.10617E+04-1.31160E+04-3.36932E+01 7.50333E-10 1.50227E-09
 -1       406 4.00728E+02 2.39726E+05 9.21965E+02-1.32400E+04-1.12323E-09 6.64841E-10
 -1       407 2.97552E+02 2.39895E+05 1.23295E+03-1.44225E+04-6.88146E-10-6.70525E-10
 -1       408 5.43111E+02 2.39681E+05 2.12460E+03-1.31523E+04-1.46315E-09-8.14362E-09
 -1       409 2.17665E+03 2.40506E+05 4.61869E+03-1.45689E+04-9.77252E-10-1.72829E-08
 -1       410 6.24858E+03 2.39097E+05 9.34826E+03-1.30900E+04-1.70257E-09-1.00381E-08
 -1       501-2.41253E+05-3.86081E+04 8.41471E+04-4.06137E+03 7.31012E-09 5.75528E-09
 -1       502-1.77748E+05 4.37460E+04 6.40787E+04 1.08248E+04 6.25968E-09 9.43601E-09
 -1       503-2.17803E+05-5.06772E+03 2.19729E+04-5.02923E+03 4.39394E-09 4.32919E-09
 -1       504-1.81116E+05 7.42677E+03 1.95824E+04 6.84742E+03-1.09958E-09 6.82394E-09
 -1       505-2.37794E+05-2.40758E+03 6.59718E+02-8.36679E+01 6.66574E-10-3.74416E-09
 -1       506-1.79002E+05 2.05544E+03 9.88087E+03-3.84017E+03 1.11449E-08-7.79602E-09
 -1       507-2.19880E+05 2.63976E+02 6.40596E+01 5.65683E+03 1.28216E-08-1.04103E-08
 -1       508-1.99185E+05-7.90532E+02 3.16570E+03-9.83398E+03 5.58128E-09-1.24063E-08
 -1       509-2.17766E+05 5.91359E+02-4.43302E+02 5.91195E+03 1.37597E-08-1.02903E-08
 -1       510-1.81223E+05 9.81374E+02 6.80079E+03-4.63544E+03 7.51541E-09-9.57905E-09
 -1       511-2.37701E+05-1.64784E+03-4.27043E+03 4.56503E+02-3.31477E-09 4.02252E-10
 -1       512-1.82031E+05 1.71259E+03 7.86373E+03 6.15026E+03-9.94356E-09 3.21546E-09
 -1       513-2.16967E+05-1.29800E+02 2.24705E+03-4.87232E+03-7.60450E-09 4.26689E-09
 -1       514-1.95761E+05 6.01840E+03 1.08878E+04 1.08749E+04-5.38626E-09 1.07378E-08
 -1       515-2.24099E+05-5.82401E+03 9.57746E+03-4.26845E+03-6.61234E-09 4.64070E-09
 -1       521-2.88397E+06-3.67262E+05-1.85815E+05-1.10960E+06-2.04454E-09-4.00178E-10
 -1       522-2.94415E+06-4.99424E+05-1.18068E+05-1.11597E+06-5.22732E-10-1.13687E-09
 -1       523-2.91732E+06-4.10766E+05-4.38269E+04-1.10333E+06 5.27507E-11 2.07365E-10
 -1       524-2.90543E+06-4.44152E+05-2.42660E+04-1.12607E+06-7.61702E-11-3.48928E-09
 -1       525-2.92165E+06-4.15127E+05-1.02020E+04-1.10228E+06 3.39469E-10 4.28372E-10
 -1       526-2.90043E+06-4.38662E+05-5.45653E+03-1.12760E+06 1.57073E-09 9.00798E-10
 -1       527-2.92226E+06-4.15524E+05-2.81799E+03-1.10209E+06-1.18263E-10 6.00263E-10
 -1       528-2.90003E+06-4.37980E+05-2.29430E+03-1.12754E+06-9.40190E-10 1.13448E-09
 -1       529-2.92203E+06-4.15766E+05-2.83234E+03-1.10235E+06-6.40739E-10-5.32054E-11
 -1       530-2.90126E+06-4.37778E+05-5.47608E+03-1.12651E+06-5.87534E-10-1.24237E-09
 -1       531-2.92095E+06-4.15837E+05-1.02648E+04-1.10304E+06-5.96174E-10 4.60204E-10
 -1       532-2.90708E+06-4.42447E+05-2.43725E+04-1.12394E+06 6.20730E-11-7.13953E-11
 -1       533-2.91618E+06-4.11887E+05-4.40537E+04-1.10456E+06-1.71013E-10 1.19508E-09
 -1       534-2.94675E+06-4.97171E+05-1.18608E+05-1.11285E+06-3.49701E-10 2.18824E-09
 -1       535-2.88229E+06-3.68577E+05-1.86704E+05-1.11129E+06-2.12822E-10 3.79077E-09
 -1       536 3.50002E+04-9.63165E+03 3.48632E+04-4.60286E+03 6.49379E-10-1.30967E-09
 -1       537 4.84049E+04 1.20376E+04 2.28249E+04-2.64201E+04-2.29920E-09-2.25555E-10
 -1       538 4.03834E+04-1.12499E+03 9.03217E+03-4.54652E+03-1.58252E-10-1.98997E-09
 -1       539 4.21919E+04 1.27194E+03 5.15827E+03-2.64673E+04 1.15392E-09 1.37686E-09
 -1       540 4.10333E+04-1.51057E+02 2.27596E+03-4.55314E+03 2.04182E-10 1.25044E-09
 -1       541 4.13293E+04 1.30326E+02 1.22249E+03-2.64493E+04-3.36286E-10-1.34685E-09
 -1       542 4.11146E+04-2.33334E+01 5.58650E+02-4.56463E+03-3.04453E-10-4.03247E-10
 -1       543 4.11535E+04 2.78426E+01 2.78702E+02-2.64314E+04-5.51154E-10-2.24361E-09
 -1       544 4.11249E+04 1.70930E+00 1.02144E+02-4.57112E+03 5.05679E-10-1.37874E-09
 -1       545 4.10982E+04 1.69877E+01-1.24701E+01-2.64235E+04-1.35424E-09-8.08939E-10
 -1       546 4.11327E+04 1.34841E+01-1.26364E+02-4.57252E+03 2.76771E-10 2.18597E-09
 -1       547 4.10500E+04-7.10406E+01-3.46094E+02-2.64223E+04-5.48596E-10-1.44405E-09
 -1       548 4.11827E+04 7.40851E+01-6.37080E+02-4.57235E+03-6.20048E-10-1.61589E-09
 -1       549 4.06684E+04-8.53469E+02-1.61130E+03-2.63896E+04-8.68795E-10 1.45985E-09
 -1       550 4.15708E+04 6.56905E+02-2.48877E+03-4.60518E+03 1.37334E-10 2.41471E-10
 -1       551 5.92806E+03-2.27441E+05 1.59880E+04-3.63563E+05-4.38376E-09-9.09495E-11
 -1       552 4.59665E+03-2.25041E+05 1.70679E+04-4.48842E+05-5.16957E-09 4.08454E-09
 -1       553 3.30038E+03-2.27953E+05 2.51070E+04-3.62838E+05-5.62432E-09 1.42199E-09
 -1       554 1.55400E+04-2.16885E+05 5.16071E+04-4.48943E+05-5.65706E-09 3.04635E-09
 -1       555 3.74106E+04-2.36138E+05 9.77862E+04-3.63367E+05-4.69299E-09-2.12458E-09
 -1       556-6.43234E+04-7.47654E+04 1.88931E+04-1.20032E+05-6.06815E-09-8.63656E-09
 -1       557-4.51568E+04-9.30038E+04 9.57597E+03-1.35283E+05-1.71713E-09 2.16005E-10
 -1       558-6.42697E+04-7.91709E+04 4.00112E+03-1.17016E+05-3.18687E-09-4.72028E-09
 -1       559-4.72419E+04-9.57892E+04 1.98308E+03-1.36110E+05 1.51340E-09 4.63842E-11
 -1       560-6.45224E+04-7.90630E+04 8.75090E+02-1.17087E+05 1.12050E-09-1.76533E-09
 -1       561-4.77032E+04-9.57662E+04 4.30239E+02-1.36420E+05 1.42427E-09-1.91369E-09
 -1       562-6.47397E+04-7.89072E+04 1.70472E+02-1.17240E+05 3.89264E-10-2.82523E-09
 -1       563-4.79471E+04-9.56630E+04 5.30091E+01-1.36585E+05-8.54016E-10-5.51381E-10
 -1       564-6.48689E+04-7.88181E+04-6.01008E+01-1.17333E+05 5.09135E-09 4.89399E-09
 -1       565-4.80734E+04-9.56132E+04-2.01811E+02-1.36663E+05 7.85440E-09 3.09319E-09
 -1       566-6.48951E+04-7.87843E+04-4.59639E+02-1.17360E+05 2.08502E-09-8.18545E-12
 -1       567-4.81583E+04-9.56431E+04-1.02652E+03-1.36649E+05-1.72918E-10 2.61662E-09
 -1       568-6.47668E+04-7.89012E+04-2.11479E+03-1.17290E+05-1.19508E-09-9.37689E-10
 -1       569-4.94032E+04-9.66863E+04-4.98669E+03-1.36204E+05 9.09495E-10 7.50333E-09
 -1       570-6.38731E+04-8.18887E+04-9.91084E+03-1.16091E+05-9.09495E-10-1.61026E-09
 -1       571 1.66084E+05 7.04548E+03 1.05578E+04-4.11267E+04 6.23004E-11-9.73614E-10
 -1       572 1.67671E+05 2.43329E+03 5.17680E+03-4.51733E+04-1.54614E-10 7.42148E-10
 -1       573 1.66726E+05 5.66934E+02 2.30094E+03-4.10204E+04-2.46018E-10-9.64064E-10
 -1       574 1.66915E+05 1.79754E+02 1.15364E+03-4.52912E+04 4.64752E-10-2.94494E-09
 -1       575 1.66798E+05 1.94639E+01 5.44589E+02-4.10065E+04 3.46745E-10-1.18143E-09
 -1       576 1.66815E+05 1.47688E+00 2.77878E+02-4.53069E+04 3.77298E-11-3.36649E-09
 -1       577 1.66810E+05-8.73861E+00 1.38214E+02-4.10047E+04 1.15506E-10 6.68479E-11
 -1       578 1.66805E+05-6.99753E+00 7.78509E+01-4.53087E+04 3.81078E-10 3.16459E-09
 -1       579 1.66820E+05-1.00651E+01 5.23144E+01-4.10046E+04 8.77662E-11-1.36515E-09
 -1       580 1.66819E+05-1.13497E+01 5.65087E+01-4.53063E+04 6.38011E-10-2.06592E-09
 -1       581 1.66836E+05-1.41474E+01 8.54311E+01-4.10071E+04-3.71983E-10-1.82354E-09
 -1       582 1.66856E+05 2.44800E+00 1.68658E+02-4.52814E+04-1.68711E-10 4.36557E-10
 -1       583 1.66851E+05 5.00350E+01 3.28263E+02-4.10296E+04-4.95675E-10 1.85639E-09
 -1       584 1.66994E+05 3.08190E+02 7.36615E+02-4.50923E+04-1.10686E-09 1.10163E-09
 -1       585 1.66788E+05 9.58345E+02 1.49793E+03-4.11968E+04 5.02951E-10 2.21189E-09
 -1       586 3.53982E+02 7.26372E+04 9.34062E+02-1.03831E+05 3.63798E-11-3.58796E-10
 -1       587 3.34375E+02 7.28082E+04 1.48675E+03-1.15787E+05-1.25692E-09-2.05250E-09
 -1       588 6.14919E+02 7.25374E+04 2.72254E+03-1.03699E+05-5.45697E-12 9.07960E-10
 -1       589 2.60452E+03 7.36660E+04 5.99908E+03-1.15806E+05-1.33105E-09 3.66310E-09
 -1       590 7.58972E+03 7.17603E+04 1.21112E+04-1.03810E+05 1.77351E-11-4.42469E-10
 -1       591-7.65171E+04-2.27015E+04-1.57696E+04-3.67017E+04 2.45336E-10-9.67702E-10
 -1       592-7.76043E+04-2.21404E+04-7.95515E+03-4.08949E+04-1.60981E-10-2.91493E-10
 -1       593-7.73472E+04-1.84112E+04-3.37605E+03-3.88731E+04-3.84603E-10-3.98757E-09
 -1       594-7.57967E+04-2.01799E+04-1.65931E+03-4.10312E+04 1.18979E-09 4.03354E-09
 -1       595-7.74350E+04-1.83023E+04-7.65868E+02-3.89542E+04-1.12743E-09 3.73745E-10
 -1       596-7.56741E+04-2.01117E+04-3.87114E+02-4.10126E+04 2.26805E-10 4.54065E-10
 -1       597-7.74495E+04-1.83157E+04-2.08215E+02-3.89542E+04 1.11797E-10 2.30250E-09
 -1       598-7.56613E+04-2.01124E+04-1.61755E+02-4.10069E+04-2.15380E-10-3.13810E-09
 -1       599-7.74486E+04-1.83166E+04-1.99458E+02-3.89536E+04-1.67802E-10 6.65295E-10
 -1       600-7.56716E+04-2.01128E+04-3.64098E+02-4.10103E+04 1.46997E-10 3.56499E-09
 -1       601-7.74328E+04-1.83052E+04-7.16232E+02-3.89525E+04-1.91676E-10-1.59116E-09
 -1       602-7.57857E+04-2.01757E+04-1.55004E+03-4.10241E+04 7.36236E-10 1.00499E-10
 -1       603-7.73479E+04-1.84101E+04-3.15263E+03-3.88775E+04 3.94721E-10 4.15639E-10
 -1       604-7.74909E+04-2.19868E+04-7.42747E+03-4.08724E+04 2.67846E-10-1.14824E-09
 -1       605-7.65519E+04-2.24329E+04-1.47230E+04-3.68693E+04-2.97223E-09-6.79984E-09
 -1       606 5.52180E+04-6.51363E+03-1.04744E+04 1.72239E+04 7.51879E-09 2.99724E-09
 -1       607 5.35372E+04-2.17173E+03-5.16431E+03 1.89628E+04 1.57997E-08 1.26306E-09
 -1       608 5.45124E+04-4.44772E+02-2.30243E+03 1.71024E+04 6.77574E-09 2.20587E-09
 -1       609 5.43001E+04-1.24223E+02-1.15723E+03 1.90970E+04-2.55523E-09-1.59798E-09
 -1       610 5.44224E+04 6.01699E+00-5.48098E+02 1.70875E+04-2.05910E-09-2.51180E-09
 -1       611 5.43812E+04 2.04082E+01-2.75775E+02 1.91132E+04-4.36967E-09-2.10923E-09
 -1       612 5.44023E+04 2.47665E+01-1.30375E+02 1.70858E+04-1.76806E-09-3.11525E-09
 -1       613 5.43867E+04 2.57119E+01-5.80414E+01 1.91152E+04-3.22507E-09 2.66368E-09
 -1       614 5.43931E+04 2.26438E+01-1.26941E+01 1.70854E+04-8.40828E-10 1.12050E-09
 -1       615 5.43848E+04 2.66875E+01 2.66268E+01 1.91154E+04 3.38423E-09 1.96587E-09
 -1       616 5.43858E+04 2.57070E+01 7.78078E+01 1.70856E+04-1.68529E-09 2.19188E-10
 -1       617 5.43952E+04 5.01136E+01 1.77901E+02 1.91147E+04 2.43233E-09 1.53648E-09
 -1       618 5.43699E+04 9.70387E+01 3.60011E+02 1.70860E+04 2.82284E-09 2.66118E-09
 -1       619 5.45147E+04 3.72456E+02 8.11384E+02 1.91114E+04-5.37739E-10 2.40061E-09
 -1       620 5.42590E+04 1.05188E+03 1.64706E+03 1.70879E+04 7.96547E-10-3.61524E-11
 -1       621 5.68773E+02 1.67964E+05 2.05072E+03-1.19478E+04-1.07775E-10 5.65262E-09
 -1       622 2.55383E+02 1.68383E+05 2.06617E+03-1.47947E+04 2.10889E-10 1.05726E-08
 -1       623 1.31382E+02 1.68029E+05 2.94558E+03-1.19531E+04-1.18462E-10 2.97496E-09
 -1       624 1.48365E+03 1.69338E+05 5.98874E+03-1.47416E+04 3.06386E-10 8.64247E-10
 -1       625 4.11677E+03 1.67017E+05 1.13346E+04-1.19998E+04 4.41105E-11 3.50428E-09
 -1       626 9.99973E+04 3.20973E+04-1.98235E+03 6.33801E+04-5.68434E-10 1.74077E-09
 -1       627 9.78172E+04 3.47218E+04-9.42689E+02 6.52200E+04 1.29194E-09 8.15703E-11
 -1       628 1.00080E+05 3.29925E+04-3.96303E+02 6.28438E+04 1.25237E-09 8.16044E-10
 -1       629 9.78964E+04 3.51790E+04-1.88867E+02 6.52560E+04 1.65528E-09 2.52436E-09
 -1       630 1.00075E+05 3.30516E+04-8.12556E+01 6.27961E+04 1.94450E-09-1.40147E-10
 -1       631 9.78925E+04 3.52152E+04-3.12303E+01 6.52599E+04-1.17143E-09-8.50463E-10
 -1       632 1.00066E+05 3.30544E+04 3.05575E+00 6.27894E+04 2.29102E-09 4.52474E-11
 -1       633 9.78895E+04 3.52181E+04 3.83789E+01 6.52592E+04 1.55842E-09-1.68421E-09
 -1       634 1.00059E+05 3.30510E+04 9.34617E+01 6.27876E+04 1.46042E-09-8.94488E-10
 -1       635 9.78986E+04 3.52201E+04 2.09686E+02 6.52611E+04-1.16961E-09 1.98042E-09
 -1       636 1.00050E+05 3.30576E+04 4.34003E+02 6.27818E+04 1.29807E-08-6.70002E-09
 -1       637 9.79989E+04 3.53262E+04 9.66634E+02 6.52465E+04 4.44463E-08 1.06359E-08
 -1       638 1.00023E+05 3.33809E+04 2.00009E+03 6.26396E+04 7.36259E-09-4.07408E-09
 -1       639 9.90211E+04 3.70429E+04 4.75406E+03 6.48356E+04-2.68238E-08-1.03960E-08
 -1       640 1.00035E+05 3.83866E+04 9.99570E+03 6.05520E+04-1.09083E-08 2.87355E-09
 -1       641-1.38281E+04 2.05881E+03-4.74608E+03-1.76121E+01 1.13412E-05-1.08191E-08
 -1       642-1.58879E+04-2.38285E+03-3.35850E+03 1.05380E+01 2.26593E-05-1.88975E-08
 -1       643-1.46219E+04 3.23587E+02-1.22399E+03-1.94296E+01 2.08382E-05-2.16734E-08
 -1       644-1.49625E+04-3.73688E+02-7.63016E+02 1.37613E+01 1.90047E-05-1.42858E-08
 -1       645-1.47534E+04 5.00252E+01-2.95660E+02-2.08360E+01 1.25437E-05-1.15470E-08
 -1       646-1.48064E+04-5.37200E+01-1.45215E+02 1.55683E+01 6.07217E-06-5.19881E-09
 -1       647-1.47779E+04 3.67577E+00-1.04546E+01-2.12367E+01-2.92397E-06 5.85118E-10
 -1       648-1.47645E+04 2.23719E+01 1.07165E+02 1.52439E+01-1.19215E-05 1.28602E-08
 -1       649-1.47953E+04-2.60573E+01 2.53083E+02-2.05117E+01-2.21602E-05 2.23081E-08
 -1       650-1.46692E+04 2.01241E+02 6.18490E+02 1.26770E+01-3.23969E-05 2.62828E-08
 -1       651-1.48732E+04-1.75169E+02 1.07702E+03-1.86698E+01-4.18973E-05 3.91503E-08
 -1       652-1.41360E+04 1.29546E+03 2.66899E+03 7.81885E+00-5.13895E-05 4.08759E-08
 -1       653-1.53285E+04-1.12008E+03 4.24809E+03-1.56535E+01-5.46594E-05 4.75095E-08
 -1       654-1.09325E+04 8.24582E+03 1.16289E+04-3.69442E-01-5.78995E-05 4.26423E-08
 -1       655-1.80763E+04-7.12415E+03 1.64253E+04-1.04818E+01-2.89707E-05 1.89239E-08
 -1       656 6.31637E+03-2.36667E+05-2.68286E+04 6.36994E+03-2.12640E-09-2.29511E-09
 -1       657-9.17865E+03-2.46603E+05-1.99022E+04 2.73483E+04-8.73115E-10-5.91285E-09
 -1       658 1.30387E+03-2.40114E+05-1.29531E+04 6.31794E+03-4.21210E-10-3.13895E-09
 -1       659-9.03905E+03-2.46539E+05-1.96691E+04 2.73794E+04 5.54792E-11-3.37519E-09
 -1       660 6.21231E+03-2.36749E+05-2.63863E+04 6.33915E+03-4.62023E-10-3.07375E-09
 -1       661 1.46911E+05 2.03702E+04 1.16612E+04 5.76095E+04 2.93346E-09-2.17733E-09
 -1       662 1.49414E+05 2.71507E+04 7.02244E+03 5.93316E+04-3.53019E-10 7.10088E-10
 -1       663 1.48703E+05 2.21080E+04 2.73694E+03 5.76188E+04-1.69213E-09 7.95808E-13
 -1       664 1.47319E+05 2.43346E+04 1.44432E+03 5.96610E+04 2.41575E-09-3.88738E-09
 -1       665 1.48875E+05 2.22664E+04 6.39177E+02 5.76255E+04 2.64862E-10 3.23729E-09
 -1       666 1.47119E+05 2.41004E+04 3.40194E+02 5.96753E+04 3.22388E-09 1.41910E-09
 -1       667 1.48894E+05 2.22820E+04 1.98096E+02 5.76270E+04 3.30070E-09 9.10958E-10
 -1       668 1.47102E+05 2.40845E+04 1.90291E+02 5.96762E+04 1.31146E-09-1.48140E-09
 -1       669 1.48893E+05 2.22795E+04 2.77726E+02 5.76259E+04-4.74745E-09-2.75537E-09
 -1       670 1.47137E+05 2.41187E+04 5.55529E+02 5.96811E+04-6.87487E-09-7.16139E-09
 -1       671 1.48860E+05 2.22501E+04 1.08726E+03 5.76217E+04-5.48653E-10 7.54198E-10
 -1       672 1.47482E+05 2.45253E+04 2.48304E+03 5.96606E+04 5.27564E-09-2.99224E-10
 -1       673 1.48565E+05 2.19754E+04 4.71458E+03 5.76088E+04 2.79962E-09-5.21823E-09
 -1       674 1.51092E+05 2.93827E+04 1.21051E+04 5.90960E+04 1.48936E-08 4.22915E-09
 -1       675 1.45477E+05 1.89782E+04 2.01023E+04 5.75918E+04 5.68662E-09-1.68347E-09
 -1       676 2.46824E+02-2.11394E+05-1.70482E+03-2.67028E+02-1.16469E-09-7.85370E-10
 -1       677-7.09635E+02-2.12064E+05-2.56126E+03-1.31237E+03-9.30413E-10-3.04106E-09
 -1       678 3.28572E+02-2.11305E+05-3.88191E+03-2.68034E+02-1.14551E-09-1.89684E-09
 -1       679-4.33612E+03-2.14263E+05-9.15745E+03-1.30748E+03-4.32613E-09-3.59137E-09
 -1       680 3.07286E+03-2.09195E+05-1.42666E+04-2.72410E+02-1.11322E-09 1.48248E-10
 -1       716-1.87918E-01-8.95924E-02 8.40852E+00-2.25876E-04 3.31046E-09-7.21820E-10
 -1       717 9.25394E-01 6.74856E-01 1.48090E+01 5.75138E-04 4.04936E-09-5.23666E-10
 -1       718-7.37491E-01-5.85511E-01 2.74814E+01-3.49038E-04-9.57352E-10-2.73157E-09
 -1       719 4.36964E+00 4.59684E+00 5.70015E+01-5.21844E-04-4.97471E-09-3.83845E-10
 -1       720-3.63221E+00-4.01182E+00 1.08717E+02 8.71596E-04-5.16097E-09 1.42037E-11
 -1       721 2.26156E+01 3.06289E+01 2.32349E+02-1.84023E-02-4.55963E-09 2.67306E-10
 -1       722-1.89835E+01-2.66166E+01 4.34878E+02 1.75285E-02-3.33539E-09-1.07738E-09
 -1       723 1.22959E+02 1.99856E+02 9.57886E+02-1.76588E-01 1.06844E-09-4.32507E-10
 -1       724-1.03973E+02-1.73220E+02 1.73457E+03 1.59018E-01-1.93010E-09-1.34764E-09
 -1       725 6.96467E+02 1.28784E+03 3.99767E+03-1.35804E+00-2.47340E-09-4.61284E-10
 -1       726-5.92438E+02-1.11442E+03 6.87799E+03 1.19868E+00-4.26480E-09-1.99225E-09
 -1       727 4.07532E+03 8.23519E+03 1.69796E+04-9.55283E+00-3.72034E-09-8.55152E-10
 -1       728-3.48185E+03-7.11916E+03 2.70133E+04 8.35279E+00 4.38373E-10-1.80080E-09
 -1       729 2.44311E+04 5.24106E+04 7.39193E+04-6.42527E+01 2.00831E-09-4.44743E-10
 -1       730-2.09318E+04-4.52772E+04 1.04447E+05 5.59074E+01 2.79179E-09-1.44064E-09
 -1       766-4.52871E+04-2.09612E+04 1.04427E+05-4.91677E+01-3.63798E-11-3.28839E-11
 -1       767 5.24858E+04 2.44799E+04 7.39138E+04 1.93238E+01 3.48973E-09-1.18874E-09
 -1       768-7.18470E+03-3.53825E+03 2.69247E+04 4.30962E+00-3.38332E-10 7.40918E-11
 -1       769 8.71485E+03 4.29828E+03 1.69859E+04-4.12525E+01 2.73121E-09 2.79247E-09
 -1       770-1.52838E+03-7.95920E+02 6.48756E+03 1.14155E+01 1.28694E-10 1.23926E-09
 -1       771-1.31510E+06-2.51548E+05-3.65721E+04-5.62654E+05-1.50067E-09-6.91216E-10
 -1       772-1.30946E+06-2.58057E+05-1.84119E+04-5.81358E+05-4.03816E-10 6.94854E-10
 -1       773-1.31767E+06-2.41100E+05-7.86172E+03-5.67378E+05 4.00905E-09 7.94716E-09
 -1       774-1.30512E+06-2.53904E+05-3.84631E+03-5.82463E+05 7.60338E-10-3.56977E-10
 -1       775-1.31817E+06-2.40630E+05-1.80259E+03-5.67638E+05-3.49246E-09-3.37559E-09
 -1       776-1.30500E+06-2.53741E+05-9.01034E+02-5.82722E+05-1.57161E-09 1.81512E-09
 -1       777-1.31842E+06-2.40519E+05-4.98600E+02-5.67722E+05 4.09273E-10 6.36646E-11
 -1       778-1.30511E+06-2.53711E+05-3.74431E+02-5.82907E+05 6.29370E-10 6.07287E-10
 -1       779-1.31857E+06-2.40422E+05-4.68940E+02-5.67782E+05-1.49157E-10 1.33241E-10
 -1       780-1.30522E+06-2.53693E+05-8.44138E+02-5.83041E+05-9.79981E-10-1.29728E-09
 -1       781-1.31862E+06-2.40338E+05-1.66695E+03-5.67813E+05-2.16460E-10-2.90584E-10
 -1       782-1.30553E+06-2.53830E+05-3.60948E+03-5.83125E+05 1.49157E-09 1.23509E-09
 -1       783-1.31844E+06-2.40574E+05-7.34996E+03-5.67648E+05-7.16398E-10-4.89308E-10
 -1       784-1.30954E+06-2.58032E+05-1.73318E+04-5.82720E+05-1.18587E-09-8.92214E-10
 -1       785-1.31651E+06-2.50016E+05-3.43692E+04-5.62986E+05 4.33374E-10 5.00222E-10
 -1       786 1.32547E+05-4.37693E+03 1.60445E+04-6.17150E+02-3.43334E-11 8.40373E-10
 -1       787 1.38555E+05 5.57565E+03 1.04815E+04-3.61567E+03-3.53566E-11 4.14366E-09
 -1       788 1.35026E+05-4.89553E+02 4.16614E+03-6.15364E+02-3.65503E-11 1.94677E-09
 -1       789 1.35771E+05 6.08584E+02 2.36997E+03-3.61456E+03 1.06610E-10 7.80688E-10
 -1       790 1.35330E+05-5.58945E+01 1.06114E+03-6.18136E+02-1.21361E-11 3.31852E-09
 -1       791 1.35426E+05 6.59544E+01 5.76437E+02-3.61073E+03-4.69150E-10 1.67597E-09
 -1       792 1.35371E+05-6.99987E+00 2.92950E+02-6.19186E+02 3.82874E-10-6.43695E-10
 -1       793 1.35381E+05 9.80989E+00 1.96940E+02-3.61066E+03-3.27930E-10-3.78822E-09
 -1       794 1.35374E+05-3.86056E+00 1.82318E+02-6.18212E+02-2.45933E-10 1.16959E-10
 -1       795 1.35395E+05 2.92998E+01 2.81730E+02-3.61478E+03 5.99343E-10 1.10474E-09
 -1       796 1.35358E+05-2.50852E+01 4.81803E+02-6.15064E+02-7.39249E-10 4.70635E-10
 -1       797 1.35548E+05 2.68089E+02 1.05372E+03-3.62214E+03 1.21980E-09-2.60115E-09
 -1       798 1.35224E+05-2.16887E+02 1.84340E+03-6.10850E+02-1.66324E-10-2.75418E-09
 -1       799 1.36779E+05 2.46186E+03 4.63205E+03-3.62462E+03-1.83366E-09-2.73377E-09
 -1       800 1.34128E+05-1.93470E+03 7.08775E+03-6.12666E+02 6.04587E-10-1.18962E-09
 -1       801-8.38235E+03 1.80218E+05 2.42527E+04-1.36830E+05 7.23685E-09-7.70524E-09
 -1       802 2.03918E+04 1.88309E+05 3.15967E+04-7.84984E+05 2.13386E-08-2.02817E-09
 -1       803-2.35855E+03 1.79703E+05 3.77340E+04-1.36496E+05 1.34460E-08 6.71400E-09
 -1       804 5.30337E+04 2.07046E+05 8.57387E+04-7.84928E+05 2.17733E-08 8.50196E-09
 -1       805-3.70428E+04 1.61911E+05 1.24591E+05-1.36896E+05 6.70116E-09 8.24366E-09
 -1       806-1.14692E+05-3.49868E+04-1.03968E+04-5.84262E+04 4.22489E-10-7.01220E-10
 -1       807-1.14341E+05-3.28846E+04-4.94422E+03-6.20847E+04 6.04814E-11-2.66709E-10
 -1       808-1.14678E+05-2.97877E+04-2.08075E+03-6.06147E+04 3.82533E-09 5.30792E-09
 -1       809-1.13299E+05-3.10823E+04-1.00608E+03-6.25017E+04-9.11427E-10-8.58046E-09
 -1       810-1.14708E+05-2.94499E+04-4.54179E+02-6.07666E+04 3.08739E-09 6.17217E-09
 -1       811-1.13199E+05-3.09695E+04-2.24288E+02-6.25170E+04-3.42993E-10-8.25366E-10
 -1       812-1.14717E+05-2.94428E+04-1.10565E+02-6.07727E+04 1.89431E-11-2.43290E-11
 -1       813-1.13188E+05-3.09680E+04-6.86490E+01-6.25133E+04-1.88720E-11-1.09480E-10
 -1       814-1.14716E+05-2.94463E+04-6.23785E+01-6.07711E+04 3.85057E-10-2.38879E-09
 -1       815-1.13189E+05-3.09709E+04-9.63738E+01-6.25109E+04 3.56295E-10-1.85560E-09
 -1       816-1.14709E+05-2.94523E+04-1.79762E+02-6.07670E+04-1.12937E-09-4.82942E-10
 -1       817-1.13229E+05-3.10107E+04-3.90742E+02-6.24952E+04 1.06593E-09 5.47516E-10
 -1       818-1.14689E+05-2.95909E+04-8.04754E+02-6.07119E+04-5.02951E-10-1.23623E-09
 -1       819-1.13676E+05-3.16584E+04-1.90962E+03-6.22738E+04-2.83535E-10 1.42290E-09
 -1       820-1.14643E+05-3.16428E+04-4.01448E+03-5.99146E+04 2.81034E-10 3.08728E-09
 -1       821-1.57628E+05 5.42357E+03-1.98874E+04 7.37940E+02-1.34048E-09 5.72982E-10
 -1       822-1.65070E+05-6.91065E+03-1.29920E+04 4.47449E+03-1.57701E-09-2.08729E-09
 -1       823-1.60702E+05 6.05782E+02-5.16631E+03 7.10747E+02 1.54614E-09-1.72759E-09
 -1       824-1.61624E+05-7.50973E+02-2.94136E+03 4.51248E+03-7.95978E-10-3.31966E-10
 -1       825-1.61079E+05 6.93562E+01-1.32443E+03 6.99740E+02-3.86217E-09-6.14762E-10
 -1       826-1.61201E+05-7.70188E+01-7.32799E+02 4.53040E+03-5.75753E-09-2.36901E-09
 -1       827-1.61129E+05 9.83696E+00-3.99745E+02 6.92777E+02-3.60541E-09-6.41137E-10
 -1       828-1.61153E+05-1.01208E+01-3.20094E+02 4.54128E+03-3.70500E-09 5.74268E-10
 -1       829-1.61130E+05 9.38207E+00-3.73134E+02 6.88848E+02-5.75668E-10-2.80561E-10
 -1       830-1.61197E+05-6.72176E+01-6.62383E+02 4.54562E+03 1.89469E-09-1.38112E-09
 -1       831-1.61086E+05 6.28678E+01-1.18537E+03 6.88440E+02-8.05385E-09-1.15944E-09
 -1       832-1.61576E+05-6.67425E+02-2.62652E+03 4.54288E+03-1.02002E-08-2.52965E-09
 -1       833-1.60750E+05 5.41974E+02-4.60964E+03 6.91642E+02-8.01651E-09-2.24122E-09
 -1       834-1.64653E+05-6.16227E+03-1.15920E+04 4.52706E+03-4.69745E-09-5.12728E-10
 -1       835-1.58008E+05 4.84091E+03-1.77425E+04 7.04664E+02-4.22807E-09-1.75078E-09
 -1       836-1.77543E+03 2.50868E+05 2.00329E+04-1.43351E+04-2.34741E-09 1.38948E-09
 -1       837 4.69544E+03 2.57267E+05 1.53933E+04-3.10877E+04-1.90434E-09-5.22959E-10
 -1       838-4.38249E+02 2.52985E+05 1.31071E+04-1.42947E+04-2.79169E-09-5.49051E-10
 -1       839 7.87758E+03 2.59554E+05 2.25780E+04-3.10889E+04-2.29147E-09-8.17408E-11
 -1       840-3.20452E+03 2.48579E+05 3.44906E+04-1.43335E+04-2.44654E-09-7.72616E-10
 -1       841 4.49354E+04 6.52264E+03-5.32487E+02 1.67525E+04-1.34492E-05 5.04503E-06
 -1       842 4.45846E+04 6.10865E+03-3.67263E+02 1.69323E+04-2.68810E-05 1.00961E-05
 -1       843 4.48162E+04 6.34496E+03-1.22764E+02 1.68050E+04-2.12980E-05 7.99769E-06
 -1       844 4.47276E+04 6.31001E+03-7.28115E+01 1.68660E+04-1.56918E-05 5.89813E-06
 -1       845 4.47923E+04 6.32132E+03-1.94304E+01 1.68187E+04-1.10708E-05 4.15661E-06
 -1       846 4.47599E+04 6.33807E+03 5.19699E+00 1.68469E+04-6.45195E-06 2.42099E-06
 -1       847 4.47839E+04 6.31691E+03 3.49377E+01 1.68240E+04-3.98253E-06 1.49238E-06
 -1       848 4.47832E+04 6.36255E+03 9.60414E+01 1.68371E+04-1.51099E-06 5.72756E-07
 -1       849 4.47691E+04 6.29684E+03 1.80223E+02 1.68285E+04-4.38948E-07 1.66074E-07
 -1       850 4.48765E+04 6.51380E+03 4.57329E+02 1.68114E+04 6.31485E-07-2.38181E-07
 -1       851 4.46905E+04 6.16568E+03 7.90241E+02 1.68496E+04 6.86992E-07-2.59407E-07
 -1       852 4.54361E+04 7.47556E+03 2.13412E+03 1.66433E+04 7.45028E-07-2.78902E-07
 -1       853 4.42094E+04 5.33521E+03 3.41296E+03 1.69966E+04-1.58171E-07 6.33170E-08
 -1       854 4.88880E+04 1.35649E+04 1.01203E+04 1.55091E+04-1.06699E-06 3.97169E-07
 -1       855 4.12388E+04 7.73443E+01 1.45670E+04 1.79834E+04-5.32242E-07 1.98523E-07
 -1       856-1.25404E+05 1.89635E+03-1.51028E+04 4.56034E+03-2.50179E-09 1.36606E-09
 -1       857-1.30340E+05-3.64879E+03-9.22457E+03 1.09029E+04-3.71449E-09-6.55518E-10
 -1       858-1.27537E+05 1.74538E+02-3.87762E+03 4.51239E+03-3.77486E-09-8.39009E-10
 -1       859-1.28022E+05-2.58289E+02-2.08657E+03 1.09567E+04-1.52977E-09-1.11186E-09
 -1       860-1.27739E+05 2.65272E+01-9.78923E+02 4.50568E+03 3.53339E-10-6.20503E-10
 -1       861-1.27805E+05 5.54413E-01-5.14856E+02 1.09654E+04-3.37013E-09-2.86946E-10
 -1       862-1.27765E+05 1.20503E+01-2.68537E+02 4.50364E+03 9.91406E-10-7.76936E-10
 -1       863-1.27781E+05 1.98808E+01-1.77380E+02 1.09676E+04 3.51677E-09-2.95054E-09
 -1       864-1.27767E+05 1.08274E+01-1.66436E+02 4.50343E+03-2.55511E-10-3.21970E-09
 -1       865-1.27787E+05 1.21127E+01-2.50627E+02 1.09658E+04 4.61841E-09 3.10990E-10
 -1       866-1.27756E+05 1.61717E+01-4.42004E+02 4.50552E+03-5.32623E-10-2.93578E-09
 -1       867-1.27879E+05-1.02804E+02-9.22193E+02 1.09582E+04 1.86844E-09-1.99952E-09
 -1       868-1.27666E+05 7.96212E+01-1.70610E+03 4.51105E+03 4.33215E-09-3.74428E-10
 -1       869-1.28891E+05-1.59361E+03-4.05170E+03 1.09072E+04-1.95280E-09-2.53317E-09
 -1       870-1.26728E+05 8.33214E+02-6.63353E+03 4.55688E+03 5.91172E-12-9.39508E-10
 -1       871-2.24933E+03-2.01126E+04-5.14427E+03 6.89661E+04 1.92722E-09 1.35969E-10
 -1       872-7.75972E+02-2.11418E+04-1.70733E+03 8.41093E+04-1.47475E-09 5.31372E-10
 -1       873 5.27133E-01-2.07198E+04 1.10880E+03 6.88254E+04 6.11408E-10-4.22233E-10
 -1       874 1.31037E+03-1.96204E+04 4.73983E+03 8.41537E+04-1.33832E-09-1.80881E-09
 -1       875 3.98536E+03-2.16730E+04 1.01971E+04 6.89264E+04 1.24783E-09 1.77715E-09
 -1       876 1.96497E+05 2.81732E+04 1.73723E+04 7.79466E+04-1.72463E-10-1.08230E-10
 -1       877 1.99740E+05 3.77611E+04 1.03247E+04 8.10184E+04-3.79919E-09-3.94698E-09
 -1       878 1.99071E+05 3.03391E+04 4.06429E+03 7.80882E+04 2.26294E-09 3.03999E-10
 -1       879 1.96704E+05 3.38193E+04 2.12253E+03 8.14463E+04 3.19142E-09-1.91994E-09
 -1       880 1.99303E+05 3.05345E+04 9.43532E+02 7.81092E+04 5.75335E-09 2.57012E-09
 -1       881 1.96430E+05 3.35096E+04 4.93280E+02 8.14526E+04 9.05800E-10 4.88650E-09
 -1       882 1.99326E+05 3.05572E+04 2.75561E+02 7.81140E+04 2.21166E-09-4.54128E-09
 -1       883 1.96407E+05 3.34855E+04 2.42442E+02 8.14468E+04-5.21015E-09-1.46377E-09
 -1       884 1.99323E+05 3.05572E+04 3.32398E+02 7.81144E+04-4.71174E-09-2.07700E-09
 -1       885 1.96445E+05 3.35161E+04 6.45934E+02 8.14501E+04 1.77751E-09-7.13953E-10
 -1       886 1.99288E+05 3.05292E+04 1.26326E+03 7.81098E+04-4.31100E-10 1.19144E-10
 -1       887 1.96817E+05 3.39309E+04 2.85689E+03 8.14361E+04-3.56002E-09-9.69067E-10
 -1       888 1.98972E+05 3.02679E+04 5.47660E+03 7.80823E+04-6.91156E-09 1.64982E-09
 -1       889 2.00900E+05 3.92533E+04 1.39163E+04 8.08668E+04 6.91009E-09 1.63982E-09
 -1       890 1.95511E+05 2.73397E+04 2.34166E+04 7.78796E+04-9.82936E-10-6.10999E-09
 -1       891 3.08102E+02-9.31864E+04-3.74102E+03 2.09384E+04 3.28532E-09-1.16233E-09
 -1       892-9.08557E+02-9.43586E+04-2.80196E+03 4.55547E+04 3.11820E-09-2.39112E-09
 -1       893 6.00242E+01-9.36041E+04-2.27952E+03 2.08798E+04 4.60273E-09-1.01909E-09
 -1       894-1.35531E+03-9.46678E+04-3.80174E+03 4.55393E+04 4.18186E-09 2.60115E-09
 -1       895 4.99988E+02-9.28605E+04-5.75457E+03 2.09536E+04 3.63434E-09 5.20686E-10
 -1       926-3.02581E+02-5.87325E+02 1.34971E+03 1.87531E+01 2.02277E-10-6.02142E-10
 -1       927 3.46433E+02 6.80148E+02 9.76583E+02-7.42180E+01-1.46755E-09-8.27299E-10
 -1       928-6.91496E+01-9.28520E+01 3.73310E+02 1.83444E+01-2.15579E-11-3.92902E-10
 -1       929 7.23819E+01 1.11222E+02 2.81676E+02-7.37907E+01 1.04455E-09-4.42675E-10
 -1       930-2.86158E+01-1.84495E+01 1.97650E+02 1.83258E+01-2.71587E-11-2.02097E-10
 -1       931 3.66190E+01 4.76532E+01 2.90567E+02-7.37669E+01-1.64044E-09-1.50738E-10
 -1       932-3.34538E+01-2.92489E+01 4.64209E+02 1.83205E+01-1.90629E-06 7.19922E-11
 -1       933 1.23932E+02 2.05833E+02 9.88451E+02-7.37472E+01-3.80963E-06-3.78577E-11
 -1       934-1.15974E+02-1.76579E+02 1.77097E+03 1.83061E+01-2.62137E-06-1.58138E-10
 -1       935 7.02154E+02 1.31113E+03 4.07250E+03-7.36582E+01-1.43062E-06-6.59384E-12
 -1       936-6.11647E+02-1.13435E+03 7.00258E+03 1.82314E+01-6.76330E-07 3.31966E-11
 -1       937 4.14016E+03 8.38274E+03 1.72844E+04-7.34417E+01 8.00479E-08 2.76486E-10
 -1       938-3.55298E+03-7.24665E+03 2.74974E+04 1.80898E+01 1.31196E-07-3.63798E-11
 -1       939 2.48629E+04 5.33500E+04 7.52441E+04-7.64798E+01 1.73120E-07 1.19144E-10
 -1       940-2.13174E+04-4.60891E+04 1.06317E+05 2.12687E+01 8.51339E-08 5.02041E-10
 -1       956-1.77636E+05-3.27638E+03-7.63386E+03 2.17744E+04-2.27192E-09-2.07820E-10
 -1       957-1.79102E+05-1.06770E+03-3.89112E+03 2.58239E+04-3.50610E-10-2.03136E-09
 -1       958-1.78297E+05-9.86209E+01-1.75230E+03 2.16427E+04 2.03636E-09 3.14458E-10
 -1       959-1.78424E+05-1.13417E+01-8.93142E+02 2.59674E+04-1.25101E-09 1.83377E-09
 -1       960-1.78364E+05 3.17156E+01-4.34059E+02 2.16300E+04-3.67208E-09 5.17957E-10
 -1       961-1.78378E+05 3.40609E+01-2.28044E+02 2.59816E+04-5.88238E-09 1.71667E-10
 -1       962-1.78380E+05 3.16435E+01-1.26596E+02 2.16284E+04-2.25145E-09-7.56017E-10
 -1       963-1.78378E+05 3.66783E+01-9.46072E+01 2.59837E+04-3.99882E-09-1.42995E-09
 -1       964-1.78385E+05 3.36040E+01-1.06299E+02 2.16279E+04-1.44485E-09 6.01631E-10
 -1       965-1.78386E+05 3.89347E+01-1.76611E+02 2.59835E+04 1.87369E-09 1.82968E-09
 -1       966-1.78379E+05 3.74990E+01-3.27624E+02 2.16286E+04-3.74189E-09 3.37650E-10
 -1       967-1.78428E+05 8.75554E+00-6.70560E+02 2.59751E+04-4.70777E-10 2.45655E-09
 -1       968-1.78334E+05-5.68370E+01-1.31322E+03 2.16363E+04 7.36691E-11-3.25940E-10
 -1       969-1.78941E+05-7.80243E+02-2.91650E+03 2.58865E+04 3.88354E-10-9.74069E-10
 -1       970-1.77843E+05-2.43711E+03-5.72088E+03 2.17187E+04 1.71940E-09 1.20326E-09
 -1       971-2.26901E+05 6.43111E+02-9.97059E+03 5.97567E+03-2.52476E-09-2.23736E-10
 -1       972-2.29966E+05-2.07074E+03-5.93580E+03 1.20716E+04-2.86514E-09 9.82254E-11
 -1       973-2.28252E+05 6.90301E+01-2.54313E+03 5.90925E+03-1.50249E-09-1.50885E-09
 -1       974-2.28519E+05-1.15782E+02-1.35304E+03 1.21472E+04 1.34241E-09-1.05285E-09
 -1       975-2.28371E+05 1.83262E+01-6.52962E+02 5.89938E+03 3.79418E-09-2.70200E-09
 -1       976-2.28401E+05 1.38588E+01-3.61819E+02 1.21609E+04 4.40821E-09 1.17592E-09
 -1       977-2.28386E+05 1.37315E+01-2.30115E+02 5.89549E+03 1.05928E-08-1.75066E-09
 -1       978-2.28394E+05 2.28953E+01-2.27717E+02 1.21661E+04 1.93866E-08-4.64462E-09
 -1       979-2.28385E+05 1.59196E+01-3.29468E+02 5.89415E+03 7.73860E-09-3.11888E-09
 -1       980-2.28421E+05 9.39144E+00-6.18122E+02 1.21660E+04 5.70523E-09-2.85152E-09
 -1       981-2.28360E+05 2.91446E+01-1.17655E+03 5.89563E+03 7.62043E-10-2.14628E-09
 -1       982-2.28652E+05-2.23501E+02-2.47682E+03 1.21588E+04 3.40151E-10-1.72113E-09
 -1       983-2.28147E+05 1.27944E+02-4.66929E+03 5.90148E+03 2.80033E-09-1.36674E-09
 -1       984-2.31328E+05-3.81284E+03-1.09150E+04 1.21035E+04-5.90262E-10 7.11452E-10
 -1       985-2.25669E+05 1.19095E+03-1.83327E+04 5.95249E+03 2.45109E-09-1.48793E-09
 -3
    1PSTEP                        11           6           1          
  100CL  106 4.29688E-01         608                     0    6           1
 -4  DISP        4    1
 -5  D1          1    2    1    0
 -5  D2          1    2    2    0
 -5  D3          1    2    3    0
 -5  ALL         1    2    0    0    1ALL
 -1         1 6.89509E-05 0.00000E+00 0.00000E+00
 -1         2 5.65522E-05 0.00000E+00 0.00000E+00
 -1         3 4.13465E-05 0.00000E+00 0.00000E+00
 -1         4 3.72039E-05 0.00000E+00 0.00000E+00
 -1         5 3.51718E-05 0.00000E+00 0.00000E+00
 -1         8 5.52643E-05-6.42577E-07 0.00000E+00
 -1         9 4.04281E-05-3.37040E-07 0.00000E+00
 -1        10 4.21300E-05-1.32711E-06 0.00000E+00
 -1        11 3.82727E-05-2.24345E-07 0.00000E+00
 -1        12 3.44465E-05 5.34261E-07 0.00000E+00
 -1        15 4.04230E-05-6.79083E-07 0.00000E+00
 -1        16 3.31199E-05-4.15807E-07 0.00000E+00
 -1        17 3.12024E-05-2.74165E-06 0.00000E+00
 -1        18 3.14280E-05-4.36389E-07 0.00000E+00
 -1        19 3.24096E-05 1.06218E-06 0.00000E+00
 -1        20 3.27303E-05 1.26580E-05 0.00000E+00
 -1        21 3.26333E-05 2.77273E-05 0.00000E+00
 -1        23 1.18328E-05-4.38023E-05 0.00000E+00
 -1        24 1.17522E-05-3.30720E-06 0.00000E+00
 -1        25 2.92990E-05-2.79770E-07 0.00000E+00
 -1        26 3.00928E-05 1.43051E-06 0.00000E+00
 -1        27 2.91472E-05 1.21370E-05 0.00000E+00
 -1        28 2.83911E-05 2.72609E-05 0.00000E+00
 -1        31 3.41595E-08-3.34962E-06 0.00000E+00
 -1        32 0.00000E+00 0.00000E+00 0.00000E+00
 -1        33 2.74855E-05 1.97701E-06 0.00000E+00
 -1        34 2.64316E-05 1.20888E-05 0.00000E+00
 -1        35 2.50824E-05 2.70548E-05 0.00000E+00
 -1        36 6.81996E-05 9.30041E-21 0.00000E+00
 -1        37 6.74243E-05 1.94735E-20-1.32349E-23
 -1        38 6.66506E-05 1.73361E-20-2.64698E-23
 -1        39 6.58723E-05 2.46343E-19 0.00000E+00
 -1        40 6.50939E-05 3.08596E-19 0.00000E+00
 -1        41 6.43146E-05 9.59498E-20-1.32349E-23
 -1        42 6.35352E-05-9.45893E-20-2.64698E-23
 -1        43 6.27556E-05 2.30962E-19-1.32349E-23
 -1        44 6.19761E-05 4.39672E-19-2.64698E-23
 -1        45 6.11966E-05 1.63974E-19 0.00000E+00
 -1        46 6.04172E-05 2.36578E-20 0.00000E+00
 -1        47 5.96386E-05 1.29159E-19 0.00000E+00
 -1        48 5.88600E-05 2.96668E-19 0.00000E+00
 -1        49 5.80851E-05 4.40601E-19-1.32349E-23
 -1        50 5.73090E-05 3.37975E-19-1.32349E-23
 -1        51 6.79339E-05-1.07520E-07 0.00000E+00
 -1        52 6.62295E-05-2.11710E-07 0.00000E+00
 -1        53 6.39707E-05-3.15721E-07 0.00000E+00
 -1        54 6.12968E-05-4.20787E-07 0.00000E+00
 -1        55 5.83478E-05-5.28100E-07-1.34417E-24
 -1        56 6.75374E-05-8.36070E-07-2.64698E-23
 -1        57 6.62557E-05-2.19843E-06-2.64698E-23
 -1        58 6.50993E-05-3.88485E-06 5.29396E-23
 -1        59 6.39810E-05-5.70425E-06 0.00000E+00
 -1        60 6.28282E-05-7.43171E-06 5.29396E-23
 -1        61 6.15582E-05-8.85141E-06 2.64698E-23
 -1        62 6.01138E-05-9.80603E-06 0.00000E+00
 -1        63 5.84449E-05-1.01624E-05 2.64698E-23
 -1        64 5.65442E-05-9.90193E-06 5.29396E-23
 -1        65 5.44164E-05-9.03682E-06-2.64698E-23
 -1        66 5.21093E-05-7.69544E-06 0.00000E+00
 -1        67 4.96817E-05-6.02945E-06 0.00000E+00
 -1        68 4.72130E-05-4.25369E-06 0.00000E+00
 -1        69 4.47956E-05-2.58422E-06 0.00000E+00
 -1        70 4.24913E-05-1.22507E-06-2.64698E-23
 -1        86 5.56491E-05-5.98921E-08 0.00000E+00
 -1        87 5.30069E-05-1.12741E-07-1.65436E-24
 -1        88 4.93928E-05-1.69065E-07 3.30872E-24
 -1        89 4.55758E-05-2.25516E-07 0.00000E+00
 -1        90 4.23299E-05-2.79584E-07-3.30872E-24
 -1        91 5.57244E-05-2.18598E-07 0.00000E+00
 -1        92 5.48143E-05-2.82287E-07 0.00000E+00
 -1        93 5.38884E-05-2.99417E-07 0.00000E+00
 -1        94 5.29858E-05-3.90623E-07 1.32349E-23
 -1        95 5.20937E-05-5.09456E-07 0.00000E+00
 -1        96 5.11938E-05-6.10122E-07 1.32349E-23
 -1        97 5.02876E-05-6.93725E-07-2.64698E-23
 -1        98 4.93755E-05-7.62319E-07 0.00000E+00
 -1        99 4.84695E-05-8.47057E-07-2.64698E-23
 -1       100 4.75812E-05-9.78487E-07 1.32349E-23
 -1       101 4.66835E-05-1.08456E-06-2.64698E-23
 -1       102 4.57503E-05-1.09383E-06 0.00000E+00
 -1       103 4.48345E-05-1.14937E-06 2.64698E-23
 -1       104 4.39935E-05-1.39061E-06 0.00000E+00
 -1       105 4.31175E-05-1.54389E-06-1.32349E-23
 -1       106 4.10886E-05 4.56863E-19 0.00000E+00
 -1       107 4.08293E-05 1.83224E-18 0.00000E+00
 -1       108 4.05701E-05 2.63089E-18 0.00000E+00
 -1       109 4.03106E-05 1.83228E-18-3.30872E-24
 -1       110 4.00510E-05 2.64417E-19-6.61744E-24
 -1       111 3.97914E-05-1.08423E-18-3.30872E-24
 -1       112 3.95319E-05-1.54758E-18 6.61744E-24
 -1       113 3.92723E-05-2.50721E-19-3.30872E-24
 -1       114 3.90127E-05 1.25852E-18-6.61744E-24
 -1       115 3.87531E-05 1.30813E-18 0.00000E+00
 -1       116 3.84936E-05-1.45745E-19-6.61744E-24
 -1       117 3.82343E-05-2.14205E-18 0.00000E+00
 -1       118 3.79750E-05-3.13617E-18-6.61744E-24
 -1       119 3.77165E-05-1.98787E-18-3.30872E-24
 -1       120 3.74578E-05-5.09923E-19 0.00000E+00
 -1       121 4.15114E-05-2.21086E-07 6.61744E-24
 -1       122 4.18668E-05-4.42142E-07-3.30872E-24
 -1       123 4.22597E-05-6.63225E-07 6.61744E-24
 -1       124 4.25365E-05-8.84342E-07-3.30872E-24
 -1       125 4.25440E-05-1.10542E-06-6.61744E-24
 -1       141 3.70754E-05-2.85765E-19-3.30872E-24
 -1       142 3.69474E-05-9.18351E-19 0.00000E+00
 -1       143 3.68193E-05-1.31390E-18-3.30872E-24
 -1       144 3.66914E-05-1.69367E-18-1.65436E-24
 -1       145 3.65634E-05-1.84628E-18 0.00000E+00
 -1       146 3.64355E-05-1.47303E-18 1.65436E-24
 -1       147 3.63076E-05-1.00968E-18 0.00000E+00
 -1       148 3.61797E-05-4.70890E-19 0.00000E+00
 -1       149 3.60518E-05-2.65533E-19 3.30872E-24
 -1       150 3.59240E-05-5.03298E-19 1.65436E-24
 -1       151 3.57963E-05-9.37872E-19 0.00000E+00
 -1       152 3.56688E-05-1.42640E-18 0.00000E+00
 -1       153 3.55414E-05-1.58760E-18-3.30872E-24
 -1       154 3.54157E-05-1.14800E-18-8.27181E-25
 -1       155 3.52894E-05-4.31779E-19 0.00000E+00
 -1       156 3.78558E-05-3.83255E-08-3.30872E-24
 -1       157 3.98051E-05-7.40831E-08-8.27181E-25
 -1       158 4.18799E-05-1.10375E-07-1.65436E-24
 -1       159 4.29083E-05-1.45037E-07 8.27181E-25
 -1       160 4.20013E-05-1.79593E-07-3.30872E-24
 -1       161 3.71751E-05-3.51562E-07 3.30872E-24
 -1       162 3.73691E-05-1.29847E-06 0.00000E+00
 -1       163 3.75526E-05-2.21737E-06 0.00000E+00
 -1       164 3.74924E-05-2.48510E-06 1.65436E-24
 -1       165 3.71913E-05-2.11087E-06 3.30872E-24
 -1       166 3.66540E-05-1.10806E-06 0.00000E+00
 -1       167 3.61163E-05-1.04056E-07 0.00000E+00
 -1       168 3.58139E-05 2.73760E-07-1.65436E-24
 -1       169 3.57528E-05 8.25944E-09 0.00000E+00
 -1       170 3.59375E-05-9.13533E-07 0.00000E+00
 -1       171 3.61337E-05-1.86574E-06-3.30872E-24
 -1       172 3.61072E-05-2.22218E-06 0.00000E+00
 -1       173 3.58397E-05-1.93615E-06 0.00000E+00
 -1       174 3.53165E-05-9.64331E-07 0.00000E+00
 -1       175 3.47704E-05 6.65916E-08 0.00000E+00
 -1       191 3.51488E-05 8.90191E-08 0.00000E+00
 -1       192 3.50861E-05 1.78099E-07 0.00000E+00
 -1       193 3.49838E-05 2.67190E-07 0.00000E+00
 -1       194 3.48426E-05 3.56271E-07 0.00000E+00
 -1       195 3.46632E-05 4.45320E-07 0.00000E+00
 -1       266 5.27908E-05-6.58087E-07-3.30872E-24
 -1       267 5.03173E-05-6.63017E-07 8.27181E-25
 -1       268 4.78437E-05-6.68633E-07-8.27181E-25
 -1       269 4.53701E-05-6.72249E-07 0.00000E+00
 -1       270 4.28966E-05-6.75826E-07-4.13590E-25
 -1       271 5.32660E-05 1.12458E-06 0.00000E+00
 -1       272 5.14138E-05 2.38227E-06-1.32349E-23
 -1       273 4.97328E-05 3.18871E-06 2.64698E-23
 -1       274 4.81974E-05 3.59014E-06 0.00000E+00
 -1       275 4.67923E-05 3.64259E-06 0.00000E+00
 -1       276 4.54952E-05 3.40453E-06 1.32349E-23
 -1       277 4.42832E-05 2.93860E-06 0.00000E+00
 -1       278 4.31321E-05 2.31020E-06 1.32349E-23
 -1       279 4.20164E-05 1.58682E-06 0.00000E+00
 -1       280 4.09108E-05 8.37255E-07 1.32349E-23
 -1       281 3.97893E-05 1.30511E-07 0.00000E+00
 -1       282 3.86269E-05-4.64770E-07-1.32349E-23
 -1       283 3.73983E-05-8.81658E-07 2.64698E-23
 -1       284 3.60834E-05-1.05383E-06-1.32349E-23
 -1       285 3.46532E-05-9.21876E-07 0.00000E+00
 -1       286 4.05212E-05 5.62956E-07 0.00000E+00
 -1       287 4.06281E-05 8.74325E-07 0.00000E+00
 -1       288 4.07342E-05 8.29296E-07-1.65436E-24
 -1       289 4.08428E-05 6.58203E-07 0.00000E+00
 -1       290 4.09515E-05 4.10958E-07 0.00000E+00
 -1       291 4.10607E-05 1.37092E-07 0.00000E+00
 -1       292 4.11699E-05-1.52483E-07 0.00000E+00
 -1       293 4.12792E-05-4.46944E-07 1.65436E-24
 -1       294 4.13886E-05-7.42555E-07 3.30872E-24
 -1       295 4.14978E-05-1.03559E-06-1.65436E-24
 -1       296 4.16070E-05-1.31859E-06-3.30872E-24
 -1       297 4.17156E-05-1.58403E-06 0.00000E+00
 -1       298 4.18242E-05-1.79892E-06 1.65436E-24
 -1       299 4.19302E-05-1.93002E-06-4.13590E-25
 -1       300 4.20371E-05-1.82421E-06 0.00000E+00
 -1       301 3.92067E-05-3.53821E-07 0.00000E+00
 -1       302 3.79757E-05-3.61364E-07-1.65436E-24
 -1       303 3.67433E-05-3.67941E-07 6.61744E-24
 -1       304 3.55177E-05-3.75571E-07 0.00000E+00
 -1       305 3.43072E-05-3.86200E-07-6.61744E-24
 -1       306 3.95414E-05 3.79418E-07 0.00000E+00
 -1       307 3.88222E-05 6.07242E-07 0.00000E+00
 -1       308 3.82569E-05 4.26280E-07 0.00000E+00
 -1       309 3.78138E-05-8.71167E-08 0.00000E+00
 -1       310 3.74651E-05-8.53091E-07 0.00000E+00
 -1       311 3.71803E-05-1.79096E-06 0.00000E+00
 -1       312 3.69291E-05-2.81885E-06-1.32349E-23
 -1       313 3.66807E-05-3.85449E-06-6.61744E-24
 -1       314 3.64044E-05-4.81547E-06 0.00000E+00
 -1       315 3.60696E-05-5.61985E-06 6.61744E-24
 -1       316 3.56460E-05-6.18671E-06 0.00000E+00
 -1       317 3.51040E-05-6.43640E-06 0.00000E+00
 -1       318 3.44142E-05-6.29137E-06 0.00000E+00
 -1       319 3.35506E-05-5.67552E-06 0.00000E+00
 -1       320 3.24825E-05-4.51753E-06-1.32349E-23
 -1       321 4.18925E-05 5.87368E-07 0.00000E+00
 -1       322 4.16478E-05 4.92338E-06 0.00000E+00
 -1       323 4.14068E-05 7.98283E-06 6.61744E-24
 -1       324 4.11684E-05 6.08156E-06 0.00000E+00
 -1       325 4.09236E-05 1.66988E-06-6.61744E-24
 -1       326 4.06786E-05-2.77483E-06-3.30872E-24
 -1       327 4.04402E-05-4.73438E-06 0.00000E+00
 -1       328 4.01993E-05-1.71721E-06 0.00000E+00
 -1       329 3.99545E-05 2.61383E-06 0.00000E+00
 -1       330 3.97170E-05 4.58190E-06 0.00000E+00
 -1       331 3.94802E-05 3.43400E-06 6.61744E-24
 -1       332 3.92324E-05-1.54930E-06 0.00000E+00
 -1       333 3.89854E-05-6.34242E-06 0.00000E+00
 -1       334 3.87499E-05-6.92165E-06 3.30872E-24
 -1       335 3.85122E-05-4.47532E-06-6.61744E-24
 -1       336 4.11548E-05-1.56285E-06-6.61744E-24
 -1       337 3.97065E-05-1.79905E-06 3.30872E-24
 -1       338 3.78854E-05-2.03573E-06 6.61744E-24
 -1       339 3.57927E-05-2.27219E-06-3.30872E-24
 -1       340 3.35309E-05-2.50911E-06 6.61744E-24
 -1       356 3.80336E-05 3.91346E-06 0.00000E+00
 -1       357 3.77966E-05 6.02157E-06 0.00000E+00
 -1       358 3.75612E-05 5.16601E-06 6.61744E-24
 -1       359 3.73146E-05 4.44794E-07 0.00000E+00
 -1       360 3.70681E-05-4.26252E-06-6.61744E-24
 -1       361 3.68317E-05-5.07666E-06 3.30872E-24
 -1       362 3.65940E-05-2.93478E-06 6.61744E-24
 -1       363 3.63502E-05 1.19413E-06-3.30872E-24
 -1       364 3.61103E-05 3.88221E-06 0.00000E+00
 -1       365 3.58718E-05 1.71699E-06-3.30872E-24
 -1       366 3.56271E-05-2.71183E-06 0.00000E+00
 -1       367 3.53844E-05-6.79028E-06 0.00000E+00
 -1       368 3.51476E-05-8.33646E-06-6.61744E-24
 -1       369 3.49097E-05-5.19588E-06 3.30872E-24
 -1       370 3.46681E-05-1.01868E-06-1.65436E-24
 -1       371 3.40694E-05-2.70669E-07 0.00000E+00
 -1       372 3.17406E-05-3.06904E-07 8.27181E-25
 -1       373 3.08547E-05-3.41048E-07 0.00000E+00
 -1       374 3.09783E-05-3.73595E-07-4.13590E-25
 -1       375 3.14050E-05-4.06299E-07 0.00000E+00
 -1       406 3.41849E-05 6.22714E-07 0.00000E+00
 -1       407 3.38891E-05 7.11201E-07 1.65436E-24
 -1       408 3.35612E-05 7.99635E-07-3.30872E-24
 -1       409 3.32037E-05 8.87877E-07 1.65436E-24
 -1       410 3.28189E-05 9.75717E-07 0.00000E+00
 -1       501 3.30197E-05 3.39197E-06 6.61744E-24
 -1       502 3.29017E-05 1.24870E-05 0.00000E+00
 -1       503 3.27717E-05 2.28477E-05-3.30872E-24
 -1       504 3.26685E-05 3.04495E-05 0.00000E+00
 -1       505 3.25881E-05 3.27769E-05 0.00000E+00
 -1       506 3.24966E-05 2.73329E-05 1.65436E-24
 -1       507 3.23574E-05 1.57897E-05 0.00000E+00
 -1       508 3.21599E-05-1.59626E-07 0.00000E+00
 -1       509 3.19583E-05-1.63967E-05-1.65436E-24
 -1       510 3.18095E-05-2.88019E-05 8.27181E-25
 -1       511 3.17117E-05-3.53708E-05 0.00000E+00
 -1       512 3.16338E-05-3.41184E-05-8.27181E-25
 -1       513 3.15363E-05-2.72538E-05 0.00000E+00
 -1       514 3.14105E-05-1.70056E-05 0.00000E+00
 -1       515 3.12911E-05-7.47018E-06 3.30872E-24
 -1       521 3.15804E-05 4.64291E-08 0.00000E+00
 -1       522 3.01679E-05 6.83915E-08 0.00000E+00
 -1       523 2.88922E-05-2.71400E-07 2.64698E-23
 -1       524 2.77208E-05-9.04459E-07 0.00000E+00
 -1       525 2.66302E-05-1.75468E-06 2.64698E-23
 -1       526 2.55910E-05-2.74479E-06 1.32349E-23
 -1       527 2.45742E-05-3.79533E-06 2.64698E-23
 -1       528 2.35499E-05-4.82632E-06 0.00000E+00
 -1       529 2.24884E-05-5.75792E-06 0.00000E+00
 -1       530 2.13604E-05-6.51165E-06 1.32349E-23
 -1       531 2.01375E-05-7.01143E-06 0.00000E+00
 -1       532 1.87929E-05-7.18431E-06 1.32349E-23
 -1       533 1.73004E-05-6.96198E-06 0.00000E+00
 -1       534 1.56408E-05-6.27967E-06-1.32349E-23
 -1       535 1.37861E-05-5.08240E-06 0.00000E+00
 -1       536 3.12082E-05-6.96545E-07 0.00000E+00
 -1       537 3.12209E-05 8.54575E-07 8.27181E-25
 -1       538 3.12340E-05 1.96321E-06 0.00000E+00
 -1       539 3.12483E-05 2.68112E-06-7.75482E-26
 -1       540 3.12630E-05 3.05986E-06-3.10193E-25
 -1       541 3.12779E-05 3.15101E-06 0.00000E+00
 -1       542 3.12928E-05 3.00608E-06-2.06795E-25
 -1       543 3.13078E-05 2.67653E-06 0.00000E+00
 -1       544 3.13227E-05 2.21379E-06 4.13590E-25
 -1       545 3.13376E-05 1.66929E-06-2.06795E-25
 -1       546 3.13525E-05 1.09442E-06 4.13590E-25
 -1       547 3.13674E-05 5.40582E-07 0.00000E+00
 -1       548 3.13823E-05 5.91677E-08 0.00000E+00
 -1       549 3.13974E-05-2.98416E-07 0.00000E+00
 -1       550 3.14125E-05-4.80712E-07 8.27181E-25
 -1       551 2.83135E-05-2.83187E-06 2.48154E-24
 -1       552 2.50738E-05-2.92144E-06-1.44757E-24
 -1       553 2.16392E-05-3.01180E-06-3.30872E-24
 -1       554 1.81686E-05-3.10379E-06 3.30872E-24
 -1       555 1.48207E-05-3.19810E-06-1.32349E-23
 -1       556 3.03990E-05-7.80766E-07 6.61744E-24
 -1       557 2.97713E-05 7.24168E-07 0.00000E+00
 -1       558 2.92997E-05 1.81597E-06 6.61744E-24
 -1       559 2.89664E-05 2.54125E-06 0.00000E+00
 -1       560 2.87534E-05 2.94659E-06 0.00000E+00
 -1       561 2.86430E-05 3.07889E-06 0.00000E+00
 -1       562 2.86175E-05 2.98507E-06 0.00000E+00
 -1       563 2.86591E-05 2.71211E-06 0.00000E+00
 -1       564 2.87503E-05 2.30703E-06 0.00000E+00
 -1       565 2.88734E-05 1.81681E-06 0.00000E+00
 -1       566 2.90108E-05 1.28851E-06 1.65436E-24
 -1       567 2.91449E-05 7.69156E-07 0.00000E+00
 -1       568 2.92580E-05 3.05768E-07-1.44757E-24
 -1       569 2.93328E-05-5.46775E-08-4.13590E-25
 -1       570 2.93517E-05-2.65228E-07 0.00000E+00
 -1       571 3.14873E-05-3.15011E-07-4.13590E-25
 -1       572 3.15481E-05-2.32935E-07-2.06795E-25
 -1       573 3.16094E-05-1.82875E-07 8.27181E-25
 -1       574 3.16709E-05-1.57178E-07-8.27181E-25
 -1       575 3.17324E-05-1.48159E-07 0.00000E+00
 -1       576 3.17940E-05-1.48083E-07 8.27181E-25
 -1       577 3.18557E-05-1.49214E-07 0.00000E+00
 -1       578 3.19173E-05-1.43806E-07 0.00000E+00
 -1       579 3.19789E-05-1.24115E-07 0.00000E+00
 -1       580 3.20405E-05-8.23967E-08 0.00000E+00
 -1       581 3.21021E-05-1.09064E-08 0.00000E+00
 -1       582 3.21638E-05 9.80921E-08 0.00000E+00
 -1       583 3.22254E-05 2.52327E-07-3.30872E-24
 -1       584 3.22869E-05 4.59449E-07 0.00000E+00
 -1       585 3.23484E-05 7.27062E-07 0.00000E+00
 -1       586 3.11204E-05-4.09669E-07 0.00000E+00
 -1       587 3.07649E-05-3.82939E-07 0.00000E+00
 -1       588 3.03829E-05-3.56279E-07 0.00000E+00
 -1       589 2.99967E-05-3.29854E-07 5.16988E-26
 -1       590 2.96281E-05-3.03913E-07 0.00000E+00
 -1       591 3.13374E-05-2.91799E-07 0.00000E+00
 -1       592 3.12542E-05-1.74957E-07 4.13590E-25
 -1       593 3.11787E-05-8.01845E-08-8.27181E-25
 -1       594 3.11094E-05-2.44437E-09 0.00000E+00
 -1       595 3.10444E-05 6.33239E-08 0.00000E+00
 -1       596 3.09820E-05 1.22138E-07 0.00000E+00
 -1       597 3.09203E-05 1.79011E-07 8.27181E-25
 -1       598 3.08574E-05 2.38950E-07 0.00000E+00
 -1       599 3.07915E-05 3.06961E-07 8.27181E-25
 -1       600 3.07207E-05 3.88051E-07 4.13590E-25
 -1       601 3.06432E-05 4.87225E-07-8.27181E-25
 -1       602 3.05570E-05 6.09494E-07-2.06795E-25
 -1       603 3.04604E-05 7.59871E-07 8.27181E-25
 -1       604 3.03516E-05 9.43399E-07-1.55096E-25
 -1       605 3.02290E-05 1.16511E-06 0.00000E+00
 -1       606 3.24319E-05 1.51408E-06-3.30872E-24
 -1       607 3.24527E-05 2.01886E-06 0.00000E+00
 -1       608 3.24730E-05 2.57339E-06 0.00000E+00
 -1       609 3.24931E-05 3.17408E-06 0.00000E+00
 -1       610 3.25130E-05 3.81735E-06 1.65436E-24
 -1       611 3.25330E-05 4.49955E-06 0.00000E+00
 -1       612 3.25528E-05 5.21703E-06 0.00000E+00
 -1       613 3.25727E-05 5.96612E-06 0.00000E+00
 -1       614 3.25925E-05 6.74318E-06 0.00000E+00
 -1       615 3.26123E-05 7.54452E-06 0.00000E+00
 -1       616 3.26321E-05 8.36651E-06 0.00000E+00
 -1       617 3.26519E-05 9.20548E-06-4.13590E-25
 -1       618 3.26716E-05 1.00578E-05 8.27181E-25
 -1       619 3.26913E-05 1.09197E-05-4.13590E-25
 -1       620 3.27110E-05 1.17877E-05 8.27181E-25
 -1       621 3.19908E-05 1.12389E-06-1.65436E-24
 -1       622 3.15782E-05 1.18581E-06 8.27181E-25
 -1       623 3.11768E-05 1.24771E-06 0.00000E+00
 -1       624 3.07921E-05 1.30944E-06 0.00000E+00
 -1       625 3.04290E-05 1.37087E-06-8.27181E-25
 -1       626 3.22861E-05 1.54225E-06 0.00000E+00
 -1       627 3.21415E-05 2.07760E-06-3.30872E-24
 -1       628 3.19780E-05 2.66294E-06 0.00000E+00
 -1       629 3.17978E-05 3.29244E-06 3.30872E-24
 -1       630 3.16033E-05 3.96023E-06-3.30872E-24
 -1       631 3.13966E-05 4.66040E-06 0.00000E+00
 -1       632 3.11800E-05 5.38701E-06-1.65436E-24
 -1       633 3.09557E-05 6.13414E-06-8.27181E-25
 -1       634 3.07259E-05 6.89584E-06 0.00000E+00
 -1       635 3.04928E-05 7.66618E-06 8.27181E-25
 -1       636 3.02587E-05 8.43923E-06-1.65436E-24
 -1       637 3.00258E-05 9.20905E-06 4.13590E-25
 -1       638 2.97962E-05 9.96970E-06-1.65436E-24
 -1       639 2.95721E-05 1.07152E-05-6.20385E-25
 -1       640 2.93555E-05 1.14397E-05-4.13590E-25
 -1       641 3.27255E-05 1.35344E-05 0.00000E+00
 -1       642 3.27198E-05 1.44546E-05 0.00000E+00
 -1       643 3.27142E-05 1.54120E-05-1.03398E-25
 -1       644 3.27083E-05 1.64003E-05 5.16988E-26
 -1       645 3.27025E-05 1.74114E-05 1.03398E-25
 -1       646 3.26966E-05 1.84376E-05 0.00000E+00
 -1       647 3.26907E-05 1.94700E-05 0.00000E+00
 -1       648 3.26847E-05 2.05001E-05 0.00000E+00
 -1       649 3.26788E-05 2.15193E-05 0.00000E+00
 -1       650 3.26729E-05 2.25191E-05 0.00000E+00
 -1       651 3.26669E-05 2.34919E-05 0.00000E+00
 -1       652 3.26610E-05 2.44302E-05 0.00000E+00
 -1       653 3.26550E-05 2.53278E-05 0.00000E+00
 -1       654 3.26485E-05 2.61790E-05 4.13590E-25
 -1       655 3.26423E-05 2.69801E-05 0.00000E+00
 -1       656 3.19651E-05 1.25738E-05 1.65436E-24
 -1       657 3.13304E-05 1.24855E-05-8.27181E-25
 -1       658 3.07787E-05 1.23974E-05 1.65436E-24
 -1       659 3.02627E-05 1.23094E-05 0.00000E+00
 -1       660 2.97347E-05 1.22211E-05 0.00000E+00
 -1       661 3.24635E-05 1.35534E-05 0.00000E+00
 -1       662 3.21880E-05 1.44780E-05 8.27181E-25
 -1       663 3.19039E-05 1.54256E-05 0.00000E+00
 -1       664 3.16137E-05 1.63905E-05 0.00000E+00
 -1       665 3.13191E-05 1.73670E-05 0.00000E+00
 -1       666 3.10223E-05 1.83495E-05 8.27181E-25
 -1       667 3.07253E-05 1.93324E-05 0.00000E+00
 -1       668 3.04304E-05 2.03099E-05-8.27181E-25
 -1       669 3.01396E-05 2.12766E-05 0.00000E+00
 -1       670 2.98550E-05 2.22267E-05 0.00000E+00
 -1       671 2.95787E-05 2.31546E-05-1.65436E-24
 -1       672 2.93128E-05 2.40546E-05 0.00000E+00
 -1       673 2.90594E-05 2.49211E-05-1.65436E-24
 -1       674 2.88203E-05 2.57482E-05 0.00000E+00
 -1       675 2.85980E-05 2.65305E-05 0.00000E+00
 -1       676 3.19129E-05 2.76490E-05-1.65436E-24
 -1       677 3.11949E-05 2.75706E-05 0.00000E+00
 -1       678 3.04814E-05 2.74924E-05 1.65436E-24
 -1       679 2.97747E-05 2.74144E-05 0.00000E+00
 -1       680 2.90772E-05 2.73365E-05 0.00000E+00
 -1       716 1.18297E-05-4.12714E-05-4.03897E-28
 -1       717 1.18267E-05-3.87404E-05 0.00000E+00
 -1       718 1.18236E-05-3.62095E-05 1.61559E-27
 -1       719 1.18205E-05-3.36785E-05-1.61559E-27
 -1       720 1.18174E-05-3.11476E-05 0.00000E+00
 -1       721 1.18143E-05-2.86166E-05 0.00000E+00
 -1       722 1.18112E-05-2.60857E-05 0.00000E+00
 -1       723 1.18081E-05-2.35547E-05 2.58494E-26
 -1       724 1.18050E-05-2.10238E-05 0.00000E+00
 -1       725 1.18017E-05-1.84928E-05 1.03398E-25
 -1       726 1.17983E-05-1.59619E-05-4.13590E-25
 -1       727 1.17942E-05-1.34309E-05 4.13590E-25
 -1       728 1.17901E-05-1.09000E-05 0.00000E+00
 -1       729 1.17826E-05-8.36903E-06 1.65436E-24
 -1       730 1.17762E-05-5.83808E-06 0.00000E+00
 -1       766 9.30910E-06-3.33100E-06-6.61744E-24
 -1       767 7.04174E-06-3.33678E-06 0.00000E+00
 -1       768 4.96541E-06-3.34328E-06 1.65436E-24
 -1       769 3.09550E-06-3.34605E-06-4.13590E-25
 -1       770 1.44683E-06-3.34830E-06 0.00000E+00
 -1       771 1.03384E-05-1.27541E-06 0.00000E+00
 -1       772 9.07340E-06 3.43421E-07 1.32349E-23
 -1       773 7.94972E-06 1.58439E-06 0.00000E+00
 -1       774 6.95402E-06 2.48357E-06 0.00000E+00
 -1       775 6.07303E-06 3.07718E-06 2.64698E-23
 -1       776 5.29302E-06 3.40181E-06 0.00000E+00
 -1       777 4.60019E-06 3.49418E-06 0.00000E+00
 -1       778 3.98067E-06 3.39121E-06 0.00000E+00
 -1       779 3.42054E-06 3.12993E-06 0.00000E+00
 -1       780 2.90585E-06 2.74750E-06 0.00000E+00
 -1       781 2.42265E-06 2.28118E-06 0.00000E+00
 -1       782 1.95703E-06 1.76831E-06-6.61744E-24
 -1       783 1.49506E-06 1.24624E-06 1.32349E-23
 -1       784 1.02319E-06 7.52411E-07-6.61744E-24
 -1       785 5.27732E-07 3.24225E-07 1.32349E-23
 -1       786 2.93458E-05-9.76831E-08 0.00000E+00
 -1       787 2.93953E-05 4.14409E-08 0.00000E+00
 -1       788 2.94447E-05 1.44678E-07 0.00000E+00
 -1       789 2.94946E-05 2.19108E-07 0.00000E+00
 -1       790 2.95445E-05 2.71787E-07 0.00000E+00
 -1       791 2.95945E-05 3.09764E-07-8.27181E-25
 -1       792 2.96445E-05 3.40078E-07 0.00000E+00
 -1       793 2.96946E-05 3.69764E-07 0.00000E+00
 -1       794 2.97446E-05 4.05856E-07 0.00000E+00
 -1       795 2.97946E-05 4.55393E-07 0.00000E+00
 -1       796 2.98447E-05 5.25419E-07 0.00000E+00
 -1       797 2.98947E-05 6.22994E-07 0.00000E+00
 -1       798 2.99446E-05 7.55188E-07 0.00000E+00
 -1       799 2.99944E-05 9.29092E-07 0.00000E+00
 -1       800 3.00442E-05 1.15183E-06 0.00000E+00
 -1       801 2.68843E-05-2.21001E-07-3.30872E-24
 -1       802 2.14464E-05-1.69708E-07 0.00000E+00
 -1       803 1.45116E-05-1.26773E-07 0.00000E+00
 -1       804 7.60744E-06-8.65176E-08 0.00000E+00
 -1       805 2.26137E-06-3.76187E-08-6.61744E-24
 -1       806 2.91812E-05-1.20542E-07 0.00000E+00
 -1       807 2.90698E-05 1.64988E-08-8.27181E-25
 -1       808 2.89647E-05 1.35763E-07 1.65436E-24
 -1       809 2.88644E-05 2.41470E-07-8.27181E-25
 -1       810 2.87675E-05 3.37825E-07-1.65436E-24
 -1       811 2.86725E-05 4.29021E-07-8.27181E-25
 -1       812 2.85779E-05 5.19242E-07 0.00000E+00
 -1       813 2.84821E-05 6.12671E-07 0.00000E+00
 -1       814 2.83835E-05 7.13495E-07 8.27181E-25
 -1       815 2.82805E-05 8.25894E-07 0.00000E+00
 -1       816 2.81716E-05 9.54049E-07-1.65436E-24
 -1       817 2.80553E-05 1.10214E-06-8.27181E-25
 -1       818 2.79300E-05 1.27435E-06 4.13590E-25
 -1       819 2.77941E-05 1.47482E-06-4.13590E-25
 -1       820 2.76463E-05 1.70772E-06 8.27181E-25
 -1       821 3.00372E-05 1.78616E-06 4.13590E-25
 -1       822 2.99782E-05 2.22539E-06-8.27181E-25
 -1       823 2.99192E-05 2.73941E-06-1.65436E-24
 -1       824 2.98597E-05 3.31929E-06 0.00000E+00
 -1       825 2.98001E-05 3.95613E-06 1.65436E-24
 -1       826 2.97404E-05 4.64094E-06 0.00000E+00
 -1       827 2.96806E-05 5.36469E-06-1.65436E-24
 -1       828 2.96207E-05 6.11838E-06-8.27181E-25
 -1       829 2.95609E-05 6.89293E-06 1.65436E-24
 -1       830 2.95010E-05 7.67927E-06 0.00000E+00
 -1       831 2.94412E-05 8.46834E-06-1.65436E-24
 -1       832 2.93815E-05 9.25104E-06 8.27181E-25
 -1       833 2.93218E-05 1.00183E-05-1.65436E-24
 -1       834 2.92627E-05 1.07611E-05 0.00000E+00
 -1       835 2.92034E-05 1.14703E-05 0.00000E+00
 -1       836 2.97205E-05 1.52035E-06 1.65436E-24
 -1       837 2.92784E-05 1.61311E-06 0.00000E+00
 -1       838 2.88002E-05 1.70574E-06 1.65436E-24
 -1       839 2.83195E-05 1.79804E-06 0.00000E+00
 -1       840 2.78701E-05 1.89031E-06-8.27181E-25
 -1       841 2.99736E-05 1.80572E-06-8.27181E-25
 -1       842 2.98108E-05 2.29708E-06-4.13590E-25
 -1       843 2.96148E-05 2.87685E-06 0.00000E+00
 -1       844 2.93959E-05 3.51731E-06 0.00000E+00
 -1       845 2.91599E-05 4.20335E-06 4.13590E-25
 -1       846 2.89125E-05 4.91992E-06 0.00000E+00
 -1       847 2.86568E-05 5.65822E-06 0.00000E+00
 -1       848 2.83963E-05 6.40951E-06 0.00000E+00
 -1       849 2.81332E-05 7.16761E-06 0.00000E+00
 -1       850 2.78699E-05 7.92636E-06 2.06795E-25
 -1       851 2.76085E-05 8.67983E-06 0.00000E+00
 -1       852 2.73513E-05 9.42204E-06 0.00000E+00
 -1       853 2.71014E-05 1.01448E-05 0.00000E+00
 -1       854 2.68614E-05 1.08395E-05 5.16988E-26
 -1       855 2.66373E-05 1.14926E-05-4.13590E-25
 -1       856 2.91029E-05 1.28350E-05 4.13590E-25
 -1       857 2.90559E-05 1.36270E-05 0.00000E+00
 -1       858 2.90088E-05 1.45001E-05-1.65436E-24
 -1       859 2.89614E-05 1.54412E-05 0.00000E+00
 -1       860 2.89138E-05 1.64372E-05 1.65436E-24
 -1       861 2.88661E-05 1.74749E-05 0.00000E+00
 -1       862 2.88183E-05 1.85413E-05-1.65436E-24
 -1       863 2.87705E-05 1.96231E-05 0.00000E+00
 -1       864 2.87227E-05 2.07074E-05 1.65436E-24
 -1       865 2.86749E-05 2.17808E-05 0.00000E+00
 -1       866 2.86272E-05 2.28304E-05 1.65436E-24
 -1       867 2.85795E-05 2.38430E-05 0.00000E+00
 -1       868 2.85319E-05 2.48054E-05 0.00000E+00
 -1       869 2.84845E-05 2.57046E-05-8.27181E-25
 -1       870 2.84372E-05 2.65274E-05 0.00000E+00
 -1       871 2.86150E-05 1.21304E-05 0.00000E+00
 -1       872 2.81518E-05 1.21229E-05 0.00000E+00
 -1       873 2.77300E-05 1.21152E-05 0.00000E+00
 -1       874 2.73215E-05 1.21072E-05-1.03398E-25
 -1       875 2.68980E-05 1.20988E-05-4.13590E-25
 -1       876 2.89719E-05 1.28511E-05 0.00000E+00
 -1       877 2.87729E-05 1.36375E-05 0.00000E+00
 -1       878 2.85506E-05 1.44859E-05 0.00000E+00
 -1       879 2.83088E-05 1.53876E-05-1.65436E-24
 -1       880 2.80505E-05 1.63332E-05-3.30872E-24
 -1       881 2.77792E-05 1.73137E-05 0.00000E+00
 -1       882 2.74981E-05 1.83202E-05 0.00000E+00
 -1       883 2.72108E-05 1.93435E-05 0.00000E+00
 -1       884 2.69204E-05 2.03747E-05 3.30872E-24
 -1       885 2.66305E-05 2.14048E-05 0.00000E+00
 -1       886 2.63443E-05 2.24248E-05 0.00000E+00
 -1       887 2.60652E-05 2.34255E-05 1.65436E-24
 -1       888 2.57967E-05 2.43982E-05 0.00000E+00
 -1       889 2.55415E-05 2.53335E-05 0.00000E+00
 -1       890 2.53037E-05 2.62225E-05-8.27181E-25
 -1       891 2.77942E-05 2.72268E-05-8.27181E-25
 -1       892 2.72815E-05 2.71922E-05 4.13590E-25
 -1       893 2.68034E-05 2.71576E-05 0.00000E+00
 -1       894 2.63105E-05 2.71231E-05 4.13590E-25
 -1       895 2.57533E-05 2.70885E-05-4.13590E-25
 -1       926 3.32151E-08-2.16974E-06 1.03398E-25
 -1       927 3.27328E-08-1.21920E-06 0.00000E+00
 -1       928 3.24049E-08-4.76606E-07 0.00000E+00
 -1       929 3.22348E-08 7.94678E-08 0.00000E+00
 -1       930 3.21393E-08 4.70434E-07 0.00000E+00
 -1       931 3.20891E-08 7.17707E-07-6.46235E-27
 -1       932 3.20532E-08 8.42716E-07 2.58494E-26
 -1       933 3.19945E-08 8.66886E-07 0.00000E+00
 -1       934 3.19048E-08 8.11645E-07 0.00000E+00
 -1       935 3.16662E-08 6.98422E-07 0.00000E+00
 -1       936 3.13386E-08 5.48651E-07-4.13590E-25
 -1       937 3.03224E-08 3.83762E-07 0.00000E+00
 -1       938 2.92106E-08 2.25160E-07 0.00000E+00
 -1       939 2.46801E-08 9.42529E-08 0.00000E+00
 -1       940 2.13066E-08 1.21564E-08 0.00000E+00
 -1       956 2.74211E-05 2.35933E-06 8.27181E-25
 -1       957 2.73555E-05 2.81136E-06-4.13590E-25
 -1       958 2.72897E-05 3.32571E-06 0.00000E+00
 -1       959 2.72237E-05 3.89453E-06 0.00000E+00
 -1       960 2.71576E-05 4.50994E-06-8.27181E-25
 -1       961 2.70915E-05 5.16402E-06 0.00000E+00
 -1       962 2.70253E-05 5.84886E-06 0.00000E+00
 -1       963 2.69591E-05 6.55652E-06 0.00000E+00
 -1       964 2.68930E-05 7.27909E-06 0.00000E+00
 -1       965 2.68268E-05 8.00861E-06 0.00000E+00
 -1       966 2.67606E-05 8.73719E-06 1.65436E-24
 -1       967 2.66944E-05 9.45687E-06-8.27181E-25
 -1       968 2.66283E-05 1.01597E-05-3.30872E-24
 -1       969 2.65623E-05 1.08379E-05 1.65436E-24
 -1       970 2.64965E-05 1.14834E-05 0.00000E+00
 -1       971 2.63491E-05 1.27114E-05 1.65436E-24
 -1       972 2.62648E-05 1.34331E-05 0.00000E+00
 -1       973 2.61804E-05 1.42418E-05-1.65436E-24
 -1       974 2.60957E-05 1.51252E-05-1.65436E-24
 -1       975 2.60109E-05 1.60711E-05 0.00000E+00
 -1       976 2.59260E-05 1.70670E-05-1.65436E-24
 -1       977 2.58410E-05 1.81006E-05 0.00000E+00
 -1       978 2.57561E-05 1.91594E-05-1.65436E-24
 -1       979 2.56711E-05 2.02312E-05 3.30872E-24
 -1       980 2.55861E-05 2.13035E-05 0.00000E+00
 -1       981 2.55012E-05 2.23639E-05 3.30872E-24
 -1       982 2.54164E-05 2.34001E-05 1.65436E-24
 -1       983 2.53317E-05 2.43996E-05 0.00000E+00
 -1       984 2.52474E-05 2.53501E-05 0.00000E+00
 -1       985 2.51633E-05 2.62392E-05 0.00000E+00
 -3
    1PSTEP                        12           6           1          
  100CL  106 4.29688E-01         608                     0    6           1
 -4  STRESS      6    1
 -5  SXX         1    4    1    1
 -5  SYY         1    4    2    2
 -5  SZZ         1    4    3    3
 -5  SXY         1    4    1    2
 -5  SYZ         1    4    2    3
 -5  SZX         1    4    3    1
 -1         1-2.13903E+06-7.33062E+05-4.68879E+05-6.68857E+05-8.53712E-10 3.78350E-09
 -1         2-1.41313E+06-3.64691E+05-1.83093E+05-2.34598E+05 3.41970E-10-1.91358E-08
 -1         3-3.72258E+05-3.29327E+05-1.27977E+04 4.14448E+04 3.17641E-09-3.32793E-09
 -1         4-3.47569E+05-5.24464E+04 5.80727E+02-3.23594E+04-2.85163E-10-6.10165E-10
 -1         5-1.93306E+05 4.77447E+04-7.92318E+04-1.86508E+03 1.28084E-08 1.71158E-09
 -1         8-9.57322E+05-4.42737E+05-1.30305E+05-5.88367E+05 2.69210E-10 1.02834E-09
 -1         9-9.98920E+05-3.49837E+05-1.41834E+05-3.47376E+05 1.35551E-09-2.43163E-09
 -1        10-4.95949E+05-3.45833E+05-3.51637E+04-1.21609E+05 3.54021E-09-2.42048E-08
 -1        11-3.02009E+05-7.60096E+04 1.07343E+03 7.14698E+03-8.42306E-10 3.25802E-10
 -1        12-2.72829E+05 1.81273E+04-1.00561E+05-2.30298E+04 1.97681E-08 9.88861E-10
 -1        15 1.63653E+03 8.84982E+02 5.07900E+03 1.78464E+00-4.02878E-11 5.88236E-09
 -1        16-1.54807E+06-4.12276E+05-1.40640E+05-5.08689E+05 2.77225E-10 7.78527E-10
 -1        17-2.76626E+05-2.21629E+05-2.74753E+04-1.94292E+05-1.01621E-09 1.04531E-09
 -1        18 1.79230E+04-1.28176E+04-1.34466E+04-4.50442E+04-1.29694E-10-5.23141E-10
 -1        19 7.25923E+04 8.85580E+04-9.27727E+01 2.36546E+03-9.09495E-13-1.09576E-09
 -1        20 3.18832E+04-5.43452E+04-1.27335E+04 2.54220E+04 2.28204E-09-1.14574E-09
 -1        21-5.76071E+03-8.66425E+04 2.39564E+04-7.09939E+02 3.78236E-09-3.34256E-09
 -1        23 3.97514E-01 1.89369E-01 7.28226E+00 5.05585E-04 4.76457E-09 3.00255E-10
 -1        24-7.97053E+05-2.38359E+05 4.23356E+04-4.14231E+05-2.34286E-10 1.39116E-09
 -1        25 1.19502E+04 3.28591E+04 1.66090E+04-2.29841E+05-2.93130E-10-1.40426E-09
 -1        26 1.63651E+03 6.05770E+04 2.85687E+02-9.98725E+03 1.04841E-10-5.97121E-10
 -1        27-1.31481E+04-4.01271E+04-1.78329E+04 4.42122E+04 2.67876E-09-2.15641E-09
 -1        28-4.99972E+03-6.68974E+04-2.37394E+03 2.58178E+04 7.62611E-09-5.74826E-10
 -1        31 2.53372E+03 2.92037E+03 4.32197E+03-6.58578E+01 1.94007E-09-1.11805E-09
 -1        32-3.25613E+05 7.83712E+04 2.03193E+05-4.72512E+05 6.71381E-10 1.23691E-09
 -1        33-7.14854E+04 7.23834E+04 2.22369E+04-2.27744E+04-5.92157E-10 2.90735E-10
 -1        34-8.70010E+04-3.50136E+03 7.87887E+03 3.33030E+04 1.38822E-09-2.22553E-09
 -1        35-1.32194E+04-1.80573E+04 9.84887E+02 4.20039E+04 2.86564E-09 6.83940E-10
 -1        36-2.19765E+06 6.49251E+04-1.49466E+05-8.58913E-07 1.22537E-09 2.31375E-09
 -1        37-2.26246E+06-7.51362E+04-1.05875E+05-9.81569E-07-4.66126E-09-7.85803E-10
 -1        38-2.22264E+06 1.02067E+04-3.86697E+04 7.18607E-08-2.14612E-09 1.20053E-09
 -1        39-2.23326E+06-1.18102E+04-2.43552E+04-6.11927E-07-3.35726E-10-2.13231E-09
 -1        40-2.22676E+06 1.60205E+03-9.95273E+03-1.83682E-07 1.55633E-09-7.66840E-09
 -1        41-2.22843E+06-1.88134E+03-5.97913E+03-2.99312E-07 5.53705E-10 4.95504E-09
 -1        42-2.22743E+06 2.79064E+02-2.97595E+03-9.58603E-09-7.97987E-09-4.44288E-10
 -1        43-2.22772E+06-5.17636E+02-2.47010E+03-1.12064E-06-1.14848E-09-4.87626E-09
 -1        44-2.22746E+06 2.38525E+02-2.61794E+03-5.87435E-07 1.96751E-09-3.53873E-09
 -1        45-2.22824E+06-1.53371E+03-4.94106E+03 1.72739E-07-4.73420E-09 3.89059E-09
 -1        46-2.22692E+06 1.29500E+03-8.08655E+03-3.30125E-07-2.45408E-09 7.14863E-10
 -1        47-2.23213E+06-9.53406E+03-1.96848E+04 4.99691E-08-3.02253E-09 1.90994E-11
 -1        48-2.22359E+06 8.23782E+03-3.12239E+04 4.37810E-07-5.58102E-09-4.59477E-09
 -1        49-2.25570E+06-6.06417E+04-8.54572E+04 1.13672E-07-8.51209E-09 2.95404E-09
 -1        50-2.20343E+06 5.23983E+04-1.20650E+05 2.79705E-07-1.34623E-08 3.36877E-09
 -1        51 1.63861E+04-2.80850E+05 2.78529E+04-7.26293E+05-5.82077E-11 7.31961E-09
 -1        52 7.90599E+03-2.78736E+05 1.81422E+04-8.04302E+05-1.81899E-10 5.16593E-09
 -1        53 5.82323E+03-2.85013E+05 1.64352E+04-7.24340E+05 1.30967E-10 7.82893E-09
 -1        54 1.50835E+04-2.82020E+05 2.72892E+04-8.06407E+05 2.76486E-10 1.10340E-08
 -1        55 3.58172E+04-2.90974E+05 5.08473E+04-7.23997E+05-8.00355E-11 7.03585E-09
 -1        56-3.87780E+06-4.16724E+05-3.34402E+05-1.50264E+06-2.76486E-10 4.36557E-11
 -1        57-4.02915E+06-7.28927E+05-2.29285E+05-1.47178E+06 1.48793E-09-3.61979E-09
 -1        58-3.94787E+06-5.28674E+05-7.84730E+04-1.47783E+06 3.00133E-10-1.40062E-09
 -1        59-3.94909E+06-5.97316E+05-4.80496E+04-1.49896E+06-7.66249E-11 5.69344E-10
 -1        60-3.95730E+06-5.46792E+05-1.83478E+04-1.47589E+06-6.23459E-10-1.49066E-09
 -1        61-3.94237E+06-5.71896E+05-1.06878E+04-1.49602E+06 1.12584E-09 2.46484E-09
 -1        62-3.95440E+06-5.53907E+05-5.11719E+03-1.48077E+06 3.14458E-10 5.81167E-10
 -1        63-3.95127E+06-5.58700E+05-4.33269E+03-1.48418E+06-2.83308E-10 2.51674E-10
 -1        64-3.94834E+06-5.59990E+05-5.03419E+03-1.48771E+06 1.20122E-09 1.22373E-09
 -1        65-3.96375E+06-5.50372E+05-1.04327E+04-1.47153E+06-2.05503E-10 3.16766E-09
 -1        66-3.94199E+06-5.62234E+05-1.78800E+04-1.49345E+06-1.99793E-09-1.83081E-09
 -1        67-3.98146E+06-5.63966E+05-4.68008E+04-1.46163E+06 1.10140E-09-5.86670E-09
 -1        68-3.93081E+06-5.46576E+05-7.64265E+04-1.49761E+06 4.91127E-11 1.45519E-10
 -1        69-4.05523E+06-6.96337E+05-2.23299E+05-1.43997E+06-5.82986E-10 3.25963E-09
 -1        70-3.86876E+06-4.31366E+05-3.25684E+05-1.51469E+06-5.09317E-10 3.78350E-10
 -1        86-2.81452E+04-1.49119E+05 6.63885E+04 9.26603E+03 2.94676E-09 1.56638E-09
 -1        87 3.55400E+04-1.16691E+05 5.25448E+04-4.03889E+04 5.00813E-09 6.97253E-09
 -1        88-7.19698E+03-1.38127E+05 2.78842E+04 9.78203E+03 4.55611E-09 4.68812E-09
 -1        89 2.72561E+04-1.21185E+05 4.15739E+04-4.05927E+04 6.75846E-09 3.70947E-09
 -1        90-1.98460E+04-1.44690E+05 4.78105E+04 9.47011E+03 2.45927E-09-1.14994E-09
 -1        91-2.02882E+06-2.36366E+05-1.24458E+05-7.82389E+05-1.51664E-05 5.65645E-06
 -1        92-2.09404E+06-3.51712E+05-8.64961E+04-7.61107E+05-3.02860E-05 1.13761E-05
 -1        93-2.05388E+06-2.81640E+05-2.91517E+04-7.74258E+05-8.20159E-06 3.08999E-06
 -1        94-2.06457E+06-2.99559E+05-1.82627E+04-7.70739E+05 1.38739E-05-5.20778E-06
 -1        95-2.05820E+06-2.88505E+05-6.82995E+03-7.72728E+05 2.73512E-06-1.02853E-06
 -1        96-2.05971E+06-2.91478E+05-4.11612E+03-7.72299E+05-8.40594E-06 3.15183E-06
 -1        97-2.05872E+06-2.89717E+05-1.94707E+03-7.72690E+05-3.95878E-07 1.53953E-07
 -1        98-2.05908E+06-2.90405E+05-1.80981E+03-7.72466E+05 7.60309E-06-2.84979E-06
 -1        99-2.05883E+06-2.89576E+05-2.10567E+03-7.72559E+05-2.17987E-06 8.19710E-07
 -1       100-2.05990E+06-2.91601E+05-4.60871E+03-7.72180E+05-1.19505E-05 4.49287E-06
 -1       101-2.05791E+06-2.88522E+05-7.71379E+03-7.72978E+05 3.87381E-06-1.44869E-06
 -1       102-2.06516E+06-3.01004E+05-2.06702E+04-7.70685E+05 1.96910E-05-7.38863E-06
 -1       103-2.05359E+06-2.80177E+05-3.30164E+04-7.74063E+05-1.62085E-05 6.09873E-06
 -1       104-2.09899E+06-3.59575E+05-9.79540E+04-7.59199E+05-5.21044E-05 1.95458E-05
 -1       105-2.02417E+06-2.29967E+05-1.40968E+05-7.84496E+05-2.61374E-05 9.74164E-06
 -1       106-7.40525E+05 4.01381E+03-9.25265E+03 2.24778E-07 2.98671E-09-2.84626E-09
 -1       107-7.44480E+05-4.64587E+03-6.55354E+03-2.19215E-07-1.04994E-09 1.85639E-09
 -1       108-7.42072E+05 6.31208E+02-2.40022E+03-2.62907E-08-6.33005E-10 3.35604E-09
 -1       109-7.42676E+05-7.31260E+02-1.52021E+03-2.12312E-07 7.46599E-10 9.66281E-10
 -1       110-7.42327E+05 9.99315E+01-6.40116E+02 2.56760E-07-1.36872E-11 1.96144E-09
 -1       111-7.42382E+05-1.22953E+02-4.20603E+02-1.81119E-07-1.20195E-09 2.72190E-09
 -1       112-7.42366E+05 2.30055E+01-2.78314E+02 3.38575E-07 3.16481E-10 1.81787E-09
 -1       113-7.42360E+05-7.51743E+01-3.59767E+02 5.83678E-08 7.13311E-10-8.46640E-10
 -1       114-7.42349E+05 5.21620E+01-5.36467E+02-7.92240E-08-1.55530E-09-2.49671E-09
 -1       115-7.42516E+05-3.72984E+02-1.16871E+03-2.06974E-07-1.22687E-09-2.80824E-09
 -1       116-7.42210E+05 3.20771E+02-1.98504E+03-6.25775E-07-2.20668E-09-1.02625E-09
 -1       117-7.43486E+05-2.36821E+03-4.88364E+03-1.04696E-06-4.71865E-09-4.13047E-09
 -1       118-7.41380E+05 2.04705E+03-7.76325E+03-6.70299E-08-8.84427E-10-2.26282E-09
 -1       119-7.49340E+05-1.50697E+04-2.12474E+04-3.58535E-07 1.71403E-09 8.99718E-10
 -1       120-7.36363E+05 1.30203E+04-3.00069E+04 4.80943E-08 1.24695E-09 2.23190E-09
 -1       121-1.62473E+02-6.31987E+05 6.79390E+02 1.42325E+04 4.61100E-10 6.55155E-09
 -1       122 3.63826E+02-6.31672E+05 7.93645E+02 8.29642E+04 1.01545E-09 6.85657E-09
 -1       123-1.04051E+02-6.31967E+05 9.42370E+02 1.41578E+04 5.42798E-10-1.55956E-09
 -1       124 1.12785E+03-6.31065E+05 2.14074E+03 8.27528E+04 7.35554E-10-6.53017E-10
 -1       125-9.43139E+02-6.32418E+05 3.12680E+03 1.44439E+04-6.78710E-10-1.32241E-09
 -1       141-3.66532E+05-1.42269E+03 3.27713E+03 4.80353E-07 1.96792E-10-2.03977E-09
 -1       142-3.65074E+05 1.64638E+03 2.31521E+03 2.65798E-07-4.22862E-10-5.16025E-10
 -1       143-3.65984E+05-2.23379E+02 8.34481E+02-2.62385E-07-1.00832E-09-1.03176E-09
 -1       144-3.65716E+05 2.56344E+02 5.03797E+02 2.35288E-07-6.42469E-11 5.15391E-09
 -1       145-3.65891E+05-3.29197E+01 1.59409E+02 2.52066E-07 2.73778E-10-2.49442E-09
 -1       146-3.65832E+05 2.44757E+01 4.43279E+00-4.65979E-07-8.22508E-11-1.56182E-09
 -1       147-3.65868E+05 8.44948E+00-1.72289E+02 3.66805E-08-7.63318E-10 1.86097E-09
 -1       148-3.65902E+05-9.80319E+01-4.69501E+02 9.98686E-08 5.45349E-11-2.79250E-09
 -1       149-3.65821E+05 8.95730E+01-8.91029E+02-1.15505E-07 2.43247E-11 1.04319E-09
 -1       150-3.66205E+05-6.71201E+02-2.07813E+03 2.08656E-07 8.05505E-10-6.10044E-10
 -1       151-3.65566E+05 5.81542E+02-3.58449E+03-1.03495E-07-5.58826E-10 2.87241E-09
 -1       152-3.67969E+05-4.29813E+03-8.85743E+03-1.52910E-07-9.16857E-11 1.03205E-09
 -1       153-3.64058E+05 3.71594E+03-1.40918E+04-2.82567E-07 3.71875E-09-1.14596E-09
 -1       154-3.78595E+05-2.73559E+04-3.85731E+04 4.96500E-08 8.76914E-10-3.56522E-10
 -1       155-3.54943E+05 2.36360E+04-5.44709E+04-2.05216E-07 7.70429E-09 1.47338E-09
 -1       156-1.21394E+04-1.00385E+05 2.83892E+04-1.12200E+03-8.47649E-10 3.75860E-09
 -1       157 1.56644E+04-8.53018E+04 2.34586E+04 3.94312E+03-5.50472E-10 2.93240E-09
 -1       158-3.51384E+03-9.62030E+04 1.33874E+04-1.16342E+03-2.62770E-09 4.94389E-10
 -1       159 1.52511E+04-8.24950E+04 2.31883E+04 3.16666E+03 2.05955E-09 2.58918E-09
 -1       160-1.17436E+04-1.03172E+05 2.61019E+04-3.45566E+02 1.22418E-09-2.17113E-10
 -1       161-3.53664E+05-4.92863E+04-1.80913E+01-1.31994E+05-8.10342E-10-8.38654E-10
 -1       162-3.51880E+05-5.04279E+04 8.51145E+01-1.33256E+05 9.21953E-11-3.92677E-09
 -1       163-3.53642E+05-4.93082E+04-4.20587E+01-1.32045E+05-7.04791E-10-9.05580E-10
 -1       164-3.52719E+05-4.96030E+04 6.04414E+01-1.32277E+05-1.22977E-09 2.88386E-09
 -1       165-3.52824E+05-5.01128E+04-7.14412E+01-1.32972E+05-1.09139E-06 4.10462E-07
 -1       166-3.53550E+05-4.88083E+04-7.75282E+00-1.31347E+05-2.18455E-06 8.24969E-07
 -1       167-3.52813E+05-5.01014E+04-1.91765E+02-1.32975E+05-1.08909E-06 4.10141E-07
 -1       168-3.52778E+05-4.97051E+04-2.94882E+02-1.32256E+05 6.00471E-09-4.50592E-09
 -1       169-3.53595E+05-4.92176E+04-7.20455E+02-1.32063E+05 6.74513E-06-2.52311E-06
 -1       170-3.52301E+05-5.11226E+04-1.64139E+03-1.33144E+05 1.34593E-05-5.03044E-06
 -1       171-3.53291E+05-4.86824E+04-2.98678E+03-1.32089E+05 6.74524E-06-2.52440E-06
 -1       172-3.55172E+05-5.39277E+04-7.90751E+03-1.31606E+05 6.26173E-09-7.49242E-09
 -1       173-3.50725E+05-4.64147E+04-1.28084E+04-1.33600E+05-9.59972E-10-5.19776E-10
 -1       174-3.68992E+05-7.57893E+04-3.77802E+04-1.26324E+05-7.41238E-09-1.47111E-09
 -1       175-3.39475E+05-2.68224E+04-5.45138E+04-1.37371E+05 1.03100E-08-4.40923E-09
 -1       191 3.07893E+02 2.55013E+05 4.98063E+02-3.67890E+03-1.78261E-10-2.36469E-11
 -1       192 1.12905E+02 2.55074E+05 3.05958E+02-3.83555E+03-1.21872E-10-9.19499E-10
 -1       193 5.64099E+01 2.55036E+05 2.59547E+02-3.57330E+03-5.37824E-10-1.28875E-09
 -1       194 1.71894E+02 2.55090E+05 4.10361E+02-4.03900E+03-4.39172E-10-1.01863E-10
 -1       195 4.89989E+02 2.54991E+05 7.58005E+02-3.47519E+03-8.79481E-10-6.35282E-10
 -1       266-2.87720E+04-1.33057E+04 6.64038E+04-3.67270E+01 6.18456E-11 5.82304E-10
 -1       267 3.33202E+04 1.55371E+04 4.71053E+04 4.22284E+01 7.36691E-11 3.50543E-09
 -1       268-4.54032E+03-2.22450E+03 1.74351E+04-5.49923E+00-7.27596E-12-6.72648E-10
 -1       269 5.35948E+03 2.66736E+03 1.13948E+04 6.39282E+00-3.45608E-11-4.67602E-09
 -1       270-8.18145E+02-4.42485E+02 5.47088E+03-8.92056E-01-4.54747E-13 2.78398E-09
 -1       271-2.98951E+06-3.71908E+05-2.35370E+05-1.15669E+06-5.20231E-10 1.64437E-09
 -1       272-3.07655E+06-5.28581E+05-1.49576E+05-1.15234E+06-2.32831E-10-4.16185E-09
 -1       273-3.03188E+06-4.26950E+05-5.55289E+04-1.14863E+06-1.15961E-09 1.49521E-09
 -1       274-3.02709E+06-4.58919E+05-3.07213E+04-1.16554E+06-5.05679E-10-3.43607E-09
 -1       275-3.03761E+06-4.32220E+05-1.29101E+04-1.14701E+06 2.46473E-10-1.35424E-09
 -1       276-3.02012E+06-4.52619E+05-6.84649E+03-1.16825E+06 1.15801E-09-3.53793E-09
 -1       277-3.03881E+06-4.32297E+05-3.45014E+03-1.14631E+06-1.02932E-09 1.76328E-09
 -1       278-3.01873E+06-4.52667E+05-2.62891E+03-1.16931E+06 1.02227E-09 5.80452E-09
 -1       279-3.03907E+06-4.32054E+05-3.02357E+03-1.14604E+06 1.94632E-10 1.74509E-10
 -1       280-3.01910E+06-4.53392E+05-5.68069E+03-1.16942E+06 1.42103E-09-3.92447E-10
 -1       281-3.03848E+06-4.31613E+05-1.05341E+04-1.14620E+06 6.22293E-10 2.72848E-09
 -1       282-3.02417E+06-4.59137E+05-2.50119E+04-1.16797E+06 6.77801E-10 1.99589E-09
 -1       283-3.03408E+06-4.27053E+05-4.51479E+04-1.14721E+06 9.52696E-10-2.25191E-09
 -1       284-3.06394E+06-5.16240E+05-1.21639E+05-1.15776E+06 6.36646E-11 4.58385E-10
 -1       285-2.99983E+06-3.82121E+05-1.91408E+05-1.15356E+06-6.18456E-10-4.49654E-09
 -1       286 2.96158E+05-3.66073E+04 8.43743E+04 6.25792E+02 7.11303E-10 6.76664E-10
 -1       287 3.33149E+05 4.23673E+04 5.97912E+04-9.52713E+02-2.28223E-10 1.90812E-09
 -1       288 3.10434E+05-5.74968E+03 2.18570E+04 5.45062E+01 5.66174E-11 3.11502E-09
 -1       289 3.16531E+05 6.65397E+03 1.37724E+04-2.66936E+02 4.51558E-10-5.57884E-09
 -1       290 3.12775E+05-9.02964E+02 5.65087E+03-5.99735E+01-1.21921E-07-3.40810E-09
 -1       291 3.13810E+05 1.06507E+03 3.42456E+03-1.29045E+02-2.46290E-07-6.28461E-09
 -1       292 3.13157E+05-1.61865E+02 1.76356E+03-8.33877E+01-9.00952E-08 3.54294E-09
 -1       293 3.13430E+05 3.27046E+02 1.56948E+03-1.03910E+02 6.54624E-08-5.90790E-09
 -1       294 3.13155E+05-1.65070E+02 1.79130E+03-8.51085E+01-5.06331E-07-5.27280E-09
 -1       295 3.13824E+05 1.09250E+03 3.50510E+03-1.17113E+02-1.07963E-06 4.31879E-09
 -1       296 3.12762E+05-9.27182E+02 5.79533E+03-7.01843E+01-3.67973E-06-8.92828E-09
 -1       297 3.16614E+05 6.83238E+03 1.41336E+04-2.07787E+02-6.27892E-06 1.11027E-09
 -1       298 3.10363E+05-5.90383E+03 2.24334E+04 5.56664E+00-3.14729E-06 8.90213E-09
 -1       299 3.33570E+05 4.34787E+04 6.13475E+04-6.62354E+02-4.06576E-10 1.04992E-08
 -1       300 2.95808E+05-3.75638E+04 8.66238E+04 3.84376E+02 4.56021E-09 4.32556E-09
 -1       301 2.34835E+04-1.40705E+04 7.00600E+04-2.00265E+04 0.00000E+00 3.76127E-09
 -1       302 8.93597E+03 4.90637E+02 4.75512E+04-2.47912E+04 9.13815E-10 2.82470E-09
 -1       303 1.89875E+03-9.10580E+03 4.40904E+04-2.00319E+04-4.09273E-11 4.20755E-09
 -1       304 1.69167E+04 6.67166E+03 7.30132E+04-2.47645E+04 7.75799E-10 7.15499E-09
 -1       305 4.65448E+04-2.02255E+04 1.30360E+05-2.00213E+04 2.18279E-10 7.38851E-09
 -1       306-1.37587E+06-1.80447E+05-8.24975E+04-5.33506E+05 4.99313E-10 3.81988E-10
 -1       307-1.38836E+06-2.52953E+05-5.23637E+04-5.52365E+05 4.19050E-10 6.05269E-09
 -1       308-1.39083E+06-1.99517E+05-1.94808E+04-5.30588E+05 3.82897E-10-1.51340E-09
 -1       309-1.37111E+06-2.28674E+05-1.07767E+04-5.57177E+05 6.57337E-10-4.69117E-09
 -1       310-1.39284E+06-2.01348E+05-4.55291E+03-5.30051E+05 9.53150E-10 1.35310E-09
 -1       311-1.36885E+06-2.26348E+05-2.45582E+03-5.58032E+05 8.75843E-10 2.70757E-09
 -1       312-1.39316E+06-2.01469E+05-1.31890E+03-5.29923E+05 3.73689E-10 4.21426E-09
 -1       313-1.36863E+06-2.26110E+05-1.16507E+03-5.58076E+05 2.55341E-10 5.03280E-09
 -1       314-1.39306E+06-2.01561E+05-1.55600E+03-5.30019E+05-8.31278E-10 1.76033E-09
 -1       315-1.36920E+06-2.26114E+05-3.09519E+03-5.57577E+05-1.21872E-10-9.25411E-10
 -1       316-1.39249E+06-2.01559E+05-5.86247E+03-5.30338E+05 8.64929E-10 2.83671E-09
 -1       317-1.37231E+06-2.28911E+05-1.39087E+04-5.56191E+05-6.54836E-10 2.24054E-09
 -1       318-1.38981E+06-1.99280E+05-2.51861E+04-5.31118E+05 2.44381E-09 4.12547E-09
 -1       319-1.39471E+06-2.60190E+05-6.76714E+04-5.49856E+05 1.88606E-10 5.72072E-10
 -1       320-1.37045E+06-1.74645E+05-1.06626E+05-5.34907E+05 6.36646E-11 1.81899E-10
 -1       321-6.76215E+05 2.66148E+02-1.15809E+03-5.41802E+03-2.67946E-09-1.41884E-09
 -1       322-6.58905E+05 5.00717E+02 2.60142E+03 7.54486E+03-9.18743E-09 4.40465E-10
 -1       323-6.85566E+05-7.50896E+02-2.59840E+03-1.32956E+03-5.37048E-09 2.15356E-09
 -1       324-6.61900E+05-7.90815E+00 2.14966E+03-4.58706E+03-5.40589E-09-5.74529E-09
 -1       325-6.73219E+05 7.48729E+02 9.37229E+01 6.71394E+03 1.21499E-09-3.96654E-09
 -1       326-6.61830E+05-2.38738E+01 2.18159E+03-4.66831E+03 3.26474E-09-2.74184E-09
 -1       327-6.85635E+05-7.32851E+02-2.55434E+03-1.24832E+03-3.72637E-10 8.99430E-10
 -1       328-6.59048E+05 2.85152E+02 2.64236E+03 7.50221E+03 1.20495E-09 5.86832E-09
 -1       329-6.76004E+05 4.62536E+02-8.52652E+02-5.45661E+03-2.40688E-09 4.59124E-10
 -1       330-6.64231E+05-6.20597E+02 7.79372E+02 1.70538E+03 2.30356E-09-3.08002E-09
 -1       331-6.80454E+05 1.25497E+02-3.07240E+03 4.54846E+03 2.54033E-10-1.64425E-09
 -1       332-6.58929E+05-1.44596E+03-1.02023E+03-7.68298E+03-1.12228E-08-3.29561E-09
 -1       333-6.81300E+05 1.35055E+03-8.34886E+03 3.93173E+03-9.56251E-09-3.88900E-09
 -1       334-6.69466E+05-1.25663E+04-1.61389E+04 2.68177E+03 7.71536E-10-1.00044E-09
 -1       335-6.69931E+05 1.11845E+04-2.59317E+04-5.81637E+03-6.18927E-09 2.39561E-09
 -1       336 1.76573E+02-6.72949E+05-2.05492E+03-8.65682E+03-2.28101E-09 1.98270E-09
 -1       337-1.12707E+03-6.73813E+05-4.30631E+03-5.36308E+04-4.21318E-09-2.06455E-10
 -1       338 8.86229E+02-6.72518E+05-7.39202E+03-8.27139E+03-3.61842E-09 3.91992E-10
 -1       339-9.63478E+03-6.78868E+05-1.84938E+04-5.41591E+04-5.51972E-09-1.98679E-09
 -1       340 7.75911E+03-6.68173E+05-2.82825E+04-8.13027E+03-3.82897E-09 2.16687E-10
 -1       356-6.70244E+05 1.11018E+04-2.60201E+04-5.44410E+03-1.94771E-09 3.83807E-10
 -1       357-6.70269E+05-1.26006E+04-1.63317E+04 2.11262E+03-1.11684E-09-4.60318E-09
 -1       358-6.79780E+05 1.46861E+03-8.08238E+03 4.10478E+03-3.24463E-07 7.55790E-10
 -1       359-6.59932E+05-1.48607E+03-1.29016E+03-7.39989E+03-8.07545E-07-1.06749E-08
 -1       360-6.80567E+05 4.72446E+01-3.21408E+03 4.06847E+03-3.22934E-07 1.43228E-09
 -1       361-6.64658E+05-6.01470E+02 5.04901E+02 2.12367E+03 2.92825E-09 3.92205E-09
 -1       362-6.75062E+05 5.25967E+02-1.02894E+03-5.41877E+03 8.91050E-09 3.88437E-09
 -1       363-6.60383E+05 6.78430E+01 1.62145E+03 6.99559E+03 6.38146E-09 5.05603E-09
 -1       364-6.84839E+05-5.81533E+02-3.78042E+03-8.03400E+02-5.58620E-09 6.03222E-09
 -1       365-6.62730E+05-9.72140E+02-9.95839E+02-4.86869E+03-1.68018E-08-1.73532E-09
 -1       366-6.72715E+05 1.55054E+03-5.25191E+03 6.44554E+03 6.63231E-09-8.49241E-10
 -1       367-6.66136E+05-6.43568E+03-1.12378E+04-3.96723E+03 1.16210E-08-5.02519E-09
 -1       368-6.81438E+05 4.87300E+03-2.32359E+04-1.70489E+03-1.39556E-09-1.91994E-09
 -1       369-6.78472E+05-4.01138E+04-5.47807E+04 7.39799E+03-7.64479E-09 6.21367E-09
 -1       370-6.60391E+05 3.52541E+04-8.20758E+04-4.91973E+03 8.73959E-09 3.83079E-09
 -1       371-1.11363E+04-1.00761E+05 2.44904E+04 7.19637E+01 5.28416E-09-3.30859E-09
 -1       372 1.18624E+04-8.62933E+04 1.62772E+04 1.71457E+03-4.33147E-10 2.67518E-09
 -1       373-7.31098E+02-9.48015E+04 2.68378E+03-5.35728E+02 1.07684E-09-1.38381E-09
 -1       374-5.42007E+03-9.58626E+04-6.33952E+03 2.45159E+03-1.35515E-10-3.96521E-10
 -1       375 6.15216E+03-9.12047E+04-1.34301E+04-6.65026E+02-5.15683E-10 7.07455E-10
 -1       406 4.20739E+02 2.53557E+05 9.70518E+02-1.39251E+04-1.11231E-09 3.49019E-09
 -1       407 3.13771E+02 2.53736E+05 1.30199E+03-1.51675E+04-7.35895E-10 1.58207E-09
 -1       408 5.74405E+02 2.53509E+05 2.24658E+03-1.38325E+04-1.53136E-09 1.10113E-08
 -1       409 2.30286E+03 2.54383E+05 4.88562E+03-1.53222E+04-9.64064E-10 1.92611E-08
 -1       410 6.61068E+03 2.52891E+05 9.88932E+03-1.37664E+04-1.71804E-09 7.33598E-09
 -1       501-2.45171E+05-4.14175E+04 8.97452E+04-4.42674E+03 7.32248E-09 4.30737E-09
 -1       502-1.74417E+05 4.68307E+04 6.88488E+04 1.17755E+04 5.71183E-09 9.28867E-09
 -1       503-2.19072E+05-5.33175E+03 2.34628E+04-5.46650E+03 2.96029E-09 9.69158E-09
 -1       504-1.76693E+05 8.00324E+03 2.15159E+04 7.43567E+03-9.70743E-10 5.48857E-09
 -1       505-2.42788E+05-2.72850E+03 1.82330E+02-8.65042E+01 3.34950E-09 1.13914E-10
 -1       506-1.73899E+05 2.30002E+03 1.12525E+04-4.19574E+03 1.80179E-08-5.78075E-09
 -1       507-2.21821E+05 3.24849E+02-7.78352E+01 6.16292E+03 1.47579E-08-1.09229E-08
 -1       508-1.97479E+05-9.41026E+02 3.64374E+03-1.07112E+04 6.45978E-09-1.60633E-08
 -1       509-2.19390E+05 6.92399E+02-5.74008E+02 6.43127E+03 1.53706E-08-1.09694E-08
 -1       510-1.76410E+05 1.14784E+03 7.95936E+03-5.04271E+03 1.39815E-08-1.24825E-08
 -1       511-2.42726E+05-1.92883E+03-5.04030E+03 4.92145E+02-4.34000E-09 1.45917E-10
 -1       512-1.77472E+05 1.97700E+03 9.16039E+03 6.69570E+03-9.28316E-09 4.98973E-09
 -1       513-2.18340E+05-1.24150E+02 2.56449E+03-5.30528E+03-6.49636E-09 8.03061E-09
 -1       514-1.93507E+05 6.91447E+03 1.25733E+04 1.18236E+04-5.25345E-09 1.21781E-08
 -1       515-2.26840E+05-6.71451E+03 1.08998E+04-4.63610E+03-6.54077E-09 7.44694E-09
 -1       521-3.05062E+06-3.88526E+05-1.96581E+05-1.17379E+06-2.25918E-09-8.87667E-10
 -1       522-3.11439E+06-5.28251E+05-1.24911E+05-1.18040E+06-1.90539E-10-2.76668E-09
 -1       523-3.08595E+06-4.34503E+05-4.63631E+04-1.16710E+06-9.75433E-11 8.71296E-10
 -1       524-3.07334E+06-4.69853E+05-2.56692E+04-1.19119E+06-4.90445E-10-5.14319E-10
 -1       525-3.09056E+06-4.39083E+05-1.07911E+04-1.16595E+06 1.14380E-09 6.38465E-10
 -1       526-3.06801E+06-4.64083E+05-5.77120E+03-1.19286E+06 2.02226E-09-3.24235E-10
 -1       527-3.09122E+06-4.39494E+05-2.98017E+03-1.16574E+06 4.35023E-10 1.10705E-09
 -1       528-3.06760E+06-4.63354E+05-2.42623E+03-1.19278E+06-1.03410E-09-9.18362E-10
 -1       529-3.09095E+06-4.39767E+05-2.99588E+03-1.16603E+06-1.03978E-09-1.05001E-09
 -1       530-3.06894E+06-4.63086E+05-5.79175E+03-1.19162E+06 2.71257E-10 6.03222E-10
 -1       531-3.08978E+06-4.39884E+05-1.08591E+04-1.16681E+06 1.13687E-10 1.48066E-09
 -1       532-3.07519E+06-4.67931E+05-2.57821E+04-1.18879E+06-7.54881E-11 1.41290E-09
 -1       533-3.08467E+06-4.35765E+05-4.66059E+04-1.16848E+06-2.73110E-09-4.00178E-10
 -1       534-3.11730E+06-5.25704E+05-1.25484E+05-1.17690E+06-6.01881E-09-1.36060E-09
 -1       535-3.04875E+06-3.90012E+05-1.97528E+05-1.17569E+06-4.36012E-09 1.81899E-09
 -1       536 3.65435E+04-1.01806E+04 3.68227E+04-4.86606E+03 6.37556E-10 2.22826E-09
 -1       537 5.07224E+04 1.27091E+04 2.41109E+04-2.79472E+04-3.35604E-09-9.49512E-10
 -1       538 4.22289E+04-1.19210E+03 9.53879E+03-4.80768E+03 7.09406E-11-2.54067E-09
 -1       539 4.41499E+04 1.34016E+03 5.44928E+03-2.79950E+04 9.63837E-10 9.72705E-10
 -1       540 4.29147E+04-1.61430E+02 2.40312E+03-4.81546E+03 3.46972E-10-6.51198E-10
 -1       541 4.32318E+04 1.36827E+02 1.29158E+03-2.79747E+04-8.24912E-10-3.03544E-09
 -1       542 4.30001E+04-2.52196E+01 5.89578E+02-4.82815E+03 1.32331E-10-6.01801E-10
 -1       543 4.30416E+04 3.02302E+01 2.94172E+02-2.79550E+04-2.17710E-10 4.80782E-10
 -1       544 4.30106E+04 1.97707E+00 1.07139E+02-4.83531E+03 2.06228E-10 2.16721E-09
 -1       545 4.29811E+04 1.93473E+01-1.46804E+01-2.79462E+04-1.20053E-09-5.72982E-11
 -1       546 4.30190E+04 1.47208E+01-1.36393E+02-4.83687E+03 6.88971E-10-9.37803E-10
 -1       547 4.29297E+04-7.53285E+01-3.72159E+02-2.79450E+04-1.28131E-09-1.03930E-09
 -1       548 4.30728E+04 7.95504E+01-6.84834E+02-4.83652E+03-3.73120E-10 1.12618E-09
 -1       549 4.25218E+04-9.16723E+02-1.73133E+03-2.79110E+04-8.92328E-10-1.04319E-09
 -1       550 4.34900E+04 7.05038E+02-2.67483E+03-4.87084E+03-2.18279E-11-3.23928E-09
 -1       551 6.37251E+03-2.40530E+05 1.69049E+04-3.84370E+05-4.91127E-09-2.91038E-11
 -1       552 5.02546E+03-2.38055E+05 1.80573E+04-4.74538E+05-5.32964E-09 3.76895E-09
 -1       553 3.62733E+03-2.41126E+05 2.65597E+04-3.83602E+05-5.82077E-09 2.65027E-09
 -1       554 1.66081E+04-2.29442E+05 5.45924E+04-4.74644E+05-6.17001E-09 1.56433E-09
 -1       555 3.96878E+04-2.49750E+05 1.03433E+05-3.84157E+05-4.91127E-09-1.82808E-09
 -1       556-6.79792E+04-7.91168E+04 1.99639E+04-1.26916E+05-3.23416E-09-4.57658E-09
 -1       557-4.77070E+04-9.83935E+04 1.01213E+04-1.43045E+05-1.12050E-09 2.26237E-10
 -1       558-6.79475E+04-8.37601E+04 4.22549E+03-1.23740E+05-1.59343E-09-6.61930E-09
 -1       559-4.99403E+04-1.01328E+05 2.09551E+03-1.43939E+05 4.16549E-10-2.95449E-09
 -1       560-6.82346E+04-8.36341E+04 9.22951E+02-1.23829E+05-3.08137E-09-4.92628E-09
 -1       561-5.04495E+04-1.01294E+05 4.54566E+02-1.44281E+05-1.60071E-10-8.78799E-11
 -1       562-6.84786E+04-8.34610E+04 1.79431E+02-1.24001E+05 1.25692E-09-2.12981E-09
 -1       563-5.07215E+04-1.01179E+05 5.61759E+01-1.44465E+05 3.27418E-11-1.82615E-09
 -1       564-6.86236E+04-8.33618E+04-6.36057E+01-1.24104E+05 4.65479E-09-2.79942E-09
 -1       565-5.08618E+04-1.01123E+05-2.13202E+02-1.44552E+05 8.70932E-09-1.54887E-09
 -1       566-6.86537E+04-8.33246E+04-4.86166E+02-1.24134E+05 4.66412E-09-1.74987E-09
 -1       567-5.09510E+04-1.01155E+05-1.08599E+03-1.44537E+05 1.35833E-09-2.41016E-11
 -1       568-6.85146E+04-8.34503E+04-2.23820E+03-1.24058E+05 6.50289E-10-2.96495E-10
 -1       569-5.22601E+04-1.02263E+05-5.27735E+03-1.44060E+05 4.20960E-09 1.06684E-08
 -1       570-6.75605E+04-8.66165E+04-1.04903E+04-1.22783E+05 1.22782E-09 1.51226E-09
 -1       571 1.75580E+05 7.44671E+03 1.11603E+04-4.34931E+04 4.82032E-11 4.80213E-10
 -1       572 1.77258E+05 2.57155E+03 5.47228E+03-4.77725E+04-5.86624E-10-1.27147E-09
 -1       573 1.76258E+05 5.98900E+02 2.43228E+03-4.33806E+04-3.62888E-10-4.25916E-09
 -1       574 1.76458E+05 1.89852E+02 1.21952E+03-4.78972E+04-2.12822E-10-1.14869E-09
 -1       575 1.76334E+05 2.05193E+01 5.75691E+02-4.33659E+04 9.89075E-11-7.80346E-10
 -1       576 1.76352E+05 1.58844E+00 2.93760E+02-4.79137E+04-6.97753E-12-7.43512E-10
 -1       577 1.76346E+05-9.26606E+00 1.46103E+02-4.33640E+04-2.35900E-10 8.30369E-10
 -1       578 1.76342E+05-7.50918E+00 8.22805E+01-4.79157E+04 1.30967E-10 3.65935E-09
 -1       579 1.76358E+05-1.09695E+01 5.52269E+01-4.33640E+04-7.64430E-10 8.36735E-11
 -1       580 1.76357E+05-1.25902E+01 5.95878E+01-4.79131E+04-9.49512E-10-7.95808E-10
 -1       581 1.76376E+05-1.59351E+01 8.99520E+01-4.33666E+04-1.66165E-09-2.48883E-09
 -1       582 1.76397E+05 1.08096E+00 1.77578E+02-4.78868E+04 6.48015E-10-6.92444E-09
 -1       583 1.76393E+05 5.06304E+01 3.45464E+02-4.33903E+04 2.92039E-09 1.90312E-09
 -1       584 1.76545E+05 3.21836E+02 7.75304E+02-4.76870E+04 1.26875E-10 3.94436E-09
 -1       585 1.76329E+05 1.00574E+03 1.57640E+03-4.35671E+04-4.63842E-11 1.74623E-09
 -1       586 3.83039E+02 7.68824E+04 9.96667E+02-1.09817E+05 2.41016E-11 6.71662E-10
 -1       587 3.60170E+02 7.70628E+04 1.57717E+03-1.22462E+05-1.38334E-09 2.46246E-10
 -1       588 6.55136E+02 7.67752E+04 2.88195E+03-1.09677E+05-3.63798E-12 4.53417E-09
 -1       589 2.76008E+03 7.79691E+04 6.34701E+03-1.22483E+05-1.35151E-09 3.17300E-10
 -1       590 8.03211E+03 7.59547E+04 1.28117E+04-1.09795E+05 4.77485E-12-2.16278E-09
 -1       591-8.09479E+04-2.40138E+04-1.66786E+04-3.88258E+04-2.47985E-09-8.26276E-09
 -1       592-8.20977E+04-2.34206E+04-8.41367E+03-4.32609E+04-3.16618E-10-1.71553E-10
 -1       593-8.18260E+04-1.94763E+04-3.57063E+03-4.11224E+04 6.82121E-12-1.36060E-09
 -1       594-8.01860E+04-2.13470E+04-1.75494E+03-4.34051E+04-7.10486E-10-2.28852E-09
 -1       595-8.19190E+04-1.93610E+04-8.10006E+02-4.12083E+04-5.09885E-10 9.99677E-10
 -1       596-8.00564E+04-2.12749E+04-4.09421E+02-4.33855E+04-3.90179E-09-6.34856E-09
 -1       597-8.19342E+04-1.93752E+04-2.20216E+02-4.12083E+04-7.73092E-10-1.54478E-09
 -1       598-8.00429E+04-2.12756E+04-1.71083E+02-4.33795E+04-5.41093E-10-3.46165E-09
 -1       599-8.19333E+04-1.93762E+04-2.10976E+02-4.12077E+04-2.22485E-10-3.10251E-10
 -1       600-8.00536E+04-2.12761E+04-3.85127E+02-4.33830E+04-1.52340E-11 3.58591E-09
 -1       601-8.19165E+04-1.93642E+04-7.57619E+02-4.12064E+04-4.52474E-11 4.14730E-10
 -1       602-8.01742E+04-2.13426E+04-1.63959E+03-4.33974E+04 1.03682E-09-1.34150E-10
 -1       603-8.18264E+04-1.94753E+04-3.33479E+03-4.11270E+04-3.00133E-11-1.90494E-09
 -1       604-8.19776E+04-2.32585E+04-7.85658E+03-4.32367E+04-5.35920E-10-4.01906E-09
 -1       605-8.09842E+04-2.37305E+04-1.55736E+04-3.90025E+04-3.22848E-09-5.26325E-09
 -1       606 5.84111E+04-6.88771E+03-1.10762E+04 1.82221E+04-1.28230E-08-1.72076E-09
 -1       607 5.66336E+04-2.29615E+03-5.46102E+03 2.00616E+04-2.05905E-08-6.76084E-09
 -1       608 5.76643E+04-4.69982E+02-2.43476E+03 1.80935E+04-8.27822E-09 7.09747E-10
 -1       609 5.74396E+04-1.30651E+02-1.22371E+03 2.02035E+04-9.91349E-10 4.33374E-10
 -1       610 5.75685E+04 7.07168E+00-5.79621E+02 1.80778E+04-4.36103E-09-2.51816E-09
 -1       611 5.75246E+04 2.26420E+01-2.91620E+02 2.02207E+04-7.69342E-09-1.25578E-09
 -1       612 5.75468E+04 2.72156E+01-1.37886E+02 1.80761E+04-3.37332E-09-1.27648E-09
 -1       613 5.75299E+04 2.85411E+01-6.13737E+01 2.02228E+04-3.70051E-09 2.46496E-09
 -1       614 5.75367E+04 2.52232E+01-1.34313E+01 1.80756E+04-1.35378E-09 7.19410E-10
 -1       615 5.75276E+04 2.97965E+01 2.81670E+01 2.02230E+04 3.16595E-09 1.92040E-09
 -1       616 5.75287E+04 2.86492E+01 8.22897E+01 1.80758E+04-2.63071E-09-9.35415E-10
 -1       617 5.75383E+04 5.47288E+01 1.88159E+02 2.02223E+04 4.27463E-10-6.79393E-10
 -1       618 5.75116E+04 1.04212E+02 3.80760E+02 1.80762E+04 1.50499E-09-1.49453E-09
 -1       619 5.76645E+04 3.95737E+02 8.58149E+02 2.02187E+04 1.28443E-09 4.08363E-10
 -1       620 5.73942E+04 1.11414E+03 1.74198E+03 1.80782E+04 1.14471E-09-1.70053E-09
 -1       621 6.02768E+02 1.77653E+05 2.17082E+03-1.26416E+04 3.86535E-12 5.37852E-09
 -1       622 2.70989E+02 1.78096E+05 2.18636E+03-1.56529E+04 4.68390E-10 9.29595E-09
 -1       623 1.39448E+02 1.77721E+05 3.11606E+03-1.26472E+04 1.50976E-10 3.54453E-09
 -1       624 1.56985E+03 1.79106E+05 6.33474E+03-1.55968E+04 2.80693E-10-6.39375E-10
 -1       625 4.35485E+03 1.76651E+05 1.19892E+04-1.26965E+04-5.00222E-11-8.36735E-11
 -1       626 1.05758E+05 3.39536E+04-2.09571E+03 6.70391E+04-1.35833E-09-3.04590E-09
 -1       627 1.03452E+05 3.67296E+04-9.96544E+02 6.89854E+04 2.56478E-09 8.34069E-09
 -1       628 1.05845E+05 3.49001E+04-4.18982E+02 6.64718E+04 8.91305E-10 8.92896E-10
 -1       629 1.03535E+05 3.72133E+04-1.99641E+02 6.90229E+04 3.41970E-09 4.93344E-10
 -1       630 1.05839E+05 3.49629E+04-8.59085E+01 6.64209E+04 3.78714E-09-2.52351E-09
 -1       631 1.03530E+05 3.72518E+04-3.29973E+01 6.90266E+04-1.63732E-09-2.86516E-09
 -1       632 1.05829E+05 3.49662E+04 3.24189E+00 6.64135E+04 5.43150E-09-1.28830E-08
 -1       633 1.03526E+05 3.72551E+04 4.06091E+01 6.90256E+04 2.27487E-08 4.37234E-09
 -1       634 1.05821E+05 3.49627E+04 9.88609E+01 6.64114E+04 1.06804E-08-2.16710E-09
 -1       635 1.03536E+05 3.72572E+04 2.21792E+02 6.90275E+04 5.51609E-10-1.54091E-09
 -1       636 1.05811E+05 3.49697E+04 4.59040E+02 6.64052E+04 9.50934E-10-1.58655E-08
 -1       637 1.03642E+05 3.73694E+04 1.02239E+03 6.90121E+04 1.61484E-08-7.02858E-09
 -1       638 1.05783E+05 3.53116E+04 2.11543E+03 6.62549E+04 1.69327E-08-6.35691E-09
 -1       639 1.04723E+05 3.91849E+04 5.02818E+03 6.85776E+04 2.06596E-08-4.82487E-10
 -1       640 1.05796E+05 4.06056E+04 1.05720E+04 6.40470E+04 8.71592E-09-3.27964E-09
 -1       641-1.44913E+04 2.17262E+03-5.00846E+03-1.92063E+01 1.27077E-05-1.01934E-08
 -1       642-1.66648E+04-2.51458E+03-3.54414E+03 1.03900E+01 2.53915E-05-2.13799E-08
 -1       643-1.53290E+04 3.41472E+02-1.29164E+03-2.12228E+01 2.33630E-05-2.48681E-08
 -1       644-1.56884E+04-3.94342E+02-8.05162E+02 1.39712E+01 2.13212E-05-1.90907E-08
 -1       645-1.54678E+04 5.27871E+01-3.11952E+02-2.27881E+01 1.40556E-05-1.26993E-08
 -1       646-1.55237E+04-5.66742E+01-1.53128E+02 1.59804E+01 6.78050E-06-6.80197E-09
 -1       647-1.54937E+04 3.86442E+00-1.08188E+01-2.32321E+01-3.34015E-06 5.00635E-09
 -1       648-1.54794E+04 2.37075E+01 1.13562E+02 1.56113E+01-1.34710E-05 1.58581E-08
 -1       649-1.55121E+04-2.75846E+01 2.67923E+02-2.24190E+01-2.49594E-05 2.81942E-08
 -1       650-1.53785E+04 2.13000E+02 6.54654E+02 1.27419E+01-3.64466E-05 3.70602E-08
 -1       651-1.55945E+04-1.85402E+02 1.13993E+03-2.03627E+01-4.70265E-05 4.81148E-08
 -1       652-1.48142E+04 1.37113E+03 2.82489E+03 7.32969E+00-5.75970E-05 4.91035E-08
 -1       653-1.60764E+04-1.18550E+03 4.49620E+03-1.70068E+01-6.11150E-05 5.85062E-08
 -1       654-1.14236E+04 8.72743E+03 1.23082E+04-1.77157E+00-6.46007E-05 4.81000E-08
 -1       655-1.89846E+04-7.54024E+03 1.73846E+04-1.12617E+01-3.23266E-05 2.13231E-08
 -1       656 6.68004E+03-2.50316E+05-2.83770E+04 6.74634E+03-9.05857E-10-2.58365E-09
 -1       657-9.71028E+03-2.60824E+05-2.10505E+04 2.89348E+04-9.97716E-10-2.74667E-10
 -1       658 1.37873E+03-2.53962E+05-1.37002E+04 6.69014E+03-3.09740E-10 1.46861E-09
 -1       659-9.56204E+03-2.60757E+05-2.08035E+04 2.89687E+04-2.20098E-09-7.59319E-09
 -1       660 6.57021E+03-2.50404E+05-2.79081E+04 6.71278E+03-6.02995E-10-3.57238E-09
 -1       661 1.55391E+05 2.15523E+04 1.23342E+04 6.09429E+04 5.10579E-09 1.03773E-09
 -1       662 1.58037E+05 2.87243E+04 7.42772E+03 6.27641E+04 7.08809E-10 2.71393E-09
 -1       663 1.57285E+05 2.33906E+04 2.89491E+03 6.09529E+04-2.02422E-09-1.75180E-09
 -1       664 1.55822E+05 2.57456E+04 1.52769E+03 6.31123E+04 3.95528E-09-3.96926E-09
 -1       665 1.57467E+05 2.35581E+04 6.76073E+02 6.09600E+04 6.61188E-10-5.60590E-10
 -1       666 1.55611E+05 2.54979E+04 3.59834E+02 6.31274E+04-2.93198E-09-1.19685E-09
 -1       667 1.57488E+05 2.35747E+04 2.09534E+02 6.09615E+04-7.36701E-09 2.20193E-09
 -1       668 1.55592E+05 2.54810E+04 2.01281E+02 6.31284E+04-1.15756E-09 1.64334E-09
 -1       669 1.57486E+05 2.35720E+04 2.93760E+02 6.09604E+04-1.11481E-08 1.82172E-09
 -1       670 1.55629E+05 2.55174E+04 5.87607E+02 6.31338E+04-1.43540E-08 7.56017E-10
 -1       671 1.57452E+05 2.35408E+04 1.15002E+03 6.09559E+04-3.83687E-09 4.49131E-09
 -1       672 1.55994E+05 2.59476E+04 2.62640E+03 6.31125E+04 4.45328E-09 2.14038E-09
 -1       673 1.57139E+05 2.32500E+04 4.98674E+03 6.09421E+04 2.07052E-09 2.64731E-09
 -1       674 1.59812E+05 3.10857E+04 1.28039E+04 6.25157E+04 6.25473E-09 2.51566E-09
 -1       675 1.53874E+05 2.00796E+04 2.12627E+04 6.09239E+04 2.21326E-09 1.85810E-09
 -1       676 2.61195E+02-2.23589E+05-1.80366E+03-2.75477E+02-6.23203E-10 4.28386E-09
 -1       677-7.50628E+02-2.24299E+05-2.70935E+03-1.38484E+03-3.54453E-09 1.49463E-09
 -1       678 3.47571E+02-2.23496E+05-4.10603E+03-2.76594E+02 1.05274E-10 2.08510E-09
 -1       679-4.58630E+03-2.26624E+05-9.68598E+03-1.37955E+03-5.07055E-09-2.80301E-09
 -1       680 3.25026E+03-2.21264E+05-1.50899E+04-2.81312E+02-3.45608E-11-1.94427E-09
 -1       716-1.98760E-01-9.47623E-02 8.89366E+00-2.52843E-04 8.81284E-09-2.13706E-09
 -1       717 9.78786E-01 7.13794E-01 1.56634E+01 6.43654E-04 3.77541E-09-9.76301E-10
 -1       718-7.80042E-01-6.19293E-01 2.90670E+01-3.90812E-04 4.49018E-10-1.77582E-09
 -1       719 4.62175E+00 4.86206E+00 6.02903E+01-5.83829E-04-1.67506E-09-1.30817E-09
 -1       720-3.84178E+00-4.24329E+00 1.14990E+02 9.75339E-04-3.48002E-09-2.68084E-09
 -1       721 2.39205E+01 3.23961E+01 2.45754E+02-2.05938E-02-4.60234E-09-8.50875E-12
 -1       722-2.00788E+01-2.81523E+01 4.59970E+02 1.96163E-02-3.22004E-09-6.57678E-10
 -1       723 1.30053E+02 2.11387E+02 1.01315E+03-1.97620E-01 1.66293E-09-1.23833E-09
 -1       724-1.09972E+02-1.83214E+02 1.83465E+03 1.77957E-01-2.52367E-09-9.96351E-10
 -1       725 7.36652E+02 1.36214E+03 4.22832E+03-1.51978E+00-5.37060E-09-1.07593E-09
 -1       726-6.26617E+02-1.17871E+03 7.27484E+03 1.34145E+00-3.48545E-09-1.09821E-09
 -1       727 4.31046E+03 8.71033E+03 1.79593E+04-1.06905E+01-3.46274E-09-3.34467E-10
 -1       728-3.68268E+03-7.52989E+03 2.85720E+04 9.34770E+00-1.15420E-09-2.05364E-09
 -1       729 2.58407E+04 5.54345E+04 7.81844E+04-7.19049E+01-3.20167E-10-1.31695E-09
 -1       730-2.21385E+04-4.78893E+04 1.10476E+05 6.25676E+01 4.62418E-09-3.06318E-09
 -1       766-4.78998E+04-2.21705E+04 1.10454E+05-5.58978E+01-2.54659E-10-2.36041E-09
 -1       767 5.55141E+04 2.58944E+04 7.81790E+04 2.51143E+01 3.93629E-09-6.28564E-10
 -1       768-7.59925E+03-3.74347E+03 2.84781E+04 3.96018E+00-2.27374E-10 5.43015E-10
 -1       769 9.21780E+03 4.54892E+03 1.79664E+04-4.26853E+01 2.99519E-09 3.16107E-09
 -1       770-1.61667E+03-8.43305E+02 6.86152E+03 1.19113E+01-3.51974E-10 1.33678E-09
 -1       771-1.39086E+06-2.66109E+05-3.86942E+04-5.95092E+05-2.04091E-09-3.63798E-10
 -1       772-1.38490E+06-2.72969E+05-1.94784E+04-6.14854E+05-7.91260E-10 5.34783E-10
 -1       773-1.39358E+06-2.55048E+05-8.31982E+03-6.00097E+05-1.70985E-09-6.72298E-09
 -1       774-1.38033E+06-2.68574E+05-4.06949E+03-6.16043E+05 1.54614E-09-2.54204E-10
 -1       775-1.39413E+06-2.54540E+05-1.90886E+03-6.00380E+05 2.72485E-09 5.63523E-09
 -1       776-1.38021E+06-2.68400E+05-9.53501E+02-6.16334E+05-1.02409E-09 8.13316E-10
 -1       777-1.39442E+06-2.54413E+05-5.28445E+02-6.00474E+05-6.65750E-10-3.63798E-11
 -1       778-1.38033E+06-2.68366E+05-3.96110E+02-6.16541E+05 2.49202E-10 6.07486E-10
 -1       779-1.39459E+06-2.54304E+05-4.96323E+02-6.00540E+05-2.56478E-10-3.21393E-10
 -1       780-1.38046E+06-2.68346E+05-8.92743E+02-6.16690E+05-4.12911E-10-1.78579E-09
 -1       781-1.39464E+06-2.54213E+05-1.76321E+03-6.00575E+05 4.94765E-10-4.92946E-10
 -1       782-1.38079E+06-2.68491E+05-3.81802E+03-6.16782E+05 1.32832E-09 1.51886E-09
 -1       783-1.39445E+06-2.54461E+05-7.77517E+03-6.00401E+05 2.93142E-10-7.09224E-09
 -1       784-1.38502E+06-2.72936E+05-1.83353E+04-6.16353E+05 9.66520E-09 1.28421E-09
 -1       785-1.39241E+06-2.64452E+05-3.63600E+04-5.95468E+05 5.57247E-09-1.41517E-09
 -1       786 1.40227E+05-4.62925E+03 1.69694E+04-6.51937E+02-1.63709E-11 9.17680E-10
 -1       787 1.46582E+05 5.89697E+03 1.10857E+04-3.82491E+03-3.53339E-10-1.31877E-10
 -1       788 1.42849E+05-5.17792E+02 4.40631E+03-6.50388E+02-7.90692E-11-9.34961E-10
 -1       789 1.43637E+05 6.43630E+02 2.50661E+03-3.82318E+03 4.98972E-10 5.89466E-10
 -1       790 1.43170E+05-5.91228E+01 1.12232E+03-6.53523E+02 1.18803E-11 7.66477E-10
 -1       791 1.43271E+05 6.97419E+01 6.09681E+02-3.81886E+03 1.30001E-10 4.24990E-10
 -1       792 1.43213E+05-7.40457E+00 3.09858E+02-6.54706E+02 2.55616E-10 1.96916E-09
 -1       793 1.43224E+05 1.03639E+01 2.08331E+02-3.81877E+03-5.51047E-10-1.74898E-09
 -1       794 1.43217E+05-4.09029E+00 1.92894E+02-6.53618E+02-4.63274E-11-8.73662E-10
 -1       795 1.43239E+05 3.09755E+01 2.98116E+02-3.82337E+03-6.07002E-10-1.47363E-09
 -1       796 1.43199E+05-2.65653E+01 5.09834E+02-6.50100E+02-3.09416E-09-9.83846E-10
 -1       797 1.43401E+05 2.83630E+02 1.11506E+03-3.83167E+03-3.48993E-09 4.75666E-10
 -1       798 1.43058E+05-2.29555E+02 1.95068E+03-6.45323E+02-3.10393E-09 2.91300E-09
 -1       799 1.44704E+05 2.60504E+03 4.90166E+03-3.83508E+03-1.27807E-09 8.34802E-10
 -1       800 1.41899E+05-2.04738E+03 7.50025E+03-6.46787E+02 1.16984E-10-2.72939E-09
 -1       801-9.02185E+03 1.90992E+05 2.55357E+04-1.44796E+05 7.70433E-09-8.11269E-09
 -1       802 2.21036E+04 1.99378E+05 3.34884E+04-8.30450E+05 2.28792E-08-6.49015E-09
 -1       803-2.36705E+03 1.90374E+05 3.99430E+04-1.44459E+05 1.43300E-08 5.56201E-09
 -1       804 5.66209E+04 2.19219E+05 9.07541E+04-8.30387E+05 2.32558E-08 8.33279E-09
 -1       805-3.93456E+04 1.71633E+05 1.31659E+05-1.44868E+05 7.23958E-09 8.25821E-09
 -1       806-1.21295E+05-3.70095E+04-1.09997E+04-6.17965E+04 6.76380E-10 1.66165E-09
 -1       807-1.20924E+05-3.47853E+04-5.23093E+03-6.56671E+04-6.52221E-10-1.11044E-09
 -1       808-1.21280E+05-3.15089E+04-2.20141E+03-6.41120E+04-9.64974E-10 1.30478E-09
 -1       809-1.19822E+05-3.28784E+04-1.06441E+03-6.61084E+04-3.40106E-09-4.72369E-09
 -1       810-1.21312E+05-3.11514E+04-4.80509E+02-6.42729E+04-3.70756E-09-6.61908E-09
 -1       811-1.19716E+05-3.27591E+04-2.37284E+02-6.61246E+04 6.94627E-11-4.27042E-09
 -1       812-1.21322E+05-3.11438E+04-1.16968E+02-6.42793E+04 1.01480E-10 2.23736E-10
 -1       813-1.19704E+05-3.27575E+04-7.26162E+01-6.61207E+04-1.90539E-10 4.94083E-10
 -1       814-1.21321E+05-3.11476E+04-6.59798E+01-6.42776E+04-8.91305E-11-2.48770E-09
 -1       815-1.19706E+05-3.27607E+04-1.01926E+02-6.61181E+04-1.77806E-10-9.77025E-10
 -1       816-1.21313E+05-3.11540E+04-1.90128E+02-6.42731E+04-1.08389E-09 4.47926E-11
 -1       817-1.19748E+05-3.28028E+04-4.13257E+02-6.61013E+04 5.51154E-10 1.51886E-10
 -1       818-1.21292E+05-3.13008E+04-8.51155E+02-6.42146E+04-3.72438E-10-2.32512E-09
 -1       819-1.20220E+05-3.34880E+04-2.01970E+03-6.58668E+04-2.00089E-11 1.71121E-09
 -1       820-1.21243E+05-3.34711E+04-4.24594E+03-6.33712E+04 3.49246E-10-1.85082E-10
 -1       821-1.66737E+05 5.73658E+03-2.10355E+04 7.75769E+02-2.18768E-09-1.80808E-09
 -1       822-1.74608E+05-7.30945E+03-1.37420E+04 4.72319E+03-7.54369E-10-5.44719E-09
 -1       823-1.69988E+05 6.40709E+02-5.46456E+03 7.46239E+02 1.54853E-09-2.42449E-09
 -1       824-1.70963E+05-7.94080E+02-3.11112E+03 4.76475E+03-7.16227E-11 7.04631E-10
 -1       825-1.70386E+05 7.33634E+01-1.40090E+03 7.33975E+02-3.06750E-09 2.77430E-09
 -1       826-1.70516E+05-8.11405E+01-7.75083E+02 4.78476E+03-6.05237E-09 1.94571E-09
 -1       827-1.70439E+05 1.04431E+01-4.22824E+02 7.26181E+02-3.52617E-09-7.13669E-11
 -1       828-1.70465E+05-1.03318E+01-3.38566E+02 4.79693E+03-3.07379E-09-1.38319E-09
 -1       829-1.70440E+05 9.98123E+00-3.94674E+02 7.21794E+02-5.66274E-10 7.65951E-10
 -1       830-1.70511E+05-7.07075E+01-7.00626E+02 4.80178E+03 3.04473E-09 3.59975E-10
 -1       831-1.70393E+05 6.65590E+01-1.25381E+03 7.21331E+02-1.45798E-09-2.80977E-10
 -1       832-1.70913E+05-7.05594E+02-2.77819E+03 4.79875E+03-1.19329E-10-2.56225E-09
 -1       833-1.70038E+05 5.73325E+02-4.87584E+03 7.24881E+02 1.84883E-09-3.42607E-09
 -1       834-1.74167E+05-6.51785E+03-1.22615E+04 4.78158E+03 6.98117E-09-3.60069E-09
 -1       835-1.67138E+05 5.12055E+03-1.87671E+04 7.38959E+02 3.05943E-09-2.18461E-09
 -1       836-1.87732E+03 2.65328E+05 2.11879E+04-1.51748E+04-2.47201E-09-3.31056E-10
 -1       837 4.96767E+03 2.72095E+05 1.62808E+04-3.29017E+04-1.84048E-09 5.58447E-09
 -1       838-4.62731E+02 2.67567E+05 1.38628E+04-1.51323E+04-3.01657E-09 1.83469E-09
 -1       839 8.33308E+03 2.74514E+05 2.38794E+04-3.29029E+04-2.31375E-09-1.85480E-10
 -1       840-3.38859E+03 2.62907E+05 3.64784E+04-1.51731E+04-2.49747E-09 2.52021E-09
 -1       841 4.74829E+04 6.89418E+03-5.66983E+02 1.77017E+04-1.50729E-05 5.65360E-06
 -1       842 4.71083E+04 6.45569E+03-3.90896E+02 1.78957E+04-3.01269E-05 1.13192E-05
 -1       843 4.73556E+04 6.70587E+03-1.30723E+02 1.77585E+04-2.37660E-05 8.92706E-06
 -1       844 4.72612E+04 6.66893E+03-7.75399E+01 1.78239E+04-1.73798E-05 6.53414E-06
 -1       845 4.73299E+04 6.68099E+03-2.07558E+01 1.77735E+04-1.22202E-05 4.58983E-06
 -1       846 4.72959E+04 6.69841E+03 5.37543E+00 1.78031E+04-7.06201E-06 2.65490E-06
 -1       847 4.73209E+04 6.67640E+03 3.68933E+01 1.77793E+04-4.34936E-06 1.62900E-06
 -1       848 4.73206E+04 6.72421E+03 1.01525E+02 1.77926E+04-1.63359E-06 6.16496E-07
 -1       849 4.73052E+04 6.65519E+03 1.90551E+02 1.77841E+04-4.65514E-07 1.75828E-07
 -1       850 4.74193E+04 6.88416E+03 4.83558E+02 1.77655E+04 7.00696E-07-2.65226E-07
 -1       851 4.72222E+04 6.51646E+03 8.35572E+02 1.78063E+04 7.65258E-07-2.88771E-07
 -1       852 4.80108E+04 7.90124E+03 2.25654E+03 1.75878E+04 8.29459E-07-3.11919E-07
 -1       853 4.67137E+04 5.63824E+03 3.60874E+03 1.79616E+04-1.70753E-07 6.55793E-08
 -1       854 5.16603E+04 1.43403E+04 1.07009E+04 1.63891E+04-1.17562E-06 4.40623E-07
 -1       855 4.35728E+04 7.84640E+01 1.54026E+04 1.90047E+04-5.86590E-07 2.21087E-07
 -1       856-1.32645E+05 2.00579E+03-1.59746E+04 4.81673E+03-2.69893E-09-2.05910E-09
 -1       857-1.37866E+05-3.85860E+03-9.75694E+03 1.15237E+04-3.98427E-09-8.63110E-10
 -1       858-1.34901E+05 1.84855E+02-4.10148E+03 4.76567E+03-3.26690E-09-2.07183E-09
 -1       859-1.35415E+05-2.72134E+02-2.20698E+03 1.15811E+04 1.57911E-10 1.52454E-10
 -1       860-1.35115E+05 2.84849E+01-1.03544E+03 4.75833E+03 8.65157E-10-1.09878E-09
 -1       861-1.35186E+05 1.82964E+00-5.44557E+02 1.15907E+04-3.95698E-09-4.99426E-10
 -1       862-1.35142E+05 1.32693E+01-2.84031E+02 4.75603E+03 6.26068E-09-5.00154E-09
 -1       863-1.35160E+05 2.23387E+01-1.87610E+02 1.15932E+04 1.28099E-08-4.61441E-09
 -1       864-1.35145E+05 1.19839E+01-1.76044E+02 4.75580E+03 5.19412E-09-1.12917E-09
 -1       865-1.35167E+05 1.40750E+01-2.65102E+02 1.15911E+04 6.59929E-09-2.93562E-09
 -1       866-1.35133E+05 1.75568E+01-4.67571E+02 4.75812E+03-5.84123E-10-2.87802E-09
 -1       867-1.35263E+05-1.07644E+02-9.75498E+02 1.15828E+04 1.32229E-09-1.38591E-09
 -1       868-1.35038E+05 8.45063E+01-1.80481E+03 4.76420E+03 8.37645E-10-2.57273E-09
 -1       869-1.36333E+05-1.68490E+03-4.28594E+03 1.15283E+04-5.42605E-09 2.05119E-10
 -1       870-1.34045E+05 8.81414E+02-7.01722E+03 4.81300E+03-1.24874E-09-2.93494E-09
 -1       871-2.38360E+03-2.12661E+04-5.44108E+03 7.29390E+04 2.50202E-09 1.30058E-09
 -1       872-8.24926E+02-2.23551E+04-1.80565E+03 8.89546E+04-8.98581E-10-8.46740E-10
 -1       873-2.65900E+00-2.19105E+04 1.17277E+03 7.27903E+04 1.92176E-09 4.04498E-10
 -1       874 1.38216E+03-2.07469E+04 5.01316E+03 8.90015E+04-1.64118E-09 1.59901E-10
 -1       875 4.21138E+03-2.29178E+04 1.07848E+04 7.28973E+04 6.88487E-10-5.19776E-10
 -1       876 2.07821E+05 2.98053E+04 1.83742E+04 8.24501E+04-1.20053E-10-1.08230E-09
 -1       877 2.11250E+05 3.99481E+04 1.09202E+04 8.57005E+04-4.87779E-09-3.31966E-09
 -1       878 2.10543E+05 3.20965E+04 4.29867E+03 8.26001E+04 1.39835E-11 2.70552E-09
 -1       879 2.08039E+05 3.57785E+04 2.24497E+03 8.61524E+04 2.06774E-09 6.92597E-09
 -1       880 2.10788E+05 3.23035E+04 9.97945E+02 8.26226E+04-6.70184E-10 9.29845E-10
 -1       881 2.07750E+05 3.54506E+04 5.21742E+02 8.61585E+04-1.43041E-09 1.07917E-10
 -1       882 2.10813E+05 3.23277E+04 2.91458E+02 8.26278E+04 2.88429E-09-1.58039E-10
 -1       883 2.07725E+05 3.54250E+04 2.56434E+02 8.61521E+04-7.24360E-09 4.41011E-09
 -1       884 2.10810E+05 3.23278E+04 3.51577E+02 8.26283E+04-4.54304E-09-1.09910E-09
 -1       885 2.07765E+05 3.54574E+04 6.83197E+02 8.61556E+04 4.09567E-09 3.54220E-10
 -1       886 2.10773E+05 3.22981E+04 1.33612E+03 8.26233E+04-2.54522E-09-3.28862E-09
 -1       887 2.08159E+05 3.58962E+04 3.02166E+03 8.61411E+04-7.06495E-09 6.69388E-10
 -1       888 2.10438E+05 3.20215E+04 5.79242E+03 8.25941E+04-9.45846E-09-1.83582E-09
 -1       889 2.12477E+05 4.15258E+04 1.47188E+04 8.55395E+04 4.92877E-09 1.67529E-09
 -1       890 2.06778E+05 2.89243E+04 2.47669E+04 8.23794E+04 2.46678E-09 2.69029E-09
 -1       891 3.24222E+02-9.85576E+04-3.95697E+03 2.21504E+04 4.78667E-09-2.19234E-09
 -1       892-9.63401E+02-9.97963E+04-2.96346E+03 4.81883E+04-2.41948E-09-2.84223E-09
 -1       893 6.23694E+01-9.90000E+04-2.41094E+03 2.20883E+04 4.08022E-09 5.91444E-09
 -1       894-1.43616E+03-1.00123E+05-4.02091E+03 4.81719E+04 1.61526E-09 1.13641E-09
 -1       895 5.26731E+02-9.82125E+04-6.08678E+03 2.21665E+04 2.73394E-09 1.35924E-09
 -1       926-3.21361E+02-6.21310E+02 1.42725E+03 1.98456E+01 1.93575E-10-6.39147E-10
 -1       927 3.68777E+02 7.19490E+02 1.03337E+03-7.84677E+01-1.58353E-09-8.78060E-10
 -1       928-7.39734E+01-9.82204E+01 3.94659E+02 1.93895E+01 2.44382E-11-4.12257E-10
 -1       929 7.80554E+01 1.17642E+02 2.98197E+02-7.79903E+01 1.09356E-09-4.69392E-10
 -1       930-3.07348E+01-1.95110E+01 2.08942E+02 1.93681E+01 2.70077E-11-2.13470E-10
 -1       931 3.95894E+01 5.03904E+01 3.07469E+02-7.79636E+01-1.87685E-09-1.55467E-10
 -1       932-3.55824E+01-3.09301E+01 4.90919E+02 1.93627E+01-2.13282E-06 9.31095E-11
 -1       933 1.31488E+02 2.17688E+02 1.04550E+03-7.79423E+01-4.26236E-06-5.44560E-11
 -1       934-1.22684E+02-1.86753E+02 1.87304E+03 1.93468E+01-2.93435E-06-1.90653E-10
 -1       935 7.42783E+02 1.38671E+03 4.30727E+03-7.78425E+01-1.60360E-06-2.78533E-11
 -1       936-6.46845E+02-1.19973E+03 7.40626E+03 1.92630E+01-7.59049E-07 1.63709E-11
 -1       937 4.37891E+03 8.86596E+03 1.82808E+04-7.75991E+01 8.75208E-08 2.95358E-10
 -1       938-3.75768E+03-7.66437E+03 2.90827E+04 1.91035E+01 1.45678E-07-5.27507E-11
 -1       939 2.62964E+04 5.64254E+04 7.95818E+04-8.09797E+01 1.94298E-07 9.18590E-11
 -1       940-2.25453E+04-4.87457E+04 1.12448E+05 2.26427E+01 9.72736E-08 5.45697E-10
 -1       956-1.87873E+05-3.46533E+03-8.07449E+03 2.30226E+04-2.51384E-09 8.04903E-10
 -1       957-1.89424E+05-1.12866E+03-4.11565E+03 2.73050E+04-3.08319E-10 8.08086E-10
 -1       958-1.88573E+05-1.03688E+02-1.85348E+03 2.28832E+04 3.42334E-09-2.04636E-09
 -1       959-1.88708E+05-1.07468E+01-9.44676E+02 2.74569E+04-1.89902E-09-3.46972E-10
 -1       960-1.88644E+05 3.47102E+01-4.59136E+02 2.28697E+04 5.17866E-09-1.15915E-09
 -1       961-1.88660E+05 3.77472E+01-2.41194E+02 2.74720E+04 1.17325E-08 1.28944E-09
 -1       962-1.88662E+05 3.49989E+01-1.33902E+02 2.28679E+04 5.63296E-09-1.36515E-09
 -1       963-1.88661E+05 4.07965E+01-1.00047E+02 2.74743E+04-3.69437E-09 1.82217E-09
 -1       964-1.88668E+05 3.72496E+01-1.12414E+02 2.28674E+04 1.69166E-09-1.45928E-09
 -1       965-1.88669E+05 4.32691E+01-1.86772E+02 2.74741E+04 4.93578E-09-2.41926E-10
 -1       966-1.88662E+05 4.13585E+01-3.46495E+02 2.28681E+04-1.40608E-09-1.74487E-09
 -1       967-1.88713E+05 1.12426E+01-7.09192E+02 2.74652E+04-1.63709E-11-1.03933E-09
 -1       968-1.88614E+05-5.86091E+01-1.38891E+03 2.28763E+04-8.53561E-10-2.19336E-09
 -1       969-1.89256E+05-8.23520E+02-3.08460E+03 2.73714E+04-1.41995E-09-3.49701E-10
 -1       970-1.88094E+05-2.57638E+03-6.05071E+03 2.29636E+04 3.23325E-10-5.94810E-10
 -1       971-2.39986E+05 6.80127E+02-1.05462E+04 6.30909E+03-3.09046E-09-2.09047E-09
 -1       972-2.43227E+05-2.18955E+03-6.27836E+03 1.27543E+04-2.54863E-09-3.83125E-11
 -1       973-2.41415E+05 7.32455E+01-2.69000E+03 6.23828E+03-4.07681E-09-1.30058E-09
 -1       974-2.41698E+05-1.21418E+02-1.43111E+03 1.28353E+04-3.58114E-10 9.14270E-10
 -1       975-2.41541E+05 1.98716E+01-6.90680E+02 6.22744E+03 1.58025E-10 6.71719E-10
 -1       976-2.41573E+05 1.59571E+01-3.82685E+02 1.28504E+04-2.98121E-09-4.38604E-10
 -1       977-2.41557E+05 1.51682E+01-2.43392E+02 6.22308E+03 1.19667E-09-2.03136E-09
 -1       978-2.41566E+05 2.56432E+01-2.40836E+02 1.28562E+04 6.72824E-09-3.00855E-09
 -1       979-2.41556E+05 1.75364E+01-3.48456E+02 6.22157E+03 2.64926E-10-9.77877E-10
 -1       980-2.41595E+05 1.13629E+01-6.53751E+02 1.28561E+04-1.08750E-09-1.74589E-09
 -1       981-2.41529E+05 3.14749E+01-1.24440E+03 6.22322E+03-1.21281E-09-1.16120E-09
 -1       982-2.41839E+05-2.35088E+02-2.61965E+03 1.28482E+04-4.58385E-10-1.18980E-09
 -1       983-2.41304E+05 1.35824E+02-4.93861E+03 6.22965E+03 2.06182E-09-2.02544E-09
 -1       984-2.44669E+05-4.03171E+03-1.15445E+04 1.27892E+04 2.65118E-10 1.46429E-09
 -1       985-2.38683E+05 1.25996E+03-1.93901E+04 6.28402E+03 8.22638E-10-1.70985E-10
 -3
    1PSTEP                        13           7           1          
  100CL  107 4.38477E-01         608                     0    7           1
 -4  DISP        4    1
 -5  D1          1    2    1    0
 -5  D2          1    2    2    0
 -5  D3          1    2    3    0
 -5  ALL         1    2    0    0    1ALL
 -1         1 7.03674E-05 0.00000E+00 0.00000E+00
 -1         2 5.77223E-05 0.00000E+00 0.00000E+00
 -1         3 4.22148E-05 0.00000E+00 0.00000E+00
 -1         4 3.79771E-05 0.00000E+00 0.00000E+00
 -1         5 3.58889E-05 0.00000E+00 0.00000E+00
 -1         8 5.63996E-05-6.56120E-07 0.00000E+00
 -1         9 4.12589E-05-3.45379E-07 0.00000E+00
 -1        10 4.30138E-05-1.35413E-06 0.00000E+00
 -1        11 3.90643E-05-2.28871E-07 0.00000E+00
 -1        12 3.51490E-05 5.45150E-07 0.00000E+00
 -1        15 4.12531E-05-6.93744E-07-2.06795E-25
 -1        16 3.38006E-05-4.25841E-07 0.00000E+00
 -1        17 3.18422E-05-2.79767E-06 0.00000E+00
 -1        18 3.20708E-05-4.43807E-07 0.00000E+00
 -1        19 3.30721E-05 1.08383E-06 0.00000E+00
 -1        20 3.33993E-05 1.29142E-05 0.00000E+00
 -1        21 3.33004E-05 2.82893E-05 0.00000E+00
 -1        23 1.20764E-05-4.47042E-05 0.00000E+00
 -1        24 1.19930E-05-3.37536E-06 0.00000E+00
 -1        25 2.98990E-05-2.83936E-07 0.00000E+00
 -1        26 3.07089E-05 1.45966E-06 0.00000E+00
 -1        27 2.97439E-05 1.23825E-05 0.00000E+00
 -1        28 2.89721E-05 2.78134E-05 0.00000E+00
 -1        31 3.48933E-08-3.41889E-06 0.00000E+00
 -1        32 0.00000E+00 0.00000E+00 0.00000E+00
 -1        33 2.80491E-05 2.01729E-06 0.00000E+00
 -1        34 2.69736E-05 1.23333E-05 0.00000E+00
 -1        35 2.55966E-05 2.76030E-05 0.00000E+00
 -1        36 6.96011E-05 3.42391E-21 1.32349E-23
 -1        37 6.88104E-05-8.76110E-20 0.00000E+00
 -1        38 6.80214E-05-1.25185E-19 0.00000E+00
 -1        39 6.72276E-05-1.31254E-19 1.32349E-23
 -1        40 6.64338E-05 5.31927E-20 0.00000E+00
 -1        41 6.56390E-05 1.34505E-19 0.00000E+00
 -1        42 6.48441E-05-9.16357E-20-2.64698E-23
 -1        43 6.40490E-05 9.91459E-21 1.32349E-23
 -1        44 6.32540E-05 3.70693E-19-2.64698E-23
 -1        45 6.24590E-05 1.36729E-19 1.32349E-23
 -1        46 6.16642E-05-1.94520E-19 0.00000E+00
 -1        47 6.08700E-05 3.97224E-19 0.00000E+00
 -1        48 6.00760E-05 7.25188E-19 2.64698E-23
 -1        49 5.92857E-05 4.78811E-19-1.32349E-23
 -1        50 5.84942E-05 1.16381E-19 1.32349E-23
 -1        51 6.93295E-05-1.09760E-07 0.00000E+00
 -1        52 6.75901E-05-2.16129E-07 0.00000E+00
 -1        53 6.52849E-05-3.22329E-07 0.00000E+00
 -1        54 6.25561E-05-4.29618E-07 0.00000E+00
 -1        55 5.95465E-05-5.39211E-07-2.48154E-24
 -1        56 6.89370E-05-8.85275E-07 2.64698E-23
 -1        57 6.76643E-05-2.36957E-06 2.64698E-23
 -1        58 6.65361E-05-4.22927E-06 0.00000E+00
 -1        59 6.54561E-05-6.24939E-06 0.00000E+00
 -1        60 6.43406E-05-8.17515E-06 5.29396E-23
 -1        61 6.30960E-05-9.76117E-06-2.64698E-23
 -1        62 6.16568E-05-1.08280E-05-5.29396E-23
 -1        63 5.99658E-05-1.12236E-05 2.64698E-23
 -1        64 5.80146E-05-1.09268E-05 0.00000E+00
 -1        65 5.58087E-05-9.95225E-06-2.64698E-23
 -1        66 5.34028E-05-8.44680E-06 0.00000E+00
 -1        67 5.08642E-05-6.58408E-06 2.64698E-23
 -1        68 4.82831E-05-4.60846E-06-5.29396E-23
 -1        69 4.57637E-05-2.76570E-06 2.64698E-23
 -1        70 4.33765E-05-1.28415E-06 0.00000E+00
 -1        86 5.68003E-05-6.12748E-08 0.00000E+00
 -1        87 5.41025E-05-1.15436E-07 0.00000E+00
 -1        88 5.04122E-05-1.73204E-07 0.00000E+00
 -1        89 4.65147E-05-2.31118E-07 0.00000E+00
 -1        90 4.32005E-05-2.86560E-07-3.30872E-24
 -1        91 5.68783E-05-2.23374E-07 0.00000E+00
 -1        92 5.59505E-05-2.89572E-07 0.00000E+00
 -1        93 5.50066E-05-3.08153E-07 0.00000E+00
 -1        94 5.40862E-05-4.01248E-07 0.00000E+00
 -1        95 5.31761E-05-5.22070E-07 0.00000E+00
 -1        96 5.22583E-05-6.24493E-07 0.00000E+00
 -1        97 5.13342E-05-7.10055E-07 2.64698E-23
 -1        98 5.04045E-05-7.81253E-07 1.32349E-23
 -1        99 4.94808E-05-8.68399E-07-2.64698E-23
 -1       100 4.85743E-05-1.00119E-06 1.32349E-23
 -1       101 4.76584E-05-1.10853E-06 0.00000E+00
 -1       102 4.67074E-05-1.11993E-06 0.00000E+00
 -1       103 4.57742E-05-1.17861E-06-2.64698E-23
 -1       104 4.49162E-05-1.42403E-06 1.32349E-23
 -1       105 4.40220E-05-1.57807E-06-1.32349E-23
 -1       106 4.19511E-05 2.46597E-19 0.00000E+00
 -1       107 4.16858E-05 9.47613E-19 0.00000E+00
 -1       108 4.14206E-05 1.23777E-18 0.00000E+00
 -1       109 4.11551E-05 9.69582E-19-3.30872E-24
 -1       110 4.08896E-05 4.86450E-19 0.00000E+00
 -1       111 4.06241E-05-7.20130E-20-3.30872E-24
 -1       112 4.03585E-05-1.89706E-19 0.00000E+00
 -1       113 4.00930E-05 1.51542E-19 3.30872E-24
 -1       114 3.98274E-05 6.69393E-19 0.00000E+00
 -1       115 3.95619E-05 7.33633E-19 0.00000E+00
 -1       116 3.92964E-05 3.64345E-19-6.61744E-24
 -1       117 3.90311E-05-1.74053E-19 3.30872E-24
 -1       118 3.87659E-05-5.79226E-19 6.61744E-24
 -1       119 3.85015E-05-2.97444E-19 0.00000E+00
 -1       120 3.82369E-05-1.46835E-20-6.61744E-24
 -1       121 4.23834E-05-2.25589E-07 6.61744E-24
 -1       122 4.27469E-05-4.51146E-07 0.00000E+00
 -1       123 4.31485E-05-6.76731E-07 0.00000E+00
 -1       124 4.34311E-05-9.02348E-07 0.00000E+00
 -1       125 4.34381E-05-1.12793E-06 6.61744E-24
 -1       141 3.78451E-05-3.23015E-19 0.00000E+00
 -1       142 3.77135E-05-1.31678E-18 0.00000E+00
 -1       143 3.75820E-05-2.43899E-18 0.00000E+00
 -1       144 3.74505E-05-3.10372E-18-1.65436E-24
 -1       145 3.73190E-05-3.03713E-18 0.00000E+00
 -1       146 3.71876E-05-2.15636E-18 1.65436E-24
 -1       147 3.70561E-05-8.24118E-19-3.30872E-24
 -1       148 3.69247E-05 8.83259E-20 0.00000E+00
 -1       149 3.67933E-05 1.04716E-20 0.00000E+00
 -1       150 3.66619E-05-8.14452E-19 0.00000E+00
 -1       151 3.65306E-05-1.81754E-18 0.00000E+00
 -1       152 3.63997E-05-2.39269E-18-1.65436E-24
 -1       153 3.62688E-05-2.53393E-18 0.00000E+00
 -1       154 3.61396E-05-1.69054E-18 8.27181E-25
 -1       155 3.60098E-05-4.93428E-19 8.27181E-25
 -1       156 3.87974E-05-3.80348E-08 0.00000E+00
 -1       157 4.12497E-05-7.42983E-08 8.27181E-25
 -1       158 4.38466E-05-1.11208E-07-1.65436E-24
 -1       159 4.51004E-05-1.45531E-07-8.27181E-25
 -1       160 4.38816E-05-1.80003E-07-3.30872E-24
 -1       161 3.80895E-05-7.36906E-07-3.30872E-24
 -1       162 3.87105E-05-2.83562E-06 0.00000E+00
 -1       163 3.93209E-05-4.90599E-06-3.30872E-24
 -1       164 3.94015E-05-5.55800E-06-1.65436E-24
 -1       165 3.89526E-05-4.79862E-06 0.00000E+00
 -1       166 3.79783E-05-2.64409E-06 1.65436E-24
 -1       167 3.70031E-05-4.87281E-07 3.30872E-24
 -1       168 3.65517E-05 2.78934E-07 1.65436E-24
 -1       169 3.66302E-05-3.67622E-07-3.30872E-24
 -1       170 3.72415E-05-2.43985E-06 0.00000E+00
 -1       171 3.78650E-05-4.54493E-06 0.00000E+00
 -1       172 3.79808E-05-5.28971E-06-1.65436E-24
 -1       173 3.75668E-05-4.62168E-06-3.30872E-24
 -1       174 3.66062E-05-2.49691E-06 0.00000E+00
 -1       175 3.56217E-05-3.10949E-07-8.27181E-25
 -1       191 3.58654E-05 9.08331E-08-3.30872E-24
 -1       192 3.58014E-05 1.81728E-07 1.65436E-24
 -1       193 3.56971E-05 2.72635E-07-3.30872E-24
 -1       194 3.55530E-05 3.63532E-07 0.00000E+00
 -1       195 3.53700E-05 4.54396E-07 3.30872E-24
 -1       266 5.38752E-05-6.72009E-07 0.00000E+00
 -1       267 5.13508E-05-6.77102E-07 0.00000E+00
 -1       268 4.88264E-05-6.82896E-07 0.00000E+00
 -1       269 4.63020E-05-6.86647E-07 2.06795E-25
 -1       270 4.37776E-05-6.90359E-07-4.13590E-25
 -1       271 5.43600E-05 1.14786E-06 2.64698E-23
 -1       272 5.24693E-05 2.43248E-06-1.32349E-23
 -1       273 5.07533E-05 3.25673E-06 0.00000E+00
 -1       274 4.91859E-05 3.66750E-06 0.00000E+00
 -1       275 4.77517E-05 3.72176E-06 2.64698E-23
 -1       276 4.64278E-05 3.47909E-06 0.00000E+00
 -1       277 4.51910E-05 3.00341E-06 0.00000E+00
 -1       278 4.40164E-05 2.36152E-06-1.32349E-23
 -1       279 4.28782E-05 1.62240E-06 2.64698E-23
 -1       280 4.17502E-05 8.56389E-07 0.00000E+00
 -1       281 4.06060E-05 1.34065E-07-2.64698E-23
 -1       282 3.94202E-05-4.74387E-07 0.00000E+00
 -1       283 3.81665E-05-9.00562E-07 0.00000E+00
 -1       284 3.68248E-05-1.07672E-06 0.00000E+00
 -1       285 3.53653E-05-9.42255E-07 0.00000E+00
 -1       286 4.13550E-05 5.71672E-07 0.00000E+00
 -1       287 4.14652E-05 8.84618E-07 0.00000E+00
 -1       288 4.15746E-05 8.33688E-07 1.65436E-24
 -1       289 4.16866E-05 6.57123E-07-1.65436E-24
 -1       290 4.17986E-05 4.05051E-07 3.30872E-24
 -1       291 4.19112E-05 1.27212E-07 1.65436E-24
 -1       292 4.20238E-05-1.65770E-07 0.00000E+00
 -1       293 4.21365E-05-4.63360E-07 1.65436E-24
 -1       294 4.22492E-05-7.62024E-07 0.00000E+00
 -1       295 4.23619E-05-1.05823E-06 1.65436E-24
 -1       296 4.24744E-05-1.34472E-06-3.30872E-24
 -1       297 4.25864E-05-1.61419E-06 0.00000E+00
 -1       298 4.26984E-05-1.83347E-06-1.65436E-24
 -1       299 4.28077E-05-1.96915E-06 4.13590E-25
 -1       300 4.29179E-05-1.86266E-06 0.00000E+00
 -1       301 4.00123E-05-3.62519E-07 0.00000E+00
 -1       302 3.87559E-05-3.70229E-07 1.65436E-24
 -1       303 3.74981E-05-3.76955E-07 0.00000E+00
 -1       304 3.62474E-05-3.84755E-07 0.00000E+00
 -1       305 3.50121E-05-3.95615E-07 0.00000E+00
 -1       306 4.03539E-05 3.86115E-07 1.32349E-23
 -1       307 3.96197E-05 6.18902E-07 0.00000E+00
 -1       308 3.90427E-05 4.34382E-07-1.32349E-23
 -1       309 3.85905E-05-8.95641E-08 0.00000E+00
 -1       310 3.82346E-05-8.71434E-07 0.00000E+00
 -1       311 3.79440E-05-1.82884E-06 6.61744E-24
 -1       312 3.76877E-05-2.87819E-06-1.32349E-23
 -1       313 3.74343E-05-3.93542E-06 0.00000E+00
 -1       314 3.71524E-05-4.91637E-06-1.32349E-23
 -1       315 3.68107E-05-5.73736E-06-6.61744E-24
 -1       316 3.63782E-05-6.31575E-06 1.32349E-23
 -1       317 3.58249E-05-6.57025E-06 0.00000E+00
 -1       318 3.51207E-05-6.42175E-06 1.32349E-23
 -1       319 3.42392E-05-5.79264E-06 6.61744E-24
 -1       320 3.31489E-05-4.61032E-06 0.00000E+00
 -1       321 4.27734E-05 9.95114E-07 0.00000E+00
 -1       322 4.25208E-05 6.59598E-06 3.30872E-24
 -1       323 4.22741E-05 1.06065E-05-6.61744E-24
 -1       324 4.20323E-05 8.20235E-06 3.30872E-24
 -1       325 4.17796E-05 2.51120E-06-6.61744E-24
 -1       326 4.15262E-05-3.30350E-06 0.00000E+00
 -1       327 4.12839E-05-5.92499E-06 6.61744E-24
 -1       328 4.10378E-05-2.07102E-06 0.00000E+00
 -1       329 4.07853E-05 3.51302E-06 0.00000E+00
 -1       330 4.05446E-05 6.06316E-06 0.00000E+00
 -1       331 4.03054E-05 4.58030E-06-6.61744E-24
 -1       332 4.00473E-05-1.89080E-06-3.30872E-24
 -1       333 3.97905E-05-8.11754E-06 6.61744E-24
 -1       334 3.95527E-05-8.86975E-06 0.00000E+00
 -1       335 3.93113E-05-5.70637E-06-6.61744E-24
 -1       336 4.20153E-05-1.59467E-06-6.61744E-24
 -1       337 4.05333E-05-1.83570E-06-3.30872E-24
 -1       338 3.86704E-05-2.07722E-06 0.00000E+00
 -1       339 3.65309E-05-2.31855E-06 0.00000E+00
 -1       340 3.42198E-05-2.56035E-06 6.61744E-24
 -1       356 3.88179E-05 5.13487E-06 6.61744E-24
 -1       357 3.85775E-05 7.95830E-06 0.00000E+00
 -1       358 3.83397E-05 6.92911E-06 0.00000E+00
 -1       359 3.80836E-05 7.76913E-07 0.00000E+00
 -1       360 3.78272E-05-5.41469E-06 0.00000E+00
 -1       361 3.75884E-05-6.56187E-06-3.30872E-24
 -1       362 3.73475E-05-3.83849E-06 0.00000E+00
 -1       363 3.70963E-05 1.53952E-06 0.00000E+00
 -1       364 3.68515E-05 5.06157E-06 6.61744E-24
 -1       365 3.66089E-05 2.23703E-06 0.00000E+00
 -1       366 3.63559E-05-3.55591E-06 0.00000E+00
 -1       367 3.61058E-05-8.90701E-06 0.00000E+00
 -1       368 3.58658E-05-1.09525E-05 6.61744E-24
 -1       369 3.56223E-05-6.86459E-06 3.30872E-24
 -1       370 3.53731E-05-1.43137E-06-1.65436E-24
 -1       371 3.37624E-05-2.79784E-07 0.00000E+00
 -1       372 3.10917E-05-3.16365E-07 8.27181E-25
 -1       373 3.03908E-05-3.49778E-07 0.00000E+00
 -1       374 3.09952E-05-3.81905E-07-4.13590E-25
 -1       375 3.18927E-05-4.14301E-07 2.06795E-25
 -1       406 3.48823E-05 6.35408E-07-3.30872E-24
 -1       407 3.45807E-05 7.25699E-07-1.65436E-24
 -1       408 3.42464E-05 8.15936E-07-3.30872E-24
 -1       409 3.38819E-05 9.05976E-07 1.65436E-24
 -1       410 3.34895E-05 9.95606E-07-3.30872E-24
 -1       501 3.36994E-05 3.48106E-06-6.61744E-24
 -1       502 3.35790E-05 1.28256E-05 3.30872E-24
 -1       503 3.34459E-05 2.34731E-05-3.30872E-24
 -1       504 3.33410E-05 3.12862E-05 1.65436E-24
 -1       505 3.32602E-05 3.36798E-05 0.00000E+00
 -1       506 3.31678E-05 2.80877E-05-1.65436E-24
 -1       507 3.30248E-05 1.62274E-05-1.65436E-24
 -1       508 3.28204E-05-1.62057E-07-8.27181E-25
 -1       509 3.26116E-05-1.68456E-05 0.00000E+00
 -1       510 3.24587E-05-2.95869E-05 8.27181E-25
 -1       511 3.23596E-05-3.63285E-05 0.00000E+00
 -1       512 3.22814E-05-3.50334E-05 8.27181E-25
 -1       513 3.21825E-05-2.79732E-05 0.00000E+00
 -1       514 3.20537E-05-1.74397E-05 0.00000E+00
 -1       515 3.19318E-05-7.64468E-06 0.00000E+00
 -1       521 3.22294E-05 4.58952E-08 2.64698E-23
 -1       522 3.07878E-05 6.82263E-08 0.00000E+00
 -1       523 2.94861E-05-2.78864E-07 0.00000E+00
 -1       524 2.82908E-05-9.25527E-07 0.00000E+00
 -1       525 2.71781E-05-1.79405E-06 0.00000E+00
 -1       526 2.61179E-05-2.80548E-06 2.64698E-23
 -1       527 2.50806E-05-3.87857E-06 0.00000E+00
 -1       528 2.40355E-05-4.93153E-06-2.64698E-23
 -1       529 2.29524E-05-5.88274E-06-5.29396E-23
 -1       530 2.18013E-05-6.65199E-06 0.00000E+00
 -1       531 2.05530E-05-7.16156E-06 2.64698E-23
 -1       532 1.91804E-05-7.33702E-06 0.00000E+00
 -1       533 1.76567E-05-7.10876E-06 0.00000E+00
 -1       534 1.59624E-05-6.41090E-06 0.00000E+00
 -1       535 1.40691E-05-5.18769E-06 0.00000E+00
 -1       536 3.18481E-05-7.10459E-07 0.00000E+00
 -1       537 3.18609E-05 8.72632E-07 0.00000E+00
 -1       538 3.18741E-05 2.00416E-06 0.00000E+00
 -1       539 3.18886E-05 2.73694E-06-7.75482E-26
 -1       540 3.19035E-05 3.12359E-06 2.06795E-25
 -1       541 3.19186E-05 3.21675E-06 2.06795E-25
 -1       542 3.19338E-05 3.06898E-06 0.00000E+00
 -1       543 3.19489E-05 2.73278E-06-2.06795E-25
 -1       544 3.19640E-05 2.26066E-06 4.13590E-25
 -1       545 3.19791E-05 1.70508E-06-2.06795E-25
 -1       546 3.19942E-05 1.11849E-06-4.13590E-25
 -1       547 3.20093E-05 5.53336E-07 0.00000E+00
 -1       548 3.20245E-05 6.20641E-08 0.00000E+00
 -1       549 3.20398E-05-3.02868E-07-4.13590E-25
 -1       550 3.20551E-05-4.88953E-07-8.27181E-25
 -1       551 2.88941E-05-2.88981E-06-2.48154E-24
 -1       552 2.55879E-05-2.98131E-06-8.27181E-25
 -1       553 2.20829E-05-3.07362E-06-3.30872E-24
 -1       554 1.85411E-05-3.16760E-06 3.30872E-24
 -1       555 1.51246E-05-3.26394E-06 1.32349E-23
 -1       556 3.10222E-05-7.96411E-07 0.00000E+00
 -1       557 3.03816E-05 7.39557E-07 0.00000E+00
 -1       558 2.99002E-05 1.85392E-06-6.61744E-24
 -1       559 2.95600E-05 2.59425E-06 0.00000E+00
 -1       560 2.93425E-05 3.00807E-06 0.00000E+00
 -1       561 2.92298E-05 3.14323E-06 3.30872E-24
 -1       562 2.92037E-05 3.04763E-06 0.00000E+00
 -1       563 2.92462E-05 2.76920E-06 3.30872E-24
 -1       564 2.93392E-05 2.35590E-06 3.30872E-24
 -1       565 2.94648E-05 1.85572E-06 0.00000E+00
 -1       566 2.96049E-05 1.31664E-06-1.65436E-24
 -1       567 2.97417E-05 7.86663E-07 4.13590E-25
 -1       568 2.98572E-05 3.13777E-07-8.27181E-25
 -1       569 2.99335E-05-5.40849E-08-4.13590E-25
 -1       570 2.99528E-05-2.69008E-07 0.00000E+00
 -1       571 3.21313E-05-3.20030E-07 1.65436E-24
 -1       572 3.21933E-05-2.36352E-07 4.13590E-25
 -1       573 3.22558E-05-1.85341E-07-8.27181E-25
 -1       574 3.23185E-05-1.59187E-07 0.00000E+00
 -1       575 3.23813E-05-1.50052E-07-1.65436E-24
 -1       576 3.24442E-05-1.50045E-07 8.27181E-25
 -1       577 3.25070E-05-1.51271E-07 1.65436E-24
 -1       578 3.25699E-05-1.45830E-07 0.00000E+00
 -1       579 3.26328E-05-1.25819E-07-3.30872E-24
 -1       580 3.26956E-05-8.33387E-08-3.30872E-24
 -1       581 3.27585E-05-1.04874E-08 0.00000E+00
 -1       582 3.28213E-05 1.00627E-07 3.30872E-24
 -1       583 3.28841E-05 2.57891E-07 0.00000E+00
 -1       584 3.29469E-05 4.69107E-07-1.65436E-24
 -1       585 3.30096E-05 7.42035E-07 0.00000E+00
 -1       586 3.17571E-05-4.16533E-07-1.65436E-24
 -1       587 3.13943E-05-3.89248E-07 0.00000E+00
 -1       588 3.10047E-05-3.62035E-07 8.27181E-25
 -1       589 3.06107E-05-3.35061E-07 2.58494E-26
 -1       590 3.02347E-05-3.08582E-07 0.00000E+00
 -1       591 3.19784E-05-2.96352E-07-4.13590E-25
 -1       592 3.18935E-05-1.77210E-07-4.13590E-25
 -1       593 3.18166E-05-8.05876E-08-1.65436E-24
 -1       594 3.17458E-05-1.34499E-09 0.00000E+00
 -1       595 3.16796E-05 6.56810E-08 0.00000E+00
 -1       596 3.16159E-05 1.25610E-07 4.13590E-25
 -1       597 3.15530E-05 1.83557E-07 8.27181E-25
 -1       598 3.14888E-05 2.44630E-07 0.00000E+00
 -1       599 3.14216E-05 3.13938E-07 0.00000E+00
 -1       600 3.13494E-05 3.96588E-07 0.00000E+00
 -1       601 3.12703E-05 4.97688E-07 8.27181E-25
 -1       602 3.11824E-05 6.22350E-07-2.06795E-25
 -1       603 3.10839E-05 7.75689E-07 8.27181E-25
 -1       604 3.09729E-05 9.62850E-07 0.00000E+00
 -1       605 3.08478E-05 1.18897E-06 2.06795E-25
 -1       606 3.30949E-05 1.54478E-06 0.00000E+00
 -1       607 3.31160E-05 2.05971E-06 0.00000E+00
 -1       608 3.31368E-05 2.62539E-06 0.00000E+00
 -1       609 3.31572E-05 3.23819E-06 0.00000E+00
 -1       610 3.31776E-05 3.89445E-06 1.65436E-24
 -1       611 3.31979E-05 4.59044E-06 0.00000E+00
 -1       612 3.32182E-05 5.32242E-06 0.00000E+00
 -1       613 3.32385E-05 6.08668E-06-1.65436E-24
 -1       614 3.32587E-05 6.87946E-06 0.00000E+00
 -1       615 3.32789E-05 7.69704E-06-1.65436E-24
 -1       616 3.32991E-05 8.53569E-06 1.65436E-24
 -1       617 3.33193E-05 9.39166E-06 0.00000E+00
 -1       618 3.33394E-05 1.02612E-05-8.27181E-25
 -1       619 3.33595E-05 1.11407E-05 4.13590E-25
 -1       620 3.33795E-05 1.20262E-05 0.00000E+00
 -1       621 3.26449E-05 1.14680E-06-1.65436E-24
 -1       622 3.22240E-05 1.20998E-06-8.27181E-25
 -1       623 3.18147E-05 1.27313E-06 0.00000E+00
 -1       624 3.14222E-05 1.33612E-06 0.00000E+00
 -1       625 3.10519E-05 1.39880E-06-8.27181E-25
 -1       626 3.29461E-05 1.57353E-06 0.00000E+00
 -1       627 3.27986E-05 2.11964E-06 0.00000E+00
 -1       628 3.26318E-05 2.71677E-06-3.30872E-24
 -1       629 3.24481E-05 3.35896E-06 0.00000E+00
 -1       630 3.22496E-05 4.04025E-06 0.00000E+00
 -1       631 3.20388E-05 4.75456E-06 1.65436E-24
 -1       632 3.18178E-05 5.49587E-06 0.00000E+00
 -1       633 3.15889E-05 6.25811E-06 0.00000E+00
 -1       634 3.13544E-05 7.03523E-06 1.65436E-24
 -1       635 3.11167E-05 7.82116E-06 0.00000E+00
 -1       636 3.08778E-05 8.60987E-06 1.65436E-24
 -1       637 3.06402E-05 9.39529E-06 4.13590E-25
 -1       638 3.04060E-05 1.01713E-05 1.65436E-24
 -1       639 3.01774E-05 1.09320E-05-4.13590E-25
 -1       640 2.99564E-05 1.16711E-05 8.27181E-25
 -1       641 3.33944E-05 1.38084E-05 0.00000E+00
 -1       642 3.33886E-05 1.47472E-05 6.46235E-27
 -1       643 3.33829E-05 1.57242E-05-1.03398E-25
 -1       644 3.33769E-05 1.67326E-05 0.00000E+00
 -1       645 3.33709E-05 1.77644E-05-2.06795E-25
 -1       646 3.33649E-05 1.88115E-05-1.03398E-25
 -1       647 3.33589E-05 1.98650E-05 0.00000E+00
 -1       648 3.33528E-05 2.09161E-05-1.03398E-25
 -1       649 3.33468E-05 2.19561E-05 0.00000E+00
 -1       650 3.33408E-05 2.29762E-05 0.00000E+00
 -1       651 3.33347E-05 2.39687E-05 0.00000E+00
 -1       652 3.33286E-05 2.49259E-05-2.06795E-25
 -1       653 3.33225E-05 2.58416E-05 0.00000E+00
 -1       654 3.33159E-05 2.67098E-05-4.13590E-25
 -1       655 3.33096E-05 2.75270E-05 0.00000E+00
 -1       656 3.26186E-05 1.28283E-05 0.00000E+00
 -1       657 3.19710E-05 1.27382E-05 8.27181E-25
 -1       658 3.14083E-05 1.26483E-05 1.65436E-24
 -1       659 3.08818E-05 1.25584E-05 0.00000E+00
 -1       660 3.03432E-05 1.24684E-05-8.27181E-25
 -1       661 3.31270E-05 1.38277E-05 0.00000E+00
 -1       662 3.28460E-05 1.47711E-05 8.27181E-25
 -1       663 3.25562E-05 1.57379E-05 1.65436E-24
 -1       664 3.22600E-05 1.67224E-05 0.00000E+00
 -1       665 3.19594E-05 1.77187E-05 1.65436E-24
 -1       666 3.16566E-05 1.87212E-05 0.00000E+00
 -1       667 3.13537E-05 1.97240E-05 1.65436E-24
 -1       668 3.10528E-05 2.07214E-05 0.00000E+00
 -1       669 3.07560E-05 2.17076E-05 0.00000E+00
 -1       670 3.04657E-05 2.26770E-05 8.27181E-25
 -1       671 3.01838E-05 2.36238E-05 0.00000E+00
 -1       672 2.99125E-05 2.45420E-05 0.00000E+00
 -1       673 2.96540E-05 2.54261E-05 0.00000E+00
 -1       674 2.94100E-05 2.62700E-05-8.27181E-25
 -1       675 2.91832E-05 2.70682E-05 8.27181E-25
 -1       676 3.25654E-05 2.82094E-05-1.65436E-24
 -1       677 3.18328E-05 2.81295E-05 0.00000E+00
 -1       678 3.11048E-05 2.80496E-05 1.65436E-24
 -1       679 3.03838E-05 2.79700E-05-8.27181E-25
 -1       680 2.96721E-05 2.78905E-05 0.00000E+00
 -1       716 1.20732E-05-4.21211E-05 4.03897E-28
 -1       717 1.20700E-05-3.95381E-05 0.00000E+00
 -1       718 1.20668E-05-3.69550E-05 0.00000E+00
 -1       719 1.20636E-05-3.43720E-05-1.61559E-27
 -1       720 1.20604E-05-3.17889E-05-6.46235E-27
 -1       721 1.20571E-05-2.92058E-05-6.46235E-27
 -1       722 1.20539E-05-2.66228E-05 2.58494E-26
 -1       723 1.20507E-05-2.40397E-05-2.58494E-26
 -1       724 1.20474E-05-2.14567E-05 0.00000E+00
 -1       725 1.20439E-05-1.88736E-05-1.03398E-25
 -1       726 1.20404E-05-1.62906E-05 0.00000E+00
 -1       727 1.20362E-05-1.37075E-05 0.00000E+00
 -1       728 1.20319E-05-1.11245E-05 1.65436E-24
 -1       729 1.20242E-05-8.54140E-06 0.00000E+00
 -1       730 1.20176E-05-5.95834E-06 0.00000E+00
 -1       766 9.49973E-06-3.39970E-06-6.61744E-24
 -1       767 7.18583E-06-3.40565E-06 0.00000E+00
 -1       768 5.06696E-06-3.41234E-06 0.00000E+00
 -1       769 3.15880E-06-3.41520E-06 0.00000E+00
 -1       770 1.47643E-06-3.41752E-06-4.13590E-25
 -1       771 1.05502E-05-1.30166E-06 0.00000E+00
 -1       772 9.25911E-06 3.50615E-07 0.00000E+00
 -1       773 8.11229E-06 1.61728E-06-2.64698E-23
 -1       774 7.09610E-06 2.53511E-06 0.00000E+00
 -1       775 6.19699E-06 3.14108E-06 2.64698E-23
 -1       776 5.40096E-06 3.47251E-06 1.32349E-23
 -1       777 4.69391E-06 3.56685E-06 0.00000E+00
 -1       778 4.06170E-06 3.46179E-06 0.00000E+00
 -1       779 3.49012E-06 3.19513E-06 2.64698E-23
 -1       780 2.96493E-06 2.80479E-06 0.00000E+00
 -1       781 2.47189E-06 2.32880E-06-1.32349E-23
 -1       782 1.99680E-06 1.80527E-06-6.61744E-24
 -1       783 1.52544E-06 1.27233E-06 0.00000E+00
 -1       784 1.04399E-06 7.68201E-07 0.00000E+00
 -1       785 5.38460E-07 3.31053E-07 0.00000E+00
 -1       786 2.99467E-05-9.82194E-08-4.13590E-25
 -1       787 2.99972E-05 4.36578E-08-4.13590E-25
 -1       788 3.00477E-05 1.48916E-07 0.00000E+00
 -1       789 3.00985E-05 2.24779E-07 0.00000E+00
 -1       790 3.01495E-05 2.78447E-07 1.65436E-24
 -1       791 3.02005E-05 3.17113E-07-8.27181E-25
 -1       792 3.02515E-05 3.47957E-07-1.65436E-24
 -1       793 3.03026E-05 3.78158E-07 8.27181E-25
 -1       794 3.03537E-05 4.14892E-07 0.00000E+00
 -1       795 3.04047E-05 4.65342E-07 8.27181E-25
 -1       796 3.04558E-05 5.36693E-07 1.65436E-24
 -1       797 3.05068E-05 6.36150E-07 8.27181E-25
 -1       798 3.05577E-05 7.70928E-07 0.00000E+00
 -1       799 3.06085E-05 9.48261E-07-8.27181E-25
 -1       800 3.06593E-05 1.17542E-06 0.00000E+00
 -1       801 2.74349E-05-2.24032E-07 0.00000E+00
 -1       802 2.18855E-05-1.71969E-07 0.00000E+00
 -1       803 1.48087E-05-1.28598E-07-2.06795E-25
 -1       804 7.76313E-06-8.79564E-08 0.00000E+00
 -1       805 2.30759E-06-3.83270E-08 0.00000E+00
 -1       806 2.97788E-05-1.21546E-07 0.00000E+00
 -1       807 2.96652E-05 1.82027E-08 8.27181E-25
 -1       808 2.95579E-05 1.39810E-07 0.00000E+00
 -1       809 2.94556E-05 2.47581E-07 8.27181E-25
 -1       810 2.93568E-05 3.45808E-07 0.00000E+00
 -1       811 2.92599E-05 4.38769E-07 0.00000E+00
 -1       812 2.91634E-05 5.30733E-07 0.00000E+00
 -1       813 2.90656E-05 6.25969E-07-8.27181E-25
 -1       814 2.89651E-05 7.28749E-07 0.00000E+00
 -1       815 2.88601E-05 8.43338E-07 0.00000E+00
 -1       816 2.87490E-05 9.74003E-07-1.65436E-24
 -1       817 2.86304E-05 1.12501E-06-4.13590E-25
 -1       818 2.85025E-05 1.30062E-06-8.27181E-25
 -1       819 2.83639E-05 1.50508E-06 6.20385E-25
 -1       820 2.82131E-05 1.74262E-06 8.27181E-25
 -1       821 3.06522E-05 1.82243E-06 4.13590E-25
 -1       822 3.05919E-05 2.27048E-06 0.00000E+00
 -1       823 3.05318E-05 2.79484E-06 0.00000E+00
 -1       824 3.04710E-05 3.38642E-06 8.27181E-25
 -1       825 3.04102E-05 4.03610E-06-1.65436E-24
 -1       826 3.03492E-05 4.73474E-06-8.27181E-25
 -1       827 3.02882E-05 5.47313E-06 1.65436E-24
 -1       828 3.02271E-05 6.24206E-06 8.27181E-25
 -1       829 3.01660E-05 7.03228E-06 1.65436E-24
 -1       830 3.01050E-05 7.83454E-06 8.27181E-25
 -1       831 3.00439E-05 8.63959E-06-1.65436E-24
 -1       832 2.99830E-05 9.43815E-06 0.00000E+00
 -1       833 2.99221E-05 1.02210E-05-1.65436E-24
 -1       834 2.98617E-05 1.09788E-05 0.00000E+00
 -1       835 2.98012E-05 1.17023E-05 0.00000E+00
 -1       836 3.03291E-05 1.55133E-06 0.00000E+00
 -1       837 2.98782E-05 1.64598E-06 0.00000E+00
 -1       838 2.93903E-05 1.74050E-06 1.65436E-24
 -1       839 2.88999E-05 1.83467E-06 8.27181E-25
 -1       840 2.84414E-05 1.92883E-06 0.00000E+00
 -1       841 3.05873E-05 1.84259E-06-8.27181E-25
 -1       842 3.04209E-05 2.34444E-06-4.13590E-25
 -1       843 3.02207E-05 2.93661E-06 0.00000E+00
 -1       844 2.99972E-05 3.59053E-06 0.00000E+00
 -1       845 2.97563E-05 4.29077E-06 4.13590E-25
 -1       846 2.95038E-05 5.02189E-06 2.06795E-25
 -1       847 2.92430E-05 5.77498E-06 4.13590E-25
 -1       848 2.89774E-05 6.54116E-06-2.06795E-25
 -1       849 2.87091E-05 7.31419E-06 0.00000E+00
 -1       850 2.84406E-05 8.08784E-06-2.06795E-25
 -1       851 2.81741E-05 8.85612E-06 0.00000E+00
 -1       852 2.79118E-05 9.61300E-06 0.00000E+00
 -1       853 2.76569E-05 1.03501E-05 0.00000E+00
 -1       854 2.74121E-05 1.10589E-05 0.00000E+00
 -1       855 2.71835E-05 1.17251E-05 0.00000E+00
 -1       856 2.96986E-05 1.30947E-05 0.00000E+00
 -1       857 2.96507E-05 1.39027E-05 0.00000E+00
 -1       858 2.96026E-05 1.47935E-05-8.27181E-25
 -1       859 2.95542E-05 1.57537E-05 0.00000E+00
 -1       860 2.95056E-05 1.67699E-05-1.65436E-24
 -1       861 2.94569E-05 1.78287E-05 0.00000E+00
 -1       862 2.94082E-05 1.89167E-05-1.65436E-24
 -1       863 2.93594E-05 2.00206E-05 0.00000E+00
 -1       864 2.93106E-05 2.11268E-05 1.65436E-24
 -1       865 2.92618E-05 2.22221E-05-8.27181E-25
 -1       866 2.92131E-05 2.32930E-05 0.00000E+00
 -1       867 2.91644E-05 2.43261E-05 8.27181E-25
 -1       868 2.91158E-05 2.53081E-05 1.65436E-24
 -1       869 2.90675E-05 2.62255E-05-8.27181E-25
 -1       870 2.90192E-05 2.70650E-05 0.00000E+00
 -1       871 2.92009E-05 1.23757E-05 0.00000E+00
 -1       872 2.87283E-05 1.23681E-05-4.13590E-25
 -1       873 2.82981E-05 1.23602E-05 4.13590E-25
 -1       874 2.78813E-05 1.23521E-05 2.06795E-25
 -1       875 2.74493E-05 1.23436E-05-4.13590E-25
 -1       876 2.95650E-05 1.31111E-05 0.00000E+00
 -1       877 2.93620E-05 1.39134E-05 8.27181E-25
 -1       878 2.91352E-05 1.47790E-05 0.00000E+00
 -1       879 2.88885E-05 1.56990E-05 0.00000E+00
 -1       880 2.86250E-05 1.66638E-05-3.30872E-24
 -1       881 2.83481E-05 1.76642E-05 0.00000E+00
 -1       882 2.80614E-05 1.86911E-05-3.30872E-24
 -1       883 2.77682E-05 1.97352E-05 0.00000E+00
 -1       884 2.74719E-05 2.07874E-05 0.00000E+00
 -1       885 2.71761E-05 2.18384E-05-1.65436E-24
 -1       886 2.68841E-05 2.28790E-05 3.30872E-24
 -1       887 2.65994E-05 2.39001E-05 0.00000E+00
 -1       888 2.63254E-05 2.48925E-05 1.65436E-24
 -1       889 2.60651E-05 2.58468E-05 8.27181E-25
 -1       890 2.58224E-05 2.67538E-05-8.27181E-25
 -1       891 2.83632E-05 2.77786E-05 8.27181E-25
 -1       892 2.78401E-05 2.77432E-05 4.13590E-25
 -1       893 2.73524E-05 2.77079E-05 8.27181E-25
 -1       894 2.68496E-05 2.76727E-05 4.13590E-25
 -1       895 2.62811E-05 2.76374E-05-4.13590E-25
 -1       926 3.39156E-08-2.21488E-06-1.03398E-25
 -1       927 3.34143E-08-1.24486E-06-2.58494E-26
 -1       928 3.30741E-08-4.87005E-07 0.00000E+00
 -1       929 3.28974E-08 8.05328E-08 0.00000E+00
 -1       930 3.27983E-08 4.79602E-07 1.29247E-26
 -1       931 3.27464E-08 7.32050E-07 0.00000E+00
 -1       932 3.27097E-08 8.59737E-07-2.58494E-26
 -1       933 3.26498E-08 8.84520E-07 0.00000E+00
 -1       934 3.25582E-08 8.28260E-07 1.03398E-25
 -1       935 3.23146E-08 7.12818E-07 1.03398E-25
 -1       936 3.19801E-08 5.60058E-07 4.13590E-25
 -1       937 3.09429E-08 3.91845E-07 4.13590E-25
 -1       938 2.98081E-08 2.30013E-07 0.00000E+00
 -1       939 2.51848E-08 9.64028E-08 1.65436E-24
 -1       940 2.17423E-08 1.25485E-08 0.00000E+00
 -1       956 2.79834E-05 2.40729E-06 8.27181E-25
 -1       957 2.79165E-05 2.86842E-06 8.27181E-25
 -1       958 2.78493E-05 3.39315E-06 0.00000E+00
 -1       959 2.77819E-05 3.97344E-06 4.13590E-25
 -1       960 2.77145E-05 4.60128E-06-8.27181E-25
 -1       961 2.76470E-05 5.26858E-06 8.27181E-25
 -1       962 2.75795E-05 5.96726E-06 0.00000E+00
 -1       963 2.75119E-05 6.68923E-06 8.27181E-25
 -1       964 2.74444E-05 7.42641E-06 0.00000E+00
 -1       965 2.73768E-05 8.17068E-06-8.27181E-25
 -1       966 2.73093E-05 8.91399E-06 0.00000E+00
 -1       967 2.72418E-05 9.64822E-06 0.00000E+00
 -1       968 2.71743E-05 1.03653E-05 0.00000E+00
 -1       969 2.71070E-05 1.10571E-05-1.65436E-24
 -1       970 2.70398E-05 1.17157E-05 3.30872E-24
 -1       971 2.68894E-05 1.29684E-05 0.00000E+00
 -1       972 2.68033E-05 1.37048E-05-8.27181E-25
 -1       973 2.67172E-05 1.45299E-05 0.00000E+00
 -1       974 2.66308E-05 1.54312E-05 1.65436E-24
 -1       975 2.65442E-05 1.63963E-05 3.30872E-24
 -1       976 2.64576E-05 1.74124E-05 1.65436E-24
 -1       977 2.63709E-05 1.84669E-05 0.00000E+00
 -1       978 2.62842E-05 1.95473E-05 0.00000E+00
 -1       979 2.61975E-05 2.06409E-05-3.30872E-24
 -1       980 2.61107E-05 2.17350E-05 1.65436E-24
 -1       981 2.60241E-05 2.28169E-05 3.30872E-24
 -1       982 2.59375E-05 2.38741E-05 0.00000E+00
 -1       983 2.58511E-05 2.48939E-05-3.30872E-24
 -1       984 2.57651E-05 2.58637E-05 0.00000E+00
 -1       985 2.56793E-05 2.67709E-05 0.00000E+00
 -3
    1PSTEP                        14           7           1          
  100CL  107 4.38477E-01         608                     0    7           1
 -4  STRESS      6    1
 -5  SXX         1    4    1    1
 -5  SYY         1    4    2    2
 -5  SZZ         1    4    3    3
 -5  SXY         1    4    1    2
 -5  SYZ         1    4    2    3
 -5  SZX         1    4    3    1
 -1         1-2.18193E+06-7.48170E+05-4.78396E+05-6.82848E+05 4.85064E-10 2.63875E-09
 -1         2-1.44117E+06-3.72042E+05-1.86684E+05-2.39275E+05-6.64537E-10-1.94365E-08
 -1         3-3.80829E+05-3.36268E+05-1.32896E+04 4.23989E+04 2.06774E-09 1.86491E-09
 -1         4-3.54823E+05-5.27119E+04 6.99291E+02-3.29221E+04-9.74217E-10 2.68944E-09
 -1         5-1.98617E+05 4.83773E+04-8.11857E+04-1.91741E+03 1.26720E-08 6.50530E-09
 -1         8-9.76956E+05-4.51808E+05-1.32990E+05-6.00380E+05 2.95889E-10-4.53050E-09
 -1         9-1.01884E+06-3.56729E+05-1.44586E+05-3.54259E+05 1.39626E-09 2.94967E-09
 -1        10-5.02472E+05-3.51978E+05-3.50570E+04-1.23398E+05 3.64353E-09-2.50296E-08
 -1        11-3.02650E+05-7.31958E+04 1.66397E+03 9.45052E+03-7.30722E-10 7.27145E-10
 -1        12-2.74688E+05 1.97827E+04-1.01622E+05-2.23047E+04 2.02899E-08-4.87880E-09
 -1        15 1.67003E+03 9.03100E+02 5.18298E+03 1.85863E+00 1.13417E-10 7.79005E-10
 -1        16-1.57850E+06-4.20396E+05-1.43210E+05-5.19047E+05 2.33308E-09 6.43922E-10
 -1        17-2.81493E+05-2.25945E+05-2.78401E+04-1.98285E+05-1.16840E-09 1.38243E-09
 -1        18 1.84303E+04-1.22555E+04-1.35247E+04-4.57657E+04-1.64437E-10 3.93629E-10
 -1        19 7.40640E+04 9.03638E+04-9.46187E+01 2.43156E+03-5.45697E-11-3.12866E-11
 -1        20 3.25499E+04-5.54513E+04-1.29908E+04 2.59442E+04 3.24144E-09-1.83809E-09
 -1        21-5.85168E+03-8.84082E+04 2.44528E+04-7.24435E+02 9.27858E-09-3.98834E-09
 -1        23 4.05647E-01 1.93246E-01 7.43124E+00 5.26718E-04-6.32147E-10 1.64789E-09
 -1        24-8.13396E+05-2.43225E+05 4.31869E+04-4.22656E+05-8.99308E-10 1.97324E-09
 -1        25 1.21912E+04 3.36257E+04 1.69440E+04-2.34554E+05-3.10411E-10 5.02041E-11
 -1        26 1.66083E+03 6.18102E+04 2.90091E+02-1.01936E+04 9.00068E-11 5.25858E-10
 -1        27-1.34212E+04-4.09457E+04-1.81980E+04 4.51161E+04 3.23416E-09-6.40891E-10
 -1        28-5.10252E+03-6.82642E+04-2.42262E+03 2.63468E+04 3.60001E-09 1.36146E-09
 -1        31 2.58621E+03 2.98078E+03 4.41061E+03-6.71266E+01 1.91851E-09-1.08378E-09
 -1        32-3.32262E+05 8.01306E+04 2.07344E+05-4.82204E+05-3.30050E-10 1.28784E-09
 -1        33-7.29455E+04 7.38585E+04 2.26903E+04-2.32424E+04-6.18608E-10 2.94070E-10
 -1        34-8.87852E+04-3.57402E+03 8.03791E+03 3.39792E+04 2.57739E-10-4.03281E-09
 -1        35-1.34911E+04-1.84245E+04 1.00485E+03 4.28630E+04 2.59504E-09-2.39500E-10
 -1        36-2.24125E+06 6.62096E+04-1.52419E+05 4.78776E-07-1.32347E-09 1.60071E-09
 -1        37-2.30734E+06-7.66225E+04-1.07968E+05 3.30555E-07-1.99086E-09-5.67525E-10
 -1        38-2.26673E+06 1.04086E+04-3.94330E+04 4.02542E-07-3.64033E-09-1.77533E-09
 -1        39-2.27756E+06-1.20438E+04-2.48359E+04-5.72548E-07 3.22153E-09-2.04227E-09
 -1        40-2.27093E+06 1.63374E+03-1.01489E+04-6.85966E-07-3.47871E-09-1.00817E-09
 -1        41-2.27264E+06-1.91855E+03-6.09696E+03-6.01510E-07-4.62934E-09-2.33592E-09
 -1        42-2.27162E+06 2.84578E+02-3.03446E+03-1.60210E-07-6.53475E-09 3.07341E-09
 -1        43-2.27191E+06-5.27837E+02-2.51857E+03-2.66045E-07-8.05279E-09 7.84723E-10
 -1        44-2.27164E+06 2.43212E+02-2.66917E+03-2.41607E-07-5.92121E-10 1.34150E-10
 -1        45-2.27245E+06-1.56381E+03-5.03774E+03 2.63165E-07-1.32616E-10-4.93492E-09
 -1        46-2.27110E+06 1.32042E+03-8.24475E+03 1.99462E-07 1.05897E-09 2.21189E-09
 -1        47-2.27641E+06-9.72117E+03-2.00703E+04 5.66591E-07-1.10772E-09 6.63204E-09
 -1        48-2.26771E+06 8.39950E+03-3.18354E+04 6.83627E-07-9.12315E-10 2.52658E-09
 -1        49-2.30044E+06-6.18319E+04-8.71328E+04 4.38462E-07-7.22505E-10-1.26147E-09
 -1        50-2.24715E+06 5.34268E+04-1.23015E+05-1.49538E-07-8.09723E-09 3.06318E-09
 -1        51 1.66910E+04-2.86459E+05 2.83834E+04-7.41188E+05 7.27596E-11 2.25555E-10
 -1        52 8.09241E+03-2.84361E+05 1.85001E+04-8.20796E+05 4.40195E-10-1.52431E-09
 -1        53 5.98831E+03-2.90825E+05 1.67655E+04-7.39193E+05-1.12777E-10-1.29512E-08
 -1        54 1.54755E+04-2.87815E+05 2.78489E+04-8.22944E+05-5.60249E-10-2.10566E-08
 -1        55 3.66362E+04-2.96970E+05 5.18909E+04-7.38840E+05 1.67347E-10-1.53705E-08
 -1        56-3.95723E+06-4.24813E+05-3.41240E+05-1.53281E+06-6.98492E-10 1.38243E-09
 -1        57-4.10982E+06-7.45193E+05-2.33965E+05-1.50338E+06 1.88265E-09 2.84126E-09
 -1        58-4.02922E+06-5.38532E+05-8.00733E+04-1.50689E+06 2.92857E-10 1.22964E-09
 -1        59-4.02765E+06-6.11380E+05-4.90277E+04-1.53169E+06-1.47702E-09-8.72205E-10
 -1        60-4.03882E+06-5.57046E+05-1.87225E+04-1.50494E+06 1.93722E-10-1.10231E-09
 -1        61-4.02132E+06-5.84875E+05-1.08961E+04-1.52802E+06-1.02170E-09 2.18051E-10
 -1        62-4.03535E+06-5.64855E+05-5.23088E+03-1.51055E+06-9.27912E-10-3.22689E-09
 -1        63-4.03166E+06-5.70110E+05-4.40531E+03-1.51444E+06 1.80171E-09-3.22501E-10
 -1        64-4.02840E+06-5.71819E+05-5.14618E+03-1.51850E+06-4.92264E-10 1.64141E-09
 -1        65-4.04573E+06-5.60306E+05-1.06353E+04-1.50005E+06 1.48661E-09-3.96403E-09
 -1        66-4.02135E+06-5.74652E+05-1.82446E+04-1.52497E+06-1.43700E-09 1.69621E-09
 -1        67-4.06443E+06-5.73595E+05-4.77514E+04-1.48931E+06-6.93035E-10-2.10503E-09
 -1        68-4.00991E+06-5.58705E+05-7.79815E+04-1.52925E+06-3.00133E-10 1.27329E-10
 -1        69-4.13921E+06-7.09153E+05-2.27847E+05-1.46775E+06-5.32964E-10 6.66478E-09
 -1        70-3.94714E+06-4.40633E+05-3.32330E+05-1.54610E+06-7.71252E-10 4.24916E-09
 -1        86-2.87019E+04-1.52635E+05 6.76823E+04 9.46251E+03 3.00861E-09 2.61639E-09
 -1        87 3.62434E+04-1.19509E+05 5.35814E+04-4.12262E+04 5.11955E-09 1.19485E-09
 -1        88-7.33791E+03-1.41393E+05 2.84310E+04 1.00020E+04 4.67980E-09-2.64046E-09
 -1        89 2.77964E+04-1.24106E+05 4.23925E+04-4.14393E+04 6.93649E-09-5.89088E-09
 -1        90-2.02385E+04-1.48105E+05 4.87428E+04 9.67592E+03 2.53749E-09-2.69210E-09
 -1        91-2.06908E+06-2.41065E+05-1.26901E+05-7.97910E+05-1.58792E-05 5.91355E-06
 -1        92-2.13557E+06-3.58690E+05-8.81942E+04-7.76224E+05-3.17036E-05 1.18987E-05
 -1        93-2.09462E+06-2.87237E+05-2.97232E+04-7.89628E+05-8.76791E-06 3.30834E-06
 -1        94-2.10553E+06-3.05505E+05-1.86208E+04-7.86036E+05 1.41460E-05-5.31270E-06
 -1        95-2.09903E+06-2.94236E+05-6.96369E+03-7.88067E+05 2.84594E-06-1.06729E-06
 -1        96-2.10056E+06-2.97267E+05-4.19675E+03-7.87630E+05-8.45940E-06 3.17740E-06
 -1        97-2.09957E+06-2.95471E+05-1.98522E+03-7.88027E+05-4.13485E-07 1.61021E-07
 -1        98-2.09992E+06-2.96174E+05-1.84543E+03-7.87800E+05 7.64368E-06-2.86839E-06
 -1        99-2.09967E+06-2.95328E+05-2.14722E+03-7.87895E+05-2.30042E-06 8.65312E-07
 -1       100-2.10076E+06-2.97391E+05-4.70000E+03-7.87506E+05-1.22345E-05 4.59689E-06
 -1       101-2.09873E+06-2.94254E+05-7.86653E+03-7.88323E+05 4.09793E-06-1.53454E-06
 -1       102-2.10613E+06-3.06988E+05-2.10803E+04-7.85988E+05 2.04193E-05-7.66521E-06
 -1       103-2.09433E+06-2.85736E+05-3.36712E+04-7.89421E+05-1.74704E-05 6.57301E-06
 -1       104-2.14064E+06-3.66704E+05-9.98992E+04-7.74253E+05-5.53480E-05 2.07660E-05
 -1       105-2.06430E+06-2.34553E+05-1.43767E+05-8.00093E+05-2.77670E-05 1.03469E-05
 -1       106-7.57508E+05 4.16713E+03-9.60600E+03 4.49595E-07-1.04787E-09-1.43382E-09
 -1       107-7.61614E+05-4.82333E+03-6.80378E+03-4.75562E-07-1.11264E-09-1.90823E-09
 -1       108-7.59113E+05 6.55318E+02-2.49177E+03 6.81087E-08 2.43016E-10-5.77870E-10
 -1       109-7.59741E+05-7.59178E+02-1.57806E+03-7.12792E-08 2.02042E-09-2.66937E-10
 -1       110-7.59378E+05 1.03735E+02-6.64181E+02 7.62964E-07 2.84379E-10 2.48104E-09
 -1       111-7.59436E+05-1.27545E+02-4.35868E+02 3.25889E-07 4.57626E-12 4.57771E-09
 -1       112-7.59418E+05 2.37935E+01-2.87456E+02-1.98936E-07-8.02091E-10 2.45654E-09
 -1       113-7.59412E+05-7.73648E+01-3.70237E+02 6.14164E-07-2.95341E-10 2.20749E-09
 -1       114-7.59401E+05 5.35642E+01-5.51039E+02 6.56799E-07-1.43850E-09 2.63967E-09
 -1       115-7.59572E+05-3.82843E+02-1.19972E+03-1.52220E-07-1.82560E-09-1.79971E-09
 -1       116-7.59258E+05 3.29227E+02-2.03741E+03-3.51646E-07-1.43157E-09-5.02189E-09
 -1       117-7.60568E+05-2.43061E+03-5.01229E+03 1.75769E-07-1.26536E-09-1.98639E-09
 -1       118-7.58407E+05 2.10099E+03-7.96770E+03-2.66822E-07-2.40451E-09-2.25828E-09
 -1       119-7.66577E+05-1.54668E+04-2.18071E+04-2.27700E-07 1.17406E-09-1.55160E-09
 -1       120-7.53257E+05 1.33634E+04-3.07972E+04 4.25997E-07 3.56463E-10 4.72937E-10
 -1       121-1.67888E+02-6.44847E+05 6.98924E+02 1.45574E+04 4.20187E-10-9.88166E-10
 -1       122 3.74201E+02-6.44525E+05 8.10603E+02 8.48745E+04 9.93168E-10 3.79410E-09
 -1       123-1.05276E+02-6.44825E+05 9.55644E+02 1.44805E+04 5.52745E-10 2.86764E-09
 -1       124 1.14065E+03-6.43908E+05 2.16578E+03 8.46545E+04 7.13044E-10 1.51522E-09
 -1       125-9.56224E+02-6.45280E+05 3.15890E+03 1.47775E+04-6.69388E-10 3.05772E-09
 -1       141-3.76606E+05-1.34628E+03 3.10089E+03-4.59137E-07 6.75016E-10-4.83169E-10
 -1       142-3.75224E+05 1.55792E+03 2.19031E+03-4.87573E-07 1.60279E-09 9.56561E-10
 -1       143-3.76087E+05-2.11356E+02 7.88564E+02-4.92310E-07-8.09787E-12 7.43796E-10
 -1       144-3.75831E+05 2.42387E+02 4.74422E+02-2.10520E-07 2.01596E-10-2.96467E-10
 -1       145-3.75999E+05-3.09874E+01 1.46411E+02 2.36670E-08-6.20529E-10-5.02868E-09
 -1       146-3.75941E+05 2.19081E+01-5.29516E+00-2.64596E-07-1.28792E-09-3.90704E-09
 -1       147-3.75977E+05 9.08440E+00-1.80802E+02-1.45699E-07-4.28497E-10 1.44325E-10
 -1       148-3.76012E+05-1.00942E+02-4.83427E+02 1.52568E-07-1.18556E-09 3.33736E-09
 -1       149-3.75929E+05 9.18475E+01-9.14055E+02 3.96787E-07-1.58856E-10 3.03260E-10
 -1       150-3.76322E+05-6.87829E+02-2.12992E+03 7.56209E-09 2.96299E-10-5.70083E-10
 -1       151-3.75667E+05 5.95893E+02-3.67310E+03-2.86123E-07-1.50371E-10-1.35742E-10
 -1       152-3.78130E+05-4.40414E+03-9.07593E+03-6.79276E-07 1.16222E-09-2.42858E-09
 -1       153-3.74123E+05 3.80759E+03-1.44392E+04-1.99977E-07 3.18323E-09-5.23869E-10
 -1       154-3.89018E+05-2.80306E+04-3.95243E+04 1.62718E-07 7.19711E-10 8.56744E-10
 -1       155-3.64783E+05 2.42190E+04-5.58138E+04-1.42800E-07 7.53316E-09 2.00089E-10
 -1       156-1.25559E+04-9.92605E+04 2.91774E+04-1.42521E+03-1.07866E-09 1.64796E-10
 -1       157 1.61104E+04-8.25200E+04 2.42613E+04 5.01916E+03-6.57337E-10-1.35489E-09
 -1       158-3.54026E+03-9.47740E+04 1.36137E+04-1.46931E+03-3.26418E-09 3.08122E-09
 -1       159 1.56272E+04-7.78317E+04 2.40694E+04 4.03339E+03 2.72212E-09 2.89611E-09
 -1       160-1.21009E+04-1.03915E+05 2.58606E+04-4.39505E+02 1.64982E-09-2.75463E-10
 -1       161-3.61472E+05-4.98727E+04-1.20215E+02-1.34130E+05-2.71072E-09-1.57367E-09
 -1       162-3.56179E+05-5.20824E+04 4.26186E+02-1.36445E+05 1.82890E-09-2.68958E-09
 -1       163-3.61446E+05-4.98435E+04-1.76072E+02-1.34203E+05 2.72337E-10 3.71807E-09
 -1       164-3.58055E+05-5.03391E+04 3.57165E+02-1.34287E+05-2.14142E-09 4.98657E-09
 -1       165-3.59612E+05-5.16428E+04-2.11602E+02-1.36283E+05-2.81010E-06 1.05594E-06
 -1       166-3.59891E+05-4.85258E+04 2.85774E+02-1.32208E+05-5.63035E-06 2.12764E-06
 -1       167-3.59594E+05-5.16296E+04-3.34875E+02-1.36287E+05-2.80525E-06 1.05684E-06
 -1       168-3.58111E+05-5.04501E+04-1.12619E+01-1.34255E+05 7.69535E-09-6.09872E-09
 -1       169-3.61409E+05-4.97458E+04-8.80632E+02-1.34231E+05 7.18365E-06-2.68494E-06
 -1       170-3.56648E+05-5.28699E+04-1.38362E+03-1.36312E+05 1.43165E-05-5.32900E-06
 -1       171-3.61041E+05-4.91831E+04-3.17721E+03-1.34235E+05 7.18632E-06-2.67667E-06
 -1       172-3.60566E+05-5.47518E+04-7.77416E+03-1.33602E+05 8.27015E-09-7.09372E-09
 -1       173-3.57509E+05-4.78914E+04-1.32088E+04-1.36937E+05-2.27305E-09-1.38107E-09
 -1       174-3.75596E+05-7.59811E+04-3.82039E+04-1.27105E+05-1.34239E-08-3.80123E-09
 -1       175-3.45998E+05-2.79296E+04-5.57181E+04-1.40736E+05 8.78936E-09-4.47108E-09
 -1       191 3.15229E+02 2.60213E+05 5.09885E+02-3.77975E+03-1.76442E-10 1.66438E-10
 -1       192 1.15384E+02 2.60274E+05 3.12653E+02-3.94232E+03-1.43473E-10-7.76708E-09
 -1       193 5.72395E+01 2.60236E+05 2.64288E+02-3.67205E+03-5.02155E-10-3.03498E-09
 -1       194 1.74277E+02 2.60291E+05 4.16785E+02-4.14976E+03-4.87944E-10 1.77170E-09
 -1       195 4.96951E+02 2.60190E+05 7.69159E+02-3.57204E+03-8.84029E-10-3.60387E-09
 -1       266-2.93610E+04-1.35779E+04 6.77636E+04-3.82499E+01-7.27596E-12 2.01228E-09
 -1       267 3.40023E+04 1.58551E+04 4.80696E+04 4.39791E+01 2.27374E-11 6.36375E-10
 -1       268-4.63326E+03-2.27003E+03 1.77920E+04-5.72722E+00-9.09495E-12-8.05187E-10
 -1       269 5.46920E+03 2.72196E+03 1.16280E+04 6.65784E+00-6.58247E-11 3.32135E-09
 -1       270-8.34894E+02-4.51543E+02 5.58288E+03-9.29037E-01 1.88720E-11 4.52228E-09
 -1       271-3.05073E+06-3.79585E+05-2.40203E+05-1.18046E+06-2.80124E-10 5.96629E-10
 -1       272-3.13968E+06-5.39360E+05-1.52649E+05-1.17588E+06-1.20531E-09 1.03500E-09
 -1       273-3.09399E+06-4.35737E+05-5.66681E+04-1.17221E+06 3.97677E-10 3.31056E-10
 -1       274-3.08916E+06-4.68307E+05-3.13508E+04-1.18940E+06-1.08889E-09 5.18048E-09
 -1       275-3.09987E+06-4.41094E+05-1.31747E+04-1.17054E+06 1.07639E-09 1.19690E-09
 -1       276-3.08202E+06-4.61910E+05-6.98637E+03-1.19221E+06-7.55790E-10 4.80122E-09
 -1       277-3.10110E+06-4.41159E+05-3.52070E+03-1.16981E+06-6.49607E-10-5.74573E-10
 -1       278-3.08058E+06-4.61978E+05-2.68251E+03-1.19332E+06-8.39918E-10-1.84093E-09
 -1       279-3.10138E+06-4.40906E+05-3.08527E+03-1.16952E+06 1.79398E-10-1.85537E-09
 -1       280-3.08095E+06-4.62721E+05-5.79685E+03-1.19343E+06 2.76604E-10-2.50839E-09
 -1       281-3.10076E+06-4.40458E+05-1.07497E+04-1.16969E+06 1.76780E-09 1.34605E-09
 -1       282-3.08614E+06-4.68572E+05-2.55247E+04-1.19193E+06-3.95772E-10 2.81625E-09
 -1       283-3.09627E+06-4.35814E+05-4.60742E+04-1.17073E+06 3.99723E-10 6.40284E-10
 -1       284-3.12675E+06-5.26824E+05-1.24138E+05-1.18148E+06 8.59472E-11 1.85719E-09
 -1       285-3.06129E+06-3.89974E+05-1.95340E+05-1.17723E+06-1.01863E-10 6.03904E-10
 -1       286 3.05431E+05-3.74824E+04 8.63902E+04 6.54114E+02 2.24098E-10 4.16185E-09
 -1       287 3.43315E+05 4.33800E+04 6.12211E+04-9.90227E+02-1.64722E-10-1.62981E-09
 -1       288 3.20054E+05-5.88690E+03 2.23795E+04 5.29447E+01-1.81519E-10 2.22190E-09
 -1       289 3.26295E+05 6.81278E+03 1.41015E+04-2.72039E+02 7.79448E-11 5.73209E-10
 -1       290 3.22450E+05-9.24519E+02 5.78594E+03-6.40629E+01-1.12198E-07 2.36491E-09
 -1       291 3.23509E+05 1.09048E+03 3.50633E+03-1.31767E+02-2.27784E-07-2.98445E-09
 -1       292 3.22841E+05-1.65719E+02 1.80555E+03-8.73290E+01-8.09209E-08 3.53180E-09
 -1       293 3.23120E+05 3.34773E+02 1.60660E+03-1.06849E+02 6.62354E-08 4.44166E-09
 -1       294 3.22839E+05-1.68939E+02 1.83340E+03-8.89823E+01-5.12938E-07 3.49246E-10
 -1       295 3.23524E+05 1.11805E+03 3.58721E+03-1.20078E+02-1.09385E-06 3.05567E-09
 -1       296 3.22437E+05-9.48856E+02 5.93099E+03-7.40991E+01-3.76283E-06-1.05144E-08
 -1       297 3.26379E+05 6.99207E+03 1.44643E+04-2.12485E+02-6.43070E-06 3.57591E-09
 -1       298 3.19982E+05-6.04181E+03 2.29582E+04 3.42705E+00-3.22320E-06 9.17771E-09
 -1       299 3.43733E+05 4.44955E+04 6.27829E+04-6.89132E+02 9.87854E-11 1.11113E-08
 -1       300 3.05084E+05-3.84424E+04 8.86499E+04 4.02540E+02 4.84447E-09-2.42289E-09
 -1       301 2.39653E+04-1.43551E+04 7.14948E+04-2.03832E+04 1.81899E-11-8.55891E-10
 -1       302 9.12001E+03 5.03851E+02 4.85250E+04-2.52341E+04 7.77732E-10-7.05005E-09
 -1       303 1.93851E+03-9.28887E+03 4.49937E+04-2.03895E+04-1.06411E-10-5.08976E-10
 -1       304 1.72644E+04 6.81173E+03 7.45094E+04-2.52066E+04 8.16726E-10 9.83061E-09
 -1       305 4.75000E+04-2.06359E+04 1.33033E+05-2.03775E+04 1.74623E-10 1.23907E-08
 -1       306-1.40419E+06-1.84167E+05-8.42053E+04-5.44495E+05 5.63887E-10 2.39015E-09
 -1       307-1.41696E+06-2.58144E+05-5.34468E+04-5.63710E+05-4.23825E-10 2.76577E-09
 -1       308-1.41947E+06-2.03621E+05-1.98840E+04-5.41506E+05-2.76918E-09-3.44698E-10
 -1       309-1.39934E+06-2.33378E+05-1.09993E+04-5.68643E+05-2.99246E-09 9.09495E-11
 -1       310-1.42153E+06-2.05482E+05-4.64703E+03-5.40951E+05-1.22009E-09 6.67205E-09
 -1       311-1.39702E+06-2.31011E+05-2.50644E+03-5.69527E+05-9.00400E-11-5.44699E-09
 -1       312-1.42185E+06-2.05604E+05-1.34603E+03-5.40817E+05-2.83279E-10-2.49136E-09
 -1       313-1.39680E+06-2.30769E+05-1.18899E+03-5.69572E+05-1.20281E-10 1.48316E-09
 -1       314-1.42175E+06-2.05699E+05-1.58809E+03-5.40917E+05-6.99174E-10 1.01022E-09
 -1       315-1.39739E+06-2.30765E+05-3.15878E+03-5.69052E+05 1.45656E-09-9.47693E-10
 -1       316-1.42116E+06-2.05704E+05-5.98368E+03-5.41250E+05 1.19826E-09-1.14142E-10
 -1       317-1.40058E+06-2.33606E+05-1.41952E+04-5.67618E+05 8.57881E-10 4.05043E-09
 -1       318-1.41841E+06-2.03389E+05-2.57065E+04-5.42057E+05 2.78987E-09 4.99858E-09
 -1       319-1.42346E+06-2.65508E+05-6.90673E+04-5.61122E+05-2.02817E-10 2.76032E-09
 -1       320-1.39864E+06-1.78259E+05-1.08827E+05-5.45939E+05-8.64929E-10 2.17551E-09
 -1       321-6.83422E+05-9.99065E+01-8.54147E+02-6.98081E+03-1.30628E-09 1.89100E-09
 -1       322-6.53257E+05 1.44219E+03 5.25122E+03 9.90842E+03-1.14664E-08 2.13185E-09
 -1       323-6.98476E+05-1.32401E+03-4.03814E+03-1.84650E+03-4.92085E-09 5.60174E-09
 -1       324-6.58868E+05 5.49139E+01 3.78589E+03-5.84028E+03-7.28818E-09-1.35043E-09
 -1       325-6.77809E+05 1.24202E+03 2.49376E+02 8.76788E+03-6.72158E-10-3.89965E-09
 -1       326-6.58528E+05-1.28712E+01 3.78043E+03-6.14490E+03 4.27428E-09-4.20629E-09
 -1       327-6.98815E+05-1.25151E+03-4.23376E+03-1.54189E+03-4.73648E-10 1.23045E-09
 -1       328-6.53939E+05 5.06270E+02 4.61732E+03 9.74913E+03-2.74369E-09 5.57918E-10
 -1       329-6.82401E+05 7.60380E+02-1.12582E+03-7.12614E+03-2.74341E-09-1.65664E-09
 -1       330-6.62624E+05-8.38986E+02 1.96286E+03 2.26498E+03 6.54970E-09-2.66569E-09
 -1       331-6.90130E+05 1.93020E+01-4.05367E+03 5.94212E+03 8.72575E-10-3.94903E-09
 -1       332-6.53016E+05-1.08143E+03 1.09196E+03-1.00063E+04-1.19790E-08-4.96271E-09
 -1       333-6.92008E+05 1.09701E+03-9.62149E+03 5.14505E+03-1.00817E-08-2.38697E-09
 -1       334-6.67517E+05-1.25356E+04-1.50154E+04 3.51967E+03-1.28477E-09-4.94765E-10
 -1       335-6.75638E+05 1.13826E+04-2.64691E+04-7.58389E+03-7.64809E-09 2.54113E-09
 -1       336 1.86355E+02-6.86619E+05-2.12702E+03-8.86973E+03-2.23963E-09 1.70985E-10
 -1       337-1.15542E+03-6.87512E+05-4.41169E+03-5.50308E+04-4.14252E-09-5.07043E-10
 -1       338 9.05471E+02-6.86185E+05-7.54862E+03-8.46988E+03-3.67027E-09-8.32188E-11
 -1       339-9.82355E+03-6.92669E+05-1.88703E+04-5.55783E+04-5.55337E-09-5.50563E-09
 -1       340 7.91678E+03-6.81753E+05-2.88537E+04-8.32411E+03-4.00541E-09-3.12752E-09
 -1       356-6.76068E+05 1.12766E+04-2.65838E+04-7.20659E+03-3.70191E-09 3.43789E-10
 -1       357-6.68641E+05-1.25839E+04-1.52745E+04 2.94608E+03-5.22775E-09 6.15000E-09
 -1       358-6.90034E+05 1.25247E+03-9.26346E+03 5.31610E+03-1.69027E-06-9.64064E-10
 -1       359-6.54395E+05-1.13407E+03 7.44649E+02-9.71382E+03-4.06986E-06-4.27582E-08
 -1       360-6.90305E+05-8.43440E+01-4.21329E+03 5.45339E+03-1.69284E-06-9.04117E-09
 -1       361-6.63230E+05-8.06138E+02 1.65223E+03 2.68410E+03 4.43528E-09-1.63589E-09
 -1       362-6.81200E+05 8.36733E+02-1.25811E+03-7.08180E+03 9.20528E-09 1.71491E-09
 -1       363-6.55735E+05 2.64725E+02 3.48696E+03 9.22810E+03 4.07339E-09 3.92318E-09
 -1       364-6.97800E+05-1.09000E+03-5.44468E+03-1.09048E+03-9.74470E-09 3.71637E-09
 -1       365-6.59606E+05-9.65537E+02 5.11082E+02-6.34158E+03-1.72711E-08-4.50223E-09
 -1       366-6.77327E+05 2.03938E+03-5.21294E+03 8.48791E+03 9.81418E-09-4.28145E-10
 -1       367-6.63560E+05-6.51678E+03-9.94564E+03-5.19572E+03 1.48193E-08-3.82511E-09
 -1       368-6.93851E+05 4.44758E+03-2.50049E+04-2.23638E+03-2.43648E-09-1.26329E-09
 -1       369-6.73452E+05-3.99942E+04-5.33288E+04 9.73010E+03-1.08400E-08 3.39878E-09
 -1       370-6.67448E+05 3.55624E+04-8.34296E+04-6.43795E+03 6.87544E-09 5.62068E-09
 -1       371-1.14047E+04-1.00717E+05 2.43696E+04-1.40122E+01 6.66842E-09-1.04674E-09
 -1       372 1.21187E+04-8.24449E+04 1.68645E+04 2.54515E+03-8.10360E-10 9.57897E-10
 -1       373-7.26268E+02-9.33460E+04 2.69085E+03-8.32527E+02 8.15362E-10-1.02660E-09
 -1       374-5.40519E+03-9.35842E+04-6.19469E+03 3.48349E+03-1.98270E-10-3.80613E-10
 -1       375 6.13335E+03-8.96015E+04-1.34239E+04-9.52272E+02-1.12414E-09 1.38254E-09
 -1       406 4.26617E+02 2.58730E+05 9.86323E+02-1.41422E+04-1.14869E-09-7.25777E-10
 -1       407 3.19271E+02 2.58912E+05 1.32671E+03-1.54030E+04-5.74289E-10-1.47975E-09
 -1       408 5.85979E+02 2.58681E+05 2.29180E+03-1.40478E+04-1.55114E-09-7.29142E-09
 -1       409 2.35011E+03 2.59572E+05 4.98545E+03-1.55608E+04-1.15597E-09-1.78982E-08
 -1       410 6.74640E+03 2.58050E+05 1.00921E+04-1.39802E+04-1.97360E-09-9.23364E-09
 -1       501-2.46620E+05-4.24735E+04 9.18474E+04-4.55965E+03 8.94401E-09 6.68297E-09
 -1       502-1.73129E+05 4.79900E+04 7.06425E+04 1.21190E+04 6.91955E-09 1.46683E-08
 -1       503-2.19522E+05-5.43066E+03 2.40221E+04-5.62380E+03 5.59160E-09 5.71708E-09
 -1       504-1.74990E+05 8.21999E+03 2.22448E+04 7.64692E+03 1.54294E-09 5.53609E-09
 -1       505-2.44646E+05-2.84955E+03 9.10135E-01-8.71418E+01 3.86439E-09-1.46929E-09
 -1       506-1.71938E+05 2.39237E+03 1.17711E+04-4.32494E+03 1.76703E-08-8.86774E-09
 -1       507-2.22528E+05 3.47680E+02-1.32269E+02 6.34589E+03 1.43871E-08-1.05285E-08
 -1       508-1.96801E+05-9.97724E+02 3.82505E+03-1.10287E+04 6.24552E-09-1.38408E-08
 -1       509-2.19975E+05 7.30604E+02-6.23632E+02 6.61910E+03 1.49528E-08-9.78375E-09
 -1       510-1.74559E+05 1.21064E+03 8.39746E+03-5.19140E+03 1.22350E-08-1.04939E-08
 -1       511-2.44595E+05-2.03493E+03-5.33140E+03 5.06144E+02-2.73286E-09-1.22174E-09
 -1       512-1.75715E+05 2.07704E+03 9.65119E+03 6.89071E+03-6.91267E-09 2.33797E-09
 -1       513-2.18832E+05-1.22239E+02 2.68378E+03-5.46098E+03-6.26055E-09 7.21298E-09
 -1       514-1.92623E+05 7.25323E+03 1.32108E+04 1.21661E+04-2.98497E-09 1.24518E-08
 -1       515-2.27845E+05-7.05092E+03 1.13994E+04-4.76968E+03-6.95354E-09 8.41919E-09
 -1       521-3.11315E+06-3.96505E+05-2.00621E+05-1.19788E+06-2.01180E-09 6.69388E-10
 -1       522-3.17827E+06-5.39066E+05-1.27478E+05-1.20457E+06-6.19593E-10-2.91948E-09
 -1       523-3.14923E+06-4.43409E+05-4.73146E+04-1.19102E+06 1.96451E-10 1.30603E-09
 -1       524-3.13634E+06-4.79496E+05-2.61956E+04-1.21562E+06-9.01764E-10-2.45109E-10
 -1       525-3.15394E+06-4.48070E+05-1.10121E+04-1.18984E+06 1.39835E-11 3.37877E-10
 -1       526-3.13089E+06-4.73623E+05-5.88923E+03-1.21735E+06 1.30484E-09 4.74358E-10
 -1       527-3.15462E+06-4.48486E+05-3.04100E+03-1.18962E+06 1.08287E-09 2.39450E-09
 -1       528-3.13047E+06-4.72876E+05-2.47570E+03-1.21726E+06-1.40062E-10 1.44530E-09
 -1       529-3.15434E+06-4.48772E+05-3.05725E+03-1.18993E+06-8.39918E-10 1.65005E-09
 -1       530-3.13186E+06-4.72581E+05-5.91019E+03-1.21605E+06 6.40512E-10 2.79533E-09
 -1       531-3.15312E+06-4.48907E+05-1.10821E+04-1.19073E+06-1.96906E-10 8.27640E-10
 -1       532-3.13827E+06-4.77489E+05-2.63111E+04-1.21312E+06 4.12001E-10-3.87899E-10
 -1       533-3.14789E+06-4.44727E+05-4.75638E+04-1.19247E+06 2.31717E-09 1.91358E-09
 -1       534-3.18129E+06-5.36404E+05-1.28065E+05-1.20092E+06 4.92923E-09 2.93949E-09
 -1       535-3.11120E+06-3.98057E+05-2.01591E+05-1.19985E+06 1.14596E-09 1.17143E-09
 -1       536 3.70161E+04-1.03846E+04 3.75499E+04-4.96490E+03 9.00400E-10 1.42973E-09
 -1       537 5.14830E+04 1.29581E+04 2.45884E+04-2.85203E+04-2.77396E-09-6.60293E-10
 -1       538 4.28136E+04-1.21715E+03 9.72679E+03-4.90574E+03-2.50111E-10-3.23962E-09
 -1       539 4.47767E+04 1.36536E+03 5.55734E+03-2.85684E+04 1.56615E-09 3.22586E-09
 -1       540 4.35126E+04-1.65348E+02 2.45028E+03-4.91393E+03-9.54969E-11 3.73120E-10
 -1       541 4.38377E+04 1.39209E+02 1.31722E+03-2.85473E+04 3.98586E-10-4.59261E-09
 -1       542 4.35996E+04-2.59404E+01 6.01008E+02-4.92705E+03-1.81899E-10-1.54205E-09
 -1       543 4.36421E+04 3.11415E+01 2.99841E+02-2.85268E+04-1.53932E-10-8.80846E-10
 -1       544 4.36102E+04 2.08544E+00 1.08837E+02-4.93445E+03 1.73372E-10 1.90511E-09
 -1       545 4.35795E+04 2.02407E+01-1.58286E+01-2.85178E+04-4.24137E-10 2.13390E-10
 -1       546 4.36187E+04 1.52241E+01-1.40734E+02-4.93606E+03 3.27759E-10 1.48901E-09
 -1       547 4.35267E+04-7.72273E+01-3.83224E+02-2.85166E+04-7.13953E-10 1.19712E-10
 -1       548 4.36742E+04 8.18646E+01-7.05016E+02-4.93566E+03-9.41554E-10 2.27510E-09
 -1       549 4.31075E+04-9.43466E+02-1.78204E+03-2.84821E+04 1.87697E-10 2.49668E-09
 -1       550 4.41037E+04 7.25440E+02-2.75337E+03-4.97055E+03-4.32465E-10 5.86624E-10
 -1       551 6.54321E+03-2.45435E+05 1.72517E+04-3.92159E+05-5.01677E-09 2.36105E-09
 -1       552 5.19123E+03-2.42933E+05 1.84302E+04-4.84158E+05-5.52245E-09 4.67116E-09
 -1       553 3.75375E+03-2.46064E+05 2.71054E+04-3.91375E+05-5.52245E-09 3.23917E-09
 -1       554 1.70135E+04-2.34148E+05 5.57127E+04-4.84266E+05-5.74801E-09 3.06682E-09
 -1       555 4.05452E+04-2.54850E+05 1.05552E+05-3.91940E+05-5.52973E-09-3.20142E-09
 -1       556-6.93764E+04-8.07544E+04 2.03645E+04-1.29507E+05-3.31056E-09-2.64845E-09
 -1       557-4.86895E+04-1.00420E+05 1.03253E+04-1.45966E+05-1.77533E-09 7.71252E-10
 -1       558-6.93537E+04-8.54862E+04 4.30934E+03-1.26273E+05-3.07045E-09-4.82305E-09
 -1       559-5.09791E+04-1.03410E+05 2.13756E+03-1.46885E+05 1.33878E-09 1.21008E-09
 -1       560-6.96543E+04-8.53531E+04 9.40798E+02-1.26369E+05 3.90355E-09 4.25734E-09
 -1       561-5.15069E+04-1.03372E+05 4.63660E+02-1.47240E+05 1.66801E-09 3.63798E-10
 -1       562-6.99087E+04-8.51732E+04 1.82753E+02-1.26547E+05 5.60249E-10-4.33818E-09
 -1       563-5.17899E+04-1.03252E+05 5.73509E+01-1.47431E+05 1.56979E-09-5.11193E-09
 -1       564-7.00599E+04-8.50701E+04-6.49492E+01-1.26655E+05 2.87764E-09-4.03679E-09
 -1       565-5.19356E+04-1.03194E+05-2.17523E+02-1.47522E+05-1.02318E-09-1.21481E-08
 -1       566-7.00915E+04-8.50317E+04-4.96230E+02-1.26686E+05 2.32353E-09-2.19188E-10
 -1       567-5.20264E+04-1.03227E+05-1.10855E+03-1.47506E+05 2.68665E-09-2.08274E-09
 -1       568-6.99482E+04-8.51607E+04-2.28503E+03-1.26608E+05 4.40195E-10-1.98270E-09
 -1       569-5.33597E+04-1.04359E+05-5.38765E+03-1.47018E+05-3.43152E-09-8.08723E-09
 -1       570-6.89711E+04-8.83947E+04-1.07102E+04-1.25304E+05-1.67347E-10 1.68438E-09
 -1       571 1.79101E+05 7.59504E+03 1.13831E+04-4.43727E+04 2.47837E-10-2.27919E-09
 -1       572 1.80812E+05 2.62265E+03 5.58153E+03-4.87385E+04 4.90218E-10-1.98338E-09
 -1       573 1.79791E+05 6.10706E+02 2.48084E+03-4.42578E+04-2.89674E-10 4.33829E-10
 -1       574 1.79995E+05 1.93580E+02 1.24388E+03-4.88657E+04-1.17325E-10-2.70575E-10
 -1       575 1.79869E+05 2.09075E+01 5.87190E+02-4.42429E+04 4.29736E-11-2.23054E-09
 -1       576 1.79887E+05 1.63046E+00 2.99629E+02-4.88826E+04-3.41458E-10 1.06184E-09
 -1       577 1.79881E+05-9.46152E+00 1.49013E+02-4.42409E+04-4.91127E-11-1.54159E-10
 -1       578 1.79877E+05-7.70111E+00 8.39032E+01-4.88846E+04 3.72893E-10 1.22918E-09
 -1       579 1.79893E+05-1.13126E+01 5.62725E+01-4.42409E+04-1.38243E-10-1.79671E-09
 -1       580 1.79892E+05-1.30676E+01 6.06620E+01-4.88820E+04-9.09495E-11-4.76439E-09
 -1       581 1.79912E+05-1.66310E+01 9.14945E+01-4.42435E+04-5.20231E-10-1.82899E-09
 -1       582 1.79934E+05 4.89065E-01 1.80604E+02-4.88552E+04-2.58751E-10-1.21372E-09
 -1       583 1.79930E+05 5.06558E+01 3.51276E+02-4.42677E+04 3.09228E-11-1.08457E-09
 -1       584 1.80086E+05 3.26227E+02 7.88379E+02-4.86514E+04-8.74479E-10 1.28182E-09
 -1       585 1.79866E+05 1.02150E+03 1.60290E+03-4.44481E+04 4.69299E-10 1.98270E-10
 -1       586 3.95287E+02 7.84819E+04 1.02225E+03-1.12047E+05 5.36602E-11 1.58934E-09
 -1       587 3.70397E+02 7.86662E+04 1.61225E+03-1.24948E+05-1.32786E-09 6.84622E-10
 -1       588 6.70469E+02 7.83720E+04 2.94250E+03-1.11904E+05-3.72893E-11 1.68143E-10
 -1       589 2.81887E+03 7.95906E+04 6.47843E+03-1.24970E+05-1.47338E-09-1.24237E-09
 -1       590 8.19902E+03 7.75352E+04 1.30760E+04-1.12024E+05 2.06910E-11-1.55342E-09
 -1       591-8.26029E+04-2.45032E+04-1.70174E+04-3.96184E+04 3.07102E-09 9.38962E-09
 -1       592-8.37760E+04-2.38979E+04-8.58462E+03-4.41436E+04-2.25782E-10 3.78782E-09
 -1       593-8.34988E+04-1.98735E+04-3.64318E+03-4.19618E+04-1.65528E-10 1.01545E-09
 -1       594-8.18255E+04-2.17822E+04-1.79059E+03-4.42908E+04 7.22594E-10-1.57572E-09
 -1       595-8.35937E+04-1.97558E+04-8.26462E+02-4.20494E+04-4.36785E-10 7.22252E-10
 -1       596-8.16933E+04-2.17086E+04-4.17738E+02-4.42708E+04 1.26929E-09 7.33655E-09
 -1       597-8.36093E+04-1.97704E+04-2.24691E+02-4.20494E+04 8.96627E-10 1.01555E-08
 -1       598-8.16795E+04-2.17093E+04-1.74563E+02-4.42646E+04 9.59517E-10 8.61826E-09
 -1       599-8.36083E+04-1.97714E+04-2.15275E+02-4.20487E+04-6.65977E-10 2.22371E-10
 -1       600-8.16904E+04-2.17099E+04-3.92977E+02-4.42682E+04 2.87628E-11-6.04814E-11
 -1       601-8.35911E+04-1.97591E+04-7.73070E+02-4.20474E+04-2.26237E-10-8.14680E-10
 -1       602-8.18134E+04-2.17778E+04-1.67302E+03-4.42828E+04 7.25322E-10-2.68301E-11
 -1       603-8.34991E+04-1.98725E+04-3.40280E+03-4.19663E+04 1.30194E-09-6.18456E-10
 -1       604-8.36534E+04-2.37327E+04-8.01680E+03-4.41188E+04-3.43789E-10-1.58775E-09
 -1       605-8.26397E+04-2.42145E+04-1.58912E+04-3.97985E+04-3.21825E-09-2.04682E-09
 -1       606 5.96091E+04-7.02703E+03-1.13004E+04 1.85974E+04-2.08456E-09-1.00272E-09
 -1       607 5.77956E+04-2.34247E+03-5.57153E+03 2.04748E+04 2.91038E-11-4.36444E-10
 -1       608 5.88470E+04-4.79362E+02-2.48405E+03 1.84662E+04 1.10767E-08-1.04819E-10
 -1       609 5.86176E+04-1.33024E+02-1.24847E+03 2.06196E+04 1.54760E-08-2.65254E-09
 -1       610 5.87490E+04 7.48586E+00-5.91363E+02 1.84501E+04 4.26644E-09-2.18483E-09
 -1       611 5.87041E+04 2.35072E+01-2.97520E+02 2.06370E+04-5.63068E-09-3.48632E-09
 -1       612 5.87266E+04 2.81600E+01-1.40684E+02 1.84483E+04-1.59616E-09-1.57570E-10
 -1       613 5.87093E+04 2.96381E+01-6.26134E+01 2.06392E+04-1.56069E-09 2.20325E-09
 -1       614 5.87161E+04 2.62249E+01-1.37037E+01 1.84479E+04 1.96405E-09-4.63615E-10
 -1       615 5.87067E+04 3.10055E+01 2.87459E+01 2.06394E+04 4.90286E-09 8.15362E-10
 -1       616 5.87078E+04 2.97928E+01 8.39690E+01 1.84481E+04-1.23237E-09 1.49112E-09
 -1       617 5.87175E+04 5.65068E+01 1.92000E+02 2.06386E+04 1.58195E-09 4.03065E-09
 -1       618 5.86904E+04 1.06944E+02 3.88530E+02 1.84485E+04 2.06774E-09-1.12209E-09
 -1       619 5.88463E+04 4.04507E+02 8.75662E+02 2.06350E+04 2.27146E-10 2.47155E-10
 -1       620 5.85706E+04 1.13750E+03 1.77752E+03 1.84505E+04 2.17028E-10-1.78716E-09
 -1       621 6.15621E+02 1.81275E+05 2.21609E+03-1.29009E+04-7.82165E-11-9.68953E-10
 -1       622 2.76887E+02 1.81727E+05 2.23149E+03-1.59735E+04 3.10820E-10 1.76692E-09
 -1       623 1.42481E+02 1.81344E+05 3.17992E+03-1.29065E+04-1.14369E-10 2.93676E-09
 -1       624 1.60212E+03 1.82758E+05 6.46421E+03-1.59163E+04 4.24166E-10 4.66798E-09
 -1       625 4.44393E+03 1.80253E+05 1.22341E+04-1.29568E+04 4.68390E-11 5.45015E-10
 -1       626 1.07917E+05 3.46509E+04-2.13692E+03 6.84114E+04 2.72394E-10-1.95996E-09
 -1       627 1.05563E+05 3.74834E+04-1.01612E+03 7.03978E+04 2.75941E-09-7.02642E-10
 -1       628 1.08005E+05 3.56161E+04-4.27227E+02 6.78326E+04 1.78625E-09-1.93040E-10
 -1       629 1.05647E+05 3.79768E+04-2.03556E+02 7.04359E+04 2.61252E-09-1.42364E-10
 -1       630 1.07999E+05 3.56802E+04-8.75973E+01 6.77806E+04 1.77806E-09-1.09657E-09
 -1       631 1.05642E+05 3.80162E+04-3.36321E+01 7.04396E+04-2.65436E-09-3.97813E-09
 -1       632 1.07989E+05 3.56836E+04 3.32423E+00 6.77729E+04-1.06365E-08-8.17181E-09
 -1       633 1.05638E+05 3.80195E+04 4.14516E+01 7.04384E+04-1.68475E-08 2.94779E-09
 -1       634 1.07980E+05 3.56802E+04 1.00888E+02 6.77707E+04-6.27665E-09 4.39991E-09
 -1       635 1.05648E+05 3.80218E+04 2.26332E+02 7.04403E+04 2.54659E-11 7.13953E-11
 -1       636 1.07970E+05 3.56873E+04 4.68426E+02 6.77644E+04 2.18947E-09 1.49810E-08
 -1       637 1.05756E+05 3.81362E+04 1.04329E+03 7.04246E+04-2.50361E-09-2.15823E-09
 -1       638 1.07942E+05 3.60361E+04 2.15866E+03 6.76110E+04 7.49378E-09-5.46243E-09
 -1       639 1.06860E+05 3.99888E+04 5.13094E+03 6.99814E+04 1.86606E-08-3.34785E-09
 -1       640 1.07955E+05 4.14382E+04 1.07881E+04 6.53580E+04 6.80166E-09-3.33239E-09
 -1       641-1.47363E+04 2.21519E+03-5.10661E+03-1.98166E+01 1.32413E-05-1.31004E-08
 -1       642-1.69523E+04-2.56385E+03-3.61359E+03 1.03185E+01 2.64566E-05-2.39731E-08
 -1       643-1.55903E+04 3.48163E+02-1.31695E+03-2.19098E+01 2.43467E-05-2.53266E-08
 -1       644-1.59568E+04-4.02068E+02-8.20927E+02 1.40380E+01 2.22260E-05-1.87339E-08
 -1       645-1.57318E+04 5.38201E+01-3.18045E+02-2.35366E+01 1.46438E-05-1.60529E-08
 -1       646-1.57889E+04-5.77789E+01-1.56085E+02 1.61253E+01 7.05611E-06-4.27109E-09
 -1       647-1.57582E+04 3.93464E+00-1.09500E+01-2.39973E+01-3.50801E-06 5.22449E-09
 -1       648-1.57437E+04 2.42094E+01 1.15966E+02 1.57385E+01-1.40803E-05 1.45248E-08
 -1       649-1.57770E+04-2.81580E+01 2.73495E+02-2.31498E+01-2.60538E-05 2.73369E-08
 -1       650-1.56407E+04 2.17414E+02 6.68230E+02 1.27515E+01-3.80280E-05 3.72009E-08
 -1       651-1.58612E+04-1.89243E+02 1.16354E+03-2.10103E+01-4.90263E-05 5.07237E-08
 -1       652-1.50646E+04 1.39953E+03 2.88341E+03 7.12465E+00-6.00155E-05 5.39737E-08
 -1       653-1.63530E+04-1.21006E+03 4.58932E+03-1.75230E+01-6.36282E-05 5.82447E-08
 -1       654-1.16038E+04 8.90819E+03 1.25631E+04-2.32948E+00-6.71999E-05 4.61605E-08
 -1       655-1.93215E+04-7.69642E+03 1.77447E+04-1.15564E+01-3.36258E-05 2.09666E-08
 -1       656 6.81635E+03-2.55432E+05-2.89575E+04 6.88793E+03-9.36780E-10-2.10593E-09
 -1       657-9.90962E+03-2.66154E+05-2.14810E+04 2.95308E+04-1.19508E-09-8.28095E-10
 -1       658 1.40678E+03-2.59152E+05-1.39803E+04 6.83012E+03 3.60899E-10 1.89863E-09
 -1       659-9.75811E+03-2.66085E+05-2.12287E+04 2.95658E+04-8.92214E-10-1.54775E-09
 -1       660 6.70434E+03-2.55522E+05-2.84784E+04 6.85330E+03-9.53150E-10 2.24816E-09
 -1       661 1.58572E+05 2.19960E+04 1.25866E+04 6.21936E+04 2.13504E-09 6.63931E-10
 -1       662 1.61272E+05 2.93148E+04 7.57972E+03 6.40520E+04-1.20495E-09 3.53384E-09
 -1       663 1.60505E+05 2.38719E+04 2.95415E+03 6.22038E+04-8.04334E-11-9.88848E-10
 -1       664 1.59012E+05 2.62751E+04 1.55895E+03 6.44073E+04 7.21037E-09 2.64652E-09
 -1       665 1.60691E+05 2.40429E+04 6.89911E+02 6.22111E+04 5.11719E-09-1.30271E-09
 -1       666 1.58796E+05 2.60222E+04 3.67200E+02 6.44226E+04 3.46796E-09-5.12783E-09
 -1       667 1.60711E+05 2.40598E+04 2.13824E+02 6.22127E+04 2.61328E-09-3.65883E-09
 -1       668 1.58777E+05 2.60051E+04 2.05403E+02 6.44237E+04 4.33647E-09-6.72344E-10
 -1       669 1.60710E+05 2.40570E+04 2.99774E+02 6.22115E+04-3.51690E-09 2.76503E-09
 -1       670 1.58815E+05 2.60422E+04 5.99640E+02 6.44293E+04-4.85412E-09 4.30262E-09
 -1       671 1.60675E+05 2.40251E+04 1.17357E+03 6.22068E+04-2.82796E-10 1.03284E-09
 -1       672 1.59187E+05 2.64814E+04 2.68017E+03 6.44076E+04 6.35282E-09 1.71758E-09
 -1       673 1.60356E+05 2.37283E+04 5.08883E+03 6.21927E+04 1.49470E-09 2.36014E-10
 -1       674 1.63083E+05 3.17247E+04 1.30660E+04 6.37987E+04 4.04714E-09-6.09361E-11
 -1       675 1.57024E+05 2.04929E+04 2.16981E+04 6.21741E+04 3.37104E-09 9.36780E-11
 -1       676 2.66588E+02-2.28162E+05-1.84074E+03-2.78455E+02-2.34352E-09-2.24177E-09
 -1       677-7.66002E+02-2.28886E+05-2.76490E+03-1.41192E+03-1.54054E-09-3.16249E-09
 -1       678 3.54697E+02-2.28067E+05-4.19008E+03-2.79616E+02-1.90630E-09-1.92045E-09
 -1       679-4.68013E+03-2.31260E+05-9.88420E+03-1.40648E+03-2.99326E-09 1.71852E-10
 -1       680 3.31679E+03-2.25789E+05-1.53987E+04-2.84465E+02-1.38607E-09 3.66049E-09
 -1       716-2.02827E-01-9.67015E-02 9.07561E+00-2.63265E-04 3.16010E-09-1.53669E-09
 -1       717 9.98810E-01 7.28397E-01 1.59839E+01 6.70333E-04 1.86505E-09 3.61382E-10
 -1       718-7.96000E-01-6.31963E-01 2.96617E+01-4.06986E-04 1.65569E-09-3.13597E-09
 -1       719 4.71631E+00 4.96153E+00 6.15237E+01-6.08311E-04 1.95749E-09-3.83849E-10
 -1       720-3.92037E+00-4.33010E+00 1.17343E+02 1.01591E-03 1.58898E-09-1.56323E-09
 -1       721 2.44098E+01 3.30589E+01 2.50782E+02-2.14479E-02-1.62778E-09-1.51068E-09
 -1       722-2.04896E+01-2.87283E+01 4.69380E+02 2.04296E-02-3.40412E-09-2.57577E-09
 -1       723 1.32714E+02 2.15712E+02 1.03388E+03-2.05814E-01 4.63432E-10-1.43592E-09
 -1       724-1.12222E+02-1.86962E+02 1.87218E+03 1.85337E-01-4.48175E-10-1.61208E-09
 -1       725 7.51723E+02 1.39001E+03 4.31483E+03-1.58280E+00-3.67112E-09-2.50111E-10
 -1       726-6.39435E+02-1.20283E+03 7.42367E+03 1.39708E+00-3.30586E-09-1.37652E-09
 -1       727 4.39864E+03 8.88853E+03 1.83267E+04-1.11338E+01-5.47716E-09 5.51836E-10
 -1       728-3.75800E+03-7.68393E+03 2.91566E+04 9.73535E+00-1.19311E-09-1.79352E-09
 -1       729 2.63694E+04 5.65685E+04 7.97839E+04-7.48865E+01 2.07220E-09-1.17143E-09
 -1       730-2.25911E+04-4.88689E+04 1.12737E+05 6.51627E+01 4.67791E-09-1.99361E-09
 -1       766-4.88796E+04-2.26240E+04 1.12715E+05-5.85329E+01-4.36557E-10 1.28649E-09
 -1       767 5.66498E+04 2.64249E+04 7.97786E+04 2.74207E+01 3.64889E-09-8.11124E-10
 -1       768-7.75472E+03-3.82047E+03 2.90607E+04 3.81177E+00-5.63887E-11 8.61000E-11
 -1       769 9.40643E+03 4.64299E+03 1.83342E+04-4.31939E+01 3.17073E-09 3.46671E-09
 -1       770-1.64978E+03-8.61117E+02 7.00176E+03 1.20921E+01-1.04137E-10 1.46493E-09
 -1       771-1.41926E+06-2.71571E+05-3.94901E+04-6.07256E+05-1.45155E-09-2.83762E-10
 -1       772-1.41319E+06-2.78562E+05-1.98783E+04-6.27413E+05-4.98403E-10 6.14818E-10
 -1       773-1.42205E+06-2.60279E+05-8.49169E+03-6.12367E+05 4.21642E-09 7.92897E-09
 -1       774-1.40853E+06-2.74076E+05-4.15319E+03-6.28635E+05 1.07684E-09 2.74667E-10
 -1       775-1.42262E+06-2.59757E+05-1.94877E+03-6.12657E+05-3.44517E-09-3.41333E-09
 -1       776-1.40841E+06-2.73898E+05-9.73185E+02-6.28938E+05-1.41154E-09 8.74252E-10
 -1       777-1.42291E+06-2.59624E+05-5.39665E+02-6.12756E+05 5.20231E-10-7.01220E-10
 -1       778-1.40854E+06-2.73863E+05-4.04238E+02-6.29154E+05 7.25777E-10 2.55170E-10
 -1       779-1.42309E+06-2.59510E+05-5.06596E+02-6.12825E+05-1.09139E-11-4.48608E-10
 -1       780-1.40867E+06-2.73842E+05-9.10956E+02-6.29309E+05-1.08776E-09-1.71576E-09
 -1       781-1.42315E+06-2.59416E+05-1.79929E+03-6.12861E+05 1.64619E-10-3.62434E-10
 -1       782-1.40901E+06-2.73989E+05-3.89618E+03-6.29404E+05 9.56561E-10 1.90767E-09
 -1       783-1.42295E+06-2.59669E+05-7.93455E+03-6.12684E+05-1.76055E-09 2.05000E-09
 -1       784-1.41333E+06-2.78526E+05-1.87114E+04-6.28965E+05-1.76271E-09-7.78527E-10
 -1       785-1.42087E+06-2.69866E+05-3.71063E+04-6.07649E+05 1.02546E-09 2.36469E-10
 -1       786 1.43077E+05-4.72328E+03 1.73141E+04-6.64853E+02 4.66116E-12 7.53971E-10
 -1       787 1.49561E+05 6.01671E+03 1.13109E+04-3.90275E+03 1.72179E-10 4.62705E-10
 -1       788 1.45752E+05-5.28316E+02 4.49581E+03-6.63402E+02 3.18323E-12 7.20775E-10
 -1       789 1.46556E+05 6.56688E+02 2.55752E+03-3.90078E+03-2.84217E-12-1.54131E-09
 -1       790 1.46080E+05-6.03260E+01 1.14511E+03-6.66677E+02 1.42478E-10-6.58815E-11
 -1       791 1.46183E+05 7.11528E+01 6.22067E+02-3.89626E+03-4.40139E-10-1.36887E-09
 -1       792 1.46124E+05-7.55534E+00 3.16154E+02-6.67911E+02 2.13249E-10 1.54364E-09
 -1       793 1.46135E+05 1.05694E+01 2.12565E+02-3.89616E+03 1.58650E-10-3.05207E-10
 -1       794 1.46128E+05-4.17553E+00 1.96815E+02-6.66779E+02-3.49928E-10 1.12147E-09
 -1       795 1.46151E+05 3.15940E+01 3.04178E+02-3.90096E+03 1.68075E-09-1.01454E-09
 -1       796 1.46110E+05-2.71130E+01 5.20196E+02-6.63118E+02 2.31887E-09-1.19680E-09
 -1       797 1.46316E+05 2.89371E+02 1.13774E+03-3.90961E+03 3.68911E-09-3.95710E-09
 -1       798 1.45965E+05-2.34239E+02 1.99033E+03-6.58123E+02 2.42585E-09-4.83965E-10
 -1       799 1.47645E+05 2.65795E+03 5.00131E+03-3.91339E+03 7.24867E-10 1.35458E-10
 -1       800 1.44783E+05-2.08903E+03 7.65271E+03-6.59444E+02-8.91305E-11 2.21098E-09
 -1       801-9.26560E+03 1.95016E+05 2.60118E+04-1.47785E+05 7.77345E-09-6.09725E-09
 -1       802 2.27600E+04 2.03508E+05 3.41983E+04-8.47504E+05 2.31012E-08-1.85355E-09
 -1       803-2.36651E+03 1.94358E+05 4.07713E+04-1.47447E+05 1.45483E-08 7.24469E-09
 -1       804 5.79802E+04 2.23763E+05 9.26353E+04-8.47439E+05 2.34868E-08 8.83119E-09
 -1       805-4.02132E+04 1.75264E+05 1.34304E+05-1.47860E+05 7.33417E-09 8.54197E-09
 -1       806-1.23772E+05-3.77657E+04-1.12250E+04-6.30581E+04 2.55625E-10 1.59162E-10
 -1       807-1.23393E+05-3.54959E+04-5.33806E+03-6.70079E+04 1.06149E-09 6.72213E-09
 -1       808-1.23756E+05-3.21525E+04-2.24649E+03-6.54211E+04 1.25056E-10-1.97809E-09
 -1       809-1.22268E+05-3.35500E+04-1.08620E+03-6.74583E+04-7.69319E-10-7.43228E-09
 -1       810-1.23789E+05-3.17877E+04-4.90346E+02-6.55853E+04 2.94119E-09 8.39043E-09
 -1       811-1.22161E+05-3.34282E+04-2.42140E+02-6.74748E+04-8.86075E-10-2.47701E-09
 -1       812-1.23799E+05-3.17799E+04-1.19360E+02-6.55918E+04-1.82240E-10-1.47566E-09
 -1       813-1.22148E+05-3.34265E+04-7.40990E+01-6.74709E+04 3.32392E-10 1.17780E-10
 -1       814-1.23798E+05-3.17838E+04-6.73266E+01-6.55901E+04 3.05818E-09 7.99628E-09
 -1       815-1.22149E+05-3.34298E+04-1.04003E+02-6.74681E+04 3.71529E-10-2.32558E-09
 -1       816-1.23790E+05-3.17904E+04-1.94007E+02-6.55855E+04-1.40994E-09 1.89357E-09
 -1       817-1.22192E+05-3.34728E+04-4.21682E+02-6.74509E+04 8.05358E-10 1.50999E-09
 -1       818-1.23768E+05-3.19402E+04-8.68519E+02-6.55257E+04-5.22959E-10-2.14413E-09
 -1       819-1.22674E+05-3.41720E+04-2.06089E+03-6.72115E+04-7.00311E-11 1.00727E-09
 -1       820-1.23718E+05-3.41548E+04-4.33255E+03-6.46650E+04 3.52884E-10 3.43243E-09
 -1       821-1.70156E+05 5.85392E+03-2.14658E+04 7.89789E+02-2.01317E-09 1.24237E-09
 -1       822-1.78188E+05-7.45895E+03-1.40231E+04 4.81598E+03-1.29876E-09 3.33785E-10
 -1       823-1.73474E+05 6.53800E+02-5.57637E+03 7.59362E+02 1.88663E-09-1.84559E-09
 -1       824-1.74470E+05-8.10233E+02-3.17476E+03 4.85891E+03-5.71845E-10-6.59952E-11
 -1       825-1.73880E+05 7.48655E+01-1.42956E+03 7.46609E+02-3.87001E-09-1.22253E-09
 -1       826-1.74013E+05-8.26775E+01-7.90935E+02 4.87973E+03-5.94051E-09 1.34419E-09
 -1       827-1.73934E+05 1.06712E+01-4.31478E+02 7.38491E+02-4.10279E-09-6.10783E-11
 -1       828-1.73961E+05-1.04016E+01-3.45495E+02 4.89240E+03-4.36864E-09-3.88918E-09
 -1       829-1.73935E+05 1.02074E+01-4.02757E+02 7.33926E+02-1.37331E-09-1.38684E-09
 -1       830-1.74008E+05-7.20077E+01-7.14979E+02 4.89745E+03 3.44224E-09 2.03499E-11
 -1       831-1.73888E+05 6.79459E+01-1.27950E+03 7.33441E+02-2.73684E-09-2.90999E-09
 -1       832-1.74418E+05-7.19910E+02-2.83512E+03 4.89431E+03 1.13771E-09-4.74830E-09
 -1       833-1.73525E+05 5.85094E+02-4.97575E+03 7.37126E+02 2.59979E-09-1.92085E-09
 -1       834-1.77739E+05-6.65130E+03-1.25128E+04 4.87662E+03 2.75594E-09-1.87447E-09
 -1       835-1.70566E+05 5.22551E+03-1.91517E+04 7.51609E+02 3.79623E-09-6.32099E-10
 -1       836-1.91545E+03 2.70738E+05 2.16202E+04-1.54883E+04-2.64208E-09 1.61890E-10
 -1       837 5.06961E+03 2.77642E+05 1.66130E+04-3.35787E+04-2.12898E-09 3.64520E-09
 -1       838-4.71876E+02 2.73022E+05 1.41456E+04-1.54450E+04-3.09751E-09 4.07778E-09
 -1       839 8.50365E+03 2.80110E+05 2.43665E+04-3.35799E+04-2.44199E-09-2.53840E-09
 -1       840-3.45748E+03 2.68267E+05 3.72226E+04-1.54866E+04-2.52294E-09-3.86081E-10
 -1       841 4.84311E+04 7.03260E+03-5.80130E+02 1.80550E+04-1.57049E-05 5.89156E-06
 -1       842 4.80474E+04 6.58479E+03-3.99898E+02 1.82545E+04-3.13913E-05 1.17922E-05
 -1       843 4.83008E+04 6.84025E+03-1.33757E+02 1.81135E+04-2.47238E-05 9.28450E-06
 -1       844 4.82041E+04 6.80254E+03-7.93435E+01 1.81804E+04-1.80302E-05 6.77925E-06
 -1       845 4.82744E+04 6.81490E+03-2.12645E+01 1.81290E+04-1.26617E-05 4.75693E-06
 -1       846 4.82397E+04 6.83256E+03 5.43456E+00 1.81591E+04-7.29595E-06 2.74343E-06
 -1       847 4.82651E+04 6.81024E+03 3.76217E+01 1.81349E+04-4.48914E-06 1.68292E-06
 -1       848 4.82650E+04 6.85885E+03 1.03575E+02 1.81482E+04-1.67954E-06 6.32860E-07
 -1       849 4.82492E+04 6.78861E+03 1.94413E+02 1.81398E+04-4.74535E-07 1.76877E-07
 -1       850 4.83657E+04 7.02206E+03 4.93367E+02 1.81206E+04 7.27402E-07-2.76804E-07
 -1       851 4.81645E+04 6.64705E+03 8.52526E+02 1.81625E+04 7.95245E-07-2.98892E-07
 -1       852 4.89692E+04 8.05984E+03 2.30233E+03 1.79394E+04 8.61370E-07-3.24185E-07
 -1       853 4.76456E+04 5.75097E+03 3.68196E+03 1.83209E+04-1.75090E-07 7.15036E-08
 -1       854 5.26926E+04 1.46297E+04 1.09180E+04 1.67166E+04-1.21703E-06 4.56669E-07
 -1       855 4.44412E+04 7.82624E+01 1.57151E+04 1.93849E+04-6.06236E-07 2.28058E-07
 -1       856-1.35362E+05 2.04685E+03-1.63017E+04 4.91268E+03-3.03862E-09-3.91356E-09
 -1       857-1.40689E+05-3.93728E+03-9.95666E+03 1.17562E+04-3.98052E-09-2.10821E-09
 -1       858-1.37664E+05 1.88731E+02-4.18546E+03 4.86043E+03-2.26441E-09 1.04774E-09
 -1       859-1.38189E+05-2.77299E+02-2.25215E+03 1.18150E+04 4.39115E-09 2.95188E-09
 -1       860-1.37883E+05 2.92304E+01-1.05664E+03 4.85284E+03 3.28873E-09 9.35074E-10
 -1       861-1.37955E+05 2.34110E+00-5.55698E+02 1.18249E+04-5.33993E-09-1.02398E-09
 -1       862-1.37910E+05 1.37403E+01-2.89843E+02 4.85045E+03 2.81864E-09-3.40310E-09
 -1       863-1.37929E+05 2.32957E+01-1.91448E+02 1.18275E+04 6.42551E-09-2.66934E-09
 -1       864-1.37913E+05 1.24318E+01-1.79650E+02 4.85021E+03 8.59245E-10-2.20757E-09
 -1       865-1.37935E+05 1.48446E+01-2.70535E+02 1.18253E+04 7.38549E-09-2.98809E-09
 -1       866-1.37901E+05 1.80883E+01-4.77169E+02 4.85262E+03 9.97375E-10-3.82570E-10
 -1       867-1.38034E+05-1.09432E+02-9.95507E+02 1.18167E+04-3.00588E-10 2.26731E-09
 -1       868-1.37803E+05 8.63471E+01-1.84186E+03 4.85891E+03 2.47564E-09-2.60712E-09
 -1       869-1.39126E+05-1.71914E+03-4.37387E+03 1.17610E+04-3.73063E-09-4.17484E-09
 -1       870-1.36790E+05 8.99507E+02-7.16125E+03 4.90884E+03-8.35371E-10-2.97405E-10
 -1       871-2.43400E+03-2.16966E+04-5.55219E+03 7.44275E+04 1.20690E-09 2.43199E-09
 -1       872-8.43365E+02-2.28080E+04-1.84242E+03 9.07699E+04-3.20597E-09-8.22183E-10
 -1       873-3.93328E+00-2.23550E+04 1.19681E+03 7.42758E+04 2.05546E-10-1.16756E-09
 -1       874 1.40899E+03-2.11673E+04 5.11569E+03 9.08178E+04-1.51385E-09-2.24276E-09
 -1       875 4.29605E+03-2.33826E+04 1.10052E+04 7.43850E+04 1.51613E-09-1.51340E-09
 -1       876 2.12067E+05 3.04174E+04 1.87498E+04 8.41387E+04 5.03519E-10-4.55930E-09
 -1       877 2.15565E+05 4.07682E+04 1.11434E+04 8.74561E+04-2.93699E-09-4.78212E-09
 -1       878 2.14844E+05 3.27556E+04 4.38655E+03 8.42919E+04 3.69369E-09-3.20597E-10
 -1       879 2.12288E+05 3.65132E+04 2.29087E+03 8.79169E+04 4.63660E-09-4.63183E-09
 -1       880 2.15094E+05 3.29669E+04 1.01835E+03 8.43149E+04 3.27827E-09-1.15011E-09
 -1       881 2.11993E+05 3.61785E+04 5.32414E+02 8.79230E+04-9.22682E-10-2.40290E-09
 -1       882 2.15119E+05 3.29917E+04 2.97418E+02 8.43202E+04 4.43191E-09-3.26699E-09
 -1       883 2.11968E+05 3.61523E+04 2.61680E+02 8.79163E+04-4.89587E-09 3.86686E-09
 -1       884 2.15116E+05 3.29918E+04 3.58767E+02 8.43208E+04-6.66319E-09-9.89365E-09
 -1       885 2.12009E+05 3.61854E+04 6.97168E+02 8.79199E+04 6.13696E-09-1.08048E-09
 -1       886 2.15078E+05 3.29615E+04 1.36344E+03 8.43157E+04 2.50373E-09 2.84854E-09
 -1       887 2.12410E+05 3.66332E+04 3.08343E+03 8.79052E+04-3.30110E-09-2.38225E-09
 -1       888 2.14737E+05 3.26791E+04 5.91082E+03 8.42858E+04-7.57589E-09-1.99361E-09
 -1       889 2.16817E+05 4.23780E+04 1.50196E+04 8.72915E+04 5.75110E-09 2.50589E-09
 -1       890 2.11002E+05 2.95185E+04 2.52732E+04 8.40667E+04 1.60912E-09 1.31877E-09
 -1       891 3.30221E+02-1.00571E+05-4.03793E+03 2.26049E+04-8.62883E-10 7.70342E-10
 -1       892-9.84024E+02-1.01835E+05-3.02400E+03 4.91760E+04-1.08685E-09-1.46014E-09
 -1       893 6.32193E+01-1.01023E+05-2.46020E+03 2.25416E+04 3.40924E-09-2.09303E-09
 -1       894-1.46654E+03-1.02168E+05-4.10307E+03 4.91593E+04 3.31238E-09-9.61791E-10
 -1       895 5.36700E+02-1.00219E+05-6.21133E+03 2.26214E+04 3.48473E-09-5.18412E-10
 -1       926-3.28440E+02-6.34058E+02 1.45632E+03 2.02554E+01 2.81364E-10-6.49663E-10
 -1       927 3.77223E+02 7.34247E+02 1.05468E+03-8.00599E+01-1.68328E-09-8.89017E-10
 -1       928-7.58051E+01-1.00234E+02 4.02660E+02 1.97809E+01-2.46363E-11-4.18510E-10
 -1       929 8.02250E+01 1.20050E+02 3.04400E+02-7.95631E+01 1.15346E-09-4.79289E-10
 -1       930-3.15421E+01-1.99090E+01 2.13174E+02 1.97585E+01-1.40954E-12-2.16074E-10
 -1       931 4.07277E+01 5.14166E+01 3.13813E+02-7.95353E+01-1.89674E-09-1.64597E-10
 -1       932-3.63859E+01-3.15604E+01 5.00935E+02 1.97529E+01-2.22093E-06 9.99307E-11
 -1       933 1.34334E+02 2.22133E+02 1.06689E+03-7.95133E+01-4.43829E-06-5.97424E-11
 -1       934-1.25201E+02-1.90568E+02 1.91133E+03 1.97365E+01-3.05615E-06-2.07365E-10
 -1       935 7.58026E+02 1.41505E+03 4.39533E+03-7.94094E+01-1.67116E-06-4.30305E-11
 -1       936-6.60044E+02-1.22426E+03 7.55766E+03 1.96491E+01-7.91480E-07 1.63709E-11
 -1       937 4.46845E+03 9.04719E+03 1.86545E+04-7.91554E+01 9.03176E-08 2.92403E-10
 -1       938-3.83445E+03-7.82103E+03 2.96773E+04 1.94827E+01 1.51021E-07-4.18368E-11
 -1       939 2.68341E+04 5.75789E+04 8.12087E+04-8.26686E+01 2.03262E-07 1.30967E-10
 -1       940-2.30058E+04-4.97420E+04 1.14748E+05 2.31613E+01 1.00234E-07 5.52973E-10
 -1       956-1.91710E+05-3.53609E+03-8.23952E+03 2.34889E+04-2.75577E-09-1.52068E-09
 -1       957-1.93293E+05-1.15148E+03-4.19974E+03 2.78583E+04-3.78350E-10-1.64641E-09
 -1       958-1.92424E+05-1.05569E+02-1.89138E+03 2.33466E+04 2.55204E-09 4.66116E-11
 -1       959-1.92563E+05-1.04913E+01-9.63978E+02 2.80133E+04-1.14960E-09-1.17916E-09
 -1       960-1.92498E+05 3.58623E+01-4.68529E+02 2.33327E+04-4.53247E-09-6.25732E-10
 -1       961-1.92514E+05 3.91728E+01-2.46119E+02 2.80288E+04-9.31141E-09-2.91266E-10
 -1       962-1.92516E+05 3.62955E+01-1.36639E+02 2.33310E+04-3.35103E-09-9.42691E-10
 -1       963-1.92515E+05 4.23911E+01-1.02085E+02 2.80311E+04-2.43517E-09 1.55023E-09
 -1       964-1.92522E+05 3.86595E+01-1.14706E+02 2.33304E+04 8.72433E-10-1.67120E-10
 -1       965-1.92523E+05 4.49468E+01-1.90580E+02 2.80309E+04 4.65911E-09 1.15347E-09
 -1       966-1.92516E+05 4.28480E+01-3.53570E+02 2.33312E+04-3.98711E-09-2.29693E-09
 -1       967-1.92568E+05 1.22247E+01-7.23676E+02 2.80218E+04-1.30058E-09-2.28192E-09
 -1       968-1.92467E+05-5.92361E+01-1.41730E+03 2.33395E+04-9.07221E-10-1.44394E-09
 -1       969-1.93122E+05-8.39703E+02-3.14763E+03 2.79262E+04-2.24645E-10 6.46367E-10
 -1       970-1.91936E+05-2.62857E+03-6.17437E+03 2.34286E+04 7.07587E-10-2.42289E-09
 -1       971-2.44891E+05 6.94009E+02-1.07622E+04 6.43386E+03-4.10455E-09-1.31513E-09
 -1       972-2.48199E+05-2.23410E+03-6.40686E+03 1.30101E+04-1.52431E-09-2.85820E-09
 -1       973-2.46350E+05 7.48321E+01-2.74509E+03 6.36138E+03-3.38287E-09-1.21122E-09
 -1       974-2.46638E+05-1.23504E+02-1.46040E+03 1.30930E+04 6.85304E-10-1.05535E-09
 -1       975-2.46478E+05 2.04639E+01-7.04829E+02 6.35016E+03-3.25826E-10-4.57021E-10
 -1       976-2.46511E+05 1.67788E+01-3.90511E+02 1.31087E+04-4.32567E-09-7.74207E-11
 -1       977-2.46495E+05 1.57242E+01-2.48371E+02 6.34562E+03 3.04522E-09-2.49742E-09
 -1       978-2.46505E+05 2.67123E+01-2.45756E+02 1.31148E+04 1.13431E-08-8.91077E-10
 -1       979-2.46494E+05 1.81613E+01-3.55574E+02 6.34406E+03 6.56618E-09-2.57904E-09
 -1       980-2.46534E+05 1.21410E+01-6.67109E+02 1.31146E+04 4.07158E-09-3.71290E-09
 -1       981-2.46466E+05 3.23660E+01-1.26983E+03 6.34576E+03-1.04080E-09-4.17795E-09
 -1       982-2.46783E+05-2.39397E+02-2.67319E+03 1.31064E+04-4.47619E-09-1.47405E-09
 -1       983-2.46237E+05 1.38792E+02-5.03958E+03 6.35242E+03-1.13619E-09-3.95880E-09
 -1       984-2.49670E+05-4.11374E+03-1.17805E+04 1.30460E+04-3.02362E-09 2.69665E-10
 -1       985-2.43562E+05 1.28584E+03-1.97865E+04 6.40806E+03-1.71985E-09-1.20599E-09
 -3
    1PSTEP                        15           8           1          
  100CL  108 4.47266E-01         608                     0    8           1
 -4  DISP        4    1
 -5  D1          1    2    1    0
 -5  D2          1    2    2    0
 -5  D3          1    2    3    0
 -5  ALL         1    2    0    0    1ALL
 -1         1 7.17848E-05 0.00000E+00 0.00000E+00
 -1         2 5.88956E-05 0.00000E+00 0.00000E+00
 -1         3 4.30963E-05 0.00000E+00 0.00000E+00
 -1         4 3.87669E-05 0.00000E+00 0.00000E+00
 -1         5 3.66058E-05 0.00000E+00 0.00000E+00
 -1         8 5.75355E-05-6.69688E-07 0.00000E+00
 -1         9 4.20902E-05-3.53920E-07 0.00000E+00
 -1        10 4.39035E-05-1.38114E-06 0.00000E+00
 -1        11 3.98589E-05-2.33299E-07 0.00000E+00
 -1        12 3.58511E-05 5.56003E-07 0.00000E+00
 -1        15 4.20836E-05-7.08448E-07 0.00000E+00
 -1        16 3.44814E-05-4.36071E-07 0.00000E+00
 -1        17 3.24821E-05-2.85367E-06 0.00000E+00
 -1        18 3.27134E-05-4.51144E-07 0.00000E+00
 -1        19 3.37343E-05 1.10543E-06 0.00000E+00
 -1        20 3.40680E-05 1.31700E-05 0.00000E+00
 -1        21 3.39673E-05 2.88506E-05 0.00000E+00
 -1        23 1.23200E-05-4.56061E-05 0.00000E+00
 -1        24 1.22339E-05-3.44352E-06 0.00000E+00
 -1        25 3.04989E-05-2.88019E-07 0.00000E+00
 -1        26 3.13248E-05 1.48876E-06 0.00000E+00
 -1        27 3.03404E-05 1.26276E-05 0.00000E+00
 -1        28 2.95529E-05 2.83651E-05 0.00000E+00
 -1        31 3.56285E-08-3.48817E-06 0.00000E+00
 -1        32 0.00000E+00 0.00000E+00 0.00000E+00
 -1        33 2.86126E-05 2.05751E-06 0.00000E+00
 -1        34 2.75156E-05 1.25774E-05 0.00000E+00
 -1        35 2.61109E-05 2.81505E-05 0.00000E+00
 -1        36 7.10037E-05-1.54296E-19 1.32349E-23
 -1        37 7.01977E-05 6.76033E-20 0.00000E+00
 -1        38 6.93934E-05 4.06546E-19 2.64698E-23
 -1        39 6.85844E-05 1.57199E-19-1.32349E-23
 -1        40 6.77752E-05-1.04967E-19 0.00000E+00
 -1        41 6.69651E-05 6.11059E-21 0.00000E+00
 -1        42 6.61548E-05 1.55519E-19 0.00000E+00
 -1        43 6.53444E-05 2.40243E-19-1.32349E-23
 -1        44 6.45340E-05 3.08675E-19 0.00000E+00
 -1        45 6.37237E-05-2.51779E-20 1.32349E-23
 -1        46 6.29135E-05-2.36766E-19 2.64698E-23
 -1        47 6.21041E-05 2.00200E-19-1.32349E-23
 -1        48 6.12947E-05 3.84905E-19 2.64698E-23
 -1        49 6.04892E-05 3.24091E-19-1.32349E-23
 -1        50 5.96824E-05 9.63686E-21 1.32349E-23
 -1        51 7.07260E-05-1.12002E-07 0.00000E+00
 -1        52 6.89516E-05-2.20556E-07 0.00000E+00
 -1        53 6.65999E-05-3.28947E-07 0.00000E+00
 -1        54 6.38161E-05-4.38464E-07 0.00000E+00
 -1        55 6.07459E-05-5.50341E-07-6.20385E-24
 -1        56 7.03404E-05-9.41925E-07-2.64698E-23
 -1        57 6.90848E-05-2.57005E-06 2.64698E-23
 -1        58 6.79970E-05-4.63545E-06 0.00000E+00
 -1        59 6.69695E-05-6.89465E-06-2.64698E-23
 -1        60 6.59057E-05-9.05706E-06 0.00000E+00
 -1        61 6.46985E-05-1.08418E-05 2.64698E-23
 -1        62 6.32728E-05-1.20426E-05-5.29396E-23
 -1        63 6.15624E-05-1.24849E-05-2.64698E-23
 -1        64 5.95581E-05-1.21445E-05 0.00000E+00
 -1        65 5.72659E-05-1.10387E-05 0.00000E+00
 -1        66 5.47491E-05-9.33693E-06 0.00000E+00
 -1        67 5.20849E-05-7.23921E-06 0.00000E+00
 -1        68 4.93770E-05-5.02540E-06 0.00000E+00
 -1        69 4.67434E-05-2.97690E-06 0.00000E+00
 -1        70 4.42651E-05-1.35097E-06 0.00000E+00
 -1        86 5.79544E-05-6.26847E-08 6.61744E-24
 -1        87 5.52005E-05-1.18191E-07-1.65436E-24
 -1        88 5.14335E-05-1.77440E-07 0.00000E+00
 -1        89 4.74549E-05-2.36855E-07 0.00000E+00
 -1        90 4.40718E-05-2.93706E-07-3.30872E-24
 -1        91 5.80354E-05-2.28126E-07 0.00000E+00
 -1        92 5.70902E-05-2.96868E-07 0.00000E+00
 -1        93 5.61286E-05-3.16947E-07 0.00000E+00
 -1        94 5.51904E-05-4.11938E-07 0.00000E+00
 -1        95 5.42627E-05-5.34775E-07 2.64698E-23
 -1        96 5.33271E-05-6.39065E-07 1.32349E-23
 -1        97 5.23852E-05-7.26651E-07 0.00000E+00
 -1        98 5.14380E-05-8.00348E-07 0.00000E+00
 -1        99 5.04967E-05-8.89861E-07 2.64698E-23
 -1       100 4.95724E-05-1.02427E-06-1.32349E-23
 -1       101 4.86386E-05-1.13304E-06 0.00000E+00
 -1       102 4.76699E-05-1.14626E-06 0.00000E+00
 -1       103 4.67193E-05-1.20790E-06 0.00000E+00
 -1       104 4.58448E-05-1.45811E-06-1.32349E-23
 -1       105 4.49325E-05-1.61323E-06 1.32349E-23
 -1       106 4.28269E-05 7.06422E-19 6.61744E-24
 -1       107 4.25558E-05 3.06217E-18-3.30872E-24
 -1       108 4.22849E-05 4.54140E-18 6.61744E-24
 -1       109 4.20137E-05 3.24110E-18-3.30872E-24
 -1       110 4.17424E-05 5.30436E-19 0.00000E+00
 -1       111 4.14711E-05-1.55108E-18 0.00000E+00
 -1       112 4.11998E-05-2.14077E-18-6.61744E-24
 -1       113 4.09285E-05-3.79355E-19 0.00000E+00
 -1       114 4.06572E-05 1.59738E-18 0.00000E+00
 -1       115 4.03860E-05 1.60593E-18-3.30872E-24
 -1       116 4.01147E-05-3.26448E-19 0.00000E+00
 -1       117 3.98437E-05-3.27623E-18 0.00000E+00
 -1       118 3.95727E-05-5.02096E-18 0.00000E+00
 -1       119 3.93026E-05-3.38390E-18 0.00000E+00
 -1       120 3.90322E-05-9.14269E-19-6.61744E-24
 -1       121 4.32683E-05-2.30089E-07 6.61744E-24
 -1       122 4.36389E-05-4.60146E-07 0.00000E+00
 -1       123 4.40479E-05-6.90231E-07 0.00000E+00
 -1       124 4.43349E-05-9.20348E-07-3.30872E-24
 -1       125 4.43398E-05-1.15043E-06 0.00000E+00
 -1       141 3.86304E-05-7.29590E-19-3.30872E-24
 -1       142 3.84942E-05-1.72785E-18 1.65436E-24
 -1       143 3.83581E-05-2.34916E-18-3.30872E-24
 -1       144 3.82220E-05-2.43132E-18 1.65436E-24
 -1       145 3.80860E-05-2.21280E-18-3.30872E-24
 -1       146 3.79499E-05-1.49275E-18 1.65436E-24
 -1       147 3.78139E-05-5.81223E-19-3.30872E-24
 -1       148 3.76779E-05-1.74916E-19 0.00000E+00
 -1       149 3.75419E-05-5.04139E-19 0.00000E+00
 -1       150 3.74059E-05-1.43283E-18 1.65436E-24
 -1       151 3.72701E-05-2.14591E-18-3.30872E-24
 -1       152 3.71345E-05-2.50466E-18 1.65436E-24
 -1       153 3.69990E-05-2.20753E-18-3.30872E-24
 -1       154 3.68653E-05-1.16152E-18 1.65436E-24
 -1       155 3.67310E-05-2.56907E-19 8.27181E-25
 -1       156 3.97386E-05-3.75859E-08-3.30872E-24
 -1       157 4.26435E-05-7.42887E-08 0.00000E+00
 -1       158 4.57105E-05-1.11755E-07-1.65436E-24
 -1       159 4.71680E-05-1.45589E-07 8.27181E-25
 -1       160 4.56660E-05-1.79882E-07-3.30872E-24
 -1       161 3.91136E-05-1.36865E-06 0.00000E+00
 -1       162 4.04359E-05-5.35845E-06-1.65436E-24
 -1       163 4.17476E-05-9.31955E-06 3.30872E-24
 -1       164 4.20623E-05-1.06021E-05 1.65436E-24
 -1       165 4.13737E-05-9.21006E-06-3.30872E-24
 -1       166 3.96822E-05-5.16513E-06 0.00000E+00
 -1       167 3.79892E-05-1.11628E-06 3.30872E-24
 -1       168 3.72962E-05 2.87502E-07 0.00000E+00
 -1       169 3.76071E-05-9.84656E-07-3.30872E-24
 -1       170 3.89189E-05-4.94593E-06 1.65436E-24
 -1       171 4.02443E-05-8.94356E-06 0.00000E+00
 -1       172 4.05962E-05-1.03245E-05 1.65436E-24
 -1       173 3.99444E-05-9.02885E-06-3.30872E-24
 -1       174 3.82669E-05-5.01404E-06-1.65436E-24
 -1       175 3.65644E-05-9.35502E-07 0.00000E+00
 -1       191 3.65818E-05 9.26405E-08 0.00000E+00
 -1       192 3.65164E-05 1.85345E-07-1.65436E-24
 -1       193 3.64100E-05 2.78061E-07-3.30872E-24
 -1       194 3.62631E-05 3.70768E-07 0.00000E+00
 -1       195 3.60764E-05 4.63441E-07-3.30872E-24
 -1       266 5.49602E-05-6.85960E-07 0.00000E+00
 -1       267 5.23849E-05-6.91219E-07 0.00000E+00
 -1       268 4.98096E-05-6.97192E-07 0.00000E+00
 -1       269 4.72342E-05-7.01082E-07-2.06795E-25
 -1       270 4.46589E-05-7.04931E-07 0.00000E+00
 -1       271 5.54546E-05 1.17117E-06 2.64698E-23
 -1       272 5.35253E-05 2.48279E-06 1.32349E-23
 -1       273 5.17742E-05 3.32492E-06 2.64698E-23
 -1       274 5.01748E-05 3.74507E-06 0.00000E+00
 -1       275 4.87114E-05 3.80117E-06 0.00000E+00
 -1       276 4.73607E-05 3.55390E-06 0.00000E+00
 -1       277 4.60991E-05 3.06846E-06 0.00000E+00
 -1       278 4.49011E-05 2.41302E-06 0.00000E+00
 -1       279 4.37402E-05 1.65810E-06-5.29396E-23
 -1       280 4.25899E-05 8.75576E-07 0.00000E+00
 -1       281 4.14231E-05 1.37602E-07 0.00000E+00
 -1       282 4.02137E-05-4.84087E-07 1.32349E-23
 -1       283 3.89351E-05-9.19600E-07-2.64698E-23
 -1       284 3.75666E-05-1.09979E-06-1.32349E-23
 -1       285 3.60777E-05-9.62825E-07 2.64698E-23
 -1       286 4.21896E-05 5.80040E-07 0.00000E+00
 -1       287 4.23034E-05 8.93956E-07 0.00000E+00
 -1       288 4.24165E-05 8.36471E-07 0.00000E+00
 -1       289 4.25322E-05 6.54135E-07 0.00000E+00
 -1       290 4.26479E-05 3.97173E-07-3.30872E-24
 -1       291 4.27642E-05 1.15417E-07-1.65436E-24
 -1       292 4.28806E-05-1.80847E-07 0.00000E+00
 -1       293 4.29970E-05-4.81422E-07 0.00000E+00
 -1       294 4.31134E-05-7.82985E-07 3.30872E-24
 -1       295 4.32298E-05-1.08222E-06 0.00000E+00
 -1       296 4.33461E-05-1.37210E-06 0.00000E+00
 -1       297 4.34618E-05-1.64554E-06 1.65436E-24
 -1       298 4.35775E-05-1.86925E-06 0.00000E+00
 -1       299 4.36904E-05-2.00965E-06 4.13590E-25
 -1       300 4.38043E-05-1.90225E-06 0.00000E+00
 -1       301 4.08182E-05-3.71416E-07 0.00000E+00
 -1       302 3.95364E-05-3.79293E-07-1.65436E-24
 -1       303 3.82532E-05-3.86167E-07 0.00000E+00
 -1       304 3.69774E-05-3.94136E-07 0.00000E+00
 -1       305 3.57173E-05-4.05226E-07 0.00000E+00
 -1       306 4.11667E-05 3.92686E-07 0.00000E+00
 -1       307 4.04176E-05 6.30498E-07 6.61744E-24
 -1       308 3.98288E-05 4.42461E-07 0.00000E+00
 -1       309 3.93674E-05-9.20104E-08 6.61744E-24
 -1       310 3.90043E-05-8.89767E-07 0.00000E+00
 -1       311 3.87079E-05-1.86673E-06 0.00000E+00
 -1       312 3.84466E-05-2.93754E-06 1.32349E-23
 -1       313 3.81881E-05-4.01638E-06 0.00000E+00
 -1       314 3.79005E-05-5.01733E-06 0.00000E+00
 -1       315 3.75519E-05-5.85494E-06 0.00000E+00
 -1       316 3.71107E-05-6.44486E-06-1.32349E-23
 -1       317 3.65461E-05-6.70417E-06 0.00000E+00
 -1       318 3.58274E-05-6.55218E-06 0.00000E+00
 -1       319 3.49279E-05-5.90981E-06 0.00000E+00
 -1       320 3.38153E-05-4.70313E-06 1.32349E-23
 -1       321 4.36603E-05 1.36525E-06 0.00000E+00
 -1       322 4.33993E-05 8.11535E-06 0.00000E+00
 -1       323 4.31468E-05 1.29882E-05 0.00000E+00
 -1       324 4.29018E-05 1.01236E-05 0.00000E+00
 -1       325 4.26407E-05 3.26642E-06 0.00000E+00
 -1       326 4.23783E-05-3.79515E-06 3.30872E-24
 -1       327 4.21321E-05-7.01857E-06 0.00000E+00
 -1       328 4.18808E-05-2.40314E-06 0.00000E+00
 -1       329 4.16201E-05 4.32089E-06 0.00000E+00
 -1       330 4.13765E-05 7.40038E-06 3.30872E-24
 -1       331 4.11349E-05 5.61310E-06-6.61744E-24
 -1       332 4.08658E-05-2.20989E-06 0.00000E+00
 -1       333 4.05985E-05-9.73835E-06-6.61744E-24
 -1       334 4.03587E-05-1.06450E-05 0.00000E+00
 -1       335 4.01137E-05-6.82704E-06 0.00000E+00
 -1       336 4.28802E-05-1.62647E-06 0.00000E+00
 -1       337 4.13629E-05-1.87233E-06 0.00000E+00
 -1       338 3.94572E-05-2.11871E-06 6.61744E-24
 -1       339 3.72700E-05-2.36489E-06 0.00000E+00
 -1       340 3.49089E-05-2.61157E-06 6.61744E-24
 -1       356 3.96047E-05 6.24631E-06 0.00000E+00
 -1       357 3.93609E-05 9.72321E-06 0.00000E+00
 -1       358 3.91211E-05 8.53884E-06-6.61744E-24
 -1       359 3.88546E-05 1.08570E-06 0.00000E+00
 -1       360 3.85875E-05-6.45623E-06 0.00000E+00
 -1       361 3.83465E-05-7.90624E-06-3.30872E-24
 -1       362 3.81026E-05-4.65306E-06-6.61744E-24
 -1       363 3.78434E-05 1.86310E-06 0.00000E+00
 -1       364 3.75937E-05 6.14475E-06 0.00000E+00
 -1       365 3.73471E-05 2.71869E-06 0.00000E+00
 -1       366 3.70852E-05-4.31857E-06 0.00000E+00
 -1       367 3.68271E-05-1.08312E-05-3.30872E-24
 -1       368 3.65841E-05-1.33335E-05 0.00000E+00
 -1       369 3.63348E-05-8.38366E-06-3.30872E-24
 -1       370 3.60774E-05-1.80657E-06 0.00000E+00
 -1       371 3.35577E-05-2.89210E-07 3.30872E-24
 -1       372 3.05759E-05-3.26018E-07 0.00000E+00
 -1       373 3.00409E-05-3.58572E-07-8.27181E-25
 -1       374 3.10766E-05-3.90286E-07 0.00000E+00
 -1       375 3.23965E-05-4.22359E-07 0.00000E+00
 -1       406 3.55792E-05 6.48064E-07 3.30872E-24
 -1       407 3.52719E-05 7.40158E-07-1.65436E-24
 -1       408 3.49312E-05 8.32196E-07 0.00000E+00
 -1       409 3.45597E-05 9.24034E-07-1.65436E-24
 -1       410 3.41598E-05 1.01545E-06 3.30872E-24
 -1       501 3.43793E-05 3.56844E-06-6.61744E-24
 -1       502 3.42565E-05 1.31579E-05 0.00000E+00
 -1       503 3.41203E-05 2.40869E-05 0.00000E+00
 -1       504 3.40137E-05 3.21071E-05 0.00000E+00
 -1       505 3.39326E-05 3.45655E-05 0.00000E+00
 -1       506 3.38391E-05 2.88282E-05-1.65436E-24
 -1       507 3.36925E-05 1.66570E-05 3.30872E-24
 -1       508 3.34811E-05-1.64344E-07 0.00000E+00
 -1       509 3.32651E-05-1.72860E-05 0.00000E+00
 -1       510 3.31079E-05-3.03573E-05 8.27181E-25
 -1       511 3.30075E-05-3.72689E-05 0.00000E+00
 -1       512 3.29291E-05-3.59325E-05 0.00000E+00
 -1       513 3.28288E-05-2.86810E-05 0.00000E+00
 -1       514 3.26970E-05-1.78677E-05 0.00000E+00
 -1       515 3.25725E-05-7.81766E-06-3.30872E-24
 -1       521 3.28786E-05 4.51729E-08 0.00000E+00
 -1       522 3.14080E-05 6.78762E-08 0.00000E+00
 -1       523 3.00802E-05-2.86519E-07 2.64698E-23
 -1       524 2.88611E-05-9.46802E-07 0.00000E+00
 -1       525 2.77262E-05-1.83365E-06 0.00000E+00
 -1       526 2.66450E-05-2.86643E-06-2.64698E-23
 -1       527 2.55872E-05-3.96210E-06 5.29396E-23
 -1       528 2.45214E-05-5.03706E-06 0.00000E+00
 -1       529 2.34166E-05-6.00789E-06-5.29396E-23
 -1       530 2.22423E-05-6.79265E-06 0.00000E+00
 -1       531 2.09687E-05-7.31197E-06 0.00000E+00
 -1       532 1.95680E-05-7.48995E-06 0.00000E+00
 -1       533 1.80132E-05-7.25570E-06 0.00000E+00
 -1       534 1.62841E-05-6.54222E-06 0.00000E+00
 -1       535 1.43521E-05-5.29301E-06 0.00000E+00
 -1       536 3.24879E-05-7.24334E-07-1.65436E-24
 -1       537 3.25008E-05 8.90748E-07 0.00000E+00
 -1       538 3.25142E-05 2.04519E-06 0.00000E+00
 -1       539 3.25289E-05 2.79285E-06-7.75482E-26
 -1       540 3.25440E-05 3.18743E-06-3.10193E-25
 -1       541 3.25593E-05 3.28260E-06 0.00000E+00
 -1       542 3.25746E-05 3.13199E-06 0.00000E+00
 -1       543 3.25900E-05 2.78916E-06 2.06795E-25
 -1       544 3.26053E-05 2.30766E-06 0.00000E+00
 -1       545 3.26206E-05 1.74100E-06 0.00000E+00
 -1       546 3.26359E-05 1.14268E-06 0.00000E+00
 -1       547 3.26512E-05 5.66207E-07-2.06795E-25
 -1       548 3.26665E-05 6.50717E-08 0.00000E+00
 -1       549 3.26820E-05-3.07218E-07-4.13590E-25
 -1       550 3.26975E-05-4.97101E-07 0.00000E+00
 -1       551 2.94747E-05-2.94774E-06 1.65436E-24
 -1       552 2.61020E-05-3.04117E-06-6.20385E-25
 -1       553 2.25266E-05-3.13544E-06 3.30872E-24
 -1       554 1.89137E-05-3.23141E-06 0.00000E+00
 -1       555 1.54285E-05-3.32979E-06 1.32349E-23
 -1       556 3.16455E-05-8.12020E-07 6.61744E-24
 -1       557 3.09918E-05 7.55003E-07 0.00000E+00
 -1       558 3.05007E-05 1.89195E-06 0.00000E+00
 -1       559 3.01535E-05 2.64734E-06 0.00000E+00
 -1       560 2.99317E-05 3.06965E-06-6.61744E-24
 -1       561 2.98166E-05 3.20769E-06 0.00000E+00
 -1       562 2.97899E-05 3.11031E-06 0.00000E+00
 -1       563 2.98331E-05 2.82641E-06-1.65436E-24
 -1       564 2.99279E-05 2.40491E-06 0.00000E+00
 -1       565 3.00560E-05 1.89476E-06 0.00000E+00
 -1       566 3.01989E-05 1.34490E-06 0.00000E+00
 -1       567 3.03384E-05 8.04300E-07-4.13590E-25
 -1       568 3.04562E-05 3.21908E-07-8.27181E-25
 -1       569 3.05341E-05-5.33801E-08-8.27181E-25
 -1       570 3.05537E-05-2.72689E-07 0.00000E+00
 -1       571 3.27751E-05-3.24977E-07-1.24077E-24
 -1       572 3.28383E-05-2.39706E-07-2.06795E-25
 -1       573 3.29020E-05-1.87750E-07-8.27181E-25
 -1       574 3.29660E-05-1.61146E-07-4.13590E-25
 -1       575 3.30300E-05-1.51899E-07 0.00000E+00
 -1       576 3.30941E-05-1.51964E-07 0.00000E+00
 -1       577 3.31582E-05-1.53289E-07 0.00000E+00
 -1       578 3.32223E-05-1.47818E-07 0.00000E+00
 -1       579 3.32864E-05-1.27492E-07-3.30872E-24
 -1       580 3.33505E-05-8.42548E-08-1.65436E-24
 -1       581 3.34145E-05-1.00491E-08 0.00000E+00
 -1       582 3.34786E-05 1.03174E-07 3.30872E-24
 -1       583 3.35427E-05 2.63456E-07 0.00000E+00
 -1       584 3.36067E-05 4.78754E-07 0.00000E+00
 -1       585 3.36706E-05 7.56983E-07 0.00000E+00
 -1       586 3.23935E-05-4.23316E-07 0.00000E+00
 -1       587 3.20237E-05-3.95475E-07 0.00000E+00
 -1       588 3.16264E-05-3.67708E-07 8.27181E-25
 -1       589 3.12246E-05-3.40186E-07-5.16988E-26
 -1       590 3.08412E-05-3.13166E-07 0.00000E+00
 -1       591 3.26192E-05-3.00835E-07 0.00000E+00
 -1       592 3.25326E-05-1.79402E-07 4.13590E-25
 -1       593 3.24542E-05-8.09375E-08-1.65436E-24
 -1       594 3.23821E-05-1.98579E-10 8.27181E-25
 -1       595 3.23145E-05 6.80798E-08 0.00000E+00
 -1       596 3.22496E-05 1.29119E-07-4.13590E-25
 -1       597 3.21854E-05 1.88135E-07 0.00000E+00
 -1       598 3.21201E-05 2.50337E-07-4.13590E-25
 -1       599 3.20516E-05 3.20937E-07 0.00000E+00
 -1       600 3.19780E-05 4.05142E-07-4.13590E-25
 -1       601 3.18973E-05 5.08161E-07 0.00000E+00
 -1       602 3.18077E-05 6.35208E-07-2.06795E-25
 -1       603 3.17072E-05 7.91499E-07 0.00000E+00
 -1       604 3.15941E-05 9.82282E-07-2.06795E-25
 -1       605 3.14665E-05 1.21279E-06-2.06795E-25
 -1       606 3.37575E-05 1.57542E-06 0.00000E+00
 -1       607 3.37791E-05 2.10046E-06-1.65436E-24
 -1       608 3.38003E-05 2.67729E-06 0.00000E+00
 -1       609 3.38211E-05 3.30218E-06-1.65436E-24
 -1       610 3.38419E-05 3.97140E-06 0.00000E+00
 -1       611 3.38627E-05 4.68115E-06 8.27181E-25
 -1       612 3.38833E-05 5.42762E-06-1.65436E-24
 -1       613 3.39040E-05 6.20702E-06 0.00000E+00
 -1       614 3.39246E-05 7.01552E-06 1.65436E-24
 -1       615 3.39452E-05 7.84931E-06 0.00000E+00
 -1       616 3.39658E-05 8.70459E-06 0.00000E+00
 -1       617 3.39864E-05 9.57755E-06 0.00000E+00
 -1       618 3.40069E-05 1.04644E-05 0.00000E+00
 -1       619 3.40274E-05 1.13613E-05 0.00000E+00
 -1       620 3.40478E-05 1.22644E-05-8.27181E-25
 -1       621 3.32988E-05 1.16966E-06-1.65436E-24
 -1       622 3.28696E-05 1.23410E-06 0.00000E+00
 -1       623 3.24523E-05 1.29851E-06 0.00000E+00
 -1       624 3.20521E-05 1.36276E-06 0.00000E+00
 -1       625 3.16746E-05 1.42669E-06-8.27181E-25
 -1       626 3.36059E-05 1.60475E-06 3.30872E-24
 -1       627 3.34555E-05 2.16160E-06 0.00000E+00
 -1       628 3.32854E-05 2.77050E-06 0.00000E+00
 -1       629 3.30981E-05 3.42536E-06 0.00000E+00
 -1       630 3.28957E-05 4.12011E-06 0.00000E+00
 -1       631 3.26807E-05 4.84856E-06 0.00000E+00
 -1       632 3.24553E-05 5.60453E-06 0.00000E+00
 -1       633 3.22219E-05 6.38187E-06 0.00000E+00
 -1       634 3.19828E-05 7.17439E-06 1.65436E-24
 -1       635 3.17403E-05 7.97590E-06-8.27181E-25
 -1       636 3.14967E-05 8.78024E-06 1.65436E-24
 -1       637 3.12544E-05 9.58122E-06-4.13590E-25
 -1       638 3.10156E-05 1.03727E-05 8.27181E-25
 -1       639 3.07824E-05 1.11484E-05 4.13590E-25
 -1       640 3.05570E-05 1.19021E-05 0.00000E+00
 -1       641 3.40630E-05 1.40820E-05-1.03398E-25
 -1       642 3.40571E-05 1.50395E-05 6.46235E-27
 -1       643 3.40512E-05 1.60358E-05 0.00000E+00
 -1       644 3.40452E-05 1.70644E-05-5.16988E-26
 -1       645 3.40391E-05 1.81168E-05 0.00000E+00
 -1       646 3.40330E-05 1.91849E-05 0.00000E+00
 -1       647 3.40268E-05 2.02595E-05 2.06795E-25
 -1       648 3.40207E-05 2.13316E-05 1.03398E-25
 -1       649 3.40145E-05 2.23924E-05 0.00000E+00
 -1       650 3.40083E-05 2.34328E-05 0.00000E+00
 -1       651 3.40022E-05 2.44449E-05-2.06795E-25
 -1       652 3.39960E-05 2.54209E-05 0.00000E+00
 -1       653 3.39898E-05 2.63546E-05 0.00000E+00
 -1       654 3.39831E-05 2.72399E-05 0.00000E+00
 -1       655 3.39766E-05 2.80731E-05 0.00000E+00
 -1       656 3.32718E-05 1.30824E-05 0.00000E+00
 -1       657 3.26115E-05 1.29904E-05-8.27181E-25
 -1       658 3.20376E-05 1.28988E-05-1.65436E-24
 -1       659 3.15008E-05 1.28071E-05-8.27181E-25
 -1       660 3.09515E-05 1.27152E-05-8.27181E-25
 -1       661 3.37903E-05 1.41017E-05 0.00000E+00
 -1       662 3.35037E-05 1.50638E-05 0.00000E+00
 -1       663 3.32081E-05 1.60498E-05 1.65436E-24
 -1       664 3.29061E-05 1.70538E-05 0.00000E+00
 -1       665 3.25995E-05 1.80700E-05-1.65436E-24
 -1       666 3.22907E-05 1.90923E-05 8.27181E-25
 -1       667 3.19817E-05 2.01150E-05-1.65436E-24
 -1       668 3.16749E-05 2.11323E-05 8.27181E-25
 -1       669 3.13723E-05 2.21381E-05-1.65436E-24
 -1       670 3.10761E-05 2.31268E-05 0.00000E+00
 -1       671 3.07886E-05 2.40923E-05 0.00000E+00
 -1       672 3.05120E-05 2.50288E-05-8.27181E-25
 -1       673 3.02483E-05 2.59305E-05 1.65436E-24
 -1       674 2.99995E-05 2.67911E-05 8.27181E-25
 -1       675 2.97682E-05 2.76051E-05-8.27181E-25
 -1       676 3.32177E-05 2.87691E-05 3.30872E-24
 -1       677 3.24704E-05 2.86875E-05 0.00000E+00
 -1       678 3.17279E-05 2.86060E-05 0.00000E+00
 -1       679 3.09926E-05 2.85249E-05-8.27181E-25
 -1       680 3.02668E-05 2.84437E-05 1.65436E-24
 -1       716 1.23167E-05-4.29710E-05-4.03897E-28
 -1       717 1.23133E-05-4.03358E-05 0.00000E+00
 -1       718 1.23100E-05-3.77006E-05-1.61559E-27
 -1       719 1.23067E-05-3.50654E-05 0.00000E+00
 -1       720 1.23033E-05-3.24303E-05 0.00000E+00
 -1       721 1.23000E-05-2.97951E-05-6.46235E-27
 -1       722 1.22966E-05-2.71599E-05 2.58494E-26
 -1       723 1.22932E-05-2.45248E-05 0.00000E+00
 -1       724 1.22898E-05-2.18896E-05-1.03398E-25
 -1       725 1.22863E-05-1.92544E-05-1.03398E-25
 -1       726 1.22826E-05-1.66193E-05 0.00000E+00
 -1       727 1.22782E-05-1.39841E-05 0.00000E+00
 -1       728 1.22738E-05-1.13489E-05 0.00000E+00
 -1       729 1.22658E-05-8.71378E-06 0.00000E+00
 -1       730 1.22591E-05-6.07862E-06 0.00000E+00
 -1       766 9.69037E-06-3.46842E-06 0.00000E+00
 -1       767 7.32993E-06-3.47454E-06 1.65436E-24
 -1       768 5.16852E-06-3.48140E-06 0.00000E+00
 -1       769 3.22211E-06-3.48435E-06 4.13590E-25
 -1       770 1.50604E-06-3.48675E-06 0.00000E+00
 -1       771 1.07619E-05-1.32792E-06-2.64698E-23
 -1       772 9.44482E-06 3.57821E-07 1.32349E-23
 -1       773 8.27486E-06 1.65019E-06-2.64698E-23
 -1       774 7.23817E-06 2.58669E-06 0.00000E+00
 -1       775 6.32094E-06 3.20502E-06 0.00000E+00
 -1       776 5.50888E-06 3.54324E-06 1.32349E-23
 -1       777 4.78762E-06 3.63956E-06 0.00000E+00
 -1       778 4.14272E-06 3.53242E-06 1.32349E-23
 -1       779 3.55969E-06 3.26037E-06 2.64698E-23
 -1       780 3.02399E-06 2.86212E-06-1.32349E-23
 -1       781 2.52112E-06 2.37645E-06 0.00000E+00
 -1       782 2.03656E-06 1.84226E-06 0.00000E+00
 -1       783 1.55582E-06 1.29844E-06 1.32349E-23
 -1       784 1.06478E-06 7.84006E-07 6.61744E-24
 -1       785 5.49186E-07 3.37889E-07-1.32349E-23
 -1       786 3.05476E-05-9.86854E-08 0.00000E+00
 -1       787 3.05991E-05 4.59338E-08-4.13590E-25
 -1       788 3.06505E-05 1.53204E-07-1.65436E-24
 -1       789 3.07024E-05 2.30493E-07 0.00000E+00
 -1       790 3.07543E-05 2.85145E-07 0.00000E+00
 -1       791 3.08064E-05 3.24494E-07 8.27181E-25
 -1       792 3.08584E-05 3.55865E-07 0.00000E+00
 -1       793 3.09105E-05 3.86577E-07 0.00000E+00
 -1       794 3.09626E-05 4.23949E-07 1.65436E-24
 -1       795 3.10146E-05 4.75306E-07 8.27181E-25
 -1       796 3.10667E-05 5.47977E-07-1.65436E-24
 -1       797 3.11187E-05 6.49309E-07-8.27181E-25
 -1       798 3.11707E-05 7.86661E-07 1.65436E-24
 -1       799 3.12225E-05 9.67411E-07 0.00000E+00
 -1       800 3.12743E-05 1.19898E-06-8.27181E-25
 -1       801 2.79854E-05-2.26986E-07 0.00000E+00
 -1       802 2.23247E-05-1.74166E-07 0.00000E+00
 -1       803 1.51058E-05-1.30380E-07 0.00000E+00
 -1       804 7.91881E-06-8.93746E-08-1.65436E-24
 -1       805 2.35380E-06-3.90292E-08 0.00000E+00
 -1       806 3.03764E-05-1.22480E-07 0.00000E+00
 -1       807 3.02605E-05 1.99644E-08 0.00000E+00
 -1       808 3.01511E-05 1.43904E-07 0.00000E+00
 -1       809 3.00468E-05 2.53729E-07 0.00000E+00
 -1       810 2.99460E-05 3.53820E-07-1.65436E-24
 -1       811 2.98473E-05 4.48536E-07 0.00000E+00
 -1       812 2.97489E-05 5.42235E-07 0.00000E+00
 -1       813 2.96492E-05 6.39272E-07 8.27181E-25
 -1       814 2.95466E-05 7.44000E-07 0.00000E+00
 -1       815 2.94396E-05 8.60773E-07 4.13590E-25
 -1       816 2.93263E-05 9.93941E-07 0.00000E+00
 -1       817 2.92053E-05 1.14786E-06-4.13590E-25
 -1       818 2.90750E-05 1.32687E-06 8.27181E-25
 -1       819 2.89336E-05 1.53530E-06 0.00000E+00
 -1       820 2.87798E-05 1.77746E-06 1.24077E-24
 -1       821 3.12670E-05 1.85864E-06 4.13590E-25
 -1       822 3.12055E-05 2.31549E-06-8.27181E-25
 -1       823 3.11442E-05 2.85017E-06 0.00000E+00
 -1       824 3.10822E-05 3.45341E-06-8.27181E-25
 -1       825 3.10201E-05 4.11593E-06-1.65436E-24
 -1       826 3.09579E-05 4.82838E-06 0.00000E+00
 -1       827 3.08957E-05 5.58137E-06 0.00000E+00
 -1       828 3.08334E-05 6.36553E-06 8.27181E-25
 -1       829 3.07711E-05 7.17141E-06 0.00000E+00
 -1       830 3.07088E-05 7.98957E-06 8.27181E-25
 -1       831 3.06465E-05 8.81057E-06 1.65436E-24
 -1       832 3.05843E-05 9.62496E-06-8.27181E-25
 -1       833 3.05221E-05 1.04233E-05-1.65436E-24
 -1       834 3.04605E-05 1.11961E-05 0.00000E+00
 -1       835 3.03989E-05 1.19340E-05 0.00000E+00
 -1       836 3.09376E-05 1.58226E-06 0.00000E+00
 -1       837 3.04778E-05 1.67879E-06 0.00000E+00
 -1       838 2.99803E-05 1.77520E-06 0.00000E+00
 -1       839 2.94802E-05 1.87125E-06 8.27181E-25
 -1       840 2.90126E-05 1.96728E-06 0.00000E+00
 -1       841 3.12008E-05 1.87940E-06 0.00000E+00
 -1       842 3.10309E-05 2.39173E-06 0.00000E+00
 -1       843 3.08264E-05 2.99630E-06 8.27181E-25
 -1       844 3.05983E-05 3.66369E-06 0.00000E+00
 -1       845 3.03526E-05 4.37810E-06 0.00000E+00
 -1       846 3.00950E-05 5.12376E-06 0.00000E+00
 -1       847 2.98291E-05 5.89161E-06 0.00000E+00
 -1       848 2.95583E-05 6.67265E-06 0.00000E+00
 -1       849 2.92849E-05 7.46057E-06 0.00000E+00
 -1       850 2.90112E-05 8.24909E-06 0.00000E+00
 -1       851 2.87396E-05 9.03216E-06 0.00000E+00
 -1       852 2.84722E-05 9.80368E-06 2.06795E-25
 -1       853 2.82123E-05 1.05551E-05 0.00000E+00
 -1       854 2.79627E-05 1.12778E-05 0.00000E+00
 -1       855 2.77296E-05 1.19572E-05 0.00000E+00
 -1       856 3.02942E-05 1.33539E-05 0.00000E+00
 -1       857 3.02453E-05 1.41780E-05-4.13590E-25
 -1       858 3.01963E-05 1.50865E-05 1.65436E-24
 -1       859 3.01468E-05 1.60657E-05 8.27181E-25
 -1       860 3.00973E-05 1.71021E-05-1.65436E-24
 -1       861 3.00476E-05 1.81819E-05 0.00000E+00
 -1       862 2.99978E-05 1.92916E-05 1.65436E-24
 -1       863 2.99481E-05 2.04174E-05 0.00000E+00
 -1       864 2.98983E-05 2.15457E-05 0.00000E+00
 -1       865 2.98485E-05 2.26628E-05 8.27181E-25
 -1       866 2.97988E-05 2.37550E-05 1.65436E-24
 -1       867 2.97492E-05 2.48086E-05 0.00000E+00
 -1       868 2.96996E-05 2.58101E-05 0.00000E+00
 -1       869 2.96502E-05 2.67457E-05 0.00000E+00
 -1       870 2.96010E-05 2.76019E-05-1.65436E-24
 -1       871 2.97866E-05 1.26207E-05 0.00000E+00
 -1       872 2.93048E-05 1.26129E-05 0.00000E+00
 -1       873 2.88661E-05 1.26049E-05-4.13590E-25
 -1       874 2.84411E-05 1.25966E-05-1.03398E-25
 -1       875 2.80006E-05 1.25879E-05 0.00000E+00
 -1       876 3.01579E-05 1.33706E-05 1.65436E-24
 -1       877 2.99509E-05 1.41889E-05-8.27181E-25
 -1       878 2.97196E-05 1.50717E-05-3.30872E-24
 -1       879 2.94680E-05 1.60099E-05 1.65436E-24
 -1       880 2.91993E-05 1.69939E-05 3.30872E-24
 -1       881 2.89170E-05 1.80142E-05-1.65436E-24
 -1       882 2.86245E-05 1.90615E-05 0.00000E+00
 -1       883 2.83255E-05 2.01264E-05 0.00000E+00
 -1       884 2.80233E-05 2.11994E-05-3.30872E-24
 -1       885 2.77217E-05 2.22713E-05-1.65436E-24
 -1       886 2.74239E-05 2.33327E-05 0.00000E+00
 -1       887 2.71335E-05 2.43741E-05 0.00000E+00
 -1       888 2.68540E-05 2.53862E-05 0.00000E+00
 -1       889 2.65885E-05 2.63594E-05 0.00000E+00
 -1       890 2.63411E-05 2.72845E-05 0.00000E+00
 -1       891 2.89320E-05 2.83296E-05 0.00000E+00
 -1       892 2.83986E-05 2.82935E-05 0.00000E+00
 -1       893 2.79013E-05 2.82575E-05-8.27181E-25
 -1       894 2.73886E-05 2.82216E-05 0.00000E+00
 -1       895 2.68089E-05 2.81856E-05 4.13590E-25
 -1       926 3.46170E-08-2.26002E-06 1.03398E-25
 -1       927 3.40964E-08-1.27052E-06 2.58494E-26
 -1       928 3.37436E-08-4.97412E-07 0.00000E+00
 -1       929 3.35601E-08 8.15926E-08 0.00000E+00
 -1       930 3.34574E-08 4.88769E-07-1.29247E-26
 -1       931 3.34039E-08 7.46394E-07 6.46235E-27
 -1       932 3.33662E-08 8.76763E-07 0.00000E+00
 -1       933 3.33051E-08 9.02162E-07-2.58494E-26
 -1       934 3.32116E-08 8.44885E-07 0.00000E+00
 -1       935 3.29630E-08 7.27225E-07 0.00000E+00
 -1       936 3.26217E-08 5.71478E-07 0.00000E+00
 -1       937 3.15634E-08 3.99941E-07 4.13590E-25
 -1       938 3.04056E-08 2.34879E-07 0.00000E+00
 -1       939 2.56896E-08 9.85629E-08 1.65436E-24
 -1       940 2.21779E-08 1.29468E-08 0.00000E+00
 -1       956 2.85456E-05 2.45518E-06 4.13590E-25
 -1       957 2.84773E-05 2.92540E-06-4.13590E-25
 -1       958 2.84088E-05 3.46048E-06 8.27181E-25
 -1       959 2.83401E-05 4.05224E-06 4.13590E-25
 -1       960 2.82713E-05 4.69249E-06 1.65436E-24
 -1       961 2.82024E-05 5.37299E-06 8.27181E-25
 -1       962 2.81336E-05 6.08549E-06 1.65436E-24
 -1       963 2.80647E-05 6.82174E-06 0.00000E+00
 -1       964 2.79958E-05 7.57351E-06 0.00000E+00
 -1       965 2.79269E-05 8.33251E-06 0.00000E+00
 -1       966 2.78580E-05 9.09052E-06 0.00000E+00
 -1       967 2.77891E-05 9.83928E-06 0.00000E+00
 -1       968 2.77203E-05 1.05705E-05 0.00000E+00
 -1       969 2.76516E-05 1.12761E-05-1.65436E-24
 -1       970 2.75831E-05 1.19477E-05 0.00000E+00
 -1       971 2.74296E-05 1.32251E-05 1.65436E-24
 -1       972 2.73419E-05 1.39760E-05-8.27181E-25
 -1       973 2.72540E-05 1.48175E-05 1.65436E-24
 -1       974 2.71658E-05 1.57368E-05 0.00000E+00
 -1       975 2.70775E-05 1.67210E-05 0.00000E+00
 -1       976 2.69891E-05 1.77573E-05-1.65436E-24
 -1       977 2.69007E-05 1.88328E-05 3.30872E-24
 -1       978 2.68122E-05 1.99347E-05 1.65436E-24
 -1       979 2.67238E-05 2.10500E-05 0.00000E+00
 -1       980 2.66353E-05 2.21658E-05 0.00000E+00
 -1       981 2.65469E-05 2.32693E-05-3.30872E-24
 -1       982 2.64586E-05 2.43475E-05 0.00000E+00
 -1       983 2.63704E-05 2.53876E-05 3.30872E-24
 -1       984 2.62827E-05 2.63767E-05 8.27181E-25
 -1       985 2.61951E-05 2.73019E-05-1.65436E-24
 -3
    1PSTEP                        16           8           1          
  100CL  108 4.47266E-01         608                     0    8           1
 -4  STRESS      6    1
 -5  SXX         1    4    1    1
 -5  SYY         1    4    2    2
 -5  SZZ         1    4    3    3
 -5  SXY         1    4    1    2
 -5  SYZ         1    4    2    3
 -5  SZX         1    4    3    1
 -1         1-2.22458E+06-7.63291E+05-4.87871E+05-6.96902E+05-3.24993E-10 6.17971E-09
 -1         2-1.46894E+06-3.79349E+05-1.90232E+05-2.43914E+05-7.76102E-10-2.00331E-08
 -1         3-3.89085E+05-3.43132E+05-1.37097E+04 4.33186E+04 3.63809E-09 3.04829E-09
 -1         4-3.60873E+05-5.26502E+04 9.80499E+02-3.32239E+04-1.48323E-09-1.24724E-09
 -1         5-2.05489E+05 4.86149E+04-8.35233E+04-1.98600E+03 1.31395E-08 3.07665E-09
 -1         8-9.96606E+05-4.60886E+05-1.35677E+05-6.12400E+05 4.60811E-11-6.98492E-10
 -1         9-1.03857E+06-3.63544E+05-1.47288E+05-3.61094E+05 1.72513E-09-1.67784E-09
 -1        10-5.08366E+05-3.57961E+05-3.48050E+04-1.25237E+05 3.46809E-09-2.48477E-08
 -1        11-3.02654E+05-6.97741E+04 2.33244E+03 1.15777E+04-7.13356E-10 1.43419E-09
 -1        12-2.74579E+05 2.23392E+04-1.02112E+05-2.10038E+04 2.09018E-08-4.28265E-09
 -1        15 1.70356E+03 9.21231E+02 5.28703E+03 1.93418E+00-6.33804E-11 1.18593E-09
 -1        16-1.60895E+06-4.28518E+05-1.45781E+05-5.29407E+05 1.10936E-09-1.30240E-09
 -1        17-2.86370E+05-2.30262E+05-2.82052E+04-2.02284E+05-1.00348E-09 2.03848E-09
 -1        18 1.89585E+04-1.15679E+04-1.35724E+04-4.65056E+04-1.29876E-10 8.73115E-11
 -1        19 7.55331E+04 9.21683E+04-9.64241E+01 2.50203E+03 1.09139E-11-1.43336E-10
 -1        20 3.32170E+04-5.65573E+04-1.32480E+04 2.64665E+04 2.01487E-09-2.33740E-10
 -1        21-5.94170E+03-9.01736E+04 2.49494E+04-7.38937E+02 6.90474E-09-3.19317E-09
 -1        23 4.13779E-01 1.97117E-01 7.58023E+00 5.48125E-04 2.63163E-09 1.62498E-09
 -1        24-8.29744E+05-2.48090E+05 4.40373E+04-4.31078E+05-1.22454E-09 2.38942E-09
 -1        25 1.24274E+04 3.43934E+04 1.72780E+04-2.39267E+05-2.94403E-10 4.61296E-10
 -1        26 1.68274E+03 6.30422E+04 2.94194E+02-1.03992E+04 1.54410E-10 1.75930E-09
 -1        27-1.36946E+04-4.17643E+04-1.85632E+04 4.60201E+04 1.92495E-09-1.51249E-09
 -1        28-5.20534E+03-6.96310E+04-2.47130E+03 2.68757E+04 6.03131E-09-2.19512E-10
 -1        31 2.63873E+03 3.04123E+03 4.49926E+03-6.83936E+01 2.43540E-09-1.11282E-09
 -1        32-3.38911E+05 8.18929E+04 2.11494E+05-4.91897E+05-2.42395E-10 1.28542E-09
 -1        33-7.44059E+04 7.53328E+04 2.31435E+04-2.37099E+04-8.71182E-10-4.42924E-10
 -1        34-9.05696E+04-3.64661E+03 8.19690E+03 3.46552E+04 5.05196E-11-2.36662E-09
 -1        35-1.37629E+04-1.87918E+04 1.02480E+03 4.37220E+04 7.54810E-10-2.12215E-09
 -1        36-2.28445E+06 6.74790E+04-1.55336E+05-5.72868E-07-3.86162E-09-5.36238E-09
 -1        37-2.35181E+06-7.80913E+04-1.10035E+05 6.92246E-07-7.52838E-09-3.14321E-09
 -1        38-2.31041E+06 1.06081E+04-4.01872E+04 9.42790E-07-6.65542E-09-2.40652E-09
 -1        39-2.32145E+06-1.22747E+04-2.53110E+04 2.08044E-07-4.95059E-10-9.64565E-09
 -1        40-2.31470E+06 1.66505E+03-1.03428E+04 2.11404E-07 2.00054E-09-2.56114E-09
 -1        41-2.31643E+06-1.95531E+03-6.21337E+03 1.66342E-09 2.45469E-09 2.98610E-09
 -1        42-2.31540E+06 2.90027E+02-3.09227E+03 1.54813E-06-7.18502E-10 2.28067E-09
 -1        43-2.31570E+06-5.37918E+02-2.56645E+03 1.50796E-07 2.78270E-10-3.64524E-09
 -1        44-2.31542E+06 2.47842E+02-2.71978E+03-6.75112E-08-3.12841E-09 6.81507E-09
 -1        45-2.31624E+06-1.59356E+03-5.13326E+03 5.61513E-08 9.83964E-11-1.80762E-10
 -1        46-2.31486E+06 1.34553E+03-8.40104E+03-2.13588E-07-2.16434E-09-2.65027E-09
 -1        47-2.32028E+06-9.90605E+03-2.04512E+04 2.33128E-07 2.49949E-09 1.51977E-09
 -1        48-2.31141E+06 8.55925E+03-3.24395E+04-4.39659E-08-2.95200E-10-2.58478E-09
 -1        49-2.34477E+06-6.30079E+04-8.87884E+04 3.79087E-07-3.35826E-09 3.28328E-10
 -1        50-2.29046E+06 5.44431E+04-1.25351E+05 6.49782E-08-9.27675E-09 2.91766E-09
 -1        51 1.69941E+04-2.92067E+05 2.89113E+04-7.56094E+05-3.78350E-10 4.51109E-09
 -1        52 8.27967E+03-2.89988E+05 1.88570E+04-8.37305E+05-4.00178E-11-1.34969E-09
 -1        53 6.15532E+03-2.96640E+05 1.70955E+04-7.54058E+05 1.49157E-10-1.48721E-08
 -1        54 1.58711E+04-2.93616E+05 2.84090E+04-8.39495E+05 1.38243E-10-3.32075E-08
 -1        55 3.74594E+04-3.02972E+05 5.29354E+04-7.53695E+05-2.91038E-11-6.52653E-09
 -1        56-4.03666E+06-4.32804E+05-3.48075E+05-1.56284E+06 8.80391E-10-4.65661E-10
 -1        57-4.19006E+06-7.61752E+05-2.38637E+05-1.53530E+06 5.82077E-10-4.53292E-09
 -1        58-4.11069E+06-5.48157E+05-8.16717E+04-1.53566E+06 1.07866E-09-3.09228E-10
 -1        59-4.10568E+06-6.25867E+05-5.00038E+04-1.56489E+06-4.35648E-10 6.23186E-09
 -1        60-4.12047E+06-5.67069E+05-1.90972E+04-1.53371E+06 1.65255E-09-7.17591E-10
 -1        61-4.09984E+06-5.98147E+05-1.11009E+04-1.56034E+06-1.51113E-09 7.98536E-09
 -1        62-4.11630E+06-5.75703E+05-5.34820E+03-1.54019E+06-2.18620E-09 3.25224E-09
 -1        63-4.11192E+06-5.81504E+05-4.47207E+03-1.54465E+06-1.57797E-09 1.46568E-09
 -1        64-4.10829E+06-5.83730E+05-5.26184E+03-1.54935E+06-5.74801E-10-4.22870E-09
 -1        65-4.12792E+06-5.69911E+05-1.08343E+04-1.52818E+06 1.69427E-09-2.41357E-09
 -1        66-4.10039E+06-5.87279E+05-1.86091E+04-1.55670E+06-1.82445E-09 3.08319E-09
 -1        67-4.14776E+06-5.82763E+05-4.87001E+04-1.51646E+06-1.81899E-10 3.50428E-09
 -1        68-4.08869E+06-5.71046E+05-7.95345E+04-1.56110E+06 1.67711E-09-1.17871E-09
 -1        69-4.22338E+06-7.21631E+05-2.32386E+05-1.49512E+06-1.29330E-09-2.96131E-09
 -1        70-4.02533E+06-4.49989E+05-3.38971E+05-1.57759E+06 7.27596E-11 1.81899E-09
 -1        86-2.92524E+04-1.56233E+05 6.89601E+04 9.66085E+03 3.09228E-09-2.11651E-09
 -1        87 3.69390E+04-1.22414E+05 5.46065E+04-4.20703E+04 5.20595E-09-3.95687E-09
 -1        88-7.47729E+03-1.44743E+05 2.89718E+04 1.02249E+04 4.74688E-09-8.01649E-10
 -1        89 2.83320E+04-1.27113E+05 4.32032E+04-4.22931E+04 7.05973E-09 1.91625E-09
 -1        90-2.06275E+04-1.51605E+05 4.96660E+04 9.88396E+03 2.58478E-09 5.98243E-09
 -1        91-2.10896E+06-2.45723E+05-1.29314E+05-8.13284E+05-1.66013E-05 6.18802E-06
 -1        92-2.17671E+06-3.65600E+05-8.98720E+04-7.91198E+05-3.31408E-05 1.24449E-05
 -1        93-2.13498E+06-2.92782E+05-3.02879E+04-8.04854E+05-9.34596E-06 3.51877E-06
 -1        94-2.14610E+06-3.11395E+05-1.89746E+04-8.01190E+05 1.44449E-05-5.41795E-06
 -1        95-2.13948E+06-2.99913E+05-7.09581E+03-8.03262E+05 2.95129E-06-1.10970E-06
 -1        96-2.14104E+06-3.03002E+05-4.27641E+03-8.02816E+05-8.55580E-06 3.21440E-06
 -1        97-2.14002E+06-3.01170E+05-2.02291E+03-8.03219E+05-4.25484E-07 1.58155E-07
 -1        98-2.14038E+06-3.01888E+05-1.88063E+03-8.02990E+05 7.72074E-06-2.89346E-06
 -1        99-2.14013E+06-3.01026E+05-2.18830E+03-8.03086E+05-2.43386E-06 9.18472E-07
 -1       100-2.14124E+06-3.03127E+05-4.79026E+03-8.02687E+05-1.25797E-05 4.72697E-06
 -1       101-2.13917E+06-2.99933E+05-8.01757E+03-8.03524E+05 4.33836E-06-1.63038E-06
 -1       102-2.14670E+06-3.12916E+05-2.14858E+04-8.01149E+05 2.12318E-05-7.97232E-06
 -1       103-2.13470E+06-2.91241E+05-3.43188E+04-8.04634E+05-1.88395E-05 7.09148E-06
 -1       104-2.18191E+06-3.73763E+05-1.01823E+05-7.89163E+05-5.89046E-05 2.21063E-05
 -1       105-2.10406E+06-2.39102E+05-1.46535E+05-8.15545E+05-2.95481E-05 1.10145E-05
 -1       106-7.73883E+05 4.29807E+03-9.90777E+03-6.38757E-09 2.01130E-09 1.75987E-10
 -1       107-7.78119E+05-4.97489E+03-7.01750E+03-4.65053E-07-1.15979E-09-9.17453E-11
 -1       108-7.75539E+05 6.75908E+02-2.56999E+03 2.89847E-07-1.03155E-09-8.91646E-10
 -1       109-7.76188E+05-7.83025E+02-1.62753E+03 7.96442E-08-9.27694E-10 2.14041E-09
 -1       110-7.75812E+05 1.06988E+02-6.84859E+02 1.34380E-07-3.52719E-10 2.16457E-09
 -1       111-7.75872E+05-1.31503E+02-4.49177E+02 8.03799E-07-8.76361E-10 3.28259E-09
 -1       112-7.75854E+05 2.44982E+01-2.95777E+02 3.50520E-07-6.98338E-11-8.52745E-10
 -1       113-7.75848E+05-7.94732E+01-3.80315E+02 2.68220E-07-1.18411E-09 2.15768E-09
 -1       114-7.75836E+05 5.49678E+01-5.65541E+02 3.66642E-07-1.28951E-09-2.42079E-09
 -1       115-7.76013E+05-3.92794E+02-1.23095E+03-5.61310E-07-1.46854E-10-1.61457E-09
 -1       116-7.75690E+05 3.37774E+02-2.09029E+03-2.66135E-07-7.98574E-10-1.85605E-09
 -1       117-7.77034E+05-2.49370E+03-5.14233E+03-5.35435E-08-1.47798E-09-2.30671E-09
 -1       118-7.74817E+05 2.15552E+03-8.17439E+03-2.32571E-07-3.59686E-09-1.47293E-09
 -1       119-7.83199E+05-1.58682E+04-2.23729E+04-1.81605E-07-6.48147E-10 6.25278E-10
 -1       120-7.69533E+05 1.37103E+04-3.15963E+04-2.83205E-07 1.70043E-09-1.23327E-09
 -1       121-1.72489E+02-6.57704E+05 7.15533E+02 1.48704E+04 5.06859E-10-5.13410E-10
 -1       122 3.83257E+02-6.57375E+05 8.25002E+02 8.67157E+04 1.07070E-09-3.63561E-09
 -1       123-1.06318E+02-6.57680E+05 9.66747E+02 1.47918E+04 5.35067E-10-1.17825E-09
 -1       124 1.15107E+03-6.56747E+05 2.18673E+03 8.64862E+04 5.94810E-10-3.22871E-10
 -1       125-9.67877E+02-6.58137E+05 3.18510E+03 1.51000E+04-6.88033E-10 3.08955E-09
 -1       141-3.89635E+05-1.12654E+03 2.59426E+03 3.15814E-07 1.78512E-10-1.81569E-09
 -1       142-3.88472E+05 1.30358E+03 1.83147E+03-2.23181E-07-8.02962E-11 6.40910E-11
 -1       143-3.89201E+05-1.76801E+02 6.57120E+02-1.89420E-07 2.81630E-10-6.32667E-11
 -1       144-3.88981E+05 2.02354E+02 3.91183E+02 1.54586E-07-1.25396E-09 2.01318E-09
 -1       145-3.89127E+05-2.55179E+01 1.11384E+02 2.29003E-07-8.97133E-11-3.56366E-10
 -1       146-3.89075E+05 1.51873E+01-2.82537E+01-4.04672E-07 3.01590E-10 1.47762E-09
 -1       147-3.89107E+05 1.03348E+01-1.95896E+02-4.62480E-07-2.61379E-10 6.04956E-10
 -1       148-3.89144E+05-1.04989E+02-5.02798E+02-4.31191E-08-7.80031E-10-7.95211E-10
 -1       149-3.89058E+05 9.46441E+01-9.42831E+02 1.36369E-07-7.49391E-10 9.67702E-10
 -1       150-3.89462E+05-7.07810E+02-2.19254E+03 6.89059E-08-1.74290E-09 2.71996E-09
 -1       151-3.88789E+05 6.13075E+02-3.77941E+03-6.91159E-08-6.91035E-10 1.46474E-09
 -1       152-3.91322E+05-4.53098E+03-9.33748E+03 1.45997E-07 6.63136E-10 7.05199E-10
 -1       153-3.87200E+05 3.91723E+03-1.48550E+04-2.48313E-07 3.90830E-09 9.36780E-11
 -1       154-4.02524E+05-2.88378E+04-4.06622E+04 2.24782E-07 1.81640E-09-3.41970E-09
 -1       155-3.77591E+05 2.49164E+04-5.74203E+04 7.87327E-07 8.04181E-09 1.58252E-09
 -1       156-1.29664E+04-9.76898E+04 2.99345E+04-1.69760E+03-1.27329E-09-3.03707E-09
 -1       157 1.65409E+04-7.91785E+04 2.50594E+04 5.99431E+03-7.64658E-10 3.64773E-09
 -1       158-3.55738E+03-9.28906E+04 1.38207E+04-1.74303E+03-3.86007E-09 2.92277E-09
 -1       159 1.60088E+04-7.23578E+04 2.49943E+04 4.83082E+03 3.26668E-09 3.80404E-09
 -1       160-1.24747E+04-1.04462E+05 2.55243E+04-5.34217E+02 2.03181E-09 3.34944E-09
 -1       161-3.67752E+05-5.00750E+04-2.95446E+02-1.35103E+05-4.36503E-09 1.04046E-09
 -1       162-3.53256E+05-5.31461E+04 1.67322E+03-1.38066E+05 3.76997E-09 1.37460E-09
 -1       163-3.67636E+05-4.98050E+04-5.71185E+02-1.35245E+05-1.95125E-09 1.38225E-09
 -1       164-3.56992E+05-5.01289E+04 1.35142E+03-1.33917E+05-6.52030E-09-2.74206E-09
 -1       165-3.64111E+05-5.32248E+04-6.57632E+02-1.39236E+05-5.77722E-06 2.18044E-06
 -1       166-3.60459E+05-4.65976E+04 1.26592E+03-1.29940E+05-1.15915E-05 4.40908E-06
 -1       167-3.64074E+05-5.32032E+04-7.91871E+02-1.39239E+05-5.77045E-06 2.17971E-06
 -1       168-3.57060E+05-5.02861E+04 9.29537E+02-1.33863E+05 8.03379E-09-2.14019E-09
 -1       169-3.67606E+05-4.96694E+04-1.36047E+03-1.35296E+05 7.68704E-06-2.85550E-06
 -1       170-3.53914E+05-5.42868E+04-4.39378E+02-1.37860E+05 1.52939E-05-5.65039E-06
 -1       171-3.67126E+05-4.90702E+04-3.66255E+03-1.35258E+05 7.69490E-06-2.85387E-06
 -1       172-3.59563E+05-5.46251E+04-6.93571E+03-1.33219E+05 1.29557E-08-3.78600E-09
 -1       173-3.62053E+05-4.94643E+04-1.38634E+04-1.39921E+05-2.79010E-09-1.53432E-09
 -1       174-3.76248E+05-7.42408E+04-3.76754E+04-1.24819E+05-2.21924E-08-2.01544E-09
 -1       175-3.50350E+05-2.93253E+04-5.69347E+04-1.43675E+05 5.64069E-09-6.06815E-09
 -1       191 3.24012E+02 2.65394E+05 5.23780E+02-3.91015E+03-1.83718E-10 5.64341E-10
 -1       192 1.18313E+02 2.65458E+05 3.20115E+02-4.08162E+03-1.55978E-10 1.41836E-09
 -1       193 5.80268E+01 2.65418E+05 2.68866E+02-3.80031E+03-5.26200E-10 1.64891E-09
 -1       194 1.76022E+02 2.65474E+05 4.21993E+02-4.29307E+03-3.93584E-10 4.16912E-09
 -1       195 5.01956E+02 2.65372E+05 7.77451E+02-3.69843E+03-8.93124E-10 2.35787E-09
 -1       266-2.99504E+04-1.38504E+04 6.91245E+04-3.98049E+01-7.27596E-12 1.69968E-09
 -1       267 3.46849E+04 1.61735E+04 4.90347E+04 4.57668E+01 4.82032E-11-6.03884E-09
 -1       268-4.72628E+03-2.31560E+03 1.81493E+04-5.96004E+00 1.00044E-11-1.00687E-09
 -1       269 5.57900E+03 2.77661E+03 1.18615E+04 6.92848E+00-5.90035E-11 2.30937E-09
 -1       270-8.51655E+02-4.60609E+02 5.69497E+03-9.66803E-01-4.63842E-11 4.46677E-09
 -1       271-3.11200E+06-3.87271E+05-2.45040E+05-1.20427E+06 5.56611E-10-1.57161E-09
 -1       272-3.20287E+06-5.50144E+05-1.55724E+05-1.19944E+06 7.98082E-10-3.02680E-09
 -1       273-3.15616E+06-4.44532E+05-5.78083E+04-1.19582E+06 4.59750E-10 9.60426E-10
 -1       274-3.15128E+06-4.77702E+05-3.19809E+04-1.21329E+06 1.38243E-10-9.96806E-10
 -1       275-3.16217E+06-4.49977E+05-1.34395E+04-1.19409E+06-2.15095E-10-1.99270E-09
 -1       276-3.14397E+06-4.71208E+05-7.12636E+03-1.21620E+06-1.28239E-10-3.69653E-09
 -1       277-3.16344E+06-4.50029E+05-3.59132E+03-1.19333E+06-7.37145E-10-2.00839E-09
 -1       278-3.14248E+06-4.71297E+05-2.73614E+03-1.21734E+06 5.73777E-10-3.39575E-10
 -1       279-3.16373E+06-4.49764E+05-3.14702E+03-1.19303E+06 2.47724E-10 1.90016E-09
 -1       280-3.14285E+06-4.72059E+05-5.91312E+03-1.21747E+06 1.04644E-09-1.18462E-10
 -1       281-3.16310E+06-4.49309E+05-1.09656E+04-1.19320E+06 2.24460E-09 3.56295E-09
 -1       282-3.14816E+06-4.78017E+05-2.60381E+04-1.21592E+06-1.91761E-10 5.62795E-09
 -1       283-3.15851E+06-4.44582E+05-4.70014E+04-1.19428E+06 5.38876E-10 4.64934E-09
 -1       284-3.18962E+06-5.37418E+05-1.26640E+05-1.20523E+06-5.50699E-10 8.44011E-10
 -1       285-3.12281E+06-3.97834E+05-1.99276E+05-1.20093E+06 9.34961E-10-9.96806E-10
 -1       286 3.15675E+05-3.83951E+04 8.84929E+04 6.84563E+02 1.70528E-09-1.82990E-09
 -1       287 3.54491E+05 4.44362E+04 6.27125E+04-1.03023E+03 2.47123E-10-1.81262E-09
 -1       288 3.30659E+05-6.03002E+03 2.29245E+04 5.08818E+01 5.41789E-10-6.61203E-10
 -1       289 3.37051E+05 6.97842E+03 1.44447E+04-2.77085E+02-4.04065E-10-1.54250E-09
 -1       290 3.33113E+05-9.47002E+02 5.92681E+03-6.85682E+01-1.01164E-07 4.01315E-10
 -1       291 3.34199E+05 1.11699E+03 3.59160E+03-1.34614E+02-2.05014E-07 1.31587E-09
 -1       292 3.33514E+05-1.69737E+02 1.84933E+03-9.15917E+01-7.02707E-08 2.58029E-09
 -1       293 3.33800E+05 3.42823E+02 1.64528E+03-1.10019E+02 6.49629E-08-4.27555E-10
 -1       294 3.33512E+05-1.72965E+02 1.87723E+03-9.31645E+01-5.19091E-07-2.54323E-09
 -1       295 3.34213E+05 1.14463E+03 3.67264E+03-1.23250E+02-1.10653E-06 4.83033E-09
 -1       296 3.33101E+05-9.71401E+02 6.07211E+03-7.83602E+01-3.84517E-06-6.25414E-09
 -1       297 3.37136E+05 7.15818E+03 1.48082E+04-2.17413E+02-6.58261E-06 3.16822E-09
 -1       298 3.30588E+05-6.18533E+03 2.35043E+04 1.00073E+00-3.29987E-06 7.17318E-09
 -1       299 3.54905E+05 4.55534E+04 6.42761E+04-7.18592E+02-6.20908E-11 1.08203E-08
 -1       300 3.15332E+05-3.93564E+04 9.07576E+04 4.22811E+02 5.42444E-09 2.17915E-09
 -1       301 2.44471E+04-1.46350E+04 7.29295E+04-2.07290E+04 9.45874E-11-1.26295E-09
 -1       302 9.30403E+03 5.21737E+02 4.94990E+04-2.56636E+04 9.55424E-10 7.70212E-10
 -1       303 1.97829E+03-9.46726E+03 4.58974E+04-2.07363E+04-4.45652E-11 2.61480E-12
 -1       304 1.76123E+04 6.95667E+03 7.60065E+04-2.56352E+04 7.93079E-10 1.72804E-09
 -1       305 4.84558E+04-2.10417E+04 1.35707E+05-2.07228E+04 1.45519E-10 3.70028E-09
 -1       306-1.43255E+06-1.87892E+05-8.59179E+04-5.55501E+05 3.09228E-10-1.05501E-10
 -1       307-1.44560E+06-2.63341E+05-5.45328E+04-5.75070E+05-2.28420E-09 1.09958E-09
 -1       308-1.44815E+06-2.07730E+05-2.02883E+04-5.52438E+05-2.18915E-09 5.17502E-10
 -1       309-1.42761E+06-2.38088E+05-1.12225E+04-5.80125E+05-2.54295E-09 9.44283E-10
 -1       310-1.45025E+06-2.09622E+05-4.74141E+03-5.51865E+05-2.41062E-09 2.27510E-09
 -1       311-1.42524E+06-2.35682E+05-2.55719E+03-5.81038E+05-2.77055E-10-8.27893E-09
 -1       312-1.45059E+06-2.09743E+05-1.37322E+03-5.51727E+05-1.15571E-09-2.93045E-09
 -1       313-1.42501E+06-2.35435E+05-1.21295E+03-5.81084E+05-7.05313E-10-1.15358E-09
 -1       314-1.45048E+06-2.09843E+05-1.62024E+03-5.51831E+05-1.39926E-09 4.05407E-10
 -1       315-1.42562E+06-2.35423E+05-3.22245E+03-5.80544E+05 6.21867E-10-4.72937E-10
 -1       316-1.44988E+06-2.09855E+05-6.10508E+03-5.52177E+05 1.59162E-10 1.19599E-09
 -1       317-1.42889E+06-2.38306E+05-1.44820E+04-5.79059E+05-1.43154E-09-6.02813E-09
 -1       318-1.44706E+06-2.07505E+05-2.62276E+04-5.53012E+05 3.36559E-09 3.06682E-09
 -1       319-1.45225E+06-2.70831E+05-7.04652E+04-5.72401E+05-9.13587E-10 3.70801E-09
 -1       320-1.42687E+06-1.81880E+05-1.11032E+05-5.56988E+05-2.67482E-09 1.34605E-09
 -1       321-6.89999E+05-5.14696E+02-5.38409E+02-8.42156E+03-2.54133E-09 2.80369E-09
 -1       322-6.45169E+05 2.50325E+03 8.25197E+03 1.20833E+04-1.61400E-08 3.56124E-09
 -1       323-7.11446E+05-1.96960E+03-5.67101E+03-2.32032E+03-6.73180E-09 2.29706E-09
 -1       324-6.53796E+05 1.21044E+02 5.63490E+03-6.99427E+03-5.91848E-09-2.09512E-09
 -1       325-6.81369E+05 1.79986E+03 4.23335E+02 1.06558E+04-6.51610E-10-3.31791E-09
 -1       326-6.53105E+05-2.86281E-01 5.59864E+03-7.50088E+03 2.15900E-09-6.66957E-09
 -1       327-7.12137E+05-1.84177E+03-6.14362E+03-1.81372E+03-3.26725E-09-5.61593E-09
 -1       328-6.46484E+05 7.56274E+02 6.85929E+03 1.18178E+04 1.06699E-10 2.34776E-09
 -1       329-6.87992E+05 1.09908E+03-1.43199E+03-8.66269E+03-3.71978E-09 6.87805E-11
 -1       330-6.59161E+05-1.08783E+03 3.30509E+03 2.77193E+03 7.78774E-09-1.96036E-09
 -1       331-6.99458E+05-1.02305E+02-5.16370E+03 7.23180E+03 2.74042E-10-4.06692E-09
 -1       332-6.44642E+05-6.63949E+02 3.50030E+03-1.21581E+04-1.63621E-08-4.33459E-09
 -1       333-7.02516E+05 8.03286E+02-1.10520E+04 6.26716E+03-1.22247E-08-3.67936E-09
 -1       334-6.63644E+05-1.24703E+04-1.36985E+04 4.28365E+03-1.46178E-09 2.81716E-09
 -1       335-6.80458E+05 1.15818E+04-2.70145E+04-9.20992E+03-8.59551E-09 3.73257E-09
 -1       336 1.97522E+02-7.00278E+05-2.20401E+03-9.08579E+03-2.34445E-09-3.92902E-10
 -1       337-1.18499E+03-7.01200E+05-4.52004E+03-5.64575E+04-4.22347E-09 4.79645E-09
 -1       338 9.24920E+02-6.99840E+05-7.70596E+03-8.67145E+03-3.86240E-09 5.43605E-09
 -1       339-1.00113E+04-7.06460E+05-1.92462E+04-5.70239E+04-5.77074E-09 2.19870E-09
 -1       340 8.07403E+03-6.95322E+05-2.94231E+04-8.52128E+03-4.02179E-09 5.67616E-09
 -1       356-6.80993E+05 1.14548E+04-2.71529E+04-8.82919E+03-3.18225E-09 4.11819E-09
 -1       357-6.65056E+05-1.25314E+04-1.40175E+04 3.70727E+03-5.01305E-09 4.29964E-10
 -1       358-7.00129E+05 9.92745E+02-1.06110E+04 6.43691E+03-4.62416E-09-1.66392E-09
 -1       359-6.46354E+05-7.27753E+02 3.08402E+03-1.18583E+04-7.09481E-09-8.05369E-09
 -1       360-6.99693E+05-2.29419E+02-5.34092E+03 6.73636E+03-4.28003E-09-3.84330E-09
 -1       361-6.59925E+05-1.04266E+03 2.96200E+03 3.19319E+03 4.11055E-09 1.04891E-09
 -1       362-6.86552E+05 1.18768E+03-1.52446E+03-8.61444E+03 9.69587E-09 3.09315E-09
 -1       363-6.48693E+05 4.92297E+02 5.62898E+03 1.12853E+04 6.70617E-09 4.95498E-09
 -1       364-7.10928E+05-1.67126E+03-7.34442E+03-1.35551E+03-8.35757E-09 3.62360E-09
 -1       365-6.54338E+05-9.58639E+02 2.24157E+03-7.69795E+03-2.12806E-08-3.40202E-09
 -1       366-6.80907E+05 2.59488E+03-5.15446E+03 1.03688E+04 1.32830E-08-1.64778E-09
 -1       367-6.58905E+05-6.59341E+03-8.43240E+03-6.32657E+03 2.07868E-08-4.81600E-09
 -1       368-7.06365E+05 3.94624E+03-2.69742E+04-2.72693E+03-3.00307E-09 4.45652E-10
 -1       369-6.65948E+05-3.97505E+04-5.15136E+04 1.18815E+04-1.26940E-08 7.99992E-09
 -1       370-6.73878E+05 3.58206E+04-8.47669E+04-7.83918E+03 6.00244E-09 2.43017E-09
 -1       371-1.16946E+04-1.00521E+05 2.41480E+04-1.01443E+02 7.92716E-09-1.12180E-09
 -1       372 1.23884E+04-7.77409E+04 1.75141E+04 3.30670E+03-1.16029E-09-5.87104E-10
 -1       373-7.14976E+02-9.14382E+04 2.69510E+03-1.09904E+03 6.39830E-10 1.50045E-09
 -1       374-5.37340E+03-9.07120E+04-6.00571E+03 4.41485E+03-2.20098E-10-2.01894E-09
 -1       375 6.09087E+03-8.75855E+04-1.33891E+04-1.20945E+03-1.63618E-09 8.75687E-10
 -1       406 4.31504E+02 2.63900E+05 1.00066E+03-1.43434E+04-1.24510E-09-2.66300E-09
 -1       407 3.24423E+02 2.64084E+05 1.35071E+03-1.56210E+04-8.85507E-10-1.54682E-09
 -1       408 5.97469E+02 2.63849E+05 2.33671E+03-1.42472E+04-1.62572E-09-1.04096E-08
 -1       409 2.39733E+03 2.64758E+05 5.08517E+03-1.57819E+04-1.12777E-09-1.79198E-08
 -1       410 6.88216E+03 2.63205E+05 1.02949E+04-1.41781E+04-1.80808E-09-9.65065E-09
 -1       501-2.48064E+05-4.35310E+04 9.39505E+04-4.69091E+03 8.52151E-09 5.21686E-09
 -1       502-1.71823E+05 4.91505E+04 7.24391E+04 1.24571E+04 8.43221E-09 1.00899E-08
 -1       503-2.19963E+05-5.52939E+03 2.45817E+04-5.77825E+03 3.45224E-09 7.50879E-09
 -1       504-1.73263E+05 8.43710E+03 2.29765E+04 7.85417E+03-2.54013E-09 5.59180E-09
 -1       505-2.46504E+05-2.97118E+03-1.82511E+02-8.75705E+01 3.18545E-09-1.17257E-09
 -1       506-1.69949E+05 2.48520E+03 1.22929E+04-4.45248E+03 1.85424E-08-9.61222E-09
 -1       507-2.23228E+05 3.70567E+02-1.87573E+02 6.52604E+03 1.66555E-08-1.10949E-08
 -1       508-1.96103E+05-1.05469E+03 4.00778E+03-1.13414E+04 6.18811E-09-1.40128E-08
 -1       509-2.20551E+05 7.69059E+02-6.73754E+02 6.80406E+03 1.69853E-08-1.52190E-08
 -1       510-1.72684E+05 1.27374E+03 8.83834E+03-5.33851E+03 1.53546E-08-1.22401E-08
 -1       511-2.46464E+05-2.14163E+03-5.62453E+03 5.20474E+02-9.73898E-10-1.52795E-10
 -1       512-1.73933E+05 2.17760E+03 1.01451E+04 7.08160E+03-7.63222E-09 5.68070E-09
 -1       513-2.19316E+05-1.20289E+02 2.80292E+03-5.61385E+03-6.93667E-09 9.82050E-09
 -1       514-1.91719E+05 7.59315E+03 1.38512E+04 1.25032E+04-4.51013E-09 1.21851E-08
 -1       515-2.28844E+05-7.38849E+03 1.19001E+04-4.90151E+03-6.21509E-09 4.00360E-09
 -1       521-3.17569E+06-4.04488E+05-2.04661E+05-1.22197E+06-2.24827E-09-2.54659E-09
 -1       522-3.24216E+06-5.49882E+05-1.30046E+05-1.22875E+06-8.61519E-10 6.40284E-10
 -1       523-3.21252E+06-4.52317E+05-4.82663E+04-1.21496E+06-4.16094E-11 2.41562E-09
 -1       524-3.19936E+06-4.89143E+05-2.67221E+04-1.24007E+06-1.03250E-09-1.30967E-09
 -1       525-3.21734E+06-4.57059E+05-1.12331E+04-1.21373E+06 1.35742E-09 1.30785E-09
 -1       526-3.19378E+06-4.83166E+05-6.00727E+03-1.24184E+06 4.02576E-09 1.52795E-09
 -1       527-3.21803E+06-4.57480E+05-3.10182E+03-1.21351E+06 2.36315E-09-3.35724E-09
 -1       528-3.19335E+06-4.82402E+05-2.52519E+03-1.24175E+06 1.66210E-10-6.27870E-09
 -1       529-3.21774E+06-4.57778E+05-3.11864E+03-1.21382E+06 1.46088E-09-1.87538E-09
 -1       530-3.19480E+06-4.82079E+05-6.02865E+03-1.24049E+06 1.27966E-09 2.48019E-09
 -1       531-3.21648E+06-4.57932E+05-1.13053E+04-1.21467E+06-7.19410E-10 1.25328E-09
 -1       532-3.20137E+06-4.87049E+05-2.68403E+04-1.23745E+06 2.42835E-10 1.90084E-10
 -1       533-3.21112E+06-4.53692E+05-4.85221E+04-1.21646E+06 3.95832E-09 4.51109E-10
 -1       534-3.24531E+06-5.47103E+05-1.30647E+05-1.22495E+06 2.15528E-09-2.13004E-09
 -1       535-3.17366E+06-4.06108E+05-2.05656E+05-1.22403E+06 1.54250E-09-8.14907E-10
 -1       536 3.74466E+04-1.05879E+04 3.82742E+04-5.06377E+03 6.93035E-10-6.16637E-10
 -1       537 5.22009E+04 1.32060E+04 2.50639E+04-2.90935E+04-2.99724E-09 2.20734E-09
 -1       538 4.33558E+04-1.24217E+03 9.91400E+03-5.00381E+03-3.47427E-10-1.52340E-10
 -1       539 4.53611E+04 1.39040E+03 5.66496E+03-2.91418E+04 1.38971E-09 1.23327E-09
 -1       540 4.40681E+04-1.69285E+02 2.49723E+03-5.01240E+03 7.76254E-10 2.26555E-09
 -1       541 4.44012E+04 1.41565E+02 1.34275E+03-2.91199E+04-5.52291E-10-9.50649E-10
 -1       542 4.41565E+04-2.66690E+01 6.12371E+02-5.02595E+03-3.11502E-10 1.08332E-09
 -1       543 4.42000E+04 3.20622E+01 3.05458E+02-2.90987E+04-6.04814E-11-2.33956E-09
 -1       544 4.41672E+04 2.19750E+00 1.10468E+02-5.03360E+03 3.63571E-10-1.44115E-09
 -1       545 4.41353E+04 2.11440E+01-1.71003E+01-2.90894E+04-1.45232E-09 1.83860E-09
 -1       546 4.41760E+04 1.57442E+01-1.45299E+02-5.03526E+03 6.84651E-10 1.54591E-09
 -1       547 4.40811E+04-7.92327E+01-3.94788E+02-2.90882E+04-7.30836E-10 2.39413E-09
 -1       548 4.42331E+04 8.42810E+01-7.26080E+02-5.03480E+03-9.14042E-10 4.60830E-09
 -1       549 4.36501E+04-9.71377E+02-1.83497E+03-2.90532E+04-4.61569E-10 3.50860E-09
 -1       550 4.46754E+04 7.46748E+02-2.83530E+03-5.07027E+03-2.09184E-10-1.09458E-09
 -1       551 6.71596E+03-2.50337E+05 1.75999E+04-3.99941E+05-5.09863E-09 1.67711E-09
 -1       552 5.35963E+03-2.47809E+05 1.88038E+04-4.93770E+05-5.27871E-09 5.72982E-09
 -1       553 3.88224E+03-2.51000E+05 2.76516E+04-3.99142E+05-5.71526E-09 2.58160E-09
 -1       554 1.74215E+04-2.38853E+05 5.68335E+04-4.93879E+05-5.76256E-09 1.41245E-09
 -1       555 4.14046E+04-2.59949E+05 1.07670E+05-3.99716E+05-4.94038E-09-2.92857E-09
 -1       556-7.07837E+04-8.23940E+04 2.07646E+04-1.32102E+05-3.92174E-09-3.16504E-10
 -1       557-4.96821E+04-1.02449E+05 1.05291E+04-1.48890E+05-1.30967E-10 4.40195E-10
 -1       558-7.07703E+04-8.72141E+04 4.39305E+03-1.28809E+05 5.06407E-09 2.28283E-09
 -1       559-5.20285E+04-1.05494E+05 2.17956E+03-1.49836E+05 3.37604E-09-2.33626E-09
 -1       560-7.10847E+04-8.70738E+04 9.58596E+02-1.28912E+05 1.17070E-08 4.53656E-09
 -1       561-5.25751E+04-1.05451E+05 4.72741E+02-1.50203E+05 1.92886E-08 2.71530E-09
 -1       562-7.13498E+04-8.68870E+04 1.86057E+02-1.29098E+05 7.70888E-09-2.05114E-09
 -1       563-5.28692E+04-1.05327E+05 5.85221E+01-1.50402E+05 8.13998E-10-1.16256E-09
 -1       564-7.15072E+04-8.67799E+04-6.63032E+01-1.29209E+05 4.60568E-09 4.85898E-09
 -1       565-5.30206E+04-1.05266E+05-2.21860E+02-1.50497E+05-6.04814E-10 1.23327E-09
 -1       566-7.15405E+04-8.67401E+04-5.06335E+02-1.29242E+05-1.47588E-09 1.73077E-09
 -1       567-5.31130E+04-1.05300E+05-1.13121E+03-1.50480E+05 1.18075E-09 4.94765E-10
 -1       568-7.13930E+04-8.68725E+04-2.33206E+03-1.29161E+05 7.95808E-10 2.29556E-09
 -1       569-5.44704E+04-1.06456E+05-5.49841E+03-1.49980E+05-9.16771E-10-4.64752E-09
 -1       570-7.03926E+04-9.01747E+04-1.09311E+04-1.27828E+05 1.04410E-09-3.97449E-10
 -1       571 1.82606E+05 7.74267E+03 1.16049E+04-4.52503E+04-2.81943E-10 1.30967E-10
 -1       572 1.84351E+05 2.67350E+03 5.69029E+03-4.97024E+04 2.03954E-10-2.11367E-09
 -1       573 1.83310E+05 6.22453E+02 2.52919E+03-4.51331E+04-4.68390E-11-2.50611E-09
 -1       574 1.83518E+05 1.97289E+02 1.26813E+03-4.98321E+04 7.27596E-12 9.74069E-10
 -1       575 1.83389E+05 2.12934E+01 5.98636E+02-4.51179E+04 7.63976E-11-1.38016E-09
 -1       576 1.83407E+05 1.67321E+00 3.05470E+02-4.98493E+04-4.90573E-10-1.97360E-10
 -1       577 1.83402E+05-9.65601E+00 1.51907E+02-4.51159E+04 7.00311E-11 8.92669E-10
 -1       578 1.83397E+05-7.89337E+00 8.55125E+01-4.98514E+04 6.53927E-10-5.96629E-10
 -1       579 1.83414E+05-1.16587E+01 5.73010E+01-4.51158E+04 2.97860E-10 8.33552E-10
 -1       580 1.83413E+05-1.35525E+01 6.17057E+01-4.98488E+04-2.91948E-10 8.34461E-10
 -1       581 1.83434E+05-1.73416E+01 9.29784E+01-4.51185E+04-2.81943E-10-7.94898E-10
 -1       582 1.83457E+05-1.40251E-01 1.83507E+02-4.98214E+04-1.19599E-10-1.36561E-09
 -1       583 1.83452E+05 5.05955E+01 3.56844E+02-4.51431E+04-3.87445E-10-1.45292E-10
 -1       584 1.83611E+05 3.30328E+02 8.00905E+02-4.96136E+04-1.38061E-09 5.20117E-10
 -1       585 1.83388E+05 1.03648E+03 1.62827E+03-4.53271E+04 2.37378E-10 1.91540E-09
 -1       586 4.08069E+02 8.00835E+04 1.04864E+03-1.14272E+05 4.54747E-11 1.52568E-09
 -1       587 3.80857E+02 8.02717E+04 1.64777E+03-1.27429E+05-1.37970E-09-2.91971E-09
 -1       588 6.85915E+02 7.99709E+04 3.00334E+03-1.14126E+05 3.00133E-11 1.32161E-09
 -1       589 2.87784E+03 8.12142E+04 6.61020E+03-1.27451E+05-1.42973E-09 5.76483E-09
 -1       590 8.36632E+03 7.91178E+04 1.33408E+04-1.14248E+05 1.00044E-11 1.22054E-09
 -1       591-8.42566E+04-2.49917E+04-1.73556E+04-4.04100E+04-2.47314E-09-8.65566E-09
 -1       592-8.54531E+04-2.43744E+04-8.75522E+03-4.50251E+04 8.42533E-10-9.27571E-10
 -1       593-8.51703E+04-2.02700E+04-3.71558E+03-4.28000E+04 3.54703E-11 1.60526E-09
 -1       594-8.34639E+04-2.22166E+04-1.82617E+03-4.51752E+04-1.09594E-10 6.07315E-10
 -1       595-8.52672E+04-2.01500E+04-8.42885E+02-4.28894E+04-3.61342E-09-2.78948E-09
 -1       596-8.33291E+04-2.21415E+04-4.26039E+02-4.51548E+04 1.60719E-09 6.64568E-09
 -1       597-8.52831E+04-2.01648E+04-2.29158E+02-4.28894E+04-3.80316E-09-8.08973E-09
 -1       598-8.33149E+04-2.21422E+04-1.78037E+02-4.51486E+04-2.56193E-10 9.94055E-09
 -1       599-8.52820E+04-2.01659E+04-2.19569E+02-4.28887E+04-3.46790E-09-7.51152E-09
 -1       600-8.33261E+04-2.21428E+04-4.00818E+02-4.51521E+04-1.88720E-10-9.09267E-10
 -1       601-8.52644E+04-2.01534E+04-7.88504E+02-4.28873E+04-6.20048E-10-1.86060E-09
 -1       602-8.34514E+04-2.22121E+04-1.70641E+03-4.51670E+04 1.03296E-09 1.80898E-09
 -1       603-8.51705E+04-2.02691E+04-3.47072E+03-4.28046E+04-6.56200E-10 1.39107E-09
 -1       604-8.53281E+04-2.42061E+04-8.17682E+03-4.49997E+04-2.02363E-11-2.46996E-09
 -1       605-8.42939E+04-2.46978E+04-1.62084E+04-4.05933E+04-5.20004E-10 1.05183E-09
 -1       606 6.08071E+04-7.16606E+03-1.15241E+04 1.89728E+04-4.32192E-09-1.01772E-09
 -1       607 5.89576E+04-2.38870E+03-5.68181E+03 2.08879E+04-1.72577E-09-1.51579E-09
 -1       608 6.00296E+04-4.88718E+02-2.53324E+03 1.88389E+04 1.91631E-09 4.82714E-10
 -1       609 5.97956E+04-1.35381E+02-1.27318E+03 2.10356E+04-7.71252E-10 3.28328E-09
 -1       610 5.99295E+04 7.91030E+00-6.03081E+02 1.88224E+04-3.93084E-09-1.23964E-09
 -1       611 5.98835E+04 2.43876E+01-3.03409E+02 2.10534E+04-6.06633E-09-1.52204E-09
 -1       612 5.99065E+04 2.91191E+01-1.43476E+02 1.88207E+04-2.15732E-08 2.55272E-09
 -1       613 5.98886E+04 3.07548E+01-6.38501E+01 2.10556E+04-4.48924E-08 4.72528E-09
 -1       614 5.98956E+04 2.72452E+01-1.39749E+01 1.88202E+04-2.21885E-08 1.63914E-09
 -1       615 5.98859E+04 3.22377E+01 2.93256E+01 2.10558E+04 2.94403E-09 6.14591E-10
 -1       616 5.98870E+04 3.09580E+01 8.56486E+01 1.88204E+04-4.35148E-09-3.35376E-10
 -1       617 5.98968E+04 5.83104E+01 1.95843E+02 2.10551E+04-1.59343E-09 3.43084E-09
 -1       618 5.98691E+04 1.09699E+02 3.96301E+02 1.88209E+04-1.79170E-10 1.73895E-09
 -1       619 6.00281E+04 4.13305E+02 8.93174E+02 2.10514E+04 1.45991E-09 1.91312E-09
 -1       620 5.97469E+04 1.16088E+03 1.81307E+03 1.88228E+04 1.29728E-09 2.13709E-09
 -1       621 6.28530E+02 1.84893E+05 2.26149E+03-1.31584E+04-1.18348E-10 1.72713E-09
 -1       622 2.82810E+02 1.85355E+05 2.27669E+03-1.62920E+04 1.10617E-10 2.02590E-10
 -1       623 1.45520E+02 1.84965E+05 3.24378E+03-1.31642E+04 2.20552E-11-2.97405E-10
 -1       624 1.63438E+03 1.86406E+05 6.59365E+03-1.62337E+04 3.54817E-10-7.69433E-10
 -1       625 4.53297E+03 1.83851E+05 1.24789E+04-1.32154E+04 1.56433E-10 1.21190E-09
 -1       626 1.10076E+05 3.53486E+04-2.17763E+03 6.97839E+04-9.07221E-10 1.18052E-09
 -1       627 1.07676E+05 3.82374E+04-1.03546E+03 7.18106E+04 8.16726E-10 3.08574E-09
 -1       628 1.10166E+05 3.63322E+04-4.35373E+02 6.91938E+04 8.10360E-10 2.26555E-09
 -1       629 1.07761E+05 3.87404E+04-2.07421E+02 7.18493E+04 3.40333E-09-2.25776E-09
 -1       630 1.10159E+05 3.63977E+04-8.92645E+01 6.91406E+04 1.64619E-09-4.27877E-09
 -1       631 1.07755E+05 3.87807E+04-3.42562E+01 7.18529E+04-3.99268E-10 2.66658E-09
 -1       632 1.10149E+05 3.64013E+04 3.41152E+00 6.91326E+04 9.73250E-09 1.32658E-08
 -1       633 1.07751E+05 3.87842E+04 4.22969E+01 7.18515E+04-2.03249E-09-3.30465E-09
 -1       634 1.10140E+05 3.63978E+04 1.02917E+02 6.91303E+04 4.34284E-11-7.69205E-10
 -1       635 1.07761E+05 3.87865E+04 2.30874E+02 7.18534E+04-1.30871E-09 2.68983E-10
 -1       636 1.10130E+05 3.64051E+04 4.77814E+02 6.91239E+04 1.26295E-09 9.59631E-09
 -1       637 1.07871E+05 3.89033E+04 1.06419E+03 7.18375E+04 1.17751E-09 6.21640E-10
 -1       638 1.10101E+05 3.67608E+04 2.20190E+03 6.89674E+04 7.61952E-09-4.94128E-09
 -1       639 1.08997E+05 4.07929E+04 5.23372E+03 7.13854E+04 8.43602E-09-2.24627E-08
 -1       640 1.10114E+05 4.22711E+04 1.10041E+04 6.66693E+04 7.71888E-09-2.70575E-09
 -1       641-1.49794E+04 2.25770E+03-5.20460E+03-2.04337E+01 1.37849E-05-1.45562E-08
 -1       642-1.72380E+04-2.61305E+03-3.68292E+03 1.02380E+01 2.75433E-05-2.25272E-08
 -1       643-1.58498E+04 3.54843E+02-1.34222E+03-2.26049E+01 2.53515E-05-2.56793E-08
 -1       644-1.62233E+04-4.09782E+02-8.36666E+02 1.40979E+01 2.31448E-05-1.84645E-08
 -1       645-1.59941E+04 5.48514E+01-3.24128E+02-2.42942E+01 1.52442E-05-1.53177E-08
 -1       646-1.60522E+04-5.88816E+01-1.59036E+02 1.62647E+01 7.33567E-06-4.05024E-09
 -1       647-1.60210E+04 4.00451E+00-1.10779E+01-2.47718E+01-3.68061E-06 5.67643E-09
 -1       648-1.60061E+04 2.47119E+01 1.18373E+02 1.58597E+01-1.47012E-05 1.76493E-08
 -1       649-1.60401E+04-2.87318E+01 2.79070E+02-2.38893E+01-2.71763E-05 2.75640E-08
 -1       650-1.59010E+04 2.21829E+02 6.81811E+02 1.27528E+01-3.96532E-05 3.48525E-08
 -1       651-1.61260E+04-1.93086E+02 1.18717E+03-2.16649E+01-5.10701E-05 5.43865E-08
 -1       652-1.53132E+04 1.42794E+03 2.94196E+03 6.90754E+00-6.24823E-05 5.45901E-08
 -1       653-1.66279E+04-1.23463E+03 4.68249E+03-1.80440E+01-6.61855E-05 6.05862E-08
 -1       654-1.17821E+04 9.08904E+03 1.28182E+04-2.90524E+00-6.98507E-05 5.33676E-08
 -1       655-1.96566E+04-7.85266E+03 1.81050E+04-1.18524E+01-3.49548E-05 2.44299E-08
 -1       656 6.95264E+03-2.60547E+05-2.95379E+04 7.02966E+03-7.83984E-10 4.09841E-09
 -1       657-1.01090E+04-2.71483E+05-2.19114E+04 3.01271E+04-4.38376E-10 3.29123E-09
 -1       658 1.43483E+03-2.64342E+05-1.42604E+04 6.97021E+03 1.60583E-11 5.90359E-09
 -1       659-9.95420E+03-2.71414E+05-2.16539E+04 3.01632E+04 1.17598E-09-2.33094E-10
 -1       660 6.83847E+03-2.60639E+05-2.90487E+04 6.99394E+03-2.11548E-09 8.80163E-10
 -1       661 1.61752E+05 2.24397E+04 1.28390E+04 6.34444E+04 4.70777E-09 1.08867E-09
 -1       662 1.64507E+05 2.99053E+04 7.73172E+03 6.53399E+04-8.44508E-10-1.77522E-09
 -1       663 1.63725E+05 2.43533E+04 3.01339E+03 6.34548E+04-5.93005E-10-7.10315E-10
 -1       664 1.62202E+05 2.68046E+04 1.59022E+03 6.57022E+04 4.46676E-09-3.07136E-09
 -1       665 1.63914E+05 2.45277E+04 7.03749E+02 6.34623E+04 1.99842E-09-1.52221E-09
 -1       666 1.61981E+05 2.65467E+04 3.74566E+02 6.57179E+04 5.89885E-09 7.10801E-09
 -1       667 1.63935E+05 2.45449E+04 2.18114E+02 6.34639E+04 7.76069E-10 1.47323E-09
 -1       668 1.61962E+05 2.65292E+04 2.09525E+02 6.57189E+04-1.29580E-09-7.75515E-10
 -1       669 1.63934E+05 2.45421E+04 3.05788E+02 6.34626E+04-3.53060E-09 1.10657E-09
 -1       670 1.62001E+05 2.65671E+04 6.11672E+02 6.57247E+04-2.06617E-09-3.32415E-09
 -1       671 1.63898E+05 2.45095E+04 1.19711E+03 6.34579E+04 1.70786E-09 1.35560E-09
 -1       672 1.62380E+05 2.70152E+04 2.73395E+03 6.57027E+04 8.06801E-09 1.11390E-09
 -1       673 1.63573E+05 2.42067E+04 5.19092E+03 6.34434E+04 3.12752E-09 8.68567E-11
 -1       674 1.66354E+05 3.23638E+04 1.33281E+04 6.50818E+04 2.76334E-09 2.54590E-09
 -1       675 1.60173E+05 2.09063E+04 2.21333E+04 6.34243E+04 3.22007E-09-3.08319E-10
 -1       676 2.71982E+02-2.32735E+05-1.87783E+03-2.81335E+02-1.39444E-09-1.85662E-09
 -1       677-7.81377E+02-2.33474E+05-2.82045E+03-1.43896E+03-1.28750E-09-2.67028E-09
 -1       678 3.61823E+02-2.32638E+05-4.27414E+03-2.82540E+02 6.42558E-10-6.50857E-10
 -1       679-4.77395E+03-2.35895E+05-1.00824E+04-1.43336E+03-4.31544E-09-4.18993E-09
 -1       680 3.38332E+03-2.30315E+05-1.57075E+04-2.87521E+02-1.05319E-09 3.06312E-09
 -1       716-2.06893E-01-9.86393E-02 9.25756E+00-2.73909E-04 3.75884E-09-1.85413E-09
 -1       717 1.01884E+00 7.43001E-01 1.63043E+01 6.97735E-04 2.90826E-09-5.99958E-10
 -1       718-8.11959E-01-6.44633E-01 3.02563E+01-4.23659E-04 2.99925E-09-1.65769E-09
 -1       719 4.81086E+00 5.06101E+00 6.27572E+01-6.33028E-04 4.31946E-09-1.53749E-09
 -1       720-3.99897E+00-4.41691E+00 1.19695E+02 1.05731E-03-2.55839E-10-2.49116E-09
 -1       721 2.48992E+01 3.37217E+01 2.55810E+02-2.23191E-02-2.91209E-09 3.21052E-10
 -1       722-2.09004E+01-2.93042E+01 4.78790E+02 2.12598E-02-2.56261E-09-1.57735E-09
 -1       723 1.35375E+02 2.20036E+02 1.05461E+03-2.14176E-01 1.88102E-09-9.14326E-10
 -1       724-1.14472E+02-1.90710E+02 1.90972E+03 1.92866E-01-2.59847E-09-1.49294E-09
 -1       725 7.66794E+02 1.41788E+03 4.40133E+03-1.64710E+00-2.73949E-09-5.63887E-11
 -1       726-6.52254E+02-1.22694E+03 7.57251E+03 1.45384E+00-4.00055E-09-1.64528E-09
 -1       727 4.48684E+03 9.06674E+03 1.86942E+04-1.15862E+01-4.58604E-09 1.04842E-09
 -1       728-3.83332E+03-7.83798E+03 2.97413E+04 1.01309E+01-9.59531E-10-1.93540E-09
 -1       729 2.68981E+04 5.77027E+04 8.13836E+04-7.79289E+01 1.90202E-09-1.49157E-10
 -1       730-2.30436E+04-4.98486E+04 1.14998E+05 6.78108E+01 5.79249E-09-1.70985E-09
 -1       766-4.98595E+04-2.30775E+04 1.14976E+05-6.12276E+01-6.54836E-11-1.12531E-09
 -1       767 5.77856E+04 2.69555E+04 8.13783E+04 2.97967E+01 4.02179E-09-5.11932E-10
 -1       768-7.91020E+03-3.89748E+03 2.96433E+04 3.65477E+00-1.07320E-10 4.04722E-10
 -1       769 9.59507E+03 4.73712E+03 1.87020E+04-4.36903E+01 2.86764E-09 3.08815E-09
 -1       770-1.68290E+03-8.78952E+02 7.14201E+03 1.22711E+01-1.79170E-10 1.43519E-09
 -1       771-1.44766E+06-2.77033E+05-4.02861E+04-6.19419E+05-1.54432E-09-2.11003E-10
 -1       772-1.44147E+06-2.84156E+05-2.02783E+04-6.39972E+05-4.00178E-11 8.90395E-10
 -1       773-1.45052E+06-2.65511E+05-8.66361E+03-6.24636E+05-5.63887E-10-6.57928E-09
 -1       774-1.43672E+06-2.79579E+05-4.23690E+03-6.41226E+05 8.87667E-10 3.01952E-10
 -1       775-1.45110E+06-2.64974E+05-1.98871E+03-6.24935E+05-4.05271E-09-3.32420E-09
 -1       776-1.43661E+06-2.79396E+05-9.92874E+02-6.41541E+05-1.83354E-09 1.88834E-09
 -1       777-1.45141E+06-2.64835E+05-5.50901E+02-6.25037E+05 1.30967E-10-2.11230E-10
 -1       778-1.43674E+06-2.79359E+05-4.12365E+02-6.41767E+05 2.30102E-10 6.42103E-10
 -1       779-1.45159E+06-2.64717E+05-5.16871E+02-6.25109E+05-5.71163E-10 2.78760E-10
 -1       780-1.43688E+06-2.79337E+05-9.29162E+02-6.41928E+05-1.30876E-09-1.54432E-09
 -1       781-1.45165E+06-2.64619E+05-1.83536E+03-6.25147E+05-3.27418E-10-1.89630E-10
 -1       782-1.43723E+06-2.79487E+05-3.97432E+03-6.42026E+05 1.68347E-09 1.75078E-09
 -1       783-1.45145E+06-2.64877E+05-8.09390E+03-6.24966E+05-3.31238E-09-7.54335E-09
 -1       784-1.44164E+06-2.84116E+05-1.90875E+04-6.41578E+05-1.31513E-09-9.56788E-10
 -1       785-1.44932E+06-2.75280E+05-3.78526E+04-6.19830E+05 5.10227E-10 5.31145E-10
 -1       786 1.45915E+05-4.81708E+03 1.76579E+04-6.77719E+02-4.66116E-11 7.71252E-10
 -1       787 1.52528E+05 6.13615E+03 1.15355E+04-3.98037E+03-1.64960E-10 3.18869E-09
 -1       788 1.48644E+05-5.38814E+02 4.58509E+03-6.76370E+02-5.43423E-11 8.22865E-10
 -1       789 1.49463E+05 6.69715E+02 2.60831E+03-3.97814E+03 2.63469E-10-1.69757E-09
 -1       790 1.48978E+05-6.15263E+01 1.16786E+03-6.79789E+02-3.43903E-12-1.57746E-09
 -1       791 1.49083E+05 7.25602E+01 6.34422E+02-3.97343E+03 1.28495E-10 9.82155E-10
 -1       792 1.49023E+05-7.70572E+00 3.22432E+02-6.81075E+02 1.15576E-10-3.48166E-12
 -1       793 1.49034E+05 1.07740E+01 2.16784E+02-3.97333E+03-3.30473E-10-4.89116E-10
 -1       794 1.49027E+05-4.26042E+00 2.00717E+02-6.79898E+02-1.08258E-10-4.42046E-10
 -1       795 1.49050E+05 3.22082E+01 3.10206E+02-3.97831E+03 2.51418E-10-4.75525E-10
 -1       796 1.49008E+05-2.76578E+01 5.30497E+02-6.76092E+02-3.11047E-09-1.40952E-09
 -1       797 1.49218E+05 2.95077E+02 1.16027E+03-3.98733E+03-5.23215E-09 1.01680E-09
 -1       798 1.48861E+05-2.38895E+02 2.02974E+03-6.70874E+02-3.12502E-09 1.61708E-09
 -1       799 1.50574E+05 2.71054E+03 5.10036E+03-3.99148E+03-1.31934E-10 6.97128E-10
 -1       800 1.47655E+05-2.13043E+03 7.80424E+03-6.72045E+02-4.18368E-10-3.49837E-09
 -1       801-9.51154E+03 1.99035E+05 2.64852E+04-1.50774E+05 8.09086E-09-5.36238E-09
 -1       802 2.34242E+04 2.07629E+05 3.49086E+04-8.64559E+05 2.37760E-08-3.35694E-09
 -1       803-2.36397E+03 1.98335E+05 4.15998E+04-1.50437E+05 1.50067E-08 6.69536E-09
 -1       804 5.93473E+04 2.28299E+05 9.45169E+04-8.64492E+05 2.40398E-08 9.07312E-09
 -1       805-4.10832E+04 1.78889E+05 1.36947E+05-1.50853E+05 7.39965E-09 8.86939E-09
 -1       806-1.26248E+05-3.85214E+04-1.14499E+04-6.43192E+04-3.12355E-10-7.36691E-10
 -1       807-1.25862E+05-3.62059E+04-5.44504E+03-6.83481E+04-2.93664E-09-5.45157E-09
 -1       808-1.26233E+05-3.27956E+04-2.29151E+03-6.67296E+04-3.29578E-09-6.16626E-09
 -1       809-1.24715E+05-3.42209E+04-1.10797E+03-6.88075E+04 3.84080E-09 9.28458E-09
 -1       810-1.26266E+05-3.24235E+04-5.00171E+02-6.68971E+04-2.68528E-09-2.37151E-09
 -1       811-1.24605E+05-3.40967E+04-2.46989E+02-6.88244E+04-4.76803E-10 1.71553E-09
 -1       812-1.26276E+05-3.24156E+04-1.21750E+02-6.69038E+04-2.14504E-09-9.07721E-09
 -1       813-1.24592E+05-3.40950E+04-7.55801E+01-6.88204E+04 6.32099E-10-6.82121E-11
 -1       814-1.26275E+05-3.24195E+04-6.86723E+01-6.69020E+04-1.81853E-09-8.73843E-09
 -1       815-1.24594E+05-3.40984E+04-1.06079E+02-6.88175E+04 6.39943E-10-1.98042E-10
 -1       816-1.26267E+05-3.24263E+04-1.97884E+02-6.68973E+04-1.16552E-09-1.91312E-09
 -1       817-1.24637E+05-3.41423E+04-4.30102E+02-6.87999E+04 7.93762E-10-2.45882E-09
 -1       818-1.26245E+05-3.25792E+04-8.85874E+02-6.68362E+04-8.61291E-10 7.15772E-10
 -1       819-1.25128E+05-3.48556E+04-2.10206E+03-6.85556E+04 1.67574E-10-2.06455E-09
 -1       820-1.26193E+05-3.48380E+04-4.41913E+03-6.59582E+04 3.07864E-10-2.18324E-09
 -1       821-1.73578E+05 5.97126E+03-2.18962E+04 8.03739E+02-1.50726E-09 2.56478E-10
 -1       822-1.81771E+05-7.60846E+03-1.43043E+04 4.90862E+03-1.44956E-09-1.79261E-09
 -1       823-1.76962E+05 6.66892E+02-5.68818E+03 7.72403E+02 1.93052E-09-2.95449E-09
 -1       824-1.77978E+05-8.26385E+02-3.23840E+03 4.95295E+03-3.97961E-10 2.59973E-09
 -1       825-1.77377E+05 7.63677E+01-1.45823E+03 7.59152E+02-4.08795E-09 5.21936E-10
 -1       826-1.77512E+05-8.42099E+01-8.06788E+02 4.97459E+03-5.93627E-09-1.05388E-09
 -1       827-1.77432E+05 1.08998E+01-4.40134E+02 7.50703E+02-3.99524E-09 3.47569E-10
 -1       828-1.77459E+05-1.04661E+01-3.52425E+02 4.98778E+03-3.43022E-09 8.28706E-10
 -1       829-1.77433E+05 1.04344E+01-4.10844E+02 7.45956E+02-1.64511E-09-1.75769E-09
 -1       830-1.77508E+05-7.33031E+01-7.29341E+02 4.99303E+03 3.98220E-09-4.89052E-09
 -1       831-1.77385E+05 6.93344E+01-1.30521E+03 7.45449E+02-1.46903E-09-5.17275E-12
 -1       832-1.77926E+05-7.34231E+02-2.89208E+03 4.98978E+03 1.77451E-10 2.46291E-09
 -1       833-1.77015E+05 5.96871E+02-5.07573E+03 7.49272E+02-2.21939E-09-1.27170E-09
 -1       834-1.81313E+05-6.78484E+03-1.27642E+04 4.97156E+03-4.80469E-10-1.04751E-09
 -1       835-1.73996E+05 5.33054E+03-1.95365E+04 7.64163E+02 1.41631E-09-3.12775E-09
 -1       836-1.95357E+03 2.76144E+05 2.20524E+04-1.58012E+04-2.56568E-09 1.51203E-09
 -1       837 5.17154E+03 2.83186E+05 1.69452E+04-3.42544E+04-1.95769E-09 2.80761E-09
 -1       838-4.81008E+02 2.78474E+05 1.44284E+04-1.57572E+04-3.00952E-09 3.08725E-09
 -1       839 8.67417E+03 2.85704E+05 2.48535E+04-3.42556E+04-2.34513E-09 1.87589E-09
 -1       840-3.52634E+03 2.73624E+05 3.79665E+04-1.57995E+04-2.70120E-09 4.37308E-09
 -1       841 4.93790E+04 7.17091E+03-5.93140E+02 1.84081E+04-1.63513E-05 6.13627E-06
 -1       842 4.89863E+04 6.71394E+03-4.08803E+02 1.86131E+04-3.26823E-05 1.22796E-05
 -1       843 4.92455E+04 6.97459E+03-1.36758E+02 1.84684E+04-2.57008E-05 9.65305E-06
 -1       844 4.91467E+04 6.93612E+03-8.11269E+01 1.85369E+04-1.86901E-05 7.02527E-06
 -1       845 4.92185E+04 6.94878E+03-2.17658E+01 1.84843E+04-1.31108E-05 4.92532E-06
 -1       846 4.91832E+04 6.96667E+03 5.49792E+00 1.85149E+04-7.53214E-06 2.82591E-06
 -1       847 4.92090E+04 6.94405E+03 3.83517E+01 1.84904E+04-4.62965E-06 1.73723E-06
 -1       848 4.92090E+04 6.99346E+03 1.05625E+02 1.85038E+04-1.72479E-06 6.49198E-07
 -1       849 4.91927E+04 6.92199E+03 1.98275E+02 1.84953E+04-4.84311E-07 1.79002E-07
 -1       850 4.93117E+04 7.15992E+03 5.03176E+02 1.84757E+04 7.56643E-07-2.89516E-07
 -1       851 4.91063E+04 6.77761E+03 8.69478E+02 1.85185E+04 8.25088E-07-3.12735E-07
 -1       852 4.99271E+04 8.21839E+03 2.34811E+03 1.82909E+04 8.94985E-07-3.37190E-07
 -1       853 4.85772E+04 5.86366E+03 3.75518E+03 1.86800E+04-1.76942E-07 6.82194E-08
 -1       854 5.37245E+04 1.49191E+04 1.11351E+04 1.70440E+04-1.25743E-06 4.70889E-07
 -1       855 4.53091E+04 7.80424E+01 1.60276E+04 1.97651E+04-6.26526E-07 2.34558E-07
 -1       856-1.38078E+05 2.08790E+03-1.66287E+04 5.00852E+03-2.02544E-09 2.10093E-10
 -1       857-1.43513E+05-4.01596E+03-1.01564E+04 1.19886E+04-1.23100E-09-3.96540E-09
 -1       858-1.40427E+05 1.92611E+02-4.26944E+03 4.95509E+03-2.50452E-09-1.77397E-09
 -1       859-1.40962E+05-2.82449E+02-2.29732E+03 1.20488E+04 3.89855E-09-1.33139E-09
 -1       860-1.40650E+05 2.99822E+01-1.07784E+03 4.94725E+03 4.43629E-09 1.92256E-09
 -1       861-1.40724E+05 2.87092E+00-5.66840E+02 1.20590E+04-2.68392E-09 1.86049E-10
 -1       862-1.40678E+05 1.42191E+01-2.95656E+02 4.94476E+03 2.04818E-09-3.54646E-09
 -1       863-1.40698E+05 2.42721E+01-1.95286E+02 1.20617E+04 1.10575E-08-2.51021E-09
 -1       864-1.40681E+05 1.28875E+01-1.83255E+02 4.94451E+03 5.52433E-09-5.54459E-09
 -1       865-1.40704E+05 1.56330E+01-2.75967E+02 1.20595E+04 4.51456E-09-1.92887E-09
 -1       866-1.40668E+05 1.86264E+01-4.86766E+02 4.94701E+03 1.46520E-09-1.97882E-09
 -1       867-1.40804E+05-1.11204E+02-1.01551E+03 1.20505E+04-4.86580E-11-3.64734E-09
 -1       868-1.40569E+05 8.81917E+01-1.87891E+03 4.95352E+03 2.55955E-09-1.99270E-09
 -1       869-1.41918E+05-1.75337E+03-4.46180E+03 1.19935E+04-1.28057E-09-2.99224E-10
 -1       870-1.39535E+05 9.17599E+02-7.30527E+03 5.00458E+03 1.80989E-09-1.33832E-09
 -1       871-2.48445E+03-2.21266E+04-5.66329E+03 7.59159E+04 2.26009E-09 2.44654E-09
 -1       872-8.61863E+02-2.32604E+04-1.87917E+03 9.25851E+04-1.31331E-09 2.55295E-09
 -1       873-5.25286E+00-2.27991E+04 1.22086E+03 7.57612E+04 1.28875E-09 1.16643E-10
 -1       874 1.43577E+03-2.15873E+04 5.21824E+03 9.26340E+04-1.52522E-09 1.29307E-09
 -1       875 4.38067E+03-2.38470E+04 1.12256E+04 7.58727E+04-2.05546E-10 7.29869E-10
 -1       876 2.16312E+05 3.10296E+04 1.91254E+04 8.58275E+04 2.65459E-10-1.83263E-09
 -1       877 2.19880E+05 4.15885E+04 1.13667E+04 8.92119E+04-2.22303E-09-6.69024E-09
 -1       878 2.19145E+05 3.34148E+04 4.47442E+03 8.59839E+04 3.67140E-09 3.99632E-09
 -1       879 2.16538E+05 3.72481E+04 2.33677E+03 8.96817E+04 2.27737E-09 1.49885E-09
 -1       880 2.19400E+05 3.36305E+04 1.03874E+03 8.60074E+04 8.61519E-10-1.37572E-09
 -1       881 2.16237E+05 3.69066E+04 5.43085E+02 8.96877E+04-1.39102E-09-1.89587E-10
 -1       882 2.19425E+05 3.36558E+04 3.03378E+02 8.60129E+04 3.16840E-09-1.04509E-09
 -1       883 2.16211E+05 3.68798E+04 2.66926E+02 8.96808E+04-5.96469E-09 3.33817E-09
 -1       884 2.19422E+05 3.36559E+04 3.65958E+02 8.60134E+04-4.74796E-09-5.01913E-09
 -1       885 2.16253E+05 3.69135E+04 7.11139E+02 8.96844E+04 4.08039E-09-1.27619E-09
 -1       886 2.19384E+05 3.36250E+04 1.39075E+03 8.60082E+04-2.45313E-09-3.63968E-09
 -1       887 2.16662E+05 3.73704E+04 3.14521E+03 8.96696E+04-4.45957E-09-2.08411E-09
 -1       888 2.19036E+05 3.33369E+04 6.02923E+03 8.59778E+04-4.77124E-09 4.36557E-09
 -1       889 2.21157E+05 4.32303E+04 1.53205E+04 8.90438E+04 6.07934E-09 2.81489E-09
 -1       890 2.15226E+05 3.01129E+04 2.57795E+04 8.57541E+04 2.05569E-09 3.35058E-09
 -1       891 3.36196E+02-1.02585E+05-4.11890E+03 2.30596E+04 1.21236E-09-4.08227E-09
 -1       892-1.00468E+03-1.03873E+05-3.08455E+03 5.01638E+04 3.89673E-09-6.57337E-09
 -1       893 6.40533E+01-1.03046E+05-2.50947E+03 2.29949E+04 4.51428E-09-8.58279E-10
 -1       894-1.49696E+03-1.04213E+05-4.18524E+03 5.01467E+04 9.58607E-10-6.12704E-09
 -1       895 5.46639E+02-1.02225E+05-6.33590E+03 2.30764E+04 2.44813E-09-3.81579E-09
 -1       926-3.35540E+02-6.46809E+02 1.48539E+03 2.06654E+01 4.91152E-10-6.63533E-10
 -1       927 3.85704E+02 7.49007E+02 1.07599E+03-8.16519E+01-1.89901E-09-9.08528E-10
 -1       928-7.76500E+01-1.02248E+02 4.10659E+02 2.01721E+01 3.14895E-11-4.32479E-10
 -1       929 8.24172E+01 1.22457E+02 3.10608E+02-8.11352E+01 1.15696E-09-4.93515E-10
 -1       930-3.23571E+01-2.03070E+01 2.17405E+02 2.01487E+01 2.85967E-11-2.19907E-10
 -1       931 4.18789E+01 5.24428E+01 3.20159E+02-8.11063E+01-1.93946E-09-1.64007E-10
 -1       932-3.71930E+01-3.21908E+01 5.10951E+02 2.01431E+01-2.31092E-06 1.10390E-10
 -1       933 1.37186E+02 2.26579E+02 1.08829E+03-8.10837E+01-4.61833E-06-6.50004E-11
 -1       934-1.27719E+02-1.94384E+02 1.94961E+03 2.01260E+01-3.18054E-06-2.18733E-10
 -1       935 7.73272E+02 1.44339E+03 4.48339E+03-8.09756E+01-1.73982E-06-4.82601E-11
 -1       936-6.73243E+02-1.24878E+03 7.70907E+03 2.00350E+01-8.24361E-07 8.64020E-12
 -1       937 4.55801E+03 9.22843E+03 1.90282E+04-8.07108E+01 9.30716E-08 3.09456E-10
 -1       938-3.91123E+03-7.97771E+03 3.02719E+04 1.98614E+01 1.56830E-07-5.27507E-11
 -1       939 2.73717E+04 5.87324E+04 8.28357E+04-8.43589E+01 2.11734E-07 1.09139E-10
 -1       940-2.34663E+04-5.07384E+04 1.17048E+05 2.36820E+01 1.03814E-07 5.82077E-10
 -1       956-1.95547E+05-3.60684E+03-8.40451E+03 2.39546E+04-1.47338E-09-1.19599E-10
 -1       957-1.97161E+05-1.17428E+03-4.28381E+03 2.84110E+04 1.72349E-09 1.83104E-09
 -1       958-1.96276E+05-1.07440E+02-1.92927E+03 2.38095E+04 5.41149E-09-1.22714E-09
 -1       959-1.96417E+05-1.02176E+01-9.83274E+02 2.85692E+04 3.87899E-10-2.74213E-10
 -1       960-1.96351E+05 3.70311E+01-4.77920E+02 2.37953E+04 8.57517E-09-3.86444E-09
 -1       961-1.96368E+05 4.06231E+01-2.51042E+02 2.85850E+04 1.50712E-08-3.37013E-09
 -1       962-1.96370E+05 3.76141E+01-1.39375E+02 2.37935E+04 8.76207E-09-1.56501E-09
 -1       963-1.96369E+05 4.40143E+01-1.04123E+02 2.85874E+04-2.61753E-09 1.02091E-09
 -1       964-1.96376E+05 4.00938E+01-1.16998E+02 2.37929E+04 6.64500E-10-1.47361E-09
 -1       965-1.96378E+05 4.66543E+01-1.94389E+02 2.85872E+04 5.43823E-09 2.49202E-10
 -1       966-1.96370E+05 4.43618E+01-3.60646E+02 2.37937E+04 2.51021E-10 7.95353E-10
 -1       967-1.96423E+05 1.32348E+01-7.38162E+02 2.85779E+04 1.60981E-09 1.93450E-09
 -1       968-1.96320E+05-5.98422E+01-1.44568E+03 2.38023E+04-3.74712E-10 3.70619E-10
 -1       969-1.96988E+05-8.55866E+02-3.21067E+03 2.84803E+04-1.37061E-09 3.79146E-11
 -1       970-1.95778E+05-2.68075E+03-6.29805E+03 2.38932E+04 4.27008E-10-1.69348E-09
 -1       971-2.49797E+05 7.07890E+02-1.09781E+04 6.55846E+03-4.23233E-09-2.95586E-10
 -1       972-2.53171E+05-2.27865E+03-6.53538E+03 1.32656E+04-4.73483E-09-1.51567E-09
 -1       973-2.51285E+05 7.64220E+01-2.80019E+03 6.48432E+03-2.32103E-09-9.78389E-10
 -1       974-2.51579E+05-1.25575E+02-1.48969E+03 1.33506E+04 2.74952E-09-1.40358E-09
 -1       975-2.51416E+05 2.10632E+01-7.18980E+02 6.47272E+03-1.77124E-10-1.09083E-09
 -1       976-2.51450E+05 1.76197E+01-3.98338E+02 1.33668E+04-4.43731E-09-1.53355E-09
 -1       977-2.51433E+05 1.62895E+01-2.53351E+02 6.46799E+03 3.15015E-09-4.58346E-09
 -1       978-2.51443E+05 2.78026E+01-2.50675E+02 1.33732E+04 1.08885E-08-2.48014E-09
 -1       979-2.51432E+05 1.87966E+01-3.62693E+02 6.46636E+03 7.12653E-09-2.03781E-09
 -1       980-2.51473E+05 1.29402E+01-6.80467E+02 1.33730E+04 9.40449E-09-4.10219E-09
 -1       981-2.51404E+05 3.32666E+01-1.29527E+03 6.46813E+03 1.56024E-09-4.40394E-10
 -1       982-2.51727E+05-2.43687E+02-2.72674E+03 1.33646E+04 3.17266E-09 2.21600E-09
 -1       983-2.51170E+05 1.41767E+02-5.14056E+03 6.47502E+03 5.17821E-09-1.80398E-09
 -1       984-2.54672E+05-4.19576E+03-1.20166E+04 1.33027E+04 6.61316E-10 1.79909E-09
 -1       985-2.48441E+05 1.31172E+03-2.01830E+04 6.53194E+03 3.10774E-09-5.65706E-10
 -3
    1PSTEP                        17           9           1          
  100CL  109 4.60449E-01         608                     0    9           1
 -4  DISP        4    1
 -5  D1          1    2    1    0
 -5  D2          1    2    2    0
 -5  D3          1    2    3    0
 -5  ALL         1    2    0    0    1ALL
 -1         1 7.39126E-05 0.00000E+00 0.00000E+00
 -1         2 6.06588E-05 0.00000E+00 0.00000E+00
 -1         3 4.44296E-05 0.00000E+00 0.00000E+00
 -1         4 3.99654E-05 0.00000E+00 0.00000E+00
 -1         5 3.76810E-05 0.00000E+00 0.00000E+00
 -1         8 5.92406E-05-6.90092E-07 0.00000E+00
 -1         9 4.33373E-05-3.66914E-07 0.00000E+00
 -1        10 4.52431E-05-1.42163E-06 0.00000E+00
 -1        11 4.10531E-05-2.39773E-07 0.00000E+00
 -1        12 3.69037E-05 5.72253E-07 0.00000E+00
 -1        15 4.33298E-05-7.30584E-07 2.06795E-25
 -1        16 3.55031E-05-4.51581E-07 0.00000E+00
 -1        17 3.34420E-05-2.93767E-06 0.00000E+00
 -1        18 3.36772E-05-4.62023E-07 0.00000E+00
 -1        19 3.47273E-05 1.13781E-06 0.00000E+00
 -1        20 3.50708E-05 1.35533E-05 0.00000E+00
 -1        21 3.49673E-05 2.96918E-05 0.00000E+00
 -1        23 1.26856E-05-4.69592E-05 0.00000E+00
 -1        24 1.25953E-05-3.54579E-06 0.00000E+00
 -1        25 3.13987E-05-2.94012E-07 0.00000E+00
 -1        26 3.22487E-05 1.53237E-06 0.00000E+00
 -1        27 3.12350E-05 1.29950E-05 0.00000E+00
 -1        28 3.04241E-05 2.91920E-05 0.00000E+00
 -1        31 3.67341E-08-3.59214E-06 0.00000E+00
 -1        32 0.00000E+00 0.00000E+00 0.00000E+00
 -1        33 2.94579E-05 2.11779E-06 0.00000E+00
 -1        34 2.83285E-05 1.29433E-05 0.00000E+00
 -1        35 2.68821E-05 2.89710E-05 0.00000E+00
 -1        36 7.31094E-05 2.31116E-19-1.32349E-23
 -1        37 7.22807E-05 3.18730E-19 0.00000E+00
 -1        38 7.14536E-05 1.17620E-19 0.00000E+00
 -1        39 7.06216E-05-2.54875E-20 0.00000E+00
 -1        40 6.97896E-05 2.21102E-19 2.64698E-23
 -1        41 6.89565E-05 2.22634E-19 1.32349E-23
 -1        42 6.81234E-05 1.31383E-19 0.00000E+00
 -1        43 6.72900E-05 1.51715E-19 0.00000E+00
 -1        44 6.64567E-05 1.63281E-19 2.64698E-23
 -1        45 6.56235E-05 1.80101E-19 1.32349E-23
 -1        46 6.47904E-05 1.42000E-19 2.64698E-23
 -1        47 6.39580E-05 4.04486E-19 1.32349E-23
 -1        48 6.31258E-05 3.68406E-19-2.64698E-23
 -1        49 6.22975E-05 2.70922E-19 1.32349E-23
 -1        50 6.14678E-05 2.04676E-19 0.00000E+00
 -1        51 7.28224E-05-1.15373E-07 0.00000E+00
 -1        52 7.09954E-05-2.27208E-07 0.00000E+00
 -1        53 6.85740E-05-3.38895E-07 0.00000E+00
 -1        54 6.57076E-05-4.51763E-07 0.00000E+00
 -1        55 6.25462E-05-5.67078E-07-5.58347E-24
 -1        56 7.24544E-05-1.04617E-06-2.64698E-23
 -1        57 7.12460E-05-2.94674E-06-2.64698E-23
 -1        58 7.02501E-05-5.40467E-06 5.29396E-23
 -1        59 6.93384E-05-8.12194E-06 2.64698E-23
 -1        60 6.83891E-05-1.07387E-05 5.29396E-23
 -1        61 6.72696E-05-1.29053E-05-2.64698E-23
 -1        62 6.58852E-05-1.43638E-05 0.00000E+00
 -1        63 6.41533E-05-1.48953E-05 2.64698E-23
 -1        64 6.20620E-05-1.44704E-05-5.29396E-23
 -1        65 5.96192E-05-1.31112E-05-2.64698E-23
 -1        66 5.69044E-05-1.10312E-05 0.00000E+00
 -1        67 5.40143E-05-8.48179E-06-2.64698E-23
 -1        68 5.10785E-05-5.81135E-06-5.29396E-23
 -1        69 4.82417E-05-3.37022E-06 2.64698E-23
 -1        70 4.56054E-05-1.47088E-06 0.00000E+00
 -1        86 5.96887E-05-6.48218E-08 0.00000E+00
 -1        87 5.68501E-05-1.22376E-07-1.65436E-24
 -1        88 5.29672E-05-1.83882E-07 3.30872E-24
 -1        89 4.88663E-05-2.45586E-07 1.65436E-24
 -1        90 4.53793E-05-3.04584E-07 0.00000E+00
 -1        91 5.97745E-05-2.35238E-07 1.32349E-23
 -1        92 5.88033E-05-3.07813E-07-1.32349E-23
 -1        93 5.78150E-05-3.30169E-07 0.00000E+00
 -1        94 5.68504E-05-4.28017E-07 0.00000E+00
 -1        95 5.58963E-05-5.53919E-07-2.64698E-23
 -1        96 5.49342E-05-6.61112E-07-1.32349E-23
 -1        97 5.39659E-05-7.51788E-07-2.64698E-23
 -1        98 5.29925E-05-8.29129E-07 0.00000E+00
 -1        99 5.20250E-05-9.22150E-07 0.00000E+00
 -1       100 5.10741E-05-1.05924E-06 0.00000E+00
 -1       101 5.01136E-05-1.17032E-06 0.00000E+00
 -1       102 4.91182E-05-1.18597E-06-1.32349E-23
 -1       103 4.81418E-05-1.25192E-06 2.64698E-23
 -1       104 4.72427E-05-1.50980E-06-1.32349E-23
 -1       105 4.63037E-05-1.66681E-06-1.32349E-23
 -1       106 4.41518E-05-1.83484E-18 6.61744E-24
 -1       107 4.38723E-05-7.70999E-18-3.30872E-24
 -1       108 4.35929E-05-1.20545E-17 0.00000E+00
 -1       109 4.33133E-05-7.93743E-18 0.00000E+00
 -1       110 4.30336E-05-4.65638E-19 6.61744E-24
 -1       111 4.27538E-05 5.20111E-18 3.30872E-24
 -1       112 4.24741E-05 6.33025E-18 6.61744E-24
 -1       113 4.21943E-05 4.69210E-19 0.00000E+00
 -1       114 4.19146E-05-5.17962E-18 0.00000E+00
 -1       115 4.16349E-05-4.03062E-18 0.00000E+00
 -1       116 4.13552E-05 1.45485E-18-6.61744E-24
 -1       117 4.10757E-05 8.83282E-18 3.30872E-24
 -1       118 4.07963E-05 1.29091E-17-6.61744E-24
 -1       119 4.05178E-05 8.82399E-18 3.30872E-24
 -1       120 4.02390E-05 2.39152E-18 6.61744E-24
 -1       121 4.46065E-05-2.36838E-07-6.61744E-24
 -1       122 4.49871E-05-4.73642E-07 3.30872E-24
 -1       123 4.54062E-05-7.10475E-07 0.00000E+00
 -1       124 4.56985E-05-9.47338E-07 0.00000E+00
 -1       125 4.56988E-05-1.18417E-06-6.61744E-24
 -1       141 3.98213E-05-3.84493E-19 3.30872E-24
 -1       142 3.96775E-05-9.50141E-19 0.00000E+00
 -1       143 3.95336E-05-1.35383E-18 0.00000E+00
 -1       144 3.93897E-05-1.55623E-18 0.00000E+00
 -1       145 3.92459E-05-1.55102E-18 3.30872E-24
 -1       146 3.91021E-05-1.14410E-18-1.65436E-24
 -1       147 3.89583E-05-4.78087E-19 3.30872E-24
 -1       148 3.88145E-05-1.39893E-19 0.00000E+00
 -1       149 3.86707E-05-1.38465E-19 0.00000E+00
 -1       150 3.85270E-05-5.63500E-19 1.65436E-24
 -1       151 3.83834E-05-1.20492E-18 0.00000E+00
 -1       152 3.82401E-05-1.60759E-18-1.65436E-24
 -1       153 3.80968E-05-1.62479E-18 0.00000E+00
 -1       154 3.79554E-05-1.00972E-18 0.00000E+00
 -1       155 3.78134E-05-2.23399E-19 0.00000E+00
 -1       156 4.11335E-05-3.67768E-08-3.30872E-24
 -1       157 4.46256E-05-7.40551E-08-8.27181E-25
 -1       158 4.83034E-05-1.12277E-07 0.00000E+00
 -1       159 5.00283E-05-1.45246E-07 8.27181E-25
 -1       160 4.81576E-05-1.79190E-07 0.00000E+00
 -1       161 4.06005E-05-2.14568E-06-3.30872E-24
 -1       162 4.27813E-05-8.46300E-06-1.65436E-24
 -1       163 4.49511E-05-1.47508E-05 0.00000E+00
 -1       164 4.55535E-05-1.68078E-05 0.00000E+00
 -1       165 4.45695E-05-1.46359E-05 0.00000E+00
 -1       166 4.19910E-05-8.26521E-06 1.65436E-24
 -1       167 3.94103E-05-1.88874E-06-3.30872E-24
 -1       168 3.84197E-05 3.00567E-07 0.00000E+00
 -1       169 3.90161E-05-1.74032E-06 0.00000E+00
 -1       170 4.11853E-05-8.02623E-06-1.65436E-24
 -1       171 4.33697E-05-1.43527E-05 0.00000E+00
 -1       172 4.40119E-05-1.65151E-05 0.00000E+00
 -1       173 4.30673E-05-1.44464E-05 0.00000E+00
 -1       174 4.05035E-05-8.10760E-06 0.00000E+00
 -1       175 3.79135E-05-1.70194E-06 0.00000E+00
 -1       191 3.76562E-05 9.53463E-08 3.30872E-24
 -1       192 3.75888E-05 1.90759E-07 0.00000E+00
 -1       193 3.74791E-05 2.86186E-07 3.30872E-24
 -1       194 3.73278E-05 3.81602E-07 0.00000E+00
 -1       195 3.71357E-05 4.76983E-07 3.30872E-24
 -1       266 5.65888E-05-7.06943E-07 3.30872E-24
 -1       267 5.39371E-05-7.12455E-07-8.27181E-25
 -1       268 5.12852E-05-7.18702E-07 8.27181E-25
 -1       269 4.86334E-05-7.22805E-07 2.06795E-25
 -1       270 4.59816E-05-7.26866E-07-4.13590E-25
 -1       271 5.70975E-05 1.20620E-06-2.64698E-23
 -1       272 5.51103E-05 2.55848E-06-1.32349E-23
 -1       273 5.33065E-05 3.42759E-06 2.64698E-23
 -1       274 5.16589E-05 3.86197E-06-2.64698E-23
 -1       275 5.01517E-05 3.92092E-06 0.00000E+00
 -1       276 4.87608E-05 3.66680E-06-2.64698E-23
 -1       277 4.74618E-05 3.16669E-06 5.29396E-23
 -1       278 4.62285E-05 2.49090E-06 0.00000E+00
 -1       279 4.50338E-05 1.71219E-06 0.00000E+00
 -1       280 4.38500E-05 9.04791E-07 0.00000E+00
 -1       281 4.26492E-05 1.43220E-07-5.29396E-23
 -1       282 4.14045E-05-4.98444E-07-2.64698E-23
 -1       283 4.00884E-05-9.48076E-07 2.64698E-23
 -1       284 3.86796E-05-1.13439E-06 0.00000E+00
 -1       285 3.71467E-05-9.93773E-07 2.64698E-23
 -1       286 4.34420E-05 5.92331E-07 0.00000E+00
 -1       287 4.35616E-05 9.07180E-07-4.13590E-25
 -1       288 4.36804E-05 8.39312E-07-3.30872E-24
 -1       289 4.38020E-05 6.48134E-07 0.00000E+00
 -1       290 4.39236E-05 3.83870E-07 3.30872E-24
 -1       291 4.40458E-05 9.63343E-08-1.65436E-24
 -1       292 4.41680E-05-2.04728E-07-3.30872E-24
 -1       293 4.42904E-05-5.09656E-07 0.00000E+00
 -1       294 4.44127E-05-8.15448E-07-3.30872E-24
 -1       295 4.45349E-05-1.11911E-06-1.65436E-24
 -1       296 4.46571E-05-1.41397E-06 0.00000E+00
 -1       297 4.47787E-05-1.69331E-06 0.00000E+00
 -1       298 4.49002E-05-1.92370E-06-1.65436E-24
 -1       299 4.50189E-05-2.07141E-06 4.13590E-25
 -1       300 4.51386E-05-1.96254E-06 0.00000E+00
 -1       301 4.20272E-05-3.84941E-07-3.30872E-24
 -1       302 4.07073E-05-3.93067E-07-1.65436E-24
 -1       303 3.93861E-05-4.00158E-07 0.00000E+00
 -1       304 3.80725E-05-4.08378E-07 1.65436E-24
 -1       305 3.67753E-05-4.19810E-07 0.00000E+00
 -1       306 4.23861E-05 4.02495E-07 1.32349E-23
 -1       307 4.16145E-05 6.47947E-07 6.61744E-24
 -1       308 4.10081E-05 4.54706E-07-1.32349E-23
 -1       309 4.05329E-05-9.55185E-08 0.00000E+00
 -1       310 4.01591E-05-9.17103E-07 1.32349E-23
 -1       311 3.98539E-05-1.92341E-06-6.61744E-24
 -1       312 3.95849E-05-3.02646E-06-1.32349E-23
 -1       313 3.93189E-05-4.13778E-06 0.00000E+00
 -1       314 3.90229E-05-5.16877E-06 1.32349E-23
 -1       315 3.86639E-05-6.03135E-06-6.61744E-24
 -1       316 3.82094E-05-6.63860E-06 0.00000E+00
 -1       317 3.76278E-05-6.90513E-06 0.00000E+00
 -1       318 3.68876E-05-6.74789E-06 1.32349E-23
 -1       319 3.59609E-05-6.08560E-06 0.00000E+00
 -1       320 3.48149E-05-4.84235E-06 0.00000E+00
 -1       321 4.49960E-05 1.84879E-06 6.61744E-24
 -1       322 4.47221E-05 1.01059E-05-3.30872E-24
 -1       323 4.44607E-05 1.61064E-05 0.00000E+00
 -1       324 4.42108E-05 1.26325E-05 0.00000E+00
 -1       325 4.39368E-05 4.24046E-06 0.00000E+00
 -1       326 4.36604E-05-4.45929E-06-3.30872E-24
 -1       327 4.34084E-05-8.47268E-06-6.61744E-24
 -1       328 4.31491E-05-2.85723E-06 0.00000E+00
 -1       329 4.28758E-05 5.36344E-06 6.61744E-24
 -1       330 4.26279E-05 9.13706E-06-3.30872E-24
 -1       331 4.23831E-05 6.95015E-06 0.00000E+00
 -1       332 4.20967E-05-2.64489E-06 0.00000E+00
 -1       333 4.18131E-05-1.18776E-05-6.61744E-24
 -1       334 4.15704E-05-1.29811E-05 3.30872E-24
 -1       335 4.13201E-05-8.29928E-06-6.61744E-24
 -1       336 4.41812E-05-1.67416E-06-6.61744E-24
 -1       337 4.26100E-05-1.92727E-06 0.00000E+00
 -1       338 4.06390E-05-2.18092E-06 6.61744E-24
 -1       339 3.83793E-05-2.43440E-06-3.30872E-24
 -1       340 3.59429E-05-2.68839E-06-6.61744E-24
 -1       356 4.07870E-05 7.70503E-06 6.61744E-24
 -1       357 4.05382E-05 1.20441E-05 0.00000E+00
 -1       358 4.02955E-05 1.06613E-05 0.00000E+00
 -1       359 4.00128E-05 1.50364E-06 0.00000E+00
 -1       360 3.97290E-05-7.80919E-06 0.00000E+00
 -1       361 3.94849E-05-9.65621E-06 3.30872E-24
 -1       362 3.92366E-05-5.70713E-06 6.61744E-24
 -1       363 3.89651E-05 2.30431E-06-3.30872E-24
 -1       364 3.87078E-05 7.58352E-06 6.61744E-24
 -1       365 3.84553E-05 3.36594E-06 0.00000E+00
 -1       366 3.81794E-05-5.30840E-06 0.00000E+00
 -1       367 3.79090E-05-1.33504E-05 0.00000E+00
 -1       368 3.76614E-05-1.64562E-05 6.61744E-24
 -1       369 3.74032E-05-1.03764E-05-3.30872E-24
 -1       370 3.71333E-05-2.29772E-06 1.65436E-24
 -1       371 3.34412E-05-3.03469E-07 0.00000E+00
 -1       372 3.00505E-05-3.40488E-07 0.00000E+00
 -1       373 2.97286E-05-3.71673E-07 0.00000E+00
 -1       374 3.13191E-05-4.02818E-07 0.00000E+00
 -1       375 3.31821E-05-4.34428E-07 1.03398E-25
 -1       406 3.66243E-05 6.67018E-07-3.30872E-24
 -1       407 3.63083E-05 7.61815E-07 0.00000E+00
 -1       408 3.59581E-05 8.56555E-07 3.30872E-24
 -1       409 3.55760E-05 9.51087E-07-1.65436E-24
 -1       410 3.51649E-05 1.04519E-06 0.00000E+00
 -1       501 3.53996E-05 3.69647E-06 0.00000E+00
 -1       502 3.52731E-05 1.36448E-05-3.30872E-24
 -1       503 3.51323E-05 2.49858E-05 3.30872E-24
 -1       504 3.50232E-05 3.33090E-05-1.65436E-24
 -1       505 3.49414E-05 3.58620E-05 3.30872E-24
 -1       506 3.48465E-05 2.99124E-05-1.65436E-24
 -1       507 3.46943E-05 1.72862E-05-3.30872E-24
 -1       508 3.44723E-05-1.67391E-07-8.27181E-25
 -1       509 3.42454E-05-1.79309E-05 0.00000E+00
 -1       510 3.40819E-05-3.14858E-05 0.00000E+00
 -1       511 3.39795E-05-3.86471E-05 0.00000E+00
 -1       512 3.39007E-05-3.72517E-05 0.00000E+00
 -1       513 3.37982E-05-2.97211E-05 0.00000E+00
 -1       514 3.36619E-05-1.84983E-05 0.00000E+00
 -1       515 3.35335E-05-8.07426E-06 0.00000E+00
 -1       521 3.38528E-05 4.38739E-08 0.00000E+00
 -1       522 3.23387E-05 6.70895E-08 1.32349E-23
 -1       523 3.09717E-05-2.98317E-07 0.00000E+00
 -1       524 2.97168E-05-9.79098E-07 2.64698E-23
 -1       525 2.85489E-05-1.89352E-06 5.29396E-23
 -1       526 2.74362E-05-2.95839E-06 0.00000E+00
 -1       527 2.63475E-05-4.08800E-06 0.00000E+00
 -1       528 2.52506E-05-5.19601E-06 0.00000E+00
 -1       529 2.41133E-05-6.19630E-06 0.00000E+00
 -1       530 2.29042E-05-7.00429E-06 2.64698E-23
 -1       531 2.15925E-05-7.53818E-06 0.00000E+00
 -1       532 2.01498E-05-7.71984E-06 2.64698E-23
 -1       533 1.85480E-05-7.47645E-06 0.00000E+00
 -1       534 1.67668E-05-6.73941E-06 0.00000E+00
 -1       535 1.47767E-05-5.45108E-06 2.64698E-23
 -1       536 3.34477E-05-7.45117E-07 0.00000E+00
 -1       537 3.34608E-05 9.17970E-07 0.00000E+00
 -1       538 3.34744E-05 2.10679E-06 0.00000E+00
 -1       539 3.34893E-05 2.87680E-06 5.16988E-26
 -1       540 3.35047E-05 3.28328E-06 2.06795E-25
 -1       541 3.35202E-05 3.38149E-06 0.00000E+00
 -1       542 3.35359E-05 3.22664E-06 0.00000E+00
 -1       543 3.35515E-05 2.87387E-06 0.00000E+00
 -1       544 3.35671E-05 2.37830E-06 4.13590E-25
 -1       545 3.35826E-05 1.79502E-06 2.06795E-25
 -1       546 3.35982E-05 1.17912E-06-4.13590E-25
 -1       547 3.36137E-05 5.85668E-07 2.06795E-25
 -1       548 3.36293E-05 6.97336E-08 0.00000E+00
 -1       549 3.36451E-05-3.13597E-07 0.00000E+00
 -1       550 3.36609E-05-5.09185E-07 8.27181E-25
 -1       551 3.03456E-05-3.03464E-06 2.48154E-24
 -1       552 2.68732E-05-3.13096E-06 6.20385E-25
 -1       553 2.31922E-05-3.22818E-06-3.30872E-24
 -1       554 1.94726E-05-3.32714E-06 0.00000E+00
 -1       555 1.58844E-05-3.42857E-06 0.00000E+00
 -1       556 3.25804E-05-8.35405E-07 0.00000E+00
 -1       557 3.19072E-05 7.78219E-07 0.00000E+00
 -1       558 3.14014E-05 1.94906E-06 0.00000E+00
 -1       559 3.10439E-05 2.72706E-06 0.00000E+00
 -1       560 3.08153E-05 3.16212E-06 0.00000E+00
 -1       561 3.06967E-05 3.30449E-06 0.00000E+00
 -1       562 3.06691E-05 3.20446E-06 0.00000E+00
 -1       563 3.07135E-05 2.91237E-06 0.00000E+00
 -1       564 3.08110E-05 2.47858E-06 0.00000E+00
 -1       565 3.09428E-05 1.95347E-06 0.00000E+00
 -1       566 3.10899E-05 1.38745E-06 0.00000E+00
 -1       567 3.12335E-05 8.30914E-07 8.27181E-25
 -1       568 3.13547E-05 3.34261E-07 1.44757E-24
 -1       569 3.14348E-05-5.21708E-08 4.13590E-25
 -1       570 3.14551E-05-2.78067E-07 0.00000E+00
 -1       571 3.37406E-05-3.32283E-07 0.00000E+00
 -1       572 3.38056E-05-2.44630E-07 0.00000E+00
 -1       573 3.38712E-05-1.91264E-07 0.00000E+00
 -1       574 3.39370E-05-1.63992E-07-4.13590E-25
 -1       575 3.40028E-05-1.54585E-07 0.00000E+00
 -1       576 3.40687E-05-1.54764E-07 0.00000E+00
 -1       577 3.41347E-05-1.56245E-07-1.65436E-24
 -1       578 3.42006E-05-1.50735E-07 0.00000E+00
 -1       579 3.42665E-05-1.29945E-07-3.30872E-24
 -1       580 3.43325E-05-8.55808E-08 0.00000E+00
 -1       581 3.43984E-05-9.35292E-09 0.00000E+00
 -1       582 3.44643E-05 1.07022E-07 1.65436E-24
 -1       583 3.45302E-05 2.71818E-07 0.00000E+00
 -1       584 3.45960E-05 4.93225E-07 0.00000E+00
 -1       585 3.46618E-05 7.79387E-07 0.00000E+00
 -1       586 3.33480E-05-4.33363E-07 1.65436E-24
 -1       587 3.29675E-05-4.04688E-07 0.00000E+00
 -1       588 3.25587E-05-3.76089E-07-8.27181E-25
 -1       589 3.21453E-05-3.47742E-07 1.55096E-25
 -1       590 3.17509E-05-3.19913E-07 0.00000E+00
 -1       591 3.35802E-05-3.07445E-07 0.00000E+00
 -1       592 3.34911E-05-1.82586E-07 0.00000E+00
 -1       593 3.34104E-05-8.13664E-08 1.65436E-24
 -1       594 3.33362E-05 1.60838E-09 0.00000E+00
 -1       595 3.32667E-05 7.17573E-08 0.00000E+00
 -1       596 3.32000E-05 1.34454E-07-4.13590E-25
 -1       597 3.31340E-05 1.95066E-07 0.00000E+00
 -1       598 3.30668E-05 2.58955E-07 4.13590E-25
 -1       599 3.29963E-05 3.31484E-07 0.00000E+00
 -1       600 3.29206E-05 4.18012E-07 4.13590E-25
 -1       601 3.28376E-05 5.23900E-07-8.27181E-25
 -1       602 3.27454E-05 6.54514E-07 2.06795E-25
 -1       603 3.26420E-05 8.15221E-07 0.00000E+00
 -1       604 3.25257E-05 1.01142E-06 0.00000E+00
 -1       605 3.23944E-05 1.24850E-06 4.13590E-25
 -1       606 3.47512E-05 1.62132E-06 0.00000E+00
 -1       607 3.47735E-05 2.16152E-06 0.00000E+00
 -1       608 3.47952E-05 2.75503E-06-3.30872E-24
 -1       609 3.48167E-05 3.39804E-06 0.00000E+00
 -1       610 3.48381E-05 4.08668E-06 1.65436E-24
 -1       611 3.48594E-05 4.81706E-06 0.00000E+00
 -1       612 3.48807E-05 5.58524E-06 0.00000E+00
 -1       613 3.49020E-05 6.38732E-06 0.00000E+00
 -1       614 3.49232E-05 7.21937E-06-1.65436E-24
 -1       615 3.49444E-05 8.07746E-06-8.27181E-25
 -1       616 3.49656E-05 8.95768E-06 0.00000E+00
 -1       617 3.49868E-05 9.85609E-06-1.65436E-24
 -1       618 3.50079E-05 1.07688E-05 0.00000E+00
 -1       619 3.50290E-05 1.16918E-05 0.00000E+00
 -1       620 3.50500E-05 1.26213E-05 0.00000E+00
 -1       621 3.42793E-05 1.20391E-06 1.65436E-24
 -1       622 3.38378E-05 1.27024E-06 8.27181E-25
 -1       623 3.34085E-05 1.33655E-06-1.65436E-24
 -1       624 3.29968E-05 1.40267E-06-8.27181E-25
 -1       625 3.26084E-05 1.46848E-06 0.00000E+00
 -1       626 3.45952E-05 1.65151E-06 0.00000E+00
 -1       627 3.44405E-05 2.22445E-06 0.00000E+00
 -1       628 3.42655E-05 2.85098E-06 0.00000E+00
 -1       629 3.40728E-05 3.52484E-06-3.30872E-24
 -1       630 3.38646E-05 4.23976E-06 0.00000E+00
 -1       631 3.36433E-05 4.98938E-06 0.00000E+00
 -1       632 3.34114E-05 5.76735E-06 0.00000E+00
 -1       633 3.31712E-05 6.56731E-06 0.00000E+00
 -1       634 3.29252E-05 7.38290E-06 0.00000E+00
 -1       635 3.26756E-05 8.20775E-06-8.27181E-25
 -1       636 3.24250E-05 9.03552E-06 1.65436E-24
 -1       637 3.21756E-05 9.85984E-06 4.13590E-25
 -1       638 3.19298E-05 1.06743E-05 8.27181E-25
 -1       639 3.16899E-05 1.14726E-05 8.27181E-25
 -1       640 3.14579E-05 1.22484E-05 0.00000E+00
 -1       641 3.50656E-05 1.44919E-05 0.00000E+00
 -1       642 3.50596E-05 1.54774E-05 0.00000E+00
 -1       643 3.50535E-05 1.65029E-05 0.00000E+00
 -1       644 3.50473E-05 1.75617E-05 0.00000E+00
 -1       645 3.50411E-05 1.86450E-05 0.00000E+00
 -1       646 3.50348E-05 1.97445E-05 0.00000E+00
 -1       647 3.50284E-05 2.08508E-05-2.06795E-25
 -1       648 3.50221E-05 2.19544E-05 0.00000E+00
 -1       649 3.50158E-05 2.30463E-05 0.00000E+00
 -1       650 3.50095E-05 2.41171E-05-1.03398E-25
 -1       651 3.50032E-05 2.51587E-05 0.00000E+00
 -1       652 3.49968E-05 2.61629E-05 0.00000E+00
 -1       653 3.49904E-05 2.71236E-05 0.00000E+00
 -1       654 3.49835E-05 2.80344E-05 0.00000E+00
 -1       655 3.49769E-05 2.88917E-05 0.00000E+00
 -1       656 3.42514E-05 1.34631E-05 0.00000E+00
 -1       657 3.35718E-05 1.33685E-05 0.00000E+00
 -1       658 3.29813E-05 1.32741E-05 1.65436E-24
 -1       659 3.24290E-05 1.31797E-05 0.00000E+00
 -1       660 3.18638E-05 1.30852E-05 1.65436E-24
 -1       661 3.47850E-05 1.45122E-05 0.00000E+00
 -1       662 3.44900E-05 1.55024E-05-8.27181E-25
 -1       663 3.41858E-05 1.65172E-05-1.65436E-24
 -1       664 3.38749E-05 1.75505E-05 8.27181E-25
 -1       665 3.35595E-05 1.85963E-05-1.65436E-24
 -1       666 3.32416E-05 1.96486E-05 0.00000E+00
 -1       667 3.29236E-05 2.07011E-05-1.65436E-24
 -1       668 3.26078E-05 2.17481E-05 8.27181E-25
 -1       669 3.22964E-05 2.27833E-05 0.00000E+00
 -1       670 3.19916E-05 2.38008E-05 0.00000E+00
 -1       671 3.16957E-05 2.47945E-05 0.00000E+00
 -1       672 3.14110E-05 2.57584E-05 0.00000E+00
 -1       673 3.11397E-05 2.66863E-05 0.00000E+00
 -1       674 3.08836E-05 2.75721E-05 0.00000E+00
 -1       675 3.06456E-05 2.84098E-05 0.00000E+00
 -1       676 3.41957E-05 2.96079E-05 3.30872E-24
 -1       677 3.34267E-05 2.95239E-05 1.65436E-24
 -1       678 3.26625E-05 2.94400E-05-1.65436E-24
 -1       679 3.19057E-05 2.93565E-05-8.27181E-25
 -1       680 3.11588E-05 2.92729E-05 0.00000E+00
 -1       716 1.26820E-05-4.42459E-05 0.00000E+00
 -1       717 1.26785E-05-4.15326E-05 0.00000E+00
 -1       718 1.26750E-05-3.88192E-05 0.00000E+00
 -1       719 1.26714E-05-3.61059E-05 0.00000E+00
 -1       720 1.26679E-05-3.33925E-05 6.46235E-27
 -1       721 1.26643E-05-3.06792E-05 0.00000E+00
 -1       722 1.26608E-05-2.79658E-05-2.58494E-26
 -1       723 1.26572E-05-2.52525E-05-2.58494E-26
 -1       724 1.26536E-05-2.25391E-05 0.00000E+00
 -1       725 1.26498E-05-1.98258E-05 1.03398E-25
 -1       726 1.26459E-05-1.71124E-05-4.13590E-25
 -1       727 1.26413E-05-1.43991E-05-4.13590E-25
 -1       728 1.26367E-05-1.16858E-05 1.65436E-24
 -1       729 1.26284E-05-8.97241E-06-1.65436E-24
 -1       730 1.26213E-05-6.25907E-06-6.61744E-24
 -1       766 9.97635E-06-3.57152E-06-6.61744E-24
 -1       767 7.54609E-06-3.57791E-06 1.65436E-24
 -1       768 5.32087E-06-3.58504E-06-1.65436E-24
 -1       769 3.31707E-06-3.58813E-06 4.13590E-25
 -1       770 1.55046E-06-3.59065E-06-4.13590E-25
 -1       771 1.10796E-05-1.36731E-06 0.00000E+00
 -1       772 9.72340E-06 3.68632E-07 1.32349E-23
 -1       773 8.51871E-06 1.69957E-06 0.00000E+00
 -1       774 7.45127E-06 2.66409E-06-1.32349E-23
 -1       775 6.50685E-06 3.30097E-06 0.00000E+00
 -1       776 5.67075E-06 3.64939E-06 0.00000E+00
 -1       777 4.92817E-06 3.74868E-06-2.64698E-23
 -1       778 4.26423E-06 3.63842E-06 0.00000E+00
 -1       779 3.66402E-06 3.35830E-06 0.00000E+00
 -1       780 3.11257E-06 2.94817E-06 0.00000E+00
 -1       781 2.59494E-06 2.44799E-06 0.00000E+00
 -1       782 2.09618E-06 1.89779E-06 0.00000E+00
 -1       783 1.60136E-06 1.33765E-06 1.32349E-23
 -1       784 1.09596E-06 8.07737E-07 0.00000E+00
 -1       785 5.65272E-07 3.48154E-07-1.32349E-23
 -1       786 3.14488E-05-9.92668E-08-4.13590E-25
 -1       787 3.15018E-05 4.94540E-08-4.13590E-25
 -1       788 3.15547E-05 1.59733E-07 0.00000E+00
 -1       789 3.16081E-05 2.39152E-07 0.00000E+00
 -1       790 3.16616E-05 2.95271E-07-1.65436E-24
 -1       791 3.17151E-05 3.35638E-07 0.00000E+00
 -1       792 3.17687E-05 3.67791E-07 0.00000E+00
 -1       793 3.18223E-05 3.99261E-07 0.00000E+00
 -1       794 3.18758E-05 4.37583E-07 0.00000E+00
 -1       795 3.19294E-05 4.90292E-07-8.27181E-25
 -1       796 3.19830E-05 5.64934E-07 0.00000E+00
 -1       797 3.20365E-05 6.69066E-07-8.27181E-25
 -1       798 3.20900E-05 8.10267E-07 0.00000E+00
 -1       799 3.21433E-05 9.96130E-07 8.27181E-25
 -1       800 3.21967E-05 1.23429E-06-1.65436E-24
 -1       801 2.88110E-05-2.31292E-07 0.00000E+00
 -1       802 2.29833E-05-1.77363E-07 0.00000E+00
 -1       803 1.55513E-05-1.32990E-07 0.00000E+00
 -1       804 8.15230E-06-9.14725E-08-1.65436E-24
 -1       805 2.42310E-06-4.00758E-08 0.00000E+00
 -1       806 3.12726E-05-1.23763E-07 0.00000E+00
 -1       807 3.11534E-05 2.27123E-08-8.27181E-25
 -1       808 3.10409E-05 1.50138E-07 0.00000E+00
 -1       809 3.09335E-05 2.63034E-07-8.27181E-25
 -1       810 3.08299E-05 3.65908E-07-1.65436E-24
 -1       811 3.07282E-05 4.63249E-07 8.27181E-25
 -1       812 3.06270E-05 5.59541E-07-1.65436E-24
 -1       813 3.05244E-05 6.59266E-07 8.27181E-25
 -1       814 3.04189E-05 7.66908E-07 0.00000E+00
 -1       815 3.03088E-05 8.86946E-07 0.00000E+00
 -1       816 3.01923E-05 1.02386E-06 1.65436E-24
 -1       817 3.00678E-05 1.18213E-06-4.13590E-25
 -1       818 2.99336E-05 1.36622E-06 1.24077E-24
 -1       819 2.97882E-05 1.58060E-06 8.27181E-25
 -1       820 2.96300E-05 1.82970E-06-8.27181E-25
 -1       821 3.21891E-05 1.91288E-06-8.27181E-25
 -1       822 3.21258E-05 2.38291E-06-8.27181E-25
 -1       823 3.20626E-05 2.93306E-06 1.65436E-24
 -1       824 3.19988E-05 3.55378E-06-8.27181E-25
 -1       825 3.19349E-05 4.23552E-06 0.00000E+00
 -1       826 3.18709E-05 4.96866E-06 8.27181E-25
 -1       827 3.18068E-05 5.74355E-06 0.00000E+00
 -1       828 3.17426E-05 6.55053E-06 0.00000E+00
 -1       829 3.16784E-05 7.37987E-06 0.00000E+00
 -1       830 3.16143E-05 8.22186E-06-8.27181E-25
 -1       831 3.15501E-05 9.06678E-06-1.65436E-24
 -1       832 3.14861E-05 9.90489E-06-8.27181E-25
 -1       833 3.14221E-05 1.07265E-05 0.00000E+00
 -1       834 3.13587E-05 1.15218E-05 0.00000E+00
 -1       835 3.12952E-05 1.22812E-05-8.27181E-25
 -1       836 3.18503E-05 1.62861E-06 1.65436E-24
 -1       837 3.13771E-05 1.72797E-06 8.27181E-25
 -1       838 3.08652E-05 1.82721E-06 0.00000E+00
 -1       839 3.03506E-05 1.92608E-06 0.00000E+00
 -1       840 2.98695E-05 2.02492E-06-8.27181E-25
 -1       841 3.21209E-05 1.93456E-06 8.27181E-25
 -1       842 3.19458E-05 2.46263E-06 0.00000E+00
 -1       843 3.17350E-05 3.08582E-06 8.27181E-25
 -1       844 3.14999E-05 3.77340E-06 4.13590E-25
 -1       845 3.12468E-05 4.50907E-06 8.27181E-25
 -1       846 3.09817E-05 5.27651E-06 0.00000E+00
 -1       847 3.07082E-05 6.06648E-06 0.00000E+00
 -1       848 3.04296E-05 6.86977E-06-4.13590E-25
 -1       849 3.01484E-05 7.67998E-06 8.27181E-25
 -1       850 2.98671E-05 8.49076E-06 0.00000E+00
 -1       851 2.95877E-05 9.29597E-06 0.00000E+00
 -1       852 2.93128E-05 1.00894E-05 2.06795E-25
 -1       853 2.90454E-05 1.08624E-05-4.13590E-25
 -1       854 2.87886E-05 1.16060E-05 0.00000E+00
 -1       855 2.85487E-05 1.23051E-05-4.13590E-25
 -1       856 3.11874E-05 1.37424E-05 4.13590E-25
 -1       857 3.11371E-05 1.45905E-05 4.13590E-25
 -1       858 3.10866E-05 1.55255E-05 8.27181E-25
 -1       859 3.10357E-05 1.65333E-05-8.27181E-25
 -1       860 3.09846E-05 1.76000E-05 1.65436E-24
 -1       861 3.09334E-05 1.87114E-05-8.27181E-25
 -1       862 3.08822E-05 1.98535E-05 0.00000E+00
 -1       863 3.08310E-05 2.10122E-05 8.27181E-25
 -1       864 3.07797E-05 2.21734E-05 0.00000E+00
 -1       865 3.07285E-05 2.33232E-05 0.00000E+00
 -1       866 3.06773E-05 2.44473E-05 1.65436E-24
 -1       867 3.06261E-05 2.55317E-05 0.00000E+00
 -1       868 3.05751E-05 2.65624E-05 0.00000E+00
 -1       869 3.05242E-05 2.75254E-05 8.27181E-25
 -1       870 3.04735E-05 2.84065E-05 1.65436E-24
 -1       871 3.06651E-05 1.29879E-05 0.00000E+00
 -1       872 3.01694E-05 1.29798E-05-4.13590E-25
 -1       873 2.97180E-05 1.29716E-05 4.13590E-25
 -1       874 2.92808E-05 1.29630E-05 0.00000E+00
 -1       875 2.88275E-05 1.29541E-05-8.27181E-25
 -1       876 3.10472E-05 1.37596E-05 0.00000E+00
 -1       877 3.08342E-05 1.46017E-05-1.65436E-24
 -1       878 3.05962E-05 1.55103E-05 3.30872E-24
 -1       879 3.03372E-05 1.64759E-05-1.65436E-24
 -1       880 3.00607E-05 1.74886E-05 0.00000E+00
 -1       881 2.97701E-05 1.85387E-05 0.00000E+00
 -1       882 2.94691E-05 1.96166E-05 0.00000E+00
 -1       883 2.91613E-05 2.07126E-05 0.00000E+00
 -1       884 2.88504E-05 2.18170E-05-3.30872E-24
 -1       885 2.85399E-05 2.29202E-05 1.65436E-24
 -1       886 2.82334E-05 2.40126E-05-3.30872E-24
 -1       887 2.79346E-05 2.50844E-05 1.65436E-24
 -1       888 2.76470E-05 2.61260E-05-3.30872E-24
 -1       889 2.73737E-05 2.71277E-05 0.00000E+00
 -1       890 2.71191E-05 2.80797E-05-8.27181E-25
 -1       891 2.97851E-05 2.91554E-05 8.27181E-25
 -1       892 2.92362E-05 2.91183E-05 0.00000E+00
 -1       893 2.87245E-05 2.90812E-05 8.27181E-25
 -1       894 2.81970E-05 2.90442E-05 0.00000E+00
 -1       895 2.76004E-05 2.90071E-05 0.00000E+00
 -1       926 3.56707E-08-2.32778E-06 0.00000E+00
 -1       927 3.51204E-08-1.30906E-06-2.58494E-26
 -1       928 3.47484E-08-5.13055E-07 0.00000E+00
 -1       929 3.45545E-08 8.31563E-08 0.00000E+00
 -1       930 3.44463E-08 5.02499E-07 1.29247E-26
 -1       931 3.43901E-08 7.67899E-07 0.00000E+00
 -1       932 3.43511E-08 9.02297E-07 0.00000E+00
 -1       933 3.42881E-08 9.28627E-07-2.58494E-26
 -1       934 3.41919E-08 8.69830E-07-1.03398E-25
 -1       935 3.39358E-08 7.48848E-07-1.03398E-25
 -1       936 3.35841E-08 5.88624E-07 0.00000E+00
 -1       937 3.24942E-08 4.12102E-07 0.00000E+00
 -1       938 3.13019E-08 2.42194E-07 0.00000E+00
 -1       939 2.64467E-08 1.01817E-07 0.00000E+00
 -1       940 2.28315E-08 1.35533E-08-6.61744E-24
 -1       956 2.93889E-05 2.52696E-06 0.00000E+00
 -1       957 2.93186E-05 3.01080E-06 2.06795E-25
 -1       958 2.92481E-05 3.56140E-06 0.00000E+00
 -1       959 2.91773E-05 4.17033E-06 4.13590E-25
 -1       960 2.91065E-05 4.82917E-06 1.65436E-24
 -1       961 2.90356E-05 5.52945E-06 0.00000E+00
 -1       962 2.89647E-05 6.26266E-06 0.00000E+00
 -1       963 2.88938E-05 7.02032E-06 8.27181E-25
 -1       964 2.88229E-05 7.79394E-06 0.00000E+00
 -1       965 2.87519E-05 8.57502E-06-8.27181E-25
 -1       966 2.86810E-05 9.35508E-06 1.65436E-24
 -1       967 2.86101E-05 1.01256E-05 0.00000E+00
 -1       968 2.85392E-05 1.08781E-05-3.30872E-24
 -1       969 2.84685E-05 1.16041E-05 0.00000E+00
 -1       970 2.83980E-05 1.22953E-05 0.00000E+00
 -1       971 2.82400E-05 1.36098E-05 0.00000E+00
 -1       972 2.81496E-05 1.43825E-05 0.00000E+00
 -1       973 2.80591E-05 1.52485E-05 0.00000E+00
 -1       974 2.79683E-05 1.61946E-05 1.65436E-24
 -1       975 2.78774E-05 1.72075E-05-3.30872E-24
 -1       976 2.77864E-05 1.82741E-05 1.65436E-24
 -1       977 2.76954E-05 1.93811E-05-3.30872E-24
 -1       978 2.76043E-05 2.05152E-05 0.00000E+00
 -1       979 2.75132E-05 2.16631E-05-3.30872E-24
 -1       980 2.74221E-05 2.28116E-05-1.65436E-24
 -1       981 2.73311E-05 2.39473E-05 3.30872E-24
 -1       982 2.72402E-05 2.50570E-05 0.00000E+00
 -1       983 2.71494E-05 2.61275E-05-3.30872E-24
 -1       984 2.70590E-05 2.71455E-05 0.00000E+00
 -1       985 2.69689E-05 2.80976E-05 0.00000E+00
 -3
    1PSTEP                        18           9           1          
  100CL  109 4.60449E-01         608                     0    9           1
 -4  STRESS      6    1
 -5  SXX         1    4    1    1
 -5  SYY         1    4    2    2
 -5  SZZ         1    4    3    3
 -5  SXY         1    4    1    2
 -5  SYZ         1    4    2    3
 -5  SZX         1    4    3    1
 -1         1-2.28818E+06-7.86064E+05-5.02035E+05-7.18140E+05-6.79089E-11 9.89530E-10
 -1         2-1.51042E+06-3.90283E+05-1.95524E+05-2.50849E+05 4.43833E-10-2.29532E-08
 -1         3-4.01212E+05-3.53364E+05-1.42815E+04 4.46700E+04 2.19154E-09-4.01648E-10
 -1         4-3.69168E+05-5.20427E+04 1.54104E+03-3.32017E+04-2.84000E-09-1.44165E-09
 -1         5-2.17111E+05 4.86389E+04-8.73528E+04-2.10255E+03 1.36561E-08 1.68461E-09
 -1         8-1.02612E+06-4.74518E+05-1.39713E+05-6.30448E+05 2.47383E-10-2.51263E-09
 -1         9-1.06803E+06-3.73614E+05-1.51289E+05-3.71211E+05 2.05982E-09 7.30506E-10
 -1        10-5.16683E+05-3.66799E+05-3.43069E+04-1.28098E+05 3.37500E-09-2.58952E-08
 -1        11-3.02141E+05-6.41149E+04 3.40244E+03 1.44265E+04 1.73173E-10 2.17229E-09
 -1        12-2.72500E+05 2.67047E+04-1.02359E+05-1.89049E+04 2.19029E-08-3.29297E-09
 -1        15 1.75390E+03 9.48457E+02 5.44329E+03 2.05047E+00-5.58487E-11 4.25096E-09
 -1        16-1.65464E+06-4.40706E+05-1.49641E+05-5.44949E+05 6.20162E-10 5.67525E-10
 -1        17-2.93692E+05-2.36734E+05-2.87529E+04-2.08286E+05-9.24047E-10 6.51198E-10
 -1        18 1.97684E+04-1.04281E+04-1.36179E+04-4.76515E+04-1.11322E-10-8.07631E-10
 -1        19 7.77343E+04 9.48739E+04-9.91038E+01 2.61132E+03 2.03727E-11 9.93168E-10
 -1        20 3.42186E+04-5.82158E+04-1.36335E+04 2.72499E+04 1.45599E-09-1.68939E-09
 -1        21-6.07482E+03-9.28212E+04 2.56947E+04-7.60691E+02 7.50325E-09-3.11332E-09
 -1        23 4.25978E-01 2.02930E-01 7.80372E+00 5.80856E-04 4.20060E-09-8.61538E-10
 -1        24-8.54271E+05-2.55388E+05 4.53114E+04-4.43708E+05-3.79805E-10 8.61473E-10
 -1        25 1.27786E+04 3.55502E+04 1.77782E+04-2.46337E+05-3.11411E-10-2.72703E-09
 -1        26 1.71369E+03 6.48894E+04 3.00103E+02-1.07073E+04 1.56146E-10-2.87675E-10
 -1        27-1.41051E+04-4.29920E+04-1.91111E+04 4.73762E+04 2.51900E-09-1.05744E-09
 -1        28-5.35959E+03-7.16811E+04-2.54433E+03 2.76691E+04 4.17481E-09 3.32058E-10
 -1        31 2.71757E+03 3.13196E+03 4.63225E+03-7.02913E+01 2.66218E-09-1.17626E-09
 -1        32-3.48884E+05 8.45462E+04 2.17719E+05-5.06437E+05-2.90282E-10 1.38728E-09
 -1        33-7.65968E+04 7.75435E+04 2.38232E+04-2.44110E+04-7.25587E-10-1.24267E-09
 -1        34-9.32466E+04-3.75551E+03 8.43525E+03 3.56689E+04 1.73650E-09-2.69381E-09
 -1        35-1.41706E+04-1.93425E+04 1.05471E+03 4.50106E+04 1.87509E-09-2.47079E-09
 -1        36-2.34898E+06 6.93737E+04-1.59691E+05-2.49468E-07-1.09371E-09 1.76806E-09
 -1        37-2.41823E+06-8.02836E+04-1.13121E+05-9.17261E-07-1.70684E-09 1.19326E-09
 -1        38-2.37567E+06 1.09059E+04-4.13128E+04-2.14336E-07 1.47457E-09 4.10000E-09
 -1        39-2.38702E+06-1.26192E+04-2.60199E+04-2.64834E-07-3.03430E-09-4.88490E-09
 -1        40-2.38007E+06 1.71179E+03-1.06321E+04 2.58543E-07-8.62685E-09-4.39013E-09
 -1        41-2.38186E+06-2.01019E+03-6.38710E+03 8.14579E-08-2.85524E-09-5.66502E-10
 -1        42-2.38080E+06 2.98160E+02-3.17854E+03 6.69379E-07-4.65939E-09-2.34456E-09
 -1        43-2.38110E+06-5.52961E+02-2.63788E+03 2.43805E-07-2.96565E-09-3.56616E-09
 -1        44-2.38082E+06 2.54751E+02-2.79528E+03-2.28422E-07-4.40997E-09 3.79089E-10
 -1        45-2.38166E+06-1.63794E+03-5.27574E+03-7.58897E-07 7.77696E-10 7.06848E-10
 -1        46-2.38025E+06 1.38299E+03-8.63417E+03 2.00910E-07-3.54382E-09 7.69296E-09
 -1        47-2.38581E+06-1.01819E+04-2.10194E+04-1.47028E-07-2.54020E-09 9.31323E-10
 -1        48-2.37670E+06 8.79758E+03-3.33408E+04 6.30203E-07-1.86091E-09-2.16642E-09
 -1        49-2.41099E+06-6.47624E+04-9.12581E+04-1.52293E-07-6.91687E-09 2.31921E-10
 -1        50-2.35517E+06 5.59593E+04-1.28837E+05-4.01693E-08-8.13171E-09 1.97906E-09
 -1        51 1.74451E+04-3.00477E+05 2.96982E+04-7.78482E+05 0.00000E+00-1.89175E-10
 -1        52 8.56211E+03-2.98432E+05 1.93907E+04-8.62097E+05 1.12777E-10 2.40107E-09
 -1        53 6.40944E+03-3.05371E+05 1.75899E+04-7.76383E+05 2.98314E-10 1.10085E-08
 -1        54 1.64714E+04-3.02329E+05 2.92497E+04-8.64352E+05-2.61934E-10 1.13796E-08
 -1        55 3.87019E+04-3.11988E+05 5.45039E+04-7.76005E+05-1.81899E-10 3.73257E-09
 -1        56-4.15581E+06-4.44538E+05-3.58313E+05-1.60752E+06 5.02041E-10-2.32831E-10
 -1        57-4.30928E+06-7.87336E+05-2.45618E+05-1.58400E+06 1.44610E-10 1.24055E-09
 -1        58-4.23319E+06-5.61991E+05-8.40641E+04-1.57806E+06-7.31234E-10-3.43425E-09
 -1        59-4.22129E+06-6.48687E+05-5.14623E+04-1.61592E+06 9.77252E-10 1.47338E-09
 -1        60-4.24322E+06-5.81500E+05-1.96594E+04-1.57609E+06-4.09273E-11-1.19690E-09
 -1        61-4.21649E+06-6.18810E+05-1.13972E+04-1.60963E+06 1.41597E-09 8.63838E-09
 -1        62-4.23771E+06-5.91713E+05-5.53505E+03-1.58429E+06 1.26647E-09 3.81414E-09
 -1        63-4.23194E+06-5.98544E+05-4.55471E+03-1.58983E+06-2.57523E-09-6.82689E-11
 -1        64-4.22764E+06-6.01808E+05-5.44631E+03-1.59582E+06-2.22417E-09 2.21166E-09
 -1        65-4.25168E+06-5.83458E+05-1.11219E+04-1.56934E+06-7.26772E-10-2.63208E-09
 -1        66-4.21810E+06-6.06760E+05-1.91560E+04-1.60486E+06-6.84850E-10 3.30874E-09
 -1        67-4.27361E+06-5.95310E+05-5.01174E+04-1.55577E+06-1.50067E-09-9.05857E-10
 -1        68-4.20599E+06-5.90102E+05-8.18588E+04-1.60944E+06-1.55160E-09-1.84446E-09
 -1        69-4.35014E+06-7.39463E+05-2.39169E+05-1.53515E+06-2.81761E-09-1.43700E-09
 -1        70-4.14214E+06-4.64250E+05-3.48921E+05-1.62500E+06-7.27596E-10-4.29281E-09
 -1        86-3.00741E+04-1.61698E+05 7.08654E+04 9.96028E+03 3.19415E-09 7.32916E-09
 -1        87 3.79773E+04-1.26837E+05 5.61362E+04-4.33431E+04 5.40422E-09 6.73003E-09
 -1        88-7.68512E+03-1.49832E+05 2.97783E+04 1.05625E+04 4.88149E-09 6.27718E-09
 -1        89 2.91309E+04-1.31690E+05 4.44122E+04-4.35810E+04 7.24731E-09 2.11591E-09
 -1        90-2.12077E+04-1.56919E+05 5.10413E+04 1.01985E+04 2.65572E-09 2.48701E-09
 -1        91-2.16853E+06-2.52682E+05-1.32914E+05-8.36249E+05-1.77068E-05 6.59384E-06
 -1        92-2.23815E+06-3.75919E+05-9.23748E+04-8.13567E+05-3.53547E-05 1.32707E-05
 -1        93-2.19527E+06-3.01065E+05-3.11301E+04-8.27597E+05-1.02245E-05 3.84812E-06
 -1        94-2.20670E+06-3.20192E+05-1.95023E+04-8.23824E+05 1.49005E-05-5.59346E-06
 -1        95-2.19989E+06-3.08393E+05-7.29289E+03-8.25958E+05 3.10604E-06-1.16808E-06
 -1        96-2.20149E+06-3.11568E+05-4.39523E+03-8.25500E+05-8.69196E-06 3.26488E-06
 -1        97-2.20045E+06-3.09684E+05-2.07914E+03-8.25913E+05-4.23146E-07 1.60983E-07
 -1        98-2.20082E+06-3.10424E+05-1.93316E+03-8.25679E+05 7.85223E-06-2.94931E-06
 -1        99-2.20056E+06-3.09537E+05-2.24960E+03-8.25777E+05-2.65498E-06 9.97733E-07
 -1       100-2.20171E+06-3.11694E+05-4.92497E+03-8.25363E+05-1.31448E-05 4.93279E-06
 -1       101-2.19957E+06-3.08415E+05-8.24304E+03-8.26230E+05 4.70664E-06-1.76813E-06
 -1       102-2.20731E+06-3.21771E+05-2.20911E+04-8.23795E+05 2.25495E-05-8.46541E-06
 -1       103-2.19498E+06-2.99464E+05-3.52855E+04-8.27355E+05-2.10463E-05 7.91852E-06
 -1       104-2.24354E+06-3.84304E+05-1.04694E+05-8.11433E+05-6.46220E-05 2.42498E-05
 -1       105-2.16344E+06-2.45899E+05-1.50668E+05-8.38629E+05-3.24213E-05 1.20842E-05
 -1       106-7.97950E+05 4.47626E+03-1.03184E+04-2.42127E-07 2.60800E-09-1.99861E-09
 -1       107-8.02363E+05-5.18113E+03-7.30834E+03 2.95651E-07 1.07464E-09-3.17630E-09
 -1       108-7.99675E+05 7.03928E+02-2.67645E+03-2.34043E-07 1.48768E-09-7.51470E-11
 -1       109-8.00351E+05-8.15482E+02-1.69491E+03-4.90622E-07-4.04963E-10 8.08086E-10
 -1       110-7.99959E+05 1.11419E+02-7.13120E+02-2.76919E-07 7.61486E-10-4.72664E-09
 -1       111-8.00022E+05-1.36924E+02-4.67553E+02 8.96518E-08 3.45485E-11-5.05199E-09
 -1       112-8.00002E+05 2.54876E+01-3.07597E+02 2.71771E-07-1.68736E-10 8.69630E-10
 -1       113-7.99997E+05-8.25715E+01-3.95123E+02-2.59945E-07 3.65713E-09 3.98951E-09
 -1       114-7.99984E+05 5.70763E+01-5.87257E+02-2.11446E-08-2.23305E-09 3.36263E-09
 -1       115-8.00168E+05-4.07813E+02-1.27801E+03 2.38767E-07-2.11759E-09-4.45482E-10
 -1       116-7.99832E+05 3.50682E+02-2.17013E+03-6.41893E-08-4.69969E-10-1.89141E-09
 -1       117-8.01229E+05-2.58899E+03-5.33874E+03 1.60704E-07-2.53632E-09 4.25553E-09
 -1       118-7.98926E+05 2.23789E+03-8.48658E+03-9.90373E-08-3.52593E-09-7.91260E-10
 -1       119-8.07629E+05-1.64746E+04-2.32276E+04-8.53604E-07-1.44090E-09-1.42245E-09
 -1       120-7.93441E+05 1.42342E+04-3.28033E+04 4.07843E-07-6.48109E-10 1.12050E-09
 -1       121-1.78730E+02-6.76982E+05 7.38062E+02 1.53302E+04 4.77499E-10 1.24055E-09
 -1       122 3.95807E+02-6.76644E+05 8.44527E+02 8.94208E+04 1.11027E-09 3.86601E-09
 -1       123-1.07736E+02-6.76956E+05 9.81632E+02 1.52492E+04 5.47061E-10-2.30216E-09
 -1       124 1.16473E+03-6.76002E+05 2.21484E+03 8.91764E+04 6.16637E-10-4.48586E-09
 -1       125-9.84296E+02-6.77417E+05 3.21955E+03 1.55747E+04-7.01675E-10-5.97538E-09
 -1       141-4.11667E+05-6.76400E+02 1.55643E+03-2.06691E-07-3.40486E-10-2.27794E-09
 -1       142-4.10953E+05 7.82557E+02 1.09647E+03-1.89613E-08 6.04248E-10-2.61903E-09
 -1       143-4.11406E+05-1.06014E+02 3.88030E+02-3.49162E-07-1.49841E-09-3.24397E-09
 -1       144-4.11259E+05 1.20375E+02 2.21028E+02-2.98789E-07-1.25590E-09 3.18905E-09
 -1       145-4.11361E+05-1.43386E+01 4.03184E+01 4.49425E-07 1.49516E-10-1.30311E-09
 -1       146-4.11320E+05 1.61289E+00-7.38179E+01 2.68375E-07-2.00058E-10-3.61388E-09
 -1       147-4.11345E+05 1.27281E+01-2.24072E+02 2.73730E-08 2.51519E-10 2.90906E-09
 -1       148-4.11386E+05-1.12017E+02-5.36434E+02 1.53804E-07-5.05378E-10 2.47420E-09
 -1       149-4.11295E+05 9.92785E+01-9.90833E+02 4.14591E-08-1.68394E-09 7.84212E-10
 -1       150-4.11718E+05-7.40603E+02-2.29557E+03 7.99899E-08-2.11464E-09-1.74742E-09
 -1       151-4.11014E+05 6.41229E+02-3.95378E+03-5.17275E-07-5.79956E-10 4.62478E-10
 -1       152-4.13663E+05-4.73879E+03-9.76604E+03-1.07966E-07 1.36061E-09 1.13812E-09
 -1       153-4.09352E+05 4.09685E+03-1.55361E+04-5.06677E-07 4.10387E-09 4.19277E-10
 -1       154-4.25378E+05-3.01600E+04-4.25264E+04-4.79855E-07 1.54625E-09-5.28598E-09
 -1       155-3.99302E+05 2.60589E+04-6.00521E+04-1.90948E-07 8.36586E-09 7.27596E-12
 -1       156-1.35755E+04-9.49510E+04 3.10467E+04-2.04954E+03-1.52977E-09 1.48090E-09
 -1       157 1.71735E+04-7.37228E+04 2.62482E+04 7.26929E+03-9.09495E-10 1.55315E-09
 -1       158-3.57447E+03-8.96777E+04 1.41172E+04-2.09512E+03-4.65332E-09 1.39728E-10
 -1       159 1.65846E+04-6.34932E+04 2.64138E+04 5.89492E+03 3.98450E-09 4.84590E-11
 -1       160-1.30461E+04-1.05108E+05 2.49437E+04-6.75399E+02 2.53021E-09 8.30994E-10
 -1       161-3.75505E+05-5.06192E+04-6.55324E+02-1.36149E+05-6.53932E-09 7.21286E-10
 -1       162-3.44021E+05-5.35592E+04 4.19778E+03-1.38057E+05 9.49488E-09 5.06759E-10
 -1       163-3.75153E+05-4.98222E+04-1.41328E+03-1.36425E+05-2.43797E-09-3.01725E-10
 -1       164-3.50002E+05-4.90148E+04 3.43230E+03-1.31355E+05-1.12059E-08 1.76082E-09
 -1       165-3.69499E+05-5.52315E+04-1.61520E+03-1.42810E+05-1.13792E-05 4.31279E-06
 -1       166-3.55755E+05-4.35777E+04 3.20158E+03-1.25009E+05-2.28570E-05 8.77866E-06
 -1       167-3.69426E+05-5.51916E+04-1.77319E+03-1.42811E+05-1.13682E-05 4.31348E-06
 -1       168-3.50112E+05-4.92785E+04 2.89297E+03-1.31264E+05 8.79825E-09-1.32646E-09
 -1       169-3.75116E+05-4.95985E+04-2.37532E+03-1.36515E+05 7.58012E-06-2.80707E-06
 -1       170-3.45085E+05-5.54491E+04 1.44541E+03-1.37697E+05 1.50615E-05-5.51835E-06
 -1       171-3.74479E+05-4.89534E+04-4.67736E+03-1.36419E+05 7.59369E-06-2.80375E-06
 -1       172-3.52658E+05-5.36331E+04-5.08083E+03-1.30638E+05 1.48539E-08-7.09451E-09
 -1       173-3.67518E+05-5.14830E+04-1.50826E+04-1.43533E+05-7.81506E-09 1.11413E-09
 -1       174-3.71523E+05-7.12507E+04-3.61923E+04-1.19901E+05-3.36900E-08 3.31511E-10
 -1       175-3.55645E+05-3.12712E+04-5.88097E+04-1.47197E+05 2.14186E-09-3.81988E-09
 -1       191 3.38398E+02 2.73153E+05 5.46364E+02-4.13062E+03-2.25555E-10 5.01268E-09
 -1       192 1.23080E+02 2.73219E+05 3.31953E+02-4.31795E+03-1.31649E-10 2.53976E-09
 -1       193 5.91654E+01 2.73178E+05 2.75594E+02-4.01753E+03-5.41036E-10 9.47693E-10
 -1       194 1.78098E+02 2.73234E+05 4.28780E+02-4.53541E+03-4.10409E-10-1.30740E-09
 -1       195 5.07815E+02 2.73131E+05 7.87479E+02-3.91287E+03-8.33097E-10-2.60707E-09
 -1       266-3.08355E+04-1.42595E+04 7.11680E+04-4.21987E+01 3.63798E-12 3.32364E-09
 -1       267 3.57100E+04 1.66515E+04 5.04839E+04 4.85185E+01 7.27596E-12 1.79732E-10
 -1       268-4.86596E+03-2.38402E+03 1.86857E+04-6.31842E+00 2.54659E-11-1.48114E-09
 -1       269 5.74388E+03 2.85867E+03 1.22120E+04 7.34506E+00 6.27551E-11-4.09849E-09
 -1       270-8.76825E+02-4.74221E+02 5.86328E+03-1.02493E+00-5.04770E-11 9.88885E-10
 -1       271-3.20401E+06-3.98817E+05-2.52304E+05-1.24001E+06-1.01500E-09-8.73115E-10
 -1       272-3.29776E+06-5.66335E+05-1.60342E+05-1.23481E+06 2.64208E-10-6.00267E-11
 -1       273-3.24951E+06-4.57743E+05-5.95206E+04-1.23127E+06-8.18545E-11 2.78669E-09
 -1       274-3.24458E+06-4.91808E+05-3.29271E+04-1.24915E+06 4.04270E-10 7.35236E-09
 -1       275-3.25574E+06-4.63318E+05-1.38372E+04-1.22946E+06-1.70076E-10 9.82254E-11
 -1       276-3.23699E+06-4.85173E+05-7.33655E+03-1.25221E+06 1.94450E-09 2.48758E-09
 -1       277-3.25707E+06-4.63349E+05-3.69736E+03-1.22865E+06-9.00172E-10 2.83808E-09
 -1       278-3.23544E+06-4.85294E+05-2.81668E+03-1.25343E+06 5.21823E-11 3.02565E-09
 -1       279-3.25737E+06-4.63066E+05-3.23975E+03-1.22833E+06-3.32420E-10 5.19401E-09
 -1       280-3.23581E+06-4.86085E+05-6.08776E+03-1.25356E+06 7.32253E-10 4.37376E-09
 -1       281-3.25672E+06-4.62602E+05-1.12898E+04-1.22851E+06 5.25588E-10 5.20049E-09
 -1       282-3.24130E+06-4.92201E+05-2.68093E+04-1.25195E+06 3.57829E-10-6.74845E-10
 -1       283-3.25198E+06-4.57751E+05-4.83944E+04-1.22964E+06 8.18090E-10 6.42103E-10
 -1       284-3.28403E+06-5.53327E+05-1.30400E+05-1.24089E+06 1.65983E-10 4.40195E-10
 -1       285-3.21520E+06-4.09638E+05-2.05190E+05-1.23652E+06 3.78350E-10-1.65892E-09
 -1       286 3.31890E+05-3.97962E+04 9.17206E+04 7.32776E+02 1.31502E-09 3.39060E-09
 -1       287 3.72137E+05 4.60575E+04 6.50020E+04-1.09307E+03-4.56054E-10 2.23099E-09
 -1       288 3.47430E+05-6.24969E+03 2.37612E+04 4.71049E+01-1.90870E-10 3.08410E-09
 -1       289 3.54054E+05 7.23267E+03 1.49716E+04-2.84503E+02 5.78668E-10-2.82762E-09
 -1       290 3.49973E+05-9.81513E+02 6.14307E+03-7.57761E+01-8.47500E-08 2.04182E-09
 -1       291 3.51097E+05 1.15769E+03 3.72251E+03-1.39081E+02-1.70216E-07-2.06472E-09
 -1       292 3.50389E+05-1.75905E+02 1.91652E+03-9.83201E+01-5.28100E-08 4.71971E-10
 -1       293 3.50684E+05 3.55174E+02 1.70462E+03-1.15093E+02 6.49063E-08-4.99471E-09
 -1       294 3.50387E+05-1.79141E+02 1.94447E+03-9.97653E+01-5.27916E-07-3.75280E-09
 -1       295 3.51112E+05 1.18540E+03 3.80369E+03-1.28268E+02-1.12303E-06-3.07523E-10
 -1       296 3.49960E+05-1.00598E+03 6.28860E+03-8.51444E+01-3.96953E-06-1.24496E-08
 -1       297 3.54138E+05 7.41296E+03 1.53358E+04-2.24939E+02-6.81421E-06 1.96633E-09
 -1       298 3.47358E+05-6.40546E+03 2.43418E+04-3.09204E+00-3.41582E-06 9.71249E-09
 -1       299 3.72545E+05 4.71760E+04 6.65666E+04-7.65674E+02-1.70690E-10 1.44319E-08
 -1       300 3.31554E+05-4.07583E+04 9.39906E+04 4.55581E+02 5.07702E-09 1.36060E-09
 -1       301 2.51690E+04-1.50427E+04 7.50798E+04-2.12190E+04-3.63798E-12-6.44576E-09
 -1       302 9.57981E+03 5.60440E+02 5.09593E+04-2.62727E+04 9.80208E-10-1.28228E-08
 -1       303 2.03795E+03-9.72281E+03 4.72532E+04-2.12280E+04-5.91172E-11-3.36399E-10
 -1       304 1.81345E+04 7.18648E+03 7.82535E+04-2.62429E+04 8.56744E-10 8.68874E-09
 -1       305 4.98907E+04-2.16386E+04 1.39722E+05-2.12123E+04 1.52795E-10 6.35555E-09
 -1       306-1.47510E+06-1.93482E+05-8.84916E+04-5.72018E+05-1.18234E-10 1.14596E-09
 -1       307-1.48859E+06-2.71142E+05-5.61650E+04-5.92116E+05-1.07900E-09 6.99220E-09
 -1       308-1.49119E+06-2.13896E+05-2.08960E+04-5.68846E+05-2.34468E-09 3.37968E-09
 -1       309-1.47003E+06-2.45157E+05-1.15579E+04-5.97356E+05-7.52061E-09-2.39083E-09
 -1       310-1.49336E+06-2.15834E+05-4.88324E+03-5.68244E+05-2.94585E-09 5.00722E-09
 -1       311-1.46758E+06-2.42692E+05-2.63344E+03-5.98314E+05 7.47605E-10 2.29670E-09
 -1       312-1.49371E+06-2.15955E+05-1.41407E+03-5.68098E+05 2.70973E-10 2.87571E-09
 -1       313-1.46735E+06-2.42438E+05-1.24893E+03-5.98363E+05 1.27670E-10-2.30375E-09
 -1       314-1.49360E+06-2.16061E+05-1.66850E+03-5.68208E+05-2.93767E-10 1.62640E-09
 -1       315-1.46798E+06-2.42414E+05-3.31798E+03-5.97790E+05-8.64020E-11 1.00954E-09
 -1       316-1.49297E+06-2.16084E+05-6.28731E+03-5.68575E+05-1.69985E-09 1.84400E-09
 -1       317-1.47137E+06-2.45359E+05-1.49124E+04-5.96228E+05-2.18370E-09 4.25507E-09
 -1       318-1.49005E+06-2.13681E+05-2.70097E+04-5.69452E+05-3.05590E-09 4.76575E-10
 -1       319-1.49546E+06-2.78818E+05-7.25631E+04-5.89326E+05-1.51886E-09 4.44925E-09
 -1       320-1.46924E+06-1.87316E+05-1.14341E+05-5.73570E+05-1.63527E-09-4.03088E-09
 -1       321-6.99356E+05-1.17670E+03-5.74643E+01-1.03485E+04-1.53366E-09-1.72918E-10
 -1       322-6.30984E+05 4.20381E+03 1.30516E+04 1.49845E+04-1.81464E-08-4.43839E-09
 -1       323-7.30955E+05-2.99760E+03-8.28134E+03-2.94918E+03-6.36078E-09 2.36008E-09
 -1       324-6.44486E+05 2.26401E+02 8.58739E+03-8.53443E+03-5.35899E-09-6.71199E-09
 -1       325-6.85851E+05 2.69616E+03 7.01648E+02 1.31700E+04 1.51268E-09-3.69496E-09
 -1       326-6.43184E+05 2.86716E+01 8.51499E+03-9.30426E+03 4.18149E-09-2.09724E-10
 -1       327-7.32257E+05-2.78784E+03-9.20335E+03-2.17939E+03-1.52392E-09 2.59546E-09
 -1       328-6.33334E+05 1.16286E+03 1.04498E+04 1.45778E+04 1.13729E-09 5.53092E-09
 -1       329-6.95704E+05 1.64460E+03-1.91694E+03-1.07116E+04-3.28149E-09 9.35069E-09
 -1       330-6.52433E+05-1.48677E+03 5.44844E+03 3.43301E+03 8.35688E-09-2.00231E-09
 -1       331-7.13154E+05-2.95006E+02-6.93344E+03 8.96466E+03 1.09139E-10-1.21429E-09
 -1       332-6.30016E+05 2.05916E+01 7.36605E+03-1.50514E+04-1.87444E-08-7.28193E-09
 -1       333-7.18130E+05 3.29894E+02-1.33314E+04 7.77235E+03-1.60973E-08-6.43468E-09
 -1       334-6.56237E+05-1.23436E+04-1.15621E+04 5.29123E+03 1.52603E-10-1.20963E-10
 -1       335-6.86933E+05 1.18862E+04-2.78351E+04-1.13777E+04-9.03113E-09 6.24459E-09
 -1       336 2.15351E+02-7.20752E+05-2.32360E+03-9.41224E+03-2.30079E-09 1.05410E-09
 -1       337-1.23008E+03-7.21722E+05-4.68499E+03-5.86230E+04-4.35489E-09-5.65706E-10
 -1       338 9.54299E+02-7.20311E+05-7.94259E+03-8.97589E+03-3.68641E-09-1.76215E-09
 -1       339-1.02919E+04-7.27134E+05-1.98096E+04-5.92179E+04-5.82622E-09 2.10855E-09
 -1       340 8.30961E+03-7.15664E+05-3.02758E+04-8.81926E+03-4.04361E-09 3.95130E-09
 -1       356-6.87604E+05 1.17316E+04-2.80045E+04-1.09925E+04-2.60542E-09 4.49472E-09
 -1       357-6.58025E+05-1.24217E+04-1.19598E+04 4.71108E+03-3.77744E-09 3.00861E-09
 -1       358-7.15198E+05 5.64320E+02-1.27814E+04 7.94104E+03-5.44014E-09-3.94039E-09
 -1       359-6.32152E+05-5.69597E+01 6.86126E+03-1.47418E+04-6.32111E-09-8.76508E-09
 -1       360-7.13477E+05-4.53685E+02-7.13616E+03 8.46011E+03-2.94727E-09-9.87939E-10
 -1       361-6.53398E+05-1.42566E+03 5.06303E+03 3.85922E+03 2.29974E-09 5.54029E-09
 -1       362-6.93944E+05 1.75040E+03-1.95720E+03-1.06596E+04 1.42049E-08 6.55230E-09
 -1       363-6.36078E+05 8.68943E+02 9.08654E+03 1.40299E+04 8.76329E-09 8.07222E-09
 -1       364-7.30801E+05-2.60581E+03-1.03978E+04-1.70995E+03-9.28247E-09 6.42899E-09
 -1       365-6.44611E+05-9.40055E+02 5.03356E+03-9.50562E+03-2.44847E-08-4.31595E-09
 -1       366-6.85410E+05 3.49182E+03-5.04734E+03 1.28756E+04 1.42271E-08-6.25846E-09
 -1       367-6.50154E+05-6.69999E+03-5.96959E+03-7.83313E+03 2.38525E-08-3.32034E-09
 -1       368-7.25262E+05 3.12881E+03-3.01027E+04-3.38246E+03-5.09624E-09 5.21140E-10
 -1       369-6.52568E+05-3.92698E+04-4.84748E+04 1.47553E+04-1.51475E-08 5.46424E-09
 -1       370-6.83011E+05 3.61684E+04-8.67604E+04-9.71242E+03 6.45736E-09 4.91491E-09
 -1       371-1.21500E+04-1.00142E+05 2.37234E+04-2.32240E+02 9.60972E-09 1.15986E-09
 -1       372 1.28065E+04-6.99410E+04 1.85474E+04 4.31665E+03-1.54182E-09-1.10229E-09
 -1       373-6.89983E+02-8.81899E+04 2.70169E+03-1.44196E+03 3.28328E-10-1.75838E-10
 -1       374-5.31076E+03-8.59089E+04-5.68501E+03 5.62425E+03-3.09228E-10-1.48545E-09
 -1       375 6.00663E+03-8.42293E+04-1.33155E+04-1.53957E+03-2.33558E-09-4.69221E-10
 -1       406 4.37992E+02 2.71651E+05 1.02091E+03-1.46318E+04-1.32877E-09 4.88581E-09
 -1       407 3.31856E+02 2.71840E+05 1.38611E+03-1.59333E+04-7.90976E-10 6.43922E-09
 -1       408 6.14632E+02 2.71598E+05 2.40384E+03-1.45330E+04-1.64459E-09-5.33873E-10
 -1       409 2.46817E+03 2.72534E+05 5.23466E+03-1.60987E+04-1.23146E-09-1.94882E-09
 -1       410 7.08584E+03 2.70935E+05 1.05991E+04-1.44617E+04-1.96087E-09 2.79215E-09
 -1       501-2.50219E+05-4.51194E+04 9.71071E+04-4.88464E+03 4.64771E-09 6.53381E-09
 -1       502-1.69833E+05 5.08934E+04 7.51386E+04 1.29538E+04 4.85535E-09 8.20819E-09
 -1       503-2.20609E+05-5.67729E+03 2.54216E+04-6.00458E+03 3.79714E-09 6.52835E-09
 -1       504-1.70637E+05 8.76331E+03 2.40779E+04 8.15754E+03-1.03000E-09 4.30850E-09
 -1       505-2.49286E+05-3.15438E+03-4.60300E+02-8.78475E+01 2.82682E-09-7.36236E-10
 -1       506-1.66926E+05 2.62512E+03 1.30800E+04-4.64063E+03 1.98524E-08-7.49424E-09
 -1       507-2.24267E+05 4.04895E+02-2.71887E+02 6.79093E+03 1.42464E-08-1.23056E-08
 -1       508-1.95028E+05-1.14044E+03 4.28404E+03-1.18016E+04 6.78052E-09-1.76434E-08
 -1       509-2.21401E+05 8.27095E+02-7.49629E+02 7.07607E+03 1.74759E-08-1.48145E-08
 -1       510-1.69833E+05 1.36876E+03 9.50345E+03-5.55615E+03 1.45199E-08-1.16865E-08
 -1       511-2.49263E+05-2.30244E+03-6.06703E+03 5.42576E+02-6.52619E-09-1.63624E-09
 -1       512-1.71220E+05 2.32915E+03 1.08904E+04 7.36025E+03-1.02416E-08 2.97686E-09
 -1       513-2.20030E+05-1.17383E+02 2.98111E+03-5.83785E+03-3.81232E-09 1.09217E-08
 -1       514-1.90333E+05 8.10444E+03 1.48154E+04 1.29982E+04-4.37700E-09 1.15853E-08
 -1       515-2.30329E+05-7.89617E+03 1.26522E+04-5.09590E+03-6.68791E-09 6.62112E-09
 -1       521-3.26953E+06-4.16465E+05-2.10723E+05-1.25813E+06-2.17187E-09-2.25555E-09
 -1       522-3.33803E+06-5.66109E+05-1.33899E+05-1.26502E+06-1.09139E-11-2.34286E-09
 -1       523-3.30748E+06-4.65682E+05-4.96941E+04-1.25086E+06 5.84350E-11 8.73115E-10
 -1       524-3.29391E+06-5.03617E+05-2.75119E+04-1.27674E+06-7.51925E-10-1.91721E-09
 -1       525-3.31246E+06-4.70545E+05-1.15646E+04-1.24958E+06 1.71644E-09 3.38787E-09
 -1       526-3.28815E+06-4.97486E+05-6.18431E+03-1.27859E+06 3.10837E-09 2.52965E-09
 -1       527-3.31318E+06-4.70972E+05-3.19305E+03-1.24934E+06 1.87970E-09-2.07381E-09
 -1       528-3.28771E+06-4.96694E+05-2.59940E+03-1.27850E+06 4.63206E-09 1.34719E-10
 -1       529-3.31287E+06-4.71290E+05-3.21075E+03-1.24968E+06 1.12777E-09-3.29828E-09
 -1       530-3.28922E+06-4.96329E+05-6.20638E+03-1.27716E+06 1.39335E-09 1.28193E-09
 -1       531-3.31155E+06-4.71474E+05-1.16401E+04-1.25058E+06 1.55069E-10 2.63935E-09
 -1       532-3.29605E+06-5.01388E+05-2.76344E+04-1.27395E+06-2.95586E-12 1.20963E-09
 -1       533-3.30599E+06-4.67145E+05-4.99603E+04-1.25247E+06-1.95502E-09 1.04046E-09
 -1       534-3.34137E+06-5.63149E+05-1.34523E+05-1.26099E+06-5.92991E-09 2.96495E-10
 -1       535-3.26738E+06-4.18189E+05-2.11756E+05-1.26031E+06-3.38332E-09 2.66300E-09
 -1       536 3.80533E+04-1.08923E+04 3.93575E+04-5.21205E+03 1.02136E-09-1.98270E-09
 -1       537 5.32380E+04 1.35766E+04 2.57753E+04-2.99531E+04-2.97950E-09-2.02817E-09
 -1       538 4.41297E+04-1.27971E+03 1.01940E+04-5.15090E+03-5.09317E-10-4.63251E-09
 -1       539 4.61982E+04 1.42775E+03 5.82596E+03-3.00018E+04 1.63891E-09 2.43153E-09
 -1       540 4.48617E+04-1.75232E+02 2.56741E+03-5.16010E+03 8.87212E-10-2.52157E-10
 -1       541 4.52069E+04 1.45062E+02 1.38095E+03-2.99787E+04 1.12550E-10 2.07592E-09
 -1       542 4.49522E+04-2.77771E+01 6.29342E+02-5.17429E+03-8.31733E-10 5.35124E-10
 -1       543 4.49972E+04 3.34635E+01 3.13835E+02-2.99565E+04 1.68257E-11 1.56433E-10
 -1       544 4.49631E+04 2.37108E+00 1.12848E+02-5.18230E+03-9.54969E-11 1.50550E-09
 -1       545 4.49294E+04 2.25302E+01-1.91233E+01-2.99468E+04-2.26834E-10-1.65170E-09
 -1       546 4.49722E+04 1.65443E+01-1.52357E+02-5.18404E+03 3.59535E-10-2.21206E-09
 -1       547 4.48730E+04-8.23211E+01-4.12602E+02-2.99456E+04-7.56529E-10-6.06633E-10
 -1       548 4.50318E+04 8.80005E+01-7.58504E+02-5.18350E+03-8.29687E-10-1.61833E-09
 -1       549 4.44237E+04-1.01433E+03-1.91642E+03-2.99098E+04-7.74207E-10 1.30865E-09
 -1       550 4.54939E+04 7.79543E+02-2.96139E+03-5.21982E+03-2.47383E-10-6.48129E-10
 -1       551 6.97832E+03-2.57688E+05 1.81228E+04-4.11606E+05-4.90763E-09 7.27596E-10
 -1       552 5.61698E+03-2.55121E+05 1.93649E+04-5.08177E+05-5.76620E-09 6.58474E-09
 -1       553 4.07883E+03-2.58402E+05 2.84713E+04-4.10782E+05-6.02813E-09 3.47654E-09
 -1       554 1.80384E+04-2.45910E+05 5.85152E+04-5.08289E+05-6.51926E-09 3.15322E-09
 -1       555 4.26971E+04-2.67594E+05 1.10849E+05-4.11371E+05-5.08589E-09-2.78487E-09
 -1       556-7.29009E+04-8.48555E+04 2.13641E+04-1.35995E+05 2.72848E-10-4.28918E-09
 -1       557-5.11775E+04-1.05493E+05 1.08346E+04-1.53277E+05 1.02918E-08 5.55701E-10
 -1       558-7.29023E+04-8.98074E+04 4.51840E+03-1.32614E+05 2.67028E-09-8.16362E-09
 -1       559-5.36097E+04-1.08620E+05 2.24249E+03-1.54263E+05 1.05501E-09 2.08456E-09
 -1       560-7.32380E+04-8.96559E+04 9.85208E+02-1.32729E+05 1.28421E-09 2.31557E-09
 -1       561-5.41853E+04-1.08571E+05 4.86344E+02-1.54649E+05-7.42148E-10-4.91491E-09
 -1       562-7.35194E+04-8.94585E+04 1.90984E+02-1.32926E+05 1.41881E-09 5.02268E-10
 -1       563-5.44966E+04-1.08439E+05 6.02778E+01-1.54860E+05-1.10504E-09 2.04841E-09
 -1       564-7.36865E+04-8.93453E+04-6.83423E+01-1.33044E+05 4.03088E-09 1.16502E-08
 -1       565-5.46565E+04-1.08375E+05-2.28373E+02-1.54960E+05-1.69985E-09-2.20189E-09
 -1       566-7.37223E+04-8.93034E+04-5.21520E+02-1.33079E+05 5.15342E-09 9.24592E-09
 -1       567-5.47513E+04-1.08410E+05-1.16526E+03-1.54943E+05 3.06682E-09 9.18590E-10
 -1       568-7.35683E+04-8.94410E+04-2.40277E+03-1.32994E+05 7.73070E-11-6.18456E-10
 -1       569-5.61447E+04-1.09604E+05-5.66494E+03-1.54425E+05 3.81715E-09 1.00226E-08
 -1       570-7.25329E+04-9.28458E+04-1.12632E+04-1.31617E+05 1.34605E-09-1.30967E-09
 -1       571 1.87853E+05 7.96354E+03 1.19366E+04-4.65651E+04 2.87855E-10-3.88081E-09
 -1       572 1.89647E+05 2.74958E+03 5.85301E+03-5.11466E+04 1.34833E-10-2.56887E-09
 -1       573 1.88576E+05 6.40017E+02 2.60151E+03-4.64445E+04-2.70575E-10-1.12959E-09
 -1       574 1.88790E+05 2.02834E+02 1.30441E+03-5.12801E+04 7.52607E-11 3.86535E-10
 -1       575 1.88657E+05 2.18699E+01 6.15761E+02-4.64288E+04 7.13953E-11 1.06820E-09
 -1       576 1.88675E+05 1.73873E+00 3.14210E+02-5.12977E+04 5.91740E-10 5.60249E-10
 -1       577 1.88670E+05-9.94702E+00 1.56235E+02-4.64267E+04 1.24942E-10 1.28648E-09
 -1       578 1.88665E+05-8.18335E+00 8.79157E+01-5.12999E+04 1.13005E-10 1.05183E-09
 -1       579 1.88683E+05-1.21851E+01 5.88290E+01-4.64267E+04-6.63931E-10-7.92625E-10
 -1       580 1.88682E+05-1.42948E+01 6.32452E+01-5.12972E+04-3.27418E-11-2.68301E-11
 -1       581 1.88704E+05-1.84340E+01 9.51531E+01-4.64294E+04-5.97538E-10 1.53614E-09
 -1       582 1.88728E+05-1.13709E+00 1.87755E+02-5.12691E+04 1.30967E-10-1.09867E-09
 -1       583 1.88724E+05 5.04025E+01 3.64979E+02-4.64548E+04 2.81943E-10 2.78078E-09
 -1       584 1.88888E+05 3.36191E+02 8.19212E+02-5.10552E+04-1.09003E-09 5.90603E-10
 -1       585 1.88659E+05 1.05821E+03 1.66535E+03-4.66441E+04 3.48336E-10 5.91172E-10
 -1       586 4.27779E+02 8.24879E+04 1.08897E+03-1.17605E+05-1.86446E-11-2.79124E-09
 -1       587 3.96826E+02 8.26821E+04 1.70146E+03-1.31146E+05-1.50249E-09-1.25692E-09
 -1       588 7.09247E+02 8.23713E+04 3.09485E+03-1.17455E+05-3.09228E-11-1.18598E-09
 -1       589 2.96651E+03 8.36518E+04 6.80813E+03-1.31168E+05-1.42882E-09 1.99043E-09
 -1       590 8.61759E+03 8.14937E+04 1.37385E+04-1.17581E+05 4.27463E-11-2.41016E-11
 -1       591-8.67366E+04-2.57240E+04-1.78623E+04-4.15968E+04-3.04453E-10-2.79033E-09
 -1       592-8.79682E+04-2.50885E+04-9.01085E+03-4.63465E+04-2.33058E-10-1.22793E-09
 -1       593-8.76771E+04-2.08644E+04-3.82406E+03-4.40567E+04 4.07681E-10-2.28579E-09
 -1       594-8.59210E+04-2.28677E+04-1.87948E+03-4.65011E+04 8.51060E-10-1.28036E-09
 -1       595-8.77768E+04-2.07408E+04-8.67492E+02-4.41487E+04 6.29143E-10-9.38542E-10
 -1       596-8.57823E+04-2.27904E+04-4.38476E+02-4.64801E+04 8.64247E-10-3.37343E-09
 -1       597-8.77932E+04-2.07561E+04-2.35852E+02-4.41487E+04 2.99552E-09-3.37866E-09
 -1       598-8.57677E+04-2.27911E+04-1.83244E+02-4.64737E+04-2.28084E-10-1.37206E-08
 -1       599-8.77921E+04-2.07572E+04-2.26004E+02-4.41480E+04 3.53793E-10-7.03335E-09
 -1       600-8.57791E+04-2.27917E+04-4.12573E+02-4.64773E+04 7.39874E-10 4.54747E-13
 -1       601-8.77739E+04-2.07444E+04-8.11641E+02-4.41465E+04-4.32010E-11-2.44700E-09
 -1       602-8.59081E+04-2.28631E+04-1.75648E+03-4.64925E+04 4.25757E-10-2.03363E-09
 -1       603-8.76772E+04-2.08636E+04-3.57256E+03-4.40613E+04-2.61025E-09-6.82348E-09
 -1       604-8.78396E+04-2.49157E+04-8.41672E+03-4.63202E+04-7.05541E-10 1.00135E-09
 -1       605-8.67748E+04-2.54222E+04-1.66840E+04-4.17850E+04 1.47793E-11-6.47105E-10
 -1       606 6.26042E+04-7.37437E+03-1.18592E+04 1.95360E+04-4.22460E-09-1.44973E-09
 -1       607 6.07009E+04-2.45795E+03-5.84704E+03 2.15078E+04-1.31831E-09 4.08363E-10
 -1       608 6.18038E+04-5.02727E+02-2.60693E+03 1.93980E+04 2.47837E-09-8.12861E-11
 -1       609 6.15628E+04-1.38893E+02-1.31020E+03 2.16598E+04-1.32059E-09-9.16543E-10
 -1       610 6.17004E+04 8.56658E+00-6.20638E+02 1.93811E+04-3.84898E-09 2.42221E-09
 -1       611 6.16529E+04 2.57376E+01-3.12232E+02 2.16782E+04-6.72298E-09 2.09161E-09
 -1       612 6.16763E+04 3.05859E+01-1.47660E+02 1.93793E+04-1.04474E-08 1.75805E-09
 -1       613 6.16578E+04 3.24674E+01-6.57027E+01 2.16804E+04-2.40459E-08 5.04042E-09
 -1       614 6.16649E+04 2.88115E+01-1.43807E+01 1.93788E+04-1.18416E-08-9.10404E-10
 -1       615 6.16547E+04 3.41303E+01 3.01958E+01 2.16806E+04 3.84080E-09-1.24851E-09
 -1       616 6.16559E+04 3.27470E+01 8.81680E+01 1.93791E+04-3.34057E-09 6.64841E-10
 -1       617 6.16658E+04 6.10646E+01 2.01606E+02 2.16798E+04 1.86446E-10 5.18503E-09
 -1       618 6.16374E+04 1.13877E+02 4.07956E+02 1.93795E+04 4.81805E-10 2.42812E-09
 -1       619 6.18008E+04 4.26552E+02 9.19443E+02 2.16760E+04 6.50289E-10-4.85716E-09
 -1       620 6.15114E+04 1.19601E+03 1.86639E+03 1.93815E+04 9.91577E-10-7.55108E-10
 -1       621 6.47959E+02 1.90319E+05 2.32972E+03-1.35436E+04-1.37447E-10-2.15232E-09
 -1       622 2.91728E+02 1.90795E+05 2.34455E+03-1.67683E+04 3.71870E-10 1.10856E-09
 -1       623 1.50090E+02 1.90393E+05 3.33959E+03-1.35495E+04-1.17325E-10 5.75028E-10
 -1       624 1.68277E+03 1.91877E+05 6.78780E+03-1.67084E+04 3.87217E-10-8.12179E-10
 -1       625 4.66653E+03 1.89247E+05 1.28460E+04-1.36021E+04-1.63709E-11 7.88305E-10
 -1       626 1.13315E+05 3.63957E+04-2.23832E+03 7.18428E+04-1.02773E-09-3.14412E-09
 -1       627 1.10844E+05 3.93688E+04-1.06429E+03 7.39299E+04 1.41517E-09 9.69067E-10
 -1       628 1.13407E+05 3.74066E+04-4.47516E+02 7.12357E+04 9.50422E-10 7.05086E-10
 -1       629 1.10931E+05 3.98862E+04-2.13182E+02 7.39696E+04-1.60935E-09-9.43209E-09
 -1       630 1.13400E+05 3.74741E+04-9.17489E+01 7.11808E+04 4.13002E-09 5.02280E-09
 -1       631 1.10925E+05 3.99277E+04-3.51838E+01 7.39730E+04-1.77488E-09 1.33417E-09
 -1       632 1.13389E+05 3.74779E+04 3.54628E+00 7.11724E+04 3.79623E-09 1.11916E-08
 -1       633 1.10920E+05 3.99315E+04 4.35671E+01 7.39715E+04-6.29598E-10 1.08105E-09
 -1       634 1.13380E+05 3.74744E+04 1.05961E+02 7.11699E+04 1.39607E-10 1.12800E-09
 -1       635 1.10930E+05 3.99339E+04 2.37687E+02 7.39733E+04-6.87805E-10 2.10321E-10
 -1       636 1.13369E+05 3.74820E+04 4.91898E+02 7.11633E+04-8.85177E-09-7.57223E-09
 -1       637 1.11044E+05 4.00541E+04 1.09555E+03 7.39569E+04-2.71120E-09 8.91305E-10
 -1       638 1.13340E+05 3.78482E+04 2.26677E+03 7.10023E+04-8.31551E-09 1.25965E-09
 -1       639 1.12203E+05 4.19993E+04 5.38789E+03 7.34916E+04-9.50831E-09 1.05974E-08
 -1       640 1.13354E+05 4.35205E+04 1.13283E+04 6.86365E+04-9.57084E-09-5.13137E-09
 -1       641-1.53405E+04 2.32131E+03-5.35127E+03-2.13724E+01 1.46191E-05-1.59755E-08
 -1       642-1.76626E+04-2.68668E+03-3.78669E+03 1.01009E+01 2.92109E-05-2.90886E-08
 -1       643-1.62354E+04 3.64841E+02-1.38004E+03-2.36626E+01 2.68947E-05-3.12076E-08
 -1       644-1.66194E+04-4.21328E+02-8.60223E+02 1.41755E+01 2.45638E-05-2.40790E-08
 -1       645-1.63837E+04 5.63949E+01-3.33231E+02-2.54476E+01 1.61695E-05-1.72338E-08
 -1       646-1.64434E+04-6.05317E+01-1.63450E+02 1.64637E+01 7.76481E-06-1.08191E-08
 -1       647-1.64113E+04 4.10866E+00-1.12631E+01-2.59509E+01-3.94536E-06 5.59616E-09
 -1       648-1.63960E+04 2.54669E+01 1.21990E+02 1.60305E+01-1.56626E-05 1.76811E-08
 -1       649-1.64311E+04-2.95931E+01 2.87438E+02-2.50144E+01-2.89063E-05 3.32749E-08
 -1       650-1.62878E+04 2.28457E+02 7.02197E+02 1.27396E+01-4.21461E-05 4.05850E-08
 -1       651-1.65196E+04-1.98854E+02 1.22262E+03-2.26600E+01-5.42176E-05 6.32336E-08
 -1       652-1.56824E+04 1.47059E+03 3.02983E+03 6.55975E+00-6.62803E-05 6.21562E-08
 -1       653-1.70364E+04-1.27150E+03 4.82232E+03-1.88346E+01-7.01147E-05 7.06600E-08
 -1       654-1.20458E+04 9.36047E+03 1.32010E+04-3.80164E+00-7.39104E-05 6.29832E-08
 -1       655-2.01555E+04-8.08716E+03 1.86457E+04-1.22989E+01-3.69860E-05 2.57978E-08
 -1       656 7.15706E+03-2.68220E+05-3.04086E+04 7.24251E+03-6.29370E-10-1.27193E-09
 -1       657-1.04081E+04-2.79477E+05-2.25571E+04 3.10217E+04 2.02817E-10-5.33419E-10
 -1       658 1.47689E+03-2.72127E+05-1.46805E+04 7.18059E+03-1.28725E-09 6.32213E-10
 -1       659-1.02484E+04-2.79406E+05-2.22917E+04 3.10595E+04-6.03904E-10 1.34222E-11
 -1       660 7.03965E+03-2.68314E+05-2.99043E+04 7.20514E+03 7.05768E-10-1.98702E-09
 -1       661 1.66524E+05 2.31055E+04 1.32176E+04 6.53207E+04 4.39229E-09-4.01997E-10
 -1       662 1.69360E+05 3.07912E+04 7.95970E+03 6.72719E+04-9.99741E-10-3.78088E-09
 -1       663 1.68554E+05 2.50755E+04 3.10226E+03 6.53315E+04-8.84398E-10 1.03398E-09
 -1       664 1.66986E+05 2.75990E+04 1.63712E+03 6.76448E+04 6.42416E-09-7.06453E-09
 -1       665 1.68749E+05 2.52551E+04 7.24505E+02 6.53392E+04 6.16075E-09-1.89092E-09
 -1       666 1.66759E+05 2.73335E+04 3.85615E+02 6.76609E+04 5.52569E-09-3.58938E-09
 -1       667 1.68770E+05 2.52729E+04 2.24549E+02 6.53409E+04 3.03410E-09-2.45302E-09
 -1       668 1.66739E+05 2.73155E+04 2.15708E+02 6.76620E+04 3.54703E-10-5.03742E-09
 -1       669 1.68769E+05 2.52699E+04 3.14809E+02 6.53396E+04-3.04237E-09 5.64899E-09
 -1       670 1.66779E+05 2.73546E+04 6.29722E+02 6.76681E+04 1.48646E-10 8.98439E-10
 -1       671 1.68733E+05 2.52363E+04 1.23243E+03 6.53346E+04-2.44029E-10-1.67915E-09
 -1       672 1.67169E+05 2.78160E+04 2.81461E+03 6.76457E+04 7.42506E-09-3.50383E-09
 -1       673 1.68398E+05 2.49244E+04 5.34405E+03 6.53196E+04 4.92372E-09-1.82968E-09
 -1       674 1.71261E+05 3.33225E+04 1.37213E+04 6.70067E+04 1.11083E-08 2.63185E-09
 -1       675 1.64898E+05 2.15266E+04 2.27863E+04 6.52998E+04 6.29348E-09-1.59162E-10
 -1       676 2.80077E+02-2.39595E+05-1.93347E+03-2.85462E+02-2.35896E-09-2.72190E-09
 -1       677-8.04440E+02-2.40356E+05-2.90378E+03-1.47944E+03-5.32833E-09-1.69878E-09
 -1       678 3.72513E+02-2.39495E+05-4.40022E+03-2.86735E+02-1.30058E-10 1.82776E-09
 -1       679-4.91469E+03-2.42848E+05-1.03797E+04-1.47361E+03-5.89807E-09-1.47907E-09
 -1       680 3.48313E+03-2.37104E+05-1.61706E+04-2.91917E+02-4.01906E-09-2.77652E-10
 -1       716-2.12993E-01-1.01547E-01 9.53051E+00-2.90383E-04 4.46024E-09-1.60862E-09
 -1       717 1.04887E+00 7.64908E-01 1.67850E+01 7.39504E-04 5.14988E-09 1.07552E-09
 -1       718-8.35899E-01-6.63642E-01 3.11484E+01-4.49060E-04 4.28702E-09-1.59389E-09
 -1       719 4.95270E+00 5.21023E+00 6.46075E+01-6.70854E-04 1.59745E-09-4.36065E-10
 -1       720-4.11687E+00-4.54714E+00 1.23224E+02 1.12060E-03-1.21810E-09-1.52218E-09
 -1       721 2.56334E+01 3.47159E+01 2.63352E+02-2.36589E-02-2.83667E-09-1.02426E-09
 -1       722-2.15166E+01-3.01682E+01 4.92907E+02 2.25360E-02-1.66621E-09-1.16358E-09
 -1       723 1.39366E+02 2.26524E+02 1.08570E+03-2.27032E-01 1.29231E-09-2.53152E-10
 -1       724-1.17847E+02-1.96333E+02 1.96603E+03 2.04444E-01-2.68940E-09-1.86378E-09
 -1       725 7.89403E+02 1.45968E+03 4.53110E+03-1.74597E+00-3.72315E-09-3.46972E-10
 -1       726-6.71483E+02-1.26312E+03 7.79579E+03 1.54111E+00-2.77527E-09-8.59927E-10
 -1       727 4.61913E+03 9.33405E+03 1.92453E+04-1.22816E+01-4.42678E-09-1.32945E-09
 -1       728-3.94631E+03-8.06906E+03 3.06183E+04 1.07391E+01-1.60792E-09-1.71894E-09
 -1       729 2.76912E+04 5.94039E+04 8.37832E+04-8.26066E+01 6.01371E-10-2.41926E-10
 -1       730-2.37224E+04-5.13181E+04 1.18391E+05 7.18823E+01 6.55149E-09-1.81899E-09
 -1       766-5.13294E+04-2.37579E+04 1.18368E+05-6.53809E+01-2.47383E-10-1.46770E-10
 -1       767 5.94894E+04 2.77515E+04 8.37780E+04 3.34905E+01 3.67982E-09-1.37225E-09
 -1       768-8.14343E+03-4.01304E+03 3.05173E+04 3.40339E+00-2.63753E-10 1.13872E-10
 -1       769 9.87804E+03 4.87838E+03 1.92537E+04-4.44131E+01 2.98564E-09 2.82910E-09
 -1       770-1.73258E+03-9.05748E+02 7.35237E+03 1.25363E+01-1.16415E-10 1.33787E-09
 -1       771-1.49026E+06-2.85228E+05-4.14803E+04-6.37663E+05-2.59388E-09-1.52795E-10
 -1       772-1.48390E+06-2.92546E+05-2.08783E+04-6.58809E+05 6.16637E-10 9.55606E-09
 -1       773-1.49321E+06-2.73360E+05-8.92160E+03-6.43039E+05-1.33150E-09-6.46105E-09
 -1       774-1.47902E+06-2.87833E+05-4.36249E+03-6.60112E+05 1.13505E-09-1.03000E-09
 -1       775-1.49382E+06-2.72800E+05-2.04868E+03-6.43351E+05-3.60160E-09-3.65617E-09
 -1       776-1.47891E+06-2.87643E+05-1.02242E+03-6.60446E+05-1.61708E-09 1.50294E-09
 -1       777-1.49415E+06-2.72651E+05-5.67786E+02-6.43459E+05 6.58474E-10-4.57021E-10
 -1       778-1.47905E+06-2.87604E+05-4.24558E+02-6.60686E+05 5.38421E-10 6.95053E-10
 -1       779-1.49434E+06-2.72526E+05-5.32292E+02-6.43536E+05-3.47427E-10 5.15001E-10
 -1       780-1.47920E+06-2.87581E+05-9.56464E+02-6.60857E+05-1.12050E-09-1.44246E-09
 -1       781-1.49441E+06-2.72424E+05-1.88946E+03-6.43576E+05-2.82853E-10-1.46429E-10
 -1       782-1.47955E+06-2.87735E+05-4.09153E+03-6.60960E+05 1.92108E-09 1.63709E-09
 -1       783-1.49420E+06-2.72689E+05-8.33293E+03-6.43390E+05-3.25304E-09-7.61793E-09
 -1       784-1.48409E+06-2.92500E+05-1.96517E+04-6.60497E+05-1.05888E-09-1.04865E-09
 -1       785-1.49201E+06-2.83400E+05-3.89720E+04-6.38101E+05 5.56611E-10 4.72937E-10
 -1       786 1.50164E+05-4.95762E+03 1.81731E+04-6.96969E+02-4.70891E-10 5.48425E-10
 -1       787 1.56970E+05 6.31510E+03 1.18720E+04-4.09665E+03 8.86274E-10 7.77845E-10
 -1       788 1.52972E+05-5.54544E+02 4.71885E+03-6.95782E+02-1.42450E-10-1.21736E-09
 -1       789 1.53816E+05 6.89231E+02 2.68441E+03-4.09403E+03 3.42482E-11-1.11976E-09
 -1       790 1.53316E+05-6.33248E+01 1.20193E+03-6.99421E+02 1.36055E-10-2.88929E-09
 -1       791 1.53425E+05 7.46683E+01 6.52932E+02-4.08902E+03-4.69505E-10 3.65219E-10
 -1       792 1.53363E+05-7.93104E+00 3.31838E+02-7.00787E+02 5.37442E-10 4.26098E-10
 -1       793 1.53374E+05 1.10801E+01 2.23103E+02-4.08890E+03-1.29141E-10 3.32482E-09
 -1       794 1.53367E+05-4.38761E+00 2.06558E+02-6.99542E+02-3.78975E-10 1.15138E-09
 -1       795 1.53390E+05 3.31264E+01 3.19226E+02-4.09418E+03 7.47917E-11-9.76215E-10
 -1       796 1.53348E+05-2.84734E+01 5.45909E+02-6.95513E+02-2.69426E-09-1.01801E-09
 -1       797 1.53563E+05 3.03611E+02 1.19399E+03-4.10377E+03-5.77552E-09-3.17033E-09
 -1       798 1.53196E+05-2.45862E+02 2.08870E+03-6.89954E+02-2.56478E-09 1.76556E-10
 -1       799 1.54959E+05 2.78921E+03 5.24854E+03-4.10850E+03-1.36106E-09-7.59428E-10
 -1       800 1.51955E+05-2.19236E+03 8.03094E+03-6.90888E+02-2.94335E-10-1.45019E-09
 -1       801-9.88478E+03 2.05065E+05 2.71915E+04-1.55260E+05 8.31824E-09-6.66478E-09
 -1       802 2.44358E+04 2.13808E+05 3.59757E+04-8.90142E+05 2.42035E-08-1.05683E-09
 -1       803-2.35644E+03 2.04301E+05 4.28430E+04-1.54923E+05 1.53632E-08 7.72798E-09
 -1       804 6.14129E+04 2.35100E+05 9.73409E+04-8.90072E+05 2.47092E-08 9.04311E-09
 -1       805-4.23927E+04 1.84328E+05 1.40906E+05-1.55343E+05 7.55972E-09 9.29867E-09
 -1       806-1.29964E+05-3.96544E+04-1.17872E+04-6.62105E+04 9.28361E-09-2.22735E-09
 -1       807-1.29566E+05-3.72706E+04-5.60544E+03-7.03579E+04 2.08665E-08-1.37391E-09
 -1       808-1.29948E+05-3.37600E+04-2.35901E+03-6.86921E+04 8.65202E-09-5.41365E-09
 -1       809-1.28385E+05-3.52271E+04-1.14060E+03-7.08309E+04-9.37007E-10-7.41443E-09
 -1       810-1.29982E+05-3.33768E+04-5.14901E+02-6.88645E+04 6.45741E-09 1.21880E-08
 -1       811-1.28272E+05-3.50992E+04-2.54259E+02-7.08484E+04 1.82115E-09 1.00954E-09
 -1       812-1.29992E+05-3.33687E+04-1.25332E+02-6.88714E+04 2.25954E-09 7.06746E-09
 -1       813-1.28259E+05-3.50975E+04-7.78005E+01-7.08442E+04-4.21983E-09-6.49197E-09
 -1       814-1.29992E+05-3.33728E+04-7.06902E+01-6.88695E+04-6.67342E-10-8.44693E-10
 -1       815-1.28260E+05-3.51010E+04-1.09191E+02-7.08412E+04 5.62522E-10 4.24052E-10
 -1       816-1.29983E+05-3.33798E+04-2.03698E+02-6.88646E+04-1.43382E-09-1.45064E-09
 -1       817-1.28305E+05-3.51462E+04-4.42730E+02-7.08229E+04 2.69210E-10-3.81988E-10
 -1       818-1.29959E+05-3.35373E+04-9.11901E+02-6.88016E+04-7.43967E-10-2.21098E-09
 -1       819-1.28811E+05-3.58805E+04-2.16380E+03-7.05713E+04 1.88265E-10-5.95037E-10
 -1       820-1.29907E+05-3.58625E+04-4.54895E+03-6.78977E+04 4.40650E-10 2.82193E-09
 -1       821-1.78714E+05 6.14729E+03-2.25419E+04 8.24531E+02-1.64709E-09 5.82077E-10
 -1       822-1.87148E+05-7.83273E+03-1.47260E+04 5.04731E+03-1.46014E-09 2.07001E-09
 -1       823-1.82197E+05 6.86530E+02-5.85592E+03 7.91809E+02 1.85457E-09 3.86535E-11
 -1       824-1.83243E+05-8.50607E+02-3.33386E+03 5.09378E+03-4.32578E-11-5.08180E-10
 -1       825-1.82624E+05 7.86209E+01-1.50124E+03 7.77793E+02-3.91242E-09 1.24032E-09
 -1       826-1.82764E+05-8.64998E+01-8.30569E+02 5.11669E+03-6.59523E-09-2.48747E-10
 -1       827-1.82681E+05 1.12436E+01-4.53118E+02 7.68836E+02-4.11967E-09 1.30899E-09
 -1       828-1.82709E+05-1.05526E+01-3.62823E+02 5.13067E+03-2.74247E-09-2.69975E-09
 -1       829-1.82682E+05 1.07764E+01-4.22978E+02 7.63809E+02-1.06644E-09-1.88070E-09
 -1       830-1.82759E+05-7.52362E+01-7.50889E+02 5.13624E+03 3.21987E-09 3.19945E-09
 -1       831-1.82632E+05 7.14194E+01-1.34378E+03 7.63268E+02-1.37538E-09-1.24243E-09
 -1       832-1.83189E+05-7.55709E+02-2.97756E+03 5.13281E+03 6.77574E-11 2.74952E-10
 -1       833-1.82251E+05 6.14543E+02-5.22575E+03 7.67302E+02-5.84123E-10-2.65095E-09
 -1       834-1.86677E+05-6.98520E+03-1.31415E+04 5.11378E+03 8.51060E-10-1.89561E-09
 -1       835-1.79143E+05 5.48814E+03-2.01140E+04 7.82815E+02 1.53818E-10-4.28645E-09
 -1       836-2.01072E+03 2.84251E+05 2.27006E+04-1.62705E+04-2.74304E-09 9.25411E-10
 -1       837 5.32446E+03 2.91500E+05 1.74433E+04-3.52674E+04-2.37645E-09 3.45176E-09
 -1       838-4.94680E+02 2.86649E+05 1.48525E+04-1.62253E+04-3.14662E-09 4.14960E-09
 -1       839 8.92994E+03 2.94091E+05 2.55839E+04-3.52686E+04-2.37014E-09-1.16938E-09
 -1       840-3.62959E+03 2.81657E+05 3.90822E+04-1.62687E+04-2.70848E-09 1.20167E-09
 -1       841 5.07995E+04 7.37819E+03-6.12639E+02 1.89374E+04-1.73444E-05 6.50696E-06
 -1       842 5.03932E+04 6.90759E+03-4.22142E+02 1.91507E+04-3.46689E-05 1.30254E-05
 -1       843 5.06615E+04 7.17596E+03-1.41255E+02 1.90002E+04-2.72000E-05 1.02163E-05
 -1       844 5.05593E+04 7.13637E+03-8.37990E+01 1.90712E+04-1.97002E-05 7.40579E-06
 -1       845 5.06334E+04 7.14946E+03-2.25167E+01 1.90168E+04-1.37942E-05 5.17993E-06
 -1       846 5.05972E+04 7.16771E+03 5.59336E+00 1.90482E+04-7.88977E-06 2.96901E-06
 -1       847 5.06236E+04 7.14463E+03 3.94466E+01 1.90232E+04-4.84235E-06 1.81647E-06
 -1       848 5.06238E+04 7.19523E+03 1.08699E+02 1.90367E+04-1.79400E-06 6.76760E-07
 -1       849 5.06068E+04 7.12193E+03 2.04067E+02 1.90283E+04-4.96385E-07 1.83409E-07
 -1       850 5.07295E+04 7.36658E+03 5.17884E+02 1.90078E+04 7.99347E-07-2.99526E-07
 -1       851 5.05179E+04 6.97331E+03 8.94899E+02 1.90521E+04 8.72779E-07-3.28566E-07
 -1       852 5.13628E+04 8.45608E+03 2.41676E+03 1.88177E+04 9.46334E-07-3.56020E-07
 -1       853 4.99734E+04 6.03258E+03 3.86497E+03 1.92183E+04-1.85061E-07 7.52866E-08
 -1       854 5.52710E+04 1.53529E+04 1.14607E+04 1.75346E+04-1.31914E-06 4.94202E-07
 -1       855 4.66099E+04 7.76236E+01 1.64962E+04 2.03348E+04-6.57519E-07 2.48134E-07
 -1       856-1.42153E+05 2.14948E+03-1.71193E+04 5.15208E+03-3.91492E-09-2.95768E-09
 -1       857-1.47748E+05-4.13395E+03-1.04560E+04 1.23369E+04-4.13365E-09-3.31511E-10
 -1       858-1.44571E+05 1.98437E+02-4.39542E+03 5.09688E+03-5.73618E-09-5.80712E-10
 -1       859-1.45122E+05-2.90144E+02-2.36507E+03 1.23992E+04-5.28928E-09-2.81926E-09
 -1       860-1.44801E+05 3.11216E+01-1.10965E+03 5.08866E+03-1.91858E-09 6.49152E-11
 -1       861-1.44877E+05 3.70052E+00-5.83552E+02 1.24099E+04-4.96431E-09-8.64702E-10
 -1       862-1.44830E+05 1.49517E+01-3.04375E+02 5.08601E+03 4.71181E-09-8.71239E-10
 -1       863-1.44850E+05 2.57735E+01-2.01042E+02 1.24128E+04 1.33253E-08 4.35193E-10
 -1       864-1.44833E+05 1.35858E+01-1.88663E+02 5.08575E+03 4.25678E-09-3.10928E-09
 -1       865-1.44857E+05 1.68510E+01-2.84115E+02 1.24105E+04 7.33559E-09 6.19366E-10
 -1       866-1.44820E+05 1.94460E+01-5.01162E+02 5.08839E+03 1.79500E-09-2.70899E-09
 -1       867-1.44960E+05-1.13831E+02-1.04552E+03 1.24011E+04 1.20963E-10 1.95553E-09
 -1       868-1.44717E+05 9.09662E+01-1.93449E+03 5.09522E+03 6.08429E-09-1.10452E-09
 -1       869-1.46106E+05-1.80469E+03-4.59368E+03 1.23420E+04 2.29159E-09-5.13893E-10
 -1       870-1.43653E+05 9.44737E+02-7.52131E+03 5.14799E+03 6.98174E-09-2.65209E-09
 -1       871-2.56026E+03-2.27711E+04-5.82994E+03 7.81484E+04 1.23146E-09 5.35420E-09
 -1       872-8.89724E+02-2.39386E+04-1.93429E+03 9.53079E+04-1.35969E-09 1.09285E-08
 -1       873-7.32027E+00-2.34648E+04 1.25695E+03 7.79892E+04 1.24555E-09 3.95880E-09
 -1       874 1.47583E+03-2.22168E+04 5.37207E+03 9.53582E+04-2.40880E-09 2.35264E-09
 -1       875 4.50751E+03-2.45430E+04 1.15562E+04 7.81041E+04-2.93767E-10 3.09365E-09
 -1       876 2.22680E+05 3.19482E+04 1.96888E+04 8.83609E+04-9.41668E-10-4.78030E-09
 -1       877 2.26352E+05 4.28191E+04 1.17015E+04 9.18459E+04-2.61468E-09-2.55704E-09
 -1       878 2.25596E+05 3.44038E+04 4.60622E+03 8.85221E+04-2.55727E-09-8.37963E-09
 -1       879 2.22912E+05 3.83507E+04 2.40562E+03 9.23290E+04-1.77351E-10-2.93039E-09
 -1       880 2.25858E+05 3.46261E+04 1.06934E+03 8.85464E+04 4.16060E-09 3.97853E-09
 -1       881 2.22602E+05 3.79989E+04 5.59091E+02 9.23349E+04-1.80466E-09-4.77257E-10
 -1       882 2.25884E+05 3.46523E+04 3.12319E+02 8.85521E+04 4.66315E-09-1.22072E-09
 -1       883 2.22576E+05 3.79713E+04 2.74795E+02 9.23276E+04-8.39378E-09-6.62457E-09
 -1       884 2.25881E+05 3.46524E+04 3.76745E+02 8.85527E+04-1.04401E-09-1.53935E-09
 -1       885 2.22619E+05 3.80059E+04 7.32096E+02 9.23314E+04 5.79257E-09-2.59223E-09
 -1       886 2.25842E+05 3.46206E+04 1.43173E+03 8.85474E+04-4.72824E-10-6.44411E-09
 -1       887 2.23040E+05 3.84764E+04 3.23787E+03 9.23163E+04-3.10877E-09-4.66207E-09
 -1       888 2.25483E+05 3.43238E+04 6.20685E+03 8.85159E+04-6.44283E-09-2.31648E-09
 -1       889 2.27667E+05 4.45090E+04 1.57718E+04 9.16724E+04 5.83299E-09 1.88084E-09
 -1       890 2.21562E+05 3.10047E+04 2.65389E+04 8.82855E+04 2.84808E-09-2.01362E-09
 -1       891 3.45112E+02-1.05606E+05-4.24036E+03 2.37416E+04 7.04176E-10 3.52520E-09
 -1       892-1.03574E+03-1.06931E+05-3.17536E+03 5.16457E+04 3.29646E-09 3.50781E-10
 -1       893 6.52732E+01-1.06080E+05-2.58337E+03 2.36750E+04 4.84033E-09 1.57246E-09
 -1       894-1.54267E+03-1.07280E+05-4.30849E+03 5.16280E+04 2.17324E-09 5.54746E-09
 -1       895 5.61489E+02-1.05235E+05-6.52277E+03 2.37590E+04 2.57387E-09 3.89900E-09
 -1       926-3.46229E+02-6.65938E+02 1.52898E+03 2.12809E+01 5.33840E-10-6.86555E-10
 -1       927 3.98493E+02 7.71150E+02 1.10798E+03-8.40396E+01-1.88752E-09-9.39394E-10
 -1       928-8.04422E+01-1.05269E+02 4.22653E+02 2.07588E+01 7.50253E-11-4.44842E-10
 -1       929 8.57475E+01 1.26069E+02 3.19928E+02-8.34925E+01 1.14394E-09-5.02762E-10
 -1       930-3.35938E+01-2.09040E+01 2.23748E+02 2.07337E+01 1.19540E-11-2.29702E-10
 -1       931 4.36296E+01 5.39818E+01 3.29682E+02-8.34619E+01-3.07491E-10-1.66978E-10
 -1       932-3.84103E+01-3.31362E+01 5.25973E+02 2.07281E+01-9.19287E-11-7.00311E-11
 -1       933 1.41475E+02 2.33248E+02 1.12039E+03-8.34382E+01-9.24696E-10 5.85061E-11
 -1       934-1.31497E+02-2.00107E+02 2.00704E+03 2.07100E+01-9.22729E-07-3.20597E-11
 -1       935 7.96144E+02 1.48591E+03 4.61548E+03-8.33236E+01-1.84410E-06-6.79279E-11
 -1       936-6.93041E+02-1.28557E+03 7.93619E+03 2.06135E+01-8.75292E-07 4.54747E-13
 -1       937 4.69234E+03 9.50030E+03 1.95888E+04-8.30422E+01 9.70755E-08 3.18323E-10
 -1       938-4.02639E+03-8.21272E+03 3.11638E+04 2.04288E+01 1.65507E-07-5.27507E-11
 -1       939 2.81782E+04 6.04626E+04 8.52761E+04-8.68969E+01 2.23453E-07 1.15506E-10
 -1       940-2.41570E+04-5.22330E+04 1.20498E+05 2.44670E+01 1.07906E-07 5.82077E-10
 -1       956-2.01302E+05-3.71294E+03-8.65199E+03 2.46528E+04-2.17642E-09-1.22645E-09
 -1       957-2.02964E+05-1.20846E+03-4.40991E+03 2.92396E+04-5.63887E-11-1.00226E-09
 -1       958-2.02053E+05-1.10230E+02-1.98610E+03 2.45033E+04 3.33239E-09 1.19076E-09
 -1       959-2.02199E+05-9.77273E+00-1.01222E+03 2.94025E+04-5.47971E-10 1.90994E-09
 -1       960-2.02131E+05 3.88163E+01-4.92005E+02 2.44888E+04 5.80258E-10-2.49429E-10
 -1       961-2.02148E+05 4.28460E+01-2.58427E+02 2.94188E+04-1.46474E-09 4.11092E-10
 -1       962-2.02151E+05 3.96340E+01-1.43479E+02 2.44868E+04-2.21189E-09-4.72801E-09
 -1       963-2.02150E+05 4.65045E+01-1.07178E+02 2.94213E+04-4.79781E-09 5.19549E-10
 -1       964-2.02157E+05 4.22923E+01-1.20436E+02 2.44862E+04 1.82729E-09-2.17142E-09
 -1       965-2.02159E+05 4.92731E+01-2.00102E+02 2.94211E+04 5.71956E-09 8.80846E-10
 -1       966-2.02151E+05 4.66790E+01-3.71259E+02 2.44871E+04-1.69905E-09-6.18229E-10
 -1       967-2.02206E+05 1.48043E+01-7.59891E+02 2.94116E+04-3.60160E-10-1.79739E-09
 -1       968-2.02099E+05-6.07104E+01-1.48826E+03 2.44959E+04-1.29921E-09 1.09367E-10
 -1       969-2.02787E+05-8.80065E+02-3.30523E+03 2.93110E+04 5.00222E-11-1.99213E-09
 -1       970-2.01541E+05-2.75900E+03-6.48359E+03 2.45895E+04 1.24328E-09-9.64064E-10
 -1       971-2.57155E+05 7.28710E+02-1.13021E+04 6.74507E+03-4.25871E-09-1.28284E-09
 -1       972-2.60628E+05-2.34546E+03-6.72817E+03 1.36486E+04-4.93674E-09-1.89857E-09
 -1       973-2.58687E+05 7.88129E+01-2.88285E+03 6.66840E+03-4.73528E-09-5.97311E-10
 -1       974-2.58991E+05-1.28654E+02-1.53362E+03 1.37367E+04-2.37947E-09 2.08843E-10
 -1       975-2.58822E+05 2.19754E+01-7.40210E+02 6.65621E+03-9.38599E-10-1.52761E-09
 -1       976-2.58858E+05 1.89173E+01-4.10078E+02 1.37537E+04-5.32236E-09-2.14925E-09
 -1       977-2.58841E+05 1.71554E+01-2.60821E+02 6.65120E+03 4.89842E-09-3.67277E-09
 -1       978-2.58851E+05 2.94780E+01-2.58053E+02 1.37605E+04 1.11509E-08-2.14806E-09
 -1       979-2.58839E+05 1.97688E+01-3.73371E+02 6.64947E+03 4.32367E-09-4.33195E-09
 -1       980-2.58882E+05 1.41793E+01-7.00503E+02 1.37603E+04 8.12210E-09-3.93281E-09
 -1       981-2.58810E+05 3.46355E+01-1.33343E+03 6.65134E+03 1.33684E-09 9.30328E-10
 -1       982-2.59143E+05-2.50085E+02-2.80707E+03 1.37514E+04 1.61981E-09 2.39787E-09
 -1       983-2.58569E+05 1.46243E+02-5.29202E+03 6.65857E+03 3.22598E-09-4.14502E-09
 -1       984-2.62174E+05-4.31876E+03-1.23706E+04 1.36874E+04 2.06876E-09-2.38379E-09
 -1       985-2.55760E+05 1.35056E+03-2.07777E+04 6.71743E+03 3.51474E-09-5.09954E-09
 -3
    1PSTEP                        19          10           1          
  100CL  110 4.80225E-01         608                     0   10           1
 -4  DISP        4    1
 -5  D1          1    2    1    0
 -5  D2          1    2    2    0
 -5  D3          1    2    3    0
 -5  ALL         1    2    0    0    1ALL
 -1         1 7.71106E-05 0.00000E+00 0.00000E+00
 -1         2 6.33083E-05 0.00000E+00 0.00000E+00
 -1         3 4.64342E-05 0.00000E+00 0.00000E+00
 -1         4 4.17680E-05 0.00000E+00 0.00000E+00
 -1         5 3.92927E-05 0.00000E+00 0.00000E+00
 -1         8 6.18026E-05-7.20849E-07 0.00000E+00
 -1         9 4.52069E-05-3.86559E-07 0.00000E+00
 -1        10 4.72553E-05-1.48232E-06 0.00000E+00
 -1        11 4.28458E-05-2.49221E-07 0.00000E+00
 -1        12 3.84816E-05 5.96617E-07 0.00000E+00
 -1        15 4.52012E-05-7.64011E-07 0.00000E+00
 -1        16 3.70366E-05-4.74917E-07 0.00000E+00
 -1        17 3.48811E-05-3.06362E-06 0.00000E+00
 -1        18 3.51219E-05-4.78120E-07 0.00000E+00
 -1        19 3.62159E-05 1.18636E-06 0.00000E+00
 -1        20 3.65740E-05 1.41280E-05 0.00000E+00
 -1        21 3.64664E-05 3.09530E-05 0.00000E+00
 -1        23 1.32341E-05-4.89881E-05 0.00000E+00
 -1        24 1.31375E-05-3.69923E-06 0.00000E+00
 -1        25 3.27476E-05-3.02775E-07 0.00000E+00
 -1        26 3.36336E-05 1.59777E-06 0.00000E+00
 -1        27 3.25761E-05 1.35456E-05 0.00000E+00
 -1        28 3.17299E-05 3.04316E-05 0.00000E+00
 -1        31 3.83986E-08-3.74814E-06 0.00000E+00
 -1        32 0.00000E+00 0.00000E+00 0.00000E+00
 -1        33 3.07251E-05 2.20820E-06 0.00000E+00
 -1        34 2.95471E-05 1.34917E-05 0.00000E+00
 -1        35 2.80384E-05 3.02011E-05 0.00000E+00
 -1        36 7.62742E-05-3.93124E-20 1.32349E-23
 -1        37 7.54112E-05 5.67371E-20 0.00000E+00
 -1        38 7.45499E-05 3.74892E-19 2.64698E-23
 -1        39 7.36835E-05 4.71193E-19 0.00000E+00
 -1        40 7.28170E-05 4.59027E-20 0.00000E+00
 -1        41 7.19495E-05 1.01615E-19 0.00000E+00
 -1        42 7.10818E-05 4.05933E-19-2.64698E-23
 -1        43 7.02140E-05 4.35149E-19-1.32349E-23
 -1        44 6.93462E-05 3.07015E-19-2.64698E-23
 -1        45 6.84785E-05 2.45561E-19 1.32349E-23
 -1        46 6.76109E-05 3.36180E-19 0.00000E+00
 -1        47 6.67441E-05 4.57493E-19 0.00000E+00
 -1        48 6.58774E-05 3.68470E-19 0.00000E+00
 -1        49 6.50148E-05 5.57450E-19 0.00000E+00
 -1        50 6.41508E-05 3.63677E-19 0.00000E+00
 -1        51 7.59733E-05-1.20447E-07 0.00000E+00
 -1        52 7.40671E-05-2.37226E-07 0.00000E+00
 -1        53 7.15407E-05-3.53882E-07 0.00000E+00
 -1        54 6.85500E-05-4.71802E-07 3.30872E-24
 -1        55 6.52515E-05-5.92302E-07-6.20385E-25
 -1        56 7.56596E-05-1.27522E-06 0.00000E+00
 -1        57 7.46019E-05-3.79829E-06 0.00000E+00
 -1        58 7.38621E-05-7.16199E-06 5.29396E-23
 -1        59 7.32639E-05-1.09416E-05 0.00000E+00
 -1        60 7.26261E-05-1.46150E-05 5.29396E-23
 -1        61 7.17562E-05-1.76710E-05 0.00000E+00
 -1        62 7.05140E-05-1.97294E-05 5.29396E-23
 -1        63 6.87773E-05-2.04673E-05 0.00000E+00
 -1        64 6.65286E-05-1.98426E-05 0.00000E+00
 -1        65 6.37796E-05-1.78899E-05 2.64698E-23
 -1        66 6.06482E-05-1.49264E-05-5.29396E-23
 -1        67 5.72772E-05-1.13248E-05 0.00000E+00
 -1        68 5.38575E-05-7.59458E-06 0.00000E+00
 -1        69 5.05960E-05-4.24769E-06 2.64698E-23
 -1        70 4.76418E-05-1.72412E-06 0.00000E+00
 -1        86 6.22945E-05-6.80387E-08-6.61744E-24
 -1        87 5.93279E-05-1.28689E-07 1.65436E-24
 -1        88 5.52699E-05-1.93617E-07 0.00000E+00
 -1        89 5.09840E-05-2.58794E-07-1.65436E-24
 -1        90 4.73401E-05-3.21044E-07 0.00000E+00
 -1        91 6.23878E-05-2.45924E-07 0.00000E+00
 -1        92 6.13774E-05-3.24224E-07 1.32349E-23
 -1        93 6.03492E-05-3.49966E-07 2.64698E-23
 -1        94 5.93447E-05-4.52126E-07-1.32349E-23
 -1        95 5.83509E-05-5.82686E-07-2.64698E-23
 -1        96 5.73490E-05-6.94324E-07-1.32349E-23
 -1        97 5.63410E-05-7.89663E-07-2.64698E-23
 -1        98 5.53281E-05-8.72348E-07-1.32349E-23
 -1        99 5.43210E-05-9.70569E-07 0.00000E+00
 -1       100 5.33303E-05-1.11187E-06 1.32349E-23
 -1       101 5.23296E-05-1.22657E-06 0.00000E+00
 -1       102 5.12941E-05-1.24574E-06 0.00000E+00
 -1       103 5.02786E-05-1.31798E-06 0.00000E+00
 -1       104 4.93427E-05-1.58755E-06 0.00000E+00
 -1       105 4.83635E-05-1.74749E-06 0.00000E+00
 -1       106 4.61438E-05-3.07108E-19 0.00000E+00
 -1       107 4.58517E-05-1.15632E-18 3.30872E-24
 -1       108 4.55597E-05-1.76679E-18-6.61744E-24
 -1       109 4.52674E-05-9.97126E-19-3.30872E-24
 -1       110 4.49750E-05-1.48197E-19 0.00000E+00
 -1       111 4.46826E-05 4.03165E-19 3.30872E-24
 -1       112 4.43902E-05 3.30637E-19 6.61744E-24
 -1       113 4.40977E-05-5.19521E-19 0.00000E+00
 -1       114 4.38053E-05-1.11938E-18 6.61744E-24
 -1       115 4.35129E-05-6.47321E-19-3.30872E-24
 -1       116 4.32206E-05 1.38076E-19 6.61744E-24
 -1       117 4.29284E-05 5.23731E-19 3.30872E-24
 -1       118 4.26363E-05 7.36515E-19 6.61744E-24
 -1       119 4.23453E-05 4.86425E-19 3.30872E-24
 -1       120 4.20538E-05 8.21251E-20 0.00000E+00
 -1       121 4.66183E-05-2.46951E-07 0.00000E+00
 -1       122 4.70138E-05-4.93867E-07 3.30872E-24
 -1       123 4.74479E-05-7.40813E-07 0.00000E+00
 -1       124 4.77478E-05-9.87786E-07 0.00000E+00
 -1       125 4.77407E-05-1.23472E-06-6.61744E-24
 -1       141 4.16121E-05-5.98403E-19 6.61744E-24
 -1       142 4.14563E-05-2.09501E-18 0.00000E+00
 -1       143 4.13004E-05-3.23395E-18 0.00000E+00
 -1       144 4.11446E-05-3.43181E-18 0.00000E+00
 -1       145 4.09888E-05-2.94682E-18-6.61744E-24
 -1       146 4.08329E-05-1.64633E-18-3.30872E-24
 -1       147 4.06771E-05-4.40610E-19-6.61744E-24
 -1       148 4.05213E-05-4.79636E-20 0.00000E+00
 -1       149 4.03655E-05-4.55425E-19 3.30872E-24
 -1       150 4.02097E-05-1.78666E-18 0.00000E+00
 -1       151 4.00541E-05-3.01393E-18-3.30872E-24
 -1       152 3.98988E-05-3.46734E-18 0.00000E+00
 -1       153 3.97436E-05-3.25825E-18 3.30872E-24
 -1       154 3.95903E-05-1.92768E-18 0.00000E+00
 -1       155 3.94364E-05-3.82903E-19 0.00000E+00
 -1       156 4.31803E-05-3.54525E-08-3.30872E-24
 -1       157 4.74026E-05-7.34805E-08 0.00000E+00
 -1       158 5.18430E-05-1.12729E-07 0.00000E+00
 -1       159 5.39096E-05-1.44292E-07 8.27181E-25
 -1       160 5.15821E-05-1.77641E-07 0.00000E+00
 -1       161 4.27169E-05-2.99437E-06-3.30872E-24
 -1       162 4.58288E-05-1.18549E-05-1.65436E-24
 -1       163 4.89293E-05-2.06845E-05-3.30872E-24
 -1       164 4.98443E-05-2.35857E-05 0.00000E+00
 -1       165 4.85360E-05-2.05602E-05-3.30872E-24
 -1       166 4.49818E-05-1.16494E-05-1.65436E-24
 -1       167 4.14245E-05-2.73070E-06 0.00000E+00
 -1       168 4.01074E-05 3.18330E-07-1.65436E-24
 -1       169 4.10142E-05-2.56063E-06-3.30872E-24
 -1       170 4.41133E-05-1.13860E-05-1.65436E-24
 -1       171 4.72291E-05-2.02567E-05 3.30872E-24
 -1       172 4.81869E-05-2.32714E-05 1.65436E-24
 -1       173 4.69212E-05-2.03572E-05 0.00000E+00
 -1       174 4.33830E-05-1.14811E-05-1.65436E-24
 -1       175 3.98169E-05-2.53454E-06 0.00000E+00
 -1       191 3.92666E-05 9.94033E-08 0.00000E+00
 -1       192 3.91962E-05 1.98878E-07 0.00000E+00
 -1       193 3.90817E-05 2.98367E-07 6.61744E-24
 -1       194 3.89238E-05 3.97845E-07 0.00000E+00
 -1       195 3.87234E-05 4.97288E-07-3.30872E-24
 -1       266 5.90357E-05-7.38581E-07 0.00000E+00
 -1       267 5.62688E-05-7.44485E-07 0.00000E+00
 -1       268 5.35019E-05-7.51155E-07-8.27181E-25
 -1       269 5.07350E-05-7.55589E-07 2.06795E-25
 -1       270 4.79681E-05-7.59979E-07 0.00000E+00
 -1       271 5.95659E-05 1.25900E-06 0.00000E+00
 -1       272 5.74913E-05 2.67280E-06-1.32349E-23
 -1       273 5.56081E-05 3.58294E-06 0.00000E+00
 -1       274 5.38879E-05 4.03915E-06 2.64698E-23
 -1       275 5.23145E-05 4.10281E-06 5.29396E-23
 -1       276 5.08629E-05 3.83869E-06 2.64698E-23
 -1       277 4.95076E-05 3.31675E-06 0.00000E+00
 -1       278 4.82214E-05 2.61045E-06-2.64698E-23
 -1       279 4.69756E-05 1.79594E-06 0.00000E+00
 -1       280 4.57414E-05 9.51010E-07 0.00000E+00
 -1       281 4.44896E-05 1.53751E-07-5.29396E-23
 -1       282 4.31918E-05-5.18231E-07 0.00000E+00
 -1       283 4.18194E-05-9.89438E-07 5.29396E-23
 -1       284 4.03501E-05-1.18539E-06 1.32349E-23
 -1       285 3.87512E-05-1.03974E-06 2.64698E-23
 -1       286 4.53197E-05 6.10644E-07 0.00000E+00
 -1       287 4.54483E-05 9.26477E-07-4.13590E-25
 -1       288 4.55760E-05 8.42631E-07 3.30872E-24
 -1       289 4.57066E-05 6.38251E-07-1.65436E-24
 -1       290 4.58373E-05 3.63302E-07 3.30872E-24
 -1       291 4.59685E-05 6.73271E-08 1.65436E-24
 -1       292 4.60998E-05-2.40748E-07-3.30872E-24
 -1       293 4.62313E-05-5.52078E-07 1.65436E-24
 -1       294 4.63627E-05-8.64108E-07 0.00000E+00
 -1       295 4.64940E-05-1.17429E-06 0.00000E+00
 -1       296 4.66252E-05-1.47650E-06 3.30872E-24
 -1       297 4.67559E-05-1.76458E-06 0.00000E+00
 -1       298 4.68865E-05-2.00503E-06 0.00000E+00
 -1       299 4.70140E-05-2.16408E-06 4.13590E-25
 -1       300 4.71426E-05-2.05325E-06 0.00000E+00
 -1       301 4.38396E-05-4.05368E-07 0.00000E+00
 -1       302 4.24626E-05-4.13852E-07 0.00000E+00
 -1       303 4.10847E-05-4.21257E-07 3.30872E-24
 -1       304 3.97151E-05-4.29838E-07 0.00000E+00
 -1       305 3.83628E-05-4.41770E-07 0.00000E+00
 -1       306 4.42141E-05 4.17311E-07-1.32349E-23
 -1       307 4.34087E-05 6.74431E-07 6.61744E-24
 -1       308 4.27758E-05 4.73529E-07-1.32349E-23
 -1       309 4.22799E-05-1.00246E-07-6.61744E-24
 -1       310 4.18899E-05-9.57555E-07 0.00000E+00
 -1       311 4.15718E-05-2.00792E-06 0.00000E+00
 -1       312 4.12914E-05-3.15940E-06-2.64698E-23
 -1       313 4.10141E-05-4.31952E-06 6.61744E-24
 -1       314 4.07054E-05-5.39566E-06-1.32349E-23
 -1       315 4.03310E-05-6.29579E-06 0.00000E+00
 -1       316 3.98567E-05-6.92911E-06-1.32349E-23
 -1       317 3.92497E-05-7.20650E-06 0.00000E+00
 -1       318 3.84770E-05-7.04140E-06 1.32349E-23
 -1       319 3.75098E-05-6.34922E-06-6.61744E-24
 -1       320 3.63137E-05-5.05110E-06 1.32349E-23
 -1       321 4.70025E-05 2.45382E-06-6.61744E-24
 -1       322 4.67091E-05 1.26106E-05 3.30872E-24
 -1       323 4.64342E-05 2.00275E-05 0.00000E+00
 -1       324 4.61771E-05 1.57753E-05-3.30872E-24
 -1       325 4.58834E-05 5.43780E-06-6.61744E-24
 -1       326 4.55854E-05-5.33313E-06 0.00000E+00
 -1       327 4.53247E-05-1.03440E-05 0.00000E+00
 -1       328 4.50535E-05-3.46576E-06 0.00000E+00
 -1       329 4.47609E-05 6.64425E-06 0.00000E+00
 -1       330 4.45069E-05 1.12924E-05 0.00000E+00
 -1       331 4.42574E-05 8.60082E-06 0.00000E+00
 -1       332 4.39446E-05-3.22615E-06 0.00000E+00
 -1       333 4.36361E-05-1.46010E-05 0.00000E+00
 -1       334 4.33894E-05-1.59411E-05 0.00000E+00
 -1       335 4.31312E-05-1.01594E-05 0.00000E+00
 -1       336 4.61349E-05-1.74564E-06 0.00000E+00
 -1       337 4.44819E-05-2.00961E-06 0.00000E+00
 -1       338 4.24122E-05-2.27418E-06 0.00000E+00
 -1       339 4.00432E-05-2.53860E-06-3.30872E-24
 -1       340 3.74933E-05-2.80356E-06 0.00000E+00
 -1       356 4.25614E-05 9.54528E-06 0.00000E+00
 -1       357 4.23050E-05 1.49811E-05 0.00000E+00
 -1       358 4.20583E-05 1.33587E-05 0.00000E+00
 -1       359 4.17510E-05 2.05722E-06-3.30872E-24
 -1       360 4.14413E-05-9.48659E-06 0.00000E+00
 -1       361 4.11927E-05-1.18338E-05 0.00000E+00
 -1       362 4.09381E-05-7.00635E-06 6.61744E-24
 -1       363 4.06478E-05 2.89345E-06 0.00000E+00
 -1       364 4.03790E-05 9.43174E-06-6.61744E-24
 -1       365 4.01177E-05 4.21218E-06 3.30872E-24
 -1       366 3.98202E-05-6.53409E-06-6.61744E-24
 -1       367 3.95309E-05-1.65143E-05 0.00000E+00
 -1       368 3.92765E-05-2.03889E-05-6.61744E-24
 -1       369 3.90049E-05-1.28871E-05-3.30872E-24
 -1       370 3.87159E-05-2.91448E-06 1.65436E-24
 -1       371 3.35820E-05-3.24757E-07-3.30872E-24
 -1       372 2.96748E-05-3.61940E-07-8.27181E-25
 -1       373 2.96135E-05-3.91039E-07 0.00000E+00
 -1       374 3.18828E-05-4.21428E-07 0.00000E+00
 -1       375 3.44099E-05-4.52391E-07 0.00000E+00
 -1       406 3.81907E-05 6.95438E-07-3.30872E-24
 -1       407 3.78619E-05 7.94290E-07 0.00000E+00
 -1       408 3.74973E-05 8.93082E-07-3.30872E-24
 -1       409 3.70997E-05 9.91656E-07-1.65436E-24
 -1       410 3.66716E-05 1.08978E-06 0.00000E+00
 -1       501 3.69310E-05 3.88386E-06 0.00000E+00
 -1       502 3.67989E-05 1.43577E-05 0.00000E+00
 -1       503 3.66509E-05 2.63018E-05 0.00000E+00
 -1       504 3.65380E-05 3.50681E-05 1.65436E-24
 -1       505 3.64554E-05 3.77595E-05 0.00000E+00
 -1       506 3.63581E-05 3.14996E-05-1.65436E-24
 -1       507 3.61974E-05 1.82083E-05 0.00000E+00
 -1       508 3.59593E-05-1.70771E-07 0.00000E+00
 -1       509 3.57157E-05-1.88743E-05 1.65436E-24
 -1       510 3.55425E-05-3.31379E-05 0.00000E+00
 -1       511 3.54371E-05-4.06660E-05 0.00000E+00
 -1       512 3.53576E-05-3.91862E-05-1.65436E-24
 -1       513 3.52520E-05-3.12490E-05-3.30872E-24
 -1       514 3.51088E-05-1.94271E-05-1.65436E-24
 -1       515 3.49745E-05-8.45486E-06 0.00000E+00
 -1       521 3.53152E-05 4.14030E-08 0.00000E+00
 -1       522 3.37359E-05 6.50282E-08 0.00000E+00
 -1       523 3.23103E-05-3.17196E-07 0.00000E+00
 -1       524 3.10017E-05-1.02898E-06-2.64698E-23
 -1       525 2.97841E-05-1.98498E-06 5.29396E-23
 -1       526 2.86242E-05-3.09816E-06 0.00000E+00
 -1       527 2.74893E-05-4.27878E-06-5.29396E-23
 -1       528 2.63456E-05-5.43639E-06 2.64698E-23
 -1       529 2.51595E-05-6.48078E-06 0.00000E+00
 -1       530 2.38981E-05-7.32345E-06 0.00000E+00
 -1       531 2.25292E-05-7.87893E-06 0.00000E+00
 -1       532 2.10232E-05-8.06577E-06-2.64698E-23
 -1       533 1.93508E-05-7.80830E-06-5.29396E-23
 -1       534 1.74912E-05-7.03554E-06 1.32349E-23
 -1       535 1.54138E-05-5.68827E-06-2.64698E-23
 -1       536 3.48867E-05-7.76294E-07 0.00000E+00
 -1       537 3.49000E-05 9.58765E-07 1.24077E-24
 -1       538 3.49139E-05 2.19913E-06 4.13590E-25
 -1       539 3.49292E-05 3.00266E-06 0.00000E+00
 -1       540 3.49449E-05 3.42700E-06-4.13590E-25
 -1       541 3.49609E-05 3.52980E-06 1.03398E-25
 -1       542 3.49769E-05 3.36860E-06 0.00000E+00
 -1       543 3.49930E-05 3.00095E-06 0.00000E+00
 -1       544 3.50089E-05 2.48432E-06-4.13590E-25
 -1       545 3.50249E-05 1.87616E-06 2.06795E-25
 -1       546 3.50408E-05 1.23392E-06 0.00000E+00
 -1       547 3.50568E-05 6.15030E-07 2.06795E-25
 -1       548 3.50728E-05 7.69263E-08-8.27181E-25
 -1       549 3.50889E-05-3.22947E-07 0.00000E+00
 -1       550 3.51051E-05-5.27085E-07 0.00000E+00
 -1       551 3.16513E-05-3.16493E-06-8.27181E-25
 -1       552 2.80296E-05-3.26562E-06 6.20385E-25
 -1       553 2.41903E-05-3.36726E-06 0.00000E+00
 -1       554 2.03108E-05-3.47073E-06-9.92617E-24
 -1       555 1.65682E-05-3.57676E-06-1.32349E-23
 -1       556 3.39822E-05-8.70482E-07 1.32349E-23
 -1       557 3.32797E-05 8.13009E-07 0.00000E+00
 -1       558 3.27519E-05 2.03467E-06 0.00000E+00
 -1       559 3.23787E-05 2.84658E-06 0.00000E+00
 -1       560 3.21401E-05 3.30078E-06-6.61744E-24
 -1       561 3.20162E-05 3.44967E-06 0.00000E+00
 -1       562 3.19872E-05 3.34569E-06 0.00000E+00
 -1       563 3.20334E-05 3.04134E-06 0.00000E+00
 -1       564 3.21350E-05 2.58914E-06 0.00000E+00
 -1       565 3.22723E-05 2.04164E-06 0.00000E+00
 -1       566 3.24256E-05 1.45141E-06 0.00000E+00
 -1       567 3.25753E-05 8.71001E-07 4.13590E-25
 -1       568 3.27017E-05 3.52985E-07 4.13590E-25
 -1       569 3.27852E-05-5.01436E-08-4.13590E-25
 -1       570 3.28064E-05-2.85909E-07 1.65436E-24
 -1       571 3.51879E-05-3.43031E-07 0.00000E+00
 -1       572 3.52557E-05-2.51818E-07 6.20385E-25
 -1       573 3.53240E-05-1.96350E-07-1.65436E-24
 -1       574 3.53925E-05-1.68087E-07 0.00000E+00
 -1       575 3.54612E-05-1.58451E-07-1.65436E-24
 -1       576 3.55298E-05-1.58814E-07 0.00000E+00
 -1       577 3.55985E-05-1.60539E-07-3.30872E-24
 -1       578 3.56672E-05-1.54986E-07 0.00000E+00
 -1       579 3.57359E-05-1.33510E-07 3.30872E-24
 -1       580 3.58046E-05-8.74707E-08 0.00000E+00
 -1       581 3.58733E-05-8.22486E-09-3.30872E-24
 -1       582 3.59419E-05 1.12861E-07 0.00000E+00
 -1       583 3.60106E-05 2.84411E-07-3.30872E-24
 -1       584 3.60792E-05 5.14962E-07 0.00000E+00
 -1       585 3.61477E-05 8.13004E-07 0.00000E+00
 -1       586 3.47789E-05-4.48211E-07 0.00000E+00
 -1       587 3.43824E-05-4.18285E-07 1.65436E-24
 -1       588 3.39564E-05-3.88438E-07 8.27181E-25
 -1       589 3.35256E-05-3.58853E-07 1.03398E-25
 -1       590 3.31146E-05-3.29809E-07 0.00000E+00
 -1       591 3.50209E-05-3.17151E-07 0.00000E+00
 -1       592 3.49280E-05-1.87166E-07 0.00000E+00
 -1       593 3.48440E-05-8.18273E-08 0.00000E+00
 -1       594 3.47667E-05 4.48825E-09 8.27181E-25
 -1       595 3.46943E-05 7.74298E-08 0.00000E+00
 -1       596 3.46247E-05 1.42599E-07 0.00000E+00
 -1       597 3.45560E-05 2.05591E-07-1.65436E-24
 -1       598 3.44860E-05 2.71997E-07-4.13590E-25
 -1       599 3.44126E-05 3.47405E-07 1.65436E-24
 -1       600 3.43337E-05 4.37403E-07-8.27181E-25
 -1       601 3.42473E-05 5.47579E-07 0.00000E+00
 -1       602 3.41512E-05 6.83528E-07 0.00000E+00
 -1       603 3.40435E-05 8.50843E-07 8.27181E-25
 -1       604 3.39223E-05 1.05516E-06 3.61892E-25
 -1       605 3.37855E-05 1.30208E-06 0.00000E+00
 -1       606 3.62409E-05 1.69014E-06 0.00000E+00
 -1       607 3.62641E-05 2.25305E-06-3.30872E-24
 -1       608 3.62867E-05 2.87157E-06 0.00000E+00
 -1       609 3.63092E-05 3.54172E-06 0.00000E+00
 -1       610 3.63315E-05 4.25949E-06 0.00000E+00
 -1       611 3.63537E-05 5.02078E-06 0.00000E+00
 -1       612 3.63759E-05 5.82151E-06 0.00000E+00
 -1       613 3.63981E-05 6.65760E-06 8.27181E-25
 -1       614 3.64202E-05 7.52495E-06-1.65436E-24
 -1       615 3.64423E-05 8.41946E-06 0.00000E+00
 -1       616 3.64644E-05 9.33705E-06 0.00000E+00
 -1       617 3.64864E-05 1.02736E-05 0.00000E+00
 -1       618 3.65084E-05 1.12251E-05 0.00000E+00
 -1       619 3.65304E-05 1.21874E-05-4.13590E-25
 -1       620 3.65523E-05 1.31564E-05-8.27181E-25
 -1       621 3.57492E-05 1.25529E-06-1.65436E-24
 -1       622 3.52893E-05 1.32445E-06 0.00000E+00
 -1       623 3.48420E-05 1.39358E-06-1.65436E-24
 -1       624 3.44131E-05 1.46253E-06-8.27181E-25
 -1       625 3.40084E-05 1.53115E-06 1.65436E-24
 -1       626 3.60783E-05 1.72162E-06 0.00000E+00
 -1       627 3.59172E-05 2.31868E-06 0.00000E+00
 -1       628 3.57349E-05 2.97163E-06 3.30872E-24
 -1       629 3.55340E-05 3.67396E-06 0.00000E+00
 -1       630 3.53170E-05 4.41912E-06 0.00000E+00
 -1       631 3.50864E-05 5.20047E-06 0.00000E+00
 -1       632 3.48447E-05 6.01140E-06 3.30872E-24
 -1       633 3.45943E-05 6.84527E-06 8.27181E-25
 -1       634 3.43378E-05 7.69545E-06 0.00000E+00
 -1       635 3.40777E-05 8.55530E-06-8.27181E-25
 -1       636 3.38165E-05 9.41819E-06 0.00000E+00
 -1       637 3.35565E-05 1.02775E-05 0.00000E+00
 -1       638 3.33003E-05 1.11265E-05 0.00000E+00
 -1       639 3.30502E-05 1.19587E-05 0.00000E+00
 -1       640 3.28084E-05 1.27673E-05-4.13590E-25
 -1       641 3.65686E-05 1.51065E-05 0.00000E+00
 -1       642 3.65623E-05 1.61339E-05 0.00000E+00
 -1       643 3.65561E-05 1.72032E-05-1.03398E-25
 -1       644 3.65496E-05 1.83072E-05-5.16988E-26
 -1       645 3.65431E-05 1.94370E-05 0.00000E+00
 -1       646 3.65365E-05 2.05836E-05 1.03398E-25
 -1       647 3.65300E-05 2.17373E-05 0.00000E+00
 -1       648 3.65234E-05 2.28882E-05 0.00000E+00
 -1       649 3.65168E-05 2.40267E-05 0.00000E+00
 -1       650 3.65102E-05 2.51430E-05-1.03398E-25
 -1       651 3.65037E-05 2.62288E-05 0.00000E+00
 -1       652 3.64971E-05 2.72754E-05-2.06795E-25
 -1       653 3.64904E-05 2.82765E-05 0.00000E+00
 -1       654 3.64833E-05 2.92256E-05 4.13590E-25
 -1       655 3.64764E-05 3.01190E-05-1.65436E-24
 -1       656 3.57198E-05 1.40339E-05-1.65436E-24
 -1       657 3.50115E-05 1.39352E-05-8.27181E-25
 -1       658 3.43961E-05 1.38367E-05 0.00000E+00
 -1       659 3.38205E-05 1.37383E-05-8.27181E-25
 -1       660 3.32315E-05 1.36397E-05 8.27181E-25
 -1       661 3.62761E-05 1.51276E-05 0.00000E+00
 -1       662 3.59686E-05 1.61600E-05 8.27181E-25
 -1       663 3.56514E-05 1.72179E-05 0.00000E+00
 -1       664 3.53274E-05 1.82952E-05 0.00000E+00
 -1       665 3.49985E-05 1.93855E-05 0.00000E+00
 -1       666 3.46671E-05 2.04824E-05 0.00000E+00
 -1       667 3.43356E-05 2.15798E-05 0.00000E+00
 -1       668 3.40064E-05 2.26713E-05 0.00000E+00
 -1       669 3.36817E-05 2.37505E-05 1.65436E-24
 -1       670 3.33640E-05 2.48113E-05 0.00000E+00
 -1       671 3.30555E-05 2.58473E-05 1.65436E-24
 -1       672 3.27587E-05 2.68522E-05 8.27181E-25
 -1       673 3.24759E-05 2.78195E-05 1.65436E-24
 -1       674 3.22089E-05 2.87430E-05-8.27181E-25
 -1       675 3.19608E-05 2.96163E-05-8.27181E-25
 -1       676 3.56620E-05 3.08655E-05-3.30872E-24
 -1       677 3.48602E-05 3.07779E-05-1.65436E-24
 -1       678 3.40635E-05 3.06904E-05 0.00000E+00
 -1       679 3.32745E-05 3.06032E-05 8.27181E-25
 -1       680 3.24958E-05 3.05161E-05 0.00000E+00
 -1       716 1.32303E-05-4.61575E-05 4.03897E-28
 -1       717 1.32264E-05-4.33269E-05 0.00000E+00
 -1       718 1.32226E-05-4.04964E-05 0.00000E+00
 -1       719 1.32188E-05-3.76658E-05 1.61559E-27
 -1       720 1.32149E-05-3.48353E-05 0.00000E+00
 -1       721 1.32110E-05-3.20047E-05-6.46235E-27
 -1       722 1.32072E-05-2.91742E-05-2.58494E-26
 -1       723 1.32033E-05-2.63436E-05-2.58494E-26
 -1       724 1.31993E-05-2.35130E-05 0.00000E+00
 -1       725 1.31952E-05-2.06825E-05 1.03398E-25
 -1       726 1.31910E-05-1.78519E-05 4.13590E-25
 -1       727 1.31861E-05-1.50214E-05 4.13590E-25
 -1       728 1.31810E-05-1.21908E-05 1.65436E-24
 -1       729 1.31722E-05-9.36026E-06-1.65436E-24
 -1       730 1.31647E-05-6.52970E-06 0.00000E+00
 -1       766 1.04054E-05-3.72621E-06 0.00000E+00
 -1       767 7.87046E-06-3.73299E-06 0.00000E+00
 -1       768 5.54949E-06-3.74054E-06-1.65436E-24
 -1       769 3.45960E-06-3.74385E-06 4.13590E-25
 -1       770 1.61713E-06-3.74654E-06 0.00000E+00
 -1       771 1.15562E-05-1.42646E-06-2.64698E-23
 -1       772 1.01413E-05 3.84767E-07 0.00000E+00
 -1       773 8.88457E-06 1.77356E-06 2.64698E-23
 -1       774 7.77099E-06 2.78010E-06 1.32349E-23
 -1       775 6.78579E-06 3.44482E-06-2.64698E-23
 -1       776 5.91361E-06 3.80855E-06 1.32349E-23
 -1       777 5.13903E-06 3.91232E-06 0.00000E+00
 -1       778 4.44653E-06 3.79738E-06 0.00000E+00
 -1       779 3.82055E-06 3.50516E-06 0.00000E+00
 -1       780 3.24547E-06 3.07723E-06 1.32349E-23
 -1       781 2.70569E-06 2.55528E-06 0.00000E+00
 -1       782 2.18562E-06 1.98108E-06 1.32349E-23
 -1       783 1.66969E-06 1.39646E-06 0.00000E+00
 -1       784 1.14273E-06 8.43334E-07-6.61744E-24
 -1       785 5.89401E-07 3.63553E-07-1.32349E-23
 -1       786 3.27998E-05-9.99228E-08-4.13590E-25
 -1       787 3.28550E-05 5.49397E-08 0.00000E+00
 -1       788 3.29102E-05 1.69719E-07 0.00000E+00
 -1       789 3.29659E-05 2.52322E-07-8.27181E-25
 -1       790 3.30216E-05 3.10629E-07 1.65436E-24
 -1       791 3.30774E-05 3.52509E-07 0.00000E+00
 -1       792 3.31333E-05 3.85821E-07 0.00000E+00
 -1       793 3.31891E-05 4.18416E-07 0.00000E+00
 -1       794 3.32450E-05 4.58146E-07 0.00000E+00
 -1       795 3.33009E-05 5.12868E-07-8.27181E-25
 -1       796 3.33567E-05 5.90447E-07-1.65436E-24
 -1       797 3.34125E-05 6.98764E-07 8.27181E-25
 -1       798 3.34683E-05 8.45719E-07-1.65436E-24
 -1       799 3.35238E-05 1.03923E-06 0.00000E+00
 -1       800 3.35794E-05 1.28726E-06 1.65436E-24
 -1       801 3.00488E-05-2.37532E-07 0.00000E+00
 -1       802 2.39707E-05-1.81978E-07 0.00000E+00
 -1       803 1.62193E-05-1.36793E-07 0.00000E+00
 -1       804 8.50234E-06-9.45753E-08 0.00000E+00
 -1       805 2.52700E-06-4.16408E-08 6.61744E-24
 -1       806 3.26162E-05-1.25471E-07 0.00000E+00
 -1       807 3.24920E-05 2.70391E-08-8.27181E-25
 -1       808 3.23747E-05 1.59682E-07 0.00000E+00
 -1       809 3.22628E-05 2.77172E-07 0.00000E+00
 -1       810 3.21548E-05 3.84207E-07 1.65436E-24
 -1       811 3.20489E-05 4.85470E-07 0.00000E+00
 -1       812 3.19434E-05 5.85637E-07 1.65436E-24
 -1       813 3.18366E-05 6.89380E-07-8.27181E-25
 -1       814 3.17267E-05 8.01376E-07 0.00000E+00
 -1       815 3.16119E-05 9.26295E-07 0.00000E+00
 -1       816 3.14905E-05 1.06881E-06 8.27181E-25
 -1       817 3.13608E-05 1.23359E-06-4.13590E-25
 -1       818 3.12210E-05 1.42529E-06-1.24077E-24
 -1       819 3.10694E-05 1.64857E-06-2.06795E-25
 -1       820 3.09045E-05 1.90806E-06-1.24077E-24
 -1       821 3.35715E-05 1.99421E-06-8.27181E-25
 -1       822 3.35055E-05 2.48399E-06 0.00000E+00
 -1       823 3.34396E-05 3.05731E-06 0.00000E+00
 -1       824 3.33730E-05 3.70422E-06-8.27181E-25
 -1       825 3.33063E-05 4.41478E-06 0.00000E+00
 -1       826 3.32395E-05 5.17894E-06 0.00000E+00
 -1       827 3.31726E-05 5.98666E-06 1.65436E-24
 -1       828 3.31057E-05 6.82783E-06 8.27181E-25
 -1       829 3.30387E-05 7.69235E-06-1.65436E-24
 -1       830 3.29718E-05 8.57006E-06-8.27181E-25
 -1       831 3.29049E-05 9.45083E-06 0.00000E+00
 -1       832 3.28381E-05 1.03245E-05 0.00000E+00
 -1       833 3.27713E-05 1.11809E-05-1.65436E-24
 -1       834 3.27051E-05 1.20100E-05-8.27181E-25
 -1       835 3.26389E-05 1.28016E-05-8.27181E-25
 -1       836 3.32185E-05 1.69812E-06 0.00000E+00
 -1       837 3.27254E-05 1.80173E-06-1.65436E-24
 -1       838 3.21918E-05 1.90520E-06 0.00000E+00
 -1       839 3.16555E-05 2.00830E-06 0.00000E+00
 -1       840 3.11541E-05 2.11136E-06 8.27181E-25
 -1       841 3.35004E-05 2.01730E-06 0.00000E+00
 -1       842 3.33173E-05 2.56902E-06 4.13590E-25
 -1       843 3.30969E-05 3.22019E-06 8.27181E-25
 -1       844 3.28514E-05 3.93811E-06 0.00000E+00
 -1       845 3.25873E-05 4.70566E-06 8.27181E-25
 -1       846 3.23109E-05 5.50576E-06 0.00000E+00
 -1       847 3.20259E-05 6.32885E-06 8.27181E-25
 -1       848 3.17358E-05 7.16545E-06-4.13590E-25
 -1       849 3.14430E-05 8.00904E-06 8.27181E-25
 -1       850 3.11501E-05 8.85313E-06 0.00000E+00
 -1       851 3.08593E-05 9.69148E-06 0.00000E+00
 -1       852 3.05729E-05 1.05178E-05 0.00000E+00
 -1       853 3.02944E-05 1.13230E-05 0.00000E+00
 -1       854 3.00268E-05 1.20978E-05 0.00000E+00
 -1       855 2.97767E-05 1.28265E-05 4.13590E-25
 -1       856 3.25265E-05 1.43247E-05-8.27181E-25
 -1       857 3.24739E-05 1.52088E-05-4.13590E-25
 -1       858 3.24212E-05 1.61836E-05-1.65436E-24
 -1       859 3.23681E-05 1.72343E-05-8.27181E-25
 -1       860 3.23148E-05 1.83463E-05 1.65436E-24
 -1       861 3.22614E-05 1.95050E-05 0.00000E+00
 -1       862 3.22080E-05 2.06957E-05 0.00000E+00
 -1       863 3.21545E-05 2.19038E-05 0.00000E+00
 -1       864 3.21010E-05 2.31145E-05-1.65436E-24
 -1       865 3.20475E-05 2.43132E-05-8.27181E-25
 -1       866 3.19941E-05 2.54852E-05 0.00000E+00
 -1       867 3.19407E-05 2.66158E-05 8.27181E-25
 -1       868 3.18875E-05 2.76904E-05 1.65436E-24
 -1       869 3.18344E-05 2.86942E-05-8.27181E-25
 -1       870 3.17815E-05 2.96128E-05 0.00000E+00
 -1       871 3.19821E-05 1.35382E-05 0.00000E+00
 -1       872 3.14655E-05 1.35298E-05 0.00000E+00
 -1       873 3.09951E-05 1.35212E-05 0.00000E+00
 -1       874 3.05395E-05 1.35123E-05 0.00000E+00
 -1       875 3.00672E-05 1.35029E-05 4.13590E-25
 -1       876 3.23804E-05 1.43427E-05 1.65436E-24
 -1       877 3.21583E-05 1.52205E-05 0.00000E+00
 -1       878 3.19102E-05 1.61678E-05 0.00000E+00
 -1       879 3.16403E-05 1.71744E-05 0.00000E+00
 -1       880 3.13520E-05 1.82302E-05 0.00000E+00
 -1       881 3.10490E-05 1.93250E-05-1.65436E-24
 -1       882 3.07353E-05 2.04488E-05 0.00000E+00
 -1       883 3.04144E-05 2.15914E-05 0.00000E+00
 -1       884 3.00902E-05 2.27428E-05-3.30872E-24
 -1       885 2.97665E-05 2.38930E-05 0.00000E+00
 -1       886 2.94470E-05 2.50318E-05 0.00000E+00
 -1       887 2.91355E-05 2.61493E-05 0.00000E+00
 -1       888 2.88356E-05 2.72352E-05 3.30872E-24
 -1       889 2.85508E-05 2.82794E-05 0.00000E+00
 -1       890 2.82853E-05 2.92720E-05-8.27181E-25
 -1       891 3.10639E-05 3.03935E-05 0.00000E+00
 -1       892 3.04918E-05 3.03548E-05 4.13590E-25
 -1       893 2.99586E-05 3.03161E-05 8.27181E-25
 -1       894 2.94088E-05 3.02775E-05-4.13590E-25
 -1       895 2.87871E-05 3.02388E-05 4.13590E-25
 -1       926 3.72550E-08-2.42945E-06 0.00000E+00
 -1       927 3.66585E-08-1.36686E-06 2.58494E-26
 -1       928 3.62567E-08-5.36501E-07 0.00000E+00
 -1       929 3.60467E-08 8.55329E-08 6.46235E-27
 -1       930 3.59299E-08 5.23135E-07 0.00000E+00
 -1       931 3.58697E-08 8.00200E-07-6.46235E-27
 -1       932 3.58285E-08 9.40642E-07 0.00000E+00
 -1       933 3.57629E-08 9.68366E-07 2.58494E-26
 -1       934 3.56625E-08 9.07285E-07 0.00000E+00
 -1       935 3.53951E-08 7.81314E-07 0.00000E+00
 -1       936 3.50278E-08 6.14367E-07 0.00000E+00
 -1       937 3.38905E-08 4.30362E-07 0.00000E+00
 -1       938 3.26464E-08 2.53179E-07 1.65436E-24
 -1       939 2.75824E-08 1.06706E-07-1.65436E-24
 -1       940 2.38117E-08 1.44664E-08 6.61744E-24
 -1       956 3.06532E-05 2.63459E-06-1.65436E-24
 -1       957 3.05799E-05 3.13883E-06-4.13590E-25
 -1       958 3.05063E-05 3.71268E-06 1.65436E-24
 -1       959 3.04325E-05 4.34736E-06 4.13590E-25
 -1       960 3.03587E-05 5.03408E-06 0.00000E+00
 -1       961 3.02847E-05 5.76399E-06 0.00000E+00
 -1       962 3.02108E-05 6.52825E-06-1.65436E-24
 -1       963 3.01368E-05 7.31800E-06 0.00000E+00
 -1       964 3.00628E-05 8.12439E-06 1.65436E-24
 -1       965 2.99888E-05 8.93856E-06-8.27181E-25
 -1       966 2.99148E-05 9.75165E-06 0.00000E+00
 -1       967 2.98409E-05 1.05548E-05 0.00000E+00
 -1       968 2.97670E-05 1.13392E-05 0.00000E+00
 -1       969 2.96932E-05 1.20959E-05 0.00000E+00
 -1       970 2.96196E-05 1.28163E-05 3.30872E-24
 -1       971 2.94548E-05 1.41864E-05-1.65436E-24
 -1       972 2.93606E-05 1.49919E-05-8.27181E-25
 -1       973 2.92662E-05 1.58946E-05 0.00000E+00
 -1       974 2.91715E-05 1.68809E-05 0.00000E+00
 -1       975 2.90767E-05 1.79369E-05 0.00000E+00
 -1       976 2.89817E-05 1.90489E-05 0.00000E+00
 -1       977 2.88868E-05 2.02030E-05-3.30872E-24
 -1       978 2.87917E-05 2.13854E-05 0.00000E+00
 -1       979 2.86967E-05 2.25822E-05 0.00000E+00
 -1       980 2.86017E-05 2.37796E-05 1.65436E-24
 -1       981 2.85067E-05 2.49637E-05 0.00000E+00
 -1       982 2.84118E-05 2.61207E-05 0.00000E+00
 -1       983 2.83171E-05 2.72368E-05 3.30872E-24
 -1       984 2.82229E-05 2.82980E-05-1.65436E-24
 -1       985 2.81289E-05 2.92907E-05 0.00000E+00
 -3
    1PSTEP                        20          10           1          
  100CL  110 4.80225E-01         608                     0   10           1
 -4  STRESS      6    1
 -5  SXX         1    4    1    1
 -5  SYY         1    4    2    2
 -5  SZZ         1    4    3    3
 -5  SXY         1    4    1    2
 -5  SYZ         1    4    2    3
 -5  SZX         1    4    3    1
 -1         1-2.38252E+06-8.20650E+05-5.23182E+05-7.50559E+05 1.35333E-09-3.27903E-09
 -1         2-1.57283E+06-4.06730E+05-2.03487E+05-2.61284E+05-1.74987E-09-2.50681E-08
 -1         3-4.19403E+05-3.68702E+05-1.51432E+04 4.66976E+04 2.79056E-09-2.34401E-10
 -1         4-3.81547E+05-5.07568E+04 2.43351E+03-3.28759E+04-3.03255E-09-1.18789E-09
 -1         5-2.35076E+05 4.85405E+04-9.32282E+04-2.28293E+03 1.42345E-08 3.92757E-09
 -1         8-1.07052E+06-4.95026E+05-1.45789E+05-6.57592E+05 1.45519E-10-1.79474E-09
 -1         9-1.11208E+06-3.88208E+05-1.57197E+05-3.85847E+05 1.58470E-09-1.55269E-09
 -1        10-5.28798E+05-3.79968E+05-3.34812E+04-1.32583E+05 3.14681E-09-3.53425E-08
 -1        11-3.00935E+05-5.51694E+04 5.05939E+03 1.81345E+04 3.78009E-12 2.39739E-09
 -1        12-2.68318E+05 3.33451E+04-1.02501E+05-1.60409E+04 2.29875E-08-4.75690E-09
 -1        15 1.82964E+03 9.89414E+02 5.67834E+03 2.23186E+00-1.33241E-10 1.02505E-08
 -1        16-1.72329E+06-4.59006E+05-1.55443E+05-5.68265E+05-2.17824E-10-1.75714E-09
 -1        17-3.04651E+05-2.46430E+05-2.95715E+04-2.17285E+05-1.16052E-09-5.32358E-10
 -1        18 2.09990E+04-8.62770E+03-1.36643E+04-4.94311E+04-1.12232E-10-1.56142E-09
 -1        19 8.10348E+04 9.89320E+04-1.03124E+02 2.77735E+03-3.31056E-11-1.51813E-09
 -1        20 3.57233E+04-6.07029E+04-1.42113E+04 2.84254E+04 3.03714E-09-7.34417E-10
 -1        21-6.27002E+03-9.67916E+04 2.68137E+04-7.93311E+02 8.39793E-09-1.78279E-09
 -1        23 4.44280E-01 2.11648E-01 8.13900E+00 6.31936E-04 2.41770E-09 1.56367E-09
 -1        24-8.91084E+05-2.66333E+05 4.72180E+04-4.62641E+05-1.49739E-09 1.66765E-09
 -1        25 1.33062E+04 3.73050E+04 1.85283E+04-2.56937E+05-2.84854E-10-2.21553E-10
 -1        26 1.75909E+03 6.76597E+04 3.08810E+02-1.11698E+04 2.50897E-10 3.57488E-10
 -1        27-1.47214E+04-4.48333E+04-1.99331E+04 4.94102E+04 2.48383E-09-1.98482E-09
 -1        28-5.59106E+03-7.47560E+04-2.65389E+03 2.88593E+04 5.41991E-09 2.77645E-10
 -1        31 2.83594E+03 3.26817E+03 4.83181E+03-7.31524E+01 2.52428E-09-1.10157E-09
 -1        32-3.63843E+05 8.85582E+04 2.27056E+05-5.28242E+05-2.49155E-09 1.47459E-09
 -1        33-7.98827E+04 8.08591E+04 2.48425E+04-2.54631E+04-8.53295E-10 1.40790E-09
 -1        34-9.72627E+04-3.91897E+03 8.79252E+03 3.71888E+04 4.22290E-10-4.87535E-09
 -1        35-1.47824E+04-2.01682E+04 1.09956E+03 4.69435E+04 3.79644E-09-2.97647E-09
 -1        36-2.44604E+06 7.22295E+04-1.66254E+05-2.16868E-07 1.19057E-09 2.37196E-09
 -1        37-2.51814E+06-8.35881E+04-1.17772E+05 4.27797E-08 1.25054E-09-5.32054E-09
 -1        38-2.47383E+06 1.13548E+04-4.30092E+04-6.44844E-07 7.14760E-10-7.13771E-09
 -1        39-2.48565E+06-1.31386E+04-2.70883E+04-4.10739E-08-6.33698E-10 7.63066E-10
 -1        40-2.47842E+06 1.78223E+03-1.10681E+04-4.28958E-08 1.83247E-09 2.72394E-10
 -1        41-2.48028E+06-2.09290E+03-6.64887E+03 3.93422E-07 2.50751E-09 5.95719E-09
 -1        42-2.47917E+06 3.10416E+02-3.30848E+03-1.63112E-07-7.11391E-09 4.34648E-09
 -1        43-2.47949E+06-5.75617E+02-2.74543E+03-4.67215E-08-1.39070E-09-1.55500E-09
 -1        44-2.47920E+06 2.65149E+02-2.90888E+03-4.27409E-07 1.87086E-09 3.06284E-09
 -1        45-2.48007E+06-1.70471E+03-5.49008E+03 1.90105E-07 2.77294E-09-3.00702E-09
 -1        46-2.47860E+06 1.43936E+03-8.98487E+03 1.12191E-07-5.52385E-09 3.56840E-09
 -1        47-2.48439E+06-1.05969E+04-2.18742E+04-1.13559E-07-5.29709E-09 2.26328E-09
 -1        48-2.47490E+06 9.15617E+03-3.46966E+04 4.77400E-07-5.21895E-09-5.06225E-09
 -1        49-2.51059E+06-6.74022E+04-9.49738E+04-6.54288E-07-1.30469E-09-7.76163E-09
 -1        50-2.45250E+06 5.82406E+04-1.34082E+05 1.09817E-07-8.78613E-09 1.79716E-09
 -1        51 1.81108E+04-3.13103E+05 3.08634E+04-8.12167E+05 0.00000E+00 8.07631E-09
 -1        52 8.98866E+03-3.11120E+05 2.01853E+04-8.99399E+05 2.91038E-10-3.12866E-10
 -1        53 6.79905E+03-3.18501E+05 1.83300E+04-8.09973E+05-4.00178E-10-5.63887E-09
 -1        54 1.73886E+04-3.15439E+05 3.05134E+04-9.01752E+05-3.05590E-10 2.52476E-09
 -1        55 4.05858E+04-3.25557E+05 5.68634E+04-8.09571E+05-3.41970E-10 5.16593E-09
 -1        56-4.33438E+06-4.61185E+05-3.73614E+05-1.67309E+06 1.48430E-09-1.36788E-09
 -1        57-4.48360E+06-8.28468E+05-2.55969E+05-1.66008E+06 1.21418E-09 0.00000E+00
 -1        58-4.41786E+06-5.80438E+05-8.76301E+04-1.63870E+06 3.47427E-10 3.89264E-09
 -1        59-4.38917E+06-6.86982E+05-5.36233E+04-1.69701E+06-1.26192E-10 1.57888E-09
 -1        60-4.42828E+06-6.00847E+05-2.05030E+04-1.63673E+06 8.75843E-10-5.84805E-10
 -1        61-4.38697E+06-6.52614E+05-1.17910E+04-1.68655E+06-2.23758E-09 4.10978E-10
 -1        62-4.41966E+06-6.14726E+05-5.86738E+03-1.64901E+06-8.24912E-10 2.04835E-09
 -1        63-4.41032E+06-6.23868E+05-4.59562E+03-1.65701E+06 1.40335E-09-3.81908E-09
 -1        64-4.40470E+06-6.29710E+05-5.77548E+03-1.66612E+06-2.51930E-10-5.70822E-09
 -1        65-4.43893E+06-6.00476E+05-1.15025E+04-1.62708E+06-4.63388E-10-2.04000E-09
 -1        66-4.39127E+06-6.38005E+05-1.99774E+04-1.67909E+06-2.04068E-09 1.96451E-10
 -1        67-4.46551E+06-6.09537E+05-5.22181E+04-1.60939E+06-8.23093E-10 5.58612E-09
 -1        68-4.37852E+06-6.20720E+05-8.53238E+04-1.68396E+06-8.85848E-10 3.45972E-09
 -1        69-4.54192E+06-7.62834E+05-2.49229E+05-1.59120E+06 8.82210E-11 7.94535E-09
 -1        70-4.31539E+06-4.86482E+05-3.63795E+05-1.69673E+06-1.69530E-09 4.77303E-09
 -1        86-3.13107E+04-1.69923E+05 7.37285E+04 1.04134E+04 3.27418E-09 4.99017E-09
 -1        87 3.95388E+04-1.33484E+05 5.84350E+04-4.52656E+04 5.62613E-09 6.54268E-10
 -1        88-7.99635E+03-1.57487E+05 3.09861E+04 1.10755E+04 5.11250E-09-3.39284E-10
 -1        89 3.03236E+04-1.38577E+05 4.62169E+04-4.55272E+04 7.60883E-09-1.94677E-09
 -1        90-2.20723E+04-1.64912E+05 5.30885E+04 1.06753E+04 2.80852E-09-2.63594E-09
 -1        91-2.25814E+06-2.63149E+05-1.38331E+05-8.70793E+05-1.94288E-05 7.23617E-06
 -1        92-2.33057E+06-3.91444E+05-9.61403E+04-8.47216E+05-3.88011E-05 1.45674E-05
 -1        93-2.28595E+06-3.13526E+05-3.23972E+04-8.61808E+05-1.15928E-05 4.36510E-06
 -1        94-2.29785E+06-3.33426E+05-2.02962E+04-8.57874E+05 1.56130E-05-5.85537E-06
 -1        95-2.29076E+06-3.21150E+05-7.58933E+03-8.60099E+05 3.34125E-06-1.25494E-06
 -1        96-2.29243E+06-3.24455E+05-4.57399E+03-8.59622E+05-8.95239E-06 3.36016E-06
 -1        97-2.29135E+06-3.22492E+05-2.16374E+03-8.60050E+05-4.32394E-07 1.61302E-07
 -1        98-2.29173E+06-3.23265E+05-2.01223E+03-8.59809E+05 8.08641E-06-3.03525E-06
 -1        99-2.29146E+06-3.22340E+05-2.34195E+03-8.59910E+05-2.97310E-06 1.11880E-06
 -1       100-2.29266E+06-3.24581E+05-5.12795E+03-8.59474E+05-1.40328E-05 5.26228E-06
 -1       101-2.29042E+06-3.21177E+05-8.58279E+03-8.60388E+05 5.27956E-06-1.98128E-06
 -1       102-2.29848E+06-3.35094E+05-2.30033E+04-8.57861E+05 2.45815E-05-9.22623E-06
 -1       103-2.28567E+06-3.11833E+05-3.67424E+04-8.61534E+05-2.45567E-05 9.24181E-06
 -1       104-2.33625E+06-4.00164E+05-1.09022E+05-8.44929E+05-7.36772E-05 2.76337E-05
 -1       105-2.25276E+06-2.56124E+05-1.56896E+05-8.73361E+05-3.69606E-05 1.37657E-05
 -1       106-8.34054E+05 4.74476E+03-1.09372E+04 2.18650E-08 3.46653E-09-9.70886E-10
 -1       107-8.38732E+05-5.49190E+03-7.74656E+03-4.65086E-07-4.29209E-10 7.78527E-10
 -1       108-8.35882E+05 7.46149E+02-2.83685E+03 3.71397E-07 1.05924E-10 2.30295E-09
 -1       109-8.36600E+05-8.64388E+02-1.79644E+03-8.25348E-07 1.05733E-09-5.89921E-10
 -1       110-8.36183E+05 1.18097E+02-7.55706E+02-8.60783E-09 3.27833E-10 8.54129E-10
 -1       111-8.36251E+05-1.45096E+02-4.95256E+02 2.42572E-07-1.54250E-09 3.52873E-09
 -1       112-8.36229E+05 2.69805E+01-3.25437E+02-2.12930E-08 4.65725E-10 6.77421E-10
 -1       113-8.36225E+05-8.72553E+01-4.17507E+02 1.87340E-07-1.42839E-10 2.96687E-09
 -1       114-8.36210E+05 6.02669E+01-6.20109E+02-4.91934E-07-1.60245E-09-1.98497E-09
 -1       115-8.36404E+05-4.30543E+02-1.34923E+03 1.52687E-07 1.42092E-09-4.85454E-09
 -1       116-8.36050E+05 3.70218E+02-2.29094E+03 1.18988E-07-1.07075E-09-1.27727E-09
 -1       117-8.37524E+05-2.73321E+03-5.63597E+03-4.30907E-07-3.27974E-09 6.06065E-10
 -1       118-8.35093E+05 2.36255E+03-8.95904E+03 1.41432E-07-3.08111E-09-1.45883E-09
 -1       119-8.44281E+05-1.73924E+04-2.45212E+04-5.08492E-07-1.99124E-09-2.98587E-09
 -1       120-8.29302E+05 1.50271E+04-3.46300E+04-1.60177E-08-4.57111E-10-8.51287E-10
 -1       121-1.88100E+02-7.05871E+05 7.71805E+02 1.60197E+04 4.85286E-10-7.17137E-10
 -1       122 4.14728E+02-7.05520E+05 8.73559E+02 9.34794E+04 1.18916E-09 4.56636E-09
 -1       123-1.09803E+02-7.05841E+05 1.00335E+03 1.59353E+04 5.76392E-10 2.69324E-09
 -1       124 1.18424E+03-7.04855E+05 2.25551E+03 9.32116E+04 7.23276E-10 3.93629E-09
 -1       125-1.00871E+03-7.06307E+05 3.26854E+03 1.62876E+04-6.50289E-10-8.18545E-10
 -1       141-4.45724E+05 4.52764E+01-1.07372E+02 3.29594E-08-2.08346E-10-2.44593E-09
 -1       142-4.45730E+05-5.27561E+01-8.18589E+01-7.39561E-07-8.49638E-10 1.72315E-09
 -1       143-4.45741E+05 7.47026E+00-4.33113E+01-4.18380E-07-1.63077E-09 2.46997E-09
 -1       144-4.45711E+05-1.10484E+01-5.16536E+01 1.63710E-07-2.14079E-10 4.37592E-09
 -1       145-4.45742E+05 3.57708E+00-7.34178E+01-5.38498E-07-1.28136E-09-5.21894E-11
 -1       146-4.45719E+05-2.00965E+01-1.46457E+02-1.13284E-06 7.15483E-11-2.56498E-09
 -1       147-4.45733E+05 1.65189E+01-2.68484E+02-4.54238E-07 5.16737E-10 5.70608E-10
 -1       148-4.45780E+05-1.22938E+02-5.88691E+02-4.94422E-07-3.37693E-10-3.57431E-10
 -1       149-4.45681E+05 1.06407E+02-1.06477E+03-1.74942E-07-5.89592E-10 3.31568E-10
 -1       150-4.46133E+05-7.90937E+02-2.45379E+03 6.91550E-08-9.04116E-10 1.04347E-09
 -1       151-4.45381E+05 6.84429E+02-4.22136E+03 1.02737E-07-1.11491E-09-1.57547E-09
 -1       152-4.48208E+05-5.05762E+03-1.04236E+04 4.89218E-08 1.21062E-09-2.25828E-09
 -1       153-4.43608E+05 4.37244E+03-1.65810E+04 2.01377E-07 3.64828E-09 3.81988E-10
 -1       154-4.60712E+05-3.21888E+04-4.53865E+04 1.64919E-08 1.50984E-09 1.51431E-10
 -1       155-4.32883E+05 2.78119E+04-6.40899E+04 1.71723E-07 8.70413E-09-1.41881E-09
 -1       156-1.44938E+04-9.05210E+04 3.27266E+04-2.48382E+03-1.86265E-09 2.40857E-09
 -1       157 1.81206E+04-6.52229E+04 2.80331E+04 8.87139E+03-1.12050E-09 5.35387E-10
 -1       158-3.59335E+03-8.45257E+04 1.45609E+04-2.52670E+03-5.61295E-09 2.90714E-09
 -1       159 1.74498E+04-4.96892E+04 2.85656E+04 7.27428E+03 4.91923E-09 7.88420E-09
 -1       160-1.39118E+04-1.05946E+05 2.40053E+04-8.87152E+02 3.11775E-09-4.23313E-10
 -1       161-3.86221E+05-5.17888E+04-1.21250E+03-1.37953E+05-8.89537E-09 1.68779E-09
 -1       162-3.28805E+05-5.28700E+04 8.32789E+03-1.36438E+05 1.24721E-08 4.02019E-09
 -1       163-3.85463E+05-5.01390E+04-2.74509E+03-1.38440E+05-2.33207E-09 4.70351E-09
 -1       164-3.37578E+05-4.70553E+04 6.77306E+03-1.26788E+05-1.31451E-08 7.42574E-09
 -1       165-3.77399E+05-5.77392E+04-3.13487E+03-1.47522E+05-1.88866E-05 7.20187E-06
 -1       166-3.45818E+05-3.93898E+04 6.37920E+03-1.17791E+05-3.79642E-05 1.47208E-05
 -1       167-3.77272E+05-5.76689E+04-3.33122E+03-1.47517E+05-1.88715E-05 7.19446E-06
 -1       168-3.37767E+05-4.74965E+04 6.04184E+03-1.26648E+05 5.83447E-09 1.18487E-09
 -1       169-3.85401E+05-4.97683E+04-3.98039E+03-1.38584E+05 7.10881E-06-2.61485E-06
 -1       170-3.30522E+05-5.59631E+04 4.54881E+03-1.35829E+05 1.41037E-05-5.11585E-06
 -1       171-3.84566E+05-4.90670E+04-6.28730E+03-1.38416E+05 7.12785E-06-2.61329E-06
 -1       172-3.40357E+05-5.18568E+04-2.07624E+03-1.26045E+05 2.11037E-08-4.98642E-09
 -1       173-3.75519E+05-5.40107E+04-1.69723E+04-1.48289E+05-9.17748E-09 1.04319E-09
 -1       174-3.61510E+05-6.70126E+04-3.36153E+04-1.12710E+05-4.59813E-08-1.84264E-09
 -1       175-3.63467E+05-3.37786E+04-6.16286E+04-1.51832E+05-1.51795E-09-5.41695E-09
 -1       191 3.60438E+02 2.84786E+05 5.80933E+02-4.47139E+03-1.99179E-10-9.54060E-10
 -1       192 1.30355E+02 2.84857E+05 3.49959E+02-4.68356E+03-1.15506E-10-2.94676E-10
 -1       193 6.08289E+01 2.84813E+05 2.85609E+02-4.35344E+03-5.40382E-10 1.61344E-09
 -1       194 1.80958E+02 2.84870E+05 4.38505E+02-4.91001E+03-4.68845E-10-3.81624E-09
 -1       195 5.15868E+02 2.84765E+05 8.01459E+02-4.24463E+03-9.24047E-10-1.96951E-09
 -1       266-3.21670E+04-1.48749E+04 7.42422E+04-4.59321E+01-6.18456E-11 9.33838E-10
 -1       267 3.72520E+04 1.73705E+04 5.26640E+04 5.28103E+01-6.09361E-11-6.73946E-09
 -1       268-5.07607E+03-2.48695E+03 1.94926E+04-6.87738E+00-5.45697E-12-3.13122E-10
 -1       269 5.99191E+03 2.98212E+03 1.27394E+04 7.99479E+00 5.09317E-11 4.20661E-09
 -1       270-9.14688E+02-4.94698E+02 6.11647E+03-1.11560E+00-3.02407E-11 8.11872E-09
 -1       271-3.34244E+06-4.16198E+05-2.63235E+05-1.29381E+06-5.27507E-10 3.76895E-09
 -1       272-3.44056E+06-5.90678E+05-1.67292E+05-1.28801E+06-1.68711E-10-6.14818E-10
 -1       273-3.38997E+06-4.77626E+05-6.20971E+04-1.28462E+06 2.59661E-10 2.92857E-09
 -1       274-3.38496E+06-5.13021E+05-3.43507E+04-1.30310E+06-3.52657E-10 4.91218E-09
 -1       275-3.39651E+06-4.83392E+05-1.44356E+04-1.28267E+06-1.04546E-09 3.54703E-11
 -1       276-3.37696E+06-5.06179E+05-7.65272E+03-1.30639E+06 1.30922E-09 6.91216E-11
 -1       277-3.39793E+06-4.83388E+05-3.85691E+03-1.28179E+06-5.78439E-10 3.69005E-09
 -1       278-3.37529E+06-5.06353E+05-2.93785E+03-1.30772E+06 1.17893E-09 2.88810E-09
 -1       279-3.39826E+06-4.83078E+05-3.37933E+03-1.28143E+06 9.25070E-10 3.10081E-09
 -1       280-3.37568E+06-5.07188E+05-6.35069E+03-1.30787E+06-1.22361E-09 5.30918E-11
 -1       281-3.39758E+06-4.82599E+05-1.17780E+04-1.28163E+06 1.24439E-09 5.57520E-10
 -1       282-3.38143E+06-5.13541E+05-2.79707E+04-1.30615E+06 1.40437E-09-4.65661E-09
 -1       283-3.39261E+06-4.77563E+05-5.04922E+04-1.28283E+06 3.44244E-10 2.93949E-09
 -1       284-3.42608E+06-5.77263E+05-1.36063E+05-1.29453E+06 4.13820E-10 4.13274E-09
 -1       285-3.35419E+06-4.27398E+05-2.14098E+05-1.29007E+06 1.01500E-09-3.92902E-09
 -1       286 3.56912E+05-4.19194E+04 9.66114E+04 8.08927E+02 1.44883E-09-3.39060E-09
 -1       287 3.99331E+05 4.85143E+04 6.84715E+04-1.19133E+03 4.51195E-12 1.10776E-09
 -1       288 3.73295E+05-6.58251E+03 2.50291E+04 4.02538E+01 2.66545E-10 4.40559E-09
 -1       289 3.80270E+05 7.61787E+03 1.57699E+04-2.95225E+02 1.03241E-10-4.73960E-09
 -1       290 3.75973E+05-1.03380E+03 6.47079E+03-8.71645E+01-5.89696E-08-9.45874E-10
 -1       291 3.77157E+05 1.21934E+03 3.92089E+03-1.46156E+02-1.21019E-07 2.64799E-09
 -1       292 3.76411E+05-1.85251E+02 2.01838E+03-1.08817E+02-2.89699E-08 1.59406E-09
 -1       293 3.76721E+05 3.73904E+02 1.79464E+03-1.23245E+02 6.35318E-08 2.33782E-09
 -1       294 3.76409E+05-1.88513E+02 2.04651E+03-1.10077E+02-5.40440E-07 2.37890E-10
 -1       295 3.77171E+05 1.24727E+03 4.00261E+03-1.36198E+02-1.14744E-06 4.25365E-09
 -1       296 3.75960E+05-1.05847E+03 6.61723E+03-9.58633E+01-4.15143E-06-1.03016E-08
 -1       297 3.80355E+05 7.79966E+03 1.61366E+04-2.36124E+02-7.15473E-06 4.46380E-09
 -1       298 3.73222E+05-6.73958E+03 2.56133E+04-1.01491E+01-3.58618E-06 9.72250E-09
 -1       299 3.99731E+05 4.96390E+04 7.00436E+04-8.39829E+02-5.43428E-10 1.15460E-08
 -1       300 3.56586E+05-4.28863E+04 9.88980E+04 5.07830E+02 6.16069E-09 3.23780E-09
 -1       301 2.62478E+04-1.56070E+04 7.82950E+04-2.18439E+04 1.23691E-10 6.12215E-09
 -1       302 9.99192E+03 6.63492E+02 5.31456E+04-2.70510E+04 9.37916E-10 1.41091E-08
 -1       303 2.12730E+03-1.00601E+04 4.92875E+04-2.18560E+04-2.81943E-11 1.13081E-08
 -1       304 1.89193E+04 7.57855E+03 8.16295E+04-2.70187E+04 1.09685E-09 7.58564E-09
 -1       305 5.20477E+04-2.24891E+04 1.45757E+05-2.18366E+04 2.54659E-10 8.67612E-09
 -1       306-1.53885E+06-2.01855E+05-9.23578E+04-5.96765E+05-2.00362E-09-1.05865E-09
 -1       307-1.55299E+06-2.82832E+05-5.86165E+04-6.17652E+05 9.95897E-11 3.02407E-09
 -1       308-1.55566E+06-2.23134E+05-2.18089E+04-5.93426E+05-2.04000E-09 6.82121E-10
 -1       309-1.53359E+06-2.55751E+05-1.20616E+04-6.23173E+05-6.12818E-09 1.03682E-10
 -1       310-1.55795E+06-2.25139E+05-5.09626E+03-5.92781E+05-1.19462E-09 4.57931E-10
 -1       311-1.53101E+06-2.53198E+05-2.74791E+03-6.24201E+05-1.64732E-10 8.40259E-10
 -1       312-1.55832E+06-2.25259E+05-1.47536E+03-5.92622E+05 3.87388E-10 6.13630E-09
 -1       313-1.53077E+06-2.52934E+05-1.30285E+03-6.24253E+05-3.04226E-10 8.07177E-11
 -1       314-1.55820E+06-2.25375E+05-1.74082E+03-5.92742E+05-1.75464E-09 5.24778E-10
 -1       315-1.53144E+06-2.52890E+05-3.46106E+03-6.23629E+05 1.28853E-09-5.08408E-10
 -1       316-1.55752E+06-2.25415E+05-6.56034E+03-5.93141E+05 3.01088E-09-8.97217E-10
 -1       317-1.53501E+06-2.55925E+05-1.55571E+04-6.21950E+05 3.61615E-09-2.22281E-09
 -1       318-1.55445E+06-2.22936E+05-2.81814E+04-5.94083E+05 3.08273E-09 2.24645E-09
 -1       319-1.56019E+06-2.90780E+05-7.57060E+04-6.14675E+05 1.41324E-09 3.27418E-10
 -1       320-1.53271E+06-1.95463E+05-1.19299E+05-5.98416E+05-1.57797E-09-7.71252E-10
 -1       321-7.12885E+05-2.20931E+03 6.74765E+02-1.28520E+04-3.81846E-09 1.22350E-09
 -1       322-6.07867E+05 6.84645E+03 2.05107E+04 1.87406E+04-2.29425E-08 5.45110E-09
 -1       323-7.60184E+05-4.59056E+03-1.23330E+04-3.75779E+03-5.56878E-09-8.76526E-10
 -1       324-6.28986E+05 3.87359E+02 1.31693E+04-1.05283E+04-6.90137E-09-1.09921E-08
 -1       325-6.91761E+05 4.08721E+03 1.13285E+03 1.64157E+04 3.88763E-09-5.11413E-09
 -1       326-6.26682E+05 7.77111E+01 1.30533E+04-1.16283E+04 8.04064E-09-2.40422E-09
 -1       327-7.62489E+05-4.25994E+03-1.39631E+04-2.65790E+03-4.25462E-09 1.51596E-09
 -1       328-6.11834E+05 1.79711E+03 1.60317E+04 1.81498E+04 3.01696E-10 6.76769E-09
 -1       329-7.06613E+05 2.49225E+03-2.66646E+03-1.33614E+04-2.97806E-09 7.93128E-09
 -1       330-6.40987E+05-2.10969E+03 8.76717E+03 4.25892E+03 1.15004E-08 2.96367E-09
 -1       331-7.33331E+05-5.91535E+02-9.67112E+03 1.12315E+04 2.39271E-09-1.22236E-09
 -1       332-6.06243E+05 1.09070E+03 1.33777E+04-1.88392E+04-2.52021E-08-6.54643E-09
 -1       333-7.41367E+05-4.14164E+02-1.68697E+04 9.73565E+03-1.75901E-08-4.47608E-09
 -1       334-6.43686E+05-1.21260E+04-8.21823E+03 6.57357E+03-1.37021E-10 6.22981E-09
 -1       335-6.95885E+05 1.23473E+04-2.90563E+04-1.41803E+04-1.15349E-08 8.60200E-09
 -1       336 2.42587E+02-7.51439E+05-2.50599E+03-9.90632E+03-2.65049E-09-1.83354E-09
 -1       337-1.29754E+03-7.52481E+05-4.93406E+03-6.19164E+04-4.63092E-09-9.25911E-09
 -1       338 9.98616E+02-7.50994E+05-8.29808E+03-9.43592E+03-4.30009E-09-3.17050E-09
 -1       339-1.07111E+04-7.58121E+05-2.06547E+04-6.25553E+04-6.25096E-09-5.61613E-09
 -1       340 8.66307E+03-7.46154E+05-3.15544E+04-9.26958E+03-4.42014E-09-4.25791E-09
 -1       356-6.96725E+05 1.21573E+04-2.92651E+04-1.37888E+04-2.26920E-09 4.01815E-09
 -1       357-6.45948E+05-1.22262E+04-8.71593E+03 5.98740E+03-1.28256E-09 4.05794E-09
 -1       358-7.37738E+05-1.22003E+02-1.61810E+04 9.90390E+03-7.74168E-09-2.67482E-09
 -1       359-6.08895E+05 9.96715E+02 1.27641E+04-1.85159E+04-1.14634E-08-9.85699E-09
 -1       360-7.33781E+05-7.91944E+02-9.91089E+03 1.07137E+04-4.88023E-09-3.29692E-09
 -1       361-6.42192E+05-2.02870E+03 8.32871E+03 4.69457E+03 5.58117E-09-2.97763E-09
 -1       362-7.04431E+05 2.62195E+03-2.64049E+03-1.33056E+04 1.49124E-08 3.96702E-09
 -1       363-6.15246E+05 1.46371E+03 1.44961E+04 1.75798E+04 9.06089E-09 6.94973E-09
 -1       364-7.60733E+05-4.06395E+03-1.51625E+04-2.17018E+03-1.20611E-08 3.23479E-09
 -1       365-6.28333E+05-9.09869E+02 9.39690E+03-1.18397E+04-3.03900E-08-1.10003E-08
 -1       366-6.91342E+05 4.89014E+03-4.87003E+03 1.61129E+04 1.52060E-08-5.62932E-09
 -1       367-6.35383E+05-6.85411E+03-2.10047E+03-9.77786E+03 3.14402E-08-6.50448E-09
 -1       368-7.53686E+05 1.84260E+03-3.49540E+04-4.23202E+03-7.51805E-09 4.00178E-11
 -1       369-6.30543E+05-3.84494E+04-4.36311E+04 1.84789E+04-2.27856E-08 9.85165E-09
 -1       370-6.96199E+05 3.66520E+04-8.97343E+04-1.21428E+04 2.89998E-09 5.20231E-10
 -1       371-1.28561E+04-9.95804E+04 2.29915E+04-4.28541E+02 1.16634E-08-4.22605E-09
 -1       372 1.34458E+04-5.75963E+04 2.01513E+04 5.61233E+03-2.07910E-09-8.28614E-10
 -1       373-6.42012E+02-8.29839E+04 2.71530E+03-1.86101E+03 1.36424E-11 1.82003E-09
 -1       374-5.20875E+03-7.83234E+04-5.17878E+03 7.12626E+03-4.31100E-10-5.31500E-10
 -1       375 5.86229E+03-7.89391E+04-1.31903E+04-1.94197E+03-3.14776E-09 2.08109E-09
 -1       406 4.47261E+02 2.83278E+05 1.05061E+03-1.50563E+04-1.31968E-09 3.08683E-09
 -1       407 3.42843E+02 2.83472E+05 1.43889E+03-1.63928E+04-8.05755E-10 2.16096E-09
 -1       408 6.40341E+02 2.83222E+05 2.50440E+03-1.49535E+04-1.70598E-09-2.60115E-10
 -1       409 2.57443E+03 2.84197E+05 5.45889E+03-1.65651E+04-1.22827E-09-7.21229E-10
 -1       410 7.39146E+03 2.82530E+05 1.10555E+04-1.48789E+04-2.04727E-09 1.90630E-09
 -1       501-2.53467E+05-4.75094E+04 1.01844E+05-5.17149E+03 6.78033E-09 5.11500E-09
 -1       502-1.66776E+05 5.35137E+04 7.92034E+04 1.36853E+04 8.77230E-09 1.03391E-08
 -1       503-2.21562E+05-5.89753E+03 2.66822E+04-6.33665E+03 5.96648E-09 6.47378E-09
 -1       504-1.66597E+05 9.25462E+03 2.57468E+04 8.60199E+03 1.01153E-10 8.31824E-09
 -1       505-2.53502E+05-3.43295E+03-8.89971E+02-8.76074E+01 5.48397E-09 3.96994E-10
 -1       506-1.62271E+05 2.83793E+03 1.42801E+04-4.91920E+03 2.02927E-08-8.34598E-09
 -1       507-2.25829E+05 4.56940E+02-4.03504E+02 7.18142E+03 1.71382E-08-1.38904E-08
 -1       508-1.93345E+05-1.27101E+03 4.70672E+03-1.24804E+04 7.25476E-09-1.59871E-08
 -1       509-2.22669E+05 9.15763E+02-8.66670E+02 7.47708E+03 1.73936E-08-1.34356E-08
 -1       510-1.65447E+05 1.51324E+03 1.05183E+04-5.87956E+03 1.44167E-08-1.04333E-08
 -1       511-2.53507E+05-2.54745E+03-6.74453E+03 5.77134E+02 1.49168E-09-2.23781E-09
 -1       512-1.67041E+05 2.55871E+03 1.20257E+04 7.76697E+03-6.82483E-09 6.76116E-09
 -1       513-2.21093E+05-1.11676E+02 3.24537E+03-6.16652E+03-6.29956E-09 7.98286E-09
 -1       514-1.88184E+05 8.87297E+03 1.62714E+04 1.37269E+04-5.94386E-09 1.21986E-08
 -1       515-2.32561E+05-8.66044E+03 1.37753E+04-5.38335E+03-7.05521E-09 6.20275E-09
 -1       521-3.41038E+06-4.34445E+05-2.19820E+05-1.31239E+06-2.28829E-09-3.09956E-09
 -1       522-3.48194E+06-5.90457E+05-1.39680E+05-1.31945E+06 8.47649E-10-5.15502E-09
 -1       523-3.45001E+06-4.85742E+05-5.18364E+04-1.30476E+06-4.20869E-10-1.38607E-09
 -1       524-3.43583E+06-5.25338E+05-2.86969E+04-1.33177E+06-1.31797E-09-3.66435E-09
 -1       525-3.45524E+06-4.90783E+05-1.20620E+04-1.30338E+06 1.37197E-09 6.36646E-12
 -1       526-3.42978E+06-5.18980E+05-6.44990E+03-1.33376E+06 3.40435E-09 1.95621E-09
 -1       527-3.45599E+06-4.91221E+05-3.32990E+03-1.30313E+06 5.28416E-10-6.16486E-09
 -1       528-3.42933E+06-5.18145E+05-2.71074E+03-1.33365E+06 3.55521E-09-6.27551E-10
 -1       529-3.45566E+06-4.91569E+05-3.34901E+03-1.30350E+06 2.52294E-09-1.46701E-09
 -1       530-3.43096E+06-5.17712E+05-6.47313E+03-1.33218E+06 1.11254E-09 8.68340E-10
 -1       531-3.45424E+06-4.91801E+05-1.21430E+04-1.30447E+06-1.07502E-09-2.37378E-10
 -1       532-3.43817E+06-5.22899E+05-2.88266E+04-1.32873E+06-2.31694E-10 3.63343E-10
 -1       533-3.44839E+06-4.87342E+05-5.21198E+04-1.30651E+06-2.78942E-09-2.40107E-10
 -1       534-3.48558E+06-5.87215E+05-1.40342E+05-1.31505E+06-6.17024E-09 3.41970E-10
 -1       535-3.40804E+06-4.36331E+05-2.20916E+05-1.31477E+06-4.00905E-09 2.96859E-09
 -1       536 3.89355E+04-1.13481E+04 4.09780E+04-5.43416E+03 6.89397E-10-2.02999E-09
 -1       537 5.47653E+04 1.41307E+04 2.68396E+04-3.12413E+04-2.93403E-09-2.21917E-10
 -1       538 4.52617E+04-1.33612E+03 1.06127E+04-5.37128E+03 4.71118E-10-5.71572E-09
 -1       539 4.74258E+04 1.48340E+03 6.06689E+03-3.12906E+04 2.59752E-09-8.76753E-10
 -1       540 4.60232E+04-1.84255E+02 2.67237E+03-5.38142E+03-7.97627E-10-7.99446E-10
 -1       541 4.63869E+04 1.50237E+02 1.43812E+03-3.12656E+04 9.13815E-10 1.15097E-09
 -1       542 4.61170E+04-2.94736E+01 6.54698E+02-5.39659E+03 1.22327E-10 1.58252E-10
 -1       543 4.61643E+04 3.56127E+01 3.26356E+02-3.12420E+04-6.16751E-10 2.88827E-09
 -1       544 4.61281E+04 2.64161E+00 1.16361E+02-5.40515E+03 3.43562E-10-1.23561E-09
 -1       545 4.60916E+04 2.46966E+01-2.22449E+01-3.12315E+04-1.48367E-09-3.17323E-09
 -1       546 4.61376E+04 1.77725E+01-1.63100E+02-5.40702E+03 2.69551E-10-1.89914E-10
 -1       547 4.60318E+04-8.69557E+01-4.39669E+02-3.12303E+04-3.22586E-10-1.01835E-09
 -1       548 4.62012E+04 9.36473E+01-8.07766E+02-5.40634E+03-8.63793E-10-1.18609E-09
 -1       549 4.55550E+04-1.07956E+03-2.04014E+03-3.11934E+04-9.44283E-10-6.12545E-10
 -1       550 4.66932E+04 8.29311E+02-3.15294E+03-5.44394E+03 1.34605E-10 1.35685E-09
 -1       551 7.37817E+03-2.68700E+05 1.89068E+04-4.29070E+05-5.60249E-09 1.30967E-09
 -1       552 6.01314E+03-2.66080E+05 2.02069E+04-5.29748E+05-5.68616E-09 3.18687E-09
 -1       553 4.38222E+03-2.69495E+05 2.97015E+04-4.28211E+05-6.30826E-09 2.10593E-09
 -1       554 1.89746E+04-2.56486E+05 6.10392E+04-5.29864E+05-7.02858E-09 9.47693E-10
 -1       555 4.46440E+04-2.79051E+05 1.15620E+05-4.28820E+05-5.87897E-09-3.12320E-09
 -1       556-7.60752E+04-8.85475E+04 2.22609E+04-1.41828E+05 6.62112E-10 3.95812E-09
 -1       557-5.34199E+04-1.10057E+05 1.12918E+04-1.59851E+05-4.69299E-10-1.58316E-08
 -1       558-7.61004E+04-9.36959E+04 4.70576E+03-1.38318E+05 1.23691E-09-9.06584E-09
 -1       559-5.59826E+04-1.13307E+05 2.33664E+03-1.60897E+05 3.63798E-09-2.22144E-10
 -1       560-7.64692E+04-9.35267E+04 1.02490E+03-1.38449E+05 1.21508E-09 8.10360E-10
 -1       561-5.66029E+04-1.13248E+05 5.06688E+02-1.61314E+05-7.58519E-10 2.04614E-09
 -1       562-7.67760E+04-9.33130E+04 1.98306E+02-1.38664E+05 1.09139E-11-3.35228E-09
 -1       563-5.69408E+04-1.13104E+05 6.29116E+01-1.61542E+05-2.29647E-09-7.28301E-09
 -1       564-7.69582E+04-9.31902E+04-7.14063E+01-1.38792E+05-9.73159E-10-5.24051E-09
 -1       565-5.71139E+04-1.13035E+05-2.38127E+02-1.61652E+05-1.90084E-09 1.04501E-09
 -1       566-7.69978E+04-9.31451E+04-5.44297E+02-1.38831E+05 3.05567E-09 2.98769E-09
 -1       567-5.72124E+04-1.13071E+05-1.21635E+03-1.61633E+05 3.23917E-09-2.43017E-09
 -1       568-7.68340E+04-9.32906E+04-2.50891E+03-1.38740E+05-7.88532E-10-1.46429E-09
 -1       569-5.86593E+04-1.14321E+05-5.91489E+03-1.61088E+05 3.55794E-09 8.59291E-09
 -1       570-7.57454E+04-9.68496E+04-1.17617E+04-1.37296E+05 6.11180E-10 1.39744E-09
 -1       571 1.95714E+05 8.29437E+03 1.24337E+04-4.85366E+04 8.24002E-10-1.55956E-09
 -1       572 1.97582E+05 2.86351E+03 6.09680E+03-5.33119E+04 6.03904E-10-2.87628E-09
 -1       573 1.96466E+05 6.66306E+02 2.70987E+03-4.84107E+04-5.01586E-10-3.92811E-09
 -1       574 1.96688E+05 2.11133E+02 1.35877E+03-5.34510E+04-6.01858E-10-4.06408E-09
 -1       575 1.96550E+05 2.27309E+01 6.41419E+02-4.83944E+04-5.49790E-10-1.51931E-09
 -1       576 1.96569E+05 1.83995E+00 3.27304E+02-5.34694E+04-2.71385E-10-3.18687E-09
 -1       577 1.96563E+05-1.03835E+01 1.62717E+02-4.83922E+04 1.17552E-10-2.27374E-10
 -1       578 1.96559E+05-8.62334E+00 9.15137E+01-5.34716E+04 4.52246E-10 1.19553E-09
 -1       579 1.96577E+05-1.29931E+01 6.11110E+01-4.83921E+04-3.41515E-10 1.84309E-09
 -1       580 1.96577E+05-1.54429E+01 6.55370E+01-5.34689E+04 3.56977E-10 1.82672E-09
 -1       581 1.96600E+05-2.01320E+01 9.83778E+01-4.83950E+04-2.73758E-10-5.81622E-10
 -1       582 1.96626E+05-2.72836E+00 1.94052E+02-5.34396E+04-4.74301E-10 2.99269E-09
 -1       583 1.96623E+05 4.99598E+01 3.77024E+02-4.84214E+04-1.46429E-10 3.90628E-10
 -1       584 1.96793E+05 3.44677E+02 8.46323E+02-5.32168E+04-1.14824E-09 3.04794E-09
 -1       585 1.96558E+05 1.09018E+03 1.72024E+03-4.86187E+04 7.17591E-10 1.71531E-09
 -1       586 4.57907E+02 8.60973E+04 1.15005E+03-1.22603E+05 7.73070E-12 1.18962E-09
 -1       587 4.21191E+02 8.63004E+04 1.78228E+03-1.36719E+05-1.52522E-09 2.18279E-09
 -1       588 7.44536E+02 8.59746E+04 3.23223E+03-1.22446E+05 2.27374E-11 3.76644E-10
 -1       589 3.09983E+03 8.73107E+04 7.10509E+03-1.36742E+05-1.55796E-09 1.46599E-09
 -1       590 8.99471E+03 8.50603E+04 1.43350E+04-1.22577E+05-3.63798E-12 2.19961E-09
 -1       591-9.04572E+04-2.68223E+04-1.86222E+04-4.33771E+04-4.76916E-10-3.49701E-09
 -1       592-9.17414E+04-2.61596E+04-9.39417E+03-4.83287E+04 4.29623E-10-2.00180E-09
 -1       593-9.14378E+04-2.17560E+04-3.98674E+03-4.59417E+04-2.02363E-10-1.35105E-09
 -1       594-8.96072E+04-2.38443E+04-1.95943E+03-4.84899E+04-4.54293E-10 3.81974E-10
 -1       595-9.15419E+04-2.16271E+04-9.04392E+02-4.60377E+04-7.70342E-10-8.62940E-10
 -1       596-8.94626E+04-2.37636E+04-4.57126E+02-4.84681E+04-3.57574E-10-1.54569E-09
 -1       597-9.15589E+04-2.16430E+04-2.45889E+02-4.60378E+04-3.83250E-09 1.17143E-09
 -1       598-8.94474E+04-2.37645E+04-1.91053E+02-4.84614E+04-1.08141E-08 2.68301E-10
 -1       599-9.15578E+04-2.16442E+04-2.35657E+02-4.60369E+04-3.81237E-09-2.06455E-10
 -1       600-8.94593E+04-2.37651E+04-4.30203E+02-4.84651E+04-1.13550E-09-7.98764E-10
 -1       601-9.15386E+04-2.16309E+04-8.46348E+02-4.60354E+04 1.63891E-09 6.36624E-09
 -1       602-8.95935E+04-2.38396E+04-1.83157E+03-4.84808E+04-1.29830E-10-1.25476E-09
 -1       603-9.14376E+04-2.17553E+04-3.72532E+03-4.59464E+04 2.26737E-09 7.39601E-09
 -1       604-9.16074E+04-2.59800E+04-8.77657E+03-4.83009E+04 1.76465E-09 7.38987E-09
 -1       605-9.04965E+04-2.65088E+04-1.73973E+04-4.35726E+04-4.33829E-10-1.08048E-09
 -1       606 6.53004E+04-7.68666E+03-1.23617E+04 2.03810E+04-3.93993E-09 7.89896E-10
 -1       607 6.33163E+04-2.56176E+03-6.09476E+03 2.24380E+04-1.52977E-09-1.01352E-09
 -1       608 6.44654E+04-5.23710E+02-2.71743E+03 2.02370E+04 1.69257E-09-2.65413E-09
 -1       609 6.42139E+04-1.44112E+02-1.36571E+03 2.25965E+04-2.27283E-09 2.04682E-09
 -1       610 6.43570E+04 9.59559E+00-6.46964E+02 2.02194E+04-4.70027E-09 3.64480E-10
 -1       611 6.43072E+04 2.78296E+01-3.25459E+02 2.26156E+04-5.79894E-09 1.12232E-09
 -1       612 6.43315E+04 3.28510E+01-1.53933E+02 2.02175E+04-1.05938E-08 1.53409E-09
 -1       613 6.43118E+04 3.51224E+01-6.84799E+01 2.26179E+04-2.41016E-08 8.31278E-10
 -1       614 6.43192E+04 3.12425E+01-1.49896E+01 2.02170E+04-1.04124E-08-9.45647E-10
 -1       615 6.43083E+04 3.70698E+01 3.15014E+01 2.26181E+04 3.37968E-09-2.94813E-09
 -1       616 6.43095E+04 3.55241E+01 9.19469E+01 2.02173E+04-3.38878E-09 3.69937E-10
 -1       617 6.43195E+04 6.53066E+01 2.10250E+02 2.26173E+04 4.55884E-10 2.36378E-09
 -1       618 6.42900E+04 1.20245E+02 4.25438E+02 2.02177E+04 3.27418E-10 3.44244E-10
 -1       619 6.44602E+04 4.46539E+02 9.58842E+02 2.26133E+04-2.20098E-10 9.29958E-10
 -1       620 6.41586E+04 1.24879E+03 1.94636E+03 2.02198E+04 1.47713E-09-1.95610E-09
 -1       621 6.77189E+02 1.98457E+05 2.43222E+03-1.41213E+04-1.11640E-10 4.14502E-10
 -1       622 3.05164E+02 1.98954E+05 2.44641E+03-1.74828E+04 3.95971E-10 1.43700E-09
 -1       623 1.56975E+02 1.98535E+05 3.48335E+03-1.41274E+04-4.66116E-11-1.16165E-09
 -1       624 1.75540E+03 2.00082E+05 7.07904E+03-1.74203E+04 3.29237E-10-1.17097E-09
 -1       625 4.86689E+03 1.97340E+05 1.33967E+04-1.41822E+04 9.86802E-11 1.08571E-09
 -1       626 1.18174E+05 3.79666E+04-2.32920E+03 7.49313E+04-7.11225E-10-3.31238E-09
 -1       627 1.15596E+05 4.10661E+04-1.10745E+03 7.71092E+04 1.51522E-09 9.42123E-10
 -1       628 1.18269E+05 3.90185E+04-4.65700E+02 7.42989E+04 2.70302E-09 8.57108E-09
 -1       629 1.15686E+05 4.16051E+04-2.21807E+02 7.71502E+04-4.60932E-09-2.57791E-09
 -1       630 1.18261E+05 3.90891E+04-9.54692E+01 7.42412E+04 1.00681E-09 1.75172E-09
 -1       631 1.15679E+05 4.16486E+04-3.65710E+01 7.71534E+04-1.94177E-09-6.32213E-10
 -1       632 1.18249E+05 3.90933E+04 3.74998E+00 7.42322E+04-7.48514E-10-1.01028E-08
 -1       633 1.15674E+05 4.16527E+04 4.54738E+01 7.71515E+04 1.27511E-09 1.13516E-09
 -1       634 1.18239E+05 3.90898E+04 1.10528E+02 7.42295E+04 9.11086E-10 3.52065E-09
 -1       635 1.15684E+05 4.16552E+04 2.47908E+02 7.71533E+04-1.62777E-09-5.54792E-10
 -1       636 1.18228E+05 3.90976E+04 5.13025E+02 7.42225E+04-1.38630E-09-9.11086E-10
 -1       637 1.15803E+05 4.17806E+04 1.14259E+03 7.71363E+04 5.26148E-09 3.98904E-09
 -1       638 1.18197E+05 3.94795E+04 2.36407E+03 7.40547E+04 6.25960E-10-3.68118E-09
 -1       639 1.17012E+05 4.38091E+04 5.61915E+03 7.66511E+04 2.30307E-09-3.07227E-09
 -1       640 1.18212E+05 4.53950E+04 1.18145E+04 7.15874E+04 3.43471E-09 7.14999E-09
 -1       641-1.58734E+04 2.41643E+03-5.57054E+03-2.28086E+01 1.59208E-05-1.62224E-08
 -1       642-1.82906E+04-2.79676E+03-3.94183E+03 9.85934E+00 3.18126E-05-3.00732E-08
 -1       643-1.68050E+04 3.79787E+02-1.43658E+03-2.52820E+01 2.93010E-05-3.40784E-08
 -1       644-1.72047E+04-4.38588E+02-8.95439E+02 1.42648E+01 2.67739E-05-2.72046E-08
 -1       645-1.69594E+04 5.87022E+01-3.46837E+02-2.72147E+01 1.76067E-05-1.92254E-08
 -1       646-1.70216E+04-6.29976E+01-1.70040E+02 1.67402E+01 8.42966E-06-8.37575E-09
 -1       647-1.69882E+04 4.26336E+00-1.15258E+01-2.77576E+01-4.36909E-06 6.52018E-09
 -1       648-1.69722E+04 2.66023E+01 1.27428E+02 1.62627E+01-1.71761E-05 1.54146E-08
 -1       649-1.70088E+04-3.08867E+01 3.00007E+02-2.67372E+01-3.16106E-05 3.92067E-08
 -1       650-1.68592E+04 2.38408E+02 7.32807E+02 1.26864E+01-4.60456E-05 4.82277E-08
 -1       651-1.71011E+04-2.07514E+02 1.27586E+03-2.41813E+01-5.91197E-05 6.62941E-08
 -1       652-1.62274E+04 1.53461E+03 3.16176E+03 5.98948E+00-7.21890E-05 6.97112E-08
 -1       653-1.76405E+04-1.32686E+03 5.03225E+03-2.00403E+01-7.62165E-05 7.33223E-08
 -1       654-1.24325E+04 9.76799E+03 1.37757E+04-5.21839E+00-8.02035E-05 6.48181E-08
 -1       655-2.08954E+04-8.43924E+03 1.94575E+04-1.29737E+01-4.01339E-05 3.23644E-08
 -1       656 7.46364E+03-2.79728E+05-3.17147E+04 7.56236E+03-2.00089E-10 1.15051E-10
 -1       657-1.08569E+04-2.91468E+05-2.35257E+04 3.23642E+04-1.93268E-09 2.07365E-09
 -1       658 1.53996E+03-2.83804E+05-1.53106E+04 7.49664E+03-1.14494E-09 9.52127E-10
 -1       659-1.06898E+04-2.91394E+05-2.32484E+04 3.24045E+04-9.54969E-11-3.35580E-09
 -1       660 7.34140E+03-2.79828E+05-3.11875E+04 7.52244E+03-1.65528E-10 2.15584E-09
 -1       661 1.73680E+05 2.41045E+04 1.37855E+04 6.81358E+04 3.67061E-09-1.39880E-09
 -1       662 1.76638E+05 3.21205E+04 8.30169E+03 7.01706E+04 5.60767E-10-1.74987E-09
 -1       663 1.75798E+05 2.61593E+04 3.23556E+03 6.81472E+04 3.11104E-10-6.89079E-09
 -1       664 1.74163E+05 2.87911E+04 1.70746E+03 7.05594E+04 4.98808E-09-7.17165E-10
 -1       665 1.76001E+05 2.63467E+04 7.55641E+02 6.81553E+04-8.57497E-10-9.79384E-10
 -1       666 1.73926E+05 2.85141E+04 4.02189E+02 7.05761E+04-4.66720E-10 5.57918E-11
 -1       667 1.76024E+05 2.63652E+04 2.34202E+02 6.81570E+04-1.18781E-09 2.90116E-09
 -1       668 1.73905E+05 2.84954E+04 2.24983E+02 7.05773E+04 5.62608E-11 2.79044E-10
 -1       669 1.76022E+05 2.63621E+04 3.28342E+02 6.81556E+04-4.03787E-09-4.64598E-09
 -1       670 1.73947E+05 2.85363E+04 6.56798E+02 7.05839E+04 1.15642E-09-2.98292E-09
 -1       671 1.75984E+05 2.63269E+04 1.28540E+03 6.81504E+04 5.75653E-10 3.02509E-09
 -1       672 1.74354E+05 2.90178E+04 2.93560E+03 7.05607E+04 6.76442E-09 4.25570E-09
 -1       673 1.75635E+05 2.60015E+04 5.57376E+03 6.81346E+04 2.00038E-09-9.58607E-10
 -1       674 1.78621E+05 3.47612E+04 1.43111E+04 6.98947E+04 9.46550E-09 5.38375E-09
 -1       675 1.71985E+05 2.24574E+04 2.37658E+04 6.81138E+04 2.79556E-09 3.55612E-10
 -1       676 2.92228E+02-2.49885E+05-2.01697E+03-2.91207E+02-2.98343E-09 5.95403E-09
 -1       677-8.39038E+02-2.50679E+05-3.02880E+03-1.53996E+03-4.90081E-09 2.08309E-09
 -1       678 3.88551E+02-2.49781E+05-4.58936E+03-2.92586E+02-1.82672E-09 5.37003E-09
 -1       679-5.12579E+03-2.53278E+05-1.08257E+04-1.53377E+03-6.27176E-09-1.24120E-09
 -1       680 3.63284E+03-2.47286E+05-1.68653E+04-2.98076E+02-5.34874E-09 1.78289E-10
 -1       716-2.22144E-01-1.05911E-01 9.93998E+00-3.16095E-04-3.71899E-10-1.24589E-09
 -1       717 1.09394E+00 7.97769E-01 1.75062E+01 8.04714E-04 3.02889E-09 3.70275E-10
 -1       718-8.71812E-01-6.92154E-01 3.24867E+01-4.88438E-04 6.02254E-09-1.71010E-09
 -1       719 5.16549E+00 5.43408E+00 6.73833E+01-7.29879E-04 1.35121E-09-6.20481E-10
 -1       720-4.29375E+00-4.74251E+00 1.28518E+02 1.21925E-03-3.41824E-09-1.43454E-09
 -1       721 2.67347E+01 3.62075E+01 2.74667E+02-2.57413E-02-3.60516E-09-2.04981E-10
 -1       722-2.24410E+01-3.14644E+01 5.14084E+02 2.45196E-02-3.94121E-09-1.63288E-09
 -1       723 1.45354E+02 2.36256E+02 1.13235E+03-2.47015E-01-8.79883E-10-1.18155E-09
 -1       724-1.22910E+02-2.04768E+02 2.05049E+03 2.22439E-01-5.05731E-09-2.48622E-09
 -1       725 8.23319E+02 1.52240E+03 4.72578E+03-1.89965E+00-1.34612E-09-1.43478E-09
 -1       726-7.00329E+02-1.31738E+03 8.13073E+03 1.67676E+00-3.20614E-09-1.73077E-09
 -1       727 4.81759E+03 9.73508E+03 2.00722E+04-1.33626E+01-6.24462E-09 1.83718E-10
 -1       728-4.11581E+03-8.41572E+03 3.19339E+04 1.16845E+01-6.46548E-10-9.89530E-10
 -1       729 2.88810E+04 6.19561E+04 8.73830E+04-8.98773E+01 6.55444E-10-1.12777E-09
 -1       730-2.47407E+04-5.35227E+04 1.23480E+05 7.82111E+01 2.54882E-09-1.54978E-09
 -1       766-5.35345E+04-2.47785E+04 1.23456E+05-7.18485E+01-4.22006E-10-2.64322E-11
 -1       767 6.20453E+04 2.89458E+04 8.73780E+04 3.92828E+01 4.03543E-09-7.93456E-10
 -1       768-8.49331E+03-4.18648E+03 3.18283E+04 2.99984E+00 1.14596E-10 3.90035E-10
 -1       769 1.03026E+04 5.09047E+03 2.00814E+04-4.54850E+01 3.40515E-09 2.97882E-09
 -1       770-1.80711E+03-9.46043E+02 7.66793E+03 1.29357E+01-7.86713E-11 1.49655E-09
 -1       771-1.55416E+06-2.97521E+05-4.32720E+04-6.65026E+05-2.62662E-09-5.09317E-11
 -1       772-1.54754E+06-3.05130E+05-2.17784E+04-6.87059E+05-4.58749E-09-5.95173E-09
 -1       773-1.55725E+06-2.85134E+05-9.30879E+03-6.70641E+05 3.08137E-09 9.00945E-09
 -1       774-1.54246E+06-3.00212E+05-4.55093E+03-6.88436E+05 1.88811E-09 7.16682E-10
 -1       775-1.55791E+06-2.84539E+05-2.13876E+03-6.70973E+05 3.40879E-09 6.60657E-09
 -1       776-1.54236E+06-3.00012E+05-1.06676E+03-6.88801E+05-1.01682E-09 5.60249E-10
 -1       777-1.55826E+06-2.84376E+05-5.93180E+02-6.71091E+05-3.52884E-10-2.04182E-10
 -1       778-1.54251E+06-2.99970E+05-4.42853E+02-6.89063E+05-3.30147E-10 7.02016E-10
 -1       779-1.55847E+06-2.84240E+05-5.55447E+02-6.71174E+05-7.91260E-10-3.41061E-12
 -1       780-1.54267E+06-2.99945E+05-9.97418E+02-6.89248E+05-1.78625E-09-1.74532E-09
 -1       781-1.55854E+06-2.84129E+05-1.97063E+03-6.71218E+05-5.49335E-10-1.33241E-10
 -1       782-1.54304E+06-3.00105E+05-4.26738E+03-6.89358E+05 1.55387E-09 1.97542E-09
 -1       783-1.55833E+06-2.84406E+05-8.69161E+03-6.71024E+05 1.54051E-09 6.84122E-09
 -1       784-1.54778E+06-3.05076E+05-2.04983E+04-6.88874E+05-1.57615E-09-9.47693E-10
 -1       785-1.55604E+06-2.95580E+05-4.06518E+04-6.65506E+05 5.37966E-10 5.00222E-10
 -1       786 1.56537E+05-5.16832E+03 1.89454E+04-7.25791E+02-2.63753E-11 1.26420E-10
 -1       787 1.63632E+05 6.58340E+03 1.23765E+04-4.27109E+03 2.09866E-10-3.84944E-10
 -1       788 1.59464E+05-5.78128E+02 4.91940E+03-7.24869E+02-6.25846E-11-3.59705E-10
 -1       789 1.60344E+05 7.18488E+02 2.79851E+03-4.26785E+03 1.19172E-10 1.25601E-09
 -1       790 1.59823E+05-6.60217E+01 1.25301E+03-7.28851E+02 1.33440E-10-1.66028E-09
 -1       791 1.59936E+05 7.78281E+01 6.80684E+02-4.26237E+03-4.93230E-10-6.12260E-10
 -1       792 1.59871E+05-8.26889E+00 3.45940E+02-7.30342E+02 4.19899E-10-1.74938E-09
 -1       793 1.59883E+05 1.15384E+01 2.32578E+02-4.26223E+03-3.03423E-10-4.15994E-09
 -1       794 1.59875E+05-4.57868E+00 2.15318E+02-7.28990E+02-3.27873E-10-5.03654E-10
 -1       795 1.59900E+05 3.45019E+01 3.32754E+02-4.26796E+03-1.92699E-10 3.50923E-09
 -1       796 1.59855E+05-2.96979E+01 5.69024E+02-7.24615E+02-2.18319E-09 4.02324E-10
 -1       797 1.60081E+05 3.16407E+02 1.24456E+03-4.27843E+03-6.25272E-09-1.45953E-09
 -1       798 1.59697E+05-2.56314E+02 2.17713E+03-7.18523E+02-2.52624E-09 1.28921E-10
 -1       799 1.61536E+05 2.90721E+03 5.47079E+03-4.28409E+03-8.89941E-10-4.65434E-10
 -1       800 1.58404E+05-2.28526E+03 8.37095E+03-7.19074E+02-6.85418E-10-1.25738E-09
 -1       801-1.04548E+04 2.14145E+05 2.82445E+04-1.61989E+05 8.56471E-09-8.51287E-09
 -1       802 2.59876E+04 2.23101E+05 3.75815E+04-9.28501E+05 2.52185E-08-4.09000E-09
 -1       803-2.33705E+03 2.13280E+05 4.47104E+04-1.61653E+05 1.60326E-08 8.18602E-09
 -1       804 6.45452E+04 2.45328E+05 1.01582E+05-9.28425E+05 2.60043E-08 9.48512E-09
 -1       805-4.43678E+04 1.92522E+05 1.46839E+05-1.62079E+05 8.01811E-09 9.62609E-09
 -1       806-1.35536E+05-4.13542E+04-1.22934E+04-6.90474E+04 6.51141E-10 3.27418E-11
 -1       807-1.35121E+05-3.88678E+04-5.84615E+03-7.33726E+04-6.73936E-10-9.34904E-10
 -1       808-1.35519E+05-3.52066E+04-2.46031E+03-7.16357E+04-4.26780E-10-3.20506E-09
 -1       809-1.33890E+05-3.67364E+04-1.18957E+03-7.38661E+04 1.34708E-09-9.97488E-10
 -1       810-1.35555E+05-3.48070E+04-5.37004E+02-7.18157E+04 2.50589E-09 2.90947E-09
 -1       811-1.33772E+05-3.66030E+04-2.65169E+02-7.38843E+04 1.19553E-09 1.18212E-09
 -1       812-1.35566E+05-3.47985E+04-1.30708E+02-7.18228E+04 2.45267E-09 5.55383E-09
 -1       813-1.33758E+05-3.66012E+04-8.11318E+01-7.38799E+04-5.92536E-10-2.45723E-09
 -1       814-1.35565E+05-3.48028E+04-7.37171E+01-7.18208E+04-9.98170E-11-3.13435E-09
 -1       815-1.33760E+05-3.66050E+04-1.13859E+02-7.38767E+04-5.73095E-10-3.92095E-09
 -1       816-1.35556E+05-3.48103E+04-2.12419E+02-7.18155E+04 1.46611E-09 7.74980E-09
 -1       817-1.33806E+05-3.66522E+04-4.61670E+02-7.38575E+04 1.23600E-09-6.97128E-10
 -1       818-1.35531E+05-3.49746E+04-9.50939E+02-7.17498E+04-1.14505E-09 1.59025E-09
 -1       819-1.34333E+05-3.74181E+04-2.25640E+03-7.35949E+04 3.43789E-10 1.02762E-08
 -1       820-1.35476E+05-3.73994E+04-4.74369E+03-7.08069E+04-5.32964E-10 2.31262E-09
 -1       821-1.86417E+05 6.41133E+03-2.35104E+04 8.55417E+02-2.12844E-09-1.42791E-09
 -1       822-1.95214E+05-8.16914E+03-1.53587E+04 5.25474E+03-1.23538E-09-2.21189E-09
 -1       823-1.90051E+05 7.15984E+02-6.10754E+03 8.20566E+02 2.14175E-09-2.01931E-09
 -1       824-1.91141E+05-8.86926E+02-3.47707E+03 5.30451E+03-9.69521E-10-1.54853E-09
 -1       825-1.90496E+05 8.20009E+01-1.56575E+03 8.05361E+02-4.38092E-09 3.40719E-10
 -1       826-1.90642E+05-8.99148E+01-8.66241E+02 5.32939E+03-6.81538E-09 1.38223E-09
 -1       827-1.90555E+05 1.17614E+01-4.72597E+02 7.95613E+02-4.51894E-09 3.90486E-10
 -1       828-1.90585E+05-1.06590E+01-3.78420E+02 5.34459E+03-4.05433E-09-1.86557E-09
 -1       829-1.90556E+05 1.12927E+01-4.41179E+02 7.90152E+02-1.14389E-09 6.14484E-10
 -1       830-1.90637E+05-7.81116E+01-7.83216E+02 5.35065E+03 3.30948E-09-5.35707E-10
 -1       831-1.90504E+05 7.45507E+01-1.40164E+03 7.89558E+02-1.95840E-09-4.19681E-09
 -1       832-1.91086E+05-7.87906E+02-3.10578E+03 5.34695E+03-3.56664E-10-1.74617E-09
 -1       833-1.90107E+05 6.41058E+02-5.45080E+03 7.93919E+02-1.20900E-09-2.98360E-09
 -1       834-1.94723E+05-7.28577E+03-1.37075E+04 5.32669E+03-4.86040E-10-1.73327E-09
 -1       835-1.86865E+05 5.72457E+03-2.09803E+04 8.10386E+02 7.17023E-10-2.18188E-09
 -1       836-2.09641E+03 2.96410E+05 2.36729E+04-1.69750E+04-2.84308E-09 2.38742E-10
 -1       837 5.55391E+03 3.03968E+05 1.81904E+04-3.67879E+04-2.36690E-09 3.22234E-09
 -1       838-5.15139E+02 2.98910E+05 1.54886E+04-1.69281E+04-3.30328E-09 5.32208E-09
 -1       839 9.31365E+03 3.06670E+05 2.66793E+04-3.67890E+04-2.58433E-09 4.22142E-09
 -1       840-3.78440E+03 2.93705E+05 4.07555E+04-1.69731E+04-2.87946E-09 4.68617E-09
 -1       841 5.29274E+04 7.68880E+03-6.42113E+02 1.97302E+04-1.88905E-05 7.08838E-06
 -1       842 5.25005E+04 7.19769E+03-4.42294E+02 1.99561E+04-3.77596E-05 1.41911E-05
 -1       843 5.27823E+04 7.47767E+03-1.48053E+02 1.97969E+04-2.95228E-05 1.10891E-05
 -1       844 5.26752E+04 7.43639E+03-8.78389E+01 1.98716E+04-2.12536E-05 7.99378E-06
 -1       845 5.27527E+04 7.45015E+03-2.36550E+01 1.98146E+04-1.48420E-05 5.57592E-06
 -1       846 5.27151E+04 7.46890E+03 5.72905E+00 1.98472E+04-8.43200E-06 3.17005E-06
 -1       847 5.27423E+04 7.44517E+03 4.10854E+01 1.98214E+04-5.16605E-06 1.93786E-06
 -1       848 5.27430E+04 7.49754E+03 1.13306E+02 1.98351E+04-1.89716E-06 7.14170E-07
 -1       849 5.27248E+04 7.42152E+03 2.12749E+02 1.98267E+04-5.16981E-07 1.94503E-07
 -1       850 5.28531E+04 7.67620E+03 5.39937E+02 1.98049E+04 8.64086E-07-3.27650E-07
 -1       851 5.26322E+04 7.26653E+03 9.33013E+02 1.98515E+04 9.45051E-07-3.55758E-07
 -1       852 5.35133E+04 8.81224E+03 2.51969E+03 1.96069E+04 1.02529E-06-3.83277E-07
 -1       853 5.20646E+04 6.28563E+03 4.02958E+03 2.00246E+04-1.91075E-07 7.62104E-08
 -1       854 5.75876E+04 1.60032E+04 1.19488E+04 1.82696E+04-1.41416E-06 5.31544E-07
 -1       855 4.85581E+04 7.67742E+01 1.71988E+04 2.11884E+04-7.04948E-07 2.66478E-07
 -1       856-1.48265E+05 2.24186E+03-1.78552E+04 5.36701E+03-3.67709E-09-5.68434E-10
 -1       857-1.54101E+05-4.31090E+03-1.09053E+04 1.28588E+04-4.38422E-09-9.82027E-10
 -1       858-1.50787E+05 2.07192E+02-4.58440E+03 5.30910E+03-4.41878E-09-4.14047E-10
 -1       859-1.51363E+05-3.01621E+02-2.46671E+03 1.29244E+04 5.88898E-10 1.01824E-09
 -1       860-1.51027E+05 3.28574E+01-1.15735E+03 5.30029E+03 9.79981E-10-1.40187E-09
 -1       861-1.51108E+05 5.02390E+00-6.08621E+02 1.29359E+04-3.16612E-09-1.51113E-09
 -1       862-1.51058E+05 1.60836E+01-3.17453E+02 5.29741E+03 4.12001E-09-3.39969E-09
 -1       863-1.51080E+05 2.81090E+01-2.09676E+02 1.29391E+04 1.19442E-08-3.59694E-09
 -1       864-1.51061E+05 1.46667E+01-1.96775E+02 5.29713E+03 7.68034E-09-2.27462E-09
 -1       865-1.51086E+05 1.87583E+01-2.96338E+02 1.29365E+04 5.43889E-09-5.07697E-10
 -1       866-1.51047E+05 2.07036E+01-5.22760E+02 5.29998E+03-2.45450E-09-1.68578E-09
 -1       867-1.51194E+05-1.17702E+02-1.09055E+03 1.29264E+04 2.45063E-09-8.30148E-10
 -1       868-1.50940E+05 9.51460E+01-2.01787E+03 5.30733E+03 4.19504E-09-1.11993E-09
 -1       869-1.52389E+05-1.88163E+03-4.79154E+03 1.28643E+04-5.23687E-09-2.79675E-09
 -1       870-1.49829E+05 9.85452E+02-7.84544E+03 5.36267E+03 2.03454E-09-2.24372E-09
 -1       871-2.67426E+03-2.37374E+04-6.07990E+03 8.14968E+04 3.82897E-10 9.11677E-09
 -1       872-9.31780E+02-2.49554E+04-2.01695E+03 9.93915E+04-1.37743E-09 1.48459E-08
 -1       873-1.06239E+01-2.44629E+04 1.31108E+03 8.13309E+04 2.00271E-09 1.08150E-08
 -1       874 1.53570E+03-2.31606E+04 5.60281E+03 9.94440E+04-6.36192E-10 9.71841E-09
 -1       875 4.69753E+03-2.55867E+04 1.20521E+04 8.14508E+04 1.95996E-09 3.34603E-09
 -1       876 2.32232E+05 3.33264E+04 2.05338E+04 9.21614E+04 3.76224E-09 7.42148E-10
 -1       877 2.36059E+05 4.46657E+04 1.22038E+04 9.57975E+04 1.89902E-09-4.99972E-09
 -1       878 2.35272E+05 3.58879E+04 4.80391E+03 9.23298E+04 1.85048E-09 1.32627E-09
 -1       879 2.32472E+05 4.00050E+04 2.50890E+03 9.63006E+04 1.18189E-09 1.88254E-09
 -1       880 2.35545E+05 3.61200E+04 1.11524E+03 9.23554E+04 4.73221E-09 1.95098E-09
 -1       881 2.32149E+05 3.96379E+04 5.83102E+02 9.63062E+04-9.71795E-10-5.91734E-09
 -1       882 2.35572E+05 3.61474E+04 3.25729E+02 9.23615E+04 2.34655E-09-2.40633E-09
 -1       883 2.32122E+05 3.96089E+04 2.86600E+02 9.62984E+04-9.44857E-09 6.71974E-10
 -1       884 2.35569E+05 3.61476E+04 3.92926E+02 9.23621E+04-3.76339E-09 2.38742E-11
 -1       885 2.32167E+05 3.96451E+04 7.63532E+02 9.63023E+04 2.36308E-09 4.10981E-09
 -1       886 2.35528E+05 3.61143E+04 1.49319E+03 9.23565E+04-1.97184E-09-6.23072E-09
 -1       887 2.32606E+05 4.01359E+04 3.37687E+03 9.62869E+04-2.32359E-09 1.75226E-09
 -1       888 2.35154E+05 3.58047E+04 6.47326E+03 9.23235E+04-7.26618E-09 4.77485E-10
 -1       889 2.37432E+05 4.64276E+04 1.64487E+04 9.56157E+04 7.75031E-09 2.27033E-09
 -1       890 2.31065E+05 3.23429E+04 2.76779E+04 9.20830E+04 9.27230E-10-2.76486E-10
 -1       891 3.58381E+02-1.10136E+05-4.42256E+03 2.47649E+04 1.66165E-09 1.40062E-09
 -1       892-1.08249E+03-1.11518E+05-3.31158E+03 5.38688E+04 2.72280E-09 4.32271E-09
 -1       893 6.70322E+01-1.10632E+05-2.69422E+03 2.46954E+04 4.72482E-09 4.91349E-09
 -1       894-1.61140E+03-1.11881E+05-4.49335E+03 5.38502E+04 2.54431E-10 3.35865E-09
 -1       895 5.83628E+02-1.09749E+05-6.80308E+03 2.47832E+04 3.20824E-09 4.68253E-09
 -1       926-3.62358E+02-6.94641E+02 1.59436E+03 2.22062E+01 5.09797E-10-7.11111E-10
 -1       927 4.17825E+02 8.04376E+02 1.15600E+03-8.76252E+01-2.01033E-09-9.78105E-10
 -1       928-8.46938E+01-1.09803E+02 4.40632E+02 2.16394E+01 4.90950E-11-4.58755E-10
 -1       929 9.08337E+01 1.31488E+02 3.33926E+02-8.70309E+01 1.21437E-09-5.25890E-10
 -1       930-3.54879E+01-2.17994E+01 2.33256E+02 2.16118E+01 4.45688E-11-2.38239E-10
 -1       931 4.63039E+01 5.62895E+01 3.43977E+02-8.69977E+01-1.72794E-10-1.74389E-10
 -1       932-4.02575E+01-3.45539E+01 5.48502E+02 2.16061E+01 5.25522E-11-7.31291E-11
 -1       933 1.47928E+02 2.43249E+02 1.16855E+03-8.69725E+01-7.88248E-10 6.05240E-11
 -1       934-1.37174E+02-2.08692E+02 2.09317E+03 2.15866E+01-1.00499E-06-4.42242E-11
 -1       935 8.30452E+02 1.54968E+03 4.81360E+03-8.68478E+01-2.00875E-06-9.36211E-11
 -1       936-7.22740E+02-1.34074E+03 8.27684E+03 2.14814E+01-9.54318E-07-1.04592E-11
 -1       937 4.89382E+03 9.90808E+03 2.04296E+04-8.65405E+01 1.04227E-07 3.27645E-10
 -1       938-4.19912E+03-8.56522E+03 3.25017E+04 2.12795E+01 1.79194E-07-4.91127E-11
 -1       939 2.93880E+04 6.30579E+04 8.89367E+04-9.07156E+01 2.46019E-07 7.27596E-11
 -1       940-2.51930E+04-5.44748E+04 1.25673E+05 2.56552E+01 1.19475E-07 6.25732E-10
 -1       956-2.09934E+05-3.87209E+03-9.02320E+03 2.56995E+04-2.52567E-09 2.45109E-10
 -1       957-2.11668E+05-1.25969E+03-4.59906E+03 3.04818E+04 7.34872E-10-3.28009E-09
 -1       958-2.10718E+05-1.14377E+02-2.07135E+03 2.55436E+04 3.40606E-09-4.31623E-09
 -1       959-2.10871E+05-9.02709E+00-1.05563E+03 3.06517E+04-1.59935E-09-4.01087E-10
 -1       960-2.10800E+05 4.15672E+01-5.13136E+02 2.55283E+04-3.49246E-10-1.65528E-09
 -1       961-2.10819E+05 4.62886E+01-2.69503E+02 3.06688E+04-6.81439E-10-2.77487E-09
 -1       962-2.10821E+05 4.27602E+01-1.49636E+02 2.55263E+04-2.68301E-10-6.75072E-10
 -1       963-2.10822E+05 5.03658E+01-1.11761E+02 3.06715E+04-3.96221E-09 2.67460E-09
 -1       964-2.10828E+05 4.56976E+01-1.25591E+02 2.55256E+04 1.63220E-09-9.39508E-10
 -1       965-2.10831E+05 5.33330E+01-2.08669E+02 3.06713E+04 6.07586E-09 1.51977E-09
 -1       966-2.10822E+05 5.02617E+01-3.87178E+02 2.55265E+04-1.91892E-09-2.81057E-09
 -1       967-2.10879E+05 1.72833E+01-7.92482E+02 3.06613E+04-1.67415E-09-1.81899E-11
 -1       968-2.10768E+05-6.19181E+01-1.55213E+03 2.55357E+04-9.69976E-10-2.57126E-09
 -1       969-2.11485E+05-9.16254E+02-3.44706E+03 3.05565E+04-1.14596E-09 4.38661E-10
 -1       970-2.10185E+05-2.87628E+03-6.76188E+03 2.56334E+04-6.13909E-10-7.39419E-10
 -1       971-2.68192E+05 7.59934E+02-1.17881E+04 7.02425E+03-2.19552E-09-1.95723E-09
 -1       972-2.71815E+05-2.44564E+03-7.01737E+03 1.42222E+04-4.19641E-09-1.36788E-09
 -1       973-2.69791E+05 8.24129E+01-3.00685E+03 6.94376E+03-2.50657E-09-2.10912E-09
 -1       974-2.70108E+05-1.33207E+02-1.59953E+03 1.43149E+04 4.97153E-09-4.67378E-09
 -1       975-2.69932E+05 2.33739E+01-7.72058E+02 6.93067E+03 5.78848E-09-2.07331E-09
 -1       976-2.69970E+05 2.09460E+01-4.27689E+02 1.43333E+04-2.63617E-09-1.90789E-09
 -1       977-2.69951E+05 1.84945E+01-2.72027E+02 6.92521E+03 3.37036E-09-3.31522E-09
 -1       978-2.69963E+05 3.20819E+01-2.69120E+02 1.43406E+04 1.37918E-08-1.36697E-09
 -1       979-2.69950E+05 2.12710E+01-3.89386E+02 6.92333E+03 6.11222E-09-2.24156E-09
 -1       980-2.69995E+05 1.61287E+01-7.30556E+02 1.43405E+04 4.83996E-09-1.56341E-09
 -1       981-2.69919E+05 3.67294E+01-1.39066E+03 6.92535E+03-1.28011E-10-1.11545E-09
 -1       982-2.70267E+05-2.59599E+02-2.92754E+03 1.43309E+04-6.82007E-10-1.41431E-09
 -1       983-2.69668E+05 1.52989E+02-5.51922E+03 6.93313E+03 4.61114E-09-3.89946E-10
 -1       984-2.73428E+05-4.50320E+03-1.29017E+04 1.42636E+04-2.99246E-09-3.39242E-10
 -1       985-2.66738E+05 1.40883E+03-2.16697E+04 6.99491E+03 4.99585E-09-1.53341E-09
 -3
    1PSTEP                        21          11           1          
  100CL  111 5.09888E-01         608                     0   11           1
 -4  DISP        4    1
 -5  D1          1    2    1    0
 -5  D2          1    2    2    0
 -5  D3          1    2    3    0
 -5  ALL         1    2    0    0    1ALL
 -1         1 8.19624E-05 0.00000E+00 0.00000E+00
 -1         2 6.73077E-05 0.00000E+00 0.00000E+00
 -1         3 4.94333E-05 0.00000E+00 0.00000E+00
 -1         4 4.44603E-05 0.00000E+00 0.00000E+00
 -1         5 4.16932E-05 0.00000E+00 0.00000E+00
 -1         8 6.56834E-05-7.67859E-07 0.00000E+00
 -1         9 4.79829E-05-4.16198E-07 0.00000E+00
 -1        10 5.02631E-05-1.57240E-06 0.00000E+00
 -1        11 4.55212E-05-2.63300E-07 0.00000E+00
 -1        12 4.08314E-05 6.33155E-07 0.00000E+00
 -1        15 4.80277E-05-8.15244E-07-2.06795E-25
 -1        16 3.93478E-05-5.09437E-07 0.00000E+00
 -1        17 3.70218E-05-3.25093E-06 0.00000E+00
 -1        18 3.72718E-05-5.02429E-07 0.00000E+00
 -1        19 3.84317E-05 1.25917E-06 0.00000E+00
 -1        20 3.88116E-05 1.49899E-05 0.00000E+00
 -1        21 3.86980E-05 3.28446E-05 0.00000E+00
 -1        23 1.40570E-05-5.19953E-05 4.03897E-28
 -1        24 1.39504E-05-3.92747E-06 0.00000E+00
 -1        25 3.47539E-05-3.16088E-07 0.00000E+00
 -1        26 3.56939E-05 1.69585E-06 0.00000E+00
 -1        27 3.45705E-05 1.43715E-05 0.00000E+00
 -1        28 3.36715E-05 3.22909E-05 0.00000E+00
 -1        31 4.09103E-08-3.98035E-06 0.00000E+00
 -1        32 0.00000E+00 0.00000E+00 0.00000E+00
 -1        33 3.26090E-05 2.34380E-06 0.00000E+00
 -1        34 3.13580E-05 1.43143E-05 0.00000E+00
 -1        35 2.97555E-05 3.20462E-05 0.00000E+00
 -1        36 8.10744E-05 9.64910E-20 0.00000E+00
 -1        37 8.01580E-05 2.19211E-19 0.00000E+00
 -1        38 7.92435E-05 3.03820E-19-2.64698E-23
 -1        39 7.83237E-05 2.85425E-19 1.32349E-23
 -1        40 7.74036E-05 1.63136E-19 2.64698E-23
 -1        41 7.64825E-05 3.02242E-19 0.00000E+00
 -1        42 7.55613E-05 3.22965E-19 0.00000E+00
 -1        43 7.46399E-05 3.98048E-19-1.32349E-23
 -1        44 7.37185E-05 2.43748E-19 2.64698E-23
 -1        45 7.27972E-05 1.21342E-19 0.00000E+00
 -1        46 7.18760E-05 5.66662E-20 0.00000E+00
 -1        47 7.09557E-05 4.51743E-19 0.00000E+00
 -1        48 7.00355E-05 4.47258E-19 0.00000E+00
 -1        49 6.91196E-05 2.25973E-19 0.00000E+00
 -1        50 6.82023E-05 1.44455E-19-2.64698E-23
 -1        51 8.07531E-05-1.28176E-07 0.00000E+00
 -1        52 7.87260E-05-2.52504E-07 0.00000E+00
 -1        53 7.60394E-05-3.76754E-07 0.00000E+00
 -1        54 7.28590E-05-5.02405E-07 3.30872E-24
 -1        55 6.93513E-05-6.30841E-07-4.54949E-24
 -1        56 8.06933E-05-2.06569E-06 0.00000E+00
 -1        57 8.03543E-05-6.83912E-06 0.00000E+00
 -1        58 8.07231E-05-1.35138E-05-5.29396E-23
 -1        59 8.14502E-05-2.11994E-05-2.64698E-23
 -1        60 8.21344E-05-2.87689E-05 0.00000E+00
 -1        61 8.23630E-05-3.51077E-05 0.00000E+00
 -1        62 8.18258E-05-3.93783E-05 0.00000E+00
 -1        63 8.02521E-05-4.08683E-05 0.00000E+00
 -1        64 7.76009E-05-3.94905E-05 0.00000E+00
 -1        65 7.38955E-05-3.53285E-05 0.00000E+00
 -1        66 6.93983E-05-2.90897E-05 0.00000E+00
 -1        67 6.44254E-05-2.16030E-05-2.64698E-23
 -1        68 5.93993E-05-1.39775E-05 0.00000E+00
 -1        69 5.47599E-05-7.32504E-06 0.00000E+00
 -1        70 5.08329E-05-2.55100E-06 2.64698E-23
 -1        86 6.62246E-05-7.28621E-08 0.00000E+00
 -1        87 6.30552E-05-1.38182E-07 0.00000E+00
 -1        88 5.87203E-05-2.08320E-07 3.30872E-24
 -1        89 5.41431E-05-2.78783E-07 0.00000E+00
 -1        90 5.02543E-05-3.45946E-07 0.00000E+00
 -1        91 6.63308E-05-2.62395E-07-2.64698E-23
 -1        92 6.52594E-05-3.49183E-07 0.00000E+00
 -1        93 6.41689E-05-3.79744E-07 0.00000E+00
 -1        94 6.31025E-05-4.88379E-07 0.00000E+00
 -1        95 6.20469E-05-6.26045E-07 0.00000E+00
 -1        96 6.09831E-05-7.44405E-07-1.32349E-23
 -1        97 5.99133E-05-8.46694E-07 2.64698E-23
 -1        98 5.88389E-05-9.37223E-07 0.00000E+00
 -1        99 5.77702E-05-1.04314E-06 0.00000E+00
 -1       100 5.67175E-05-1.19090E-06 0.00000E+00
 -1       101 5.56545E-05-1.31120E-06 2.64698E-23
 -1       102 5.45566E-05-1.33552E-06 0.00000E+00
 -1       103 5.34802E-05-1.41704E-06 0.00000E+00
 -1       104 5.24868E-05-1.70419E-06-1.32349E-23
 -1       105 5.14451E-05-1.86832E-06-2.64698E-23
 -1       106 4.91238E-05-1.52702E-19 0.00000E+00
 -1       107 4.88125E-05-7.71660E-20 3.30872E-24
 -1       108 4.85013E-05 4.03478E-21 0.00000E+00
 -1       109 4.81897E-05 2.18395E-19 0.00000E+00
 -1       110 4.78782E-05 2.30548E-19 0.00000E+00
 -1       111 4.75665E-05 3.40062E-19-6.61744E-24
 -1       112 4.72549E-05 5.51362E-19-1.32349E-23
 -1       113 4.69432E-05 2.30959E-19-6.61744E-24
 -1       114 4.66316E-05-1.17191E-19 0.00000E+00
 -1       115 4.63199E-05 8.08414E-20 3.30872E-24
 -1       116 4.60084E-05 4.37306E-19 0.00000E+00
 -1       117 4.56970E-05 6.77006E-19-3.30872E-24
 -1       118 4.53857E-05 7.88711E-19-6.61744E-24
 -1       119 4.50755E-05 8.16568E-19 0.00000E+00
 -1       120 4.47649E-05 3.28774E-19 0.00000E+00
 -1       121 4.96282E-05-2.61961E-07 6.61744E-24
 -1       122 5.00460E-05-5.23884E-07 0.00000E+00
 -1       123 5.05025E-05-7.85839E-07 6.61744E-24
 -1       124 5.08133E-05-1.04782E-06 0.00000E+00
 -1       125 5.07944E-05-1.30976E-06-6.61744E-24
 -1       141 4.42866E-05 1.11670E-18 0.00000E+00
 -1       142 4.41124E-05 4.10657E-18-3.30872E-24
 -1       143 4.39383E-05 7.13372E-18-6.61744E-24
 -1       144 4.37641E-05 8.00250E-18 3.30872E-24
 -1       145 4.35899E-05 6.79931E-18 6.61744E-24
 -1       146 4.34157E-05 3.62881E-18-3.30872E-24
 -1       147 4.32414E-05 8.02841E-19 6.61744E-24
 -1       148 4.30672E-05 1.06253E-19-3.30872E-24
 -1       149 4.28930E-05 1.28877E-18 0.00000E+00
 -1       150 4.27189E-05 4.50620E-18 0.00000E+00
 -1       151 4.25449E-05 7.62426E-18 0.00000E+00
 -1       152 4.23713E-05 8.35656E-18-3.30872E-24
 -1       153 4.21977E-05 7.02968E-18 0.00000E+00
 -1       154 4.20263E-05 3.93693E-18 0.00000E+00
 -1       155 4.18542E-05 9.56137E-19 0.00000E+00
 -1       156 4.61706E-05-3.34091E-08 0.00000E+00
 -1       157 5.12833E-05-7.24411E-08 0.00000E+00
 -1       158 5.66592E-05-1.13123E-07 1.65436E-24
 -1       159 5.91590E-05-1.42538E-07-8.27181E-25
 -1       160 5.62789E-05-1.74960E-07 0.00000E+00
 -1       161 4.57647E-05-3.95965E-06 6.61744E-24
 -1       162 4.99272E-05-1.57140E-05-1.65436E-24
 -1       163 5.40774E-05-2.74351E-05 0.00000E+00
 -1       164 5.53459E-05-3.12947E-05-1.65436E-24
 -1       165 5.36665E-05-2.72961E-05 3.30872E-24
 -1       166 4.89935E-05-1.54964E-05 0.00000E+00
 -1       167 4.43165E-05-3.68655E-06 3.30872E-24
 -1       168 4.26255E-05 3.42744E-07-1.65436E-24
 -1       169 4.38831E-05-3.48716E-06 0.00000E+00
 -1       170 4.80309E-05-1.52011E-05-1.65436E-24
 -1       171 5.21975E-05-2.69661E-05-3.30872E-24
 -1       172 5.35121E-05-3.09485E-05 0.00000E+00
 -1       173 5.18793E-05-2.70711E-05-3.30872E-24
 -1       174 4.72242E-05-1.53109E-05 1.65436E-24
 -1       175 4.25393E-05-3.47544E-06-8.27181E-25
 -1       191 4.16654E-05 1.05487E-07 0.00000E+00
 -1       192 4.15903E-05 2.11052E-07 6.61744E-24
 -1       193 4.14685E-05 3.16633E-07 0.00000E+00
 -1       194 4.13008E-05 4.22205E-07 0.00000E+00
 -1       195 4.10880E-05 5.27739E-07-3.30872E-24
 -1       266 6.27408E-05-7.86960E-07 0.00000E+00
 -1       267 5.97982E-05-7.93486E-07 0.00000E+00
 -1       268 5.68556E-05-8.00827E-07 0.00000E+00
 -1       269 5.39129E-05-8.05790E-07 0.00000E+00
 -1       270 5.09703E-05-8.10707E-07-4.13590E-25
 -1       271 6.33037E-05 1.34039E-06 0.00000E+00
 -1       272 6.10950E-05 2.85018E-06-1.32349E-23
 -1       273 5.90893E-05 3.82587E-06 5.29396E-23
 -1       274 5.72571E-05 4.31881E-06-2.64698E-23
 -1       275 5.55814E-05 4.39322E-06 0.00000E+00
 -1       276 5.40358E-05 4.11728E-06-2.64698E-23
 -1       277 5.25937E-05 3.56506E-06 0.00000E+00
 -1       278 5.12256E-05 2.81464E-06 0.00000E+00
 -1       279 4.99013E-05 1.94718E-06-5.29396E-23
 -1       280 4.85899E-05 1.04570E-06 0.00000E+00
 -1       281 4.72603E-05 1.93604E-07 5.29396E-23
 -1       282 4.58823E-05-5.26237E-07 2.64698E-23
 -1       283 4.44251E-05-1.03331E-06 0.00000E+00
 -1       284 4.28651E-05-1.24836E-06-1.32349E-23
 -1       285 4.11676E-05-1.10106E-06 2.64698E-23
 -1       286 4.81090E-05 6.35261E-07 1.65436E-24
 -1       287 4.82521E-05 9.50009E-07 0.00000E+00
 -1       288 4.83943E-05 8.40585E-07-3.30872E-24
 -1       289 4.85396E-05 6.16521E-07 0.00000E+00
 -1       290 4.86849E-05 3.26568E-07-3.30872E-24
 -1       291 4.88309E-05 1.90372E-08 0.00000E+00
 -1       292 4.89770E-05-2.98456E-07 0.00000E+00
 -1       293 4.91231E-05-6.18371E-07 0.00000E+00
 -1       294 4.92693E-05-9.38777E-07 3.30872E-24
 -1       295 4.94153E-05-1.25775E-06-1.65436E-24
 -1       296 4.95613E-05-1.57003E-06 0.00000E+00
 -1       297 4.97067E-05-1.87032E-06 0.00000E+00
 -1       298 4.98519E-05-2.12558E-06 0.00000E+00
 -1       299 4.99940E-05-2.30244E-06 0.00000E+00
 -1       300 5.01371E-05-2.18927E-06 1.65436E-24
 -1       301 4.65339E-05-4.36050E-07-3.30872E-24
 -1       302 4.50768E-05-4.44957E-07-1.65436E-24
 -1       303 4.36204E-05-4.52721E-07 0.00000E+00
 -1       304 4.21741E-05-4.61737E-07 1.65436E-24
 -1       305 4.07469E-05-4.74313E-07 6.61744E-24
 -1       306 4.69291E-05 4.37319E-07 0.00000E+00
 -1       307 4.60742E-05 7.10663E-07 0.00000E+00
 -1       308 4.54024E-05 4.97635E-07 0.00000E+00
 -1       309 4.48763E-05-1.11565E-07-1.32349E-23
 -1       310 4.44627E-05-1.02213E-06 0.00000E+00
 -1       311 4.41254E-05-2.13790E-06 1.32349E-23
 -1       312 4.38283E-05-3.36110E-06 2.64698E-23
 -1       313 4.35344E-05-4.59333E-06 0.00000E+00
 -1       314 4.32070E-05-5.73604E-06 0.00000E+00
 -1       315 4.28096E-05-6.69132E-06 0.00000E+00
 -1       316 4.23061E-05-7.36268E-06 0.00000E+00
 -1       317 4.16613E-05-7.65553E-06 1.32349E-23
 -1       318 4.08404E-05-7.47815E-06 1.32349E-23
 -1       319 3.98130E-05-6.74109E-06 0.00000E+00
 -1       320 3.85428E-05-5.36125E-06 1.32349E-23
 -1       321 5.00019E-05 3.19984E-06-6.61744E-24
 -1       322 4.96788E-05 1.57171E-05 3.30872E-24
 -1       323 4.93836E-05 2.48846E-05 6.61744E-24
 -1       324 4.91157E-05 1.96470E-05-3.30872E-24
 -1       325 4.87919E-05 6.87276E-06 0.00000E+00
 -1       326 4.84608E-05-6.48356E-06-3.30872E-24
 -1       327 4.81870E-05-1.27381E-05 0.00000E+00
 -1       328 4.78979E-05-4.28779E-06 3.30872E-24
 -1       329 4.75761E-05 8.17412E-06 6.61744E-24
 -1       330 4.73128E-05 1.39085E-05 3.30872E-24
 -1       331 4.70564E-05 1.05891E-05 0.00000E+00
 -1       332 4.67036E-05-4.00716E-06-3.30872E-24
 -1       333 4.63574E-05-1.80326E-05 6.61744E-24
 -1       334 4.61048E-05-1.96457E-05 0.00000E+00
 -1       335 4.58346E-05-1.24784E-05 6.61744E-24
 -1       336 4.90528E-05-1.85178E-06 0.00000E+00
 -1       337 4.72749E-05-2.13193E-06 3.30872E-24
 -1       338 4.50549E-05-2.41278E-06 6.61744E-24
 -1       339 4.25204E-05-2.69350E-06 0.00000E+00
 -1       340 3.97998E-05-2.97482E-06 0.00000E+00
 -1       356 4.52092E-05 1.18339E-05-6.61744E-24
 -1       357 4.49413E-05 1.86488E-05-3.30872E-24
 -1       358 4.46887E-05 1.67465E-05-6.61744E-24
 -1       359 4.43439E-05 2.79172E-06 3.30872E-24
 -1       360 4.39950E-05-1.15188E-05 0.00000E+00
 -1       361 4.37397E-05-1.44847E-05-3.30872E-24
 -1       362 4.34757E-05-8.56326E-06-6.61744E-24
 -1       363 4.31567E-05 3.68687E-06 0.00000E+00
 -1       364 4.28707E-05 1.17900E-05 0.00000E+00
 -1       365 4.25960E-05 5.31768E-06-3.30872E-24
 -1       366 4.22655E-05-8.01662E-06 0.00000E+00
 -1       367 4.19470E-05-2.04216E-05 0.00000E+00
 -1       368 4.16824E-05-2.52651E-05 0.00000E+00
 -1       369 4.13907E-05-1.60019E-05 0.00000E+00
 -1       370 4.10725E-05-3.67637E-06 0.00000E+00
 -1       371 3.42062E-05-3.56766E-07 0.00000E+00
 -1       372 2.96569E-05-3.94065E-07-8.27181E-25
 -1       373 2.99071E-05-4.20076E-07-8.27181E-25
 -1       374 3.29855E-05-4.49465E-07-2.06795E-25
 -1       375 3.63033E-05-4.79527E-07 0.00000E+00
 -1       406 4.05233E-05 7.38059E-07-3.30872E-24
 -1       407 4.01751E-05 8.42992E-07 0.00000E+00
 -1       408 3.97890E-05 9.47859E-07 3.30872E-24
 -1       409 3.93679E-05 1.05249E-06 0.00000E+00
 -1       410 3.89145E-05 1.15665E-06 0.00000E+00
 -1       501 3.92385E-05 4.19305E-06 0.00000E+00
 -1       502 3.90964E-05 1.55524E-05-3.30872E-24
 -1       503 3.89356E-05 2.85192E-05 0.00000E+00
 -1       504 3.88156E-05 3.80405E-05 0.00000E+00
 -1       505 3.87314E-05 4.09719E-05 3.30872E-24
 -1       506 3.86300E-05 3.41917E-05 0.00000E+00
 -1       507 3.84539E-05 1.97770E-05 0.00000E+00
 -1       508 3.81865E-05-1.68804E-07 0.00000E+00
 -1       509 3.79127E-05-2.04624E-05-1.65436E-24
 -1       510 3.77221E-05-3.59193E-05 8.27181E-25
 -1       511 3.76112E-05-4.40588E-05 0.00000E+00
 -1       512 3.75306E-05-4.24256E-05 1.65436E-24
 -1       513 3.74191E-05-3.37912E-05 0.00000E+00
 -1       514 3.72634E-05-2.09518E-05 0.00000E+00
 -1       515 3.71184E-05-9.05642E-06 0.00000E+00
 -1       521 3.75215E-05 3.16450E-08 0.00000E+00
 -1       522 3.58455E-05 5.11196E-08-2.64698E-23
 -1       523 3.43324E-05-3.59519E-07-5.29396E-23
 -1       524 3.29435E-05-1.11960E-06 0.00000E+00
 -1       525 3.16508E-05-2.13854E-06 0.00000E+00
 -1       526 3.04192E-05-3.32372E-06 0.00000E+00
 -1       527 2.92138E-05-4.57948E-06-5.29396E-23
 -1       528 2.79986E-05-5.80939E-06-2.64698E-23
 -1       529 2.67377E-05-6.91731E-06 0.00000E+00
 -1       530 2.53960E-05-7.80907E-06 0.00000E+00
 -1       531 2.39395E-05-8.39389E-06 0.00000E+00
 -1       532 2.23367E-05-8.58565E-06 0.00000E+00
 -1       533 2.05569E-05-8.30469E-06 0.00000E+00
 -1       534 1.85784E-05-7.47683E-06 1.32349E-23
 -1       535 1.63692E-05-6.04083E-06 0.00000E+00
 -1       536 3.70273E-05-8.23271E-07 0.00000E+00
 -1       537 3.70410E-05 1.01835E-06 4.13590E-25
 -1       538 3.70553E-05 2.33503E-06 0.00000E+00
 -1       539 3.70713E-05 3.18816E-06 5.16988E-26
 -1       540 3.70876E-05 3.63892E-06-1.03398E-25
 -1       541 3.71042E-05 3.74847E-06 0.00000E+00
 -1       542 3.71209E-05 3.57788E-06-4.13590E-25
 -1       543 3.71376E-05 3.18817E-06 0.00000E+00
 -1       544 3.71542E-05 2.64035E-06 0.00000E+00
 -1       545 3.71708E-05 1.99536E-06-2.06795E-25
 -1       546 3.71874E-05 1.31415E-06-4.13590E-25
 -1       547 3.72040E-05 6.57644E-07 0.00000E+00
 -1       548 3.72207E-05 8.67754E-08 0.00000E+00
 -1       549 3.72375E-05-3.37509E-07 0.00000E+00
 -1       550 3.72544E-05-5.54199E-07-8.27181E-25
 -1       551 3.35946E-05-3.35871E-06-1.65436E-24
 -1       552 2.97519E-05-3.46589E-06 1.24077E-24
 -1       553 2.56783E-05-3.57413E-06 3.30872E-24
 -1       554 2.15620E-05-3.68432E-06 0.00000E+00
 -1       555 1.75909E-05-3.79720E-06 0.00000E+00
 -1       556 3.60674E-05-9.23252E-07 0.00000E+00
 -1       557 3.53216E-05 8.63675E-07-6.61744E-24
 -1       558 3.47612E-05 2.16057E-06 0.00000E+00
 -1       559 3.43648E-05 3.02267E-06-3.30872E-24
 -1       560 3.41113E-05 3.50519E-06 0.00000E+00
 -1       561 3.39795E-05 3.66370E-06 0.00000E+00
 -1       562 3.39485E-05 3.55385E-06 0.00000E+00
 -1       563 3.39972E-05 3.23133E-06 0.00000E+00
 -1       564 3.41048E-05 2.75188E-06-3.30872E-24
 -1       565 3.42503E-05 2.17124E-06 0.00000E+00
 -1       566 3.44128E-05 1.54519E-06-1.65436E-24
 -1       567 3.45714E-05 9.29495E-07 4.13590E-25
 -1       568 3.47054E-05 3.79928E-07-2.06795E-25
 -1       569 3.47940E-05-4.78092E-08-4.13590E-25
 -1       570 3.48163E-05-2.98041E-07 1.65436E-24
 -1       571 3.73418E-05-3.59321E-07 0.00000E+00
 -1       572 3.74137E-05-2.62767E-07 6.20385E-25
 -1       573 3.74861E-05-2.04142E-07 8.27181E-25
 -1       574 3.75588E-05-1.74384E-07-8.27181E-25
 -1       575 3.76315E-05-1.64397E-07 0.00000E+00
 -1       576 3.77043E-05-1.65025E-07 0.00000E+00
 -1       577 3.77771E-05-1.67106E-07 0.00000E+00
 -1       578 3.78500E-05-1.61473E-07 0.00000E+00
 -1       579 3.79228E-05-1.38958E-07 0.00000E+00
 -1       580 3.79956E-05-9.03904E-08 0.00000E+00
 -1       581 3.80684E-05-6.60375E-09 0.00000E+00
 -1       582 3.81412E-05 1.21561E-07 0.00000E+00
 -1       583 3.82140E-05 3.03255E-07-6.61744E-24
 -1       584 3.82868E-05 5.47535E-07 0.00000E+00
 -1       585 3.83594E-05 8.63405E-07-3.30872E-24
 -1       586 3.69081E-05-4.70647E-07 0.00000E+00
 -1       587 3.64876E-05-4.38845E-07 0.00000E+00
 -1       588 3.60359E-05-4.07126E-07 0.00000E+00
 -1       589 3.55790E-05-3.75687E-07 0.00000E+00
 -1       590 3.51432E-05-3.44820E-07 0.00000E+00
 -1       591 3.71647E-05-3.31876E-07 0.00000E+00
 -1       592 3.70663E-05-1.94201E-07 0.00000E+00
 -1       593 3.69771E-05-8.26803E-08 1.65436E-24
 -1       594 3.68952E-05 8.65295E-09-8.27181E-25
 -1       595 3.68184E-05 8.57922E-08 0.00000E+00
 -1       596 3.67447E-05 1.54681E-07 8.27181E-25
 -1       597 3.66719E-05 2.21256E-07 0.00000E+00
 -1       598 3.65976E-05 2.91448E-07 4.13590E-25
 -1       599 3.65198E-05 3.71189E-07 0.00000E+00
 -1       600 3.64362E-05 4.66406E-07-8.27181E-25
 -1       601 3.63446E-05 5.83028E-07 0.00000E+00
 -1       602 3.62428E-05 7.26990E-07 0.00000E+00
 -1       603 3.61286E-05 9.04229E-07 4.13590E-25
 -1       604 3.60000E-05 1.12072E-06-3.61892E-25
 -1       605 3.58550E-05 1.38241E-06 4.13590E-25
 -1       606 3.84582E-05 1.79335E-06 0.00000E+00
 -1       607 3.84828E-05 2.39033E-06 0.00000E+00
 -1       608 3.85069E-05 3.04637E-06 0.00000E+00
 -1       609 3.85307E-05 3.75724E-06 0.00000E+00
 -1       610 3.85544E-05 4.51868E-06-3.30872E-24
 -1       611 3.85780E-05 5.32635E-06 0.00000E+00
 -1       612 3.86015E-05 6.17590E-06 0.00000E+00
 -1       613 3.86250E-05 7.06300E-06 0.00000E+00
 -1       614 3.86485E-05 7.98330E-06 0.00000E+00
 -1       615 3.86719E-05 8.93244E-06 0.00000E+00
 -1       616 3.86954E-05 9.90610E-06 1.65436E-24
 -1       617 3.87188E-05 1.08999E-05 1.65436E-24
 -1       618 3.87421E-05 1.19096E-05 0.00000E+00
 -1       619 3.87654E-05 1.29307E-05-8.27181E-25
 -1       620 3.87887E-05 1.39589E-05-8.27181E-25
 -1       621 3.79369E-05 1.33233E-06 0.00000E+00
 -1       622 3.74493E-05 1.40573E-06 8.27181E-25
 -1       623 3.69750E-05 1.47911E-06 0.00000E+00
 -1       624 3.65203E-05 1.55230E-06 0.00000E+00
 -1       625 3.60913E-05 1.62513E-06 8.27181E-25
 -1       626 3.82859E-05 1.82677E-06 0.00000E+00
 -1       627 3.81150E-05 2.46000E-06 0.00000E+00
 -1       628 3.79217E-05 3.15260E-06 0.00000E+00
 -1       629 3.77087E-05 3.89763E-06 0.00000E+00
 -1       630 3.74785E-05 4.68814E-06 0.00000E+00
 -1       631 3.72339E-05 5.51711E-06 0.00000E+00
 -1       632 3.69774E-05 6.37747E-06 0.00000E+00
 -1       633 3.67118E-05 7.26221E-06 0.00000E+00
 -1       634 3.64397E-05 8.16427E-06 0.00000E+00
 -1       635 3.61638E-05 9.07660E-06 0.00000E+00
 -1       636 3.58865E-05 9.99218E-06 1.65436E-24
 -1       637 3.56107E-05 1.09039E-05 0.00000E+00
 -1       638 3.53389E-05 1.18048E-05 1.65436E-24
 -1       639 3.50736E-05 1.26878E-05-4.13590E-25
 -1       640 3.48171E-05 1.35458E-05 0.00000E+00
 -1       641 3.88060E-05 1.60283E-05 2.06795E-25
 -1       642 3.87993E-05 1.71187E-05 0.00000E+00
 -1       643 3.87927E-05 1.82535E-05 0.00000E+00
 -1       644 3.87859E-05 1.94255E-05 0.00000E+00
 -1       645 3.87790E-05 2.06249E-05-2.06795E-25
 -1       646 3.87721E-05 2.18423E-05 1.03398E-25
 -1       647 3.87651E-05 2.30672E-05 2.06795E-25
 -1       648 3.87582E-05 2.42890E-05 1.03398E-25
 -1       649 3.87512E-05 2.54974E-05 0.00000E+00
 -1       650 3.87443E-05 2.66822E-05 0.00000E+00
 -1       651 3.87374E-05 2.78341E-05-2.06795E-25
 -1       652 3.87303E-05 2.89443E-05 2.06795E-25
 -1       653 3.87234E-05 3.00059E-05 0.00000E+00
 -1       654 3.87158E-05 3.10123E-05 0.00000E+00
 -1       655 3.87085E-05 3.19597E-05 0.00000E+00
 -1       656 3.79053E-05 1.48900E-05-1.65436E-24
 -1       657 3.71539E-05 1.47852E-05-8.27181E-25
 -1       658 3.65011E-05 1.46807E-05 3.30872E-24
 -1       659 3.58906E-05 1.45762E-05 8.27181E-25
 -1       660 3.52659E-05 1.44714E-05 0.00000E+00
 -1       661 3.84955E-05 1.60507E-05 0.00000E+00
 -1       662 3.81692E-05 1.71462E-05-8.27181E-25
 -1       663 3.78327E-05 1.82688E-05-1.65436E-24
 -1       664 3.74888E-05 1.94121E-05-8.27181E-25
 -1       665 3.71398E-05 2.05691E-05 0.00000E+00
 -1       666 3.67882E-05 2.17331E-05 0.00000E+00
 -1       667 3.64364E-05 2.28977E-05 0.00000E+00
 -1       668 3.60870E-05 2.40559E-05 0.00000E+00
 -1       669 3.57425E-05 2.52013E-05-1.65436E-24
 -1       670 3.54053E-05 2.63270E-05 0.00000E+00
 -1       671 3.50780E-05 2.74263E-05 0.00000E+00
 -1       672 3.47631E-05 2.84927E-05 8.27181E-25
 -1       673 3.44629E-05 2.95192E-05 0.00000E+00
 -1       674 3.41797E-05 3.04991E-05 0.00000E+00
 -1       675 3.39165E-05 3.14258E-05 0.00000E+00
 -1       676 3.78443E-05 3.27517E-05 0.00000E+00
 -1       677 3.69933E-05 3.26587E-05 0.00000E+00
 -1       678 3.61478E-05 3.25657E-05 0.00000E+00
 -1       679 3.53105E-05 3.24732E-05 0.00000E+00
 -1       680 3.44842E-05 3.23806E-05 0.00000E+00
 -1       716 1.40527E-05-4.89911E-05 0.00000E+00
 -1       717 1.40484E-05-4.59869E-05 0.00000E+00
 -1       718 1.40440E-05-4.29826E-05-1.61559E-27
 -1       719 1.40397E-05-3.99784E-05 1.61559E-27
 -1       720 1.40353E-05-3.69741E-05 0.00000E+00
 -1       721 1.40310E-05-3.39698E-05 6.46235E-27
 -1       722 1.40266E-05-3.09656E-05 2.58494E-26
 -1       723 1.40222E-05-2.79614E-05 0.00000E+00
 -1       724 1.40178E-05-2.49571E-05 0.00000E+00
 -1       725 1.40132E-05-2.19529E-05 0.00000E+00
 -1       726 1.40085E-05-1.89486E-05-4.13590E-25
 -1       727 1.40030E-05-1.59444E-05 0.00000E+00
 -1       728 1.39974E-05-1.29401E-05 1.65436E-24
 -1       729 1.39878E-05-9.93588E-06 0.00000E+00
 -1       730 1.39796E-05-6.93163E-06-6.61744E-24
 -1       766 1.10504E-05-3.95636E-06 0.00000E+00
 -1       767 8.35905E-06-3.96377E-06 0.00000E+00
 -1       768 5.89442E-06-3.97195E-06 0.00000E+00
 -1       769 3.67486E-06-3.97561E-06 4.13590E-25
 -1       770 1.71787E-06-3.97857E-06 0.00000E+00
 -1       771 1.22715E-05-1.51516E-06 0.00000E+00
 -1       772 1.07691E-05 4.07540E-07 0.00000E+00
 -1       773 9.43462E-06 1.88200E-06 0.00000E+00
 -1       774 8.25211E-06 2.95079E-06 1.32349E-23
 -1       775 7.20588E-06 3.65676E-06 2.64698E-23
 -1       776 6.27967E-06 4.04321E-06 0.00000E+00
 -1       777 5.45709E-06 4.15364E-06-2.64698E-23
 -1       778 4.72166E-06 4.03183E-06 0.00000E+00
 -1       779 4.05689E-06 3.72175E-06 0.00000E+00
 -1       780 3.44618E-06 3.26753E-06 0.00000E+00
 -1       781 2.87297E-06 2.71341E-06 2.64698E-23
 -1       782 2.32072E-06 2.10377E-06 0.00000E+00
 -1       783 1.77287E-06 1.48302E-06-2.64698E-23
 -1       784 1.21333E-06 8.95663E-07-6.61744E-24
 -1       785 6.25806E-07 3.86146E-07 0.00000E+00
 -1       786 3.48093E-05-1.01037E-07 8.27181E-25
 -1       787 3.48679E-05 6.30697E-08-8.27181E-25
 -1       788 3.49265E-05 1.84625E-07 0.00000E+00
 -1       789 3.49855E-05 2.72023E-07 0.00000E+00
 -1       790 3.50446E-05 3.33628E-07-1.65436E-24
 -1       791 3.51039E-05 3.77791E-07 0.00000E+00
 -1       792 3.51631E-05 4.12849E-07 0.00000E+00
 -1       793 3.52224E-05 4.47135E-07-8.27181E-25
 -1       794 3.52816E-05 4.88980E-07 0.00000E+00
 -1       795 3.53409E-05 5.46721E-07-8.27181E-25
 -1       796 3.54001E-05 6.28705E-07 1.65436E-24
 -1       797 3.54593E-05 7.43296E-07-8.27181E-25
 -1       798 3.55185E-05 8.98879E-07-1.65436E-24
 -1       799 3.55775E-05 1.10386E-06 8.27181E-25
 -1       800 3.56364E-05 1.36670E-06 0.00000E+00
 -1       801 3.18899E-05-2.46974E-07-3.30872E-24
 -1       802 2.54393E-05-1.88959E-07 8.27181E-25
 -1       803 1.72131E-05-1.42583E-07 0.00000E+00
 -1       804 9.02330E-06-9.93418E-08 0.00000E+00
 -1       805 2.68181E-06-4.40750E-08 1.32349E-23
 -1       806 3.46145E-05-1.28164E-07 0.00000E+00
 -1       807 3.44828E-05 3.34311E-08 8.27181E-25
 -1       808 3.43584E-05 1.73928E-07 3.30872E-24
 -1       809 3.42398E-05 2.98330E-07 0.00000E+00
 -1       810 3.41252E-05 4.11625E-07 1.65436E-24
 -1       811 3.40129E-05 5.18785E-07 0.00000E+00
 -1       812 3.39011E-05 6.24773E-07 1.65436E-24
 -1       813 3.37878E-05 7.34551E-07-8.27181E-25
 -1       814 3.36712E-05 8.53082E-07 0.00000E+00
 -1       815 3.35495E-05 9.85325E-07-8.27181E-25
 -1       816 3.34207E-05 1.13624E-06 0.00000E+00
 -1       817 3.32832E-05 1.31078E-06-4.13590E-25
 -1       818 3.31349E-05 1.51390E-06 0.00000E+00
 -1       819 3.29742E-05 1.75053E-06-4.13590E-25
 -1       820 3.27992E-05 2.02559E-06-1.65436E-24
 -1       821 3.56279E-05 2.11619E-06 0.00000E+00
 -1       822 3.55578E-05 2.63559E-06-8.27181E-25
 -1       823 3.54878E-05 3.24366E-06 0.00000E+00
 -1       824 3.54171E-05 3.92986E-06 0.00000E+00
 -1       825 3.53463E-05 4.68363E-06 1.65436E-24
 -1       826 3.52753E-05 5.49433E-06-8.27181E-25
 -1       827 3.52043E-05 6.35127E-06 0.00000E+00
 -1       828 3.51332E-05 7.24375E-06 0.00000E+00
 -1       829 3.50620E-05 8.16103E-06 0.00000E+00
 -1       830 3.49909E-05 9.09232E-06 0.00000E+00
 -1       831 3.49198E-05 1.00269E-05-1.65436E-24
 -1       832 3.48488E-05 1.09539E-05-8.27181E-25
 -1       833 3.47779E-05 1.18626E-05 0.00000E+00
 -1       834 3.47076E-05 1.27423E-05-8.27181E-25
 -1       835 3.46373E-05 1.35821E-05 8.27181E-25
 -1       836 3.52537E-05 1.80236E-06-1.65436E-24
 -1       837 3.47307E-05 1.91234E-06 0.00000E+00
 -1       838 3.41647E-05 2.02218E-06-3.30872E-24
 -1       839 3.35958E-05 2.13160E-06 0.00000E+00
 -1       840 3.30639E-05 2.24101E-06 0.00000E+00
 -1       841 3.55523E-05 2.14144E-06 0.00000E+00
 -1       842 3.53574E-05 2.72881E-06-4.13590E-25
 -1       843 3.51226E-05 3.42214E-06-8.27181E-25
 -1       844 3.48614E-05 4.18567E-06 0.00000E+00
 -1       845 3.45807E-05 5.00111E-06-8.27181E-25
 -1       846 3.42874E-05 5.85018E-06-4.13590E-25
 -1       847 3.39851E-05 6.72291E-06-8.27181E-25
 -1       848 3.36777E-05 7.60937E-06 4.13590E-25
 -1       849 3.33676E-05 8.50292E-06-8.27181E-25
 -1       850 3.30574E-05 9.39687E-06-4.13590E-25
 -1       851 3.27494E-05 1.02848E-05 0.00000E+00
 -1       852 3.24460E-05 1.11603E-05 2.06795E-25
 -1       853 3.21508E-05 1.20138E-05 0.00000E+00
 -1       854 3.18669E-05 1.28356E-05 0.00000E+00
 -1       855 3.16015E-05 1.36086E-05 0.00000E+00
 -1       856 3.45178E-05 1.51981E-05 4.13590E-25
 -1       857 3.44620E-05 1.61363E-05 4.13590E-25
 -1       858 3.44061E-05 1.71706E-05 1.65436E-24
 -1       859 3.43496E-05 1.82856E-05 8.27181E-25
 -1       860 3.42930E-05 1.94657E-05-1.65436E-24
 -1       861 3.42363E-05 2.06954E-05 0.00000E+00
 -1       862 3.41795E-05 2.19590E-05-1.65436E-24
 -1       863 3.41226E-05 2.32411E-05 0.00000E+00
 -1       864 3.40658E-05 2.45260E-05 1.65436E-24
 -1       865 3.40090E-05 2.57982E-05 8.27181E-25
 -1       866 3.39522E-05 2.70419E-05 0.00000E+00
 -1       867 3.38955E-05 2.82418E-05 0.00000E+00
 -1       868 3.38389E-05 2.93821E-05-1.65436E-24
 -1       869 3.37825E-05 3.04474E-05 0.00000E+00
 -1       870 3.37263E-05 3.14222E-05 0.00000E+00
 -1       871 3.39405E-05 1.43637E-05 0.00000E+00
 -1       872 3.33925E-05 1.43548E-05 0.00000E+00
 -1       873 3.28936E-05 1.43456E-05 0.00000E+00
 -1       874 3.24105E-05 1.43361E-05 0.00000E+00
 -1       875 3.19096E-05 1.43262E-05-4.13590E-25
 -1       876 3.43629E-05 1.52173E-05 0.00000E+00
 -1       877 3.41274E-05 1.61488E-05 1.65436E-24
 -1       878 3.38641E-05 1.71539E-05 0.00000E+00
 -1       879 3.35777E-05 1.82222E-05 0.00000E+00
 -1       880 3.32717E-05 1.93426E-05 3.30872E-24
 -1       881 3.29503E-05 2.05044E-05 0.00000E+00
 -1       882 3.26173E-05 2.16970E-05 3.30872E-24
 -1       883 3.22768E-05 2.29096E-05 0.00000E+00
 -1       884 3.19328E-05 2.41315E-05-3.30872E-24
 -1       885 3.15893E-05 2.53521E-05-1.65436E-24
 -1       886 3.12503E-05 2.65606E-05-3.30872E-24
 -1       887 3.09196E-05 2.77465E-05-1.65436E-24
 -1       888 3.06015E-05 2.88989E-05-3.30872E-24
 -1       889 3.02992E-05 3.00070E-05 0.00000E+00
 -1       890 3.00176E-05 3.10603E-05 1.65436E-24
 -1       891 3.29649E-05 3.22504E-05 0.00000E+00
 -1       892 3.23581E-05 3.22093E-05 0.00000E+00
 -1       893 3.17926E-05 3.21683E-05 0.00000E+00
 -1       894 3.12094E-05 3.21273E-05 0.00000E+00
 -1       895 3.05499E-05 3.20862E-05 0.00000E+00
 -1       926 3.96403E-08-2.57957E-06 1.03398E-25
 -1       927 3.89706E-08-1.45085E-06 0.00000E+00
 -1       928 3.85218E-08-5.68821E-07 0.00000E+00
 -1       929 3.82864E-08 9.18976E-08 0.00000E+00
 -1       930 3.81562E-08 5.56691E-07 0.00000E+00
 -1       931 3.80897E-08 8.50944E-07 6.46235E-27
 -1       932 3.80453E-08 1.00006E-06 0.00000E+00
 -1       933 3.79755E-08 1.02943E-06 0.00000E+00
 -1       934 3.78688E-08 9.64466E-07 0.00000E+00
 -1       935 3.75843E-08 8.30567E-07 0.00000E+00
 -1       936 3.71934E-08 6.53139E-07-4.13590E-25
 -1       937 3.59848E-08 4.57592E-07-4.13590E-25
 -1       938 3.46629E-08 2.69291E-07 0.00000E+00
 -1       939 2.92855E-08 1.13614E-07 1.65436E-24
 -1       940 2.52817E-08 1.55220E-08 6.61744E-24
 -1       956 3.25326E-05 2.79601E-06-8.27181E-25
 -1       957 3.24548E-05 3.33086E-06-8.27181E-25
 -1       958 3.23766E-05 3.93959E-06-8.27181E-25
 -1       959 3.22983E-05 4.61287E-06 4.13590E-25
 -1       960 3.22198E-05 5.34140E-06 1.65436E-24
 -1       961 3.21413E-05 6.11578E-06 1.65436E-24
 -1       962 3.20628E-05 6.92660E-06 1.65436E-24
 -1       963 3.19842E-05 7.76449E-06 0.00000E+00
 -1       964 3.19056E-05 8.62003E-06 1.65436E-24
 -1       965 3.18270E-05 9.48382E-06 0.00000E+00
 -1       966 3.17485E-05 1.03465E-05 0.00000E+00
 -1       967 3.16699E-05 1.11986E-05 0.00000E+00
 -1       968 3.15914E-05 1.20307E-05 0.00000E+00
 -1       969 3.15131E-05 1.28336E-05 0.00000E+00
 -1       970 3.14350E-05 1.35978E-05 3.30872E-24
 -1       971 3.12600E-05 1.50512E-05-1.65436E-24
 -1       972 3.11599E-05 1.59058E-05 0.00000E+00
 -1       973 3.10597E-05 1.68637E-05 0.00000E+00
 -1       974 3.09591E-05 1.79103E-05 1.65436E-24
 -1       975 3.08584E-05 1.90309E-05 0.00000E+00
 -1       976 3.07575E-05 2.02110E-05 1.65436E-24
 -1       977 3.06567E-05 2.14358E-05 3.30872E-24
 -1       978 3.05557E-05 2.26906E-05-1.65436E-24
 -1       979 3.04548E-05 2.39607E-05 3.30872E-24
 -1       980 3.03538E-05 2.52315E-05 1.65436E-24
 -1       981 3.02530E-05 2.64882E-05 0.00000E+00
 -1       982 3.01522E-05 2.77161E-05-1.65436E-24
 -1       983 3.00516E-05 2.89005E-05 0.00000E+00
 -1       984 2.99515E-05 3.00267E-05 1.65436E-24
 -1       985 2.98516E-05 3.10801E-05 0.00000E+00
 -3
    1PSTEP                        22          11           1          
  100CL  111 5.09888E-01         608                     0   11           1
 -4  STRESS      6    1
 -5  SXX         1    4    1    1
 -5  SYY         1    4    2    2
 -5  SZZ         1    4    3    3
 -5  SXY         1    4    1    2
 -5  SYZ         1    4    2    3
 -5  SZX         1    4    3    1
 -1         1-2.51707E+06-8.74901E+05-5.54154E+05-8.02248E+05 7.46998E-10 9.50725E-10
 -1         2-1.66977E+06-4.32162E+05-2.15914E+05-2.77514E+05-2.25555E-09-3.64914E-08
 -1         3-4.47014E+05-3.91611E+05-1.65629E+04 4.97744E+04 2.49520E-09 2.25619E-09
 -1         4-4.00412E+05-4.85804E+04 3.80355E+03-3.22097E+04-5.39407E-09-2.24190E-09
 -1         5-2.62547E+05 4.82615E+04-1.02170E+05-2.55893E+03 1.54823E-08 2.93065E-09
 -1         8-1.13829E+06-5.26280E+05-1.55068E+05-6.98951E+05 4.24431E-10 3.45365E-09
 -1         9-1.17642E+06-4.06598E+05-1.65334E+05-4.04164E+05 1.60871E-09 1.15688E-09
 -1        10-5.47117E+05-3.99770E+05-3.23531E+04-1.39841E+05-4.16549E-10-4.14781E-08
 -1        11-2.98818E+05-4.13474E+04 7.59399E+03 2.29604E+04 1.27500E-10 3.43694E-09
 -1        12-2.61276E+05 4.33092E+04-1.02560E+05-1.21471E+04 2.43910E-08-2.30774E-09
 -1        15 1.94511E+03 1.05186E+03 6.03670E+03 2.52341E+00 1.39011E-10 9.06290E-09
 -1        16-1.82727E+06-4.86645E+05-1.64224E+05-6.03339E+05 7.85803E-10-1.88993E-09
 -1        17-3.20652E+05-2.60757E+05-3.07351E+04-2.30603E+05-1.71106E-09-5.42059E-10
 -1        18 2.28903E+04-5.87118E+03-1.37160E+04-5.21728E+04-5.82077E-11 1.84082E-09
 -1        19 8.59858E+04 1.05019E+05-1.09269E+02 3.02745E+03 5.69344E-11 5.21686E-10
 -1        20 3.79847E+04-6.44323E+04-1.50769E+04 3.01887E+04 4.00382E-09-3.09683E-10
 -1        21-6.55310E+03-1.02745E+05 2.84945E+04-8.42251E+02 9.31709E-09-6.21928E-09
 -1        23 4.71770E-01 2.24745E-01 8.64261E+00 7.12498E-04-1.77778E-09 3.28204E-10
 -1        24-9.46621E+05-2.82771E+05 5.00312E+04-4.90982E+05-1.12195E-09 8.14907E-10
 -1        25 1.41042E+04 4.00431E+04 1.96639E+04-2.72708E+05-3.22143E-10-1.59926E-09
 -1        26 1.82589E+03 7.18160E+04 3.21426E+02-1.18623E+04 1.58882E-10 4.55297E-10
 -1        27-1.56454E+04-4.75949E+04-2.11661E+04 5.24615E+04 1.87614E-09-2.41774E-09
 -1        28-5.93844E+03-7.93681E+04-2.81827E+03 3.06448E+04 5.18526E-09-8.26091E-10
 -1        31 3.01398E+03 3.47303E+03 5.13165E+03-7.79551E+01 2.70899E-09-1.22856E-09
 -1        32-3.86286E+05 9.47432E+04 2.41077E+05-5.60758E+05 7.89055E-11 1.48430E-09
 -1        33-8.48115E+04 8.58339E+04 2.63719E+04-2.70415E+04-8.55683E-10-1.27329E-11
 -1        34-1.03286E+05-4.16330E+03 9.32887E+03 3.94687E+04 2.07571E-10-4.20778E-09
 -1        35-1.57007E+04-2.14061E+04 1.16676E+03 4.98431E+04 5.33243E-09 1.58313E-09
 -1        36-2.59684E+06 7.67355E+04-1.76607E+05 3.92441E-07-2.68685E-09-3.81260E-09
 -1        37-2.67344E+06-8.88018E+04-1.25109E+05-5.44318E-07-3.71612E-09-1.15087E-08
 -1        38-2.62636E+06 1.20630E+04-4.56851E+04-2.80051E-07-2.38278E-09-3.35240E-09
 -1        39-2.63891E+06-1.39580E+04-2.87737E+04-9.56296E-07-1.38228E-09 3.83670E-09
 -1        40-2.63123E+06 1.89337E+03-1.17556E+04 1.91705E-07-2.49352E-09-3.85626E-10
 -1        41-2.63321E+06-2.22337E+03-7.06155E+03-4.64785E-07-3.18873E-09-7.24390E-09
 -1        42-2.63203E+06 3.29731E+02-3.51304E+03-2.93034E-07-9.63587E-10 1.21054E-09
 -1        43-2.63237E+06-6.11194E+02-2.91425E+03 1.12934E-07-2.52840E-09 1.04501E-09
 -1        44-2.63206E+06 2.81408E+02-3.08658E+03-7.12515E-07-4.47554E-10-2.11332E-09
 -1        45-2.63298E+06-1.80897E+03-5.82481E+03-8.04441E-07-9.27218E-10 3.15646E-09
 -1        46-2.63142E+06 1.52736E+03-9.53226E+03 5.57042E-07-5.15001E-09 8.08768E-09
 -1        47-2.63757E+06-1.12447E+04-2.32083E+04 4.43324E-07-1.54559E-09 2.05546E-09
 -1        48-2.62750E+06 9.71596E+03-3.68127E+04 2.80751E-07-1.58964E-09-6.71571E-09
 -1        49-2.66537E+06-7.15232E+04-1.00774E+05-2.45257E-07-8.43951E-09 3.32875E-09
 -1        50-2.60373E+06 6.18020E+04-1.42267E+05-1.07209E-07-1.05319E-08 1.87720E-09
 -1        51 1.90472E+04-3.32285E+05 3.25204E+04-8.63557E+05-1.01863E-10-3.37604E-09
 -1        52 9.62642E+03-3.30438E+05 2.13406E+04-9.56309E+05-2.80124E-10-1.25365E-08
 -1        53 7.40657E+03-3.38505E+05 1.94336E+04-8.61218E+05-2.91038E-10-8.47649E-09
 -1        54 1.88191E+04-3.35433E+05 3.24300E+04-9.58810E+05-1.67347E-10-2.57205E-09
 -1        55 4.34927E+04-3.46259E+05 6.04580E+04-8.60779E+05-5.82077E-11-6.70843E-09
 -1        56-4.59895E+06-4.80256E+05-3.96162E+05-1.76152E+06-4.29281E-10 7.85803E-09
 -1        57-4.71346E+06-9.06158E+05-2.70351E+05-1.79146E+06-6.40284E-10 4.05635E-09
 -1        58-4.69753E+06-5.93602E+05-9.27959E+04-1.71026E+06 7.23958E-10 1.81899E-11
 -1        59-4.60396E+06-7.68652E+05-5.66164E+04-1.84570E+06 2.99974E-09-6.98492E-10
 -1        60-4.70855E+06-6.15335E+05-2.17774E+04-1.70836E+06 1.55160E-09-6.21822E-09
 -1        61-4.61122E+06-7.19873E+05-1.18767E+04-1.81897E+06-1.51954E-09 8.85166E-10
 -1        62-4.68907E+06-6.42851E+05-6.89841E+03-1.73627E+06 9.25866E-10-2.87912E-09
 -1        63-4.66306E+06-6.59633E+05-3.81697E+03-1.75223E+06 1.70439E-09 5.60829E-09
 -1        64-4.65574E+06-6.76219E+05-6.80424E+03-1.77439E+06 1.26965E-09 3.98450E-09
 -1        65-4.72606E+06-6.04833E+05-1.15696E+04-1.68762E+06-3.35467E-09-4.04634E-09
 -1        66-4.62703E+06-6.97011E+05-2.12235E+04-1.80158E+06-1.63823E-10 1.49703E-09
 -1        67-4.76972E+06-6.01741E+05-5.51338E+04-1.65591E+06 3.58341E-10 1.45246E-09
 -1        68-4.61328E+06-6.78837E+05-9.03551E+04-1.80684E+06-1.08230E-09 1.81899E-10
 -1        69-4.83569E+06-7.76220E+05-2.63233E+05-1.64947E+06-4.61114E-09-6.62112E-10
 -1        70-4.56098E+06-5.24887E+05-3.85785E+05-1.80694E+06-4.11819E-09 8.73115E-11
 -1        86-3.32380E+04-1.82196E+05 7.81735E+04 1.11394E+04 3.50701E-09 5.97538E-10
 -1        87 4.19580E+04-1.43277E+05 6.19851E+04-4.83433E+04 5.96037E-09 1.96158E-09
 -1        88-8.46603E+03-1.68845E+05 3.28099E+04 1.18981E+04 5.47311E-09 5.30135E-09
 -1        89 3.20730E+04-1.48789E+05 4.88713E+04-4.86414E+04 8.14907E-09 2.35868E-09
 -1        90-2.33246E+04-1.76777E+05 5.60472E+04 1.14379E+04 2.99406E-09 9.17225E-10
 -1        91-2.39733E+06-2.79394E+05-1.46777E+05-9.24454E+05-2.22598E-05 8.28002E-06
 -1        92-2.47414E+06-4.15580E+05-1.02012E+05-8.99486E+05-4.44293E-05 1.66862E-05
 -1        93-2.42680E+06-3.32883E+05-3.43729E+04-9.14954E+05-1.38381E-05 5.21166E-06
 -1        94-2.43944E+06-3.53988E+05-2.15342E+04-9.10765E+05 1.67539E-05-6.28641E-06
 -1        95-2.43191E+06-3.40968E+05-8.05156E+03-9.13134E+05 3.69835E-06-1.39036E-06
 -1        96-2.43368E+06-3.44476E+05-4.85284E+03-9.12628E+05-9.36436E-06 3.50661E-06
 -1        97-2.43253E+06-3.42390E+05-2.29596E+03-9.13080E+05-4.63482E-07 1.76844E-07
 -1        98-2.43294E+06-3.43214E+05-2.13632E+03-9.12828E+05 8.45747E-06-3.16993E-06
 -1        99-2.43265E+06-3.42229E+05-2.48743E+03-9.12932E+05-3.47342E-06 1.30603E-06
 -1       100-2.43394E+06-3.44605E+05-5.44826E+03-9.12461E+05-1.54082E-05 5.78833E-06
 -1       101-2.43154E+06-3.41000E+05-9.11916E+03-9.13449E+05 6.15798E-06-2.31909E-06
 -1       102-2.44009E+06-3.55805E+05-2.44437E+04-9.10779E+05 2.77162E-05-1.04074E-05
 -1       103-2.42653E+06-3.31034E+05-3.90429E+04-9.14627E+05-3.03628E-05 1.14252E-05
 -1       104-2.48031E+06-4.24877E+05-1.15857E+05-8.96939E+05-8.84210E-05 3.31651E-05
 -1       105-2.39144E+06-2.71948E+05-1.66732E+05-9.27335E+05-4.43660E-05 1.65189E-05
 -1       106-8.88814E+05 5.18720E+03-1.19567E+04 1.63136E-07 3.07556E-09-4.60659E-10
 -1       107-8.93930E+05-6.00400E+03-8.46865E+03-4.58778E-07 1.60490E-09 2.32831E-10
 -1       108-8.90812E+05 8.15722E+02-3.10111E+03-6.25923E-07-2.77690E-09 1.83024E-09
 -1       109-8.91599E+05-9.44968E+02-1.96360E+03-6.97493E-07-1.19657E-09-3.13128E-09
 -1       110-8.91142E+05 1.29091E+02-8.25637E+02 3.78221E-07-1.93170E-10-1.18030E-09
 -1       111-8.91218E+05-1.58492E+02-5.40386E+02-1.11187E-07-1.97398E-09 3.05565E-09
 -1       112-8.91192E+05 2.93812E+01-3.53865E+02 1.54171E-07 2.30787E-09 4.61912E-09
 -1       113-8.91189E+05-9.45272E+01-4.52254E+02 1.43431E-07 5.79655E-10 1.54236E-09
 -1       114-8.91171E+05 6.51374E+01-6.70372E+02 2.82377E-07-8.46332E-10-7.07311E-09
 -1       115-8.91383E+05-4.65120E+02-1.45766E+03 5.49216E-07-2.84407E-09-2.38538E-09
 -1       116-8.90998E+05 3.99920E+02-2.47467E+03-1.83710E-07-4.73354E-11-6.31485E-09
 -1       117-8.92592E+05-2.95247E+03-6.08784E+03-9.88330E-07-1.28767E-10-2.34354E-09
 -1       118-8.89965E+05 2.55207E+03-9.67726E+03 1.42236E-08-1.30850E-09 2.36923E-10
 -1       119-8.99892E+05-1.87876E+04-2.64876E+04-3.94780E-07 7.16396E-11 1.37607E-09
 -1       120-8.83710E+05 1.62327E+04-3.74069E+04-2.12643E-07-4.57111E-10 1.58070E-09
 -1       121-2.03502E+02-7.48743E+05 8.27658E+02 1.70652E+04 5.45754E-10-3.26281E-09
 -1       122 4.45645E+02-7.48370E+05 9.21740E+02 9.96380E+04 1.21304E-09-2.37714E-09
 -1       123-1.13373E+02-7.48707E+05 1.03975E+03 1.69758E+04 6.14023E-10-2.37833E-09
 -1       124 1.21701E+03-7.47668E+05 2.32406E+03 9.93328E+04 6.39375E-10-2.56364E-09
 -1       125-1.04934E+03-7.49180E+05 3.35188E+03 1.73705E+04-7.36918E-10 6.91216E-10
 -1       141-4.97804E+05 1.15863E+03-2.67405E+03 4.02625E-07-1.89866E-09-1.03216E-09
 -1       142-4.98920E+05-1.34142E+03-1.89962E+03 5.40741E-07-2.20155E-10 4.35193E-09
 -1       143-4.98250E+05 1.82546E+02-7.08679E+02-3.55548E-07-1.61028E-10-1.94339E-09
 -1       144-4.98402E+05-2.13794E+02-4.72248E+02 2.22861E-07-1.84703E-10-1.61595E-09
 -1       145-4.98322E+05 3.12128E+01-2.48772E+02-4.56952E-07 1.60522E-09-2.87213E-09
 -1       146-4.98328E+05-5.35633E+01-2.58318E+02-5.58565E-07 7.96434E-10-1.97012E-09
 -1       147-4.98324E+05 2.23455E+01-3.36638E+02-3.19805E-07 2.80437E-10 2.81553E-09
 -1       148-4.98381E+05-1.39624E+02-6.68525E+02-7.90205E-07 1.41995E-09 6.57096E-10
 -1       149-4.98269E+05 1.17265E+02-1.17742E+03-8.35110E-08-1.33770E-09 1.18291E-10
 -1       150-4.98764E+05-8.67553E+02-2.69463E+03-3.16484E-09-1.20663E-09-7.93989E-10
 -1       151-4.97941E+05 7.50178E+02-4.62859E+03 7.16579E-07-3.22570E-10-4.81805E-10
 -1       152-5.01039E+05-5.54286E+03-1.14243E+04 2.57449E-07 1.65742E-10-2.19438E-09
 -1       153-4.95998E+05 4.79188E+03-1.81712E+04 4.36928E-07 4.34495E-09 3.36877E-09
 -1       154-5.14742E+05-3.52765E+04-4.97392E+04-2.78998E-07 1.40774E-09 4.51928E-09
 -1       155-4.84244E+05 3.04799E+04-7.02347E+04-3.20659E-07 9.50245E-09-5.34783E-10
 -1       156-1.58819E+04-8.37012E+04 3.52831E+04-3.00717E+03-2.25918E-09 8.41240E-10
 -1       157 1.95429E+04-5.23946E+04 3.07104E+04 1.08544E+04-1.29899E-09 1.68224E-09
 -1       158-3.61267E+03-7.65976E+04 1.52380E+04-3.04102E+03-6.79711E-09-1.01024E-09
 -1       159 1.87508E+04-2.86543E+04 3.18175E+04 9.05767E+03 6.05678E-09-5.40439E-10
 -1       160-1.52226E+04-1.07277E+05 2.25238E+04-1.21125E+03 3.85080E-09-3.91935E-10
 -1       161-4.01868E+05-5.39491E+04-2.06863E+03-1.41031E+05-1.26496E-08 4.92037E-10
 -1       162-3.05648E+05-5.08997E+04 1.47094E+04-1.32793E+05 1.43142E-08-1.81305E-09
 -1       163-4.00463E+05-5.09793E+04-4.79955E+03-1.41843E+05-5.30386E-09-1.61003E-09
 -1       164-3.17902E+05-4.39576E+04 1.19322E+04-1.19549E+05-2.13753E-08 1.08775E-08
 -1       165-3.89523E+05-6.11261E+04-5.48218E+03-1.54132E+05-2.96887E-05 1.13850E-05
 -1       166-3.29144E+05-3.36939E+04 1.12847E+04-1.07417E+05-5.97233E-05 2.34211E-05
 -1       167-3.89313E+05-6.10080E+04-5.73782E+03-1.54117E+05-2.96718E-05 1.13809E-05
 -1       168-3.18223E+05-4.46788E+04 1.09011E+04-1.19340E+05 2.87628E-09 1.50357E-09
 -1       169-4.00353E+05-5.03764E+04-6.45443E+03-1.42067E+05 6.05329E-06-2.21380E-06
 -1       170-3.08372E+05-5.58498E+04 9.34397E+03-1.31797E+05 1.19894E-05-4.30257E-06
 -1       171-3.99255E+05-4.96029E+04-8.77565E+03-1.41803E+05 6.07499E-06-2.21025E-06
 -1       172-3.20864E+05-4.90372E+04 2.57587E+03-1.18770E+05 2.12312E-08-3.55703E-09
 -1       173-3.87771E+05-5.74239E+04-1.98628E+04-1.54951E+05-1.24303E-08-1.42973E-09
 -1       174-3.44709E+05-6.11894E+04-2.95773E+04-1.02382E+05-6.06103E-08-4.83851E-10
 -1       175-3.75506E+05-3.72187E+04-6.58982E+04-1.58333E+05-6.26460E-09-2.09911E-09
 -1       191 3.93907E+02 3.02233E+05 6.33469E+02-4.99244E+03-2.19188E-10-3.27418E-10
 -1       192 1.41359E+02 3.02310E+05 3.77252E+02-5.24282E+03-1.69052E-10-9.24047E-10
 -1       193 6.32657E+01 3.02262E+05 3.00647E+02-4.86718E+03-5.93587E-10-4.81850E-09
 -1       194 1.85073E+02 3.02320E+05 4.52860E+02-5.48278E+03-4.59295E-10-5.97538E-09
 -1       195 5.27501E+02 3.02213E+05 8.21828E+02-4.75214E+03-9.68612E-10-1.18598E-09
 -1       266-3.41969E+04-1.58132E+04 7.89293E+04-5.19334E+01 2.91038E-11-3.51478E-09
 -1       267 3.96030E+04 1.84669E+04 5.59877E+04 5.97089E+01 1.12777E-10-6.38834E-09
 -1       268-5.39642E+03-2.64388E+03 2.07229E+04-7.77584E+00-1.18234E-11-4.21569E-09
 -1       269 6.37007E+03 3.17033E+03 1.35434E+04 9.03915E+00-4.50200E-11 4.08042E-09
 -1       270-9.72414E+02-5.25918E+02 6.50249E+03-1.26133E+00-3.84262E-11 5.27647E-09
 -1       271-3.55358E+06-4.42720E+05-2.79915E+05-1.37589E+06-8.65839E-10 1.29512E-09
 -1       272-3.65849E+06-6.27713E+05-1.77898E+05-1.36904E+06-1.77351E-11-1.38425E-09
 -1       273-3.60422E+06-5.07961E+05-6.60282E+04-1.36600E+06 8.38554E-10-1.43336E-09
 -1       274-3.59918E+06-5.45292E+05-3.65226E+04-1.38529E+06 3.38264E-09 2.94722E-09
 -1       275-3.61125E+06-5.14012E+05-1.53486E+04-1.36383E+06 2.70302E-09 4.18004E-09
 -1       276-3.59055E+06-5.38147E+05-8.13498E+03-1.38895E+06 2.43108E-09-5.47243E-09
 -1       277-3.61282E+06-5.13950E+05-4.10050E+03-1.36283E+06 2.06091E-09 3.04613E-09
 -1       278-3.58870E+06-5.38414E+05-3.12293E+03-1.39046E+06 1.45019E-09 5.74319E-09
 -1       279-3.61320E+06-5.13591E+05-3.59287E+03-1.36243E+06-3.93698E-10 2.58353E-09
 -1       280-3.58909E+06-5.39323E+05-6.75328E+03-1.39065E+06-4.26361E-11-5.81360E-09
 -1       281-3.61247E+06-5.13087E+05-1.25257E+04-1.36264E+06 1.46976E-09-9.18590E-11
 -1       282-3.59525E+06-5.46043E+05-2.97500E+04-1.38877E+06 1.55867E-09 3.25599E-09
 -1       283-3.60715E+06-5.07766E+05-5.37060E+04-1.36397E+06-2.71939E-10-7.02130E-10
 -1       284-3.64285E+06-6.13742E+05-1.44739E+05-1.37629E+06 4.01997E-10 5.52245E-09
 -1       285-3.56621E+06-4.54457E+05-2.27746E+05-1.37174E+06 5.09317E-11-1.13505E-09
 -1       286 3.97621E+05-4.51723E+04 1.04105E+05 9.32579E+02 1.26263E-09-1.01136E-09
 -1       287 4.43369E+05 5.22783E+04 7.37876E+04-1.34815E+03-5.58469E-11-5.91172E-11
 -1       288 4.15297E+05-7.09234E+03 2.69719E+04 2.63357E+01 3.02145E-10 3.45608E-10
 -1       289 4.22808E+05 8.20797E+03 1.69932E+04-3.09637E+02 1.55344E-09-4.62705E-10
 -1       290 4.18181E+05-1.11392E+03 6.97305E+03-1.05907E+02-2.21333E-08 2.12322E-09
 -1       291 4.19455E+05 1.31383E+03 4.22509E+03-1.57590E+02-4.63207E-08-4.74347E-09
 -1       292 4.18653E+05-1.99594E+02 2.17487E+03-1.25715E+02 6.65197E-09 4.01059E-09
 -1       293 4.18986E+05 4.02781E+02 1.93345E+03-1.36801E+02 6.11401E-08 1.69216E-11
 -1       294 4.18651E+05-2.03027E+02 2.20445E+03-1.26696E+02-5.53294E-07-2.50623E-10
 -1       295 4.19471E+05 1.34324E+03 4.31106E+03-1.49067E+02-1.17188E-06-7.04352E-09
 -1       296 4.18167E+05-1.13989E+03 7.12704E+03-1.13449E+02-4.39605E-06-1.66337E-08
 -1       297 4.22899E+05 8.39954E+03 1.73790E+04-2.52411E+02-7.61937E-06 1.00172E-08
 -1       298 4.15219E+05-7.25788E+03 2.75860E+04-2.33498E+01-3.81902E-06 1.71804E-08
 -1       299 4.43778E+05 5.34603E+04 7.54386E+04-9.61077E+02 1.87701E-10 2.08629E-08
 -1       300 3.97289E+05-4.61880E+04 1.06512E+05 5.95201E+02 4.70501E-09-6.98492E-10
 -1       301 2.78222E+04-1.61383E+04 8.30082E+04-2.20620E+04 9.09495E-11 5.62494E-09
 -1       302 1.05930E+04 1.11145E+03 5.63786E+04-2.73339E+04 1.01500E-09 2.93528E-09
 -1       303 2.25920E+03-1.02617E+04 5.23386E+04-2.20816E+04-8.09450E-11 2.95222E-09
 -1       304 2.01082E+04 8.48270E+03 8.67395E+04-2.72948E+04 1.19508E-09 3.85444E-09
 -1       305 5.53231E+04-2.34715E+04 1.54919E+05-2.20569E+04 2.69210E-10 3.01293E-09
 -1       306-1.63294E+06-2.14200E+05-9.81297E+04-6.33300E+05 9.81345E-10-4.58385E-10
 -1       307-1.64808E+06-3.00099E+05-6.22763E+04-6.55330E+05-6.96787E-10-2.30830E-09
 -1       308-1.65084E+06-2.36767E+05-2.31716E+04-6.29709E+05-4.40468E-09-2.93039E-09
 -1       309-1.62742E+06-2.71385E+05-1.28135E+04-6.61277E+05-9.31141E-09-1.77170E-09
 -1       310-1.65330E+06-2.38870E+05-5.41418E+03-6.28997E+05-5.26325E-09 4.04953E-10
 -1       311-1.62466E+06-2.68703E+05-2.91864E+03-6.62412E+05 1.00215E-09-4.43606E-10
 -1       312-1.65370E+06-2.38987E+05-1.56658E+03-6.28818E+05 3.60586E-10 3.27486E-09
 -1       313-1.62440E+06-2.68424E+05-1.38277E+03-6.62469E+05 2.90675E-09 2.25464E-09
 -1       314-1.65357E+06-2.39119E+05-1.84771E+03-6.28955E+05-3.09137E-09-7.79437E-10
 -1       315-1.62514E+06-2.68348E+05-3.67210E+03-6.61766E+05 3.00815E-10-2.96427E-09
 -1       316-1.65282E+06-2.39189E+05-6.96327E+03-6.29404E+05-1.30058E-10-2.66118E-09
 -1       317-1.62897E+06-2.71509E+05-1.65079E+04-6.59903E+05-4.44288E-09-4.21778E-09
 -1       318-1.64953E+06-2.36600E+05-2.99102E+04-6.30446E+05-1.69211E-09 3.98722E-09
 -1       319-1.65577E+06-3.08414E+05-8.03419E+04-6.52069E+05 1.17666E-10 1.92449E-09
 -1       320-1.62640E+06-2.07499E+05-1.26612E+05-6.35103E+05-2.02272E-09 9.74978E-10
 -1       321-7.32804E+05-3.77770E+03 1.74749E+03-1.61055E+04-5.59515E-09 5.80758E-09
 -1       322-5.71444E+05 1.08855E+04 3.19456E+04 2.35975E+04-2.68070E-08 4.47687E-09
 -1       323-8.04238E+05-7.03428E+03-1.85749E+04-4.79344E+03-8.58228E-09 3.94925E-09
 -1       324-6.04276E+05 6.30863E+02 2.02053E+04-1.31059E+04-8.84040E-09-6.26466E-09
 -1       325-6.99964E+05 6.22383E+03 1.79218E+03 2.05953E+04 4.17524E-09-5.78558E-09
 -1       326-6.00379E+05 1.57959E+02 2.00395E+04-1.46153E+04 8.02607E-09-9.73273E-10
 -1       327-8.08136E+05-6.52637E+03-2.12917E+04-3.28427E+03-4.38422E-09 9.19030E-10
 -1       328-5.77865E+05 2.77810E+03 2.46211E+04 2.27650E+04 2.41170E-09 1.10070E-08
 -1       329-7.22485E+05 3.79321E+03-3.81540E+03-1.67826E+04-3.89858E-09 8.11963E-09
 -1       330-6.22633E+05-3.07366E+03 1.38449E+04 5.27309E+03 1.33145E-08 8.23832E-10
 -1       331-7.63359E+05-1.03967E+03-1.38552E+04 1.42048E+04 2.04403E-09-6.42660E-09
 -1       332-5.68846E+05 2.74430E+03 2.26215E+04-2.38139E+04-2.71761E-08-9.01531E-09
 -1       333-7.76288E+05-1.57340E+03-2.23151E+04 1.23022E+04-2.10194E-08-5.38603E-09
 -1       334-6.23539E+05-1.17689E+04-3.05482E+03 8.18892E+03-3.81732E-10 9.62723E-09
 -1       335-7.08658E+05 1.30485E+04-3.08670E+04-1.77961E+04-1.42092E-08 6.41012E-09
 -1       336 2.82413E+02-7.97103E+05-2.77841E+03-1.06802E+04-2.99906E-09 2.75304E-09
 -1       337-1.39476E+03-7.98253E+05-5.30589E+03-6.70910E+04-4.94720E-09 6.14955E-09
 -1       338 1.06557E+03-7.96651E+05-8.82986E+03-1.01567E+04-4.61750E-09 4.36557E-10
 -1       339-1.13344E+04-8.04239E+05-2.19195E+04-6.77969E+04-6.60566E-09-3.78350E-10
 -1       340 9.19293E+03-7.91521E+05-3.34682E+04-9.97659E+03-4.70573E-09-5.35920E-10
 -1       356-7.09714E+05 1.28127E+04-3.11265E+04-1.73928E+04-3.60934E-09 3.81260E-09
 -1       357-6.26409E+05-1.18985E+04-3.68173E+03 7.58983E+03-5.15438E-09 6.40057E-10
 -1       358-7.71749E+05-1.20556E+03-2.14464E+04 1.24715E+04-9.56334E-09-6.46014E-09
 -1       359-5.72127E+05 2.63079E+03 2.18736E+04-2.34693E+04-9.78797E-09-1.33236E-08
 -1       360-7.64003E+05-1.29680E+03-1.41506E+04 1.36644E+04-5.14058E-09-2.87002E-09
 -1       361-6.24125E+05-2.96755E+03 1.33397E+04 5.72666E+03 3.28697E-09 2.60275E-09
 -1       362-7.19736E+05 3.95717E+03-3.70322E+03-1.67223E+04 2.17039E-08 8.65871E-09
 -1       363-5.82118E+05 2.39161E+03 2.28589E+04 2.21589E+04 1.26963E-08 1.15811E-08
 -1       364-8.06018E+05-6.31381E+03-2.25160E+04-2.76521E+03-1.52003E-08 2.72797E-09
 -1       365-6.02286E+05-8.60922E+02 1.61365E+04-1.48459E+04-3.68706E-08-4.33374E-09
 -1       366-6.99564E+05 7.04476E+03-4.58657E+03 2.02802E+04 2.23687E-08-3.21370E-09
 -1       367-6.11647E+05-7.07887E+03 3.89470E+03-1.22794E+04 4.05643E-08-3.16754E-09
 -1       368-7.96659E+05-1.52474E+02-4.24137E+04-5.33156E+03-1.07402E-08-2.97405E-10
 -1       369-5.95607E+05-3.71209E+04-3.60684E+04 2.32952E+04-2.60565E-08 6.47560E-09
 -1       370-7.15624E+05 3.73464E+04-9.41924E+04-1.52920E+04 2.69915E-09 4.84215E-09
 -1       371-1.39434E+04-9.89654E+04 2.17868E+04-7.29487E+02 1.42463E-08 1.08031E-09
 -1       372 1.44168E+04-3.85995E+04 2.26098E+04 7.26558E+03-2.65936E-09 2.48278E-10
 -1       373-5.54247E+02-7.49716E+04 2.74373E+03-2.35803E+03-3.94266E-10 5.85402E-10
 -1       374-5.06140E+03-6.67999E+04-4.41879E+03 8.95518E+03-5.93900E-10-1.13411E-09
 -1       375 5.63607E+03-7.08987E+04-1.30007E+04-2.41813E+03-4.13911E-09-7.70072E-10
 -1       406 4.60834E+02 3.00716E+05 1.09467E+03-1.56923E+04-1.41154E-09 3.16140E-09
 -1       407 3.59208E+02 3.00919E+05 1.51780E+03-1.70812E+04-8.24343E-10 2.64845E-09
 -1       408 6.78865E+02 3.00655E+05 2.65510E+03-1.55838E+04-1.81171E-09 1.71258E-09
 -1       409 2.73379E+03 3.01690E+05 5.79507E+03-1.72638E+04-1.14596E-09-4.93128E-09
 -1       410 7.84976E+03 2.99919E+05 1.17399E+04-1.55041E+04-2.20098E-09-3.07773E-09
 -1       501-2.59185E+05-5.11788E+04 1.08873E+05-5.66352E+03 9.23848E-09 6.22822E-09
 -1       502-1.61630E+05 5.74927E+04 8.54886E+04 1.49416E+04 6.63053E-09 1.21581E-08
 -1       503-2.23308E+05-6.18911E+03 2.85705E+04-6.90860E+03 5.94872E-09 1.17361E-08
 -1       504-1.59427E+05 1.00206E+04 2.85173E+04 9.36656E+03 5.05949E-10 1.04551E-08
 -1       505-2.61217E+05-3.92082E+03-1.77088E+03-8.77659E+01 5.27575E-09 1.96678E-09
 -1       506-1.53912E+05 3.20443E+03 1.63981E+04-5.40240E+03 1.76692E-08-5.35817E-09
 -1       507-2.28754E+05 5.53318E+02-6.72775E+02 7.85632E+03 1.73662E-08-1.44780E-08
 -1       508-1.90336E+05-1.50894E+03 5.46286E+03-1.36536E+04 7.47869E-09-2.22140E-08
 -1       509-2.25076E+05 1.07580E+03-1.09900E+03 8.16787E+03 1.85452E-08-1.45375E-08
 -1       510-1.57554E+05 1.76966E+03 1.23409E+04-6.43604E+03 1.82409E-08-1.13165E-08
 -1       511-2.61277E+05-2.98565E+03-8.00685E+03 6.34370E+02-4.69254E-09-3.91032E-09
 -1       512-1.59592E+05 2.93132E+03 1.39957E+04 8.47014E+03-1.36921E-08 4.98369E-09
 -1       513-2.23060E+05-6.35834E+01 3.60064E+03-6.73450E+03-7.86011E-09 9.46216E-09
 -1       514-1.84435E+05 1.00210E+04 1.85690E+04 1.49783E+04-2.13429E-09 1.82272E-08
 -1       515-2.36666E+05-9.83853E+03 1.52970E+04-5.87446E+03-6.88647E-09 7.86895E-09
 -1       521-3.62305E+06-4.61575E+05-2.33535E+05-1.39431E+06-2.81580E-09 2.21189E-09
 -1       522-3.69929E+06-6.27125E+05-1.48398E+05-1.40154E+06-7.44421E-10 2.66664E-09
 -1       523-3.66523E+06-5.16007E+05-5.50658E+04-1.38610E+06 5.35238E-10 2.65572E-09
 -1       524-3.65019E+06-5.58049E+05-3.04834E+04-1.41477E+06 1.17598E-09-2.48065E-09
 -1       525-3.67083E+06-5.21316E+05-1.28116E+04-1.38459E+06 1.63823E-09-1.84355E-09
 -1       526-3.64371E+06-5.51345E+05-6.85025E+03-1.41695E+06 2.50623E-09 1.15239E-09
 -1       527-3.67164E+06-5.21770E+05-3.53626E+03-1.38430E+06 3.14401E-10-5.87050E-10
 -1       528-3.64325E+06-5.50441E+05-2.87885E+03-1.41681E+06 3.71870E-10 5.00677E-10
 -1       529-3.67126E+06-5.22169E+05-3.55818E+03-1.38473E+06-1.30512E-10 2.08593E-09
 -1       530-3.64506E+06-5.49896E+05-6.87678E+03-1.41515E+06 4.77485E-12 1.43700E-09
 -1       531-3.66969E+06-5.22479E+05-1.29042E+04-1.38584E+06-1.52841E-09 1.55524E-10
 -1       532-3.65286E+06-5.55264E+05-3.06316E+04-1.41130E+06-4.33147E-10 1.44928E-09
 -1       533-3.66338E+06-5.17830E+05-5.53894E+04-1.38810E+06-3.70682E-09-2.02635E-09
 -1       534-3.70344E+06-6.23439E+05-1.49155E+05-1.39654E+06-2.23372E-09 5.76256E-09
 -1       535-3.62040E+06-4.63711E+05-2.34786E+05-1.39701E+06-3.54703E-09 3.73984E-09
 -1       536 4.04202E+04-1.20283E+04 4.33933E+04-5.76286E+03 7.34872E-10-4.80031E-09
 -1       537 5.72141E+04 1.49559E+04 2.84264E+04-3.31512E+04-3.36695E-09-5.45697E-11
 -1       538 4.71189E+04-1.42069E+03 1.12367E+04-5.69765E+03 1.95541E-10-1.46156E-09
 -1       539 4.94266E+04 1.56595E+03 6.42614E+03-3.32009E+04 2.69756E-09-2.70450E-09
 -1       540 4.79242E+04-1.97934E+02 2.82872E+03-5.70936E+03-6.41194E-10-3.17959E-09
 -1       541 4.83159E+04 1.57851E+02 1.52341E+03-3.31728E+04-2.14641E-10 2.44665E-09
 -1       542 4.80228E+04-3.20720E+01 6.92507E+02-5.72609E+03 2.76441E-09-7.80005E-10
 -1       543 4.80735E+04 3.89249E+01 3.45140E+02-3.31468E+04 4.19777E-09-3.50707E-09
 -1       544 4.80341E+04 3.05967E+00 1.21789E+02-5.73553E+03 3.59205E-09-1.81336E-09
 -1       545 4.79933E+04 2.81669E+01-2.64819E+01-3.31352E+04-1.70766E-09-1.40443E-09
 -1       546 4.80443E+04 1.96016E+01-1.78345E+02-5.73760E+03 8.90680E-10 2.05063E-09
 -1       547 4.79288E+04-9.32521E+01-4.78292E+02-3.31341E+04-1.38243E-09 4.25217E-09
 -1       548 4.81135E+04 1.01698E+02-8.78202E+02-5.73669E+03-7.36691E-10 2.99224E-09
 -1       549 4.74133E+04-1.17269E+03-2.21694E+03-3.30956E+04-6.79847E-10 1.49521E-09
 -1       550 4.86485E+04 9.00178E+02-3.42695E+03-5.77610E+03-2.77396E-11 3.48132E-09
 -1       551 7.98458E+03-2.84997E+05 2.00734E+04-4.54857E+05-5.52791E-09 3.01952E-10
 -1       552 6.62276E+03-2.82305E+05 2.14689E+04-5.61600E+05-6.14455E-09 4.90400E-09
 -1       553 4.85141E+03-2.85920E+05 3.15526E+04-4.53945E+05-6.36646E-09 5.76620E-10
 -1       554 2.04009E+04-2.72134E+05 6.48424E+04-5.61721E+05-6.99947E-09 2.23281E-09
 -1       555 4.75890E+04-2.96020E+05 1.22810E+05-4.54584E+05-5.83168E-09-3.60887E-09
 -1       556-8.08325E+04-9.40364E+04 2.35788E+04-1.50491E+05-1.11577E-08 5.92991E-10
 -1       557-5.67974E+04-1.16836E+05 1.19641E+04-1.69613E+05-1.48466E-08-1.73486E-09
 -1       558-8.08969E+04-9.94714E+04 4.98071E+03-1.46791E+05-5.10045E-09-1.06866E-09
 -1       559-5.95564E+04-1.20265E+05 2.47500E+03-1.70751E+05 1.44973E-09-1.27943E-09
 -1       560-8.13176E+04-9.92744E+04 1.08295E+03-1.46950E+05-7.63976E-10 4.73847E-10
 -1       561-6.02460E+04-1.20188E+05 5.36566E+02-1.71215E+05-1.14233E-09 2.27647E-09
 -1       562-8.16642E+04-9.90352E+04 2.08930E+02-1.47192E+05-1.12414E-09 2.85354E-10
 -1       563-6.06253E+04-1.20027E+05 6.67578E+01-1.71471E+05-4.76939E-09-7.34212E-09
 -1       564-8.18699E+04-9.88976E+04-7.60311E+01-1.47337E+05-1.71531E-09 7.72161E-10
 -1       565-6.08190E+04-1.19949E+05-2.52685E+02-1.71594E+05-1.75169E-09 5.42968E-09
 -1       566-8.19155E+04-9.88476E+04-5.78323E+02-1.47379E+05 2.31807E-09 4.39923E-09
 -1       567-6.09228E+04-1.19988E+05-1.29267E+03-1.71574E+05 2.74099E-09 2.16460E-09
 -1       568-8.17365E+04-9.90051E+04-2.66761E+03-1.47280E+05-2.11003E-10 1.24783E-09
 -1       569-6.24486E+04-1.21322E+05-6.28853E+03-1.70988E+05 2.72121E-09 7.26504E-09
 -1       570-8.05675E+04-1.02795E+05-1.25073E+04-1.45735E+05 3.81988E-10 1.24601E-09
 -1       571 2.07506E+05 8.78971E+03 1.31782E+04-5.14916E+04-1.38243E-10-1.68325E-09
 -1       572 2.09486E+05 3.03405E+03 6.46190E+03-5.65575E+04 1.14596E-10-6.18456E-09
 -1       573 2.08302E+05 7.05623E+02 2.87216E+03-5.13579E+04-2.42835E-10-2.77896E-09
 -1       574 2.08537E+05 2.23538E+02 1.44018E+03-5.67050E+04-4.48154E-10 9.07676E-10
 -1       575 2.08390E+05 2.40120E+01 6.79848E+02-5.13406E+04 1.52568E-10-2.29966E-09
 -1       576 2.08410E+05 1.99445E+00 3.46919E+02-5.67245E+04 2.64393E-10-3.57795E-09
 -1       577 2.08404E+05-1.10426E+01 1.72430E+02-5.13383E+04-1.29603E-10-1.05047E-09
 -1       578 2.08399E+05-9.30010E+00 9.69076E+01-5.67269E+04 9.09495E-12-9.74978E-10
 -1       579 2.08420E+05-1.42526E+01 6.45322E+01-5.13382E+04 1.92813E-10 1.24192E-09
 -1       580 2.08421E+05-1.72487E+01 6.89777E+01-5.67240E+04 2.54659E-11 5.26597E-10
 -1       581 2.08446E+05-2.28146E+01 1.03215E+02-5.13412E+04-4.33829E-10-7.01675E-10
 -1       582 2.08474E+05-5.30933E+00 2.03506E+02-5.66930E+04 4.54747E-11-2.20643E-09
 -1       583 2.08472E+05 4.90330E+01 3.95091E+02-5.13692E+04-1.67347E-10-2.35036E-09
 -1       584 2.08653E+05 3.57081E+02 8.87001E+02-5.64568E+04-1.76806E-09 1.27056E-09
 -1       585 2.08408E+05 1.13775E+03 1.80258E+03-5.15784E+04 4.45652E-10 7.96717E-10
 -1       586 5.02695E+02 9.15104E+04 1.24020E+03-1.30072E+05-4.32010E-11-7.84439E-10
 -1       587 4.58047E+02 9.17265E+04 1.90257E+03-1.45048E+05-1.58980E-09 1.15733E-10
 -1       588 7.97858E+02 9.13781E+04 3.43737E+03-1.29906E+05 4.36557E-11 1.00965E-09
 -1       589 3.29981E+03 9.27975E+04 7.54888E+03-1.45072E+05-1.61162E-09 5.99243E-10
 -1       590 9.55896E+03 9.04092E+04 1.52265E+04-1.30045E+05 7.82165E-11 1.09821E-09
 -1       591-9.60315E+04-2.84682E+04-1.97623E+04-4.60442E+04 3.50951E-10 1.26693E-09
 -1       592-9.73946E+04-2.77646E+04-9.96931E+03-5.12984E+04 2.52271E-10 1.68075E-09
 -1       593-9.70722E+04-2.30918E+04-4.23081E+03-4.87660E+04 3.10820E-10-2.50589E-09
 -1       594-9.51300E+04-2.53075E+04-2.07938E+03-5.14697E+04 5.09772E-10 7.35987E-10
 -1       595-9.71827E+04-2.29550E+04-9.59754E+02-4.88679E+04 6.37101E-10 2.94222E-10
 -1       596-9.49766E+04-2.52219E+04-4.85106E+02-5.14466E+04 3.12696E-09 5.84942E-09
 -1       597-9.72008E+04-2.29718E+04-2.60946E+02-4.88680E+04 4.43167E-09-1.25783E-09
 -1       598-9.49605E+04-2.52227E+04-2.02763E+02-5.14394E+04 1.10035E-08-7.17023E-10
 -1       599-9.71995E+04-2.29731E+04-2.50131E+02-4.88671E+04 4.82441E-09-1.54523E-09
 -1       600-9.49729E+04-2.52235E+04-4.56634E+02-5.14433E+04-1.02818E-09-2.87628E-10
 -1       601-9.71790E+04-2.29592E+04-8.98378E+02-4.88653E+04 2.33217E-09 6.39761E-09
 -1       602-9.51151E+04-2.53026E+04-1.94414E+03-5.14597E+04-3.77440E-10 4.93060E-10
 -1       603-9.70715E+04-2.30914E+04-3.95432E+03-4.87707E+04-1.48157E-09-1.64346E-09
 -1       604-9.72524E+04-2.75748E+04-9.31602E+03-5.12686E+04 2.42608E-10-3.12048E-09
 -1       605-9.60724E+04-2.81370E+04-1.84666E+04-4.62506E+04 2.65345E-09 2.29920E-09
 -1       606 6.93449E+04-8.15508E+03-1.31155E+04 2.16485E+04-3.94175E-09-9.94078E-10
 -1       607 6.72396E+04-2.71742E+03-6.46634E+03 2.38332E+04-5.26597E-10 9.92031E-10
 -1       608 6.84581E+04-5.55134E+02-2.88317E+03 2.14956E+04 3.60887E-09 4.64343E-09
 -1       609 6.81908E+04-1.51840E+02-1.44897E+03 2.40014E+04-4.08818E-10-1.20235E-09
 -1       610 6.83422E+04 1.12409E+01-6.86457E+02 2.14768E+04-3.47791E-09 3.06750E-09
 -1       611 6.82889E+04 3.11203E+01-3.45301E+02 2.40217E+04-8.28732E-09 6.96446E-10
 -1       612 6.83143E+04 3.63965E+01-1.63347E+02 2.14748E+04 4.75575E-09 1.64368E-09
 -1       613 6.82930E+04 3.92997E+01-7.26454E+01 2.40241E+04 1.30894E-08 3.60933E-09
 -1       614 6.83006E+04 3.50732E+01-1.59041E+01 2.14743E+04 8.20182E-09-3.63434E-09
 -1       615 6.82885E+04 4.17063E+01 3.34610E+01 2.40243E+04 4.30555E-09-2.19461E-09
 -1       616 6.82899E+04 3.99012E+01 9.76160E+01 2.14746E+04-2.45245E-09 2.19757E-09
 -1       617 6.83001E+04 7.19200E+01 2.23221E+02 2.40234E+04 2.87309E-09 3.39492E-09
 -1       618 6.82689E+04 1.30027E+02 4.51667E+02 2.14751E+04 2.58092E-09-1.91608E-09
 -1       619 6.84492E+04 4.76786E+02 1.01795E+03 2.40192E+04 5.50017E-10-3.41197E-09
 -1       620 6.81292E+04 1.32822E+03 2.06634E+03 2.14772E+04 1.29228E-09 1.05615E-09
 -1       621 7.21076E+02 2.10664E+05 2.58586E+03-1.49868E+04-1.07775E-10 2.88765E-11
 -1       622 3.25394E+02 2.11191E+05 2.59913E+03-1.85529E+04 3.31966E-10 2.55750E-09
 -1       623 1.67363E+02 2.10746E+05 3.69890E+03-1.49933E+04-6.93490E-11 7.85576E-10
 -1       624 1.86437E+03 2.12389E+05 7.51576E+03-1.84868E+04 4.19277E-10-1.78147E-09
 -1       625 5.16739E+03 2.09478E+05 1.42225E+04-1.50512E+04 1.19144E-10-1.60890E-09
 -1       626 1.25462E+05 4.03234E+04-2.46545E+03 7.95647E+04-2.14595E-09-3.50883E-09
 -1       627 1.22725E+05 4.36128E+04-1.17215E+03 8.18787E+04-3.92674E-09-1.03927E-08
 -1       628 1.25561E+05 4.14369E+04-4.92967E+02 7.88942E+04-9.22864E-09-1.96815E-09
 -1       629 1.22818E+05 4.41841E+04-2.34734E+02 8.19217E+04-7.28414E-09 1.48802E-08
 -1       630 1.25552E+05 4.15121E+04-1.01048E+02 7.88325E+04-3.84989E-09 1.29961E-09
 -1       631 1.22809E+05 4.42306E+04-3.86484E+01 8.19244E+04-5.06952E-09-1.10880E-08
 -1       632 1.25539E+05 4.15169E+04 4.05620E+00 7.88224E+04 2.97405E-09 6.67535E-09
 -1       633 1.22804E+05 4.42351E+04 4.83362E+01 8.19220E+04-1.69280E-09-6.96900E-10
 -1       634 1.25528E+05 4.15134E+04 1.17380E+02 7.88193E+04 1.25260E-09 6.70684E-09
 -1       635 1.22814E+05 4.42380E+04 2.63241E+02 8.19237E+04-5.22141E-09-6.45537E-09
 -1       636 1.25516E+05 4.15218E+04 5.44716E+02 7.88119E+04-3.85808E-09 1.79944E-09
 -1       637 1.22940E+05 4.43710E+04 1.21316E+03 8.19057E+04-1.54330E-09 2.82944E-09
 -1       638 1.25484E+05 4.19271E+04 2.51002E+03 7.86338E+04 2.13640E-09 5.22004E-09
 -1       639 1.24225E+05 4.65246E+04 5.96604E+03 8.13908E+04 1.88720E-11-1.28421E-09
 -1       640 1.25500E+05 4.82074E+04 1.25438E+04 7.60143E+04-7.77209E-09-1.32293E-08
 -1       641-1.66543E+04 2.55836E+03-5.89777E+03-2.50259E+01 1.79804E-05-2.29804E-08
 -1       642-1.92133E+04-2.96104E+03-4.17334E+03 9.41765E+00 3.59234E-05-3.61124E-08
 -1       643-1.76406E+04 4.02092E+02-1.52095E+03-2.77840E+01 3.31103E-05-3.98624E-08
 -1       644-1.80637E+04-4.64346E+02-9.47986E+02 1.43385E+01 3.02751E-05-2.93117E-08
 -1       645-1.78040E+04 6.21447E+01-3.67133E+02-2.99476E+01 1.98803E-05-2.48230E-08
 -1       646-1.78698E+04-6.66751E+01-1.79858E+02 1.71060E+01 9.47446E-06-9.55936E-09
 -1       647-1.78345E+04 4.49188E+00-1.18849E+01-3.05517E+01-5.05669E-06 8.42465E-09
 -1       648-1.78174E+04 2.83117E+01 1.35617E+02 1.65573E+01-1.95913E-05 2.49352E-08
 -1       649-1.78564E+04-3.28305E+01 3.18892E+02-2.93988E+01-3.59181E-05 4.66992E-08
 -1       650-1.76973E+04 2.53355E+02 7.78790E+02 1.25323E+01-5.22428E-05 5.72264E-08
 -1       651-1.79545E+04-2.20522E+02 1.35581E+03-2.65267E+01-6.68953E-05 7.69791E-08
 -1       652-1.70259E+04 1.63078E+03 3.35992E+03 5.02594E+00-8.15362E-05 8.24402E-08
 -1       653-1.85277E+04-1.41000E+03 5.34758E+03-2.18925E+01-8.58444E-05 9.34497E-08
 -1       654-1.29932E+04 1.03801E+04 1.46390E+04-7.50391E+00-9.01061E-05 8.12931E-08
 -1       655-2.19865E+04-8.96806E+03 2.06768E+04-1.39972E+01-4.50914E-05 3.12575E-08
 -1       656 7.92341E+03-2.96993E+05-3.36740E+04 8.04325E+03-1.09503E-09 5.60249E-10
 -1       657-1.15304E+04-3.09454E+05-2.49786E+04 3.43784E+04-3.35149E-10 1.00181E-09
 -1       658 1.63451E+03-3.01320E+05-1.62559E+04 7.97165E+03 4.97266E-10-1.71667E-09
 -1       659-1.13521E+04-3.09377E+05-2.46835E+04 3.44228E+04-1.21327E-09-2.95660E-09
 -1       660 7.79400E+03-2.97099E+05-3.31126E+04 7.99935E+03-1.21690E-09-3.36058E-09
 -1       661 1.84414E+05 2.56039E+04 1.46373E+04 7.23591E+04 3.57227E-09 1.59162E-09
 -1       662 1.87555E+05 3.41152E+04 8.81464E+03 7.45192E+04-1.03742E-09 3.29874E-09
 -1       663 1.86662E+05 2.77858E+04 3.43549E+03 7.23714E+04-2.64336E-09-4.31237E-09
 -1       664 1.84926E+05 3.05800E+04 1.81298E+03 7.49317E+04 2.44886E-09-3.68095E-09
 -1       665 1.86878E+05 2.79848E+04 8.02342E+02 7.23800E+04 2.72721E-10 1.07244E-09
 -1       666 1.84675E+05 3.02858E+04 4.27050E+02 7.49493E+04-1.15195E-09-3.84898E-09
 -1       667 1.86902E+05 2.80045E+04 2.48682E+02 7.23819E+04 2.29925E-09-5.02268E-10
 -1       668 1.84653E+05 3.02660E+04 2.38896E+02 7.49508E+04 1.87390E-09-1.35799E-10
 -1       669 1.86900E+05 2.80010E+04 3.48639E+02 7.23803E+04-3.03737E-09-3.65844E-09
 -1       670 1.84697E+05 3.03096E+04 6.97411E+02 7.49580E+04 1.11186E-09-1.16745E-09
 -1       671 1.86861E+05 2.79635E+04 1.36486E+03 7.23746E+04 3.25178E-09 3.88150E-09
 -1       672 1.85129E+05 3.08212E+04 3.11709E+03 7.49339E+04 7.29716E-09 2.62389E-10
 -1       673 1.86490E+05 2.76177E+04 5.91830E+03 7.23576E+04 4.61574E-09-1.18689E-10
 -1       674 1.89659E+05 3.69200E+04 1.51957E+04 7.42273E+04 1.07653E-08 6.34896E-09
 -1       675 1.82615E+05 2.38543E+04 2.52349E+04 7.23352E+04 6.75072E-10-7.26686E-10
 -1       676 3.10471E+02-2.65320E+05-2.14228E+03-2.98835E+02-2.31324E-09-4.97404E-09
 -1       677-8.90940E+02-2.66163E+05-3.21638E+03-1.63034E+03-8.41979E-09-5.83765E-09
 -1       678 4.12613E+02-2.65209E+05-4.87308E+03-3.00381E+02-2.88719E-09-1.39289E-09
 -1       679-5.44244E+03-2.68923E+05-1.14948E+04-1.62360E+03-9.03492E-09-2.52169E-09
 -1       680 3.85742E+03-2.62560E+05-1.79075E+04-3.06348E+02-3.96903E-09 5.46038E-10
 -1       716-2.35889E-01-1.12464E-01 1.05550E+01-3.56026E-04 4.09805E-09-2.73292E-09
 -1       717 1.16163E+00 8.47133E-01 1.85894E+01 9.06849E-04 1.10513E-09 9.13538E-11
 -1       718-9.25756E-01-7.34981E-01 3.44968E+01-5.50410E-04 6.36325E-09-1.24880E-09
 -1       719 5.48511E+00 5.77032E+00 7.15527E+01-8.22780E-04 5.04484E-09-4.62181E-11
 -1       720-4.55943E+00-5.03595E+00 1.36471E+02 1.37416E-03-4.14784E-10-2.09345E-09
 -1       721 2.83889E+01 3.84479E+01 2.91662E+02-2.90114E-02-4.47479E-09-9.89818E-10
 -1       722-2.38296E+01-3.34113E+01 5.45893E+02 2.76343E-02-4.84587E-09-2.21706E-09
 -1       723 1.54348E+02 2.50875E+02 1.20241E+03-2.78395E-01 1.98124E-09-2.10463E-09
 -1       724-1.30515E+02-2.17438E+02 2.17737E+03 2.50698E-01-3.17853E-09-1.86674E-09
 -1       725 8.74264E+02 1.61660E+03 5.01819E+03-2.14097E+00-5.48436E-09 4.41105E-11
 -1       726-7.43658E+02-1.39890E+03 8.63385E+03 1.88978E+00-4.30615E-09-1.09776E-09
 -1       727 5.11570E+03 1.03374E+04 2.13142E+04-1.50601E+01-5.10502E-09-1.64391E-09
 -1       728-4.37039E+03-8.93643E+03 3.39101E+04 1.31690E+01 5.08059E-10-2.71029E-09
 -1       729 3.06681E+04 6.57897E+04 9.27902E+04-1.01295E+02 3.05402E-09-2.57569E-09
 -1       730-2.62701E+04-5.68340E+04 1.31125E+05 8.81498E+01 6.06269E-09-1.88447E-09
 -1       766-5.68467E+04-2.63113E+04 1.31099E+05-8.17825E+01-2.69210E-10-1.79911E-09
 -1       767 6.58845E+04 3.07397E+04 9.27854E+04 4.75964E+01 4.40923E-09-3.39810E-10
 -1       768-9.01885E+03-4.44704E+03 3.37977E+04 2.54792E+00 1.27329E-11 5.27578E-10
 -1       769 1.09402E+04 5.40929E+03 2.13247E+04-4.79124E+01 3.62297E-09 2.98125E-09
 -1       770-1.91909E+03-1.00680E+03 8.14187E+03 1.37479E+01-3.76531E-10 1.48241E-09
 -1       771-1.65009E+06-3.15925E+05-4.59546E+04-7.06034E+05-1.15324E-09-9.60426E-10
 -1       772-1.64308E+06-3.23958E+05-2.31257E+04-7.29381E+05-1.28421E-09-7.15681E-09
 -1       773-1.65339E+06-3.02760E+05-9.88869E+03-7.12008E+05 2.86673E-09 3.27418E-10
 -1       774-1.63771E+06-3.18733E+05-4.83305E+03-7.30872E+05 2.41926E-10 2.83762E-10
 -1       775-1.65411E+06-3.02112E+05-2.27383E+03-7.12370E+05-3.44153E-09-3.07864E-09
 -1       776-1.63762E+06-3.18517E+05-1.13319E+03-7.31283E+05-7.71252E-10 1.71622E-09
 -1       777-1.65450E+06-3.01926E+05-6.31332E+02-7.12503E+05 7.23958E-10-3.18778E-10
 -1       778-1.63780E+06-3.18471E+05-4.70305E+02-7.31579E+05 6.83940E-10-1.62004E-11
 -1       779-1.65474E+06-3.01772E+05-5.90270E+02-7.12596E+05-3.16504E-10-2.19529E-10
 -1       780-1.63797E+06-3.18442E+05-1.05899E+03-7.31787E+05-1.83354E-09-1.96974E-09
 -1       781-1.65483E+06-3.01650E+05-2.09272E+03-7.12646E+05-4.65661E-10-3.64707E-10
 -1       782-1.63837E+06-3.18611E+05-4.53190E+03-7.31908E+05 2.31466E-09 1.75987E-09
 -1       783-1.65460E+06-3.01944E+05-9.23122E+03-7.12441E+05-3.15941E-09-7.86895E-09
 -1       784-1.64340E+06-3.23892E+05-2.17721E+04-7.31392E+05-1.47895E-09-1.10595E-09
 -1       785-1.65217E+06-3.13814E+05-4.31794E+04-7.06578E+05 5.11591E-10 5.09317E-10
 -1       786 1.66072E+05-5.48309E+03 2.00992E+04-7.68948E+02 3.24462E-10-5.65706E-10
 -1       787 1.73600E+05 6.98418E+03 1.31303E+04-4.53307E+03-3.39696E-10-1.12277E-09
 -1       788 1.69178E+05-6.13363E+02 5.21900E+03-7.68471E+02-1.08344E-10 2.84604E-09
 -1       789 1.70111E+05 7.62190E+02 2.96895E+03-4.52882E+03 3.83011E-10 4.89024E-10
 -1       790 1.69559E+05-7.00516E+01 1.32933E+03-7.72996E+02 1.11754E-10-1.27153E-09
 -1       791 1.69679E+05 8.25462E+01 7.22143E+02-4.52260E+03 9.79696E-11 8.60098E-10
 -1       792 1.69610E+05-8.77375E+00 3.67006E+02-7.74686E+02 4.75637E-11 1.52480E-09
 -1       793 1.69623E+05 1.22209E+01 2.46730E+02-4.52243E+03 4.98517E-11 1.68907E-09
 -1       794 1.69614E+05-4.86484E+00 2.28399E+02-7.73166E+02-4.12001E-10 1.32551E-09
 -1       795 1.69641E+05 3.65512E+01 3.52957E+02-4.52887E+03 3.52316E-10-1.09129E-09
 -1       796 1.69593E+05-3.15294E+01 6.03538E+02-7.68247E+02-2.76742E-09-1.44374E-09
 -1       797 1.69832E+05 3.35504E+02 1.32007E+03-4.54073E+03-6.11786E-09-1.33450E-09
 -1       798 1.69426E+05-2.71928E+02 2.30917E+03-7.61312E+02-2.63435E-09 1.69905E-09
 -1       799 1.71376E+05 3.08337E+03 5.80265E+03-4.54788E+03-1.29035E-09-9.97034E-11
 -1       800 1.68054E+05-2.42399E+03 8.87865E+03-7.61224E+02-1.91335E-10-8.63565E-10
 -1       801-1.13354E+04 2.28117E+05 2.98379E+04-1.71999E+05 9.10040E-09-8.28004E-09
 -1       802 2.83890E+04 2.37382E+05 4.00191E+04-9.85517E+05 2.68883E-08-3.76804E-09
 -1       803-2.29435E+03 2.27094E+05 4.75289E+04-1.71668E+05 1.69348E-08 6.49550E-09
 -1       804 6.93168E+04 2.61013E+05 1.07973E+05-9.85432E+05 2.72703E-08 9.08585E-09
 -1       805-4.73570E+04 2.05166E+05 1.55752E+05-1.72099E+05 8.33825E-09 9.75706E-09
 -1       806-1.43895E+05-4.39070E+04-1.30558E+04-7.33040E+04 5.16138E-10 3.48246E-09
 -1       807-1.43455E+05-4.12656E+04-6.20867E+03-7.78967E+04-8.88576E-10 2.58376E-09
 -1       808-1.43877E+05-3.73782E+04-2.61286E+03-7.60531E+04-5.74960E-09-9.99046E-09
 -1       809-1.42148E+05-3.90021E+04-1.26331E+03-7.84210E+04 1.24044E-09 1.12834E-10
 -1       810-1.43915E+05-3.69537E+04-5.70292E+02-7.62443E+04 2.52089E-09 4.03179E-09
 -1       811-1.42023E+05-3.88603E+04-2.81597E+02-7.84404E+04 5.31600E-10-1.44723E-09
 -1       812-1.43927E+05-3.69447E+04-1.38800E+02-7.62520E+04-2.76245E-10-7.32371E-10
 -1       813-1.42008E+05-3.88585E+04-8.61429E+01-7.84357E+04-8.45830E-10-2.91266E-10
 -1       814-1.43926E+05-3.69493E+04-7.82655E+01-7.62498E+04 3.13526E-09 6.19821E-09
 -1       815-1.42009E+05-3.88625E+04-1.20867E+02-7.84321E+04 6.31303E-10 6.25732E-10
 -1       816-1.43916E+05-3.69574E+04-2.25509E+02-7.62440E+04-4.16094E-09-4.49427E-09
 -1       817-1.42058E+05-3.89129E+04-4.90093E+02-7.84114E+04 1.25601E-09 1.00044E-10
 -1       818-1.43889E+05-3.71321E+04-1.00953E+03-7.61738E+04 9.89530E-10 4.80668E-10
 -1       819-1.42617E+05-3.97260E+04-2.39538E+03-7.81323E+04 4.09091E-09 1.11968E-08
 -1       820-1.43830E+05-3.97064E+04-5.03595E+03-7.51725E+04-1.32604E-09-6.43740E-09
 -1       821-1.97971E+05 6.80736E+03-2.49630E+04 9.01077E+02-2.25009E-09-1.63527E-09
 -1       822-2.07310E+05-8.67371E+03-1.63076E+04 5.56462E+03-1.59298E-09 1.48611E-09
 -1       823-2.01828E+05 7.60156E+02-6.48494E+03 8.62922E+02 2.29124E-09-1.12504E-09
 -1       824-2.02986E+05-9.41368E+02-3.69186E+03 5.61952E+03-8.46740E-10 2.03477E-09
 -1       825-2.02301E+05 8.70700E+01-1.66251E+03 8.45844E+02-3.71438E-09 9.16657E-10
 -1       826-2.02456E+05-9.49910E+01-9.19742E+02 5.64752E+03-7.33331E-09 3.88312E-10
 -1       827-2.02364E+05 1.25425E+01-5.01813E+02 8.34847E+02-4.24734E-09-3.65191E-09
 -1       828-2.02396E+05-1.07653E+01-4.01812E+02 5.66465E+03-4.60261E-09-1.49432E-09
 -1       829-2.02365E+05 1.20744E+01-4.68478E+02 8.28700E+02-4.18453E-10-2.76010E-10
 -1       830-2.02451E+05-8.23680E+01-8.31697E+02 5.67148E+03 3.06865E-09 1.27206E-09
 -1       831-2.02310E+05 7.92547E+01-1.48842E+03 8.28022E+02-3.06015E-09-2.60798E-09
 -1       832-2.02928E+05-8.36141E+02-3.29809E+03 5.66736E+03-2.68074E-10-3.44124E-09
 -1       833-2.01888E+05 6.80831E+02-5.78833E+03 8.32898E+02 2.12020E-09-3.40719E-09
 -1       834-2.06791E+05-7.73651E+03-1.45563E+04 5.64518E+03 4.87168E-09 1.61072E-09
 -1       835-1.98445E+05 6.07917E+03-2.22795E+04 8.50839E+02 4.17015E-09-1.60526E-09
 -1       836-2.22492E+03 3.14655E+05 2.51317E+04-1.80314E+04-3.09683E-09-1.47134E-09
 -1       837 5.89841E+03 3.22677E+05 1.93114E+04-3.90668E+04-2.28374E-09-5.59203E-09
 -1       838-5.45724E+02 3.17308E+05 1.64430E+04-1.79820E+04-3.51201E-09-2.91197E-09
 -1       839 9.88958E+03 3.25545E+05 2.83229E+04-3.90679E+04-2.77714E-09-4.34017E-09
 -1       840-4.01660E+03 3.11783E+05 4.32662E+04-1.80295E+04-3.09956E-09-3.53702E-09
 -1       841 5.61253E+04 8.15542E+03-6.85854E+02 2.09219E+04-2.13200E-05 8.00240E-06
 -1       842 5.56678E+04 7.63437E+03-4.72164E+02 2.11671E+04-4.26177E-05 1.60184E-05
 -1       843 5.59698E+04 7.93128E+03-1.58135E+02 2.09946E+04-3.31533E-05 1.24532E-05
 -1       844 5.58552E+04 7.88757E+03-9.38269E+01 2.10749E+04-2.36522E-05 8.89569E-06
 -1       845 5.59379E+04 7.90228E+03-2.53354E+01 2.10140E+04-1.64515E-05 6.18012E-06
 -1       846 5.58983E+04 7.92176E+03 5.94866E+00 2.10482E+04-9.25233E-06 3.47796E-06
 -1       847 5.59267E+04 7.89709E+03 4.35516E+01 2.10213E+04-5.65340E-06 2.11972E-06
 -1       848 5.59280E+04 7.95206E+03 1.20226E+02 2.10352E+04-2.04969E-06 7.72660E-07
 -1       849 5.59081E+04 7.87199E+03 2.25783E+02 2.10270E+04-5.42825E-07 2.05753E-07
 -1       850 5.60449E+04 8.14172E+03 5.73038E+02 2.10032E+04 9.63811E-07-3.63038E-07
 -1       851 5.58099E+04 7.70745E+03 9.90222E+02 2.10533E+04 1.05369E-06-3.95598E-07
 -1       852 5.67453E+04 9.34761E+03 2.67418E+03 2.07933E+04 1.14277E-06-4.33048E-07
 -1       853 5.52076E+04 6.66625E+03 4.27667E+03 2.12368E+04-2.13336E-07 8.35644E-08
 -1       854 6.10689E+04 1.69801E+04 1.26815E+04 1.93747E+04-1.57315E-06 5.87981E-07
 -1       855 5.14864E+04 7.62562E+01 1.82534E+04 2.24714E+04-7.85292E-07 2.93936E-07
 -1       856-1.57432E+05 2.38041E+03-1.89591E+04 5.68843E+03-1.51704E-09-2.75577E-10
 -1       857-1.63629E+05-4.57620E+03-1.15794E+04 1.36406E+04 1.27989E-09 3.38332E-10
 -1       858-1.60111E+05 2.20357E+02-4.86786E+03 5.62644E+03-2.72735E-09 2.02135E-10
 -1       859-1.60723E+05-3.18682E+02-2.61915E+03 1.37110E+04-4.74984E-10-1.25925E-09
 -1       860-1.60366E+05 3.55213E+01-1.22892E+03 5.61671E+03 4.88399E-10-1.78306E-09
 -1       861-1.60452E+05 7.18765E+00-6.46220E+02 1.37238E+04-3.68038E-09-8.30767E-10
 -1       862-1.60398E+05 1.78557E+01-3.37068E+02 5.61345E+03 2.42267E-10-3.86649E-10
 -1       863-1.60423E+05 3.18008E+01-2.22624E+02 1.37274E+04 6.49283E-09-1.66966E-09
 -1       864-1.60401E+05 1.63636E+01-2.08940E+02 5.61313E+03 3.50371E-09-3.94454E-09
 -1       865-1.60430E+05 2.18012E+01-3.14666E+02 1.37245E+04 5.96253E-09-3.89377E-10
 -1       866-1.60387E+05 2.26538E+01-5.55152E+02 5.61633E+03-4.26326E-09-6.89880E-10
 -1       867-1.60543E+05-1.23348E+02-1.15806E+03 1.37133E+04-1.47520E-09 2.12530E-10
 -1       868-1.60273E+05 1.01454E+02-2.14293E+03 5.62446E+03 5.18071E-09-2.31626E-09
 -1       869-1.61811E+05-1.99689E+03-5.08826E+03 1.36465E+04 6.20048E-10-5.29843E-09
 -1       870-1.59093E+05 1.04651E+03-8.33153E+03 5.68373E+03 8.93124E-10-4.92537E-09
 -1       871-2.84597E+03-2.51865E+04-6.45503E+03 8.65202E+04 2.66573E-09-5.89534E-09
 -1       872-9.95490E+02-2.64803E+04-2.14100E+03 1.05518E+05-2.45700E-09-5.87352E-09
 -1       873-1.60424E+01-2.59601E+04 1.39225E+03 8.63442E+04 1.11550E-09 2.16437E-09
 -1       874 1.62496E+03-2.45762E+04 5.94894E+03 1.05574E+05-2.69347E-09 9.56243E-09
 -1       875 4.98204E+03-2.71520E+04 1.27960E+04 8.64717E+04 2.34650E-10 5.60703E-09
 -1       876 2.46559E+05 3.53950E+04 2.18014E+04 9.78639E+04-2.44745E-09-3.03044E-09
 -1       877 2.50621E+05 4.74370E+04 1.29572E+04 1.01727E+05-2.27647E-09 2.67050E-09
 -1       878 2.49786E+05 3.81152E+04 5.10046E+03 9.80432E+04 3.55089E-09 1.10776E-09
 -1       879 2.46812E+05 4.24880E+04 2.66382E+03 1.02260E+05 3.23246E-09 1.07866E-09
 -1       880 2.50076E+05 3.83621E+04 1.18408E+03 9.80706E+04 5.92570E-09 4.42174E-09
 -1       881 2.46470E+05 4.20977E+04 6.19120E+02 1.02265E+05-1.59594E-09-2.93552E-09
 -1       882 2.50104E+05 3.83915E+04 3.45846E+02 9.80772E+04 2.88981E-09-1.52568E-09
 -1       883 2.46441E+05 4.20668E+04 3.04309E+02 1.02256E+05-9.08665E-09-1.28721E-09
 -1       884 2.50101E+05 3.83918E+04 4.17199E+02 9.80780E+04-4.82753E-09 2.11969E-10
 -1       885 2.46488E+05 4.21052E+04 8.10691E+02 1.02260E+05 4.95568E-09 1.31428E-09
 -1       886 2.50057E+05 3.83564E+04 1.58540E+03 9.80719E+04 7.49083E-10-1.93518E-09
 -1       887 2.46954E+05 4.26266E+04 3.58537E+03 1.02244E+05 3.26827E-09-1.44655E-09
 -1       888 2.49661E+05 3.80273E+04 6.87290E+03 9.80367E+04-5.34988E-09 4.18368E-11
 -1       889 2.52078E+05 4.93070E+04 1.74641E+04 1.01533E+05 7.58379E-09 2.08911E-09
 -1       890 2.45319E+05 3.43514E+04 2.93866E+04 9.77810E+04 4.39286E-10-2.97223E-09
 -1       891 3.78049E+02-1.16932E+05-4.69593E+03 2.63005E+04-4.93401E-11 9.78616E-10
 -1       892-1.15296E+03-1.18397E+05-3.51592E+03 5.72043E+04-1.13891E-09-2.31694E-09
 -1       893 6.95103E+01-1.17459E+05-2.86050E+03 2.62265E+04 8.03766E-10 2.60650E-09
 -1       894-1.71489E+03-1.18782E+05-4.77066E+03 5.71845E+04-6.69615E-10-4.59977E-10
 -1       895 6.16537E+02-1.16521E+05-7.22363E+03 2.63200E+04 1.34514E-09-5.61613E-10
 -1       926-3.86996E+02-7.37772E+02 1.69248E+03 2.36267E+01 3.79909E-10-7.57154E-10
 -1       927 4.47138E+02 8.54299E+02 1.22820E+03-9.31242E+01-2.18306E-09-1.03299E-09
 -1       928-9.13947E+01-1.16613E+02 4.67599E+02 2.29894E+01 1.03898E-10-4.89621E-10
 -1       929 9.85823E+01 1.39626E+02 3.54995E+02-9.24556E+01 1.29767E-09-5.59904E-10
 -1       930-3.85765E+01-2.31431E+01 2.47505E+02 2.29579E+01 1.93303E-11-2.51232E-10
 -1       931 5.03048E+01 5.97499E+01 3.65446E+02-9.24186E+01-2.59520E-10-1.86962E-10
 -1       932-4.32229E+01-3.66790E+01 5.82279E+02 2.29523E+01-5.49978E-11-7.61986E-11
 -1       933 1.57508E+02 2.58244E+02 1.24076E+03-9.23913E+01-8.41324E-10 6.46452E-11
 -1       934-1.45850E+02-2.21563E+02 2.22233E+03 2.29305E+01-1.13501E-06-5.92308E-11
 -1       935 8.81759E+02 1.64531E+03 5.11071E+03-9.22506E+01-2.26826E-06-1.40858E-10
 -1       936-7.67426E+02-1.42348E+03 8.78767E+03 2.28116E+01-1.07787E-06-3.81988E-11
 -1       937 5.19580E+03 1.05196E+04 2.16905E+04-9.19035E+01 1.17019E-07 3.46972E-10
 -1       938-4.45829E+03-9.09381E+03 3.45078E+04 2.25836E+01 2.02409E-07-3.81988E-11
 -1       939 3.12019E+04 6.69496E+04 9.44258E+04-9.66049E+01 2.76997E-07 1.03682E-10
 -1       940-2.67466E+04-5.78364E+04 1.33434E+05 2.75115E+01 1.37261E-07 6.54836E-10
 -1       956-2.22883E+05-4.11085E+03-9.58015E+03 2.72689E+04-4.33465E-09 2.57796E-09
 -1       957-2.24724E+05-1.33646E+03-4.88283E+03 3.23445E+04-2.93358E-09-1.52340E-09
 -1       958-2.23717E+05-1.20509E+02-2.19926E+03 2.71032E+04 2.37378E-10-2.13277E-09
 -1       959-2.23880E+05-7.72995E+00-1.12076E+03 3.25250E+04-3.09228E-09 1.20349E-09
 -1       960-2.23805E+05 4.58606E+01-5.44843E+02 2.70870E+04-6.03450E-09 3.02407E-10
 -1       961-2.23826E+05 5.16999E+01-2.86119E+02 3.25433E+04-1.11668E-08-5.73436E-10
 -1       962-2.23829E+05 4.76693E+01-1.58873E+02 2.70847E+04-3.22780E-09-1.17620E-09
 -1       963-2.23830E+05 5.64457E+01-1.18633E+02 3.25462E+04-6.44070E-09 2.47223E-09
 -1       964-2.23836E+05 5.10507E+01-1.33323E+02 2.70840E+04-4.98176E-09-3.14685E-10
 -1       965-2.23840E+05 5.97228E+01-2.21519E+02 3.25460E+04 7.54227E-10 3.76622E-09
 -1       966-2.23829E+05 5.58792E+01-4.11057E+02 2.70849E+04-3.81942E-09-3.81533E-10
 -1       967-2.23891E+05 2.12858E+01-8.41372E+02 3.25354E+04-3.67436E-10-3.08705E-09
 -1       968-2.23772E+05-6.35155E+01-1.64795E+03 2.70947E+04-1.87720E-09-1.72201E-09
 -1       969-2.24533E+05-9.70305E+02-3.65984E+03 3.24240E+04-1.11731E-09 7.79494E-10
 -1       970-2.23152E+05-3.05206E+03-7.17939E+03 2.71987E+04 6.74390E-10-3.40515E-09
 -1       971-2.84749E+05 8.06755E+02-1.25172E+04 7.44138E+03-3.41925E-09 6.54836E-10
 -1       972-2.88596E+05-2.59581E+03-7.45120E+03 1.50806E+04-4.28440E-09 6.78483E-10
 -1       973-2.86447E+05 8.78441E+01-3.19288E+03 7.35509E+03-8.78708E-09 1.10458E-09
 -1       974-2.86784E+05-1.39887E+02-1.69840E+03 1.51804E+04-3.29146E-09 1.07912E-09
 -1       975-2.86597E+05 2.55399E+01-8.19838E+02 7.34058E+03-7.96490E-10-5.23869E-10
 -1       976-2.86638E+05 2.41748E+01-4.54105E+02 1.52010E+04-3.84443E-09-1.01812E-09
 -1       977-2.86618E+05 2.05941E+01-2.88836E+02 7.33442E+03 5.29531E-09-2.85763E-09
 -1       978-2.86631E+05 3.61924E+01-2.85719E+02 1.52092E+04 1.18278E-08-9.68043E-11
 -1       979-2.86617E+05 2.36230E+01-4.13409E+02 7.33229E+03 6.09499E-09-4.30003E-09
 -1       980-2.86666E+05 1.92578E+01-7.75635E+02 1.52091E+04 7.57746E-09-3.74420E-09
 -1       981-2.86584E+05 3.99620E+01-1.47651E+03 7.33455E+03 3.10592E-10-1.41652E-09
 -1       982-2.86954E+05-2.73686E+02-3.10828E+03 1.51984E+04-2.44188E-09-1.67392E-09
 -1       983-2.86317E+05 1.63177E+02-5.86004E+03 7.34318E+03 1.01068E-09-3.34626E-09
 -1       984-2.90310E+05-4.77973E+03-1.36983E+04 1.51261E+04 4.42697E-10-2.77578E-09
 -1       985-2.83205E+05 1.49629E+03-2.30079E+04 7.40941E+03 4.97403E-09-5.98448E-10
 -3
    1PSTEP                        23          12           1          
  100CL  112 5.54382E-01         608                     0   12           1
 -4  DISP        4    1
 -5  D1          1    2    1    0
 -5  D2          1    2    2    0
 -5  D3          1    2    3    0
 -5  ALL         1    2    0    0    1ALL
 -1         1 9.02516E-05 0.00000E+00 0.00000E+00
 -1         2 7.36424E-05 0.00000E+00 0.00000E+00
 -1         3 5.35244E-05 0.00000E+00 0.00000E+00
 -1         4 4.80438E-05 0.00000E+00 0.00000E+00
 -1         5 4.47919E-05 0.00000E+00 0.00000E+00
 -1         8 7.22412E-05-8.50643E-07 0.00000E+00
 -1         9 5.13018E-05-4.55241E-07 0.00000E+00
 -1        10 5.43026E-05-1.68071E-06 0.00000E+00
 -1        11 4.90453E-05-2.94303E-07 0.00000E+00
 -1        12 4.38508E-05 6.87579E-07 0.00000E+00
 -1        15 5.26993E-05-9.05994E-07-4.13590E-25
 -1        16 4.31106E-05-5.48419E-07 0.00000E+00
 -1        17 3.96865E-05-3.48315E-06 0.00000E+00
 -1        18 3.99846E-05-5.58769E-07 0.00000E+00
 -1        19 4.12442E-05 1.36761E-06 0.00000E+00
 -1        20 4.16566E-05 1.62950E-05 0.00000E+00
 -1        21 4.15339E-05 3.57041E-05 0.00000E+00
 -1        23 1.52745E-05-5.53805E-05 4.03897E-28
 -1        24 1.51553E-05-4.20636E-06 0.00000E+00
 -1        25 3.72528E-05-3.56329E-07 0.00000E+00
 -1        26 3.82678E-05 1.84194E-06 0.00000E+00
 -1        27 3.70463E-05 1.56224E-05 0.00000E+00
 -1        28 3.60682E-05 3.51019E-05 0.00000E+00
 -1        31 4.47615E-08-4.26536E-06 0.00000E+00
 -1        32 0.00000E+00 0.00000E+00 0.00000E+00
 -1        33 3.49162E-05 2.54644E-06 0.00000E+00
 -1        34 3.35553E-05 1.55601E-05 0.00000E+00
 -1        35 3.18119E-05 3.48356E-05 0.00000E+00
 -1        36 8.92457E-05-4.38090E-19 2.64698E-23
 -1        37 8.82072E-05-5.72083E-19 0.00000E+00
 -1        38 8.71708E-05-2.03376E-19-2.64698E-23
 -1        39 8.61282E-05-2.88829E-19-1.32349E-23
 -1        40 8.50854E-05-5.79817E-19 2.64698E-23
 -1        41 8.40414E-05-6.90929E-19 0.00000E+00
 -1        42 8.29972E-05-2.59159E-19-2.64698E-23
 -1        43 8.19529E-05-9.64875E-20 0.00000E+00
 -1        44 8.09085E-05-2.71870E-19 0.00000E+00
 -1        45 7.98643E-05-9.38598E-20 0.00000E+00
 -1        46 7.88202E-05 4.38892E-20 2.64698E-23
 -1        47 7.77770E-05 1.22059E-19 0.00000E+00
 -1        48 7.67340E-05-1.45205E-20 0.00000E+00
 -1        49 7.56959E-05 5.96721E-19 1.32349E-23
 -1        50 7.46562E-05 5.23759E-19 0.00000E+00
 -1        51 8.89141E-05-1.41485E-07 0.00000E+00
 -1        52 8.66718E-05-2.79053E-07 0.00000E+00
 -1        53 8.36997E-05-4.16707E-07 0.00000E+00
 -1        54 8.01810E-05-5.56055E-07 0.00000E+00
 -1        55 7.62999E-05-6.98578E-07-1.03398E-24
 -1        56 9.03861E-05-6.11418E-06 0.00000E+00
 -1        57 9.42612E-05-2.27398E-05 2.64698E-23
 -1        58 1.00836E-04-4.69697E-05 0.00000E+00
 -1        59 1.08866E-04-7.54273E-05-2.64698E-23
 -1        60 1.16839E-04-1.03725E-04 0.00000E+00
 -1        61 1.23235E-04-1.27491E-04 0.00000E+00
 -1        62 1.26853E-04-1.43432E-04-5.29396E-23
 -1        63 1.26606E-04-1.48763E-04-2.64698E-23
 -1        64 1.22262E-04-1.43199E-04 0.00000E+00
 -1        65 1.13847E-04-1.27133E-04 0.00000E+00
 -1        66 1.02385E-04-1.03393E-04 0.00000E+00
 -1        67 8.91501E-05-7.52636E-05 0.00000E+00
 -1        68 7.58766E-05-4.70399E-05 0.00000E+00
 -1        69 6.43174E-05-2.30156E-05 2.64698E-23
 -1        70 5.57517E-05-6.53538E-06-2.64698E-23
 -1        86 7.23615E-05-7.90453E-08 0.00000E+00
 -1        87 6.86154E-05-1.50593E-07 0.00000E+00
 -1        88 6.35172E-05-2.28524E-07 0.00000E+00
 -1        89 5.81832E-05-3.06679E-07 0.00000E+00
 -1        90 5.37374E-05-3.80193E-07 6.61744E-24
 -1        91 7.25362E-05-2.97362E-07 2.64698E-23
 -1        92 7.13229E-05-3.95786E-07 1.32349E-23
 -1        93 7.00871E-05-4.28280E-07 0.00000E+00
 -1        94 6.88771E-05-5.45299E-07 0.00000E+00
 -1        95 6.76787E-05-6.93518E-07-2.64698E-23
 -1        96 6.64713E-05-8.20320E-07 0.00000E+00
 -1        97 6.52577E-05-9.31171E-07 2.64698E-23
 -1        98 6.40406E-05-1.03275E-06 0.00000E+00
 -1        99 6.28290E-05-1.14930E-06 0.00000E+00
 -1       100 6.16321E-05-1.30435E-06 0.00000E+00
 -1       101 6.04246E-05-1.43088E-06 0.00000E+00
 -1       102 5.91829E-05-1.46286E-06-1.32349E-23
 -1       103 5.79652E-05-1.55877E-06 0.00000E+00
 -1       104 5.68356E-05-1.87126E-06 0.00000E+00
 -1       105 5.56480E-05-2.03616E-06 2.64698E-23
 -1       106 5.31837E-05-1.07786E-19 1.32349E-23
 -1       107 5.28406E-05-2.65952E-19 6.61744E-24
 -1       108 5.24977E-05-4.48002E-19-1.32349E-23
 -1       109 5.21543E-05-2.82575E-19 0.00000E+00
 -1       110 5.18109E-05-1.11678E-19 0.00000E+00
 -1       111 5.14674E-05-2.70596E-19 6.61744E-24
 -1       112 5.11238E-05-3.89561E-19 0.00000E+00
 -1       113 5.07803E-05-8.27014E-19-6.61744E-24
 -1       114 5.04368E-05-1.19632E-18 0.00000E+00
 -1       115 5.00933E-05-5.79077E-19 6.61744E-24
 -1       116 4.97499E-05 5.73555E-20-1.32349E-23
 -1       117 4.94067E-05 6.25901E-20 0.00000E+00
 -1       118 4.90636E-05-6.27777E-20 0.00000E+00
 -1       119 4.87217E-05 6.63968E-22 0.00000E+00
 -1       120 4.83794E-05 7.72063E-20 0.00000E+00
 -1       121 5.37355E-05-2.80004E-07 0.00000E+00
 -1       122 5.41847E-05-5.59953E-07 0.00000E+00
 -1       123 5.46690E-05-8.39934E-07-6.61744E-24
 -1       124 5.49850E-05-1.11994E-06 0.00000E+00
 -1       125 5.49299E-05-1.39990E-06-6.61744E-24
 -1       141 4.78403E-05 1.32840E-19-6.61744E-24
 -1       142 4.76357E-05 1.32326E-18 0.00000E+00
 -1       143 4.74312E-05 2.97795E-18 6.61744E-24
 -1       144 4.72264E-05 3.53398E-18 0.00000E+00
 -1       145 4.70217E-05 2.89810E-18 6.61744E-24
 -1       146 4.68170E-05 1.43613E-18 0.00000E+00
 -1       147 4.66122E-05 2.15959E-19 6.61744E-24
 -1       148 4.64074E-05 4.71964E-20-3.30872E-24
 -1       149 4.62027E-05 5.49408E-19 0.00000E+00
 -1       150 4.59981E-05 1.74250E-18 0.00000E+00
 -1       151 4.57935E-05 2.64284E-18 6.61744E-24
 -1       152 4.55894E-05 2.33710E-18 3.30872E-24
 -1       153 4.53854E-05 1.47479E-18 0.00000E+00
 -1       154 4.51838E-05 6.10512E-19-1.65436E-24
 -1       155 4.49815E-05 7.52476E-20 1.65436E-24
 -1       156 5.01317E-05-3.16571E-08 0.00000E+00
 -1       157 5.63728E-05-7.36331E-08 0.00000E+00
 -1       158 6.29346E-05-1.17922E-07 0.00000E+00
 -1       159 6.59839E-05-1.45411E-07 0.00000E+00
 -1       160 6.23942E-05-1.77907E-07 3.30872E-24
 -1       161 4.97937E-05-5.17629E-06 0.00000E+00
 -1       162 5.52670E-05-2.05794E-05 1.65436E-24
 -1       163 6.07268E-05-3.59457E-05 0.00000E+00
 -1       164 6.24378E-05-4.10110E-05-1.65436E-24
 -1       165 6.02876E-05-3.57837E-05-3.30872E-24
 -1       166 5.41909E-05-2.03443E-05 0.00000E+00
 -1       167 4.80889E-05-4.89137E-06 3.30872E-24
 -1       168 4.59232E-05 3.76741E-07 0.00000E+00
 -1       169 4.76195E-05-4.64843E-06 0.00000E+00
 -1       170 5.30755E-05-2.00033E-05 0.00000E+00
 -1       171 5.85528E-05-3.54163E-05 3.30872E-24
 -1       172 6.03140E-05-4.06155E-05 1.65436E-24
 -1       173 5.82152E-05-3.55220E-05 0.00000E+00
 -1       174 5.21397E-05-2.01297E-05 0.00000E+00
 -1       175 4.60318E-05-4.65593E-06 0.00000E+00
 -1       191 4.47611E-05 1.14548E-07-6.61744E-24
 -1       192 4.46788E-05 2.29186E-07 0.00000E+00
 -1       193 4.45456E-05 3.43842E-07 0.00000E+00
 -1       194 4.43625E-05 4.58488E-07 0.00000E+00
 -1       195 4.41304E-05 5.73095E-07 6.61744E-24
 -1       266 6.89842E-05-8.72246E-07 6.61744E-24
 -1       267 6.57272E-05-8.79956E-07 0.00000E+00
 -1       268 6.24702E-05-8.88567E-07-1.65436E-24
 -1       269 5.92132E-05-8.94550E-07 4.13590E-25
 -1       270 5.59563E-05-9.00482E-07 0.00000E+00
 -1       271 6.96008E-05 1.50253E-06 0.00000E+00
 -1       272 6.71385E-05 3.22394E-06 0.00000E+00
 -1       273 6.48929E-05 4.37574E-06-5.29396E-23
 -1       274 6.28346E-05 5.00628E-06 0.00000E+00
 -1       275 6.09475E-05 5.17877E-06-5.29396E-23
 -1       276 5.92054E-05 4.96150E-06 0.00000E+00
 -1       277 5.75809E-05 4.42990E-06 0.00000E+00
 -1       278 5.60438E-05 3.66453E-06 2.64698E-23
 -1       279 5.45626E-05 2.74992E-06-5.29396E-23
 -1       280 5.31049E-05 1.77325E-06-2.64698E-23
 -1       281 5.16377E-05 8.22580E-07 0.00000E+00
 -1       282 5.01290E-05-1.42097E-08 2.64698E-23
 -1       283 4.85464E-05-6.51537E-07-5.29396E-23
 -1       284 4.68646E-05-1.00497E-06-2.64698E-23
 -1       285 4.50468E-05-9.99841E-07 2.64698E-23
 -1       286 5.14707E-05 5.45037E-07 1.65436E-24
 -1       287 5.16590E-05 7.88073E-07 8.27181E-25
 -1       288 5.18462E-05 6.15611E-07 0.00000E+00
 -1       289 5.20369E-05 3.65550E-07-3.30872E-24
 -1       290 5.22278E-05 7.29764E-08 0.00000E+00
 -1       291 5.24193E-05-2.27395E-07 0.00000E+00
 -1       292 5.26109E-05-5.32004E-07 0.00000E+00
 -1       293 5.28027E-05-8.37337E-07-3.30872E-24
 -1       294 5.29944E-05-1.14277E-06 0.00000E+00
 -1       295 5.31860E-05-1.44766E-06-3.30872E-24
 -1       296 5.33776E-05-1.74928E-06 0.00000E+00
 -1       297 5.35684E-05-2.04485E-06 3.30872E-24
 -1       298 5.37590E-05-2.30738E-06 3.30872E-24
 -1       299 5.39460E-05-2.50961E-06 0.00000E+00
 -1       300 5.41343E-05-2.38917E-06 0.00000E+00
 -1       301 4.99052E-05-4.74962E-07 0.00000E+00
 -1       302 4.85121E-05-4.83173E-07-1.65436E-24
 -1       303 4.71294E-05-4.90211E-07-3.30872E-24
 -1       304 4.57638E-05-4.98688E-07 0.00000E+00
 -1       305 4.44220E-05-5.11110E-07-6.61744E-24
 -1       306 5.02267E-05 3.37646E-07 1.32349E-23
 -1       307 4.93526E-05 5.41101E-07 6.61744E-24
 -1       308 4.86639E-05 2.52343E-07 0.00000E+00
 -1       309 4.81216E-05-4.35259E-07 0.00000E+00
 -1       310 4.76914E-05-1.42341E-06-2.64698E-23
 -1       311 4.73359E-05-2.61240E-06-1.32349E-23
 -1       312 4.70175E-05-3.90084E-06 0.00000E+00
 -1       313 4.66981E-05-5.18673E-06-1.32349E-23
 -1       314 4.63395E-05-6.36800E-06 0.00000E+00
 -1       315 4.59041E-05-7.34340E-06 0.00000E+00
 -1       316 4.53544E-05-8.01329E-06 0.00000E+00
 -1       317 4.46543E-05-8.28022E-06-1.32349E-23
 -1       318 4.37680E-05-8.04996E-06 2.64698E-23
 -1       319 4.26643E-05-7.23091E-06 0.00000E+00
 -1       320 4.13062E-05-5.73841E-06-1.32349E-23
 -1       321 5.40289E-05 4.18414E-06 6.61744E-24
 -1       322 5.36597E-05 1.96947E-05 3.30872E-24
 -1       323 5.33333E-05 3.10602E-05 0.00000E+00
 -1       324 5.30488E-05 2.45409E-05 3.30872E-24
 -1       325 5.26775E-05 8.64194E-06 6.61744E-24
 -1       326 5.22944E-05-8.02121E-06 0.00000E+00
 -1       327 5.20001E-05-1.58728E-05 0.00000E+00
 -1       328 5.16835E-05-5.44034E-06-3.30872E-24
 -1       329 5.13163E-05 1.00094E-05 0.00000E+00
 -1       330 5.10388E-05 1.71502E-05 3.30872E-24
 -1       331 5.07722E-05 1.30684E-05 6.61744E-24
 -1       332 5.03572E-05-5.01811E-06 0.00000E+00
 -1       333 4.99525E-05-2.23991E-05 0.00000E+00
 -1       334 4.96911E-05-2.43721E-05 0.00000E+00
 -1       335 4.94025E-05-1.54552E-05-6.61744E-24
 -1       336 5.29203E-05-1.98054E-06 6.61744E-24
 -1       337 5.09159E-05-2.28135E-06 3.30872E-24
 -1       338 4.84386E-05-2.58301E-06-6.61744E-24
 -1       339 4.56397E-05-2.88457E-06 0.00000E+00
 -1       340 4.26715E-05-3.18674E-06-6.61744E-24
 -1       356 4.86900E-05 1.47389E-05 0.00000E+00
 -1       357 4.84045E-05 2.32742E-05 0.00000E+00
 -1       358 4.81431E-05 2.09880E-05 6.61744E-24
 -1       359 4.77403E-05 3.68361E-06 0.00000E+00
 -1       360 4.73306E-05-1.40893E-05 0.00000E+00
 -1       361 4.70655E-05-1.77760E-05 0.00000E+00
 -1       362 4.67869E-05-1.04201E-05 0.00000E+00
 -1       363 4.64235E-05 4.80538E-06 0.00000E+00
 -1       364 4.61109E-05 1.48605E-05-6.61744E-24
 -1       365 4.58153E-05 6.76644E-06 3.30872E-24
 -1       366 4.54329E-05-9.87312E-06-6.61744E-24
 -1       367 4.50688E-05-2.53545E-05 3.30872E-24
 -1       368 4.47886E-05-3.14229E-05 0.00000E+00
 -1       369 4.44656E-05-1.99343E-05 0.00000E+00
 -1       370 4.41024E-05-4.63446E-06-1.65436E-24
 -1       371 3.50953E-05-4.17536E-07 0.00000E+00
 -1       372 2.97052E-05-4.56445E-07-8.27181E-25
 -1       373 3.03261E-05-4.79188E-07 0.00000E+00
 -1       374 3.44028E-05-5.08643E-07 2.06795E-25
 -1       375 3.87006E-05-5.38868E-07 0.00000E+00
 -1       406 4.35161E-05 8.01543E-07 0.00000E+00
 -1       407 4.31379E-05 9.15534E-07 0.00000E+00
 -1       408 4.27186E-05 1.02945E-06 0.00000E+00
 -1       409 4.22612E-05 1.14311E-06 1.65436E-24
 -1       410 4.17687E-05 1.25625E-06 3.30872E-24
 -1       501 4.29868E-05 5.60781E-06-1.32349E-23
 -1       502 4.27809E-05 2.14834E-05 3.30872E-24
 -1       503 4.25359E-05 3.98359E-05 3.30872E-24
 -1       504 4.23682E-05 5.34178E-05-1.65436E-24
 -1       505 4.22728E-05 5.77403E-05 0.00000E+00
 -1       506 4.21449E-05 4.83488E-05 1.65436E-24
 -1       507 4.18688E-05 2.81283E-05 3.30872E-24
 -1       508 4.14090E-05 3.52721E-09 0.00000E+00
 -1       509 4.09383E-05-2.85420E-05-3.30872E-24
 -1       510 4.06376E-05-5.00233E-05 0.00000E+00
 -1       511 4.04938E-05-6.10557E-05 3.30872E-24
 -1       512 4.04045E-05-5.82927E-05 0.00000E+00
 -1       513 4.02507E-05-4.57596E-05-3.30872E-24
 -1       514 4.00113E-05-2.75180E-05 0.00000E+00
 -1       515 3.97985E-05-1.09627E-05 3.30872E-24
 -1       521 4.11732E-05-1.40271E-07 2.64698E-23
 -1       522 3.93796E-05-2.48468E-07-2.64698E-23
 -1       523 3.77457E-05-7.78328E-07 5.29396E-23
 -1       524 3.62314E-05-1.64725E-06 0.00000E+00
 -1       525 3.48084E-05-2.76192E-06-5.29396E-23
 -1       526 3.34405E-05-4.02699E-06 0.00000E+00
 -1       527 3.20917E-05-5.34410E-06 0.00000E+00
 -1       528 3.07252E-05-6.61430E-06-2.64698E-23
 -1       529 2.93044E-05-7.73936E-06 5.29396E-23
 -1       530 2.77935E-05-8.62361E-06 0.00000E+00
 -1       531 2.61584E-05-9.17555E-06 0.00000E+00
 -1       532 2.43675E-05-9.30917E-06 2.64698E-23
 -1       533 2.23907E-05-8.94610E-06-5.29396E-23
 -1       534 2.02075E-05-8.01428E-06 0.00000E+00
 -1       535 1.77867E-05-6.45637E-06 0.00000E+00
 -1       536 3.96941E-05-9.00470E-07 0.00000E+00
 -1       537 3.97106E-05 1.05805E-06 0.00000E+00
 -1       538 3.97279E-05 2.45762E-06-4.13590E-25
 -1       539 3.97468E-05 3.36371E-06 1.03398E-25
 -1       540 3.97662E-05 3.84157E-06-4.13590E-25
 -1       541 3.97860E-05 3.95640E-06 0.00000E+00
 -1       542 3.98058E-05 3.77332E-06 0.00000E+00
 -1       543 3.98256E-05 3.35736E-06 0.00000E+00
 -1       544 3.98453E-05 2.77353E-06 0.00000E+00
 -1       545 3.98650E-05 2.08677E-06-2.06795E-25
 -1       546 3.98847E-05 1.36203E-06 0.00000E+00
 -1       547 3.99044E-05 6.64227E-07-8.27181E-25
 -1       548 3.99242E-05 5.82859E-08-1.65436E-24
 -1       549 3.99441E-05-3.90848E-07 0.00000E+00
 -1       550 3.99641E-05-6.18157E-07 0.00000E+00
 -1       551 3.60424E-05-3.59813E-06-2.48154E-24
 -1       552 3.19572E-05-3.71254E-06-8.27181E-25
 -1       553 2.76268E-05-3.82815E-06 6.61744E-24
 -1       554 2.32506E-05-3.94591E-06-3.30872E-24
 -1       555 1.90279E-05-4.06662E-06 0.00000E+00
 -1       556 3.86701E-05-1.00734E-06 0.00000E+00
 -1       557 3.78757E-05 8.92726E-07 0.00000E+00
 -1       558 3.72787E-05 2.27112E-06 0.00000E+00
 -1       559 3.68564E-05 3.18673E-06 0.00000E+00
 -1       560 3.65861E-05 3.69840E-06 0.00000E+00
 -1       561 3.64454E-05 3.86538E-06 0.00000E+00
 -1       562 3.64117E-05 3.74700E-06 0.00000E+00
 -1       563 3.64629E-05 3.40262E-06 0.00000E+00
 -1       564 3.65764E-05 2.89168E-06 0.00000E+00
 -1       565 3.67301E-05 2.27361E-06 0.00000E+00
 -1       566 3.69017E-05 1.60788E-06-1.65436E-24
 -1       567 3.70689E-05 9.53951E-07 8.27181E-25
 -1       568 3.72095E-05 3.71294E-07-6.20385E-25
 -1       569 3.73014E-05-8.07026E-08 8.27181E-25
 -1       570 3.73225E-05-3.42678E-07 1.65436E-24
 -1       571 4.00607E-05-4.03015E-07-4.13590E-25
 -1       572 4.01387E-05-2.97678E-07 0.00000E+00
 -1       573 4.02173E-05-2.33405E-07-8.27181E-25
 -1       574 4.02962E-05-2.00373E-07 0.00000E+00
 -1       575 4.03752E-05-1.88717E-07 1.65436E-24
 -1       576 4.04543E-05-1.88512E-07 1.65436E-24
 -1       577 4.05334E-05-1.89826E-07 0.00000E+00
 -1       578 4.06125E-05-1.82719E-07 0.00000E+00
 -1       579 4.06915E-05-1.57250E-07 3.30872E-24
 -1       580 4.07706E-05-1.03478E-07 0.00000E+00
 -1       581 4.08497E-05-1.14640E-08 0.00000E+00
 -1       582 4.09287E-05 1.28722E-07 0.00000E+00
 -1       583 4.10078E-05 3.27002E-07 0.00000E+00
 -1       584 4.10867E-05 5.93195E-07-6.61744E-24
 -1       585 4.11656E-05 9.37066E-07 0.00000E+00
 -1       586 3.95903E-05-5.24238E-07 0.00000E+00
 -1       587 3.91345E-05-4.89691E-07 1.65436E-24
 -1       588 3.86447E-05-4.55236E-07 8.27181E-25
 -1       589 3.81491E-05-4.21084E-07 2.06795E-25
 -1       590 3.76759E-05-3.87552E-07 0.00000E+00
 -1       591 3.98683E-05-3.73215E-07 0.00000E+00
 -1       592 3.97613E-05-2.23221E-07 8.27181E-25
 -1       593 3.96644E-05-1.01500E-07 0.00000E+00
 -1       594 3.95753E-05-1.59010E-09-8.27181E-25
 -1       595 3.94917E-05 8.30011E-08 1.65436E-24
 -1       596 3.94115E-05 1.58711E-07 8.27181E-25
 -1       597 3.93321E-05 2.31970E-07-1.65436E-24
 -1       598 3.92512E-05 3.09202E-07-8.27181E-25
 -1       599 3.91664E-05 3.96831E-07-1.65436E-24
 -1       600 3.90753E-05 5.01278E-07-4.13590E-25
 -1       601 3.89756E-05 6.28964E-07 8.27181E-25
 -1       602 3.88647E-05 7.86318E-07 0.00000E+00
 -1       603 3.87405E-05 9.79768E-07 4.13590E-25
 -1       604 3.86006E-05 1.21579E-06-5.16988E-26
 -1       605 3.84429E-05 1.50082E-06 0.00000E+00
 -1       606 4.12729E-05 1.94841E-06 0.00000E+00
 -1       607 4.12997E-05 2.59747E-06 0.00000E+00
 -1       608 4.13258E-05 3.31073E-06-3.30872E-24
 -1       609 4.13517E-05 4.08359E-06 0.00000E+00
 -1       610 4.13774E-05 4.91140E-06-3.30872E-24
 -1       611 4.14030E-05 5.78947E-06 0.00000E+00
 -1       612 4.14286E-05 6.71305E-06 0.00000E+00
 -1       613 4.14541E-05 7.67745E-06-8.27181E-25
 -1       614 4.14796E-05 8.67794E-06-1.65436E-24
 -1       615 4.15050E-05 9.70978E-06 1.65436E-24
 -1       616 4.15304E-05 1.07683E-05 0.00000E+00
 -1       617 4.15558E-05 1.18487E-05 0.00000E+00
 -1       618 4.15812E-05 1.29462E-05 0.00000E+00
 -1       619 4.16065E-05 1.40563E-05 0.00000E+00
 -1       620 4.16317E-05 1.51741E-05 0.00000E+00
 -1       621 4.07062E-05 1.44708E-06 0.00000E+00
 -1       622 4.01761E-05 1.52681E-06 0.00000E+00
 -1       623 3.96606E-05 1.60652E-06 0.00000E+00
 -1       624 3.91663E-05 1.68602E-06-8.27181E-25
 -1       625 3.86999E-05 1.76513E-06 0.00000E+00
 -1       626 4.10856E-05 1.98476E-06-3.30872E-24
 -1       627 4.08998E-05 2.67325E-06-3.30872E-24
 -1       628 4.06896E-05 3.42626E-06 0.00000E+00
 -1       629 4.04580E-05 4.23627E-06 0.00000E+00
 -1       630 4.02077E-05 5.09571E-06-3.30872E-24
 -1       631 3.99417E-05 5.99693E-06 0.00000E+00
 -1       632 3.96629E-05 6.93228E-06 0.00000E+00
 -1       633 3.93742E-05 7.89412E-06 0.00000E+00
 -1       634 3.90784E-05 8.87477E-06 0.00000E+00
 -1       635 3.87783E-05 9.86657E-06 8.27181E-25
 -1       636 3.84769E-05 1.08619E-05 0.00000E+00
 -1       637 3.81771E-05 1.18530E-05 0.00000E+00
 -1       638 3.78816E-05 1.28324E-05 8.27181E-25
 -1       639 3.75931E-05 1.37922E-05-4.13590E-25
 -1       640 3.73143E-05 1.47248E-05-1.65436E-24
 -1       641 4.16505E-05 1.74238E-05 0.00000E+00
 -1       642 4.16434E-05 1.86092E-05-6.46235E-27
 -1       643 4.16362E-05 1.98432E-05 0.00000E+00
 -1       644 4.16288E-05 2.11177E-05 0.00000E+00
 -1       645 4.16214E-05 2.24223E-05 2.06795E-25
 -1       646 4.16139E-05 2.37466E-05 1.03398E-25
 -1       647 4.16064E-05 2.50790E-05 2.06795E-25
 -1       648 4.15989E-05 2.64079E-05 1.03398E-25
 -1       649 4.15913E-05 2.77219E-05 2.06795E-25
 -1       650 4.15838E-05 2.90097E-05 1.03398E-25
 -1       651 4.15763E-05 3.02615E-05 2.06795E-25
 -1       652 4.15688E-05 3.14674E-05 0.00000E+00
 -1       653 4.15612E-05 3.26203E-05 0.00000E+00
 -1       654 4.15531E-05 3.37131E-05 0.00000E+00
 -1       655 4.15452E-05 3.47422E-05-1.65436E-24
 -1       656 4.06714E-05 1.61863E-05 0.00000E+00
 -1       657 3.98545E-05 1.60723E-05 8.27181E-25
 -1       658 3.91449E-05 1.59586E-05 0.00000E+00
 -1       659 3.84812E-05 1.58450E-05-8.27181E-25
 -1       660 3.78021E-05 1.57311E-05 1.65436E-24
 -1       661 4.13129E-05 1.74481E-05 0.00000E+00
 -1       662 4.09581E-05 1.86390E-05-8.27181E-25
 -1       663 4.05922E-05 1.98594E-05 0.00000E+00
 -1       664 4.02184E-05 2.11021E-05 0.00000E+00
 -1       665 3.98389E-05 2.23598E-05 3.30872E-24
 -1       666 3.94567E-05 2.36252E-05 1.65436E-24
 -1       667 3.90742E-05 2.48910E-05 0.00000E+00
 -1       668 3.86944E-05 2.61501E-05 1.65436E-24
 -1       669 3.83198E-05 2.73951E-05-3.30872E-24
 -1       670 3.79532E-05 2.86188E-05 0.00000E+00
 -1       671 3.75974E-05 2.98138E-05-1.65436E-24
 -1       672 3.72549E-05 3.09730E-05 8.27181E-25
 -1       673 3.69286E-05 3.20889E-05 1.65436E-24
 -1       674 3.66207E-05 3.31541E-05-8.27181E-25
 -1       675 3.63345E-05 3.41615E-05 8.27181E-25
 -1       676 4.06054E-05 3.56031E-05 0.00000E+00
 -1       677 3.96799E-05 3.55019E-05 0.00000E+00
 -1       678 3.87605E-05 3.54008E-05-3.30872E-24
 -1       679 3.78501E-05 3.53001E-05 1.65436E-24
 -1       680 3.69516E-05 3.51995E-05 1.65436E-24
 -1       716 1.52696E-05-5.21821E-05 0.00000E+00
 -1       717 1.52647E-05-4.89837E-05 0.00000E+00
 -1       718 1.52598E-05-4.57853E-05 1.61559E-27
 -1       719 1.52549E-05-4.25870E-05 0.00000E+00
 -1       720 1.52500E-05-3.93886E-05 0.00000E+00
 -1       721 1.52450E-05-3.61901E-05 6.46235E-27
 -1       722 1.52401E-05-3.29918E-05 0.00000E+00
 -1       723 1.52351E-05-2.97934E-05-2.58494E-26
 -1       724 1.52301E-05-2.65950E-05 0.00000E+00
 -1       725 1.52249E-05-2.33966E-05-1.03398E-25
 -1       726 1.52196E-05-2.01982E-05 4.13590E-25
 -1       727 1.52134E-05-1.69998E-05 0.00000E+00
 -1       728 1.52071E-05-1.38014E-05 0.00000E+00
 -1       729 1.51965E-05-1.06030E-05-1.65436E-24
 -1       730 1.51873E-05-7.40465E-06 0.00000E+00
 -1       766 1.20549E-05-4.23805E-06-6.61744E-24
 -1       767 9.15066E-06-4.24638E-06 0.00000E+00
 -1       768 6.47008E-06-4.25557E-06 0.00000E+00
 -1       769 4.04095E-06-4.25981E-06 0.00000E+00
 -1       770 1.89021E-06-4.26326E-06-4.13590E-25
 -1       771 1.33514E-05-1.64332E-06 2.64698E-23
 -1       772 1.17349E-05 3.99653E-07 0.00000E+00
 -1       773 1.02968E-05 1.96650E-06 0.00000E+00
 -1       774 9.02010E-06 3.10243E-06-1.32349E-23
 -1       775 7.88825E-06 3.85297E-06 0.00000E+00
 -1       776 6.88388E-06 4.26413E-06 1.32349E-23
 -1       777 5.98957E-06 4.38221E-06 0.00000E+00
 -1       778 5.18779E-06 4.25378E-06 1.32349E-23
 -1       779 4.46094E-06 3.92564E-06 0.00000E+00
 -1       780 3.79137E-06 3.44480E-06 1.32349E-23
 -1       781 3.16144E-06 2.85838E-06 2.64698E-23
 -1       782 2.55352E-06 2.21367E-06-1.32349E-23
 -1       783 1.94999E-06 1.55795E-06 2.64698E-23
 -1       784 1.33369E-06 9.38669E-07-1.32349E-23
 -1       785 6.87300E-07 4.03168E-07 1.32349E-23
 -1       786 3.73126E-05-1.21407E-07-8.27181E-25
 -1       787 3.73759E-05 5.80711E-08 0.00000E+00
 -1       788 3.74391E-05 1.91237E-07-1.65436E-24
 -1       789 3.75029E-05 2.87216E-07 0.00000E+00
 -1       790 3.75668E-05 3.55102E-07 0.00000E+00
 -1       791 3.76307E-05 4.03972E-07 0.00000E+00
 -1       792 3.76947E-05 4.42887E-07 1.65436E-24
 -1       793 3.77587E-05 4.80901E-07 8.27181E-25
 -1       794 3.78226E-05 5.27069E-07 1.65436E-24
 -1       795 3.78866E-05 5.90451E-07 0.00000E+00
 -1       796 3.79506E-05 6.80118E-07 1.65436E-24
 -1       797 3.80145E-05 8.05163E-07-8.27181E-25
 -1       798 3.80784E-05 9.74703E-07-1.65436E-24
 -1       799 3.81421E-05 1.19788E-06 8.27181E-25
 -1       800 3.82057E-05 1.48390E-06-1.65436E-24
 -1       801 3.41815E-05-2.78365E-07 0.00000E+00
 -1       802 2.72704E-05-2.13203E-07 0.00000E+00
 -1       803 1.84577E-05-1.61363E-07 0.00000E+00
 -1       804 9.68253E-06-1.12928E-07 0.00000E+00
 -1       805 2.88373E-06-5.07459E-08 1.32349E-23
 -1       806 3.71009E-05-1.50911E-07 1.65436E-24
 -1       807 3.69572E-05 2.58195E-08-1.65436E-24
 -1       808 3.68216E-05 1.79551E-07 0.00000E+00
 -1       809 3.66922E-05 3.15726E-07 0.00000E+00
 -1       810 3.65673E-05 4.39769E-07 0.00000E+00
 -1       811 3.64449E-05 5.57084E-07-8.27181E-25
 -1       812 3.63229E-05 6.73070E-07 0.00000E+00
 -1       813 3.61995E-05 7.93121E-07 0.00000E+00
 -1       814 3.60724E-05 9.22634E-07 1.65436E-24
 -1       815 3.59399E-05 1.06700E-06 0.00000E+00
 -1       816 3.57997E-05 1.23162E-06-1.65436E-24
 -1       817 3.56499E-05 1.42187E-06 0.00000E+00
 -1       818 3.54885E-05 1.64314E-06 8.27181E-25
 -1       819 3.53135E-05 1.90080E-06 0.00000E+00
 -1       820 3.51232E-05 2.20019E-06-8.27181E-25
 -1       821 3.81961E-05 2.29907E-06-8.27181E-25
 -1       822 3.81199E-05 2.86382E-06 8.27181E-25
 -1       823 3.80438E-05 3.52493E-06 0.00000E+00
 -1       824 3.79669E-05 4.27097E-06-8.27181E-25
 -1       825 3.78899E-05 5.09045E-06-1.65436E-24
 -1       826 3.78127E-05 5.97182E-06 8.27181E-25
 -1       827 3.77355E-05 6.90347E-06-1.65436E-24
 -1       828 3.76582E-05 7.87376E-06 0.00000E+00
 -1       829 3.75808E-05 8.87100E-06 1.65436E-24
 -1       830 3.75035E-05 9.88346E-06 8.27181E-25
 -1       831 3.74262E-05 1.08995E-05 1.65436E-24
 -1       832 3.73490E-05 1.19073E-05 0.00000E+00
 -1       833 3.72719E-05 1.28951E-05 0.00000E+00
 -1       834 3.71954E-05 1.38514E-05 8.27181E-25
 -1       835 3.71189E-05 1.47644E-05-8.27181E-25
 -1       836 3.77894E-05 1.95776E-06-3.30872E-24
 -1       837 3.72212E-05 2.07734E-06-1.65436E-24
 -1       838 3.66065E-05 2.19675E-06 0.00000E+00
 -1       839 3.59886E-05 2.31572E-06 8.27181E-25
 -1       840 3.54108E-05 2.43467E-06 0.00000E+00
 -1       841 3.81135E-05 2.32779E-06 0.00000E+00
 -1       842 3.79002E-05 2.97014E-06 0.00000E+00
 -1       843 3.76434E-05 3.72828E-06 8.27181E-25
 -1       844 3.73583E-05 4.56156E-06 4.13590E-25
 -1       845 3.70525E-05 5.44990E-06 0.00000E+00
 -1       846 3.67336E-05 6.37325E-06 0.00000E+00
 -1       847 3.64055E-05 7.32106E-06 0.00000E+00
 -1       848 3.60721E-05 8.28283E-06-4.13590E-25
 -1       849 3.57360E-05 9.25171E-06 0.00000E+00
 -1       850 3.53998E-05 1.02208E-05-4.13590E-25
 -1       851 3.50660E-05 1.11836E-05-8.27181E-25
 -1       852 3.47370E-05 1.21334E-05 0.00000E+00
 -1       853 3.44167E-05 1.30599E-05 0.00000E+00
 -1       854 3.41083E-05 1.39528E-05 1.03398E-25
 -1       855 3.38200E-05 1.47931E-05 4.13590E-25
 -1       856 3.69890E-05 1.65209E-05 8.27181E-25
 -1       857 3.69283E-05 1.75407E-05 4.13590E-25
 -1       858 3.68674E-05 1.86650E-05 0.00000E+00
 -1       859 3.68060E-05 1.98770E-05 0.00000E+00
 -1       860 3.67444E-05 2.11599E-05 0.00000E+00
 -1       861 3.66827E-05 2.24966E-05 0.00000E+00
 -1       862 3.66209E-05 2.38703E-05 0.00000E+00
 -1       863 3.65590E-05 2.52641E-05 8.27181E-25
 -1       864 3.64972E-05 2.66609E-05 0.00000E+00
 -1       865 3.64353E-05 2.80438E-05 8.27181E-25
 -1       866 3.63735E-05 2.93959E-05-1.65436E-24
 -1       867 3.63118E-05 3.07002E-05 0.00000E+00
 -1       868 3.62503E-05 3.19399E-05 0.00000E+00
 -1       869 3.61890E-05 3.30979E-05 8.27181E-25
 -1       870 3.61278E-05 3.41575E-05 1.65436E-24
 -1       871 3.63616E-05 1.56138E-05 0.00000E+00
 -1       872 3.57661E-05 1.56041E-05 0.00000E+00
 -1       873 3.52240E-05 1.55942E-05 0.00000E+00
 -1       874 3.46990E-05 1.55838E-05-2.06795E-25
 -1       875 3.41548E-05 1.55731E-05-4.13590E-25
 -1       876 3.68207E-05 1.65417E-05 1.65436E-24
 -1       877 3.65646E-05 1.75543E-05-1.65436E-24
 -1       878 3.62784E-05 1.86470E-05 0.00000E+00
 -1       879 3.59671E-05 1.98083E-05 1.65436E-24
 -1       880 3.56345E-05 2.10262E-05 0.00000E+00
 -1       881 3.52850E-05 2.22892E-05 0.00000E+00
 -1       882 3.49230E-05 2.35856E-05 0.00000E+00
 -1       883 3.45529E-05 2.49037E-05 0.00000E+00
 -1       884 3.41789E-05 2.62320E-05 3.30872E-24
 -1       885 3.38054E-05 2.75588E-05 0.00000E+00
 -1       886 3.34368E-05 2.88726E-05-3.30872E-24
 -1       887 3.30774E-05 3.01617E-05-1.65436E-24
 -1       888 3.27315E-05 3.14144E-05-3.30872E-24
 -1       889 3.24029E-05 3.26190E-05 8.27181E-25
 -1       890 3.20967E-05 3.37639E-05 0.00000E+00
 -1       891 3.53001E-05 3.50579E-05-1.65436E-24
 -1       892 3.46406E-05 3.50131E-05 0.00000E+00
 -1       893 3.40259E-05 3.49685E-05 0.00000E+00
 -1       894 3.33922E-05 3.49239E-05 4.13590E-25
 -1       895 3.26753E-05 3.48792E-05 0.00000E+00
 -1       926 4.32621E-08-2.72449E-06-1.03398E-25
 -1       927 4.24617E-08-1.48713E-06 0.00000E+00
 -1       928 4.19330E-08-5.24683E-07-2.58494E-26
 -1       929 4.16566E-08 1.91477E-07 0.00000E+00
 -1       930 4.15066E-08 6.89983E-07 0.00000E+00
 -1       931 4.14317E-08 9.99468E-07 0.00000E+00
 -1       932 4.13827E-08 1.14859E-06 0.00000E+00
 -1       933 4.13053E-08 1.16599E-06 0.00000E+00
 -1       934 4.11863E-08 1.08035E-06 1.03398E-25
 -1       935 4.08725E-08 9.20301E-07 1.03398E-25
 -1       936 4.04420E-08 7.14526E-07-4.13590E-25
 -1       937 3.91228E-08 4.91686E-07 4.13590E-25
 -1       938 3.76815E-08 2.80395E-07-1.65436E-24
 -1       939 3.18338E-08 1.09277E-07 0.00000E+00
 -1       940 2.74802E-08 6.43505E-09 6.61744E-24
 -1       956 3.48331E-05 3.03832E-06 8.27181E-25
 -1       957 3.47484E-05 3.62001E-06 8.27181E-25
 -1       958 3.46634E-05 4.28197E-06 1.65436E-24
 -1       959 3.45782E-05 5.01407E-06 1.24077E-24
 -1       960 3.44929E-05 5.80619E-06-3.30872E-24
 -1       961 3.44075E-05 6.64812E-06 8.27181E-25
 -1       962 3.43221E-05 7.52964E-06-3.30872E-24
 -1       963 3.42366E-05 8.44055E-06-8.27181E-25
 -1       964 3.41511E-05 9.37062E-06-3.30872E-24
 -1       965 3.40656E-05 1.03096E-05 1.65436E-24
 -1       966 3.39801E-05 1.12474E-05 0.00000E+00
 -1       967 3.38947E-05 1.21736E-05 0.00000E+00
 -1       968 3.38093E-05 1.30781E-05 3.30872E-24
 -1       969 3.37241E-05 1.39508E-05-1.65436E-24
 -1       970 3.36391E-05 1.47813E-05 0.00000E+00
 -1       971 3.34488E-05 1.63610E-05 0.00000E+00
 -1       972 3.33399E-05 1.72899E-05-1.65436E-24
 -1       973 3.32308E-05 1.83310E-05 0.00000E+00
 -1       974 3.31214E-05 1.94687E-05 0.00000E+00
 -1       975 3.30118E-05 2.06869E-05 0.00000E+00
 -1       976 3.29021E-05 2.19696E-05 0.00000E+00
 -1       977 3.27924E-05 2.33011E-05-3.30872E-24
 -1       978 3.26825E-05 2.46653E-05 0.00000E+00
 -1       979 3.25727E-05 2.60461E-05-3.30872E-24
 -1       980 3.24629E-05 2.74276E-05-1.65436E-24
 -1       981 3.23531E-05 2.87937E-05 0.00000E+00
 -1       982 3.22434E-05 3.01286E-05 0.00000E+00
 -1       983 3.21340E-05 3.14161E-05 3.30872E-24
 -1       984 3.20251E-05 3.26404E-05 0.00000E+00
 -1       985 3.19164E-05 3.37855E-05-1.65436E-24
 -3
    1PSTEP                        24          12           1          
  100CL  112 5.54382E-01         608                     0   12           1
 -4  STRESS      6    1
 -5  SXX         1    4    1    1
 -5  SYY         1    4    2    2
 -5  SZZ         1    4    3    3
 -5  SXY         1    4    1    2
 -5  SYZ         1    4    2    3
 -5  SZX         1    4    3    1
 -1         1-2.64476E+06-9.59304E+05-5.89120E+05-8.86227E+05-4.70512E-10 1.84324E-09
 -1         2-1.89136E+06-4.87031E+05-2.45744E+05-3.15311E+05-8.22911E-09-4.67844E-08
 -1         3-4.92966E+05-4.22181E+05-2.11988E+04 5.48692E+04 4.69095E-09-9.10113E-10
 -1         4-4.32077E+05-4.59117E+04 6.04931E+03-3.10379E+04-5.57799E-09-1.36220E-09
 -1         5-3.08118E+05 4.66883E+04-1.16640E+05-3.01806E+03 1.81863E-08 2.88082E-09
 -1         8-1.25923E+06-5.81103E+05-1.71633E+05-7.71649E+05 4.05028E-10-2.41562E-09
 -1         9-1.21079E+06-3.94903E+05-1.63356E+05-3.96220E+05 1.88011E-09 7.72707E-10
 -1        10-5.84013E+05-4.31516E+05-3.48859E+04-1.57980E+05 1.27293E-08-6.44376E-09
 -1        11-2.94984E+05-2.11978E+04 1.16449E+04 2.93426E+04 7.08667E-10 1.07333E-08
 -1        12-2.49167E+05 5.85565E+04-1.02245E+05-6.50921E+03 2.58040E-08-3.60764E-09
 -1        15 2.14905E+03 1.16215E+03 6.66965E+03 3.08582E+00-1.19087E-10-2.55112E-09
 -1        16-1.99990E+06-5.31423E+05-1.77800E+05-6.60111E+05 8.69591E-10-2.88492E-09
 -1        17-3.31588E+05-2.75765E+05-3.03893E+04-2.45076E+05-1.58252E-09 1.46004E-09
 -1        18 2.68439E+04-2.19113E+03-1.37405E+04-5.59837E+04-6.76664E-11 4.72937E-10
 -1        19 9.34324E+04 1.14099E+05-1.20697E+02 3.41821E+03 2.09184E-11-9.39326E-10
 -1        20 4.13630E+04-7.00334E+04-1.63741E+04 3.28220E+04 3.73791E-09-2.49111E-09
 -1        21-6.96735E+03-1.11672E+05 3.10183E+04-9.16724E+02 8.68869E-09-1.05859E-08
 -1        23 5.14866E-01 2.45676E-01 9.41846E+00 8.26531E-04-8.87426E-10-4.77454E-10
 -1        24-1.03883E+06-3.08164E+05 5.30192E+04-5.32319E+05-5.19503E-10 1.12050E-09
 -1        25 1.53050E+04 4.61386E+04 2.16770E+04-2.92429E+05-3.66163E-10-1.16779E-10
 -1        26 1.87961E+03 7.80585E+04 3.24771E+02-1.28207E+04 2.19828E-10 3.17044E-10
 -1        27-1.69891E+04-5.17345E+04-2.30134E+04 5.70483E+04 2.44033E-09-1.87053E-09
 -1        28-6.45923E+03-8.62915E+04-3.06477E+03 3.33192E+04 6.57951E-09-2.06398E-09
 -1        31 3.28872E+03 3.78910E+03 5.59404E+03-1.01065E+02 3.06861E-09-1.48384E-09
 -1        32-4.20268E+05 1.07120E+05 2.62625E+05-6.03646E+05-5.10103E-10 1.65892E-09
 -1        33-9.22383E+04 9.33312E+04 2.86776E+04-2.93634E+04-6.31189E-10-1.40305E-09
 -1        34-1.12255E+05-4.49544E+03 1.01609E+04 4.29252E+04-1.22562E-10-4.33249E-09
 -1        35-1.70802E+04-2.32652E+04 1.26762E+03 5.41980E+04 1.37666E-09-2.42289E-09
 -1        36-2.94207E+06 8.84297E+04-2.03470E+05 6.44043E-08 5.42293E-10 6.53381E-09
 -1        37-3.03033E+06-1.02332E+05-1.44149E+05 1.88718E-06 1.55976E-09-2.82307E-09
 -1        38-2.97608E+06 1.39009E+04-5.26275E+04 3.83704E-08 3.28159E-09 8.77117E-09
 -1        39-2.99054E+06-1.60844E+04-3.31457E+04-3.89370E-08 3.38206E-09 3.30692E-09
 -1        40-2.98168E+06 2.18174E+03-1.35378E+04 2.96216E-08-4.90847E-09-8.01538E-09
 -1        41-2.98396E+06-2.56150E+03-8.12887E+03 4.49123E-07-3.23672E-09 9.99717E-09
 -1        42-2.98260E+06 3.79470E+02-4.03744E+03-1.24634E-07-2.70729E-09-6.01199E-09
 -1        43-2.98299E+06-7.00629E+02-3.33839E+03-4.66464E-08-2.18709E-09-1.33956E-08
 -1        44-2.98264E+06 3.21097E+02-3.52260E+03-2.15500E-07-6.67961E-09-9.32687E-10
 -1        45-2.98369E+06-2.06092E+03-6.63560E+03 5.94083E-08 7.36851E-10 1.23782E-09
 -1        46-2.98191E+06 1.73959E+03-1.08533E+04 7.96123E-08 3.28032E-09-2.11230E-09
 -1        47-2.98892E+06-1.28068E+04-2.64249E+04 3.61860E-07 1.27425E-08 3.70164E-09
 -1        48-2.97745E+06 1.10657E+04-4.19134E+04 1.16956E-06 6.39015E-09 5.59703E-09
 -1        49-3.02059E+06-8.14593E+04-1.14756E+05 1.57662E-07-3.60539E-09 5.12046E-09
 -1        50-2.95039E+06 7.03889E+04-1.62000E+05-2.18003E-07-9.06376E-09 3.44880E-09
 -1        51 1.95665E+04-3.65758E+05 3.36844E+04-9.54847E+05-4.36557E-11-7.97445E-09
 -1        52 1.04128E+04-3.64495E+05 2.25249E+04-1.05741E+06 4.58385E-10-2.15659E-08
 -1        53 8.45685E+03-3.73692E+05 2.10072E+04-9.52250E+05-3.85626E-10-1.28930E-08
 -1        54 2.14286E+04-3.70695E+05 3.56440E+04-1.06017E+06 1.16415E-10 6.54836E-10
 -1        55 4.87409E+04-3.82774E+05 6.67534E+04-9.51742E+05 4.80213E-10 3.74712E-10
 -1        56-4.89051E+06-4.69087E+05-4.25416E+05-1.79364E+06-1.81535E-09 7.01402E-09
 -1        57-4.71276E+06-1.09305E+06-2.70569E+05-2.05346E+06-1.44610E-09-2.43745E-10
 -1        58-5.02374E+06-5.08581E+05-9.77701E+04-1.64893E+06-3.70164E-09-3.89264E-10
 -1        59-4.58083E+06-1.01850E+06-5.64627E+04-2.20933E+06-5.88443E-10 7.00402E-09
 -1        60-5.03538E+06-5.31652E+05-2.39706E+04-1.64800E+06 1.05156E-08 2.87991E-09
 -1        61-4.60688E+06-9.00587E+05-1.83869E+03-2.07879E+06-3.30510E-09-3.13594E-09
 -1        62-4.98293E+06-6.36955E+05-1.94117E+04-1.76911E+06-1.89539E-09-6.31462E-09
 -1        63-4.77881E+06-6.72322E+05 1.44195E+04-1.79542E+06-2.91038E-09-1.38989E-08
 -1        64-4.84988E+06-7.69722E+05-1.92479E+04-1.92073E+06-4.73665E-09 1.01782E-08
 -1        65-5.06147E+06-4.46545E+05-1.68096E+03-1.56057E+06-1.63709E-09 4.25462E-09
 -1        66-4.71441E+06-8.52399E+05-2.33733E+04-2.01427E+06-1.44610E-08-4.55475E-09
 -1        67-5.22496E+06-3.73399E+05-5.51160E+04-1.47327E+06 4.60341E-09-2.45018E-09
 -1        68-4.70031E+06-8.33187E+05-9.55946E+04-2.01903E+06 3.67800E-09-4.52201E-09
 -1        69-5.17322E+06-6.24837E+05-2.63911E+05-1.52422E+06-2.09402E-08 9.41509E-09
 -1        70-4.75371E+06-6.12356E+05-4.15958E+05-1.95221E+06-1.54832E-08-4.22006E-10
 -1        86-3.77943E+04-1.96237E+05 8.84308E+04 1.34823E+04 4.16185E-09-1.44360E-09
 -1        87 4.74079E+04-1.51254E+05 6.97708E+04-5.84130E+04 7.11316E-09 3.24582E-09
 -1        88-9.28805E+03-1.80367E+05 3.60409E+04 1.44152E+04 6.40057E-09 4.62620E-09
 -1        89 3.41455E+04-1.58495E+05 5.21991E+04-5.87150E+04 9.36188E-09-2.34583E-09
 -1        90-2.45044E+04-1.89106E+05 5.86961E+04 1.37848E+04 3.23780E-09 8.17272E-09
 -1        91-2.71426E+06-3.16053E+05-1.66853E+05-1.04679E+06-2.89425E-05 1.07629E-05
 -1        92-2.80145E+06-4.71027E+05-1.15971E+05-1.01855E+06-5.77664E-05 2.17004E-05
 -1        93-2.74766E+06-3.76963E+05-3.90688E+04-1.03609E+06-1.93224E-05 7.27376E-06
 -1        94-2.76208E+06-4.00923E+05-2.44772E+04-1.03129E+06 1.91154E-05-7.18339E-06
 -1        95-2.75349E+06-3.86136E+05-9.15161E+03-1.03400E+06 4.51048E-06-1.69420E-06
 -1        96-2.75550E+06-3.90130E+05-5.51944E+03-1.03343E+06-1.01157E-05 3.79693E-06
 -1        97-2.75420E+06-3.87749E+05-2.61767E+03-1.03394E+06-6.42255E-07 2.44144E-07
 -1        98-2.75466E+06-3.88698E+05-2.44947E+03-1.03365E+06 8.84445E-06-3.30942E-06
 -1        99-2.75432E+06-3.87567E+05-2.86648E+03-1.03377E+06-4.24525E-06 1.59847E-06
 -1       100-2.75583E+06-3.90300E+05-6.29388E+03-1.03322E+06-1.73424E-05 6.50383E-06
 -1       101-2.75304E+06-3.86149E+05-1.05394E+04-1.03438E+06 7.65839E-06-2.87722E-06
 -1       102-2.76290E+06-4.03305E+05-2.82618E+04-1.03133E+06 3.26703E-05-1.22702E-05
 -1       103-2.74730E+06-3.74569E+05-4.51406E+04-1.03568E+06 1.63561E-05-6.12426E-06
 -1       104-2.80958E+06-4.83026E+05-1.33979E+05-1.01513E+06-9.23592E-10 7.83984E-09
 -1       105-2.70652E+06-3.06450E+05-1.92804E+05-1.05064E+06-1.02264E-08 5.31145E-10
 -1       106-9.79215E+05 6.63380E+03-1.52903E+04-8.32688E-08 2.98230E-09-2.54840E-09
 -1       107-9.85772E+05-7.67834E+03-1.08292E+04-1.30264E-07 2.04943E-10 5.34328E-10
 -1       108-9.81770E+05 1.04317E+03-3.96409E+03 3.56135E-07 1.15739E-09 2.29534E-09
 -1       109-9.82790E+05-1.20823E+03-2.50778E+03 1.51459E-07 1.29911E-09 7.64658E-10
 -1       110-9.82191E+05 1.64862E+02-1.04959E+03 2.22924E-07-1.62942E-09-2.67164E-10
 -1       111-9.82302E+05-2.00948E+02-6.77803E+02 8.27560E-07-1.27497E-11 3.46432E-09
 -1       112-9.82256E+05 3.60604E+01-4.27781E+02 2.09314E-07-6.65599E-10 9.12980E-10
 -1       113-9.82258E+05-1.09518E+02-5.23883E+02 5.48318E-07-1.31768E-09 2.69779E-09
 -1       114-9.82235E+05 7.34479E+01-7.58675E+02 3.71194E-08-1.49727E-09-5.15257E-09
 -1       115-9.82474E+05-5.21565E+02-1.63680E+03-4.36533E-07-3.19479E-09-5.08098E-09
 -1       116-9.82041E+05 4.48047E+02-2.77364E+03-1.17866E-07-2.68489E-09-1.64312E-09
 -1       117-9.83829E+05-3.30732E+03-6.81983E+03-2.62559E-07-1.31474E-09-2.94676E-10
 -1       118-9.80884E+05 2.85875E+03-1.08397E+04-5.90003E-07-4.73675E-09-9.78616E-10
 -1       119-9.92005E+05-2.10452E+04-2.96695E+04-6.41492E-07-1.50916E-09 8.01720E-10
 -1       120-9.73878E+05 1.81833E+04-4.18999E+04 1.54632E-07 4.01504E-10 6.37738E-09
 -1       121-2.53401E+02-8.00231E+05 1.02276E+03 1.88008E+04 5.29184E-10 9.54060E-10
 -1       122 5.37718E+02-7.99782E+05 1.09845E+03 1.09831E+05 1.27716E-09 2.14748E-09
 -1       123-1.31418E+02-8.00175E+05 1.19434E+03 1.87081E+04 6.29029E-10-1.19826E-10
 -1       124 1.36870E+03-7.98973E+05 2.63416E+03 1.09458E+05 5.76392E-10 3.03771E-09
 -1       125-1.19871E+03-8.00703E+05 3.77360E+03 1.91737E+04-8.41283E-10 1.89175E-10
 -1       141-5.84315E+05 2.96440E+03-6.83663E+03 2.30954E-08-9.99396E-10 1.00636E-09
 -1       142-5.87233E+05-3.43150E+03-4.84765E+03 1.79663E-07-7.36285E-11 4.96357E-10
 -1       143-5.85457E+05 4.66500E+02-1.78769E+03-6.02472E-07 8.73949E-10-1.94518E-09
 -1       144-5.85903E+05-5.42625E+02-1.15431E+03-6.78148E-07 1.20109E-09-4.34034E-09
 -1       145-5.85644E+05 7.60340E+01-5.33095E+02-4.76344E-08-5.94267E-10-8.05016E-10
 -1       146-5.85695E+05-1.07836E+02-4.39654E+02 1.08043E-07-1.11859E-09-2.91310E-09
 -1       147-5.85664E+05 3.17900E+01-4.47049E+02 2.04803E-07 1.23194E-09 2.65231E-09
 -1       148-5.85735E+05-1.66645E+02-7.97766E+02-5.24543E-07 8.76793E-10 4.22688E-10
 -1       149-5.85604E+05 1.34839E+02-1.35970E+03-5.86598E-08-1.43527E-10 1.08560E-09
 -1       150-5.86169E+05-9.91543E+02-3.08432E+03 1.36535E-07-5.56072E-10-9.84301E-10
 -1       151-5.85230E+05 8.56579E+02-5.28746E+03 7.03564E-07-3.76702E-10-1.29035E-09
 -1       152-5.88765E+05-6.32814E+03-1.30434E+04 4.20608E-07 8.97732E-10 3.86990E-09
 -1       153-5.83012E+05 5.47065E+03-2.07442E+04 6.13811E-07 3.94178E-09 1.26602E-09
 -1       154-6.04410E+05-4.02733E+04-5.67828E+04 1.87270E-07 1.84756E-09-2.39197E-10
 -1       155-5.69594E+05 3.47976E+04-8.01777E+04-5.17005E-08 1.07887E-08 6.03904E-10
 -1       156-1.80159E+04-7.71868E+04 3.92077E+04-3.67607E+03-2.74486E-09 2.80544E-09
 -1       157 2.17021E+04-3.66375E+04 3.47935E+04 1.34116E+04-1.61253E-09 8.91854E-09
 -1       158-3.61454E+03-6.83649E+04 1.62226E+04-3.68985E+03-8.28140E-09-1.20153E-10
 -1       159 2.06665E+04 1.30190E+02 3.67489E+04 1.13715E+04 7.48946E-09-2.05276E-09
 -1       160-1.71823E+04-1.13701E+05 1.99153E+04-1.63762E+03 4.82032E-09 6.61294E-09
 -1       161-4.27130E+05-5.79814E+04-3.36340E+03-1.46513E+05-1.60692E-08-8.29459E-10
 -1       162-2.67768E+05-4.66450E+04 2.53866E+04-1.25649E+05 1.87054E-08-5.26558E-09
 -1       163-4.24610E+05-5.27793E+04-8.17703E+03-1.47878E+05-7.30304E-09 8.31619E-10
 -1       164-2.84953E+05-3.87612E+04 2.05115E+04-1.07426E+05-3.98636E-08 1.79497E-08
 -1       165-4.09787E+05-6.62703E+04-9.37173E+03-1.64488E+05-4.69388E-05 1.81283E-05
 -1       166-3.00290E+05-2.50648E+04 1.94330E+04-9.10952E+04-9.44780E-05 3.75641E-05
 -1       167-4.09434E+05-6.60697E+04-9.72921E+03-1.64454E+05-4.69149E-05 1.81275E-05
 -1       168-2.85510E+05-3.99634E+04 1.89630E+04-1.07110E+05-4.95281E-09 8.86678E-09
 -1       169-4.24406E+05-5.17779E+04-1.05516E+04-1.48227E+05 3.78182E-06-1.37095E-06
 -1       170-2.72181E+05-5.47270E+04 1.73148E+04-1.23987E+05 7.47147E-06-2.64869E-06
 -1       171-4.22922E+05-5.09025E+04-1.28972E+04-1.47825E+05 3.81314E-06-1.36528E-06
 -1       172-2.88218E+05-4.42952E+04 1.03335E+04-1.06596E+05 2.67020E-08-1.42132E-08
 -1       173-4.08212E+05-6.26139E+04-2.45855E+04-1.65372E+05-1.49582E-08-2.72121E-09
 -1       174-3.15605E+05-5.22137E+04-2.26898E+04-8.61627E+04-7.58737E-08 5.67343E-09
 -1       175-3.95698E+05-4.25813E+04-7.27150E+04-1.68503E+05-1.16006E-08-1.49157E-09
 -1       191 4.47939E+02 3.28223E+05 7.18273E+02-5.85701E+03-2.31921E-10-1.88993E-09
 -1       192 1.59041E+02 3.28312E+05 4.21059E+02-6.17239E+03-1.83263E-10-3.01952E-10
 -1       193 6.69961E+01 3.28257E+05 3.24292E+02-5.72037E+03-6.57622E-10-4.72028E-10
 -1       194 1.91007E+02 3.28317E+05 4.74564E+02-6.43325E+03-5.62068E-10 3.68345E-09
 -1       195 5.44266E+02 3.28205E+05 8.51683E+02-5.59576E+03-1.05865E-09 7.31234E-10
 -1       266-3.77821E+04-1.74701E+04 8.72081E+04-6.35107E+01 0.00000E+00-3.30571E-09
 -1       267 4.37553E+04 2.04032E+04 6.18582E+04 7.30166E+01 5.91172E-11 2.84478E-09
 -1       268-5.96221E+03-2.92103E+03 2.28959E+04-9.50906E+00-3.72893E-11-1.02807E-09
 -1       269 7.03796E+03 3.50275E+03 1.49634E+04 1.10538E+01 3.38787E-11-5.46002E-09
 -1       270-1.07437E+03-5.81059E+02 7.18429E+03-1.54246E+00-1.47793E-11-6.10707E-09
 -1       271-3.92846E+06-4.89559E+05-3.09548E+05-1.52133E+06 1.02955E-09 3.78350E-10
 -1       272-4.04716E+06-6.91540E+05-1.96749E+05-1.51066E+06 1.17825E-09 2.08092E-09
 -1       273-3.98457E+06-5.61626E+05-7.30103E+04-1.51023E+06 3.71074E-10-4.35830E-09
 -1       274-3.98128E+06-6.00618E+05-4.03819E+04-1.52892E+06 5.06589E-10-3.43152E-09
 -1       275-3.99248E+06-5.68189E+05-1.69711E+04-1.50768E+06 2.64026E-09-3.34057E-09
 -1       276-3.97147E+06-5.92974E+05-8.99203E+03-1.53326E+06 5.75528E-09 2.22758E-09
 -1       277-3.99434E+06-5.67990E+05-4.53597E+03-1.50643E+06 2.93494E-09-3.19324E-09
 -1       278-3.96920E+06-5.93502E+05-3.45452E+03-1.53522E+06-4.56794E-10 4.27519E-10
 -1       279-3.99487E+06-5.67480E+05-3.97878E+03-1.50586E+06 8.53561E-10-6.24516E-09
 -1       280-3.96946E+06-5.94694E+05-7.48245E+03-1.53565E+06-3.10706E-10-1.93540E-09
 -1       281-3.99415E+06-5.66838E+05-1.38790E+04-1.50601E+06 8.37360E-10 4.38558E-09
 -1       282-3.97617E+06-6.02272E+05-3.29767E+04-1.53372E+06-4.12939E-10-2.48110E-09
 -1       283-3.98829E+06-5.60885E+05-5.95273E+04-1.50743E+06-8.01720E-10-3.45972E-09
 -1       284-4.02891E+06-6.77425E+05-1.60477E+05-1.51996E+06-5.12955E-10 6.39011E-09
 -1       285-3.94294E+06-5.01730E+05-2.52484E+05-1.51603E+06 1.24055E-09 2.06637E-09
 -1       286 5.25164E+05-5.15937E+04 1.18928E+05 1.11950E+03 1.94581E-09 6.69388E-10
 -1       287 5.77362E+05 5.97114E+04 8.42812E+04-1.56610E+03-1.15544E-09-2.34359E-08
 -1       288 5.45336E+05-8.10124E+03 3.08130E+04-3.74289E+01-9.13739E-07-1.79207E-08
 -1       289 5.53902E+05 9.37587E+03 1.94124E+04-2.97530E+02-1.84418E-06-1.30581E-09
 -1       290 5.48627E+05-1.27261E+03 7.96769E+03-1.49027E+02-8.16386E-07 9.36325E-09
 -1       291 5.50077E+05 1.50135E+03 4.83003E+03-1.74947E+02 2.10912E-07-4.00183E-09
 -1       292 5.49166E+05-2.28364E+02 2.49049E+03-1.60015E+02 1.23607E-07 7.17210E-09
 -1       293 5.49542E+05 4.62693E+02 2.22144E+03-1.63709E+02 3.58616E-08-3.69557E-09
 -1       294 5.49163E+05-2.34142E+02 2.54113E+03-1.60266E+02-5.23533E-07-1.70428E-09
 -1       295 5.50103E+05 1.55088E+03 4.97693E+03-1.71914E+02-1.08368E-06 1.52102E-09
 -1       296 5.48604E+05-1.31636E+03 8.23137E+03-1.51809E+02-4.38330E-06-9.49831E-09
 -1       297 5.54060E+05 9.69980E+03 2.00724E+04-2.66845E+02-7.68015E-06 8.09678E-10
 -1       298 5.45200E+05-8.38134E+03 3.18639E+04-6.53320E+01-3.84690E-06 1.72913E-08
 -1       299 5.78199E+05 6.17438E+04 8.71354E+04-1.25206E+03 4.93487E-10 1.67092E-08
 -1       300 5.24462E+05-5.33450E+04 1.23021E+05 8.33373E+02 7.36593E-09 5.23869E-10
 -1       301 2.92660E+04-1.39287E+04 8.77267E+04-1.62443E+04-6.18456E-11 3.17755E-09
 -1       302 1.11535E+04 4.31482E+03 6.02054E+04-2.01814E+04 1.00908E-09-2.86127E-09
 -1       303 2.42919E+03-7.79294E+03 5.68430E+04-1.62886E+04 8.27640E-11 3.46904E-09
 -1       304 2.21293E+04 1.28185E+04 9.52288E+04-2.01169E+04 1.06684E-09 1.21925E-08
 -1       305 6.09920E+04-2.23847E+04 1.70685E+05-1.62637E+04 2.11003E-10 5.68775E-09
 -1       306-1.73154E+06-2.26679E+05-1.04803E+05-6.71267E+05 3.25599E-10 2.25555E-10
 -1       307-1.74862E+06-3.17543E+05-6.65155E+04-6.93786E+05 6.02540E-11 9.02219E-10
 -1       308-1.75066E+06-2.50788E+05-2.47448E+04-6.67431E+05 9.59972E-10 4.10910E-09
 -1       309-1.72655E+06-2.86866E+05-1.36849E+04-7.00127E+05-1.19371E-10-1.22691E-09
 -1       310-1.75328E+06-2.53040E+05-5.78012E+03-6.66675E+05 3.47882E-11 5.15229E-10
 -1       311-1.72361E+06-2.83986E+05-3.11550E+03-7.01315E+05 1.93131E-09 5.63676E-09
 -1       312-1.75369E+06-2.53181E+05-1.66955E+03-6.66498E+05 2.02031E-09-5.39580E-09
 -1       313-1.72335E+06-2.83654E+05-1.46929E+03-7.01330E+05 6.00079E-09 1.07502E-09
 -1       314-1.75352E+06-2.53346E+05-1.95998E+03-6.66667E+05 1.24646E-09 6.38465E-10
 -1       315-1.72418E+06-2.83521E+05-3.88873E+03-7.00517E+05 2.80761E-09 2.70461E-09
 -1       316-1.75270E+06-2.53455E+05-7.37611E+03-6.67179E+05 3.91810E-09-1.51340E-09
 -1       317-1.72831E+06-2.86798E+05-1.74800E+04-6.98456E+05 1.80808E-09-7.46832E-09
 -1       318-1.74917E+06-2.50756E+05-3.16765E+04-6.68329E+05 2.86173E-09 6.38465E-10
 -1       319-1.75677E+06-3.25796E+05-8.50808E+04-6.90056E+05-8.76071E-10 6.62112E-09
 -1       320-1.72463E+06-2.19982E+05-1.34083E+05-6.73314E+05-2.24281E-09-2.48110E-09
 -1       321-7.62408E+05-5.78364E+03 2.46519E+03-2.05044E+04-6.53102E-09 8.62747E-09
 -1       322-5.13237E+05 1.67171E+04 4.91817E+04 3.01118E+04-3.60117E-08 1.02201E-08
 -1       323-8.72267E+05-1.08161E+04-2.86710E+04-6.16020E+03-1.30084E-08-4.70061E-09
 -1       324-5.64082E+05 9.44507E+02 3.11227E+04-1.65660E+04-1.37973E-08-1.19691E-08
 -1       325-7.11549E+05 9.59075E+03 2.76327E+03 2.61680E+04 4.26299E-09-5.25381E-09
 -1       326-5.57573E+05 2.90266E+02 3.10213E+04-1.86165E+04 1.08571E-08-1.26602E-09
 -1       327-8.78778E+05-1.01041E+04-3.28657E+04-4.11020E+03-3.83193E-09 2.87466E-09
 -1       328-5.23232E+05 4.31563E+03 3.81045E+04 2.89358E+04 2.44771E-09 1.12054E-08
 -1       329-7.45903E+05 5.85858E+03-5.57288E+03-2.13793E+04-6.74777E-09 8.15382E-09
 -1       330-5.92599E+05-4.58232E+03 2.18129E+04 6.59190E+03 1.60169E-08 1.65926E-09
 -1       331-8.09397E+05-1.77282E+03-2.04461E+04 1.82282E+04 3.06528E-09-6.76869E-09
 -1       332-5.08908E+05 5.36722E+03 3.71623E+04-3.06450E+04-3.30394E-08-1.58707E-08
 -1       333-8.29619E+05-3.38778E+03-3.07571E+04 1.58530E+04-2.59005E-08-4.59295E-09
 -1       334-5.90678E+05-1.10889E+04 5.20010E+03 1.01889E+04-1.79190E-09 4.69527E-09
 -1       335-7.27610E+05 1.40216E+04-3.35016E+04-2.26015E+04-1.68166E-08 1.42009E-08
 -1       336 3.16839E+02-8.54981E+05-3.08664E+03-1.26376E+04-3.08000E-09-6.89124E-09
 -1       337-1.46980E+03-8.56286E+05-5.78186E+03-7.96081E+04-5.51324E-09-1.88629E-09
 -1       338 1.16889E+03-8.54510E+05-9.56583E+03-1.20412E+04-4.89672E-09-6.72981E-09
 -1       339-1.21835E+04-8.62793E+05-2.37152E+04-8.03751E+04-7.31438E-09-8.08734E-09
 -1       340 9.95662E+03-8.48964E+05-3.61987E+04-1.18729E+04-4.89854E-09-1.76431E-09
 -1       356-7.29050E+05 1.37074E+04-3.38498E+04-2.21544E+04-3.77537E-09 8.13634E-09
 -1       357-5.94589E+05-1.12695E+04 4.35310E+03 9.52894E+03-5.03779E-09 1.30103E-09
 -1       358-8.23535E+05-2.88972E+03-2.95805E+04 1.60288E+04-9.35734E-09-2.59479E-09
 -1       359-5.13248E+05 5.22097E+03 3.61910E+04-3.02422E+04-1.14587E-08-1.44180E-08
 -1       360-8.10407E+05-2.12854E+03-2.08398E+04 1.76126E+04-6.36254E-09-5.20356E-09
 -1       361-5.94573E+05-4.43277E+03 2.12015E+04 7.10053E+03 6.52142E-09 5.35334E-09
 -1       362-7.42186E+05 6.08244E+03-5.30335E+03-2.13095E+04 2.59401E-08 9.29417E-09
 -1       363-5.28917E+05 3.84188E+03 3.59762E+04 2.82270E+04 1.77536E-08 1.05140E-08
 -1       364-8.76075E+05-9.86831E+03-3.41042E+04-3.50867E+03-1.79740E-08 4.73779E-09
 -1       365-5.59880E+05-7.54749E+02 2.67797E+04-1.88963E+04-4.79583E-08-7.11691E-09
 -1       366-7.11214E+05 1.04205E+04-4.12866E+03 2.58091E+04 2.90680E-08-9.88075E-09
 -1       367-5.73090E+05-7.41407E+03 1.33476E+04-1.55762E+04 4.68363E-08-9.87075E-09
 -1       368-8.62867E+05-3.29731E+03-5.40652E+04-6.82838E+03-1.38833E-08-9.87711E-10
 -1       369-5.39452E+05-3.49177E+04-2.40325E+04 2.97477E+04-3.66275E-08 1.37261E-08
 -1       370-7.44879E+05 3.83340E+04-1.00954E+05-1.95097E+04 2.50111E-12 9.29140E-09
 -1       371-1.55726E+04-1.02548E+05 1.95536E+04-1.12301E+03 1.75914E-08 4.69697E-10
 -1       372 1.58069E+04-1.28124E+04 2.62949E+04 9.38990E+03-3.42106E-09-1.99080E-09
 -1       373-3.60213E+02-6.65850E+04 2.63765E+03-2.97454E+03-8.92669E-10-1.63995E-09
 -1       374-5.04990E+03-5.30785E+04-3.53795E+03 1.12827E+04-7.18501E-10 3.96799E-09
 -1       375 5.44495E+03-6.24925E+04-1.31036E+04-3.01403E+03-5.38239E-09-5.80116E-10
 -1       406 4.80506E+02 3.26692E+05 1.15907E+03-1.67242E+04-1.57706E-09 1.76942E-09
 -1       407 3.83286E+02 3.26909E+05 1.63390E+03-1.81992E+04-9.45533E-10 2.99315E-09
 -1       408 7.35721E+02 3.26624E+05 2.87720E+03-1.66066E+04-1.96223E-09 1.20963E-10
 -1       409 2.96893E+03 3.27747E+05 6.29077E+03-1.83975E+04-1.44746E-09-7.46149E-09
 -1       410 8.52576E+03 3.25824E+05 1.27490E+04-1.65193E+04-2.23918E-09-3.39423E-09
 -1       501-2.92958E+05-5.90451E+04 1.16502E+05-8.35255E+03 1.06888E-08 1.15178E-08
 -1       502-1.36284E+05 6.47037E+04 1.00263E+05 2.19312E+04 1.22133E-08 1.72677E-08
 -1       503-2.34590E+05-5.41547E+03 3.12248E+04-1.01629E+04 6.74618E-09 1.33223E-08
 -1       504-1.15463E+05 1.19636E+04 4.04769E+04 1.36876E+04-3.40424E-09 1.04847E-08
 -1       505-3.13433E+05-6.72018E+03-1.01257E+04-1.07108E+02 6.61379E-09-2.59115E-09
 -1       506-1.00037E+05 5.13943E+03 2.89655E+04-8.23084E+03 2.95488E-08-1.06929E-08
 -1       507-2.49861E+05 1.25488E+03-3.20861E+03 1.17438E+04 2.79501E-08-2.07845E-08
 -1       508-1.70538E+05-3.07618E+03 1.02977E+04-2.04059E+04 1.24172E-08-3.02317E-08
 -1       509-2.43484E+05 2.08638E+03-3.21092E+03 1.20802E+04 2.63277E-08-2.31059E-08
 -1       510-1.05935E+05 3.35794E+03 2.40445E+04-9.52267E+03 2.74877E-08-1.88105E-08
 -1       511-3.13952E+05-5.72998E+03-1.71717E+04 8.48441E+02-1.58389E-09-2.46609E-09
 -1       512-1.13510E+05 4.26822E+03 2.47510E+04 1.25793E+04-1.90574E-08 6.51664E-09
 -1       513-2.35981E+05 1.23993E+03 3.04466E+03-1.00105E+04-7.54949E-09 1.11913E-08
 -1       514-1.62068E+05 1.17119E+04 2.55789E+04 2.19515E+04-8.69073E-09 1.77861E-08
 -1       515-2.65833E+05-1.27094E+04 1.26082E+04-8.52550E+03-1.06797E-08 1.26374E-08
 -1       521-3.98227E+06-5.06607E+05-2.56491E+05-1.53157E+06-2.22281E-09-2.60479E-09
 -1       522-4.06782E+06-6.86754E+05-1.63004E+05-1.53750E+06-2.96950E-10-2.57569E-09
 -1       523-4.02855E+06-5.66461E+05-6.04664E+04-1.52258E+06-2.28601E-09-8.47649E-10
 -1       524-4.01392E+06-6.10778E+05-3.34769E+04-1.55193E+06-8.19932E-09-2.52749E-09
 -1       525-4.03466E+06-5.72344E+05-1.40651E+04-1.52097E+06 9.87370E-11 3.67436E-09
 -1       526-4.00690E+06-6.03308E+05-7.52286E+03-1.55419E+06 3.16965E-09 3.77986E-09
 -1       527-4.03548E+06-5.72911E+05-3.88574E+03-1.52073E+06-1.68006E-09-2.90174E-09
 -1       528-4.00652E+06-6.02176E+05-3.16815E+03-1.55387E+06-1.39505E-09 3.09933E-09
 -1       529-4.03497E+06-5.73431E+05-3.92422E+03-1.52128E+06-1.36379E-09 2.60343E-09
 -1       530-4.00867E+06-6.01416E+05-7.58783E+03-1.55185E+06 6.12999E-10 1.09458E-09
 -1       531-4.03317E+06-5.73854E+05-1.42437E+04-1.52260E+06-1.38562E-09 1.73168E-09
 -1       532-4.01746E+06-6.07189E+05-3.38173E+04-1.54743E+06-1.63982E-09 1.21508E-09
 -1       533-4.02613E+06-5.68786E+05-6.11490E+04-1.52519E+06 8.04562E-10 2.21189E-09
 -1       534-4.07348E+06-6.82368E+05-1.64709E+05-1.53100E+06 7.33053E-10-3.27418E-10
 -1       535-3.97863E+06-5.09038E+05-2.59240E+05-1.53509E+06-1.17871E-09-1.41154E-09
 -1       536 4.87776E+04-1.29668E+04 4.67399E+04-6.13046E+03 1.11777E-09-3.49974E-09
 -1       537 6.68958E+04 1.61019E+04 3.06233E+04-3.53561E+04-3.65344E-09-2.51066E-09
 -1       538 5.59925E+04-1.53571E+03 1.21020E+04-6.06737E+03 3.23780E-10-3.23416E-09
 -1       539 5.84926E+04 1.68220E+03 6.92353E+03-3.53979E+04 2.17779E-09 2.07228E-09
 -1       540 5.68590E+04-2.15769E+02 3.04630E+03-6.08439E+03-8.44011E-10-3.08069E-09
 -1       541 5.72862E+04 1.69056E+02 1.64235E+03-3.53603E+04-5.12955E-10-1.35685E-09
 -1       542 5.69644E+04-3.52812E+01 7.47091E+02-6.10534E+03-1.98861E-09 4.82930E-09
 -1       543 5.70191E+04 4.34305E+01 3.75192E+02-3.53277E+04-7.20138E-09 3.51184E-09
 -1       544 5.69760E+04 3.42196E+00 1.37335E+02-6.11714E+03-2.09502E-09-2.02567E-09
 -1       545 5.69312E+04 3.41771E+01-1.53820E+01-3.53133E+04-1.57206E-09-4.79332E-09
 -1       546 5.69860E+04 2.02661E+01-1.67572E+02-6.11971E+03 1.39551E-10-2.44040E-09
 -1       547 5.68709E+04-8.43704E+01-4.60142E+02-3.53127E+04-6.12545E-10-1.21810E-09
 -1       548 5.70537E+04 9.79560E+01-8.49588E+02-6.11775E+03-1.14483E-09 2.45802E-09
 -1       549 5.63850E+04-1.13326E+03-2.14441E+03-3.52750E+04 3.09228E-11 3.15822E-09
 -1       550 5.75729E+04 8.66099E+02-3.32021E+03-6.15747E+03-4.12911E-10 1.35174E-10
 -1       551 8.68677E+03-3.02988E+05 2.15933E+04-4.82145E+05-6.00448E-09-1.13505E-09
 -1       552 7.33649E+03-3.00170E+05 2.33256E+04-5.95308E+05-6.35919E-09 7.41420E-09
 -1       553 5.42256E+03-3.04079E+05 3.44928E+04-4.81175E+05-7.20684E-09 2.84354E-09
 -1       554 2.24963E+04-2.88996E+05 7.10293E+04-5.95435E+05-7.74162E-09 1.35697E-09
 -1       555 5.22585E+04-3.15126E+05 1.34593E+05-4.81840E+05-5.66797E-09-3.99086E-09
 -1       556-8.82698E+04-1.00712E+05 2.48266E+04-1.61162E+05-4.87489E-09-3.41970E-09
 -1       557-6.26925E+04-1.24957E+05 1.26025E+04-1.81589E+05-9.53150E-10-1.35719E-09
 -1       558-8.83957E+04-1.06403E+05 5.23938E+03-1.57285E+05 1.12050E-09-2.97678E-09
 -1       559-6.56527E+04-1.28557E+05 2.60602E+03-1.82838E+05 2.73940E-09-7.90351E-10
 -1       560-8.88807E+04-1.06171E+05 1.13668E+03-1.57480E+05 7.96717E-10 4.58567E-09
 -1       561-6.64228E+04-1.28458E+05 5.64522E+02-1.83357E+05 1.16415E-10 1.19417E-09
 -1       562-8.92751E+04-1.05901E+05 2.17864E+02-1.57754E+05 5.60249E-10-1.33764E-09
 -1       563-6.68509E+04-1.28275E+05 6.89223E+01-1.83646E+05 5.32600E-09 6.91239E-09
 -1       564-8.95084E+04-1.05746E+05-8.38248E+01-1.57918E+05-1.90084E-09-1.26447E-08
 -1       565-6.70683E+04-1.28187E+05-2.73810E+02-1.83784E+05-2.83080E-09-2.25100E-09
 -1       566-8.95602E+04-1.05691E+05-6.26096E+02-1.57965E+05-1.64914E-09-6.15728E-10
 -1       567-6.71779E+04-1.28231E+05-1.39913E+03-1.83762E+05 9.24047E-10 5.33328E-09
 -1       568-8.93608E+04-1.05865E+05-2.88834E+03-1.57853E+05 2.17915E-09 9.42237E-09
 -1       569-6.88122E+04-1.29685E+05-6.80801E+03-1.83124E+05-2.75577E-10-3.90719E-09
 -1       570-8.80864E+04-1.09971E+05-1.35431E+04-1.56168E+05-2.00635E-09-8.18955E-09
 -1       571 2.25336E+05 9.51392E+03 1.42671E+04-5.58272E+04 2.78305E-10-9.84301E-10
 -1       572 2.27478E+05 3.28323E+03 6.99596E+03-6.13199E+04 4.94765E-10-1.07548E-09
 -1       573 2.26195E+05 7.62925E+02 3.10954E+03-5.56822E+04-5.39330E-10-2.93539E-09
 -1       574 2.26449E+05 2.41519E+02 1.55929E+03-6.14796E+04-1.12573E-09 3.92401E-09
 -1       575 2.26289E+05 2.57513E+01 7.36085E+02-5.56634E+04-5.29326E-10-5.30235E-10
 -1       576 2.26311E+05 2.07960E+00 3.75652E+02-6.15007E+04 3.01611E-10 4.86125E-10
 -1       577 2.26304E+05-1.21719E+01 1.86706E+02-5.56610E+04 6.27097E-10-2.39652E-09
 -1       578 2.26300E+05-1.05157E+01 1.04935E+02-6.15033E+04 7.37600E-10-1.13141E-09
 -1       579 2.26322E+05-1.63992E+01 6.97905E+01-5.56608E+04-4.07908E-10 1.75442E-09
 -1       580 2.26325E+05-2.02914E+01 7.45397E+01-6.15003E+04-1.23691E-10 6.95763E-11
 -1       581 2.26353E+05-2.72248E+01 1.11311E+02-5.56640E+04-4.62023E-10-2.12958E-09
 -1       582 2.26386E+05-9.43178E+00 2.19521E+02-6.14668E+04-9.91349E-11-2.57569E-09
 -1       583 2.26386E+05 4.79081E+01 4.25840E+02-5.56943E+04 1.83718E-10 8.38554E-10
 -1       584 2.26584E+05 3.78807E+02 9.56265E+02-6.12106E+04-1.14142E-09 4.45334E-09
 -1       585 2.26321E+05 1.21953E+03 1.94287E+03-5.59213E+04 7.88532E-10 7.56700E-10
 -1       586 5.29829E+02 9.94253E+04 1.30745E+03-1.40409E+05 4.82032E-11-2.83035E-09
 -1       587 4.99099E+02 9.96494E+04 2.04228E+03-1.56574E+05-1.68438E-09-3.01861E-09
 -1       588 8.71740E+02 9.92748E+04 3.71239E+03-1.40229E+05-1.00044E-11 1.33343E-09
 -1       589 3.58157E+03 1.00809E+05 8.16543E+03-1.56601E+05-1.74805E-09 4.67480E-10
 -1       590 1.03523E+04 9.82286E+04 1.64751E+04-1.40379E+05 8.54925E-11-1.82627E-09
 -1       591-1.04061E+05-3.08611E+04-2.14714E+04-4.98816E+04 5.32395E-10-2.85581E-09
 -1       592-1.05550E+05-3.00895E+04-1.08315E+04-5.55822E+04 1.16506E-09-1.28261E-09
 -1       593-1.05192E+05-2.50199E+04-4.59669E+03-5.28393E+04 6.70980E-10-1.96587E-09
 -1       594-1.03090E+05-2.74196E+04-2.25919E+03-5.57682E+04 5.23414E-10-4.61821E-09
 -1       595-1.05312E+05-2.48711E+04-1.04273E+03-5.29502E+04 1.52113E-10 3.86876E-09
 -1       596-1.02923E+05-2.73265E+04-5.27009E+02-5.57432E+04-2.02647E-10 2.43631E-09
 -1       597-1.05332E+05-2.48894E+04-2.83432E+02-5.29503E+04-2.55423E-09 1.09674E-09
 -1       598-1.02905E+05-2.73275E+04-2.20135E+02-5.57354E+04-4.39212E-09 9.31459E-09
 -1       599-1.05330E+05-2.48909E+04-2.71454E+02-5.29492E+04-3.34194E-09 2.82307E-09
 -1       600-1.02919E+05-2.73284E+04-4.95451E+02-5.57393E+04-1.93029E-09-2.45336E-10
 -1       601-1.05308E+05-2.48760E+04-9.74728E+02-5.29471E+04 9.39735E-10 7.80710E-09
 -1       602-1.03073E+05-2.74144E+04-2.10928E+03-5.57568E+04 5.56611E-10-5.74801E-10
 -1       603-1.05191E+05-2.50197E+04-4.29027E+03-5.28442E+04-6.98037E-10-1.43973E-09
 -1       604-1.05391E+05-2.98798E+04-1.01074E+04-5.55490E+04-3.81988E-10 1.34673E-09
 -1       605-1.04107E+05-3.04939E+04-2.00353E+04-5.01095E+04-5.89353E-09-1.35988E-08
 -1       606 7.53929E+04-8.85762E+03-1.42461E+04 2.35369E+04-3.99996E-09-7.45786E-11
 -1       607 7.31057E+04-2.95074E+03-7.02373E+03 2.59117E+04-8.31278E-10 9.50422E-10
 -1       608 7.44281E+04-6.02113E+02-3.13181E+03 2.33705E+04 3.83625E-09 5.76847E-10
 -1       609 7.41370E+04-1.63160E+02-1.57386E+03 2.60944E+04-1.00044E-11-7.48059E-10
 -1       610 7.43007E+04 1.39734E+01-7.45706E+02 2.33501E+04-4.11092E-09 2.43699E-09
 -1       611 7.42419E+04 3.64307E+01-3.75062E+02 2.61163E+04-9.60381E-09 1.16438E-09
 -1       612 7.42691E+04 4.20718E+01-1.77472E+02 2.33480E+04 2.68665E-09-2.93699E-09
 -1       613 7.42451E+04 4.60246E+01-7.88880E+01 2.61189E+04 1.35610E-08-2.04591E-09
 -1       614 7.42532E+04 4.12496E+01-1.72683E+01 2.33474E+04 1.21390E-08-3.21370E-09
 -1       615 7.42393E+04 4.91853E+01 3.64241E+01 2.61191E+04 8.19773E-09 3.06727E-10
 -1       616 7.42408E+04 4.69528E+01 1.06164E+02 2.33477E+04-1.66074E-09 1.67552E-09
 -1       617 7.42512E+04 8.24212E+01 2.42773E+02 2.61181E+04 3.18323E-11 3.57090E-09
 -1       618 7.42174E+04 1.45257E+02 4.91200E+02 2.33482E+04-1.23600E-09-3.03748E-09
 -1       619 7.44129E+04 5.22934E+02 1.10705E+03 2.61135E+04-1.19826E-09-2.82398E-09
 -1       620 7.40654E+04 1.44845E+03 2.24717E+03 2.33504E+04 1.89215E-09-4.51973E-09
 -1       621 7.83418E+02 2.28856E+05 2.80566E+03-1.62316E+04 4.76348E-11-1.66335E-09
 -1       622 3.54545E+02 2.29428E+05 2.82128E+03-2.00919E+04 3.57659E-10 4.26928E-09
 -1       623 1.82815E+02 2.28946E+05 4.01627E+03-1.62387E+04-8.68567E-11-2.20052E-09
 -1       624 2.02586E+03 2.30730E+05 8.16147E+03-2.00202E+04 4.80668E-10-2.77669E-09
 -1       625 5.61242E+03 2.27569E+05 1.54448E+04-1.63013E+04 6.09361E-11-9.63155E-10
 -1       626 1.36433E+05 4.38647E+04-2.66381E+03 8.65239E+04 1.73259E-10 2.89219E-10
 -1       627 1.33458E+05 4.74363E+04-1.26633E+03 8.90428E+04 2.82898E-09-7.18489E-09
 -1       628 1.36539E+05 4.50675E+04-5.32666E+02 8.57975E+04 1.70076E-10-4.32601E-09
 -1       629 1.33555E+05 4.80551E+04-2.53536E+02 8.90886E+04 2.92994E-09 4.22466E-09
 -1       630 1.36527E+05 4.51496E+04-1.09157E+02 8.57296E+04 3.97631E-09-2.08001E-09
 -1       631 1.33544E+05 4.81061E+04-4.16314E+01 8.90905E+04-2.01953E-09 6.41165E-10
 -1       632 1.36512E+05 4.51554E+04 4.57670E+00 8.57180E+04 1.94041E-09 4.00337E-09
 -1       633 1.33537E+05 4.81115E+04 5.26666E+01 8.90872E+04 1.38243E-10 8.02629E-10
 -1       634 1.36499E+05 4.51519E+04 1.27682E+02 8.57142E+04 9.84528E-10 3.48905E-09
 -1       635 1.33548E+05 4.81147E+04 2.86270E+02 8.90889E+04 3.15731E-09 9.13951E-09
 -1       636 1.36486E+05 4.51611E+04 5.92295E+02 8.57060E+04-5.71572E-09-3.26099E-09
 -1       637 1.33686E+05 4.82593E+04 1.31908E+03 8.90693E+04-2.25452E-09-2.00043E-09
 -1       638 1.36452E+05 4.56015E+04 2.72911E+03 8.55127E+04-8.63656E-09 7.68068E-10
 -1       639 1.35083E+05 5.06005E+04 6.48676E+03 8.85099E+04-1.08894E-08 2.11751E-08
 -1       640 1.36471E+05 5.24294E+04 1.36385E+04 8.26646E+04-1.06470E-08 4.33465E-09
 -1       641-1.78064E+04 2.76945E+03-6.38443E+03-2.85207E+01 2.13192E-05-2.41639E-08
 -1       642-2.05762E+04-3.20535E+03-4.51764E+03 8.53736E+00 4.25993E-05-5.07649E-08
 -1       643-1.88740E+04 4.35262E+02-1.64643E+03-3.17299E+01 3.92922E-05-5.00130E-08
 -1       644-1.93318E+04-5.02652E+02-1.02612E+03 1.42772E+01 3.59672E-05-4.22318E-08
 -1       645-1.90508E+04 6.72628E+01-3.97299E+02-3.42615E+01 2.35578E-05-3.37803E-08
 -1       646-1.91220E+04-7.21393E+01-1.94419E+02 1.75087E+01 1.11398E-05-1.61346E-08
 -1       647-1.90838E+04 4.82646E+00-1.23467E+01-3.49616E+01-6.22114E-06 7.06957E-09
 -1       648-1.90652E+04 3.08872E+01 1.47955E+02 1.68401E+01-2.35916E-05 3.22913E-08
 -1       649-1.91076E+04-3.57512E+01 3.47266E+02-3.35929E+01-4.29941E-05 5.68265E-08
 -1       650-1.89344E+04 2.75800E+02 8.47843E+02 1.20901E+01-6.23957E-05 7.11454E-08
 -1       651-1.92146E+04-2.40054E+02 1.47587E+03-3.02115E+01-7.95587E-05 9.92073E-08
 -1       652-1.82034E+04 1.77517E+03 3.65746E+03 3.28680E+00-9.67165E-05 1.04810E-07
 -1       653-1.98385E+04-1.53485E+03 5.82102E+03-2.47896E+01-1.01388E-04 1.19376E-07
 -1       654-1.38136E+04 1.12991E+04 1.59351E+04-1.13524E+01-1.06003E-04 1.05195E-07
 -1       655-2.36035E+04-9.76205E+03 2.25076E+04-1.55726E+01-5.30462E-05 4.67971E-08
 -1       656 8.61288E+03-3.22919E+05-3.66135E+04 8.76385E+03-9.64064E-10 3.18551E-09
 -1       657-1.25417E+04-3.36464E+05-2.71590E+04 3.73858E+04-2.01180E-09 8.40646E-09
 -1       658 1.77637E+03-3.27625E+05-1.76754E+04 8.68304E+03-6.69104E-10 2.61207E-09
 -1       659-1.23481E+04-3.36382E+05-2.68400E+04 3.74365E+04-1.76215E-10-1.15699E-09
 -1       660 8.47421E+03-3.23034E+05-3.60060E+04 8.71364E+03-7.89441E-10 2.80033E-09
 -1       661 2.00461E+05 2.78475E+04 1.59121E+04 7.86760E+04 2.45268E-09 2.43836E-09
 -1       662 2.03875E+05 3.71002E+04 9.58230E+03 8.10234E+04 9.86660E-10 1.79853E-09
 -1       663 2.02904E+05 3.02197E+04 3.73471E+03 7.86896E+04-3.35065E-09-4.80895E-09
 -1       664 2.01018E+05 3.32569E+04 1.97090E+03 8.14714E+04 2.83033E-09 3.50099E-09
 -1       665 2.03139E+05 3.04362E+04 8.72237E+02 7.86991E+04-8.20279E-10-1.10430E-09
 -1       666 2.00745E+05 3.29370E+04 4.64258E+02 8.14904E+04 1.02553E-09 2.00250E-09
 -1       667 2.03165E+05 3.04576E+04 2.70353E+02 7.87012E+04-2.47420E-09-2.74505E-09
 -1       668 2.00721E+05 3.29155E+04 2.59721E+02 8.14921E+04-4.88853E-11-6.29844E-09
 -1       669 2.03163E+05 3.04537E+04 3.79020E+02 7.86993E+04-4.38945E-10 1.51186E-09
 -1       670 2.00768E+05 3.29633E+04 7.58201E+02 8.15005E+04-2.91095E-10-3.09336E-09
 -1       671 2.03120E+05 3.04126E+04 1.48378E+03 7.86929E+04 3.86990E-10-2.96950E-10
 -1       672 2.01237E+05 3.35199E+04 3.38874E+03 8.14751E+04 4.03003E-09-3.57772E-10
 -1       673 2.02718E+05 3.00362E+04 6.43400E+03 7.86741E+04-1.12857E-09-3.31147E-09
 -1       674 2.06162E+05 4.01507E+04 1.65198E+04 8.07080E+04 6.20758E-09 7.73298E-09
 -1       675 1.98506E+05 2.59445E+04 2.74338E+04 7.86492E+04 1.24714E-09 4.35648E-09
 -1       676 3.37856E+02-2.88471E+05-2.33028E+03-3.08463E+02-4.07599E-09 3.70266E-09
 -1       677-9.68756E+02-2.89389E+05-3.49770E+03-1.76701E+03-6.58483E-09 7.48809E-09
 -1       678 4.48704E+02-2.88352E+05-5.29854E+03-3.10282E+02-2.19984E-09 7.56518E-09
 -1       679-5.91723E+03-2.92389E+05-1.24980E+04-1.75937E+03-3.06818E-09 1.01966E-09
 -1       680 4.19419E+03-2.85472E+05-1.94701E+04-3.17004E+02-9.76797E-10 1.85625E-09
 -1       716-2.56295E-01-1.21796E-01 1.15025E+01-4.13151E-04 4.65079E-09-2.72049E-09
 -1       717 1.26663E+00 9.23917E-01 2.02578E+01 1.05195E-03-3.60452E-09 2.32415E-10
 -1       718-1.00807E+00-8.00175E-01 3.75927E+01-6.38472E-04 1.80772E-09-2.65873E-09
 -1       719 5.97809E+00 6.28889E+00 7.79738E+01-9.54686E-04 3.48950E-09-1.80654E-09
 -1       720-4.96781E+00-5.48710E+00 1.48717E+02 1.59448E-03-3.73021E-09-1.98290E-09
 -1       721 3.09372E+01 4.18988E+01 3.17835E+02-3.36579E-02-4.11483E-09-1.71781E-09
 -1       722-2.59672E+01-3.64087E+01 5.94880E+02 3.20606E-02-3.25750E-09-3.63767E-09
 -1       723 1.68200E+02 2.73388E+02 1.31031E+03-3.22982E-01 2.61803E-09-2.07058E-09
 -1       724-1.42225E+02-2.36950E+02 2.37276E+03 2.90851E-01-4.12249E-09-3.68095E-09
 -1       725 9.52720E+02 1.76166E+03 5.46850E+03-2.48386E+00-4.15887E-09-2.56671E-09
 -1       726-8.10382E+02-1.52442E+03 9.40864E+03 2.19247E+00-5.22512E-09-1.86719E-09
 -1       727 5.57477E+03 1.12651E+04 2.32269E+04-1.74721E+01-4.76007E-09 9.44056E-10
 -1       728-4.76242E+03-9.73830E+03 3.69535E+04 1.52784E+01-7.54426E-10-7.96717E-10
 -1       729 3.34203E+04 7.16933E+04 1.01117E+05-1.17517E+02 2.37361E-09-2.91038E-10
 -1       730-2.86250E+04-6.19333E+04 1.42899E+05 1.02273E+02 6.21367E-09-3.23053E-09
 -1       766-6.19467E+04-2.86660E+04 1.42871E+05-8.76105E+01-3.05590E-10 2.80437E-10
 -1       767 7.17963E+04 3.34919E+04 1.01111E+05 2.99342E+01 4.94219E-09-4.44125E-11
 -1       768-9.82809E+03-4.84541E+03 3.68312E+04 8.79255E+00-2.34650E-10-1.92074E-10
 -1       769 1.19225E+04 5.89678E+03 2.32390E+04-7.95444E+01 3.91401E-09 4.17310E-09
 -1       770-2.09180E+03-1.10156E+03 8.87173E+03 2.18990E+01 1.73259E-10 1.60748E-09
 -1       771-1.79670E+06-3.42290E+05-4.97815E+04-7.66559E+05-3.41061E-09-7.98900E-09
 -1       772-1.78942E+06-3.50663E+05-2.50495E+04-7.91473E+05-1.26602E-09-7.41238E-09
 -1       773-1.80028E+06-3.28033E+05-1.07140E+04-7.73051E+05 3.80533E-09-8.09450E-10
 -1       774-1.78363E+06-3.44993E+05-5.23535E+03-7.93101E+05 2.57569E-09-7.53971E-10
 -1       775-1.80108E+06-3.27317E+05-2.46510E+03-7.73450E+05 8.28368E-09-1.95905E-09
 -1       776-1.78354E+06-3.44759E+05-1.22806E+03-7.93569E+05 1.54996E-08-4.89740E-09
 -1       777-1.80152E+06-3.27103E+05-6.85730E+02-7.73598E+05 8.59654E-09-3.28009E-09
 -1       778-1.78374E+06-3.44709E+05-5.11379E+02-7.93907E+05 1.47702E-09-2.71172E-10
 -1       779-1.80179E+06-3.26928E+05-6.43650E+02-7.73703E+05 1.18052E-09-5.84578E-10
 -1       780-1.78394E+06-3.44678E+05-1.15569E+03-7.94143E+05-2.64663E-10-2.15186E-09
 -1       781-1.80189E+06-3.26792E+05-2.28494E+03-7.73758E+05 6.09361E-10-4.94765E-10
 -1       782-1.78438E+06-3.44864E+05-4.94894E+03-7.94278E+05 2.54749E-09 1.78625E-09
 -1       783-1.80165E+06-3.27112E+05-1.00818E+04-7.73534E+05 1.57701E-09 6.73572E-09
 -1       784-1.78986E+06-3.50636E+05-2.37800E+04-7.93716E+05-1.73372E-09-1.18780E-09
 -1       785-1.79899E+06-3.40076E+05-4.71629E+04-7.67126E+05 7.57609E-10 5.02041E-10
 -1       786 1.79326E+05-5.91361E+03 2.16771E+04-8.33619E+02 1.70985E-10-1.79807E-09
 -1       787 1.87445E+05 7.53224E+03 1.41611E+04-4.92763E+03 4.54065E-10 3.25372E-10
 -1       788 1.82676E+05-6.61571E+02 5.62873E+03-8.33864E+02-3.42823E-10-2.52135E-09
 -1       789 1.83682E+05 8.21920E+02 3.20205E+03-4.92177E+03 3.61979E-10 7.19183E-10
 -1       790 1.83086E+05-7.55702E+01 1.43367E+03-8.39243E+02 1.09679E-10-6.14023E-10
 -1       791 1.83215E+05 8.89748E+01 7.78775E+02-4.91438E+03 1.54650E-10 9.66807E-10
 -1       792 1.83141E+05-9.46515E+00 3.95679E+02-8.41250E+02 1.30560E-10 5.70765E-10
 -1       793 1.83155E+05 1.31189E+01 2.65796E+02-4.91414E+03-2.70909E-10-1.49481E-09
 -1       794 1.83146E+05-5.24732E+00 2.45726E+02-8.39481E+02 1.15392E-10 6.42888E-10
 -1       795 1.83174E+05 3.91819E+01 3.79388E+02-4.92167E+03 4.94850E-10 1.31970E-09
 -1       796 1.83123E+05-3.39301E+01 6.48482E+02-8.33727E+02 2.63310E-09-9.91747E-10
 -1       797 1.83380E+05 3.60264E+02 1.41828E+03-4.93566E+03 3.44735E-09-6.39574E-10
 -1       798 1.82943E+05-2.92267E+02 2.48082E+03-8.25488E+02 2.49292E-09 1.07173E-09
 -1       799 1.85039E+05 3.31228E+03 6.23409E+03-4.94516E+03 1.03682E-10-3.80032E-09
 -1       800 1.81469E+05-2.60442E+03 9.53862E+03-8.24380E+02-3.64139E-10-8.10360E-10
 -1       801-1.27746E+04 2.57655E+05 3.30866E+04-1.84258E+05 9.76797E-09-5.35510E-09
 -1       802 3.19842E+04 2.67780E+05 4.42344E+04-1.05495E+06 2.88419E-08-1.88447E-09
 -1       803-2.34701E+03 2.56538E+05 5.21273E+04-1.83965E+05 1.80662E-08 9.62427E-09
 -1       804 7.64823E+04 2.93482E+05 1.18122E+05-1.05485E+06 2.94094E-08 1.16652E-08
 -1       805-5.19429E+04 2.32704E+05 1.70003E+05-1.84372E+05 9.05129E-09 1.08412E-08
 -1       806-1.56513E+05-4.77911E+04-1.42698E+04-7.97110E+04-1.99748E-09-9.44601E-09
 -1       807-1.56043E+05-4.48939E+04-6.78596E+03-8.47192E+04-1.34969E-09-1.79381E-09
 -1       808-1.56494E+05-4.06554E+04-2.85579E+03-8.27164E+04-1.19433E-08-4.33261E-10
 -1       809-1.54615E+05-4.24196E+04-1.38075E+03-8.52923E+04-2.01707E-08-7.81159E-09
 -1       810-1.56536E+05-4.01913E+04-6.23289E+02-8.29256E+04-2.78010E-09 1.08338E-08
 -1       811-1.54478E+05-4.22646E+04-3.07733E+02-8.53136E+04 1.09253E-10-4.27644E-09
 -1       812-1.56548E+05-4.01814E+04-1.51635E+02-8.29339E+04-5.72840E-10-5.05906E-10
 -1       813-1.54462E+05-4.22626E+04-9.40132E+01-8.53084E+04-1.14869E-09 3.63082E-09
 -1       814-1.56547E+05-4.01866E+04-8.52839E+01-8.29314E+04-1.05820E-09 2.16824E-09
 -1       815-1.54463E+05-4.22671E+04-1.31540E+02-8.53042E+04-1.09299E-09-1.69075E-09
 -1       816-1.56536E+05-4.01956E+04-2.45358E+02-8.29248E+04-1.94905E-09-4.93856E-10
 -1       817-1.54515E+05-4.23222E+04-5.33139E+02-8.52813E+04 3.17186E-10-2.92857E-09
 -1       818-1.56506E+05-4.03860E+04-1.09825E+03-8.28481E+04 6.49379E-10 1.66756E-09
 -1       819-1.55122E+05-4.32072E+04-2.60580E+03-8.49771E+04-1.40676E-09-1.97906E-09
 -1       820-1.56441E+05-4.31866E+04-5.47845E+03-8.17580E+04-2.53749E-10 3.53293E-09
 -1       821-2.15170E+05 7.39909E+03-2.71336E+04 9.68135E+02-2.21075E-09 1.06593E-09
 -1       822-2.25321E+05-9.42759E+03-1.77255E+04 6.02763E+03-1.31217E-09-5.47789E-09
 -1       823-2.19363E+05 8.26145E+02-7.04886E+03 9.24793E+02 1.76976E-09-2.52112E-09
 -1       824-2.20622E+05-1.02262E+03-4.01279E+03 6.09066E+03-1.71826E-09-2.78237E-09
 -1       825-2.19877E+05 9.46459E+01-1.80710E+03 9.04716E+02-6.38386E-09 2.01703E-09
 -1       826-2.20046E+05-1.02455E+02-9.99675E+02 6.12364E+03-9.78326E-09 4.61313E-10
 -1       827-2.19946E+05 1.37226E+01-5.45462E+02 8.91716E+02-6.33980E-09-1.14275E-09
 -1       828-2.19981E+05-1.07857E+01-4.36750E+02 6.14386E+03-2.15888E-09-1.00030E-09
 -1       829-2.19947E+05 1.32610E+01-5.09241E+02 8.84474E+02 1.94839E-09-3.17726E-10
 -1       830-2.20041E+05-8.85780E+01-9.04085E+02 6.15192E+03 4.71948E-09-3.14759E-09
 -1       831-2.19887E+05 8.62981E+01-1.61798E+03 8.83665E+02-3.44602E-09-2.64492E-09
 -1       832-2.20559E+05-9.08022E+02-3.58522E+03 6.14711E+03-1.44837E-09-1.69280E-09
 -1       833-2.19428E+05 7.40232E+02-6.29229E+03 8.89371E+02 1.01198E-09-5.01382E-09
 -1       834-2.24758E+05-8.40939E+03-1.58238E+04 6.12190E+03 7.96058E-09-2.46200E-09
 -1       835-2.15686E+05 6.60864E+03-2.42193E+04 9.09633E+02 3.63275E-09-3.28146E-09
 -1       836-2.41836E+03 3.42151E+05 2.73292E+04-1.95391E+04-3.22598E-09 3.46972E-09
 -1       837 6.41766E+03 3.50873E+05 2.10003E+04-4.23154E+04-2.60059E-09 1.87788E-09
 -1       838-5.91668E+02 3.45035E+05 1.78812E+04-1.94863E+04-3.74348E-09 3.52301E-10
 -1       839 1.07579E+04 3.53991E+05 3.07999E+04-4.23165E+04-2.91311E-09 1.19826E-10
 -1       840-4.36639E+03 3.39028E+05 4.70503E+04-1.95371E+04-3.24508E-09-2.27260E-09
 -1       841 6.12652E+04 8.89184E+03-7.21308E+02 2.28434E+04-2.48105E-05 9.31487E-06
 -1       842 6.07769E+04 8.35495E+03-4.95934E+02 2.31137E+04-4.95962E-05 1.86369E-05
 -1       843 6.10999E+04 8.65955E+03-1.66177E+02 2.29237E+04-3.82350E-05 1.43666E-05
 -1       844 6.09766E+04 8.61669E+03-9.83732E+01 2.30116E+04-2.68292E-05 1.00907E-05
 -1       845 6.10654E+04 8.63017E+03-2.61916E+01 2.29454E+04-1.85165E-05 6.96025E-06
 -1       846 6.10233E+04 8.65131E+03 7.28195E+00 2.29818E+04-1.02059E-05 3.83617E-06
 -1       847 6.10532E+04 8.62494E+03 4.77327E+01 2.29535E+04-6.19505E-06 2.32606E-06
 -1       848 6.10557E+04 8.68383E+03 1.31064E+02 2.29674E+04-2.18063E-06 8.20397E-07
 -1       849 6.10330E+04 8.59766E+03 2.45878E+02 2.29598E+04-5.64060E-07 2.11887E-07
 -1       850 6.11828E+04 8.89033E+03 6.23890E+02 2.29327E+04 1.05055E-06-3.97396E-07
 -1       851 6.09261E+04 8.41846E+03 1.07805E+03 2.29883E+04 1.06761E-06-4.02738E-07
 -1       852 6.19451E+04 1.02035E+04 2.91132E+03 2.27046E+04 1.08652E-06-4.09403E-07
 -1       853 6.02707E+04 7.28469E+03 4.65590E+03 2.31878E+04-5.70764E-07 2.21442E-07
 -1       854 6.66512E+04 1.85138E+04 1.38060E+04 2.11614E+04-2.23448E-06 8.39340E-07
 -1       855 5.62202E+04 1.09588E+02 1.98720E+04 2.45309E+04-1.11697E-06 4.15524E-07
 -1       856-1.71124E+05 2.58794E+03-2.06125E+04 6.16853E+03-4.28872E-09-1.48884E-09
 -1       857-1.77861E+05-4.97329E+03-1.25890E+04 1.48110E+04-3.80896E-09 2.73758E-10
 -1       858-1.74036E+05 2.40159E+02-5.29244E+03 6.10028E+03-4.35875E-09 8.66976E-10
 -1       859-1.74703E+05-3.43869E+02-2.84747E+03 1.48888E+04-9.81345E-10 2.66408E-09
 -1       860-1.74314E+05 3.96566E+01-1.33610E+03 6.08909E+03 2.02817E-10 6.09361E-10
 -1       861-1.74410E+05 1.08570E+01-7.02520E+02 1.49037E+04-6.33287E-09 9.79469E-10
 -1       862-1.74350E+05 2.06877E+01-3.66424E+02 6.08524E+03 1.35748E-09-5.43082E-10
 -1       863-1.74378E+05 3.77822E+01-2.41973E+02 1.49079E+04 8.48102E-09-3.72950E-09
 -1       864-1.74353E+05 1.90849E+01-2.27078E+02 6.08486E+03 3.26173E-09-1.16074E-09
 -1       865-1.74386E+05 2.68013E+01-3.41947E+02 1.49045E+04 5.96606E-09 1.01753E-09
 -1       866-1.74337E+05 2.57222E+01-6.03351E+02 6.08860E+03-1.13459E-09-3.42042E-09
 -1       867-1.74508E+05-1.31330E+02-1.25849E+03 1.48915E+04-3.55044E-10-1.36950E-09
 -1       868-1.74213E+05 1.10942E+02-2.32897E+03 6.09800E+03 5.14092E-10-7.70285E-10
 -1       869-1.75885E+05-2.16802E+03-5.52961E+03 1.48176E+04-3.33966E-09 7.88646E-10
 -1       870-1.72930E+05 1.13735E+03-9.05464E+03 6.16325E+03 3.12957E-09-1.05501E-10
 -1       871-3.10680E+03-2.73644E+04-7.02181E+03 9.40942E+04 1.30058E-09-4.57476E-10
 -1       872-1.09312E+03-2.87728E+04-2.32880E+03 1.14755E+05-2.54659E-09 1.18848E-09
 -1       873-2.53503E+01-2.82113E+04 1.51383E+03 9.39031E+04 1.66983E-09 5.35192E-09
 -1       874 1.75791E+03-2.67043E+04 6.46938E+03 1.14816E+05-2.23463E-09 8.74797E-09
 -1       875 5.40871E+03-2.95055E+04 1.39148E+04 9.40422E+04 6.41194E-10 5.31645E-09
 -1       876 2.68097E+05 3.85073E+04 2.37050E+04 1.06439E+05 8.29687E-10-9.02219E-10
 -1       877 2.72510E+05 5.16047E+04 1.40886E+04 1.10642E+05-4.35887E-09-2.02249E-09
 -1       878 2.71605E+05 4.14659E+04 5.54578E+03 1.06635E+05 2.02772E-09 2.18142E-09
 -1       879 2.68369E+05 4.62227E+04 2.89648E+03 1.11220E+05 8.95523E-09 4.32135E-09
 -1       880 2.71919E+05 4.17351E+04 1.28746E+03 1.06665E+05 6.47947E-09-4.19959E-10
 -1       881 2.67997E+05 4.57975E+04 6.73216E+02 1.11225E+05-7.25322E-11 1.84797E-09
 -1       882 2.71950E+05 4.17676E+04 3.76063E+02 1.06673E+05 3.15731E-09 1.31621E-09
 -1       883 2.67966E+05 4.57635E+04 3.30922E+02 1.11214E+05-9.14156E-09 9.07150E-11
 -1       884 2.71946E+05 4.17680E+04 4.53686E+02 1.06674E+05-3.71320E-09 1.49328E-10
 -1       885 2.68018E+05 4.58053E+04 8.81585E+02 1.11219E+05 6.58306E-09-5.14319E-10
 -1       886 2.71898E+05 4.17293E+04 1.72400E+03 1.06667E+05 2.06916E-09-8.87553E-10
 -1       887 2.68525E+05 4.63727E+04 3.89882E+03 1.11202E+05-4.15207E-09-2.24190E-10
 -1       888 2.71468E+05 4.13710E+04 7.47367E+03 1.06628E+05-7.41420E-09-2.10775E-09
 -1       889 2.74096E+05 5.36375E+04 1.89906E+04 1.10430E+05 1.02677E-08-3.39242E-09
 -1       890 2.66748E+05 3.73732E+04 3.19553E+04 1.06350E+05 2.29215E-09-3.23234E-09
 -1       891 4.07107E+02-1.27145E+05-5.10749E+03 2.86061E+04 3.17277E-09 6.63022E-10
 -1       892-1.25988E+03-1.28736E+05-3.82340E+03 6.22111E+04 6.52335E-10-3.43971E-09
 -1       893 7.28540E+01-1.27719E+05-3.11061E+03 2.85254E+04 3.42834E-09 9.53150E-10
 -1       894-1.87141E+03-1.29153E+05-5.18762E+03 6.21894E+04-8.13998E-10-2.60661E-09
 -1       895 6.65318E+02-1.26697E+05-7.85604E+03 2.86274E+04 4.88399E-09 2.07365E-10
 -1       926-4.32108E+02-8.04318E+02 1.84283E+03 2.66830E+01 6.44075E-10-8.33211E-10
 -1       927 4.91574E+02 9.31294E+02 1.34001E+03-1.05079E+02-2.31735E-09-1.12819E-09
 -1       928-1.07867E+02-1.27109E+02 5.08689E+02 2.59268E+01 7.33511E-11-5.35437E-10
 -1       929 1.08028E+02 1.52134E+02 3.87643E+02-1.04291E+02 1.40334E-09-6.01812E-10
 -1       930-4.87333E+01-2.51884E+01 2.68924E+02 2.58947E+01 5.15143E-14-2.73354E-10
 -1       931 5.26675E+01 6.49491E+01 3.97893E+02-1.04257E+02-2.53177E-10-1.87345E-10
 -1       932-5.26384E+01-3.98481E+01 6.32778E+02 2.58929E+01 9.69576E-11-7.48059E-11
 -1       933 1.67360E+02 2.80635E+02 1.34877E+03-1.04231E+02-1.11074E-09 8.56062E-11
 -1       934-1.63513E+02-2.40785E+02 2.41537E+03 2.58689E+01-1.32270E-06-9.41327E-11
 -1       935 9.53646E+02 1.78819E+03 5.55469E+03-1.04066E+02-2.64351E-06-2.36469E-10
 -1       936-8.38868E+02-1.54711E+03 9.55109E+03 2.57273E+01-1.20318E-06-6.63931E-11
 -1       937 5.64251E+03 1.14334E+04 2.35748E+04-1.03697E+02 2.41916E-07 4.10637E-10
 -1       938-4.85047E+03-9.88373E+03 3.75059E+04 2.55006E+01 2.86089E-07-4.18368E-11
 -1       939 3.39088E+04 7.27655E+04 1.02629E+05-1.10030E+02 3.19115E-07 8.73115E-11
 -1       940-2.90733E+04-6.28600E+04 1.45032E+05 3.20580E+01 1.55317E-07 7.27596E-10
 -1       956-2.42375E+05-4.46942E+03-1.04169E+04 2.96248E+04-3.10047E-09-1.86856E-09
 -1       957-2.44377E+05-1.45150E+03-5.30913E+03 3.51410E+04-6.29370E-10 1.91449E-10
 -1       958-2.43284E+05-1.29459E+02-2.39143E+03 2.94445E+04 3.20051E-09-1.05661E-09
 -1       959-2.43462E+05-5.31177E+00-1.21860E+03 3.53374E+04-1.47520E-09-2.40698E-09
 -1       960-2.43382E+05 5.27410E+01-5.92483E+02 2.94267E+04 1.71349E-09 1.72122E-10
 -1       961-2.43406E+05 6.04450E+01-3.11081E+02 3.53575E+04 8.22183E-10 2.80352E-09
 -1       962-2.43409E+05 5.55866E+01-1.72756E+02 2.94241E+04 1.96451E-10-1.48475E-10
 -1       963-2.43411E+05 6.62798E+01-1.28967E+02 3.53608E+04-4.82123E-09 2.29170E-09
 -1       964-2.43418E+05 5.96867E+01-1.44965E+02 2.94233E+04 2.67278E-10-3.23325E-10
 -1       965-2.43422E+05 7.00439E+01-2.40879E+02 3.53606E+04 5.17661E-09 5.80712E-10
 -1       966-2.43410E+05 6.49033E+01-4.47051E+02 2.94243E+04-3.10524E-09-2.51748E-09
 -1       967-2.43478E+05 2.79666E+01-9.15072E+02 3.53491E+04 1.13914E-10 1.47020E-09
 -1       968-2.43346E+05-6.54359E+01-1.79241E+03 2.94351E+04-4.05180E-10-1.29444E-09
 -1       969-2.44174E+05-1.05124E+03-3.98062E+03 3.52278E+04-8.06267E-10-4.81754E-09
 -1       970-2.42671E+05-3.31667E+03-7.80884E+03 2.95484E+04 8.80391E-10-4.32374E-09
 -1       971-3.09635E+05 8.77039E+02-1.36121E+04 8.06364E+03-3.78714E-09 1.69621E-09
 -1       972-3.13818E+05-2.82110E+03-8.10269E+03 1.63645E+04-4.53201E-09 1.83604E-09
 -1       973-3.11482E+05 9.60766E+01-3.47228E+03 7.96845E+03-6.30462E-09-1.38903E-09
 -1       974-3.11850E+05-1.49570E+02-1.84687E+03 1.64753E+04-4.67480E-09-3.01679E-09
 -1       975-3.11646E+05 2.89522E+01-8.91604E+02 7.95167E+03-4.23370E-09 2.44427E-11
 -1       976-3.11693E+05 2.94564E+01-4.93773E+02 1.64992E+04-5.11591E-09 3.03714E-09
 -1       977-3.11669E+05 2.39582E+01-3.14086E+02 7.94437E+03 3.16174E-09-2.29358E-09
 -1       978-3.11686E+05 4.28408E+01-3.10657E+02 1.65090E+04 1.59871E-08-8.60098E-10
 -1       979-3.11668E+05 2.73844E+01-4.49512E+02 7.94185E+03 6.95227E-09-3.58136E-09
 -1       980-3.11723E+05 2.44319E+01-8.43392E+02 1.65089E+04 5.82659E-09-1.33673E-09
 -1       981-3.11633E+05 4.50315E+01-1.60556E+03 7.94450E+03-1.98645E-09-1.31854E-09
 -1       982-3.12036E+05-2.94432E+02-3.37995E+03 1.64965E+04-2.02999E-09-6.55604E-09
 -1       983-3.11342E+05 1.78656E+02-6.37239E+03 7.95447E+03 7.02812E-10-4.12365E-09
 -1       984-3.15684E+05-5.19507E+03-1.48959E+04 1.64165E+04 1.40517E-09-3.50713E-09
 -1       985-3.07958E+05 1.62787E+03-2.50196E+04 8.02753E+03 3.74621E-09-2.78851E-09
 -3
    1PSTEP                        25          13           1          
  100CL  113 5.98877E-01         608                     0   13           1
 -4  DISP        4    1
 -5  D1          1    2    1    0
 -5  D2          1    2    2    0
 -5  D3          1    2    3    0
 -5  ALL         1    2    0    0    1ALL
 -1         1 9.95720E-05 0.00000E+00 0.00000E+00
 -1         2 8.02612E-05 0.00000E+00 0.00000E+00
 -1         3 5.70860E-05 0.00000E+00 0.00000E+00
 -1         4 5.10549E-05 0.00000E+00 0.00000E+00
 -1         5 4.72766E-05 0.00000E+00 0.00000E+00
 -1         8 7.95721E-05-9.45084E-07 0.00000E+00
 -1         9 5.35944E-05-4.88120E-07 0.00000E+00
 -1        10 5.77351E-05-1.75668E-06 0.00000E+00
 -1        11 5.19566E-05-3.37645E-07 0.00000E+00
 -1        12 4.62533E-05 7.41502E-07 0.00000E+00
 -1        15 5.78568E-05-1.01029E-06-4.13590E-25
 -1        16 4.72366E-05-5.77342E-07 0.00000E+00
 -1        17 4.16852E-05-3.65611E-06 0.00000E+00
 -1        18 4.20729E-05-6.39784E-07 0.00000E+00
 -1        19 4.34328E-05 1.47506E-06 0.00000E+00
 -1        20 4.38776E-05 1.76143E-05 0.00000E+00
 -1        21 4.37457E-05 3.85897E-05 0.00000E+00
 -1        23 1.64707E-05-5.73909E-05-4.03897E-28
 -1        24 1.63423E-05-4.40757E-06 0.00000E+00
 -1        25 3.91291E-05-4.21765E-07 0.00000E+00
 -1        26 4.02117E-05 1.98671E-06 0.00000E+00
 -1        27 3.88929E-05 1.68875E-05 0.00000E+00
 -1        28 3.78358E-05 3.79390E-05 0.00000E+00
 -1        31 4.87309E-08-4.47292E-06 0.00000E+00
 -1        32 0.00000E+00 0.00000E+00 0.00000E+00
 -1        33 3.65910E-05 2.74801E-06 0.00000E+00
 -1        34 3.51198E-05 1.68200E-05 0.00000E+00
 -1        35 3.32348E-05 3.76511E-05 0.00000E+00
 -1        36 9.84035E-05-1.65338E-19 2.64698E-23
 -1        37 9.71961E-05-1.95426E-19-1.32349E-23
 -1        38 9.59913E-05 1.94137E-20 0.00000E+00
 -1        39 9.47790E-05 3.36360E-19 0.00000E+00
 -1        40 9.35665E-05 7.32725E-20 0.00000E+00
 -1        41 9.23526E-05 5.95787E-20 0.00000E+00
 -1        42 9.11385E-05-9.32479E-20 0.00000E+00
 -1        43 8.99241E-05 2.57626E-19-1.32349E-23
 -1        44 8.87097E-05 4.96578E-19-2.64698E-23
 -1        45 8.74955E-05 7.37018E-21-1.32349E-23
 -1        46 8.62814E-05 2.26075E-19-2.64698E-23
 -1        47 8.50685E-05 6.38457E-19-1.32349E-23
 -1        48 8.38557E-05 4.98880E-19 0.00000E+00
 -1        49 8.26487E-05 5.40072E-19 0.00000E+00
 -1        50 8.14397E-05 5.71066E-19 0.00000E+00
 -1        51 9.80876E-05-1.56401E-07 0.00000E+00
 -1        52 9.55983E-05-3.09016E-07 0.00000E+00
 -1        53 9.22983E-05-4.61983E-07 0.00000E+00
 -1        54 8.83909E-05-6.17030E-07 0.00000E+00
 -1        55 8.40804E-05-7.75729E-07-5.79026E-24
 -1        56 1.01045E-04-9.85216E-06 0.00000E+00
 -1        57 1.08760E-04-3.74803E-05 0.00000E+00
 -1        58 1.20878E-04-7.80328E-05-5.29396E-23
 -1        59 1.35354E-04-1.25804E-04 0.00000E+00
 -1        60 1.49751E-04-1.73336E-04 5.29396E-23
 -1        61 1.61620E-04-2.13188E-04 0.00000E+00
 -1        62 1.68966E-04-2.39790E-04 5.29396E-23
 -1        63 1.69916E-04-2.48461E-04-2.64698E-23
 -1        64 1.63962E-04-2.38790E-04 0.00000E+00
 -1        65 1.51036E-04-2.11525E-04-2.64698E-23
 -1        66 1.32853E-04-1.71500E-04 0.00000E+00
 -1        67 1.11619E-04-1.24287E-04 0.00000E+00
 -1        68 9.03976E-05-7.71026E-05 0.00000E+00
 -1        69 7.22649E-05-3.71573E-05 2.64698E-23
 -1        70 5.94056E-05-1.00242E-05 2.64698E-23
 -1        86 7.86728E-05-8.36730E-08-6.61744E-24
 -1        87 7.40318E-05-1.60684E-07 3.30872E-24
 -1        88 6.77678E-05-2.46826E-07-3.30872E-24
 -1        89 6.13141E-05-3.32744E-07 0.00000E+00
 -1        90 5.61106E-05-4.11320E-07-6.61744E-24
 -1        91 7.89765E-05-3.43665E-07 0.00000E+00
 -1        92 7.75657E-05-4.52434E-07 0.00000E+00
 -1        93 7.61273E-05-4.80693E-07 0.00000E+00
 -1        94 7.47176E-05-6.04060E-07 0.00000E+00
 -1        95 7.33211E-05-7.62329E-07 0.00000E+00
 -1        96 7.19139E-05-8.95927E-07 0.00000E+00
 -1        97 7.05006E-05-1.01316E-06 0.00000E+00
 -1        98 6.90845E-05-1.12377E-06 0.00000E+00
 -1        99 6.76740E-05-1.24913E-06 0.00000E+00
 -1       100 6.62770E-05-1.40974E-06 0.00000E+00
 -1       101 6.48690E-05-1.54076E-06 0.00000E+00
 -1       102 6.34275E-05-1.57847E-06 1.32349E-23
 -1       103 6.20127E-05-1.68741E-06-2.64698E-23
 -1       104 6.06919E-05-2.02485E-06 0.00000E+00
 -1       105 5.93019E-05-2.18589E-06 2.64698E-23
 -1       106 5.67118E-05-2.64491E-19 0.00000E+00
 -1       107 5.63343E-05-1.00101E-18 6.61744E-24
 -1       108 5.59570E-05-1.39563E-18 0.00000E+00
 -1       109 5.55790E-05-6.16926E-19 0.00000E+00
 -1       110 5.52011E-05 1.79146E-19 1.32349E-23
 -1       111 5.48230E-05 2.17323E-19 0.00000E+00
 -1       112 5.44449E-05-1.61829E-20-1.32349E-23
 -1       113 5.40668E-05-4.02473E-19 6.61744E-24
 -1       114 5.36887E-05-5.63948E-19 0.00000E+00
 -1       115 5.33107E-05-1.57980E-20 0.00000E+00
 -1       116 5.29326E-05 4.63572E-19-1.32349E-23
 -1       117 5.25549E-05 7.11626E-19 0.00000E+00
 -1       118 5.21772E-05 1.02923E-18 1.32349E-23
 -1       119 5.18010E-05 7.83135E-19 0.00000E+00
 -1       120 5.14242E-05 1.83402E-19-6.61744E-24
 -1       121 5.73127E-05-2.92653E-07-6.61744E-24
 -1       122 5.77897E-05-5.85218E-07 0.00000E+00
 -1       123 5.82938E-05-8.77817E-07 0.00000E+00
 -1       124 5.86012E-05-1.17044E-06 0.00000E+00
 -1       125 5.84887E-05-1.46304E-06 0.00000E+00
 -1       141 5.08191E-05 4.97722E-19 0.00000E+00
 -1       142 5.05815E-05 1.89328E-18-3.30872E-24
 -1       143 5.03440E-05 2.91024E-18 6.61744E-24
 -1       144 5.01061E-05 2.25645E-18 3.30872E-24
 -1       145 4.98683E-05 5.41635E-19-6.61744E-24
 -1       146 4.96303E-05-8.33084E-19 3.30872E-24
 -1       147 4.93924E-05-1.00420E-18 0.00000E+00
 -1       148 4.91545E-05 1.56411E-19 0.00000E+00
 -1       149 4.89166E-05 1.19868E-18-6.61744E-24
 -1       150 4.86788E-05 1.05766E-18 0.00000E+00
 -1       151 4.84411E-05 1.43840E-19 6.61744E-24
 -1       152 4.82040E-05-1.14619E-18 0.00000E+00
 -1       153 4.79669E-05-1.71130E-18 6.61744E-24
 -1       154 4.77326E-05-9.40807E-19 1.65436E-24
 -1       155 4.74973E-05-1.50294E-19 1.65436E-24
 -1       156 5.34733E-05-3.16243E-08 0.00000E+00
 -1       157 6.07021E-05-7.84674E-08 8.27181E-25
 -1       158 6.82940E-05-1.28261E-07 1.65436E-24
 -1       159 7.18021E-05-1.55485E-07 0.00000E+00
 -1       160 6.75719E-05-1.89978E-07-3.30872E-24
 -1       161 5.31889E-05-6.23149E-06 6.61744E-24
 -1       162 5.97873E-05-2.48004E-05 3.30872E-24
 -1       163 6.63707E-05-4.33290E-05 0.00000E+00
 -1       164 6.84630E-05-4.94384E-05 1.65436E-24
 -1       165 6.59015E-05-4.31438E-05-3.30872E-24
 -1       166 5.85580E-05-2.45492E-05 1.65436E-24
 -1       167 5.12078E-05-5.93758E-06-3.30872E-24
 -1       168 4.86270E-05 4.08202E-07 1.65436E-24
 -1       169 5.07006E-05-5.65030E-06 3.30872E-24
 -1       170 5.72787E-05-2.41627E-05 0.00000E+00
 -1       171 6.38804E-05-4.27397E-05-3.30872E-24
 -1       172 6.60258E-05-4.89915E-05 0.00000E+00
 -1       173 6.35201E-05-4.28412E-05-3.30872E-24
 -1       174 5.62012E-05-2.43019E-05 0.00000E+00
 -1       175 4.88477E-05-5.67562E-06 0.00000E+00
 -1       191 4.72427E-05 1.23525E-07 0.00000E+00
 -1       192 4.71530E-05 2.47152E-07 3.30872E-24
 -1       193 4.70080E-05 3.70800E-07-6.61744E-24
 -1       194 4.68088E-05 4.94437E-07 3.30872E-24
 -1       195 4.65567E-05 6.18034E-07 0.00000E+00
 -1       266 7.59529E-05-9.69669E-07 0.00000E+00
 -1       267 7.23337E-05-9.78857E-07 1.65436E-24
 -1       268 6.87145E-05-9.89044E-07-1.65436E-24
 -1       269 6.50953E-05-9.96319E-07-4.13590E-25
 -1       270 6.14761E-05-1.00354E-06-4.13590E-25
 -1       271 7.66267E-05 1.70633E-06-2.64698E-23
 -1       272 7.38576E-05 3.71363E-06 0.00000E+00
 -1       273 7.13134E-05 5.13029E-06-5.29396E-23
 -1       274 6.89674E-05 5.99477E-06-2.64698E-23
 -1       275 6.68073E-05 6.36258E-06 0.00000E+00
 -1       276 6.48089E-05 6.29563E-06-2.64698E-23
 -1       277 6.29469E-05 5.86459E-06 0.00000E+00
 -1       278 6.11921E-05 5.14675E-06 2.64698E-23
 -1       279 5.95139E-05 4.22482E-06 5.29396E-23
 -1       280 5.78799E-05 3.18547E-06 0.00000E+00
 -1       281 5.62569E-05 2.11742E-06 5.29396E-23
 -1       282 5.46125E-05 1.11021E-06-2.64698E-23
 -1       283 5.29131E-05 2.51866E-07-5.29396E-23
 -1       284 5.11334E-05-3.69914E-07 0.00000E+00
 -1       285 4.92340E-05-6.77386E-07 0.00000E+00
 -1       286 5.38318E-05 2.88916E-07 2.06795E-25
 -1       287 5.40916E-05 4.05488E-07 0.00000E+00
 -1       288 5.43499E-05 1.79646E-07 0.00000E+00
 -1       289 5.46124E-05-7.49088E-08 0.00000E+00
 -1       290 5.48751E-05-3.44329E-07-6.61744E-24
 -1       291 5.51385E-05-6.14944E-07 0.00000E+00
 -1       292 5.54021E-05-8.86174E-07 6.61744E-24
 -1       293 5.56658E-05-1.15745E-06-3.30872E-24
 -1       294 5.59295E-05-1.42873E-06 0.00000E+00
 -1       295 5.61930E-05-1.69996E-06 0.00000E+00
 -1       296 5.64565E-05-1.97054E-06 6.61744E-24
 -1       297 5.67191E-05-2.23987E-06 0.00000E+00
 -1       298 5.69815E-05-2.49360E-06-6.61744E-24
 -1       299 5.72396E-05-2.71720E-06 0.00000E+00
 -1       300 5.74991E-05-2.58248E-06 8.27181E-25
 -1       301 5.24832E-05-5.06530E-07 6.61744E-24
 -1       302 5.13879E-05-5.13275E-07 1.65436E-24
 -1       303 5.03120E-05-5.18909E-07 0.00000E+00
 -1       304 4.92592E-05-5.26254E-07 0.00000E+00
 -1       305 4.82329E-05-5.38014E-07 0.00000E+00
 -1       306 5.25936E-05 5.15230E-08-1.32349E-23
 -1       307 5.17752E-05 4.90230E-08 0.00000E+00
 -1       308 5.11251E-05-4.00530E-07 2.64698E-23
 -1       309 5.06054E-05-1.20648E-06-1.32349E-23
 -1       310 5.01830E-05-2.27342E-06-2.64698E-23
 -1       311 4.98216E-05-3.50481E-06 0.00000E+00
 -1       312 4.94850E-05-4.80266E-06 2.64698E-23
 -1       313 4.91363E-05-6.06861E-06-1.32349E-23
 -1       314 4.87390E-05-7.20446E-06 2.64698E-23
 -1       315 4.82568E-05-8.11306E-06 0.00000E+00
 -1       316 4.76539E-05-8.69907E-06 2.64698E-23
 -1       317 4.68958E-05-8.86953E-06 0.00000E+00
 -1       318 4.59486E-05-8.53488E-06 0.00000E+00
 -1       319 4.47828E-05-7.60833E-06 6.61744E-24
 -1       320 4.33633E-05-6.01022E-06 1.32349E-23
 -1       321 5.74490E-05 5.07539E-06 0.00000E+00
 -1       322 5.70332E-05 2.31336E-05 3.30872E-24
 -1       323 5.66757E-05 3.63505E-05 0.00000E+00
 -1       324 5.63744E-05 2.87204E-05-3.30872E-24
 -1       325 5.59544E-05 1.01363E-05 6.61744E-24
 -1       326 5.55177E-05-9.37643E-06 0.00000E+00
 -1       327 5.52024E-05-1.86233E-05 0.00000E+00
 -1       328 5.48584E-05-6.53332E-06-3.30872E-24
 -1       329 5.44453E-05 1.14630E-05 6.61744E-24
 -1       330 5.41532E-05 1.98627E-05-3.30872E-24
 -1       331 5.38767E-05 1.52051E-05 0.00000E+00
 -1       332 5.33995E-05-5.81340E-06 3.30872E-24
 -1       333 5.29354E-05-2.60567E-05 0.00000E+00
 -1       334 5.26654E-05-2.83975E-05 0.00000E+00
 -1       335 5.23588E-05-1.80390E-05 0.00000E+00
 -1       336 5.61405E-05-2.07252E-06-6.61744E-24
 -1       337 5.38686E-05-2.38956E-06 0.00000E+00
 -1       338 5.11020E-05-2.70762E-06 0.00000E+00
 -1       339 4.80253E-05-3.02557E-06 0.00000E+00
 -1       340 4.48244E-05-3.34404E-06 0.00000E+00
 -1       356 5.15567E-05 1.72206E-05-6.61744E-24
 -1       357 5.12542E-05 2.71516E-05-3.30872E-24
 -1       358 5.09841E-05 2.44621E-05-6.61744E-24
 -1       359 5.05225E-05 4.31090E-06 0.00000E+00
 -1       360 5.00525E-05-1.63436E-05 0.00000E+00
 -1       361 4.97780E-05-2.05376E-05-3.30872E-24
 -1       362 4.94843E-05-1.18781E-05-6.61744E-24
 -1       363 4.90759E-05 5.87341E-06 3.30872E-24
 -1       364 4.87371E-05 1.75388E-05-6.61744E-24
 -1       365 4.84200E-05 8.01444E-06 0.00000E+00
 -1       366 4.79842E-05-1.14676E-05 0.00000E+00
 -1       367 4.75739E-05-2.95553E-05-3.30872E-24
 -1       368 4.72782E-05-3.66446E-05 6.61744E-24
 -1       369 4.69238E-05-2.32645E-05 0.00000E+00
 -1       370 4.65151E-05-5.44238E-06-1.65436E-24
 -1       371 3.56985E-05-4.93846E-07 0.00000E+00
 -1       372 2.95435E-05-5.36315E-07 0.00000E+00
 -1       373 3.04522E-05-5.57520E-07 0.00000E+00
 -1       374 3.53783E-05-5.88955E-07 0.00000E+00
 -1       375 4.05194E-05-6.21255E-07 0.00000E+00
 -1       406 4.58909E-05 8.64442E-07-6.61744E-24
 -1       407 4.54817E-05 9.87406E-07-3.30872E-24
 -1       408 4.50281E-05 1.11029E-06 0.00000E+00
 -1       409 4.45333E-05 1.23289E-06-3.30872E-24
 -1       410 4.40004E-05 1.35494E-06-3.30872E-24
 -1       501 4.70891E-05 7.48411E-06 0.00000E+00
 -1       502 4.67601E-05 2.96722E-05 0.00000E+00
 -1       503 4.63496E-05 5.55940E-05 3.30872E-24
 -1       504 4.60888E-05 7.48491E-05 0.00000E+00
 -1       505 4.59724E-05 8.11403E-05 0.00000E+00
 -1       506 4.57960E-05 6.82227E-05 1.65436E-24
 -1       507 4.53279E-05 3.99889E-05 0.00000E+00
 -1       508 4.44891E-05 3.93031E-07 0.00000E+00
 -1       509 4.36308E-05-3.97385E-05 0.00000E+00
 -1       510 4.31191E-05-6.95773E-05 0.00000E+00
 -1       511 4.29148E-05-8.45832E-05 0.00000E+00
 -1       512 4.28095E-05-8.02745E-05-1.65436E-24
 -1       513 4.25725E-05-6.23320E-05 0.00000E+00
 -1       514 4.21680E-05-3.64914E-05 0.00000E+00
 -1       515 4.18235E-05-1.33899E-05 0.00000E+00
 -1       521 4.52419E-05-5.03147E-07 0.00000E+00
 -1       522 4.33626E-05-8.83609E-07 0.00000E+00
 -1       523 4.16201E-05-1.62452E-06 5.29396E-23
 -1       524 3.99746E-05-2.64626E-06 2.64698E-23
 -1       525 3.83996E-05-3.85847E-06 0.00000E+00
 -1       526 3.68602E-05-5.16966E-06 0.00000E+00
 -1       527 3.53225E-05-6.48592E-06-5.29396E-23
 -1       528 3.37514E-05-7.71368E-06 0.00000E+00
 -1       529 3.21126E-05-8.76089E-06 0.00000E+00
 -1       530 3.03733E-05-9.53901E-06 2.64698E-23
 -1       531 2.85020E-05-9.96464E-06 0.00000E+00
 -1       532 2.64709E-05-9.96082E-06 0.00000E+00
 -1       533 2.42535E-05-9.45918E-06 0.00000E+00
 -1       534 2.18339E-05-8.39835E-06 0.00000E+00
 -1       535 1.91846E-05-6.73300E-06 0.00000E+00
 -1       536 4.16977E-05-9.85998E-07 0.00000E+00
 -1       537 4.17197E-05 1.03710E-06 0.00000E+00
 -1       538 4.17424E-05 2.48104E-06 0.00000E+00
 -1       539 4.17670E-05 3.41392E-06 1.55096E-25
 -1       540 4.17921E-05 3.90358E-06 8.27181E-25
 -1       541 4.18176E-05 4.01776E-06-2.06795E-25
 -1       542 4.18431E-05 3.82411E-06-8.27181E-25
 -1       543 4.18685E-05 3.39017E-06-4.13590E-25
 -1       544 4.18940E-05 2.78342E-06 0.00000E+00
 -1       545 4.19193E-05 2.07130E-06 0.00000E+00
 -1       546 4.19447E-05 1.32120E-06 0.00000E+00
 -1       547 4.19701E-05 6.00516E-07 4.13590E-25
 -1       548 4.19955E-05-2.33645E-08 0.00000E+00
 -1       549 4.20211E-05-4.83022E-07 0.00000E+00
 -1       550 4.20468E-05-7.10951E-07 8.27181E-25
 -1       551 3.79204E-05-3.77516E-06 8.27181E-25
 -1       552 3.37014E-05-3.89369E-06-8.27181E-25
 -1       553 2.92294E-05-4.01352E-06-3.30872E-24
 -1       554 2.47095E-05-4.13573E-06 3.30872E-24
 -1       555 2.03464E-05-4.26118E-06 0.00000E+00
 -1       556 4.06322E-05-1.09756E-06 0.00000E+00
 -1       557 3.98093E-05 8.64447E-07 0.00000E+00
 -1       558 3.91909E-05 2.28614E-06 0.00000E+00
 -1       559 3.87533E-05 3.22870E-06 6.61744E-24
 -1       560 3.84731E-05 3.75326E-06 0.00000E+00
 -1       561 3.83268E-05 3.92141E-06 0.00000E+00
 -1       562 3.82912E-05 3.79478E-06 0.00000E+00
 -1       563 3.83430E-05 3.43508E-06 0.00000E+00
 -1       564 3.84590E-05 2.90406E-06 0.00000E+00
 -1       565 3.86160E-05 2.26349E-06 0.00000E+00
 -1       566 3.87909E-05 1.57516E-06 0.00000E+00
 -1       567 3.89607E-05 9.00893E-07 4.13590E-25
 -1       568 3.91021E-05 3.02465E-07 1.44757E-24
 -1       569 3.91922E-05-1.58398E-07 8.27181E-25
 -1       570 3.92081E-05-4.20006E-07 0.00000E+00
 -1       571 4.21550E-05-4.70611E-07 1.65436E-24
 -1       572 4.22393E-05-3.55522E-07 0.00000E+00
 -1       573 4.23242E-05-2.84455E-07 1.65436E-24
 -1       574 4.24094E-05-2.46848E-07-8.27181E-25
 -1       575 4.24947E-05-2.32093E-07-1.65436E-24
 -1       576 4.25800E-05-2.29513E-07 0.00000E+00
 -1       577 4.26654E-05-2.28430E-07-3.30872E-24
 -1       578 4.27508E-05-2.18154E-07-1.65436E-24
 -1       579 4.28362E-05-1.87995E-07-3.30872E-24
 -1       580 4.29216E-05-1.27263E-07 0.00000E+00
 -1       581 4.30069E-05-2.52694E-08 6.61744E-24
 -1       582 4.30923E-05 1.28666E-07-6.61744E-24
 -1       583 4.31776E-05 3.45212E-07 0.00000E+00
 -1       584 4.32629E-05 6.34929E-07 0.00000E+00
 -1       585 4.33480E-05 1.00832E-06 0.00000E+00
 -1       586 4.16486E-05-6.02583E-07 0.00000E+00
 -1       587 4.11581E-05-5.65382E-07 1.65436E-24
 -1       588 4.06310E-05-5.28284E-07 0.00000E+00
 -1       589 4.00971E-05-4.91512E-07 3.10193E-25
 -1       590 3.95867E-05-4.55404E-07 0.00000E+00
 -1       591 4.19473E-05-4.38453E-07-8.27181E-25
 -1       592 4.18316E-05-2.75165E-07 0.00000E+00
 -1       593 4.17267E-05-1.42092E-07 0.00000E+00
 -1       594 4.16300E-05-3.22997E-08 0.00000E+00
 -1       595 4.15394E-05 6.11792E-08-1.65436E-24
 -1       596 4.14522E-05 1.45253E-07-8.27181E-25
 -1       597 4.13659E-05 2.26822E-07 0.00000E+00
 -1       598 4.12779E-05 3.12780E-07 0.00000E+00
 -1       599 4.11857E-05 4.10021E-07-8.27181E-25
 -1       600 4.10868E-05 5.25434E-07-8.27181E-25
 -1       601 4.09784E-05 6.65909E-07 0.00000E+00
 -1       602 4.08581E-05 8.38347E-07 8.27181E-25
 -1       603 4.07233E-05 1.04964E-06-8.27181E-25
 -1       604 4.05718E-05 1.30674E-06 2.06795E-25
 -1       605 4.04011E-05 1.61656E-06 0.00000E+00
 -1       606 4.34639E-05 2.10367E-06-3.30872E-24
 -1       607 4.34927E-05 2.80596E-06 1.65436E-24
 -1       608 4.35210E-05 3.57754E-06 0.00000E+00
 -1       609 4.35488E-05 4.41344E-06-1.65436E-24
 -1       610 4.35766E-05 5.30867E-06 0.00000E+00
 -1       611 4.36042E-05 6.25812E-06-3.30872E-24
 -1       612 4.36318E-05 7.25671E-06 0.00000E+00
 -1       613 4.36593E-05 8.29935E-06 0.00000E+00
 -1       614 4.36868E-05 9.38093E-06 0.00000E+00
 -1       615 4.37142E-05 1.04964E-05-8.27181E-25
 -1       616 4.37416E-05 1.16405E-05 0.00000E+00
 -1       617 4.37690E-05 1.28084E-05 0.00000E+00
 -1       618 4.37963E-05 1.39947E-05 0.00000E+00
 -1       619 4.38236E-05 1.51946E-05-4.13590E-25
 -1       620 4.38507E-05 1.64028E-05-8.27181E-25
 -1       621 4.28506E-05 1.56077E-06 1.65436E-24
 -1       622 4.22771E-05 1.64678E-06-8.27181E-25
 -1       623 4.17193E-05 1.73276E-06-1.65436E-24
 -1       624 4.11844E-05 1.81851E-06 0.00000E+00
 -1       625 4.06796E-05 1.90384E-06 1.65436E-24
 -1       626 4.32611E-05 2.14296E-06 0.00000E+00
 -1       627 4.30599E-05 2.88787E-06 3.30872E-24
 -1       628 4.28325E-05 3.70244E-06 0.00000E+00
 -1       629 4.25818E-05 4.57851E-06 0.00000E+00
 -1       630 4.23111E-05 5.50793E-06 0.00000E+00
 -1       631 4.20234E-05 6.48244E-06 0.00000E+00
 -1       632 4.17219E-05 7.49376E-06 0.00000E+00
 -1       633 4.14097E-05 8.53365E-06 0.00000E+00
 -1       634 4.10898E-05 9.59381E-06 0.00000E+00
 -1       635 4.07653E-05 1.06660E-05 0.00000E+00
 -1       636 4.04395E-05 1.17419E-05 0.00000E+00
 -1       637 4.01153E-05 1.28133E-05 0.00000E+00
 -1       638 3.97958E-05 1.38718E-05 8.27181E-25
 -1       639 3.94840E-05 1.49093E-05 0.00000E+00
 -1       640 3.91826E-05 1.59173E-05 1.24077E-24
 -1       641 4.38711E-05 1.88344E-05 0.00000E+00
 -1       642 4.38634E-05 2.01157E-05 6.46235E-27
 -1       643 4.38557E-05 2.14496E-05-1.03398E-25
 -1       644 4.38478E-05 2.28276E-05 0.00000E+00
 -1       645 4.38398E-05 2.42382E-05-2.06795E-25
 -1       646 4.38317E-05 2.56702E-05 0.00000E+00
 -1       647 4.38236E-05 2.71109E-05 2.06795E-25
 -1       648 4.38155E-05 2.85477E-05 0.00000E+00
 -1       649 4.38074E-05 2.99680E-05 0.00000E+00
 -1       650 4.37993E-05 3.13596E-05 0.00000E+00
 -1       651 4.37913E-05 3.27118E-05 0.00000E+00
 -1       652 4.37832E-05 3.40140E-05-2.06795E-25
 -1       653 4.37751E-05 3.52587E-05 0.00000E+00
 -1       654 4.37663E-05 3.64385E-05-4.13590E-25
 -1       655 4.37579E-05 3.75499E-05-1.65436E-24
 -1       656 4.28125E-05 1.74968E-05 1.65436E-24
 -1       657 4.19293E-05 1.73736E-05-3.30872E-24
 -1       658 4.11619E-05 1.72508E-05 3.30872E-24
 -1       659 4.04442E-05 1.71280E-05-1.65436E-24
 -1       660 3.97099E-05 1.70049E-05 1.65436E-24
 -1       661 4.35060E-05 1.88606E-05 0.00000E+00
 -1       662 4.31224E-05 2.01477E-05 0.00000E+00
 -1       663 4.27268E-05 2.14665E-05 0.00000E+00
 -1       664 4.23226E-05 2.28095E-05 0.00000E+00
 -1       665 4.19124E-05 2.41687E-05 0.00000E+00
 -1       666 4.14992E-05 2.55361E-05-1.65436E-24
 -1       667 4.10858E-05 2.69040E-05 0.00000E+00
 -1       668 4.06751E-05 2.82646E-05 0.00000E+00
 -1       669 4.02702E-05 2.96100E-05 0.00000E+00
 -1       670 3.98739E-05 3.09323E-05 1.65436E-24
 -1       671 3.94892E-05 3.22238E-05 3.30872E-24
 -1       672 3.91190E-05 3.34765E-05 0.00000E+00
 -1       673 3.87662E-05 3.46825E-05-1.65436E-24
 -1       674 3.84333E-05 3.58337E-05 8.27181E-25
 -1       675 3.81239E-05 3.69225E-05 8.27181E-25
 -1       676 4.27416E-05 3.84805E-05 0.00000E+00
 -1       677 4.17409E-05 3.83712E-05 1.65436E-24
 -1       678 4.07466E-05 3.82619E-05 3.30872E-24
 -1       679 3.97622E-05 3.81532E-05-1.65436E-24
 -1       680 3.87909E-05 3.80444E-05 1.65436E-24
 -1       716 1.64654E-05-5.40795E-05-8.07794E-28
 -1       717 1.64602E-05-5.07680E-05 4.03897E-28
 -1       718 1.64549E-05-4.74565E-05 0.00000E+00
 -1       719 1.64496E-05-4.41451E-05 1.61559E-27
 -1       720 1.64444E-05-4.08336E-05 0.00000E+00
 -1       721 1.64391E-05-3.75221E-05 0.00000E+00
 -1       722 1.64338E-05-3.42107E-05 0.00000E+00
 -1       723 1.64285E-05-3.08992E-05 0.00000E+00
 -1       724 1.64231E-05-2.75877E-05 1.03398E-25
 -1       725 1.64175E-05-2.42763E-05 1.03398E-25
 -1       726 1.64118E-05-2.09648E-05 0.00000E+00
 -1       727 1.64052E-05-1.76533E-05 0.00000E+00
 -1       728 1.63984E-05-1.43419E-05 0.00000E+00
 -1       729 1.63869E-05-1.10304E-05-1.65436E-24
 -1       730 1.63770E-05-7.71892E-06 0.00000E+00
 -1       766 1.31045E-05-4.44197E-06 6.61744E-24
 -1       767 1.00139E-05-4.45121E-06 0.00000E+00
 -1       768 7.11686E-06-4.46147E-06 1.65436E-24
 -1       769 4.45979E-06-4.46638E-06 0.00000E+00
 -1       770 2.08850E-06-4.47042E-06-4.13590E-25
 -1       771 1.44397E-05-1.76541E-06-2.64698E-23
 -1       772 1.27300E-05 3.40489E-07-3.97047E-23
 -1       773 1.12041E-05 1.95557E-06 0.00000E+00
 -1       774 9.84468E-06 3.12654E-06 1.32349E-23
 -1       775 8.63444E-06 3.90042E-06 0.00000E+00
 -1       776 7.55549E-06 4.32482E-06 0.00000E+00
 -1       777 6.58981E-06 4.44762E-06 0.00000E+00
 -1       778 5.71925E-06 4.31703E-06 0.00000E+00
 -1       779 4.92559E-06 3.98150E-06-2.64698E-23
 -1       780 4.19055E-06 3.48971E-06 0.00000E+00
 -1       781 3.49585E-06 2.89048E-06-2.64698E-23
 -1       782 2.82323E-06 2.23279E-06 0.00000E+00
 -1       783 2.15445E-06 1.56566E-06 0.00000E+00
 -1       784 1.47176E-06 9.38216E-07 0.00000E+00
 -1       785 7.57226E-07 3.99528E-07-2.64698E-23
 -1       786 3.91929E-05-1.65065E-07 8.27181E-25
 -1       787 3.92604E-05 3.16272E-08 0.00000E+00
 -1       788 3.93278E-05 1.78180E-07 1.65436E-24
 -1       789 3.93959E-05 2.84455E-07-8.27181E-25
 -1       790 3.94639E-05 3.60277E-07-1.65436E-24
 -1       791 3.95321E-05 4.15452E-07 8.27181E-25
 -1       792 3.96004E-05 4.59766E-07 0.00000E+00
 -1       793 3.96686E-05 5.03000E-07-8.27181E-25
 -1       794 3.97369E-05 5.54932E-07 0.00000E+00
 -1       795 3.98051E-05 6.25348E-07-8.27181E-25
 -1       796 3.98733E-05 7.24047E-07 1.65436E-24
 -1       797 3.99415E-05 8.60852E-07 8.27181E-25
 -1       798 4.00097E-05 1.04561E-06 0.00000E+00
 -1       799 4.00775E-05 1.28821E-06 0.00000E+00
 -1       800 4.01454E-05 1.59860E-06 0.00000E+00
 -1       801 3.59001E-05-3.31248E-07 0.00000E+00
 -1       802 2.86481E-05-2.54637E-07 0.00000E+00
 -1       803 1.94025E-05-1.92683E-07 0.00000E+00
 -1       804 1.01928E-05-1.34429E-07-1.65436E-24
 -1       805 3.04878E-06-6.10830E-08 0.00000E+00
 -1       806 3.89638E-05-1.96952E-07 3.30872E-24
 -1       807 3.88075E-05-3.24707E-09 0.00000E+00
 -1       808 3.86599E-05 1.65502E-07-3.30872E-24
 -1       809 3.85192E-05 3.15176E-07 0.00000E+00
 -1       810 3.83832E-05 4.51637E-07 0.00000E+00
 -1       811 3.82500E-05 5.80727E-07 8.27181E-25
 -1       812 3.81174E-05 7.08278E-07 1.65436E-24
 -1       813 3.79831E-05 8.40121E-07 0.00000E+00
 -1       814 3.78450E-05 9.82087E-07 1.65436E-24
 -1       815 3.77010E-05 1.14000E-06 0.00000E+00
 -1       816 3.75488E-05 1.31970E-06-8.27181E-25
 -1       817 3.73862E-05 1.52699E-06 0.00000E+00
 -1       818 3.72112E-05 1.76771E-06-8.27181E-25
 -1       819 3.70215E-05 2.04763E-06 4.13590E-25
 -1       820 3.68152E-05 2.37256E-06-1.65436E-24
 -1       821 4.01342E-05 2.48174E-06 0.00000E+00
 -1       822 4.00520E-05 3.09296E-06 0.00000E+00
 -1       823 3.99698E-05 3.80821E-06-1.65436E-24
 -1       824 3.98869E-05 4.61515E-06-8.27181E-25
 -1       825 3.98037E-05 5.50141E-06 0.00000E+00
 -1       826 3.97204E-05 6.45450E-06 0.00000E+00
 -1       827 3.96370E-05 7.46188E-06 3.30872E-24
 -1       828 3.95535E-05 8.51098E-06 0.00000E+00
 -1       829 3.94700E-05 9.58917E-06-3.30872E-24
 -1       830 3.93865E-05 1.06838E-05 0.00000E+00
 -1       831 3.93030E-05 1.17821E-05-3.30872E-24
 -1       832 3.92196E-05 1.28716E-05-8.27181E-25
 -1       833 3.91364E-05 1.39395E-05 0.00000E+00
 -1       834 3.90539E-05 1.49732E-05 0.00000E+00
 -1       835 3.89712E-05 1.59600E-05 8.27181E-25
 -1       836 3.96942E-05 2.11186E-06 3.30872E-24
 -1       837 3.90806E-05 2.24108E-06 0.00000E+00
 -1       838 3.84171E-05 2.37013E-06 0.00000E+00
 -1       839 3.77501E-05 2.49869E-06 0.00000E+00
 -1       840 3.71260E-05 2.62723E-06-8.27181E-25
 -1       841 4.00442E-05 2.51421E-06-8.27181E-25
 -1       842 3.98121E-05 3.21335E-06 0.00000E+00
 -1       843 3.95328E-05 4.03815E-06 0.00000E+00
 -1       844 3.92234E-05 4.94274E-06 4.13590E-25
 -1       845 3.88923E-05 5.90525E-06 8.27181E-25
 -1       846 3.85476E-05 6.90385E-06-4.13590E-25
 -1       847 3.81935E-05 7.92747E-06-8.27181E-25
 -1       848 3.78341E-05 8.96512E-06 0.00000E+00
 -1       849 3.74720E-05 1.00098E-05 0.00000E+00
 -1       850 3.71099E-05 1.10546E-05 0.00000E+00
 -1       851 3.67503E-05 1.20927E-05 0.00000E+00
 -1       852 3.63956E-05 1.31173E-05 4.13590E-25
 -1       853 3.60501E-05 1.41176E-05-4.13590E-25
 -1       854 3.57171E-05 1.50825E-05 1.03398E-25
 -1       855 3.54056E-05 1.59910E-05 4.13590E-25
 -1       856 3.88310E-05 1.78586E-05 8.27181E-25
 -1       857 3.87654E-05 1.89607E-05 8.27181E-25
 -1       858 3.86996E-05 2.01757E-05 0.00000E+00
 -1       859 3.86333E-05 2.14855E-05-8.27181E-25
 -1       860 3.85667E-05 2.28719E-05 1.65436E-24
 -1       861 3.85000E-05 2.43164E-05-8.27181E-25
 -1       862 3.84332E-05 2.58009E-05 1.65436E-24
 -1       863 3.83663E-05 2.73071E-05 0.00000E+00
 -1       864 3.82994E-05 2.88165E-05 0.00000E+00
 -1       865 3.82326E-05 3.03110E-05 0.00000E+00
 -1       866 3.81658E-05 3.17722E-05 0.00000E+00
 -1       867 3.80991E-05 3.31817E-05 0.00000E+00
 -1       868 3.80325E-05 3.45214E-05 0.00000E+00
 -1       869 3.79663E-05 3.57730E-05 8.27181E-25
 -1       870 3.79002E-05 3.69182E-05 0.00000E+00
 -1       871 3.81528E-05 1.68782E-05 0.00000E+00
 -1       872 3.75091E-05 1.68677E-05 0.00000E+00
 -1       873 3.69232E-05 1.68569E-05 0.00000E+00
 -1       874 3.63559E-05 1.68457E-05 2.06795E-25
 -1       875 3.57676E-05 1.68341E-05 8.27181E-25
 -1       876 3.86489E-05 1.78811E-05-3.30872E-24
 -1       877 3.83721E-05 1.89755E-05-1.65436E-24
 -1       878 3.80627E-05 2.01565E-05 0.00000E+00
 -1       879 3.77261E-05 2.14115E-05-1.65436E-24
 -1       880 3.73666E-05 2.27277E-05 0.00000E+00
 -1       881 3.69889E-05 2.40926E-05-1.65436E-24
 -1       882 3.65976E-05 2.54935E-05 0.00000E+00
 -1       883 3.61975E-05 2.69180E-05 0.00000E+00
 -1       884 3.57933E-05 2.83533E-05 0.00000E+00
 -1       885 3.53897E-05 2.97871E-05 0.00000E+00
 -1       886 3.49913E-05 3.12069E-05 0.00000E+00
 -1       887 3.46028E-05 3.25999E-05 1.65436E-24
 -1       888 3.42289E-05 3.39537E-05 0.00000E+00
 -1       889 3.38737E-05 3.52554E-05 0.00000E+00
 -1       890 3.35427E-05 3.64928E-05 0.00000E+00
 -1       891 3.70056E-05 3.78913E-05 0.00000E+00
 -1       892 3.62926E-05 3.78430E-05-8.27181E-25
 -1       893 3.56281E-05 3.77947E-05 0.00000E+00
 -1       894 3.49429E-05 3.77465E-05-8.27181E-25
 -1       895 3.41681E-05 3.76982E-05 8.27181E-25
 -1       926 4.69463E-08-2.77125E-06 0.00000E+00
 -1       927 4.59865E-08-1.41375E-06 0.00000E+00
 -1       928 4.53657E-08-3.67350E-07 2.58494E-26
 -1       929 4.50455E-08 4.01061E-07 1.29247E-26
 -1       930 4.48770E-08 9.24602E-07-1.29247E-26
 -1       931 4.47952E-08 1.23640E-06 1.29247E-26
 -1       932 4.47415E-08 1.36960E-06 0.00000E+00
 -1       933 4.46545E-08 1.35737E-06 0.00000E+00
 -1       934 4.45187E-08 1.23285E-06 0.00000E+00
 -1       935 4.41697E-08 1.02923E-06-1.03398E-25
 -1       936 4.36935E-08 7.79678E-07 0.00000E+00
 -1       937 4.22585E-08 5.17361E-07 4.13590E-25
 -1       938 4.06938E-08 2.75387E-07 0.00000E+00
 -1       939 3.43752E-08 8.68751E-08 0.00000E+00
 -1       940 2.96717E-08-1.57438E-08-6.61744E-24
 -1       956 3.65012E-05 3.28073E-06-8.27181E-25
 -1       957 3.64097E-05 3.91039E-06-8.27181E-25
 -1       958 3.63178E-05 4.62669E-06-3.30872E-24
 -1       959 3.62257E-05 5.41870E-06-1.65436E-24
 -1       960 3.61334E-05 6.27548E-06 0.00000E+00
 -1       961 3.60411E-05 7.18599E-06-8.27181E-25
 -1       962 3.59487E-05 8.13921E-06-3.30872E-24
 -1       963 3.58563E-05 9.12412E-06-8.27181E-25
 -1       964 3.57639E-05 1.01297E-05 3.30872E-24
 -1       965 3.56714E-05 1.11448E-05 1.65436E-24
 -1       966 3.55790E-05 1.21585E-05 3.30872E-24
 -1       967 3.54866E-05 1.31598E-05-1.65436E-24
 -1       968 3.53943E-05 1.41375E-05 0.00000E+00
 -1       969 3.53022E-05 1.50807E-05 1.65436E-24
 -1       970 3.52103E-05 1.59784E-05 3.30872E-24
 -1       971 3.50046E-05 1.76857E-05 1.65436E-24
 -1       972 3.48869E-05 1.86895E-05 0.00000E+00
 -1       973 3.47690E-05 1.98147E-05 0.00000E+00
 -1       974 3.46507E-05 2.10441E-05-1.65436E-24
 -1       975 3.45322E-05 2.23605E-05 3.30872E-24
 -1       976 3.44136E-05 2.37468E-05 1.65436E-24
 -1       977 3.42949E-05 2.51857E-05 3.30872E-24
 -1       978 3.41762E-05 2.66599E-05 1.65436E-24
 -1       979 3.40574E-05 2.81521E-05 0.00000E+00
 -1       980 3.39386E-05 2.96451E-05 1.65436E-24
 -1       981 3.38199E-05 3.11215E-05 0.00000E+00
 -1       982 3.37014E-05 3.25641E-05 1.65436E-24
 -1       983 3.35830E-05 3.39555E-05-3.30872E-24
 -1       984 3.34653E-05 3.52786E-05 0.00000E+00
 -1       985 3.33478E-05 3.65161E-05 0.00000E+00
 -3
    1PSTEP                        26          13           1          
  100CL  113 5.98877E-01         608                     0   13           1
 -4  STRESS      6    1
 -5  SXX         1    4    1    1
 -5  SYY         1    4    2    2
 -5  SZZ         1    4    3    3
 -5  SXY         1    4    1    2
 -5  SYZ         1    4    2    3
 -5  SZX         1    4    3    1
 -1         1-2.72934E+06-1.02291E+06-6.14119E+05-9.47628E+05-3.15291E-10-2.71636E-10
 -1         2-2.19685E+06-5.59882E+05-2.88007E+05-3.68105E+05-1.23182E-08-7.63102E-08
 -1         3-5.43034E+05-4.47855E+05-2.85462E+04 6.03935E+04 6.27051E-09 3.12632E-10
 -1         4-4.66806E+05-4.41409E+04 8.46311E+03-2.97577E+04-7.33405E-09-3.45767E-09
 -1         5-3.57549E+05 4.40651E+04-1.32035E+05-3.51702E+03 2.02963E-08 5.55008E-09
 -1         8-1.39822E+06-6.43158E+05-1.90678E+05-8.54070E+05-2.91038E-11-1.68802E-09
 -1         9-1.16445E+06-3.58166E+05-1.46445E+05-3.71066E+05 2.22062E-09-1.67493E-09
 -1        10-6.31223E+05-4.65141E+05-4.22458E+04-1.84059E+05 1.50521E-08-4.62830E-09
 -1        11-2.90241E+05-2.35025E+03 1.59672E+04 3.49232E+04 1.53972E-09 1.09130E-08
 -1        12-2.35913E+05 7.40268E+04-1.01611E+05-9.98879E+02 2.80258E-08 1.31877E-09
 -1        15 2.38142E+03 1.28781E+03 7.39081E+03 3.79979E+00-1.84741E-11 1.73163E-09
 -1        16-2.18578E+06-5.78948E+05-1.90602E+05-7.22930E+05 2.05750E-09-4.92219E-09
 -1        17-3.24907E+05-2.82386E+05-2.70470E+04-2.53021E+05-2.57630E-09 2.18643E-09
 -1        18 3.21255E+04 8.38395E+02-1.37225E+04-5.93757E+04-1.45519E-11 4.88508E-09
 -1        19 1.00897E+05 1.23113E+05-1.34762E+02 3.83556E+03-1.69166E-11 1.52941E-09
 -1        20 4.47253E+04-7.56421E+04-1.76697E+04 3.54419E+04 4.25848E-09-1.94177E-09
 -1        21-7.36886E+03-1.20596E+05 3.35452E+04-9.92471E+02 1.26303E-08-1.53771E-08
 -1        23 5.57891E-01 2.65834E-01 1.02183E+01 9.27922E-04 3.40761E-09 1.76608E-09
 -1        24-1.14186E+06-3.34481E+05 5.45074E+04-5.72266E+05-2.45636E-09 3.68746E-09
 -1        25 1.64914E+04 5.45830E+04 2.40642E+04-3.07348E+05-4.14548E-10 2.09911E-10
 -1        26 1.87104E+03 8.43055E+04 3.08055E+02-1.36799E+04 1.57281E-10-2.16860E-09
 -1        27-1.82821E+04-5.58699E+04-2.48578E+04 6.16470E+04 2.44502E-09-1.51067E-09
 -1        28-6.97969E+03-9.32210E+04-3.31118E+03 3.59891E+04 4.80554E-09-3.70451E-09
 -1        31 3.57358E+03 4.11606E+03 6.07199E+03-1.43623E+02 3.05584E-09-1.57831E-09
 -1        32-4.54644E+05 1.23155E+05 2.84801E+05-6.39352E+05 6.75459E-10 1.71713E-09
 -1        33-9.97068E+04 1.00867E+05 3.09964E+04-3.16277E+04-8.77587E-10-2.50475E-09
 -1        34-1.21144E+05-4.78587E+03 1.10260E+04 4.64252E+04 1.05309E-09-3.94652E-09
 -1        35-1.84622E+04-2.51267E+04 1.36854E+03 5.85598E+04 4.62657E-09-2.16096E-09
 -1        36-3.41871E+06 1.05548E+05-2.42770E+05 1.19944E-08-3.45204E-09 3.65253E-09
 -1        37-3.52405E+06-1.22137E+05-1.72009E+05-3.02349E-07-6.19516E-09-9.69703E-09
 -1        38-3.45928E+06 1.65912E+04-6.27824E+04 5.97131E-07-4.14686E-10-2.54659E-11
 -1        39-3.47655E+06-1.91968E+04-3.95407E+04 2.93013E-07 4.51243E-09 3.68891E-09
 -1        40-3.46596E+06 2.60379E+03-1.61429E+04-5.88016E-07-3.21922E-09-3.33785E-10
 -1        41-3.46869E+06-3.05618E+03-9.68769E+03 8.36104E-07-4.88442E-09-7.50958E-09
 -1        42-3.46706E+06 4.52061E+02-4.80056E+03 4.12159E-08-7.69539E-09-4.85954E-09
 -1        43-3.46753E+06-8.29961E+02-3.95088E+03-6.14863E-07-1.72193E-08-5.70066E-09
 -1        44-3.46710E+06 3.77827E+02-4.14638E+03-1.49701E-07-7.85291E-09-5.44105E-10
 -1        45-3.46835E+06-2.41959E+03-7.78990E+03 1.30877E-07 3.95554E-09-2.61662E-09
 -1        46-3.46626E+06 2.04149E+03-1.27313E+04 1.92491E-07-1.18874E-08-5.59794E-09
 -1        47-3.47448E+06-1.50285E+04-3.09973E+04 1.55994E-06-1.01051E-08 1.92358E-09
 -1        48-3.46103E+06 1.29854E+04-4.91632E+04 1.07725E-06-4.37733E-09 4.01997E-09
 -1        49-3.51165E+06-9.55916E+04-1.34637E+05 3.47030E-07-5.74682E-09-1.66801E-09
 -1        50-3.42929E+06 8.26029E+04-1.90053E+05-3.15281E-07-2.12091E-08 5.82804E-09
 -1        51 1.92254E+04-4.03401E+05 3.35710E+04-1.05936E+06-2.61934E-10-9.38599E-09
 -1        52 1.10602E+04-4.03136E+05 2.31806E+04-1.17315E+06 4.36557E-11-2.09839E-08
 -1        53 9.67806E+03-4.13612E+05 2.24961E+04-1.05646E+06 3.05590E-10-3.39060E-09
 -1        54 2.45473E+04-4.10815E+05 3.91726E+04-1.17621E+06-1.09139E-10 3.75076E-09
 -1        55 5.48953E+04-4.24347E+05 7.38897E+04-1.05587E+06-1.01863E-10 1.61162E-09
 -1        56-5.05045E+06-4.58461E+05-4.51888E+05-1.77342E+06-1.44246E-09-4.65661E-10
 -1        57-4.50595E+06-1.21864E+06-2.49374E+05-2.23190E+06-1.39607E-09 4.44197E-09
 -1        58-5.17208E+06-4.14939E+05-1.00315E+05-1.53037E+06-9.07630E-09 6.91216E-09
 -1        59-4.41141E+06-1.20707E+06-5.16418E+04-2.50172E+06-4.04020E-09-6.83940E-09
 -1        60-5.18419E+06-4.38748E+05-2.66384E+04-1.53129E+06 3.81260E-09-2.95631E-09
 -1        61-4.40131E+06-1.02866E+06 1.90370E+04-2.25063E+06-7.41784E-09-1.18443E-08
 -1        62-5.13994E+06-6.24104E+05-4.37397E+04-1.75272E+06-6.41739E-09-4.09818E-09
 -1        63-4.63621E+06-6.43987E+05 5.07562E+04-1.74016E+06-6.98492E-09-8.23638E-09
 -1        64-4.91136E+06-8.50684E+05-4.31803E+04-2.01118E+06 2.29556E-09 6.22640E-09
 -1        65-5.17839E+06-2.55934E+05 1.84953E+04-1.37073E+06 7.42875E-09 1.90921E-08
 -1        66-4.63879E+06-9.82106E+05-2.57437E+04-2.15139E+06-2.86727E-08 1.06884E-08
 -1        67-5.50017E+06-1.17720E+05-5.06767E+04-1.25862E+06-5.11682E-09 8.51287E-09
 -1        68-4.62750E+06-9.62137E+05-9.91485E+04-2.15478E+06-1.28239E-08 1.85173E-09
 -1        69-5.27934E+06-4.35694E+05-2.43847E+05-1.34010E+06-3.08319E-08 1.61199E-08
 -1        70-4.82244E+06-6.93074E+05-4.45400E+05-2.03773E+06-2.22644E-08 7.85803E-09
 -1        86-4.42463E+04-2.04278E+05 1.02654E+05 1.73344E+04 5.19503E-09-2.50111E-12
 -1        87 5.49644E+04-1.50184E+05 8.04008E+04-7.50424E+04 8.84756E-09 8.55024E-09
 -1        88-1.02579E+04-1.84374E+05 3.99223E+04 1.84577E+04 7.79437E-09-5.26180E-09
 -1        89 3.58389E+04-1.60183E+05 5.51263E+04-7.52684E+04 1.15051E-08-1.95348E-09
 -1        90-2.51114E+04-1.94397E+05 5.96375E+04 1.75611E+04 3.39969E-09-2.54977E-09
 -1        91-3.15019E+06-3.66204E+05-1.95161E+05-1.21520E+06-3.90170E-05 1.44885E-05
 -1        92-3.25198E+06-5.47737E+05-1.35655E+05-1.18239E+06-7.78740E-05 2.92508E-05
 -1        93-3.18910E+06-4.37625E+05-4.56878E+04-1.20285E+06-2.76989E-05 1.04283E-05
 -1        94-3.20602E+06-4.65596E+05-2.86261E+04-1.19716E+06 2.24530E-05-8.41660E-06
 -1        95-3.19595E+06-4.48318E+05-1.07026E+04-1.20036E+06 5.60267E-06-2.10658E-06
 -1        96-3.19829E+06-4.53006E+05-6.46137E+03-1.19971E+06-1.12782E-05 4.22904E-06
 -1        97-3.19678E+06-4.50207E+05-3.07599E+03-1.20029E+06-1.01139E-06 3.77602E-07
 -1        98-3.19732E+06-4.51333E+05-2.90323E+03-1.19996E+06 9.27004E-06-3.47781E-06
 -1        99-3.19691E+06-4.49990E+05-3.42360E+03-1.20010E+06-5.04948E-06 1.89038E-06
 -1       100-3.19875E+06-4.53255E+05-7.54419E+03-1.19942E+06-1.93530E-05 7.25834E-06
 -1       101-3.19537E+06-4.48286E+05-1.26422E+04-1.20083E+06 9.24920E-06-3.48140E-06
 -1       102-3.20718E+06-4.68929E+05-3.39192E+04-1.19722E+06 3.78695E-05-1.42260E-05
 -1       103-3.18854E+06-4.34325E+05-5.41754E+04-1.20233E+06 1.89602E-05-7.09193E-06
 -1       104-3.26346E+06-5.64439E+05-1.60843E+05-1.17751E+06-1.55160E-09 1.81026E-08
 -1       105-3.13931E+06-3.52805E+05-2.31441E+05-1.22062E+06-1.50540E-08 6.15546E-09
 -1       106-1.07697E+06 8.92769E+03-2.05758E+04-3.87962E-07 4.85435E-09-6.60293E-10
 -1       107-1.08581E+06-1.03333E+04-1.45719E+04-1.10407E-07 7.29514E-10 3.53589E-09
 -1       108-1.08041E+06 1.40383E+03-5.33183E+03-3.79875E-07-1.10248E-09-2.24691E-09
 -1       109-1.08180E+06-1.62558E+03-3.36934E+03-6.24077E-07 9.77892E-10 1.09799E-09
 -1       110-1.08097E+06 2.21493E+02-1.40222E+03-9.98392E-08-1.60919E-09 5.77296E-09
 -1       111-1.08114E+06-2.67574E+02-8.90427E+02 1.06067E-07-1.98819E-09 4.01087E-09
 -1       112-1.08106E+06 4.60467E+01-5.35127E+02 1.97411E-07 9.23013E-10 4.37735E-09
 -1       113-1.08107E+06-1.28747E+02-6.15746E+02 8.32803E-07-9.19062E-10 7.93779E-09
 -1       114-1.08104E+06 8.26887E+01-8.59369E+02 4.73318E-07-2.36984E-09-4.99119E-09
 -1       115-1.08131E+06-5.81798E+02-1.83018E+03-9.59750E-08-3.45730E-09-1.17018E-08
 -1       116-1.08083E+06 4.99032E+02-3.09167E+03 8.29466E-08 3.60373E-10-9.47693E-10
 -1       117-1.08282E+06-3.68283E+03-7.59506E+03-1.02339E-07-2.76601E-09 2.82625E-09
 -1       118-1.07954E+06 3.18322E+03-1.20697E+04-2.50229E-07-3.85458E-09 2.12640E-09
 -1       119-1.09192E+06-2.34337E+04-3.30359E+04-3.43327E-07 2.81103E-10 4.27463E-10
 -1       120-1.07174E+06 2.02471E+04-4.66531E+04 4.46554E-07-1.04767E-10 4.72937E-11
 -1       121-3.32201E+02-8.36261E+05 1.33930E+03 2.06880E+04 5.89239E-10 2.24782E-09
 -1       122 6.79236E+02-8.35688E+05 1.38999E+03 1.20877E+05 1.39858E-09-3.09793E-10
 -1       123-1.64014E+02-8.36175E+05 1.45995E+03 2.05977E+04 6.42785E-10 1.04251E-08
 -1       124 1.63365E+03-8.34712E+05 3.17624E+03 1.20425E+05 6.00721E-10 7.12430E-09
 -1       125-1.44855E+03-8.36804E+05 4.52703E+03 2.11405E+04-1.14051E-09 6.27006E-09
 -1       141-6.78251E+05 4.87269E+03-1.12351E+04-1.24517E-07-3.56584E-09-5.51245E-09
 -1       142-6.83072E+05-5.64024E+03-7.96281E+03-3.84759E-07-2.60267E-09 1.77988E-09
 -1       143-6.80128E+05 7.66574E+02-2.92777E+03-8.46553E-08-9.22773E-10-2.57887E-09
 -1       144-6.80884E+05-8.90125E+02-1.87500E+03-6.80778E-07-4.39927E-10-3.84404E-10
 -1       145-6.80436E+05 1.23402E+02-8.33550E+02 2.82381E-07-1.16318E-10 1.00479E-09
 -1       146-6.80536E+05-1.65210E+02-6.31385E+02 2.00103E-08-2.88054E-09-4.14397E-09
 -1       147-6.80475E+05 4.17887E+01-5.63979E+02 2.71202E-07-3.12291E-10-3.90273E-10
 -1       148-6.80562E+05-1.95337E+02-9.34948E+02-6.49266E-07-2.36491E-09 4.56059E-09
 -1       149-6.80410E+05 1.53530E+02-1.55345E+03-6.56184E-08-1.02048E-09 2.55102E-09
 -1       150-6.81050E+05-1.12346E+03-3.49876E+03 3.10302E-08-2.68574E-10 1.82382E-09
 -1       151-6.79988E+05 9.69787E+02-5.98827E+03 1.85479E-07-1.71949E-09 3.00793E-09
 -1       152-6.83988E+05-7.16365E+03-1.47659E+04 1.82427E-07-6.81802E-12 3.89832E-09
 -1       153-6.77477E+05 6.19287E+03-2.34814E+04-4.59085E-07 5.29424E-09 3.18323E-09
 -1       154-7.01699E+05-4.55899E+04-6.42765E+04-6.93898E-07 1.54009E-09-4.65479E-09
 -1       155-6.62289E+05 3.93917E+04-9.07554E+04-1.74118E-07 1.23082E-08-2.07729E-09
 -1       156-2.01535E+04-7.55886E+04 4.30981E+04-4.28092E+03-3.19960E-09 4.45957E-09
 -1       157 2.38401E+04-2.54709E+04 3.88798E+04 1.56833E+04-1.87856E-09 4.39383E-09
 -1       158-3.59047E+03-6.50643E+04 1.71145E+04-4.27158E+03-9.59471E-09 3.15035E-09
 -1       159 2.24946E+04 2.47627E+04 4.16407E+04 1.33327E+04 8.77662E-09 1.94413E-09
 -1       160-1.90830E+04-1.25477E+05 1.69144E+04-1.93293E+03 5.63523E-09-2.21951E-09
 -1       161-4.54154E+05-6.26605E+04-4.63529E+03-1.52704E+05-1.70476E-08 1.03682E-09
 -1       162-2.27103E+05-4.14044E+04 3.70504E+04-1.17258E+05 2.55136E-08-9.55208E-09
 -1       163-4.50388E+05-5.49972E+04-1.18062E+04-1.54685E+05-7.51486E-09 5.32634E-09
 -1       164-2.49105E+05-3.30941E+04 2.98332E+04-9.42360E+04-4.84282E-08 2.41616E-08
 -1       165-4.31920E+05-7.15648E+04-1.35846E+04-1.75361E+05-6.54192E-05 2.54264E-05
 -1       166-2.68331E+05-1.62251E+04 2.82758E+04-7.39788E+04-1.31718E-04 5.29888E-05
 -1       167-4.31399E+05-7.12701E+04-1.40545E+04-1.75302E+05-6.53869E-05 2.54181E-05
 -1       168-2.49935E+05-3.48333E+04 2.77038E+04-9.38108E+04-1.56229E-08 9.19624E-09
 -1       169-4.50080E+05-5.35531E+04-1.49885E+04-1.55169E+05 1.06081E-06-3.73265E-07
 -1       170-2.33360E+05-5.29323E+04 2.59674E+04-1.14849E+05 2.07470E-06-7.33516E-07
 -1       171-4.48207E+05-5.25792E+04-1.73593E+04-1.54628E+05 1.09906E-06-3.73179E-07
 -1       172-2.52708E+05-3.91202E+04 1.87726E+04-9.33616E+04 2.36071E-08-6.35384E-09
 -1       173-4.30501E+05-6.79576E+04-2.96483E+04-1.76293E+05-1.99998E-08-2.12640E-09
 -1       174-2.83361E+05-4.28980E+04-1.50807E+04-6.91846E+04-9.12287E-08 3.74257E-10
 -1       175-4.17792E+05-4.82086E+04-7.98955E+04-1.79163E+05-1.58816E-08-3.52520E-09
 -1       191 5.05215E+02 3.53977E+05 8.08283E+02-6.79503E+03-2.74667E-10 1.83445E-09
 -1       192 1.77665E+02 3.54078E+05 4.67356E+02-7.18203E+03-1.71894E-10 2.73212E-09
 -1       193 7.07101E+01 3.54016E+05 3.48873E+02-6.64658E+03-6.98776E-10-2.22826E-09
 -1       194 1.96672E+02 3.54078E+05 4.96402E+02-7.46450E+03-5.85942E-10 2.14186E-10
 -1       195 5.60375E+02 3.53962E+05 8.80893E+02-6.51212E+03-1.13141E-09 2.78305E-10
 -1       266-4.18669E+04-1.93578E+04 9.66416E+04-7.82085E+01-1.45519E-11 4.18174E-09
 -1       267 4.84864E+04 2.26094E+04 6.85470E+04 8.99101E+01 6.82121E-11-8.65177E-09
 -1       268-6.60686E+03-3.23680E+03 2.53718E+04-1.17094E+01 6.73026E-11-3.12979E-09
 -1       269 7.79894E+03 3.88150E+03 1.65814E+04 1.36112E+01-7.98082E-11-2.47299E-09
 -1       270-1.19054E+03-6.43885E+02 7.96111E+03-1.89935E+00-8.57199E-11 6.98337E-09
 -1       271-4.35733E+06-5.42968E+05-3.43476E+05-1.68753E+06-4.07454E-10-5.26779E-09
 -1       272-4.49372E+06-7.62578E+05-2.18343E+05-1.67038E+06 2.93767E-10-3.03044E-09
 -1       273-4.41966E+06-6.22917E+05-8.10009E+04-1.67511E+06-1.29921E-09-2.69574E-09
 -1       274-4.42031E+06-6.61877E+05-4.48007E+04-1.69087E+06-6.27551E-10-3.08864E-09
 -1       275-4.42858E+06-6.30066E+05-1.88288E+04-1.67210E+06-3.05818E-09 2.62298E-09
 -1       276-4.40908E+06-6.53725E+05-9.97247E+03-1.69607E+06-2.74758E-09 9.33937E-09
 -1       277-4.43083E+06-6.29659E+05-5.03687E+03-1.67050E+06-1.74714E-09 4.61637E-09
 -1       278-4.40618E+06-6.54701E+05-3.83402E+03-1.69869E+06-2.11458E-09 6.00289E-09
 -1       279-4.43163E+06-6.28882E+05-4.42313E+03-1.66964E+06-1.19076E-09 8.07518E-10
 -1       280-4.40608E+06-6.56430E+05-8.31972E+03-1.69966E+06 1.66028E-09-2.59558E-09
 -1       281-4.43103E+06-6.27954E+05-1.54327E+04-1.66957E+06 1.69507E-09 7.81256E-10
 -1       282-4.41320E+06-6.65257E+05-3.66853E+04-1.69798E+06-2.27033E-10 2.99815E-09
 -1       283-4.42472E+06-6.21122E+05-6.62122E+04-1.67093E+06 7.27596E-12 3.25963E-09
 -1       284-4.47156E+06-7.49288E+05-1.78574E+05-1.68313E+06 1.65664E-09 8.03811E-09
 -1       285-4.37445E+06-5.55073E+05-2.80912E+05-1.68032E+06 1.99361E-09 4.45289E-09
 -1       286 7.27475E+05-5.98617E+04 1.38059E+05 1.16031E+03 1.56481E-09 5.09317E-10
 -1       287 7.87812E+05 6.92864E+04 9.77928E+04-1.60894E+03-2.11349E-09-1.43591E-08
 -1       288 7.50776E+05-9.40422E+03 3.57661E+04-1.41491E+02 9.87593E-08-1.59307E-08
 -1       289 7.60704E+05 1.08842E+04 2.25341E+04-2.54031E+02 1.94902E-07 1.24146E-10
 -1       290 7.54595E+05-1.47753E+03 9.25166E+03-1.94545E+02 2.60830E-07 1.10504E-08
 -1       291 7.56268E+05 1.74368E+03 5.61251E+03-1.98903E+02 3.26097E-07 1.89959E-09
 -1       292 7.55220E+05-2.65719E+02 2.90134E+03-1.96623E+02 1.59718E-07 8.60837E-10
 -1       293 7.55650E+05 5.41595E+02 2.60093E+03-1.96830E+02-5.92246E-09-4.17395E-09
 -1       294 7.55214E+05-2.75669E+02 2.98978E+03-1.96619E+02-4.81501E-07-2.60877E-09
 -1       295 7.56313E+05 1.82901E+03 5.86862E+03-1.99013E+02-9.61452E-07 1.21020E-09
 -1       296 7.54555E+05-1.55290E+03 9.71218E+03-1.94439E+02-4.10488E-06-1.28844E-08
 -1       297 7.60980E+05 1.14428E+04 2.36847E+04-2.56877E+02-7.24330E-06 2.40561E-10
 -1       298 7.50539E+05-9.88737E+03 3.76015E+04-1.38752E+02-3.62591E-06 1.76224E-08
 -1       299 7.89492E+05 7.28492E+04 1.02821E+05-1.67883E+03 2.21803E-09 1.90539E-08
 -1       300 7.26032E+05-6.29398E+04 1.45159E+05 1.22745E+03 8.50800E-09-5.38421E-10
 -1       301 2.97343E+04-1.03973E+04 8.98937E+04-8.52359E+03 5.45697E-11-3.07568E-09
 -1       302 1.13679E+04 8.31804E+03 6.29090E+04-1.06628E+04 8.55835E-10-6.25778E-09
 -1       303 2.58741E+03-4.25959E+03 6.12348E+04-8.58504E+03-1.31877E-10 2.81443E-09
 -1       304 2.44132E+04 1.84218E+04 1.04533E+05-1.05775E+04 7.07587E-10 7.79323E-09
 -1       305 6.74448E+04-2.04476E+04 1.88494E+05-8.57152E+03 2.54659E-10 5.63455E-09
 -1       306-1.77897E+06-2.31905E+05-1.08624E+05-6.88811E+05 2.39379E-09 7.93079E-10
 -1       307-1.79848E+06-3.24399E+05-6.89580E+04-7.10213E+05 6.01040E-09-5.52973E-10
 -1       308-1.79870E+06-2.57000E+05-2.56421E+04-6.84926E+05 2.05637E-09-4.86034E-09
 -1       309-1.77571E+06-2.92451E+05-1.41880E+04-7.16587E+05-1.94632E-10-2.32285E-09
 -1       310-1.80135E+06-2.59411E+05-5.98754E+03-6.84211E+05-2.53976E-10-2.42903E-09
 -1       311-1.77274E+06-2.89356E+05-3.22832E+03-7.17664E+05 1.21747E-09 3.89321E-10
 -1       312-1.80173E+06-2.59615E+05-1.72648E+03-6.84083E+05-2.14442E-09 3.94078E-09
 -1       313-1.77255E+06-2.88928E+05-1.51284E+03-7.17567E+05-2.50975E-09 2.53954E-09
 -1       314-1.80152E+06-2.59827E+05-2.01336E+03-6.84300E+05-3.43971E-09-2.20075E-09
 -1       315-1.77346E+06-2.88725E+05-3.98448E+03-7.16654E+05 1.78443E-09 1.91403E-09
 -1       316-1.80065E+06-2.59965E+05-7.55755E+03-6.84856E+05 3.78304E-09 2.89674E-09
 -1       317-1.77773E+06-2.92038E+05-1.79049E+04-7.14502E+05 7.35508E-09 4.21505E-09
 -1       318-1.79702E+06-2.57210E+05-3.24447E+04-6.86053E+05 1.92176E-09-3.21961E-09
 -1       319-1.80693E+06-3.31968E+05-8.71504E+04-7.05900E+05-1.19371E-09 2.18279E-10
 -1       320-1.77189E+06-2.25674E+05-1.37334E+05-6.91161E+05-7.49424E-10 1.49157E-09
 -1       321-7.91036E+05-7.33620E+03 2.21485E+03-2.45239E+04-8.68482E-09 8.39464E-09
 -1       322-4.53434E+05 2.21103E+04 6.59489E+04 3.60190E+04-3.78567E-08 1.25341E-08
 -1       323-9.40696E+05-1.46103E+04-3.92567E+04-7.38677E+03-9.44976E-09-1.02318E-11
 -1       324-5.22074E+05 1.19475E+03 4.21021E+04-1.96985E+04-1.33788E-08-1.68488E-08
 -1       325-7.22371E+05 1.30296E+04 3.68332E+03 3.11847E+04 5.00126E-09-1.26154E-08
 -1       326-5.12672E+05 4.49361E+02 4.22412E+04-2.22792E+04 1.09541E-08-4.23688E-09
 -1       327-9.50101E+05-1.37820E+04-4.47425E+04-4.80679E+03-4.44675E-09 4.65946E-10
 -1       328-4.66868E+05 5.85366E+03 5.17765E+04 3.44874E+04 1.06903E-09 1.03810E-08
 -1       329-7.68196E+05 8.02415E+03-7.24128E+03-2.55736E+04-5.46009E-09 5.10369E-09
 -1       330-5.60972E+05-6.08908E+03 2.99550E+04 7.80732E+03 2.20281E-08-2.74486E-09
 -1       331-8.55977E+05-2.61311E+03-2.72833E+04 2.18645E+04 3.73905E-09-5.52404E-09
 -1       332-4.47122E+05 8.05910E+03 5.19657E+04-3.70048E+04-4.10056E-08-1.79485E-08
 -1       333-8.82085E+05-5.15863E+03-3.91073E+04 1.92313E+04-2.72765E-08-1.09899E-08
 -1       334-5.56487E+05-1.02818E+04 1.37211E+04 1.17557E+04-2.73559E-11 4.81486E-09
 -1       335-7.46580E+05 1.48160E+04-3.60641E+04-2.68891E+04-1.90088E-08 1.20599E-08
 -1       336 3.23474E+02-8.99831E+05-3.27688E+03-1.54757E+04-3.54817E-09-1.68257E-10
 -1       337-1.45357E+03-9.01289E+05-6.15974E+03-9.73714E+04-6.17501E-09-3.32011E-09
 -1       338 1.27668E+03-8.99329E+05-1.02247E+04-1.48184E+04-5.39922E-09 5.04906E-09
 -1       339-1.29211E+04-9.08306E+05-2.53793E+04-9.81454E+04-7.89396E-09 1.13287E-08
 -1       340 1.06753E+04-8.93390E+05-3.87491E+04-1.47037E+04-5.36238E-09 6.87135E-09
 -1       356-7.48520E+05 1.44054E+04-3.65250E+04-2.63738E+04-2.31972E-09 1.01954E-08
 -1       357-5.61673E+05-1.05251E+04 1.26074E+04 1.09969E+04-4.16337E-09 8.10815E-10
 -1       358-8.74130E+05-4.50013E+03-3.75542E+04 1.94154E+04-1.26353E-08-7.61565E-09
 -1       359-4.52743E+05 7.87282E+03 5.07284E+04-3.65151E+04-1.44365E-08-2.10565E-08
 -1       360-8.57478E+05-3.09081E+03-2.78002E+04 2.11315E+04-7.16966E-09-5.84794E-09
 -1       361-5.63523E+05-5.88515E+03 2.92251E+04 8.39894E+03 5.83570E-09 7.16372E-09
 -1       362-7.63314E+05 8.32167E+03-6.76815E+03-2.54916E+04 3.05491E-08 6.81364E-09
 -1       363-4.74300E+05 5.27782E+03 4.92282E+04 3.36244E+04 2.19796E-08 4.88546E-09
 -1       364-9.46719E+05-1.35232E+04-4.59570E+04-4.08576E+03-2.05189E-08 5.32123E-09
 -1       365-5.15430E+05-5.90825E+02 3.76963E+04-2.26310E+04-5.79839E-08-1.08885E-08
 -1       366-7.22167E+05 1.38392E+04-3.66413E+03 3.07559E+04 3.42173E-08-1.65403E-08
 -1       367-5.33059E+05-7.75254E+03 2.29582E+04-1.84906E+04 5.67525E-08-1.42264E-08
 -1       368-9.29093E+05-6.48665E+03-6.58429E+04-8.22542E+03-1.93086E-08 4.84761E-10
 -1       369-4.81550E+05-3.26141E+04-1.17283E+04 3.55963E+04-3.73648E-08 1.69739E-08
 -1       370-7.73711E+05 3.92695E+04-1.07688E+05-2.33224E+04 1.07832E-09 9.41145E-09
 -1       371-1.71449E+04-1.11528E+05 1.68944E+04-1.38899E+03 2.04927E-08 4.34966E-10
 -1       372 1.70776E+04 8.84868E+03 2.98777E+04 1.11769E+04-4.09864E-09-1.11591E-09
 -1       373-1.06186E+02-6.30982E+04 2.32319E+03-3.51368E+03-1.23691E-09 2.17808E-09
 -1       374-5.29557E+03-4.40612E+04-2.98492E+03 1.33335E+04-9.82709E-10-1.10596E-11
 -1       375 5.45192E+03-5.89095E+04-1.37076E+04-3.54274E+03-6.43922E-09 3.04908E-10
 -1       406 4.99505E+02 3.52432E+05 1.22165E+03-1.78246E+04-1.62163E-09 1.33969E-09
 -1       407 4.06826E+02 3.52661E+05 1.74731E+03-1.93921E+04-1.00530E-09 4.68071E-09
 -1       408 7.91412E+02 3.52356E+05 3.09445E+03-1.76978E+04-2.08956E-09 1.21236E-09
 -1       409 3.19919E+03 3.53566E+05 6.77581E+03-1.96063E+04-1.38789E-09-2.30284E-09
 -1       410 9.18748E+03 3.51493E+05 1.37366E+04-1.76026E+04-2.52840E-09 1.21599E-09
 -1       501-3.56454E+05-7.02062E+04 1.20112E+05-1.27809E+04 2.06490E-08 1.12559E-08
 -1       502-8.16422E+04 7.38824E+04 1.22460E+05 3.29123E+04 2.17653E-08 2.70848E-08
 -1       503-2.52517E+05-3.10985E+03 3.36672E+04-1.51607E+04 1.06874E-08 1.62818E-08
 -1       504-2.70682E+04 1.47431E+04 6.18936E+04 2.01691E+04-9.30240E-09 1.30151E-08
 -1       505-4.10346E+05-1.18786E+04-2.68970E+04-3.14968E+01-1.15688E-09-1.85082E-10
 -1       506 9.96290E+03 8.75807E+03 5.32813E+04-1.31706E+04 3.45801E-08-1.97039E-08
 -1       507-2.89300E+05 2.45514E+03-8.78497E+03 1.81429E+04 3.36509E-08-2.83223E-08
 -1       508-1.23875E+05-5.80793E+03 2.04948E+04-3.16252E+04 2.06802E-08-4.22837E-08
 -1       509-2.77594E+05 3.90598E+03-7.84756E+03 1.84567E+04 3.57294E-08-2.78851E-08
 -1       510-4.01215E+02 6.41636E+03 4.69294E+04-1.49034E+04 3.57157E-08-2.61218E-08
 -1       511-4.11689E+05-1.08403E+04-3.50099E+04 1.38579E+03-7.23514E-09-3.65168E-09
 -1       512-2.07016E+04 6.41624E+03 4.50276E+04 1.86616E+04-3.93346E-08 1.72842E-08
 -1       513-2.57527E+05 4.01757E+03 1.12759E+03-1.50751E+04-2.50560E-05 5.49442E-07
 -1       514-1.11025E+05 1.38980E+04 3.80445E+04 3.29311E+04-5.04584E-05 1.46673E-06
 -1       515-3.22229E+05-1.74377E+04 3.54663E+03-1.28873E+04-2.49197E-05 4.10781E-07
 -1       521-4.39043E+06-5.56831E+05-2.82524E+05-1.68632E+06-3.17959E-09-7.85803E-10
 -1       522-4.48786E+06-7.52309E+05-1.79583E+05-1.68934E+06-1.34332E-09 2.97769E-09
 -1       523-4.44116E+06-6.23066E+05-6.65860E+04-1.67667E+06-1.94632E-09 3.09228E-09
 -1       524-4.42886E+06-6.68132E+05-3.68745E+04-1.70468E+06-3.34373E-09 1.45292E-09
 -1       525-4.44767E+06-6.29774E+05-1.54857E+04-1.67512E+06-2.17346E-09 3.52611E-09
 -1       526-4.42145E+06-6.59524E+05-8.28769E+03-1.70670E+06 2.50634E-09 1.49612E-10
 -1       527-4.44839E+06-6.30584E+05-4.28641E+03-1.67506E+06 5.78211E-10-4.61296E-09
 -1       528-4.42133E+06-6.57973E+05-3.50352E+03-1.70598E+06-6.30280E-10 4.04771E-09
 -1       529-4.44770E+06-6.31290E+05-4.35436E+03-1.67582E+06-1.73441E-09-1.98725E-10
 -1       530-4.42393E+06-6.56932E+05-8.42751E+03-1.70352E+06 6.39147E-10 2.76214E-09
 -1       531-4.44563E+06-6.31818E+05-1.58229E+04-1.67736E+06-6.38920E-10 1.54523E-09
 -1       532-4.43380E+06-6.63288E+05-3.75851E+04-1.69857E+06 1.29148E-10 2.51839E-09
 -1       533-4.43783E+06-6.26154E+05-6.79481E+04-1.68024E+06-7.10543E-11 1.92449E-09
 -1       534-4.49605E+06-7.47001E+05-1.83106E+05-1.68050E+06-1.01318E-09-1.16415E-10
 -1       535-4.38515E+06-5.59568E+05-2.88136E+05-1.69114E+06-2.32831E-09 4.07454E-10
 -1       536 6.45720E+04-1.38040E+04 4.97515E+04-6.34485E+03 6.79393E-10-5.00222E-10
 -1       537 8.38617E+04 1.71377E+04 3.25971E+04-3.67585E+04-4.18231E-09-2.09366E-09
 -1       538 7.22515E+04-1.63547E+03 1.28818E+04-6.29098E+03 3.42880E-10-1.09048E-09
 -1       539 7.49135E+04 1.79005E+03 7.37040E+03-3.67815E+04 1.57297E-09 3.51884E-09
 -1       540 7.31736E+04-2.29906E+02 3.24351E+03-6.31716E+03-8.27640E-11-1.60344E-09
 -1       541 7.36275E+04 1.80216E+02 1.75026E+03-3.67282E+04-7.37600E-10-8.10979E-09
 -1       542 7.32856E+04-3.75092E+01 7.99176E+02-6.34475E+03 2.73667E-09-2.78681E-09
 -1       543 7.33427E+04 4.72063E+01 4.07491E+02-3.66852E+04 4.58851E-09-3.45574E-09
 -1       544 7.32975E+04 3.43580E+00 1.61891E+02-6.36022E+03 2.86809E-09-1.99242E-09
 -1       545 7.32521E+04 4.08153E+01 1.69274E+01-3.66664E+04-8.02743E-10-3.34353E-10
 -1       546 7.33057E+04 1.83279E+01-1.15907E+02-6.36354E+03 4.91184E-10-1.73259E-09
 -1       547 7.32093E+04-5.35397E+01-3.49495E+02-3.66671E+04-4.26439E-10-5.15854E-10
 -1       548 7.33599E+04 7.49851E+01-6.57687E+02-6.35956E+03-1.28421E-09 1.73850E-09
 -1       549 7.28592E+04-8.76176E+02-1.66127E+03-3.66342E+04-3.90855E-10-2.41357E-09
 -1       550 7.37658E+04 6.61565E+02-2.58379E+03-6.39649E+03-5.88898E-10 2.51396E-09
 -1       551 9.11396E+03-3.13088E+05 2.28412E+04-4.95577E+05-6.58110E-09-7.27596E-10
 -1       552 7.76696E+03-3.10107E+05 2.51406E+04-6.11900E+05-7.38510E-09 6.16637E-09
 -1       553 5.79917E+03-3.14303E+05 3.76335E+04-4.94576E+05-7.26141E-09 1.29330E-09
 -1       554 2.44970E+04-2.97760E+05 7.78041E+04-6.12030E+05-8.44011E-09 2.14732E-09
 -1       555 5.72076E+04-3.26469E+05 1.47594E+05-4.95243E+05-6.81757E-09-2.25555E-09
 -1       556-9.61164E+04-1.05486E+05 2.51900E+04-1.69025E+05-2.44836E-09 9.74978E-10
 -1       557-6.96398E+04-1.30584E+05 1.27915E+04-1.90338E+05-9.89530E-10-2.19029E-09
 -1       558-9.63018E+04-1.11225E+05 5.31214E+03-1.65098E+05 5.09317E-11-5.04770E-10
 -1       559-7.26811E+04-1.34236E+05 2.64426E+03-1.91659E+05 1.04410E-09-8.18545E-10
 -1       560-9.68299E+04-1.10967E+05 1.15037E+03-1.65318E+05-4.72937E-10 1.51840E-09
 -1       561-7.34984E+04-1.34121E+05 5.72050E+02-1.92213E+05-8.36735E-10 3.01191E-09
 -1       562-9.72546E+04-1.10679E+05 2.18476E+02-1.65612E+05-1.22964E-09 1.98554E-09
 -1       563-7.39560E+04-1.33926E+05 6.66675E+01-1.92522E+05-3.07682E-09 2.07046E-09
 -1       564-9.75043E+04-1.10514E+05-9.26642E+01-1.65786E+05-3.88900E-09-1.01018E-08
 -1       565-7.41866E+04-1.33833E+05-2.94168E+02-1.92669E+05-2.81580E-09 2.37378E-09
 -1       566-9.75579E+04-1.10456E+05-6.69984E+02-1.65836E+05 2.42380E-09 5.55610E-09
 -1       567-7.42994E+04-1.33882E+05-1.49596E+03-1.92643E+05 1.83763E-09-4.76211E-09
 -1       568-9.73415E+04-1.10643E+05-3.08812E+03-1.65713E+05-2.06455E-09-8.24548E-09
 -1       569-7.60320E+04-1.35446E+05-7.27792E+03-1.91967E+05-8.92214E-10 1.50794E-09
 -1       570-9.59821E+04-1.15028E+05-1.44789E+04-1.63899E+05 2.32831E-09 7.56154E-09
 -1       571 2.43307E+05 1.02144E+04 1.53208E+04-6.00360E+04 5.91172E-11 1.32331E-10
 -1       572 2.45607E+05 3.52402E+03 7.51281E+03-6.59433E+04 4.82032E-10-3.67095E-09
 -1       573 2.44228E+05 8.18111E+02 3.33929E+03-5.98800E+04 4.54747E-10-4.31737E-09
 -1       574 2.44499E+05 2.58688E+02 1.67458E+03-6.61147E+04 2.68301E-10-3.95630E-10
 -1       575 2.44327E+05 2.72350E+01 7.90537E+02-5.98599E+04-5.65251E-10-5.95082E-09
 -1       576 2.44350E+05 1.94382E+00 4.03509E+02-6.61373E+04 1.19712E-10-5.07816E-09
 -1       577 2.44344E+05-1.35112E+01 2.00603E+02-5.98573E+04 3.70619E-11 6.04814E-11
 -1       578 2.44339E+05-1.20192E+01 1.12864E+02-6.61402E+04-6.34145E-10 2.98087E-09
 -1       579 2.44365E+05-1.88934E+01 7.51753E+01-5.98571E+04-4.46562E-10-5.40695E-10
 -1       580 2.44369E+05-2.37744E+01 8.05400E+01-6.61369E+04 9.73159E-11 1.60981E-09
 -1       581 2.44400E+05-3.21264E+01 1.20338E+02-5.98605E+04-3.78350E-10-2.57796E-09
 -1       582 2.44438E+05-1.38988E+01 2.37574E+02-6.61010E+04 2.43745E-10-2.76896E-09
 -1       583 2.44439E+05 4.70227E+01 4.60645E+02-5.98930E+04-2.72848E-10 4.27440E-09
 -1       584 2.44657E+05 4.03945E+02 1.03470E+03-6.58253E+04-2.03181E-09 2.84149E-09
 -1       585 2.44373E+05 1.31284E+03 2.10182E+03-6.01374E+04 5.36602E-10 3.86535E-09
 -1       586 5.07870E+02 1.07072E+05 1.29178E+03-1.49675E+05 1.25965E-10 2.71029E-10
 -1       587 5.22463E+02 1.07290E+05 2.13231E+03-1.66903E+05-1.88265E-09-5.75164E-09
 -1       588 9.37919E+02 1.06898E+05 3.94763E+03-1.49482E+05-4.91127E-11-1.01124E-09
 -1       589 3.84095E+03 1.08537E+05 8.72228E+03-1.66935E+05-1.87174E-09 3.37502E-09
 -1       590 1.10810E+04 1.05780E+05 1.76160E+04-1.49640E+05 4.72937E-11 2.92221E-09
 -1       591-1.11676E+05-3.31575E+04-2.31761E+04-5.35148E+04-4.48154E-10-1.54432E-09
 -1       592-1.13297E+05-3.23104E+04-1.16915E+04-5.96515E+04 1.74168E-10 3.81988E-11
 -1       593-1.12896E+05-2.68530E+04-4.96165E+03-5.67081E+04 3.64480E-10 3.35376E-10
 -1       594-1.10642E+05-2.94279E+04-2.43853E+03-5.98521E+04-1.82695E-10 1.62854E-09
 -1       595-1.13026E+05-2.66924E+04-1.12546E+03-5.68279E+04 2.13436E-09 5.10863E-09
 -1       596-1.10463E+05-2.93274E+04-5.68756E+02-5.98251E+04 2.96114E-09 2.58694E-09
 -1       597-1.13048E+05-2.67121E+04-3.05760E+02-5.68280E+04-2.63026E-09 1.31593E-09
 -1       598-1.10444E+05-2.93285E+04-2.37246E+02-5.98165E+04-3.72739E-09 8.44079E-09
 -1       599-1.13046E+05-2.67139E+04-2.92278E+02-5.68267E+04-3.03771E-09-9.97716E-10
 -1       600-1.10458E+05-2.93296E+04-5.33209E+02-5.98205E+04 1.50783E-09 5.68434E-09
 -1       601-1.13021E+05-2.66980E+04-1.04892E+03-5.68243E+04-4.56521E-09-4.94106E-09
 -1       602-1.10623E+05-2.94223E+04-2.26971E+03-5.98390E+04-7.10543E-10-9.21773E-10
 -1       603-1.12895E+05-2.68529E+04-4.61660E+03-5.67133E+04-1.97815E-09-1.73441E-09
 -1       604-1.13117E+05-3.20754E+04-1.08760E+04-5.96150E+04-4.89990E-10-1.30785E-09
 -1       605-1.11728E+05-3.27433E+04-2.15590E+04-5.37700E+04 3.18323E-12 1.44064E-09
 -1       606 8.14183E+04-9.55915E+03-1.53753E+04 2.54108E+04-4.21824E-09-2.99224E-10
 -1       607 7.89495E+04-3.18355E+03-7.58042E+03 2.79740E+04-4.62478E-10-3.29590E-09
 -1       608 8.03754E+04-6.48830E+02-3.38016E+03 2.52309E+04 2.91584E-09 1.12345E-09
 -1       609 8.00605E+04-1.74126E+02-1.69860E+03 2.81710E+04-2.00089E-09 2.77259E-09
 -1       610 8.02363E+04 1.70334E+01-8.04893E+02 2.52089E+04-5.65888E-09-2.79351E-09
 -1       611 8.01720E+04 4.21980E+01-4.04785E+02 2.81947E+04-1.00968E-08-1.00431E-09
 -1       612 8.02009E+04 4.81815E+01-1.91583E+02 2.52066E+04-5.23141E-09-3.17618E-09
 -1       613 8.01741E+04 5.33060E+01-8.51147E+01 2.81974E+04-6.05178E-09 1.21963E-09
 -1       614 8.01826E+04 4.79474E+01-1.86192E+01 2.52061E+04-5.31145E-10 9.01764E-10
 -1       615 8.01668E+04 5.72980E+01 3.94167E+01 2.81976E+04 6.58292E-09 9.49740E-10
 -1       616 8.01684E+04 5.45912E+01 1.14763E+02 2.52064E+04-1.94814E-09 1.63368E-09
 -1       617 8.01790E+04 9.36229E+01 2.62436E+02 2.81965E+04 9.92486E-10 2.72803E-09
 -1       618 8.01427E+04 1.61157E+02 5.30951E+02 2.52069E+04 6.42785E-10-2.33854E-09
 -1       619 8.03534E+04 5.70004E+02 1.19663E+03 2.81914E+04-1.64732E-10-3.16641E-09
 -1       620 7.99781E+04 1.56993E+03 2.42899E+03 2.52091E+04 1.61879E-09-9.89075E-10
 -1       621 8.41426E+02 2.46892E+05 3.01220E+03-1.74125E+04-1.31990E-10-9.53264E-10
 -1       622 3.82198E+02 2.47506E+05 3.03477E+03-2.15518E+04 4.72482E-10 2.96041E-10
 -1       623 1.98087E+02 2.46988E+05 4.32612E+03-1.74204E+04-7.79892E-11 1.00317E-09
 -1       624 2.18480E+03 2.48911E+05 8.79527E+03-2.14744E+04 7.18501E-10 3.49883E-09
 -1       625 6.05013E+03 2.45504E+05 1.66462E+04-1.74876E+04 3.63798E-11 1.72031E-09
 -1       626 1.47449E+05 4.74142E+04-2.85373E+03 9.34941E+04 1.15460E-09 6.38829E-09
 -1       627 1.44238E+05 5.12650E+04-1.35648E+03 9.62190E+04 1.64164E-10-4.67128E-09
 -1       628 1.47562E+05 4.87024E+04-5.70681E+02 9.27135E+04-3.14685E-10-1.89675E-09
 -1       629 1.44338E+05 5.19299E+04-2.71512E+02 9.62678E+04 2.56796E-09 5.39586E-10
 -1       630 1.47547E+05 4.87912E+04-1.16900E+02 9.26395E+04 2.29920E-09-4.91633E-09
 -1       631 1.44324E+05 5.19854E+04-4.44290E+01 9.62687E+04-2.04727E-09-3.47063E-09
 -1       632 1.47529E+05 4.87981E+04 5.18226E+00 9.26262E+04 1.17780E-09-9.37007E-10
 -1       633 1.44315E+05 5.19916E+04 5.70463E+01 9.62644E+04 1.25783E-09 1.31897E-08
 -1       634 1.47515E+05 4.87947E+04 1.38015E+02 9.26216E+04-5.06134E-10 1.25624E-09
 -1       635 1.44327E+05 5.19952E+04 3.09330E+02 9.62659E+04-1.27397E-09-9.55606E-09
 -1       636 1.47500E+05 4.88047E+04 6.39917E+02 9.26128E+04-3.21029E-09-4.08363E-10
 -1       637 1.44476E+05 5.21514E+04 1.42510E+03 9.62449E+04-1.97542E-09-3.22325E-09
 -1       638 1.47464E+05 4.92802E+04 2.94837E+03 9.24041E+04-9.47102E-09-3.62888E-10
 -1       639 1.45986E+05 5.46802E+04 7.00787E+03 9.56409E+04-1.09851E-08 2.22246E-08
 -1       640 1.47486E+05 5.66559E+04 1.47340E+04 8.93274E+04-1.32254E-08-5.15547E-09
 -1       641-1.89348E+04 2.97836E+03-6.86607E+03-3.22155E+01 2.49641E-05-3.03980E-08
 -1       642-2.19132E+04-3.44715E+03-4.85838E+03 7.40338E+00 4.98854E-05-5.70416E-08
 -1       643-2.00829E+04 4.68089E+02-1.77062E+03-3.59032E+01 4.60437E-05-6.40476E-08
 -1       644-2.05751E+04-5.40561E+02-1.10344E+03 1.40150E+01 4.21741E-05-5.74335E-08
 -1       645-2.02729E+04 7.23261E+01-4.27134E+02-3.88282E+01 2.75545E-05-3.83986E-08
 -1       646-2.03495E+04-7.75410E+01-2.08783E+02 1.77401E+01 1.29252E-05-1.63471E-08
 -1       647-2.03084E+04 5.15115E+00-1.27162E+01-3.96285E+01-7.56211E-06 9.69607E-09
 -1       648-2.02882E+04 3.34764E+01 1.60360E+02 1.69350E+01-2.80642E-05 3.87594E-08
 -1       649-2.03342E+04-3.86780E+01 3.75695E+02-3.80232E+01-5.08251E-05 7.39000E-08
 -1       650-2.01467E+04 2.98272E+02 9.16995E+02 1.13976E+01-7.35887E-05 9.56434E-08
 -1       651-2.04499E+04-2.59610E+02 1.59606E+03-3.40910E+01-9.34459E-05 1.25809E-07
 -1       652-1.93561E+04 1.91973E+03 3.95535E+03 1.19926E+00-1.13288E-04 1.34013E-07
 -1       653-2.11247E+04-1.65984E+03 6.29501E+03-2.78249E+01-1.18251E-04 1.45003E-07
 -1       654-1.46088E+04 1.22192E+04 1.72328E+04-1.56980E+01-1.23151E-04 1.30661E-07
 -1       655-2.51962E+04-1.05570E+04 2.43406E+04-1.71941E+01-6.16272E-05 5.85533E-08
 -1       656 9.30206E+03-3.48878E+05-3.95536E+04 9.48381E+03-2.30830E-09 1.37106E-09
 -1       657-1.35540E+04-3.63505E+05-2.93403E+04 4.03772E+04-1.11345E-09 1.85810E-09
 -1       658 1.91826E+03-3.53962E+05-1.90965E+04 9.39333E+03-4.59011E-10 7.38089E-09
 -1       659-1.33470E+04-3.63421E+05-2.90007E+04 4.04348E+04-9.09722E-10 1.62451E-10
 -1       660 9.15590E+03-3.49001E+05-3.89060E+04 9.42687E+03 2.45564E-10-1.91062E-09
 -1       661 2.16444E+05 3.00849E+04 1.71834E+04 8.49714E+04 6.21435E-09 1.55615E-09
 -1       662 2.20130E+05 4.00767E+04 1.03478E+04 8.75054E+04 8.24940E-11 1.17961E-09
 -1       663 2.19082E+05 3.26468E+04 4.03311E+03 8.49864E+04-2.58495E-10-2.31989E-09
 -1       664 2.17045E+05 3.59261E+04 2.12838E+03 8.79888E+04 9.70959E-09-8.54024E-09
 -1       665 2.19335E+05 3.28808E+04 9.41942E+02 8.49969E+04 3.48817E-09-2.65507E-09
 -1       666 2.16751E+05 3.55805E+04 5.01366E+02 8.80091E+04 3.75695E-09-4.48870E-09
 -1       667 2.19363E+05 3.29038E+04 2.91967E+02 8.49990E+04 2.73045E-09-6.70610E-10
 -1       668 2.16724E+05 3.55575E+04 2.80492E+02 8.80111E+04 1.18459E-09-2.08615E-11
 -1       669 2.19362E+05 3.28995E+04 4.09321E+02 8.49970E+04-5.77108E-09 4.07567E-10
 -1       670 2.16775E+05 3.56094E+04 8.18836E+02 8.80206E+04-6.20929E-09-1.05399E-09
 -1       671 2.19316E+05 3.28548E+04 1.60240E+03 8.49897E+04 4.38047E-09 1.92927E-09
 -1       672 2.17282E+05 3.62111E+04 3.65969E+03 8.79941E+04 8.86070E-09 1.11640E-09
 -1       673 2.18882E+05 3.24479E+04 6.94835E+03 8.49690E+04 3.95596E-09 1.59071E-09
 -1       674 2.22600E+05 4.33725E+04 1.78404E+04 8.71667E+04 9.11471E-09 6.79461E-09
 -1       675 2.14333E+05 2.80285E+04 2.96270E+04 8.49416E+04 2.19143E-09 7.20320E-09
 -1       676 3.65265E+02-3.11623E+05-2.51832E+03-3.15881E+02-3.28802E-09-6.48441E-11
 -1       677-1.04653E+03-3.12614E+05-3.77898E+03-1.90498E+03-3.26335E-09 3.62036E-09
 -1       678 4.84793E+02-3.11494E+05-5.72385E+03-3.17997E+02-1.60821E-09 3.55556E-09
 -1       679-6.39181E+03-3.15856E+05-1.35008E+04-1.89639E+03-5.81144E-09-2.62281E-09
 -1       680 4.53086E+03-3.08383E+05-2.10321E+04-3.25526E+02-1.41881E-09 3.95409E-09
 -1       716-2.78782E-01-1.32855E-01 1.24794E+01-4.64052E-04 1.58677E-09-1.70946E-09
 -1       717 1.37351E+00 1.00169E+00 2.19785E+01 1.18211E-03-5.01493E-10-1.48495E-09
 -1       718-1.09442E+00-8.68865E-01 4.07859E+01-7.17323E-04-6.28378E-10-1.59873E-09
 -1       719 6.48522E+00 6.82243E+00 8.45975E+01-1.07218E-03-4.59778E-09 1.44081E-09
 -1       720-5.39055E+00-5.95395E+00 1.61351E+02 1.79105E-03-5.29985E-09-2.10854E-09
 -1       721 3.35647E+01 4.54574E+01 3.44835E+02-3.78080E-02-3.71136E-09-2.16033E-09
 -1       722-2.81738E+01-3.95024E+01 6.45415E+02 3.60138E-02-6.16335E-09-1.91378E-09
 -1       723 1.82488E+02 2.96612E+02 1.42163E+03-3.62808E-01 1.80670E-09-1.98960E-09
 -1       724-1.54308E+02-2.57079E+02 2.57433E+03 3.26716E-01-4.13002E-09-1.83854E-09
 -1       725 1.03366E+03 1.91132E+03 5.93306E+03-2.79014E+00-6.02788E-09-1.38425E-09
 -1       726-8.79216E+02-1.65392E+03 1.02079E+04 2.46285E+00-7.02176E-09-3.03498E-09
 -1       727 6.04837E+03 1.22221E+04 2.52001E+04-1.96265E+01-8.76435E-09-7.73070E-10
 -1       728-5.16683E+03-1.05655E+04 4.00932E+04 1.71628E+01-3.89930E-09-2.69574E-09
 -1       729 3.62595E+04 7.77837E+04 1.09708E+05-1.32008E+02 1.81046E-09-7.14863E-10
 -1       730-3.10539E+04-6.71939E+04 1.55046E+05 1.14891E+02 3.52006E-09-1.52795E-09
 -1       766-6.72075E+04-3.10896E+04 1.55018E+05-8.14059E+01-6.62112E-10-1.47381E-09
 -1       767 7.78946E+04 3.63203E+04 1.09697E+05-2.55449E+01 4.96948E-09-1.79817E-09
 -1       768-1.06628E+04-5.25267E+03 3.99616E+04 2.35357E+01-5.11136E-10-4.76135E-11
 -1       769 1.29361E+04 6.39529E+03 2.52132E+04-1.45431E+02 4.06726E-09 4.53141E-09
 -1       770-2.27028E+03-1.20076E+03 9.62464E+03 3.85221E+01-5.10681E-10 1.96110E-09
 -1       771-1.94663E+06-3.67137E+05-5.33662E+04-8.25891E+05-6.62112E-10 7.87259E-09
 -1       772-1.93946E+06-3.75492E+05-2.68539E+04-8.51883E+05 4.07454E-10 8.43465E-09
 -1       773-1.95045E+06-3.51878E+05-1.14839E+04-8.32873E+05 8.73115E-10 1.46611E-09
 -1       774-1.93326E+06-3.69397E+05-5.61189E+03-8.53604E+05 1.40244E-09-9.77707E-10
 -1       775-1.95131E+06-3.51111E+05-2.64198E+03-8.33296E+05-8.29459E-10 2.11548E-09
 -1       776-1.93316E+06-3.69152E+05-1.31698E+03-8.54109E+05-2.14095E-09 1.24692E-09
 -1       777-1.95178E+06-3.50880E+05-7.36380E+02-8.33450E+05 1.27329E-10-4.53383E-10
 -1       778-1.93336E+06-3.69104E+05-5.52278E+02-8.54474E+05 5.27507E-10 1.21560E-09
 -1       779-1.95207E+06-3.50692E+05-6.98299E+02-8.33559E+05-6.73026E-10-1.96451E-10
 -1       780-1.93357E+06-3.69074E+05-1.25767E+03-8.54728E+05-2.30284E-09-1.74805E-09
 -1       781-1.95217E+06-3.50545E+05-2.48811E+03-8.33616E+05-1.42882E-09 1.57343E-10
 -1       782-1.93404E+06-3.69279E+05-5.39040E+03-8.54874E+05 2.92312E-09 1.60890E-09
 -1       783-1.95190E+06-3.50895E+05-1.09818E+04-8.33370E+05 8.13486E-10-5.43332E-09
 -1       784-1.94001E+06-3.75576E+05-2.59048E+04-8.54268E+05-6.35509E-10-1.54341E-09
 -1       785-1.94901E+06-3.65009E+05-5.13774E+04-8.26381E+05-3.29692E-10 1.05138E-09
 -1       786 1.91266E+05-6.29315E+03 2.30680E+04-8.98068E+02-8.90168E-11-3.12866E-10
 -1       787 1.99907E+05 8.01525E+03 1.50698E+04-5.32330E+03-1.51630E-10-2.54477E-09
 -1       788 1.94831E+05-7.04091E+02 5.98988E+03-8.99083E+02 1.39266E-11-1.44200E-09
 -1       789 1.95902E+05 8.74517E+02 3.40750E+03-5.31573E+03 4.50882E-10-4.69242E-10
 -1       790 1.95268E+05-8.04451E+01 1.52559E+03-9.05356E+02 2.50338E-10-2.00453E-09
 -1       791 1.95405E+05 9.46060E+01 8.28597E+02-5.30711E+03-3.11140E-10 2.49743E-09
 -1       792 1.95326E+05-1.00763E+01 4.20758E+02-9.07703E+02 1.44041E-10 4.61938E-10
 -1       793 1.95341E+05 1.38592E+01 2.82194E+02-5.30678E+03-5.62750E-11-3.47224E-09
 -1       794 1.95332E+05-5.57210E+00 2.60209E+02-9.05690E+02 4.73790E-11-1.97084E-09
 -1       795 1.95362E+05 4.12594E+01 4.01008E+02-5.31539E+03 9.42009E-10 1.17377E-09
 -1       796 1.95308E+05-3.58997E+01 6.84936E+02-8.99092E+02 1.50993E-09-3.27717E-09
 -1       797 1.95580E+05 3.80192E+02 1.49777E+03-5.33156E+03 6.07696E-09-4.04199E-09
 -1       798 1.95117E+05-3.08775E+02 2.61964E+03-8.89522E+02 1.77897E-09 2.53988E-09
 -1       799 1.97331E+05 3.49724E+03 6.58301E+03-5.34348E+03-2.97462E-10 3.26975E-09
 -1       800 1.93561E+05-2.75043E+03 1.00723E+04-8.87345E+02 1.51090E-10 1.00999E-09
 -1       801-1.43257E+04 2.97478E+05 3.73955E+04-1.93155E+05 1.02700E-08-8.38190E-09
 -1       802 3.54673E+04 3.08975E+05 4.91118E+04-1.10474E+06 3.04826E-08-8.70750E-09
 -1       803-2.56534E+03 2.96452E+05 5.71677E+04-1.92937E+05 1.87501E-08 7.54005E-09
 -1       804 8.35569E+04 3.36697E+05 1.28939E+05-1.10463E+06 3.08137E-08 1.32131E-08
 -1       805-5.66177E+04 2.70515E+05 1.85345E+05-1.93283E+05 9.50240E-09 1.13505E-08
 -1       806-1.69229E+05-5.17382E+04-1.55671E+04-8.61422E+04 2.40766E-09-3.51974E-09
 -1       807-1.68737E+05-4.85574E+04-7.40289E+03-9.15824E+04-9.84528E-11-1.31763E-10
 -1       808-1.69208E+05-4.39542E+04-3.11540E+03-8.94217E+04 2.21144E-09-1.36796E-08
 -1       809-1.67180E+05-4.58574E+04-1.50623E+03-9.22074E+04 7.83803E-09-2.56418E-08
 -1       810-1.69255E+05-4.34478E+04-6.79910E+02-8.96501E+04 6.70093E-09-4.79031E-09
 -1       811-1.67031E+05-4.56882E+04-3.35633E+02-9.22308E+04 1.04569E-09-5.25574E-09
 -1       812-1.69268E+05-4.34370E+04-1.65293E+02-8.96593E+04 4.37822E-09 7.16136E-09
 -1       813-1.67013E+05-4.56861E+04-1.02301E+02-9.22250E+04 1.64516E-09 6.01676E-09
 -1       814-1.69267E+05-4.34429E+04-9.25328E+01-8.96564E+04 1.87720E-09 4.93401E-10
 -1       815-1.67014E+05-4.56912E+04-1.42399E+02-9.22202E+04 1.59207E-09-1.94586E-09
 -1       816-1.69254E+05-4.34529E+04-2.65456E+02-8.96490E+04-8.11724E-10 5.10227E-10
 -1       817-1.67070E+05-4.57510E+04-5.76660E+02-9.21950E+04 1.00226E-09 2.74395E-09
 -1       818-1.69221E+05-4.36592E+04-1.18792E+03-8.95655E+04-5.66342E-09-8.34416E-09
 -1       819-1.67725E+05-4.67088E+04-2.81849E+03-9.18656E+04-1.39653E-09-2.67119E-09
 -1       820-1.69150E+05-4.66883E+04-5.92572E+03-8.83856E+04 7.12134E-10 2.42812E-09
 -1       821-2.32212E+05 7.98788E+03-2.92936E+04 1.03340E+03-2.06319E-09 1.71531E-09
 -1       822-2.43170E+05-1.01777E+04-1.91364E+04 6.48819E+03-2.07274E-09 1.34537E-09
 -1       823-2.36739E+05 8.91792E+02-7.61002E+03 9.84598E+02 2.16983E-09-8.39009E-10
 -1       824-2.38098E+05-1.10336E+03-4.33212E+03 6.55984E+03-3.83807E-10-4.57067E-09
 -1       825-2.37294E+05 1.02187E+02-1.95098E+03 9.61299E+02-1.37334E-09-3.09103E-09
 -1       826-2.37476E+05-1.09734E+02-1.07921E+03 6.59818E+03-3.43078E-09-1.77442E-09
 -1       827-2.37367E+05 1.49126E+01-5.88892E+02 9.46144E+02 9.54401E-11-5.35238E-10
 -1       828-2.37406E+05-1.06367E+01-4.71500E+02 6.62173E+03 2.46359E-10-4.38763E-09
 -1       829-2.37369E+05 1.44642E+01-5.49779E+02 9.37729E+02 5.11761E-10-2.34379E-09
 -1       830-2.37472E+05-9.45762E+01-9.76065E+02 6.63109E+03 3.47197E-09 1.09827E-09
 -1       831-2.37304E+05 9.33258E+01-1.74681E+03 9.36788E+02-2.28292E-09-5.91740E-10
 -1       832-2.38031E+05-9.79330E+02-3.87073E+03 6.62553E+03 5.92578E-10-1.84912E-10
 -1       833-2.36809E+05 7.99319E+02-6.79342E+03 9.43395E+02 1.34321E-09 5.71163E-10
 -1       834-2.42564E+05-9.07836E+03-1.70841E+04 6.59710E+03 5.36329E-09 1.52068E-09
 -1       835-2.32768E+05 7.13516E+03-2.61483E+04 9.66106E+02 4.11251E-09 4.36557E-10
 -1       836-2.61253E+03 3.69787E+05 2.95371E+04-2.09510E+04-3.42425E-09 1.01136E-09
 -1       837 6.93962E+03 3.79212E+05 2.26974E+04-4.53523E+04-2.72257E-09 4.13593E-09
 -1       838-6.37700E+02 3.72904E+05 1.93269E+04-2.08951E+04-4.02906E-09 6.92083E-09
 -1       839 1.16311E+04 3.82583E+05 3.32902E+04-4.53532E+04-3.09046E-09 5.79695E-09
 -1       840-4.71784E+03 3.66411E+05 5.08549E+04-2.09489E+04-3.57613E-09 8.77662E-10
 -1       841 6.68173E+04 9.67200E+03-7.20104E+02 2.49261E+04-1.13229E-09-4.27843E-09
 -1       842 6.63165E+04 9.15465E+03-4.94136E+02 2.52170E+04-1.14661E-08 7.32141E-09
 -1       843 6.66495E+04 9.44543E+03-1.65608E+02 2.50122E+04-1.46776E-05 5.51509E-06
 -1       844 6.65203E+04 9.40884E+03-9.75289E+01 2.51070E+04-2.93447E-05 1.10412E-05
 -1       845 6.66134E+04 9.41788E+03-2.50251E+01 2.50360E+04-2.00667E-05 7.54180E-06
 -1       846 6.65694E+04 9.44136E+03 9.83452E+00 2.50742E+04-1.07770E-05 4.05365E-06
 -1       847 6.66004E+04 9.41293E+03 5.24977E+01 2.50449E+04-6.48427E-06 2.42979E-06
 -1       848 6.66044E+04 9.47579E+03 1.42454E+02 2.50586E+04-2.18962E-06 8.21718E-07
 -1       849 6.65785E+04 9.38345E+03 2.66628E+02 2.50517E+04-5.68757E-07 2.16171E-07
 -1       850 6.67419E+04 9.69955E+03 6.76182E+02 2.50211E+04 1.04888E-06-3.95324E-07
 -1       851 6.64628E+04 9.18920E+03 1.16829E+03 2.50824E+04 8.78134E-07-3.27989E-07
 -1       852 6.75675E+04 1.11229E+04 3.15491E+03 2.47743E+04 7.04973E-07-2.62596E-07
 -1       853 6.57528E+04 7.96030E+03 5.04545E+03 2.52983E+04-1.39314E-06 5.33021E-07
 -1       854 7.26664E+04 2.01296E+04 1.49611E+04 2.31034E+04-3.49850E-06 1.31006E-06
 -1       855 6.13641E+04 1.84031E+02 2.15347E+04 2.67528E+04-1.75155E-06 6.53026E-07
 -1       856-1.84745E+05 2.79511E+03-2.22630E+04 6.64615E+03-5.78621E-09-2.29466E-09
 -1       857-1.92022E+05-5.36936E+03-1.35968E+04 1.59785E+04-2.73917E-09-1.42427E-09
 -1       858-1.87892E+05 2.60029E+02-5.71631E+03 6.57151E+03-4.54747E-10-2.05432E-09
 -1       859-1.88613E+05-3.68568E+02-3.07538E+03 1.60641E+04 3.24724E-09 1.17620E-09
 -1       860-1.88192E+05 4.39603E+01-1.44310E+03 6.55877E+03 5.44742E-09 4.71459E-10
 -1       861-1.88298E+05 1.50384E+01-7.58705E+02 1.60811E+04 7.55563E-10-1.73989E-09
 -1       862-1.88231E+05 2.37292E+01-3.95703E+02 6.55426E+03 7.80642E-09-5.45214E-09
 -1       863-1.88264E+05 4.42998E+01-2.61234E+02 1.60860E+04 1.50158E-08-1.34708E-09
 -1       864-1.88235E+05 2.20184E+01-2.45084E+02 6.55382E+03 5.55178E-09-9.56049E-10
 -1       865-1.88271E+05 3.23280E+01-3.68978E+02 1.60821E+04 2.75742E-09-4.34795E-10
 -1       866-1.88217E+05 2.89635E+01-6.51086E+02 6.55814E+03-5.26620E-09-1.16196E-09
 -1       867-1.88402E+05-1.38726E+02-1.35792E+03 1.60672E+04-2.25054E-09 1.45654E-09
 -1       868-1.88082E+05 1.20466E+02-2.51318E+03 6.56890E+03 5.97356E-09-3.84603E-09
 -1       869-1.89886E+05-2.33703E+03-5.96654E+03 1.59859E+04-2.90038E-09-3.20784E-09
 -1       870-1.86698E+05 1.22730E+03-9.77057E+03 6.64026E+03 8.83119E-10-5.50244E-09
 -1       871-3.37151E+03-2.95451E+04-7.59329E+03 1.01714E+05 3.78532E-09-2.13186E-09
 -1       872-1.19326E+03-3.10693E+04-2.51856E+03 1.24048E+05-1.93359E-09 8.36735E-11
 -1       873-3.61038E+01-3.04667E+04 1.63525E+03 1.01508E+05 9.67248E-10-5.03178E-09
 -1       874 1.88968E+03-2.88361E+04 6.99136E+03 1.24114E+05-2.26191E-09-7.18228E-09
 -1       875 5.83526E+03-3.18632E+04 1.50373E+04 1.01659E+05 1.37334E-09-5.80621E-09
 -1       876 2.89691E+05 4.16308E+04 2.56109E+04 1.15041E+05 3.17266E-09 5.92991E-09
 -1       877 2.94456E+05 5.57852E+04 1.52215E+04 1.19585E+05-5.38125E-09-2.25305E-09
 -1       878 2.93480E+05 4.48283E+04 5.99166E+03 1.15253E+05 9.32914E-10 3.19096E-09
 -1       879 2.89983E+05 4.99694E+04 3.12944E+03 1.20207E+05-1.79477E-09 1.67245E-09
 -1       880 2.93819E+05 4.51200E+04 1.39098E+03 1.15286E+05 4.34193E-09 6.32576E-09
 -1       881 2.89582E+05 4.95093E+04 7.27391E+02 1.20210E+05 9.61279E-10-4.47267E-09
 -1       882 2.93851E+05 4.51555E+04 4.06331E+02 1.15294E+05 4.17810E-09-2.04934E-09
 -1       883 2.89548E+05 4.94721E+04 3.57592E+02 1.20199E+05-1.09929E-08-1.88558E-09
 -1       884 2.93847E+05 4.51561E+04 4.90265E+02 1.15296E+05 5.32054E-10 3.52094E-09
 -1       885 2.89604E+05 4.95173E+04 9.52664E+02 1.20204E+05 1.10396E-08 5.87875E-09
 -1       886 2.93796E+05 4.51141E+04 1.86297E+03 1.15288E+05-1.21855E-09 1.41665E-09
 -1       887 2.90151E+05 5.01308E+04 4.21308E+03 1.20186E+05-7.70615E-09 1.52886E-09
 -1       888 2.93331E+05 4.47264E+04 8.07599E+03 1.15246E+05-1.21418E-08-1.50339E-09
 -1       889 2.96171E+05 5.79817E+04 2.05209E+04 1.19353E+05 1.38174E-09-5.32964E-10
 -1       890 2.88231E+05 4.04058E+04 3.45305E+04 1.14944E+05-2.57660E-09-6.85759E-10
 -1       891 4.35624E+02-1.37381E+05-5.52083E+03 3.09142E+04-8.61291E-10 2.22917E-09
 -1       892-1.36825E+03-1.39097E+05-4.13204E+03 6.72222E+04-2.46700E-10-3.36854E-09
 -1       893 7.57406E+01-1.38004E+05-3.36153E+03 3.08268E+04 5.97038E-09-1.52227E-10
 -1       894-2.02950E+03-1.39547E+05-5.60576E+03 6.71985E+04 1.93631E-09-9.82254E-11
 -1       895 7.13388E+02-1.36896E+05-8.49035E+03 3.09374E+04 5.64432E-09 2.47519E-09
 -1       926-4.87945E+02-8.73177E+02 1.99686E+03 3.08682E+01 5.91198E-10-9.17112E-10
 -1       927 5.37766E+02 1.01092E+03 1.45635E+03-1.21561E+02-2.47481E-09-1.22674E-09
 -1       928-1.32615E+02-1.37949E+02 5.50470E+02 2.99780E+01 8.03944E-11-5.84407E-10
 -1       929 1.15435E+02 1.65008E+02 4.21687E+02-1.20647E+02 1.55797E-09-6.32308E-10
 -1       930-6.58389E+01-2.72672E+01 2.90365E+02 2.99538E+01 1.33316E-12-2.81352E-10
 -1       931 5.08255E+01 7.01514E+01 4.30691E+02-1.20631E+02-3.56042E-10-1.81082E-10
 -1       932-6.81768E+01-4.29908E+01 6.83075E+02 2.99617E+01 3.61284E-11-6.78710E-11
 -1       933 1.71722E+02 3.02897E+02 1.45641E+03-1.20615E+02-1.02222E-09 1.35628E-10
 -1       934-1.86848E+02-2.59903E+02 2.60762E+03 2.99375E+01-1.49033E-06-1.46542E-10
 -1       935 1.01934E+03 1.93042E+03 5.99675E+03-1.20423E+02-2.97867E-06-3.79487E-10
 -1       936-9.15735E+02-1.67019E+03 1.03113E+04 2.97702E+01-1.23682E-06-1.06411E-10
 -1       937 6.08178E+03 1.23432E+04 2.54511E+04-1.20091E+02 5.10416E-07 5.34783E-10
 -1       938-5.24706E+03-1.06703E+04 4.04911E+04 2.96053E+01 4.24320E-07-1.81899E-11
 -1       939 3.65997E+04 7.85565E+04 1.10798E+05-1.29284E+02 3.25984E-07 1.65528E-10
 -1       940-3.13965E+04-6.78621E+04 1.56582E+05 3.89606E+01 1.61852E-07 8.29459E-10
 -1       956-2.61947E+05-4.82838E+03-1.12548E+04 3.19809E+04-3.96176E-09-1.21190E-09
 -1       957-2.64112E+05-1.56636E+03-5.73606E+03 3.79383E+04-1.66256E-09-1.89084E-09
 -1       958-2.62932E+05-1.38090E+02-2.58391E+03 3.17860E+04 2.63753E-09 2.13322E-09
 -1       959-2.63127E+05-2.30723E+00-1.31659E+03 3.81506E+04-2.18597E-09 5.91535E-09
 -1       960-2.63040E+05 6.01641E+01-6.40206E+02 3.17666E+04-3.56522E-09 1.81899E-10
 -1       961-2.63068E+05 6.99590E+01-3.36081E+02 3.81726E+04-9.29685E-09 2.46928E-09
 -1       962-2.63071E+05 6.41800E+01-1.86669E+02 3.17637E+04-5.60158E-09-3.07750E-09
 -1       963-2.63074E+05 7.69832E+01-1.39330E+02 3.81763E+04-5.56861E-09 8.46967E-10
 -1       964-2.63081E+05 6.90594E+01-1.56659E+02 3.17628E+04 2.68301E-11-1.15824E-09
 -1       965-2.63087E+05 8.12583E+01-2.60343E+02 3.81761E+04 6.21628E-09 5.67979E-10
 -1       966-2.63073E+05 7.46518E+01-4.83256E+02 3.17639E+04-3.29896E-09-1.68757E-09
 -1       967-2.63146E+05 3.54673E+01-9.89211E+02 3.81635E+04 8.25366E-11 2.46314E-09
 -1       968-2.63003E+05-6.67811E+01-1.93774E+03 3.17756E+04 5.48880E-10-1.09821E-10
 -1       969-2.63898E+05-1.13200E+03-4.30336E+03 3.80324E+04 2.10798E-09-4.71744E-10
 -1       970-2.62272E+05-3.58242E+03-8.44214E+03 3.18984E+04 3.39969E-09-2.02726E-09
 -1       971-3.34582E+05 9.47389E+02-1.47087E+04 8.68176E+03-4.65207E-09 1.98270E-09
 -1       972-3.39102E+05-3.04644E+03-8.75512E+03 1.76439E+04-3.41061E-09-5.36602E-11
 -1       973-3.36578E+05 1.04413E+02-3.75212E+03 8.57743E+03-2.50520E-09-7.69433E-10
 -1       974-3.36977E+05-1.58845E+02-1.99555E+03 1.77661E+04 9.64064E-10-3.65606E-09
 -1       975-3.36756E+05 3.25617E+01-9.63490E+02 8.55822E+03 2.08456E-09-2.76464E-09
 -1       976-3.36808E+05 3.52682E+01-5.33499E+02 1.77936E+04-5.15388E-09 1.01033E-09
 -1       977-3.36782E+05 2.75813E+01-3.39382E+02 8.54968E+03 4.50086E-09-3.91634E-09
 -1       978-3.36802E+05 5.00729E+01-3.35642E+02 1.78051E+04 1.93263E-08 9.36495E-10
 -1       979-3.36781E+05 3.14273E+01-4.85696E+02 8.54673E+03 6.01491E-09-3.43653E-09
 -1       980-3.36842E+05 3.01872E+01-9.11311E+02 1.78049E+04 9.57155E-09-3.08641E-09
 -1       981-3.36742E+05 5.03669E+01-1.73494E+03 8.54980E+03 3.89946E-10-2.24999E-09
 -1       982-3.37179E+05-3.14713E+02-3.65231E+03 1.77908E+04-2.32114E-09-2.37793E-09
 -1       983-3.36427E+05 1.94371E+02-6.88606E+03 8.56123E+03 2.54522E-09-4.39422E-09
 -1       984-3.41120E+05-5.61107E+03-1.60965E+04 1.77028E+04-2.13163E-09 1.80421E-09
 -1       985-3.32770E+05 1.75991E+03-2.70364E+04 8.64128E+03 4.97357E-09-1.38061E-09
 -3
    1PSTEP                        27          14           1          
  100CL  114 6.43372E-01         608                     0   14           1
 -4  DISP        4    1
 -5  D1          1    2    1    0
 -5  D2          1    2    2    0
 -5  D3          1    2    3    0
 -5  ALL         1    2    0    0    1ALL
 -1         1 1.09058E-04 0.00000E+00 0.00000E+00
 -1         2 8.69116E-05 0.00000E+00 0.00000E+00
 -1         3 6.05350E-05 0.00000E+00 0.00000E+00
 -1         4 5.39476E-05 0.00000E+00 0.00000E+00
 -1         5 4.96371E-05 0.00000E+00 0.00000E+00
 -1         8 8.70339E-05-1.04168E-06 0.00000E+00
 -1         9 5.56825E-05-5.23296E-07 0.00000E+00
 -1        10 6.10397E-05-1.82611E-06 0.00000E+00
 -1        11 5.47413E-05-3.83273E-07 0.00000E+00
 -1        12 4.85310E-05 7.95322E-07 0.00000E+00
 -1        15 6.31056E-05-1.11769E-06-4.13590E-25
 -1        16 5.14403E-05-6.09589E-07 0.00000E+00
 -1        17 4.35498E-05-3.81719E-06 0.00000E+00
 -1        18 4.40353E-05-7.25417E-07 0.00000E+00
 -1        19 4.54957E-05 1.58229E-06 0.00000E+00
 -1        20 4.59727E-05 1.89360E-05 0.00000E+00
 -1        21 4.58318E-05 4.14797E-05 0.00000E+00
 -1        23 1.76628E-05-5.91260E-05-8.07794E-28
 -1        24 1.75260E-05-4.59317E-06 0.00000E+00
 -1        25 4.08801E-05-4.91926E-07 0.00000E+00
 -1        26 4.20287E-05 2.13118E-06 0.00000E+00
 -1        27 4.06127E-05 1.81549E-05 0.00000E+00
 -1        28 3.94766E-05 4.07804E-05 0.00000E+00
 -1        31 5.27761E-08-4.66510E-06 0.00000E+00
 -1        32 0.00000E+00 0.00000E+00 0.00000E+00
 -1        33 3.81386E-05 2.94933E-06 0.00000E+00
 -1        34 3.65568E-05 1.80824E-05 0.00000E+00
 -1        35 3.45302E-05 4.04709E-05 0.00000E+00
 -1        36 1.07719E-04 1.71543E-19-2.64698E-23
 -1        37 1.06334E-04 2.72164E-19 0.00000E+00
 -1        38 1.04952E-04 2.67400E-19 0.00000E+00
 -1        39 1.03562E-04 1.02691E-19 0.00000E+00
 -1        40 1.02171E-04 1.87391E-19 5.29396E-23
 -1        41 1.00779E-04 3.83926E-19 0.00000E+00
 -1        42 9.93866E-05 3.87582E-19 5.29396E-23
 -1        43 9.79939E-05 2.45034E-19 0.00000E+00
 -1        44 9.66010E-05 2.18633E-19-5.29396E-23
 -1        45 9.52084E-05 2.96981E-19 0.00000E+00
 -1        46 9.38159E-05 9.61482E-20-5.29396E-23
 -1        47 9.24248E-05 1.59120E-19-2.64698E-23
 -1        48 9.10338E-05 9.14787E-20-5.29396E-23
 -1        49 8.96495E-05 1.13425E-19 0.00000E+00
 -1        50 8.82630E-05 2.60372E-19 0.00000E+00
 -1        51 1.07424E-04-1.71585E-07 0.00000E+00
 -1        52 1.04683E-04-3.39555E-07 0.00000E+00
 -1        53 1.01050E-04-5.08177E-07 0.00000E+00
 -1        54 9.67471E-05-6.79303E-07 0.00000E+00
 -1        55 9.19998E-05-8.54589E-07-4.13590E-24
 -1        56 1.11526E-04-1.26565E-05-2.64698E-23
 -1        57 1.22041E-04-4.85508E-05 0.00000E+00
 -1        58 1.38147E-04-1.01375E-04 0.00000E+00
 -1        59 1.57216E-04-1.63662E-04-2.64698E-23
 -1        60 1.76181E-04-2.25619E-04 0.00000E+00
 -1        61 1.91963E-04-2.77484E-04 0.00000E+00
 -1        62 2.01990E-04-3.11974E-04 5.29396E-23
 -1        63 2.03779E-04-3.23009E-04 0.00000E+00
 -1        64 1.96552E-04-3.10119E-04-5.29396E-23
 -1        65 1.80114E-04-2.74365E-04 2.64698E-23
 -1        66 1.56685E-04-2.22102E-04 5.29396E-23
 -1        67 1.29200E-04-1.60620E-04 2.64698E-23
 -1        68 1.01790E-04-9.93081E-05-5.29396E-23
 -1        69 7.85914E-05-4.75385E-05 0.00000E+00
 -1        70 6.24784E-05-1.25360E-05 0.00000E+00
 -1        86 8.49945E-05-8.80351E-08-6.61744E-24
 -1        87 7.93974E-05-1.71080E-07-3.30872E-24
 -1        88 7.18910E-05-2.66725E-07 0.00000E+00
 -1        89 6.42503E-05-3.61508E-07 1.65436E-24
 -1        90 5.82554E-05-4.45360E-07-6.61744E-24
 -1        91 8.54397E-05-3.92072E-07 0.00000E+00
 -1        92 8.38214E-05-5.10924E-07 0.00000E+00
 -1        93 8.21700E-05-5.33627E-07 5.29396E-23
 -1        94 8.05506E-05-6.62737E-07-2.64698E-23
 -1        95 7.89458E-05-8.30898E-07 0.00000E+00
 -1        96 7.73291E-05-9.71224E-07 0.00000E+00
 -1        97 7.57059E-05-1.09439E-06 0.00000E+00
 -1        98 7.40806E-05-1.21277E-06-2.64698E-23
 -1        99 7.24609E-05-1.34605E-06 0.00000E+00
 -1       100 7.08542E-05-1.51293E-06 0.00000E+00
 -1       101 6.92359E-05-1.64877E-06 0.00000E+00
 -1       102 6.75840E-05-1.69033E-06-2.64698E-23
 -1       103 6.59617E-05-1.81064E-06-5.29396E-23
 -1       104 6.44403E-05-2.17376E-06 1.32349E-23
 -1       105 6.28380E-05-2.33134E-06-2.64698E-23
 -1       106 6.01269E-05-4.07405E-19 1.32349E-23
 -1       107 5.97146E-05-1.73794E-18 6.61744E-24
 -1       108 5.93025E-05-2.19974E-18 0.00000E+00
 -1       109 5.88897E-05-6.53752E-19 6.61744E-24
 -1       110 5.84768E-05 5.38359E-19 1.32349E-23
 -1       111 5.80638E-05-2.09309E-19 6.61744E-24
 -1       112 5.76508E-05-1.75947E-18 0.00000E+00
 -1       113 5.72377E-05-2.74773E-18-6.61744E-24
 -1       114 5.68247E-05-2.66656E-18-1.32349E-23
 -1       115 5.64117E-05-1.21454E-18 0.00000E+00
 -1       116 5.59988E-05-4.46753E-19 0.00000E+00
 -1       117 5.55861E-05-2.19733E-18 6.61744E-24
 -1       118 5.51735E-05-3.75917E-18-1.32349E-23
 -1       119 5.47625E-05-2.64282E-18 0.00000E+00
 -1       120 5.43510E-05-8.19871E-19 0.00000E+00
 -1       121 6.07769E-05-3.04208E-07 0.00000E+00
 -1       122 6.12810E-05-6.08291E-07 0.00000E+00
 -1       123 6.18032E-05-9.12410E-07 0.00000E+00
 -1       124 6.20991E-05-1.21655E-06 3.30872E-24
 -1       125 6.19252E-05-1.52070E-06 6.61744E-24
 -1       141 5.36791E-05-7.27108E-19 6.61744E-24
 -1       142 5.34081E-05-2.18196E-18 0.00000E+00
 -1       143 5.31372E-05-2.61024E-18 6.61744E-24
 -1       144 5.28659E-05-3.37873E-19 0.00000E+00
 -1       145 5.25945E-05 2.51739E-18 0.00000E+00
 -1       146 5.23231E-05 4.09340E-18-3.30872E-24
 -1       147 5.20517E-05 4.10612E-18-6.61744E-24
 -1       148 5.17802E-05 2.10706E-18 3.30872E-24
 -1       149 5.15088E-05 3.28904E-19-6.61744E-24
 -1       150 5.12375E-05 1.31818E-18-3.30872E-24
 -1       151 5.09663E-05 3.88854E-18 6.61744E-24
 -1       152 5.06957E-05 6.43351E-18-3.30872E-24
 -1       153 5.04252E-05 7.15251E-18 0.00000E+00
 -1       154 5.01578E-05 4.48940E-18 0.00000E+00
 -1       155 4.98894E-05 1.14157E-18-1.65436E-24
 -1       156 5.66576E-05-3.18617E-08 0.00000E+00
 -1       157 6.47577E-05-8.38655E-08 0.00000E+00
 -1       158 7.32576E-05-1.39446E-07-1.65436E-24
 -1       159 7.71673E-05-1.66659E-07 0.00000E+00
 -1       160 7.23660E-05-2.03505E-07 0.00000E+00
 -1       161 5.64110E-05-7.14125E-06-6.61744E-24
 -1       162 6.39704E-05-2.84404E-05 0.00000E+00
 -1       163 7.15135E-05-4.96958E-05 6.61744E-24
 -1       164 7.39325E-05-5.67044E-05 1.65436E-24
 -1       165 7.10146E-05-4.94884E-05-3.30872E-24
 -1       166 6.25869E-05-2.81745E-05 0.00000E+00
 -1       167 5.41512E-05-6.84006E-06-3.30872E-24
 -1       168 5.12097E-05 4.37796E-07 1.65436E-24
 -1       169 5.36059E-05-6.50863E-06 0.00000E+00
 -1       170 6.11422E-05-2.77426E-05 0.00000E+00
 -1       171 6.87040E-05-4.90472E-05 0.00000E+00
 -1       172 7.11784E-05-5.62047E-05 1.65436E-24
 -1       173 6.83198E-05-4.91420E-05 3.30872E-24
 -1       174 5.99205E-05-2.78919E-05 0.00000E+00
 -1       175 5.14843E-05-6.54976E-06 0.00000E+00
 -1       191 4.96002E-05 1.32485E-07-6.61744E-24
 -1       192 4.95028E-05 2.65084E-07 0.00000E+00
 -1       193 4.93459E-05 3.97706E-07 0.00000E+00
 -1       194 4.91306E-05 5.30318E-07 0.00000E+00
 -1       195 4.88584E-05 6.62887E-07 6.61744E-24
 -1       266 8.30459E-05-1.06942E-06-6.61744E-24
 -1       267 7.90579E-05-1.08024E-06 1.65436E-24
 -1       268 7.50698E-05-1.09216E-06 0.00000E+00
 -1       269 7.10817E-05-1.10088E-06-4.13590E-25
 -1       270 6.70937E-05-1.10954E-06 4.13590E-25
 -1       271 8.37763E-05 1.91790E-06 0.00000E+00
 -1       272 8.06905E-05 4.22803E-06-2.64698E-23
 -1       273 7.78363E-05 5.93123E-06 0.00000E+00
 -1       274 7.51901E-05 7.05379E-06-2.64698E-23
 -1       275 7.27443E-05 7.64133E-06 0.00000E+00
 -1       276 7.04779E-05 7.74731E-06 2.64698E-23
 -1       277 6.83678E-05 7.43577E-06 5.29396E-23
 -1       278 6.63871E-05 6.77917E-06 0.00000E+00
 -1       279 6.45057E-05 5.85715E-06 5.29396E-23
 -1       280 6.26922E-05 4.75497E-06 0.00000E+00
 -1       281 6.09131E-05 3.56146E-06-5.29396E-23
 -1       282 5.91357E-05 2.36769E-06 0.00000E+00
 -1       283 5.73254E-05 1.26427E-06-5.29396E-23
 -1       284 5.54560E-05 3.42768E-07 2.64698E-23
 -1       285 5.34860E-05-3.15148E-07 5.29396E-23
 -1       286 5.59931E-05 1.46332E-09 0.00000E+00
 -1       287 5.63290E-05 1.16865E-08 0.00000E+00
 -1       288 5.66633E-05-2.33187E-07 6.61744E-24
 -1       289 5.70025E-05-4.77889E-07-3.30872E-24
 -1       290 5.73417E-05-7.22508E-07 0.00000E+00
 -1       291 5.76819E-05-9.67129E-07 6.61744E-24
 -1       292 5.80222E-05-1.21175E-06 0.00000E+00
 -1       293 5.83627E-05-1.45637E-06 0.00000E+00
 -1       294 5.87032E-05-1.70099E-06 0.00000E+00
 -1       295 5.90435E-05-1.94561E-06-6.61744E-24
 -1       296 5.93837E-05-2.19023E-06 1.32349E-23
 -1       297 5.97228E-05-2.43485E-06 0.00000E+00
 -1       298 6.00618E-05-2.67953E-06-6.61744E-24
 -1       299 6.03957E-05-2.92436E-06-3.30872E-24
 -1       300 6.07314E-05-2.77387E-06 0.00000E+00
 -1       301 5.49086E-05-5.40462E-07 0.00000E+00
 -1       302 5.41604E-05-5.45888E-07 1.65436E-24
 -1       303 5.34386E-05-5.50284E-07-3.30872E-24
 -1       304 5.27442E-05-5.56686E-07 3.30872E-24
 -1       305 5.20779E-05-5.67986E-07 0.00000E+00
 -1       306 5.47776E-05-2.82393E-07 1.32349E-23
 -1       307 5.40318E-05-5.23366E-07 0.00000E+00
 -1       308 5.34329E-05-1.15445E-06 2.64698E-23
 -1       309 5.29444E-05-2.08899E-06-1.32349E-23
 -1       310 5.25349E-05-3.23586E-06 0.00000E+00
 -1       311 5.21700E-05-4.50321E-06 0.00000E+00
 -1       312 5.18153E-05-5.79801E-06 0.00000E+00
 -1       313 5.14359E-05-7.02722E-06 0.00000E+00
 -1       314 5.09973E-05-8.09818E-06 2.64698E-23
 -1       315 5.04654E-05-8.91954E-06 1.32349E-23
 -1       316 4.98067E-05-9.40199E-06 0.00000E+00
 -1       317 4.89890E-05-9.45875E-06 0.00000E+00
 -1       318 4.79807E-05-9.00662E-06 0.00000E+00
 -1       319 4.67548E-05-7.96522E-06-6.61744E-24
 -1       320 4.52784E-05-6.26143E-06-1.32349E-23
 -1       321 6.07411E-05 5.86919E-06 0.00000E+00
 -1       322 6.02791E-05 2.61513E-05 0.00000E+00
 -1       323 5.98907E-05 4.09736E-05 0.00000E+00
 -1       324 5.95726E-05 3.23611E-05 3.30872E-24
 -1       325 5.91037E-05 1.14142E-05 6.61744E-24
 -1       326 5.86126E-05-1.06143E-05 3.30872E-24
 -1       327 5.82762E-05-2.11076E-05-6.61744E-24
 -1       328 5.79053E-05-7.59115E-06 3.30872E-24
 -1       329 5.74463E-05 1.26318E-05-6.61744E-24
 -1       330 5.71392E-05 2.21737E-05 3.30872E-24
 -1       331 5.68534E-05 1.70645E-05 0.00000E+00
 -1       332 5.63148E-05-6.48443E-06 0.00000E+00
 -1       333 5.57917E-05-2.92244E-05 0.00000E+00
 -1       334 5.55131E-05-3.19157E-05-3.30872E-24
 -1       335 5.51888E-05-2.03219E-05 6.61744E-24
 -1       336 5.92256E-05-2.15707E-06-1.32349E-23
 -1       337 5.66793E-05-2.48948E-06-3.30872E-24
 -1       338 5.36181E-05-2.82308E-06 0.00000E+00
 -1       339 5.02621E-05-3.15654E-06-3.30872E-24
 -1       340 4.68323E-05-3.49041E-06 0.00000E+00
 -1       356 5.42967E-05 1.93969E-05 0.00000E+00
 -1       357 5.39774E-05 3.05176E-05 0.00000E+00
 -1       358 5.36986E-05 2.74421E-05-6.61744E-24
 -1       359 5.31788E-05 4.80911E-06 0.00000E+00
 -1       360 5.26494E-05-1.83256E-05 6.61744E-24
 -1       361 5.23659E-05-2.29010E-05 3.30872E-24
 -1       362 5.20567E-05-1.30523E-05 0.00000E+00
 -1       363 5.16034E-05 6.90720E-06 3.30872E-24
 -1       364 5.12390E-05 1.99526E-05 0.00000E+00
 -1       365 5.09000E-05 9.14592E-06-3.30872E-24
 -1       366 5.04102E-05-1.28450E-05 6.61744E-24
 -1       367 4.99537E-05-3.32146E-05-3.30872E-24
 -1       368 4.96427E-05-4.11929E-05-6.61744E-24
 -1       369 4.92570E-05-2.61639E-05 3.30872E-24
 -1       370 4.88030E-05-6.14248E-06 1.65436E-24
 -1       371 3.64329E-05-5.73273E-07-1.65436E-24
 -1       372 2.95848E-05-6.19674E-07-8.27181E-25
 -1       373 3.07269E-05-6.39625E-07 0.00000E+00
 -1       374 3.63819E-05-6.73336E-07 0.00000E+00
 -1       375 4.22510E-05-7.08003E-07 2.06795E-25
 -1       406 4.81410E-05 9.27220E-07-6.61744E-24
 -1       407 4.77005E-05 1.05914E-06 3.30872E-24
 -1       408 4.72124E-05 1.19097E-06 0.00000E+00
 -1       409 4.66800E-05 1.32250E-06 0.00000E+00
 -1       410 4.61066E-05 1.45342E-06 3.30872E-24
 -1       501 5.12684E-05 9.01143E-06 1.32349E-23
 -1       502 5.08030E-05 3.65634E-05 0.00000E+00
 -1       503 5.02080E-05 6.89214E-05-6.61744E-24
 -1       504 4.98444E-05 9.29509E-05 1.65436E-24
 -1       505 4.97054E-05 1.00919E-04 3.30872E-24
 -1       506 4.94790E-05 8.51609E-05-1.65436E-24
 -1       507 4.88038E-05 5.02858E-05-3.30872E-24
 -1       508 4.75443E-05 9.84651E-07 1.65436E-24
 -1       509 4.62546E-05-4.89863E-05 3.30872E-24
 -1       510 4.55120E-05-8.58685E-05-1.65436E-24
 -1       511 4.52427E-05-1.04246E-04 0.00000E+00
 -1       512 4.51208E-05-9.87808E-05 1.65436E-24
 -1       513 4.47943E-05-7.64129E-05 0.00000E+00
 -1       514 4.42065E-05-4.41559E-05 1.65436E-24
 -1       515 4.37160E-05-1.54733E-05 0.00000E+00
 -1       521 4.93993E-05-9.10527E-07 5.29396E-23
 -1       522 4.74415E-05-1.59515E-06 0.00000E+00
 -1       523 4.55942E-05-2.56933E-06-5.29396E-23
 -1       524 4.38175E-05-3.75653E-06 0.00000E+00
 -1       525 4.20872E-05-5.06982E-06-5.29396E-23
 -1       526 4.03700E-05-6.42238E-06 0.00000E+00
 -1       527 3.86342E-05-7.72602E-06 0.00000E+00
 -1       528 3.68473E-05-8.89401E-06 2.64698E-23
 -1       529 3.49781E-05-9.84228E-06 0.00000E+00
 -1       530 3.29971E-05-1.04914E-05-2.64698E-23
 -1       531 3.08766E-05-1.07683E-05 0.00000E+00
 -1       532 2.85931E-05-1.06072E-05 2.64698E-23
 -1       533 2.61247E-05-9.95204E-06 5.29396E-23
 -1       534 2.34611E-05-8.75418E-06 0.00000E+00
 -1       535 2.05790E-05-6.98237E-06-5.29396E-23
 -1       536 4.35678E-05-1.07325E-06 0.00000E+00
 -1       537 4.35958E-05 1.00390E-06 4.13590E-25
 -1       538 4.36246E-05 2.48447E-06 2.06795E-25
 -1       539 4.36553E-05 3.43889E-06-1.03398E-25
 -1       540 4.36866E-05 3.93729E-06 4.13590E-25
 -1       541 4.37182E-05 4.04966E-06 4.13590E-25
 -1       542 4.37499E-05 3.84587E-06 0.00000E+00
 -1       543 4.37816E-05 3.39565E-06 4.13590E-25
 -1       544 4.38132E-05 2.76868E-06 0.00000E+00
 -1       545 4.38448E-05 2.03454E-06 4.13590E-25
 -1       546 4.38764E-05 1.26278E-06 0.00000E+00
 -1       547 4.39079E-05 5.22964E-07-4.13590E-25
 -1       548 4.39396E-05-1.15378E-07 8.27181E-25
 -1       549 4.39714E-05-5.82658E-07 0.00000E+00
 -1       550 4.40032E-05-8.09192E-07 0.00000E+00
 -1       551 3.96839E-05-3.93969E-06 8.27181E-25
 -1       552 3.53529E-05-4.06169E-06 2.06795E-24
 -1       553 3.07626E-05-4.18511E-06-3.30872E-24
 -1       554 2.61223E-05-4.31112E-06 0.00000E+00
 -1       555 2.16413E-05-4.44071E-06 0.00000E+00
 -1       556 4.24655E-05-1.18906E-06 0.00000E+00
 -1       557 4.16182E-05 8.24614E-07-6.61744E-24
 -1       558 4.09813E-05 2.28194E-06 0.00000E+00
 -1       559 4.05306E-05 3.24613E-06 0.00000E+00
 -1       560 4.02418E-05 3.78036E-06 6.61744E-24
 -1       561 4.00907E-05 3.94824E-06 0.00000E+00
 -1       562 4.00531E-05 3.81347E-06 6.61744E-24
 -1       563 4.01052E-05 3.43980E-06 0.00000E+00
 -1       564 4.02229E-05 2.89103E-06 0.00000E+00
 -1       565 4.03822E-05 2.23099E-06 0.00000E+00
 -1       566 4.05594E-05 1.52354E-06-1.65436E-24
 -1       567 4.07304E-05 8.32547E-07 0.00000E+00
 -1       568 4.08715E-05 2.21853E-07-1.44757E-24
 -1       569 4.09589E-05-2.44765E-07 0.00000E+00
 -1       570 4.09688E-05-5.03564E-07 0.00000E+00
 -1       571 4.41236E-05-5.42686E-07-1.24077E-24
 -1       572 4.42141E-05-4.17664E-07 4.13590E-25
 -1       573 4.43052E-05-3.39590E-07 3.30872E-24
 -1       574 4.43967E-05-2.97162E-07 8.27181E-25
 -1       575 4.44883E-05-2.79035E-07 0.00000E+00
 -1       576 4.45800E-05-2.73789E-07 0.00000E+00
 -1       577 4.46717E-05-2.70000E-07 3.30872E-24
 -1       578 4.47634E-05-2.56234E-07 0.00000E+00
 -1       579 4.48550E-05-2.21058E-07-3.30872E-24
 -1       580 4.49467E-05-1.53035E-07 0.00000E+00
 -1       581 4.50384E-05-4.07325E-08 0.00000E+00
 -1       582 4.51301E-05 1.27273E-07 0.00000E+00
 -1       583 4.52217E-05 3.62395E-07 0.00000E+00
 -1       584 4.53133E-05 6.75930E-07 3.30872E-24
 -1       585 4.54047E-05 1.07911E-06 0.00000E+00
 -1       586 4.35811E-05-6.85563E-07-3.30872E-24
 -1       587 4.30562E-05-6.45726E-07 0.00000E+00
 -1       588 4.24918E-05-6.06005E-07-1.65436E-24
 -1       589 4.19199E-05-5.66632E-07 0.00000E+00
 -1       590 4.13722E-05-5.27967E-07 0.00000E+00
 -1       591 4.39004E-05-5.08171E-07 8.27181E-25
 -1       592 4.37760E-05-3.31410E-07 0.00000E+00
 -1       593 4.36630E-05-1.86773E-07 0.00000E+00
 -1       594 4.35588E-05-6.68561E-08 8.27181E-25
 -1       595 4.34610E-05 3.57782E-08 0.00000E+00
 -1       596 4.33668E-05 1.28504E-07 8.27181E-25
 -1       597 4.32735E-05 2.18688E-07 0.00000E+00
 -1       598 4.31784E-05 3.13687E-07-8.27181E-25
 -1       599 4.30787E-05 4.20862E-07-1.65436E-24
 -1       600 4.29717E-05 5.47566E-07 0.00000E+00
 -1       601 4.28547E-05 7.01154E-07 1.65436E-24
 -1       602 4.27248E-05 8.88990E-07 0.00000E+00
 -1       603 4.25795E-05 1.11844E-06 4.13590E-25
 -1       604 4.24163E-05 1.39691E-06-2.58494E-25
 -1       605 4.22324E-05 1.73178E-06-4.13590E-25
 -1       606 4.55291E-05 2.25892E-06 0.00000E+00
 -1       607 4.55600E-05 3.01464E-06 0.00000E+00
 -1       608 4.55903E-05 3.84474E-06 0.00000E+00
 -1       609 4.56202E-05 4.74387E-06 1.65436E-24
 -1       610 4.56500E-05 5.70667E-06-3.30872E-24
 -1       611 4.56796E-05 6.72769E-06 0.00000E+00
 -1       612 4.57092E-05 7.80144E-06 0.00000E+00
 -1       613 4.57387E-05 8.92248E-06 0.00000E+00
 -1       614 4.57682E-05 1.00853E-05 0.00000E+00
 -1       615 4.57976E-05 1.12845E-05 0.00000E+00
 -1       616 4.58270E-05 1.25145E-05 0.00000E+00
 -1       617 4.58563E-05 1.37699E-05 0.00000E+00
 -1       618 4.58856E-05 1.50452E-05 0.00000E+00
 -1       619 4.59148E-05 1.63350E-05 0.00000E+00
 -1       620 4.59439E-05 1.76337E-05-8.27181E-25
 -1       621 4.48691E-05 1.67424E-06 0.00000E+00
 -1       622 4.42519E-05 1.76651E-06 0.00000E+00
 -1       623 4.36516E-05 1.85874E-06-1.65436E-24
 -1       624 4.30759E-05 1.95073E-06 0.00000E+00
 -1       625 4.25325E-05 2.04228E-06 0.00000E+00
 -1       626 4.53107E-05 2.30115E-06 0.00000E+00
 -1       627 4.50942E-05 3.10270E-06 0.00000E+00
 -1       628 4.48493E-05 3.97900E-06 0.00000E+00
 -1       629 4.45796E-05 4.92133E-06 0.00000E+00
 -1       630 4.42884E-05 5.92092E-06 0.00000E+00
 -1       631 4.39789E-05 6.96889E-06-3.30872E-24
 -1       632 4.36546E-05 8.05634E-06 0.00000E+00
 -1       633 4.33188E-05 9.17444E-06-1.65436E-24
 -1       634 4.29748E-05 1.03143E-05 0.00000E+00
 -1       635 4.26259E-05 1.14669E-05-1.65436E-24
 -1       636 4.22755E-05 1.26236E-05 1.65436E-24
 -1       637 4.19270E-05 1.37753E-05 0.00000E+00
 -1       638 4.15835E-05 1.49133E-05 0.00000E+00
 -1       639 4.12482E-05 1.60285E-05 0.00000E+00
 -1       640 4.09241E-05 1.71121E-05-1.24077E-24
 -1       641 4.59657E-05 2.02476E-05 2.06795E-25
 -1       642 4.59575E-05 2.16249E-05-6.46235E-27
 -1       643 4.59493E-05 2.30590E-05-1.03398E-25
 -1       644 4.59408E-05 2.45405E-05 1.03398E-25
 -1       645 4.59323E-05 2.60574E-05 0.00000E+00
 -1       646 4.59237E-05 2.75974E-05 0.00000E+00
 -1       647 4.59150E-05 2.91466E-05 0.00000E+00
 -1       648 4.59063E-05 3.06914E-05-1.03398E-25
 -1       649 4.58977E-05 3.22183E-05 2.06795E-25
 -1       650 4.58891E-05 3.37138E-05 0.00000E+00
 -1       651 4.58805E-05 3.51664E-05-4.13590E-25
 -1       652 4.58718E-05 3.65649E-05 0.00000E+00
 -1       653 4.58632E-05 3.79014E-05-8.27181E-25
 -1       654 4.58538E-05 3.91681E-05-4.13590E-25
 -1       655 4.58449E-05 4.03619E-05 1.65436E-24
 -1       656 4.48277E-05 1.88097E-05 0.00000E+00
 -1       657 4.38779E-05 1.86773E-05 1.65436E-24
 -1       658 4.30527E-05 1.85453E-05 3.30872E-24
 -1       659 4.22808E-05 1.84133E-05 0.00000E+00
 -1       660 4.14911E-05 1.82811E-05 1.65436E-24
 -1       661 4.55731E-05 2.02756E-05 0.00000E+00
 -1       662 4.51606E-05 2.16590E-05-1.65436E-24
 -1       663 4.47353E-05 2.30765E-05-3.30872E-24
 -1       664 4.43008E-05 2.45199E-05 0.00000E+00
 -1       665 4.38597E-05 2.59806E-05-3.30872E-24
 -1       666 4.34154E-05 2.74502E-05-1.65436E-24
 -1       667 4.29710E-05 2.89203E-05 3.30872E-24
 -1       668 4.25295E-05 3.03825E-05 0.00000E+00
 -1       669 4.20942E-05 3.18284E-05 3.30872E-24
 -1       670 4.16681E-05 3.32495E-05 1.65436E-24
 -1       671 4.12545E-05 3.46375E-05-3.30872E-24
 -1       672 4.08565E-05 3.59838E-05 1.65436E-24
 -1       673 4.04772E-05 3.72800E-05 3.30872E-24
 -1       674 4.01192E-05 3.85174E-05 8.27181E-25
 -1       675 3.97864E-05 3.96877E-05 0.00000E+00
 -1       676 4.47519E-05 4.13623E-05 3.30872E-24
 -1       677 4.36756E-05 4.12448E-05 1.65436E-24
 -1       678 4.26064E-05 4.11274E-05 0.00000E+00
 -1       679 4.15478E-05 4.10106E-05 1.65436E-24
 -1       680 4.05034E-05 4.08936E-05-1.65436E-24
 -1       716 1.76572E-05-5.57177E-05 8.07794E-28
 -1       717 1.76516E-05-5.23094E-05-8.07794E-28
 -1       718 1.76461E-05-4.89011E-05 0.00000E+00
 -1       719 1.76405E-05-4.54928E-05 3.23117E-27
 -1       720 1.76349E-05-4.20845E-05 0.00000E+00
 -1       721 1.76293E-05-3.86761E-05-1.29247E-26
 -1       722 1.76237E-05-3.52678E-05 0.00000E+00
 -1       723 1.76180E-05-3.18595E-05 0.00000E+00
 -1       724 1.76123E-05-2.84512E-05 0.00000E+00
 -1       725 1.76064E-05-2.50429E-05 2.06795E-25
 -1       726 1.76004E-05-2.16346E-05 8.27181E-25
 -1       727 1.75933E-05-1.82263E-05 8.27181E-25
 -1       728 1.75861E-05-1.48180E-05 3.30872E-24
 -1       729 1.75738E-05-1.14097E-05 0.00000E+00
 -1       730 1.75632E-05-8.00136E-06 1.32349E-23
 -1       766 1.41632E-05-4.63028E-06 0.00000E+00
 -1       767 1.08916E-05-4.64044E-06-3.30872E-24
 -1       768 7.77808E-06-4.65181E-06 0.00000E+00
 -1       769 4.88936E-06-4.65747E-06-8.27181E-25
 -1       770 2.29209E-06-4.66214E-06 0.00000E+00
 -1       771 1.55298E-05-1.88622E-06 2.64698E-23
 -1       772 1.37311E-05 2.71131E-07-1.32349E-23
 -1       773 1.21206E-05 1.92562E-06-2.64698E-23
 -1       774 1.06807E-05 3.12520E-06 0.00000E+00
 -1       775 9.39347E-06 3.91819E-06-2.64698E-23
 -1       776 8.24065E-06 4.35354E-06 0.00000E+00
 -1       777 7.20366E-06 4.48047E-06-2.64698E-23
 -1       778 6.26382E-06 4.34861E-06 0.00000E+00
 -1       779 5.40239E-06 4.00781E-06 2.64698E-23
 -1       780 4.60055E-06 3.50820E-06 0.00000E+00
 -1       781 3.83947E-06 2.90005E-06 0.00000E+00
 -1       782 3.10035E-06 2.23381E-06 0.00000E+00
 -1       783 2.36440E-06 1.55994E-06-2.64698E-23
 -1       784 1.61338E-06 9.29086E-07-1.32349E-23
 -1       785 8.28846E-07 3.91763E-07-2.64698E-23
 -1       786 4.09477E-05-2.13075E-07 8.27181E-25
 -1       787 4.10194E-05 1.18668E-09 0.00000E+00
 -1       788 4.10909E-05 1.61467E-07 0.00000E+00
 -1       789 4.11631E-05 2.78365E-07 0.00000E+00
 -1       790 4.12353E-05 3.62437E-07 1.65436E-24
 -1       791 4.13077E-05 4.24217E-07 8.27181E-25
 -1       792 4.13800E-05 4.74221E-07-1.65436E-24
 -1       793 4.14525E-05 5.22951E-07-8.27181E-25
 -1       794 4.15249E-05 5.80913E-07 0.00000E+00
 -1       795 4.15973E-05 6.58619E-07 8.27181E-25
 -1       796 4.16697E-05 7.66594E-07-1.65436E-24
 -1       797 4.17420E-05 9.15393E-07-8.27181E-25
 -1       798 4.18143E-05 1.11560E-06-1.65436E-24
 -1       799 4.18863E-05 1.37784E-06-8.27181E-25
 -1       800 4.19584E-05 1.71280E-06-1.65436E-24
 -1       801 3.75032E-05-3.88127E-07-3.30872E-24
 -1       802 2.99345E-05-2.99260E-07 0.00000E+00
 -1       803 2.02868E-05-2.26349E-07 0.00000E+00
 -1       804 1.06731E-05-1.57441E-07 0.00000E+00
 -1       805 3.20639E-06-7.21404E-08 0.00000E+00
 -1       806 4.07013E-05-2.47347E-07 0.00000E+00
 -1       807 4.05322E-05-3.63121E-08-1.65436E-24
 -1       808 4.03725E-05 1.47796E-07 0.00000E+00
 -1       809 4.02202E-05 3.11297E-07 0.00000E+00
 -1       810 4.00731E-05 4.60494E-07 3.30872E-24
 -1       811 3.99290E-05 6.01662E-07 0.00000E+00
 -1       812 3.97855E-05 7.41071E-07 0.00000E+00
 -1       813 3.96403E-05 8.84985E-07 0.00000E+00
 -1       814 3.94911E-05 1.03967E-06 1.65436E-24
 -1       815 3.93355E-05 1.21140E-06 1.65436E-24
 -1       816 3.91711E-05 1.40641E-06 3.30872E-24
 -1       817 3.89957E-05 1.63099E-06 1.24077E-24
 -1       818 3.88069E-05 1.89138E-06 0.00000E+00
 -1       819 3.86024E-05 2.19380E-06-4.13590E-25
 -1       820 3.83801E-05 2.54446E-06 1.65436E-24
 -1       821 4.19455E-05 2.66432E-06 8.27181E-25
 -1       822 4.18573E-05 3.32220E-06 0.00000E+00
 -1       823 4.17691E-05 4.09176E-06 0.00000E+00
 -1       824 4.16800E-05 4.95980E-06 0.00000E+00
 -1       825 4.15907E-05 5.91301E-06 0.00000E+00
 -1       826 4.15013E-05 6.93799E-06 1.65436E-24
 -1       827 4.14117E-05 8.02128E-06 0.00000E+00
 -1       828 4.13220E-05 9.14936E-06 0.00000E+00
 -1       829 4.12324E-05 1.03087E-05 3.30872E-24
 -1       830 4.11427E-05 1.14856E-05 0.00000E+00
 -1       831 4.10530E-05 1.26665E-05 0.00000E+00
 -1       832 4.09635E-05 1.38378E-05 0.00000E+00
 -1       833 4.08741E-05 1.49858E-05-1.65436E-24
 -1       834 4.07855E-05 1.60971E-05 8.27181E-25
 -1       835 4.06968E-05 1.71579E-05 0.00000E+00
 -1       836 4.14721E-05 2.26568E-06 3.30872E-24
 -1       837 4.08130E-05 2.40455E-06-1.65436E-24
 -1       838 4.01007E-05 2.54323E-06-3.30872E-24
 -1       839 3.93845E-05 2.68139E-06 0.00000E+00
 -1       840 3.87141E-05 2.81953E-06-8.27181E-25
 -1       841 4.18480E-05 2.70070E-06 8.27181E-25
 -1       842 4.15968E-05 3.45727E-06-4.13590E-25
 -1       843 4.12948E-05 4.34941E-06 0.00000E+00
 -1       844 4.09610E-05 5.32577E-06-4.13590E-25
 -1       845 4.06044E-05 6.36273E-06 0.00000E+00
 -1       846 4.02339E-05 7.43668E-06 4.13590E-25
 -1       847 3.98539E-05 8.53610E-06 8.27181E-25
 -1       848 3.94685E-05 9.64954E-06 0.00000E+00
 -1       849 3.90806E-05 1.07699E-05-8.27181E-25
 -1       850 3.86926E-05 1.18903E-05 0.00000E+00
 -1       851 3.83072E-05 1.30036E-05 8.27181E-25
 -1       852 3.79269E-05 1.41031E-05 0.00000E+00
 -1       853 3.75562E-05 1.51772E-05 4.13590E-25
 -1       854 3.71985E-05 1.62142E-05 0.00000E+00
 -1       855 3.68639E-05 1.71910E-05 4.13590E-25
 -1       856 4.05462E-05 1.91988E-05 4.13590E-25
 -1       857 4.04757E-05 2.03833E-05 8.27181E-25
 -1       858 4.04050E-05 2.16892E-05 1.65436E-24
 -1       859 4.03337E-05 2.30969E-05-8.27181E-25
 -1       860 4.02622E-05 2.45868E-05-1.65436E-24
 -1       861 4.01904E-05 2.61393E-05 0.00000E+00
 -1       862 4.01186E-05 2.77347E-05 0.00000E+00
 -1       863 4.00467E-05 2.93534E-05 0.00000E+00
 -1       864 3.99748E-05 3.09756E-05-1.65436E-24
 -1       865 3.99030E-05 3.25818E-05 8.27181E-25
 -1       866 3.98312E-05 3.41522E-05 0.00000E+00
 -1       867 3.97595E-05 3.56671E-05 0.00000E+00
 -1       868 3.96880E-05 3.71070E-05-1.65436E-24
 -1       869 3.96168E-05 3.84522E-05 8.27181E-25
 -1       870 3.95458E-05 3.96831E-05 0.00000E+00
 -1       871 3.98171E-05 1.81449E-05 0.00000E+00
 -1       872 3.91252E-05 1.81336E-05 0.00000E+00
 -1       873 3.84954E-05 1.81220E-05 0.00000E+00
 -1       874 3.78855E-05 1.81100E-05-2.06795E-25
 -1       875 3.72532E-05 1.80975E-05 4.13590E-25
 -1       876 4.03504E-05 1.92230E-05 3.30872E-24
 -1       877 4.00527E-05 2.03994E-05 0.00000E+00
 -1       878 3.97201E-05 2.16687E-05-3.30872E-24
 -1       879 3.93583E-05 2.30176E-05 0.00000E+00
 -1       880 3.89718E-05 2.44322E-05-3.30872E-24
 -1       881 3.85657E-05 2.58991E-05 1.65436E-24
 -1       882 3.81451E-05 2.74047E-05 0.00000E+00
 -1       883 3.77150E-05 2.89355E-05 0.00000E+00
 -1       884 3.72805E-05 3.04781E-05 0.00000E+00
 -1       885 3.68466E-05 3.20191E-05-1.65436E-24
 -1       886 3.64184E-05 3.35448E-05 3.30872E-24
 -1       887 3.60008E-05 3.50419E-05-1.65436E-24
 -1       888 3.55988E-05 3.64969E-05 3.30872E-24
 -1       889 3.52171E-05 3.78960E-05-1.65436E-24
 -1       890 3.48612E-05 3.92259E-05-1.65436E-24
 -1       891 3.85840E-05 4.07291E-05 0.00000E+00
 -1       892 3.78175E-05 4.06772E-05-8.27181E-25
 -1       893 3.71030E-05 4.06253E-05 0.00000E+00
 -1       894 3.63664E-05 4.05735E-05-4.13590E-25
 -1       895 3.55334E-05 4.05215E-05-8.27181E-25
 -1       926 5.06732E-08-2.79843E-06 0.00000E+00
 -1       927 4.95361E-08-1.31843E-06 0.00000E+00
 -1       928 4.88152E-08-1.87326E-07 0.00000E+00
 -1       929 4.84485E-08 6.32723E-07 0.00000E+00
 -1       930 4.82612E-08 1.17957E-06-1.29247E-26
 -1       931 4.81729E-08 1.49109E-06 1.29247E-26
 -1       932 4.81144E-08 1.60518E-06-5.16988E-26
 -1       933 4.80161E-08 1.55974E-06 0.00000E+00
 -1       934 4.78613E-08 1.39271E-06 0.00000E+00
 -1       935 4.74740E-08 1.14200E-06 0.00000E+00
 -1       936 4.69489E-08 8.45556E-07 0.00000E+00
 -1       937 4.53955E-08 5.41314E-07 8.27181E-25
 -1       938 4.37059E-08 2.67122E-07 0.00000E+00
 -1       939 3.69160E-08 6.08415E-08-3.30872E-24
 -1       940 3.18624E-08-4.05436E-08 1.32349E-23
 -1       956 3.80421E-05 3.52309E-06-1.65436E-24
 -1       957 3.79437E-05 4.20091E-06 1.65436E-24
 -1       958 3.78449E-05 4.97175E-06 1.65436E-24
 -1       959 3.77459E-05 5.82385E-06 1.65436E-24
 -1       960 3.76467E-05 6.74547E-06 1.65436E-24
 -1       961 3.75474E-05 7.72475E-06 1.65436E-24
 -1       962 3.74481E-05 8.74985E-06 1.65436E-24
 -1       963 3.73487E-05 9.80893E-06 1.65436E-24
 -1       964 3.72494E-05 1.08901E-05 0.00000E+00
 -1       965 3.71500E-05 1.19815E-05 0.00000E+00
 -1       966 3.70506E-05 1.30714E-05 3.30872E-24
 -1       967 3.69513E-05 1.41477E-05 1.65436E-24
 -1       968 3.68520E-05 1.51988E-05 3.30872E-24
 -1       969 3.67529E-05 1.62127E-05 3.30872E-24
 -1       970 3.66542E-05 1.71777E-05 0.00000E+00
 -1       971 3.64330E-05 1.90128E-05 0.00000E+00
 -1       972 3.63065E-05 2.00917E-05 0.00000E+00
 -1       973 3.61798E-05 2.13010E-05 0.00000E+00
 -1       974 3.60526E-05 2.26222E-05 0.00000E+00
 -1       975 3.59252E-05 2.40371E-05 0.00000E+00
 -1       976 3.57977E-05 2.55270E-05 0.00000E+00
 -1       977 3.56700E-05 2.70734E-05 0.00000E+00
 -1       978 3.55423E-05 2.86578E-05 0.00000E+00
 -1       979 3.54146E-05 3.02616E-05 3.30872E-24
 -1       980 3.52869E-05 3.18661E-05 0.00000E+00
 -1       981 3.51593E-05 3.34529E-05 0.00000E+00
 -1       982 3.50318E-05 3.50034E-05 0.00000E+00
 -1       983 3.49045E-05 3.64989E-05 3.30872E-24
 -1       984 3.47780E-05 3.79209E-05 1.65436E-24
 -1       985 3.46517E-05 3.92510E-05 0.00000E+00
 -3
    1PSTEP                        28          14           1          
  100CL  114 6.43372E-01         608                     0   14           1
 -4  STRESS      6    1
 -5  SXX         1    4    1    1
 -5  SYY         1    4    2    2
 -5  SZZ         1    4    3    3
 -5  SXY         1    4    1    2
 -5  SYZ         1    4    2    3
 -5  SZX         1    4    3    1
 -1         1-2.81605E+06-1.07699E+06-6.38187E+05-9.97851E+05 1.12050E-09 1.35818E-09
 -1         2-2.51709E+06-6.35683E+05-3.32488E+05-4.23629E+05-1.65940E-08-1.11953E-07
 -1         3-5.93672E+05-4.72473E+05-3.63842E+04 6.59765E+04 7.71956E-09 1.31304E-09
 -1         4-5.02002E+05-4.24645E+04 1.08988E+04-2.84493E+04-9.24285E-09-4.63638E-09
 -1         5-4.07506E+05 4.12916E+04-1.47555E+05-4.02142E+03 2.30903E-08 8.37883E-09
 -1         8-1.53955E+06-7.06070E+05-2.10059E+05-9.37586E+05 5.67525E-10 6.34464E-09
 -1         9-1.10066E+06-3.21282E+05-1.26998E+05-3.48148E+05 2.47674E-09-2.61934E-11
 -1        10-6.80266E+05-4.98979E+05-5.05242E+04-2.11631E+05 1.73206E-08-7.62814E-09
 -1        11-2.84986E+05 1.65057E+04 2.04256E+04 4.00050E+04 1.32775E-09 6.66292E-09
 -1        12-2.22464E+05 8.94697E+04-1.00934E+05 4.31721E+03 2.99571E-08-2.09507E-09
 -1        15 2.61727E+03 1.41535E+03 8.12280E+03 4.60169E+00-3.01270E-12-8.53451E-10
 -1        16-2.37136E+06-6.26590E+05-2.02677E+05-7.87401E+05-2.44654E-10-6.18456E-10
 -1        17-3.13713E+05-2.87043E+05-2.28578E+04-2.59718E+05-2.76001E-09-2.71636E-10
 -1        18 3.76736E+04 3.77342E+03-1.36881E+04-6.27190E+04 2.40107E-11-1.41299E-09
 -1        19 1.08364E+05 1.32114E+05-1.49530E+02 4.25988E+03 6.56655E-11 1.59271E-09
 -1        20 4.80956E+04-8.12487E+04-1.89624E+04 3.80601E+04 3.79862E-09-5.16593E-10
 -1        21-7.74553E+03-1.29514E+05 3.60779E+04-1.06841E+03 1.87185E-08-1.72883E-08
 -1        23 6.04530E-01 2.89462E-01 1.10244E+01 1.01113E-03 6.09127E-09 3.12841E-09
 -1        24-1.24707E+06-3.60995E+05 5.56847E+04-6.11930E+05-1.67056E-09 2.12458E-09
 -1        25 1.76776E+04 6.35191E+04 2.65262E+04-3.21306E+05-4.12729E-10-4.90836E-09
 -1        26 1.84932E+03 9.05527E+04 2.87195E+02-1.45210E+04 2.09572E-10 6.40171E-10
 -1        27-1.95665E+04-6.00032E+04-2.67019E+04 6.62480E+04 2.72469E-09-6.04996E-09
 -1        28-7.50050E+03-1.00151E+05-3.55766E+03 3.86587E+04 7.08997E-09-4.54500E-09
 -1        31 3.86212E+03 4.44607E+03 6.55351E+03-1.90113E+02 3.65975E-09-1.79591E-09
 -1        32-4.89091E+05 1.39953E+05 3.07104E+05-6.73624E+05 5.92493E-10 1.83354E-09
 -1        33-1.07183E+05 1.08409E+05 3.33174E+04-3.38824E+04-9.86423E-10-3.59554E-10
 -1        34-1.30019E+05-5.06784E+03 1.18970E+04 4.99316E+04 2.82661E-10-6.73469E-09
 -1        35-1.98460E+04-2.69871E+04 1.46933E+03 6.29230E+04 2.18594E-09-2.28344E-09
 -1        36-3.91860E+06 1.23641E+05-2.84276E+05 6.61679E-07-3.26673E-09-8.14907E-10
 -1        37-4.04199E+06-1.43068E+05-2.01439E+05 7.04723E-07-1.44942E-09 2.41198E-09
 -1        38-3.96611E+06 1.94344E+04-7.35042E+04-6.13023E-07-1.24328E-08 5.55883E-09
 -1        39-3.98633E+06-2.24860E+04-4.62928E+04-8.05815E-07-3.82071E-09-1.17398E-08
 -1        40-3.97393E+06 3.04980E+03-1.88920E+04 3.11413E-07-4.38399E-09-8.82665E-09
 -1        41-3.97713E+06-3.57892E+03-1.13325E+04-1.37996E-07-1.89105E-09-3.69073E-09
 -1        42-3.97521E+06 5.28753E+02-5.60514E+03-5.01152E-07-7.96912E-09-5.53950E-09
 -1        43-3.97577E+06-9.66495E+02-4.59625E+03-3.06910E-07-1.51003E-08-8.87172E-09
 -1        44-3.97526E+06 4.37659E+02-4.80308E+03-8.97206E-07-5.59170E-09 1.47645E-09
 -1        45-3.97671E+06-2.79773E+03-9.00525E+03-4.95105E-07 8.05434E-09 1.02419E-08
 -1        46-3.97429E+06 2.35978E+03-1.47085E+04 4.08439E-07-1.82637E-09 7.44149E-09
 -1        47-3.98380E+06-1.73709E+04-3.58136E+04 3.03567E-07-1.22992E-08 3.43152E-09
 -1        48-3.96825E+06 1.50094E+04-5.67998E+04 5.44417E-07-1.12251E-09-5.40967E-09
 -1        49-4.02677E+06-1.10492E+05-1.55588E+05 8.16325E-07-2.46142E-09 1.52068E-09
 -1        50-3.93158E+06 9.54812E+04-2.19613E+05-2.00297E-07-8.90299E-09 1.07975E-08
 -1        51 1.87177E+04-4.41284E+05 3.32235E+04-1.16555E+06-3.92902E-10-9.57516E-09
 -1        52 1.17338E+04-4.42178E+05 2.37448E+04-1.29075E+06-4.43833E-10-2.02563E-08
 -1        53 1.10040E+04-4.54060E+05 2.39624E+04-1.16235E+06 7.27596E-12-2.06637E-09
 -1        54 2.78828E+04-4.51563E+05 4.27418E+04-1.29412E+06-2.32831E-10 4.00178E-11
 -1        55 6.13212E+04-4.66605E+05 8.11347E+04-1.16166E+06 4.36557E-11 4.54747E-09
 -1        56-5.18384E+06-4.58954E+05-4.78496E+05-1.75862E+06-4.57658E-09 6.75209E-09
 -1        57-4.30714E+06-1.29867E+06-2.24984E+05-2.35714E+06-1.27675E-08 3.95812E-09
 -1        58-5.27020E+06-3.46809E+05-1.02535E+05-1.43441E+06-1.34505E-08 1.37370E-08
 -1        59-4.27583E+06-1.33350E+06-4.60433E+04-2.72426E+06 8.82210E-10 4.82487E-09
 -1        60-5.28317E+06-3.71343E+05-2.94775E+04-1.43744E+06 1.45374E-08 1.99889E-08
 -1        61-4.20350E+06-1.11225E+06 4.18822E+04-2.36797E+06 1.06447E-08 1.46429E-09
 -1        62-5.26987E+06-6.21600E+05-7.01891E+04-1.74254E+06 1.15251E-08-4.62751E-09
 -1        63-4.45637E+06-6.09378E+05 9.01479E+04-1.67042E+06-1.97288E-08 4.40923E-09
 -1        64-4.96666E+06-9.19966E+05-6.89603E+04-2.08247E+06-1.86556E-08-4.28372E-09
 -1        65-5.22953E+06-9.67920E+04 4.02357E+04-1.21476E+06 4.03452E-09 1.02227E-09
 -1        66-4.56745E+06-1.08208E+06-2.80217E+04-2.24792E+06-2.01162E-08 3.25927E-08
 -1        67-5.69844E+06 8.93270E+04-4.54887E+04-1.10110E+06 1.88256E-08 8.85393E-09
 -1        68-4.56062E+06-1.06157E+06-1.02720E+05-2.25016E+06-4.50382E-09 6.92671E-09
 -1        69-5.31462E+06-2.77577E+05-2.20356E+05-1.18920E+06-3.13448E-08 2.64881E-08
 -1        70-4.88748E+06-7.62981E+05-4.75500E+05-2.10377E+06-3.03698E-08 5.90808E-09
 -1        86-5.10908E+04-2.11232E+05 1.17515E+05 2.14950E+04 6.26460E-09 1.97110E-09
 -1        87 6.29760E+04-1.46866E+05 9.16211E+04-9.29849E+04 1.05792E-08 7.75287E-09
 -1        88-1.12508E+04-1.86672E+05 4.39501E+04 2.28038E+04 9.17225E-09 1.38444E-09
 -1        89 3.75872E+04-1.59638E+05 5.81438E+04-9.31109E+04 1.35560E-08 2.71370E-09
 -1        90-2.57240E+04-1.98572E+05 6.02561E+04 2.16215E+04 3.57795E-09-1.39198E-09
 -1        91-3.60710E+06-4.18714E+05-2.24950E+05-1.39174E+06-5.10395E-05 1.89290E-05
 -1        92-3.72417E+06-6.28283E+05-1.56371E+05-1.35420E+06-1.01855E-04 3.82770E-05
 -1        93-3.65174E+06-5.01255E+05-5.26505E+04-1.37771E+06-3.77229E-05 1.42324E-05
 -1        94-3.67133E+06-5.33431E+05-3.29905E+04-1.37106E+06 2.63767E-05-9.89286E-06
 -1        95-3.65969E+06-5.13533E+05-1.23333E+04-1.37478E+06 6.80540E-06-2.55892E-06
 -1        96-3.66237E+06-5.18957E+05-7.45193E+03-1.37405E+06-1.27907E-05 4.79942E-06
 -1        97-3.66063E+06-5.15718E+05-3.55815E+03-1.37470E+06-1.42277E-06 5.34697E-07
 -1        98-3.66127E+06-5.17029E+05-3.38159E+03-1.37433E+06 9.95499E-06-3.73777E-06
 -1        99-3.66078E+06-5.15459E+05-4.01183E+03-1.37449E+06-5.88647E-06 2.21368E-06
 -1       100-3.66296E+06-5.19288E+05-8.86594E+03-1.37368E+06-2.17097E-05 8.15541E-06
 -1       101-3.65895E+06-5.13461E+05-1.48655E+04-1.37536E+06 1.09251E-05-4.10082E-06
 -1       102-3.67284E+06-5.37802E+05-3.99045E+04-1.37116E+06 4.35837E-05-1.63738E-05
 -1       103-3.65099E+06-4.96958E+05-6.37339E+04-1.37705E+06 2.18219E-05-8.16218E-06
 -1       104-3.73932E+06-6.49973E+05-1.89281E+05-1.34768E+06-5.88807E-09 2.30430E-08
 -1       105-3.59276E+06-4.01325E+05-2.72333E+05-1.39895E+06-2.27374E-08 3.57977E-09
 -1       106-1.17570E+06 1.13750E+04-2.62141E+04 6.82277E-07 4.57541E-09 1.39880E-09
 -1       107-1.18699E+06-1.31658E+04-1.85644E+04-1.40287E-07 4.93150E-09 3.85512E-09
 -1       108-1.18008E+06 1.78859E+03-6.79069E+03-5.58153E-07 2.35693E-09 1.58116E-09
 -1       109-1.18187E+06-2.07082E+03-4.28820E+03-7.41179E-07 1.72457E-09-6.67256E-09
 -1       110-1.18080E+06 2.81899E+02-1.77803E+03 1.21591E-07 6.28603E-10 2.09297E-10
 -1       111-1.18103E+06-3.38570E+02-1.11658E+03 6.39842E-07 4.33985E-09 7.15823E-09
 -1       112-1.18092E+06 5.66282E+01-6.48432E+02 4.44358E-07 2.01991E-09 6.78909E-09
 -1       113-1.18094E+06-1.48718E+02-7.11122E+02 3.72386E-07-3.64075E-09 2.37856E-09
 -1       114-1.18090E+06 9.20766E+01-9.62058E+02 3.34973E-07-2.68943E-09-2.18117E-09
 -1       115-1.18119E+06-6.42559E+02-2.02560E+03 1.70596E-07-5.22156E-10-2.98783E-09
 -1       116-1.18066E+06 5.50397E+02-3.41223E+03 1.28498E-08 2.63112E-09-1.79125E-09
 -1       117-1.18286E+06-4.06107E+03-8.37592E+03 1.19871E-07-3.86317E-09 2.68119E-09
 -1       118-1.17924E+06 3.51004E+03-1.33085E+04-4.39413E-07-2.61347E-09 6.11180E-10
 -1       119-1.19290E+06-2.58395E+04-3.64264E+04-2.13689E-07 1.28452E-09 3.36786E-09
 -1       120-1.17064E+06 2.23259E+04-5.14402E+04-4.44431E-07-1.85796E-09-1.19326E-09
 -1       121-4.16112E+02-8.69153E+05 1.67782E+03 2.25954E+04 5.98618E-10 2.51384E-09
 -1       122 8.30300E+02-8.68447E+05 1.70256E+03 1.32039E+05 1.28421E-09-5.66109E-09
 -1       123-1.99719E+02-8.69034E+05 1.74544E+03 2.25092E+04 5.75369E-10 6.34009E-09
 -1       124 1.91700E+03-8.67284E+05 3.76094E+03 1.31501E+05 7.30779E-10 2.50202E-09
 -1       125-1.72074E+03-8.69771E+05 5.33836E+03 2.31333E+04-1.38380E-09 6.20275E-09
 -1       141-7.73200E+05 6.79470E+03-1.56647E+04-4.83472E-08-2.66250E-09-3.57250E-09
 -1       142-7.79938E+05-7.86482E+03-1.11001E+04 1.16893E-07-2.10885E-09 2.94233E-09
 -1       143-7.75817E+05 1.06880E+03-4.07583E+03 4.76340E-07-3.01898E-09-8.60382E-10
 -1       144-7.76886E+05-1.24012E+03-2.60073E+03-1.34153E-07-1.09187E-09 6.59918E-09
 -1       145-7.76247E+05 1.71110E+02-1.13608E+03-4.92434E-07-2.17230E-09 7.38396E-10
 -1       146-7.76396E+05-2.22999E+02-8.24455E+02-7.13727E-07-3.42078E-09-7.94071E-09
 -1       147-7.76306E+05 5.18618E+01-6.81743E+02-2.75401E-07 2.46153E-10-7.13449E-10
 -1       148-7.76408E+05-2.24255E+02-1.07316E+03 2.47969E-07 4.46569E-10-2.42889E-09
 -1       149-7.76236E+05 1.72372E+02-1.74869E+03-1.14716E-08 4.22693E-10 1.19678E-09
 -1       150-7.76950E+05-1.25645E+03-3.91647E+03-2.83418E-07 2.55638E-12-2.37571E-09
 -1       151-7.75764E+05 1.08392E+03-6.69461E+03-2.45287E-07-8.86560E-10 1.65983E-09
 -1       152-7.80234E+05-8.00601E+03-1.65022E+04 2.02081E-07 6.28132E-10 4.97698E-09
 -1       153-7.72959E+05 6.92100E+03-2.62404E+04-1.19135E-07 3.90405E-09-2.45200E-09
 -1       154-8.00027E+05-5.09500E+04-7.18308E+04-5.10792E-07 1.13486E-09-5.81986E-09
 -1       155-7.55986E+05 4.40235E+04-1.01418E+05-4.28381E-07 1.30276E-08 2.72121E-09
 -1       156-2.22870E+04-7.47649E+04 4.69759E+04-4.82287E+03-3.55067E-09 3.56707E-10
 -1       157 2.59658E+04-1.50411E+04 4.29577E+04 1.77235E+04-2.05728E-09-1.78395E-09
 -1       158-3.55773E+03-6.25490E+04 1.79873E+04-4.78641E+03-1.07498E-08-1.74859E-09
 -1       159 2.43113E+04 4.88609E+04 4.65446E+04 1.50755E+04 9.90531E-09-4.59082E-10
 -1       160-2.09820E+04-1.38228E+05 1.38143E+04-2.17874E+03 6.43377E-09 3.96915E-09
 -1       161-4.81286E+05-6.75312E+04-5.90023E+03-1.59096E+05-2.03404E-08-9.20409E-10
 -1       162-1.86235E+05-3.58046E+04 4.88536E+04-1.08445E+05 3.36025E-08-3.11559E-09
 -1       163-4.76252E+05-5.73789E+04-1.54696E+04-1.61710E+05-8.27885E-09 6.44332E-09
 -1       164-2.12808E+05-2.73492E+04 3.92632E+04-8.08785E+04-6.14138E-08 2.74796E-08
 -1       165-4.54406E+05-7.67758E+04-1.78469E+04-1.86178E+05-8.44679E-05 3.30016E-05
 -1       166-2.35676E+05-7.55380E+03 3.72213E+04-5.69790E+04-1.70130E-04 6.91381E-05
 -1       167-4.53699E+05-7.63815E+04-1.84275E+04-1.86087E+05-8.44415E-05 3.29981E-05
 -1       168-2.13922E+05-2.96370E+04 3.65414E+04-8.03477E+04-2.57779E-08 1.93010E-08
 -1       169-4.75845E+05-5.54859E+04-1.94742E+04-1.62332E+05-1.57229E-06 5.76004E-07
 -1       170-1.94339E+05-5.08154E+04 3.47201E+04-1.05266E+05-3.15090E-06 1.06658E-06
 -1       171-4.73591E+05-5.44167E+04-2.18719E+04-1.61654E+05-1.53076E-06 5.76119E-07
 -1       172-2.16767E+05-3.38778E+04 2.73078E+04-7.99696E+04 3.83837E-08-1.12027E-08
 -1       173-4.53110E+05-7.32099E+04-3.47551E+04-1.87144E+05-1.74145E-08-1.40699E-09
 -1       174-2.50451E+05-3.37358E+04-7.37022E+03-5.23385E+04-1.10614E-07-4.89308E-09
 -1       175-4.40223E+05-5.37698E+04-8.71230E+04-1.89760E+05-2.05673E-08-2.36469E-09
 -1       191 5.62700E+02 3.79685E+05 8.98901E+02-7.74311E+03-2.81943E-10 3.39423E-09
 -1       192 1.96226E+02 3.79798E+05 5.13942E+02-8.20260E+03-1.59616E-10 4.02451E-10
 -1       193 7.42403E+01 3.79728E+05 3.73530E+02-7.58280E+03-7.76708E-10-1.16643E-08
 -1       194 2.02158E+02 3.79792E+05 5.18200E+02-8.50677E+03-5.83213E-10-1.58730E-08
 -1       195 5.76246E+02 3.79672E+05 9.09902E+02-7.43845E+03-1.26784E-09-1.12341E-08
 -1       266-4.60130E+04-2.12736E+04 1.06217E+05-9.47180E+01 5.82077E-11 4.93688E-09
 -1       267 5.32884E+04 2.48488E+04 7.53362E+04 1.08885E+02 1.71894E-10 6.12442E-10
 -1       268-7.26117E+03-3.55729E+03 2.78849E+04-1.41808E+01 1.81899E-12-8.25176E-09
 -1       269 8.57134E+03 4.26594E+03 1.82236E+04 1.64838E+01-3.95630E-11-1.97979E-09
 -1       270-1.30844E+03-7.07653E+02 8.74959E+03-2.30020E+00-7.54881E-11 4.96336E-09
 -1       271-4.79287E+06-5.97324E+05-3.77954E+05-1.85650E+06-4.43833E-10-5.89353E-09
 -1       272-4.94790E+06-8.34243E+05-2.40295E+05-1.83206E+06 5.07498E-10-1.05938E-08
 -1       273-4.86153E+06-6.85301E+05-8.91187E+04-1.84273E+06-9.99080E-10-1.74259E-09
 -1       274-4.86679E+06-7.23620E+05-4.92898E+04-1.85484E+06-1.16870E-09 4.57385E-09
 -1       275-4.87149E+06-6.93023E+05-2.07163E+04-1.83924E+06 5.32054E-11 3.89628E-09
 -1       276-4.85402E+06-7.15028E+05-1.09673E+04-1.86097E+06-5.45697E-10-2.61298E-09
 -1       277-4.87418E+06-6.92357E+05-5.54701E+03-1.83722E+06-6.40284E-10-3.24508E-09
 -1       278-4.85036E+06-7.16574E+05-4.21799E+03-1.86440E+06 1.27784E-10 2.49099E-09
 -1       279-4.87532E+06-6.91244E+05-4.87500E+03-1.83598E+06-6.92580E-10-1.16847E-09
 -1       280-4.84977E+06-7.18983E+05-9.16696E+03-1.86607E+06-4.15298E-10-3.50929E-09
 -1       281-4.87492E+06-6.89953E+05-1.70072E+04-1.83562E+06 1.32809E-09-3.55158E-09
 -1       282-4.85716E+06-7.29213E+05-4.04422E+04-1.86482E+06 1.83093E-09-4.73301E-09
 -1       283-4.86822E+06-6.82161E+05-7.29854E+04-1.83685E+06 1.08139E-09-2.75759E-09
 -1       284-4.92111E+06-8.22376E+05-1.96918E+05-1.84901E+06 1.23964E-09 9.13860E-09
 -1       285-4.81303E+06-6.09057E+05-3.09726E+05-1.84696E+06 1.57888E-09 1.07684E-09
 -1       286 9.43491E+05-6.84969E+04 1.58053E+05 1.01574E+03 2.04651E-09-1.76078E-09
 -1       287 1.01230E+06 7.92878E+04 1.11908E+05-1.47203E+03 5.91828E-10-1.46410E-08
 -1       288 9.70044E+05-1.07660E+04 4.09420E+04-2.30648E+02 4.21590E-07-5.14956E-09
 -1       289 9.81400E+05 1.24604E+04 2.57972E+04-2.27073E+02 8.43939E-07-3.16504E-09
 -1       290 9.74417E+05-1.69161E+03 1.05938E+04-2.29149E+02 5.66491E-07 4.48290E-09
 -1       291 9.76323E+05 1.99684E+03 6.43052E+03-2.28732E+02 2.81631E-07-3.65151E-09
 -1       292 9.75133E+05-3.04743E+02 3.33099E+03-2.28992E+02 1.21094E-07 3.03612E-09
 -1       293 9.75618E+05 6.24025E+02 2.99781E+03-2.28888E+02-4.37455E-08 3.77335E-09
 -1       294 9.75125E+05-3.19058E+02 3.45908E+03-2.28994E+02-4.80721E-07-1.50123E-09
 -1       295 9.76389E+05 2.11960E+03 6.80113E+03-2.28719E+02-9.18145E-07 1.03364E-09
 -1       296 9.74360E+05-1.80004E+03 1.12608E+04-2.29161E+02-3.88020E-06-8.56471E-09
 -1       297 9.81798E+05 1.32641E+04 2.74616E+04-2.27049E+02-6.84172E-06 5.96037E-09
 -1       298 9.69703E+05-1.14611E+04 4.36005E+04-2.30660E+02-3.42050E-06 1.95105E-08
 -1       299 1.01489E+06 8.44560E+04 1.19220E+05-2.16713E+03 1.18822E-09 2.29338E-08
 -1       300 9.41246E+05-7.29678E+04 1.68302E+05 1.71081E+03 9.65714E-09 2.88128E-09
 -1       301 3.00452E+04-7.17526E+03 9.16186E+04-1.78126E+03 0.00000E+00-2.35832E-09
 -1       302 1.15367E+04 1.19182E+04 6.54143E+04-2.34290E+03 6.00039E-10-3.30601E-09
 -1       303 2.75492E+03-1.08078E+03 6.55980E+04-1.85303E+03-3.45608E-11 3.79714E-10
 -1       304 2.67517E+04 2.36981E+04 1.13958E+05-2.24294E+03 4.94765E-10-1.82263E-09
 -1       305 7.40305E+04-1.88975E+04 2.06617E+05-1.85797E+03 3.12866E-10-2.63890E-09
 -1       306-1.81621E+06-2.35686E+05-1.11766E+05-7.02234E+05-3.22871E-09-4.21278E-09
 -1       307-1.83822E+06-3.29051E+05-7.09705E+04-7.22178E+05-6.20338E-09-4.01997E-09
 -1       308-1.83641E+06-2.61636E+05-2.63790E+04-6.98350E+05-2.40357E-09-3.05226E-09
 -1       309-1.81492E+06-2.95994E+05-1.46028E+04-7.28495E+05-8.93465E-10 4.78212E-09
 -1       310-1.83905E+06-2.64208E+05-6.15793E+03-6.97699E+05 2.45564E-09 5.50926E-09
 -1       311-1.81197E+06-2.92676E+05-3.32101E+03-7.29420E+05 1.50266E-09-4.03227E-09
 -1       312-1.83937E+06-2.64486E+05-1.77328E+03-6.97634E+05-3.26929E-09 3.03692E-09
 -1       313-1.81185E+06-2.92136E+05-1.54699E+03-7.29189E+05-2.10457E-09 7.42466E-09
 -1       314-1.83911E+06-2.64750E+05-2.05490E+03-6.97905E+05-3.18278E-09 5.54155E-09
 -1       315-1.81284E+06-2.91857E+05-4.05589E+03-7.28178E+05-8.61974E-10 1.87720E-09
 -1       316-1.83820E+06-2.64916E+05-7.69271E+03-6.98503E+05 1.26511E-09-1.29148E-09
 -1       317-1.81725E+06-2.95189E+05-1.82207E+04-7.25956E+05 7.45786E-10-8.50878E-09
 -1       318-1.83450E+06-2.62114E+05-3.30136E+04-6.99734E+05 1.41381E-09-1.39153E-09
 -1       319-1.84699E+06-3.35823E+05-8.86874E+04-7.17230E+05-3.72324E-10 1.60071E-10
 -1       320-1.80895E+06-2.29995E+05-1.39743E+05-7.04921E+05-2.48929E-09 2.93949E-09
 -1       321-8.19091E+05-8.77903E+03 1.82638E+03-2.82725E+04-9.37519E-09 8.25457E-09
 -1       322-3.93803E+05 2.73798E+04 8.24997E+04 4.15019E+04-4.57925E-08 1.66007E-08
 -1       323-1.00881E+06-1.83885E+04-4.98805E+04-8.52156E+03-1.36072E-08 4.43151E-09
 -1       324-4.79900E+05 1.43913E+03 5.30390E+04-2.25971E+04-1.44901E-08-1.49632E-08
 -1       325-7.32954E+05 1.64566E+04 4.58763E+03 3.58135E+04 5.34273E-09-1.57352E-08
 -1       326-4.67404E+05 6.39800E+02 5.34866E+04-2.57079E+04 1.59597E-08-6.13682E-09
 -1       327-1.02131E+06-1.74792E+04-5.66499E+04-5.41177E+03-4.88353E-09 6.91949E-09
 -1       328-4.10672E+05 7.36660E+03 6.53626E+04 3.96001E+04-5.86468E-10 1.83887E-08
 -1       329-7.89717E+05 1.02341E+04-8.80120E+03-2.94826E+04-7.97763E-09 6.85401E-09
 -1       330-5.29229E+05-7.57096E+03 3.80797E+04 8.93262E+03 2.38957E-08-3.35081E-09
 -1       331-9.02726E+05-3.52391E+03-3.42072E+04 2.52434E+04 3.98734E-09-2.69074E-09
 -1       332-3.85509E+05 1.07502E+04 6.66941E+04-4.30320E+04-4.65470E-08-1.88174E-08
 -1       333-9.33493E+05-6.85474E+03-4.72802E+04 2.24717E+04-3.04128E-08-9.75160E-09
 -1       334-5.22474E+05-9.46981E+03 2.21821E+04 1.30460E+04-4.29935E-10 7.34735E-09
 -1       335-7.65712E+05 1.55270E+04-3.86769E+04-3.08246E+04-2.46827E-08 1.51467E-08
 -1       336 3.25344E+02-9.41970E+05-3.44530E+03-1.84581E+04-4.06385E-09 1.17325E-09
 -1       337-1.40224E+03-9.43594E+05-6.51695E+03-1.16072E+05-6.93512E-09-8.74934E-10
 -1       338 1.38815E+03-9.41437E+05-1.08664E+04-1.77411E+04-6.05905E-09 3.96676E-09
 -1       339-1.36201E+04-9.51108E+05-2.70119E+04-1.16840E+05-8.55880E-09 7.24367E-09
 -1       340 1.13793E+04-9.35108E+05-4.12605E+04-1.76924E+04-5.58066E-09 9.50649E-09
 -1       356-7.68188E+05 1.50152E+04-3.92582E+04-3.02397E+04-3.49475E-09 1.40699E-08
 -1       357-5.28965E+05-9.77905E+03 2.07950E+04 1.21870E+04-5.79507E-09 6.68024E-10
 -1       358-9.23601E+05-6.02767E+03-4.53364E+04 2.26621E+04-1.11751E-08-3.26281E-09
 -1       359-3.92392E+05 1.05245E+04 6.51945E+04-4.24493E+04-1.60703E-08-2.44674E-08
 -1       360-9.04805E+05-4.13251E+03-3.48646E+04 2.43868E+04-7.71672E-09-3.31238E-09
 -1       361-5.32324E+05-7.31006E+03 3.72387E+04 9.61139E+03 1.16542E-08 8.90913E-09
 -1       362-7.83616E+05 1.06121E+04-8.11233E+03-2.93885E+04 3.78944E-08 6.93036E-09
 -1       363-4.19879E+05 6.68454E+03 6.23901E+04 3.85732E+04 2.22454E-08 1.24877E-08
 -1       364-1.01728E+06-1.72006E+04-5.78422E+04-4.56345E+03-2.40145E-08 6.31269E-09
 -1       365-4.70559E+05-3.85098E+02 4.86589E+04-2.61386E+04-6.46987E-08-1.46708E-08
 -1       366-7.32912E+05 1.72397E+04-3.20665E+03 3.53121E+04 3.82123E-08-1.43759E-08
 -1       367-4.92963E+05-8.09199E+03 3.25383E+04-2.11565E+04 6.62516E-08-7.28232E-09
 -1       368-9.94873E+05-9.65922E+03-7.75720E+04-9.54440E+03-2.00171E-08 1.99543E-09
 -1       369-4.23695E+05-3.03134E+04 5.33968E+02 4.10317E+04-4.15356E-08 2.22935E-08
 -1       370-8.02227E+05 4.01937E+04-1.14382E+05-2.68637E+04-1.45417E-09 1.31622E-08
 -1       371-1.87164E+04-1.21494E+05 1.41304E+04-1.60708E+03 2.30702E-08-2.12208E-09
 -1       372 1.83325E+04 2.99746E+04 3.34625E+04 1.27454E+04-4.69208E-09-1.00388E-09
 -1       373 1.62124E+02-6.03834E+04 1.97451E+03-3.98460E+03-1.62072E-09 2.63162E-09
 -1       374-5.58832E+03-3.58047E+04-2.48995E+03 1.51488E+04-1.02796E-09-1.27808E-09
 -1       375 5.49196E+03-5.60884E+04-1.43921E+04-4.00633E+03-7.32507E-09-5.55019E-09
 -1       406 5.18330E+02 3.78125E+05 1.28383E+03-1.89327E+04-1.76806E-09 1.60981E-09
 -1       407 4.30260E+02 3.78366E+05 1.86018E+03-2.05932E+04-1.13323E-09 1.94996E-09
 -1       408 8.46883E+02 3.78040E+05 3.31075E+03-1.87965E+04-2.27624E-09 2.14914E-09
 -1       409 3.42857E+03 3.79336E+05 7.25879E+03-2.08234E+04-1.56160E-09-1.51340E-09
 -1       410 9.84652E+03 3.77115E+05 1.47200E+04-1.86934E+04-2.64663E-09-2.40561E-10
 -1       501-4.27471E+05-8.24038E+04 1.22389E+05-1.73768E+04 2.14424E-08 1.47338E-08
 -1       502-1.64549E+04 8.37777E+04 1.46903E+05 4.36482E+04 2.23091E-08 3.40060E-08
 -1       503-2.70992E+05-6.33414E+02 3.59509E+04-1.98839E+04 1.10545E-08 2.20152E-08
 -1       504 6.97641E+04 1.73533E+04 8.47869E+04 2.61433E+04 8.42124E-09 2.40375E-08
 -1       505-5.12650E+05-1.72406E+04-4.48914E+04 1.38302E+02 1.45217E-08-2.66391E-09
 -1       506 1.33014E+05 1.26940E+04 8.00341E+04-1.85346E+04 5.21619E-08-1.94043E-08
 -1       507-3.33688E+05 3.47406E+03-1.55206E+04 2.47265E+04 4.56114E-08-3.04437E-08
 -1       508-6.61755E+04-8.28734E+03 3.27045E+04-4.32789E+04 2.03035E-08-4.74379E-08
 -1       509-3.15170E+05 5.65863E+03-1.33516E+04 2.49488E+04 4.11599E-08-3.24431E-08
 -1       510 1.16391E+05 9.55304E+03 7.18342E+04-2.07921E+04 4.04441E-08-3.20019E-08
 -1       511-5.14665E+05-1.61642E+04-5.40794E+04 2.17408E+03 9.63951E-10-5.30974E-09
 -1       512 8.16325E+04 8.53810E+03 6.69527E+04 2.41099E+04-1.86670E-08 1.66877E-08
 -1       513-2.80712E+05 6.95866E+03-1.29564E+03-1.98876E+04-1.59034E-08 2.19818E-08
 -1       514-4.92734E+04 1.66323E+04 5.24652E+04 4.36751E+04-1.30836E-08 3.77474E-08
 -1       515-3.85019E+05-2.28234E+04-7.14713E+03-1.74010E+04-1.96547E-08 1.64464E-08
 -1       521-4.80855E+06-6.08021E+05-3.09234E+05-1.84452E+06-2.44836E-09-5.28235E-09
 -1       522-4.91807E+06-8.19341E+05-1.96595E+05-1.84467E+06-2.02817E-10-6.18638E-09
 -1       523-4.86376E+06-6.80888E+05-7.28628E+04-1.83429E+06 5.32782E-09-1.22236E-09
 -1       524-4.85398E+06-7.26593E+05-4.03585E+04-1.86077E+06 8.00128E-09-4.96266E-09
 -1       525-4.87061E+06-6.88514E+05-1.69431E+04-1.83289E+06 5.44765E-09-1.83445E-09
 -1       526-4.84631E+06-7.16687E+05-9.07144E+03-1.86239E+06 3.56238E-09 3.36848E-09
 -1       527-4.87118E+06-6.89632E+05-4.69841E+03-1.83307E+06 1.21145E-09 7.95467E-10
 -1       528-4.84653E+06-7.14610E+05-3.84782E+03-1.86115E+06-1.37152E-09-4.90218E-10
 -1       529-4.87026E+06-6.90566E+05-4.79754E+03-1.83409E+06-2.42107E-09-1.80353E-09
 -1       530-4.84966E+06-7.13232E+05-9.29261E+03-1.85819E+06 3.84966E-09 8.34734E-09
 -1       531-4.86791E+06-6.91210E+05-1.74498E+04-1.83587E+06-2.36423E-09-3.37150E-09
 -1       532-4.86065E+06-7.20199E+05-4.14704E+04-1.85272E+06-2.34218E-09-1.12777E-09
 -1       533-4.85934E+06-6.84907E+05-7.49571E+04-1.83902E+06-1.39289E-09-4.16185E-09
 -1       534-4.92926E+06-8.12793E+05-2.02086E+05-1.83304E+06-7.74889E-10-6.58474E-10
 -1       535-4.80138E+06-6.11207E+05-3.17939E+05-1.85091E+06-1.47338E-09 1.90630E-09
 -1       536 8.18196E+04-1.46195E+04 5.26899E+04-6.52733E+03 1.17598E-09-1.11504E-09
 -1       537 1.02248E+05 1.81492E+04 3.45225E+04-3.80004E+04-4.01678E-09 5.47516E-10
 -1       538 8.99524E+04-1.73209E+03 1.36429E+04-6.48467E+03-1.24601E-10-3.31056E-10
 -1       539 9.27702E+04 1.89593E+03 7.80628E+03-3.80015E+04 1.99316E-09 4.86125E-10
 -1       540 9.09289E+04-2.43309E+02 3.43624E+03-6.52119E+03 3.27418E-11 3.98791E-09
 -1       541 9.14076E+04 1.91348E+02 1.85576E+03-3.79305E+04-8.89486E-10 1.00511E-09
 -1       542 9.10474E+04-3.95385E+01 8.50651E+02-6.55617E+03-2.93312E-09-2.99190E-09
 -1       543 9.11066E+04 5.08687E+01 4.40166E+02-3.78761E+04-6.92035E-09-3.77247E-09
 -1       544 9.10597E+04 3.39171E+00 1.88181E+02-6.57570E+03-1.53887E-09-1.57047E-09
 -1       545 9.10142E+04 4.76066E+01 5.33682E+01-3.78524E+04-1.88797E-09 8.29175E-10
 -1       546 9.10658E+04 1.58835E+01-5.62579E+01-6.57980E+03 4.20812E-10-1.84212E-09
 -1       547 9.09917E+04-1.84124E+01-2.20771E+02-3.78547E+04-1.66506E-09-2.30170E-09
 -1       548 9.11042E+04 4.82386E+01-4.33888E+02-6.57344E+03-9.82936E-10 3.38861E-09
 -1       549 9.07980E+04-5.76601E+02-1.09788E+03-3.78279E+04-2.83762E-10 9.98170E-10
 -1       550 9.13777E+04 4.23668E+02-1.72434E+03-6.60665E+03-5.39330E-10-1.51479E-09
 -1       551 9.48702E+03-3.21571E+05 2.40356E+04-5.06192E+05-6.80302E-09 7.73798E-09
 -1       552 8.14173E+03-3.18420E+05 2.69483E+04-6.25012E+05-7.37418E-09 2.16569E-08
 -1       553 6.13769E+03-3.22903E+05 4.08157E+04-5.05166E+05-7.66886E-09 9.50149E-09
 -1       554 2.64806E+04-3.04866E+05 8.46994E+04-6.25145E+05-8.78936E-09 2.37742E-09
 -1       555 6.22161E+04-3.36220E+05 1.60845E+05-5.05830E+05-7.06495E-09-6.00267E-10
 -1       556-1.04047E+05-1.09877E+05 2.53733E+04-1.76320E+05-7.97081E-09-7.23230E-09
 -1       557-7.68008E+04-1.35709E+05 1.28891E+04-1.98436E+05 1.65892E-09 1.06400E-08
 -1       558-1.04292E+05-1.15622E+05 5.34697E+03-1.72369E+05 8.00355E-10-3.80169E-10
 -1       559-7.98996E+04-1.39389E+05 2.66361E+03-1.99820E+05 1.02227E-09 2.87855E-10
 -1       560-1.04859E+05-1.15340E+05 1.15588E+03-1.72612E+05 3.63798E-11 2.73985E-09
 -1       561-8.07580E+04-1.39259E+05 5.75426E+02-2.00405E+05-2.46655E-09-2.00976E-09
 -1       562-1.05311E+05-1.15036E+05 2.17390E+02-1.72924E+05-8.14907E-10 2.37833E-09
 -1       563-8.12414E+04-1.39053E+05 6.35251E+01-2.00733E+05-1.43700E-09 4.66775E-09
 -1       564-1.05575E+05-1.14861E+05-1.01712E+02-1.73108E+05 1.53705E-09 5.32418E-09
 -1       565-8.14831E+04-1.38955E+05-3.14369E+02-2.00887E+05-1.75987E-09-9.14952E-10
 -1       566-1.05630E+05-1.14801E+05-7.13111E+02-1.73159E+05 9.34506E-11-1.44792E-09
 -1       567-8.15985E+04-1.39009E+05-1.59090E+03-2.00857E+05 1.95951E-09 4.37831E-09
 -1       568-1.05397E+05-1.15002E+05-3.28381E+03-1.73026E+05-4.29100E-09-6.56473E-09
 -1       569-8.34267E+04-1.40683E+05-7.73811E+03-2.00145E+05 4.92946E-10 1.30785E-08
 -1       570-1.03956E+05-1.19658E+05-1.53951E+04-1.71084E+05 1.09139E-09 9.55515E-09
 -1       571 2.61300E+05 1.09094E+04 1.63670E+04-6.42182E+04 3.08319E-10-4.09432E-09
 -1       572 2.63755E+05 3.76282E+03 8.02597E+03-7.05379E+04-1.68711E-10-8.92669E-10
 -1       573 2.62281E+05 8.72715E+02 3.56740E+03-6.40514E+04-2.04636E-10 1.98679E-09
 -1       574 2.62570E+05 2.75609E+02 1.78906E+03-7.07207E+04 4.23597E-10 3.59250E-09
 -1       575 2.62385E+05 2.86158E+01 8.44611E+02-6.40300E+04 6.88715E-10-1.15961E-10
 -1       576 2.62410E+05 1.72546E+00 4.31183E+02-7.07448E+04 7.62611E-10-1.68166E-09
 -1       577 2.62403E+05-1.49464E+01 2.14420E+02-6.40272E+04 9.52468E-10 9.08585E-10
 -1       578 2.62398E+05-1.36663E+01 1.20772E+02-7.07479E+04 1.90767E-10-1.59343E-09
 -1       579 2.62427E+05-2.16020E+01 8.05766E+01-6.40270E+04 9.07403E-09-2.66573E-09
 -1       580 2.62432E+05-2.75692E+01 8.66147E+01-7.07445E+04 1.85282E-08 2.92721E-09
 -1       581 2.62467E+05-3.74519E+01 1.29508E+02-6.40306E+04 8.40646E-09-4.12820E-09
 -1       582 2.62511E+05-1.88948E+01 2.55957E+02-7.07061E+04 4.45652E-11 7.92170E-10
 -1       583 2.62513E+05 4.55618E+01 4.96072E+02-6.40653E+04 1.16233E-09-1.43200E-09
 -1       584 2.62752E+05 4.28865E+02 1.11457E+03-7.04110E+04-1.27875E-09-9.24501E-10
 -1       585 2.62447E+05 1.40710E+03 2.26364E+03-6.43271E+04 1.26238E-09-7.53062E-10
 -1       586 4.77155E+02 1.14667E+05 1.26005E+03-1.58726E+05 4.22915E-11-5.13774E-09
 -1       587 5.43450E+02 1.14876E+05 2.21270E+03-1.76992E+05-2.14368E-09-4.34193E-09
 -1       588 1.00356E+03 1.14469E+05 4.17501E+03-1.58519E+05-4.09273E-11 7.57268E-10
 -1       589 4.09698E+03 1.16208E+05 9.26720E+03-1.77028E+05-2.07729E-09 3.34421E-09
 -1       590 1.17977E+04 1.13280E+05 1.87351E+04-1.58685E+05-7.27596E-12 1.49157E-10
 -1       591-1.19209E+05-3.54350E+04-2.48798E+04-5.71078E+04-1.42563E-10-1.49521E-09
 -1       592-1.20964E+05-3.45110E+04-1.25510E+04-6.36787E+04-8.36735E-10 3.68925E-09
 -1       593-1.20519E+05-2.86676E+04-5.32638E+03-6.05367E+04 6.00949E-10-1.57252E-09
 -1       594-1.18115E+05-3.14160E+04-2.61775E+03-6.38937E+04-2.12276E-09-8.78961E-09
 -1       595-1.20659E+05-2.84950E+04-1.20814E+03-6.06653E+04 7.25322E-11 2.20598E-09
 -1       596-1.17922E+05-3.13081E+04-6.10465E+02-6.38648E+04 8.73854E-10-3.19778E-09
 -1       597-1.20681E+05-2.85163E+04-3.28052E+02-6.06655E+04-4.50486E-09 1.53966E-09
 -1       598-1.17902E+05-3.13092E+04-2.54301E+02-6.38555E+04-1.18363E-08-2.68301E-11
 -1       599-1.20679E+05-2.85182E+04-3.13003E+02-6.06641E+04-4.60636E-09-1.71167E-09
 -1       600-1.17916E+05-3.13105E+04-5.70756E+02-6.38595E+04 1.90994E-10 5.76063E-09
 -1       601-1.20653E+05-2.85015E+04-1.12268E+03-6.06613E+04 6.36646E-12 4.20869E-09
 -1       602-1.18093E+05-3.14098E+04-2.42919E+03-6.38789E+04-2.34832E-09-9.22910E-09
 -1       603-1.20517E+05-2.86676E+04-4.94102E+03-6.05422E+04-9.33596E-10-9.91349E-10
 -1       604-1.20761E+05-3.42497E+04-1.16402E+04-6.36387E+04-1.27329E-11 1.91176E-09
 -1       605-1.19268E+05-3.49718E+04-2.30738E+04-5.73914E+04 4.97403E-09 1.88547E-08
 -1       606 8.74411E+04-1.02602E+04-1.65040E+04 2.72828E+04-6.23186E-09 1.74077E-09
 -1       607 8.47907E+04-3.41608E+03-8.13683E+03 3.00342E+04-2.03818E-09 6.19184E-09
 -1       608 8.63200E+04-6.95363E+02-3.62840E+03 2.70895E+04-4.75666E-09 2.25259E-09
 -1       609 8.59811E+04-1.84785E+02-1.82327E+03 3.02456E+04-1.91585E-08-6.08134E-09
 -1       610 8.61690E+04 2.03899E+01-8.64062E+02 2.70659E+04-1.47884E-08-2.40743E-09
 -1       611 8.60990E+04 4.83964E+01-4.34492E+02 3.02708E+04-1.10117E-08-3.84262E-10
 -1       612 8.61294E+04 5.47053E+01-2.05694E+02 2.70635E+04-6.27278E-09 1.38698E-11
 -1       613 8.60998E+04 6.11266E+01-9.13361E+01 3.02738E+04-7.47832E-09 4.12842E-09
 -1       614 8.61087E+04 5.51534E+01-1.99701E+01 2.70628E+04-9.84073E-10 2.41653E-09
 -1       615 8.60909E+04 6.60335E+01 4.24162E+01 3.02739E+04 4.71482E-09 3.02930E-09
 -1       616 8.60926E+04 6.28076E+01 1.23371E+02 2.70632E+04-3.89446E-09 3.45403E-09
 -1       617 8.61031E+04 1.05508E+02 2.82122E+02 3.02727E+04-5.66160E-11 3.66617E-09
 -1       618 8.60644E+04 1.77688E+02 5.70743E+02 2.70638E+04-1.25738E-09 4.08272E-09
 -1       619 8.62902E+04 6.17827E+02 1.28631E+03 3.02672E+04 7.63293E-10 2.82989E-09
 -1       620 8.58872E+04 1.69217E+03 2.61100E+03 2.70660E+04 1.81228E-09 8.89031E-10
 -1       621 8.98728E+02 2.64895E+05 3.21611E+03-1.85826E+04-6.48015E-12 2.85502E-09
 -1       622 4.09737E+02 2.65550E+05 3.24652E+03-2.29979E+04 5.40240E-10 1.02955E-09
 -1       623 2.13455E+02 2.64997E+05 4.63445E+03-1.85913E+04-3.45608E-11-9.38144E-10
 -1       624 2.34337E+03 2.67058E+05 9.42666E+03-2.29148E+04 4.90218E-10 6.49379E-10
 -1       625 6.48647E+03 2.63407E+05 1.78433E+04-1.86629E+04-5.18412E-11-5.56611E-10
 -1       626 1.58472E+05 5.09666E+04-3.04200E+03 1.00467E+05 6.81212E-10 5.44060E-09
 -1       627 1.55024E+05 5.50962E+04-1.44582E+03 1.03399E+05 3.44426E-09 3.65435E-09
 -1       628 1.58591E+05 5.23394E+04-6.08372E+02 9.96329E+04 4.11546E-09 7.74230E-09
 -1       629 1.55127E+05 5.58069E+04-2.89318E+02 1.03450E+05 3.01998E-09 9.78048E-10
 -1       630 1.58573E+05 5.24350E+04-1.24575E+02 9.95526E+04 2.57205E-09-1.81672E-09
 -1       631 1.55111E+05 5.58669E+04-4.71861E+01 1.03450E+05-3.03589E-09 3.38844E-10
 -1       632 1.58552E+05 5.24431E+04 5.80467E+00 9.95375E+04 1.13869E-09 5.54746E-09
 -1       633 1.55100E+05 5.58740E+04 6.14393E+01 1.03445E+05-4.61569E-11 1.50922E-08
 -1       634 1.58537E+05 5.24398E+04 1.48356E+02 9.95322E+04-2.98769E-10 1.28011E-10
 -1       635 1.55112E+05 5.58782E+04 3.32400E+02 1.03446E+05-6.21515E-09-1.25960E-08
 -1       636 1.58521E+05 5.24506E+04 6.87548E+02 9.95226E+04-2.40715E-09 1.04101E-08
 -1       637 1.55272E+05 5.60458E+04 1.53113E+03 1.03423E+05-3.57147E-10-2.10457E-09
 -1       638 1.58482E+05 5.29612E+04 3.16764E+03 9.92986E+04-9.50172E-09 4.71118E-09
 -1       639 1.56895E+05 5.87622E+04 7.52902E+03 1.02775E+05-1.78254E-08 3.16140E-09
 -1       640 1.58507E+05 6.08847E+04 1.58296E+04 9.59933E+04-5.13546E-09 1.04264E-08
 -1       641-2.00157E+04 3.18523E+03-7.34302E+03-3.60670E+01 2.89159E-05-3.88859E-08
 -1       642-2.32006E+04-3.68658E+03-5.19579E+03 6.08070E+00 5.77762E-05-7.07082E-08
 -1       643-2.12435E+04 5.00593E+02-1.89359E+03-4.02554E+01 5.33587E-05-7.56411E-08
 -1       644-2.17697E+04-5.78100E+02-1.17998E+03 1.36083E+01 4.89116E-05-6.07809E-08
 -1       645-2.14467E+04 7.73381E+01-4.56655E+02-4.35958E+01 3.18727E-05-5.02356E-08
 -1       646-2.15285E+04-8.28838E+01-2.22958E+02 1.78525E+01 1.48193E-05-2.21098E-08
 -1       647-2.14846E+04 5.46600E+00-1.29905E+01-4.44999E+01-9.07558E-06 1.71716E-08
 -1       648-2.14628E+04 3.60825E+01 1.72848E+02 1.68964E+01-3.29898E-05 4.82076E-08
 -1       649-2.15124E+04-4.16140E+01 4.04211E+02-4.26397E+01-5.93996E-05 9.32806E-08
 -1       650-2.13105E+04 3.20797E+02 9.86322E+02 1.05171E+01-8.58043E-05 1.19274E-07
 -1       651-2.16369E+04-2.79212E+02 1.71654E+03-3.81206E+01-1.08520E-04 1.53320E-07
 -1       652-2.04602E+04 2.06461E+03 4.25393E+03-1.16054E+00-1.31217E-04 1.66377E-07
 -1       653-2.23627E+04-1.78511E+03 6.77007E+03-3.09620E+01-1.36402E-04 1.78336E-07
 -1       654-1.53546E+04 1.31414E+04 1.85334E+04-2.04456E+01-1.41509E-04 1.58594E-07
 -1       655-2.67413E+04-1.13537E+04 2.61777E+04-1.88359E+01-7.08097E-05 6.80284E-08
 -1       656 9.99095E+03-3.74842E+05-4.24939E+04 1.02064E+04-1.41699E-09 2.87355E-09
 -1       657-1.45672E+04-3.90552E+05-3.15218E+04 4.33678E+04-7.25777E-10 5.57588E-09
 -1       658 2.06003E+03-3.80305E+05-2.05180E+04 1.01058E+04-1.36265E-09 7.10600E-09
 -1       659-1.43470E+04-3.90466E+05-3.11623E+04 4.34326E+04-7.07132E-10 1.77747E-09
 -1       660 9.83777E+03-3.74974E+05-4.18074E+04 1.01423E+04-2.29011E-09-1.23100E-09
 -1       661 2.32414E+05 3.23230E+04 1.84539E+04 9.12652E+04 5.35783E-09-5.23141E-09
 -1       662 2.36373E+05 4.30536E+04 1.11130E+04 9.39855E+04 1.43842E-09 3.00849E-09
 -1       663 2.35247E+05 3.50746E+04 4.33135E+03 9.12816E+04 1.31635E-10 1.93722E-10
 -1       664 2.33060E+05 3.85959E+04 2.28579E+03 9.45041E+04 1.19436E-08 3.59384E-09
 -1       665 2.35518E+05 3.53260E+04 1.01161E+03 9.12930E+04 4.12163E-09-2.26339E-09
 -1       666 2.32744E+05 3.82246E+04 5.38457E+02 9.45258E+04 5.98035E-09 7.14042E-10
 -1       667 2.35549E+05 3.53508E+04 3.13572E+02 9.12953E+04-7.22054E-10-4.61699E-09
 -1       668 2.32715E+05 3.82000E+04 3.01256E+02 9.45281E+04 1.60890E-09 3.92259E-09
 -1       669 2.35547E+05 3.53460E+04 4.39609E+02 9.12930E+04-2.51464E-09 1.83860E-09
 -1       670 2.32770E+05 3.82561E+04 8.79446E+02 9.45389E+04-1.27403E-09-5.94548E-09
 -1       671 2.35498E+05 3.52976E+04 1.72096E+03 9.12849E+04 3.73268E-09 4.90616E-09
 -1       672 2.33313E+05 3.89029E+04 3.93052E+03 9.45113E+04 1.39144E-08 1.96303E-09
 -1       673 2.35032E+05 3.48601E+04 7.46247E+03 9.12623E+04 3.79180E-09 3.08501E-09
 -1       674 2.39024E+05 4.65948E+04 1.91605E+04 9.36238E+04 8.73713E-09 1.63304E-08
 -1       675 2.30148E+05 3.01133E+04 3.18192E+04 9.12323E+04 3.29055E-09-5.05679E-10
 -1       676 3.92718E+02-3.34774E+05-2.70652E+03-3.20630E+02 6.78699E-09-1.23977E-09
 -1       677-1.12430E+03-3.35840E+05-4.06035E+03-2.04222E+03-6.51579E-09 2.23918E-09
 -1       678 5.20892E+02-3.34636E+05-6.14917E+03-3.23069E+02-2.25782E-09 2.86704E-09
 -1       679-6.86633E+03-3.39322E+05-1.45036E+04-2.03262E+03-3.03612E-09 2.12287E-09
 -1       680 4.86754E+03-3.31294E+05-2.25941E+04-3.31447E+02-2.44654E-09 2.37173E-09
 -1       716-2.98062E-01-1.40639E-01 1.34636E+01-5.08392E-04 4.98035E-09-3.57581E-09
 -1       717 1.48441E+00 1.08329E+00 2.37111E+01 1.29289E-03 1.36116E-09 3.72520E-10
 -1       718-1.17797E+00-9.34643E-01 4.40004E+01-7.89513E-04-4.40253E-09-1.60970E-09
 -1       719 6.99885E+00 7.36263E+00 9.12637E+01-1.20952E-03-6.49228E-09-2.44248E-09
 -1       720-5.81259E+00-6.42039E+00 1.74064E+02 1.99545E-03-8.12414E-09-2.44651E-09
 -1       721 3.62118E+01 4.90416E+01 3.72005E+02-4.19989E-02-9.16920E-09-8.80959E-10
 -1       722-3.03909E+01-4.26120E+01 6.96267E+02 3.99951E-02-7.12280E-09-1.08997E-10
 -1       723 1.96868E+02 3.19984E+02 1.53363E+03-4.02859E-01-6.83808E-09 7.40243E-10
 -1       724-1.66462E+02-2.77331E+02 2.77716E+03 3.62774E-01-9.88324E-09-2.63765E-09
 -1       725 1.11510E+03 2.06191E+03 6.40051E+03-3.09801E+00-8.73049E-09-2.79294E-09
 -1       726-9.48474E+02-1.78423E+03 1.10122E+04 2.73462E+00-1.16084E-08-3.98632E-09
 -1       727 6.52493E+03 1.31850E+04 2.71856E+04-2.17920E+01-1.33613E-08-6.73026E-10
 -1       728-5.57373E+03-1.13979E+04 4.32526E+04 1.90569E+01-5.10727E-09-3.36695E-09
 -1       729 3.91164E+04 8.39120E+04 1.18352E+05-1.46573E+02-1.81215E-09-2.41380E-09
 -1       730-3.34976E+04-7.24870E+04 1.67271E+05 1.27575E+02 6.25346E-09-2.04454E-09
 -1       766-7.25012E+04-3.35298E+04 1.67242E+05-7.27204E+01-1.09139E-10-3.49928E-10
 -1       767 8.40310E+04 3.91671E+04 1.18338E+05-8.85993E+01 5.42786E-09-1.57971E-09
 -1       768-1.15025E+04-5.66187E+03 4.31118E+04 3.98795E+01-2.76486E-10-6.37954E-10
 -1       769 1.39561E+04 6.89671E+03 2.71997E+04-2.18092E+02 4.38195E-09 4.34724E-09
 -1       770-2.44997E+03-1.30139E+03 1.03821E+04 5.68282E+01-5.08862E-10 2.17360E-09
 -1       771-2.09722E+06-3.91683E+05-5.69026E+04-8.84987E+05-2.21553E-09-7.85803E-10
 -1       772-2.09022E+06-3.99949E+05-2.86344E+04-9.11956E+05-4.51109E-10-2.00998E-10
 -1       773-2.10126E+06-3.75442E+05-1.22428E+04-8.92452E+05 1.75351E-09-2.91038E-10
 -1       774-2.08363E+06-3.93432E+05-5.98323E+03-9.13762E+05 2.21189E-09-1.11413E-09
 -1       775-2.10217E+06-3.74626E+05-2.81595E+03-8.92897E+05-2.72848E-10 2.05455E-09
 -1       776-2.08350E+06-3.93178E+05-1.40469E+03-9.14300E+05-1.51340E-09 1.08139E-09
 -1       777-2.10267E+06-3.74380E+05-7.86261E+02-8.93056E+05 1.74623E-10-3.27418E-11
 -1       778-2.08371E+06-3.93133E+05-5.93122E+02-9.14690E+05 2.31012E-10 4.32919E-10
 -1       779-2.10297E+06-3.74180E+05-7.53182E+02-8.93167E+05-9.09495E-10 2.59206E-10
 -1       780-2.08392E+06-3.93106E+05-1.36068E+03-9.14961E+05-1.61162E-09-2.09911E-09
 -1       781-2.10308E+06-3.74024E+05-2.69347E+03-8.93224E+05-2.19188E-10-2.73758E-10
 -1       782-2.08443E+06-3.93330E+05-5.83679E+03-9.15116E+05 1.95723E-09 2.28465E-09
 -1       783-2.10279E+06-3.74405E+05-1.18919E+04-8.92956E+05-8.39577E-10-6.96673E-10
 -1       784-2.09088E+06-4.00158E+05-2.80535E+04-9.14468E+05-1.72599E-09-1.34969E-09
 -1       785-2.09967E+06-3.89680E+05-5.56394E+04-8.85380E+05 5.90262E-10 7.83984E-10
 -1       786 2.02949E+05-6.66253E+03 2.44216E+04-9.62200E+02-1.42109E-11-2.23736E-09
 -1       787 2.12097E+05 8.48525E+03 1.59540E+04-5.71927E+03 9.34506E-11-1.51431E-09
 -1       788 2.06723E+05-7.45485E+02 6.34135E+03-9.64082E+02-4.75609E-10-1.14846E-09
 -1       789 2.07857E+05 9.25676E+02 3.60744E+03-5.70983E+03 6.31729E-10 4.29736E-10
 -1       790 2.07185E+05-8.51945E+01 1.61504E+03-9.71311E+02-2.06910E-10-2.25248E-09
 -1       791 2.07331E+05 1.00070E+02 8.77063E+02-5.69989E+03 1.80307E-10-3.94725E-09
 -1       792 2.07247E+05-1.06724E+01 4.45123E+02-9.74022E+02 4.62101E-10 2.32620E-09
 -1       793 2.07263E+05 1.45607E+01 2.98066E+02-5.69945E+03-2.45990E-10 4.70575E-09
 -1       794 2.07253E+05-5.88765E+00 2.74134E+02-9.71756E+02-2.98257E-10 4.00198E-09
 -1       795 2.07285E+05 4.32165E+01 4.21686E+02-5.70920E+03 8.25054E-10 1.92753E-10
 -1       796 2.07228E+05-3.77915E+01 7.19728E+02-9.64268E+02 2.22627E-09 3.28259E-09
 -1       797 2.07514E+05 3.99151E+02 1.57360E+03-5.72767E+03 4.27895E-09-3.29192E-09
 -1       798 2.07028E+05-3.24547E+02 2.75203E+03-9.53285E+02 2.61434E-09 1.49385E-10
 -1       799 2.09355E+05 3.67356E+03 6.91580E+03-5.74222E+03-1.45548E-09-9.40076E-10
 -1       800 2.05393E+05-2.88974E+03 1.05812E+04-9.49920E+02 1.13005E-10-4.02497E-09
 -1       801-1.59105E+04 3.39396E+05 4.19090E+04-2.01394E+05 1.06011E-08-9.10222E-09
 -1       802 3.89688E+04 3.52356E+05 5.41273E+04-1.15061E+06 3.15777E-08-5.13137E-09
 -1       803-2.80694E+03 3.38494E+05 6.22996E+04-2.01266E+05 1.99580E-08 1.06457E-08
 -1       804 9.06549E+04 3.82084E+05 1.39896E+05-1.15049E+06 3.22761E-08 1.19016E-08
 -1       805-6.13197E+04 3.10421E+05 2.00900E+05-2.01538E+05 1.00263E-08 1.16124E-08
 -1       806-1.81963E+05-5.56988E+04-1.68814E+04-9.25783E+04 4.45800E-09 6.32281E-09
 -1       807-1.81450E+05-5.22285E+04-8.02785E+03-9.84540E+04 1.28307E-09 6.53245E-10
 -1       808-1.81940E+05-4.72580E+04-3.37839E+03-9.61356E+04 1.17102E-08-1.92802E-09
 -1       809-1.79762E+05-4.93001E+04-1.63335E+03-9.91316E+04 1.14401E-08-1.86935E-08
 -1       810-1.81991E+05-4.67088E+04-7.37264E+02-9.63836E+04 6.93467E-09-5.53655E-10
 -1       811-1.79602E+05-4.91165E+04-3.63888E+02-9.91571E+04-1.05365E-09-3.00088E-09
 -1       812-1.82005E+05-4.66971E+04-1.79116E+02-9.63936E+04 2.61082E-09 5.68321E-09
 -1       813-1.79582E+05-4.91142E+04-1.10671E+02-9.91508E+04 2.09093E-09 8.37463E-09
 -1       814-1.82004E+05-4.67035E+04-9.98270E+01-9.63903E+04 1.51203E-10-9.52696E-10
 -1       815-1.79582E+05-4.91198E+04-1.53294E+02-9.91453E+04 2.14641E-10-9.64974E-10
 -1       816-1.81989E+05-4.67146E+04-2.85602E+02-9.63820E+04-2.38606E-09 1.13687E-11
 -1       817-1.79642E+05-4.91845E+04-6.20271E+02-9.91177E+04-8.18090E-10-2.20552E-10
 -1       818-1.81953E+05-4.69368E+04-1.27779E+03-9.62917E+04 1.48611E-09 5.71072E-09
 -1       819-1.80345E+05-5.02153E+04-3.03161E+03-9.87630E+04-3.12866E-10-2.74508E-09
 -1       820-1.81876E+05-5.01951E+04-6.37393E+03-9.50216E+04 3.10956E-09 5.82986E-09
 -1       821-2.49222E+05 8.57605E+03-3.14513E+04 1.09681E+03-2.66846E-09 2.07365E-09
 -1       822-2.60987E+05-1.09270E+04-2.05458E+04 6.94541E+03-2.16687E-09-9.20409E-10
 -1       823-2.54083E+05 9.57355E+02-8.17063E+03 1.04226E+03 3.59887E-09-3.08319E-09
 -1       824-2.55542E+05-1.18392E+03-4.65113E+03 7.02619E+03-3.55953E-10-1.69143E-09
 -1       825-2.54679E+05 1.09719E+02-2.09472E+03 1.01550E+03-6.36476E-09 1.19167E-09
 -1       826-2.54875E+05-1.16875E+02-1.15865E+03 7.07029E+03-8.74638E-09 7.61105E-10
 -1       827-2.54758E+05 1.61138E+01-6.32278E+02 9.98032E+02-8.04539E-09 2.33052E-09
 -1       828-2.54800E+05-1.03366E+01-5.06210E+02 7.09741E+03-1.12157E-08 6.04095E-09
 -1       829-2.54760E+05 1.56856E+01-5.90271E+02 9.88358E+02-3.46839E-09-2.36549E-09
 -1       830-2.54871E+05-1.00409E+02-1.04796E+03 7.10817E+03 5.54543E-09-8.75957E-10
 -1       831-2.54690E+05 1.00366E+02-1.87550E+03 9.87276E+02-3.04091E-09-1.05382E-09
 -1       832-2.55471E+05-1.05041E+03-4.15592E+03 7.10180E+03-7.67500E-10-4.65286E-09
 -1       833-2.54158E+05 8.58357E+02-7.29398E+03 9.94852E+02-9.99876E-10 1.37834E-09
 -1       834-2.60338E+05-9.74646E+03-1.83430E+04 7.06996E+03 9.51388E-10-4.45652E-11
 -1       835-2.49820E+05 7.66112E+03-2.80751E+04 1.02013E+03 2.66596E-10-5.14410E-09
 -1       836-2.80667E+03 3.97449E+05 3.17468E+04-2.23465E+04-3.77077E-09 6.08225E-09
 -1       837 7.46248E+03 4.07576E+05 2.43960E+04-4.83506E+04-2.90231E-09 6.02540E-09
 -1       838-6.83531E+02 4.00798E+05 2.07739E+04-2.22876E+04-4.51382E-09 8.21159E-09
 -1       839 1.25056E+04 4.11200E+05 3.57828E+04-4.83515E+04-3.46563E-09-1.27329E-10
 -1       840-5.06940E+03 3.93820E+05 5.46631E+04-2.23444E+04-3.98722E-09 4.57931E-10
 -1       841 7.24454E+04 1.04603E+04-7.12106E+02 2.70388E+04-1.43883E-09-1.29319E-09
 -1       842 7.19353E+04 9.96996E+03-4.87518E+02 2.73503E+04-1.24958E-08 7.17049E-09
 -1       843 7.22762E+04 1.02424E+04-1.63433E+02 2.71308E+04-1.58802E-05 5.96841E-06
 -1       844 7.21419E+04 1.02132E+04-9.56805E+01 2.72323E+04-3.17479E-05 1.19421E-05
 -1       845 7.22388E+04 1.02172E+04-2.34803E+01 2.71567E+04-2.15026E-05 8.08407E-06
 -1       846 7.21931E+04 1.02430E+04 1.26136E+01 2.71966E+04-1.12447E-05 4.22615E-06
 -1       847 7.22249E+04 1.02126E+04 5.73716E+01 2.71664E+04-6.70490E-06 2.51591E-06
 -1       848 7.22305E+04 1.02793E+04 1.53947E+02 2.71797E+04-2.16379E-06 8.16620E-07
 -1       849 7.22014E+04 1.01809E+04 2.87499E+02 2.71736E+04-5.73202E-07 2.14701E-07
 -1       850 7.23786E+04 1.05204E+04 7.28740E+02 2.71394E+04 1.01553E-06-3.82308E-07
 -1       851 7.20768E+04 9.97150E+03 1.25898E+03 2.72067E+04 6.14164E-07-2.31082E-07
 -1       852 7.32679E+04 1.20545E+04 3.39970E+03 2.68739E+04 2.16057E-07-8.09287E-08
 -1       853 7.13120E+04 8.64700E+03 5.43692E+03 2.74390E+04-2.39794E-06 9.09057E-07
 -1       854 7.87613E+04 2.17612E+04 1.61218E+04 2.50748E+04-5.01809E-06 1.88578E-06
 -1       855 6.65836E+04 2.66477E+02 2.32055E+04 2.90052E+04-2.51081E-06 9.38537E-07
 -1       856-1.98353E+05 3.00220E+03-2.39132E+04 7.12117E+03-5.52200E-09-3.11957E-09
 -1       857-2.06170E+05-5.76500E+03-1.46043E+04 1.71429E+04-3.06682E-09-5.88648E-09
 -1       858-2.01733E+05 2.79986E+02-6.14008E+03 7.04000E+03-3.44880E-09-2.58933E-09
 -1       859-2.02510E+05-3.92838E+02-3.30322E+03 1.72364E+04 6.74243E-09-2.34490E-09
 -1       860-2.02057E+05 4.84281E+01-1.55008E+03 7.02561E+03-3.28441E-09-5.25085E-09
 -1       861-2.02172E+05 1.97115E+01-8.14864E+02 1.72557E+04-2.10508E-08-2.16073E-09
 -1       862-2.02098E+05 2.69734E+01-4.24966E+02 7.02040E+03-2.61878E-09-2.80352E-10
 -1       863-2.02136E+05 5.13357E+01-2.80474E+02 1.72613E+04 1.19209E-08 1.57416E-09
 -1       864-2.02102E+05 2.51577E+01-2.63064E+02 7.01990E+03 9.64337E-09-2.66834E-09
 -1       865-2.02144E+05 3.83562E+01-3.95958E+02 1.72569E+04 1.35626E-08-2.77566E-10
 -1       866-2.02084E+05 3.23777E+01-6.98742E+02 7.02485E+03 2.00953E-09 2.73985E-10
 -1       867-2.02284E+05-1.45661E+02-1.45715E+03 1.72399E+04-3.45835E-10 1.03778E-09
 -1       868-2.01939E+05 1.30082E+02-2.69708E+03 7.03704E+03 4.54247E-09-1.35037E-09
 -1       869-2.03874E+05-2.50539E+03-6.40266E+03 1.71512E+04-3.00133E-11 2.04864E-09
 -1       870-2.00452E+05 1.31708E+03-1.04852E+04 7.11465E+03 6.34373E-10-4.09727E-09
 -1       871-3.63849E+03-3.17245E+04-8.16583E+03 1.09342E+05 2.35104E-09 4.40741E-09
 -1       872-1.29526E+03-3.33649E+04-2.70871E+03 1.33352E+05-1.28148E-09 5.92991E-09
 -1       873-4.81848E+01-3.27219E+04 1.75664E+03 1.09121E+05 7.48514E-10 1.14492E-08
 -1       874 2.02001E+03-3.09671E+04 7.51364E+03 1.33422E+05-1.24055E-09 1.74194E-08
 -1       875 6.26057E+03-3.42205E+04 1.61604E+04 1.09284E+05 1.73804E-09 1.29171E-08
 -1       876 3.11293E+05 4.47588E+04 2.75173E+04 1.23649E+05-1.01454E-09-9.85892E-09
 -1       877 3.16410E+05 5.99712E+04 1.63546E+04 1.28535E+05-1.52204E-09-6.27847E-09
 -1       878 3.15364E+05 4.81954E+04 6.43764E+03 1.23878E+05 6.71571E-09 4.20141E-09
 -1       879 3.11605E+05 5.37212E+04 3.36246E+03 1.29201E+05 6.61066E-09-3.56431E-09
 -1       880 3.15727E+05 4.85097E+04 1.49452E+03 1.23915E+05 5.08930E-09-1.77079E-09
 -1       881 3.11174E+05 5.32260E+04 7.81585E+02 1.29204E+05-8.44011E-10 4.08357E-09
 -1       882 3.15761E+05 4.85484E+04 4.36610E+02 1.23924E+05 2.82046E-09-1.24696E-09
 -1       883 3.11138E+05 5.31857E+04 3.84277E+02 1.29190E+05-1.27604E-08-3.17306E-09
 -1       884 3.15756E+05 4.85492E+04 5.26864E+02 1.23925E+05-8.47405E-09 3.63951E-09
 -1       885 3.11199E+05 5.32342E+04 1.02378E+03 1.29196E+05-2.43902E-09 1.50635E-11
 -1       886 3.15702E+05 4.85039E+04 2.00201E+03 1.23917E+05-1.29171E-09-8.65384E-10
 -1       887 3.11786E+05 5.38940E+04 4.52750E+03 1.29178E+05-1.14647E-09-1.12959E-09
 -1       888 3.15203E+05 4.80867E+04 8.67860E+03 1.23872E+05-5.25648E-09 1.46201E-09
 -1       889 3.18254E+05 6.23313E+04 2.20520E+04 1.28284E+05 1.76466E-08 1.66619E-09
 -1       890 3.09723E+05 4.34430E+04 3.71070E+04 1.23547E+05 7.08587E-09-2.78123E-09
 -1       891 4.63503E+02-1.47621E+05-5.93460E+03 3.32242E+04 2.67778E-09-6.47015E-09
 -1       892-1.47770E+03-1.49462E+05-4.44088E+03 7.22359E+04 1.49885E-09-5.21482E-10
 -1       893 7.81764E+01-1.48292E+05-3.61260E+03 3.31299E+04 2.68210E-09 1.71656E-09
 -1       894-2.18876E+03-1.49943E+05-6.02411E+03 7.22101E+04-3.86899E-09 1.20281E-10
 -1       895 7.60648E+02-1.47099E+05-9.12514E+03 3.32493E+04 1.73304E-09 3.59069E-09
 -1       926-5.47459E+02-9.42625E+02 2.15129E+03 3.52838E+01 3.87516E-10-1.00840E-09
 -1       927 5.86724E+02 1.09121E+03 1.57409E+03-1.38958E+02-2.46756E-09-1.33241E-09
 -1       928-1.59922E+02-1.48872E+02 5.92209E+02 3.42505E+01 1.27519E-10-6.32838E-10
 -1       929 1.23769E+02 1.77959E+02 4.56269E+02-1.37914E+02 1.60308E-09-6.70852E-10
 -1       930-8.47921E+01-2.93474E+01 3.11722E+02 3.42392E+01 4.20499E-11-2.99604E-10
 -1       931 4.87341E+01 7.53401E+01 4.63671E+02-1.37924E+02-2.83030E-10-1.53644E-10
 -1       932-8.51047E+01-4.61200E+01 7.33303E+02 3.42602E+01-1.26867E-11-5.53086E-11
 -1       933 1.75140E+02 3.25118E+02 1.56401E+03-1.37921E+02-1.11113E-09 1.80734E-10
 -1       934-2.11339E+02-2.78992E+02 2.79970E+03 3.42363E+01-1.65078E-06-2.17597E-10
 -1       935 1.08382E+03 2.07251E+03 6.43844E+03-1.37702E+02-3.29927E-06-5.54792E-10
 -1       936-9.93714E+02-1.79315E+03 1.10708E+04 3.40407E+01-1.23610E-06-1.28239E-10
 -1       937 6.51976E+03 1.32523E+04 2.73258E+04-1.37426E+02 8.32795E-07 7.06223E-10
 -1       938-5.64470E+03-1.14561E+04 4.34737E+04 3.39610E+01 5.63215E-07 3.45608E-11
 -1       939 3.92881E+04 8.43427E+04 1.18959E+05-1.50045E+02 2.83452E-07 1.47338E-10
 -1       940-3.37192E+04-7.28598E+04 1.68122E+05 4.66569E+01 1.40295E-07 9.24047E-10
 -1       956-2.81534E+05-5.18739E+03-1.20932E+04 3.43348E+04-4.48745E-09-1.64164E-09
 -1       957-2.83861E+05-1.68097E+03-6.16314E+03 4.07334E+04-1.48611E-09 3.31511E-10
 -1       958-2.82595E+05-1.46446E+02-2.77648E+03 3.41252E+04 3.70892E-09-8.27413E-10
 -1       959-2.82805E+05 1.22229E+00-1.41461E+03 4.09616E+04-2.49383E-09-2.30057E-09
 -1       960-2.82714E+05 6.80738E+01-6.87958E+02 3.41042E+04-4.49745E-09-5.00813E-09
 -1       961-2.82745E+05 8.01799E+01-3.61088E+02 4.09854E+04-9.48194E-09 2.48474E-09
 -1       962-2.82748E+05 7.33982E+01-2.00589E+02 3.41010E+04-5.08226E-09-1.81717E-09
 -1       963-2.82753E+05 8.84990E+01-1.49693E+02 4.09896E+04-5.70799E-09-4.10182E-09
 -1       964-2.82759E+05 7.91220E+01-1.68358E+02 3.41000E+04 7.51015E-10-7.21229E-10
 -1       965-2.82767E+05 9.33141E+01-2.79820E+02 4.09894E+04 6.92904E-09 7.18910E-09
 -1       966-2.82751E+05 8.50816E+01-5.19497E+02 3.41011E+04-4.97630E-09 1.15551E-09
 -1       967-2.82830E+05 4.37581E+01-1.06343E+03 4.09759E+04-7.76026E-10 3.66526E-10
 -1       968-2.82675E+05-6.75378E+01-2.08325E+03 3.41138E+04 1.69166E-10 1.55592E-09
 -1       969-2.83637E+05-1.21219E+03-4.62646E+03 4.08347E+04 2.77396E-10-2.90112E-09
 -1       970-2.81887E+05-3.84802E+03-9.07621E+03 3.42461E+04-1.06866E-09-2.28101E-09
 -1       971-3.59540E+05 1.01772E+03-1.58058E+04 9.29543E+03-3.91719E-09 3.40879E-09
 -1       972-3.64397E+05-3.27160E+03-9.40779E+03 1.89181E+04-3.36377E-09-1.26420E-10
 -1       973-3.61686E+05 1.12837E+02-4.03210E+03 9.18175E+03-3.61888E-09-6.16069E-09
 -1       974-3.62116E+05-1.67716E+02-2.14428E+03 1.90520E+04-1.69007E-09-2.88924E-09
 -1       975-3.61878E+05 3.63573E+01-1.03542E+03 9.15995E+03-2.42835E-10-4.72824E-10
 -1       976-3.61936E+05 4.15910E+01-5.73233E+02 1.90834E+04-1.46247E-09-2.36662E-09
 -1       977-3.61906E+05 3.14524E+01-3.64687E+02 9.15007E+03 5.35215E-09 5.69969E-10
 -1       978-3.61929E+05 5.78682E+01-3.60632E+02 1.90966E+04 1.84244E-08-3.81760E-09
 -1       979-3.61905E+05 3.57398E+01-5.21892E+02 9.14666E+03 9.06275E-09-4.17134E-09
 -1       980-3.61972E+05 3.65060E+01-9.79257E+02 1.90965E+04 6.43240E-09-1.50658E-09
 -1       981-3.61863E+05 5.59534E+01-1.86438E+03 9.15018E+03 9.74296E-10 7.59741E-10
 -1       982-3.62334E+05-3.34494E+02-3.92480E+03 1.90804E+04-2.13083E-09-1.47705E-09
 -1       983-3.61524E+05 2.10284E+02-7.39999E+03 9.16315E+03 5.09908E-09-3.25417E-09
 -1       984-3.66568E+05-6.02689E+03-1.72978E+04 1.89843E+04 5.52586E-09 3.38332E-10
 -1       985-3.57593E+05 1.89214E+03-2.90543E+04 9.25036E+03 7.10679E-09-3.10320E-09
 -3
    1PSTEP                        29          15           1          
  100CL  115 7.10114E-01         608                     0   15           1
 -4  DISP        4    1
 -5  D1          1    2    1    0
 -5  D2          1    2    2    0
 -5  D3          1    2    3    0
 -5  ALL         1    2    0    0    1ALL
 -1         1 1.23384E-04 0.00000E+00 0.00000E+00
 -1         2 9.69033E-05 0.00000E+00 0.00000E+00
 -1         3 6.56368E-05 0.00000E+00 0.00000E+00
 -1         4 5.82112E-05 0.00000E+00 0.00000E+00
 -1         5 5.30988E-05 0.00000E+00 0.00000E+00
 -1         8 9.83073E-05-1.18864E-06 0.00000E+00
 -1         9 5.86873E-05-5.83650E-07 0.00000E+00
 -1        10 6.59152E-05-1.92596E-06 0.00000E+00
 -1        11 5.88378E-05-4.52948E-07 0.00000E+00
 -1        12 5.18683E-05 8.75992E-07 0.00000E+00
 -1        15 7.10384E-05-1.28243E-06 0.00000E+00
 -1        16 5.78021E-05-6.67739E-07 0.00000E+00
 -1        17 4.62621E-05-4.05136E-06 0.00000E+00
 -1        18 4.68991E-05-8.56306E-07 0.00000E+00
 -1        19 4.85103E-05 1.74300E-06 0.00000E+00
 -1        20 4.90354E-05 2.09196E-05 0.00000E+00
 -1        21 4.88812E-05 4.58167E-05 0.00000E+00
 -1        23 1.94488E-05-6.15567E-05-8.07794E-28
 -1        24 1.92995E-05-4.86172E-06 0.00000E+00
 -1        25 4.34269E-05-5.99668E-07 0.00000E+00
 -1        26 4.46738E-05 2.34769E-06 0.00000E+00
 -1        27 4.31119E-05 2.00571E-05 0.00000E+00
 -1        28 4.18572E-05 4.50444E-05 0.00000E+00
 -1        31 5.89735E-08-4.94396E-06 0.00000E+00
 -1        32 0.00000E+00 0.00000E+00 0.00000E+00
 -1        33 4.03795E-05 3.25113E-06 0.00000E+00
 -1        34 3.86318E-05 1.99768E-05 0.00000E+00
 -1        35 3.63922E-05 4.47024E-05 0.00000E+00
 -1        36 1.21784E-04-2.56805E-19 2.64698E-23
 -1        37 1.20129E-04-1.35636E-19 0.00000E+00
 -1        38 1.18477E-04 2.09574E-19 5.29396E-23
 -1        39 1.16814E-04 7.78716E-20 2.64698E-23
 -1        40 1.15151E-04 2.44237E-20-5.29396E-23
 -1        41 1.13486E-04-5.24569E-20 0.00000E+00
 -1        42 1.11821E-04 5.87683E-20 0.00000E+00
 -1        43 1.10155E-04 2.54558E-19 0.00000E+00
 -1        44 1.08490E-04 1.99672E-19 0.00000E+00
 -1        45 1.06824E-04 7.05701E-20-2.64698E-23
 -1        46 1.05159E-04 1.87243E-19 0.00000E+00
 -1        47 1.03496E-04 3.98276E-19 0.00000E+00
 -1        48 1.01832E-04 2.47969E-19-5.29396E-23
 -1        49 1.00177E-04 4.38558E-19 2.64698E-23
 -1        50 9.85189E-05 2.58637E-19-2.64698E-23
 -1        51 1.21525E-04-1.94588E-07 0.00000E+00
 -1        52 1.18406E-04-3.85856E-07 0.00000E+00
 -1        53 1.14269E-04-5.78280E-07 0.00000E+00
 -1        54 1.09370E-04-7.73902E-07 0.00000E+00
 -1        55 1.03964E-04-9.74492E-07-4.13590E-25
 -1        56 1.27030E-04-1.60200E-05 0.00000E+00
 -1        57 1.40810E-04-6.18379E-05-2.64698E-23
 -1        58 1.61499E-04-1.29401E-04 0.00000E+00
 -1        59 1.85797E-04-2.09117E-04-2.64698E-23
 -1        60 2.09956E-04-2.88365E-04 0.00000E+00
 -1        61 2.30211E-04-3.54563E-04 0.00000E+00
 -1        62 2.43322E-04-3.98384E-04 5.29396E-23
 -1        63 2.46048E-04-4.12092E-04-2.64698E-23
 -1        64 2.37215E-04-3.95190E-04 0.00000E+00
 -1        65 2.16414E-04-3.49162E-04 0.00000E+00
 -1        66 1.86456E-04-2.82208E-04-5.29396E-23
 -1        67 1.51189E-04-2.03680E-04 2.64698E-23
 -1        68 1.16102E-04-1.25543E-04 5.29396E-23
 -1        69 8.66777E-05-5.97345E-05 2.64698E-23
 -1        70 6.66260E-05-1.54359E-05 5.29396E-23
 -1        86 9.44800E-05-9.45817E-08 0.00000E+00
 -1        87 8.74102E-05-1.88278E-07 3.30872E-24
 -1        88 7.79924E-05-3.01005E-07-6.61744E-24
 -1        89 6.85295E-05-4.11597E-07 1.65436E-24
 -1        90 6.13277E-05-5.04339E-07 6.61744E-24
 -1        91 9.51453E-05-4.66123E-07-2.64698E-23
 -1        92 9.32097E-05-5.99972E-07 0.00000E+00
 -1        93 9.12326E-05-6.13361E-07 5.29396E-23
 -1        94 8.92923E-05-7.50632E-07-2.64698E-23
 -1        95 8.73692E-05-9.33558E-07-5.29396E-23
 -1        96 8.54321E-05-1.08400E-06 2.64698E-23
 -1        97 8.34878E-05-1.21569E-06 5.29396E-23
 -1        98 8.15422E-05-1.34452E-06 0.00000E+00
 -1        99 7.96025E-05-1.48894E-06-5.29396E-23
 -1       100 7.76754E-05-1.66616E-06-2.64698E-23
 -1       101 7.57359E-05-1.80972E-06-5.29396E-23
 -1       102 7.37617E-05-1.85500E-06 0.00000E+00
 -1       103 7.18214E-05-1.99059E-06-5.29396E-23
 -1       104 6.99933E-05-2.39335E-06 0.00000E+00
 -1       105 6.80671E-05-2.54667E-06-2.64698E-23
 -1       106 6.51776E-05 6.66443E-19 0.00000E+00
 -1       107 6.47129E-05 2.78328E-18 0.00000E+00
 -1       108 6.42486E-05 4.18952E-18-1.32349E-23
 -1       109 6.37831E-05 2.12552E-18 6.61744E-24
 -1       110 6.33177E-05-1.62986E-19 1.32349E-23
 -1       111 6.28520E-05 9.15491E-19 6.61744E-24
 -1       112 6.23863E-05 3.10600E-18 0.00000E+00
 -1       113 6.19206E-05 3.84752E-18 6.61744E-24
 -1       114 6.14549E-05 3.03548E-18 0.00000E+00
 -1       115 6.09893E-05 1.17864E-18-6.61744E-24
 -1       116 6.05237E-05 9.63391E-20-1.32349E-23
 -1       117 6.00584E-05 2.34773E-18 0.00000E+00
 -1       118 5.95932E-05 4.78329E-18-1.32349E-23
 -1       119 5.91298E-05 3.41592E-18 6.61744E-24
 -1       120 5.86658E-05 9.02815E-19 1.32349E-23
 -1       121 6.59014E-05-3.20816E-07 0.00000E+00
 -1       122 6.64455E-05-6.41450E-07 6.61744E-24
 -1       123 6.69937E-05-9.62122E-07 0.00000E+00
 -1       124 6.72707E-05-1.28283E-06 0.00000E+00
 -1       125 6.70019E-05-1.60356E-06-1.32349E-23
 -1       141 5.78934E-05-4.54348E-19 0.00000E+00
 -1       142 5.75721E-05-1.15064E-18 0.00000E+00
 -1       143 5.72509E-05-1.13793E-18 0.00000E+00
 -1       144 5.69291E-05 3.71249E-19-6.61744E-24
 -1       145 5.66073E-05 1.81132E-18 0.00000E+00
 -1       146 5.62854E-05 1.92369E-18 0.00000E+00
 -1       147 5.59634E-05 1.29360E-18-1.32349E-23
 -1       148 5.56415E-05 1.38843E-19-6.61744E-24
 -1       149 5.53196E-05-2.97513E-19 0.00000E+00
 -1       150 5.49978E-05 7.67541E-19-6.61744E-24
 -1       151 5.46761E-05 1.98963E-18 0.00000E+00
 -1       152 5.43552E-05 2.06053E-18-3.30872E-24
 -1       153 5.40343E-05 1.60141E-18-6.61744E-24
 -1       154 5.37170E-05 9.16719E-19 0.00000E+00
 -1       155 5.33985E-05 3.05148E-19 3.30872E-24
 -1       156 6.13078E-05-3.22701E-08 0.00000E+00
 -1       157 7.05631E-05-9.20693E-08-8.27181E-25
 -1       158 8.02673E-05-1.56383E-07 1.65436E-24
 -1       159 8.47111E-05-1.83620E-07 0.00000E+00
 -1       160 7.91473E-05-2.24155E-07 3.30872E-24
 -1       161 6.11013E-05-8.32634E-06 6.61744E-24
 -1       162 6.99001E-05-3.31830E-05-3.30872E-24
 -1       163 7.86808E-05-5.79908E-05 0.00000E+00
 -1       164 8.15228E-05-6.61693E-05 0.00000E+00
 -1       165 7.81375E-05-5.77516E-05 0.00000E+00
 -1       166 6.82851E-05-3.28972E-05 1.65436E-24
 -1       167 5.84223E-05-8.01665E-06 0.00000E+00
 -1       168 5.50071E-05 4.79715E-07-1.65436E-24
 -1       169 5.78199E-05-7.61873E-06-3.30872E-24
 -1       170 6.65910E-05-3.23965E-05-1.65436E-24
 -1       171 7.53904E-05-5.72533E-05 0.00000E+00
 -1       172 7.82903E-05-6.55878E-05-1.65436E-24
 -1       173 7.49692E-05-5.73350E-05 0.00000E+00
 -1       174 6.51508E-05-3.25576E-05-1.65436E-24
 -1       175 5.52925E-05-7.68105E-06-4.13590E-25
 -1       191 5.30572E-05 1.45916E-07 0.00000E+00
 -1       192 5.29485E-05 2.91962E-07 0.00000E+00
 -1       193 5.27737E-05 4.38037E-07 0.00000E+00
 -1       194 5.25342E-05 5.84100E-07 0.00000E+00
 -1       195 5.22317E-05 7.30117E-07 0.00000E+00
 -1       266 9.37625E-05-1.22139E-06 0.00000E+00
 -1       267 8.92177E-05-1.23493E-06 0.00000E+00
 -1       268 8.46729E-05-1.24971E-06 1.65436E-24
 -1       269 8.01281E-05-1.26086E-06 4.13590E-25
 -1       270 7.55833E-05-1.27193E-06 0.00000E+00
 -1       271 9.45765E-05 2.24164E-06 0.00000E+00
 -1       272 9.10073E-05 5.02322E-06 0.00000E+00
 -1       273 8.76774E-05 7.17926E-06 5.29396E-23
 -1       274 8.45695E-05 8.71469E-06 0.00000E+00
 -1       275 8.16839E-05 9.65739E-06 0.00000E+00
 -1       276 7.90050E-05 1.00455E-05 2.64698E-23
 -1       277 7.65147E-05 9.93096E-06-5.29396E-23
 -1       278 7.41891E-05 9.37724E-06 0.00000E+00
 -1       279 7.20005E-05 8.45819E-06 0.00000E+00
 -1       280 6.99180E-05 7.25650E-06-2.64698E-23
 -1       281 6.79084E-05 5.86129E-06 5.29396E-23
 -1       282 6.59377E-05 4.36668E-06 0.00000E+00
 -1       283 6.39694E-05 2.86862E-06 0.00000E+00
 -1       284 6.19756E-05 1.46640E-06-2.64698E-23
 -1       285 5.99102E-05 2.50023E-07 0.00000E+00
 -1       286 5.91104E-05-4.49547E-07 3.30872E-24
 -1       287 5.95635E-05-5.63397E-07-3.30872E-24
 -1       288 6.00147E-05-7.94153E-07 0.00000E+00
 -1       289 6.04716E-05-1.01334E-06 6.61744E-24
 -1       290 6.09287E-05-1.22709E-06 0.00000E+00
 -1       291 6.13869E-05-1.44139E-06 0.00000E+00
 -1       292 6.18452E-05-1.65596E-06 0.00000E+00
 -1       293 6.23037E-05-1.87050E-06 6.61744E-24
 -1       294 6.27623E-05-2.08507E-06-1.32349E-23
 -1       295 6.32206E-05-2.29974E-06 0.00000E+00
 -1       296 6.36788E-05-2.51341E-06 0.00000E+00
 -1       297 6.41357E-05-2.72492E-06 0.00000E+00
 -1       298 6.45925E-05-2.95738E-06-1.32349E-23
 -1       299 6.50430E-05-3.23437E-06 0.00000E+00
 -1       300 6.54957E-05-3.05938E-06 0.00000E+00
 -1       301 5.84539E-05-5.99243E-07 0.00000E+00
 -1       302 5.82586E-05-6.03036E-07 0.00000E+00
 -1       303 5.80988E-05-6.05942E-07 3.30872E-24
 -1       304 5.79714E-05-6.11308E-07 0.00000E+00
 -1       305 5.78735E-05-6.22307E-07-1.32349E-23
 -1       306 5.79410E-05-8.22087E-07-1.32349E-23
 -1       307 5.73154E-05-1.44323E-06 0.00000E+00
 -1       308 5.68016E-05-2.36103E-06 0.00000E+00
 -1       309 5.63655E-05-3.49564E-06-1.32349E-23
 -1       310 5.59789E-05-4.76330E-06-2.64698E-23
 -1       311 5.56101E-05-6.08014E-06-1.32349E-23
 -1       312 5.52279E-05-7.36169E-06 0.00000E+00
 -1       313 5.48011E-05-8.52395E-06 0.00000E+00
 -1       314 5.42985E-05-9.48377E-06 0.00000E+00
 -1       315 5.36897E-05-1.01597E-05-1.32349E-23
 -1       316 5.29451E-05-1.04727E-05 0.00000E+00
 -1       317 5.20363E-05-1.03463E-05 1.32349E-23
 -1       318 5.09356E-05-9.70821E-06 2.64698E-23
 -1       319 4.96203E-05-8.48869E-06-1.32349E-23
 -1       320 4.80615E-05-6.62556E-06 0.00000E+00
 -1       321 6.55979E-05 6.93149E-06 0.00000E+00
 -1       322 6.50667E-05 3.01447E-05-3.30872E-24
 -1       323 6.46325E-05 4.70676E-05-6.61744E-24
 -1       324 6.42890E-05 3.71410E-05-3.30872E-24
 -1       325 6.37460E-05 1.30505E-05 6.61744E-24
 -1       326 6.31724E-05-1.23369E-05 0.00000E+00
 -1       327 6.28035E-05-2.45153E-05 0.00000E+00
 -1       328 6.23929E-05-9.14816E-06 0.00000E+00
 -1       329 6.18654E-05 1.40163E-05 6.61744E-24
 -1       330 6.15352E-05 2.51269E-05-3.30872E-24
 -1       331 6.12357E-05 1.94975E-05-6.61744E-24
 -1       332 6.06067E-05-7.34359E-06 0.00000E+00
 -1       333 5.99955E-05-3.33680E-05 0.00000E+00
 -1       334 5.97040E-05-3.65570E-05 3.30872E-24
 -1       335 5.93537E-05-2.33641E-05 0.00000E+00
 -1       336 6.37675E-05-2.27906E-06 1.32349E-23
 -1       337 6.08050E-05-2.63404E-06 0.00000E+00
 -1       338 5.72988E-05-2.99048E-06 0.00000E+00
 -1       339 5.35230E-05-3.34672E-06 0.00000E+00
 -1       340 4.97525E-05-3.70313E-06-6.61744E-24
 -1       356 5.83256E-05 2.22779E-05 0.00000E+00
 -1       357 5.79817E-05 3.49324E-05 3.30872E-24
 -1       358 5.76900E-05 3.13078E-05-6.61744E-24
 -1       359 5.70832E-05 5.41005E-06-3.30872E-24
 -1       360 5.64665E-05-2.09455E-05 6.61744E-24
 -1       361 5.61700E-05-2.59383E-05 0.00000E+00
 -1       362 5.58366E-05-1.44499E-05-6.61744E-24
 -1       363 5.53162E-05 8.42747E-06 3.30872E-24
 -1       364 5.49140E-05 2.32586E-05-6.61744E-24
 -1       365 5.45415E-05 1.07143E-05 3.30872E-24
 -1       366 5.39695E-05-1.46260E-05 0.00000E+00
 -1       367 5.34434E-05-3.80192E-05 0.00000E+00
 -1       368 5.31094E-05-4.71721E-05 0.00000E+00
 -1       369 5.26771E-05-2.99751E-05 3.30872E-24
 -1       370 5.21554E-05-7.05796E-06-1.65436E-24
 -1       371 3.77841E-05-6.94564E-07-1.65436E-24
 -1       372 2.99926E-05-7.47076E-07 0.00000E+00
 -1       373 3.14188E-05-7.65194E-07 8.27181E-25
 -1       374 3.80102E-05-8.02316E-07 0.00000E+00
 -1       375 4.48193E-05-8.40528E-07 0.00000E+00
 -1       406 5.14366E-05 1.02132E-06 0.00000E+00
 -1       407 5.09493E-05 1.16666E-06-6.61744E-24
 -1       408 5.04094E-05 1.31189E-06 0.00000E+00
 -1       409 4.98204E-05 1.45680E-06 0.00000E+00
 -1       410 4.91861E-05 1.60104E-06 0.00000E+00
 -1       501 5.75935E-05 1.08499E-05 1.32349E-23
 -1       502 5.69142E-05 4.51776E-05 3.30872E-24
 -1       503 5.60283E-05 8.56659E-05 6.61744E-24
 -1       504 5.55049E-05 1.15654E-04 1.65436E-24
 -1       505 5.53310E-05 1.25721E-04-3.30872E-24
 -1       506 5.50312E-05 1.06545E-04 1.65436E-24
 -1       507 5.40396E-05 6.34623E-05 0.00000E+00
 -1       508 5.21188E-05 1.92764E-06-1.65436E-24
 -1       509 5.01485E-05-6.04858E-05 0.00000E+00
 -1       510 4.90474E-05-1.06202E-04 0.00000E+00
 -1       511 4.86782E-05-1.28831E-04-3.30872E-24
 -1       512 4.85324E-05-1.22093E-04 0.00000E+00
 -1       513 4.80700E-05-9.43248E-05-3.30872E-24
 -1       514 4.71933E-05-5.39681E-05 0.00000E+00
 -1       515 4.64712E-05-1.81669E-05 0.00000E+00
 -1       521 5.56994E-05-1.56110E-06-5.29396E-23
 -1       522 5.36309E-05-2.72869E-06 0.00000E+00
 -1       523 5.16312E-05-4.07451E-06 0.00000E+00
 -1       524 4.96604E-05-5.52521E-06 2.64698E-23
 -1       525 4.76970E-05-6.99818E-06 0.00000E+00
 -1       526 4.57102E-05-8.41345E-06 2.64698E-23
 -1       527 4.36718E-05-9.69173E-06 0.00000E+00
 -1       528 4.15534E-05-1.07575E-05 2.64698E-23
 -1       529 3.93289E-05-1.15401E-05 0.00000E+00
 -1       530 3.69744E-05-1.19755E-05-2.64698E-23
 -1       531 3.44689E-05-1.20081E-05 5.29396E-23
 -1       532 3.17962E-05-1.15911E-05 0.00000E+00
 -1       533 2.89419E-05-1.06892E-05 0.00000E+00
 -1       534 2.59051E-05-9.27510E-06 0.00000E+00
 -1       535 2.26695E-05-7.34054E-06 0.00000E+00
 -1       536 4.62885E-05-1.20530E-06 0.00000E+00
 -1       537 4.63258E-05 9.46249E-07-8.27181E-25
 -1       538 4.63640E-05 2.47686E-06 1.03398E-25
 -1       539 4.64043E-05 3.46029E-06 0.00000E+00
 -1       540 4.64451E-05 3.96990E-06 0.00000E+00
 -1       541 4.64864E-05 4.07886E-06 0.00000E+00
 -1       542 4.65277E-05 3.86019E-06 1.65436E-24
 -1       543 4.65690E-05 3.38672E-06-8.27181E-25
 -1       544 4.66102E-05 2.73118E-06 0.00000E+00
 -1       545 4.66513E-05 1.96620E-06-8.27181E-25
 -1       546 4.66925E-05 1.16437E-06 0.00000E+00
 -1       547 4.67336E-05 3.98279E-07-8.27181E-25
 -1       548 4.67749E-05-2.59508E-07 0.00000E+00
 -1       549 4.68162E-05-7.36356E-07 0.00000E+00
 -1       550 4.68576E-05-9.59507E-07 0.00000E+00
 -1       551 4.22567E-05-4.17862E-06 5.79026E-24
 -1       552 3.77718E-05-4.30543E-06 8.27181E-25
 -1       553 3.30187E-05-4.43382E-06-6.61744E-24
 -1       554 2.82127E-05-4.56514E-06-6.61744E-24
 -1       555 2.35689E-05-4.70053E-06 1.32349E-23
 -1       556 4.51340E-05-1.32717E-06 0.00000E+00
 -1       557 4.42525E-05 7.57498E-07 0.00000E+00
 -1       558 4.35899E-05 2.26345E-06 0.00000E+00
 -1       559 4.31209E-05 3.25676E-06 0.00000E+00
 -1       560 4.28200E-05 3.80348E-06 0.00000E+00
 -1       561 4.26620E-05 3.97011E-06 0.00000E+00
 -1       562 4.26216E-05 3.82323E-06 0.00000E+00
 -1       563 4.26739E-05 3.42950E-06 3.30872E-24
 -1       564 4.27936E-05 2.85565E-06 0.00000E+00
 -1       565 4.29558E-05 2.16839E-06 0.00000E+00
 -1       566 4.31355E-05 1.43450E-06-3.30872E-24
 -1       567 4.33078E-05 7.20756E-07 4.13590E-25
 -1       568 4.34475E-05 9.39165E-08 0.00000E+00
 -1       569 4.35301E-05-3.79336E-07-8.27181E-25
 -1       570 4.35305E-05-6.32359E-07 1.65436E-24
 -1       571 4.69965E-05-6.53169E-07 4.13590E-25
 -1       572 4.70963E-05-5.13159E-07-1.65436E-24
 -1       573 4.71969E-05-4.24461E-07 1.65436E-24
 -1       574 4.72978E-05-3.74674E-07-1.65436E-24
 -1       575 4.73989E-05-3.51346E-07 0.00000E+00
 -1       576 4.75000E-05-3.41943E-07 0.00000E+00
 -1       577 4.76012E-05-3.33930E-07-3.30872E-24
 -1       578 4.77023E-05-3.14758E-07 1.65436E-24
 -1       579 4.78035E-05-2.71879E-07-6.61744E-24
 -1       580 4.79046E-05-1.92744E-07 0.00000E+00
 -1       581 4.80058E-05-6.48048E-08-6.61744E-24
 -1       582 4.81069E-05 1.24476E-07 0.00000E+00
 -1       583 4.82080E-05 3.87625E-07-6.61744E-24
 -1       584 4.83090E-05 7.37037E-07 0.00000E+00
 -1       585 4.84098E-05 1.18504E-06 0.00000E+00
 -1       586 4.64001E-05-8.12481E-07 0.00000E+00
 -1       587 4.58236E-05-7.68702E-07 0.00000E+00
 -1       588 4.52036E-05-7.25055E-07 1.65436E-24
 -1       589 4.45745E-05-6.81793E-07-4.13590E-25
 -1       590 4.39709E-05-6.39302E-07 0.00000E+00
 -1       591 4.67502E-05-6.15120E-07 0.00000E+00
 -1       592 4.66127E-05-4.18063E-07 0.00000E+00
 -1       593 4.64876E-05-2.55972E-07 0.00000E+00
 -1       594 4.63721E-05-1.20743E-07 0.00000E+00
 -1       595 4.62634E-05-4.23632E-09-1.65436E-24
 -1       596 4.61587E-05 1.01618E-07-8.27181E-25
 -1       597 4.60549E-05 2.04884E-07 0.00000E+00
 -1       598 4.59490E-05 3.13612E-07 0.00000E+00
 -1       599 4.58380E-05 4.35858E-07-1.65436E-24
 -1       600 4.57190E-05 5.79670E-07 0.00000E+00
 -1       601 4.55889E-05 7.53097E-07 1.65436E-24
 -1       602 4.54447E-05 9.64197E-07 0.00000E+00
 -1       603 4.52835E-05 1.22103E-06 0.00000E+00
 -1       604 4.51026E-05 1.53170E-06 1.03398E-25
 -1       605 4.48992E-05 1.90430E-06-4.13590E-25
 -1       606 4.85470E-05 2.49177E-06 0.00000E+00
 -1       607 4.85811E-05 3.32773E-06 1.65436E-24
 -1       608 4.86145E-05 4.24568E-06 0.00000E+00
 -1       609 4.86475E-05 5.23975E-06 0.00000E+00
 -1       610 4.86802E-05 6.30401E-06-3.30872E-24
 -1       611 4.87129E-05 7.43245E-06-1.65436E-24
 -1       612 4.87454E-05 8.61903E-06 3.30872E-24
 -1       613 4.87779E-05 9.85773E-06 0.00000E+00
 -1       614 4.88103E-05 1.11425E-05 0.00000E+00
 -1       615 4.88427E-05 1.24673E-05 0.00000E+00
 -1       616 4.88750E-05 1.38262E-05 0.00000E+00
 -1       617 4.89073E-05 1.52130E-05-8.27181E-25
 -1       618 4.89395E-05 1.66218E-05 1.65436E-24
 -1       619 4.89717E-05 1.80465E-05 0.00000E+00
 -1       620 4.90037E-05 1.94811E-05 8.27181E-25
 -1       621 4.78169E-05 1.84431E-06 0.00000E+00
 -1       622 4.71340E-05 1.94595E-06-1.65436E-24
 -1       623 4.64700E-05 2.04755E-06 3.30872E-24
 -1       624 4.58331E-05 2.14889E-06 0.00000E+00
 -1       625 4.52317E-05 2.24975E-06 1.65436E-24
 -1       626 4.83053E-05 2.53842E-06 0.00000E+00
 -1       627 4.80656E-05 3.42500E-06 0.00000E+00
 -1       628 4.77947E-05 4.39402E-06 0.00000E+00
 -1       629 4.74963E-05 5.43582E-06 0.00000E+00
 -1       630 4.71743E-05 6.54073E-06 3.30872E-24
 -1       631 4.68321E-05 7.69896E-06-1.65436E-24
 -1       632 4.64736E-05 8.90070E-06 3.30872E-24
 -1       633 4.61023E-05 1.01362E-05 0.00000E+00
 -1       634 4.57221E-05 1.13956E-05 3.30872E-24
 -1       635 4.53366E-05 1.26691E-05-1.65436E-24
 -1       636 4.49494E-05 1.39469E-05 0.00000E+00
 -1       637 4.45642E-05 1.52192E-05-8.27181E-25
 -1       638 4.41846E-05 1.64763E-05 0.00000E+00
 -1       639 4.38142E-05 1.77082E-05 0.00000E+00
 -1       640 4.34561E-05 1.89052E-05-8.27181E-25
 -1       641 4.90278E-05 2.23685E-05 0.00000E+00
 -1       642 4.90188E-05 2.38900E-05 0.00000E+00
 -1       643 4.90098E-05 2.54743E-05-1.03398E-25
 -1       644 4.90005E-05 2.71115E-05-1.03398E-25
 -1       645 4.89912E-05 2.87880E-05 2.06795E-25
 -1       646 4.89817E-05 3.04902E-05-1.03398E-25
 -1       647 4.89722E-05 3.22025E-05-2.06795E-25
 -1       648 4.89627E-05 3.39096E-05-1.03398E-25
 -1       649 4.89532E-05 3.55963E-05 2.06795E-25
 -1       650 4.89438E-05 3.72476E-05-2.06795E-25
 -1       651 4.89344E-05 3.88509E-05 0.00000E+00
 -1       652 4.89249E-05 4.03937E-05 2.06795E-25
 -1       653 4.89155E-05 4.18676E-05 0.00000E+00
 -1       654 4.89053E-05 4.32646E-05-4.13590E-25
 -1       655 4.88955E-05 4.45819E-05-1.65436E-24
 -1       656 4.77703E-05 2.07801E-05-1.65436E-24
 -1       657 4.67207E-05 2.06339E-05 1.65436E-24
 -1       658 4.58085E-05 2.04882E-05 3.30872E-24
 -1       659 4.49552E-05 2.03424E-05 1.65436E-24
 -1       660 4.40825E-05 2.01964E-05-1.65436E-24
 -1       661 4.85937E-05 2.23993E-05 0.00000E+00
 -1       662 4.81379E-05 2.39272E-05 1.65436E-24
 -1       663 4.76679E-05 2.54927E-05 0.00000E+00
 -1       664 4.71878E-05 2.70867E-05 0.00000E+00
 -1       665 4.67005E-05 2.86998E-05-3.30872E-24
 -1       666 4.62096E-05 3.03227E-05 1.65436E-24
 -1       667 4.57185E-05 3.19461E-05 3.30872E-24
 -1       668 4.52308E-05 3.35608E-05 0.00000E+00
 -1       669 4.47498E-05 3.51574E-05 0.00000E+00
 -1       670 4.42791E-05 3.67268E-05 0.00000E+00
 -1       671 4.38221E-05 3.82596E-05 0.00000E+00
 -1       672 4.33822E-05 3.97465E-05-1.65436E-24
 -1       673 4.29630E-05 4.11780E-05-3.30872E-24
 -1       674 4.25674E-05 4.25447E-05 8.27181E-25
 -1       675 4.21996E-05 4.38374E-05-8.27181E-25
 -1       676 4.76874E-05 4.56871E-05 0.00000E+00
 -1       677 4.64976E-05 4.55573E-05-1.65436E-24
 -1       678 4.53157E-05 4.54277E-05 0.00000E+00
 -1       679 4.41458E-05 4.52986E-05 1.65436E-24
 -1       680 4.29916E-05 4.51695E-05-3.30872E-24
 -1       716 1.94427E-05-5.80133E-05 8.07794E-28
 -1       717 1.94367E-05-5.44698E-05-8.07794E-28
 -1       718 1.94307E-05-5.09264E-05-3.23117E-27
 -1       719 1.94247E-05-4.73829E-05 0.00000E+00
 -1       720 1.94186E-05-4.38395E-05-1.29247E-26
 -1       721 1.94126E-05-4.02960E-05-1.29247E-26
 -1       722 1.94065E-05-3.67526E-05 0.00000E+00
 -1       723 1.94004E-05-3.32091E-05 0.00000E+00
 -1       724 1.93942E-05-2.96657E-05-2.06795E-25
 -1       725 1.93878E-05-2.61222E-05-2.06795E-25
 -1       726 1.93813E-05-2.25788E-05 0.00000E+00
 -1       727 1.93736E-05-1.90353E-05-8.27181E-25
 -1       728 1.93658E-05-1.54919E-05-3.30872E-24
 -1       729 1.93523E-05-1.19485E-05-3.30872E-24
 -1       730 1.93407E-05-8.40503E-06 0.00000E+00
 -1       766 1.57572E-05-4.90292E-06 0.00000E+00
 -1       767 1.22176E-05-4.91450E-06 0.00000E+00
 -1       768 8.77921E-06-4.92763E-06 3.30872E-24
 -1       769 5.54068E-06-4.93450E-06 8.27181E-25
 -1       770 2.60098E-06-4.94024E-06 8.27181E-25
 -1       771 1.71664E-05-2.06654E-06 0.00000E+00
 -1       772 1.52366E-05 1.60860E-07 0.00000E+00
 -1       773 1.35013E-05 1.86898E-06 0.00000E+00
 -1       774 1.19419E-05 3.10749E-06 1.32349E-23
 -1       775 1.05401E-05 3.92653E-06 0.00000E+00
 -1       776 9.27692E-06 4.37687E-06-1.32349E-23
 -1       777 8.13299E-06 4.50963E-06 2.64698E-23
 -1       778 7.08892E-06 4.37641E-06 1.32349E-23
 -1       779 6.12524E-06 4.02902E-06 0.00000E+00
 -1       780 5.22235E-06 3.51961E-06 0.00000E+00
 -1       781 4.36068E-06 2.90048E-06 0.00000E+00
 -1       782 3.52068E-06 2.22412E-06 1.32349E-23
 -1       783 2.68277E-06 1.54307E-06 0.00000E+00
 -1       784 1.82805E-06 9.10026E-07 0.00000E+00
 -1       785 9.37339E-07 3.77566E-07 0.00000E+00
 -1       786 4.35004E-05-2.87364E-07 0.00000E+00
 -1       787 4.35781E-05-4.65403E-08 8.27181E-25
 -1       788 4.36558E-05 1.34526E-07 0.00000E+00
 -1       789 4.37341E-05 2.67540E-07 0.00000E+00
 -1       790 4.38125E-05 3.64158E-07 0.00000E+00
 -1       791 4.38911E-05 4.36008E-07 8.27181E-25
 -1       792 4.39697E-05 4.94695E-07 0.00000E+00
 -1       793 4.40483E-05 5.51812E-07 0.00000E+00
 -1       794 4.41269E-05 6.18951E-07 0.00000E+00
 -1       795 4.42055E-05 7.07714E-07-1.65436E-24
 -1       796 4.42841E-05 8.29718E-07 0.00000E+00
 -1       797 4.43626E-05 9.96616E-07-8.27181E-25
 -1       798 4.44411E-05 1.22010E-06 0.00000E+00
 -1       799 4.45193E-05 1.51189E-06-8.27181E-25
 -1       800 4.45975E-05 1.88382E-06 0.00000E+00
 -1       801 3.98347E-05-4.75497E-07 0.00000E+00
 -1       802 3.18061E-05-3.67822E-07 0.00000E+00
 -1       803 2.15749E-05-2.78085E-07-4.13590E-25
 -1       804 1.13745E-05-1.92809E-07 1.65436E-24
 -1       805 3.43808E-06-8.91650E-08 0.00000E+00
 -1       806 4.32278E-05-3.25216E-07 0.00000E+00
 -1       807 4.30395E-05-8.79761E-08 0.00000E+00
 -1       808 4.28615E-05 1.19367E-07 3.30872E-24
 -1       809 4.26918E-05 3.03795E-07-1.65436E-24
 -1       810 4.25279E-05 4.72266E-07 0.00000E+00
 -1       811 4.23674E-05 6.31713E-07 0.00000E+00
 -1       812 4.22076E-05 7.89059E-07-3.30872E-24
 -1       813 4.20460E-05 9.51222E-07 8.27181E-25
 -1       814 4.18800E-05 1.12513E-06 3.30872E-24
 -1       815 4.17070E-05 1.31768E-06 8.27181E-25
 -1       816 4.15244E-05 1.53581E-06 1.65436E-24
 -1       817 4.13297E-05 1.78642E-06 8.27181E-25
 -1       818 4.11201E-05 2.07642E-06 0.00000E+00
 -1       819 4.08934E-05 2.41267E-06 0.00000E+00
 -1       820 4.06471E-05 2.80205E-06-8.27181E-25
 -1       821 4.45821E-05 2.93809E-06 8.27181E-25
 -1       822 4.44848E-05 3.66602E-06 0.00000E+00
 -1       823 4.43875E-05 4.51714E-06 3.30872E-24
 -1       824 4.42893E-05 5.47687E-06 0.00000E+00
 -1       825 4.41909E-05 6.53058E-06-3.30872E-24
 -1       826 4.40922E-05 7.66348E-06 0.00000E+00
 -1       827 4.39934E-05 8.86071E-06 0.00000E+00
 -1       828 4.38945E-05 1.01073E-05-1.65436E-24
 -1       829 4.37955E-05 1.13884E-05 3.30872E-24
 -1       830 4.36966E-05 1.26889E-05 1.65436E-24
 -1       831 4.35977E-05 1.39937E-05 3.30872E-24
 -1       832 4.34990E-05 1.52878E-05 1.65436E-24
 -1       833 4.34004E-05 1.65562E-05 0.00000E+00
 -1       834 4.33026E-05 1.77838E-05 0.00000E+00
 -1       835 4.32047E-05 1.89557E-05 1.65436E-24
 -1       836 4.40584E-05 2.49622E-06 0.00000E+00
 -1       837 4.33311E-05 2.64957E-06 0.00000E+00
 -1       838 4.25456E-05 2.80270E-06 3.30872E-24
 -1       839 4.17558E-05 2.95526E-06 0.00000E+00
 -1       840 4.10159E-05 3.10779E-06 1.65436E-24
 -1       841 4.44731E-05 2.98059E-06 0.00000E+00
 -1       842 4.41932E-05 3.82410E-06 0.00000E+00
 -1       843 4.38567E-05 4.81809E-06 8.27181E-25
 -1       844 4.34861E-05 5.90264E-06 4.13590E-25
 -1       845 4.30913E-05 7.05147E-06 0.00000E+00
 -1       846 4.26822E-05 8.23839E-06-4.13590E-25
 -1       847 4.22633E-05 9.45127E-06 0.00000E+00
 -1       848 4.18391E-05 1.06780E-05 0.00000E+00
 -1       849 4.14124E-05 1.19116E-05 8.27181E-25
 -1       850 4.09858E-05 1.31449E-05-4.13590E-25
 -1       851 4.05620E-05 1.43708E-05 0.00000E+00
 -1       852 4.01434E-05 1.55824E-05 4.13590E-25
 -1       853 3.97348E-05 1.67671E-05 0.00000E+00
 -1       854 3.93402E-05 1.79125E-05 0.00000E+00
 -1       855 3.89706E-05 1.89920E-05 4.13590E-25
 -1       856 4.30386E-05 2.12101E-05 0.00000E+00
 -1       857 4.29607E-05 2.25183E-05 8.27181E-25
 -1       858 4.28827E-05 2.39606E-05 0.00000E+00
 -1       859 4.28039E-05 2.55152E-05-8.27181E-25
 -1       860 4.27249E-05 2.71606E-05 1.65436E-24
 -1       861 4.26457E-05 2.88750E-05 0.00000E+00
 -1       862 4.25663E-05 3.06368E-05 0.00000E+00
 -1       863 4.24869E-05 3.24243E-05 8.27181E-25
 -1       864 4.24074E-05 3.42158E-05 3.30872E-24
 -1       865 4.23280E-05 3.59895E-05 0.00000E+00
 -1       866 4.22487E-05 3.77238E-05 0.00000E+00
 -1       867 4.21696E-05 3.93968E-05 0.00000E+00
 -1       868 4.20906E-05 4.09870E-05 0.00000E+00
 -1       869 4.20120E-05 4.24727E-05 0.00000E+00
 -1       870 4.19336E-05 4.38323E-05 1.65436E-24
 -1       871 4.22331E-05 2.00460E-05 0.00000E+00
 -1       872 4.14688E-05 2.00335E-05 0.00000E+00
 -1       873 4.07731E-05 2.00207E-05 0.00000E+00
 -1       874 4.00994E-05 2.00074E-05 0.00000E+00
 -1       875 3.94010E-05 1.99935E-05-8.27181E-25
 -1       876 4.28221E-05 2.12369E-05 3.30872E-24
 -1       877 4.24932E-05 2.25362E-05 0.00000E+00
 -1       878 4.21257E-05 2.39382E-05 0.00000E+00
 -1       879 4.17259E-05 2.54279E-05-1.65436E-24
 -1       880 4.12989E-05 2.69903E-05 3.30872E-24
 -1       881 4.08503E-05 2.86102E-05-1.65436E-24
 -1       882 4.03857E-05 3.02729E-05 3.30872E-24
 -1       883 3.99106E-05 3.19634E-05 0.00000E+00
 -1       884 3.94306E-05 3.36669E-05 0.00000E+00
 -1       885 3.89513E-05 3.53685E-05 0.00000E+00
 -1       886 3.84782E-05 3.70534E-05 3.30872E-24
 -1       887 3.80169E-05 3.87067E-05 0.00000E+00
 -1       888 3.75729E-05 4.03135E-05 0.00000E+00
 -1       889 3.71511E-05 4.18586E-05 1.65436E-24
 -1       890 3.67580E-05 4.33274E-05 0.00000E+00
 -1       891 4.08710E-05 4.49878E-05 0.00000E+00
 -1       892 4.00240E-05 4.49304E-05-8.27181E-25
 -1       893 3.92345E-05 4.48731E-05-1.65436E-24
 -1       894 3.84206E-05 4.48158E-05 4.13590E-25
 -1       895 3.75003E-05 4.47585E-05 8.27181E-25
 -1       926 5.63381E-08-2.82706E-06 0.00000E+00
 -1       927 5.49050E-08-1.16177E-06 2.58494E-26
 -1       928 5.40198E-08 9.69220E-08-5.16988E-26
 -1       929 5.35784E-08 9.94081E-07 1.29247E-26
 -1       930 5.33622E-08 1.57483E-06 0.00000E+00
 -1       931 5.32642E-08 1.88431E-06-1.29247E-26
 -1       932 5.31975E-08 1.96771E-06 0.00000E+00
 -1       933 5.30801E-08 1.87022E-06 0.00000E+00
 -1       934 5.28925E-08 1.63709E-06 0.00000E+00
 -1       935 5.24430E-08 1.31353E-06 0.00000E+00
 -1       936 5.18396E-08 9.44790E-07 8.27181E-25
 -1       937 5.01048E-08 5.76124E-07-8.27181E-25
 -1       938 4.82254E-08 2.52651E-07 0.00000E+00
 -1       939 4.07279E-08 1.95090E-08 0.00000E+00
 -1       940 3.51490E-08-7.93736E-08 0.00000E+00
 -1       956 4.02729E-05 3.88653E-06 8.27181E-25
 -1       957 4.01642E-05 4.63669E-06-1.24077E-24
 -1       958 4.00551E-05 5.48942E-06 2.48154E-24
 -1       959 3.99456E-05 6.43175E-06 0.00000E+00
 -1       960 3.98361E-05 7.45070E-06-1.65436E-24
 -1       961 3.97264E-05 8.53322E-06-1.65436E-24
 -1       962 3.96166E-05 9.66621E-06 0.00000E+00
 -1       963 3.95068E-05 1.08366E-05 0.00000E+00
 -1       964 3.93970E-05 1.20313E-05-3.30872E-24
 -1       965 3.92872E-05 1.32373E-05 1.65436E-24
 -1       966 3.91774E-05 1.44414E-05 3.30872E-24
 -1       967 3.90676E-05 1.56305E-05 0.00000E+00
 -1       968 3.89579E-05 1.67916E-05 3.30872E-24
 -1       969 3.88484E-05 1.79116E-05 1.65436E-24
 -1       970 3.87393E-05 1.89775E-05-3.30872E-24
 -1       971 3.84950E-05 2.10045E-05-3.30872E-24
 -1       972 3.83552E-05 2.21960E-05 0.00000E+00
 -1       973 3.82152E-05 2.35315E-05-3.30872E-24
 -1       974 3.80747E-05 2.49907E-05 1.65436E-24
 -1       975 3.79339E-05 2.65532E-05-3.30872E-24
 -1       976 3.77930E-05 2.81985E-05 0.00000E+00
 -1       977 3.76519E-05 2.99063E-05 3.30872E-24
 -1       978 3.75108E-05 3.16561E-05 1.65436E-24
 -1       979 3.73696E-05 3.34272E-05 3.30872E-24
 -1       980 3.72285E-05 3.51993E-05 0.00000E+00
 -1       981 3.70874E-05 3.69517E-05 0.00000E+00
 -1       982 3.69465E-05 3.86640E-05-1.65436E-24
 -1       983 3.68059E-05 4.03156E-05 0.00000E+00
 -1       984 3.66660E-05 4.18861E-05-1.65436E-24
 -1       985 3.65264E-05 4.33551E-05-3.30872E-24
 -3
    1PSTEP                        30          15           1          
  100CL  115 7.10114E-01         608                     0   15           1
 -4  STRESS      6    1
 -5  SXX         1    4    1    1
 -5  SYY         1    4    2    2
 -5  SZZ         1    4    3    3
 -5  SXY         1    4    1    2
 -5  SYZ         1    4    2    3
 -5  SZX         1    4    3    1
 -1         1-2.95070E+06-1.15082E+06-6.74223E+05-1.06457E+06 2.42532E-10 4.41408E-09
 -1         2-3.00607E+06-7.50876E+05-4.00523E+05-5.08612E+05-3.61979E-08-1.98401E-07
 -1         3-6.69988E+05-5.08696E+05-4.84638E+04 7.43889E+04 8.50150E-09 8.13408E-10
 -1         4-5.55102E+05-3.99180E+04 1.45636E+04-2.64775E+04-1.09602E-08-1.94950E-09
 -1         5-4.82771E+05 3.70375E+04-1.70915E+05-4.78142E+03 2.67792E-08 8.51969E-09
 -1         8-1.75259E+06-8.00747E+05-2.39310E+05-1.06314E+06 1.50370E-10-6.49986E-10
 -1         9-9.93595E+05-2.66867E+05-9.62749E+04-3.16595E+05 3.08573E-09-6.17612E-08
 -1        10-7.55034E+05-5.49808E+05-6.35539E+04-2.53927E+05 2.23438E-08-7.27056E-09
 -1        11-2.76355E+05 4.52672E+04 2.73280E+04 4.70779E+04 1.62242E-09 8.60472E-09
 -1        12-2.02196E+05 1.12582E+05-9.99052E+04 1.20704E+04 3.19671E-08-6.67560E-09
 -1        15 2.97237E+03 1.60739E+03 9.22488E+03 5.95563E+00-1.40346E-10 4.60430E-09
 -1        16-2.64761E+06-6.98043E+05-2.19979E+05-8.85395E+05-3.86422E-10-5.08953E-09
 -1        17-2.93349E+05-2.92570E+05-1.58624E+04-2.68878E+05-3.02801E-09-1.57161E-09
 -1        18 4.61705E+04 8.17593E+03-1.36131E+04-6.77359E+04-9.91349E-11 8.98581E-10
 -1        19 1.19567E+05 1.45607E+05-1.72435E+02 4.90079E+03-3.45608E-12 1.47775E-09
 -1        20 5.31732E+04-8.96519E+04-2.08957E+04 4.19879E+04 5.29690E-09-2.99315E-09
 -1        21-8.26021E+03-1.42879E+05 3.98889E+04-1.18231E+03 1.05545E-08-1.55540E-08
 -1        23 6.68872E-01 3.19195E-01 1.22346E+01 1.17825E-03-2.41374E-09-7.81281E-11
 -1        24-1.40629E+06-4.00908E+05 5.72391E+04-6.71238E+05-2.98169E-09 1.52213E-09
 -1        25 1.94646E+04 7.72723E+04 3.02672E+04-3.41644E+05-3.94539E-10-9.90258E-10
 -1        26 1.80911E+03 9.99236E+04 2.53429E+02-1.57738E+04 1.93713E-10-3.40321E-09
 -1        27-2.14896E+04-6.62000E+04-2.94680E+04 7.31511E+04 2.82565E-09-4.80638E-09
 -1        28-8.28258E+03-1.10544E+05-3.92757E+03 4.26637E+04 6.88169E-09 1.08155E-09
 -1        31 4.29984E+03 4.94437E+03 7.27873E+03-2.62360E+02 3.94947E-09-1.76476E-09
 -1        32-5.40792E+05 1.65685E+05 3.40641E+05-7.24141E+05 1.50218E-10 1.95966E-09
 -1        33-1.18399E+05 1.19725E+05 3.67999E+04-3.72619E+04-1.22069E-09 3.05651E-09
 -1        34-1.43325E+05-5.48512E+03 1.32066E+04 5.51925E+04 1.92140E-09-5.23130E-09
 -1        35-2.19244E+04-2.97746E+04 1.62020E+03 6.94689E+04-1.70581E-09-2.62177E-09
 -1        36-4.68217E+06 1.51390E+05-3.47873E+05-4.24611E-07-6.17351E-09 4.68572E-09
 -1        37-4.83322E+06-1.75166E+05-2.46547E+05-3.40666E-07 3.98349E-09-6.72298E-09
 -1        38-4.74030E+06 2.37945E+04-8.99262E+04-7.96264E-07 2.28155E-10 4.83487E-09
 -1        39-4.76506E+06-2.75300E+04-5.66349E+04 7.39000E-07-6.29924E-09-5.48334E-09
 -1        40-4.74986E+06 3.73372E+03-2.31000E+04 5.75217E-07-6.41330E-09-5.60613E-09
 -1        41-4.75378E+06-4.38049E+03-1.38498E+04 7.85206E-07-1.32752E-08-1.15035E-08
 -1        42-4.75143E+06 6.46339E+02-6.83558E+03-7.54113E-07-2.61639E-09 7.38601E-09
 -1        43-4.75212E+06-1.17578E+03-5.58300E+03 1.08444E-06-6.68159E-09 1.29400E-09
 -1        44-4.75150E+06 5.29340E+02-5.80681E+03 3.98139E-07-6.98099E-09 2.28738E-10
 -1        45-4.75324E+06-3.37713E+03-1.08639E+04-1.11551E-06 6.60859E-10 7.07473E-09
 -1        46-4.75032E+06 2.84744E+03-1.77324E+04-6.05167E-07 2.22052E-10 1.29648E-08
 -1        47-4.76180E+06-2.09599E+04-4.31845E+04-9.84759E-07 2.76246E-09 1.17889E-08
 -1        48-4.74305E+06 1.81107E+04-6.84870E+04-4.34747E-07-7.58475E-09 9.16043E-09
 -1        49-4.81368E+06-1.33323E+05-1.87674E+05-7.57786E-07-1.93503E-08 1.29330E-08
 -1        50-4.69884E+06 1.15216E+05-2.64875E+05 1.02006E-06-1.83905E-08 1.04192E-08
 -1        51 1.77934E+04-4.97750E+05 3.24880E+04-1.32554E+06-2.91038E-11 1.86265E-09
 -1        52 1.28284E+04-5.00632E+05 2.45139E+04-1.46795E+06 6.62112E-10-1.91139E-08
 -1        53 1.31750E+04-5.14855E+05 2.61336E+04-1.32189E+06-2.98314E-10-1.49157E-08
 -1        54 3.32298E+04-5.12990E+05 4.81141E+04-1.47177E+06 2.91038E-11 1.04774E-08
 -1        55 7.13343E+04-5.30377E+05 9.20517E+04-1.32104E+06 0.00000E+00 5.11500E-09
 -1        56-5.36807E+06-4.69734E+05-5.18796E+05-1.74439E+06-4.70391E-09-1.68802E-09
 -1        57-4.02900E+06-1.38089E+06-1.86832E+05-2.50187E+06-2.41562E-09 2.40107E-09
 -1        58-5.38219E+06-2.68819E+05-1.05737E+05-1.31486E+06-1.57306E-08 1.22527E-08
 -1        59-4.11305E+06-1.46950E+06-3.72287E+04-2.99801E+06 9.90963E-09 1.35901E-08
 -1        60-5.39724E+06-2.94516E+05-3.39931E+04-1.32130E+06 2.75759E-09 2.71984E-09
 -1        61-3.92525E+06-1.20035E+06 7.74302E+04-2.49947E+06-4.68972E-08-8.29459E-09
 -1        62-5.44908E+06-6.27755E+05-1.11237E+05-1.73602E+06-1.61235E-08-1.68002E-08
 -1        63-4.16812E+06-5.54008E+05 1.51015E+05-1.55829E+06 7.77800E-09-1.91067E-08
 -1        64-5.05188E+06-1.01429E+06-1.08618E+05-2.17554E+06-1.24637E-08-9.97534E-09
 -1        65-5.26050E+06 1.11570E+05 7.35580E+04-1.01583E+06-2.25409E-08 1.79716E-08
 -1        66-4.47441E+06-1.20636E+06-3.13090E+04-2.35983E+06-7.66158E-09 3.67672E-08
 -1        67-5.93618E+06 3.53328E+05-3.72935E+04-9.19870E+05 3.45018E-08 3.84357E-08
 -1        68-4.47626E+06-1.18542E+06-1.08380E+05-2.36089E+06-5.58066E-09 1.69821E-08
 -1        69-5.31611E+06-7.07086E+04-1.83053E+05-9.96151E+05-5.74801E-08 2.45782E-08
 -1        70-4.98979E+06-8.58751E+05-5.21514E+05-2.18905E+06-3.95521E-08 5.23869E-09
 -1        86-6.16732E+04-2.21403E+05 1.40066E+05 2.79469E+04 7.81438E-09-4.90036E-09
 -1        87 7.53777E+04-1.39968E+05 1.08913E+05-1.20753E+05 1.34251E-08 2.57160E-09
 -1        88-1.27413E+04-1.88933E+05 5.00977E+04 2.95175E+04 1.13878E-08 2.98052E-09
 -1        89 4.03816E+04-1.56651E+05 6.29033E+04-1.20705E+05 1.67547E-08-3.76258E-09
 -1        90-2.67706E+04-2.04790E+05 6.08533E+04 2.78990E+04 3.86717E-09-7.20320E-10
 -1        91-4.30484E+06-4.98851E+05-2.70538E+05-1.66135E+06-7.22029E-05 2.67173E-05
 -1        92-4.44517E+06-7.51493E+05-1.88080E+05-1.61672E+06-1.44033E-04 5.41541E-05
 -1        93-4.35815E+06-5.98524E+05-6.32997E+04-1.64487E+06-5.54077E-05 2.09108E-05
 -1        94-4.38184E+06-6.37100E+05-3.96661E+04-1.63671E+06 3.31473E-05-1.24419E-05
 -1        95-4.36779E+06-6.13199E+05-1.48255E+04-1.64122E+06 8.76956E-06-3.30233E-06
 -1        96-4.37099E+06-6.19761E+05-8.96594E+03-1.64038E+06-1.56376E-05 5.86955E-06
 -1        97-4.36890E+06-6.15848E+05-4.29468E+03-1.64116E+06-2.12288E-06 8.05967E-07
 -1        98-4.36968E+06-6.17440E+05-4.11296E+03-1.64070E+06 1.13978E-05-4.27761E-06
 -1        99-4.36908E+06-6.15518E+05-4.91160E+03-1.64090E+06-7.26942E-06 2.73573E-06
 -1       100-4.37180E+06-6.20210E+05-1.08898E+04-1.63988E+06-2.59442E-05 9.75818E-06
 -1       101-4.36681E+06-6.13082E+05-1.82701E+04-1.64199E+06 1.36188E-05-5.12141E-06
 -1       102-4.38384E+06-6.43113E+05-4.90773E+04-1.63690E+06 5.32307E-05-2.00092E-05
 -1       103-4.35716E+06-5.92633E+05-7.83819E+04-1.64392E+06 2.66423E-05-9.96066E-06
 -1       104-4.46613E+06-7.80724E+05-2.32891E+05-1.60748E+06-8.68931E-09 3.57250E-08
 -1       105-4.28495E+06-4.75517E+05-3.35027E+05-1.67158E+06-2.51748E-08 9.60426E-09
 -1       106-1.32441E+06 1.51468E+04-3.49026E+04 2.02223E-07 7.67536E-09 5.74801E-10
 -1       107-1.33946E+06-1.75312E+04-2.47172E+04-8.95775E-07 1.26626E-09 1.71167E-09
 -1       108-1.33024E+06 2.38159E+03-9.03854E+03-2.65773E-07-1.78065E-09-1.77806E-10
 -1       109-1.33265E+06-2.75701E+03-5.70394E+03 1.20555E-06 1.44805E-09-2.55113E-10
 -1       110-1.33120E+06 3.74989E+02-2.35686E+03-5.20743E-08 1.37645E-10 9.82595E-10
 -1       111-1.33153E+06-4.47939E+02-1.46462E+03-8.06836E-07-2.63416E-10 8.99225E-09
 -1       112-1.33136E+06 7.28934E+01-8.22280E+02-3.59347E-07-1.05721E-09 1.49203E-09
 -1       113-1.33139E+06-1.79178E+02-8.56516E+02 2.28755E-07 3.90534E-09 2.90812E-09
 -1       114-1.33134E+06 1.06268E+02-1.11748E+03-5.13048E-07-1.65714E-09-2.58092E-09
 -1       115-1.33168E+06-7.34141E+02-2.32028E+03-8.01254E-07 2.26308E-09-7.79846E-09
 -1       116-1.33107E+06 6.27777E+02-3.89513E+03-2.03356E-07-4.09101E-10-4.12251E-09
 -1       117-1.33358E+06-4.63083E+03-9.55200E+03 8.34030E-08-3.43761E-09 8.11963E-09
 -1       118-1.32945E+06 4.00234E+03-1.51742E+04-5.66748E-07-3.00297E-09 5.37239E-09
 -1       119-1.34503E+06-2.94636E+04-4.15331E+04-1.14076E-07 6.21824E-10-4.60886E-09
 -1       120-1.31965E+06 2.54573E+04-5.86503E+04 7.50668E-08-5.55971E-11-3.60160E-09
 -1       121-5.45159E+02-9.16412E+05 2.19980E+03 2.54683E+04 6.63704E-10 8.95261E-09
 -1       122 1.06405E+03-9.15501E+05 2.18515E+03 1.48855E+05 1.54796E-09 8.48311E-09
 -1       123-2.55923E+02-9.16243E+05 2.18567E+03 2.53902E+04 6.89283E-10 7.59019E-09
 -1       124 2.35008E+03-9.14032E+05 4.66515E+03 1.48181E+05 3.90173E-10-5.20231E-10
 -1       125-2.14924E+03-9.17145E+05 6.58735E+03 2.61430E+04-1.64891E-09 4.27463E-10
 -1       141-9.16252E+05 9.68988E+03-2.23363E+04 1.49680E-07-3.33889E-09-2.34286E-09
 -1       142-9.25877E+05-1.12158E+04-1.58253E+04-2.18569E-07-1.95866E-09 2.57705E-09
 -1       143-9.19984E+05 1.52405E+03-5.80479E+03-8.07075E-07 8.55401E-10-3.02930E-09
 -1       144-9.21523E+05-1.76731E+03-3.69366E+03 5.72854E-07-9.74427E-10-2.68068E-09
 -1       145-9.20598E+05 2.42971E+02-1.59162E+03-5.67801E-08-4.48616E-09-5.06833E-09
 -1       146-9.20820E+05-3.10042E+02-1.11514E+03-2.19077E-07 6.97805E-10-1.55691E-09
 -1       147-9.20685E+05 6.70318E+01-8.58994E+02-2.03164E-07 4.64602E-10-1.56210E-09
 -1       148-9.20810E+05-2.67792E+02-1.28114E+03-6.91049E-07-1.35808E-09-1.39853E-09
 -1       149-9.20608E+05 2.00735E+02-2.04246E+03 1.50512E-07-8.80214E-10 2.18529E-09
 -1       150-9.21435E+05-1.45663E+03-4.54500E+03-6.04027E-08-2.28706E-09 3.08137E-09
 -1       151-9.20063E+05 1.25572E+03-7.75746E+03-3.64914E-07-5.23664E-10 1.20053E-09
 -1       152-9.25238E+05-9.27396E+03-1.91151E+04-3.59433E-07 1.72347E-09 4.06635E-09
 -1       153-9.16814E+05 8.01703E+03-3.03925E+04-3.47720E-07 5.98018E-09 1.09139E-09
 -1       154-9.48168E+05-5.90184E+04-8.32009E+04 3.79935E-08 2.37650E-09 1.02955E-09
 -1       155-8.97154E+05 5.09958E+04-1.17465E+05 5.21608E-08 1.55705E-08 3.82715E-09
 -1       156-2.54936E+04-7.36702E+04 5.28094E+04-5.55140E+03-4.07090E-09-7.63833E-11
 -1       157 2.91506E+04 4.74759E+02 4.90815E+04 2.04903E+04-2.33922E-09 3.58151E-09
 -1       158-3.49783E+03-5.89135E+04 1.92956E+04-5.46692E+03-1.22945E-08 3.45074E-09
 -1       159 2.70509E+04 8.52538E+04 5.39661E+04 1.74354E+04 1.13805E-08 5.54063E-09
 -1       160-2.38569E+04-1.57868E+05 9.06111E+03-2.50236E+03 7.43239E-09-1.45326E-09
 -1       161-5.21975E+05-7.50017E+04-7.79627E+03-1.68857E+05-2.47574E-08-6.36646E-12
 -1       162-1.24927E+05-2.70758E+04 6.66366E+04-9.48525E+04 3.23197E-08 1.82149E-09
 -1       163-5.15024E+05-6.11072E+04-2.09858E+04-1.72439E+05-1.08578E-08 8.73501E-09
 -1       164-1.58066E+05-1.86740E+04 5.34774E+04-6.07296E+04-8.14155E-08 3.31815E-08
 -1       165-4.88411E+05-8.44942E+04-2.42760E+04-2.02308E+05-1.14238E-04 4.49354E-05
 -1       166-1.86136E+05 5.25693E+03 5.07073E+04-3.16688E+04-2.30151E-04 9.47524E-05
 -1       167-4.87390E+05-8.39413E+04-2.50158E+04-2.02159E+05-1.14201E-04 4.49426E-05
 -1       168-1.59626E+05-2.17952E+04 4.98579E+04-6.00481E+04-4.20182E-08 2.49559E-08
 -1       169-5.14485E+05-5.85393E+04-2.62342E+04-1.73269E+05-5.10291E-06 1.84045E-06
 -1       170-1.35781E+05-4.73207E+04 4.79134E+04-9.04898E+04-1.01294E-05 3.42504E-06
 -1       171-5.11661E+05-5.73296E+04-2.86728E+04-1.72388E+05-5.05122E-06 1.83950E-06
 -1       172-1.62597E+05-2.59701E+04 4.01670E+04-5.97882E+04 3.44207E-08-1.25704E-08
 -1       173-4.87247E+05-8.09759E+04-4.24389E+04-2.03302E+05-2.23361E-08-4.31010E-09
 -1       174-2.00592E+05-2.01882E+04 4.25247E+03-2.72837E+04-1.25018E-07-1.10276E-09
 -1       175-4.74102E+05-6.20194E+04-9.79898E+04-2.05549E+05-2.44727E-08-5.70071E-09
 -1       191 6.48738E+02 4.18222E+05 1.03508E+03-9.17154E+03-3.32875E-10 3.19415E-09
 -1       192 2.23759E+02 4.18355E+05 5.83949E+02-9.74025E+03-2.03841E-10-4.69299E-10
 -1       193 7.91701E+01 4.18273E+05 4.10521E+02-8.99342E+03-8.79822E-10 7.89441E-09
 -1       194 2.10101E+02 4.18339E+05 5.50850E+02-1.00770E+04-6.84622E-10 2.16914E-08
 -1       195 5.99770E+02 4.18212E+05 9.53242E+02-8.83424E+03-1.33696E-09 8.98490E-09
 -1       266-5.22551E+04-2.41574E+04 1.20636E+05-1.22594E+02 1.16415E-10 3.64415E-09
 -1       267 6.05182E+04 2.82204E+04 8.55580E+04 1.40920E+02 3.14685E-10-1.47199E-08
 -1       268-8.24629E+03-4.03980E+03 3.16687E+04-1.83536E+01-1.81899E-11-3.96561E-10
 -1       269 9.73426E+03 4.84476E+03 2.06962E+04 2.13336E+01-1.10049E-10 1.07100E-08
 -1       270-1.48597E+03-8.03663E+02 9.93673E+03-2.97700E+00-1.28239E-10 7.38017E-09
 -1       271-5.44869E+06-6.79477E+05-4.29917E+05-2.11141E+06-8.94943E-10-1.71713E-09
 -1       272-5.63270E+06-9.41645E+05-2.73390E+05-2.07499E+06 5.91172E-10-2.80852E-09
 -1       273-5.52687E+06-7.79577E+05-1.01348E+05-2.09560E+06-2.69438E-09-6.11908E-09
 -1       274-5.53991E+06-8.16110E+05-5.60522E+04-2.10126E+06-3.42243E-09-1.27147E-09
 -1       275-5.53846E+06-7.88116E+05-2.35604E+04-2.09130E+06-3.80351E-09-3.58523E-09
 -1       276-5.52464E+06-8.07010E+05-1.24635E+04-2.10897E+06 1.39107E-09-1.08571E-09
 -1       277-5.54192E+06-7.86963E+05-6.31839E+03-2.08855E+06-6.25732E-10 8.91305E-11
 -1       278-5.51960E+06-8.09637E+05-4.79356E+03-2.11386E+06-8.13543E-10 5.55428E-09
 -1       279-5.54368E+06-7.85222E+05-5.55792E+03-2.08661E+06 2.61707E-09 3.44457E-09
 -1       280-5.51804E+06-8.13316E+05-1.04383E+04-2.11687E+06 1.17689E-09 3.17073E-10
 -1       281-5.54371E+06-7.83259E+05-1.93761E+04-2.08565E+06 2.08274E-10 6.70025E-09
 -1       282-5.52562E+06-8.25894E+05-4.60891E+04-2.11654E+06 1.62868E-09 2.39379E-09
 -1       283-5.53652E+06-7.73908E+05-8.31705E+04-2.08656E+06-1.43700E-10-1.01136E-09
 -1       284-5.59779E+06-9.32994E+05-2.24516E+05-2.09950E+06 4.29191E-09 3.20870E-09
 -1       285-5.47402E+06-6.90099E+05-3.53070E+05-2.09769E+06 1.26602E-09 7.85803E-10
 -1       286 1.27580E+06-8.16847E+04 1.88589E+05 4.59079E+02 1.36116E-06-1.78021E-07
 -1       287 1.35762E+06 9.45616E+04 1.33472E+05-9.65682E+02 2.64897E-06-1.26784E-09
 -1       288 1.30735E+06-1.28446E+04 4.88497E+04-3.04690E+02 1.62285E-06 4.74556E-08
 -1       289 1.32089E+06 1.48665E+04 3.07823E+04-2.37525E+02 5.95214E-07 7.41784E-09
 -1       290 1.31257E+06-2.01838E+03 1.26450E+04-2.69039E+02 3.68859E-07 3.19733E-09
 -1       291 1.31484E+06 2.38323E+03 7.68053E+03-2.71701E+02 1.39170E-07 2.61116E-09
 -1       292 1.31343E+06-3.64301E+02 3.98764E+03-2.70519E+02 1.64354E-08 9.60199E-10
 -1       293 1.31400E+06 7.49762E+02 3.60414E+03-2.69989E+02-1.02608E-07-1.99283E-09
 -1       294 1.31342E+06-3.85219E+02 4.17583E+03-2.70751E+02-5.51643E-07 2.06501E-09
 -1       295 1.31493E+06 2.56265E+03 8.22463E+03-2.75962E+02-1.00124E-06 3.91572E-09
 -1       296 1.31249E+06-2.17684E+03 1.36248E+04-2.64546E+02-3.65218E-06-7.11952E-09
 -1       297 1.32147E+06 1.60413E+04 3.32252E+04-1.48046E+02-6.30006E-06-6.69388E-10
 -1       298 1.30685E+06-1.38607E+04 5.27550E+04-3.98662E+02-3.14789E-06 2.09111E-08
 -1       299 1.36157E+06 1.02160E+05 1.44242E+05-2.99938E+03 3.65294E-09 2.75159E-08
 -1       300 1.27235E+06-8.82630E+04 2.03609E+05 2.58658E+03 1.28737E-08 1.55705E-09
 -1       301 3.04311E+04-2.76212E+03 9.39466E+04 7.18792E+03 3.27418E-11-1.03046E-09
 -1       302 1.17776E+04 1.68404E+04 6.90544E+04 8.73097E+03 1.72804E-10-6.61657E-09
 -1       303 3.02337E+03 3.24045E+03 7.21226E+04 7.10643E+03-5.82077E-11-4.74938E-09
 -1       304 3.03039E+04 3.11767E+04 1.28156E+05 8.84760E+03 3.27418E-11-4.00178E-11
 -1       305 8.39937E+04-1.70353E+04 2.33970E+05 7.06107E+03 3.20142E-10 1.79489E-09
 -1       306-1.86555E+06-2.40433E+05-1.16007E+05-7.19703E+05 2.28647E-09 9.16771E-10
 -1       307-1.89129E+06-3.34601E+05-7.36871E+04-7.37251E+05 6.72458E-11 4.86580E-10
 -1       308-1.88634E+06-2.67573E+05-2.73740E+04-7.15858E+05 2.59354E-09 1.41335E-09
 -1       309-1.86734E+06-2.99984E+05-1.51624E+04-7.43416E+05 5.30349E-10-5.37602E-09
 -1       310-1.88894E+06-2.70390E+05-6.38890E+03-7.15326E+05-6.32639E-10-8.82892E-10
 -1       311-1.86446E+06-2.96320E+05-3.44557E+03-7.44081E+05 6.14875E-10 5.75183E-09
 -1       312-1.88917E+06-2.70790E+05-1.83721E+03-7.15369E+05-3.42766E-09 4.03168E-09
 -1       313-1.86448E+06-2.95595E+05-1.59168E+03-7.43633E+05-1.80876E-09 1.02091E-08
 -1       314-1.88883E+06-2.71136E+05-2.10975E+03-7.15727E+05-3.77713E-09-1.11140E-09
 -1       315-1.86561E+06-2.95196E+05-4.14726E+03-7.42470E+05 1.10504E-09-4.83760E-09
 -1       316-1.88786E+06-2.71342E+05-7.86579E+03-7.16387E+05 1.63163E-09 2.92766E-09
 -1       317-1.87019E+06-2.98545E+05-1.86244E+04-7.40160E+05 5.19094E-09 2.28556E-09
 -1       318-1.88408E+06-2.68476E+05-3.37392E+04-7.17660E+05 1.92586E-09-2.27737E-09
 -1       319-1.90062E+06-3.40090E+05-9.06518E+04-7.31298E+05-1.44576E-09 1.97906E-09
 -1       320-1.85799E+06-2.35596E+05-1.42817E+05-7.22936E+05-9.94987E-10 8.65839E-10
 -1       321-8.60523E+05-1.08465E+04 1.20598E+03-3.36021E+04-1.11836E-08 3.41061E-09
 -1       322-3.04817E+05 3.51784E+04 1.07111E+05 4.92583E+04-5.09375E-08 3.85239E-09
 -1       323-1.11075E+06-2.40433E+04-6.58351E+04-1.01211E+04-1.88845E-08-3.36331E-09
 -1       324-4.16586E+05 1.81230E+03 6.94106E+04-2.66905E+04-1.71286E-08-1.18482E-08
 -1       325-7.48688E+05 2.15749E+04 5.93086E+03 4.23268E+04 9.39522E-09-8.83279E-09
 -1       326-3.99110E+05 9.82242E+02 7.04115E+04-3.06126E+04 1.51779E-08-1.77708E-08
 -1       327-1.12823E+06-2.30592E+04-7.45670E+04-6.20057E+03-5.71026E-09 1.34710E-09
 -1       328-3.26887E+05 9.59551E+03 8.56061E+04 4.67693E+04 2.41771E-09 2.67398E-08
 -1       329-8.20961E+05 1.36239E+04-1.09589E+04-3.50369E+04-7.82313E-09 1.40056E-08
 -1       330-4.81666E+05-9.75344E+03 5.02384E+04 1.05148E+04 2.82446E-08 5.74164E-09
 -1       331-9.73408E+05-5.00779E+03-4.47451E+04 3.00357E+04 3.35820E-09-1.18772E-08
 -1       332-2.93578E+05 1.47863E+04 8.86643E+04-5.17414E+04-5.14007E-08-2.26003E-08
 -1       333-1.00914E+06-9.27436E+03-5.92676E+04 2.72039E+04-3.88162E-08-8.47740E-09
 -1       334-4.72022E+05-8.27391E+03 3.47305E+04 1.46438E+04-2.65118E-09 8.20864E-09
 -1       335-7.94883E+05 1.64843E+04-4.27314E+04-3.63343E+04-2.65033E-08 9.18772E-09
 -1       336 3.25787E+02-1.00336E+06-3.68525E+03-2.29976E+04-4.61409E-09 6.21731E-09
 -1       337-1.27547E+03-1.00525E+06-7.03729E+03-1.44686E+05-8.35610E-09-7.78527E-10
 -1       338 1.56217E+03-1.00278E+06-1.18161E+04-2.21897E+04-6.76664E-09-1.37516E-09
 -1       339-1.46196E+04-1.01349E+06-2.94352E+04-1.45431E+05-9.57561E-09 2.87258E-10
 -1       340 1.24185E+04-9.95862E+05-4.50028E+04-2.22542E+04-5.88261E-09-1.91812E-09
 -1       356-7.98209E+05 1.58155E+04-4.35029E+04-3.56464E+04-3.54189E-09 1.27166E-08
 -1       357-4.80474E+05-8.68544E+03 3.29317E+04 1.36382E+04-5.92286E-09 1.70394E-09
 -1       358-9.96280E+05-8.18567E+03-5.67260E+04 2.74003E+04-1.38208E-08-8.50832E-09
 -1       359-3.02265E+05 1.45039E+04 8.67889E+04-5.10134E+04-1.78974E-08-2.19636E-08
 -1       360-9.76490E+05-5.82432E+03-4.56419E+04 2.89904E+04-8.53368E-09-1.17780E-08
 -1       361-4.85481E+05-9.40401E+03 4.92499E+04 1.13264E+04 1.17005E-08 4.52224E-09
 -1       362-8.12983E+05 1.41316E+04-9.93572E+03-3.49245E+04 4.19822E-08 1.02921E-08
 -1       363-3.38730E+05 8.74959E+03 8.20016E+04 4.54883E+04 2.74938E-08 1.33286E-08
 -1       364-1.12328E+06-2.27564E+04-7.57372E+04-5.15443E+03-2.55409E-08 6.01369E-09
 -1       365-4.02744E+05-7.78000E+00 6.51894E+04-3.11691E+04-7.50529E-08-1.89887E-08
 -1       366-7.48929E+05 2.23129E+04-2.53263E+03 4.17156E+04 4.48663E-08-1.41199E-08
 -1       367-4.32881E+05-8.60145E+03 4.68705E+04-2.48826E+04 7.32043E-08-1.51472E-08
 -1       368-1.09314E+06-1.43946E+04-9.51103E+04-1.14391E+04-2.79858E-08 2.30284E-09
 -1       369-3.37169E+05-2.68763E+04 1.88552E+04 4.87359E+04-5.36841E-08 1.85537E-08
 -1       370-8.44713E+05 4.15752E+04-1.24379E+05-3.18836E+04-2.91129E-09 1.04847E-08
 -1       371-2.10950E+04-1.36899E+05 9.89096E+03-1.89134E+03 2.65718E-08-1.85594E-09
 -1       372 2.02224E+04 6.18335E+04 3.88848E+04 1.48371E+04-5.44105E-09-5.40001E-09
 -1       373 5.77124E+02-5.64284E+04 1.44532E+03-4.59978E+03-1.93995E-09 1.07130E-09
 -1       374-6.05040E+03-2.35967E+04-1.77326E+03 1.75651E+04-1.26033E-09 4.84190E-10
 -1       375 5.56258E+03-5.19685E+04-1.54327E+04-4.61296E+03-8.56926E-09-1.77187E-09
 -1       406 5.46427E+02 4.16639E+05 1.37681E+03-2.05996E+04-1.77261E-09 4.02724E-09
 -1       407 4.65361E+02 4.16899E+05 2.02917E+03-2.23998E+04-9.93026E-10 1.11440E-08
 -1       408 9.29987E+02 4.16543E+05 3.63465E+03-2.04495E+04-2.27192E-09 7.24867E-10
 -1       409 3.77224E+03 4.17967E+05 7.98212E+03-2.26539E+04-1.82808E-09-8.36735E-09
 -1       410 1.08337E+04 4.15523E+05 1.61927E+04-2.03344E+04-3.17050E-09-3.47882E-10
 -1       501-5.41090E+05-1.01620E+05 1.24449E+05-2.46152E+04 2.64557E-08 1.89320E-08
 -1       502 9.15124E+04 9.96078E+04 1.85757E+05 5.96300E+04 3.35122E-08 4.45962E-08
 -1       503-2.99468E+05 3.19314E+03 3.91707E+04-2.66657E+04 1.22333E-08 3.04517E-08
 -1       504 2.17932E+05 2.09816E+04 1.19517E+05 3.45279E+04 2.03181E-09 2.63424E-08
 -1       505-6.65928E+05-2.49846E+04-7.19382E+04 5.08093E+02 1.47968E-08-6.05269E-09
 -1       506 3.25559E+05 1.87498E+04 1.21604E+05-2.73536E+04 5.75181E-08-3.27320E-08
 -1       507-4.06171E+05 4.48644E+03-2.69872E+04 3.50810E+04 5.40228E-08-4.72595E-08
 -1       508 3.21378E+04-1.11831E+04 5.33290E+04-6.17224E+04 2.50879E-08-6.34755E-08
 -1       509-3.75191E+05 8.03883E+03-2.25026E+04 3.50098E+04 5.41131E-08-4.21062E-08
 -1       510 2.97112E+05 1.42384E+04 1.10108E+05-3.04852E+04 3.98429E-08-3.80778E-08
 -1       511-6.68672E+05-2.38198E+04-8.27020E+04 3.71263E+03-1.94455E-08-3.03015E-09
 -1       512 2.39748E+05 1.15206E+04 1.00536E+05 3.15458E+04-3.29958E-08 1.34077E-08
 -1       513-3.18315E+05 1.12394E+04-5.65974E+03-2.68906E+04-2.03381E-08 2.69797E-08
 -1       514 5.42516E+04 2.15343E+04 7.62054E+04 5.97511E+04-1.19216E-08 4.75279E-08
 -1       515-4.85103E+05-3.15374E+04-2.46316E+04-2.45134E+04-2.07776E-08 1.59971E-08
 -1       521-5.44224E+06-6.85295E+05-3.49763E+05-2.08390E+06-3.05590E-09-4.74392E-09
 -1       522-5.56949E+06-9.21257E+05-2.22409E+05-2.08036E+06-1.73895E-09-4.05271E-09
 -1       523-5.50412E+06-7.68351E+05-8.23853E+04-2.07292E+06 1.50976E-10 3.89264E-10
 -1       524-5.49790E+06-8.15257E+05-4.56407E+04-2.09734E+06-4.66571E-10-4.52837E-09
 -1       525-5.51137E+06-7.77487E+05-1.91550E+04-2.07188E+06 8.34007E-10 2.31012E-09
 -1       526-5.49006E+06-8.03163E+05-1.02581E+04-2.09811E+06 3.40697E-09 6.39790E-09
 -1       527-5.51159E+06-7.79171E+05-5.32492E+03-2.07254E+06 7.34417E-10 1.41893E-09
 -1       528-5.49100E+06-8.00110E+05-4.36906E+03-2.09589E+06-7.16000E-10 6.29325E-09
 -1       529-5.51026E+06-7.80522E+05-5.47082E+03-2.07403E+06-1.72122E-09-6.17092E-10
 -1       530-5.49502E+06-7.98116E+05-1.06056E+04-2.09206E+06 3.54248E-10 2.76304E-09
 -1       531-5.50745E+06-7.81368E+05-1.99196E+04-2.07623E+06-4.20641E-10 1.43609E-09
 -1       532-5.50773E+06-8.06005E+05-4.73732E+04-2.08579E+06-4.12547E-09-5.09317E-10
 -1       533-5.49775E+06-7.74069E+05-8.56046E+04-2.07976E+06-2.75759E-09 7.67614E-10
 -1       534-5.58593E+06-9.12209E+05-2.30942E+05-2.06376E+06-5.40604E-09-1.06957E-09
 -1       535-5.43182E+06-6.89468E+05-3.63239E+05-2.09306E+06-3.35422E-09 2.73576E-09
 -1       536 1.08569E+05-1.58273E+04 5.70438E+04-6.77924E+03 8.84029E-10-4.78394E-09
 -1       537 1.30685E+05 1.96482E+04 3.73750E+04-3.97630E+04-3.68891E-09 2.64481E-09
 -1       538 1.17374E+05-1.87494E+03 1.47708E+04-6.75549E+03 7.63976E-11 1.50067E-10
 -1       539 1.20422E+05 2.05308E+03 8.45211E+03-3.97277E+04 1.60617E-09 2.62526E-09
 -1       540 1.18431E+05-2.62991E+02 3.72197E+03-6.80887E+03 5.46606E-10-2.68028E-09
 -1       541 1.18946E+05 2.07991E+02 2.01224E+03-3.96280E+04-3.08319E-10-6.11215E-09
 -1       542 1.18559E+05-4.24615E+01 9.27336E+02-6.85577E+03 2.62116E-09-1.72656E-09
 -1       543 1.18621E+05 5.63477E+01 4.89331E+02-3.95552E+04 5.14319E-09 5.64717E-09
 -1       544 1.18572E+05 3.30671E+00 2.28624E+02-6.88181E+03 2.96404E-09 5.70424E-10
 -1       545 1.18527E+05 5.79502E+01 1.10499E+02-3.95239E+04-2.33069E-09 1.26772E-09
 -1       546 1.18575E+05 1.19195E+01 3.80100E+01-6.88705E+03 9.13019E-10 2.62617E-09
 -1       547 1.18537E+05 3.68925E+01-1.68075E+01-3.95291E+04-1.20599E-09-1.31382E-09
 -1       548 1.18588E+05 5.81977E+00-7.90195E+01-6.87666E+03-7.00766E-10 1.29660E-09
 -1       549 1.18590E+05-1.01726E+02-2.04523E+02-3.95129E+04-1.72986E-09-8.96534E-10
 -1       550 1.18652E+05 4.66649E+01-3.61249E+02-6.90327E+03 5.46152E-10 1.77374E-09
 -1       551 1.00147E+04-3.33230E+05 2.57942E+04-5.20282E+05-6.73026E-09-3.96540E-10
 -1       552 8.67216E+03-3.29818E+05 2.96562E+04-6.42419E+05-7.21047E-09 6.95218E-09
 -1       553 6.62437E+03-3.34731E+05 4.56168E+04-5.19222E+05-7.78527E-09 2.63026E-09
 -1       554 2.94496E+04-3.14433E+05 9.51220E+04-6.42555E+05-9.02583E-09 5.38421E-10
 -1       555 6.97722E+04-3.49798E+05 1.80887E+05-5.19876E+05-7.39237E-09-4.70754E-09
 -1       556-1.15990E+05-1.16220E+05 2.55303E+04-1.86895E+05-7.09042E-09-1.59343E-09
 -1       557-8.76741E+04-1.43074E+05 1.29757E+04-2.10162E+05-1.67347E-09 2.24031E-09
 -1       558-1.16326E+05-1.21945E+05 5.37427E+03-1.82928E+05 3.20142E-10-1.59889E-09
 -1       559-9.08455E+04-1.46780E+05 2.68027E+03-2.11639E+05 4.76575E-10-1.32522E-08
 -1       560-1.16952E+05-1.21628E+05 1.15871E+03-1.83205E+05-1.86628E-09-1.04437E-08
 -1       561-9.17627E+04-1.46628E+05 5.77783E+02-2.12268E+05-7.56700E-10-9.59290E-10
 -1       562-1.17443E+05-1.21300E+05 2.14636E+02-1.83542E+05-1.36788E-09-2.27737E-09
 -1       563-9.22830E+04-1.46406E+05 5.82512E+01-2.12622E+05-2.55386E-09 3.17868E-09
 -1       564-1.17728E+05-1.21113E+05-1.15412E+02-1.83740E+05 1.58070E-09 6.54200E-09
 -1       565-9.25403E+04-1.46302E+05-3.44561E+02-2.12786E+05-1.98543E-09 3.88354E-10
 -1       566-1.17783E+05-1.21050E+05-7.77335E+02-1.83792E+05-3.77122E-09-6.55200E-09
 -1       567-9.26588E+04-1.46365E+05-1.73214E+03-2.12751E+05 2.33240E-09 2.54386E-09
 -1       568-1.17525E+05-1.21271E+05-3.57492E+03-1.83643E+05-2.85399E-09-8.68022E-09
 -1       569-9.46281E+04-1.48202E+05-8.42252E+03-2.11985E+05-6.91216E-11-2.32285E-09
 -1       570-1.15963E+05-1.26330E+05-1.67578E+04-1.81512E+05-5.67525E-10-2.00089E-10
 -1       571 2.88299E+05 1.19481E+04 1.79312E+04-7.04758E+04-2.16460E-10-2.53613E-09
 -1       572 2.90988E+05 4.11940E+03 8.79324E+03-7.74123E+04-6.18456E-10-4.87898E-09
 -1       573 2.89370E+05 9.54035E+02 3.90847E+03-7.02928E+04-1.12868E-09-1.61617E-09
 -1       574 2.89685E+05 3.00707E+02 1.96026E+03-7.76122E+04-1.23896E-09-1.60253E-09
 -1       575 2.89483E+05 3.05438E+01 9.25479E+02-7.02694E+04-8.87439E-10 3.88354E-10
 -1       576 2.89509E+05 1.28776E+00 4.72586E+02-7.76386E+04-1.43275E-09-2.42653E-09
 -1       577 2.89502E+05-1.72424E+01 2.35099E+02-7.02663E+04-1.21054E-09 1.45701E-09
 -1       578 2.89498E+05-1.63603E+01 1.32629E+02-7.76420E+04-5.25688E-10 5.90808E-09
 -1       579 2.89530E+05-2.60255E+01 8.86855E+01-7.02660E+04-7.63248E-09 1.57343E-09
 -1       580 2.89539E+05-3.38062E+01 9.57718E+01-7.76384E+04-1.55233E-08 4.94765E-10
 -1       581 2.89580E+05-4.62138E+01 1.43321E+02-7.02699E+04-8.79481E-09 3.24189E-09
 -1       582 2.89632E+05-2.74283E+01 2.83696E+02-7.75964E+04-1.57797E-09-2.68210E-09
 -1       583 2.89637E+05 4.20722E+01 5.49462E+02-7.03080E+04-1.92449E-09 8.48786E-10
 -1       584 2.89908E+05 4.64863E+02 1.23501E+03-7.72723E+04-3.37513E-09-1.50430E-09
 -1       585 2.89571E+05 1.54746E+03 2.50754E+03-7.05958E+04 4.00178E-10-1.10595E-09
 -1       586 4.27127E+02 1.26033E+05 1.20299E+03-1.72167E+05 7.82165E-11-5.47152E-09
 -1       587 5.75214E+02 1.26227E+05 2.32758E+03-1.91975E+05-2.25555E-09-1.17097E-09
 -1       588 1.10327E+03 1.25797E+05 4.51128E+03-1.71942E+05-4.72937E-11-7.76708E-10
 -1       589 4.48069E+03 1.27686E+05 1.00771E+04-1.92018E+05-2.44654E-09 7.05768E-10
 -1       590 1.28664E+04 1.24504E+05 2.03999E+04-1.72119E+05 8.50378E-11-1.24419E-09
 -1       591-1.30462E+05-3.88408E+04-2.74353E+04-6.24743E+04 7.31006E-10-4.80213E-10
 -1       592-1.32418E+05-3.78004E+04-1.38402E+04-6.96955E+04 8.18545E-10 2.14641E-10
 -1       593-1.31905E+05-3.13790E+04-5.87343E+03-6.62567E+04 2.86263E-10 1.08344E-09
 -1       594-1.29278E+05-3.43867E+04-2.88657E+03-6.99321E+04 5.73209E-10 1.41520E-09
 -1       595-1.32060E+05-3.11886E+04-1.33215E+03-6.63988E+04-4.07681E-10 7.87497E-09
 -1       596-1.29065E+05-3.42676E+04-6.73015E+02-6.99004E+04 3.97904E-12-6.70752E-10
 -1       597-1.32085E+05-3.12121E+04-3.61475E+02-6.63989E+04-4.56568E-09 2.49088E-09
 -1       598-1.29042E+05-3.42689E+04-2.79854E+02-6.98900E+04-1.00650E-08-1.10026E-09
 -1       599-1.32082E+05-3.12144E+04-3.44035E+02-6.63972E+04-6.00039E-10 1.02391E-08
 -1       600-1.29058E+05-3.42704E+04-6.26955E+02-6.98940E+04 2.71973E-09 6.63476E-10
 -1       601-1.32052E+05-3.11964E+04-1.23309E+03-6.63938E+04-2.37515E-09-3.32602E-09
 -1       602-1.29251E+05-3.43799E+04-2.66788E+03-6.99147E+04-1.80080E-10 5.79530E-09
 -1       603-1.31902E+05-3.13793E+04-5.42658E+03-6.62626E+04-2.06137E-09-2.85127E-10
 -1       604-1.32181E+05-3.74992E+04-1.27839E+04-6.96501E+04 3.77440E-09 6.46651E-09
 -1       605-1.30530E+05-3.83028E+04-2.53409E+04-6.28011E+04 3.31966E-11-1.29512E-09
 -1       606 9.64765E+04-1.13115E+04-1.81967E+04 3.00910E+04-3.87172E-09 1.92813E-10
 -1       607 9.35536E+04-3.76448E+03-8.97126E+03 3.31246E+04 2.18279E-10-2.18040E-09
 -1       608 9.52376E+04-7.64858E+02-4.00070E+03 2.98776E+04 1.25438E-08-4.40423E-10
 -1       609 9.48625E+04-2.00217E+02-2.01023E+03 3.33573E+04 1.51385E-08-5.22050E-10
 -1       610 9.50682E+04 2.59714E+01-9.52819E+02 2.98515E+04 2.60661E-09-3.84489E-09
 -1       611 9.49896E+04 5.84947E+01-4.79044E+02 3.33851E+04-7.62111E-09-1.25806E-09
 -1       612 9.50222E+04 6.52616E+01-2.26871E+02 2.98488E+04-2.22099E-09-1.64164E-10
 -1       613 9.49880E+04 7.38638E+01-1.00665E+02 3.33882E+04-3.90901E-09 1.19326E-08
 -1       614 9.49974E+04 6.69117E+01-2.20018E+01 2.98482E+04 1.36060E-09 2.55682E-09
 -1       615 9.49763E+04 8.03011E+01 4.69212E+01 3.33884E+04 7.71115E-09-1.55865E-09
 -1       616 9.49783E+04 7.62136E+01 1.36288E+02 2.98486E+04 1.38598E-08-1.28466E-09
 -1       617 9.49886E+04 1.24613E+02 3.11668E+02 3.33870E+04 3.90937E-08 7.87600E-09
 -1       618 9.49463E+04 2.03657E+02 6.30460E+02 2.98492E+04 1.80171E-08-1.35105E-09
 -1       619 9.51945E+04 6.90925E+02 1.42089E+03 3.33809E+04 4.79872E-10 1.35833E-09
 -1       620 9.47501E+04 1.87681E+03 2.88413E+03 2.98514E+04 3.36411E-09 1.12777E-09
 -1       621 9.84469E+02 2.91880E+05 3.52030E+03-2.03334E+04-1.24146E-10 5.14444E-09
 -1       622 4.51255E+02 2.92597E+05 3.56308E+03-2.51610E+04 2.45109E-10-2.45836E-09
 -1       623 2.36776E+02 2.91990E+05 5.09602E+03-2.03433E+04-4.09273E-12 3.17914E-09
 -1       624 2.58126E+03 2.94258E+05 1.03723E+04-2.50695E+04 6.48470E-10 1.75646E-09
 -1       625 7.14033E+03 2.90241E+05 1.96364E+04-2.04215E+04 1.16415E-10 3.09819E-09
 -1       626 1.75009E+05 5.62986E+04-3.32373E+03 1.10931E+05-3.62343E-09-7.83439E-09
 -1       627 1.71205E+05 6.08464E+04-1.57947E+03 1.14172E+05 2.10275E-09 4.43640E-09
 -1       628 1.75136E+05 5.77982E+04-6.64784E+02 1.10015E+05 1.54250E-09-7.91874E-09
 -1       629 1.71312E+05 6.16259E+04-3.15946E+02 1.14227E+05 9.95715E-09 3.40626E-09
 -1       630 1.75113E+05 5.79042E+04-1.36063E+02 1.09925E+05 5.36329E-09-4.69902E-09
 -1       631 1.71291E+05 6.16929E+04-5.12973E+01 1.14224E+05-6.30371E-09-1.32832E-08
 -1       632 1.75089E+05 5.79142E+04 6.74562E+00 1.09907E+05 2.17733E-09-7.91488E-10
 -1       633 1.71277E+05 6.17015E+04 6.80411E+01 1.14217E+05 2.61775E-09-5.66160E-11
 -1       634 1.75070E+05 5.79112E+04 1.63873E+02 1.09901E+05 7.06223E-09 7.86781E-09
 -1       635 1.71290E+05 6.17064E+04 3.67014E+02 1.14218E+05 1.62254E-09 3.41697E-09
 -1       636 1.75052E+05 5.79232E+04 7.59001E+02 1.09890E+05-8.06870E-09-6.78347E-09
 -1       637 1.71467E+05 6.18913E+04 1.69019E+03 1.14194E+05-7.16227E-11 5.35056E-09
 -1       638 1.75010E+05 5.84865E+04 3.49655E+03 1.09643E+05-1.53514E-08-1.35037E-08
 -1       639 1.73260E+05 6.48890E+04 8.31072E+03 1.13478E+05-1.76751E-08 8.92624E-09
 -1       640 1.75040E+05 6.72313E+04 1.74729E+04 1.05995E+05-8.37417E-09 3.68527E-09
 -1       641-2.15408E+04 3.49173E+03-8.04971E+03-4.21001E+01 3.54058E-05-5.67302E-08
 -1       642-2.50316E+04-4.04134E+03-5.69569E+03 3.79801E+00 7.07403E-05-9.86690E-08
 -1       643-2.28867E+04 5.48752E+02-2.07579E+03-4.70747E+01 6.53910E-05-1.03421E-07
 -1       644-2.34632E+04-6.33718E+02-1.29337E+03 1.27712E+01 5.99996E-05-9.21006E-08
 -1       645-2.31093E+04 8.47603E+01-5.00353E+02-5.10747E+01 3.89510E-05-6.63507E-08
 -1       646-2.31990E+04-9.07878E+01-2.43867E+02 1.78362E+01 1.78856E-05-1.88417E-08
 -1       647-2.31509E+04 5.91974E+00-1.32217E+01-5.21401E+01-1.16845E-05 2.14615E-08
 -1       648-2.31266E+04 4.00245E+01 1.91739E+02 1.66271E+01-4.12612E-05 6.41457E-08
 -1       649-2.31816E+04-4.60366E+01 4.47157E+02-4.98658E+01-7.36715E-05 1.22269E-07
 -1       650-2.29581E+04 3.54692E+02 1.09066E+03 8.89191E+00-1.06082E-04 1.65283E-07
 -1       651-2.33194E+04-3.08709E+02 1.89780E+03-4.44048E+01-1.33386E-04 2.08184E-07
 -1       652-2.20178E+04 2.28261E+03 4.70319E+03-5.14825E+00-1.60664E-04 2.29488E-07
 -1       653-2.41218E+04-1.97360E+03 7.48483E+03-3.58256E+01-1.66017E-04 2.42372E-07
 -1       654-1.63731E+04 1.45288E+04 2.04902E+04-2.82391E+01-1.71265E-04 2.15705E-07
 -1       655-2.89626E+04-1.25524E+04 2.89419E+04-2.13141E+01-8.57024E-05 9.16862E-08
 -1       656 1.10238E+04-4.13794E+05-4.69051E+04 1.12962E+04-2.37378E-09 3.17050E-09
 -1       657-1.60887E+04-4.31125E+05-3.47946E+04 4.78564E+04-1.95155E-09 2.56659E-09
 -1       658 2.27244E+03-4.19825E+05-2.26506E+04 1.11794E+04-5.18298E-10 4.83521E-09
 -1       659-1.58486E+04-4.31036E+05-3.44053E+04 4.79329E+04-9.91349E-11-1.13690E-09
 -1       660 1.08605E+04-4.13938E+05-4.61603E+04 1.12206E+04-1.56433E-10-1.90721E-09
 -1       661 2.56360E+05 3.56837E+04 2.03594E+04 1.00709E+05 7.43876E-09 4.60386E-09
 -1       662 2.60728E+05 4.75223E+04 1.22604E+04 1.03708E+05 1.34668E-09 5.28189E-10
 -1       663 2.59485E+05 3.87199E+04 4.77862E+03 1.00727E+05-3.39236E-09-4.05839E-09
 -1       664 2.57073E+05 4.26040E+04 2.52185E+03 1.04280E+05 3.43130E-09-2.73968E-09
 -1       665 2.59784E+05 3.89976E+04 1.11610E+03 1.00740E+05 2.30924E-09-2.45831E-09
 -1       666 2.56724E+05 4.21942E+04 5.94085E+02 1.04303E+05 4.39869E-09 2.22530E-09
 -1       667 2.59818E+05 3.90249E+04 3.45975E+02 1.00743E+05-1.98594E-09 1.53329E-09
 -1       668 2.56693E+05 4.21672E+04 3.32399E+02 1.04306E+05 2.13734E-09-3.65765E-09
 -1       669 2.59816E+05 3.90193E+04 4.85034E+02 1.00740E+05-4.30305E-09-1.19917E-09
 -1       670 2.56753E+05 4.22298E+04 9.70354E+02 1.04319E+05 3.08802E-09-1.89459E-09
 -1       671 2.59763E+05 3.89654E+04 1.89878E+03 1.00731E+05 5.33350E-09-3.74166E-09
 -1       672 2.57351E+05 4.29444E+04 4.33671E+03 1.04290E+05 1.31442E-08 7.32143E-11
 -1       673 2.59250E+05 3.84818E+04 8.23352E+03 1.00705E+05 2.65146E-09-5.32054E-09
 -1       674 2.63651E+05 5.14320E+04 2.11402E+04 1.03313E+05 1.29293E-08 7.48423E-09
 -1       675 2.53862E+05 3.32437E+04 3.51070E+04 1.00671E+05 4.63569E-09 9.78616E-10
 -1       676 4.33986E+02-3.69501E+05-2.98916E+03-3.22602E+02-1.72555E-10 1.46940E-11
 -1       677-1.24098E+03-3.70679E+05-4.48262E+03-2.24607E+03-5.29695E-09 2.97486E-09
 -1       678 5.75063E+02-3.69348E+05-6.78725E+03-3.25574E+02-5.15229E-09 3.92896E-09
 -1       679-7.57810E+03-3.74521E+05-1.60079E+04-2.23485E+03-9.84983E-09 4.64283E-10
 -1       680 5.37261E+03-3.65660E+05-2.49370E+04-3.35307E+02-3.52884E-09 2.21087E-09
 -1       716-3.32863E-01-1.58148E-01 1.49417E+01-5.90785E-04 6.17347E-10-2.17345E-09
 -1       717 1.64541E+00 1.20023E+00 2.63148E+01 1.50298E-03-5.02995E-11-1.32295E-09
 -1       718-1.30942E+00-1.03937E+00 4.88328E+01-9.14950E-04 1.63034E-09-2.47973E-09
 -1       719 7.76558E+00 8.16932E+00 1.01288E+02-1.38461E-03-2.14041E-09-6.04414E-10
 -1       720-6.45311E+00-7.12768E+00 1.93183E+02 2.29855E-03-1.31095E-09-3.96059E-09
 -1       721 4.01875E+01 5.44265E+01 4.12866E+02-4.84492E-02-6.40853E-09 8.30170E-10
 -1       722-3.37311E+01-4.72947E+01 7.72747E+02 4.61441E-02-4.00554E-09-1.28077E-09
 -1       723 2.18492E+02 3.55131E+02 1.70209E+03-4.64826E-01-4.63651E-09-1.56206E-09
 -1       724-1.84748E+02-3.07796E+02 3.08222E+03 4.18585E-01-6.05158E-09-4.06681E-09
 -1       725 1.23759E+03 2.28840E+03 7.10357E+03-3.57462E+00-8.15627E-09-1.04217E-09
 -1       726-1.05264E+03-1.98021E+03 1.22219E+04 3.15538E+00-7.77986E-09-2.10139E-09
 -1       727 7.24168E+03 1.46333E+04 3.01718E+04-2.51446E+01-1.14436E-08-7.65795E-10
 -1       728-6.18568E+03-1.26498E+04 4.80045E+04 2.19896E+01-3.68426E-09-1.64619E-09
 -1       729 4.34134E+04 9.31291E+04 1.31353E+05-1.69122E+02 6.08054E-10-1.53159E-09
 -1       730-3.71720E+04-8.04479E+04 1.85659E+05 1.47215E+02 3.71958E-09-1.06957E-09
 -1       766-8.04634E+04-3.72049E+04 1.85628E+05-5.80223E+01-2.76486E-10-1.39858E-09
 -1       767 9.32610E+04 4.34545E+04 1.31335E+05-1.87927E+02 6.04086E-09-1.51463E-09
 -1       768-1.27654E+04-6.27720E+03 4.78499E+04 6.52376E+01-3.89264E-10-3.30871E-10
 -1       769 1.54902E+04 7.65182E+03 3.01877E+04-3.31186E+02 4.89445E-09 5.59097E-09
 -1       770-2.72036E+03-1.45405E+03 1.15210E+04 8.53184E+01-5.51154E-10 2.13627E-09
 -1       771-2.32350E+06-4.28323E+05-6.21772E+04-9.73486E+05-2.16642E-09-1.30967E-10
 -1       772-2.31680E+06-4.36407E+05-3.12904E+04-1.00186E+06-6.98492E-10 8.72205E-10
 -1       773-2.32785E+06-4.10617E+05-1.33741E+04-9.81673E+05 1.89175E-09 9.87711E-10
 -1       774-2.30961E+06-4.29260E+05-6.53691E+03-1.00379E+06 1.92085E-09 4.29281E-10
 -1       775-2.32884E+06-4.09730E+05-3.07507E+03-9.82149E+05-4.80213E-10 3.28146E-09
 -1       776-2.30945E+06-4.28993E+05-1.53545E+03-1.00437E+06-1.49157E-09 2.19779E-09
 -1       777-2.32938E+06-4.09462E+05-8.60591E+02-9.82312E+05 2.00089E-10-6.93944E-10
 -1       778-2.30967E+06-4.28955E+05-6.54327E+02-1.00480E+06 5.89353E-10 7.30950E-10
 -1       779-2.32971E+06-4.09245E+05-8.35637E+02-9.82427E+05-1.88084E-09 4.70664E-10
 -1       780-2.30989E+06-4.28931E+05-1.51584E+03-1.00509E+06-1.08503E-09 6.40011E-09
 -1       781-2.32982E+06-4.09077E+05-3.00290E+03-9.82485E+05-1.30422E-09 7.63976E-11
 -1       782-2.31045E+06-4.29185E+05-6.50957E+03-1.00526E+06 2.53112E-09 2.56841E-09
 -1       783-2.32949E+06-4.09504E+05-1.32637E+04-9.82183E+05-1.11817E-09-4.65661E-10
 -1       784-2.31763E+06-4.36814E+05-3.12929E+04-1.00455E+06-1.80762E-09-1.51158E-09
 -1       785-2.32603E+06-4.26529E+05-6.20646E+04-9.73722E+05 8.32188E-10 9.05857E-10
 -1       786 2.20327E+05-7.21038E+03 2.64291E+04-1.05780E+03 4.01315E-11 3.99268E-09
 -1       787 2.30227E+05 9.18221E+03 1.72655E+04-6.31369E+03 7.82620E-10 2.62412E-09
 -1       788 2.24410E+05-8.06894E+02 6.86258E+03-1.06118E+03-7.00084E-10 3.19642E-09
 -1       789 2.25638E+05 1.00151E+03 3.90396E+03-6.30114E+03 7.56927E-10-5.62494E-09
 -1       790 2.24911E+05-9.22461E+01 1.74769E+03-1.06997E+03-1.63880E-10-2.23133E-09
 -1       791 2.25068E+05 1.08149E+02 9.48934E+02-6.28905E+03 8.25821E-10 6.05382E-11
 -1       792 2.24978E+05-1.15589E+01 4.81239E+02-1.07327E+03-1.33284E-10 2.91186E-09
 -1       793 2.24995E+05 1.55776E+01 3.21560E+02-6.28841E+03 5.22213E-10-3.41491E-09
 -1       794 2.24984E+05-6.35901E+00 2.94695E+02-1.07060E+03-1.90084E-10 3.40830E-09
 -1       795 2.25018E+05 4.60633E+01 4.52165E+02-6.30000E+03-5.00791E-11 2.58879E-09
 -1       796 2.24957E+05-4.05951E+01 7.70962E+02-1.06168E+03 2.33899E-09-2.28036E-09
 -1       797 2.25264E+05 4.27001E+02 1.68526E+03-6.32219E+03 5.72231E-09-1.93808E-10
 -1       798 2.24743E+05-3.47808E+02 2.94694E+03-1.04841E+03 2.04886E-09-9.10632E-10
 -1       799 2.27236E+05 3.93305E+03 7.40577E+03-6.34110E+03-8.70784E-10-2.49020E-09
 -1       800 2.22993E+05-3.09491E+03 1.13305E+04-1.04301E+03-2.14186E-10-2.29647E-09
 -1       801-1.83274E+04 4.03674E+05 4.87973E+04-2.13366E+05 1.15069E-08-9.51695E-09
 -1       802 4.42996E+04 4.18863E+05 6.17481E+04-1.21697E+06 3.37131E-08-4.78758E-09
 -1       803-3.16796E+03 4.02969E+05 7.00608E+04-2.13391E+05 2.12422E-08 8.41646E-09
 -1       804 1.01385E+05 4.51589E+05 1.56429E+05-1.21683E+06 3.42479E-08 1.30203E-08
 -1       805-6.84061E+04 3.71678E+05 2.24361E+05-2.13534E+05 1.06083E-08 1.31186E-08
 -1       806-2.01071E+05-6.16499E+04-1.88642E+04-1.02236E+05-1.86890E-09-7.90897E-09
 -1       807-2.00528E+05-5.77420E+04-8.97072E+03-1.08768E+05-4.77485E-11-1.84377E-09
 -1       808-2.01045E+05-5.22184E+04-3.77515E+03-1.06213E+05 1.81490E-09 1.08787E-09
 -1       809-1.98644E+05-5.44687E+04-1.82512E+03-1.09525E+05-1.09503E-09-5.09112E-09
 -1       810-2.01102E+05-5.16045E+04-8.23786E+02-1.06490E+05 1.26624E-09 8.80641E-09
 -1       811-1.98464E+05-5.42633E+04-4.06507E+02-1.09554E+05-4.68958E-10 6.27097E-10
 -1       812-2.01119E+05-5.15913E+04-1.99959E+02-1.06502E+05-8.34603E-10 3.68777E-09
 -1       813-1.98442E+05-5.42608E+04-1.23278E+02-1.09546E+05-5.43764E-10 3.51247E-09
 -1       814-2.01116E+05-5.15987E+04-1.10797E+02-1.06498E+05 1.18689E-10-7.32143E-10
 -1       815-1.98442E+05-5.42674E+04-1.69655E+02-1.09540E+05-2.97632E-10 3.75985E-09
 -1       816-2.01100E+05-5.16114E+04-3.15855E+02-1.06488E+05-3.06818E-09 4.07908E-09
 -1       817-1.98507E+05-5.43394E+04-6.85740E+02-1.09508E+05 2.43222E-09 6.05451E-09
 -1       818-2.01058E+05-5.18578E+04-1.41272E+03-1.06387E+05-3.99541E-09-8.67749E-09
 -1       819-1.99282E+05-5.54799E+04-3.35157E+03-1.09116E+05-2.05091E-10 1.07116E-09
 -1       820-2.00972E+05-5.54600E+04-7.04687E+03-1.04982E+05-1.83172E-09-2.64117E-09
 -1       821-2.74719E+05 9.45788E+03-3.46866E+04 1.18845E+03-2.84876E-09 3.81442E-09
 -1       822-2.87693E+05-1.20504E+04-2.26591E+04 7.62478E+03-2.35241E-09-1.26602E-09
 -1       823-2.80079E+05 1.05562E+03-9.01120E+03 1.12473E+03 3.38150E-09-2.35468E-09
 -1       824-2.81688E+05-1.30454E+03-5.12940E+03 7.72024E+03 3.25144E-10-2.09104E-09
 -1       825-2.80737E+05 1.21009E+02-2.31025E+03 1.09235E+03-6.23061E-09 1.83832E-10
 -1       826-2.80954E+05-1.27342E+02-1.27775E+03 7.77373E+03-8.94897E-09 2.43085E-09
 -1       827-2.80824E+05 1.79357E+01-6.97330E+02 1.07109E+03-3.43971E-09 3.29473E-09
 -1       828-2.80872E+05-9.60935E+00-5.58244E+02 7.80668E+03-4.23947E-09 5.04244E-10
 -1       829-2.80826E+05 1.75514E+01-6.50976E+02 1.05936E+03 2.13811E-09-1.72250E-09
 -1       830-2.80950E+05-1.08862E+02-1.15575E+03 7.81972E+03 6.35552E-09-3.14844E-09
 -1       831-2.80749E+05 1.10958E+02-2.06843E+03 1.05805E+03-2.79533E-09-2.92880E-09
 -1       832-2.81612E+05-1.15669E+03-4.58349E+03 7.81203E+03 3.59364E-09 4.02622E-10
 -1       833-2.80163E+05 9.46901E+02-8.04446E+03 1.06720E+03 2.56478E-09-1.50067E-09
 -1       834-2.86979E+05-1.07479E+04-2.02305E+04 7.77476E+03 6.23857E-10-3.67140E-09
 -1       835-2.75378E+05 8.44972E+03-3.09639E+04 1.09657E+03 1.18916E-09-1.59525E-09
 -1       836-3.09764E+03 4.38955E+05 3.50623E+04-2.44342E+04-4.33101E-09 1.94632E-09
 -1       837 8.24791E+03 4.50137E+05 2.69447E+04-5.28308E+04-3.40839E-09 6.80302E-09
 -1       838-7.51817E+02 4.42653E+05 2.29452E+04-2.43712E+04-4.76666E-09 1.85855E-09
 -1       839 1.38187E+04 4.54139E+05 3.95231E+04-5.28314E+04-3.97995E-09-3.87422E-09
 -1       840-5.59648E+03 4.34946E+05 6.03775E+04-2.44321E+04-4.46380E-09 3.82079E-09
 -1       841 8.09285E+04 1.16474E+04-6.96490E+02 3.02243E+04-1.52099E-09-1.31558E-09
 -1       842 8.04057E+04 1.12029E+04-4.74888E+02 3.05683E+04-1.31439E-08 5.26554E-09
 -1       843 8.07577E+04 1.14448E+04-1.59295E+02 3.03259E+04-1.76485E-05 6.63712E-06
 -1       844 8.06158E+04 1.14270E+04-9.23650E+01 3.04374E+04-3.52830E-05 1.32828E-05
 -1       845 8.07183E+04 1.14233E+04-2.09563E+01 3.03552E+04-2.35726E-05 8.86623E-06
 -1       846 8.06703E+04 1.14526E+04 1.69042E+01 3.03973E+04-1.18478E-05 4.45204E-06
 -1       847 8.07031E+04 1.14192E+04 6.47420E+01 3.03660E+04-6.97421E-06 2.61958E-06
 -1       848 8.07114E+04 1.14917E+04 1.71244E+02 3.03785E+04-2.10231E-06 7.94197E-07
 -1       849 8.06772E+04 1.13842E+04 3.18874E+02 3.03739E+04-5.86314E-07 2.20460E-07
 -1       850 8.08752E+04 1.17589E+04 8.07725E+02 3.03340E+04 9.25968E-07-3.51671E-07
 -1       851 8.05392E+04 1.11521E+04 1.39526E+03 3.04105E+04 1.38021E-07-5.30799E-08
 -1       852 8.18601E+04 1.34594E+04 3.76754E+03 3.00404E+04-6.50211E-07 2.40429E-07
 -1       853 7.96921E+04 9.68389E+03 6.02518E+03 3.06674E+04-4.15479E-06 1.57419E-06
 -1       854 8.79462E+04 2.42183E+04 1.78661E+04 2.80491E+04-7.66458E-06 2.87772E-06
 -1       855 7.44534E+04 3.95131E+02 2.57161E+04 3.24011E+04-3.83646E-06 1.43643E-06
 -1       856-2.18757E+05 3.31280E+03-2.63881E+04 7.82880E+03-7.65976E-09-4.72937E-11
 -1       857-2.27383E+05-6.35780E+03-1.61153E+04 1.88835E+04-3.95744E-09-1.23055E-09
 -1       858-2.22488E+05 3.10089E+02-6.77569E+03 7.73759E+03-9.39099E-09 4.39286E-10
 -1       859-2.23347E+05-4.28458E+02-3.64491E+03 1.89892E+04-3.87604E-09-1.27329E-11
 -1       860-2.22845E+05 5.54342E+01-1.71053E+03 7.72054E+03-2.23372E-09-1.71940E-09
 -1       861-2.22976E+05 2.76357E+01-8.99080E+02 1.90122E+04-1.46892E-08-1.33377E-09
 -1       862-2.22892E+05 3.22158E+01-4.68846E+02 7.71418E+03 4.75973E-09-5.71231E-09
 -1       863-2.22937E+05 6.28543E+01-3.09317E+02 1.90192E+04 1.74006E-08 1.68654E-10
 -1       864-2.22896E+05 3.02491E+01-2.90016E+02 7.71358E+03 1.02306E-08-6.35384E-09
 -1       865-2.22945E+05 4.83297E+01-4.36396E+02 1.90138E+04 1.04535E-08-4.26013E-09
 -1       866-2.22875E+05 3.78217E+01-7.70189E+02 7.71954E+03 1.25056E-10-3.73689E-09
 -1       867-2.23098E+05-1.55239E+02-1.60590E+03 1.89936E+04 2.38629E-10-4.28442E-09
 -1       868-2.22715E+05 1.44700E+02-2.97279E+03 7.73406E+03 1.37470E-09-2.25373E-09
 -1       869-2.24848E+05-2.75713E+03-7.05641E+03 1.88931E+04-2.79056E-09 9.97659E-10
 -1       870-2.21075E+05 1.45169E+03-1.15567E+04 7.82127E+03 1.47747E-09 2.50657E-09
 -1       871-4.04275E+03-3.49907E+04-9.02557E+03 1.20789E+05 2.82034E-09 3.42789E-09
 -1       872-1.45158E+03-3.68059E+04-2.99420E+03 1.47312E+05-1.38789E-09 2.03672E-08
 -1       873-6.87605E+01-3.61035E+04 1.93865E+03 1.20545E+05 1.33150E-09 6.79211E-09
 -1       874 2.21268E+03-3.41619E+04 8.29720E+03 1.47390E+05-2.92675E-09-5.64148E-09
 -1       875 6.89581E+03-3.77545E+04 1.78452E+04 1.20726E+05 1.51886E-10-3.10274E-09
 -1       876 3.43699E+05 4.94573E+04 3.03771E+04 1.36572E+05-6.23913E-10-4.61296E-09
 -1       877 3.49341E+05 6.62581E+04 1.80544E+04 1.41971E+05-5.65512E-09-1.01647E-08
 -1       878 3.48191E+05 5.32530E+04 7.10665E+03 1.36826E+05 3.57113E-09 1.75532E-10
 -1       879 3.44038E+05 5.93567E+04 3.71204E+03 1.42703E+05 4.37467E-09-9.43294E-09
 -1       880 3.48590E+05 5.36014E+04 1.64984E+03 1.36867E+05 6.96082E-09 8.25025E-10
 -1       881 3.43564E+05 5.88085E+04 8.62893E+02 1.42703E+05-9.04720E-10-3.28328E-10
 -1       882 3.48627E+05 5.36450E+04 4.82037E+02 1.36878E+05 4.41014E-09-3.95602E-09
 -1       883 3.43525E+05 5.87633E+04 4.24318E+02 1.42687E+05-1.28930E-08-3.19457E-09
 -1       884 3.48621E+05 5.36462E+04 5.81780E+02 1.36880E+05-1.01738E-08-6.79506E-10
 -1       885 3.43591E+05 5.88170E+04 1.13049E+03 1.42693E+05 3.17790E-09 7.47832E-09
 -1       886 3.48561E+05 5.35957E+04 2.21062E+03 1.36870E+05-4.63888E-09 4.93628E-10
 -1       887 3.44240E+05 5.95462E+04 4.99923E+03 1.42675E+05-1.08102E-08-7.56017E-09
 -1       888 3.48012E+05 5.31341E+04 9.58270E+03 1.36819E+05-1.16441E-08-4.18368E-10
 -1       889 3.51380E+05 6.88634E+04 2.43491E+04 1.41689E+05 1.07304E-08 1.96451E-10
 -1       890 3.41963E+05 4.80056E+04 4.09724E+04 1.36459E+05 5.34874E-09 1.27329E-09
 -1       891 5.04099E+02-1.62982E+05-6.55564E+03 3.66922E+04 3.63252E-09-3.13003E-09
 -1       892-1.64378E+03-1.65010E+05-4.90425E+03 7.97608E+04 3.62888E-10-2.03784E-09
 -1       893 8.09865E+01-1.63725E+05-3.98929E+03 3.65878E+04 3.82624E-09-5.17196E-09
 -1       894-2.42973E+03-1.65538E+05-6.65173E+03 7.97321E+04 5.31213E-09-7.08951E-09
 -1       895 8.29990E+02-1.62403E+05-1.00778E+04 3.67202E+04 4.20550E-09-4.39832E-09
 -1       926-6.41441E+02-1.04736E+03 2.38265E+03 4.20558E+01 6.60361E-10-1.13857E-09
 -1       927 6.65703E+02 1.21225E+03 1.75232E+03-1.65632E+02-3.10293E-09-1.47972E-09
 -1       928-2.03905E+02-1.65328E+02 6.54506E+02 4.07941E+01-1.09548E-11-7.00481E-10
 -1       929 1.38957E+02 1.97437E+02 5.08885E+02-1.64388E+02 1.58998E-09-7.13822E-10
 -1       930-1.15096E+02-3.24609E+01 3.43567E+02 4.08107E+01-1.94023E-10-3.12591E-10
 -1       931 4.63741E+01 8.30913E+01 5.13432E+02-1.64451E+02-5.06567E-10-1.21325E-10
 -1       932-1.11622E+02-5.07928E+01 8.08553E+02 4.08570E+01-1.95165E-10-3.81135E-11
 -1       933 1.79916E+02 3.58397E+02 1.72542E+03-1.64475E+02-1.42950E-09 2.49798E-10
 -1       934-2.48829E+02-3.07593E+02 3.08772E+03 4.08345E+01-1.88549E-06-3.52998E-10
 -1       935 1.17980E+03 2.28552E+03 7.10071E+03-1.64210E+02-3.76815E-06-8.66294E-10
 -1       936-1.11142E+03-1.97751E+03 1.22096E+04 4.05916E+01-1.19772E-06-1.40972E-10
 -1       937 7.17619E+03 1.46154E+04 3.01368E+04-1.64047E+02 1.37721E-06 1.04046E-09
 -1       938-6.24206E+03-1.26344E+04 4.79460E+04 4.06723E+01 6.96953E-07 1.47338E-10
 -1       939 4.33202E+04 9.30186E+04 1.31198E+05-1.82658E+02 7.69694E-10 1.50976E-10
 -1       940-3.72031E+04-8.03534E+04 1.85428E+05 5.91989E+01-9.92794E-10 8.58563E-10
 -1       956-3.10921E+05-5.72592E+03-1.33511E+04 3.78612E+04-5.23869E-09-1.96860E-09
 -1       957-3.13492E+05-1.85240E+03-6.80394E+03 4.49214E+04-1.20144E-09-4.85761E-09
 -1       958-3.12097E+05-1.58483E+02-3.06547E+03 3.76297E+04 3.66526E-09-2.13959E-09
 -1       959-3.12332E+05 7.48081E+00-1.56168E+03 4.51737E+04-2.85945E-09 4.84761E-10
 -1       960-3.12232E+05 8.08326E+01-7.59625E+02 3.76062E+04-4.75302E-09 2.46791E-09
 -1       961-3.12269E+05 9.68176E+01-3.98600E+02 4.52004E+04-1.00677E-08-1.43336E-09
 -1       962-3.12272E+05 8.83815E+01-2.21477E+02 3.76025E+04-4.51246E-09-3.19096E-09
 -1       963-3.12280E+05 1.07279E+02-1.65232E+02 4.52052E+04-5.90285E-09 6.98492E-10
 -1       964-3.12286E+05 9.54954E+01-1.85905E+02 3.76012E+04-3.88582E-10-2.54295E-09
 -1       965-3.12296E+05 1.12960E+02-3.09034E+02 4.52051E+04 6.28668E-09 8.48468E-09
 -1       966-3.12276E+05 1.01991E+02-5.73873E+02 3.76025E+04-2.57205E-09-3.29919E-10
 -1       967-3.12365E+05 5.76676E+01-1.17479E+03 4.51900E+04-1.88993E-09-4.13661E-09
 -1       968-3.12191E+05-6.75652E+01-2.30161E+03 3.76167E+04-7.31234E-10-2.22087E-09
 -1       969-3.13254E+05-1.33129E+03-5.11135E+03 4.50338E+04-9.33142E-10 8.13316E-10
 -1       970-3.11318E+05-4.24571E+03-1.00278E+04 3.77634E+04 1.24419E-09 2.13731E-09
 -1       971-3.96983E+05 1.12316E+03-1.74520E+04 1.02075E+04-3.87990E-09-1.16415E-09
 -1       972-4.02345E+05-3.60891E+03-1.03870E+04 2.08193E+04-6.65159E-09-3.22234E-09
 -1       973-3.99354E+05 1.25628E+02-4.45223E+03 1.00794E+04-8.25730E-09-4.45880E-09
 -1       974-3.99831E+05-1.80267E+02-2.36741E+03 2.09714E+04-8.63110E-10-2.11276E-09
 -1       975-3.99567E+05 4.23931E+01-1.14335E+03 1.00534E+04-4.10182E-10 1.48020E-10
 -1       976-3.99635E+05 5.20245E+01-6.32836E+02 2.10092E+04-5.62795E-09-2.00492E-09
 -1       977-3.99599E+05 3.77176E+01-4.02653E+02 1.00413E+04 2.71825E-09-2.88367E-09
 -1       978-3.99629E+05 7.06083E+01-3.98112E+02 2.10253E+04 1.29657E-08-5.85942E-10
 -1       979-3.99598E+05 4.27076E+01-5.76185E+02 1.00371E+04 8.39977E-09-2.47627E-09
 -1       980-3.99676E+05 4.70332E+01-1.08118E+03 2.10252E+04 1.33833E-08-2.79726E-10
 -1       981-3.99552E+05 6.47965E+01-2.05858E+03 1.00414E+04-2.71052E-09 5.42869E-10
 -1       982-4.00075E+05-3.63221E+02-4.33360E+03 2.10060E+04-6.96207E-09-1.43407E-09
 -1       983-3.99177E+05 2.34511E+02-8.17108E+03 1.00569E+04 3.70756E-09-3.48064E-09
 -1       984-4.04747E+05-6.65000E+03-1.91001E+04 2.08972E+04 4.60568E-09 5.40012E-10
 -1       985-3.94835E+05 2.09075E+03-3.20819E+04 1.01551E+04 5.98720E-09-5.20413E-09
 -3
    1PSTEP                        31          16           1          
  100CL  116 8.10226E-01         608                     0   16           1
 -4  DISP        4    1
 -5  D1          1    2    1    0
 -5  D2          1    2    2    0
 -5  D3          1    2    3    0
 -5  ALL         1    2    0    0    1ALL
 -1         1 1.44986E-04 0.00000E+00 0.00000E+00
 -1         2 1.11914E-04 0.00000E+00 0.00000E+00
 -1         3 7.32149E-05 0.00000E+00 0.00000E+00
 -1         4 6.45263E-05 0.00000E+00 0.00000E+00
 -1         5 5.82056E-05 0.00000E+00 0.00000E+00
 -1         8 1.15313E-04-1.41290E-06 0.00000E+00
 -1         9 6.30615E-05-6.93917E-07 0.00000E+00
 -1        10 7.31433E-05-2.07079E-06 0.00000E+00
 -1        11 6.48966E-05-5.58473E-07 0.00000E+00
 -1        12 5.67884E-05 9.96944E-07 0.00000E+00
 -1        15 8.30092E-05-1.53684E-06-4.13590E-25
 -1        16 6.74184E-05-7.79525E-07 0.00000E+00
 -1        17 5.02394E-05-4.39469E-06 0.00000E+00
 -1        18 5.11086E-05-1.05444E-06 0.00000E+00
 -1        19 5.29459E-05 1.98395E-06 0.00000E+00
 -1        20 5.35429E-05 2.38955E-05 0.00000E+00
 -1        21 5.33694E-05 5.23231E-05 0.00000E+00
 -1        23 2.21260E-05-6.50226E-05 0.00000E+00
 -1        24 2.19582E-05-5.25398E-06 0.00000E+00
 -1        25 4.71615E-05-7.63137E-07 0.00000E+00
 -1        26 4.85550E-05 2.67226E-06 0.00000E+00
 -1        27 4.67742E-05 2.29107E-05 0.00000E+00
 -1        28 4.53408E-05 5.14413E-05 0.00000E+00
 -1        31 6.85566E-08-5.35265E-06 0.00000E+00
 -1        32 0.00000E+00 0.00000E+00 0.00000E+00
 -1        33 4.36545E-05 3.70358E-06 0.00000E+00
 -1        34 4.16574E-05 2.28188E-05 0.00000E+00
 -1        35 3.90978E-05 5.10505E-05 0.00000E+00
 -1        36 1.42990E-04-5.69112E-19 0.00000E+00
 -1        37 1.40922E-04-5.83025E-19 0.00000E+00
 -1        38 1.38859E-04-2.86537E-19-5.29396E-23
 -1        39 1.36783E-04-7.31162E-19 0.00000E+00
 -1        40 1.34706E-04-4.66418E-19 0.00000E+00
 -1        41 1.32626E-04-1.23104E-19 0.00000E+00
 -1        42 1.30546E-04-4.15315E-19-5.29396E-23
 -1        43 1.28466E-04-1.58572E-19-2.64698E-23
 -1        44 1.26385E-04 1.10759E-20 5.29396E-23
 -1        45 1.24305E-04-2.42125E-19 0.00000E+00
 -1        46 1.22225E-04 8.94054E-20 5.29396E-23
 -1        47 1.20147E-04 4.24937E-19-2.64698E-23
 -1        48 1.18069E-04 1.90258E-19-5.29396E-23
 -1        49 1.16002E-04 5.81029E-19 0.00000E+00
 -1        50 1.13931E-04 6.26213E-19 0.00000E+00
 -1        51 1.42788E-04-2.29482E-07 0.00000E+00
 -1        52 1.39099E-04-4.56167E-07 0.00000E+00
 -1        53 1.34205E-04-6.84874E-07 0.00000E+00
 -1        54 1.28408E-04-9.17945E-07 0.00000E+00
 -1        55 1.22009E-04-1.15730E-06 8.27181E-25
 -1        56 1.50032E-04-2.00822E-05 0.00000E+00
 -1        57 1.67614E-04-7.78945E-05-2.64698E-23
 -1        58 1.93549E-04-1.63284E-04 0.00000E+00
 -1        59 2.23756E-04-2.64071E-04 0.00000E+00
 -1        60 2.53774E-04-3.64173E-04 0.00000E+00
 -1        61 2.79118E-04-4.47565E-04 0.00000E+00
 -1        62 2.95762E-04-5.02461E-04 0.00000E+00
 -1        63 2.99519E-04-5.19163E-04-2.64698E-23
 -1        64 2.88631E-04-4.97197E-04 0.00000E+00
 -1        65 2.62334E-04-4.38637E-04 0.00000E+00
 -1        66 2.24146E-04-3.53933E-04-5.29396E-23
 -1        67 1.79064E-04-2.54925E-04 0.00000E+00
 -1        68 1.34337E-04-1.56650E-04-5.29396E-23
 -1        69 9.71809E-05-7.41002E-05-2.64698E-23
 -1        70 7.23246E-05-1.87851E-05-5.29396E-23
 -1        86 1.08716E-04-1.04779E-07 1.32349E-23
 -1        87 9.93954E-05-2.18498E-07 0.00000E+00
 -1        88 8.70580E-05-3.63640E-07 6.61744E-24
 -1        89 7.48166E-05-5.04031E-07 3.30872E-24
 -1        90 6.57832E-05-6.12740E-07 6.61744E-24
 -1        91 1.09721E-04-5.79094E-07 0.00000E+00
 -1        92 1.07303E-04-7.35437E-07 0.00000E+00
 -1        93 1.04830E-04-7.33580E-07 0.00000E+00
 -1        94 1.02401E-04-8.82572E-07 0.00000E+00
 -1        95 9.99941E-05-1.08766E-06 5.29396E-23
 -1        96 9.75697E-05-1.25324E-06 2.64698E-23
 -1        97 9.51370E-05-1.39719E-06 0.00000E+00
 -1        98 9.27037E-05-1.54037E-06 0.00000E+00
 -1        99 9.02769E-05-1.70074E-06 5.29396E-23
 -1       100 8.78631E-05-1.89455E-06 2.64698E-23
 -1       101 8.54351E-05-2.05011E-06 0.00000E+00
 -1       102 8.29698E-05-2.09839E-06 0.00000E+00
 -1       103 8.05451E-05-2.25498E-06 0.00000E+00
 -1       104 7.82512E-05-2.71893E-06-2.64698E-23
 -1       105 7.58328E-05-2.86682E-06 5.29396E-23
 -1       106 7.26789E-05 4.28528E-20 0.00000E+00
 -1       107 7.21352E-05 8.42967E-19 0.00000E+00
 -1       108 7.15920E-05 1.32061E-18 0.00000E+00
 -1       109 7.10473E-05 5.22008E-19 0.00000E+00
 -1       110 7.05026E-05-1.29079E-19 0.00000E+00
 -1       111 6.99577E-05 3.62962E-19-6.61744E-24
 -1       112 6.94126E-05 1.05727E-18-1.32349E-23
 -1       113 6.88676E-05 8.16806E-19 0.00000E+00
 -1       114 6.83225E-05-3.86229E-20 1.32349E-23
 -1       115 6.77775E-05 1.20480E-19 6.61744E-24
 -1       116 6.72326E-05 8.60325E-19 1.32349E-23
 -1       117 6.66881E-05 7.55695E-19 0.00000E+00
 -1       118 6.61436E-05 1.35267E-19-1.32349E-23
 -1       119 6.56013E-05-1.15805E-19 6.61744E-24
 -1       120 6.50583E-05-1.11698E-19-1.32349E-23
 -1       121 7.35135E-05-3.44885E-07 0.00000E+00
 -1       122 7.41170E-05-6.89502E-07 6.61744E-24
 -1       123 7.47033E-05-1.03416E-06 0.00000E+00
 -1       124 7.49500E-05-1.37886E-06-6.61744E-24
 -1       125 7.45359E-05-1.72367E-06 0.00000E+00
 -1       141 6.41343E-05-1.47272E-19-1.32349E-23
 -1       142 6.37371E-05-6.41573E-19 0.00000E+00
 -1       143 6.33403E-05-6.46940E-19 1.32349E-23
 -1       144 6.29425E-05 2.98114E-19 0.00000E+00
 -1       145 6.25446E-05 9.62519E-19 0.00000E+00
 -1       146 6.21466E-05 6.09777E-19 0.00000E+00
 -1       147 6.17485E-05-3.40564E-19 1.32349E-23
 -1       148 6.13505E-05-1.00718E-18 0.00000E+00
 -1       149 6.09525E-05-8.58361E-19-1.32349E-23
 -1       150 6.05546E-05 4.94622E-19 0.00000E+00
 -1       151 6.01569E-05 1.22385E-18 0.00000E+00
 -1       152 5.97600E-05-1.96516E-19 0.00000E+00
 -1       153 5.93633E-05-2.27298E-18 0.00000E+00
 -1       154 5.89708E-05-2.04413E-18 0.00000E+00
 -1       155 5.85769E-05-5.95534E-19 0.00000E+00
 -1       156 6.81248E-05-3.27843E-08 3.30872E-24
 -1       157 7.88794E-05-1.04137E-07 1.65436E-24
 -1       158 9.01494E-05-1.81425E-07 1.65436E-24
 -1       159 9.52947E-05-2.08602E-07 0.00000E+00
 -1       160 8.87341E-05-2.54742E-07-3.30872E-24
 -1       161 6.79597E-05-9.84609E-06-6.61744E-24
 -1       162 7.83274E-05-3.92662E-05 0.00000E+00
 -1       163 8.86742E-05-6.86302E-05 0.00000E+00
 -1       164 9.20544E-05-7.83069E-05 0.00000E+00
 -1       165 8.80654E-05-6.83461E-05 6.61744E-24
 -1       166 7.63651E-05-3.89546E-05 1.65436E-24
 -1       167 6.46507E-05-9.52800E-06 0.00000E+00
 -1       168 6.06213E-05 5.38665E-07-1.65436E-24
 -1       169 6.39616E-05-9.02869E-06 6.61744E-24
 -1       170 7.42941E-05-3.83472E-05 0.00000E+00
 -1       171 8.46589E-05-6.77570E-05 3.30872E-24
 -1       172 8.80992E-05-7.75965E-05-1.65436E-24
 -1       173 8.41805E-05-6.78151E-05 3.30872E-24
 -1       174 7.25234E-05-3.85219E-05 0.00000E+00
 -1       175 6.08222E-05-9.11928E-06 0.00000E+00
 -1       191 5.81571E-05 1.66053E-07 0.00000E+00
 -1       192 5.80314E-05 3.32264E-07 9.92617E-24
 -1       193 5.78296E-05 4.98508E-07-6.61744E-24
 -1       194 5.75538E-05 6.64741E-07-3.30872E-24
 -1       195 5.72059E-05 8.30920E-07 0.00000E+00
 -1       266 1.09929E-04-1.45375E-06-6.61744E-24
 -1       267 1.04545E-04-1.47193E-06 1.65436E-24
 -1       268 9.91610E-05-1.49159E-06 1.65436E-24
 -1       269 9.37771E-05-1.50696E-06 0.00000E+00
 -1       270 8.83932E-05-1.52224E-06 8.27181E-25
 -1       271 1.10865E-04 2.73796E-06 0.00000E+00
 -1       272 1.06556E-04 6.25932E-06 0.00000E+00
 -1       273 1.02494E-04 9.13898E-06 0.00000E+00
 -1       274 9.86722E-05 1.13433E-05 0.00000E+00
 -1       275 9.51065E-05 1.28675E-05-1.05879E-22
 -1       276 9.17914E-05 1.37211E-05-5.29396E-23
 -1       277 8.87174E-05 1.39331E-05-1.05879E-22
 -1       278 8.58667E-05 1.35504E-05 5.29396E-23
 -1       279 8.32154E-05 1.26362E-05 0.00000E+00
 -1       280 8.07343E-05 1.12689E-05 0.00000E+00
 -1       281 7.83893E-05 9.53914E-06 1.05879E-22
 -1       282 7.61440E-05 7.54843E-06 5.29396E-23
 -1       283 7.39571E-05 5.40481E-06 5.29396E-23
 -1       284 7.17962E-05 3.22460E-06 0.00000E+00
 -1       285 6.96058E-05 1.11674E-06 0.00000E+00
 -1       286 6.36559E-05-1.15523E-06 0.00000E+00
 -1       287 6.42878E-05-1.40431E-06-6.61744E-24
 -1       288 6.49173E-05-1.55843E-06 0.00000E+00
 -1       289 6.55540E-05-1.73199E-06 6.61744E-24
 -1       290 6.61908E-05-1.91423E-06-1.32349E-23
 -1       291 6.68290E-05-2.09467E-06-1.32349E-23
 -1       292 6.74675E-05-2.27425E-06-2.64698E-23
 -1       293 6.81061E-05-2.45392E-06 0.00000E+00
 -1       294 6.87447E-05-2.63409E-06 2.64698E-23
 -1       295 6.93831E-05-2.81520E-06-1.32349E-23
 -1       296 7.00213E-05-2.99173E-06 1.32349E-23
 -1       297 7.06579E-05-3.15802E-06 0.00000E+00
 -1       298 7.12943E-05-3.37335E-06 0.00000E+00
 -1       299 7.19229E-05-3.69848E-06 0.00000E+00
 -1       300 7.25541E-05-3.48570E-06 0.00000E+00
 -1       301 6.36772E-05-7.07862E-07-6.61744E-24
 -1       302 6.43472E-05-7.09988E-07 1.65436E-24
 -1       303 6.50642E-05-7.11467E-07 0.00000E+00
 -1       304 6.58203E-05-7.16105E-07 3.30872E-24
 -1       305 6.66077E-05-7.27488E-07 0.00000E+00
 -1       306 6.25689E-05-1.68655E-06 0.00000E+00
 -1       307 6.21362E-05-2.90332E-06 0.00000E+00
 -1       308 6.17594E-05-4.26748E-06-2.64698E-23
 -1       309 6.14084E-05-5.71024E-06 0.00000E+00
 -1       310 6.10596E-05-7.15980E-06 0.00000E+00
 -1       311 6.06862E-05-8.54541E-06-1.32349E-23
 -1       312 6.02625E-05-9.79659E-06 2.64698E-23
 -1       313 5.97625E-05-1.08442E-05 1.32349E-23
 -1       314 5.91611E-05-1.16207E-05-2.64698E-23
 -1       315 5.84337E-05-1.20609E-05 0.00000E+00
 -1       316 5.75570E-05-1.21024E-05-2.64698E-23
 -1       317 5.65091E-05-1.16860E-05 1.32349E-23
 -1       318 5.52686E-05-1.07568E-05 0.00000E+00
 -1       319 5.38197E-05-9.26245E-06 0.00000E+00
 -1       320 5.21399E-05-7.15853E-06 0.00000E+00
 -1       321 7.27976E-05 8.33193E-06 0.00000E+00
 -1       322 7.21630E-05 3.53399E-05 0.00000E+00
 -1       323 7.16610E-05 5.49560E-05-6.61744E-24
 -1       324 7.12790E-05 4.32923E-05 0.00000E+00
 -1       325 7.06232E-05 1.50773E-05 6.61744E-24
 -1       326 6.99232E-05-1.47369E-05 3.30872E-24
 -1       327 6.95042E-05-2.91723E-05 0.00000E+00
 -1       328 6.90353E-05-1.14592E-05 3.30872E-24
 -1       329 6.84050E-05 1.55279E-05 0.00000E+00
 -1       330 6.80386E-05 2.87843E-05 0.00000E+00
 -1       331 6.77193E-05 2.26152E-05 0.00000E+00
 -1       332 6.69578E-05-8.41156E-06 0.00000E+00
 -1       333 6.62156E-05-3.86758E-05-6.61744E-24
 -1       334 6.59047E-05-4.25665E-05-3.30872E-24
 -1       335 6.55163E-05-2.73518E-05 0.00000E+00
 -1       336 7.04900E-05-2.45656E-06-1.32349E-23
 -1       337 6.68980E-05-2.84497E-06 0.00000E+00
 -1       338 6.27204E-05-3.23529E-06 0.00000E+00
 -1       339 5.83134E-05-3.62528E-06 6.61744E-24
 -1       340 5.40343E-05-4.01495E-06-6.61744E-24
 -1       356 6.42821E-05 2.60236E-05-6.61744E-24
 -1       357 6.39023E-05 4.06077E-05 0.00000E+00
 -1       358 6.35911E-05 3.62081E-05 0.00000E+00
 -1       359 6.28549E-05 6.09510E-06 0.00000E+00
 -1       360 6.21103E-05-2.43473E-05 0.00000E+00
 -1       361 6.17951E-05-2.97318E-05 3.30872E-24
 -1       362 6.14236E-05-1.59920E-05 6.61744E-24
 -1       363 6.08024E-05 1.06805E-05 0.00000E+00
 -1       364 6.03446E-05 2.77701E-05-6.61744E-24
 -1       365 5.99204E-05 1.28953E-05-3.30872E-24
 -1       366 5.92226E-05-1.68573E-05 0.00000E+00
 -1       367 5.85913E-05-4.41996E-05 0.00000E+00
 -1       368 5.82228E-05-5.48848E-05 6.61744E-24
 -1       369 5.77210E-05-3.48920E-05 0.00000E+00
 -1       370 5.70983E-05-8.23087E-06-1.65436E-24
 -1       371 4.02254E-05-8.79055E-07-1.65436E-24
 -1       372 3.11695E-05-9.40960E-07 4.13590E-25
 -1       373 3.29251E-05-9.56191E-07-4.13590E-25
 -1       374 4.06799E-05-9.98076E-07-5.16988E-26
 -1       375 4.86642E-05-1.04126E-06 0.00000E+00
 -1       406 5.62942E-05 1.16240E-06 0.00000E+00
 -1       407 5.57366E-05 1.32786E-06 0.00000E+00
 -1       408 5.51189E-05 1.49320E-06-6.61744E-24
 -1       409 5.44451E-05 1.65816E-06 3.30872E-24
 -1       410 5.37193E-05 1.82235E-06 0.00000E+00
 -1       501 6.71554E-05 1.30002E-05 0.00000E+00
 -1       502 6.61420E-05 5.58100E-05 0.00000E+00
 -1       503 6.47999E-05 1.06493E-04 0.00000E+00
 -1       504 6.40292E-05 1.43881E-04 0.00000E+00
 -1       505 6.38018E-05 1.56609E-04 0.00000E+00
 -1       506 6.33973E-05 1.33452E-04-1.65436E-24
 -1       507 6.19311E-05 8.04076E-05 0.00000E+00
 -1       508 5.89822E-05 3.64579E-06-1.65436E-24
 -1       509 5.59474E-05-7.43377E-05 0.00000E+00
 -1       510 5.42931E-05-1.31043E-04 0.00000E+00
 -1       511 5.37697E-05-1.59036E-04 3.30872E-24
 -1       512 5.35909E-05-1.51035E-04-1.65436E-24
 -1       513 5.29282E-05-1.16842E-04 3.30872E-24
 -1       514 5.16016E-05-6.64038E-05 1.65436E-24
 -1       515 5.05147E-05-2.16260E-05 3.30872E-24
 -1       521 6.52342E-05-2.60144E-06-5.29396E-23
 -1       522 6.30114E-05-4.53594E-06 0.00000E+00
 -1       523 6.07939E-05-6.47842E-06-5.29396E-23
 -1       524 5.85401E-05-8.35594E-06 5.29396E-23
 -1       525 5.62310E-05-1.00892E-05 0.00000E+00
 -1       526 5.38392E-05-1.16069E-05-5.29396E-23
 -1       527 5.13414E-05-1.28425E-05 0.00000E+00
 -1       528 4.87158E-05-1.37384E-05 5.29396E-23
 -1       529 4.59444E-05-1.42457E-05 0.00000E+00
 -1       530 4.30132E-05-1.43268E-05-5.29396E-23
 -1       531 3.99122E-05-1.39556E-05-1.05879E-22
 -1       532 3.66379E-05-1.31183E-05-5.29396E-23
 -1       533 3.31888E-05-1.18145E-05 0.00000E+00
 -1       534 2.95795E-05-1.00529E-05 0.00000E+00
 -1       535 2.58058E-05-7.86337E-06-5.29396E-23
 -1       536 5.02789E-05-1.40474E-06 0.00000E+00
 -1       537 5.03305E-05 8.51212E-07 0.00000E+00
 -1       538 5.03831E-05 2.45163E-06 4.13590E-25
 -1       539 5.04380E-05 3.47503E-06-4.13590E-25
 -1       540 5.04935E-05 3.99944E-06 8.27181E-25
 -1       541 5.05494E-05 4.10264E-06 0.00000E+00
 -1       542 5.06054E-05 3.86209E-06 0.00000E+00
 -1       543 5.06614E-05 3.35508E-06 0.00000E+00
 -1       544 5.07173E-05 2.65871E-06 0.00000E+00
 -1       545 5.07732E-05 1.84996E-06 0.00000E+00
 -1       546 5.08290E-05 1.00574E-06 0.00000E+00
 -1       547 5.08848E-05 2.02955E-07 8.27181E-25
 -1       548 5.09408E-05-4.81502E-07 1.65436E-24
 -1       549 5.09968E-05-9.70644E-07-8.27181E-25
 -1       550 5.10528E-05-1.18732E-06 1.65436E-24
 -1       551 4.60383E-05-4.52864E-06 1.65436E-24
 -1       552 4.13376E-05-4.66221E-06 0.00000E+00
 -1       553 3.63564E-05-4.79759E-06 0.00000E+00
 -1       554 3.13179E-05-4.93643E-06 0.00000E+00
 -1       555 2.64451E-05-5.08008E-06-1.32349E-23
 -1       556 4.90492E-05-1.53537E-06 1.32349E-23
 -1       557 4.81191E-05 6.48834E-07 0.00000E+00
 -1       558 4.74200E-05 2.22258E-06-1.32349E-23
 -1       559 4.69249E-05 3.25606E-06 6.61744E-24
 -1       560 4.66069E-05 3.81942E-06-1.32349E-23
 -1       561 4.64389E-05 3.98332E-06 0.00000E+00
 -1       562 4.63944E-05 3.81849E-06 0.00000E+00
 -1       563 4.64465E-05 3.39575E-06 0.00000E+00
 -1       564 4.65688E-05 2.78599E-06 0.00000E+00
 -1       565 4.67346E-05 2.06011E-06 1.65436E-24
 -1       566 4.69173E-05 1.28906E-06 3.30872E-24
 -1       567 4.70904E-05 5.43780E-07 1.24077E-24
 -1       568 4.72274E-05-1.04790E-07 1.65436E-24
 -1       569 4.73020E-05-5.85800E-07-1.65436E-24
 -1       570 4.72878E-05-8.28446E-07 1.65436E-24
 -1       571 5.12197E-05-8.20656E-07 2.48154E-24
 -1       572 5.13335E-05-6.58105E-07 0.00000E+00
 -1       573 5.14483E-05-5.53397E-07 3.30872E-24
 -1       574 5.15634E-05-4.92479E-07 8.27181E-25
 -1       575 5.16786E-05-4.61242E-07 0.00000E+00
 -1       576 5.17939E-05-4.45488E-07 0.00000E+00
 -1       577 5.19093E-05-4.31014E-07 0.00000E+00
 -1       578 5.20247E-05-4.03604E-07 3.30872E-24
 -1       579 5.21400E-05-3.49039E-07 0.00000E+00
 -1       580 5.22554E-05-2.53103E-07-3.30872E-24
 -1       581 5.23707E-05-1.01577E-07 0.00000E+00
 -1       582 5.24860E-05 1.19742E-07 0.00000E+00
 -1       583 5.26013E-05 4.25048E-07 0.00000E+00
 -1       584 5.27165E-05 8.28388E-07 0.00000E+00
 -1       585 5.28314E-05 1.34373E-06 6.61744E-24
 -1       586 5.05425E-05-1.00467E-06 0.00000E+00
 -1       587 4.98888E-05-9.54981E-07 0.00000E+00
 -1       588 4.91854E-05-9.05459E-07-1.65436E-24
 -1       589 4.84707E-05-8.56373E-07 0.00000E+00
 -1       590 4.77835E-05-8.08152E-07 0.00000E+00
 -1       591 5.09387E-05-7.77309E-07 0.00000E+00
 -1       592 5.07816E-05-5.49753E-07 8.27181E-25
 -1       593 5.06384E-05-3.61409E-07-1.65436E-24
 -1       594 5.05058E-05-2.03128E-07 0.00000E+00
 -1       595 5.03809E-05-6.57155E-08 0.00000E+00
 -1       596 5.02603E-05 5.99404E-08 0.00000E+00
 -1       597 5.01407E-05 1.82944E-07 0.00000E+00
 -1       598 5.00186E-05 3.12387E-07-8.27181E-25
 -1       599 4.98908E-05 4.57365E-07 1.65436E-24
 -1       600 4.97536E-05 6.26965E-07 8.27181E-25
 -1       601 4.96039E-05 8.30274E-07 0.00000E+00
 -1       602 4.94382E-05 1.07639E-06 4.13590E-25
 -1       603 4.92532E-05 1.37442E-06-4.13590E-25
 -1       604 4.90458E-05 1.73350E-06-8.27181E-25
 -1       605 4.88128E-05 2.16277E-06-4.13590E-25
 -1       606 5.29878E-05 2.84099E-06 0.00000E+00
 -1       607 5.30267E-05 3.79736E-06 0.00000E+00
 -1       608 5.30646E-05 4.84716E-06 0.00000E+00
 -1       609 5.31021E-05 5.98368E-06 0.00000E+00
 -1       610 5.31394E-05 7.20018E-06 0.00000E+00
 -1       611 5.31765E-05 8.48979E-06 0.00000E+00
 -1       612 5.32135E-05 9.84565E-06 0.00000E+00
 -1       613 5.32505E-05 1.12609E-05 0.00000E+00
 -1       614 5.32873E-05 1.27286E-05 3.30872E-24
 -1       615 5.33241E-05 1.42420E-05 0.00000E+00
 -1       616 5.33608E-05 1.57941E-05 0.00000E+00
 -1       617 5.33975E-05 1.73781E-05 0.00000E+00
 -1       618 5.34341E-05 1.89871E-05 0.00000E+00
 -1       619 5.34706E-05 2.06143E-05-8.27181E-25
 -1       620 5.35070E-05 2.22527E-05 0.00000E+00
 -1       621 5.21524E-05 2.09926E-06 0.00000E+00
 -1       622 5.13710E-05 2.21495E-06-1.65436E-24
 -1       623 5.06112E-05 2.33060E-06-3.30872E-24
 -1       624 4.98825E-05 2.44595E-06-8.27181E-25
 -1       625 4.91940E-05 2.56076E-06-3.30872E-24
 -1       626 5.27111E-05 2.89425E-06-6.61744E-24
 -1       627 5.24365E-05 3.90845E-06 3.30872E-24
 -1       628 5.21265E-05 5.01658E-06 6.61744E-24
 -1       629 5.17852E-05 6.20764E-06 0.00000E+00
 -1       630 5.14168E-05 7.47058E-06 0.00000E+00
 -1       631 5.10255E-05 8.79424E-06 0.00000E+00
 -1       632 5.06156E-05 1.01674E-05-3.30872E-24
 -1       633 5.01913E-05 1.15790E-05 0.00000E+00
 -1       634 4.97567E-05 1.30178E-05 3.30872E-24
 -1       635 4.93160E-05 1.44725E-05 1.65436E-24
 -1       636 4.88736E-05 1.59322E-05 0.00000E+00
 -1       637 4.84334E-05 1.73854E-05 8.27181E-25
 -1       638 4.79997E-05 1.88211E-05 0.00000E+00
 -1       639 4.75765E-05 2.02281E-05 1.65436E-24
 -1       640 4.71674E-05 2.15951E-05-8.27181E-25
 -1       641 5.35344E-05 2.55503E-05-2.06795E-25
 -1       642 5.35243E-05 2.72882E-05 0.00000E+00
 -1       643 5.35142E-05 2.90981E-05 0.00000E+00
 -1       644 5.35037E-05 3.09691E-05-1.03398E-25
 -1       645 5.34932E-05 3.28854E-05-2.06795E-25
 -1       646 5.34825E-05 3.48312E-05 1.03398E-25
 -1       647 5.34718E-05 3.67885E-05 2.06795E-25
 -1       648 5.34611E-05 3.87392E-05 0.00000E+00
 -1       649 5.34504E-05 4.06659E-05 4.13590E-25
 -1       650 5.34397E-05 4.25509E-05 0.00000E+00
 -1       651 5.34291E-05 4.43799E-05 4.13590E-25
 -1       652 5.34185E-05 4.61387E-05-2.06795E-25
 -1       653 5.34079E-05 4.78184E-05 0.00000E+00
 -1       654 5.33964E-05 4.94104E-05 0.00000E+00
 -1       655 5.33855E-05 5.09125E-05-1.65436E-24
 -1       656 5.20978E-05 2.37362E-05-1.65436E-24
 -1       657 5.08984E-05 2.35693E-05 0.00000E+00
 -1       658 4.98557E-05 2.34029E-05 3.30872E-24
 -1       659 4.88803E-05 2.32365E-05 1.65436E-24
 -1       660 4.78829E-05 2.30698E-05-1.65436E-24
 -1       661 5.30381E-05 2.55853E-05 0.00000E+00
 -1       662 5.25173E-05 2.73300E-05-1.65436E-24
 -1       663 5.19803E-05 2.91175E-05 3.30872E-24
 -1       664 5.14316E-05 3.09374E-05 0.00000E+00
 -1       665 5.08749E-05 3.27791E-05 3.30872E-24
 -1       666 5.03141E-05 3.46319E-05 0.00000E+00
 -1       667 4.97531E-05 3.64852E-05 0.00000E+00
 -1       668 4.91958E-05 3.83286E-05 0.00000E+00
 -1       669 4.86463E-05 4.01515E-05 3.30872E-24
 -1       670 4.81085E-05 4.19433E-05 1.65436E-24
 -1       671 4.75864E-05 4.36933E-05-3.30872E-24
 -1       672 4.70838E-05 4.53910E-05 0.00000E+00
 -1       673 4.66048E-05 4.70257E-05 0.00000E+00
 -1       674 4.61526E-05 4.85864E-05-1.65436E-24
 -1       675 4.57322E-05 5.00627E-05-1.65436E-24
 -1       676 5.20044E-05 5.21751E-05 0.00000E+00
 -1       677 5.06441E-05 5.20269E-05-1.65436E-24
 -1       678 4.92930E-05 5.18789E-05 3.30872E-24
 -1       679 4.79557E-05 5.17315E-05 0.00000E+00
 -1       680 4.66368E-05 5.15841E-05 0.00000E+00
 -1       716 2.21193E-05-6.12870E-05-8.07794E-28
 -1       717 2.21127E-05-5.75515E-05 0.00000E+00
 -1       718 2.21059E-05-5.38159E-05 0.00000E+00
 -1       719 2.20992E-05-5.00804E-05 0.00000E+00
 -1       720 2.20925E-05-4.63448E-05 1.29247E-26
 -1       721 2.20858E-05-4.26093E-05 1.29247E-26
 -1       722 2.20791E-05-3.88737E-05 0.00000E+00
 -1       723 2.20723E-05-3.51382E-05 5.16988E-26
 -1       724 2.20654E-05-3.14026E-05 0.00000E+00
 -1       725 2.20583E-05-2.76671E-05 0.00000E+00
 -1       726 2.20510E-05-2.39315E-05-8.27181E-25
 -1       727 2.20424E-05-2.01960E-05-8.27181E-25
 -1       728 2.20336E-05-1.64604E-05 0.00000E+00
 -1       729 2.20184E-05-1.27249E-05-3.30872E-24
 -1       730 2.20053E-05-8.98936E-06 0.00000E+00
 -1       766 1.81549E-05-5.30133E-06 0.00000E+00
 -1       767 1.42168E-05-5.31518E-06-3.30872E-24
 -1       768 1.02912E-05-5.33114E-06 0.00000E+00
 -1       769 6.52541E-06-5.34005E-06 8.27181E-25
 -1       770 3.06829E-06-5.34762E-06 0.00000E+00
 -1       771 1.96229E-05-2.33577E-06 0.00000E+00
 -1       772 1.74993E-05-1.07471E-08-2.64698E-23
 -1       773 1.55786E-05 1.77210E-06 5.29396E-23
 -1       774 1.38415E-05 3.06489E-06 0.00000E+00
 -1       775 1.22688E-05 3.92025E-06 0.00000E+00
 -1       776 1.08404E-05 4.39160E-06 2.64698E-23
 -1       777 9.53602E-06 4.53274E-06 0.00000E+00
 -1       778 8.33526E-06 4.39803E-06 1.32349E-23
 -1       779 7.21755E-06 4.04209E-06-2.64698E-23
 -1       780 6.16221E-06 3.51996E-06 1.32349E-23
 -1       781 5.14859E-06 2.88681E-06 2.64698E-23
 -1       782 4.15605E-06 2.19809E-06 1.32349E-23
 -1       783 3.16396E-06 1.50924E-06-2.64698E-23
 -1       784 2.15240E-06 8.75926E-07 0.00000E+00
 -1       785 1.10120E-06 3.53653E-07 2.64698E-23
 -1       786 4.72436E-05-4.00427E-07 0.00000E+00
 -1       787 4.73305E-05-1.19561E-07 8.27181E-25
 -1       788 4.74173E-05 9.28586E-08 0.00000E+00
 -1       789 4.75048E-05 2.50201E-07 0.00000E+00
 -1       790 4.75925E-05 3.65774E-07 3.30872E-24
 -1       791 4.76803E-05 4.52851E-07 0.00000E+00
 -1       792 4.77681E-05 5.24671E-07 3.30872E-24
 -1       793 4.78559E-05 5.94460E-07-1.65436E-24
 -1       794 4.79438E-05 6.75445E-07 3.30872E-24
 -1       795 4.80316E-05 7.80861E-07 0.00000E+00
 -1       796 4.81195E-05 9.23966E-07 0.00000E+00
 -1       797 4.82072E-05 1.11806E-06 0.00000E+00
 -1       798 4.82949E-05 1.37649E-06 3.30872E-24
 -1       799 4.83823E-05 1.71266E-06 0.00000E+00
 -1       800 4.84697E-05 2.14007E-06-1.65436E-24
 -1       801 4.32529E-05-6.07948E-07 0.00000E+00
 -1       802 3.45510E-05-4.71750E-07 0.00000E+00
 -1       803 2.34657E-05-3.56590E-07 0.00000E+00
 -1       804 1.24061E-05-2.46591E-07 1.65436E-24
 -1       805 3.78049E-06-1.15144E-07-1.32349E-23
 -1       806 4.69319E-05-4.43650E-07 0.00000E+00
 -1       807 4.67146E-05-1.66901E-07 0.00000E+00
 -1       808 4.65092E-05 7.54737E-08 0.00000E+00
 -1       809 4.63133E-05 2.91449E-07 0.00000E+00
 -1       810 4.61242E-05 4.88972E-07 0.00000E+00
 -1       811 4.59389E-05 6.75959E-07 1.65436E-24
 -1       812 4.57547E-05 8.60317E-07 3.30872E-24
 -1       813 4.55684E-05 1.04995E-06 0.00000E+00
 -1       814 4.53772E-05 1.25275E-06 0.00000E+00
 -1       815 4.51780E-05 1.47663E-06 0.00000E+00
 -1       816 4.49680E-05 1.72947E-06 0.00000E+00
 -1       817 4.47442E-05 2.01918E-06 0.00000E+00
 -1       818 4.45037E-05 2.35364E-06-3.30872E-24
 -1       819 4.42436E-05 2.74069E-06-4.13590E-25
 -1       820 4.39611E-05 3.18816E-06 1.65436E-24
 -1       821 4.84506E-05 3.34858E-06-8.27181E-25
 -1       822 4.83397E-05 4.18161E-06-8.27181E-25
 -1       823 4.82288E-05 5.15505E-06 0.00000E+00
 -1       824 4.81168E-05 6.25234E-06-1.65436E-24
 -1       825 4.80046E-05 7.45680E-06 0.00000E+00
 -1       826 4.78921E-05 8.75159E-06-1.65436E-24
 -1       827 4.77794E-05 1.01198E-05-3.30872E-24
 -1       828 4.76666E-05 1.15443E-05-1.65436E-24
 -1       829 4.75538E-05 1.30080E-05 0.00000E+00
 -1       830 4.74409E-05 1.44939E-05 0.00000E+00
 -1       831 4.73281E-05 1.59846E-05-3.30872E-24
 -1       832 4.72155E-05 1.74630E-05 1.65436E-24
 -1       833 4.71031E-05 1.89119E-05 0.00000E+00
 -1       834 4.69916E-05 2.03142E-05 3.30872E-24
 -1       835 4.68800E-05 2.16528E-05-1.65436E-24
 -1       836 4.78515E-05 2.84182E-06-3.30872E-24
 -1       837 4.70218E-05 3.01687E-06 1.65436E-24
 -1       838 4.61265E-05 3.19167E-06 0.00000E+00
 -1       839 4.52263E-05 3.36583E-06 1.65436E-24
 -1       840 4.43821E-05 3.53995E-06 1.65436E-24
 -1       841 4.83242E-05 3.40075E-06 8.27181E-25
 -1       842 4.80005E-05 4.37613E-06 4.13590E-25
 -1       843 4.76118E-05 5.52448E-06-8.27181E-25
 -1       844 4.71856E-05 6.77212E-06 0.00000E+00
 -1       845 4.67334E-05 8.08899E-06 0.00000E+00
 -1       846 4.62664E-05 9.44508E-06 4.13590E-25
 -1       847 4.57895E-05 1.08275E-05 0.00000E+00
 -1       848 4.53075E-05 1.22235E-05 4.13590E-25
 -1       849 4.48230E-05 1.36260E-05-8.27181E-25
 -1       850 4.43387E-05 1.50279E-05-4.13590E-25
 -1       851 4.38573E-05 1.64220E-05 0.00000E+00
 -1       852 4.33814E-05 1.78012E-05-4.13590E-25
 -1       853 4.29162E-05 1.91518E-05 0.00000E+00
 -1       854 4.24660E-05 2.04599E-05 0.00000E+00
 -1       855 4.20441E-05 2.16937E-05 0.00000E+00
 -1       856 4.66904E-05 2.42274E-05 8.27181E-25
 -1       857 4.66016E-05 2.57213E-05 0.00000E+00
 -1       858 4.65125E-05 2.73680E-05 1.65436E-24
 -1       859 4.64225E-05 2.91430E-05 1.65436E-24
 -1       860 4.63322E-05 3.10215E-05 0.00000E+00
 -1       861 4.62416E-05 3.29789E-05 0.00000E+00
 -1       862 4.61509E-05 3.49904E-05 0.00000E+00
 -1       863 4.60601E-05 3.70312E-05 1.65436E-24
 -1       864 4.59693E-05 3.90766E-05-3.30872E-24
 -1       865 4.58786E-05 4.11017E-05 1.65436E-24
 -1       866 4.57879E-05 4.30817E-05 0.00000E+00
 -1       867 4.56975E-05 4.49920E-05 0.00000E+00
 -1       868 4.56072E-05 4.68077E-05 3.30872E-24
 -1       869 4.55174E-05 4.85042E-05 1.65436E-24
 -1       870 4.54279E-05 5.00568E-05 0.00000E+00
 -1       871 4.57705E-05 2.28980E-05 0.00000E+00
 -1       872 4.48975E-05 2.28837E-05 8.27181E-25
 -1       873 4.41030E-05 2.28690E-05 0.00000E+00
 -1       874 4.33336E-05 2.28538E-05 0.00000E+00
 -1       875 4.25359E-05 2.28379E-05 4.13590E-25
 -1       876 4.64429E-05 2.42582E-05 3.30872E-24
 -1       877 4.60671E-05 2.57420E-05 1.65436E-24
 -1       878 4.56472E-05 2.73429E-05 0.00000E+00
 -1       879 4.51905E-05 2.90440E-05 3.30872E-24
 -1       880 4.47027E-05 3.08279E-05 6.61744E-24
 -1       881 4.41903E-05 3.26774E-05 3.30872E-24
 -1       882 4.36596E-05 3.45757E-05 0.00000E+00
 -1       883 4.31169E-05 3.65057E-05 3.30872E-24
 -1       884 4.25686E-05 3.84506E-05-6.61744E-24
 -1       885 4.20212E-05 4.03932E-05 3.30872E-24
 -1       886 4.14808E-05 4.23169E-05-3.30872E-24
 -1       887 4.09539E-05 4.42044E-05 1.65436E-24
 -1       888 4.04467E-05 4.60390E-05 0.00000E+00
 -1       889 3.99648E-05 4.78032E-05 0.00000E+00
 -1       890 3.95157E-05 4.94804E-05 0.00000E+00
 -1       891 4.42142E-05 5.13766E-05 1.65436E-24
 -1       892 4.32464E-05 5.13110E-05 8.27181E-25
 -1       893 4.23444E-05 5.12455E-05 1.65436E-24
 -1       894 4.14146E-05 5.11801E-05 0.00000E+00
 -1       895 4.03634E-05 5.11146E-05 8.27181E-25
 -1       926 6.50011E-08-2.85738E-06-2.06795E-25
 -1       927 6.30579E-08-9.12388E-07 0.00000E+00
 -1       928 6.18953E-08 5.38343E-07 5.16988E-26
 -1       929 6.13308E-08 1.55087E-06-1.29247E-26
 -1       930 6.10694E-08 2.18140E-06 0.00000E+00
 -1       931 6.09568E-08 2.48611E-06-1.29247E-26
 -1       932 6.08760E-08 2.52133E-06 5.16988E-26
 -1       933 6.07241E-08 2.34336E-06 0.00000E+00
 -1       934 6.04785E-08 2.00858E-06 0.00000E+00
 -1       935 5.99247E-08 1.57334E-06 2.06795E-25
 -1       936 5.91934E-08 1.09406E-06 8.27181E-25
 -1       937 5.71780E-08 6.27118E-07 0.00000E+00
 -1       938 5.50087E-08 2.28726E-07 0.00000E+00
 -1       939 4.64484E-08-4.48901E-08-3.30872E-24
 -1       940 4.00813E-08-1.39308E-07 0.00000E+00
 -1       956 4.35327E-05 4.43149E-06-2.48154E-24
 -1       957 4.34086E-05 5.29019E-06 0.00000E+00
 -1       958 4.32839E-05 6.26578E-06 1.65436E-24
 -1       959 4.31589E-05 7.34348E-06-8.27181E-25
 -1       960 4.30337E-05 8.50848E-06 0.00000E+00
 -1       961 4.29083E-05 9.74589E-06 1.65436E-24
 -1       962 4.27829E-05 1.10408E-05-3.30872E-24
 -1       963 4.26574E-05 1.23782E-05 0.00000E+00
 -1       964 4.25319E-05 1.37433E-05 3.30872E-24
 -1       965 4.24064E-05 1.51210E-05 1.65436E-24
 -1       966 4.22809E-05 1.64965E-05 0.00000E+00
 -1       967 4.21554E-05 1.78548E-05 0.00000E+00
 -1       968 4.20301E-05 1.91810E-05 3.30872E-24
 -1       969 4.19050E-05 2.04602E-05 0.00000E+00
 -1       970 4.17803E-05 2.16776E-05 0.00000E+00
 -1       971 4.15012E-05 2.39923E-05 0.00000E+00
 -1       972 4.13415E-05 2.53528E-05 0.00000E+00
 -1       973 4.11816E-05 2.68776E-05 3.30872E-24
 -1       974 4.10210E-05 2.85436E-05-1.65436E-24
 -1       975 4.08601E-05 3.03276E-05-3.30872E-24
 -1       976 4.06990E-05 3.22062E-05 0.00000E+00
 -1       977 4.05378E-05 3.41561E-05-3.30872E-24
 -1       978 4.03764E-05 3.61539E-05 0.00000E+00
 -1       979 4.02150E-05 3.81762E-05 6.61744E-24
 -1       980 4.00536E-05 4.01995E-05 0.00000E+00
 -1       981 3.98923E-05 4.22004E-05 6.61744E-24
 -1       982 3.97313E-05 4.41555E-05-3.30872E-24
 -1       983 3.95705E-05 4.60414E-05 0.00000E+00
 -1       984 3.94107E-05 4.78347E-05 0.00000E+00
 -1       985 3.92512E-05 4.95120E-05 0.00000E+00
 -3
    1PSTEP                        32          16           1          
  100CL  116 8.10226E-01         608                     0   16           1
 -4  STRESS      6    1
 -5  SXX         1    4    1    1
 -5  SYY         1    4    2    2
 -5  SZZ         1    4    3    3
 -5  SXY         1    4    1    2
 -5  SYZ         1    4    2    3
 -5  SZX         1    4    3    1
 -1         1-3.15904E+06-1.25384E+06-7.28789E+05-1.15547E+06 2.05667E-09 1.12729E-08
 -1         2-3.74835E+06-9.24821E+05-5.03933E+05-6.38004E+05 7.14014E-09-1.37079E-08
 -1         3-7.84983E+05-5.62240E+05-6.69851E+04 8.70644E+04 1.09030E-08-3.21837E-09
 -1         4-6.35171E+05-3.59917E+04 2.00724E+04-2.35439E+04-1.30008E-08 6.48015E-10
 -1         5-5.96149E+05 3.05249E+04-2.06074E+05-5.92639E+03 3.26636E-08 2.09036E-09
 -1         8-2.07299E+06-9.42888E+05-2.83385E+05-1.25133E+06 6.54836E-10-3.49246E-10
 -1         9-8.20729E+05-1.85917E+05-4.84289E+04-2.72451E+05 2.61643E-09 6.31931E-08
 -1        10-8.68686E+05-6.26080E+05-8.38472E+04-3.18356E+05 2.74405E-08-8.96270E-09
 -1        11-2.62012E+05 8.95765E+04 3.80998E+04 5.69858E+04 2.77771E-09 9.09479E-09
 -1        12-1.71783E+05 1.47183E+05-9.83696E+04 2.34455E+04 3.52490E-08-4.29078E-09
 -1        15 3.50568E+03 1.89581E+03 1.08800E+04 8.32109E+00-2.69893E-10 8.14967E-09
 -1        16-3.05725E+06-8.05304E+05-2.44637E+05-1.03403E+06 9.32062E-10-4.40195E-10
 -1        17-2.58407E+05-2.99091E+05-4.47129E+03-2.81407E+05-3.92356E-09 1.15445E-09
 -1        18 5.91052E+04 1.48393E+04-1.34637E+04-7.52936E+04 5.65706E-11-2.39088E-09
 -1        19 1.36375E+05 1.65841E+05-2.08161E+02 5.86611E+03-1.01500E-10 2.91911E-09
 -1        20 6.08437E+04-1.02240E+05-2.37824E+04 4.78824E+04 4.75893E-09 1.76442E-09
 -1        21-8.91665E+03-1.62897E+05 4.56326E+04-1.35286E+03 1.14329E-08-2.10913E-08
 -1        23 7.69060E-01 3.67371E-01 1.40548E+01 1.41350E-03 5.71182E-09 3.36818E-09
 -1        24-1.64666E+06-4.60957E+05 5.93166E+04-7.59978E+05 2.05182E-09-1.15542E-09
 -1        25 2.21680E+04 9.83423E+04 3.59316E+04-3.71525E+05-3.38332E-10 5.19503E-10
 -1        26 1.74236E+03 1.13981E+05 2.00491E+02-1.76479E+04 2.24811E-10-1.45766E-09
 -1        27-2.43740E+04-7.54892E+04-3.36175E+04 8.35077E+04 3.23659E-09-3.76895E-09
 -1        28-9.45779E+03-1.26129E+05-4.48289E+03 4.86732E+04 1.46010E-08 1.20442E-09
 -1        31 4.96638E+03 5.69774E+03 8.37098E+03-3.73462E+02 4.62275E-09-2.14618E-09
 -1        32-6.18351E+05 2.04947E+05 3.91038E+05-7.98994E+05 1.00391E-10 2.37196E-09
 -1        33-1.35222E+05 1.36700E+05 4.20238E+04-4.23342E+04-1.20671E-09-7.57912E-11
 -1        34-1.63279E+05-6.10423E+03 1.51729E+04 6.30806E+04 1.47074E-09-8.39032E-09
 -1        35-2.50482E+04-3.39482E+04 1.84578E+03 7.92893E+04 5.55986E-09-4.68087E-10
 -1        36-5.84185E+06 1.93716E+05-4.44735E+05 1.52110E-06-3.40067E-09-1.07975E-08
 -1        37-6.03508E+06-2.24119E+05-3.15279E+05 1.28218E-07-1.41820E-09-6.44650E-09
 -1        38-5.91616E+06 3.04440E+04-1.14923E+05 1.51668E-06-1.39749E-08 6.15546E-09
 -1        39-5.94782E+06-3.52218E+04-7.23782E+04 1.60968E-06-7.78513E-09-9.51513E-09
 -1        40-5.92836E+06 4.77664E+03-2.94988E+04-7.34726E-07-1.43765E-08 1.41881E-10
 -1        41-5.93338E+06-5.60275E+03-1.76774E+04 7.94440E-07-2.62108E-08 9.82800E-09
 -1        42-5.93036E+06 8.25620E+02-8.70428E+03 6.97163E-07 3.70346E-09-1.44746E-09
 -1        43-5.93124E+06-1.49479E+03-7.08132E+03-1.15556E-06 3.05214E-09-7.58730E-09
 -1        44-5.93045E+06 6.69042E+02-7.33030E+03-3.38921E-07 3.13938E-09-5.63978E-09
 -1        45-5.93266E+06-4.25994E+03-1.36876E+04 4.20019E-07 3.30155E-11-5.44128E-09
 -1        46-5.92898E+06 3.59049E+03-2.23270E+04-4.76264E-07-3.14278E-09 1.80717E-09
 -1        47-5.94346E+06-2.64286E+04-5.43960E+04 2.82438E-07-1.53274E-08 1.52741E-08
 -1        48-5.91983E+06 2.28365E+04-8.62635E+04-1.12229E-06 2.42401E-09-1.06957E-09
 -1        49-6.00890E+06-1.68115E+05-2.36526E+05-1.22774E-06-1.67464E-08 5.11864E-09
 -1        50-5.86414E+06 1.45292E+05-3.33772E+05-8.79575E-07-3.22596E-08-6.14091E-09
 -1        51 1.61066E+04-5.81283E+05 3.10042E+04-1.56604E+06 5.82077E-11-2.86673E-09
 -1        52 1.46753E+04-5.87685E+05 2.55366E+04-1.73432E+06 6.62112E-10-2.33995E-08
 -1        53 1.68349E+04-6.05944E+05 2.93333E+04-1.56169E+06-2.03727E-10-2.40980E-08
 -1        54 4.19974E+04-6.05436E+05 5.61890E+04-1.73881E+06-8.29459E-10-1.05865E-08
 -1        55 8.71373E+04-6.26507E+05 1.08470E+05-1.56057E+06-6.40284E-10-6.15546E-09
 -1        56-5.62952E+06-4.97374E+05-5.79926E+05-1.73316E+06-2.57205E-09-1.22236E-09
 -1        57-3.63942E+06-1.46162E+06-1.28233E+05-2.67144E+06-4.96220E-09-4.36557E-11
 -1        58-5.51269E+06-1.80403E+05-1.10382E+05-1.16537E+06-4.45652E-09-6.83212E-09
 -1        59-3.91978E+06-1.61131E+06-2.34774E+04-3.33981E+06 2.37162E-08-1.20031E-09
 -1        60-5.53253E+06-2.08024E+05-4.11731E+04-1.17735E+06 5.77893E-08 8.12724E-09
 -1        61-3.53188E+06-1.29040E+06 1.32324E+05-2.64694E+06-4.58385E-09-6.48470E-09
 -1        62-5.70383E+06-6.48669E+05-1.74406E+05-1.73749E+06 2.13913E-09 3.83443E-09
 -1        63-3.71942E+06-4.67353E+05 2.44170E+05-1.38295E+06-3.87372E-08-1.52013E-08
 -1        64-5.18481E+06-1.14547E+06-1.69009E+05-2.30062E+06-6.06960E-08 3.08137E-09
 -1        65-5.26009E+06 3.89184E+05 1.24097E+05-7.59781E+05 5.62577E-08 9.23319E-09
 -1        66-4.35444E+06-1.36320E+06-3.59324E+04-2.49051E+06-1.42427E-08 2.53476E-08
 -1        67-6.22660E+06 6.94588E+05-2.44519E+04-7.13851E+05 1.49016E-08 1.94411E-08
 -1        68-4.37259E+06-1.34245E+06-1.17468E+05-2.49101E+06-1.83063E-08 1.34096E-08
 -1        69-5.26221E+06 2.04558E+05-1.24733E+05-7.45317E+05-6.55309E-08 4.79440E-08
 -1        70-5.15229E+06-9.92607E+05-5.91916E+05-2.30290E+06-4.86034E-08 5.67525E-09
 -1        86-7.80257E+04-2.37313E+05 1.73939E+05 3.78870E+04 1.04046E-08-7.90624E-09
 -1        87 9.45859E+04-1.26775E+05 1.35526E+05-1.63385E+05 1.76806E-08-1.94814E-09
 -1        88-1.49513E+04-1.90995E+05 5.94516E+04 3.98025E+04 1.47065E-08-5.00506E-10
 -1        89 4.49852E+04-1.48598E+05 7.05844E+04-1.63036E+05 2.18129E-08-8.54925E-09
 -1        90-2.86828E+04-2.15423E+05 6.11019E+04 3.75371E+04 4.16549E-09 2.06455E-10
 -1        91-5.36435E+06-6.20455E+05-3.39906E+05-2.07081E+06 2.71393E-09-4.59841E-09
 -1        92-5.53977E+06-9.39031E+05-2.36341E+05-2.01573E+06 2.09475E-08 1.09430E-08
 -1        93-5.43061E+06-7.46464E+05-7.94894E+04-2.05084E+06 2.27784E-05-8.52229E-06
 -1        94-5.46064E+06-7.94700E+05-4.98155E+04-2.04027E+06 4.54568E-05-1.70892E-05
 -1        95-5.44290E+06-7.64722E+05-1.86099E+04-2.04604E+06 1.22312E-05-4.59588E-06
 -1        96-5.44686E+06-7.73041E+05-1.12650E+04-2.04505E+06-2.10006E-05 7.89898E-06
 -1        97-5.44424E+06-7.68100E+05-5.41185E+03-2.04601E+06-3.36149E-06 1.26035E-06
 -1        98-5.44525E+06-7.70115E+05-5.22306E+03-2.04542E+06 1.42667E-05-5.35723E-06
 -1        99-5.44448E+06-7.67644E+05-6.27754E+03-2.04565E+06-9.73811E-06 3.65872E-06
 -1       100-5.44802E+06-7.73645E+05-1.39666E+04-2.04431E+06-3.37327E-05 1.26768E-05
 -1       101-5.44150E+06-7.64576E+05-2.34462E+04-2.04713E+06 1.82988E-05-6.89046E-06
 -1       102-5.46331E+06-8.03319E+05-6.30398E+04-2.04074E+06 7.03740E-05-2.64714E-05
 -1       103-5.42939E+06-7.37999E+05-1.00677E+05-2.04930E+06 3.52475E-05-1.31625E-05
 -1       104-5.57000E+06-9.79428E+05-2.99340E+05-2.00191E+06 1.17634E-08 5.37548E-08
 -1       105-5.33549E+06-5.88531E+05-4.30520E+05-2.08624E+06-2.64336E-08 1.53668E-08
 -1       106-1.54838E+06 2.09304E+04-4.82225E+04-1.86129E-07 6.06064E-09-2.57569E-09
 -1       107-1.56920E+06-2.42249E+04-3.41499E+04-3.77042E-07 1.07336E-10-1.54068E-09
 -1       108-1.55644E+06 3.29086E+03-1.24840E+04 2.59555E-07-4.22198E-09 1.26829E-09
 -1       109-1.55979E+06-3.80916E+03-7.87392E+03 4.57330E-07-4.89441E-09 6.96650E-09
 -1       110-1.55777E+06 5.17718E+02-3.24374E+03 9.57092E-08-1.71405E-09 1.43143E-09
 -1       111-1.55824E+06-6.15582E+02-1.99759E+03 1.03651E-06 6.86451E-09 2.34294E-09
 -1       112-1.55798E+06 9.77858E+01-1.08788E+03 9.16900E-07 2.02404E-09 1.59048E-10
 -1       113-1.55804E+06-2.25527E+02-1.07760E+03 5.25627E-07-4.22919E-09 1.97781E-09
 -1       114-1.55796E+06 1.27721E+02-1.35255E+03 2.22215E-07 7.40194E-10 1.16012E-09
 -1       115-1.55838E+06-8.72289E+02-2.76483E+03-1.78679E-07 2.04926E-10 1.99981E-09
 -1       116-1.55765E+06 7.44454E+02-4.62306E+03 2.90118E-07-2.64569E-09-7.05086E-10
 -1       117-1.56062E+06-5.48989E+03-1.13247E+04-1.63109E-07-2.74982E-09 2.45018E-09
 -1       118-1.55573E+06 4.74461E+03-1.79862E+04-2.49935E-07-8.39354E-09-3.60615E-09
 -1       119-1.57420E+06-3.49277E+04-4.92315E+04 4.71208E-07-2.75628E-09-2.00635E-09
 -1       120-1.54411E+06 3.01788E+04-6.95194E+04-2.78376E-07-8.19694E-10 4.19459E-09
 -1       121-7.42409E+02-9.84877E+05 2.99999E+03 2.97937E+04 7.67841E-10-1.16779E-09
 -1       122 1.42495E+03-9.83650E+05 2.92592E+03 1.74191E+05 1.74396E-09-3.39310E-09
 -1       123-3.44456E+02-9.84629E+05 2.85900E+03 2.97312E+04 6.68592E-10 1.74214E-09
 -1       124 3.00299E+03-9.81671E+05 6.05316E+03 1.73292E+05 2.16460E-10-4.68754E-09
 -1       125-2.82563E+03-9.85780E+05 8.48999E+03 3.06926E+04-2.01544E-09-5.23869E-10
 -1       141-1.13174E+06 1.40551E+04-3.23932E+04 5.86040E-08-5.98912E-09-6.31189E-09
 -1       142-1.14572E+06-1.62680E+04-2.29484E+04 1.50108E-06-3.87651E-09 1.07752E-09
 -1       143-1.13715E+06 2.21042E+03-8.41066E+03 3.30386E-07-1.90529E-09 3.78486E-09
 -1       144-1.13940E+06-2.56215E+03-5.34089E+03-5.43417E-07 5.14302E-10 2.97763E-09
 -1       145-1.13804E+06 3.51314E+02-2.27803E+03-3.11582E-08-6.09712E-10-3.33353E-09
 -1       146-1.13837E+06-4.41262E+02-1.55307E+03 7.57186E-07-5.32258E-09-4.78850E-09
 -1       147-1.13817E+06 8.98930E+01-1.12586E+03-2.55732E-08-2.02121E-09 6.39519E-09
 -1       148-1.13833E+06-3.33356E+02-1.59413E+03-2.52668E-07-2.25451E-09 3.94095E-09
 -1       149-1.13808E+06 2.43432E+02-2.48440E+03 6.15326E-07 6.88755E-10 5.01052E-09
 -1       150-1.13908E+06-1.75796E+03-5.49064E+03 3.10519E-07 1.33412E-10 5.04826E-09
 -1       151-1.13743E+06 1.51432E+03-9.35653E+03 3.61620E-07 9.77117E-10 2.92493E-09
 -1       152-1.14367E+06-1.11826E+04-2.30469E+04-1.06207E-06 1.15632E-09-2.19552E-09
 -1       153-1.13351E+06 9.66687E+03-3.66403E+04 1.48072E-07 7.05413E-09 1.77715E-09
 -1       154-1.17132E+06-7.11637E+04-1.00313E+05-5.41588E-08 8.48734E-10-5.63887E-10
 -1       155-1.10981E+06 6.14915E+04-1.41614E+05 2.25426E-07 1.87741E-08 4.67116E-09
 -1       156-3.03258E+04-7.17216E+04 6.16243E+04-6.51358E+03-4.76211E-09 7.98465E-10
 -1       157 3.39305E+04 2.40043E+04 5.82904E+04 2.42054E+04-2.74304E-09 9.93353E-10
 -1       158-3.38675E+03-5.31215E+04 2.12810E+04-6.34196E+03-1.42359E-08 6.72895E-09
 -1       159 3.12076E+04 1.40891E+05 6.52538E+04 2.06169E+04 1.33757E-08-4.59977E-09
 -1       160-2.82399E+04-1.87808E+05 1.75824E+03-2.93465E+03 8.70386E-09 3.61467E-09
 -1       161-5.83037E+05-8.63848E+04-1.06435E+04-1.83676E+05-2.62144E-08 9.02219E-10
 -1       162-3.29091E+04-1.36202E+04 9.34092E+04-7.40738E+04 3.78036E-08-5.05906E-10
 -1       163-5.73194E+05-6.68748E+04-2.92898E+04-1.88747E+05-1.94168E-08 1.09685E-08
 -1       164-7.55541E+04-5.57372E+03 7.48962E+04-3.03518E+04-1.81594E-08 6.98685E-09
 -1       165-5.39784E+05-9.59934E+04-3.39745E+04-2.26433E+05-5.08740E-08-3.18778E-09
 -1       166-1.11160E+05 2.43061E+04 7.10327E+04 6.13033E+03-1.04454E-07 1.62281E-08
 -1       167-5.38214E+05-9.51823E+04-3.49361E+04-2.26172E+05 1.09003E-09-5.48491E-09
 -1       168-7.78217E+04-9.96285E+03 6.99150E+04-2.94616E+04 4.00644E-08-6.57337E-10
 -1       169-5.72498E+05-6.32972E+04-3.64201E+04-1.89899E+05-9.09602E-06 3.23997E-06
 -1       170-4.78462E+04-4.17160E+04 6.77918E+04-6.78890E+04-1.80191E-05 5.97647E-06
 -1       171-5.68798E+05-6.18743E+04-3.89157E+04-1.88706E+05-9.03352E-06 3.23537E-06
 -1       172-8.10281E+04-1.40494E+04 5.95274E+04-2.94058E+04 2.91681E-08-7.33598E-09
 -1       173-5.38713E+05-9.25176E+04-5.39953E+04-2.27423E+05-3.29553E-08-1.43973E-09
 -1       174-1.25272E+05-4.73817E+01 2.17550E+04 1.00783E+04-1.47516E-07-2.86718E-09
 -1       175-5.25178E+05-7.43105E+04-1.14322E+05-2.29129E+05-3.18778E-08 2.77942E-09
 -1       191 7.77147E+02 4.76014E+05 1.23960E+03-1.13233E+04-3.69255E-10-5.51881E-09
 -1       192 2.64298E+02 4.76175E+05 6.89101E+02-1.20566E+04-3.13207E-10-2.94676E-09
 -1       193 8.57413E+01 4.76075E+05 4.65979E+02-1.11185E+04-9.81743E-10-1.88447E-09
 -1       194 2.21410E+02 4.76145E+05 5.99760E+02-1.24421E+04-7.76708E-10-4.27008E-09
 -1       195 6.34530E+02 4.76008E+05 1.01801E+03-1.09372E+04-1.68438E-09-4.59022E-09
 -1       266-6.16294E+04-2.84875E+04 1.42295E+05-1.71304E+02 1.74623E-10 2.14399E-09
 -1       267 7.13763E+04 3.32843E+04 1.00910E+05 1.96890E+02 8.00355E-11-6.13738E-10
 -1       268-9.72577E+03-4.76441E+03 3.73516E+04-2.56442E+01 5.45697E-12-2.70342E-09
 -1       269 1.14808E+04 5.71409E+03 2.44096E+04 2.98068E+01 1.95541E-11 7.69582E-10
 -1       270-1.75258E+03-9.47855E+02 1.17197E+04-4.15944E+00-1.65528E-10 3.47860E-09
 -1       271-6.43357E+06-8.03614E+05-5.08058E+05-2.49538E+06 1.09139E-10 3.37604E-09
 -1       272-6.66309E+06-1.10197E+06-3.23182E+05-2.43884E+06-9.09495E-11-4.15821E-09
 -1       273-6.52604E+06-9.22015E+05-1.19726E+05-2.47649E+06 2.59206E-10 1.50612E-09
 -1       274-6.55254E+06-9.54090E+05-6.62140E+04-2.47047E+06 3.10752E-09-2.70120E-10
 -1       275-6.54020E+06-9.31667E+05-2.78368E+04-2.47083E+06 1.69257E-09-3.37059E-09
 -1       276-6.53309E+06-9.44606E+05-1.47062E+04-2.48094E+06-3.54703E-10-8.46876E-09
 -1       277-6.54505E+06-9.29551E+05-7.48626E+03-2.46669E+06 1.39971E-09 3.02634E-09
 -1       278-6.52542E+06-9.49408E+05-5.65185E+03-2.48863E+06 2.69347E-09 2.50589E-09
 -1       279-6.54805E+06-9.26565E+05-6.59254E+03-2.46335E+06-1.66347E-09-2.21570E-09
 -1       280-6.52179E+06-9.55597E+05-1.23388E+04-2.49434E+06 2.01862E-09-5.87079E-10
 -1       281-6.54904E+06-9.23286E+05-2.29351E+04-2.46117E+06 2.04545E-09 4.92946E-09
 -1       282-6.52913E+06-9.72243E+05-5.45552E+04-2.49604E+06 3.77622E-09 6.04086E-09
 -1       283-6.54137E+06-9.11342E+05-9.84529E+04-2.46132E+06 2.73576E-09 3.08501E-09
 -1       284-6.61330E+06-1.10069E+06-2.65952E+05-2.47763E+06 2.73576E-09 4.61296E-09
 -1       285-6.46804E+06-8.11283E+05-4.18134E+05-2.47380E+06 1.09139E-10 4.94765E-10
 -1       286 1.78299E+06-1.01729E+05 2.34970E+05-1.12656E+03-2.68468E-06 1.94996E-07
 -1       287 1.88485E+06 1.17772E+05 1.66271E+05 4.26331E+02-5.41729E-06-3.02680E-09
 -1       288 1.82228E+06-1.59981E+04 6.08722E+04-2.46946E+02-2.97766E-06-5.47770E-08
 -1       289 1.83913E+06 1.85167E+04 3.83592E+04-3.77819E+02-5.41881E-07-7.11998E-09
 -1       290 1.82879E+06-2.51410E+03 1.57646E+04-3.22514E+02-3.71045E-07-7.33962E-10
 -1       291 1.83159E+06 2.96941E+03 9.58137E+03-3.09901E+02-2.02201E-07 1.37288E-09
 -1       292 1.82986E+06-4.54648E+02 4.98654E+03-3.14871E+02-2.00054E-07 8.31028E-09
 -1       293 1.83055E+06 9.40422E+02 4.52593E+03-3.13116E+02-1.91319E-07-3.45199E-09
 -1       294 1.82984E+06-4.85515E+02 5.26511E+03-3.19301E+02-7.72067E-07-5.12523E-09
 -1       295 1.83173E+06 3.23420E+03 1.03864E+04-3.48769E+02-1.36291E-06-2.72087E-09
 -1       296 1.82867E+06-2.74797E+03 1.72148E+04-2.79216E+02-3.41394E-06-6.42376E-09
 -1       297 1.84000E+06 2.02517E+04 4.19738E+04 4.62883E+01-5.45852E-06-1.10549E-09
 -1       298 1.82154E+06-1.74986E+04 6.66504E+04-7.14348E+02-2.71940E-06 1.97033E-08
 -1       299 1.89076E+06 1.29012E+05 1.82216E+05-4.46792E+03 2.35528E-09 2.55877E-08
 -1       300 1.77782E+06-1.11462E+05 2.57183E+05 4.23453E+03 1.62292E-08 1.78989E-09
 -1       301 3.09423E+04 3.21732E+03 9.71684E+04 1.89841E+04 8.73115E-11-4.18368E-10
 -1       302 1.21467E+04 2.35185E+04 7.43909E+04 2.33012E+04-3.77895E-10 2.97405E-09
 -1       303 3.46040E+03 9.05334E+03 8.18859E+04 1.88944E+04-1.23691E-10 5.98675E-09
 -1       304 3.56974E+04 4.17320E+04 1.49512E+05 2.34373E+04-7.27596E-10 1.12163E-08
 -1       305 9.90411E+04-1.49239E+04 2.75171E+05 1.87589E+04 2.03727E-10 8.30437E-09
 -1       306-1.93234E+06-2.46529E+05-1.21821E+05-7.42926E+05-1.94450E-09 8.73115E-11
 -1       307-1.96362E+06-3.41356E+05-7.74069E+04-7.56681E+05-2.32080E-09 6.42103E-10
 -1       308-1.95389E+06-2.75352E+05-2.87418E+04-7.39197E+05 8.83574E-10-1.85719E-09
 -1       309-1.93886E+06-3.04510E+05-1.59274E+04-7.62533E+05 4.51337E-11-3.42652E-10
 -1       310-1.95640E+06-2.78544E+05-6.70917E+03-7.38872E+05 3.80919E-09 1.70803E-09
 -1       311-1.93615E+06-3.00300E+05-3.61465E+03-7.62763E+05 2.75236E-10-4.34909E-10
 -1       312-1.95648E+06-2.79137E+05-1.92720E+03-7.39099E+05 2.80124E-10-1.51192E-09
 -1       313-1.93641E+06-2.99271E+05-1.65084E+03-7.61966E+05-1.00840E-09 2.54659E-09
 -1       314-1.95601E+06-2.79613E+05-2.18418E+03-7.39600E+05-1.03955E-09-3.42425E-10
 -1       315-1.93777E+06-2.98676E+05-4.26667E+03-7.60572E+05 3.04135E-09 2.94949E-09
 -1       316-1.95496E+06-2.79880E+05-8.09253E+03-7.40356E+05-2.17460E-09 2.40289E-09
 -1       317-1.94260E+06-3.02036E+05-1.91525E+04-7.58146E+05-2.57569E-09-4.18413E-09
 -1       318-1.95106E+06-2.76923E+05-3.46865E+04-7.41682E+05-9.42691E-10 1.62800E-09
 -1       319-1.97394E+06-3.44791E+05-9.32217E+04-7.49138E+05-1.73327E-09 6.39557E-09
 -1       320-1.92431E+06-2.43026E+05-1.46833E+05-7.47056E+05-1.58616E-09-1.78261E-09
 -1       321-9.21626E+05-1.37996E+04 2.98191E+02-4.12533E+04-1.33765E-08 7.40511E-09
 -1       322-1.72262E+05 4.67276E+04 1.43711E+05 6.03195E+04-6.38129E-08 2.07203E-08
 -1       323-1.26357E+06-3.25169E+04-8.98117E+04-1.23866E+04-1.61531E-08 9.06812E-09
 -1       324-3.21561E+05 2.39738E+03 9.39479E+04-3.25353E+04-1.96417E-08-1.62147E-08
 -1       325-7.72212E+05 2.92109E+04 7.92785E+03 5.15697E+04 1.09145E-08-1.43126E-08
 -1       326-2.95937E+05 1.61537E+03 9.59490E+04-3.77330E+04 1.77844E-08-8.54038E-09
 -1       327-1.28920E+06-3.15068E+04-1.01587E+05-7.19141E+03-6.78870E-09 4.20403E-09
 -1       328-2.02284E+05 1.28598E+04 1.15731E+05 5.68725E+04 2.46526E-09 2.29415E-08
 -1       329-8.65950E+05 1.88656E+04-1.38277E+04-4.30067E+04-8.68357E-09 1.49373E-08
 -1       330-4.10481E+05-1.29456E+04 6.84491E+04 1.27569E+04 3.47859E-08-2.47576E-09
 -1       331-1.08093E+06-7.47838E+03-6.08929E+04 3.68962E+04 7.75810E-09-9.49194E-09
 -1       332-1.56616E+05 2.08526E+04 1.21423E+05-6.44824E+04-5.88236E-08-2.67653E-08
 -1       333-1.11996E+06-1.26572E+04-7.67311E+04 3.42089E+04-4.20503E-08-1.37502E-08
 -1       334-3.97646E+05-6.54054E+03 5.32547E+04 1.65394E+04-4.19428E-09 9.26912E-09
 -1       335-8.39761E+05 1.77194E+04-4.91107E+04-4.41019E+04-3.13308E-08 1.33623E-08
 -1       336 3.24942E+02-1.09329E+06-4.03283E+03-2.98415E+04-5.57156E-09-1.24783E-09
 -1       337-9.81293E+02-1.09565E+06-7.79636E+03-1.88206E+05-9.91258E-09-1.99361E-09
 -1       338 1.83860E+03-1.09263E+06-1.32230E+04-2.88921E+04-7.59974E-09 1.52113E-09
 -1       339-1.60219E+04-1.10492E+06-3.30324E+04-1.88896E+05-1.07505E-08-6.57565E-10
 -1       340 1.39446E+04-1.08484E+06-5.05895E+04-2.91531E+04-7.06495E-09 6.76664E-10
 -1       356-8.44451E+05 1.68051E+04-5.01871E+04-4.32609E+04-4.02775E-09 1.58543E-08
 -1       357-4.09023E+05-7.11118E+03 5.08385E+04 1.53202E+04-5.74241E-09 3.21188E-09
 -1       358-1.10256E+06-1.11599E+04-7.32725E+04 3.44070E+04-1.52004E-08-6.05132E-09
 -1       359-1.67820E+05 2.04890E+04 1.19020E+05-6.35243E+04-2.46035E-08-2.37624E-08
 -1       360-1.08578E+06-8.62758E+03-6.22036E+04 3.55604E+04-7.91329E-09-9.72022E-09
 -1       361-4.15150E+05-1.24559E+04 6.72836E+04 1.37707E+04 1.59871E-08 5.80314E-09
 -1       362-8.55094E+05 1.95821E+04-1.22903E+04-4.28649E+04 4.74025E-08 1.43708E-08
 -1       363-2.18008E+05 1.17599E+04 1.11191E+05 5.51944E+04 3.20598E-08 1.90082E-08
 -1       364-1.28299E+06-3.11761E+04-1.02745E+05-5.83727E+03-3.15842E-08 3.32278E-09
 -1       365-3.00078E+05 6.96997E+02 9.01848E+04-3.84890E+04-8.88644E-08-2.89265E-08
 -1       366-7.72956E+05 2.98726E+04-1.54546E+03 5.07909E+04 4.76491E-08-1.72786E-08
 -1       367-3.42920E+05-9.36188E+03 6.83249E+04-3.01372E+04 8.37281E-08-1.11725E-08
 -1       368-1.24014E+06-2.14608E+04-1.21350E+05-1.41860E+04-3.01027E-08-5.82077E-10
 -1       369-2.07922E+05-2.17491E+04 4.62158E+04 5.97540E+04-5.97451E-08 2.07046E-08
 -1       370-9.08073E+05 4.36496E+04-1.39310E+05-3.90693E+04-5.06589E-09 1.55851E-08
 -1       371-2.47128E+04-1.60272E+05 3.40122E+03-2.26887E+03 3.10665E-08-2.30170E-09
 -1       372 2.30857E+04 1.10411E+05 4.71139E+04 1.75977E+04-6.44877E-09 9.14312E-10
 -1       373 1.21911E+03-5.01127E+04 6.71902E+02-5.37975E+03-2.37969E-09 1.37314E-09
 -1       374-6.76482E+03-5.15934E+03-7.27371E+02 2.07216E+04-1.38812E-09-1.65481E-09
 -1       375 5.67032E+03-4.53934E+04-1.69526E+04-5.38238E+03-1.00199E-08-4.48426E-09
 -1       406 5.88384E+02 4.74394E+05 1.51592E+03-2.31084E+04-2.12822E-09 9.28776E-09
 -1       407 5.18003E+02 4.74681E+05 2.28234E+03-2.51183E+04-1.34310E-09 4.73437E-09
 -1       408 1.05460E+03 4.74280E+05 4.12003E+03-2.29375E+04-2.72530E-09-9.05857E-10
 -1       409 4.28761E+03 4.75896E+05 9.06613E+03-2.54084E+04-2.02499E-09-4.45243E-09
 -1       410 1.23135E+04 4.73118E+05 1.83998E+04-2.28041E+04-3.38332E-09 2.66482E-10
 -1       501-7.22842E+05-1.31865E+05 1.25321E+05-3.65290E+04 4.18900E-08 2.72994E-08
 -1       502 2.68373E+05 1.24938E+05 2.47293E+05 8.44357E+04 3.19420E-08 5.31199E-08
 -1       503-3.43814E+05 8.88863E+03 4.36168E+04-3.67703E+04 1.62372E-08 3.96358E-08
 -1       504 4.40018E+05 2.56986E+04 1.71321E+05 4.68032E+04-1.25156E-08 3.47673E-08
 -1       505-8.92098E+05-3.58200E+04-1.11797E+05 1.14899E+03 3.88127E-09-8.22274E-09
 -1       506 6.23336E+05 2.80933E+04 1.85629E+05-4.24282E+04 6.29484E-08-3.96258E-08
 -1       507-5.25563E+05 4.85984E+03-4.65516E+04 5.21894E+04 6.82849E-08-5.31421E-08
 -1       508 1.97534E+05-1.36578E+04 8.80078E+04-9.22889E+04 3.53488E-08-7.78070E-08
 -1       509-4.70500E+05 1.10292E+04-3.74800E+04 5.12790E+04 7.81148E-08-5.32659E-08
 -1       510 5.70694E+05 2.09632E+04 1.67797E+05-4.70826E+04 6.30594E-08-5.25461E-08
 -1       511-8.94914E+05-3.44705E+04-1.24745E+05 6.71838E+03-1.28296E-08-3.97904E-09
 -1       512 4.80349E+05 1.56164E+04 1.51351E+05 4.19824E+04-3.60492E-08 1.87604E-08
 -1       513-3.80939E+05 1.71517E+04-1.36360E+04-3.75235E+04-2.44771E-08 3.59410E-08
 -1       514 2.25803E+05 3.03637E+04 1.15115E+05 8.48388E+04-5.64054E-09 5.30986E-08
 -1       515-6.43329E+05-4.54524E+04-5.27714E+04-3.61827E+04-3.05535E-08 2.87073E-08
 -1       521-6.40014E+06-8.01498E+05-4.11109E+05-2.44500E+06-2.80852E-09 1.19326E-09
 -1       522-6.55256E+06-1.07643E+06-2.61481E+05-2.43769E+06-3.76258E-09-7.81074E-09
 -1       523-6.47188E+06-9.00235E+05-9.67952E+04-2.43313E+06-5.20231E-10-2.36105E-09
 -1       524-6.47012E+06-9.49840E+05-5.36245E+04-2.45543E+06-1.98725E-09-1.09503E-08
 -1       525-6.47946E+06-9.11920E+05-2.25053E+04-2.43293E+06-1.40972E-10-3.33148E-09
 -1       526-6.46252E+06-9.33916E+05-1.20476E+04-2.45435E+06 1.80057E-09 5.30508E-09
 -1       527-6.47893E+06-9.14703E+05-6.27699E+03-2.43461E+06-4.86580E-10 2.44131E-09
 -1       528-6.46501E+06-9.28955E+05-5.15409E+03-2.45016E+06-4.43833E-10-1.20178E-09
 -1       529-6.47678E+06-9.16858E+05-6.49065E+03-2.43704E+06-5.44787E-10 5.90262E-10
 -1       530-6.47067E+06-9.25760E+05-1.25898E+04-2.44474E+06-2.79761E-09 3.88218E-09
 -1       531-6.47322E+06-9.18084E+05-2.36543E+04-2.43994E+06-3.37468E-09 1.86446E-09
 -1       532-6.48605E+06-9.35011E+05-5.63089E+04-2.43723E+06-2.52112E-09 6.03541E-09
 -1       533-6.46184E+06-9.09227E+05-1.01723E+05-2.44402E+06-3.85444E-09 2.57933E-09
 -1       534-6.57857E+06-1.06209E+06-2.74672E+05-2.41190E+06-1.93086E-09-7.42148E-10
 -1       535-6.38403E+06-8.07914E+05-4.31868E+05-2.45926E+06-8.87667E-10 2.53203E-09
 -1       536 1.49577E+05-1.76193E+04 6.35041E+04-7.13096E+03 7.49424E-10-1.01500E-09
 -1       537 1.74194E+05 2.18721E+04 4.16075E+04-4.23013E+04-4.56566E-09 6.33008E-10
 -1       538 1.59378E+05-2.08688E+03 1.64444E+04-7.13925E+03 3.49246E-10-2.42926E-09
 -1       539 1.62766E+05 2.28633E+03 9.41047E+03-4.22053E+04 1.12232E-09 7.28642E-09
 -1       540 1.60555E+05-2.92118E+02 4.14611E+03-7.22034E+03 5.98448E-10-3.04908E-10
 -1       541 1.61123E+05 2.32840E+02 2.24464E+03-4.20585E+04-6.64841E-10-2.01089E-09
 -1       542 1.60697E+05-4.67222E+01 1.04156E+03-7.28668E+03-1.25056E-10 4.42355E-10
 -1       543 1.60763E+05 6.46435E+01 5.63098E+02-4.19558E+04-2.19438E-09-2.85172E-09
 -1       544 1.60711E+05 3.18853E+00 2.90235E+02-7.32319E+03 6.73253E-10-6.31854E-09
 -1       545 1.60666E+05 7.37309E+01 1.98628E+02-4.19124E+04-1.27127E-09-1.95200E-10
 -1       546 1.60709E+05 5.68984E+00 1.84167E+02-7.33004E+03 5.98902E-10 2.34223E-09
 -1       547 1.60726E+05 1.22497E+02 2.99966E+02-4.19230E+04-9.80435E-10 5.59493E-09
 -1       548 1.60683E+05-6.01434E+01 4.72320E+02-7.31268E+03-1.10549E-09 1.14619E-09
 -1       549 1.61164E+05 6.35867E+02 1.18355E+03-4.19256E+04-7.33962E-10 2.05148E-09
 -1       550 1.60420E+05-5.39046E+02 1.75681E+03-7.32748E+03-2.28283E-10 2.75145E-09
 -1       551 1.07756E+04-3.49492E+05 2.83974E+04-5.39357E+05-7.15954E-09-1.45519E-11
 -1       552 9.43885E+03-3.45688E+05 3.37158E+04-6.65985E+05-7.30506E-09 1.09794E-08
 -1       553 7.33619E+03-3.51245E+05 5.28515E+04-5.38250E+05-8.31642E-09 7.25413E-09
 -1       554 3.39034E+04-3.27532E+05 1.10847E+05-6.66126E+05-8.79663E-09 2.20462E-09
 -1       555 8.11629E+04-3.68959E+05 2.11143E+05-5.38882E+05-6.61385E-09-4.90763E-09
 -1       556-1.33948E+05-1.25473E+05 2.56319E+04-2.02352E+05-9.37143E-09-4.96220E-09
 -1       557-1.04119E+05-1.53774E+05 1.30381E+04-2.27286E+05-9.45874E-10 6.54882E-09
 -1       558-1.34425E+05-1.31135E+05 5.38675E+03-1.98381E+05-9.60426E-10-1.02118E-08
 -1       559-1.07386E+05-1.57498E+05 2.69128E+03-2.28900E+05 2.06637E-09-3.64435E-09
 -1       560-1.35138E+05-1.30764E+05 1.15670E+03-1.98710E+05-4.08181E-09-3.70665E-09
 -1       561-1.08390E+05-1.57313E+05 5.78265E+02-2.29595E+05-1.00408E-09-4.55429E-10
 -1       562-1.35688E+05-1.30401E+05 2.09206E+02-1.99085E+05-2.61934E-10-5.52291E-10
 -1       563-1.08965E+05-1.57068E+05 4.97385E+01-2.29987E+05 4.03816E-10 2.59388E-09
 -1       564-1.36003E+05-1.30194E+05-1.36096E+02-1.99303E+05-9.40418E-10-1.13232E-09
 -1       565-1.09245E+05-1.56955E+05-3.89711E+02-2.30167E+05-2.39834E-09 2.81943E-09
 -1       566-1.36058E+05-1.30129E+05-8.73196E+02-1.99357E+05-5.92308E-10 5.42059E-10
 -1       567-1.09366E+05-1.57031E+05-1.94280E+03-2.30122E+05-1.21872E-10-6.26824E-09
 -1       568-1.35761E+05-1.30381E+05-4.00920E+03-1.99182E+05-3.15413E-09-5.19140E-09
 -1       569-1.11543E+05-1.59114E+05-9.44326E+03-2.29276E+05-7.36691E-11 3.68891E-09
 -1       570-1.34019E+05-1.36040E+05-1.87903E+04-1.96766E+05 4.91127E-10 2.95904E-09
 -1       571 3.28813E+05 1.35009E+04 2.02718E+04-7.98477E+04-2.44654E-10-3.32921E-09
 -1       572 3.31849E+05 4.65195E+03 9.94139E+03-8.77079E+04 1.08230E-10-3.01407E-09
 -1       573 3.30016E+05 1.07502E+03 4.41887E+03-7.96402E+04-1.18234E-10-2.59479E-09
 -1       574 3.30370E+05 3.37835E+02 2.21648E+03-8.79334E+04-5.68662E-10-5.14592E-09
 -1       575 3.30140E+05 3.31441E+01 1.04653E+03-7.96138E+04 3.46517E-10-1.02591E-09
 -1       576 3.30169E+05 4.10305E-01 5.34589E+02-8.79631E+04 1.78862E-09-7.63976E-11
 -1       577 3.30162E+05-2.09875E+01 2.66079E+02-7.96103E+04 1.32218E-09 1.73713E-09
 -1       578 3.30159E+05-2.08769E+01 1.50424E+02-8.79670E+04 8.95625E-10 3.02134E-09
 -1       579 3.30198E+05-3.34481E+01 1.00855E+02-7.96099E+04 7.52516E-09 2.12458E-09
 -1       580 3.30212E+05-4.43638E+01 1.09561E+02-8.79631E+04 1.65546E-08 3.33966E-09
 -1       581 3.30262E+05-6.10846E+01 1.64062E+02-7.96141E+04-4.14911E-09-2.09275E-09
 -1       582 3.30329E+05-4.25912E+01 3.25431E+02-8.79158E+04-2.08083E-08 1.04865E-09
 -1       583 3.30339E+05 3.37997E+01 6.29622E+02-7.96572E+04-9.14952E-09 2.98860E-09
 -1       584 3.30659E+05 5.15232E+02 1.41598E+03-8.75483E+04-7.67614E-10 7.94216E-10
 -1       585 3.30276E+05 1.75417E+03 2.87379E+03-7.99840E+04 1.26602E-09 2.64117E-09
 -1       586 3.50492E+02 1.43067E+05 1.10828E+03-1.92192E+05 9.36780E-11-7.36782E-09
 -1       587 6.26272E+02 1.43233E+05 2.49439E+03-2.14297E+05-2.56659E-09 1.28557E-09
 -1       588 1.25692E+03 1.42770E+05 5.01075E+03-1.91938E+05-3.45608E-11 1.07962E-08
 -1       589 5.05903E+03 1.44882E+05 1.12838E+04-2.14350E+05-2.61934E-09 1.87238E-08
 -1       590 1.44649E+04 1.41321E+05 2.28819E+04-1.92132E+05 4.09273E-11 3.62070E-09
 -1       591-1.47298E+05-4.39411E+04-3.12693E+04-7.05040E+04-1.14551E-09-1.31331E-08
 -1       592-1.49559E+05-4.27254E+04-1.57744E+04-7.86999E+04-1.25146E-09-1.28748E-08
 -1       593-1.48943E+05-3.54376E+04-6.69422E+03-7.48169E+04 4.70436E-10 5.91854E-10
 -1       594-1.45981E+05-3.88334E+04-3.28988E+03-7.89691E+04 3.54589E-10 4.55805E-09
 -1       595-1.49119E+05-3.52204E+04-1.51819E+03-7.49792E+04 1.98042E-10 6.41296E-09
 -1       596-1.45739E+05-3.86974E+04-7.66848E+02-7.89330E+04-9.34165E-10 7.87350E-09
 -1       597-1.49148E+05-3.52471E+04-4.11602E+02-7.49793E+04 4.21079E-09 1.77874E-09
 -1       598-1.45712E+05-3.86990E+04-3.18158E+02-7.89209E+04 1.04086E-08 4.47028E-09
 -1       599-1.49144E+05-3.52501E+04-3.90540E+02-7.49771E+04 1.06161E-09-7.16818E-09
 -1       600-1.45730E+05-3.87010E+04-7.11147E+02-7.89248E+04-2.27806E-09-1.80398E-09
 -1       601-1.49110E+05-3.52303E+04-1.39851E+03-7.49728E+04 1.53068E-09 4.80668E-09
 -1       602-1.45947E+05-3.88255E+04-3.02545E+03-7.89472E+04 1.70962E-09 6.90034E-09
 -1       603-1.48938E+05-3.54386E+04-6.15400E+03-7.48232E+04-1.22782E-11 8.44921E-10
 -1       604-1.49267E+05-4.23636E+04-1.44972E+04-7.86459E+04-2.96609E-09-1.39480E-08
 -1       605-1.47381E+05-4.32898E+04-2.87371E+04-7.08960E+04-1.54341E-09 2.56296E-09
 -1       606 1.10036E+05-1.28878E+04-2.07355E+04 3.43056E+04-7.67250E-09 1.74987E-09
 -1       607 1.06704E+05-4.28635E+03-1.02228E+04 3.77625E+04-7.46695E-10 3.72029E-09
 -1       608 1.08619E+05-8.68446E+02-4.55918E+03 3.40618E+04-3.71074E-09 4.21278E-09
 -1       609 1.08189E+05-2.22124E+02-2.29064E+03 3.80270E+04-2.13986E-08 3.45926E-09
 -1       610 1.08421E+05 3.55696E+01-1.08599E+03 3.40321E+04-1.62472E-08 9.77707E-11
 -1       611 1.08329E+05 7.54402E+01-5.45865E+02 3.80585E+04-1.06920E-08 1.25419E-09
 -1       612 1.08365E+05 8.28277E+01-2.58666E+02 3.40291E+04-5.21777E-09 1.88629E-09
 -1       613 1.08323E+05 9.52313E+01-1.14654E+02 3.80620E+04-1.00672E-08 5.47743E-09
 -1       614 1.08333E+05 8.66834E+01-2.50651E+01 3.40284E+04-4.34375E-09 1.02182E-09
 -1       615 1.08307E+05 1.04321E+02 5.36875E+01 3.80620E+04 4.86534E-09 5.27280E-09
 -1       616 1.08309E+05 9.87539E+01 1.55665E+02 3.40289E+04-1.64800E-08-9.20863E-10
 -1       617 1.08318E+05 1.56138E+02 3.56010E+02 3.80604E+04-1.86501E-08 3.22780E-09
 -1       618 1.08271E+05 2.45240E+02 7.20070E+02 3.40296E+04-6.75618E-09 5.05679E-10
 -1       619 1.08552E+05 8.03612E+02 1.62284E+03 3.80533E+04-1.95507E-09 4.43106E-09
 -1       620 1.08046E+05 2.15658E+03 3.29398E+03 3.40317E+04 1.03580E-09-4.45698E-09
 -1       621 1.11326E+03 3.32338E+05 3.97475E+03-2.29590E+04-2.02135E-10-2.94926E-09
 -1       622 5.14254E+02 3.33147E+05 4.03678E+03-2.84036E+04 5.34556E-10 6.08100E-09
 -1       623 2.72412E+02 3.32462E+05 5.78746E+03-2.29708E+04 3.18323E-12 7.66704E-10
 -1       624 2.93858E+03 3.35040E+05 1.17893E+04-2.82995E+04 8.59472E-10 2.38106E-09
 -1       625 8.12084E+03 3.30474E+05 2.23236E+04-2.30588E+04 2.88310E-10 2.37833E-10
 -1       626 1.99814E+05 6.43030E+04-3.74638E+03 1.26633E+05-6.01631E-09-1.30258E-08
 -1       627 1.95476E+05 6.94787E+04-1.77988E+03 1.30337E+05 7.04313E-09 7.82813E-09
 -1       628 1.99952E+05 6.59932E+04-7.49438E+02 1.25595E+05 5.07316E-09 2.78351E-09
 -1       629 1.95587E+05 7.03619E+04-3.55851E+02 1.30397E+05 8.65202E-09 9.46415E-09
 -1       630 1.99921E+05 6.61154E+04-1.53311E+02 1.25490E+05 4.45107E-09 1.04592E-11
 -1       631 1.95557E+05 7.04398E+04-5.74423E+01 1.30391E+05-4.31100E-09 1.15608E-09
 -1       632 1.99889E+05 6.61288E+04 8.15814E+00 1.25467E+05 2.53021E-09 4.22915E-10
 -1       633 1.95539E+05 7.04508E+04 7.79638E+01 1.30381E+05-2.99724E-09 7.46240E-10
 -1       634 1.99866E+05 6.61264E+04 1.87162E+02 1.25458E+05-6.17092E-09-4.74802E-09
 -1       635 1.95552E+05 7.04569E+04 4.18954E+02 1.30381E+05-1.77340E-09-2.99997E-09
 -1       636 1.99845E+05 6.61403E+04 8.66191E+02 1.25446E+05-5.39933E-09-5.84123E-09
 -1       637 1.95754E+05 7.06677E+04 1.92878E+03 1.30353E+05 5.77444E-09 3.75439E-09
 -1       638 1.99798E+05 6.67822E+04 3.98987E+03 1.25165E+05 5.21027E-09 8.21456E-09
 -1       639 1.97804E+05 7.40871E+04 9.48317E+03 1.29538E+05-5.88898E-11 6.79620E-09
 -1       640 1.99836E+05 7.67586E+04 1.99375E+04 1.21002E+05-3.38378E-09 6.64841E-09
 -1       641-2.36073E+04 3.94296E+03-9.09009E+03-5.16327E+01 4.64226E-05-8.45412E-08
 -1       642-2.75481E+04-4.56360E+03-6.43160E+03-1.65458E-01 9.27528E-05-1.58719E-07
 -1       643-2.51269E+04 6.19641E+02-2.34401E+03-5.78461E+01 8.58302E-05-1.62151E-07
 -1       644-2.57774E+04-7.15591E+02-1.46023E+03 1.11043E+01 7.88561E-05-1.33353E-07
 -1       645-2.53781E+04 9.56781E+01-5.64587E+02-6.29044E+01 5.09167E-05-9.65997E-08
 -1       646-2.54792E+04-1.02396E+02-2.74432E+02 1.74783E+01 2.29578E-05-4.17046E-08
 -1       647-2.54251E+04 6.55843E+00-1.31613E+01-6.42206E+01-1.63546E-05 3.01366E-08
 -1       648-2.53970E+04 4.60118E+01 2.20440E+02 1.58348E+01-5.56738E-05 1.01879E-07
 -1       649-2.54602E+04-5.27129E+01 5.11971E+02-6.12609E+01-9.82806E-05 1.86463E-07
 -1       650-2.52040E+04 4.05780E+02 1.24798E+03 5.87993E+00-1.40885E-04 2.44302E-07
 -1       651-2.56180E+04-3.53167E+02 2.17096E+03-5.42656E+01-1.75735E-04 3.12955E-07
 -1       652-2.41280E+04 2.61112E+03 5.38026E+03-1.19847E+01-2.10563E-04 3.44867E-07
 -1       653-2.65360E+04-2.25765E+03 8.56195E+03-4.33962E+01-2.15768E-04 3.50722E-07
 -1       654-1.76711E+04 1.66197E+04 2.34392E+04-4.12390E+01-2.20843E-04 3.10949E-07
 -1       655-3.20731E+04-1.43588E+04 3.31075E+04-2.50114E+01-1.10509E-04 1.27686E-07
 -1       656 1.25719E+04-4.72227E+05-5.35233E+04 1.29445E+04-1.56797E-09-1.03546E-09
 -1       657-1.83745E+04-4.91988E+05-3.97044E+04 5.45979E+04-4.61341E-10-5.29417E-09
 -1       658 2.59051E+03-4.79110E+05-2.58498E+04 1.28016E+04-1.12084E-09 2.43028E-09
 -1       659-1.81042E+04-4.91897E+05-3.92706E+04 5.46936E+04-1.35105E-09 9.43530E-10
 -1       660 1.23943E+04-4.72390E+05-5.26909E+04 1.28501E+04-2.04454E-09-1.65619E-09
 -1       661 2.92268E+05 4.07341E+04 2.32170E+04 1.14884E+05 1.08098E-08 3.41333E-09
 -1       662 2.97249E+05 5.42345E+04 1.39813E+04 1.18301E+05 2.64620E-10-3.74712E-10
 -1       663 2.95831E+05 4.41972E+04 5.44943E+03 1.14906E+05-8.01322E-10 1.13141E-09
 -1       664 2.93082E+05 4.86252E+04 2.87589E+03 1.18952E+05 7.31086E-09-2.71967E-09
 -1       665 2.96172E+05 4.45144E+04 1.27282E+03 1.14921E+05 5.25861E-09-3.41794E-09
 -1       666 2.92685E+05 4.81576E+04 6.77523E+02 1.18978E+05 9.22471E-09 9.95662E-10
 -1       667 2.96210E+05 4.45455E+04 3.94580E+02 1.14924E+05 3.03669E-09-2.09795E-09
 -1       668 2.92649E+05 4.81272E+04 3.79117E+02 1.18982E+05 2.67943E-09-9.19243E-10
 -1       669 2.96209E+05 4.45387E+04 5.53169E+02 1.14920E+05-4.61239E-09-3.69823E-10
 -1       670 2.92716E+05 4.81996E+04 1.10672E+03 1.18998E+05-3.71733E-09-4.60699E-09
 -1       671 2.96149E+05 4.44762E+04 2.16548E+03 1.14909E+05 2.53851E-09 9.12905E-10
 -1       672 2.93397E+05 4.90163E+04 4.94599E+03 1.18968E+05 1.36181E-08 5.23937E-09
 -1       673 2.95565E+05 4.39233E+04 9.39002E+03 1.14878E+05 6.36595E-09 4.18504E-09
 -1       674 3.00581E+05 5.86979E+04 2.41096E+04 1.17856E+05 1.19594E-08-5.50563E-09
 -1       675 2.89422E+05 3.79480E+04 4.00383E+04 1.14838E+05 1.21463E-08-7.25777E-10
 -1       676 4.96085E+02-4.21591E+05-3.41392E+03-3.13871E+02-4.35914E-09 4.39738E-09
 -1       677-1.41606E+03-4.22936E+05-5.11655E+03-2.54697E+03-7.77237E-09-2.78027E-09
 -1       678 6.56368E+02-4.21417E+05-7.74458E+03-3.17749E+02-1.94723E-09 3.42428E-09
 -1       679-8.64571E+03-4.27320E+05-1.82646E+04-2.53307E+03-7.30506E-09 6.69075E-10
 -1       680 6.13037E+03-4.17209E+05-2.84517E+04-3.29704E+02 4.99494E-09 4.58300E-09
 -1       716-3.81692E-01-1.80989E-01 1.71647E+01-7.09830E-04-1.81008E-09-3.32821E-09
 -1       717 1.89086E+00 1.37946E+00 3.02296E+01 1.80657E-03-2.20447E-09-1.10452E-09
 -1       718-1.50352E+00-1.19330E+00 5.60973E+01-1.10268E-03-4.88401E-10-9.92006E-10
 -1       719 8.92145E+00 9.38526E+00 1.16355E+02-1.69060E-03-8.63893E-09 1.54208E-09
 -1       720-7.41239E+00-8.18731E+00 2.21921E+02 2.78876E-03-1.49518E-08-8.00853E-10
 -1       721 4.61664E+01 6.25236E+01 4.74283E+02-5.86880E-02-1.20263E-08-1.35832E-09
 -1       722-3.87482E+01-5.43295E+01 8.87699E+02 5.58876E-02-1.12959E-08-4.19863E-09
 -1       723 2.50995E+02 4.07960E+02 1.95529E+03-5.62935E-01-6.98350E-09-2.23963E-09
 -1       724-2.12228E+02-3.53582E+02 3.54072E+03 5.06933E-01-1.56748E-08-3.08773E-09
 -1       725 1.42169E+03 2.62881E+03 8.16029E+03-4.32900E+00-1.34139E-08-2.31250E-09
 -1       726-1.20920E+03-2.27478E+03 1.40401E+04 3.82137E+00-1.38960E-08-2.54659E-09
 -1       727 8.31898E+03 1.68101E+04 3.46602E+04-3.04509E+01-1.70278E-08-1.86446E-10
 -1       728-7.10532E+03-1.45314E+04 5.51471E+04 2.66315E+01-8.34308E-09 1.45519E-10
 -1       729 4.98718E+04 1.06983E+05 1.50894E+05-2.04811E+02-4.77712E-10-5.09317E-10
 -1       730-4.26929E+04-9.24127E+04 2.13303E+05 1.78305E+02 8.56608E-09-2.25555E-09
 -1       766-9.24320E+04-4.27419E+04 2.13265E+05-3.39249E+01-6.18020E-08-1.92545E-05
 -1       767 1.07135E+05 4.99139E+04 1.50873E+05-3.42003E+02-1.41496E-07-3.84736E-05
 -1       768-1.46631E+04-7.20248E+03 5.49715E+04 1.03879E+02-7.40183E-08-1.92574E-05
 -1       769 1.77960E+04 8.78982E+03 3.46792E+04-5.04897E+02 5.99266E-09-7.72759E-09
 -1       770-3.12699E+03-1.68636E+03 1.32321E+04 1.29098E+02-8.45830E-10 2.01453E-09
 -1       771-2.66328E+06-4.83104E+05-7.00580E+04-1.10609E+06-2.02999E-09-1.00408E-09
 -1       772-2.65711E+06-4.90863E+05-3.52587E+04-1.13649E+06-2.91038E-10 1.00954E-10
 -1       773-2.66812E+06-4.63215E+05-1.50636E+04-1.11536E+06 3.16504E-09 5.63887E-11
 -1       774-2.64901E+06-4.82776E+05-7.36377E+03-1.13860E+06 3.12866E-09-1.03773E-09
 -1       775-2.66921E+06-4.62222E+05-3.46177E+03-1.11588E+06 3.19415E-09 1.46065E-09
 -1       776-2.64880E+06-4.82493E+05-1.73067E+03-1.13926E+06 2.71393E-09-6.33418E-09
 -1       777-2.66982E+06-4.61921E+05-9.71546E+02-1.11605E+06 1.21508E-09-8.44602E-09
 -1       778-2.64902E+06-4.82465E+05-7.46024E+02-1.13974E+06 1.24419E-09 1.65915E-09
 -1       779-2.67018E+06-4.61678E+05-9.59423E+02-1.11616E+06-3.65617E-10 2.77396E-11
 -1       780-2.64926E+06-4.82448E+05-1.74921E+03-1.14008E+06-1.24419E-09-2.67687E-09
 -1       781-2.67030E+06-4.61491E+05-3.46853E+03-1.11622E+06-2.30102E-10 1.50976E-10
 -1       782-2.64989E+06-4.82747E+05-7.52232E+03-1.14026E+06 2.31012E-09 2.60934E-09
 -1       783-2.66991E+06-4.61988E+05-1.53290E+04-1.11587E+06-9.76115E-10-6.09361E-10
 -1       784-2.65818E+06-4.91583E+05-3.61712E+04-1.13945E+06-1.51636E-09-1.78352E-09
 -1       785-2.66593E+06-4.81648E+05-7.17410E+04-1.10608E+06 1.03455E-09 1.01863E-09
 -1       786 2.46265E+05-8.02584E+03 2.94169E+04-1.19986E+03 2.28283E-10-2.39743E-09
 -1       787 2.57286E+05 1.02194E+04 1.92174E+04-7.20640E+03 2.82171E-10-1.11049E-09
 -1       788 2.50810E+05-8.98337E+02 7.63837E+03-1.20595E+03-1.83036E-10 1.23464E-09
 -1       789 2.52177E+05 1.11428E+03 4.34532E+03-7.18841E+03-2.22826E-10-4.96999E-09
 -1       790 2.51367E+05-1.02758E+02 1.94513E+03-1.21734E+03 3.00020E-10-1.31922E-09
 -1       791 2.51543E+05 1.20126E+02 1.05590E+03-7.17270E+03-7.39533E-11-7.44478E-10
 -1       792 2.51442E+05-1.28837E+01 5.34983E+02-1.22166E+03 4.18389E-10 2.35377E-09
 -1       793 2.51461E+05 1.70464E+01 3.56502E+02-7.17172E+03 1.32587E-11-1.09488E-09
 -1       794 2.51449E+05-7.07077E+00 3.25238E+02-1.21833E+03-2.25100E-10 4.68731E-10
 -1       795 2.51487E+05 5.02161E+01 4.97408E+02-7.18634E+03 1.84056E-09 4.33826E-09
 -1       796 2.51419E+05-4.47909E+01 8.46964E+02-1.20703E+03 1.77022E-09-2.92061E-09
 -1       797 2.51757E+05 4.68185E+02 1.85093E+03-7.21474E+03 4.42014E-09-5.71796E-09
 -1       798 2.51185E+05-3.82394E+02 3.23605E+03-1.18993E+03 1.71542E-09 3.63218E-09
 -1       799 2.53924E+05 4.31776E+03 8.13263E+03-7.24116E+03-2.16460E-10 2.34490E-09
 -1       800 2.49262E+05-3.39942E+03 1.24419E+04-1.18091E+03 2.45336E-10-8.97671E-10
 -1       801-2.20267E+04 5.01724E+05 5.92373E+04-2.30960E+05 1.23509E-08-1.11977E-08
 -1       802 5.24942E+04 5.20259E+05 7.33013E+04-1.31394E+06 3.60451E-08-2.93949E-09
 -1       803-3.68034E+03 5.01309E+05 8.17798E+04-2.31251E+05 2.27301E-08 1.22529E-08
 -1       804 1.17685E+05 5.57461E+05 1.81352E+05-1.31376E+06 3.71801E-08 1.41263E-08
 -1       805-7.90986E+04 4.65193E+05 2.59677E+05-2.31169E+05 1.14815E-08 1.48211E-08
 -1       806-2.29734E+05-7.05912E+04-2.18520E+04-1.16729E+05 3.27327E-09 9.33869E-09
 -1       807-2.29148E+05-6.60227E+04-1.03915E+04-1.24248E+05-4.44516E-10 4.25348E-09
 -1       808-2.29705E+05-5.96667E+04-4.37300E+03-1.21338E+05-1.01027E-08-5.20890E-09
 -1       809-2.26967E+05-6.22297E+04-2.11406E+03-1.25125E+05-2.02958E-08-7.03994E-09
 -1       810-2.29772E+05-5.89552E+04-9.54148E+02-1.21660E+05-8.86371E-09 1.10433E-08
 -1       811-2.26760E+05-6.19915E+04-4.70709E+02-1.25158E+05 5.16138E-11 6.39739E-09
 -1       812-2.29791E+05-5.89398E+04-2.31347E+02-1.21673E+05-9.30157E-10-4.39059E-09
 -1       813-2.26735E+05-6.19887E+04-1.42244E+02-1.25150E+05-1.78625E-09-6.24823E-10
 -1       814-2.29788E+05-5.89488E+04-1.27284E+02-1.21669E+05-6.09361E-10-1.88629E-09
 -1       815-2.26733E+05-6.19966E+04-1.94214E+02-1.25141E+05-2.18961E-10-2.64981E-09
 -1       816-2.29767E+05-5.89641E+04-3.61272E+02-1.21657E+05-2.70893E-09-4.52474E-10
 -1       817-2.26805E+05-6.20798E+04-7.83996E+02-1.25104E+05 1.91540E-09 6.27915E-09
 -1       818-2.29718E+05-5.92469E+04-1.61526E+03-1.21540E+05-3.34330E-09-6.59838E-09
 -1       819-2.27688E+05-6.33853E+04-3.83183E+03-1.24654E+05-9.06766E-10 2.01771E-09
 -1       820-2.29618E+05-6.33656E+04-8.05704E+03-1.19930E+05 3.09774E-09 8.21274E-09
 -1       821-3.12943E+05 1.07801E+04-3.95381E+04 1.31811E+03-3.57295E-09-2.92130E-09
 -1       822-3.27730E+05-1.37348E+04-2.58280E+04 8.62924E+03-3.61774E-09-7.80346E-10
 -1       823-3.19053E+05 1.20289E+03-1.02717E+04 1.23941E+03 3.78805E-09-2.09957E-09
 -1       824-3.20888E+05-1.48501E+03-5.84655E+03 8.74894E+03-8.07063E-10-1.36606E-09
 -1       825-3.19803E+05 1.37926E+02-2.63347E+03 1.19756E+03-6.36692E-09 5.35010E-10
 -1       826-3.20053E+05-1.42507E+02-1.45632E+03 8.81821E+03-1.11677E-08 3.76986E-09
 -1       827-3.19902E+05 2.07105E+01-7.94883E+02 1.16993E+03-4.64604E-09-1.46088E-11
 -1       828-3.19960E+05-7.90115E+00-6.36256E+02 8.86098E+03-2.52152E-09 4.31129E-10
 -1       829-3.19905E+05 2.04221E+01-7.41992E+02 1.15475E+03 2.12759E-09-1.70851E-09
 -1       830-3.20049E+05-1.20887E+02-1.31736E+03 8.87786E+03 6.13176E-09-2.22792E-09
 -1       831-3.19817E+05 1.26918E+02-2.35771E+03 1.15305E+03-3.12463E-09-1.58775E-09
 -1       832-3.20804E+05-1.31544E+03-5.22461E+03 8.86796E+03 3.83966E-09-5.68923E-09
 -1       833-3.19149E+05 1.07973E+03-9.16977E+03 1.16485E+03 7.03722E-11-4.18822E-09
 -1       834-3.26921E+05-1.22491E+04-2.30608E+04 8.82177E+03 1.63527E-09-3.06341E-09
 -1       835-3.13694E+05 9.63230E+03-3.52956E+04 1.20086E+03 1.56660E-09-5.16775E-09
 -1       836-3.53339E+03 5.01229E+05 4.00362E+04-2.75683E+04-4.73301E-09 3.01179E-09
 -1       837 9.42837E+03 5.13990E+05 3.07684E+04-5.95446E+04-3.47086E-09 1.56342E-09
 -1       838-8.53157E+02 5.05449E+05 2.62029E+04-2.74995E+04-5.39467E-09 6.71756E-09
 -1       839 1.57909E+04 5.18560E+05 4.51346E+04-5.95448E+04-3.98904E-09 4.32419E-09
 -1       840-6.38625E+03 4.96649E+05 6.89511E+04-2.75662E+04-4.92582E-09 4.09909E-09
 -1       841 9.36860E+04 1.34320E+04-6.70276E+02 3.50165E+04-1.56891E-09-2.07154E-09
 -1       842 9.31441E+04 1.30634E+04-4.53561E+02 3.54138E+04-1.50372E-08 1.70406E-09
 -1       843 9.35127E+04 1.32556E+04-1.52368E+02 3.51347E+04-2.02603E-05 7.62369E-06
 -1       844 9.33598E+04 1.32554E+04-8.69568E+01 3.52610E+04-4.05083E-05 1.52574E-05
 -1       845 9.34701E+04 1.32402E+04-1.69986E+01 3.51691E+04-2.65585E-05 9.99059E-06
 -1       846 9.34193E+04 1.32742E+04 2.34372E+01 3.52141E+04-1.25885E-05 4.74072E-06
 -1       847 9.34532E+04 1.32368E+04 7.58470E+01 3.51816E+04-7.28368E-06 2.73942E-06
 -1       848 9.34657E+04 1.33175E+04 1.97235E+02 3.51927E+04-1.97656E-06 7.46742E-07
 -1       849 9.34237E+04 1.31968E+04 3.65992E+02 3.51906E+04-6.21061E-07 2.28939E-07
 -1       850 9.36532E+04 1.36239E+04 9.26326E+02 3.51419E+04 7.31813E-07-2.82339E-07
 -1       851 9.32657E+04 1.29305E+04 1.59990E+03 3.52323E+04-7.27426E-07 2.70594E-07
 -1       852 9.47817E+04 1.55744E+04 4.31985E+03 3.48061E+04-2.19246E-06 8.27460E-07
 -1       853 9.22951E+04 1.12465E+04 6.90845E+03 3.55262E+04-7.28186E-06 2.75153E-06
 -1       854 1.01757E+05 2.79136E+04 2.04851E+04 3.25268E+04-1.23804E-05 4.65470E-06
 -1       855 8.62905E+04 5.93488E+02 2.94859E+04 3.75108E+04-6.19905E-06 2.32305E-06
 -1       856-2.49353E+05 3.77862E+03-3.01004E+04 8.87922E+03-5.71981E-09-3.14139E-09
 -1       857-2.59193E+05-7.24566E+03-1.83817E+04 2.14810E+04-2.24281E-09-4.33192E-09
 -1       858-2.53611E+05 3.55616E+02-7.72914E+03 8.77238E+03-4.65025E-09-2.83762E-09
 -1       859-2.54596E+05-4.80139E+02-4.15738E+03 2.16059E+04 2.97428E-09-5.20879E-09
 -1       860-2.54020E+05 6.66217E+01-1.95121E+03 8.75092E+03 4.69754E-10-3.86660E-09
 -1       861-2.54175E+05 4.15700E+01-1.02537E+03 2.16352E+04-8.38736E-09-5.01018E-09
 -1       862-2.54074E+05 4.09185E+01-5.34649E+02 8.74262E+03 7.30972E-09 6.86555E-10
 -1       863-2.54132E+05 8.22945E+01-3.52552E+02 2.16441E+04 2.03648E-08 2.50242E-09
 -1       864-2.54079E+05 3.87393E+01-3.30418E+02 8.74184E+03 8.70773E-09-5.60402E-09
 -1       865-2.54141E+05 6.53754E+01-4.97011E+02 2.16373E+04 9.64064E-09-8.30710E-10
 -1       866-2.54054E+05 4.67076E+01-8.77346E+02 8.74951E+03-1.66187E-09-2.31807E-10
 -1       867-2.54311E+05-1.67777E+02-1.82893E+03 2.16116E+04-2.14322E-09 4.71876E-09
 -1       868-2.53870E+05 1.67063E+02-3.38631E+03 8.76788E+03-6.34373E-10-2.79067E-09
 -1       869-2.56300E+05-3.13320E+03-8.03665E+03 2.14927E+04-8.08404E-09-3.06073E-09
 -1       870-2.52001E+05 1.65356E+03-1.31635E+04 8.87006E+03 1.00840E-08-3.90901E-09
 -1       871-4.65740E+03-3.98831E+04-1.03167E+04 1.37963E+05 1.11868E-09-6.33645E-09
 -1       872-1.69339E+03-4.19615E+04-3.42281E+03 1.68257E+05-5.15865E-09-1.62418E-08
 -1       873-1.05125E+02-4.11729E+04 2.21155E+03 1.37685E+05 7.23958E-10-4.34738E-10
 -1       874 2.49529E+03-3.89497E+04 9.47263E+03 1.68346E+05-3.49701E-09 1.66237E-08
 -1       875 7.84237E+03-4.30513E+04 2.03722E+04 1.37892E+05 1.50794E-09 6.10908E-09
 -1       876 3.92303E+05 5.65188E+04 3.46669E+04 1.55972E+05 3.89718E-09-5.44242E-09
 -1       877 3.98732E+05 7.57051E+04 2.06043E+04 1.62144E+05 3.00633E-09-5.03792E-09
 -1       878 3.97426E+05 6.08536E+04 8.11020E+03 1.56265E+05 2.13413E-09-3.70164E-09
 -1       879 3.92681E+05 6.78258E+04 4.23649E+03 1.62973E+05-1.57900E-09 1.32923E-09
 -1       880 3.97879E+05 6.12537E+04 1.88283E+03 1.56313E+05 3.96267E-09 6.75527E-09
 -1       881 3.92142E+05 6.71978E+04 9.84885E+02 1.62969E+05-4.67480E-10 7.84274E-09
 -1       882 3.97920E+05 6.13050E+04 5.50191E+02 1.56327E+05 3.49894E-09-4.21133E-09
 -1       883 3.92098E+05 6.71449E+04 4.84402E+02 1.62949E+05-1.33319E-08-3.49132E-10
 -1       884 3.97913E+05 6.13067E+04 6.64180E+02 1.56329E+05-7.07178E-09-1.69553E-09
 -1       885 3.92174E+05 6.72063E+04 1.29059E+03 1.62956E+05 7.11813E-09-5.98180E-09
 -1       886 3.97845E+05 6.12486E+04 2.52359E+03 1.56318E+05 3.94658E-09-3.03271E-09
 -1       887 3.92913E+05 6.80400E+04 5.70696E+03 1.62937E+05-8.60086E-09-9.26320E-10
 -1       888 3.97219E+05 6.07201E+04 1.09390E+04 1.56259E+05-1.02111E-08 1.96906E-09
 -1       889 4.01063E+05 7.86775E+04 2.77951E+04 1.61816E+05 9.82754E-09 3.27418E-09
 -1       890 3.90317E+05 5.48638E+04 4.67713E+04 1.55845E+05 2.14459E-09-1.88993E-09
 -1       891 5.62220E+02-1.86021E+05-7.48786E+03 4.19013E+04 7.34281E-09-1.73713E-09
 -1       892-1.89715E+03-1.88327E+05-5.59937E+03 9.10581E+04-1.81899E-10-5.65387E-09
 -1       893 8.33030E+01-1.86874E+05-4.55437E+03 4.17814E+04 5.78120E-09 6.11874E-09
 -1       894-2.79580E+03-1.88925E+05-7.59320E+03 9.10246E+04-1.83036E-09 6.04541E-09
 -1       895 9.30497E+02-1.85357E+05-1.15076E+04 4.19338E+04 3.35785E-09 6.07542E-09
 -1       926-7.91801E+02-1.20542E+03 2.72843E+03 5.23740E+01 1.03136E-09-1.34764E-09
 -1       927 7.97009E+02 1.39483E+03 2.02282E+03-2.06258E+02-3.62761E-09-1.71451E-09
 -1       928-2.75671E+02-1.90125E+02 7.47100E+02 5.07435E+01 1.68345E-11-8.11497E-10
 -1       929 1.68441E+02 2.26720E+02 5.89339E+02-2.04709E+02 1.98184E-09-7.74396E-10
 -1       930-1.63838E+02-3.71087E+01 3.90879E+02 5.08223E+01 3.22180E-10-3.42412E-10
 -1       931 4.53661E+01 9.46426E+01 5.88700E+02-2.04885E+02-2.20401E-10-7.24256E-11
 -1       932-1.53045E+02-5.77557E+01 9.21245E+02 5.09190E+01 1.67262E-11-1.22213E-11
 -1       933 1.87155E+02 4.08215E+02 1.96761E+03-2.04963E+02-1.73264E-09 3.64565E-10
 -1       934-3.05909E+02-3.50435E+02 3.51962E+03 5.09004E+01-2.22049E-06-6.11408E-10
 -1       935 1.32304E+03 2.60487E+03 8.09383E+03-2.04620E+02-4.43726E-06-1.47111E-09
 -1       936-1.28883E+03-2.25391E+03 1.39174E+04 5.05758E+01-1.05713E-06-1.37334E-10
 -1       937 8.16081E+03 1.66593E+04 3.43524E+04-2.04683E+02 2.32903E-06 1.71394E-09
 -1       938-7.13955E+03-1.44013E+04 5.46526E+04 5.09642E+01 1.17292E-06 3.56522E-10
 -1       939 4.93693E+04 1.06029E+05 1.49551E+05-2.34088E+02 5.73509E-10 1.40062E-10
 -1       940-4.24293E+04-9.15903E+04 2.11384E+05 7.99751E+01-6.78722E-09 9.74978E-10
 -1       956-3.55007E+05-6.53372E+03-1.52389E+04 4.31412E+04-4.03816E-09 3.30601E-09
 -1       957-3.57943E+05-2.10847E+03-7.76548E+03 5.11934E+04-1.30694E-09-7.45786E-11
 -1       958-3.56356E+05-1.75430E+02-3.49921E+03 4.28765E+04 4.13274E-09-1.22554E-09
 -1       959-3.56629E+05 1.90231E+01-1.78235E+03 5.14818E+04-3.73257E-09-2.57296E-09
 -1       960-3.56517E+05 1.01970E+02-8.67211E+02 4.28491E+04-8.02356E-09-2.17506E-09
 -1       961-3.56563E+05 1.24700E+02-4.54874E+02 5.15130E+04-1.23332E-08 1.79989E-09
 -1       962-3.56567E+05 1.13445E+02-2.52820E+02 4.28446E+04-4.08363E-09-1.53523E-09
 -1       963-3.56580E+05 1.38826E+02-1.88519E+02 5.15189E+04-7.87622E-09 1.59116E-09
 -1       964-3.56585E+05 1.22924E+02-2.12212E+02 4.28430E+04-2.20302E-09 1.71076E-09
 -1       965-3.56600E+05 1.45935E+02-3.52835E+02 5.15189E+04 8.08728E-09 4.77030E-09
 -1       966-3.56574E+05 1.30192E+02-6.55442E+02 4.28445E+04-4.03838E-09-7.27596E-11
 -1       967-3.56677E+05 8.18399E+01-1.34186E+03 5.15015E+04 1.11891E-09-4.16412E-09
 -1       968-3.56474E+05-6.51140E+01-2.62927E+03 4.28609E+04-1.38243E-10-3.38241E-09
 -1       969-3.57687E+05-1.50717E+03-5.83890E+03 5.13227E+04 1.58616E-09-1.40801E-09
 -1       970-3.55472E+05-4.84046E+03-1.14558E+04 4.30294E+04 2.74758E-09-3.46699E-09
 -1       971-4.53153E+05 1.28114E+03-1.99221E+04 1.15566E+04-8.45193E-09-1.19144E-09
 -1       972-4.59275E+05-4.11389E+03-1.18562E+04 2.36481E+04-7.56472E-09-2.11753E-09
 -1       973-4.55863E+05 1.45154E+02-5.08272E+03 1.14058E+04-8.34916E-09-6.27415E-09
 -1       974-4.56411E+05-1.97406E+02-2.70217E+03 2.38292E+04 4.47994E-09-8.09951E-09
 -1       975-4.56109E+05 5.22053E+01-1.30536E+03 1.13729E+04 4.20414E-09-3.39548E-09
 -1       976-4.56191E+05 6.97980E+01-7.22237E+02 2.38775E+04-6.08816E-09 1.40744E-09
 -1       977-4.56146E+05 4.81355E+01-4.59612E+02 1.13571E+04 4.57726E-09-4.96470E-09
 -1       978-4.56186E+05 9.20630E+01-4.54315E+02 2.38986E+04 1.80082E-08-4.65025E-09
 -1       979-4.56145E+05 5.42705E+01-6.57614E+02 1.13517E+04 6.28259E-09-6.04427E-09
 -1       980-4.56240E+05 6.51726E+01-1.23406E+03 2.38986E+04 9.27292E-09-3.26156E-09
 -1       981-4.56092E+05 7.90909E+01-2.34991E+03 1.13571E+04-1.23259E-09 1.59446E-10
 -1       982-4.56693E+05-4.04189E+02-4.94688E+03 2.38741E+04-2.31876E-09-3.75334E-09
 -1       983-4.55663E+05 2.71639E+02-9.32795E+03 1.13768E+04 3.03135E-09-5.59339E-09
 -1       984-4.62023E+05-7.58317E+03-2.18040E+04 2.37454E+04-3.08728E-09-8.27640E-10
 -1       985-4.50705E+05 2.38920E+03-3.66243E+04 1.14924E+04 4.82487E-10-3.63070E-09
 -3
    1PSTEP                        33          17           1          
  100CL  117 9.60396E-01         608                     0   17           1
 -4  DISP        4    1
 -5  D1          1    2    1    0
 -5  D2          1    2    2    0
 -5  D3          1    2    3    0
 -5  ALL         1    2    0    0    1ALL
 -1         1 1.77559E-04 0.00000E+00 0.00000E+00
 -1         2 1.34477E-04 0.00000E+00 0.00000E+00
 -1         3 8.44950E-05 0.00000E+00 0.00000E+00
 -1         4 7.39009E-05 0.00000E+00 0.00000E+00
 -1         5 6.57573E-05 0.00000E+00 0.00000E+00
 -1         8 1.40967E-04-1.75732E-06 0.00000E+00
 -1         9 6.94626E-05-9.07545E-07 0.00000E+00
 -1        10 8.38845E-05-2.28109E-06 0.00000E+00
 -1        11 7.38790E-05-7.17477E-07 0.00000E+00
 -1        12 6.40598E-05 1.17833E-06 0.00000E+00
 -1        15 1.01074E-04-1.93433E-06-8.27181E-25
 -1        16 8.19633E-05-1.00639E-06 0.00000E+00
 -1        17 5.60908E-05-4.89974E-06 0.00000E+00
 -1        18 5.73138E-05-1.35239E-06 0.00000E+00
 -1        19 5.94904E-05 2.34523E-06 0.00000E+00
 -1        20 6.01943E-05 2.83589E-05 0.00000E+00
 -1        21 5.99933E-05 6.20818E-05 0.00000E+00
 -1        23 2.61410E-05-7.00047E-05-8.07794E-28
 -1        24 2.59449E-05-5.82889E-06 0.00000E+00
 -1        25 5.26550E-05-1.00915E-06 0.00000E+00
 -1        26 5.42679E-05 3.15883E-06 0.00000E+00
 -1        27 5.21579E-05 2.71903E-05 0.00000E+00
 -1        28 5.04551E-05 6.10353E-05 0.00000E+00
 -1        31 8.35777E-08-5.95442E-06 0.00000E+00
 -1        32 0.00000E+00 0.00000E+00 0.00000E+00
 -1        33 4.84583E-05 4.38189E-06 0.00000E+00
 -1        34 4.60865E-05 2.70809E-05 0.00000E+00
 -1        35 4.30454E-05 6.05712E-05 0.00000E+00
 -1        36 1.74961E-04-6.15939E-19 5.29396E-23
 -1        37 1.72267E-04-6.68843E-19 0.00000E+00
 -1        38 1.69580E-04-3.57366E-19 0.00000E+00
 -1        39 1.66875E-04 1.21839E-19 5.29396E-23
 -1        40 1.64169E-04-2.53691E-19 1.05879E-22
 -1        41 1.61460E-04-5.88129E-19 5.29396E-23
 -1        42 1.58750E-04-4.09202E-20 0.00000E+00
 -1        43 1.56040E-04 5.07113E-19-5.29396E-23
 -1        44 1.53329E-04 1.92592E-19-1.05879E-22
 -1        45 1.50619E-04-1.28919E-19 0.00000E+00
 -1        46 1.47909E-04 3.14528E-19-1.05879E-22
 -1        47 1.45202E-04 1.07149E-18 0.00000E+00
 -1        48 1.42495E-04 4.04790E-19 1.05879E-22
 -1        49 1.39802E-04 8.45855E-19-2.64698E-23
 -1        50 1.37104E-04 9.19797E-19 5.29396E-23
 -1        51 1.74852E-04-2.82623E-07 0.00000E+00
 -1        52 1.70305E-04-5.63394E-07 0.00000E+00
 -1        53 1.64272E-04-8.47738E-07 0.00000E+00
 -1        54 1.57123E-04-1.13847E-06 0.00000E+00
 -1        55 1.49230E-04-1.43768E-06 0.00000E+00
 -1        56 1.84273E-04-2.50264E-05 0.00000E+00
 -1        57 2.06275E-04-9.74451E-05 0.00000E+00
 -1        58 2.38166E-04-2.04558E-04 0.00000E+00
 -1        59 2.74971E-04-3.31009E-04 2.64698E-23
 -1        60 3.11520E-04-4.56440E-04 5.29396E-23
 -1        61 3.42601E-04-5.60577E-04 0.00000E+00
 -1        62 3.63274E-04-6.28654E-04-5.29396E-23
 -1        63 3.68140E-04-6.48656E-04 0.00000E+00
 -1        64 3.54570E-04-6.20210E-04 0.00000E+00
 -1        65 3.21246E-04-5.46225E-04 2.64698E-23
 -1        66 2.72523E-04-4.39922E-04 5.29396E-23
 -1        67 2.14880E-04-3.16165E-04-2.64698E-23
 -1        68 1.57885E-04-1.93663E-04-5.29396E-23
 -1        69 1.11016E-04-9.10638E-05 0.00000E+00
 -1        70 8.02529E-05-2.26585E-05-5.29396E-23
 -1        86 1.30099E-04-1.21385E-07 0.00000E+00
 -1        87 1.17345E-04-2.74935E-07 0.00000E+00
 -1        88 1.00559E-04-4.84751E-07 0.00000E+00
 -1        89 8.40902E-05-6.84249E-07-3.30872E-24
 -1        90 7.22810E-05-8.23417E-07 6.61744E-24
 -1        91 1.31624E-04-7.51731E-07-5.29396E-23
 -1        92 1.28473E-04-9.42150E-07 0.00000E+00
 -1        93 1.25246E-04-9.15401E-07 1.05879E-22
 -1        94 1.22076E-04-1.08126E-06-5.29396E-23
 -1        95 1.18934E-04-1.31979E-06 0.00000E+00
 -1        96 1.15769E-04-1.50795E-06 0.00000E+00
 -1        97 1.12595E-04-1.66952E-06-1.05879E-22
 -1        98 1.09420E-04-1.83277E-06-5.29396E-23
 -1        99 1.06253E-04-2.01630E-06 0.00000E+00
 -1       100 1.03101E-04-2.23612E-06 5.29396E-23
 -1       101 9.99308E-05-2.40984E-06 0.00000E+00
 -1       102 9.67183E-05-2.45945E-06 5.29396E-23
 -1       103 9.35573E-05-2.64575E-06 1.05879E-22
 -1       104 9.05566E-05-3.20429E-06 0.00000E+00
 -1       105 8.73908E-05-3.34431E-06 5.29396E-23
 -1       106 8.38431E-05 1.53891E-19 1.32349E-23
 -1       107 8.31803E-05 5.67950E-19-6.61744E-24
 -1       108 8.25182E-05 8.73022E-19-2.64698E-23
 -1       109 8.18540E-05 7.75237E-19 0.00000E+00
 -1       110 8.11897E-05 6.42965E-19 2.64698E-23
 -1       111 8.05250E-05 1.07266E-18-1.32349E-23
 -1       112 7.98603E-05 1.15765E-18 0.00000E+00
 -1       113 7.91955E-05 1.17786E-18 0.00000E+00
 -1       114 7.85307E-05 1.28356E-18-2.64698E-23
 -1       115 7.78660E-05 1.26670E-18 0.00000E+00
 -1       116 7.72014E-05 1.14181E-18 0.00000E+00
 -1       117 7.65373E-05 9.57289E-19 1.32349E-23
 -1       118 7.58732E-05 8.45779E-19 2.64698E-23
 -1       119 7.52118E-05 5.95337E-19 0.00000E+00
 -1       120 7.45495E-05 2.34981E-19-1.32349E-23
 -1       121 8.48447E-05-3.79791E-07 0.00000E+00
 -1       122 8.55370E-05-7.59186E-07-6.61744E-24
 -1       123 8.61791E-05-1.13862E-06 1.32349E-23
 -1       124 8.63778E-05-1.51812E-06 6.61744E-24
 -1       125 8.57419E-05-1.89789E-06-1.32349E-23
 -1       141 7.33969E-05 3.10247E-19 1.32349E-23
 -1       142 7.28854E-05 1.80236E-18-6.61744E-24
 -1       143 7.23743E-05 3.22879E-18 0.00000E+00
 -1       144 7.18617E-05 2.15411E-18 6.61744E-24
 -1       145 7.13492E-05 1.99368E-19 1.32349E-23
 -1       146 7.08363E-05 5.59846E-19 6.61744E-24
 -1       147 7.03235E-05 2.20372E-18 1.32349E-23
 -1       148 6.98106E-05 2.47725E-18 6.61744E-24
 -1       149 6.92978E-05 1.77088E-18 0.00000E+00
 -1       150 6.87851E-05 4.98758E-19 0.00000E+00
 -1       151 6.82726E-05 2.33775E-19-1.32349E-23
 -1       152 6.77612E-05 1.83054E-18 0.00000E+00
 -1       153 6.72500E-05 2.94591E-18 0.00000E+00
 -1       154 6.67441E-05 1.90524E-18-6.61744E-24
 -1       155 6.62365E-05 3.97729E-19 0.00000E+00
 -1       156 7.81371E-05-3.32652E-08-6.61744E-24
 -1       157 9.07963E-05-1.21461E-07 0.00000E+00
 -1       158 1.04062E-04-2.17776E-07 0.00000E+00
 -1       159 1.10119E-04-2.44617E-07-8.27181E-25
 -1       160 1.02283E-04-2.99118E-07 0.00000E+00
 -1       161 7.80171E-05-1.17738E-05-6.61744E-24
 -1       162 9.03415E-05-4.69842E-05 0.00000E+00
 -1       163 1.02641E-04-8.21280E-05 6.61744E-24
 -1       164 1.06697E-04-9.37021E-05-3.30872E-24
 -1       165 1.01935E-04-8.17808E-05 0.00000E+00
 -1       166 8.78577E-05-4.66407E-05 0.00000E+00
 -1       167 7.37600E-05-1.14508E-05 0.00000E+00
 -1       168 6.89402E-05 6.21113E-07 3.30872E-24
 -1       169 7.29386E-05-1.07940E-05 0.00000E+00
 -1       170 8.52150E-05-4.58634E-05 1.65436E-24
 -1       171 9.75294E-05-8.10423E-05 0.00000E+00
 -1       172 1.01647E-04-9.27833E-05-1.65436E-24
 -1       173 9.69633E-05-8.10607E-05 0.00000E+00
 -1       174 8.29445E-05-4.60537E-05-1.65436E-24
 -1       175 6.88755E-05-1.09229E-05-2.58494E-26
 -1       191 6.56982E-05 1.96254E-07 0.00000E+00
 -1       192 6.55469E-05 3.92706E-07 0.00000E+00
 -1       193 6.53048E-05 5.89198E-07 0.00000E+00
 -1       194 6.49744E-05 7.85677E-07-3.30872E-24
 -1       195 6.45583E-05 9.82092E-07 0.00000E+00
 -1       266 1.34318E-04-1.81162E-06 0.00000E+00
 -1       267 1.27670E-04-1.83809E-06 0.00000E+00
 -1       268 1.21021E-04-1.86636E-06 3.30872E-24
 -1       269 1.14372E-04-1.88936E-06 8.27181E-25
 -1       270 1.07723E-04-1.91227E-06 0.00000E+00
 -1       271 1.35428E-04 3.50577E-06 5.29396E-23
 -1       272 1.29978E-04 8.21056E-06-5.29396E-23
 -1       273 1.24775E-04 1.22772E-05-1.05879E-22
 -1       274 1.19837E-04 1.55989E-05 0.00000E+00
 -1       275 1.15207E-04 1.81064E-05 0.00000E+00
 -1       276 1.10899E-04 1.97533E-05-5.29396E-23
 -1       277 1.06921E-04 2.05233E-05 0.00000E+00
 -1       278 1.03268E-04 2.04300E-05 0.00000E+00
 -1       279 9.99237E-05 1.95166E-05 0.00000E+00
 -1       280 9.68600E-05 1.78549E-05 0.00000E+00
 -1       281 9.40405E-05 1.55422E-05-1.05879E-22
 -1       282 9.14217E-05 1.26987E-05-5.29396E-23
 -1       283 8.89511E-05 9.46239E-06 0.00000E+00
 -1       284 8.65838E-05 5.98954E-06 5.29396E-23
 -1       285 8.42442E-05 2.43428E-06-5.29396E-23
 -1       286 7.03169E-05-2.27410E-06 0.00000E+00
 -1       287 7.12207E-05-2.66313E-06-6.61744E-24
 -1       288 7.21214E-05-2.63689E-06 0.00000E+00
 -1       289 7.30314E-05-2.73948E-06 1.32349E-23
 -1       290 7.39417E-05-2.89676E-06-2.64698E-23
 -1       291 7.48538E-05-3.03689E-06 0.00000E+00
 -1       292 7.57661E-05-3.16950E-06-2.64698E-23
 -1       293 7.66787E-05-3.30393E-06 1.32349E-23
 -1       294 7.75913E-05-3.44090E-06-2.64698E-23
 -1       295 7.85035E-05-3.58126E-06 0.00000E+00
 -1       296 7.94156E-05-3.70979E-06 0.00000E+00
 -1       297 8.03255E-05-3.81078E-06 0.00000E+00
 -1       298 8.12352E-05-3.99937E-06 0.00000E+00
 -1       299 8.21345E-05-4.39444E-06 0.00000E+00
 -1       300 8.30373E-05-4.12258E-06-6.61744E-24
 -1       301 7.14012E-05-9.20704E-07 0.00000E+00
 -1       302 7.34160E-05-9.22115E-07 0.00000E+00
 -1       303 7.54937E-05-9.23286E-07-6.61744E-24
 -1       304 7.76202E-05-9.28695E-07 0.00000E+00
 -1       305 7.97814E-05-9.42536E-07 0.00000E+00
 -1       306 6.93707E-05-3.07725E-06 0.00000E+00
 -1       307 6.92435E-05-5.22051E-06-1.32349E-23
 -1       308 6.90841E-05-7.27522E-06-2.64698E-23
 -1       309 6.88686E-05-9.19012E-06 1.32349E-23
 -1       310 6.85810E-05-1.09126E-05-2.64698E-23
 -1       311 6.82022E-05-1.23929E-05-1.32349E-23
 -1       312 6.77148E-05-1.35832E-05-2.64698E-23
 -1       313 6.71020E-05-1.44383E-05-1.32349E-23
 -1       314 6.63477E-05-1.49159E-05 2.64698E-23
 -1       315 6.54373E-05-1.49771E-05-1.32349E-23
 -1       316 6.43574E-05-1.45865E-05 0.00000E+00
 -1       317 6.30966E-05-1.37127E-05-1.32349E-23
 -1       318 6.16441E-05-1.23287E-05-2.64698E-23
 -1       319 5.99947E-05-1.04105E-05-1.32349E-23
 -1       320 5.81363E-05-7.94183E-06 1.32349E-23
 -1       321 8.34954E-05 1.01600E-05 0.00000E+00
 -1       322 8.27064E-05 4.20093E-05 0.00000E+00
 -1       323 8.21040E-05 6.50155E-05-1.32349E-23
 -1       324 8.16631E-05 5.10706E-05 3.30872E-24
 -1       325 8.08345E-05 1.74972E-05 0.00000E+00
 -1       326 7.99394E-05-1.80976E-05 3.30872E-24
 -1       327 7.94424E-05-3.55382E-05 6.61744E-24
 -1       328 7.88881E-05-1.49143E-05 0.00000E+00
 -1       329 7.81031E-05 1.69793E-05 0.00000E+00
 -1       330 7.76788E-05 3.31756E-05 0.00000E+00
 -1       331 7.73314E-05 2.65518E-05 0.00000E+00
 -1       332 7.63769E-05-9.68344E-06-3.30872E-24
 -1       333 7.54399E-05-4.53342E-05 0.00000E+00
 -1       334 7.50998E-05-5.02118E-05 0.00000E+00
 -1       335 7.46559E-05-3.25017E-05-6.61744E-24
 -1       336 8.04651E-05-2.71530E-06 0.00000E+00
 -1       337 7.59210E-05-3.15353E-06 0.00000E+00
 -1       338 7.07297E-05-3.59443E-06 0.00000E+00
 -1       339 6.53730E-05-4.03468E-06 0.00000E+00
 -1       340 6.03334E-05-4.47365E-06 0.00000E+00
 -1       356 7.31094E-05 3.08117E-05 0.00000E+00
 -1       357 7.26776E-05 4.77612E-05-3.30872E-24
 -1       358 7.23368E-05 4.22695E-05-6.61744E-24
 -1       359 7.14083E-05 6.80025E-06 3.30872E-24
 -1       360 7.04780E-05-2.87145E-05-6.61744E-24
 -1       361 7.01360E-05-3.43435E-05 0.00000E+00
 -1       362 6.97031E-05-1.75091E-05 0.00000E+00
 -1       363 6.89301E-05 1.40409E-05 3.30872E-24
 -1       364 6.83910E-05 3.39277E-05 0.00000E+00
 -1       365 6.78861E-05 1.59506E-05 0.00000E+00
 -1       366 6.69944E-05-1.95557E-05-6.61744E-24
 -1       367 6.62029E-05-5.20009E-05-3.30872E-24
 -1       368 6.57823E-05-6.46691E-05 0.00000E+00
 -1       369 6.51770E-05-4.11331E-05-3.30872E-24
 -1       370 6.44037E-05-9.70639E-06 0.00000E+00
 -1       371 4.45093E-05-1.15910E-06 0.00000E+00
 -1       372 3.37820E-05-1.23541E-06 4.13590E-25
 -1       373 3.58960E-05-1.24591E-06 4.13590E-25
 -1       374 4.50408E-05-1.29389E-06-5.16988E-26
 -1       375 5.44391E-05-1.34349E-06-8.27181E-25
 -1       406 6.34718E-05 1.37397E-06 6.61744E-24
 -1       407 6.28086E-05 1.56960E-06 0.00000E+00
 -1       408 6.20741E-05 1.76507E-06-6.61744E-24
 -1       409 6.12731E-05 1.96009E-06-3.30872E-24
 -1       410 6.04102E-05 2.15419E-06 6.61744E-24
 -1       501 8.16194E-05 1.54276E-05-2.64698E-23
 -1       502 8.00844E-05 6.88399E-05 0.00000E+00
 -1       503 7.80245E-05 1.32338E-04-6.61744E-24
 -1       504 7.68666E-05 1.79016E-04 0.00000E+00
 -1       505 7.65545E-05 1.95247E-04 0.00000E+00
 -1       506 7.60057E-05 1.67604E-04 1.65436E-24
 -1       507 7.38369E-05 1.02592E-04 0.00000E+00
 -1       508 6.92983E-05 6.97677E-06-1.65436E-24
 -1       509 6.46012E-05-9.04453E-05 3.30872E-24
 -1       510 6.20888E-05-1.60873E-04 0.00000E+00
 -1       511 6.13231E-05-1.95737E-04 0.00000E+00
 -1       512 6.11008E-05-1.86702E-04-1.65436E-24
 -1       513 6.01496E-05-1.45005E-04 0.00000E+00
 -1       514 5.81284E-05-8.21095E-05 1.65436E-24
 -1       515 5.64687E-05-2.60651E-05 6.61744E-24
 -1       521 7.96758E-05-4.28962E-06 0.00000E+00
 -1       522 7.72469E-05-7.45920E-06-5.29396E-23
 -1       523 7.47291E-05-1.03828E-05 1.05879E-22
 -1       524 7.20731E-05-1.29757E-05 5.29396E-23
 -1       525 6.92609E-05-1.51546E-05-1.05879E-22
 -1       526 6.62670E-05-1.68548E-05 0.00000E+00
 -1       527 6.30747E-05-1.80270E-05-1.05879E-22
 -1       528 5.96724E-05-1.86404E-05-5.29396E-23
 -1       529 5.60554E-05-1.86831E-05-1.05879E-22
 -1       530 5.22269E-05-1.81627E-05 0.00000E+00
 -1       531 4.81965E-05-1.71058E-05 1.05879E-22
 -1       532 4.39829E-05-1.55567E-05 5.29396E-23
 -1       533 3.96081E-05-1.35771E-05-1.05879E-22
 -1       534 3.51132E-05-1.12386E-05 5.29396E-23
 -1       535 3.05148E-05-8.63551E-06-5.29396E-23
 -1       536 5.61503E-05-1.70574E-06 0.00000E+00
 -1       537 5.62237E-05 6.97689E-07 0.00000E+00
 -1       538 5.62982E-05 2.39614E-06-1.65436E-24
 -1       539 5.63753E-05 3.47507E-06 8.27181E-25
 -1       540 5.64532E-05 4.01927E-06 0.00000E+00
 -1       541 5.65315E-05 4.11309E-06-8.27181E-25
 -1       542 5.66100E-05 3.84048E-06 0.00000E+00
 -1       543 5.66883E-05 3.28507E-06 0.00000E+00
 -1       544 5.67666E-05 2.53024E-06 0.00000E+00
 -1       545 5.68449E-05 1.65919E-06-8.27181E-25
 -1       546 5.69231E-05 7.55012E-07-3.30872E-24
 -1       547 5.70013E-05-9.92126E-08-1.65436E-24
 -1       548 5.70796E-05-8.20385E-07 0.00000E+00
 -1       549 5.71578E-05-1.32528E-06 1.65436E-24
 -1       550 5.72362E-05-1.53044E-06 3.30872E-24
 -1       551 5.16134E-05-5.04311E-06 3.30872E-24
 -1       552 4.66083E-05-5.18621E-06 3.30872E-24
 -1       553 4.13054E-05-5.33149E-06 6.61744E-24
 -1       554 3.59385E-05-5.48100E-06 0.00000E+00
 -1       555 3.07414E-05-5.63647E-06-2.64698E-23
 -1       556 5.48119E-05-1.84904E-06 0.00000E+00
 -1       557 5.38123E-05 4.75702E-07 6.61744E-24
 -1       558 5.30610E-05 2.14471E-06 0.00000E+00
 -1       559 5.25286E-05 3.23408E-06 6.61744E-24
 -1       560 5.21858E-05 3.81990E-06 0.00000E+00
 -1       561 5.20035E-05 3.97877E-06 0.00000E+00
 -1       562 5.19526E-05 3.78743E-06-6.61744E-24
 -1       563 5.20043E-05 3.32268E-06 0.00000E+00
 -1       564 5.21296E-05 2.66141E-06 6.61744E-24
 -1       565 5.22997E-05 1.88055E-06-1.65436E-24
 -1       566 5.24859E-05 1.05703E-06 0.00000E+00
 -1       567 5.26592E-05 2.67847E-07 0.00000E+00
 -1       568 5.27910E-05-4.10069E-07 1.44757E-24
 -1       569 5.28527E-05-8.99858E-07 8.27181E-25
 -1       570 5.28157E-05-1.12472E-06 1.65436E-24
 -1       571 5.74454E-05-1.07266E-06-8.27181E-25
 -1       572 5.75804E-05-8.76301E-07-1.24077E-24
 -1       573 5.77163E-05-7.47562E-07 0.00000E+00
 -1       574 5.78526E-05-6.69918E-07 1.65436E-24
 -1       575 5.79892E-05-6.26778E-07 3.30872E-24
 -1       576 5.81258E-05-6.01448E-07 0.00000E+00
 -1       577 5.82625E-05-5.77225E-07 0.00000E+00
 -1       578 5.83991E-05-5.37394E-07 3.30872E-24
 -1       579 5.85358E-05-4.65237E-07 0.00000E+00
 -1       580 5.86725E-05-3.44035E-07 0.00000E+00
 -1       581 5.88091E-05-1.57070E-07 0.00000E+00
 -1       582 5.89457E-05 1.12362E-07-6.61744E-24
 -1       583 5.90822E-05 4.80953E-07 6.61744E-24
 -1       584 5.92187E-05 9.65224E-07 0.00000E+00
 -1       585 5.93548E-05 1.58160E-06 0.00000E+00
 -1       586 5.66473E-05-1.29370E-06 0.00000E+00
 -1       587 5.58781E-05-1.23517E-06 3.30872E-24
 -1       588 5.50497E-05-1.17685E-06 0.00000E+00
 -1       589 5.42068E-05-1.11904E-06-8.27181E-25
 -1       590 5.33940E-05-1.06224E-06 0.00000E+00
 -1       591 5.71125E-05-1.02137E-06 0.00000E+00
 -1       592 5.69260E-05-7.48075E-07 0.00000E+00
 -1       593 5.67555E-05-5.20347E-07 0.00000E+00
 -1       594 5.65974E-05-3.27470E-07 0.00000E+00
 -1       595 5.64482E-05-1.58672E-07-3.30872E-24
 -1       596 5.63039E-05-3.27928E-09 0.00000E+00
 -1       597 5.61605E-05 1.49373E-07-1.65436E-24
 -1       598 5.60142E-05 3.09936E-07 8.27181E-25
 -1       599 5.58608E-05 4.89062E-07 1.65436E-24
 -1       600 5.56966E-05 6.97397E-07 0.00000E+00
 -1       601 5.55174E-05 9.45584E-07 1.65436E-24
 -1       602 5.53194E-05 1.24428E-06 0.00000E+00
 -1       603 5.50986E-05 1.60414E-06 0.00000E+00
 -1       604 5.48515E-05 2.03589E-06 5.16988E-25
 -1       605 5.45743E-05 2.55020E-06 0.00000E+00
 -1       606 5.95399E-05 3.36467E-06-6.61744E-24
 -1       607 5.95859E-05 4.50168E-06 0.00000E+00
 -1       608 5.96307E-05 5.74924E-06 0.00000E+00
 -1       609 5.96750E-05 7.09943E-06 0.00000E+00
 -1       610 5.97190E-05 8.54428E-06 6.61744E-24
 -1       611 5.97628E-05 1.00756E-05 1.65436E-24
 -1       612 5.98065E-05 1.16854E-05 0.00000E+00
 -1       613 5.98500E-05 1.33654E-05 0.00000E+00
 -1       614 5.98934E-05 1.51076E-05 0.00000E+00
 -1       615 5.99368E-05 1.69037E-05-3.30872E-24
 -1       616 5.99800E-05 1.87457E-05 0.00000E+00
 -1       617 6.00232E-05 2.06254E-05 0.00000E+00
 -1       618 6.00663E-05 2.25347E-05-1.65436E-24
 -1       619 6.01093E-05 2.44655E-05 8.27181E-25
 -1       620 6.01521E-05 2.64096E-05 1.65436E-24
 -1       621 5.85466E-05 2.48153E-06 0.00000E+00
 -1       622 5.76175E-05 2.61826E-06 0.00000E+00
 -1       623 5.67142E-05 2.75496E-06 0.00000E+00
 -1       624 5.58475E-05 2.89131E-06 1.65436E-24
 -1       625 5.50285E-05 3.02702E-06 0.00000E+00
 -1       626 5.92106E-05 3.42787E-06 0.00000E+00
 -1       627 5.88838E-05 4.63349E-06 0.00000E+00
 -1       628 5.85150E-05 5.95028E-06 0.00000E+00
 -1       629 5.81092E-05 7.36520E-06-6.61744E-24
 -1       630 5.76713E-05 8.86516E-06 0.00000E+00
 -1       631 5.72064E-05 1.04369E-05 0.00000E+00
 -1       632 5.67194E-05 1.20673E-05 0.00000E+00
 -1       633 5.62153E-05 1.37429E-05 4.96308E-24
 -1       634 5.56991E-05 1.54507E-05 0.00000E+00
 -1       635 5.51759E-05 1.71773E-05-1.65436E-24
 -1       636 5.46504E-05 1.89095E-05 0.00000E+00
 -1       637 5.41278E-05 2.06341E-05-1.65436E-24
 -1       638 5.36129E-05 2.23378E-05 1.65436E-24
 -1       639 5.31103E-05 2.40073E-05 8.27181E-25
 -1       640 5.26247E-05 2.56293E-05 0.00000E+00
 -1       641 6.01846E-05 3.03225E-05 0.00000E+00
 -1       642 6.01729E-05 3.23850E-05 0.00000E+00
 -1       643 6.01612E-05 3.45335E-05 1.03398E-25
 -1       644 6.01491E-05 3.67555E-05-1.03398E-25
 -1       645 6.01368E-05 3.90320E-05 0.00000E+00
 -1       646 6.01243E-05 4.13438E-05 1.03398E-25
 -1       647 6.01119E-05 4.36691E-05 4.13590E-25
 -1       648 6.00994E-05 4.59857E-05 0.00000E+00
 -1       649 6.00869E-05 4.82723E-05 4.13590E-25
 -1       650 6.00745E-05 5.05076E-05 0.00000E+00
 -1       651 6.00623E-05 5.26747E-05 0.00000E+00
 -1       652 6.00499E-05 5.47569E-05 4.13590E-25
 -1       653 6.00378E-05 5.67445E-05-8.27181E-25
 -1       654 6.00246E-05 5.86281E-05-8.27181E-25
 -1       655 6.00120E-05 6.04073E-05-3.30872E-24
 -1       656 5.84792E-05 2.81697E-05 6.61744E-24
 -1       657 5.70550E-05 2.79716E-05 1.65436E-24
 -1       658 5.58167E-05 2.77742E-05-3.30872E-24
 -1       659 5.46583E-05 2.75768E-05-1.65436E-24
 -1       660 5.34739E-05 2.73790E-05 1.65436E-24
 -1       661 5.95949E-05 3.03637E-05 0.00000E+00
 -1       662 5.89764E-05 3.24335E-05 0.00000E+00
 -1       663 5.83387E-05 3.45539E-05 0.00000E+00
 -1       664 5.76874E-05 3.67126E-05-1.65436E-24
 -1       665 5.70264E-05 3.88970E-05 0.00000E+00
 -1       666 5.63606E-05 4.10946E-05 0.00000E+00
 -1       667 5.56946E-05 4.32928E-05 3.30872E-24
 -1       668 5.50331E-05 4.54792E-05 0.00000E+00
 -1       669 5.43807E-05 4.76412E-05 0.00000E+00
 -1       670 5.37422E-05 4.97665E-05 0.00000E+00
 -1       671 5.31222E-05 5.18424E-05 0.00000E+00
 -1       672 5.25254E-05 5.38564E-05 0.00000E+00
 -1       673 5.19566E-05 5.57957E-05-3.30872E-24
 -1       674 5.14195E-05 5.76475E-05 1.65436E-24
 -1       675 5.09201E-05 5.93993E-05-1.65436E-24
 -1       676 5.83710E-05 6.19062E-05 0.00000E+00
 -1       677 5.67543E-05 6.17303E-05 3.30872E-24
 -1       678 5.51488E-05 6.15547E-05 6.61744E-24
 -1       679 5.35601E-05 6.13798E-05 0.00000E+00
 -1       680 5.19937E-05 6.12048E-05 3.30872E-24
 -1       716 2.61333E-05-6.59937E-05 0.00000E+00
 -1       717 2.61255E-05-6.19827E-05 8.07794E-28
 -1       718 2.61178E-05-5.79717E-05 0.00000E+00
 -1       719 2.61101E-05-5.39607E-05-3.23117E-27
 -1       720 2.61023E-05-4.99497E-05 0.00000E+00
 -1       721 2.60946E-05-4.59387E-05 1.29247E-26
 -1       722 2.60868E-05-4.19277E-05 0.00000E+00
 -1       723 2.60790E-05-3.79167E-05 0.00000E+00
 -1       724 2.60711E-05-3.39056E-05-2.06795E-25
 -1       725 2.60628E-05-2.98947E-05-2.06795E-25
 -1       726 2.60544E-05-2.58836E-05 0.00000E+00
 -1       727 2.60444E-05-2.18726E-05-8.27181E-25
 -1       728 2.60342E-05-1.78617E-05 0.00000E+00
 -1       729 2.60162E-05-1.38507E-05 3.30872E-24
 -1       730 2.60009E-05-9.83969E-06 0.00000E+00
 -1       766 2.17601E-05-5.88558E-06 1.32349E-23
 -1       767 1.72287E-05-5.90309E-06 0.00000E+00
 -1       768 1.25725E-05-5.92373E-06 0.00000E+00
 -1       769 8.01269E-06-5.93622E-06 0.00000E+00
 -1       770 3.77467E-06-5.94704E-06 0.00000E+00
 -1       771 2.33104E-05-2.73731E-06 5.29396E-23
 -1       772 2.08990E-05-2.74723E-07 0.00000E+00
 -1       773 1.87026E-05 1.61344E-06-5.29396E-23
 -1       774 1.67005E-05 2.98273E-06 0.00000E+00
 -1       775 1.48723E-05 3.88934E-06 0.00000E+00
 -1       776 1.31966E-05 4.39043E-06 0.00000E+00
 -1       777 1.16516E-05 4.54364E-06-5.29396E-23
 -1       778 1.02153E-05 4.40730E-06 0.00000E+00
 -1       779 8.86574E-06 4.04008E-06 5.29396E-23
 -1       780 7.58065E-06 3.50112E-06 2.64698E-23
 -1       781 6.33780E-06 2.84980E-06 5.29396E-23
 -1       782 5.11503E-06 2.14574E-06 2.64698E-23
 -1       783 3.89012E-06 1.44865E-06-5.29396E-23
 -1       784 2.64178E-06 8.18422E-07-1.32349E-23
 -1       785 1.34835E-06 3.14772E-07 0.00000E+00
 -1       786 5.27501E-05-5.70577E-07 0.00000E+00
 -1       787 5.28506E-05-2.29446E-07 8.27181E-25
 -1       788 5.29511E-05 3.01586E-08 0.00000E+00
 -1       789 5.30524E-05 2.24112E-07 0.00000E+00
 -1       790 5.31538E-05 3.68206E-07 0.00000E+00
 -1       791 5.32554E-05 4.78180E-07-1.65436E-24
 -1       792 5.33571E-05 5.69732E-07 0.00000E+00
 -1       793 5.34587E-05 6.58541E-07-1.65436E-24
 -1       794 5.35604E-05 7.60282E-07 0.00000E+00
 -1       795 5.36621E-05 8.90643E-07 1.65436E-24
 -1       796 5.37637E-05 1.06535E-06 0.00000E+00
 -1       797 5.38653E-05 1.30017E-06 1.65436E-24
 -1       798 5.39668E-05 1.61095E-06 0.00000E+00
 -1       799 5.40680E-05 2.01361E-06 0.00000E+00
 -1       800 5.41691E-05 2.52421E-06-3.30872E-24
 -1       801 4.82803E-05-8.06909E-07 0.00000E+00
 -1       802 3.85889E-05-6.27797E-07 0.00000E+00
 -1       803 2.62494E-05-4.74707E-07 0.00000E+00
 -1       804 1.39272E-05-3.27847E-07-1.65436E-24
 -1       805 4.28753E-06-1.54610E-07-1.32349E-23
 -1       806 5.23795E-05-6.21861E-07 3.30872E-24
 -1       807 5.21186E-05-2.85639E-07 0.00000E+00
 -1       808 5.18721E-05 9.45071E-09-3.30872E-24
 -1       809 5.16369E-05 2.72875E-07 0.00000E+00
 -1       810 5.14098E-05 5.14068E-07 0.00000E+00
 -1       811 5.11875E-05 7.42425E-07 0.00000E+00
 -1       812 5.09664E-05 9.67330E-07 3.30872E-24
 -1       813 5.07432E-05 1.19816E-06-1.65436E-24
 -1       814 5.05141E-05 1.44430E-06 0.00000E+00
 -1       815 5.02758E-05 1.71512E-06 8.27181E-25
 -1       816 5.00247E-05 2.01999E-06 1.65436E-24
 -1       817 4.97574E-05 2.36828E-06 0.00000E+00
 -1       818 4.94703E-05 2.76935E-06 3.30872E-24
 -1       819 4.91601E-05 3.23251E-06 0.00000E+00
 -1       820 4.88234E-05 3.76705E-06-8.27181E-25
 -1       821 5.41442E-05 3.96399E-06-1.65436E-24
 -1       822 5.40129E-05 4.95455E-06 0.00000E+00
 -1       823 5.38817E-05 6.11135E-06 3.30872E-24
 -1       824 5.37490E-05 7.41484E-06 1.65436E-24
 -1       825 5.36161E-05 8.84533E-06 3.30872E-24
 -1       826 5.34827E-05 1.03829E-05-1.65436E-24
 -1       827 5.33492E-05 1.20074E-05-3.30872E-24
 -1       828 5.32156E-05 1.36988E-05-1.65436E-24
 -1       829 5.30818E-05 1.54366E-05 0.00000E+00
 -1       830 5.29481E-05 1.72005E-05-1.65436E-24
 -1       831 5.28144E-05 1.89701E-05 0.00000E+00
 -1       832 5.26809E-05 2.07250E-05-1.65436E-24
 -1       833 5.25476E-05 2.24448E-05 0.00000E+00
 -1       834 5.24155E-05 2.41091E-05-1.65436E-24
 -1       835 5.22833E-05 2.56976E-05 0.00000E+00
 -1       836 5.34321E-05 3.35993E-06 0.00000E+00
 -1       837 5.24489E-05 3.56753E-06-3.30872E-24
 -1       838 5.13889E-05 3.77482E-06 0.00000E+00
 -1       839 5.03233E-05 3.98134E-06 1.65436E-24
 -1       840 4.93228E-05 4.18783E-06 1.65436E-24
 -1       841 5.39916E-05 4.03164E-06-1.65436E-24
 -1       842 5.36011E-05 5.20756E-06-8.27181E-25
 -1       843 5.31329E-05 6.59030E-06 1.65436E-24
 -1       844 5.26228E-05 8.08393E-06 0.00000E+00
 -1       845 5.20844E-05 9.65298E-06-1.65436E-24
 -1       846 5.15309E-05 1.12621E-05 0.00000E+00
 -1       847 5.09674E-05 1.28975E-05 0.00000E+00
 -1       848 5.03991E-05 1.45458E-05 0.00000E+00
 -1       849 4.98285E-05 1.62000E-05 1.65436E-24
 -1       850 4.92583E-05 1.78532E-05-8.27181E-25
 -1       851 4.86911E-05 1.94983E-05 0.00000E+00
 -1       852 4.81295E-05 2.11280E-05 0.00000E+00
 -1       853 4.75794E-05 2.27270E-05 0.00000E+00
 -1       854 4.70457E-05 2.42794E-05 0.00000E+00
 -1       855 4.65451E-05 2.57451E-05 0.00000E+00
 -1       856 5.20585E-05 2.87525E-05-1.65436E-24
 -1       857 5.19531E-05 3.05247E-05-8.27181E-25
 -1       858 5.18473E-05 3.24781E-05 1.65436E-24
 -1       859 5.17404E-05 3.45835E-05 0.00000E+00
 -1       860 5.16331E-05 3.68118E-05 3.30872E-24
 -1       861 5.15255E-05 3.91335E-05 0.00000E+00
 -1       862 5.14177E-05 4.15195E-05 0.00000E+00
 -1       863 5.13097E-05 4.39403E-05 0.00000E+00
 -1       864 5.12018E-05 4.63664E-05 0.00000E+00
 -1       865 5.10939E-05 4.87686E-05-1.65436E-24
 -1       866 5.09861E-05 5.11174E-05 3.30872E-24
 -1       867 5.08786E-05 5.33834E-05 0.00000E+00
 -1       868 5.07714E-05 5.55375E-05-3.30872E-24
 -1       869 5.06648E-05 5.75502E-05 0.00000E+00
 -1       870 5.05585E-05 5.93924E-05-3.30872E-24
 -1       871 5.09669E-05 2.71751E-05 0.00000E+00
 -1       872 4.99311E-05 2.71581E-05 0.00000E+00
 -1       873 4.89883E-05 2.71406E-05 0.00000E+00
 -1       874 4.80754E-05 2.71225E-05 0.00000E+00
 -1       875 4.71289E-05 2.71036E-05 1.65436E-24
 -1       876 5.17646E-05 2.87892E-05 3.30872E-24
 -1       877 5.13183E-05 3.05498E-05 3.30872E-24
 -1       878 5.08197E-05 3.24492E-05 0.00000E+00
 -1       879 5.02775E-05 3.44673E-05 0.00000E+00
 -1       880 4.96984E-05 3.65834E-05 0.00000E+00
 -1       881 4.90902E-05 3.87774E-05-3.30872E-24
 -1       882 4.84602E-05 4.10291E-05-6.61744E-24
 -1       883 4.78161E-05 4.33183E-05 0.00000E+00
 -1       884 4.71654E-05 4.56250E-05 0.00000E+00
 -1       885 4.65156E-05 4.79292E-05-3.30872E-24
 -1       886 4.58742E-05 5.02109E-05 0.00000E+00
 -1       887 4.52487E-05 5.24498E-05-3.30872E-24
 -1       888 4.46467E-05 5.46259E-05-6.61744E-24
 -1       889 4.40747E-05 5.67188E-05 1.65436E-24
 -1       890 4.35415E-05 5.87084E-05 0.00000E+00
 -1       891 4.91178E-05 6.09585E-05 0.00000E+00
 -1       892 4.79691E-05 6.08806E-05 0.00000E+00
 -1       893 4.68983E-05 6.08029E-05 0.00000E+00
 -1       894 4.57946E-05 6.07252E-05 8.27181E-25
 -1       895 4.45471E-05 6.06473E-05 0.00000E+00
 -1       926 7.83704E-08-2.88765E-06 0.00000E+00
 -1       927 7.55140E-08-5.20700E-07 5.16988E-26
 -1       928 7.38660E-08 1.21909E-06 5.16988E-26
 -1       929 7.30918E-08 2.40444E-06 0.00000E+00
 -1       930 7.27581E-08 3.10837E-06-2.58494E-26
 -1       931 7.26232E-08 3.40387E-06 1.29247E-26
 -1       932 7.25166E-08 3.36416E-06 0.00000E+00
 -1       933 7.22998E-08 3.06244E-06 0.00000E+00
 -1       934 7.19468E-08 2.57204E-06 2.06795E-25
 -1       935 7.12121E-08 1.96628E-06 2.06795E-25
 -1       936 7.02649E-08 1.31852E-06-8.27181E-25
 -1       937 6.78097E-08 7.02132E-07 8.27181E-25
 -1       938 6.51945E-08 1.90151E-07 3.30872E-24
 -1       939 5.50368E-08-1.44343E-07 3.30872E-24
 -1       940 4.74866E-08-2.31174E-07-1.32349E-23
 -1       956 4.83138E-05 5.24847E-06-8.27181E-25
 -1       957 4.81664E-05 6.26992E-06-1.65436E-24
 -1       958 4.80184E-05 7.42975E-06 1.65436E-24
 -1       959 4.78699E-05 8.71045E-06-1.65436E-24
 -1       960 4.77212E-05 1.00945E-05-3.30872E-24
 -1       961 4.75724E-05 1.15642E-05 1.65436E-24
 -1       962 4.74234E-05 1.31018E-05 3.30872E-24
 -1       963 4.72744E-05 1.46898E-05-1.65436E-24
 -1       964 4.71253E-05 1.63104E-05 0.00000E+00
 -1       965 4.69761E-05 1.79458E-05 1.65436E-24
 -1       966 4.68270E-05 1.95784E-05 0.00000E+00
 -1       967 4.66780E-05 2.11905E-05 3.30872E-24
 -1       968 4.65291E-05 2.27643E-05 0.00000E+00
 -1       969 4.63805E-05 2.42823E-05 3.30872E-24
 -1       970 4.62324E-05 2.57268E-05 0.00000E+00
 -1       971 4.59011E-05 2.84730E-05 3.30872E-24
 -1       972 4.57115E-05 3.00869E-05 0.00000E+00
 -1       973 4.55216E-05 3.18956E-05 0.00000E+00
 -1       974 4.53308E-05 3.38718E-05 3.30872E-24
 -1       975 4.51397E-05 3.59879E-05 0.00000E+00
 -1       976 4.49482E-05 3.82163E-05 0.00000E+00
 -1       977 4.47566E-05 4.05293E-05-6.61744E-24
 -1       978 4.45648E-05 4.28993E-05 3.30872E-24
 -1       979 4.43729E-05 4.52983E-05-6.61744E-24
 -1       980 4.41811E-05 4.76985E-05 0.00000E+00
 -1       981 4.39894E-05 5.00722E-05 0.00000E+00
 -1       982 4.37980E-05 5.23915E-05 0.00000E+00
 -1       983 4.36069E-05 5.46287E-05 0.00000E+00
 -1       984 4.34170E-05 5.67561E-05 0.00000E+00
 -1       985 4.32276E-05 5.87460E-05 0.00000E+00
 -3
    1PSTEP                        34          17           1          
  100CL  117 9.60396E-01         608                     0   17           1
 -4  STRESS      6    1
 -5  SXX         1    4    1    1
 -5  SYY         1    4    2    2
 -5  SZZ         1    4    3    3
 -5  SXY         1    4    1    2
 -5  SYZ         1    4    2    3
 -5  SZX         1    4    3    1
 -1         1-3.47993E+06-1.40016E+06-8.12223E+05-1.28218E+06 8.19758E-10 8.32370E-09
 -1         2-4.87261E+06-1.18652E+06-6.60719E+05-8.34807E+05 8.39646E-09 3.17232E-09
 -1         3-9.58484E+05-6.41496E+05-9.54058E+04 1.06190E+05 1.74005E-08-4.27021E-09
 -1         4-7.56009E+05-2.99740E+04 2.83507E+04-1.92450E+04-1.55801E-08-5.72982E-11
 -1         5-7.67156E+05 2.05079E+04-2.59051E+05-7.65360E+03 4.03979E-08-2.26453E-09
 -1         8-2.55438E+06-1.15593E+06-3.49792E+05-1.53267E+06 8.97368E-10-3.80290E-09
 -1         9-5.46503E+05-6.35768E+04 2.58193E+04-2.09210E+05 2.53640E-09-1.51340E-09
 -1        10-1.04149E+06-7.40442E+05-1.15422E+05-4.16158E+05 3.60620E-08-1.84665E-08
 -1        11-2.37957E+05 1.58294E+05 5.50370E+04 7.10786E+04 3.60973E-09 7.23105E-09
 -1        12-1.26331E+05 1.99032E+05-9.61081E+04 4.03126E+04 3.99494E-08-6.56434E-09
 -1        15 4.30542E+03 2.32833E+03 1.33622E+04 1.26204E+01-2.07365E-10 2.78961E-08
 -1        16-3.66203E+06-9.66836E+05-2.79435E+05-1.25961E+06-6.38283E-09-6.75209E-09
 -1        17-2.00111E+05-3.06426E+05 1.38206E+04-2.98171E+05-4.50503E-09 5.33328E-09
 -1        18 7.87278E+04 2.49250E+04-1.31942E+04-8.66961E+04-8.25821E-11 1.89611E-09
 -1        19 1.61596E+05 1.96189E+05-2.64558E+02 7.31702E+03 1.10231E-10-7.37055E-10
 -1        20 7.24750E+04-1.21084E+05-2.80825E+04 5.67325E+04 6.87237E-09-3.76849E-09
 -1        21-9.63880E+03-1.92861E+05 5.43101E+04-1.60750E+03 1.51995E-08-1.80017E-09
 -1        23 9.20164E-01 4.40313E-01 1.67903E+01 1.77715E-03-7.40642E-09 6.29393E-10
 -1        24-2.00921E+06-5.51315E+05 6.20593E+04-8.92772E+05-8.34698E-09 6.38538E-09
 -1        25 2.62773E+04 1.30616E+05 4.44969E+04-4.15591E+05-3.26327E-10 1.17143E-10
 -1        26 1.63775E+03 1.35069E+05 1.18958E+02-2.04615E+04 2.65743E-10 3.11630E-09
 -1        27-2.87063E+04-8.94098E+04-3.98433E+04 9.90455E+04 3.61069E-09-5.73649E-09
 -1        28-1.12254E+04-1.49497E+05-5.31690E+03 5.76928E+04 8.85984E-09-1.77639E-09
 -1        31 5.98779E+03 6.83985E+03 1.00173E+04-5.43596E+02 6.05832E-09-2.83876E-09
 -1        32-7.34650E+05 2.64831E+05 4.66758E+05-9.10170E+05 5.63316E-10 2.65815E-09
 -1        33-1.60451E+05 1.62161E+05 4.98588E+04-4.99580E+04-1.74009E-09-2.49323E-09
 -1        34-1.93212E+05-7.02289E+03 1.81229E+04 7.48995E+04-8.13564E-10-1.43186E-08
 -1        35-2.97477E+04-4.01905E+04 2.18248E+03 9.40226E+04 3.10366E-09-9.84680E-10
 -1        36-7.59949E+06 2.58219E+05-5.92020E+05-2.66493E-07-4.73999E-09-2.21189E-09
 -1        37-7.85694E+06-2.98704E+05-4.19862E+05 2.74700E-06-1.29079E-08-7.44330E-09
 -1        38-7.69839E+06 4.05752E+04-1.52899E+05 1.21659E-06-1.06651E-08-1.39698E-09
 -1        39-7.74056E+06-4.69399E+04-9.62973E+04-9.32736E-07-7.40252E-09-1.70803E-09
 -1        40-7.71460E+06 6.36538E+03-3.92053E+04 6.90357E-07-6.50742E-09-1.84991E-09
 -1        41-7.72129E+06-7.46456E+03-2.34822E+04-4.69894E-07 3.39230E-10-9.71568E-09
 -1        42-7.71725E+06 1.09867E+03-1.15335E+04 2.32632E-07-8.23359E-09 2.15323E-09
 -1        43-7.71843E+06-1.98046E+03-9.34913E+03 8.06573E-07-1.13091E-09-3.30905E-09
 -1        44-7.71737E+06 8.81634E+02-9.63486E+03 7.81862E-07 2.25982E-09-7.33689E-09
 -1        45-7.72029E+06-5.60323E+03-1.79651E+04-3.92222E-07 9.89177E-10-4.63729E-09
 -1        46-7.71545E+06 4.72114E+03-2.92887E+04 8.21719E-07 2.15862E-09 3.43425E-09
 -1        47-7.73450E+06-3.47505E+04-7.14102E+04-6.13658E-07-1.20667E-08 1.00044E-09
 -1        48-7.70347E+06 3.00283E+04-1.13240E+05 6.10760E-07-2.44548E-08-9.13860E-09
 -1        49-7.82062E+06-2.21063E+05-3.10776E+05-3.92256E-07-8.64138E-09-8.57835E-09
 -1        50-7.63037E+06 1.91072E+05-4.38445E+05-1.72678E-06-2.98368E-08-1.74623E-10
 -1        51 1.29437E+04-7.03689E+05 2.79946E+04-1.92714E+06-5.23869E-10-1.30967E-09
 -1        52 1.79164E+04-7.16566E+05 2.68069E+04-2.13427E+06 5.96629E-10-2.29920E-08
 -1        53 2.32273E+04-7.42065E+05 3.40088E+04-1.92171E+06-7.56700E-10-2.11003E-08
 -1        54 5.68137E+04-7.44514E+05 6.83195E+04-2.13974E+06-6.98492E-10-5.58066E-09
 -1        55 1.12567E+05-7.71478E+05 1.33143E+05-1.92011E+06 3.78350E-10 7.15954E-09
 -1        56-6.00768E+06-5.51831E+05-6.72868E+05-1.72817E+06-4.62023E-09 7.30506E-09
 -1        57-3.08944E+06-1.53433E+06-3.90215E+04-2.87350E+06-1.24855E-08-2.54004E-08
 -1        58-5.66692E+06-8.16202E+04-1.17188E+05-9.76755E+05-2.99588E-08-2.88128E-09
 -1        59-3.69188E+06-1.75090E+06-2.10497E+03-3.77305E+06 2.59531E-08 2.79033E-09
 -1        60-5.69727E+06-1.12475E+05-5.27396E+04-9.97707E+05 4.52565E-09 7.94989E-09
 -1        61-2.96861E+06-1.37782E+06 2.16940E+05-2.81194E+06-3.15922E-08-1.31504E-08
 -1        62-6.07389E+06-6.93769E+05-2.71404E+05-1.75349E+06-3.25817E-08 7.15227E-09
 -1        63-3.02983E+06-3.32648E+05 3.86220E+05-1.11166E+06-5.65778E-08-2.71066E-08
 -1        64-5.39127E+06-1.33173E+06-2.60582E+05-2.47310E+06 1.13650E-08-8.67294E-09
 -1        65-5.21116E+06 7.66863E+05 2.00320E+05-4.25914E+05-1.85864E-08 5.58794E-09
 -1        66-4.19911E+06-1.56442E+06-4.23261E+04-2.64348E+06-3.43753E-08 2.33376E-08
 -1        67-6.58710E+06 1.14279E+06-4.37733E+03-4.83529E+05 1.81346E-08 2.09343E-09
 -1        68-4.24741E+06-1.54574E+06-1.32329E+05-2.64561E+06-7.23958E-09 5.43332E-09
 -1        69-5.11700E+06 5.78484E+05-3.40166E+04-4.12169E+05-8.52742E-08 4.75802E-08
 -1        70-5.40989E+06-1.18340E+06-6.99879E+05-2.45947E+06-6.02740E-08-3.20142E-10
 -1        86-1.03442E+05-2.64114E+05 2.24366E+05 5.32136E+04 1.42318E-08-6.79574E-09
 -1        87 1.24548E+05-1.02119E+05 1.76658E+05-2.28720E+05 2.43454E-08-1.24585E-08
 -1        88-1.81791E+04-1.92578E+05 7.36798E+04 5.55153E+04 1.99707E-08-5.67377E-09
 -1        89 5.28388E+04-1.29810E+05 8.33389E+04-2.27845E+05 2.93350E-08-1.03286E-08
 -1        90-3.23710E+04-2.35980E+05 6.00332E+04 5.23326E+04 4.63660E-09-3.65617E-10
 -1        91-6.97001E+06-8.04573E+05-4.45266E+05-2.69141E+06 4.83851E-09-1.21945E-08
 -1        92-7.19801E+06-1.22422E+06-3.09670E+05-2.62125E+06 4.57730E-08 3.02825E-08
 -1        93-7.05535E+06-9.71212E+05-1.04047E+05-2.66676E+06 3.45853E-05-1.29396E-05
 -1        94-7.09522E+06-1.03393E+06-6.52123E+04-2.65228E+06 6.90109E-05-2.59456E-05
 -1        95-7.07181E+06-9.94759E+05-2.43400E+04-2.65999E+06 1.87206E-05-7.06146E-06
 -1        96-7.07687E+06-1.00581E+06-1.47460E+04-2.65886E+06-3.15277E-05 1.18442E-05
 -1        97-7.07344E+06-9.99298E+05-7.10013E+03-2.66009E+06-5.73667E-06 2.15639E-06
 -1        98-7.07481E+06-1.00195E+06-6.90197E+03-2.65929E+06 2.01008E-05-7.54124E-06
 -1        99-7.07383E+06-9.98614E+05-8.34337E+03-2.65955E+06-1.42527E-05 5.36819E-06
 -1       100-7.07863E+06-1.00659E+06-1.86297E+04-2.65769E+06-4.86056E-05 1.82727E-05
 -1       101-7.06969E+06-9.94667E+05-3.12910E+04-2.66171E+06 2.71241E-05-1.02391E-05
 -1       102-7.09866E+06-1.04676E+06-8.42406E+04-2.65342E+06 1.02923E-04-3.87323E-05
 -1       103-7.05413E+06-9.58489E+05-1.34526E+05-2.66395E+06 5.15377E-05-1.92412E-05
 -1       104-7.24322E+06-1.28079E+06-4.00395E+05-2.59945E+06 1.97469E-08 9.21864E-08
 -1       105-6.92629E+06-7.60736E+05-5.75662E+05-2.71615E+06-3.36731E-08 1.65892E-08
 -1       106-1.88614E+06 2.98061E+04-6.86560E+04-8.06117E-07 1.30218E-08-7.00311E-09
 -1       107-1.91582E+06-3.44969E+04-4.86213E+04 9.68039E-07 1.88696E-09-5.51609E-09
 -1       108-1.89761E+06 4.68618E+03-1.77685E+04-2.26768E-07 5.13910E-09-6.03995E-09
 -1       109-1.90241E+06-5.42370E+03-1.12020E+04 5.06289E-07-5.21774E-10 3.17414E-09
 -1       110-1.89950E+06 7.36728E+02-4.60333E+03 3.31968E-07-5.58395E-10-3.14594E-09
 -1       111-1.90020E+06-8.72752E+02-2.81417E+03 2.65316E-07 4.78258E-10-2.23019E-09
 -1       112-1.89981E+06 1.35916E+02-1.49391E+03-6.18483E-07-9.09049E-10 3.29661E-09
 -1       113-1.89990E+06-2.96149E+02-1.41409E+03-8.22990E-07-1.07925E-09 7.34832E-09
 -1       114-1.89979E+06 1.60206E+02-1.70854E+03 5.80913E-07-3.72322E-09-3.14333E-09
 -1       115-1.90031E+06-1.08104E+03-3.43643E+03-1.43176E-06-8.14451E-09-1.05156E-08
 -1       116-1.89940E+06 9.20701E+02-5.72201E+03-3.92667E-07-4.42208E-09-2.13731E-10
 -1       117-1.90308E+06-6.78749E+03-1.40012E+04-2.33917E-07-1.27616E-10-9.54878E-09
 -1       118-1.89703E+06 5.86580E+03-2.22316E+04-3.78025E-07-6.90793E-09-3.44153E-09
 -1       119-1.91987E+06-4.31814E+04-6.08572E+04-7.68097E-07-4.91754E-09 9.92441E-09
 -1       120-1.88267E+06 3.73108E+04-8.59321E+04 1.56517E-07-2.66001E-09 8.22547E-09
 -1       121-1.04367E+03-1.08412E+06 4.22682E+03 3.63122E+04 8.80391E-10 2.02908E-09
 -1       122 1.98457E+03-1.08241E+06 4.06327E+03 2.12411E+05 1.91631E-09 1.76021E-09
 -1       123-4.85421E+02-1.08375E+06 3.88627E+03 3.62806E+04 5.70481E-10 2.00089E-09
 -1       124 3.97665E+03-1.07955E+06 8.18159E+03 2.11135E+05 2.10548E-10 7.31234E-10
 -1       125-3.90643E+03-1.08527E+06 1.13727E+04 3.75880E+04-2.92039E-09 6.03541E-09
 -1       141-1.45674E+06 2.06485E+04-4.75792E+04-1.34476E-07-4.57231E-09-2.99406E-09
 -1       142-1.47729E+06-2.38990E+04-3.37047E+04-1.39629E-06-3.66650E-09-4.74256E-09
 -1       143-1.46469E+06 3.24714E+03-1.23446E+04-8.81295E-07-8.00618E-10-2.16050E-09
 -1       144-1.46801E+06-3.76268E+03-7.82758E+03 7.94736E-07 2.03510E-09 3.63957E-09
 -1       145-1.46600E+06 5.14949E+02-3.31386E+03 7.85029E-08-2.85297E-09-2.43006E-09
 -1       146-1.46650E+06-6.39430E+02-2.21377E+03-2.10247E-06-2.87832E-09-4.70527E-09
 -1       147-1.46620E+06 1.24401E+02-1.52814E+03 4.17177E-07 7.22852E-10-8.47134E-10
 -1       148-1.46641E+06-4.32226E+02-2.06561E+03-6.29103E-07 1.08317E-10 2.50765E-09
 -1       149-1.46609E+06 3.07786E+02-3.14984E+03 3.72734E-08-4.37651E-09 1.69393E-10
 -1       150-1.46735E+06-2.21208E+03-6.91469E+03 3.31255E-07-4.66852E-10-4.28372E-10
 -1       151-1.46527E+06 1.90405E+03-1.17645E+04-5.02627E-07-3.10257E-09 5.54064E-09
 -1       152-1.47311E+06-1.40589E+04-2.89694E+04-1.06059E-06-2.03741E-09 6.35237E-09
 -1       153-1.46035E+06 1.21533E+04-4.60511E+04 6.51556E-07 1.30006E-08 4.84033E-09
 -1       154-1.50788E+06-8.94676E+04-1.26096E+05 6.70138E-07 4.95408E-09-2.83035E-09
 -1       155-1.43056E+06 7.73102E+04-1.77992E+05-4.49686E-07 2.32686E-08 1.38971E-09
 -1       156-3.76217E+04-6.79108E+04 7.50043E+04-7.76406E+03-5.58430E-09 3.68279E-09
 -1       157 4.11075E+04 5.98892E+04 7.21346E+04 2.91672E+04-3.07864E-09 3.28235E-09
 -1       158-3.17622E+03-4.34487E+04 2.43323E+04-7.43131E+03-1.68147E-08 3.44068E-09
 -1       159 3.75370E+04 2.26493E+05 8.24782E+04 2.49121E+04 1.58846E-08-2.59374E-09
 -1       160-3.49562E+04-2.33377E+05-9.49952E+03-3.52513E+03 1.04519E-08-7.96945E-10
 -1       161-6.74898E+05-1.03617E+05-1.49233E+04-2.06040E+05-3.29219E-08-3.78350E-09
 -1       162 1.05541E+05 6.88287E+03 1.33750E+05-4.26129E+04 3.71665E-08 3.07273E-09
 -1       163-6.60692E+05-7.56824E+04-4.18031E+04-2.13414E+05-1.42859E-08 4.12820E-09
 -1       164 4.89345E+04 1.42445E+04 1.07211E+05 1.54944E+04-1.87941E-08-1.92131E-09
 -1       165-6.17390E+05-1.13291E+05-4.86282E+04-2.62716E+05-5.47264E-08-7.04381E-09
 -1       166 2.13241E+03 5.29386E+04 1.01700E+05 6.29117E+04-1.26961E-07 1.55671E-08
 -1       167-6.14817E+05-1.12047E+05-4.98833E+04-2.62226E+05 8.46057E-10-8.06173E-09
 -1       168 4.55036E+04 7.91838E+03 1.00153E+05 1.66573E+04 5.02639E-08-2.07569E-09
 -1       169-6.59838E+05-7.06000E+04-5.17875E+04-2.15068E+05-1.18377E-05 4.17086E-06
 -1       170 8.45262E+04-3.29893E+04 9.77685E+04-3.36145E+04-2.34035E-05 7.57483E-06
 -1       171-6.54738E+05-6.88400E+04-5.43491E+04-2.13379E+05-1.17646E-05 4.15962E-06
 -1       172 4.18285E+04 3.93497E+03 8.86922E+04 1.63432E+04 5.24449E-08-5.27530E-09
 -1       173-6.16250E+05-1.09821E+05-7.13893E+04-2.63607E+05-3.78780E-08 1.44337E-09
 -1       174-1.17347E+04 3.01804E+04 4.81260E+04 6.60858E+04-1.83203E-07 5.26779E-09
 -1       175-6.02095E+05-9.27672E+04-1.38880E+05-2.64508E+05-4.02288E-08-4.83851E-10
 -1       191 9.68199E+02 5.62706E+05 1.54673E+03-1.45690E+04-4.38376E-10-2.79579E-09
 -1       192 3.23368E+02 5.62909E+05 8.47074E+02-1.55505E+04-2.87855E-10 4.67207E-09
 -1       193 9.37543E+01 5.62780E+05 5.49098E+02-1.43243E+04-1.19280E-09 8.13088E-10
 -1       194 2.37051E+02 5.62856E+05 6.73032E+02-1.60088E+04-8.99036E-10-2.94676E-09
 -1       195 6.85593E+02 5.62703E+05 1.11477E+03-1.41097E+04-2.02454E-09-2.35377E-09
 -1       266-7.56865E+04-3.49787E+04 1.74782E+05-2.59851E+02 5.82077E-11 2.98451E-09
 -1       267 8.76591E+04 4.08786E+04 1.23933E+05 2.98615E+02 2.54659E-11 1.21046E-08
 -1       268-1.19444E+04-5.85093E+03 4.58743E+04-3.88963E+01-8.18545E-11-7.22017E-09
 -1       269 1.40999E+04 7.01781E+03 2.99784E+04 4.52071E+01 1.24146E-10 5.86970E-09
 -1       270-2.15239E+03-1.16409E+03 1.43934E+04-6.30862E+00-1.19144E-10 1.36283E-08
 -1       271-7.91008E+06-9.91584E+05-6.25454E+05-3.07380E+06-2.31375E-09-1.28057E-09
 -1       272-8.21253E+06-1.34010E+06-3.98043E+05-2.98219E+06-3.09228E-11-2.46655E-09
 -1       273-8.02389E+06-1.13771E+06-1.47306E+05-3.05039E+06-2.95495E-09 1.15688E-09
 -1       274-8.07492E+06-1.15877E+06-8.14625E+04-3.02202E+06-3.45790E-09 4.73119E-09
 -1       275-8.04220E+06-1.14878E+06-3.42626E+04-3.04233E+06-9.21318E-10 3.14685E-09
 -1       276-8.04809E+06-1.14968E+06-1.80570E+04-3.03759E+06 8.18818E-09 9.74069E-09
 -1       277-8.04977E+06-1.14461E+06-9.26749E+03-3.03538E+06 5.11136E-10 2.21371E-09
 -1       278-8.03496E+06-1.15920E+06-6.92281E+03-3.05106E+06 1.62527E-09 5.52063E-10
 -1       279-8.05542E+06-1.13896E+06-8.17552E+03-3.02902E+06 2.79942E-09 1.03528E-08
 -1       280-8.02668E+06-1.17072E+06-1.51686E+04-3.06264E+06 3.75894E-09-1.33991E-09
 -1       281-8.05862E+06-1.13292E+06-2.82849E+04-3.02412E+06 5.92627E-09 6.92307E-09
 -1       282-8.03240E+06-1.19480E+06-6.72254E+04-3.06898E+06 4.24916E-09 3.53248E-09
 -1       283-8.05083E+06-1.11648E+06-1.21354E+05-3.02248E+06 3.64889E-09 2.46655E-09
 -1       284-8.13386E+06-1.35614E+06-3.28105E+05-3.04954E+06 6.76846E-09 7.43603E-09
 -1       285-7.96153E+06-9.91714E+05-5.15699E+05-3.03674E+06 1.20053E-09-5.09317E-09
 -1       286 2.55467E+06-1.32154E+05 3.05251E+05-5.18979E+03-2.68825E-09-1.01863E-09
 -1       287 2.68787E+06 1.52986E+05 2.16121E+05 3.89982E+03-1.25693E-09 1.82990E-08
 -1       288 2.60618E+06-2.07655E+04 7.91224E+04 2.69514E+02-8.76851E-07 1.52359E-08
 -1       289 2.62806E+06 2.40351E+04 4.98563E+04-8.68647E+02-1.74831E-06 2.63572E-09
 -1       290 2.61465E+06-3.26323E+03 2.05032E+04-4.22011E+02-1.50193E-06 1.89721E-09
 -1       291 2.61827E+06 3.85523E+03 1.24676E+04-2.71892E+02-1.26066E-06-4.29577E-09
 -1       292 2.61604E+06-5.91186E+02 6.50436E+03-3.27245E+02-7.58663E-07-7.40101E-10
 -1       293 2.61692E+06 1.22856E+03 5.92537E+03-3.34644E+02-2.51052E-07-3.26770E-09
 -1       294 2.61601E+06-6.37112E+02 6.91823E+03-3.59259E+02-1.29089E-06-8.75639E-09
 -1       295 2.61848E+06 4.24929E+03 1.36638E+04-4.51432E+02-2.32544E-06-1.56706E-09
 -1       296 2.61446E+06-3.61128E+03 2.26570E+04-2.10454E+02-3.11530E-06-6.79574E-09
 -1       297 2.62935E+06 2.66179E+04 5.52267E+04 5.11655E+02-3.90470E-06 8.23911E-09
 -1       298 2.60507E+06-2.29993E+04 8.77001E+04-1.32232E+03-1.94103E-06 2.39197E-08
 -1       299 2.69636E+06 1.69643E+05 2.39728E+05-7.16304E+03 7.83005E-09 1.73459E-08
 -1       300 2.54728E+06-1.46563E+05 3.38294E+05 7.46310E+03 2.02136E-08 1.07684E-09
 -1       301 3.16466E+04 1.11113E+04 1.01663E+05 3.40163E+04 1.05501E-10 5.01677E-09
 -1       302 1.27375E+04 3.23740E+04 8.22399E+04 4.18726E+04-1.27716E-09-1.28694E-09
 -1       303 4.18122E+03 1.66611E+04 9.64996E+04 3.39205E+04-8.36735E-11-4.17458E-10
 -1       304 4.38953E+04 5.64543E+04 1.81614E+05 4.20328E+04-1.67711E-09-9.57880E-09
 -1       305 1.21763E+05-1.28796E+04 3.37183E+05 3.35803E+04 4.36557E-10-4.79872E-09
 -1       306-2.02298E+06-2.54327E+05-1.29798E+05-7.73770E+05-2.99588E-09-2.14641E-09
 -1       307-2.06231E+06-3.49445E+05-8.24899E+04-7.81621E+05-1.09185E-09 2.81307E-09
 -1       308-2.04548E+06-2.85530E+05-3.06287E+04-7.70304E+05 2.06001E-09-1.70985E-09
 -1       309-2.03663E+06-3.09391E+05-1.69686E+04-7.86877E+05 1.19371E-10-2.41300E-09
 -1       310-2.04781E+06-2.89296E+05-7.15847E+03-7.70347E+05 2.37833E-10-3.00190E-09
 -1       311-2.03431E+06-3.04304E+05-3.84192E+03-7.86391E+05 3.53975E-09 1.01340E-09
 -1       312-2.04762E+06-2.90199E+05-2.05671E+03-7.70890E+05-1.17871E-09 1.87447E-09
 -1       313-2.03503E+06-3.02764E+05-1.72792E+03-7.85035E+05-1.62254E-09-2.71530E-09
 -1       314-2.04696E+06-2.90878E+05-2.28613E+03-7.71630E+05-4.90218E-10-4.87626E-09
 -1       315-2.03677E+06-3.01844E+05-4.42199E+03-7.83288E+05-6.43013E-10 2.13095E-09
 -1       316-2.04577E+06-2.91236E+05-8.38901E+03-7.72535E+05-2.31375E-09 3.43789E-09
 -1       317-2.04197E+06-3.05200E+05-1.98423E+04-7.80709E+05-2.19734E-09 8.79027E-09
 -1       318-2.04174E+06-2.88151E+05-3.59210E+04-7.73928E+05-8.71751E-10 8.73115E-11
 -1       319-2.07446E+06-3.49571E+05-9.65787E+04-7.71563E+05 8.73456E-10 3.61979E-09
 -1       320-2.01414E+06-2.52890E+05-1.52074E+05-7.79392E+05-2.47746E-09 2.40834E-09
 -1       321-1.01149E+06-1.79723E+04-9.52413E+02-5.24412E+04-1.44109E-08 1.44064E-08
 -1       322 2.49170E+04 6.38185E+04 1.98114E+05 7.63488E+04-6.92394E-08 2.15045E-08
 -1       323-1.49319E+06-4.52334E+04-1.25914E+05-1.56256E+04-2.36323E-08 2.42972E-09
 -1       324-1.78823E+05 3.34275E+03 1.30790E+05-4.10752E+04-3.03999E-08-2.55895E-08
 -1       325-8.07540E+05 4.05870E+04 1.08973E+04 6.49300E+04 1.11739E-08-2.07364E-08
 -1       326-1.39686E+05 2.80846E+03 1.34607E+05-4.83451E+04 2.03910E-08-1.57879E-08
 -1       327-1.53234E+06-4.43431E+04-1.42462E+05-8.35978E+03-9.49308E-09-1.46798E-09
 -1       328-1.74154E+04 1.76025E+04 1.60504E+05 7.12917E+04 5.88034E-09 3.60726E-08
 -1       329-9.29960E+05 2.70469E+04-1.74072E+04-5.46586E+04-9.84869E-09 1.95965E-08
 -1       330-3.03831E+05-1.75635E+04 9.57924E+04 1.60020E+04 3.59655E-08-4.79724E-09
 -1       331-1.24579E+06-1.16885E+04-8.58686E+04 4.68862E+04 5.61408E-09-1.38593E-08
 -1       332 4.73472E+04 3.00107E+04 1.70293E+05-8.34885E+04-6.87631E-08-2.98555E-08
 -1       333-1.28140E+06-1.72550E+04-1.01948E+05 4.47946E+04-5.13551E-08-1.92335E-08
 -1       334-2.88776E+05-4.06888E+03 8.04587E+04 1.86670E+04-7.91638E-09 5.04042E-09
 -1       335-9.09415E+05 1.91920E+04-5.92648E+04-5.52315E+04-4.11865E-08 1.46738E-08
 -1       336 3.23714E+02-1.22508E+06-4.54050E+03-4.00897E+04-7.12726E-09-2.89583E-09
 -1       337-3.09863E+02-1.22830E+06-8.89817E+03-2.54269E+05-1.22504E-08-3.40924E-09
 -1       338 2.28809E+03-1.22433E+06-1.53032E+04-3.89153E+04-9.57698E-09-4.58908E-09
 -1       339-1.79168E+04-1.23899E+06-3.83600E+04-2.54833E+05-1.32848E-08-1.40699E-09
 -1       340 1.61635E+04-1.21520E+06-5.89363E+04-3.95270E+04-7.47605E-09 4.82032E-10
 -1       356-9.16338E+05 1.78874E+04-6.08397E+04-5.41588E+04-3.44582E-09 1.89375E-08
 -1       357-3.04521E+05-4.88825E+03 7.71152E+04 1.71331E+04-5.96287E-09 3.66117E-09
 -1       358-1.25695E+06-1.51121E+04-9.70689E+04 4.49806E+04-2.13520E-08-1.15629E-08
 -1       359 3.26691E+04 2.95268E+04 1.67153E+05-8.21555E+04-2.51449E-08-3.20165E-08
 -1       360-1.25376E+06-1.33727E+04-8.78989E+04 4.50929E+04-4.01542E-09-1.75119E-08
 -1       361-3.09306E+05-1.68438E+04 9.44542E+04 1.73274E+04 2.70688E-08 8.53095E-09
 -1       362-9.14732E+05 2.80952E+04-1.50882E+04-5.44656E+04 6.07558E-08 1.36518E-08
 -1       363-3.88464E+04 1.61062E+04 1.54577E+05 6.89841E+04 4.10886E-08 2.84720E-08
 -1       364-1.52433E+06-4.39775E+04-1.43621E+05-6.52338E+03-3.56861E-08 1.45405E-08
 -1       365-1.44269E+05 2.02765E+03 1.28103E+05-4.94141E+04-1.03871E-07-2.03436E-08
 -1       366-8.09190E+05 4.11158E+04-1.08901E+02 6.38870E+04 5.73274E-08-2.27410E-08
 -1       367-2.08219E+05-1.04814E+04 1.00477E+05-3.77012E+04 9.86439E-08-1.56110E-08
 -1       368-1.46036E+06-3.20057E+04-1.60646E+05-1.82311E+04-3.44564E-08-4.26553E-09
 -1       369-1.50326E+04-1.41064E+04 8.70671E+04 7.57851E+04-7.06705E-08 2.38142E-08
 -1       370-1.00259E+06 4.67782E+04-1.61600E+05-4.95477E+04-8.74002E-09 1.34751E-08
 -1       371-3.02258E+04-1.95415E+05-6.52212E+03-2.78588E+03 3.70655E-08-2.25509E-09
 -1       372 2.74279E+04 1.84751E+05 5.96003E+04 2.12161E+04-7.53062E-09-5.13353E-09
 -1       373 2.21796E+03-3.95538E+04-4.16098E+02-6.33454E+03-2.83626E-09 3.42769E-09
 -1       374-7.87478E+03 2.27659E+04 7.60912E+02 2.47701E+04-1.56297E-09-5.37486E-09
 -1       375 5.83365E+03-3.44157E+04-1.91038E+04-6.32223E+03-1.17998E-08-7.68256E-09
 -1       406 6.51022E+02 5.61026E+05 1.72408E+03-2.68909E+04-2.46291E-09 2.41926E-10
 -1       407 5.97040E+02 5.61355E+05 2.66181E+03-2.92158E+04-1.56001E-09 1.00590E-08
 -1       408 1.24160E+03 5.60884E+05 4.84767E+03-2.66887E+04-3.36104E-09 7.71252E-09
 -1       409 5.06103E+03 5.62789E+05 1.06914E+04-2.95593E+04-2.14186E-09 1.74041E-08
 -1       410 1.45332E+04 5.59508E+05 2.17088E+04-2.65273E+04-4.26917E-09 7.80528E-09
 -1       501-1.01521E+06-1.79660E+05 1.22739E+05-5.71004E+04 4.03138E-08 2.66446E-08
 -1       502 5.56790E+05 1.65697E+05 3.44766E+05 1.24963E+05 5.26991E-08 6.55127E-08
 -1       503-4.12514E+05 1.73712E+04 4.98441E+04-5.25964E+04 2.97555E-08 4.43652E-08
 -1       504 7.70074E+05 3.15456E+04 2.48109E+05 6.59796E+04 2.13309E-08 4.99142E-08
 -1       505-1.22482E+06-5.06578E+04-1.70205E+05 1.98628E+03 1.36374E-08-1.04455E-08
 -1       506 1.08426E+06 4.28979E+04 2.84526E+05-6.91758E+04 7.66299E-08-3.70655E-08
 -1       507-7.24013E+05 3.02006E+03-8.00991E+04 8.20054E+04 7.83878E-08-6.79026E-08
 -1       508 4.72548E+05-1.36967E+04 1.45931E+05-1.45377E+05 4.52720E-08-9.67971E-08
 -1       509-6.19837E+05 1.44780E+04-6.14559E+04 7.87480E+04 8.91486E-08-6.40871E-08
 -1       510 9.79267E+05 3.04860E+04 2.53748E+05-7.66114E+04 8.98496E-08-5.89132E-08
 -1       511-1.22482E+06-4.89153E+04-1.85882E+05 1.26932E+04-1.63120E-08-7.63191E-09
 -1       512 8.45847E+05 2.13478E+04 2.28267E+05 5.72903E+04-7.09560E-08 3.11902E-08
 -1       513-4.87604E+05 2.48385E+04-2.83601E+04-5.46244E+04-3.21965E-08 4.59199E-08
 -1       514 5.08644E+05 4.62465E+04 1.78828E+05 1.26042E+05-3.35925E-08 6.71566E-08
 -1       515-8.92269E+05-6.74973E+04-9.76632E+04-5.61591E+04-3.97014E-08 3.03044E-08
 -1       521-7.84715E+06-9.75658E+05-5.03909E+05-2.98873E+06-4.61296E-09 1.36788E-09
 -1       522-8.03331E+06-1.31385E+06-3.20588E+05-2.98052E+06-2.56114E-09-7.56700E-09
 -1       523-7.93329E+06-1.09868E+06-1.18590E+05-2.97608E+06 2.48838E-09 4.32919E-09
 -1       524-7.93552E+06-1.15493E+06-6.56756E+04-2.99809E+06-3.26509E-10-3.03316E-09
 -1       525-7.94074E+06-1.11486E+06-2.75853E+04-2.97788E+06 3.35058E-09 3.60706E-09
 -1       526-7.92958E+06-1.13194E+06-1.47378E+04-2.99276E+06 1.39880E-09 8.53260E-09
 -1       527-7.93843E+06-1.11992E+06-7.73091E+03-2.98183E+06-9.69521E-10 1.99020E-09
 -1       528-7.93557E+06-1.12297E+06-6.33090E+03-2.98439E+06 1.62436E-09 3.94630E-09
 -1       529-7.93458E+06-1.12375E+06-8.03617E+03-2.98621E+06 2.03727E-09-5.21231E-09
 -1       530-7.94451E+06-1.11724E+06-1.55812E+04-2.97580E+06 1.80080E-10-1.56433E-09
 -1       531-7.92965E+06-1.12575E+06-2.92912E+04-2.99044E+06 7.41238E-11-2.81761E-09
 -1       532-7.96408E+06-1.12844E+06-6.98169E+04-2.96633E+06 4.95982E-09 3.44062E-09
 -1       533-7.91585E+06-1.11442E+06-1.26090E+05-2.99523E+06 1.79352E-09-7.85803E-10
 -1       534-8.07773E+06-1.28774E+06-3.40890E+05-2.93659E+06 9.22228E-10-4.40195E-10
 -1       535-7.82051E+06-9.87321E+05-5.35757E+05-3.01293E+06-2.91038E-10 4.13274E-09
 -1       536 2.12094E+05-2.02772E+04 7.30820E+04-7.62072E+03 1.38971E-09-3.13230E-09
 -1       537 2.40425E+05 2.51679E+04 4.78829E+04-4.59792E+04-5.12318E-09-1.82990E-09
 -1       538 2.23373E+05-2.40153E+03 1.89257E+04-7.68426E+03-2.81034E-10 6.34827E-10
 -1       539 2.27267E+05 2.63183E+03 1.08316E+04-4.57799E+04 3.58341E-09 8.26640E-09
 -1       540 2.24727E+05-3.35389E+02 4.77508E+03-7.81179E+03-4.57476E-10 8.78572E-10
 -1       541 2.25374E+05 2.69871E+02 2.58951E+03-4.55546E+04-1.81899E-10-3.60751E-09
 -1       542 2.24891E+05-5.29609E+01 1.21146E+03-7.91031E+03-4.82032E-11 2.19336E-09
 -1       543 2.24962E+05 7.73378E+01 6.73509E+02-4.54027E+04-4.59295E-10-1.54853E-09
 -1       544 2.24905E+05 3.07255E+00 3.83594E+02-7.96389E+03 5.02723E-10-2.86377E-10
 -1       545 2.24861E+05 9.78882E+01 3.33499E+02-4.53401E+04-1.35876E-09-4.98841E-09
 -1       546 2.24895E+05-3.95519E+00 4.08716E+02-7.97287E+03 3.15140E-10-4.17759E-09
 -1       547 2.24999E+05 2.53947E+02 7.87298E+02-4.53609E+04-1.30831E-09 1.26306E-09
 -1       548 2.24809E+05-1.61803E+02 1.32065E+03-7.94310E+03-1.13505E-09 9.89402E-10
 -1       549 2.26029E+05 1.77045E+03 3.31961E+03-4.53976E+04-3.43334E-10 9.59119E-10
 -1       550 2.24044E+05-1.44059E+03 5.01613E+03-7.93635E+03-1.96451E-10 7.37145E-10
 -1       551 1.18830E+04-3.72175E+05 3.22613E+04-5.65189E+05-7.63248E-09 8.58563E-10
 -1       552 1.05591E+04-3.67780E+05 3.98060E+04-6.97900E+05-7.93443E-09 2.34286E-09
 -1       553 8.38694E+03-3.74305E+05 6.37508E+04-5.64015E+05-8.20000E-09 1.46520E-09
 -1       554 4.05953E+04-3.45442E+05 1.34563E+05-6.98047E+05-8.33825E-09 4.11819E-09
 -1       555 9.83372E+04-3.96020E+05 2.56798E+05-5.64600E+05-7.61065E-09-1.50249E-09
 -1       556-1.60923E+05-1.39020E+05 2.56012E+04-2.25003E+05-6.02449E-09-1.16415E-09
 -1       557-1.28947E+05-1.69375E+05 1.30395E+04-2.52363E+05-2.32831E-10 2.95950E-09
 -1       558-1.61622E+05-1.44538E+05 5.36624E+03-2.21057E+05 3.01952E-09 1.57888E-09
 -1       559-1.32344E+05-1.73100E+05 2.68868E+03-2.54182E+05 1.52795E-09-4.20187E-09
 -1       560-1.62469E+05-1.44084E+05 1.14496E+03-2.21466E+05 4.61296E-09 4.70936E-09
 -1       561-1.33478E+05-1.72863E+05 5.74845E+02-2.54978E+05 4.89308E-10-6.80643E-09
 -1       562-1.63108E+05-1.43668E+05 1.99260E+02-2.21899E+05-3.21234E-09-6.17729E-09
 -1       563-1.34135E+05-1.72583E+05 3.62000E+01-2.55428E+05-1.88447E-09-1.13687E-09
 -1       564-1.63468E+05-1.43433E+05-1.67284E+02-2.22146E+05-3.78350E-10-1.56433E-10
 -1       565-1.34447E+05-1.72457E+05-4.57232E+02-2.55629E+05-4.85306E-09-4.45289E-09
 -1       566-1.63522E+05-1.43364E+05-1.01644E+03-2.22202E+05 4.83396E-10 1.10958E-10
 -1       567-1.34571E+05-1.72554E+05-2.25739E+03-2.55568E+05 7.30506E-09 1.12868E-08
 -1       568-1.63164E+05-1.43663E+05-4.65802E+03-2.21988E+05 2.60115E-10 1.05865E-09
 -1       569-1.37052E+05-1.75006E+05-1.09676E+04-2.54602E+05-2.32831E-09 3.60524E-09
 -1       570-1.61150E+05-1.50220E+05-2.18264E+04-2.19143E+05-2.59752E-09-7.30915E-09
 -1       571 3.89605E+05 1.58223E+04 2.37753E+04-9.38920E+04 4.41105E-10-2.66164E-09
 -1       572 3.93161E+05 5.44684E+03 1.16602E+04-1.03136E+05-1.81899E-11-9.19044E-10
 -1       573 3.91004E+05 1.25456E+03 5.18295E+03-9.36476E+04-1.00954E-09 4.32647E-09
 -1       574 3.91416E+05 3.92474E+02 2.60017E+03-1.03400E+05-7.97172E-10-1.75351E-09
 -1       575 3.91142E+05 3.64197E+01 1.22781E+03-9.36167E+04-2.04636E-10-3.58705E-09
 -1       576 3.91175E+05-1.37556E+00 6.27509E+02-1.03435E+05 5.11939E-10-5.47243E-09
 -1       577 3.91168E+05-2.72607E+01 3.12526E+02-9.36126E+04 9.26320E-10 1.10140E-09
 -1       578 3.91168E+05-2.86949E+01 1.77165E+02-1.03440E+05-1.00454E-09 5.08408E-09
 -1       579 3.91218E+05-4.63289E+01 1.19118E+02-9.36120E+04 8.27731E-09 1.22782E-09
 -1       580 3.91243E+05-6.28807E+01 1.30326E+02-1.03435E+05 2.06437E-08 2.70029E-09
 -1       581 3.91308E+05-8.72640E+01 1.95132E+02-9.36167E+04-1.27329E-09-4.43833E-10
 -1       582 3.91401E+05-7.06672E+01 3.88124E+02-1.03380E+05-1.99107E-08-3.33330E-09
 -1       583 3.91418E+05 1.44632E+01 7.49637E+02-9.36671E+04-8.11815E-09-1.08139E-09
 -1       584 3.91819E+05 5.82202E+02 1.68728E+03-1.02948E+05-8.94943E-10-3.50178E-09
 -1       585 3.91367E+05 2.05437E+03 3.42220E+03-9.40523E+04 1.44792E-09 2.43017E-09
 -1       586 2.38319E+02 1.68616E+05 9.56333E+02-2.22070E+05 1.04592E-10 1.98543E-09
 -1       587 7.12921E+02 1.68735E+05 2.73862E+03-2.47600E+05-3.11775E-09 2.45973E-09
 -1       588 1.49772E+03 1.68222E+05 5.75404E+03-2.21772E+05 2.00089E-11 1.71017E-08
 -1       589 5.93591E+03 1.70664E+05 1.30838E+04-2.47669E+05-3.18505E-09 1.94968E-08
 -1       590 1.68614E+04 1.66542E+05 2.65848E+04-2.21991E+05 1.10049E-10 1.40408E-08
 -1       591-1.72515E+05-5.15863E+04-3.70236E+04-8.25319E+04 1.06957E-09 4.25644E-10
 -1       592-1.75233E+05-5.01066E+04-1.86775E+04-9.21896E+04-1.97656E-09 2.01680E-10
 -1       593-1.74462E+05-4.15194E+04-7.92609E+03-8.76415E+04 1.26056E-09-1.66574E-09
 -1       594-1.70999E+05-4.54966E+04-3.89517E+03-9.25080E+04 1.83627E-09 4.06871E-10
 -1       595-1.74672E+05-4.12618E+04-1.79740E+03-8.78341E+04 1.50044E-09 1.93097E-09
 -1       596-1.70713E+05-4.53353E+04-9.07646E+02-9.24655E+04 9.03071E-10 8.08427E-10
 -1       597-1.74706E+05-4.12934E+04-4.86806E+02-8.78343E+04 3.91785E-09 2.02817E-09
 -1       598-1.70681E+05-4.53374E+04-3.75596E+02-9.24508E+04 5.09408E-09-5.72300E-09
 -1       599-1.74701E+05-4.12976E+04-4.60271E+02-8.78312E+04 8.90668E-09 1.01663E-08
 -1       600-1.70700E+05-4.53402E+04-8.37347E+02-9.24542E+04 2.98132E-09-2.03727E-10
 -1       601-1.74659E+05-4.12753E+04-1.64649E+03-8.78253E+04-1.64437E-09-4.08090E-09
 -1       602-1.70954E+05-4.54876E+04-3.56144E+03-9.24786E+04 2.27124E-09 5.18048E-09
 -1       603-1.74454E+05-4.15220E+04-7.24445E+03-8.76478E+04-7.68523E-10 5.20231E-10
 -1       604-1.74859E+05-4.96537E+04-1.70654E+04-9.21217E+04 3.98222E-09 5.57111E-09
 -1       605-1.72620E+05-5.07638E+04-3.38280E+04-8.30217E+04 9.82254E-10-3.44244E-09
 -1       606 1.30391E+05-1.52516E+04-2.45440E+04 4.06344E+04-6.87578E-09-3.02953E-09
 -1       607 1.26445E+05-5.06765E+03-1.21000E+04 4.47261E+04-3.86353E-09 3.51838E-09
 -1       608 1.28705E+05-1.02239E+03-5.39708E+03 4.03449E+04-6.83031E-09-9.79298E-10
 -1       609 1.28192E+05-2.52208E+02-2.71125E+03 4.50382E+04-2.36796E-08 5.45060E-09
 -1       610 1.28463E+05 5.27228E+01-1.28587E+03 4.03097E+04-1.79807E-08 5.00222E-10
 -1       611 1.28349E+05 1.04903E+02-6.46098E+02 4.50751E+04-1.40344E-08 9.59517E-10
 -1       612 1.28388E+05 1.13073E+02-3.06438E+02 4.03061E+04-8.29641E-09-1.03819E-09
 -1       613 1.28334E+05 1.32370E+02-1.35634E+02 4.50790E+04-1.08412E-08 6.22549E-10
 -1       614 1.28345E+05 1.21142E+02-2.96987E+01 4.03054E+04-2.79033E-09 2.64026E-09
 -1       615 1.28309E+05 1.46240E+02 6.38528E+01 4.50788E+04 8.50559E-09 4.18368E-10
 -1       616 1.28312E+05 1.38035E+02 1.84731E+02 4.03060E+04-5.26870E-09 7.85803E-09
 -1       617 1.28320E+05 2.09880E+02 4.22564E+02 4.50768E+04 8.23775E-10 3.87308E-09
 -1       618 1.28264E+05 3.13527E+02 8.54542E+02 4.03068E+04 2.82944E-09 2.01999E-09
 -1       619 1.28595E+05 9.79461E+02 1.92590E+03 4.50681E+04 2.59445E-09-1.62254E-09
 -1       620 1.27996E+05 2.58249E+03 3.90900E+03 4.03085E+04 9.35643E-10-2.26828E-09
 -1       621 1.30741E+03 3.93008E+05 4.65398E+03-2.69045E+04-4.38831E-11 2.25305E-09
 -1       622 6.10599E+02 3.93954E+05 4.74588E+03-3.32729E+04 9.37916E-10 7.07223E-09
 -1       623 3.27388E+02 3.93153E+05 6.82354E+03-2.69190E+04 1.23691E-10 4.13547E-09
 -1       624 3.47604E+03 3.96196E+05 1.39134E+04-3.31499E+04 6.89397E-10-2.89856E-09
 -1       625 9.59204E+03 3.90808E+05 2.63519E+04-2.70213E+04-7.27596E-12-1.64937E-09
 -1       626 2.37013E+05 7.63231E+04-4.38189E+03 1.50200E+05-9.80708E-09-1.58707E-08
 -1       627 2.31874E+05 8.24424E+04-2.08106E+03 1.54599E+05 2.94676E-09-1.43064E-09
 -1       628 2.37164E+05 7.83008E+04-8.76786E+02 1.48977E+05 4.03998E-09-1.39698E-09
 -1       629 2.31987E+05 8.34823E+04-4.15770E+02 1.54663E+05 5.90171E-09-1.36663E-09
 -1       630 2.37118E+05 7.84485E+04-1.79280E+02 1.48847E+05 5.88443E-09 9.36933E-09
 -1       631 2.31943E+05 8.35775E+04-6.66416E+01 1.54650E+05-3.61979E-09 1.73816E-09
 -1       632 2.37074E+05 7.84677E+04 1.02651E+01 1.48816E+05 2.84399E-09 8.20614E-09
 -1       633 2.31916E+05 8.35928E+04 9.28855E+01 1.54634E+05-1.39062E-08 3.42197E-09
 -1       634 2.37043E+05 7.84667E+04 2.22116E+02 1.48803E+05-8.00583E-09-4.51155E-09
 -1       635 2.31929E+05 8.36010E+04 4.96905E+02 1.54632E+05 7.27596E-11-7.33053E-10
 -1       636 2.37018E+05 7.84835E+04 1.02699E+03 1.48788E+05-3.56800E-09 1.11054E-08
 -1       637 2.32170E+05 8.38504E+04 2.28668E+03 1.54600E+05-7.54517E-09-1.08184E-08
 -1       638 2.36965E+05 7.92432E+04 4.72979E+03 1.48456E+05-1.85219E-09 7.20956E-09
 -1       639 2.34604E+05 8.79016E+04 1.12416E+04 1.53636E+05-3.21756E-09-4.70209E-10
 -1       640 2.37016E+05 9.10657E+04 2.36339E+04 1.43523E+05-5.46152E-09-2.35059E-09
 -1       641-2.62044E+04 4.60054E+03-1.06064E+04-6.67166E+01 6.58307E-05-1.36100E-07
 -1       642-3.08005E+04-5.32471E+03-7.50399E+03-6.90071E+00 1.31527E-04-2.66782E-07
 -1       643-2.79771E+04 7.22936E+02-2.73488E+03-7.48529E+01 1.21874E-04-2.66669E-07
 -1       644-2.87352E+04-8.34897E+02-1.70326E+03 7.98566E+00 1.12141E-04-2.37413E-07
 -1       645-2.82698E+04 1.11569E+02-6.57977E+02-8.16057E+01 7.18848E-05-1.63889E-07
 -1       646-2.83876E+04-1.19250E+02-3.18481E+02 1.64397E+01 3.15911E-05-6.69000E-08
 -1       647-2.83247E+04 7.42188E+00-1.21519E+01-8.33077E+01-2.51188E-05 6.67935E-08
 -1       648-2.82908E+04 5.51614E+01 2.64314E+02 1.40402E+01-8.18510E-05 1.84833E-07
 -1       649-2.83666E+04-6.28238E+01 6.10088E+02-7.92063E+01-1.42412E-04 3.20653E-07
 -1       650-2.80607E+04 4.82970E+02 1.48578E+03 4.34609E-01-2.02880E-04 4.26586E-07
 -1       651-2.85548E+04-4.20336E+02 2.58360E+03-6.97010E+01-1.01511E-04 2.13685E-07
 -1       652-2.67797E+04 3.10735E+03 6.40308E+03-2.36473E+01-8.49540E-08-3.78759E-09
 -1       653-2.96473E+04-2.68672E+03 1.01890E+04-5.51241E+01 2.20628E-09-5.57066E-10
 -1       654-1.90958E+04 1.97781E+04 2.78938E+04-6.30074E+01-2.66915E-08 3.14685E-09
 -1       655-3.62359E+04-1.70874E+04 3.94000E+04-3.03423E+01-3.97885E-09-1.76806E-09
 -1       656 1.48915E+04-5.59888E+05-6.34541E+04 1.54483E+04 3.52884E-10-6.05314E-09
 -1       657-2.18117E+04-5.83288E+05-4.70709E+04 6.47313E+04-1.72804E-10-6.06815E-09
 -1       658 3.06631E+03-5.68051E+05-3.06496E+04 1.52617E+04 8.04903E-11-2.05023E-09
 -1       659-2.14947E+04-5.83197E+05-4.65701E+04 6.48597E+04-5.99812E-09-1.30339E-09
 -1       660 1.46941E+04-5.60080E+05-6.24887E+04 1.53217E+04-3.95084E-09-7.65340E-10
 -1       661 3.46114E+05 4.83318E+04 2.75029E+04 1.36171E+05 8.45739E-09 1.59707E-09
 -1       662 3.52014E+05 6.43249E+04 1.65621E+04 1.40215E+05-2.48292E-09 7.59701E-09
 -1       663 3.50333E+05 5.24355E+04 6.45553E+03 1.36199E+05-3.21677E-10 9.19499E-10
 -1       664 3.47079E+05 5.76790E+04 3.40692E+03 1.40983E+05 8.48979E-09 3.35189E-09
 -1       665 3.50736E+05 5.28120E+04 1.50789E+03 1.36217E+05 4.92867E-09-2.93090E-09
 -1       666 3.46609E+05 5.71245E+04 8.02685E+02 1.41014E+05 9.89776E-09 1.14581E-09
 -1       667 3.50781E+05 5.28490E+04 4.67495E+02 1.36221E+05 5.39976E-09 4.49063E-11
 -1       668 3.46565E+05 5.70890E+04 4.49209E+02 1.41019E+05 1.64017E-08-6.89931E-09
 -1       669 3.50781E+05 5.28400E+04 6.55374E+02 1.36216E+05 4.58840E-10-1.58536E-09
 -1       670 3.46643E+05 5.71766E+04 1.31130E+03 1.41041E+05-3.43289E-09-1.56856E-08
 -1       671 3.50711E+05 5.27643E+04 2.56553E+03 1.36201E+05 4.11808E-09-2.04273E-09
 -1       672 3.47448E+05 5.81472E+04 5.85995E+03 1.41009E+05 2.11606E-08 3.53509E-09
 -1       673 3.50022E+05 5.21067E+04 1.11248E+04 1.36163E+05 9.95999E-09 2.46564E-09
 -1       674 3.55956E+05 6.96205E+04 2.85636E+04 1.39699E+05 1.84560E-08 6.64704E-09
 -1       675 3.42748E+05 4.50251E+04 4.74354E+04 1.36112E+05 9.89394E-09-9.83709E-09
 -1       676 5.89674E+02-4.99723E+05-4.05285E+03-2.74330E+02-5.17737E-09 1.24453E-09
 -1       677-1.67882E+03-5.01322E+05-6.06861E+03-2.98701E+03-1.12191E-08-3.90257E-09
 -1       678 7.78426E+02-4.99518E+05-9.18111E+03-2.79822E+02-6.95354E-09 1.11608E-08
 -1       679-1.02471E+04-5.06517E+05-2.16503E+04-2.96851E+03-8.97239E-09-3.59989E-10
 -1       680 7.26733E+03-4.94531E+05-3.37243E+04-2.95546E+02-3.80169E-09 2.07871E-09
 -1       716-4.54518E-01-2.14760E-01 2.05053E+01-8.97843E-04-5.16863E-09-4.19298E-09
 -1       717 2.26025E+00 1.64934E+00 3.61126E+01 2.28168E-03-8.83866E-09-1.40105E-09
 -1       718-1.79466E+00-1.42408E+00 6.70139E+01-1.40160E-03-1.59892E-08-1.61233E-09
 -1       719 1.06589E+01 1.12130E+01 1.38997E+02-2.20442E-03-2.10873E-08 5.77188E-10
 -1       720-8.85337E+00-9.77911E+00 2.65105E+02 3.59035E-03-2.34754E-08-2.98837E-09
 -1       721 5.51514E+01 7.46916E+01 5.66575E+02-7.53150E-02-2.96352E-08-8.95966E-10
 -1       722-4.62867E+01-6.49003E+01 1.06044E+03 7.17004E-02-2.54719E-08-4.49472E-09
 -1       723 2.99839E+02 4.87348E+02 2.33578E+03-7.22104E-01-2.24325E-08-3.22541E-09
 -1       724-2.53522E+02-4.22385E+02 4.22973E+03 6.50257E-01-3.06185E-08-2.95245E-09
 -1       725 1.69835E+03 3.14036E+03 9.74822E+03-5.55275E+00-2.84103E-08-2.27726E-09
 -1       726-1.44445E+03-2.71741E+03 1.67723E+04 4.90178E+00-2.54201E-08-3.34512E-09
 -1       727 9.93787E+03 2.00812E+04 4.14050E+04-3.90585E+01-2.83936E-08 1.90266E-09
 -1       728-8.48703E+03-1.73589E+04 6.58810E+04 3.41624E+01-1.66110E-08-2.36105E-09
 -1       729 5.95772E+04 1.27800E+05 1.80260E+05-2.62703E+02-6.09803E-09-1.56615E-09
 -1       730-5.09849E+04-1.10391E+05 2.54856E+05 2.28753E+02 2.77743E-09-1.74623E-09
 -1       766-1.10420E+05-5.10950E+04 2.54800E+05 5.45472E+00 9.36270E-08 2.62032E-05
 -1       767 1.27987E+05 5.96593E+04 1.80242E+05-5.79653E+02 2.44570E-07 5.23638E-05
 -1       768-1.75140E+04-8.59469E+03 6.56737E+04 1.62031E+02 1.19893E-07 2.62141E-05
 -1       769 2.12610E+04 1.05078E+04 4.14299E+04-7.69926E+02 8.72569E-09 2.73553E-08
 -1       770-3.73850E+03-2.04172E+03 1.58016E+04 1.95961E+02-1.84627E-10 5.18643E-09
 -1       771-3.17333E+06-5.65089E+05-8.18414E+04-1.30484E+06-1.91721E-09-6.54836E-10
 -1       772-3.16801E+06-5.72289E+05-4.11920E+04-1.33819E+06-6.25732E-10 9.82254E-10
 -1       773-3.17888E+06-5.41938E+05-1.75884E+04-1.31572E+06 2.77214E-09 1.52977E-09
 -1       774-3.15856E+06-5.62798E+05-8.59929E+03-1.34057E+06 2.37924E-09-1.91721E-09
 -1       775-3.18015E+06-5.40783E+05-4.03931E+03-1.31630E+06 3.99450E-09 2.95404E-09
 -1       776-3.15828E+06-5.62494E+05-2.02224E+03-1.34135E+06 6.53017E-09-2.63708E-09
 -1       777-3.18085E+06-5.40433E+05-1.13726E+03-1.31648E+06 4.36557E-09-2.79397E-09
 -1       778-3.15850E+06-5.62485E+05-8.83337E+02-1.34192E+06-2.05546E-10 1.88942E-09
 -1       779-3.18126E+06-5.40150E+05-1.14516E+03-1.31660E+06-4.31100E-10 6.33690E-10
 -1       780-3.15876E+06-5.62478E+05-2.09999E+03-1.34230E+06-1.95723E-09-3.89900E-09
 -1       781-3.18139E+06-5.39935E+05-4.16883E+03-1.31666E+06-7.00311E-10-1.95541E-10
 -1       782-3.15950E+06-5.62845E+05-9.04616E+03-1.34251E+06 2.19188E-09 3.91810E-09
 -1       783-3.18091E+06-5.40540E+05-1.84375E+04-1.31623E+06-1.10867E-09-7.38510E-10
 -1       784-3.16946E+06-5.73498E+05-4.35162E+04-1.34155E+06-2.02363E-09-1.62981E-09
 -1       785-3.17615E+06-5.64165E+05-8.63108E+04-1.30443E+06 1.06593E-09 1.21145E-09
 -1       786 2.85066E+05-9.24188E+03 3.38719E+04-1.40992E+03 1.59162E-11-2.05182E-09
 -1       787 2.97759E+05 1.17655E+04 2.21279E+04-8.54785E+03 5.62352E-10-1.11322E-09
 -1       788 2.90300E+05-1.03478E+03 8.79511E+03-1.42113E+03-1.99407E-10 4.42560E-09
 -1       789 2.91875E+05 1.28225E+03 5.00344E+03-8.52000E+03-7.95808E-11-1.34844E-09
 -1       790 2.90941E+05-1.18469E+02 2.23954E+03-1.43707E+03 3.52770E-10-1.60537E-09
 -1       791 2.91143E+05 1.37879E+02 1.21542E+03-8.49798E+03-2.55994E-10-4.04782E-10
 -1       792 2.91027E+05-1.48707E+01 6.15129E+02-1.44314E+03 3.75064E-10 5.26609E-09
 -1       793 2.91049E+05 1.91430E+01 4.08608E+02-8.49636E+03 1.62089E-10 4.17413E-09
 -1       794 2.91035E+05-8.15705E+00 3.70773E+02-1.43869E+03-5.29667E-10 1.20649E-09
 -1       795 2.91079E+05 5.62562E+01 5.64865E+02-8.51617E+03 1.87680E-09-3.40984E-10
 -1       796 2.91002E+05-5.11235E+01 9.60233E+02-1.42333E+03 1.50919E-09 8.78345E-10
 -1       797 2.91387E+05 5.29294E+02 2.09789E+03-8.55528E+03 4.62302E-09-5.75255E-10
 -1       798 2.90736E+05-4.34121E+02 3.66691E+03-1.39958E+03 2.65800E-09-4.11546E-11
 -1       799 2.93845E+05 4.89073E+03 9.21609E+03-8.59517E+03-7.58973E-10-2.61207E-09
 -1       800 2.88558E+05-3.85362E+03 1.40983E+04-1.38384E+03-1.76215E-10 7.17864E-09
 -1       801-2.77242E+04 6.51071E+05 7.49977E+04-2.56988E+05 1.37989E-08-1.55778E-08
 -1       802 6.52408E+04 6.74566E+05 9.08149E+04-1.45630E+06 4.06799E-08-5.73164E-09
 -1       803-4.36201E+03 6.51063E+05 9.94720E+04-2.57757E+05 2.52730E-08 1.18341E-08
 -1       804 1.42603E+05 7.18443E+05 2.18923E+05-1.45605E+06 4.11637E-08 1.62636E-08
 -1       805-9.52637E+04 6.07737E+05 3.12785E+05-2.57273E+05 1.28348E-08 1.57452E-08
 -1       806-2.72722E+05-8.40280E+04-2.63532E+04-1.38479E+05 9.58835E-10-4.03998E-09
 -1       807-2.72071E+05-7.84633E+04-1.25319E+04-1.47483E+05 1.30058E-10-2.98951E-09
 -1       808-2.72687E+05-7.08544E+04-5.27363E+03-1.44041E+05 1.43291E-09 5.21504E-09
 -1       809-2.69444E+05-7.38872E+04-2.54931E+03-1.48542E+05-3.79237E-09-7.33996E-09
 -1       810-2.72769E+05-6.99956E+04-1.15051E+03-1.44431E+05-1.95269E-09 1.19144E-09
 -1       811-2.69196E+05-7.35993E+04-5.67388E+02-1.48583E+05-1.17780E-10 4.40195E-10
 -1       812-2.72793E+05-6.99769E+04-2.78599E+02-1.44447E+05 4.10097E-10 1.72349E-09
 -1       813-2.69165E+05-7.35960E+04-1.70763E+02-1.48572E+05 1.55251E-09 2.82171E-09
 -1       814-2.72788E+05-6.99882E+04-1.52055E+02-1.44440E+05-2.02817E-10-3.74212E-09
 -1       815-2.69161E+05-7.36063E+04-2.31065E+02-1.48561E+05-1.69166E-09 1.57206E-09
 -1       816-2.72761E+05-7.00079E+04-4.29452E+02-1.44425E+05 5.59521E-09-6.21912E-09
 -1       817-2.69243E+05-7.37067E+04-9.31440E+02-1.48514E+05 2.32053E-08 8.74024E-10
 -1       818-2.72698E+05-7.03459E+04-1.91931E+03-1.44284E+05 4.79213E-09-1.01873E-08
 -1       819-2.70286E+05-7.52601E+04-4.55266E+03-1.47976E+05 6.10726E-10 2.90129E-09
 -1       820-2.72576E+05-7.52400E+04-9.57340E+03-1.42367E+05-1.74805E-09-2.61480E-09
 -1       821-3.70253E+05 1.27627E+04-4.68135E+04 1.49506E+03-3.89628E-09 4.65843E-09
 -1       822-3.87758E+05-1.62604E+04-3.05800E+04 1.01031E+04-1.77647E-09 5.31327E-09
 -1       823-3.77488E+05 1.42355E+03-1.21621E+04 1.39111E+03 3.19619E-09 6.13909E-10
 -1       824-3.79660E+05-1.75478E+03-6.92187E+03 1.02641E+04 3.46631E-10 9.94419E-10
 -1       825-3.78376E+05 1.63256E+02-3.11822E+03 1.33281E+03-9.20681E-09 6.22890E-09
 -1       826-3.78674E+05-1.64070E+02-1.72403E+03 1.03609E+04-1.43868E-08 1.85219E-09
 -1       827-3.78494E+05 2.49542E+01-9.41184E+02 1.29403E+03-9.82868E-09 2.38668E-09
 -1       828-3.78567E+05-3.96261E+00-7.53206E+02 1.04208E+04-1.21119E-08-4.92491E-10
 -1       829-3.78497E+05 2.48772E+01-8.78457E+02 1.27283E+03-5.03377E-09-4.26621E-09
 -1       830-3.78673E+05-1.37467E+02-1.55968E+03 1.04444E+04 7.29004E-09-2.05632E-09
 -1       831-3.78393E+05 1.51011E+02-2.79145E+03 1.27045E+03-1.20832E-09-2.17881E-09
 -1       832-3.79566E+05-1.55212E+03-6.18595E+03 1.04307E+04 4.05535E-09 6.36646E-10
 -1       833-3.77602E+05 1.27905E+03-1.08572E+04 1.28685E+03 3.09115E-10-1.23237E-10
 -1       834-3.86808E+05-1.44991E+04-2.73049E+04 1.03694E+04 3.82965E-09-1.52158E-09
 -1       835-3.71144E+05 1.14058E+04-4.17912E+04 1.33400E+03 2.10321E-09-1.42609E-09
 -1       836-4.18535E+03 5.94654E+05 4.74977E+04-3.22886E+04-5.51881E-09 1.38516E-09
 -1       837 1.12040E+04 6.09782E+05 3.65047E+04-6.96301E+04-4.34272E-09 7.51186E-09
 -1       838-1.00267E+03 5.99656E+05 3.10903E+04-3.22119E+04-6.50016E-09 4.71783E-09
 -1       839 1.87542E+04 6.15204E+05 5.35529E+04-6.96293E+04-4.97676E-09 1.37163E-09
 -1       840-7.56878E+03 5.89219E+05 8.18133E+04-3.22866E+04-6.02449E-09 1.41745E-09
 -1       841 1.12844E+05 1.61128E+04-6.29400E+02 4.22159E+04-2.63188E-09-3.21592E-10
 -1       842 1.12272E+05 1.58691E+04-4.19447E+02 4.27035E+04-1.77464E-08 4.26689E-09
 -1       843 1.12666E+05 1.59811E+04-1.41449E+02 4.23643E+04-2.41182E-05 9.08094E-06
 -1       844 1.12497E+05 1.60070E+04-7.85629E+01 4.25124E+04-4.82233E-05 1.81725E-05
 -1       845 1.12618E+05 1.59751E+04-1.09349E+01 4.24069E+04-3.08403E-05 1.16091E-05
 -1       846 1.12564E+05 1.60153E+04 3.33003E+01 4.24550E+04-1.34350E-05 5.05655E-06
 -1       847 1.12599E+05 1.59728E+04 9.25413E+01 4.24216E+04-7.59311E-06 2.85707E-06
 -1       848 1.12618E+05 1.60653E+04 2.36259E+02 4.24298E+04-1.75267E-06 6.72792E-07
 -1       849 1.12564E+05 1.59251E+04 4.36716E+02 4.24320E+04-7.05782E-07 2.67645E-07
 -1       850 1.12841E+05 1.64306E+04 1.10433E+03 4.23698E+04 3.39004E-07-1.29101E-07
 -1       851 1.12376E+05 1.56076E+04 1.90702E+03 4.24816E+04-2.29083E-06 8.62943E-07
 -1       852 1.14185E+05 1.87562E+04 5.14875E+03 4.19707E+04-4.92968E-06 1.84714E-06
 -1       853 1.11220E+05 1.35997E+04 8.23409E+03 4.28309E+04-1.29898E-05 4.90185E-06
 -1       854 1.22494E+05 3.34685E+04 2.44156E+04 3.92608E+04-2.10579E-05 7.93278E-06
 -1       855 1.04067E+05 8.98008E+02 3.51437E+04 4.51905E+04-1.05477E-05 3.95086E-06
 -1       856-2.95236E+05 4.47721E+03-3.56690E+04 1.04300E+04-8.57835E-09-5.99357E-09
 -1       857-3.06899E+05-8.57451E+03-2.17810E+04 2.53468E+04-8.55380E-09-9.04174E-09
 -1       858-3.00285E+05 4.24729E+02-9.15945E+03 1.02984E+04-8.52015E-09 2.86127E-09
 -1       859-3.01459E+05-5.53757E+02-4.92597E+03 2.55026E+04 4.11683E-09 5.22914E-09
 -1       860-3.00772E+05 8.49075E+01-2.31228E+03 1.02695E+04 4.15912E-09-2.49747E-09
 -1       861-3.00967E+05 6.70554E+01-1.21473E+03 2.55425E+04-7.02767E-09-7.46797E-09
 -1       862-3.00838E+05 5.58387E+01-6.33318E+02 1.02578E+04 9.03162E-09-3.71176E-09
 -1       863-3.00918E+05 1.16298E+02-4.17351E+02 2.55552E+04 2.13674E-08-1.68836E-09
 -1       864-3.00844E+05 5.33728E+01-3.90983E+02 1.02567E+04 9.44772E-09-6.55893E-09
 -1       865-3.00926E+05 9.56127E+01-5.87874E+02 2.55457E+04 1.96964E-08-3.68192E-09
 -1       866-3.00813E+05 6.16366E+01-1.03811E+03 1.02673E+04 1.57524E-09-8.90282E-10
 -1       867-3.01123E+05-1.82509E+02-2.16336E+03 2.55105E+04-3.56340E-09-3.36865E-09
 -1       868-3.00593E+05 2.01582E+02-4.00672E+03 1.02923E+04 9.08040E-09-2.88082E-09
 -1       869-3.03467E+05-3.69409E+03-9.50675E+03 2.53621E+04-1.83991E-09 3.18863E-09
 -1       870-2.98379E+05 1.95636E+03-1.55739E+04 1.04182E+04 2.15005E-09-1.49612E-09
 -1       871-5.59774E+03-4.72062E+04-1.22563E+04 1.63725E+05 3.46699E-09 5.34419E-09
 -1       872-2.07255E+03-4.96817E+04-4.06635E+03 1.99677E+05-4.64934E-09 1.24815E-08
 -1       873-1.72024E+02-4.87702E+04 2.62062E+03 1.63397E+05 2.03909E-09 1.12809E-08
 -1       874 2.90480E+03-4.61215E+04 1.12358E+04 1.99782E+05-1.56979E-09 1.28746E-08
 -1       875 9.24785E+03-5.09865E+04 2.41616E+04 1.63646E+05 9.76797E-10 4.49745E-09
 -1       876 4.65192E+05 6.71406E+04 4.11017E+04 1.85109E+05-1.36993E-09-5.74437E-09
 -1       877 4.72794E+05 8.99121E+04 2.44294E+04 1.92444E+05-7.87202E-09-9.94078E-09
 -1       878 4.71260E+05 7.22857E+04 9.61551E+03 1.85460E+05 2.05614E-09-8.27458E-09
 -1       879 4.65625E+05 8.05644E+04 5.02326E+03 1.93417E+05 6.74663E-09 4.91673E-09
 -1       880 4.71793E+05 7.27645E+04 2.23231E+03 1.85520E+05 1.19855E-08 6.13375E-09
 -1       881 4.64988E+05 7.98154E+04 1.16793E+03 1.93404E+05-4.11296E-09-2.61628E-09
 -1       882 4.71838E+05 7.28279E+04 6.52446E+02 1.85538E+05 4.91582E-09-2.49601E-09
 -1       883 4.64937E+05 7.97506E+04 5.74573E+02 1.93376E+05-2.03812E-08-4.45243E-09
 -1       884 4.71829E+05 7.28308E+04 7.87832E+02 1.85541E+05-1.14946E-08-2.68665E-09
 -1       885 4.65027E+05 7.98235E+04 1.53083E+03 1.93385E+05 1.21111E-08-1.07730E-09
 -1       886 4.71750E+05 7.27608E+04 2.99314E+03 1.85527E+05 2.64004E-09 5.95037E-10
 -1       887 4.65902E+05 8.08146E+04 6.76873E+03 1.93367E+05-3.82295E-09-2.06455E-09
 -1       888 4.71010E+05 7.21312E+04 1.29737E+04 1.85455E+05-1.21500E-08 3.69164E-09
 -1       889 4.75565E+05 9.34336E+04 3.29644E+04 1.92045E+05 1.05541E-08 6.07861E-09
 -1       890 4.62829E+05 6.51822E+04 5.54704E+04 1.84961E+05-6.08907E-10-3.56158E-09
 -1       891 6.43136E+02-2.20572E+05-8.88743E+03 4.97305E+04 4.02451E-10 5.00222E-11
 -1       892-2.28669E+03-2.23292E+05-6.64204E+03 1.08026E+05 8.45830E-11-8.28913E-09
 -1       893 8.25023E+01-2.21592E+05-5.40202E+03 4.95870E+04 1.18416E-09 2.82739E-10
 -1       894-3.35525E+03-2.23993E+05-9.00534E+03 1.07985E+05 1.63254E-09-1.86537E-09
 -1       895 1.07335E+03-2.19778E+05-1.36539E+04 4.97700E+04 6.44923E-09-3.69255E-10
 -1       926-1.03755E+03-1.44439E+03 3.24364E+03 6.80388E+01 8.77556E-10-1.64619E-09
 -1       927 1.02351E+03 1.67068E+03 2.43518E+03-2.67938E+02-4.36790E-09-2.06126E-09
 -1       928-3.95552E+02-2.27534E+02 8.83915E+02 6.58093E+01 1.10319E-10-9.67475E-10
 -1       929 2.28526E+02 2.70743E+02 7.13369E+02-2.65936E+02 2.55898E-09-8.78885E-10
 -1       930-2.43561E+02-4.40242E+01 4.60789E+02 6.60325E+01 3.92630E-10-3.74772E-10
 -1       931 5.03405E+01 1.11794E+02 7.03006E+02-2.66362E+02-3.81114E-10 9.32943E-12
 -1       932-2.18098E+02-6.80963E+01 1.08989E+03 6.62340E+01-5.11902E-10 4.01315E-11
 -1       933 1.98977E+02 4.82723E+02 2.33115E+03-2.66555E+02-2.40122E-09 5.50244E-10
 -1       934-3.92649E+02-4.14574E+02 4.16729E+03 6.62251E+01-2.68216E-06-1.11027E-09
 -1       935 1.53714E+03 3.08358E+03 9.58313E+03-2.66074E+02-5.36141E-06-2.61161E-09
 -1       936-1.55612E+03-2.66832E+03 1.64783E+04 6.57532E+01-2.68196E-06-1.16415E-09
 -1       937 9.63886E+03 1.97244E+04 4.06746E+04-2.66600E+02 5.59058E-09 8.41283E-10
 -1       938-8.48852E+03-1.70510E+04 6.47100E+04 6.67514E+01 1.33909E-08-6.91216E-11
 -1       939 5.84481E+04 1.25540E+05 1.77076E+05-3.16175E+02 2.59546E-09 1.30967E-10
 -1       940-5.02697E+04-1.08441E+05 2.50317E+05 1.15322E+02-2.02758E-09 1.06229E-09
 -1       956-4.21134E+05-7.74542E+03-1.80725E+04 5.10395E+04-5.36966E-09 5.73891E-10
 -1       957-4.24621E+05-2.49016E+03-9.20850E+03 6.05789E+04-1.22236E-09 4.91582E-10
 -1       958-4.22749E+05-1.98382E+02-4.15038E+03 5.07245E+04 5.20595E-09 7.42148E-10
 -1       959-4.23080E+05 4.11587E+01-2.11351E+03 6.09218E+04-5.16138E-09-1.19599E-10
 -1       960-4.22951E+05 1.38150E+02-1.02877E+03 5.06912E+04-9.23137E-09 1.34514E-09
 -1       961-4.23014E+05 1.73083E+02-5.39290E+02 6.09600E+04-1.47752E-08-1.18644E-09
 -1       962-4.23018E+05 1.56847E+02-2.99862E+02 5.06853E+04-6.10817E-09-5.28917E-09
 -1       963-4.23041E+05 1.93727E+02-2.23400E+02 6.09678E+04-1.00274E-08-3.36058E-10
 -1       964-4.23043E+05 1.70505E+02-2.51633E+02 5.06831E+04-2.64731E-09 2.15550E-09
 -1       965-4.23066E+05 2.03267E+02-4.18477E+02 6.09680E+04 9.16117E-09 3.55021E-09
 -1       966-4.23029E+05 1.78858E+02-7.77776E+02 5.06850E+04-3.67982E-09 2.48474E-09
 -1       967-4.23154E+05 1.25528E+02-1.59245E+03 6.09470E+04 1.87356E-10 2.31557E-09
 -1       968-4.22906E+05-5.58373E+01-3.12090E+03 5.07048E+04 2.17369E-10-2.40266E-09
 -1       969-4.24346E+05-1.76474E+03-6.93049E+03 6.07342E+04 1.26875E-09-1.69257E-09
 -1       970-4.21710E+05-5.72837E+03-1.35985E+04 5.09065E+04 3.70164E-09 5.69344E-10
 -1       971-5.37415E+05 1.51771E+03-2.36291E+04 1.35373E+04-2.10093E-09 4.16549E-10
 -1       972-5.44675E+05-4.86915E+03-1.40605E+04 2.78397E+04-1.72940E-09-6.44104E-09
 -1       973-5.40633E+05 1.75167E+02-6.02907E+03 1.33505E+04-5.20959E-09-1.04637E-09
 -1       974-5.41289E+05-2.19355E+02-3.20440E+03 2.80677E+04 8.66748E-10 1.46224E-09
 -1       975-5.40928E+05 6.85944E+01-1.54856E+03 1.33055E+04-5.67070E-10-2.75895E-09
 -1       976-5.41036E+05 1.01200E+02-8.56321E+02 2.81343E+04-4.91309E-09 3.03930E-09
 -1       977-5.40975E+05 6.60218E+01-5.45068E+02 1.32833E+04 1.03751E-08-4.76666E-09
 -1       978-5.41034E+05 1.29488E+02-5.38574E+02 2.81640E+04 2.27592E-08-2.52601E-09
 -1       979-5.40976E+05 7.40794E+01-7.79720E+02 1.32756E+04 5.72181E-09-4.15719E-09
 -1       980-5.41098E+05 9.76347E+01-1.46334E+03 2.81641E+04 1.20808E-08-3.50298E-10
 -1       981-5.40912E+05 1.02814E+02-2.78694E+03 1.32832E+04-1.63641E-09 4.73960E-10
 -1       982-5.41632E+05-4.60891E+02-5.86688E+03 2.81306E+04-5.07225E-09-2.39390E-09
 -1       983-5.40400E+05 3.29066E+02-1.10636E+04 1.33100E+04 5.33601E-09-3.11184E-09
 -1       984-5.47947E+05-8.97946E+03-2.58607E+04 2.79699E+04-8.60382E-10 1.98361E-09
 -1       985-5.34516E+05 2.83802E+03-4.34394E+04 1.34532E+04 9.71158E-09-3.08864E-09
 -3
    1PSTEP                        35          18           1          
  100CL  118 1.000000000         608                     0   18           1
 -4  DISP        4    1
 -5  D1          1    2    1    0
 -5  D2          1    2    2    0
 -5  D3          1    2    3    0
 -5  ALL         1    2    0    0    1ALL
 -1         1 1.86179E-04 0.00000E+00 0.00000E+00
 -1         2 1.40437E-04 0.00000E+00 0.00000E+00
 -1         3 8.74579E-05 0.00000E+00 0.00000E+00
 -1         4 7.63591E-05 0.00000E+00 0.00000E+00
 -1         5 6.77326E-05 0.00000E+00 0.00000E+00
 -1         8 1.47759E-04-1.84974E-06 0.00000E+00
 -1         9 7.11277E-05-9.73990E-07 0.00000E+00
 -1        10 8.67032E-05-2.33543E-06 0.00000E+00
 -1        11 7.62325E-05-7.59454E-07 0.00000E+00
 -1        12 6.59612E-05 1.22617E-06 0.00000E+00
 -1        15 1.05857E-04-2.04232E-06 0.00000E+00
 -1        16 8.58207E-05-1.07858E-06 0.00000E+00
 -1        17 5.76170E-05-5.03144E-06 0.00000E+00
 -1        18 5.89340E-05-1.43091E-06 0.00000E+00
 -1        19 6.12001E-05 2.44049E-06 0.00000E+00
 -1        20 6.19320E-05 2.95358E-05 0.00000E+00
 -1        21 6.17240E-05 6.46551E-05 0.00000E+00
 -1        23 2.71998E-05-7.12879E-05 0.00000E+00
 -1        24 2.69962E-05-5.97847E-06 0.00000E+00
 -1        25 5.40876E-05-1.07399E-06 0.00000E+00
 -1        26 5.57583E-05 3.28711E-06 0.00000E+00
 -1        27 5.35614E-05 2.83187E-05 0.00000E+00
 -1        28 5.17872E-05 6.35651E-05 0.00000E+00
 -1        31 8.76693E-08-6.11153E-06 0.00000E+00
 -1        32 0.00000E+00 0.00000E+00 0.00000E+00
 -1        33 4.97090E-05 4.56072E-06 0.00000E+00
 -1        34 4.72383E-05 2.82046E-05 0.00000E+00
 -1        35 4.40699E-05 6.30817E-05 0.00000E+00
 -1        36 1.83421E-04-8.27726E-19 5.29396E-23
 -1        37 1.80561E-04-7.36367E-19 0.00000E+00
 -1        38 1.77708E-04-1.27640E-19 0.00000E+00
 -1        39 1.74836E-04 6.78222E-20 5.29396E-23
 -1        40 1.71963E-04-5.90686E-20-1.05879E-22
 -1        41 1.69087E-04-5.02978E-19-5.29396E-23
 -1        42 1.66209E-04 1.70076E-19-1.05879E-22
 -1        43 1.63332E-04 4.55036E-20 0.00000E+00
 -1        44 1.60454E-04 1.85848E-19 1.05879E-22
 -1        45 1.57576E-04 2.56018E-19 0.00000E+00
 -1        46 1.54699E-04 3.68977E-19 0.00000E+00
 -1        47 1.51825E-04 5.43383E-19 0.00000E+00
 -1        48 1.48951E-04 3.64515E-19 1.05879E-22
 -1        49 1.46091E-04 1.22425E-18 2.64698E-23
 -1        50 1.43227E-04 7.96545E-19-5.29396E-23
 -1        51 1.83338E-04-2.96793E-07 0.00000E+00
 -1        52 1.78565E-04-5.92017E-07 0.00000E+00
 -1        53 1.72230E-04-8.91272E-07 0.00000E+00
 -1        54 1.64724E-04-1.19751E-06 0.00000E+00
 -1        55 1.56436E-04-1.51285E-06 4.13590E-24
 -1        56 1.93279E-04-2.61856E-05 5.29396E-23
 -1        57 2.16284E-04-1.02029E-04 2.64698E-23
 -1        58 2.49504E-04-2.14238E-04 0.00000E+00
 -1        59 2.87762E-04-3.46708E-04 2.64698E-23
 -1        60 3.25747E-04-4.78067E-04-5.29396E-23
 -1        61 3.58103E-04-5.87037E-04 0.00000E+00
 -1        62 3.79678E-04-6.58156E-04 5.29396E-23
 -1        63 3.84781E-04-6.78876E-04 0.00000E+00
 -1        64 3.70554E-04-6.48861E-04 0.00000E+00
 -1        65 3.35527E-04-5.71234E-04-2.64698E-23
 -1        66 2.84251E-04-4.59871E-04 0.00000E+00
 -1        67 2.23566E-04-3.30342E-04-2.64698E-23
 -1        68 1.63610E-04-2.02207E-04 5.29396E-23
 -1        69 1.14418E-04-9.49604E-05 2.64698E-23
 -1        70 8.22622E-05-2.35377E-05 5.29396E-23
 -1        86 1.35745E-04-1.26075E-07 0.00000E+00
 -1        87 1.22077E-04-2.92175E-07 6.61744E-24
 -1        88 1.04107E-04-5.22366E-07-6.61744E-24
 -1        89 8.65138E-05-7.40431E-07 0.00000E+00
 -1        90 7.39679E-05-8.89000E-07-6.61744E-24
 -1        91 1.37409E-04-7.97842E-07 0.00000E+00
 -1        92 1.34063E-04-9.97342E-07 0.00000E+00
 -1        93 1.30637E-04-9.63673E-07 0.00000E+00
 -1        94 1.27270E-04-1.13386E-06 5.29396E-23
 -1        95 1.23932E-04-1.38127E-06-1.05879E-22
 -1        96 1.20570E-04-1.57535E-06 0.00000E+00
 -1        97 1.17198E-04-1.74145E-06 1.05879E-22
 -1        98 1.13827E-04-1.90981E-06 0.00000E+00
 -1        99 1.10463E-04-2.09937E-06 0.00000E+00
 -1       100 1.07114E-04-2.32617E-06 0.00000E+00
 -1       101 1.03747E-04-2.50465E-06 0.00000E+00
 -1       102 1.00336E-04-2.55419E-06 0.00000E+00
 -1       103 9.69794E-05-2.74816E-06 1.05879E-22
 -1       104 9.37911E-05-3.33211E-06 0.00000E+00
 -1       105 9.04266E-05-3.46995E-06 0.00000E+00
 -1       106 8.67754E-05 3.32610E-20 0.00000E+00
 -1       107 8.60810E-05 2.21004E-19 1.32349E-23
 -1       108 8.53874E-05 2.33093E-19 2.64698E-23
 -1       109 8.46915E-05 3.98786E-19 0.00000E+00
 -1       110 8.39956E-05 4.13943E-19-2.64698E-23
 -1       111 8.32992E-05 2.42940E-19 0.00000E+00
 -1       112 8.26027E-05 3.58293E-19 0.00000E+00
 -1       113 8.19062E-05 2.28949E-19 1.32349E-23
 -1       114 8.12097E-05-7.04552E-20 2.64698E-23
 -1       115 8.05133E-05 1.12574E-19 1.32349E-23
 -1       116 7.98170E-05 6.23893E-19 2.64698E-23
 -1       117 7.91212E-05 3.74632E-19 1.32349E-23
 -1       118 7.84254E-05 9.16208E-20 2.64698E-23
 -1       119 7.77325E-05 3.41074E-19 0.00000E+00
 -1       120 7.70386E-05 2.96678E-19-1.32349E-23
 -1       121 8.78211E-05-3.88800E-07 0.00000E+00
 -1       122 8.85368E-05-7.77171E-07 0.00000E+00
 -1       123 8.91935E-05-1.16558E-06 1.32349E-23
 -1       124 8.93792E-05-1.55406E-06-6.61744E-24
 -1       125 8.86841E-05-1.94286E-06 0.00000E+00
 -1       141 7.58255E-05 5.11256E-19 1.32349E-23
 -1       142 7.52836E-05 1.39579E-18 0.00000E+00
 -1       143 7.47422E-05 2.14167E-18 0.00000E+00
 -1       144 7.41993E-05 1.46160E-18 0.00000E+00
 -1       145 7.36564E-05 1.91206E-19 1.32349E-23
 -1       146 7.31131E-05 4.76105E-19 0.00000E+00
 -1       147 7.25698E-05 1.54853E-18 0.00000E+00
 -1       148 7.20266E-05 2.16122E-18-6.61744E-24
 -1       149 7.14833E-05 2.19602E-18 1.32349E-23
 -1       150 7.09403E-05 9.59071E-19 6.61744E-24
 -1       151 7.03974E-05-9.57981E-20 1.32349E-23
 -1       152 6.98556E-05 1.79579E-18-6.61744E-24
 -1       153 6.93140E-05 3.63573E-18 0.00000E+00
 -1       154 6.87782E-05 2.52212E-18 6.61744E-24
 -1       155 6.82404E-05 6.47309E-19 6.61744E-24
 -1       156 8.07467E-05-3.33427E-08 6.61744E-24
 -1       157 9.38579E-05-1.25880E-07-1.65436E-24
 -1       158 1.07599E-04-2.27124E-07-1.65436E-24
 -1       159 1.13876E-04-2.53837E-07 8.27181E-25
 -1       160 1.05735E-04-3.10527E-07 1.65436E-24
 -1       161 8.06372E-05-1.22338E-05 0.00000E+00
 -1       162 9.34230E-05-4.88260E-05-3.30872E-24
 -1       163 1.06183E-04-8.53491E-05 0.00000E+00
 -1       164 1.10399E-04-9.73754E-05 0.00000E+00
 -1       165 1.05451E-04-8.49858E-05 6.61744E-24
 -1       166 9.08015E-05-4.84753E-05 0.00000E+00
 -1       167 7.61294E-05-1.19108E-05-6.61744E-24
 -1       168 7.11190E-05 6.41980E-07-3.30872E-24
 -1       169 7.52725E-05-1.12111E-05 0.00000E+00
 -1       170 8.80066E-05-4.76510E-05 1.65436E-24
 -1       171 1.00780E-04-8.42051E-05 6.61744E-24
 -1       172 1.05058E-04-9.63987E-05 0.00000E+00
 -1       173 1.00191E-04-8.42126E-05-3.30872E-24
 -1       174 8.56037E-05-4.78450E-05 0.00000E+00
 -1       175 7.09648E-05-1.13498E-05 0.00000E+00
 -1       191 6.76708E-05 2.04219E-07 0.00000E+00
 -1       192 6.75127E-05 4.08646E-07 0.00000E+00
 -1       193 6.72599E-05 6.13115E-07 1.32349E-23
 -1       194 6.69151E-05 8.17570E-07 0.00000E+00
 -1       195 6.64811E-05 1.02196E-06 0.00000E+00
 -1       266 1.40775E-04-1.90785E-06 0.00000E+00
 -1       267 1.33792E-04-1.93676E-06 0.00000E+00
 -1       268 1.26808E-04-1.96757E-06-3.30872E-24
 -1       269 1.19824E-04-1.99285E-06 0.00000E+00
 -1       270 1.12841E-04-2.01803E-06 0.00000E+00
 -1       271 1.41928E-04 3.71328E-06 0.00000E+00
 -1       272 1.36171E-04 8.74600E-06 0.00000E+00
 -1       273 1.30659E-04 1.31476E-05 0.00000E+00
 -1       274 1.25416E-04 1.67887E-05 0.00000E+00
 -1       275 1.20495E-04 1.95797E-05 1.05879E-22
 -1       276 1.15917E-04 2.14564E-05 0.00000E+00
 -1       277 1.11695E-04 2.23880E-05 1.05879E-22
 -1       278 1.07828E-04 2.23777E-05-5.29396E-23
 -1       279 1.04301E-04 2.14625E-05 0.00000E+00
 -1       280 1.01087E-04 1.97126E-05 0.00000E+00
 -1       281 9.81493E-05 1.72279E-05 0.00000E+00
 -1       282 9.54406E-05 1.41355E-05 5.29396E-23
 -1       283 9.29048E-05 1.05840E-05 0.00000E+00
 -1       284 9.04926E-05 6.74354E-06 0.00000E+00
 -1       285 8.81215E-05 2.78395E-06 0.00000E+00
 -1       286 7.20510E-05-2.58152E-06-1.32349E-23
 -1       287 7.30270E-05-2.99966E-06-1.32349E-23
 -1       288 7.39999E-05-2.91778E-06-2.64698E-23
 -1       289 7.49825E-05-3.00164E-06 0.00000E+00
 -1       290 7.59655E-05-3.15512E-06 2.64698E-23
 -1       291 7.69504E-05-3.28530E-06 0.00000E+00
 -1       292 7.79355E-05-3.40538E-06-2.64698E-23
 -1       293 7.89209E-05-3.52812E-06 0.00000E+00
 -1       294 7.99063E-05-3.65418E-06 0.00000E+00
 -1       295 8.08914E-05-3.78441E-06-1.32349E-23
 -1       296 8.18762E-05-3.90071E-06 0.00000E+00
 -1       297 8.28588E-05-3.98435E-06 1.32349E-23
 -1       298 8.38411E-05-4.16535E-06 2.64698E-23
 -1       299 8.48124E-05-4.57818E-06 1.32349E-23
 -1       300 8.57874E-05-4.29018E-06 0.00000E+00
 -1       301 7.34226E-05-9.87292E-07 6.61744E-24
 -1       302 7.57993E-05-9.88882E-07 0.00000E+00
 -1       303 7.82430E-05-9.90349E-07 0.00000E+00
 -1       304 8.07381E-05-9.96345E-07 6.61744E-24
 -1       305 8.32692E-05-1.01122E-06-1.32349E-23
 -1       306 7.11445E-05-3.46103E-06-1.32349E-23
 -1       307 7.11003E-05-5.85358E-06 0.00000E+00
 -1       308 7.09999E-05-8.09352E-06-2.64698E-23
 -1       309 7.08214E-05-1.01343E-05 0.00000E+00
 -1       310 7.05505E-05-1.19287E-05 0.00000E+00
 -1       311 7.01705E-05-1.34325E-05 0.00000E+00
 -1       312 6.96661E-05-1.46042E-05 0.00000E+00
 -1       313 6.90229E-05-1.54051E-05 1.32349E-23
 -1       314 6.82275E-05-1.58000E-05 0.00000E+00
 -1       315 6.72680E-05-1.57571E-05 1.32349E-23
 -1       316 6.61337E-05-1.52485E-05 0.00000E+00
 -1       317 6.48160E-05-1.42504E-05 0.00000E+00
 -1       318 6.33072E-05-1.27435E-05 0.00000E+00
 -1       319 6.16047E-05-1.07116E-05 0.00000E+00
 -1       320 5.96997E-05-8.14604E-06 1.32349E-23
 -1       321 8.63025E-05 1.06041E-05 1.32349E-23
 -1       322 8.54728E-05 4.36102E-05 6.61744E-24
 -1       323 8.48442E-05 6.74186E-05-1.32349E-23
 -1       324 8.43875E-05 5.29172E-05-3.30872E-24
 -1       325 8.35127E-05 1.80466E-05 0.00000E+00
 -1       326 8.25650E-05-1.89517E-05 3.30872E-24
 -1       327 8.20469E-05-3.71311E-05 6.61744E-24
 -1       328 8.14704E-05-1.58250E-05-3.30872E-24
 -1       329 8.06445E-05 1.72469E-05-6.61744E-24
 -1       330 8.02042E-05 3.41812E-05 0.00000E+00
 -1       331 7.98496E-05 2.74890E-05 0.00000E+00
 -1       332 7.88453E-05-9.96834E-06 0.00000E+00
 -1       333 7.78572E-05-4.69026E-05 0.00000E+00
 -1       334 7.75093E-05-5.20315E-05 3.30872E-24
 -1       335 7.70510E-05-3.37400E-05 6.61744E-24
 -1       336 8.30804E-05-2.78234E-06-1.32349E-23
 -1       337 7.82837E-05-3.23368E-06-6.61744E-24
 -1       338 7.28240E-05-3.68791E-06 0.00000E+00
 -1       339 6.72162E-05-4.14138E-06 6.61744E-24
 -1       340 6.19762E-05-4.59327E-06-1.32349E-23
 -1       356 7.54218E-05 3.19549E-05 0.00000E+00
 -1       357 7.49766E-05 4.94525E-05 0.00000E+00
 -1       358 7.46279E-05 4.36825E-05 0.00000E+00
 -1       359 7.36490E-05 6.93689E-06 0.00000E+00
 -1       360 7.26708E-05-2.97658E-05-6.61744E-24
 -1       361 7.23219E-05-3.54096E-05 0.00000E+00
 -1       362 7.18720E-05-1.77973E-05 6.61744E-24
 -1       363 7.10588E-05 1.49249E-05 0.00000E+00
 -1       364 7.04986E-05 3.54670E-05 6.61744E-24
 -1       365 6.99719E-05 1.67281E-05-3.30872E-24
 -1       366 6.90281E-05-2.01734E-05 0.00000E+00
 -1       367 6.81938E-05-5.38492E-05 0.00000E+00
 -1       368 6.77594E-05-6.69970E-05 0.00000E+00
 -1       369 6.71270E-05-4.26188E-05 0.00000E+00
 -1       370 6.63140E-05-1.00554E-05 1.65436E-24
 -1       371 4.57289E-05-1.23341E-06 0.00000E+00
 -1       372 3.45941E-05-1.31358E-06 0.00000E+00
 -1       373 3.67834E-05-1.32276E-06 4.13590E-25
 -1       374 4.62429E-05-1.37213E-06-1.03398E-25
 -1       375 5.59630E-05-1.42322E-06 0.00000E+00
 -1       406 6.53484E-05 1.42976E-06-6.61744E-24
 -1       407 6.46573E-05 1.63334E-06 3.30872E-24
 -1       408 6.38921E-05 1.83676E-06 0.00000E+00
 -1       409 6.30576E-05 2.03970E-06-3.30872E-24
 -1       410 6.21584E-05 2.24169E-06 0.00000E+00
 -1       501 8.54557E-05 1.59586E-05-2.64698E-23
 -1       502 8.37795E-05 7.18925E-05-6.61744E-24
 -1       503 8.15239E-05 1.38458E-04-6.61744E-24
 -1       504 8.02599E-05 1.87376E-04 0.00000E+00
 -1       505 7.99241E-05 2.04494E-04 0.00000E+00
 -1       506 7.93398E-05 1.75876E-04 0.00000E+00
 -1       507 7.69883E-05 1.08104E-04-3.30872E-24
 -1       508 7.20239E-05 8.04721E-06 0.00000E+00
 -1       509 6.68777E-05-9.39887E-05 0.00000E+00
 -1       510 6.41330E-05-1.67692E-04-1.65436E-24
 -1       511 6.33006E-05-2.04239E-04 0.00000E+00
 -1       512 6.30678E-05-1.95056E-04 0.00000E+00
 -1       513 6.20434E-05-1.51671E-04-3.30872E-24
 -1       514 5.98367E-05-8.58514E-05-1.65436E-24
 -1       515 5.80224E-05-2.71339E-05 6.61744E-24
 -1       521 8.35096E-05-4.76001E-06 5.29396E-23
 -1       522 8.10317E-05-8.27251E-06 0.00000E+00
 -1       523 7.84405E-05-1.14731E-05 0.00000E+00
 -1       524 7.56838E-05-1.42713E-05-5.29396E-23
 -1       525 7.27426E-05-1.65803E-05 0.00000E+00
 -1       526 6.95918E-05-1.83360E-05 0.00000E+00
 -1       527 6.62159E-05-1.94925E-05-1.05879E-22
 -1       528 6.26059E-05-2.00266E-05 0.00000E+00
 -1       529 5.87611E-05-1.99365E-05 0.00000E+00
 -1       530 5.46894E-05-1.92430E-05-5.29396E-23
 -1       531 5.04065E-05-1.79883E-05-1.05879E-22
 -1       532 4.59376E-05-1.62341E-05-5.29396E-23
 -1       533 4.13116E-05-1.40606E-05-1.05879E-22
 -1       534 3.65775E-05-1.15577E-05 0.00000E+00
 -1       535 3.17579E-05-8.83823E-06 0.00000E+00
 -1       536 5.76818E-05-1.78540E-06 0.00000E+00
 -1       537 5.77609E-05 6.55553E-07-5.16988E-26
 -1       538 5.78412E-05 2.37886E-06-8.27181E-25
 -1       539 5.79243E-05 3.47179E-06 0.00000E+00
 -1       540 5.80081E-05 4.02085E-06 0.00000E+00
 -1       541 5.80924E-05 4.11210E-06 1.65436E-24
 -1       542 5.81768E-05 3.83116E-06 1.65436E-24
 -1       543 5.82612E-05 3.26329E-06 1.65436E-24
 -1       544 5.83454E-05 2.49349E-06 0.00000E+00
 -1       545 5.84296E-05 1.60653E-06 0.00000E+00
 -1       546 5.85137E-05 6.87101E-07 3.30872E-24
 -1       547 5.85979E-05-1.80131E-07 1.65436E-24
 -1       548 5.86821E-05-9.10480E-07 0.00000E+00
 -1       549 5.87663E-05-1.41912E-06 0.00000E+00
 -1       550 5.88507E-05-1.62097E-06-3.30872E-24
 -1       551 5.30693E-05-5.17720E-06-2.48154E-24
 -1       552 4.79869E-05-5.32272E-06-1.65436E-24
 -1       553 4.26022E-05-5.47052E-06 0.00000E+00
 -1       554 3.71517E-05-5.62275E-06 0.00000E+00
 -1       555 3.18719E-05-5.78125E-06-2.64698E-23
 -1       556 5.63152E-05-1.93196E-06 0.00000E+00
 -1       557 5.52979E-05 4.28530E-07 6.61744E-24
 -1       558 5.45332E-05 2.12171E-06 0.00000E+00
 -1       559 5.39912E-05 3.22518E-06 0.00000E+00
 -1       560 5.36421E-05 3.81655E-06 0.00000E+00
 -1       561 5.34560E-05 3.97398E-06-6.61744E-24
 -1       562 5.34035E-05 3.77572E-06 0.00000E+00
 -1       563 5.34549E-05 3.30013E-06 0.00000E+00
 -1       564 5.35809E-05 2.62565E-06 0.00000E+00
 -1       565 5.37521E-05 1.83073E-06 0.00000E+00
 -1       566 5.39389E-05 9.93894E-07 0.00000E+00
 -1       567 5.41121E-05 1.93648E-07 1.65436E-24
 -1       568 5.42424E-05-4.91509E-07 0.00000E+00
 -1       569 5.43006E-05-9.83177E-07 0.00000E+00
 -1       570 5.42575E-05-1.20301E-06-1.65436E-24
 -1       571 5.90711E-05-1.13908E-06-8.27181E-25
 -1       572 5.92115E-05-9.33810E-07-1.65436E-24
 -1       573 5.93530E-05-7.98740E-07 3.30872E-24
 -1       574 5.94950E-05-7.16690E-07 1.65436E-24
 -1       575 5.96372E-05-6.70416E-07 3.30872E-24
 -1       576 5.97794E-05-6.42563E-07 0.00000E+00
 -1       577 5.99217E-05-6.15772E-07 0.00000E+00
 -1       578 6.00640E-05-5.72668E-07-3.30872E-24
 -1       579 6.02063E-05-4.95873E-07 0.00000E+00
 -1       580 6.03486E-05-3.68009E-07 0.00000E+00
 -1       581 6.04908E-05-1.71701E-07-6.61744E-24
 -1       582 6.06330E-05 1.10418E-07 0.00000E+00
 -1       583 6.07752E-05 4.95696E-07 0.00000E+00
 -1       584 6.09172E-05 1.00130E-06 0.00000E+00
 -1       585 6.10590E-05 1.64433E-06 0.00000E+00
 -1       586 5.82410E-05-1.36988E-06 0.00000E+00
 -1       587 5.74414E-05-1.30902E-06 0.00000E+00
 -1       588 5.65801E-05-1.24837E-06 0.00000E+00
 -1       589 5.57034E-05-1.18826E-06-6.20385E-25
 -1       590 5.48575E-05-1.12920E-06 0.00000E+00
 -1       591 5.87244E-05-1.08569E-06-8.27181E-25
 -1       592 5.85301E-05-8.00344E-07 8.27181E-25
 -1       593 5.83525E-05-5.62239E-07 0.00000E+00
 -1       594 5.81877E-05-3.60245E-07 1.65436E-24
 -1       595 5.80320E-05-1.83177E-07 0.00000E+00
 -1       596 5.78814E-05-1.99470E-08 0.00000E+00
 -1       597 5.77318E-05 1.40520E-07 0.00000E+00
 -1       598 5.75791E-05 3.09285E-07 8.27181E-25
 -1       599 5.74191E-05 4.97413E-07 1.65436E-24
 -1       600 5.72477E-05 7.15959E-07 0.00000E+00
 -1       601 5.70607E-05 9.75978E-07 0.00000E+00
 -1       602 5.68542E-05 1.28854E-06 0.00000E+00
 -1       603 5.66240E-05 1.66470E-06 1.65436E-24
 -1       604 5.63664E-05 2.11561E-06 2.06795E-25
 -1       605 5.60775E-05 2.65234E-06 0.00000E+00
 -1       606 6.12516E-05 3.50276E-06 0.00000E+00
 -1       607 6.12994E-05 4.68739E-06 0.00000E+00
 -1       608 6.13461E-05 5.98711E-06 0.00000E+00
 -1       609 6.13921E-05 7.39364E-06-6.61744E-24
 -1       610 6.14379E-05 8.89869E-06 0.00000E+00
 -1       611 6.14835E-05 1.04938E-05 0.00000E+00
 -1       612 6.15289E-05 1.21705E-05 3.30872E-24
 -1       613 6.15741E-05 1.39203E-05 0.00000E+00
 -1       614 6.16193E-05 1.57348E-05 0.00000E+00
 -1       615 6.16643E-05 1.76055E-05 0.00000E+00
 -1       616 6.17093E-05 1.95240E-05 0.00000E+00
 -1       617 6.17542E-05 2.14816E-05 0.00000E+00
 -1       618 6.17990E-05 2.34701E-05-1.65436E-24
 -1       619 6.18436E-05 2.54809E-05-8.27181E-25
 -1       620 6.18881E-05 2.75057E-05 0.00000E+00
 -1       621 6.02167E-05 2.58232E-06 3.30872E-24
 -1       622 5.92486E-05 2.72460E-06 0.00000E+00
 -1       623 5.83074E-05 2.86685E-06 3.30872E-24
 -1       624 5.74044E-05 3.00873E-06 0.00000E+00
 -1       625 5.65510E-05 3.14995E-06 1.65436E-24
 -1       626 6.09085E-05 3.56857E-06 0.00000E+00
 -1       627 6.05679E-05 4.82467E-06 0.00000E+00
 -1       628 6.01836E-05 6.19648E-06 0.00000E+00
 -1       629 5.97607E-05 7.67042E-06 0.00000E+00
 -1       630 5.93045E-05 9.23288E-06 6.61744E-24
 -1       631 5.88202E-05 1.08701E-05 0.00000E+00
 -1       632 5.83128E-05 1.25682E-05 0.00000E+00
 -1       633 5.77877E-05 1.43135E-05-3.30872E-24
 -1       634 5.72500E-05 1.60922E-05 0.00000E+00
 -1       635 5.67049E-05 1.78905E-05 0.00000E+00
 -1       636 5.61576E-05 1.96946E-05-3.30872E-24
 -1       637 5.56132E-05 2.14907E-05-1.65436E-24
 -1       638 5.50769E-05 2.32650E-05 3.30872E-24
 -1       639 5.45534E-05 2.50037E-05-8.27181E-25
 -1       640 5.40475E-05 2.66930E-05-8.27181E-25
 -1       641 6.19220E-05 3.15809E-05 4.13590E-25
 -1       642 6.19100E-05 3.37289E-05-1.29247E-26
 -1       643 6.18979E-05 3.59668E-05 0.00000E+00
 -1       644 6.18853E-05 3.82814E-05 1.03398E-25
 -1       645 6.18725E-05 4.06529E-05-2.06795E-25
 -1       646 6.18596E-05 4.30613E-05 1.03398E-25
 -1       647 6.18467E-05 4.54837E-05 0.00000E+00
 -1       648 6.18338E-05 4.78968E-05-2.06795E-25
 -1       649 6.18209E-05 5.02783E-05 0.00000E+00
 -1       650 6.18081E-05 5.26060E-05 0.00000E+00
 -1       651 6.17954E-05 5.48622E-05 0.00000E+00
 -1       652 6.17826E-05 5.70295E-05 0.00000E+00
 -1       653 6.17700E-05 5.90982E-05 0.00000E+00
 -1       654 6.17564E-05 6.10587E-05 8.27181E-25
 -1       655 6.17434E-05 6.29109E-05 0.00000E+00
 -1       656 6.01457E-05 2.93388E-05 0.00000E+00
 -1       657 5.86623E-05 2.91325E-05-1.65436E-24
 -1       658 5.73723E-05 2.89268E-05 3.30872E-24
 -1       659 5.61657E-05 2.87213E-05 1.65436E-24
 -1       660 5.49320E-05 2.85153E-05-3.30872E-24
 -1       661 6.13076E-05 3.16237E-05 0.00000E+00
 -1       662 6.06633E-05 3.37792E-05 1.65436E-24
 -1       663 5.99992E-05 3.59873E-05 0.00000E+00
 -1       664 5.93207E-05 3.82354E-05 0.00000E+00
 -1       665 5.86322E-05 4.05102E-05 3.30872E-24
 -1       666 5.79388E-05 4.27986E-05 1.65436E-24
 -1       667 5.72450E-05 4.50877E-05 0.00000E+00
 -1       668 5.65560E-05 4.73646E-05-1.65436E-24
 -1       669 5.58765E-05 4.96161E-05-3.30872E-24
 -1       670 5.52114E-05 5.18293E-05 0.00000E+00
 -1       671 5.45656E-05 5.39912E-05 0.00000E+00
 -1       672 5.39440E-05 5.60885E-05 0.00000E+00
 -1       673 5.33514E-05 5.81082E-05-3.30872E-24
 -1       674 5.27919E-05 6.00368E-05-1.65436E-24
 -1       675 5.22717E-05 6.18612E-05-1.65436E-24
 -1       676 6.00337E-05 6.44722E-05 0.00000E+00
 -1       677 5.83494E-05 6.42890E-05 0.00000E+00
 -1       678 5.66767E-05 6.41061E-05-6.61744E-24
 -1       679 5.50216E-05 6.39239E-05 0.00000E+00
 -1       680 5.33898E-05 6.37417E-05 0.00000E+00
 -1       716 2.71918E-05-6.72060E-05-8.07794E-28
 -1       717 2.71838E-05-6.31242E-05-8.07794E-28
 -1       718 2.71758E-05-5.90423E-05-3.23117E-27
 -1       719 2.71678E-05-5.49605E-05 3.23117E-27
 -1       720 2.71598E-05-5.08786E-05 0.00000E+00
 -1       721 2.71518E-05-4.67967E-05 0.00000E+00
 -1       722 2.71437E-05-4.27149E-05 0.00000E+00
 -1       723 2.71356E-05-3.86330E-05-5.16988E-26
 -1       724 2.71274E-05-3.45512E-05 0.00000E+00
 -1       725 2.71189E-05-3.04693E-05 0.00000E+00
 -1       726 2.71101E-05-2.63875E-05 0.00000E+00
 -1       727 2.70998E-05-2.23056E-05 0.00000E+00
 -1       728 2.70892E-05-1.82238E-05 3.30872E-24
 -1       729 2.70705E-05-1.41419E-05-3.30872E-24
 -1       730 2.70546E-05-1.00601E-05 0.00000E+00
 -1       766 2.27122E-05-6.03764E-06 0.00000E+00
 -1       767 1.80250E-05-6.05617E-06 0.00000E+00
 -1       768 1.31761E-05-6.07813E-06 0.00000E+00
 -1       769 8.40648E-06-6.09166E-06 0.00000E+00
 -1       770 3.96180E-06-6.10344E-06 0.00000E+00
 -1       771 2.42833E-05-2.84274E-06 0.00000E+00
 -1       772 2.17965E-05-3.45122E-07-5.29396E-23
 -1       773 1.95276E-05 1.56986E-06 0.00000E+00
 -1       774 1.74559E-05 2.95863E-06-2.64698E-23
 -1       775 1.55605E-05 3.87830E-06 0.00000E+00
 -1       776 1.38196E-05 4.38699E-06 0.00000E+00
 -1       777 1.22111E-05 4.54331E-06 0.00000E+00
 -1       778 1.07126E-05 4.40661E-06 2.64698E-23
 -1       779 9.30180E-06 4.03661E-06-5.29396E-23
 -1       780 7.95596E-06 3.49353E-06-2.64698E-23
 -1       781 6.65248E-06 2.83779E-06 0.00000E+00
 -1       782 5.36877E-06 2.13014E-06-2.64698E-23
 -1       783 4.08225E-06 1.43134E-06-5.29396E-23
 -1       784 2.77124E-06 8.02397E-07 0.00000E+00
 -1       785 1.41372E-06 3.04112E-07 2.64698E-23
 -1       786 5.41861E-05-6.15370E-07 0.00000E+00
 -1       787 5.42903E-05-2.58320E-07 0.00000E+00
 -1       788 5.43943E-05 1.37454E-08-3.30872E-24
 -1       789 5.44992E-05 2.17364E-07 1.65436E-24
 -1       790 5.46043E-05 3.68982E-07-3.30872E-24
 -1       791 5.47096E-05 4.84994E-07-1.65436E-24
 -1       792 5.48148E-05 5.81745E-07 0.00000E+00
 -1       793 5.49202E-05 6.75558E-07 1.65436E-24
 -1       794 5.50255E-05 7.82759E-07 0.00000E+00
 -1       795 5.51308E-05 9.19681E-07 0.00000E+00
 -1       796 5.52361E-05 1.10270E-06 3.30872E-24
 -1       797 5.53413E-05 1.34824E-06-1.65436E-24
 -1       798 5.54464E-05 1.67280E-06 0.00000E+00
 -1       799 5.55512E-05 2.09297E-06 0.00000E+00
 -1       800 5.56559E-05 2.62549E-06 0.00000E+00
 -1       801 4.95912E-05-8.59262E-07 6.61744E-24
 -1       802 3.96420E-05-6.68841E-07 1.65436E-24
 -1       803 2.69756E-05-5.05826E-07 0.00000E+00
 -1       804 1.43245E-05-3.49326E-07 1.65436E-24
 -1       805 4.42024E-06-1.65086E-07 1.32349E-23
 -1       806 5.38000E-05-6.68779E-07 0.00000E+00
 -1       807 5.35276E-05-3.16846E-07-1.65436E-24
 -1       808 5.32702E-05-7.83556E-09-3.30872E-24
 -1       809 5.30246E-05 2.68114E-07-1.65436E-24
 -1       810 5.27876E-05 5.20828E-07-3.30872E-24
 -1       811 5.25555E-05 7.60094E-07-1.65436E-24
 -1       812 5.23247E-05 9.95686E-07 0.00000E+00
 -1       813 5.20917E-05 1.23737E-06 0.00000E+00
 -1       814 5.18527E-05 1.49492E-06 3.30872E-24
 -1       815 5.16040E-05 1.77811E-06 0.00000E+00
 -1       816 5.13421E-05 2.09667E-06-1.65436E-24
 -1       817 5.10633E-05 2.46039E-06-1.65436E-24
 -1       818 5.07639E-05 2.87901E-06 1.65436E-24
 -1       819 5.04405E-05 3.36221E-06-1.24077E-24
 -1       820 5.00896E-05 3.91968E-06 0.00000E+00
 -1       821 5.56296E-05 4.12623E-06 1.65436E-24
 -1       822 5.54929E-05 5.15831E-06 0.00000E+00
 -1       823 5.53562E-05 6.36343E-06-3.30872E-24
 -1       824 5.52181E-05 7.72126E-06 1.65436E-24
 -1       825 5.50797E-05 9.21134E-06 0.00000E+00
 -1       826 5.49409E-05 1.08129E-05 0.00000E+00
 -1       827 5.48019E-05 1.25050E-05-3.30872E-24
 -1       828 5.46627E-05 1.42667E-05-1.65436E-24
 -1       829 5.45234E-05 1.60768E-05 0.00000E+00
 -1       830 5.43842E-05 1.79141E-05 1.65436E-24
 -1       831 5.42449E-05 1.97573E-05 0.00000E+00
 -1       832 5.41059E-05 2.15851E-05 0.00000E+00
 -1       833 5.39671E-05 2.33763E-05 0.00000E+00
 -1       834 5.38295E-05 2.51097E-05 1.65436E-24
 -1       835 5.36919E-05 2.67641E-05-1.65436E-24
 -1       836 5.48876E-05 3.49653E-06 0.00000E+00
 -1       837 5.38639E-05 3.71271E-06 3.30872E-24
 -1       838 5.27606E-05 3.92856E-06 6.61744E-24
 -1       839 5.16513E-05 4.14361E-06 1.65436E-24
 -1       840 5.06096E-05 4.35864E-06 0.00000E+00
 -1       841 5.54699E-05 4.19813E-06-1.65436E-24
 -1       842 5.50617E-05 5.42743E-06-8.27181E-25
 -1       843 5.45723E-05 6.87247E-06 0.00000E+00
 -1       844 5.40400E-05 8.43119E-06 0.00000E+00
 -1       845 5.34788E-05 1.00667E-05 0.00000E+00
 -1       846 5.29025E-05 1.17424E-05-8.27181E-25
 -1       847 5.23163E-05 1.34443E-05 1.65436E-24
 -1       848 5.17253E-05 1.51588E-05 0.00000E+00
 -1       849 5.11321E-05 1.68791E-05 1.65436E-24
 -1       850 5.05394E-05 1.85983E-05 0.00000E+00
 -1       851 4.99496E-05 2.03094E-05 1.65436E-24
 -1       852 4.93654E-05 2.20051E-05 0.00000E+00
 -1       853 4.87930E-05 2.36695E-05 8.27181E-25
 -1       854 4.82372E-05 2.52863E-05 0.00000E+00
 -1       855 4.77158E-05 2.68132E-05-8.27181E-25
 -1       856 5.34579E-05 2.99456E-05 0.00000E+00
 -1       857 5.33481E-05 3.17912E-05-8.27181E-25
 -1       858 5.32379E-05 3.38255E-05 3.30872E-24
 -1       859 5.31265E-05 3.60180E-05-1.65436E-24
 -1       860 5.30147E-05 3.83385E-05 0.00000E+00
 -1       861 5.29025E-05 4.07563E-05 0.00000E+00
 -1       862 5.27902E-05 4.32410E-05 3.30872E-24
 -1       863 5.26777E-05 4.57620E-05-1.65436E-24
 -1       864 5.25652E-05 4.82886E-05 0.00000E+00
 -1       865 5.24527E-05 5.07902E-05-1.65436E-24
 -1       866 5.23404E-05 5.32362E-05-3.30872E-24
 -1       867 5.22284E-05 5.55961E-05 1.65436E-24
 -1       868 5.21167E-05 5.78393E-05-3.30872E-24
 -1       869 5.20056E-05 5.99355E-05 0.00000E+00
 -1       870 5.18950E-05 6.18541E-05 0.00000E+00
 -1       871 5.23210E-05 2.83029E-05 0.00000E+00
 -1       872 5.12422E-05 2.82851E-05 0.00000E+00
 -1       873 5.02604E-05 2.82669E-05 0.00000E+00
 -1       874 4.93096E-05 2.82480E-05 0.00000E+00
 -1       875 4.83239E-05 2.82283E-05 0.00000E+00
 -1       876 5.31516E-05 2.99839E-05 3.30872E-24
 -1       877 5.26868E-05 3.18175E-05 0.00000E+00
 -1       878 5.21675E-05 3.37956E-05 0.00000E+00
 -1       879 5.16027E-05 3.58973E-05 0.00000E+00
 -1       880 5.09995E-05 3.81010E-05 0.00000E+00
 -1       881 5.03660E-05 4.03858E-05-3.30872E-24
 -1       882 4.97098E-05 4.27307E-05-6.61744E-24
 -1       883 4.90390E-05 4.51146E-05 0.00000E+00
 -1       884 4.83612E-05 4.75168E-05 0.00000E+00
 -1       885 4.76844E-05 4.99163E-05 0.00000E+00
 -1       886 4.70163E-05 5.22923E-05 6.61744E-24
 -1       887 4.63649E-05 5.46239E-05 0.00000E+00
 -1       888 4.57378E-05 5.68901E-05 6.61744E-24
 -1       889 4.51420E-05 5.90696E-05 0.00000E+00
 -1       890 4.45867E-05 6.11417E-05 0.00000E+00
 -1       891 5.03944E-05 6.34851E-05 3.30872E-24
 -1       892 4.91979E-05 6.34040E-05 8.27181E-25
 -1       893 4.80826E-05 6.33230E-05 0.00000E+00
 -1       894 4.69331E-05 6.32421E-05-8.27181E-25
 -1       895 4.56339E-05 6.31610E-05 1.65436E-24
 -1       926 8.19719E-08-2.89342E-06 0.00000E+00
 -1       927 7.88450E-08-4.14826E-07 0.00000E+00
 -1       928 7.70550E-08 1.40136E-06-5.16988E-26
 -1       929 7.62204E-08 2.63227E-06 1.29247E-26
 -1       930 7.58669E-08 3.35538E-06 2.58494E-26
 -1       931 7.57260E-08 3.64816E-06 0.00000E+00
 -1       932 7.56116E-08 3.58830E-06-5.16988E-26
 -1       933 7.53750E-08 3.25349E-06 5.16988E-26
 -1       934 7.49895E-08 2.72159E-06 0.00000E+00
 -1       935 7.42021E-08 2.07041E-06-2.06795E-25
 -1       936 7.31931E-08 1.37783E-06-8.27181E-25
 -1       937 7.06181E-08 7.21720E-07-8.27181E-25
 -1       938 6.78831E-08 1.79606E-07 0.00000E+00
 -1       939 5.73034E-08-1.70964E-07 0.00000E+00
 -1       940 4.94411E-08-2.55668E-07-1.32349E-23
 -1       956 4.95585E-05 5.46385E-06 0.00000E+00
 -1       957 4.94050E-05 6.52819E-06 8.27181E-25
 -1       958 4.92508E-05 7.73659E-06-1.65436E-24
 -1       959 4.90962E-05 9.07081E-06 0.00000E+00
 -1       960 4.89413E-05 1.05126E-05 3.30872E-24
 -1       961 4.87862E-05 1.20435E-05 0.00000E+00
 -1       962 4.86310E-05 1.36452E-05 0.00000E+00
 -1       963 4.84758E-05 1.52992E-05-1.65436E-24
 -1       964 4.83204E-05 1.69872E-05 0.00000E+00
 -1       965 4.81651E-05 1.86905E-05 0.00000E+00
 -1       966 4.80097E-05 2.03909E-05-6.61744E-24
 -1       967 4.78545E-05 2.20699E-05-3.30872E-24
 -1       968 4.76994E-05 2.37091E-05 6.61744E-24
 -1       969 4.75446E-05 2.52900E-05 0.00000E+00
 -1       970 4.73903E-05 2.67944E-05 0.00000E+00
 -1       971 4.70451E-05 2.96544E-05 0.00000E+00
 -1       972 4.68477E-05 3.13351E-05-1.65436E-24
 -1       973 4.66498E-05 3.32187E-05 0.00000E+00
 -1       974 4.64511E-05 3.52766E-05 3.30872E-24
 -1       975 4.62520E-05 3.74803E-05 0.00000E+00
 -1       976 4.60525E-05 3.98009E-05-3.30872E-24
 -1       977 4.58528E-05 4.22098E-05 6.61744E-24
 -1       978 4.56529E-05 4.46778E-05 3.30872E-24
 -1       979 4.54530E-05 4.71762E-05 0.00000E+00
 -1       980 4.52531E-05 4.96758E-05-3.30872E-24
 -1       981 4.50534E-05 5.21478E-05 0.00000E+00
 -1       982 4.48539E-05 5.45632E-05 0.00000E+00
 -1       983 4.46549E-05 5.68931E-05 0.00000E+00
 -1       984 4.44570E-05 5.91085E-05 0.00000E+00
 -1       985 4.42597E-05 6.11808E-05 0.00000E+00
 -3
    1PSTEP                        36          18           1          
  100CL  118 1.000000000         608                     0   18           1
 -4  STRESS      6    1
 -5  SXX         1    4    1    1
 -5  SYY         1    4    2    2
 -5  SZZ         1    4    3    3
 -5  SXY         1    4    1    2
 -5  SYZ         1    4    2    3
 -5  SZX         1    4    3    1
 -1         1-3.56573E+06-1.43781E+06-8.34571E+05-1.31449E+06 1.59586E-09-6.59687E-09
 -1         2-5.17074E+06-1.25559E+06-7.02316E+05-8.87161E+05 1.62157E-08-4.67602E-09
 -1         3-1.00444E+06-6.62233E+05-1.03014E+05 1.11257E+05 1.88156E-08 3.62459E-09
 -1         4-7.88016E+05-2.83813E+04 3.05366E+04-1.81343E+04-1.50769E-08-1.22327E-09
 -1         5-8.12443E+05 1.78176E+04-2.73071E+05-8.11106E+03 4.23424E-08 1.25301E-08
 -1         8-2.68144E+06-1.21204E+06-3.67356E+05-1.60663E+06-1.06714E-10 5.70435E-09
 -1         9-4.72070E+05-3.09024E+04 4.58024E+04-1.92778E+05 1.74696E-09 7.97445E-10
 -1        10-1.08746E+06-7.70587E+05-1.23941E+05-4.42112E+05 3.69280E-08-7.14077E-09
 -1        11-2.31180E+05 1.76791E+05 5.96375E+04 7.47160E+04 3.52350E-09 1.40017E-08
 -1        12-1.14389E+05 2.12706E+05-9.55207E+04 4.47570E+04 4.15604E-08-1.82437E-09
 -1        15 4.51620E+03 2.44233E+03 1.40163E+04 1.39048E+01-3.31454E-10 2.76473E-09
 -1        16-3.81968E+06-1.00962E+06-2.88230E+05-1.31957E+06-1.89596E-09-1.05429E-08
 -1        17-1.83919E+05-3.07994E+05 1.88081E+04-3.02235E+05-4.71361E-09 3.48518E-09
 -1        18 8.39315E+04 2.75908E+04-1.31188E+04-8.97133E+04-9.96806E-11 4.21787E-09
 -1        19 1.68250E+05 2.04193E+05-2.79977E+02 7.69983E+03 1.34969E-10-5.83896E-09
 -1        20 7.55679E+04-1.26046E+05-2.92105E+04 5.90683E+04 5.35147E-09-3.62525E-09
 -1        21-9.77652E+03-2.00750E+05 5.66110E+04-1.67434E+03 1.89810E-08 3.83595E-09
 -1        23 9.55856E-01 4.55366E-01 1.75109E+01 1.96179E-03-9.50551E-09 2.57595E-09
 -1        24-2.10513E+06-5.75194E+05 6.27202E+04-9.27741E+05-8.38045E-09 1.02009E-08
 -1        25 2.73719E+04 1.39239E+05 4.67663E+04-4.27105E+05-3.58341E-10 7.50151E-10
 -1        26 1.60993E+03 1.40631E+05 9.72283E+01-2.12049E+04 3.75875E-10 3.58771E-09
 -1        27-2.98504E+04-9.30784E+04-4.14856E+04 1.03144E+05 3.60827E-09-3.36149E-09
 -1        28-1.16925E+04-1.55657E+05-5.53707E+03 6.00726E+04 1.63773E-08 3.10963E-09
 -1        31 6.26146E+03 7.14338E+03 1.04530E+04-5.88983E+02 5.94504E-09-3.08626E-09
 -1        32-7.65310E+05 2.80787E+05 4.86747E+05-9.39335E+05 3.34106E-09 2.78427E-09
 -1        33-1.67103E+05 1.68875E+05 5.19248E+04-5.19722E+04-1.55577E-09 3.14564E-09
 -1        34-2.01107E+05-7.26350E+03 1.89008E+04 7.80136E+04-3.79309E-10-1.17122E-08
 -1        35-3.09899E+04-4.18331E+04 2.27094E+03 9.79087E+04 5.95398E-09-3.43425E-09
 -1        36-8.06582E+06 2.75401E+05-6.31184E+05 2.84955E-07-8.23447E-09 1.10012E-08
 -1        37-8.34036E+06-3.18567E+05-4.47685E+05-1.19147E-06-1.29747E-08 8.92760E-09
 -1        38-8.17126E+06 4.32732E+04-1.62990E+05-5.92568E-07 8.23818E-10 1.97688E-08
 -1        39-8.21622E+06-5.00603E+04-1.02654E+05-2.99221E-07 1.82139E-09 1.29512E-09
 -1        40-8.18853E+06 6.78843E+03-4.17815E+04 2.21180E-07-1.38087E-08 6.44650E-09
 -1        41-8.19566E+06-7.96030E+03-2.50226E+04-3.84192E-07-3.19972E-08 1.12982E-08
 -1        42-8.19135E+06 1.17136E+03-1.22833E+04 1.34377E-06-1.21759E-08 2.27055E-09
 -1        43-8.19261E+06-2.10972E+03-9.95002E+03 4.76148E-07-3.45696E-08-2.14064E-08
 -1        44-8.19148E+06 9.38194E+02-1.02452E+04-6.78748E-07-2.95582E-10-2.32467E-09
 -1        45-8.19458E+06-5.96059E+03-1.90992E+04-6.81867E-07-1.74745E-08-3.31147E-09
 -1        46-8.18944E+06 5.02192E+03-3.11347E+04 1.96872E-07-2.17851E-09 6.42285E-09
 -1        47-8.20971E+06-3.69645E+04-7.59273E+04 1.49852E-06-2.00084E-08-8.64020E-09
 -1        48-8.17670E+06 3.19418E+04-1.20402E+05 7.00897E-07-1.54567E-08-2.14641E-09
 -1        49-8.30134E+06-2.35151E+05-3.30511E+05-1.67123E-06-1.38284E-08 1.41517E-09
 -1        50-8.09898E+06 2.03254E+05-4.66259E+05 1.10733E-07-3.65535E-08 1.89175E-09
 -1        51 1.19844E+04-7.35373E+05 2.70478E+04-2.02240E+06 5.82077E-11 5.93718E-09
 -1        52 1.88653E+04-7.50197E+05 2.70908E+04-2.23978E+06 3.20142E-10-1.16415E-09
 -1        53 2.50932E+04-7.77844E+05 3.52172E+04-2.01667E+06 4.36557E-10-2.67755E-09
 -1        54 6.10537E+04-7.81258E+05 7.15213E+04-2.24550E+06 1.01863E-10 2.02999E-09
 -1        55 1.19617E+05-8.09851E+05 1.39656E+05-2.01494E+06 3.20142E-10 3.24508E-09
 -1        56-6.10600E+06-5.67785E+05-6.97610E+05-1.72829E+06-4.46744E-09-1.12923E-08
 -1        57-2.94872E+06-1.54753E+06-1.53351E+04-2.92057E+06-4.06362E-09-1.47556E-08
 -1        58-5.70248E+06-5.98839E+04-1.18966E+05-9.31520E+05-2.19443E-08-1.59926E-08
 -1        59-3.63974E+06-1.77837E+06 3.65247E+03-3.87738E+06-3.10997E-08-2.38613E-08
 -1        60-5.73621E+06-9.16530E+04-5.59385E+04-9.54946E+05 6.76664E-09 2.35514E-08
 -1        61-2.82300E+06-1.39501E+06 2.39623E+05-2.84855E+06-3.44335E-08 2.05264E-08
 -1        62-6.17042E+06-7.07405E+05-2.97342E+05-1.75949E+06 5.54428E-09-3.16286E-08
 -1        63-2.84587E+06-2.96379E+05 4.24029E+05-1.03892E+06-4.53510E-08-1.36079E-08
 -1        64-5.44662E+06-1.37975E+06-2.84870E+05-2.51688E+06-6.91070E-08 1.25874E-08
 -1        65-5.19279E+06 8.61948E+05 2.20461E+05-3.44205E+05 3.02971E-08 1.00717E-08
 -1        66-4.16129E+06-1.61326E+06-4.39215E+04-2.67836E+06 1.03391E-08 5.37621E-08
 -1        67-6.67282E+06 1.25310E+06 1.05277E+03-4.32896E+05 4.82692E-08 1.08259E-08
 -1        68-4.21852E+06-1.59547E+06-1.36479E+05-2.68139E+06-1.22527E-08 1.25078E-08
 -1        69-5.07048E+06 6.72546E+05-9.58687E+03-3.29350E+05-7.77654E-08 3.46845E-08
 -1        70-5.47990E+06-1.23266E+06-7.28760E+05-2.49921E+06-6.07106E-08 3.44880E-09
 -1        86-1.10313E+05-2.71914E+05 2.37556E+05 5.73310E+04 1.53523E-08 1.13314E-08
 -1        87 1.32669E+05-9.47711E+04 1.87730E+05-2.46181E+05 2.58733E-08-3.64878E-10
 -1        88-1.90105E+04-1.92826E+05 7.74647E+04 5.97049E+04 2.11694E-08-8.41413E-09
 -1        89 5.51019E+04-1.23619E+05 8.69516E+04-2.45154E+05 3.11912E-08-1.35697E-08
 -1        90-3.35120E+04-2.42487E+05 5.94557E+04 5.62948E+04 4.83669E-09-4.11546E-09
 -1        91-7.39600E+06-8.53388E+05-4.73258E+05-2.85608E+06 1.92813E-08-1.23982E-08
 -1        92-7.63782E+06-1.30007E+06-3.29157E+05-2.78207E+06 6.74190E-08 3.34439E-08
 -1        93-7.48628E+06-1.03095E+06-1.10565E+05-2.83030E+06 3.82449E-05-1.42991E-05
 -1        94-7.52882E+06-1.09748E+06-6.92991E+04-2.81474E+06 7.63143E-05-2.87110E-05
 -1        95-7.50389E+06-1.05587E+06-2.58588E+04-2.82298E+06 2.07525E-05-7.83390E-06
 -1        96-7.50922E+06-1.06766E+06-1.56687E+04-2.82182E+06-3.48129E-05 1.30904E-05
 -1        97-7.50558E+06-1.06073E+06-7.54694E+03-2.82311E+06-6.45841E-06 2.43978E-06
 -1        98-7.50705E+06-1.06355E+06-7.34654E+03-2.82226E+06 2.19478E-05-8.23708E-06
 -1        99-7.50601E+06-1.05998E+06-8.89037E+03-2.82251E+06-1.56436E-05 5.89242E-06
 -1       100-7.51116E+06-1.06847E+06-1.98664E+04-2.82052E+06-5.31870E-05 1.99954E-05
 -1       101-7.50155E+06-1.05581E+06-3.33716E+04-2.82488E+06 2.98532E-05-1.12715E-05
 -1       102-7.53242E+06-1.11148E+06-8.98712E+04-2.81610E+06 1.12961E-04-4.25380E-05
 -1       103-7.48514E+06-1.01703E+06-1.43515E+05-2.82708E+06 5.65641E-05-2.11180E-05
 -1       104-7.68720E+06-1.36078E+06-4.27265E+05-2.75794E+06 3.13321E-08 1.13068E-07
 -1       105-7.34808E+06-8.06620E+05-6.14238E+05-2.88358E+06-5.32309E-08 3.07627E-08
 -1       106-1.97557E+06 3.21823E+04-7.41249E+04-5.45756E-07 1.19110E-08 4.32919E-09
 -1       107-2.00762E+06-3.72468E+04-5.24948E+04 1.48516E-07-3.50367E-09-3.85626E-10
 -1       108-1.98796E+06 5.05972E+03-1.91826E+04-9.64615E-07 1.42993E-09-1.20326E-09
 -1       109-1.99315E+06-5.85592E+03-1.20926E+04 6.79704E-07-1.57085E-09-5.66592E-09
 -1       110-1.99000E+06 7.95356E+02-4.96703E+03 4.53467E-07 1.59636E-09-2.88560E-09
 -1       111-1.99076E+06-9.41585E+02-3.03255E+03-6.14172E-07 9.08663E-10 1.77897E-09
 -1       112-1.99033E+06 1.46112E+02-1.60233E+03 4.24037E-07 1.03399E-09 3.14458E-10
 -1       113-1.99044E+06-3.14970E+02-1.50370E+03 7.49219E-08 3.60322E-09 7.04956E-09
 -1       114-1.99032E+06 1.68829E+02-1.80304E+03 6.93137E-07-5.13054E-09 1.41216E-09
 -1       115-1.99086E+06-1.13639E+03-3.61445E+03 2.96790E-07-4.09042E-09-3.54021E-09
 -1       116-1.98991E+06 9.67417E+02-6.01316E+03-2.63970E-07-5.95095E-09-4.01633E-09
 -1       117-1.99378E+06-7.13142E+03-1.47103E+04 7.08260E-07-6.57393E-09-2.50930E-09
 -1       118-1.98742E+06 6.16298E+03-2.33564E+04 1.17796E-07-6.04579E-09-4.29463E-09
 -1       119-2.01141E+06-4.53690E+04-6.39381E+04-1.98390E-06-1.32356E-09-2.97950E-09
 -1       120-1.97233E+06 3.92012E+04-9.02815E+04 6.29269E-07-2.71435E-09 5.51881E-09
 -1       121-1.12404E+03-1.10973E+06 4.55499E+03 3.80373E+04 8.93351E-10 1.41426E-09
 -1       122 2.13554E+03-1.10789E+06 4.36779E+03 2.22535E+05 1.99952E-09 5.69889E-09
 -1       123-5.24171E+02-1.10933E+06 4.15993E+03 3.80154E+04 5.47971E-10 3.42880E-09
 -1       124 4.23144E+03-1.10478E+06 8.75074E+03 2.21151E+05 1.18689E-10-1.38343E-08
 -1       125-4.20425E+03-1.11094E+06 1.21364E+04 3.94205E+04-3.10501E-09 2.08274E-09
 -1       141-1.54281E+06 2.23961E+04-5.16034E+04-1.53619E-07-1.01869E-08 4.50746E-09
 -1       142-1.56510E+06-2.59217E+04-3.65552E+04-3.86557E-07-9.39082E-09-1.08957E-09
 -1       143-1.55143E+06 3.52192E+03-1.33869E+04-1.05278E-07-3.22363E-09-1.79080E-09
 -1       144-1.55504E+06-4.08087E+03-8.48641E+03 3.05662E-07 3.95769E-09 3.07409E-10
 -1       145-1.55285E+06 5.58319E+02-3.58822E+03 4.79173E-07 1.68490E-09-3.36684E-09
 -1       146-1.55340E+06-6.91949E+02-2.38874E+03-1.31823E-06 1.16870E-09-6.88237E-09
 -1       147-1.55307E+06 1.33543E+02-1.63461E+03-1.20136E-08 2.08068E-10 1.43173E-09
 -1       148-1.55329E+06-4.58404E+02-2.19034E+03-3.71497E-07-8.85638E-10 2.87278E-09
 -1       149-1.55296E+06 3.24819E+02-3.32583E+03 8.64172E-09 5.41091E-11-2.41903E-09
 -1       150-1.55428E+06-2.33228E+03-7.29136E+03 3.49609E-07 4.15324E-09-2.73030E-09
 -1       151-1.55209E+06 2.00720E+03-1.24015E+04 6.43492E-07-1.44753E-09 3.04863E-09
 -1       152-1.56035E+06-1.48202E+04-3.05363E+04 7.31981E-07-2.24804E-09-8.94943E-10
 -1       153-1.54690E+06 1.28114E+04-4.85408E+04 5.53875E-07 1.27283E-08 6.19184E-09
 -1       154-1.59700E+06-9.43121E+04-1.32919E+05-1.13369E-06 5.31756E-09-3.02316E-09
 -1       155-1.51550E+06 8.14972E+04-1.87616E+05-7.43225E-07 2.56185E-08 4.29281E-10
 -1       156-3.95542E+04-6.67542E+04 7.85636E+04-8.06583E+03-5.79530E-09-6.06491E-10
 -1       157 4.30010E+04 6.94243E+04 7.57880E+04 3.03906E+04-3.25235E-09-3.51126E-09
 -1       158-3.11254E+03-4.07263E+04 2.51526E+04-7.68500E+03-1.73713E-08 8.30255E-09
 -1       159 3.92212E+04 2.49411E+05 8.70679E+04 2.59806E+04 1.65617E-08-6.96977E-09
 -1       160-3.67512E+04-2.45512E+05-1.25190E+04-3.67397E+03 1.07520E-08 7.51038E-09
 -1       161-6.99202E+05-1.08174E+05-1.60536E+04-2.11943E+05-3.48373E-08 3.29419E-09
 -1       162 1.42179E+05 1.23132E+04 1.44427E+05-3.43052E+04 3.93721E-08 1.01768E-08
 -1       163-6.83842E+05-7.80162E+04-4.51148E+04-2.19938E+05-1.45897E-08 6.83804E-09
 -1       164 8.19048E+04 1.95039E+04 1.15770E+05 2.76389E+04-6.65887E-09-8.36428E-09
 -1       165-6.37947E+05-1.17884E+05-5.25133E+04-2.72328E+05-5.20885E-08-8.98171E-09
 -1       166 3.21255E+04 6.05418E+04 1.09823E+05 7.79472E+04-1.27605E-07 1.53518E-08
 -1       167-6.35072E+05-1.16517E+05-5.38380E+04-2.71766E+05 3.05272E-09-1.29248E-08
 -1       168 7.81442E+04 1.26601E+04 1.08157E+05 2.88654E+04 5.02912E-08-2.96222E-09
 -1       169-6.82960E+05-7.25392E+04-5.58579E+04-2.21728E+05-1.09054E-05 3.83195E-06
 -1       170 1.19561E+05-3.06669E+04 1.05704E+05-2.45518E+04-2.15555E-05 6.93250E-06
 -1       171-6.77467E+05-7.06853E+04-5.84318E+04-2.19900E+05-1.08263E-05 3.81937E-06
 -1       172 7.43210E+04 8.69738E+03 9.64073E+04 2.84403E+04 5.99365E-08-1.83866E-08
 -1       173-6.36750E+05-1.14405E+05-7.59888E+04-2.73175E+05-3.67811E-08 4.90672E-09
 -1       174 1.82729E+04 3.81952E+04 5.51033E+04 8.08940E+04-1.85003E-07 6.03086E-09
 -1       175-6.22422E+05-9.76582E+04-1.45368E+05-2.73864E+05-3.92374E-08-4.22369E-09
 -1       191 1.01827E+03 5.85572E+05 1.62781E+03-1.54286E+04-4.47471E-10 2.09366E-09
 -1       192 3.38600E+02 5.85786E+05 8.88787E+02-1.64758E+04-3.18323E-10 5.55883E-09
 -1       193 9.55004E+01 5.85650E+05 5.71007E+02-1.51734E+04-1.18780E-09 6.05723E-10
 -1       194 2.40915E+02 5.85728E+05 6.92341E+02-1.69533E+04-1.00681E-09 5.47516E-09
 -1       195 6.98850E+02 5.85570E+05 1.14022E+03-1.49501E+04-1.99725E-09 3.53066E-09
 -1       266-7.93912E+04-3.66890E+04 1.83346E+05-2.86307E+02-1.45519E-11-6.60685E-09
 -1       267 9.19505E+04 4.28803E+04 1.30001E+05 3.29004E+02 1.38243E-10 2.00004E-09
 -1       268-1.25291E+04-6.13727E+03 4.81206E+04-4.28554E+01 1.09139E-11-9.25624E-10
 -1       269 1.47901E+04 7.36142E+03 3.14461E+04 4.98077E+01 1.34605E-10 9.81717E-09
 -1       270-2.25776E+03-1.22108E+03 1.50981E+04-6.95067E+00-1.05047E-10 1.75597E-08
 -1       271-8.29911E+06-1.04151E+06-6.56438E+05-3.22679E+06-6.40284E-10-1.77533E-09
 -1       272-8.62178E+06-1.40236E+06-4.17810E+05-3.12490E+06-1.48066E-09-7.43603E-09
 -1       273-8.41851E+06-1.19501E+06-1.54579E+05-3.20223E+06 1.94086E-09-3.25963E-09
 -1       274-8.47696E+06-1.21221E+06-8.54829E+04-3.16689E+06-4.97039E-10 1.25874E-09
 -1       275-8.43797E+06-1.20640E+06-3.59593E+04-3.19346E+06-7.43057E-10-9.79708E-09
 -1       276-8.44794E+06-1.20343E+06-1.89372E+04-3.18402E+06 1.63618E-09 4.21642E-09
 -1       277-8.44640E+06-1.20155E+06-9.74497E+03-3.18560E+06 2.89583E-09-6.68842E-09
 -1       278-8.43302E+06-1.21453E+06-7.25399E+03-3.19938E+06 3.27509E-09 1.11922E-08
 -1       279-8.45293E+06-1.19502E+06-8.60148E+03-3.17824E+06-2.68301E-09-2.68028E-09
 -1       280-8.42315E+06-1.22782E+06-1.59099E+04-3.21292E+06 6.78119E-09-5.22118E-09
 -1       281-8.45690E+06-1.18807E+06-2.96991E+04-3.17241E+06 6.97946E-09 9.28412E-09
 -1       282-8.42818E+06-1.25416E+06-7.05598E+04-3.22085E+06 1.03228E-09-1.44064E-09
 -1       283-8.44921E+06-1.17031E+06-1.27388E+05-3.17017E+06 4.36921E-09-5.92991E-09
 -1       284-8.53408E+06-1.42433E+06-3.44492E+05-3.20133E+06 5.11136E-09 2.73212E-09
 -1       285-8.35573E+06-1.03898E+06-5.41415E+05-3.18486E+06 9.53150E-10-4.42378E-09
 -1       286 2.75982E+06-1.40235E+05 3.23890E+05-6.60165E+03 1.38198E-09-4.90400E-09
 -1       287 2.90156E+06 1.62336E+05 2.29377E+05 5.09448E+03-2.92614E-09 1.01281E-08
 -1       288 2.81468E+06-2.20274E+04 8.39698E+04 4.97153E+02-9.12988E-07 1.67965E-08
 -1       289 2.83790E+06 2.54957E+04 5.29094E+04-1.05333E+03-1.83335E-06-6.86668E-10
 -1       290 2.82368E+06-3.46138E+03 2.17624E+04-4.54790E+02-1.74448E-06-1.70985E-09
 -1       291 2.82752E+06 4.08954E+03 1.32343E+04-2.38979E+02-1.67275E-06 1.10322E-09
 -1       292 2.82515E+06-6.27305E+02 6.90783E+03-3.17201E+02-9.59621E-07 9.14042E-10
 -1       293 2.82609E+06 1.30480E+03 6.29713E+03-3.31250E+02-2.47907E-07-4.24796E-09
 -1       294 2.82512E+06-6.77245E+02 7.35727E+03-3.62520E+02-1.45862E-06-4.61864E-09
 -1       295 2.82775E+06 4.51806E+03 1.45335E+04-4.75381E+02-2.66446E-06-2.08502E-10
 -1       296 2.82348E+06-3.83986E+03 2.41012E+04-1.73066E+02-3.03910E-06-1.69348E-09
 -1       297 2.83930E+06 2.83040E+04 5.87416E+04 6.70202E+02-3.41780E-06 9.05129E-09
 -1       298 2.81348E+06-2.44561E+04 9.32830E+04-1.50808E+03-1.69378E-06 1.40135E-08
 -1       299 2.91065E+06 1.80409E+05 2.54979E+05-7.97178E+03 1.20696E-08 7.87986E-09
 -1       300 2.75193E+06-1.55864E+05 3.59798E+05 8.46752E+03 2.36475E-08 2.22644E-09
 -1       301 3.18242E+04 1.30022E+04 1.02797E+05 3.75220E+04 1.60071E-10 3.47882E-09
 -1       302 1.29005E+04 3.45052E+04 8.42864E+04 4.62038E+04-1.68575E-09 8.07631E-10
 -1       303 4.38240E+03 1.84711E+04 1.00349E+05 3.74253E+04-7.27596E-12 2.21735E-09
 -1       304 4.60749E+04 6.01402E+04 1.90091E+05 4.63700E+04-1.99725E-09-8.45557E-09
 -1       305 1.27780E+05-1.25380E+04 3.53570E+05 3.70166E+04 2.91038E-10-4.38490E-09
 -1       306-2.04540E+06-2.56175E+05-1.31783E+05-7.81278E+05-5.11864E-09 1.77533E-09
 -1       307-2.08680E+06-3.51264E+05-8.37501E+04-7.87544E+05-5.46288E-09 1.41172E-08
 -1       308-2.06812E+06-2.87983E+05-3.11009E+04-7.77897E+05-1.21599E-09 2.26009E-09
 -1       309-2.06093E+06-3.10384E+05-1.72259E+04-7.92622E+05 2.16460E-10-7.04824E-09
 -1       310-2.07038E+06-2.91903E+05-7.27261E+03-7.78048E+05-2.50111E-10 8.23542E-09
 -1       311-2.05873E+06-3.05055E+05-3.89741E+03-7.91937E+05 1.53250E-09 4.79031E-09
 -1       312-2.07012E+06-2.92890E+05-2.09031E+03-7.78682E+05-3.29237E-10 4.20187E-10
 -1       313-2.05959E+06-3.03370E+05-1.74629E+03-7.90427E+05 7.13044E-10-2.20166E-09
 -1       314-2.06941E+06-2.93624E+05-2.31159E+03-7.79489E+05 3.54703E-10-3.82533E-09
 -1       315-2.06143E+06-3.02359E+05-4.45918E+03-7.88586E+05 9.14042E-11 3.56340E-09
 -1       316-2.06818E+06-2.94007E+05-8.46037E+03-7.80434E+05-1.45337E-09 4.98676E-09
 -1       317-2.06673E+06-3.05709E+05-2.00083E+04-7.85971E+05-3.49382E-09-2.56978E-09
 -1       318-2.06412E+06-2.90888E+05-3.62176E+04-7.81842E+05-2.33285E-09 1.06593E-09
 -1       319-2.09949E+06-3.50477E+05-9.73863E+04-7.76802E+05 7.24071E-10 3.71983E-09
 -1       320-2.03632E+06-2.55293E+05-1.53334E+05-7.87322E+05-1.68802E-09-1.70257E-09
 -1       321-1.03489E+06-1.90280E+04-1.26036E+03-5.53790E+04-1.62783E-08 1.53486E-08
 -1       322 7.66520E+04 6.82882E+04 2.12384E+05 8.05310E+04-6.80286E-08 3.60033E-08
 -1       323-1.55387E+06-4.85906E+04-1.35468E+05-1.64606E+04-2.26860E-08 1.32782E-08
 -1       324-1.41118E+05 3.60653E+03 1.40521E+05-4.33240E+04-3.01870E-08-2.41043E-08
 -1       325-8.16876E+05 4.35730E+04 1.16766E+04 6.84171E+04 1.34636E-08-1.88478E-08
 -1       326-9.81965E+04 3.16782E+03 1.44872E+05-5.11738E+04 2.26036E-08-2.49147E-08
 -1       327-1.59681E+06-4.77590E+04-1.53310E+05-8.61526E+03-8.99513E-09-9.54702E-09
 -1       328 3.09928E+04 1.88257E+04 1.72244E+05 7.50158E+04 3.13381E-09 2.19297E-08
 -1       329-9.46235E+05 2.92627E+04-1.82214E+04-5.77188E+04-8.94840E-09 1.78444E-08
 -1       330-2.75678E+05-1.87483E+04 1.03022E+05 1.68523E+04 4.24340E-08-1.94666E-09
 -1       331-1.28999E+06-1.28933E+04-9.26038E+04 4.95002E+04 6.72458E-09-1.33671E-08
 -1       332 1.00934E+05 3.24415E+04 1.83150E+05-8.85351E+04-7.26638E-08-2.93662E-08
 -1       333-1.32314E+06-1.83826E+04-1.08426E+05 4.76277E+04-5.30499E-08-1.38198E-08
 -1       334-2.60558E+05-3.44030E+03 8.75299E+04 1.91250E+04-3.49638E-09 1.95332E-08
 -1       335-9.28212E+05 1.95123E+04-6.20457E+04-5.81183E+04-3.96165E-08 2.40598E-08
 -1       336 3.23632E+02-1.25933E+06-4.67250E+03-4.27835E+04-7.50060E-09 7.84712E-09
 -1       337-8.65046E+01-1.26280E+06-9.18205E+03-2.71815E+05-1.29053E-08-2.98314E-10
 -1       338 2.41363E+03-1.25855E+06-1.58464E+04-4.15472E+04-9.71067E-09 4.13820E-09
 -1       339-1.83752E+04-1.27384E+06-3.97524E+04-2.72338E+05-1.43446E-08-9.72022E-10
 -1       340 1.67344E+04-1.24907E+06-6.11328E+04-4.22624E+04-8.17818E-09-3.77986E-09
 -1       356-9.35760E+05 1.81005E+04-6.37600E+04-5.69833E+04-3.18690E-09 1.66328E-08
 -1       357-2.77454E+05-4.32689E+03 8.39411E+04 1.75084E+04-5.98149E-09-4.82532E-09
 -1       358-1.29679E+06-1.60634E+04-1.03163E+05 4.78076E+04-2.29759E-08-1.30026E-08
 -1       359 8.53805E+04 3.19251E+04 1.79823E+05-8.70967E+04-2.82444E-08-3.22138E-08
 -1       360-1.29885E+06-1.47242E+04-9.48398E+04 4.75811E+04-5.61204E-09-1.36704E-08
 -1       361-2.81278E+05-1.79636E+04 1.01655E+05 1.82618E+04 2.30405E-08 4.00246E-09
 -1       362-9.29853E+05 3.04003E+04-1.56966E+04-5.75104E+04 5.84539E-08 2.08012E-08
 -1       363 8.06993E+03 1.72220E+04 1.65953E+05 7.25356E+04 3.94118E-08 3.39578E-08
 -1       364-1.58833E+06-4.73839E+04-1.54470E+05-6.64829E+03-3.43312E-08 9.38894E-09
 -1       365-1.02857E+05 2.42767E+03 1.38182E+05-5.23268E+04-1.07623E-07-3.18360E-08
 -1       366-8.18792E+05 4.40631E+04 2.62534E+02 6.73011E+04 6.10221E-08-3.05558E-08
 -1       367-1.72720E+05-1.07706E+04 1.08958E+05-3.96741E+04 1.03232E-07-1.36247E-08
 -1       368-1.51844E+06-3.47790E+04-1.71007E+05-1.92952E+04-3.57397E-08-5.91353E-09
 -1       369 3.56819E+04-1.20978E+04 9.78132E+04 7.99797E+04-7.15042E-08 2.01981E-08
 -1       370-1.02744E+06 4.76072E+04-1.67461E+05-5.22952E+04-7.80528E-09 1.66328E-08
 -1       371-3.16921E+04-2.04684E+05-9.16632E+03-2.91698E+03 3.83970E-08-4.06123E-09
 -1       372 2.85785E+04 2.04562E+05 6.29098E+04 2.20969E+04-7.84121E-09-4.95152E-09
 -1       373 2.48788E+03-3.65773E+04-6.87781E+02-6.55441E+03-2.90447E-09-1.81518E-09
 -1       374-8.17610E+03 3.01367E+04 1.13286E+03 2.57376E+04-1.70257E-09-2.88892E-09
 -1       375 5.87858E+03-3.13226E+04-1.96465E+04-6.53799E+03-1.20690E-08 1.00255E-09
 -1       406 6.67490E+02 5.83875E+05 1.77889E+03-2.78925E+04-2.68483E-09-1.47247E-09
 -1       407 6.17907E+02 5.84216E+05 2.76185E+03-3.03005E+04-1.53733E-09-1.04774E-09
 -1       408 1.29095E+03 5.83726E+05 5.03953E+03-2.76820E+04-3.51747E-09-1.58434E-08
 -1       409 5.26512E+03 5.85707E+05 1.11200E+04-3.06581E+04-2.72576E-09-2.10403E-08
 -1       410 1.51187E+04 5.82293E+05 2.25814E+04-2.75131E+04-4.22551E-09-8.56198E-09
 -1       501-1.09587E+06-1.92708E+05 1.21357E+05-6.30924E+04 5.05020E-08 3.42989E-08
 -1       502 6.36483E+05 1.76886E+05 3.71295E+05 1.36432E+05 5.94373E-08 5.97938E-08
 -1       503-4.30848E+05 1.95600E+04 5.14431E+04-5.69709E+04 2.93503E-08 4.29718E-08
 -1       504 8.56526E+05 3.27919E+04 2.68185E+05 7.13321E+04 6.94126E-09 3.77922E-08
 -1       505-1.31200E+06-5.44337E+04-1.85485E+05 2.13077E+03 3.43823E-08-5.92354E-09
 -1       506 1.20862E+06 4.69701E+04 3.11189E+05-7.70239E+04 6.54072E-08-4.40418E-08
 -1       507-7.79800E+05 2.07626E+03-8.96858E+04 9.07421E+04 9.15870E-08-7.33376E-08
 -1       508 5.48961E+05-1.30801E+04 1.62091E+05-1.60836E+05 5.55170E-08-1.13686E-07
 -1       509-6.59752E+05 1.52047E+04-6.79191E+04 8.66019E+04 1.01588E-07-6.44807E-08
 -1       510 1.08610E+06 3.28699E+04 2.76206E+05-8.53070E+04 8.75312E-08-5.91372E-08
 -1       511-1.31050E+06-5.25327E+04-2.01731E+05 1.45731E+04-2.97018E-09-3.22757E-10
 -1       512 9.43223E+05 2.28025E+04 2.48728E+05 6.13420E+04-7.54032E-08 2.82566E-08
 -1       513-5.18149E+05 2.66072E+04-3.27576E+04-5.94340E+04-2.72324E-08 4.87839E-08
 -1       514 5.87188E+05 5.08602E+04 1.96472E+05 1.37715E+05-2.12302E-08 6.98074E-08
 -1       515-9.59544E+05-7.34736E+04-1.09877E+05-6.19200E+04-3.68606E-08 3.05699E-08
 -1       521-8.23041E+06-1.02150E+06-5.28509E+05-3.13238E+06-5.04224E-09-1.15542E-08
 -1       522-8.42456E+06-1.37741E+06-3.36258E+05-3.12499E+06-1.52795E-09-3.11411E-09
 -1       523-8.32027E+06-1.15106E+06-1.24367E+05-3.11962E+06-2.61934E-10 8.33825E-09
 -1       524-8.32292E+06-1.20968E+06-6.88650E+04-3.14225E+06 1.34332E-09-8.39373E-09
 -1       525-8.32755E+06-1.16857E+06-2.89356E+04-3.12211E+06 4.42378E-09-2.73394E-09
 -1       526-8.31769E+06-1.18454E+06-1.54473E+04-3.13547E+06 1.12504E-09 6.35782E-09
 -1       527-8.32463E+06-1.17438E+06-8.12027E+03-3.12682E+06 1.35333E-09-3.47563E-09
 -1       528-8.32488E+06-1.17424E+06-6.64041E+03-3.12570E+06-1.77397E-09-3.63798E-12
 -1       529-8.32022E+06-1.17876E+06-8.44689E+03-3.13185E+06 1.22691E-09-2.99406E-09
 -1       530-8.33487E+06-1.16767E+06-1.63718E+04-3.11610E+06-6.25278E-10 1.84355E-09
 -1       531-8.31487E+06-1.18102E+06-3.07826E+04-3.13649E+06-3.91447E-09-4.82032E-10
 -1       532-8.35559E+06-1.17936E+06-7.33951E+04-3.10609E+06-4.61216E-09 7.72525E-09
 -1       533-8.30046E+06-1.16900E+06-1.32546E+05-3.14143E+06-4.27463E-09 8.36735E-10
 -1       534-8.47471E+06-1.34736E+06-3.58454E+05-3.07532E+06-2.97405E-09-3.35785E-09
 -1       535-8.20056E+06-1.03495E+06-5.63309E+05-3.15968E+06-3.41970E-10 6.51926E-09
 -1       536 2.28721E+05-2.09729E+04 7.55884E+04-7.74373E+03 9.33142E-10-3.25235E-09
 -1       537 2.58024E+05 2.60301E+04 4.95252E+04-4.69301E+04-4.22915E-09-3.41970E-10
 -1       538 2.40386E+05-2.48398E+03 1.95750E+04-7.82319E+03-4.73847E-10-2.73758E-09
 -1       539 2.44414E+05 2.72216E+03 1.12035E+04-4.67013E+04 2.57205E-09 8.34916E-10
 -1       540 2.41787E+05-3.46742E+02 4.93969E+03-7.96387E+03 4.01997E-10 9.97034E-10
 -1       541 2.42455E+05 2.79591E+02 2.67981E+03-4.64539E+04-1.88720E-10 1.98725E-09
 -1       542 2.41956E+05-5.45827E+01 1.25601E+03-8.07146E+03-3.53339E-10 3.24269E-09
 -1       543 2.42029E+05 8.07371E+01 7.02562E+02-4.62882E+04-1.57252E-09 4.47812E-10
 -1       544 2.41971E+05 3.05590E+00 4.08330E+02-8.12978E+03 2.60570E-10 4.24745E-09
 -1       545 2.41927E+05 1.04344E+02 3.69427E+02-4.62203E+04-1.11035E-09-4.64746E-09
 -1       546 2.41959E+05-6.53866E+00 4.68658E+02-8.13926E+03 6.77460E-10-4.34511E-10
 -1       547 2.42085E+05 2.89035E+02 9.17486E+02-4.62443E+04-1.46883E-09 2.18432E-09
 -1       548 2.41857E+05-1.88996E+02 1.54728E+03-8.10583E+03-8.33552E-10-1.93938E-09
 -1       549 2.43274E+05 2.07350E+03 3.89033E+03-4.62911E+04-2.18279E-11 4.73781E-09
 -1       550 2.40957E+05-1.68152E+03 5.88692E+03-8.09267E+03-2.53749E-10 5.43469E-09
 -1       551 1.21702E+04-3.77880E+05 3.32747E+04-5.71561E+05-7.59246E-09-2.65936E-09
 -1       552 1.08504E+04-3.73329E+05 4.14127E+04-7.05774E+05-7.75617E-09 6.83940E-10
 -1       553 8.66181E+03-3.80109E+05 6.66331E+04-5.70371E+05-7.81438E-09 1.60253E-09
 -1       554 4.23626E+04-3.49885E+05 1.40838E+05-7.05922E+05-8.76753E-09 1.41517E-09
 -1       555 1.02882E+05-4.02885E+05 2.68883E+05-5.70941E+05-8.10542E-09-1.98634E-09
 -1       556-1.68042E+05-1.42543E+05 2.55640E+04-2.30894E+05-1.14596E-08-1.63782E-08
 -1       557-1.35518E+05-1.73422E+05 1.30253E+04-2.58883E+05-1.69530E-09 2.72848E-11
 -1       558-1.68801E+05-1.48015E+05 5.35457E+03-2.26960E+05 1.81899E-09-9.34961E-10
 -1       559-1.38947E+05-1.77142E+05 2.68495E+03-2.60757E+05 4.08545E-09 5.81076E-09
 -1       560-1.69684E+05-1.47539E+05 1.14047E+03-2.27391E+05-4.75120E-09-1.15551E-08
 -1       561-1.40117E+05-1.76892E+05 5.73286E+02-2.61580E+05 7.80346E-10-1.96439E-09
 -1       562-1.70347E+05-1.47108E+05 1.96348E+02-2.27840E+05 3.80896E-09 5.97538E-09
 -1       563-1.40795E+05-1.76602E+05 3.25116E+01-2.62046E+05-1.27329E-11-2.33194E-09
 -1       564-1.70719E+05-1.46866E+05-1.75534E+02-2.28095E+05 3.85626E-10-6.66660E-09
 -1       565-1.41116E+05-1.76473E+05-4.75007E+02-2.62252E+05-4.00905E-09-1.06984E-08
 -1       566-1.70772E+05-1.46796E+05-1.05414E+03-2.28151E+05 1.10049E-10-2.04636E-09
 -1       567-1.41239E+05-1.76575E+05-2.34016E+03-2.62186E+05 6.07588E-09 1.13860E-08
 -1       568-1.70398E+05-1.47108E+05-4.82879E+03-2.27925E+05 1.40062E-10 1.12777E-09
 -1       569-1.43800E+05-1.79125E+05-1.13687E+04-2.61188E+05 1.51067E-09 1.37334E-09
 -1       570-1.68312E+05-1.53902E+05-2.26254E+04-2.24968E+05 6.83940E-10 3.88809E-10
 -1       571 4.05642E+05 1.64333E+04 2.46982E+04-9.75945E+04 7.63976E-11-1.46247E-09
 -1       572 4.09335E+05 5.65579E+03 1.21130E+04-1.07204E+05-8.49468E-10-4.79031E-09
 -1       573 4.07092E+05 1.30155E+03 5.38425E+03-9.73403E+04-1.07866E-09-4.94128E-09
 -1       574 4.07518E+05 4.06682E+02 2.70127E+03-1.07478E+05 6.31189E-10-2.55022E-09
 -1       575 4.07234E+05 3.71612E+01 1.27558E+03-9.73082E+04 1.70530E-09 1.51249E-09
 -1       576 4.07268E+05-1.93818E+00 6.52008E+02-1.07514E+05 1.07102E-09 2.45018E-09
 -1       577 4.07261E+05-2.90444E+01 3.24776E+02-9.73040E+04 1.05820E-09 5.01313E-09
 -1       578 4.07261E+05-3.09631E+01 1.84228E+02-1.07519E+05 9.44056E-10 1.44246E-09
 -1       579 4.07314E+05-5.00733E+01 1.23936E+02-9.73033E+04 6.79574E-09-3.15140E-09
 -1       580 4.07342E+05-6.82981E+01 1.35816E+02-1.07514E+05 1.71121E-08-6.65750E-10
 -1       581 4.07412E+05-9.49415E+01 2.03313E+02-9.73081E+04-1.70257E-09 2.85672E-09
 -1       582 4.07512E+05-7.91382E+01 4.04666E+02-1.07457E+05-1.86656E-08-3.46517E-10
 -1       583 4.07532E+05 7.97347E+00 7.81222E+02-9.73604E+04 1.77897E-09 3.18141E-09
 -1       584 4.07954E+05 5.98126E+02 1.75874E+03-1.07008E+05 1.85464E-08 2.42585E-09
 -1       585 4.07485E+05 2.13150E+03 3.56655E+03-9.77610E+04 1.18835E-08 1.91358E-09
 -1       586 2.09674E+02 1.75356E+05 9.14935E+02-2.29927E+05 1.02773E-10-7.45604E-09
 -1       587 7.37925E+02 1.75461E+05 2.80223E+03-2.56358E+05-3.24508E-09-8.33688E-09
 -1       588 1.56336E+03 1.74934E+05 5.94922E+03-2.29617E+05 2.18279E-11-7.81620E-09
 -1       589 6.16925E+03 1.77463E+05 1.35570E+04-2.56431E+05-3.38514E-09-1.66722E-08
 -1       590 1.74937E+04 1.73195E+05 2.75583E+04-2.29843E+05 8.36735E-11-1.25801E-08
 -1       591-1.79162E+05-5.36024E+04-3.85419E+04-8.57025E+04 1.92745E-09-2.07910E-09
 -1       592-1.82000E+05-5.20530E+04-1.94434E+04-9.57458E+04-1.12323E-10-1.41970E-08
 -1       593-1.81189E+05-4.31230E+04-8.25112E+03-9.10223E+04-1.30012E-09-9.45010E-09
 -1       594-1.77593E+05-4.72534E+04-4.05487E+03-9.60772E+04-3.06204E-09-4.86719E-09
 -1       595-1.81407E+05-4.28547E+04-1.87106E+03-9.12230E+04 2.13959E-10 1.64925E-09
 -1       596-1.77296E+05-4.70855E+04-9.44790E+02-9.60330E+04 4.18368E-10 5.10454E-10
 -1       597-1.81442E+05-4.28877E+04-5.06644E+02-9.12232E+04 2.01840E-09-7.38441E-09
 -1       598-1.77263E+05-4.70877E+04-3.90743E+02-9.60176E+04 8.70591E-09-1.56922E-09
 -1       599-1.81437E+05-4.28921E+04-4.78661E+02-9.12199E+04 7.35054E-09-2.78078E-09
 -1       600-1.77282E+05-4.70908E+04-8.70622E+02-9.60208E+04-5.63887E-10-5.27325E-09
 -1       601-1.81393E+05-4.28692E+04-1.71189E+03-9.12135E+04-4.52928E-10-3.17459E-09
 -1       602-1.77545E+05-4.72442E+04-3.70276E+03-9.60457E+04 1.06820E-09-1.62504E-09
 -1       603-1.81180E+05-4.31261E+04-7.53199E+03-9.10286E+04 7.00311E-10 1.10940E-08
 -1       604-1.81604E+05-5.15760E+04-1.77425E+04-9.56739E+04-3.82579E-09 1.12414E-09
 -1       605-1.79272E+05-5.27346E+04-3.51704E+04-8.62181E+04-1.34651E-09 1.38789E-09
 -1       606 1.35762E+05-1.58749E+04-2.55484E+04 4.23049E+04-9.95897E-09 1.62436E-09
 -1       607 1.31655E+05-5.27341E+03-1.25952E+04 4.65640E+04-1.03046E-09 3.50883E-09
 -1       608 1.34006E+05-1.06270E+03-5.61810E+03 4.20034E+04-8.60382E-10 4.39513E-09
 -1       609 1.33471E+05-2.59586E+02-2.82218E+03 4.68887E+04-2.04964E-08 4.97266E-09
 -1       610 1.33751E+05 5.77980E+01-1.33861E+03 4.19667E+04-1.82881E-08-6.34373E-10
 -1       611 1.33631E+05 1.13482E+02-6.72535E+02 4.69270E+04-1.64928E-08-1.32604E-09
 -1       612 1.33671E+05 1.21828E+02-3.19053E+02 4.19630E+04-9.58607E-09 3.59660E-09
 -1       613 1.33614E+05 1.43182E+02-1.41166E+02 4.69310E+04-1.18634E-08 8.45557E-09
 -1       614 1.33625E+05 1.31191E+02-3.09287E+01 4.19622E+04-3.43607E-09-5.89080E-09
 -1       615 1.33586E+05 1.58473E+02 6.65366E+01 4.69308E+04 9.34233E-09-4.18913E-09
 -1       616 1.33590E+05 1.49489E+02 1.92396E+02 4.19629E+04-2.70757E-09-1.56615E-09
 -1       617 1.33596E+05 2.25343E+02 4.40124E+02 4.69286E+04 7.90806E-10 2.92357E-09
 -1       618 1.33539E+05 3.32718E+02 8.90016E+02 4.19638E+04-7.85349E-10-9.88166E-10
 -1       619 1.33882E+05 1.02720E+03 2.00585E+03 4.69195E+04-1.92813E-10 3.91265E-09
 -1       620 1.33259E+05 2.69605E+03 4.07124E+03 4.19653E+04 2.73803E-09-2.05455E-09
 -1       621 1.35884E+03 4.09007E+05 4.83272E+03-2.79470E+04-9.14042E-11 9.09722E-10
 -1       622 6.36389E+02 4.09989E+05 4.93267E+03-3.45588E+04 7.21684E-10 3.93288E-09
 -1       623 3.42194E+02 4.09157E+05 7.09664E+03-2.79622E+04-2.01453E-10-1.58798E-09
 -1       624 3.61810E+03 4.12322E+05 1.44734E+04-3.44309E+04 7.30779E-10 2.74213E-09
 -1       625 9.98019E+03 4.06718E+05 2.74139E+04-2.80681E+04 1.00044E-10 5.10499E-09
 -1       626 2.46822E+05 7.94958E+04-4.54990E+03 1.56418E+05-4.43470E-09-9.13860E-09
 -1       627 2.41471E+05 8.58643E+04-2.16064E+03 1.60999E+05 4.39923E-09-1.16643E-09
 -1       628 2.46976E+05 8.15496E+04-9.10464E+02 1.55145E+05 3.92720E-09 4.92037E-10
 -1       629 2.41585E+05 8.69458E+04-4.31594E+02 1.61065E+05 7.78800E-09 2.68750E-09
 -1       630 2.46926E+05 8.17043E+04-1.86152E+02 1.55009E+05 6.94308E-09-2.01464E-09
 -1       631 2.41536E+05 8.70458E+04-6.90661E+01 1.61049E+05-6.52653E-09-4.30191E-10
 -1       632 2.46878E+05 8.17252E+04 1.08174E+01 1.54975E+05 2.94312E-09-2.36885E-08
 -1       633 2.41506E+05 8.70623E+04 9.68279E+01 1.61031E+05 2.44604E-08 1.24364E-08
 -1       634 2.46845E+05 8.17248E+04 2.31339E+02 1.54962E+05 1.12159E-08 6.36646E-10
 -1       635 2.41519E+05 8.70711E+04 5.17471E+02 1.61029E+05 1.44837E-09 1.03951E-08
 -1       636 2.46818E+05 8.17423E+04 1.06941E+03 1.54946E+05-6.64932E-09 5.33510E-09
 -1       637 2.41770E+05 8.73307E+04 2.38107E+03 1.60996E+05-4.72005E-09-1.31199E-08
 -1       638 2.46764E+05 8.25330E+04 4.92491E+03 1.54601E+05-1.41654E-09-4.19459E-09
 -1       639 2.44306E+05 9.15484E+04 1.17053E+04 1.59993E+05-1.89107E-09-2.16278E-09
 -1       640 2.46819E+05 9.48420E+04 2.46086E+04 1.49464E+05-5.45015E-09-2.86309E-09
 -1       641-2.67884E+04 4.77010E+03-1.09974E+04-7.07967E+01 7.15214E-05-1.55485E-07
 -1       642-3.15533E+04-5.52098E+03-7.78051E+03-8.75932E+00 1.42895E-04-2.98181E-07
 -1       643-2.86263E+04 7.49569E+02-2.83566E+03-7.94397E+01 1.32457E-04-2.98424E-07
 -1       644-2.94121E+04-8.65659E+02-1.76590E+03 7.09245E+00 1.21917E-04-2.61945E-07
 -1       645-2.89297E+04 1.15662E+02-6.82013E+02-8.66515E+01 7.80208E-05-1.84974E-07
 -1       646-2.90518E+04-1.23583E+02-3.29737E+02 1.61074E+01 3.40767E-05-8.68374E-08
 -1       647-2.89866E+04 7.63069E+00-1.17015E+01-8.84554E+01-2.77711E-05 6.53881E-08
 -1       648-2.89512E+04 5.76083E+01 2.76050E+02 1.34929E+01-8.96557E-05 2.07670E-07
 -1       649-2.90304E+04-6.55096E+01 6.36145E+02-8.40371E+01-1.55482E-04 3.61085E-07
 -1       650-2.87112E+04 5.03439E+02 1.54886E+03-1.11908E+00-2.21209E-04 4.80058E-07
 -1       651-2.92266E+04-4.38148E+02 2.69301E+03-7.38422E+01-1.10677E-04 2.38397E-07
 -1       652-2.73758E+04 3.23892E+03 6.67428E+03-2.69070E+01-7.85058E-08-6.54791E-09
 -1       653-3.03654E+04-2.80048E+03 1.06203E+04-5.82488E+01 1.38529E-09-1.99179E-10
 -1       654-1.93667E+04 2.06154E+04 2.90748E+04-6.90761E+01-1.80167E-08-2.27374E-09
 -1       655-3.72328E+04-1.78108E+04 4.10684E+04-3.16746E+01-1.24728E-08 5.74801E-09
 -1       656 1.55027E+04-5.83008E+05-6.60738E+04 1.61149E+04-2.04454E-09 4.21096E-09
 -1       657-2.27199E+04-6.07367E+05-4.90140E+04 6.74082E+04-1.93359E-09-1.75532E-10
 -1       658 3.19153E+03-5.91510E+05-3.19156E+04 1.59158E+04-1.55069E-09 4.19095E-09
 -1       659-2.23903E+04-6.07277E+05-4.84954E+04 6.75459E+04-2.13004E-09-2.87098E-09
 -1       660 1.53004E+04-5.83208E+05-6.50730E+04 1.59791E+04-4.60932E-09-4.52633E-09
 -1       661 3.60312E+05 5.03400E+04 2.86331E+04 1.41790E+05 9.94351E-09 1.90994E-09
 -1       662 3.66454E+05 6.69905E+04 1.72427E+04 1.46000E+05 5.81224E-10 6.12454E-09
 -1       663 3.64704E+05 5.46127E+04 6.72085E+03 1.41820E+05-2.51541E-09 2.11821E-09
 -1       664 3.61316E+05 6.00712E+04 3.54696E+03 1.46798E+05 6.04629E-09-1.05313E-08
 -1       665 3.65123E+05 5.50049E+04 1.56988E+03 1.41839E+05 1.87129E-09-8.26560E-10
 -1       666 3.60827E+05 5.94937E+04 8.35695E+02 1.46830E+05 2.41189E-09 5.93771E-09
 -1       667 3.65170E+05 5.50434E+04 4.86727E+02 1.41843E+05-3.16390E-10-4.51197E-09
 -1       668 3.60782E+05 5.94570E+04 4.67697E+02 1.46836E+05 4.77624E-09-2.12674E-09
 -1       669 3.65170E+05 5.50338E+04 6.82330E+02 1.41837E+05-7.13044E-09 2.27749E-09
 -1       670 3.60863E+05 5.95487E+04 1.36526E+03 1.46859E+05-4.43600E-09-6.83258E-09
 -1       671 3.65098E+05 5.49546E+04 2.67104E+03 1.41822E+05 3.22143E-09-2.41243E-09
 -1       672 3.61700E+05 6.05600E+04 6.10101E+03 1.46828E+05 1.89075E-08-7.01448E-09
 -1       673 3.64381E+05 5.42692E+04 1.15823E+04 1.41781E+05 4.43538E-09-2.16914E-09
 -1       674 3.70557E+05 7.25060E+04 2.97382E+04 1.45465E+05 2.00156E-08 9.78162E-10
 -1       675 3.56808E+05 4.68957E+04 4.93863E+04 1.41728E+05 1.16224E-08 1.07684E-09
 -1       676 6.14443E+02-5.20329E+05-4.22172E+03-2.58598E+02-6.30791E-09 6.56240E-09
 -1       677-1.74814E+03-5.21994E+05-6.31994E+03-3.10077E+03-6.73299E-09-5.38637E-09
 -1       678 8.10635E+02-5.20116E+05-9.56007E+03-2.64568E+02-5.49517E-09 8.03067E-09
 -1       679-1.06694E+04-5.27404E+05-2.25433E+04-3.08094E+03-1.60028E-08 2.28624E-09
 -1       680 7.56725E+03-5.14923E+05-3.51150E+04-2.81376E+02-7.31234E-10 3.27879E-09
 -1       716-4.77936E-01-2.27869E-01 2.13856E+01-9.80060E-04 2.65489E-09-3.47969E-09
 -1       717 2.35359E+00 1.71641E+00 3.76641E+01 2.49666E-03 1.29939E-09 1.44753E-09
 -1       718-1.87568E+00-1.48917E+00 6.98943E+01-1.51491E-03-7.12679E-10-3.82236E-09
 -1       719 1.11135E+01 1.16914E+01 1.44974E+02-2.26464E-03 4.74966E-09-1.32470E-09
 -1       720-9.23791E+00-1.02035E+01 2.76505E+02 3.78354E-03 3.75743E-09-2.77601E-09
 -1       721 5.75196E+01 7.79001E+01 5.90940E+02-7.98650E-02-1.17022E-08-1.01217E-10
 -1       722-4.82810E+01-6.76951E+01 1.10604E+03 7.60774E-02-7.43657E-09-2.90845E-09
 -1       723 3.12730E+02 5.08303E+02 2.43623E+03-7.66385E-01-1.86268E-09-3.84566E-09
 -1       724-2.64428E+02-4.40553E+02 4.41163E+03 6.90178E-01-6.30969E-09-3.26645E-09
 -1       725 1.77139E+03 3.27541E+03 1.01675E+04-5.89378E+00-3.81777E-09-2.86832E-09
 -1       726-1.50655E+03-2.83428E+03 1.74937E+04 5.20292E+00-4.83530E-09-1.18871E-09
 -1       727 1.03653E+04 2.09448E+04 4.31857E+04-4.14577E+01-9.46451E-09-1.07502E-09
 -1       728-8.85177E+03-1.81054E+04 6.87151E+04 3.62618E+01-1.65704E-09 3.16504E-10
 -1       729 6.21395E+04 1.33296E+05 1.88013E+05-2.78840E+02 7.02511E-09-8.73115E-10
 -1       730-5.31733E+04-1.15137E+05 2.65829E+05 2.42817E+02 1.75894E-08-2.59024E-09
 -1       766-1.15170E+05-5.33071E+04 2.65767E+05 1.64197E+01 1.52126E-07 4.11575E-05
 -1       767 1.33493E+05 6.22404E+04 1.87998E+05-6.43336E+02 3.94619E-07 8.22423E-05
 -1       768-1.82665E+04-8.96269E+03 6.84992E+04 1.77330E+02 1.96545E-07 4.11668E-05
 -1       769 2.21758E+04 1.09630E+04 4.32124E+04-8.40407E+02 8.90213E-09 3.83898E-08
 -1       770-3.90004E+03-2.13678E+03 1.64796E+04 2.13757E+02-1.81899E-10 5.75093E-09
 -1       771-3.30790E+06-5.86687E+05-8.49435E+04-1.35724E+06-3.05954E-09 2.29920E-09
 -1       772-3.30281E+06-5.93730E+05-4.27540E+04-1.39135E+06-2.02272E-09-1.89175E-10
 -1       773-3.31363E+06-5.62677E+05-1.82529E+04-1.36854E+06 3.58705E-09 8.17090E-09
 -1       774-3.29300E+06-5.83869E+05-8.92439E+03-1.39381E+06 1.22236E-09-8.45830E-11
 -1       775-3.31495E+06-5.61480E+05-4.19124E+03-1.36914E+06-3.63798E-09 5.64069E-09
 -1       776-3.29270E+06-5.83560E+05-2.09894E+03-1.39461E+06-6.53381E-09 1.07711E-08
 -1       777-3.31567E+06-5.61116E+05-1.18085E+03-1.36932E+06-1.30967E-09 7.28369E-09
 -1       778-3.29292E+06-5.83557E+05-9.19506E+02-1.39520E+06-9.24047E-10 2.05893E-09
 -1       779-3.31610E+06-5.60823E+05-1.19415E+03-1.36944E+06-1.72622E-09 1.35606E-09
 -1       780-3.29318E+06-5.83553E+05-2.19259E+03-1.39560E+06-2.29375E-09-3.49974E-09
 -1       781-3.31622E+06-5.60601E+05-4.35380E+03-1.36950E+06-9.38599E-10 5.09317E-11
 -1       782-3.29396E+06-5.83937E+05-9.44877E+03-1.39582E+06 1.73259E-09 3.40879E-09
 -1       783-3.31572E+06-5.61234E+05-1.92590E+04-1.36905E+06-1.03478E-09-7.13044E-10
 -1       784-3.30435E+06-5.95071E+05-4.54577E+04-1.39482E+06-1.59548E-09-1.82263E-09
 -1       785-3.31076E+06-5.85907E+05-9.01623E+04-1.35672E+06 1.08412E-09 1.47702E-09
 -1       786 2.95290E+05-9.56162E+03 3.50432E+04-1.46472E+03 4.94765E-10 3.83625E-09
 -1       787 3.08422E+05 1.21719E+04 2.28931E+04-8.90210E+03-6.50516E-10 3.90219E-09
 -1       788 3.00704E+05-1.07067E+03 9.09922E+03-1.47748E+03-5.43537E-10 2.54886E-09
 -1       789 3.02334E+05 1.32637E+03 5.17647E+03-8.87132E+03 7.01107E-10-2.50145E-09
 -1       790 3.01368E+05-1.22607E+02 2.31694E+03-1.49476E+03 1.79455E-10-2.93539E-10
 -1       791 3.01577E+05 1.42526E+02 1.25736E+03-8.84744E+03-4.00888E-11-1.19638E-09
 -1       792 3.01457E+05-1.53954E+01 6.36204E+02-1.50134E+03 4.35008E-10-1.48117E-09
 -1       793 3.01480E+05 1.96761E+01 4.22313E+02-8.84563E+03 3.62689E-10 1.22247E-09
 -1       794 3.01465E+05-8.44775E+00 3.82752E+02-1.49657E+03-5.08976E-10 3.75984E-09
 -1       795 3.01510E+05 5.78161E+01 5.82616E+02-8.86694E+03 1.11459E-09 7.11608E-09
 -1       796 3.01431E+05-5.28051E+01 9.90032E+02-1.48003E+03-5.58998E-10-1.07062E-09
 -1       797 3.01828E+05 5.45320E+02 2.16288E+03-8.90916E+03-8.14794E-10-4.15142E-09
 -1       798 3.01157E+05-4.47765E+02 3.78027E+03-1.45435E+03-3.22871E-10-3.15549E-09
 -1       799 3.04363E+05 5.04141E+03 9.50119E+03-8.95304E+03-9.74978E-10-1.45633E-10
 -1       800 2.98911E+05-3.97319E+03 1.45341E+04-1.43657E+03-1.38698E-11-3.05954E-09
 -1       801-2.92547E+04 6.90820E+05 7.91652E+04-2.63810E+05 1.43336E-08-6.57747E-09
 -1       802 6.86922E+04 7.15606E+05 9.54644E+04-1.49340E+06 4.15748E-08-4.67480E-09
 -1       803-4.52335E+03 6.90911E+05 1.04157E+05-2.64720E+05 2.59242E-08 1.21972E-08
 -1       804 1.49266E+05 7.61237E+05 2.28863E+05-1.49312E+06 4.23752E-08 1.44191E-08
 -1       805-9.95506E+04 6.45691E+05 3.26810E+05-2.64117E+05 1.32859E-08 1.53741E-08
 -1       806-2.84056E+05-8.75762E+04-2.75435E+04-1.44217E+05 2.47474E-09-1.36970E-09
 -1       807-2.83389E+05-8.17479E+04-1.30979E+04-1.53614E+05-1.88993E-09-1.02949E-08
 -1       808-2.84020E+05-7.38078E+04-5.51177E+03-1.50031E+05 5.72527E-10-6.55064E-10
 -1       809-2.80644E+05-7.69646E+04-2.66439E+03-1.54721E+05 2.42380E-09-1.28421E-09
 -1       810-2.84107E+05-7.29100E+04-1.20242E+03-1.50439E+05-4.27917E-10-2.64913E-09
 -1       811-2.80385E+05-7.66636E+04-5.92945E+02-1.54764E+05 6.02768E-10 5.58839E-09
 -1       812-2.84132E+05-7.28904E+04-2.91087E+02-1.50456E+05-2.27743E-10-1.97451E-09
 -1       813-2.80352E+05-7.66602E+04-1.78294E+02-1.54753E+05 2.67175E-09 3.01952E-09
 -1       814-2.84126E+05-7.29024E+04-1.58593E+02-1.50449E+05-3.96994E-10-2.92948E-09
 -1       815-2.80348E+05-7.66712E+04-2.40785E+02-1.54740E+05-3.70164E-10 3.20870E-09
 -1       816-2.84097E+05-7.29233E+04-4.47442E+02-1.50432E+05 3.81169E-09-4.45743E-09
 -1       817-2.80432E+05-7.67761E+04-9.70334E+02-1.54691E+05 1.18689E-08-1.76842E-08
 -1       818-2.84031E+05-7.32760E+04-1.99953E+03-1.50284E+05 5.97447E-09-2.75213E-09
 -1       819-2.81518E+05-7.83950E+04-4.74283E+03-1.54130E+05 7.24413E-10-1.27329E-10
 -1       820-2.83902E+05-7.83748E+04-9.97350E+03-1.48287E+05 3.70528E-09 9.08858E-09
 -1       821-3.85364E+05 1.32854E+04-4.87320E+04 1.53822E+03-4.24143E-09 4.02724E-09
 -1       822-4.03585E+05-1.69263E+04-3.18330E+04 1.04852E+04-2.26362E-09 2.36787E-09
 -1       823-3.92896E+05 1.48169E+03-1.26606E+04 1.42706E+03 1.69484E-09-8.86303E-10
 -1       824-3.95157E+05-1.82575E+03-7.20540E+03 1.06582E+04-5.13637E-09-6.05189E-09
 -1       825-3.93819E+05 1.69925E+02-3.24606E+03 1.36397E+03-1.17966E-08 3.70619E-11
 -1       826-3.94131E+05-1.69522E+02-1.79462E+03 1.07630E+04-1.47652E-08 2.19947E-09
 -1       827-3.93942E+05 2.60872E+01-9.79764E+02 1.32193E+03-1.28953E-08-7.03210E-10
 -1       828-3.94019E+05-2.65073E+00-7.84038E+02 1.08279E+04-1.44840E-08-3.83400E-09
 -1       829-3.93945E+05 2.60795E+01-9.14436E+02 1.29897E+03-3.13224E-09 1.14107E-09
 -1       830-3.94130E+05-1.41550E+02-1.62357E+03 1.08534E+04 5.26899E-09 2.80454E-09
 -1       831-3.93837E+05 1.57394E+02-2.90582E+03 1.29640E+03-9.66506E-09-6.75982E-10
 -1       832-3.95060E+05-1.61425E+03-6.43943E+03 1.08386E+04-7.98784E-09-3.96085E-09
 -1       833-3.93014E+05 1.33163E+03-1.13021E+04 1.31414E+03-3.90719E-09-3.65208E-09
 -1       834-4.02598E+05-1.50922E+04-2.84241E+04 1.07730E+04 2.64760E-09 2.31785E-09
 -1       835-3.86291E+05 1.18735E+04-4.35040E+04 1.36445E+03 1.55092E-09 3.13594E-09
 -1       836-4.35695E+03 6.19294E+05 4.94655E+04-3.35382E+04-6.06633E-09 4.14138E-09
 -1       837 1.16733E+04 6.35047E+05 3.80177E+04-7.22948E+04-5.03212E-09 8.64247E-10
 -1       838-1.04159E+03 6.24504E+05 3.23794E+04-3.34595E+04-6.97855E-09 6.93251E-09
 -1       839 1.95366E+04 6.40694E+05 5.57732E+04-7.22936E+04-5.65524E-09 4.95947E-09
 -1       840-7.88021E+03 6.13634E+05 8.52057E+04-3.35363E+04-6.12636E-09 4.54293E-09
 -1       841 1.17897E+05 1.68203E+04-6.18604E+02 4.41155E+04-2.28370E-09 4.19675E-10
 -1       842 1.17317E+05 1.66115E+04-4.10222E+02 4.46291E+04-1.86897E-08 7.59979E-09
 -1       843 1.17718E+05 1.67013E+04-1.38531E+02 4.42730E+04-2.51246E-05 9.46005E-06
 -1       844 1.17545E+05 1.67340E+04-7.63365E+01 4.44267E+04-5.02379E-05 1.89351E-05
 -1       845 1.17669E+05 1.66979E+04-9.32639E+00 4.43178E+04-3.19367E-05 1.20254E-05
 -1       846 1.17614E+05 1.67395E+04 3.59048E+01 4.43666E+04-1.36118E-05 5.13087E-06
 -1       847 1.17649E+05 1.66958E+04 9.69468E+01 4.43330E+04-7.65136E-06 2.87395E-06
 -1       848 1.17670E+05 1.67914E+04 2.46554E+02 4.43405E+04-1.69048E-06 6.46145E-07
 -1       849 1.17613E+05 1.66460E+04 4.55373E+02 4.43439E+04-7.33543E-07 2.75972E-07
 -1       850 1.17903E+05 1.71721E+04 1.15128E+03 4.42780E+04 2.19636E-07-8.92408E-08
 -1       851 1.17417E+05 1.63151E+04 1.98803E+03 4.43955E+04-2.75061E-06 1.03719E-06
 -1       852 1.19303E+05 1.95967E+04 5.36739E+03 4.38622E+04-5.72409E-06 2.15360E-06
 -1       853 1.16212E+05 1.42218E+04 8.58376E+03 4.47594E+04-1.46895E-05 5.55018E-06
 -1       854 1.27964E+05 3.49352E+04 2.54524E+04 4.10390E+04-2.36618E-05 8.90723E-06
 -1       855 1.08756E+05 9.79402E+02 3.66360E+04 4.72177E+04-1.18478E-05 4.44786E-06
 -1       856-3.07335E+05 4.66142E+03-3.71377E+04 1.08340E+04-7.34417E-09-4.17094E-09
 -1       857-3.19478E+05-8.92439E+03-2.26774E+04 2.63603E+04-6.73253E-09-1.01863E-08
 -1       858-3.12592E+05 4.43117E+02-9.53670E+03 1.06957E+04-1.07666E-08-8.63110E-09
 -1       859-3.13818E+05-5.72397E+02-5.12864E+03 2.65246E+04-1.71985E-09-7.57063E-09
 -1       860-3.13101E+05 9.00270E+01-2.40751E+03 1.06645E+04 1.05729E-09-1.04410E-09
 -1       861-3.13306E+05 7.46893E+01-1.26466E+03 2.65676E+04-6.15421E-09-2.99065E-09
 -1       862-3.13169E+05 6.01428E+01-6.59334E+02 1.06518E+04 1.03093E-08-3.43971E-09
 -1       863-3.13256E+05 1.26230E+02-4.34430E+02 2.65813E+04 2.62096E-08-1.15542E-08
 -1       864-3.13176E+05 5.76078E+01-4.06949E+02 1.06507E+04 9.44931E-09-8.33694E-09
 -1       865-3.13264E+05 1.04517E+02-6.11827E+02 2.65711E+04 4.39229E-09 5.21368E-10
 -1       866-3.13144E+05 6.58902E+01-1.08051E+03 1.06621E+04 1.23691E-10-1.84411E-09
 -1       867-3.13468E+05-1.85584E+02-2.25155E+03 2.65332E+04-1.83240E-09-1.91745E-09
 -1       868-3.12914E+05 2.10878E+02-4.17038E+03 1.06891E+04 5.37375E-09-1.03546E-09
 -1       869-3.15905E+05-3.84139E+03-9.89444E+03 2.63765E+04-3.20119E-09-4.87069E-09
 -1       870-3.10608E+05 2.03622E+03-1.62097E+04 1.08214E+04 7.27960E-09-6.17092E-09
 -1       871-5.84939E+03-4.91344E+04-1.27684E+04 1.70520E+05 3.32329E-09 6.19548E-09
 -1       872-2.17582E+03-5.17150E+04-4.23618E+03 2.07963E+05-2.15005E-09 7.29369E-09
 -1       873-1.92135E+02-5.07725E+04 2.72845E+03 1.70179E+05 2.66937E-09-6.53472E-10
 -1       874 3.00992E+03-4.80110E+04 1.17008E+04 2.08073E+05-2.83126E-09-6.21208E-09
 -1       875 9.61564E+03-5.30773E+04 2.51608E+04 1.70438E+05 1.93540E-09-2.16551E-09
 -1       876 4.84411E+05 6.99478E+04 4.27987E+04 1.92800E+05 2.54886E-10-4.14548E-09
 -1       877 4.92322E+05 9.36662E+04 2.54382E+04 2.00444E+05-9.17441E-09-3.93993E-09
 -1       878 4.90728E+05 7.53068E+04 1.00125E+04 1.93166E+05 1.34514E-09 3.93538E-09
 -1       879 4.84857E+05 8.39309E+04 5.23078E+03 2.01453E+05 8.10110E-09 5.56054E-09
 -1       880 4.91282E+05 7.58066E+04 2.32447E+03 1.93230E+05 1.19976E-08 5.88261E-09
 -1       881 4.84195E+05 8.31498E+04 1.21622E+03 2.01438E+05-9.74069E-10 8.48104E-10
 -1       882 4.91328E+05 7.58734E+04 6.79418E+02 1.93249E+05 5.63500E-09 1.84991E-09
 -1       883 4.84143E+05 8.30817E+04 5.98363E+02 2.01408E+05-1.82447E-08 1.70785E-09
 -1       884 4.91318E+05 7.58766E+04 8.20452E+02 1.93252E+05-9.10197E-09-1.18177E-09
 -1       885 4.84236E+05 8.31577E+04 1.59420E+03 2.01417E+05 9.60540E-09-1.57161E-09
 -1       886 4.91236E+05 7.58034E+04 3.11699E+03 1.93238E+05 5.05906E-11-1.04887E-09
 -1       887 4.85147E+05 8.41904E+04 7.04878E+03 2.01400E+05-8.02947E-09-3.21188E-09
 -1       888 4.90467E+05 7.51471E+04 1.35104E+04 1.93162E+05-1.11415E-08 3.29237E-10
 -1       889 4.95209E+05 9.73321E+04 3.43278E+04 2.00025E+05 1.76617E-08-5.07680E-09
 -1       890 4.81948E+05 6.79097E+04 5.77647E+04 1.92647E+05 1.00699E-08-3.73984E-09
 -1       891 6.63219E+02-2.29683E+05-9.25677E+03 5.17984E+04 7.94125E-09 2.72485E-09
 -1       892-2.39131E+03-2.32511E+05-6.91701E+03 1.12505E+05-5.33419E-10-1.02409E-09
 -1       893 8.14354E+01-2.30747E+05-5.62556E+03 5.16486E+04 2.31375E-09 6.03450E-10
 -1       894-3.50486E+03-2.33238E+05-9.37774E+03 1.12462E+05 4.43652E-09-3.64639E-09
 -1       895 1.10944E+03-2.28854E+05-1.42202E+04 5.18398E+04 2.44017E-09 4.61932E-09
 -1       926-1.10637E+03-1.50778E+03 3.37878E+03 7.21937E+01 1.16605E-09-1.73191E-09
 -1       927 1.08924E+03 1.74381E+03 2.54523E+03-2.84306E+02-4.81615E-09-2.15022E-09
 -1       928-4.29579E+02-2.37441E+02 9.19568E+02 6.97996E+01 6.51532E-11-1.00619E-09
 -1       929 2.47621E+02 2.82370E+02 7.46748E+02-2.82189E+02 2.24379E-09-9.02965E-10
 -1       930-2.65864E+02-4.58363E+01 4.79010E+02 7.00720E+01-1.73914E-10-3.88427E-10
 -1       931 5.30126E+01 1.16281E+02 7.33434E+02-2.82699E+02-5.01150E-10 2.46985E-11
 -1       932-2.35788E+02-7.08027E+01 1.13429E+03 7.03072E+01-3.72467E-10 4.34852E-11
 -1       933 2.02342E+02 5.02330E+02 2.42708E+03-2.82929E+02-2.24232E-09 5.98362E-10
 -1       934-4.15698E+02-4.31466E+02 4.33807E+03 7.03016E+01-2.79712E-06-1.26192E-09
 -1       935 1.59351E+03 3.20977E+03 9.97585E+03-2.82407E+02-5.59093E-06-2.95120E-09
 -1       936-1.62681E+03-2.77758E+03 1.71536E+04 6.97859E+01-2.79648E-06-1.32150E-09
 -1       937 1.00290E+04 2.05326E+04 4.23418E+04-2.83080E+02 5.48782E-09 9.00855E-10
 -1       938-8.84480E+03-1.77496E+04 6.73621E+04 7.09747E+01 1.30725E-08-1.45519E-11
 -1       939 6.08436E+04 1.30685E+05 1.84335E+05-3.38768E+02 7.40512E-10 7.27596E-11
 -1       940-5.23378E+04-1.12884E+05 2.60585E+05 1.25468E+02-8.91553E-11 1.19326E-09
 -1       956-4.38573E+05-8.06498E+03-1.88202E+04 5.31182E+04-5.33510E-09 7.43057E-10
 -1       957-4.42205E+05-2.59034E+03-9.58921E+03 6.30496E+04-1.63891E-09-3.33603E-09
 -1       958-4.40259E+05-2.03945E+02-4.32223E+03 5.27899E+04 5.54610E-09-4.24507E-09
 -1       959-4.40605E+05 4.79574E+01-2.20088E+03 6.34070E+04-4.82305E-09-3.21916E-09
 -1       960-4.40472E+05 1.48584E+02-1.07142E+03 5.27549E+04-1.09358E-08-7.49424E-10
 -1       961-4.40540E+05 1.87152E+02-5.61554E+02 6.34472E+04-1.80412E-08 2.52930E-09
 -1       962-4.40544E+05 1.69452E+02-3.12273E+02 5.27486E+04-5.93991E-09 8.31733E-10
 -1       963-4.40570E+05 2.09719E+02-2.32589E+02 6.34554E+04-6.31940E-09 1.65619E-09
 -1       964-4.40572E+05 1.84339E+02-2.62021E+02 5.27463E+04 1.01818E-09 3.13730E-09
 -1       965-4.40596E+05 2.19958E+02-4.35775E+02 6.34558E+04 9.35501E-09 5.02450E-09
 -1       966-4.40557E+05 1.92964E+02-8.10034E+02 5.27482E+04-5.64160E-09 1.08321E-09
 -1       967-4.40688E+05 1.38533E+02-1.65853E+03 6.34338E+04-1.72008E-09 3.42880E-09
 -1       968-4.40428E+05-5.22729E+01-3.25058E+03 5.27690E+04-8.94033E-10-2.85354E-09
 -1       969-4.41927E+05-1.83141E+03-7.21841E+03 6.32119E+04-2.12094E-09-5.47016E-09
 -1       970-4.39180E+05-5.96168E+03-1.41638E+04 5.29795E+04 3.53248E-09-2.63935E-09
 -1       971-5.59638E+05 1.58001E+03-2.46071E+04 1.40511E+04-3.02771E-09-3.30965E-09
 -1       972-5.67198E+05-5.06790E+03-1.46420E+04 2.89348E+04 7.51243E-10-4.23825E-10
 -1       973-5.62990E+05 1.83221E+02-6.27877E+03 1.38544E+04-2.94222E-09-2.55704E-09
 -1       974-5.63675E+05-2.24399E+02-3.33687E+03 2.91759E+04 4.62023E-09-3.20460E-09
 -1       975-5.63299E+05 7.32444E+01-1.61273E+03 1.38059E+04 4.30737E-09-2.13936E-09
 -1       976-5.63414E+05 1.10424E+02-8.91679E+02 2.92478E+04-5.44151E-09-3.73302E-09
 -1       977-5.63348E+05 7.11844E+01-5.67609E+02 1.37818E+04 7.83484E-09-7.49992E-09
 -1       978-5.63413E+05 1.40401E+02-5.60786E+02 2.92800E+04 2.34903E-08-2.28079E-09
 -1       979-5.63349E+05 7.97901E+01-8.11915E+02 1.37735E+04 8.61801E-09-7.45206E-09
 -1       980-5.63480E+05 1.07241E+02-1.52380E+03 2.92801E+04 1.31672E-08-8.34871E-09
 -1       981-5.63283E+05 1.09520E+02-2.90221E+03 1.37817E+04-5.94810E-10-6.76351E-09
 -1       982-5.64035E+05-4.74901E+02-6.10952E+03 2.92440E+04-4.17731E-09-7.18558E-09
 -1       983-5.62749E+05 3.44551E+02-1.15215E+04 1.38106E+04 6.70207E-09-5.86670E-09
 -1       984-5.70609E+05-9.34701E+03-2.69307E+04 2.90744E+04-2.84854E-09-4.37581E-09
 -1       985-5.56621E+05 2.95660E+03-4.52371E+04 1.39613E+04 5.80894E-09-4.02906E-09
 -3
 9999
